# vtk DataFile Version 2.0
Wound Healing Simulation
ASCII
DATASET UNSTRUCTURED_GRID
POINTS 3012 float
69.9759 18.75 4
67.2507 60.3285 4
69.976 18.75 2
73.0099 25.446 4
71.1327 20.9142 4
68.6801 16.6661 4
67.8266 19.926 3.98486
67.2507 60.3286 2
71.1327 54.0858 4
68.6801 58.3339 4
65.6939 62.2254 4
65.3134 59.0024 3.98599
74.6784 42.3946 4
73.7221 47.2057 4
69.9759 18.75 0
73.0099 25.446 2
68.6801 16.6661 2
71.1327 20.9142 2
67.8271 19.9285 2
74.6792 32.6053 4
73.7222 27.7943 4
72.1454 23.1494 4
70.6151 26.2215 3.9847
68.8868 21.9586 3.98495
67.2507 14.6715 4
66.6383 17.971 3.98539
65.7995 21.0245 3.97733
67.2507 60.3285 0
71.1327 54.0858 2
68.6801 58.3339 2
65.694 62.2255 2
65.3145 59.0005 2
72.1454 51.8506 4
69.9759 56.25 4
68.8372 53.1128 3.98405
64.0165 64.0165 4
66.6118 57.1346 3.98553
63.8869 60.7673 3.98772
63.503 57.7746 3.97986
60.3285 67.2507 4
74.6792 42.3947 2
73.7222 47.2057 2
74.9194 39.9526 4
74.2788 44.8158 4
72.1686 42.0857 3.98278
73.0099 49.554 4
71.25 46.5982 3.98371
73.0099 25.446 0
71.1327 20.9142 0
68.6801 16.6661 0
67.8266 19.926 0.0151377
74.6792 32.6053 2
73.7222 27.7943 2
67.2508 14.6715 2
72.1455 23.1494 2
70.6151 26.222 2
66.6392 17.9733 2
68.887 21.9606 2
65.7992 21.0245 2
74.9197 35.0474 4
74.2794 30.1841 4
72.1853 32.9433 3.98323
71.279 28.4315 3.98424
69.8165 24.0603 3.98488
68.3489 26.9512 3.97554
66.7646 22.9331 3.97634
65.694 12.7746 4
65.3251 16.1019 3.9868
64.7167 19.1928 3.97887
63.8894 22.0343 3.97319
71.1327 54.0858 0
65.6939 62.2254 0
68.6801 58.3339 0
65.3134 59.0024 0.0140099
72.1455 51.8506 2
69.9759 56.25 2
68.8375 53.1106 2
64.0165 64.0165 2
66.6127 57.132 2
63.888 60.7661 2
63.5031 57.7754 2
62.2254 65.694 4
58.8952 65.4149 3.99235
69.7697 50.9886 3.98404
67.7847 55.1675 3.98454
66.651 52.2096 3.97522
62.3372 62.4286 3.9898
64.6636 56.0336 3.97913
62.205 59.408 3.98112
61.8261 56.685 3.97611
58.3339 68.6801 4
60.3285 67.2508 2
73.7221 47.2057 0
74.6784 42.3946 0
74.9197 39.9526 2
74.2794 44.8159 2
72.1684 42.0857 2
73.0099 49.554 2
71.2501 46.5978 2
75 37.5 4
72.4058 39.8023 3.98271
71.7832 44.3531 3.98341
69.8051 41.79 3.97349
70.5758 48.8134 3.98379
68.9141 46.0155 3.97457
74.6792 32.6053 0
73.7222 27.7943 0
67.2507 14.6715 0
72.1454 23.1494 0
70.6151 26.2215 0.0153022
68.8868 21.9586 0.0150507
66.6383 17.971 0.0146128
65.7995 21.0245 0.0226654
74.9197 35.0474 2
74.2794 30.1841 2
72.1851 32.9434 2
71.279 28.4317 2
65.694 12.7745 2
65.3261 16.1034 2
69.8166 24.0616 2
68.3488 26.9514 2
64.7166 19.1922 2
66.7643 22.9333 2
63.8891 22.034 2
72.4136 35.2242 3.98271
71.8045 30.6763 3.98356
69.8412 33.268 3.97417
68.9681 29.0377 3.97528
67.6132 24.9119 3.9757
66.1967 27.6337 3.97208
64.0165 10.9835 4
64.7585 23.8295 3.97259
63.8913 14.3256 3.98836
63.5163 17.4433 3.98108
62.9101 20.3181 3.97429
62.094 22.9425 3.97099
60.6847 11.0965 3.99057
57.6131 11.4436 3.98469
72.1454 51.8506 0
69.9759 56.25 0
68.8372 53.1128 0.0159472
64.0165 64.0165 0
63.8869 60.7673 0.0122769
66.6118 57.1346 0.0144736
63.503 57.7746 0.0201388
62.2255 65.694 2
58.8957 65.4149 2
69.7699 50.9872 2
67.7852 55.1648 2
66.6507 52.2092 2
62.3381 62.4279 2
64.6636 56.0341 2
62.2052 59.409 2
61.8263 56.686 2
60.6697 63.9779 3.99126
57.0259 66.7358 3.993
57.559 63.6948 3.98644
67.509 50.1772 3.9746
65.704 54.1741 3.97658
64.5386 51.3861 3.9711
60.7746 60.9415 3.98282
62.8233 55.0708 3.97563
60.6609 58.1642 3.97702
60.3305 55.7894 3.97518
56.25 69.9759 4
58.3339 68.6801 2
60.3285 67.2507 0
58.9219 9.6548 3.99147
62.2254 9.30607 4
73.0099 49.554 0
74.2788 44.8158 0
71.25 46.5982 0.0162883
72.1686 42.0857 0.0172186
74.9194 39.9526 0
75 37.5 2
72.4057 39.8024 2
71.7831 44.3527 2
69.8048 41.7898 2
70.5759 48.8127 2
68.9141 46.0152 2
72.4891 37.5121 3.98251
70.0419 39.6575 3.97317
69.4319 43.9081 3.97423
67.5982 41.4981 3.97001
68.2674 48.1077 3.9743
66.7118 45.4411 3.97116
74.9197 35.0474 0
74.2794 30.1841 0
72.1853 32.9433 0.0167704
71.279 28.4315 0.0157578
65.694 12.7746 0
65.3251 16.1019 0.0132004
69.8165 24.0603 0.0151162
68.3489 26.9512 0.0244558
66.7646 22.9331 0.0236642
64.7167 19.1928 0.0211337
63.8894 22.0343 0.0268067
72.4135 35.2241 2
71.8045 30.6765 2
69.841 33.2682 2
68.9682 29.0379 2
64.0165 10.9835 2
63.8922 14.3265 2
63.5165 17.4423 2
67.613 24.9122 2
66.1966 27.6337 2
62.9101 20.3173 2
64.7582 23.8293 2
62.0938 22.9423 2
60.6854 11.097 2
57.6133 11.4429 2
70.0586 35.3918 3.97327
69.4684 31.1492 3.97437
67.6566 33.5904 3.97077
66.7743 29.6217 3.9714
65.5258 25.6987 3.97219
64.1482 28.2544 3.97111
62.3426 12.6537 3.98951
62.8578 24.6368 3.97111
62.2014 15.7806 3.98261
61.8173 18.6806 3.9767
61.2194 21.34 3.97142
60.425 23.7274 3.97053
59.2472 12.7751 3.98317
55.8749 10.2303 3.98623
56.406 13.1085 3.98138
69.7697 50.9886 0.0159631
62.2254 65.694 0
58.8952 65.4149 0.00765234
67.7847 55.1675 0.0154581
66.651 52.2096 0.0247833
62.3372 62.4286 0.0101965
62.205 59.408 0.0188829
64.6636 56.0336 0.0208697
61.8261 56.685 0.0238933
60.6703 63.9776 2
57.0263 66.7358 2
57.5591 63.6959 2
67.5088 50.1767 2
65.7038 54.1741 2
64.5384 51.3861 2
60.7749 60.9427 2
62.8233 55.0716 2
60.6612 58.1653 2
60.3308 55.7901 2
55.0713 67.9327 3.99323
59.2204 62.3695 3.98397
55.8058 64.9127 3.98857
56.328 62.0947 3.98263
65.3329 49.4092 3.97063
63.7074 53.2935 3.97196
62.4412 50.653 3.96914
59.3352 59.5619 3.97987
61.0791 54.3119 3.9745
59.2913 57.0165 3.97374
59.2441 55.1855 3.97655
48.1038 68.5803 3.98957
50.9489 69.9323 3.99349
54.0858 71.1327 4
56.25 69.976 2
58.3339 68.6801 0
57.0592 8.33492 3.9918
60.3285 7.74928 4
58.9225 9.65509 2
62.2255 9.30602 2
70.5758 48.8134 0.0162062
71.7832 44.3531 0.0165877
68.9141 46.0155 0.0254349
69.8051 41.79 0.0265052
72.4058 39.8023 0.0172862
75 37.5 0
72.4889 37.5121 2
70.0419 39.6574 2
69.4319 43.9079 2
67.598 41.4981 2
68.2674 48.1073 2
66.7117 45.441 2
70.1299 37.5215 3.97322
67.8351 39.5126 3.96978
67.2253 43.4709 3.97062
65.5564 41.2105 3.96988
66.07 47.419 3.97072
64.6542 44.8495 3.97033
72.4136 35.2242 0.0172894
71.8045 30.6763 0.0164449
69.8412 33.268 0.0258303
68.9681 29.0377 0.0247196
64.0165 10.9835 0
63.8913 14.3256 0.011638
63.5163 17.4433 0.0189158
67.6132 24.9119 0.0242981
66.1967 27.6337 0.0279164
64.7585 23.8295 0.0274128
62.9101 20.3181 0.0257062
62.094 22.9425 0.0290064
60.6847 11.0965 0.00943303
57.6131 11.4436 0.0153052
70.0585 35.3919 2
69.4685 31.1493 2
67.6565 33.5904 2
66.7744 29.6217 2
62.3433 12.6544 2
62.2015 15.7797 2
61.8175 18.6794 2
65.5256 25.6986 2
64.1481 28.2543 2
61.2196 21.3395 2
62.8576 24.6366 2
60.4249 23.7273 2
59.2473 12.7746 2
56.406 13.1075 2
55.8751 10.2295 2
67.871 35.5472 3.96996
67.2665 31.6218 3.97059
65.6989 33.9267 3.97031
64.6647 30.191 3.97022
63.5392 26.4134 3.97112
62.259 28.7767 3.97164
60.7768 14.2197 3.98291
61.0446 25.3373 3.97113
60.6157 17.1228 3.97956
60.2249 19.8132 3.97355
59.6607 22.2581 3.96968
58.9756 24.3206 3.97184
54.038 9.13348 3.98704
57.9114 14.3273 3.98127
54.7873 12.0077 3.98279
55.3131 14.641 3.97994
67.509 50.1772 0.0253985
57.0259 66.7358 0.00699731
60.6697 63.9779 0.00874244
57.559 63.6948 0.0135637
65.704 54.1741 0.0234232
64.5386 51.3861 0.0289023
60.7746 60.9415 0.0171804
60.6609 58.1642 0.022984
62.8233 55.0708 0.0243667
60.3305 55.7894 0.0248214
55.0717 67.9328 2
59.2206 62.3706 2
55.8057 64.9136 2
56.3281 62.096 2
65.3327 49.4091 2
63.7073 53.2939 2
62.4411 50.653 2
59.3354 59.5633 2
61.0794 54.3125 2
59.2918 57.0173 2
59.2446 55.1859 2
53.0431 69.0006 3.99342
53.9681 66.0149 3.98924
57.8819 60.8746 3.98125
54.6849 63.212 3.98469
55.2124 60.6217 3.98074
63.1943 48.6621 3.96917
61.7407 52.5761 3.96956
60.2706 50.0195 3.96867
58.0197 58.2658 3.97616
59.3278 53.9485 3.97359
58.1275 55.8133 3.97192
50.1105 67.8583 3.98953
47.4641 66.5841 3.98711
46.0573 69.1597 3.98959
48.1037 68.5808 2
48.803 70.7236 3.99359
50.9492 69.9325 2
51.8506 72.1454 4
54.0858 71.1327 2
56.25 69.9759 0
55.1035 7.13949 3.99209
58.3339 6.31992 4
57.0597 8.33498 2
60.3286 7.74926 2
58.9219 9.6548 0.00853156
62.2254 9.30607 0
68.2674 48.1077 0.0256969
69.4319 43.9081 0.0257704
66.7118 45.4411 0.0288407
67.5982 41.4981 0.0299861
70.0419 39.6575 0.0268334
72.4891 37.5121 0.0174909
70.1298 37.5215 2
67.835 39.5125 2
67.2252 43.4708 2
65.5561 41.2104 2
66.07 47.4189 2
64.6541 44.8495 2
67.9313 37.5219 3.96982
65.7866 39.3706 3.96976
65.1774 43.0262 3.97012
63.7471 40.9302 3.97131
63.9663 46.7177 3.96969
62.8084 44.2174 3.97164
70.0586 35.3918 0.0267303
69.4684 31.1492 0.0256326
67.6566 33.5904 0.0292255
66.7743 29.6217 0.0286015
62.3426 12.6537 0.0104937
62.2014 15.7806 0.0173928
61.8173 18.6806 0.0232962
65.5258 25.6987 0.0278109
64.1482 28.2544 0.0288948
62.8578 24.6368 0.028887
61.2194 21.34 0.0285797
60.425 23.7274 0.0294724
59.2472 12.7751 0.0168324
56.406 13.1085 0.0186224
55.8749 10.2303 0.0137747
67.8709 35.5472 2
67.2666 31.6217 2
65.6987 33.9267 2
64.6647 30.1909 2
60.7768 14.219 2
60.6157 17.1216 2
60.2253 19.8122 2
63.5391 26.4133 2
62.259 28.7766 2
59.6609 22.2577 2
61.0444 25.3373 2
58.9755 24.3208 2
57.9112 14.3264 2
55.3129 14.6401 2
54.0381 9.13275 2
54.7873 12.0066 2
65.8759 35.6665 3.96969
65.1868 32.1536 3.9697
64.2804 34.2495 3.9708
62.5945 30.635 3.97102
61.6516 27.0714 3.97122
60.8489 29.1395 3.97339
59.3124 15.6641 3.9809
59.3264 25.7963 3.97243
59.1258 18.3511 3.9774
58.7399 20.8528 3.97028
58.2817 23.0936 3.96941
57.9632 24.6648 3.97214
52.1127 8.15172 3.98771
53.0583 11.0138 3.98372
56.6776 15.7374 3.98043
53.8098 13.6759 3.98112
54.3767 15.9935 3.97996
55.0713 67.9327 0.00676817
65.3329 49.4092 0.0293712
55.8058 64.9127 0.0114289
59.2204 62.3695 0.0160258
56.328 62.0947 0.0173737
63.7074 53.2935 0.0280373
62.4412 50.653 0.030857
59.3352 59.5619 0.0201274
59.2913 57.0165 0.0262609
61.0791 54.3119 0.0254983
59.2441 55.1855 0.0234495
53.0435 69.0007 2
53.968 66.0156 2
57.882 60.8759 2
54.6848 63.2132 2
55.2124 60.6232 2
63.1942 48.662 2
61.7408 52.5764 2
60.2705 50.0194 2
58.0202 58.2672 2
59.3284 53.9486 2
58.1281 55.8133 2
52.0716 67.0014 3.98945
52.9543 64.2226 3.98631
56.6494 59.4937 3.97949
53.6821 61.6281 3.98253
54.2609 59.3271 3.97852
60.9867 47.8808 3.9692
59.706 52.1047 3.96936
58.0157 49.6159 3.97045
56.7776 56.9902 3.97364
57.1191 54.1204 3.97156
50.1104 67.8589 2
49.338 65.9244 3.98715
47.4639 66.5847 2
46.8933 64.7406 3.98577
45.5591 67.1013 3.98691
43.9741 69.5919 3.98947
46.0573 69.1601 2
46.6096 71.3681 3.9936
48.1038 68.5803 0.0104341
48.8033 70.7238 2
49.554 73.0099 4
50.9489 69.9323 0.0065063
51.8506 72.1455 2
54.0858 71.1327 0
53.0646 6.07092 3.99237
55.1039 7.13942 2
56.25 5.02411 4
58.3339 6.3199 2
57.0592 8.33492 0.00820344
60.3285 7.74928 0
66.07 47.419 0.029282
67.2253 43.4709 0.0293841
64.6542 44.8495 0.029666
65.5564 41.2105 0.0301198
67.8351 39.5126 0.0302235
70.1299 37.5215 0.0267778
67.9312 37.5219 2
65.7865 39.3705 2
65.1773 43.0262 2
63.7471 40.9302 2
63.9662 46.7176 2
62.8081 44.2173 2
65.8896 37.5018 3.96964
63.8819 39.2671 3.97098
63.3239 42.5509 3.97134
62.4106 40.6984 3.97283
61.967 45.92 3.97095
61.4433 43.6844 3.9736
67.871 35.5472 0.0300393
67.2665 31.6218 0.0294093
65.6989 33.9267 0.0296858
64.6647 30.191 0.0297806
60.7768 14.2197 0.0170862
60.6157 17.1228 0.0204383
60.2249 19.8132 0.0264501
63.5392 26.4134 0.028881
62.259 28.7767 0.0283558
61.0446 25.3373 0.0288709
59.6607 22.2581 0.0303248
58.9756 24.3206 0.0281584
57.9114 14.3273 0.0187328
55.3131 14.641 0.0200558
54.038 9.13348 0.0129559
54.7873 12.0077 0.0172146
65.8759 35.6665 2
65.1869 32.1535 2
64.2805 34.2494 2
62.5947 30.6349 2
59.3123 15.6631 2
59.1261 18.3499 2
58.7406 20.852 2
61.6514 27.0713 2
60.8491 29.1395 2
58.282 23.0938 2
59.3267 25.7965 2
57.9632 24.6651 2
56.6773 15.7364 2
54.3764 15.9925 2
53.8098 13.6748 2
52.1127 8.15111 2
53.0583 11.0129 2
64.0784 35.6322 3.97066
62.921 33.046 3.97113
60.6089 30.6112 3.97322
59.565 27.9098 3.97304
57.9409 16.9785 3.97986
57.7308 25.7261 3.97344
57.7154 19.473 3.9748
57.3674 21.8422 3.96813
57.1796 23.9485 3.97124
50.1127 7.2835 3.98822
51.2328 10.1218 3.98464
52.1722 12.7931 3.98232
55.5381 16.9672 3.98002
52.9776 15.2586 3.97918
53.7582 16.9756 3.98047
53.0431 69.0006 0.00657848
53.9681 66.0149 0.0107643
63.1943 48.6621 0.0308258
54.6849 63.212 0.015307
57.8819 60.8746 0.0187484
55.2124 60.6217 0.0192634
61.7407 52.5761 0.0304379
60.2706 50.0195 0.0313251
58.0197 58.2658 0.0238436
58.1275 55.8133 0.0280846
59.3278 53.9485 0.0264089
52.0715 67.002 2
52.9541 64.2235 2
56.6496 59.4952 2
53.682 61.6294 2
54.261 59.3286 2
60.9863 47.8807 2
59.7063 52.1046 2
58.0151 49.6155 2
56.7777 56.9938 2
57.1198 54.1204 2
51.1689 65.1315 3.98691
52.0471 62.544 3.98436
55.4816 58.2546 3.97839
52.8351 60.1413 3.98043
53.6403 58.4769 3.98003
58.2915 46.8487 3.97329
57.5531 51.7838 3.9694
56.2315 49.5518 3.97287
55.4709 55.7891 3.97113
55.351 53.3772 3.9697
50.1105 67.8583 0.0104727
49.3377 65.9251 2
48.619 64.1272 3.98568
47.4641 66.5841 0.0128904
45.5589 67.1018 2
46.893 64.7412 2
46.3827 63.0588 3.98488
45.1335 65.2017 3.98571
43.632 67.4718 3.9869
41.8611 69.8793 3.98924
43.9742 69.5925 2
44.3769 71.8629 3.99349
46.0573 69.1597 0.0104108
46.6099 71.3683 2
47.2057 73.7222 4
48.803 70.7236 0.00641373
49.554 73.0099 2
51.8506 72.1454 0
50.9543 5.13119 3.99267
53.0649 6.0708 2
54.0858 3.86728 4
55.1035 7.13949 0.00790731
56.25 5.02406 2
58.3339 6.31992 0
63.9663 46.7177 0.0303089
65.1774 43.0262 0.0298761
62.8084 44.2174 0.0283563
63.7471 40.9302 0.0286889
65.7866 39.3706 0.030243
67.9313 37.5219 0.0301751
65.8895 37.5018 2
63.8818 39.2671 2
63.3238 42.5509 2
62.4107 40.6984 2
61.9665 45.9199 2
61.4428 43.6843 2
63.9437 37.4571 3.97088
62.1248 39.3555 3.97222
61.1949 41.9592 3.97338
60.246 44.7716 3.97408
65.8759 35.6665 0.0303089
65.1868 32.1536 0.0302955
64.2804 34.2495 0.0292044
62.5945 30.635 0.0289798
59.3124 15.6641 0.0191007
59.1258 18.3511 0.0226011
58.7399 20.8528 0.0297194
61.6516 27.0714 0.0287794
60.8489 29.1395 0.0266118
59.3264 25.7963 0.0275693
58.2817 23.0936 0.0305925
57.9632 24.6648 0.02786
56.6776 15.7374 0.0195689
54.3767 15.9935 0.0200418
53.8098 13.6759 0.0188799
52.1127 8.15172 0.0122948
53.0583 11.0138 0.0162789
64.0785 35.6322 2
62.9211 33.0459 2
60.6092 30.6112 2
57.9408 16.9774 2
57.716 19.4718 2
57.3682 21.8426 2
59.5653 27.91 2
57.1796 23.949 2
57.7313 25.7264 2
50.1127 7.28293 2
55.5378 16.9662 2
53.758 16.9746 2
52.9774 15.2574 2
52.1721 12.7922 2
51.2327 10.1211 2
62.1603 35.3596 3.97177
60.2673 32.7453 3.9731
58.6075 30.0756 3.97463
57.2725 27.3821 3.97463
56.6368 18.1519 3.97952
56.2808 25.102 3.97244
56.3553 20.5215 3.97082
56.1017 22.874 3.96739
48.0565 6.52648 3.98871
49.3246 9.32948 3.98515
50.4333 11.9908 3.98285
51.3776 14.494 3.98102
54.4147 17.9164 3.98081
52.3605 17.0319 3.97849
52.0716 67.0014 0.0105454
52.9543 64.2226 0.0136899
60.9867 47.8808 0.0308006
53.6821 61.6281 0.0174681
56.6494 59.4937 0.0205103
54.2609 59.3271 0.0214836
59.706 52.1047 0.0306419
58.0157 49.6159 0.0295496
56.7776 56.9902 0.0263629
57.1191 54.1204 0.028437
51.1686 65.1322 2
52.0469 62.5451 2
55.4817 58.2561 2
52.8352 60.1426 2
53.6404 58.4784 2
58.2914 46.8485 2
57.5535 51.7836 2
56.231 49.5513 2
55.4717 55.7899 2
55.3518 53.3775 2
50.3472 63.3855 3.98516
51.2449 60.9414 3.98201
54.2189 57.2711 3.97852
52.3129 58.6397 3.9783
56.6795 44.1822 3.97661
55.4721 47.894 3.97492
55.0574 51.3835 3.96969
53.9994 54.5362 3.96953
49.338 65.9244 0.0128518
48.6188 64.1279 2
47.9629 62.4801 3.9846
45.5591 67.1013 0.0130852
46.8933 64.7406 0.0142295
43.6319 67.4725 2
46.3825 63.0596 2
45.1332 65.2024 2
45.9884 61.5919 3.9843
44.7679 63.4595 3.98512
43.3573 65.5111 3.98561
41.6639 67.6906 3.98675
39.7026 70.0264 3.98917
41.8612 69.8799 2
42.1112 72.2077 3.99332
43.9741 69.5919 0.0105321
44.3772 71.8632 2
44.8159 74.2794 4
46.6096 71.3681 0.00639596
47.2057 73.7222 2
49.554 73.0099 0
48.7847 4.32212 3.99295
50.9546 5.131 2
51.8506 2.85458 4
53.0646 6.07092 0.00763003
54.0858 3.86728 2
56.25 5.02411 0
61.967 45.92 0.0290506
63.3239 42.5509 0.0286586
61.4433 43.6844 0.0263954
62.4106 40.6984 0.0271692
63.8819 39.2671 0.0290196
65.8896 37.5018 0.0303644
63.9433 37.4571 2
62.1246 39.3555 2
61.1947 41.9591 2
60.2454 44.7714 2
61.9589 37.4449 3.97211
60.2097 39.8476 3.97415
58.9612 42.9187 3.97518
64.0784 35.6322 0.0293444
62.921 33.046 0.0288745
60.6089 30.6112 0.0267833
57.9409 16.9785 0.0201366
57.7154 19.473 0.0251974
57.3674 21.8422 0.0318705
59.565 27.9098 0.0269553
57.7308 25.7261 0.0265603
57.1796 23.9485 0.0287603
55.5381 16.9672 0.0199761
53.7582 16.9756 0.019534
52.9776 15.2586 0.0208245
50.1127 7.2835 0.0117803
52.1722 12.7931 0.0176811
51.2328 10.1218 0.0153607
62.1601 35.3596 2
60.2676 32.7453 2
58.6071 30.0759 2
56.6369 18.1506 2
56.3558 20.519 2
56.1022 22.8747 2
57.2733 27.3823 2
56.2811 25.1028 2
48.0565 6.52592 2
49.3245 9.3289 2
54.4146 17.9153 2
52.3603 17.031 2
51.3774 14.4929 2
50.4331 11.99 2
59.849 35.1198 3.97325
57.9649 32.2703 3.97607
56.5245 29.341 3.97561
55.4273 26.6002 3.97489
55.341 19.1857 3.97795
54.9175 24.0609 3.97085
54.9956 21.5663 3.969
45.9623 5.88146 3.98912
43.3736 7.47205 3.98673
47.355 8.62301 3.98572
48.6001 11.292 3.98339
49.7138 13.7407 3.98177
50.6329 16.1286 3.97971
53.1234 18.6561 3.97688
51.3004 18.0454 3.98439
51.1689 65.1315 0.0130933
52.0471 62.544 0.0156385
58.2915 46.8487 0.0267096
52.8351 60.1413 0.0195696
55.4816 58.2546 0.0216063
53.6403 58.4769 0.0199688
57.5531 51.7838 0.0305952
56.2315 49.5518 0.0271277
55.4709 55.7891 0.0288676
55.351 53.3772 0.0302953
50.3469 63.3862 2
51.2448 60.9426 2
54.2192 57.2726 2
52.313 58.6408 2
56.6783 44.1819 2
55.4715 47.8935 2
55.0579 51.3831 2
54.0004 54.5379 2
49.5926 61.7501 3.98394
55.5715 41.7035 3.97714
50.5673 59.334 3.9784
52.1832 56.4936 3.97411
54.1389 45.5606 3.97731
53.3068 49.3237 3.97277
52.6562 52.8389 3.96685
48.619 64.1272 0.0143171
47.9627 62.4808 2
47.3302 61.015 3.98386
43.632 67.4718 0.0131028
45.1335 65.2017 0.0142859
46.3827 63.0588 0.0151203
41.6638 67.6912 2
43.3571 65.5119 2
45.9883 61.5928 2
44.7677 63.4603 2
45.7671 60.6365 3.98324
44.4842 61.8414 3.98401
43.1471 63.7317 3.98469
41.5466 65.6487 3.98523
39.6328 67.7703 3.98651
37.5259 70.0516 3.98906
39.7026 70.0271 2
39.8179 72.4048 3.9932
41.8611 69.8793 0.0107567
42.1114 72.208 2
42.3947 74.6792 4
44.3769 71.8629 0.00650952
44.8159 74.2794 2
47.2057 73.7222 0
43.8516 5.35835 3.9894
46.5707 3.64663 3.99317
48.785 4.3219 2
49.554 1.99015 4
50.9543 5.13119 0.00732614
51.8506 2.85453 2
54.0858 3.86728 0
60.246 44.7716 0.0259201
61.1949 41.9592 0.0266184
62.1248 39.3555 0.0277795
63.9437 37.4571 0.0291154
61.9587 37.4449 2
60.2096 39.8476 2
58.9606 42.9185 2
59.7018 37.5667 3.97315
57.9424 40.6572 3.97576
55.0278 39.7203 3.97798
62.1603 35.3596 0.0282262
60.2673 32.7453 0.0268988
58.6075 30.0756 0.0253655
56.6368 18.1519 0.0204819
56.3553 20.5215 0.0291801
56.1017 22.874 0.0326089
57.2725 27.3821 0.0253711
56.2808 25.102 0.0275621
54.4147 17.9164 0.0191902
52.3605 17.0319 0.0215111
51.3776 14.494 0.018978
48.0565 6.52648 0.0112861
49.3246 9.32948 0.0148484
50.4333 11.9908 0.0171473
59.8484 35.1198 2
45.9623 5.88096 2
43.3736 7.4716 2
57.9669 32.2704 2
56.524 29.3411 2
55.3412 19.1843 2
54.9965 21.5654 2
54.9176 24.0622 2
55.4232 26.6014 2
47.355 8.62236 2
48.5999 11.2914 2
53.1235 18.6552 2
51.3003 18.0444 2
50.6327 16.1276 2
49.7135 13.7399 2
57.3377 34.7606 3.97668
55.6959 31.5214 3.97688
54.46 28.4074 3.97809
53.756 25.5002 3.97454
53.9661 20.1358 3.9771
53.5699 22.7188 3.9655
41.3987 7.07729 3.98717
45.3597 7.99411 3.98625
42.8655 9.41452 3.98486
46.6664 10.6525 3.98375
47.7453 13.1007 3.98234
48.9307 15.3994 3.98038
50.0049 17.6979 3.97981
51.6474 19.32 3.98717
50.3472 63.3855 0.0148356
51.2449 60.9414 0.0179917
56.6795 44.1822 0.0233885
55.4721 47.894 0.025077
52.3129 58.6397 0.0217045
54.2189 57.2711 0.0214845
55.0574 51.3835 0.0303118
53.9994 54.5362 0.0304693
49.5924 61.7508 2
55.5719 41.7032 2
50.5673 59.3353 2
52.1837 56.4947 2
54.1416 45.5601 2
53.3091 49.323 2
52.6577 52.8383 2
48.8497 60.2077 3.98246
52.4463 42.6363 3.9776
49.7889 57.6311 3.97779
50.5857 54.4258 3.97118
51.7546 47.2627 3.97582
51.1903 50.9361 3.96832
48.0758 43.7989 3.99264
47.9629 62.4801 0.0153966
47.33 61.0157 2
46.6195 59.8017 3.98312
41.6639 67.6906 0.0132521
43.3573 65.5111 0.0143945
44.7679 63.4595 0.0148772
45.9884 61.5919 0.0157007
39.6328 67.771 2
41.5464 65.6492 2
45.767 60.6373 2
43.147 63.7324 2
44.4842 61.8421 2
44.6243 60.2989 3.98326
42.9512 62.0894 3.98397
41.6005 63.825 3.98468
39.6479 65.6168 3.98478
37.5633 67.7526 3.98639
31.6964 65.1357 3.98515
33.3918 67.4901 3.98639
35.333 69.9616 3.98907
37.5259 70.0522 2
37.5095 72.4593 3.9931
39.7026 70.0264 0.0108292
39.818 72.4051 2
39.9526 74.9197 4
42.1112 72.2077 0.00667593
42.3947 74.6792 2
44.8159 74.2794 0
41.7362 4.96755 3.98969
43.8517 5.35788 2
44.3259 3.1098 3.99339
46.5709 3.64638 2
47.2057 1.27793 4
48.7847 4.32212 0.00704881
49.554 1.99013 2
51.8506 2.85458 0
58.9612 42.9187 0.0248233
60.2097 39.8476 0.0258526
61.9589 37.4449 0.0278923
59.7018 37.5668 2
57.9419 40.6571 2
55.0277 39.7206 2
56.7469 37.8962 3.97659
49.4798 41.334 3.9879
53.0474 39.3031 3.97871
39.4421 6.80071 3.98722
59.849 35.1198 0.0267496
57.9649 32.2703 0.023927
56.5245 29.341 0.0243862
55.341 19.1857 0.0220538
54.9956 21.5663 0.0310019
54.9175 24.0609 0.0291489
55.4273 26.6002 0.0251056
53.1234 18.6561 0.0231237
51.3004 18.0454 0.0156077
50.6329 16.1286 0.0202855
45.9623 5.88146 0.0108777
49.7138 13.7407 0.0182328
47.355 8.62301 0.0142759
48.6001 11.292 0.0166062
43.3736 7.47205 0.0132705
57.3368 34.7607 2
41.3987 7.07673 2
45.3596 7.99364 2
42.8654 9.41404 2
55.6953 31.5214 2
54.459 28.4086 2
53.9667 20.135 2
53.5704 22.7163 2
53.7544 25.5013 2
46.6662 10.6518 2
47.7449 13.1 2
51.6475 19.3188 2
50.0048 17.6969 2
48.9304 15.3986 2
54.8139 33.9749 3.97742
53.4377 30.4907 3.97539
52.556 27.2046 3.97646
52.1263 24.1034 3.97239
52.3838 21.0547 3.98067
41.0134 9.04744 3.98487
44.7237 9.99493 3.98423
42.4684 10.9016 3.9836
46.0051 12.729 3.98178
47.6811 14.5836 3.98147
48.1123 16.9886 3.97845
49.816 19.6141 3.97596
49.5926 61.7501 0.0160626
50.5673 59.334 0.0216017
55.5715 41.7035 0.0228566
54.1389 45.5606 0.0226918
53.3068 49.3237 0.0272346
52.1832 56.4936 0.0258949
52.6562 52.8389 0.033147
48.8495 60.2084 2
52.4483 42.6347 2
49.7891 57.6326 2
50.5866 54.4275 2
51.7553 47.2611 2
51.1928 50.9347 2
48.0783 43.8081 2
47.9873 58.7489 3.98039
50.0172 45.2716 3.97742
48.5945 55.9218 3.97838
49.114 52.5885 3.9718
49.6316 49.0407 3.97336
45.883 39.875 3.89707
46.3202 42.6809 3.94075
46.4219 45.8471 3.99378
43.7255 41.1726 3.87053
41.9695 42.0257 3.80497
47.3302 61.015 0.0161377
46.6192 59.8024 2
45.4692 58.7985 3.98352
39.6328 67.7703 0.0134852
41.5466 65.6487 0.014769
43.1471 63.7317 0.0153051
44.4842 61.8414 0.0159915
45.7671 60.6365 0.0167638
41.6003 63.8255 2
37.5632 67.7534 2
39.6477 65.6174 2
44.6242 60.2998 2
42.9511 62.0901 2
41.7541 62.5001 3.98402
42.4818 59.9909 3.98477
39.8939 63.5599 3.98411
37.6423 65.5157 3.9844
35.4632 67.6619 3.98634
33.5749 65.3488 3.98465
31.9587 63.3085 3.98439
29.8824 64.7269 3.98562
31.6965 65.1363 2
31.3762 67.2001 3.98655
33.3918 67.4909 2
33.1557 69.7549 3.98904
35.333 69.9623 2
35.1947 72.3737 3.99308
37.5259 70.0516 0.0109369
37.5095 72.4597 2
37.5 75 4
39.8179 72.4048 0.00679552
39.9526 74.9197 2
42.3947 74.6792 0
39.6238 4.71461 3.98987
41.7362 4.96703 2
42.0622 2.71741 3.99348
43.8516 5.35835 0.0105975
44.3261 3.10952 2
44.8158 0.721173 4
46.5707 3.64663 0.00682625
47.2057 1.27779 2
49.554 1.99015 0
57.9424 40.6572 0.0242397
59.7018 37.5667 0.0268507
55.0278 39.7203 0.0220186
49.4929 41.3368 2
56.7462 37.8961 2
53.0477 39.305 2
53.8966 36.6283 3.97805
47.4064 40.4121 3.9437
50.4187 38.5122 3.98772
37.5159 6.67168 3.98742
39.4421 6.80016 2
39.2108 8.68991 3.98525
35.9413 8.48959 3.98558
57.3377 34.7606 0.0233206
55.6959 31.5214 0.0231175
54.46 28.4074 0.0219145
53.9661 20.1358 0.0228979
53.5699 22.7188 0.0345006
53.756 25.5002 0.0254634
51.6474 19.32 0.0128324
50.0049 17.6979 0.0201938
48.9307 15.3994 0.0196201
45.3597 7.99411 0.0137505
47.7453 13.1007 0.0176635
46.6664 10.6525 0.0162502
41.3987 7.07729 0.0128294
42.8655 9.41452 0.0151386
54.8156 33.9742 2
41.0134 9.04694 2
44.7234 9.99457 2
42.4681 10.9011 2
53.4332 30.4904 2
52.5594 27.206 2
52.3845 21.0529 2
52.1271 24.1048 2
46.0047 12.728 2
47.6808 14.5827 2
49.8163 19.613 2
48.1121 16.9877 2
52.3769 32.8819 3.9801
51.2689 29.161 3.97787
50.7588 25.7339 3.97217
49.9335 22.1978 3.97705
40.5695 11.6056 3.9826
43.858 11.9175 3.9827
45.8023 15.4211 3.98072
47.5028 19.2273 3.9764
46.2157 37.4953 3.90162
48.8497 60.2077 0.017542
49.7889 57.6311 0.0222093
52.4463 42.6363 0.0224007
51.7546 47.2627 0.0241765
51.1903 50.9361 0.0316806
50.5857 54.4258 0.028823
48.0758 43.7989 0.0073598
47.9872 58.75 2
50.0222 45.2739 2
48.5949 55.9237 2
49.1153 52.5907 2
49.6343 49.0395 2
45.9058 39.8828 2
46.3363 42.6928 2
46.4225 45.8402 2
43.746 41.1869 2
41.9775 42.032 2
46.8381 57.3513 3.98289
44.4721 39.4536 3.86417
42.319 40.8899 3.83032
48.0227 47.2385 3.9761
47.1598 54.2473 3.97752
47.5615 50.7438 3.96987
44.7486 47.4278 3.99324
44.9846 41.9662 3.89929
44.8721 44.5829 3.94729
42.5792 42.6937 3.87007
40.8642 42.3736 3.83475
46.6195 59.8017 0.016883
45.4688 58.7992 2
43.8771 57.7243 3.98453
37.5633 67.7526 0.0136075
39.6479 65.6168 0.0152183
41.6005 63.825 0.0153182
42.9512 62.0894 0.0160307
44.6243 60.2989 0.0167383
35.4632 67.6627 2
41.754 62.5007 2
39.8938 63.5604 2
37.6422 65.5164 2
42.4818 59.9918 2
40.6235 61.6586 3.98362
40.4457 58.2242 3.98554
37.837 63.2207 3.98335
35.5727 65.4378 3.98449
33.5749 65.3494 2
31.9587 63.3091 2
33.6285 63.3479 3.98381
30.3775 62.8673 3.9847
32.1224 62.0153 3.98488
26.8672 61.5107 3.98409
28.0611 64.1551 3.98577
29.8824 64.7276 2
29.4054 66.7639 3.98675
31.6964 65.1357 0.0148464
31.3763 67.2008 2
31.0127 69.4199 3.98911
33.3918 67.4901 0.0136108
33.1556 69.7556 2
32.8917 72.1479 3.99312
35.333 69.9616 0.0109315
35.1947 72.3741 2
35.0474 74.9194 4
37.5095 72.4593 0.00689755
37.5 75 2
39.9526 74.9197 0
35.6204 6.72274 3.98728
37.5229 4.61413 3.99002
39.6238 4.71413 2
39.7886 2.47379 3.99361
41.7362 4.96755 0.0103074
42.0623 2.7171 2
42.3946 0.32156 4
44.3259 3.1098 0.00660871
44.8159 0.72056 2
47.2057 1.27793 0
49.4798 41.334 0.0120997
56.7469 37.8962 0.0234072
53.0474 39.3031 0.0212898
47.4205 40.4234 2
50.4306 38.5112 2
53.9009 36.6293 2
51.2201 35.5816 3.97834
48.0609 37.7481 3.95993
45.8867 35.1394 3.89826
43.7359 33.8321 3.86654
41.9777 32.9876 3.80208
37.4576 8.53144 3.98536
37.5159 6.67096 2
39.4421 6.80071 0.0127822
39.2108 8.68934 2
38.9763 10.1232 3.98473
35.8981 9.76971 3.98418
34.1498 8.81908 3.98534
35.9413 8.48885 2
54.8139 33.9749 0.0225759
53.4377 30.4907 0.0246114
52.556 27.2046 0.023542
52.3838 21.0547 0.0193326
52.1263 24.1034 0.0276092
49.816 19.6141 0.0240435
48.1123 16.9886 0.0215533
47.6811 14.5836 0.0185273
44.7237 9.99493 0.0157749
46.0051 12.729 0.018221
41.0134 9.04744 0.0151342
42.4684 10.9016 0.0164008
52.3772 32.8821 2
40.5691 11.6053 2
43.8575 11.9171 2
51.2798 29.1607 2
50.7595 25.7364 2
49.9346 22.1971 2
45.8019 15.4198 2
47.5029 19.2254 2
49.9047 31.4157 3.96848
49.2426 27.4904 3.97715
49.3851 24.4114 3.9804
47.183 21.9583 3.9747
38.3019 12.7309 3.98257
42.1014 14.3032 3.98151
44.7997 18.4601 3.97892
44.7628 37.5023 3.86382
46.2436 37.5028 2
47.9873 58.7489 0.0196076
48.5945 55.9218 0.0216231
50.0172 45.2716 0.0225793
49.6316 49.0407 0.0266358
49.114 52.5885 0.028203
45.883 39.875 0.102931
46.3202 42.6809 0.0592537
46.4219 45.8471 0.0062166
43.7255 41.1726 0.129468
41.9695 42.0257 0.195032
46.838 57.3527 2
44.4848 39.4635 2
42.3155 40.8905 2
48.0247 47.2397 2
47.1606 54.2509 2
47.5639 50.7451 2
44.7526 47.4042 2
45.0005 41.9784 2
44.8869 44.5977 2
42.6041 42.713 2
40.8628 42.3737 2
45.3962 55.9394 3.98652
42.6458 39.2779 3.8442
40.7764 40.8132 3.89542
46.0533 48.9154 3.98605
45.527 52.5392 3.98133
43.4138 48.4582 4.00801
43.3354 46.1407 3.9459
43.6072 43.7799 3.8971
41.1042 43.8658 3.86642
39.2914 42.7333 3.84789
45.4692 58.7985 0.0164846
43.8766 57.725 2
42.107 56.3519 3.98839
35.4632 67.6619 0.0136602
37.6423 65.5157 0.0155995
39.8939 63.5599 0.0158905
41.7541 62.5001 0.0159783
42.4818 59.9909 0.0152277
35.5727 65.4387 2
40.6233 61.6592 2
37.8369 63.2213 2
40.4455 58.2255 2
38.9257 56.5214 3.99089
38.2505 60.3418 3.98388
35.6068 63.2142 3.9832
33.5749 65.3488 0.0153471
31.9587 63.3085 0.0156091
33.6285 63.3486 2
30.3775 62.868 2
32.1223 62.016 2
28.6798 62.2131 3.98514
33.3452 61.5278 3.98411
31.0656 61.233 3.9846
27.5667 59.6085 3.98257
23.79 59.0931 3.98029
25.033 60.8825 3.98286
26.8674 61.5113 2
26.2277 63.4872 3.98543
28.0613 64.1557 2
27.4618 66.1878 3.98695
29.8824 64.7269 0.0143813
29.4056 66.7646 2
28.9048 68.9454 3.98922
31.3762 67.2001 0.0134529
31.0127 69.4205 2
30.614 71.7789 3.99321
33.1557 69.7549 0.0109637
32.8916 72.1483 2
32.6054 74.6784 4
35.1947 72.3737 0.00692089
35.0474 74.9197 2
37.5 75 0
33.723 6.97729 3.98687
35.4343 4.68447 3.98984
35.6204 6.72209 2
37.514 2.38645 3.99365
37.5229 4.61358 2
39.6238 4.71461 0.0101318
39.7887 2.47349 2
39.9526 0.0806499 4
42.0622 2.71741 0.00651997
42.3947 0.320817 2
44.8158 0.721173 0
44.4934 35.5506 3.85885
42.3315 34.1161 3.82699
47.4064 40.4121 0.0563009
50.4187 38.5122 0.0122844
53.8966 36.6283 0.0219514
48.073 37.7556 2
51.2288 35.581 2
45.9035 35.1242 2
43.7583 33.8168 2
41.9858 32.9808 2
48.2428 34.3047 3.98056
44.991 33.0397 3.89437
42.5878 32.32 3.86688
40.8737 32.6378 3.8323
37.3104 10.6266 3.98358
37.4575 8.53051 2
37.5159 6.67168 0.0125795
39.2108 8.68991 0.0147481
38.9762 10.1225 2
34.7533 10.3755 3.98381
35.8981 9.76893 2
32.3765 9.36564 3.98478
34.1497 8.81836 2
35.9413 8.48959 0.0144212
52.3769 32.8819 0.0199031
51.2689 29.161 0.022126
50.7588 25.7339 0.0278328
49.9335 22.1978 0.0229511
47.5028 19.2273 0.0236046
45.8023 15.4211 0.0192777
43.858 11.9175 0.0172987
40.5695 11.6056 0.0174044
49.91 31.4111 2
38.3014 12.7304 2
42.1007 14.303 2
49.2436 27.494 2
49.3861 24.4112 2
47.1842 21.9592 2
44.7998 18.4588 2
47.7336 29.5381 3.9912
47.0824 25.1496 3.98199
44.2874 21.318 3.97546
36.5815 12.9271 3.98248
38.6812 14.8014 3.98163
41.7497 17.834 3.98068
42.7857 37.4933 3.84393
44.7779 37.5015 2
46.2157 37.4953 0.0983769
46.8381 57.3513 0.0171056
47.1598 54.2473 0.0224758
48.0227 47.2385 0.0239031
47.5615 50.7438 0.0301306
44.4721 39.4536 0.135829
44.9846 41.9662 0.100709
44.8721 44.5829 0.05271
44.7486 47.4278 0.00675554
42.5792 42.6937 0.129928
42.319 40.8899 0.169683
40.8642 42.3736 0.165252
45.3965 55.9408 2
42.6462 39.2763 2
40.7722 40.809 2
46.0548 48.9163 2
45.5293 52.543 2
43.4167 48.475 2
43.3573 46.1614 2
43.6237 43.796 2
41.1218 43.8836 2
39.2852 42.7272 2
43.7331 54.4565 3.99689
40.883 39.178 3.92332
39.175 40.9055 3.9253
43.6773 50.5108 3.99817
41.9316 47.6865 3.97833
41.8552 45.1994 3.8984
39.3741 44.6032 3.88088
37.4904 42.8572 3.85776
43.8771 57.7243 0.0154709
42.1063 56.3531 2
40.4185 54.9632 3.99187
35.5727 65.4378 0.0155147
37.837 63.2207 0.016653
40.6235 61.6586 0.0163842
40.4457 58.2242 0.0144591
35.6067 63.2151 2
38.2502 60.3425 2
38.9252 56.5236 2
37.9996 55.2795 3.99151
36.9344 57.6468 3.98541
35.3632 60.9264 3.98356
33.6285 63.3479 0.0161933
30.3775 62.8673 0.0152971
32.1224 62.0153 0.0151183
33.345 61.5286 2
28.6799 62.2136 2
31.0655 61.2335 2
29.4015 60.3037 3.98428
32.3555 59.7609 3.98604
28.0204 58.3883 3.98546
27.5667 59.6091 2
25.377 58.606 3.98012
22.7539 58.2497 3.97555
23.3988 60.3615 3.98081
23.7899 59.0941 2
25.0331 60.8834 2
24.4303 62.7791 3.98463
26.8672 61.5107 0.0159057
26.2279 63.4878 2
25.5458 65.4977 3.98693
28.0611 64.1551 0.0142312
27.462 66.1884 2
26.8343 68.3338 3.98929
29.4054 66.7639 0.0132492
28.9048 68.946 2
28.369 71.2641 3.9933
31.0127 69.4199 0.0108899
30.6138 71.7793 2
30.1842 74.2788 4
32.8917 72.1479 0.00688379
32.6053 74.6792 2
35.0474 74.9194 0
31.7873 7.41708 3.98653
33.3463 4.92361 3.98967
33.7229 6.97666 2
35.2441 2.46259 3.99363
35.4343 4.68395 2
35.6204 6.72274 0.012717
37.5 0 4
37.514 2.38612 2
37.5229 4.61413 0.00998357
39.7886 2.47379 0.00638827
39.9526 0.0802889 2
42.3946 0.32156 0
42.6566 35.7171 3.84447
44.5028 35.5414 2
40.7877 34.1946 3.89433
42.3272 34.1167 2
48.0609 37.7481 0.040072
51.2201 35.5816 0.021655
45.8867 35.1394 0.101737
43.7359 33.8321 0.133455
41.9777 32.9876 0.197917
48.2546 34.2898 2
45.0078 33.0277 2
42.6097 32.3024 2
40.8721 32.6368 2
46.2528 31.5591 3.95877
43.6123 31.2361 3.89313
41.1177 31.1518 3.86872
39.299 32.2768 3.84726
35.6917 11.7712 3.98267
37.3103 10.6258 2
37.4576 8.53144 0.0146366
38.9763 10.1232 0.0152686
33.097 11.2121 3.98272
34.7532 10.3747 2
35.8981 9.76971 0.0158232
30.4811 10.0136 3.98427
32.3763 9.36491 2
34.1498 8.81908 0.0146598
49.9047 31.4157 0.0315186
49.2426 27.4904 0.0228516
49.3851 24.4114 0.0196011
47.183 21.9583 0.0252992
44.7997 18.4601 0.0210795
42.1014 14.3032 0.018485
38.3019 12.7309 0.01743
36.5811 12.9265 2
47.7347 29.5263 2
38.6804 14.801 2
41.7491 17.8331 2
47.0842 25.1507 2
44.2886 21.3155 2
45.5173 27.65 4.00001
43.7911 24.0454 3.99797
41.3406 20.7111 3.98129
35.7714 14.7524 3.98198
38.6812 17.5893 3.97983
40.9331 37.4856 3.93473
42.7898 37.4949 2
44.7628 37.5023 0.136178
45.3962 55.9394 0.0134758
45.527 52.5392 0.018675
46.0533 48.9154 0.0139471
42.6458 39.2779 0.155797
43.6072 43.7799 0.1029
43.3354 46.1407 0.0540955
43.4138 48.4582 -0.00800832
41.1042 43.8658 0.133581
40.7764 40.8132 0.104578
39.2914 42.7333 0.152109
43.7339 54.4592 2
40.8787 39.1752 2
39.1698 40.8978 2
43.6804 50.5225 2
41.9343 47.6988 2
41.8785 45.2149 2
37.4922 42.849 2
39.3948 44.6099 2
41.8759 53.0334 3.99504
39.191 39.1799 3.95509
37.4918 40.9543 3.94019
35.6969 42.7317 3.8485
40.9112 49.7421 4.00276
39.8033 46.1039 3.87997
37.4935 44.8357 3.8763
42.107 56.3519 0.0116101
40.4177 54.9645 2
38.7285 53.8958 3.99451
35.6068 63.2142 0.0168049
38.2505 60.3418 0.0161159
38.9257 56.5214 0.00910956
35.363 60.9271 2
36.9339 57.6477 2
37.9989 55.2807 2
36.3196 55.4094 3.9925
34.4867 58.5388 3.98546
33.3452 61.5278 0.0158852
28.6798 62.2131 0.01486
31.0656 61.233 0.0153964
32.3554 59.7616 2
29.4015 60.304 2
30.2958 57.8362 3.98565
28.0201 58.3891 2
26.9429 56.8375 3.97987
27.5667 59.6085 0.0174269
25.3768 58.6069 2
23.8364 56.8109 3.97385
21.3308 57.4075 3.97532
21.9916 59.6321 3.98005
22.7537 58.2511 2
22.7342 62.0302 3.98329
23.3989 60.3625 2
23.79 59.0931 0.0197073
25.033 60.8825 0.0171369
24.4305 62.7799 2
23.6797 64.7158 3.98644
26.2277 63.4872 0.0145691
25.546 65.4983 2
24.8065 67.5948 3.98928
27.4618 66.1878 0.0130546
26.8343 68.3343 2
26.1641 70.6048 3.99337
28.9048 68.9454 0.0107797
28.3687 71.2644 2
27.7943 73.7221 4
30.614 71.7789 0.00678646
30.1841 74.2794 2
32.6054 74.6784 0
29.8097 7.99028 3.98604
31.2513 5.33075 3.9893
31.7872 7.41635 2
32.9798 2.70075 3.99352
33.3462 4.92307 2
33.723 6.97729 0.0131293
35.0474 0.080333 4
35.2441 2.46227 2
35.4343 4.68447 0.0101576
37.5 0 2
37.514 2.38645 0.0063511
39.9526 0.0806499 0
40.8894 35.8055 3.92491
42.6562 35.72 2
44.4934 35.5506 0.141147
28.5418 10.6887 3.98418
39.1829 34.1033 3.92498
40.7816 34.1993 2
42.3315 34.1161 0.173011
48.2428 34.3047 0.0194431
44.991 33.0397 0.105631
42.5878 32.32 0.13312
40.8737 32.6378 0.167698
46.2701 31.5508 2
43.6236 31.222 2
41.1361 31.1348 2
39.2945 32.2815 2
44.3806 29.7457 3.94684
41.8738 29.8185 3.90129
39.3929 30.4058 3.88169
37.4989 32.153 3.85888
34.0915 12.9293 3.98199
35.6916 11.7704 2
37.3104 10.6266 0.016419
31.1849 11.98 3.98318
33.097 11.2113 2
34.7533 10.3755 0.0161871
30.4809 10.0127 2
32.3765 9.36564 0.0152245
47.7337 29.5381 0.0087982
47.0824 25.1496 0.0180101
36.5815 12.9271 0.0175153
44.2874 21.318 0.0245372
41.7497 17.834 0.019322
38.6812 14.8014 0.0183653
35.7707 14.752 2
45.5179 27.6485 2
38.6801 17.5885 2
41.3406 20.7083 2
43.7929 24.0463 2
33.6066 15.8685 3.98183
43.0381 26.478 3.99829
40.9127 23.2785 3.99949
38.4206 20.32 3.98104
35.8475 17.5005 3.98266
39.2078 37.4862 3.96264
40.9241 37.4856 2
42.7857 37.4933 0.156072
43.7331 54.4565 0.00311331
43.6773 50.5108 0.00183258
40.883 39.178 0.0766775
41.8552 45.1994 0.101601
41.9316 47.6865 0.0216728
39.3741 44.6032 0.119119
39.175 40.9055 0.0746996
37.4904 42.8572 0.14224
41.878 53.0371 2
39.1851 39.1782 2
37.4915 40.9469 2
40.9173 49.7467 2
35.7011 42.7271 2
39.8273 46.1241 2
37.4908 44.8373 2
39.8144 51.9477 3.99474
37.4903 39.1938 3.97191
35.8074 40.9142 3.92472
34.1195 42.3713 3.83347
35.5923 44.603 3.87842
38.7031 48.7587 3.98973
37.484 46.4299 3.88331
40.4185 54.9632 0.00812826
38.7282 53.8959 2
36.7195 53.2481 4.00675
35.3632 60.9264 0.0164446
36.9344 57.6468 0.0145865
37.9996 55.2795 0.00849127
34.4864 58.5395 2
36.319 55.4104 2
33.2254 55.5242 3.98813
32.3555 59.7609 0.0139562
29.4015 60.3037 0.015715
30.2957 57.8367 2
28.688 55.3265 3.97897
28.0204 58.3883 0.014536
26.9424 56.8381 2
25.3078 55.1482 3.97496
21.8058 55.3533 3.97045
25.377 58.606 0.0198777
23.8359 56.8124 2
20.2153 57.0347 3.97852
20.6426 58.7891 3.97824
21.3303 57.4088 2
21.1646 61.1786 3.98159
21.9914 59.6333 2
22.7539 58.2497 0.0244475
21.8931 63.8436 3.98577
22.7343 62.0311 2
23.3988 60.3615 0.0191927
24.4303 62.7791 0.0153678
23.6799 64.7166 2
22.8347 66.7384 3.98925
25.5458 65.4977 0.0130711
24.8065 67.5953 2
24.0083 69.8059 3.99336
26.8343 68.3338 0.0107084
26.1639 70.6051 2
25.446 73.0099 4
28.369 71.2641 0.00669526
27.7943 73.7222 2
30.1842 74.2788 0
27.8195 8.64987 3.9858
29.1532 5.87649 3.98889
29.8096 7.98949 2
30.725 3.09794 3.99333
31.2512 5.33016 2
31.7873 7.41708 0.0134727
32.6053 0.320823 4
32.9797 2.70042 2
33.3463 4.92361 0.0103288
35.0474 0.0802903 2
35.2441 2.46259 0.00636583
37.5 0 0
39.2036 35.8048 3.95429
40.8837 35.8085 2
42.6566 35.7171 0.155527
28.5417 10.688 2
26.6205 11.3837 3.98434
29.2237 12.6362 3.98372
37.498 34.0551 3.94048
39.1767 34.1107 2
40.7877 34.1946 0.105668
46.2528 31.5591 0.0412316
43.6123 31.2361 0.106874
41.1177 31.1518 0.131278
39.299 32.2768 0.152736
44.3975 29.7318 2
41.8937 29.8008 2
39.409 30.3935 2
37.4999 32.1615 2
42.3546 28.3851 3.93423
39.8554 28.9029 3.89643
37.5144 30.1628 3.87471
35.7029 32.2724 3.84721
31.9128 14.4738 3.98264
34.0914 12.9285 2
35.6917 11.7712 0.0173328
31.1848 11.9792 2
33.097 11.2121 0.0172827
30.4811 10.0136 0.0157307
45.5173 27.65 -6.80451e-06
43.7911 24.0454 0.00203383
35.7714 14.7524 0.0180195
41.3406 20.7111 0.0187068
38.6812 17.5893 0.0201744
33.6059 15.8681 2
35.8463 17.5006 2
43.0411 26.4793 2
38.42 20.3189 2
40.913 23.2718 2
33.5487 17.3769 3.98358
40.4161 25.6192 4.00741
38.0756 22.8506 3.99423
35.583 20.0661 3.98595
37.4955 37.4955 3.97996
39.2 37.4862 2
40.9331 37.4856 0.0652736
41.8759 53.0334 0.00496437
40.9112 49.7421 -0.00276375
39.191 39.1799 0.0449085
39.8033 46.1039 0.120035
37.4935 44.8357 0.123697
37.4918 40.9543 0.0598066
35.6969 42.7317 0.1515
39.8189 51.9507 2
37.4916 39.1911 2
35.8134 40.9073 2
38.704 48.7888 2
34.1205 42.3717 2
35.5809 44.6185 2
37.4851 46.4502 2
37.6523 51.0456 4.01054
35.7949 39.1958 3.95581
34.2097 40.8209 3.8951
33.0098 42.022 3.80367
33.8678 43.8566 3.86752
35.1501 46.0923 3.89142
36.8482 48.4045 3.96956
38.7285 53.8958 0.00549414
36.72 53.2492 2
34.3611 52.5004 3.99529
34.4867 58.5388 0.0145434
36.3196 55.4094 0.00750333
33.2249 55.5248 2
30.5174 53.3981 3.98123
30.2958 57.8362 0.01435
28.6875 55.3284 2
26.8799 53.4393 3.97472
26.9429 56.8375 0.0201326
25.3073 55.151 2
23.5709 53.4823 3.96872
20.4652 53.2201 3.96514
19.9285 55.8363 3.97409
21.805 55.3546 2
23.8364 56.8109 0.0261461
19.4351 57.8967 3.97743
20.2148 57.0361 2
19.7042 60.211 3.98008
20.6424 58.7903 2
21.3308 57.4075 0.0246826
20.2057 62.8642 3.98409
21.1646 61.1798 2
21.9916 59.6321 0.0199469
20.9362 65.7673 3.98904
21.8933 63.8445 2
22.7342 62.0302 0.016714
23.6797 64.7158 0.0135635
22.8348 66.739 2
21.9108 68.873 3.99332
24.8065 67.5948 0.0107169
24.008 69.8061 2
23.1494 72.1454 4
26.1641 70.6048 0.00663463
25.446 73.0099 2
27.7943 73.7221 0
25.8586 9.37793 3.98558
27.0679 6.54057 3.98847
27.8193 8.64907 2
28.4871 3.64391 3.99312
29.1531 5.87587 2
29.8097 7.99028 0.013957
30.1841 0.720592 4
30.7248 3.09761 2
31.2513 5.33075 0.0106991
32.6053 0.320817 2
32.9798 2.70075 0.00648189
35.0474 0.080333 0
37.4987 35.8031 3.97294
39.1948 35.8066 2
40.8894 35.8055 0.0750948
24.7754 12.0665 3.98449
23.7498 14.351 3.98359
28.5418 10.6887 0.0158245
26.6206 11.3831 2
29.2236 12.6354 2
27.2898 13.3686 3.98391
29.7786 14.1952 3.98325
35.8178 34.0948 3.92563
37.4981 34.0625 2
39.1829 34.1033 0.0750177
37.4989 32.153 0.141116
44.3806 29.7457 0.053158
41.8738 29.8185 0.098706
39.3929 30.4058 0.118307
42.3733 28.3664 2
39.8704 28.8793 2
37.5152 30.1611 2
35.7096 32.2771 2
40.046 27.5306 3.93042
37.5259 28.5743 3.8933
35.6165 30.4058 3.88181
34.1335 32.6294 3.8324
30.9242 16.8295 3.98314
31.9126 14.473 2
34.0915 12.9293 0.0180076
31.1849 11.98 0.0168225
43.0381 26.478 0.00171015
40.9127 23.2785 0.000511453
33.6066 15.8685 0.018173
35.8475 17.5005 0.0173443
38.4206 20.32 0.0189638
33.5477 17.3769 2
35.5824 20.0659 2
40.416 25.6134 2
38.0745 22.8489 2
32.8615 19.7819 3.98453
37.802 25.1614 4.01577
35.2009 22.62 3.99238
35.7878 37.5012 3.96484
37.4957 37.4949 2
39.2078 37.4862 0.0373614
39.8144 51.9477 0.00525531
38.7031 48.7587 0.010266
37.4903 39.1938 0.028089
37.484 46.4299 0.116685
35.5923 44.603 0.121582
35.8074 40.9142 0.0752806
34.1195 42.3713 0.166527
37.658 51.0563 2
35.8041 39.1933 2
34.2148 40.8162 2
36.8428 48.4216 2
33.0026 42.0271 2
33.8549 43.8695 2
35.1336 46.108 2
35.4634 50.1755 4.01024
34.1129 39.1924 3.92562
32.6556 40.8917 3.82842
32.3976 42.6893 3.87019
33.1284 45.1909 3.89932
34.2632 47.4643 3.94098
36.7195 53.2481 -0.00674649
34.3618 52.5036 2
32.0011 51.2061 3.99919
33.2254 55.5242 0.0118728
30.5167 53.4015 2
28.4261 51.6108 3.97856
28.688 55.3265 0.021033
26.879 53.4415 2
25.0772 51.7518 3.96638
25.3078 55.1482 0.0250434
23.57 53.4836 2
21.9639 51.8033 3.96482
19.1988 51.6347 3.96958
18.9188 54.3087 3.96736
20.4641 53.2199 2
18.4439 56.7277 3.97714
19.9277 55.8377 2
21.8058 55.3533 0.0295532
18.3667 59.1161 3.97713
19.4347 57.8978 2
20.2153 57.0347 0.0214816
18.6169 61.7706 3.98214
19.7042 60.2123 2
20.6426 58.7891 0.021758
19.1252 64.6779 3.98807
20.2058 62.8654 2
21.1646 61.1786 0.0184077
19.8848 67.8095 3.99316
20.9363 65.7681 2
21.8931 63.8436 0.0142333
22.8347 66.7384 0.0107484
21.9105 68.8731 2
20.9142 71.1327 4
24.0083 69.8059 0.00664184
23.1494 72.1455 2
25.446 73.0099 0
23.0947 12.781 3.9841
23.971 10.1644 3.98547
25.0217 7.31078 3.98817
25.8585 9.37727 2
26.2788 4.32816 3.9929
27.0677 6.53993 2
27.8195 8.64987 0.014205
27.7943 1.27781 4
28.4869 3.6436 2
29.1532 5.87649 0.011105
30.1841 0.720551 2
30.725 3.09794 0.00667116
32.6053 0.320823 0
35.7983 35.8091 3.95688
37.4982 35.8051 2
39.2036 35.8048 0.0457115
24.7755 12.066 2
23.7501 14.3508 2
22.4786 15.0277 3.98299
25.3559 13.9004 3.98347
24.023 15.6132 3.98242
26.6205 11.3837 0.015664
29.2237 12.6362 0.0162847
27.2899 13.3682 2
29.7785 14.1945 2
28.3545 15.9686 3.98357
34.2238 34.1875 3.89442
35.8237 34.1017 2
37.498 34.0551 0.0595245
35.7029 32.2724 0.152793
37.5144 30.1628 0.125286
42.3546 28.3851 0.0657722
39.8554 28.9029 0.103573
40.0589 27.516 2
37.5288 28.552 2
35.6015 30.3891 2
34.1351 32.6288 2
37.6192 27.2143 3.94047
35.184 28.8951 3.89405
33.8787 31.1442 3.86721
33.0318 32.9769 3.80324
30.2061 19.3314 3.98616
30.9237 16.8292 2
31.9128 14.4738 0.0173583
40.4161 25.6192 -0.00741412
38.0756 22.8506 0.00577169
33.5487 17.3769 0.0164188
35.583 20.0661 0.0140469
32.8604 19.7826 2
35.1976 22.6165 2
37.7896 25.1618 2
32.3095 22.3949 3.99052
34.9822 25.1502 4.00708
34.0637 37.5018 3.93529
35.796 37.5006 2
37.4955 37.4955 0.02004
37.6523 51.0456 -0.0105445
36.8482 48.4045 0.0304407
35.7949 39.1958 0.0441882
35.1501 46.0923 0.108579
33.8678 43.8566 0.13248
34.2097 40.8209 0.1049
33.0098 42.022 0.196332
35.4606 50.1871 2
34.122 39.1896 2
32.6581 40.8907 2
34.2587 47.4973 2
32.379 42.7033 2
33.111 45.2084 2
33.2413 49.165 4.00731
32.3335 39.2848 3.84607
31.2432 41.1711 3.86759
31.3807 43.774 3.89481
32.246 46.3811 3.93972
34.3611 52.5004 0.00471073
32 51.2136 2
29.8557 49.7237 3.98863
30.5174 53.3981 0.0187688
28.4244 51.6091 2
26.5076 49.992 3.97075
26.8799 53.4393 0.0252829
25.0757 51.7508 2
23.3427 50.1978 3.97219
23.5709 53.4823 0.0312815
21.963 51.8027 2
20.4629 50.3185 3.97078
17.9873 50.3323 3.97066
17.8321 52.7906 3.96694
19.1982 51.6343 2
17.4343 55.3423 3.97108
18.9177 54.3089 2
20.4652 53.2201 0.0348584
17.1326 57.8772 3.97713
18.4432 56.7287 2
19.9285 55.8363 0.025914
17.1347 60.5525 3.97952
18.3665 59.1174 2
19.4351 57.8967 0.0225715
17.406 63.4699 3.98605
18.617 61.7719 2
19.7042 60.211 0.0199232
17.941 66.6179 3.99289
19.1253 64.6789 2
20.2057 62.8642 0.0159094
18.75 69.9759 4
19.8845 67.8096 2
20.9362 65.7673 0.0109568
21.9108 68.873 0.00668084
20.9142 71.1327 2
23.1494 72.1454 0
21.5857 13.6013 3.98351
22.1891 11.0235 3.98515
23.095 12.7809 2
23.0395 8.17615 3.98802
23.9711 10.164 2
24.1164 5.14292 3.99268
25.0214 7.31026 2
25.8586 9.37793 0.0144151
25.446 1.99014 4
26.2784 4.3279 2
27.0679 6.54057 0.0115339
27.7943 1.27778 2
28.4871 3.64391 0.00688141
30.1841 0.720592 0
34.1117 35.8123 3.92408
35.8055 35.8105 2
37.4987 35.8031 0.0270583
21.3038 15.8233 3.98251
24.7754 12.0665 0.0155097
23.7498 14.351 0.0164141
25.3561 13.9 2
22.479 15.0276 2
24.0235 15.6131 2
23.2623 16.2449 3.98223
25.3784 16.0812 3.98331
27.2898 13.3686 0.0160909
29.7786 14.1952 0.0167494
28.3547 15.9684 2
27.4379 18.7902 3.98485
32.6812 34.1083 3.82808
34.2302 34.1917 2
35.8178 34.0948 0.074368
34.1335 32.6294 0.167596
35.6165 30.4058 0.118192
37.5259 28.5743 0.106695
40.046 27.5306 0.0695841
37.621 27.1851 2
33.0223 32.9722 2
35.1689 28.8759 2
33.8633 31.1246 2
35.0683 27.3399 3.94517
33.1449 29.8151 3.89455
32.4095 32.3039 3.86475
29.5744 21.9242 3.99566
30.2056 19.3324 2
30.9242 16.8295 0.016857
37.802 25.1614 -0.0157749
35.2009 22.62 0.00761837
32.8615 19.7819 0.015474
32.3059 22.3957 2
34.9936 25.1487 2
31.6967 25.61 4.00143
32.2025 37.5034 3.84509
34.074 37.5021 2
35.7878 37.5012 0.0351593
35.4634 50.1755 -0.0102407
34.2632 47.4643 0.0590172
34.1129 39.1924 0.0743756
33.1284 45.1909 0.100683
32.3976 42.6893 0.12981
32.6556 40.8917 0.171581
33.2368 49.1554 2
32.3341 39.282 2
31.2221 41.1821 2
32.2233 46.4029 2
31.3657 43.7862 2
31.1475 47.9905 3.99559
30.4941 39.4524 3.86044
29.9943 41.9663 3.89544
30.4257 44.9639 3.94567
32.0011 51.2061 0.000808404
29.8535 49.722 2
27.8753 48.1893 3.97461
28.4261 51.6108 0.0214383
26.506 49.9907 2
24.653 48.477 3.97705
25.0772 51.7518 0.0336153
23.3416 50.1969 2
21.6649 48.7955 3.97172
21.9639 51.8033 0.0351782
20.4624 50.3178 2
19.0331 49.0963 3.97279
16.8914 49.3334 3.97223
16.773 51.4069 3.96912
17.9872 50.3319 2
16.3883 53.8698 3.96816
17.8314 52.7906 2
19.1988 51.6347 0.0304187
15.9746 56.4778 3.97431
17.4335 55.3432 2
18.9188 54.3087 0.032642
15.7483 59.2126 3.97852
17.1322 57.8785 2
18.4439 56.7277 0.0228604
15.7869 62.1395 3.98321
17.1347 60.5539 2
18.3667 59.1161 0.0228746
16.0878 65.3003 3.99219
17.4059 63.4709 2
18.6169 61.7706 0.0178626
16.6661 68.6801 4
17.9406 66.618 2
19.1252 64.6779 0.011925
18.75 69.9759 2
19.8848 67.8095 0.00683565
20.9142 71.1327 0
20.2178 14.5901 3.98273
21.586 13.6012 2
20.5284 11.9933 3.98454
21.1424 9.14588 3.98796
22.1893 11.0233 2
23.0947 12.781 0.0159019
22.0154 6.0819 3.9926
23.0393 8.17574 2
23.971 10.1644 0.014529
23.1494 2.85457 4
24.116 5.14276 2
25.0217 7.31078 0.0118321
25.446 1.99012 2
26.2788 4.32816 0.0071005
27.7943 1.27781 0
32.3445 35.7168 3.84391
34.1188 35.8156 2
35.7983 35.8091 0.0431156
21.3041 15.823 2
20.3014 16.9577 3.98243
22.0955 16.6292 3.98078
25.3559 13.9004 0.0165323
22.4786 15.0277 0.0170132
24.023 15.6132 0.0175789
25.3788 16.081 2
23.2628 16.2449 2
24.2022 18.4447 3.98031
27.0123 21.4484 3.9883
28.3545 15.9686 0.0164255
27.4379 18.7902 2
31.2775 33.8321 3.86876
32.6828 34.1109 2
34.2238 34.1875 0.105582
33.0318 32.9769 0.196761
33.8787 31.1442 0.132785
35.184 28.8951 0.105955
37.6192 27.2143 0.0595292
35.0526 27.3138 2
32.3949 32.2958 2
33.1268 29.7883 2
32.5513 28.0751 3.96351
31.3798 31.2321 3.89723
28.8037 24.3914 3.98463
29.5708 21.9267 2
30.2061 19.3314 0.0138414
34.9822 25.1502 -0.00707632
32.3095 22.3949 0.00947836
31.7049 25.5974 2
29.6555 27.3014 3.96806
30.2186 37.4961 3.8644
32.2034 37.5021 2
34.0637 37.5018 0.0647065
33.2413 49.165 -0.00730661
32.246 46.3811 0.0602808
32.3335 39.2848 0.15393
31.3807 43.774 0.105187
31.2432 41.1711 0.13241
31.1458 47.9915 2
30.4804 39.463 2
29.9786 41.9793 2
30.4038 44.9791 2
29.1898 46.5864 4.00025
29.0924 39.8564 3.896
28.7139 43.1796 3.95131
29.8557 49.7237 0.0113714
27.8734 48.185 2
25.9574 46.6672 3.97637
26.5076 49.992 0.0292549
24.6517 48.4753 2
22.8224 47.0852 3.97671
23.3427 50.1978 0.027811
21.6638 48.7946 2
19.9846 47.6238 3.97697
20.4629 50.3185 0.0292249
19.0337 49.0959 2
17.6699 48.1813 3.97499
16.1405 48.6845 3.97355
16.8918 49.333 2
15.8487 50.1708 3.97072
15.3786 52.4141 3.96888
16.7726 51.4066 2
17.9873 50.3323 0.0293372
14.868 54.977 3.97116
16.3877 53.8704 2
17.8321 52.7906 0.033057
14.4578 57.7409 3.9771
15.974 56.4789 2
17.4343 55.3423 0.0289171
14.2653 60.6932 3.98173
15.7481 59.2139 2
17.1326 57.8772 0.0228699
14.3323 63.8594 3.99087
15.7868 62.1406 2
17.1347 60.5525 0.0204753
14.6715 67.2507 4
16.0873 65.3002 2
17.406 63.4699 0.0139482
16.6661 68.6801 2
17.941 66.6179 0.00711397
18.75 69.9759 0
18.9319 15.7776 3.98179
20.2181 14.59 2
18.9782 13.1043 3.98367
21.5857 13.6013 0.0164882
20.5287 11.9932 2
19.3417 10.2337 3.98771
19.99 7.14655 3.99257
21.1423 9.14559 2
22.1891 11.0235 0.0148486
20.9142 3.86727 4
22.0149 6.08189 2
23.0395 8.17615 0.0119821
23.1494 2.85451 2
24.1164 5.14292 0.00731771
25.446 1.99014 0
30.5197 35.5556 3.86482
32.3472 35.7193 2
34.1117 35.8123 0.0759228
21.3038 15.8233 0.0174872
22.0959 16.6289 2
20.3017 16.9571 2
19.2416 18.4053 3.98014
21.7801 17.846 3.98129
25.3784 16.0812 0.0166881
23.2623 16.2449 0.0177731
24.2025 18.4447 2
22.2767 19.8893 3.97711
24.5902 21.3175 3.98227
26.4196 23.7134 3.9752
27.011 21.4489 2
27.4379 18.7902 0.0151501
30.0183 33.0351 3.89541
31.2487 33.8092 2
32.6812 34.1083 0.171916
32.4095 32.3039 0.13525
33.1449 29.8151 0.105455
35.0683 27.3399 0.0548348
32.5438 28.0641 2
31.3806 31.2225 2
30.1326 29.5319 3.96145
27.8946 26.5331 3.97498
28.8067 24.3993 2
29.5744 21.9242 0.00433824
31.6967 25.61 -0.0014251
29.6524 27.263 2
28.7611 37.5122 3.90211
30.2123 37.4982 2
32.2025 37.5034 0.154906
31.1475 47.9905 0.00440525
30.4257 44.9639 0.0543343
30.4941 39.4524 0.139562
29.9943 41.9663 0.104564
29.1883 46.6012 2
29.074 39.8694 2
28.6946 43.1926 2
27.3005 44.8714 3.98661
26.8617 40.5937 3.97106
27.8753 48.1893 0.0253908
25.9551 46.6696 2
24.0311 45.2243 3.97899
24.653 48.477 0.0229535
22.8218 47.0839 2
20.951 45.9003 3.97906
21.6649 48.7955 0.0282802
19.9856 47.6232 2
18.3244 46.7407 3.97716
19.0331 49.0963 0.0272104
17.6697 48.1809 2
16.3322 47.7147 3.97435
16.1408 48.6842 2
15.1941 49.0159 3.97227
16.8914 49.3334 0.0277732
15.849 50.1704 2
14.492 50.9838 3.97084
13.8312 53.4327 3.97033
15.3784 52.4141 2
16.773 51.4069 0.0308794
13.254 56.1675 3.97438
14.8675 54.9778 2
16.3883 53.8698 0.031842
12.8478 59.1266 3.98096
14.4575 57.7421 2
15.9746 56.4778 0.0256914
12.678 62.3018 3.98887
14.2651 60.6942 2
15.7483 59.2126 0.021482
12.7746 65.6939 4
14.3317 63.8592 2
15.7869 62.1395 0.0167902
14.6714 67.2507 2
16.0878 65.3003 0.00781485
16.6661 68.6801 0
17.6665 17.1537 3.98011
18.932 15.7773 2
17.51 14.3691 3.9824
20.2178 14.5901 0.0172668
18.9786 13.1039 2
17.6374 11.4526 3.98688
20.5284 11.9933 0.0154606
19.3419 10.2334 2
18.0501 8.33941 3.9925
18.75 5.0241 4
19.9895 7.14672 2
21.1424 9.14588 0.0120384
20.9142 3.86727 2
22.0154 6.0819 0.00739863
23.1494 2.85457 0
29.1128 35.1241 3.89745
30.5024 35.5435 2
32.3445 35.7168 0.156085
22.0955 16.6292 0.0192238
20.3014 16.9577 0.017569
21.7803 17.8455 2
19.2419 18.4046 2
17.9794 19.9387 3.97725
20.8747 19.3754 3.9797
24.2022 18.4447 0.0196923
22.2769 19.8888 2
24.5898 21.3189 2
22.357 21.716 3.97966
24.6963 23.1637 3.97302
25.4761 25.9424 3.96643
26.423 23.7141 2
27.0123 21.4484 0.0116994
28.3903 32.3219 3.94413
29.9997 33.0271 2
31.2775 33.8321 0.131244
31.3798 31.2321 0.102775
32.5513 28.0751 0.0364869
30.1118 29.5182 2
27.0489 29.1259 3.99965
27.8918 26.5305 2
28.8037 24.3914 0.0153651
29.6555 27.3014 0.0319378
26.9903 37.3713 3.95617
28.7383 37.5051 2
30.2186 37.4961 0.135603
29.1898 46.5864 -0.000251798
28.7139 43.1796 0.0486888
29.0924 39.8564 0.103996
27.299 44.8822 2
26.8493 40.6072 2
25.3121 43.1781 3.97055
24.1102 39.4292 3.97979
25.9574 46.6672 0.0236252
24.0236 45.2245 2
21.9327 43.957 3.97823
22.8224 47.0852 0.0232885
20.9526 45.8996 2
18.9947 44.9727 3.97814
19.9846 47.6238 0.0230325
18.3244 46.7403 2
16.6279 46.2136 3.9748
17.6699 48.1813 0.0250061
16.3323 47.7145 2
14.9239 47.6706 3.97249
16.1405 48.6845 0.0264529
15.1943 49.0157 2
13.7891 49.5458 3.97144
15.8487 50.1708 0.0292781
14.4921 50.9837 2
12.8983 51.8724 3.97092
12.1427 54.5254 3.97296
13.8311 53.4331 2
15.3786 52.4141 0.0311227
11.533 57.4581 3.97904
13.2537 56.1685 2
14.868 54.977 0.0288368
11.1328 60.6277 3.98738
12.8476 59.1275 2
14.4578 57.7409 0.0229044
10.9835 64.0165 4
12.6773 62.3011 2
14.2653 60.6932 0.0182695
12.7745 65.694 2
14.3323 63.8594 0.00913378
14.6715 67.2507 0
16.3998 18.6487 3.97839
17.6665 17.1531 2
16.1012 15.7785 3.98167
18.9319 15.7776 0.0182131
17.5103 14.3684 2
16.0194 12.8064 3.98488
18.9782 13.1043 0.0163283
17.6377 11.4522 2
16.2013 9.66248 3.99231
19.3417 10.2337 0.0122864
18.0497 8.3397 2
16.6661 6.31991 4
18.75 5.02404 2
19.99 7.14655 0.00743139
20.9142 3.86727 0
27.506 34.7717 3.94374
29.0886 35.1123 2
30.5197 35.5556 0.135185
16.6823 21.3766 3.97297
21.7801 17.846 0.0187113
19.2416 18.4053 0.0198649
20.8749 19.3748 2
17.9796 19.9379 2
19.724 21.5709 3.98006
22.2767 19.8893 0.0228923
24.5902 21.3175 0.0177289
22.3572 21.7156 2
24.6977 23.1643 2
22.8492 24.5991 3.97103
24.5911 28.5242 3.97111
25.4737 25.9414 2
26.4196 23.7134 0.0247998
26.2318 31.6963 3.99056
28.3714 32.3077 2
30.0183 33.0351 0.104593
30.1326 29.5319 0.0385485
27.0564 29.1245 2
27.8946 26.5331 0.0250159
24.814 36.8558 3.98595
26.9732 37.3708 2
28.7611 37.5122 0.0978871
27.3005 44.8714 0.013388
26.8617 40.5937 0.0289361
25.3033 43.1822 2
24.0994 39.4292 2
23.0126 41.7993 3.98088
21.8286 38.5052 3.97703
24.0311 45.2243 0.021015
21.9325 43.9568 2
19.769 42.8896 3.9781
20.951 45.9003 0.0209357
18.9941 44.9726 2
16.968 44.3806 3.97493
18.3244 46.7407 0.0228363
16.6279 46.2135 2
14.8471 46.0907 3.97227
16.3322 47.7147 0.0256459
14.924 47.6704 2
13.2954 48.0087 3.97119
15.1941 49.0159 0.0277291
13.7894 49.5457 2
12.1169 50.2519 3.97137
14.492 50.9838 0.029156
12.8984 51.8725 2
11.1388 52.8349 3.97266
10.3243 55.7098 3.97739
12.1427 54.526 2
13.8312 53.4327 0.0296717
9.69955 58.8498 3.98574
11.5327 57.459 2
13.254 56.1675 0.0256246
9.30605 62.2254 4
11.1317 60.6266 2
12.8478 59.1266 0.0190439
10.9835 64.0165 2
12.678 62.3018 0.0111309
12.7746 65.6939 0
15.1468 20.1849 3.97424
16.3999 18.6479 2
14.7472 17.3018 3.97958
17.6665 17.1537 0.0198897
16.1014 15.7776 2
14.4821 14.2887 3.98341
17.51 14.3691 0.0176039
16.0196 12.8057 2
14.4441 11.1136 3.99172
17.6374 11.4526 0.0131175
16.2009 9.66282 2
14.6715 7.74927 4
18.0501 8.33941 0.00749952
16.6661 6.31988 2
18.75 5.0241 0
25.4592 34.2617 3.98867
27.4873 34.7659 2
29.1128 35.1241 0.102553
17.8578 22.322 3.98286
15.5304 22.9202 3.97006
16.6826 21.3758 2
20.8747 19.3754 0.0202986
17.9794 19.9387 0.0227543
19.7242 21.5703 2
19.6691 24.3793 3.96955
22.357 21.716 0.0203386
24.6963 23.1637 0.0269825
22.8495 24.5981 2
21.9585 27.8208 3.97092
23.7953 31.184 3.97446
24.5954 28.5235 2
25.4761 25.9424 0.0335694
26.2263 31.6883 2
28.3903 32.3219 0.0558675
27.0489 29.1259 0.000350792
22.5618 36.2766 3.9773
24.798 36.8544 2
26.9903 37.3713 0.0438335
25.3121 43.1781 0.0294465
24.1102 39.4292 0.0202097
23.009 41.7981 2
21.824 38.5049 2
20.7521 40.6354 3.97771
20.1635 37.7838 3.97682
21.9327 43.957 0.0217675
19.7695 42.8897 2
17.3917 42.1007 3.97549
18.9947 44.9727 0.0218566
16.968 44.3805 2
14.856 44.2002 3.97233
16.6279 46.2136 0.0251974
14.8471 46.0906 2
12.9665 46.2959 3.97056
14.9239 47.6706 0.0275097
13.2955 48.0087 2
11.488 48.5495 3.97094
13.7891 49.5458 0.0285612
12.1172 50.2519 2
10.2645 51.0793 3.97261
12.8983 51.8724 0.0290792
11.1391 52.835 2
9.23359 53.8882 3.97668
8.38337 56.9821 3.98452
10.3243 55.7101 2
12.1427 54.5254 0.0270384
7.74927 60.3285 4
9.69843 58.848 2
11.533 57.4581 0.0209625
9.306 62.2255 2
11.1328 60.6277 0.01262
10.9835 64.0165 0
13.961 21.7527 3.97093
15.1469 20.184 2
13.4491 18.9001 3.97665
16.3998 18.6487 0.0216123
14.7474 17.3007 2
13.0276 15.8819 3.98241
16.1012 15.7785 0.0183298
14.4822 14.2879 2
12.7817 12.6869 3.99035
16.0194 12.8064 0.0151165
14.4437 11.114 2
12.7746 9.30605 4
16.2013 9.66248 0.00768758
14.6715 7.74924 2
16.6661 6.31991 0
23.1306 33.7983 3.9765
25.4413 34.2588 2
27.506 34.7717 0.0562558
17.6325 24.0404 3.97098
17.858 22.3212 2
14.3145 24.45 3.97074
15.5307 22.9197 2
16.6823 21.3766 0.02703
19.066 27.2007 3.97034
19.724 21.5709 0.0199375
19.6691 24.3789 2
21.2226 30.661 3.97213
22.8492 24.5991 0.0289665
21.9594 27.8206 2
23.7876 31.1844 2
24.5911 28.5242 0.0288904
26.2318 31.6963 0.00943632
20.2991 35.9222 3.97621
22.5609 36.2766 2
24.814 36.8558 0.0140507
23.0126 41.7993 0.0191242
21.8286 38.5052 0.0229677
20.7493 40.6354 2
20.1614 37.7837 2
18.1237 39.0008 3.9755
19.769 42.8896 0.0219048
17.3914 42.1006 2
14.8264 41.9174 3.97285
16.968 44.3806 0.0250675
14.856 44.2001 2
12.7084 44.3918 3.97035
14.8471 46.0907 0.0277289
12.9665 46.2958 2
10.989 46.7338 3.97032
13.2954 48.0087 0.0288112
11.4881 48.5495 2
9.52773 49.2397 3.97212
12.1169 50.2519 0.0286271
10.2648 51.0792 2
8.26664 52.0016 3.97631
11.1388 52.8349 0.0273383
9.23385 53.888 2
7.1925 55.0321 3.98435
6.31991 58.3339 4
8.38245 56.9795 2
10.3243 55.7098 0.0226127
7.74924 60.3285 2
9.69955 58.8498 0.014263
9.30605 62.2254 0
13.2299 25.3619 3.97178
12.8297 23.2824 3.97029
13.9613 21.752 2
12.236 20.55 3.9743
15.1468 20.1849 0.0257597
13.4493 18.8989 2
11.6578 17.5634 3.98084
14.7472 17.3018 0.0204247
13.0277 15.8808 2
11.2192 14.372 3.98852
14.4821 14.2887 0.0165935
12.7812 12.6874 2
10.9835 10.9835 4
14.4441 11.1136 0.00827804
12.7745 9.306 2
14.6715 7.74927 0
20.6633 33.3935 3.97454
23.1352 33.7985 2
25.4592 34.2617 0.0113333
15.9134 26.3982 3.97039
17.6326 24.0399 2
17.8578 22.322 0.0171437
14.3147 24.4497 2
15.5304 22.9202 0.0299428
18.4192 30.1704 3.97281
19.0649 27.2005 2
19.6691 24.3793 0.0304478
21.2278 30.661 2
21.9585 27.8208 0.0290827
23.7953 31.184 0.0255439
17.755 35.9625 3.97565
20.3011 35.9222 2
22.5618 36.2766 0.0226976
20.7521 40.6354 0.0222901
20.1635 37.7838 0.0231829
18.1243 39.0008 2
14.3564 39.1752 3.97338
17.3917 42.1007 0.0245147
14.8264 41.9174 2
12.4051 42.276 3.97049
14.856 44.2002 0.0276741
12.7084 44.3918 2
10.5658 44.8026 3.96977
12.9665 46.2959 0.029441
10.989 46.7339 2
8.90991 47.3192 3.97154
11.488 48.5495 0.0290604
9.5279 49.2396 2
7.43368 50.0351 3.97571
10.2645 51.0793 0.0273852
8.26691 52.0012 2
6.13317 53.0068 3.98475
9.23359 53.8882 0.0233177
7.19196 55.0294 2
5.0241 56.25 4
6.31988 58.3339 2
8.38337 56.9821 0.0154817
7.74927 60.3285 0
13.4679 26.8134 3.97025
11.9417 24.7885 3.97168
13.2302 25.3615 2
11.1408 22.2357 3.97209
12.8301 23.2819 2
13.961 21.7527 0.0290699
12.2364 20.5491 2
10.3888 19.3188 3.97901
13.4491 18.9001 0.0233464
11.6579 17.5623 2
9.76019 16.1558 3.9868
13.0276 15.8819 0.0175903
11.2185 14.3727 2
9.30607 12.7746 4
12.7817 12.6869 0.00964871
10.9835 10.9835 2
12.7746 9.30605 0
17.9171 33.1089 3.97463
20.6644 33.3935 2
23.1306 33.7983 0.0234966
15.5132 29.6347 3.97176
15.9124 26.3978 2
17.6325 24.0404 0.0290163
14.3145 24.45 0.029259
18.4206 30.1705 2
19.066 27.2007 0.0296647
21.2226 30.661 0.0278695
14.9636 36.0171 3.97387
17.7553 35.9626 2
20.2991 35.9222 0.0237873
12.6307 37.8285 3.97307
18.1237 39.0008 0.0245019
14.3567 39.1751 2
11.9281 40.1397 3.97121
14.8264 41.9174 0.0271481
12.4049 42.276 2
10.1659 42.7777 3.96919
12.7084 44.3918 0.029651
10.5658 44.8026 2
8.38782 45.3213 3.97087
10.989 46.7338 0.0296785
8.90995 47.3192 2
6.72497 48.0005 3.97521
9.52773 49.2397 0.0278815
7.43383 50.0348 2
5.21006 50.91 3.98479
8.26664 52.0016 0.023689
6.13287 53.0047 2
3.86727 54.0858 4
7.1925 55.0321 0.0156469
5.02404 56.25 2
6.31991 58.3339 0
12.9267 29.0318 3.97009
11.371 26.4872 3.97065
13.4673 26.8131 2
10.1997 23.9683 3.97238
11.9421 24.7882 2
13.2299 25.3619 0.0282213
9.24223 21.1385 3.97658
11.1413 22.2351 2
12.8297 23.2824 0.0297105
12.236 20.55 0.0256999
10.3892 19.318 2
8.41618 18.0274 3.9855
11.6578 17.5634 0.0191617
9.7593 16.1571 2
7.74928 14.6715 4
11.2192 14.372 0.0114804
9.30602 12.7745 2
10.9835 10.9835 0
14.5242 32.8612 3.97302
17.918 33.109 2
20.6633 33.3935 0.0254606
15.5134 29.6345 2
15.9134 26.3982 0.0296114
18.4192 30.1704 0.0271891
12.9252 36.2083 3.97229
14.964 36.0171 2
17.755 35.9625 0.024352
12.631 37.8285 2
11.2838 38.3092 3.97172
14.3564 39.1752 0.0266157
11.9283 40.1397 2
9.75442 40.754 3.9694
12.4051 42.276 0.0295066
10.1659 42.7777 2
7.93782 43.27 3.96975
10.5658 44.8026 0.030227
8.38781 45.3213 2
6.13127 45.9058 3.97467
8.90991 47.3192 0.0284591
6.72501 48.0002 2
4.42171 48.751 3.9845
7.43368 50.0351 0.0242899
5.20988 50.9088 2
2.85457 51.8506 4
6.13317 53.0068 0.015246
3.86727 54.0858 2
5.0241 56.25 0
12.0732 31.2554 3.97101
10.7832 28.4144 3.96972
12.9266 29.0316 2
9.41427 25.798 3.97183
11.3711 26.4869 2
13.4679 26.8134 0.0297482
8.2296 23.0235 3.97579
10.2002 23.968 2
11.9417 24.7885 0.0283181
7.19863 19.9782 3.98433
9.24284 21.1382 2
11.1408 22.2357 0.0279115
10.3888 19.3188 0.0209853
8.41546 18.0295 2
6.31992 16.6661 4
9.76019 16.1558 0.0132044
7.74926 14.6714 2
9.30607 12.7746 0
12.1087 34.294 3.97235
14.5239 32.8612 2
17.9171 33.1089 0.0253733
15.5132 29.6347 0.0282375
10.8469 36.6107 3.97147
12.9254 36.2083 2
14.9636 36.0171 0.0261347
12.6307 37.8285 0.0269339
11.2841 38.3091 2
9.35071 38.8233 3.96975
11.9281 40.1397 0.0287887
9.75471 40.754 2
7.54973 41.2112 3.96941
10.1659 42.7777 0.0308134
7.93785 43.2699 2
5.64378 43.7686 3.97381
8.38782 45.3213 0.0291271
6.13126 45.9055 2
3.76744 46.537 3.98401
6.72497 48.0005 0.0247927
4.42162 48.7504 2
1.99014 49.554 4
5.21006 50.91 0.0152122
2.85451 51.8506 2
3.86727 54.0858 0
10.9289 32.9185 3.97167
10.0965 30.3815 3.96948
12.0733 31.2554 2
8.72252 27.7316 3.9709
10.7832 28.4142 2
12.9267 29.0318 0.0299096
7.35501 24.9824 3.97547
9.41447 25.7977 2
11.371 26.4872 0.0293499
6.1157 22.0024 3.98432
8.23017 23.0235 2
10.1997 23.9683 0.0276178
5.02411 18.75 4
7.19834 19.9805 2
9.24223 21.1385 0.0234237
8.41618 18.0274 0.0144979
6.3199 16.6661 2
7.74928 14.6715 0
10.4538 34.9996 3.97125
12.109 34.294 2
14.5242 32.8612 0.0269805
9.02105 36.9847 3.96997
10.8475 36.6106 2
12.9252 36.2083 0.0277127
11.2838 38.3092 0.0282774
9.35087 38.8232 2
7.23039 39.1819 3.96961
9.75442 40.754 0.0306037
7.54992 41.2111 2
5.25964 41.6142 3.97291
7.93782 43.27 0.0302523
5.6438 43.7684 2
3.24538 44.282 3.98326
6.13127 45.9058 0.0253321
3.76744 46.5368 2
1.27781 47.2057 4
4.42171 48.751 0.0154952
1.99012 49.554 2
2.85457 51.8506 0
10.094 33.881 3.97125
9.38897 32.1541 3.96988
10.9289 32.9184 2
8.07202 29.6952 3.97037
10.0965 30.3814 2
12.0732 31.2554 0.0289863
6.59894 27.0083 3.97471
8.72255 27.7315 2
10.7832 28.4144 0.0302787
5.17102 24.0954 3.98466
7.35529 24.9823 2
9.41427 25.798 0.0281675
3.86728 20.9142 4
6.11564 22.004 2
8.2296 23.0235 0.0242136
5.02406 18.75 2
7.19863 19.9782 0.0156746
6.31992 16.6661 0
8.84606 35.2792 3.97028
10.454 34.9995 2
12.1087 34.294 0.0276502
7.01411 37.2057 3.9698
9.02096 36.9847 2
10.8469 36.6107 0.0285295
9.35071 38.8233 0.0302536
7.23048 39.1819 2
4.98769 39.4675 3.97263
7.54973 41.2112 0.0305921
5.25982 41.614 2
2.85609 42.0024 3.98253
5.64378 43.7686 0.0261851
3.24543 44.282 2
0.720592 44.8159 4
3.76744 46.537 0.0159935
1.27778 47.2057 2
1.99014 49.554 0
8.88515 33.6976 3.97049
10.0941 33.8809 2
7.5095 31.6089 3.97058
9.38897 32.154 2
10.9289 32.9185 0.0283261
5.94441 29.0694 3.9742
8.07193 29.6951 2
10.0965 30.3815 0.0305182
4.35882 26.2478 3.98424
6.59902 27.0083 2
8.72252 27.7316 0.0290968
2.85458 23.1494 4
5.171 24.0962 2
7.35501 24.9824 0.0245349
3.86728 20.9142 2
6.1157 22.0024 0.0156836
5.02411 18.75 0
6.96429 35.3059 3.96997
8.84631 35.2791 2
10.4538 34.9996 0.0287485
4.83779 37.3399 3.97303
7.01421 37.2057 2
9.02105 36.9847 0.0300258
7.23039 39.1819 0.0303875
4.98777 39.4674 2
2.60433 39.7141 3.98204
5.25964 41.6142 0.0270916
2.8563 42.0026 2
0.320823 42.3947 4
3.24538 44.282 0.0167432
0.720551 44.8159 2
1.27781 47.2057 0
7.12357 33.4607 3.97071
8.88525 33.6975 2
10.094 33.881 0.0287543
5.41542 31.1333 3.97418
7.50945 31.6088 2
9.38897 32.1541 0.0301182
3.68073 28.4436 3.98358
5.94433 29.0694 2
8.07202 29.6952 0.0296274
1.99015 25.446 4
4.35884 26.2481 2
6.59894 27.0083 0.0252913
2.85453 23.1494 2
5.17102 24.0954 0.0153413
3.86728 20.9142 0
4.85206 35.2515 3.97312
6.9645 35.3058 2
8.84606 35.2792 0.0297189
2.49571 37.4286 3.98244
4.83788 37.3399 2
7.01411 37.2057 0.0301981
4.98769 39.4675 0.027371
2.60445 39.7144 2
0.080333 39.9526 4
2.85609 42.0024 0.0174701
0.320817 42.3947 2
0.720592 44.8159 0
5.04504 33.19 3.97388
7.12366 33.4606 2
8.88515 33.6976 0.0295138
3.14515 30.6662 3.98307
5.41535 31.1334 2
7.5095 31.6089 0.0294163
1.27793 27.7943 4
3.68074 28.4436 2
5.94441 29.0694 0.025799
1.99013 25.446 2
4.35882 26.2478 0.0157556
2.85458 23.1494 0
2.54783 35.1591 3.98255
4.85226 35.2516 2
6.96429 35.3059 0.0300262
0 37.5 4
2.49585 37.4289 2
4.83779 37.3399 0.0269735
2.60433 39.7141 0.0179573
0.0802903 39.9526 2
0.320823 42.3947 0
2.76528 32.9058 3.9829
5.04514 33.1901 2
7.12357 33.4607 0.0292938
0.721173 30.1842 4
3.14519 30.6664 2
5.41542 31.1333 0.0258169
1.27779 27.7943 2
3.68073 28.4436 0.0164214
1.99015 25.446 0
0.0806499 35.0474 4
2.54805 35.1594 2
4.85206 35.2515 0.0268819
0 37.5 2
2.49571 37.4286 0.0175629
0.080333 39.9526 0
0.32156 32.6054 4
2.76541 32.9062 2
5.04504 33.19 0.0261183
0.72056 30.1841 2
3.14515 30.6662 0.0169302
1.27793 27.7943 0
0.0802889 35.0474 2
2.54783 35.1591 0.017449
0 37.5 0
0.320817 32.6053 2
2.76528 32.9058 0.0170959
0.721173 30.1842 0
0.0806499 35.0474 0
0.32156 32.6054 0
CELLS 1910 17190
8 18 6 25 56 2 0 5 16
8 57 23 6 18 17 4 0 2
8 78 36 9 29 31 11 1 7
8 31 11 1 7 79 37 10 30
8 110 57 18 50 48 17 2 14
8 50 18 56 111 14 2 16 49
8 116 62 22 55 52 20 3 15
8 56 25 67 118 16 5 24 53
8 119 63 23 57 54 21 4 17
8 55 22 63 119 15 3 21 54
8 58 26 68 121 18 6 25 56
8 122 65 26 58 57 23 6 18
8 73 31 7 27 142 79 30 71
8 143 78 29 72 73 31 7 27
8 83 147 76 34 32 74 28 8
8 84 148 78 36 33 75 29 9
8 76 34 8 28 148 84 33 75
8 37 79 150 86 10 30 77 35
8 151 87 36 78 80 38 11 31
8 80 38 11 31 152 88 37 79
8 175 100 42 94 96 44 12 40
8 44 96 176 101 12 40 95 43
8 101 176 98 46 43 95 41 13
8 46 98 178 103 13 41 97 45
8 178 103 45 97 147 83 32 74
8 189 116 55 109 106 52 15 47
8 111 56 118 191 49 16 53 107
8 192 119 57 110 108 54 17 48
8 109 55 119 192 47 15 54 108
8 194 122 58 112 110 57 18 50
8 112 58 121 195 50 18 56 111
8 115 61 19 51 197 124 59 113
8 115 61 125 198 51 19 60 114
8 198 125 62 116 114 60 20 52
8 200 127 64 120 116 62 22 55
8 118 67 132 202 53 24 66 117
8 121 68 133 203 56 25 67 118
8 120 64 128 204 55 22 63 119
8 204 128 65 122 119 63 23 57
8 206 134 68 121 123 69 26 58
8 123 69 26 58 207 131 65 122
8 226 147 74 138 140 76 28 70
8 229 148 75 139 143 78 29 72
8 140 76 28 70 229 148 75 139
8 142 79 30 71 231 150 77 141
8 144 80 31 73 232 152 79 142
8 233 151 78 143 144 80 31 73
8 150 86 35 77 235 154 81 145
8 235 154 81 145 146 82 39 91
8 146 82 39 91 236 155 90 165
8 238 157 83 147 149 85 34 76
8 239 158 84 148 151 87 36 78
8 149 85 34 76 239 158 84 148
8 152 88 37 79 241 160 86 150
8 242 161 87 151 153 89 38 80
8 153 89 38 80 243 162 88 152
8 171 98 41 92 265 178 97 169
8 265 178 97 169 226 147 74 138
8 172 96 40 93 266 176 95 170
8 266 176 95 170 171 98 41 92
8 269 175 94 173 172 96 40 93
8 271 180 99 174 175 100 42 94
8 197 124 59 113 271 180 99 174
8 272 181 100 175 177 102 44 96
8 273 182 101 176 179 104 46 98
8 177 102 44 96 273 182 101 176
8 179 104 46 98 275 184 103 178
8 275 184 103 178 238 157 83 147
8 188 115 51 105 283 197 113 186
8 188 115 198 284 105 51 114 187
8 284 198 116 189 187 114 52 106
8 286 200 120 193 189 116 55 109
8 191 118 202 288 107 53 117 190
8 195 121 203 289 111 56 118 191
8 193 120 204 290 109 55 119 192
8 290 204 122 194 192 119 57 110
8 196 123 58 112 292 207 122 194
8 293 206 121 195 196 123 58 112
8 199 126 61 115 297 211 124 197
8 298 212 127 200 198 125 62 116
8 199 126 212 298 115 61 125 198
8 205 129 64 120 300 214 127 200
8 301 217 130 201 202 132 66 117
8 209 136 168 264 301 217 130 201
8 302 219 132 202 203 133 67 118
8 303 220 133 203 206 134 68 121
8 205 129 215 304 120 64 128 204
8 304 215 131 207 204 128 65 122
8 306 221 134 206 208 135 69 123
8 208 135 69 123 307 218 131 207
8 210 137 167 263 309 223 136 209
8 328 238 147 226 230 149 76 140
8 228 146 91 166 329 236 165 260
8 231 150 77 141 330 235 145 227
8 330 235 145 227 228 146 91 166
8 332 239 148 229 233 151 78 143
8 230 149 76 140 332 239 148 229
8 232 152 79 142 334 241 150 231
8 234 153 80 144 335 243 152 232
8 336 242 151 233 234 153 80 144
8 236 155 90 165 338 245 164 259
8 241 160 86 150 339 246 154 235
8 339 246 154 235 237 156 82 146
8 237 156 82 146 340 247 155 236
8 342 249 157 238 240 159 85 149
8 343 250 158 239 242 161 87 151
8 240 159 85 149 343 250 158 239
8 243 162 88 152 345 252 160 241
8 244 163 253 346 153 89 161 242
8 244 163 89 153 347 254 162 243
8 311 224 261 371 210 137 167 263
8 263 167 262 372 209 136 168 264
8 267 179 98 171 375 275 178 265
8 375 275 178 265 328 238 147 226
8 376 273 176 266 267 179 98 171
8 268 177 96 172 376 273 176 266
8 379 272 175 269 268 177 96 172
8 380 271 174 270 269 175 94 173
8 283 197 113 186 380 271 174 270
8 381 277 180 271 272 181 100 175
8 297 211 124 197 381 277 180 271
8 382 278 181 272 274 183 102 177
8 274 183 102 177 383 279 182 273
8 383 279 182 273 276 185 104 179
8 385 281 184 275 342 249 157 238
8 276 185 104 179 385 281 184 275
8 285 199 115 188 393 297 197 283
8 394 298 200 286 284 198 116 189
8 285 199 298 394 188 115 198 284
8 291 205 120 193 396 300 200 286
8 397 301 201 287 288 202 117 190
8 295 209 264 374 397 301 201 287
8 398 302 202 288 289 203 118 191
8 399 303 203 289 293 206 121 195
8 291 205 304 400 193 120 204 290
8 400 304 207 292 290 204 122 194
8 294 208 123 196 402 307 207 292
8 403 306 206 293 294 208 123 196
8 296 210 263 373 405 309 209 295
8 408 312 213 299 297 211 126 199
8 299 213 313 409 199 126 212 298
8 409 313 214 300 298 212 127 200
8 305 216 129 205 411 315 214 300
8 412 318 217 301 302 219 132 202
8 309 223 136 209 412 318 217 301
8 413 320 219 302 303 220 133 203
8 306 221 321 414 206 134 220 303
8 307 218 131 207 415 316 215 304
8 305 216 316 415 205 129 215 304
8 417 322 221 306 308 222 135 208
8 308 222 135 208 418 319 218 307
8 310 225 137 210 420 325 223 309
8 423 326 224 311 310 225 137 210
8 329 236 165 260 441 338 259 368
8 442 342 238 328 333 240 149 230
8 331 237 146 228 443 340 236 329
8 334 241 150 231 444 339 235 330
8 444 339 235 330 331 237 146 228
8 446 343 239 332 336 242 151 233
8 333 240 149 230 446 343 239 332
8 335 243 152 232 448 345 241 334
8 337 244 153 234 449 347 243 335
8 337 244 346 450 234 153 242 336
8 338 245 164 259 452 349 258 367
8 340 247 155 236 453 350 245 338
8 345 252 160 241 454 351 246 339
8 454 351 246 339 341 248 156 237
8 341 248 156 237 455 352 247 340
8 240 159 251 344 342 249 354 457
8 242 161 253 346 343 250 355 458
8 343 250 355 458 240 159 251 344
8 347 254 162 243 460 357 252 345
8 348 255 358 461 244 163 253 346
8 348 255 163 244 462 359 254 347
8 473 360 257 365 363 256 364 482
8 452 349 258 367 365 257 366 485
8 422 324 369 488 311 224 261 371
8 371 261 370 490 263 167 262 372
8 407 311 371 491 296 210 263 373
8 373 263 372 492 295 209 264 374
8 493 385 275 375 442 342 238 328
8 377 276 179 267 493 385 275 375
8 378 274 177 268 494 383 273 376
8 494 383 273 376 377 276 179 267
8 497 382 272 379 378 274 177 268
8 498 381 271 380 379 272 175 269
8 393 297 197 283 498 381 271 380
8 499 387 277 381 382 278 181 272
8 408 312 211 297 499 387 277 381
8 500 388 278 382 384 280 183 274
8 501 389 279 383 386 282 185 276
8 384 280 183 274 501 389 279 383
8 386 282 185 276 503 391 281 385
8 503 391 281 385 457 354 249 342
8 511 408 299 395 393 297 199 285
8 395 299 409 512 285 199 298 394
8 512 409 300 396 394 298 200 286
8 401 305 205 291 514 411 300 396
8 515 412 301 397 398 302 202 288
8 405 309 209 295 515 412 301 397
8 516 413 302 398 399 303 203 289
8 403 306 414 517 293 206 303 399
8 402 307 207 292 518 415 304 400
8 401 305 415 518 291 205 304 400
8 404 308 208 294 520 418 307 402
8 521 417 306 403 404 308 208 294
8 406 310 210 296 523 420 309 405
8 526 423 311 407 406 310 210 296
8 410 314 213 299 527 424 312 408
8 528 425 315 411 409 313 214 300
8 410 314 425 528 299 213 313 409
8 416 317 216 305 530 427 315 411
8 531 430 318 412 413 320 219 302
8 420 325 223 309 531 430 318 412
8 532 432 320 413 414 321 220 303
8 417 322 433 533 306 221 321 414
8 418 319 218 307 534 428 316 415
8 416 317 428 534 305 216 316 415
8 419 323 434 536 308 222 322 417
8 419 323 222 308 537 431 319 418
8 421 327 225 310 539 438 325 420
8 421 327 439 541 310 225 326 423
8 543 437 324 422 423 326 224 311
8 441 338 259 368 559 452 367 486
8 443 340 236 329 560 453 338 441
8 333 240 344 447 442 342 457 561
8 445 341 237 331 562 455 340 443
8 448 345 241 334 563 454 339 444
8 563 454 339 444 445 341 237 331
8 336 242 346 450 446 343 458 565
8 446 343 458 565 333 240 344 447
8 449 347 243 335 567 460 345 448
8 451 348 244 337 568 462 347 449
8 451 348 461 569 337 244 346 450
8 570 463 349 452 473 360 257 365
8 453 350 245 338 570 463 349 452
8 455 352 247 340 571 464 350 453
8 460 357 252 345 572 465 351 454
8 572 465 351 454 456 353 248 341
8 456 353 248 341 573 466 352 455
8 344 251 356 459 457 354 468 575
8 458 355 469 576 344 251 356 459
8 346 253 358 461 458 355 469 576
8 462 359 254 347 578 471 357 460
8 348 255 359 462 461 358 472 579
8 591 474 360 473 475 361 256 363
8 475 361 256 363 594 477 362 479
8 363 256 364 482 479 362 480 603
8 590 473 365 484 481 363 482 605
8 482 364 257 365 606 483 366 485
8 559 452 367 486 484 365 485 607
8 542 436 487 609 422 324 369 488
8 525 422 488 611 407 311 371 491
8 488 369 489 612 371 261 370 490
8 491 371 490 613 373 263 372 492
8 495 386 276 377 614 503 385 493
8 614 503 385 493 561 457 342 442
8 615 501 383 494 495 386 276 377
8 496 384 274 378 615 501 383 494
8 618 500 382 497 496 384 274 378
8 619 499 381 498 497 382 272 379
8 511 408 297 393 619 499 381 498
8 620 505 387 499 500 388 278 382
8 527 424 312 408 620 505 387 499
8 502 390 506 621 384 280 388 500
8 622 507 389 501 504 392 282 386
8 502 390 280 384 622 507 389 501
8 504 392 282 386 624 509 391 503
8 624 509 391 503 575 468 354 457
8 513 410 299 395 630 527 408 511
8 631 528 411 514 512 409 300 396
8 513 410 528 631 395 299 409 512
8 519 416 305 401 633 530 411 514
8 634 531 412 515 516 413 302 398
8 523 420 309 405 634 531 412 515
8 635 532 413 516 517 414 303 399
8 521 417 533 636 403 306 414 517
8 520 418 307 402 637 534 415 518
8 519 416 534 637 401 305 415 518
8 522 419 308 404 639 537 418 520
8 522 419 536 640 404 308 417 521
8 524 421 310 406 642 539 420 523
8 524 421 541 644 406 310 423 526
8 646 543 422 525 526 423 311 407
8 529 426 314 410 647 544 424 527
8 528 425 545 648 411 315 427 530
8 529 426 545 648 410 314 425 528
8 535 429 317 416 649 546 427 530
8 650 548 430 531 532 432 320 413
8 539 438 325 420 650 548 430 531
8 533 433 550 651 414 321 432 532
8 536 434 551 652 417 322 433 533
8 537 431 319 418 653 547 428 534
8 535 429 547 653 416 317 428 534
8 538 435 552 654 419 323 434 536
8 538 435 323 419 655 549 431 537
8 540 440 327 421 657 556 438 539
8 540 440 557 659 421 327 439 541
8 541 439 555 660 423 326 437 543
8 661 554 436 542 543 437 324 422
8 676 570 452 559 590 473 365 484
8 560 453 338 441 676 570 452 559
8 562 455 340 443 677 571 453 560
8 447 344 459 566 561 457 575 678
8 564 456 341 445 679 573 455 562
8 567 460 345 448 680 572 454 563
8 680 572 454 563 564 456 341 445
8 565 458 576 682 447 344 459 566
8 450 346 461 569 565 458 576 682
8 568 462 347 449 684 578 460 567
8 451 348 462 568 569 461 579 685
8 686 580 463 570 591 474 360 473
8 571 464 350 453 686 580 463 570
8 573 466 352 455 687 581 464 571
8 572 465 582 688 460 357 471 578
8 574 467 582 688 456 353 465 572
8 574 467 353 456 689 583 466 573
8 459 356 470 577 575 468 585 691
8 576 469 586 692 459 356 470 577
8 461 358 472 579 576 469 586 692
8 462 359 471 578 579 472 588 694
8 704 591 473 590 593 475 363 481
8 595 476 592 705 475 361 474 591
8 593 475 363 481 707 594 479 602
8 594 477 362 479 709 598 478 600
8 595 476 361 475 711 597 477 594
8 479 362 480 603 600 478 601 720
8 481 363 482 605 602 479 603 722
8 603 480 364 482 723 604 483 606
8 605 482 365 484 724 606 485 607
8 656 553 608 726 542 436 487 609
8 645 542 609 728 525 422 488 611
8 609 487 610 729 488 369 489 612
8 611 488 612 730 491 371 490 613
8 616 504 386 495 731 624 503 614
8 731 624 503 614 678 575 457 561
8 732 622 501 615 616 504 386 495
8 617 502 384 496 732 622 501 615
8 617 502 621 735 496 384 500 618
8 736 620 499 619 618 500 382 497
8 630 527 408 511 736 620 499 619
8 621 506 626 737 500 388 505 620
8 647 544 424 527 737 626 505 620
8 623 508 627 738 502 390 506 621
8 623 508 390 502 739 628 507 622
8 625 510 628 739 504 392 507 622
8 740 629 509 624 691 585 468 575
8 625 510 392 504 740 629 509 624
8 632 529 410 513 744 647 527 630
8 631 528 648 745 514 411 530 633
8 632 529 648 745 513 410 528 631
8 638 535 416 519 746 649 530 633
8 747 650 531 634 635 532 413 516
8 642 539 420 523 747 650 531 634
8 636 533 651 748 517 414 532 635
8 640 536 652 749 521 417 533 636
8 639 537 418 520 750 653 534 637
8 638 535 653 750 519 416 534 637
8 641 538 419 522 751 655 537 639
8 641 538 654 752 522 419 536 640
8 643 540 421 524 753 657 539 642
8 643 540 659 755 524 421 541 644
8 644 541 660 757 526 423 543 646
8 758 661 542 645 646 543 422 525
8 529 426 544 647 648 545 662 759
8 530 427 545 648 649 546 663 760
8 535 429 546 649 653 547 664 761
8 762 666 548 650 651 550 432 532
8 657 556 438 539 762 666 548 650
8 652 551 668 763 533 433 550 651
8 654 552 669 764 536 434 551 652
8 655 549 431 537 765 665 547 653
8 538 435 549 655 654 552 667 766
8 661 554 671 768 542 436 553 656
8 658 558 440 540 769 674 556 657
8 658 558 675 770 540 440 557 659
8 659 557 673 771 541 439 555 660
8 660 555 672 772 543 437 554 661
8 788 686 570 676 704 591 473 590
8 677 571 453 560 788 686 570 676
8 679 573 455 562 789 687 571 677
8 566 459 577 683 678 575 691 790
8 681 574 456 564 791 689 573 679
8 680 572 688 792 567 460 578 684
8 681 574 688 792 564 456 572 680
8 682 576 692 794 566 459 577 683
8 569 461 579 685 682 576 692 794
8 568 462 578 684 685 579 694 796
8 687 581 464 571 798 696 580 686
8 798 696 580 686 705 592 474 591
8 689 583 466 573 799 697 581 687
8 688 582 698 800 578 471 588 694
8 690 584 698 800 574 467 582 688
8 690 584 467 574 801 699 583 689
8 693 587 701 803 577 470 585 691
8 693 587 470 577 804 702 586 692
8 695 589 702 804 579 472 586 692
8 695 589 472 579 805 703 588 694
8 708 595 705 813 593 475 591 704
8 710 596 706 814 595 476 592 705
8 707 594 479 602 816 709 600 719
8 708 595 475 593 817 711 594 707
8 709 598 478 600 819 715 599 717
8 711 597 477 594 820 714 598 709
8 710 596 476 595 822 713 597 711
8 600 478 601 720 717 599 718 832
8 602 479 603 722 719 600 720 834
8 720 601 480 603 835 721 604 723
8 722 603 482 605 836 723 606 724
8 767 670 725 839 656 553 608 726
8 756 656 726 841 645 542 609 728
8 726 608 727 842 609 487 610 729
8 728 609 729 843 611 488 612 730
8 844 740 624 731 790 691 575 678
8 733 625 504 616 844 740 624 731
8 734 623 502 617 845 739 622 732
8 733 625 739 845 616 504 622 732
8 734 623 738 846 617 502 621 735
8 735 621 737 847 618 500 620 736
8 744 647 527 630 847 737 620 736
8 621 506 627 738 737 626 741 848
8 647 544 626 737 759 662 741 848
8 623 508 628 739 738 627 742 849
8 740 629 585 691 850 743 700 802
8 625 510 629 740 739 628 743 850
8 632 529 647 744 745 648 759 854
8 633 530 648 745 746 649 760 855
8 638 535 649 746 750 653 761 856
8 857 762 650 747 748 651 532 635
8 753 657 539 642 857 762 650 747
8 749 652 763 858 636 533 651 748
8 752 654 764 859 640 536 652 749
8 751 655 537 639 860 765 653 750
8 641 538 655 751 752 654 766 861
8 754 658 540 643 862 769 657 753
8 754 658 770 863 643 540 659 755
8 755 659 771 864 644 541 660 757
8 758 661 768 866 645 542 656 756
8 757 660 772 867 646 543 661 758
8 759 662 773 868 648 545 663 760
8 649 546 663 760 761 664 774 871
8 765 665 547 653 872 775 664 761
8 873 777 666 762 763 668 550 651
8 769 674 556 657 873 777 666 762
8 764 669 779 874 652 551 668 763
8 654 552 667 766 764 669 778 875
8 655 549 665 765 766 667 776 876
8 768 671 782 877 656 553 670 767
8 772 672 783 878 661 554 671 768
8 658 558 674 769 770 675 786 879
8 659 557 675 770 771 673 785 881
8 882 784 672 772 771 673 555 660
8 789 687 571 677 897 798 686 788
8 897 798 686 788 813 705 591 704
8 791 689 573 679 898 799 687 789
8 795 693 803 900 683 577 691 790
8 793 690 574 681 901 801 689 791
8 792 688 800 902 684 578 694 796
8 793 690 800 902 681 574 688 792
8 795 693 577 683 903 804 692 794
8 797 695 804 903 685 579 692 794
8 797 695 579 685 904 805 694 796
8 905 806 697 799 798 696 581 687
8 814 706 806 905 705 592 696 798
8 689 583 697 799 801 699 808 907
8 800 698 809 908 694 588 703 805
8 690 584 699 801 800 698 809 908
8 803 701 810 909 691 585 700 802
8 693 587 702 804 803 701 811 910
8 695 589 703 805 804 702 812 911
8 818 710 814 919 708 595 705 813
8 821 712 815 920 710 596 706 814
8 816 709 600 719 922 819 717 831
8 817 711 594 707 923 820 709 816
8 818 710 595 708 924 822 711 817
8 819 715 599 717 926 827 716 829
8 820 714 598 709 927 826 715 819
8 929 825 713 822 820 714 597 711
8 821 712 596 710 930 824 713 822
8 717 599 718 832 829 716 830 942
8 719 600 720 834 831 717 832 944
8 832 718 601 720 945 833 721 835
8 834 720 603 722 946 835 723 836
8 869 780 838 950 767 670 725 839
8 865 767 839 952 756 656 726 841
8 839 725 840 953 726 608 727 842
8 841 726 842 954 728 609 729 843
8 844 740 691 790 955 850 802 899
8 733 625 740 844 845 739 850 955
8 734 623 739 845 846 738 849 956
8 735 621 738 846 847 737 848 957
8 744 647 737 847 854 759 848 957
8 738 627 742 849 848 741 851 958
8 848 741 851 958 759 662 773 868
8 850 743 700 802 959 852 807 906
8 849 742 628 739 959 852 743 850
8 854 759 868 965 745 648 760 855
8 746 649 760 855 856 761 871 966
8 860 765 653 750 967 872 761 856
8 968 873 762 857 858 763 651 748
8 862 769 657 753 968 873 762 857
8 859 764 874 969 749 652 763 858
8 752 654 766 861 859 764 875 970
8 751 655 765 860 861 766 876 971
8 754 658 769 862 863 770 879 972
8 755 659 770 863 864 771 881 974
8 976 882 772 867 864 771 660 757
8 866 768 877 977 756 656 767 865
8 867 772 878 978 758 661 768 866
8 760 663 773 868 871 774 883 980
8 870 781 837 948 982 890 780 869
8 982 890 780 869 877 782 670 767
8 761 664 774 871 872 775 884 984
8 876 776 665 765 985 885 775 872
8 873 777 668 763 986 887 779 874
8 769 674 777 873 879 786 887 986
8 764 669 778 875 874 779 888 987
8 766 667 776 876 875 778 886 988
8 878 783 892 989 768 671 782 877
8 878 783 672 772 990 893 784 882
8 880 787 675 770 991 896 786 879
8 880 787 895 992 770 675 785 881
8 881 785 894 993 771 673 784 882
8 1006 905 799 898 897 798 687 789
8 919 814 905 1006 813 705 798 897
8 791 689 799 898 901 801 907 1007
8 900 803 909 1009 790 691 802 899
8 795 693 804 903 900 803 910 1010
8 902 800 908 1011 796 694 805 904
8 793 690 801 901 902 800 908 1011
8 797 695 805 904 903 804 911 1012
8 799 697 806 905 907 808 912 1013
8 920 815 912 1013 814 706 806 905
8 802 700 810 909 906 807 913 1014
8 801 699 808 907 908 809 914 1015
8 805 703 809 908 911 812 915 1016
8 803 701 811 910 909 810 916 1017
8 911 812 917 1018 804 702 811 910
8 925 821 920 1030 818 710 814 919
8 928 823 921 1031 821 712 815 920
8 922 819 717 831 1033 926 829 941
8 923 820 709 816 1034 927 819 922
8 1035 929 822 924 923 820 711 817
8 925 821 710 818 1036 930 822 924
8 1038 933 825 929 927 826 714 820
8 926 827 716 829 1039 935 828 939
8 927 826 715 819 1040 934 827 926
8 928 823 712 821 1041 931 824 930
8 1042 932 824 930 929 825 713 822
8 829 716 830 942 939 828 940 1058
8 831 717 832 944 941 829 942 1060
8 942 830 718 832 1061 943 833 945
8 944 832 720 834 1062 945 835 946
8 981 889 947 1064 870 781 837 948
8 948 837 949 1067 869 780 838 950
8 975 869 950 1069 865 767 839 952
8 950 838 951 1070 839 725 840 953
8 952 839 953 1071 841 726 842 954
8 955 850 802 899 1072 959 906 1008
8 956 849 739 845 1072 959 850 955
8 846 738 849 956 957 848 958 1073
8 957 848 958 1073 854 759 868 965
8 849 742 852 959 958 851 961 1076
8 960 853 961 1076 906 807 852 959
8 958 851 961 1076 868 773 883 980
8 960 853 807 906 1077 963 913 1014
8 855 760 868 965 966 871 980 1085
8 856 761 871 966 967 872 984 1086
8 971 876 765 860 1087 985 872 967
8 968 873 763 858 1088 986 874 969
8 862 769 873 968 972 879 986 1088
8 859 764 875 970 969 874 987 1089
8 861 766 876 971 970 875 988 1090
8 973 880 770 863 1091 991 879 972
8 973 880 992 1092 863 770 881 974
8 974 881 993 1093 864 771 882 976
8 979 870 948 1066 1094 982 869 975
8 1094 982 869 975 977 877 767 865
8 978 878 772 867 1095 990 882 976
8 978 878 989 1096 866 768 877 977
8 871 774 883 980 984 884 994 1099
8 983 891 999 1100 870 781 889 981
8 1101 1000 890 982 989 892 782 877
8 983 891 781 870 1101 1000 890 982
8 872 775 884 984 985 885 995 1103
8 876 776 885 985 988 886 996 1104
8 986 887 779 874 1105 998 888 987
8 879 786 887 986 991 896 998 1105
8 875 778 886 988 987 888 997 1106
8 990 893 1002 1107 878 783 892 989
8 1108 1003 893 990 993 894 784 882
8 880 787 896 991 992 895 1005 1109
8 993 894 785 881 1110 1004 895 992
8 898 799 905 1006 1007 907 1013 1120
8 1030 920 1013 1120 919 814 905 1006
8 901 801 907 1007 1011 908 1015 1121
8 899 802 909 1009 1008 906 1014 1122
8 900 803 910 1010 1009 909 1017 1123
8 1012 911 1018 1124 903 804 910 1010
8 904 805 908 1011 1012 911 1016 1125
8 1013 912 1020 1127 907 808 914 1015
8 1031 921 1020 1127 920 815 912 1013
8 1019 918 962 1075 1128 1021 913 1014
8 1128 1021 913 1014 1017 916 810 909
8 1015 914 1022 1129 908 809 915 1016
8 1016 915 1023 1130 911 812 917 1018
8 1018 917 1024 1131 910 811 916 1017
8 1037 928 1031 1148 925 821 920 1030
8 928 823 931 1041 1031 921 1032 1149
8 1033 926 829 941 1151 1039 939 1057
8 1034 927 819 922 1152 1040 926 1033
8 1153 1038 929 1035 1034 927 820 923
8 1154 1042 930 1036 1035 929 822 924
8 1037 928 821 925 1155 1041 930 1036
8 1039 935 828 939 1156 1047 938 1055
8 1157 1043 932 1042 1038 933 825 929
8 1038 933 826 927 1158 1045 934 1040
8 1040 934 827 926 1159 1046 935 1039
8 930 824 932 1042 1041 931 1044 1160
8 1051 936 1048 1165 1175 1052 937 1053
8 1156 1047 938 1055 1053 937 1054 1178
8 939 828 940 1058 1055 938 1056 1181
8 941 829 942 1060 1057 939 1058 1183
8 942 830 943 1061 1058 940 1059 1184
8 1060 942 832 944 1185 1061 945 1062
8 1082 964 1063 1188 981 889 947 1064
8 1097 981 1064 1190 979 870 948 1066
8 1064 947 1065 1191 948 837 949 1067
8 1066 948 1067 1193 975 869 950 1069
8 1067 949 1068 1194 950 838 951 1070
8 1069 950 1070 1195 952 839 953 1071
8 956 849 959 1072 1073 958 1076 1197
8 1074 960 1076 1197 1008 906 959 1072
8 1073 958 1076 1197 965 868 980 1085
8 1074 960 906 1008 1198 1077 1014 1122
8 1133 1026 1079 1199 1019 918 962 1075
8 1077 963 913 1014 1200 1080 962 1075
8 960 853 963 1077 1076 961 1078 1201
8 980 883 961 1076 1099 994 1078 1201
8 1210 1083 964 1082 1100 999 889 981
8 966 871 980 1085 1086 984 1099 1215
8 967 872 984 1086 1087 985 1103 1216
8 971 876 985 1087 1090 988 1104 1217
8 1088 986 874 969 1218 1105 987 1089
8 972 879 986 1088 1091 991 1105 1218
8 970 875 988 1090 1089 987 1106 1219
8 973 880 991 1091 1092 992 1109 1220
8 1093 993 881 974 1221 1110 992 1092
8 1222 1108 990 1095 1093 993 882 976
8 1223 1101 982 1094 1096 989 877 977
8 1098 983 870 979 1223 1101 982 1094
8 1095 990 1107 1224 978 878 989 1096
8 1098 983 1100 1225 979 870 981 1097
8 984 884 994 1099 1103 995 1111 1227
8 1102 1001 1115 1228 983 891 999 1100
8 1101 1000 892 989 1229 1116 1002 1107
8 1102 1001 891 983 1229 1116 1000 1101
8 985 885 995 1103 1104 996 1112 1230
8 988 886 996 1104 1106 997 1113 1231
8 1105 998 888 987 1232 1114 997 1106
8 991 896 998 1105 1109 1005 1114 1232
8 1108 1003 1117 1233 990 893 1002 1107
8 1108 1003 894 993 1233 1117 1004 1110
8 992 895 1005 1109 1110 1004 1118 1234
8 1120 1013 1127 1244 1007 907 1015 1121
8 1148 1031 1127 1244 1030 920 1013 1120
8 1121 1015 1129 1245 1011 908 1016 1125
8 1126 1019 1075 1196 1246 1128 1014 1122
8 1246 1128 1014 1122 1123 1017 909 1009
8 1124 1018 1131 1247 1010 910 1017 1123
8 1125 1016 1130 1248 1012 911 1018 1124
8 1127 1020 1137 1254 1015 914 1022 1129
8 1031 921 1032 1149 1127 1020 1137 1254
8 1134 1027 918 1019 1257 1140 1021 1128
8 1257 1140 1021 1128 1131 1024 916 1017
8 1129 1022 1141 1258 1016 915 1023 1130
8 1130 1023 1142 1259 1018 917 1024 1131
8 1261 1144 1025 1132 1133 1026 1079 1199
8 1255 1138 1025 1132 1135 1028 1144 1261
8 1133 1026 918 1019 1262 1145 1027 1134
8 1136 1029 1139 1256 1263 1146 1028 1135
8 1037 928 1041 1155 1148 1031 1149 1275
8 1041 931 1044 1160 1149 1032 1150 1276
8 1151 1039 939 1057 1278 1156 1055 1180
8 1152 1040 926 1033 1279 1159 1039 1151
8 1153 1038 927 1034 1280 1158 1040 1152
8 1281 1157 1042 1154 1153 1038 929 1035
8 1036 930 1042 1154 1155 1041 1160 1282
8 1283 1164 1046 1159 1156 1047 935 1039
8 1165 1048 1164 1283 1053 937 1047 1156
8 1157 1043 933 1038 1284 1161 1045 1158
8 1157 1043 1161 1284 1042 932 1044 1160
8 1040 934 1046 1159 1158 1045 1163 1285
8 1166 1049 1167 1292 1051 936 1048 1165
8 1166 1049 936 1051 1293 1168 1050 1172
8 1051 936 1052 1175 1172 1050 1173 1306
8 1174 1051 1165 1290 1308 1175 1053 1177
8 1053 937 1054 1178 1175 1052 1176 1309
8 1278 1156 1055 1180 1177 1053 1178 1311
8 1055 938 1056 1181 1178 1054 1179 1312
8 1057 939 1058 1183 1180 1055 1181 1314
8 1058 940 1059 1184 1181 1056 1182 1315
8 1060 942 1061 1185 1183 1058 1184 1316
8 1208 1081 1187 1321 1082 964 1063 1188
8 1209 1082 1188 1322 1097 981 1064 1190
8 1188 1063 1189 1323 1064 947 1065 1191
8 1190 1064 1191 1325 1066 948 1067 1193
8 1191 1065 1192 1326 1067 949 1068 1194
8 1067 1193 1069 950 1194 1327 1195 1070
8 1250 1133 1199 1330 1126 1019 1075 1196
8 1198 1077 1014 1122 1331 1200 1075 1196
8 1074 960 1077 1198 1197 1076 1201 1332
8 1085 980 1076 1197 1215 1099 1201 1332
8 1199 1079 1203 1333 1075 962 1080 1200
8 1132 1025 1119 1243 1199 1079 1203 1333
8 1201 1078 963 1077 1334 1202 1080 1200
8 1099 994 1078 1201 1227 1111 1202 1334
8 1343 1207 1081 1208 1210 1083 964 1082
8 1214 1084 1186 1319 1343 1207 1081 1208
8 1345 1210 1082 1209 1225 1100 981 1097
8 1346 1211 1083 1210 1228 1115 999 1100
8 1086 984 1099 1215 1216 1103 1227 1352
8 1087 985 1103 1216 1217 1104 1230 1353
8 1090 988 1104 1217 1219 1106 1231 1354
8 1218 1105 987 1089 1355 1232 1106 1219
8 1091 991 1105 1218 1220 1109 1232 1355
8 1092 992 1109 1220 1221 1110 1234 1356
8 1222 1108 1233 1357 1095 990 1107 1224
8 1222 1108 993 1093 1357 1233 1110 1221
8 1223 1101 989 1096 1358 1229 1107 1224
8 1226 1102 983 1098 1358 1229 1101 1223
8 1226 1102 1228 1359 1098 983 1100 1225
8 1103 995 1111 1227 1230 1112 1235 1360
8 1107 1002 1117 1233 1229 1116 1240 1362
8 1102 1001 1116 1229 1228 1115 1240 1362
8 1104 996 1112 1230 1231 1113 1236 1363
8 1364 1237 1114 1232 1231 1113 997 1106
8 1109 1005 1114 1232 1234 1118 1238 1365
8 1110 1004 1118 1234 1233 1117 1241 1366
8 1242 1374 1255 1138 1119 1243 1132 1025
8 1244 1127 1254 1376 1121 1015 1129 1245
8 1148 1031 1149 1275 1244 1127 1254 1376
8 1245 1129 1258 1377 1125 1016 1130 1248
8 1251 1134 1019 1126 1378 1257 1128 1246
8 1378 1257 1128 1246 1247 1131 1017 1123
8 1248 1130 1259 1379 1124 1018 1131 1247
8 1261 1381 1250 1133 1132 1249 1330 1199
8 1255 1380 1252 1135 1132 1249 1381 1261
8 1250 1133 1019 1126 1382 1262 1134 1251
8 1253 1136 1256 1385 1384 1263 1135 1252
8 1254 1137 1265 1387 1129 1022 1141 1258
8 1149 1032 1150 1276 1254 1137 1265 1387
8 1028 1135 1255 1138 1139 1256 1388 1266
8 1136 1029 1147 1264 1256 1139 1267 1389
8 1390 1268 1140 1257 1259 1142 1024 1131
8 1260 1143 1027 1134 1390 1268 1140 1257
8 1258 1141 1269 1391 1130 1023 1142 1259
8 1262 1145 1027 1134 1393 1271 1143 1260
8 1261 1144 1026 1133 1394 1272 1145 1262
8 1135 1028 1144 1261 1263 1146 1272 1394
8 1136 1029 1146 1263 1264 1147 1273 1395
8 1155 1041 1160 1282 1275 1149 1276 1405
8 1276 1150 1044 1160 1406 1277 1162 1286
8 1408 1283 1159 1279 1278 1156 1039 1151
8 1290 1165 1283 1408 1177 1053 1156 1278
8 1152 1040 1159 1279 1280 1158 1285 1409
8 1281 1157 1038 1153 1410 1284 1158 1280
8 1281 1157 1284 1410 1154 1042 1160 1282
8 1159 1046 1164 1283 1285 1163 1289 1412
8 1292 1167 1289 1412 1165 1048 1164 1283
8 1158 1045 1163 1285 1284 1161 1288 1413
8 1284 1161 1288 1413 1160 1044 1162 1286
8 1291 1166 1292 1418 1174 1051 1165 1290
8 1291 1166 1051 1174 1419 1293 1172 1305
8 1294 1169 1296 1421 1166 1049 1167 1292
8 1293 1168 1050 1172 1422 1295 1171 1303
8 1294 1169 1049 1166 1423 1297 1168 1293
8 1422 1295 1171 1303 1301 1170 1302 1435
8 1172 1050 1173 1306 1303 1171 1304 1438
8 1174 1051 1175 1308 1305 1172 1306 1440
8 1175 1052 1176 1309 1306 1173 1307 1441
8 1177 1053 1178 1311 1308 1175 1309 1443
8 1178 1054 1179 1312 1309 1176 1310 1444
8 1180 1055 1181 1314 1311 1178 1312 1446
8 1056 1181 1312 1179 1182 1315 1447 1313
8 1183 1058 1184 1316 1314 1181 1315 1448
8 1319 1186 1084 1214 1451 1317 1213 1350
8 1319 1186 1318 1453 1208 1081 1187 1321
8 1321 1187 1320 1456 1188 1063 1189 1323
8 1344 1208 1321 1457 1209 1082 1188 1322
8 1322 1188 1323 1458 1190 1064 1191 1325
8 1323 1189 1324 1459 1191 1065 1192 1326
8 1191 1325 1193 1067 1326 1460 1327 1194
8 1242 1374 1243 1119 1328 1462 1335 1204
8 1330 1199 1333 1465 1196 1075 1200 1331
8 1132 1249 1330 1199 1243 1375 1465 1333
8 1332 1201 1077 1198 1466 1334 1200 1331
8 1215 1099 1201 1332 1352 1227 1334 1466
8 1119 1243 1333 1203 1204 1335 1470 1338
8 1333 1203 1338 1470 1200 1080 1202 1334
8 1227 1111 1202 1334 1360 1235 1338 1470
8 1328 1462 1335 1204 1205 1336 1471 1339
8 1337 1206 1340 1472 1464 1329 1205 1336
8 1346 1211 1342 1479 1210 1083 1207 1343
8 1346 1211 1115 1228 1479 1342 1239 1361
8 1348 1212 1084 1214 1479 1342 1207 1343
8 1480 1343 1208 1344 1345 1210 1082 1209
8 1351 1214 1319 1454 1480 1343 1208 1344
8 1481 1346 1210 1345 1359 1228 1100 1225
8 1348 1212 1347 1483 1214 1084 1213 1350
8 1216 1103 1227 1352 1353 1230 1360 1488
8 1217 1104 1230 1353 1354 1231 1363 1489
8 1490 1364 1232 1355 1354 1231 1106 1219
8 1220 1109 1232 1355 1356 1234 1365 1491
8 1221 1110 1234 1356 1357 1233 1366 1492
8 1224 1107 1233 1357 1358 1229 1362 1493
8 1226 1102 1229 1358 1359 1228 1362 1493
8 1230 1112 1235 1360 1363 1236 1367 1496
8 1361 1239 1115 1228 1497 1371 1240 1362
8 1366 1241 1372 1498 1233 1117 1240 1362
8 1364 1237 1113 1231 1499 1368 1236 1363
8 1364 1237 1368 1499 1232 1114 1238 1365
8 1234 1118 1238 1365 1366 1241 1369 1500
8 1507 1373 1242 1374 1388 1266 1138 1255
8 1508 1374 1243 1375 1380 1255 1132 1249
8 1376 1254 1387 1509 1245 1129 1258 1377
8 1275 1149 1276 1405 1376 1254 1387 1509
8 1377 1258 1391 1510 1248 1130 1259 1379
8 1511 1390 1257 1378 1379 1259 1131 1247
8 1383 1260 1134 1251 1511 1390 1257 1378
8 1252 1135 1256 1385 1380 1255 1388 1512
8 1261 1381 1513 1394 1133 1250 1382 1262
8 1135 1252 1384 1263 1261 1381 1513 1394
8 1382 1262 1134 1251 1514 1393 1260 1383
8 1253 1136 1263 1384 1386 1264 1395 1516
8 1253 1136 1264 1386 1385 1256 1389 1517
8 1387 1265 1397 1519 1258 1141 1269 1391
8 1276 1150 1277 1406 1387 1265 1397 1519
8 1256 1139 1267 1389 1388 1266 1398 1520
8 1264 1147 1274 1396 1389 1267 1399 1521
8 1392 1270 1143 1260 1522 1400 1268 1390
8 1390 1268 1142 1259 1522 1400 1269 1391
8 1392 1270 1401 1523 1260 1143 1271 1393
8 1272 1394 1524 1402 1145 1262 1393 1271
8 1395 1273 1146 1263 1524 1402 1272 1394
8 1273 1395 1264 1147 1403 1526 1396 1274
8 1405 1276 1160 1282 1534 1406 1286 1411
8 1414 1287 1407 1535 1286 1162 1277 1406
8 1279 1159 1283 1408 1409 1285 1412 1537
8 1418 1292 1412 1537 1290 1165 1283 1408
8 1280 1158 1285 1409 1410 1284 1413 1538
8 1410 1284 1413 1538 1282 1160 1286 1411
8 1285 1163 1289 1412 1413 1288 1417 1540
8 1421 1296 1417 1540 1292 1167 1289 1412
8 1414 1287 1162 1286 1541 1416 1288 1413
8 1420 1294 1421 1545 1291 1166 1292 1418
8 1419 1293 1172 1305 1546 1422 1303 1437
8 1420 1294 1166 1291 1547 1423 1293 1419
8 1294 1169 1297 1423 1421 1296 1425 1548
8 1423 1297 1168 1293 1549 1424 1295 1422
8 1301 1170 1298 1427 1422 1295 1424 1549
8 1432 1300 1428 1554 1301 1170 1298 1427
8 1431 1299 1428 1554 1560 1430 1300 1432
8 1563 1433 1300 1432 1435 1302 1170 1301
8 1546 1422 1303 1437 1434 1301 1435 1565
8 1303 1171 1304 1438 1435 1302 1436 1566
8 1305 1172 1306 1440 1437 1303 1438 1568
8 1306 1173 1307 1441 1438 1304 1439 1569
8 1308 1175 1309 1443 1440 1306 1441 1571
8 1309 1176 1310 1444 1441 1307 1442 1572
8 1311 1178 1312 1446 1443 1309 1444 1574
8 1179 1312 1444 1310 1313 1447 1575 1445
8 1314 1181 1315 1448 1446 1312 1447 1576
8 1350 1213 1349 1486 1451 1317 1449 1579
8 1451 1317 1450 1581 1319 1186 1318 1453
8 1454 1319 1214 1351 1582 1451 1350 1487
8 1453 1318 1452 1584 1321 1187 1320 1456
8 1454 1319 1453 1585 1344 1208 1321 1457
8 1456 1320 1455 1586 1323 1189 1324 1459
8 1457 1321 1456 1587 1322 1188 1323 1458
8 1458 1323 1459 1588 1325 1191 1326 1460
8 1205 1336 1464 1329 1328 1462 1590 1461
8 1507 1373 1461 1590 1374 1242 1328 1462
8 1508 1374 1462 1591 1375 1243 1335 1467
8 1337 1206 1329 1464 1473 1341 1463 1594
8 1375 1243 1335 1467 1465 1333 1470 1596
8 1465 1333 1470 1596 1331 1200 1334 1466
8 1352 1227 1334 1466 1488 1360 1470 1596
8 1591 1462 1336 1468 1467 1335 1471 1597
8 1469 1337 1472 1598 1595 1464 1336 1468
8 1471 1339 1474 1600 1335 1204 1338 1470
8 1600 1474 1367 1496 1470 1338 1235 1360
8 1336 1205 1340 1472 1471 1339 1475 1601
8 1337 1206 1341 1473 1472 1340 1476 1602
8 1495 1370 1478 1609 1361 1239 1342 1479
8 1348 1212 1342 1479 1483 1347 1478 1609
8 1481 1346 1479 1610 1345 1210 1343 1480
8 1481 1346 1228 1359 1610 1479 1361 1494
8 1484 1348 1214 1351 1610 1479 1343 1480
8 1483 1347 1482 1612 1350 1213 1349 1486
8 1484 1348 1483 1613 1351 1214 1350 1487
8 1353 1230 1360 1488 1489 1363 1496 1616
8 1490 1364 1231 1354 1617 1499 1363 1489
8 1490 1364 1499 1617 1355 1232 1365 1491
8 1356 1234 1365 1491 1492 1366 1500 1619
8 1492 1366 1498 1620 1357 1233 1362 1493
8 1494 1361 1228 1359 1621 1497 1362 1493
8 1495 1370 1239 1361 1622 1504 1371 1497
8 1363 1236 1367 1496 1499 1368 1501 1623
8 1497 1371 1240 1362 1624 1505 1372 1498
8 1625 1503 1372 1498 1500 1369 1241 1366
8 1365 1238 1368 1499 1500 1369 1502 1626
8 1520 1398 1506 1633 1388 1266 1373 1507
8 1634 1507 1374 1508 1512 1388 1255 1380
8 1509 1387 1519 1635 1377 1258 1391 1510
8 1405 1276 1406 1534 1509 1387 1519 1635
8 1515 1392 1260 1383 1636 1522 1390 1511
8 1511 1390 1259 1379 1636 1522 1391 1510
8 1385 1256 1389 1517 1512 1388 1520 1637
8 1513 1394 1262 1382 1638 1524 1393 1514
8 1395 1516 1638 1524 1263 1384 1513 1394
8 1515 1392 1523 1639 1383 1260 1393 1514
8 1516 1395 1526 1640 1386 1264 1396 1518
8 1386 1264 1396 1518 1517 1389 1521 1641
8 1519 1397 1527 1643 1391 1269 1400 1522
8 1535 1407 1527 1643 1406 1277 1397 1519
8 1389 1267 1399 1521 1520 1398 1528 1644
8 1645 1529 1399 1521 1525 1404 1274 1396
8 1392 1270 1400 1522 1523 1401 1531 1646
8 1524 1402 1271 1393 1648 1532 1401 1523
8 1403 1526 1648 1532 1273 1395 1524 1402
8 1525 1404 1274 1396 1649 1533 1403 1526
8 1539 1414 1535 1657 1411 1286 1406 1534
8 1542 1415 1536 1658 1414 1287 1407 1535
8 1409 1285 1412 1537 1538 1413 1540 1660
8 1545 1421 1540 1660 1418 1292 1412 1537
8 1539 1414 1286 1411 1661 1541 1413 1538
8 1540 1417 1544 1663 1413 1288 1416 1541
8 1421 1296 1425 1548 1540 1417 1544 1663
8 1542 1415 1287 1414 1664 1543 1416 1541
8 1420 1294 1423 1547 1545 1421 1548 1666
8 1547 1423 1293 1419 1667 1549 1422 1546
8 1434 1301 1427 1553 1546 1422 1549 1667
8 1423 1297 1424 1549 1548 1425 1550 1668
8 1551 1426 1550 1668 1427 1298 1424 1549
8 1551 1426 1298 1427 1671 1552 1428 1554
8 1562 1432 1554 1674 1434 1301 1427 1553
8 1431 1299 1429 1558 1554 1428 1555 1675
8 1431 1299 1430 1560 1558 1429 1557 1680
8 1560 1430 1300 1432 1683 1559 1433 1563
8 1561 1431 1554 1674 1684 1560 1432 1562
8 1685 1563 1432 1562 1565 1435 1301 1434
8 1435 1302 1436 1566 1563 1433 1564 1686
8 1437 1303 1438 1568 1565 1435 1566 1688
8 1438 1304 1439 1569 1566 1436 1567 1689
8 1440 1306 1441 1571 1568 1438 1569 1691
8 1441 1307 1442 1572 1569 1439 1570 1692
8 1443 1309 1444 1574 1571 1441 1572 1694
8 1310 1444 1572 1442 1445 1575 1695 1573
8 1446 1312 1447 1576 1574 1444 1575 1696
8 1486 1349 1485 1614 1579 1449 1577 1699
8 1451 1317 1449 1579 1581 1450 1578 1701
8 1487 1350 1486 1615 1582 1451 1579 1702
8 1581 1450 1580 1704 1453 1318 1452 1584
8 1582 1451 1581 1705 1454 1319 1453 1585
8 1584 1452 1583 1706 1456 1320 1455 1586
8 1585 1453 1584 1707 1457 1321 1456 1587
8 1587 1456 1586 1708 1458 1323 1459 1588
8 1633 1506 1589 1710 1507 1373 1461 1590
8 1464 1329 1461 1590 1594 1463 1589 1710
8 1468 1336 1462 1591 1595 1464 1590 1711
8 1634 1507 1590 1711 1508 1374 1462 1591
8 1473 1341 1463 1594 1603 1477 1593 1716
8 1469 1337 1464 1595 1599 1473 1594 1717
8 1471 1597 1467 1335 1600 1718 1596 1470
8 1718 1600 1496 1616 1596 1470 1360 1488
8 1336 1468 1597 1471 1472 1598 1719 1601
8 1469 1337 1473 1599 1598 1472 1602 1720
8 1722 1604 1501 1623 1600 1474 1367 1496
8 1475 1601 1471 1339 1604 1722 1600 1474
8 1602 1476 1605 1723 1472 1340 1475 1601
8 1476 1602 1724 1606 1341 1473 1603 1477
8 1483 1347 1478 1609 1612 1482 1608 1731
8 1495 1370 1504 1622 1609 1478 1608 1731
8 1618 1495 1609 1732 1494 1361 1479 1610
8 1484 1348 1479 1610 1613 1483 1609 1732
8 1486 1349 1482 1612 1614 1485 1611 1733
8 1613 1483 1612 1734 1487 1350 1486 1615
8 1489 1363 1496 1616 1617 1499 1623 1736
8 1491 1365 1499 1617 1619 1500 1626 1737
8 1618 1495 1361 1494 1738 1622 1497 1621
8 1739 1625 1498 1620 1619 1500 1366 1492
8 1621 1497 1362 1493 1740 1624 1498 1620
8 1742 1631 1504 1622 1624 1505 1371 1497
8 1743 1628 1502 1626 1623 1501 1368 1499
8 1744 1630 1505 1624 1625 1503 1372 1498
8 1745 1629 1503 1625 1626 1502 1369 1500
8 1520 1398 1528 1644 1633 1506 1632 1751
8 1637 1520 1633 1752 1512 1388 1507 1634
8 1635 1519 1643 1753 1510 1391 1522 1636
8 1657 1535 1643 1753 1534 1406 1519 1635
8 1515 1392 1522 1636 1639 1523 1646 1754
8 1517 1389 1521 1641 1637 1520 1644 1755
8 1524 1638 1756 1648 1393 1514 1639 1523
8 1640 1526 1395 1516 1756 1648 1524 1638
8 1642 1525 1396 1518 1757 1649 1526 1640
8 1758 1645 1521 1641 1642 1525 1396 1518
8 1646 1531 1400 1522 1760 1650 1527 1643
8 1535 1407 1536 1658 1643 1527 1650 1760
8 1521 1399 1529 1645 1644 1528 1651 1761
8 1647 1530 1652 1762 1525 1404 1529 1645
8 1401 1523 1648 1532 1531 1646 1763 1655
8 1525 1404 1533 1649 1647 1530 1654 1765
8 1533 1649 1766 1656 1403 1526 1648 1532
8 1662 1542 1658 1774 1539 1414 1535 1657
8 1542 1415 1543 1664 1658 1536 1659 1775
8 1660 1540 1663 1777 1538 1413 1541 1661
8 1545 1421 1548 1666 1660 1540 1663 1777
8 1662 1542 1414 1539 1778 1664 1541 1661
8 1664 1543 1416 1541 1779 1665 1544 1663
8 1548 1425 1550 1668 1663 1544 1665 1779
8 1547 1423 1549 1667 1666 1548 1668 1781
8 1670 1551 1668 1781 1553 1427 1549 1667
8 1551 1426 1552 1671 1668 1550 1669 1782
8 1670 1551 1427 1553 1784 1671 1554 1674
8 1675 1555 1672 1785 1554 1428 1552 1671
8 1678 1556 1673 1789 1558 1429 1555 1675
8 1561 1431 1558 1681 1674 1554 1675 1790
8 1794 1677 1556 1678 1680 1557 1429 1558
8 1560 1430 1559 1683 1680 1557 1679 1797
8 1561 1431 1560 1684 1681 1558 1680 1798
8 1563 1433 1564 1686 1683 1559 1682 1800
8 1684 1560 1432 1562 1801 1683 1563 1685
8 1565 1435 1566 1688 1685 1563 1686 1802
8 1566 1436 1567 1689 1686 1564 1687 1803
8 1568 1438 1569 1691 1688 1566 1689 1805
8 1569 1439 1570 1692 1689 1567 1690 1806
8 1571 1441 1572 1694 1691 1569 1692 1808
8 1442 1572 1692 1570 1573 1695 1809 1693
8 1574 1444 1575 1696 1694 1572 1695 1810
8 1614 1485 1592 1712 1699 1577 1697 1813
8 1579 1449 1577 1699 1701 1578 1698 1815
8 1615 1486 1614 1735 1702 1579 1699 1816
8 1701 1578 1700 1818 1581 1450 1580 1704
8 1582 1451 1579 1702 1705 1581 1701 1819
8 1704 1580 1703 1820 1584 1452 1583 1706
8 1705 1581 1704 1821 1585 1453 1584 1707
8 1707 1584 1706 1822 1587 1456 1586 1708
8 1710 1589 1506 1633 1824 1709 1632 1751
8 1594 1463 1589 1710 1716 1593 1709 1824
8 1752 1633 1710 1825 1634 1507 1590 1711
8 1595 1464 1590 1711 1717 1594 1710 1825
8 1830 1714 1592 1712 1733 1611 1485 1614
8 1603 1477 1593 1716 1725 1607 1715 1834
8 1599 1473 1594 1717 1721 1603 1716 1835
8 1837 1722 1623 1736 1718 1600 1496 1616
8 1719 1601 1722 1837 1597 1471 1600 1718
8 1602 1720 1598 1472 1723 1838 1719 1601
8 1720 1602 1473 1599 1839 1724 1603 1721
8 1723 1605 1726 1840 1601 1475 1604 1722
8 1840 1726 1628 1743 1722 1604 1501 1623
8 1724 1606 1727 1841 1602 1476 1605 1723
8 1725 1607 1728 1842 1603 1477 1606 1724
8 1612 1482 1608 1731 1733 1611 1730 1849
8 1741 1627 1730 1849 1622 1504 1608 1731
8 1613 1483 1609 1732 1734 1612 1731 1850
8 1618 1495 1622 1738 1732 1609 1731 1850
8 1615 1486 1612 1734 1735 1614 1733 1851
8 1852 1743 1626 1737 1736 1623 1499 1617
8 1853 1745 1625 1739 1737 1626 1500 1619
8 1855 1742 1622 1738 1740 1624 1497 1621
8 1856 1744 1624 1740 1739 1625 1498 1620
8 1741 1627 1504 1622 1857 1746 1631 1742
8 1742 1631 1505 1624 1858 1749 1630 1744
8 1859 1747 1629 1745 1743 1628 1502 1626
8 1860 1748 1630 1744 1745 1629 1503 1625
8 1644 1528 1651 1761 1751 1632 1750 1865
8 1637 1520 1644 1755 1752 1633 1751 1866
8 1754 1646 1522 1636 1867 1760 1643 1753
8 1657 1535 1658 1774 1753 1643 1760 1867
8 1639 1523 1646 1754 1756 1648 1763 1868
8 1641 1521 1645 1758 1755 1644 1761 1869
8 1757 1649 1526 1640 1870 1766 1648 1756
8 1642 1525 1649 1757 1759 1647 1765 1871
8 1759 1647 1762 1872 1642 1525 1645 1758
8 1760 1650 1767 1874 1646 1531 1655 1763
8 1658 1536 1659 1775 1760 1650 1767 1874
8 1762 1652 1768 1875 1645 1529 1651 1761
8 1764 1653 1769 1876 1647 1530 1652 1762
8 1656 1766 1877 1773 1532 1648 1763 1655
8 1771 1879 1765 1654 1653 1764 1647 1530
8 1533 1649 1765 1654 1656 1766 1880 1772
8 1662 1542 1664 1778 1774 1658 1775 1887
8 1664 1543 1665 1779 1775 1659 1776 1888
8 1778 1664 1541 1661 1890 1779 1663 1777
8 1666 1548 1668 1781 1777 1663 1779 1890
8 1782 1669 1780 1891 1668 1550 1665 1779
8 1670 1551 1671 1784 1781 1668 1782 1893
8 1671 1552 1672 1785 1782 1669 1783 1894
8 1790 1675 1785 1896 1674 1554 1671 1784
8 1675 1555 1673 1789 1785 1672 1786 1897
8 1792 1676 1788 1903 1678 1556 1673 1789
8 1795 1678 1789 1904 1681 1558 1675 1790
8 1792 1676 1556 1678 1906 1791 1677 1794
8 1680 1557 1679 1797 1794 1677 1793 1909
8 1910 1794 1678 1795 1798 1680 1558 1681
8 1683 1559 1682 1800 1797 1679 1796 1912
8 1684 1560 1683 1801 1798 1680 1797 1913
8 1686 1564 1687 1803 1800 1682 1799 1915
8 1685 1563 1686 1802 1801 1683 1800 1916
8 1688 1566 1689 1805 1802 1686 1803 1917
8 1689 1567 1690 1806 1803 1687 1804 1918
8 1691 1569 1692 1808 1805 1689 1806 1920
8 1692 1570 1693 1809 1806 1690 1807 1921
8 1694 1572 1695 1810 1808 1692 1809 1922
8 1829 1713 1811 1926 1712 1592 1697 1813
8 1813 1697 1812 1928 1699 1577 1698 1815
8 1735 1614 1712 1828 1816 1699 1813 1929
8 1815 1698 1814 1931 1701 1578 1700 1818
8 1702 1579 1699 1816 1819 1701 1815 1932
8 1818 1700 1817 1933 1704 1580 1703 1820
8 1819 1701 1818 1934 1705 1581 1704 1821
8 1821 1704 1820 1935 1707 1584 1706 1822
8 1824 1709 1632 1751 1937 1823 1750 1865
8 1716 1593 1709 1824 1834 1715 1823 1937
8 1825 1710 1633 1752 1938 1824 1751 1866
8 1717 1594 1710 1825 1835 1716 1824 1938
8 1945 1830 1712 1828 1851 1733 1614 1735
8 1830 1714 1831 1946 1712 1592 1713 1829
8 1947 1832 1714 1830 1849 1730 1611 1733
8 1843 1729 1607 1725 1950 1833 1715 1834
8 1721 1603 1716 1835 1836 1725 1834 1951
8 1836 1725 1842 1953 1721 1603 1724 1839
8 1723 1838 1719 1601 1840 1954 1837 1722
8 1954 1840 1743 1852 1837 1722 1623 1736
8 1724 1839 1720 1602 1841 1955 1838 1723
8 1841 1727 1844 1956 1723 1605 1726 1840
8 1956 1844 1747 1859 1840 1726 1628 1743
8 1728 1842 1724 1606 1845 1957 1841 1727
8 1725 1607 1729 1843 1842 1728 1846 1958
8 1741 1627 1746 1857 1849 1730 1848 1965
8 1734 1612 1731 1850 1851 1733 1849 1966
8 1854 1741 1849 1966 1738 1622 1731 1850
8 1967 1859 1745 1853 1852 1743 1626 1737
8 1968 1860 1744 1856 1853 1745 1625 1739
8 1854 1741 1622 1738 1969 1857 1742 1855
8 1855 1742 1624 1740 1970 1858 1744 1856
8 1857 1746 1631 1742 1971 1861 1749 1858
8 1858 1749 1630 1744 1972 1863 1748 1860
8 1859 1747 1862 1973 1745 1629 1748 1860
8 1875 1768 1864 1977 1761 1651 1750 1865
8 1755 1644 1761 1869 1866 1751 1865 1978
8 1867 1760 1874 1979 1754 1646 1763 1868
8 1774 1658 1775 1887 1867 1760 1874 1979
8 1870 1766 1648 1756 1980 1877 1763 1868
8 1872 1762 1875 1981 1758 1645 1761 1869
8 1757 1649 1766 1870 1871 1765 1880 1982
8 1983 1879 1764 1873 1871 1765 1647 1759
8 1873 1764 1876 1984 1759 1647 1762 1872
8 1877 1773 1655 1763 1986 1881 1767 1874
8 1775 1659 1776 1888 1874 1767 1881 1986
8 1876 1769 1882 1987 1762 1652 1768 1875
8 1878 1770 1883 1988 1764 1653 1769 1876
8 1880 1772 1656 1766 1989 1886 1773 1877
8 1878 1770 1653 1764 1990 1884 1771 1879
8 1765 1654 1772 1880 1879 1771 1885 1991
8 1778 1664 1779 1890 1887 1775 1888 1997
8 1998 1889 1776 1888 1891 1780 1665 1779
8 1893 1782 1891 2000 1781 1668 1779 1890
8 1894 1783 1892 2001 1782 1669 1780 1891
8 1784 1671 1785 1896 1893 1782 1894 2003
8 1897 1786 1895 2004 1785 1672 1783 1894
8 1790 1675 1789 1904 1896 1785 1897 2006
8 1901 1787 1898 2007 1789 1673 1786 1897
8 1903 1788 1900 2013 1789 1673 1787 1901
8 1792 1676 1791 1906 1903 1788 1902 2016
8 1907 1792 1903 2017 1795 1678 1789 1904
8 1906 1791 1677 1794 2019 1905 1793 1909
8 1907 1792 1678 1795 2020 1906 1794 1910
8 1797 1679 1796 1912 1909 1793 1908 2022
8 1798 1680 1797 1913 1910 1794 1909 2023
8 1800 1682 1799 1915 1912 1796 1911 2025
8 1801 1683 1800 1916 1913 1797 1912 2026
8 1803 1687 1804 1918 1915 1799 1914 2028
8 1802 1686 1803 1917 1916 1800 1915 2029
8 1805 1689 1806 1920 1917 1803 1918 2030
8 1806 1690 1807 1921 1918 1804 1919 2031
8 1808 1692 1809 1922 1920 1806 1921 2032
8 1939 1826 1924 2037 1829 1713 1811 1926
8 1926 1811 1925 2039 1813 1697 1812 1928
8 1944 1829 1926 2040 1828 1712 1813 1929
8 1928 1812 1927 2042 1815 1698 1814 1931
8 1929 1813 1928 2043 1816 1699 1815 1932
8 1931 1814 1930 2044 1818 1700 1817 1933
8 1932 1815 1931 2045 1819 1701 1818 1934
8 1934 1818 1933 2046 1821 1704 1820 1935
8 2048 1936 1823 1937 1977 1864 1750 1865
8 1950 1833 1715 1834 2048 1936 1823 1937
8 1938 1824 1751 1866 2049 1937 1865 1978
8 1835 1716 1824 1938 1951 1834 1937 2049
8 1939 1826 1713 1829 2053 1942 1831 1946
8 1940 1827 1923 2035 2053 1942 1826 1939
8 1945 1830 1946 2058 1828 1712 1829 1944
8 2059 1947 1830 1945 1966 1849 1733 1851
8 1947 1832 1730 1849 2060 1948 1848 1965
8 1947 1832 1948 2060 1830 1714 1831 1946
8 1959 1847 1729 1843 2063 1949 1833 1950
8 1952 1843 1725 1836 2064 1950 1834 1951
8 1836 1725 1843 1952 1953 1842 1958 2066
8 1953 1842 1957 2067 1839 1724 1841 1955
8 1841 1955 1838 1723 1956 2068 1954 1840
8 2068 1956 1859 1967 1954 1840 1743 1852
8 1956 1844 1960 2069 1859 1747 1862 1973
8 1845 1957 1841 1727 1960 2069 1956 1844
8 1728 1842 1957 1845 1846 1958 2071 1961
8 1962 2072 1959 1847 1846 1958 1843 1729
8 1971 1861 1964 2077 1857 1746 1848 1965
8 1854 1741 1857 1969 1966 1849 1965 2078
8 1967 1859 1973 2079 1853 1745 1860 1968
8 1970 1858 1744 1856 2080 1972 1860 1968
8 1969 1857 1742 1855 2081 1971 1858 1970
8 1971 1861 1749 1858 2082 1974 1863 1972
8 1973 1862 1975 2083 1860 1748 1863 1972
8 1987 1882 1976 2086 1875 1768 1864 1977
8 1981 1875 1977 2087 1869 1761 1865 1978
8 1980 1877 1763 1868 2088 1986 1874 1979
8 1887 1775 1888 1997 1979 1874 1986 2088
8 1880 1982 2089 1989 1766 1870 1980 1877
8 1984 1876 1987 2090 1872 1762 1875 1981
8 1765 1871 1983 1879 1880 1982 2091 1991
8 1985 1878 1764 1873 2092 1990 1879 1983
8 1985 1878 1988 2093 1873 1764 1876 1984
8 2094 1992 1881 1986 1998 1889 1776 1888
8 1986 1881 1992 2094 1877 1773 1886 1989
8 1988 1883 1993 2095 1876 1769 1882 1987
8 1878 1770 1884 1990 1988 1883 1994 2096
8 1991 1885 1772 1880 2097 1996 1886 1989
8 1879 1771 1885 1991 1990 1884 1995 2098
8 2103 1998 1888 1997 2000 1891 1779 1890
8 2104 1999 1889 1998 2001 1892 1780 1891
8 2003 1894 2001 2106 1893 1782 1891 2000
8 2004 1895 2002 2107 1894 1783 1892 2001
8 2006 1897 2004 2109 1896 1785 1894 2003
8 2007 1898 2005 2110 1897 1786 1895 2004
8 2014 1901 2007 2112 1904 1789 1897 2006
8 2011 1899 2008 2113 1901 1787 1898 2007
8 2119 2010 1899 2011 2013 1900 1787 1901
8 2016 1902 2012 2122 1903 1788 1900 2013
8 2017 1903 2013 2123 1904 1789 1901 2014
8 1906 1791 1905 2019 2016 1902 2015 2125
8 1907 1792 1906 2020 2017 1903 2016 2126
8 1909 1793 1908 2022 2019 1905 2018 2128
8 2020 1906 1794 1910 2129 2019 1909 2023
8 1912 1796 1911 2025 2022 1908 2021 2131
8 1913 1797 1912 2026 2023 1909 2022 2132
8 1915 1799 1914 2028 2025 1911 2024 2134
8 1916 1800 1915 2029 2026 1912 2025 2135
8 1918 1804 1919 2031 2028 1914 2027 2136
8 1917 1803 1918 2030 2029 1915 2028 2137
8 1920 1806 1921 2032 2030 1918 2031 2138
8 1940 1827 1941 2054 2035 1923 2033 2140
8 2035 1923 2034 2143 1939 1826 1924 2037
8 2037 1924 2036 2146 1926 1811 1925 2039
8 2051 1939 2037 2147 1944 1829 1926 2040
8 2039 1925 2038 2149 1928 1812 1927 2042
8 2040 1926 2039 2150 1929 1813 1928 2043
8 2042 1927 2041 2151 1931 1814 1930 2044
8 2043 1928 2042 2152 1932 1815 1931 2045
8 2045 1931 2044 2153 1934 1818 1933 2046
8 2155 2047 1936 2048 2086 1976 1864 1977
8 2063 1949 1833 1950 2155 2047 1936 2048
8 2156 2048 1937 2049 2087 1977 1865 1978
8 2064 1950 1834 1951 2156 2048 1937 2049
8 2051 1939 1829 1944 2160 2053 1946 2058
8 2052 1940 2035 2144 2160 2053 1939 2051
8 2053 1942 1831 1946 2163 2057 1948 2060
8 2055 1943 1827 1940 2163 2057 1942 2053
8 2055 1943 2056 2164 1940 1827 1941 2054
8 2059 1947 1849 1966 2167 2060 1965 2078
8 2059 1947 2060 2167 1945 1830 1946 2058
8 2077 1964 2061 2168 1965 1848 1948 2060
8 2070 1963 1847 1959 2170 2062 1949 2063
8 2065 1959 1843 1952 2171 2063 1950 2064
8 2173 2072 1958 2066 2065 1959 1843 1952
8 1953 1842 1958 2066 2067 1957 2071 2174
8 2068 1956 2069 2175 1967 1859 1973 2079
8 2067 1957 2069 2175 1955 1841 1956 2068
8 1845 1957 2069 1960 1961 2071 2176 2073
8 2069 1960 2073 2176 1973 1862 1975 2083
8 2070 1963 2075 2177 1959 1847 1962 2072
8 1846 1958 2071 1961 1962 2072 2178 2074
8 2077 1964 1861 1971 2182 2076 1974 2082
8 2081 1971 2077 2183 1969 1857 1965 2078
8 2079 1973 2083 2184 1968 1860 1972 2080
8 2081 1971 1858 1970 2185 2082 1972 2080
8 2083 1975 2084 2186 1972 1863 1974 2082
8 2086 1976 1882 1987 2189 2085 1993 2095
8 2090 1987 2086 2190 1981 1875 1977 2087
8 2191 2094 1986 2088 2103 1998 1888 1997
8 2088 1986 2094 2191 1980 1877 1989 2089
8 1991 2091 2192 2097 1880 1982 2089 1989
8 2093 1988 2095 2193 1984 1876 1987 2090
8 1879 1983 2092 1990 1991 2091 2194 2098
8 1985 1878 1990 2092 2093 1988 2096 2195
8 2097 1996 1886 1989 2196 2099 1992 2094
8 2196 2099 1992 2094 2104 1999 1889 1998
8 1994 2096 1988 1883 2100 2197 2095 1993
8 2096 1994 1884 1990 2198 2101 1995 2098
8 1995 2098 2199 2102 1885 1991 2097 1996
8 2203 2104 1998 2103 2106 2001 1891 2000
8 2107 2002 2105 2204 2001 1892 1999 2104
8 2109 2004 2107 2206 2003 1894 2001 2106
8 2110 2005 2108 2207 2004 1895 2002 2107
8 2112 2007 2110 2209 2006 1897 2004 2109
8 2113 2008 2111 2210 2007 1898 2005 2110
8 2120 2011 2113 2212 2014 1901 2007 2112
8 2117 2009 2114 2213 2011 1899 2008 2113
8 2219 2116 2009 2117 2119 2010 1899 2011
8 2222 2118 2010 2119 2122 2012 1900 2013
8 2223 2119 2011 2120 2123 2013 1901 2014
8 2016 1902 2015 2125 2122 2012 2121 2225
8 2126 2016 2122 2226 2017 1903 2013 2123
8 2019 1905 2018 2128 2125 2015 2124 2228
8 2020 1906 2019 2129 2126 2016 2125 2229
8 2022 1908 2021 2131 2128 2018 2127 2231
8 2023 1909 2022 2132 2129 2019 2128 2232
8 2025 1911 2024 2134 2131 2021 2130 2234
8 2026 1912 2025 2135 2132 2022 2131 2235
8 1914 2028 2134 2024 2027 2136 2236 2133
8 2029 1915 2028 2137 2135 2025 2134 2237
8 2030 1918 2031 2138 2137 2028 2136 2238
8 2157 2050 2139 2240 2054 1941 2033 2140
8 2052 1940 2054 2161 2144 2035 2140 2242
8 2140 2033 2141 2243 2035 1923 2034 2143
8 2143 2034 2142 2246 2037 1924 2036 2146
8 2144 2035 2143 2247 2051 1939 2037 2147
8 2146 2036 2145 2249 2039 1925 2038 2149
8 2147 2037 2146 2250 2040 1926 2039 2150
8 2149 2038 2148 2251 2042 1927 2041 2151
8 2150 2039 2149 2252 2043 1928 2042 2152
8 2152 2042 2151 2253 2045 1931 2044 2153
8 2255 2154 2047 2155 2189 2085 1976 2086
8 2170 2062 1949 2063 2255 2154 2047 2155
8 2256 2155 2048 2156 2190 2086 1977 2087
8 2171 2063 1950 2064 2256 2155 2048 2156
8 2258 2159 2050 2157 2164 2056 1941 2054
8 2160 2053 1946 2058 2262 2163 2060 2167
8 2162 2055 1940 2052 2262 2163 2053 2160
8 2162 2055 2164 2263 2052 1940 2054 2161
8 2163 2057 1948 2060 2264 2165 2061 2168
8 2055 1943 2057 2163 2164 2056 2165 2264
8 2182 2076 2166 2268 2077 1964 2061 2168
8 2183 2077 2168 2269 2078 1965 2060 2167
8 2070 1963 2062 2170 2177 2075 2169 2271
8 2172 2070 1959 2065 2272 2170 2063 2171
8 2172 2070 2177 2273 2065 1959 2072 2173
8 2066 1958 2072 2173 2174 2071 2178 2274
8 2067 1957 2071 2174 2175 2069 2176 2275
8 2175 2069 2176 2275 2079 1973 2083 2184
8 2071 1961 2074 2178 2176 2073 2179 2276
8 2176 2073 2179 2276 2083 1975 2084 2186
8 2072 1962 2075 2177 2178 2074 2180 2277
8 2182 2076 1974 2082 2280 2181 2084 2186
8 2183 2077 1971 2081 2281 2182 2082 2185
8 2184 2083 2186 2282 2080 1972 2082 2185
8 2189 2085 1993 2095 2285 2188 2100 2197
8 2190 2086 1987 2090 2286 2189 2095 2193
8 2192 2097 1989 2089 2287 2196 2094 2191
8 2287 2196 2094 2191 2203 2104 1998 2103
8 2194 2098 1991 2091 2288 2199 2097 2192
8 2195 2096 2197 2289 2093 1988 2095 2193
8 2096 2195 2290 2198 1990 2092 2194 2098
8 2097 1996 2099 2196 2199 2102 2200 2291
8 2196 2099 1999 2104 2291 2200 2105 2204
8 2100 2197 2292 2201 1994 2096 2198 2101
8 1995 2098 2198 2101 2102 2199 2293 2202
8 2206 2107 2204 2296 2106 2001 2104 2203
8 2207 2108 2205 2297 2107 2002 2105 2204
8 2209 2110 2207 2299 2109 2004 2107 2206
8 2210 2111 2208 2300 2110 2005 2108 2207
8 2212 2113 2210 2302 2112 2007 2110 2209
8 2213 2114 2211 2303 2113 2008 2111 2210
8 2220 2117 2213 2305 2120 2011 2113 2212
8 2216 2115 2214 2306 2117 2009 2114 2213
8 2216 2115 2009 2117 2311 2217 2116 2219
8 2219 2116 2010 2119 2314 2218 2118 2222
8 2315 2219 2117 2220 2223 2119 2011 2120
8 2122 2012 2121 2225 2222 2118 2221 2317
8 2318 2222 2119 2223 2226 2122 2013 2123
8 2125 2015 2124 2228 2225 2121 2224 2320
8 2126 2016 2125 2229 2226 2122 2225 2321
8 2128 2018 2127 2231 2228 2124 2227 2323
8 2129 2019 2128 2232 2229 2125 2228 2324
8 2131 2021 2130 2234 2231 2127 2230 2326
8 2132 2022 2131 2235 2232 2128 2231 2327
8 2134 2024 2133 2236 2234 2130 2233 2328
8 2135 2025 2134 2237 2235 2131 2234 2329
8 2137 2028 2136 2238 2237 2134 2236 2330
8 2157 2050 2158 2259 2240 2139 2239 2332
8 2257 2157 2240 2334 2161 2054 2140 2242
8 2240 2139 2241 2335 2140 2033 2141 2243
8 2242 2140 2243 2337 2144 2035 2143 2247
8 2243 2141 2244 2338 2143 2034 2142 2246
8 2246 2142 2245 2341 2146 2036 2145 2249
8 2247 2143 2246 2342 2147 2037 2146 2250
8 2249 2145 2248 2343 2149 2038 2148 2251
8 2250 2146 2249 2344 2150 2039 2149 2252
8 2252 2149 2251 2345 2152 2042 2151 2253
8 2169 2271 2347 2254 2062 2170 2255 2154
8 2189 2085 2188 2285 2255 2154 2254 2347
8 2348 2255 2155 2256 2286 2189 2086 2190
8 2272 2170 2063 2171 2348 2255 2155 2256
8 2349 2258 2157 2257 2263 2164 2054 2161
8 2258 2159 2261 2351 2157 2050 2158 2259
8 2258 2159 2056 2164 2351 2261 2165 2264
8 2262 2163 2060 2167 2355 2264 2168 2269
8 2162 2055 2163 2262 2263 2164 2264 2355
8 2357 2266 2165 2264 2268 2166 2061 2168
8 2268 2166 2076 2182 2361 2267 2181 2280
8 2281 2182 2268 2362 2183 2077 2168 2269
8 2271 2169 2270 2364 2177 2075 2180 2277
8 2172 2070 2170 2272 2273 2177 2271 2365
8 2072 2173 2274 2178 2177 2273 2366 2277
8 2071 2174 2275 2176 2178 2274 2367 2276
8 2275 2176 2276 2367 2184 2083 2186 2282
8 2283 2187 2084 2186 2368 2278 2179 2276
8 2178 2074 2180 2277 2276 2179 2278 2368
8 2283 2187 2279 2370 2186 2084 2181 2280
8 2281 2182 2082 2185 2371 2280 2186 2282
8 2188 2285 2374 2284 2100 2197 2292 2201
8 2286 2189 2095 2193 2375 2285 2197 2289
8 2192 2097 2196 2287 2288 2199 2291 2376
8 2287 2196 2104 2203 2376 2291 2204 2296
8 2194 2098 2199 2288 2290 2198 2293 2377
8 2289 2197 2096 2195 2378 2292 2198 2290
8 2291 2200 2105 2204 2379 2294 2205 2297
8 2199 2102 2200 2291 2293 2202 2294 2379
8 2198 2101 2202 2293 2292 2201 2295 2380
8 2299 2207 2297 2383 2206 2107 2204 2296
8 2300 2208 2298 2384 2207 2108 2205 2297
8 2302 2210 2300 2386 2209 2110 2207 2299
8 2303 2211 2301 2387 2210 2111 2208 2300
8 2305 2213 2303 2389 2212 2113 2210 2302
8 2306 2214 2304 2390 2213 2114 2211 2303
8 2310 2216 2306 2392 2220 2117 2213 2305
8 2308 2215 2307 2393 2216 2115 2214 2306
8 2308 2215 2115 2216 2396 2309 2217 2311
8 2310 2216 2117 2220 2398 2311 2219 2315
8 2311 2217 2116 2219 2399 2312 2218 2314
8 2314 2218 2118 2222 2402 2313 2221 2317
8 2315 2219 2119 2223 2403 2314 2222 2318
8 2225 2121 2224 2320 2317 2221 2316 2405
8 2226 2122 2225 2321 2318 2222 2317 2406
8 2228 2124 2227 2323 2320 2224 2319 2408
8 2229 2125 2228 2324 2321 2225 2320 2409
8 2231 2127 2230 2326 2323 2227 2322 2411
8 2232 2128 2231 2327 2324 2228 2323 2412
8 2234 2130 2233 2328 2326 2230 2325 2413
8 2235 2131 2234 2329 2327 2231 2326 2414
8 2237 2134 2236 2330 2329 2234 2328 2415
8 2259 2158 2260 2352 2332 2239 2331 2417
8 2257 2157 2259 2350 2334 2240 2332 2419
8 2240 2139 2239 2332 2335 2241 2333 2420
8 2334 2240 2335 2422 2242 2140 2243 2337
8 2335 2241 2336 2423 2243 2141 2244 2338
8 2337 2243 2338 2425 2247 2143 2246 2342
8 2338 2244 2339 2426 2246 2142 2245 2341
8 2341 2245 2340 2428 2249 2145 2248 2343
8 2342 2246 2341 2429 2250 2146 2249 2344
8 2344 2249 2343 2430 2252 2149 2251 2345
8 2188 2285 2347 2254 2284 2374 2432 2346
8 2347 2254 2346 2432 2271 2169 2270 2364
8 2365 2271 2170 2272 2433 2347 2255 2348
8 2286 2189 2285 2375 2348 2255 2347 2433
8 2349 2258 2351 2435 2257 2157 2259 2350
8 2349 2258 2164 2263 2435 2351 2264 2355
8 2259 2158 2261 2351 2352 2260 2354 2437
8 2356 2265 2354 2437 2264 2165 2261 2351
8 2441 2357 2264 2355 2362 2268 2168 2269
8 2356 2265 2165 2264 2442 2358 2266 2357
8 2443 2359 2266 2357 2361 2267 2166 2268
8 2370 2279 2360 2446 2280 2181 2267 2361
8 2362 2268 2182 2281 2447 2361 2280 2371
8 2180 2277 2368 2278 2270 2364 2449 2363
8 2271 2365 2273 2177 2364 2450 2366 2277
8 2372 2283 2186 2282 2451 2368 2276 2367
8 2178 2274 2367 2276 2277 2366 2451 2368
8 2283 2187 2278 2368 2370 2279 2369 2452
8 2372 2283 2370 2453 2282 2186 2280 2371
8 2284 2374 2455 2373 2201 2292 2380 2295
8 2375 2285 2197 2289 2456 2374 2292 2378
8 2376 2291 2204 2296 2457 2379 2297 2383
8 2288 2199 2291 2376 2377 2293 2379 2457
8 2198 2290 2378 2292 2293 2377 2458 2380
8 2293 2202 2294 2379 2380 2295 2381 2459
8 2384 2298 2381 2459 2297 2205 2294 2379
8 2386 2300 2384 2463 2299 2207 2297 2383
8 2387 2301 2385 2464 2300 2208 2298 2384
8 2389 2303 2387 2466 2302 2210 2300 2386
8 2390 2304 2388 2467 2303 2211 2301 2387
8 2392 2306 2390 2469 2305 2213 2303 2389
8 2393 2307 2391 2470 2306 2214 2304 2390
8 2395 2308 2393 2472 2310 2216 2306 2392
8 2308 2215 2309 2396 2393 2307 2394 2473
8 2395 2308 2216 2310 2475 2396 2311 2398
8 2396 2309 2217 2311 2476 2397 2312 2399
8 2398 2311 2219 2315 2478 2399 2314 2403
8 2399 2312 2218 2314 2479 2400 2313 2402
8 2317 2221 2316 2405 2402 2313 2401 2482
8 2403 2314 2222 2318 2483 2402 2317 2406
8 2320 2224 2319 2408 2405 2316 2404 2485
8 2321 2225 2320 2409 2406 2317 2405 2486
8 2323 2227 2322 2411 2408 2319 2407 2488
8 2324 2228 2323 2412 2409 2320 2408 2489
8 2326 2230 2325 2413 2411 2322 2410 2490
8 2327 2231 2326 2414 2412 2323 2411 2491
8 2329 2234 2328 2415 2414 2326 2413 2492
8 2417 2331 2260 2352 2494 2416 2353 2438
8 2350 2259 2352 2436 2419 2332 2417 2496
8 2332 2239 2331 2417 2420 2333 2418 2497
8 2334 2240 2332 2419 2422 2335 2420 2499
8 2420 2333 2421 2500 2335 2241 2336 2423
8 2422 2335 2423 2502 2337 2243 2338 2425
8 2423 2336 2424 2503 2338 2244 2339 2426
8 2425 2338 2426 2505 2342 2246 2341 2429
8 2426 2339 2427 2506 2341 2245 2340 2428
8 2429 2341 2428 2507 2344 2249 2343 2430
8 2432 2346 2284 2374 2509 2431 2373 2455
8 2432 2346 2431 2509 2364 2270 2363 2449
8 2375 2285 2374 2456 2433 2347 2432 2510
8 2347 2433 2365 2271 2432 2510 2450 2364
8 2350 2259 2351 2435 2436 2352 2437 2514
8 2440 2356 2437 2514 2355 2264 2351 2435
8 2352 2260 2354 2437 2438 2353 2439 2516
8 2356 2265 2358 2442 2437 2354 2439 2516
8 2440 2356 2264 2355 2518 2442 2357 2441
8 2519 2443 2357 2441 2447 2361 2268 2362
8 2443 2359 2444 2520 2357 2266 2358 2442
8 2443 2359 2267 2361 2520 2444 2360 2446
8 2446 2360 2279 2370 2523 2445 2369 2452
8 2453 2370 2446 2524 2371 2280 2361 2447
8 2449 2363 2448 2525 2368 2278 2369 2452
8 2366 2277 2364 2450 2451 2368 2449 2526
8 2372 2283 2368 2451 2453 2370 2452 2527
8 2455 2373 2295 2380 2529 2454 2382 2460
8 2456 2374 2292 2378 2530 2455 2380 2458
8 2377 2293 2379 2457 2458 2380 2459 2531
8 2463 2384 2459 2531 2383 2297 2379 2457
8 2533 2461 2382 2460 2459 2381 2295 2380
8 2464 2385 2461 2533 2384 2298 2381 2459
8 2466 2387 2464 2537 2386 2300 2384 2463
8 2467 2388 2465 2538 2387 2301 2385 2464
8 2469 2390 2467 2540 2389 2303 2387 2466
8 2470 2391 2468 2541 2390 2304 2388 2467
8 2472 2393 2470 2543 2392 2306 2390 2469
8 2393 2307 2394 2473 2470 2391 2471 2544
8 2395 2308 2396 2475 2472 2393 2473 2546
8 2396 2309 2397 2476 2473 2394 2474 2547
8 2475 2396 2311 2398 2549 2476 2399 2478
8 2476 2397 2312 2399 2550 2477 2400 2479
8 2478 2399 2314 2403 2552 2479 2402 2483
8 2479 2400 2313 2402 2553 2480 2401 2482
8 2405 2316 2404 2485 2482 2401 2481 2556
8 2406 2317 2405 2486 2483 2402 2482 2557
8 2408 2319 2407 2488 2485 2404 2484 2559
8 2409 2320 2408 2489 2486 2405 2485 2560
8 2411 2322 2410 2490 2488 2407 2487 2561
8 2412 2323 2411 2491 2489 2408 2488 2562
8 2414 2326 2413 2492 2491 2411 2490 2563
8 2513 2434 2493 2565 2438 2353 2416 2494
8 2496 2417 2352 2436 2567 2494 2438 2515
8 2494 2416 2495 2568 2417 2331 2418 2497
8 2419 2332 2417 2496 2499 2420 2497 2570
8 2497 2418 2498 2571 2420 2333 2421 2500
8 2499 2420 2500 2573 2422 2335 2423 2502
8 2500 2421 2501 2574 2423 2336 2424 2503
8 2502 2423 2503 2576 2425 2338 2426 2505
8 2503 2424 2504 2577 2426 2339 2427 2506
8 2505 2426 2506 2578 2429 2341 2428 2507
8 2509 2431 2373 2455 2580 2508 2454 2529
8 2509 2431 2508 2580 2449 2363 2448 2525
8 2432 2510 2581 2509 2374 2456 2530 2455
8 2432 2510 2450 2364 2509 2581 2526 2449
8 2583 2511 2434 2513 2516 2439 2353 2438
8 2436 2352 2437 2514 2515 2438 2516 2588
8 2440 2356 2442 2518 2514 2437 2516 2588
8 2442 2358 2444 2520 2516 2439 2517 2589
8 2519 2443 2520 2591 2441 2357 2442 2518
8 2519 2443 2361 2447 2591 2520 2446 2524
8 2446 2360 2445 2523 2520 2444 2521 2592
8 2525 2448 2522 2593 2452 2369 2445 2523
8 2524 2446 2370 2453 2594 2523 2452 2527
8 2526 2449 2525 2595 2451 2368 2452 2527
8 2534 2462 2528 2597 2460 2382 2454 2529
8 2530 2455 2380 2458 2598 2529 2460 2532
8 2599 2533 2460 2532 2531 2459 2380 2458
8 2537 2464 2533 2599 2463 2384 2459 2531
8 2534 2462 2382 2460 2601 2535 2461 2533
8 2538 2465 2535 2601 2464 2385 2461 2533
8 2540 2467 2538 2604 2466 2387 2464 2537
8 2541 2468 2539 2605 2467 2388 2465 2538
8 2543 2470 2541 2607 2469 2390 2467 2540
8 2470 2391 2471 2544 2541 2468 2542 2608
8 2472 2393 2473 2546 2543 2470 2544 2610
8 2473 2394 2474 2547 2544 2471 2545 2611
8 2475 2396 2476 2549 2546 2473 2547 2613
8 2476 2397 2477 2550 2547 2474 2548 2614
8 2549 2476 2399 2478 2616 2550 2479 2552
8 2479 2400 2480 2553 2550 2477 2551 2617
8 2552 2479 2402 2483 2619 2553 2482 2557
8 2482 2401 2481 2556 2553 2480 2554 2620
8 2485 2404 2484 2559 2556 2481 2555 2623
8 2486 2405 2485 2560 2557 2482 2556 2624
8 2488 2407 2487 2561 2559 2484 2558 2625
8 2489 2408 2488 2562 2560 2485 2559 2626
8 2491 2411 2490 2563 2562 2488 2561 2627
8 2513 2434 2512 2585 2565 2493 2564 2630
8 2586 2513 2565 2632 2515 2438 2494 2567
8 2565 2493 2566 2633 2494 2416 2495 2568
8 2567 2494 2568 2635 2496 2417 2497 2570
8 2568 2495 2569 2636 2497 2418 2498 2571
8 2570 2497 2571 2638 2499 2420 2500 2573
8 2571 2498 2572 2639 2500 2421 2501 2574
8 2573 2500 2574 2641 2502 2423 2503 2576
8 2574 2501 2575 2642 2503 2424 2504 2577
8 2576 2503 2577 2643 2505 2426 2506 2578
8 2597 2528 2579 2645 2529 2454 2508 2580
8 2580 2508 2579 2645 2525 2448 2522 2593
8 2581 2509 2455 2530 2646 2580 2529 2598
8 2581 2509 2580 2646 2526 2449 2525 2595
8 2583 2511 2582 2648 2513 2434 2512 2585
8 2583 2511 2439 2516 2648 2582 2517 2589
8 2649 2583 2513 2586 2588 2516 2438 2515
8 2589 2517 2444 2520 2653 2587 2521 2592
8 2518 2442 2520 2591 2588 2516 2589 2654
8 2593 2522 2590 2655 2523 2445 2521 2592
8 2524 2446 2523 2594 2591 2520 2592 2656
8 2595 2525 2593 2657 2527 2452 2523 2594
8 2602 2536 2596 2659 2534 2462 2528 2597
8 2600 2534 2597 2660 2532 2460 2529 2598
8 2600 2534 2460 2532 2661 2601 2533 2599
8 2604 2538 2601 2661 2537 2464 2533 2599
8 2602 2536 2462 2534 2663 2603 2535 2601
8 2601 2535 2465 2538 2663 2603 2539 2605
8 2607 2541 2605 2665 2540 2467 2538 2604
8 2608 2542 2606 2666 2541 2468 2539 2605
8 2543 2470 2544 2610 2607 2541 2608 2668
8 2544 2471 2545 2611 2608 2542 2609 2669
8 2546 2473 2547 2613 2610 2544 2611 2671
8 2547 2474 2548 2614 2611 2545 2612 2672
8 2549 2476 2550 2616 2613 2547 2614 2674
8 2550 2477 2551 2617 2614 2548 2615 2675
8 2552 2479 2553 2619 2616 2550 2617 2677
8 2553 2480 2554 2620 2617 2551 2618 2678
8 2557 2482 2556 2624 2619 2553 2620 2680
8 2556 2481 2555 2623 2620 2554 2621 2681
8 2559 2484 2558 2625 2623 2555 2622 2683
8 2560 2485 2559 2626 2624 2556 2623 2684
8 2562 2488 2561 2627 2626 2559 2625 2685
8 2690 2629 2564 2630 2650 2584 2512 2585
8 2586 2513 2585 2651 2632 2565 2630 2691
8 2630 2564 2631 2692 2565 2493 2566 2633
8 2632 2565 2633 2694 2567 2494 2568 2635
8 2633 2566 2634 2695 2568 2495 2569 2636
8 2635 2568 2636 2697 2570 2497 2571 2638
8 2636 2569 2637 2698 2571 2498 2572 2639
8 2638 2571 2639 2700 2573 2500 2574 2641
8 2639 2572 2640 2701 2574 2501 2575 2642
8 2641 2574 2642 2702 2576 2503 2577 2643
8 2597 2528 2596 2659 2645 2579 2644 2704
8 2645 2579 2644 2704 2593 2522 2590 2655
8 2660 2597 2645 2705 2598 2529 2580 2646
8 2646 2580 2645 2705 2595 2525 2593 2657
8 2650 2584 2512 2585 2707 2647 2582 2648
8 2648 2582 2517 2589 2707 2647 2587 2653
8 2649 2583 2648 2708 2586 2513 2585 2651
8 2649 2583 2516 2588 2708 2648 2589 2654
8 2655 2590 2652 2710 2592 2521 2587 2653
8 2654 2589 2520 2591 2711 2653 2592 2656
8 2657 2593 2655 2712 2594 2523 2592 2656
8 2602 2536 2603 2663 2659 2596 2658 2714
8 2662 2602 2659 2715 2600 2534 2597 2660
8 2662 2602 2534 2600 2717 2663 2601 2661
8 2661 2601 2538 2604 2717 2663 2605 2665
8 2666 2606 2664 2718 2605 2539 2603 2663
8 2668 2608 2666 2720 2607 2541 2605 2665
8 2608 2542 2609 2669 2666 2606 2667 2721
8 2610 2544 2611 2671 2668 2608 2669 2723
8 2611 2545 2612 2672 2669 2609 2670 2724
8 2613 2547 2614 2674 2671 2611 2672 2726
8 2614 2548 2615 2675 2672 2612 2673 2727
8 2616 2550 2617 2677 2674 2614 2675 2729
8 2617 2551 2618 2678 2675 2615 2676 2730
8 2619 2553 2620 2680 2677 2617 2678 2732
8 2620 2554 2621 2681 2678 2618 2679 2733
8 2624 2556 2623 2684 2680 2620 2681 2735
8 2681 2621 2555 2623 2736 2682 2622 2683
8 2626 2559 2625 2685 2684 2623 2683 2737
8 2688 2628 2584 2650 2740 2686 2647 2707
8 2688 2628 2687 2742 2650 2584 2629 2690
8 2690 2629 2689 2745 2630 2564 2631 2692
8 2746 2690 2630 2691 2709 2650 2585 2651
8 2691 2630 2692 2747 2632 2565 2633 2694
8 2692 2631 2693 2748 2633 2566 2634 2695
8 2694 2633 2695 2750 2635 2568 2636 2697
8 2695 2634 2696 2751 2636 2569 2637 2698
8 2697 2636 2698 2753 2638 2571 2639 2700
8 2698 2637 2699 2754 2639 2572 2640 2701
8 2700 2639 2701 2755 2641 2574 2642 2702
8 2659 2596 2658 2714 2704 2644 2703 2757
8 2704 2644 2703 2757 2655 2590 2652 2710
8 2660 2597 2659 2715 2705 2645 2704 2758
8 2705 2645 2704 2758 2657 2593 2655 2712
8 2759 2706 2647 2707 2710 2652 2587 2653
8 2709 2650 2585 2651 2760 2707 2648 2708
8 2708 2648 2589 2654 2760 2707 2653 2711
8 2712 2655 2710 2761 2656 2592 2653 2711
8 2763 2713 2658 2714 2718 2664 2603 2663
8 2662 2602 2663 2717 2715 2659 2714 2764
8 2720 2666 2718 2767 2665 2605 2663 2717
8 2768 2719 2664 2718 2721 2667 2606 2666
8 2668 2608 2669 2723 2720 2666 2721 2770
8 2669 2609 2670 2724 2721 2667 2722 2771
8 2671 2611 2672 2726 2723 2669 2724 2773
8 2672 2612 2673 2727 2724 2670 2725 2774
8 2674 2614 2675 2729 2726 2672 2727 2776
8 2675 2615 2676 2730 2727 2673 2728 2777
8 2677 2617 2678 2732 2729 2675 2730 2779
8 2678 2618 2679 2733 2730 2676 2731 2780
8 2680 2620 2681 2735 2732 2678 2733 2782
8 2733 2679 2621 2681 2783 2734 2682 2736
8 2735 2681 2623 2684 2784 2736 2683 2737
8 2740 2686 2647 2707 2787 2738 2706 2759
8 2688 2628 2686 2740 2742 2687 2739 2789
8 2743 2688 2650 2709 2790 2740 2707 2760
8 2742 2687 2741 2792 2690 2629 2689 2745
8 2743 2688 2742 2793 2709 2650 2690 2746
8 2745 2689 2744 2795 2692 2631 2693 2748
8 2746 2690 2745 2796 2691 2630 2692 2747
8 2747 2692 2748 2797 2694 2633 2695 2750
8 2748 2693 2749 2798 2695 2634 2696 2751
8 2750 2695 2751 2800 2697 2636 2698 2753
8 2751 2696 2752 2801 2698 2637 2699 2754
8 2753 2698 2754 2802 2700 2639 2701 2755
8 2763 2713 2756 2804 2714 2658 2703 2757
8 2759 2706 2652 2710 2804 2756 2703 2757
8 2715 2659 2714 2764 2758 2704 2757 2805
8 2758 2704 2757 2805 2712 2655 2710 2761
8 2806 2759 2707 2760 2761 2710 2653 2711
8 2765 2716 2762 2808 2718 2664 2713 2763
8 2809 2763 2714 2764 2767 2718 2663 2717
8 2765 2716 2664 2718 2811 2766 2719 2768
8 2813 2768 2718 2767 2770 2721 2666 2720
8 2814 2769 2719 2768 2771 2722 2667 2721
8 2723 2669 2724 2773 2770 2721 2771 2816
8 2724 2670 2725 2774 2771 2722 2772 2817
8 2726 2672 2727 2776 2773 2724 2774 2819
8 2727 2673 2728 2777 2774 2725 2775 2820
8 2729 2675 2730 2779 2776 2727 2777 2822
8 2730 2676 2731 2780 2777 2728 2778 2823
8 2732 2678 2733 2782 2779 2730 2780 2825
8 2780 2731 2679 2733 2826 2781 2734 2783
8 2782 2733 2681 2735 2827 2783 2736 2784
8 2830 2785 2738 2787 2804 2756 2706 2759
8 2789 2739 2686 2740 2832 2786 2738 2787
8 2790 2740 2707 2760 2833 2787 2759 2806
8 2742 2687 2739 2789 2792 2741 2788 2835
8 2743 2688 2740 2790 2793 2742 2789 2836
8 2792 2741 2791 2838 2745 2689 2744 2795
8 2793 2742 2792 2839 2746 2690 2745 2796
8 2795 2744 2794 2841 2748 2693 2749 2798
8 2796 2745 2795 2842 2747 2692 2748 2797
8 2797 2748 2798 2843 2750 2695 2751 2800
8 2798 2749 2799 2844 2751 2696 2752 2801
8 2800 2751 2801 2845 2753 2698 2754 2802
8 2808 2762 2803 2847 2763 2713 2756 2804
8 2809 2763 2804 2848 2764 2714 2757 2805
8 2806 2759 2710 2761 2848 2804 2757 2805
8 2765 2716 2766 2811 2808 2762 2807 2850
8 2810 2765 2808 2851 2767 2718 2763 2809
8 2810 2765 2718 2767 2852 2811 2768 2813
8 2811 2766 2719 2768 2853 2812 2769 2814
8 2855 2814 2768 2813 2816 2771 2721 2770
8 2856 2815 2769 2814 2817 2772 2722 2771
8 2773 2724 2774 2819 2816 2771 2817 2858
8 2774 2725 2775 2820 2817 2772 2818 2859
8 2776 2727 2777 2822 2819 2774 2820 2861
8 2777 2728 2778 2823 2820 2775 2821 2862
8 2779 2730 2780 2825 2822 2777 2823 2864
8 2823 2778 2731 2780 2865 2824 2781 2826
8 2825 2780 2733 2782 2866 2826 2783 2827
8 2869 2828 2785 2830 2847 2803 2756 2804
8 2871 2829 2786 2832 2830 2785 2738 2787
8 2872 2830 2787 2833 2848 2804 2759 2806
8 2789 2739 2786 2832 2835 2788 2831 2874
8 2836 2789 2740 2790 2875 2832 2787 2833
8 2792 2741 2788 2835 2838 2791 2834 2877
8 2793 2742 2789 2836 2839 2792 2835 2878
8 2838 2791 2837 2880 2795 2744 2794 2841
8 2839 2792 2838 2881 2796 2745 2795 2842
8 2841 2794 2840 2882 2798 2749 2799 2844
8 2842 2795 2841 2883 2797 2748 2798 2843
8 2843 2798 2844 2884 2800 2751 2801 2845
8 2886 2846 2803 2847 2850 2807 2762 2808
8 2851 2808 2847 2887 2809 2763 2804 2848
8 2850 2807 2766 2811 2889 2849 2812 2853
8 2810 2765 2811 2852 2851 2808 2850 2890
8 2852 2811 2768 2813 2891 2853 2814 2855
8 2853 2812 2769 2814 2892 2854 2815 2856
8 2894 2856 2814 2855 2858 2817 2771 2816
8 2817 2772 2818 2859 2856 2815 2857 2895
8 2819 2774 2820 2861 2858 2817 2859 2897
8 2820 2775 2821 2862 2859 2818 2860 2898
8 2822 2777 2823 2864 2861 2820 2862 2900
8 2823 2778 2824 2865 2862 2821 2863 2901
8 2864 2823 2780 2825 2902 2865 2826 2866
8 2904 2867 2828 2869 2886 2846 2803 2847
8 2869 2828 2868 2906 2830 2785 2829 2871
8 2907 2869 2830 2872 2887 2847 2804 2848
8 2871 2829 2870 2909 2832 2786 2831 2874
8 2910 2871 2832 2875 2872 2830 2787 2833
8 2835 2788 2831 2874 2877 2834 2873 2912
8 2836 2789 2832 2875 2878 2835 2874 2913
8 2877 2834 2876 2915 2838 2791 2837 2880
8 2839 2792 2835 2878 2881 2838 2877 2916
8 2880 2837 2879 2917 2841 2794 2840 2882
8 2881 2838 2880 2918 2842 2795 2841 2883
8 2883 2841 2882 2919 2843 2798 2844 2884
8 2921 2885 2846 2886 2889 2849 2807 2850
8 2922 2886 2847 2887 2890 2850 2808 2851
8 2889 2849 2812 2853 2924 2888 2854 2892
8 2890 2850 2811 2852 2925 2889 2853 2891
8 2891 2853 2814 2855 2926 2892 2856 2894
8 2892 2854 2815 2856 2927 2893 2857 2895
8 2858 2817 2859 2897 2894 2856 2895 2929
8 2859 2818 2860 2898 2895 2857 2896 2930
8 2861 2820 2862 2900 2897 2859 2898 2932
8 2862 2821 2863 2901 2898 2860 2899 2933
8 2864 2823 2865 2902 2900 2862 2901 2934
8 2904 2867 2846 2886 2936 2903 2885 2921
8 2904 2867 2903 2936 2869 2828 2868 2906
8 2937 2904 2869 2907 2922 2886 2847 2887
8 2906 2868 2905 2939 2871 2829 2870 2909
8 2907 2869 2906 2940 2872 2830 2871 2910
8 2909 2870 2908 2942 2874 2831 2873 2912
8 2910 2871 2909 2943 2875 2832 2874 2913
8 2912 2873 2911 2945 2877 2834 2876 2915
8 2878 2835 2874 2913 2916 2877 2912 2946
8 2915 2876 2914 2947 2880 2837 2879 2917
8 2916 2877 2915 2948 2881 2838 2880 2918
8 2918 2880 2917 2949 2883 2841 2882 2919
8 2921 2885 2849 2889 2951 2920 2888 2924
8 2952 2921 2886 2922 2925 2889 2850 2890
8 2924 2888 2854 2892 2954 2923 2893 2927
8 2925 2889 2853 2891 2955 2924 2892 2926
8 2926 2892 2856 2894 2956 2927 2895 2929
8 2895 2857 2896 2930 2927 2893 2928 2957
8 2897 2859 2898 2932 2929 2895 2930 2959
8 2898 2860 2899 2933 2930 2896 2931 2960
8 2900 2862 2901 2934 2932 2898 2933 2961
8 2936 2903 2885 2921 2963 2935 2920 2951
8 2936 2903 2935 2963 2906 2868 2905 2939
8 2937 2904 2886 2922 2964 2936 2921 2952
8 2937 2904 2936 2964 2907 2869 2906 2940
8 2939 2905 2938 2966 2909 2870 2908 2942
8 2940 2906 2939 2967 2910 2871 2909 2943
8 2942 2908 2941 2969 2912 2873 2911 2945
8 2943 2909 2942 2970 2913 2874 2912 2946
8 2945 2911 2944 2971 2915 2876 2914 2947
8 2946 2912 2945 2972 2916 2877 2915 2948
8 2948 2915 2947 2973 2918 2880 2917 2949
8 2951 2920 2888 2924 2975 2950 2923 2954
8 2952 2921 2889 2925 2976 2951 2924 2955
8 2927 2893 2928 2957 2954 2923 2953 2978
8 2955 2924 2892 2926 2979 2954 2927 2956
8 2929 2895 2930 2959 2956 2927 2957 2980
8 2930 2896 2931 2960 2957 2928 2958 2981
8 2932 2898 2933 2961 2959 2930 2960 2982
8 2951 2920 2950 2975 2963 2935 2962 2984
8 2963 2935 2962 2984 2939 2905 2938 2966
8 2964 2936 2921 2952 2985 2963 2951 2976
8 2964 2936 2963 2985 2940 2906 2939 2967
8 2966 2938 2965 2987 2942 2908 2941 2969
8 2967 2939 2966 2988 2943 2909 2942 2970
8 2969 2941 2968 2989 2945 2911 2944 2971
8 2970 2942 2969 2990 2946 2912 2945 2972
8 2972 2945 2971 2991 2948 2915 2947 2973
8 2954 2923 2953 2978 2975 2950 2974 2993
8 2976 2951 2924 2955 2994 2975 2954 2979
8 2957 2928 2958 2981 2978 2953 2977 2995
8 2956 2927 2957 2980 2979 2954 2978 2996
8 2959 2930 2960 2982 2980 2957 2981 2997
8 2984 2962 2983 2999 2966 2938 2965 2987
8 2975 2950 2974 2993 2984 2962 2983 2999
8 2976 2951 2975 2994 2985 2963 2984 3000
8 2985 2963 2984 3000 2967 2939 2966 2988
8 2987 2965 2986 3001 2969 2941 2968 2989
8 2988 2966 2987 3002 2970 2942 2969 2990
8 2990 2969 2989 3003 2972 2945 2971 2991
8 2978 2953 2977 2995 2993 2974 2992 3004
8 2979 2954 2978 2996 2994 2975 2993 3005
8 2980 2957 2981 2997 2996 2978 2995 3006
8 2974 2993 2999 2983 2992 3004 3007 2998
8 2983 2999 2987 2965 2998 3007 3001 2986
8 3000 2984 2999 3008 2988 2966 2987 3002
8 2994 2975 2993 3005 3000 2984 2999 3008
8 3002 2987 3001 3009 2990 2969 2989 3003
8 2996 2978 2995 3006 3005 2993 3004 3010
8 3005 2993 3004 3010 3008 2999 3007 3011
8 3008 2999 3007 3011 3002 2987 3001 3009

CELL_TYPES 1910
12
12
12
12
12
12
12
12
12
12
12
12
12
12
12
12
12
12
12
12
12
12
12
12
12
12
12
12
12
12
12
12
12
12
12
12
12
12
12
12
12
12
12
12
12
12
12
12
12
12
12
12
12
12
12
12
12
12
12
12
12
12
12
12
12
12
12
12
12
12
12
12
12
12
12
12
12
12
12
12
12
12
12
12
12
12
12
12
12
12
12
12
12
12
12
12
12
12
12
12
12
12
12
12
12
12
12
12
12
12
12
12
12
12
12
12
12
12
12
12
12
12
12
12
12
12
12
12
12
12
12
12
12
12
12
12
12
12
12
12
12
12
12
12
12
12
12
12
12
12
12
12
12
12
12
12
12
12
12
12
12
12
12
12
12
12
12
12
12
12
12
12
12
12
12
12
12
12
12
12
12
12
12
12
12
12
12
12
12
12
12
12
12
12
12
12
12
12
12
12
12
12
12
12
12
12
12
12
12
12
12
12
12
12
12
12
12
12
12
12
12
12
12
12
12
12
12
12
12
12
12
12
12
12
12
12
12
12
12
12
12
12
12
12
12
12
12
12
12
12
12
12
12
12
12
12
12
12
12
12
12
12
12
12
12
12
12
12
12
12
12
12
12
12
12
12
12
12
12
12
12
12
12
12
12
12
12
12
12
12
12
12
12
12
12
12
12
12
12
12
12
12
12
12
12
12
12
12
12
12
12
12
12
12
12
12
12
12
12
12
12
12
12
12
12
12
12
12
12
12
12
12
12
12
12
12
12
12
12
12
12
12
12
12
12
12
12
12
12
12
12
12
12
12
12
12
12
12
12
12
12
12
12
12
12
12
12
12
12
12
12
12
12
12
12
12
12
12
12
12
12
12
12
12
12
12
12
12
12
12
12
12
12
12
12
12
12
12
12
12
12
12
12
12
12
12
12
12
12
12
12
12
12
12
12
12
12
12
12
12
12
12
12
12
12
12
12
12
12
12
12
12
12
12
12
12
12
12
12
12
12
12
12
12
12
12
12
12
12
12
12
12
12
12
12
12
12
12
12
12
12
12
12
12
12
12
12
12
12
12
12
12
12
12
12
12
12
12
12
12
12
12
12
12
12
12
12
12
12
12
12
12
12
12
12
12
12
12
12
12
12
12
12
12
12
12
12
12
12
12
12
12
12
12
12
12
12
12
12
12
12
12
12
12
12
12
12
12
12
12
12
12
12
12
12
12
12
12
12
12
12
12
12
12
12
12
12
12
12
12
12
12
12
12
12
12
12
12
12
12
12
12
12
12
12
12
12
12
12
12
12
12
12
12
12
12
12
12
12
12
12
12
12
12
12
12
12
12
12
12
12
12
12
12
12
12
12
12
12
12
12
12
12
12
12
12
12
12
12
12
12
12
12
12
12
12
12
12
12
12
12
12
12
12
12
12
12
12
12
12
12
12
12
12
12
12
12
12
12
12
12
12
12
12
12
12
12
12
12
12
12
12
12
12
12
12
12
12
12
12
12
12
12
12
12
12
12
12
12
12
12
12
12
12
12
12
12
12
12
12
12
12
12
12
12
12
12
12
12
12
12
12
12
12
12
12
12
12
12
12
12
12
12
12
12
12
12
12
12
12
12
12
12
12
12
12
12
12
12
12
12
12
12
12
12
12
12
12
12
12
12
12
12
12
12
12
12
12
12
12
12
12
12
12
12
12
12
12
12
12
12
12
12
12
12
12
12
12
12
12
12
12
12
12
12
12
12
12
12
12
12
12
12
12
12
12
12
12
12
12
12
12
12
12
12
12
12
12
12
12
12
12
12
12
12
12
12
12
12
12
12
12
12
12
12
12
12
12
12
12
12
12
12
12
12
12
12
12
12
12
12
12
12
12
12
12
12
12
12
12
12
12
12
12
12
12
12
12
12
12
12
12
12
12
12
12
12
12
12
12
12
12
12
12
12
12
12
12
12
12
12
12
12
12
12
12
12
12
12
12
12
12
12
12
12
12
12
12
12
12
12
12
12
12
12
12
12
12
12
12
12
12
12
12
12
12
12
12
12
12
12
12
12
12
12
12
12
12
12
12
12
12
12
12
12
12
12
12
12
12
12
12
12
12
12
12
12
12
12
12
12
12
12
12
12
12
12
12
12
12
12
12
12
12
12
12
12
12
12
12
12
12
12
12
12
12
12
12
12
12
12
12
12
12
12
12
12
12
12
12
12
12
12
12
12
12
12
12
12
12
12
12
12
12
12
12
12
12
12
12
12
12
12
12
12
12
12
12
12
12
12
12
12
12
12
12
12
12
12
12
12
12
12
12
12
12
12
12
12
12
12
12
12
12
12
12
12
12
12
12
12
12
12
12
12
12
12
12
12
12
12
12
12
12
12
12
12
12
12
12
12
12
12
12
12
12
12
12
12
12
12
12
12
12
12
12
12
12
12
12
12
12
12
12
12
12
12
12
12
12
12
12
12
12
12
12
12
12
12
12
12
12
12
12
12
12
12
12
12
12
12
12
12
12
12
12
12
12
12
12
12
12
12
12
12
12
12
12
12
12
12
12
12
12
12
12
12
12
12
12
12
12
12
12
12
12
12
12
12
12
12
12
12
12
12
12
12
12
12
12
12
12
12
12
12
12
12
12
12
12
12
12
12
12
12
12
12
12
12
12
12
12
12
12
12
12
12
12
12
12
12
12
12
12
12
12
12
12
12
12
12
12
12
12
12
12
12
12
12
12
12
12
12
12
12
12
12
12
12
12
12
12
12
12
12
12
12
12
12
12
12
12
12
12
12
12
12
12
12
12
12
12
12
12
12
12
12
12
12
12
12
12
12
12
12
12
12
12
12
12
12
12
12
12
12
12
12
12
12
12
12
12
12
12
12
12
12
12
12
12
12
12
12
12
12
12
12
12
12
12
12
12
12
12
12
12
12
12
12
12
12
12
12
12
12
12
12
12
12
12
12
12
12
12
12
12
12
12
12
12
12
12
12
12
12
12
12
12
12
12
12
12
12
12
12
12
12
12
12
12
12
12
12
12
12
12
12
12
12
12
12
12
12
12
12
12
12
12
12
12
12
12
12
12
12
12
12
12
12
12
12
12
12
12
12
12
12
12
12
12
12
12
12
12
12
12
12
12
12
12
12
12
12
12
12
12
12
12
12
12
12
12
12
12
12
12
12
12
12
12
12
12
12
12
12
12
12
12
12
12
12
12
12
12
12
12
12
12
12
12
12
12
12
12
12
12
12
12
12
12
12
12
12
12
12
12
12
12
12
12
12
12
12
12
12
12
12
12
12
12
12
12
12
12
12
12
12
12
12
12
12
12
12
12
12
12
12
12
12
12
12
12
12
12
12
12
12
12
12
12
12
12
12
12
12
12
12
12
12
12
12
12
12
12
12
12
12
12
12
12
12
12
12
12
12
12
12
12
12
12
12
12
12
12
12
12
12
12
12
12
12
12
12
12
12
12
12
12
12
12
12
12
12
12
12
12
12
12
12
12
12
12
12
12
12
12
12
12
12
12
12
12
12
12
12
12
12
12
12
12
12
12
12
12
12
12
12
12
12
12
12
12
12
12
12
12
12
12
12
12
12
12
12
12
12
12
12
12
12
12
12
12
12
12
12
12
12
12
12
12
12
12
12
12
12
12
12
12
12
12
12
12
12
12
12
12
12
12
12
12
12
12
12
12
12
12
12
12
12
12
12
12
12
12
12
12
12
12
12
12
12
12
12
12
12
12
12
12
12
12
12
12
12
12
12
12
12
12
12
12
12
12
12
12
12
12
12
12
12
12
12
12
12
12
12
12
12
12
12
12
12
12
12
12
12
12
12
12
12
12
12
12
12
12
12
12
12
12
12
12
12
12
12
12
12
12
12
12
12
12
12
12
12
12
12
12
12
12
12
12
12
12
12
12
12
12
12
12
12
12
12
12
12
12
12
12
12
12
12
12
12
12
12
12
12
12
12
12
12
12
12
12
12
12
12
12
12
12
12
12
12
12
12
12
12
12
12
12
12
12
12
12
12
12
12
12
12
12
12
12
12
12
12
12
12
12
12
12
12
12
12
12
12
12
12
12
12
12
12
12
12
12
12
12
12
12
12
12
12
12
12
12
12
12
12
12
12
12
12
12
12
12
12
12
12
12
12
12
12
12
12
12
12
12
12
12
12
12
12
12
12
12
12
12
12
12
12
12
12
12
12
12
12
12
12
12
12
12
12
12
12
12
12
12
12
12
12
12
12
12
12
12
12
12
12
12
12
12
12
12
12
12
12
12
12
12
12
12
12
12
12
12
12
12
12
12
12
12
12
12
12
12
12
12
12
12
12
12
12
12

POINT_DATA 3012
SCALARS Jp_lamdaP float 4
LOOKUP_TABLE default
0.999983 1 1 0.999983
1 1 1 1
0.999985 1 1 0.999985
0.999959 1 1 0.999959
0.999977 1 1 0.999977
0.99999 1 1 0.99999
0.999771 1 1 0.999771
1 1 1 1
1 1 1 1
1 1 1 1
1 1 1 1
0.999902 1 1 0.999902
0.999928 1 1 0.999928
0.999957 1 1 0.999957
0.999986 1 1 0.999986
0.999963 1 1 0.999963
0.999992 1 1 0.999992
0.99998 1 1 0.99998
0.999774 1 1 0.999774
1 1 1 1
0.999952 1 1 0.999952
0.999968 1 1 0.999968
0.99966 1 1 0.99966
0.999734 1 1 0.999734
0.999998 1 1 0.999998
0.999816 1 1 0.999816
0.999415 1 1 0.999415
1 1 1 1
0.999985 1 1 0.999985
0.999995 1 1 0.999995
1 1 1 1
0.999909 1 1 0.999909
0.999965 1 1 0.999965
0.999985 1 1 0.999985
0.999801 1 1 0.999801
1 1 1 1
0.999877 1 1 0.999877
0.999935 1 1 0.999935
0.999496 1 1 0.999496
1 1 1 1
1 1 1 1
0.999977 1 1 0.999977
1 1 1 1
0.999947 1 1 0.999947
0.999624 1 1 0.999624
1 1 1 1
0.999738 1 1 0.999738
0.999967 1 1 0.999967
0.999981 1 1 0.999981
0.999994 1 1 0.999994
0.999777 1 1 0.999777
0.999965 1 1 0.999965
0.999957 1 1 0.999957
0.999999 1 1 0.999999
0.999972 1 1 0.999972
0.999661 1 1 0.999661
0.999818 1 1 0.999818
0.999737 1 1 0.999737
0.999402 1 1 0.999402
1 1 1 1
0.999941 1 1 0.999941
0.999686 1 1 0.999686
0.999641 1 1 0.999641
0.999695 1 1 0.999695
0.999153 1 1 0.999153
0.999288 1 1 0.999288
1 1 1 1
0.999878 1 1 0.999878
0.999512 1 1 0.999512
0.999017 1 1 0.999017
1 1 1 1
1 1 1 1
1 1 1 1
0.999916 1 1 0.999916
1 1 1 1
1 1 1 1
0.999793 1 1 0.999793
1 1 1 1
0.999879 1 1 0.999879
0.999946 1 1 0.999946
0.999494 1 1 0.999494
1 1 1 1
1 1 1 1
0.99975 1 1 0.99975
0.999828 1 1 0.999828
0.999207 1 1 0.999207
0.999973 1 1 0.999973
0.999439 1 1 0.999439
0.99955 1 1 0.99955
0.999223 1 1 0.999223
1 1 1 1
1 1 1 1
1 1 1 1
1 1 1 1
1 1 1 1
0.99997 1 1 0.99997
0.999655 1 1 0.999655
0.99998 1 1 0.99998
0.99973 1 1 0.99973
1 1 1 1
0.999593 1 1 0.999593
0.999709 1 1 0.999709
0.998907 1 1 0.998907
0.999757 1 1 0.999757
0.999009 1 1 0.999009
0.999937 1 1 0.999937
0.999961 1 1 0.999961
1 1 1 1
0.999975 1 1 0.999975
0.999663 1 1 0.999663
0.999741 1 1 0.999741
0.999821 1 1 0.999821
0.999389 1 1 0.999389
1 1 1 1
0.999947 1 1 0.999947
0.999615 1 1 0.999615
0.999641 1 1 0.999641
1 1 1 1
0.999903 1 1 0.999903
0.999697 1 1 0.999697
0.99913 1 1 0.99913
0.999497 1 1 0.999497
0.999303 1 1 0.999303
0.999018 1 1 0.999018
0.999609 1 1 0.999609
0.999623 1 1 0.999623
0.998986 1 1 0.998986
0.999077 1 1 0.999077
0.999186 1 1 0.999186
0.998777 1 1 0.998777
1 1 1 1
0.998939 1 1 0.998939
0.999967 1 1 0.999967
0.999551 1 1 0.999551
0.999098 1 1 0.999098
0.99885 1 1 0.99885
0.999996 1 1 0.999996
0.999734 1 1 0.999734
1 1 1 1
1 1 1 1
0.999799 1 1 0.999799
1 1 1 1
0.999958 1 1 0.999958
0.999882 1 1 0.999882
0.999492 1 1 0.999492
1 1 1 1
1 1 1 1
0.999766 1 1 0.999766
0.999842 1 1 0.999842
0.99921 1 1 0.99921
0.999981 1 1 0.999981
0.999441 1 1 0.999441
0.99955 1 1 0.99955
0.999213 1 1 0.999213
0.999995 1 1 0.999995
1 1 1 1
0.999782 1 1 0.999782
0.999109 1 1 0.999109
0.999335 1 1 0.999335
0.998876 1 1 0.998876
0.999624 1 1 0.999624
0.999155 1 1 0.999155
0.99926 1 1 0.99926
0.999108 1 1 0.999108
1 1 1 1
1 1 1 1
1 1 1 1
1 1 1 1
1 1 1 1
1 1 1 1
1 1 1 1
0.99972 1 1 0.99972
0.999641 1 1 0.999641
1 1 1 1
1 1 1 1
0.999595 1 1 0.999595
0.999701 1 1 0.999701
0.998908 1 1 0.998908
0.999738 1 1 0.999738
0.999009 1 1 0.999009
0.999582 1 1 0.999582
0.998849 1 1 0.998849
0.998967 1 1 0.998967
0.998737 1.00014 1 0.998594
0.999049 1 1 0.999049
0.998702 1 1 0.998702
1 1 1 1
0.999953 1 1 0.999953
0.99954 1 1 0.99954
0.999642 1 1 0.999642
1 1 1 1
0.999928 1 1 0.999928
0.999701 1 1 0.999701
0.999106 1 1 0.999106
0.999319 1 1 0.999319
0.999482 1 1 0.999482
0.999019 1 1 0.999019
0.999607 1 1 0.999607
0.999623 1 1 0.999623
0.998939 1 1 0.998939
0.999095 1 1 0.999095
1 1 1 1
0.999959 1 1 0.999959
0.999571 1 1 0.999571
0.999187 1 1 0.999187
0.998749 1 1 0.998749
0.999094 1 1 0.999094
0.998953 1 1 0.998953
0.998853 1 1 0.998853
0.999994 1 1 0.999994
0.999734 1 1 0.999734
0.998861 1 1 0.998861
0.999044 1 1 0.999044
0.998657 1 1 0.998657
0.998678 1 1 0.998678
0.998866 1 1 0.998866
0.998663 1.00002 1 0.998643
0.999986 1 1 0.999986
0.998783 1 1 0.998783
0.999599 1 1 0.999599
0.999212 1 1 0.999212
0.998932 1 1 0.998932
0.99884 1.00004 1 0.998796
0.999662 1 1 0.999662
0.999818 1 1 0.999818
0.999413 1 1 0.999413
0.999762 1 1 0.999762
1 1 1 1
1 1 1 1
0.999846 1 1 0.999846
0.999212 1 1 0.999212
0.999989 1 1 0.999989
0.999549 1 1 0.999549
0.999442 1 1 0.999442
0.999203 1 1 0.999203
0.999997 1 1 0.999997
1 1 1 1
0.999783 1 1 0.999783
0.99911 1 1 0.99911
0.999339 1 1 0.999339
0.998876 1 1 0.998876
0.999624 1 1 0.999624
0.999164 1 1 0.999164
0.999258 1 1 0.999258
0.999097 1 1 0.999097
1 1 1 1
0.999698 1 1 0.999698
0.999866 1 1 0.999866
0.999476 1 1 0.999476
0.998783 1 1 0.998783
0.999031 1 1 0.999031
0.999226 1.00051 1 0.998712
0.999338 1 1 0.999338
0.999039 1 1 0.999039
0.99944 1 1.00037 0.999075
0.999012 1 1 0.999012
0.999971 1 1 0.999971
1 1 1 1
1 1 1 1
1 1 1 1
1 1 1 1
1 1 1 1
1 1 1 1
0.999999 1 1 0.999999
1 1 1 1
0.99974 1 1 0.99974
0.999687 1 1 0.999687
0.99901 1 1 0.99901
0.998908 1 1 0.998908
0.999597 1 1 0.999597
1 1 1 1
0.999581 1 1 0.999581
0.998849 1 1 0.998849
0.998967 1 1 0.998967
0.998696 1.0001 1 0.998593
0.999049 1 1 0.999049
0.998702 1 1 0.998702
0.998834 1 1 0.998834
0.998854 1.00032 1 0.998534
0.998656 1 1 0.998655
1.0011 1.00259 1 0.998512
0.998739 1 1 0.998739
0.999398 1.0008 1 0.998601
0.999604 1 1 0.999604
0.999624 1 1 0.999624
0.998891 1 1 0.998891
0.999113 1 1 0.999113
1 1 1 1
0.999951 1 1 0.999951
0.999591 1 1 0.999591
0.999188 1 1 0.999188
0.998721 1 1 0.998721
0.998967 1 1 0.998967
0.99909 1 1 0.99909
0.998855 1 1 0.998855
0.999991 1 1 0.999991
0.999733 1 1 0.999733
0.998845 1 1 0.998845
0.999043 1 1 0.999043
0.998672 1.00003 1 0.998645
0.998708 1 1 0.998708
0.999981 1 1 0.999981
0.999599 1 1 0.999599
0.999234 1 1 0.999234
0.998866 1 1 0.998866
0.998729 1.00009 1 0.998636
0.998909 1 1 0.998909
0.998783 1 1 0.998783
0.998935 1.00014 1 0.998797
0.999664 1 1 0.999664
0.99941 1 1 0.99941
0.999817 1 1 0.999817
0.998706 1.00011 1 0.998597
0.998683 1 1 0.998683
1.00044 1.00194 1 0.998508
0.998947 1.00037 1 0.998575
0.998737 1.00003 1 0.99871
0.999962 1.00132 1 0.998639
0.999627 1 1 0.999627
0.999224 1.00048 1 0.998749
0.999343 1 1 0.999343
0.999015 1 1 0.999015
0.998794 1 1 0.998794
0.99917 1.00033 1 0.998844
0.999883 1 1 0.999883
0.999399 1 1 0.999399
0.999452 1 1 0.999452
0.999294 1 1 0.999294
0.999111 1 1 0.999111
1 1 1 1
0.999999 1 1 0.999999
0.999784 1 1 0.999784
0.999342 1 1 0.999342
0.998876 1 1 0.998876
0.999625 1 1 0.999625
0.999257 1 1 0.999257
0.999173 1 1 0.999173
0.999087 1 1 0.999087
1 1 1 1
0.999697 1 1 0.999697
0.999869 1 1 0.999869
0.999475 1 1 0.999475
0.998781 1 1 0.998781
0.999033 1 1 0.999033
0.999052 1.00034 1 0.998712
0.99934 1 1 0.99934
0.999051 1 1 0.999051
0.999286 1 1.00022 0.999068
0.999051 1 1 0.999051
1 1 1 1
0.999918 1 1 0.999918
0.999413 1 1 0.999413
0.999555 1 1 0.999555
0.999303 1 1 0.999303
0.999408 1.00077 1 0.998641
0.998898 1.00002 1 0.99888
0.999579 1.00092 1 0.998657
0.999419 1 1.00029 0.999134
0.998975 1 1 0.998975
0.999294 1 1.00041 0.998888
0.99996 1 1 0.99996
0.999755 1 1 0.999755
0.999979 1 1 0.999979
0.999974 1 1 0.999974
1 1 1 1
1 1 1 1
1 1 1 1
1 1 1 1
1 1 1 1
1 1 1 1
1 1 1 1
1 1 1 1
1 1 1 1
0.999999 1 1 0.999999
1 1 1 1
0.99905 1 1 0.99905
0.998968 1 1 0.998968
0.998703 1 1 0.998703
0.998653 1.00006 1 0.998592
0.998849 1 1 0.998849
0.999581 1 1 0.999581
0.998834 1 1 0.998834
0.998813 1.00028 1 0.998534
0.998655 1 1 0.998655
1.001 1.00249 1 0.998507
0.998738 1 1 0.998738
0.999196 1.00059 1 0.998602
0.998803 1.00029 1 0.998518
1.00296 1.00451 1 0.998457
1.00031 1.00176 1 0.998555
1.00537 1.00687 1 0.998511
0.999075 1.00045 1 0.998627
1.0018 1.00316 1 0.998641
0.99883 1 1 0.99883
0.999043 1 1 0.999043
0.998689 1.00006 1 0.998633
0.998737 1 1 0.998737
0.999976 1 1 0.999976
0.999599 1 1 0.999599
0.999255 1 1 0.999255
0.998866 1 1 0.998866
0.9988 1.00017 1 0.998629
0.998784 1 1 0.998784
0.998886 1 1 0.998886
0.999048 1.00025 1 0.998798
0.999665 1 1 0.999665
0.999408 1 1 0.999408
0.999815 1 1 0.999815
0.998733 1.00016 1 0.998572
0.998683 1 1 0.998682
1.0007 1.00221 1 0.998498
0.999234 1.00065 1 0.99858
0.999628 1 1 0.999628
0.999341 1 1 0.999341
0.999041 1 1 0.999041
0.998746 1.00003 1 0.99872
1.00003 1.00138 1 0.998647
0.998777 1 1 0.998777
0.999453 1.0007 1 0.998749
0.999225 1.00037 1 0.998853
0.999401 1 1 0.999401
0.99928 1 1 0.99928
0.99988 1 1 0.99988
0.999463 1 1 0.999463
1.00142 1.00298 1 0.99845
0.999976 1.00144 1 0.998541
1.00505 1.0066 1 0.998461
1.00101 1.00245 1 0.998568
1.00006 1.00136 1 0.9987
1.00267 1.00401 1 0.998673
0.99939 1 1 0.99939
1.00052 1.00168 1 0.998837
0.999176 1 1 0.999176
0.998877 1 1.00002 0.998854
0.998735 1.00002 1 0.998712
1 1.00115 1 0.998854
0.999916 1 1 0.999916
0.99953 1 1 0.99953
0.999287 1 1 0.999287
0.999307 1 1 0.999307
0.999236 1 1 0.999236
1 1 1 1
0.998779 1 1 0.998779
0.999872 1 1 0.999872
0.999697 1 1 0.999697
0.999473 1 1 0.999473
0.999036 1 1 0.999036
0.998887 1.00018 1 0.998712
0.999342 1 1 0.999342
0.999216 1 1.00016 0.999062
0.999062 1 1 0.999062
0.99909 1 1 0.99909
1 1 1 1
0.999923 1 1 0.999923
0.999413 1 1 0.999413
0.999555 1 1 0.999555
0.999292 1 1 0.999292
0.999414 1.00078 1 0.998639
0.998892 1.00001 1 0.998881
0.999577 1.00093 1 0.998653
0.999396 1 1.00026 0.999136
0.998984 1 1 0.998984
0.999522 1 1.00062 0.998903
0.999944 1 1 0.999944
0.999632 1 1 0.999632
0.999222 1 1 0.999222
0.999363 1 1 0.999363
0.999198 1 1 0.999198
1.00068 1.00208 1 0.998611
0.999198 1.00038 1 0.998817
1.00012 1.00139 1 0.998741
1.00101 1 1.00206 0.998954
0.9988 1 1 0.9988
0.999964 1 1 0.999964
0.9997 1 1 0.9997
0.99974 1 1 0.99974
0.999599 1 1 0.999599
0.999764 1 1 0.999764
0.999984 1 1 0.999984
0.999981 1 1 0.999981
1 1 1 1
0.999976 1 1 0.999976
1 1 1 1
1 1 1 1
1 1 1 1
1 1 1 1
1 1 1 1
1 1 1 1
1 1 1 1
1 1 1 1
1 1 1 1
1 1 1 1
1 1 1 1
0.998737 1 1 0.998737
0.998655 1 1 0.998655
0.998993 1.00039 1 0.998602
1.00088 1.00238 1 0.998503
0.998777 1.00024 1 0.998534
0.998833 1 1 0.998833
0.998829 1.00031 1 0.998518
1.00302 1.00457 1 0.998449
0.999982 1.00143 1 0.998555
1.00539 1.00689 1 0.998513
0.999232 1.00061 1 0.998625
1.00164 1.003 1 0.998642
1.00267 1.00425 1 0.998426
1.00821 1.00978 1 0.998453
1.00356 1.005 1 0.99857
1.00723 1.00872 1 0.998525
1.00164 1.00301 1 0.998638
1.00472 1.00604 1 0.998686
0.998755 1.00021 1 0.998547
0.998682 1 1 0.998682
1.00096 1.00248 1 0.998489
0.999521 1.00094 1 0.998585
0.999629 1 1 0.999629
0.999338 1 1 0.999338
0.999068 1 1 0.999068
0.998755 1.00003 1 0.99873
1.00008 1.00143 1 0.998654
0.999657 1.00091 1 0.99875
0.99876 1 1 0.99876
0.999273 1.00041 1 0.998862
0.999404 1 1 0.999404
0.999266 1 1 0.999266
0.999877 1 1 0.999877
0.999474 1 1 0.999474
1.00176 1.00331 1 0.998451
1.00017 1.00163 1 0.998541
1.00458 1.00613 1 0.998465
1.00081 1.00225 1 0.998569
0.999389 1 1 0.999389
0.999197 1 1 0.999197
0.998982 1 1.00013 0.998852
1.00011 1.00142 1 0.998695
1.00257 1.00387 1 0.998703
0.998732 1.00003 1 0.998703
1.00078 1.00194 1 0.998838
0.999807 1.00092 1 0.998884
0.999288 1 1 0.999288
0.999232 1 1 0.999232
0.999305 1 1 0.999305
0.999893 1 1 0.999893
0.99954 1 1 0.99954
1.00741 1.009 1 0.998427
1.00473 1.00627 1 0.998471
1.00395 1.00534 1 0.99861
1.00299 1.00424 1 0.998757
0.999281 1 1 0.999281
1.00255 1.00364 1 0.998909
0.999122 1 1.00006 0.999057
0.999006 1 1.00035 0.998656
0.999239 1.0006 1 0.998643
0.999899 1 1 0.999899
0.999634 1 1 0.999634
0.999384 1 1 0.999384
0.999253 1 1 0.999253
0.999193 1 1 0.999193
0.999193 1 1 0.999193
1 1 1 1
0.999927 1 1 0.999927
0.999407 1.00077 1 0.998636
0.999555 1 1 0.999555
0.999412 1 1 0.999412
0.999281 1 1 0.999281
0.998882 1 1 0.998882
0.999513 1.00087 1 0.998648
0.999297 1 1.00016 0.999139
0.999485 1 1.00057 0.998918
0.998993 1 1 0.998993
0.999948 1 1 0.999948
0.999633 1 1 0.999633
0.999234 1 1 0.99923
0.999362 1 1 0.999362
0.999185 1 1 0.999185
1.00068 1.00207 1 0.998608
0.998994 1.00018 1 0.998812
1.00013 1.00138 1 0.998757
1.00052 1 1.00158 0.998945
0.998827 1 1.00006 0.998771
0.999688 1 1 0.999688
0.999409 1 1 0.999409
1.00002 1 1.00093 0.999089
0.999196 1 1 0.999196
0.999105 1 1 0.999105
1.00391 1.00512 1 0.998805
0.999068 1.00035 1 0.998718
1.00131 1.00255 1 0.998763
1.00202 1 1.00319 0.998841
0.998582 1 1 0.998582
0.999967 1 1 0.999967
0.999712 1 1 0.999712
0.999518 1 1 0.999518
0.999726 1 1 0.999726
0.999764 1 1 0.999764
0.999577 1 1 0.999577
0.999463 1 1 0.999463
0.999572 1 1 0.999572
0.999771 1 1 0.999771
0.999984 1 1 0.999984
0.999984 1 1 0.999984
1 1 1 1
0.999982 1 1 0.999982
1 1 1 1
1 1 1 1
1 1 1 1
1 1 1 1
1 1 1 1
1 1 1 1
1 1 1 1
1 1 1 1
1 1 1 1
1 1 1 1
1 1 1 1
0.999403 1.00078 1 0.998623
0.999658 1.0011 1 0.998555
1.00148 1.00285 1 0.998643
1.00542 1.00691 1 0.998515
1.00307 1.00463 1 0.998442
0.998855 1.00034 1 0.998519
1.00276 1.00434 1 0.998422
1.0081 1.00966 1 0.998453
1.00389 1.00534 1 0.99856
1.00754 1.00903 1 0.998522
1.00121 1.00258 1 0.998639
1.00458 1.00588 1 0.998704
1.00843 1.01003 1 0.998423
1.00906 1.01058 1 0.998495
1.00765 1.00906 1 0.9986
1.00493 1.00617 1 0.998768
1.00209 1.00364 1 0.998452
1.00035 1.00181 1 0.998541
1.00412 1.00566 1 0.998468
1.00062 1.00205 1 0.998569
0.999389 1 1 0.999389
0.999218 1 1 0.999218
0.999199 1 1.00035 0.998849
1.00017 1.00148 1 0.998689
1.0025 1.00377 1 0.998733
1.00106 1.00222 1 0.998839
0.998726 1.00003 1 0.998693
0.999612 1.0007 1 0.998914
0.999288 1 1 0.999288
0.999228 1 1 0.999228
0.999302 1 1 0.999302
0.99987 1 1 0.99987
0.999549 1 1 0.999549
1.00697 1.00855 1 0.998431
1.00469 1.00623 1 0.998477
1.00383 1.00522 1 0.998617
0.999278 1 1 0.999278
0.999185 1 1.0001 0.999082
0.999252 1 1.0006 0.99865
1.00314 1.0044 1 0.998748
0.999221 1.00054 1 0.99868
1.00186 1.00296 1 0.99891
0.9999 1 1 0.9999
0.999251 1 1 0.999251
0.999205 1 1 0.999205
0.999189 1 1 0.999189
0.999392 1 1 0.999392
0.999616 1 1 0.999616
1.00845 1.01002 1 0.998442
1.00622 1.00772 1 0.998506
1.00534 1.00668 1 0.99867
1.00511 1.00627 1 0.998846
0.999214 1 1 0.999214
1.0005 1.00177 1 0.99874
0.999952 1 1.00114 0.998815
0.999655 1.0001 1.00104 0.998517
0.999924 1 1 0.999924
0.999687 1 1 0.999687
0.999454 1 1 0.999454
0.999218 1 1 0.999218
0.999194 1 1 0.999194
0.999136 1 1 0.999136
0.999952 1 1 0.999952
0.999633 1 1 0.999633
1.00071 1.0021 1 0.998606
0.999361 1 1 0.999361
0.999239 1 1 0.999239
0.999172 1 1 0.999172
0.998818 1.00001 1 0.998807
1.00019 1.00142 1 0.998772
1.00002 1 1.00108 0.998935
0.998996 1 1.00025 0.998742
0.999689 1 1 0.999689
0.999416 1 1 0.999416
0.999743 1 1.00064 0.999105
0.999202 1 1 0.999202
0.999114 1 1 0.999114
1.00383 1.00503 1 0.99881
0.999068 1.00035 1 0.998719
1.00125 1.00241 1 0.998839
1.00224 1 1.00341 0.998829
0.998572 1 1.00003 0.998543
0.999479 1 1 0.999479
0.999233 1 1 0.999233
1.00169 1 1.0027 0.998988
0.999044 1 1 0.999044
1.01004 1.01121 1 0.998843
1.00629 1.00753 0.999872 0.998893
1.00014 1.00159 1 0.998547
1.00234 1 1.00378 0.998566
0.999724 1 1 0.999724
0.999529 1 1 0.999529
0.999407 1 1 0.999407
0.999764 1 1 0.999764
0.999555 1 1 0.999555
0.999771 1 1 0.999771
0.999446 1 1 0.999446
0.99958 1 1 0.99958
0.999351 1 1 0.999351
0.999447 1 1 0.999447
0.99958 1 1 0.99958
0.999772 1 1 0.999772
0.999981 1 1 0.999981
0.999983 1 1 0.999983
1 1 1 1
0.999984 1 1 0.999984
1 1 1 1
1 1 1 1
1 1 1 1
1 1 1 1
1 1 1 1
1 1 1 1
1 1 1 1
1 1 1 1
1 1 1 1
1 1 1 1
1 1 1 1
1.00077 1.00213 1 0.998639
1.00422 1.00568 1 0.998549
1.00444 1.00572 1 0.998723
1.00783 1.00933 1 0.998519
1.00798 1.00954 1 0.998453
1.00285 1.00444 1 0.998418
1.00818 1.00977 1 0.998428
1.0088 1.01032 1 0.998493
1.00747 1.00888 1 0.998605
1.00571 1.00696 1 0.998763
1.01003 1.01158 1 0.998465
1.01007 1.0115 1 0.998582
1.00899 1.0103 1 0.998701
1.00653 1.00811 1 0.998435
1.00467 1.0062 1 0.998484
1.00367 1.00505 1 0.998624
0.999276 1 1 0.999276
0.999106 1 1 0.999106
0.999314 1 1.00067 0.998645
1.00324 1.0045 1 0.998739
1.00127 1.00236 1 0.998911
0.999208 1.00049 1 0.998718
0.99925 1 1 0.99925
0.999216 1 1 0.999216
0.999185 1 1 0.999185
0.999902 1 1 0.999902
0.999399 1 1 0.999399
0.999599 1 1 0.999599
1.00904 1.01061 1 0.998444
1.00604 1.00754 1 0.998506
1.00532 1.00667 1 0.998657
0.999209 1 1 0.999209
0.999812 1 1.00095 0.99886
0.999506 1.00008 1.0009 0.998524
1.00548 1.00663 1 0.998865
1.00073 1.002 1 0.998734
0.999943 1 1 0.999943
0.999687 1 1 0.999687
0.999195 1 1 0.999195
0.999155 1 1 0.999155
0.99922 1 1 0.99922
0.99944 1 1 0.99944
1.00955 1.01105 1 0.998512
1.0072 1.00864 1 0.998572
1.008 1.00929 0.999905 0.998819
1.00555 1.00666 1 0.998906
0.999711 1 1.00062 0.999095
1.00011 1.00025 1.0014 0.998466
1.00118 1 1.00251 0.998672
0.999979 1 1 0.999979
0.999789 1 1 0.999789
0.999691 1 1 0.999691
0.999476 1 1 0.999476
0.999283 1 1 0.999283
0.999097 1 1 0.999097
0.999211 1 1 0.999211
1.00109 1 1.00191 0.999179
0.999689 1 1 0.999689
0.999424 1 1 0.999424
1.00367 1.00486 1 0.998815
0.999208 1 1 0.999208
0.999684 1 1.00056 0.999121
0.999123 1 1 0.999123
0.999054 1.00033 1 0.99872
1.00115 1.00224 1 0.998914
1.00244 1 1.00363 0.998817
0.998504 1 1 0.998504
0.999471 1 1 0.999471
0.999242 1 1 0.999242
1.00199 1 1.00299 0.999
0.999057 1 1 0.999057
1.0095 1.01068 1 0.998837
1.00568 1.00685 0.999949 0.998886
1.00043 1.00186 1 0.99858
1.00187 1 1.00333 0.998544
0.99935 1 1 0.99935
1.01031 1.01205 0.999503 0.99878
0.999106 1 1 0.999106
1.00102 1 1.00216 0.998857
1.01253 1.01391 0.999722 0.99892
1.00486 1.00629 1 0.998579
1.00216 1.0005 1.00323 0.998425
0.999539 1 1 0.999539
0.999406 1 1 0.999406
0.999301 1 1 0.999301
0.999771 1 1 0.999771
0.999588 1 1 0.999588
0.999429 1 1 0.999429
0.999772 1 1 0.999772
0.999579 1 1 0.999579
0.999336 1 1 0.999336
0.999464 1 1 0.999464
0.999266 1 1 0.999266
0.999337 1 1 0.999337
0.999477 1 1 0.999477
0.999594 1 1 0.999594
0.999766 1 1 0.999766
0.999978 1 1 0.999978
0.99998 1 1 0.99998
1 1 1 1
0.999982 1 1 0.999982
1 1 1 1
1 1 1 1
1 1 1 1
1 1 1 1
1 1 1 1
0.999989 1 1 0.999989
1 1 1 1
1 1 1 1
1 1 1 1
1 1 1 1
1 1 1 1
1 1 1 1
1.00651 1.00776 1 0.998757
1.0073 1.0087 1 0.998611
1.00855 1.01008 1 0.998492
1.00793 1.00951 1 0.998433
1.00989 1.01143 1 0.998472
1.0105 1.01194 1 0.998572
1.00958 1.01087 1 0.998715
1.01016 1.01162 1 0.998556
1.01166 1.01302 1 0.998658
1.00782 1.01029 0.998741 0.998816
1.00958 1.01116 1 0.998446
1.00587 1.00738 1 0.998506
1.00539 1.00675 1 0.998645
0.999203 1 1 0.999203
0.999946 1 1.00104 0.998904
0.99935 1.00004 1.00078 0.998531
1.00598 1.00711 1 0.998883
1.00078 1.00205 1 0.998727
0.999197 1 1 0.999197
0.999172 1 1 0.999172
0.999222 1 1 0.999222
0.999961 1 1 0.999961
0.999687 1 1 0.999687
0.999427 1 1 0.999427
1.00907 1.01056 1 0.998523
0.999976 1 1 0.999976
0.999777 1 1 0.999777
1.00689 1.00833 1 0.998571
1.0092 1.01042 1 0.998791
0.999676 1 1.00055 0.999122
1.00186 1 1.00323 0.99864
0.999759 1.00045 1.00084 0.998473
1.00506 1.00616 1 0.998904
0.999725 1 1 0.999725
0.999475 1 1 0.999475
0.999185 1 1 0.999185
1.00019 1 1.00096 0.999236
0.999076 1 1 0.999076
0.999286 1 1 0.999286
1.01052 1.01207 0.999841 0.998633
1.01069 1.01203 1 0.998677
1.00937 1.01096 0.999424 0.999004
1.00108 1.00239 1 0.998694
1.00132 1 1.00225 0.999071
1.0039 1.00001 1.00544 0.99846
0.999791 1 1 0.999791
0.999754 1 1 0.999754
0.999622 1 1 0.999622
0.99948 1 1 0.99948
0.99934 1 1 0.99934
0.999136 1 1 0.999136
1.00109 1 1.0021 0.998997
0.99925 1 1 0.99925
0.999464 1 1 0.999464
0.99925 1 1 0.99925
1.00916 1.01034 1 0.998831
1.00527 1.0064 1 0.99888
0.999071 1 1 0.999071
1.00219 1 1.00318 0.999013
1.00079 1.00215 1.00004 0.998614
1.00146 1 1.00294 0.998523
0.999347 1 1 0.999347
1.01044 1.01216 0.999504 0.998797
0.999109 1 1 0.999109
1.0011 1 1.00226 0.998838
1.0123 1.01367 0.99974 0.998905
1.00527 1.00668 1 0.998595
1.00234 1.00043 1.00348 0.998432
0.999197 1 1 0.999197
1.01793 1.02113 0.997914 0.998946
0.998989 1 1 0.998989
1.00228 1 1.00363 0.998659
1.00602 1.01014 0.997225 0.998689
1.00181 1.00117 1.00221 0.998422
1.00651 1.00898 0.99854 0.999011
0.999406 1 1 0.999406
0.9993 1 1 0.9993
0.99922 1 1 0.99922
0.999772 1 1 0.999772
0.999579 1 1 0.999579
0.999481 1 1 0.999481
0.999322 1 1 0.999322
0.999766 1 1 0.999766
0.999585 1 1 0.999585
0.99926 1 1 0.99926
0.999476 1 1 0.999476
0.999351 1 1 0.999351
0.99925 1 1 0.99925
0.999392 1 1 0.999392
0.999483 1 1 0.999483
0.999562 1 1 0.999562
0.999731 1 1 0.999731
0.999615 1 1 0.999615
0.999733 1 1 0.999733
0.999976 1 1 0.999976
0.999978 1 1 0.999978
1 1 1 1
0.999979 1 1 0.999979
1 1 1 1
1 1 1 1
1 1 1 1
1 1 1 1
1 1 1 1
0.999993 1 1 0.999993
0.999986 1 1 0.999986
1 1 1 1
1 1 1 1
1 1 1 1
1 1 1 1
1 1 1 1
1 1 1 1
1.0101 1.01139 1 0.998729
1.01093 1.01239 1 0.998561
1.00977 1.01131 1 0.99848
1.0106 1.01207 1 0.998554
1.01094 1.01229 1 0.998661
1.00879 1.01081 0.999183 0.998821
1.01073 1.01227 0.99976 0.998718
1.00992 1.01594 0.995216 0.99885
1.01981 1.02338 0.997488 0.999016
0.999836 1 1 0.999836
1.00863 1.01011 1 0.998535
1.00645 1.00789 1 0.998569
1.01012 1.01137 1 0.998762
0.999586 1 1.00044 0.999149
1.00259 1 1.00399 0.998608
0.999676 1.00074 1.00045 0.998481
1.00453 1.00563 1 0.998902
0.999159 1 1 0.999159
0.999294 1 1 0.999294
0.999056 1 1 0.999056
0.999972 1 1 0.999972
0.999289 1 1 0.999289
0.999759 1 1 0.999759
0.999474 1 1 0.999474
0.999764 1 1 0.999764
1.01082 1.01231 0.999886 0.998634
0.999807 1 1 0.999807
0.999754 1 1 0.999754
0.999596 1 1 0.999596
1.01115 1.01249 1 0.99868
1.008 1.00968 0.99937 0.998968
1.00056 1 1.00148 0.999083
1.00396 1 1.00552 0.998454
1.00129 1.00243 1.00016 0.998699
0.999498 1 1 0.999498
0.999332 1 1 0.999332
0.999793 1 1.00058 0.999213
1.00101 1 1.00199 0.999024
0.999151 1 1 0.999151
1.01104 1.01351 0.998885 0.998678
1.00995 1.01382 0.997374 0.998803
1.00413 1.00581 0.999519 0.998811
1.00324 1.00135 1.0033 0.998582
1.00375 1 1.00476 0.998989
0.999597 1 1 0.999597
0.999532 1 1 0.999532
0.99946 1 1 0.99946
0.99935 1 1 0.99935
0.999223 1 1 0.999223
0.999758 1 1.00071 0.999046
1.00442 1 1.00548 0.998946
0.999345 1 1 0.999345
0.999113 1 1 0.999113
1.01055 1.01218 0.999574 0.998815
1.01189 1.01331 0.999712 0.99889
1.00546 1.00686 1 0.998611
1.00115 1 1.00233 0.998819
1.00238 1.00034 1.0036 0.99844
0.999215 1 1 0.999215
1.01787 1.02158 0.997422 0.99895
0.999027 1 1.00003 0.998996
1.00248 1 1.00382 0.998668
1.00705 1.01052 0.99784 0.99873
1.00212 1.00102 1.00269 0.998415
1.00761 1.01004 0.998719 0.998872
0.999108 1 1 0.999108
1.00248 1.01329 0.990417 0.99891
1.00044 1 1.00149 0.998953
1.00492 1 1.00635 0.998584
1.0016 1.00201 1.00104 0.998547
0.960785 0.970667 0.996476 0.99332
0.997234 0.994247 1.00591 0.997107
0.985909 1.00514 0.981703 0.999145
0.913173 0.934259 0.981965 0.995381
0.907066 0.948941 0.959973 0.995728
0.999299 1 1 0.999299
0.999227 1 1 0.999227
0.999215 1 1 0.999215
0.999765 1 1 0.999765
0.999575 1 1 0.999575
0.999476 1 1 0.999476
0.999366 1 1 0.999366
0.999255 1 1 0.999255
0.999469 1 1 0.999469
0.999745 1 1 0.999745
0.999573 1 1 0.999573
0.999257 1 1 0.999257
0.999389 1 1 0.999389
0.999399 1 1 0.999399
0.999318 1 1 0.999318
0.999438 1 1 0.999438
0.999547 1 1 0.999547
0.999729 1 1 0.999729
0.999586 1 1 0.999586
0.999485 1 1 0.999485
0.999585 1 1 0.999585
0.999594 1 1 0.999594
0.99976 1 1 0.99976
0.999732 1 1 0.999732
0.999976 1 1 0.999976
0.999976 1 1 0.999976
1 1 1 1
0.999977 1 1 0.999977
1 1 1 1
1 1 1 1
1 1 1 1
1 1 1 1
1 1 1 1
0.999995 1 1 0.999995
0.999992 1 1 0.999992
1 1 1 1
0.999984 1 1 0.999984
1 1 1 1
1 1 1 1
1 1 1 1
1 1 1 1
1 1 1 1
1.01024 1.0116 1 0.998664
1.01099 1.01246 1 0.998553
1.00955 1.0112 0.999537 0.998826
1.01027 1.01573 0.995749 0.998872
1.01059 1.01207 0.99982 0.998718
1.02059 1.02408 0.997613 0.998972
1.02092 1.02306 0.999237 0.998668
0.976172 0.984914 0.994581 0.996525
1.01611 1.01935 0.997784 0.999031
0.999844 1 1 0.999844
0.999835 1 1 0.999835
0.99965 1 1 0.99965
0.99967 1 1 0.99967
1.0112 1.0126 0.999983 0.998636
1.01163 1.01297 1 0.998684
1.00667 1.00827 0.999481 0.998931
0.999717 1 1.00062 0.999096
1.00378 1 1.00534 0.998448
1.00147 1.00264 1.00013 0.998704
1.00034 1 1.00116 0.999176
1.00089 1 1.00184 0.999051
0.999165 1 1 0.999165
0.999753 1 1 0.999753
0.999324 1 1 0.999324
0.999516 1 1 0.999516
0.999822 1 1 0.999822
0.99957 1 1 0.99957
1.00969 1.01178 0.999246 0.998694
0.999624 1 1 0.999624
0.999546 1 1 0.999546
0.999456 1 1 0.999456
1.01177 1.01469 0.998305 0.998813
1.00281 1.00469 0.99932 0.998808
1.00359 1 1.0046 0.998986
1.00282 1.00142 1.00284 0.998568
0.999354 1 1 0.999354
0.999232 1 1 0.999232
1.00326 1 1.00432 0.998946
1.00029 1 1.00127 0.999027
1.0181 1.02037 0.999058 0.998711
1.00251 1.01137 0.992439 0.998793
1.00233 1.00307 1.00073 0.99854
1.00192 1 1.00306 0.998866
0.999409 1 1 0.999409
0.999393 1 1 0.999393
0.999177 1 1 0.999177
1.00555 1 1.00671 0.998849
0.94969 0.96721 0.988663 0.993145
0.999233 1 1 0.999233
0.999053 1 1.00005 0.999003
1.01744 1.02186 0.996716 0.998954
1.00812 1.01081 0.99857 0.99877
1.00263 1.00094 1.0033 0.998407
1.00275 1 1.00408 0.998678
1.00827 1.01086 0.9987 0.99873
0.999146 1 1.00003 0.999121
1.00175 1.01287 0.99012 0.998898
1.00003 1 1.00107 0.998959
1.00466 1 1.00608 0.998587
1.00153 1.00275 1.00023 0.998558
0.958477 0.969963 0.9946 0.993523
0.992152 0.992408 1.00366 0.996096
0.988662 1.00515 0.984389 0.999194
0.919797 0.937125 0.98644 0.995002
0.896644 0.941547 0.956704 0.995406
0.999485 1 1.00032 0.99916
0.926337 0.941786 0.988901 0.994636
0.92938 0.951048 0.981066 0.996077
0.97872 1.00349 0.976382 0.998914
1.00397 1 1.00501 0.998965
1.00901 1.00018 1.01012 0.998716
0.988711 1.00327 0.986194 0.99929
0.968477 0.972637 1.00273 0.993014
0.992443 0.989679 1.00698 0.995837
0.906968 0.938603 0.970902 0.995256
0.939516 0.97503 0.96665 0.99682
0.999235 1 1 0.999235
0.999215 1 1 0.999215
0.999274 1 1 0.999274
0.999759 1 1 0.999759
0.999584 1 1 0.999584
0.999454 1 1 0.999454
0.999385 1 1 0.999385
0.999263 1 1 0.999263
0.999729 1 1 0.999729
0.9994 1 1 0.9994
0.999453 1 1 0.999453
0.999562 1 1 0.999562
0.999308 1 1 0.999308
0.999353 1 1 0.999353
0.999502 1 1.0002 0.999305
0.999446 1 1 0.999446
0.999575 1 1 0.999575
0.999586 1 1 0.999586
0.99947 1 1 0.99947
0.999461 1 1 0.999461
0.999458 1 1 0.999458
0.999401 1 1 0.999401
0.999369 1 1 0.999369
0.999563 1 1 0.999563
0.999585 1 1 0.999585
0.999757 1 1 0.999757
0.999573 1 1 0.999573
0.999748 1 1 0.999748
0.999975 1 1 0.999975
0.999731 1 1 0.999731
0.999976 1 1 0.999976
1 1 1 1
0.999976 1 1 0.999976
1 1 1 1
1 1 1 1
1 1 1 1
1 1 1 1
1 1 1 1
0.999839 1 1 0.999839
0.999995 1 1 0.999995
0.999994 1 1 0.999994
1 1 1 1
0.999991 1 1 0.999991
1 1 1 1
1 1 1 1
1 1 1 1
1 1 1 1
1 1 1 1
1.01144 1.01583 0.996785 0.998894
1.01051 1.01198 0.999829 0.998717
1.02184 1.02495 0.998036 0.998929
0.978642 0.98438 0.997045 0.997117
1.01564 1.01907 0.997571 0.999066
1.02148 1.02425 0.998637 0.998655
1.01965 1.02247 0.99844 0.998798
0.981317 0.986526 0.99748 0.997233
0.958634 0.970223 0.995628 0.992394
0.902044 0.93163 0.973895 0.994197
0.89917 0.937522 0.963291 0.99564
0.999642 1 1 0.999642
0.999843 1 1 0.999843
0.999835 1 1 0.999835
0.999642 1 1 0.999642
0.999525 1 1 0.999525
0.999553 1 1 0.999553
0.999652 1 1 0.999652
0.999659 1 1 0.999659
1.00809 1.00992 0.999482 0.998711
1.01391 1.016 0.99912 0.998824
1.00177 1.00383 0.999136 0.998804
1.00357 1 1.00459 0.998983
1.00255 1.00127 1.00272 0.998553
1.0022 1 1.00326 0.998946
1.0009 1 1.00189 0.999008
0.99924 1 1 0.99924
0.999561 1 1 0.999561
0.999358 1 1 0.999358
0.999651 1 1 0.999651
0.999452 1 1 0.999452
1.01857 1.02128 0.998665 0.998687
0.999423 1 1 0.999423
0.999392 1 1 0.999392
1.00334 1.01024 0.994376 0.998784
1.00227 1.00337 1.00031 0.998599
1.00347 1 1.00465 0.998826
0.999196 1 1.00003 0.99917
1.00509 1 1.00624 0.998853
1.01336 1.02082 0.994044 0.998642
0.991228 1.00303 0.989492 0.998732
0.999762 1 1.00103 0.998732
1.00652 1 1.00767 0.998862
0.999334 1 1 0.999334
0.999239 1 1 0.999239
1.00042 1 1.00141 0.999007
0.916236 0.941479 0.978117 0.994961
0.955918 0.968897 0.992981 0.993578
0.999195 1 1.00006 0.999134
0.999742 1 1.00078 0.998964
1.0019 1.01289 0.990259 0.998887
1.00153 1.00356 0.999411 0.99857
1.00429 1 1.00571 0.99859
0.959552 0.971091 0.995801 0.992285
0.992717 0.993536 1.00235 0.99683
0.991771 1.00535 0.987243 0.999242
0.914593 0.938266 0.980116 0.994545
0.88554 0.933141 0.953679 0.995083
0.999367 1 1.00021 0.999159
0.921367 0.944881 0.979932 0.995084
0.930135 0.948872 0.984187 0.996004
0.981347 1.00411 0.978404 0.998904
1.00337 1 1.0044 0.998975
1.00811 1.00011 1.00926 0.998753
0.982356 1.00079 0.982266 0.999298
0.969205 0.973867 1.00265 0.992585
0.990521 0.989294 1.00444 0.996816
0.909435 0.937633 0.975448 0.99434
0.938796 0.974994 0.966158 0.996601
1.00014 1 1.00094 0.999201
0.945694 0.95205 0.996541 0.996772
0.992199 0.993578 1.0005 0.998114
0.986772 1.00022 0.987361 0.999187
1.00894 1 1.00974 0.99921
1.00457 0.998204 1.00675 0.999629
0.983259 0.986779 0.998646 0.997783
0.97137 0.970885 1.00783 0.992722
0.929725 0.960792 0.973177 0.994337
0.960643 0.992896 0.969882 0.997561
0.999215 1 1 0.999215
0.999256 1 1 0.999256
0.999773 1 1.00042 0.999352
0.999729 1 1 0.999729
0.999578 1 1 0.999578
0.999469 1 1 0.999469
0.999401 1 1 0.999401
0.999298 1 1 0.999298
0.999575 1 1 0.999575
0.999364 1 1 0.999364
0.999446 1 1 0.999446
0.999553 1 1.00024 0.999309
0.999906 1 1.00055 0.999352
0.999439 1 1.00009 0.999352
0.999447 1 1 0.999447
0.999585 1 1 0.999585
0.999455 1 1 0.999455
0.999461 1 1 0.999461
0.999458 1 1 0.999458
0.999398 1 1 0.999398
0.999425 1 1 0.999425
0.999387 1 1 0.999387
0.999359 1 1 0.999359
0.99924 1 1 0.99924
0.999618 1 1.00048 0.999139
0.999302 1 1 0.999302
0.999368 1 1 0.999368
0.999525 1 1 0.999525
0.999562 1 1 0.999562
0.999746 1 1 0.999746
0.999585 1 1 0.999585
0.999757 1 1 0.999757
0.999974 1 1 0.999974
0.999736 1 1 0.999736
0.999975 1 1 0.999975
1 1 1 1
0.999975 1 1 0.999975
1 1 1 1
1 1 1 1
1 1 1 1
1 1 1 1
1 1 1 1
0.999853 1 1 0.999853
0.999994 1 1 0.999994
0.999839 1 1 0.999839
1 1 1 1
0.999995 1 1 0.999995
0.999994 1 1 0.999994
1 1 1 1
1 1 1 1
1 1 1 1
1 1 1 1
1 1 1 1
0.918882 0.939591 0.982594 0.995283
0.936151 0.952458 0.986369 0.996462
0.981683 0.985092 0.998992 0.997544
1.01541 1.01871 0.997658 0.9991
1.02203 1.02535 0.998119 0.998642
0.980818 0.985026 0.997513 0.998211
1.02005 1.02228 0.99901 0.998808
0.960602 0.97134 0.995455 0.993461
0.91321 0.934853 0.981568 0.995192
0.890813 0.934534 0.9577 0.995317
0.998765 0.999977 1.00002 0.998764
0.966612 0.971847 1.00126 0.993359
0.90173 0.935645 0.968426 0.995173
0.938233 0.972137 0.968702 0.996307
0.99948 1 1 0.99948
0.999652 1 1 0.999652
0.999843 1 1 0.999843
0.999634 1 1 0.999634
0.99954 1 1 0.99954
0.999502 1 1 0.999502
0.999553 1 1 0.999553
0.999581 1 1 0.999581
0.999637 1 1 0.999637
0.999647 1 1 0.999647
1.0191 1.02211 0.998394 0.998664
1.00327 1.0084 0.996133 0.998775
1.00216 1.00364 0.999867 0.998658
1.0048 1 1.00602 0.998786
1.00435 1 1.00549 0.998857
0.999193 1 1.00003 0.999163
0.999392 1 1 0.999392
0.999438 1 1 0.999438
1.0134 1.02091 0.994013 0.998619
0.999328 1 1 0.999328
0.999224 1 1 0.999224
0.99275 1.00306 0.991022 0.998691
1.00011 1 1.00133 0.99878
1.00541 1 1.00659 0.998823
1.00144 1 1.00245 0.998996
1.00782 1.01016 0.998952 0.998727
0.996402 1 0.99734 0.999059
1.00567 1 1.00675 0.998924
0.999315 1 1 0.999315
0.999217 1 1 0.999217
0.999083 1 1 0.999083
0.946206 0.954956 0.993872 0.996947
0.920683 0.941382 0.9835 0.994421
0.953829 0.969952 0.990194 0.993116
0.999158 1 1 0.999158
1.00268 1 1.00369 0.998984
0.98395 1.00459 0.980537 0.998895
1.00733 1 1.00855 0.99879
0.91875 0.943576 0.979211 0.994361
0.96796 0.973064 1.00082 0.993937
0.990195 0.990698 1.00361 0.995893
0.979692 0.998659 0.981682 0.999313
0.911978 0.936379 0.978585 0.995255
0.931498 0.951178 0.983349 0.995892
0.934584 0.973434 0.963602 0.996354
1.00023 1 1.00103 0.999201
0.943816 0.953582 0.992997 0.996738
0.992801 0.993895 1.00079 0.998114
0.989686 1.00009 0.990377 0.99921
1.0089 1 1.0097 0.999207
1.00429 0.999237 1.00581 0.999246
0.984152 0.986145 1.00158 0.996408
0.968152 0.971544 1.00383 0.992704
0.932064 0.963172 0.972081 0.995496
0.954601 0.987153 0.969622 0.997321
1.00104 1 1.00154 0.999498
0.993261 0.994766 0.999847 0.99864
1.00269 0.999235 1.00451 0.998954
1.00906 0.999545 1.00981 0.999715
0.992394 0.987711 1.00589 0.998855
0.971551 0.973401 1.00566 0.992485
0.959141 0.97729 0.985584 0.995784
0.961139 0.997304 0.966404 0.997241
0.999239 1 1 0.999239
0.999718 1 1.00036 0.999363
1.00075 1 1.0013 0.999451
0.999574 1 1 0.999574
0.999445 1 1 0.999445
0.999375 1 1 0.999375
0.999594 1 1.00028 0.999312
0.999448 1 1 0.999448
0.999381 1 1.00003 0.99935
1.0003 1 1.00093 0.999364
1.00031 1 1.00086 0.999456
0.999554 1 1.00021 0.999342
0.999374 1 1 0.999374
0.999461 1 1 0.999461
0.999457 1 1 0.999457
0.999396 1 1 0.999396
0.999389 1 1 0.999389
0.999424 1 1 0.999424
0.999364 1 1 0.999364
0.999319 1 1 0.999319
0.999347 1 1 0.999347
0.999219 1 1 0.999219
0.999249 1 1 0.999249
0.999639 1 1.00049 0.999153
0.999441 1 1.00045 0.998995
0.999284 1 1 0.999284
0.999478 1 1.0003 0.999182
0.999322 1 1 0.999322
0.99945 1 1 0.99945
0.999367 1 1 0.999367
0.999524 1 1 0.999524
0.999723 1 1 0.999723
0.999561 1 1 0.999561
0.999745 1 1 0.999745
0.999971 1 1 0.999971
0.999756 1 1 0.999756
0.999973 1 1 0.999973
1 1 1 1
0.999975 1 1 0.999975
1 1 1 1
1 1 1 1
1 1 1 1
1 1 1 1
1 1 1 1
0.999792 1 1 0.999792
0.999993 1 1 0.999993
0.999826 1 1 0.999826
1 1 1 1
0.999995 1 1 0.999995
0.999838 1 1 0.999838
1 1 1 1
1 1 1 1
0.999995 1 1 0.999995
1 1 1 1
1 1 1 1
1 1 1 1
0.949274 0.955578 0.996297 0.997095
0.919128 0.940639 0.982313 0.994725
0.992427 0.995336 0.999041 0.998034
0.930225 0.948344 0.984545 0.996291
0.976747 0.983685 0.995965 0.99697
1.01973 1.0221 0.998862 0.998816
0.960519 0.97166 0.993957 0.994543
0.910895 0.936019 0.978728 0.99431
0.882692 0.932032 0.951827 0.994994
0.996398 0.999381 0.998728 0.998285
0.967703 0.971105 1.00363 0.992891
0.906165 0.939794 0.969822 0.99422
0.935596 0.97113 0.96708 0.996205
0.994993 0.997758 0.99896 0.998267
0.969432 0.969324 1.00756 0.992605
0.932238 0.963857 0.971645 0.995422
0.959487 0.993725 0.968184 0.997276
0.999387 1 1 0.999387
0.999496 1 1 0.999496
0.999662 1 1 0.999662
0.999554 1 1 0.999554
0.99941 1 1 0.99941
0.999514 1 1 0.999514
0.999553 1 1 0.999553
0.999564 1 1 0.999564
0.999597 1 1 0.999597
0.999622 1 1 0.999622
1.01402 1.02169 0.993896 0.998597
0.995059 1.00343 0.992994 0.99865
1.00042 1 1.00159 0.998829
1.00464 1 1.00586 0.998784
1.00266 1 1.00368 0.998986
0.999209 1 1 0.999209
0.999322 1 1 0.999322
0.999316 1 1 0.999316
1.00283 1.00887 0.995267 0.998748
0.999227 1 1 0.999227
0.999169 1 1.00009 0.999078
0.994857 1 0.995842 0.999011
1.00487 1 1.00596 0.998921
0.988981 1.00263 0.987262 0.999115
1.01081 1 1.01149 0.999321
0.999842 1 1.00078 0.999063
0.999241 1 1 0.999241
0.999096 1 1 0.999096
0.992928 0.994258 0.999768 0.998894
0.948546 0.955081 0.996043 0.997104
0.919254 0.941042 0.981467 0.995292
1.00038 1 1.00119 0.999199
1.00875 1 1.00956 0.999203
0.991051 1 0.991814 0.999231
0.949668 0.955948 0.996384 0.997036
0.971344 0.970185 1.00876 0.992499
0.98608 0.987445 1.00119 0.997435
0.998445 0.999276 1.00033 0.998837
0.931552 0.96075 0.97514 0.994329
0.992639 0.993398 1.00112 0.998114
0.949473 0.982945 0.968496 0.997368
1.00128 1 1.00177 0.999504
0.992186 0.993304 1.00004 0.998831
1.00483 1.001 1.00486 0.998965
1.00879 0.999548 1.00966 0.999591
0.991668 0.988468 1.0048 0.998448
0.974764 0.97548 1.00702 0.992301
0.962189 1.0005 0.964103 0.997511
0.943481 0.969158 0.978222 0.995178
1.00211 0.999419 1.00298 0.999711
1.00256 1.00255 1.00033 0.999675
1.01213 1.0079 1.00511 0.999096
0.961494 0.994316 0.969627 0.997281
1.00145 0.988901 1.01305 0.999644
0.978313 0.97683 1.00871 0.992869
0.936825 0.955593 0.984643 0.99565
0.999642 1 1.00027 0.999374
1.0005 1 1.00109 0.999414
1.00312 1 1.00355 0.999566
0.999448 1 1 0.999448
0.999349 1 1 0.999349
1.00075 1 1.00138 0.999378
0.999376 1 1 0.999376
0.999668 1 1.00033 0.999343
1.00069 1 1.00126 0.999429
0.999851 1 1.00035 0.999497
0.999333 1 1 0.999333
0.999391 1 1 0.999391
0.999423 1 1 0.999423
0.999368 1 1 0.999368
0.999345 1 1 0.999345
0.999326 1 1 0.999326
0.999582 1 1.00027 0.999313
0.999252 1 1 0.999252
1.00139 1 1.00241 0.998986
0.999257 1 1 0.999257
0.999544 1 1.0004 0.999145
0.999652 1 1.00079 0.998867
0.999442 1 1.00046 0.998985
0.99922 1 1 0.99922
0.999497 1 1.0005 0.999
0.999408 1 1 0.999408
0.999268 1 1 0.999268
0.999345 1 1.00012 0.999226
0.999342 1 1 0.999342
0.999467 1 1 0.999467
0.999684 1 1 0.999684
0.999523 1 1 0.999523
0.999722 1 1 0.999722
0.999965 1 1 0.999965
0.999745 1 1 0.999745
0.99997 1 1 0.99997
1 1 1 1
0.999973 1 1 0.999973
1 1 1 1
1 1 1 1
1 1 1 1
1 1 1 1
1 1 1 1
0.99971 1 1 0.99971
0.999951 1 1 0.999951
0.999791 1 1 0.999791
1 1 1 1
0.999977 1 1 0.999977
0.999798 1 1 0.999798
1 1 1 1
1 1 1 1
0.999995 1 1 0.999995
1 1 1 1
1 1 1 1
1 1 1 1
0.991687 0.993234 0.999662 0.99878
0.942273 0.95457 0.990324 0.996763
0.920393 0.939214 0.985416 0.994464
0.999512 1 1 0.999512
1.00032 0.99711 1.00411 0.999114
0.994074 0.995405 1.00063 0.998035
0.92438 0.947863 0.979074 0.996069
0.994761 0.999318 0.997674 0.997762
0.970629 0.973022 1.0043 0.993267
0.90994 0.943773 0.968863 0.995137
0.93052 0.968585 0.964504 0.996056
0.99748 0.999833 1.00071 0.996937
0.966318 0.968526 1.00489 0.992867
0.93546 0.964075 0.975169 0.995026
0.958629 0.993208 0.968036 0.997055
0.988402 0.989652 1.00256 0.996183
0.974859 0.969534 1.01405 0.99156
0.944112 0.970744 0.977664 0.994784
0.96028 0.997171 0.965678 0.997231
0.999302 1 1 0.999302
0.999378 1 1 0.999378
0.999512 1 1 0.999512
0.9994 1 1 0.9994
0.99943 1 1 0.99943
0.999525 1 1 0.999525
0.999569 1 1 0.999569
0.999613 1 1 0.999613
0.99738 1.00716 0.991508 0.998767
0.992995 1 0.994026 0.998962
0.999317 1 1 0.999317
1.00391 1 1.005 0.998918
0.99924 1 1.00017 0.999073
0.999237 1 1 0.999237
0.999244 1 1 0.999244
0.99327 1.00416 0.990022 0.999121
0.999115 1 1 0.999115
1.00066 1 1.0016 0.999059
1.00684 1 1.00752 0.999323
0.999258 1 1 0.999258
0.984828 0.99587 0.989375 0.999532
1.01271 0.999633 1.01363 0.999454
0.999162 1 1 0.999162
0.999201 1 1 0.999201
1.00294 1.00385 0.99935 0.999748
0.992399 0.993754 0.999723 0.998912
0.951248 0.955237 0.998555 0.997264
1.00142 1 1.00191 0.999512
1.00951 0.999579 1.01047 0.999468
0.990935 0.991911 0.999995 0.999021
0.976096 0.97314 1.01046 0.992657
0.991608 0.986706 1.00794 0.997057
0.946659 0.971341 0.979847 0.994635
1.00678 1.00256 1.00524 0.998975
0.965202 1.00522 0.962329 0.997781
1.00235 0.999465 1.00321 0.999678
1.00156 1.00193 0.999948 0.999683
1.01143 1.00729 1.00484 0.999274
1.00679 0.993417 1.01353 0.999931
0.959443 0.99353 0.968547 0.997052
0.97644 0.975261 1.00836 0.992908
0.943037 0.9663 0.981242 0.994582
1.00631 0.996485 1.01009 0.999771
1.01083 1.00993 1.00111 0.999783
1.00061 0.998453 1.00304 0.999117
0.939364 0.973303 0.968688 0.996327
0.943411 0.972073 0.975676 0.99471
0.994345 0.988256 1.00634 0.999825
0.979658 0.970942 1.01682 0.992282
1.00027 1 1.00089 0.999376
1.00223 1 1.00268 0.99955
1.00862 0.996466 1.01262 0.999582
0.999378 1 1 0.999378
0.99971 1 1.00037 0.999344
1.00094 1 1.00154 0.999403
0.99933 1 1 0.99933
0.99993 1 1.00043 0.999497
1.00431 0.999967 1.00497 0.999376
0.999343 1 1 0.999343
0.999333 1 1 0.999333
0.999942 1 1.00065 0.999292
1.00535 1 1.0063 0.99905
0.999284 1 1 0.999284
1.00086 1 1.00183 0.999028
1.00281 1 1.00406 0.998747
1.00054 1 1.00183 0.998716
0.99942 1 1.00028 0.999137
0.999644 1 1.00081 0.998835
0.99947 1 1.00041 0.999056
0.999654 1 1.0005 0.999155
0.999408 1 1.0004 0.999011
0.999366 1 1 0.999366
0.999217 1 1 0.999217
0.999551 1 1.00054 0.999006
0.999631 1 1 0.999631
0.999402 1 1 0.999402
0.999252 1 1 0.999252
0.999484 1 1 0.999484
0.999683 1 1 0.999683
0.999954 1 1 0.999954
0.999721 1 1 0.999721
0.999963 1 1 0.999963
1 1 1 1
0.999969 1 1 0.999969
1 1 1 1
1 1 1 1
1 1 1 1
1 1 1 1
1 1 1 1
0.999676 1 1 0.999676
0.999927 1 1 0.999927
0.999726 1 1 0.999726
1 1 1 1
0.99995 1 1 0.99995
0.999789 1 1 0.999789
1 1 1 1
1 1 1 1
0.999961 1 1 0.999961
1 1 1 1
1 1 1 1
1 1 1 1
1.00099 1.00131 1.00002 0.999661
0.991552 0.993048 0.999705 0.998788
0.942869 0.955146 0.990332 0.996784
0.999519 1 1 0.999519
0.999482 1 1 0.999482
0.999413 1 1 0.999413
1.01192 1.00668 1.00611 0.999094
1.00084 0.997627 1.00409 0.999128
0.995367 0.995498 1.00184 0.998035
1.00331 1.00075 1.00455 0.998014
0.968344 0.969395 1.00629 0.992676
0.932146 0.961267 0.975212 0.994354
0.960007 0.99505 0.967555 0.997134
0.983403 0.984787 1.00126 0.997343
0.970761 0.969208 1.00912 0.992551
0.943716 0.966939 0.980182 0.995715
0.962676 1.00071 0.964397 0.997505
0.975764 0.979962 0.998646 0.997066
0.98115 0.973256 1.01554 0.992682
0.937195 0.955391 0.985241 0.995649
0.959747 0.991438 0.970425 0.997537
0.999289 1 1 0.999289
0.9993 1 1 0.9993
0.999369 1 1 0.999369
0.999398 1 1 0.999398
0.999449 1 1 0.999449
0.999574 1 1 0.999574
0.998045 1.00562 0.99333 0.999127
1.00285 1 1.00353 0.999324
0.999248 1 1 0.999248
1.00137 1 1.00231 0.999056
0.999134 1 1 0.999134
0.999248 1 1 0.999248
0.999205 1 1 0.999205
0.993928 0.998389 0.996008 0.999522
0.999198 1 1 0.999198
1.00977 0.997472 1.01285 0.99948
0.999266 1 1 0.999266
1.00844 0.990516 1.01835 0.999754
0.995035 0.994976 1.00044 0.999624
0.999259 1 1 0.999259
1.01294 1.01358 0.999502 0.999871
1.00286 1.00378 0.999306 0.999783
0.992136 0.993415 0.999783 0.998929
1.00253 0.99952 1.00337 0.999644
1.00138 0.994243 1.00731 0.999872
1.00082 1.00154 0.99959 0.99969
0.98362 0.977892 1.01079 0.995124
0.949452 0.966548 0.98638 0.995877
1.01056 1.00664 1.00444 0.999451
0.960376 0.995434 0.967549 0.997139
1.00582 0.997632 1.00842 0.999788
1.01109 1.01026 1.00102 0.99981
1.00152 0.99897 1.00342 0.999131
0.992889 0.984471 1.01035 0.99822
0.937224 0.972532 0.967342 0.99623
0.941554 0.968862 0.976077 0.995633
0.990338 0.97705 1.02096 0.992792
1.0169 0.991492 1.02574 0.99989
1.00151 1.0019 0.999943 0.999663
0.993371 0.996632 0.998678 0.998047
0.899659 0.938419 0.962861 0.995675
0.9329 0.963475 0.972695 0.995447
0.983861 0.975726 1.01576 0.992689
0.967067 0.978367 0.990748 0.997681
1.0012 1 1.00167 0.999534
1.01074 0.997509 1.01369 0.999586
1.0195 1 1.01998 0.999529
0.999327 1 1 0.999327
1.00005 1 1.00055 0.999497
1.00355 1 1.00415 0.999398
1.01329 1 1.01415 0.99916
1.00029 1 1.00102 0.999271
1.00538 1 1.00638 0.999004
1.01059 1 1.01195 0.998662
1.00043 1 1.00136 0.99907
1.00354 1 1.0048 0.998739
1.00352 1 1.00502 0.998503
1.00036 1 1.00185 0.998511
0.999938 1 1.00102 0.998922
1.0005 1 1.0018 0.998697
0.999691 1 1.00089 0.998802
0.999639 1 1.00048 0.999155
0.999499 1 1.00041 0.99909
0.999439 1 1.00017 0.999272
0.999575 1 1.0004 0.999174
0.999362 1 1.00032 0.999038
0.999564 1 1 0.999564
0.999368 1 1 0.999368
0.999214 1 1 0.999214
0.999932 1 1 0.999932
0.999631 1 1 0.999631
0.999396 1 1 0.999396
0.999682 1 1 0.999682
0.99995 1 1 0.99995
1 1 1 1
0.999961 1 1 0.999961
1 1 1 1
1 1 1 1
1 1 1 1
1 1 1 1
1 1 1 1
0.999674 1 1 0.999674
0.999947 1 1 0.999947
0.999688 1 1 0.999688
1 1 1 1
0.999947 1 1 0.999947
0.999742 1 1 0.999742
1 1 1 1
1 1 1 1
0.999949 1 1 0.999949
1 1 1 1
1 1 1 1
1 1 1 1
1.01161 1.00967 1.00214 0.999781
1.00264 1.00212 1.00086 0.999669
0.991735 0.992801 1.00013 0.998796
0.999465 1 1 0.999465
0.999384 1 1 0.999384
0.999525 1 1 0.999525
0.999479 1 1 0.999479
0.999399 1 1 0.999399
0.999392 1 1 0.999392
0.999332 1 1 0.999332
1.00223 0.998221 1.00508 0.998944
1.01021 1.00556 1.00535 0.999272
1.00166 0.99813 1.0044 0.999142
0.966418 1.0052 0.963553 0.99778
0.980666 0.983538 1.00081 0.996274
0.976673 0.973287 1.00999 0.993553
0.945944 0.962797 0.987881 0.994549
0.975352 0.980118 0.998628 0.996505
0.974975 0.971 1.01167 0.992507
0.944715 0.966953 0.982186 0.994722
0.954779 0.9873 0.969697 0.997281
0.96636 0.975265 0.993194 0.997659
0.971956 0.972766 1.00686 0.992359
0.96241 0.980155 0.98608 0.995757
0.937947 0.973657 0.966444 0.996771
0.999305 1 1 0.999305
0.999287 1 1 0.999287
0.999298 1 1 0.999298
0.999397 1 1 0.999397
1.00201 1.00084 1.00165 0.999514
1.00738 0.995605 1.01233 0.999505
0.999238 1 1 0.999238
0.999208 1 1 0.999208
0.999235 1 1 0.999235
0.999263 1 1 0.999263
0.999248 1 1 0.999248
1.00374 0.989083 1.01524 0.999588
0.996674 0.996553 1.00044 0.999684
0.999277 1 1 0.999277
1.00963 0.985647 1.02464 0.999702
1.0018 0.998079 1.00435 0.999387
1.00357 1.00407 0.999753 0.999748
1.0119 1.01255 0.999468 0.999888
1.00273 1.00359 0.999332 0.999818
1.00544 0.998701 1.00695 0.999805
0.994177 0.984378 1.01018 0.999781
1.01127 1.01051 1.00091 0.999837
0.978511 0.97055 1.01594 0.992384
0.945547 0.964486 0.985814 0.994472
1.00259 0.999498 1.00396 0.999145
0.932542 0.969864 0.965297 0.996086
1.01975 0.991498 1.02863 0.999873
1.00262 1.00247 1.00048 0.99967
0.99491 0.996711 1.00015 0.998047
0.971169 0.981353 0.990394 0.999221
0.892222 0.935764 0.957915 0.995359
0.933819 0.962586 0.97496 0.99503
0.987057 0.975753 1.01871 0.993008
1.00322 0.987681 1.01598 0.999752
0.993209 0.99438 1.00004 0.998787
0.937194 0.953425 0.986425 0.996504
0.903848 0.935614 0.970709 0.995198
0.978112 0.971674 1.01402 0.992707
0.961985 0.976349 0.988474 0.996777
1.01343 0.998984 1.01487 0.99959
1.01895 0.998802 1.02066 0.999522
1.01303 1 1.01363 0.999406
1.00278 1 1.00337 0.999419
1.0138 1 1.01462 0.999197
1.00915 1 1.01041 0.998747
1.00549 1 1.00654 0.998957
1.01034 1 1.01172 0.998628
1.00497 1 1.00657 0.998411
1.00419 1 1.00546 0.99873
1.00353 1 1.00506 0.998474
1.00209 1.00056 1.00316 0.998377
0.998592 1.00011 1 0.998482
0.99941 1 1.00073 0.998681
1.0006 1 1.00212 0.998479
0.999155 1 1.00009 0.999066
0.999632 1 1.00069 0.998944
1.00043 1 1.00176 0.998678
0.999351 1 1.00015 0.999198
0.999736 1 1.00059 0.999148
0.999536 1 1.00041 0.999124
0.999472 1 1 0.999472
0.999381 1 1.00009 0.99929
0.999518 1 1.00032 0.999193
0.999881 1 1 0.999881
0.999564 1 1 0.999564
0.999369 1 1 0.999369
1 1 1 1
0.999927 1 1 0.999927
0.999631 1 1 0.999631
0.999947 1 1 0.999947
1 1 1 1
1 1 1 1
1 1 1 1
1 1 1 1
1 1 1 1
0.999462 1 1 0.999462
0.999645 1 1 0.999645
0.999933 1 1 0.999933
0.999674 1 1 0.999674
1 1 1 1
0.999951 1 1 0.999951
0.9997 1 1 0.9997
1 1 1 1
1 1 1 1
0.999968 1 1 0.999968
1 1 1 1
1 1 1 1
1 1 1 1
1.00295 1.00182 1.00146 0.999676
1.01183 1.01 1.002 0.999809
1.00388 1.00292 1.00128 0.999677
0.999471 1 1 0.999471
0.999374 1 1 0.999374
0.999331 1 1 0.999331
0.999372 1 1 0.999372
0.99932 1 1 0.99932
0.999477 1 1 0.999477
0.999385 1 1 0.999385
0.999393 1 1 0.999393
0.999327 1 1 0.999327
0.999339 1 1 0.999339
0.990963 0.991964 1.00091 0.998083
1.00398 0.999662 1.00537 0.998956
1.00838 1.00451 1.00441 0.999449
0.950666 0.983996 0.96871 0.997334
0.947197 0.964442 0.986153 0.995909
0.968484 0.975326 0.997057 0.995915
0.97756 0.976344 1.00869 0.992619
0.96781 0.97554 0.995713 0.996348
0.982474 0.977772 1.01233 0.992568
0.947986 0.972215 0.979759 0.995223
0.937515 0.973805 0.966072 0.996545
0.98241 0.979017 1.00658 0.996901
0.97484 0.97643 1.00561 0.992801
0.929785 0.96093 0.973134 0.994301
0.904518 0.947865 0.958443 0.995644
0.999459 1 1 0.999459
0.999305 1 1 0.999305
0.999286 1 1 0.999286
0.999419 0.987291 1.01287 0.999421
0.996986 0.996833 1.00041 0.999748
0.99926 1 1 0.99926
0.999236 1 1 0.999236
0.99932 1 1.00003 0.999287
1.00249 0.998557 1.00456 0.999382
1.00772 0.985452 1.02288 0.999716
1.00375 1 1.00435 0.999397
1.00666 0.993068 1.01425 0.999449
0.992935 0.994065 1 0.998863
1.00355 1.00406 0.999712 0.999785
1.01082 1.01151 0.999408 0.999904
1.02201 0.991132 1.03131 0.999855
0.970801 0.981302 0.992012 0.997266
1.00347 1.00305 1.00075 0.999678
0.978439 0.974709 1.01261 0.991322
0.932011 0.960416 0.975894 0.994396
0.996241 0.996833 1.00136 0.998048
0.885219 0.933698 0.952802 0.995042
1.0038 0.988221 1.01598 0.999784
0.99324 0.994446 0.999993 0.998794
0.931283 0.949423 0.984503 0.996334
0.961318 0.97713 0.98626 0.997524
0.907765 0.939864 0.971418 0.994265
0.970354 0.969997 1.00838 0.992058
0.984146 0.988634 0.996095 0.999363
0.949716 0.955789 0.996504 0.997132
0.903813 0.932337 0.975023 0.994239
0.973219 0.97076 1.00999 0.992614
0.979359 0.983159 0.998526 0.997605
1.01784 0.997459 1.02093 0.999515
1.01535 1 1.01596 0.999397
0.993363 1 0.994279 0.999078
1.0141 1 1.01488 0.999233
1.00901 1 1.01023 0.998793
1.00199 1.00072 1.00272 0.998556
1.00991 1 1.01133 0.998593
1.00417 1 1.00576 0.998418
0.999145 1.00062 1.00003 0.99849
1.00341 1 1.00497 0.998445
1.0018 1.00097 1.00245 0.998388
1.00116 1.00263 1 0.998536
0.99999 1.00136 1 0.99863
0.99859 1 1.00002 0.998573
0.998622 1.00013 1 0.998491
0.998875 1 1 0.998875
0.999674 1 1.00103 0.998648
1.00083 1 1.00238 0.998447
0.999181 1 1 0.999181
0.999106 1 1.00001 0.999092
0.999264 1 1.0003 0.998966
0.999378 1 1 0.999378
0.999481 1 1.00028 0.999206
0.999822 1 1.00068 0.999141
0.999792 1 1 0.999792
0.999472 1 1 0.999472
0.999308 1 1 0.999308
1 1 1 1
0.999878 1 1 0.999878
0.999565 1 1 0.999565
1 1 1 1
1 1 1 1
0.999923 1 1 0.999923
1 1 1 1
1 1 1 1
1 1 1 1
0.999412 1 1 0.999412
0.999611 1 1 0.999611
0.999454 1 1 0.999454
0.999921 1 1 0.999921
0.999645 1 1 0.999645
1 1 1 1
0.999936 1 1 0.999936
0.999674 1 1 0.999674
1 1 1 1
1 1 1 1
0.999955 1 1 0.999955
1 1 1 1
1 1 1 1
1 1 1 1
0.993663 0.994657 1 0.999
1.00225 1.00142 1.00115 0.999684
1.01198 1.01025 1.00188 0.999836
0.999325 1 1 0.999325
0.999478 1 1 0.999478
0.999363 1 1 0.999363
0.999383 1 1 0.999383
0.999341 1 1 0.999341
0.999316 1 1 0.999316
0.999272 1 1 0.999272
0.999302 1 1 0.999302
0.999394 1 1 0.999394
0.999322 1 1 0.999322
0.999336 1 1 0.999336
0.999344 1 1 0.999344
0.929497 0.950494 0.981815 0.996023
0.991749 0.992405 1.00126 0.998081
1.00535 1.00071 1.00567 0.998968
0.934056 0.973031 0.96353 0.99628
0.952431 0.975371 0.981604 0.994781
0.97215 0.972794 1.007 0.992391
0.969948 0.974465 0.997923 0.997436
0.982112 0.97838 1.00569 0.998135
0.894901 0.940196 0.956283 0.995337
0.980067 0.975183 1.01312 0.991993
0.929026 0.960614 0.971609 0.995377
0.981706 0.983958 0.999411 0.9983
0.973845 0.970945 1.00994 0.993116
0.90203 0.935109 0.969366 0.995111
1.00007 1 1.00041 0.999659
0.999461 1 1 0.999461
0.999305 1 1 0.999305
1.00849 0.988255 1.02076 0.999723
1.00419 0.999759 1.00506 0.999377
0.999347 1 1.00005 0.999296
1.00404 1 1.00465 0.999401
1.00559 0.993496 1.01271 0.999475
1.00664 0.997706 1.00939 0.999572
0.946772 0.954868 0.994928 0.996576
0.9933 0.99422 0.999986 0.999088
1.0035 1.00394 0.999735 0.999821
1.00404 0.988448 1.01596 0.999818
0.961559 0.978829 0.984253 0.998073
0.993436 0.994462 1.00017 0.998802
0.97517 0.972575 1.00909 0.993633
0.912343 0.944281 0.970862 0.995176
0.924671 0.948659 0.978516 0.996114
0.983246 0.989108 0.994665 0.999405
0.942601 0.954721 0.990474 0.996801
0.914406 0.934214 0.983467 0.995252
0.978732 0.98014 1.00224 0.996334
0.969003 0.970727 1.00543 0.99283
0.973936 0.995936 0.978457 0.999441
0.919646 0.940751 0.98215 0.995333
0.969781 0.972609 1.00398 0.993143
0.990773 0.992315 1.00232 0.996136
1.01855 1 1.01917 0.999389
0.989788 1 0.990662 0.999118
0.981621 1.00102 0.981672 0.998934
1.0092 1 1.01038 0.998838
1.00208 1.00092 1.00261 0.998555
0.999894 1.00171 0.999428 0.998754
1.0035 1 1.00509 0.998424
0.999224 1.00035 1.00037 0.998505
1.00468 1.00591 1 0.998778
1.0016 1.00136 1.00185 0.998399
1.00101 1.00247 1 0.998542
1.00279 1.00399 1 0.998806
1.00104 1.0022 1 0.998835
0.999152 1.0005 1 0.998648
0.999974 1.00133 1 0.998648
0.99874 1 1 0.99874
0.998597 1 1 0.998597
0.998672 1.00017 1 0.998499
0.999087 1 1 0.999087
0.998989 1 1.00011 0.998877
1 1 1.00139 0.998615
0.999322 1 1 0.999322
0.999179 1 1 0.999179
0.999119 1 1 0.999119
0.999687 1 1 0.999687
0.99938 1 1 0.99938
0.99962 1 1.00041 0.999213
1 1 1 1
0.99979 1 1 0.99979
0.999472 1 1 0.999472
1 1 1 1
1 1 1 1
0.999875 1 1 0.999875
1 1 1 1
1 1 1 1
1 1 1 1
0.999403 1 1 0.999403
0.999415 1 1 0.999415
0.999567 1 1 0.999567
0.999905 1 1 0.999905
0.999611 1 1 0.999611
0.999445 1 1 0.999445
1 1 1 1
0.999924 1 1 0.999924
0.999645 1 1 0.999645
1 1 1 1
1 1 1 1
0.999939 1 1 0.999939
1 1 1 1
1 1 1 1
1 1 1 1
0.946677 0.953308 0.996243 0.996789
0.992872 0.993853 1 0.999013
1.00176 1.00122 1.00084 0.999692
0.999316 1 1 0.999316
0.999299 1 1 0.999299
0.99927 1 1 0.99927
0.999393 1 1 0.999393
0.999352 1 1 0.999352
0.999312 1 1 0.999312
0.999301 1 1 0.999301
0.999271 1 1 0.999271
0.999215 1 1 0.999215
0.999333 1 1 0.999333
0.999332 1 1 0.999332
0.999345 1 1 0.999345
0.91157 0.933607 0.981058 0.995248
0.928683 0.947818 0.983789 0.995956
0.992211 0.992457 1.00167 0.998081
0.885324 0.932609 0.954039 0.99503
0.927578 0.958205 0.973598 0.994288
0.987453 0.981061 1.01268 0.99391
0.986336 0.977309 1.01249 0.996785
0.97929 0.981521 1.00071 0.997018
0.90556 0.935723 0.973392 0.994219
0.973755 0.971306 1.00919 0.993389
0.983158 0.982979 1.00292 0.997273
0.973186 0.97395 1.00639 0.992868
1.0075 1 1.00819 0.999322
0.999909 1 1.00027 0.999642
0.999463 1 1 0.999463
1.00185 0.991498 1.01095 0.999499
1.00434 1 1.00494 0.999406
1.00719 0.998527 1.00918 0.9995
1.00116 1.00067 1.00146 0.999027
0.916672 0.942732 0.977234 0.995009
0.948259 0.954383 0.996655 0.996918
0.99394 0.994705 0.999918 0.999312
0.98137 0.989362 0.992463 0.999455
0.978797 0.980037 1.00145 0.99729
0.94356 0.955295 0.990866 0.996821
0.972798 0.97121 1.00903 0.992674
0.912124 0.936151 0.979875 0.994346
0.977467 0.996464 0.981635 0.999288
0.919832 0.941086 0.982577 0.994746
0.97082 0.97218 1.00585 0.992792
0.991601 0.989026 1.00537 0.997246
0.992642 1.00286 0.990586 0.999215
0.958651 0.971128 0.994834 0.992277
0.993914 0.99508 1.00103 0.997802
0.986175 1 0.987006 0.999159
0.982703 1.00112 0.982672 0.998916
0.982841 1.00254 0.981424 0.998908
1.00181 1.00107 1.00219 0.998554
0.99959 1.00216 0.998681 0.998749
1.00477 1.00839 0.997339 0.99907
0.999354 1.00012 1.00071 0.998519
1.0052 1.00643 1 0.998775
1.00847 1.00946 1 0.99902
1.00087 1.00233 1 0.998547
1.00252 1.00372 1 0.998805
1.00291 1.00394 1 0.998972
1.00067 1.00173 1 0.998934
1.00094 1.00208 1 0.998857
0.999527 1.00072 1 0.998809
0.998821 1.00009 1 0.998734
0.999123 1.00047 1 0.99865
0.999883 1.00122 1 0.998665
0.998918 1 1 0.998918
0.998767 1 1 0.998767
0.998621 1 1 0.998621
0.999257 1 1 0.999257
0.999083 1 1 0.999083
0.999021 1 1.00014 0.998878
0.999605 1 1 0.999605
0.999323 1 1 0.999323
0.999177 1 1 0.999177
0.999997 1 1 0.999997
0.999686 1 1 0.999686
0.999382 1 1 0.999382
1 1 1 1
1 1 1 1
0.999788 1 1 0.999788
1 1 1 1
1 1 1 1
1 1 1 1
0.999356 1 1 0.999356
0.99939 1 1 0.99939
0.999521 1 1 0.999521
0.999417 1 1 0.999417
0.999567 1 1 0.999567
0.999873 1 1 0.999873
1 1 1 1
0.999907 1 1 0.999907
0.999611 1 1 0.999611
1 1 1 1
1 1 1 1
0.999926 1 1 0.999926
1 1 1 1
1 1 1 1
1 1 1 1
0.925726 0.940831 0.989245 0.994642
0.944729 0.953997 0.993705 0.996558
0.991713 0.992681 1 0.999025
0.999306 1 1 0.999306
0.999257 1 1 0.999257
0.999311 1 1 0.999311
0.999257 1 1 0.999257
0.999241 1 1 0.999241
0.9993 1 1 0.9993
0.99927 1 1 0.99927
0.999221 1 1 0.999221
0.99919 1 1 0.99919
0.999221 1 1 0.999221
0.999199 1 1.00026 0.998942
0.999341 1 1 0.999341
0.999346 1 1 0.999346
0.968719 0.97742 0.999031 0.99206
0.917088 0.935486 0.98538 0.994879
0.929554 0.949084 0.983518 0.995835
0.906116 0.935262 0.973579 0.99513
0.976303 0.970975 1.01391 0.99169
0.98141 0.98076 1.0023 0.998371
0.986147 0.985955 1.00222 0.997982
0.972123 0.974819 1.00408 0.993181
0.989122 0.997474 0.994505 0.997105
1.00566 1.00132 1.0057 0.998649
1.00596 1 1.00666 0.999308
0.999625 1 1 0.999625
1.00716 0.999691 1.00804 0.999434
1.00019 1.00101 1.00017 0.999007
0.950791 0.969903 0.987075 0.993131
0.920872 0.94238 0.982581 0.9945
0.950531 0.954094 0.999001 0.997263
0.981241 0.997536 0.98452 0.999131
0.991279 0.988099 1.00708 0.996169
0.920802 0.94008 0.984946 0.994464
0.973138 0.973122 1.00695 0.993109
0.990238 1.00369 0.987392 0.999199
0.961369 0.972517 0.995196 0.993309
0.996353 0.997322 1.0024 0.99664
1.00347 1.00718 0.997488 0.998828
0.995092 0.996769 0.999802 0.998516
0.983225 1.00126 0.983076 0.998898
0.985684 1.00221 0.984619 0.998874
1.00332 1.01466 0.989876 0.998936
0.999439 1.00252 0.99818 0.998745
1.00338 1.00701 0.997334 0.999063
1.01032 1.01421 0.997049 0.999117
1.00563 1.00687 1 0.998773
1.00881 1.00983 0.999984 0.999007
1.00632 1.00731 0.999987 0.99903
1.00228 1.00348 1 0.998804
1.00295 1.004 1 0.998961
1.00195 1.00301 1 0.998947
1.00065 1.0017 1 0.998961
0.999546 1.00068 1 0.998866
1.00091 1.00203 1 0.998879
0.999529 1.00073 1 0.998805
0.998811 1.00002 1 0.998791
0.998835 1 1 0.998835
0.998782 1.00005 1 0.998729
0.999086 1.00043 1 0.998653
0.99915 1 1 0.99915
0.998937 1 1 0.998937
0.998793 1 1 0.998793
0.999544 1 1 0.999544
0.999255 1 1 0.999255
0.999079 1 1 0.999079
0.99998 1 1 0.99998
0.999606 1 1 0.999606
0.999324 1 1 0.999324
1 1 1 1
0.999993 1 1 0.999993
0.999686 1 1 0.999686
1 1 1 1
1 1 1 1
1 1 1 1
0.999282 1 1 0.999282
0.999357 1 1 0.999357
0.999447 1 1 0.999447
0.999378 1 1 0.999378
0.999507 1 1 0.999507
0.999809 1 1 0.999809
0.999566 1 1 0.999566
0.999874 1 1 0.999874
1 1 1 1
1 1 1 1
1 1 1 1
0.999909 1 1 0.999909
1 1 1 1
1 1 1 1
1 1 1 1
0.965342 0.974484 0.997394 0.993207
0.920837 0.943726 0.980493 0.995159
0.949198 0.955643 0.99659 0.996654
0.999245 1 1 0.999245
0.999323 1 1 0.999323
0.999248 1 1 0.999248
0.999259 1 1 0.999259
0.999165 1 1 0.999165
0.999236 1 1 0.999236
0.999227 1 1 0.999227
0.999157 1 1 0.999157
0.999206 1 1 0.999206
0.999097 1 1 0.999097
1.00006 1.00108 1 0.998978
0.999052 1.00046 1.00011 0.998479
0.999295 1.00027 1.00006 0.99897
0.999349 1 1 0.999349
0.98656 0.993638 0.995561 0.997304
0.967674 0.975053 0.99953 0.992899
0.911321 0.936373 0.978794 0.994331
0.973833 0.973499 1.00768 0.992715
0.982716 0.986383 0.997659 0.99862
0.992373 0.997029 0.997017 0.998309
0.996447 1.00479 0.992865 0.998824
1.00278 1.00067 1.00337 0.998744
1.00492 1 1.00563 0.999294
0.998033 1.00112 0.997932 0.998982
0.981944 0.986386 0.99845 0.997043
0.958263 0.97133 0.992951 0.99355
0.918993 0.942087 0.980037 0.995356
0.98956 1.00464 0.985801 0.999181
1.00176 0.99824 1.00599 0.997547
0.961154 0.972524 0.993894 0.994381
0.997538 1.00563 0.993101 0.998843
0.993562 0.996703 0.998794 0.998052
1.00985 1.01872 0.992576 0.998706
1.01067 1.01407 0.997969 0.998678
0.988832 1.00199 0.988011 0.99884
1.00454 1.01425 0.991492 0.998932
1.01243 1.01734 0.996251 0.99892
1.00217 1.00588 0.997254 0.999055
1.01059 1.01396 0.99756 0.999109
1.00834 1.01047 0.998975 0.99892
1.00915 1.0102 0.999965 0.998994
1.00563 1.00663 0.999983 0.999019
1.0038 1.00496 1 0.998842
1.00295 1.004 1 0.99895
1.00173 1.00278 1 0.998957
1.0003 1.00149 1 0.998814
1.0006 1.00161 1 0.998988
0.999561 1.00068 1 0.998881
0.998826 1.00003 1 0.998795
0.999537 1.00074 1 0.9988
0.998812 1.00003 1 0.998786
0.998844 1 1 0.998844
0.999025 1 1 0.999025
0.998852 1 1 0.998852
0.998751 1.00003 1 0.998723
0.999464 1 1 0.999464
0.999149 1 1 0.999149
0.998955 1 1 0.998955
0.99995 1 1 0.99995
0.999544 1 1 0.999544
0.999252 1 1 0.999252
1 1 1 1
0.999973 1 1 0.999973
0.999607 1 1 0.999607
1 1 1 1
0.999989 1 1 0.999989
1 1 1 1
0.999202 1 1 0.999202
0.999292 1 1 0.999292
0.999385 1 1 0.999385
0.999357 1 1 0.999357
0.999439 1 1 0.999439
0.999725 1 1 0.999725
0.999493 1 1 0.999493
0.99981 1 1 0.99981
1 1 1 1
0.999875 1 1 0.999875
1 1 1 1
1 1 1 1
1 1 1 1
1 1 1 1
1 1 1 1
0.979618 0.986272 0.995884 0.997359
0.959128 0.971875 0.993806 0.993034
0.918788 0.943714 0.979088 0.994382
0.999032 1 1 0.999032
0.999254 1 1 0.999254
0.999262 1 1 0.999262
0.999231 1 1 0.999231
0.999159 1 1 0.999159
0.999248 1 1 0.999248
0.999124 1 1 0.999124
0.99919 1 1 0.99919
0.999127 1 1 0.999127
0.999565 1.00057 1 0.998998
1.00002 1.00142 1 0.998608
1.00386 1.00565 1 0.998213
0.999344 1.00075 1.00013 0.998465
0.999529 1.00053 1 0.998998
1.00076 1.00626 0.99543 0.999103
0.988079 0.995166 0.996082 0.996784
0.970891 0.976928 0.999958 0.993862
0.993122 0.997088 0.998727 0.997293
1.00145 1.00652 0.996071 0.99889
1.00135 1.0002 1.00231 0.99884
1.00534 1.00656 0.999919 0.998875
0.982052 0.985341 0.998715 0.997945
0.955997 0.971371 0.990941 0.993171
0.991004 1.00378 0.988405 0.998857
0.992729 0.996418 0.998764 0.99753
1.0105 1.01913 0.992827 0.998699
1.00975 1.01224 0.998776 0.99877
1.01895 1.02254 0.99783 0.998658
1.01248 1.01457 0.999353 0.998587
1.00551 1.01353 0.993153 0.998928
1.01362 1.01834 0.996432 0.998929
1.00697 1.00909 0.999113 0.998776
1.01082 1.01368 0.998076 0.9991
1.00934 1.01119 0.999248 0.998918
1.0047 1.00603 0.999984 0.998698
1.00497 1.00598 0.999982 0.999008
1.00364 1.00478 1 0.998863
1.00204 1.00336 1 0.998679
1.00155 1.00259 1 0.998966
1.00028 1.00147 1 0.998814
0.999058 1.00033 1 0.998729
0.9996 1.0007 1 0.998896
0.998879 1.00008 1 0.998801
0.998798 1 1 0.998798
0.998805 1.00002 1 0.998781
0.998832 1 1 0.998832
0.998977 1 1 0.998977
0.999373 1 1 0.999373
0.999044 1 1 0.999044
0.99887 1 1 0.99887
0.999907 1 1 0.999907
0.999463 1 1 0.999463
0.999148 1 1 0.999148
1 1 1 1
0.999941 1 1 0.999941
0.999543 1 1 0.999543
1 1 1 1
0.999965 1 1 0.999965
1 1 1 1
0.999075 1 1 0.999075
0.999204 1 1 0.999204
0.99932 1 1 0.99932
0.999301 1 1 0.999301
0.999391 1 1 0.999391
0.999646 1 1 0.999646
0.999431 1 1 0.999431
0.999724 1 1 0.999724
0.999998 1 1 0.999998
0.999811 1 1 0.999811
1 1 1 1
1 1 1 1
1 1 1 1
1 1 1 1
1 1 1 1
1.00604 1.0098 0.997094 0.999177
0.979645 0.987517 0.995667 0.996346
0.96292 0.971601 0.997731 0.993319
0.999077 1 1 0.999077
0.998906 1.00011 1 0.998797
0.99905 1 1 0.99905
0.999225 1 1 0.999225
0.999152 1 1 0.999152
0.999218 1 1 0.999218
1.00087 1.00214 1 0.998725
0.999156 1 1 0.999156
0.999018 1 1 0.999018
1.00014 1.00151 1 0.998637
1.00315 1.0049 1 0.998256
1.00974 1.01182 0.999438 0.998508
1.00258 1.0044 0.999965 0.998222
0.99955 1.0011 1 0.998452
1.00372 1.00895 0.995665 0.999149
0.986526 0.994475 0.995843 0.996148
1.00464 1.00773 0.997984 0.998956
1.00978 1.0109 0.999894 0.998992
1.00392 1.00533 0.999673 0.998925
0.978837 0.98512 0.996836 0.996776
1.01115 1.01981 0.992814 0.998692
1.00827 1.01029 0.999145 0.998862
1.01867 1.02268 0.997389 0.99869
1.01395 1.01586 0.999511 0.998613
1.00914 1.01179 0.998717 0.998658
1.01344 1.01469 1 0.998769
1.01479 1.01945 0.996491 0.998938
1.00682 1.00916 0.99889 0.998781
1.00652 1.00822 0.999707 0.998606
1.01023 1.01182 0.999508 0.998915
1.00459 1.00589 0.999999 0.998705
1.0046 1.00604 1 0.998574
1.00346 1.00458 1 0.998884
1.00193 1.00326 1 0.998677
0.999962 1.00135 1 0.998618
1.00022 1.00141 1 0.998814
0.999249 1.00052 1 0.998728
0.99873 1 1 0.99873
0.998929 1.00012 1 0.998806
0.998799 1 1 0.998799
0.998923 1 1 0.998923
0.998821 1 1 0.998821
0.998971 1 1 0.998971
0.999299 1 1 0.999299
0.999861 1 1 0.999861
0.999372 1 1 0.999372
0.999062 1 1 0.999062
1 1 1 1
0.999898 1 1 0.999898
0.999462 1 1 0.999462
1 1 1 1
0.999932 1 1 0.999932
1 1 1 1
0.998881 1 1 0.998881
0.999055 1 1 0.999055
0.99921 1 1 0.99921
0.999206 1 1 0.999206
0.999322 1 1 0.999322
0.999577 1 1 0.999577
0.999397 1 1 0.999397
0.999645 1 1 0.999645
0.999983 1 1 0.999983
0.999724 1 1 0.999724
0.999999 1 1 0.999999
1 1 1 1
1 1 1 1
1 1 1 1
1 1 1 1
1.00894 1.01084 0.999269 0.99885
1.00512 1.00902 0.997051 0.999083
0.979099 0.986214 0.995708 0.997064
1.00089 1.00214 1 0.99875
0.999179 1 1 0.999179
1.00055 1.00193 1 0.99862
0.998843 1.00006 1 0.998785
0.999068 1 1 0.999068
1.00693 1.00858 1 0.998372
0.999189 1 1 0.999189
1.00083 1.00214 1 0.998697
1.0079 1.00954 1 0.998377
1.00021 1.00155 1 0.998666
1.00393 1.00571 1 0.998233
1.00764 1.00958 0.999568 0.998507
1.00095 1.00273 1 0.99823
1.00604 1.01092 0.995971 0.999197
1.01281 1.01394 1 0.998881
1.00993 1.01105 0.999899 0.998988
1.00298 1.00407 0.999936 0.998973
1.01866 1.02303 0.997008 0.998722
1.01551 1.01725 0.999648 0.998638
1.00966 1.01213 0.998898 0.998664
1.01383 1.01507 1 0.998777
1.01175 1.01308 1 0.998686
1.00673 1.00924 0.998716 0.998786
1.00644 1.00798 0.99986 0.998612
1.0078 1.00928 1 0.998541
1.00449 1.00578 1 0.998713
1.00418 1.00563 1 0.998567
1.002 1.00348 1 0.998524
1.00184 1.00317 1 0.998675
1.00022 1.00161 1 0.998616
0.998718 1.00008 1 0.998638
0.99945 1.00072 1 0.998727
0.99874 1.00001 1 0.99873
0.998843 1 1 0.998843
0.998801 1 1 0.998801
0.998924 1 1 0.998924
0.99923 1 1 0.99923
0.998965 1 1 0.998965
0.999298 1 1 0.999298
0.999836 1 1 0.999836
0.999981 1 1 0.999981
0.999858 1 1 0.999858
0.999372 1 1 0.999372
1 1 1 1
0.999889 1 1 0.999889
1 1 1 1
1.00117 1.00252 1 0.998658
0.99881 1.00003 1 0.998776
0.998861 1 1 0.998861
0.999097 1 1 0.999097
0.999035 1 1 0.999035
0.999214 1 1 0.999214
0.999509 1 1 0.999509
0.999324 1 1 0.999324
0.999578 1 1 0.999578
0.99995 1 1 0.99995
0.999645 1 1 0.999645
0.999988 1 1 0.999988
1 1 1 1
1 1 1 1
1 1 1 1
1 1 1 1
1.01118 1.01251 1 0.998682
1.01191 1.01357 0.999461 0.998907
1.0054 1.00938 0.997069 0.998986
1.00535 1.0069 1 0.998464
1.00017 1.00136 1 0.998817
0.999279 1 1 0.999279
1.00075 1.00211 1 0.998644
0.998773 1 1 0.998773
1.01251 1.01419 1 0.998341
1.0066 1.00827 1 0.998342
1.00085 1.00218 1 0.998669
1.00855 1.0102 1 0.998369
1.00532 1.00712 1 0.998209
1.0072 1.00912 0.99959 0.998507
1.01502 1.01627 1 0.998769
1.01272 1.01387 1 0.998874
1.01034 1.01144 0.999926 0.998985
1.01007 1.01236 0.999064 0.998671
1.01453 1.01577 1 0.998785
1.01236 1.01374 0.999941 0.998697
1.01221 1.01365 1 0.998587
1.00639 1.00778 1 0.998617
1.00724 1.00872 1 0.998537
1.00519 1.00671 1 0.998493
1.00378 1.00522 1 0.99856
1.00219 1.00368 1 0.998523
0.999106 1.00055 1 0.998558
1.00048 1.00186 1 0.998614
0.998812 1.00018 1 0.998637
0.998759 1 1 0.998759
0.99875 1.00002 1 0.99873
0.998843 1 1 0.998843
0.999151 1 1 0.999151
0.998925 1 1 0.998925
0.999229 1 1 0.999229
0.999818 1 1 0.999818
0.999297 1 1 0.999297
0.999831 1 1 0.999831
0.999977 1 1 0.999977
0.999991 1 1 0.999991
0.999855 1 1 0.999855
1 1 1 1
1.00287 1.00439 1 0.998485
0.998804 1.00004 1 0.998763
1.00086 1.00211 1 0.998746
0.998974 1 1 0.998974
0.998897 1.00012 1 0.998773
0.998841 1 1 0.998841
0.999098 1 1 0.999098
0.999422 1 1 0.999422
0.999218 1 1 0.999218
0.99951 1 1 0.99951
0.999913 1 1 0.999913
0.999578 1 1 0.999578
0.999961 1 1 0.999961
1 1 1 1
0.999994 1 1 0.999994
1 1 1 1
1 1 1 1
1.01412 1.01558 1 0.998561
1.0107 1.01203 1 0.99868
1.01337 1.01479 0.999645 0.998963
1.01005 1.0117 1 0.998373
1.00505 1.0066 1 0.998467
0.999463 1.00058 1 0.998884
1.00096 1.0023 1 0.998669
1.01222 1.0139 1 0.998338
1.00615 1.00785 1 0.998313
1.00803 1.00969 1 0.998361
1.01378 1.01516 1 0.99864
1.01477 1.01605 1 0.99874
1.01214 1.01329 1 0.998868
1.01263 1.01411 1 0.998544
1.01279 1.01421 0.99989 0.998708
1.01214 1.01357 1 0.998587
1.00865 1.01015 1 0.998519
1.00668 1.00816 1 0.998533
1.00532 1.00684 1 0.998495
1.00047 1.00197 1 0.998508
1.00237 1.00385 1 0.998523
0.999452 1.0009 1 0.998558
0.998689 1 1 0.998689
0.998905 1.00027 1 0.998636
0.998758 1 1 0.998758
0.999073 1 1 0.999073
0.998843 1 1 0.998843
0.999149 1 1 0.999149
0.999799 1 1 0.999799
0.999228 1 1 0.999228
0.999813 1 1 0.999813
0.999975 1 1 0.999975
0.999826 1 1 0.999826
0.999978 1 1 0.999978
1 1 1 1
1.0045 1.00612 1 0.998387
0.999381 1.0008 1 0.998582
1.00268 1.00417 1 0.998516
0.998906 1 1 0.998906
0.998888 1.00013 1 0.998761
1.00055 1.00171 1 0.998834
0.999302 1 1 0.999302
0.998972 1 1 0.998972
0.998981 1.00021 1 0.99877
0.999099 1 1 0.999099
0.999424 1 1 0.999424
0.999869 1 1 0.999869
0.999511 1 1 0.999511
0.999922 1 1 0.999922
1 1 1 1
0.999971 1 1 0.999971
1 1 1 1
1 1 1 1
1.01237 1.01388 1 0.998503
1.01424 1.01572 1 0.998542
1.01111 1.01245 1 0.998678
1.00993 1.01158 1 0.998373
1.00474 1.00628 1 0.998469
1.01209 1.01377 1 0.998334
1.01215 1.01363 1 0.998543
1.01394 1.01532 1 0.998637
1.01474 1.01604 1 0.998711
1.01286 1.01433 1 0.99855
1.00982 1.01135 1 0.998495
1.01206 1.01349 1 0.998586
1.00868 1.01018 1 0.998513
1.00236 1.00386 1 0.998499
1.00546 1.00698 1 0.998497
1.00087 1.00237 1 0.99851
0.998682 1.00006 1 0.998628
0.999809 1.00125 1 0.998558
0.998688 1 1 0.998688
0.999017 1 1 0.999017
0.998758 1 1 0.998758
0.999072 1 1 0.999072
0.999776 1 1 0.999776
0.999147 1 1 0.999147
0.999793 1 1 0.999793
0.999969 1 1 0.999969
0.999808 1 1 0.999808
0.999977 1 1 0.999977
0.999979 1 1 0.999979
1.00723 1.00877 1 0.998475
1 1.00155 1 0.998459
1.00437 1.006 1 0.998383
0.99876 1 1 0.99876
0.999217 1.00062 1 0.998594
1.00248 1.00394 1 0.998548
0.999185 1 1 0.999185
0.998874 1 1 0.998874
0.998984 1.00023 1 0.998759
0.999818 1 1 0.999818
0.999304 1 1 0.999304
0.99897 1 1 0.99897
0.999425 1 1 0.999425
0.999878 1 1 0.999878
1 1 1 1
0.999932 1 1 0.999932
1 1 1 1
1 1 1 1
1.01089 1.01242 1 0.998487
1.0123 1.01382 1 0.9985
1.0142 1.0157 1 0.998524
1.00982 1.01146 1 0.998374
1.01028 1.01183 1 0.998469
1.01256 1.01404 1 0.998549
1.0141 1.01549 1 0.998634
1.01305 1.01452 1 0.998556
1.00978 1.01129 1 0.998498
1.00362 1.00513 1 0.998493
1.00872 1.01023 1 0.998508
1.00251 1.00401 1 0.998503
0.998955 1.00038 1 0.998577
1.00126 1.00275 1 0.998512
0.998762 1.00013 1 0.998628
0.998965 1 1 0.998965
0.998687 1 1 0.998687
0.999016 1 1 0.999016
0.999734 1 1 0.999734
0.99907 1 1 0.99907
0.999763 1 1 0.999763
1 1 1 1
0.999788 1 1 0.999788
0.999972 1 1 0.999972
0.999978 1 1 0.999978
1.00727 1.00878 1 0.998499
1.00079 1.00231 1 0.998486
1.00723 1.00877 1 0.998478
0.998623 1.00001 1 0.998612
0.999803 1.00133 1 0.998475
1.00425 1.00588 1 0.998378
0.999033 1 1 0.999033
0.998758 1 1 0.998758
0.999073 1.00047 1 0.998605
0.999771 1 1 0.999771
0.999157 1 1 0.999157
0.998842 1 1 0.998842
1 1 1 1
0.999827 1 1 0.999827
0.999306 1 1 0.999306
0.999886 1 1 0.999886
1 1 1 1
1 1 1 1
1.0095 1.01104 1 0.998473
1.01132 1.01285 1 0.998496
1.01222 1.01375 1 0.998496
1.00433 1.00589 1 0.998449
1.0098 1.01135 1 0.998468
1.01299 1.01445 1 0.998555
1.00974 1.01125 1 0.9985
1.00364 1.00516 1 0.998493
0.99958 1.00099 1 0.998588
1.00266 1.00416 1 0.998507
0.999081 1.00048 1 0.998604
0.998862 1 1 0.998862
0.998846 1.00022 1 0.998629
0.998965 1 1 0.998965
0.999699 1 1 0.999699
0.999015 1 1 0.999015
0.999732 1 1 0.999732
1 1 1 1
0.999748 1 1 0.999748
0.999983 1 1 0.999983
0.999975 1 1 0.999975
1.0056 1.00711 1 0.9985
1.00084 1.00232 1 0.998521
1.00724 1.00875 1 0.998499
0.998633 1.00001 1 0.99862
1.00097 1.00249 1 0.998488
1.00726 1.00879 1 0.99848
0.998947 1 1 0.998947
0.998653 1.00001 1 0.998647
0.999582 1.00109 1 0.998491
0.999741 1 1 0.999741
0.999021 1 1 0.999021
0.998756 1 1 0.998756
1 1 1 1
0.999779 1 1 0.999779
0.99913 1 1 0.99913
1 1 1 1
0.999837 1 1 0.999837
1 1 1 1
1.00408 1.00562 1 0.998469
1.00913 1.01067 1 0.998473
1.01179 1.0133 1 0.998504
0.999372 1.00082 1 0.998553
1.00429 1.00585 1 0.998454
1.00936 1.01091 1 0.998467
1.00367 1.00519 1 0.998493
0.999565 1.00098 1 0.998587
0.99881 1 1 0.99881
0.999203 1.00057 1 0.998631
0.998888 1 1 0.998888
0.999643 1 1 0.999643
0.998965 1 1 0.998965
0.999696 1 1 0.999696
1 1 1 1
0.99973 1 1 0.99973
1 1 1 1
0.999969 1 1 0.999969
1.00118 1.00265 1 0.998531
1.00555 1.00706 1 0.9985
0.99862 1 1 0.99862
1.00091 1.0024 1 0.998521
1.00719 1.0087 1 0.9985
0.998951 1 1 0.998951
0.998643 1.00003 1 0.998617
1.00115 1.00266 1 0.998491
0.999717 1 1 0.999717
0.998965 1 1 0.998965
0.998681 1 1 0.998681
1 1 1 1
0.999746 1 1 0.999746
0.99901 1 1 0.99901
1 1 1 1
0.999788 1 1 0.999788
1 1 1 1
0.999091 1.00051 1 0.99858
1.00393 1.00547 1 0.998471
1.00869 1.01023 1 0.998473
0.998789 1 1 0.998789
0.999363 1.00081 1 0.998553
1.00422 1.00577 1 0.998459
0.999549 1.00096 1 0.998587
0.998815 1 1 0.998815
0.999592 1 1 0.999592
0.998914 1 1 0.998914
0.99964 1 1 0.99964
1 1 1 1
0.999693 1 1 0.999693
1 1 1 1
1 1 1 1
0.99864 1.00004 1 0.998605
1.00109 1.00257 1 0.998526
1.00551 1.00702 1 0.998499
0.998928 1 1 0.998928
0.99864 1.00002 1 0.998618
1.00098 1.00246 1 0.998521
0.99969 1 1 0.99969
0.99895 1 1 0.99895
0.998658 1.00004 1 0.998615
1 1 1 1
0.99972 1 1 0.99972
0.998984 1 1 0.998984
1 1 1 1
0.99975 1 1 0.99975
1 1 1 1
0.998845 1 1 0.998845
0.999069 1.00052 1 0.998553
1.00382 1.00535 1 0.998473
0.999572 1 1 0.999572
0.99879 1 1 0.99879
0.999356 1.0008 1 0.998553
0.998821 1 1 0.998821
0.99959 1 1 0.99959
1 1 1 1
0.999637 1 1 0.999637
1 1 1 1
1 1 1 1
0.998889 1 1 0.998889
0.998619 1.00002 1 0.998594
1.00101 1.00249 1 0.99852
0.999694 1 1 0.999694
0.998926 1 1 0.998926
0.998658 1.00004 1 0.998617
1 1 1 1
0.999691 1 1 0.999691
0.998949 1 1 0.998949
1 1 1 1
0.999723 1 1 0.999723
1 1 1 1
0.999571 1 1 0.999571
0.998826 1 1 0.998826
0.999048 1.00052 1 0.998527
1 1 1 1
0.999571 1 1 0.999571
0.998792 1 1 0.998792
0.999588 1 1 0.999588
1 1 1 1
1 1 1 1
0.999651 1 1 0.999651
0.998889 1 1 0.998889
0.998598 1.00001 1 0.998584
1 1 1 1
0.999658 1 1 0.999658
0.998925 1 1 0.998925
1 1 1 1
0.999692 1 1 0.999692
1 1 1 1
0.9999 1 1 0.9999
0.999606 1 1 0.999606
0.998806 1 1 0.998806
1 1 1 1
0.999571 1 1 0.999571
1 1 1 1
0.999917 1 1 0.999917
0.999637 1 1 0.999637
0.998889 1 1 0.998889
0.999964 1 1 0.999964
0.999656 1 1 0.999656
1 1 1 1
1 1 1 1
0.999583 1 1 0.999583
1 1 1 1
0.999955 1 1 0.999955
0.999616 1 1 0.999616
1 1 1 1
1 1 1 1
1 1 1 1

VECTORS lamdaE float
0.999358 1.00028 0.996059
0.999362 0.999789 0.998366
0.999199 1.00046 0.996166
0.999723 0.999926 0.995942
0.999498 1.00015 0.996041
0.999296 1.00013 0.996216
1.00037 1.00072 0.993603
0.999355 0.999665 0.998417
0.999366 1.00035 0.998311
0.999071 1.00026 0.998468
0.999435 0.999353 0.996817
1.00011 1.00083 0.99362
0.999874 1.00001 0.995552
0.999561 0.999909 0.995961
0.999039 1.00069 0.996254
0.99959 0.999902 0.996068
0.999169 1.0003 0.996303
0.999333 1.00027 0.99615
1.00047 1.00064 0.993578
0.999823 1 0.997994
0.999766 0.999966 0.995806
0.999646 0.999979 0.996008
1.00096 0.999907 0.993415
1.00068 1.00031 0.993511
0.999354 0.999646 0.996549
0.999996 1.00103 0.993885
1.00233 1.00084 0.990082
0.999334 0.999542 0.998478
0.999459 1.00021 0.997097
0.99919 1.00022 0.997328
0.999394 0.999175 0.998579
1.00001 1.00094 0.993631
0.999716 0.999948 0.99584
0.999433 1.00047 0.995995
1.00099 1.00027 0.993689
0.999324 0.99857 0.998911
1.00041 1.00077 0.994184
0.999907 1.00067 0.994117
1.00113 1.002 0.990632
0.99942 0.997948 0.999109
0.999871 1 0.99795
0.999666 0.99997 0.997005
0.999902 1 0.99792
0.999576 1 0.995907
1.00132 1.00005 0.992097
0.999593 0.999982 0.998264
1.00124 0.999986 0.993486
0.999455 0.999856 0.996194
0.999179 1.0004 0.996245
0.99902 1.00053 0.996408
1.00056 1.00051 0.993562
0.99976 1.00001 0.996884
0.999629 0.999946 0.99595
0.999244 0.999757 0.996639
0.999499 1.00001 0.996124
1.00102 0.999871 0.993365
1.00009 1.00095 0.993881
1.00076 1.00023 0.993476
1.00236 1.00088 0.99002
0.999853 1 0.997961
0.999835 1.00001 0.995641
1.00119 1 0.993484
1.001 0.999962 0.993276
1.00089 1 0.993457
1.00319 0.999797 0.989559
1.00284 1.00018 0.989544
0.999504 0.998924 0.996994
0.999579 1.00103 0.994531
1.00154 1.0016 0.99068
1.00338 1.00076 0.987714
0.999551 1.0002 0.998152
0.99938 0.998978 0.998694
0.999291 0.999999 0.998338
0.999926 1.00103 0.99364
0.999736 1.00004 0.99811
0.999444 1.00032 0.998193
1.00089 1.00024 0.992638
0.99937 0.998656 0.998105
1.00023 1.00088 0.99326
0.999826 1.00067 0.994655
1.00112 1.00196 0.990628
0.999434 0.998261 0.998963
0.999592 0.999192 0.996183
1.00116 0.999937 0.992515
1.00068 1.00058 0.992798
1.00307 1.00026 0.988709
0.999697 1.00018 0.995737
1.00177 1.00143 0.990019
1.00059 1.00243 0.991209
1.00177 1.0023 0.989051
0.999451 0.997627 0.999206
0.999396 0.997891 0.999145
0.999777 0.999971 0.998073
0.999841 1 0.997981
0.999901 1 0.997928
0.999696 0.999994 0.996945
1.00132 1.00004 0.992716
0.999671 0.999956 0.997032
1.0012 1.00001 0.992966
0.999911 1 0.997923
1.00133 0.999994 0.992099
1.00129 1.00007 0.993368
1.00359 0.999867 0.988173
1.00121 0.999919 0.993573
1.00344 0.999863 0.988482
0.999842 1.00002 0.995625
0.999486 0.9999 0.996097
0.999131 0.999846 0.996748
0.999356 1.00004 0.996233
1.00108 0.999858 0.993316
1.00084 1.00015 0.993447
1.0002 1.00082 0.993867
1.0024 1.00094 0.989958
0.999889 1 0.99794
0.999682 1 0.995794
1.00126 0.999996 0.992538
1.00106 0.999932 0.993228
0.999409 0.99898 0.997832
0.99975 1.00092 0.994659
1.00095 0.999957 0.993413
1.0032 0.999778 0.989433
1.00162 1.00166 0.990571
1.00284 1.00025 0.989636
1.00335 1.00078 0.98773
1.0013 1.00002 0.992147
1.00111 0.99999 0.993045
1.00351 0.999788 0.988698
1.00322 0.999828 0.989184
1.00313 0.999818 0.989373
1.00431 0.999463 0.987559
0.999477 0.998438 0.998863
1.0039 1.00001 0.987502
0.999653 1.00063 0.994565
1.00065 1.00217 0.99116
1.00262 1.00189 0.988108
1.00409 1.00041 0.986755
0.999688 0.999715 0.995407
1.00013 1.00158 0.992808
0.999701 1.00007 0.998116
0.999353 1.00023 0.998241
1.00088 1.00023 0.992648
0.999393 0.998497 0.998904
0.99971 1.0008 0.994263
1.00016 1.00095 0.993255
1.00112 1.00194 0.990624
0.9994 0.998203 0.999016
0.999597 0.999124 0.996218
1.00115 0.999966 0.993066
1.00062 1.00058 0.993384
1.00308 1.00026 0.988713
0.999651 1.00017 0.995077
1.00175 1.00141 0.990038
1.00056 1.00243 0.99121
1.00178 1.00229 0.988986
0.999587 0.999713 0.995661
0.999678 0.998682 0.996553
1 1.00111 0.993505
1.00336 0.999962 0.988493
1.00247 1.00087 0.989253
1.00418 1.0001 0.986836
1.00033 1.0022 0.991909
1.00258 1.00152 0.988284
1.00112 1.0032 0.989547
1.00196 1.00259 0.988466
0.999534 0.997322 0.999255
0.999448 0.997567 0.999224
0.999376 0.997826 0.999178
0.999717 0.999292 0.995792
0.999492 0.998149 0.998984
0.999771 0.999986 0.998095
0.999783 0.999983 0.998041
1.00116 1.00001 0.992432
1.00126 1.00005 0.992178
0.999879 1 0.99794
0.999904 1 0.99792
1.00132 1 0.9921
1.00122 1.00006 0.992864
1.00359 0.999867 0.988174
1.00116 0.999912 0.992489
1.00343 0.999871 0.988479
1.00134 0.99999 0.992083
1.00367 0.999806 0.988075
1.00347 0.999901 0.988372
1.00468 0.999456 0.986618
1.00344 0.999865 0.98846
1.00452 0.9995 0.986883
0.999899 0.999999 0.997923
0.999532 0.999998 0.995952
1.00127 0.99999 0.991663
1.00112 0.999927 0.993178
0.999253 0.998973 0.99876
0.999933 1.00081 0.994779
1.00101 0.99992 0.993372
1.00321 0.999749 0.989307
1.00284 1.00032 0.989727
1.0017 1.00175 0.990463
1.00332 1.0008 0.987746
1.0013 0.999999 0.992143
1.00117 0.999991 0.992989
1.00351 0.999773 0.988436
1.00324 0.999858 0.989286
0.99947 0.998506 0.998819
0.999721 1.00054 0.994945
1.00077 1.00221 0.991261
1.00312 0.999858 0.989366
1.00431 0.999381 0.987419
1.00251 1.00188 0.9881
1.00389 1.00005 0.987619
1.00405 1.00042 0.986777
0.999674 0.99977 0.995395
1.00015 1.00153 0.992806
1.00366 0.999796 0.988108
1.00341 0.999833 0.98884
1.00459 0.999444 0.987066
1.00435 0.999434 0.98711
1.00421 0.999551 0.987562
1.00485 0.998924 0.986938
0.999673 1.00016 0.994964
1.00458 0.999427 0.986808
1.00032 1.00225 0.991711
1.00143 1.00268 0.989047
1.00332 1.00193 0.987081
1.00458 0.99971 0.986564
1.00021 1.00195 0.99232
1.00013 1.00104 0.993342
1.00038 1.00258 0.991405
1.0011 0.99995 0.992549
0.999371 0.998151 0.999066
0.999596 0.999062 0.996252
1.00049 1.00068 0.992909
1.00309 1.00025 0.988717
0.999624 1.00019 0.995032
1.00052 1.00243 0.991211
1.00172 1.0014 0.990058
1.00179 1.00228 0.988921
0.99959 0.999642 0.995688
0.999671 0.998652 0.996574
0.999978 1.00114 0.993517
1.00336 0.999972 0.988493
1.00245 1.00086 0.989273
1.00421 1.00009 0.986825
1.00028 1.00224 0.991915
1.00261 1.00154 0.988313
1.0011 1.00318 0.989534
1.00196 1.00258 0.988431
0.999773 0.998314 0.996744
1.00015 1.0017 0.992652
0.999975 1.0004 0.994271
1.00018 1.00235 0.992017
1.00444 0.999752 0.986723
1.00348 1.00087 0.987394
1.00483 0.999795 0.985994
1.00067 1.0032 0.990388
1.00304 1.0015 0.987632
1.00121 1.00399 0.988401
1.00227 1.00233 0.987982
1.00022 0.999354 0.994892
0.999932 0.997875 0.996876
0.999636 0.997061 0.999281
0.999544 0.997268 0.999264
0.99945 0.997501 0.99924
0.999776 0.998956 0.996041
0.999504 0.997915 0.999067
0.999707 0.999354 0.99577
0.999505 0.998193 0.998945
1.00117 0.99992 0.992487
1.00118 1.00005 0.992323
1.00342 0.999878 0.988477
1.00359 0.999866 0.988175
1.00133 1.00001 0.992101
0.999913 1 0.997918
1.00134 0.999992 0.992083
1.00367 0.99981 0.988074
1.00346 0.99991 0.988374
1.00467 0.999459 0.986613
1.00343 0.999878 0.988454
1.00452 0.9995 0.986879
1.00368 0.999795 0.98807
1.00475 0.999383 0.986545
1.00456 0.999525 0.986792
1.00507 0.998823 0.986519
1.00452 0.999555 0.98679
1.00498 0.998961 0.986553
1.00131 0.999984 0.992137
1.00123 0.999983 0.992931
1.00351 0.999748 0.988174
1.00326 0.999876 0.989387
0.999467 0.998575 0.998772
0.999801 1.00051 0.995285
1.00091 1.00222 0.99136
1.0031 0.999891 0.989359
1.00432 0.999296 0.987279
1.00389 1.00009 0.987736
1.0024 1.00187 0.988091
1.00402 1.00042 0.986799
0.999664 0.999826 0.995382
1.00017 1.00148 0.992803
1.00364 0.999765 0.988033
1.00342 0.999833 0.98883
1.00461 0.9994 0.987025
1.00436 0.999495 0.987256
0.999688 1.00018 0.994964
1.00039 1.00226 0.991698
1.00142 1.00267 0.989205
1.00421 0.999592 0.987585
1.00485 0.99884 0.986925
1.00326 1.0019 0.986938
1.00456 0.999431 0.98682
1.00453 0.999665 0.986581
1.00023 1.00189 0.99233
1.00035 1.00257 0.99142
1.00014 1.00104 0.993331
1.00471 0.999438 0.986848
1.00456 0.999455 0.987016
1.00506 0.998876 0.986615
1.0049 0.998975 0.986699
1.0048 0.998876 0.986909
1.00508 0.998263 0.987096
1.00025 1.00212 0.992048
1.00494 0.998691 0.986807
1.00087 1.00274 0.990327
1.00194 1.00322 0.987625
1.00375 1.0016 0.986378
1.00492 0.998856 0.986904
1.00015 1.00064 0.993724
1.00052 1.00248 0.99125
1.00027 1.00233 0.991787
1.00047 1.00294 0.990954
1.00335 0.999979 0.988493
0.999661 0.998628 0.996595
0.9996 0.99956 0.995715
0.999975 1.00115 0.993529
1.00244 1.00085 0.989294
1.00422 1.00009 0.986813
1.00022 1.00229 0.991921
1.00108 1.00318 0.98952
1.00265 1.00156 0.988343
1.00196 1.00256 0.988396
0.999764 0.998305 0.996751
1.00014 1.00174 0.992654
0.999986 1.00037 0.994289
1.00015 1.0024 0.992007
1.00446 0.999748 0.986714
1.00347 1.00088 0.987403
1.00481 0.99981 0.985985
1.00063 1.00319 0.990408
1.00307 1.00152 0.98768
1.00125 1.0041 0.988357
1.00222 1.00216 0.988292
0.999859 0.998061 0.996832
1.00006 0.999848 0.994685
1.00041 1.00278 0.99124
1.00014 1.00161 0.99281
1.00008 1.00336 0.991212
1.00496 0.999442 0.986096
1.00407 1.00065 0.986529
1.00501 0.999409 0.985961
1.00072 1.00443 0.989093
1.00319 1.00138 0.987386
1.00157 1.00375 0.987506
1.00019 0.999428 0.99488
1.00025 1.00039 0.993839
1.00026 0.999313 0.994873
1.00022 0.999369 0.994887
0.999975 0.997692 0.997375
0.99992 0.997864 0.997113
0.999791 0.996872 0.998361
0.99965 0.997016 0.999287
0.999557 0.997215 0.999272
0.999841 0.998683 0.996203
0.999548 0.997691 0.999115
0.999775 0.998991 0.996023
0.999518 0.997946 0.999043
0.999698 0.99941 0.995747
0.999519 0.99824 0.998904
1.00344 0.999886 0.988447
1.00346 0.999918 0.988376
1.00451 0.99951 0.986875
1.00467 0.999461 0.986608
1.00367 0.999814 0.988073
1.00134 0.999994 0.992083
1.00368 0.999792 0.988069
1.00475 0.999386 0.986544
1.00454 0.99954 0.986787
1.00508 0.998768 0.986564
1.00453 0.999551 0.986782
1.00497 0.998976 0.986549
1.00475 0.999364 0.986552
1.00511 0.99871 0.986572
1.00499 0.998886 0.986584
1.00516 0.998181 0.987023
1.00501 0.999139 0.986338
1.00514 0.998101 0.987103
1.00363 0.999734 0.987959
1.00343 0.99984 0.98882
1.00462 0.999361 0.986984
1.00438 0.999556 0.987402
0.999704 1.00019 0.994963
1.00042 1.00227 0.991687
1.00142 1.00265 0.989363
1.00421 0.999633 0.987608
1.00485 0.998758 0.986912
1.00454 0.999435 0.986833
1.00319 1.00186 0.986794
1.00449 0.999608 0.986598
1.00024 1.00183 0.99234
1.00034 1.00255 0.991436
1.00015 1.00103 0.993319
1.00472 0.999403 0.986724
1.00456 0.999458 0.987006
1.00505 0.998796 0.986634
1.0049 0.999005 0.986721
1.00028 1.00208 0.99205
1.00093 1.00273 0.990296
1.00185 1.00326 0.987836
1.00479 0.998965 0.986934
1.00507 0.998162 0.987174
1.00368 1.00164 0.986273
1.00495 0.998699 0.986815
1.00491 0.998676 0.986958
1.00053 1.00249 0.991261
1.00047 1.00297 0.990901
1.00015 1.00064 0.993717
1.00025 1.00227 0.991861
1.0051 0.998829 0.986502
1.00503 0.998955 0.986648
1.00517 0.998344 0.98685
1.00512 0.998045 0.987222
1.00504 0.998245 0.987112
1.00515 0.997502 0.987662
1.00066 1.00246 0.991004
1.00509 0.997864 0.987328
1.0009 1.00354 0.98918
1.00243 1.00367 0.986624
1.00419 1.00079 0.986282
1.00512 0.998117 0.987153
1.00017 1.00036 0.993971
1.00022 1.00193 0.992253
1.00061 1.00278 0.99083
1.0003 1.00293 0.991251
1.00055 1.00295 0.990773
0.999756 0.998297 0.996758
1.00447 0.999745 0.986704
0.999998 1.00033 0.994307
1.00011 1.00181 0.992656
1.00012 1.00247 0.991997
1.00346 1.00088 0.987412
1.00479 0.999827 0.985976
1.0006 1.00315 0.990429
1.00129 1.0042 0.988313
1.00311 1.00154 0.987728
1.00218 1.002 0.9886
0.999852 0.998057 0.996834
1.00007 0.999832 0.994694
1.00039 1.00278 0.991248
1.00012 1.00164 0.992816
1.00007 1.00345 0.991105
1.00496 0.999448 0.986079
1.00405 1.00067 0.98653
1.00503 0.999418 0.985933
1.00065 1.00442 0.989107
1.00322 1.00139 0.987458
1.00173 1.00368 0.987563
1.00013 0.999576 0.994833
1.00018 1.00092 0.993439
1.0004 1.00387 0.990172
0.999994 1.00282 0.991895
1.00014 1.00399 0.990589
1.0051 0.998909 0.986307
1.00429 1.00028 0.986344
1.00507 0.998589 0.986527
1.00067 1.00504 0.988352
1.0029 1.00233 0.986953
1.00018 0.999444 0.994877
1.00022 1.00041 0.993779
1.00024 1.00039 0.993805
1.00018 1.00108 0.993392
1.00027 1.00042 0.993785
1.00028 0.999328 0.994813
1.00025 0.999324 0.994871
1.00004 0.997562 0.997382
1.00021 0.999385 0.994882
0.999984 0.997689 0.997375
0.999894 0.996647 0.998387
0.999908 0.997856 0.997347
0.999765 0.996825 0.998832
0.999664 0.996974 0.999292
0.999908 0.99842 0.99635
0.999843 0.998702 0.996192
0.999617 0.997451 0.999152
0.999554 0.997727 0.999101
0.999772 0.999026 0.996006
0.999533 0.997979 0.999015
1.00454 0.999546 0.986774
1.00454 0.999547 0.986783
1.00496 0.998988 0.986545
1.0051 0.998711 0.986609
1.00475 0.999387 0.986544
1.00369 0.99979 0.988068
1.00476 0.999364 0.986553
1.00511 0.998714 0.98657
1.005 0.998896 0.986577
1.00516 0.998093 0.987126
1.00499 0.999144 0.986325
1.00514 0.99802 0.987172
1.00511 0.99875 0.98655
1.00515 0.998205 0.987029
1.00513 0.997936 0.987291
1.00513 0.997635 0.98764
1.00514 0.99835 0.986792
1.00516 0.997441 0.987817
1.00473 0.999366 0.9866
1.00455 0.999466 0.986996
1.00504 0.998713 0.986654
1.00491 0.999035 0.986743
1.00032 1.00205 0.992052
1.001 1.00273 0.990265
1.00176 1.00331 0.988046
1.00478 0.999055 0.986959
1.00506 0.998057 0.987252
1.00495 0.998707 0.986823
1.00361 1.00168 0.986167
1.0049 0.998499 0.987012
1.00052 1.00251 0.991271
1.00045 1.00303 0.990848
1.00015 1.00065 0.99371
1.00024 1.00221 0.991934
1.00508 0.998833 0.986509
1.00503 0.998974 0.986585
1.00517 0.998312 0.986868
1.0051 0.998121 0.98715
1.00069 1.0025 0.990985
1.0009 1.00348 0.989363
1.00237 1.00376 0.986591
1.00505 0.998332 0.98705
1.00515 0.997407 0.987729
1.00419 1.00072 0.986256
1.00509 0.997885 0.98734
1.00512 0.998002 0.987142
1.00063 1.00278 0.990829
1.00056 1.00295 0.990771
1.00027 1.00296 0.991243
1.00017 1.00036 0.993895
1.00022 1.00188 0.992306
1.00516 0.998243 0.987
1.00515 0.998096 0.987107
1.00515 0.997104 0.988072
1.00513 0.997357 0.987743
1.00066 1.00301 0.990452
1.00513 0.99758 0.987717
1.00078 1.00426 0.988404
1.00296 1.00348 0.985852
1.00484 0.999296 0.986469
1.00018 1.00012 0.994028
1.00021 1.00159 0.992769
1.00019 1.00262 0.991787
1.00066 1.00281 0.990721
1.00035 1.00332 0.990805
1.00068 1.00276 0.990647
0.999846 0.998055 0.996837
1.00007 0.999815 0.994703
1.00495 0.999453 0.986061
1.0001 1.00168 0.992823
1.00034 1.00278 0.991256
1.00004 1.00353 0.990997
1.00402 1.00068 0.986532
1.00506 0.999426 0.985905
1.00061 1.00446 0.989122
1.00189 1.00367 0.98762
1.00325 1.00138 0.987532
1.00013 0.99958 0.994833
1.00017 1.00092 0.993452
1.00036 1.00391 0.990191
0.999981 1.00283 0.991895
1.0001 1.00398 0.990548
1.00511 0.998947 0.986287
1.00434 1.00029 0.986316
1.00505 0.998521 0.986648
1.00068 1.00499 0.98825
1.00292 1.00248 0.986852
1.0002 1.00057 0.993757
1.00002 1.00207 0.992474
1.00044 1.00431 0.989572
0.999948 1.0038 0.990865
1.00032 1.00401 0.990173
1.00514 0.997304 0.987747
1.00448 1.00014 0.986433
1.005 0.997889 0.987174
1.0015 1.00461 0.987799
1.00297 1.00208 0.986389
1.00018 0.999461 0.994874
1.00023 1.0004 0.993823
1.00012 1.00117 0.993244
1.00023 1.0004 0.99377
1.00026 1.00043 0.993785
1.00015 1.00109 0.993335
1.00007 1.00157 0.993064
1.00015 1.00112 0.993255
1.00027 1.00048 0.993727
1.00028 0.999403 0.994737
1.00028 0.999337 0.994814
1.00009 0.997499 0.99735
1.00025 0.999334 0.994868
1.00005 0.997571 0.997378
0.999966 0.996508 0.99839
0.999992 0.997687 0.997377
0.999883 0.996621 0.998391
0.999737 0.996769 0.999312
0.999967 0.998174 0.996493
0.999911 0.998433 0.996341
0.999696 0.997204 0.999188
0.999844 0.998725 0.996181
0.999614 0.997499 0.99914
0.999561 0.997757 0.999086
1.00498 0.99915 0.986313
1.00501 0.99891 0.986571
1.00514 0.997937 0.987241
1.00517 0.998005 0.987229
1.00512 0.998719 0.986567
1.00476 0.999365 0.986554
1.00511 0.998789 0.986508
1.00516 0.998248 0.986984
1.00514 0.99798 0.987221
1.00513 0.997537 0.987708
1.00513 0.998376 0.986797
1.00516 0.997289 0.98788
1.00514 0.998296 0.986992
1.00513 0.997619 0.987624
1.00513 0.99715 0.988072
1.00515 0.997125 0.98813
1.00507 0.998837 0.986516
1.00503 0.99899 0.986521
1.00517 0.998282 0.986885
1.00509 0.998197 0.987078
1.00073 1.00252 0.990967
1.0009 1.00341 0.989546
1.00232 1.00385 0.986559
1.00505 0.998421 0.986988
1.00515 0.997315 0.987795
1.00508 0.997906 0.987353
1.0042 1.00067 0.986231
1.00512 0.997908 0.987131
1.00065 1.00279 0.990829
1.00059 1.00293 0.990769
1.00024 1.003 0.991236
1.00016 1.00035 0.993819
1.00021 1.00183 0.99236
1.00516 0.998253 0.986992
1.00515 0.998108 0.987126
1.00515 0.997208 0.987972
1.00072 1.00302 0.990428
1.00092 1.00423 0.988572
1.00291 1.00354 0.985801
1.00513 0.997403 0.987748
1.00484 0.999154 0.986579
1.00511 0.997508 0.987628
1.00018 1.00009 0.99406
1.0007 1.0028 0.990704
1.00065 1.00272 0.990749
1.00035 1.00337 0.990752
1.00019 1.00261 0.99181
1.00021 1.00158 0.992704
1.00514 0.997853 0.987324
1.00511 0.997083 0.988183
1.00513 0.996577 0.988492
1.00512 0.996706 0.988467
1.0007 1.00343 0.990029
1.00509 0.997699 0.987461
1.00145 1.00495 0.986802
1.00377 1.00225 0.985687
1.00019 0.999856 0.994276
1.00021 1.0013 0.993051
1.00018 1.00235 0.992131
1.00016 1.00318 0.991233
1.00074 1.00293 0.99042
1.00075 1.00291 0.990442
1.00013 0.999584 0.994833
1.00016 1.0009 0.993465
1.00511 0.998985 0.986266
0.999969 1.00284 0.991895
1.00032 1.00391 0.990211
1.00004 1.00401 0.990506
1.0044 1.00029 0.986288
1.00505 0.998453 0.98677
1.00069 1.00502 0.988147
1.00296 1.00261 0.986752
1.0002 1.00055 0.993765
1.00004 1.00204 0.992515
1.00042 1.00441 0.989622
0.999909 1.0039 0.990862
1.00022 1.00391 0.990369
1.00514 0.9973 0.987911
1.00452 1.00012 0.986316
1.00506 0.997847 0.98723
1.00134 1.00467 0.987719
1.00312 1.00213 0.986399
1.00007 1.00141 0.993053
0.999912 1.00313 0.991501
1.00069 1.00425 0.989257
0.999962 1.00442 0.989858
1.00514 0.995934 0.989173
1.00511 0.996718 0.988451
1.00455 0.999722 0.986411
1.00185 1.00387 0.986581
1.00024 1.00038 0.993867
1.00012 1.00118 0.993266
0.999981 1.00185 0.992914
1.00025 1.00043 0.993784
1.00013 1.00109 0.993277
1.00027 1.00046 0.993725
1.00005 1.00157 0.993023
1.00016 1.00109 0.993278
1.00001 1.00192 0.99277
1.00011 1.00151 0.992973
1.00018 1.00115 0.993147
1.00027 1.00055 0.993649
1.00026 0.999487 0.994676
1.00028 0.999407 0.994737
1.00012 0.997501 0.997294
1.00027 0.999342 0.994815
1.00009 0.997525 0.997341
1.00002 0.996438 0.998363
1.00005 0.997582 0.997375
0.999959 0.99648 0.998395
0.999874 0.996596 0.998393
1.00002 0.997939 0.996624
0.999973 0.998178 0.996485
0.999775 0.996962 0.999224
0.999914 0.998447 0.996332
0.999689 0.997253 0.999177
0.999614 0.997542 0.999128
1.00512 0.998401 0.986803
1.00515 0.998025 0.98715
1.00517 0.99714 0.987943
1.00514 0.997442 0.987775
1.00516 0.998292 0.986939
1.0051 0.998829 0.986467
1.00514 0.998291 0.986983
1.00512 0.997651 0.987597
1.00513 0.997147 0.988058
1.00516 0.997082 0.988136
1.00513 0.997812 0.98746
1.00511 0.996905 0.98843
1.00515 0.996414 0.988677
1.00516 0.998262 0.986984
1.00514 0.99812 0.987144
1.00515 0.997311 0.987872
1.00078 1.00301 0.990403
1.00106 1.0042 0.988741
1.00285 1.00358 0.98575
1.00513 0.997447 0.987752
1.00509 0.997436 0.987538
1.00485 0.999003 0.986689
1.00073 1.00278 0.990687
1.00061 1.00269 0.990851
1.00037 1.00342 0.990699
1.00018 1.00006 0.994092
1.00019 1.0026 0.991832
1.0002 1.00156 0.99264
1.00514 0.997894 0.987343
1.00511 0.997055 0.988231
1.00513 0.996614 0.988498
1.00073 1.00342 0.989982
1.00132 1.00498 0.987127
1.00378 1.00209 0.98577
1.00512 0.996758 0.988422
1.00509 0.997706 0.987431
1.00019 0.999835 0.99438
1.00021 1.00131 0.993049
1.00065 1.00281 0.990485
1.00073 1.00283 0.99066
1.00018 1.00316 0.991199
1.00016 1.00238 0.992081
1.00511 0.997085 0.988182
1.00509 0.996042 0.989164
1.00512 0.996005 0.989046
1.00507 0.996763 0.988667
1.00061 1.00404 0.989106
1.00462 0.999412 0.986626
1.00237 1.00456 0.986249
1.0002 0.999653 0.994635
1.00016 1.0008 0.99358
1.00019 1.00111 0.993119
1.00013 1.00218 0.992294
1.00004 1.00306 0.991551
1.00009 1.00348 0.990909
1.00111 1.00155 0.990912
1.00062 1.00263 0.991578
1.0002 1.00053 0.993772
1.00006 1.00202 0.992556
1.00514 0.997301 0.988075
0.999924 1.00395 0.990859
1.00038 1.00445 0.989672
1.0001 1.00382 0.990565
1.00455 1.00008 0.986197
1.00511 0.9978 0.987286
1.00118 1.00471 0.987641
1.00324 1.00212 0.986408
1.00009 1.00143 0.993007
0.99995 1.00316 0.991505
1.00062 1.00429 0.989305
1.00011 1.00441 0.989961
1.00515 0.995916 0.989253
1.00511 0.996835 0.988271
1.00455 0.999724 0.986469
1.00217 1.00384 0.986447
0.999942 1.00226 0.992542
1.00519 0.995154 0.989709
0.999986 1.00432 0.990643
1.00077 1.00472 0.98857
1.0051 0.995746 0.989538
1.00504 0.997751 0.987183
1.00351 1.00254 0.985951
1.00012 1.00121 0.993288
0.999979 1.00184 0.992905
0.999876 1.00239 0.992574
1.00027 1.00045 0.993724
1.00016 1.00108 0.993301
1.00003 1.00158 0.992982
1.00027 1.00054 0.993645
1.00017 1.00116 0.993162
0.999999 1.00195 0.992724
1.00012 1.00148 0.993015
1.00001 1.00212 0.992501
1.00012 1.00177 0.992683
1.00017 1.00154 0.992902
1.00027 1.00115 0.993033
1.00027 1.00064 0.993555
1.00024 0.999555 0.994639
1.00026 0.999493 0.994676
1.00014 0.997523 0.997239
1.00028 0.999414 0.994737
1.00013 0.997531 0.997285
1.00006 0.99641 0.998326
1.0001 0.99755 0.997332
1.00002 0.996402 0.99837
0.999951 0.996453 0.998399
1.0002 0.999511 0.994786
1.00007 0.997744 0.996736
1.00003 0.997945 0.996617
0.999851 0.996746 0.999255
0.999978 0.998185 0.996477
0.999767 0.997011 0.999213
0.999683 0.997305 0.999165
1.00517 0.997039 0.988142
1.00512 0.997143 0.988044
1.00512 0.997678 0.98757
1.00514 0.998286 0.986973
1.00512 0.997776 0.987512
1.00511 0.99692 0.988391
1.00515 0.996396 0.988679
1.00514 0.996977 0.988235
1.00517 0.99601 0.989258
1.00515 0.994903 0.989926
1.00514 0.997935 0.987363
1.00512 0.997026 0.98828
1.00513 0.996652 0.988504
1.00076 1.00346 0.989935
1.0012 1.0049 0.987451
1.00379 1.00191 0.985853
1.00511 0.996811 0.988378
1.00508 0.997689 0.987402
1.00058 1.00269 0.990549
1.00073 1.00274 0.990872
1.00014 1.00322 0.991164
1.00019 0.999809 0.994484
1.00021 1.00131 0.993048
1.00013 1.00242 0.992032
1.00512 0.996999 0.988279
1.0002 0.999649 0.994634
1.00015 1.00082 0.993534
1.00509 0.99611 0.989152
1.00511 0.996016 0.988992
1.00052 1.00412 0.989389
1.00226 1.00449 0.986204
1.0045 0.999488 0.986621
1.005 0.996704 0.988571
1.0002 1.00109 0.993263
1.00013 1.00217 0.992287
1.00124 1.00182 0.99058
1.00037 1.0023 0.991932
1.00006 1.00357 0.990869
1.00006 1.00303 0.991559
1.00518 0.995799 0.989338
1.00514 0.995709 0.98953
1.00509 0.995343 0.989511
1.00496 0.996781 0.988214
1.00094 1.00334 0.989545
1.00323 1.00298 0.986173
1.00014 1.00069 0.993609
1.00017 1.00095 0.993413
1.00008 1.00177 0.992898
1.00011 1.00209 0.992276
1.00001 1.00294 0.991865
0.999932 1.00363 0.990946
0.999732 1.00436 0.990836
1.00056 1.00143 0.992118
1.0001 1.00145 0.992961
0.999991 1.00318 0.991509
1.00515 0.995883 0.989332
1.00511 0.996969 0.988091
1.00025 1.00441 0.990063
1.00056 1.00432 0.989351
1.00458 0.999744 0.986528
1.00251 1.00388 0.986311
0.999942 1.00227 0.992513
1.00519 0.995156 0.989743
0.999902 1.00419 0.99072
1.00078 1.00463 0.988479
1.0051 0.995676 0.989421
1.00503 0.997673 0.987379
1.0034 1.00271 0.986
0.999873 1.00343 0.991617
1.00503 0.995075 0.99089
1.00054 1.00452 0.989909
1.00166 1.0047 0.987603
1.00495 0.9966 0.988787
1.00381 1.00061 0.986826
0.999757 0.99909 0.992582
0.999975 1.00184 0.992896
0.999866 1.0024 0.99256
0.999981 1.00262 0.992183
1.00028 1.00053 0.993641
1.00017 1.00116 0.993177
1.00013 1.00145 0.993057
0.999993 1.00197 0.992678
1.00027 1.00063 0.993551
1.00026 1.00115 0.99303
1.00002 1.00215 0.992462
1.00016 1.00154 0.992899
1.00012 1.00178 0.99272
1.00015 1.0019 0.992506
1.00021 1.00157 0.992718
1.00023 1.00147 0.992827
1.00035 1.0012 0.992841
1.00029 1.0007 0.993374
1.00026 1.00117 0.993125
1.00028 1.00068 0.993406
1.00024 0.999584 0.994624
1.00024 0.999558 0.994639
1.00017 0.997581 0.996712
1.00026 0.999501 0.994676
1.00016 0.997556 0.99699
1.00003 0.996355 0.999281
1.00013 0.997561 0.997277
1.00006 0.99637 0.998332
1.00001 0.996368 0.998375
1.00018 0.999418 0.994906
1.0002 0.999509 0.994783
1.00011 0.997595 0.996826
1.00006 0.997747 0.996976
0.999915 0.996563 0.999281
1.00003 0.997952 0.99661
0.999842 0.996788 0.999246
0.999759 0.997059 0.999202
1.00514 0.996378 0.988681
1.00511 0.996931 0.988351
1.00512 0.997744 0.987563
1.00514 0.996966 0.988226
1.00517 0.996002 0.98916
1.00515 0.994911 0.989988
1.00519 0.995533 0.989484
1.00084 0.999618 0.988433
1.00494 0.994949 0.991298
1.00012 1.00065 0.993821
1.00512 0.996914 0.988375
1.00508 0.996162 0.98914
1.00511 0.99606 0.988939
1.00042 1.00425 0.989672
1.00216 1.00444 0.986159
1.00436 0.999598 0.986615
1.00493 0.996678 0.988475
1.00139 1.00202 0.990255
1.00011 1.00199 0.992298
1.00008 1.0036 0.990831
1.0002 0.999651 0.994634
1.00008 1.00301 0.991568
1.00021 1.00107 0.993406
1.00013 1.00217 0.992279
1.00014 1.00082 0.993487
1.00518 0.995677 0.989455
1.00014 1.00068 0.993686
1.00018 1.00095 0.99341
1.00009 1.00175 0.992798
1.00514 0.995542 0.989527
1.00506 0.995597 0.989368
1.00103 1.0031 0.989621
1.00283 1.00288 0.986304
1.00496 0.996999 0.9882
1.00011 1.00209 0.992341
1.00002 1.00292 0.991809
1.00048 1.00182 0.991774
0.999763 1.00418 0.991002
0.999985 1.00362 0.99101
1.00515 0.995026 0.990189
1.00511 0.996111 0.989348
1.00508 0.995907 0.989084
1.00373 1.00001 0.987944
1.00072 1.00329 0.990058
1.00011 1.00159 0.992772
1.00008 1.00192 0.992508
1.00003 1.00246 0.992259
0.999996 1.00291 0.99178
0.999881 1.00354 0.99133
0.999761 1.0044 0.990618
0.999732 1.00461 0.99048
0.999947 1.00229 0.992483
0.999811 1.00406 0.990798
1.0052 0.995166 0.989777
1.0051 0.995606 0.989304
1.00504 0.997564 0.987575
1.00078 1.00455 0.988389
1.0033 1.00286 0.986049
0.999834 1.00333 0.991777
1.00499 0.995041 0.990858
1.00028 1.00443 0.990017
1.00133 1.00485 0.987655
1.00496 0.996326 0.988938
1.00384 1.00054 0.986776
0.99969 0.999107 0.990934
1.00001 1.00375 0.991073
1.00465 0.995527 0.991459
1.00026 1.00459 0.989847
1.00182 1.00371 0.987646
1.00411 0.997467 0.988313
1.00126 0.995196 0.959624
0.995982 0.998918 0.977963
0.998925 1.0005 0.992843
0.999768 0.996974 0.935329
0.99499 0.998155 0.925868
0.999865 1.00241 0.992547
0.999915 1.00266 0.992252
0.99998 1.00228 0.992513
1.00027 1.00063 0.993546
1.00026 1.00112 0.993026
1.00016 1.00154 0.992896
1.00013 1.00178 0.992756
1.00005 1.00217 0.992424
1.00024 1.00146 0.992795
1.00028 1.0007 0.99343
1.00034 1.00119 0.992866
1.00015 1.00192 0.992517
1.00021 1.00159 0.992728
1.00025 1.00152 0.992671
1.00019 1.00139 0.992886
1.00034 1.00147 0.992637
1.0004 1.00128 0.992643
1.00029 1.00072 0.99336
1.00034 1.00123 0.992866
1.00029 1.00139 0.992837
1.00017 1.00116 0.993201
1.00027 1.00118 0.993066
1.00028 1.00058 0.993589
1.00028 1.00069 0.993396
1.00025 0.99957 0.99463
1.00024 0.999581 0.994624
1.00016 0.997633 0.996697
1.00024 0.999558 0.994639
1.00017 0.997585 0.996711
1.00004 0.996359 0.999275
1.00017 0.997586 0.996741
1.00006 0.996357 0.998792
1.00006 0.99633 0.998337
1.00017 0.999351 0.994996
1.00018 0.999414 0.994905
1.00013 0.997486 0.996891
1.0002 0.999506 0.994781
1.0001 0.997576 0.997065
0.999967 0.99642 0.999301
1.00007 0.997771 0.996713
0.999905 0.996632 0.999268
0.999833 0.99683 0.999236
1.00517 0.995986 0.989063
1.00514 0.99696 0.988217
1.00516 0.994923 0.99005
1.00083 0.998808 0.988544
1.00518 0.995487 0.989549
1.00495 0.995191 0.991211
1.005 0.995873 0.990475
0.997254 0.999571 0.975
1.00226 0.996616 0.989745
1.00012 1.00061 0.993861
1.00013 1.00063 0.99382
1.00007 1.00155 0.992998
1.00009 1.00142 0.993097
1.00518 0.995569 0.989573
1.00514 0.995469 0.989524
1.00509 0.995748 0.989224
1.00113 1.00291 0.989698
1.00245 1.00273 0.986433
1.00494 0.997264 0.988186
1.0004 1.00228 0.991418
0.999807 1.00399 0.991168
1.00003 1.0036 0.991073
1.00017 1.00096 0.993408
1.00004 1.00287 0.991753
1.00011 1.00211 0.992407
1.00014 1.00067 0.993764
1.00009 1.00176 0.992696
1.00508 0.995106 0.990154
1.0001 1.00162 0.992884
1.00009 1.00192 0.992567
1.00001 1.00239 0.992282
1.00508 0.995758 0.989412
1.00508 0.995772 0.989054
1.00084 1.00312 0.990027
1.00376 1.00007 0.987925
1 1.00296 0.991777
0.999869 1.00351 0.991374
0.999761 1.00459 0.990484
0.999864 1.00445 0.990581
1.00506 0.996113 0.989664
1.00505 0.995523 0.989801
1.00418 0.99831 0.988673
1.00094 1.00318 0.989902
1.00006 1.00247 0.99205
0.999982 1.00271 0.991972
0.999797 1.00388 0.991123
0.999906 1.0051 0.989632
1.00063 0.994956 0.955236
0.99979 1.00325 0.991937
1 1.00437 0.990125
1.00497 0.99499 0.990822
1.005 0.99605 0.989087
1.00384 1.00044 0.986726
1.00097 1.00499 0.987706
0.999654 0.999118 0.989257
0.99987 1.00381 0.99121
1.00464 0.995392 0.991402
1.00014 1.00462 0.989907
1.00178 1.00367 0.987616
1.00433 0.997507 0.98837
1.00168 0.995491 0.955396
0.995656 0.999099 0.974148
0.998972 1.00038 0.992917
0.998822 0.997191 0.936893
0.994741 0.998152 0.920566
0.999711 1.00367 0.991799
0.999941 0.994996 0.939181
0.994983 0.999451 0.92747
1.00403 0.996684 0.991285
0.999831 1.00479 0.990256
1.00227 1.0013 0.988537
0.998072 1.00085 0.994622
0.999381 0.997085 0.959769
0.994852 0.998968 0.97312
0.998117 0.99919 0.93776
0.994674 0.999883 0.930003
0.999836 1.0027 0.992321
0.999933 1.0024 0.992478
0.999961 1.00123 0.993741
1.00027 1.00069 0.993487
1.00034 1.00119 0.992891
1.00022 1.00148 0.992764
1.00021 1.00161 0.992738
1.00014 1.00195 0.992528
1.00029 1.00072 0.993359
1.00026 1.00156 0.99265
1.00033 1.00147 0.992659
1.00039 1.00127 0.992715
1.0002 1.00135 0.992936
1.00033 1.00144 0.992655
1.00027 1.00063 0.993505
1.00043 1.0015 0.992438
1.00039 1.00127 0.992752
1.00036 1.00123 0.992859
1.00029 1.00138 0.992834
1.00041 1.00137 0.992594
1.00019 1.00141 0.992949
1.00021 1.0014 0.992863
0.999848 1.00227 0.992652
1.00007 1.00126 0.993283
1.00017 1.00117 0.993204
1.00025 1.00054 0.993679
1.00027 1.0012 0.993006
1.00028 1.0006 0.993545
1.00026 0.999524 0.994664
1.00028 1.00071 0.993387
1.00025 0.999559 0.994631
1.00012 0.99766 0.997205
1.00024 0.999579 0.994624
1.00015 0.997624 0.996948
1.00008 0.996383 0.998272
1.00017 0.99759 0.996711
1.00004 0.996363 0.999273
1.00009 0.996359 0.998302
1.00014 1.00062 0.993816
1.00017 0.999314 0.995031
1.00017 0.999349 0.994996
1.00015 0.997413 0.996938
1.00018 0.99941 0.994904
1.00014 0.997472 0.99689
1.00001 0.996314 0.999315
1.00009 0.997586 0.997292
0.99998 0.996474 0.998815
0.999947 0.996672 0.998287
1.00076 0.997978 0.988672
1.00517 0.995443 0.989614
1.00496 0.995427 0.991123
0.99672 0.998803 0.976721
1.00207 0.996989 0.989982
1.00501 0.995416 0.990463
1.00425 0.995781 0.990376
0.998223 0.996649 0.979268
1.00036 0.995561 0.958241
0.998618 0.99741 0.939083
0.99465 0.998228 0.924623
1.00005 1.00151 0.992967
1.00012 1.00061 0.993858
1.00014 1.00061 0.993819
1.00008 1.00156 0.992967
1.00001 1.00216 0.992491
1.00015 1.00189 0.992605
1.00012 1.00148 0.993024
1.00007 1.00148 0.993042
1.00505 0.995151 0.990118
1.0051 0.995291 0.989472
1.00503 0.99567 0.989025
1.00096 1.00289 0.989996
1.00381 1.00004 0.987905
0.999789 1.00454 0.99049
0.999967 1.0045 0.990545
0.999869 1.00349 0.991418
1.00008 1.00191 0.992625
1.00001 1.00301 0.991774
1.0001 1.00165 0.992995
1.00002 1.00231 0.992307
1.00501 0.995843 0.989675
1.00004 1.00246 0.992138
0.999994 1.00272 0.991988
1.00502 0.995385 0.989679
1.00381 0.997914 0.989026
1.00111 1.00305 0.989745
0.999851 1.00391 0.991098
1.00002 1.00505 0.989647
1.00334 1.00048 0.989584
1.00449 0.996071 0.990748
1.00201 0.999698 0.989874
1.00048 1.00369 0.990051
1.00005 1.0026 0.991899
0.999937 1.00326 0.991553
0.999817 1.0045 0.99047
0.999972 0.994884 0.937496
1.00116 0.994959 0.961584
0.999754 1.00384 0.991348
1.00002 1.00459 0.989967
1.00461 0.995211 0.991351
1.00455 0.997553 0.988426
1.00175 1.00367 0.987587
1.00068 0.994977 0.95756
0.996009 0.999415 0.97434
0.998987 1.00013 0.992992
0.998285 0.997119 0.941532
0.994629 0.99815 0.915257
0.999671 1.00358 0.991812
0.999961 0.995341 0.937618
0.994999 0.999391 0.924778
1.00408 0.996687 0.991255
0.999741 1.00478 0.990362
1.00192 1.00132 0.989107
0.998396 1.00037 0.99535
1.00004 0.99719 0.956249
0.995347 0.998745 0.975925
0.99762 0.99939 0.938506
0.994851 0.999867 0.928013
0.99926 1.00327 0.992937
0.995007 0.999367 0.929653
0.994805 1.00298 0.944094
1.00102 0.998773 0.994064
0.999223 1.00415 0.992386
0.996928 1.00234 0.995857
0.99505 0.999833 0.978669
0.99681 0.999465 0.95497
0.995513 0.999899 0.941724
0.994592 0.999806 0.937391
0.999915 1.00247 0.992443
0.999961 1.0014 0.993566
0.999697 0.999738 0.995362
1.00029 1.00071 0.993357
1.00039 1.00126 0.992787
1.00031 1.00147 0.992681
1.00027 1.00159 0.992628
1.0002 1.00133 0.992986
1.00039 1.00128 0.992749
1.00033 1.00148 0.992657
1.00043 1.00151 0.992437
1.00016 1.00059 0.993699
0.999904 0.999875 0.994987
1.00045 1.00109 0.992818
1.00049 1.00146 0.992385
1.00037 1.00122 0.992852
1.0003 1.00136 0.992831
1.00042 1.00137 0.992589
1.0002 1.00139 0.992941
1.00021 1.00138 0.992909
1.00004 1.00162 0.992972
1.00031 1.00137 0.992685
1.00012 1.00134 0.993097
0.999964 1.00268 0.992052
0.999656 1.00468 0.990397
0.999726 1.00298 0.991994
0.999843 1.00233 0.992631
0.999975 1.00156 0.993155
1.00007 1.00128 0.993278
1.0002 1.00054 0.99376
1.00017 1.00119 0.993206
1.00025 1.00054 0.993682
1.00024 0.999493 0.994715
1.00028 1.00061 0.993502
1.00026 0.999512 0.994666
1.00009 0.997685 0.997232
1.00025 0.99955 0.994632
1.00013 0.997649 0.996962
1.00005 0.996391 0.998283
1.00016 0.99761 0.996699
1.00003 0.996386 0.999269
1.00004 0.996368 0.999271
1.00017 1.00069 0.993876
1.00018 0.999342 0.994984
1.00013 1.00063 0.993814
1.00015 0.997383 0.996959
1.00017 0.999315 0.995031
1.00017 0.999347 0.994996
1.00015 0.997414 0.996936
1.00003 0.996252 0.999325
1.00011 0.997465 0.997355
1.00002 0.996334 0.99884
1.00001 0.996474 0.998345
0.999942 0.995354 0.935041
0.995264 0.998931 0.927813
0.997714 0.998059 0.977733
1.0019 0.997376 0.990218
1.005 0.994951 0.990453
0.997508 0.996729 0.981563
1.00422 0.995921 0.990433
1.00115 0.995324 0.958634
0.999129 0.996717 0.93538
0.994629 0.998185 0.919269
0.998928 0.997673 0.984986
0.998777 0.997655 0.96055
0.998176 0.999202 0.936432
0.994686 0.999875 0.927904
1.00012 1.00214 0.992326
1.00006 1.0015 0.99301
1.00013 1.00059 0.993856
1.00008 1.00154 0.992935
1.00002 1.00208 0.992568
1.00017 1.00199 0.992435
1.00016 1.00185 0.992584
1.00017 1.00161 0.992762
1.00012 1.00149 0.992967
1.00006 1.00152 0.992986
1.00493 0.995497 0.989689
1.00494 0.995276 0.989565
1.00341 0.997494 0.989381
1.00126 1.00298 0.989588
1.00015 1.00501 0.989662
0.999901 1.00395 0.991073
1 1.00273 0.992003
1.00001 1.00245 0.992227
1.00353 0.999153 0.989762
1.00005 1.00263 0.991891
0.999948 1.00324 0.991528
1.00435 0.995833 0.990529
1.00178 1.00009 0.990278
1.00064 1.00378 0.989687
0.999939 1.00456 0.99034
1.00043 1.00106 0.992966
1.00153 0.998738 0.993317
0.999826 1.00415 0.99055
1.00006 1.00268 0.991889
1.00007 1.00284 0.991585
0.999998 1.00348 0.991201
0.994787 0.999351 0.938222
0.99995 0.99526 0.93987
1.00068 0.994939 0.955043
0.999604 1.00356 0.991827
0.999668 1.00478 0.99047
1.00416 0.996671 0.991221
1.00154 1.00147 0.989676
0.999936 0.995161 0.94082
0.998927 0.997105 0.956949
0.994902 0.998269 0.973131
0.998789 0.999259 0.996015
0.998032 0.999279 0.933644
0.994975 0.999306 0.925414
0.994998 0.999882 0.929317
0.999164 1.00333 0.992957
0.995016 0.999484 0.932538
0.994988 1.00311 0.943574
1.00124 0.99871 0.994147
0.998783 1.00443 0.992373
0.996626 1.00019 0.99865
0.995219 0.999315 0.975893
0.996769 0.999626 0.960389
0.997701 0.999896 0.937296
0.994596 0.999807 0.939235
0.998203 1.00232 0.995827
0.994648 1.002 0.952609
0.994208 1.00318 0.957249
0.996591 1.00215 0.998512
0.995143 1.00012 0.985191
0.995407 1.00002 0.959614
0.994995 0.999942 0.938564
0.994705 0.999417 0.936925
0.99994 1.00156 0.993394
0.999768 0.999707 0.995435
0.999313 0.999222 0.996719
1.00039 1.00129 0.992746
1.00044 1.00151 0.992436
1.00033 1.00151 0.992659
1.00006 1.00055 0.993893
1.00047 1.00148 0.992385
1.00043 1.00113 0.992781
0.999881 0.999626 0.995209
0.999013 0.999417 0.996936
1.00017 1.00033 0.994154
1.00043 1.00136 0.992515
1.00042 1.00137 0.992584
1.0002 1.00138 0.992933
1.0002 1.00138 0.992955
1.0003 1.00139 0.992713
1.00003 1.00167 0.992959
1.00014 1.00136 0.993087
1.00007 1.0017 0.992879
0.999936 1.00136 0.993405
0.999984 1.00238 0.992223
0.999988 1.00259 0.99216
0.999733 1.00401 0.991045
1.00039 1.00496 0.989077
0.999811 1.0039 0.991341
0.999624 1.0047 0.99052
0.999749 1.003 0.992112
0.999896 1.00203 0.992674
0.999839 1.00239 0.992609
0.999982 1.00158 0.993142
1.00016 1.00063 0.99374
1.00008 1.00129 0.993273
1.00021 1.00054 0.993759
1.00021 0.999521 0.994753
1.00026 1.00054 0.993686
1.00025 0.999482 0.994718
1.00004 0.997728 0.997264
1.00026 0.999503 0.994667
1.0001 0.997674 0.996994
1.00001 0.996458 0.998306
1.00015 0.997627 0.996714
1.00003 0.996408 0.998774
1.00002 0.996398 0.99927
1.00019 1.00078 0.993597
1.00019 0.999407 0.994902
1.00015 1.0007 0.993746
1.00015 0.99741 0.99694
1.00018 0.999341 0.994987
1.00012 1.00065 0.993812
1.00003 0.996236 0.999328
1.00015 0.997384 0.996959
1.00017 0.999312 0.995031
1.00015 0.997416 0.996933
1.00002 0.99626 0.999322
1 0.996333 0.99931
0.994813 0.998602 0.935047
0.999959 0.995259 0.937176
0.995126 1.00326 0.94331
0.995203 0.999249 0.925977
0.99831 0.996815 0.977787
1.00417 0.996405 0.990481
1.00086 0.995393 0.958949
0.999844 0.997384 0.939955
0.994623 0.998151 0.913929
0.998676 0.997635 0.983597
1.00006 0.997069 0.95399
0.997826 0.999246 0.93745
0.994684 0.999863 0.924917
0.995106 1.00086 0.980676
0.998364 0.999965 0.954042
0.995731 0.999862 0.935509
0.994639 0.999617 0.932671
1.00014 1.00241 0.992054
1.0001 1.00214 0.992393
1.00005 1.00155 0.993054
1.00003 1.00202 0.992644
1.00023 1.00209 0.992123
1.00017 1.00197 0.992473
1.00015 1.00184 0.992563
1.00025 1.00155 0.992751
1.00019 1.00158 0.992825
1.00013 1.00149 0.99291
1.00362 0.997914 0.989953
1.00427 0.995679 0.990313
1.0016 1.00051 0.990677
1.00081 1.00381 0.989328
1.00003 1.00462 0.99021
0.999969 1.0032 0.991503
1.00008 1.00264 0.991882
1.00007 1.00266 0.991897
1.00064 1.00039 0.993224
1.00009 1.00292 0.991606
1.00003 1.00357 0.991138
1.00158 0.998867 0.992968
1.0002 1.00381 0.990462
0.99889 0.998623 0.995848
0.999104 0.999738 0.997275
0.999925 1.00271 0.991745
1.00018 1.00257 0.991773
1.00017 1.00319 0.991153
0.994279 1.00146 0.957727
0.994787 0.999735 0.937425
0.999939 0.995711 0.935855
0.999076 1.0034 0.992969
0.998415 1.00461 0.992345
1.00138 0.998717 0.994238
0.994999 0.999303 0.934094
0.997726 0.999392 0.955161
0.994885 0.998899 0.976886
0.996462 0.99932 1.00163
0.99591 0.999857 0.941199
0.995221 1.00324 0.943063
0.994592 0.999811 0.939401
0.998221 1.00214 0.995997
0.994689 1.00143 0.954871
0.994234 1.00329 0.957042
0.996722 1.00267 0.998362
0.994994 1.00015 0.985588
0.996472 1.00001 0.954486
0.99465 0.999511 0.938702
0.995024 0.999965 0.941431
0.997052 1.00239 0.998087
0.993785 1.00211 0.974362
0.994254 1.00239 0.959834
0.994671 0.999624 0.932779
0.994992 1.00155 0.995611
0.996212 0.999146 0.961581
0.99472 0.999997 0.941843
0.999901 0.999653 0.995502
0.999357 0.999352 0.996531
0.998457 0.999504 0.998097
1.00046 1.00149 0.992385
1.00041 1.00119 0.992744
0.999857 0.99938 0.995433
1.00042 1.00138 0.992526
1.00016 1.00027 0.994144
0.999205 0.999301 0.996775
0.998671 0.999439 0.997477
0.999999 1.00114 0.993576
1.00029 1.0014 0.992742
1.00002 1.00171 0.992946
1.00016 1.00137 0.993078
0.999995 1.00134 0.993368
1.00008 1.00161 0.992924
0.999546 1.00233 0.993185
0.999734 1.00254 0.992555
1.00004 1.00389 0.990496
1.00003 1.00248 0.992269
0.999938 1.00396 0.990933
1.00044 1.00484 0.988705
1.00041 1.005 0.98881
0.999909 1.00428 0.990613
1.00031 1.00487 0.98915
0.99993 1.00275 0.992096
0.999791 1.00395 0.991214
0.999593 1.00471 0.990644
0.999773 1.00302 0.992231
0.999913 1.002 0.992764
1.00012 1.00087 0.993574
0.999992 1.0016 0.99313
1.00016 1.00065 0.993733
1.00016 0.999605 0.994761
1.00022 1.00054 0.993758
1.00021 0.999507 0.994755
0.999968 0.997817 0.997287
1.00025 0.999467 0.99472
1.00005 0.997727 0.997029
0.99994 0.996551 0.998328
1.00011 0.997653 0.99675
0.999985 0.99647 0.998788
0.999993 0.996442 0.999275
1.00025 1.00087 0.993251
1.0002 0.999539 0.994586
1.0002 1.00079 0.993596
1.00014 0.997491 0.996884
1.00019 0.999416 0.994807
1.00014 1.0007 0.993617
1.00002 0.996273 0.999322
1.00015 0.997409 0.996943
1.00018 0.999338 0.99499
1.00003 0.996237 0.999327
1.00015 0.997384 0.996959
1.00002 0.996272 0.99932
0.994364 1.00128 0.956309
0.994837 0.998538 0.936077
0.999916 0.995314 0.937926
1.0003 1.0015 0.992642
0.99417 1.00294 0.959279
0.995148 1.00327 0.942836
0.995226 0.999431 0.92758
0.998872 0.997864 0.982061
0.999167 0.998516 0.960404
0.998257 0.99927 0.932543
0.994677 0.999864 0.925616
0.995529 0.999873 0.976739
0.997 0.999805 0.959288
0.997502 0.999881 0.938218
0.994654 0.999712 0.93278
0.995235 0.999793 0.972945
0.995367 1.00057 0.958072
0.994784 0.999919 0.941678
0.994665 0.999344 0.936999
1.00023 1.00239 0.991878
1.00013 1.00243 0.992028
1.0001 1.00211 0.992461
1.00026 1.00197 0.99224
1.00024 1.00208 0.992202
1.00016 1.00195 0.99251
1.00026 1.00157 0.992756
1.00021 1.00156 0.992889
1.00092 0.999896 0.993454
1.00159 0.999006 0.992608
1.00007 1.00265 0.991905
1.00058 1.00362 0.990371
1.00007 1.00362 0.991074
1.00006 1.00301 0.991627
1.00018 1.0026 0.991789
0.998897 0.999197 0.996214
1.00014 1.00306 0.991361
1.00021 1.0025 0.991779
0.999186 0.999084 0.997261
1.00021 1.00232 0.992017
0.997459 0.999463 0.996838
0.99775 1.00053 0.999253
1.0001 1.00207 0.992147
1.00016 1.0023 0.992116
0.99364 1.00229 0.977507
0.994239 1.00194 0.958316
0.994797 1.00016 0.936656
0.998167 1.00198 0.996187
0.99678 1.0028 0.998183
0.994726 1.00108 0.957111
0.995494 1.00005 0.960757
0.994879 0.999226 0.981655
0.995261 0.999962 0.940833
0.994236 1.0034 0.956848
0.994606 0.999584 0.940475
0.997196 1.00233 0.997874
0.993724 1.0022 0.974351
0.994161 1.00248 0.963677
0.995249 1.00277 0.998454
0.994686 0.999684 0.932801
0.995423 0.999152 0.958492
0.995022 0.999961 0.942816
0.996683 1.00254 0.998655
0.993712 1.00132 0.979791
0.994219 1.00295 0.959345
0.994714 0.999815 0.928136
0.995314 0.999927 0.940923
0.995658 0.998729 0.991566
0.996511 1.00015 0.952772
0.999351 0.999457 0.996339
0.998336 1.0001 0.997823
0.996762 0.999461 1.00167
1.00039 1.0014 0.992537
1.00014 1.00019 0.994133
0.999376 0.99918 0.996608
1.00001 1.00115 0.993525
0.998807 0.999092 0.997578
0.998346 1.00265 0.994781
1.00005 1.00131 0.99333
1.00008 1.00155 0.992968
0.999717 1.00237 0.993056
0.99929 1.00449 0.991255
0.999464 1.00266 0.992883
0.999841 1.00384 0.990822
1.00062 1.00498 0.988585
1.00166 1.00471 0.986897
1.00015 1.00393 0.990819
1.00059 1.00486 0.988551
1.0008 1.00461 0.988953
0.999859 1.0047 0.98991
1.00045 1.00485 0.988966
0.999909 1.00342 0.991467
0.99995 1.00428 0.990603
1.00022 1.00479 0.989224
1.00008 1.00133 0.993193
0.999912 1.00273 0.992068
0.99977 1.004 0.991087
0.999929 1.00197 0.992854
1.00013 1.00089 0.99356
1.00009 0.999764 0.994723
1.00016 1.00068 0.993725
1.00016 0.999599 0.99476
0.999913 0.99796 0.996811
1.00022 0.999493 0.994758
0.999993 0.997818 0.996812
0.999811 0.996673 0.999298
1.00006 0.997707 0.996788
0.999924 0.996558 0.998803
0.999947 0.996508 0.999282
1.00029 1.00088 0.99317
1.00022 0.999688 0.994387
1.00025 1.00087 0.993328
1.00011 0.99762 0.996795
1.0002 0.999546 0.994562
1.00021 1.00079 0.993595
0.999994 0.996361 0.999307
1.00013 0.997488 0.996888
1.00019 0.999426 0.994711
1.00002 0.996263 0.999324
1.00015 0.997409 0.996946
1.00003 0.996234 0.999327
0.993605 1.00165 0.974973
0.994351 1.00195 0.956111
0.994857 0.998944 0.936152
1.00028 1.00151 0.992681
1.00027 1.00147 0.992686
1.00026 1.00184 0.992429
0.994221 1.00209 0.960014
0.994213 1.00285 0.959098
0.995145 1.00357 0.942367
0.995047 1.00045 0.979217
0.997656 1.00009 0.953466
0.995165 0.999883 0.942107
0.994665 0.999816 0.931126
0.995623 0.999529 0.975731
0.996465 1.00005 0.957121
0.99512 0.999975 0.94293
0.994628 0.999432 0.93877
0.994886 0.999632 0.972461
0.99582 1.00009 0.959436
0.994704 1.00002 0.942087
0.99458 0.999786 0.937242
1.0003 1.00214 0.992008
1.00024 1.00239 0.991859
1.00013 1.00245 0.992002
1.00027 1.00197 0.992228
1.00024 1.00207 0.99228
1.00028 1.00157 0.992763
0.998914 0.999557 0.99657
0.999048 0.998551 0.997255
1.00019 1.00266 0.991806
1.00048 1.00214 0.991814
1.00009 1.00303 0.99157
1.00027 1.00227 0.991927
1.00011 1.00233 0.992227
0.997485 0.999409 0.997173
1.00002 1.00211 0.992627
0.997581 1.00027 0.999437
1.00013 1.00201 0.992546
0.995851 0.999021 0.998057
0.997528 1.00171 0.998737
0.999754 1.00136 0.993969
0.993668 1.00221 0.984115
0.993522 1.00217 0.979151
0.994197 1.00235 0.958872
0.997454 1.00232 0.997648
0.995977 1.00254 0.996385
0.993679 1.00225 0.974337
0.995338 0.999199 0.963892
0.994735 0.99998 0.940049
0.994086 1.00256 0.967518
0.994698 0.999773 0.931318
0.996401 1.00305 0.998866
0.993658 1.00124 0.981177
0.994266 1.00284 0.959161
0.995113 0.99906 0.986954
0.994698 0.999781 0.92532
0.995308 0.999942 0.941895
0.995578 1.00019 0.959166
0.995373 1.00153 1.00112
0.993595 1.00143 0.975311
0.995067 1.00324 0.943702
0.994621 0.99819 0.925393
0.995713 0.999392 0.935478
0.995814 1.00004 0.958926
0.995828 0.998957 0.982257
0.998191 1.00084 0.997604
0.996985 0.999097 1.00152
0.996869 1.00118 0.999448
1.00001 1.0012 0.993474
0.998965 0.998767 0.997669
0.998172 1.00281 0.995086
0.998874 1.00367 0.993322
0.999897 1.00244 0.992928
0.999816 1.0044 0.990921
1.00065 1.00505 0.988433
0.999639 1.0038 0.991151
1.00069 1.00492 0.988508
1.00216 1.00483 0.986233
1.00322 1.00347 0.985425
1.00119 1.00451 0.987707
1.00164 1.00484 0.986813
1.00073 1.00489 0.988397
1.00057 1.00432 0.989582
1.0006 1.00445 0.98926
0.999891 1.00427 0.990519
0.999945 1.0047 0.990025
1.00048 1.00469 0.989123
1.00003 1.00209 0.99252
0.99996 1.00333 0.991474
0.999982 1.00427 0.990593
1.00002 1.00005 0.994559
1.00009 1.00134 0.993179
0.999896 1.0027 0.99204
1.00014 1.0009 0.993547
1.00009 0.999766 0.99472
0.999821 0.998152 0.996785
1.00017 0.999594 0.994759
0.999917 0.99796 0.996811
0.999744 0.996839 0.999289
0.999999 0.997809 0.99681
0.999841 0.996696 0.998813
0.999886 0.996601 0.999288
1.00032 1.00089 0.993204
1.00025 0.999798 0.994392
1.00029 1.00089 0.993204
1.00008 0.997782 0.996692
1.00023 0.999692 0.994456
1.00026 1.00087 0.993405
0.999954 0.996491 0.999285
1.00011 0.997615 0.996801
1.00021 0.999553 0.994537
0.999998 0.996341 0.999312
1.00013 0.997486 0.996893
1.00003 0.996253 0.999327
0.993716 1.00104 0.97993
0.993687 1.00136 0.97497
0.994345 1.00215 0.955986
1.00022 1.00157 0.992662
1.00009 1.00219 0.992379
1.00026 1.00153 0.992719
1.00026 1.00148 0.99269
1.00024 1.00185 0.992405
1.00018 1.00183 0.992547
1.00025 1.00194 0.992322
0.994211 1.00273 0.957384
0.994122 1.00223 0.963885
0.994255 1.00264 0.958922
0.9946 0.999507 0.940541
0.994841 0.999898 0.973271
0.995267 1.00008 0.957127
0.994756 0.999978 0.944081
0.995456 0.999689 0.97186
0.995319 1.00007 0.955211
0.994847 0.999968 0.944104
0.994594 0.99975 0.939161
0.996033 0.99774 0.975991
0.995144 1.00008 0.954607
0.995221 0.999946 0.93915
0.994681 0.999846 0.929367
1.00008 1.002 0.992578
1.00029 1.00211 0.992028
1.00024 1.00239 0.99184
1.00028 1.00197 0.992215
0.997618 0.999562 0.997481
0.997577 0.999999 0.999607
1.0003 1.00223 0.991839
1.00009 1.00227 0.992336
0.999914 1.00215 0.993108
1.0001 1.00202 0.992486
0.999608 1.00141 0.993923
0.995768 0.999814 0.99589
0.997039 1.00218 0.99898
0.999452 1.00181 0.993747
0.995577 0.9995 0.995267
0.997964 1.00217 0.997918
0.993565 1.00185 0.978238
0.993526 1.00163 0.985832
0.993424 1.00209 0.980795
0.996262 1.00335 0.999018
0.995411 0.998385 0.992449
0.993602 1.00116 0.982573
0.996743 1.00015 0.953387
0.99503 0.999916 0.943122
0.994313 1.00263 0.958975
0.994682 0.999829 0.925956
0.995568 1.00078 1.00138
0.993675 1.00124 0.975306
0.995145 1.00318 0.943217
0.99488 0.999015 0.985701
0.994593 0.998155 0.92005
0.99762 0.99985 0.937772
0.99535 1.00005 0.955247
0.995688 1.00161 0.99807
0.994403 1.00095 0.956875
0.995205 0.998956 0.928435
0.998168 0.998465 0.937562
0.995486 1.0004 0.95939
0.994896 0.99913 0.976572
0.997341 0.998527 1.00129
0.996786 1.00189 0.999396
0.999136 0.998776 0.99846
0.99801 1.00297 0.995392
0.998284 1.00369 0.99364
1.00139 1.00209 0.990019
1.00034 1.0043 0.990585
1.00088 1.00504 0.988299
1.00241 1.00308 0.986659
1.00077 1.00487 0.988431
1.0022 1.00486 0.986063
1.00369 1.00214 0.985385
1.00451 1.00046 0.985815
1.00279 1.00447 0.985585
1.00325 1.00348 0.985233
1.00098 1.00408 0.988528
1.00119 1.00448 0.98792
1.00164 1.00497 0.986729
1.00044 1.00436 0.98962
1.0005 1.00436 0.989559
1.0004 1.0043 0.989565
1.00006 1.00293 0.991593
0.999916 1.00414 0.990657
1.00004 1.0047 0.990141
0.999958 1.0006 0.994107
1.00006 1.00205 0.992517
1.00001 1.00323 0.99148
0.999736 0.998374 0.996726
1.00001 1.00007 0.994549
1.0001 1.00135 0.993164
1.00009 0.999767 0.994717
0.999827 0.998155 0.996783
0.999646 0.997031 0.999282
0.999921 0.997962 0.99681
0.999732 0.996872 0.999287
0.999809 0.996734 0.99929
1.00021 1.00169 0.992625
1.00034 1.00093 0.993144
1.00025 0.999911 0.99427
1.00032 1.0009 0.993198
1.00003 0.997965 0.996587
1.00024 0.999818 0.994388
1.00028 1.00091 0.993238
0.999903 0.996651 0.99926
1.00008 0.997777 0.996698
1.00023 0.999695 0.994525
0.99996 0.996464 0.999292
1.00011 0.997611 0.996807
1 0.99632 0.999317
0.993742 1.00138 0.974996
0.99364 1.00099 0.981306
0.993765 1.00118 0.974965
1.00025 1.00154 0.992687
1.00008 1.00221 0.992336
1.00004 1.00254 0.992032
1.00008 1.00206 0.992399
1.00006 1.0026 0.992078
1.00026 1.00149 0.992695
1.00022 1.00186 0.992382
1.00017 1.00184 0.992544
1.00025 1.00195 0.992317
1.00008 1.00207 0.992568
0.994816 1.00292 0.943725
0.994225 1.00286 0.957213
0.994023 1.00238 0.96775
0.99461 0.999718 0.939341
0.994707 1.00001 0.940633
0.994864 0.999672 0.9706
0.995019 1.00005 0.958882
0.995607 0.997887 0.972268
0.995791 1.00007 0.95898
0.994863 0.999939 0.942413
0.994883 0.999844 0.927245
0.996148 0.995623 0.9767
0.99536 1.0001 0.959694
0.995831 0.999885 0.941384
0.995069 0.998166 0.924629
0.999426 1.00143 0.994212
1.00005 1.00208 0.992591
1.00029 1.00208 0.992048
0.995617 1.00043 0.993744
0.99689 1.00251 0.999209
1.00011 1.00203 0.992426
0.999489 1.00157 0.993878
0.999441 1.00185 0.993759
0.997791 1.00171 0.997795
0.995306 0.999546 0.995465
0.99806 1.00153 0.996734
0.995888 1.00127 0.99454
0.994322 1.00146 0.957529
0.993452 1.0017 0.979857
0.993343 1.00102 0.98755
0.995536 1.00021 1.0017
0.995285 0.99884 0.979906
0.993751 1.00113 0.975296
0.996723 1.00005 0.956014
0.995135 0.999879 0.941573
0.995165 1.00342 0.942748
0.994586 0.998092 0.914715
0.995786 1.00134 0.998332
0.994388 1.00163 0.956664
0.995169 0.99921 0.92661
0.994979 0.999022 0.978056
0.997892 0.999026 0.938144
0.99627 1.00005 0.956167
0.997194 0.999131 0.994797
0.994862 0.998525 0.93569
0.998262 0.996982 0.939775
0.998326 0.99941 0.954432
0.994872 0.999231 0.977964
0.996777 1.00243 0.999331
0.998963 0.998746 0.998497
1.00246 0.99807 0.9932
0.997764 1.00363 0.993941
1.00081 1.00234 0.990464
1.00318 0.999229 0.988637
1.00112 1.00499 0.988164
1.00245 1.00317 0.986719
1.00424 0.999693 0.986845
1.00222 1.00497 0.985894
1.00374 1.00222 0.985423
1.00495 0.998796 0.986467
1.00501 0.998672 0.98664
1.0038 1.00254 0.985147
1.00444 1.00049 0.985854
1.0022 1.00423 0.986575
1.00261 1.00447 0.985454
1.00327 1.0035 0.985042
1.00099 1.00375 0.989118
1.00093 1.004 0.988778
1.00119 1.00446 0.988134
1.0004 1.00329 0.990652
1.00037 1.0043 0.989716
1.00041 1.00438 0.989535
0.999957 1.00143 0.993272
1.00011 1.00289 0.991596
0.999939 1.00402 0.990794
0.999634 0.998721 0.997031
0.999956 1.00062 0.99409
1.00009 1.00201 0.992515
0.999561 0.997292 0.998271
0.999735 0.998409 0.996946
1.00001 1.0001 0.994539
0.999834 0.99816 0.996781
0.999634 0.997075 0.999277
0.999719 0.996906 0.999285
1.00016 1.00204 0.992311
1.00031 1.00111 0.993016
1.00019 1.00174 0.99259
1.00023 1.00003 0.994199
1.00032 1.00096 0.993144
0.999979 0.998146 0.996501
1.00024 0.999933 0.994267
1.00033 1.0009 0.993193
0.999843 0.996831 0.999234
1.00003 0.997962 0.996592
1.00024 0.99984 0.994385
0.999909 0.99662 0.999268
1.00007 0.997772 0.996705
0.999966 0.996436 0.999298
0.99469 1.00081 0.958333
0.99369 1.00146 0.974999
0.993566 1.00097 0.982689
1.00003 1.00275 0.991913
1.00024 1.00156 0.992713
1.00008 1.00223 0.992292
1.00011 1.00208 0.992431
1.00008 1.00249 0.992076
1.00005 1.00259 0.992035
1.00004 1.00289 0.991744
0.999958 1.00258 0.99206
1.00017 1.00184 0.992541
1.00024 1.00195 0.992312
1.00004 1.00211 0.992526
0.999745 1.00251 0.993022
0.994968 0.999556 0.926779
0.995011 1.00303 0.94319
0.994225 1.00298 0.957047
0.995073 0.999855 0.92872
0.995252 0.999934 0.942285
0.995148 1.00009 0.954756
0.996066 0.997995 0.970613
0.996345 0.995335 0.978581
0.994807 0.998151 0.91942
0.995504 1.00004 0.95621
0.997371 0.999897 0.937027
0.99563 0.997553 0.979389
0.995847 1.00003 0.961118
0.998316 0.998958 0.936012
0.999209 1.00052 0.995537
0.999585 1.00137 0.99419
1.00001 1.00216 0.992604
0.994911 0.999484 0.995613
0.9978 1.00093 0.99767
0.999451 1.00185 0.993771
0.998719 1.0013 0.996555
0.995711 1.00132 0.994737
0.997788 1.00085 0.994612
0.994799 0.999842 0.932614
0.994242 1.00118 0.96152
0.993366 1.00157 0.981477
0.995799 1.00158 0.998635
0.994894 0.999029 0.979006
0.99438 1.00195 0.95651
0.995289 1.0001 0.956455
0.998242 0.998546 0.93347
0.995222 0.999286 0.928197
0.997226 0.999257 0.99486
0.994883 0.998409 0.936691
0.999095 0.996493 0.936056
0.995024 0.99932 0.973914
0.997136 0.999356 0.959567
0.998636 0.998742 0.995238
0.999938 0.995224 0.935512
0.998472 0.998449 0.960042
0.995264 0.999359 0.972804
0.998702 0.998814 0.998574
1.00188 0.997755 0.993943
1.00377 0.997119 0.991049
1.00024 1.00263 0.99091
1.00312 0.999688 0.988563
1.00467 0.996822 0.988745
1.00249 1.00331 0.98678
1.00415 0.999862 0.986861
1.00495 0.997521 0.987874
1.00379 1.00224 0.985459
1.005 0.998783 0.986455
1.0051 0.997491 0.98762
1.00513 0.998025 0.987072
1.0048 1.00002 0.985923
1.005 0.998673 0.986627
1.00318 1.00284 0.985702
1.00379 1.00244 0.985282
1.00437 1.00051 0.985892
1.00168 1.00354 0.988063
1.00201 1.00421 0.98666
1.00243 1.00445 0.985322
1.00092 1.00305 0.989962
1.00105 1.00372 0.989091
1.00088 1.0039 0.989029
1.00012 1.00216 0.992276
1.00044 1.00327 0.99066
1.0003 1.00423 0.989812
0.999595 0.999163 0.996145
0.999989 1.0014 0.993254
1.00016 1.00284 0.991599
0.999423 0.997563 0.999242
0.999646 0.998774 0.9965
0.999956 1.00064 0.994072
0.999539 0.997289 0.999261
0.999742 0.998425 0.996693
0.999622 0.997119 0.999273
1.00015 1.00235 0.992111
1.00018 1.00204 0.992303
1.00027 1.00141 0.992776
1.00016 1.0002 0.99414
1.00029 1.00112 0.993021
1.00019 1.00175 0.992555
0.999917 0.998311 0.996453
1.00022 1.00004 0.994199
1.00031 1.00096 0.993144
0.999774 0.99701 0.999213
0.999977 0.998144 0.996504
1.00024 0.99995 0.994264
0.999849 0.9968 0.999242
1.00003 0.997959 0.996598
0.999916 0.996587 0.999275
0.994858 0.999501 0.929835
0.994635 1.00085 0.958146
0.993642 1.00152 0.975
0.999984 1.00284 0.991869
1.00015 1.00317 0.991425
0.999956 1.00316 0.991618
1.00012 1.00208 0.992464
1.00011 1.00243 0.99212
0.999998 1.00261 0.991992
1.00001 1.00258 0.992031
1.00001 1.00293 0.991709
0.999882 1.00358 0.991418
1.00015 1.00164 0.992726
1.00007 1.00209 0.992484
0.999727 1.00232 0.992981
0.99965 0.996973 0.934321
0.994924 0.999607 0.923977
0.995208 1.00314 0.942685
0.994646 0.99814 0.914219
0.996019 0.999544 0.940756
0.996022 1 0.957811
0.996018 0.995166 0.976181
0.995326 0.997669 0.977605
0.997784 0.998863 0.93749
0.996325 1.00001 0.95636
0.995848 0.99784 0.979059
0.997855 0.99956 0.954404
1.00145 0.999622 0.992989
0.999409 1.00041 0.99535
0.999693 1.00129 0.994176
0.995285 1.00171 0.994911
0.999143 1.00116 0.996373
0.998148 1.00115 0.994013
1.0011 0.999353 0.989896
0.999967 0.994871 0.937789
0.994817 1.00006 0.934716
0.994169 1.00097 0.965466
0.997291 0.999212 0.994987
0.994859 0.999316 0.973765
0.994897 0.998709 0.936775
0.997237 0.999198 0.954089
0.999929 0.997904 0.940643
0.998544 0.999 0.993713
0.999961 0.99529 0.93762
1.00021 0.997098 0.954087
0.99532 0.999076 0.975466
0.999392 0.997391 0.994839
1.0004 0.996427 0.957772
0.995856 1.00061 0.978211
1.00126 0.997387 0.994677
1.00363 0.996754 0.991017
1.00501 0.995287 0.990083
1.00305 1.00009 0.988488
1.00457 0.996809 0.988744
1.00486 0.995892 0.989453
1.00403 0.99995 0.986878
1.0049 0.997492 0.98783
1.0051 0.996204 0.988825
1.00504 0.99877 0.986445
1.00509 0.997456 0.987642
1.00513 0.996845 0.988203
1.00513 0.997609 0.987559
1.00513 0.997954 0.987146
1.00503 0.998658 0.986719
1.00439 1.00075 0.985973
1.00483 0.999893 0.985927
1.00499 0.998674 0.986614
1.00269 1.00277 0.986745
1.00319 1.00292 0.985826
1.00379 1.00231 0.985418
1.0014 1.00288 0.989216
1.00172 1.00353 0.98803
1.00182 1.00422 0.986744
1.00041 1.00236 0.991528
1.00097 1.00302 0.989957
1.00111 1.0037 0.989064
0.999612 0.999756 0.995498
1.00016 1.00208 0.992273
1.00049 1.00323 0.990668
0.9994 0.997841 0.999162
0.999593 0.99924 0.996109
1.00002 1.00137 0.993237
0.999453 0.997599 0.998714
0.999654 0.998796 0.996485
0.99953 0.997371 0.999247
1.0002 1.0027 0.99165
1.0001 1.00241 0.992087
1.00018 1.00188 0.992469
1.0002 1.00205 0.992294
1.00025 1.00143 0.992779
1.00008 1.00048 0.993997
0.999842 0.998486 0.996424
1.00016 1.0002 0.994145
1.00026 1.00115 0.993026
0.999697 0.997178 0.9992
0.999914 0.998309 0.996454
1.00022 1.00005 0.9942
0.999781 0.996985 0.999219
0.999974 0.998144 0.996508
0.999855 0.996765 0.99925
0.999915 0.995128 0.939052
0.994909 0.999922 0.929757
0.994573 1.00089 0.957948
0.999936 1.00294 0.991824
0.999931 1.00331 0.991492
1.00005 1.00314 0.991538
1.00051 1.00332 0.990606
0.999899 1.00378 0.991159
1.00004 1.0026 0.992004
1 1.00294 0.991673
0.99984 1.00343 0.991469
0.999828 1.00384 0.990625
1.00032 1.00237 0.991727
1.00314 1.0004 0.988613
0.999876 1.00184 0.992985
0.999774 1.00211 0.992939
1.00028 0.997368 0.957106
0.998983 0.997027 0.936126
0.994897 0.999504 0.924709
0.99814 0.999286 0.93242
0.995757 1.00027 0.957622
0.995602 0.997809 0.980097
0.995594 0.997892 0.981055
0.997061 0.999482 0.96072
0.997387 0.999824 0.977346
1.00379 0.997413 0.990372
1.00111 0.999435 0.993006
0.999597 1.00033 0.995158
0.998468 1.00133 0.993454
1.00183 1.00036 0.988569
1.0005 0.995489 0.955001
0.999953 0.995223 0.940118
0.994839 1.00013 0.936862
0.998401 0.999314 0.992165
0.99487 0.999192 0.972983
0.999933 0.995174 0.938268
0.999156 0.999008 0.960107
0.999247 0.99845 0.995088
1.00158 0.995478 0.957805
0.995711 0.99986 0.975016
1.00082 1.00092 0.991872
0.999988 0.997473 0.98256
1.00351 0.996394 0.990994
1.005 0.995157 0.989849
1.00507 0.994978 0.990099
1.00447 0.996842 0.98874
1.00477 0.995919 0.989436
1.00507 0.995032 0.989919
1.00487 0.997473 0.987785
1.0051 0.996147 0.988817
1.00511 0.995875 0.989201
1.00507 0.997412 0.987664
1.00513 0.996859 0.988175
1.00513 0.996978 0.988226
1.00514 0.997503 0.987607
1.00507 0.998172 0.987178
1.00513 0.997883 0.98722
1.00505 0.99864 0.986721
1.00477 0.999356 0.986587
1.00377 1.00123 0.986363
1.00437 1.00075 0.985948
1.00486 0.999775 0.98593
1.00212 1.00252 0.988269
1.00263 1.00282 0.986856
1.00319 1.00301 0.985951
1.00074 1.0023 0.99094
1.00145 1.00287 0.989194
1.00176 1.00352 0.987996
0.999723 1.0003 0.994739
1.00044 1.00232 0.991534
1.001 1.00302 0.989951
0.999412 0.998169 0.999032
0.999617 0.999816 0.995468
1.00021 1.002 0.992272
0.999423 0.997899 0.999126
0.999589 0.999316 0.996072
0.999464 0.99765 0.999194
1.00061 1.00293 0.990706
1.00022 1.00264 0.991647
1.0002 1.00233 0.991922
1.00006 1.00245 0.992063
1.00016 1.00195 0.9924
1.00003 1.00094 0.993613
1.00023 1.00144 0.992781
1.00009 1.00046 0.994006
0.999754 0.998712 0.996364
0.999611 0.997359 0.999189
0.999838 0.998481 0.996426
1.00016 1.0002 0.994149
0.999706 0.997159 0.999204
0.999911 0.998308 0.996456
0.999788 0.996956 0.999225
1.00147 0.995254 0.959545
0.99994 0.995277 0.937694
0.994934 1.00042 0.928405
0.999903 1.00345 0.991368
0.999959 1.00309 0.991651
0.99992 1.00376 0.991205
1.00045 1.00329 0.99066
1.00085 1.00364 0.989582
1.00001 1.00372 0.990729
0.999797 1.0033 0.99152
1.0001 1.00394 0.9903
1.00026 1.00266 0.991471
1.00111 1.00238 0.989661
1.00325 1.00048 0.988995
1.00421 0.998813 0.987607
1.00275 1.00044 0.988992
0.999565 1.00218 0.993244
0.996583 0.999954 0.976322
1.00015 0.997003 0.956686
0.998709 0.997318 0.940701
0.998865 0.999759 0.954327
0.995383 0.998045 0.982414
0.997781 0.99931 0.981674
1.0017 0.998501 0.991457
1.00367 0.997432 0.990715
1.00107 0.999176 0.993021
1.00307 1.00147 0.987201
0.998618 0.996822 0.978019
1.00112 0.995112 0.96121
0.999929 0.995653 0.936149
0.999179 0.999242 0.995287
0.995467 1.00005 0.977209
1.00109 0.995279 0.957861
1.00083 1.00037 0.992012
0.999205 0.997497 0.981317
1.00353 1.00112 0.989243
1.0044 0.995873 0.989868
1.00495 0.995037 0.989608
1.00505 0.994959 0.990045
1.00507 0.995009 0.990166
1.0047 0.995951 0.989423
1.00506 0.995155 0.989879
1.00509 0.995294 0.989798
1.00511 0.996098 0.988808
1.00512 0.995904 0.989168
1.00513 0.996548 0.98871
1.00514 0.996879 0.988147
1.00513 0.996987 0.988153
1.00511 0.997813 0.987376
1.00513 0.997396 0.987655
1.00507 0.998085 0.987242
1.0049 0.998847 0.986878
1.00507 0.998623 0.986723
1.00479 0.999324 0.986575
1.00434 0.999987 0.986838
1.00303 1.0014 0.987484
1.0037 1.00133 0.986447
1.00435 1.00073 0.985922
1.00127 1.00208 0.990214
1.00214 1.0025 0.988267
1.00259 1.00288 0.986968
0.999828 1.00079 0.994052
1.00077 1.00232 0.990932
1.0015 1.00286 0.989172
0.999463 0.998549 0.998839
0.999753 1.00031 0.994728
1.00048 1.00228 0.99154
0.999449 0.998243 0.998971
0.999623 0.999877 0.995438
0.999452 0.997961 0.999086
1.00095 1.00332 0.989702
1.00064 1.00291 0.990747
1.00049 1.00258 0.991219
1.00021 1.00262 0.991643
1.00022 1.00237 0.991842
1.00009 1.00145 0.992995
1.00015 1.00202 0.992331
1.00003 1.00093 0.993623
0.999663 0.999039 0.996199
1.0001 1.00044 0.994013
0.999752 0.998692 0.996372
0.999529 0.997566 0.999172
0.999622 0.997335 0.999193
0.999835 0.998475 0.996429
0.999713 0.997139 0.999207
0.997666 0.998451 0.977827
1.00129 0.995724 0.954132
0.999911 0.995174 0.940727
1.0019 1.00296 0.988393
0.999948 1.00375 0.991251
1.00039 1.00327 0.990713
1.0001 1.0038 0.990653
1.00079 1.00375 0.989527
1.00093 1.00249 0.990243
1.00036 1.00404 0.989975
1.00029 1.00289 0.991215
1.00128 1.0023 0.989892
1.0033 1.00051 0.988556
1.00434 0.999278 0.987144
1.00458 0.997338 0.988604
1.00431 0.998895 0.987225
1.00243 1.00041 0.989372
1.00058 0.998927 0.993559
0.996849 0.999854 0.974899
0.999632 0.997343 0.956682
0.997914 0.998457 0.980054
1.0017 0.997419 0.993429
1.00314 0.997486 0.991048
1.00268 0.996305 0.989014
0.99789 0.996038 0.980552
1.00061 0.99524 0.954916
1.00072 0.999956 0.992149
0.999299 0.997478 0.979984
1.00346 0.999172 0.989446
1.00434 0.995848 0.989806
1.00504 0.996114 0.989979
1.00491 0.996189 0.990466
1.00507 0.994976 0.98999
1.00507 0.994999 0.990202
1.00511 0.995184 0.989989
1.00505 0.995262 0.989837
1.0051 0.995359 0.989796
1.00513 0.996153 0.989023
1.00512 0.995934 0.989137
1.00512 0.996546 0.988654
1.00515 0.99764 0.987501
1.00512 0.996995 0.98808
1.0051 0.997824 0.987393
1.005 0.99859 0.986851
1.00506 0.998004 0.987306
1.0049 0.998764 0.986902
1.00458 0.999385 0.986865
1.00481 0.999292 0.986564
1.00434 0.999951 0.986755
1.0037 1.00046 0.987462
1.002 1.0014 0.989576
1.00299 1.00148 0.987575
1.00363 1.00144 0.986531
1.00002 1.00106 0.993429
1.00129 1.00209 0.990204
1.00216 1.00248 0.988264
0.999457 0.998997 0.998633
0.999928 1.00068 0.994041
1.00081 1.00232 0.990924
0.999486 0.998632 0.998767
0.999785 1.00031 0.994716
0.999489 0.998308 0.998903
1.00163 1.00317 0.988422
1.00093 1.00331 0.989716
1.00089 1.00279 0.990402
1.00066 1.00288 0.990787
1.0005 1.00256 0.991236
1.00022 1.0019 0.992358
1.00024 1.00241 0.991761
1.00005 1.00153 0.992995
0.999595 0.999501 0.995841
1.00003 1.00094 0.993632
0.999667 0.998991 0.996219
0.999472 0.99779 0.999129
0.999752 0.998674 0.996381
0.999536 0.997532 0.999179
0.999631 0.997314 0.999197
1.00146 0.998414 0.99141
0.99773 0.998063 0.974357
1.00047 0.995787 0.959973
1.00212 1.00179 0.98873
1.00391 1.00068 0.986783
1.00166 1.00293 0.988568
1.0002 1.00387 0.990575
1.00074 1.00387 0.989466
1.00125 1.00238 0.990009
1.0041 0.999603 0.987666
1.0014 1.00225 0.990123
1.00309 1.00059 0.988118
1.00422 0.999352 0.987334
1.00506 0.997987 0.987272
1.00496 0.995997 0.989289
1.00466 0.997457 0.988401
1.00435 0.99906 0.986847
1.00095 0.998816 0.993687
0.996507 1.00043 0.972908
1.00188 0.99639 0.995407
1.00507 0.995641 0.990514
1.00248 0.996761 0.989168
0.998568 0.995931 0.977188
1.0035 0.997467 0.989656
1.0043 0.996127 0.989748
1.00503 0.995552 0.990142
1.00495 0.995749 0.990267
1.00504 0.995179 0.990026
1.00514 0.995443 0.989443
1.00507 0.994953 0.990238
1.00511 0.99515 0.989975
1.00514 0.996065 0.989088
1.0051 0.99543 0.989794
1.00513 0.996254 0.988915
1.00514 0.997334 0.987844
1.00512 0.99654 0.988597
1.00514 0.997652 0.987513
1.0051 0.998522 0.986759
1.00509 0.997835 0.987409
1.005 0.998591 0.986859
1.00473 0.999213 0.986772
1.00491 0.998679 0.986925
1.00457 0.999358 0.986854
1.00399 0.999934 0.987431
1.00434 0.999916 0.986672
1.00365 1.00044 0.987419
1.00259 1.00062 0.989268
1.0003 1.00093 0.992983
1.002 1.00141 0.989574
1.00295 1.00155 0.987666
0.999393 0.999522 0.998449
1.00011 1.00098 0.993412
1.0013 1.00212 0.990195
0.999468 0.999111 0.998568
1 1.00062 0.994028
0.999513 0.998719 0.998696
1.00283 1.00208 0.986989
1.00162 1.00314 0.988297
1.00152 1.00275 0.989233
1.0009 1.00329 0.98973
1.00083 1.00279 0.990425
1.00042 1.00224 0.991719
1.00049 1.00254 0.991254
1.00017 1.00197 0.992355
0.999635 1 0.995274
1.00002 1.00158 0.992996
0.999609 0.999428 0.995868
0.999455 0.99806 0.999026
0.999671 0.998945 0.99624
0.999469 0.997753 0.999146
0.999544 0.997502 0.999185
1.00509 0.99558 0.989712
1.0016 0.998065 0.990387
0.997487 0.997206 0.975082
1.0044 0.99956 0.987084
1.00181 1.00147 0.989627
1.00489 0.998792 0.986712
1.00399 1.0007 0.986731
1.00142 1.00288 0.988751
1.00508 0.998142 0.987009
1.00157 1.00224 0.989782
1.00426 0.99961 0.987265
1.00512 0.997086 0.987929
1.00422 0.999379 0.987525
1.00502 0.997917 0.987321
1.00492 0.996047 0.989391
1.00458 0.997537 0.988189
1.00118 0.998668 0.993849
1.00514 0.995802 0.989073
1.00508 0.995905 0.990513
1.0023 0.996876 0.989301
1.00499 0.994896 0.990312
1.00495 0.995344 0.99007
1.00503 0.99509 0.990176
1.00514 0.99547 0.989481
1.00518 0.996048 0.988987
1.00511 0.9951 0.98996
1.00514 0.996054 0.989094
1.00511 0.997138 0.988107
1.00513 0.996363 0.988806
1.00514 0.99742 0.987743
1.00514 0.99849 0.986733
1.00514 0.997666 0.987526
1.00509 0.998526 0.986769
1.00486 0.999158 0.986589
1.005 0.998593 0.986868
1.00473 0.999213 0.986774
1.00416 0.999717 0.987317
1.00456 0.999328 0.986844
1.00397 0.999943 0.987438
1.00291 1.00019 0.989132
1.0036 1.00043 0.987375
1.00258 1.00064 0.989264
1.00054 1.00062 0.993929
0.999485 0.999905 0.996064
1.00039 1.00087 0.993519
1.00198 1.00144 0.989571
0.999422 0.999648 0.99838
1.00023 1.00085 0.993392
0.999481 0.999207 0.998497
1.00511 0.998581 0.986807
1.00408 1.0001 0.98675
1.003 1.00204 0.986874
1.0023 1.0023 0.988155
1.00162 1.00312 0.988172
1.00146 1.00277 0.989261
1.00082 1.00227 0.990968
1.00077 1.0028 0.990449
1.00037 1.00225 0.991731
0.999779 1.00048 0.994571
1.00012 1.00205 0.992353
0.999624 0.999965 0.995289
0.999447 0.998429 0.998851
0.999622 0.999351 0.995892
0.999436 0.998007 0.999065
0.999468 0.997716 0.999161
1.00515 0.996339 0.988582
1.00511 0.995672 0.990122
1.00185 0.99782 0.989363
1.00514 0.998269 0.986827
1.00422 0.999605 0.987365
1.00151 1.00117 0.990508
1.00492 0.998919 0.986704
1.00408 1.00072 0.986678
1.0051 0.997291 0.988072
1.00508 0.998143 0.986961
1.00443 0.99964 0.986861
1.00511 0.997075 0.987928
1.00501 0.997868 0.98737
1.00492 0.996094 0.98951
1.00516 0.996301 0.988916
1.00516 0.995784 0.98913
1.00508 0.996159 0.990516
1.00506 0.995003 0.990323
1.00515 0.995504 0.98952
1.00517 0.995917 0.989127
1.00514 0.997174 0.988068
1.00514 0.996056 0.9891
1.00512 0.997157 0.988077
1.00515 0.998377 0.986846
1.00515 0.997505 0.987642
1.00513 0.99849 0.986747
1.00495 0.999204 0.986379
1.00508 0.99853 0.986779
1.00485 0.999158 0.986594
1.00431 0.999647 0.987116
1.00472 0.999213 0.986776
1.00416 0.99972 0.987318
1.00307 1.00002 0.988985
1.00395 0.999952 0.987445
1.00291 1.00018 0.989126
1.00074 1.00026 0.99398
1.00256 1.00066 0.98926
1.00067 1.00056 0.993881
0.999535 1.00013 0.995945
0.999403 1.00008 0.997128
1.00053 1.00079 0.993975
0.999448 0.999764 0.99831
1.00513 0.998494 0.986728
1.00474 0.999134 0.986958
1.00507 0.998485 0.986835
1.00324 1.00112 0.987523
1.00416 1.00016 0.986705
1.00317 1.00199 0.986759
1.0023 1.00231 0.988152
1.00143 1.00197 0.990095
1.0014 1.00279 0.989289
1.00078 1.00225 0.990985
0.999964 1.00086 0.993876
1.00031 1.00227 0.991743
0.999713 1.00052 0.994582
0.99939 0.99897 0.998634
0.999613 0.999933 0.995304
0.999429 0.998353 0.998915
0.999427 0.997959 0.9991
1.00512 0.996747 0.988449
1.00515 0.996332 0.988584
1.00513 0.995756 0.990508
1.00514 0.99781 0.987409
1.00514 0.99829 0.986853
1.00403 0.999644 0.987652
1.00494 0.999038 0.986695
1.0051 0.99729 0.987957
1.00507 0.998146 0.986913
1.0051 0.997076 0.987928
1.00513 0.997025 0.988232
1.00515 0.99635 0.988831
1.00517 0.995763 0.989188
1.00512 0.997518 0.987697
1.00516 0.995782 0.989265
1.00514 0.997185 0.988054
1.00514 0.998161 0.987169
1.00512 0.997175 0.988048
1.00514 0.998373 0.986855
1.00505 0.999153 0.986243
1.00512 0.998492 0.98676
1.00494 0.999205 0.986393
1.00445 0.999694 0.98682
1.00485 0.999158 0.986598
1.00431 0.999646 0.987115
1.0032 0.999977 0.988802
1.00416 0.999722 0.987318
1.00308 1.00001 0.98898
1.00088 1.00003 0.993995
1.00291 1.00018 0.989119
1.00084 1.00021 0.993932
0.999586 1.00006 0.995996
1.0008 1.00047 0.993841
0.999367 1.0003 0.996041
0.999187 1.00025 0.998378
1.00514 0.998437 0.986733
1.00489 0.998928 0.986785
1.00515 0.99847 0.986736
1.00397 0.999998 0.987613
1.00471 0.999047 0.986925
1.00504 0.998392 0.986862
1.00223 1.00119 0.989348
1.00328 1.00113 0.987495
1.00424 1.00022 0.986661
1.00229 1.00233 0.988149
1.00142 1.00193 0.99011
1.00018 1.00106 0.993274
1.00074 1.00223 0.991002
0.999858 1.00096 0.993894
0.9993 0.999624 0.998434
0.999651 1.00058 0.994592
0.999389 0.998851 0.998715
0.999417 0.998271 0.998974
1.00513 0.997388 0.987778
1.00512 0.996676 0.988476
1.00515 0.996326 0.988586
1.00513 0.997787 0.98743
1.00514 0.998314 0.98688
1.00511 0.997289 0.987843
1.00511 0.997562 0.987751
1.00513 0.997088 0.988184
1.00515 0.996397 0.988746
1.00513 0.997498 0.987768
1.00512 0.998149 0.987138
1.00514 0.997196 0.988039
1.00514 0.998231 0.987038
1.00511 0.998925 0.986393
1.00514 0.998366 0.986864
1.00503 0.999153 0.986258
1.00462 0.999692 0.986488
1.00492 0.999201 0.986406
1.00445 0.999689 0.986822
1.00332 0.999986 0.988552
1.00431 0.999645 0.987115
1.00321 0.999963 0.9888
1.00097 0.999984 0.993885
1.00309 0.999991 0.988975
1.00096 1.00001 0.993931
0.999666 0.999963 0.995984
1.00094 1.00016 0.993893
0.999425 1.00015 0.996101
0.999199 1.00052 0.996122
1.00515 0.998089 0.987158
1.00501 0.998896 0.9865
1.00515 0.998358 0.986805
1.0043 0.999448 0.987439
1.00489 0.998949 0.986807
1.00516 0.998447 0.986745
1.00287 1.00031 0.989021
1.00399 0.999907 0.987472
1.00468 0.998965 0.986892
1.00047 1.00087 0.992861
1.00224 1.00117 0.989353
1.00332 1.00115 0.987466
1.00141 1.00192 0.990125
1.00007 1.00116 0.993298
0.999291 1.00021 0.99827
0.999753 1.00108 0.99391
0.9993 0.999481 0.998507
0.999389 0.998723 0.998786
1.00512 0.99767 0.987572
1.00512 0.997368 0.987808
1.00512 0.996606 0.988503
1.00512 0.997765 0.987451
1.00512 0.998177 0.98712
1.00512 0.997566 0.987766
1.00513 0.997149 0.988136
1.00513 0.997483 0.987839
1.00512 0.998104 0.98718
1.0051 0.99884 0.986576
1.00514 0.998301 0.986907
1.0051 0.99901 0.98633
1.00476 0.999506 0.986334
1.00502 0.999158 0.986274
1.00461 0.999694 0.986498
1.00351 0.999987 0.988208
1.00444 0.99969 0.986825
1.00334 0.999975 0.988549
1.00107 1.00003 0.992553
1.00322 0.999946 0.988798
1.00104 0.999949 0.993266
0.999669 0.999972 0.998169
1.00103 0.999988 0.99387
0.999525 0.999986 0.996097
0.999276 1.00027 0.996189
1.00514 0.998065 0.987239
1.00507 0.998798 0.98654
1.00515 0.998136 0.987124
1.00453 0.999275 0.98686
1.00502 0.998902 0.986566
1.00516 0.998279 0.986877
1.00317 0.999794 0.988699
1.0043 0.999472 0.987432
1.00489 0.998965 0.98683
1.00077 1.00037 0.99276
1.00288 1.00026 0.988916
1.00401 0.99981 0.987331
0.99937 1.00048 0.998183
1.00041 1.00092 0.99288
1.00224 1.00116 0.989357
0.999972 1.00123 0.993323
0.999245 1.00007 0.99833
0.999294 0.999319 0.998582
1.00512 0.998139 0.987156
1.00512 0.997666 0.987579
1.00512 0.997348 0.987838
1.0051 0.998787 0.986579
1.00512 0.998135 0.987164
1.00512 0.997567 0.987782
1.00512 0.998055 0.987221
1.0051 0.99883 0.986576
1.00481 0.999398 0.986604
1.00509 0.999097 0.986267
1.00476 0.999575 0.986438
1.0037 0.999875 0.987708
1.00461 0.99969 0.986507
1.00351 0.999984 0.988208
1.00119 1.00007 0.992277
1.00335 0.999968 0.988545
1.00108 1.00002 0.992543
0.999703 0.999975 0.998127
1.00105 0.999935 0.992707
0.999614 0.999942 0.997121
0.999387 1 0.996205
1.00514 0.998262 0.987033
1.00508 0.998766 0.986535
1.00514 0.99804 0.987237
1.00465 0.999295 0.986795
1.00508 0.998823 0.986476
1.00514 0.998182 0.987089
1.00338 0.999659 0.988436
1.00454 0.999347 0.987003
1.00503 0.998908 0.986632
1.00096 0.999979 0.992775
1.00318 0.999799 0.988678
1.0043 0.999495 0.987426
0.999496 1.00038 0.998173
1.00075 1.00037 0.992769
1.00289 1.00021 0.988809
0.999327 1.00037 0.998205
1.00034 1.00095 0.992907
0.999205 0.999931 0.998394
1.0051 0.998668 0.986718
1.00512 0.998154 0.987115
1.00512 0.99766 0.987586
1.00478 0.999287 0.98675
1.0051 0.998746 0.986638
1.00511 0.9981 0.987208
1.0051 0.99882 0.986577
1.00481 0.999404 0.986599
1.00377 0.999781 0.987657
1.00475 0.999647 0.986542
1.00369 0.999911 0.987821
1.00133 1.00007 0.99202
1.00351 0.999977 0.988208
1.0012 1.00008 0.992265
0.999775 0.99999 0.998047
1.00108 1.00002 0.992533
0.999727 0.999974 0.998099
0.999671 0.999871 0.995952
1.00508 0.998754 0.98668
1.00514 0.998182 0.987055
1.00466 0.999288 0.986806
1.00507 0.998776 0.986536
1.00514 0.998014 0.987236
1.00352 0.999679 0.988485
1.00465 0.999291 0.986792
1.00509 0.998849 0.986413
1.0011 0.999845 0.992645
1.00339 0.999706 0.98853
1.00455 0.999424 0.987146
0.999643 1.00013 0.998157
1.00096 0.99997 0.992782
1.00319 0.999803 0.988656
0.999466 1.00035 0.998167
1.00073 1.00037 0.992775
0.999253 1.00032 0.998242
1.00473 0.999237 0.986893
1.0051 0.998689 0.986693
1.00512 0.99817 0.987075
1.00373 0.999722 0.987785
1.00479 0.999301 0.986749
1.0051 0.998702 0.986696
1.00481 0.999411 0.986595
1.00378 0.999778 0.987647
1.00141 1.00004 0.991915
1.00367 0.999943 0.987934
1.00134 1.00007 0.992013
0.999876 1.00001 0.997957
1.00121 1.00008 0.992254
0.999811 0.999994 0.998014
0.999753 0.999974 0.998067
1.00466 0.999278 0.986839
1.00507 0.998671 0.986715
1.00515 0.998102 0.987077
1.00355 0.999698 0.988403
1.00466 0.99929 0.986797
1.00506 0.998785 0.986537
1.00121 0.999878 0.992426
1.00351 0.999689 0.98848
1.00465 0.999287 0.986789
0.999767 0.999983 0.99809
1.0011 0.999848 0.992654
1.0034 0.999745 0.988623
0.999602 1.00016 0.998164
1.00095 0.999972 0.992789
0.999437 1.00033 0.998164
1.00368 0.999784 0.988102
1.00475 0.999206 0.98678
1.0051 0.998708 0.986668
1.00139 0.999993 0.991982
1.00374 0.999717 0.987768
1.00479 0.999314 0.986747
1.00378 0.999775 0.987639
1.0014 1.00003 0.991918
0.999946 1.00001 0.997888
1.00133 1.00007 0.992006
0.999902 1.00001 0.997924
0.999841 0.999997 0.997982
1.0036 0.999752 0.988276
1.00467 0.999221 0.986812
1.00506 0.99859 0.986749
1.00132 0.999976 0.993387
1.00356 0.999699 0.988396
1.00465 0.999292 0.986788
0.999832 0.999947 0.998013
1.00121 0.999899 0.992431
1.00351 0.999698 0.988474
0.999724 1.00002 0.998119
1.00109 0.99986 0.992664
0.999575 1.00017 0.998165
1.00139 0.999991 0.992021
1.00368 0.999745 0.988007
1.00476 0.999172 0.986666
0.99995 1 0.997889
1.00139 0.999998 0.991984
1.00375 0.999715 0.987751
1.0014 1.00002 0.991919
0.999955 1.00001 0.997884
0.999936 1.00001 0.997903
1.00141 0.999998 0.993241
1.0036 0.999746 0.988277
1.00468 0.999164 0.986785
0.999626 0.999984 0.998201
1.00125 0.999985 0.992273
1.00357 0.999698 0.98839
0.99981 0.999967 0.998045
1.0012 0.999925 0.992436
0.99969 1.00004 0.998143
0.99992 1 0.995502
1.0014 0.999989 0.992629
1.00368 0.999708 0.987911
0.999946 1 0.997891
1.00138 1 0.991989
0.999963 1.00001 0.997873
0.999639 1.00001 0.995807
1.00134 0.999997 0.99272
1.0036 0.999742 0.988278
0.999732 0.999991 0.99691
1.00126 0.999988 0.992272
0.999782 0.999985 0.998073
0.999919 0.999998 0.997909
1.00134 0.999992 0.992091
0.999931 1 0.997899
0.999764 0.999998 0.996866
1.00129 0.999997 0.99218
0.999834 0.999979 0.998008
0.999897 0.999994 0.997933
0.99986 0.999988 0.997965

TENSORS stress float
0.00136972 -4.65615e-05 0.00011469
-4.65615e-05 0.000417113 -1.32808e-05
0.00011469 -1.32808e-05 0.00039617
0.00402426 -9.34571e-05 0.000107171
-9.34571e-05 0.00189734 6.62851e-06
0.000107171 6.62851e-06 0.0018877
0.00134921 2.99419e-05 6.1474e-05
2.99419e-05 0.000423622 -3.87594e-06
6.1474e-05 -3.87594e-06 0.000390868
0.001692 -3.37561e-05 0.000121848
-3.37561e-05 0.000569299 -9.1668e-06
0.000121848 -9.1668e-06 0.000549806
0.00153616 -4.51558e-05 0.000117203
-4.51558e-05 0.000500563 -1.25991e-05
0.000117203 -1.25991e-05 0.000479362
0.00120938 -3.01829e-05 0.000105375
-3.01829e-05 0.000327391 -1.17359e-05
0.000105375 -1.17359e-05 0.000310138
0.00127624 -6.46901e-06 9.50756e-06
-6.46901e-06 0.000313804 -7.43834e-06
9.50756e-06 -7.43834e-06 0.000245416
0.00389486 -0.000119267 6.15148e-06
-0.000119267 0.00182694 -7.13888e-07
6.15148e-06 -7.13888e-07 0.00181572
0.00480125 -0.000103733 2.45213e-05
-0.000103733 0.00231386 1.85892e-06
2.45213e-05 1.85892e-06 0.00229632
0.00405001 -0.000247218 -4.64908e-06
-0.000247218 0.00195437 4.03436e-06
-4.64908e-06 4.03436e-06 0.00191428
0.00133911 -9.52179e-06 9.09105e-05
-9.52179e-06 0.000389758 6.45899e-06
9.09105e-05 6.45899e-06 0.000378996
0.000754651 8.00744e-05 1.16854e-05
8.00744e-05 2.90751e-05 8.34552e-06
1.16854e-05 8.34552e-06 -2.87102e-05
0.00166495 -1.68072e-05 0.000138404
-1.68072e-05 0.000543626 1.57311e-06
0.000138404 1.57311e-06 0.000524321
0.00125112 6.26912e-06 1.71187e-05
6.26912e-06 0.000332567 1.79031e-06
1.71187e-05 1.79031e-06 0.000303098
0.00139479 7.23202e-05 -5.02298e-06
7.23202e-05 0.00045475 4.30801e-06
-5.02298e-06 4.30801e-06 0.000417715
0.00147615 -2.16692e-05 4.87028e-05
-2.16692e-05 0.000455819 -2.91162e-06
4.87028e-05 -2.91162e-06 0.000432843
0.00123914 3.1034e-05 5.27407e-05
3.1034e-05 0.000360476 -3.8573e-06
5.27407e-05 -3.8573e-06 0.000331907
0.00142015 6.02451e-06 5.59415e-05
6.02451e-06 0.000445724 -4.51196e-06
5.59415e-05 -4.51196e-06 0.000418656
0.00137672 -4.98961e-05 -2.34234e-05
-4.98961e-05 0.000354893 1.02644e-06
-2.34234e-05 1.02644e-06 0.000295707
0.00507761 -7.83052e-05 0.00014643
-7.83052e-05 0.0024477 -2.63722e-06
0.00014643 -2.63722e-06 0.00244298
0.00166895 -2.11407e-05 0.000124539
-2.11407e-05 0.000553557 -7.14168e-06
0.000124539 -7.14168e-06 0.000533801
0.00165453 -4.139e-05 0.000119699
-4.139e-05 0.000554757 -1.1047e-05
0.000119699 -1.1047e-05 0.000534665
0.00145351 -5.40528e-05 2.84424e-05
-5.40528e-05 0.000352313 -4.28271e-06
2.84424e-05 -4.28271e-06 0.000297081
0.00138889 -3.05154e-05 1.80991e-05
-3.05154e-05 0.000344341 -6.12366e-06
1.80991e-05 -6.12366e-06 0.000283552
0.00114611 1.7179e-05 8.39081e-05
1.7179e-05 0.000288884 -9.38131e-06
8.39081e-05 -9.38131e-06 0.000272433
0.00110204 -8.69994e-06 9.82756e-06
-8.69994e-06 0.000238053 -6.71229e-06
9.82756e-06 -6.71229e-06 0.000173964
0.00181468 -0.000149939 7.98058e-06
-0.000149939 0.000481418 -3.68892e-06
7.98058e-06 -3.68892e-06 0.00037762
0.00374679 -0.000140805 -8.1778e-05
-0.000140805 0.00174681 -3.84211e-06
-8.1778e-05 -3.84211e-06 0.00173346
0.00307083 -2.57064e-05 -6.88624e-05
-2.57064e-05 0.00135472 -2.40506e-06
-6.88624e-05 -2.40506e-06 0.00133333
0.00267297 -0.000104506 -4.49487e-05
-0.000104506 0.00116401 -1.70358e-06
-4.49487e-05 -1.70358e-06 0.00113636
0.00352075 -0.000120201 4.41003e-06
-0.000120201 0.00161095 -3.11655e-07
4.41003e-06 -3.11655e-07 0.0016036
0.000654354 6.89746e-05 -1.09581e-07
6.89746e-05 -2.09867e-05 -2.86582e-07
-1.09581e-07 -2.86582e-07 -7.81761e-05
0.00155972 4.45875e-05 0.000124496
4.45875e-05 0.000498303 8.45145e-06
0.000124496 8.45145e-06 0.000477941
0.00177796 7.0568e-05 0.000122188
7.0568e-05 0.000636482 1.1033e-05
0.000122188 1.1033e-05 0.000616483
0.00245758 0.000126747 7.5524e-05
0.000126747 0.000916989 8.85595e-06
7.5524e-05 8.85595e-06 0.000866156
0.00292794 -0.000134718 1.49986e-05
-0.000134718 0.00128152 1.47434e-06
1.49986e-05 1.47434e-06 0.00127299
0.00230652 0.000101517 6.37606e-05
0.000101517 0.000875918 8.63849e-06
6.37606e-05 8.63849e-06 0.00082521
0.000674077 3.3138e-05 1.06705e-05
3.3138e-05 -7.5915e-06 1.00785e-05
1.06705e-05 1.00785e-05 -5.75633e-05
0.000948541 0.000110508 4.93225e-06
0.000110508 8.83147e-05 2.27568e-06
4.93225e-06 2.27568e-06 -1.51397e-05
0.00256392 -8.75128e-05 5.09012e-05
-8.75128e-05 0.00106536 2.62069e-06
5.09012e-05 2.62069e-06 0.00107058
0.00515429 4.05593e-05 8.66773e-07
4.05593e-05 0.00248392 -1.00763e-06
8.66773e-07 -1.00763e-06 0.00248143
0.00315933 2.71085e-05 -5.48165e-05
2.71085e-05 0.00138755 -1.1694e-06
-5.48165e-05 -1.1694e-06 0.0013704
0.00518763 7.61951e-05 0.000149885
7.61951e-05 0.00250454 1.12577e-06
0.000149885 1.12577e-06 0.00250006
0.00134556 -1.87538e-05 1.20351e-05
-1.87538e-05 0.000385336 1.21447e-06
1.20351e-05 1.21447e-06 0.000354396
0.000752119 -2.52351e-07 1.56877e-05
-2.52351e-07 -6.70646e-05 2.15486e-06
1.56877e-05 2.15486e-06 -0.000129537
0.00482191 8.64422e-05 5.48823e-05
8.64422e-05 0.00231091 3.38051e-06
5.48823e-05 3.38051e-06 0.00229816
0.00247069 2.66652e-05 7.68071e-05
2.66652e-05 0.000893661 4.64253e-06
7.68071e-05 4.64253e-06 0.000849257
0.00122349 -4.01191e-05 -2.69699e-05
-4.01191e-05 0.000325378 2.98633e-06
-2.69699e-05 2.98633e-06 0.000297097
0.00134064 5.33356e-06 -1.80095e-05
5.33356e-06 0.000404789 3.46249e-06
-1.80095e-05 3.46249e-06 0.000375965
0.00131392 0.000111481 1.04678e-06
0.000111481 0.000423348 4.98392e-06
1.04678e-06 4.98392e-06 0.000380248
0.00142317 -7.48719e-05 -6.26579e-05
-7.48719e-05 0.000371782 8.68116e-06
-6.26579e-05 8.68116e-06 0.000318227
0.00328503 3.59345e-05 -5.84924e-05
3.59345e-05 0.0014638 -1.00557e-06
-5.84924e-05 -1.00557e-06 0.00143889
0.00147167 -2.96793e-05 5.01005e-05
-2.96793e-05 0.000453153 -1.81026e-06
5.01005e-05 -1.81026e-06 0.000428425
0.00113951 4.63879e-05 4.09463e-05
4.63879e-05 0.000296274 -2.97531e-06
4.09463e-05 -2.97531e-06 0.000273225
0.00146865 -1.37424e-05 5.11221e-05
-1.37424e-05 0.000457664 -4.01587e-06
5.11221e-05 -4.01587e-06 0.000434065
0.00149262 -5.63835e-05 -1.81665e-05
-5.63835e-05 0.000370971 6.42239e-07
-1.81665e-05 6.42239e-07 0.000318288
0.00124605 -2.96398e-05 -2.33213e-05
-2.96398e-05 0.000309365 3.65518e-07
-2.33213e-05 3.65518e-07 0.000250177
0.00145626 -6.33222e-05 -2.00626e-05
-6.33222e-05 0.000373795 1.10786e-06
-2.00626e-05 1.10786e-06 0.000318252
0.00189206 -0.000152745 -3.92333e-06
-0.000152745 0.000521201 1.08238e-06
-3.92333e-06 1.08238e-06 0.000416495
0.00511961 5.70288e-05 0.000139681
5.70288e-05 0.00246565 -4.03723e-09
0.000139681 -4.03723e-09 0.0024634
0.00167498 -7.14337e-06 0.000129352
-7.14337e-06 0.000552742 -4.86596e-06
0.000129352 -4.86596e-06 0.000532394
0.00233282 6.80806e-05 1.48618e-05
6.80806e-05 0.000828713 -1.32966e-06
1.48618e-05 -1.32966e-06 0.000771828
0.00143894 -5.87411e-05 2.8409e-05
-5.87411e-05 0.000342252 -3.83386e-06
2.8409e-05 -3.83386e-06 0.000285489
0.00145038 -4.81127e-05 2.49534e-05
-4.81127e-05 0.00035756 -5.09492e-06
2.49534e-05 -5.09492e-06 0.000301195
0.00194821 -9.94199e-05 8.86216e-06
-9.94199e-05 0.000472545 -2.08136e-06
8.86216e-06 -2.08136e-06 0.000378222
0.00148531 -0.000124332 1.06089e-05
-0.000124332 0.000254921 -3.9393e-06
1.06089e-05 -3.9393e-06 0.000152434
0.00115486 4.5487e-05 6.39036e-05
4.5487e-05 0.000280993 -7.73691e-06
6.39036e-05 -7.73691e-06 0.000267923
0.000887173 1.88371e-05 8.08338e-06
1.88371e-05 0.000138571 -5.1421e-06
8.08338e-06 -5.1421e-06 8.54352e-05
0.00158426 -0.000137956 5.57795e-06
-0.000137956 0.000411312 -3.15818e-06
5.57795e-06 -3.15818e-06 0.000309295
0.00125945 -0.000147584 5.2048e-06
-0.000147584 9.47308e-05 -1.98502e-06
5.2048e-06 -1.98502e-06 -3.70781e-05
0.00486281 -2.26846e-07 -0.00013125
-2.26846e-07 0.00233702 -7.51938e-06
-0.00013125 -7.51938e-06 0.00233292
0.00336098 -0.000129568 -6.91225e-05
-0.000129568 0.00152229 -2.80264e-06
-6.91225e-05 -2.80264e-06 0.00151459
0.00409206 -0.00014335 -9.09571e-05
-0.00014335 0.00194849 -5.79848e-06
-9.09571e-05 -5.79848e-06 0.00193047
0.000562562 6.52787e-05 -1.00859e-05
6.52787e-05 -6.72663e-05 -8.71129e-06
-1.00859e-05 -8.71129e-06 -0.000123978
0.0050828 5.51357e-05 -2.71736e-06
5.51357e-05 0.00244646 -9.13919e-07
-2.71736e-06 -9.13919e-07 0.00244373
0.00477939 -7.6314e-05 -6.49272e-06
-7.6314e-05 0.00231338 5.30865e-07
-6.49272e-06 5.30865e-07 0.00229901
0.000603575 0.000100846 -6.15746e-07
0.000100846 -0.000104861 -2.64035e-07
-6.15746e-07 -2.64035e-07 -0.00016976
0.00201024 -8.84384e-05 -2.84287e-05
-8.84384e-05 0.000766456 -2.45058e-07
-2.84287e-05 -2.45058e-07 0.000757474
0.000621638 0.000100518 -3.00765e-07
0.000100518 -5.12058e-05 -9.27354e-08
-3.00765e-07 -9.27354e-08 -0.000112467
0.00123746 1.26131e-05 1.77752e-05
1.26131e-05 0.000311744 2.68082e-07
1.77752e-05 2.68082e-07 0.000266969
0.000876989 0.000104408 2.84918e-07
0.000104408 4.77717e-05 -1.77282e-07
2.84918e-07 -1.77282e-07 -5.46603e-05
0.00285095 -9.41609e-05 6.40161e-05
-9.41609e-05 0.00122655 2.80981e-06
6.40161e-05 2.80981e-06 0.00122933
0.000645237 -6.9164e-05 -1.45284e-06
-6.9164e-05 -3.56414e-06 5.31195e-06
-1.45284e-06 5.31195e-06 -3.16063e-05
0.00072878 7.25489e-05 1.64524e-05
7.25489e-05 -5.83768e-05 7.69536e-06
1.64524e-05 7.69536e-06 -0.00012111
0.000770686 0.000111506 1.94766e-05
0.000111506 3.97116e-06 1.1487e-05
1.94766e-05 1.1487e-05 -6.22263e-05
0.00106376 0.000110893 9.95782e-06
0.000110893 2.0331e-06 4.15583e-06
9.95782e-06 4.15583e-06 -0.000108504
0.00173176 -3.55482e-05 3.53845e-05
-3.55482e-05 0.000593086 4.60413e-06
3.53845e-05 4.60413e-06 0.000560232
0.00100181 0.000120302 6.29711e-06
0.000120302 7.20477e-05 4.09794e-06
6.29711e-06 4.09794e-06 -3.49185e-05
0.000926893 8.87906e-05 4.49528e-06
8.87906e-05 0.00011431 2.62613e-06
4.49528e-06 2.62613e-06 1.42192e-05
0.000883547 0.000133131 1.76818e-06
0.000133131 1.56591e-05 -2.51963e-08
1.76818e-06 -2.51963e-08 -0.000112441
0.00232124 -7.98813e-05 3.92247e-05
-7.98813e-05 0.000925559 2.68504e-06
3.92247e-05 2.68504e-06 0.000933344
0.00246639 -8.95276e-05 2.24286e-06
-8.95276e-05 0.00101252 -1.69383e-07
2.24286e-06 -1.69383e-07 0.0010173
0.00502928 3.51581e-05 -0.000141636
3.51581e-05 0.00241472 -5.4285e-06
-0.000141636 -5.4285e-06 0.00241362
0.00511384 5.0891e-05 -0.000142313
5.0891e-05 0.0024622 -2.55965e-06
-0.000142313 -2.55965e-06 0.00246005
0.00519763 7.52285e-05 2.96738e-06
7.52285e-05 0.00251223 -7.76253e-07
2.96738e-06 -7.76253e-07 0.0025064
0.00318658 -1.724e-05 -6.45106e-05
-1.724e-05 0.00139871 -1.31709e-06
-6.45106e-05 -1.31709e-06 0.00138303
0.00164612 1.38324e-05 3.31684e-05
1.38324e-05 0.000429651 2.5061e-07
3.31684e-05 2.5061e-07 0.000375482
0.00319236 5.28158e-05 -6.10733e-05
5.28158e-05 0.00140357 -2.73469e-06
-6.10733e-05 -2.73469e-06 0.00138694
0.00163594 4.20133e-05 3.11384e-05
4.20133e-05 0.000435296 8.19502e-07
3.11384e-05 8.19502e-07 0.000382103
0.00520952 0.000135378 0.000143169
0.000135378 0.00252552 2.13569e-06
0.000143169 2.13569e-06 0.00251488
0.000700065 -4.08283e-06 1.55506e-05
-4.08283e-06 -9.82477e-05 5.655e-07
1.55506e-05 5.655e-07 -0.00016037
0.00253566 -3.51443e-08 7.86675e-05
-3.51443e-08 0.000926039 3.373e-06
7.86675e-05 3.373e-06 0.000880863
0.0011723 2.35284e-05 1.07207e-05
2.35284e-05 6.47452e-06 1.44193e-06
1.07207e-05 1.44193e-06 -9.86856e-05
0.00241409 7.09139e-05 7.65155e-05
7.09139e-05 0.000869382 5.52517e-06
7.65155e-05 5.52517e-06 0.000822872
0.00116837 5.93386e-05 1.02397e-05
5.93386e-05 2.08443e-05 2.42352e-06
1.02397e-05 2.42352e-06 -8.28049e-05
0.00169524 2.37581e-05 -0.000136787
2.37581e-05 0.000562674 7.53859e-07
-0.000136787 7.53859e-07 0.000543579
0.00122837 -2.98983e-05 -2.11707e-05
-2.98983e-05 0.00032604 2.07922e-06
-2.11707e-05 2.07922e-06 0.000297013
0.00112055 9.24154e-05 -5.1282e-06
9.24154e-05 0.000299568 3.59709e-06
-5.1282e-06 3.59709e-06 0.000267117
0.00127936 -2.27623e-05 -2.45314e-05
-2.27623e-05 0.000360289 3.25461e-06
-2.45314e-05 3.25461e-06 0.000332599
0.00156869 -4.39718e-05 -6.59424e-05
-4.39718e-05 0.000408528 5.20633e-06
-6.59424e-05 5.20633e-06 0.000359158
0.00150382 -6.96037e-05 -6.40546e-05
-6.96037e-05 0.0003952 8.11541e-06
-6.40546e-05 8.11541e-06 0.0003429
0.00132068 -5.87895e-05 -5.62636e-05
-5.87895e-05 0.000339725 7.96012e-06
-5.62636e-05 7.96012e-06 0.000287249
0.00198578 -0.000156783 -1.62033e-05
-0.000156783 0.000570363 6.06846e-06
-1.62033e-05 6.06846e-06 0.000464565
0.00518287 -5.96108e-05 -1.81507e-06
-5.96108e-05 0.00250217 -7.22992e-07
-1.81507e-06 -7.22992e-07 0.00249764
0.00147314 1.79806e-05 5.82824e-05
1.79806e-05 0.000448875 -1.60102e-06
5.82824e-05 -1.60102e-06 0.000424171
0.00114934 5.90099e-06 -3.55383e-05
5.90099e-06 0.000158806 4.7921e-07
-3.55383e-05 4.7921e-07 0.000102636
0.00148425 -4.14059e-05 -2.02242e-05
-4.14059e-05 0.000362478 4.82332e-07
-2.02242e-05 4.82332e-07 0.000309402
0.00219641 7.68928e-05 6.05454e-05
7.68928e-05 0.000868411 -5.24528e-07
6.05454e-05 -5.24528e-07 0.000859682
0.00139494 4.44653e-06 -1.48967e-05
4.44653e-06 0.000410197 -2.91423e-07
-1.48967e-05 -2.91423e-07 0.000359918
0.00149595 -6.24989e-05 -1.8502e-05
-6.24989e-05 0.000379512 8.71053e-07
-1.8502e-05 8.71053e-07 0.00032595
0.00176889 -9.2068e-05 -6.15504e-06
-9.2068e-05 0.000372072 1.0737e-06
-6.15504e-06 1.0737e-06 0.000276665
0.00174681 -0.000148832 -2.86593e-06
-0.000148832 0.00049687 1.01686e-06
-2.86593e-06 1.01686e-06 0.000392401
0.00173769 -0.000132933 -2.04626e-06
-0.000132933 0.000394297 3.95685e-07
-2.04626e-06 3.95685e-07 0.000292367
0.00122188 -0.000144648 -6.44809e-08
-0.000144648 7.53099e-05 -2.19938e-07
-6.44809e-08 -2.19938e-07 -5.60496e-05
0.000724544 5.61607e-06 1.57967e-05
5.61607e-06 -8.20845e-05 -1.2758e-06
1.57967e-05 -1.2758e-06 -0.00014366
0.00144861 -5.09554e-06 2.24675e-05
-5.09554e-06 0.000336784 -2.42771e-06
2.24675e-05 -2.42771e-06 0.000280035
0.00161568 -1.78745e-05 1.04783e-05
-1.78745e-05 0.000257051 -1.37197e-06
1.04783e-05 -1.37197e-06 0.000158453
0.0015377 -7.01839e-05 1.00053e-05
-7.01839e-05 0.000240331 -2.19743e-06
1.00053e-05 -2.19743e-06 0.000143393
0.00154702 -0.000108571 1.07626e-05
-0.000108571 0.000260239 -3.14592e-06
1.07626e-05 -3.14592e-06 0.000160896
0.00177126 -0.000106435 3.08359e-06
-0.000106435 0.000285917 -7.04259e-07
3.08359e-06 -7.04259e-07 0.000170115
0.00308632 0.000112206 6.25622e-05
0.000112206 0.00135665 -2.51156e-06
6.25622e-05 -2.51156e-06 0.00135512
0.00133135 -0.000136313 5.33303e-06
-0.000136313 8.65364e-05 -1.61418e-06
5.33303e-06 -1.61418e-06 -3.97038e-05
0.000562403 2.68817e-05 4.28211e-06
2.68817e-05 -5.40584e-05 -6.41105e-06
4.28211e-06 -6.41105e-06 -9.88818e-05
0.000657542 -9.00651e-05 3.62865e-06
-9.00651e-05 -4.41479e-05 -2.53559e-06
3.62865e-06 -2.53559e-06 -0.000141221
0.00134085 -0.000162346 4.55152e-06
-0.000162346 0.000205686 -2.63887e-06
4.55152e-06 -2.63887e-06 6.78083e-05
0.00142972 -0.000164511 2.95144e-06
-0.000164511 0.00012898 -6.87544e-07
2.95144e-06 -6.87544e-07 -1.35603e-05
0.000544206 5.87638e-05 6.42951e-07
5.87638e-05 -6.36042e-05 -6.11874e-06
6.42951e-07 -6.11874e-06 -9.94134e-05
0.000715109 2.94945e-05 4.13547e-07
2.94945e-05 1.01611e-05 -2.9774e-06
4.13547e-07 -2.9774e-06 -5.84606e-05
0.00503617 5.86696e-05 -0.000145848
5.86696e-05 0.00242269 -8.10799e-06
-0.000145848 -8.10799e-06 0.00241997
0.00447529 -9.25336e-05 -0.000106382
-9.25336e-05 0.00214748 -6.81586e-06
-0.000106382 -6.81586e-06 0.00213526
0.000587841 9.07258e-05 -1.47321e-05
9.07258e-05 -0.000113417 -8.47446e-06
-1.47321e-05 -8.47446e-06 -0.000178393
0.00299669 -0.000113093 -5.93147e-05
-0.000113093 0.00131365 -2.46737e-06
-5.93147e-05 -2.46737e-06 0.00131154
0.000540804 3.77822e-06 -4.83894e-06
3.77822e-06 -7.10027e-05 -7.70513e-06
-4.83894e-06 -7.70513e-06 -0.00011788
0.000521121 9.21594e-05 -1.27998e-05
9.21594e-05 -0.000102815 -8.9197e-06
-1.27998e-05 -8.9197e-06 -0.000163948
0.000829571 9.99153e-05 -4.99155e-06
9.99153e-05 2.06526e-05 -2.84175e-06
-4.99155e-06 -2.84175e-06 -8.10132e-05
0.00274874 -9.83416e-05 2.57222e-06
-9.83416e-05 0.00117204 -1.98448e-07
2.57222e-06 -1.98448e-07 0.00117404
0.000606975 -6.85603e-05 5.90466e-08
-6.85603e-05 -2.50563e-05 1.96201e-07
5.90466e-08 1.96201e-07 -5.25602e-05
0.00157002 8.69138e-05 3.01614e-05
8.69138e-05 0.000409487 1.06324e-06
3.01614e-05 1.06324e-06 0.000353189
0.00144755 0.000111752 2.63781e-05
0.000111752 0.000382876 7.47365e-07
2.63781e-05 7.47365e-07 0.000324925
0.00107738 0.000112927 2.98277e-07
0.000112927 1.00929e-05 -2.36183e-07
2.98277e-07 -2.36183e-07 -0.000100752
0.000636586 -3.38549e-05 -5.47107e-07
-3.38549e-05 -1.29759e-05 1.59601e-07
-5.47107e-07 1.59601e-07 -5.20545e-05
0.000941827 0.00011601 3.20664e-07
0.00011601 4.0052e-05 4.89402e-07
3.20664e-07 4.89402e-07 -6.62332e-05
0.000833296 8.20147e-05 2.84532e-07
8.20147e-05 6.19641e-05 -2.30756e-07
2.84532e-07 -2.30756e-07 -3.61822e-05
0.00081415 0.000128962 -1.50629e-08
0.000128962 -2.3831e-05 -4.97597e-08
-1.50629e-08 -4.97597e-08 -0.000152251
0.000632824 -5.11817e-05 2.67418e-06
-5.11817e-05 -9.95633e-06 5.65458e-06
2.67418e-06 5.65458e-06 -4.34851e-05
0.000680448 -6.00438e-05 8.77007e-08
-6.00438e-05 3.52813e-06 4.21908e-06
8.77007e-08 4.21908e-06 -1.65346e-05
0.00067791 -6.18214e-06 1.98561e-06
-6.18214e-06 2.34144e-06 2.66791e-06
1.98561e-06 2.66791e-06 -6.24128e-05
0.00110984 9.42881e-05 1.02575e-05
9.42881e-05 1.36341e-06 3.63098e-06
1.02575e-05 3.63098e-06 -0.000106816
0.00103579 0.000121364 8.53416e-06
0.000121364 3.68865e-05 4.44358e-06
8.53416e-06 4.44358e-06 -7.40047e-05
0.00130213 0.000138638 5.83932e-06
0.000138638 5.11712e-05 1.86347e-06
5.83932e-06 1.86347e-06 -8.3593e-05
0.000868753 6.25394e-05 3.52686e-06
6.25394e-05 9.79352e-05 2.78901e-06
3.52686e-06 2.78901e-06 7.34364e-06
0.000913921 0.000136445 1.96004e-06
0.000136445 -3.18041e-05 1.79485e-06
1.96004e-06 1.79485e-06 -0.000162686
0.00111313 0.000143132 1.97128e-06
0.000143132 0.000193221 6.69405e-07
1.97128e-06 6.69405e-07 6.36147e-05
0.00104027 0.000153207 -2.25109e-06
0.000153207 8.93151e-05 -1.36257e-06
-2.25109e-06 -1.36257e-06 -5.08995e-05
0.00217294 -7.08926e-05 3.27728e-05
-7.08926e-05 0.000834789 2.90995e-06
3.27728e-05 2.90995e-06 0.000845476
0.00225023 -7.96489e-05 1.18017e-06
-7.96489e-05 0.000885835 -1.2821e-07
1.18017e-06 -1.2821e-07 0.000893776
0.00236318 -8.9203e-05 -3.8092e-05
-8.9203e-05 0.000956028 -2.54069e-06
-3.8092e-05 -2.54069e-06 0.000960921
0.000566261 6.43445e-05 3.97554e-07
6.43445e-05 -5.46372e-05 -5.28935e-06
3.97554e-07 -5.28935e-06 -8.56494e-05
0.00288029 0.000101975 5.3759e-05
0.000101975 0.00123837 -2.65499e-06
5.3759e-05 -2.65499e-06 0.00123996
0.00506683 8.78069e-05 -0.000150743
8.78069e-05 0.00243856 -7.84425e-06
-0.000150743 -7.84425e-06 0.002435
0.00501355 -1.55256e-05 -0.000136613
-1.55256e-05 0.00240762 -3.51882e-06
-0.000136613 -3.51882e-06 0.00240614
0.000732277 5.08331e-05 -1.56877e-05
5.08331e-05 -6.30639e-05 -4.01036e-06
-1.56877e-05 -4.01036e-06 -0.000123694
0.00070444 1.85857e-05 -1.58133e-05
1.85857e-05 -8.84721e-05 -2.35156e-06
-1.58133e-05 -2.35156e-06 -0.000150722
0.00515827 -6.9954e-05 -0.000140213
-6.9954e-05 0.00248824 -5.31723e-07
-0.000140213 -5.31723e-07 0.00248447
0.00519614 -4.15717e-08 -1.16892e-06
-4.15717e-08 0.00250651 4.47337e-07
-1.16892e-06 4.47337e-07 0.0025037
0.000698058 -3.32087e-06 -1.56206e-07
-3.32087e-06 -9.89038e-05 -2.1249e-07
-1.56206e-07 -2.1249e-07 -0.000161019
0.00161807 1.71266e-05 3.20279e-05
1.71266e-05 0.000421821 6.85921e-07
3.20279e-05 6.85921e-07 0.000368799
0.00118441 2.77063e-05 1.67094e-07
2.77063e-05 1.32602e-05 -2.30876e-07
1.67094e-07 -2.30876e-07 -9.20279e-05
0.000673908 5.07337e-05 2.27051e-07
5.07337e-05 -9.34747e-05 -1.58736e-07
2.27051e-07 -1.58736e-07 -0.000154116
0.00115667 6.15397e-05 -1.38107e-07
6.15397e-05 1.51899e-05 3.01824e-08
-1.38107e-07 3.01824e-08 -8.8825e-05
0.000689714 -1.4414e-05 1.58917e-05
-1.4414e-05 -0.00010486 -3.73551e-07
1.58917e-05 -3.73551e-07 -0.000166958
0.00118695 1.01265e-05 1.07101e-05
1.01265e-05 6.77582e-06 5.15329e-07
1.07101e-05 5.15329e-07 -9.91224e-05
0.0011683 4.18574e-05 1.04069e-05
4.18574e-05 1.55658e-05 2.22166e-06
1.04069e-05 2.22166e-06 -8.83498e-05
0.00145576 3.04699e-05 4.45736e-06
3.04699e-05 7.49361e-05 7.10812e-07
4.45736e-06 7.10812e-07 -4.59458e-05
0.00114137 7.58063e-05 1.02842e-05
7.58063e-05 8.96496e-06 2.69655e-06
1.02842e-05 2.69655e-06 -9.65556e-05
0.00143556 7.09954e-05 4.31975e-06
7.09954e-05 8.22208e-05 1.06315e-06
4.31975e-06 1.06315e-06 -3.82751e-05
0.00518289 -5.44169e-05 -0.00015179
-5.44169e-05 0.00250162 -4.53347e-07
-0.00015179 -4.53347e-07 0.00249728
0.00128578 -4.88479e-05 -1.70623e-05
-4.88479e-05 0.000355015 1.64361e-06
-1.70623e-05 1.64361e-06 0.000324521
-0.000126263 -4.62541e-07 -1.35911e-05
-4.62541e-07 -0.000547965 2.28371e-06
-1.35911e-05 2.28371e-06 -0.000616305
0.00157573 -2.92327e-05 -6.72869e-05
-2.92327e-05 0.000409004 3.83241e-06
-6.72869e-05 3.83241e-06 0.000359126
0.00310234 0.000152255 -1.60752e-05
0.000152255 0.00138773 1.46456e-06
-1.60752e-05 1.46456e-06 0.00137308
0.0019205 -4.10462e-05 -4.65795e-05
-4.10462e-05 0.000685878 6.57593e-06
-4.65795e-05 6.57593e-06 0.000642586
0.00155273 -5.89196e-05 -6.51241e-05
-5.89196e-05 0.000406892 6.8385e-06
-6.51241e-05 6.8385e-06 0.000356315
0.00157374 -8.4512e-05 -1.96582e-05
-8.4512e-05 0.000262696 3.76964e-06
-1.96582e-05 3.76964e-06 0.000166321
0.00199171 -0.000142058 -1.58866e-05
-0.000142058 0.000534802 5.03116e-06
-1.58866e-05 5.03116e-06 0.000433399
0.0019584 -0.000161181 -1.30389e-05
-0.000161181 0.00060971 5.8887e-06
-1.30389e-05 5.8887e-06 0.000502571
0.00119119 -0.000142123 -4.63123e-06
-0.000142123 5.96165e-05 1.35799e-06
-4.63123e-06 1.35799e-06 -7.13399e-05
0.00068918 8.41207e-06 3.86521e-08
8.41207e-06 -0.000102097 -2.24244e-07
3.86521e-08 -2.24244e-07 -0.000163492
0.00153265 -3.13656e-05 -2.24436e-05
-3.13656e-05 0.000380804 1.24511e-07
-2.24436e-05 1.24511e-07 0.000326334
0.00119483 -1.54726e-05 -4.27649e-06
-1.54726e-05 2.48833e-05 2.13947e-07
-4.27649e-06 2.13947e-07 -7.69398e-05
0.00180036 -7.31625e-05 -2.91494e-06
-7.31625e-05 0.000383389 3.86299e-07
-2.91494e-06 3.86299e-07 0.000288127
0.00310171 0.000109446 -1.34497e-06
0.000109446 0.00136594 -2.70555e-07
-1.34497e-06 -2.70555e-07 0.00136451
0.00117596 1.08759e-05 2.16912e-06
1.08759e-05 0.000283348 4.03637e-07
2.16912e-06 4.03637e-07 0.000239872
0.00117835 -0.000109282 5.17806e-07
-0.000109282 0.000238613 -3.18731e-07
5.17806e-07 -3.18731e-07 0.000140986
0.00155513 -0.000107664 -3.2881e-06
-0.000107664 0.000265378 6.28743e-07
-3.2881e-06 6.28743e-07 0.000165956
0.00147064 -9.74093e-05 -2.33412e-06
-9.74093e-05 0.000118476 6.2544e-07
-2.33412e-06 6.2544e-07 1.46829e-06
0.0010157 -0.000143126 -6.86001e-07
-0.000143126 3.05974e-05 -2.81684e-07
-6.86001e-07 -2.81684e-07 -0.000105696
0.00153923 -0.000142626 1.26474e-07
-0.000142626 0.000202069 -1.97897e-07
1.26474e-07 -1.97897e-07 7.69616e-05
0.00137571 -0.000161076 9.99639e-08
-0.000161076 0.000101177 -2.47646e-07
9.99639e-08 -2.47646e-07 -4.08596e-05
0.000571184 5.16352e-05 -6.96902e-07
5.16352e-05 -4.99073e-05 7.64653e-08
-6.96902e-07 7.64653e-08 -8.51003e-05
0.000696285 1.51573e-05 -1.6367e-07
1.51573e-05 -1.93869e-06 1.71258e-07
-1.6367e-07 1.71258e-07 -7.04553e-05
0.00117631 -7.8848e-06 1.05162e-05
-7.8848e-06 2.18299e-06 -1.35981e-06
1.05162e-05 -1.35981e-06 -0.000103094
0.00158984 -3.95294e-05 1.00745e-05
-3.95294e-05 0.000252205 -1.60445e-06
1.00745e-05 -1.60445e-06 0.000154287
0.00183313 -2.38358e-05 3.21204e-06
-2.38358e-05 0.000290199 -3.3869e-07
3.21204e-06 -3.3869e-07 0.000175734
0.00120006 -6.96063e-05 5.09327e-06
-6.96063e-05 -3.65677e-05 -1.53544e-06
5.09327e-06 -1.53544e-06 -0.000155303
0.00164685 -0.000130391 4.47514e-06
-0.000130391 0.000230382 -9.92607e-07
4.47514e-06 -9.92607e-07 0.000110301
0.00170115 -0.000103792 4.37641e-07
-0.000103792 0.000194346 3.73266e-09
4.37641e-07 3.73266e-09 7.48996e-05
0.000520228 3.91948e-05 2.94775e-06
3.91948e-05 -7.84138e-05 -6.33012e-06
2.94775e-06 -6.33012e-06 -0.000117931
0.00148212 -0.000147183 2.42085e-06
-0.000147183 0.000108157 -1.61947e-07
2.42085e-06 -1.61947e-07 -2.34077e-05
0.000646431 -5.89925e-05 2.47358e-06
-5.89925e-05 -2.90621e-05 -1.70643e-06
2.47358e-06 -1.70643e-06 -0.000119197
0.000512979 -0.000111684 3.01556e-06
-0.000111684 -0.000166871 -3.28671e-06
3.01556e-06 -3.28671e-06 -0.000296249
0.00194739 -0.000209093 1.81677e-06
-0.000209093 0.000489581 -8.29586e-07
1.81677e-06 -8.29586e-07 0.00033456
0.00161034 -0.00017641 -3.1791e-07
-0.00017641 0.000176944 1.34129e-06
-3.1791e-07 1.34129e-06 3.59753e-05
0.000774208 -1.49342e-05 1.48712e-06
-1.49342e-05 4.72417e-05 -2.89595e-06
1.48712e-06 -2.89595e-06 -3.3826e-05
0.000698401 2.85093e-05 1.14729e-06
2.85093e-05 -2.13554e-06 -2.31538e-06
1.14729e-06 -2.31538e-06 -6.15991e-05
0.000833058 -4.8962e-05 3.9764e-07
-4.8962e-05 7.78259e-05 -6.83843e-07
3.9764e-07 -6.83843e-07 -2.15984e-05
0.000641409 7.42298e-05 -1.47939e-05
7.42298e-05 -0.000102262 -6.74839e-06
-1.47939e-05 -6.74839e-06 -0.000165271
0.00266388 -0.000100988 -4.75323e-05
-0.000100988 0.00112665 -2.4024e-06
-4.75323e-05 -2.4024e-06 0.00112816
0.000566081 -6.18884e-05 -7.65347e-07
-6.18884e-05 -4.98583e-05 -4.47863e-06
-7.65347e-07 -4.47863e-06 -7.55623e-05
0.000522292 0.000100344 -1.43313e-05
0.000100344 -0.000122952 -9.37838e-06
-1.43313e-05 -9.37838e-06 -0.000186939
0.00108824 0.000115192 -1.01177e-05
0.000115192 1.66369e-05 -4.66767e-06
-1.01177e-05 -4.66767e-06 -9.45569e-05
0.00051774 -4.34661e-05 -2.22653e-06
-4.34661e-05 -7.55024e-05 -6.60557e-06
-2.22653e-06 -6.60557e-06 -0.000115283
0.000722449 7.33836e-05 -3.11249e-06
7.33836e-05 6.32829e-07 -2.76106e-06
-3.11249e-06 -2.76106e-06 -9.57303e-05
0.000883786 0.000111675 -5.8123e-06
0.000111675 9.45723e-06 -3.24553e-06
-5.8123e-06 -3.24553e-06 -9.61827e-05
0.000739209 0.000124552 -3.02437e-06
0.000124552 -6.65756e-05 -8.73967e-07
-3.02437e-06 -8.73967e-07 -0.00019526
0.000576937 -5.85843e-05 1.77286e-06
-5.85843e-05 -4.02905e-05 2.46516e-08
1.77286e-06 2.46516e-08 -7.36567e-05
0.000646047 -5.54636e-05 -2.22024e-07
-5.54636e-05 -1.65303e-05 1.40678e-07
-2.22024e-07 1.40678e-07 -3.55633e-05
0.000680461 -3.65687e-05 3.11911e-07
-3.65687e-05 -1.34152e-07 3.28672e-07
3.11911e-07 3.28672e-07 -6.11151e-05
0.00111969 9.64144e-05 1.23123e-07
9.64144e-05 7.47669e-06 -1.82748e-07
1.23123e-07 -1.82748e-07 -0.000101109
0.00101372 0.000120643 6.00357e-07
0.000120643 2.61677e-05 -2.75686e-07
6.00357e-07 -2.75686e-07 -8.45577e-05
0.00134153 0.000141592 3.07157e-07
0.000141592 7.19962e-05 2.3918e-08
3.07157e-07 2.3918e-08 -6.32157e-05
0.000796382 5.45375e-05 8.76696e-08
5.45375e-05 6.09493e-05 -2.22406e-08
8.76696e-08 -2.22406e-08 -2.93937e-05
0.00109619 0.000146951 -2.07313e-07
0.000146951 6.86394e-05 -1.62491e-07
-2.07313e-07 -1.62491e-07 -6.30044e-05
0.00102301 0.000136561 3.31125e-07
0.000136561 0.000143962 -4.08331e-07
3.31125e-07 -4.08331e-07 1.50212e-05
0.000994942 0.000152814 -8.53361e-07
0.000152814 6.35355e-05 9.18587e-07
-8.53361e-07 9.18587e-07 -7.72763e-05
0.000688133 -4.93602e-05 1.76301e-06
-4.93602e-05 -4.64265e-06 3.50844e-06
1.76301e-06 3.50844e-06 -1.89804e-05
0.00072259 2.47133e-05 2.32876e-06
2.47133e-05 2.06759e-05 2.38751e-06
2.32876e-06 2.38751e-06 -5.57118e-05
0.000678764 -5.22863e-05 1.14895e-07
-5.22863e-05 -4.37094e-06 2.27705e-06
1.14895e-07 2.27705e-06 -5.39174e-05
0.000822692 3.17105e-05 2.63366e-07
3.17105e-05 8.46643e-05 6.91473e-07
2.63366e-07 6.91473e-07 -7.91744e-06
0.00136275 0.000115584 6.14759e-06
0.000115584 5.76173e-05 1.5485e-06
6.14759e-06 1.5485e-06 -7.19638e-05
0.00126046 0.000153218 4.82726e-06
0.000153218 8.91089e-05 3.05554e-06
4.82726e-06 3.05554e-06 -4.77456e-05
0.0015418 0.000157368 3.24861e-06
0.000157368 0.000123289 8.85795e-07
3.24861e-06 8.85795e-07 -2.14242e-05
0.00108562 0.000111547 2.18097e-06
0.000111547 0.000205017 1.86483e-06
2.18097e-06 1.86483e-06 8.77994e-05
0.00131997 0.000171518 -5.56878e-07
0.000171518 0.000156107 1.80688e-06
-5.56878e-07 1.80688e-06 1.33916e-05
0.000918099 0.000144632 -3.86539e-07
0.000144632 8.16488e-05 -1.73223e-06
-3.86539e-07 -1.73223e-06 -7.04511e-05
0.000886247 0.000151546 -5.60894e-07
0.000151546 -2.56899e-05 -5.55374e-07
-5.60894e-07 -5.55374e-07 -0.000170496
0.000742864 -2.58089e-05 1.33434e-06
-2.58089e-05 2.96841e-06 1.64772e-06
1.33434e-06 1.64772e-06 -3.05768e-05
0.000686218 -3.73094e-05 1.37116e-06
-3.73094e-05 -2.26363e-05 3.4128e-06
1.37116e-06 3.4128e-06 -3.14568e-05
0.00210986 -6.26312e-05 2.8251e-05
-6.26312e-05 0.000790501 3.21685e-06
2.8251e-05 3.21685e-06 0.000803725
0.00213711 -7.03471e-05 1.41963e-06
-7.03471e-05 0.000813783 -1.26744e-07
1.41963e-06 -1.26744e-07 0.000824748
0.00218062 -7.82592e-05 -3.36564e-05
-7.82592e-05 0.000846564 -2.76094e-06
-3.36564e-05 -2.76094e-06 0.000854964
0.000604237 5.17592e-05 1.67804e-06
5.17592e-05 -4.42947e-05 -4.54381e-06
1.67804e-06 -4.54381e-06 -6.88526e-05
0.00268713 9.24071e-05 4.59726e-05
9.24071e-05 0.00112797 -2.89226e-06
4.59726e-05 -2.89226e-06 0.00113206
0.00059718 6.10702e-05 -4.34176e-07
6.10702e-05 -3.7893e-05 7.47145e-08
-4.34176e-07 7.47145e-08 -6.87093e-05
0.00292194 9.94619e-05 -1.57623e-06
9.94619e-05 0.00126074 -1.89916e-07
-1.57623e-06 -1.89916e-07 0.00126269
0.000697324 6.16732e-05 -1.53013e-05
6.16732e-05 -7.97099e-05 -5.28627e-06
-1.53013e-05 -5.28627e-06 -0.000141241
0.000696536 3.00027e-05 -1.53584e-05
3.00027e-05 -8.59707e-05 -3.21907e-06
-1.53584e-05 -3.21907e-06 -0.000147202
0.00114908 6.30183e-05 -1.00961e-05
6.30183e-05 1.15642e-05 -2.30274e-06
-1.00961e-05 -2.30274e-06 -9.27287e-05
0.00118573 2.97294e-05 -1.06365e-05
2.97294e-05 1.42627e-05 -1.87093e-06
-1.06365e-05 -1.87093e-06 -9.10932e-05
0.000721835 -1.25598e-07 -1.61105e-05
-1.25598e-07 -8.65124e-05 -1.08709e-06
-1.61105e-05 -1.08709e-06 -0.000148155
0.00521894 -8.25119e-05 -0.000149713
-8.25119e-05 0.00252093 1.2981e-06
-0.000149713 1.2981e-06 0.00251697
0.000712004 -1.44587e-06 1.05201e-07
-1.44587e-06 -9.34627e-05 -2.938e-07
1.05201e-07 -2.938e-07 -0.000155292
0.00119314 1.44439e-05 5.00663e-09
1.44439e-05 1.03024e-05 -2.02649e-07
5.00663e-09 -2.02649e-07 -9.56513e-05
0.00116514 4.28219e-05 2.82433e-09
4.28219e-05 1.45295e-05 -2.92921e-08
2.82433e-09 -2.92921e-08 -8.9524e-05
0.00144462 3.01173e-05 3.21665e-08
3.01173e-05 6.93232e-05 -1.50166e-07
3.21665e-08 -1.50166e-07 -5.16429e-05
0.00114448 7.84444e-05 5.88593e-09
7.84444e-05 1.12285e-05 -2.56655e-07
5.88593e-09 -2.56655e-07 -9.48033e-05
0.00142808 7.31453e-05 -9.3372e-08
7.31453e-05 7.84869e-05 2.10061e-07
-9.3372e-08 2.10061e-07 -4.23093e-05
0.00120079 -4.93724e-07 1.06623e-05
-4.93724e-07 1.31749e-05 -2.15135e-07
1.06623e-05 -2.15135e-07 -9.26515e-05
0.00146246 1.86087e-05 4.36168e-06
1.86087e-05 7.01337e-05 2.49601e-07
4.36168e-06 2.49601e-07 -5.11871e-05
0.00145411 5.1382e-05 4.38114e-06
5.1382e-05 8.68786e-05 1.13205e-06
4.38114e-06 1.13205e-06 -3.33554e-05
0.00156937 3.38482e-05 5.64473e-07
3.38482e-05 7.73368e-05 1.57354e-07
5.64473e-07 1.57354e-07 -4.12589e-05
0.00140075 9.28342e-05 4.68431e-06
9.28342e-05 6.6763e-05 6.89241e-07
4.68431e-06 6.89241e-07 -5.74639e-05
0.00155378 7.87586e-05 6.85384e-07
7.87586e-05 9.53627e-05 7.49093e-08
6.85384e-07 7.49093e-08 -2.62476e-05
0.000697465 1.15974e-05 -1.52616e-05
1.15974e-05 -9.85659e-05 7.11008e-07
-1.52616e-05 7.11008e-07 -0.000159996
0.00159747 -1.10712e-05 -6.93552e-05
-1.10712e-05 0.000413286 2.71597e-06
-6.93552e-05 2.71597e-06 0.0003618
0.00076825 -1.16118e-05 -1.12294e-05
-1.16118e-05 -0.000210474 1.72408e-06
-1.12294e-05 1.72408e-06 -0.000315572
0.00203731 -7.4715e-05 -1.72309e-05
-7.4715e-05 0.000512069 2.88098e-06
-1.72309e-05 2.88098e-06 0.000418668
0.00312676 0.000104245 -7.18565e-05
0.000104245 0.00138001 2.81925e-06
-7.18565e-05 2.81925e-06 0.00137916
0.00184789 4.98167e-06 -3.90406e-05
4.98167e-06 0.000652333 4.5523e-06
-3.90406e-05 4.5523e-06 0.000613671
0.00174163 -0.000136479 -8.72732e-06
-0.000136479 0.0005439 3.88836e-06
-8.72732e-06 3.88836e-06 0.000444945
0.00155338 -0.000106349 -1.68943e-05
-0.000106349 0.000265022 4.21981e-06
-1.68943e-05 4.21981e-06 0.000165634
0.00116478 -8.81234e-05 -6.28871e-06
-8.81234e-05 -5.18447e-05 1.6189e-06
-6.28871e-06 1.6189e-06 -0.000170029
0.00174565 -0.000148958 -6.16091e-06
-0.000148958 0.000316849 1.51284e-06
-6.16091e-06 1.51284e-06 0.000192855
0.000685067 -0.000123398 -3.98606e-06
-0.000123398 -0.000147339 1.64559e-06
-3.98606e-06 1.64559e-06 -0.000281995
0.00131948 -0.000157502 -2.15198e-06
-0.000157502 7.21982e-05 3.33721e-08
-2.15198e-06 3.33721e-08 -6.93221e-05
0.000609 4.406e-05 -3.21154e-06
4.406e-05 -2.92086e-05 5.79589e-06
-3.21154e-06 5.79589e-06 -6.44061e-05
0.000686206 5.79153e-07 -1.75561e-06
5.79153e-07 -7.9622e-06 2.65963e-06
-1.75561e-06 2.65963e-06 -7.73089e-05
0.000982588 -3.8208e-06 -4.82103e-07
-3.8208e-06 -0.000103472 -3.12271e-07
-4.82103e-07 -3.12271e-07 -0.000209906
0.00160559 -4.1161e-05 -3.4916e-06
-4.1161e-05 0.000260303 2.70289e-07
-3.4916e-06 2.70289e-07 0.000162298
0.00176003 -2.04742e-05 -2.21993e-06
-2.04742e-05 0.000247911 5.16544e-07
-2.21993e-06 5.16544e-07 0.000133128
0.00154001 -7.5582e-05 1.0385e-06
-7.5582e-05 0.000149997 -3.51332e-07
1.0385e-06 -3.51332e-07 3.32223e-05
0.000583914 2.91601e-05 1.5335e-07
2.91601e-05 -4.58511e-05 1.51214e-07
1.5335e-07 1.51214e-07 -8.48109e-05
0.000818412 -7.39355e-05 -1.64414e-07
-7.39355e-05 6.448e-05 1.30101e-07
-1.64414e-07 1.30101e-07 -2.75926e-05
0.000699333 -0.000122678 1.13475e-06
-0.000122678 -6.20179e-05 -1.10945e-06
1.13475e-06 -1.10945e-06 -0.000190509
0.00173716 -0.000131663 -1.24394e-06
-0.000131663 0.000280114 3.03263e-07
-1.24394e-06 3.03263e-07 0.000160323
0.0015591 -9.86747e-05 -6.97261e-07
-9.86747e-05 0.000114406 4.56591e-07
-6.97261e-07 4.56591e-07 -4.66108e-06
0.00151952 -0.000184797 -1.55818e-06
-0.000184797 0.000254806 7.11924e-07
-1.55818e-06 7.11924e-07 0.000100184
0.00145005 -0.000145214 2.07112e-07
-0.000145214 9.17409e-05 -4.40549e-08
2.07112e-07 -4.40549e-08 -3.95679e-05
0.00144115 -0.000168183 4.1569e-07
-0.000168183 8.54887e-05 2.40102e-07
4.1569e-07 2.40102e-07 -5.46108e-05
0.000740691 -1.94801e-05 -2.32585e-07
-1.94801e-05 2.80307e-05 -1.51565e-07
-2.32585e-07 -1.51565e-07 -5.3073e-05
0.000754156 -1.88944e-05 -7.1594e-07
-1.88944e-05 2.95151e-05 -3.29803e-07
-7.1594e-07 -3.29803e-07 -6.52843e-05
0.00070049 2.00929e-05 4.586e-07
2.00929e-05 -2.62957e-06 2.76361e-07
4.586e-07 2.76361e-07 -6.1727e-05
0.00185188 -4.26909e-06 3.08181e-06
-4.26909e-06 0.000289573 -5.70173e-07
3.08181e-06 -5.70173e-07 0.000172866
0.00167927 -4.58448e-05 3.83648e-06
-4.58448e-05 0.000209709 -4.87772e-07
3.83648e-06 -4.87772e-07 9.33696e-05
0.00175029 -2.18016e-05 7.70223e-07
-2.18016e-05 0.000184132 2.57789e-07
7.70223e-07 2.57789e-07 6.7137e-05
0.00157031 -7.29574e-05 6.42208e-07
-7.29574e-05 0.000111807 -7.15283e-07
6.42208e-07 -7.15283e-07 -8.05055e-06
0.00144228 -0.000124722 2.27982e-06
-0.000124722 5.98466e-05 2.35309e-09
2.27982e-06 2.35309e-09 -6.35715e-05
0.00169051 -9.84799e-05 -2.07732e-06
-9.84799e-05 0.000146897 7.01638e-07
-2.07732e-06 7.01638e-07 3.41944e-05
0.000729497 -4.16864e-05 2.2634e-06
-4.16864e-05 2.50799e-05 -1.97272e-06
2.2634e-06 -1.97272e-06 -6.28767e-05
0.00151665 -0.000150318 -5.74394e-07
-0.000150318 8.12806e-05 9.22041e-07
-5.74394e-07 9.22041e-07 -4.57308e-05
0.000881421 -0.000124157 1.11549e-06
-0.000124157 7.95191e-05 -6.01083e-07
1.11549e-06 -6.01083e-07 -3.72993e-05
0.000715781 -0.000140624 3.16079e-06
-0.000140624 -8.63827e-05 -3.90998e-06
3.16079e-06 -3.90998e-06 -0.000239725
0.00174125 -0.000206701 1.48248e-06
-0.000206701 0.000331055 9.26473e-07
1.48248e-06 9.26473e-07 0.000169285
0.00190919 -0.000194168 -3.06896e-06
-0.000194168 0.000296271 1.90662e-06
-3.06896e-06 1.90662e-06 0.000163984
0.000716929 1.74073e-05 1.43978e-06
1.74073e-05 3.45783e-06 -2.03364e-06
1.43978e-06 -2.03364e-06 -4.87499e-05
0.000839858 -7.0329e-05 1.19261e-06
-7.0329e-05 7.08876e-05 2.80643e-07
1.19261e-06 2.80643e-07 -2.8289e-05
0.000714628 -1.67086e-06 4.32999e-07
-1.67086e-06 1.36884e-05 -1.31799e-06
4.32999e-07 -1.31799e-06 -7.71743e-05
0.000973342 -0.000114677 -4.26158e-07
-0.000114677 0.000155443 1.32177e-06
-4.26158e-07 1.32177e-06 4.46834e-05
0.00112502 9.87366e-05 -1.06767e-05
9.87366e-05 1.11024e-05 -3.9575e-06
-1.06767e-05 -3.9575e-06 -9.79054e-05
0.000615353 -5.20708e-05 -1.90105e-06
-5.20708e-05 -3.40133e-05 -3.63884e-06
-1.90105e-06 -3.63884e-06 -5.23111e-05
0.000517578 -7.44983e-05 1.14489e-06
-7.44983e-05 -6.83866e-05 -5.87577e-06
1.14489e-06 -5.87577e-06 -0.000104305
0.000703641 -6.1623e-05 7.83394e-07
-6.1623e-05 1.59316e-05 -2.77577e-06
7.83394e-07 -2.77577e-06 -4.66266e-05
0.000982493 0.000119543 -7.44077e-06
0.000119543 1.06777e-05 -5.02508e-06
-7.44077e-06 -5.02508e-06 -9.98913e-05
0.00136623 0.000143647 -5.5594e-06
0.000143647 8.49552e-05 -1.8834e-06
-5.5594e-06 -1.8834e-06 -5.06344e-05
0.00071527 4.63686e-05 -1.98812e-06
4.63686e-05 1.87379e-05 -2.41053e-06
-1.98812e-06 -2.41053e-06 -7.08842e-05
0.000964404 0.000132083 -2.62007e-06
0.000132083 0.000112226 -2.17889e-06
-2.62007e-06 -2.17889e-06 -1.63641e-05
0.00128439 0.000157884 -2.58927e-06
0.000157884 0.000172506 -2.05252e-06
-2.58927e-06 -2.05252e-06 4.0032e-05
0.000907328 0.00014964 -1.39726e-06
0.00014964 1.50854e-05 7.0956e-07
-1.39726e-06 7.0956e-07 -0.000126031
0.000661686 -4.75232e-05 6.59092e-08
-4.75232e-05 -1.92885e-05 2.69194e-08
6.59092e-08 2.69194e-08 -3.33477e-05
0.000743772 1.80873e-05 1.73825e-07
1.80873e-05 3.72321e-05 -5.98987e-08
1.73825e-07 -5.98987e-08 -4.16516e-05
0.00068751 -5.82949e-05 -2.83365e-07
-5.82949e-05 9.38288e-07 3.87095e-07
-2.83365e-07 3.87095e-07 -4.89317e-05
0.000812052 1.0692e-05 3.88406e-07
1.0692e-05 7.76708e-05 -2.20882e-07
3.88406e-07 -2.20882e-07 -1.32306e-05
0.00138732 0.000117127 1.05768e-06
0.000117127 7.01289e-05 1.21247e-07
1.05768e-06 1.21247e-07 -5.96538e-05
0.0012353 0.000152986 1.08153e-07
0.000152986 7.70724e-05 1.17173e-07
1.08153e-07 1.17173e-07 -5.99433e-05
0.00149659 0.000155365 2.22575e-07
0.000155365 0.000101221 2.05069e-07
2.22575e-07 2.05069e-07 -4.36423e-05
0.00098988 0.000109818 3.56878e-07
0.000109818 0.000153306 3.83385e-07
3.56878e-07 3.83385e-07 3.73823e-05
0.00150105 0.00018164 -6.97386e-07
0.00018164 0.000256335 -1.72209e-06
-6.97386e-07 -1.72209e-06 0.000113177
0.00112185 0.000158543 3.0277e-07
0.000158543 0.000193728 -1.30707e-06
3.0277e-07 -1.30707e-06 4.00409e-05
0.000927753 0.000153812 -1.94798e-06
0.000153812 4.3835e-07 -3.51837e-07
-1.94798e-06 -3.51837e-07 -0.000140083
0.000687267 -4.31083e-05 1.63817e-06
-4.31083e-05 -1.44434e-05 3.40819e-06
1.63817e-06 3.40819e-06 -2.55429e-05
0.000714215 -5.04363e-05 4.33641e-07
-5.04363e-05 5.97043e-06 1.8421e-06
4.33641e-07 1.8421e-06 -3.56225e-05
0.000975947 6.27491e-05 1.60853e-06
6.27491e-05 0.000157288 7.91646e-07
1.60853e-06 7.91646e-07 5.40393e-05
0.000783593 1.61924e-05 8.59068e-08
1.61924e-05 5.64862e-05 1.29761e-06
8.59068e-08 1.29761e-06 -2.02059e-05
0.000889598 8.48449e-05 5.91766e-07
8.48449e-05 0.000133001 -1.89803e-07
5.91766e-07 -1.89803e-07 2.39025e-05
0.00156348 0.000124838 3.2235e-06
0.000124838 0.000113367 7.5585e-08
3.2235e-06 7.5585e-08 -2.22838e-05
0.00143123 0.000172992 1.24295e-06
0.000172992 0.000131777 3.89571e-06
1.24295e-06 3.89571e-06 -1.64774e-05
0.00156227 0.000168097 8.14763e-08
0.000168097 0.000103792 3.39781e-07
8.14763e-08 3.39781e-07 -4.09147e-05
0.00118177 0.000154028 2.49549e-06
0.000154028 0.000266097 3.05518e-06
2.49549e-06 3.05518e-06 0.000118946
0.00128308 0.00017995 1.4053e-06
0.00017995 0.000114748 2.43888e-06
1.4053e-06 2.43888e-06 -3.21675e-05
0.000331182 0.000116455 1.29441e-06
0.000116455 -0.00027531 -2.48766e-06
1.29441e-06 -2.48766e-06 -0.000436245
0.000739759 -3.04344e-05 1.58093e-06
-3.04344e-05 4.90416e-06 1.52782e-06
1.58093e-06 1.52782e-06 -2.97146e-05
0.000771102 8.54246e-06 5.60509e-07
8.54246e-06 3.31595e-05 5.35126e-07
5.60509e-07 5.35126e-07 -2.19759e-05
0.000755055 -1.8906e-05 9.61208e-07
-1.8906e-05 6.33535e-06 1.75698e-06
9.61208e-07 1.75698e-06 -2.66335e-05
0.000748661 -2.50672e-05 1.17905e-07
-2.50672e-05 6.46669e-06 -8.35142e-09
1.17905e-07 -8.35142e-09 -2.71705e-05
0.00125424 -4.05843e-05 1.58796e-06
-4.05843e-05 0.000288914 2.08753e-06
1.58796e-06 2.08753e-06 0.000284986
0.000973627 -4.12708e-05 7.95002e-07
-4.12708e-05 0.00013834 -3.484e-08
7.95002e-07 -3.484e-08 0.000131077
0.000947166 -3.59578e-05 2.3347e-05
-3.59578e-05 0.000129797 6.23365e-06
2.3347e-05 6.23365e-06 0.000139383
0.00209144 -6.21059e-05 1.43874e-06
-6.21059e-05 0.000779007 -1.16619e-07
1.43874e-06 -1.16619e-07 0.000792497
0.0021054 -6.95955e-05 -2.99222e-05
-6.95955e-05 0.000794953 -3.0438e-06
-2.99222e-05 -3.0438e-06 0.000806257
0.000628352 4.39169e-05 1.87224e-06
4.39169e-05 -3.9828e-05 -4.18252e-06
1.87224e-06 -4.18252e-06 -6.01445e-05
0.00255148 8.34761e-05 3.97738e-05
8.34761e-05 0.00104733 -3.18928e-06
3.97738e-05 -3.18928e-06 0.00105373
0.000624998 5.5884e-05 2.91942e-08
5.5884e-05 -3.13426e-05 4.69335e-08
2.91942e-08 4.69335e-08 -5.68519e-05
0.00273663 9.14081e-05 -1.81025e-06
9.14081e-05 0.00115463 -1.63662e-07
-1.81025e-06 -1.63662e-07 0.00115894
0.000621445 5.79471e-05 -5.79478e-07
5.79471e-05 -2.48177e-05 5.60685e-06
-5.79478e-07 5.60685e-06 -5.55012e-05
0.00297037 9.65112e-05 -6.41002e-05
9.65112e-05 0.00128671 2.91872e-06
-6.41002e-05 2.91872e-06 0.00128907
0.00115423 8.11883e-05 -1.04378e-05
8.11883e-05 1.67807e-05 -3.15312e-06
-1.04378e-05 -3.15312e-06 -8.97077e-05
0.00116875 4.6547e-05 -1.01404e-05
4.6547e-05 1.72322e-05 -2.22537e-06
-1.01404e-05 -2.22537e-06 -8.70793e-05
0.00140978 7.15298e-05 -4.58464e-06
7.15298e-05 6.89902e-05 -6.53103e-07
-4.58464e-06 -6.53103e-07 -5.18822e-05
0.00143886 3.00538e-05 -4.57023e-06
3.00538e-05 6.65351e-05 -9.90569e-07
-4.57023e-06 -9.90569e-07 -5.45075e-05
0.00119991 1.7449e-05 -1.0842e-05
1.7449e-05 1.41593e-05 -9.54079e-07
-1.0842e-05 -9.54079e-07 -9.18694e-05
0.000696996 1.16075e-05 -1.58088e-05
1.16075e-05 -0.000101032 -2.23145e-07
-1.58088e-05 -2.23145e-07 -0.00016305
0.00119235 1.5769e-06 1.99989e-08
1.5769e-06 8.57017e-06 -1.2081e-07
1.99989e-08 -1.2081e-07 -9.7306e-05
0.00145365 2.03487e-05 -7.7091e-08
2.03487e-05 6.5961e-05 -1.17637e-07
-7.7091e-08 -1.17637e-07 -5.5429e-05
0.00143406 4.86883e-05 6.97495e-08
4.86883e-05 7.65744e-05 -1.50813e-08
6.97495e-08 -1.50813e-08 -4.36827e-05
0.00160049 3.47899e-05 -1.12344e-07
3.47899e-05 9.2784e-05 1.71091e-08
-1.12344e-07 1.71091e-08 -2.4936e-05
0.00141172 9.34951e-05 -1.3739e-07
9.34951e-05 7.19384e-05 -1.63983e-07
-1.3739e-07 -1.63983e-07 -5.23834e-05
0.00154726 7.77982e-05 -1.62314e-07
7.77982e-05 9.39327e-05 2.45212e-07
-1.62314e-07 2.45212e-07 -2.77425e-05
0.00144898 6.14456e-06 4.60718e-06
6.14456e-06 6.25183e-05 -9.37102e-08
4.60718e-06 -9.37102e-08 -5.85563e-05
0.00162124 2.63352e-05 -3.1458e-08
2.63352e-05 8.50705e-05 2.36245e-07
-3.1458e-08 2.36245e-07 -3.25085e-05
0.00152419 5.6246e-05 5.85671e-07
5.6246e-05 6.72413e-05 2.04401e-07
5.85671e-07 2.04401e-07 -5.22665e-05
0.00171827 4.3306e-05 -8.07e-07
4.3306e-05 0.000103626 1.51591e-07
-8.07e-07 1.51591e-07 -5.68635e-06
0.00158177 9.57337e-05 9.75685e-07
9.57337e-05 0.000115548 -5.29759e-07
9.75685e-07 -5.29759e-07 -1.11642e-05
0.00164977 8.25952e-05 -2.43971e-06
8.25952e-05 9.83635e-05 -2.9907e-07
-2.43971e-06 -2.9907e-07 -1.12594e-05
0.000779889 -1.61268e-06 -1.0444e-05
-1.61268e-06 -0.000213775 6.62502e-07
-1.0444e-05 6.62502e-07 -0.000321421
0.00163861 -4.44959e-05 -1.69598e-05
-4.44959e-05 0.000277788 2.30112e-06
-1.69598e-05 2.30112e-06 0.000179678
0.00167863 -1.38466e-05 -7.34295e-06
-1.38466e-05 0.000201314 1.0483e-06
-7.34295e-06 1.0483e-06 8.62878e-05
0.0018821 -8.1807e-05 -4.79807e-06
-8.1807e-05 0.000337739 1.10828e-06
-4.79807e-06 1.10828e-06 0.000222908
0.00064553 1.91823e-05 -5.39294e-06
1.91823e-05 -1.27255e-05 5.92573e-06
-5.39294e-06 5.92573e-06 -5.22105e-05
0.000912031 -8.26122e-05 -4.07578e-06
-8.26122e-05 0.000116383 2.5082e-06
-4.07578e-06 2.5082e-06 2.27918e-05
0.000894246 -0.00013456 -9.00473e-07
-0.00013456 4.74205e-05 7.66229e-07
-9.00473e-07 7.66229e-07 -8.03073e-05
0.00183252 -0.000133135 -6.91411e-06
-0.000133135 0.000332546 1.60128e-06
-6.91411e-06 1.60128e-06 0.000213043
0.00141864 -9.35259e-05 -1.61007e-06
-9.35259e-05 3.53078e-05 6.7539e-07
-1.61007e-06 6.7539e-07 -8.33801e-05
0.00141735 -0.000143212 -2.25422e-06
-0.000143212 7.4983e-05 1.16566e-07
-2.25422e-06 1.16566e-07 -5.60641e-05
0.00107863 -0.000159854 -3.22471e-06
-0.000159854 1.2854e-05 1.78037e-06
-3.22471e-06 1.78037e-06 -0.000141296
0.00125737 -0.000159193 9.01813e-07
-0.000159193 -1.42576e-05 -1.25516e-06
9.01813e-07 -1.25516e-06 -0.000153369
0.000708544 -2.20895e-05 -2.43286e-06
-2.20895e-05 8.21842e-06 2.33725e-06
-2.43286e-06 2.33725e-06 -7.2044e-05
0.000720052 -9.82847e-06 -1.30437e-06
-9.82847e-06 1.08856e-05 2.6023e-08
-1.30437e-06 2.6023e-08 -8.34624e-05
0.000702953 1.32952e-05 -1.03524e-06
1.32952e-05 -2.53574e-06 2.45072e-06
-1.03524e-06 2.45072e-06 -6.15202e-05
0.00165668 -2.9592e-06 -2.27493e-06
-2.9592e-06 0.000180693 1.11378e-07
-2.27493e-06 1.11378e-07 6.22376e-05
0.00167389 -5.06534e-05 -1.41181e-06
-5.06534e-05 0.000206934 2.10831e-07
-1.41181e-06 2.10831e-07 9.02455e-05
0.00162819 -1.85275e-05 -6.85985e-07
-1.85275e-05 0.000114818 2.56243e-07
-6.85985e-07 2.56243e-07 -1.78672e-06
0.00166035 -7.21347e-05 -2.56125e-07
-7.21347e-05 0.000158705 -1.69037e-07
-2.56125e-07 -1.69037e-07 3.92568e-05
0.000772937 -4.85871e-05 -8.79149e-09
-4.85871e-05 4.77074e-05 -1.91361e-07
-8.79149e-09 -1.91361e-07 -4.05931e-05
0.000997536 -0.000132533 -3.2584e-07
-0.000132533 0.000140758 5.17323e-07
-3.2584e-07 5.17323e-07 2.27462e-05
0.000831366 -0.000145169 8.54247e-07
-0.000145169 -1.64628e-05 -1.57488e-06
8.54247e-07 -1.57488e-06 -0.000167794
0.00158563 -0.000129349 3.14731e-07
-0.000129349 0.000140461 -5.31773e-08
3.14731e-07 -5.31773e-08 1.68099e-05
0.00162949 -9.57642e-05 2.78129e-07
-9.57642e-05 0.00011213 4.28262e-07
2.78129e-07 4.28262e-07 1.04274e-06
0.00145153 -0.00019118 -3.55493e-07
-0.00019118 0.000175461 7.02498e-07
-3.55493e-07 7.02498e-07 1.30083e-05
0.00155149 -0.00015102 6.7541e-09
-0.00015102 9.83214e-05 1.36814e-07
6.7541e-09 1.36814e-07 -2.85814e-05
0.00170172 -0.000184314 6.13177e-07
-0.000184314 0.000180453 -2.41175e-07
6.13177e-07 -2.41175e-07 5.05642e-05
0.00091306 -7.76853e-05 -2.01137e-07
-7.76853e-05 0.000113314 -7.78157e-08
-2.01137e-07 -7.78157e-08 1.22944e-05
0.000943973 -0.000113843 -3.56305e-07
-0.000113843 0.000140364 3.7665e-07
-3.56305e-07 3.7665e-07 2.80714e-05
0.000721317 1.17454e-05 1.57604e-07
1.17454e-05 5.58351e-06 1.14406e-07
1.57604e-07 1.14406e-07 -4.6717e-05
0.000673262 1.83573e-05 -9.7202e-08
1.83573e-05 -1.32759e-05 -5.45711e-07
-9.7202e-08 -5.45711e-07 -9.95742e-05
0.00164431 -8.10224e-06 1.13284e-06
-8.10224e-06 0.000113538 -5.01389e-07
1.13284e-06 -5.01389e-07 -5.0307e-06
0.00183811 -4.69285e-05 4.90127e-07
-4.69285e-05 0.000238997 3.20709e-07
4.90127e-07 3.20709e-07 0.000121295
0.00171527 -3.26483e-05 4.90741e-08
-3.26483e-05 0.000106924 1.73968e-07
4.90741e-08 1.73968e-07 -5.24298e-06
0.00167714 -7.83366e-05 -2.52848e-06
-7.83366e-05 0.0001206 -2.00224e-07
-2.52848e-06 -2.00224e-07 1.25277e-05
0.00160762 -0.000125629 -1.62721e-06
-0.000125629 0.000106496 1.09221e-06
-1.62721e-06 1.09221e-06 -9.88977e-06
0.00168485 -9.68369e-05 -6.01351e-07
-9.68369e-05 0.000101928 1.8949e-07
-6.01351e-07 1.8949e-07 7.18362e-07
0.000857845 -0.000116456 1.09534e-06
-0.000116456 7.93437e-05 3.42522e-07
1.09534e-06 3.42522e-07 -2.77288e-05
0.00160415 -0.00015872 -3.65302e-06
-0.00015872 8.8647e-05 9.33764e-07
-3.65302e-06 9.33764e-07 -2.7134e-05
0.000499738 -0.000113868 -5.84256e-07
-0.000113868 -0.000132093 -2.93555e-06
-5.84256e-07 -2.93555e-06 -0.000267341
0.00136094 -0.000191287 2.69625e-06
-0.000191287 0.00023595 -2.29202e-06
2.69625e-06 -2.29202e-06 6.25242e-05
0.00175695 -0.000213973 -1.12506e-06
-0.000213973 0.000289247 2.60647e-06
-1.12506e-06 2.60647e-06 0.000129899
0.00187141 -0.000196912 -1.48732e-06
-0.000196912 0.00023604 5.34589e-07
-1.48732e-06 5.34589e-07 0.000110914
0.000727485 7.17237e-06 1.91161e-06
7.17237e-06 5.79018e-06 -1.99867e-06
1.91161e-06 -1.99867e-06 -4.20888e-05
0.000669195 8.07088e-06 2.85531e-07
8.07088e-06 -7.1984e-06 -1.23751e-06
2.85531e-07 -1.23751e-06 -9.21711e-05
0.000916768 -0.000129856 3.13725e-08
-0.000129856 0.000120967 1.63646e-06
3.13725e-08 1.63646e-06 6.2123e-06
0.000919182 -8.24705e-05 1.14409e-06
-8.24705e-05 0.000129378 1.8214e-07
1.14409e-06 1.8214e-07 2.58999e-05
0.000941174 -0.000132183 -1.00265e-06
-0.000132183 0.000137959 2.42362e-06
-1.00265e-06 2.42362e-06 2.07429e-05
0.000636881 -4.60232e-05 -1.91717e-06
-4.60232e-05 -3.28824e-05 -3.46663e-06
-1.91717e-06 -3.46663e-06 -4.67261e-05
0.0014041 0.000118424 -4.1864e-06
0.000118424 7.85631e-05 -1.34507e-06
-4.1864e-06 -1.34507e-06 -5.14337e-05
0.000688715 -6.20593e-05 -3.14262e-07
-6.20593e-05 2.04562e-06 -1.81647e-06
-3.14262e-07 -1.81647e-06 -4.81176e-05
0.000759776 1.0363e-06 -2.0236e-07
1.0363e-06 4.45746e-05 -2.79272e-06
-2.0236e-07 -2.79272e-06 -3.21246e-05
0.000817017 -8.97469e-06 1.01181e-06
-8.97469e-06 7.9134e-05 -9.0971e-07
1.01181e-06 -9.0971e-07 -1.00018e-05
0.00123892 0.00015418 -4.67879e-06
0.00015418 8.03276e-05 -2.85414e-06
-4.67879e-06 -2.85414e-06 -5.69383e-05
0.00144659 0.000153211 -2.30122e-06
0.000153211 7.66665e-05 -4.22114e-07
-2.30122e-06 -4.22114e-07 -6.83675e-05
0.000887307 0.000117725 -1.38322e-06
0.000117725 0.000100444 -9.31095e-07
-1.38322e-06 -9.31095e-07 -1.63052e-05
0.00132252 0.000172434 -1.74685e-06
0.000172434 0.000304344 -1.4308e-06
-1.74685e-06 -1.4308e-06 0.000148423
0.00168994 0.000192124 -1.78041e-06
0.000192124 0.000360518 -4.03435e-06
-1.78041e-06 -4.03435e-06 0.000216923
0.0010325 0.000159738 -3.54913e-06
0.000159738 6.11977e-05 5.76724e-07
-3.54913e-06 5.76724e-07 -7.54885e-05
0.000668398 -4.19157e-05 5.711e-08
-4.19157e-05 -2.4804e-05 1.24708e-08
5.711e-08 1.24708e-08 -3.57777e-05
0.000716979 -5.09698e-05 -3.34191e-07
-5.09698e-05 7.46454e-06 1.30844e-07
-3.34191e-07 1.30844e-07 -3.40997e-05
0.000920924 6.69082e-05 6.53746e-07
6.69082e-05 0.000128865 -5.141e-08
6.53746e-07 -5.141e-08 2.53681e-05
0.000778439 -1.81702e-05 -2.63452e-07
-1.81702e-05 5.20937e-05 1.74363e-07
-2.63452e-07 1.74363e-07 -2.26391e-05
0.000820473 6.07973e-05 7.11538e-07
6.07973e-05 9.13789e-05 -2.74831e-07
7.11538e-07 -2.74831e-07 -1.62036e-05
0.00151988 0.000123907 1.22836e-06
0.000123907 9.01021e-05 2.97119e-08
1.22836e-06 2.97119e-08 -4.58697e-05
0.00137747 0.00017117 -1.256e-07
0.00017117 0.000104471 1.36241e-06
-1.256e-07 1.36241e-06 -4.39281e-05
0.00159564 0.000171459 1.34092e-06
0.000171459 0.000120709 5.26472e-07
1.34092e-06 5.26472e-07 -2.48298e-05
0.000999723 0.000141292 1.25041e-06
0.000141292 0.000168438 1.29883e-06
1.25041e-06 1.29883e-06 2.2981e-05
0.00149525 0.000190649 1.23092e-06
0.000190649 0.000230747 -1.64025e-06
1.23092e-06 -1.64025e-06 8.39014e-05
0.000759472 0.000144492 -1.87768e-06
0.000144492 -4.58427e-05 -1.10616e-06
-1.87768e-06 -1.10616e-06 -0.000209807
0.000735988 -3.81951e-05 1.45802e-06
-3.81951e-05 8.95401e-06 1.53842e-06
1.45802e-06 1.53842e-06 -2.79134e-05
0.000792832 7.8225e-06 3.96458e-07
7.8225e-06 5.0003e-05 1.04825e-06
3.96458e-07 1.04825e-06 -1.22043e-05
0.00100014 0.000131909 -5.61344e-07
0.000131909 0.000181891 -2.9177e-07
-5.61344e-07 -2.9177e-07 5.46561e-05
0.00084308 1.41231e-05 2.44633e-07
1.41231e-05 9.76417e-05 5.65206e-07
2.44633e-07 5.65206e-07 6.71953e-06
0.00108194 6.8535e-05 -1.60521e-06
6.8535e-05 0.000231315 -2.68068e-06
-1.60521e-06 -2.68068e-06 0.000115116
0.00154858 0.000123308 -2.05986e-06
0.000123308 7.17839e-05 -2.22528e-06
-2.05986e-06 -2.22528e-06 -5.84019e-05
0.00136162 0.0001825 9.16184e-07
0.0001825 5.85203e-05 3.71384e-06
9.16184e-07 3.71384e-06 -9.2108e-05
0.00149122 0.000183795 -2.63318e-06
0.000183795 3.44659e-05 -1.14927e-06
-2.63318e-06 -1.14927e-06 -0.000101538
0.000895667 0.0001413 -2.10528e-07
0.0001413 0.00012033 1.14852e-06
-2.10528e-07 1.14852e-06 -5.3138e-05
0.00128081 0.000192025 2.45625e-06
0.000192025 0.00013899 4.87329e-07
2.45625e-06 4.87329e-07 -2.33453e-05
0.000741573 -2.98191e-05 1.74208e-08
-2.98191e-05 6.3606e-06 -8.28249e-09
1.74208e-08 -8.28249e-09 -2.83324e-05
0.000659512 -1.13787e-05 1.19422e-06
-1.13787e-05 -3.24e-05 9.35824e-07
1.19422e-06 9.35824e-07 -8.55762e-05
0.000706511 -2.29522e-05 -6.42339e-07
-2.29522e-05 -4.39355e-06 -7.57892e-08
-6.42339e-07 -7.57892e-08 -5.85606e-05
0.000950682 2.61254e-05 1.19169e-06
2.61254e-05 0.000143095 -4.35424e-07
1.19169e-06 -4.35424e-07 7.60713e-05
0.000793133 2.28012e-05 1.72208e-06
2.28012e-05 4.19945e-05 6.76163e-07
1.72208e-06 6.76163e-07 -1.20939e-05
0.000756724 -8.31781e-06 9.92258e-07
-8.31781e-06 5.13841e-06 1.71356e-06
9.92258e-07 1.71356e-06 -2.79927e-05
0.000757166 -1.93514e-05 -6.88085e-08
-1.93514e-05 7.80769e-06 3.41255e-09
-6.88085e-08 3.41255e-09 -2.52361e-05
0.00125653 -3.27764e-05 1.06497e-06
-3.27764e-05 0.000283923 2.11403e-06
1.06497e-06 2.11403e-06 0.000281546
0.000753802 -2.46549e-05 -1.24267e-06
-2.46549e-05 9.60288e-06 -1.74911e-06
-1.24267e-06 -1.74911e-06 -2.41355e-05
0.00127454 -3.82651e-05 -4.45692e-06
-3.82651e-05 0.000299622 -1.19464e-06
-4.45692e-06 -1.19464e-06 0.000296022
0.000940911 -3.00955e-05 2.05331e-05
-3.00955e-05 0.000117414 6.41757e-06
2.05331e-05 6.41757e-06 0.00012914
0.00126522 -4.28952e-05 -9.74742e-06
-4.28952e-05 0.00030178 -3.14062e-06
-9.74742e-06 -3.14062e-06 0.000296443
0.0014856 -4.49483e-05 1.87853e-05
-4.49483e-05 0.000431454 1.95295e-06
1.87853e-05 1.95295e-06 0.000444082
0.00207828 -6.14889e-05 -2.66054e-05
-6.14889e-05 0.000770428 -3.32976e-06
-2.66054e-05 -3.32976e-06 0.000784195
0.00064466 3.91584e-05 1.59949e-06
3.91584e-05 -3.86288e-05 -3.99362e-06
1.59949e-06 -3.99362e-06 -5.54196e-05
0.000643497 4.59187e-05 -1.03378e-07
4.59187e-05 -3.08919e-05 3.4991e-08
-1.03378e-07 3.4991e-08 -5.16117e-05
0.00244417 7.4422e-05 3.43325e-05
7.4422e-05 0.000980727 -3.47878e-06
3.43325e-05 -3.47878e-06 0.000989572
0.00260075 8.34203e-05 -1.86332e-06
8.34203e-05 0.00107454 -1.68576e-07
-1.86332e-06 -1.68576e-07 0.00108095
0.000644122 5.56725e-05 -3.25961e-07
5.56725e-05 -2.04404e-05 4.94854e-06
-3.25961e-07 4.94854e-06 -4.61864e-05
0.00278874 8.90367e-05 -5.52925e-05
8.90367e-05 0.00118259 2.96632e-06
-5.52925e-05 2.96632e-06 0.00118738
0.00142359 9.42902e-05 -4.90129e-06
9.42902e-05 7.75647e-05 -1.00458e-06
-4.90129e-06 -1.00458e-06 -4.6861e-05
0.001417 4.93593e-05 -4.50666e-06
4.93593e-05 6.79419e-05 -1.17851e-06
-4.50666e-06 -1.17851e-06 -5.25613e-05
0.00154034 7.79024e-05 -8.34441e-07
7.79024e-05 9.23164e-05 4.53729e-07
-8.34441e-07 4.53729e-07 -2.94889e-05
0.00162758 3.56765e-05 -5.5056e-07
3.56765e-05 0.000106184 -2.21066e-07
-5.5056e-07 -2.21066e-07 -1.06575e-05
0.00144793 2.35597e-05 -4.37429e-06
2.35597e-05 6.34029e-05 -4.63062e-07
-4.37429e-06 -4.63062e-07 -5.80885e-05
0.0011963 6.44269e-06 -1.0639e-05
6.44269e-06 1.04168e-05 -1.07561e-07
-1.0639e-05 -1.07561e-07 -9.54338e-05
0.00145871 9.99937e-06 7.12764e-08
9.99937e-06 6.75538e-05 -7.91941e-08
7.12764e-08 -7.91941e-08 -5.358e-05
0.00163232 1.63553e-05 -3.6045e-07
1.63553e-05 9.07504e-05 -1.36406e-08
-3.6045e-07 -1.36406e-08 -2.6786e-05
0.00156204 5.55432e-05 -4.92422e-08
5.55432e-05 8.97369e-05 -1.3384e-08
-4.92422e-08 -1.3384e-08 -2.96726e-05
0.00175816 4.56933e-05 4.57389e-07
4.56933e-05 0.000123146 3.439e-07
4.57389e-07 3.439e-07 1.55876e-05
0.00153313 9.56769e-05 -1.64744e-07
9.56769e-05 8.87287e-05 -5.54788e-08
-1.64744e-07 -5.54788e-08 -3.8382e-05
0.00163823 8.20796e-05 -8.60176e-08
8.20796e-05 9.17551e-05 5.53284e-07
-8.60176e-08 5.53284e-07 -1.65095e-05
0.0016374 -8.11824e-07 7.50958e-07
-8.11824e-07 9.77295e-05 6.1691e-08
7.50958e-07 6.1691e-08 -2.02245e-05
0.00175571 3.54775e-05 -4.09038e-07
3.54775e-05 0.000103049 5.02563e-07
-4.09038e-07 5.02563e-07 -6.85804e-06
0.00168673 6.54175e-05 -2.32032e-06
6.54175e-05 9.9495e-05 -1.04089e-07
-2.32032e-06 -1.04089e-07 -6.16511e-06
0.00180963 5.24401e-05 -3.35948e-07
5.24401e-05 0.000128764 1.30095e-07
-3.35948e-07 1.30095e-07 2.95959e-05
0.00156257 8.95301e-05 -1.8299e-06
8.95301e-05 5.7441e-05 -1.50377e-06
-1.8299e-06 -1.50377e-06 -5.86436e-05
0.00188057 9.1772e-05 -3.5293e-07
9.1772e-05 0.000182826 -5.03059e-08
-3.5293e-07 -5.03059e-08 8.56703e-05
0.00146064 -2.11021e-06 -6.34101e-06
-2.11021e-06 7.13228e-05 7.25518e-07
-6.34101e-06 7.25518e-07 -4.88731e-05
0.00166629 -5.22985e-05 -6.6154e-06
-5.22985e-05 0.000203012 1.07593e-06
-6.6154e-06 1.07593e-06 8.60744e-05
0.0015088 -1.71191e-05 -1.6416e-06
-1.71191e-05 4.69167e-05 2.60602e-07
-1.6416e-06 2.60602e-07 -6.93435e-05
0.00174886 -7.18548e-05 -1.35862e-06
-7.18548e-05 0.000204823 4.47063e-07
-1.35862e-06 4.47063e-07 8.57535e-05
0.000829844 -5.70818e-05 -3.17169e-06
-5.70818e-05 7.71836e-05 2.02325e-06
-3.17169e-06 2.02325e-06 -1.12628e-05
0.0011188 -0.000141233 -1.85944e-06
-0.000141233 0.000204951 1.69407e-06
-1.85944e-06 1.69407e-06 8.56777e-05
0.000959416 -0.000150139 -1.03863e-06
-0.000150139 6.04411e-05 1.05399e-06
-1.03863e-06 1.05399e-06 -8.89281e-05
0.00172829 -0.000133902 -2.0234e-06
-0.000133902 0.00022069 1.29307e-07
-2.0234e-06 1.29307e-07 9.68167e-05
0.00156318 -9.30088e-05 1.9513e-06
-9.30088e-05 7.45124e-05 -1.745e-07
1.9513e-06 -1.745e-07 -3.49476e-05
0.00157922 -0.000151395 6.78766e-07
-0.000151395 0.000111819 -6.1694e-07
6.78766e-07 -6.1694e-07 -1.49594e-05
0.00116408 -0.00017577 -1.9399e-06
-0.00017577 2.07441e-05 3.25355e-07
-1.9399e-06 3.25355e-07 -0.000142362
0.00151968 -0.000175504 4.27203e-06
-0.000175504 7.79578e-05 -2.49376e-06
4.27203e-06 -2.49376e-06 -4.9556e-05
0.000934291 -7.03146e-05 -1.21204e-06
-7.03146e-05 0.000124614 -3.83314e-07
-1.21204e-06 -3.83314e-07 2.43593e-05
0.000880475 -8.45601e-05 -7.93371e-07
-8.45601e-05 9.9012e-05 -7.49078e-07
-7.93371e-07 -7.49078e-07 -8.81707e-06
0.00072215 9.2829e-06 -1.46141e-06
9.2829e-06 5.66688e-06 2.11002e-06
-1.46141e-06 2.11002e-06 -4.66812e-05
0.000654536 3.09906e-05 1.77447e-07
3.09906e-05 -2.5623e-05 1.64035e-07
1.77447e-07 1.64035e-07 -0.000109201
0.00161298 -7.62063e-06 -3.57029e-08
-7.62063e-06 9.50238e-05 -1.95719e-07
-3.57029e-08 -1.95719e-07 -2.36135e-05
0.00177518 -4.45653e-05 -6.9379e-07
-4.45653e-05 0.00020299 2.63555e-07
-6.9379e-07 2.63555e-07 8.44378e-05
0.00168761 -3.17568e-05 -1.28291e-08
-3.17568e-05 9.55524e-05 -1.49559e-07
-1.28291e-08 -1.49559e-07 -1.6196e-05
0.00163048 -7.69174e-05 -2.68198e-07
-7.69174e-05 9.91926e-05 -4.21844e-08
-2.68198e-07 -4.21844e-08 -1.02085e-05
0.000956479 -0.000107992 -3.19308e-07
-0.000107992 0.000130142 3.29772e-07
-3.19308e-07 3.29772e-07 2.42907e-05
0.000659016 -0.00012256 7.2087e-07
-0.00012256 -4.32587e-05 -1.0035e-06
7.2087e-07 -1.0035e-06 -0.000176757
0.00129222 -0.000185719 -2.75389e-07
-0.000185719 0.000201509 2.95213e-07
-2.75389e-07 2.95213e-07 2.69506e-05
0.00164515 -0.000127711 -6.53631e-07
-0.000127711 0.000127905 2.3781e-07
-6.53631e-07 2.3781e-07 1.01474e-05
0.00163951 -9.61478e-05 1.13777e-06
-9.61478e-05 7.76061e-05 -3.76167e-07
1.13777e-06 -3.76167e-07 -2.20684e-05
0.00163908 -0.000207112 -7.80646e-07
-0.000207112 0.000223386 1.16416e-06
-7.80646e-07 1.16416e-06 6.44941e-05
0.00163814 -0.000159976 -4.40568e-07
-0.000159976 0.000105831 1.89032e-07
-4.40568e-07 1.89032e-07 -1.00335e-05
0.00168485 -0.000187426 2.31971e-06
-0.000187426 0.000134748 -1.7735e-06
2.31971e-06 -1.7735e-06 1.13504e-05
0.000984548 -0.000134501 1.38989e-07
-0.000134501 0.000157728 1.47432e-07
1.38989e-07 1.47432e-07 4.24379e-05
0.000980698 -0.000127045 3.30517e-07
-0.000127045 0.000156363 3.65492e-07
3.30517e-07 3.65492e-07 4.07099e-05
0.000883083 -5.63843e-05 -3.17011e-07
-5.63843e-05 0.000106515 -9.26854e-08
-3.17011e-07 -9.26854e-08 5.92954e-06
0.000601707 1.80347e-05 -4.63325e-07
1.80347e-05 -6.30457e-05 5.81862e-08
-4.63325e-07 5.81862e-08 -0.000112396
0.000654061 2.48132e-05 1.19151e-07
2.48132e-05 -2.0399e-05 -4.19921e-07
1.19151e-07 -4.19921e-07 -0.000101198
0.0017808 -2.12933e-05 3.00607e-08
-2.12933e-05 0.000122827 -9.49472e-08
3.00607e-08 -9.49472e-08 1.26899e-05
0.00170889 -4.75198e-05 -5.82602e-07
-4.75198e-05 0.00010119 2.40399e-07
-5.82602e-07 2.40399e-07 -7.07373e-06
0.00172284 -9.01735e-05 -1.82058e-06
-9.01735e-05 0.000103349 -4.09372e-07
-1.82058e-06 -4.09372e-07 9.94568e-06
0.00158324 -0.00012173 -1.6866e-06
-0.00012173 4.28666e-05 7.19749e-07
-1.6866e-06 7.19749e-07 -5.97434e-05
0.000873272 -0.000129763 -6.40958e-07
-0.000129763 9.33341e-05 8.03236e-07
-6.40958e-07 8.03236e-07 -2.66152e-05
0.00204327 -0.000191512 -2.1299e-06
-0.000191512 0.000284944 7.18955e-07
-2.1299e-06 7.18955e-07 0.000172898
0.000112749 -9.33883e-05 -2.0856e-07
-9.33883e-05 -0.000338742 -4.58823e-06
-2.0856e-07 -4.58823e-06 -0.000486296
0.00157425 -0.000216613 2.78767e-06
-0.000216613 0.00030566 -7.47514e-07
2.78767e-06 -7.47514e-07 0.000118028
0.0018273 -0.000222983 -3.50079e-07
-0.000222983 0.000250674 1.29788e-06
-3.50079e-07 1.29788e-06 0.000101734
0.000477446 2.13257e-05 1.30416e-06
2.13257e-05 -0.000134184 -2.737e-06
1.30416e-06 -2.737e-06 -0.000181144
0.000883887 -7.66254e-06 1.43555e-06
-7.66254e-06 0.000109528 -6.99713e-07
1.43555e-06 -6.99713e-07 3.35446e-05
0.000935314 -3.74058e-05 -2.21715e-07
-3.74058e-05 0.000139599 1.18804e-07
-2.21715e-07 1.18804e-07 4.7114e-05
0.000966027 -0.000134677 -1.5299e-06
-0.000134677 0.00014422 2.30883e-06
-1.5299e-06 2.30883e-06 2.72723e-05
0.000983413 -8.61084e-05 5.15e-07
-8.61084e-05 0.000159379 1.68159e-06
5.15e-07 1.68159e-06 4.96871e-05
0.000859578 -0.000128482 -6.42358e-07
-0.000128482 8.18904e-05 1.92686e-06
-6.42358e-07 1.92686e-06 -3.54447e-05
0.000652383 -4.09149e-05 -1.67105e-06
-4.09149e-05 -3.35304e-05 -3.44722e-06
-1.67105e-06 -3.44722e-06 -4.44084e-05
0.000715817 -4.83378e-05 -1.60571e-06
-4.83378e-05 5.90721e-06 -1.38419e-06
-1.60571e-06 -1.38419e-06 -3.50778e-05
0.0014796 0.000123074 -1.05429e-06
0.000123074 6.86546e-05 -1.13585e-07
-1.05429e-06 -1.13585e-07 -6.76342e-05
0.00077964 -5.4456e-05 6.81544e-07
-5.4456e-05 5.12024e-05 -1.07007e-06
6.81544e-07 -1.07007e-06 -2.16305e-05
0.000819063 5.84234e-05 -1.1386e-07
5.84234e-05 7.1796e-05 -3.367e-07
-1.1386e-07 -3.367e-07 -2.92807e-05
0.000725381 3.58673e-05 1.16606e-06
3.58673e-05 3.50036e-05 1.17294e-07
1.16606e-06 1.17294e-07 -7.05084e-05
0.00132216 0.000169153 -2.17004e-06
0.000169153 7.63673e-05 -1.44614e-06
-2.17004e-06 -1.44614e-06 -7.21474e-05
0.00163755 0.000175078 5.78927e-07
0.000175078 0.000142537 3.80759e-07
5.78927e-07 3.80759e-07 -3.8088e-06
0.000958091 0.000137976 4.07333e-07
0.000137976 0.000148295 -4.53968e-07
4.07333e-07 -4.53968e-07 3.80207e-06
0.00125482 0.000176826 -3.16732e-07
0.000176826 0.000219554 -1.8766e-07
-3.16732e-07 -1.8766e-07 5.39435e-05
0.00167873 0.000200022 -2.77085e-06
0.000200022 0.000331485 -4.30652e-06
-2.77085e-06 -4.30652e-06 0.000184797
0.000735456 -3.72074e-05 -9.32362e-08
-3.72074e-05 8.67454e-06 1.68328e-08
-9.32362e-08 1.68328e-08 -2.81125e-05
0.000774279 -2.55652e-05 -5.58504e-07
-2.55652e-05 3.95059e-05 3.17348e-07
-5.58504e-07 3.17348e-07 -2.19086e-05
0.0009908 0.000131266 -5.55273e-07
0.000131266 0.000179735 -1.86249e-08
-5.55273e-07 -1.86249e-08 5.24696e-05
0.00082327 -1.11739e-05 2.75141e-07
-1.11739e-05 8.36639e-05 3.88785e-08
2.75141e-07 3.88785e-08 -4.75218e-06
0.00089974 7.20298e-05 8.36577e-08
7.20298e-05 0.000135629 -5.45779e-07
8.36577e-08 -5.45779e-07 1.72966e-05
0.00159545 0.000127555 -1.0743e-06
0.000127555 9.74358e-05 -9.68073e-07
-1.0743e-06 -9.68073e-07 -3.36965e-05
0.0014744 0.000187549 1.10192e-06
0.000187549 0.00011892 1.31791e-06
1.10192e-06 1.31791e-06 -3.22205e-05
0.00153444 0.000182675 7.56991e-07
0.000182675 5.77848e-05 3.69124e-07
7.56991e-07 3.69124e-07 -7.57963e-05
0.000708235 0.000130453 4.11381e-07
0.000130453 1.26865e-05 2.21732e-06
4.11381e-07 2.21732e-06 -0.000157797
0.00142545 0.000201747 -1.22044e-06
0.000201747 0.000219188 -5.4066e-07
-1.22044e-06 -5.4066e-07 5.32678e-05
0.00079248 4.8683e-06 1.00449e-06
4.8683e-06 4.41117e-05 6.49287e-07
1.00449e-06 6.49287e-07 -1.06987e-05
0.000641466 -3.2957e-05 -9.7471e-07
-3.2957e-05 -2.42832e-05 1.43258e-06
-9.7471e-07 1.43258e-06 -0.000101122
0.000933143 0.000135805 -1.94928e-06
0.000135805 0.000147253 -2.09107e-06
-1.94928e-06 -2.09107e-06 2.16921e-06
0.000667475 2.34536e-05 -1.08693e-06
2.34536e-05 6.78727e-06 -7.55441e-07
-1.08693e-06 -7.55441e-07 -0.000101058
0.00100228 0.000108679 -1.08172e-06
0.000108679 0.000184429 -2.25779e-06
-1.08172e-06 -2.25779e-06 5.7259e-05
0.00159909 0.000138226 -3.30247e-06
0.000138226 3.61252e-05 -2.22053e-06
-3.30247e-06 -2.22053e-06 -6.76314e-05
0.00195917 0.000231775 -9.54859e-07
0.000231775 0.000356266 7.66691e-07
-9.54859e-07 7.66691e-07 0.000200852
0.00133223 0.000176031 -1.59892e-07
0.000176031 -7.67279e-05 -1.78759e-07
-1.59892e-07 -1.78759e-07 -0.000200403
0.00184049 0.00020859 2.63108e-06
0.00020859 0.000590442 4.21395e-06
2.63108e-06 4.21395e-06 0.000396948
0.000384527 0.000151571 -9.13236e-07
0.000151571 -0.00037127 -2.56188e-07
-9.13236e-07 -2.56188e-07 -0.000539096
0.000744028 -2.86103e-05 -1.67763e-06
-2.86103e-05 8.1094e-06 -1.5353e-06
-1.67763e-06 -1.5353e-06 -2.66245e-05
0.000717705 -1.02563e-05 1.82678e-07
-1.02563e-05 1.41019e-06 4.44606e-07
1.82678e-07 4.44606e-07 -5.23361e-05
0.000698645 -3.81609e-05 -2.09619e-07
-3.81609e-05 -1.09286e-06 3.79385e-07
-2.09619e-07 3.79385e-07 -6.53933e-05
0.00064492 -4.54934e-05 -9.51563e-07
-4.54934e-05 -3.90648e-05 -4.57354e-07
-9.51563e-07 -4.57354e-07 -9.31005e-05
0.000786848 -1.99113e-06 1.18896e-07
-1.99113e-06 3.79303e-05 -5.01416e-09
1.18896e-07 -5.01416e-09 -1.55926e-05
0.000807206 -1.0889e-05 1.17731e-07
-1.0889e-05 5.84452e-05 -3.35501e-07
1.17731e-07 -3.35501e-07 -4.82229e-06
0.000900877 1.13655e-05 3.18599e-08
1.13655e-05 0.00011741 -8.08869e-07
3.18599e-08 -8.08869e-07 4.64726e-05
0.000724097 -3.44786e-05 6.33418e-07
-3.44786e-05 1.62575e-05 -1.2167e-07
6.33418e-07 -1.2167e-07 -5.01278e-05
0.000814819 4.94388e-06 4.82051e-07
4.94388e-06 4.91424e-05 4.94375e-07
4.82051e-07 4.94375e-07 -2.62248e-06
0.000753234 -3.38685e-07 9.65093e-07
-3.38685e-07 3.58617e-06 1.57971e-06
9.65093e-07 1.57971e-06 -3.05283e-05
0.000758776 -1.20493e-05 -1.70718e-07
-1.20493e-05 6.73853e-06 -2.66107e-09
-1.70718e-07 -2.66107e-09 -2.65163e-05
0.00126051 -2.41634e-05 1.01207e-06
-2.41634e-05 0.000281461 2.06163e-06
1.01207e-06 2.06163e-06 0.000279802
0.000757852 -1.96575e-05 -9.83259e-07
-1.96575e-05 8.50094e-06 -1.78587e-06
-9.83259e-07 -1.78587e-06 -2.46134e-05
0.00127866 -3.0587e-05 -3.79117e-06
-3.0587e-05 0.000295966 -1.24417e-06
-3.79117e-06 -1.24417e-06 0.000293715
0.000942957 -2.48191e-05 1.67532e-05
-2.48191e-05 0.000112404 6.61525e-06
1.67532e-05 6.61525e-06 0.000125329
0.00129519 -3.65912e-05 -8.26791e-06
-3.65912e-05 0.000310639 -4.5716e-06
-8.26791e-06 -4.5716e-06 0.000307192
0.00088174 -3.12525e-05 6.68058e-06
-3.12525e-05 8.46462e-05 2.47271e-06
6.68058e-06 2.47271e-06 9.60492e-05
0.00200941 -5.8605e-05 -6.16147e-06
-5.8605e-05 0.000724774 -1.54409e-06
-6.16147e-06 -1.54409e-06 0.00073969
0.000660832 3.47732e-05 1.17808e-06
3.47732e-05 -3.66973e-05 -3.81859e-06
1.17808e-06 -3.81859e-06 -5.02215e-05
0.000657994 4.01662e-05 -1.51475e-07
4.01662e-05 -3.10712e-05 3.42696e-08
-1.51475e-07 3.42696e-08 -4.80764e-05
0.00235361 6.53035e-05 2.92543e-05
6.53035e-05 0.000922744 -3.71815e-06
2.92543e-05 -3.71815e-06 0.000934105
0.000661602 4.8419e-05 -1.33633e-06
4.8419e-05 -2.00829e-05 4.33941e-06
-1.33633e-06 4.33941e-06 -4.13267e-05
0.00249075 7.48875e-05 -1.88419e-06
7.48875e-05 0.00100712 -1.49182e-07
-1.88419e-06 -1.49182e-07 0.00101576
0.00264141 8.239e-05 -4.63026e-05
8.239e-05 0.00109683 3.06868e-06
-4.63026e-05 3.06868e-06 0.00110348
0.00148253 9.55347e-05 -1.80561e-06
9.55347e-05 6.07719e-05 3.13181e-07
-1.80561e-06 3.13181e-07 -6.67402e-05
0.00160155 5.39943e-05 -4.42004e-07
5.39943e-05 0.00011302 -1.8914e-07
-4.42004e-07 -1.8914e-07 -6.23495e-06
0.00162096 8.14837e-05 2.42267e-06
8.14837e-05 8.19442e-05 1.14344e-06
2.42267e-06 1.14344e-06 -2.49603e-05
0.00179892 4.8021e-05 1.89612e-06
4.8021e-05 0.000143037 6.60784e-08
1.89612e-06 6.60784e-08 3.72352e-05
0.00164313 9.29163e-06 -9.32473e-07
9.29163e-06 9.64023e-05 -1.44665e-07
-9.32473e-07 -1.44665e-07 -2.11276e-05
0.0014666 1.31587e-05 -4.28308e-06
1.31587e-05 7.15931e-05 -4.17446e-08
-4.28308e-06 -4.17446e-08 -4.95619e-05
0.00162492 2.40148e-06 -2.71245e-07
2.40148e-06 9.08809e-05 -2.20315e-08
-2.71245e-07 -2.20315e-08 -2.78644e-05
0.00175069 2.92672e-05 4.86285e-07
2.92672e-05 0.000102427 -2.38396e-08
4.86285e-07 -2.38396e-08 -8.13785e-06
0.0016698 6.26034e-05 -7.60329e-07
6.26034e-05 8.76334e-05 -1.48697e-07
-7.60329e-07 -1.48697e-07 -1.90351e-05
0.00178076 5.26652e-05 1.12377e-06
5.26652e-05 0.00010822 -1.02935e-07
1.12377e-06 -1.02935e-07 1.0292e-05
0.0015761 8.92892e-05 -6.17719e-07
8.92892e-05 6.94716e-05 1.13806e-07
-6.17719e-07 1.13806e-07 -4.66112e-05
0.00177403 9.43557e-05 2.63491e-06
9.43557e-05 0.000122609 4.30237e-07
2.63491e-06 4.30237e-07 2.68924e-05
0.0017657 2.81455e-06 -4.69952e-07
2.81455e-06 0.000111967 1.65879e-07
-4.69952e-07 1.65879e-07 1.15356e-06
0.00174709 3.99906e-05 -5.46359e-07
3.99906e-05 8.3437e-05 5.34739e-07
-5.46359e-07 5.34739e-07 -1.62855e-05
0.00178948 6.91496e-05 -9.82381e-07
6.91496e-05 0.000104729 9.95892e-09
-9.82381e-07 9.95892e-09 1.28329e-05
0.00190723 0.000115885 -1.53029e-06
0.000115885 0.000189976 -8.39228e-07
-1.53029e-06 -8.39228e-07 9.65018e-05
0.00158133 -7.18239e-06 -9.09299e-07
-7.18239e-06 7.63668e-05 1.18092e-07
-9.09299e-07 1.18092e-07 -4.23391e-05
0.00171241 -4.39268e-05 -1.93751e-06
-4.39268e-05 0.000167113 1.11591e-07
-1.93751e-06 1.11591e-07 4.76504e-05
0.00166482 -3.10305e-05 -5.2538e-08
-3.10305e-05 8.67872e-05 -7.03704e-08
-5.2538e-08 -7.03704e-08 -2.45539e-05
0.00158638 -7.49844e-05 1.32843e-06
-7.49844e-05 7.90372e-05 -1.32431e-07
1.32843e-06 -1.32431e-07 -3.16523e-05
0.00106617 -0.000112113 -1.34182e-06
-0.000112113 0.000189524 2.94729e-07
-1.34182e-06 2.94729e-07 8.25999e-05
0.00082781 -0.000132289 1.04828e-06
-0.000132289 5.07862e-05 6.94081e-07
1.04828e-06 6.94081e-07 -8.11274e-05
0.00122838 -0.000179837 -1.88337e-06
-0.000179837 0.000171038 3.28858e-06
-1.88337e-06 3.28858e-06 -5.82457e-06
0.00168478 -0.000129752 -1.04712e-07
-0.000129752 0.000150504 -3.5558e-07
-1.04712e-07 -3.5558e-07 3.13738e-05
0.00159687 -9.57508e-05 2.60755e-06
-9.57508e-05 5.45527e-05 -8.64593e-07
2.60755e-06 -8.64593e-07 -4.36255e-05
0.00165922 -0.000160738 3.08419e-06
-0.000160738 0.000116092 -6.21294e-07
3.08419e-06 -6.21294e-07 1.51623e-07
0.00153298 -0.000200977 -8.44093e-07
-0.000200977 0.000164717 -1.28951e-06
-8.44093e-07 -1.28951e-06 6.12634e-06
0.00151776 -0.000179066 2.81068e-06
-0.000179066 4.47128e-05 -3.67902e-06
2.81068e-06 -3.67902e-06 -7.72005e-05
0.00106492 -0.000140017 3.62832e-07
-0.000140017 0.000201719 -1.23122e-06
3.62832e-07 -1.23122e-06 8.57207e-05
0.00102528 -0.000130968 7.25885e-07
-0.000130968 0.000179147 -2.48417e-06
7.25885e-07 -2.48417e-06 6.33768e-05
0.000834215 -3.12549e-05 1.87695e-07
-3.12549e-05 7.80764e-05 -1.13005e-07
1.87695e-07 -1.13005e-07 -2.04571e-05
0.000473819 2.06607e-05 -1.71512e-06
2.06607e-05 -0.000133361 2.02163e-06
-1.71512e-06 2.02163e-06 -0.000183988
0.000643417 3.83599e-05 1.0159e-07
3.83599e-05 -2.92777e-05 2.01883e-07
1.0159e-07 2.01883e-07 -0.000107206
0.00177594 -2.24056e-05 2.55645e-07
-2.24056e-05 0.000124011 -6.30017e-08
2.55645e-07 -6.30017e-08 1.37801e-05
0.00173496 -4.91236e-05 2.0057e-07
-4.91236e-05 0.000116941 -1.4158e-07
2.0057e-07 -1.4158e-07 8.81479e-06
0.00171484 -9.03354e-05 -8.19586e-07
-9.03354e-05 0.000101735 -6.3765e-08
-8.19586e-07 -6.3765e-08 6.53266e-06
0.00100806 -0.000138341 -7.8028e-08
-0.000138341 0.000165125 6.05043e-07
-7.8028e-08 6.05043e-07 4.40895e-05
0.000708331 -0.000130719 1.67811e-06
-0.000130719 -1.60926e-05 -1.9735e-06
1.67811e-06 -1.9735e-06 -0.000165249
0.00142819 -0.000205491 -6.76482e-07
-0.000205491 0.000230375 7.33334e-07
-6.76482e-07 7.33334e-07 4.02628e-05
0.00164976 -0.000123166 6.81175e-07
-0.000123166 7.89611e-05 -1.0427e-07
6.81175e-07 -1.0427e-07 -2.39205e-05
0.00174951 -0.000215037 9.96661e-07
-0.000215037 0.000209599 -1.3836e-06
9.96661e-07 -1.3836e-06 6.41563e-05
0.00174655 -0.000182127 -2.41572e-07
-0.000182127 0.000130918 -6.39345e-07
-2.41572e-07 -6.39345e-07 1.84166e-05
0.000475311 2.49279e-05 5.81664e-08
2.49279e-05 -0.000135906 -6.87223e-07
5.81664e-08 -6.87223e-07 -0.000182186
0.00102648 -0.0001386 -7.62304e-08
-0.0001386 0.000175692 3.14025e-07
-7.62304e-08 3.14025e-07 5.82551e-05
0.000859512 -0.000127867 -6.25626e-07
-0.000127867 8.30976e-05 3.46911e-07
-6.25626e-07 3.46911e-07 -3.27474e-05
0.00100131 -9.12842e-05 -3.7401e-07
-9.12842e-05 0.000173053 8.17052e-07
-3.7401e-07 8.17052e-07 6.00788e-05
0.000956418 -3.47254e-05 -3.17302e-08
-3.47254e-05 0.000151559 6.10178e-08
-3.17302e-08 6.10178e-08 5.9149e-05
0.000755486 1.19501e-05 -2.24316e-07
1.19501e-05 3.49399e-05 2.90145e-07
-2.24316e-07 2.90145e-07 -3.93649e-05
0.00167237 -3.2741e-05 -8.69326e-07
-3.2741e-05 4.67025e-05 9.54116e-08
-8.69326e-07 9.54116e-08 -5.79004e-05
0.00178397 -7.28952e-05 -2.25679e-06
-7.28952e-05 0.000110364 -8.88192e-08
-2.25679e-06 -8.88192e-08 1.97149e-05
0.00156045 -0.000101563 -7.49546e-07
-0.000101563 -5.02794e-06 2.98522e-07
-7.49546e-07 2.98522e-07 -9.194e-05
0.00187975 -0.00015643 -4.05376e-07
-0.00015643 0.000157857 1.55305e-07
-4.05376e-07 1.55305e-07 6.4457e-05
0.00100627 -0.000141153 -1.69e-06
-0.000141153 0.000164997 6.78906e-07
-1.69e-06 6.78906e-07 3.65142e-05
0.00177257 -0.000210207 8.14237e-07
-0.000210207 0.000156477 1.24167e-06
8.14237e-07 1.24167e-06 3.33447e-05
0.000763148 -0.000148859 6.45026e-08
-0.000148859 -1.63884e-05 -2.7967e-06
6.45026e-08 -2.7967e-06 -0.00020181
0.00191815 -0.000247832 3.63457e-08
-0.000247832 0.000421021 1.97503e-06
3.63457e-08 1.97503e-06 0.000229279
0.000483425 2.695e-05 4.81731e-07
2.695e-05 -0.000134238 -2.6115e-06
4.81731e-07 -2.6115e-06 -0.000176945
0.000880601 -4.97799e-06 1.22428e-06
-4.97799e-06 0.000103735 -9.1471e-07
1.22428e-06 -9.1471e-07 3.41054e-05
0.00100232 -5.32279e-05 2.96144e-08
-5.32279e-05 0.000179333 8.34619e-07
2.96144e-08 8.34619e-07 9.05473e-05
0.00088327 -1.94386e-05 3.11844e-07
-1.94386e-05 0.000109849 -1.74828e-07
3.11844e-07 -1.74828e-07 8.99527e-06
0.000931456 -0.000135152 -8.62739e-07
-0.000135152 0.00011904 1.72254e-06
-8.62739e-07 1.72254e-06 -2.27242e-06
0.000965859 -0.000136691 -3.36849e-06
-0.000136691 0.000136375 3.22176e-06
-3.36849e-06 3.22176e-06 1.49183e-05
0.000735625 -3.63151e-05 -1.84394e-06
-3.63151e-05 8.74165e-06 -1.4071e-06
-1.84394e-06 -1.4071e-06 -2.7953e-05
0.000745586 -5.47127e-05 -1.56284e-07
-5.47127e-05 2.48256e-05 -6.64724e-07
-1.56284e-07 -6.64724e-07 -3.67956e-05
0.00165057 0.000132244 4.4354e-08
0.000132244 0.000127183 3.85794e-07
4.4354e-08 3.85794e-07 -4.93084e-06
0.000810123 -3.24624e-05 5.88992e-07
-3.24624e-05 7.35759e-05 -4.16408e-07
5.88992e-07 -4.16408e-07 -1.25368e-05
0.00090536 0.000125391 6.02185e-07
0.000125391 0.000134666 -1.93807e-07
6.02185e-07 -1.93807e-07 8.25794e-06
0.000709363 4.20844e-05 1.06899e-06
4.20844e-05 2.78923e-05 -1.21039e-07
1.06899e-06 -1.21039e-07 -8.67279e-05
0.00159263 0.000193063 -1.1767e-06
0.000193063 0.000182004 -1.48259e-06
-1.1767e-06 -1.48259e-06 3.02852e-05
0.00160879 0.000183368 2.19042e-06
0.000183368 9.66677e-05 1.18655e-06
2.19042e-06 1.18655e-06 -3.46154e-05
0.0006382 0.000127075 6.64062e-07
0.000127075 -2.91352e-05 1.15842e-06
6.64062e-07 1.15842e-06 -0.000197301
0.00155838 0.000210314 -3.78709e-07
0.000210314 0.000293096 -7.42093e-07
-3.78709e-07 -7.42093e-07 0.000122788
0.000770938 -1.83801e-05 -5.2487e-07
-1.83801e-05 3.27185e-05 1.16194e-07
-5.2487e-07 1.16194e-07 -2.22935e-05
0.000731582 -1.63084e-05 -2.02209e-08
-1.63084e-05 2.50002e-05 8.48308e-07
-2.02209e-08 8.48308e-07 -5.20114e-05
0.00108569 0.000144922 -6.44508e-07
0.000144922 0.000234318 -1.79031e-06
-6.44508e-07 -1.79031e-06 9.02072e-05
0.000721285 -1.28881e-05 -2.07948e-07
-1.28881e-05 2.97569e-05 8.57906e-08
-2.07948e-07 8.57906e-08 -7.22886e-05
0.000862178 9.12602e-05 -1.02795e-06
9.12602e-05 0.000108941 -9.39227e-07
-1.02795e-06 -9.39227e-07 -1.31586e-05
0.00183333 0.000144536 -2.09472e-06
0.000144536 0.000164524 -8.86144e-07
-2.09472e-06 -8.86144e-07 6.2612e-05
0.00188087 0.000226026 8.78118e-07
0.000226026 0.00031027 6.0232e-07
8.78118e-07 6.0232e-07 0.000154479
0.00152326 0.000187921 6.67777e-07
0.000187921 2.43965e-05 1.64132e-06
6.67777e-07 1.64132e-06 -9.85782e-05
0.0013647 0.000179513 1.79013e-06
0.000179513 0.00034125 2.84806e-06
1.79013e-06 2.84806e-06 0.000145726
0.000872161 0.000182976 -1.77772e-06
0.000182976 -0.000110652 -6.94555e-07
-1.77772e-06 -6.94555e-07 -0.000282116
0.000658727 -3.72453e-05 -2.4472e-07
-3.72453e-05 -1.99149e-05 7.54878e-07
-2.4472e-07 7.54878e-07 -8.76008e-05
0.000503094 2.7842e-05 -5.7705e-07
2.7842e-05 -8.35955e-05 1.56723e-07
-5.7705e-07 1.56723e-07 -0.00018199
0.00110033 0.000146664 -1.84476e-07
0.000146664 0.000236925 1.76241e-07
-1.84476e-07 1.76241e-07 7.17197e-05
0.000166334 3.72277e-05 4.20063e-07
3.72277e-05 -0.000266639 -6.86981e-08
4.20063e-07 -6.86981e-08 -0.000390398
0.00190821 0.000141742 -2.3466e-06
0.000141742 0.000114924 -5.32657e-07
-2.3466e-06 -5.32657e-07 3.81117e-05
0.00191387 0.00017974 6.18847e-07
0.00017974 0.000163006 -4.75967e-07
6.18847e-07 -4.75967e-07 6.75776e-05
0.00166822 0.000237601 -1.28222e-06
0.000237601 0.000166328 -1.52155e-06
-1.28222e-06 -1.52155e-06 8.28512e-06
3.00964e-05 0.000107071 -7.51625e-07
0.000107071 -0.000439488 1.55411e-06
-7.51625e-07 1.55411e-06 -0.00064994
0.000775939 4.68453e-06 -8.73255e-07
4.68453e-06 3.75264e-05 -6.27946e-09
-8.73255e-07 -6.27946e-09 -1.83533e-05
0.000768094 -1.23806e-05 -2.97294e-07
-1.23806e-05 4.03506e-05 4.20462e-07
-2.97294e-07 4.20462e-07 -2.57151e-05
0.000862137 -3.54414e-05 -2.87058e-07
-3.54414e-05 9.80005e-05 -1.06198e-07
-2.87058e-07 -1.06198e-07 2.62941e-05
0.000771856 -3.21888e-05 -1.03233e-06
-3.21888e-05 2.76963e-05 -5.82622e-07
-1.03233e-06 -5.82622e-07 -2.43421e-05
0.00066656 -4.0414e-05 -1.50883e-07
-4.0414e-05 -1.84182e-05 -1.14978e-07
-1.50883e-07 -1.14978e-07 -8.22303e-05
0.000792694 -9.67999e-06 4.16501e-08
-9.67999e-06 3.79914e-05 3.04159e-08
4.16501e-08 3.04159e-08 -1.4433e-05
0.000807529 1.94713e-05 -2.95118e-07
1.94713e-05 7.15641e-05 -2.8138e-07
-2.95118e-07 -2.8138e-07 -3.19568e-06
0.000746777 -1.04984e-05 3.43052e-07
-1.04984e-05 3.02712e-05 2.29936e-07
3.43052e-07 2.29936e-07 -3.71053e-05
0.000846218 -1.05754e-05 2.01027e-07
-1.05754e-05 8.80683e-05 -4.26368e-07
2.01027e-07 -4.26368e-07 1.29594e-05
0.00080764 -4.03692e-05 7.85048e-08
-4.03692e-05 6.50619e-05 -2.21983e-07
7.85048e-08 -2.21983e-07 -7.78236e-06
0.000702925 9.7515e-06 4.97296e-07
9.7515e-06 2.35144e-06 7.00685e-08
4.97296e-07 7.00685e-08 -6.46916e-05
0.00079425 1.83653e-05 6.18486e-07
1.83653e-05 3.92843e-05 4.7982e-07
6.18486e-07 4.7982e-07 -1.39853e-05
0.000744754 5.86345e-06 6.2795e-07
5.86345e-06 7.27192e-07 1.47252e-06
6.2795e-07 1.47252e-06 -3.44971e-05
0.000753903 -6.32628e-06 -1.67023e-07
-6.32628e-06 4.23867e-06 2.85431e-09
-1.67023e-07 2.85431e-09 -2.99778e-05
0.00127686 -1.59969e-05 8.39857e-07
-1.59969e-05 0.000287809 2.02408e-06
8.39857e-07 2.02408e-06 0.000286061
0.000756279 -1.6387e-05 -6.48652e-07
-1.6387e-05 5.7613e-06 -1.67035e-06
-6.48652e-07 -1.67035e-06 -2.76162e-05
0.00129267 -2.22762e-05 -3.13335e-06
-2.22762e-05 0.000299466 -1.30535e-06
-3.13335e-06 -1.30535e-06 0.000297694
0.000952273 -1.89422e-05 1.38827e-05
-1.89422e-05 0.000113171 6.83339e-06
1.38827e-05 6.83339e-06 0.000126597
0.00130692 -2.90062e-05 -6.68948e-06
-2.90062e-05 0.000311418 -4.62428e-06
-6.68948e-06 -4.62428e-06 0.000309153
0.000893015 -2.55777e-05 5.34055e-06
-2.55777e-05 8.44674e-05 2.55072e-06
5.34055e-06 2.55072e-06 9.72793e-05
0.00082572 -3.12345e-05 -2.09672e-06
-3.12345e-05 5.34244e-05 -1.69076e-06
-2.09672e-06 -1.69076e-06 6.48227e-05
0.000670222 2.98631e-05 8.18826e-07
2.98631e-05 -3.81775e-05 -3.66663e-06
8.18826e-07 -3.66663e-06 -4.86265e-05
0.000670848 3.53995e-05 -1.69534e-07
3.53995e-05 -3.12762e-05 3.6688e-08
-1.69534e-07 3.6688e-08 -4.49091e-05
0.00226961 5.59543e-05 2.44462e-05
5.59543e-05 0.000868462 -3.90481e-06
2.44462e-05 -3.90481e-06 0.000882302
0.000673302 4.1475e-05 -1.59074e-06
4.1475e-05 -2.23321e-05 4.06147e-06
-1.59074e-06 4.06147e-06 -3.95972e-05
0.00239021 6.58752e-05 -1.95387e-06
6.58752e-05 0.000943907 -1.36007e-07
-1.95387e-06 -1.36007e-07 0.000954986
0.00253481 7.4868e-05 -3.9287e-05
7.4868e-05 0.00103193 3.36361e-06
-3.9287e-05 3.36361e-06 0.00104051
0.00158822 8.90635e-05 1.66552e-06
8.90635e-05 8.08439e-05 1.98523e-06
1.66552e-06 1.98523e-06 -3.52396e-05
0.00165673 5.98114e-05 7.11394e-07
5.98114e-05 7.78764e-05 3.21453e-08
7.11394e-07 3.21453e-08 -2.97979e-05
0.001673 9.69903e-05 4.44184e-06
9.69903e-05 6.5403e-05 4.67837e-07
4.44184e-06 4.67837e-07 -2.88853e-05
0.00175323 5.29262e-05 2.59687e-06
5.29262e-05 8.86722e-05 -4.92749e-07
2.59687e-06 -4.92749e-07 -8.02594e-06
0.00174512 2.3981e-05 1.54669e-06
2.3981e-05 0.000101689 -1.7194e-07
1.54669e-06 -1.7194e-07 -9.59645e-06
0.00161325 1.27518e-06 -1.07722e-06
1.27518e-06 8.43071e-05 -8.86925e-08
-1.07722e-06 -8.86925e-08 -3.51877e-05
0.00175514 3.6286e-06 -1.2523e-07
3.6286e-06 0.000107771 -8.4041e-09
-1.2523e-07 -8.4041e-09 -3.09433e-06
0.00172833 3.60211e-05 5.63163e-07
3.60211e-05 7.59916e-05 -1.79857e-07
5.63163e-07 -1.79857e-07 -2.41391e-05
0.00175265 7.05468e-05 7.29976e-07
7.05468e-05 8.57956e-05 -1.42195e-07
7.29976e-07 -1.42195e-07 -6.40039e-06
0.00187969 0.000110929 5.19294e-07
0.000110929 0.000167574 2.62865e-07
5.19294e-07 2.62865e-07 7.47806e-05
0.00175958 3.51364e-06 -1.29347e-06
3.51364e-06 8.83462e-05 3.41476e-07
-1.29347e-06 3.41476e-07 -1.43877e-05
0.00190986 5.3208e-05 -2.48601e-07
5.3208e-05 0.000147831 3.41301e-07
-2.48601e-07 3.41301e-07 6.24237e-05
0.00174908 0.000106823 -5.2181e-07
0.000106823 5.31081e-05 -4.64676e-08
-5.2181e-07 -4.64676e-08 -2.96384e-05
0.00177106 -2.32645e-05 4.82912e-07
-2.32645e-05 0.000125181 -2.03244e-07
4.82912e-07 -2.03244e-07 1.48576e-05
0.00176062 -5.0631e-05 6.20336e-07
-5.0631e-05 0.000132391 -3.17788e-07
6.20336e-07 -3.17788e-07 2.44005e-05
0.00170644 -9.00282e-05 1.33304e-06
-9.00282e-05 0.000100305 -6.82244e-08
1.33304e-06 -6.82244e-08 3.33948e-06
0.00112625 -0.000145669 1.1687e-07
-0.000145669 0.000227506 6.31399e-07
1.1687e-07 6.31399e-07 0.000105607
0.00131501 -0.000169035 1.19158e-07
-0.000169035 0.000311173 1.49e-06
1.19158e-07 1.49e-06 0.00016178
0.0012542 -0.000193424 -2.07727e-06
-0.000193424 0.000138754 2.65001e-06
-2.07727e-06 2.65001e-06 -5.23613e-05
0.00171752 -0.000124448 1.22441e-06
-0.000124448 0.000115975 -5.97626e-07
1.22441e-06 -5.97626e-07 1.28576e-05
0.00146632 -0.000174058 3.05052e-08
-0.000174058 -1.5728e-05 -1.51282e-06
3.05052e-08 -1.51282e-06 -0.000128807
0.00168496 -0.000208149 -9.1031e-08
-0.000208149 0.000174846 -4.82408e-06
-9.1031e-08 -4.82408e-06 3.28339e-05
0.00105797 -0.00014056 8.07982e-07
-0.00014056 0.000191421 -1.28821e-06
8.07982e-07 -1.28821e-06 7.37308e-05
0.000846218 -0.000126128 -2.19603e-06
-0.000126128 7.79807e-05 -2.22512e-06
-2.19603e-06 -2.22512e-06 -3.63551e-05
0.00103254 -0.000105638 6.88426e-07
-0.000105638 0.000196282 1.10513e-07
6.88426e-07 1.10513e-07 7.80824e-05
0.000472521 2.30579e-05 -9.11994e-07
2.30579e-05 -0.00013789 1.23814e-06
-9.11994e-07 1.23814e-06 -0.00018354
0.00097229 -2.64728e-05 1.46534e-07
-2.64728e-05 0.00015774 -2.48158e-07
1.46534e-07 -2.48158e-07 6.73457e-05
0.00062785 2.80663e-05 3.21398e-07
2.80663e-05 -3.94611e-05 1.20474e-06
3.21398e-07 1.20474e-06 -0.00011197
0.00176785 -3.09165e-05 -1.7451e-07
-3.09165e-05 9.5586e-05 7.41982e-08
-1.7451e-07 7.41982e-08 -8.85795e-06
0.00182309 -7.47851e-05 5.95156e-07
-7.47851e-05 0.000133147 3.85872e-09
5.95156e-07 3.85872e-09 4.30782e-05
0.00161919 -0.000101903 -3.64517e-07
-0.000101903 2.80035e-05 7.36679e-08
-3.64517e-07 7.36679e-08 -5.89868e-05
0.00100116 -0.000140204 1.21458e-07
-0.000140204 0.00015935 1.24745e-06
1.21458e-07 1.24745e-06 3.07673e-05
0.000907046 -0.000156145 -1.96408e-07
-0.000156145 7.08496e-05 6.54513e-08
-1.96408e-07 6.54513e-08 -0.000110236
0.00183823 -0.000240344 -2.54811e-06
-0.000240344 0.000374242 8.49028e-07
-2.54811e-06 8.49028e-07 0.000185852
0.00189318 -0.000158146 4.90499e-07
-0.000158146 0.000163317 -4.7289e-07
4.90499e-07 -4.7289e-07 6.88876e-05
0.00174657 -0.000210979 1.35086e-06
-0.000210979 0.000140176 -5.78315e-07
1.35086e-06 -5.78315e-07 1.64871e-05
0.00061041 2.12058e-05 3.03647e-07
2.12058e-05 -6.46009e-05 -6.57743e-07
3.03647e-07 -6.57743e-07 -0.000105676
0.000873223 3.84038e-06 -2.97625e-07
3.84038e-06 9.84746e-05 2.13556e-07
-2.97625e-07 2.13556e-07 2.97436e-05
0.000605634 -0.000112975 -1.41262e-06
-0.000112975 -6.05752e-05 1.19295e-06
-1.41262e-06 1.19295e-06 -0.000177938
0.00111995 -0.000140504 9.1605e-07
-0.000140504 0.000221935 7.89708e-07
9.1605e-07 7.89708e-07 0.000103679
0.000869251 -3.15841e-05 2.10837e-07
-3.15841e-05 0.000103561 -3.78033e-07
2.10837e-07 -3.78033e-07 4.79815e-07
0.000919108 -4.19339e-05 -6.83278e-07
-4.19339e-05 0.000133727 9.77092e-07
-6.83278e-07 9.77092e-07 4.48124e-05
0.00181419 -4.90169e-05 -1.41199e-06
-4.90169e-05 0.000100275 -2.6689e-07
-1.41199e-06 -2.6689e-07 1.05393e-05
0.00172543 -9.93658e-05 -3.64299e-06
-9.93658e-05 5.17229e-05 -2.05648e-07
-3.64299e-06 -2.05648e-07 -2.25107e-05
0.00168482 -0.000117706 4.39241e-07
-0.000117706 1.87212e-05 5.79379e-08
4.39241e-07 5.79379e-08 -5.82244e-05
0.00236386 -0.000231475 3.20878e-06
-0.000231475 0.000392276 -6.48156e-07
3.20878e-06 -6.48156e-07 0.000291179
0.000334318 -0.000102744 -2.13808e-06
-0.000102744 -0.000197582 -5.02646e-07
-2.13808e-06 -5.02646e-07 -0.000343138
0.00174221 -0.000246056 -2.64108e-06
-0.000246056 0.000216442 3.90359e-06
-2.64108e-06 3.90359e-06 4.91259e-05
0.00205451 -0.000245832 1.79829e-06
-0.000245832 0.000633564 -3.06539e-06
1.79829e-06 -3.06539e-06 0.000423952
0.000753391 1.57174e-05 8.26031e-07
1.57174e-05 1.14654e-05 -1.85129e-06
8.26031e-07 -1.85129e-06 -2.55105e-05
0.000762814 -6.67611e-05 1.2989e-06
-6.67611e-05 4.36661e-05 -1.3435e-06
1.2989e-06 -1.3435e-06 -2.03752e-05
0.000619949 1.03511e-05 5.48871e-07
1.03511e-05 -3.86544e-05 -1.72608e-06
5.48871e-07 -1.72608e-06 -0.000107634
0.000845967 -3.62502e-05 1.0828e-06
-3.62502e-05 9.73471e-05 1.55887e-07
1.0828e-06 1.55887e-07 1.00855e-05
0.000840946 1.91947e-06 4.2287e-07
1.91947e-06 8.84282e-05 -1.57832e-07
4.2287e-07 -1.57832e-07 -4.23221e-06
0.000660072 -0.000112007 6.64566e-07
-0.000112007 7.31795e-06 2.59812e-06
6.64566e-07 2.59812e-06 -0.000110898
0.000666022 -0.000118228 -3.83158e-06
-0.000118228 -6.60325e-05 1.35586e-06
-3.83158e-06 1.35586e-06 -0.000171022
0.00186232 -0.000190604 -5.1161e-06
-0.000190604 0.000652019 3.70674e-06
-5.1161e-06 3.70674e-06 0.000522859
0.000759056 -4.81912e-05 -5.2886e-07
-4.81912e-05 2.6467e-05 -4.8555e-07
-5.2886e-07 -4.8555e-07 -2.85695e-05
0.00082705 -5.37236e-06 -1.42343e-07
-5.37236e-06 7.77406e-05 4.09273e-07
-1.42343e-07 4.09273e-07 3.55169e-07
0.00206852 0.000150218 1.21362e-06
0.000150218 0.000294499 5.49085e-07
1.21362e-06 5.49085e-07 0.000194491
0.000831775 7.52039e-06 -9.35772e-08
7.52039e-06 9.41511e-05 -3.9873e-07
-9.35772e-08 -3.9873e-07 -1.0868e-05
0.00111495 0.000145999 4.56933e-07
0.000145999 0.000254135 -1.02891e-06
4.56933e-07 -1.02891e-06 0.000110296
0.000690562 7.15301e-05 -3.74716e-07
7.15301e-05 1.6887e-05 1.63953e-06
-3.74716e-07 1.63953e-06 -0.000100063
0.00173325 0.00021633 9.60896e-07
0.00021633 0.00022741 -3.3178e-07
9.60896e-07 -3.3178e-07 7.16662e-05
0.00166794 0.000197638 5.05323e-06
0.000197638 0.000101481 3.99656e-06
5.05323e-06 3.99656e-06 -2.05936e-05
0.000837019 0.000147613 1.43121e-06
0.000147613 6.38744e-05 5.16022e-07
1.43121e-06 5.16022e-07 -0.000133655
0.0012191 0.000205782 -2.85187e-06
0.000205782 7.29961e-05 -7.04036e-07
-2.85187e-06 -7.04036e-07 -0.000100595
0.000669065 -1.55891e-05 9.88177e-08
-1.55891e-05 -1.09163e-05 5.88593e-07
9.88177e-08 5.88593e-07 -8.19308e-05
0.00065701 4.33905e-05 -1.29577e-07
4.33905e-05 6.21014e-07 -1.27776e-06
-1.29577e-07 -1.27776e-06 -9.87619e-05
0.00102213 0.000142128 6.66561e-07
0.000142128 0.000201636 -1.4145e-06
6.66561e-07 -1.4145e-06 3.37136e-05
0.000708783 7.33385e-05 -6.00893e-07
7.33385e-05 2.79845e-05 -1.07062e-06
-6.00893e-07 -1.07062e-06 -9.82142e-05
0.00197988 0.000139621 1.48866e-07
0.000139621 0.000160007 -4.85154e-07
1.48866e-07 -4.85154e-07 8.46891e-05
0.00178782 0.000180089 1.78897e-06
0.000180089 0.000104453 3.83771e-07
1.78897e-06 3.83771e-07 4.91234e-06
0.00176315 0.000238389 -1.90977e-06
0.000238389 0.000215117 -6.12508e-07
-1.90977e-06 -6.12508e-07 5.85076e-05
0.000735535 0.000157026 6.83462e-07
0.000157026 -7.91848e-05 3.14074e-07
6.83462e-07 3.14074e-07 -0.000287775
0.000826674 -2.31698e-05 -1.22333e-07
-2.31698e-05 7.96805e-05 -9.06982e-09
-1.22333e-07 -9.06982e-09 3.32506e-06
0.0017129 0.000104001 -1.3237e-06
0.000104001 -1.54963e-05 3.64013e-07
-1.3237e-06 3.64013e-07 -7.33097e-05
0.0012282 0.00013431 -8.5035e-07
0.00013431 0.000333909 2.15375e-06
-8.5035e-07 2.15375e-06 0.000206578
0.00103433 0.000147233 1.33895e-07
0.000147233 0.00019242 1.75633e-06
1.33895e-07 1.75633e-06 1.82242e-05
0.00228264 0.000178055 -4.24325e-06
0.000178055 0.000276021 1.73725e-07
-4.24325e-06 1.73725e-07 0.000203185
0.00155057 0.000243172 -1.63319e-06
0.000243172 -2.28892e-05 -2.61127e-06
-1.63319e-06 -2.61127e-06 -0.000158537
0.00201707 0.000255774 -1.76735e-06
0.000255774 0.000504465 2.0928e-06
-1.76735e-06 2.0928e-06 0.000292822
0.000843366 -4.43602e-06 -1.53303e-06
-4.43602e-06 8.15004e-05 2.95808e-07
-1.53303e-06 2.95808e-07 1.59467e-05
0.000835922 -1.83511e-05 -7.0525e-08
-1.83511e-05 8.26726e-05 4.46362e-09
-7.0525e-08 4.46362e-09 1.15134e-05
0.000884104 -2.69403e-05 -4.24539e-07
-2.69403e-05 0.00011636 2.34449e-07
-4.24539e-07 2.34449e-07 3.81342e-05
0.000771266 -2.80503e-05 -4.77564e-07
-2.80503e-05 2.74115e-05 -6.25299e-07
-4.77564e-07 -6.25299e-07 -2.58341e-05
0.000777116 1.47359e-06 4.91081e-08
1.47359e-06 4.76685e-05 5.03266e-07
4.91081e-08 5.03266e-07 -2.00024e-05
0.000693514 -1.00879e-05 -4.75829e-07
-1.00879e-05 1.15938e-05 -2.02469e-08
-4.75829e-07 -2.02469e-08 -6.47222e-05
0.000781701 -1.66995e-05 -1.11629e-07
-1.66995e-05 3.56371e-05 1.98627e-08
-1.11629e-07 1.98627e-08 -1.9991e-05
0.000715589 -2.54554e-05 -5.21666e-07
-2.54554e-05 1.25267e-05 2.63899e-07
-5.21666e-07 2.63899e-07 -5.62869e-05
0.000793736 -4.54509e-05 3.84915e-07
-4.54509e-05 5.97238e-05 -3.66851e-07
3.84915e-07 -3.66851e-07 -1.59519e-05
0.000848808 7.83583e-06 2.19588e-07
7.83583e-06 9.30401e-05 4.51867e-07
2.19588e-07 4.51867e-07 1.70196e-05
0.000746942 -2.81635e-05 6.17298e-07
-2.81635e-05 3.00244e-05 -1.06364e-06
6.17298e-07 -1.06364e-06 -4.714e-05
0.000791035 -6.31349e-05 1.66069e-07
-6.31349e-05 5.40445e-05 -2.33993e-07
1.66069e-07 -2.33993e-07 -2.33264e-05
0.000888546 1.20711e-05 6.24902e-07
1.20711e-05 0.000109786 -4.46063e-07
6.24902e-07 -4.46063e-07 3.46541e-05
0.000788713 1.50955e-05 1.48114e-06
1.50955e-05 5.17484e-05 -3.60867e-08
1.48114e-06 -3.60867e-08 -2.08754e-05
0.000789662 4.67824e-06 6.78671e-07
4.67824e-06 3.71007e-05 5.13384e-07
6.78671e-07 5.13384e-07 -1.73555e-05
0.000733977 1.05427e-05 4.49312e-07
1.05427e-05 -3.15407e-06 1.4299e-06
4.49312e-07 1.4299e-06 -3.92179e-05
0.000746779 2.55582e-07 -1.90598e-07
2.55582e-07 2.02478e-06 8.38454e-09
-1.90598e-07 8.38454e-09 -3.32128e-05
0.00128372 -7.75088e-06 6.03613e-07
-7.75088e-06 0.000290261 1.98214e-06
6.03613e-07 1.98214e-06 0.00028816
0.000759409 -1.19975e-05 -3.39552e-07
-1.19975e-05 7.57865e-06 -1.5922e-06
-3.39552e-07 -1.5922e-06 -2.67397e-05
0.00130677 -1.42425e-05 -2.33188e-06
-1.42425e-05 0.00030484 -1.36024e-06
-2.33188e-06 -1.36024e-06 0.0003029
0.00096061 -1.29907e-05 1.04822e-05
-1.29907e-05 0.000114914 7.07264e-06
1.04822e-05 7.07264e-06 0.000128379
0.00132487 -2.09208e-05 -5.03796e-06
-2.09208e-05 0.000317461 -4.67607e-06
-5.03796e-06 -4.67607e-06 0.000315484
0.000906029 -1.94722e-05 3.82625e-06
-1.94722e-05 8.68579e-05 2.64477e-06
3.82625e-06 2.64477e-06 0.000100351
0.000840013 -2.528e-05 -1.51978e-06
-2.528e-05 5.48101e-05 -1.7062e-06
-1.51978e-06 -1.7062e-06 6.77414e-05
0.000749961 8.08631e-06 4.68374e-07
8.08631e-06 8.03994e-06 -1.80944e-06
4.68374e-07 -1.80944e-06 -2.64541e-05
0.000681723 2.39558e-05 7.2e-07
2.39558e-05 -3.74479e-05 -3.58169e-06
7.2e-07 -3.58169e-06 -4.52462e-05
0.000682607 3.03866e-05 -1.43577e-07
3.03866e-05 -3.14333e-05 3.24858e-08
-1.43577e-07 3.24858e-08 -4.19843e-05
0.00220737 4.65513e-05 2.01127e-05
4.65513e-05 0.000826798 -4.06807e-06
2.01127e-05 -4.06807e-06 0.000842881
0.000684267 3.62075e-05 -1.33624e-06
3.62075e-05 -2.39199e-05 3.86238e-06
-1.33624e-06 3.86238e-06 -3.76943e-05
0.00230417 5.66991e-05 -2.0954e-06
5.66991e-05 0.000888582 -1.23252e-07
-2.0954e-06 -1.23252e-07 0.000902085
0.00243279 6.62929e-05 -3.30427e-05
6.62929e-05 0.000968331 3.6561e-06
-3.30427e-05 3.6561e-06 0.000979161
0.0018526 0.000105916 1.84e-06
0.000105916 0.000145296 1.47804e-06
1.84e-06 1.47804e-06 5.31902e-05
0.00171395 7.18161e-05 1.63227e-06
7.18161e-05 6.57739e-05 -1.71644e-07
1.63227e-06 -1.71644e-07 -2.67052e-05
0.00170235 3.54327e-05 1.6297e-06
3.54327e-05 6.43684e-05 -5.59576e-07
1.6297e-06 -5.59576e-07 -3.61863e-05
0.00174404 4.68558e-06 7.64619e-07
4.68558e-06 0.000103232 -1.74082e-07
7.64619e-07 -1.74082e-07 -7.62651e-06
0.00177883 3.82858e-06 -4.98602e-07
3.82858e-06 9.93409e-05 1.17077e-07
-4.98602e-07 1.17077e-07 -2.34377e-06
0.00187314 5.09749e-05 4.59189e-07
5.09749e-05 0.000124813 -3.30157e-07
4.59189e-07 -3.30157e-07 3.87345e-05
0.00172788 0.000107541 -3.9571e-07
0.000107541 3.63721e-05 -1.5039e-07
-3.9571e-07 -1.5039e-07 -4.6255e-05
0.00179662 4.87592e-06 -1.11351e-06
4.87592e-06 8.52294e-05 8.14009e-07
-1.11351e-06 8.14009e-07 -2.48759e-06
0.00200715 6.71948e-05 -1.16135e-06
6.71948e-05 0.00017381 3.36619e-07
-1.16135e-06 3.36619e-07 0.000102955
0.00161741 4.93904e-05 -6.70861e-07
4.93904e-05 -5.94148e-05 -8.13745e-07
-6.70861e-07 -8.13745e-07 -0.000102669
0.00186571 -2.92935e-05 4.06178e-07
-2.92935e-05 0.000145965 -1.00931e-07
4.06178e-07 -1.00931e-07 4.16967e-05
0.00186537 -7.76676e-05 3.49645e-06
-7.76676e-05 0.000157308 1.21916e-07
3.49645e-06 1.21916e-07 6.77963e-05
0.00167787 -0.000103556 -1.4904e-07
-0.000103556 6.00289e-05 -1.81477e-07
-1.4904e-07 -1.81477e-07 -2.71616e-05
0.00108061 -0.000144975 -9.31117e-08
-0.000144975 0.000200956 2.37162e-06
-9.31117e-08 2.37162e-06 7.14064e-05
0.000923754 -0.000155014 5.99169e-07
-0.000155014 8.75837e-05 4.26353e-06
5.99169e-07 4.26353e-06 -8.99871e-05
0.00170362 -0.00022902 -2.05749e-06
-0.00022902 0.000298887 4.14002e-07
-2.05749e-06 4.14002e-07 0.000114459
0.00187702 -0.000157702 3.11272e-06
-0.000157702 0.000152787 -8.26389e-07
3.11272e-06 -8.26389e-07 5.74958e-05
0.00165437 -0.000206968 1.87718e-07
-0.000206968 9.08448e-05 -2.0949e-06
1.87718e-07 -2.0949e-06 -3.28206e-05
0.000329648 -9.41155e-05 -1.82171e-06
-9.41155e-05 -0.000212676 1.82782e-06
-1.82171e-06 1.82782e-06 -0.000326549
0.001295 -0.000148649 7.33073e-06
-0.000148649 0.000319549 -3.8268e-06
7.33073e-06 -3.8268e-06 0.000203594
0.000782461 2.88188e-07 2.83271e-08
2.88188e-07 4.84515e-05 -7.10923e-07
2.83271e-08 -7.10923e-07 -4.83373e-05
0.000736697 1.89798e-05 -7.60443e-07
1.89798e-05 4.72819e-06 1.19909e-06
-7.60443e-07 1.19909e-06 -3.48838e-05
0.0008735 2.13013e-05 -6.64334e-07
2.13013e-05 9.81795e-05 1.2394e-06
-6.64334e-07 1.2394e-06 2.97024e-05
0.0008329 -1.75066e-05 -5.65008e-07
-1.75066e-05 8.67247e-05 9.9454e-07
-5.65008e-07 9.9454e-07 -2.3558e-06
0.00184074 -4.99032e-05 -1.71884e-08
-4.99032e-05 0.000117089 -5.84335e-09
-1.71884e-08 -5.84335e-09 2.91238e-05
0.000749046 1.29284e-05 2.70846e-07
1.29284e-05 8.99479e-06 2.80665e-08
2.70846e-07 2.80665e-08 -2.79885e-05
0.000689824 -1.72122e-05 -5.02962e-07
-1.72122e-05 -5.97427e-06 5.50563e-08
-5.02962e-07 5.50563e-08 -6.42799e-05
0.00179351 -9.97583e-05 -3.16403e-07
-9.97583e-05 9.26197e-05 -1.69879e-07
-3.16403e-07 -1.69879e-07 1.77055e-05
0.00159595 -0.000114701 -1.57051e-06
-0.000114701 -3.5087e-05 8.56949e-07
-1.57051e-06 8.56949e-07 -0.000113727
0.00061886 -0.000119952 -6.46037e-08
-0.000119952 -3.53205e-05 2.64171e-06
-6.46037e-08 2.64171e-06 -0.000178626
0.00157632 -0.000212063 -1.87175e-06
-0.000212063 0.00038298 8.33009e-07
-1.87175e-06 8.33009e-07 0.000167879
0.00148236 -0.000227812 7.22309e-07
-0.000227812 8.17449e-05 -9.10715e-07
7.22309e-07 -9.10715e-07 -8.04767e-05
0.0019425 -0.000219538 2.6052e-06
-0.000219538 0.000172878 -7.46895e-07
2.6052e-06 -7.46895e-07 7.12864e-05
0.000834448 -2.17039e-05 1.16937e-06
-2.17039e-05 7.8841e-05 -6.45591e-07
1.16937e-06 -6.45591e-07 1.20573e-05
0.000826645 -2.40456e-05 -3.25552e-07
-2.40456e-05 8.79283e-05 6.06992e-07
-3.25552e-07 6.06992e-07 -3.28268e-07
0.00093197 -0.000125009 -2.14145e-08
-0.000125009 7.53929e-05 -3.03428e-07
-2.14145e-08 -3.03428e-07 -3.41956e-05
0.00120868 -0.000150346 5.79442e-06
-0.000150346 0.000293017 -1.88006e-06
5.79442e-06 -1.88006e-06 0.000181184
0.000663576 -8.36297e-05 -8.87565e-07
-8.36297e-05 3.69187e-06 2.33015e-07
-8.87565e-07 2.33015e-07 -0.000110723
0.000853348 -3.13149e-06 2.57045e-07
-3.13149e-06 9.7792e-05 -4.51857e-07
2.57045e-07 -4.51857e-07 3.04605e-06
0.00192559 -6.11559e-05 -3.31822e-06
-6.11559e-05 0.00011962 -8.95106e-08
-3.31822e-06 -8.95106e-08 5.3168e-05
0.00194711 -9.06067e-05 2.17142e-06
-9.06067e-05 0.000140813 8.91178e-07
2.17142e-06 8.91178e-07 7.35114e-05
0.001744 -0.000197874 -2.7829e-06
-0.000197874 -1.92823e-05 -1.86697e-06
-2.7829e-06 -1.86697e-06 -9.12468e-05
0.0014175 -0.000236829 1.26366e-06
-0.000236829 -7.21249e-05 2.5317e-07
1.26366e-06 2.5317e-07 -0.000188386
0.000872361 -0.000106202 -4.47585e-06
-0.000106202 7.85148e-05 -2.80108e-06
-4.47585e-06 -2.80108e-06 -6.80288e-05
0.00228719 -0.000281567 -3.05116e-06
-0.000281567 0.000671537 2.49511e-06
-3.05116e-06 2.49511e-06 0.000444087
0.000576837 4.5321e-05 -1.17379e-06
4.5321e-05 -6.4795e-05 -1.87327e-06
-1.17379e-06 -1.87327e-06 -0.000124097
0.000774896 -3.48978e-05 1.00653e-06
-3.48978e-05 4.08837e-05 -1.20896e-06
1.00653e-06 -1.20896e-06 -1.97429e-05
0.000971649 -4.45628e-05 1.07784e-06
-4.45628e-05 0.000168293 -3.71325e-07
1.07784e-06 -3.71325e-07 9.08819e-05
0.000613061 1.74281e-05 -3.24936e-07
1.74281e-05 -2.68438e-05 -3.61128e-07
-3.24936e-07 -3.61128e-07 -0.000116143
0.00103859 -2.66186e-05 2.4345e-07
-2.66186e-05 0.000203033 2.11838e-07
2.4345e-07 2.11838e-07 0.000111985
0.000506504 -2.81065e-05 5.06686e-07
-2.81065e-05 -8.14354e-05 4.99064e-07
5.06686e-07 4.99064e-07 -0.000189414
0.000866771 -8.28136e-05 5.66045e-06
-8.28136e-05 0.000154722 8.43806e-07
5.66045e-06 8.43806e-07 1.46317e-05
0.000722227 -0.000133844 -1.42022e-05
-0.000133844 -1.07713e-05 4.76836e-06
-1.42022e-05 4.76836e-06 -0.000107278
0.000657242 2.97509e-06 -1.13716e-07
2.97509e-06 -1.41161e-05 2.58745e-07
-1.13716e-07 2.58745e-07 -8.83947e-05
0.000816333 5.78096e-05 -1.8276e-06
5.78096e-05 8.75622e-05 -2.19228e-06
-1.8276e-06 -2.19228e-06 -1.27469e-05
0.0020314 0.000137715 -3.89206e-07
0.000137715 0.00019231 -2.92872e-07
-3.89206e-07 -2.92872e-07 0.000118494
0.00169213 0.000181945 1.99294e-06
0.000181945 6.05415e-05 1.69965e-06
1.99294e-06 1.69965e-06 -4.31374e-05
0.00125809 9.11246e-05 -2.61359e-06
9.11246e-05 0.000322727 -5.54128e-07
-2.61359e-06 -5.54128e-07 0.000196712
0.000946889 0.00013729 -3.32356e-07
0.00013729 0.000166695 -3.63168e-06
-3.32356e-07 -3.63168e-06 -2.89457e-06
0.00193771 0.000243405 1.79316e-06
0.000243405 0.00030641 3.22209e-07
1.79316e-06 3.22209e-07 0.000150547
0.00156138 0.000214156 -7.7302e-07
0.000214156 0.000347856 -1.15716e-06
-7.7302e-07 -1.15716e-06 0.000139566
0.000802917 6.86746e-06 6.56532e-07
6.86746e-06 7.17408e-05 -6.10855e-07
6.56532e-07 -6.10855e-07 -8.296e-06
0.00180199 0.00010107 -5.5753e-07
0.00010107 3.11936e-05 9.35806e-08
-5.5753e-07 9.35806e-08 -2.59671e-05
0.000919142 9.04685e-05 1.89546e-07
9.04685e-05 0.000160205 1.48508e-06
1.89546e-07 1.48508e-06 4.00653e-05
0.000778181 0.000130064 4.58437e-07
0.000130064 5.29682e-05 -2.62974e-07
4.58437e-07 -2.62974e-07 -0.000122742
0.00201587 0.000169823 2.42414e-06
0.000169823 0.000131594 -1.96521e-07
2.42414e-06 -1.96521e-07 5.8109e-05
0.00173871 0.000248763 -2.55318e-07
0.000248763 7.32275e-05 -1.31627e-06
-2.55318e-07 -1.31627e-06 -5.96674e-05
0.00205366 0.000261081 9.76555e-07
0.000261081 0.00053456 1.23916e-06
9.76555e-07 1.23916e-06 0.000321721
0.00101619 3.03433e-05 -2.05374e-06
3.03433e-05 0.000201749 1.02548e-06
-2.05374e-06 1.02548e-06 0.000101954
0.00212561 0.00011618 -1.43692e-05
0.00011618 0.000197739 -1.6306e-06
-1.43692e-05 -1.6306e-06 0.000160232
0.00202538 0.000186082 -3.21484e-06
0.000186082 0.000742156 -1.42938e-07
-3.21484e-06 -1.42938e-07 0.000599961
0.0021953 0.000241352 -5.06313e-06
0.000241352 0.000762287 1.72417e-06
-5.06313e-06 1.72417e-06 0.00056441
0.0022101 0.000270546 -3.63355e-06
0.000270546 0.000227474 -3.22116e-06
-3.63355e-06 -3.22116e-06 0.000138802
0.00159034 0.000255676 -5.64034e-06
0.000255676 0.000174863 4.7631e-08
-5.64034e-06 4.7631e-08 -9.73146e-06
0.000236012 0.000119538 1.00453e-05
0.000119538 -0.000505705 -3.03821e-07
1.00453e-05 -3.03821e-07 -0.000668018
0.000805514 -3.05657e-06 3.70441e-08
-3.05657e-06 6.7175e-05 5.77028e-08
3.70441e-08 5.77028e-08 -4.75984e-06
0.000855804 -2.37155e-05 -2.31604e-07
-2.37155e-05 0.000101982 2.15927e-07
-2.31604e-07 2.15927e-07 2.32041e-05
0.00095054 -1.32004e-05 -4.08747e-08
-1.32004e-05 0.000146256 -1.17154e-06
-4.08747e-08 -1.17154e-06 6.28848e-05
0.00076783 -4.74399e-05 -2.83109e-07
-4.74399e-05 3.06869e-05 -6.73654e-07
-2.83109e-07 -6.73654e-07 -2.68628e-05
0.000737715 -4.99927e-05 -1.1083e-06
-4.99927e-05 2.40739e-05 5.40565e-07
-1.1083e-06 5.40565e-07 -4.39938e-05
0.000875138 6.3481e-05 -7.98721e-07
6.3481e-05 0.000110852 7.52521e-07
-7.98721e-07 7.52521e-07 3.30754e-05
0.000746068 -4.71306e-05 -6.95026e-08
-4.71306e-05 3.49633e-05 2.14648e-07
-6.95026e-08 2.14648e-07 -4.20496e-05
0.00077074 -2.59977e-05 -7.50434e-08
-2.59977e-05 3.29659e-05 2.015e-08
-7.50434e-08 2.015e-08 -2.56773e-05
0.000748631 9.32527e-06 2.72845e-09
9.32527e-06 2.2384e-05 -1.19507e-07
2.72845e-09 -1.19507e-07 -4.51827e-05
0.00078959 -3.24864e-05 3.23456e-07
-3.24864e-05 5.31434e-05 -4.71533e-07
3.23456e-07 -4.71533e-07 -2.48807e-05
0.000875977 -1.78297e-05 -9.86616e-09
-1.78297e-05 9.93366e-05 -4.31795e-09
-9.86616e-09 -4.31795e-09 2.66369e-05
0.000872641 -4.33482e-05 2.75097e-07
-4.33482e-05 9.76896e-05 -7.89831e-09
2.75097e-07 -7.89831e-09 2.14691e-05
0.000838076 -4.04545e-05 2.63197e-08
-4.04545e-05 7.21612e-05 -9.91576e-07
2.63197e-08 -9.91576e-07 -5.03887e-06
0.000821304 -7.96477e-06 3.88021e-07
-7.96477e-06 6.01678e-05 -1.39272e-06
3.88021e-07 -1.39272e-06 -1.26059e-05
0.000855303 1.50931e-05 5.67568e-07
1.50931e-05 7.98792e-05 -4.86048e-07
5.67568e-07 -4.86048e-07 9.55145e-06
0.000804386 2.59198e-05 2.44e-07
2.59198e-05 5.74863e-05 2.6222e-08
2.44e-07 2.6222e-08 -1.84408e-05
0.000674131 -1.12263e-05 4.08249e-08
-1.12263e-05 -2.81612e-05 9.44871e-07
4.08249e-08 9.44871e-07 -8.48015e-05
0.000909789 -6.80705e-06 2.75051e-07
-6.80705e-06 0.000128936 -6.66471e-07
2.75051e-07 -6.66471e-07 5.13994e-05
0.000648739 5.16186e-06 -6.19582e-07
5.16186e-06 -3.78614e-05 9.14488e-07
-6.19582e-07 9.14488e-07 -9.64811e-05
0.000738584 1.06926e-05 6.58683e-08
1.06926e-05 2.45216e-08 1.37676e-06
6.58683e-08 1.37676e-06 -3.63249e-05
0.000737798 3.15278e-06 -6.26218e-08
3.15278e-06 -1.09976e-06 6.29456e-09
-6.26218e-08 6.29456e-09 -3.70865e-05
0.000690834 9.71212e-07 1.88512e-07
9.71212e-07 -4.15325e-05 3.32096e-06
1.88512e-07 3.32096e-06 -4.75267e-05
0.000752699 -5.46947e-06 -8.78775e-08
-5.46947e-06 5.46688e-06 -1.48332e-06
-8.78775e-08 -1.48332e-06 -2.97822e-05
0.00100715 -5.7268e-06 -1.51043e-06
-5.7268e-06 0.000135777 -1.42922e-06
-1.51043e-06 -1.42922e-06 0.000131812
0.00217194 -9.30561e-06 6.47964e-06
-9.30561e-06 0.00079097 4.45651e-06
6.47964e-06 4.45651e-06 0.000811251
0.00134037 -1.30864e-05 -3.00223e-06
-1.30864e-05 0.000323908 -4.72013e-06
-3.00223e-06 -4.72013e-06 0.00032169
0.000916265 -1.32149e-05 2.04989e-06
-1.32149e-05 8.93312e-05 2.73597e-06
2.04989e-06 2.73597e-06 0.000102995
0.000855339 -1.88952e-05 -9.91745e-07
-1.88952e-05 5.81604e-05 -1.69887e-06
-9.91745e-07 -1.69887e-06 7.19137e-05
0.000743419 7.89652e-06 2.17176e-07
7.89652e-06 4.39822e-06 -1.76926e-06
2.17176e-07 -1.76926e-06 -2.8419e-05
0.000751252 7.23326e-06 -6.76607e-09
7.23326e-06 8.5528e-06 1.37176e-08
-6.76607e-09 1.37176e-08 -2.59695e-05
0.000695151 1.78546e-05 4.31194e-07
1.78546e-05 -3.43112e-05 -3.47902e-06
4.31194e-07 -3.47902e-06 -4.00342e-05
0.00100371 2.76229e-05 -4.90134e-07
2.76229e-05 0.000142693 3.1392e-08
-4.90134e-07 3.1392e-08 0.0001364
0.00215675 3.68064e-05 1.65979e-05
3.68064e-05 0.000792661 -4.19447e-06
1.65979e-05 -4.19447e-06 0.000810701
0.000693174 3.09504e-05 -9.50176e-07
3.09504e-05 -2.56395e-05 3.70953e-06
-9.50176e-07 3.70953e-06 -3.63002e-05
0.00223155 4.73335e-05 -2.15637e-06
4.73335e-05 0.00084116 -1.05687e-07
-2.15637e-06 -1.05687e-07 0.000856925
0.00233596 5.72133e-05 -2.73958e-05
5.72133e-05 0.000907141 3.89052e-06
-2.73958e-05 3.89052e-06 0.000920355
0.00170311 0.000108415 -1.01593e-06
0.000108415 1.81766e-05 -2.47118e-07
-1.01593e-06 -2.47118e-07 -6.43552e-05
0.00183386 4.94401e-05 1.38581e-06
4.94401e-05 0.000100411 -8.39225e-07
1.38581e-06 -8.39225e-07 1.36407e-05
0.00180399 9.26217e-07 1.8478e-07
9.26217e-07 0.000113404 -1.40852e-07
1.8478e-07 -1.40852e-07 1.27763e-05
0.00176337 6.77938e-06 3.38077e-07
6.77938e-06 6.39898e-05 3.40343e-07
3.38077e-07 3.40343e-07 -2.39229e-05
0.00183803 6.48824e-05 -6.63601e-07
6.48824e-05 8.72007e-05 -5.99781e-08
-6.63601e-07 -5.99781e-08 1.51442e-05
0.00171593 4.93517e-05 2.28198e-06
4.93517e-05 -4.08171e-06 2.03698e-07
2.28198e-06 2.03698e-07 -5.05116e-05
0.00170086 1.03869e-05 -1.28666e-06
1.03869e-05 3.58826e-06 1.95759e-07
-1.28666e-06 1.95759e-07 -5.74912e-05
0.00327336 6.24808e-05 1.35097e-05
6.24808e-05 0.000598857 1.34409e-06
1.35097e-05 1.34409e-06 0.000545931
0.00168377 3.93293e-05 -1.02605e-05
3.93293e-05 9.4032e-07 -2.45735e-06
-1.02605e-05 -2.45735e-06 -2.12566e-05
0.000778126 3.80697e-05 -2.99298e-07
3.80697e-05 4.39315e-05 -1.03222e-06
-2.99298e-07 -1.03222e-06 -1.03256e-05
0.0018649 -5.0539e-05 1.85152e-06
-5.0539e-05 0.000132464 2.35349e-07
1.85152e-06 2.35349e-07 4.62411e-05
0.00182986 -9.75285e-05 2.02556e-06
-9.75285e-05 0.000117964 -2.46045e-07
2.02556e-06 -2.46045e-07 4.25702e-05
0.00156627 -0.000113056 1.07575e-06
-0.000113056 -5.5505e-05 3.14295e-07
1.07575e-06 3.14295e-07 -0.000135211
0.000934477 -0.00013877 1.74757e-06
-0.00013877 0.000144789 4.1125e-06
1.74757e-06 4.1125e-06 3.90174e-06
0.00113612 -0.000180672 1.44285e-06
-0.000180672 0.000153515 4.92963e-06
1.44285e-06 4.92963e-06 -6.82904e-05
0.00120867 -0.000209841 -1.08952e-06
-0.000209841 -5.91158e-05 -3.65682e-06
-1.08952e-06 -3.65682e-06 -0.000217751
0.00157267 -0.000211255 -2.89764e-06
-0.000211255 -1.97592e-05 -1.52571e-06
-2.89764e-06 -1.52571e-06 -0.00012239
0.00114724 -0.000135568 9.04331e-06
-0.000135568 0.00018918 -3.44063e-06
9.04331e-06 -3.44063e-06 7.4503e-05
0.000548722 -0.000111176 2.83102e-06
-0.000111176 -6.71936e-05 -9.83818e-06
2.83102e-06 -9.83818e-06 -0.00016235
0.000701906 -8.18778e-05 -1.41278e-07
-8.18778e-05 2.24478e-05 -1.24347e-06
-1.41278e-07 -1.24347e-06 -9.19936e-05
0.000749172 8.29865e-06 -1.03242e-06
8.29865e-06 8.89655e-06 1.89957e-06
-1.03242e-06 1.89957e-06 -2.79809e-05
0.000877879 -1.28196e-05 -3.12384e-08
-1.28196e-05 0.000114335 -5.9774e-07
-3.12384e-08 -5.9774e-07 1.70351e-05
0.00103608 -5.23477e-05 -3.58601e-07
-5.23477e-05 0.000193487 4.76731e-07
-3.58601e-07 4.76731e-07 0.000126107
0.000813754 -1.67469e-05 -9.42828e-07
-1.67469e-05 8.0269e-05 8.94729e-07
-9.42828e-07 8.94729e-07 -7.77173e-06
0.00060686 -1.26345e-05 -4.69179e-07
-1.26345e-05 -5.54752e-05 1.17665e-06
-4.69179e-07 1.17665e-06 -0.00011192
0.00192479 -6.52266e-05 -5.1491e-07
-6.52266e-05 0.000116295 -1.86576e-07
-5.1491e-07 -1.86576e-07 5.14575e-05
0.000669617 1.98012e-05 1.30257e-07
1.98012e-05 -1.19685e-05 -7.11889e-07
1.30257e-07 -7.11889e-07 -7.11974e-05
0.000777676 -4.58548e-05 -2.64984e-07
-4.58548e-05 4.73639e-05 8.47567e-08
-2.64984e-07 8.47567e-08 -1.6741e-05
0.000832304 -1.95885e-05 -6.51632e-07
-1.95885e-05 9.24211e-05 6.16984e-07
-6.51632e-07 6.16984e-07 1.25419e-05
0.00172265 -9.49762e-05 5.93816e-07
-9.49762e-05 8.1322e-06 -6.07442e-07
5.93816e-07 -6.07442e-07 -5.84251e-05
0.00178929 -0.000199066 -2.62388e-07
-0.000199066 2.09183e-05 -1.32733e-07
-2.62388e-07 -1.32733e-07 -5.47487e-05
0.000880781 -0.000116981 1.87697e-06
-0.000116981 6.83713e-05 -7.48749e-08
1.87697e-06 -7.48749e-08 -6.97452e-05
0.00112827 -0.000206087 2.14556e-06
-0.000206087 8.33039e-05 2.48152e-09
2.14556e-06 2.48152e-09 -0.00014517
0.00172346 -0.000259469 -4.93897e-07
-0.000259469 9.00623e-05 2.17012e-07
-4.93897e-07 2.17012e-07 -3.07737e-05
0.000726787 -2.07569e-06 -2.0475e-07
-2.07569e-06 3.62514e-05 -1.68762e-08
-2.0475e-07 -1.68762e-08 -5.24293e-05
0.000947136 -4.32938e-05 -8.12117e-08
-4.32938e-05 0.000157023 9.2116e-08
-8.12117e-08 9.2116e-08 6.20231e-05
0.000585254 -0.000126745 -6.12139e-06
-0.000126745 -7.36501e-05 1.2928e-06
-6.12139e-06 1.2928e-06 -0.000181267
0.000936039 -7.69186e-05 8.73214e-07
-7.69186e-05 0.000184979 -2.62237e-07
8.73214e-07 -2.62237e-07 5.18192e-05
0.000727971 -5.38106e-05 -5.85525e-07
-5.38106e-05 3.93312e-05 6.13527e-07
-5.85525e-07 6.13527e-07 -6.94166e-05
0.0020638 -0.000123086 -4.07912e-06
-0.000123086 0.000137448 4.89075e-07
-4.07912e-06 4.89075e-07 9.22406e-05
0.00237451 -0.00013368 -2.37611e-07
-0.00013368 0.000327864 1.36826e-06
-2.37611e-07 1.36826e-06 0.0002725
0.00217879 -0.000288701 -1.08589e-06
-0.000288701 0.000231857 -1.10779e-06
-1.08589e-06 -1.10779e-06 0.000135471
0.00207394 -0.000288151 -8.96433e-06
-0.000288151 0.000452817 5.21444e-07
-8.96433e-06 5.21444e-07 0.000278848
0.000953335 -0.0001181 -5.74894e-06
-0.0001181 0.000146286 -2.10315e-06
-5.74894e-06 -2.10315e-06 -2.74857e-05
0.000597653 1.31599e-05 5.80935e-07
1.31599e-05 -4.05706e-05 -1.34646e-06
5.80935e-07 -1.34646e-06 -0.000118671
0.000627649 5.35093e-05 6.08487e-08
5.35093e-05 -2.14586e-05 -8.58882e-07
6.08487e-08 -8.58882e-07 -0.000104692
0.000930326 1.39132e-05 1.02881e-06
1.39132e-05 0.0001487 1.51054e-07
1.02881e-06 1.51054e-07 6.05158e-05
0.000817478 -7.14552e-05 1.62643e-06
-7.14552e-05 9.14811e-05 1.94403e-07
1.62643e-06 1.94403e-07 -6.29182e-06
0.000795294 -1.38685e-05 4.49726e-07
-1.38685e-05 7.09637e-05 1.01735e-06
4.49726e-07 1.01735e-06 -2.49215e-05
0.000704686 -1.6927e-05 1.77254e-06
-1.6927e-05 4.4281e-05 -3.46607e-07
1.77254e-06 -3.46607e-07 -7.71031e-05
0.000739711 -9.97517e-05 8.83977e-06
-9.97517e-05 0.000107119 1.05721e-06
8.83977e-06 1.05721e-06 -7.33486e-05
0.000789197 4.31341e-05 7.84575e-07
4.31341e-05 7.0212e-05 -1.53817e-06
7.84575e-07 -1.53817e-06 -1.42346e-05
0.000583857 4.58112e-05 8.51098e-07
4.58112e-05 -2.73659e-05 2.30876e-07
8.51098e-07 2.30876e-07 -0.000140368
0.00190058 9.79348e-05 1.41594e-06
9.79348e-05 8.44682e-05 -2.88496e-07
1.41594e-06 -2.88496e-07 2.72903e-05
0.00174632 0.000161304 3.80525e-06
0.000161304 -1.32843e-05 -5.01488e-07
3.80525e-06 -5.01488e-07 -8.70338e-05
0.00191462 0.000253649 3.4182e-06
0.000253649 0.000163237 1.30828e-07
3.4182e-06 1.30828e-07 3.33851e-05
0.000517307 0.00011327 1.99899e-06
0.00011327 -8.94455e-05 -7.94913e-07
1.99899e-06 -7.94913e-07 -0.000266359
0.00205863 0.000265164 2.89201e-06
0.000265164 0.000546142 1.31682e-06
2.89201e-06 1.31682e-06 0.000333545
0.00100954 2.04822e-05 -2.42184e-07
2.04822e-05 0.000195809 3.60861e-07
-2.42184e-07 3.60861e-07 0.000101184
0.00192946 0.000109788 -1.31009e-06
0.000109788 8.74683e-05 -1.29798e-07
-1.31009e-06 -1.29798e-07 5.56144e-05
0.00130925 0.000143048 -1.03199e-06
0.000143048 0.00035802 -1.92407e-07
-1.03199e-06 -1.92407e-07 0.000222374
0.00153009 0.000195552 -7.41924e-07
0.000195552 0.000426421 1.24501e-06
-7.41924e-07 1.24501e-06 0.000225797
0.00208864 0.000258017 9.85774e-07
0.000258017 0.000161643 -1.05339e-06
9.85774e-07 -1.05339e-06 7.52231e-05
0.00149967 0.000252062 -1.42929e-06
0.000252062 0.00012791 1.36843e-06
-1.42929e-06 1.36843e-06 -6.05965e-05
0.00119601 0.000141568 1.41974e-05
0.000141568 -0.000231883 1.49225e-06
1.41974e-05 1.49225e-06 -0.000430753
0.00108662 5.89299e-05 -2.36061e-06
5.89299e-05 0.000235585 -1.46625e-06
-2.36061e-06 -1.46625e-06 0.000126731
0.00257697 0.000180807 -1.97238e-05
0.000180807 0.000439929 -1.06992e-05
-1.97238e-05 -1.06992e-05 0.00044101
0.00130255 0.000171177 -5.63168e-06
0.000171177 0.000356674 -1.53422e-06
-5.63168e-06 -1.53422e-06 0.000203853
0.00142365 0.000210721 -6.89268e-06
0.000210721 0.000297595 -2.40812e-07
-6.89268e-06 -2.40812e-07 8.01801e-05
0.000483844 0.000262117 -9.28752e-06
0.000262117 -0.000543964 -1.94543e-06
-9.28752e-06 -1.94543e-06 -0.000690695
0.00792061 7.09739e-05 -8.62541e-05
7.09739e-05 0.00241374 -3.15758e-05
-8.62541e-05 -3.15758e-05 0.00153366
0.00375707 0.00028308 0.000100699
0.00028308 0.000519486 7.87533e-07
0.000100699 7.87533e-07 -0.000178268
0.000401638 0.000232199 9.68568e-06
0.000232199 -0.000464842 1.78216e-05
9.68568e-06 1.78216e-05 -0.000571694
-0.00209011 -0.00035309 6.25242e-05
-0.00035309 -0.000773964 -9.29091e-06
6.25242e-05 -9.29091e-06 -0.000978421
0.00342043 -0.000737315 -2.26609e-05
-0.000737315 0.000408715 -1.01472e-05
-2.26609e-05 -1.01472e-05 0.00168882
0.000851973 -1.57984e-05 4.10467e-07
-1.57984e-05 9.90319e-05 -8.33937e-08
4.10467e-07 -8.33937e-08 2.06299e-05
0.000926544 -2.43735e-05 8.79046e-07
-2.43735e-05 0.000137304 -3.11093e-07
8.79046e-07 -3.11093e-07 5.44084e-05
0.000923499 2.18728e-05 -3.49571e-07
2.18728e-05 0.000138155 -2.2905e-06
-3.49571e-07 -2.2905e-06 5.46534e-05
0.00075914 -5.19107e-05 8.75027e-08
-5.19107e-05 3.0834e-05 -6.81653e-07
8.75027e-08 -6.81653e-07 -3.06424e-05
0.000709882 4.54746e-05 -9.45298e-07
4.54746e-05 3.01494e-06 5.6975e-08
-9.45298e-07 5.6975e-08 -6.61211e-05
0.000868653 -4.46816e-05 -1.12162e-07
-4.46816e-05 9.59271e-05 3.91303e-07
-1.12162e-07 3.91303e-07 2.28181e-05
0.000948387 -2.21057e-05 -7.75831e-07
-2.21057e-05 0.000137477 6.45389e-07
-7.75831e-07 6.45389e-07 6.28179e-05
0.000838129 -4.22539e-05 3.65277e-08
-4.22539e-05 7.96918e-05 -2.29381e-07
3.65277e-08 -2.29381e-07 3.57353e-07
0.000808451 3.7483e-05 -6.83728e-07
3.7483e-05 5.95206e-05 -2.55178e-07
-6.83728e-07 -2.55178e-07 -1.52108e-05
0.000713446 -4.75031e-06 -3.00966e-08
-4.75031e-06 -1.96834e-06 5.42522e-07
-3.00966e-08 5.42522e-07 -6.02549e-05
0.000807777 2.36785e-05 -2.79624e-07
2.36785e-05 5.82651e-05 -5.93823e-08
-2.79624e-07 -5.93823e-08 -1.62936e-05
0.000864376 -3.87667e-05 -2.36981e-07
-3.87667e-05 8.64155e-05 4.93752e-07
-2.36981e-07 4.93752e-07 9.72674e-06
0.000852651 -1.14287e-05 -1.1978e-07
-1.14287e-05 7.73794e-05 -1.66503e-07
-1.1978e-07 -1.66503e-07 4.96457e-06
0.000774344 2.14758e-05 2.19172e-07
2.14758e-05 3.03122e-05 -1.04949e-06
2.19172e-07 -1.04949e-06 -4.13368e-05
0.000751769 -1.33979e-05 7.20746e-07
-1.33979e-05 1.68552e-05 -2.16904e-06
7.20746e-07 -2.16904e-06 -5.1576e-05
0.000888717 2.7951e-05 1.34196e-06
2.7951e-05 9.29088e-05 -1.27559e-07
1.34196e-06 -1.27559e-07 1.95899e-05
0.000758803 2.49214e-06 1.05351e-06
2.49214e-06 2.24421e-05 -2.42081e-07
1.05351e-06 -2.42081e-07 -5.10012e-05
0.000662415 -4.00428e-05 -1.28069e-06
-4.00428e-05 -2.9353e-05 9.14437e-07
-1.28069e-06 9.14437e-07 -8.93649e-05
0.00086802 1.25287e-05 -4.84315e-07
1.25287e-05 9.21203e-05 -2.38242e-07
-4.84315e-07 -2.38242e-07 1.74764e-05
0.000910599 5.72605e-05 -3.28716e-08
5.72605e-05 0.000116022 -1.39695e-06
-3.28716e-08 -1.39695e-06 4.01794e-05
0.000770521 4.87942e-06 -7.81922e-07
4.87942e-06 4.74555e-05 -3.18131e-07
-7.81922e-07 -3.18131e-07 -2.37974e-05
0.000865993 8.28145e-06 6.70286e-07
8.28145e-06 9.67532e-05 -3.85144e-07
6.70286e-07 -3.85144e-07 2.32344e-05
0.000774811 -3.31383e-05 -1.5114e-06
-3.31383e-05 3.23729e-05 4.33635e-07
-1.5114e-06 4.33635e-07 -2.43454e-05
0.000659234 7.37994e-06 1.34278e-07
7.37994e-06 -2.91557e-05 5.08305e-07
1.34278e-07 5.08305e-07 -8.98115e-05
0.000749733 1.2335e-05 -2.72054e-07
1.2335e-05 5.61267e-06 1.40756e-06
-2.72054e-07 1.40756e-06 -3.06491e-05
0.000735857 4.24155e-06 -9.98073e-08
4.24155e-06 -1.60782e-06 -1.50077e-09
-9.98073e-08 -1.50077e-09 -3.78918e-05
0.000711634 6.71736e-06 -3.70988e-07
6.71736e-06 -2.8608e-05 4.74244e-06
-3.70988e-07 4.74244e-06 -3.51525e-05
0.000736366 -2.67712e-06 3.53472e-07
-2.67712e-06 -1.92276e-06 -1.42476e-06
3.53472e-07 -1.42476e-06 -3.78417e-05
0.000695479 1.2171e-06 2.40087e-07
1.2171e-06 -3.89247e-05 -5.24419e-09
2.40087e-07 -5.24419e-09 -4.49494e-05
0.00218364 -9.66148e-07 3.00107e-07
-9.66148e-07 0.000797016 4.52386e-06
3.00107e-07 4.52386e-06 0.000817215
0.000719414 -4.38358e-06 -5.25744e-07
-4.38358e-06 -2.50608e-05 -4.75481e-06
-5.25744e-07 -4.75481e-06 -3.09211e-05
0.00154435 -7.43285e-06 -3.80536e-07
-7.43285e-06 0.000439248 2.99101e-08
-3.80536e-07 2.99101e-08 0.000456195
0.000868421 -1.22429e-05 -4.76961e-07
-1.22429e-05 6.1859e-05 -1.71053e-06
-4.76961e-07 -1.71053e-06 7.58697e-05
0.000744962 5.73332e-06 -1.42997e-07
5.73332e-06 5.16608e-06 -1.74822e-06
-1.42997e-07 -1.74822e-06 -2.64264e-05
0.000745064 4.93674e-06 4.25138e-08
4.93674e-06 5.00531e-06 1.73138e-08
4.25138e-08 1.73138e-08 -2.77764e-05
0.000701595 1.19344e-05 1.80549e-07
1.19344e-05 -3.3775e-05 -3.43577e-06
1.80549e-07 -3.43577e-06 -3.80035e-05
0.000752108 5.00403e-06 -8.86225e-07
5.00403e-06 8.77897e-06 1.86667e-06
-8.86225e-07 1.86667e-06 -2.57425e-05
0.000991198 2.03134e-05 -2.2546e-07
2.03134e-05 0.000131083 -7.04316e-07
-2.2546e-07 -7.04316e-07 0.000127064
0.00211853 2.72229e-05 1.25659e-05
2.72229e-05 0.000766631 -4.32765e-06
1.25659e-05 -4.32765e-06 0.000786177
0.000694826 2.50036e-05 -6.6e-07
2.50036e-05 -2.98844e-05 3.60667e-06
-6.6e-07 3.60667e-06 -3.80748e-05
0.00221017 3.69649e-05 -7.22064e-06
3.69649e-05 0.000823935 1.17031e-06
-7.22064e-06 1.17031e-06 0.000841547
0.00225509 4.79584e-05 -2.21499e-05
4.79584e-05 0.000855131 4.05872e-06
-2.21499e-05 4.05872e-06 0.000870607
0.00166175 6.28531e-05 3.00021e-07
6.28531e-05 -3.71537e-06 -4.61512e-07
3.00021e-07 -4.61512e-07 -7.69308e-05
0.001733 7.95821e-06 1.17022e-06
7.95821e-06 4.47175e-05 -3.02138e-08
1.17022e-06 -3.02138e-08 -4.33684e-05
0.00183079 5.01914e-05 4.52939e-06
5.01914e-05 6.04216e-05 9.27545e-07
4.52939e-06 9.27545e-07 1.15845e-05
0.0020526 5.24611e-05 1.46089e-05
5.24611e-05 9.78281e-06 2.61441e-06
1.46089e-05 2.61441e-06 -5.98384e-05
0.00178266 9.58246e-06 -7.90963e-07
9.58246e-06 4.5279e-05 5.73649e-08
-7.90963e-07 5.73649e-08 -1.54043e-05
0.0019057 4.01118e-05 1.97893e-06
4.01118e-05 0.000130374 7.04514e-07
1.97893e-06 7.04514e-07 0.000106366
0.00240809 2.45632e-06 -1.01727e-05
2.45632e-06 0.000394522 -3.84282e-07
-1.01727e-05 -3.84282e-07 0.000347012
0.00313198 -5.63375e-06 0.000134835
-5.63375e-06 0.000353998 -2.38216e-06
0.000134835 -2.38216e-06 4.73405e-05
0.00182504 -1.85865e-05 -1.06492e-05
-1.85865e-05 -4.25946e-05 -4.99066e-06
-1.06492e-05 -4.99066e-06 -0.000105997
0.000778448 4.38083e-05 -7.99439e-07
4.38083e-05 4.60269e-05 -9.88288e-07
-7.99439e-07 -9.88288e-07 -8.96466e-06
0.000776848 -1.27191e-05 6.9384e-07
-1.27191e-05 4.68951e-05 -6.68845e-08
6.9384e-07 -6.68845e-08 -1.01636e-05
0.000760155 -5.87865e-05 1.17062e-07
-5.87865e-05 4.37637e-05 -3.47108e-07
1.17062e-07 -3.47108e-07 -2.62895e-05
0.000774821 -2.16189e-05 -1.27649e-06
-2.16189e-05 6.08876e-05 -1.04268e-08
-1.27649e-06 -1.04268e-08 -1.44591e-05
0.0019485 -7.06166e-05 1.72436e-06
-7.06166e-05 0.000125978 -1.65233e-07
1.72436e-06 -1.65233e-07 6.21944e-05
0.00164456 -0.000101652 -1.98511e-06
-0.000101652 -4.34417e-05 -8.80398e-08
-1.98511e-06 -8.80398e-08 -0.000109985
0.00182154 -0.000198624 -3.51465e-06
-0.000198624 5.14099e-05 1.18794e-06
-3.51465e-06 1.18794e-06 -2.83062e-05
0.000992663 -0.000153215 3.91407e-06
-0.000153215 0.000122263 2.75493e-06
3.91407e-06 2.75493e-06 -1.25279e-05
-3.12281e-05 -0.000130041 3.93399e-06
-0.000130041 -0.000511041 -7.20505e-07
3.93399e-06 -7.20505e-07 -0.00073792
0.0020688 -0.000284022 -2.01177e-07
-0.000284022 0.000275158 -2.30299e-06
-2.01177e-07 -2.30299e-06 0.00015035
0.000510224 -0.000110869 -7.30857e-06
-0.000110869 -0.000106834 9.00296e-07
-7.30857e-06 9.00296e-07 -0.000223486
0.00103366 -7.15572e-05 -1.31624e-06
-7.15572e-05 0.000229718 -1.36514e-06
-1.31624e-06 -1.36514e-06 0.00010386
0.000911295 -7.89953e-05 -2.04892e-06
-7.89953e-05 0.000139611 8.6652e-07
-2.04892e-06 8.6652e-07 3.01318e-05
0.000788493 -2.16942e-05 -1.19906e-06
-2.16942e-05 5.0497e-05 1.30928e-06
-1.19906e-06 1.30928e-06 -1.17403e-05
0.00083566 -5.58009e-05 -5.26016e-07
-5.58009e-05 0.000101484 -1.29002e-07
-5.26016e-07 -1.29002e-07 1.54812e-06
0.000848208 -6.29469e-06 -9.73907e-07
-6.29469e-06 0.000101398 6.52087e-07
-9.73907e-07 6.52087e-07 1.48704e-05
0.000775839 -4.06428e-06 -1.25928e-08
-4.06428e-06 4.91363e-05 5.26011e-07
-1.25928e-08 5.26011e-07 -1.0682e-05
0.000687578 2.00032e-05 -2.89231e-07
2.00032e-05 1.44835e-05 1.59377e-06
-2.89231e-07 1.59377e-06 -6.80897e-05
0.00194784 -0.000106389 2.38162e-07
-0.000106389 0.000103709 2.97551e-07
2.38162e-07 2.97551e-07 5.51478e-05
0.000782232 8.5254e-06 6.40322e-07
8.5254e-06 6.24111e-05 -4.94238e-07
6.40322e-07 -4.94238e-07 -1.45904e-05
0.000726688 2.01062e-05 5.99144e-07
2.01062e-05 3.52421e-05 -7.54284e-08
5.99144e-07 -7.54284e-08 -4.87044e-05
0.000822253 5.97095e-05 -3.30688e-07
5.97095e-05 9.23142e-05 8.92024e-07
-3.30688e-07 8.92024e-07 2.94429e-06
0.0019659 -0.000125493 -2.79811e-06
-0.000125493 9.49168e-05 1.01602e-06
-2.79811e-06 1.01602e-06 3.60564e-05
0.00188824 -0.000267373 6.74223e-07
-0.000267373 8.80145e-05 -1.16246e-06
6.74223e-07 -1.16246e-06 -4.27105e-06
0.00101127 -0.000159529 -1.44625e-06
-0.000159529 0.00016627 1.96327e-08
-1.44625e-06 1.96327e-08 -9.04717e-06
0.0022397 -0.000299319 -9.83415e-07
-0.000299319 0.000535059 5.8425e-07
-9.83415e-07 5.8425e-07 0.00035779
0.00090343 -2.28233e-05 -3.46023e-07
-2.28233e-05 0.000134966 6.98384e-08
-3.46023e-07 6.98384e-08 3.93615e-05
0.000770184 -3.06861e-05 -1.58912e-07
-3.06861e-05 6.3312e-05 9.20101e-07
-1.58912e-07 9.20101e-07 -3.55507e-05
0.000793572 -0.0001042 3.85018e-06
-0.0001042 0.000125372 -1.06671e-06
3.85018e-06 -1.06671e-06 -4.55678e-05
0.00100584 -6.91074e-05 1.05453e-06
-6.91074e-05 0.000213975 -1.00336e-06
1.05453e-06 -1.00336e-06 8.287e-05
0.00224913 -8.67906e-05 -5.63818e-06
-8.67906e-05 0.000235186 4.44592e-06
-5.63818e-06 4.44592e-06 0.000176371
0.00244875 -0.000238693 -4.40869e-06
-0.000238693 0.000293289 -2.00658e-06
-4.40869e-06 -2.00658e-06 0.000269048
0.00238326 -0.000317483 -3.95728e-06
-0.000317483 0.000474583 -2.80006e-06
-3.95728e-06 -2.80006e-06 0.000333961
0.00140338 -0.000233136 -1.45575e-06
-0.000233136 0.000342439 -9.81463e-07
-1.45575e-06 -9.81463e-07 0.000160285
0.000738404 2.67865e-05 -3.57845e-07
2.67865e-05 4.7034e-05 -6.78771e-07
-3.57845e-07 -6.78771e-07 -4.82384e-05
0.000752284 -4.07196e-05 7.64449e-07
-4.07196e-05 5.89502e-05 -1.02344e-06
7.64449e-07 -1.02344e-06 -3.75432e-05
0.000767238 -3.03568e-05 3.36862e-07
-3.03568e-05 6.77279e-05 4.95866e-07
3.36862e-07 4.95866e-07 -3.65206e-05
0.00069677 -3.09969e-06 -4.38159e-07
-3.09969e-06 7.97912e-05 6.54362e-07
-4.38159e-07 6.54362e-07 -0.000110039
0.000407034 -0.000116115 1.54247e-05
-0.000116115 -0.00150895 -4.15131e-06
1.54247e-05 -4.15131e-06 -0.00199369
0.000993882 1.24745e-05 1.19572e-06
1.24745e-05 0.000184409 -1.10744e-06
1.19572e-06 -1.10744e-06 9.54619e-05
0.000603544 9.22783e-05 2.54964e-06
9.22783e-05 -2.12145e-05 1.40523e-06
2.54964e-06 1.40523e-06 -0.000149051
0.00171858 0.00010496 1.32558e-05
0.00010496 -3.09535e-05 9.72473e-07
1.32558e-05 9.72473e-07 -5.5858e-05
0.00203863 0.000248624 3.09415e-06
0.000248624 0.000132979 -4.21441e-07
3.09415e-06 -4.21441e-07 4.84959e-05
0.00125139 0.00023888 5.16475e-06
0.00023888 -2.9379e-07 2.68285e-06
5.16475e-06 2.68285e-06 -0.00019417
0.00078854 0.000143879 4.35032e-06
0.000143879 4.99753e-05 1.28748e-06
4.35032e-06 1.28748e-06 -0.000153528
0.00218071 0.000172557 1.53582e-05
0.000172557 7.44677e-05 2.08387e-06
1.53582e-05 2.08387e-06 -0.000173975
0.000982681 5.10673e-05 7.87122e-07
5.10673e-05 0.000185289 -7.60198e-07
7.87122e-07 -7.60198e-07 7.86793e-05
0.00224278 0.00017315 -6.59083e-06
0.00017315 0.000268044 -1.963e-06
-6.59083e-06 -1.963e-06 0.000279323
0.0010663 0.000153744 3.91143e-07
0.000153744 0.000235104 -3.78113e-07
3.91143e-07 -3.78113e-07 8.61434e-05
0.00117803 0.000201154 -2.93952e-07
0.000201154 0.000177019 6.19444e-07
-2.93952e-07 6.19444e-07 -4.21882e-05
0.00128487 0.000305124 -2.11312e-06
0.000305124 -0.000152011 -9.95708e-07
-2.11312e-06 -9.95708e-07 -0.000292172
0.00276279 -0.000136248 -5.91858e-05
-0.000136248 -0.000139247 -1.87327e-05
-5.91858e-05 -1.87327e-05 -0.000974317
0.00361766 0.000200695 8.43234e-06
0.000200695 0.000279835 -1.56633e-05
8.43234e-06 -1.56633e-05 -0.000499013
0.000296006 0.000191023 5.88244e-06
0.000191023 -0.000505651 5.9236e-06
5.88244e-06 5.9236e-06 -0.000623457
-0.00188662 -0.000214445 5.40278e-05
-0.000214445 -0.000373385 1.52699e-05
5.40278e-05 1.52699e-05 -0.000882659
-0.000286015 -0.000750034 -3.58783e-06
-0.000750034 -0.00132973 -1.65439e-05
-3.58783e-06 -1.65439e-05 0.0001508
0.00120083 0.000107714 -3.19587e-06
0.000107714 0.00032402 -2.99331e-06
-3.19587e-06 -2.99331e-06 0.000214917
0.000743675 0.000165282 -3.41263e-05
0.000165282 0.000835443 -2.47884e-05
-3.41263e-05 -2.47884e-05 0.000300046
0.00140214 -0.000355423 -5.35888e-05
-0.000355423 0.000857619 -5.28015e-05
-5.35888e-05 -5.28015e-05 0.000875682
0.00231768 0.00024946 -2.26187e-05
0.00024946 0.000364735 -5.86808e-06
-2.26187e-05 -5.86808e-06 0.000381134
0.00104156 9.59777e-05 -9.58435e-06
9.59777e-05 0.00023249 -2.25452e-06
-9.58435e-06 -2.25452e-06 6.96277e-05
0.00095815 0.000301224 -1.59377e-05
0.000301224 -1.419e-05 -7.46754e-06
-1.59377e-05 -7.46754e-06 -0.000241197
-0.000210569 0.000243077 1.14564e-05
0.000243077 -0.000776161 4.87301e-05
1.14564e-05 4.87301e-05 -0.000777527
0.00802685 -3.53491e-05 -4.10649e-05
-3.53491e-05 0.00282311 -1.80147e-05
-4.10649e-05 -1.80147e-05 0.00145811
0.00360162 0.000430624 -5.99823e-06
0.000430624 0.000553084 1.60745e-05
-5.99823e-06 1.60745e-05 -0.000558096
0.000736961 -0.000596518 2.05515e-05
-0.000596518 -0.000179383 1.38096e-05
2.05515e-05 1.38096e-05 0.000171502
0.00124418 -0.000417478 -2.42461e-05
-0.000417478 -0.00162855 4.05688e-05
-2.42461e-05 4.05688e-05 -0.000479075
0.000874551 -3.13333e-05 1.26552e-06
-3.13333e-05 0.000113724 -4.43694e-07
1.26552e-06 -4.43694e-07 3.1301e-05
0.000913079 1.33195e-05 2.29388e-07
1.33195e-05 0.000133296 5.26185e-08
2.29388e-07 5.26185e-08 5.03981e-05
0.00112115 5.39179e-05 -1.15666e-06
5.39179e-05 0.00024252 -3.37532e-06
-1.15666e-06 -3.37532e-06 0.000176759
0.000757356 4.35839e-06 -1.27996e-07
4.35839e-06 3.29961e-05 2.88226e-09
-1.27996e-07 2.88226e-09 -3.11538e-05
0.000818084 1.95707e-05 -6.94882e-07
1.95707e-05 6.2777e-05 -1.46265e-07
-6.94882e-07 -1.46265e-07 -1.04152e-05
0.000751167 -3.1659e-05 -5.17755e-07
-3.1659e-05 2.15966e-05 2.21895e-07
-5.17755e-07 2.21895e-07 -4.89592e-05
0.00089457 -1.38695e-05 1.06531e-09
-1.38695e-05 0.000100617 7.15244e-07
1.06531e-09 7.15244e-07 2.82635e-05
0.000906136 -3.8287e-05 -3.38319e-07
-3.8287e-05 0.000109543 1.70947e-06
-3.38319e-07 1.70947e-06 3.31197e-05
0.000660488 -1.67032e-07 5.1316e-07
-1.67032e-07 -2.80438e-05 5.22185e-07
5.1316e-07 5.22185e-07 -8.96757e-05
0.000827932 -7.24601e-06 -1.24715e-07
-7.24601e-06 5.91767e-05 -1.24868e-07
-1.24715e-07 -1.24868e-07 -1.25033e-05
0.00088885 -6.21999e-06 1.44784e-08
-6.21999e-06 9.50241e-05 2.99481e-07
1.44784e-08 2.99481e-07 2.1267e-05
0.000833889 2.28858e-05 5.65731e-07
2.28858e-05 7.23033e-05 -2.41336e-07
5.65731e-07 -2.41336e-07 -5.42947e-06
0.000777861 -1.08848e-05 1.55904e-07
-1.08848e-05 3.09146e-05 -1.38869e-07
1.55904e-07 -1.38869e-07 -3.68657e-05
0.000845522 -1.57681e-05 5.09842e-07
-1.57681e-05 6.23108e-05 -1.13692e-06
5.09842e-07 -1.13692e-06 -8.07249e-06
0.000755108 1.83933e-05 -7.74301e-07
1.83933e-05 1.2287e-05 -4.75133e-06
-7.74301e-07 -4.75133e-06 -4.97286e-05
0.000897472 -6.02388e-05 1.95406e-07
-6.02388e-05 9.61075e-05 -5.91677e-07
1.95406e-07 -5.91677e-07 1.87263e-05
0.000875545 -4.66099e-05 -5.05123e-07
-4.66099e-05 9.78963e-05 -6.86034e-07
-5.05123e-07 -6.86034e-07 1.92214e-05
0.000881163 -1.09965e-05 -4.63167e-07
-1.09965e-05 0.000101094 -1.76748e-07
-4.63167e-07 -1.76748e-07 2.48004e-05
0.000903133 4.48468e-05 -5.44517e-07
4.48468e-05 0.000108251 -2.86568e-07
-5.44517e-07 -2.86568e-07 3.44827e-05
0.000869483 1.99157e-05 -6.91277e-07
1.99157e-05 9.51078e-05 -1.27616e-06
-6.91277e-07 -1.27616e-06 1.10177e-05
0.00083397 4.63515e-05 2.55869e-07
4.63515e-05 7.50763e-05 -9.37321e-07
2.55869e-07 -9.37321e-07 2.32251e-06
0.000752694 4.10735e-05 1.61618e-07
4.10735e-05 2.23636e-05 -1.42742e-06
1.61618e-07 -1.42742e-06 -4.77175e-05
0.000746417 4.95874e-05 1.79219e-06
4.95874e-05 4.54137e-05 9.10135e-07
1.79219e-06 9.10135e-07 -3.29164e-05
0.000766566 1.51254e-05 -3.10755e-07
1.51254e-05 4.00022e-05 -3.05727e-07
-3.10755e-07 -3.05727e-07 -2.39778e-05
0.000789246 -1.95134e-06 -7.27327e-08
-1.95134e-06 5.49947e-05 4.64758e-08
-7.27327e-08 4.64758e-08 -1.4505e-05
0.000774585 4.45422e-06 -1.21585e-06
4.45422e-06 2.8801e-05 2.54546e-07
-1.21585e-06 2.54546e-07 -2.39373e-05
0.00081978 1.10344e-05 8.72708e-07
1.10344e-05 6.18392e-05 -7.64616e-08
8.72708e-07 -7.64616e-08 -6.73836e-06
0.000742579 -2.79639e-05 -1.90871e-08
-2.79639e-05 1.41736e-05 2.73336e-08
-1.90871e-08 2.73336e-08 -4.29767e-05
0.000757587 1.56853e-05 -6.6901e-07
1.56853e-05 9.19653e-06 1.46835e-06
-6.6901e-07 1.46835e-06 -2.66436e-05
0.000669191 7.18239e-06 5.30716e-07
7.18239e-06 -1.96996e-05 6.26767e-08
5.30716e-07 6.26767e-08 -8.2993e-05
0.000743987 8.07965e-06 -6.66854e-08
8.07965e-06 2.05042e-06 -2.99447e-09
-6.66854e-08 -2.99447e-09 -3.40856e-05
0.00135044 1.5037e-05 -2.98261e-06
1.5037e-05 0.000331127 4.64353e-06
-2.98261e-06 4.64353e-06 0.000327637
0.000732391 -1.60648e-06 5.48777e-07
-1.60648e-06 -3.62588e-06 -1.37021e-06
5.48777e-07 -1.37021e-06 -3.98494e-05
0.00102521 8.02273e-06 -1.45731e-06
8.02273e-06 0.000146966 7.06442e-07
-1.45731e-06 7.06442e-07 0.000142178
0.000924836 3.71777e-06 -3.1865e-06
3.71777e-06 9.25443e-05 4.38593e-06
-3.1865e-06 4.38593e-06 0.000105851
0.000701057 1.45499e-06 3.22106e-08
1.45499e-06 -3.57766e-05 -3.30286e-06
3.22106e-08 -3.30286e-06 -4.184e-05
0.00218628 -1.25805e-07 2.9624e-06
-1.25805e-07 0.000798531 -7.80614e-10
2.9624e-06 -7.80614e-10 0.000818697
0.000933603 -3.80486e-06 -2.79753e-06
-3.80486e-06 9.72347e-05 -4.39163e-06
-2.79753e-06 -4.39163e-06 0.000110933
0.000776077 5.92321e-05 6.40387e-07
5.92321e-05 4.90198e-05 -2.56238e-07
6.40387e-07 -2.56238e-07 -9.90644e-06
0.000748966 2.10081e-06 -2.29059e-08
2.10081e-06 6.7725e-06 -1.70066e-06
-2.29059e-08 -1.70066e-06 -2.42591e-05
0.00074515 4.12575e-06 -8.48873e-08
4.12575e-06 5.11335e-06 3.76467e-09
-8.48873e-08 3.76467e-09 -2.64516e-05
0.000703975 5.7845e-06 -7.06692e-08
5.7845e-06 -3.4275e-05 -3.38931e-06
-7.06692e-08 -3.38931e-06 -3.74801e-05
0.000747597 3.33935e-06 -4.44893e-07
3.33935e-06 6.10062e-06 1.76204e-06
-4.44893e-07 1.76204e-06 -2.66605e-05
0.000694642 1.20803e-05 8.84203e-09
1.20803e-05 -3.80838e-05 -7.18022e-07
8.84203e-09 -7.18022e-07 -4.22056e-05
0.00208877 1.77556e-05 8.36858e-06
1.77556e-05 0.00074661 -4.42492e-06
8.36858e-06 -4.42492e-06 0.000767252
0.00129229 2.45385e-05 -1.13099e-06
2.45385e-05 0.000299954 2.10161e-06
-1.13099e-06 2.10161e-06 0.000297269
0.0015392 2.32519e-05 3.86675e-07
2.32519e-05 0.000443288 1.39582e-06
3.86675e-07 1.39582e-06 0.000459195
0.000980286 2.59536e-05 -1.66663e-05
2.59536e-05 0.000135716 7.06411e-06
-1.66663e-05 7.06411e-06 0.000146618
0.000640205 4.57516e-05 2.6118e-05
4.57516e-05 -0.000675956 1.04077e-05
2.6118e-05 1.04077e-05 -0.000772526
0.00186381 8.46557e-06 3.03548e-06
8.46557e-06 8.55294e-05 4.02087e-07
3.03548e-06 4.02087e-07 2.56768e-05
0.00213827 3.8885e-05 1.43292e-05
3.8885e-05 0.000266714 6.26017e-07
1.43292e-05 6.26017e-07 0.000239058
0.000914065 2.30096e-05 1.85319e-05
2.30096e-05 -0.000525927 -3.36747e-06
1.85319e-05 -3.36747e-06 -0.000870381
0.00178012 -1.13132e-05 2.24226e-06
-1.13132e-05 -2.58269e-05 8.71118e-07
2.24226e-06 8.71118e-07 -7.45803e-05
0.00203785 -7.50569e-06 -2.88399e-06
-7.50569e-06 0.000137373 -8.1608e-07
-2.88399e-06 -8.1608e-07 9.59596e-05
0.00247274 -2.37697e-05 -3.53693e-05
-2.37697e-05 0.000340106 3.60385e-06
-3.53693e-05 3.60385e-06 0.000308928
0.00201681 -0.000101383 0.000137105
-0.000101383 -1.81538e-05 -9.74173e-06
0.000137105 -9.74173e-06 -0.000308722
0.00792504 -9.12533e-05 -2.71508e-05
-9.12533e-05 0.0024272 5.71741e-06
-2.71508e-05 5.71741e-06 0.00148002
0.00434268 0.000741109 5.80219e-05
0.000741109 0.00210496 -1.5949e-05
5.80219e-05 -1.5949e-05 0.00229023
0.00207853 0.00069492 -1.28371e-05
0.00069492 0.000717833 1.4732e-05
-1.28371e-05 1.4732e-05 0.00173202
0.000603238 -6.28766e-05 1.3577e-06
-6.28766e-05 -3.88231e-05 -9.77048e-07
1.3577e-06 -9.77048e-07 -0.000111218
0.000781024 -9.13086e-06 5.18546e-07
-9.13086e-06 4.89489e-05 -4.78053e-08
5.18546e-07 -4.78053e-08 -7.16515e-06
0.000774785 -6.2862e-05 -1.17418e-06
-6.2862e-05 4.99898e-05 1.22661e-06
-1.17418e-06 1.22661e-06 -1.01048e-05
0.000753525 -2.86975e-05 -3.21353e-07
-2.86975e-05 4.42748e-05 6.33684e-08
-3.21353e-07 6.33684e-08 -2.92983e-05
0.000776923 4.27844e-05 2.42644e-07
4.27844e-05 7.05048e-05 6.16702e-07
2.42644e-07 6.16702e-07 -1.74178e-05
0.00090852 8.87342e-05 6.92462e-07
8.87342e-05 0.000130052 8.35732e-07
6.92462e-07 8.35732e-07 4.79035e-05
0.000836171 -2.06036e-05 8.58028e-07
-2.06036e-05 8.85276e-05 -1.14882e-06
8.58028e-07 -1.14882e-06 1.53231e-05
0.000733277 -3.40091e-05 -5.10341e-07
-3.40091e-05 3.34237e-05 6.27061e-07
-5.10341e-07 6.27061e-07 -3.89901e-05
0.00187335 -8.84284e-05 4.24267e-06
-8.84284e-05 9.05444e-05 -1.12553e-06
4.24267e-06 -1.12553e-06 4.00498e-05
0.00156692 -0.000123021 6.05641e-07
-0.000123021 -0.000147337 -7.20741e-07
6.05641e-07 -7.20741e-07 -0.000208853
0.00151231 -0.000244643 -1.66938e-06
-0.000244643 -9.95969e-05 9.30615e-07
-1.66938e-06 9.30615e-07 -0.000188517
0.000969633 -0.000175733 1.6867e-06
-0.000175733 0.000126536 3.16044e-06
1.6867e-06 3.16044e-06 -4.61934e-05
0.002337 -0.000306261 1.37602e-06
-0.000306261 0.000580636 1.04791e-06
1.37602e-06 1.04791e-06 0.000399011
0.000813546 -0.000106134 -1.06527e-06
-0.000106134 0.000127091 -7.10203e-07
-1.06527e-06 -7.10203e-07 -3.51844e-05
0.00131062 -0.000119763 -4.18251e-07
-0.000119763 0.000386694 -4.62951e-07
-4.18251e-07 -4.62951e-07 0.000244935
0.000796762 -5.74287e-05 -1.39812e-06
-5.74287e-05 8.38535e-05 8.13619e-07
-1.39812e-06 8.13619e-07 -1.83301e-05
0.000790202 -5.76592e-06 3.20525e-08
-5.76592e-06 7.16664e-05 9.48253e-07
3.20525e-08 9.48253e-07 -1.22679e-05
0.0010002 1.08159e-05 -1.4105e-06
1.08159e-05 0.00018421 -3.93603e-07
-1.4105e-06 -3.93603e-07 9.09037e-05
0.00100166 -4.107e-06 6.99741e-07
-4.107e-06 0.000183347 4.41589e-07
6.99741e-07 4.41589e-07 0.000107858
0.000740738 9.79256e-05 1.2e-06
9.79256e-05 5.00172e-05 1.86048e-06
1.2e-06 1.86048e-06 -4.08693e-05
0.00161057 -8.74474e-05 -1.23682e-06
-8.74474e-05 -0.000116055 -2.35118e-06
-1.23682e-06 -2.35118e-06 -0.000168783
0.000800484 3.24209e-05 -5.49918e-07
3.24209e-05 8.11007e-05 3.17213e-07
-5.49918e-07 3.17213e-07 -1.22074e-05
0.000824381 -3.3947e-05 -4.53036e-07
-3.3947e-05 9.36437e-05 -3.26776e-07
-4.53036e-07 -3.26776e-07 9.032e-08
0.00206224 -0.00023522 -4.35301e-07
-0.00023522 9.82809e-05 -1.06793e-06
-4.35301e-07 -1.06793e-06 6.10628e-05
0.00124456 -0.000258246 3.76972e-07
-0.000258246 -0.000110485 1.52679e-06
3.76972e-07 1.52679e-06 -0.000237373
0.00150274 -0.000240226 1.62893e-06
-0.000240226 0.00038949 -1.60885e-06
1.62893e-06 -1.60885e-06 0.000194086
0.000914404 -3.03422e-05 3.11212e-07
-3.03422e-05 0.000150568 -6.71272e-07
3.11212e-07 -6.71272e-07 4.26276e-05
0.000963552 -3.73915e-05 1.58168e-08
-3.73915e-05 0.000218331 5.18843e-07
1.58168e-08 5.18843e-07 3.09454e-05
0.00361182 -0.000176599 -9.64591e-06
-0.000176599 0.00108951 7.92088e-06
-9.64591e-06 7.92088e-06 0.00100089
0.00299151 -0.000327476 -1.30389e-05
-0.000327476 0.000651321 3.46614e-07
-1.30389e-05 3.46614e-07 0.000633227
-0.000343381 -0.000187792 -3.99832e-06
-0.000187792 -0.000754494 -2.29414e-06
-3.99832e-06 -2.29414e-06 -0.000895512
0.00113478 -0.000147149 -4.59041e-06
-0.000147149 0.000248607 3.6001e-06
-4.59041e-06 3.6001e-06 3.8397e-05
0.000685256 -8.11849e-05 1.02697e-06
-8.11849e-05 1.12367e-05 -3.27907e-07
1.02697e-06 -3.27907e-07 -8.26377e-05
0.00083579 -3.57977e-05 1.09876e-06
-3.57977e-05 9.96538e-05 -6.75073e-08
1.09876e-06 -6.75073e-08 8.06128e-07
0.000771358 -1.03836e-05 -1.88416e-06
-1.03836e-05 8.21208e-05 7.53693e-07
-1.88416e-06 7.53693e-07 -4.60343e-05
-0.00375784 -2.85374e-05 0.000107843
-2.85374e-05 -0.00174954 3.15083e-06
0.000107843 3.15083e-06 -0.00153936
0.0086269 -6.95049e-05 -2.92889e-05
-6.95049e-05 0.00286519 -8.47737e-07
-2.92889e-05 -8.47737e-07 0.00227787
0.000902091 4.70124e-05 2.34253e-06
4.70124e-05 0.000147697 7.67134e-08
2.34253e-06 7.67134e-08 4.2578e-05
0.000778871 0.000133019 4.10558e-06
0.000133019 8.4656e-05 -1.59526e-07
4.10558e-06 -1.59526e-07 -6.05813e-05
0.00179135 0.000155554 8.76779e-06
0.000155554 2.94266e-05 7.43986e-06
8.76779e-06 7.43986e-06 5.46475e-05
0.00208101 0.000348271 4.8273e-06
0.000348271 0.000237084 1.75664e-06
4.8273e-06 1.75664e-06 0.000104175
0.00105053 0.000198804 6.88924e-06
0.000198804 0.000118543 1.83182e-06
6.88924e-06 1.83182e-06 -0.000101823
0.00586915 0.000235155 6.61139e-05
0.000235155 0.00134902 2.86479e-06
6.61139e-05 2.86479e-06 0.000385206
0.00571693 0.000297159 -9.34495e-05
0.000297159 0.00117447 -2.72767e-05
-9.34495e-05 -2.72767e-05 0.000513121
-0.000105673 0.000140693 3.77349e-06
0.000140693 -0.000702918 -2.0023e-05
3.77349e-06 -2.0023e-05 -0.000823071
0.00441206 -0.000611506 8.70067e-06
-0.000611506 0.00220328 2.20926e-05
8.70067e-06 2.20926e-05 0.00206946
-0.00397654 -0.000784724 -6.12862e-05
-0.000784724 -0.00297809 -7.02619e-05
-6.12862e-05 -7.02619e-05 -0.00128545
0.000961518 0.000110776 2.32979e-07
0.000110776 0.000198642 -7.618e-07
2.32979e-07 -7.618e-07 8.86481e-05
-0.00243943 -0.000198937 3.16208e-05
-0.000198937 -0.00138414 3.90934e-06
3.16208e-05 3.90934e-06 -0.00140403
-0.000691896 -0.000312097 -3.69731e-05
-0.000312097 2.64412e-05 -1.39791e-05
-3.69731e-05 -1.39791e-05 -0.0001825
0.00249008 0.000245576 -4.3268e-06
0.000245576 0.000425137 -2.82575e-06
-4.3268e-06 -2.82575e-06 0.000459322
0.000881122 0.000112945 -1.03464e-06
0.000112945 0.000165174 -6.0387e-07
-1.03464e-06 -6.0387e-07 -5.67652e-07
0.000652851 0.000233364 2.42499e-06
0.000233364 -0.000145506 1.7022e-06
2.42499e-06 1.7022e-06 -0.000364225
0.000471664 0.000171822 1.19886e-05
0.000171822 -0.000349135 1.01842e-05
1.19886e-05 1.01842e-05 -0.00030576
0.00619662 1.03999e-07 -9.52596e-06
1.03999e-07 0.00178453 -7.23715e-06
-9.52596e-06 -7.23715e-06 0.00029933
0.00638171 0.00057999 -3.65362e-05
0.00057999 0.00167318 -1.74892e-05
-3.65362e-05 -1.74892e-05 0.000907806
0.00536527 -0.000849817 2.43725e-05
-0.000849817 0.00234223 -1.77542e-05
2.43725e-05 -1.77542e-05 0.00242734
0.00119898 -0.000484997 3.31134e-05
-0.000484997 -0.00176475 7.38762e-05
3.31134e-05 7.38762e-05 -0.000568081
0.000990411 6.59813e-05 -7.6959e-06
6.59813e-05 0.000235085 -6.38736e-06
-7.6959e-06 -6.38736e-06 0.000141314
-0.00251183 -7.58834e-05 -7.31872e-05
-7.58834e-05 -0.000263402 -2.14706e-05
-7.31872e-05 -2.14706e-05 -0.00102185
0.00199043 4.05889e-06 -6.8333e-05
4.05889e-06 0.000311434 -7.52832e-05
-6.8333e-05 -7.52832e-05 -0.000367413
0.000288103 0.000220408 -2.42456e-05
0.000220408 -0.000405595 7.16009e-07
-2.42456e-05 7.16009e-07 -0.00039533
0.00155288 0.000264253 -3.02005e-05
0.000264253 0.000582234 -8.16084e-06
-3.02005e-05 -8.16084e-06 0.000401378
0.00263753 0.000166678 -5.31002e-05
0.000166678 0.00105849 -1.19004e-06
-5.31002e-05 -1.19004e-06 0.000914762
0.00400539 0.000628999 -8.0218e-05
0.000628999 0.00062185 4.08577e-06
-8.0218e-05 4.08577e-06 0.000247179
-0.00110039 2.2236e-05 5.68969e-05
2.2236e-05 -0.000978738 5.00566e-05
5.68969e-05 5.00566e-05 -0.00294811
0.00653825 -0.000769235 -4.51935e-05
-0.000769235 0.00163834 3.97875e-05
-4.51935e-05 3.97875e-05 0.00172682
0.00182237 -0.000287679 -1.01873e-05
-0.000287679 -0.00192841 -1.83481e-05
-1.01873e-05 -1.83481e-05 -0.000753599
0.00092516 2.69684e-05 1.46912e-06
2.69684e-05 0.000145214 2.64261e-06
1.46912e-06 2.64261e-06 5.89104e-05
0.00111357 5.97175e-05 2.00844e-06
5.97175e-05 0.00024133 1.91511e-06
2.00844e-06 1.91511e-06 0.00017144
0.000558285 5.20627e-05 -3.03928e-07
5.20627e-05 -5.76863e-05 -7.66761e-06
-3.03928e-07 -7.66761e-06 -0.000105009
0.00065142 4.12482e-05 4.66255e-07
4.12482e-05 -3.336e-05 9.39974e-08
4.66255e-07 9.39974e-08 -9.47861e-05
0.000896441 3.69999e-05 -7.96913e-07
3.69999e-05 0.000111835 -3.01286e-07
-7.96913e-07 -3.01286e-07 3.22483e-05
0.000876203 -2.29919e-05 -4.2262e-07
-2.29919e-05 8.88472e-05 7.1467e-07
-4.2262e-07 7.1467e-07 1.54882e-05
0.000864827 -2.16436e-05 -4.72359e-07
-2.16436e-05 8.06128e-05 2.30812e-07
-4.72359e-07 2.30812e-07 7.77679e-06
0.000810134 -1.43293e-05 -6.19913e-07
-1.43293e-05 4.87191e-05 2.45391e-06
-6.19913e-07 2.45391e-06 -1.85502e-05
0.000874309 2.94589e-05 2.7265e-07
2.94589e-05 9.78092e-05 -5.04323e-07
2.7265e-07 -5.04323e-07 1.88634e-05
0.000907199 -1.54056e-05 -1.22257e-07
-1.54056e-05 9.6774e-05 4.13879e-07
-1.22257e-07 4.13879e-07 2.61961e-05
0.000906697 -3.34971e-05 4.76164e-08
-3.34971e-05 0.000103873 3.26311e-07
4.76164e-08 3.26311e-07 2.46249e-05
0.000674882 3.18863e-06 7.68325e-09
3.18863e-06 -2.65909e-05 -4.71509e-07
7.68325e-09 -4.71509e-07 -8.58962e-05
0.000794046 -2.43808e-05 1.90209e-06
-2.43808e-05 5.50683e-05 -4.50505e-06
1.90209e-06 -4.50505e-06 6.47991e-06
0.000895603 -2.99673e-05 1.66748e-07
-2.99673e-05 8.58088e-05 -3.17646e-06
1.66748e-07 -3.17646e-06 1.5062e-05
0.000922224 2.82655e-06 5.74195e-08
2.82655e-06 0.00012109 -1.06943e-06
5.74195e-08 -1.06943e-06 3.36741e-05
0.000886972 -3.71301e-05 6.41018e-08
-3.71301e-05 0.000107093 -1.78609e-07
6.41018e-08 -1.78609e-07 2.85087e-05
0.000897431 1.34869e-05 -3.53756e-07
1.34869e-05 0.000100597 7.4171e-07
-3.53756e-07 7.4171e-07 2.92423e-05
0.000870619 -1.26048e-05 2.83269e-07
-1.26048e-05 9.11292e-05 -3.30472e-07
2.83269e-07 -3.30472e-07 9.88752e-06
0.000824249 4.32029e-05 -4.79642e-08
4.32029e-05 6.78226e-05 4.52281e-08
-4.79642e-08 4.52281e-08 -4.11167e-06
0.000799204 1.27549e-05 -2.2751e-07
1.27549e-05 4.6633e-05 3.25176e-07
-2.2751e-07 3.25176e-07 -2.18524e-05
0.000772043 5.692e-05 7.89892e-07
5.692e-05 4.75661e-05 -1.28677e-07
7.89892e-07 -1.28677e-07 -2.48456e-05
0.000730959 2.67658e-05 -1.49124e-07
2.67658e-05 1.50678e-05 -1.93073e-06
-1.49124e-07 -1.93073e-06 -6.35927e-05
0.000776514 2.56394e-05 8.36479e-07
2.56394e-05 3.74731e-05 -1.10709e-06
8.36479e-07 -1.10709e-06 -2.92595e-05
0.000810056 2.64775e-05 2.4019e-06
2.64775e-05 7.07827e-05 -1.24258e-06
2.4019e-06 -1.24258e-06 -1.46289e-05
0.00048262 -3.06689e-05 4.89929e-07
-3.06689e-05 -6.81018e-05 -2.18039e-07
4.89929e-07 -2.18039e-07 -0.000191925
0.00049268 3.22079e-05 6.34691e-07
3.22079e-05 -8.63987e-05 -4.81854e-08
6.34691e-07 -4.81854e-08 -0.000173817
0.000783866 4.41317e-05 4.65025e-07
4.41317e-05 6.53986e-05 4.81354e-07
4.65025e-07 4.81354e-07 -1.27727e-05
0.000759051 4.49254e-05 5.77484e-07
4.49254e-05 4.30238e-05 3.68815e-07
5.77484e-07 3.68815e-07 -2.46752e-05
0.000790782 1.34386e-05 -3.04093e-07
1.34386e-05 5.72807e-05 -8.09975e-08
-3.04093e-07 -8.09975e-08 -9.56146e-06
0.000758506 2.8244e-05 -7.44794e-07
2.8244e-05 2.44185e-05 2.16924e-07
-7.44794e-07 2.16924e-07 -2.88898e-05
0.000808749 1.11202e-05 6.31291e-07
1.11202e-05 6.38103e-05 4.70333e-07
6.31291e-07 4.70333e-07 -4.34275e-06
0.000787084 -4.02791e-06 -1.41589e-07
-4.02791e-06 3.83635e-05 2.23931e-08
-1.41589e-07 2.23931e-08 -1.62476e-05
0.000750899 2.23168e-05 -1.03835e-06
2.23168e-05 6.60299e-06 1.4854e-06
-1.03835e-06 1.4854e-06 -2.90018e-05
0.000704237 -1.95379e-05 8.07611e-07
-1.95379e-05 -9.35781e-06 -2.31818e-07
8.07611e-07 -2.31818e-07 -6.57012e-05
0.000748525 1.23901e-05 -6.95988e-08
1.23901e-05 3.80805e-06 7.26491e-09
-6.95988e-08 7.26491e-09 -3.18904e-05
0.0013427 2.25794e-05 -4.93086e-06
2.25794e-05 0.000329411 4.59721e-06
-4.93086e-06 4.59721e-06 0.000325688
0.000739933 2.43159e-06 8.07676e-07
2.43159e-06 -5.79936e-07 -1.37087e-06
8.07676e-07 -1.37087e-06 -3.65996e-05
0.00102347 1.48779e-05 -2.29435e-06
1.48779e-05 0.000147815 6.91157e-07
-2.29435e-06 6.91157e-07 0.000142788
0.000867392 1.2233e-05 -5.5091e-07
1.2233e-05 6.19631e-05 1.67002e-06
-5.5091e-07 1.67002e-06 7.5128e-05
0.000692473 7.30389e-06 2.78041e-07
7.30389e-06 -3.973e-05 -3.29126e-06
2.78041e-07 -3.29126e-06 -4.60985e-05
0.00219117 9.16956e-06 2.61317e-06
9.16956e-06 0.000801979 2.37637e-08
2.61317e-06 2.37637e-08 0.000821921
0.00219075 7.19723e-07 6.18902e-07
7.19723e-07 0.00080105 -4.53566e-06
6.18902e-07 -4.53566e-06 0.000821155
0.0010556 4.7038e-05 -1.1779e-06
4.7038e-05 0.000198873 -7.31345e-07
-1.1779e-06 -7.31345e-07 0.000142423
0.000756227 -1.52888e-06 -2.77128e-07
-1.52888e-06 1.02762e-05 -1.77922e-06
-2.77128e-07 -1.77922e-06 -2.13217e-05
0.00077012 4.30556e-06 7.07188e-07
4.30556e-06 4.47791e-05 5.97627e-07
7.07188e-07 5.97627e-07 -1.33825e-05
0.00070548 -5.48896e-07 -1.21758e-07
-5.48896e-07 -3.41055e-05 -3.39559e-06
-1.21758e-07 -3.39559e-06 -3.69069e-05
0.000751414 5.75427e-07 1.23597e-07
5.75427e-07 8.12093e-06 -1.20675e-08
1.23597e-07 -1.20675e-08 -2.29166e-05
0.000747089 2.22781e-06 -2.93151e-07
2.22781e-06 6.06079e-06 1.7111e-06
-2.93151e-07 1.7111e-06 -2.54879e-05
0.000706774 6.057e-06 -1.57373e-07
6.057e-06 -3.27916e-05 3.8227e-09
-1.57373e-07 3.8227e-09 -3.60218e-05
0.00207212 8.32603e-06 3.92772e-06
8.32603e-06 0.000735353 -4.48375e-06
3.92772e-06 -4.48375e-06 0.000756656
0.0012838 1.64582e-05 -6.92478e-07
1.64582e-05 0.000291919 2.06483e-06
-6.92478e-07 2.06483e-06 0.000290877
0.0014923 1.55853e-05 2.22855e-06
1.55853e-05 0.00041266 6.03796e-08
2.22855e-06 6.03796e-08 0.000429968
0.000953712 1.86842e-05 -1.45832e-05
1.86842e-05 0.000114875 7.03093e-06
-1.45832e-05 7.03093e-06 0.000127947
-0.00608036 0.000129205 6.56396e-05
0.000129205 -0.00295768 -2.74306e-06
6.56396e-05 -2.74306e-06 -0.00313956
-0.00140333 0.000234113 3.85441e-05
0.000234113 -0.000221136 1.8895e-05
3.85441e-05 1.8895e-05 -0.000417535
0.00321735 3.66392e-05 -0.000144009
3.66392e-05 0.000583379 -3.51271e-07
-0.000144009 -3.51271e-07 0.000232178
0.00180054 -8.41717e-06 2.46225e-05
-8.41717e-06 3.76387e-05 2.64719e-06
2.46225e-05 2.64719e-06 -1.2525e-05
0.00162627 -1.80531e-05 6.16443e-06
-1.80531e-05 -0.000143983 8.34054e-07
6.16443e-06 8.34054e-07 -0.000180041
0.00110316 2.49718e-06 2.63847e-05
2.49718e-06 -0.000329363 -9.70506e-07
2.63847e-05 -9.70506e-07 -0.000502988
0.00212422 -3.84423e-05 -5.71239e-07
-3.84423e-05 0.000160834 9.87557e-07
-5.71239e-07 9.87557e-07 0.000113794
0.00604321 0.000197231 -1.1145e-05
0.000197231 0.00146521 -1.77396e-05
-1.1145e-05 -1.77396e-05 0.000660138
-0.00383049 0.000278242 -2.23002e-05
0.000278242 -0.00150208 -4.92413e-07
-2.23002e-05 -4.92413e-07 -0.00177213
-0.00104178 0.000739747 -1.73467e-05
0.000739747 -0.00118337 5.90194e-06
-1.73467e-05 5.90194e-06 0.000210171
0.00208248 -0.0001258 6.71781e-05
-0.0001258 9.55375e-05 7.67673e-06
6.71781e-05 7.67673e-06 -0.000151823
0.00722663 0.000270875 1.85814e-05
0.000270875 0.00235929 -3.99073e-06
1.85814e-05 -3.99073e-06 0.00116189
0.000188431 0.000583366 -5.48621e-06
0.000583366 -0.000424299 -4.33949e-05
-5.48621e-06 -4.33949e-05 6.05219e-05
0.00378269 0.000530982 -6.64969e-05
0.000530982 -4.81349e-05 4.67721e-05
-6.64969e-05 4.67721e-05 0.000828843
0.000787095 5.43111e-05 -6.31383e-07
5.43111e-05 7.13733e-05 -8.03581e-08
-6.31383e-07 -8.03581e-08 -1.97604e-05
0.000690262 5.75031e-06 -2.09314e-07
5.75031e-06 5.84979e-06 -3.94957e-07
-2.09314e-07 -3.94957e-07 -6.41725e-05
0.000775401 -6.07812e-05 -8.72906e-07
-6.07812e-05 4.90514e-05 1.04417e-06
-8.72906e-07 1.04417e-06 -9.49322e-06
0.000694665 -1.47649e-07 1.53124e-07
-1.47649e-07 1.42948e-05 6.22635e-07
1.53124e-07 6.22635e-07 -6.14991e-05
0.0007825 5.04869e-05 7.54856e-07
5.04869e-05 7.36395e-05 9.40892e-07
7.54856e-07 9.40892e-07 -1.3404e-05
0.000878484 4.82053e-05 -5.91222e-07
4.82053e-05 0.000116429 3.27567e-07
-5.91222e-07 3.27567e-07 2.84645e-05
0.000845938 6.33755e-05 1.47544e-06
6.33755e-05 9.90101e-05 1.15722e-06
1.47544e-06 1.15722e-06 1.41132e-05
0.000771885 -1.3648e-05 8.46744e-07
-1.3648e-05 4.81274e-05 7.34431e-08
8.46744e-07 7.34431e-08 -2.78779e-05
0.000766911 -2.24024e-05 4.02072e-07
-2.24024e-05 5.32695e-05 -6.51364e-07
4.02072e-07 -6.51364e-07 -2.28676e-05
0.000683231 -1.55624e-05 1.5505e-07
-1.55624e-05 1.50251e-06 8.19119e-07
1.5505e-07 8.19119e-07 -6.85825e-05
0.000808954 -8.60074e-05 1.90205e-06
-8.60074e-05 -0.000561095 -3.702e-06
1.90205e-06 -3.702e-06 -0.000608491
0.00157876 -0.000223597 6.39773e-06
-0.000223597 -0.000136853 1.33686e-06
6.39773e-06 1.33686e-06 -0.000185547
1.29544e-05 -0.000192687 5.71061e-06
-0.000192687 -0.000743965 3.27384e-06
5.71061e-06 3.27384e-06 -0.000855279
0.0016223 -0.000249069 1.69754e-06
-0.000249069 0.000448685 1.06327e-06
1.69754e-06 1.06327e-06 0.00024161
0.00127402 -7.33827e-05 1.54669e-06
-7.33827e-05 0.000377932 -1.15069e-06
1.54669e-06 -1.15069e-06 0.000195526
0.00105693 -4.40341e-05 -2.45569e-07
-4.40341e-05 0.000231414 -8.40836e-07
-2.45569e-07 -8.40836e-07 0.00011971
0.000890822 -2.69683e-05 -1.0939e-06
-2.69683e-05 0.000123792 -1.45849e-07
-1.0939e-06 -1.45849e-07 3.4221e-05
0.000825534 3.91631e-05 -1.16739e-06
3.91631e-05 9.45862e-05 4.92059e-07
-1.16739e-06 4.92059e-07 3.76489e-06
0.00185258 -0.000143988 -3.10339e-06
-0.000143988 0.000135932 1.77848e-06
-3.10339e-06 1.77848e-06 6.95428e-05
0.000733126 -3.45206e-05 -8.48298e-08
-3.45206e-05 3.98263e-05 4.91351e-08
-8.48298e-08 4.91351e-08 -5.59385e-05
0.000808288 -3.47723e-05 4.52257e-07
-3.47723e-05 8.36976e-05 -4.59798e-07
4.52257e-07 -4.59798e-07 -1.55121e-05
0.00195147 -0.00028605 3.70863e-06
-0.00028605 0.000119169 -2.18344e-06
3.70863e-06 -2.18344e-06 9.52967e-05
0.000183824 -0.000213995 1.47034e-06
-0.000213995 -0.000460908 1.27141e-06
1.47034e-06 1.27141e-06 -0.000601872
0.00116608 -0.000147215 2.71785e-06
-0.000147215 0.000256478 -1.61672e-06
2.71785e-06 -1.61672e-06 5.11802e-05
0.00101075 -4.30998e-05 -6.8644e-07
-4.30998e-05 0.000218986 -6.46927e-07
-6.8644e-07 -6.46927e-07 7.80033e-05
0.00184952 -0.000225456 2.60998e-06
-0.000225456 0.000440453 -5.47151e-06
2.60998e-06 -5.47151e-06 0.000234298
0.00167186 -0.000247374 -1.64801e-05
-0.000247374 0.000300702 1.17001e-06
-1.64801e-05 1.17001e-06 0.000230294
0.000513235 -2.34745e-05 -1.23409e-05
-2.34745e-05 -2.25028e-05 1.14842e-05
-1.23409e-05 1.14842e-05 -0.000201423
0.000806519 2.8006e-05 6.38237e-07
2.8006e-05 7.71643e-05 8.80219e-07
6.38237e-07 8.80219e-07 -1.72014e-05
0.000645676 -7.48907e-05 1.38135e-06
-7.48907e-05 -1.22379e-05 1.6578e-07
1.38135e-06 1.6578e-07 -0.000110933
0.000836352 -2.21039e-05 6.94329e-07
-2.21039e-05 8.76811e-05 1.55659e-06
6.94329e-07 1.55659e-06 -1.17835e-05
0.000909081 1.41261e-05 -8.85634e-05
1.41261e-05 0.00154163 -1.24642e-06
-8.85634e-05 -1.24642e-06 0.00109456
0.001871 -0.000102544 1.40025e-05
-0.000102544 0.001245 6.26131e-06
1.40025e-05 6.26131e-06 0.00109945
-0.00011683 0.000273521 -5.15579e-05
0.000273521 -0.00186804 2.22495e-05
-5.15579e-05 2.22495e-05 -0.00244721
0.000766468 9.60712e-05 3.74813e-06
9.60712e-05 9.371e-05 1.69239e-06
3.74813e-06 1.69239e-06 -1.34732e-05
0.000802807 0.000131888 7.18561e-06
0.000131888 0.000139158 2.60629e-06
7.18561e-06 2.60629e-06 -2.77599e-05
0.00271405 0.000239313 1.19899e-05
0.000239313 0.000523273 3.41529e-06
1.19899e-05 3.41529e-06 0.000565011
0.000462171 0.000160875 1.22348e-05
0.000160875 -0.000215519 5.8802e-06
1.22348e-05 5.8802e-06 -0.000427507
0.00415687 -0.000334634 4.15445e-05
-0.000334634 0.00179163 1.6423e-05
4.15445e-05 1.6423e-05 0.00185323
-0.000266876 -0.000149058 -2.29548e-05
-0.000149058 -0.00142065 3.89845e-06
-2.29548e-05 3.89845e-06 -0.00265027
0.00362604 0.000485098 -7.02757e-05
0.000485098 7.54563e-05 -4.30881e-05
-7.02757e-05 -4.30881e-05 -0.000775637
0.000301199 9.73411e-05 2.5518e-05
9.73411e-05 -0.000359195 -1.56852e-05
2.5518e-05 -1.56852e-05 -0.000315501
-0.00328933 -0.00037556 1.159e-05
-0.00037556 -0.00146049 -4.71558e-06
1.159e-05 -4.71558e-06 -0.00154824
0.000856747 -0.000342003 2.03422e-05
-0.000342003 0.000542212 2.41996e-05
2.03422e-05 2.41996e-05 0.000329014
0.00462946 -0.000598862 7.63629e-05
-0.000598862 5.74016e-05 5.91654e-05
7.63629e-05 5.91654e-05 0.00135132
0.000831307 7.40676e-05 1.41506e-06
7.40676e-05 0.000156868 -1.71544e-06
1.41506e-06 -1.71544e-06 5.93324e-05
-0.000300587 -0.000125312 -3.00822e-05
-0.000125312 0.000659503 -1.02693e-05
-3.00822e-05 -1.02693e-05 0.000138348
0.00223091 6.15898e-06 -2.35159e-06
6.15898e-06 0.000442043 -1.63815e-05
-2.35159e-06 -1.63815e-05 -0.000259541
0.0008029 0.000182863 -7.04455e-06
0.000182863 -8.07431e-05 2.33079e-06
-7.04455e-06 2.33079e-06 -0.000124083
0.000671613 0.000129028 -8.33271e-07
0.000129028 0.000145496 1.0133e-06
-8.33271e-07 1.0133e-06 -4.11008e-05
0.000188539 0.00013779 2.93642e-05
0.00013779 -0.000184876 -1.88616e-05
2.93642e-05 -1.88616e-05 -0.00027875
0.00575012 0.000801227 -1.91833e-05
0.000801227 0.00155569 -1.93849e-07
-1.91833e-05 -1.93849e-07 0.000837892
0.0082981 -0.000231739 3.60781e-05
-0.000231739 0.00313697 1.1602e-05
3.60781e-05 1.1602e-05 0.00158814
0.00190907 -0.000488196 1.56804e-06
-0.000488196 -0.000926593 -7.9047e-06
1.56804e-06 -7.9047e-06 -0.000651856
0.00550285 -0.000379919 5.25656e-06
-0.000379919 0.000487453 -7.74972e-06
5.25656e-06 -7.74972e-06 0.00158697
0.000908562 0.000109661 -1.36576e-05
0.000109661 0.000250441 -9.73844e-06
-1.36576e-05 -9.73844e-06 0.000176211
0.00174001 -4.72525e-05 -5.91066e-05
-4.72525e-05 0.000202663 -2.69119e-05
-5.91066e-05 -2.69119e-05 -0.000282873
0.00140894 9.35944e-06 -1.61055e-05
9.35944e-06 0.000188998 -4.31002e-05
-1.61055e-05 -4.31002e-05 -0.000427928
-0.000951794 -7.77678e-06 -2.43275e-05
-7.77678e-06 -0.000544474 -1.63158e-05
-2.43275e-05 -1.63158e-05 -0.000655434
0.0028103 0.000338178 -2.92774e-06
0.000338178 0.000742263 5.47184e-05
-2.92774e-06 5.47184e-05 0.000284153
0.00797072 -4.51615e-05 2.08048e-05
-4.51615e-05 0.00280921 5.69307e-06
2.08048e-05 5.69307e-06 0.00104532
-0.00552744 -0.000423161 -5.40921e-05
-0.000423161 -0.00376704 7.61491e-06
-5.40921e-05 7.61491e-06 -0.00454493
0.00490505 8.045e-05 -3.22216e-06
8.045e-05 -0.000296923 -6.31918e-05
-3.22216e-06 -6.31918e-05 0.000991068
0.00103121 5.97734e-05 2.43717e-06
5.97734e-05 0.000197747 5.39097e-06
2.43717e-06 5.39097e-06 0.000125299
0.000818775 6.82763e-05 -2.45446e-06
6.82763e-05 8.43254e-05 -5.10257e-07
-2.45446e-06 -5.10257e-07 3.63983e-05
0.000752346 5.16232e-05 -7.92753e-07
5.16232e-05 7.47571e-05 -5.26459e-06
-7.92753e-07 -5.26459e-06 3.56976e-05
0.000886574 6.4952e-05 -1.36575e-06
6.4952e-05 9.85657e-05 -3.70168e-07
-1.36575e-06 -3.70168e-07 2.34911e-05
0.000926152 -2.93892e-05 -1.445e-07
-2.93892e-05 0.0001195 1.30797e-06
-1.445e-07 1.30797e-06 3.68323e-05
0.000970618 -6.09442e-06 -7.22222e-07
-6.09442e-06 0.00013203 1.77243e-06
-7.22222e-07 1.77243e-06 6.11371e-05
0.000615572 -8.32578e-06 -5.97173e-07
-8.32578e-06 -5.30908e-05 3.70752e-06
-5.97173e-07 3.70752e-06 -0.000110713
0.000895493 1.00211e-05 4.65724e-07
1.00211e-05 9.77784e-05 2.92016e-08
4.65724e-07 2.92016e-08 1.66267e-05
0.000873413 -1.37137e-05 -1.64191e-07
-1.37137e-05 7.46994e-05 -2.27003e-07
-1.64191e-07 -2.27003e-07 3.50041e-06
0.000693437 -1.9067e-05 7.78287e-08
-1.9067e-05 2.05238e-06 9.35605e-07
7.78287e-08 9.35605e-07 -4.63758e-05
0.000572618 -2.52477e-05 -2.31346e-07
-2.52477e-05 -1.54466e-05 -4.11573e-06
-2.31346e-07 -4.11573e-06 -4.70741e-05
0.000986232 -2.45438e-05 3.28029e-06
-2.45438e-05 0.000143739 -5.61746e-06
3.28029e-06 -5.61746e-06 9.02033e-05
0.000803877 3.54382e-05 4.36145e-07
3.54382e-05 4.711e-05 -2.08591e-06
4.36145e-07 -2.08591e-06 -3.27377e-05
0.000885268 -4.39741e-05 1.01092e-06
-4.39741e-05 9.31563e-05 6.15536e-07
1.01092e-06 6.15536e-07 1.55481e-05
0.000802848 4.73509e-05 -4.55196e-08
4.73509e-05 5.47649e-05 5.60266e-07
-4.55196e-08 5.60266e-07 -1.6606e-05
0.000845655 6.03452e-06 -6.4446e-07
6.03452e-06 7.28734e-05 1.70363e-06
-6.4446e-07 1.70363e-06 4.88252e-06
0.000770957 2.20102e-05 2.71837e-07
2.20102e-05 3.28829e-05 2.7194e-07
2.71837e-07 2.7194e-07 -4.23255e-05
0.000795146 5.39514e-05 1.83952e-07
5.39514e-05 6.11023e-05 2.48483e-07
1.83952e-07 2.48483e-07 -1.17744e-05
0.000838982 3.93719e-05 -2.25802e-07
3.93719e-05 7.2517e-05 -2.50828e-08
-2.25802e-07 -2.50828e-08 4.77415e-06
0.000847209 4.03827e-05 1.45844e-06
4.03827e-05 8.20957e-05 -5.00243e-07
1.45844e-06 -5.00243e-07 9.65095e-06
0.000737721 2.17409e-05 1.27615e-06
2.17409e-05 2.77402e-05 -2.05274e-06
1.27615e-06 -2.05274e-06 -3.6154e-05
0.000667996 -5.35545e-05 1.29209e-06
-5.35545e-05 4.26974e-07 -6.03533e-07
1.29209e-06 -6.03533e-07 -9.01065e-05
0.000898651 1.07959e-05 -9.09194e-07
1.07959e-05 0.000121408 -1.65682e-07
-9.09194e-07 -1.65682e-07 3.48407e-05
0.000654906 -4.22762e-05 1.83592e-06
-4.22762e-05 1.69559e-05 1.08723e-06
1.83592e-06 1.08723e-06 -9.64595e-05
0.00105189 -0.000145187 -1.39443e-06
-0.000145187 0.000213781 3.14918e-06
-1.39443e-06 3.14918e-06 6.18864e-05
0.00113082 -2.89018e-05 1.22215e-06
-2.89018e-05 0.000270083 -5.86965e-07
1.22215e-06 -5.86965e-07 0.00016771
0.000607325 -4.76254e-05 -2.01899e-07
-4.76254e-05 3.46428e-06 -2.61228e-06
-2.01899e-07 -2.61228e-06 -0.000118788
0.000756788 3.44686e-05 -6.04473e-07
3.44686e-05 5.71092e-05 -5.41488e-07
-6.04473e-07 -5.41488e-07 -2.8658e-05
0.000545214 3.75442e-05 1.02529e-06
3.75442e-05 -6.91559e-05 5.66302e-07
1.02529e-06 5.66302e-07 -0.000144303
0.000835927 3.52499e-05 -6.45789e-07
3.52499e-05 9.31806e-05 1.23049e-07
-6.45789e-07 1.23049e-07 1.53351e-05
0.000800366 1.26605e-05 -2.64606e-07
1.26605e-05 6.71224e-05 3.43785e-07
-2.64606e-07 3.43785e-07 -1.9021e-06
0.000743114 3.79465e-05 -6.43071e-07
3.79465e-05 1.93213e-05 3.62277e-07
-6.43071e-07 3.62277e-07 -3.51729e-05
0.000826132 -1.45177e-05 2.84082e-07
-1.45177e-05 8.18279e-05 1.41778e-07
2.84082e-07 1.41778e-07 1.12659e-05
0.000778832 -1.18311e-06 -4.5992e-07
-1.18311e-06 3.70288e-05 2.77017e-08
-4.5992e-07 2.77017e-08 -1.75207e-05
0.000743217 2.83976e-05 -1.26634e-06
2.83976e-05 5.70254e-06 1.47072e-06
-1.26634e-06 1.47072e-06 -3.02496e-05
0.000808496 -2.77131e-05 1.33027e-06
-2.77131e-05 5.20055e-05 -2.24316e-07
1.33027e-06 -2.24316e-07 -3.95245e-06
0.000751478 1.81688e-05 -1.54122e-07
1.81688e-05 6.31266e-06 9.88127e-09
-1.54122e-07 9.88127e-09 -2.90498e-05
0.00132713 3.02665e-05 -6.76664e-06
3.02665e-05 0.00032471 4.51459e-06
-6.76664e-06 4.51459e-06 0.000320545
0.000744512 8.0575e-06 1.17828e-06
8.0575e-06 1.14948e-06 -1.41077e-06
1.17828e-06 -1.41077e-06 -3.43718e-05
0.00101489 2.18095e-05 -3.08636e-06
2.18095e-05 0.00014589 6.53418e-07
-3.08636e-06 6.53418e-07 0.000140647
0.000864186 1.89121e-05 -1.03799e-06
1.89121e-05 6.41564e-05 1.67166e-06
-1.03799e-06 1.67166e-06 7.67381e-05
0.000685243 1.33852e-05 4.62041e-07
1.33852e-05 -4.20751e-05 -3.2918e-06
4.62041e-07 -3.2918e-06 -4.86259e-05
0.00152596 1.65493e-05 4.87029e-06
1.65493e-05 0.000431061 -1.34216e-06
4.87029e-06 -1.34216e-06 0.000447404
0.00219761 1.05602e-05 4.88713e-06
1.05602e-05 0.000805945 -4.46578e-06
4.88713e-06 -4.46578e-06 0.000825785
0.00084063 -1.95626e-05 5.84136e-07
-1.95626e-05 7.51388e-05 -6.05628e-07
5.84136e-07 -6.05628e-07 1.75335e-05
0.000761676 -5.76733e-06 -2.44166e-07
-5.76733e-06 1.33784e-05 -1.80669e-06
-2.44166e-07 -1.80669e-06 -1.93831e-05
0.000828578 -2.49563e-06 4.71506e-07
-2.49563e-06 7.23772e-05 1.4133e-07
4.71506e-07 1.4133e-07 1.56521e-05
0.000707133 -6.80493e-06 -3.0491e-07
-6.80493e-06 -3.25791e-05 -3.408e-06
-3.0491e-07 -3.408e-06 -3.57544e-05
0.000753749 -2.80917e-06 -8.4304e-08
-2.80917e-06 8.99199e-06 -1.82861e-08
-8.4304e-08 -1.82861e-08 -2.25729e-05
0.000768605 -4.46547e-05 -1.59635e-06
-4.46547e-05 3.99979e-05 1.5237e-06
-1.59635e-06 1.5237e-06 -1.52805e-05
0.00206734 -1.13866e-06 -3.05113e-07
-1.13866e-06 0.00073223 -4.49471e-06
-3.05113e-07 -4.49471e-06 0.000753712
0.000707833 -2.65925e-07 -8.68578e-08
-2.65925e-07 -3.28276e-05 -1.12747e-09
-8.68578e-08 -1.12747e-09 -3.56293e-05
0.000748017 -9.41304e-07 6.26528e-08
-9.41304e-07 6.16911e-06 1.71081e-06
6.26528e-08 1.71081e-06 -2.48448e-05
0.0007101 6.33475e-06 -6.14488e-08
6.33475e-06 -3.10109e-05 3.40226e-06
-6.14488e-08 3.40226e-06 -3.427e-05
0.00207469 9.10463e-06 -2.74797e-06
9.10463e-06 0.000736993 -2.54505e-08
-2.74797e-06 -2.54505e-08 0.000758232
0.00210167 1.80101e-05 -1.09755e-05
1.80101e-05 0.000754042 4.37049e-06
-1.09755e-05 4.37049e-06 0.000774626
-0.00176446 4.23e-05 -4.09774e-05
4.23e-05 1.07647e-05 8.20024e-06
-4.09774e-05 8.20024e-06 -0.000621639
-0.000873019 0.000271871 -1.11127e-05
0.000271871 -0.000314718 5.15024e-06
-1.11127e-05 5.15024e-06 -0.000465467
0.0023775 2.50478e-05 -8.54376e-05
2.50478e-05 0.000322363 6.41363e-05
-8.54376e-05 6.41363e-05 -0.000287565
-0.00180303 0.000266577 8.06546e-05
0.000266577 -0.000245527 -3.31987e-05
8.06546e-05 -3.31987e-05 -0.000359368
0.00266099 0.000107758 -9.48667e-05
0.000107758 0.000333603 1.47335e-05
-9.48667e-05 1.47335e-05 4.12203e-05
0.00206604 -5.37188e-05 5.84996e-05
-5.37188e-05 0.000136261 -9.13617e-06
5.84996e-05 -9.13617e-06 8.73816e-05
0.00138327 -0.000308154 -8.34749e-05
-0.000308154 -0.00084111 -3.31219e-05
-8.34749e-05 -3.31219e-05 -0.00154641
0.00846971 0.000515704 4.4134e-05
0.000515704 0.00418589 -1.75199e-05
4.4134e-05 -1.75199e-05 0.00415999
-0.00412568 0.000805201 -5.96919e-05
0.000805201 -0.00311713 7.21724e-05
-5.96919e-05 7.21724e-05 -0.00130377
0.00153033 -9.4383e-06 -5.6743e-06
-9.4383e-06 -0.000312943 -4.25213e-06
-5.6743e-06 -4.25213e-06 -0.000546923
0.00228514 0.000110655 1.7787e-05
0.000110655 5.56956e-05 -2.13681e-05
1.7787e-05 -2.13681e-05 -0.00158068
0.00564118 0.000882388 -1.80484e-05
0.000882388 0.001805 -2.54683e-05
-1.80484e-05 -2.54683e-05 0.00228886
0.00175146 0.000522273 -1.59239e-05
0.000522273 -0.00128086 3.50594e-05
-1.59239e-05 3.50594e-05 -0.000332209
0.00315143 -0.000209884 -3.30135e-05
-0.000209884 0.000338425 1.22749e-05
-3.30135e-05 1.22749e-05 -7.48193e-05
0.00437256 8.24264e-05 9.25995e-05
8.24264e-05 0.00148731 -5.77744e-05
9.25995e-05 -5.77744e-05 -0.000447749
-0.0057171 0.000218088 -7.16259e-05
0.000218088 -0.00442799 -5.79047e-05
-7.16259e-05 -5.79047e-05 -0.00414973
0.00136129 0.000327005 -2.15393e-05
0.000327005 -0.00241595 1.72715e-05
-2.15393e-05 1.72715e-05 -0.00127898
0.000867233 -1.85149e-05 1.07662e-06
-1.85149e-05 0.000113128 4.25579e-07
1.07662e-06 4.25579e-07 1.77481e-05
0.000840923 4.05752e-05 -1.6195e-06
4.05752e-05 0.000100686 -4.6309e-07
-1.6195e-06 -4.6309e-07 1.14034e-05
0.000793469 2.3073e-05 6.60384e-07
2.3073e-05 6.40462e-05 -1.30148e-07
6.60384e-07 -1.30148e-07 -5.84075e-06
0.0008317 5.81407e-05 1.80424e-06
5.81407e-05 0.0001011 1.35067e-06
1.80424e-06 1.35067e-06 1.45897e-05
0.000760519 1.91616e-05 -2.2537e-07
1.91616e-05 5.10029e-05 6.44336e-07
-2.2537e-07 6.44336e-07 -4.42057e-05
0.000901018 5.02675e-05 2.12082e-07
5.02675e-05 0.000130288 6.21906e-07
2.12082e-07 6.21906e-07 4.20474e-05
0.000785953 6.30813e-06 -1.52288e-07
6.30813e-06 6.28434e-05 1.47345e-06
-1.52288e-07 1.47345e-06 -1.99129e-05
0.000909334 7.88521e-05 -5.37477e-07
7.88521e-05 0.00013531 4.54733e-07
-5.37477e-07 4.54733e-07 4.83796e-05
0.000884243 3.80389e-05 -2.3712e-07
3.80389e-05 0.000121185 3.51486e-07
-2.3712e-07 3.51486e-07 3.80283e-05
0.000707821 -1.50534e-05 -1.00411e-06
-1.50534e-05 2.29264e-05 -1.47628e-07
-1.00411e-06 -1.47628e-07 -5.58515e-05
-0.000135652 -0.000101561 1.43377e-05
-0.000101561 -0.000919799 -9.14297e-06
1.43377e-05 -9.14297e-06 -0.000958834
0.00116738 -0.000262402 1.17697e-05
-0.000262402 -0.000281451 4.33103e-07
1.17697e-05 4.33103e-07 -0.000318722
0.000908064 -0.000252232 8.91067e-06
-0.000252232 -6.58889e-05 1.66905e-06
8.91067e-06 1.66905e-06 -0.000208452
0.00117525 -0.00014483 6.40083e-06
-0.00014483 0.000252356 -2.4632e-06
6.40083e-06 -2.4632e-06 4.84957e-05
0.00115337 -4.29231e-05 1.13243e-06
-4.29231e-05 0.000303036 -1.63597e-06
1.13243e-06 -1.63597e-06 0.000149683
0.000772942 -4.56312e-05 -8.56873e-07
-4.56312e-05 6.84127e-05 -3.78035e-07
-8.56873e-07 -3.78035e-07 -3.47167e-05
0.000805222 5.58975e-05 -2.77928e-07
5.58975e-05 8.21624e-05 -1.80785e-07
-2.77928e-07 -1.80785e-07 -1.65298e-05
0.000821361 -3.58727e-05 -2.6362e-07
-3.58727e-05 8.87478e-05 4.87409e-07
-2.6362e-07 4.87409e-07 -8.04317e-06
0.00123945 -0.000175014 1.77332e-06
-0.000175014 0.000100583 -4.55302e-07
1.77332e-06 -4.55302e-07 -3.38725e-05
0.000830608 6.24628e-06 -3.51504e-07
6.24628e-06 9.43807e-05 -3.33962e-07
-3.51504e-07 -3.33962e-07 -8.01891e-06
0.00095497 -3.62065e-05 1.50655e-07
-3.62065e-05 0.000160217 1.84351e-07
1.50655e-07 1.84351e-07 5.36206e-05
0.00145293 -0.00023682 -1.32363e-06
-0.00023682 0.000176531 2.85876e-07
-1.32363e-06 2.85876e-07 0.000118254
0.000978268 -4.80325e-05 -4.71028e-06
-4.80325e-05 0.000198223 2.29812e-06
-4.71028e-06 2.29812e-06 2.61376e-05
-0.000437256 -0.00021341 -4.56999e-07
-0.00021341 -0.00081292 -1.18088e-05
-4.56999e-07 -1.18088e-05 -0.000836275
0.00132904 -8.73496e-05 -1.46732e-05
-8.73496e-05 0.000432863 9.94753e-06
-1.46732e-05 9.94753e-06 0.000320153
0.000429452 1.83161e-05 -2.96876e-06
1.83161e-05 -0.000134388 9.66968e-06
-2.96876e-06 9.66968e-06 -0.000234028
0.00082947 -3.77549e-06 5.29102e-07
-3.77549e-06 7.56637e-05 5.79123e-07
5.29102e-07 5.79123e-07 -1.61973e-05
0.000775483 2.21264e-05 1.28137e-07
2.21264e-05 5.53353e-05 6.89558e-07
1.28137e-07 6.89558e-07 -5.02189e-05
0.00126697 -5.90249e-06 -2.6851e-05
-5.90249e-06 -2.47466e-07 -4.3222e-06
-2.6851e-05 -4.3222e-06 -0.000396878
-0.000521175 -9.08275e-06 -3.94924e-05
-9.08275e-06 0.00082852 -1.60081e-06
-3.94924e-05 -1.60081e-06 0.00025282
-0.00633389 -0.000127099 -0.00011776
-0.000127099 -0.0031359 1.16909e-06
-0.00011776 1.16909e-06 -0.00314146
0.000698236 9.05844e-05 7.62877e-06
9.05844e-05 9.57177e-05 2.36398e-06
7.62877e-06 2.36398e-06 -8.12762e-06
-0.000170148 1.18143e-05 7.57121e-06
1.18143e-05 -0.000277468 3.24075e-06
7.57121e-06 3.24075e-06 -0.000469392
0.00126444 0.000134745 1.77453e-05
0.000134745 0.000192523 -9.74752e-07
1.77453e-05 -9.74752e-07 0.000125624
-0.0017127 -2.99796e-05 1.25931e-05
-2.99796e-05 3.00563e-06 7.26356e-06
1.25931e-05 7.26356e-06 -0.000659768
0.00338495 -0.000193471 -2.68692e-05
-0.000193471 0.00105109 -2.41695e-05
-2.68692e-05 -2.41695e-05 -0.000960153
0.00373607 0.000653863 4.6333e-05
0.000653863 0.000348937 -1.57302e-05
4.6333e-05 -1.57302e-05 -0.000169776
0.000481509 0.000145838 7.70578e-06
0.000145838 -2.2846e-07 -2.88891e-06
7.70578e-06 -2.88891e-06 1.39534e-05
0.00640434 -0.000656372 3.17729e-05
-0.000656372 0.00179498 5.14959e-06
3.17729e-05 5.14959e-06 0.0018252
0.00248982 8.28474e-07 5.9094e-05
8.28474e-07 0.000628265 4.22785e-05
5.9094e-05 4.22785e-05 -9.51345e-05
0.00531243 -0.000341504 2.666e-05
-0.000341504 0.000614863 1.18059e-05
2.666e-05 1.18059e-05 0.00175711
0.000928962 0.000110617 8.12311e-07
0.000110617 0.000271934 -2.0647e-06
8.12311e-07 -2.0647e-06 0.000195493
0.00176684 -4.12325e-05 3.67691e-06
-4.12325e-05 0.000308416 -7.17848e-06
3.67691e-06 -7.17848e-06 -0.000129564
0.00159931 1.78746e-05 3.33433e-06
1.78746e-05 0.000190914 7.66364e-06
3.33433e-06 7.66364e-06 -0.000437873
0.000157416 9.38771e-05 -5.67773e-06
9.38771e-05 2.98903e-05 1.84731e-09
-5.67773e-06 1.84731e-09 -9.56731e-05
0.00296385 0.000429421 -3.10825e-05
0.000429421 0.000573254 -3.14464e-05
-3.10825e-05 -3.14464e-05 0.000204197
0.00334107 0.000406194 4.35355e-05
0.000406194 0.000601348 2.45333e-05
4.35355e-05 2.45333e-05 -0.00143339
0.00358938 2.52477e-05 -9.80674e-07
2.52477e-05 -0.00143504 -3.27754e-05
-9.80674e-07 -3.27754e-05 0.000100008
0.000478371 -0.000256401 -1.23915e-05
-0.000256401 -0.000691337 1.20023e-05
-1.23915e-05 1.20023e-05 -0.000992153
0.000804426 5.28163e-05 -4.11646e-06
5.28163e-05 0.000296038 -1.02839e-05
-4.11646e-06 -1.02839e-05 0.000236931
0.00126896 -3.03136e-05 -1.35847e-05
-3.03136e-05 0.000132837 -1.77721e-05
-1.35847e-05 -1.77721e-05 -4.57079e-05
0.00184457 7.73813e-06 5.51938e-06
7.73813e-06 8.99126e-05 -4.10573e-05
5.51938e-06 -4.10573e-05 -0.000471793
0.00141197 0.000320624 1.8378e-05
0.000320624 -0.00232109 -2.00122e-05
1.8378e-05 -2.00122e-05 -0.00127441
-0.00166082 1.18619e-05 3.47449e-06
1.18619e-05 -0.000762476 -1.11622e-05
3.47449e-06 -1.11622e-05 -0.00105817
0.00955132 0.000303211 8.65463e-05
0.000303211 0.00371493 3.8345e-05
8.65463e-05 3.8345e-05 0.00173589
-0.00490659 -0.000129972 2.82075e-05
-0.000129972 -0.000941908 1.18838e-05
2.82075e-05 1.18838e-05 -0.00170444
0.00121276 0.000100939 8.54317e-06
0.000100939 0.000297523 7.85413e-06
8.54317e-06 7.85413e-06 0.00024776
0.000778985 7.13332e-05 -2.94442e-06
7.13332e-05 9.08345e-05 1.24745e-06
-2.94442e-06 1.24745e-06 4.76823e-05
0.000416501 3.90531e-05 -6.99072e-06
3.90531e-05 -2.70097e-05 -7.23836e-06
-6.99072e-06 -7.23836e-06 -7.36806e-05
0.000871308 9.35558e-05 -1.14392e-08
9.35558e-05 8.95168e-05 1.10749e-06
-1.14392e-08 1.10749e-06 5.52217e-06
0.000848185 1.13451e-05 -4.49251e-07
1.13451e-05 5.98514e-05 2.16111e-06
-4.49251e-07 2.16111e-06 -1.03124e-05
0.000595226 -2.84146e-05 -2.46013e-06
-2.84146e-05 -4.92009e-05 8.60847e-06
-2.46013e-06 8.60847e-06 -9.77942e-05
0.000803183 3.95801e-05 -9.98713e-08
3.95801e-05 4.53941e-05 -8.33315e-08
-9.98713e-08 -8.33315e-08 -3.28057e-05
0.0008227 -3.35734e-05 4.56954e-07
-3.35734e-05 5.68732e-05 -1.09129e-06
4.56954e-07 -1.09129e-06 1.86105e-06
0.000704725 -4.91437e-05 3.39195e-06
-4.91437e-05 4.92459e-05 2.92238e-06
3.39195e-06 2.92238e-06 1.11473e-05
0.000536922 -3.71626e-06 -2.80921e-07
-3.71626e-06 -1.97595e-05 -5.91296e-06
-2.80921e-07 -5.91296e-06 -4.53465e-05
0.000820099 6.3941e-06 -6.67785e-07
6.3941e-06 6.80709e-05 -4.07596e-06
-6.67785e-07 -4.07596e-06 7.30867e-06
0.000814056 2.02776e-05 1.48041e-08
2.02776e-05 5.15981e-05 1.95591e-06
1.48041e-08 1.95591e-06 -1.9656e-05
0.000804217 5.29704e-05 -3.34218e-07
5.29704e-05 6.69671e-05 4.01764e-07
-3.34218e-07 4.01764e-07 -6.38475e-06
0.000908643 4.66992e-05 -1.46626e-06
4.66992e-05 0.000110821 1.926e-06
-1.46626e-06 1.926e-06 4.23735e-05
0.000814513 2.23144e-05 4.96312e-07
2.23144e-05 6.65403e-05 -3.36221e-09
4.96312e-07 -3.36221e-09 2.40107e-06
0.000827776 4.13835e-05 7.23599e-07
4.13835e-05 7.10719e-05 2.4718e-07
7.23599e-07 2.4718e-07 -9.32343e-07
0.000754359 -3.48941e-05 1.21135e-06
-3.48941e-05 7.56476e-05 6.26081e-07
1.21135e-06 6.26081e-07 -4.96369e-06
0.00069109 -2.95101e-05 -7.01279e-07
-2.95101e-05 2.34819e-05 -1.12436e-06
-7.01279e-07 -1.12436e-06 -6.05559e-05
0.000533103 -6.7055e-05 3.72708e-06
-6.7055e-05 -5.02851e-05 2.343e-07
3.72708e-06 2.343e-07 -0.000189797
0.000997082 -5.71684e-06 -1.68611e-06
-5.71684e-06 0.000176025 1.94889e-07
-1.68611e-06 1.94889e-07 8.87646e-05
0.00100653 -6.75265e-05 -9.36521e-07
-6.75265e-05 0.000200657 9.18657e-07
-9.36521e-07 9.18657e-07 8.39661e-05
0.000479178 -0.000113324 2.20981e-07
-0.000113324 -0.000107021 1.78349e-06
2.20981e-07 1.78349e-06 -0.000264603
0.000763838 -0.000124456 -3.45179e-06
-0.000124456 5.24163e-05 -1.19518e-07
-3.45179e-06 -1.19518e-07 -0.000100829
0.000913234 -0.000100103 -1.11064e-06
-0.000100103 0.000157495 1.89156e-06
-1.11064e-06 1.89156e-06 3.71935e-05
0.000779307 -0.000125099 -7.26208e-08
-0.000125099 6.66495e-05 8.38723e-07
-7.26208e-08 8.38723e-07 -8.24806e-05
0.000858683 -5.4065e-06 9.62517e-07
-5.4065e-06 0.000105552 7.69659e-07
9.62517e-07 7.69659e-07 2.02521e-05
0.000963474 -2.9439e-05 -5.31312e-07
-2.9439e-05 0.000180295 -6.46751e-07
-5.31312e-07 -6.46751e-07 7.55229e-05
0.000714041 -6.26947e-05 5.52414e-07
-6.26947e-05 6.48093e-05 -4.39152e-06
5.52414e-07 -4.39152e-06 -5.56437e-05
0.00102627 3.82064e-05 -1.99265e-06
3.82064e-05 0.000203638 -1.07452e-06
-1.99265e-06 -1.07452e-06 0.000119427
0.000674481 2.92838e-05 1.55732e-07
2.92838e-05 1.74864e-06 -3.05234e-08
1.55732e-07 -3.05234e-08 -7.26817e-05
0.000744491 5.00478e-05 -2.93714e-08
5.00478e-05 2.56943e-05 6.13388e-07
-2.93714e-08 6.13388e-07 -3.36283e-05
0.000831738 -9.03074e-06 -1.50121e-07
-9.03074e-06 8.66689e-05 2.06037e-07
-1.50121e-07 2.06037e-07 1.55845e-05
0.000775845 1.04155e-05 -6.51579e-07
1.04155e-05 3.8234e-05 -9.71391e-08
-6.51579e-07 -9.71391e-08 -1.71458e-05
0.000735522 3.45657e-05 -1.44547e-06
3.45657e-05 6.39749e-06 1.42751e-06
-1.44547e-06 1.42751e-06 -3.06532e-05
0.000799688 -2.40679e-05 1.25905e-06
-2.40679e-05 4.95594e-05 -3.36085e-07
1.25905e-06 -3.36085e-07 -5.96202e-06
0.000746648 2.68767e-05 -1.45375e-07
2.68767e-05 6.94299e-06 4.38396e-09
-1.45375e-07 4.38396e-09 -2.88308e-05
0.00128926 3.78807e-05 -7.6394e-06
3.78807e-05 0.000309909 3.11381e-06
-7.6394e-06 3.11381e-06 0.000304766
0.000746731 1.45911e-05 1.32432e-06
1.45911e-05 3.02841e-06 -1.41086e-06
1.32432e-06 -1.41086e-06 -3.20896e-05
0.00100782 2.8883e-05 -3.81008e-06
2.8883e-05 0.000146172 5.9417e-07
-3.81008e-06 5.9417e-07 0.000140418
0.000851242 2.52695e-05 -1.56301e-06
2.52695e-05 6.23474e-05 1.65336e-06
-1.56301e-06 1.65336e-06 7.4041e-05
0.000681896 1.97471e-05 6.49815e-07
1.97471e-05 -4.10584e-05 -3.29867e-06
6.49815e-07 -3.29867e-06 -4.78271e-05
0.00151224 2.4616e-05 6.4033e-06
2.4616e-05 0.000427183 -1.24606e-06
6.4033e-06 -1.24606e-06 0.000442924
0.00218627 2.02698e-05 8.88006e-06
2.02698e-05 0.000802153 -4.32221e-06
8.88006e-06 -4.32221e-06 0.000821566
0.000619687 3.50749e-06 -3.38727e-07
3.50749e-06 -4.1991e-05 -1.1546e-06
-3.38727e-07 -1.1546e-06 -0.000109341
0.000507515 -1.12493e-05 -2.76333e-07
-1.12493e-05 -0.000126199 -2.38963e-06
-2.76333e-07 -2.38963e-06 -0.000163057
0.000866422 -6.32449e-06 1.62347e-08
-6.32449e-06 9.20653e-05 9.02168e-08
1.62347e-08 9.02168e-08 3.24776e-05
0.000705106 -1.30957e-05 -2.89084e-07
-1.30957e-05 -3.1734e-05 -3.4394e-06
-2.89084e-07 -3.4394e-06 -3.60649e-05
0.000625884 -7.68535e-06 1.5701e-07
-7.68535e-06 -6.14857e-05 -2.57176e-09
1.5701e-07 -2.57176e-09 -9.53629e-05
0.000604892 -4.88305e-05 2.33185e-07
-4.88305e-05 -4.93502e-05 1.02514e-06
2.33185e-07 1.02514e-06 -0.000108432
0.00208144 -1.05068e-05 -4.82236e-06
-1.05068e-05 0.000741128 -4.46908e-06
-4.82236e-06 -4.46908e-06 0.000762255
0.000706412 -6.52749e-06 -1.80485e-07
-6.52749e-06 -3.29473e-05 -3.29216e-09
-1.80485e-07 -3.29216e-09 -3.6097e-05
0.000749953 -4.73495e-06 -1.12663e-07
-4.73495e-06 6.99048e-06 1.73266e-06
-1.12663e-07 1.73266e-06 -2.45434e-05
0.00206805 -3.51949e-07 -2.67117e-06
-3.51949e-07 0.00073261 -1.92518e-10
-2.67117e-06 -1.92518e-10 0.000754096
0.000709547 1.44257e-08 1.39026e-07
1.44257e-08 -3.19023e-05 3.37909e-06
1.39026e-07 3.37909e-06 -3.4706e-05
0.00208153 9.87614e-06 -5.01018e-06
9.87614e-06 0.000741023 4.4761e-06
-5.01018e-06 4.4761e-06 0.000762158
0.00110601 4.54656e-06 -5.26593e-05
4.54656e-06 -8.57439e-05 2.13063e-05
-5.26593e-05 2.13063e-05 -0.000516948
0.00133856 0.000160204 -3.1539e-06
0.000160204 0.00144792 -5.84992e-06
-3.1539e-06 -5.84992e-06 0.00115277
0.000845388 -0.000136648 -3.0772e-05
-0.000136648 0.000843928 -1.28356e-05
-3.0772e-05 -1.28356e-05 0.000488114
0.000812807 3.21809e-05 -4.37016e-08
3.21809e-05 7.18798e-05 5.80523e-07
-4.37016e-08 5.80523e-07 -1.19689e-05
0.00229894 3.17069e-06 -2.37478e-05
3.17069e-06 0.000715258 4.55466e-05
-2.37478e-05 4.55466e-05 0.000215081
0.00238134 6.69204e-06 -2.28204e-05
6.69204e-06 0.000388137 3.3707e-06
-2.28204e-05 3.3707e-06 -0.000304077
0.00156345 0.000381232 7.61413e-05
0.000381232 0.00121448 -6.06635e-05
7.61413e-05 -6.06635e-05 0.00140012
0.00296953 -9.75737e-05 -1.80855e-05
-9.75737e-05 0.000196118 -1.18659e-05
-1.80855e-05 -1.18659e-05 -5.79485e-05
0.00999483 0.000415616 3.30914e-05
0.000415616 0.00378465 -3.07272e-05
3.30914e-05 -3.07272e-05 0.00236789
-0.00252364 0.000469403 3.24818e-08
0.000469403 -0.00241421 1.42429e-05
3.24818e-08 1.42429e-05 -0.00179594
0.00323657 0.00056991 3.18501e-05
0.00056991 -0.000454535 -9.94346e-06
3.18501e-05 -9.94346e-06 0.000526044
0.00314895 -0.000320789 -5.26316e-05
-0.000320789 4.07477e-05 1.27256e-06
-5.26316e-05 1.27256e-06 -0.00062996
0.00711501 0.000172985 2.87791e-05
0.000172985 0.00280878 -1.30269e-05
2.87791e-05 -1.30269e-05 0.00116273
0.00505004 0.000542707 6.50526e-06
0.000542707 0.00053016 -2.31948e-05
6.50526e-06 -2.31948e-05 0.000711071
0.00332444 0.000342296 -1.00439e-05
0.000342296 -0.00130065 1.2271e-06
-1.00439e-05 1.2271e-06 -0.000207661
0.00414904 -0.000575109 -8.08166e-06
-0.000575109 0.000587579 -1.4252e-05
-8.08166e-06 -1.4252e-05 -0.000321133
0.00848531 -0.0001051 4.39909e-05
-0.0001051 0.0039459 1.23643e-06
4.39909e-05 1.23643e-06 0.00150525
0.00125859 8.4394e-05 7.58963e-06
8.4394e-05 -0.000692548 -1.12261e-05
7.58963e-06 -1.12261e-05 -0.000795759
0.00489262 4.79003e-05 -6.21367e-06
4.79003e-05 -0.000358286 3.33918e-05
-6.21367e-06 3.33918e-05 0.000967723
0.000859273 -2.94854e-05 4.84174e-07
-2.94854e-05 0.000101021 5.09017e-07
4.84174e-07 5.09017e-07 3.95699e-06
0.0008353 -3.76484e-05 4.6797e-07
-3.76484e-05 9.87078e-05 1.86368e-08
4.6797e-07 1.86368e-08 1.0732e-06
0.000906907 6.20537e-05 -1.15973e-06
6.20537e-05 0.000139189 -6.12669e-08
-1.15973e-06 -6.12669e-08 4.94565e-05
0.000812798 -5.8003e-06 -2.98195e-07
-5.8003e-06 6.51299e-05 3.44072e-07
-2.98195e-07 3.44072e-07 -1.998e-05
0.000868799 5.33641e-05 -6.40795e-07
5.33641e-05 0.000110945 3.80066e-07
-6.40795e-07 3.80066e-07 1.65527e-05
0.000907442 3.42941e-05 6.47166e-07
3.42941e-05 0.000134557 1.11467e-06
6.47166e-07 1.11467e-06 4.67802e-05
0.000960831 7.26881e-05 -6.27654e-07
7.26881e-05 0.0001618 7.58188e-08
-6.27654e-07 7.58188e-08 7.60442e-05
0.00100222 8.0624e-05 8.87112e-07
8.0624e-05 0.000190995 1.11436e-06
8.87112e-07 1.11436e-06 0.000105066
0.00102645 -0.0001438 2.42327e-05
-0.0001438 -4.28926e-05 -1.20338e-05
2.42327e-05 -1.20338e-05 -0.000106249
0.00114035 -0.00022186 8.15557e-06
-0.00022186 1.35571e-06 -4.15371e-06
8.15557e-06 -4.15371e-06 -3.80003e-05
0.000830105 -0.000119585 -1.52349e-06
-0.000119585 0.000102786 -1.46792e-07
-1.52349e-06 -1.46792e-07 -8.10858e-08
0.00166807 -7.71134e-05 4.91809e-06
-7.71134e-05 0.000541453 -4.63985e-06
4.91809e-06 -4.63985e-06 0.000377368
0.00105191 -5.60729e-05 -3.90029e-07
-5.60729e-05 0.000217153 -8.40785e-07
-3.90029e-07 -8.40785e-07 0.00010548
0.000947226 -3.09304e-05 -1.32247e-06
-3.09304e-05 0.000153919 -1.37974e-07
-1.32247e-06 -1.37974e-07 5.52768e-05
0.000897657 1.31454e-05 3.19593e-08
1.31454e-05 0.000119942 -2.24037e-07
3.19593e-08 -2.24037e-07 2.4051e-05
0.000713888 -0.000276334 -6.36953e-06
-0.000276334 -0.000242491 3.48621e-07
-6.36953e-06 3.48621e-07 -0.000289552
0.000850685 2.44279e-05 -1.53715e-07
2.44279e-05 0.000102143 -4.26565e-07
-1.53715e-07 -4.26565e-07 -4.72663e-06
0.000978238 -3.28186e-05 5.78371e-07
-3.28186e-05 0.000151198 7.87411e-07
5.78371e-07 7.87411e-07 4.63009e-05
0.000509543 -7.57279e-05 6.93235e-07
-7.57279e-05 -2.49125e-05 3.4033e-06
6.93235e-07 3.4033e-06 -0.000106478
0.000910119 -6.25296e-06 6.96283e-07
-6.25296e-06 0.000108975 9.22334e-07
6.96283e-07 9.22334e-07 2.68605e-05
0.000272745 -0.000275493 5.14677e-05
-0.000275493 -0.000358695 -2.85424e-05
5.14677e-05 -2.85424e-05 -0.000314462
0.00112222 -4.87155e-05 -1.20533e-05
-4.87155e-05 0.000502709 1.60022e-05
-1.20533e-05 1.60022e-05 0.000387936
0.00051979 5.00672e-06 -8.74552e-07
5.00672e-06 -9.76071e-05 5.02676e-06
-8.74552e-07 5.02676e-06 -0.000184638
0.000890082 0.000103569 1.95327e-06
0.000103569 0.000119377 1.14449e-06
1.95327e-06 1.14449e-06 2.42582e-05
0.00139758 -1.21209e-05 -1.63084e-05
-1.21209e-05 0.000234327 -1.64705e-07
-1.63084e-05 -1.64705e-07 0.000110027
0.00120755 -2.15391e-05 3.09185e-05
-2.15391e-05 9.27936e-06 -1.98981e-06
3.09185e-05 -1.98981e-06 -0.000385497
-0.00193182 -3.72478e-05 -5.83066e-06
-3.72478e-05 0.000144849 1.54657e-06
-5.83066e-06 1.54657e-06 -0.000580848
0.000793736 9.54332e-05 1.33447e-05
9.54332e-05 0.000212577 3.65875e-06
1.33447e-05 3.65875e-06 0.000135919
0.00039971 0.000167328 2.32882e-05
0.000167328 0.000157069 1.04347e-05
2.32882e-05 1.04347e-05 9.7469e-06
0.00191895 -3.47281e-05 5.39808e-05
-3.47281e-05 0.000471049 1.17924e-05
5.39808e-05 1.17924e-05 9.34673e-05
0.00732086 -0.000241873 7.36875e-05
-0.000241873 0.00292399 3.61212e-05
7.36875e-05 3.61212e-05 0.000909122
0.0023116 0.000421061 -6.54574e-05
0.000421061 0.000371483 -8.39504e-05
-6.54574e-05 -8.39504e-05 -0.000403102
0.00329006 -0.000257114 2.65938e-05
-0.000257114 0.00032973 2.57793e-06
2.65938e-05 2.57793e-06 -7.5996e-05
0.00178155 2.47024e-05 2.09411e-05
2.47024e-05 0.000188468 5.87049e-05
2.09411e-05 5.87049e-05 -0.000454746
0.00235976 4.92324e-06 3.93359e-06
4.92324e-06 -0.00258888 -2.08954e-05
3.93359e-06 -2.08954e-05 -0.000832237
0.000795508 9.1084e-05 2.41422e-07
9.1084e-05 0.000292145 -2.68171e-07
2.41422e-07 -2.68171e-07 0.000221347
0.00129734 -2.73253e-05 -1.4902e-07
-2.73253e-05 0.000143921 -5.86652e-06
-1.4902e-07 -5.86652e-06 -2.41198e-05
0.00205086 9.57832e-06 1.1458e-05
9.57832e-06 0.000323259 4.40256e-06
1.1458e-05 4.40256e-06 -0.000152301
-0.00074749 7.45388e-05 -1.4508e-05
7.45388e-05 -0.000299344 -4.54135e-06
-1.4508e-05 -4.54135e-06 -0.000521757
0.00334416 0.000346364 6.82849e-06
0.000346364 -0.00127491 -9.86683e-07
6.82849e-06 -9.86683e-07 -0.000210188
0.00544219 0.000597513 4.78989e-05
0.000597513 0.00175915 8.8271e-06
4.78989e-05 8.8271e-06 -0.000264794
0.00279486 0.00014873 -4.78853e-05
0.00014873 0.00125901 -2.78274e-06
-4.78853e-05 -2.78274e-06 0.000778277
0.000279785 9.45162e-05 -1.57148e-05
9.45162e-05 0.000119145 -1.1604e-05
-1.57148e-05 -1.1604e-05 -1.21089e-06
0.00142796 -2.74689e-07 -2.92583e-07
-2.74689e-07 0.00017297 -1.76254e-05
-2.92583e-07 -1.76254e-05 2.46307e-05
0.00237024 3.03356e-06 2.35337e-05
3.03356e-06 0.000686525 -4.5544e-05
2.35337e-05 -4.5544e-05 0.000223498
0.00387504 0.00054302 6.08384e-05
0.00054302 -5.99202e-05 -4.36802e-05
6.08384e-05 -4.36802e-05 0.000824326
0.0024697 0.000151396 -2.22933e-05
0.000151396 -0.00029931 1.10081e-05
-2.22933e-05 1.10081e-05 -0.00025652
0.00247761 0.000270707 1.70344e-05
0.000270707 0.000380833 -2.16567e-05
1.70344e-05 -2.16567e-05 0.000468539
0.00209486 3.91969e-05 9.02479e-05
3.91969e-05 0.00147067 3.25081e-05
9.02479e-05 3.25081e-05 -0.00140363
0.000619263 8.59556e-05 3.40216e-06
8.59556e-05 7.06293e-06 7.00382e-06
3.40216e-06 7.00382e-06 -3.95708e-05
0.000645343 2.87104e-05 6.98775e-06
2.87104e-05 9.9518e-05 7.90723e-07
6.98775e-06 7.90723e-07 5.47197e-05
0.000121006 -9.97647e-06 8.65529e-06
-9.97647e-06 1.75757e-05 -1.26761e-05
8.65529e-06 -1.26761e-05 -5.00775e-05
0.000784373 1.98478e-05 -8.10713e-08
1.98478e-05 3.03829e-05 2.15517e-06
-8.10713e-08 2.15517e-06 -4.37153e-05
0.000652728 -3.24772e-05 -1.21015e-06
-3.24772e-05 -3.62115e-05 4.14191e-06
-1.21015e-06 4.14191e-06 -9.09746e-05
0.000758856 -5.33956e-05 -4.18464e-06
-5.33956e-05 6.89022e-05 8.94408e-06
-4.18464e-06 8.94408e-06 2.7664e-05
0.000795602 -7.16393e-06 -4.93744e-08
-7.16393e-06 5.46147e-05 -1.43139e-07
-4.93744e-08 -1.43139e-07 -6.99243e-06
0.000557054 -1.11136e-05 -3.06646e-07
-1.11136e-05 -2.06199e-05 2.43479e-06
-3.06646e-07 2.43479e-06 -4.33536e-05
0.000220481 -8.71009e-05 4.46672e-06
-8.71009e-05 -8.4508e-05 -5.3378e-06
4.46672e-06 -5.3378e-06 -0.000204405
0.000888065 1.72498e-05 -9.83108e-08
1.72498e-05 0.000103619 1.92234e-06
-9.83108e-08 1.92234e-06 3.91317e-05
0.000773143 5.18294e-05 -7.10465e-07
5.18294e-05 4.26348e-05 1.06082e-06
-7.10465e-07 1.06082e-06 -2.93998e-05
0.00111769 -4.78099e-05 9.98117e-07
-4.78099e-05 0.000264308 7.42188e-07
9.98117e-07 7.42188e-07 0.000179034
0.000391678 -6.2505e-05 3.77163e-06
-6.2505e-05 -4.136e-05 7.85497e-07
3.77163e-06 7.85497e-07 -0.0002147
0.000608835 -1.74981e-06 -4.1476e-06
-1.74981e-06 -1.01821e-05 1.79927e-07
-4.1476e-06 1.79927e-07 -8.77545e-05
0.000379427 -6.62554e-05 1.0805e-06
-6.62554e-05 -0.000127254 -4.63601e-07
1.0805e-06 -4.63601e-07 -0.000258222
0.00106025 -0.000160086 4.2445e-06
-0.000160086 0.000216504 -1.11272e-06
4.2445e-06 -1.11272e-06 2.5834e-05
0.00113452 -0.000168485 -1.84288e-06
-0.000168485 0.000176833 3.64186e-06
-1.84288e-06 3.64186e-06 -1.38361e-05
0.00137713 -9.42463e-05 -2.1778e-06
-9.42463e-05 0.000394849 -3.33854e-07
-2.1778e-06 -3.33854e-07 0.000274807
0.000704161 -0.000129623 -3.1469e-07
-0.000129623 8.11762e-06 7.49661e-08
-3.1469e-07 7.49661e-08 -0.000153144
0.00147976 -0.000176541 9.04827e-07
-0.000176541 0.000428717 -1.23326e-06
9.04827e-07 -1.23326e-06 0.000274641
0.000360861 -8.16402e-05 -1.1782e-06
-8.16402e-05 -0.000139374 -2.58233e-07
-1.1782e-06 -2.58233e-07 -0.000272956
0.00086655 -0.000131075 1.17784e-07
-0.000131075 0.000106832 3.21376e-07
1.17784e-07 3.21376e-07 -4.38021e-05
0.000873787 -1.04693e-05 2.7152e-08
-1.04693e-05 0.000117987 6.23214e-07
2.7152e-08 6.23214e-07 2.29103e-05
0.00100114 -9.94053e-05 -1.83584e-06
-9.94053e-05 0.000204082 1.52962e-06
-1.83584e-06 1.52962e-06 8.31341e-05
0.000529332 -0.000106626 -8.63198e-07
-0.000106626 -6.76864e-05 -6.89346e-07
-8.63198e-07 -6.89346e-07 -0.000214375
0.00076222 5.177e-05 1.94717e-07
5.177e-05 4.0761e-05 8.07225e-07
1.94717e-07 8.07225e-07 -2.5651e-05
0.000729739 -2.41253e-06 6.94961e-07
-2.41253e-06 3.59574e-05 -1.17568e-07
6.94961e-07 -1.17568e-07 -4.98495e-05
0.000802134 -3.08754e-05 7.56602e-07
-3.08754e-05 9.39994e-05 -2.39048e-06
7.56602e-07 -2.39048e-06 -1.32801e-05
0.000807643 1.81713e-05 -8.97891e-08
1.81713e-05 7.44453e-05 -4.60506e-07
-8.97891e-08 -4.60506e-07 1.03166e-06
0.000778795 2.04162e-05 -4.71126e-07
2.04162e-05 4.24493e-05 -1.5304e-07
-4.71126e-07 -1.5304e-07 -1.60571e-05
0.00072943 4.37869e-05 -1.47397e-06
4.37869e-05 1.02491e-05 1.36736e-06
-1.47397e-06 1.36736e-06 -2.92755e-05
0.000803956 -1.33057e-05 8.59467e-07
-1.33057e-05 5.41248e-05 -5.81315e-07
8.59467e-07 -5.81315e-07 -1.79236e-06
0.000740237 3.49838e-05 -9.22439e-08
3.49838e-05 8.74535e-06 -4.18672e-09
-9.22439e-08 -4.18672e-09 -2.83262e-05
0.000662684 3.7444e-05 -1.17273e-06
3.7444e-05 -3.39437e-05 3.35052e-06
-1.17273e-06 3.35052e-06 -4.38978e-05
0.00074878 2.49568e-05 1.28207e-06
2.49568e-05 7.42183e-06 -1.43572e-06
1.28207e-06 -1.43572e-06 -2.81469e-05
0.000680015 3.21961e-05 1.20785e-07
3.21961e-05 -3.15724e-05 2.73316e-08
1.20785e-07 2.73316e-08 -3.9969e-05
0.00205537 5.03182e-05 -4.72023e-06
5.03182e-05 0.000743847 1.59973e-06
-4.72023e-06 1.59973e-06 0.000760071
0.000680531 2.61812e-05 8.16942e-07
2.61812e-05 -3.75429e-05 -3.3013e-06
8.16942e-07 -3.3013e-06 -4.48243e-05
0.0014937 3.23741e-05 7.76771e-06
3.23741e-05 0.000421968 -1.13862e-06
7.76771e-06 -1.13862e-06 0.000436828
0.00216575 2.97044e-05 1.26351e-05
2.97044e-05 0.000794642 -4.12739e-06
1.26351e-05 -4.12739e-06 0.000813393
0.000640754 -1.60218e-05 -1.68041e-07
-1.60218e-05 -3.85183e-05 -8.01279e-07
-1.68041e-07 -8.01279e-07 -0.000103286
0.000486212 -1.34287e-05 -3.54762e-07
-1.34287e-05 -0.000137311 -2.29661e-06
-3.54762e-07 -2.29661e-06 -0.000177151
0.000749955 4.39088e-06 -3.24004e-07
4.39088e-06 2.8831e-05 -5.64916e-07
-3.24004e-07 -5.64916e-07 -3.69517e-05
0.000699272 -1.94343e-05 -3.09305e-07
-1.94343e-05 -3.1714e-05 -3.484e-06
-3.09305e-07 -3.484e-06 -3.78857e-05
0.000491335 -1.21674e-05 -4.34737e-08
-1.21674e-05 -0.000135176 -7.03399e-07
-4.34737e-08 -7.03399e-07 -0.000172383
0.000885855 4.30055e-06 -1.30127e-07
4.30055e-06 0.000107276 8.72127e-07
-1.30127e-07 8.72127e-07 4.45642e-05
0.00211554 -2.00725e-05 -8.75899e-06
-2.00725e-05 0.000762597 -4.41291e-06
-8.75899e-06 -4.41291e-06 0.000782821
0.000702248 -1.27747e-05 -1.17349e-07
-1.27747e-05 -3.33192e-05 -1.32845e-08
-1.17349e-07 -1.32845e-08 -3.75966e-05
0.000489637 -8.01594e-06 1.47658e-07
-8.01594e-06 -0.000136616 1.72566e-06
1.47658e-07 1.72566e-06 -0.000171561
0.00207562 -9.76796e-06 -2.84902e-06
-9.76796e-06 0.00073767 2.72346e-08
-2.84902e-06 2.72346e-08 0.000758894
0.00070599 -6.25219e-06 1.74241e-07
-6.25219e-06 -3.31409e-05 3.37421e-06
1.74241e-07 3.37421e-06 -3.62687e-05
0.00206482 4.37304e-07 -5.27035e-07
4.37304e-07 0.000730794 4.49364e-06
-5.27035e-07 4.49364e-06 0.000752288
0.0013742 2.17646e-05 -1.46093e-05
2.17646e-05 0.000212233 1.55781e-05
-1.46093e-05 1.55781e-05 4.60463e-05
0.00146344 1.7334e-05 7.86616e-06
1.7334e-05 0.000142699 -2.44065e-06
7.86616e-06 -2.44065e-06 -0.000287865
0.00150772 0.000127855 4.13677e-05
0.000127855 0.00158586 -2.06583e-05
4.13677e-05 -2.06583e-05 0.00130556
0.000847547 3.2228e-05 8.54666e-08
3.2228e-05 8.72364e-05 1.25259e-07
8.54666e-08 1.25259e-07 6.95645e-06
0.000756093 2.96087e-07 1.1876e-07
2.96087e-07 3.07195e-05 4.42563e-07
1.1876e-07 4.42563e-07 -4.54817e-05
0.000906326 5.01608e-05 -1.52553e-07
5.01608e-05 0.000119366 1.15101e-06
-1.52553e-07 1.15101e-06 3.46389e-05
0.00175582 1.05845e-05 2.50449e-06
1.05845e-05 8.40357e-05 7.1409e-05
2.50449e-06 7.1409e-05 -0.000500787
0.00231704 1.16737e-05 -6.43129e-06
1.16737e-05 0.000708168 1.52097e-06
-6.43129e-06 1.52097e-06 0.000210199
0.0025329 -6.40936e-06 4.21909e-05
-6.40936e-06 0.000524901 -5.25465e-05
4.21909e-05 -5.25465e-05 -0.000225843
0.00440832 -0.000346188 -5.99397e-05
-0.000346188 0.000822079 2.07373e-07
-5.99397e-05 2.07373e-07 0.000174755
0.000435567 -6.60869e-05 -4.70735e-05
-6.60869e-05 -0.000256598 2.74388e-05
-4.70735e-05 2.74388e-05 -0.00214954
0.00511487 0.000632594 6.23152e-05
0.000632594 0.00122927 -8.72751e-06
6.23152e-05 -8.72751e-06 0.00121248
0.00142487 0.000231997 1.317e-05
0.000231997 -0.00247169 -3.45037e-05
1.317e-05 -3.45037e-05 -0.00133149
0.0048928 -0.000652174 -7.91422e-06
-0.000652174 0.00124617 4.20233e-06
-7.91422e-06 4.20233e-06 0.000619222
0.00602725 -0.000140581 1.1659e-05
-0.000140581 0.00242654 -3.18645e-06
1.1659e-05 -3.18645e-06 0.000412185
-0.00048578 0.000124986 -9.6835e-06
0.000124986 -0.000703666 -1.92938e-05
-9.6835e-06 -1.92938e-05 -0.00106433
0.00360011 1.46381e-05 -6.93376e-06
1.46381e-05 -0.00144037 7.92934e-06
-6.93376e-06 7.92934e-06 6.05193e-05
0.00206197 -0.000497981 -3.12465e-05
-0.000497981 -0.000257376 -3.08497e-05
-3.12465e-05 -3.08497e-05 -0.000821929
0.00948617 -0.00045535 5.59079e-05
-0.00045535 0.00428872 1.61139e-05
5.59079e-05 1.61139e-05 0.00182803
-0.00494235 6.16238e-05 3.40845e-05
6.16238e-05 -0.00100809 -3.21883e-05
3.40845e-05 -3.21883e-05 -0.00177756
0.00175798 -0.000284937 1.01635e-06
-0.000284937 -0.0018613 1.30524e-06
1.01635e-06 1.30524e-06 -0.000726028
0.000848442 1.18358e-05 -8.5164e-08
1.18358e-05 8.37656e-05 1.24315e-06
-8.5164e-08 1.24315e-06 -6.83954e-06
0.000835034 -1.21816e-05 1.84126e-07
-1.21816e-05 8.95315e-05 -9.37315e-08
1.84126e-07 -9.37315e-08 -9.14676e-06
0.000815272 -4.90617e-05 -3.47813e-08
-4.90617e-05 8.90942e-05 -3.37053e-07
-3.47813e-08 -3.37053e-07 -9.80925e-06
0.000834444 1.7772e-05 -3.49886e-07
1.7772e-05 7.77425e-05 -2.87444e-07
-3.49886e-07 -2.87444e-07 -8.49518e-06
0.000971043 9.25149e-05 1.25182e-06
9.25149e-05 0.000166597 1.29469e-07
1.25182e-06 1.29469e-07 7.36856e-05
0.00102064 8.29603e-05 -2.55612e-07
8.29603e-05 0.000195488 1.07099e-07
-2.55612e-07 1.07099e-07 0.000108863
0.00159699 -0.000320258 -5.48393e-07
-0.000320258 0.00020563 5.8362e-06
-5.48393e-07 5.8362e-06 0.000121218
-0.000769886 -5.57589e-05 8.92475e-06
-5.57589e-05 -0.000708901 -6.44949e-06
8.92475e-06 -6.44949e-06 -0.000766048
0.00100303 5.26102e-05 -5.88352e-07
5.26102e-05 0.000185105 -5.12319e-07
-5.88352e-07 -5.12319e-07 8.46842e-05
0.00128541 -8.04345e-05 9.51913e-06
-8.04345e-05 0.000303469 -1.10996e-05
9.51913e-06 -1.10996e-05 0.000194163
0.000983738 1.35289e-05 -5.88033e-07
1.35289e-05 0.000176795 -1.72118e-06
-5.88033e-07 -1.72118e-06 7.25482e-05
0.000863303 1.26037e-06 4.26234e-08
1.26037e-06 8.31533e-05 -3.1163e-07
4.26234e-08 -3.1163e-07 -2.22903e-06
0.000943745 5.73666e-05 5.40635e-07
5.73666e-05 0.000145956 -4.26504e-07
5.40635e-07 -4.26504e-07 5.64173e-05
0.000568196 -0.000259739 -6.13429e-06
-0.000259739 -0.000218365 -2.19125e-06
-6.13429e-06 -2.19125e-06 -0.000230758
0.00100773 -2.5948e-05 1.31982e-06
-2.5948e-05 0.000178393 -2.23593e-06
1.31982e-06 -2.23593e-06 9.57071e-05
0.00044308 -2.55479e-05 1.11816e-05
-2.55479e-05 0.000150243 -8.69157e-07
1.11816e-05 -8.69157e-07 3.92724e-05
0.000956837 2.55802e-05 2.40676e-06
2.55802e-05 0.000145371 1.13631e-06
2.40676e-06 1.13631e-06 6.59579e-05
-0.00207719 2.92527e-06 2.31453e-06
2.92527e-06 -0.00100779 -2.7376e-05
2.31453e-06 -2.7376e-05 -0.00130161
0.00123829 9.08975e-07 7.97474e-06
9.08975e-07 0.000526268 1.95737e-05
7.97474e-06 1.95737e-05 0.000484751
0.00109503 -7.28495e-06 2.60707e-06
-7.28495e-06 0.000240681 3.90201e-06
2.60707e-06 3.90201e-06 0.000174988
0.00153638 -9.22303e-06 -1.19013e-06
-9.22303e-06 0.000272435 4.10472e-08
-1.19013e-06 4.10472e-08 0.000198263
0.00112 -9.66443e-06 -6.5971e-06
-9.66443e-06 9.46083e-05 -1.67309e-06
-6.5971e-06 -1.67309e-06 -1.39955e-05
0.00109128 -2.91687e-05 9.29684e-05
-2.91687e-05 -1.72819e-05 -1.51512e-06
9.29684e-05 -1.51512e-06 -0.000418006
0.0011547 0.000136368 1.78388e-05
0.000136368 0.000476581 1.25145e-05
1.78388e-05 1.25145e-05 0.000396489
0.00357171 0.000355417 3.41028e-06
0.000355417 0.00149543 -1.55733e-05
3.41028e-06 -1.55733e-05 0.00136609
0.00132142 -2.54469e-05 9.56194e-06
-2.54469e-05 0.000149081 5.9629e-06
9.56194e-06 5.9629e-06 -8.52098e-06
0.0003742 0.000286461 -3.1168e-06
0.000286461 -0.000265397 1.81815e-06
-3.1168e-06 1.81815e-06 -0.00224805
-0.00754595 1.82906e-05 -3.19087e-05
1.82906e-05 -0.00337328 -1.57537e-05
-3.19087e-05 -1.57537e-05 -0.00423689
0.00225315 1.59768e-05 1.35366e-05
1.59768e-05 0.00055982 3.81443e-05
1.35366e-05 3.81443e-05 0.000181298
0.001531 0.000243692 -1.04124e-05
0.000243692 -0.00242197 3.47505e-05
-1.04124e-05 3.47505e-05 -0.00128174
0.000372693 7.21997e-05 -4.15759e-07
7.21997e-05 0.000174565 -1.2302e-06
-4.15759e-07 -1.2302e-06 7.14894e-05
0.00125561 -4.06861e-06 3.22193e-06
-4.06861e-06 9.07191e-05 -7.01612e-06
3.22193e-06 -7.01612e-06 -3.80519e-05
0.00236886 8.4613e-06 6.46441e-06
8.4613e-06 0.000679207 -1.54126e-06
6.46441e-06 -1.54126e-06 0.000205225
0.00127775 0.000235218 3.6978e-05
0.000235218 -0.000295947 -6.65881e-07
3.6978e-05 -6.65881e-07 -0.00043622
0.00187698 0.000526519 1.40417e-05
0.000526519 -0.00126033 -3.25576e-05
1.40417e-05 -3.25576e-05 -0.000324282
-0.000407087 0.000140112 9.92395e-06
0.000140112 -0.00108233 1.58837e-05
9.92395e-06 1.58837e-05 -0.00114104
0.00641681 9.40387e-05 5.7226e-05
9.40387e-05 0.00343983 -1.63365e-05
5.7226e-05 -1.63365e-05 0.000353846
5.23174e-05 1.22411e-05 -1.92841e-06
1.22411e-05 0.000205951 -1.17661e-05
-1.92841e-06 -1.17661e-05 -1.42658e-05
0.00132886 1.7432e-05 1.34388e-05
1.7432e-05 0.000168051 -1.51893e-05
1.34388e-05 -1.51893e-05 7.04993e-06
0.00241248 2.45381e-05 8.48667e-05
2.45381e-05 0.000279554 -6.27565e-05
8.48667e-05 -6.27565e-05 -0.000309597
0.0023001 0.000728519 9.00561e-06
0.000728519 0.000749614 -8.33011e-06
9.00561e-06 -8.33011e-06 0.00179279
-0.0063482 0.000161871 5.44897e-05
0.000161871 -0.00459519 6.13655e-05
5.44897e-05 6.13655e-05 -0.00436398
0.00908192 -0.000184006 3.63203e-05
-0.000184006 0.00379229 -5.3744e-05
3.63203e-05 -5.3744e-05 0.00134111
0.00459836 -0.000267072 -7.02666e-05
-0.000267072 0.00105753 0.000120657
-7.02666e-05 0.000120657 0.00114585
0.00108797 2.18203e-05 -4.94062e-09
2.18203e-05 0.000351966 6.59977e-06
-4.94062e-09 6.59977e-06 0.00030662
5.11641e-05 -1.46306e-05 1.69698e-06
-1.46306e-05 -3.26495e-05 -1.12398e-06
1.69698e-06 -1.12398e-06 -0.000113042
-0.000591612 -0.00010406 5.63565e-06
-0.00010406 -0.000284308 -1.15727e-05
5.63565e-06 -1.15727e-05 -0.000462491
0.00078281 -2.08041e-05 1.18404e-07
-2.08041e-05 5.00935e-05 1.98623e-06
1.18404e-07 1.98623e-06 -1.37348e-05
0.000654569 -1.28816e-05 4.95974e-06
-1.28816e-05 1.96849e-05 1.16343e-05
4.95974e-06 1.16343e-05 -3.08663e-07
0.000453127 -3.12513e-05 -7.06413e-07
-3.12513e-05 3.66717e-05 2.0036e-08
-7.06413e-07 2.0036e-08 -6.85563e-05
0.00107634 -0.000148653 1.57133e-05
-0.000148653 0.00041142 -1.01296e-05
1.57133e-05 -1.01296e-05 0.000191738
0.00154772 -6.34419e-05 -1.99891e-06
-6.34419e-05 0.000489361 1.64827e-06
-1.99891e-06 1.64827e-06 0.000399291
0.00128674 -0.000145509 9.59659e-07
-0.000145509 0.000407732 4.70565e-07
9.59659e-07 4.70565e-07 0.000230581
0.00105183 -0.000171268 6.47291e-06
-0.000171268 0.000270573 1.61134e-06
6.47291e-06 1.61134e-06 -2.11216e-07
0.000234371 -6.275e-05 -1.90877e-06
-6.275e-05 -0.000200157 -1.20038e-06
-1.90877e-06 -1.20038e-06 -0.000322016
0.00108136 -0.000159174 -2.63992e-07
-0.000159174 0.000222732 8.59768e-07
-2.63992e-07 8.59768e-07 2.63066e-05
0.00190116 -0.000241908 2.07108e-06
-0.000241908 0.000567212 1.45525e-06
2.07108e-06 1.45525e-06 0.000331757
0.00173026 -0.000232392 -2.98017e-06
-0.000232392 0.000375087 2.44357e-07
-2.98017e-06 2.44357e-07 0.000167101
0.000644913 -0.00012938 -2.71281e-07
-0.00012938 -6.27367e-05 4.42509e-06
-2.71281e-07 4.42509e-06 -0.000232145
0.00117196 -0.000171456 -1.88369e-06
-0.000171456 0.00019709 1.27807e-06
-1.88369e-06 1.27807e-06 4.99485e-06
0.000930251 -0.000145824 -3.00949e-06
-0.000145824 0.000124569 3.19448e-07
-3.00949e-06 3.19448e-07 -4.07768e-05
0.00132148 -0.000162337 2.48459e-06
-0.000162337 0.000356078 -2.12162e-06
2.48459e-06 -2.12162e-06 0.000211752
0.0011284 -0.00015057 2.34038e-06
-0.00015057 0.000243968 -2.03099e-06
2.34038e-06 -2.03099e-06 9.69071e-05
0.00069616 -4.29313e-05 8.38858e-07
-4.29313e-05 3.12324e-05 8.63114e-07
8.38858e-07 8.63114e-07 -8.36439e-05
0.000778236 -0.000104175 1.00841e-06
-0.000104175 8.78131e-05 -3.65813e-07
1.00841e-06 -3.65813e-07 -4.59731e-05
0.000956636 -0.000136776 4.28161e-06
-0.000136776 0.000154113 -2.63747e-06
4.28161e-06 -2.63747e-06 6.35553e-06
0.000759808 5.83282e-05 7.53859e-07
5.83282e-05 4.81074e-05 1.21534e-06
7.53859e-07 1.21534e-06 -3.0705e-05
0.000887182 -2.88253e-05 -1.48963e-07
-2.88253e-05 0.000126229 3.0151e-08
-1.48963e-07 3.0151e-08 2.87816e-05
0.00106812 -9.7948e-05 -5.08264e-07
-9.7948e-05 0.000238887 7.57015e-08
-5.08264e-07 7.57015e-08 0.000117842
0.000706441 5.53263e-05 -9.46404e-07
5.53263e-05 6.90977e-06 1.47321e-06
-9.46404e-07 1.47321e-06 -3.76684e-05
0.000781103 2.71982e-05 -6.31987e-07
2.71982e-05 4.93619e-05 -2.68521e-07
-6.31987e-07 -2.68521e-07 -1.64714e-05
0.000607108 7.5297e-07 -2.26598e-07
7.5297e-07 -3.00271e-05 -7.37663e-07
-2.26598e-07 -7.37663e-07 -0.000116511
0.000809748 -2.59777e-06 8.09563e-07
-2.59777e-06 5.85427e-05 -8.80391e-07
8.09563e-07 -8.80391e-07 4.50434e-08
0.000732211 4.44806e-05 -1.48484e-07
4.44806e-05 1.19099e-05 -3.13364e-08
-1.48484e-07 -3.13364e-08 -2.77542e-05
0.000648291 4.30795e-05 -1.39638e-06
4.30795e-05 -3.31585e-05 3.33834e-06
-1.39638e-06 3.33834e-06 -4.534e-05
0.000747215 3.59626e-05 1.26599e-06
3.59626e-05 1.24375e-05 -1.52392e-06
1.26599e-06 -1.52392e-06 -2.47105e-05
0.000673155 3.82528e-05 8.37862e-08
3.82528e-05 -2.82236e-05 1.34459e-08
8.37862e-08 1.34459e-08 -3.82301e-05
0.00209713 5.46021e-05 -2.16608e-05
5.46021e-05 0.000773941 3.54731e-06
-2.16608e-05 3.54731e-06 0.000789028
0.00068283 3.27367e-05 9.64296e-07
3.27367e-05 -3.03662e-05 -3.3133e-06
9.64296e-07 -3.3133e-06 -3.87365e-05
0.00147998 4.03299e-05 9.07857e-06
4.03299e-05 0.000421383 -1.0132e-06
9.07857e-06 -1.0132e-06 0.000434822
0.00214056 3.87905e-05 1.60987e-05
3.87905e-05 0.000785883 -3.89907e-06
1.60987e-05 -3.89907e-06 0.000803663
0.000789558 2.92645e-05 -5.62916e-07
2.92645e-05 4.27028e-05 -3.03011e-07
-5.62916e-07 -3.03011e-07 -2.22226e-05
0.000727938 -1.48252e-05 -6.4405e-07
-1.48252e-05 -3.48703e-06 -1.63496e-06
-6.4405e-07 -1.63496e-06 -4.37344e-05
0.000704228 2.13138e-05 -7.92874e-07
2.13138e-05 1.43249e-06 -4.70452e-07
-7.92874e-07 -4.70452e-07 -6.60659e-05
0.000688561 -2.58549e-05 -2.2168e-07
-2.58549e-05 -3.31205e-05 -3.56857e-06
-2.2168e-07 -3.56857e-06 -4.15966e-05
0.000607933 -1.27164e-05 -3.32251e-07
-1.27164e-05 -7.01146e-05 -7.17804e-07
-3.32251e-07 -7.17804e-07 -0.000109124
0.000881478 4.21121e-06 7.86067e-08
4.21121e-06 0.000101957 1.82798e-08
7.86067e-08 1.82798e-08 3.66953e-05
0.00216348 -2.96539e-05 -1.27762e-05
-2.96539e-05 0.000793014 -4.31485e-06
-1.27762e-05 -4.31485e-06 0.000811905
0.00069513 -1.90582e-05 -1.82741e-07
-1.90582e-05 -3.40588e-05 -1.29289e-08
-1.82741e-07 -1.29289e-08 -4.01457e-05
0.000474675 -1.26277e-05 -7.18213e-08
-1.26277e-05 -0.000144475 1.02428e-06
-7.18213e-08 1.02428e-06 -0.00018199
0.00210416 -1.92771e-05 -2.60477e-06
-1.92771e-05 0.000755837 5.11375e-08
-2.60477e-06 5.11375e-08 0.000776251
0.000700725 -1.24776e-05 3.30152e-07
-1.24776e-05 -3.41492e-05 3.42494e-06
3.30152e-07 3.42494e-06 -3.83835e-05
0.00207166 -9.01935e-06 3.69254e-06
-9.01935e-06 0.000735245 4.47635e-06
3.69254e-06 4.47635e-06 0.000756537
0.00139399 -2.16333e-06 -1.82645e-06
-2.16333e-06 0.000178822 1.82717e-05
-1.82645e-06 1.82717e-05 7.14631e-06
0.00131911 1.85177e-05 -4.1523e-06
1.85177e-05 0.000177497 8.55555e-07
-4.1523e-06 8.55555e-07 -3.80038e-06
0.00157647 2.15309e-05 6.84173e-05
2.15309e-05 0.000238915 -1.68572e-05
6.84173e-05 -1.68572e-05 -0.000200737
0.000735804 -3.9579e-05 1.46879e-07
-3.9579e-05 1.55874e-05 -1.44339e-07
1.46879e-07 -1.44339e-07 -5.68876e-05
0.000892192 -4.65195e-06 -4.28984e-07
-4.65195e-06 0.000109678 -5.04996e-07
-4.28984e-07 -5.04996e-07 3.14045e-05
0.000870886 3.10545e-05 1.24721e-06
3.10545e-05 9.89016e-05 -2.81129e-07
1.24721e-06 -2.81129e-07 2.06044e-05
0.000762445 -1.48167e-05 1.26644e-07
-1.48167e-05 3.00277e-05 5.61519e-08
1.26644e-07 5.61519e-08 -4.31809e-05
0.000833642 1.38878e-05 -1.31573e-08
1.38878e-05 7.85837e-05 2.09006e-07
-1.31573e-08 2.09006e-07 -5.38261e-06
0.000862849 -8.97213e-06 -8.33646e-07
-8.97213e-06 9.45072e-05 4.8273e-07
-8.33646e-07 4.8273e-07 1.42219e-05
0.000878321 0.000120015 8.72151e-07
0.000120015 0.000114579 1.13232e-06
8.72151e-07 1.13232e-06 2.03423e-05
0.00133519 6.774e-06 2.39962e-05
6.774e-06 0.000181885 6.81792e-05
2.39962e-05 6.81792e-05 -0.0004468
0.00198045 1.48069e-05 -2.57249e-06
1.48069e-05 0.000341124 2.06905e-05
-2.57249e-06 2.06905e-05 -0.000137512
0.00225647 1.95337e-05 1.15144e-05
1.95337e-05 0.000661711 -4.06599e-05
1.15144e-05 -4.06599e-05 0.000157693
0.00232124 -1.77526e-05 -7.45975e-06
-1.77526e-05 -0.00253181 -2.48756e-06
-7.45975e-06 -2.48756e-06 -0.00086527
0.00310627 -0.000565839 -2.18301e-05
-0.000565839 0.000506109 4.95965e-05
-2.18301e-05 4.95965e-05 -0.000316582
-0.00131586 -0.000291932 4.52574e-05
-0.000291932 -0.00105189 2.68747e-06
4.52574e-05 2.68747e-06 -0.00315109
0.00493421 0.000563964 4.04014e-05
0.000563964 0.00249817 -2.6037e-05
4.04014e-05 -2.6037e-05 0.00156187
0.0048914 -0.000707306 -1.82889e-05
-0.000707306 0.00111944 3.78527e-06
-1.82889e-05 3.78527e-06 0.000413203
0.00110647 -0.000254771 4.11875e-05
-0.000254771 0.000310634 -1.52398e-05
4.11875e-05 -1.52398e-05 -0.0019538
0.00350933 -2.62708e-05 -2.51298e-05
-2.62708e-05 0.001482 2.37189e-06
-2.51298e-05 2.37189e-06 0.00101469
0.00551661 -0.000378941 -1.32696e-05
-0.000378941 0.000496307 -1.9565e-05
-1.32696e-05 -1.9565e-05 0.00159701
0.00240313 -0.000162775 -2.58787e-05
-0.000162775 -0.000140987 1.62821e-05
-2.58787e-05 1.62821e-05 -7.42414e-05
0.0006362 -1.3608e-05 3.49058e-05
-1.3608e-05 -0.000359962 -6.20913e-05
3.49058e-05 -6.20913e-05 -0.00222956
-0.00453092 -0.00045138 3.79231e-05
-0.00045138 -0.00346421 -8.0055e-06
3.79231e-05 -8.0055e-06 -0.00421402
0.00109233 -0.000405193 2.18801e-05
-0.000405193 -0.00166968 -4.12804e-05
2.18801e-05 -4.12804e-05 -0.000496315
0.000886201 -3.74123e-05 -3.8679e-07
-3.74123e-05 0.000104781 1.99174e-06
-3.8679e-07 1.99174e-06 2.86253e-05
0.000805022 1.0863e-05 1.83588e-07
1.0863e-05 6.02589e-05 5.02369e-08
1.83588e-07 5.02369e-08 -2.99934e-05
0.000799842 1.56819e-06 -5.56221e-07
1.56819e-06 7.3845e-05 -1.27711e-06
-5.56221e-07 -1.27711e-06 -2.74337e-05
0.000848717 2.53408e-05 -8.53897e-08
2.53408e-05 8.99429e-05 -1.42891e-06
-8.53897e-08 -1.42891e-06 2.92819e-07
0.00143702 -0.000283671 8.96028e-08
-0.000283671 0.000186561 1.74647e-05
8.96028e-08 1.74647e-05 0.0001339
0.000258052 -1.7874e-05 6.24809e-07
-1.7874e-05 5.48989e-05 -1.17323e-05
6.24809e-07 -1.17323e-05 -4.34684e-05
0.000765574 -2.14155e-05 -3.37174e-07
-2.14155e-05 2.32284e-05 -2.04576e-06
-3.37174e-07 -2.04576e-06 -6.04195e-05
0.000955003 7.54904e-05 -1.05054e-06
7.54904e-05 0.000160017 -1.86082e-06
-1.05054e-06 -1.86082e-06 6.75172e-05
0.00144178 -1.78459e-05 6.86085e-06
-1.78459e-05 0.000436328 -1.2172e-05
6.86085e-06 -1.2172e-05 0.000350823
0.000831637 4.11542e-06 -5.92553e-07
4.11542e-06 7.54819e-05 -4.82899e-08
-5.92553e-07 -4.82899e-08 -3.32718e-06
0.000719287 3.65952e-06 -1.92771e-07
3.65952e-06 4.50965e-05 -8.10727e-07
-1.92771e-07 -8.10727e-07 -2.38618e-05
-0.000664471 -2.84235e-05 -1.51709e-05
-2.84235e-05 -0.0003395 -9.77647e-06
-1.51709e-05 -9.77647e-06 -0.00067137
0.000856781 -2.59842e-05 3.61816e-06
-2.59842e-05 0.000351008 1.11756e-06
3.61816e-06 1.11756e-06 0.000316668
0.000723782 -3.03799e-06 3.42998e-06
-3.03799e-06 5.0555e-05 7.70825e-07
3.42998e-06 7.70825e-07 -1.98922e-05
0.000749601 5.10485e-06 -1.45578e-05
5.10485e-06 0.000874178 -5.17828e-05
-1.45578e-05 -5.17828e-05 -3.415e-05
0.0018985 -7.10607e-06 1.95593e-06
-7.10607e-06 0.000862305 1.44371e-05
1.95593e-06 1.44371e-05 0.000794384
0.00143756 -1.35459e-05 1.51592e-05
-1.35459e-05 0.000258873 5.88671e-07
1.51592e-05 5.88671e-07 0.000132603
0.00109161 -8.40288e-06 -3.17183e-07
-8.40288e-06 5.52015e-05 -1.11685e-07
-3.17183e-07 -1.11685e-07 -6.31757e-06
0.00087646 -6.691e-06 2.88883e-06
-6.691e-06 -1.714e-05 -1.61785e-06
2.88883e-06 -1.61785e-06 -0.00011135
0.000555188 6.30568e-05 8.94523e-06
6.30568e-05 0.000259029 8.34616e-06
8.94523e-06 8.34616e-06 0.000176097
0.0014466 0.000186277 -5.32702e-05
0.000186277 -2.22393e-06 1.92777e-05
-5.32702e-05 1.92777e-05 4.78127e-06
0.00109328 -6.64423e-06 5.31479e-06
-6.64423e-06 1.67251e-05 4.12129e-06
5.31479e-06 4.12129e-06 -9.51102e-05
0.00332183 -0.000270823 0.000121896
-0.000270823 0.0018977 -0.000121231
0.000121896 -0.000121231 -0.000819372
0.00544817 0.000614044 -3.45168e-05
0.000614044 0.00241991 2.49798e-05
-3.45168e-05 2.49798e-05 0.00162129
0.00230776 9.72729e-06 -1.30396e-05
9.72729e-06 0.000638371 4.12873e-05
-1.30396e-05 4.12873e-05 0.000150209
0.00332757 0.000569511 -2.67283e-05
0.000569511 -0.000408105 9.83782e-06
-2.67283e-05 9.83782e-06 0.0005336
-0.00048497 -1.21901e-05 1.66441e-05
-1.21901e-05 -2.73256e-05 1.16503e-07
1.66441e-05 1.16503e-07 -0.000295435
0.00132423 1.50569e-05 4.73437e-06
1.50569e-05 0.000164139 -7.84122e-07
4.73437e-06 -7.84122e-07 -5.35687e-06
0.00242094 2.23105e-06 2.28953e-05
2.23105e-06 0.000342241 -3.22871e-06
2.28953e-05 -3.22871e-06 -0.000324163
0.00138372 -9.39477e-05 -1.3448e-05
-9.39477e-05 -0.000590952 2.57167e-05
-1.3448e-05 2.57167e-05 -0.000290739
-0.000824858 0.000767545 1.78266e-05
0.000767545 -0.00112923 -5.45788e-06
1.78266e-05 -5.45788e-06 0.000255785
0.00520366 0.000587757 -5.1867e-06
0.000587757 0.000601206 2.24477e-05
-5.1867e-06 2.24477e-05 0.000815706
-4.19335e-07 -0.000391585 4.83811e-05
-0.000391585 -2.71342e-05 -2.89618e-05
4.83811e-05 -2.89618e-05 -0.00294367
0.000848574 -3.34449e-05 4.56301e-05
-3.34449e-05 0.000346445 -8.59467e-06
4.56301e-05 -8.59467e-06 0.000294844
0.00109093 -3.29888e-06 4.85294e-05
-3.29888e-06 -0.000119477 -2.09064e-05
4.85294e-05 -2.09064e-05 -0.000557105
-0.00130981 0.000242384 -3.66529e-05
0.000242384 -0.000221816 -1.65876e-05
-3.66529e-05 -1.65876e-05 -0.000411928
0.000122244 0.000587275 -1.22347e-05
0.000587275 -0.000315407 5.30615e-05
-1.22347e-05 5.30615e-05 4.84158e-05
0.00756547 0.000167785 1.93479e-05
0.000167785 0.00322108 -3.26525e-05
1.93479e-05 -3.26525e-05 0.000919272
0.00282153 -0.000308125 -6.95772e-05
-0.000308125 0.000218924 7.86867e-05
-6.95772e-05 7.86867e-05 -7.25564e-05
-7.57589e-05 -2.32035e-05 -5.12312e-06
-2.32035e-05 -0.0001141 9.91377e-06
-5.12312e-06 9.91377e-06 -0.000211763
0.000210995 -5.16463e-05 5.03465e-07
-5.16463e-05 0.000141183 -4.69881e-07
5.03465e-07 -4.69881e-07 -2.41539e-05
0.00101201 -0.000164599 1.90149e-05
-0.000164599 0.000339457 -8.56551e-06
1.90149e-05 -8.56551e-06 0.000212465
0.000721813 2.20725e-05 -4.23103e-06
2.20725e-05 0.00017765 3.58943e-06
-4.23103e-06 3.58943e-06 8.68434e-05
-0.000111339 -7.88043e-05 1.02385e-06
-7.88043e-05 -0.000185345 -2.75104e-06
1.02385e-06 -2.75104e-06 -0.000413126
0.00150177 -0.000228913 1.54822e-05
-0.000228913 0.000387551 -7.02476e-07
1.54822e-05 -7.02476e-07 0.000166883
0.00216021 -0.000229867 -4.34618e-06
-0.000229867 0.000844631 1.34349e-06
-4.34618e-06 1.34349e-06 0.000662833
0.00151215 -0.000197842 1.16913e-06
-0.000197842 0.000491506 1.10413e-06
1.16913e-06 1.10413e-06 0.000227683
0.0008845 -0.000202362 3.5352e-06
-0.000202362 -3.32887e-05 -3.58566e-06
3.5352e-06 -3.58566e-06 -0.000273057
0.00112678 -0.00016064 -3.6302e-06
-0.00016064 0.000240896 2.45174e-07
-3.6302e-06 2.45174e-07 3.95436e-05
0.00182271 -0.000235959 1.3243e-06
-0.000235959 0.000517135 1.31062e-07
1.3243e-06 1.31062e-07 0.000281261
0.00123512 -0.000219439 1.37366e-06
-0.000219439 4.27021e-05 -3.90403e-06
1.37366e-06 -3.90403e-06 -0.000170912
0.00161761 -0.000227333 7.58409e-07
-0.000227333 0.000178364 -1.92768e-06
7.58409e-07 -1.92768e-06 9.54942e-06
0.00212821 -0.000246858 -4.64639e-06
-0.000246858 0.000634893 4.62945e-06
-4.64639e-06 4.62945e-06 0.000433643
0.00157629 -0.000223476 -1.34115e-06
-0.000223476 0.000289396 -3.04413e-07
-1.34115e-06 -3.04413e-07 7.7298e-05
0.000589877 -0.000123695 2.45078e-06
-0.000123695 -8.6202e-05 -2.38696e-07
2.45078e-06 -2.38696e-07 -0.000234165
0.000913586 -0.000146059 1.75369e-06
-0.000146059 8.25967e-05 -2.90038e-07
1.75369e-06 -2.90038e-07 -8.22565e-05
0.00125306 -0.000177446 -1.05921e-06
-0.000177446 0.000240175 -1.46768e-06
-1.05921e-06 -1.46768e-06 4.68699e-05
0.00106014 -0.000138707 1.04509e-06
-0.000138707 0.000216038 1.86937e-08
1.04509e-06 1.86937e-08 7.83149e-05
0.00112583 -0.000147708 -7.73229e-07
-0.000147708 0.000251551 -9.34056e-07
-7.73229e-07 -9.34056e-07 0.000107387
0.000792372 -0.000125697 2.48853e-06
-0.000125697 6.80941e-05 -1.91678e-06
2.48853e-06 -1.91678e-06 -7.22465e-05
0.000734266 1.27112e-05 1.20172e-06
1.27112e-05 4.16984e-05 1.22342e-06
1.20172e-06 1.22342e-06 -5.55096e-05
0.000779034 -5.0535e-05 2.8113e-08
-5.0535e-05 7.80489e-05 7.10011e-07
2.8113e-08 7.10011e-07 -3.6531e-05
0.00120561 -0.000126698 1.41481e-06
-0.000126698 0.000320621 -1.11455e-06
1.41481e-06 -1.11455e-06 0.000186056
0.000688595 6.94801e-05 1.65901e-07
6.94801e-05 8.63036e-06 2.01075e-06
1.65901e-07 2.01075e-06 -4.64266e-05
0.000774834 2.20275e-05 -2.9325e-07
2.20275e-05 5.67893e-05 -1.65689e-07
-2.9325e-07 -1.65689e-07 -2.3415e-05
0.000893975 -4.2758e-05 -8.49207e-08
-4.2758e-05 0.00013082 -5.74032e-07
-8.49207e-08 -5.74032e-07 3.10789e-05
0.000644885 4.84417e-05 -2.39731e-06
4.84417e-05 -2.60698e-05 4.64674e-06
-2.39731e-06 4.64674e-06 -4.09457e-05
0.000711944 5.57636e-05 -1.81173e-07
5.57636e-05 1.04688e-05 -1.68476e-07
-1.81173e-07 -1.68476e-07 -3.44056e-05
0.000799514 3.91112e-06 2.07958e-07
3.91112e-06 5.80432e-05 -1.20352e-06
2.07958e-07 -1.20352e-06 -7.41095e-06
0.000732369 4.57528e-05 8.45821e-07
4.57528e-05 1.22697e-05 -1.61705e-06
8.45821e-07 -1.61705e-06 -2.76255e-05
0.000667904 4.42417e-05 1.99109e-08
4.42417e-05 -2.23961e-05 -1.20467e-08
1.99109e-08 -1.20467e-08 -3.46945e-05
0.00209628 6.29311e-05 -2.45497e-05
6.29311e-05 0.000782019 3.27184e-06
-2.45497e-05 3.27184e-06 0.00079507
0.000686786 3.91939e-05 1.16776e-06
3.91939e-05 -2.07201e-05 -3.30862e-06
1.16776e-06 -3.30862e-06 -3.08029e-05
0.0021083 5.54422e-05 1.57189e-06
5.54422e-05 0.000781231 1.05558e-07
1.57189e-06 1.05558e-07 0.000796081
0.0021237 4.76363e-05 1.92719e-05
4.76363e-05 0.000783105 -3.66287e-06
1.92719e-05 -3.66287e-06 0.000799502
0.000821922 9.32924e-06 3.35325e-08
9.32924e-06 7.29223e-05 -5.43632e-07
3.35325e-08 -5.43632e-07 -6.03684e-06
0.000807772 3.95525e-05 -1.00468e-06
3.95525e-05 5.96929e-05 -8.64549e-07
-1.00468e-06 -8.64549e-07 -1.13731e-05
0.000729434 -2.32662e-05 -7.73808e-07
-2.32662e-05 -1.24969e-06 -1.73585e-06
-7.73808e-07 -1.73585e-06 -4.37419e-05
0.000797112 3.14963e-05 -5.61347e-08
3.14963e-05 4.7279e-05 -1.62163e-08
-5.61347e-08 -1.62163e-08 -1.79765e-05
0.000674257 -3.17762e-05 -3.78448e-07
-3.17762e-05 -3.54989e-05 -3.6785e-06
-3.78448e-07 -3.6785e-06 -4.65169e-05
0.000737687 -1.63092e-05 -1.27142e-07
-1.63092e-05 2.50706e-06 -9.75925e-09
-1.27142e-07 -9.75925e-09 -3.79179e-05
0.000765853 2.1517e-05 -1.55507e-07
2.1517e-05 2.76848e-05 -1.7348e-08
-1.55507e-07 -1.7348e-08 -3.39007e-05
0.00221973 -3.92178e-05 -1.66568e-05
-3.92178e-05 0.00082914 -4.18761e-06
-1.66568e-05 -4.18761e-06 0.00084637
0.000685357 -2.52911e-05 -1.65201e-07
-2.52911e-05 -3.50057e-05 -1.26576e-08
-1.65201e-07 -1.26576e-08 -4.33775e-05
0.000728964 -1.32053e-05 -1.18247e-07
-1.32053e-05 -3.30116e-06 1.04503e-06
-1.18247e-07 1.04503e-06 -4.14956e-05
0.00214886 -2.89169e-05 -2.63853e-06
-2.89169e-05 0.000784319 7.68756e-08
-2.63853e-06 7.68756e-08 0.000803444
0.000691737 -1.87173e-05 2.65783e-07
-1.87173e-05 -3.59596e-05 3.45906e-06
2.65783e-07 3.45906e-06 -4.19723e-05
0.0020931 -1.84497e-05 8.09823e-06
-1.84497e-05 0.00074925 4.41541e-06
8.09823e-06 4.41541e-06 0.000769841
0.00119326 -3.63682e-05 1.27278e-05
-3.63682e-05 0.000127365 1.97152e-05
1.27278e-05 1.97152e-05 -7.33542e-05
0.00121343 -4.75042e-06 -3.81895e-06
-4.75042e-06 8.75668e-05 7.2801e-06
-3.81895e-06 7.2801e-06 -6.14214e-05
0.00132886 1.36919e-05 7.48094e-06
1.36919e-05 0.000171592 -1.1483e-05
7.48094e-06 -1.1483e-05 -1.34886e-05
0.00079414 2.80905e-06 -2.40777e-07
2.80905e-06 5.35902e-05 -6.38147e-08
-2.40777e-07 -6.38147e-08 -2.32156e-05
0.000812127 -1.92813e-05 -1.90092e-07
-1.92813e-05 6.62332e-05 2.4733e-07
-1.90092e-07 2.4733e-07 -1.25719e-05
0.000769139 -2.51981e-05 -8.50049e-08
-2.51981e-05 4.49322e-05 -1.6665e-06
-8.50049e-08 -1.6665e-06 -3.84002e-05
0.000706523 -3.42691e-05 -8.45807e-08
-3.42691e-05 6.90742e-06 -6.68333e-07
-8.45807e-08 -6.68333e-07 -7.07048e-05
0.000964707 4.96749e-05 -7.61198e-07
4.96749e-05 0.000161323 -2.53994e-07
-7.61198e-07 -2.53994e-07 7.15804e-05
0.00076442 -3.05054e-05 -7.87521e-08
-3.05054e-05 2.83193e-05 -2.37381e-07
-7.87521e-08 -2.37381e-07 -4.29328e-05
0.000761738 -1.08159e-05 4.40268e-07
-1.08159e-05 3.55201e-05 -9.51361e-07
4.40268e-07 -9.51361e-07 -4.5954e-05
0.000833301 1.11301e-05 -1.05306e-07
1.11301e-05 7.86639e-05 -4.64966e-08
-1.05306e-07 -4.64966e-08 -1.56215e-06
0.000887016 3.68147e-05 -3.28627e-08
3.68147e-05 0.000108134 1.82927e-07
-3.28627e-08 1.82927e-07 2.12187e-05
0.000950344 1.34168e-05 -1.89334e-08
1.34168e-05 0.000154114 6.86946e-07
-1.89334e-08 6.86946e-07 6.88621e-05
0.00187169 -1.17598e-05 6.63367e-05
-1.17598e-05 0.000338487 7.70875e-05
6.63367e-05 7.70875e-05 -0.000371475
0.00153031 1.59038e-05 4.1093e-06
1.59038e-05 0.000197714 1.83739e-05
4.1093e-06 1.83739e-05 -0.000439643
0.00221427 2.22588e-05 -5.64156e-06
2.22588e-05 0.000592865 -1.7211e-05
-5.64156e-06 -1.7211e-05 0.000225838
0.00535223 -0.000346056 -2.77622e-05
-0.000346056 0.000589873 -5.03498e-05
-2.77622e-05 -5.03498e-05 0.00172247
-0.00743633 0.000230091 -3.09879e-05
0.000230091 -0.00326253 4.01201e-05
-3.09879e-05 4.01201e-05 -0.00410215
0.00394548 -0.00064011 -5.94399e-05
-0.00064011 0.000886975 5.2415e-05
-5.94399e-05 5.2415e-05 0.000143392
0.00689738 -0.000163058 -7.17677e-06
-0.000163058 0.00222407 -4.79951e-05
-7.17677e-06 -4.79951e-05 0.000416705
0.00359604 -0.000279376 -4.0453e-05
-0.000279376 0.000462871 4.25429e-05
-4.0453e-05 4.25429e-05 0.000179966
0.00959977 -0.000206484 5.85117e-05
-0.000206484 0.0040397 -1.3584e-05
5.85117e-05 -1.3584e-05 0.0017147
0.000403608 -0.000281293 2.30901e-05
-0.000281293 -0.000782026 2.78459e-06
2.30901e-05 2.78459e-06 -0.00111786
0.00104925 -0.000463156 -3.21706e-05
-0.000463156 -0.00180308 -7.49586e-05
-3.21706e-05 -7.49586e-05 -0.000588315
0.00461794 2.36902e-05 -0.000108798
2.36902e-05 0.000930432 -1.91847e-05
-0.000108798 -1.91847e-05 0.000682587
0.00798699 -0.000204667 -1.70531e-05
-0.000204667 0.0027327 4.5736e-05
-1.70531e-05 4.5736e-05 0.00109749
0.00759927 -0.00094522 3.92518e-07
-0.00094522 0.0020949 -2.83441e-05
3.92518e-07 -2.83441e-05 0.00220442
0.00320972 -0.000721668 1.75823e-05
-0.000721668 0.00029048 1.41685e-06
1.75823e-05 1.41685e-06 0.00167331
0.000631695 2.17155e-05 2.56226e-06
2.17155e-05 9.77326e-06 1.65114e-06
2.56226e-06 1.65114e-06 -5.51804e-05
0.000918645 -3.21769e-05 -7.09795e-08
-3.21769e-05 0.000127562 6.15374e-07
-7.09795e-08 6.15374e-07 4.9351e-05
0.000809017 1.06246e-05 -1.45707e-07
1.06246e-05 6.02244e-05 -1.31144e-06
-1.45707e-07 -1.31144e-06 -2.84418e-05
0.00016572 1.08938e-05 -2.37731e-05
1.08938e-05 4.0312e-05 1.76918e-05
-2.37731e-05 1.76918e-05 -0.000322932
0.00119105 -6.40748e-05 -2.65265e-05
-6.40748e-05 0.000545746 -8.43738e-06
-2.65265e-05 -8.43738e-06 0.000522295
0.000761499 -1.41911e-05 -1.32796e-06
-1.41911e-05 3.83287e-05 -7.86814e-07
-1.32796e-06 -7.86814e-07 -4.23354e-05
0.000580819 -3.96161e-05 -6.05657e-07
-3.96161e-05 -3.07776e-05 -5.67282e-06
-6.05657e-07 -5.67282e-06 -9.65597e-05
0.000779737 2.46752e-06 -3.88686e-07
2.46752e-06 8.45259e-05 -1.50269e-06
-3.88686e-07 -1.50269e-06 1.25822e-05
0.000515152 -1.36574e-05 -1.63874e-06
-1.36574e-05 0.000127394 3.9614e-06
-1.63874e-06 3.9614e-06 5.84091e-05
0.000125587 -1.68154e-05 4.1858e-05
-1.68154e-05 0.000567486 -3.4173e-05
4.1858e-05 -3.4173e-05 -0.000318228
-0.000594237 -1.27004e-05 -6.21879e-06
-1.27004e-05 -0.000487717 8.3396e-06
-6.21879e-06 8.3396e-06 -0.000567665
0.00111327 0.000119877 -4.67447e-06
0.000119877 0.000522052 -3.16917e-05
-4.67447e-06 -3.16917e-05 1.03586e-05
0.00134709 -6.51327e-06 4.93052e-05
-6.51327e-06 7.25242e-05 6.71808e-06
4.93052e-05 6.71808e-06 -0.00034062
0.00114366 -1.02938e-05 7.30452e-06
-1.02938e-05 0.000109653 1.78973e-06
7.30452e-06 1.78973e-06 -1.36428e-06
0.000603679 -7.54969e-06 4.88605e-07
-7.54969e-06 -0.000193999 -3.60069e-07
4.88605e-07 -3.60069e-07 -0.000242625
-0.0015228 -4.15077e-05 -3.73667e-05
-4.15077e-05 -0.000468453 1.22086e-05
-3.73667e-05 1.22086e-05 -0.000809764
0.00247674 4.00038e-05 3.53659e-06
4.00038e-05 -0.000132617 -4.08641e-05
3.53659e-06 -4.08641e-05 -0.000228808
0.0013682 9.91907e-06 -5.12014e-06
9.91907e-06 0.00018332 1.10561e-05
-5.12014e-06 1.10561e-05 1.26831e-05
0.0123747 -0.000314606 9.41503e-05
-0.000314606 0.00528607 -9.41631e-06
9.41503e-05 -9.41631e-06 0.00288352
0.00484094 0.000675858 -4.43733e-05
0.000675858 0.00113396 3.88463e-06
-4.43733e-05 3.88463e-06 0.0010739
0.00256143 -1.28724e-05 -4.30521e-05
-1.28724e-05 0.000471001 5.16104e-05
-4.30521e-05 5.16104e-05 -0.000255028
-0.0039248 0.000823143 6.97342e-05
0.000823143 -0.00305248 -8.19148e-05
6.97342e-05 -8.19148e-05 -0.00129856
0.000517487 -3.21536e-05 -7.91351e-06
-3.21536e-05 0.000204953 -1.39029e-06
-7.91351e-06 -1.39029e-06 0.00012344
0.00145731 2.03682e-06 -8.26075e-06
2.03682e-06 0.000102487 2.57538e-06
-8.26075e-06 2.57538e-06 -0.000333158
-0.00169999 0.000277476 -8.09767e-05
0.000277476 -0.000256737 3.35846e-05
-8.09767e-05 3.35846e-05 -0.000360864
0.00193454 -0.000296232 -2.37187e-05
-0.000296232 -0.000191159 2.9782e-05
-2.37187e-05 2.9782e-05 -0.000377382
0.00611618 0.000962674 1.88309e-05
0.000962674 0.00207029 2.25651e-05
1.88309e-05 2.25651e-05 0.00246034
0.00702971 -0.000194558 5.07021e-05
-0.000194558 0.00259585 -2.92358e-05
5.07021e-05 -2.92358e-05 0.000521435
0.00167554 -0.000201662 1.83903e-05
-0.000201662 0.000297694 1.76611e-05
1.83903e-05 1.76611e-05 0.000457573
-0.00168284 3.46729e-05 3.83819e-05
3.46729e-05 6.37007e-05 -8.41077e-06
3.83819e-05 -8.41077e-06 -0.00056584
0.00284251 0.000661433 -5.67624e-05
0.000661433 0.00144391 2.29671e-05
-5.67624e-05 2.29671e-05 0.00155452
0.0045483 0.00017796 -8.28468e-05
0.00017796 0.00150807 6.39218e-05
-8.28468e-05 6.39218e-05 -0.000602851
0.00263202 -0.000589364 2.20693e-05
-0.000589364 0.000165186 3.83541e-06
2.20693e-05 3.83541e-06 -0.000415099
0.000900494 -4.03634e-06 7.8718e-06
-4.03634e-06 0.000507119 1.03832e-05
7.8718e-06 1.03832e-05 0.000357156
0.000564188 -0.000145433 -1.8677e-06
-0.000145433 0.000123399 4.43906e-07
-1.8677e-06 4.43906e-07 -2.62554e-05
0.00254479 -0.000275643 1.98035e-05
-0.000275643 0.000734333 1.46217e-06
1.98035e-05 1.46217e-06 0.000704142
-0.0012226 -1.40349e-05 -4.62702e-06
-1.40349e-05 -0.000747228 6.15238e-06
-4.62702e-06 6.15238e-06 -0.00098081
0.000741126 -0.000173161 4.42717e-06
-0.000173161 2.54477e-05 -6.61447e-07
4.42717e-06 -6.61447e-07 -0.00019829
0.000805984 -0.000233943 3.67989e-06
-0.000233943 -0.000241607 -1.55453e-06
3.67989e-06 -1.55453e-06 -0.000406738
0.00193616 -0.000220733 -5.39778e-06
-0.000220733 0.000690959 1.56342e-06
-5.39778e-06 1.56342e-06 0.000435967
0.00120832 -0.000218948 -2.34574e-06
-0.000218948 0.000130091 -2.25019e-06
-2.34574e-06 -2.25019e-06 -0.000100455
0.00157365 -0.000268453 4.9988e-06
-0.000268453 0.000110204 -1.70025e-06
4.9988e-06 -1.70025e-06 -5.09201e-05
0.0018097 -0.000233388 -2.45972e-06
-0.000233388 0.000502751 -8.47211e-07
-2.45972e-06 -8.47211e-07 0.00026697
0.00151788 -0.000234201 -5.21524e-07
-0.000234201 0.000187715 -2.04503e-06
-5.21524e-07 -2.04503e-06 -2.07764e-05
0.00154394 -0.000227655 6.94278e-07
-0.000227655 5.25762e-05 -2.57228e-06
6.94278e-07 -2.57228e-06 -9.69924e-05
0.00161759 -0.000195772 6.22151e-07
-0.000195772 0.00011114 -1.52759e-06
6.22151e-07 -1.52759e-06 -2.73445e-05
0.00156947 -0.000216045 2.02642e-08
-0.000216045 0.00023059 -1.1944e-06
2.02642e-08 -1.1944e-06 4.39563e-05
0.00149797 -0.000218439 1.55477e-06
-0.000218439 0.000118566 1.28111e-07
1.55477e-06 1.28111e-07 -4.89669e-05
0.00147289 -0.000193615 -1.565e-06
-0.000193615 0.00031693 4.16538e-06
-1.565e-06 4.16538e-06 0.000140445
0.00143405 -0.000203314 5.0671e-08
-0.000203314 0.000265693 3.55051e-07
5.0671e-08 3.55051e-07 6.26949e-05
0.00137476 -0.000211338 -5.25199e-07
-0.000211338 0.000179269 -1.56835e-06
-5.25199e-07 -1.56835e-06 -3.69818e-05
0.000964791 -0.000141837 1.15951e-06
-0.000141837 0.000124217 -1.23775e-06
1.15951e-06 -1.23775e-06 -1.51067e-05
0.00068507 -0.000128565 -2.43102e-07
-0.000128565 -3.10446e-05 -1.66065e-06
-2.43102e-07 -1.66065e-06 -0.000175426
0.00119593 -0.000163762 4.01935e-06
-0.000163762 0.000235277 -4.27934e-06
4.01935e-06 -4.27934e-06 7.52425e-05
0.000834961 -7.53638e-05 3.73073e-07
-7.53638e-05 8.43932e-05 1.1372e-06
3.73073e-07 1.1372e-06 -2.96067e-05
0.000906069 -0.000119472 3.33442e-07
-0.000119472 0.000132328 4.75784e-07
3.33442e-07 4.75784e-07 -2.47988e-06
0.000905333 -0.000131423 -7.30345e-07
-0.000131423 0.000133088 9.55728e-07
-7.30345e-07 9.55728e-07 -1.05547e-05
0.000683396 8.16575e-05 1.29924e-06
8.16575e-05 1.38307e-05 2.91878e-06
1.29924e-06 2.91878e-06 -5.67102e-05
0.000815041 -8.7908e-06 8.29673e-08
-8.7908e-06 8.79632e-05 -1.00484e-07
8.29673e-08 -1.00484e-07 -1.23509e-05
0.000867514 -6.60774e-05 -1.01087e-06
-6.60774e-05 0.000127986 1.49348e-07
-1.01087e-06 1.49348e-07 1.38134e-05
0.00130289 6.70372e-05 -1.37195e-05
6.70372e-05 0.000352494 2.96454e-06
-1.37195e-05 2.96454e-06 0.000336238
0.000692748 5.31033e-05 -3.24986e-07
5.31033e-05 7.4736e-06 -3.64123e-07
-3.24986e-07 -3.64123e-07 -4.56942e-05
0.00079732 -1.06645e-05 1.67588e-07
-1.06645e-05 7.0129e-05 -1.38325e-06
1.67588e-07 -1.38325e-06 -1.19277e-05
0.000794922 3.91286e-05 -2.34017e-05
3.91286e-05 6.4151e-05 3.22692e-06
-2.34017e-05 3.22692e-06 6.94749e-05
0.00101174 5.67122e-05 -6.44139e-06
5.67122e-05 0.000179163 2.75747e-07
-6.44139e-06 2.75747e-07 0.00016535
0.000713372 5.48932e-05 5.94838e-08
5.48932e-05 1.14602e-05 -1.92234e-06
5.94838e-08 -1.92234e-06 -3.34985e-05
0.000689417 4.56012e-05 1.19423e-06
4.56012e-05 -1.05488e-05 -3.32277e-06
1.19423e-06 -3.32277e-06 -2.29954e-05
0.00212124 6.39065e-05 1.30802e-06
6.39065e-05 0.000797021 1.08898e-07
1.30802e-06 1.08898e-07 0.000809744
0.00212207 5.62071e-05 2.2538e-05
5.62071e-05 0.000789981 -3.40165e-06
2.2538e-05 -3.40165e-06 0.000804596
0.00075028 -1.67858e-05 2.66955e-07
-1.67858e-05 3.15675e-05 -1.1022e-06
2.66955e-07 -1.1022e-06 -4.90876e-05
0.000807883 2.09765e-05 -4.73313e-07
2.09765e-05 5.96877e-05 -1.37062e-06
-4.73313e-07 -1.37062e-06 -1.22633e-05
0.000799428 -1.69283e-05 1.11166e-07
-1.69283e-05 5.82482e-05 -6.06679e-08
1.11166e-07 -6.06679e-08 -1.91772e-05
0.000730757 -3.48477e-05 -8.571e-07
-3.48477e-05 3.61509e-06 -1.98687e-06
-8.571e-07 -1.98687e-06 -4.11656e-05
0.000800873 9.67533e-06 6.96376e-07
9.67533e-06 5.08709e-05 -6.05062e-08
6.96376e-07 -6.05062e-08 -1.62012e-05
0.000662938 -3.74641e-05 -5.65174e-07
-3.74641e-05 -3.56352e-05 -3.81923e-06
-5.65174e-07 -3.81923e-06 -4.91278e-05
0.000733195 -2.00001e-05 -1.64281e-07
-2.00001e-05 1.54446e-06 7.27564e-09
-1.64281e-07 7.27564e-09 -4.10475e-05
0.000814871 4.61764e-05 1.04282e-06
4.61764e-05 6.44964e-05 5.96698e-07
1.04282e-06 5.96698e-07 -5.79507e-06
0.00227973 -4.84293e-05 -2.11879e-05
-4.84293e-05 0.000868191 -4.02657e-06
-2.11879e-05 -4.02657e-06 0.000883578
0.000673363 -3.1185e-05 -2.92644e-07
-3.1185e-05 -3.60676e-05 -3.53317e-09
-2.92644e-07 -3.53317e-09 -4.69952e-05
0.000748672 -1.67987e-05 3.13702e-07
-1.67987e-05 9.16034e-06 1.74309e-06
3.13702e-07 1.74309e-06 -3.14203e-05
0.00220247 -3.85476e-05 -2.44832e-06
-3.85476e-05 0.000818896 9.9259e-08
-2.44832e-06 9.9259e-08 0.000836376
0.00068257 -2.4807e-05 2.8614e-07
-2.4807e-05 -3.6617e-05 3.53512e-06
2.8614e-07 3.53512e-06 -4.49001e-05
0.00213358 -2.8119e-05 1.1828e-05
-2.8119e-05 0.000775226 4.32935e-06
1.1828e-05 4.32935e-06 0.000794587
0.00202735 -4.77562e-05 5.09404e-05
-4.77562e-05 0.000441906 2.81289e-05
5.09404e-05 2.81289e-05 6.9276e-05
0.00122962 -3.22605e-05 5.18371e-07
-3.22605e-05 0.000140905 6.28695e-06
5.18371e-07 6.28695e-06 -5.10949e-05
0.00105458 -7.34346e-06 -3.91498e-06
-7.34346e-06 1.29863e-05 -4.82867e-06
-3.91498e-06 -4.82867e-06 -0.000117309
0.000885979 5.19927e-05 -1.2029e-06
5.19927e-05 0.000120682 -5.14019e-07
-1.2029e-06 -5.14019e-07 2.82007e-05
0.000861882 -6.25573e-07 1.26773e-07
-6.25573e-07 9.06167e-05 1.0338e-07
1.26773e-07 1.0338e-07 1.44223e-05
0.00078482 -2.88514e-05 4.15889e-08
-2.88514e-05 5.10188e-05 4.99122e-07
4.15889e-08 4.99122e-07 -2.822e-05
0.000847128 -2.34977e-05 9.99095e-08
-2.34977e-05 8.17445e-05 -1.30008e-07
9.99095e-08 -1.30008e-07 5.44567e-06
0.000871402 5.22959e-06 1.48742e-07
5.22959e-06 0.000101716 -3.48269e-07
1.48742e-07 -3.48269e-07 1.71866e-05
0.000857131 3.2018e-05 1.79092e-07
3.2018e-05 0.00010016 6.52712e-07
1.79092e-07 6.52712e-07 1.17801e-05
0.000879105 2.223e-05 -3.0967e-07
2.223e-05 0.00011316 -1.70629e-06
-3.0967e-07 -1.70629e-06 2.00231e-05
0.00063342 -2.48404e-05 3.73361e-07
-2.48404e-05 -2.52912e-05 -2.22337e-07
3.73361e-07 -2.22337e-07 -0.000109173
0.000827162 5.75414e-05 2.31881e-07
5.75414e-05 7.8391e-05 -4.83479e-07
2.31881e-07 -4.83479e-07 -3.93042e-06
0.000843301 -4.63777e-05 6.6343e-07
-4.63777e-05 7.30053e-05 -9.34054e-07
6.6343e-07 -9.34054e-07 -6.0707e-06
0.000854091 5.71872e-06 -1.75991e-07
5.71872e-06 9.81524e-05 1.25453e-07
-1.75991e-07 1.25453e-07 1.55696e-05
0.00135414 2.31368e-05 4.2411e-06
2.31368e-05 0.000394428 1.72131e-06
4.2411e-06 1.72131e-06 0.00031294
0.00127574 -0.000358093 6.03477e-05
-0.000358093 0.000881773 5.4568e-05
6.03477e-05 5.4568e-05 0.000849885
0.00212218 -3.23015e-06 3.57236e-06
-3.23015e-06 0.000467302 1.64413e-05
3.57236e-06 1.64413e-05 -0.000268857
0.00169717 2.29088e-05 -1.2418e-05
2.29088e-05 0.000216533 -3.13023e-05
-1.2418e-05 -3.13023e-05 -0.000427466
0.00461481 -0.000590745 -7.21684e-05
-0.000590745 7.59425e-05 -6.10122e-05
-7.21684e-05 -6.10122e-05 0.00138703
0.0039998 -0.000229852 -1.03511e-05
-0.000229852 0.000470659 1.05955e-05
-1.03511e-05 1.05955e-05 8.16671e-05
0.000819691 -0.0003434 -9.19395e-05
-0.0003434 -0.000328154 5.95189e-05
-9.19395e-05 5.95189e-05 -0.00218841
0.00295612 -0.000216552 -4.81429e-05
-0.000216552 0.000337545 9.11783e-05
-4.81429e-05 9.11783e-05 -8.68606e-05
0.00412875 -0.000200821 -5.20241e-06
-0.000200821 0.000730161 3.40263e-05
-5.20241e-06 3.40263e-05 0.000625801
-0.000483333 -0.000721306 5.2775e-06
-0.000721306 -0.00135806 1.61612e-05
5.2775e-06 1.61612e-05 0.000161972
0.00517113 0.00011326 7.25399e-06
0.00011326 0.00213813 1.99831e-05
7.25399e-06 1.99831e-05 -0.000231987
0.00106137 -0.00045941 -4.48341e-06
-0.00045941 -0.00116012 1.29223e-05
-4.48341e-06 1.29223e-05 -0.000871129
0.00240997 0.000189261 -4.3161e-05
0.000189261 7.32485e-05 -1.38905e-05
-4.3161e-05 -1.38905e-05 -0.000131116
0.00888607 -0.000377172 -3.54578e-05
-0.000377172 0.00386336 3.75579e-05
-3.54578e-05 3.75579e-05 0.0018971
-2.91191e-05 -0.00053123 -5.53691e-05
-0.00053123 -0.000385337 -4.14616e-05
-5.53691e-05 -4.14616e-05 5.25415e-05
0.000572792 0.000149306 7.60181e-07
0.000149306 -3.75828e-05 -2.56784e-06
7.60181e-07 -2.56784e-06 -0.000103513
0.00093902 3.0553e-05 4.32946e-06
3.0553e-05 0.000169784 -4.03167e-08
4.32946e-06 -4.03167e-08 0.00010629
0.000946423 -1.42261e-05 -9.53694e-07
-1.42261e-05 0.000146734 -4.9114e-07
-9.53694e-07 -4.9114e-07 6.74283e-05
-0.000899299 -1.17646e-05 -4.56532e-05
-1.17646e-05 -8.29944e-05 -1.23532e-05
-4.56532e-05 -1.23532e-05 -0.000916733
-0.000859251 3.53509e-05 4.25426e-06
3.53509e-05 -0.000618755 -6.84302e-06
4.25426e-06 -6.84302e-06 -0.000691818
0.000813489 3.45912e-05 -2.63458e-07
3.45912e-05 0.000105486 -2.46876e-06
-2.63458e-07 -2.46876e-06 3.15241e-05
0.000802419 8.69596e-05 3.02191e-06
8.69596e-05 0.000208549 1.8906e-06
3.02191e-06 1.8906e-06 0.000121072
0.000735147 0.000157373 2.89578e-06
0.000157373 0.00024988 -2.13496e-05
2.89578e-06 -2.13496e-05 -0.000151881
0.000448456 0.000221967 1.70119e-05
0.000221967 -0.000129546 5.19284e-06
1.70119e-05 5.19284e-06 -0.000291309
0.000259434 -3.75683e-06 8.9515e-05
-3.75683e-06 0.00116845 4.95529e-07
8.9515e-05 4.95529e-07 0.000546003
0.00141895 -2.10334e-05 -5.15029e-06
-2.10334e-05 0.000170785 5.99573e-06
-5.15029e-06 5.99573e-06 -0.000170808
0.000879192 -8.07661e-06 -1.65619e-06
-8.07661e-06 -1.65422e-05 1.22692e-06
-1.65619e-06 1.22692e-06 -0.000113561
0.000966071 -4.88594e-05 -2.00081e-05
-4.88594e-05 0.000445246 5.52045e-06
-2.00081e-05 5.52045e-06 0.000365062
0.00104336 -0.000218231 4.79869e-06
-0.000218231 -0.00080959 -2.34854e-05
4.79869e-06 -2.34854e-05 -0.000791743
0.0016373 6.67532e-06 -6.41083e-05
6.67532e-06 0.00022784 1.68287e-05
-6.41083e-05 1.68287e-05 -0.000210662
-0.000506613 -0.000307833 2.85829e-05
-0.000307833 -0.000834891 -3.50263e-05
2.85829e-05 -3.50263e-05 -0.0029046
-0.00274928 0.000477985 6.43856e-06
0.000477985 -0.0024294 -2.79302e-05
6.43856e-06 -2.79302e-05 -0.00191719
0.0016112 0.000391036 -7.53335e-05
0.000391036 0.00116094 5.55647e-05
-7.53335e-05 5.55647e-05 0.00138301
0.00173536 -0.000124935 -4.70295e-06
-0.000124935 0.000199229 3.23188e-06
-4.70295e-06 3.23188e-06 0.000477734
0.00136667 0.000148168 2.58587e-06
0.000148168 0.00147495 5.8363e-06
2.58587e-06 5.8363e-06 0.00118322
-0.00407943 0.000280392 2.3093e-05
0.000280392 -0.00144934 4.60743e-07
2.3093e-05 4.60743e-07 -0.00183565
0.00414587 -0.000633807 1.51557e-07
-0.000633807 0.0011302 2.20166e-06
1.51557e-07 2.20166e-06 0.000191915
0.00804367 0.000266404 1.17412e-05
0.000266404 0.00306845 -1.36117e-06
1.17412e-05 -1.36117e-06 0.00138441
0.000518982 -0.00020591 1.32504e-06
-0.00020591 -0.000337528 1.51757e-05
1.32504e-06 1.51757e-05 -0.000254948
-0.00608689 0.000144185 -6.42243e-05
0.000144185 -0.0030847 2.52566e-06
-6.42243e-05 2.52566e-06 -0.003234
0.00677339 0.00020663 -8.25465e-06
0.00020663 0.00235994 6.15941e-06
-8.25465e-06 6.15941e-06 0.000921367
0.00549287 -0.000578012 -6.287e-07
-0.000578012 0.000954871 1.73142e-05
-6.287e-07 1.73142e-05 8.2749e-05
7.181e-05 -0.000114003 -1.68652e-05
-0.000114003 -0.000101085 1.12395e-05
-1.68652e-05 1.12395e-05 -0.000286377
0.00122263 -0.000203801 -1.08277e-06
-0.000203801 4.69678e-05 6.08853e-07
-1.08277e-06 6.08853e-07 6.28723e-05
0.00203264 -0.000238161 1.28485e-05
-0.000238161 0.000213376 -2.26706e-06
1.28485e-05 -2.26706e-06 0.000262843
6.90152e-05 -0.000122669 -5.38767e-06
-0.000122669 -0.000289967 -3.52326e-07
-5.38767e-06 -3.52326e-07 -0.000519735
0.00122031 -0.000256396 -3.95717e-06
-0.000256396 -2.32583e-05 -1.40143e-06
-3.95717e-06 -1.40143e-06 -0.000191943
0.00192463 -0.000302265 2.43567e-06
-0.000302265 0.000159573 2.20623e-07
2.43567e-06 2.20623e-07 4.53686e-05
0.00160317 -0.000240236 -5.41793e-06
-0.000240236 0.0003338 -1.86242e-06
-5.41793e-06 -1.86242e-06 0.000110111
0.00156116 -0.000264346 2.19147e-06
-0.000264346 0.000114931 3.62112e-07
2.19147e-06 3.62112e-07 -4.93674e-05
0.00194545 -0.000245575 4.45473e-07
-0.000245575 0.000194171 -3.72956e-06
4.45473e-07 -3.72956e-06 7.17295e-05
0.00174814 -0.000246247 -3.69543e-06
-0.000246247 0.000304556 2.1641e-07
-3.69543e-06 2.1641e-07 0.000100507
0.00163623 -0.000231387 1.48542e-07
-0.000231387 0.00010022 7.911e-07
1.48542e-07 7.911e-07 -4.9282e-05
0.00175214 -0.000193357 4.11013e-07
-0.000193357 0.000121123 -3.50277e-06
4.11013e-07 -3.50277e-06 5.36695e-06
0.00164863 -0.00016524 -3.10328e-07
-0.00016524 0.000100169 -1.97125e-06
-3.10328e-07 -1.97125e-06 -2.04172e-05
0.00184267 -0.000207251 -2.00634e-07
-0.000207251 0.000281428 -1.49816e-06
-2.00634e-07 -1.49816e-06 0.000125499
0.00155837 -0.000191102 -1.27984e-08
-0.000191102 8.11402e-05 4.44262e-07
-1.27984e-08 4.44262e-07 -5.67782e-05
0.000942516 -0.000168127 -2.21257e-06
-0.000168127 -5.82463e-05 1.13467e-06
-2.21257e-06 1.13467e-06 -0.00023448
0.00158294 -0.000213074 2.06472e-06
-0.000213074 0.00023853 -8.1654e-07
2.06472e-06 -8.1654e-07 5.50388e-05
0.00137228 -0.000209383 1.99886e-06
-0.000209383 5.53299e-05 2.20226e-06
1.99886e-06 2.20226e-06 -0.000110927
0.0010849 -0.000158672 1.92311e-07
-0.000158672 0.000141498 1.68783e-06
1.92311e-07 1.68783e-06 -1.01372e-05
0.00101173 -0.000163426 1.43587e-06
-0.000163426 7.31798e-05 -7.58179e-07
1.43587e-06 -7.58179e-07 -0.000100618
0.00070583 -0.000157268 -2.57683e-07
-0.000157268 -0.000122155 -2.80658e-06
-2.57683e-07 -2.80658e-06 -0.000327015
0.000935221 -0.000123511 -1.49346e-06
-0.000123511 0.000106756 1.67544e-07
-1.49346e-06 1.67544e-07 -1.45551e-05
0.00105675 -0.000147258 -7.37919e-08
-0.000147258 0.000170769 -7.2774e-07
-7.37919e-08 -7.2774e-07 3.09944e-05
0.000777556 -0.000133232 -1.12477e-06
-0.000133232 2.26512e-05 -3.38416e-06
-1.12477e-06 -3.38416e-06 -0.000118634
0.000758812 -2.40056e-07 2.85426e-07
-2.40056e-07 4.43036e-05 3.20557e-06
2.85426e-07 3.20557e-06 -3.76354e-05
0.000922481 -7.5634e-05 1.00395e-06
-7.5634e-05 0.000130714 4.29037e-07
1.00395e-06 4.29037e-07 1.65484e-05
0.000756212 -9.66262e-05 -5.69056e-07
-9.66262e-05 5.08624e-05 1.19482e-06
-5.69056e-07 1.19482e-06 -8.11808e-05
0.000557289 6.40007e-05 -3.25138e-07
6.40007e-05 -5.33543e-05 4.53828e-06
-3.25138e-07 4.53828e-06 -8.09359e-05
0.000703483 2.20274e-05 -6.76303e-07
2.20274e-05 1.64951e-05 -4.08363e-07
-6.76303e-07 -4.08363e-07 -5.03076e-05
0.000893212 -3.36441e-05 -1.55965e-07
-3.36441e-05 0.000131884 -1.62415e-06
-1.55965e-07 -1.62415e-06 2.90756e-05
0.00220289 8.82348e-05 -9.5245e-06
8.82348e-05 0.000861105 1.23423e-06
-9.5245e-06 1.23423e-06 0.000866822
0.000649763 5.78786e-05 -4.5423e-08
5.78786e-05 -1.14682e-05 -9.91045e-08
-4.5423e-08 -9.91045e-08 -3.22394e-05
0.000695042 3.51244e-05 1.17819e-06
3.51244e-05 6.24448e-06 -2.27359e-06
1.17819e-06 -2.27359e-06 -4.57287e-05
0.00214709 7.1478e-05 1.36245e-06
7.1478e-05 0.000819858 1.09637e-07
1.36245e-06 1.09637e-07 0.000830397
0.000691304 5.25998e-05 1.02989e-06
5.25998e-05 5.84149e-07 -3.52194e-06
1.02989e-06 -3.52194e-06 -1.53279e-05
0.00214642 6.46449e-05 2.60182e-05
6.46449e-05 0.000812133 -3.13943e-06
2.60182e-05 -3.13943e-06 0.000824573
0.000890288 4.19199e-05 -3.53776e-07
4.19199e-05 0.000114593 -2.06698e-07
-3.53776e-07 -2.06698e-07 2.73425e-05
0.000789003 -3.65007e-06 -1.61132e-08
-3.65007e-06 5.27827e-05 -2.77013e-07
-1.61132e-08 -2.77013e-07 -2.84983e-05
0.000792461 6.16185e-06 -2.60226e-07
6.16185e-06 5.65102e-05 -1.71409e-06
-2.60226e-07 -1.71409e-06 -2.12695e-05
0.000719586 -3.93747e-05 -8.10032e-07
-3.93747e-05 3.19159e-06 -2.33449e-06
-8.10032e-07 -2.33449e-06 -4.37806e-05
0.000772309 -6.85745e-06 8.39746e-07
-6.85745e-06 4.02644e-05 -7.21954e-08
8.39746e-07 -7.21954e-08 -3.10262e-05
0.000749667 -2.84825e-06 4.78468e-07
-2.84825e-06 3.37554e-05 6.87697e-07
4.78468e-07 6.87697e-07 -4.60679e-05
0.000661416 -4.27718e-05 -1.02844e-06
-4.27718e-05 -2.99771e-05 -3.96115e-06
-1.02844e-06 -3.96115e-06 -4.55806e-05
0.00072736 -2.75684e-05 -1.8397e-07
-2.75684e-05 1.46153e-06 1.08011e-08
-1.8397e-07 1.08011e-08 -4.29301e-05
0.000777324 9.19388e-07 1.18701e-06
9.19388e-07 3.73144e-05 7.88906e-07
1.18701e-06 7.88906e-07 -2.89232e-05
0.00232199 -5.71911e-05 -2.5464e-05
-5.71911e-05 0.000898011 -3.79906e-06
-2.5464e-05 -3.79906e-06 0.000911558
0.000659177 -3.6536e-05 -2.50123e-07
-3.6536e-05 -3.78285e-05 2.02365e-08
-2.50123e-07 2.02365e-08 -5.12051e-05
0.000737904 -1.82744e-05 8.2471e-07
-1.82744e-05 4.54166e-06 1.80303e-06
8.2471e-07 1.80303e-06 -3.80616e-05
0.00226175 -4.79288e-05 -2.58696e-06
-4.79288e-05 0.00085755 1.24834e-07
-2.58696e-06 1.24834e-07 0.000873152
0.00066868 -3.05659e-05 2.6687e-07
-3.05659e-05 -3.8689e-05 3.66789e-06
2.6687e-07 3.66789e-06 -4.95259e-05
0.00218408 -3.77538e-05 1.56054e-05
-3.77538e-05 0.000807984 4.21322e-06
1.56054e-05 4.21322e-06 0.000825732
-0.0025351 -0.000108366 3.35197e-05
-0.000108366 -0.00036116 2.05325e-05
3.35197e-05 2.05325e-05 -0.00109899
0.00197533 -5.58041e-05 2.1176e-06
-5.58041e-05 0.000438198 8.07585e-06
2.1176e-06 8.07585e-06 6.80385e-05
0.00126221 -2.82018e-05 -8.39483e-06
-2.82018e-05 0.000149503 -6.95884e-06
-8.39483e-06 -6.95884e-06 -3.34684e-05
0.000812118 1.54968e-05 -8.57248e-07
1.54968e-05 7.7048e-05 6.51695e-07
-8.57248e-07 6.51695e-07 -1.22771e-05
0.00112176 0.000130988 1.22841e-07
0.000130988 0.000260412 7.00027e-07
1.22841e-07 7.00027e-07 0.000149975
0.000850813 2.68817e-05 -6.23271e-07
2.68817e-05 0.000106152 -1.82469e-08
-6.23271e-07 -1.82469e-08 9.01477e-06
0.00094958 -3.34252e-05 2.55391e-07
-3.34252e-05 0.00013822 -3.33306e-07
2.55391e-07 -3.33306e-07 6.17367e-05
0.000939223 3.68073e-05 7.67181e-07
3.68073e-05 0.000136809 4.89862e-07
7.67181e-07 4.89862e-07 5.32639e-05
0.00069295 -1.29492e-05 -5.2653e-07
-1.29492e-05 4.01167e-06 1.63002e-06
-5.2653e-07 1.63002e-06 -7.92707e-05
0.000728073 6.24837e-06 -7.8069e-07
6.24837e-06 3.09432e-05 -2.50486e-08
-7.8069e-07 -2.50486e-08 -5.78223e-05
0.000794961 8.97372e-06 2.28307e-07
8.97372e-06 6.59736e-05 -2.00877e-07
2.28307e-07 -2.00877e-07 -2.58973e-05
0.000982662 5.66583e-05 1.37361e-06
5.66583e-05 0.000191376 -1.92231e-06
1.37361e-06 -1.92231e-06 8.30879e-05
0.000904923 8.40061e-05 4.64444e-06
8.40061e-05 0.00010394 -5.44284e-06
4.64444e-06 -5.44284e-06 1.56639e-05
0.000833265 3.48925e-05 -2.3383e-07
3.48925e-05 8.83277e-05 -8.35861e-07
-2.3383e-07 -8.35861e-07 3.1448e-06
0.000962187 4.38552e-05 7.48259e-07
4.38552e-05 0.000181714 1.01589e-06
7.48259e-07 1.01589e-06 9.88379e-05
-0.00299093 -0.000380938 -6.44035e-05
-0.000380938 -0.00119022 1.54238e-05
-6.44035e-05 1.54238e-05 -0.00138242
-0.000844912 -0.000334396 3.9749e-05
-0.000334396 1.23261e-05 1.46371e-05
3.9749e-05 1.46371e-05 -0.000184246
0.00234663 -9.48509e-06 -5.61776e-05
-9.48509e-06 0.000610647 -4.4537e-05
-5.61776e-05 -4.4537e-05 -0.000151118
-0.00412189 -0.000736122 5.0352e-05
-0.000736122 -0.00298175 7.1124e-05
5.0352e-05 7.1124e-05 -0.00130576
0.00588847 -0.000687711 -6.45006e-06
-0.000687711 0.0016904 -4.38798e-07
-6.45006e-06 -4.38798e-07 0.00180202
0.00263555 0.000427232 5.5232e-05
0.000427232 0.000662327 -1.23447e-05
5.5232e-05 -1.23447e-05 -0.00163309
0.00310607 -0.000234462 -0.000140129
-0.000234462 0.000390743 8.01991e-05
-0.000140129 8.01991e-05 -0.000175273
0.00322147 0.000150309 -2.75459e-05
0.000150309 0.000443524 6.41249e-06
-2.75459e-05 6.41249e-06 0.000147266
0.0050047 -0.00082789 -2.15411e-05
-0.00082789 0.00217551 2.51397e-05
-2.15411e-05 2.51397e-05 0.0023721
0.00193426 0.000129449 8.62233e-06
0.000129449 0.000508054 1.20534e-05
8.62233e-06 1.20534e-05 -0.00151852
0.00249116 0.000413225 -0.000110722
0.000413225 0.000612823 -7.48423e-05
-0.000110722 -7.48423e-05 -0.000132571
0.00179583 0.000484307 -0.000152856
0.000484307 0.000190939 -5.87133e-05
-0.000152856 -5.87133e-05 -0.00172982
0.00220684 0.000352194 1.06974e-05
0.000352194 0.000598467 -1.17703e-05
1.06974e-05 -1.17703e-05 0.000452051
0.000778188 0.000145893 -2.99877e-06
0.000145893 6.64563e-05 7.22467e-07
-2.99877e-06 7.22467e-07 2.4975e-06
0.00108752 2.88077e-05 -1.61836e-06
2.88077e-05 0.000244682 -2.73007e-06
-1.61836e-06 -2.73007e-06 0.000182291
0.000123114 0.000139347 -3.1455e-05
0.000139347 -4.75557e-05 -1.70565e-05
-3.1455e-05 -1.70565e-05 -0.000352557
0.00166556 0.000141365 -6.81419e-06
0.000141365 0.000631466 -6.47834e-06
-6.81419e-06 -6.47834e-06 0.000538102
0.0011697 0.000275166 8.23268e-06
0.000275166 0.00015769 -1.13293e-06
8.23268e-06 -1.13293e-06 8.72637e-06
0.00204283 0.000404851 6.19874e-05
0.000404851 9.40486e-05 3.26795e-05
6.19874e-05 3.26795e-05 5.8671e-05
-0.00355345 -5.09144e-05 -0.000120012
-5.09144e-05 -0.00181217 -6.23056e-06
-0.000120012 -6.23056e-06 -0.0015361
-0.000696677 -8.91466e-06 3.5572e-05
-8.91466e-06 0.000759832 6.60347e-07
3.5572e-05 6.60347e-07 9.37378e-05
0.00153632 -2.87907e-05 -4.58766e-05
-2.87907e-05 0.000277243 5.46822e-06
-4.58766e-05 5.46822e-06 8.95462e-06
0.00184152 -0.000175328 -3.90074e-05
-0.000175328 0.00022514 -2.11064e-05
-3.90074e-05 -2.11064e-05 0.000495456
0.00341704 -0.000649227 -5.79696e-05
-0.000649227 0.000534088 1.27431e-07
-5.79696e-05 1.27431e-07 -0.000193798
0.00150724 0.000113722 -3.91426e-05
0.000113722 0.00159719 2.07281e-05
-3.91426e-05 2.07281e-05 0.00129548
-0.00112602 -0.000139193 7.00557e-05
-0.000139193 -0.000933863 -6.43286e-05
7.00557e-05 -6.43286e-05 -0.00303041
0.00976498 0.00052868 -6.26666e-05
0.00052868 0.00488753 6.92201e-06
-6.26666e-05 6.92201e-06 0.00481377
0.00183161 -0.000332894 1.03577e-06
-0.000332894 0.000243813 1.82936e-06
1.03577e-06 1.82936e-06 0.000225116
-0.000844705 0.000278537 -8.41757e-07
0.000278537 -0.000310576 -4.84936e-06
-8.41757e-07 -4.84936e-06 -0.000476745
0.00259115 0.000145909 -1.62951e-05
0.000145909 0.00031465 2.14466e-05
-1.62951e-05 2.14466e-05 -0.00148655
0.00546012 -0.000592976 -3.22455e-05
-0.000592976 0.00138992 1.02052e-05
-3.22455e-05 1.02052e-05 0.000557711
-0.000801886 -0.000136481 1.00104e-05
-0.000136481 -0.000906328 -4.14655e-06
1.00104e-05 -4.14655e-06 -0.00111567
0.00820518 -0.000121385 5.84761e-05
-0.000121385 0.00250385 -2.66823e-06
5.84761e-05 -2.66823e-06 0.00158208
0.0043077 -0.000181877 1.87833e-05
-0.000181877 0.000935913 -1.45498e-05
1.87833e-05 -1.45498e-05 0.000374853
-0.000266474 -0.000126056 -1.7178e-05
-0.000126056 -0.000725774 4.70621e-06
-1.7178e-05 4.70621e-06 -0.000663567
0.00102556 -0.000202721 -1.27372e-06
-0.000202721 -0.000309077 -8.11512e-07
-1.27372e-06 -8.11512e-07 -0.000249145
0.00209504 -0.000274359 9.68835e-06
-0.000274359 7.91438e-05 -1.16336e-05
9.68835e-06 -1.16336e-05 0.000135639
0.00152388 -0.000271425 -9.28836e-06
-0.000271425 0.000137532 -2.50385e-06
-9.28836e-06 -2.50385e-06 -3.09295e-05
0.00163512 -0.000286121 -1.29423e-07
-0.000286121 4.58251e-06 1.05474e-06
-1.29423e-07 1.05474e-06 -0.000101455
0.00207779 -0.000264973 -2.8969e-06
-0.000264973 0.000150837 -5.13157e-07
-2.8969e-06 -5.13157e-07 8.37264e-05
0.00136969 -0.000250386 -1.3002e-06
-0.000250386 2.53179e-05 2.44743e-06
-1.3002e-06 2.44743e-06 -0.000141239
0.00170818 -0.000236947 -2.22313e-06
-0.000236947 6.24125e-05 -4.50783e-07
-2.22313e-06 -4.50783e-07 -5.96807e-05
0.00188993 -0.000197091 -5.64649e-07
-0.000197091 0.000101973 -1.91648e-06
-5.64649e-07 -1.91648e-06 1.19906e-05
0.00173603 -0.000235395 1.95834e-06
-0.000235395 0.00015193 2.98038e-06
1.95834e-06 2.98038e-06 2.49663e-06
0.00168348 -0.000187697 -1.10685e-07
-0.000187697 8.71872e-05 -2.11105e-07
-1.10685e-07 -2.11105e-07 -2.74488e-05
0.00171126 -0.000156561 9.18065e-07
-0.000156561 8.72673e-05 -1.75469e-06
9.18065e-07 -1.75469e-06 -9.5103e-06
0.0017335 -0.00014699 2.98081e-07
-0.00014699 0.000144312 -6.52671e-07
2.98081e-07 -6.52671e-07 3.65012e-05
0.00164035 -0.000161705 -1.90469e-06
-0.000161705 9.64558e-05 1.38672e-06
-1.90469e-06 1.38672e-06 -2.20352e-05
0.00166954 -0.000167795 6.82086e-07
-0.000167795 0.000150334 -2.75421e-06
6.82086e-07 -2.75421e-06 2.08443e-05
0.00173299 -0.000197349 -2.19123e-06
-0.000197349 0.000272161 -1.10179e-06
-2.19123e-06 -1.10179e-06 0.000113701
0.00174592 -0.000202434 9.43187e-07
-0.000202434 0.000226768 4.17094e-07
9.43187e-07 4.17094e-07 7.1939e-05
0.00151351 -0.000186858 -1.2784e-06
-0.000186858 5.9215e-05 3.17396e-06
-1.2784e-06 3.17396e-06 -7.81218e-05
0.000885476 -0.0001546 -3.89606e-06
-0.0001546 -4.73704e-05 3.16714e-06
-3.89606e-06 3.16714e-06 -0.000208785
0.00127286 -0.000184723 6.15808e-07
-0.000184723 0.000123916 -2.91933e-07
6.15808e-07 -2.91933e-07 -5.20742e-05
0.00158267 -0.000209449 2.72192e-06
-0.000209449 0.000238137 -2.5344e-07
2.72192e-06 -2.5344e-07 5.78489e-05
0.000965872 -0.000135235 -1.50982e-06
-0.000135235 9.18478e-05 8.94029e-07
-1.50982e-06 8.94029e-07 -3.83671e-05
0.00112469 -0.000160024 3.12121e-07
-0.000160024 0.000159876 -1.77141e-07
3.12121e-07 -1.77141e-07 8.18178e-06
0.000625341 -0.000138009 1.80711e-07
-0.000138009 -0.000130118 -4.55962e-06
1.80711e-07 -4.55962e-06 -0.00030106
0.000765502 -5.88564e-05 -2.95112e-06
-5.88564e-05 3.27776e-05 2.59907e-06
-2.95112e-06 2.59907e-06 -5.96381e-05
0.00102773 -0.000130647 1.22683e-07
-0.000130647 0.00015578 -1.28548e-07
1.22683e-07 -1.28548e-07 3.36731e-05
0.00113499 -0.000151767 2.9061e-07
-0.000151767 0.000210136 -9.53386e-07
2.9061e-07 -9.53386e-07 6.99774e-05
0.000526071 6.52306e-05 1.39886e-06
6.52306e-05 -6.66852e-05 5.9825e-06
1.39886e-06 5.9825e-06 -0.000103554
0.000754767 -1.70005e-05 2.02237e-07
-1.70005e-05 4.38155e-05 1.38903e-07
2.02237e-07 1.38903e-07 -4.10554e-05
0.00103064 -8.39037e-05 1.25585e-06
-8.39037e-05 0.000189406 -2.80271e-07
1.25585e-06 -2.80271e-07 7.37881e-05
0.00243061 9.18149e-05 -3.65934e-05
9.18149e-05 0.000992118 2.51372e-06
-3.65934e-05 2.51372e-06 0.000996471
0.000610727 6.82815e-05 -1.96201e-07
6.82815e-05 -2.235e-05 -2.62345e-07
-1.96201e-07 -2.62345e-07 -5.12799e-05
0.000716373 -1.5743e-05 2.19657e-06
-1.5743e-05 2.07224e-05 -3.10721e-06
2.19657e-06 -3.10721e-06 -4.57366e-05
0.0015828 6.8255e-05 1.47378e-05
6.8255e-05 0.00051328 -4.98039e-07
1.47378e-05 -4.98039e-07 0.000517176
0.000682417 6.18203e-05 -1.74153e-07
6.18203e-05 7.29201e-06 -4.20989e-06
-1.74153e-07 -4.20989e-06 -1.42747e-05
0.00222271 7.32141e-05 3.0706e-05
7.32141e-05 0.000863147 -2.85285e-06
3.0706e-05 -2.85285e-06 0.000873084
0.000892748 6.00897e-05 6.3249e-07
6.00897e-05 0.000115198 3.56932e-07
6.3249e-07 3.56932e-07 2.01406e-05
0.000826743 4.61221e-06 -2.69824e-07
4.61221e-06 7.57088e-05 4.87874e-07
-2.69824e-07 4.87874e-07 -7.67668e-06
0.000784916 -2.69746e-05 2.55747e-07
-2.69746e-05 5.5549e-05 -1.62402e-06
2.55747e-07 -1.62402e-06 -2.5639e-05
0.000865748 1.68855e-05 1.69399e-07
1.68855e-05 9.53655e-05 6.22085e-07
1.69399e-07 6.22085e-07 1.28577e-05
0.000775233 -2.60069e-05 4.24999e-07
-2.60069e-05 4.32237e-05 -7.64111e-08
4.24999e-07 -7.64111e-08 -3.1244e-05
0.000693012 -3.95017e-05 -7.87516e-07
-3.95017e-05 -5.21193e-06 -2.62489e-06
-7.87516e-07 -2.62489e-06 -5.56548e-05
0.000664303 -4.85553e-05 -1.32185e-06
-4.85553e-05 -2.07174e-05 -4.14258e-06
-1.32185e-06 -4.14258e-06 -3.85176e-05
0.00071728 -3.56769e-05 1.03074e-07
-3.56769e-05 1.7617e-06 -3.46895e-08
1.03074e-07 -3.46895e-08 -4.49532e-05
0.000753033 -4.68728e-05 -2.4621e-07
-4.68728e-05 2.5328e-05 1.21825e-06
-2.4621e-07 1.21825e-06 -4.21211e-05
0.00233437 -6.52931e-05 -2.95496e-05
-6.52931e-05 0.000911837 -3.50659e-06
-2.95496e-05 -3.50659e-06 0.000923662
0.00065086 -4.16102e-05 -2.52675e-07
-4.16102e-05 -3.58513e-05 3.83095e-08
-2.52675e-07 3.83095e-08 -5.13251e-05
0.000727505 -1.95388e-05 1.60018e-06
-1.95388e-05 1.39933e-06 1.95897e-06
1.60018e-06 1.95897e-06 -4.26993e-05
0.00231244 -5.6841e-05 -2.28007e-06
-5.6841e-05 0.000892049 1.43538e-07
-2.28007e-06 1.43538e-07 0.000905729
0.000656253 -3.57382e-05 5.3803e-07
-3.57382e-05 -3.94407e-05 3.84267e-06
5.3803e-07 3.84267e-06 -5.274e-05
0.00224056 -4.73185e-05 1.92275e-05
-4.73185e-05 0.000845076 4.06777e-06
1.92275e-05 4.06777e-06 0.000860921
0.00080383 0.000161897 4.36009e-05
0.000161897 0.000902371 3.65957e-05
4.36009e-05 3.65957e-05 0.000332564
-0.000583244 -0.00015607 1.04152e-06
-0.00015607 0.000481767 7.31166e-06
1.04152e-06 7.31166e-06 -0.000140213
0.00190109 -6.37295e-05 -4.9279e-05
-6.37295e-05 0.000435634 -1.24402e-05
-4.9279e-05 -1.24402e-05 6.79617e-05
0.000761712 -1.55473e-05 2.00992e-07
-1.55473e-05 4.74126e-05 6.07823e-07
2.00992e-07 6.07823e-07 -3.95559e-05
0.000815643 3.38742e-06 -2.08252e-08
3.38742e-06 8.3841e-05 6.84221e-07
-2.08252e-08 6.84221e-07 -1.21511e-05
0.000954765 0.000114795 -2.4255e-07
0.000114795 0.000173248 2.88202e-07
-2.4255e-07 2.88202e-07 6.51507e-05
0.00114671 0.000151508 1.19142e-06
0.000151508 0.000255656 6.71798e-08
1.19142e-06 6.71798e-08 0.000131842
0.000929315 9.02458e-05 -1.65293e-06
9.02458e-05 0.000168009 -7.71588e-07
-1.65293e-06 -7.71588e-07 5.38503e-05
0.000812156 4.259e-05 6.08891e-07
4.259e-05 7.60774e-05 1.1993e-06
6.08891e-07 1.1993e-06 -1.3511e-05
0.000738845 1.7593e-05 4.00057e-07
1.7593e-05 3.43249e-05 1.24457e-06
4.00057e-07 1.24457e-06 -5.70251e-05
0.000708859 6.09144e-05 -1.19417e-06
6.09144e-05 3.99366e-05 -1.20563e-06
-1.19417e-06 -1.20563e-06 -6.45933e-05
5.18837e-05 7.63164e-05 -2.27515e-07
7.63164e-05 -0.000314923 1.82554e-07
-2.27515e-07 1.82554e-07 -0.000433751
0.000975237 0.000131088 8.32751e-07
0.000131088 0.000133425 -5.04532e-06
8.32751e-07 -5.04532e-06 2.67978e-05
0.00197512 0.000279878 5.60484e-06
0.000279878 0.000432392 -1.0674e-05
5.60484e-06 -1.0674e-05 0.000284859
0.000760946 7.87355e-05 -1.66497e-06
7.87355e-05 4.86559e-05 -3.8124e-07
-1.66497e-06 -3.8124e-07 -3.84119e-05
0.000716241 1.04473e-05 -6.24067e-07
1.04473e-05 3.54774e-05 -8.59402e-07
-6.24067e-07 -8.59402e-07 -4.18889e-05
0.010523 3.49798e-05 -4.65321e-05
3.49798e-05 0.00347882 -4.90499e-07
-4.65321e-05 -4.90499e-07 0.00220541
-0.00200484 -0.000296024 -5.74303e-05
-0.000296024 -0.000421552 -1.06036e-05
-5.74303e-05 -1.06036e-05 -0.000874004
0.000712096 -0.000372833 -2.30004e-05
-0.000372833 0.00061767 -2.82884e-05
-2.30004e-05 -2.82884e-05 0.000386088
-0.00351193 -0.000362574 1.25324e-05
-0.000362574 -0.00177964 3.31968e-05
1.25324e-05 3.31968e-05 -0.00157411
0.00925776 -0.000289386 8.6501e-05
-0.000289386 0.00416554 -3.48472e-06
8.6501e-05 -3.48472e-06 0.00164094
0.00300203 0.000196807 -1.15166e-05
0.000196807 0.000494732 9.80379e-06
-1.15166e-05 9.80379e-06 0.000325372
0.00154346 0.000379809 -4.52325e-05
0.000379809 -4.55749e-06 -1.92043e-05
-4.52325e-05 -1.92043e-05 -0.000613897
0.00753605 -0.000222504 5.74161e-05
-0.000222504 0.00266348 1.74415e-05
5.74161e-05 1.74415e-05 0.00113172
0.00377814 0.000496867 7.44001e-06
0.000496867 0.000496457 -2.79045e-05
7.44001e-06 -2.79045e-05 -9.28766e-05
0.00202498 0.000398277 4.41678e-06
0.000398277 0.000293451 1.37576e-05
4.41678e-06 1.37576e-05 0.000134985
0.000872286 0.00024506 2.87825e-06
0.00024506 -6.25119e-06 -4.76107e-06
2.87825e-06 -4.76107e-06 -0.000158564
0.000964642 0.000137637 -1.04871e-05
0.000137637 0.000165069 6.00059e-06
-1.04871e-05 6.00059e-06 0.000104563
0.0014817 0.000309009 -3.00602e-05
0.000309009 0.000238882 -1.54185e-05
-3.00602e-05 -1.54185e-05 0.000103787
0.00124425 0.000367655 -1.66931e-05
0.000367655 -0.000262364 1.47088e-05
-1.66931e-05 1.47088e-05 -0.000321955
0.000485296 -0.000141081 -1.43326e-05
-0.000141081 -0.00175336 -2.6934e-06
-1.43326e-05 -2.6934e-06 -0.00212893
0.00203663 -9.09567e-05 -1.74206e-06
-9.09567e-05 0.00118773 -4.97346e-06
-1.74206e-06 -4.97346e-06 0.00111091
-0.00176493 -2.23638e-05 1.47842e-05
-2.23638e-05 0.000324516 -1.61056e-07
1.47842e-05 -1.61056e-07 -0.000420663
0.00286133 -0.000426176 -5.41368e-05
-0.000426176 0.000686578 4.86812e-06
-5.41368e-05 4.86812e-06 0.000611793
0.00375061 -0.000537913 -1.1871e-05
-0.000537913 0.000750233 -1.36292e-05
-1.1871e-05 -1.36292e-05 -0.000401374
0.000543728 -0.000118277 1.30609e-05
-0.000118277 0.000595848 1.57477e-05
1.30609e-05 1.57477e-05 0.000284012
0.010176 0.000270595 -4.81681e-05
0.000270595 0.00415472 3.01102e-05
-4.81681e-05 3.01102e-05 0.00254679
0.000637196 -0.000195655 -4.85094e-06
-0.000195655 -0.000251506 -8.67868e-07
-4.85094e-06 -8.67868e-07 -0.000387555
0.00630928 0.000110005 1.46111e-05
0.000110005 0.00151604 1.80985e-05
1.46111e-05 1.80985e-05 0.000695241
0.00357198 -0.000267945 4.30314e-05
-0.000267945 0.00027312 -1.21855e-06
4.30314e-05 -1.21855e-06 -0.000531518
0.00265466 -0.000232856 1.77417e-06
-0.000232856 0.00081807 2.09138e-06
1.77417e-06 2.09138e-06 0.000558257
0.00368402 -7.69904e-05 -8.6971e-05
-7.69904e-05 0.000852522 -8.51474e-06
-8.6971e-05 -8.51474e-06 0.000570792
0.000129256 -0.000170769 -1.30475e-05
-0.000170769 -0.00078779 4.33884e-06
-1.30475e-05 4.33884e-06 -0.000710057
0.00152487 -0.000261288 -6.54606e-08
-0.000261288 -0.000193665 5.44453e-07
-6.54606e-08 5.44453e-07 -0.000159884
0.00191133 -0.000186289 3.06641e-06
-0.000186289 -3.79039e-05 -1.11506e-06
3.06641e-06 -1.11506e-06 -2.38368e-05
0.00135865 -0.000271093 9.35843e-07
-0.000271093 -0.00013861 1.632e-06
9.35843e-07 1.632e-06 -0.000238942
0.00177238 -0.000241665 -7.38275e-07
-0.000241665 1.49747e-05 -3.01552e-07
-7.38275e-07 -3.01552e-07 -5.0507e-05
0.00181793 -0.000167669 -1.44047e-06
-0.000167669 -2.46062e-05 8.1778e-07
-1.44047e-06 8.1778e-07 -6.37686e-05
0.00155232 -0.000232229 -3.82329e-06
-0.000232229 -2.71713e-05 2.78604e-06
-3.82329e-06 2.78604e-06 -0.000149167
0.00178367 -0.000193152 2.97509e-07
-0.000193152 4.31177e-05 1.15758e-06
2.97509e-07 1.15758e-06 -4.64614e-05
0.00182855 -0.0001617 2.42633e-06
-0.0001617 9.63043e-05 1.32143e-07
2.42633e-06 1.32143e-07 1.83245e-05
0.00159638 -0.000181453 5.35096e-07
-0.000181453 4.29277e-05 2.78738e-06
5.35096e-07 2.78738e-06 -7.05232e-05
0.0017024 -0.000158338 -1.85751e-08
-0.000158338 8.29342e-05 9.38702e-07
-1.85751e-08 9.38702e-07 -1.46652e-05
0.00185532 -0.00014503 2.08054e-06
-0.00014503 0.000183205 -2.98469e-07
2.08054e-06 -2.98469e-07 8.81318e-05
0.00165523 -0.000145204 -2.94815e-06
-0.000145204 0.000100255 1.92865e-06
-2.94815e-06 1.92865e-06 -6.15375e-06
0.00171655 -0.000146661 2.46851e-06
-0.000146661 0.000165234 -1.57556e-06
2.46851e-06 -1.57556e-06 4.88712e-05
0.00163504 -0.000158709 -8.7484e-07
-0.000158709 9.37954e-05 4.00347e-06
-8.7484e-07 4.00347e-06 -2.26876e-05
0.00168929 -0.000167989 9.26793e-07
-0.000167989 0.000159669 -3.80633e-07
9.26793e-07 -3.80633e-07 3.0404e-05
0.00164783 -0.000167113 -1.26482e-06
-0.000167113 0.000180974 -1.48001e-06
-1.26482e-06 -1.48001e-06 4.49979e-05
0.00115274 -0.000163334 -4.57767e-06
-0.000163334 9.24237e-06 8.30965e-07
-4.57767e-06 8.30965e-07 -0.000145235
0.00162924 -0.000191605 4.96677e-07
-0.000191605 0.000216493 -7.04289e-07
4.96677e-07 -7.04289e-07 5.80476e-05
0.00164204 -0.000197403 1.6172e-06
-0.000197403 0.000168799 2.52069e-06
1.6172e-06 2.52069e-06 1.50224e-05
0.00109466 -0.000150835 -2.96998e-06
-0.000150835 0.000110966 2.36081e-06
-2.96998e-06 2.36081e-06 -2.9018e-05
0.000985728 -0.000158758 -1.2369e-06
-0.000158758 1.14139e-05 1.27749e-06
-1.2369e-06 1.27749e-06 -0.00014904
0.0015842 -0.000199901 3.15258e-06
-0.000199901 0.000296562 -1.68802e-06
3.15258e-06 -1.68802e-06 0.000120883
0.000734225 -7.83982e-05 -3.46709e-06
-7.83982e-05 -6.8753e-06 2.32602e-06
-3.46709e-06 2.32602e-06 -0.000105087
0.00106104 -0.000142078 1.75946e-07
-0.000142078 0.000141655 -3.59597e-07
1.75946e-07 -3.59597e-07 1.057e-05
0.00118258 -0.000162691 1.38079e-06
-0.000162691 0.000188157 -2.35645e-06
1.38079e-06 -2.35645e-06 3.62344e-05
0.000530793 2.28023e-05 -3.0715e-06
2.28023e-05 -7.76145e-05 6.69986e-06
-3.0715e-06 6.69986e-06 -0.000118153
0.000815416 -6.34585e-05 2.24471e-07
-6.34585e-05 5.98049e-05 2.89166e-07
2.24471e-07 2.89166e-07 -3.35925e-05
0.0010954 -0.000129695 1.65728e-06
-0.000129695 0.00019034 -4.28609e-07
1.65728e-06 -4.28609e-07 6.87278e-05
0.00275615 0.000105546 -4.46743e-05
0.000105546 0.00117558 2.4449e-06
-4.46743e-05 2.4449e-06 0.00117606
0.000586708 4.64047e-05 6.52265e-07
4.64047e-05 -3.86582e-05 -2.62663e-07
6.52265e-07 -2.62663e-07 -7.30414e-05
0.000770788 -5.15176e-05 2.52247e-06
-5.15176e-05 4.89358e-05 -2.76741e-06
2.52247e-06 -2.76741e-06 -3.55227e-05
0.00252599 9.24716e-05 1.80261e-06
9.24716e-05 0.00104406 1.60278e-07
1.80261e-06 1.60278e-07 0.00104819
0.000658475 5.94988e-05 1.51083e-07
5.94988e-05 1.61665e-06 -5.09792e-06
1.51083e-07 -5.09792e-06 -2.61511e-05
0.00237524 8.23418e-05 3.73718e-05
8.23418e-05 0.000954979 -2.64798e-06
3.73718e-05 -2.64798e-06 0.000962154
0.00098144 0.000132185 7.59118e-07
0.000132185 0.000154235 -5.73439e-07
7.59118e-07 -5.73439e-07 3.76562e-05
0.000837141 9.05231e-05 4.26502e-07
9.05231e-05 8.95034e-05 4.40465e-08
4.26502e-07 4.40465e-08 -9.24518e-06
0.00071886 -1.75621e-05 -4.45202e-07
-1.75621e-05 2.08353e-05 -1.02447e-06
-4.45202e-07 -1.02447e-06 -6.99499e-05
0.000747913 -2.6368e-05 -3.2918e-07
-2.6368e-05 3.1762e-05 9.99853e-07
-3.2918e-07 9.99853e-07 -5.03116e-05
0.000743724 -4.24057e-05 2.35738e-07
-4.24057e-05 3.16906e-05 6.63252e-08
2.35738e-07 6.63252e-08 -4.91115e-05
0.000667013 -3.83527e-05 -8.15502e-07
-3.83527e-05 -1.43255e-05 -2.85445e-06
-8.15502e-07 -2.85445e-06 -7.16777e-05
0.000739851 -4.77936e-05 -3.23482e-07
-4.77936e-05 2.2602e-05 1.62807e-06
-3.23482e-07 1.62807e-06 -5.03857e-05
0.000696726 -4.40111e-05 3.22431e-07
-4.40111e-05 -2.51037e-06 -1.57212e-07
3.22431e-07 -1.57212e-07 -5.32917e-05
0.000660234 -5.76492e-05 -7.7685e-07
-5.76492e-05 -1.28534e-05 -4.45575e-06
-7.7685e-07 -4.45575e-06 -3.41157e-05
0.00234629 -7.33741e-05 -3.31515e-05
-7.33741e-05 0.000926138 -3.16516e-06
-3.31515e-05 -3.16516e-06 0.000936057
0.000648607 -4.70078e-05 -4.77417e-08
-4.70078e-05 -2.94796e-05 2.59948e-08
-4.77417e-08 2.59948e-08 -4.70693e-05
0.000710412 -3.27978e-05 1.75256e-06
-3.27978e-05 -2.09004e-06 2.1527e-06
1.75256e-06 2.1527e-06 -4.85525e-05
0.00233726 -6.50923e-05 -1.98624e-06
-6.50923e-05 0.000912716 1.52472e-07
-1.98624e-06 1.52472e-07 0.000924582
0.000644476 -4.05221e-05 8.72068e-07
-4.05221e-05 -3.94133e-05 4.0018e-06
8.72068e-07 4.0018e-06 -5.47795e-05
0.00229785 -5.63734e-05 2.35743e-05
-5.63734e-05 0.000883275 3.88753e-06
2.35743e-05 3.88753e-06 0.00089712
0.00893517 0.00019101 0.000101751
0.00019101 0.00271398 3.45797e-05
0.000101751 3.45797e-05 0.00178358
-0.00244092 -0.000212051 -2.97511e-05
-0.000212051 -0.00128657 -2.9719e-06
-2.97511e-05 -2.9719e-06 -0.00134958
-0.00197515 -6.88638e-05 -4.64599e-05
-6.88638e-05 -0.000180237 -8.83603e-06
-4.64599e-05 -8.83603e-06 -0.00097874
0.000771666 -3.1866e-05 6.30089e-07
-3.1866e-05 5.79292e-05 1.66592e-06
6.30089e-07 1.66592e-06 -3.75879e-05
0.000790931 0.000111232 -7.82749e-07
0.000111232 8.70785e-05 7.17534e-07
-7.82749e-07 7.17534e-07 -1.86738e-05
0.00103519 9.53484e-05 4.95828e-07
9.53484e-05 0.000225727 -5.87284e-08
4.95828e-07 -5.87284e-08 0.000111524
0.0010198 0.000142577 -1.27317e-06
0.000142577 0.000188458 9.38881e-08
-1.27317e-06 9.38881e-08 6.62887e-05
0.00111073 0.000154992 9.44181e-06
0.000154992 0.000209858 1.40272e-06
9.44181e-06 1.40272e-06 7.32393e-05
0.000530151 0.000109526 -1.01176e-06
0.000109526 -5.78041e-05 -2.09047e-07
-1.01176e-06 -2.09047e-07 -0.000178529
0.000466619 6.32494e-05 -1.05423e-06
6.32494e-05 -9.01354e-05 -1.01736e-07
-1.05423e-06 -1.01736e-07 -0.000193658
0.000511202 0.000109788 5.72709e-07
0.000109788 -7.46637e-05 6.47141e-07
5.72709e-07 6.47141e-07 -0.000201427
0.000888861 0.000113479 -1.51276e-06
0.000113479 8.9358e-05 -9.27394e-08
-1.51276e-06 -9.27394e-08 -2.05502e-05
0.000245001 0.000120813 6.37046e-07
0.000120813 -0.00031144 -1.46794e-06
6.37046e-07 -1.46794e-06 -0.000438757
0.00286659 0.000311145 -1.51881e-06
0.000311145 0.000907858 -3.80719e-06
-1.51881e-06 -3.80719e-06 0.000765706
0.00138043 0.000281289 2.31383e-06
0.000281289 -2.05114e-05 -2.6772e-07
2.31383e-06 -2.6772e-07 -0.000171242
0.00142324 0.000246538 3.27929e-06
0.000246538 0.000163351 -2.54835e-06
3.27929e-06 -2.54835e-06 2.27831e-05
0.000741879 8.39923e-05 -5.70167e-06
8.39923e-05 5.53494e-05 4.06731e-06
-5.70167e-06 4.06731e-06 -3.09104e-05
0.00328448 0.000152777 4.054e-06
0.000152777 6.61717e-05 3.44951e-06
4.054e-06 3.44951e-06 -0.000211969
0.00560355 2.7741e-05 1.81348e-05
2.7741e-05 0.00127778 1.00257e-05
1.81348e-05 1.00257e-05 2.64166e-05
0.0054054 -0.000677392 -2.98011e-05
-0.000677392 0.00276844 -3.41045e-05
-2.98011e-05 -3.41045e-05 0.00269867
0.00670954 7.76253e-05 0.000267536
7.76253e-05 0.00234739 7.47568e-05
0.000267536 7.47568e-05 0.00033399
0.00131457 0.000344276 2.83384e-05
0.000344276 -0.000300683 3.19186e-05
2.83384e-05 3.19186e-05 -0.000504702
0.00240981 0.000370992 -7.18535e-05
0.000370992 3.14518e-05 -2.13901e-05
-7.18535e-05 -2.13901e-05 -0.000369243
0.00287287 0.000397752 4.77391e-05
0.000397752 0.000502527 2.15583e-05
4.77391e-05 2.15583e-05 0.000508133
0.0021641 0.000400969 1.31044e-07
0.000400969 0.000347904 5.07352e-06
1.31044e-07 5.07352e-06 0.000213175
0.000402879 0.00020179 -1.1602e-06
0.00020179 -0.000229583 6.44703e-06
-1.1602e-06 6.44703e-06 -0.000373664
0.00228209 0.000447544 -7.50304e-05
0.000447544 0.000252065 -4.65927e-05
-7.50304e-05 -4.65927e-05 0.000168799
0.00284808 -0.000137918 -0.000139252
-0.000137918 0.000398679 1.66234e-06
-0.000139252 1.66234e-06 2.27003e-05
0.00848674 -0.000104071 1.28192e-05
-0.000104071 0.00264509 -9.41439e-07
1.28192e-05 -9.41439e-07 0.00205346
-0.00609568 -0.000162835 0.00012261
-0.000162835 -0.00321656 6.78399e-07
0.00012261 6.78399e-07 -0.00312449
0.00179645 -0.000243186 -8.58105e-06
-0.000243186 0.000297551 6.59846e-06
-8.58105e-06 6.59846e-06 0.000189516
0.00520194 -0.000322055 9.63301e-05
-0.000322055 0.00118279 4.58203e-06
9.63301e-05 4.58203e-06 0.000412596
0.000523101 -0.000317718 7.68033e-05
-0.000317718 -0.0013569 3.32854e-05
7.68033e-05 3.32854e-05 -0.00210428
0.00135751 -0.000156184 6.12023e-06
-0.000156184 0.000144151 -1.00604e-06
6.12023e-06 -1.00604e-06 -3.55616e-05
0.00167981 4.25508e-06 -6.55312e-06
4.25508e-06 -0.000299593 2.89906e-06
-6.55312e-06 2.89906e-06 -0.00057895
0.0051451 -0.000169059 7.8382e-06
-0.000169059 0.00190194 -3.27559e-06
7.8382e-06 -3.27559e-06 0.00179285
0.00250135 2.23802e-06 4.59711e-05
2.23802e-06 0.000367698 -2.84401e-06
4.59711e-05 -2.84401e-06 0.000329979
0.000809928 -0.000246712 -6.52493e-06
-0.000246712 -0.000538794 3.96653e-06
-6.52493e-06 3.96653e-06 -0.000526658
0.00182098 -0.000192654 -3.02992e-07
-0.000192654 -7.39841e-05 1.09078e-06
-3.02992e-07 1.09078e-06 -7.23342e-05
0.00178691 -8.50774e-05 5.59911e-06
-8.50774e-05 -3.70252e-05 -3.92624e-08
5.59911e-06 -3.92624e-08 -5.80754e-05
0.00153825 -0.000223206 2.08129e-06
-0.000223206 -8.89546e-05 6.38101e-08
2.08129e-06 6.38101e-08 -0.000152817
0.00186911 -0.000169347 1.65012e-06
-0.000169347 1.64037e-05 6.54637e-07
1.65012e-06 6.54637e-07 -2.88498e-05
0.00169591 -0.000106609 2.58975e-06
-0.000106609 -3.20263e-06 1.05949e-06
2.58975e-06 1.05949e-06 -5.62685e-05
0.00168511 -0.000189398 4.05872e-06
-0.000189398 -1.15241e-05 2.87814e-06
4.05872e-06 2.87814e-06 -0.000100733
0.0018052 -0.0001578 1.14372e-06
-0.0001578 9.29373e-05 4.86078e-07
1.14372e-06 4.86078e-07 1.47134e-05
0.00190601 -0.000126876 2.01621e-06
-0.000126876 0.000189365 4.5851e-07
2.01621e-06 4.5851e-07 0.000104609
0.00169808 -0.000159761 -4.08042e-07
-0.000159761 8.15239e-05 2.89528e-06
-4.08042e-07 2.89528e-06 -1.68648e-05
0.00173639 -0.00014446 -5.58197e-07
-0.00014446 0.000122072 4.0291e-07
-5.58197e-07 4.0291e-07 2.57708e-05
0.00161815 -0.000131154 3.33208e-06
-0.000131154 9.42639e-05 -3.17584e-07
3.33208e-06 -3.17584e-07 -1.57647e-05
0.00157222 -0.000143143 -2.93966e-06
-0.000143143 5.41079e-05 3.95092e-06
-2.93966e-06 3.95092e-06 -5.08615e-05
0.00168039 -0.000144307 -9.6587e-07
-0.000144307 0.000143626 -2.80519e-07
-9.6587e-07 -2.80519e-07 2.88635e-05
0.00167655 -0.000144947 5.04901e-07
-0.000144947 0.000178983 -5.22522e-07
5.04901e-07 -5.22522e-07 5.41736e-05
0.00172191 -0.0001687 8.27156e-07
-0.0001687 0.000175737 1.28328e-06
8.27156e-07 1.28328e-06 4.66806e-05
0.00164268 -0.000166376 4.5141e-07
-0.000166376 0.000176288 -2.5109e-07
4.5141e-07 -2.5109e-07 4.04677e-05
0.00164384 -0.00016552 -2.23691e-06
-0.00016552 0.000225338 -3.88872e-07
-2.23691e-06 -3.88872e-07 8.81379e-05
0.000869115 -0.000137979 -6.13666e-06
-0.000137979 -8.79904e-05 2.4203e-06
-6.13666e-06 2.4203e-06 -0.000227724
0.00123343 -0.000165961 -9.33993e-07
-0.000165961 5.92659e-05 3.31735e-07
-9.33993e-07 3.31735e-07 -9.49191e-05
0.00150845 -0.000184963 2.97265e-06
-0.000184963 0.000151324 1.4684e-07
2.97265e-06 1.4684e-07 -6.98679e-06
0.0008517 -0.000104644 -4.66214e-06
-0.000104644 2.38843e-05 3.43938e-06
-4.66214e-06 3.43938e-06 -8.32779e-05
0.0011122 -0.00015113 3.79166e-07
-0.00015113 0.000118562 2.59516e-07
3.79166e-07 2.59516e-07 -2.10821e-05
0.00108695 -0.000162993 1.05492e-06
-0.000162993 7.0274e-05 -5.97387e-07
1.05492e-06 -5.97387e-07 -8.91678e-05
0.000541585 -1.98806e-06 -6.12321e-06
-1.98806e-06 -7.83634e-05 7.22338e-06
-6.12321e-06 7.22338e-06 -0.00012651
0.000866304 -8.82621e-05 6.52072e-08
-8.82621e-05 6.55386e-05 -1.5148e-07
6.52072e-08 -1.5148e-07 -3.41835e-05
0.00114818 -0.000148296 2.38497e-06
-0.000148296 0.000187123 -1.80366e-06
2.38497e-06 -1.80366e-06 5.52419e-05
0.00317458 0.000120006 -5.77311e-05
0.000120006 0.0014083 2.46169e-06
-5.77311e-05 2.46169e-06 0.00140458
0.000610702 1.54229e-05 3.47999e-07
1.54229e-05 -3.5335e-05 -1.76422e-07
3.47999e-07 -1.76422e-07 -7.65049e-05
0.000876164 -7.04223e-05 3.92592e-06
-7.04223e-05 9.13322e-05 -2.27205e-06
3.92592e-06 -2.27205e-06 -2.34512e-06
0.00287764 0.000104048 2.31651e-06
0.000104048 0.00124096 1.90035e-07
2.31651e-06 1.90035e-07 0.00124159
0.000652444 4.50002e-05 2.75838e-06
4.50002e-05 -2.06461e-06 -5.80719e-06
2.75838e-06 -5.80719e-06 -3.75826e-05
0.00263923 9.13026e-05 4.82418e-05
9.13026e-05 0.00110539 -2.62e-06
4.82418e-05 -2.62e-06 0.00110975
0.00108571 0.000147436 -2.51615e-07
0.000147436 0.000189642 -2.63962e-06
-2.51615e-07 -2.63962e-06 5.82564e-05
0.00108159 0.000138946 3.86084e-07
0.000138946 0.00020936 2.06225e-07
3.86084e-07 2.06225e-07 9.25159e-05
0.000891675 7.19086e-05 -1.31471e-06
7.19086e-05 0.000103958 -1.27867e-06
-1.31471e-06 -1.27867e-06 4.92991e-07
0.000781643 0.000110642 -6.45542e-08
0.000110642 6.43453e-05 3.7737e-07
-6.45542e-08 3.7737e-07 -3.78978e-05
0.000711131 3.8812e-06 -5.33661e-07
3.8812e-06 1.66039e-05 -1.69991e-07
-5.33661e-07 -1.69991e-07 -7.59709e-05
0.000699153 1.2933e-05 -1.98992e-06
1.2933e-05 8.01682e-06 -2.55574e-06
-1.98992e-06 -2.55574e-06 -6.27166e-05
0.000711466 -6.00251e-05 -1.8597e-07
-6.00251e-05 1.51928e-05 1.49706e-06
-1.8597e-07 1.49706e-06 -6.6966e-05
0.000681926 -4.14652e-05 4.21283e-07
-4.14652e-05 -4.41319e-06 -3.70318e-07
4.21283e-07 -3.70318e-07 -6.26846e-05
0.000642601 -7.01411e-05 1.1291e-06
-7.01411e-05 -1.01673e-05 -5.21493e-06
1.1291e-06 -5.21493e-06 -3.73789e-05
0.000699313 -4.71274e-05 1.00076e-06
-4.71274e-05 -7.65406e-07 2.45559e-06
1.00076e-06 2.45559e-06 -5.16701e-05
0.000637929 -5.43975e-05 1.94844e-07
-5.43975e-05 -2.61342e-05 -1.79236e-08
1.94844e-07 -1.79236e-08 -4.6722e-05
0.00239822 -8.1851e-05 -3.73251e-05
-8.1851e-05 0.000962677 -2.76617e-06
-3.73251e-05 -2.76617e-06 0.000970411
0.0023467 -7.31193e-05 -1.26115e-06
-7.31193e-05 0.000925473 1.43888e-07
-1.26115e-06 1.43888e-07 0.000935469
0.000634232 -4.55575e-05 1.44081e-06
-4.55575e-05 -3.75635e-05 4.14815e-06
1.44081e-06 4.14815e-06 -5.49531e-05
0.00233367 -6.48303e-05 2.78031e-05
-6.48303e-05 0.000910063 3.65521e-06
2.78031e-05 3.65521e-06 0.000921986
0.00270859 -2.16679e-06 -5.19135e-05
-2.16679e-06 0.000184028 1.28103e-05
-5.19135e-05 1.28103e-05 -2.58419e-05
0.0019504 -0.00020453 1.88438e-05
-0.00020453 -0.000742098 7.79005e-06
1.88438e-05 7.79005e-06 -0.00160414
0.00407614 -0.000380569 -4.58734e-05
-0.000380569 0.00173853 -2.42664e-05
-4.58734e-05 -2.42664e-05 0.00181883
0.00135711 0.000177955 9.34556e-06
0.000177955 0.000266813 2.12173e-06
9.34556e-06 2.12173e-06 0.00011976
0.00116611 0.000104526 5.50904e-07
0.000104526 0.000296641 4.86496e-07
5.50904e-07 4.86496e-07 0.000182397
0.000898351 0.000134012 -1.22766e-06
0.000134012 0.000124561 1.07115e-06
-1.22766e-06 1.07115e-06 3.94192e-06
0.000803373 0.000128971 4.97416e-07
0.000128971 8.9535e-05 7.47714e-07
4.97416e-07 7.47714e-07 -3.47416e-05
0.00103177 0.000150968 -3.13985e-07
0.000150968 0.000170848 -1.50117e-06
-3.13985e-07 -1.50117e-06 3.30387e-05
0.000689262 0.000136965 -3.92019e-07
0.000136965 -5.13855e-05 1.77315e-07
-3.92019e-07 1.77315e-07 -0.000172681
0.000915668 0.000140338 -8.35266e-07
0.000140338 0.000136295 -2.64844e-07
-8.35266e-07 -2.64844e-07 1.80908e-06
0.000951585 0.0001074 -2.80265e-06
0.0001074 0.000119652 5.31267e-06
-2.80265e-06 5.31267e-06 5.93597e-06
0.000959299 0.00016555 5.40241e-07
0.00016555 6.73026e-05 7.60787e-10
5.40241e-07 7.60787e-10 -6.12801e-05
0.0023499 0.000279316 8.8319e-07
0.000279316 0.000633989 4.49083e-06
8.8319e-07 4.49083e-06 0.000490679
0.00170028 0.00027108 -2.37906e-06
0.00027108 0.000160535 -1.25413e-06
-2.37906e-06 -1.25413e-06 7.98514e-06
0.0014962 0.000238265 1.27726e-05
0.000238265 -2.56883e-05 1.03922e-05
1.27726e-05 1.03922e-05 -0.000144193
0.00130424 0.000279191 -1.77541e-06
0.000279191 -6.91725e-05 -2.40967e-06
-1.77541e-06 -2.40967e-06 -0.000225265
0.00100234 0.000216819 4.7923e-07
0.000216819 -4.56402e-05 6.81007e-06
4.7923e-07 6.81007e-06 -0.000178646
0.000235741 0.00015171 8.75291e-06
0.00015171 -0.000465345 3.32733e-06
8.75291e-06 3.32733e-06 -0.000466595
0.00475448 0.000242354 -2.21307e-05
0.000242354 0.000617802 4.10569e-07
-2.21307e-05 4.10569e-07 0.000229986
0.000900121 -7.51014e-05 4.62924e-05
-7.51014e-05 -0.0010345 1.33196e-05
4.62924e-05 1.33196e-05 -0.00221649
0.00225457 0.000411816 6.02977e-05
0.000411816 -0.000105242 1.00278e-05
6.02977e-05 1.00278e-05 -0.000667877
0.00167024 0.000305054 -1.84351e-05
0.000305054 9.45216e-05 -2.79565e-06
-1.84351e-05 -2.79565e-06 7.55975e-05
0.000953847 0.000306941 -2.81497e-05
0.000306941 -0.000188358 -2.05886e-05
-2.81497e-05 -2.05886e-05 -0.000327309
0.00202879 -9.47128e-05 1.54657e-05
-9.47128e-05 0.000110506 5.9754e-07
1.54657e-05 5.9754e-07 1.11873e-05
0.00113649 2.75973e-06 -1.73213e-05
2.75973e-06 -0.000370166 1.22206e-06
-1.73213e-05 1.22206e-06 -0.000609812
0.000263485 0.000271023 6.01871e-05
0.000271023 -0.00179212 -1.92491e-05
6.01871e-05 -1.92491e-05 -0.00241326
2.26655e-07 -7.80559e-05 1.89821e-06
-7.80559e-05 -0.000585195 1.24585e-05
1.89821e-06 1.24585e-05 -0.000662443
0.0023823 -1.34547e-05 1.14865e-05
-1.34547e-05 -8.20833e-05 1.19887e-05
1.14865e-05 1.19887e-05 -0.000443383
0.00164666 -9.5332e-05 -2.55609e-06
-9.5332e-05 1.64305e-05 -9.17637e-07
-2.55609e-06 -9.17637e-07 -4.46421e-05
0.00217165 -1.77695e-05 -2.48773e-06
-1.77695e-05 0.000194671 -7.20483e-07
-2.48773e-06 -7.20483e-07 0.00014096
0.00214177 -3.07708e-05 1.50862e-05
-3.07708e-05 0.000200671 -1.77353e-06
1.50862e-05 -1.77353e-06 0.000154502
0.00263715 -2.40565e-05 1.14052e-05
-2.40565e-05 0.000546437 5.87264e-07
1.14052e-05 5.87264e-07 0.000496295
0.00190887 -0.000202102 -4.14854e-06
-0.000202102 -1.14898e-05 2.90307e-07
-4.14854e-06 2.90307e-07 -2.50561e-05
0.00195722 -9.43329e-05 2.8809e-06
-9.43329e-05 4.17008e-05 -6.0853e-07
2.8809e-06 -6.0853e-07 1.80605e-05
0.00184439 -9.86671e-05 1.70444e-06
-9.86671e-05 7.8928e-05 2.07336e-07
1.70444e-06 2.07336e-07 2.97557e-05
0.00188967 -0.000170179 2.68613e-06
-0.000170179 4.1159e-05 1.09637e-06
2.68613e-06 1.09637e-06 -9.98652e-06
0.00181918 -0.000120652 8.36123e-07
-0.000120652 5.82203e-05 -1.20844e-08
8.36123e-07 -1.20844e-08 1.27459e-06
0.00177066 -0.000109987 3.19901e-06
-0.000109987 0.000101339 4.65434e-07
3.19901e-06 4.65434e-07 2.43593e-05
0.0017882 -0.000154548 -1.9684e-06
-0.000154548 9.28272e-05 1.591e-06
-1.9684e-06 1.591e-06 1.42498e-05
0.00180675 -0.000130162 -1.30652e-06
-0.000130162 0.000137589 2.33149e-08
-1.30652e-06 2.33149e-08 5.16285e-05
0.00163854 -0.00011402 2.27783e-06
-0.00011402 8.41978e-05 3.97582e-07
2.27783e-06 3.97582e-07 -2.16898e-05
0.00161797 -0.000144038 -3.30476e-06
-0.000144038 6.09304e-05 1.17936e-06
-3.30476e-06 1.17936e-06 -3.66225e-05
0.00162207 -0.000131165 3.75933e-07
-0.000131165 9.77032e-05 -2.91567e-07
3.75933e-07 -2.91567e-07 -1.22289e-05
0.0015657 -0.000125535 8.7244e-07
-0.000125535 0.000101703 2.19255e-07
8.7244e-07 2.19255e-07 -1.94707e-05
0.00164658 -0.000142096 -3.63925e-06
-0.000142096 0.00012327 1.6891e-06
-3.63925e-06 1.6891e-06 1.00489e-05
0.00160573 -0.000141125 -1.5426e-07
-0.000141125 0.000137617 -3.04277e-07
-1.5426e-07 -3.04277e-07 1.3935e-05
0.00146253 -0.000136417 -2.1358e-06
-0.000136417 9.79992e-05 1.21345e-07
-2.1358e-06 1.21345e-07 -3.05364e-05
0.00163056 -0.000165444 1.96619e-06
-0.000165444 0.000168006 8.16986e-07
1.96619e-06 8.16986e-07 3.23365e-05
0.00146033 -0.000157424 6.89609e-07
-0.000157424 0.000123502 -5.87251e-07
6.89609e-07 -5.87251e-07 -1.41111e-05
0.00134537 -0.000145645 -5.56216e-06
-0.000145645 0.000117044 1.63676e-06
-5.56216e-06 1.63676e-06 -1.42458e-05
0.000971482 -0.000117734 -6.70448e-06
-0.000117734 3.82252e-05 4.05289e-06
-6.70448e-06 4.05289e-06 -7.28458e-05
0.000990468 -0.000143159 -1.47541e-06
-0.000143159 -1.77233e-05 8.03183e-07
-1.47541e-06 8.03183e-07 -0.000156966
0.00131624 -0.000168393 2.55468e-06
-0.000168393 0.000110621 -1.65175e-07
2.55468e-06 -1.65175e-07 -4.3254e-05
0.000563196 -6.83949e-05 -9.64756e-06
-6.83949e-05 -7.33567e-05 8.5208e-06
-9.64756e-06 8.5208e-06 -0.000131598
0.000906337 -0.000109829 3.39601e-07
-0.000109829 5.37359e-05 2.65281e-08
3.39601e-07 2.65281e-08 -5.42927e-05
0.00113391 -0.000151896 3.54179e-06
-0.000151896 0.000128415 -1.73804e-06
3.54179e-06 -1.73804e-06 -1.09609e-05
0.00351388 0.000131932 -7.15741e-05
0.000131932 0.00160181 2.70853e-06
-7.15741e-05 2.70853e-06 0.00159362
0.00064131 -3.42027e-05 -5.4852e-08
-3.42027e-05 -2.74264e-05 -1.57067e-07
-5.4852e-08 -1.57067e-07 -7.70808e-05
0.000959194 -9.7195e-05 4.67518e-06
-9.7195e-05 0.000116427 -2.95426e-06
4.67518e-06 -2.95426e-06 1.5379e-05
0.00325521 0.000112874 2.42163e-06
0.000112874 0.00145156 2.77046e-07
2.42163e-06 2.77046e-07 0.00144883
0.000680795 -1.33899e-06 6.8171e-06
-1.33899e-06 1.08105e-06 -6.34807e-06
6.8171e-06 -6.34807e-06 -4.03909e-05
0.00298386 9.69146e-05 6.42438e-05
9.69146e-05 0.00129715 -2.96021e-06
6.42438e-05 -2.96021e-06 0.00129896
0.000929202 0.000146791 -6.23358e-07
0.000146791 5.13122e-05 -2.05157e-06
-6.23358e-07 -2.05157e-06 -9.30486e-05
0.0010112 0.000142141 -1.16231e-07
0.000142141 0.000149902 -1.13437e-06
-1.16231e-07 -1.13437e-06 1.92873e-05
0.00110965 0.000133481 -1.02485e-06
0.000133481 0.000203118 -1.34131e-06
-1.02485e-06 -1.34131e-06 8.65087e-05
0.00118313 0.000145876 -5.46514e-07
0.000145876 0.000265013 1.83023e-07
-5.46514e-07 1.83023e-07 0.000147905
0.000889908 7.69411e-05 -1.05095e-06
7.69411e-05 0.000101807 -6.48463e-07
-1.05095e-06 -6.48463e-07 -6.70282e-07
0.000776244 3.44336e-05 -2.19789e-06
3.44336e-05 4.98926e-05 -2.11931e-06
-2.19789e-06 -2.11931e-06 -3.31479e-05
0.000707476 2.50154e-05 -2.25321e-07
2.50154e-05 1.37909e-05 3.89373e-07
-2.25321e-07 3.89373e-07 -8.00723e-05
0.00069588 -2.54839e-05 -3.86323e-07
-2.54839e-05 6.32295e-06 -6.59075e-08
-3.86323e-07 -6.59075e-08 -6.28458e-05
0.000608741 -6.92723e-05 4.28843e-08
-6.92723e-05 -2.19817e-05 -5.49389e-06
4.28843e-08 -5.49389e-06 -5.48485e-05
0.000684422 -5.73932e-05 4.76104e-07
-5.73932e-05 -3.61781e-07 2.81163e-06
4.76104e-07 2.81163e-06 -5.98001e-05
0.000613361 -6.64436e-05 2.29699e-07
-6.64436e-05 -2.79563e-05 -1.13204e-07
2.29699e-07 -1.13204e-07 -5.40461e-05
0.0025065 -9.04111e-05 -4.32061e-05
-9.04111e-05 0.001029 -2.42411e-06
-4.32061e-05 -2.42411e-06 0.0010344
0.000623344 -5.1912e-05 1.74652e-06
-5.1912e-05 -3.49619e-05 4.27317e-06
1.74652e-06 4.27317e-06 -5.50341e-05
0.00237842 -8.15901e-05 -8.04009e-07
-8.15901e-05 0.000950932 1.30404e-07
-8.04009e-07 1.30404e-07 0.000958763
0.00234662 -7.26907e-05 3.19404e-05
-7.26907e-05 0.000924677 3.3426e-06
3.19404e-05 3.3426e-06 0.000934766
0.000299769 2.16077e-05 8.27906e-06
2.16077e-05 -0.000563871 3.20287e-06
8.27906e-06 3.20287e-06 -0.000590792
0.00379349 2.97509e-05 6.11428e-06
2.97509e-05 0.00048684 1.06479e-05
6.11428e-06 1.06479e-05 0.000132826
0.00673965 0.000261149 -9.80611e-05
0.000261149 0.0019515 -2.47272e-05
-9.80611e-05 -2.47272e-05 0.000985687
0.000803126 0.000142573 2.58441e-06
0.000142573 -7.48144e-05 4.95146e-07
2.58441e-06 4.95146e-07 -0.000206696
0.00145338 0.000188656 3.5807e-06
0.000188656 0.000150436 -3.19314e-06
3.5807e-06 -3.19314e-06 1.87877e-07
0.000907549 0.00015287 -7.12223e-08
0.00015287 3.20194e-05 -1.55394e-06
-7.12223e-08 -1.55394e-06 -0.000111228
0.0010589 0.000147049 -1.41438e-06
0.000147049 0.000227203 -4.09532e-07
-1.41438e-06 -4.09532e-07 9.95883e-05
0.000962018 0.000147272 -1.24147e-06
0.000147272 0.000136271 -7.95021e-07
-1.24147e-06 -7.95021e-07 -2.70857e-06
0.00111172 0.000166978 4.34413e-06
0.000166978 0.000159649 2.07652e-06
4.34413e-06 2.07652e-06 3.3244e-05
0.00205978 0.000263561 -6.31636e-06
0.000263561 0.000395641 -5.25191e-06
-6.31636e-06 -5.25191e-06 0.000250897
0.00157128 0.000204233 6.96391e-08
0.000204233 0.000395095 2.07917e-06
6.96391e-08 2.07917e-06 0.000265484
0.00117832 0.00021082 3.17417e-06
0.00021082 2.40928e-05 1.25078e-05
3.17417e-06 1.25078e-05 -0.000118105
0.00174566 0.000270151 -8.13988e-07
0.000270151 0.000194557 1.0319e-06
-8.13988e-07 1.0319e-06 4.38463e-05
0.00221541 0.000272588 -6.61088e-06
0.000272588 0.000326215 2.60948e-06
-6.61088e-06 2.60948e-06 0.000186923
0.00122201 0.000109062 1.38977e-05
0.000109062 -0.000233512 4.46793e-06
1.38977e-05 4.46793e-06 -0.000306334
0.0016365 0.000238531 8.24699e-06
0.000238531 5.35208e-05 2.43222e-06
8.24699e-06 2.43222e-06 -6.70601e-05
0.00119831 0.000270238 -5.85465e-06
0.000270238 -0.000131228 -3.09908e-06
-5.85465e-06 -3.09908e-06 -0.000290905
0.000942044 0.000142422 -4.2525e-06
0.000142422 -0.00011458 1.33806e-06
-4.2525e-06 1.33806e-06 -0.00012393
0.00473333 0.000101461 4.44233e-05
0.000101461 0.000509783 4.91662e-06
4.44233e-05 4.91662e-06 9.29223e-05
0.00108177 0.000245277 2.79276e-06
0.000245277 -4.24044e-05 -9.53072e-06
2.79276e-06 -9.53072e-06 -6.81527e-05
0.00156361 -2.6775e-05 1.13865e-05
-2.6775e-05 2.36266e-05 1.30857e-06
1.13865e-05 1.30857e-06 -2.68049e-05
0.00204949 -4.93493e-05 -4.96512e-06
-4.93493e-05 0.000157733 -1.8774e-07
-4.96512e-06 -1.8774e-07 7.11323e-05
0.00215551 0.000125588 5.75915e-05
0.000125588 -8.70712e-05 -4.3894e-06
5.75915e-05 -4.3894e-06 -0.000372347
-0.00123739 -5.08814e-05 -1.30445e-05
-5.08814e-05 -0.0015346 8.06659e-06
-1.30445e-05 8.06659e-06 -0.00155567
0.00223994 -4.42742e-05 -5.22381e-05
-4.42742e-05 0.000230166 5.96008e-06
-5.22381e-05 5.96008e-06 0.000172413
0.00153423 -6.37278e-05 6.19253e-07
-6.37278e-05 -0.000162228 1.94613e-06
6.19253e-07 1.94613e-06 -0.000196521
0.00221215 -3.86132e-05 -1.10678e-06
-3.86132e-05 0.000271808 1.69279e-07
-1.10678e-06 1.69279e-07 0.000220066
0.00193817 -0.000105784 5.57934e-06
-0.000105784 7.70292e-05 1.43415e-06
5.57934e-06 1.43415e-06 3.28452e-05
0.00175329 -3.37155e-05 2.23281e-06
-3.37155e-05 -1.49013e-05 2.98962e-07
2.23281e-06 2.98962e-07 -7.8174e-05
0.00207485 -0.000103735 -2.02725e-07
-0.000103735 8.77886e-05 4.14609e-07
-2.02725e-07 4.14609e-07 6.31691e-05
0.0017992 -9.75808e-05 -1.62156e-06
-9.75808e-05 4.89217e-05 1.9864e-07
-1.62156e-06 1.9864e-07 1.94098e-06
0.00185573 -9.99893e-05 3.35446e-06
-9.99893e-05 0.000106335 3.79717e-07
3.35446e-06 3.79717e-07 3.54276e-05
0.00194508 -0.0001333 -2.62985e-06
-0.0001333 0.00012244 -1.77042e-07
-2.62985e-06 -1.77042e-07 6.1788e-05
0.00176004 -0.000110049 -2.50758e-07
-0.000110049 9.74592e-05 -2.31275e-07
-2.50758e-07 -2.31275e-07 1.84647e-05
0.00170737 -9.631e-05 2.29912e-06
-9.631e-05 8.91374e-05 1.46686e-07
2.29912e-06 1.46686e-07 -8.7003e-06
0.00169944 -0.000132894 -6.21042e-06
-0.000132894 8.14503e-05 -6.91876e-08
-6.21042e-06 -6.91876e-08 -5.63647e-06
0.00165788 -0.000113564 9.33929e-08
-0.000113564 9.60374e-05 4.04925e-08
9.33929e-08 4.04925e-08 -9.67749e-06
0.0016105 -0.000104926 5.84531e-07
-0.000104926 0.000106748 5.2444e-07
5.84531e-07 5.2444e-07 -1.25568e-05
0.00162753 -0.000131152 -2.49462e-06
-0.000131152 0.000102199 -2.92516e-07
-2.49462e-06 -2.92516e-07 -7.61952e-06
0.0015844 -0.000125592 1.40058e-07
-0.000125592 0.000110329 -1.62752e-07
1.40058e-07 -1.62752e-07 -1.06937e-05
0.00151805 -0.000123904 -1.68861e-06
-0.000123904 0.000112246 7.42874e-07
-1.68861e-06 7.42874e-07 -1.40691e-05
0.00153737 -0.000137435 -5.09303e-07
-0.000137435 9.75234e-05 3.1849e-07
-5.09303e-07 3.1849e-07 -2.50356e-05
0.00138549 -0.000133719 -2.44293e-07
-0.000133719 5.56972e-05 -2.26524e-07
-2.44293e-07 -2.26524e-07 -7.27603e-05
0.00135032 -0.000129842 -5.4785e-06
-0.000129842 9.06556e-05 1.49042e-06
-5.4785e-06 1.49042e-06 -3.44758e-05
0.00128066 -0.00014957 3.59652e-06
-0.00014957 2.37576e-05 -2.38747e-07
3.59652e-06 -2.38747e-07 -0.000114294
0.00112761 -0.000135045 2.14736e-07
-0.000135045 -9.5542e-07 7.24943e-09
2.14736e-07 7.24943e-09 -0.000132084
0.00104397 -0.000115105 -8.6167e-06
-0.000115105 3.07409e-05 4.07419e-06
-8.6167e-06 4.07419e-06 -7.73812e-05
0.000484832 -9.98919e-05 -1.32309e-05
-9.98919e-05 -0.000133567 9.24534e-06
-1.32309e-05 9.24534e-06 -0.000196191
0.000973651 -0.000118922 3.88625e-07
-0.000118922 3.97375e-05 2.06963e-07
3.88625e-07 2.06963e-07 -7.15799e-05
0.0011234 -0.000149132 2.89966e-06
-0.000149132 5.88028e-05 -6.54266e-07
2.89966e-06 -6.54266e-07 -8.00383e-05
0.00383963 0.000148585 -7.84541e-05
0.000148585 0.00179431 3.36959e-06
-7.84541e-05 3.36959e-06 0.00177981
0.000654666 -6.39386e-05 -6.07963e-08
-6.39386e-05 -2.75612e-05 9.86137e-08
-6.07963e-08 9.86137e-08 -8.634e-05
0.000985516 -0.000115422 5.52917e-06
-0.000115422 9.76082e-05 -3.32336e-06
5.52917e-06 -3.32336e-06 -1.14864e-05
0.00361815 0.000125289 3.84305e-06
0.000125289 0.00165929 4.06649e-07
3.84305e-06 4.06649e-07 0.00165168
0.000749536 -3.65576e-05 9.00901e-06
-3.65576e-05 2.76837e-05 -7.40934e-06
9.00901e-06 -7.40934e-06 -2.24181e-05
0.00335198 0.000104878 7.76486e-05
0.000104878 0.00150324 -3.22125e-06
7.76486e-05 -3.22125e-06 0.00150148
0.0006821 0.000140936 -1.55484e-06
0.000140936 -0.000182368 -1.36536e-06
-1.55484e-06 -1.36536e-06 -0.00033571
0.000695135 0.000133206 -1.77064e-07
0.000133206 -7.82578e-05 -2.16206e-08
-1.77064e-07 -2.16206e-08 -0.000222851
0.00113131 0.000144552 -2.59745e-06
0.000144552 0.000171485 -1.7889e-06
-2.59745e-06 -1.7889e-06 4.14788e-05
0.000931419 0.000136531 -4.94031e-07
0.000136531 0.000107243 2.33422e-07
-4.94031e-07 2.33422e-07 -2.25455e-05
0.000985136 0.000124471 -3.21056e-07
0.000124471 0.000136881 -4.24187e-07
-3.21056e-07 -4.24187e-07 2.15519e-05
0.000916376 6.9663e-05 -3.54378e-06
6.9663e-05 0.000117489 -2.13773e-06
-3.54378e-06 -2.13773e-06 2.45112e-05
0.0008798 8.10751e-05 -5.75325e-08
8.10751e-05 9.52868e-05 -4.01472e-07
-5.75325e-08 -4.01472e-07 -6.1942e-06
0.000749538 1.99062e-05 -1.46166e-07
1.99062e-05 3.74171e-05 1.22957e-07
-1.46166e-07 1.22957e-07 -4.53991e-05
0.000627775 -4.22989e-05 -3.71832e-06
-4.22989e-05 -1.5324e-05 -5.60817e-06
-3.71832e-06 -5.60817e-06 -5.37885e-05
0.000702327 -5.24462e-05 2.36529e-07
-5.24462e-05 1.2293e-05 3.02585e-06
2.36529e-07 3.02585e-06 -5.72692e-05
0.000576779 -7.67741e-05 -2.90753e-08
-7.67741e-05 -3.77746e-05 -2.06413e-07
-2.90753e-08 -2.06413e-07 -7.18165e-05
0.00270513 -9.95682e-05 -5.18511e-05
-9.95682e-05 0.00114323 -2.28822e-06
-5.18511e-05 -2.28822e-06 0.00114586
0.000587985 -6.15924e-05 1.34534e-06
-6.15924e-05 -4.40079e-05 4.5402e-06
1.34534e-06 4.5402e-06 -6.8768e-05
0.00246838 -9.0761e-05 -8.2323e-07
-9.0761e-05 0.0010078 1.26568e-07
-8.2323e-07 1.26568e-07 0.00101316
0.00236621 -8.09865e-05 3.51296e-05
-8.09865e-05 0.000943402 2.98157e-06
3.51296e-05 2.98157e-06 0.000951397
0.0013941 3.93534e-05 9.28945e-06
3.93534e-05 -0.000140379 1.8641e-06
9.28945e-06 1.8641e-06 -0.000195388
0.00140656 -1.05258e-05 -2.9492e-06
-1.05258e-05 -8.57792e-05 3.48809e-06
-2.9492e-06 3.48809e-06 -0.000141147
0.00274883 -1.0524e-05 6.41541e-05
-1.0524e-05 -5.77306e-05 2.04936e-06
6.41541e-05 2.04936e-06 -0.000314158
0.0017577 0.000209055 -4.96673e-07
0.000209055 0.000243353 -4.71603e-06
-4.96673e-07 -4.71603e-06 0.000102555
0.000772968 0.000145273 -1.13416e-06
0.000145273 -7.14831e-05 1.27688e-06
-1.13416e-06 1.27688e-06 -0.000193194
0.00148634 0.000177841 -1.61632e-06
0.000177841 5.24188e-05 1.43323e-06
-1.61632e-06 1.43323e-06 -8.368e-05
0.00163586 0.000199474 8.2353e-07
0.000199474 0.000246979 3.06588e-07
8.2353e-07 3.06588e-07 9.52542e-05
0.000447105 0.00012723 -4.12149e-06
0.00012723 -0.000208768 1.8238e-06
-4.12149e-06 1.8238e-06 -0.000348111
0.00178608 0.000217384 -4.38363e-06
0.000217384 0.000108359 1.41176e-06
-4.38363e-06 1.41176e-06 -2.66279e-05
0.00148275 0.000194068 -4.50999e-07
0.000194068 0.000343701 1.03727e-06
-4.50999e-07 1.03727e-06 0.000212549
0.00192825 0.000255722 4.48052e-08
0.000255722 0.000316246 -2.53337e-06
4.48052e-08 -2.53337e-06 0.000168173
0.00181059 0.000147838 -4.00859e-06
0.000147838 7.86739e-05 1.85422e-06
-4.00859e-06 1.85422e-06 -2.52771e-05
0.00206987 0.000286218 3.6379e-06
0.000286218 0.000370455 4.00774e-06
3.6379e-06 4.00774e-06 0.000220495
0.00205775 0.000265913 -1.41177e-06
0.000265913 0.000239164 4.36724e-08
-1.41177e-06 4.36724e-08 0.000100958
0.00130506 0.000119292 -4.86602e-07
0.000119292 -0.00016657 -1.37475e-07
-4.86602e-07 -1.37475e-07 -0.000240127
0.00123712 0.000215473 -3.53548e-06
0.000215473 -0.000137239 -3.70082e-06
-3.53548e-06 -3.70082e-06 -0.000259653
0.00121386 0.000129364 -1.72584e-05
0.000129364 2.2441e-05 -2.76873e-06
-1.72584e-05 -2.76873e-06 6.24247e-06
0.00169113 4.63091e-06 -1.62587e-06
4.63091e-06 -3.75533e-05 5.73846e-07
-1.62587e-06 5.73846e-07 -0.000106207
0.00195017 -7.57926e-06 -1.93214e-06
-7.57926e-06 0.000239956 -3.99123e-07
-1.93214e-06 -3.99123e-07 0.000189012
0.00160112 2.65045e-06 -3.5253e-05
2.65045e-06 -4.55264e-05 -3.43218e-07
-3.5253e-05 -3.43218e-07 -0.000134891
0.000807889 -9.29904e-05 -8.41703e-06
-9.29904e-05 -0.000600282 1.30489e-06
-8.41703e-06 1.30489e-06 -0.000623178
0.00169614 -5.27817e-05 -6.5489e-06
-5.27817e-05 -5.21376e-05 -1.36981e-06
-6.5489e-06 -1.36981e-06 -0.00010565
0.00195452 -0.000100888 -1.12732e-06
-0.000100888 8.99301e-05 2.95424e-07
-1.12732e-06 2.95424e-07 4.62682e-05
0.00182793 -3.45863e-05 1.25458e-06
-3.45863e-05 2.55324e-05 -1.68504e-07
1.25458e-06 -1.68504e-07 -3.74269e-05
0.00179755 -5.29528e-05 1.34999e-06
-5.29528e-05 4.19696e-05 6.33694e-08
1.34999e-06 6.33694e-08 -3.0648e-05
0.00173092 -9.6395e-05 -3.24146e-06
-9.6395e-05 6.84175e-06 -7.04815e-07
-3.24146e-06 -7.04815e-07 -3.83244e-05
0.00183816 -9.66979e-05 4.56727e-07
-9.66979e-05 0.000102043 -3.77218e-08
4.56727e-07 -3.77218e-08 2.99676e-05
0.00182674 -7.8916e-05 1.36578e-06
-7.8916e-05 0.000111727 -3.88767e-07
1.36578e-06 -3.88767e-07 2.05327e-05
0.00176447 -0.000111072 -4.77935e-06
-0.000111072 0.00010136 -4.27784e-07
-4.77935e-06 -4.27784e-07 2.03755e-05
0.00168776 -9.60751e-05 -7.30782e-08
-9.60751e-05 8.25151e-05 7.12814e-08
-7.30782e-08 7.12814e-08 -1.70021e-05
0.00167081 -7.9024e-05 6.60462e-07
-7.9024e-05 0.000112175 1.17732e-07
6.60462e-07 1.17732e-07 -4.52889e-06
0.00167907 -0.000113073 -2.15909e-06
-0.000113073 0.000108771 -2.9011e-07
-2.15909e-06 -2.9011e-07 3.23771e-06
0.00161332 -0.000104072 2.36331e-08
-0.000104072 0.000106536 1.19045e-07
2.36331e-08 1.19045e-07 -1.26275e-05
0.00154566 -0.000102107 -1.68742e-06
-0.000102107 0.000112237 7.93585e-07
-1.68742e-06 7.93585e-07 -1.29414e-05
0.0016073 -0.000125867 -5.53126e-07
-0.000125867 0.000121075 -5.24024e-07
-5.53126e-07 -5.24024e-07 1.93518e-07
0.00150877 -0.000122978 1.8458e-08
-0.000122978 0.000107268 -4.50766e-08
1.8458e-08 -4.50766e-08 -1.89308e-05
0.00137395 -0.000115086 -4.90229e-06
-0.000115086 8.51001e-05 1.62099e-06
-4.90229e-06 1.62099e-06 -3.75339e-05
0.0013013 -0.000130668 1.91442e-06
-0.000130668 9.43941e-06 -5.59723e-07
1.91442e-06 -5.59723e-07 -0.000118896
0.00132507 -0.000127889 -1.0141e-07
-0.000127889 7.77099e-05 -4.78292e-08
-1.0141e-07 -4.78292e-08 -4.71956e-05
0.00108488 -0.000104589 -9.7199e-06
-0.000104589 2.51094e-05 3.94273e-06
-9.7199e-06 3.94273e-06 -7.94947e-05
0.000906604 -0.00012417 4.97143e-06
-0.00012417 -0.000120687 -1.11096e-06
4.97143e-06 -1.11096e-06 -0.000251628
0.00103196 -0.00011408 3.38638e-07
-0.00011408 2.45333e-05 1.22631e-07
3.38638e-07 1.22631e-07 -8.35603e-05
0.00208771 -2.80235e-05 -8.66737e-06
-2.80235e-05 0.000750841 6.75173e-06
-8.66737e-06 6.75173e-06 0.00068762
0.00117926 -1.35236e-06 -9.90352e-05
-1.35236e-06 0.00029813 1.00263e-05
-9.90352e-05 1.00263e-05 0.000278934
0.00141346 -6.25836e-05 1.15799e-06
-6.25836e-05 0.00038286 7.15965e-08
1.15799e-06 7.15965e-08 0.000319022
0.000982152 -0.000120429 7.05114e-06
-0.000120429 4.51049e-05 -3.4288e-06
7.05114e-06 -3.4288e-06 -6.65554e-05
0.00400476 0.000130138 7.26703e-06
0.000130138 0.0018835 5.76091e-07
7.26703e-06 5.76091e-07 0.00187092
0.000778059 -8.27204e-05 1.20403e-05
-8.27204e-05 3.40413e-05 -8.62208e-06
1.20403e-05 -8.62208e-06 -2.5468e-05
0.0036915 0.000103622 9.33095e-05
0.000103622 0.00169767 -4.08752e-06
9.33095e-05 -4.08752e-06 0.00169261
0.00191063 0.000164171 -1.49122e-07
0.000164171 0.000259317 4.89195e-07
-1.49122e-07 4.89195e-07 0.00013182
0.00100786 0.000154308 -7.44915e-07
0.000154308 -0.000109792 1.61982e-06
-7.44915e-07 1.61982e-06 -0.000252725
0.000937683 0.000156895 -2.8656e-07
0.000156895 -5.1818e-05 -1.74784e-07
-2.8656e-07 -1.74784e-07 -0.000207501
0.00112749 0.000149734 -3.6658e-06
0.000149734 0.000109591 -1.92184e-06
-3.6658e-06 -1.92184e-06 -2.94513e-05
0.000465806 0.000119947 3.67487e-07
0.000119947 -0.000205095 2.40696e-06
3.67487e-07 2.40696e-06 -0.000349994
0.0010407 0.000137721 -5.08897e-07
0.000137721 0.000124907 -8.24426e-08
-5.08897e-07 -8.24426e-08 -4.17951e-06
0.000985858 0.000100188 -4.63549e-06
0.000100188 0.000128332 -2.52431e-06
-4.63549e-06 -2.52431e-06 2.76312e-05
0.000868632 0.000115905 9.93561e-07
0.000115905 7.49812e-05 7.98422e-07
9.93561e-07 7.98422e-07 -3.91129e-05
0.000801354 6.06746e-05 -2.95177e-07
6.06746e-05 5.59424e-05 2.47076e-08
-2.95177e-07 2.47076e-08 -3.59834e-05
0.00070704 8.9264e-06 -6.9869e-06
8.9264e-06 1.71148e-05 -6.23511e-06
-6.9869e-06 -6.23511e-06 -2.76488e-05
0.000727053 4.52192e-06 1.07793e-06
4.52192e-06 2.48679e-05 2.13398e-06
1.07793e-06 2.13398e-06 -5.61591e-05
0.000567676 -5.11807e-05 -5.69165e-07
-5.11807e-05 -4.76599e-05 -2.10117e-07
-5.69165e-07 -2.10117e-07 -8.56183e-05
0.0029681 -0.000108365 -6.35034e-05
-0.000108365 0.00129329 -2.30746e-06
-6.35034e-05 -2.30746e-06 0.00129245
0.000533953 -7.54789e-05 -3.20055e-07
-7.54789e-05 -6.23648e-05 5.30033e-06
-3.20055e-07 5.30033e-06 -9.56732e-05
0.00263342 -0.00010103 -1.17214e-06
-0.00010103 0.00110437 1.45961e-07
-1.17214e-06 1.45961e-07 0.00110678
0.00243212 -9.02555e-05 3.83757e-05
-9.02555e-05 0.00098745 2.58208e-06
3.83757e-05 2.58208e-06 0.000992965
0.00180906 7.75908e-05 -2.47496e-06
7.75908e-05 3.65088e-05 1.4514e-06
-2.47496e-06 1.4514e-06 -4.42661e-05
0.00184217 3.48492e-05 1.22098e-06
3.48492e-05 0.000109461 -6.35562e-07
1.22098e-06 -6.35562e-07 5.66506e-05
0.00303736 -4.19692e-05 -2.84069e-05
-4.19692e-05 0.000655075 -4.92557e-06
-2.84069e-05 -4.92557e-06 0.000568851
0.00170098 0.000179639 -2.99862e-06
0.000179639 9.09702e-05 3.88861e-07
-2.99862e-06 3.88861e-07 -3.93669e-05
0.00168199 0.000203981 -2.58349e-06
0.000203981 0.000225191 8.36091e-08
-2.58349e-06 8.36091e-08 8.76669e-05
0.000763867 0.000149292 -1.05849e-05
0.000149292 -5.76609e-05 3.353e-06
-1.05849e-05 3.353e-06 -0.000169345
0.00173041 0.000184783 1.76849e-06
0.000184783 0.000184542 3.28228e-07
1.76849e-06 3.28228e-07 4.81538e-05
0.00182666 0.00021087 -1.54224e-06
0.00021087 0.00034879 2.76154e-07
-1.54224e-06 2.76154e-07 0.000195466
0.00207193 0.000147965 -3.55047e-06
0.000147965 0.000210994 1.42155e-06
-3.55047e-06 1.42155e-06 0.000107999
0.00172326 0.000217624 -1.44204e-06
0.000217624 7.52739e-05 4.89152e-07
-1.44204e-06 4.89152e-07 -6.09122e-05
0.00184933 0.000250965 2.89227e-06
0.000250965 0.000263968 7.23009e-07
2.89227e-06 7.23009e-07 0.000112167
0.00180768 0.00014787 -4.88518e-07
0.00014787 7.2111e-05 1.46334e-07
-4.88518e-07 1.46334e-07 -3.20398e-05
0.00201658 0.000263856 5.72744e-06
0.000263856 0.000207978 -7.08315e-07
5.72744e-06 -7.08315e-07 7.07427e-05
0.00153146 0.00013238 -1.7199e-05
0.00013238 -4.07653e-05 -5.73132e-06
-1.7199e-05 -5.73132e-06 -0.000113962
0.00195531 1.15101e-05 4.97124e-08
1.15101e-05 0.000120266 2.46785e-07
4.97124e-08 2.46785e-07 4.59633e-05
0.00178168 8.53253e-06 5.51506e-07
8.53253e-06 1.3436e-05 -4.03041e-07
5.51506e-07 -4.03041e-07 -5.43503e-05
0.00234745 1.12793e-05 -1.71249e-05
1.12793e-05 0.000459907 -1.37517e-06
-1.71249e-05 -1.37517e-06 0.00040829
0.00205329 -9.73788e-05 -1.02363e-05
-9.73788e-05 0.000145463 -9.34724e-07
-1.02363e-05 -9.34724e-07 0.000102332
0.00193181 -3.47231e-05 -2.06621e-06
-3.47231e-05 7.92964e-05 -5.7384e-07
-2.06621e-06 -5.7384e-07 1.66742e-05
0.00181339 -5.23149e-05 5.29335e-07
-5.23149e-05 4.28454e-05 8.86174e-08
5.29335e-07 8.86174e-08 -2.68533e-05
0.00186315 -3.40654e-05 3.9876e-07
-3.40654e-05 0.000107597 -1.74906e-07
3.9876e-07 -1.74906e-07 1.68675e-05
0.00184393 -9.39566e-05 -1.41525e-06
-9.39566e-05 0.000109897 -3.39344e-07
-1.41525e-06 -3.39344e-07 3.66794e-05
0.00181201 -7.94804e-05 -3.81013e-07
-7.94804e-05 0.000109378 -1.67689e-07
-3.81013e-07 -1.67689e-07 1.74903e-05
0.00174336 -5.9208e-05 1.56337e-06
-5.9208e-05 0.000116186 -8.80353e-07
1.56337e-06 -8.80353e-07 3.11049e-06
0.00166474 -9.58261e-05 -2.2811e-06
-9.58261e-05 7.4008e-05 1.55424e-07
-2.2811e-06 1.55424e-07 -2.71991e-05
0.00165832 -7.88955e-05 -1.63925e-07
-7.88955e-05 0.000104675 1.22701e-07
-1.63925e-07 1.22701e-07 -1.19357e-05
0.0015768 -7.19754e-05 -1.60298e-06
-7.19754e-05 0.000113751 6.57657e-07
-1.60298e-06 6.57657e-07 -1.0955e-05
0.00161658 -0.00010313 -3.44518e-07
-0.00010313 0.000106592 -2.91363e-07
-3.44518e-07 -2.91363e-07 -1.2414e-05
0.00153226 -0.000101158 -4.56332e-08
-0.000101158 0.0001045 5.6336e-08
-4.56332e-08 5.6336e-08 -2.05885e-05
0.00139743 -9.61456e-05 -4.76993e-06
-9.61456e-05 8.25277e-05 1.4831e-06
-4.76993e-06 1.4831e-06 -3.93465e-05
0.00149674 -0.000121985 1.86008e-06
-0.000121985 0.000100871 -8.34145e-07
1.86008e-06 -8.34145e-07 -2.5218e-05
0.00136836 -0.000114034 -2.55164e-08
-0.000114034 8.20529e-05 3.87966e-08
-2.55164e-08 3.87966e-08 -4.04342e-05
0.00110688 -9.29566e-05 -9.97861e-06
-9.29566e-05 2.1068e-05 3.65818e-06
-9.97861e-06 3.65818e-06 -8.23354e-05
0.00130109 -0.000126003 5.01862e-06
-0.000126003 6.54071e-05 -1.53205e-06
5.01862e-06 -1.53205e-06 -5.92732e-05
0.00107217 -0.000102888 2.69509e-07
-0.000102888 1.75767e-05 1.54143e-08
2.69509e-07 1.54143e-08 -8.68029e-05
0.0021814 -4.58849e-05 -1.54979e-05
-4.58849e-05 0.000780134 5.47422e-06
-1.54979e-05 5.47422e-06 0.000724409
0.00100955 -0.000112817 8.59715e-06
-0.000112817 1.28331e-05 -3.70006e-06
8.59715e-06 -3.70006e-06 -9.52566e-05
0.00228704 -7.76829e-05 2.77349e-05
-7.76829e-05 0.00084681 -2.04721e-06
2.77349e-05 -2.04721e-06 0.000790905
0.00148343 -4.20557e-05 -0.000118398
-4.20557e-05 0.000467253 1.30431e-05
-0.000118398 1.30431e-05 0.000446799
0.00276093 3.25769e-05 -0.000102104
3.25769e-05 0.00118905 3.05245e-06
-0.000102104 3.05245e-06 0.00117364
0.00236963 -0.0001018 6.522e-05
-0.0001018 0.000902441 -8.31618e-06
6.522e-05 -8.31618e-06 0.000850029
0.00414457 9.44215e-05 0.000108939
9.44215e-05 0.00195768 -6.48206e-06
0.000108939 -6.48206e-06 0.0019479
0.00175697 0.000141459 -2.78661e-06
0.000141459 0.000152419 -5.31439e-07
-2.78661e-06 -5.31439e-07 2.69282e-05
0.00175074 0.000167404 1.28352e-06
0.000167404 0.000240485 4.95792e-07
1.28352e-06 4.95792e-07 0.00010974
0.00170507 0.000156822 8.48765e-07
0.000156822 0.000151579 3.05602e-07
8.48765e-07 3.05602e-07 2.60114e-05
0.00115695 0.000151614 -5.01494e-06
0.000151614 4.82844e-05 -4.62922e-07
-5.01494e-06 -4.62922e-07 -9.00391e-05
0.00124977 0.000167724 -1.93988e-07
0.000167724 1.83037e-05 5.99675e-07
-1.93988e-07 5.99675e-07 -0.000126366
0.00116569 0.000171547 1.88291e-06
0.000171547 6.40815e-05 1.07e-06
1.88291e-06 1.07e-06 -9.38578e-05
0.00112692 0.000150166 -3.98011e-07
0.000150166 0.000110515 -1.91199e-09
-3.98011e-07 -1.91199e-09 -2.88783e-05
0.000989869 0.000116483 -5.94561e-06
0.000116483 8.75198e-05 -3.53611e-06
-5.94561e-06 -3.53611e-06 -2.15699e-05
0.000947644 0.000130718 1.53876e-06
0.000130718 7.69365e-05 1.5917e-06
1.53876e-06 1.5917e-06 -5.1205e-05
0.000858976 9.25033e-05 -3.39816e-07
9.25033e-05 5.93256e-05 -8.24442e-08
-3.39816e-07 -8.24442e-08 -3.99436e-05
0.000772666 5.09061e-05 -9.49029e-06
5.09061e-05 4.50532e-05 -7.27481e-06
-9.49029e-06 -7.27481e-06 -8.99435e-06
0.000677176 5.29267e-05 1.75133e-06
5.29267e-05 -1.13791e-05 1.66282e-06
1.75133e-06 1.66282e-06 -0.000101674
0.00060682 -1.32434e-05 2.76514e-07
-1.32434e-05 -3.25716e-05 -2.39815e-07
2.76514e-07 -2.39815e-07 -7.77984e-05
0.0032896 -0.000106068 -8.15399e-05
-0.000106068 0.00147945 -2.98665e-06
-8.15399e-05 -2.98665e-06 0.00147556
0.000503198 -7.97626e-05 -1.75987e-06
-7.97626e-05 -7.36686e-05 6.30026e-06
-1.75987e-06 6.30026e-06 -0.000116553
0.00290202 -0.000113749 -1.9045e-06
-0.000113749 0.00125771 2.33879e-07
-1.9045e-06 2.33879e-07 0.00125612
0.00258759 -0.000101352 4.29059e-05
-0.000101352 0.00107925 2.22597e-06
4.29059e-05 2.22597e-06 0.00108177
0.00188011 7.88647e-05 -1.69054e-06
7.88647e-05 8.05377e-05 1.1786e-06
-1.69054e-06 1.1786e-06 -5.5617e-06
0.00177511 7.70488e-05 8.13927e-07
7.70488e-05 2.42492e-05 -1.50575e-07
8.13927e-07 -1.50575e-07 -5.64408e-05
0.00219368 2.89482e-05 -2.87389e-05
2.89482e-05 0.000326229 -4.47985e-06
-2.87389e-05 -4.47985e-06 0.000275772
0.00188694 0.000132464 9.59724e-08
0.000132464 0.000141544 1.35681e-06
9.59724e-08 1.35681e-06 2.89742e-05
0.00175236 0.000178171 -9.43425e-07
0.000178171 0.000123658 -4.22234e-07
-9.43425e-07 -4.22234e-07 -5.98058e-06
0.0016055 0.000198389 -1.69963e-06
0.000198389 0.000206135 1.59942e-06
-1.69963e-06 1.59942e-06 7.20329e-05
0.00195054 0.000190539 1.07081e-06
0.000190539 0.000303568 -7.59303e-07
1.07081e-06 -7.59303e-07 0.000166981
0.00190416 0.000141943 2.87708e-07
0.000141943 0.000120361 -2.32805e-08
2.87708e-07 -2.32805e-08 1.61461e-05
0.00164647 0.00021729 4.00691e-07
0.00021729 3.58151e-05 -9.23079e-07
4.00691e-07 -9.23079e-07 -0.00010153
0.00177607 0.000146778 5.01096e-06
0.000146778 6.11191e-05 -1.4144e-06
5.01096e-06 -1.4144e-06 -4.32499e-05
0.00185736 1.71925e-05 1.44042e-06
1.71925e-05 9.39046e-05 5.08656e-07
1.44042e-06 5.08656e-07 6.11584e-06
0.00188503 1.19311e-05 -3.32343e-07
1.19311e-05 8.3895e-05 -3.81234e-08
-3.32343e-07 -3.81234e-08 7.90282e-06
0.00185043 1.21946e-05 -1.65054e-06
1.21946e-05 5.70009e-05 -1.30229e-06
-1.65054e-06 -1.30229e-06 -9.92738e-06
0.00168437 -6.77597e-06 -1.62948e-07
-6.77597e-06 2.2254e-05 8.86713e-08
-1.62948e-07 8.86713e-08 -7.53616e-05
0.00181592 -5.11564e-05 -1.49077e-06
-5.11564e-05 3.83687e-05 -3.69952e-08
-1.49077e-06 -3.69952e-08 -2.84211e-05
0.00185342 -3.48127e-05 -3.34673e-07
-3.48127e-05 0.000102137 3.99235e-07
-3.34673e-07 3.99235e-07 1.11546e-05
0.00189396 -3.30884e-05 1.04257e-06
-3.30884e-05 0.000172298 -6.83072e-07
1.04257e-06 -6.83072e-07 6.52335e-05
0.00179728 -8.01309e-05 -2.20846e-06
-8.01309e-05 0.000106995 2.4775e-07
-2.20846e-06 2.4775e-07 1.44301e-05
0.0017342 -5.91064e-05 3.69562e-07
-5.91064e-05 0.000110759 -3.35674e-07
3.69562e-07 -3.35674e-07 -2.20198e-06
0.00159758 -4.18974e-05 -1.63066e-06
-4.18974e-05 0.000101322 2.62893e-07
-1.63066e-06 2.62893e-07 -2.25761e-05
0.00165017 -7.82164e-05 -4.80545e-07
-7.82164e-05 9.9657e-05 9.57903e-08
-4.80545e-07 9.57903e-08 -1.68133e-05
0.00155204 -7.02535e-05 -9.35154e-08
-7.02535e-05 9.84393e-05 2.7404e-08
-9.35154e-08 2.7404e-08 -2.61446e-05
0.00142133 -7.27104e-05 -4.71934e-06
-7.27104e-05 8.18582e-05 1.45792e-06
-4.71934e-06 1.45792e-06 -4.08976e-05
0.00151874 -0.000100139 1.78502e-06
-0.000100139 9.66986e-05 -6.9369e-07
1.78502e-06 -6.9369e-07 -2.82919e-05
0.00139773 -9.52933e-05 -6.27878e-08
-9.52933e-05 8.24355e-05 3.64108e-08
-6.27878e-08 3.64108e-08 -3.93096e-05
0.00112482 -7.87183e-05 -1.00224e-05
-7.87183e-05 1.84594e-05 3.07639e-06
-1.00224e-05 3.07639e-06 -8.48097e-05
0.00136095 -0.000112865 4.97329e-06
-0.000112865 7.80129e-05 -1.5648e-06
4.97329e-06 -1.5648e-06 -4.43132e-05
0.00110544 -9.09709e-05 1.90218e-07
-9.09709e-05 1.90235e-05 1.19424e-07
1.90218e-07 1.19424e-07 -8.39936e-05
0.00225791 -6.62191e-05 -2.25995e-05
-6.62191e-05 0.000806583 4.54288e-06
-2.25995e-05 4.54288e-06 0.000756024
0.0010555 -0.000101163 9.53869e-06
-0.000101163 7.83202e-06 -3.88353e-06
9.53869e-06 -3.88353e-06 -9.63145e-05
0.00232433 -8.68687e-05 2.47303e-05
-8.68687e-05 0.000850715 -2.25328e-06
2.47303e-05 -2.25328e-06 0.000799771
0.00158556 -3.8442e-05 -0.000117609
-3.8442e-05 0.00052111 1.20605e-05
-0.000117609 1.20605e-05 0.000500449
0.00245701 -0.000110632 7.27917e-05
-0.000110632 0.000931587 -1.06194e-05
7.27917e-05 -1.06194e-05 0.000879764
0.00140511 3.16737e-05 -6.1785e-05
3.16737e-05 0.00044199 3.84465e-06
-6.1785e-05 3.84465e-06 0.000409876
0.00423532 0.000255018 -4.04128e-06
0.000255018 0.00205028 -4.00302e-06
-4.04128e-06 -4.00302e-06 0.00200906
0.00168453 0.0001133 -4.02379e-07
0.0001133 9.43387e-05 5.47103e-07
-4.02379e-07 5.47103e-07 -2.77776e-05
0.00167112 0.000132863 -1.73643e-06
0.000132863 0.000166669 -7.13662e-07
-1.73643e-06 -7.13662e-07 4.04461e-05
0.00175935 0.000143926 -2.05199e-06
0.000143926 0.000155645 6.58178e-08
-2.05199e-06 6.58178e-08 3.02678e-05
0.00171471 0.000162145 -3.37795e-06
0.000162145 0.000292516 -2.23538e-07
-3.37795e-06 -2.23538e-07 0.000164224
0.00152043 0.000159511 5.5133e-07
0.000159511 0.000112739 -4.96467e-07
5.5133e-07 -4.96467e-07 -1.77823e-05
0.00151258 0.000150178 4.07427e-06
0.000150178 5.09406e-05 2.88626e-07
4.07427e-06 2.88626e-07 -7.26921e-05
0.000994792 0.000121763 -8.29563e-06
0.000121763 3.01942e-05 -3.3304e-06
-8.29563e-06 -3.3304e-06 -8.26203e-05
0.00123676 0.000157043 -4.78952e-07
0.000157043 9.09158e-05 6.68866e-07
-4.78952e-07 6.68866e-07 -4.8417e-05
0.00152185 0.000182567 3.23229e-06
0.000182567 0.000162258 7.2041e-09
3.23229e-06 7.2041e-09 1.57919e-05
0.00112378 0.000150599 3.29265e-06
0.000150599 0.000110093 2.12024e-06
3.29265e-06 2.12024e-06 -2.96686e-05
0.000927089 0.000111778 -4.22231e-07
0.000111778 5.32637e-05 -2.2574e-07
-4.22231e-07 -2.2574e-07 -5.5034e-05
0.000787796 0.000102484 -1.41589e-05
0.000102484 4.44012e-05 -8.51496e-06
-1.41589e-05 -8.51496e-06 -1.85187e-05
0.000742913 8.49362e-05 3.31531e-06
8.49362e-05 -3.68873e-06 2.21895e-06
3.31531e-06 2.21895e-06 -0.000101622
0.000652079 4.57379e-05 -3.10202e-08
4.57379e-05 -1.42924e-05 -4.12644e-09
-3.10202e-08 -4.12644e-09 -6.84391e-05
0.00371043 -9.23836e-05 -9.7952e-05
-9.23836e-05 0.00172473 -5.33488e-06
-9.7952e-05 -5.33488e-06 0.00171623
0.00053231 -2.37843e-05 3.18975e-06
-2.37843e-05 -7.1392e-05 6.37517e-06
3.18975e-06 6.37517e-06 -0.000115215
0.00322991 -0.000127882 -3.56652e-06
-0.000127882 0.00144784 3.8372e-07
-3.56652e-06 3.8372e-07 0.00144102
0.00283588 -0.000115209 4.92194e-05
-0.000115209 0.00122122 2.0309e-06
4.92194e-05 2.0309e-06 0.00121973
0.00178416 7.22377e-05 1.00926e-06
7.22377e-05 5.82197e-05 1.24596e-06
1.00926e-06 1.24596e-06 -3.9982e-05
0.00182369 8.07894e-05 -3.65931e-07
8.07894e-05 4.72329e-05 2.26053e-07
-3.65931e-07 2.26053e-07 -3.85228e-05
0.00179055 7.74975e-05 2.27406e-06
7.74975e-05 2.97532e-05 -1.78722e-06
2.27406e-06 -1.78722e-06 -5.08282e-05
0.00187722 0.000131139 5.15539e-07
0.000131139 0.000135583 -9.28672e-08
5.15539e-07 -9.28672e-08 2.36874e-05
0.00180856 0.000176932 -2.74942e-08
0.000176932 0.000159178 -1.288e-06
-2.74942e-08 -1.288e-06 3.01979e-05
0.00175737 0.000136105 2.18986e-06
0.000136105 3.96565e-05 -1.54311e-06
2.18986e-06 -1.54311e-06 -6.57204e-05
0.00184131 1.90653e-05 3.557e-07
1.90653e-05 0.000108976 4.2759e-07
3.557e-07 4.2759e-07 1.17348e-05
0.00187082 1.84884e-05 3.51187e-07
1.84884e-05 0.000101624 -1.90766e-07
3.51187e-07 -1.90766e-07 1.28547e-05
0.00181537 1.2852e-05 7.59624e-07
1.2852e-05 4.59475e-05 -2.59629e-07
7.59624e-07 -2.59629e-07 -3.17515e-05
0.00176976 -1.3523e-05 -1.19271e-06
-1.3523e-05 6.82658e-05 1.00879e-07
-1.19271e-06 1.00879e-07 -2.83324e-05
0.00173649 -1.56451e-05 1.21556e-06
-1.56451e-05 8.39174e-05 -4.29768e-07
1.21556e-06 -4.29768e-07 -2.39227e-05
0.00184377 -3.54678e-05 -1.04659e-06
-3.54678e-05 9.68966e-05 4.54726e-07
-1.04659e-06 4.54726e-07 5.64822e-06
0.00179905 -3.32294e-05 -2.75782e-07
-3.32294e-05 0.000120303 2.85114e-07
-2.75782e-07 2.85114e-07 1.11076e-05
0.00165873 -2.165e-05 9.82395e-08
-2.165e-05 0.000112563 -3.98674e-07
9.82395e-08 -3.98674e-07 -7.56705e-06
0.00171873 -5.95461e-05 -1.48814e-07
-5.95461e-05 0.000101883 1.42574e-07
-1.48814e-07 1.42574e-07 -1.10103e-05
0.00158126 -4.33162e-05 -3.99659e-07
-4.33162e-05 9.04326e-05 7.66792e-08
-3.99659e-07 7.66792e-08 -3.34784e-05
0.00144184 -4.20312e-05 -5.58082e-06
-4.20312e-05 7.60737e-05 1.62177e-06
-5.58082e-06 1.62177e-06 -4.81814e-05
0.00152693 -7.00425e-05 1.19514e-06
-7.00425e-05 8.28358e-05 -5.95344e-07
1.19514e-06 -5.95344e-07 -4.17004e-05
0.00141595 -7.13569e-05 6.6224e-08
-7.13569e-05 7.87181e-05 -7.93927e-08
6.6224e-08 -7.93927e-08 -4.38748e-05
0.00113117 -6.02985e-05 -9.99362e-06
-6.02985e-05 9.58298e-06 2.67018e-06
-9.99362e-06 2.67018e-06 -9.43752e-05
0.00139517 -9.43023e-05 4.75606e-06
-9.43023e-05 8.08287e-05 -1.42129e-06
4.75606e-06 -1.42129e-06 -4.07831e-05
0.00112977 -7.65102e-05 9.7162e-09
-7.65102e-05 1.99669e-05 1.15512e-07
9.7162e-09 1.15512e-07 -8.28965e-05
0.0022786 -7.04621e-05 -2.59505e-05
-7.04621e-05 0.000809458 3.7355e-06
-2.59505e-05 3.7355e-06 0.000759496
0.00110148 -8.9059e-05 1.003e-05
-8.9059e-05 1.5515e-05 -3.4942e-06
1.003e-05 -3.4942e-06 -8.71076e-05
0.00234335 -8.46515e-05 2.35314e-05
-8.46515e-05 0.000850169 -1.90965e-06
2.35314e-05 -1.90965e-06 0.000801682
0.00165125 -3.47462e-05 -0.000118005
-3.47462e-05 0.00055099 1.04609e-05
-0.000118005 1.04609e-05 0.000530939
0.00245458 -0.000101119 7.32198e-05
-0.000101119 0.000918182 -9.51245e-06
7.32198e-05 -9.51245e-06 0.000869468
0.00144022 1.22387e-05 -5.6199e-05
1.22387e-05 0.000450841 4.19918e-06
-5.6199e-05 4.19918e-06 0.000423725
0.00139289 7.26797e-05 5.77419e-06
7.26797e-05 0.000442828 -4.40455e-06
5.77419e-06 -4.40455e-06 0.00040575
0.00185468 7.08234e-05 7.55273e-07
7.08234e-05 0.000153202 1.39613e-06
7.55273e-07 1.39613e-06 4.40385e-05
0.00154555 9.9659e-05 -2.17721e-06
9.9659e-05 7.74186e-05 -3.5609e-07
-2.17721e-06 -3.5609e-07 -4.83181e-05
0.00172006 0.000115527 -1.16668e-06
0.000115527 0.000111535 -1.13512e-07
-1.16668e-06 -1.13512e-07 -9.42029e-06
0.00160891 0.000131469 -4.21198e-06
0.000131469 0.00019708 -1.17773e-06
-4.21198e-06 -1.17773e-06 7.50801e-05
0.00171764 0.000134566 9.99506e-07
0.000134566 0.000194898 3.95063e-07
9.99506e-07 3.95063e-07 6.88695e-05
0.00175807 0.000146353 3.13067e-06
0.000146353 0.000157336 3.97016e-07
3.13067e-06 3.97016e-07 3.19992e-05
0.00102717 0.000116426 -9.73307e-06
0.000116426 -4.6249e-06 -3.05032e-06
-9.73307e-06 -3.05032e-06 -0.000114198
0.00143611 0.000152532 2.78073e-06
0.000152532 0.000136197 4.94648e-07
2.78073e-06 4.94648e-07 6.84765e-06
0.00128503 0.000151179 2.98324e-06
0.000151179 -1.80414e-05 -7.53992e-07
2.98324e-06 -7.53992e-07 -0.000148332
0.000707594 0.00012313 -1.72573e-05
0.00012313 -1.68113e-05 -8.47984e-06
-1.72573e-05 -8.47984e-06 -8.38757e-05
0.00100713 0.000121682 -8.19462e-07
0.000121682 3.68201e-05 3.15678e-07
-8.19462e-07 3.15678e-07 -7.58424e-05
0.00132073 0.000162674 5.19036e-06
0.000162674 0.000135952 2.16324e-06
5.19036e-06 2.16324e-06 -4.43295e-06
0.000878076 0.000107811 5.37922e-06
0.000107811 2.70383e-05 3.29678e-06
5.37922e-06 3.29678e-06 -8.0616e-05
0.000654247 9.13918e-05 -6.46709e-08
9.13918e-05 -2.28975e-05 6.75184e-08
-6.46709e-08 6.75184e-08 -8.53233e-05
0.00429995 -8.11767e-05 -0.000109767
-8.11767e-05 0.00206241 -8.82308e-06
-0.000109767 -8.82308e-06 0.00204586
0.000547852 3.64412e-05 6.71876e-06
3.64412e-05 -6.74459e-05 7.16913e-06
6.71876e-06 7.16913e-06 -0.000120167
0.00360356 -0.000130446 -6.36773e-06
-0.000130446 0.00166768 4.43077e-07
-6.36773e-06 4.43077e-07 0.00165608
0.00314716 -0.000132246 5.7661e-05
-0.000132246 0.00140116 1.98024e-06
5.7661e-05 1.98024e-06 0.00139405
0.00178839 5.12588e-05 4.51225e-07
5.12588e-05 8.40767e-05 3.01055e-07
4.51225e-07 3.01055e-07 -1.69774e-05
0.00178002 7.15033e-05 5.37614e-08
7.15033e-05 5.69932e-05 3.62777e-07
5.37614e-08 3.62777e-07 -4.0747e-05
0.00175427 8.21464e-05 3.11295e-06
8.21464e-05 8.50367e-06 -7.65871e-07
3.11295e-06 -7.65871e-07 -7.691e-05
0.0018639 0.000129639 6.63514e-07
0.000129639 0.000127683 -1.36974e-06
6.63514e-07 -1.36974e-06 1.64725e-05
0.00175588 -3.93244e-06 1.07566e-06
-3.93244e-06 9.05659e-05 6.57343e-08
1.07566e-06 6.57343e-08 -1.80241e-05
0.00187581 1.57306e-05 -7.78421e-08
1.57306e-05 0.000125619 -1.11027e-07
-7.78421e-08 -1.11027e-07 2.85649e-05
0.00188332 1.92589e-05 -9.17434e-07
1.92589e-05 0.000108963 -1.64617e-07
-9.17434e-07 -1.64617e-07 1.92265e-05
0.00186045 -1.71686e-05 -2.6201e-06
-1.71686e-05 0.000117345 -2.85234e-07
-2.6201e-06 -2.85234e-07 2.17563e-05
0.00173126 -9.43353e-06 -7.80762e-07
-9.43353e-06 8.07052e-05 -8.64931e-08
-7.80762e-07 -8.64931e-08 -2.63186e-05
0.00178243 -3.91749e-06 7.21926e-07
-3.91749e-06 0.000171831 -3.51681e-07
7.21926e-07 -3.51681e-07 5.45242e-05
0.00170406 -3.34343e-05 -1.13634e-06
-3.34343e-05 6.81254e-05 1.03534e-06
-1.13634e-06 1.03534e-06 -4.31959e-05
0.00166687 -2.11764e-05 5.77014e-07
-2.11764e-05 0.000117342 4.17735e-08
5.77014e-07 4.17735e-08 -3.96211e-06
0.00136347 -1.50935e-05 -4.41638e-06
-1.50935e-05 1.60298e-05 5.4569e-07
-4.41638e-06 5.4569e-07 -0.000108022
0.00156347 -4.31885e-05 6.08474e-07
-4.31885e-05 7.89242e-05 -1.03758e-07
6.08474e-07 -1.03758e-07 -4.49299e-05
0.00142979 -3.93922e-05 -4.82831e-07
-3.93922e-05 6.93185e-05 3.12498e-07
-4.82831e-07 3.12498e-07 -5.46832e-05
0.00116083 -3.76951e-05 -1.02731e-05
-3.76951e-05 9.72289e-06 2.50338e-06
-1.02731e-05 2.50338e-06 -9.62257e-05
0.0014107 -6.80464e-05 4.41543e-06
-6.80464e-05 7.56143e-05 -1.55329e-06
4.41543e-06 -1.55329e-06 -4.66756e-05
0.0011457 -5.98447e-05 -2.12068e-08
-5.98447e-05 1.65285e-05 2.52082e-08
-2.12068e-08 2.52082e-08 -8.72865e-05
0.000682832 -4.51157e-05 -1.52372e-05
-4.51157e-05 -8.45936e-05 3.83305e-06
-1.52372e-05 3.83305e-06 -0.000143694
0.00113889 -7.45304e-05 1.00956e-05
-7.45304e-05 2.35631e-05 -2.94539e-06
1.00956e-05 -2.94539e-06 -7.88817e-05
0.00151612 -6.01806e-05 2.98349e-05
-6.01806e-05 0.00038305 -1.55003e-06
2.98349e-05 -1.55003e-06 0.000331197
0.00487133 -7.30053e-05 -0.00014314
-7.30053e-05 0.00233498 7.0168e-06
-0.00014314 7.0168e-06 0.00233233
0.0024392 -8.40978e-05 7.34661e-05
-8.40978e-05 0.000898864 -7.90613e-06
7.34661e-05 -7.90613e-06 0.000852642
0.00146616 -9.71201e-06 -5.00476e-05
-9.71201e-06 0.000454379 3.70282e-06
-5.00476e-05 3.70282e-06 0.000430728
0.00133227 9.68467e-06 1.7965e-05
9.68467e-06 0.000393289 -3.41867e-06
1.7965e-05 -3.41867e-06 0.000364881
0.00188025 4.95183e-05 1.1248e-06
4.95183e-05 0.000171002 7.28626e-07
1.1248e-06 7.28626e-07 6.45361e-05
0.00162211 6.38297e-05 -6.61658e-07
6.38297e-05 0.000103158 8.2183e-07
-6.61658e-07 8.2183e-07 -1.71619e-05
0.00185357 6.79426e-05 1.18788e-07
6.79426e-05 0.000155035 -7.20991e-08
1.18788e-07 -7.20991e-08 4.5326e-05
0.00117759 9.19905e-05 -5.34732e-06
9.19905e-05 -6.50981e-05 -1.49452e-06
-5.34732e-06 -1.49452e-06 -0.00018894
0.00166791 0.000102747 -1.23118e-07
0.000102747 0.00014587 -2.66455e-08
-1.23118e-07 -2.66455e-08 2.11331e-05
0.00176108 0.000118235 -7.01605e-07
0.000118235 0.000131588 -9.38211e-07
-7.01605e-07 -9.38211e-07 1.17604e-05
0.00066421 8.55384e-05 -1.18994e-05
8.55384e-05 -0.000235874 -3.5783e-06
-1.18994e-05 -3.5783e-06 -0.000342735
0.00163726 0.000134484 1.31747e-06
0.000134484 0.000213297 2.58191e-07
1.31747e-06 2.58191e-07 9.07312e-05
0.00176322 0.000136537 3.62121e-06
0.000136537 0.000222644 1.02683e-06
3.62121e-06 1.02683e-06 9.67889e-05
0.000640409 0.000112054 -1.69016e-05
0.000112054 -7.71329e-05 -7.04933e-06
-1.69016e-05 -7.04933e-06 -0.000141647
0.000835212 0.000108638 2.2392e-07
0.000108638 -0.000111857 2.16981e-07
2.2392e-07 2.16981e-07 -0.000222212
0.00115364 0.000142661 7.73934e-06
0.000142661 -2.23957e-05 1.22729e-06
7.73934e-06 1.22729e-06 -0.000152743
0.00479329 -9.03915e-05 -0.000110451
-9.03915e-05 0.00234002 -1.09368e-05
-0.000110451 -1.09368e-05 0.00231552
0.000638506 0.000112716 1.09516e-06
0.000112716 -5.27906e-05 3.07605e-07
1.09516e-06 3.07605e-07 -0.000119041
0.00100537 0.000120924 7.74241e-06
0.000120924 3.60302e-05 4.26063e-06
7.74241e-06 4.26063e-06 -7.64643e-05
0.000520197 8.21174e-05 1.07086e-05
8.21174e-05 -9.20378e-05 8.15223e-06
1.07086e-05 8.15223e-06 -0.000153616
0.00405502 -0.000120839 -8.62743e-06
-0.000120839 0.00192977 5.55407e-07
-8.62743e-06 5.55407e-07 0.00191244
0.00345804 -0.000150062 6.69561e-05
-0.000150062 0.00158782 2.22322e-06
6.69561e-05 2.22322e-06 0.00157392
0.00180913 2.89224e-05 -4.74018e-07
2.89224e-05 0.000118147 -3.89981e-08
-4.74018e-07 -3.89981e-08 1.03296e-05
0.00179724 5.05629e-05 -1.4906e-07
5.05629e-05 8.5328e-05 2.31373e-07
-1.4906e-07 2.31373e-07 -1.5556e-05
0.00177969 7.12807e-05 -9.37206e-08
7.12807e-05 5.77064e-05 -6.4517e-07
-9.37206e-08 -6.4517e-07 -3.95898e-05
0.00171998 7.20895e-06 8.0071e-07
7.20895e-06 0.000130087 -2.6835e-07
8.0071e-07 -2.6835e-07 1.24098e-05
0.00174748 -7.26006e-07 -1.00867e-07
-7.26006e-07 8.9027e-05 6.1344e-08
-1.00867e-07 6.1344e-08 -1.86995e-05
0.00190703 1.00197e-05 -1.35393e-06
1.00197e-05 0.000140435 -1.01683e-07
-1.35393e-06 -1.01683e-07 4.35701e-05
0.0017194 -4.50257e-06 -1.82405e-06
-4.50257e-06 7.36715e-05 5.32462e-07
-1.82405e-06 5.32462e-07 -3.25191e-05
0.00177091 -1.35344e-06 1.05761e-06
-1.35344e-06 0.000165083 -1.89503e-07
1.05761e-06 -1.89503e-07 4.7805e-05
0.00174733 -1.09523e-06 -2.79126e-06
-1.09523e-06 0.000216801 4.46422e-08
-2.79126e-06 4.46422e-08 9.73499e-05
0.00167908 -2.06349e-05 1.41487e-06
-2.06349e-05 0.000124305 3.10828e-07
1.41487e-06 3.10828e-07 1.82198e-06
0.001591 -1.34712e-05 -2.52939e-08
-1.34712e-05 0.000141535 6.85745e-08
-2.52939e-08 6.85745e-08 1.89525e-05
0.000814255 -1.37169e-05 -1.23269e-05
-1.37169e-05 -0.000197628 1.97998e-06
-1.23269e-05 1.97998e-06 -0.000308518
0.00142322 -3.89511e-05 4.0128e-06
-3.89511e-05 6.54397e-05 -9.35304e-07
4.0128e-06 -9.35304e-07 -5.84473e-05
0.00115759 -3.49783e-05 4.73496e-08
-3.49783e-05 7.39779e-06 1.26337e-07
4.73496e-08 1.26337e-07 -9.83412e-05
0.000681983 -1.97777e-05 -1.50647e-05
-1.97777e-05 -9.48194e-05 2.90511e-06
-1.50647e-05 2.90511e-06 -0.00015597
0.00116088 -5.82086e-05 1.02937e-05
-5.82086e-05 2.37357e-05 -2.6977e-06
1.02937e-05 -2.6977e-06 -7.98254e-05
0.000685584 -3.14934e-05 -2.59045e-07
-3.14934e-05 -8.38048e-05 1.34018e-07
-2.59045e-07 1.34018e-07 -0.000142952
0.00491006 -3.36319e-05 -0.000137263
-3.36319e-05 0.00235272 4.89173e-06
-0.000137263 4.89173e-06 0.00235146
0.000723355 -5.13314e-05 1.55852e-05
-5.13314e-05 -5.86393e-05 -5.5513e-06
1.55852e-05 -5.5513e-06 -0.000117236
0.00314361 -4.51379e-05 5.97566e-05
-4.51379e-05 0.00137905 -2.16936e-07
5.97566e-05 -2.16936e-07 0.00136368
0.00126742 -2.21124e-05 2.42406e-05
-2.21124e-05 0.000351503 -3.23081e-06
2.42406e-05 -3.23081e-06 0.000323893
0.00181779 3.79378e-05 1.77101e-07
3.79378e-05 0.000155128 2.14359e-07
1.77101e-07 2.14359e-07 4.57693e-05
0.00159146 3.56571e-05 -3.21516e-07
3.56571e-05 8.52184e-05 9.70837e-07
-3.21516e-07 9.70837e-07 -3.28294e-05
0.00183653 4.71205e-05 -3.37751e-07
4.71205e-05 0.000147201 -1.96695e-07
-3.37751e-07 -1.96695e-07 4.08593e-05
0.00143511 6.51496e-05 -4.44846e-06
6.51496e-05 6.42115e-05 -3.85868e-07
-4.44846e-06 -3.85868e-07 -5.62641e-05
0.00159477 6.21318e-05 3.88263e-07
6.21318e-05 8.63968e-05 1.06789e-07
3.88263e-07 1.06789e-07 -3.46906e-05
0.00185208 6.4741e-05 -1.11959e-06
6.4741e-05 0.00015655 -1.2578e-06
-1.11959e-06 -1.2578e-06 4.63141e-05
0.00069259 6.89886e-05 -1.20181e-05
6.89886e-05 -0.000240254 -3.24114e-06
-1.20181e-05 -3.24114e-06 -0.000346749
0.00151395 0.000102627 -1.34841e-06
0.000102627 0.000120405 -3.19991e-07
-1.34841e-06 -3.19991e-07 -2.04164e-06
0.00178947 0.000105614 2.40121e-06
0.000105614 0.00021394 5.88455e-08
2.40121e-06 5.88455e-08 9.02333e-05
0.000627034 8.17707e-05 -1.57084e-05
8.17707e-05 -0.000101843 -5.66799e-06
-1.57084e-05 -5.66799e-06 -0.000163155
0.000660548 8.62639e-05 -2.5659e-06
8.62639e-05 -0.000237857 -6.63646e-07
-2.5659e-06 -6.63646e-07 -0.000345254
0.00166175 0.00013738 6.95972e-06
0.00013738 0.000227427 1.57249e-06
6.95972e-06 1.57249e-06 0.000104304
0.00499323 -1.24299e-05 -0.000127541
-1.24299e-05 0.00241824 -8.81638e-06
-0.000127541 -8.81638e-06 0.00240913
0.000610842 0.000102355 8.75809e-07
0.000102355 -9.16805e-05 3.83071e-07
8.75809e-07 3.83071e-07 -0.000156948
0.00063805 0.000100764 9.81919e-06
0.000100764 -0.000221985 3.36318e-06
9.81919e-06 3.36318e-06 -0.00033313
0.00455692 -6.04985e-05 3.15317e-06
-6.04985e-05 0.00219688 -2.93787e-07
3.15317e-06 -2.93787e-07 0.00218257
0.000524541 0.000102713 1.41436e-05
0.000102713 -0.000111932 8.45778e-06
1.41436e-05 8.45778e-06 -0.000177882
0.00383363 -0.000154074 7.83354e-05
-0.000154074 0.00181061 4.09246e-06
7.83354e-05 4.09246e-06 0.00179122
0.0017728 2.22116e-05 -3.22875e-07
2.22116e-05 0.000156715 -9.73752e-08
-3.22875e-07 -9.73752e-08 4.14901e-05
0.00176382 2.7549e-05 -1.34291e-07
2.7549e-05 9.70743e-05 6.05989e-08
-1.34291e-07 6.05989e-08 -1.13499e-05
0.00180645 4.97567e-05 -6.88827e-07
4.97567e-05 8.65206e-05 -2.03165e-07
-6.88827e-07 -2.03165e-07 -1.41906e-05
0.00172479 -1.71075e-06 -2.92175e-06
-1.71075e-06 0.00020572 -1.45887e-07
-2.92175e-06 -1.45887e-07 8.80553e-05
0.00174804 6.37768e-06 6.60445e-07
6.37768e-06 0.00014552 2.73702e-09
6.60445e-07 2.73702e-09 2.88324e-05
0.00175162 4.59712e-06 2.272e-07
4.59712e-06 9.41726e-05 -1.95278e-08
2.272e-07 -1.95278e-08 -1.27203e-05
0.00175935 1.9502e-07 9.65822e-07
1.9502e-07 0.000158297 2.43781e-07
9.65822e-07 2.43781e-07 4.10442e-05
0.00174881 -8.57763e-07 1.63596e-06
-8.57763e-07 0.000217651 -2.00557e-07
1.63596e-06 -2.00557e-07 9.8142e-05
0.000824535 -4.04322e-06 -1.16691e-05
-4.04322e-06 -0.00019939 8.56065e-07
-1.16691e-05 8.56065e-07 -0.000310485
0.00181909 -1.20335e-05 5.45376e-06
-1.20335e-05 0.000267477 -6.43415e-07
5.45376e-06 -6.43415e-07 0.00014636
0.00100004 -1.22396e-05 -2.48622e-06
-1.22396e-05 -9.46152e-05 4.59377e-07
-2.48622e-06 4.59377e-07 -0.000203834
0.000702413 -7.19548e-06 -1.56242e-05
-7.19548e-06 -9.47029e-05 2.04022e-06
-1.56242e-05 2.04022e-06 -0.000158094
0.00116193 -3.36969e-05 1.02522e-05
-3.36969e-05 9.1593e-06 -2.28026e-06
1.02522e-05 -2.28026e-06 -9.64554e-05
0.000691951 -1.64219e-05 3.24138e-07
-1.64219e-05 -9.04239e-05 8.96892e-09
3.24138e-07 8.96892e-09 -0.000151343
0.0050123 -4.19521e-05 -0.000139008
-4.19521e-05 0.00240697 3.50279e-06
-0.000139008 3.50279e-06 0.00240522
0.000680127 -2.21946e-05 1.42074e-05
-2.21946e-05 -8.82212e-05 -3.32172e-06
1.42074e-05 -3.32172e-06 -0.000146794
0.00493257 -1.07508e-05 8.64523e-06
-1.07508e-05 0.00236617 5.53804e-08
8.64523e-06 5.53804e-08 0.00236383
0.00148517 -1.61981e-05 0.000121592
-1.61981e-05 0.000458301 -5.54976e-06
0.000121592 -5.54976e-06 0.000440026
0.0017674 2.64595e-05 -1.68372e-07
2.64595e-05 0.000180252 1.66162e-07
-1.68372e-07 1.66162e-07 6.48081e-05
0.00175531 4.11148e-05 -6.87208e-07
4.11148e-05 0.000118413 -8.279e-08
-6.87208e-07 -8.279e-08 9.59574e-06
0.00145044 3.33017e-05 -4.02357e-06
3.33017e-05 7.01112e-05 -1.1971e-07
-4.02357e-06 -1.1971e-07 -4.76701e-05
0.00158073 3.52509e-05 3.30986e-07
3.52509e-05 7.94441e-05 7.09085e-08
3.30986e-07 7.09085e-08 -3.868e-05
0.00179103 4.48284e-05 -6.44124e-07
4.48284e-05 0.0001225 -1.18734e-06
-6.44124e-07 -1.18734e-06 1.62849e-05
0.00115928 5.66048e-05 -1.03632e-05
5.66048e-05 4.67094e-06 -1.83882e-06
-1.03632e-05 -1.83882e-06 -9.81831e-05
0.00142749 6.52398e-05 -3.50231e-08
6.52398e-05 5.96442e-05 2.4367e-07
-3.50231e-08 2.4367e-07 -6.08747e-05
0.00156294 6.04187e-05 6.43357e-07
6.04187e-05 6.73354e-05 -2.92088e-07
6.43357e-07 -2.92088e-07 -5.45423e-05
0.0006501 5.69423e-05 -1.53494e-05
5.69423e-05 -0.000104017 -4.32602e-06
-1.53494e-05 -4.32602e-06 -0.000163542
0.000911287 7.66342e-05 -3.08674e-06
7.66342e-05 -0.000119326 -5.57792e-07
-3.08674e-06 -5.57792e-07 -0.000225087
0.00186112 0.000113557 4.93339e-06
0.000113557 0.000311773 1.0763e-06
4.93339e-06 1.0763e-06 0.000190709
0.00502662 5.44402e-05 -0.000145202
5.44402e-05 0.00242016 -7.88622e-06
-0.000145202 -7.88622e-06 0.00241763
0.00062045 7.76787e-05 1.44609e-07
7.76787e-05 -0.000105161 9.74189e-08
1.44609e-07 9.74189e-08 -0.000166729
0.000658917 8.72935e-05 7.17026e-06
8.72935e-05 -0.000238816 2.233e-06
7.17026e-06 2.233e-06 -0.000346768
0.00485677 5.70709e-06 9.33383e-06
5.70709e-06 0.00234607 4.45762e-07
9.33383e-06 4.45762e-07 0.00233665
0.000579174 9.19781e-05 1.48698e-05
9.19781e-05 -0.000107896 7.28013e-06
1.48698e-05 7.28013e-06 -0.000173559
0.00432528 -9.30499e-05 9.89847e-05
-9.30499e-05 0.00207075 6.22065e-06
9.89847e-05 6.22065e-06 0.00205744
0.00171977 1.75649e-05 -2.7274e-06
1.75649e-05 0.000208094 -3.45803e-07
-2.7274e-06 -3.45803e-07 9.24415e-05
0.00176004 1.82112e-05 2.30135e-08
1.82112e-05 0.000152009 1.09715e-07
2.30135e-08 1.09715e-07 3.64269e-05
0.00171879 2.59235e-05 -2.4749e-07
2.59235e-05 7.66702e-05 1.166e-07
-2.4749e-07 1.166e-07 -3.23453e-05
0.000817096 -1.06544e-05 -1.21637e-05
-1.06544e-05 -0.000201498 -7.48647e-08
-1.21637e-05 -7.48647e-08 -0.000311307
0.00174742 4.841e-06 1.70683e-06
4.841e-06 0.000218336 -5.48575e-08
1.70683e-06 -5.48575e-08 0.000100611
0.00177021 5.61384e-06 1.32516e-06
5.61384e-06 0.000157957 1.21547e-07
1.32516e-06 1.21547e-07 4.2274e-05
0.0017516 -8.83872e-07 5.91871e-06
-8.83872e-07 0.00021926 -1.86909e-07
5.91871e-06 -1.86909e-07 9.96858e-05
0.0008186 -4.22127e-06 -1.86616e-06
-4.22127e-06 -0.000202877 1.97963e-07
-1.86616e-06 1.97963e-07 -0.000314028
0.00072965 -8.74647e-06 -1.5948e-05
-8.74647e-06 -8.66083e-05 8.24706e-07
-1.5948e-05 8.24706e-07 -0.000150785
0.00117464 -9.9461e-06 8.23288e-06
-9.9461e-06 2.27179e-06 -1.31399e-06
8.23288e-06 -1.31399e-06 -0.000105263
0.000701 2.16563e-06 1.81579e-07
2.16563e-06 -9.6285e-05 1.34367e-07
1.81579e-07 1.34367e-07 -0.000159501
0.00518202 -5.41641e-05 -0.000144049
-5.41641e-05 0.00249841 2.09275e-06
-0.000144049 2.09275e-06 0.00249519
0.000706758 -5.45683e-06 1.48968e-05
-5.45683e-06 -8.3181e-05 -2.4056e-06
1.48968e-05 -2.4056e-06 -0.000144083
0.00506947 1.71895e-05 5.19122e-06
1.71895e-05 0.00243722 3.85887e-07
5.19122e-06 3.85887e-07 0.00243541
0.00495655 -5.52531e-05 0.000149968
-5.52531e-05 0.00237818 -4.18965e-06
0.000149968 -4.18965e-06 0.00237636
0.0014761 2.08496e-05 -4.01935e-06
2.08496e-05 8.41908e-05 -6.62144e-07
-4.01935e-06 -6.62144e-07 -3.26771e-05
0.00168011 2.82392e-05 4.37897e-07
2.82392e-05 0.000131587 -1.44955e-07
4.37897e-07 -1.44955e-07 1.67578e-05
0.00169305 4.44197e-05 -1.20519e-06
4.44197e-05 8.17867e-05 -1.92471e-07
-1.20519e-06 -1.92471e-07 -2.64929e-05
0.00116189 2.75836e-05 -1.00695e-05
2.75836e-05 1.3871e-06 -1.46966e-06
-1.00695e-05 -1.46966e-06 -0.000100452
0.00143639 3.32141e-05 2.32302e-07
3.32141e-05 6.21928e-05 5.47473e-08
2.32302e-07 5.47473e-08 -5.57412e-05
0.00156743 3.4823e-05 3.77389e-07
3.4823e-05 7.23786e-05 -8.85622e-07
3.77389e-07 -8.85622e-07 -4.58272e-05
0.000673157 3.43776e-05 -1.48807e-05
3.43776e-05 -0.000101819 -3.19574e-06
-1.48807e-05 -3.19574e-06 -0.000161493
0.00115944 5.81717e-05 3.10018e-08
5.81717e-05 5.04996e-06 2.7463e-07
3.10018e-08 2.7463e-07 -9.81191e-05
0.00141534 6.52071e-05 4.59697e-06
6.52071e-05 5.26419e-05 9.11845e-07
4.59697e-06 9.11845e-07 -6.79259e-05
0.00504609 7.6716e-05 -0.000157122
7.6716e-05 0.00242553 -6.88762e-06
-0.000157122 -6.88762e-06 0.00242369
0.000656195 5.72135e-05 1.15251e-07
5.72135e-05 -0.000100238 1.05816e-07
1.15251e-07 1.05816e-07 -0.000159896
0.00111887 8.40977e-05 7.47897e-06
8.40977e-05 -4.47156e-06 2.22103e-06
7.47897e-06 2.22103e-06 -0.000109469
0.00496052 6.50494e-05 5.12831e-06
6.50494e-05 0.00238881 1.07338e-06
5.12831e-06 1.07338e-06 0.0023845
0.000617784 7.40743e-05 1.47286e-05
7.40743e-05 -0.000106371 5.60432e-06
1.47286e-05 5.60432e-06 -0.00016796
0.00474883 1.97404e-05 0.00012853
1.97404e-05 0.00228158 7.9341e-06
0.00012853 7.9341e-06 0.00227662
0.00121237 8.34292e-06 -1.08562e-05
8.34292e-06 1.965e-05 -6.3383e-07
-1.08562e-05 -6.3383e-07 -8.58467e-05
0.00154525 1.26113e-05 1.87918e-06
1.26113e-05 0.000111122 3.7969e-08
1.87918e-06 3.7969e-08 -6.12115e-06
0.00174512 1.31234e-05 8.66952e-07
1.31234e-05 0.000145814 4.46513e-07
8.66952e-07 4.46513e-07 2.98709e-05
0.000717602 2.02577e-05 -1.62957e-05
2.02577e-05 -9.80928e-05 -2.55089e-07
-1.62957e-05 -2.55089e-07 -0.000158449
0.000813554 -4.51062e-06 -2.026e-06
-4.51062e-06 -0.000204206 4.29326e-08
-2.026e-06 4.29326e-08 -0.000314141
0.00177042 1.12752e-05 6.34668e-06
1.12752e-05 0.000231103 1.28526e-08
6.34668e-06 1.28526e-08 0.000113316
0.000811402 -3.94962e-06 7.84038e-06
-3.94962e-06 -0.000207086 -4.00052e-07
7.84038e-06 -4.00052e-07 -0.000318283
0.000701167 1.91567e-06 8.00879e-08
1.91567e-06 -0.000102327 2.96487e-07
8.00879e-08 2.96487e-07 -0.000166326
0.00528228 5.68479e-05 -0.000153408
5.68479e-05 0.00254959 -6.70226e-07
-0.000153408 -6.70226e-07 0.00254721
0.000684173 1.1203e-05 1.50624e-05
1.1203e-05 -0.000105983 -1.32923e-06
1.50624e-05 -1.32923e-06 -0.000169073
0.00521081 -4.03097e-05 -3.71519e-06
-4.03097e-05 0.00251175 9.85852e-07
-3.71519e-06 9.85852e-07 0.00250939
0.00510821 5.04679e-05 0.000142661
5.04679e-05 0.00245776 -1.58167e-06
0.000142661 -1.58167e-06 0.00245537
0.00119146 1.37492e-05 -1.06058e-05
1.37492e-05 1.37762e-05 -1.53637e-06
-1.06058e-05 -1.53637e-06 -8.93547e-05
0.00139625 1.94156e-05 8.28218e-08
1.94156e-05 3.86689e-05 -1.25616e-07
8.28218e-08 -1.25616e-07 -7.8393e-05
0.00159799 2.9963e-05 5.33604e-07
2.9963e-05 8.56678e-05 -6.89163e-07
5.33604e-07 -6.89163e-07 -2.85478e-05
0.00252191 1.94386e-05 -8.03435e-05
1.94386e-05 0.000915373 -2.23961e-06
-8.03435e-05 -2.23961e-06 0.000870341
0.00117195 2.96356e-05 1.65051e-07
2.96356e-05 6.42254e-06 8.40363e-08
1.65051e-07 8.40363e-08 -9.56086e-05
0.0014247 3.30042e-05 4.41508e-06
3.30042e-05 5.55324e-05 2.42132e-07
4.41508e-06 2.42132e-07 -6.25515e-05
0.00505768 7.78991e-05 -0.000161237
7.78991e-05 0.00243138 -5.29362e-06
-0.000161237 -5.29362e-06 0.0024286
0.0006996 3.82239e-05 2.30388e-07
3.82239e-05 -8.64641e-05 1.89907e-07
2.30388e-07 1.89907e-07 -0.000146494
0.00116877 5.99315e-05 1.03617e-05
5.99315e-05 1.01957e-05 2.35225e-06
1.03617e-05 2.35225e-06 -9.32642e-05
0.0050144 8.93717e-05 5.51935e-07
8.93717e-05 0.00241252 1.04292e-06
5.51935e-07 1.04292e-06 0.00240918
0.000665285 5.7078e-05 1.48918e-05
5.7078e-05 -9.45019e-05 4.61854e-06
1.48918e-05 4.61854e-06 -0.000154292
0.00489946 8.09741e-05 0.000143701
8.09741e-05 0.00235692 8.82889e-06
0.000143701 8.82889e-06 0.00235257
0.000753545 7.93383e-06 -1.5892e-05
7.93383e-06 -7.24599e-05 -1.61429e-06
-1.5892e-05 -1.61429e-06 -0.000135604
0.00101685 5.74081e-06 5.08507e-07
5.74081e-06 -8.79312e-05 3.79695e-07
5.08507e-07 3.79695e-07 -0.00019478
0.00136409 7.52423e-06 5.729e-06
7.52423e-06 1.04747e-05 4.94176e-07
5.729e-06 4.94176e-07 -0.000108325
0.00527549 -7.97421e-05 -0.000140046
-7.97421e-05 0.00255651 -1.95923e-06
-0.000140046 -1.95923e-06 0.00254725
0.000710305 9.16228e-06 -2.08302e-07
9.16228e-06 -9.89032e-05 2.35712e-07
-2.08302e-07 2.35712e-07 -0.000161095
0.000818712 1.28572e-06 8.03462e-06
1.28572e-06 -0.000202257 7.84846e-08
8.03462e-06 7.84846e-08 -0.000312309
0.000687414 1.59218e-05 1.54256e-05
1.59218e-05 -0.000109945 -2.7768e-08
1.54256e-05 -2.7768e-08 -0.000173932
0.00529795 3.23481e-05 4.20267e-06
3.23481e-05 0.00256105 4.67063e-07
4.20267e-06 4.67063e-07 0.00255617
0.00527195 6.33114e-05 0.0001458
6.33114e-05 0.00254358 -1.42556e-07
0.0001458 -1.42556e-07 0.00254075
0.00258764 -3.76959e-06 -8.15533e-05
-3.76959e-06 0.000944986 -1.85864e-06
-8.15533e-05 -1.85864e-06 0.000898909
0.00120049 1.60794e-05 -5.18111e-08
1.60794e-05 1.83798e-05 -2.09686e-08
-5.18111e-08 -2.09686e-08 -8.47783e-05
0.00131528 1.81392e-05 4.23926e-06
1.81392e-05 -7.4801e-06 2.47441e-07
4.23926e-06 2.47441e-07 -0.000124733
0.00481979 -2.52358e-05 -2.97707e-05
-2.52358e-05 0.00230899 -8.21521e-07
-2.97707e-05 -8.21521e-07 0.00229709
0.000725752 2.41803e-05 -5.56553e-08
2.41803e-05 -7.62679e-05 2.07513e-07
-5.56553e-08 2.07513e-07 -0.000137357
0.00119847 3.23469e-05 1.03065e-05
3.23469e-05 2.0092e-05 1.68947e-06
1.03065e-05 1.68947e-06 -8.20872e-05
0.00507272 5.71999e-05 -7.80286e-06
5.71999e-05 0.00243846 1.61434e-07
-7.80286e-06 1.61434e-07 0.00243694
0.000729729 4.86379e-05 1.58538e-05
4.86379e-05 -6.84317e-05 3.87842e-06
1.58538e-05 3.87842e-06 -0.000129163
0.0049851 0.00010428 0.000151618
0.00010428 0.00240012 8.66562e-06
0.000151618 8.66562e-06 0.0023954
0.00170217 -2.67552e-05 -0.000139288
-2.67552e-05 0.000561981 3.20601e-07
-0.000139288 3.20601e-07 0.000541379
0.00165725 1.50066e-05 -3.33096e-05
1.50066e-05 0.000426149 3.53876e-07
-3.33096e-05 3.53876e-07 0.000373213
0.000823672 5.96521e-06 1.05753e-05
5.96521e-06 -0.000194171 1.22211e-06
1.05753e-05 1.22211e-06 -0.000302396
0.00526645 -3.23469e-05 8.30726e-06
-3.23469e-05 0.00254825 -8.57322e-07
8.30726e-06 -8.57322e-07 0.00254169
0.000697391 -5.99132e-07 1.60865e-05
-5.99132e-07 -0.00010355 7.86774e-07
1.60865e-05 7.86774e-07 -0.000166914
0.00530049 -4.16867e-05 0.000160242
-4.16867e-05 0.00256059 2.55848e-07
0.000160242 2.55848e-07 0.00255724
0.00139087 -5.11245e-05 -9.84328e-06
-5.11245e-05 0.000410882 -8.26525e-07
-9.84328e-06 -8.26525e-07 0.000376538
0.00164972 9.55594e-06 -3.29053e-05
9.55594e-06 0.000428728 -9.08892e-08
-3.29053e-05 -9.08892e-08 0.000375065
0.00119865 1.66498e-05 1.03541e-05
1.66498e-05 1.73538e-05 1.54171e-06
1.03541e-05 1.54171e-06 -8.58619e-05
0.00323104 3.62312e-05 5.74803e-05
3.62312e-05 0.00142355 5.21722e-07
5.74803e-05 5.21722e-07 0.00140604
0.000741698 3.27659e-05 1.61052e-05
3.27659e-05 -6.74364e-05 3.1596e-06
1.61052e-05 3.1596e-06 -0.000128819
0.00506187 0.000100767 0.000151958
0.000100767 0.00243834 7.09906e-06
0.000151958 7.09906e-06 0.0024339
0.00521277 -3.05259e-05 -9.56711e-06
-3.05259e-05 0.0025201 2.39718e-07
-9.56711e-06 2.39718e-07 0.00251354
0.000712136 2.5172e-05 1.65405e-05
2.5172e-05 -9.57709e-05 1.67781e-06
1.65405e-05 1.67781e-06 -0.000155783
0.00523766 6.43806e-05 0.000143812
6.43806e-05 0.00253282 -1.41886e-06
0.000143812 -1.41886e-06 0.00252639
0.00326376 2.12202e-05 7.08743e-05
2.12202e-05 0.0014405 1.00437e-06
7.08743e-05 1.00437e-06 0.0014228
0.000723483 9.09111e-06 1.57458e-05
9.09111e-06 -8.15703e-05 2.3892e-06
1.57458e-05 2.3892e-06 -0.000143247
0.00510136 -1.74419e-05 0.000143308
-1.74419e-05 0.00245282 3.58557e-06
0.000143308 3.58557e-06 0.0024515
0.00517773 -0.000128546 0.000137854
-0.000128546 0.00250805 -1.53797e-07
0.000137854 -1.53797e-07 0.002497
0.00512346 -5.62024e-05 0.000139833
-5.62024e-05 0.00246653 1.52823e-06
0.000139833 1.52823e-06 0.00246369
