# vtk DataFile Version 2.0
Wound Healing Simulation
ASCII
DATASET UNSTRUCTURED_GRID
POINTS 3012 float
69.9759 18.75 4
67.2507 60.3285 4
69.976 18.75 2
73.0099 25.446 4
71.1327 20.9142 4
68.6801 16.6661 4
67.8276 19.9227 3.9888
67.2507 60.3286 2
71.1327 54.0858 4
68.6801 58.3339 4
65.6939 62.2254 4
65.314 59.0056 3.99023
74.6784 42.3946 4
73.7221 47.2057 4
69.9759 18.75 0
73.0099 25.446 2
68.6801 16.6661 2
71.1327 20.9142 2
67.828 19.9232 2
74.6792 32.6053 4
73.7222 27.7943 4
72.1454 23.1494 4
70.6165 26.2218 3.98773
68.8881 21.9563 3.98843
67.2507 14.6715 4
66.639 17.9673 3.98953
65.8042 21.0185 3.98461
67.2507 60.3285 0
71.1327 54.0858 2
68.6801 58.3339 2
65.694 62.2255 2
65.3142 59.0056 2
72.1454 51.8506 4
69.9759 56.25 4
68.8391 53.1144 3.9884
64.0165 64.0165 4
66.6127 57.1377 3.98972
63.8873 60.77 3.99121
63.5059 57.7814 3.98572
60.3285 67.2507 4
74.6792 42.3947 2
73.7222 47.2057 2
74.9194 39.9526 4
74.2788 44.8158 4
72.1698 42.0851 3.98674
73.0099 49.554 4
71.2516 46.5969 3.98783
73.0099 25.446 0
71.1327 20.9142 0
68.6801 16.6661 0
67.8276 19.9227 0.0112037
74.6792 32.6053 2
73.7222 27.7943 2
67.2508 14.6715 2
72.1455 23.1494 2
70.6166 26.2229 2
66.6392 17.9675 2
68.8884 21.9572 2
65.8045 21.0181 2
74.9197 35.0474 4
74.2794 30.1841 4
72.1864 32.9434 3.98693
71.2803 28.4323 3.98759
69.8181 24.0595 3.98812
68.3534 26.95 3.98167
66.7699 22.9286 3.98393
65.694 12.7746 4
65.3253 16.0985 3.99052
64.7203 19.1857 3.98541
63.8988 22.0241 3.98227
71.1327 54.0858 0
65.6939 62.2254 0
68.6801 58.3339 0
65.314 59.0056 0.00976712
72.1455 51.8506 2
69.9759 56.25 2
68.8394 53.1137 2
64.0165 64.0165 2
66.613 57.1376 2
63.8874 60.77 2
63.506 57.7817 2
62.2254 65.694 4
58.8942 65.4167 3.99253
69.7717 50.9887 3.98805
67.7862 55.1702 3.98912
66.6576 52.2134 3.98394
62.3372 62.4308 3.99195
64.6677 56.0398 3.98584
62.2068 59.4146 3.98595
61.8324 56.6953 3.98373
58.3339 68.6801 4
60.3285 67.2508 2
73.7221 47.2057 0
74.6784 42.3946 0
74.9197 39.9526 2
74.2794 44.8159 2
72.1698 42.0852 2
73.0099 49.554 2
71.2516 46.5963 2
75 37.5 4
72.4067 39.802 3.98592
71.7845 44.352 3.98745
69.8093 41.7891 3.98032
70.5778 48.8124 3.98796
68.919 46.015 3.98119
74.6792 32.6053 0
73.7222 27.7943 0
67.2507 14.6715 0
72.1454 23.1494 0
70.6165 26.2218 0.0122694
68.8881 21.9563 0.0115707
66.639 17.9673 0.0104736
65.8042 21.0185 0.0153919
74.9197 35.0474 2
74.2794 30.1841 2
72.1864 32.9436 2
71.2803 28.4331 2
65.694 12.7745 2
65.3255 16.0985 2
69.8183 24.0606 2
68.3533 26.95 2
64.7205 19.1853 2
66.7701 22.9283 2
63.899 22.0239 2
72.4145 35.2241 3.98595
71.8057 30.6768 3.98751
69.8452 33.2683 3.98054
68.9723 29.0376 3.98097
67.6185 24.9091 3.98291
66.2051 27.6304 3.97929
64.0165 10.9835 4
64.7687 23.8213 3.98167
63.8913 14.3229 3.99134
63.5184 17.4361 3.98621
62.9178 20.3067 3.9829
62.1087 22.9282 3.98112
60.6846 11.0945 3.99218
57.613 11.4388 3.98733
72.1454 51.8506 0
69.9759 56.25 0
68.8391 53.1144 0.0115989
64.0165 64.0165 0
63.8873 60.77 0.00879421
66.6127 57.1377 0.0102837
63.5059 57.7814 0.014278
62.2255 65.694 2
58.8944 65.4168 2
69.7719 50.9878 2
67.7865 55.1699 2
66.6578 52.2137 2
62.3374 62.4308 2
64.6679 56.0402 2
62.2068 59.4149 2
61.8325 56.6956 2
60.6692 63.9799 3.99225
57.0246 66.7373 3.9929
57.5582 63.6981 3.98744
67.5154 50.1792 3.98286
65.7099 54.1796 3.98512
64.5511 51.3936 3.98126
60.7755 60.9473 3.98658
62.8317 55.0808 3.98404
60.6653 58.1737 3.9837
60.3403 55.8032 3.98292
56.25 69.9759 4
58.3339 68.6801 2
60.3285 67.2507 0
58.9215 9.65291 3.99255
62.2254 9.30607 4
73.0099 49.554 0
74.2788 44.8158 0
71.2516 46.5969 0.0121733
72.1698 42.0851 0.013261
74.9194 39.9526 0
75 37.5 2
72.4066 39.8022 2
71.7845 44.3518 2
69.8093 41.789 2
70.5779 48.8116 2
68.9189 46.0149 2
72.4899 37.5119 3.98546
70.0454 39.6568 3.9793
69.4364 43.9071 3.98088
67.6063 41.4983 3.97768
68.2733 48.1083 3.98194
66.7208 45.4424 3.97889
74.9197 35.0474 0
74.2794 30.1841 0
72.1864 32.9434 0.013065
71.2803 28.4323 0.012413
65.694 12.7746 0
65.3253 16.0985 0.00948236
69.8181 24.0595 0.011882
68.3534 26.95 0.0183264
66.7699 22.9286 0.0160727
64.7203 19.1857 0.0145896
63.8988 22.0241 0.0177337
72.4145 35.2242 2
71.8057 30.6772 2
69.8452 33.2684 2
68.9721 29.0377 2
64.0165 10.9835 2
63.8914 14.3228 2
63.5185 17.4357 2
67.6185 24.909 2
66.205 27.6301 2
62.9181 20.3064 2
64.7688 23.821 2
62.1089 22.9281 2
60.6847 11.0945 2
57.6129 11.4384 2
70.0623 35.3919 3.97978
69.4729 31.1493 3.98087
67.6642 33.5893 3.97785
66.7821 29.6197 3.97847
65.5357 25.6929 3.98053
64.1606 28.2481 3.97852
62.3425 12.6515 3.99183
62.8733 24.6246 3.98076
62.2023 15.7741 3.98645
61.8224 18.6697 3.98391
61.232 21.3244 3.98126
60.4451 23.7093 3.9809
59.2475 12.7697 3.98669
55.8746 10.2257 3.98845
56.4067 13.1011 3.98443
69.7717 50.9887 0.0119528
62.2254 65.694 0
58.8942 65.4167 0.00746628
67.7862 55.1702 0.0108848
66.6576 52.2134 0.0160583
62.3372 62.4308 0.00805409
62.2068 59.4146 0.0140517
64.6677 56.0398 0.0141559
61.8324 56.6953 0.0162651
60.6694 63.98 2
57.0248 66.7373 2
57.5582 63.6986 2
67.5154 50.1793 2
65.7101 54.18 2
64.5512 51.394 2
60.7756 60.9478 2
62.8319 55.0812 2
60.6654 58.174 2
60.3405 55.8034 2
55.0701 67.934 3.99322
59.2206 62.3742 3.98687
55.8041 64.915 3.9883
56.3284 62.0988 3.98462
65.3447 49.4142 3.98023
63.7191 53.3032 3.9828
62.4599 50.6639 3.97991
59.3378 59.5698 3.9845
61.0922 54.3255 3.98325
59.2985 57.0299 3.98216
59.2564 55.2023 3.98315
48.1023 68.5819 3.99007
50.948 69.9333 3.99374
54.0858 71.1327 4
56.25 69.976 2
58.3339 68.6801 0
57.0585 8.33289 3.99303
60.3285 7.74928 4
58.9216 9.65284 2
62.2255 9.30602 2
70.5778 48.8124 0.0120357
71.7845 44.352 0.0125459
68.919 46.015 0.0188067
69.8093 41.7891 0.0196794
72.4067 39.802 0.0140824
75 37.5 0
72.4899 37.5122 2
70.0454 39.6567 2
69.4363 43.907 2
67.6062 41.4983 2
68.2733 48.1083 2
66.7207 45.4426 2
70.1331 37.5212 3.97892
67.8418 39.5124 3.97667
67.2337 43.4715 3.97839
65.5683 41.212 3.97689
66.0808 47.422 3.97955
64.6671 44.8533 3.97808
72.4145 35.2241 0.0140469
71.8057 30.6768 0.0124886
69.8452 33.2683 0.0194617
68.9723 29.0376 0.0190329
64.0165 10.9835 0
63.8913 14.3229 0.00866477
63.5184 17.4361 0.013793
67.6185 24.9091 0.0170905
66.2051 27.6304 0.0207109
64.7687 23.8213 0.0183298
62.9178 20.3067 0.0171038
62.1087 22.9282 0.0188774
60.6846 11.0945 0.00782338
57.613 11.4388 0.0126709
70.0623 35.3919 2
69.4728 31.1494 2
67.6642 33.5891 2
66.7819 29.6195 2
62.3427 12.6514 2
62.2024 15.7736 2
61.8226 18.6693 2
65.5357 25.6926 2
64.1604 28.2478 2
61.2323 21.3243 2
62.8733 24.6244 2
60.4452 23.7093 2
59.2474 12.7692 2
56.4067 13.1007 2
55.8746 10.2252 2
67.8782 35.5466 3.97726
67.2749 31.62 3.9784
65.7098 33.9243 3.97686
64.6763 30.1864 3.97735
63.5538 26.4043 3.97959
62.275 28.7673 3.97895
60.7772 14.2137 3.98646
61.0652 25.3219 3.98063
60.6184 17.1133 3.98461
60.234 19.7981 3.98245
59.6785 22.2385 3.98012
59.0004 24.3 3.9813
54.0375 9.12924 3.98923
57.9126 14.3192 3.98454
54.7875 12.0007 3.98508
55.3148 14.6317 3.9833
67.5154 50.1792 0.0171366
57.0246 66.7373 0.00710484
60.6692 63.9799 0.00774704
57.5582 63.6981 0.0125588
65.7099 54.1796 0.0148764
64.5511 51.3936 0.0187367
60.7755 60.9473 0.0134216
60.6653 58.1737 0.0163008
62.8317 55.0808 0.0159597
60.3403 55.8032 0.0170845
55.0703 67.9341 2
59.2206 62.3747 2
55.8041 64.9154 2
56.3284 62.0993 2
65.3447 49.4146 2
63.7193 53.3036 2
62.46 50.6643 2
59.3379 59.5704 2
61.0924 54.3258 2
59.2986 57.0302 2
59.2566 55.2025 2
53.042 69.0017 3.99351
53.9661 66.0169 3.98896
57.8835 60.881 3.98461
54.6841 63.2142 3.98522
55.214 60.6265 3.98333
63.2119 48.6704 3.97909
61.7591 52.5896 3.98162
60.2962 50.0344 3.9792
58.0244 58.2763 3.98303
59.3444 53.9662 3.98247
58.1384 55.8324 3.98067
50.1087 67.8599 3.9898
47.4625 66.5861 3.98768
46.0561 69.1613 3.99031
48.1024 68.5823 2
48.8023 70.7244 3.99395
50.9482 69.9334 2
51.8506 72.1454 4
54.0858 71.1327 2
56.25 69.9759 0
55.1028 7.13753 3.99337
58.3339 6.31992 4
57.0587 8.33276 2
60.3286 7.74926 2
58.9215 9.65291 0.00745352
62.2254 9.30607 0
68.2733 48.1083 0.018057
69.4364 43.9071 0.0191211
66.7208 45.4424 0.0211138
67.6063 41.4983 0.0223243
70.0454 39.6568 0.0206962
72.4899 37.5119 0.0145437
70.1331 37.5212 2
67.8418 39.5123 2
67.2336 43.4716 2
65.5683 41.2121 2
66.0807 47.4223 2
64.667 44.8535 2
67.9375 37.5216 3.97605
65.7982 39.3711 3.97598
65.1897 43.0288 3.97749
63.7713 40.9331 3.97684
63.9819 46.7236 3.97856
62.8256 44.2234 3.97868
70.0623 35.3919 0.0202161
69.4729 31.1493 0.0191264
67.6642 33.5893 0.0221484
66.7821 29.6197 0.0215344
62.3425 12.6515 0.0081666
62.2023 15.7741 0.0135538
61.8224 18.6697 0.0160897
65.5357 25.6929 0.0194697
64.1606 28.2481 0.0214837
62.8733 24.6246 0.0192416
61.232 21.3244 0.0187409
60.4451 23.7093 0.0190981
59.2475 12.7697 0.0133066
56.4067 13.1011 0.0155697
55.8746 10.2257 0.0115522
67.8782 35.5464 2
67.2747 31.6199 2
65.7097 33.924 2
64.6761 30.1861 2
60.7772 14.2132 2
60.6186 17.1129 2
60.2343 19.7979 2
63.5536 26.404 2
62.2747 28.7671 2
59.6787 22.2385 2
61.0651 25.3218 2
59.0004 24.3001 2
57.9126 14.3188 2
55.3148 14.6313 2
54.0375 9.12876 2
54.7875 12.0002 2
65.8874 35.6651 3.97633
65.1993 32.1497 3.97719
64.2988 34.2463 3.97644
62.6119 30.6272 3.9773
61.6705 27.0591 3.97931
60.8708 29.1277 3.98074
59.314 15.6556 3.98467
59.3545 25.778 3.9819
59.131 18.3383 3.98368
58.7539 20.8334 3.98093
58.3046 23.0706 3.97911
57.9918 24.6435 3.9821
52.1122 8.14802 3.98972
53.0582 11.0072 3.98607
56.6796 15.7274 3.98379
53.811 13.6673 3.9833
54.3791 15.9826 3.98318
55.0701 67.934 0.00677833
65.3447 49.4142 0.0197735
55.8041 64.915 0.0117049
59.2206 62.3742 0.0131266
56.3284 62.0988 0.0153815
63.7191 53.3032 0.0171986
62.4599 50.6639 0.0200896
59.3378 59.5698 0.0155036
59.2985 57.0299 0.0178403
61.0922 54.3255 0.0167517
59.2564 55.2023 0.0168536
53.0422 69.0018 2
53.9662 66.0172 2
57.8835 60.8815 2
54.684 63.2146 2
55.214 60.627 2
63.2118 48.6707 2
61.7592 52.59 2
60.2962 50.0347 2
58.0246 58.2768 2
59.3446 53.9664 2
58.1386 55.8326 2
52.0697 67.0031 3.98947
52.9528 64.2242 3.98597
56.6524 59.5016 3.9836
53.6823 61.6307 3.98374
54.2636 59.3331 3.98257
61.0159 47.8931 3.9784
59.731 52.1227 3.98133
58.0521 49.6351 3.97996
56.7849 57.0056 3.98105
57.1376 54.1435 3.98032
50.1088 67.8603 2
49.3362 65.9262 3.98726
47.4625 66.5866 2
46.8915 64.743 3.98583
45.5578 67.1036 3.98784
43.9733 69.594 3.99054
46.0562 69.1617 2
46.609 71.3689 3.99416
48.1023 68.5819 0.00993026
48.8024 70.7246 2
49.554 73.0099 4
50.948 69.9333 0.00625966
51.8506 72.1455 2
54.0858 71.1327 0
53.0638 6.06915 3.99363
55.1029 7.13739 2
56.25 5.02411 4
58.3339 6.3199 2
57.0585 8.33289 0.00696984
60.3285 7.74928 0
66.0808 47.422 0.0204478
67.2337 43.4715 0.0216147
64.6671 44.8533 0.0219207
65.5683 41.212 0.0231084
67.8418 39.5124 0.0233281
70.1331 37.5212 0.0210791
67.9374 37.5215 2
65.7982 39.3711 2
65.1896 43.029 2
63.7713 40.9332 2
63.9818 46.7239 2
62.8255 44.2235 2
65.9002 37.5014 3.97496
63.9139 39.2684 3.97592
63.3461 42.5554 3.9774
62.45 40.702 3.97665
61.988 45.9286 3.97853
61.4733 43.692 3.98007
67.8782 35.5466 0.0227449
67.2749 31.62 0.0216007
65.7098 33.9243 0.0231418
64.6763 30.1864 0.022651
60.7772 14.2137 0.0135361
60.6184 17.1133 0.015393
60.234 19.7981 0.0175524
63.5538 26.4043 0.020408
62.275 28.7673 0.0210504
61.0652 25.3219 0.0193729
59.6785 22.2385 0.0198842
59.0004 24.3 0.0187046
57.9126 14.3192 0.0154586
55.3148 14.6317 0.0167008
54.0375 9.12924 0.010769
54.7875 12.0007 0.0149152
65.8874 35.6649 2
65.1991 32.1494 2
64.2987 34.246 2
62.6115 30.6269 2
59.3141 15.6551 2
59.1313 18.3378 2
58.7543 20.8333 2
61.6703 27.059 2
60.8704 29.1275 2
58.3047 23.0708 2
59.3544 25.7781 2
57.9918 24.6437 2
56.6796 15.727 2
54.3791 15.9822 2
53.811 13.6668 2
52.1122 8.14755 2
53.0582 11.0066 2
64.105 35.6302 3.97586
62.9479 33.0403 3.97619
60.6358 30.6003 3.97766
59.5959 27.8943 3.98029
57.9437 16.9675 3.984
57.7658 25.7052 3.98337
57.7239 19.4567 3.98261
57.3867 21.8182 3.97898
57.2081 23.925 3.97898
50.1123 7.28037 3.98998
51.2324 10.1159 3.98681
52.1729 12.7846 3.98431
55.541 16.9556 3.98367
52.9798 15.2486 3.98202
53.7614 16.964 3.9834
53.042 69.0017 0.00648529
53.9661 66.0169 0.011036
63.2119 48.6704 0.0209097
54.6841 63.2142 0.0147767
57.8835 60.881 0.015393
55.214 60.6265 0.0166698
61.7591 52.5896 0.0183779
60.2962 50.0344 0.0207973
58.0244 58.2763 0.0169694
58.1384 55.8324 0.0193252
59.3444 53.9662 0.0175299
52.0697 67.0035 2
52.9528 64.2246 2
56.6525 59.5021 2
53.6822 61.6311 2
54.2636 59.3336 2
61.0158 47.8933 2
59.7311 52.123 2
58.0521 49.6353 2
56.7852 57.0061 2
57.1378 54.1436 2
51.1671 65.1331 3.98665
52.0462 62.5455 3.98424
55.4857 58.2641 3.98312
52.8367 60.145 3.98281
53.6443 58.4838 3.98252
58.3351 46.8638 3.98094
57.5839 51.8067 3.98009
56.2765 49.5733 3.98219
55.4821 55.8132 3.97949
55.3757 53.404 3.97715
50.1087 67.8599 0.0101974
49.3362 65.9267 2
48.6174 64.129 3.98541
47.4625 66.5861 0.0123181
45.5578 67.1041 2
46.8915 64.7434 2
46.3811 63.0611 3.98444
45.1318 65.2047 3.98611
43.6311 67.4748 3.98802
41.8606 69.8816 3.99062
43.9734 69.5944 2
44.3765 71.8638 3.9943
46.0561 69.1613 0.0096936
46.6092 71.3691 2
47.2057 73.7222 4
48.8023 70.7244 0.00605232
49.554 73.0099 2
51.8506 72.1454 0
50.9535 5.1297 3.9938
53.064 6.06898 2
54.0858 3.86728 4
55.1028 7.13753 0.00663177
56.25 5.02406 2
58.3339 6.31992 0
63.9819 46.7236 0.0214394
65.1897 43.0288 0.0225062
62.8256 44.2234 0.021324
63.7713 40.9331 0.0231609
65.7982 39.3711 0.0240223
67.9375 37.5216 0.0239537
65.9 37.5012 2
63.9139 39.2684 2
63.346 42.5555 2
62.45 40.7021 2
61.9879 45.9288 2
61.4732 43.6921 2
63.973 37.4567 3.97493
62.1772 39.3575 3.97632
61.2408 41.9655 3.97754
60.275 44.7809 3.9805
65.8874 35.6651 0.0236728
65.1993 32.1497 0.022813
64.2988 34.2463 0.0235559
62.6119 30.6272 0.022696
59.314 15.6556 0.0153261
59.131 18.3383 0.0163177
58.7539 20.8334 0.0190746
61.6705 27.0591 0.0206892
60.8708 29.1277 0.0192633
59.3545 25.778 0.0181023
58.3046 23.0706 0.02089
57.9918 24.6435 0.0179015
56.6796 15.7274 0.0162113
54.3791 15.9826 0.0168217
53.811 13.6673 0.0167048
52.1122 8.14802 0.0102803
53.0582 11.0072 0.0139328
64.105 35.63 2
62.9477 33.0399 2
60.6353 30.6 2
57.9439 16.9671 2
57.7244 19.4563 2
57.3871 21.8182 2
59.5955 27.8943 2
57.2081 23.9253 2
57.7656 25.7054 2
50.1123 7.27992 2
55.5411 16.9552 2
53.7615 16.9635 2
52.9797 15.2481 2
52.1729 12.784 2
51.2324 10.1154 2
62.2094 35.356 3.97544
60.3149 32.737 3.97558
58.6487 30.0601 3.97825
57.3213 27.3606 3.9827
56.6412 18.1386 3.98374
56.3186 25.0805 3.98
56.3679 20.5011 3.98075
56.1274 22.8464 3.97618
48.0561 6.52368 3.99021
49.3243 9.32422 3.98744
50.4334 11.9831 3.98476
51.3793 14.4841 3.9826
54.419 17.9038 3.98341
52.364 17.0203 3.98217
52.0697 67.0031 0.0105292
52.9528 64.2242 0.0140314
61.0159 47.8931 0.0216011
53.6823 61.6307 0.0162637
56.6524 59.5016 0.0163987
54.2636 59.3331 0.0174343
59.731 52.1227 0.0186697
58.0521 49.6351 0.020038
56.7849 57.0056 0.0189511
57.1376 54.1435 0.0196755
51.1671 65.1335 2
52.0462 62.546 2
55.4859 58.2647 2
52.8366 60.1455 2
53.6444 58.4844 2
58.335 46.864 2
57.5839 51.8068 2
56.2763 49.5734 2
55.4825 55.8136 2
55.3758 53.4041 2
50.3458 63.387 3.98483
51.2451 60.9433 3.98279
54.2255 57.2793 3.98208
52.316 58.6453 3.98188
56.7545 44.1993 3.98022
55.5276 47.9141 3.98163
55.0949 51.4093 3.97746
54.0176 54.5656 3.97714
49.3362 65.9262 0.0127431
48.6173 64.1295 2
47.9615 62.4818 3.98405
45.5578 67.1036 0.012156
46.8915 64.743 0.0141715
43.6311 67.4754 2
46.381 63.0615 2
45.1318 65.2052 2
45.9867 61.5941 3.98329
44.7662 63.4626 3.9849
43.3557 65.5147 3.98616
41.6633 67.6942 3.98814
39.7024 70.0289 3.9906
41.8607 69.8821 2
42.111 72.2086 3.99428
43.9733 69.594 0.0094624
44.3767 71.864 2
44.8159 74.2794 4
46.609 71.3689 0.00583953
47.2057 73.7222 2
49.554 73.0099 0
48.7841 4.32082 3.994
50.9537 5.1295 2
51.8506 2.85458 4
53.0638 6.06915 0.00637094
54.0858 3.86728 2
56.25 5.02411 0
61.988 45.9286 0.0214675
63.3461 42.5554 0.0225997
61.4733 43.692 0.0199282
62.45 40.702 0.0233461
63.9139 39.2684 0.0240809
65.9002 37.5014 0.0250366
63.9727 37.4565 2
62.1773 39.3574 2
61.2407 41.9656 2
60.2749 44.7812 2
62.0146 37.4443 3.97539
60.2757 39.852 3.97674
59.0253 42.9289 3.97847
64.105 35.6302 0.0241365
62.9479 33.0403 0.0238123
60.6358 30.6003 0.0223419
57.9437 16.9675 0.0159992
57.7239 19.4567 0.0173906
57.3867 21.8182 0.0210242
59.5959 27.8943 0.0197059
57.7658 25.7052 0.0166322
57.2081 23.925 0.0210217
55.541 16.9556 0.0163269
53.7614 16.964 0.0165954
52.9798 15.2486 0.0179795
50.1123 7.28037 0.0100206
52.1729 12.7846 0.0156874
51.2324 10.1159 0.0131879
62.2095 35.3558 2
60.3146 32.7367 2
58.648 30.0599 2
56.6416 18.1381 2
56.3686 20.5007 2
56.1276 22.8467 2
57.3208 27.3606 2
56.3185 25.0811 2
48.0561 6.5233 2
49.3242 9.32372 2
54.4192 17.9034 2
52.3641 17.0198 2
51.3793 14.4835 2
50.4334 11.9825 2
59.9222 35.1153 3.97547
58.0264 32.2575 3.97592
56.5788 29.3188 3.97925
55.4801 26.5782 3.98361
55.3482 19.1719 3.98318
54.9527 24.0339 3.97491
55.0146 21.5413 3.97922
45.9621 5.87889 3.99048
43.3734 7.46787 3.98853
47.3547 8.61828 3.98774
48.5999 11.2848 3.98548
49.7148 13.7314 3.9835
50.6357 16.1182 3.9811
53.1292 18.6434 3.98234
51.3062 18.0336 3.9836
51.1671 65.1331 0.0133455
52.0462 62.5455 0.0157561
58.3351 46.8638 0.0190641
52.8367 60.145 0.0171893
55.4857 58.2641 0.0168784
53.6443 58.4838 0.0174781
57.5839 51.8067 0.0199075
56.2765 49.5733 0.0178149
55.4821 55.8132 0.0205108
55.3757 53.404 0.022849
50.3457 63.3874 2
51.245 60.9437 2
54.2258 57.2798 2
52.316 58.6459 2
56.7544 44.1995 2
55.5274 47.9144 2
55.0949 51.4092 2
54.018 54.5659 2
49.5918 61.7515 3.98348
55.6891 41.7198 3.97759
50.569 59.3372 3.98128
52.1917 56.503 3.98012
54.2308 45.5826 3.98254
53.3771 49.3473 3.97841
52.6878 52.8718 3.97587
48.6174 64.129 0.0145946
47.9614 62.4823 2
47.3291 61.0168 3.98287
43.6311 67.4748 0.0119831
45.1318 65.2047 0.0138888
46.3811 63.0611 0.0155619
41.6633 67.6947 2
43.3557 65.5153 2
45.9866 61.5945 2
44.7661 63.4631 2
45.766 60.6384 3.98244
44.4824 61.8441 3.98357
43.1454 63.7354 3.98484
41.5453 65.6531 3.98646
39.6325 67.7743 3.98821
37.5259 70.0543 3.99064
39.7024 70.0293 2
39.8179 72.4057 3.99421
41.8606 69.8816 0.00938338
42.1111 72.2089 2
42.3947 74.6792 4
44.3765 71.8638 0.00569668
44.8159 74.2794 2
47.2057 73.7222 0
43.8515 5.35601 3.99072
46.5702 3.64547 3.9942
48.7842 4.32063 2
49.554 1.99015 4
50.9535 5.1297 0.00620441
51.8506 2.85453 2
54.0858 3.86728 0
60.275 44.7809 0.0194953
61.2408 41.9655 0.0224579
62.1772 39.3575 0.0236812
63.973 37.4567 0.0250747
62.0143 37.4442 2
60.2758 39.8518 2
59.0252 42.929 2
59.7936 37.5672 3.97645
58.0403 40.6651 3.97691
55.1703 39.7292 3.97617
62.2094 35.356 0.0245605
60.3149 32.737 0.0244216
58.6487 30.0601 0.0217509
56.6412 18.1386 0.0162616
56.3679 20.5011 0.0192525
56.1274 22.8464 0.0238163
57.3213 27.3606 0.0173038
56.3186 25.0805 0.0199986
54.419 17.9038 0.0165946
52.364 17.0203 0.0178252
51.3793 14.4841 0.0174033
48.0561 6.52368 0.00978902
49.3243 9.32422 0.0125577
50.4334 11.9831 0.0152415
59.9223 35.1151 2
45.9621 5.8785 2
43.3735 7.46748 2
58.0259 32.2572 2
56.578 29.3185 2
55.3487 19.1714 2
55.0153 21.541 2
54.9528 24.0348 2
55.4796 26.579 2
47.3547 8.61789 2
48.5999 11.2843 2
53.1294 18.643 2
51.3063 18.033 2
50.6357 16.1175 2
49.7147 13.7309 2
57.4385 34.7537 3.97645
55.7686 31.5003 3.97593
54.5525 28.3807 3.98507
53.8018 25.4759 3.97809
53.976 20.1189 3.98314
53.5975 22.6857 3.97475
41.3985 7.07306 3.98868
45.3595 7.9898 3.9881
42.8651 9.40837 3.98686
46.6661 10.6458 3.98582
47.7456 13.0919 3.98374
48.9329 15.3886 3.98249
50.0087 17.6872 3.97946
51.6572 19.3113 3.98498
50.3458 63.387 0.0151711
51.2451 60.9433 0.0172118
56.7545 44.1993 0.0197794
55.5276 47.9141 0.0183734
52.316 58.6453 0.0181207
54.2255 57.2793 0.0179198
55.0949 51.4093 0.0225424
54.0176 54.5656 0.0228649
49.5917 61.7519 2
55.6895 41.719 2
50.5689 59.3377 2
52.1921 56.5037 2
54.2307 45.5831 2
53.3768 49.3466 2
52.6882 52.871 2
48.8497 60.2093 3.98237
52.599 42.6605 3.97654
49.793 57.6373 3.98102
50.6072 54.4385 3.97724
51.8717 47.2871 3.98046
51.2452 50.9651 3.97379
48.2818 43.7568 3.98024
47.9615 62.4818 0.0159485
47.329 61.0172 2
46.6191 59.8033 3.98224
41.6633 67.6942 0.0118587
43.3557 65.5147 0.0138437
44.7662 63.4626 0.0150966
45.9867 61.5941 0.0167138
39.6325 67.7748 2
41.5453 65.6536 2
45.7659 60.6387 2
43.1453 63.7359 2
44.4823 61.8445 2
44.6232 60.3009 3.98258
42.9495 62.0931 3.98417
41.5988 63.8295 3.98498
39.647 65.6222 3.98668
37.5631 67.7571 3.98814
31.6974 65.1412 3.98676
33.392 67.4948 3.98819
35.3333 69.9644 3.99064
37.5259 70.0547 2
37.5096 72.4604 3.99421
39.7024 70.0289 0.00939787
39.8179 72.406 2
39.9526 74.9197 4
42.111 72.2086 0.00571663
42.3947 74.6792 2
44.8159 74.2794 0
41.7361 4.96511 3.99096
43.8515 5.35562 2
44.3255 3.10881 3.99433
46.5703 3.64526 2
47.2057 1.27793 4
48.7841 4.32082 0.00599545
49.554 1.99013 2
51.8506 2.85458 0
59.0253 42.9289 0.0215307
60.2757 39.852 0.0232625
62.0146 37.4443 0.0246098
59.7932 37.5671 2
58.0405 40.6647 2
55.1697 39.7286 2
56.877 37.8982 3.97834
49.737 41.3152 3.97788
53.2127 39.3158 3.97597
39.4419 6.79661 3.98889
59.9222 35.1153 0.02453
58.0264 32.2575 0.0240795
56.5788 29.3188 0.0207525
55.3482 19.1719 0.0168231
55.0146 21.5413 0.0207828
54.9527 24.0339 0.0250934
55.4801 26.5782 0.0163862
53.1292 18.6434 0.0176568
51.3062 18.0336 0.0163991
50.6357 16.1182 0.0189043
45.9621 5.87889 0.00951712
49.7148 13.7314 0.0164974
47.3547 8.61828 0.0122644
48.5999 11.2848 0.0145224
43.3734 7.46787 0.011474
57.4385 34.7538 2
41.3986 7.0726 2
45.3595 7.98944 2
42.8651 9.40799 2
55.7679 31.4998 2
54.5514 28.3814 2
53.9767 20.1183 2
53.5982 22.6851 2
53.8016 25.4772 2
46.6661 10.6456 2
47.7454 13.0914 2
51.6574 19.3106 2
50.0088 17.6866 2
48.9329 15.3881 2
54.9453 33.9584 3.97747
53.5474 30.4601 3.97924
52.6304 27.1787 3.98135
52.1676 24.0673 3.97503
52.401 21.0508 3.98079
41.0132 9.04161 3.98703
44.7232 9.98862 3.98635
42.4678 10.8942 3.98525
46.005 12.7199 3.98437
47.6824 14.5734 3.98311
48.1154 16.9757 3.98091
49.8213 19.5856 3.9781
49.5918 61.7515 0.0165162
50.569 59.3372 0.0187153
55.6891 41.7198 0.0224051
54.2308 45.5826 0.0174556
53.3771 49.3473 0.0215896
52.1917 56.503 0.0198797
52.6878 52.8718 0.024133
48.8496 60.2098 2
52.6001 42.6597 2
49.7931 57.6377 2
50.6075 54.4397 2
51.8711 47.2866 2
51.2452 50.9634 2
48.2739 43.759 2
47.9884 58.7515 3.98154
50.1883 45.2862 3.9783
48.6047 55.9291 3.98131
49.1494 52.6162 3.97795
49.7158 49.0644 3.97309
46.1538 39.8906 3.9169
46.5361 42.7262 3.96811
46.5912 45.7888 3.98423
43.9962 41.2135 3.95411
42.1106 41.9877 3.94793
47.3291 61.0168 0.0171316
46.6189 59.8036 2
45.4689 58.7997 3.98164
39.6325 67.7743 0.0117887
41.5453 65.6531 0.0135371
43.1454 63.7354 0.015161
44.4824 61.8441 0.0164347
45.766 60.6384 0.0175576
41.5987 63.8299 2
37.5632 67.7576 2
39.647 65.6226 2
44.6231 60.3012 2
42.9494 62.0935 2
41.7525 62.5045 3.98454
42.4808 59.9934 3.98314
39.8923 63.5655 3.98499
37.6418 65.5216 3.98646
35.4633 67.6666 3.9882
33.5754 65.3549 3.98674
31.9597 63.3146 3.98529
29.8836 64.7318 3.98651
31.6974 65.1417 2
31.3767 67.2044 3.98824
33.3921 67.4953 2
33.1561 69.7578 3.99065
35.3333 69.9649 2
35.195 72.3748 3.9942
37.5259 70.0543 0.00935783
37.5096 72.4606 2
37.5 75 4
39.8179 72.4057 0.00579119
39.9526 74.9197 2
42.3947 74.6792 0
39.6237 4.71231 3.99105
41.7361 4.96469 2
42.062 2.71644 3.9945
43.8515 5.35601 0.009281
44.3256 3.10858 2
44.8158 0.721173 4
46.5702 3.64547 0.00579833
47.2057 1.27779 2
49.554 1.99015 0
58.0403 40.6651 0.0230888
59.7936 37.5672 0.023548
55.1703 39.7292 0.0238251
49.7363 41.3158 2
56.8764 37.8982 2
53.2116 39.3145 2
54.0687 36.6225 3.97615
47.6666 40.4409 3.98806
50.7027 38.4947 3.97923
37.5157 6.66769 3.98889
39.4419 6.79613 2
39.2108 8.68414 3.98726
35.9412 8.48405 3.98736
57.4385 34.7537 0.0235468
55.7686 31.5003 0.024067
54.5525 28.3807 0.0149301
53.976 20.1189 0.0168595
53.5975 22.6857 0.0252512
53.8018 25.4759 0.0219142
51.6572 19.3113 0.0150161
50.0087 17.6872 0.0205448
48.9329 15.3886 0.0175098
45.3595 7.9898 0.0118956
47.7456 13.0919 0.0162599
46.6661 10.6458 0.0141772
41.3985 7.07306 0.0113203
42.8651 9.40837 0.0131392
54.9454 33.9584 2
41.0132 9.04109 2
44.7232 9.98833 2
42.4677 10.8938 2
53.5459 30.4586 2
52.6298 27.1812 2
52.4017 21.0496 2
52.1681 24.0686 2
46.0048 12.7196 2
47.6823 14.5729 2
49.8215 19.5852 2
48.1155 16.9752 2
52.4934 32.8539 3.9774
51.3979 29.1351 3.97999
50.826 25.7043 3.97204
49.9501 22.1639 3.97928
40.5686 11.5974 3.98471
43.8576 11.9091 3.9848
45.8034 15.4085 3.98286
47.5071 19.2085 3.9794
46.4901 37.4977 3.91631
48.8497 60.2093 0.0176321
49.793 57.6373 0.0189843
52.599 42.6605 0.023456
51.8717 47.2871 0.0195405
51.2452 50.9651 0.0262104
50.6072 54.4385 0.0227608
48.2818 43.7568 0.0197614
47.9884 58.7519 2
50.1875 45.2891 2
48.6047 55.9295 2
49.1495 52.6175 2
49.7148 49.0625 2
46.1602 39.8938 2
46.5415 42.7301 2
46.5852 45.7903 2
44.0033 41.2164 2
42.1186 41.9905 2
46.8411 57.3544 3.98274
44.7644 39.4883 3.9489
42.4898 40.8662 3.95767
48.1589 47.2604 3.98029
47.1796 54.2627 3.98158
47.619 50.7751 3.97757
44.8751 47.353 3.99506
45.2157 41.999 3.92001
45.003 44.6311 3.96321
42.7963 42.7251 3.95146
40.9604 42.3449 3.95248
46.6191 59.8033 0.0177644
45.4688 58.7999 2
43.8769 57.7242 3.98188
37.5631 67.7571 0.0118641
39.647 65.6222 0.0133153
41.5988 63.8295 0.0150234
42.9495 62.0931 0.0158349
44.6232 60.3009 0.0174188
35.4633 67.6671 2
41.7525 62.5049 2
39.8923 63.5659 2
37.6419 65.522 2
42.4807 59.9938 2
40.6223 61.6635 3.98395
40.4446 58.226 3.98191
37.836 63.2276 3.98556
35.5728 65.4441 3.98663
33.5755 65.3554 2
31.9598 63.3151 2
33.6291 63.3548 3.98542
30.3787 62.8727 3.98506
32.123 62.0213 3.98425
26.8677 61.5151 3.98379
28.0624 64.1595 3.98619
29.8837 64.7323 2
29.4063 66.7677 3.98816
31.6974 65.1412 0.0132374
31.3767 67.2048 2
31.0134 69.4227 3.99055
33.392 67.4948 0.0118149
33.1561 69.7582 2
32.8921 72.149 3.99423
35.3333 69.9644 0.00936448
35.1949 72.3751 2
35.0474 74.9194 4
37.5096 72.4604 0.00578876
37.5 75 2
39.9526 74.9197 0
35.6202 6.71879 3.9889
37.5228 4.61179 3.99113
39.6237 4.7119 2
39.7885 2.47293 3.99458
41.7361 4.96511 0.00904127
42.062 2.71618 2
42.3946 0.32156 4
44.3255 3.10881 0.00567401
44.8159 0.72056 2
47.2057 1.27793 0
49.737 41.3152 0.0221228
56.877 37.8982 0.0216648
53.2127 39.3158 0.0240271
47.6667 40.4391 2
50.7007 38.4944 2
54.068 36.6223 2
51.4891 35.5699 3.966
48.3359 37.7608 3.98767
46.1556 35.1041 3.91588
43.9949 33.7789 3.95256
42.1035 33.02 3.94862
37.4575 8.52585 3.98734
37.5157 6.66725 2
39.4419 6.79661 0.0111063
39.2108 8.68359 2
38.9757 10.1161 3.98651
35.8977 9.76314 3.9863
34.1496 8.81349 3.98708
35.9412 8.48353 2
54.9453 33.9584 0.0225324
53.5474 30.4601 0.0207583
52.6304 27.1787 0.018648
52.401 21.0508 0.0192086
52.1676 24.0673 0.0249714
49.8213 19.5856 0.021903
48.1154 16.9757 0.0190937
47.6824 14.5734 0.0168935
44.7232 9.98862 0.0136547
46.005 12.7199 0.0156316
41.0132 9.04161 0.0129719
42.4678 10.8942 0.0147493
52.4936 32.8527 2
40.5686 11.597 2
43.8575 11.9088 2
51.3963 29.1373 2
50.8262 25.7066 2
49.9508 22.1634 2
45.8033 15.4082 2
47.5071 19.2078 2
50.1052 31.3909 3.97175
49.3385 27.4597 3.97187
49.4303 24.377 3.98084
47.1929 21.9104 3.97793
38.3012 12.7221 3.98399
42.1009 14.2927 3.98273
44.8027 18.4437 3.98099
45.0444 37.4973 3.94598
46.5028 37.4991 2
47.9884 58.7515 0.0184593
48.6047 55.9291 0.0186863
50.1883 45.2862 0.0217032
49.7158 49.0644 0.026911
49.1494 52.6162 0.0220502
46.1538 39.8906 0.0831007
46.5361 42.7262 0.0318886
46.5912 45.7888 0.0157748
43.9962 41.2135 0.0458863
42.1106 41.9877 0.0520735
46.8411 57.3548 2
44.7742 39.4873 2
42.4911 40.8675 2
48.1567 47.2574 2
47.1796 54.2629 2
47.6189 50.7748 2
44.8732 47.3447 2
45.2192 42.0023 2
45.0108 44.6393 2
42.8082 42.724 2
40.9681 42.3449 2
45.4016 55.941 3.98079
42.8171 39.257 3.96344
40.9289 40.8025 3.97111
46.1433 48.9368 3.98009
45.5635 52.5638 3.98346
43.5127 48.4773 3.96343
43.3999 46.1999 3.97187
43.7657 43.8119 3.91579
41.2687 43.887 3.95751
39.3241 42.6613 3.95101
45.4689 58.7997 0.018357
43.8767 57.7243 2
42.1075 56.3497 3.98223
35.4633 67.6666 0.0118008
37.6418 65.5216 0.0135435
39.8923 63.5655 0.0150063
41.7525 62.5045 0.0154599
42.4808 59.9934 0.0168598
35.5728 65.4445 2
40.6223 61.6638 2
37.836 63.2279 2
40.4446 58.2263 2
38.9259 56.5182 3.98294
38.25 60.3488 3.98393
35.6067 63.2215 3.98549
33.5754 65.3549 0.0132602
31.9597 63.3146 0.0147118
33.6292 63.3551 2
30.3788 62.8732 2
32.1231 62.0217 2
28.6809 62.2178 3.98482
33.3457 61.5344 3.98411
31.0658 61.238 3.9836
27.5653 59.6128 3.9825
23.7869 59.1005 3.98402
25.0323 60.8873 3.9832
26.8678 61.5156 2
26.2287 63.4911 3.98558
28.0625 64.1598 2
27.463 66.1912 3.98802
29.8836 64.7318 0.0134877
29.4063 66.7682 2
28.9058 68.948 3.99044
31.3767 67.2044 0.0117639
31.0134 69.4231 2
30.6145 71.7801 3.99422
33.1561 69.7578 0.00934838
32.892 72.1493 2
32.6054 74.6784 4
35.195 72.3748 0.00580232
35.0474 74.9197 2
37.5 75 0
33.7228 6.97341 3.98864
35.4342 4.68223 3.99103
35.6202 6.7183 2
37.5141 2.38556 3.99464
37.5229 4.6114 2
39.6237 4.71231 0.00894646
39.7885 2.47266 2
39.9526 0.0806499 4
42.062 2.71644 0.0054967
42.3947 0.320817 2
44.8158 0.721173 0
44.773 35.5035 3.94777
42.4876 34.1332 3.95728
47.6666 40.4409 0.0119403
50.7027 38.4947 0.0207729
54.0687 36.6225 0.0238505
48.3345 37.7596 2
51.4885 35.5691 2
46.1586 35.1024 2
44.0073 33.7748 2
42.1078 33.0197 2
48.5033 34.2554 4.00302
45.2087 32.9933 3.91434
42.7905 32.2804 3.95073
40.9516 32.6675 3.95613
37.3097 10.6191 3.98568
37.4575 8.5253 2
37.5157 6.66769 0.0111091
39.2108 8.68414 0.0127446
38.9757 10.1155 2
34.7528 10.3687 3.98561
35.8976 9.76259 2
32.3763 9.36014 3.98635
34.1495 8.81291 2
35.9412 8.48405 0.0126391
52.4934 32.8539 0.0225951
51.3979 29.1351 0.0200059
50.826 25.7043 0.0279636
49.9501 22.1639 0.020717
47.5071 19.2085 0.0206032
45.8034 15.4085 0.017141
43.8576 11.9091 0.0152042
40.5686 11.5974 0.0152922
50.103 31.3914 2
38.301 12.7213 2
42.1007 14.2925 2
49.3372 27.4612 2
49.4311 24.3763 2
47.1934 21.9114 2
44.8025 18.4432 2
47.8797 29.5918 3.96865
47.133 25.1028 3.97886
44.2927 21.2967 3.9792
36.5809 12.9185 3.98385
38.6804 14.792 3.98257
41.7507 17.8216 3.9805
42.9509 37.4892 3.9624
45.06 37.4979 2
46.4901 37.4977 0.0836855
46.8411 57.3544 0.017261
47.1796 54.2627 0.0184174
48.1589 47.2604 0.0197108
47.619 50.7751 0.0224284
44.7644 39.4883 0.0511028
45.2157 41.999 0.0799856
45.003 44.6311 0.0367941
44.8751 47.353 0.00494309
42.7963 42.7251 0.0485424
42.4898 40.8662 0.0423319
40.9604 42.3449 0.0475248
45.4017 55.9413 2
42.8181 39.2573 2
40.9287 40.8031 2
46.1434 48.9321 2
45.5637 52.563 2
43.5111 48.4785 2
43.4273 46.211 2
43.7727 43.8171 2
41.276 43.881 2
39.3278 42.666 2
43.7412 54.4524 3.98717
40.995 39.1737 3.96522
39.2454 40.8617 3.94773
43.7423 50.5362 3.98736
42.0125 47.7308 4.00974
41.9221 45.2066 3.9101
39.4881 44.6458 3.9599
37.4971 42.7875 3.94952
43.8769 57.7242 0.0181222
42.1074 56.3497 2
40.4213 54.9532 3.97967
35.5728 65.4441 0.0133676
37.836 63.2276 0.0144438
40.6223 61.6635 0.0160493
40.4446 58.226 0.0180925
35.6067 63.2219 2
38.2499 60.349 2
38.9257 56.5196 2
38.0001 55.274 3.98213
36.9348 57.6516 3.98196
35.3632 60.9338 3.98425
33.6291 63.3548 0.0145764
30.3787 62.8727 0.0149376
32.123 62.0213 0.0157549
33.3457 61.5347 2
28.681 62.2181 2
31.0659 61.2384 2
29.4011 60.3074 3.98312
32.3552 59.766 3.98336
28.0169 58.3923 3.98307
27.5653 59.6132 2
25.3737 58.6124 3.98226
22.7491 58.2597 3.98085
23.3971 60.3668 3.9828
23.7869 59.101 2
25.0324 60.8877 2
24.4308 62.783 3.98487
26.8677 61.5151 0.0162128
26.2288 63.4916 2
25.5471 65.5009 3.9876
28.0624 64.1595 0.0138105
27.463 66.1917 2
26.8355 68.3361 3.99029
29.4063 66.7677 0.0118424
28.9057 68.9484 2
28.3697 71.2652 3.99417
31.0134 69.4227 0.00945187
30.6144 71.7803 2
30.1842 74.2788 4
32.8921 72.149 0.00577164
32.6053 74.6792 2
35.0474 74.9194 0
31.7873 7.41306 3.98826
33.3462 4.92138 3.99086
33.7228 6.97282 2
35.2443 2.46172 3.99457
35.4342 4.6818 2
35.6202 6.71879 0.0110957
37.5 0 4
37.5141 2.3853 2
37.5228 4.61179 0.00886553
39.7885 2.47293 0.00542276
39.9526 0.0802889 2
42.3946 0.32156 0
42.8231 35.7291 3.96257
44.7791 35.5062 2
40.927 34.2061 3.97175
42.4881 34.1334 2
48.3359 37.7608 0.0123344
51.4891 35.5699 0.034004
46.1556 35.1041 0.0841192
43.9949 33.7789 0.0474373
42.1035 33.02 0.0513766
48.5044 34.2549 2
45.2156 32.9879 2
42.8018 32.2784 2
40.956 32.6648 2
46.4237 31.5033 3.98475
43.7541 31.1892 3.91452
41.2639 31.1274 3.94994
39.313 32.3525 3.94791
35.6911 11.7635 3.98418
37.3096 10.6184 2
37.4575 8.52585 0.0126571
38.9757 10.1161 0.0134939
33.0967 11.2053 3.9846
34.7527 10.3681 2
35.8977 9.76314 0.0136996
30.481 10.0082 3.98587
32.3762 9.3596 2
34.1496 8.81349 0.0129198
50.1052 31.3909 0.0282544
49.3385 27.4597 0.0281287
49.4303 24.377 0.0191616
47.1929 21.9104 0.0220749
44.8027 18.4437 0.0190122
42.1009 14.2927 0.0172707
38.3012 12.7221 0.0160142
36.5807 12.9182 2
47.8758 29.5926 2
38.6801 14.7911 2
41.7504 17.8215 2
47.1337 25.103 2
44.293 21.2961 2
45.6293 27.7944 3.97568
43.8208 24.0298 3.98118
41.344 20.6991 3.9802
35.7705 14.7432 3.98287
38.6811 17.5784 3.98084
41.0391 37.486 3.96069
42.9534 37.4904 2
45.0444 37.4973 0.054022
45.4016 55.941 0.0192108
45.5635 52.5638 0.0165426
46.1433 48.9368 0.0199069
42.8171 39.257 0.0365556
43.7657 43.8119 0.0842076
43.3999 46.1999 0.0281261
43.5127 48.4773 0.0365737
41.2687 43.887 0.042492
40.9289 40.8025 0.0288851
39.3241 42.6613 0.0489932
43.7416 54.4529 2
40.9947 39.1741 2
39.2446 40.8661 2
43.7419 50.5376 2
42.0132 47.7349 2
41.9349 45.2086 2
37.4982 42.7966 2
39.5008 44.6506 2
41.8913 53.0205 3.98791
39.2353 39.1621 3.9281
37.5002 40.9046 3.92136
35.676 42.6748 3.95059
40.9822 49.7595 3.99623
39.8155 46.086 3.91137
37.4987 44.9136 3.96126
42.1075 56.3497 0.0177736
40.4211 54.9532 2
38.7299 53.8839 3.98414
35.6067 63.2215 0.0145063
38.25 60.3488 0.0160738
38.9259 56.5182 0.0170567
35.3632 60.9341 2
36.9345 57.6516 2
37.9997 55.2742 2
36.319 55.4106 3.98348
34.4868 58.5447 3.98278
33.3457 61.5344 0.0158947
28.6809 62.2178 0.0151807
31.0658 61.238 0.0163953
32.3552 59.7662 2
29.4012 60.3077 2
30.2931 57.8382 3.98283
28.0169 58.3926 2
26.9347 56.8424 3.9809
27.5653 59.6128 0.0175026
25.3737 58.6128 2
23.8278 56.8254 3.97912
21.3238 57.42 3.98155
21.9883 59.6396 3.98321
22.749 58.2602 2
22.7339 62.034 3.98418
23.3971 60.3673 2
23.7869 59.1005 0.0159816
25.0323 60.8873 0.0168042
24.4309 62.7834 2
23.6808 64.7189 3.98685
26.2287 63.4911 0.0144177
25.5471 65.5014 2
24.8079 67.5972 3.99011
27.463 66.1912 0.0119843
26.8355 68.3365 2
26.165 70.606 3.99405
28.9058 68.948 0.00955963
28.3695 71.2655 2
27.7943 73.7221 4
30.6145 71.7801 0.00577772
30.1841 74.2794 2
32.6054 74.6784 0
29.8098 7.98623 3.98775
31.2513 5.32843 3.99056
31.7872 7.4125 2
32.9801 2.69982 3.99445
33.3462 4.92087 2
33.7228 6.97341 0.0113638
35.0474 0.080333 4
35.2443 2.46145 2
35.4342 4.68223 0.00896682
37.5 0 2
37.5141 2.38556 0.00535865
39.9526 0.0806499 0
41.0017 35.8102 3.96503
42.8228 35.7303 2
44.773 35.5035 0.0522349
28.5419 10.6835 3.98557
39.2418 34.152 3.94777
40.9253 34.2052 2
42.4876 34.1332 0.04272
48.5033 34.2554 -0.00302238
45.2087 32.9933 0.0856566
42.7905 32.2804 0.0492713
40.9516 32.6675 0.0438715
46.434 31.4997 2
43.7569 31.1833 2
41.274 31.1246 2
39.3173 32.3469 2
44.4443 29.6727 3.97463
41.9122 29.8101 3.9163
39.4806 30.3787 3.95892
37.4818 32.2298 3.94522
34.0908 12.9214 3.98351
35.6911 11.763 2
37.3097 10.6191 0.0143186
31.1847 11.9735 3.98457
33.0967 11.2048 2
34.7528 10.3687 0.0143923
30.4809 10.0077 2
32.3763 9.36014 0.0136542
47.8797 29.5918 0.0313457
47.133 25.1028 0.0211404
36.5809 12.9185 0.016145
44.2927 21.2967 0.0208007
41.7507 17.8216 0.0194957
38.6804 14.792 0.0174264
35.7703 14.7432 2
45.6269 27.7967 2
38.6807 17.5776 2
41.3437 20.6984 2
43.8212 24.0337 2
33.6057 15.8603 3.98292
43.1076 26.5203 3.98893
40.9258 23.272 3.98034
38.4222 20.3067 3.98168
35.8468 17.4915 3.98178
39.2456 37.4882 3.92629
41.0386 37.4857 2
42.9509 37.4892 0.037598
43.7412 54.4524 0.0128312
43.7423 50.5362 0.0126403
40.995 39.1737 0.0347842
41.9221 45.2066 0.0899025
42.0125 47.7308 -0.00973605
39.4881 44.6458 0.0401042
39.2454 40.8617 0.0522657
37.4971 42.7875 0.0504782
41.8914 53.0217 2
39.235 39.1644 2
37.5004 40.9105 2
40.9809 49.7607 2
35.6722 42.6796 2
39.8298 46.0949 2
37.4981 44.8986 2
39.8316 51.9433 3.99154
37.4991 39.1769 3.92106
35.7573 40.8773 3.94606
34.0395 42.3563 3.9545
35.4956 44.6516 3.95813
38.7686 48.7735 4.02534
37.5043 46.3962 3.90768
40.4213 54.9532 0.020325
38.7295 53.8833 2
36.7172 53.2404 3.99085
35.3632 60.9338 0.0157539
36.9348 57.6516 0.018035
38.0001 55.274 0.017874
34.4867 58.5448 2
36.3186 55.41 2
33.2218 55.527 3.98244
32.3552 59.766 0.0166402
29.4011 60.3074 0.0168838
30.2931 57.8384 2
28.6741 55.3307 3.97939
28.0169 58.3923 0.0169349
26.9346 56.8428 2
25.2925 55.1636 3.97851
21.7909 55.3694 3.97892
25.3737 58.6124 0.0177366
23.8275 56.8259 2
20.2069 57.051 3.98333
20.638 58.7983 3.98295
21.3236 57.4205 2
21.1631 61.1841 3.98423
21.9883 59.6401 2
22.7491 58.2597 0.0191547
21.8939 63.8466 3.98617
22.734 62.0344 2
23.3971 60.3668 0.0171961
24.4308 62.783 0.0151264
23.6809 64.7194 2
22.8363 66.7409 3.98981
25.5471 65.5009 0.0123995
24.8079 67.5976 2
24.0093 69.8072 3.99392
26.8355 68.3361 0.0097104
26.1648 70.6062 2
25.446 73.0099 4
28.3697 71.2652 0.0058319
27.7943 73.7222 2
30.1842 74.2788 0
27.8198 8.6459 3.98746
29.1533 5.87411 3.99019
29.8097 7.98573 2
30.7254 3.09691 3.99426
31.2513 5.32794 2
31.7873 7.41306 0.0117379
32.6053 0.320823 4
32.98 2.69953 2
33.3462 4.92138 0.00913652
35.0474 0.0802903 2
35.2443 2.46172 0.00543419
37.5 0 0
39.2418 35.8268 3.92762
41.0006 35.8094 2
42.8231 35.7291 0.0374323
28.5419 10.6832 2
26.6208 11.3789 3.98524
29.2236 12.6303 3.98439
37.4949 34.1122 3.92247
39.2401 34.1474 2
40.927 34.2061 0.0282543
46.4237 31.5033 0.0152545
43.7541 31.1892 0.0854751
41.2639 31.1274 0.0500595
39.313 32.3525 0.0520944
44.4554 29.6647 2
41.9265 29.8023 2
39.4903 30.374 2
37.4834 32.2157 2
42.3583 28.3527 3.97581
39.8171 28.9301 3.91552
37.4835 30.1057 3.96141
35.6577 32.3424 3.94848
31.9122 14.4669 3.98324
34.0909 12.921 2
35.6911 11.7635 0.0158241
31.1847 11.973 2
33.0967 11.2053 0.0153965
30.481 10.0082 0.0141298
45.6293 27.7944 0.0243199
43.8208 24.0298 0.0188218
35.7705 14.7432 0.0171305
41.344 20.6991 0.0198037
38.6811 17.5784 0.0191625
33.6056 15.8605 2
35.8464 17.4918 2
43.1062 26.524 2
38.4221 20.3067 2
40.9261 23.2708 2
33.5476 17.3684 3.98341
40.4801 25.6178 4.00292
38.0825 22.8352 3.98838
35.5823 20.0585 3.98316
37.5012 37.4987 3.92307
39.2453 37.4886 2
41.0391 37.486 0.0393119
41.8913 53.0205 0.0120903
40.9822 49.7595 0.00376577
39.2353 39.1621 0.0718966
39.8155 46.086 0.088634
37.4987 44.9136 0.0387352
37.5002 40.9046 0.0786369
35.676 42.6748 0.0494099
39.832 51.9434 2
37.4997 39.1792 2
35.7589 40.8824 2
38.7647 48.7829 2
34.0336 42.3584 2
35.4911 44.6548 2
37.5017 46.4091 2
37.6689 51.0318 3.98756
35.7678 39.1814 3.92599
34.08 40.8198 3.96962
32.8871 41.9988 3.94786
33.7153 43.8995 3.95237
35.181 46.0953 3.9155
36.8964 48.4164 4.00976
38.7299 53.8839 0.0158618
36.7168 53.2395 2
34.3508 52.4983 3.98213
34.4868 58.5447 0.0172199
36.319 55.4106 0.0165186
33.2216 55.5268 2
30.5 53.4274 3.98043
30.2931 57.8382 0.0171686
28.6739 55.3307 2
26.8562 53.4672 3.97776
26.9347 56.8424 0.0190984
25.2921 55.1642 2
23.5454 53.507 3.97631
20.4396 53.2534 3.97711
19.9164 55.8555 3.98221
21.7904 55.3698 2
23.8278 56.8254 0.020877
19.4289 57.9115 3.98279
20.2066 57.0514 2
19.7015 60.2186 3.98366
20.6379 58.7987 2
21.3238 57.42 0.0184489
20.2056 62.8679 3.98564
21.1631 61.1846 2
21.9883 59.6396 0.0167914
20.9377 65.7699 3.9893
21.8939 63.8471 2
22.7339 62.034 0.0158243
23.6808 64.7189 0.0131498
22.8363 66.7413 2
21.9119 68.8743 3.99375
24.8079 67.5972 0.00988656
24.0091 69.8073 2
23.1494 72.1454 4
26.165 70.606 0.00594597
25.446 73.0099 2
27.7943 73.7221 0
25.8591 9.37392 3.98693
27.0682 6.53819 3.9898
27.8197 8.64545 2
28.4876 3.64277 3.99402
29.1532 5.87367 2
29.8098 7.98623 0.012246
30.1841 0.720592 4
30.7253 3.09665 2
31.2513 5.32843 0.00943615
32.6053 0.320817 2
32.9801 2.69982 0.00554836
35.0474 0.080333 0
37.5022 35.8264 3.91977
39.2408 35.825 2
41.0017 35.8102 0.0349714
24.7755 12.0619 3.9851
23.7491 14.346 3.98392
28.5419 10.6835 0.0144285
26.6208 11.3786 2
29.2237 12.63 2
27.2897 13.3634 3.9843
29.7782 14.1891 3.98358
35.7534 34.1385 3.94866
37.4951 34.1034 2
39.2418 34.152 0.0522306
37.4818 32.2298 0.054777
44.4443 29.6727 0.0253713
41.9122 29.8101 0.0836965
39.4806 30.3787 0.0410764
42.3669 28.3403 2
39.8323 28.9235 2
37.482 30.1189 2
35.656 32.3378 2
40.0399 27.5286 3.9891
37.4915 28.6173 3.91111
35.4786 30.3719 3.95713
34.0269 32.6556 3.954
30.9232 16.8237 3.98278
31.9123 14.4664 2
34.0908 12.9214 0.0164927
31.1847 11.9735 0.0154274
43.1076 26.5203 0.0110668
40.9258 23.272 0.0196592
33.6057 15.8603 0.017077
35.8468 17.4915 0.0182213
38.4222 20.3067 0.0183205
33.5473 17.3689 2
35.5823 20.0587 2
40.4773 25.6223 2
38.0827 22.8369 2
32.8598 19.7746 3.98217
37.7884 25.1297 4.02008
35.2028 22.6164 3.97917
35.7599 37.5045 3.92437
37.5019 37.498 2
39.2456 37.4882 0.0737062
39.8316 51.9433 0.00845619
38.7686 48.7735 -0.0253351
37.4991 39.1769 0.0789432
37.5043 46.3962 0.0923167
35.4956 44.6516 0.041871
35.7573 40.8773 0.0539377
34.0395 42.3563 0.0454998
37.6694 51.0415 2
35.7694 39.1839 2
34.0815 40.8206 2
36.8933 48.421 2
32.8819 42.0001 2
33.7105 43.8986 2
35.1661 46.1042 2
35.4233 50.1647 3.98932
34.0156 39.1959 3.96074
32.5103 40.8801 3.95868
32.1945 42.7314 3.95222
33.0843 45.2133 3.91714
34.2823 47.5124 3.9872
36.7172 53.2404 0.00914622
34.3504 52.4992 2
31.9681 51.2226 3.97891
33.2218 55.527 0.0175631
30.4999 53.4292 2
28.3921 51.6503 3.97971
28.6741 55.3307 0.0206091
26.8558 53.4686 2
25.0403 51.7946 3.97395
25.2925 55.1636 0.0214944
23.5448 53.5077 2
21.9271 51.8408 3.97472
19.1672 51.6635 3.97653
18.8997 54.3334 3.97951
20.4392 53.2535 2
18.4347 56.7445 3.98342
19.9159 55.8559 2
21.7909 55.3694 0.0210815
18.362 59.1271 3.98295
19.4287 57.9119 2
20.2069 57.051 0.0166708
18.6156 61.7763 3.98507
19.7014 60.219 2
20.638 58.7983 0.017048
19.1264 64.6808 3.98862
20.2057 62.8684 2
21.1631 61.1841 0.0157726
19.886 67.811 3.99342
20.9377 65.7703 2
21.8939 63.8466 0.0138326
22.8363 66.7409 0.0101899
21.9117 68.8745 2
20.9142 71.1327 4
24.0093 69.8072 0.006083
23.1494 72.1455 2
25.446 73.0099 0
23.0947 12.7766 3.98471
23.9717 10.1605 3.98659
25.0221 7.30813 3.98958
25.8591 9.37349 2
26.2794 4.32695 3.99372
27.0681 6.53777 2
27.8198 8.6459 0.0125387
27.7943 1.27781 4
28.4874 3.64255 2
29.1533 5.87411 0.00981024
30.1841 0.720551 2
30.7254 3.09691 0.00573952
32.6053 0.320823 0
35.7651 35.8296 3.92552
37.5023 35.8224 2
39.2418 35.8268 0.0723828
24.7756 12.0616 2
23.7493 14.346 2
22.4772 15.0223 3.98366
25.3556 13.8954 3.98403
24.0216 15.6077 3.98334
26.6208 11.3789 0.0147574
29.2236 12.6303 0.0156075
27.2897 13.3631 2
29.7783 14.1888 2
28.3538 15.9633 3.9834
34.0819 34.1973 3.96966
35.7557 34.1347 2
37.4949 34.1122 0.0775348
35.6577 32.3424 0.0515171
37.4835 30.1057 0.0385922
42.3583 28.3527 0.0241927
39.8171 28.9301 0.0844825
40.0424 27.5248 2
37.4916 28.605 2
35.4713 30.3675 2
34.0272 32.652 2
37.6254 27.2206 3.99248
35.1469 28.9206 3.91482
33.6969 31.1197 3.95194
32.8806 33.0149 3.94702
30.203 19.3268 3.9837
30.9232 16.8234 2
31.9122 14.4669 0.0167555
40.4801 25.6178 -0.00291918
38.0825 22.8352 0.0116194
33.5476 17.3684 0.0165923
35.5823 20.0585 0.0168388
32.8596 19.7757 2
35.2032 22.6157 2
37.7874 25.135 2
32.304 22.389 3.98133
34.9406 25.1457 3.99491
33.9728 37.5068 3.9573
35.7615 37.5051 2
37.5012 37.4987 0.0769309
37.6689 51.0318 0.0124379
36.8964 48.4164 -0.00976327
35.7678 39.1814 0.074014
35.181 46.0953 0.0845004
33.7153 43.8995 0.0476261
34.08 40.8198 0.0303778
32.8871 41.9988 0.052138
35.4229 50.1724 2
34.0174 39.1964 2
32.5098 40.8792 2
34.2754 47.5258 2
32.1842 42.7298 2
33.0706 45.2207 2
33.1829 49.1498 3.98891
32.1824 39.2767 3.96331
30.9954 41.2261 3.95234
31.234 43.8145 3.91806
32.2228 46.436 3.97637
34.3508 52.4983 0.0178678
31.968 51.2251 2
29.7957 49.7485 3.97735
30.5 53.4274 0.0195687
28.3916 51.6492 2
26.4507 50.0345 3.97475
26.8562 53.4672 0.0222431
25.0398 51.7937 2
23.2899 50.2346 3.9759
23.5454 53.507 0.0236937
21.9267 51.8405 2
20.4226 50.3466 3.97614
17.9539 50.3546 3.97824
17.8073 52.8165 3.97838
19.1672 51.6632 2
17.4205 55.3616 3.98159
18.8994 54.3336 2
20.4396 53.2534 0.022894
17.1261 57.8903 3.98382
18.4343 56.7449 2
19.9164 55.8555 0.0177918
17.132 60.5607 3.9843
18.3619 59.1275 2
19.4289 57.9115 0.017209
17.4063 63.474 3.98793
18.6157 61.7767 2
19.7015 60.2186 0.0163432
17.9421 66.6195 3.99308
19.1264 64.6813 2
20.2056 62.8679 0.0143633
18.75 69.9759 4
19.8858 67.8111 2
20.9377 65.7699 0.0106986
21.9119 68.8743 0.00625011
20.9142 71.1327 2
23.1494 72.1454 0
21.5851 13.5965 3.98438
22.1897 11.0196 3.98603
23.0948 12.7765 2
23.0402 8.17341 3.98936
23.9717 10.1601 2
24.1171 5.14154 3.99358
25.022 7.30775 2
25.8591 9.37392 0.0130722
25.446 1.99014 4
26.2792 4.32678 2
27.0682 6.53819 0.0101997
27.7943 1.27778 2
28.4876 3.64277 0.00597695
30.1841 0.720592 0
34.0108 35.8187 3.96099
35.7664 35.8283 2
37.5022 35.8264 0.0802311
21.3017 15.8177 3.98337
24.7755 12.0619 0.0148993
23.7491 14.346 0.0160765
25.3558 13.8952 2
22.4775 15.0224 2
24.0219 15.6078 2
23.2602 16.2389 3.98311
25.3769 16.0755 3.98365
27.2897 13.3634 0.0157037
29.7782 14.1891 0.0164169
28.354 15.9632 2
27.4345 18.7848 3.98359
32.5213 34.1347 3.95866
34.0839 34.1956 2
35.7534 34.1385 0.0513384
34.0269 32.6556 0.0459963
35.4786 30.3719 0.0428677
37.4915 28.6173 0.0888939
40.0399 27.5286 0.0108974
37.6215 27.1923 2
32.8811 33.0154 2
35.1286 28.9123 2
33.6874 31.1133 2
35.0517 27.3323 3.99363
33.0462 29.806 3.91855
32.1804 32.2747 3.95207
29.5644 21.9217 3.98882
30.2033 19.3272 2
30.9232 16.8237 0.0172248
37.7884 25.1297 -0.0200812
35.2028 22.6164 0.0208274
32.8598 19.7746 0.0178333
32.3043 22.3909 2
34.9421 25.1538 2
31.6349 25.6055 3.98793
32.0561 37.5088 3.9618
33.9747 37.5064 2
35.7599 37.5045 0.0756314
35.4233 50.1647 0.0106824
34.2823 47.5124 0.0127982
34.0156 39.1959 0.0392561
33.0843 45.2133 0.082858
32.1945 42.7314 0.0477831
32.5103 40.8801 0.0413217
33.1835 49.1353 2
32.1825 39.2755 2
30.984 41.2276 2
32.2078 46.4475 2
31.2272 43.8186 2
31.0545 47.9125 3.9908
30.2227 39.4951 3.94723
29.7798 42.0072 3.91384
30.3341 45.0089 3.97685
31.9681 51.2226 0.0210886
29.796 49.7471 2
27.7872 48.2271 3.98248
28.3921 51.6503 0.0202883
26.4505 50.0328 2
24.5797 48.5104 3.97449
25.0403 51.7946 0.0260473
23.2898 50.2339 2
21.5957 48.8248 3.97782
21.9271 51.8408 0.0252787
20.4229 50.3458 2
18.991 49.1184 3.98011
16.8617 49.3522 3.9811
16.7465 51.429 3.97869
17.9542 50.3542 2
16.3698 53.8911 3.98023
17.8072 52.8164 2
19.1672 51.6635 0.0234709
15.9654 56.4926 3.98307
17.4201 55.3619 2
18.8997 54.3334 0.0204936
15.7443 59.2223 3.9844
17.1258 57.8907 2
18.4347 56.7445 0.0165772
15.7862 62.1452 3.98706
17.132 60.5612 2
18.362 59.1271 0.0170462
16.0885 65.3023 3.99284
17.4063 63.4745 2
18.6156 61.7763 0.014932
16.6661 68.6801 4
17.9419 66.6196 2
19.1264 64.6808 0.0113832
18.75 69.9759 2
19.886 67.811 0.00657653
20.9142 71.1327 0
20.2165 14.5851 3.98393
21.5853 13.5966 2
20.5287 11.9892 3.98556
21.1434 9.14286 3.98915
22.1898 11.0193 2
23.0947 12.7766 0.0152889
22.0162 6.08047 3.99339
23.0402 8.17309 2
23.9717 10.1605 0.0134058
23.1494 2.85457 4
24.1168 5.14142 2
25.0221 7.30813 0.0104208
25.446 1.99012 2
26.2794 4.32695 0.00627689
27.7943 1.27781 0
32.1882 35.7382 3.96218
34.0122 35.8176 2
35.7651 35.8296 0.0744836
21.3019 15.8178 2
20.2978 16.9508 3.98405
22.0929 16.6229 3.98288
25.3556 13.8954 0.0159676
22.4772 15.0223 0.0163368
24.0216 15.6077 0.0166553
25.3772 16.0755 2
23.2606 16.2391 2
24.1986 18.4373 3.982
27.0008 21.4436 3.98258
28.3538 15.9633 0.0165976
27.4348 18.7851 2
31.003 33.7846 3.94887
32.5206 34.1366 2
34.0819 34.1973 0.0303367
32.8806 33.0149 0.0529785
33.6969 31.1197 0.0480582
35.1469 28.9206 0.0851813
37.6254 27.2206 0.00752304
35.0407 27.3201 2
32.181 32.2771 2
33.0386 29.7961 2
32.4721 28.054 3.99985
31.2035 31.1977 3.92063
28.7536 24.3863 3.98704
29.5646 21.923 2
30.203 19.3268 0.0163021
34.9406 25.1457 0.00508998
32.304 22.389 0.0186715
31.6353 25.5956 2
29.565 27.2929 3.98163
29.9539 37.5038 3.94613
32.0567 37.5082 2
33.9728 37.5068 0.0427026
33.1829 49.1498 0.0110888
32.2228 46.436 0.0236343
32.1824 39.2767 0.0366898
31.234 43.8145 0.0819432
30.9954 41.2261 0.0476579
31.0577 47.9044 2
30.2151 39.4977 2
29.7732 42.0121 2
30.3201 45.0187 2
29.062 46.4853 3.97875
28.8365 39.8957 3.91326
28.5264 43.2316 3.98144
29.7957 49.7485 0.022652
27.7876 48.2243 2
25.8483 46.6925 3.97432
26.4507 50.0345 0.025249
24.5801 48.5092 2
22.729 47.1186 3.98329
23.2899 50.2346 0.0240978
21.5964 48.8236 2
19.9334 47.6468 3.98351
20.4226 50.3466 0.0238579
18.9915 49.1178 2
17.6346 48.1998 3.98275
16.1136 48.7017 3.98301
16.862 49.3521 2
15.8242 50.189 3.98025
15.358 52.434 3.97976
16.7466 51.4289 2
17.9539 50.3546 0.0217603
14.8552 54.9935 3.98175
16.3696 53.8912 2
17.8073 52.8165 0.0216214
14.4524 57.7516 3.98417
15.9651 56.493 2
17.4205 55.3616 0.018413
14.2637 60.7 3.98639
15.7443 59.2228 2
17.1261 57.8903 0.016183
14.3325 63.8616 3.99248
15.7862 62.1458 2
17.132 60.5607 0.0156953
14.6715 67.2507 4
16.0884 65.3023 2
17.4063 63.474 0.0120706
16.6661 68.6801 2
17.9421 66.6195 0.0069236
18.75 69.9759 0
18.9294 15.7715 3.98392
20.2167 14.5851 2
18.978 13.1001 3.98503
21.5851 13.5965 0.0156222
20.5289 11.9892 2
19.3427 10.2305 3.98869
19.9908 7.14501 3.99333
21.1434 9.14261 2
22.1897 11.0196 0.013974
20.9142 3.86727 4
22.0159 6.08043 2
23.0402 8.17341 0.0106377
23.1494 2.85451 2
24.1171 5.14154 0.00642316
25.446 1.99014 0
30.2384 35.5241 3.95138
32.187 35.7387 2
34.0108 35.8187 0.0390065
21.3017 15.8177 0.016631
22.0933 16.623 2
20.2979 16.9506 2
19.2354 18.3966 3.98372
21.7762 17.838 3.98319
25.3769 16.0755 0.0163508
23.2602 16.2389 0.016893
24.1989 18.4378 2
22.2674 19.878 3.98226
24.5768 21.3073 3.98286
26.3807 23.7089 3.9824
27.0018 21.4445 2
27.4345 18.7848 0.0164096
29.7786 32.9988 3.91802
30.9924 33.7777 2
32.5213 34.1347 0.0413354
32.1804 32.2747 0.047926
33.0462 29.806 0.0814532
35.0517 27.3323 0.00637408
32.4576 28.0504 2
31.2115 31.1992 2
30.0113 29.4986 3.99385
27.8078 26.533 3.97039
28.754 24.3916 2
29.5644 21.9217 0.0111751
31.6349 25.6055 0.012074
29.5567 27.2589 2
28.5067 37.5035 3.91872
29.9465 37.5073 2
32.0561 37.5088 0.038197
31.0545 47.9125 0.00920326
30.3341 45.0089 0.0231489
30.2227 39.4951 0.052773
29.7798 42.0072 0.0861612
29.0662 46.4903 2
28.8306 39.8965 2
28.516 43.2371 2
27.1358 44.8051 3.96588
26.6159 40.6429 4.00617
27.7872 48.2271 0.0175224
25.8501 46.6907 2
23.8778 45.2472 3.97494
24.5797 48.5104 0.0255124
22.7301 47.1167 2
20.8606 45.9292 3.98443
21.5957 48.8248 0.0221761
19.9342 47.6462 2
18.2782 46.7603 3.98433
18.991 49.1184 0.0198944
17.635 48.1998 2
16.3028 47.7315 3.98275
16.1139 48.7018 2
15.1707 49.0319 3.98165
16.8617 49.3522 0.0189012
15.8244 50.189 2
14.4716 51.0004 3.98017
13.8161 53.4485 3.98094
15.358 52.434 2
16.7465 51.429 0.0213146
13.2462 56.1792 3.98333
14.8549 54.9937 2
16.3698 53.8911 0.0197662
12.8454 59.1338 3.98619
14.4522 57.752 2
15.9654 56.4926 0.016927
12.6778 62.3043 3.99185
14.2637 60.7005 2
15.7443 59.2223 0.0156032
12.7746 65.6939 4
14.3324 63.8617 2
15.7862 62.1452 0.0129367
14.6714 67.2507 2
16.0885 65.3023 0.0071624
16.6661 68.6801 0
17.6625 17.1461 3.98378
18.9295 15.7712 2
17.5088 14.3637 3.98474
20.2165 14.5851 0.0160675
18.9782 13.0998 2
17.6382 11.4493 3.98788
20.5287 11.9892 0.0144385
19.3428 10.2303 2
18.051 8.3378 3.99313
18.75 5.0241 4
19.9905 7.14504 2
21.1434 9.14286 0.0108548
20.9142 3.86727 2
22.0162 6.08047 0.00661033
23.1494 2.85457 0
28.8448 35.1115 3.9179
30.2301 35.5236 2
32.1882 35.7382 0.0378152
22.0929 16.6229 0.0171156
20.2978 16.9508 0.0159477
21.7765 17.8378 2
19.2355 18.3963 2
17.9689 19.9276 3.98339
20.8668 19.3644 3.98352
24.1986 18.4373 0.0180023
22.268 19.8776 2
24.5778 21.308 2
22.3399 21.7018 3.98339
24.6654 23.1524 3.98252
25.3981 25.9375 3.97328
26.3819 23.7087 2
27.0008 21.4436 0.0174199
28.1671 32.2688 3.97425
29.7738 32.9988 2
31.003 33.7846 0.0511276
31.2035 31.1977 0.0793678
32.4721 28.054 0.000153686
29.9859 29.4923 2
26.9093 29.1277 3.9787
27.8034 26.5311 2
28.7536 24.3863 0.0129633
29.565 27.2929 0.0183703
26.7353 37.3575 3.98396
28.5016 37.5017 2
29.9539 37.5038 0.0538659
29.062 46.4853 0.02125
28.5264 43.2316 0.0185573
28.8365 39.8957 0.0867365
27.1413 44.806 2
26.6152 40.6459 2
25.1024 43.1972 3.97305
23.8625 39.4335 3.9669
25.8483 46.6925 0.0256825
23.8788 45.247 2
21.8325 43.9813 3.98019
22.729 47.1186 0.0167119
20.8618 45.9291 2
18.9363 44.9934 3.98075
19.9334 47.6468 0.0164861
18.2787 46.7605 2
16.5921 46.2302 3.98099
17.6346 48.1998 0.0172494
16.3031 47.7317 2
14.9 47.6852 3.98134
16.1136 48.7017 0.0169851
15.171 49.0321 2
13.7695 49.5594 3.98075
15.8242 50.189 0.0197548
14.4717 51.0004 2
12.8827 51.8856 3.98067
12.133 54.5367 3.98252
13.816 53.4486 2
15.358 52.434 0.0202369
11.5293 57.4657 3.98569
13.246 56.1795 2
14.8552 54.9935 0.0182539
11.1322 60.6307 3.99126
12.8454 59.1341 2
14.4524 57.7516 0.0158263
10.9835 64.0165 4
12.6777 62.3043 2
14.2637 60.7 0.0136109
12.7745 65.694 2
14.3325 63.8616 0.00751671
14.6715 67.2507 0
16.3934 18.6391 3.98384
17.6626 17.1458 2
16.099 15.7721 3.98474
18.9294 15.7715 0.0160821
17.5089 14.3633 2
16.0195 12.8025 3.98699
18.978 13.1001 0.0149724
17.6383 11.449 2
16.2021 9.66085 3.99278
19.3427 10.2305 0.0113118
18.0508 8.33787 2
16.6661 6.31991 4
18.75 5.02404 2
19.9908 7.14501 0.00667385
20.9142 3.86727 0
27.242 34.7356 3.97173
28.837 35.1103 2
30.2384 35.5241 0.0486209
16.6665 21.3621 3.98148
21.7762 17.838 0.0168125
19.2354 18.3966 0.0162759
20.8671 19.364 2
17.969 19.9273 2
19.7077 21.5559 3.98519
22.2674 19.878 0.0177395
24.5768 21.3073 0.0171417
22.3407 21.7007 2
24.6658 23.1525 2
22.8064 24.5855 3.97754
24.4575 28.5144 3.9719
25.3955 25.9359 2
26.3807 23.7089 0.0175953
26.005 31.6975 3.98346
28.1604 32.2639 2
29.7786 32.9988 0.0819784
30.0113 29.4986 0.00615006
26.9133 29.1299 2
27.8078 26.533 0.0296119
24.5506 36.8614 3.97923
26.7347 37.3617 2
28.5067 37.5035 0.0812811
27.1358 44.8051 0.0341157
26.6159 40.6429 -0.0061684
25.1031 43.1986 2
23.8626 39.4343 2
22.8789 41.8194 3.97764
21.6187 38.5023 3.97544
23.8778 45.2472 0.0250573
21.833 43.9826 2
19.6835 42.9068 3.97694
20.8606 45.9292 0.0155739
18.9371 44.9942 2
16.9197 44.3959 3.97791
18.2782 46.7603 0.0156714
16.5926 46.2305 2
14.8205 46.104 3.97925
16.3028 47.7315 0.0172486
14.9002 47.6854 2
13.2765 48.0203 3.98021
15.1707 49.0319 0.018352
13.7697 49.5596 2
12.1018 50.2623 3.98063
14.4716 51.0004 0.0198253
12.8827 51.8858 2
11.1284 52.8441 3.9819
10.3194 55.7167 3.98495
12.1328 54.537 2
13.8161 53.4485 0.0190557
9.69875 58.8532 3.99034
11.5292 57.466 2
13.2462 56.1792 0.0166725
9.30605 62.2254 4
11.1321 60.6308 2
12.8454 59.1338 0.013808
10.9835 64.0165 2
12.6778 62.3043 0.00815314
12.7746 65.6939 0
15.1366 20.1726 3.98261
16.3936 18.6387 2
14.7437 17.2943 3.98426
17.6625 17.1461 0.016217
16.0991 15.7716 2
14.4814 14.2839 3.98647
17.5088 14.3637 0.0152566
16.0196 12.802 2
14.4447 11.1119 3.9924
17.6382 11.4493 0.0121243
16.2019 9.66086 2
14.6715 7.74927 4
18.051 8.3378 0.00687493
16.6661 6.31988 2
18.75 5.0241 0
25.1882 34.2633 3.98427
27.2396 34.737 2
28.8448 35.1115 0.0820958
17.8366 22.3067 3.98574
15.5094 22.9055 3.97982
16.6666 21.3617 2
20.8668 19.3644 0.016476
17.9689 19.9276 0.016615
19.7082 21.5553 2
19.6317 24.3615 3.98052
22.3399 21.7018 0.0166135
24.6654 23.1524 0.0174835
22.8047 24.5838 2
21.8432 27.8065 3.9731
23.6259 31.1732 3.97331
24.46 28.5165 2
25.3981 25.9375 0.026723
26.0113 31.6948 2
28.1671 32.2688 0.0257498
26.9093 29.1277 0.0213019
22.3299 36.2662 3.98141
24.5514 36.8617 2
26.7353 37.3575 0.0160361
25.1024 43.1972 0.0269467
23.8625 39.4335 0.0330967
22.8783 41.8201 2
21.6187 38.5026 2
20.6027 40.6404 3.97665
19.9829 37.7814 3.97861
21.8325 43.9813 0.0198144
19.6836 42.9073 2
17.3122 42.1125 3.97668
18.9363 44.9934 0.0192483
16.9203 44.3964 2
14.8211 44.2121 3.97682
16.5921 46.2302 0.0190069
14.8208 46.1044 2
12.9489 46.3055 3.97832
14.9 47.6852 0.0186619
13.2767 48.0206 2
11.4734 48.5577 3.97997
13.7695 49.5594 0.0192549
12.1019 50.2626 2
10.2543 51.0861 3.98143
12.8827 51.8856 0.0193347
11.1283 52.8444 2
9.22815 53.8935 3.98433
8.38224 56.9856 3.98934
10.3192 55.7171 2
12.133 54.5367 0.0174763
7.74927 60.3285 4
9.69859 58.8533 2
11.5293 57.4657 0.0143085
9.306 62.2255 2
11.1322 60.6307 0.00873799
10.9835 64.0165 0
13.9473 21.739 3.98141
15.1366 20.1721 2
13.4434 18.8908 3.98363
16.3934 18.6391 0.0161622
14.7439 17.2938 2
13.0263 15.8762 3.98605
16.099 15.7721 0.0152622
14.4815 14.2834 2
12.7818 12.6851 3.99192
16.0195 12.8025 0.013015
14.4446 11.1119 2
12.7746 9.30605 4
16.2021 9.66085 0.00722493
14.6715 7.74924 2
16.6661 6.31991 0
22.9226 33.7875 3.98074
25.1868 34.2613 2
27.242 34.7356 0.0282683
17.601 24.0256 3.98136
17.8366 22.306 2
14.2909 24.4381 3.97827
15.5089 22.9046 2
16.6665 21.3621 0.018518
18.984 27.1844 3.97257
19.7077 21.5559 0.014807
19.6305 24.3612 2
21.077 30.6475 3.97434
22.8064 24.5855 0.0224649
21.8452 27.8071 2
23.6241 31.1733 2
24.4575 28.5144 0.0280962
26.005 31.6975 0.0165362
20.0981 35.915 3.98152
22.3302 36.2673 2
24.5506 36.8614 0.020768
22.8789 41.8194 0.0223557
21.6187 38.5023 0.0245568
20.6023 40.6405 2
19.9828 37.7817 2
17.9815 39.0052 3.97747
19.6835 42.9068 0.0230574
17.3122 42.1129 2
14.7668 41.9267 3.97623
16.9197 44.3959 0.0220927
14.8215 44.2126 2
12.6887 44.4001 3.97675
14.8205 46.104 0.0207532
12.9492 46.3059 2
10.9757 46.74 3.9784
13.2765 48.0203 0.0197894
11.4735 48.5581 2
9.51781 49.2445 3.98068
12.1018 50.2623 0.0193722
10.2543 51.0865 2
8.26117 52.0051 3.98375
11.1284 52.8441 0.0181011
9.22799 53.8938 2
7.19116 55.0349 3.98862
6.31991 58.3339 4
8.38202 56.9855 2
10.3194 55.7167 0.0150451
7.74924 60.3285 2
9.69875 58.8532 0.00965807
9.30605 62.2254 0
13.2121 25.3528 3.98239
12.8137 23.2691 3.98026
13.947 21.7382 2
12.2278 20.5399 3.98307
15.1366 20.1726 0.0173918
13.4434 18.8903 2
11.6555 17.557 3.98588
14.7437 17.2943 0.0157425
13.0264 15.8758 2
11.219 14.3696 3.99125
14.4814 14.2839 0.0135265
12.7817 12.685 2
10.9835 10.9835 4
14.4447 11.1119 0.00760171
12.7745 9.306 2
14.6715 7.74927 0
20.4862 33.3812 3.97842
22.9227 33.7876 2
25.1882 34.2633 0.0157272
15.8721 26.3879 3.97592
17.6003 24.0247 2
17.8366 22.3067 0.0142641
14.291 24.4381 2
15.5094 22.9055 0.0201766
18.3225 30.1583 3.97337
18.9854 27.1847 2
19.6317 24.3615 0.0194788
21.0757 30.6467 2
21.8432 27.8065 0.0269045
23.6259 31.1732 0.0266945
17.6045 35.9598 3.97959
20.0984 35.9153 2
22.3299 36.2662 0.0185915
20.6027 40.6404 0.0233542
19.9829 37.7814 0.0213925
17.9811 39.0053 2
14.2715 39.1799 3.97721
17.3122 42.1125 0.023322
14.7668 41.9271 2
12.375 42.2829 3.97654
14.8211 44.2121 0.023179
12.689 44.4005 2
10.5528 44.8076 3.97739
12.9489 46.3055 0.021678
10.9758 46.7404 2
8.90085 47.3223 3.97938
11.4734 48.5577 0.0200332
9.51786 49.2449 2
7.42835 50.0372 3.98292
10.2543 51.0861 0.0185738
8.26107 52.0054 2
6.13169 53.0085 3.98821
9.22815 53.8935 0.0156697
7.19089 55.0346 2
5.0241 56.25 4
6.31988 58.3339 2
8.38224 56.9856 0.0106614
7.74927 60.3285 0
13.4479 26.8049 3.97731
11.9275 24.7797 3.97947
13.2124 25.3524 2
11.1303 22.2257 3.98199
12.8136 23.2687 2
13.9473 21.739 0.0185888
12.2276 20.5391 2
10.3851 19.3122 3.98561
13.4434 18.8908 0.0163698
11.6555 17.5566 2
9.75977 16.1528 3.99048
13.0263 15.8762 0.0139464
11.219 14.3696 2
9.30607 12.7746 4
12.7818 12.6851 0.00807859
10.9835 10.9835 2
12.7746 9.30605 0
17.7867 33.1011 3.976
20.4863 33.3817 2
22.9226 33.7875 0.0192623
15.4599 29.6266 3.97501
15.8731 26.388 2
17.601 24.0256 0.0186427
14.2909 24.4381 0.0217265
18.3214 30.1577 2
18.984 27.1844 0.0274333
21.077 30.6475 0.0256589
14.8639 36.0158 3.97777
17.6047 35.9599 2
20.0981 35.915 0.0184754
12.5707 37.8304 3.97695
17.9815 39.0052 0.0225299
14.2711 39.1802 2
11.8881 40.145 3.97713
14.7668 41.9267 0.023766
12.375 42.2834 2
10.1518 42.782 3.97698
12.6887 44.4001 0.0232546
10.5531 44.808 2
8.37907 45.3235 3.97858
10.9757 46.74 0.0215957
8.90097 47.3227 2
6.7201 48.0013 3.98178
9.51781 49.2445 0.0193217
7.42833 50.0374 2
5.20845 50.9105 3.98797
8.26117 52.0051 0.016253
6.13142 53.0078 2
3.86727 54.0858 4
7.19116 55.0349 0.0113836
5.02404 56.25 2
6.31991 58.3339 0
12.9039 29.0261 3.97413
11.3575 26.4812 3.9784
13.4484 26.8042 2
10.1899 23.9616 3.98043
11.9276 24.7793 2
13.2121 25.3528 0.0176084
9.237 21.1324 3.98463
11.1302 22.2251 2
12.8137 23.2691 0.0197384
12.2278 20.5399 0.0169322
10.3849 19.3115 2
8.41549 18.0241 3.9897
11.6555 17.557 0.0141161
9.7597 16.1526 2
7.74928 14.6715 4
11.219 14.3696 0.00874625
9.30602 12.7745 2
10.9835 10.9835 0
14.4511 32.8554 3.97605
17.7868 33.1012 2
20.4862 33.3812 0.0215762
15.459 29.626 2
15.8721 26.3879 0.0240762
18.3225 30.1583 0.0266307
12.859 36.2076 3.97616
14.8641 36.016 2
17.6045 35.9598 0.0204081
12.5706 37.8304 2
11.2468 38.3117 3.97639
14.2715 39.1799 0.0227878
11.8879 40.1454 2
9.73747 40.7574 3.97721
12.375 42.2829 0.0234566
10.1518 42.7825 2
7.92832 43.2719 3.97815
10.5528 44.8076 0.022612
8.37926 45.3238 2
6.12661 45.9059 3.98105
8.90085 47.3223 0.0206166
6.72016 48.0015 2
4.42017 48.7505 3.98778
7.42835 50.0372 0.0170798
5.20824 50.9096 2
2.85457 51.8506 4
6.13169 53.0085 0.0117915
3.86727 54.0858 2
5.0241 56.25 0
12.0446 31.2512 3.97635
10.7708 28.4104 3.97639
12.9032 29.0253 2
9.40515 25.7939 3.97948
11.3578 26.4807 2
13.4479 26.8049 0.0226925
8.22442 23.0195 3.98304
10.1899 23.961 2
11.9275 24.7797 0.0205316
7.19747 19.9749 3.98887
9.23686 21.1317 2
11.1303 22.2257 0.018013
10.3851 19.3122 0.0143943
8.41528 18.024 2
6.31992 16.6661 4
9.75977 16.1528 0.00951771
7.74926 14.6714 2
9.30607 12.7746 0
12.0628 34.2914 3.97593
14.4512 32.8556 2
17.7867 33.1011 0.0240038
15.4599 29.6266 0.0249921
10.8118 36.6105 3.97548
12.8591 36.2075 2
14.8639 36.0158 0.022229
12.5707 37.8304 0.0230503
11.2467 38.3118 2
9.33346 38.8253 3.9768
11.8881 40.145 0.0228742
9.7374 40.7577 2
7.54008 41.2127 3.97796
10.1518 42.782 0.0230235
7.92837 43.2722 2
5.63876 43.7685 3.98099
8.37907 45.3235 0.0214239
6.12676 45.9059 2
3.76603 46.5362 3.98767
6.7201 48.0013 0.0182155
4.42005 48.7495 2
1.99014 49.554 4
5.20845 50.9105 0.0120259
2.85451 51.8506 2
3.86727 54.0858 0
10.9083 32.9156 3.97712
10.0842 30.3785 3.97673
12.0445 31.2512 2
8.71397 27.7292 3.97827
10.7704 28.4097 2
12.9039 29.0261 0.0258669
7.35019 24.9802 3.98206
9.40537 25.7934 2
11.3575 26.4812 0.0215986
6.11442 22.0001 3.98792
8.22437 23.0189 2
10.1899 23.9616 0.0195672
5.02411 18.75 4
7.1972 19.9752 2
9.237 21.1324 0.0153683
8.41549 18.0241 0.0103045
6.3199 16.6661 2
7.74928 14.6715 0
10.4234 34.9983 3.97662
12.0628 34.2913 2
14.4511 32.8554 0.0239458
9.00755 36.9852 3.97541
10.8118 36.6104 2
12.859 36.2076 0.0238362
11.2468 38.3117 0.0236098
9.33342 38.8254 2
7.22169 39.1828 3.97764
9.73747 40.7574 0.0227882
7.54008 41.2129 2
5.25453 41.6141 3.98058
7.92832 43.2719 0.0218461
5.63881 43.7686 2
3.24394 44.2815 3.98757
6.12661 45.9059 0.0189454
3.76601 46.5354 2
1.27781 47.2057 4
4.42017 48.7505 0.012224
1.99012 49.554 2
2.85457 51.8506 0
10.0762 33.8792 3.97705
9.37809 32.1518 3.97724
10.9083 32.9155 2
8.06374 29.6936 3.97791
10.0841 30.3784 2
12.0446 31.2512 0.0236491
6.59437 27.0074 3.98113
8.71375 27.7286 2
10.7708 28.4104 0.0236114
5.16966 24.0945 3.98752
7.35035 24.9799 2
9.40515 25.7939 0.0205154
3.86728 20.9142 4
6.11414 22.0008 2
8.22442 23.0195 0.016959
5.02406 18.75 2
7.19747 19.9749 0.0111275
6.31992 16.6661 0
8.83399 35.2786 3.97644
10.4235 34.9982 2
12.0628 34.2914 0.0240653
7.00703 37.206 3.97654
9.00761 36.9852 2
10.8118 36.6105 0.0245192
9.33346 38.8253 0.0231997
7.22171 39.183 2
4.98308 39.4674 3.97992
7.54008 41.2127 0.0220385
5.25455 41.6141 2
2.85468 42.0023 3.98709
5.63876 43.7685 0.0190101
3.24392 44.2811 2
0.720592 44.8159 4
3.76603 46.5362 0.0123319
1.27778 47.2057 2
1.99014 49.554 0
8.8753 33.696 3.97716
10.0763 33.8791 2
7.50192 31.6079 3.97799
9.37805 32.1517 2
10.9083 32.9156 0.0228762
5.93996 29.0691 3.98056
8.0637 29.6934 2
10.0842 30.3785 0.023266
4.35744 26.2481 3.98742
6.59428 27.0071 2
8.71397 27.7292 0.0217261
2.85458 23.1494 4
5.16954 24.0954 2
7.35019 24.9802 0.0179385
3.86728 20.9142 2
6.11442 22.0001 0.0120761
5.02411 18.75 0
6.95747 35.3058 3.97684
8.83407 35.2785 2
10.4234 34.9983 0.0233814
4.83406 37.3398 3.97932
7.00712 37.2061 2
9.00755 36.9852 0.0245943
7.22169 39.1828 0.0223586
4.98313 39.4674 2
2.60307 39.7141 3.98621
5.25453 41.6141 0.0194217
2.85467 42.0021 2
0.320823 42.3947 4
3.24394 44.2815 0.0124306
0.720551 44.8159 2
1.27781 47.2057 0
7.11665 33.4602 3.97765
8.87532 33.6959 2
10.0762 33.8792 0.0229543
5.41133 31.1335 3.98038
7.50187 31.6078 2
9.37809 32.1518 0.0227625
3.67939 28.4442 3.9873
5.93997 29.0691 2
8.06374 29.6936 0.022087
1.99015 25.446 4
4.35728 26.2489 2
6.59437 27.0074 0.018866
2.85453 23.1494 2
5.16966 24.0945 0.0124791
3.86728 20.9142 0
4.84854 35.2517 3.97938
6.95756 35.3058 2
8.83399 35.2786 0.0235578
2.49472 37.4287 3.98587
4.83415 37.3399 2
7.00703 37.206 0.0234569
4.98308 39.4674 0.0200812
2.60309 39.7141 2
0.080333 39.9526 4
2.85468 42.0023 0.0129147
0.320817 42.3947 2
0.720592 44.8159 0
5.0414 33.1904 3.98004
7.11666 33.4601 2
8.8753 33.696 0.0228355
3.144 30.6667 3.98695
5.41129 31.1337 2
7.50192 31.6079 0.022013
1.27793 27.7943 4
3.67932 28.4449 2
5.93996 29.0691 0.0194446
1.99013 25.446 2
4.35744 26.2481 0.0125801
2.85458 23.1494 0
2.54693 35.1592 3.98582
4.8486 35.2519 2
6.95747 35.3058 0.0231585
0 37.5 4
2.49478 37.4289 2
4.83406 37.3398 0.0206844
2.60307 39.7141 0.0137873
0.0802903 39.9526 2
0.320823 42.3947 0
2.76432 32.9061 3.98634
5.0414 33.1906 2
7.11665 33.4602 0.0223539
0.721173 30.1842 4
3.14394 30.6672 2
5.41133 31.1335 0.0196223
1.27779 27.7943 2
3.67939 28.4442 0.0127019
1.99015 25.446 0
0.0806499 35.0474 4
2.54696 35.1596 2
4.84854 35.2517 0.0206151
0 37.5 2
2.49472 37.4287 0.0141316
0.080333 39.9526 0
0.32156 32.6054 4
2.76432 32.9065 2
5.0414 33.1904 0.0199583
0.72056 30.1841 2
3.144 30.6667 0.0130472
1.27793 27.7943 0
0.0802889 35.0474 2
2.54693 35.1592 0.0141832
0 37.5 0
0.320817 32.6053 2
2.76432 32.9061 0.0136565
0.721173 30.1842 0
0.0806499 35.0474 0
0.32156 32.6054 0
CELLS 1910 17190
8 18 6 25 56 2 0 5 16
8 57 23 6 18 17 4 0 2
8 78 36 9 29 31 11 1 7
8 31 11 1 7 79 37 10 30
8 110 57 18 50 48 17 2 14
8 50 18 56 111 14 2 16 49
8 116 62 22 55 52 20 3 15
8 56 25 67 118 16 5 24 53
8 119 63 23 57 54 21 4 17
8 55 22 63 119 15 3 21 54
8 58 26 68 121 18 6 25 56
8 122 65 26 58 57 23 6 18
8 73 31 7 27 142 79 30 71
8 143 78 29 72 73 31 7 27
8 83 147 76 34 32 74 28 8
8 84 148 78 36 33 75 29 9
8 76 34 8 28 148 84 33 75
8 37 79 150 86 10 30 77 35
8 151 87 36 78 80 38 11 31
8 80 38 11 31 152 88 37 79
8 175 100 42 94 96 44 12 40
8 44 96 176 101 12 40 95 43
8 101 176 98 46 43 95 41 13
8 46 98 178 103 13 41 97 45
8 178 103 45 97 147 83 32 74
8 189 116 55 109 106 52 15 47
8 111 56 118 191 49 16 53 107
8 192 119 57 110 108 54 17 48
8 109 55 119 192 47 15 54 108
8 194 122 58 112 110 57 18 50
8 112 58 121 195 50 18 56 111
8 115 61 19 51 197 124 59 113
8 115 61 125 198 51 19 60 114
8 198 125 62 116 114 60 20 52
8 200 127 64 120 116 62 22 55
8 118 67 132 202 53 24 66 117
8 121 68 133 203 56 25 67 118
8 120 64 128 204 55 22 63 119
8 204 128 65 122 119 63 23 57
8 206 134 68 121 123 69 26 58
8 123 69 26 58 207 131 65 122
8 226 147 74 138 140 76 28 70
8 229 148 75 139 143 78 29 72
8 140 76 28 70 229 148 75 139
8 142 79 30 71 231 150 77 141
8 144 80 31 73 232 152 79 142
8 233 151 78 143 144 80 31 73
8 150 86 35 77 235 154 81 145
8 235 154 81 145 146 82 39 91
8 146 82 39 91 236 155 90 165
8 238 157 83 147 149 85 34 76
8 239 158 84 148 151 87 36 78
8 149 85 34 76 239 158 84 148
8 152 88 37 79 241 160 86 150
8 242 161 87 151 153 89 38 80
8 153 89 38 80 243 162 88 152
8 171 98 41 92 265 178 97 169
8 265 178 97 169 226 147 74 138
8 172 96 40 93 266 176 95 170
8 266 176 95 170 171 98 41 92
8 269 175 94 173 172 96 40 93
8 271 180 99 174 175 100 42 94
8 197 124 59 113 271 180 99 174
8 272 181 100 175 177 102 44 96
8 273 182 101 176 179 104 46 98
8 177 102 44 96 273 182 101 176
8 179 104 46 98 275 184 103 178
8 275 184 103 178 238 157 83 147
8 188 115 51 105 283 197 113 186
8 188 115 198 284 105 51 114 187
8 284 198 116 189 187 114 52 106
8 286 200 120 193 189 116 55 109
8 191 118 202 288 107 53 117 190
8 195 121 203 289 111 56 118 191
8 193 120 204 290 109 55 119 192
8 290 204 122 194 192 119 57 110
8 196 123 58 112 292 207 122 194
8 293 206 121 195 196 123 58 112
8 199 126 61 115 297 211 124 197
8 298 212 127 200 198 125 62 116
8 199 126 212 298 115 61 125 198
8 205 129 64 120 300 214 127 200
8 301 217 130 201 202 132 66 117
8 209 136 168 264 301 217 130 201
8 302 219 132 202 203 133 67 118
8 303 220 133 203 206 134 68 121
8 205 129 215 304 120 64 128 204
8 304 215 131 207 204 128 65 122
8 306 221 134 206 208 135 69 123
8 208 135 69 123 307 218 131 207
8 210 137 167 263 309 223 136 209
8 328 238 147 226 230 149 76 140
8 228 146 91 166 329 236 165 260
8 231 150 77 141 330 235 145 227
8 330 235 145 227 228 146 91 166
8 332 239 148 229 233 151 78 143
8 230 149 76 140 332 239 148 229
8 232 152 79 142 334 241 150 231
8 234 153 80 144 335 243 152 232
8 336 242 151 233 234 153 80 144
8 236 155 90 165 338 245 164 259
8 241 160 86 150 339 246 154 235
8 339 246 154 235 237 156 82 146
8 237 156 82 146 340 247 155 236
8 342 249 157 238 240 159 85 149
8 343 250 158 239 242 161 87 151
8 240 159 85 149 343 250 158 239
8 243 162 88 152 345 252 160 241
8 244 163 253 346 153 89 161 242
8 244 163 89 153 347 254 162 243
8 311 224 261 371 210 137 167 263
8 263 167 262 372 209 136 168 264
8 267 179 98 171 375 275 178 265
8 375 275 178 265 328 238 147 226
8 376 273 176 266 267 179 98 171
8 268 177 96 172 376 273 176 266
8 379 272 175 269 268 177 96 172
8 380 271 174 270 269 175 94 173
8 283 197 113 186 380 271 174 270
8 381 277 180 271 272 181 100 175
8 297 211 124 197 381 277 180 271
8 382 278 181 272 274 183 102 177
8 274 183 102 177 383 279 182 273
8 383 279 182 273 276 185 104 179
8 385 281 184 275 342 249 157 238
8 276 185 104 179 385 281 184 275
8 285 199 115 188 393 297 197 283
8 394 298 200 286 284 198 116 189
8 285 199 298 394 188 115 198 284
8 291 205 120 193 396 300 200 286
8 397 301 201 287 288 202 117 190
8 295 209 264 374 397 301 201 287
8 398 302 202 288 289 203 118 191
8 399 303 203 289 293 206 121 195
8 291 205 304 400 193 120 204 290
8 400 304 207 292 290 204 122 194
8 294 208 123 196 402 307 207 292
8 403 306 206 293 294 208 123 196
8 296 210 263 373 405 309 209 295
8 408 312 213 299 297 211 126 199
8 299 213 313 409 199 126 212 298
8 409 313 214 300 298 212 127 200
8 305 216 129 205 411 315 214 300
8 412 318 217 301 302 219 132 202
8 309 223 136 209 412 318 217 301
8 413 320 219 302 303 220 133 203
8 306 221 321 414 206 134 220 303
8 307 218 131 207 415 316 215 304
8 305 216 316 415 205 129 215 304
8 417 322 221 306 308 222 135 208
8 308 222 135 208 418 319 218 307
8 310 225 137 210 420 325 223 309
8 423 326 224 311 310 225 137 210
8 329 236 165 260 441 338 259 368
8 442 342 238 328 333 240 149 230
8 331 237 146 228 443 340 236 329
8 334 241 150 231 444 339 235 330
8 444 339 235 330 331 237 146 228
8 446 343 239 332 336 242 151 233
8 333 240 149 230 446 343 239 332
8 335 243 152 232 448 345 241 334
8 337 244 153 234 449 347 243 335
8 337 244 346 450 234 153 242 336
8 338 245 164 259 452 349 258 367
8 340 247 155 236 453 350 245 338
8 345 252 160 241 454 351 246 339
8 454 351 246 339 341 248 156 237
8 341 248 156 237 455 352 247 340
8 240 159 251 344 342 249 354 457
8 242 161 253 346 343 250 355 458
8 343 250 355 458 240 159 251 344
8 347 254 162 243 460 357 252 345
8 348 255 358 461 244 163 253 346
8 348 255 163 244 462 359 254 347
8 473 360 257 365 363 256 364 482
8 452 349 258 367 365 257 366 485
8 422 324 369 488 311 224 261 371
8 371 261 370 490 263 167 262 372
8 407 311 371 491 296 210 263 373
8 373 263 372 492 295 209 264 374
8 493 385 275 375 442 342 238 328
8 377 276 179 267 493 385 275 375
8 378 274 177 268 494 383 273 376
8 494 383 273 376 377 276 179 267
8 497 382 272 379 378 274 177 268
8 498 381 271 380 379 272 175 269
8 393 297 197 283 498 381 271 380
8 499 387 277 381 382 278 181 272
8 408 312 211 297 499 387 277 381
8 500 388 278 382 384 280 183 274
8 501 389 279 383 386 282 185 276
8 384 280 183 274 501 389 279 383
8 386 282 185 276 503 391 281 385
8 503 391 281 385 457 354 249 342
8 511 408 299 395 393 297 199 285
8 395 299 409 512 285 199 298 394
8 512 409 300 396 394 298 200 286
8 401 305 205 291 514 411 300 396
8 515 412 301 397 398 302 202 288
8 405 309 209 295 515 412 301 397
8 516 413 302 398 399 303 203 289
8 403 306 414 517 293 206 303 399
8 402 307 207 292 518 415 304 400
8 401 305 415 518 291 205 304 400
8 404 308 208 294 520 418 307 402
8 521 417 306 403 404 308 208 294
8 406 310 210 296 523 420 309 405
8 526 423 311 407 406 310 210 296
8 410 314 213 299 527 424 312 408
8 528 425 315 411 409 313 214 300
8 410 314 425 528 299 213 313 409
8 416 317 216 305 530 427 315 411
8 531 430 318 412 413 320 219 302
8 420 325 223 309 531 430 318 412
8 532 432 320 413 414 321 220 303
8 417 322 433 533 306 221 321 414
8 418 319 218 307 534 428 316 415
8 416 317 428 534 305 216 316 415
8 419 323 434 536 308 222 322 417
8 419 323 222 308 537 431 319 418
8 421 327 225 310 539 438 325 420
8 421 327 439 541 310 225 326 423
8 543 437 324 422 423 326 224 311
8 441 338 259 368 559 452 367 486
8 443 340 236 329 560 453 338 441
8 333 240 344 447 442 342 457 561
8 445 341 237 331 562 455 340 443
8 448 345 241 334 563 454 339 444
8 563 454 339 444 445 341 237 331
8 336 242 346 450 446 343 458 565
8 446 343 458 565 333 240 344 447
8 449 347 243 335 567 460 345 448
8 451 348 244 337 568 462 347 449
8 451 348 461 569 337 244 346 450
8 570 463 349 452 473 360 257 365
8 453 350 245 338 570 463 349 452
8 455 352 247 340 571 464 350 453
8 460 357 252 345 572 465 351 454
8 572 465 351 454 456 353 248 341
8 456 353 248 341 573 466 352 455
8 344 251 356 459 457 354 468 575
8 458 355 469 576 344 251 356 459
8 346 253 358 461 458 355 469 576
8 462 359 254 347 578 471 357 460
8 348 255 359 462 461 358 472 579
8 591 474 360 473 475 361 256 363
8 475 361 256 363 594 477 362 479
8 363 256 364 482 479 362 480 603
8 590 473 365 484 481 363 482 605
8 482 364 257 365 606 483 366 485
8 559 452 367 486 484 365 485 607
8 542 436 487 609 422 324 369 488
8 525 422 488 611 407 311 371 491
8 488 369 489 612 371 261 370 490
8 491 371 490 613 373 263 372 492
8 495 386 276 377 614 503 385 493
8 614 503 385 493 561 457 342 442
8 615 501 383 494 495 386 276 377
8 496 384 274 378 615 501 383 494
8 618 500 382 497 496 384 274 378
8 619 499 381 498 497 382 272 379
8 511 408 297 393 619 499 381 498
8 620 505 387 499 500 388 278 382
8 527 424 312 408 620 505 387 499
8 502 390 506 621 384 280 388 500
8 622 507 389 501 504 392 282 386
8 502 390 280 384 622 507 389 501
8 504 392 282 386 624 509 391 503
8 624 509 391 503 575 468 354 457
8 513 410 299 395 630 527 408 511
8 631 528 411 514 512 409 300 396
8 513 410 528 631 395 299 409 512
8 519 416 305 401 633 530 411 514
8 634 531 412 515 516 413 302 398
8 523 420 309 405 634 531 412 515
8 635 532 413 516 517 414 303 399
8 521 417 533 636 403 306 414 517
8 520 418 307 402 637 534 415 518
8 519 416 534 637 401 305 415 518
8 522 419 308 404 639 537 418 520
8 522 419 536 640 404 308 417 521
8 524 421 310 406 642 539 420 523
8 524 421 541 644 406 310 423 526
8 646 543 422 525 526 423 311 407
8 529 426 314 410 647 544 424 527
8 528 425 545 648 411 315 427 530
8 529 426 545 648 410 314 425 528
8 535 429 317 416 649 546 427 530
8 650 548 430 531 532 432 320 413
8 539 438 325 420 650 548 430 531
8 533 433 550 651 414 321 432 532
8 536 434 551 652 417 322 433 533
8 537 431 319 418 653 547 428 534
8 535 429 547 653 416 317 428 534
8 538 435 552 654 419 323 434 536
8 538 435 323 419 655 549 431 537
8 540 440 327 421 657 556 438 539
8 540 440 557 659 421 327 439 541
8 541 439 555 660 423 326 437 543
8 661 554 436 542 543 437 324 422
8 676 570 452 559 590 473 365 484
8 560 453 338 441 676 570 452 559
8 562 455 340 443 677 571 453 560
8 447 344 459 566 561 457 575 678
8 564 456 341 445 679 573 455 562
8 567 460 345 448 680 572 454 563
8 680 572 454 563 564 456 341 445
8 565 458 576 682 447 344 459 566
8 450 346 461 569 565 458 576 682
8 568 462 347 449 684 578 460 567
8 451 348 462 568 569 461 579 685
8 686 580 463 570 591 474 360 473
8 571 464 350 453 686 580 463 570
8 573 466 352 455 687 581 464 571
8 572 465 582 688 460 357 471 578
8 574 467 582 688 456 353 465 572
8 574 467 353 456 689 583 466 573
8 459 356 470 577 575 468 585 691
8 576 469 586 692 459 356 470 577
8 461 358 472 579 576 469 586 692
8 462 359 471 578 579 472 588 694
8 704 591 473 590 593 475 363 481
8 595 476 592 705 475 361 474 591
8 593 475 363 481 707 594 479 602
8 594 477 362 479 709 598 478 600
8 595 476 361 475 711 597 477 594
8 479 362 480 603 600 478 601 720
8 481 363 482 605 602 479 603 722
8 603 480 364 482 723 604 483 606
8 605 482 365 484 724 606 485 607
8 656 553 608 726 542 436 487 609
8 645 542 609 728 525 422 488 611
8 609 487 610 729 488 369 489 612
8 611 488 612 730 491 371 490 613
8 616 504 386 495 731 624 503 614
8 731 624 503 614 678 575 457 561
8 732 622 501 615 616 504 386 495
8 617 502 384 496 732 622 501 615
8 617 502 621 735 496 384 500 618
8 736 620 499 619 618 500 382 497
8 630 527 408 511 736 620 499 619
8 621 506 626 737 500 388 505 620
8 647 544 424 527 737 626 505 620
8 623 508 627 738 502 390 506 621
8 623 508 390 502 739 628 507 622
8 625 510 628 739 504 392 507 622
8 740 629 509 624 691 585 468 575
8 625 510 392 504 740 629 509 624
8 632 529 410 513 744 647 527 630
8 631 528 648 745 514 411 530 633
8 632 529 648 745 513 410 528 631
8 638 535 416 519 746 649 530 633
8 747 650 531 634 635 532 413 516
8 642 539 420 523 747 650 531 634
8 636 533 651 748 517 414 532 635
8 640 536 652 749 521 417 533 636
8 639 537 418 520 750 653 534 637
8 638 535 653 750 519 416 534 637
8 641 538 419 522 751 655 537 639
8 641 538 654 752 522 419 536 640
8 643 540 421 524 753 657 539 642
8 643 540 659 755 524 421 541 644
8 644 541 660 757 526 423 543 646
8 758 661 542 645 646 543 422 525
8 529 426 544 647 648 545 662 759
8 530 427 545 648 649 546 663 760
8 535 429 546 649 653 547 664 761
8 762 666 548 650 651 550 432 532
8 657 556 438 539 762 666 548 650
8 652 551 668 763 533 433 550 651
8 654 552 669 764 536 434 551 652
8 655 549 431 537 765 665 547 653
8 538 435 549 655 654 552 667 766
8 661 554 671 768 542 436 553 656
8 658 558 440 540 769 674 556 657
8 658 558 675 770 540 440 557 659
8 659 557 673 771 541 439 555 660
8 660 555 672 772 543 437 554 661
8 788 686 570 676 704 591 473 590
8 677 571 453 560 788 686 570 676
8 679 573 455 562 789 687 571 677
8 566 459 577 683 678 575 691 790
8 681 574 456 564 791 689 573 679
8 680 572 688 792 567 460 578 684
8 681 574 688 792 564 456 572 680
8 682 576 692 794 566 459 577 683
8 569 461 579 685 682 576 692 794
8 568 462 578 684 685 579 694 796
8 687 581 464 571 798 696 580 686
8 798 696 580 686 705 592 474 591
8 689 583 466 573 799 697 581 687
8 688 582 698 800 578 471 588 694
8 690 584 698 800 574 467 582 688
8 690 584 467 574 801 699 583 689
8 693 587 701 803 577 470 585 691
8 693 587 470 577 804 702 586 692
8 695 589 702 804 579 472 586 692
8 695 589 472 579 805 703 588 694
8 708 595 705 813 593 475 591 704
8 710 596 706 814 595 476 592 705
8 707 594 479 602 816 709 600 719
8 708 595 475 593 817 711 594 707
8 709 598 478 600 819 715 599 717
8 711 597 477 594 820 714 598 709
8 710 596 476 595 822 713 597 711
8 600 478 601 720 717 599 718 832
8 602 479 603 722 719 600 720 834
8 720 601 480 603 835 721 604 723
8 722 603 482 605 836 723 606 724
8 767 670 725 839 656 553 608 726
8 756 656 726 841 645 542 609 728
8 726 608 727 842 609 487 610 729
8 728 609 729 843 611 488 612 730
8 844 740 624 731 790 691 575 678
8 733 625 504 616 844 740 624 731
8 734 623 502 617 845 739 622 732
8 733 625 739 845 616 504 622 732
8 734 623 738 846 617 502 621 735
8 735 621 737 847 618 500 620 736
8 744 647 527 630 847 737 620 736
8 621 506 627 738 737 626 741 848
8 647 544 626 737 759 662 741 848
8 623 508 628 739 738 627 742 849
8 740 629 585 691 850 743 700 802
8 625 510 629 740 739 628 743 850
8 632 529 647 744 745 648 759 854
8 633 530 648 745 746 649 760 855
8 638 535 649 746 750 653 761 856
8 857 762 650 747 748 651 532 635
8 753 657 539 642 857 762 650 747
8 749 652 763 858 636 533 651 748
8 752 654 764 859 640 536 652 749
8 751 655 537 639 860 765 653 750
8 641 538 655 751 752 654 766 861
8 754 658 540 643 862 769 657 753
8 754 658 770 863 643 540 659 755
8 755 659 771 864 644 541 660 757
8 758 661 768 866 645 542 656 756
8 757 660 772 867 646 543 661 758
8 759 662 773 868 648 545 663 760
8 649 546 663 760 761 664 774 871
8 765 665 547 653 872 775 664 761
8 873 777 666 762 763 668 550 651
8 769 674 556 657 873 777 666 762
8 764 669 779 874 652 551 668 763
8 654 552 667 766 764 669 778 875
8 655 549 665 765 766 667 776 876
8 768 671 782 877 656 553 670 767
8 772 672 783 878 661 554 671 768
8 658 558 674 769 770 675 786 879
8 659 557 675 770 771 673 785 881
8 882 784 672 772 771 673 555 660
8 789 687 571 677 897 798 686 788
8 897 798 686 788 813 705 591 704
8 791 689 573 679 898 799 687 789
8 795 693 803 900 683 577 691 790
8 793 690 574 681 901 801 689 791
8 792 688 800 902 684 578 694 796
8 793 690 800 902 681 574 688 792
8 795 693 577 683 903 804 692 794
8 797 695 804 903 685 579 692 794
8 797 695 579 685 904 805 694 796
8 905 806 697 799 798 696 581 687
8 814 706 806 905 705 592 696 798
8 689 583 697 799 801 699 808 907
8 800 698 809 908 694 588 703 805
8 690 584 699 801 800 698 809 908
8 803 701 810 909 691 585 700 802
8 693 587 702 804 803 701 811 910
8 695 589 703 805 804 702 812 911
8 818 710 814 919 708 595 705 813
8 821 712 815 920 710 596 706 814
8 816 709 600 719 922 819 717 831
8 817 711 594 707 923 820 709 816
8 818 710 595 708 924 822 711 817
8 819 715 599 717 926 827 716 829
8 820 714 598 709 927 826 715 819
8 929 825 713 822 820 714 597 711
8 821 712 596 710 930 824 713 822
8 717 599 718 832 829 716 830 942
8 719 600 720 834 831 717 832 944
8 832 718 601 720 945 833 721 835
8 834 720 603 722 946 835 723 836
8 869 780 838 950 767 670 725 839
8 865 767 839 952 756 656 726 841
8 839 725 840 953 726 608 727 842
8 841 726 842 954 728 609 729 843
8 844 740 691 790 955 850 802 899
8 733 625 740 844 845 739 850 955
8 734 623 739 845 846 738 849 956
8 735 621 738 846 847 737 848 957
8 744 647 737 847 854 759 848 957
8 738 627 742 849 848 741 851 958
8 848 741 851 958 759 662 773 868
8 850 743 700 802 959 852 807 906
8 849 742 628 739 959 852 743 850
8 854 759 868 965 745 648 760 855
8 746 649 760 855 856 761 871 966
8 860 765 653 750 967 872 761 856
8 968 873 762 857 858 763 651 748
8 862 769 657 753 968 873 762 857
8 859 764 874 969 749 652 763 858
8 752 654 766 861 859 764 875 970
8 751 655 765 860 861 766 876 971
8 754 658 769 862 863 770 879 972
8 755 659 770 863 864 771 881 974
8 976 882 772 867 864 771 660 757
8 866 768 877 977 756 656 767 865
8 867 772 878 978 758 661 768 866
8 760 663 773 868 871 774 883 980
8 870 781 837 948 982 890 780 869
8 982 890 780 869 877 782 670 767
8 761 664 774 871 872 775 884 984
8 876 776 665 765 985 885 775 872
8 873 777 668 763 986 887 779 874
8 769 674 777 873 879 786 887 986
8 764 669 778 875 874 779 888 987
8 766 667 776 876 875 778 886 988
8 878 783 892 989 768 671 782 877
8 878 783 672 772 990 893 784 882
8 880 787 675 770 991 896 786 879
8 880 787 895 992 770 675 785 881
8 881 785 894 993 771 673 784 882
8 1006 905 799 898 897 798 687 789
8 919 814 905 1006 813 705 798 897
8 791 689 799 898 901 801 907 1007
8 900 803 909 1009 790 691 802 899
8 795 693 804 903 900 803 910 1010
8 902 800 908 1011 796 694 805 904
8 793 690 801 901 902 800 908 1011
8 797 695 805 904 903 804 911 1012
8 799 697 806 905 907 808 912 1013
8 920 815 912 1013 814 706 806 905
8 802 700 810 909 906 807 913 1014
8 801 699 808 907 908 809 914 1015
8 805 703 809 908 911 812 915 1016
8 803 701 811 910 909 810 916 1017
8 911 812 917 1018 804 702 811 910
8 925 821 920 1030 818 710 814 919
8 928 823 921 1031 821 712 815 920
8 922 819 717 831 1033 926 829 941
8 923 820 709 816 1034 927 819 922
8 1035 929 822 924 923 820 711 817
8 925 821 710 818 1036 930 822 924
8 1038 933 825 929 927 826 714 820
8 926 827 716 829 1039 935 828 939
8 927 826 715 819 1040 934 827 926
8 928 823 712 821 1041 931 824 930
8 1042 932 824 930 929 825 713 822
8 829 716 830 942 939 828 940 1058
8 831 717 832 944 941 829 942 1060
8 942 830 718 832 1061 943 833 945
8 944 832 720 834 1062 945 835 946
8 981 889 947 1064 870 781 837 948
8 948 837 949 1067 869 780 838 950
8 975 869 950 1069 865 767 839 952
8 950 838 951 1070 839 725 840 953
8 952 839 953 1071 841 726 842 954
8 955 850 802 899 1072 959 906 1008
8 956 849 739 845 1072 959 850 955
8 846 738 849 956 957 848 958 1073
8 957 848 958 1073 854 759 868 965
8 849 742 852 959 958 851 961 1076
8 960 853 961 1076 906 807 852 959
8 958 851 961 1076 868 773 883 980
8 960 853 807 906 1077 963 913 1014
8 855 760 868 965 966 871 980 1085
8 856 761 871 966 967 872 984 1086
8 971 876 765 860 1087 985 872 967
8 968 873 763 858 1088 986 874 969
8 862 769 873 968 972 879 986 1088
8 859 764 875 970 969 874 987 1089
8 861 766 876 971 970 875 988 1090
8 973 880 770 863 1091 991 879 972
8 973 880 992 1092 863 770 881 974
8 974 881 993 1093 864 771 882 976
8 979 870 948 1066 1094 982 869 975
8 1094 982 869 975 977 877 767 865
8 978 878 772 867 1095 990 882 976
8 978 878 989 1096 866 768 877 977
8 871 774 883 980 984 884 994 1099
8 983 891 999 1100 870 781 889 981
8 1101 1000 890 982 989 892 782 877
8 983 891 781 870 1101 1000 890 982
8 872 775 884 984 985 885 995 1103
8 876 776 885 985 988 886 996 1104
8 986 887 779 874 1105 998 888 987
8 879 786 887 986 991 896 998 1105
8 875 778 886 988 987 888 997 1106
8 990 893 1002 1107 878 783 892 989
8 1108 1003 893 990 993 894 784 882
8 880 787 896 991 992 895 1005 1109
8 993 894 785 881 1110 1004 895 992
8 898 799 905 1006 1007 907 1013 1120
8 1030 920 1013 1120 919 814 905 1006
8 901 801 907 1007 1011 908 1015 1121
8 899 802 909 1009 1008 906 1014 1122
8 900 803 910 1010 1009 909 1017 1123
8 1012 911 1018 1124 903 804 910 1010
8 904 805 908 1011 1012 911 1016 1125
8 1013 912 1020 1127 907 808 914 1015
8 1031 921 1020 1127 920 815 912 1013
8 1019 918 962 1075 1128 1021 913 1014
8 1128 1021 913 1014 1017 916 810 909
8 1015 914 1022 1129 908 809 915 1016
8 1016 915 1023 1130 911 812 917 1018
8 1018 917 1024 1131 910 811 916 1017
8 1037 928 1031 1148 925 821 920 1030
8 928 823 931 1041 1031 921 1032 1149
8 1033 926 829 941 1151 1039 939 1057
8 1034 927 819 922 1152 1040 926 1033
8 1153 1038 929 1035 1034 927 820 923
8 1154 1042 930 1036 1035 929 822 924
8 1037 928 821 925 1155 1041 930 1036
8 1039 935 828 939 1156 1047 938 1055
8 1157 1043 932 1042 1038 933 825 929
8 1038 933 826 927 1158 1045 934 1040
8 1040 934 827 926 1159 1046 935 1039
8 930 824 932 1042 1041 931 1044 1160
8 1051 936 1048 1165 1175 1052 937 1053
8 1156 1047 938 1055 1053 937 1054 1178
8 939 828 940 1058 1055 938 1056 1181
8 941 829 942 1060 1057 939 1058 1183
8 942 830 943 1061 1058 940 1059 1184
8 1060 942 832 944 1185 1061 945 1062
8 1082 964 1063 1188 981 889 947 1064
8 1097 981 1064 1190 979 870 948 1066
8 1064 947 1065 1191 948 837 949 1067
8 1066 948 1067 1193 975 869 950 1069
8 1067 949 1068 1194 950 838 951 1070
8 1069 950 1070 1195 952 839 953 1071
8 956 849 959 1072 1073 958 1076 1197
8 1074 960 1076 1197 1008 906 959 1072
8 1073 958 1076 1197 965 868 980 1085
8 1074 960 906 1008 1198 1077 1014 1122
8 1133 1026 1079 1199 1019 918 962 1075
8 1077 963 913 1014 1200 1080 962 1075
8 960 853 963 1077 1076 961 1078 1201
8 980 883 961 1076 1099 994 1078 1201
8 1210 1083 964 1082 1100 999 889 981
8 966 871 980 1085 1086 984 1099 1215
8 967 872 984 1086 1087 985 1103 1216
8 971 876 985 1087 1090 988 1104 1217
8 1088 986 874 969 1218 1105 987 1089
8 972 879 986 1088 1091 991 1105 1218
8 970 875 988 1090 1089 987 1106 1219
8 973 880 991 1091 1092 992 1109 1220
8 1093 993 881 974 1221 1110 992 1092
8 1222 1108 990 1095 1093 993 882 976
8 1223 1101 982 1094 1096 989 877 977
8 1098 983 870 979 1223 1101 982 1094
8 1095 990 1107 1224 978 878 989 1096
8 1098 983 1100 1225 979 870 981 1097
8 984 884 994 1099 1103 995 1111 1227
8 1102 1001 1115 1228 983 891 999 1100
8 1101 1000 892 989 1229 1116 1002 1107
8 1102 1001 891 983 1229 1116 1000 1101
8 985 885 995 1103 1104 996 1112 1230
8 988 886 996 1104 1106 997 1113 1231
8 1105 998 888 987 1232 1114 997 1106
8 991 896 998 1105 1109 1005 1114 1232
8 1108 1003 1117 1233 990 893 1002 1107
8 1108 1003 894 993 1233 1117 1004 1110
8 992 895 1005 1109 1110 1004 1118 1234
8 1120 1013 1127 1244 1007 907 1015 1121
8 1148 1031 1127 1244 1030 920 1013 1120
8 1121 1015 1129 1245 1011 908 1016 1125
8 1126 1019 1075 1196 1246 1128 1014 1122
8 1246 1128 1014 1122 1123 1017 909 1009
8 1124 1018 1131 1247 1010 910 1017 1123
8 1125 1016 1130 1248 1012 911 1018 1124
8 1127 1020 1137 1254 1015 914 1022 1129
8 1031 921 1032 1149 1127 1020 1137 1254
8 1134 1027 918 1019 1257 1140 1021 1128
8 1257 1140 1021 1128 1131 1024 916 1017
8 1129 1022 1141 1258 1016 915 1023 1130
8 1130 1023 1142 1259 1018 917 1024 1131
8 1261 1144 1025 1132 1133 1026 1079 1199
8 1255 1138 1025 1132 1135 1028 1144 1261
8 1133 1026 918 1019 1262 1145 1027 1134
8 1136 1029 1139 1256 1263 1146 1028 1135
8 1037 928 1041 1155 1148 1031 1149 1275
8 1041 931 1044 1160 1149 1032 1150 1276
8 1151 1039 939 1057 1278 1156 1055 1180
8 1152 1040 926 1033 1279 1159 1039 1151
8 1153 1038 927 1034 1280 1158 1040 1152
8 1281 1157 1042 1154 1153 1038 929 1035
8 1036 930 1042 1154 1155 1041 1160 1282
8 1283 1164 1046 1159 1156 1047 935 1039
8 1165 1048 1164 1283 1053 937 1047 1156
8 1157 1043 933 1038 1284 1161 1045 1158
8 1157 1043 1161 1284 1042 932 1044 1160
8 1040 934 1046 1159 1158 1045 1163 1285
8 1166 1049 1167 1292 1051 936 1048 1165
8 1166 1049 936 1051 1293 1168 1050 1172
8 1051 936 1052 1175 1172 1050 1173 1306
8 1174 1051 1165 1290 1308 1175 1053 1177
8 1053 937 1054 1178 1175 1052 1176 1309
8 1278 1156 1055 1180 1177 1053 1178 1311
8 1055 938 1056 1181 1178 1054 1179 1312
8 1057 939 1058 1183 1180 1055 1181 1314
8 1058 940 1059 1184 1181 1056 1182 1315
8 1060 942 1061 1185 1183 1058 1184 1316
8 1208 1081 1187 1321 1082 964 1063 1188
8 1209 1082 1188 1322 1097 981 1064 1190
8 1188 1063 1189 1323 1064 947 1065 1191
8 1190 1064 1191 1325 1066 948 1067 1193
8 1191 1065 1192 1326 1067 949 1068 1194
8 1067 1193 1069 950 1194 1327 1195 1070
8 1250 1133 1199 1330 1126 1019 1075 1196
8 1198 1077 1014 1122 1331 1200 1075 1196
8 1074 960 1077 1198 1197 1076 1201 1332
8 1085 980 1076 1197 1215 1099 1201 1332
8 1199 1079 1203 1333 1075 962 1080 1200
8 1132 1025 1119 1243 1199 1079 1203 1333
8 1201 1078 963 1077 1334 1202 1080 1200
8 1099 994 1078 1201 1227 1111 1202 1334
8 1343 1207 1081 1208 1210 1083 964 1082
8 1214 1084 1186 1319 1343 1207 1081 1208
8 1345 1210 1082 1209 1225 1100 981 1097
8 1346 1211 1083 1210 1228 1115 999 1100
8 1086 984 1099 1215 1216 1103 1227 1352
8 1087 985 1103 1216 1217 1104 1230 1353
8 1090 988 1104 1217 1219 1106 1231 1354
8 1218 1105 987 1089 1355 1232 1106 1219
8 1091 991 1105 1218 1220 1109 1232 1355
8 1092 992 1109 1220 1221 1110 1234 1356
8 1222 1108 1233 1357 1095 990 1107 1224
8 1222 1108 993 1093 1357 1233 1110 1221
8 1223 1101 989 1096 1358 1229 1107 1224
8 1226 1102 983 1098 1358 1229 1101 1223
8 1226 1102 1228 1359 1098 983 1100 1225
8 1103 995 1111 1227 1230 1112 1235 1360
8 1107 1002 1117 1233 1229 1116 1240 1362
8 1102 1001 1116 1229 1228 1115 1240 1362
8 1104 996 1112 1230 1231 1113 1236 1363
8 1364 1237 1114 1232 1231 1113 997 1106
8 1109 1005 1114 1232 1234 1118 1238 1365
8 1110 1004 1118 1234 1233 1117 1241 1366
8 1242 1374 1255 1138 1119 1243 1132 1025
8 1244 1127 1254 1376 1121 1015 1129 1245
8 1148 1031 1149 1275 1244 1127 1254 1376
8 1245 1129 1258 1377 1125 1016 1130 1248
8 1251 1134 1019 1126 1378 1257 1128 1246
8 1378 1257 1128 1246 1247 1131 1017 1123
8 1248 1130 1259 1379 1124 1018 1131 1247
8 1261 1381 1250 1133 1132 1249 1330 1199
8 1255 1380 1252 1135 1132 1249 1381 1261
8 1250 1133 1019 1126 1382 1262 1134 1251
8 1253 1136 1256 1385 1384 1263 1135 1252
8 1254 1137 1265 1387 1129 1022 1141 1258
8 1149 1032 1150 1276 1254 1137 1265 1387
8 1028 1135 1255 1138 1139 1256 1388 1266
8 1136 1029 1147 1264 1256 1139 1267 1389
8 1390 1268 1140 1257 1259 1142 1024 1131
8 1260 1143 1027 1134 1390 1268 1140 1257
8 1258 1141 1269 1391 1130 1023 1142 1259
8 1262 1145 1027 1134 1393 1271 1143 1260
8 1261 1144 1026 1133 1394 1272 1145 1262
8 1135 1028 1144 1261 1263 1146 1272 1394
8 1136 1029 1146 1263 1264 1147 1273 1395
8 1155 1041 1160 1282 1275 1149 1276 1405
8 1276 1150 1044 1160 1406 1277 1162 1286
8 1408 1283 1159 1279 1278 1156 1039 1151
8 1290 1165 1283 1408 1177 1053 1156 1278
8 1152 1040 1159 1279 1280 1158 1285 1409
8 1281 1157 1038 1153 1410 1284 1158 1280
8 1281 1157 1284 1410 1154 1042 1160 1282
8 1159 1046 1164 1283 1285 1163 1289 1412
8 1292 1167 1289 1412 1165 1048 1164 1283
8 1158 1045 1163 1285 1284 1161 1288 1413
8 1284 1161 1288 1413 1160 1044 1162 1286
8 1291 1166 1292 1418 1174 1051 1165 1290
8 1291 1166 1051 1174 1419 1293 1172 1305
8 1294 1169 1296 1421 1166 1049 1167 1292
8 1293 1168 1050 1172 1422 1295 1171 1303
8 1294 1169 1049 1166 1423 1297 1168 1293
8 1422 1295 1171 1303 1301 1170 1302 1435
8 1172 1050 1173 1306 1303 1171 1304 1438
8 1174 1051 1175 1308 1305 1172 1306 1440
8 1175 1052 1176 1309 1306 1173 1307 1441
8 1177 1053 1178 1311 1308 1175 1309 1443
8 1178 1054 1179 1312 1309 1176 1310 1444
8 1180 1055 1181 1314 1311 1178 1312 1446
8 1056 1181 1312 1179 1182 1315 1447 1313
8 1183 1058 1184 1316 1314 1181 1315 1448
8 1319 1186 1084 1214 1451 1317 1213 1350
8 1319 1186 1318 1453 1208 1081 1187 1321
8 1321 1187 1320 1456 1188 1063 1189 1323
8 1344 1208 1321 1457 1209 1082 1188 1322
8 1322 1188 1323 1458 1190 1064 1191 1325
8 1323 1189 1324 1459 1191 1065 1192 1326
8 1191 1325 1193 1067 1326 1460 1327 1194
8 1242 1374 1243 1119 1328 1462 1335 1204
8 1330 1199 1333 1465 1196 1075 1200 1331
8 1132 1249 1330 1199 1243 1375 1465 1333
8 1332 1201 1077 1198 1466 1334 1200 1331
8 1215 1099 1201 1332 1352 1227 1334 1466
8 1119 1243 1333 1203 1204 1335 1470 1338
8 1333 1203 1338 1470 1200 1080 1202 1334
8 1227 1111 1202 1334 1360 1235 1338 1470
8 1328 1462 1335 1204 1205 1336 1471 1339
8 1337 1206 1340 1472 1464 1329 1205 1336
8 1346 1211 1342 1479 1210 1083 1207 1343
8 1346 1211 1115 1228 1479 1342 1239 1361
8 1348 1212 1084 1214 1479 1342 1207 1343
8 1480 1343 1208 1344 1345 1210 1082 1209
8 1351 1214 1319 1454 1480 1343 1208 1344
8 1481 1346 1210 1345 1359 1228 1100 1225
8 1348 1212 1347 1483 1214 1084 1213 1350
8 1216 1103 1227 1352 1353 1230 1360 1488
8 1217 1104 1230 1353 1354 1231 1363 1489
8 1490 1364 1232 1355 1354 1231 1106 1219
8 1220 1109 1232 1355 1356 1234 1365 1491
8 1221 1110 1234 1356 1357 1233 1366 1492
8 1224 1107 1233 1357 1358 1229 1362 1493
8 1226 1102 1229 1358 1359 1228 1362 1493
8 1230 1112 1235 1360 1363 1236 1367 1496
8 1361 1239 1115 1228 1497 1371 1240 1362
8 1366 1241 1372 1498 1233 1117 1240 1362
8 1364 1237 1113 1231 1499 1368 1236 1363
8 1364 1237 1368 1499 1232 1114 1238 1365
8 1234 1118 1238 1365 1366 1241 1369 1500
8 1507 1373 1242 1374 1388 1266 1138 1255
8 1508 1374 1243 1375 1380 1255 1132 1249
8 1376 1254 1387 1509 1245 1129 1258 1377
8 1275 1149 1276 1405 1376 1254 1387 1509
8 1377 1258 1391 1510 1248 1130 1259 1379
8 1511 1390 1257 1378 1379 1259 1131 1247
8 1383 1260 1134 1251 1511 1390 1257 1378
8 1252 1135 1256 1385 1380 1255 1388 1512
8 1261 1381 1513 1394 1133 1250 1382 1262
8 1135 1252 1384 1263 1261 1381 1513 1394
8 1382 1262 1134 1251 1514 1393 1260 1383
8 1253 1136 1263 1384 1386 1264 1395 1516
8 1253 1136 1264 1386 1385 1256 1389 1517
8 1387 1265 1397 1519 1258 1141 1269 1391
8 1276 1150 1277 1406 1387 1265 1397 1519
8 1256 1139 1267 1389 1388 1266 1398 1520
8 1264 1147 1274 1396 1389 1267 1399 1521
8 1392 1270 1143 1260 1522 1400 1268 1390
8 1390 1268 1142 1259 1522 1400 1269 1391
8 1392 1270 1401 1523 1260 1143 1271 1393
8 1272 1394 1524 1402 1145 1262 1393 1271
8 1395 1273 1146 1263 1524 1402 1272 1394
8 1273 1395 1264 1147 1403 1526 1396 1274
8 1405 1276 1160 1282 1534 1406 1286 1411
8 1414 1287 1407 1535 1286 1162 1277 1406
8 1279 1159 1283 1408 1409 1285 1412 1537
8 1418 1292 1412 1537 1290 1165 1283 1408
8 1280 1158 1285 1409 1410 1284 1413 1538
8 1410 1284 1413 1538 1282 1160 1286 1411
8 1285 1163 1289 1412 1413 1288 1417 1540
8 1421 1296 1417 1540 1292 1167 1289 1412
8 1414 1287 1162 1286 1541 1416 1288 1413
8 1420 1294 1421 1545 1291 1166 1292 1418
8 1419 1293 1172 1305 1546 1422 1303 1437
8 1420 1294 1166 1291 1547 1423 1293 1419
8 1294 1169 1297 1423 1421 1296 1425 1548
8 1423 1297 1168 1293 1549 1424 1295 1422
8 1301 1170 1298 1427 1422 1295 1424 1549
8 1432 1300 1428 1554 1301 1170 1298 1427
8 1431 1299 1428 1554 1560 1430 1300 1432
8 1563 1433 1300 1432 1435 1302 1170 1301
8 1546 1422 1303 1437 1434 1301 1435 1565
8 1303 1171 1304 1438 1435 1302 1436 1566
8 1305 1172 1306 1440 1437 1303 1438 1568
8 1306 1173 1307 1441 1438 1304 1439 1569
8 1308 1175 1309 1443 1440 1306 1441 1571
8 1309 1176 1310 1444 1441 1307 1442 1572
8 1311 1178 1312 1446 1443 1309 1444 1574
8 1179 1312 1444 1310 1313 1447 1575 1445
8 1314 1181 1315 1448 1446 1312 1447 1576
8 1350 1213 1349 1486 1451 1317 1449 1579
8 1451 1317 1450 1581 1319 1186 1318 1453
8 1454 1319 1214 1351 1582 1451 1350 1487
8 1453 1318 1452 1584 1321 1187 1320 1456
8 1454 1319 1453 1585 1344 1208 1321 1457
8 1456 1320 1455 1586 1323 1189 1324 1459
8 1457 1321 1456 1587 1322 1188 1323 1458
8 1458 1323 1459 1588 1325 1191 1326 1460
8 1205 1336 1464 1329 1328 1462 1590 1461
8 1507 1373 1461 1590 1374 1242 1328 1462
8 1508 1374 1462 1591 1375 1243 1335 1467
8 1337 1206 1329 1464 1473 1341 1463 1594
8 1375 1243 1335 1467 1465 1333 1470 1596
8 1465 1333 1470 1596 1331 1200 1334 1466
8 1352 1227 1334 1466 1488 1360 1470 1596
8 1591 1462 1336 1468 1467 1335 1471 1597
8 1469 1337 1472 1598 1595 1464 1336 1468
8 1471 1339 1474 1600 1335 1204 1338 1470
8 1600 1474 1367 1496 1470 1338 1235 1360
8 1336 1205 1340 1472 1471 1339 1475 1601
8 1337 1206 1341 1473 1472 1340 1476 1602
8 1495 1370 1478 1609 1361 1239 1342 1479
8 1348 1212 1342 1479 1483 1347 1478 1609
8 1481 1346 1479 1610 1345 1210 1343 1480
8 1481 1346 1228 1359 1610 1479 1361 1494
8 1484 1348 1214 1351 1610 1479 1343 1480
8 1483 1347 1482 1612 1350 1213 1349 1486
8 1484 1348 1483 1613 1351 1214 1350 1487
8 1353 1230 1360 1488 1489 1363 1496 1616
8 1490 1364 1231 1354 1617 1499 1363 1489
8 1490 1364 1499 1617 1355 1232 1365 1491
8 1356 1234 1365 1491 1492 1366 1500 1619
8 1492 1366 1498 1620 1357 1233 1362 1493
8 1494 1361 1228 1359 1621 1497 1362 1493
8 1495 1370 1239 1361 1622 1504 1371 1497
8 1363 1236 1367 1496 1499 1368 1501 1623
8 1497 1371 1240 1362 1624 1505 1372 1498
8 1625 1503 1372 1498 1500 1369 1241 1366
8 1365 1238 1368 1499 1500 1369 1502 1626
8 1520 1398 1506 1633 1388 1266 1373 1507
8 1634 1507 1374 1508 1512 1388 1255 1380
8 1509 1387 1519 1635 1377 1258 1391 1510
8 1405 1276 1406 1534 1509 1387 1519 1635
8 1515 1392 1260 1383 1636 1522 1390 1511
8 1511 1390 1259 1379 1636 1522 1391 1510
8 1385 1256 1389 1517 1512 1388 1520 1637
8 1513 1394 1262 1382 1638 1524 1393 1514
8 1395 1516 1638 1524 1263 1384 1513 1394
8 1515 1392 1523 1639 1383 1260 1393 1514
8 1516 1395 1526 1640 1386 1264 1396 1518
8 1386 1264 1396 1518 1517 1389 1521 1641
8 1519 1397 1527 1643 1391 1269 1400 1522
8 1535 1407 1527 1643 1406 1277 1397 1519
8 1389 1267 1399 1521 1520 1398 1528 1644
8 1645 1529 1399 1521 1525 1404 1274 1396
8 1392 1270 1400 1522 1523 1401 1531 1646
8 1524 1402 1271 1393 1648 1532 1401 1523
8 1403 1526 1648 1532 1273 1395 1524 1402
8 1525 1404 1274 1396 1649 1533 1403 1526
8 1539 1414 1535 1657 1411 1286 1406 1534
8 1542 1415 1536 1658 1414 1287 1407 1535
8 1409 1285 1412 1537 1538 1413 1540 1660
8 1545 1421 1540 1660 1418 1292 1412 1537
8 1539 1414 1286 1411 1661 1541 1413 1538
8 1540 1417 1544 1663 1413 1288 1416 1541
8 1421 1296 1425 1548 1540 1417 1544 1663
8 1542 1415 1287 1414 1664 1543 1416 1541
8 1420 1294 1423 1547 1545 1421 1548 1666
8 1547 1423 1293 1419 1667 1549 1422 1546
8 1434 1301 1427 1553 1546 1422 1549 1667
8 1423 1297 1424 1549 1548 1425 1550 1668
8 1551 1426 1550 1668 1427 1298 1424 1549
8 1551 1426 1298 1427 1671 1552 1428 1554
8 1562 1432 1554 1674 1434 1301 1427 1553
8 1431 1299 1429 1558 1554 1428 1555 1675
8 1431 1299 1430 1560 1558 1429 1557 1680
8 1560 1430 1300 1432 1683 1559 1433 1563
8 1561 1431 1554 1674 1684 1560 1432 1562
8 1685 1563 1432 1562 1565 1435 1301 1434
8 1435 1302 1436 1566 1563 1433 1564 1686
8 1437 1303 1438 1568 1565 1435 1566 1688
8 1438 1304 1439 1569 1566 1436 1567 1689
8 1440 1306 1441 1571 1568 1438 1569 1691
8 1441 1307 1442 1572 1569 1439 1570 1692
8 1443 1309 1444 1574 1571 1441 1572 1694
8 1310 1444 1572 1442 1445 1575 1695 1573
8 1446 1312 1447 1576 1574 1444 1575 1696
8 1486 1349 1485 1614 1579 1449 1577 1699
8 1451 1317 1449 1579 1581 1450 1578 1701
8 1487 1350 1486 1615 1582 1451 1579 1702
8 1581 1450 1580 1704 1453 1318 1452 1584
8 1582 1451 1581 1705 1454 1319 1453 1585
8 1584 1452 1583 1706 1456 1320 1455 1586
8 1585 1453 1584 1707 1457 1321 1456 1587
8 1587 1456 1586 1708 1458 1323 1459 1588
8 1633 1506 1589 1710 1507 1373 1461 1590
8 1464 1329 1461 1590 1594 1463 1589 1710
8 1468 1336 1462 1591 1595 1464 1590 1711
8 1634 1507 1590 1711 1508 1374 1462 1591
8 1473 1341 1463 1594 1603 1477 1593 1716
8 1469 1337 1464 1595 1599 1473 1594 1717
8 1471 1597 1467 1335 1600 1718 1596 1470
8 1718 1600 1496 1616 1596 1470 1360 1488
8 1336 1468 1597 1471 1472 1598 1719 1601
8 1469 1337 1473 1599 1598 1472 1602 1720
8 1722 1604 1501 1623 1600 1474 1367 1496
8 1475 1601 1471 1339 1604 1722 1600 1474
8 1602 1476 1605 1723 1472 1340 1475 1601
8 1476 1602 1724 1606 1341 1473 1603 1477
8 1483 1347 1478 1609 1612 1482 1608 1731
8 1495 1370 1504 1622 1609 1478 1608 1731
8 1618 1495 1609 1732 1494 1361 1479 1610
8 1484 1348 1479 1610 1613 1483 1609 1732
8 1486 1349 1482 1612 1614 1485 1611 1733
8 1613 1483 1612 1734 1487 1350 1486 1615
8 1489 1363 1496 1616 1617 1499 1623 1736
8 1491 1365 1499 1617 1619 1500 1626 1737
8 1618 1495 1361 1494 1738 1622 1497 1621
8 1739 1625 1498 1620 1619 1500 1366 1492
8 1621 1497 1362 1493 1740 1624 1498 1620
8 1742 1631 1504 1622 1624 1505 1371 1497
8 1743 1628 1502 1626 1623 1501 1368 1499
8 1744 1630 1505 1624 1625 1503 1372 1498
8 1745 1629 1503 1625 1626 1502 1369 1500
8 1520 1398 1528 1644 1633 1506 1632 1751
8 1637 1520 1633 1752 1512 1388 1507 1634
8 1635 1519 1643 1753 1510 1391 1522 1636
8 1657 1535 1643 1753 1534 1406 1519 1635
8 1515 1392 1522 1636 1639 1523 1646 1754
8 1517 1389 1521 1641 1637 1520 1644 1755
8 1524 1638 1756 1648 1393 1514 1639 1523
8 1640 1526 1395 1516 1756 1648 1524 1638
8 1642 1525 1396 1518 1757 1649 1526 1640
8 1758 1645 1521 1641 1642 1525 1396 1518
8 1646 1531 1400 1522 1760 1650 1527 1643
8 1535 1407 1536 1658 1643 1527 1650 1760
8 1521 1399 1529 1645 1644 1528 1651 1761
8 1647 1530 1652 1762 1525 1404 1529 1645
8 1401 1523 1648 1532 1531 1646 1763 1655
8 1525 1404 1533 1649 1647 1530 1654 1765
8 1533 1649 1766 1656 1403 1526 1648 1532
8 1662 1542 1658 1774 1539 1414 1535 1657
8 1542 1415 1543 1664 1658 1536 1659 1775
8 1660 1540 1663 1777 1538 1413 1541 1661
8 1545 1421 1548 1666 1660 1540 1663 1777
8 1662 1542 1414 1539 1778 1664 1541 1661
8 1664 1543 1416 1541 1779 1665 1544 1663
8 1548 1425 1550 1668 1663 1544 1665 1779
8 1547 1423 1549 1667 1666 1548 1668 1781
8 1670 1551 1668 1781 1553 1427 1549 1667
8 1551 1426 1552 1671 1668 1550 1669 1782
8 1670 1551 1427 1553 1784 1671 1554 1674
8 1675 1555 1672 1785 1554 1428 1552 1671
8 1678 1556 1673 1789 1558 1429 1555 1675
8 1561 1431 1558 1681 1674 1554 1675 1790
8 1794 1677 1556 1678 1680 1557 1429 1558
8 1560 1430 1559 1683 1680 1557 1679 1797
8 1561 1431 1560 1684 1681 1558 1680 1798
8 1563 1433 1564 1686 1683 1559 1682 1800
8 1684 1560 1432 1562 1801 1683 1563 1685
8 1565 1435 1566 1688 1685 1563 1686 1802
8 1566 1436 1567 1689 1686 1564 1687 1803
8 1568 1438 1569 1691 1688 1566 1689 1805
8 1569 1439 1570 1692 1689 1567 1690 1806
8 1571 1441 1572 1694 1691 1569 1692 1808
8 1442 1572 1692 1570 1573 1695 1809 1693
8 1574 1444 1575 1696 1694 1572 1695 1810
8 1614 1485 1592 1712 1699 1577 1697 1813
8 1579 1449 1577 1699 1701 1578 1698 1815
8 1615 1486 1614 1735 1702 1579 1699 1816
8 1701 1578 1700 1818 1581 1450 1580 1704
8 1582 1451 1579 1702 1705 1581 1701 1819
8 1704 1580 1703 1820 1584 1452 1583 1706
8 1705 1581 1704 1821 1585 1453 1584 1707
8 1707 1584 1706 1822 1587 1456 1586 1708
8 1710 1589 1506 1633 1824 1709 1632 1751
8 1594 1463 1589 1710 1716 1593 1709 1824
8 1752 1633 1710 1825 1634 1507 1590 1711
8 1595 1464 1590 1711 1717 1594 1710 1825
8 1830 1714 1592 1712 1733 1611 1485 1614
8 1603 1477 1593 1716 1725 1607 1715 1834
8 1599 1473 1594 1717 1721 1603 1716 1835
8 1837 1722 1623 1736 1718 1600 1496 1616
8 1719 1601 1722 1837 1597 1471 1600 1718
8 1602 1720 1598 1472 1723 1838 1719 1601
8 1720 1602 1473 1599 1839 1724 1603 1721
8 1723 1605 1726 1840 1601 1475 1604 1722
8 1840 1726 1628 1743 1722 1604 1501 1623
8 1724 1606 1727 1841 1602 1476 1605 1723
8 1725 1607 1728 1842 1603 1477 1606 1724
8 1612 1482 1608 1731 1733 1611 1730 1849
8 1741 1627 1730 1849 1622 1504 1608 1731
8 1613 1483 1609 1732 1734 1612 1731 1850
8 1618 1495 1622 1738 1732 1609 1731 1850
8 1615 1486 1612 1734 1735 1614 1733 1851
8 1852 1743 1626 1737 1736 1623 1499 1617
8 1853 1745 1625 1739 1737 1626 1500 1619
8 1855 1742 1622 1738 1740 1624 1497 1621
8 1856 1744 1624 1740 1739 1625 1498 1620
8 1741 1627 1504 1622 1857 1746 1631 1742
8 1742 1631 1505 1624 1858 1749 1630 1744
8 1859 1747 1629 1745 1743 1628 1502 1626
8 1860 1748 1630 1744 1745 1629 1503 1625
8 1644 1528 1651 1761 1751 1632 1750 1865
8 1637 1520 1644 1755 1752 1633 1751 1866
8 1754 1646 1522 1636 1867 1760 1643 1753
8 1657 1535 1658 1774 1753 1643 1760 1867
8 1639 1523 1646 1754 1756 1648 1763 1868
8 1641 1521 1645 1758 1755 1644 1761 1869
8 1757 1649 1526 1640 1870 1766 1648 1756
8 1642 1525 1649 1757 1759 1647 1765 1871
8 1759 1647 1762 1872 1642 1525 1645 1758
8 1760 1650 1767 1874 1646 1531 1655 1763
8 1658 1536 1659 1775 1760 1650 1767 1874
8 1762 1652 1768 1875 1645 1529 1651 1761
8 1764 1653 1769 1876 1647 1530 1652 1762
8 1656 1766 1877 1773 1532 1648 1763 1655
8 1771 1879 1765 1654 1653 1764 1647 1530
8 1533 1649 1765 1654 1656 1766 1880 1772
8 1662 1542 1664 1778 1774 1658 1775 1887
8 1664 1543 1665 1779 1775 1659 1776 1888
8 1778 1664 1541 1661 1890 1779 1663 1777
8 1666 1548 1668 1781 1777 1663 1779 1890
8 1782 1669 1780 1891 1668 1550 1665 1779
8 1670 1551 1671 1784 1781 1668 1782 1893
8 1671 1552 1672 1785 1782 1669 1783 1894
8 1790 1675 1785 1896 1674 1554 1671 1784
8 1675 1555 1673 1789 1785 1672 1786 1897
8 1792 1676 1788 1903 1678 1556 1673 1789
8 1795 1678 1789 1904 1681 1558 1675 1790
8 1792 1676 1556 1678 1906 1791 1677 1794
8 1680 1557 1679 1797 1794 1677 1793 1909
8 1910 1794 1678 1795 1798 1680 1558 1681
8 1683 1559 1682 1800 1797 1679 1796 1912
8 1684 1560 1683 1801 1798 1680 1797 1913
8 1686 1564 1687 1803 1800 1682 1799 1915
8 1685 1563 1686 1802 1801 1683 1800 1916
8 1688 1566 1689 1805 1802 1686 1803 1917
8 1689 1567 1690 1806 1803 1687 1804 1918
8 1691 1569 1692 1808 1805 1689 1806 1920
8 1692 1570 1693 1809 1806 1690 1807 1921
8 1694 1572 1695 1810 1808 1692 1809 1922
8 1829 1713 1811 1926 1712 1592 1697 1813
8 1813 1697 1812 1928 1699 1577 1698 1815
8 1735 1614 1712 1828 1816 1699 1813 1929
8 1815 1698 1814 1931 1701 1578 1700 1818
8 1702 1579 1699 1816 1819 1701 1815 1932
8 1818 1700 1817 1933 1704 1580 1703 1820
8 1819 1701 1818 1934 1705 1581 1704 1821
8 1821 1704 1820 1935 1707 1584 1706 1822
8 1824 1709 1632 1751 1937 1823 1750 1865
8 1716 1593 1709 1824 1834 1715 1823 1937
8 1825 1710 1633 1752 1938 1824 1751 1866
8 1717 1594 1710 1825 1835 1716 1824 1938
8 1945 1830 1712 1828 1851 1733 1614 1735
8 1830 1714 1831 1946 1712 1592 1713 1829
8 1947 1832 1714 1830 1849 1730 1611 1733
8 1843 1729 1607 1725 1950 1833 1715 1834
8 1721 1603 1716 1835 1836 1725 1834 1951
8 1836 1725 1842 1953 1721 1603 1724 1839
8 1723 1838 1719 1601 1840 1954 1837 1722
8 1954 1840 1743 1852 1837 1722 1623 1736
8 1724 1839 1720 1602 1841 1955 1838 1723
8 1841 1727 1844 1956 1723 1605 1726 1840
8 1956 1844 1747 1859 1840 1726 1628 1743
8 1728 1842 1724 1606 1845 1957 1841 1727
8 1725 1607 1729 1843 1842 1728 1846 1958
8 1741 1627 1746 1857 1849 1730 1848 1965
8 1734 1612 1731 1850 1851 1733 1849 1966
8 1854 1741 1849 1966 1738 1622 1731 1850
8 1967 1859 1745 1853 1852 1743 1626 1737
8 1968 1860 1744 1856 1853 1745 1625 1739
8 1854 1741 1622 1738 1969 1857 1742 1855
8 1855 1742 1624 1740 1970 1858 1744 1856
8 1857 1746 1631 1742 1971 1861 1749 1858
8 1858 1749 1630 1744 1972 1863 1748 1860
8 1859 1747 1862 1973 1745 1629 1748 1860
8 1875 1768 1864 1977 1761 1651 1750 1865
8 1755 1644 1761 1869 1866 1751 1865 1978
8 1867 1760 1874 1979 1754 1646 1763 1868
8 1774 1658 1775 1887 1867 1760 1874 1979
8 1870 1766 1648 1756 1980 1877 1763 1868
8 1872 1762 1875 1981 1758 1645 1761 1869
8 1757 1649 1766 1870 1871 1765 1880 1982
8 1983 1879 1764 1873 1871 1765 1647 1759
8 1873 1764 1876 1984 1759 1647 1762 1872
8 1877 1773 1655 1763 1986 1881 1767 1874
8 1775 1659 1776 1888 1874 1767 1881 1986
8 1876 1769 1882 1987 1762 1652 1768 1875
8 1878 1770 1883 1988 1764 1653 1769 1876
8 1880 1772 1656 1766 1989 1886 1773 1877
8 1878 1770 1653 1764 1990 1884 1771 1879
8 1765 1654 1772 1880 1879 1771 1885 1991
8 1778 1664 1779 1890 1887 1775 1888 1997
8 1998 1889 1776 1888 1891 1780 1665 1779
8 1893 1782 1891 2000 1781 1668 1779 1890
8 1894 1783 1892 2001 1782 1669 1780 1891
8 1784 1671 1785 1896 1893 1782 1894 2003
8 1897 1786 1895 2004 1785 1672 1783 1894
8 1790 1675 1789 1904 1896 1785 1897 2006
8 1901 1787 1898 2007 1789 1673 1786 1897
8 1903 1788 1900 2013 1789 1673 1787 1901
8 1792 1676 1791 1906 1903 1788 1902 2016
8 1907 1792 1903 2017 1795 1678 1789 1904
8 1906 1791 1677 1794 2019 1905 1793 1909
8 1907 1792 1678 1795 2020 1906 1794 1910
8 1797 1679 1796 1912 1909 1793 1908 2022
8 1798 1680 1797 1913 1910 1794 1909 2023
8 1800 1682 1799 1915 1912 1796 1911 2025
8 1801 1683 1800 1916 1913 1797 1912 2026
8 1803 1687 1804 1918 1915 1799 1914 2028
8 1802 1686 1803 1917 1916 1800 1915 2029
8 1805 1689 1806 1920 1917 1803 1918 2030
8 1806 1690 1807 1921 1918 1804 1919 2031
8 1808 1692 1809 1922 1920 1806 1921 2032
8 1939 1826 1924 2037 1829 1713 1811 1926
8 1926 1811 1925 2039 1813 1697 1812 1928
8 1944 1829 1926 2040 1828 1712 1813 1929
8 1928 1812 1927 2042 1815 1698 1814 1931
8 1929 1813 1928 2043 1816 1699 1815 1932
8 1931 1814 1930 2044 1818 1700 1817 1933
8 1932 1815 1931 2045 1819 1701 1818 1934
8 1934 1818 1933 2046 1821 1704 1820 1935
8 2048 1936 1823 1937 1977 1864 1750 1865
8 1950 1833 1715 1834 2048 1936 1823 1937
8 1938 1824 1751 1866 2049 1937 1865 1978
8 1835 1716 1824 1938 1951 1834 1937 2049
8 1939 1826 1713 1829 2053 1942 1831 1946
8 1940 1827 1923 2035 2053 1942 1826 1939
8 1945 1830 1946 2058 1828 1712 1829 1944
8 2059 1947 1830 1945 1966 1849 1733 1851
8 1947 1832 1730 1849 2060 1948 1848 1965
8 1947 1832 1948 2060 1830 1714 1831 1946
8 1959 1847 1729 1843 2063 1949 1833 1950
8 1952 1843 1725 1836 2064 1950 1834 1951
8 1836 1725 1843 1952 1953 1842 1958 2066
8 1953 1842 1957 2067 1839 1724 1841 1955
8 1841 1955 1838 1723 1956 2068 1954 1840
8 2068 1956 1859 1967 1954 1840 1743 1852
8 1956 1844 1960 2069 1859 1747 1862 1973
8 1845 1957 1841 1727 1960 2069 1956 1844
8 1728 1842 1957 1845 1846 1958 2071 1961
8 1962 2072 1959 1847 1846 1958 1843 1729
8 1971 1861 1964 2077 1857 1746 1848 1965
8 1854 1741 1857 1969 1966 1849 1965 2078
8 1967 1859 1973 2079 1853 1745 1860 1968
8 1970 1858 1744 1856 2080 1972 1860 1968
8 1969 1857 1742 1855 2081 1971 1858 1970
8 1971 1861 1749 1858 2082 1974 1863 1972
8 1973 1862 1975 2083 1860 1748 1863 1972
8 1987 1882 1976 2086 1875 1768 1864 1977
8 1981 1875 1977 2087 1869 1761 1865 1978
8 1980 1877 1763 1868 2088 1986 1874 1979
8 1887 1775 1888 1997 1979 1874 1986 2088
8 1880 1982 2089 1989 1766 1870 1980 1877
8 1984 1876 1987 2090 1872 1762 1875 1981
8 1765 1871 1983 1879 1880 1982 2091 1991
8 1985 1878 1764 1873 2092 1990 1879 1983
8 1985 1878 1988 2093 1873 1764 1876 1984
8 2094 1992 1881 1986 1998 1889 1776 1888
8 1986 1881 1992 2094 1877 1773 1886 1989
8 1988 1883 1993 2095 1876 1769 1882 1987
8 1878 1770 1884 1990 1988 1883 1994 2096
8 1991 1885 1772 1880 2097 1996 1886 1989
8 1879 1771 1885 1991 1990 1884 1995 2098
8 2103 1998 1888 1997 2000 1891 1779 1890
8 2104 1999 1889 1998 2001 1892 1780 1891
8 2003 1894 2001 2106 1893 1782 1891 2000
8 2004 1895 2002 2107 1894 1783 1892 2001
8 2006 1897 2004 2109 1896 1785 1894 2003
8 2007 1898 2005 2110 1897 1786 1895 2004
8 2014 1901 2007 2112 1904 1789 1897 2006
8 2011 1899 2008 2113 1901 1787 1898 2007
8 2119 2010 1899 2011 2013 1900 1787 1901
8 2016 1902 2012 2122 1903 1788 1900 2013
8 2017 1903 2013 2123 1904 1789 1901 2014
8 1906 1791 1905 2019 2016 1902 2015 2125
8 1907 1792 1906 2020 2017 1903 2016 2126
8 1909 1793 1908 2022 2019 1905 2018 2128
8 2020 1906 1794 1910 2129 2019 1909 2023
8 1912 1796 1911 2025 2022 1908 2021 2131
8 1913 1797 1912 2026 2023 1909 2022 2132
8 1915 1799 1914 2028 2025 1911 2024 2134
8 1916 1800 1915 2029 2026 1912 2025 2135
8 1918 1804 1919 2031 2028 1914 2027 2136
8 1917 1803 1918 2030 2029 1915 2028 2137
8 1920 1806 1921 2032 2030 1918 2031 2138
8 1940 1827 1941 2054 2035 1923 2033 2140
8 2035 1923 2034 2143 1939 1826 1924 2037
8 2037 1924 2036 2146 1926 1811 1925 2039
8 2051 1939 2037 2147 1944 1829 1926 2040
8 2039 1925 2038 2149 1928 1812 1927 2042
8 2040 1926 2039 2150 1929 1813 1928 2043
8 2042 1927 2041 2151 1931 1814 1930 2044
8 2043 1928 2042 2152 1932 1815 1931 2045
8 2045 1931 2044 2153 1934 1818 1933 2046
8 2155 2047 1936 2048 2086 1976 1864 1977
8 2063 1949 1833 1950 2155 2047 1936 2048
8 2156 2048 1937 2049 2087 1977 1865 1978
8 2064 1950 1834 1951 2156 2048 1937 2049
8 2051 1939 1829 1944 2160 2053 1946 2058
8 2052 1940 2035 2144 2160 2053 1939 2051
8 2053 1942 1831 1946 2163 2057 1948 2060
8 2055 1943 1827 1940 2163 2057 1942 2053
8 2055 1943 2056 2164 1940 1827 1941 2054
8 2059 1947 1849 1966 2167 2060 1965 2078
8 2059 1947 2060 2167 1945 1830 1946 2058
8 2077 1964 2061 2168 1965 1848 1948 2060
8 2070 1963 1847 1959 2170 2062 1949 2063
8 2065 1959 1843 1952 2171 2063 1950 2064
8 2173 2072 1958 2066 2065 1959 1843 1952
8 1953 1842 1958 2066 2067 1957 2071 2174
8 2068 1956 2069 2175 1967 1859 1973 2079
8 2067 1957 2069 2175 1955 1841 1956 2068
8 1845 1957 2069 1960 1961 2071 2176 2073
8 2069 1960 2073 2176 1973 1862 1975 2083
8 2070 1963 2075 2177 1959 1847 1962 2072
8 1846 1958 2071 1961 1962 2072 2178 2074
8 2077 1964 1861 1971 2182 2076 1974 2082
8 2081 1971 2077 2183 1969 1857 1965 2078
8 2079 1973 2083 2184 1968 1860 1972 2080
8 2081 1971 1858 1970 2185 2082 1972 2080
8 2083 1975 2084 2186 1972 1863 1974 2082
8 2086 1976 1882 1987 2189 2085 1993 2095
8 2090 1987 2086 2190 1981 1875 1977 2087
8 2191 2094 1986 2088 2103 1998 1888 1997
8 2088 1986 2094 2191 1980 1877 1989 2089
8 1991 2091 2192 2097 1880 1982 2089 1989
8 2093 1988 2095 2193 1984 1876 1987 2090
8 1879 1983 2092 1990 1991 2091 2194 2098
8 1985 1878 1990 2092 2093 1988 2096 2195
8 2097 1996 1886 1989 2196 2099 1992 2094
8 2196 2099 1992 2094 2104 1999 1889 1998
8 1994 2096 1988 1883 2100 2197 2095 1993
8 2096 1994 1884 1990 2198 2101 1995 2098
8 1995 2098 2199 2102 1885 1991 2097 1996
8 2203 2104 1998 2103 2106 2001 1891 2000
8 2107 2002 2105 2204 2001 1892 1999 2104
8 2109 2004 2107 2206 2003 1894 2001 2106
8 2110 2005 2108 2207 2004 1895 2002 2107
8 2112 2007 2110 2209 2006 1897 2004 2109
8 2113 2008 2111 2210 2007 1898 2005 2110
8 2120 2011 2113 2212 2014 1901 2007 2112
8 2117 2009 2114 2213 2011 1899 2008 2113
8 2219 2116 2009 2117 2119 2010 1899 2011
8 2222 2118 2010 2119 2122 2012 1900 2013
8 2223 2119 2011 2120 2123 2013 1901 2014
8 2016 1902 2015 2125 2122 2012 2121 2225
8 2126 2016 2122 2226 2017 1903 2013 2123
8 2019 1905 2018 2128 2125 2015 2124 2228
8 2020 1906 2019 2129 2126 2016 2125 2229
8 2022 1908 2021 2131 2128 2018 2127 2231
8 2023 1909 2022 2132 2129 2019 2128 2232
8 2025 1911 2024 2134 2131 2021 2130 2234
8 2026 1912 2025 2135 2132 2022 2131 2235
8 1914 2028 2134 2024 2027 2136 2236 2133
8 2029 1915 2028 2137 2135 2025 2134 2237
8 2030 1918 2031 2138 2137 2028 2136 2238
8 2157 2050 2139 2240 2054 1941 2033 2140
8 2052 1940 2054 2161 2144 2035 2140 2242
8 2140 2033 2141 2243 2035 1923 2034 2143
8 2143 2034 2142 2246 2037 1924 2036 2146
8 2144 2035 2143 2247 2051 1939 2037 2147
8 2146 2036 2145 2249 2039 1925 2038 2149
8 2147 2037 2146 2250 2040 1926 2039 2150
8 2149 2038 2148 2251 2042 1927 2041 2151
8 2150 2039 2149 2252 2043 1928 2042 2152
8 2152 2042 2151 2253 2045 1931 2044 2153
8 2255 2154 2047 2155 2189 2085 1976 2086
8 2170 2062 1949 2063 2255 2154 2047 2155
8 2256 2155 2048 2156 2190 2086 1977 2087
8 2171 2063 1950 2064 2256 2155 2048 2156
8 2258 2159 2050 2157 2164 2056 1941 2054
8 2160 2053 1946 2058 2262 2163 2060 2167
8 2162 2055 1940 2052 2262 2163 2053 2160
8 2162 2055 2164 2263 2052 1940 2054 2161
8 2163 2057 1948 2060 2264 2165 2061 2168
8 2055 1943 2057 2163 2164 2056 2165 2264
8 2182 2076 2166 2268 2077 1964 2061 2168
8 2183 2077 2168 2269 2078 1965 2060 2167
8 2070 1963 2062 2170 2177 2075 2169 2271
8 2172 2070 1959 2065 2272 2170 2063 2171
8 2172 2070 2177 2273 2065 1959 2072 2173
8 2066 1958 2072 2173 2174 2071 2178 2274
8 2067 1957 2071 2174 2175 2069 2176 2275
8 2175 2069 2176 2275 2079 1973 2083 2184
8 2071 1961 2074 2178 2176 2073 2179 2276
8 2176 2073 2179 2276 2083 1975 2084 2186
8 2072 1962 2075 2177 2178 2074 2180 2277
8 2182 2076 1974 2082 2280 2181 2084 2186
8 2183 2077 1971 2081 2281 2182 2082 2185
8 2184 2083 2186 2282 2080 1972 2082 2185
8 2189 2085 1993 2095 2285 2188 2100 2197
8 2190 2086 1987 2090 2286 2189 2095 2193
8 2192 2097 1989 2089 2287 2196 2094 2191
8 2287 2196 2094 2191 2203 2104 1998 2103
8 2194 2098 1991 2091 2288 2199 2097 2192
8 2195 2096 2197 2289 2093 1988 2095 2193
8 2096 2195 2290 2198 1990 2092 2194 2098
8 2097 1996 2099 2196 2199 2102 2200 2291
8 2196 2099 1999 2104 2291 2200 2105 2204
8 2100 2197 2292 2201 1994 2096 2198 2101
8 1995 2098 2198 2101 2102 2199 2293 2202
8 2206 2107 2204 2296 2106 2001 2104 2203
8 2207 2108 2205 2297 2107 2002 2105 2204
8 2209 2110 2207 2299 2109 2004 2107 2206
8 2210 2111 2208 2300 2110 2005 2108 2207
8 2212 2113 2210 2302 2112 2007 2110 2209
8 2213 2114 2211 2303 2113 2008 2111 2210
8 2220 2117 2213 2305 2120 2011 2113 2212
8 2216 2115 2214 2306 2117 2009 2114 2213
8 2216 2115 2009 2117 2311 2217 2116 2219
8 2219 2116 2010 2119 2314 2218 2118 2222
8 2315 2219 2117 2220 2223 2119 2011 2120
8 2122 2012 2121 2225 2222 2118 2221 2317
8 2318 2222 2119 2223 2226 2122 2013 2123
8 2125 2015 2124 2228 2225 2121 2224 2320
8 2126 2016 2125 2229 2226 2122 2225 2321
8 2128 2018 2127 2231 2228 2124 2227 2323
8 2129 2019 2128 2232 2229 2125 2228 2324
8 2131 2021 2130 2234 2231 2127 2230 2326
8 2132 2022 2131 2235 2232 2128 2231 2327
8 2134 2024 2133 2236 2234 2130 2233 2328
8 2135 2025 2134 2237 2235 2131 2234 2329
8 2137 2028 2136 2238 2237 2134 2236 2330
8 2157 2050 2158 2259 2240 2139 2239 2332
8 2257 2157 2240 2334 2161 2054 2140 2242
8 2240 2139 2241 2335 2140 2033 2141 2243
8 2242 2140 2243 2337 2144 2035 2143 2247
8 2243 2141 2244 2338 2143 2034 2142 2246
8 2246 2142 2245 2341 2146 2036 2145 2249
8 2247 2143 2246 2342 2147 2037 2146 2250
8 2249 2145 2248 2343 2149 2038 2148 2251
8 2250 2146 2249 2344 2150 2039 2149 2252
8 2252 2149 2251 2345 2152 2042 2151 2253
8 2169 2271 2347 2254 2062 2170 2255 2154
8 2189 2085 2188 2285 2255 2154 2254 2347
8 2348 2255 2155 2256 2286 2189 2086 2190
8 2272 2170 2063 2171 2348 2255 2155 2256
8 2349 2258 2157 2257 2263 2164 2054 2161
8 2258 2159 2261 2351 2157 2050 2158 2259
8 2258 2159 2056 2164 2351 2261 2165 2264
8 2262 2163 2060 2167 2355 2264 2168 2269
8 2162 2055 2163 2262 2263 2164 2264 2355
8 2357 2266 2165 2264 2268 2166 2061 2168
8 2268 2166 2076 2182 2361 2267 2181 2280
8 2281 2182 2268 2362 2183 2077 2168 2269
8 2271 2169 2270 2364 2177 2075 2180 2277
8 2172 2070 2170 2272 2273 2177 2271 2365
8 2072 2173 2274 2178 2177 2273 2366 2277
8 2071 2174 2275 2176 2178 2274 2367 2276
8 2275 2176 2276 2367 2184 2083 2186 2282
8 2283 2187 2084 2186 2368 2278 2179 2276
8 2178 2074 2180 2277 2276 2179 2278 2368
8 2283 2187 2279 2370 2186 2084 2181 2280
8 2281 2182 2082 2185 2371 2280 2186 2282
8 2188 2285 2374 2284 2100 2197 2292 2201
8 2286 2189 2095 2193 2375 2285 2197 2289
8 2192 2097 2196 2287 2288 2199 2291 2376
8 2287 2196 2104 2203 2376 2291 2204 2296
8 2194 2098 2199 2288 2290 2198 2293 2377
8 2289 2197 2096 2195 2378 2292 2198 2290
8 2291 2200 2105 2204 2379 2294 2205 2297
8 2199 2102 2200 2291 2293 2202 2294 2379
8 2198 2101 2202 2293 2292 2201 2295 2380
8 2299 2207 2297 2383 2206 2107 2204 2296
8 2300 2208 2298 2384 2207 2108 2205 2297
8 2302 2210 2300 2386 2209 2110 2207 2299
8 2303 2211 2301 2387 2210 2111 2208 2300
8 2305 2213 2303 2389 2212 2113 2210 2302
8 2306 2214 2304 2390 2213 2114 2211 2303
8 2310 2216 2306 2392 2220 2117 2213 2305
8 2308 2215 2307 2393 2216 2115 2214 2306
8 2308 2215 2115 2216 2396 2309 2217 2311
8 2310 2216 2117 2220 2398 2311 2219 2315
8 2311 2217 2116 2219 2399 2312 2218 2314
8 2314 2218 2118 2222 2402 2313 2221 2317
8 2315 2219 2119 2223 2403 2314 2222 2318
8 2225 2121 2224 2320 2317 2221 2316 2405
8 2226 2122 2225 2321 2318 2222 2317 2406
8 2228 2124 2227 2323 2320 2224 2319 2408
8 2229 2125 2228 2324 2321 2225 2320 2409
8 2231 2127 2230 2326 2323 2227 2322 2411
8 2232 2128 2231 2327 2324 2228 2323 2412
8 2234 2130 2233 2328 2326 2230 2325 2413
8 2235 2131 2234 2329 2327 2231 2326 2414
8 2237 2134 2236 2330 2329 2234 2328 2415
8 2259 2158 2260 2352 2332 2239 2331 2417
8 2257 2157 2259 2350 2334 2240 2332 2419
8 2240 2139 2239 2332 2335 2241 2333 2420
8 2334 2240 2335 2422 2242 2140 2243 2337
8 2335 2241 2336 2423 2243 2141 2244 2338
8 2337 2243 2338 2425 2247 2143 2246 2342
8 2338 2244 2339 2426 2246 2142 2245 2341
8 2341 2245 2340 2428 2249 2145 2248 2343
8 2342 2246 2341 2429 2250 2146 2249 2344
8 2344 2249 2343 2430 2252 2149 2251 2345
8 2188 2285 2347 2254 2284 2374 2432 2346
8 2347 2254 2346 2432 2271 2169 2270 2364
8 2365 2271 2170 2272 2433 2347 2255 2348
8 2286 2189 2285 2375 2348 2255 2347 2433
8 2349 2258 2351 2435 2257 2157 2259 2350
8 2349 2258 2164 2263 2435 2351 2264 2355
8 2259 2158 2261 2351 2352 2260 2354 2437
8 2356 2265 2354 2437 2264 2165 2261 2351
8 2441 2357 2264 2355 2362 2268 2168 2269
8 2356 2265 2165 2264 2442 2358 2266 2357
8 2443 2359 2266 2357 2361 2267 2166 2268
8 2370 2279 2360 2446 2280 2181 2267 2361
8 2362 2268 2182 2281 2447 2361 2280 2371
8 2180 2277 2368 2278 2270 2364 2449 2363
8 2271 2365 2273 2177 2364 2450 2366 2277
8 2372 2283 2186 2282 2451 2368 2276 2367
8 2178 2274 2367 2276 2277 2366 2451 2368
8 2283 2187 2278 2368 2370 2279 2369 2452
8 2372 2283 2370 2453 2282 2186 2280 2371
8 2284 2374 2455 2373 2201 2292 2380 2295
8 2375 2285 2197 2289 2456 2374 2292 2378
8 2376 2291 2204 2296 2457 2379 2297 2383
8 2288 2199 2291 2376 2377 2293 2379 2457
8 2198 2290 2378 2292 2293 2377 2458 2380
8 2293 2202 2294 2379 2380 2295 2381 2459
8 2384 2298 2381 2459 2297 2205 2294 2379
8 2386 2300 2384 2463 2299 2207 2297 2383
8 2387 2301 2385 2464 2300 2208 2298 2384
8 2389 2303 2387 2466 2302 2210 2300 2386
8 2390 2304 2388 2467 2303 2211 2301 2387
8 2392 2306 2390 2469 2305 2213 2303 2389
8 2393 2307 2391 2470 2306 2214 2304 2390
8 2395 2308 2393 2472 2310 2216 2306 2392
8 2308 2215 2309 2396 2393 2307 2394 2473
8 2395 2308 2216 2310 2475 2396 2311 2398
8 2396 2309 2217 2311 2476 2397 2312 2399
8 2398 2311 2219 2315 2478 2399 2314 2403
8 2399 2312 2218 2314 2479 2400 2313 2402
8 2317 2221 2316 2405 2402 2313 2401 2482
8 2403 2314 2222 2318 2483 2402 2317 2406
8 2320 2224 2319 2408 2405 2316 2404 2485
8 2321 2225 2320 2409 2406 2317 2405 2486
8 2323 2227 2322 2411 2408 2319 2407 2488
8 2324 2228 2323 2412 2409 2320 2408 2489
8 2326 2230 2325 2413 2411 2322 2410 2490
8 2327 2231 2326 2414 2412 2323 2411 2491
8 2329 2234 2328 2415 2414 2326 2413 2492
8 2417 2331 2260 2352 2494 2416 2353 2438
8 2350 2259 2352 2436 2419 2332 2417 2496
8 2332 2239 2331 2417 2420 2333 2418 2497
8 2334 2240 2332 2419 2422 2335 2420 2499
8 2420 2333 2421 2500 2335 2241 2336 2423
8 2422 2335 2423 2502 2337 2243 2338 2425
8 2423 2336 2424 2503 2338 2244 2339 2426
8 2425 2338 2426 2505 2342 2246 2341 2429
8 2426 2339 2427 2506 2341 2245 2340 2428
8 2429 2341 2428 2507 2344 2249 2343 2430
8 2432 2346 2284 2374 2509 2431 2373 2455
8 2432 2346 2431 2509 2364 2270 2363 2449
8 2375 2285 2374 2456 2433 2347 2432 2510
8 2347 2433 2365 2271 2432 2510 2450 2364
8 2350 2259 2351 2435 2436 2352 2437 2514
8 2440 2356 2437 2514 2355 2264 2351 2435
8 2352 2260 2354 2437 2438 2353 2439 2516
8 2356 2265 2358 2442 2437 2354 2439 2516
8 2440 2356 2264 2355 2518 2442 2357 2441
8 2519 2443 2357 2441 2447 2361 2268 2362
8 2443 2359 2444 2520 2357 2266 2358 2442
8 2443 2359 2267 2361 2520 2444 2360 2446
8 2446 2360 2279 2370 2523 2445 2369 2452
8 2453 2370 2446 2524 2371 2280 2361 2447
8 2449 2363 2448 2525 2368 2278 2369 2452
8 2366 2277 2364 2450 2451 2368 2449 2526
8 2372 2283 2368 2451 2453 2370 2452 2527
8 2455 2373 2295 2380 2529 2454 2382 2460
8 2456 2374 2292 2378 2530 2455 2380 2458
8 2377 2293 2379 2457 2458 2380 2459 2531
8 2463 2384 2459 2531 2383 2297 2379 2457
8 2533 2461 2382 2460 2459 2381 2295 2380
8 2464 2385 2461 2533 2384 2298 2381 2459
8 2466 2387 2464 2537 2386 2300 2384 2463
8 2467 2388 2465 2538 2387 2301 2385 2464
8 2469 2390 2467 2540 2389 2303 2387 2466
8 2470 2391 2468 2541 2390 2304 2388 2467
8 2472 2393 2470 2543 2392 2306 2390 2469
8 2393 2307 2394 2473 2470 2391 2471 2544
8 2395 2308 2396 2475 2472 2393 2473 2546
8 2396 2309 2397 2476 2473 2394 2474 2547
8 2475 2396 2311 2398 2549 2476 2399 2478
8 2476 2397 2312 2399 2550 2477 2400 2479
8 2478 2399 2314 2403 2552 2479 2402 2483
8 2479 2400 2313 2402 2553 2480 2401 2482
8 2405 2316 2404 2485 2482 2401 2481 2556
8 2406 2317 2405 2486 2483 2402 2482 2557
8 2408 2319 2407 2488 2485 2404 2484 2559
8 2409 2320 2408 2489 2486 2405 2485 2560
8 2411 2322 2410 2490 2488 2407 2487 2561
8 2412 2323 2411 2491 2489 2408 2488 2562
8 2414 2326 2413 2492 2491 2411 2490 2563
8 2513 2434 2493 2565 2438 2353 2416 2494
8 2496 2417 2352 2436 2567 2494 2438 2515
8 2494 2416 2495 2568 2417 2331 2418 2497
8 2419 2332 2417 2496 2499 2420 2497 2570
8 2497 2418 2498 2571 2420 2333 2421 2500
8 2499 2420 2500 2573 2422 2335 2423 2502
8 2500 2421 2501 2574 2423 2336 2424 2503
8 2502 2423 2503 2576 2425 2338 2426 2505
8 2503 2424 2504 2577 2426 2339 2427 2506
8 2505 2426 2506 2578 2429 2341 2428 2507
8 2509 2431 2373 2455 2580 2508 2454 2529
8 2509 2431 2508 2580 2449 2363 2448 2525
8 2432 2510 2581 2509 2374 2456 2530 2455
8 2432 2510 2450 2364 2509 2581 2526 2449
8 2583 2511 2434 2513 2516 2439 2353 2438
8 2436 2352 2437 2514 2515 2438 2516 2588
8 2440 2356 2442 2518 2514 2437 2516 2588
8 2442 2358 2444 2520 2516 2439 2517 2589
8 2519 2443 2520 2591 2441 2357 2442 2518
8 2519 2443 2361 2447 2591 2520 2446 2524
8 2446 2360 2445 2523 2520 2444 2521 2592
8 2525 2448 2522 2593 2452 2369 2445 2523
8 2524 2446 2370 2453 2594 2523 2452 2527
8 2526 2449 2525 2595 2451 2368 2452 2527
8 2534 2462 2528 2597 2460 2382 2454 2529
8 2530 2455 2380 2458 2598 2529 2460 2532
8 2599 2533 2460 2532 2531 2459 2380 2458
8 2537 2464 2533 2599 2463 2384 2459 2531
8 2534 2462 2382 2460 2601 2535 2461 2533
8 2538 2465 2535 2601 2464 2385 2461 2533
8 2540 2467 2538 2604 2466 2387 2464 2537
8 2541 2468 2539 2605 2467 2388 2465 2538
8 2543 2470 2541 2607 2469 2390 2467 2540
8 2470 2391 2471 2544 2541 2468 2542 2608
8 2472 2393 2473 2546 2543 2470 2544 2610
8 2473 2394 2474 2547 2544 2471 2545 2611
8 2475 2396 2476 2549 2546 2473 2547 2613
8 2476 2397 2477 2550 2547 2474 2548 2614
8 2549 2476 2399 2478 2616 2550 2479 2552
8 2479 2400 2480 2553 2550 2477 2551 2617
8 2552 2479 2402 2483 2619 2553 2482 2557
8 2482 2401 2481 2556 2553 2480 2554 2620
8 2485 2404 2484 2559 2556 2481 2555 2623
8 2486 2405 2485 2560 2557 2482 2556 2624
8 2488 2407 2487 2561 2559 2484 2558 2625
8 2489 2408 2488 2562 2560 2485 2559 2626
8 2491 2411 2490 2563 2562 2488 2561 2627
8 2513 2434 2512 2585 2565 2493 2564 2630
8 2586 2513 2565 2632 2515 2438 2494 2567
8 2565 2493 2566 2633 2494 2416 2495 2568
8 2567 2494 2568 2635 2496 2417 2497 2570
8 2568 2495 2569 2636 2497 2418 2498 2571
8 2570 2497 2571 2638 2499 2420 2500 2573
8 2571 2498 2572 2639 2500 2421 2501 2574
8 2573 2500 2574 2641 2502 2423 2503 2576
8 2574 2501 2575 2642 2503 2424 2504 2577
8 2576 2503 2577 2643 2505 2426 2506 2578
8 2597 2528 2579 2645 2529 2454 2508 2580
8 2580 2508 2579 2645 2525 2448 2522 2593
8 2581 2509 2455 2530 2646 2580 2529 2598
8 2581 2509 2580 2646 2526 2449 2525 2595
8 2583 2511 2582 2648 2513 2434 2512 2585
8 2583 2511 2439 2516 2648 2582 2517 2589
8 2649 2583 2513 2586 2588 2516 2438 2515
8 2589 2517 2444 2520 2653 2587 2521 2592
8 2518 2442 2520 2591 2588 2516 2589 2654
8 2593 2522 2590 2655 2523 2445 2521 2592
8 2524 2446 2523 2594 2591 2520 2592 2656
8 2595 2525 2593 2657 2527 2452 2523 2594
8 2602 2536 2596 2659 2534 2462 2528 2597
8 2600 2534 2597 2660 2532 2460 2529 2598
8 2600 2534 2460 2532 2661 2601 2533 2599
8 2604 2538 2601 2661 2537 2464 2533 2599
8 2602 2536 2462 2534 2663 2603 2535 2601
8 2601 2535 2465 2538 2663 2603 2539 2605
8 2607 2541 2605 2665 2540 2467 2538 2604
8 2608 2542 2606 2666 2541 2468 2539 2605
8 2543 2470 2544 2610 2607 2541 2608 2668
8 2544 2471 2545 2611 2608 2542 2609 2669
8 2546 2473 2547 2613 2610 2544 2611 2671
8 2547 2474 2548 2614 2611 2545 2612 2672
8 2549 2476 2550 2616 2613 2547 2614 2674
8 2550 2477 2551 2617 2614 2548 2615 2675
8 2552 2479 2553 2619 2616 2550 2617 2677
8 2553 2480 2554 2620 2617 2551 2618 2678
8 2557 2482 2556 2624 2619 2553 2620 2680
8 2556 2481 2555 2623 2620 2554 2621 2681
8 2559 2484 2558 2625 2623 2555 2622 2683
8 2560 2485 2559 2626 2624 2556 2623 2684
8 2562 2488 2561 2627 2626 2559 2625 2685
8 2690 2629 2564 2630 2650 2584 2512 2585
8 2586 2513 2585 2651 2632 2565 2630 2691
8 2630 2564 2631 2692 2565 2493 2566 2633
8 2632 2565 2633 2694 2567 2494 2568 2635
8 2633 2566 2634 2695 2568 2495 2569 2636
8 2635 2568 2636 2697 2570 2497 2571 2638
8 2636 2569 2637 2698 2571 2498 2572 2639
8 2638 2571 2639 2700 2573 2500 2574 2641
8 2639 2572 2640 2701 2574 2501 2575 2642
8 2641 2574 2642 2702 2576 2503 2577 2643
8 2597 2528 2596 2659 2645 2579 2644 2704
8 2645 2579 2644 2704 2593 2522 2590 2655
8 2660 2597 2645 2705 2598 2529 2580 2646
8 2646 2580 2645 2705 2595 2525 2593 2657
8 2650 2584 2512 2585 2707 2647 2582 2648
8 2648 2582 2517 2589 2707 2647 2587 2653
8 2649 2583 2648 2708 2586 2513 2585 2651
8 2649 2583 2516 2588 2708 2648 2589 2654
8 2655 2590 2652 2710 2592 2521 2587 2653
8 2654 2589 2520 2591 2711 2653 2592 2656
8 2657 2593 2655 2712 2594 2523 2592 2656
8 2602 2536 2603 2663 2659 2596 2658 2714
8 2662 2602 2659 2715 2600 2534 2597 2660
8 2662 2602 2534 2600 2717 2663 2601 2661
8 2661 2601 2538 2604 2717 2663 2605 2665
8 2666 2606 2664 2718 2605 2539 2603 2663
8 2668 2608 2666 2720 2607 2541 2605 2665
8 2608 2542 2609 2669 2666 2606 2667 2721
8 2610 2544 2611 2671 2668 2608 2669 2723
8 2611 2545 2612 2672 2669 2609 2670 2724
8 2613 2547 2614 2674 2671 2611 2672 2726
8 2614 2548 2615 2675 2672 2612 2673 2727
8 2616 2550 2617 2677 2674 2614 2675 2729
8 2617 2551 2618 2678 2675 2615 2676 2730
8 2619 2553 2620 2680 2677 2617 2678 2732
8 2620 2554 2621 2681 2678 2618 2679 2733
8 2624 2556 2623 2684 2680 2620 2681 2735
8 2681 2621 2555 2623 2736 2682 2622 2683
8 2626 2559 2625 2685 2684 2623 2683 2737
8 2688 2628 2584 2650 2740 2686 2647 2707
8 2688 2628 2687 2742 2650 2584 2629 2690
8 2690 2629 2689 2745 2630 2564 2631 2692
8 2746 2690 2630 2691 2709 2650 2585 2651
8 2691 2630 2692 2747 2632 2565 2633 2694
8 2692 2631 2693 2748 2633 2566 2634 2695
8 2694 2633 2695 2750 2635 2568 2636 2697
8 2695 2634 2696 2751 2636 2569 2637 2698
8 2697 2636 2698 2753 2638 2571 2639 2700
8 2698 2637 2699 2754 2639 2572 2640 2701
8 2700 2639 2701 2755 2641 2574 2642 2702
8 2659 2596 2658 2714 2704 2644 2703 2757
8 2704 2644 2703 2757 2655 2590 2652 2710
8 2660 2597 2659 2715 2705 2645 2704 2758
8 2705 2645 2704 2758 2657 2593 2655 2712
8 2759 2706 2647 2707 2710 2652 2587 2653
8 2709 2650 2585 2651 2760 2707 2648 2708
8 2708 2648 2589 2654 2760 2707 2653 2711
8 2712 2655 2710 2761 2656 2592 2653 2711
8 2763 2713 2658 2714 2718 2664 2603 2663
8 2662 2602 2663 2717 2715 2659 2714 2764
8 2720 2666 2718 2767 2665 2605 2663 2717
8 2768 2719 2664 2718 2721 2667 2606 2666
8 2668 2608 2669 2723 2720 2666 2721 2770
8 2669 2609 2670 2724 2721 2667 2722 2771
8 2671 2611 2672 2726 2723 2669 2724 2773
8 2672 2612 2673 2727 2724 2670 2725 2774
8 2674 2614 2675 2729 2726 2672 2727 2776
8 2675 2615 2676 2730 2727 2673 2728 2777
8 2677 2617 2678 2732 2729 2675 2730 2779
8 2678 2618 2679 2733 2730 2676 2731 2780
8 2680 2620 2681 2735 2732 2678 2733 2782
8 2733 2679 2621 2681 2783 2734 2682 2736
8 2735 2681 2623 2684 2784 2736 2683 2737
8 2740 2686 2647 2707 2787 2738 2706 2759
8 2688 2628 2686 2740 2742 2687 2739 2789
8 2743 2688 2650 2709 2790 2740 2707 2760
8 2742 2687 2741 2792 2690 2629 2689 2745
8 2743 2688 2742 2793 2709 2650 2690 2746
8 2745 2689 2744 2795 2692 2631 2693 2748
8 2746 2690 2745 2796 2691 2630 2692 2747
8 2747 2692 2748 2797 2694 2633 2695 2750
8 2748 2693 2749 2798 2695 2634 2696 2751
8 2750 2695 2751 2800 2697 2636 2698 2753
8 2751 2696 2752 2801 2698 2637 2699 2754
8 2753 2698 2754 2802 2700 2639 2701 2755
8 2763 2713 2756 2804 2714 2658 2703 2757
8 2759 2706 2652 2710 2804 2756 2703 2757
8 2715 2659 2714 2764 2758 2704 2757 2805
8 2758 2704 2757 2805 2712 2655 2710 2761
8 2806 2759 2707 2760 2761 2710 2653 2711
8 2765 2716 2762 2808 2718 2664 2713 2763
8 2809 2763 2714 2764 2767 2718 2663 2717
8 2765 2716 2664 2718 2811 2766 2719 2768
8 2813 2768 2718 2767 2770 2721 2666 2720
8 2814 2769 2719 2768 2771 2722 2667 2721
8 2723 2669 2724 2773 2770 2721 2771 2816
8 2724 2670 2725 2774 2771 2722 2772 2817
8 2726 2672 2727 2776 2773 2724 2774 2819
8 2727 2673 2728 2777 2774 2725 2775 2820
8 2729 2675 2730 2779 2776 2727 2777 2822
8 2730 2676 2731 2780 2777 2728 2778 2823
8 2732 2678 2733 2782 2779 2730 2780 2825
8 2780 2731 2679 2733 2826 2781 2734 2783
8 2782 2733 2681 2735 2827 2783 2736 2784
8 2830 2785 2738 2787 2804 2756 2706 2759
8 2789 2739 2686 2740 2832 2786 2738 2787
8 2790 2740 2707 2760 2833 2787 2759 2806
8 2742 2687 2739 2789 2792 2741 2788 2835
8 2743 2688 2740 2790 2793 2742 2789 2836
8 2792 2741 2791 2838 2745 2689 2744 2795
8 2793 2742 2792 2839 2746 2690 2745 2796
8 2795 2744 2794 2841 2748 2693 2749 2798
8 2796 2745 2795 2842 2747 2692 2748 2797
8 2797 2748 2798 2843 2750 2695 2751 2800
8 2798 2749 2799 2844 2751 2696 2752 2801
8 2800 2751 2801 2845 2753 2698 2754 2802
8 2808 2762 2803 2847 2763 2713 2756 2804
8 2809 2763 2804 2848 2764 2714 2757 2805
8 2806 2759 2710 2761 2848 2804 2757 2805
8 2765 2716 2766 2811 2808 2762 2807 2850
8 2810 2765 2808 2851 2767 2718 2763 2809
8 2810 2765 2718 2767 2852 2811 2768 2813
8 2811 2766 2719 2768 2853 2812 2769 2814
8 2855 2814 2768 2813 2816 2771 2721 2770
8 2856 2815 2769 2814 2817 2772 2722 2771
8 2773 2724 2774 2819 2816 2771 2817 2858
8 2774 2725 2775 2820 2817 2772 2818 2859
8 2776 2727 2777 2822 2819 2774 2820 2861
8 2777 2728 2778 2823 2820 2775 2821 2862
8 2779 2730 2780 2825 2822 2777 2823 2864
8 2823 2778 2731 2780 2865 2824 2781 2826
8 2825 2780 2733 2782 2866 2826 2783 2827
8 2869 2828 2785 2830 2847 2803 2756 2804
8 2871 2829 2786 2832 2830 2785 2738 2787
8 2872 2830 2787 2833 2848 2804 2759 2806
8 2789 2739 2786 2832 2835 2788 2831 2874
8 2836 2789 2740 2790 2875 2832 2787 2833
8 2792 2741 2788 2835 2838 2791 2834 2877
8 2793 2742 2789 2836 2839 2792 2835 2878
8 2838 2791 2837 2880 2795 2744 2794 2841
8 2839 2792 2838 2881 2796 2745 2795 2842
8 2841 2794 2840 2882 2798 2749 2799 2844
8 2842 2795 2841 2883 2797 2748 2798 2843
8 2843 2798 2844 2884 2800 2751 2801 2845
8 2886 2846 2803 2847 2850 2807 2762 2808
8 2851 2808 2847 2887 2809 2763 2804 2848
8 2850 2807 2766 2811 2889 2849 2812 2853
8 2810 2765 2811 2852 2851 2808 2850 2890
8 2852 2811 2768 2813 2891 2853 2814 2855
8 2853 2812 2769 2814 2892 2854 2815 2856
8 2894 2856 2814 2855 2858 2817 2771 2816
8 2817 2772 2818 2859 2856 2815 2857 2895
8 2819 2774 2820 2861 2858 2817 2859 2897
8 2820 2775 2821 2862 2859 2818 2860 2898
8 2822 2777 2823 2864 2861 2820 2862 2900
8 2823 2778 2824 2865 2862 2821 2863 2901
8 2864 2823 2780 2825 2902 2865 2826 2866
8 2904 2867 2828 2869 2886 2846 2803 2847
8 2869 2828 2868 2906 2830 2785 2829 2871
8 2907 2869 2830 2872 2887 2847 2804 2848
8 2871 2829 2870 2909 2832 2786 2831 2874
8 2910 2871 2832 2875 2872 2830 2787 2833
8 2835 2788 2831 2874 2877 2834 2873 2912
8 2836 2789 2832 2875 2878 2835 2874 2913
8 2877 2834 2876 2915 2838 2791 2837 2880
8 2839 2792 2835 2878 2881 2838 2877 2916
8 2880 2837 2879 2917 2841 2794 2840 2882
8 2881 2838 2880 2918 2842 2795 2841 2883
8 2883 2841 2882 2919 2843 2798 2844 2884
8 2921 2885 2846 2886 2889 2849 2807 2850
8 2922 2886 2847 2887 2890 2850 2808 2851
8 2889 2849 2812 2853 2924 2888 2854 2892
8 2890 2850 2811 2852 2925 2889 2853 2891
8 2891 2853 2814 2855 2926 2892 2856 2894
8 2892 2854 2815 2856 2927 2893 2857 2895
8 2858 2817 2859 2897 2894 2856 2895 2929
8 2859 2818 2860 2898 2895 2857 2896 2930
8 2861 2820 2862 2900 2897 2859 2898 2932
8 2862 2821 2863 2901 2898 2860 2899 2933
8 2864 2823 2865 2902 2900 2862 2901 2934
8 2904 2867 2846 2886 2936 2903 2885 2921
8 2904 2867 2903 2936 2869 2828 2868 2906
8 2937 2904 2869 2907 2922 2886 2847 2887
8 2906 2868 2905 2939 2871 2829 2870 2909
8 2907 2869 2906 2940 2872 2830 2871 2910
8 2909 2870 2908 2942 2874 2831 2873 2912
8 2910 2871 2909 2943 2875 2832 2874 2913
8 2912 2873 2911 2945 2877 2834 2876 2915
8 2878 2835 2874 2913 2916 2877 2912 2946
8 2915 2876 2914 2947 2880 2837 2879 2917
8 2916 2877 2915 2948 2881 2838 2880 2918
8 2918 2880 2917 2949 2883 2841 2882 2919
8 2921 2885 2849 2889 2951 2920 2888 2924
8 2952 2921 2886 2922 2925 2889 2850 2890
8 2924 2888 2854 2892 2954 2923 2893 2927
8 2925 2889 2853 2891 2955 2924 2892 2926
8 2926 2892 2856 2894 2956 2927 2895 2929
8 2895 2857 2896 2930 2927 2893 2928 2957
8 2897 2859 2898 2932 2929 2895 2930 2959
8 2898 2860 2899 2933 2930 2896 2931 2960
8 2900 2862 2901 2934 2932 2898 2933 2961
8 2936 2903 2885 2921 2963 2935 2920 2951
8 2936 2903 2935 2963 2906 2868 2905 2939
8 2937 2904 2886 2922 2964 2936 2921 2952
8 2937 2904 2936 2964 2907 2869 2906 2940
8 2939 2905 2938 2966 2909 2870 2908 2942
8 2940 2906 2939 2967 2910 2871 2909 2943
8 2942 2908 2941 2969 2912 2873 2911 2945
8 2943 2909 2942 2970 2913 2874 2912 2946
8 2945 2911 2944 2971 2915 2876 2914 2947
8 2946 2912 2945 2972 2916 2877 2915 2948
8 2948 2915 2947 2973 2918 2880 2917 2949
8 2951 2920 2888 2924 2975 2950 2923 2954
8 2952 2921 2889 2925 2976 2951 2924 2955
8 2927 2893 2928 2957 2954 2923 2953 2978
8 2955 2924 2892 2926 2979 2954 2927 2956
8 2929 2895 2930 2959 2956 2927 2957 2980
8 2930 2896 2931 2960 2957 2928 2958 2981
8 2932 2898 2933 2961 2959 2930 2960 2982
8 2951 2920 2950 2975 2963 2935 2962 2984
8 2963 2935 2962 2984 2939 2905 2938 2966
8 2964 2936 2921 2952 2985 2963 2951 2976
8 2964 2936 2963 2985 2940 2906 2939 2967
8 2966 2938 2965 2987 2942 2908 2941 2969
8 2967 2939 2966 2988 2943 2909 2942 2970
8 2969 2941 2968 2989 2945 2911 2944 2971
8 2970 2942 2969 2990 2946 2912 2945 2972
8 2972 2945 2971 2991 2948 2915 2947 2973
8 2954 2923 2953 2978 2975 2950 2974 2993
8 2976 2951 2924 2955 2994 2975 2954 2979
8 2957 2928 2958 2981 2978 2953 2977 2995
8 2956 2927 2957 2980 2979 2954 2978 2996
8 2959 2930 2960 2982 2980 2957 2981 2997
8 2984 2962 2983 2999 2966 2938 2965 2987
8 2975 2950 2974 2993 2984 2962 2983 2999
8 2976 2951 2975 2994 2985 2963 2984 3000
8 2985 2963 2984 3000 2967 2939 2966 2988
8 2987 2965 2986 3001 2969 2941 2968 2989
8 2988 2966 2987 3002 2970 2942 2969 2990
8 2990 2969 2989 3003 2972 2945 2971 2991
8 2978 2953 2977 2995 2993 2974 2992 3004
8 2979 2954 2978 2996 2994 2975 2993 3005
8 2980 2957 2981 2997 2996 2978 2995 3006
8 2974 2993 2999 2983 2992 3004 3007 2998
8 2983 2999 2987 2965 2998 3007 3001 2986
8 3000 2984 2999 3008 2988 2966 2987 3002
8 2994 2975 2993 3005 3000 2984 2999 3008
8 3002 2987 3001 3009 2990 2969 2989 3003
8 2996 2978 2995 3006 3005 2993 3004 3010
8 3005 2993 3004 3010 3008 2999 3007 3011
8 3008 2999 3007 3011 3002 2987 3001 3009

CELL_TYPES 1910
12
12
12
12
12
12
12
12
12
12
12
12
12
12
12
12
12
12
12
12
12
12
12
12
12
12
12
12
12
12
12
12
12
12
12
12
12
12
12
12
12
12
12
12
12
12
12
12
12
12
12
12
12
12
12
12
12
12
12
12
12
12
12
12
12
12
12
12
12
12
12
12
12
12
12
12
12
12
12
12
12
12
12
12
12
12
12
12
12
12
12
12
12
12
12
12
12
12
12
12
12
12
12
12
12
12
12
12
12
12
12
12
12
12
12
12
12
12
12
12
12
12
12
12
12
12
12
12
12
12
12
12
12
12
12
12
12
12
12
12
12
12
12
12
12
12
12
12
12
12
12
12
12
12
12
12
12
12
12
12
12
12
12
12
12
12
12
12
12
12
12
12
12
12
12
12
12
12
12
12
12
12
12
12
12
12
12
12
12
12
12
12
12
12
12
12
12
12
12
12
12
12
12
12
12
12
12
12
12
12
12
12
12
12
12
12
12
12
12
12
12
12
12
12
12
12
12
12
12
12
12
12
12
12
12
12
12
12
12
12
12
12
12
12
12
12
12
12
12
12
12
12
12
12
12
12
12
12
12
12
12
12
12
12
12
12
12
12
12
12
12
12
12
12
12
12
12
12
12
12
12
12
12
12
12
12
12
12
12
12
12
12
12
12
12
12
12
12
12
12
12
12
12
12
12
12
12
12
12
12
12
12
12
12
12
12
12
12
12
12
12
12
12
12
12
12
12
12
12
12
12
12
12
12
12
12
12
12
12
12
12
12
12
12
12
12
12
12
12
12
12
12
12
12
12
12
12
12
12
12
12
12
12
12
12
12
12
12
12
12
12
12
12
12
12
12
12
12
12
12
12
12
12
12
12
12
12
12
12
12
12
12
12
12
12
12
12
12
12
12
12
12
12
12
12
12
12
12
12
12
12
12
12
12
12
12
12
12
12
12
12
12
12
12
12
12
12
12
12
12
12
12
12
12
12
12
12
12
12
12
12
12
12
12
12
12
12
12
12
12
12
12
12
12
12
12
12
12
12
12
12
12
12
12
12
12
12
12
12
12
12
12
12
12
12
12
12
12
12
12
12
12
12
12
12
12
12
12
12
12
12
12
12
12
12
12
12
12
12
12
12
12
12
12
12
12
12
12
12
12
12
12
12
12
12
12
12
12
12
12
12
12
12
12
12
12
12
12
12
12
12
12
12
12
12
12
12
12
12
12
12
12
12
12
12
12
12
12
12
12
12
12
12
12
12
12
12
12
12
12
12
12
12
12
12
12
12
12
12
12
12
12
12
12
12
12
12
12
12
12
12
12
12
12
12
12
12
12
12
12
12
12
12
12
12
12
12
12
12
12
12
12
12
12
12
12
12
12
12
12
12
12
12
12
12
12
12
12
12
12
12
12
12
12
12
12
12
12
12
12
12
12
12
12
12
12
12
12
12
12
12
12
12
12
12
12
12
12
12
12
12
12
12
12
12
12
12
12
12
12
12
12
12
12
12
12
12
12
12
12
12
12
12
12
12
12
12
12
12
12
12
12
12
12
12
12
12
12
12
12
12
12
12
12
12
12
12
12
12
12
12
12
12
12
12
12
12
12
12
12
12
12
12
12
12
12
12
12
12
12
12
12
12
12
12
12
12
12
12
12
12
12
12
12
12
12
12
12
12
12
12
12
12
12
12
12
12
12
12
12
12
12
12
12
12
12
12
12
12
12
12
12
12
12
12
12
12
12
12
12
12
12
12
12
12
12
12
12
12
12
12
12
12
12
12
12
12
12
12
12
12
12
12
12
12
12
12
12
12
12
12
12
12
12
12
12
12
12
12
12
12
12
12
12
12
12
12
12
12
12
12
12
12
12
12
12
12
12
12
12
12
12
12
12
12
12
12
12
12
12
12
12
12
12
12
12
12
12
12
12
12
12
12
12
12
12
12
12
12
12
12
12
12
12
12
12
12
12
12
12
12
12
12
12
12
12
12
12
12
12
12
12
12
12
12
12
12
12
12
12
12
12
12
12
12
12
12
12
12
12
12
12
12
12
12
12
12
12
12
12
12
12
12
12
12
12
12
12
12
12
12
12
12
12
12
12
12
12
12
12
12
12
12
12
12
12
12
12
12
12
12
12
12
12
12
12
12
12
12
12
12
12
12
12
12
12
12
12
12
12
12
12
12
12
12
12
12
12
12
12
12
12
12
12
12
12
12
12
12
12
12
12
12
12
12
12
12
12
12
12
12
12
12
12
12
12
12
12
12
12
12
12
12
12
12
12
12
12
12
12
12
12
12
12
12
12
12
12
12
12
12
12
12
12
12
12
12
12
12
12
12
12
12
12
12
12
12
12
12
12
12
12
12
12
12
12
12
12
12
12
12
12
12
12
12
12
12
12
12
12
12
12
12
12
12
12
12
12
12
12
12
12
12
12
12
12
12
12
12
12
12
12
12
12
12
12
12
12
12
12
12
12
12
12
12
12
12
12
12
12
12
12
12
12
12
12
12
12
12
12
12
12
12
12
12
12
12
12
12
12
12
12
12
12
12
12
12
12
12
12
12
12
12
12
12
12
12
12
12
12
12
12
12
12
12
12
12
12
12
12
12
12
12
12
12
12
12
12
12
12
12
12
12
12
12
12
12
12
12
12
12
12
12
12
12
12
12
12
12
12
12
12
12
12
12
12
12
12
12
12
12
12
12
12
12
12
12
12
12
12
12
12
12
12
12
12
12
12
12
12
12
12
12
12
12
12
12
12
12
12
12
12
12
12
12
12
12
12
12
12
12
12
12
12
12
12
12
12
12
12
12
12
12
12
12
12
12
12
12
12
12
12
12
12
12
12
12
12
12
12
12
12
12
12
12
12
12
12
12
12
12
12
12
12
12
12
12
12
12
12
12
12
12
12
12
12
12
12
12
12
12
12
12
12
12
12
12
12
12
12
12
12
12
12
12
12
12
12
12
12
12
12
12
12
12
12
12
12
12
12
12
12
12
12
12
12
12
12
12
12
12
12
12
12
12
12
12
12
12
12
12
12
12
12
12
12
12
12
12
12
12
12
12
12
12
12
12
12
12
12
12
12
12
12
12
12
12
12
12
12
12
12
12
12
12
12
12
12
12
12
12
12
12
12
12
12
12
12
12
12
12
12
12
12
12
12
12
12
12
12
12
12
12
12
12
12
12
12
12
12
12
12
12
12
12
12
12
12
12
12
12
12
12
12
12
12
12
12
12
12
12
12
12
12
12
12
12
12
12
12
12
12
12
12
12
12
12
12
12
12
12
12
12
12
12
12
12
12
12
12
12
12
12
12
12
12
12
12
12
12
12
12
12
12
12
12
12
12
12
12
12
12
12
12
12
12
12
12
12
12
12
12
12
12
12
12
12
12
12
12
12
12
12
12
12
12
12
12
12
12
12
12
12
12
12
12
12
12
12
12
12
12
12
12
12
12
12
12
12
12
12
12
12
12
12
12
12
12
12
12
12
12
12
12
12
12
12
12
12
12
12
12
12
12
12
12
12
12
12
12
12
12
12
12
12
12
12
12
12
12
12
12
12
12
12
12
12
12
12
12
12
12
12
12
12
12
12
12
12
12
12
12
12
12
12
12
12
12
12
12
12
12
12
12
12
12
12
12
12
12
12
12
12
12
12
12
12
12
12
12
12
12
12
12
12
12
12
12
12
12
12
12
12
12
12
12
12
12
12
12
12
12
12
12
12
12
12
12
12
12
12
12
12
12
12
12
12
12
12
12
12
12
12
12
12
12
12
12
12
12
12
12
12
12
12
12
12
12
12
12
12
12
12
12
12
12
12
12
12
12
12
12
12
12
12
12
12
12
12
12
12
12
12
12
12
12
12
12
12
12
12
12
12
12
12
12
12
12
12
12
12
12
12
12
12
12
12
12
12
12
12
12
12
12
12
12
12
12
12
12
12
12
12
12
12
12
12
12
12
12
12
12
12
12
12
12
12
12
12
12
12
12
12
12
12
12
12
12
12
12
12
12
12
12
12
12
12
12
12
12
12
12
12
12
12
12
12
12
12
12
12
12
12
12
12
12
12
12
12
12
12
12
12
12
12
12
12
12
12
12
12
12
12
12
12
12
12
12
12
12
12
12
12
12
12
12
12
12
12
12
12
12
12
12
12
12
12
12
12
12
12
12
12
12
12
12
12
12
12
12
12
12
12
12
12
12
12
12
12
12
12
12
12
12
12
12
12
12
12
12
12
12
12
12
12
12
12
12
12
12
12
12
12
12
12
12
12
12
12
12
12
12
12
12
12
12
12
12
12
12
12
12
12
12
12
12
12
12
12
12

POINT_DATA 3012
SCALARS Jp_lamdaP float 4
LOOKUP_TABLE default
1 1 1 1
1 1 1 1
1 1 1 1
1 1 1 1
1 1 1 1
1 1 1 1
0.999962 1 1 0.999962
1 1 1 1
1 1 1 1
1 1 1 1
1 1 1 1
0.999997 1 1 0.999997
0.999999 1 1 0.999999
1 1 1 1
1 1 1 1
1 1 1 1
1 1 1 1
1 1 1 1
0.999963 1 1 0.999963
1 1 1 1
1 1 1 1
1 1 1 1
0.999927 1 1 0.999927
0.999953 1 1 0.999953
1 1 1 1
0.999972 1 1 0.999972
0.999874 1 1 0.999874
1 1 1 1
1 1 1 1
1 1 1 1
1 1 1 1
0.999998 1 1 0.999998
1 1 1 1
1 1 1 1
0.999976 1 1 0.999976
1 1 1 1
0.999993 1 1 0.999993
0.999999 1 1 0.999999
0.999897 1 1 0.999897
1 1 1 1
1 1 1 1
1 1 1 1
1 1 1 1
1 1 1 1
0.999942 1 1 0.999942
1 1 1 1
0.999959 1 1 0.999959
1 1 1 1
1 1 1 1
1 1 1 1
0.999963 1 1 0.999963
1 1 1 1
1 1 1 1
1 1 1 1
1 1 1 1
0.999928 1 1 0.999928
0.999973 1 1 0.999973
0.999953 1 1 0.999953
0.999871 1 1 0.999871
1 1 1 1
1 1 1 1
0.999948 1 1 0.999948
0.999919 1 1 0.999919
0.999941 1 1 0.999941
0.999789 1 1 0.999789
0.999838 1 1 0.999838
1 1 1 1
0.999982 1 1 0.999982
0.999898 1 1 0.999898
0.99974 1 1 0.99974
1 1 1 1
1 1 1 1
1 1 1 1
0.999999 1 1 0.999999
1 1 1 1
1 1 1 1
0.999979 1 1 0.999979
1 1 1 1
0.999995 1 1 0.999995
1 1 1 1
0.999897 1 1 0.999897
1 1 1 1
1 1 1 1
0.999969 1 1 0.999969
0.999986 1 1 0.999986
0.999827 1 1 0.999827
1 1 1 1
0.999885 1 1 0.999885
0.99991 1 1 0.99991
0.999795 1 1 0.999795
1 1 1 1
1 1 1 1
1 1 1 1
1 1 1 1
1 1 1 1
1 1 1 1
0.999945 1 1 0.999945
1 1 1 1
0.99996 1 1 0.99996
1 1 1 1
0.999935 1 1 0.999935
0.999952 1 1 0.999952
0.999718 1 1 0.999718
0.999963 1 1 0.999963
0.999751 1 1 0.999751
1 1 1 1
1 1 1 1
1 1 1 1
1 1 1 1
0.999929 1 1 0.999929
0.999954 1 1 0.999954
0.999974 1 1 0.999974
0.999868 1 1 0.999868
1 1 1 1
1 1 1 1
0.999929 1 1 0.999929
0.999919 1 1 0.999919
1 1 1 1
0.99999 1 1 0.99999
0.999942 1 1 0.999942
0.999781 1 1 0.999781
0.999894 1 1 0.999894
0.999844 1 1 0.999844
0.999741 1 1 0.999741
0.99994 1 1 0.99994
0.999917 1 1 0.999917
0.999738 1 1 0.999738
0.999756 1 1 0.999756
0.999808 1 1 0.999808
0.999662 1 1 0.999662
1 1 1 1
0.999724 1 1 0.999724
1 1 1 1
0.999902 1 1 0.999902
0.999757 1 1 0.999757
0.999688 1 1 0.999688
1 1 1 1
0.999931 1 1 0.999931
1 1 1 1
1 1 1 1
0.999982 1 1 0.999982
1 1 1 1
1 1 1 1
0.999996 1 1 0.999996
0.999896 1 1 0.999896
1 1 1 1
1 1 1 1
0.999971 1 1 0.999971
0.999988 1 1 0.999988
0.999827 1 1 0.999827
1 1 1 1
0.999885 1 1 0.999885
0.99991 1 1 0.99991
0.999791 1 1 0.999791
1 1 1 1
1 1 1 1
0.999939 1 1 0.999939
0.999795 1 1 0.999795
0.999861 1 1 0.999861
0.999715 1 1 0.999715
0.999924 1 1 0.999924
0.999781 1 1 0.999781
0.999801 1 1 0.999801
0.999749 1 1 0.999749
1 1 1 1
1 1 1 1
1 1 1 1
1 1 1 1
1 1 1 1
1 1 1 1
1 1 1 1
0.999961 1 1 0.999961
0.999947 1 1 0.999947
1 1 1 1
1 1 1 1
0.999936 1 1 0.999936
0.999954 1 1 0.999954
0.999718 1 1 0.999718
0.999965 1 1 0.999965
0.999751 1 1 0.999751
0.999934 1 1 0.999934
0.999703 1 1 0.999703
0.999735 1 1 0.999735
0.999612 1 1 0.999612
0.99977 1 1 0.99977
0.999648 1 1 0.999648
1 1 1 1
1 1 1 1
0.99991 1 1 0.99991
0.99992 1 1 0.99992
1 1 1 1
0.999999 1 1 0.999999
0.999943 1 1 0.999943
0.999772 1 1 0.999772
0.99985 1 1 0.99985
0.999891 1 1 0.999891
0.999742 1 1 0.999742
0.999939 1 1 0.999939
0.999917 1 1 0.999917
0.999721 1 1 0.999721
0.999762 1 1 0.999762
1 1 1 1
1 1 1 1
0.999909 1 1 0.999909
0.999808 1 1 0.999808
0.999652 1 1 0.999652
0.999755 1 1 0.999755
0.999729 1 1 0.999729
0.999689 1 1 0.999689
1 1 1 1
0.999932 1 1 0.999932
0.999708 1 1 0.999708
0.999746 1 1 0.999746
0.999622 1 1 0.999622
0.999619 1 1 0.999619
0.999704 1 1 0.999704
0.999613 1 1 0.999613
1 1 1 1
0.999677 1 1 0.999677
0.999914 1 1 0.999914
0.999779 1 1 0.999779
0.999703 1 1 0.999703
0.999675 1 1 0.999675
0.999924 1 1 0.999924
0.999947 1 1 0.999947
0.999803 1 1 0.999803
0.999973 1 1 0.999973
1 1 1 1
1 1 1 1
0.999991 1 1 0.999991
0.999828 1 1 0.999828
1 1 1 1
0.99991 1 1 0.99991
0.999885 1 1 0.999885
0.999788 1 1 0.999788
1 1 1 1
1 1 1 1
0.999939 1 1 0.999939
0.999795 1 1 0.999795
0.999862 1 1 0.999862
0.999715 1 1 0.999715
0.999925 1 1 0.999925
0.999784 1 1 0.999784
0.999801 1 1 0.999801
0.999744 1 1 0.999744
1 1 1 1
0.999933 1 1 0.999933
0.999949 1 1 0.999949
0.99982 1 1 0.99982
0.999686 1 1 0.999686
0.999756 1 1 0.999756
0.99966 1 1 0.99966
0.999813 1 1 0.999813
0.999736 1 1 0.999736
0.999734 1 1 0.999734
0.999711 1 1 0.999711
0.999982 1 1 0.999982
1 1 1 1
1 1 1 1
1 1 1 1
1 1 1 1
1 1 1 1
1 1 1 1
1 1 1 1
1 1 1 1
0.999966 1 1 0.999966
0.999956 1 1 0.999956
0.999752 1 1 0.999752
0.999718 1 1 0.999718
0.999937 1 1 0.999937
1 1 1 1
0.999933 1 1 0.999933
0.999703 1 1 0.999703
0.999735 1 1 0.999735
0.999612 1 1 0.999612
0.99977 1 1 0.99977
0.999648 1 1 0.999648
0.9997 1 1 0.9997
0.999598 1 1 0.999598
0.999629 1 1 0.999629
0.999579 1 1 0.999579
0.999666 1 1 0.999666
0.999611 1 1 0.999611
0.999937 1 1 0.999937
0.999917 1 1 0.999917
0.999704 1 1 0.999704
0.999767 1 1 0.999767
1 1 1 1
1 1 1 1
0.999915 1 1 0.999915
0.999809 1 1 0.999809
0.999642 1 1 0.999642
0.999734 1 1 0.999734
0.999753 1 1 0.999753
0.99969 1 1 0.99969
1 1 1 1
0.999932 1 1 0.999932
0.999701 1 1 0.999701
0.999746 1 1 0.999746
0.999619 1 1 0.999619
0.99963 1 1 0.99963
1 1 1 1
0.999914 1 1 0.999914
0.999786 1 1 0.999786
0.999705 1 1 0.999705
0.999611 1 1 0.999611
0.999695 1 1 0.999695
0.999677 1 1 0.999677
0.999674 1 1 0.999674
0.999924 1 1 0.999924
0.9998 1 1 0.9998
0.999947 1 1 0.999947
0.999615 1 1 0.999615
0.99962 1 1 0.99962
0.999568 1 1 0.999568
0.999579 1 1 0.999579
0.999655 1 1 0.999655
0.999614 1 1 0.999614
0.99992 1 1 0.99992
0.999669 1 1 0.999669
0.999809 1 1 0.999809
0.999714 1 1 0.999714
0.999659 1 1 0.999659
0.999691 1 1 0.999691
0.999965 1 1 0.999965
0.999809 1 1 0.999809
0.999794 1 1 0.999794
0.999749 1 1 0.999749
0.999795 1 1 0.999795
1 1 1 1
1 1 1 1
0.999939 1 1 0.999939
0.999863 1 1 0.999863
0.999715 1 1 0.999715
0.999925 1 1 0.999925
0.9998 1 1 0.9998
0.999788 1 1 0.999788
0.99974 1 1 0.99974
1 1 1 1
0.999933 1 1 0.999933
0.999949 1 1 0.999949
0.99982 1 1 0.99982
0.999685 1 1 0.999685
0.999756 1 1 0.999756
0.99966 1 1 0.99966
0.999813 1 1 0.999813
0.999741 1 1 0.999741
0.999733 1 1 0.999733
0.999721 1 1 0.999721
1 1 1 1
0.99996 1 1 0.99996
0.999819 1 1 0.999819
0.999825 1 1 0.999825
0.999748 1 1 0.999748
0.999638 1 1 0.999638
0.999702 1 1 0.999702
0.999639 1 1 0.999639
0.999741 1 1 0.999741
0.999707 1 1 0.999707
0.999667 1 1 0.999667
0.999976 1 1 0.999976
0.999875 1 1 0.999875
0.999987 1 1 0.999987
0.999983 1 1 0.999983
1 1 1 1
1 1 1 1
1 1 1 1
1 1 1 1
1 1 1 1
1 1 1 1
1 1 1 1
1 1 1 1
1 1 1 1
1 1 1 1
1 1 1 1
0.999771 1 1 0.999771
0.999735 1 1 0.999735
0.999648 1 1 0.999648
0.999612 1 1 0.999612
0.999703 1 1 0.999703
0.999933 1 1 0.999933
0.9997 1 1 0.9997
0.999598 1 1 0.999598
0.999629 1 1 0.999629
0.999578 1 1 0.999578
0.999666 1 1 0.999666
0.999611 1 1 0.999611
0.999594 1 1 0.999594
0.99957 1 1 0.99957
0.999591 1 1 0.999591
0.999572 1 1 0.999572
0.999628 1 1 0.999628
0.999625 1 1 0.999625
0.999695 1 1 0.999695
0.999746 1 1 0.999746
0.999616 1 1 0.999616
0.99964 1 1 0.99964
1 1 1 1
0.999914 1 1 0.999914
0.999793 1 1 0.999793
0.999705 1 1 0.999705
0.999608 1 1 0.999608
0.999677 1 1 0.999677
0.999688 1 1 0.999688
0.999673 1 1 0.999673
0.999924 1 1 0.999924
0.999796 1 1 0.999796
0.999947 1 1 0.999947
0.999608 1 1 0.999608
0.99962 1 1 0.99962
0.999563 1 1 0.999563
0.999581 1 1 0.999581
0.999921 1 1 0.999921
0.999809 1 1 0.999809
0.999721 1 1 0.999721
0.999658 1 1 0.999658
0.999618 1 1 0.999618
0.999653 1 1 0.999653
0.99967 1 1 0.99967
0.999695 1 1 0.999695
0.99981 1 1 0.99981
0.999743 1 1 0.999743
0.999964 1 1 0.999964
0.999796 1 1 0.999796
0.99956 1 1 0.99956
0.999563 1 1 0.999563
0.999536 1 1 0.999536
0.999575 1 1 0.999575
0.999657 1 1 0.999657
0.999635 1 1 0.999635
0.999814 1 1 0.999814
0.999701 1 1 0.999701
0.999745 1 1 0.999745
0.999664 1 1 0.999664
0.999632 1 1 0.999632
0.999697 1 1 0.999697
0.999976 1 1 0.999976
0.99981 1 1 0.99981
0.999755 1 1 0.999755
0.999726 1 1 0.999726
0.999719 1 1 0.999719
1 1 1 1
0.999684 1 1 0.999684
0.999949 1 1 0.999949
0.999933 1 1 0.999933
0.999819 1 1 0.999819
0.999757 1 1 0.999757
0.999659 1 1 0.999659
0.999813 1 1 0.999813
0.999731 1 1 0.999731
0.999746 1 1 0.999746
0.999731 1 1 0.999731
1 1 1 1
0.999961 1 1 0.999961
0.999819 1 1 0.999819
0.999825 1 1 0.999825
0.999746 1 1 0.999746
0.999637 1 1 0.999637
0.999702 1 1 0.999702
0.999637 1 1 0.999637
0.999741 1 1 0.999741
0.99971 1 1 0.99971
0.999672 1 1 0.999672
0.99997 1 1 0.99997
0.999834 1 1 0.999834
0.999746 1 1 0.999746
0.999747 1 1 0.999747
0.999716 1 1 0.999716
0.999628 1 1 0.999628
0.999675 1 1 0.999675
0.999656 1 1 0.999656
0.999679 1 1 0.999679
0.999634 1 1 0.999634
0.999978 1 1 0.999978
0.999846 1 1 0.999846
0.999868 1 1 0.999868
0.999795 1 1 0.999795
0.999884 1 1 0.999884
0.99999 1 1 0.99999
0.999988 1 1 0.999988
1 1 1 1
0.999985 1 1 0.999985
1 1 1 1
1 1 1 1
1 1 1 1
1 1 1 1
1 1 1 1
1 1 1 1
1 1 1 1
1 1 1 1
1 1 1 1
1 1 1 1
1 1 1 1
0.999666 1 1 0.999666
0.999629 1 1 0.999629
0.999612 1 1 0.999612
0.999577 1 1 0.999577
0.999598 1 1 0.999598
0.9997 1 1 0.9997
0.999595 1 1 0.999595
0.999568 1 1 0.999568
0.999591 1 1 0.999591
0.99957 1 1 0.99957
0.999627 1 1 0.999627
0.999625 1 1 0.999625
0.999562 1 1 0.999562
0.999564 1 1 0.999564
0.999589 1 1 0.999589
0.999563 1 1 0.999563
0.999632 1 1 0.999632
0.999644 1 1 0.999644
0.999601 1 1 0.999601
0.99962 1 1 0.99962
0.999557 1 1 0.999557
0.999583 1 1 0.999583
0.999921 1 1 0.999921
0.999808 1 1 0.999808
0.999728 1 1 0.999728
0.999661 1 1 0.999661
0.999621 1 1 0.999621
0.99967 1 1 0.99967
0.999646 1 1 0.999646
0.999698 1 1 0.999698
0.999811 1 1 0.999811
0.999736 1 1 0.999736
0.999963 1 1 0.999963
0.999798 1 1 0.999798
0.99956 1 1 0.99956
0.999564 1 1 0.999564
0.999534 1 1 0.999534
0.999576 1 1 0.999576
0.999814 1 1 0.999814
0.999751 1 1 0.999751
0.999663 1 1 0.999663
0.999654 1 1 0.999654
0.999647 1 1 0.999647
0.999629 1 1 0.999629
0.999701 1 1 0.999701
0.999708 1 1 0.999708
0.999755 1 1 0.999755
0.999717 1 1 0.999717
0.999725 1 1 0.999725
0.999965 1 1 0.999965
0.999813 1 1 0.999813
0.999538 1 1 0.999538
0.999524 1 1 0.999524
0.999596 1 1 0.999596
0.999681 1 1 0.999681
0.999763 1 1 0.999763
0.999737 1 1 0.999737
0.999702 1 1 0.999702
0.999602 1 1 0.999602
0.999611 1 1 0.999611
0.999966 1 1 0.999966
0.99985 1 1 0.99985
0.999734 1 1 0.999734
0.999731 1 1 0.999731
0.999674 1 1 0.999674
0.999694 1 1 0.999694
1 1 1 1
0.999961 1 1 0.999961
0.999636 1 1 0.999636
0.999824 1 1 0.999824
0.999819 1 1 0.999819
0.999744 1 1 0.999744
0.999703 1 1 0.999703
0.999635 1 1 0.999635
0.999742 1 1 0.999742
0.999677 1 1 0.999677
0.999713 1 1 0.999713
0.999971 1 1 0.999971
0.999834 1 1 0.999834
0.99975 1 1 0.99975
0.999747 1 1 0.999747
0.999711 1 1 0.999711
0.999627 1 1 0.999627
0.999673 1 1 0.999673
0.999659 1 1 0.999659
0.999675 1 1 0.999675
0.999626 1 1 0.999626
0.999845 1 1 0.999845
0.999739 1 1 0.999739
0.9997 1 1 0.9997
0.999696 1 1 0.999696
0.999685 1 1 0.999685
0.999693 1 1 0.999693
0.999625 1 1 0.999625
0.999642 1 1 0.999642
0.999631 1 1 0.999631
0.999552 1 1 0.999552
0.99998 1 1 0.99998
0.999852 1 1 0.999852
0.999758 1 1 0.999758
0.99986 1 1 0.99986
0.999884 1 1 0.999884
0.999783 1 1 0.999783
0.999724 1 1 0.999724
0.99978 1 1 0.99978
0.999891 1 1 0.999891
0.999992 1 1 0.999992
0.999991 1 1 0.999991
1 1 1 1
0.999989 1 1 0.999989
1 1 1 1
1 1 1 1
1 1 1 1
1 1 1 1
1 1 1 1
1 1 1 1
1 1 1 1
1 1 1 1
1 1 1 1
1 1 1 1
1 1 1 1
0.999626 1 1 0.999626
0.999591 1 1 0.999591
0.999626 1 1 0.999626
0.999568 1 1 0.999568
0.999567 1 1 0.999567
0.999595 1 1 0.999595
0.999561 1 1 0.999561
0.999565 1 1 0.999565
0.999585 1 1 0.999585
0.999556 1 1 0.999556
0.999632 1 1 0.999632
0.999653 1 1 0.999653
0.999563 1 1 0.999563
0.999564 1 1 0.999564
0.999588 1 1 0.999588
0.999693 1 1 0.999693
0.999561 1 1 0.999561
0.999566 1 1 0.999566
0.999531 1 1 0.999531
0.999577 1 1 0.999577
0.999815 1 1 0.999815
0.999756 1 1 0.999756
0.999663 1 1 0.999663
0.999652 1 1 0.999652
0.99966 1 1 0.99966
0.999702 1 1 0.999702
0.999626 1 1 0.999626
0.999719 1 1 0.999719
0.999755 1 1 0.999755
0.999714 1 1 0.999714
0.999723 1 1 0.999723
0.999954 1 1 0.999954
0.999815 1 1 0.999815
0.999536 1 1 0.999536
0.999529 1 1 0.999529
0.9996 1 1 0.9996
0.999763 1 1 0.999763
0.99971 1 1 0.99971
0.999601 1 1 0.999601
0.999676 1 1 0.999676
0.999626 1 1 0.999626
0.999735 1 1 0.999735
0.999966 1 1 0.999966
0.999731 1 1 0.999731
0.999699 1 1 0.999699
0.999676 1 1 0.999676
0.999737 1 1 0.999737
0.999841 1 1 0.999841
0.999529 1 1 0.999529
0.999521 1 1 0.999521
0.999637 1 1 0.999637
0.999732 1 1 0.999732
0.999731 1 1 0.999731
0.999664 1 1 0.999664
0.999634 1 1 0.999634
0.999554 1 1 0.999554
0.999974 1 1 0.999974
0.99987 1 1 0.99987
0.99976 1 1 0.99976
0.999654 1 1 0.999654
0.9997 1 1 0.9997
0.999655 1 1 0.999655
0.999972 1 1 0.999972
0.999834 1 1 0.999834
0.999626 1 1 0.999626
0.999746 1 1 0.999746
0.999755 1 1 0.999755
0.999707 1 1 0.999707
0.999671 1 1 0.999671
0.999661 1 1 0.999661
0.999671 1 1 0.999671
0.999618 1 1 0.999618
0.999845 1 1 0.999845
0.999742 1 1 0.999742
0.999706 1 1 0.999706
0.999701 1 1 0.999701
0.999689 1 1 0.999689
0.999697 1 1 0.999697
0.999628 1 1 0.999628
0.999662 1 1 0.999662
0.999626 1 1 0.999626
0.999544 1 1 0.999544
0.999746 1 1 0.999746
0.999675 1 1 0.999675
0.999656 1 1 0.999656
0.999658 1 1 0.999658
0.9997 1 1 0.9997
0.999697 1 1 0.999697
0.999548 1 1 0.999548
0.999942 1 1.00042 0.999522
0.999857 1 1 0.999857
0.999763 1 1 0.999763
0.999706 1 1 0.999706
0.999884 1 1 0.999884
0.999772 1 1 0.999772
0.999891 1 1 0.999891
0.999716 1 1 0.999716
0.999784 1 1 0.999784
0.999671 1 1 0.999671
0.999713 1 1 0.999713
0.999786 1 1 0.999786
0.999895 1 1 0.999895
0.999993 1 1 0.999993
0.999992 1 1 0.999992
1 1 1 1
0.999991 1 1 0.999991
1 1 1 1
1 1 1 1
1 1 1 1
1 1 1 1
1 1 1 1
1 1 1 1
1 1 1 1
1 1 1 1
1 1 1 1
1 1 1 1
1 1 1 1
0.999632 1 1 0.999632
0.999582 1 1 0.999582
0.999663 1 1 0.999663
0.99955 1 1 0.99955
0.999565 1 1 0.999565
0.99956 1 1 0.99956
0.999561 1 1 0.999561
0.999563 1 1 0.999563
0.999593 1 1 0.999593
0.99969 1 1 0.99969
0.999564 1 1 0.999564
0.999579 1 1 0.999579
0.999644 1 1 0.999644
0.999533 1 1 0.999533
0.999534 1 1 0.999534
0.999605 1 1 0.999605
0.999763 1 1 0.999763
0.999718 1 1 0.999718
0.999599 1 1 0.999599
0.999671 1 1 0.999671
0.999732 1 1 0.999732
0.999641 1 1 0.999641
0.99973 1 1 0.99973
0.999704 1 1 0.999704
0.999677 1 1 0.999677
0.999966 1 1 0.999966
0.999741 1 1 0.999741
0.999832 1 1 0.999832
0.999535 1 1 0.999535
0.999519 1 1 0.999519
0.999629 1 1 0.999629
0.99973 1 1 0.99973
0.999643 1 1 0.999643
0.999559 1 1 0.999559
0.999738 1 1 0.999738
0.999663 1 1 0.999663
0.999982 1 1 0.999982
0.999871 1 1 0.999871
0.9997 1 1 0.9997
0.999657 1 1 0.999657
0.99966 1 1 0.99966
0.999754 1 1 0.999754
0.99955 1 1 0.99955
0.999538 1 1 0.999538
0.999657 1 0.999929 0.999728
0.999747 1 1 0.999747
0.999684 1 1 0.999684
1.00012 1 1.00058 0.999539
0.999581 1 1 0.999581
0.999997 1 1 0.999997
0.999916 1 1 0.999916
0.999875 1 1 0.999875
0.999764 1 1 0.999764
0.999674 1 1 0.999674
0.999611 1 1 0.999611
0.999677 1 1 0.999677
0.999627 1 1 0.999627
0.999845 1 1 0.999845
0.999745 1 1 0.999745
0.999701 1 1 0.999701
0.999705 1 1 0.999705
0.999712 1 1 0.999712
0.999693 1 1 0.999693
0.99963 1 1 0.99963
0.999682 1 1 0.999682
0.99962 1 1 0.99962
0.999537 1 1 0.999537
0.999744 1 1 0.999744
0.999681 1 1 0.999681
0.999662 1 1 0.999662
0.999663 1 1 0.999663
0.999701 1 1 0.999701
0.999692 1 1 0.999692
0.999557 1 1 0.999557
0.999767 1 1.00025 0.999519
0.999692 1 1 0.999692
0.999642 1 1 0.999642
0.999638 1 1 0.999638
0.999604 1 1 0.999604
0.999549 1.00001 0.999825 0.999718
0.99953 1 1 0.99953
1.00021 1 1.00073 0.999474
0.999769 1 1 0.999769
0.999706 1 1 0.999706
0.99966 1 1 0.99966
0.999891 1 1 0.999891
0.999789 1 1 0.999789
0.999708 1 1 0.999708
0.999895 1 1 0.999895
0.999785 1 1 0.999785
0.999665 1 1 0.999665
0.999721 1 1 0.999721
0.999633 1 1 0.999633
0.999658 1 1 0.999658
0.999727 1 1 0.999727
0.999797 1 1 0.999797
0.999895 1 1 0.999895
0.999992 1 1 0.999992
0.999993 1 1 0.999993
1 1 1 1
0.999993 1 1 0.999993
1 1 1 1
1 1 1 1
1 1 1 1
1 1 1 1
1 1 1 1
0.999999 1 1 0.999999
1 1 1 1
1 1 1 1
1 1 1 1
1 1 1 1
1 1 1 1
1 1 1 1
0.999686 1 1 0.999686
0.999598 1 1 0.999598
0.999563 1 1 0.999563
0.999559 1 1 0.999559
0.999569 1 1 0.999569
0.999573 1 1 0.999573
0.999657 1 1 0.999657
0.999582 1 1 0.999582
0.999595 1 1 0.999595
0.999675 1 1 0.999675
0.999541 1 1 0.999541
0.999517 1 1 0.999517
0.999621 1 1 0.999621
0.999729 1 1 0.999729
0.999652 1 1 0.999652
0.999565 1 1 0.999565
0.999743 1 1 0.999743
0.999662 1 1 0.999662
0.9997 1 1 0.9997
0.999659 1 1 0.999659
0.999665 1 1 0.999665
0.99999 1 1 0.99999
0.999871 1 1 0.999871
0.999747 1 1 0.999747
0.999548 1 1 0.999548
0.999995 1 1 0.999995
0.99991 1 1 0.99991
0.99954 1 1 0.99954
0.999711 1 1 0.999711
0.999689 1 1 0.999689
0.999603 1 1.00003 0.99957
0.999766 1 1.00022 0.999543
0.999744 1 1 0.999744
0.999891 1 1 0.999891
0.999763 1 1 0.999763
0.999678 1 1 0.999678
0.999637 1 1 0.999637
0.999602 1 1 0.999602
0.999676 1 1 0.999676
0.999541 1 1 0.999541
0.999619 1 1 0.999619
0.999421 1 0.999601 0.999821
0.999617 1 1 0.999617
0.99965 1 1 0.99965
1.0009 1 1.0014 0.999501
0.999914 1 1 0.999914
0.999904 1 1 0.999904
0.999834 1 1 0.999834
0.999768 1 1 0.999768
0.999695 1 1 0.999695
0.999606 1 1 0.999606
0.999561 1 1 0.999561
0.999637 1 1 0.999637
0.999742 1 1 0.999742
0.999688 1 1 0.999688
0.999703 1 1 0.999703
0.999688 1 1 0.999688
0.999667 1 1 0.999667
0.999668 1 1 0.999668
0.999566 1 1 0.999566
0.999628 1 1.00011 0.999516
0.999692 1 1 0.999692
0.999659 1 1 0.999659
0.999638 1 1 0.999638
0.999646 1 1.00005 0.999594
0.999626 1.00001 0.999899 0.999713
0.999532 1 1 0.999532
1.00013 1 1.00065 0.999472
0.999643 1 1 0.999643
1.00121 1.00208 0.999453 0.999672
0.999606 1 1 0.999606
1.00003 1 1.00052 0.999515
0.999374 1 0.999837 0.999535
1.00068 1 1.00124 0.999437
0.996179 1.00587 0.990897 0.999465
0.999707 1 1 0.999707
0.99966 1 1 0.99966
0.999628 1 1 0.999628
0.999895 1 1 0.999895
0.999785 1 1 0.999785
0.99973 1 1 0.99973
0.999659 1 1 0.999659
0.999895 1 1 0.999895
0.999792 1 1 0.999792
0.999631 1 1 0.999631
0.999727 1 1 0.999727
0.999666 1 1 0.999666
0.999611 1 1 0.999611
0.999676 1 1 0.999676
0.999732 1 1 0.999732
0.999783 1 1 0.999783
0.999879 1 1 0.999879
0.999806 1 1 0.999806
0.999878 1 1 0.999878
0.999992 1 1 0.999992
0.999992 1 1 0.999992
1 1 1 1
0.999992 1 1 0.999992
1 1 1 1
1 1 1 1
1 1 1 1
1 1 1 1
1 1 1 1
1 1 1 1
0.999999 1 1 0.999999
1 1 1 1
1 1 1 1
1 1 1 1
1 1 1 1
1 1 1 1
1 1 1 1
0.99967 1 1 0.99967
0.999567 1 1 0.999567
0.999574 1 1 0.999574
0.999582 1 1 0.999582
0.999601 1 1 0.999601
0.999681 1 1 0.999681
0.999612 1 1 0.999612
0.998138 1.00309 0.995308 0.99975
0.999926 1.00045 0.999705 0.999773
0.999935 1 1 0.999935
0.999546 1 1 0.999546
0.999542 1 1 0.999542
0.999695 1 1 0.999695
0.999693 1 1 0.999693
0.999594 1 1.00003 0.99956
0.999547 1 1 0.999547
0.999741 1 1 0.999741
0.999679 1 1 0.999679
0.999647 1 1 0.999647
0.999592 1 1 0.999592
0.999994 1 1 0.999994
0.999678 1 1 0.999678
0.999907 1 1 0.999907
0.999763 1 1 0.999763
0.999903 1 1 0.999903
0.999534 1 1 0.999534
0.999921 1 1 0.999921
0.999904 1 1 0.999904
0.999821 1 1 0.999821
0.999621 1 1 0.999621
0.999284 1 0.999486 0.999798
0.999653 1 1 0.999653
1.00071 1 1.00122 0.999496
0.99965 1 1.00003 0.999621
0.999777 1 1 0.999777
0.999691 1 1 0.999691
0.999634 1 1 0.999634
0.999604 1 1.00003 0.99957
0.999612 1 1 0.999612
0.999568 1 1.00004 0.999523
0.997154 1 0.997403 0.99975
0.999406 1 0.999716 0.99969
1.00039 1 1.00088 0.999513
1.00058 1 1.00098 0.999595
0.999822 1 1 0.999822
0.999791 1 1 0.999791
0.999752 1 1 0.999752
0.999696 1 1 0.999696
0.999637 1 1 0.999637
0.999564 1 1 0.999564
1.00114 1 1.0016 0.999545
0.999692 1 1 0.999692
0.999638 1 1 0.999638
0.999676 1 1 0.999676
0.999621 1 0.999914 0.999707
0.999533 1 1 0.999533
0.999644 1 1.00006 0.999583
0.999982 1 1.00051 0.999469
0.999647 1 1 0.999647
1.00134 1.00224 0.999426 0.99968
0.999606 1 1 0.999606
0.999927 1 1.00041 0.999514
0.999425 1.00016 0.999718 0.999551
1.00132 1 1.00188 0.999434
0.999388 1.00836 0.991594 0.9995
0.999614 1 1 0.999614
1.00075 1.00233 0.998921 0.999506
0.999574 1 1 0.999574
1.00276 1 1.0033 0.999464
1.00047 1 1.00104 0.999429
0.9619 0.963823 1.00004 0.997965
0.995228 1.00115 0.994668 0.999411
0.985123 1.00896 0.976889 0.999474
0.948096 0.958348 0.989718 0.99958
0.958886 0.983187 0.975481 0.999797
0.999661 1 1 0.999661
0.999629 1 1 0.999629
0.999599 1 1 0.999599
0.999895 1 1 0.999895
0.999786 1 1 0.999786
0.999727 1 1 0.999727
0.999673 1 1 0.999673
0.999629 1 1 0.999629
0.999722 1 1 0.999722
0.999886 1 1 0.999886
0.999789 1 1 0.999789
0.999616 1 1 0.999616
0.999673 1 1 0.999673
0.999681 1 1 0.999681
0.99962 1 1 0.99962
0.999706 1 1 0.999706
0.999781 1 1 0.999781
0.999878 1 1 0.999878
0.999799 1 1 0.999799
0.999729 1 1 0.999729
0.999784 1 1 0.999784
0.999794 1 1 0.999794
0.999888 1 1 0.999888
0.999878 1 1 0.999878
0.999991 1 1 0.999991
0.999991 1 1 0.999991
1 1 1 1
0.999992 1 1 0.999992
1 1 1 1
1 1 1 1
1 1 1 1
1 1 1 1
1 1 1 1
1 1 1 1
1 1 1 1
1 1 1 1
0.999998 1 1 0.999998
1 1 1 1
1 1 1 1
1 1 1 1
1 1 1 1
1 1 1 1
0.999606 1 1 0.999606
0.999582 1 1 0.999582
0.999688 1 1 0.999688
0.997842 1.00276 0.995347 0.999749
0.999608 1 1 0.999608
0.999839 1.00024 0.999863 0.999739
0.999587 1 1.00004 0.999549
0.981031 0.984914 0.99692 0.999135
0.999971 1.00042 0.999727 0.999827
0.99994 1 1 0.99994
0.999935 1 1 0.999935
0.999846 1 1 0.999846
0.999857 1 1 0.999857
0.999526 1 1 0.999526
0.999623 1 1 0.999623
0.999263 1 0.999488 0.999775
0.999656 1 1 0.999656
1.0004 1 1.00091 0.999492
0.999625 1 1 0.999625
0.999631 1 1 0.999631
0.999631 1 1.00005 0.999579
0.999618 1 1 0.999618
0.999904 1 1 0.999904
0.999687 1 1 0.999687
0.999786 1 1 0.999786
0.999929 1 1 0.999929
0.999808 1 1 0.999808
0.99957 1 1.00003 0.999535
0.999835 1 1 0.999835
0.999799 1 1 0.999799
0.999753 1 1 0.999753
0.99815 1.00008 0.998316 0.999751
0.999236 1 0.999544 0.999691
1.00054 1 1.00095 0.999594
1.00041 1 1.0009 0.999515
0.999699 1 1 0.999699
0.99964 1 1 0.99964
1.00053 1 1.00099 0.999545
0.999587 1 1.00003 0.999561
0.999643 1.0001 0.999954 0.999594
0.997969 1.00052 0.997726 0.999723
0.999772 1 1.00029 0.999486
1.00058 1 1.00104 0.999536
0.999728 1 1 0.999728
0.999713 1 1 0.999713
0.999604 1 1 0.999604
1.00156 1 1.00207 0.999492
0.959832 0.963719 0.998058 0.997904
0.999651 1 1 0.999651
0.999607 1 1 0.999607
1.00157 1.00235 0.999535 0.999689
0.99981 1.00033 0.999915 0.999567
1.00202 1 1.00259 0.999431
0.999903 1 1.00039 0.999513
1.00271 1.01069 0.992562 0.999536
0.999616 1 1 0.999616
1.00109 1.00298 0.998611 0.999503
0.999575 1 1 0.999575
1.00238 1 1.00291 0.999467
1.00011 1 1.00067 0.99944
0.962382 0.964303 0.999859 0.998149
0.990599 0.997861 0.993747 0.998969
0.989201 1.01066 0.979266 0.999486
0.952632 0.961003 0.991936 0.999348
0.956507 0.979747 0.976474 0.999801
0.999606 1 1 0.999606
0.960069 0.963969 0.99687 0.999082
0.970235 0.983741 0.98642 0.999849
0.990284 1.00066 0.990155 0.999471
1.00142 1 1.00186 0.999557
1.00821 1 1.00874 0.999469
1.00166 1.01017 0.992142 0.999435
0.973581 0.971675 1.00414 0.997834
0.994515 1.00541 0.990238 0.998912
0.950697 0.963684 0.987003 0.999515
0.990808 1.00663 0.984408 0.999867
0.99963 1 1 0.99963
0.9996 1 1 0.9996
0.999573 1 1 0.999573
0.999893 1 1 0.999893
0.999796 1 1 0.999796
0.999713 1 1 0.999713
0.99967 1 1 0.99967
0.999621 1 1 0.999621
0.999878 1 1 0.999878
0.999679 1 1 0.999679
0.999716 1 1 0.999716
0.999789 1 1 0.999789
0.999612 1 1 0.999612
0.99965 1 1 0.99965
0.999772 1 1.0002 0.999575
0.999711 1 1 0.999711
0.999796 1 1 0.999796
0.999799 1 1 0.999799
0.99972 1 1 0.99972
0.999721 1 1 0.999721
0.999709 1 1 0.999709
0.999671 1 1 0.999671
0.99968 1 1 0.99968
0.999769 1 1 0.999769
0.999784 1 1 0.999784
0.999882 1 1 0.999882
0.999782 1 1 0.999782
0.999882 1 1 0.999882
0.99999 1 1 0.99999
0.999878 1 1 0.999878
0.999991 1 1 0.999991
1 1 1 1
0.999991 1 1 0.999991
1 1 1 1
1 1 1 1
1 1 1 1
1 1 1 1
1 1 1 1
0.999937 1 1 0.999937
1 1 1 1
1 1 1 1
1 1 1 1
1 1 1 1
1 1 1 1
1 1 1 1
1 1 1 1
1 1 1 1
1 1 1 1
0.997658 1.00281 0.995115 0.999748
0.999604 1 1 0.999604
0.999737 1.00003 1 0.999704
0.981278 0.98446 0.997362 0.999405
0.99995 1.00024 0.999883 0.999827
0.999566 1 1.00003 0.999532
1.00124 1.00008 1.00159 0.999567
0.987377 0.986526 1.00163 0.999237
0.964734 0.967083 1.00011 0.997458
0.945623 0.958349 0.987679 0.99903
0.956708 0.976897 0.979516 0.999814
0.999843 1 1 0.999843
0.999939 1 1 0.999939
0.999935 1 1 0.999935
0.999842 1 1 0.999842
0.999784 1 1 0.999784
0.9998 1 1 0.9998
0.999847 1 1 0.999847
0.999852 1 1 0.999852
0.999573 1 1.00003 0.999547
0.99901 1.00013 0.999128 0.999753
0.999019 1 0.999327 0.999692
1.00053 1 1.00094 0.999593
1.00056 1 1.00104 0.999517
0.999992 1 1.00045 0.999546
0.999626 1 1.00007 0.999557
0.999643 1 1 0.999643
0.999807 1 1 0.999807
0.999702 1 1 0.999702
0.999847 1 1 0.999847
0.999754 1 1 0.999754
0.999199 1.00015 0.999465 0.999583
0.999733 1 1 0.999733
0.999716 1 1 0.999716
0.997331 1.00031 0.997298 0.999721
0.999658 1 1.00016 0.999501
1.00102 1 1.0015 0.999521
0.999602 1 1 0.999602
1.00158 1 1.00208 0.999495
0.990919 1.00519 0.986212 0.999582
1.0022 1.00044 1.00224 0.999518
0.999888 1 1.00043 0.999462
1.00456 1 1.0051 0.999462
0.999676 1 1 0.999676
0.999634 1 1 0.999634
1.00007 1 1.00054 0.999522
0.960038 0.966974 0.99339 0.999434
0.963514 0.965575 0.99988 0.997986
0.999619 1 1 0.999619
0.999576 1 1 0.999576
1.00123 1.00379 0.997953 0.999501
0.999715 1 1.00026 0.999451
1.00191 1 1.00244 0.99947
0.962369 0.964993 0.999863 0.997418
0.991686 0.998094 0.994068 0.999509
0.993566 1.0128 0.981502 0.999497
0.948506 0.959948 0.988988 0.999082
0.953771 0.97631 0.977104 0.999806
0.999605 1 1 0.999605
0.957121 0.96569 0.991634 0.999488
0.971658 0.98228 0.989324 0.999862
0.991776 1.00072 0.991594 0.999466
1.00055 1 1.00099 0.99956
1.00744 1 1.00796 0.999481
0.997009 1.0076 0.990065 0.999415
0.974469 0.973153 1.00375 0.99761
0.989874 1.0008 0.989685 0.999393
0.950411 0.963949 0.986906 0.999036
0.985341 1.00496 0.980617 0.99986
0.999579 1 1 0.999579
0.988907 0.990769 0.998213 0.999908
1.01218 1.01404 0.998236 0.999924
1.00758 1 1.00809 0.999494
1.00602 1 1.00639 0.999627
1.00431 1.00361 1.00103 0.999679
0.991055 0.999213 0.992115 0.999718
0.977979 0.975173 1.00517 0.997724
0.964799 0.98164 0.983815 0.999013
1.00395 1.01569 0.988547 0.999891
0.9996 1 1 0.9996
0.99957 1 1 0.99957
0.999978 1 1.00042 0.999557
0.999878 1 1 0.999878
0.999796 1 1 0.999796
0.999726 1 1 0.999726
0.999677 1 1 0.999677
0.999604 1 1 0.999604
0.999796 1 1 0.999796
0.999655 1 1 0.999655
0.999711 1 1 0.999711
0.999814 1 1.00024 0.999569
1.00009 1 1.00055 0.999539
0.999712 1 1.00009 0.999626
0.999716 1 1 0.999716
0.999799 1 1 0.999799
0.99971 1 1 0.99971
0.999721 1 1 0.999721
0.999708 1 1 0.999708
0.99967 1 1 0.99967
0.999691 1 1 0.999691
0.999663 1 1 0.999663
0.999641 1 1 0.999641
0.999647 1 1 0.999647
0.99968 1 1 0.99968
0.999685 1 1 0.999685
0.999681 1 1 0.999681
0.999755 1 1 0.999755
0.999769 1 1 0.999769
0.99987 1 1 0.99987
0.999784 1 1 0.999784
0.999881 1 1 0.999881
0.999987 1 1 0.999987
0.999875 1 1 0.999875
0.999989 1 1 0.999989
1 1 1 1
0.99999 1 1 0.99999
1 1 1 1
1 1 1 1
1 1 1 1
1 1 1 1
1 1 1 1
0.999943 1 1 0.999943
1 1 1 1
0.999937 1 1 0.999937
1 1 1 1
1 1 1 1
1 1 1 1
1 1 1 1
1 1 1 1
1 1 1 1
1 1 1 1
1 1 1 1
0.954229 0.962778 0.991573 0.999543
0.975014 0.985343 0.989622 0.999895
0.982722 0.98512 0.99793 0.999635
0.999866 1.00006 0.999984 0.999826
0.999544 1 1.00003 0.999515
0.986711 0.985026 1.00196 0.999757
1.00048 1.00011 1.0008 0.999578
0.968654 0.96931 1.00136 0.99797
0.950554 0.959753 0.990847 0.999564
0.954983 0.976852 0.977789 0.999819
0.999998 0.995618 1.00465 0.999749
0.973567 0.972805 1.00286 0.99793
0.948986 0.962702 0.986214 0.999532
0.982157 1.00263 0.979732 0.999842
0.999762 1 1 0.999762
0.999849 1 1 0.999849
0.999939 1 1 0.999939
0.999839 1 1 0.999839
0.99979 1 1 0.99979
0.999776 1 1 0.999776
0.999802 1 1 0.999802
0.999816 1 1 0.999816
0.99984 1 1 0.99984
0.999847 1 1 0.999847
0.99866 1.00006 0.999025 0.999573
0.99697 1.00019 0.997063 0.999719
0.999516 1 1 0.999516
1.00137 1 1.00186 0.999506
1.00147 1 1.00198 0.999498
0.999601 1 1 0.999601
0.999718 1 1 0.999718
0.999737 1 1 0.999737
0.99324 1.00403 0.989686 0.999559
0.999672 1 1 0.999672
0.999625 1 1 0.999625
1.0004 1.00027 1.00062 0.999514
1.00028 1 1.00081 0.999467
1.00361 1 1.00416 0.999452
1.00063 1 1.00112 0.999513
0.986083 1.01259 0.974384 0.999429
1.00818 1 1.00873 0.999461
1.0042 1 1.00476 0.999448
0.99967 1 1 0.99967
0.999616 1 1 0.999616
0.999552 1 1 0.999552
0.989535 0.99243 0.99723 0.999853
0.960491 0.966183 0.995077 0.999027
0.961543 0.965399 0.998115 0.997887
0.999604 1 1 0.999604
0.999693 1 1.00013 0.999563
0.99353 1.00072 0.993355 0.999461
1.00682 1 1.00733 0.999493
0.953705 0.963635 0.99066 0.999026
0.972175 0.97207 1.00175 0.998363
0.991468 1.00196 0.990556 0.998959
0.993298 1.00518 0.98877 0.999402
0.951297 0.963528 0.987735 0.999565
0.974522 0.984627 0.989895 0.99984
0.981553 1.00072 0.980999 0.999843
0.999578 1 1 0.999578
0.985716 0.989639 0.996152 0.999883
1.01269 1.0147 0.99809 0.999923
1.00683 1 1.00734 0.999497
1.00633 1 1.0067 0.999628
1.00754 1.00315 1.00504 0.999334
0.989579 0.999301 0.991197 0.999065
0.977126 0.976559 1.00291 0.997679
0.971014 0.983235 0.987961 0.999606
1.00006 1.01357 0.986799 0.999871
0.999656 1 1 0.999656
1.0126 1.01286 0.999791 0.999953
1.01223 1.01446 0.997843 0.999958
1.00755 1 1.00778 0.999778
0.996984 0.994416 1.00269 0.99989
0.985807 0.983025 1.00501 0.997827
0.983102 0.997934 0.985535 0.999596
1.0013 1.01662 0.985073 0.99986
0.999567 1 1 0.999567
0.999921 1 1.00036 0.999566
1.00088 1 1.0013 0.999578
0.999796 1 1 0.999796
0.999711 1 1 0.999711
0.999661 1 1 0.999661
0.999845 1 1.00028 0.999564
0.999715 1 1 0.999715
0.999658 1 1.00003 0.999627
1.00047 1 1.00093 0.999537
1.00042 1 1.00086 0.99956
0.999764 1 1.00021 0.999551
0.999651 1 1 0.999651
0.99972 1 1 0.99972
0.999708 1 1 0.999708
0.999669 1 1 0.999669
0.999665 1 1 0.999665
0.999692 1 1 0.999692
0.999644 1 1 0.999644
0.999631 1 1 0.999631
0.999618 1 1 0.999618
0.999622 1 1 0.999622
0.999647 1 1 0.999647
0.999654 1 1 0.999654
0.999658 1 1 0.999658
0.999726 1 1 0.999726
0.999699 1 1 0.999699
0.999691 1 1 0.999691
0.999743 1 1 0.999743
0.999682 1 1 0.999682
0.999756 1 1 0.999756
0.999856 1 1 0.999856
0.999769 1 1 0.999769
0.99987 1 1 0.99987
0.999984 1 1 0.999984
0.999881 1 1 0.999881
0.999987 1 1 0.999987
1 1 1 1
0.999988 1 1 0.999988
1 1 1 1
1 1 1 1
1 1 1 1
1 1 1 1
1 1 1 1
0.999914 1 1 0.999914
1 1 1 1
0.99993 1 1 0.99993
1 1 1 1
1 1 1 1
0.999937 1 1 0.999937
1 1 1 1
1 1 1 1
1 1 1 1
1 1 1 1
1 1 1 1
1 1 1 1
0.989195 0.991209 0.998052 0.999915
0.956866 0.964086 0.993222 0.999284
1.00997 1.01413 0.995961 0.999934
0.971817 0.981849 0.989896 0.999886
0.983435 0.983685 1.00054 0.999208
0.999822 1.00019 1.00004 0.99959
0.968815 0.969125 1.00118 0.998505
0.948228 0.959919 0.988757 0.999052
0.953733 0.97726 0.976097 0.999825
0.997068 0.997148 1.00037 0.999555
0.973023 0.970836 1.00442 0.997843
0.951312 0.965782 0.985968 0.999036
0.980521 1.00255 0.978176 0.999848
0.996326 1.00424 0.992399 0.999722
0.9749 0.972325 1.00493 0.997732
0.969817 0.985535 0.984458 0.999587
0.999526 1.01658 0.983339 0.999885
0.999716 1 1 0.999716
0.99977 1 1 0.99977
0.999854 1 1 0.999854
0.999796 1 1 0.999796
0.999733 1 1 0.999733
0.999781 1 1 0.999781
0.999804 1 1 0.999804
0.999807 1 1 0.999807
0.999824 1 1 0.999824
0.999832 1 1 0.999832
0.995932 1.00323 0.993186 0.999535
0.998477 1.00006 0.998908 0.999511
1.00072 1 1.00125 0.999472
1.00293 1 1.00349 0.999443
1.00126 1 1.00176 0.999505
0.999617 1 1 0.999617
0.999669 1 1 0.999669
0.999671 1 1 0.999671
0.988206 1.01022 0.978767 0.99943
0.99962 1 1 0.99962
0.999639 1 1.00009 0.999548
1.00767 1 1.00823 0.999453
1.00406 1 1.00462 0.999448
0.988459 1.01062 0.978626 0.999435
1.01744 1 1.01794 0.99951
1.00028 1 1.00078 0.999498
0.999628 1 1 0.999628
0.999558 1 1 0.999558
1.01188 1.01215 0.999768 0.999962
0.990027 0.992163 0.997959 0.999887
0.960871 0.96695 0.994202 0.999509
0.999576 1 1 0.999576
1.00646 1 1.00683 0.999629
1.00569 1 1.00619 0.999499
0.989698 0.991519 0.998252 0.999911
0.976975 0.974544 1.00486 0.997643
0.98838 0.99844 0.990261 0.99966
1.00892 1.002 1.00794 0.998969
0.964804 0.980286 0.985171 0.999021
1.01341 1.01558 0.997949 0.999922
1.00181 1.01361 0.988492 0.999869
0.999665 1 1 0.999665
1.01386 1.01398 0.999921 0.999954
1.01339 1.01588 0.997591 0.999959
1.00782 0.999985 1.00816 0.999682
0.996712 0.99596 1.00107 0.999687
0.987861 0.98509 1.00511 0.997717
1.00373 1.01728 0.986798 0.999881
0.981081 0.994054 0.987584 0.999358
0.999735 1 1 0.999735
1.00564 1.00653 0.999122 0.99999
1.01088 1.01282 0.998109 0.999972
1.00197 1.01542 0.986862 0.999885
1.00678 0.996406 1.01051 0.999905
0.982709 0.982211 1.00252 0.997996
0.977298 0.994913 0.982795 0.999491
0.999842 1 1.00027 0.999574
1.00065 1 1.00109 0.999558
1.00318 1 1.00355 0.99963
0.999715 1 1 0.999715
0.999628 1 1 0.999628
1.00091 1 1.00138 0.999535
0.999654 1 1 0.999654
0.999876 1 1.00033 0.99955
1.00081 1 1.00126 0.999546
0.999931 1 1.00035 0.999576
0.999583 1 1 0.999583
0.999666 1 1 0.999666
0.999692 1 1 0.999692
0.999647 1 1 0.999647
0.999619 1 1 0.999619
0.99963 1 1 0.99963
0.999605 1 1 0.999605
0.99964 1 1 0.99964
0.999759 1 1.00019 0.999567
0.999647 1 1 0.999647
0.999653 1 1 0.999653
0.999597 1 1 0.999597
0.999673 1 1 0.999673
0.99973 1 1 0.99973
0.999659 1 1 0.999659
0.99976 1 1 0.99976
0.999723 1 1 0.999723
0.999717 1 1 0.999717
0.999697 1 1 0.999697
0.999748 1 1 0.999748
0.999844 1 1 0.999844
0.999756 1 1 0.999756
0.999856 1 1 0.999856
0.99998 1 1 0.99998
0.999869 1 1 0.999869
0.999983 1 1 0.999983
1 1 1 1
0.999986 1 1 0.999986
1 1 1 1
1 1 1 1
1 1 1 1
1 1 1 1
1 1 1 1
0.99988 1 1 0.99988
0.999983 1 1 0.999983
0.999914 1 1 0.999914
1 1 1 1
0.999993 1 1 0.999993
0.999918 1 1 0.999918
1 1 1 1
1 1 1 1
1 1 1 1
1 1 1 1
1 1 1 1
1 1 1 1
1.01116 1.01144 0.99976 0.999959
0.985119 0.989614 0.9956 0.999858
0.958858 0.964194 0.99539 0.999072
0.999776 1 1 0.999776
1.01395 1.01545 0.998554 0.999966
1.01187 1.01498 0.996998 0.999934
0.969662 0.981819 0.987775 0.999841
0.994276 0.998237 0.99669 0.99934
0.975703 0.971501 1.00645 0.997886
0.955185 0.96785 0.987345 0.999564
0.979773 1.0004 0.979549 0.999832
0.995049 1.00777 0.988198 0.999165
0.976358 0.973742 1.00491 0.997785
0.967915 0.985025 0.983289 0.999329
0.998254 1.01616 0.982504 0.999868
0.97813 1.00018 0.978848 0.999082
0.979911 0.978105 1.00459 0.997265
0.979424 0.99412 0.986147 0.999057
0.99948 1.01815 0.981811 0.999846
0.999668 1 1 0.999668
0.999711 1 1 0.999711
0.999778 1 1 0.999778
0.99972 1 1 0.99972
0.999742 1 1 0.999742
0.999787 1 1 0.999787
0.99981 1 1 0.99981
0.999831 1 1 0.999831
0.990149 1.00771 0.983138 0.999431
1.00708 1 1.00764 0.999445
0.999672 1 1 0.999672
1.00382 1 1.00438 0.999448
0.999711 1 1.00017 0.999544
0.999625 1 1 0.999625
0.999628 1 1 0.999628
0.989137 1.00979 0.980106 0.999435
0.99956 1 1 0.99956
1.0011 1 1.0016 0.999495
1.01756 1 1.01807 0.999503
0.999623 1 1 0.999623
1.00369 1.00289 1.00118 0.999624
1.0132 1 1.01363 0.999572
0.999547 1 1 0.999547
0.999578 1 1 0.999578
1.00431 1.00448 0.999841 0.999993
1.01099 1.01126 0.999771 0.999963
0.990282 0.991792 0.998555 0.999922
0.999674 1 1 0.999674
1.00831 0.999979 1.00875 0.999587
1.01509 1.01514 0.999995 0.999955
0.984309 0.979364 1.00733 0.997741
1.00061 0.999629 1.00183 0.999157
0.977305 0.992703 0.985353 0.999123
1.01418 1.01689 0.997375 0.99996
1.007 1.01814 0.989156 0.999902
0.999759 1 1.00004 0.999721
1.00525 1.00615 0.999116 0.999991
1.00964 1.01132 0.998364 0.999977
1.00514 0.996071 1.00917 0.999937
1.00032 1.01491 0.985754 0.999868
0.980587 0.985053 0.997297 0.998165
0.975819 0.993287 0.983373 0.999025
1.00634 0.998659 1.00791 0.999786
1.00044 1.0006 0.999848 0.999999
1.01502 1.01576 0.999304 0.999964
0.984396 1.00229 0.982309 0.999838
0.979898 0.992355 0.988371 0.999066
1.00024 0.992867 1.00728 1.00015
0.976119 0.979917 0.998128 0.997992
1.00043 1 1.00089 0.999539
1.0023 1 1.00268 0.999619
1.01221 1 1.01262 0.999594
0.999656 1 1 0.999656
0.999915 1 1.00037 0.99955
1.00107 1 1.00154 0.999531
0.999584 1 1 0.999584
1.00001 1 1.00043 0.999574
1.00294 1 1.00337 0.999567
0.999619 1 1 0.999619
0.99963 1 1 0.99963
0.999779 1 1.00018 0.9996
1.00136 1 1.00183 0.999539
0.999659 1 1 0.999659
0.999691 1 1.00011 0.999578
0.999881 1 1.00036 0.999521
0.999591 1 1 0.999591
0.999653 1 1 0.999653
0.99959 1 1 0.99959
0.999705 1 1 0.999705
0.999727 1 1 0.999727
0.999681 1 1 0.999681
0.999771 1 1 0.999771
0.999729 1 1 0.999729
0.99966 1 1 0.99966
0.999841 1 1 0.999841
0.999757 1 1 0.999757
0.999719 1 1 0.999719
0.999753 1 1 0.999753
0.999845 1 1 0.999845
0.999974 1 1 0.999974
0.999856 1 1 0.999856
0.999978 1 1 0.999978
1 1 1 1
0.999982 1 1 0.999982
1 1 1 1
1 1 1 1
1 1 1 1
1 1 1 1
1 1 1 1
0.999862 1 1 0.999862
0.999973 1 1 0.999973
0.999886 1 1 0.999886
1 1 1 1
0.999982 1 1 0.999982
0.999913 1 1 0.999913
1 1 1 1
1 1 1 1
0.999987 1 1 0.999987
1 1 1 1
1 1 1 1
1 1 1 1
1.00602 1.00624 0.999789 0.99999
1.01097 1.01143 0.99959 0.999959
0.987151 0.990465 0.996798 0.999855
0.999779 1 1 0.999779
0.999758 1 1 0.999758
0.99972 1 1 0.99972
1.00942 1.01218 0.997301 0.999973
1.01479 1.01643 0.998415 0.999966
1.01407 1.01586 0.998311 0.999933
0.99874 1.01157 0.98763 0.999688
0.975962 0.972431 1.00588 0.997759
0.965333 0.982707 0.983261 0.999043
0.999899 1.01723 0.983082 0.999878
0.976481 0.998118 0.978711 0.999604
0.983599 0.979806 1.00604 0.997841
0.981126 0.997771 0.983776 0.999534
1.00152 1.01867 0.983293 0.999873
0.974646 0.993345 0.981427 0.999743
0.979305 0.980337 1.00102 0.997934
0.980367 0.998257 0.982652 0.999417
0.998393 1.01456 0.984171 0.999892
0.999654 1 1 0.999654
0.999669 1 1 0.999669
0.999706 1 1 0.999706
0.999719 1 1 0.999719
0.999751 1 1 0.999751
0.999813 1 1 0.999813
0.989811 1.00883 0.981705 0.999435
1.01743 1 1.01794 0.999497
0.999629 1 1 0.999629
1.0018 1 1.00231 0.999492
0.999562 1 1 0.999562
0.999622 1 1 0.999622
0.999574 1 1 0.999574
1.00059 1.0039 0.99709 0.999616
0.999554 1 1 0.999554
1.0137 1 1.01412 0.99959
0.999582 1 1 0.999582
1.02018 0.998981 1.02147 0.999758
1.00011 1 1.00044 0.99967
0.999543 1 1 0.999543
0.999124 0.999087 1.00004 1
1.00309 1.00328 0.999814 0.999995
1.01009 1.01035 0.999772 0.999965
0.999823 1 1.00011 0.999708
1.00237 0.995452 1.00696 0.999986
1.00485 1.00573 0.999126 0.999991
0.986154 0.988452 0.998756 0.998917
0.98119 0.998725 0.982901 0.999534
1.00876 1.00997 0.998827 0.999982
1.00213 1.01605 0.986422 0.999878
1.00531 0.999347 1.00617 0.999797
1.00003 1.00001 1.00001 1
1.01594 1.01679 0.999206 0.999964
1.0027 0.992702 1.01042 0.999657
0.983246 1.0024 0.981047 0.999844
0.981321 0.995928 0.985779 0.999548
0.975916 0.980243 0.997538 0.998042
1.02133 1 1.02145 0.999883
1.00606 1.00618 0.999891 0.999989
1.01155 1.01456 0.997107 0.99993
0.957149 0.976413 0.980458 0.999809
0.971434 0.983961 0.987678 0.999585
0.988917 0.984868 1.00616 0.997959
0.980477 0.991393 0.989511 0.999473
1.00128 1 1.00167 0.999608
1.01337 1 1.01377 0.999599
1.01955 1 1.01998 0.999581
0.999585 1 1 0.999585
1.00012 1 1.00055 0.999571
1.00237 1 1.00281 0.999569
1.01016 1 1.01067 0.99949
0.999914 1 1.00032 0.999596
1.00165 1 1.00212 0.999528
1.00426 1 1.00481 0.999452
0.999588 1 1 0.999588
1.00026 1 1.00074 0.999519
1.00009 1 1.0006 0.99949
0.999555 1 1 0.999555
0.999667 1 1 0.999667
0.999583 1 1 0.999583
0.999582 1 1 0.999582
0.99974 1 1 0.99974
0.999713 1 1 0.999713
0.999766 1 1 0.999766
0.999733 1 1 0.999733
0.999689 1 1 0.999689
0.999842 1 1 0.999842
0.999771 1 1 0.999771
0.999727 1 1 0.999727
0.999967 1 1 0.999967
0.999841 1 1 0.999841
0.999754 1 1 0.999754
0.999845 1 1 0.999845
0.999973 1 1 0.999973
1 1 1 1
0.999977 1 1 0.999977
1 1 1 1
1 1 1 1
1 1 1 1
1 1 1 1
1 1 1 1
0.99986 1 1 0.99986
0.999983 1 1 0.999983
0.999868 1 1 0.999868
1 1 1 1
0.999982 1 1 0.999982
0.999893 1 1 0.999893
1 1 1 1
1 1 1 1
0.999982 1 1 0.999982
1 1 1 1
1 1 1 1
1 1 1 1
1.00049 1.00053 0.999967 0.999999
1.0058 1.00606 0.999757 0.99999
1.01067 1.01141 0.999312 0.99996
0.999753 1 1 0.999753
0.999719 1 1 0.999719
0.999782 1 1 0.999782
0.999757 1 1 0.999757
0.999712 1 1 0.999712
0.999706 1 1 0.999706
0.999672 1 1 0.999672
1.01106 1.01322 0.997905 0.99996
1.0087 1.011 0.997746 0.999978
1.01548 1.01743 0.998124 0.999966
1.00457 1.01914 0.985803 0.9999
0.980766 1.00326 0.978498 0.999066
0.984811 0.979635 1.00693 0.998368
0.976521 0.994814 0.982596 0.999
0.979388 0.993272 0.986592 0.999422
0.984217 0.984239 1.00209 0.997889
0.978756 0.996433 0.983264 0.998978
0.996571 1.01398 0.982966 0.999858
0.985475 0.988282 0.997312 0.999847
0.97635 0.984519 0.993845 0.997844
0.98453 1.00147 0.983544 0.99953
0.988567 1.00533 0.983449 0.99987
0.999633 1 1 0.999633
0.999652 1 1 0.999652
0.999669 1 1 0.999669
0.999719 1 1 0.999719
0.996645 1.00489 0.992182 0.999608
1.01458 1 1.01497 0.999607
0.999621 1 1 0.999621
0.99957 1 1 0.99957
0.999561 1 1 0.999561
0.999587 1 1 0.999587
0.999538 1 1 0.999538
1.011 0.99702 1.01424 0.999776
1.00014 1 1.00044 0.999697
0.999539 1 1 0.999539
1.02347 0.99334 1.03044 0.999897
1.00347 1 1.00395 0.999525
1.00428 1.00435 0.999941 0.999992
0.998963 0.998904 1.00006 1
1.00191 1.00208 0.999839 0.999997
1.00451 1 1.0047 0.999808
1.00294 0.992001 1.01092 1.00011
0.999575 0.999459 1.00012 1
0.976683 0.979997 0.998654 0.997962
0.97628 0.992954 0.984177 0.999015
1.0167 1.01782 0.998939 0.999964
0.983333 1.00012 0.983386 0.999831
1.02354 0.999567 1.02412 0.999867
1.00582 1.00598 0.999848 0.999989
1.01346 1.0154 0.998158 0.99993
0.984942 0.993769 0.991036 1.00008
0.955496 0.97618 0.978992 0.999816
0.968607 0.982631 0.986397 0.999321
0.990751 0.984162 1.00858 0.99813
1.00794 1 1.00811 0.99984
1.01158 1.01157 1.00006 0.999956
0.976609 0.98551 0.991075 0.999892
0.948128 0.961351 0.986715 0.999524
0.982653 0.977971 1.00702 0.997787
0.979043 0.996292 0.983419 0.999256
1.01472 1 1.01513 0.999603
1.02023 1 1.02066 0.999579
1.02003 1 1.02054 0.999507
1.00187 1 1.0023 0.99957
1.01062 1 1.01112 0.999501
1.00783 1 1.00842 0.999411
1.00212 1 1.0026 0.999517
1.00429 1 1.00485 0.999441
1.00274 1 1.00333 0.999416
1.00073 1 1.00122 0.999516
1.00024 1 1.00076 0.99948
1.00001 1 1.00051 0.999491
0.999561 1 1 0.999561
0.999621 1 1 0.999621
0.999548 1 1 0.999548
0.99972 1 1 0.99972
0.999674 1 1 0.999674
0.999574 1 1 0.999574
0.999762 1 1 0.999762
0.999737 1 1 0.999737
0.999721 1 1 0.999721
0.999836 1 1 0.999836
0.999769 1 1 0.999769
0.999739 1 1 0.999739
0.999961 1 1 0.999961
0.999843 1 1 0.999843
0.999772 1 1 0.999772
1 1 1 1
0.999967 1 1 0.999967
0.999842 1 1 0.999842
0.999972 1 1 0.999972
1 1 1 1
1 1 1 1
1 1 1 1
1 1 1 1
1 1 1 1
0.999756 1 1 0.999756
0.999846 1 1 0.999846
0.999977 1 1 0.999977
0.99986 1 1 0.99986
1 1 1 1
0.999985 1 1 0.999985
0.999874 1 1 0.999874
1 1 1 1
1 1 1 1
0.999991 1 1 0.999991
1 1 1 1
1 1 1 1
1 1 1 1
1.00562 1.00601 0.999625 0.99999
1.00011 0.99997 1.00014 1
1.00562 1.00587 0.999764 0.99999
0.999756 1 1 0.999756
0.999714 1 1 0.999714
0.999713 1 1 0.999713
0.999707 1 1 0.999707
0.999694 1 1 0.999694
0.999756 1 1 0.999756
0.999704 1 1 0.999704
0.999706 1 1 0.999706
0.999672 1 1 0.999672
0.99967 1 1 0.99967
1.01137 1.01213 0.999324 0.999925
1.01195 1.0144 0.997629 0.999961
1.00759 1.00956 0.998066 0.999983
0.997721 1.0139 0.98418 0.999856
0.982562 1.0005 0.98258 0.99948
0.983618 0.992836 0.991553 0.999156
0.97878 0.982742 0.997994 0.997971
0.989595 0.987735 1.0026 0.999286
0.976255 0.981832 0.996398 0.997914
0.981736 0.997615 0.984784 0.999288
0.984907 1.00375 0.981357 0.999865
1.00946 0.985638 1.02484 0.999342
0.982088 0.984213 0.999857 0.997983
0.962718 0.981708 0.981594 0.999044
0.96048 0.982899 0.977368 0.999818
0.999672 1 1 0.999672
0.999636 1 1 0.999636
0.999651 1 1 0.999651
1.00292 0.995329 1.00784 0.999793
1.00013 1 1.00041 0.999724
0.999592 1 1 0.999592
0.999533 1 1 0.999533
0.999577 1 1.00003 0.999544
1.00396 1 1.00444 0.99952
1.02363 0.995055 1.02882 0.999897
1.00389 1 1.00435 0.999538
1.01276 0.999006 1.01406 0.99972
1.01112 1.01117 1 0.999959
1.0031 1.00316 0.999947 0.999995
0.998792 0.998734 1.00006 1
1.02541 0.999123 1.02647 0.999851
0.986559 0.992702 0.99436 0.999449
1.00562 1.00577 0.999865 0.99999
0.98257 0.981797 1.0034 0.997398
0.967211 0.981155 0.986743 0.999032
1.01544 1.01626 0.999262 0.999929
0.954527 0.976703 0.977468 0.999822
1.00814 1 1.0083 0.999845
1.01147 1.01156 0.99996 0.999956
0.972814 0.981796 0.990966 0.999884
0.97514 0.993851 0.981597 0.999568
0.951075 0.964916 0.986608 0.999034
0.985404 0.979548 1.00854 0.997459
0.989292 1.00028 0.989293 0.999717
0.990022 0.991683 0.998414 0.999911
0.945689 0.958543 0.987553 0.999026
0.976038 0.973727 1.00467 0.997712
0.982881 0.999759 0.983547 0.999564
1.02047 1 1.02091 0.999576
1.0214 1 1.02191 0.999507
1.01164 1 1.01222 0.99943
1.01087 1 1.01137 0.999512
1.0074 1 1.00799 0.999416
1.00181 1 1.0024 0.999412
1.00409 1 1.00466 0.999429
1.00207 1 1.00265 0.999419
0.999515 1 1 0.999515
1.0003 1 1.00083 0.99947
0.999777 1 1.00028 0.999497
0.999582 1 1 0.999582
0.999619 1 1 0.999619
0.999598 1 1 0.999598
0.999565 1 1 0.999565
0.99968 1 1 0.99968
0.999611 1 1 0.999611
0.999541 1 1 0.999541
0.999764 1 1 0.999764
0.999727 1 1 0.999727
0.99968 1 1 0.99968
0.999824 1 1 0.999824
0.999762 1 1 0.999762
0.999734 1 1 0.999734
0.999953 1 1 0.999953
0.999836 1 1 0.999836
0.999773 1 1 0.999773
1 1 1 1
0.999961 1 1 0.999961
0.999843 1 1 0.999843
1 1 1 1
1 1 1 1
0.999967 1 1 0.999967
1 1 1 1
1 1 1 1
1 1 1 1
0.999747 1 1 0.999747
0.999834 1 1 0.999834
0.999752 1 1 0.999752
0.999971 1 1 0.999971
0.999846 1 1 0.999846
1 1 1 1
0.999979 1 1 0.999979
0.99986 1 1 0.99986
1 1 1 1
1 1 1 1
0.999987 1 1 0.999987
1 1 1 1
1 1 1 1
1 1 1 1
1.01132 1.01136 1 0.999955
1.00536 1.00575 0.999626 0.999991
0.999692 0.999447 1.00024 1
0.999723 1 1 0.999723
0.999759 1 1 0.999759
0.99971 1 1 0.99971
0.999712 1 1 0.999712
0.999717 1 1 0.999717
0.999694 1 1 0.999694
0.999687 1 1 0.999687
0.999679 1 1 0.999679
0.999707 1 1 0.999707
0.999672 1 1 0.999672
0.99967 1 1 0.99967
0.999661 1 1 0.999661
0.9731 0.984261 0.98881 0.999848
1.01158 1.01249 0.999179 0.999924
1.01326 1.01591 0.997432 0.999961
0.982778 1.00068 0.982265 0.99984
0.979643 0.997121 0.983409 0.999046
0.975173 0.983407 0.993764 0.99785
0.99155 0.984209 1.00756 0.999896
1.01019 0.985306 1.02534 0.999924
0.957468 0.979001 0.978175 0.999826
0.98375 0.985349 1.00075 0.997634
0.96466 0.980836 0.983913 0.999588
1.00274 0.9937 1.00922 0.999883
0.982314 0.979236 1.00517 0.997988
0.946805 0.960465 0.986195 0.999577
1.00014 1 1.00041 0.999735
0.999673 1 1 0.999673
0.999638 1 1 0.999638
1.02386 0.996931 1.02711 0.999898
1.00458 1 1.00506 0.999515
0.999599 1 1.00005 0.999549
1.00418 1 1.00465 0.99954
1.01181 0.999584 1.01251 0.999722
1.0091 1 1.00939 0.999719
0.988748 0.991484 0.997388 0.999851
1.01038 1.01043 0.999997 0.999963
1.00197 1.00198 0.999993 0.999997
1.00824 1 1.00839 0.999852
0.974812 0.995478 0.979452 0.999784
1.01127 1.01155 0.999761 0.999956
0.989567 0.981046 1.01036 0.998342
0.954445 0.967063 0.987389 0.999558
0.969845 0.98155 0.988235 0.999838
0.987295 1.00103 0.986555 0.999718
0.985592 0.990015 0.995678 0.999854
0.950606 0.959576 0.991086 0.999562
0.982835 1.00001 0.983772 0.999043
0.978645 0.975962 1.005 0.997757
0.985491 1.00817 0.977984 0.999508
0.954993 0.963592 0.991526 0.999547
0.973736 0.973214 1.00264 0.997903
0.985465 1.00463 0.981882 0.999025
1.02333 1 1.02383 0.999506
1.01105 1 1.01162 0.999432
1.00253 1 1.00305 0.999474
1.0072 1 1.00778 0.99942
1.00178 1 1.00236 0.999415
0.999601 1 1 0.999601
1.00157 1 1.00214 0.999422
0.999603 1 1.00008 0.999523
0.999685 1 1 0.999685
0.999576 1 1.00007 0.999502
0.999586 1 1 0.999586
0.999695 1 1 0.999695
0.999698 1 1 0.999698
0.999628 1 1 0.999628
0.999627 1 1 0.999627
0.99965 1 1 0.99965
0.999606 1 1 0.999606
0.999568 1 1 0.999568
0.999746 1 1 0.999746
0.99968 1 1 0.99968
0.9996 1 1 0.9996
0.999818 1 1 0.999818
0.999763 1 1 0.999763
0.999734 1 1 0.999734
0.999941 1 1 0.999941
0.999825 1 1 0.999825
0.999762 1 1 0.999762
1 1 1 1
0.999953 1 1 0.999953
0.999836 1 1 0.999836
1 1 1 1
1 1 1 1
0.999961 1 1 0.999961
1 1 1 1
1 1 1 1
1 1 1 1
0.999758 1 1 0.999758
0.999749 1 1 0.999749
0.999823 1 1 0.999823
0.999963 1 1 0.999963
0.999833 1 1 0.999833
0.999749 1 1 0.999749
1 1 1 1
0.999972 1 1 0.999972
0.999845 1 1 0.999845
1 1 1 1
1 1 1 1
0.99998 1 1 0.99998
1 1 1 1
1 1 1 1
1 1 1 1
0.987814 0.989812 0.998069 0.999912
1.01253 1.01258 1 0.999955
1.00506 1.00544 0.999636 0.999991
0.99972 1 1 0.99972
0.999735 1 1 0.999735
0.999702 1 1 0.999702
0.999717 1 1 0.999717
0.999721 1 1 0.999721
0.999694 1 1 0.999694
0.999681 1 1 0.999681
0.999689 1 1 0.999689
0.999667 1 1 0.999667
0.999672 1 1 0.999672
0.99967 1 1 0.99967
0.999662 1 1 0.999662
0.950461 0.95975 0.990732 0.999585
0.972738 0.982842 0.989851 0.999868
1.01198 1.01292 0.999154 0.999923
0.954759 0.975732 0.978668 0.999834
0.960484 0.978941 0.982069 0.99906
0.988586 0.989068 1.00104 0.998472
1.01561 0.985561 1.03118 0.999323
1.00292 0.99345 1.01025 0.999297
0.947828 0.962232 0.985919 0.9991
0.985985 0.982901 1.00492 0.998222
0.998347 0.993284 1.00582 0.999278
0.978475 0.976447 1.00413 0.997958
1.00783 1 1.00819 0.99965
1 1 1.00027 0.999735
0.999674 1 1 0.999674
1.01062 1 1.0109 0.999724
1.00448 1 1.00494 0.999543
1.00889 1 1.00918 0.999717
1.00168 1.00058 1.00146 0.999639
0.958697 0.967408 0.991534 0.999457
0.989408 0.991347 0.998159 0.999884
1.00956 1.00963 0.999969 0.999966
0.984601 1.00122 0.983678 0.999719
0.982141 0.998723 0.983776 0.999614
0.987638 0.990952 0.996804 0.999851
0.97787 0.974536 1.00568 0.997748
0.94802 0.959654 0.988822 0.999044
0.987262 1.00739 0.980479 0.999532
0.957436 0.964891 0.992993 0.999276
0.974608 0.972148 1.00471 0.997826
0.984751 1.00354 0.981707 0.999559
0.99134 1.01242 0.979758 0.99941
0.964971 0.967187 1.00026 0.997452
0.992372 1.00177 0.990916 0.999698
1.01056 1 1.01113 0.999433
1.00239 1 1.00292 0.999467
0.999179 1.0003 0.999258 0.999622
1.00167 1 1.00225 0.999418
0.999508 1 0.999906 0.999602
0.999228 1 0.999403 0.999825
0.999624 1 1.00009 0.999531
0.999686 1 1 0.999686
0.999803 1 1 0.999803
0.999589 1 1 0.999589
0.999695 1 1 0.999695
0.999759 1 1 0.999759
0.999736 1 1 0.999736
0.999706 1 1 0.999706
0.999688 1 1 0.999688
0.999657 1 1 0.999657
0.99963 1 1 0.99963
0.999634 1 1 0.999634
0.999706 1 1 0.999706
0.999658 1 1 0.999658
0.999613 1 1 0.999613
0.999807 1 1 0.999807
0.999745 1 1 0.999745
0.999679 1 1 0.999679
0.999928 1 1 0.999928
0.999819 1 1 0.999819
0.999763 1 1 0.999763
1 1 1 1
0.99994 1 1 0.99994
0.999826 1 1 0.999826
1 1 1 1
1 1 1 1
0.999952 1 1 0.999952
1 1 1 1
1 1 1 1
1 1 1 1
0.999762 1 1 0.999762
0.999752 1 1 0.999752
0.999816 1 1 0.999816
0.999751 1 1 0.999751
0.999823 1 1 0.999823
0.999951 1 1 0.999951
1 1 1 1
0.999963 1 1 0.999963
0.999833 1 1 0.999833
1 1 1 1
1 1 1 1
0.999973 1 1 0.999973
1 1 1 1
1 1 1 1
1 1 1 1
0.960519 0.965239 0.995992 0.999115
0.985999 0.989172 0.996907 0.999885
1.01379 1.01384 1 0.999954
0.999716 1 1 0.999716
0.999702 1 1 0.999702
0.999738 1 1 0.999738
0.99974 1 1 0.99974
0.999709 1 1 0.999709
0.999683 1 1 0.999683
0.999691 1 1 0.999691
0.999668 1 1 0.999668
0.999696 1 1 0.999696
0.999659 1 1 0.999659
0.999883 1 1.00026 0.999626
0.999666 1 1 0.999666
0.999662 1 1 0.999662
0.975226 0.97684 1.00086 0.997486
0.954073 0.962302 0.992094 0.99935
0.973636 0.983786 0.989836 0.999844
0.948405 0.96271 0.985529 0.999607
0.982459 0.978987 1.00619 0.997376
1.00588 0.994259 1.0118 0.999893
0.999298 0.994531 1.00521 0.999581
0.979319 0.97755 1.00379 0.998023
0.9927 0.99912 0.9942 0.999371
1.00632 1.00123 1.0057 0.999392
1.0063 1 1.00666 0.999642
0.999735 1 1 0.999735
1.00775 1 1.00804 0.999716
1.0007 1.00082 1.00017 0.999709
0.96107 0.965271 0.997696 0.997947
0.959955 0.966764 0.993885 0.999066
0.990066 0.991228 0.998909 0.999918
0.98839 1.00691 0.982048 0.999556
0.98885 1.00825 0.981721 0.999023
0.959931 0.964983 0.995697 0.999063
0.976181 0.971796 1.00665 0.997878
0.98893 1.01103 0.978723 0.999406
0.968356 0.968883 1.00149 0.997965
0.990714 1.0042 0.987412 0.999148
0.984277 1.00995 0.975142 0.999425
0.998225 0.993021 1.00549 0.99975
1.00206 1 1.0026 0.99946
0.998336 1.00032 0.998401 0.999616
0.996963 1.00053 0.996675 0.99976
0.999341 1 0.999738 0.999603
0.998971 1 0.999148 0.999823
0.998956 1 0.999088 0.999868
0.999688 1 1 0.999688
0.999797 1 1 0.999797
0.999799 1 1 0.9998
0.999695 1 1 0.999695
0.999755 1 1 0.999755
0.999747 1 1 0.999747
0.999744 1 1 0.999744
0.999711 1 1 0.999711
0.999715 1 1 0.999715
0.999686 1 1 0.999686
0.999679 1 1 0.999679
0.999688 1 1 0.999688
0.999655 1 1 0.999655
0.999631 1 1 0.999631
0.999782 1 1 0.999782
0.999711 1 1 0.999711
0.999666 1 1 0.999666
0.999914 1 1 0.999914
0.999806 1 1 0.999806
0.999744 1 1 0.999744
1 1 1 1
0.999928 1 1 0.999928
0.999819 1 1 0.999819
1 1 1 1
1 1 1 1
0.99994 1 1 0.99994
1 1 1 1
1 1 1 1
1 1 1 1
0.999755 1 1 0.999755
0.999762 1 1 0.999762
0.999804 1 1 0.999804
0.999745 1 1 0.999745
0.999811 1 1 0.999811
0.999938 1 1 0.999938
0.999823 1 1 0.999823
0.999951 1 1 0.999951
1 1 1 1
1 1 1 1
1 1 1 1
0.999964 1 1 0.999964
1 1 1 1
1 1 1 1
1 1 1 1
0.969045 0.970669 1.00031 0.998019
0.959467 0.967293 0.992388 0.999518
0.988257 0.990385 0.997942 0.999909
0.999701 1 1 0.999701
0.99974 1 1 0.99974
0.999711 1 1 0.999711
0.99974 1 1 0.99974
0.999732 1 1 0.999732
0.999722 1 1 0.999722
0.999669 1 1 0.999669
0.999693 1 1 0.999693
0.99966 1 1 0.99966
0.999688 1 1 0.999688
0.99964 1 1 0.99964
0.999552 1 1.00011 0.999438
0.999683 1 1.00006 0.999626
0.999661 1 1 0.999661
0.991125 0.994079 0.997342 0.999685
0.972301 0.973864 1.00044 0.997956
0.950854 0.961266 0.990088 0.999072
0.976864 0.975292 1.00371 0.997909
0.997552 0.9941 1.00358 0.99989
0.993214 0.997064 0.996333 0.999805
0.996923 1.00419 0.993324 0.999438
1.00331 1.00051 1.00337 0.99943
1.00526 1 1.00563 0.999634
0.998493 1.00079 0.997932 0.999776
0.988026 0.986386 1.00245 0.999218
0.965318 0.966874 1.00035 0.99804
0.95944 0.967209 0.992432 0.999532
0.98764 1.00946 0.978969 0.999402
0.995187 1.00773 0.98789 0.999656
0.968915 0.96849 1.00195 0.998495
0.984841 1.00769 0.977885 0.99943
0.993707 0.993978 1.00018 0.999547
0.984446 1.00329 0.981634 0.999579
1.00198 1 1.00249 0.999491
0.997165 1.00022 0.997331 0.999611
0.996447 1.0004 0.99629 0.999761
0.997141 1.00007 0.997308 0.999764
0.99886 1 0.999038 0.999821
0.999077 1 0.999214 0.999863
0.999557 1 0.999799 0.999758
0.999791 1 1 0.999791
0.999794 1 1 0.999794
0.999714 1 1 0.999714
0.99975 1 1 0.99975
0.999749 1 1 0.999749
0.999695 1 1 0.999695
0.999753 1 1 0.999753
0.999716 1 1 0.999716
0.999685 1 1 0.999685
0.999685 1 1 0.999685
0.999678 1 1 0.999678
0.999696 1 1 0.999696
0.999749 1 1 0.999749
0.999693 1 1 0.999693
0.999653 1 1 0.999653
0.999893 1 1 0.999893
0.999782 1 1 0.999782
0.999716 1 1 0.999716
1 1 1 1
0.999913 1 1 0.999913
0.999806 1 1 0.999806
1 1 1 1
1 1 1 1
0.999928 1 1 0.999928
1 1 1 1
1 1 1 1
1 1 1 1
0.999749 1 1 0.999749
0.999759 1 1 0.999759
0.9998 1 1 0.9998
0.999762 1 1 0.999762
0.999804 1 1 0.999804
0.999926 1 1 0.999926
0.999806 1 1 0.999806
0.999938 1 1 0.999938
1 1 1 1
0.999951 1 1 0.999951
1 1 1 1
1 1 1 1
1 1 1 1
1 1 1 1
1 1 1 1
0.984505 0.986272 0.998582 0.999626
0.964769 0.967849 0.998838 0.997978
0.956798 0.965815 0.991591 0.999065
0.999711 1 1 0.999711
0.999713 1 1 0.999713
0.999741 1 1 0.999741
0.999721 1 1 0.999721
0.99973 1 1 0.99973
0.999744 1 1 0.999744
0.999689 1 1 0.999689
0.999661 1 1 0.999661
0.999694 1 1 0.999694
0.999659 1 1 0.999659
0.999539 1 1 0.999539
0.999306 1.00002 1 0.99929
0.999573 1 1.00013 0.999444
0.999625 1 1 0.999625
0.996511 1.00053 0.996516 0.99946
0.991789 0.995444 0.996885 0.999442
0.974004 0.974818 1.00072 0.998449
0.996294 0.998571 0.998428 0.99929
1.00044 1.00433 0.996765 0.999354
1.00178 1 1.00232 0.999468
0.999759 1 1.00002 0.999739
0.988958 0.985341 1.00397 0.999697
0.962725 0.966694 0.997922 0.997969
0.985142 1.00534 0.980463 0.999433
0.990054 0.994537 0.996164 0.999325
0.988233 1.00257 0.986136 0.999559
1.00092 1.00001 1.00136 0.999553
0.999311 1.00029 0.999492 0.999531
0.999491 1 1 0.999491
0.996085 1.00037 0.995951 0.999762
0.998036 1.00013 0.998138 0.999766
0.999651 1 1 0.999651
0.999242 1 0.999384 0.999858
0.999713 1 0.999957 0.999756
0.999646 1 1 0.999646
0.999789 1 1 0.999789
0.999722 1 1 0.999722
0.999639 1 1 0.999639
0.999751 1 1 0.999751
0.999695 1 1 0.999695
0.999662 1 1 0.999662
0.999721 1 1 0.999721
0.999687 1 1 0.999687
0.999684 1 1 0.999684
0.999676 1 1 0.999676
0.999692 1 1 0.999692
0.999739 1 1 0.999739
0.999869 1 1 0.999869
0.999755 1 1 0.999755
0.999698 1 1 0.999698
0.999999 1 1 0.999999
0.999893 1 1 0.999893
0.999782 1 1 0.999782
1 1 1 1
1 1 1 1
0.999913 1 1 0.999913
1 1 1 1
1 1 1 1
1 1 1 1
0.99973 1 1 0.99973
0.99975 1 1 0.99975
0.999796 1 1 0.999796
0.999763 1 1 0.999763
0.999803 1 1 0.999803
0.999915 1 1 0.999915
0.999803 1 1 0.999803
0.999926 1 1 0.999926
1 1 1 1
0.999938 1 1 0.999938
1 1 1 1
1 1 1 1
1 1 1 1
1 1 1 1
1 1 1 1
0.997932 1.00069 0.99753 0.999709
0.98478 0.987573 0.998008 0.999163
0.965866 0.968098 0.999659 0.998035
0.999722 1 1 0.999722
0.999658 1 1 0.999658
0.999714 1 1 0.999714
0.999721 1 1 0.999721
0.999729 1 1 0.999729
0.999739 1 1 0.999739
0.999587 1 1 0.999587
0.9997 1 1 0.9997
0.999678 1 1 0.999678
0.999543 1 1 0.999543
0.999374 1 1 0.999374
0.999647 1.00039 0.999787 0.999466
0.999497 1.0002 1 0.999301
0.999451 1 1 0.999451
0.998461 1.00231 0.996682 0.999477
0.990546 0.994916 0.996435 0.999169
1.00251 1.00438 0.998867 0.99927
0.999737 1 1 0.999737
1.00091 1 1.00116 0.99975
0.987239 0.98512 1.00298 0.999174
0.992467 1.00218 0.990765 0.999539
0.999884 1 1.00027 0.999616
0.999164 1.00044 0.999187 0.999541
0.99952 1 1 0.99952
0.999544 1 1 0.999544
0.999665 1 1 0.999665
0.998918 1.0002 0.998947 0.999768
0.999656 1 1 0.999656
0.999564 1 1 0.999564
0.999754 1 1 0.999754
0.999649 1 1 0.999649
0.999583 1 1 0.999583
0.99973 1 1 0.99973
0.999639 1 1 0.999639
0.999613 1 1 0.999613
0.999695 1 1 0.999695
0.999662 1 1 0.999662
0.999661 1 1 0.999661
0.999689 1 1 0.999689
0.999685 1 1 0.999685
0.999724 1 1 0.999724
0.999688 1 1 0.999688
0.999736 1 1 0.999736
0.999848 1 1 0.999848
0.999994 1 1 0.999994
0.999869 1 1 0.999869
0.999761 1 1 0.999761
1 1 1 1
0.999998 1 1 0.999998
0.999892 1 1 0.999892
1 1 1 1
1 1 1 1
1 1 1 1
0.999687 1 1 0.999687
0.999725 1 1 0.999725
0.99978 1 1 0.99978
0.99975 1 1 0.99975
0.999796 1 1 0.999796
0.999903 1 1 0.999903
0.999806 1 1 0.999806
0.999915 1 1 0.999915
1 1 1 1
0.999926 1 1 0.999926
1 1 1 1
1 1 1 1
1 1 1 1
1 1 1 1
1 1 1 1
0.999462 1 0.999759 0.999703
0.997413 1.00016 0.997531 0.99972
0.984199 0.986214 0.998319 0.999637
0.999627 1 1 0.999627
0.999745 1 1 0.999745
0.999576 1 1 0.999576
0.999654 1 1 0.999654
0.999718 1 1 0.999718
0.99945 1 1 0.99945
0.999733 1 1 0.999733
0.999586 1 1 0.999586
0.99945 1 1 0.99945
0.999546 1 1 0.999546
0.99936 1 1 0.99936
0.999482 1.00014 0.99988 0.999461
0.999359 1.00005 1 0.999312
0.999875 1.00339 0.997001 0.999494
0.999756 1 1 0.999756
0.999732 1 1 0.999732
1.002 1 1.00224 0.999761
0.998994 1.00053 0.998911 0.999552
0.999549 1 1 0.999549
0.999538 1 1 0.999538
0.99967 1 1 0.99967
0.999631 1 1 0.999631
0.999661 1 1 0.999661
0.999569 1 1 0.999569
0.999556 1 1 0.999556
0.999651 1 1 0.999651
0.999581 1 1 0.999581
0.999567 1 1 0.999567
0.999639 1 1 0.999639
0.999612 1 1 0.999612
0.999621 1 1 0.999621
0.999662 1 1 0.999662
0.999661 1 1 0.999661
0.999698 1 1 0.999698
0.999685 1 1 0.999685
0.999724 1 1 0.999724
0.999827 1 1 0.999827
0.999734 1 1 0.999734
0.999848 1 1 0.999848
0.999987 1 1 0.999987
1 1 1 1
0.999992 1 1 0.999992
0.999869 1 1 0.999869
1 1 1 1
0.999996 1 1 0.999996
1 1 1 1
0.999592 1 1 0.999592
0.999646 1 1 0.999646
0.999681 1 1 0.999681
0.999759 1 1 0.999759
0.99972 1 1 0.99972
0.999781 1 1 0.999781
0.999891 1 1 0.999891
0.999796 1 1 0.999796
0.999903 1 1 0.999903
1 1 1 1
0.999915 1 1 0.999915
1 1 1 1
1 1 1 1
1 1 1 1
1 1 1 1
1 1 1 1
0.999644 1 1 0.999644
0.999861 1.00028 0.999885 0.999698
0.997646 1.00038 0.99754 0.99973
0.999504 1 1 0.999504
0.999649 1 1 0.999649
0.999767 1 1 0.999767
0.999586 1 1 0.999586
0.99965 1 1 0.99965
0.99943 1 1 0.99943
0.999439 1 1 0.999439
0.999585 1 1 0.999585
0.999445 1 1 0.999445
0.999345 1 1 0.999345
0.999993 1.00056 0.999982 0.999455
0.999716 1 1 0.999716
0.99975 1 1 0.99975
0.999728 1 1 0.999728
0.999532 1 1 0.999532
0.999675 1 1 0.999675
0.999631 1 1 0.999631
0.999619 1 1 0.999619
0.999574 1 1 0.999574
0.999553 1 1 0.999553
0.99957 1 1 0.99957
0.999578 1 1 0.999578
0.999566 1 1 0.999566
0.999583 1 1 0.999583
0.999611 1 1 0.999611
0.99962 1 1 0.99962
0.999663 1 1 0.999663
0.999661 1 1 0.999661
0.999698 1 1 0.999698
0.999801 1 1 0.999801
0.999725 1 1 0.999725
0.999827 1 1 0.999827
0.99998 1 1 0.99998
0.999848 1 1 0.999848
0.999985 1 1 0.999985
1 1 1 1
1 1 1 1
0.99999 1 1 0.99999
1 1 1 1
0.999522 1 1 0.999522
0.999639 1 1 0.999639
0.999624 1 1 0.999624
0.999724 1 1 0.999724
0.999646 1 1 0.999646
0.999676 1 1 0.999676
0.99976 1 1 0.99976
0.999874 1 1 0.999874
0.999781 1 1 0.999781
0.999891 1 1 0.999891
0.999997 1 1 0.999997
0.999903 1 1 0.999903
1 1 1 1
1 1 1 1
1 1 1 1
1 1 1 1
1 1 1 1
0.999582 1 1 0.999582
0.999644 1 1 0.999644
0.999915 1.00022 1 0.999693
0.999463 1 1 0.999463
0.999504 1 1 0.999504
0.999671 1 1 0.999671
0.999596 1 1 0.999596
0.999431 1 1 0.999431
0.999429 1 1 0.999429
0.999439 1 1 0.999439
0.999666 1 1 0.999666
0.999699 1 1 0.999699
0.999745 1 1 0.999745
0.999614 1 1 0.999614
0.999631 1 1 0.999631
0.999617 1 1 0.999617
0.999603 1 1 0.999603
0.999549 1 1 0.999549
0.99957 1 1 0.99957
0.999578 1 1 0.999578
0.999565 1 1 0.999565
0.999583 1 1 0.999583
0.999632 1 1 0.999632
0.999619 1 1 0.999619
0.999663 1 1 0.999663
0.99977 1 1 0.99977
0.999698 1 1 0.999698
0.999801 1 1 0.999801
0.999973 1 1 0.999973
0.999827 1 1 0.999827
0.999978 1 1 0.999978
1 1 1 1
0.999983 1 1 0.999983
1 1 1 1
1 1 1 1
0.999483 1 1 0.999483
0.999568 1 1 0.999568
0.999535 1 1 0.999535
0.999699 1 1 0.999699
0.999637 1 1 0.999637
0.999656 1 1 0.999656
0.999841 1 1 0.999841
0.999724 1 1 0.999724
0.999646 1 1 0.999646
0.99976 1 1 0.99976
0.999875 1 1 0.999875
0.999992 1 1 0.999992
0.999891 1 1 0.999891
0.999998 1 1 0.999998
1 1 1 1
1 1 1 1
1 1 1 1
1 1 1 1
0.999561 1 1 0.999561
0.999569 1 1 0.999569
0.999644 1 1 0.999644
0.999455 1 1 0.999455
0.999505 1 1 0.999505
0.999432 1 1 0.999432
0.999614 1 1 0.999614
0.999669 1 1 0.999669
0.999682 1 1 0.999682
0.999611 1 1 0.999611
0.999596 1 1 0.999596
0.999615 1 1 0.999615
0.999603 1 1 0.999603
0.999601 1 1 0.999601
0.999571 1 1 0.999571
0.999579 1 1 0.999579
0.99962 1 1 0.99962
0.999583 1 1 0.999583
0.999632 1 1 0.999632
0.999744 1 1 0.999744
0.999663 1 1 0.999663
0.999769 1 1 0.999769
0.999966 1 1 0.999966
0.9998 1 1 0.9998
0.999971 1 1 0.999971
1 1 1 1
0.999976 1 1 0.999976
1 1 1 1
1 1 1 1
0.999557 1 1 0.999557
0.999517 1 1 0.999517
0.999478 1 1 0.999478
0.999641 1 1 0.999641
0.999574 1 1 0.999574
0.999547 1 1 0.999547
0.999801 1 1 0.999801
0.999687 1 1 0.999687
0.999635 1 1 0.999635
0.99998 1 1 0.99998
0.999842 1 1 0.999842
0.999724 1 1 0.999724
0.999875 1 1 0.999875
0.999994 1 1 0.999994
1 1 1 1
0.999999 1 1 0.999999
1 1 1 1
1 1 1 1
0.999556 1 1 0.999556
0.999556 1 1 0.999556
0.999557 1 1 0.999557
0.999447 1 1 0.999447
0.99958 1 1 0.99958
0.999619 1 1 0.999619
0.999672 1 1 0.999672
0.999607 1 1 0.999607
0.999597 1 1 0.999597
0.999609 1 1 0.999609
0.999604 1 1 0.999604
0.999602 1 1 0.999602
0.999624 1 1 0.999624
0.99958 1 1 0.99958
0.99962 1 1 0.99962
0.999731 1 1 0.999731
0.999632 1 1 0.999632
0.999744 1 1 0.999744
0.999961 1 1 0.999961
0.999769 1 1 0.999769
0.999965 1 1 0.999965
1 1 1 1
0.999969 1 1 0.999969
1 1 1 1
1 1 1 1
0.999566 1 1 0.999566
0.999556 1 1 0.999556
0.999557 1 1 0.999557
0.999582 1 1 0.999582
0.999526 1 1 0.999526
0.999474 1 1 0.999474
0.999742 1 1 0.999742
0.99964 1 1 0.99964
0.999581 1 1 0.999581
0.999966 1 1 0.999966
0.999791 1 1 0.999791
0.999674 1 1 0.999674
1 1 1 1
0.999984 1 1 0.999984
0.999843 1 1 0.999843
0.999996 1 1 0.999996
1 1 1 1
1 1 1 1
0.999567 1 1 0.999567
0.999564 1 1 0.999564
0.999552 1 1 0.999552
0.999586 1 1 0.999586
0.999579 1 1 0.999579
0.999623 1 1 0.999623
0.999598 1 1 0.999598
0.999609 1 1 0.999609
0.999646 1 1 0.999646
0.999604 1 1 0.999604
0.999632 1 1 0.999632
0.999716 1 1 0.999716
0.999621 1 1 0.999621
0.999732 1 1 0.999732
0.999956 1 1 0.999956
0.999744 1 1 0.999744
0.999959 1 1 0.999959
1 1 1 1
0.999963 1 1 0.999963
1 1 1 1
1 1 1 1
0.99957 1 1 0.99957
0.999582 1 1 0.999582
0.999565 1 1 0.999565
0.999599 1 1 0.999599
0.99956 1 1 0.99956
0.999556 1 1 0.999556
0.999704 1 1 0.999704
0.999594 1 1 0.999594
0.999536 1 1 0.999536
0.999956 1 1 0.999956
0.999737 1 1 0.999737
0.99964 1 1 0.99964
1 1 1 1
0.999971 1 1 0.999971
0.99978 1 1 0.99978
1 1 1 1
0.999988 1 1 0.999988
1 1 1 1
0.999581 1 1 0.999581
0.999567 1 1 0.999567
0.999573 1 1 0.999573
0.999625 1 1 0.999625
0.999586 1 1 0.999586
0.999577 1 1 0.999577
0.99961 1 1 0.99961
0.999647 1 1 0.999647
0.999716 1 1 0.999716
0.999641 1 1 0.999641
0.999723 1 1 0.999723
0.999951 1 1 0.999951
0.999732 1 1 0.999732
0.999955 1 1 0.999955
1 1 1 1
0.999958 1 1 0.999958
1 1 1 1
1 1 1 1
0.99959 1 1 0.99959
0.999566 1 1 0.999566
0.999615 1 1 0.999615
0.999583 1 1 0.999583
0.999565 1 1 0.999565
0.999711 1 1 0.999711
0.999598 1 1 0.999598
0.999563 1 1 0.999563
0.999949 1 1 0.999949
0.99971 1 1 0.99971
0.999607 1 1 0.999607
1 1 1 1
0.999958 1 1 0.999958
0.999731 1 1 0.999731
1 1 1 1
0.999975 1 1 0.999975
1 1 1 1
0.999623 1 1 0.999623
0.999582 1 1 0.999582
0.999568 1 1 0.999568
0.999703 1 1 0.999703
0.999625 1 1 0.999625
0.999586 1 1 0.999586
0.999647 1 1 0.999647
0.999717 1 1 0.999717
0.999944 1 1 0.999944
0.999729 1 1 0.999729
0.999949 1 1 0.999949
1 1 1 1
0.999954 1 1 0.999954
1 1 1 1
1 1 1 1
0.999619 1 1 0.999619
0.999586 1 1 0.999586
0.999562 1 1 0.999562
0.999717 1 1 0.999717
0.999614 1 1 0.999614
0.999584 1 1 0.999584
0.999948 1 1 0.999948
0.999711 1 1 0.999711
0.999596 1 1 0.999596
1 1 1 1
0.999951 1 1 0.999951
0.999716 1 1 0.999716
1 1 1 1
0.999961 1 1 0.999961
1 1 1 1
0.999715 1 1 0.999715
0.999616 1 1 0.999616
0.999583 1 1 0.999583
0.99994 1 1 0.99994
0.999704 1 1 0.999704
0.999625 1 1 0.999625
0.999718 1 1 0.999718
0.999944 1 1 0.999944
1 1 1 1
0.999948 1 1 0.999948
1 1 1 1
1 1 1 1
0.999718 1 1 0.999718
0.999617 1 1 0.999617
0.999583 1 1 0.999583
0.999948 1 1 0.999948
0.999716 1 1 0.999716
0.999614 1 1 0.999614
1 1 1 1
0.999948 1 1 0.999948
0.99971 1 1 0.99971
1 1 1 1
0.999952 1 1 0.999952
1 1 1 1
0.999938 1 1 0.999938
0.999708 1 1 0.999708
0.999609 1 1 0.999609
1 1 1 1
0.999939 1 1 0.999939
0.999706 1 1 0.999706
0.999943 1 1 0.999943
1 1 1 1
1 1 1 1
0.999943 1 1 0.999943
0.999718 1 1 0.999718
0.999615 1 1 0.999615
1 1 1 1
0.999947 1 1 0.999947
0.999716 1 1 0.999716
1 1 1 1
0.999948 1 1 0.999948
1 1 1 1
0.999997 1 1 0.999997
0.99994 1 1 0.99994
0.999702 1 1 0.999702
1 1 1 1
0.999938 1 1 0.999938
1 1 1 1
0.999999 1 1 0.999999
0.999944 1 1 0.999944
0.999718 1 1 0.999718
1 1 1 1
0.999947 1 1 0.999947
1 1 1 1
1 1 1 1
0.99994 1 1 0.99994
1 1 1 1
0.999999 1 1 0.999999
0.999945 1 1 0.999945
1 1 1 1
1 1 1 1
1 1 1 1

VECTORS lamdaE float
0.998991 0.999672 0.997141
0.999181 0.998682 0.99892
0.998947 0.999723 0.99718
0.998991 1.00009 0.996857
0.99891 0.999972 0.997041
0.999114 0.999213 0.99732
0.999503 1.0004 0.995309
0.999212 0.99859 0.998946
0.998775 0.999966 0.998775
0.998998 0.999076 0.998908
0.999346 0.99826 0.997761
0.999508 1.00001 0.995439
0.999269 0.999963 0.996591
0.998932 1.00009 0.996955
0.998901 0.999773 0.997223
0.998936 1.00015 0.996902
0.999084 0.999221 0.997365
0.998859 1.00004 0.997077
0.999531 1.00038 0.995309
0.999209 0.999987 0.998534
0.999085 1 0.996812
0.998904 1.00011 0.996954
0.999961 1.0002 0.994707
0.999606 1.00041 0.995126
0.999271 0.998653 0.997562
0.999415 1.00027 0.995577
1.00046 1.00105 0.99289
0.999246 0.998489 0.998973
0.998813 1.00001 0.997915
0.999037 0.999181 0.99814
0.999337 0.998158 0.999025
0.999471 1.00005 0.99544
0.998882 1.00031 0.996963
0.998923 0.999854 0.997224
0.999683 1.00044 0.995435
0.999433 0.99776 0.999141
0.999511 1.00019 0.995911
0.999517 0.999705 0.995716
0.999982 1.00141 0.993154
0.999596 0.99734 0.999184
0.999251 1 0.998502
0.998991 1.00006 0.997787
0.999377 0.999989 0.998406
0.999034 0.999985 0.996868
1.00038 0.999962 0.993699
0.998851 1.00018 0.998725
1.00011 1.00009 0.995056
0.998879 1.00023 0.996946
0.998806 1.00012 0.997117
0.999051 0.999219 0.997412
0.99956 1.00036 0.995307
0.999198 0.999968 0.997614
0.999034 1.00003 0.996856
0.99925 0.998618 0.997605
0.998853 1.00018 0.996995
0.99999 1.00018 0.994705
0.999438 1.00025 0.99558
0.999643 1.00038 0.995125
1.0005 1.00106 0.992844
0.999289 0.999995 0.998467
0.999141 0.999962 0.996766
1.00032 0.999963 0.994726
1.00012 1.00003 0.994595
0.999754 1.00035 0.994926
1.00154 1.00024 0.991689
1.00077 1.00071 0.992429
0.999451 0.998099 0.99779
0.999381 0.999944 0.995953
1.00011 1.00132 0.993255
1.00106 1.00103 0.991448
0.998839 0.99984 0.998754
0.999374 0.998064 0.999066
0.999079 0.998979 0.998893
0.999431 1.0001 0.995441
0.998876 1.00014 0.998681
0.998895 0.999618 0.998793
0.999607 1.00055 0.99464
0.999452 0.997803 0.998533
0.999465 1.00031 0.995194
0.999502 0.999653 0.996074
0.999975 1.00142 0.993141
0.999525 0.997557 0.999149
0.999755 0.998568 0.99639
0.999826 1.00041 0.994397
0.999553 1.0005 0.99486
1.00075 1.0008 0.992245
0.999571 0.999231 0.996642
1.00013 1.00124 0.993042
0.999903 1.00144 0.993278
1.00036 1.00165 0.992144
0.999659 0.997118 0.999222
0.999605 0.997312 0.999195
0.998986 1.00009 0.998651
0.999191 1.00001 0.998543
0.999346 0.999993 0.998429
0.999092 1.00001 0.997705
1.00037 0.999962 0.994211
0.998884 1.00014 0.997824
1.00007 1.00006 0.994651
0.999386 0.999987 0.998398
1.00052 0.999919 0.993439
1.00024 1.00001 0.994895
1.00209 0.999816 0.990584
0.999962 1.00022 0.995157
1.00168 1.00011 0.991106
0.999251 0.999934 0.996629
0.998982 1.00006 0.996899
0.999226 0.998569 0.99765
0.998797 1.00027 0.997037
1.00002 1.00015 0.994703
0.999681 1.00033 0.995123
0.999463 1.00025 0.99558
1.00054 1.00108 0.992797
0.999329 0.999994 0.998438
0.999096 0.999953 0.996818
1.00035 0.999939 0.994017
1.00015 1.00002 0.994583
0.999409 0.99806 0.998425
0.99942 0.999923 0.996078
0.999791 1.00032 0.994928
1.00154 1.00023 0.991594
1.00016 1.00135 0.993199
1.00079 1.00073 0.992488
1.00106 1.00103 0.991455
1.00047 0.999964 0.993498
1.00019 0.99994 0.994543
1.00207 0.999768 0.990919
1.00176 0.999948 0.991314
1.00115 1.00046 0.991977
1.00231 1.00008 0.990198
0.999507 0.997711 0.999124
1.00137 1.00065 0.99119
0.999524 0.999508 0.995878
0.999866 1.0014 0.993305
1.00072 1.00151 0.991709
1.00143 1.0009 0.99087
0.99971 0.998779 0.996223
1.00006 1.00049 0.993912
0.998843 1.00006 0.998697
0.998918 0.999455 0.998827
0.999559 1.00062 0.994645
0.999472 0.99775 0.999131
0.999484 0.999647 0.995775
0.999401 1.00041 0.99518
0.99997 1.00142 0.993127
0.999537 0.997534 0.99916
0.999761 0.998532 0.996401
0.99979 1.00038 0.994848
0.999497 1.00048 0.995289
1.00075 1.00079 0.992256
0.999586 0.999198 0.996086
1.00012 1.00123 0.99304
0.999884 1.00147 0.99327
1.00037 1.00164 0.992121
0.99967 0.998878 0.996243
0.999821 0.998275 0.99656
1.00006 1.00045 0.993937
1.00113 1.00051 0.991782
1.00038 1.00107 0.992725
1.00136 1.00084 0.991044
0.999956 1.00112 0.993491
1.00058 1.0013 0.992039
1.00019 1.00203 0.992199
1.00048 1.0019 0.991743
0.999721 0.996896 0.99926
0.999667 0.997086 0.999234
0.999613 0.997283 0.999207
0.999772 0.998479 0.99642
0.999572 0.997488 0.999166
0.9989 1.00012 0.99867
0.999082 1.00004 0.998612
1.00005 1.00005 0.994226
1.00033 0.99995 0.993768
0.999311 0.999995 0.998456
0.99939 0.999991 0.998393
1.00051 0.999924 0.993449
1.00019 0.999994 0.994493
1.00209 0.999821 0.990585
0.999911 1.00023 0.994328
1.00168 1.00012 0.991111
1.00057 0.999924 0.99332
1.00232 0.999719 0.990223
1.00188 0.999942 0.990882
1.00288 0.999616 0.98928
1.00144 1.00029 0.991396
1.00243 0.999904 0.989891
0.999363 0.999992 0.99841
0.99905 0.999936 0.996871
1.00035 0.999928 0.993336
1.00017 1.00001 0.994572
0.999354 0.998013 0.999078
0.999457 0.999918 0.996203
0.99983 1.00027 0.99493
1.00154 1.00022 0.991498
1.00082 1.00076 0.992548
1.00021 1.00138 0.993143
1.00105 1.00103 0.991462
1.00048 0.999957 0.993488
1.00022 0.99993 0.994527
1.00205 0.999767 0.990731
1.00178 0.999986 0.991374
0.999486 0.997739 0.99911
0.999522 0.999515 0.996171
0.999922 1.0014 0.993423
1.00115 1.00046 0.991988
1.00229 1.00004 0.990089
1.00067 1.00152 0.991693
1.00141 1.00065 0.991228
1.00142 1.00089 0.990882
0.999696 0.99883 0.996217
1.00006 1.00047 0.993914
1.00229 0.999699 0.990309
1.00189 0.999819 0.991188
1.00286 0.999607 0.989574
1.00257 0.999685 0.989705
1.00175 1.00036 0.990816
1.00272 0.999716 0.989676
0.999614 0.99912 0.99605
1.0018 1.00038 0.990639
0.999873 1.00129 0.993431
1.00028 1.00173 0.992082
1.00107 1.00164 0.991103
1.00167 1.00064 0.99073
1.00003 1.00083 0.993631
1.00007 1.00006 0.994316
1.00021 1.00158 0.992538
0.999741 1.00045 0.994448
0.999549 0.99751 0.99917
0.999768 0.998498 0.996412
0.999425 1.00061 0.994923
1.00074 1.00077 0.992268
0.999582 0.999164 0.996071
0.999863 1.00149 0.993263
1.00012 1.00123 0.993038
1.00037 1.00162 0.992097
0.99968 0.998836 0.996249
0.999822 0.998251 0.996572
1.00006 1.00046 0.993938
1.00113 1.00051 0.991791
1.00037 1.00106 0.992735
1.00136 1.00085 0.991047
0.999927 1.00117 0.99349
1.00059 1.00131 0.99208
1.00018 1.00203 0.992194
1.00047 1.0019 0.991701
0.999874 0.998009 0.996728
1.00003 1.00074 0.993696
1.00006 1.00012 0.994257
1.00021 1.00151 0.99265
1.0018 1.00047 0.99055
1.0009 1.00116 0.991655
1.0017 1.00079 0.990436
1.00016 1.00191 0.992386
1.00078 1.0014 0.991643
1.00021 1.00259 0.991577
1.00058 1.00191 0.991381
1.00013 0.999133 0.995124
0.999956 0.9976 0.996973
0.999781 0.996692 0.999295
0.999729 0.996867 0.999271
0.999676 0.997055 0.999246
0.999816 0.998188 0.996635
0.999621 0.997262 0.999213
0.999764 0.998519 0.996406
0.999562 0.997511 0.999154
0.999908 1.00022 0.994336
1.00019 0.999969 0.994045
1.00166 1.00013 0.991116
1.00208 0.999827 0.990587
1.0005 0.999928 0.993459
0.999392 0.999994 0.998394
1.00057 0.999929 0.993316
1.00232 0.999717 0.990225
1.00187 0.999954 0.990883
1.00289 0.999622 0.98928
1.00143 1.0003 0.991405
1.00243 0.999901 0.989891
1.0024 0.999669 0.990112
1.00313 0.999532 0.988875
1.00267 0.999708 0.989618
1.00323 0.999324 0.988929
1.00214 1.00017 0.990189
1.00283 0.999536 0.989472
1.00049 0.999951 0.993476
1.00025 0.999931 0.994511
1.00203 0.999755 0.990543
1.00179 1.00002 0.991435
0.999467 0.997768 0.999095
0.999527 0.999523 0.996455
0.999977 1.0014 0.99354
1.00114 1.00048 0.991999
1.00227 0.999994 0.98998
1.00146 1.00066 0.991267
1.00061 1.00153 0.991677
1.00141 1.00089 0.990895
0.999682 0.99888 0.99621
1.00007 1.00045 0.993916
1.00227 0.999694 0.990246
1.0019 0.999827 0.991186
1.00286 0.999582 0.989518
1.00258 0.999737 0.989823
0.999608 0.999164 0.996049
0.999899 1.00127 0.993435
1.00028 1.00173 0.992157
1.00179 1.00038 0.990808
1.0027 0.999651 0.989653
1.00102 1.00165 0.991019
1.00181 1.00038 0.99064
1.00164 1.00062 0.99072
1.00004 1.00079 0.993638
1.00022 1.00156 0.992531
1.00006 1.00007 0.99431
1.00306 0.99956 0.989207
1.00273 0.999599 0.989714
1.00324 0.999419 0.988909
1.00302 0.999356 0.989288
1.00213 0.99999 0.990258
1.00294 0.999166 0.989723
0.999945 1.0011 0.993509
1.002 1.00004 0.990569
1.0002 1.00169 0.992474
1.00046 1.0021 0.991405
1.00125 1.0017 0.990566
1.0018 1.00035 0.990916
1.00009 0.999663 0.994677
1.00023 1.00157 0.992526
1.00019 1.0014 0.992674
1.00022 1.00211 0.992094
1.00113 1.00051 0.991801
0.999822 0.998226 0.996584
0.99969 0.998792 0.996256
1.00005 1.00047 0.993938
1.00036 1.00104 0.992746
1.00135 1.00085 0.991049
0.999899 1.00122 0.993488
1.00017 1.00203 0.992189
1.0006 1.00131 0.992122
1.00046 1.0019 0.991658
0.999871 0.997994 0.996737
1.00002 1.00078 0.993693
1.00007 1.00011 0.994262
1.0002 1.00152 0.992641
1.0018 1.00048 0.990546
1.00088 1.00116 0.991666
1.0017 1.00079 0.990438
1.00013 1.00192 0.99239
1.0008 1.00142 0.991687
1.00023 1.0026 0.991556
1.00056 1.00188 0.991502
0.999918 0.997785 0.99687
1.00008 0.999784 0.994564
1.00021 1.00163 0.992536
1.00019 1.00128 0.992886
1.00019 1.00216 0.992011
1.00217 1.00031 0.989981
1.00114 1.0012 0.991124
1.00183 1.00076 0.990219
1.00014 1.00261 0.991717
1.00088 1.00149 0.991355
1.00031 1.00285 0.990853
1.00012 0.999293 0.994985
1.00016 1.00025 0.993994
1.00014 0.999006 0.995239
1.00013 0.999143 0.995124
0.999978 0.997416 0.997513
0.999948 0.997583 0.997208
0.999865 0.996537 0.998426
0.999788 0.996665 0.999304
0.999737 0.996837 0.999282
0.999861 0.99793 0.996813
0.999672 0.997027 0.99926
0.999817 0.998212 0.996621
0.999616 0.997292 0.999198
0.999757 0.99856 0.996393
0.999552 0.997535 0.999141
1.00143 1.00032 0.991413
1.00187 0.999963 0.990884
1.00243 0.999906 0.989891
1.00289 0.999628 0.98928
1.00232 0.999715 0.990228
1.00058 0.999935 0.993314
1.00241 0.999665 0.990108
1.00313 0.999533 0.988879
1.00267 0.999717 0.98962
1.00325 0.999311 0.988893
1.00215 1.00017 0.990184
1.00283 0.999546 0.989472
1.00322 0.999492 0.988746
1.00343 0.999305 0.988508
1.00308 0.999328 0.989194
1.00344 0.99903 0.988868
1.00252 0.9999 0.989717
1.00305 0.99892 0.989679
1.00226 0.99969 0.990184
1.00191 0.999826 0.991184
1.00287 0.999562 0.989463
1.00258 0.999791 0.98994
0.999603 0.999206 0.996047
0.999925 1.00125 0.99344
1.00029 1.00172 0.992232
1.00183 1.00041 0.9908
1.00269 0.999585 0.98963
1.00181 1.00037 0.990641
1.00097 1.00166 0.990935
1.00161 1.00061 0.990711
1.00006 1.00075 0.993645
1.00023 1.00152 0.992525
1.00006 1.00007 0.994304
1.00307 0.999548 0.989096
1.00274 0.999575 0.989714
1.00324 0.999393 0.988858
1.00304 0.999378 0.989308
0.999969 1.00106 0.993516
1.00022 1.00167 0.992464
1.00044 1.00211 0.991493
1.00216 1.00005 0.990291
1.00293 0.999062 0.989773
1.00119 1.00176 0.990489
1.00201 1.00003 0.990573
1.00177 1.00027 0.99095
1.00024 1.00156 0.992537
1.00023 1.00211 0.992044
1.00008 0.999679 0.994669
1.0002 1.00134 0.992729
1.0034 0.999396 0.988526
1.00319 0.999323 0.989084
1.00343 0.999271 0.988623
1.00326 0.998951 0.989212
1.00239 0.99951 0.990296
1.00317 0.99851 0.989936
1.0002 1.00161 0.992555
1.00209 0.999438 0.990982
1.00023 1.00206 0.991912
1.00062 1.00254 0.990797
1.00135 1.00179 0.990154
1.00192 1.00016 0.990907
1.0001 0.999427 0.994894
1.0002 1.00095 0.993087
1.00026 1.00192 0.992136
1.00016 1.0022 0.992054
1.00026 1.00221 0.991916
0.999868 0.997979 0.996746
1.0018 1.00049 0.990541
1.00007 1.0001 0.994267
1.00001 1.00082 0.993689
1.00019 1.00153 0.992631
1.00087 1.00116 0.991676
1.00169 1.00079 0.990441
1.00011 1.00194 0.992394
1.00024 1.00261 0.991536
1.00081 1.00143 0.99173
1.00053 1.00186 0.991624
0.999915 0.997772 0.996876
1.00008 0.999773 0.99457
1.0002 1.00164 0.992532
1.00019 1.00129 0.992882
1.00019 1.00217 0.991993
1.00218 1.00031 0.989974
1.00114 1.0012 0.991127
1.00183 1.00077 0.990195
1.00013 1.00262 0.991728
1.00089 1.0015 0.991384
1.00037 1.00283 0.990914
1.0001 0.999509 0.994805
1.0002 1.00094 0.99321
1.00022 1.00225 0.991912
1.00017 1.00209 0.992165
1.00017 1.00254 0.991705
1.00234 1.0001 0.98983
1.00127 1.0012 0.990863
1.00172 1.00056 0.990463
1.00011 1.00325 0.99108
1.0008 1.00254 0.990484
1.00012 0.999297 0.994988
1.00018 1.00042 0.993661
1.00016 1.00026 0.993921
1.00014 1.00112 0.993288
1.00014 1.00019 0.994075
1.00015 0.998907 0.995325
1.00014 0.999017 0.995238
1.00001 0.997254 0.997591
1.00013 0.999155 0.995123
0.999983 0.997407 0.997524
0.99992 0.996362 0.998488
0.999943 0.997569 0.997441
0.99985 0.996505 0.99888
0.999796 0.996642 0.999313
0.999902 0.997727 0.996937
0.999865 0.997943 0.996803
0.999731 0.996809 0.999297
0.999668 0.997061 0.999246
0.999818 0.998235 0.996606
0.999611 0.997324 0.999183
1.00215 1.00017 0.990179
1.00267 0.999719 0.989622
1.00284 0.999555 0.989471
1.00327 0.999299 0.988857
1.00314 0.999532 0.988883
1.00241 0.999663 0.990104
1.00322 0.99949 0.988747
1.00345 0.999326 0.988442
1.00308 0.999336 0.989198
1.00345 0.998995 0.988867
1.00253 0.999907 0.989705
1.00306 0.998886 0.989678
1.00355 0.999347 0.988246
1.00359 0.999188 0.988361
1.00331 0.998761 0.989224
1.00354 0.998902 0.988844
1.00274 0.999384 0.989738
1.0033 0.9984 0.989839
1.00308 0.999534 0.988985
1.00274 0.999556 0.989715
1.00324 0.999367 0.988806
1.00305 0.999397 0.989327
0.999993 1.00101 0.993523
1.00025 1.00166 0.992455
1.00042 1.00212 0.991581
1.00218 1.00011 0.990324
1.00292 0.998957 0.989823
1.00202 1.00002 0.990576
1.00113 1.00183 0.990412
1.00174 1.00018 0.990983
1.00025 1.00154 0.992548
1.00024 1.0021 0.991994
1.00007 0.999694 0.994662
1.00021 1.0013 0.992783
1.0034 0.999397 0.988528
1.00319 0.999317 0.9891
1.00341 0.999264 0.988641
1.00326 0.998948 0.989224
1.00021 1.0016 0.992556
1.00023 1.00204 0.991981
1.00061 1.00258 0.990791
1.00241 0.999589 0.990258
1.00305 0.998437 0.990146
1.00134 1.00186 0.990111
1.00208 0.999454 0.990998
1.00187 0.999949 0.991024
1.00027 1.00192 0.992138
1.00026 1.00218 0.991909
1.00016 1.00223 0.992039
1.0001 0.999428 0.994808
1.00021 1.0009 0.993141
1.00359 0.999282 0.988283
1.00351 0.999081 0.988608
1.00345 0.998477 0.989323
1.00269 0.998615 0.990584
1.00023 1.00191 0.992195
1.00234 0.9988 0.991369
1.00015 1.00247 0.991499
1.0008 1.00307 0.989932
1.00161 1.00173 0.989764
1.00011 0.999264 0.994883
1.0002 1.00059 0.993607
1.00015 1.00184 0.992452
1.00028 1.00198 0.992053
1.00017 1.00268 0.991615
1.00031 1.00217 0.991783
0.999911 0.99776 0.996883
1.00009 0.999764 0.994576
1.00218 1.00031 0.989967
1.00018 1.00131 0.992878
1.00019 1.00164 0.992528
1.00018 1.00218 0.991974
1.00113 1.0012 0.991131
1.00182 1.00077 0.990171
1.00011 1.00261 0.991739
1.00043 1.0028 0.990974
1.0009 1.00151 0.991412
1.0001 0.999504 0.99481
1.0002 1.00095 0.993209
1.00021 1.00223 0.991949
1.00016 1.00209 0.992157
1.00015 1.00258 0.991667
1.00233 1.00015 0.989817
1.00129 1.00119 0.990842
1.00177 1.0005 0.990498
1.00009 1.00325 0.991035
1.0008 1.00266 0.990377
1.00019 1.00064 0.99352
1.00019 1.00181 0.992314
1.00018 1.00281 0.991485
1.00016 1.00259 0.991622
1.00022 1.00271 0.991415
1.00262 0.998719 0.990647
1.00135 1.00178 0.990264
1.00185 0.999968 0.990415
1.00034 1.00361 0.990558
1.0007 1.00311 0.989515
1.00012 0.9993 0.99499
1.00018 1.00042 0.99371
1.00018 1.00128 0.992863
1.00017 1.00028 0.993848
1.00014 1.0002 0.994074
1.00015 1.00111 0.993185
1.00013 1.00176 0.992638
1.00013 1.00105 0.993182
1.00013 1.00014 0.994148
1.00016 0.998856 0.995366
1.00015 0.998909 0.995326
1.00005 0.99712 0.997648
1.00014 0.999028 0.995236
1.00002 0.997249 0.997601
0.999962 0.996215 0.99854
0.999988 0.997397 0.997536
0.999914 0.996336 0.998485
0.999833 0.996466 0.999338
0.999942 0.997556 0.997031
0.999907 0.997734 0.996931
0.99979 0.99662 0.999324
0.999869 0.997955 0.996793
0.999725 0.996837 0.999287
0.999663 0.997093 0.999232
1.00253 0.999914 0.989694
1.00308 0.999346 0.989203
1.00308 0.998853 0.989678
1.00346 0.998962 0.988867
1.00348 0.999346 0.988377
1.00323 0.999488 0.988747
1.00357 0.999356 0.988217
1.00357 0.999204 0.988386
1.00334 0.998782 0.989174
1.00354 0.998853 0.988829
1.00274 0.999429 0.989737
1.00324 0.998256 0.989985
1.00372 0.999261 0.98802
1.0036 0.999032 0.988512
1.00351 0.998442 0.98924
1.00308 0.998331 0.990244
1.0034 0.999398 0.988529
1.00319 0.99931 0.989116
1.00338 0.999255 0.988659
1.00327 0.998947 0.989236
1.00023 1.00158 0.992557
1.00023 1.00201 0.99205
1.00059 1.00262 0.990786
1.00243 0.999668 0.990221
1.00294 0.998366 0.990355
1.00207 0.99947 0.991014
1.00132 1.00193 0.990069
1.00182 0.999758 0.99114
1.00028 1.00191 0.99214
1.00027 1.00215 0.991902
1.00015 1.00226 0.992024
1.00009 0.99943 0.994721
1.00023 1.00085 0.993195
1.00355 0.999263 0.988338
1.0035 0.999105 0.988634
1.00341 0.998504 0.989407
1.00026 1.0019 0.992187
1.00022 1.00244 0.991586
1.00076 1.00314 0.989917
1.00273 0.998678 0.990498
1.00157 1.00158 0.989954
1.00226 0.998791 0.991332
1.00011 0.999241 0.994903
1.00028 1.00199 0.992047
1.0003 1.00212 0.991841
1.00017 1.0027 0.991587
1.00015 1.00183 0.992486
1.00021 1.00059 0.993537
1.00363 0.999219 0.988314
1.00371 0.998852 0.988459
1.00335 0.998164 0.989698
1.00307 0.997381 0.991178
1.00024 1.00211 0.991986
1.00211 1.00023 0.990228
1.00027 1.00323 0.990654
1.00096 1.00356 0.989247
1.00011 0.999111 0.995028
1.00019 1.00034 0.993903
1.00017 1.00151 0.992814
1.00013 1.00264 0.991677
1.0003 1.00211 0.991876
1.00026 1.00256 0.991495
1.0001 0.999495 0.994815
1.0002 1.00095 0.993209
1.00233 1.00019 0.989804
1.00016 1.0021 0.99215
1.00019 1.00222 0.991987
1.00014 1.00261 0.991628
1.00131 1.00118 0.990821
1.00183 1.00043 0.990533
1.00007 1.00326 0.99099
1.0008 1.00278 0.990271
1.00019 1.00064 0.993523
1.00019 1.00183 0.992335
1.00016 1.00278 0.991544
1.00015 1.00262 0.991645
1.00018 1.00274 0.991456
1.0027 0.998743 0.990623
1.00139 1.00167 0.990293
1.00182 1.00002 0.990676
1.00028 1.00362 0.990499
1.00079 1.00334 0.989385
1.0002 1.00149 0.992636
1.00017 1.00251 0.991651
1.00018 1.00325 0.991029
1.00016 1.00295 0.991147
1.00367 0.997459 0.990296
1.00274 0.997943 0.990974
1.00144 1.00231 0.989415
1.00031 1.00432 0.989352
1.00018 1.00042 0.993759
1.00017 1.0013 0.992904
1.00016 1.00194 0.99233
1.00014 1.00021 0.994073
1.00016 1.0011 0.993082
1.00013 1.00014 0.994148
1.00014 1.00177 0.992554
1.00013 1.00104 0.993222
1.00014 1.00226 0.992086
1.00012 1.00166 0.992591
1.00011 1.00101 0.993253
1.00014 1.00008 0.994206
1.00015 0.998847 0.995377
1.00016 0.998849 0.995368
1.00007 0.997054 0.997659
1.00015 0.998908 0.995327
1.00005 0.997127 0.997652
0.999999 0.996102 0.998571
1.00002 0.997244 0.997612
0.999958 0.996188 0.998537
0.999907 0.996312 0.99848
0.999982 0.997388 0.997121
0.999946 0.997562 0.997027
0.999845 0.996448 0.999346
0.999912 0.997742 0.996925
0.999783 0.996643 0.999316
0.999718 0.996866 0.999276
1.00274 0.999474 0.989736
1.00338 0.998802 0.989124
1.00318 0.998112 0.990132
1.00353 0.998799 0.988814
1.00356 0.999217 0.988411
1.00358 0.999368 0.988188
1.00368 0.999265 0.988106
1.00358 0.999037 0.988513
1.00349 0.998436 0.989271
1.0031 0.998243 0.990212
1.00365 0.999193 0.988241
1.00364 0.998637 0.988888
1.00351 0.998037 0.989619
1.00352 0.999244 0.988392
1.00349 0.999129 0.98866
1.00338 0.998528 0.989492
1.00028 1.0019 0.992178
1.00029 1.00241 0.991672
1.00072 1.00322 0.989901
1.00276 0.998739 0.990413
1.00218 0.998782 0.991294
1.00154 1.00142 0.990146
1.00029 1.002 0.99204
1.00028 1.00208 0.991899
1.00017 1.00272 0.991559
1.00011 0.999217 0.994922
1.00016 1.00182 0.99252
1.00021 1.00057 0.993467
1.00362 0.999215 0.988287
1.00372 0.998836 0.988452
1.00341 0.998217 0.989587
1.00026 1.00212 0.991968
1.00024 1.00316 0.990812
1.00098 1.00354 0.989264
1.00301 0.997472 0.991231
1.00213 1.00011 0.99022
1.00012 0.999097 0.995116
1.00018 1.00034 0.993907
1.00027 1.00211 0.99187
1.00027 1.00252 0.991536
1.00013 1.00261 0.991701
1.00017 1.00153 0.99275
1.00366 0.999072 0.988342
1.0038 0.998567 0.988545
1.00358 0.996777 0.990667
1.00307 0.997667 0.99127
1.00012 1.00261 0.991624
1.00131 1.00337 0.988674
1.00045 1.00386 0.990032
1.00013 0.99895 0.995315
1.00014 0.999945 0.994334
1.00016 1.00021 0.993916
1.00015 1.0013 0.992993
1.00012 1.00227 0.992039
1.00011 1.00319 0.991144
1.00033 1.00192 0.991844
1.00022 1.00313 0.991448
1.0002 1.00063 0.993525
1.00018 1.00184 0.992355
1.00278 0.998764 0.990599
1.00014 1.00264 0.991667
1.00015 1.00275 0.991603
1.00013 1.00277 0.991496
1.00144 1.00155 0.990322
1.00181 1.00006 0.990936
1.00022 1.00363 0.990441
1.00088 1.00356 0.989255
1.00019 1.00152 0.992594
1.00017 1.0025 0.991695
1.00016 1.00321 0.991086
1.00019 1.00297 0.991196
1.00365 0.997377 0.990221
1.00267 0.998209 0.990946
1.0015 1.00222 0.989546
1.0004 1.00429 0.989281
1.00016 1.0022 0.992068
1.00388 0.997645 0.98933
1.00016 1.0031 0.991238
1.00021 1.00368 0.990495
1.00398 0.99624 0.990621
1.00231 1.00058 0.989324
1.00084 1.00437 0.988828
1.00017 1.00131 0.992944
1.00016 1.00194 0.992331
1.00014 1.00248 0.991829
1.00013 1.00014 0.994149
1.00012 1.00104 0.993262
1.00015 1.00177 0.99247
1.00014 1.00006 0.99421
1.00011 1.00102 0.993243
1.00015 1.00227 0.99202
1.00011 1.00167 0.99267
1.00019 1.00254 0.991692
1.00015 1.00216 0.992063
1.00011 1.0016 0.992781
1.0001 1.00091 0.993452
1.00015 1.00002 0.994236
1.00015 0.998851 0.995382
1.00015 0.998844 0.995377
1.00009 0.997043 0.997645
1.00016 0.998843 0.99537
1.00007 0.997074 0.997658
1.00003 0.99605 0.998567
1.00005 0.997134 0.997657
0.999997 0.996072 0.998571
0.999954 0.996162 0.998533
1.00014 0.998807 0.995435
1.00002 0.997229 0.997207
0.999985 0.997398 0.997118
0.999895 0.996289 0.999369
0.99995 0.997569 0.997023
0.999839 0.996472 0.99934
0.999776 0.996666 0.999308
1.00312 0.998159 0.990179
1.00348 0.998428 0.989302
1.00358 0.999043 0.988514
1.00364 0.999271 0.988192
1.00365 0.999197 0.988247
1.00365 0.998645 0.988838
1.00348 0.998019 0.989685
1.0036 0.998965 0.988587
1.00373 0.998306 0.989077
1.00377 0.997859 0.988815
1.00362 0.99921 0.98826
1.00373 0.998829 0.988445
1.00347 0.998267 0.989476
1.00028 1.00212 0.991949
1.00022 1.00308 0.990969
1.00099 1.00348 0.989281
1.00294 0.997561 0.991283
1.00215 0.999992 0.990211
1.00024 1.00211 0.991863
1.00027 1.00248 0.991577
1.00013 1.00259 0.991725
1.00012 0.99908 0.995205
1.00018 1.00034 0.993911
1.00017 1.00156 0.992686
1.00365 0.999041 0.988399
1.00013 0.998946 0.995313
1.00013 0.999944 0.994284
1.00384 0.998548 0.98854
1.00352 0.996982 0.990491
1.0001 1.00256 0.991707
1.00045 1.004 0.989833
1.0013 1.00322 0.988737
1.00297 0.997619 0.991248
1.00015 1.00022 0.994058
1.00015 1.00129 0.992993
1.00038 1.00199 0.991792
1.00016 1.00276 0.991648
1.00008 1.00328 0.991054
1.00013 1.00225 0.992046
1.00365 0.998613 0.988814
1.00389 0.998144 0.988929
1.00393 0.9953 0.991679
1.00219 1.00057 0.989602
1.00019 1.00286 0.991393
1.00073 1.00473 0.988676
1.00012 0.999849 0.994344
1.00014 1.00008 0.994189
1.00008 1.00087 0.993661
1.00013 1.00117 0.993063
1.00012 1.00204 0.992362
1.00005 1.00289 0.991457
0.999991 1.004 0.99069
1.00008 1.00264 0.991719
1.00019 1.00156 0.992552
1.00017 1.00249 0.991738
1.00362 0.997309 0.990146
1.0026 0.998488 0.990918
1.00023 1.00299 0.991244
1.00015 1.00318 0.991143
1.00157 1.00216 0.989678
1.00049 1.00428 0.989211
1.00015 1.00221 0.992065
1.00386 0.997607 0.989286
1.00014 1.00305 0.991253
1.00023 1.00364 0.990393
1.00386 0.996284 0.99051
1.00243 1.00053 0.989367
1.00078 1.00444 0.988846
1.00012 1.00288 0.991489
1.00469 0.996204 0.989417
1.00034 1.00324 0.990882
1.00046 1.00435 0.989675
1.00369 0.997287 0.989605
1.00121 1.00338 0.988607
1.00238 1.00076 0.989927
1.00015 1.00195 0.992331
1.00013 1.00249 0.991829
1.00021 1.00271 0.991505
1.00014 1.00005 0.994213
1.00011 1.00103 0.993234
1.00011 1.00169 0.992749
1.00016 1.00228 0.991953
1.00015 1.00002 0.994236
1.0001 1.00091 0.993395
1.00019 1.00253 0.991665
1.00011 1.0016 0.992777
1.00014 1.00217 0.992133
1.00025 1.00245 0.99163
1.00009 1.00198 0.992438
1.00012 1.00148 0.992908
1.00012 1.00083 0.993396
1.00016 1 0.994132
1.00011 1.00079 0.993652
1.00015 0.999986 0.994166
1.00014 0.998851 0.995387
1.00015 0.99885 0.995382
1.0001 0.99706 0.99722
1.00015 0.998841 0.995378
1.00009 0.997062 0.997434
1.00002 0.995993 0.999389
1.00007 0.997091 0.997656
1.00003 0.996015 0.998569
0.999995 0.996043 0.99857
1.00015 0.998695 0.995532
1.00015 0.998803 0.995433
1.00005 0.997093 0.997281
1.00002 0.997237 0.997411
0.999939 0.996152 0.999388
0.999987 0.997409 0.997114
0.999889 0.996312 0.999362
0.999832 0.996493 0.999333
1.00344 0.997997 0.989751
1.00365 0.998658 0.988789
1.00364 0.999203 0.988252
1.0036 0.998949 0.988583
1.00364 0.998321 0.989132
1.00392 0.998007 0.988704
1.00359 0.998422 0.989135
1.00346 0.997771 0.989968
1.00435 0.997375 0.988569
1.00013 0.999787 0.994516
1.00363 0.999005 0.988455
1.00387 0.99853 0.988535
1.00347 0.99719 0.990314
1.00009 1.00252 0.99179
1.00045 1.0042 0.989634
1.00129 1.00301 0.9888
1.00287 0.997603 0.991225
1.00042 1.00205 0.99174
1.00011 1.00242 0.991848
1.00006 1.00337 0.990963
1.00014 0.998945 0.995311
1.00015 1.00223 0.992053
1.00015 1.00022 0.994199
1.00015 1.00129 0.992993
1.00012 0.999941 0.994234
1.00368 0.998586 0.988807
1.00013 0.999842 0.994402
1.00014 1.00009 0.994185
1.00008 1.00086 0.99355
1.00394 0.997919 0.988972
1.00376 0.995661 0.991448
1.00023 1.00263 0.991448
1.00056 1.00485 0.988578
1.00217 1.00057 0.989657
1.00012 1.00116 0.993143
1.00012 1.00205 0.992323
1.00008 1.00272 0.991603
0.999986 1.00389 0.990777
1.00006 1.00288 0.991521
1.0038 0.998236 0.988768
1.00431 0.996786 0.989566
1.00365 0.997482 0.990111
1.00118 1.00353 0.988823
1.00009 1.00365 0.99072
1.00007 1.00075 0.993555
1.0001 1.00102 0.993282
1.00008 1.00155 0.992949
1.00008 1.00192 0.992509
1.00009 1.00255 0.991873
0.999963 1.00351 0.991136
0.999837 1.00433 0.990514
1.00014 1.00221 0.992062
1.00012 1.00301 0.991269
1.00386 0.997541 0.989242
1.00374 0.996318 0.990399
1.00255 1.00046 0.989409
1.00024 1.00363 0.99029
1.00071 1.00449 0.988863
1.00011 1.00285 0.991546
1.00464 0.996015 0.989388
1.00027 1.00322 0.99092
1.0003 1.00443 0.989676
1.00377 0.997122 0.9898
1.00122 1.00354 0.988588
1.00245 1.00032 0.989684
1.0002 1.00304 0.991198
1.00481 0.995249 0.990228
1.00019 1.00361 0.990742
1.0001 1.0049 0.989413
1.0018 1.00142 0.988824
0.998504 0.997429 0.970977
0.998447 1.00205 0.983403
1.00205 1.00001 0.991262
0.995534 0.997131 0.975295
0.996361 0.994786 0.977229
1.00012 1.0025 0.991829
1.00019 1.00272 0.991529
1.00031 1.00255 0.991448
1.00015 1.00001 0.994236
1.00011 1.00092 0.993338
1.00011 1.0016 0.992772
1.00012 1.00218 0.992202
1.0002 1.00253 0.991638
1.00012 1.00149 0.992841
1.00016 1.00001 0.994181
1.00012 1.00083 0.993451
1.00022 1.00246 0.991663
1.00011 1.00197 0.992414
1.00009 1.00188 0.99251
1.00018 1.00225 0.992007
1.00015 1.0014 0.99277
1.00014 1.00077 0.993432
1.00015 0.99998 0.994152
1.00013 1.00074 0.993582
1.00013 1.00138 0.993014
1.0001 1.00088 0.993475
1.00011 1.0008 0.993557
1.00015 1 0.99426
1.00015 0.999987 0.994165
1.00015 0.998855 0.995382
1.00014 0.998849 0.995388
1.0001 0.997084 0.99722
1.00015 0.99885 0.995382
1.0001 0.997061 0.997221
1.00002 0.995981 0.999388
1.0001 0.997082 0.997224
1.00003 0.995991 0.998972
1.00003 0.995982 0.998571
1.00016 0.998619 0.995595
1.00015 0.998689 0.995532
1.00008 0.996985 0.997345
1.00015 0.998799 0.995432
1.00005 0.997089 0.997484
0.999975 0.996038 0.999406
1.00002 0.997255 0.997192
0.999932 0.996191 0.99938
0.999883 0.996337 0.999355
1.00354 0.998335 0.989187
1.00361 0.998932 0.98858
1.00403 0.998176 0.988593
1.00335 0.997692 0.990136
1.00364 0.99839 0.989003
1.0042 0.997661 0.988551
1.00415 0.998561 0.987799
0.999001 0.998218 0.983798
1.00377 0.997556 0.990131
1.00012 0.999771 0.994541
1.00013 0.999784 0.994516
1.00006 1.00065 0.99379
1.00006 1.00062 0.993825
1.0037 0.998556 0.988801
1.00398 0.997745 0.989014
1.0036 0.995996 0.991216
1.00026 1.00241 0.991503
1.00038 1.00502 0.98848
1.00214 1.00056 0.989713
1.00008 1.00281 0.991487
0.999983 1.00377 0.990865
1.00008 1.00287 0.991586
1.00013 1.0001 0.994181
1.00012 1.00206 0.992284
1.00012 1.00114 0.993222
1.00013 0.999835 0.99446
1.00008 1.00085 0.993439
1.00378 0.998249 0.988875
1.00007 1.00075 0.993669
1.00009 1.001 0.993347
1.00008 1.00149 0.992928
1.00427 0.996553 0.989624
1.00348 0.997449 0.990099
1.00014 1.00355 0.99072
1.00114 1.00377 0.988699
1.00008 1.00192 0.992544
1.00009 1.00251 0.991882
0.999851 1.00431 0.990515
0.999985 1.00364 0.991032
1.00446 0.996758 0.988809
1.00465 0.996309 0.989021
1.00224 1.00242 0.988132
1.00005 1.0044 0.990101
1.00007 1.00168 0.992705
1.00005 1.00177 0.992668
1.00006 1.00271 0.991734
0.999981 1.00438 0.990247
0.997882 0.997869 0.967615
1.0001 1.00281 0.991603
1.00019 1.00318 0.990959
1.00457 0.995774 0.989359
1.00383 0.996799 0.989994
1.0012 1.0037 0.98857
1.00013 1.00449 0.989676
1.00241 0.999999 0.98944
1.00016 1.00305 0.991238
1.00476 0.995255 0.99011
1.00012 1.00361 0.990752
1.00009 1.00491 0.989447
1.0019 1.00137 0.988863
0.998332 0.99716 0.970285
0.99797 1.00171 0.980546
1.00209 0.999498 0.991606
0.995452 0.997845 0.974434
0.996372 0.994455 0.976336
1.0001 1.00305 0.991379
0.996423 0.995658 0.973126
0.997296 0.995538 0.978976
1.00351 0.997067 0.990588
1.00002 1.0036 0.990784
1.00001 1.00497 0.989951
1.00185 0.999446 0.992879
0.997401 0.999579 0.969331
0.997523 1.00298 0.97913
0.994919 0.999722 0.974559
1.0008 0.995235 0.978109
1.00016 1.00272 0.991553
1.00029 1.00257 0.991459
1.00041 1.00235 0.991513
1.00015 1.00001 0.99423
1.00012 1.00083 0.993506
1.00013 1.00149 0.992774
1.00012 1.00195 0.99239
1.0002 1.00247 0.991696
1.00015 0.999986 0.994149
1.00009 1.00184 0.992533
1.00015 1.00142 0.992851
1.00014 1.00076 0.993488
1.00019 1.00226 0.991935
1.00018 1.00191 0.992284
1.00015 1.00261 0.991758
1.00016 1.00127 0.99297
1.00015 1.00073 0.993568
1.00014 1.00074 0.993584
1.00014 1.00138 0.992928
1.00016 1.00127 0.992988
1.00012 1.0015 0.992824
1.00018 1.00174 0.992509
1.00003 1.0022 0.992281
1.0001 1.00103 0.993312
1.0001 1.00088 0.993473
1.00013 1.00006 0.994225
1.00011 1.0008 0.993463
1.00014 1 0.994212
1.00014 0.998891 0.995353
1.00015 0.999991 0.994164
1.00015 0.998854 0.995382
1.00007 0.997105 0.997643
1.00014 0.998848 0.995388
1.00009 0.997076 0.997431
1.00005 0.995988 0.998551
1.0001 0.997062 0.997221
1.00002 0.99598 0.999388
1.00005 0.995989 0.998555
1.00012 0.9998 0.994513
1.00016 0.998601 0.995615
1.00016 0.998616 0.995594
1.00009 0.996915 0.997389
1.00016 0.998683 0.995531
1.00008 0.996979 0.997348
1 0.995949 0.99942
1.00004 0.997103 0.997675
0.999982 0.996078 0.998987
0.999958 0.996217 0.998544
1.00312 0.997683 0.990306
1.00372 0.998373 0.988871
1.00406 0.997914 0.988533
0.998693 0.998359 0.985952
1.00372 0.997822 0.990259
1.00413 0.998428 0.987754
1.00435 0.998398 0.98946
0.999328 0.998289 0.985256
0.99765 0.998938 0.966102
0.996007 0.99708 0.971946
0.996381 0.994263 0.977316
1.00005 1.00062 0.993726
1.00012 0.999775 0.994541
1.00013 0.999784 0.994515
1.00005 1.00066 0.99375
1.00003 1.0013 0.993228
1.00006 1.00116 0.993313
1.00007 1.00074 0.993713
1.00006 1.00063 0.993774
1.00376 0.998296 0.988982
1.0043 0.99625 0.989684
1.00332 0.997432 0.990087
1.00018 1.00344 0.990721
1.00111 1.00401 0.988575
0.999866 1.00429 0.990517
1.00001 1.00376 0.990927
1.00009 1.00246 0.991891
1.00009 1.00097 0.993411
1.00007 1.00192 0.992579
1.00007 1.00077 0.993782
1.00009 1.00144 0.992906
1.00442 0.997142 0.988643
1.00005 1.00167 0.992756
1.00005 1.00178 0.992664
1.00462 0.996342 0.988989
1.00191 1.00197 0.988419
1.00014 1.00444 0.98994
1.00009 1.00272 0.991678
1 1.00432 0.990271
1.0049 0.997639 0.98797
1.0033 1.00029 0.988181
1.00014 1.0046 0.98909
1.00004 1.00453 0.99
1.00003 1.00212 0.992296
1.0001 1.00249 0.99188
1.0001 1.00358 0.99088
0.997218 0.994958 0.972853
0.998397 0.998437 0.970556
1.00013 1.00307 0.991278
1.00005 1.00359 0.990762
1.00474 0.995299 0.989991
1.00207 1.00131 0.988902
1.00008 1.00491 0.989482
0.998507 0.997594 0.966155
0.998169 1.00164 0.98315
1.00216 0.99909 0.991951
0.995379 0.99733 0.973448
0.996207 0.994236 0.975441
1.00013 1.00295 0.991373
0.996877 0.994916 0.973942
0.996985 0.995688 0.978774
1.00361 0.99731 0.990455
0.999947 1.00389 0.990812
0.999882 1.00492 0.989936
1.00194 0.9994 0.992821
0.997088 0.999809 0.967419
0.997392 1.00454 0.981726
0.994929 0.999791 0.972754
0.999944 0.995633 0.978087
1.00044 1.0024 0.991301
0.997697 0.996812 0.98087
1.0057 0.996305 0.980706
1.00099 1.00017 0.992013
0.999687 1.00404 0.991804
1.00119 1.00346 0.994922
0.998193 1.00246 0.986736
0.995219 1.00254 0.967539
0.994924 0.999413 0.973304
1.0057 0.997748 0.975272
1.00027 1.00261 0.991469
1.0004 1.00238 0.991443
1.00009 1.00262 0.991528
1.00016 0.999991 0.994145
1.00015 1.00075 0.993543
1.00015 1.00144 0.992932
1.00009 1.0018 0.992557
1.0002 1.00227 0.991864
1.00014 1.00072 0.993569
1.00016 1.00191 0.992349
1.00016 1.00128 0.992967
1.00012 1.00264 0.991728
1.00017 1.00278 0.991641
1.00018 1.00197 0.992273
1.00016 1.00125 0.993008
1.00013 1.00074 0.993586
1.00014 1.00138 0.992843
1.00016 1.00127 0.99299
1.00012 1.00151 0.99282
1.0002 1.00169 0.992491
1.00008 1.00176 0.992617
1.00021 1.00167 0.99252
1.00022 1.00188 0.99218
1.00011 1.00264 0.99168
0.999864 1.00325 0.991463
0.999992 1.00252 0.991971
1.00003 1.00221 0.992284
1.00009 1.00133 0.993041
1.0001 1.00105 0.993306
1.00014 1.00015 0.994134
1.0001 1.00089 0.993471
1.00014 1.00006 0.994223
1.00013 0.998971 0.995304
1.00014 1.00001 0.994164
1.00014 0.998889 0.995354
1.00005 0.997154 0.997638
1.00015 0.998851 0.995383
1.00008 0.997101 0.997434
1.00003 0.995989 0.998557
1.0001 0.997067 0.997222
1.00002 0.995987 0.999388
1.00002 0.995978 0.999388
1.00013 0.999876 0.994583
1.00016 0.998641 0.995579
1.00012 0.999806 0.994513
1.0001 0.996897 0.997402
1.00016 0.9986 0.995614
1.00016 0.998612 0.995594
1.00009 0.996918 0.997388
1.00002 0.995894 0.999429
1.00007 0.996979 0.99774
1.00001 0.995962 0.999017
1 0.996086 0.998586
0.996887 0.995336 0.97461
0.997143 0.995143 0.980043
0.998945 0.998427 0.987537
1.00371 0.99818 0.990383
1.00411 0.998302 0.987708
0.999381 0.998232 0.989091
1.00443 0.998423 0.989337
0.998385 0.997937 0.969813
0.995392 0.997322 0.974627
0.996302 0.994166 0.976514
1.00095 0.997552 0.991676
0.996786 1.00078 0.970179
0.995133 0.999611 0.973956
0.999046 0.997423 0.976889
1.00003 1.00144 0.993006
1.00005 1.00062 0.993771
1.00012 0.999773 0.99454
1.00005 1.00067 0.99371
1.00002 1.00126 0.993285
1.00004 1.00145 0.993061
1.00006 1.00112 0.993321
1.00009 1.00102 0.993368
1.00007 1.00075 0.993646
1.00005 1.00064 0.993724
1.00443 0.997462 0.98848
1.0045 0.996333 0.988951
1.00154 1.00156 0.988706
1.00021 1.00447 0.989779
1.00002 1.00426 0.990294
1.00012 1.00273 0.991623
1.00005 1.00179 0.992659
1.00004 1.00166 0.992807
1.00499 0.997193 0.987795
1.00003 1.00216 0.992265
1.00012 1.00251 0.991785
1.00309 1.00042 0.987864
1.00008 1.0045 0.989608
1.0001 1.00449 0.989937
1.00015 1.00352 0.99083
1.00331 1.00239 0.986999
1.00058 1.00375 0.989978
1.00005 1.00416 0.990251
1.00004 1.00226 0.992201
1.00015 1.00257 0.99167
1.00027 1.00303 0.991029
0.999089 0.996567 0.979387
0.996927 0.995807 0.971877
0.99799 0.997925 0.967606
1.00017 1.00285 0.991367
0.99989 1.00416 0.990841
1.0037 0.997569 0.990323
0.999731 1.00487 0.989918
0.997337 0.995365 0.972217
0.996788 0.999385 0.971584
0.997354 1.00425 0.978926
1.0019 0.999206 0.992836
0.994981 0.99982 0.974792
0.997047 0.995749 0.978431
0.998808 0.995338 0.97845
1.00036 1.00262 0.991291
0.997736 0.996903 0.980196
1.00527 0.996435 0.981001
1.00108 1.00037 0.992112
0.999435 1.00383 0.991842
1.00184 1.00358 0.991801
0.998142 1.00306 0.982506
0.995529 1.0037 0.968107
0.995764 0.999214 0.975878
1.00311 0.998157 0.976307
0.999731 1.00269 0.992748
1.0081 0.997027 0.980606
1.01537 0.996649 0.971869
0.998341 1.00452 0.993229
0.9985 1.00123 0.993633
0.995422 1.0024 0.968233
0.997321 0.999168 0.976493
1.00298 1.00061 0.97522
1.00038 1.0024 0.991374
1.00021 1.00254 0.991649
1.0002 1.002 0.992119
1.00015 1.00072 0.993571
1.00016 1.00127 0.992964
1.00014 1.00191 0.992415
1.0001 1.00267 0.991698
1.00016 1.00125 0.993009
1.00018 1.00196 0.992275
1.00012 1.00272 0.991659
1.00004 1.00259 0.992135
1.00027 1.00229 0.991749
1.00021 1.00168 0.992502
1.00016 1.00127 0.992991
1.00011 1.00151 0.992816
1.00022 1.00165 0.992474
1.00021 1.00166 0.992523
1.00007 1.00179 0.992615
1.00024 1.00185 0.992214
1.0002 1.0022 0.991935
1.00029 1.00196 0.992034
1.00015 1.00276 0.991455
1.00013 1.00264 0.991707
0.999865 1.00326 0.991449
1.00012 1.00335 0.991006
1.00004 1.00262 0.991947
0.999824 1.00314 0.991682
1.00001 1.00251 0.992045
1.00009 1.00169 0.992593
1.00003 1.00222 0.992287
1.00009 1.00134 0.993037
1.00014 1.00033 0.99394
1.0001 1.00106 0.993301
1.00013 1.00015 0.99413
1.00011 0.999081 0.995235
1.00014 1.00006 0.99422
1.00013 0.998963 0.995304
1.00001 0.997244 0.997616
1.00014 0.998885 0.995355
1.00005 0.997158 0.997426
1 0.996056 0.998553
1.00009 0.997091 0.997224
1.00002 0.996002 0.998972
1.00002 0.99599 0.999388
1.00013 1.00006 0.994267
1.00015 0.998724 0.995509
1.00012 0.999884 0.994456
1.00009 0.996936 0.997377
1.00016 0.99864 0.99558
1.00012 0.999815 0.994513
1.00002 0.995882 0.99943
1.0001 0.996895 0.997402
1.00016 0.998598 0.995614
1.00009 0.996921 0.997386
1.00001 0.995901 0.999427
0.999999 0.995956 0.999417
0.998251 0.996648 0.980631
0.996679 0.995361 0.973113
1.00657 0.995215 0.979975
0.997094 0.995219 0.979604
0.999513 0.998573 0.984591
1.00451 0.998461 0.989177
0.99787 0.997345 0.973619
0.995862 0.998423 0.972306
0.996157 0.994117 0.975713
1.00078 0.997997 0.989453
0.997056 0.999852 0.967738
0.995065 0.999561 0.971967
0.999396 0.9968 0.976999
0.999171 0.99957 0.989557
0.995916 1.00186 0.967367
0.995106 1.00028 0.974598
1.00371 1.00071 0.974297
1.00006 1.00192 0.992553
1.00003 1.00143 0.993074
1.00006 1.00061 0.993817
1 1.00121 0.993343
1.00008 1.00173 0.992639
1.00005 1.00141 0.993115
1.00006 1.00109 0.993328
1.00012 1.00111 0.993282
1.00009 1.00101 0.993433
1.00007 1.00077 0.993579
1.00504 0.996779 0.987622
1.00287 1.00058 0.987552
1.00003 1.00432 0.990127
1.00017 1.00445 0.989873
1.00019 1.00347 0.990779
1.00013 1.00253 0.99169
1.00004 1.00219 0.992234
1.00005 1.00225 0.992213
1.00341 1.00153 0.987208
1.00013 1.0026 0.991724
1.00028 1.00309 0.991019
1.00058 1.00378 0.989725
1.00016 1.00411 0.990249
1.0013 1.00294 0.989072
0.999975 1.00356 0.991266
1.0003 1.00303 0.990852
1.00018 1.00238 0.991819
1.00034 1.00285 0.991021
1.00995 0.997267 0.979108
0.998979 0.996868 0.979876
0.996984 0.99541 0.974125
1.00028 1.00287 0.991281
0.999182 1.00366 0.991881
1.00121 1.00053 0.992194
0.997595 0.997132 0.980602
0.99549 1.0023 0.966949
0.998048 1.00364 0.984542
1.00266 1.00359 0.988545
0.99534 0.999329 0.973126
1.00474 0.996564 0.981294
1.00244 0.998112 0.976693
0.99968 1.00238 0.992878
1.00797 0.997035 0.980978
1.01511 0.996695 0.972182
0.99845 1.00429 0.993087
0.998706 1.00154 0.991733
0.995472 1.00323 0.96697
1.00536 0.999558 0.974182
0.996176 0.999004 0.975354
0.999038 1.00241 0.993982
1.02349 0.99212 0.967548
1.01955 0.996162 0.967469
1.00368 1.00003 0.97523
0.996109 1.00293 0.996205
0.995575 0.999333 0.97227
0.994719 0.999796 0.97759
1.00033 1.00243 0.991769
1.00035 1.00216 0.991724
1.00025 1.00114 0.993157
1.00016 1.00125 0.99301
1.00018 1.00196 0.992277
1.00009 1.00261 0.991676
1.00022 1.00168 0.992513
1.00028 1.00226 0.991735
1.0001 1.00247 0.991971
0.999791 1.00221 0.992662
1.00035 1.00201 0.991859
1.00022 1.00166 0.992526
1.00006 1.00182 0.992613
1.00026 1.00181 0.992248
1.0003 1.00193 0.992039
1.00021 1.00215 0.991971
1.00008 1.00268 0.991713
1.0001 1.00274 0.991564
1.00003 1.00398 0.990574
1.00015 1.00264 0.991734
0.999959 1.00327 0.991418
1.00008 1.00373 0.990429
1.00014 1.0032 0.991062
1.00004 1.00274 0.991794
1.00007 1.00336 0.99103
1.0001 1.00198 0.992391
1.00004 1.00264 0.991902
0.999782 1.00303 0.9919
1.00002 1.00249 0.992119
1.00009 1.00167 0.992672
1.00014 1.00063 0.99364
1.00009 1.00135 0.993033
1.00013 1.00034 0.993933
1.00008 0.999226 0.995134
1.00013 1.00017 0.994126
1.00011 0.999073 0.995234
0.999965 0.997374 0.997568
1.00013 0.998955 0.995304
1.00002 0.997256 0.997397
0.999958 0.996154 0.998538
1.00006 0.997152 0.997216
0.99999 0.996063 0.998971
0.999996 0.996026 0.999389
1.00015 1.00024 0.993899
1.00013 0.99888 0.995224
1.00014 1.00007 0.994264
1.00008 0.997023 0.997316
1.00014 0.998735 0.995426
1.00011 0.999892 0.99433
1.00001 0.995915 0.999422
1.00009 0.996928 0.997379
1.00016 0.998639 0.99558
1.00002 0.995882 0.99943
1.0001 0.996895 0.997402
1.00001 0.995908 0.999425
1.01053 0.99628 0.977608
0.998427 0.996309 0.979691
0.996816 0.995537 0.972434
1.00018 1.00116 0.993044
1.01616 0.994797 0.972933
1.00602 0.995994 0.980235
0.997376 0.995265 0.978935
1.0007 0.998163 0.987129
0.997 1.00073 0.970226
0.99516 0.999502 0.974118
0.999729 0.995679 0.976615
0.998701 0.999961 0.984392
0.995467 1.00224 0.96911
0.995764 1.00029 0.973911
1.00288 0.999758 0.975373
0.997885 1.00244 0.981538
0.995312 1.0015 0.965727
0.99573 1.00027 0.973117
1.00351 1.00144 0.974091
1.00016 1.00208 0.992133
1.00006 1.00194 0.992513
1.00004 1.00141 0.993142
1.00013 1.00172 0.992565
1.00008 1.0017 0.992723
1.00005 1.00136 0.99317
1.00013 1.00111 0.993303
1.0001 1.001 0.993498
1.00348 1.00071 0.987416
1.00059 1.00386 0.989473
1.00005 1.00222 0.992224
1.00027 1.00409 0.990246
1.00029 1.00312 0.991009
1.00011 1.00264 0.991778
1.00017 1.00241 0.991832
1.0016 1.00339 0.98921
1.00032 1.00282 0.991128
1.00032 1.00321 0.990798
0.999989 1.00331 0.991082
1.00027 1.00222 0.9919
1.00029 1.00038 0.994018
0.999495 1.00348 0.992204
1.00038 1.00234 0.991347
1.0003 1.00252 0.99154
1.02343 0.993156 0.967651
1.0108 0.996864 0.977991
0.998845 0.997164 0.980371
0.999614 1.00204 0.993011
0.998549 1.00406 0.992949
1.00784 0.99702 0.981351
0.995491 1.00116 0.968679
0.998745 1.0021 0.985616
0.996272 0.999141 0.973599
1.01491 0.996695 0.972496
1.0078 0.998567 0.973144
0.999153 1.00266 0.993638
1.02362 0.992113 0.967455
1.02063 0.996051 0.966508
0.996365 1.00461 0.997469
1.00277 0.999233 0.976016
0.995166 0.999432 0.971232
0.995972 0.999571 0.973779
0.998561 1.00209 0.995943
1.02909 0.989791 0.962437
1.01636 0.994924 0.972301
0.999189 0.997326 0.976909
0.99601 0.999209 0.973445
0.996248 1.00033 1.00095
0.995082 1.00016 0.968318
1.00048 1.00239 0.99133
1.00026 1.00116 0.993021
0.998968 1.00195 0.994117
1.00023 1.00168 0.992524
1.00028 1.00224 0.99172
1.00014 1.00245 0.991806
1.00033 1.00203 0.991851
0.999881 1.002 0.992676
0.999737 1.00345 0.9915
1.0003 1.0019 0.992043
1.00023 1.0021 0.992006
1.00016 1.00271 0.991624
0.999814 1.00424 0.990684
1.00006 1.00273 0.991673
0.999932 1.00384 0.990723
1.00006 1.00472 0.989733
1.00055 1.00342 0.990102
1.00005 1.00328 0.991387
1.00014 1.00385 0.990304
1.00026 1.00279 0.991445
0.999943 1.0029 0.991651
1.00014 1.00309 0.991166
1.00008 1.00215 0.992281
1.00006 1.00272 0.99178
1.00002 1.00337 0.991054
1.00014 1.00097 0.993321
1.00011 1.00196 0.992374
1.00004 1.00267 0.991857
1.00009 1.00164 0.992752
1.00014 1.00063 0.993635
1.00005 0.999457 0.994969
1.00013 1.00036 0.993927
1.00008 0.999228 0.995129
0.999929 0.997537 0.997077
1.00011 0.999066 0.995233
0.99998 0.997386 0.997136
0.999877 0.996279 0.999371
1.00003 0.997252 0.997186
0.999949 0.996157 0.998962
0.999966 0.996094 0.999386
1.00018 1.00034 0.993734
1.00012 0.999087 0.99502
1.00016 1.00025 0.993968
1.00006 0.997159 0.997227
1.00013 0.9989 0.9952
1.00014 1.00007 0.994261
0.999996 0.995984 0.999406
1.00008 0.997014 0.99732
1.00014 0.998747 0.995343
1.00001 0.995906 0.999425
1.00009 0.996921 0.997381
1.00002 0.995882 0.99943
1.02279 0.992655 0.968211
1.01055 0.996127 0.97781
0.998436 0.996033 0.979839
1.00018 1.00117 0.993064
1.00022 1.00121 0.992864
1.00016 1.00174 0.992591
1.01916 0.996644 0.967356
1.01542 0.995963 0.973195
1.00546 0.996808 0.980494
0.998277 1.00029 0.987889
0.995812 1.00235 0.967203
0.995057 1.00035 0.972303
1.00344 0.998494 0.975559
0.99736 1.00229 0.985317
0.995326 1.00117 0.968733
0.994868 1.00044 0.976857
1.00545 1.00044 0.973102
0.997496 1.00008 0.986564
0.994929 1.00077 0.970948
0.994749 0.999869 0.977574
1.00495 0.999292 0.974539
1.00022 1.00212 0.992027
1.00015 1.00212 0.992126
1.00006 1.00198 0.992474
1.00014 1.00172 0.992559
1.00009 1.00167 0.992808
1.00014 1.0011 0.993324
1.00193 1.00381 0.989347
0.999995 1.00306 0.990898
1.00017 1.00244 0.991844
1.00034 1.00331 0.990746
1.00029 1.00283 0.991236
1.00027 1.00216 0.991887
1.0003 1.0025 0.99153
1.00037 1.00105 0.993931
1.0004 1.00233 0.991476
0.999197 1.00324 0.99321
1.00026 1.00211 0.991899
0.998278 1.00069 0.997344
0.998982 1.00042 0.996224
1.00027 1.00239 0.99153
1.02925 0.990742 0.961779
1.02453 0.992711 0.966184
1.01166 0.996425 0.976874
0.999267 1.00286 0.993294
0.996503 1.00209 0.997917
1.02374 0.992089 0.967362
0.995035 1.00034 0.980115
0.997138 0.999749 0.976579
1.02172 0.995822 0.965547
1.00334 0.998122 0.976243
0.998587 1.00192 0.995717
1.0292 0.989816 0.962142
1.01557 0.996328 0.972566
0.995948 1.00164 0.993583
0.999525 0.996887 0.976901
0.995085 0.999746 0.976823
0.994998 1.00015 0.971862
0.99777 1.00397 0.99843
1.02285 0.993402 0.967429
1.00655 0.995821 0.979343
0.996394 0.994674 0.977398
0.995123 0.999425 0.975094
0.995101 1.00009 0.971247
0.996089 1.00063 0.99081
1.00024 1.00117 0.992885
0.999086 1.00171 0.994131
0.998699 1.00446 0.992556
1.00032 1.00203 0.991844
0.999966 1.00177 0.992688
0.999611 1.00355 0.991625
0.999775 1.00438 0.99047
1.00024 1.00275 0.991535
0.999994 1.00421 0.990534
1.00009 1.005 0.98937
0.999841 1.0037 0.990873
1.0001 1.00463 0.98974
1.00067 1.00465 0.988943
1.00086 1.00367 0.989335
1.00034 1.0027 0.991026
1.00053 1.00353 0.99
1.00021 1.00396 0.990179
1.00021 1.0025 0.991785
1.0002 1.00266 0.991579
0.999991 1.00247 0.992034
0.999975 1.00286 0.991712
1.00015 1.00299 0.991269
1.00013 1.00127 0.99304
1.00009 1.00212 0.992291
1.00008 1.00271 0.991767
1.00002 0.999758 0.994724
1.00014 1.00095 0.993324
1.00012 1.00193 0.992357
1.00014 1.00064 0.993631
1.00005 0.999462 0.994962
0.999871 0.997741 0.996984
1.00008 0.999228 0.995124
0.999932 0.997545 0.997074
0.999834 0.996434 0.999356
0.999985 0.997387 0.997137
0.999895 0.996295 0.998941
0.999926 0.996193 0.999376
1.00021 1.00045 0.993676
1.00013 0.999245 0.995013
1.00018 1.00035 0.993785
1.00002 0.997339 0.997112
1.00013 0.999102 0.995086
1.00017 1.00025 0.994037
0.999968 0.996092 0.999384
1.00005 0.997148 0.997233
1.00013 0.99892 0.995177
0.999998 0.995973 0.999411
1.00008 0.997005 0.997324
1.00002 0.995898 0.999428
1.02883 0.990017 0.962423
1.02304 0.992517 0.968122
1.01058 0.996019 0.978012
1.00024 1.00132 0.992722
1.00023 1.00186 0.992314
1.00017 1.00118 0.993085
1.00022 1.00123 0.992846
1.00017 1.00173 0.992523
1.00019 1.00175 0.992446
1.00017 1.00206 0.992174
1.0149 0.997736 0.971494
1.02022 0.996559 0.966489
1.01467 0.997036 0.973458
1.00783 0.99925 0.972113
0.996722 1.00206 0.98201
0.995359 1.00123 0.971622
0.994672 1.0007 0.974019
0.997063 0.999587 0.984559
0.994965 0.999882 0.96873
0.996091 0.999881 0.97377
1.0028 0.999513 0.975584
0.996145 0.997844 0.991358
0.994904 0.999954 0.968536
0.997335 1.00062 0.975578
1.00045 0.995878 0.977838
1.00028 1.00211 0.991963
1.00022 1.0021 0.992019
1.00013 1.00215 0.992119
1.00014 1.00174 0.992553
1.00047 1.00227 0.993841
0.998836 1.00308 0.994219
1.00028 1.00208 0.991874
1.00029 1.00247 0.99152
1.00042 1.00236 0.991605
1.00027 1.00213 0.99187
1.00028 1.0024 0.991461
0.997796 1.00158 0.9975
0.999097 1.00024 0.996544
1.00022 1.00251 0.991632
0.996308 0.99931 1.0013
0.999609 1.00291 0.993274
1.02342 0.994439 0.966514
1.02917 0.990834 0.961681
1.02563 0.99224 0.964716
0.998698 1.00169 0.995515
0.996043 1.0004 1.00074
1.0293 0.989904 0.961848
0.994918 1.00026 0.968588
0.994846 1.00021 0.974082
1.01477 0.997625 0.972832
0.999856 0.995553 0.976769
0.997704 1.00366 0.998374
1.02309 0.99324 0.967322
1.00596 0.996625 0.979647
0.996223 1.00077 0.996477
0.996367 0.994263 0.976473
0.995819 0.999763 0.974273
0.995157 1.00004 0.970778
0.997585 1.00526 0.996131
1.01058 0.997418 0.976509
0.997043 0.995491 0.980035
0.994974 0.999437 0.974627
0.995408 1.00095 0.97035
0.995987 1.00064 0.985783
0.999318 1.0014 0.994146
0.99866 1.00462 0.992525
1.00049 1.00271 0.991511
0.999484 1.00364 0.991751
0.999542 1.00445 0.990591
1.00022 1.00456 0.989719
1.00017 1.00416 0.990384
1.00019 1.00499 0.989276
1.00078 1.00452 0.988369
1.00014 1.00456 0.989748
1.00068 1.00466 0.988811
1.00101 1.00433 0.988316
1.00127 1.00311 0.989007
1.00081 1.003 0.990238
1.00087 1.00375 0.989204
1.00026 1.00229 0.99159
1.00035 1.0027 0.991101
1.00051 1.00364 0.989899
1.00015 1.00242 0.991901
1.00019 1.00253 0.991768
1.00013 1.00252 0.991714
1.0001 1.00157 0.992748
1.00001 1.00241 0.99208
1.00001 1.00282 0.991773
1.00001 1.00006 0.99443
1.00013 1.00125 0.993046
1.00011 1.00209 0.9923
0.999826 0.997969 0.996864
1.00001 0.999766 0.99472
1.00014 1.00093 0.993328
1.00004 0.999467 0.994956
0.999875 0.997752 0.996978
0.99977 0.996613 0.999336
0.999936 0.997552 0.99707
0.999826 0.996457 0.999351
0.999876 0.996323 0.999363
1.00024 1.00143 0.992659
1.00024 1.00058 0.993491
1.00012 0.99939 0.994882
1.00021 1.00045 0.993676
0.999988 0.997518 0.996998
1.00013 0.999252 0.995014
1.00017 1.00036 0.993837
0.999932 0.996239 0.999355
1.00002 0.997325 0.997118
1.00013 0.999115 0.995151
0.999972 0.996076 0.999391
1.00005 0.997137 0.997238
1 0.995959 0.999416
1.02312 0.993497 0.966751
1.02897 0.990169 0.962085
1.02331 0.992348 0.968033
1.00023 1.00133 0.992746
1.00023 1.00185 0.992269
1.00021 1.00207 0.992063
1.00021 1.0018 0.992299
1.00021 1.00217 0.992039
1.00021 1.00125 0.992828
1.00018 1.00173 0.992455
1.00018 1.00176 0.99245
1.00019 1.00204 0.992157
1.00016 1.00216 0.992125
1.00578 0.996848 0.98011
1.01463 0.99792 0.971741
1.02122 0.996667 0.965623
1.00186 0.999391 0.975901
0.996988 0.999834 0.97636
0.996683 0.998749 0.98307
0.994973 0.999753 0.970623
0.995945 0.997357 0.986177
0.994953 0.999893 0.970772
0.995943 1.00029 0.974645
0.999608 0.99612 0.977967
0.994986 0.996996 0.989734
0.995038 0.999564 0.971497
0.995093 1.00032 0.973159
0.996353 0.994563 0.977137
1.00004 1.00196 0.992482
1.00024 1.00219 0.991941
1.00022 1.00208 0.992012
0.997363 1.00193 0.99765
0.999219 0.999978 0.996871
1.00028 1.00216 0.99184
1.00029 1.00245 0.991393
1.00018 1.00246 0.991693
0.999411 1.00296 0.993037
0.996567 0.998747 1.00133
0.999138 1.0036 0.992371
0.998114 1.0026 0.996154
1.00969 0.998627 0.978022
1.02446 0.993815 0.965182
1.02908 0.99105 0.961583
0.997589 1.0034 0.998296
0.996328 1.00029 0.988717
1.02334 0.993062 0.967215
0.99535 0.999904 0.966013
0.995156 0.999772 0.973029
1.00536 0.997492 0.979951
0.996298 0.994071 0.97555
0.997798 1.00523 0.996299
1.01061 0.997186 0.976697
0.99699 0.995451 0.979621
0.996286 1.00094 0.988474
0.995025 0.999281 0.972538
0.995418 1.00063 0.96739
0.999157 1.00356 0.993255
0.998232 0.997166 0.980338
0.996151 0.996935 0.971988
0.996068 1.00081 0.96841
0.996567 1.0018 0.987282
0.998633 1.00476 0.992494
1.00028 1.00278 0.991479
1.00204 1.00063 0.990626
0.999325 1.00456 0.990712
1.00005 1.00447 0.989737
1.00103 1.00379 0.988695
1.00028 1.00499 0.989181
1.00081 1.00458 0.988355
1.00156 1.00318 0.988384
1.0007 1.00465 0.988679
1.00102 1.00422 0.988359
1.00166 1.00251 0.988875
1.00181 1.00148 0.989509
1.00104 1.00273 0.989737
1.00127 1.00301 0.98905
1.0006 1.0025 0.991007
1.00075 1.00307 0.990093
1.00089 1.00382 0.989074
1.00024 1.00211 0.991965
1.00026 1.00226 0.991676
1.00036 1.0027 0.991176
1.0001 1.00185 0.992496
1.00013 1.00241 0.991921
1.00016 1.00255 0.99175
0.999986 1.00042 0.994103
1.00011 1.00158 0.99275
1.00004 1.00236 0.992127
0.999765 0.998214 0.997178
1 1.00008 0.994426
1.00014 1.00123 0.993052
0.999718 0.996848 0.998347
0.99982 0.997998 0.997073
1.00001 0.999773 0.994716
0.99988 0.997763 0.996971
0.999761 0.996645 0.999328
0.999817 0.996482 0.999345
1.00022 1.0017 0.992403
1.00025 1.00076 0.993281
1.00024 1.00146 0.992618
1.0001 0.999534 0.99477
1.00024 1.00059 0.993491
0.999951 0.997678 0.996909
1.00012 0.999395 0.994884
1.00021 1.00046 0.993677
0.999889 0.996394 0.999329
0.999985 0.997507 0.997003
1.00012 0.999262 0.995015
0.999936 0.996216 0.999364
1.00002 0.997313 0.997124
0.999975 0.996058 0.999398
1.00841 0.998495 0.979249
1.02325 0.99353 0.966652
1.02912 0.990429 0.961748
1.00018 1.00217 0.992063
1.00023 1.00135 0.992771
1.00024 1.00185 0.992224
1.00021 1.00181 0.992349
1.00021 1.00206 0.992103
1.00022 1.00213 0.992024
1.00021 1.00232 0.991851
1.00016 1.00221 0.991978
1.00017 1.00176 0.992454
1.0002 1.00201 0.992139
1.00016 1.00216 0.992119
1.00021 1.00248 0.991989
0.997464 0.995526 0.978451
1.00519 0.99718 0.980402
1.01445 0.998034 0.971988
0.998707 0.996046 0.977898
0.995959 1.00029 0.973211
0.994901 0.999947 0.968574
0.99563 0.996788 0.990962
0.994983 0.996825 0.994835
0.996398 0.994394 0.976174
0.994927 0.9999 0.967703
0.995446 1.00001 0.974931
0.996073 0.998506 0.992969
0.995368 0.999123 0.972981
0.995084 0.999219 0.974446
0.999537 1.00191 0.993429
1.00015 1.00188 0.99249
1.00019 1.00227 0.991919
0.996808 0.998089 1.00136
0.999341 1.00292 0.992793
1.00013 1.00243 0.991753
0.999368 1.00359 0.992304
0.997785 1.00275 0.996262
0.99892 1.00156 0.994576
0.99882 0.997092 0.979099
1.01077 0.998343 0.976674
1.02548 0.993165 0.96385
0.997975 1.00523 0.996513
0.996312 1.00092 0.990249
1.01064 0.997087 0.976886
0.995401 1.00013 0.972178
0.994967 0.999346 0.974536
0.997288 0.995375 0.978824
0.999089 1.00364 0.99348
0.998388 0.99683 0.979334
0.995484 0.997235 0.974714
0.996375 1.00188 0.983407
0.995724 1.00084 0.969994
1.00092 1.00099 0.992413
0.996958 0.995322 0.974575
0.997213 1.00013 0.969704
0.997376 1.00165 0.982031
1.00007 1.0029 0.991447
1.0017 1.00004 0.990952
1.00198 1.00048 0.990047
0.999851 1.00433 0.989755
1.00109 1.00365 0.988684
1.00258 1.00087 0.988799
1.00084 1.00459 0.988341
1.00152 1.0031 0.988442
1.0024 1.00032 0.989693
1.00102 1.00411 0.988401
1.00168 1.00229 0.988921
1.00234 0.999756 0.990242
1.00217 0.999736 0.990591
1.00158 1.00164 0.989841
1.0018 1.00137 0.989637
1.00081 1.00229 0.990465
1.00106 1.0027 0.989819
1.00127 1.00291 0.989094
1.00037 1.00211 0.991725
1.00052 1.00251 0.990999
1.00069 1.00315 0.989948
1.00016 1.00185 0.9924
1.00026 1.00211 0.991958
1.00026 1.00223 0.991763
0.999937 1.0009 0.993755
1.00011 1.00183 0.992508
1.00011 1.0024 0.991941
0.999719 0.998476 0.996533
0.999988 1.00043 0.994098
1.00012 1.00158 0.992753
0.999619 0.997074 0.999268
0.999771 0.998254 0.996667
0.999999 1.00009 0.994421
0.9997 0.996847 0.9993
0.999824 0.998015 0.996826
0.999753 0.996678 0.999319
1.00018 1.00188 0.992368
1.00022 1.0017 0.992413
1.00021 1.00107 0.99305
1.00008 0.999708 0.994636
1.00025 1.00077 0.993282
1.00024 1.00149 0.992577
0.999913 0.997818 0.996839
1.00011 0.999526 0.994774
1.00023 1.00059 0.993492
0.999841 0.996542 0.999308
0.999947 0.99767 0.996912
1.00012 0.999397 0.994887
0.999894 0.996373 0.999337
0.999982 0.997497 0.997008
0.999941 0.996192 0.999373
0.998105 0.997153 0.980285
1.00823 0.99851 0.979459
1.02335 0.993554 0.966553
1.00018 1.00219 0.992029
1.00015 1.00225 0.992117
1.0002 1.00232 0.991879
1.0002 1.00182 0.992398
1.00021 1.00205 0.992144
1.00022 1.00208 0.992009
1.00017 1.00221 0.991981
1.0002 1.00232 0.991851
1.00008 1.0028 0.991645
1.0001 1.00234 0.99193
1.00015 1.00216 0.992112
1.00015 1.0024 0.992002
0.995401 0.997622 0.974547
0.997216 0.995738 0.978426
1.00455 0.997384 0.980693
0.996501 0.9942 0.975209
0.994884 1.0001 0.972902
0.995206 1.00005 0.974317
0.995042 0.996809 0.989506
0.995872 0.998476 0.9883
0.995197 0.998662 0.972496
0.995217 0.999509 0.972167
0.997781 0.996155 0.988268
0.995984 1.00019 0.969479
1.00023 1.00277 0.991985
0.99972 1.00167 0.993377
1.00024 1.0018 0.9925
0.997216 1.00298 0.996396
0.999586 1.00359 0.992238
0.999608 1.00172 0.994302
1.00182 0.999222 0.992514
0.99727 0.994797 0.973059
0.998691 0.997473 0.979471
1.01184 0.99796 0.975327
0.999277 1.00363 0.993664
0.996166 1.00187 0.986584
0.998409 0.996488 0.979475
0.995935 1.001 0.968123
0.995918 0.998214 0.97243
1.00107 1.00079 0.992374
0.996857 0.995374 0.972872
0.997626 0.99909 0.967607
0.996797 1.00141 0.986015
1.00088 1.0032 0.989794
0.997837 0.998885 0.965735
0.999044 0.998304 0.989113
1.00136 0.999526 0.991275
1.00168 1.00114 0.989903
1.00338 0.998917 0.988447
1.00118 1.00351 0.988672
1.00259 1.00069 0.988709
1.00372 0.997109 0.990454
1.00146 1.00306 0.9885
1.00239 1.00008 0.989726
1.00316 0.997058 0.991328
1.0017 1.00209 0.988967
1.00234 0.999644 0.990257
1.00266 0.997933 0.991338
1.00237 0.998822 0.991245
1.00216 0.999615 0.990725
1.00193 1.00025 0.990544
1.00141 1.00154 0.990303
1.00158 1.00168 0.989853
1.00179 1.00125 0.989765
1.00065 1.00199 0.991129
1.00084 1.00229 0.990572
1.00109 1.00267 0.9899
1.00025 1.00179 0.992264
1.00039 1.00212 0.99171
1.00045 1.00252 0.990991
0.999916 1.0012 0.993485
1.00018 1.00182 0.992407
1.00028 1.00211 0.99195
0.999646 0.998798 0.996336
0.999953 1.00085 0.993758
1.00013 1.00181 0.99252
0.999578 0.997274 0.999235
0.999715 0.998508 0.996522
0.999991 1.00043 0.994093
0.999634 0.997088 0.998769
0.999774 0.998267 0.996666
0.999689 0.996902 0.999283
1.00016 1.00197 0.992298
1.00019 1.00189 0.99232
1.00017 1.00136 0.992845
1.00022 1.00171 0.992422
1.00021 1.00108 0.993046
1.00003 1.00001 0.994421
0.999871 0.997967 0.996771
1.00008 0.999698 0.994641
1.00024 1.00079 0.993283
0.999786 0.996687 0.999292
0.999909 0.997813 0.996843
1.00011 0.999521 0.994778
0.999847 0.996527 0.999314
0.999943 0.997664 0.996915
0.999899 0.996352 0.999344
0.996177 0.996697 0.972879
0.997896 0.99725 0.979765
1.00809 0.998529 0.979668
1.00018 1.00221 0.991996
1.00017 1.00238 0.991841
1.00011 1.00223 0.992153
1.00011 1.00231 0.992127
1.0001 1.00252 0.991892
1.00018 1.00222 0.991984
1.0002 1.00231 0.99185
1.00005 1.00274 0.99168
0.999924 1.00259 0.991792
1.00003 1.00272 0.991639
1.00077 1.00297 0.99057
1.00001 1.00264 0.991931
1.00011 1.00233 0.992015
0.997363 0.999686 0.9666
0.995416 0.998505 0.973748
0.997156 0.995954 0.977961
0.995359 0.998477 0.9744
0.99517 0.999974 0.967727
0.995785 0.99844 0.993647
0.997964 0.996282 0.990935
0.996077 0.998698 0.972283
1.00086 0.99601 0.98728
1.00231 1.00147 0.988802
0.999837 1.00271 0.991924
0.999867 1.00142 0.993323
1.00011 1.00187 0.99402
1.00233 0.998742 0.992021
0.997955 0.997629 0.9676
0.997041 0.995512 0.972186
0.998576 0.997954 0.979844
1.00127 1.00089 0.99234
0.996225 1.00201 0.98243
0.997018 0.995411 0.972204
0.997467 0.999077 0.970248
1.00149 1.00318 0.989856
0.998636 0.997687 0.96948
0.998641 0.999166 0.984391
1.00274 1.00379 0.986845
1.00081 0.996745 0.991962
1.00135 1.00146 0.989759
1.00317 0.999386 0.988349
1.00497 0.996355 0.988351
1.00255 1.00052 0.988623
1.00347 0.997175 0.990442
1.00398 0.995269 0.991454
1.00239 0.999814 0.989759
1.00313 0.997043 0.991265
1.00329 0.996334 0.991727
1.00234 0.999537 0.990272
1.00266 0.998016 0.991287
1.00271 0.997855 0.991398
1.00231 0.998679 0.991382
1.00225 0.999348 0.990967
1.00216 0.999507 0.990859
1.00194 1.00027 0.990517
1.00181 1.00056 0.990506
1.00111 1.00149 0.990755
1.00139 1.00158 0.990283
1.00158 1.00173 0.989865
1.00045 1.00173 0.991936
1.00063 1.00201 0.991201
1.00086 1.0023 0.990679
0.999912 1.00135 0.993297
1.00028 1.00178 0.992254
1.00041 1.00212 0.991695
0.999583 0.999152 0.996081
0.999939 1.00115 0.993493
1.0002 1.00179 0.992414
0.999517 0.997501 0.999197
0.999639 0.998844 0.996324
0.999965 1.00081 0.99376
0.999572 0.997302 0.999225
0.999712 0.998542 0.99651
0.999627 0.997118 0.999248
1.00014 1.00215 0.992184
1.00015 1.00197 0.992302
1.00015 1.0016 0.99262
1.00019 1.0019 0.992271
1.00017 1.00141 0.992794
1.00001 1.00038 0.994102
1.00021 1.00109 0.993043
1.00004 0.999996 0.994424
0.999811 0.998196 0.99666
0.999724 0.996845 0.999276
0.999867 0.997962 0.996777
1.00009 0.999685 0.994647
0.999794 0.996676 0.999297
0.999905 0.997808 0.996846
0.999852 0.996512 0.99932
0.998098 0.99928 0.969624
0.99634 0.995921 0.974415
0.997464 0.997395 0.980199
1.00015 1.00245 0.991802
1.00007 1.00222 0.992189
1.00011 1.00252 0.991913
1.0001 1.0023 0.992122
1.00009 1.00256 0.991917
0.999972 1.00247 0.992028
1.00003 1.00265 0.991714
0.999994 1.00273 0.991691
0.999946 1.00294 0.991603
1.00014 1.00232 0.991548
1.00108 1.00256 0.990856
1.002 1.00216 0.988637
1.0006 1.0028 0.990682
0.999908 1.00295 0.991931
1.0004 0.99768 0.986303
0.99679 1.00031 0.968872
0.995646 0.997741 0.972187
0.996162 0.99987 0.969461
0.998179 0.996405 0.993423
1.00084 0.996005 0.991117
1.00426 0.996488 0.990538
1.00232 1.0009 0.989406
0.999662 1.00269 0.991858
1.00337 0.998476 0.991522
0.998944 0.999967 0.984716
0.998436 0.998369 0.970364
0.997032 0.995203 0.974428
1.00207 1.00302 0.989923
0.998247 0.999643 0.987344
0.998172 0.997135 0.973273
1.00302 1.00277 0.987125
1.00048 0.997777 0.989629
1.00481 0.99853 0.987903
1.00421 0.998278 0.989432
1.00305 1.0003 0.988247
1.00486 0.996366 0.988362
1.00451 0.996433 0.989395
1.00325 0.997208 0.990427
1.00387 0.995524 0.991424
1.00382 0.996418 0.990677
1.00309 0.997063 0.991201
1.00322 0.996543 0.991663
1.00326 0.997426 0.990799
1.00265 0.998104 0.991236
1.00263 0.997941 0.991432
1.00252 0.998846 0.99077
1.00226 0.998541 0.991519
1.00222 0.999238 0.991036
1.00214 0.999905 0.990627
1.00195 1.00029 0.99049
1.0018 1.00059 0.990482
1.0016 1.00079 0.990744
1.00076 1.00141 0.99147
1.00109 1.00153 0.990825
1.00138 1.00163 0.990262
0.999991 1.00146 0.993046
1.00046 1.00174 0.991929
1.00062 1.00202 0.991273
0.999515 0.999577 0.99579
0.999942 1.00133 0.9933
1.0003 1.00177 0.992244
0.999465 0.997748 0.999139
0.999581 0.999199 0.996074
0.999961 1.0011 0.993501
0.999513 0.997532 0.99918
0.999635 0.998887 0.996313
0.999565 0.997328 0.999214
1.00014 1.00232 0.992008
1.00015 1.00213 0.992213
1.00011 1.00183 0.992505
1.00014 1.00197 0.992307
1.00014 1.00163 0.992603
0.999992 1.00074 0.993777
1.00017 1.00145 0.992744
1.00001 1.00038 0.994103
0.999745 0.99849 0.996491
1.00005 0.999981 0.994427
0.999811 0.998174 0.99667
0.999657 0.99705 0.999247
0.999734 0.996832 0.999281
0.999863 0.997956 0.996782
0.999801 0.996665 0.999302
0.999612 0.999627 0.985177
0.997869 0.998436 0.967855
0.996754 0.99616 0.972181
1.0004 1.00235 0.991509
1.0001 1.00252 0.991935
1.00009 1.00229 0.992116
1.00001 1.00253 0.992019
1.00005 1.0026 0.991893
1.00002 1.00207 0.99228
1.00007 1.00292 0.99159
0.999917 1.0032 0.991568
1.00027 1.00234 0.991659
1.00079 1.00249 0.991054
1.00186 1.00156 0.989427
1.00396 0.999319 0.987356
1.00205 1.00186 0.988566
1.0005 1.00254 0.990795
1.00448 0.995529 0.990926
1.00019 0.99814 0.984532
0.996767 1.00015 0.971686
1.00073 0.99605 0.986707
1.00433 0.996303 0.990521
1.00196 1.00018 0.990026
1.00301 0.999828 0.990273
0.998971 0.999476 0.98804
0.998055 0.997895 0.967787
1.00333 1.00154 0.9874
1.00034 0.998281 0.987245
1.00487 0.997748 0.987766
1.00414 0.998223 0.989894
1.00468 0.996621 0.988437
1.00378 0.998521 0.98809
1.0047 0.996292 0.988376
1.00448 0.996262 0.989438
1.00388 0.997744 0.989282
1.00377 0.995745 0.991395
1.00381 0.99646 0.990672
1.00361 0.997929 0.989649
1.00315 0.996747 0.991598
1.00313 0.997505 0.990941
1.003 0.998656 0.989988
1.00255 0.99802 0.991466
1.00251 0.998855 0.990773
1.0024 0.999546 0.990319
1.00219 0.999127 0.991104
1.00212 0.999825 0.990654
1.00191 1.00028 0.990592
1.0018 1.00062 0.990458
1.00156 1.0008 0.990695
1.00122 1.00097 0.991244
1.00023 1.00132 0.992724
1.00075 1.00143 0.991541
1.00106 1.00156 0.990896
0.999457 1.00006 0.995431
1.00001 1.00145 0.993049
1.00048 1.00174 0.991922
0.999386 0.998042 0.999068
0.999533 0.999586 0.995784
0.999969 1.0013 0.993305
0.999452 0.997783 0.999118
0.999578 0.999241 0.996067
0.999507 0.997562 0.999163
1.00029 1.00227 0.991649
1.00014 1.00229 0.992016
1.00015 1.00195 0.992371
1.00016 1.00212 0.992242
1.0001 1.00183 0.992528
0.999944 1.0011 0.993523
1.00013 1.00167 0.992585
0.999979 1.00077 0.993773
0.999664 0.998836 0.996297
1.00001 1.00039 0.994104
0.999749 0.998455 0.996504
0.999591 0.997278 0.999208
0.999813 0.998153 0.99668
0.999668 0.99702 0.999257
0.999743 0.996821 0.999286
1.00362 0.996913 0.991055
0.999585 0.999652 0.981801
0.997927 0.999262 0.969601
1.00045 1.0018 0.99175
1.00115 1.00172 0.990687
1.00024 1.00239 0.991581
1.00005 1.00256 0.99201
1.00003 1.00265 0.991869
1.00016 1.00205 0.992177
1.00175 1.00114 0.990035
1.00035 1.00236 0.99177
1.00038 1.00241 0.991251
1.0018 1.0015 0.989553
1.00344 0.999765 0.987709
1.00476 0.996562 0.988355
1.00395 0.999271 0.98736
1.00215 1.00159 0.988495
1.00449 0.995557 0.991147
1.00013 0.998721 0.981913
1.00448 0.996245 0.990493
1.00333 0.998144 0.990404
1.00287 0.999298 0.99057
0.999229 0.999345 0.98327
1.00492 0.996968 0.987629
1.00415 0.998192 0.990316
1.00464 0.996733 0.988456
1.00388 0.998381 0.98832
1.00382 0.99824 0.98878
1.00346 0.998083 0.989532
1.00445 0.995991 0.989482
1.00394 0.997535 0.989325
1.00372 0.998448 0.988834
1.0038 0.996547 0.990666
1.00356 0.997885 0.989742
1.00341 0.998632 0.989188
1.00301 0.997579 0.991083
1.00301 0.998662 0.989978
1.00285 0.999312 0.989646
1.0025 0.998864 0.990776
1.0024 0.999541 0.990318
1.00219 1.00002 0.990258
1.0021 0.999744 0.99068
1.00188 1.00025 0.990598
1.00151 1.00059 0.991023
1.00153 1.00081 0.990647
1.00118 1.00097 0.991225
1.00056 1.00099 0.992423
0.999489 1.00034 0.995083
1.00024 1.00132 0.992727
1.00075 1.00145 0.991612
0.999262 0.998442 0.99898
0.999504 1.00001 0.995422
1.00003 1.00143 0.993051
0.999362 0.998102 0.999043
0.99955 0.999596 0.995778
0.99944 0.997823 0.999097
1.00063 1.00208 0.990989
1.00029 1.00225 0.991581
1.00033 1.00188 0.992088
1.00013 1.00226 0.992024
1.00013 1.00194 0.992375
0.999906 1.00139 0.993327
1.00009 1.00183 0.992551
0.99992 1.00115 0.993518
0.999578 0.999228 0.996072
0.999966 1.00081 0.993769
0.999673 0.998793 0.996307
0.99952 0.997524 0.999162
0.999754 0.998419 0.996517
0.999602 0.997245 0.999221
0.999679 0.996997 0.999267
1.00406 0.996246 0.989922
1.00363 0.99714 0.990883
0.999817 0.999485 0.984396
1.00182 1.00097 0.990379
1.00029 1.00176 0.992118
1.00181 1.00092 0.989702
1.00117 1.00173 0.990634
1.00008 1.00244 0.991653
1.00326 0.999955 0.98827
1.00031 1.00202 0.992076
1.00183 1.00105 0.989961
1.00427 0.998033 0.988033
1.00178 1.00144 0.989678
1.00357 0.999812 0.987598
1.00465 0.996745 0.988359
1.0039 0.999295 0.987364
1.00457 0.995438 0.991354
1.00332 0.997831 0.990345
1.00324 0.997939 0.990331
1.00275 0.998746 0.99087
1.00458 0.996858 0.988476
1.00398 0.998305 0.988547
1.00392 0.998176 0.988726
1.00351 0.998146 0.989547
1.0035 0.998499 0.989235
1.00398 0.997397 0.989369
1.00373 0.998421 0.988864
1.00359 0.998753 0.98877
1.00351 0.997853 0.989835
1.00343 0.998654 0.989163
1.00328 0.999115 0.989019
1.00302 0.998669 0.989968
1.00287 0.999309 0.989632
1.00261 0.999761 0.9897
1.00241 0.999536 0.990317
1.00219 1.00002 0.990256
1.00182 1.00034 0.990651
1.00185 1.00023 0.990603
1.0015 1.00059 0.991028
1.00087 1.00067 0.992136
1.00113 1.00096 0.991207
1.00055 1.001 0.992423
0.999539 1.00043 0.995568
0.999174 0.999088 0.997308
0.999537 1.00026 0.995443
1.00024 1.00133 0.992729
0.999239 0.99854 0.998947
0.999548 0.999974 0.995413
0.999342 0.998163 0.999017
1.00226 1.00007 0.989902
1.00109 1.00169 0.990473
1.00072 1.00207 0.990908
1.00057 1.00173 0.991751
1.00029 1.00222 0.991514
1.0003 1.00187 0.992103
0.99993 1.00152 0.993167
1.00011 1.00194 0.99238
0.99988 1.00142 0.993325
0.999514 0.999637 0.995799
0.999895 1.0012 0.993513
0.999582 0.999185 0.996079
0.999435 0.997806 0.999101
0.999681 0.998749 0.996318
0.999532 0.99749 0.999176
0.999613 0.997212 0.999233
1.00382 0.997628 0.989399
1.00403 0.99649 0.99008
1.0036 0.997488 0.990713
1.00301 0.999811 0.988831
1.00157 1.00099 0.990682
1.00012 1.00171 0.992485
1.00197 1.00088 0.989822
1.00119 1.00175 0.990581
1.00412 0.998743 0.9877
1.00327 1.00001 0.988132
1.00189 1.00098 0.989886
1.00428 0.998144 0.987997
1.00375 0.999817 0.987488
1.00446 0.996881 0.988362
1.00332 0.99836 0.989633
1.00332 0.997828 0.990246
1.00314 0.997703 0.990259
1.00403 0.998096 0.988674
1.00356 0.998176 0.989561
1.00351 0.99849 0.989259
1.0034 0.998966 0.988963
1.00375 0.998381 0.988893
1.0036 0.998742 0.988766
1.00342 0.999043 0.988806
1.00345 0.99868 0.989138
1.00329 0.999117 0.989007
1.00299 0.999486 0.989222
1.00288 0.999307 0.989618
1.00261 0.999757 0.98969
1.00219 1.0001 0.990166
1.0022 1.00001 0.990253
1.00182 1.00034 0.990649
1.00116 1.00047 0.991779
1.0015 1.00058 0.991033
1.00087 1.00068 0.992131
0.999637 1.00044 0.995392
1.00055 1.00102 0.992423
0.999608 1.0004 0.995526
0.999036 0.999641 0.997095
0.999132 0.999071 0.998075
0.999594 1.00019 0.995791
0.999217 0.998628 0.998913
1.00307 0.999524 0.988997
1.00176 1.00083 0.990377
1.00212 0.999939 0.990334
1.00087 1.00161 0.99127
1.00121 1.00168 0.990457
1.00082 1.00205 0.990828
1.00054 1.00177 0.991759
1.00005 1.00152 0.992933
1.00028 1.00186 0.992117
0.999915 1.00152 0.993164
0.999479 1.00002 0.995492
0.999856 1.00144 0.993322
0.999503 0.999615 0.995804
0.999319 0.998168 0.999024
0.999587 0.999142 0.996086
0.999453 0.997765 0.999121
0.999545 0.997455 0.999191
1.00388 0.998285 0.988643
1.00386 0.997596 0.989385
1.00401 0.996726 0.990238
1.00386 0.998841 0.988034
1.00301 0.999842 0.988836
1.00135 1.00101 0.990985
1.00211 1.00081 0.989941
1.00416 0.998752 0.987716
1.00331 1.00004 0.987995
1.00428 0.998267 0.987961
1.00345 0.998752 0.989047
1.00338 0.998398 0.989491
1.0033 0.997855 0.990147
1.00337 0.999256 0.988723
1.00351 0.99849 0.989284
1.0034 0.998971 0.988952
1.00333 0.999211 0.988864
1.00362 0.998732 0.988762
1.00342 0.999051 0.98881
1.00315 0.999395 0.989015
1.00329 0.999119 0.988996
1.00299 0.999491 0.989218
1.00253 0.999831 0.989779
1.00262 0.999754 0.98968
1.0022 1.0001 0.990161
1.00146 1.0003 0.991369
1.00183 1.00033 0.990647
1.00117 1.00047 0.991767
0.999758 1.00036 0.99527
1.00086 1.0007 0.992127
0.999707 1.00042 0.995356
0.998953 0.999949 0.996989
0.999678 1.00037 0.995481
0.998997 0.999677 0.997134
0.999065 0.999033 0.998873
1.00357 0.99936 0.988338
1.00267 0.999893 0.989507
1.00298 0.999611 0.989147
1.0014 1.00108 0.990929
1.00174 1.00077 0.990375
1.00199 0.999847 0.990763
1.00033 1.00143 0.992481
1.00087 1.0016 0.991265
1.00131 1.00168 0.990442
1.00049 1.0018 0.991767
1.00004 1.00152 0.992933
0.999481 1.00036 0.995157
0.9999 1.0015 0.993161
0.999444 1.00005 0.995495
0.999167 0.998639 0.998937
0.999492 0.99959 0.995809
0.999346 0.9981 0.999049
0.999471 0.997722 0.99914
1.0039 0.998418 0.988491
1.00396 0.998263 0.988519
1.00392 0.997543 0.989371
1.00393 0.998771 0.988037
1.00301 0.999891 0.988841
1.00415 0.998758 0.987731
1.00352 0.999036 0.988632
1.00344 0.998792 0.989026
1.00345 0.998435 0.989348
1.00337 0.999228 0.988761
1.0033 0.999498 0.988655
1.0034 0.998974 0.988941
1.00332 0.99922 0.988869
1.00313 0.999478 0.988967
1.00342 0.999058 0.988814
1.00314 0.999397 0.989021
1.00269 0.999727 0.989565
1.00299 0.999495 0.989214
1.00253 0.999835 0.989774
1.00171 1.00009 0.991075
1.0022 1.00009 0.990156
1.00147 1.00029 0.991356
0.999932 1.0002 0.995156
1.00117 1.00047 0.991755
0.999826 1.00035 0.995233
0.998927 1.0001 0.996927
0.999779 1.00038 0.995318
0.998908 1 0.997025
0.998956 0.999711 0.997177
1.00373 0.998646 0.988549
1.00318 0.999566 0.988786
1.00358 0.9993 0.988289
1.00206 1.00034 0.990274
1.00263 0.999941 0.989584
1.00288 0.999679 0.9893
1.00075 1.00103 0.991973
1.00137 1.00104 0.990805
1.00173 1.00068 0.990373
0.99955 1.00061 0.994775
1.00032 1.00141 0.992487
1.00087 1.0016 0.991261
1.00002 1.00153 0.992933
0.999418 1.00044 0.995165
0.99901 0.999189 0.998843
0.999406 1.00009 0.995499
0.999197 0.998546 0.998965
0.999376 0.998037 0.999073
1.00375 0.998663 0.98859
1.00392 0.998442 0.988465
1.00405 0.998247 0.988395
1.004 0.998686 0.988039
1.00353 0.999246 0.988436
1.00353 0.999033 0.988656
1.00342 0.998834 0.989005
1.00336 0.9992 0.988799
1.00331 0.999466 0.988637
1.00317 0.999619 0.988801
1.00332 0.999231 0.988873
1.00313 0.999488 0.989005
1.00275 0.999712 0.989392
1.00313 0.999401 0.989028
1.00269 0.999726 0.989566
1.00185 0.999956 0.99092
1.00252 0.999842 0.98977
1.00172 1.00008 0.991068
1.00008 1.00003 0.994182
1.00148 1.00028 0.991343
0.999975 1.00021 0.994681
0.998962 1.00011 0.998649
0.999896 1.00033 0.995194
0.998881 1.00016 0.996962
0.99886 1.00007 0.997064
1.00366 0.998648 0.988776
1.00328 0.999222 0.988819
1.00371 0.9987 0.988587
1.00257 0.999804 0.989513
1.00314 0.999566 0.988859
1.00358 0.999259 0.98824
1.00124 1.00047 0.991313
1.00207 1.00033 0.990266
1.00258 1.00001 0.989661
0.999719 1.00061 0.994413
1.00076 1.001 0.991863
1.00135 1.001 0.990681
0.998918 0.999713 0.998738
0.999477 1.00069 0.994791
1.00031 1.00139 0.992493
0.99935 1.00053 0.995173
0.999033 0.999078 0.998876
0.999234 0.998446 0.998992
1.00362 0.998875 0.988607
1.00375 0.998644 0.988593
1.00393 0.998468 0.98844
1.00348 0.999459 0.988374
1.00354 0.999257 0.988395
1.00354 0.999028 0.988679
1.00332 0.999433 0.98862
1.00317 0.999603 0.988802
1.00288 0.999706 0.989313
1.00312 0.999497 0.989043
1.00274 0.999735 0.989509
1.00197 0.999898 0.990552
1.00268 0.999723 0.989568
1.00186 0.999948 0.99092
1.00017 0.999963 0.994089
1.00173 1.00007 0.99106
1.00008 1.00005 0.994177
0.999012 1.00006 0.998637
1 1.00021 0.99423
0.998951 1.00015 0.997793
0.998829 1.00024 0.996999
1.00354 0.998876 0.98888
1.00332 0.999053 0.988999
1.00363 0.998626 0.988799
1.00277 0.999599 0.989492
1.0033 0.999195 0.988845
1.00369 0.998742 0.988626
1.0017 1.00004 0.990871
1.00259 0.999867 0.989657
1.00313 0.999558 0.988933
0.999917 1.00041 0.994183
1.00131 1.00045 0.991259
1.00208 1.00032 0.990257
0.998919 1.00006 0.998655
0.999657 1.00067 0.994429
1.00078 1.00097 0.991754
0.998914 0.999597 0.998775
0.999406 1.00076 0.994807
0.999054 0.998957 0.998904
1.00347 0.999206 0.988624
1.00362 0.998891 0.988614
1.00375 0.998629 0.988597
1.00315 0.999568 0.988926
1.00345 0.999479 0.988408
1.00355 0.999269 0.988354
1.00318 0.999589 0.988803
1.00288 0.999701 0.989317
1.00216 0.999825 0.99024
1.00274 0.99976 0.989625
1.00195 0.99991 0.990665
1.00026 0.999976 0.993887
1.00186 0.999935 0.990919
1.00017 0.999966 0.994086
0.999075 1.00002 0.998618
1.00008 1.00006 0.994172
0.999032 1.00006 0.998632
0.998977 1.0002 0.996885
1.00333 0.999146 0.989018
1.00351 0.998817 0.988906
1.00289 0.999456 0.989418
1.00333 0.999052 0.988991
1.00361 0.998603 0.988821
1.00194 0.999882 0.99082
1.0028 0.999578 0.989482
1.00331 0.999173 0.988872
1.0001 1.00013 0.994072
1.00172 1.00008 0.990941
1.00261 0.999928 0.9898
0.998985 1.00018 0.998614
0.999885 1.00043 0.994196
1.00136 1.00043 0.991205
0.998895 0.999972 0.998681
0.999601 1.00073 0.994445
0.998909 0.99948 0.998812
1.00309 0.999469 0.989142
1.00345 0.999228 0.988652
1.00361 0.998906 0.988621
1.00233 0.999727 0.989992
1.00314 0.999594 0.988924
1.00342 0.999498 0.988441
1.00288 0.999696 0.98932
1.00213 0.99983 0.990285
1.0004 0.999976 0.993609
1.00194 0.999917 0.990778
1.00027 0.999978 0.993879
0.999146 1 0.998574
1.00017 0.999971 0.994084
0.999099 1.00002 0.998606
0.999059 1.00007 0.998626
1.00296 0.999464 0.9893
1.00333 0.999088 0.989001
1.00349 0.998759 0.988932
1.00207 0.999776 0.990668
1.0029 0.999456 0.989411
1.00334 0.999049 0.988983
1.00022 0.999963 0.993979
1.00194 0.999887 0.99082
1.00283 0.999558 0.989471
0.999066 1.00013 0.998594
1.00008 1.00015 0.994084
1.00174 1.00012 0.991011
0.998946 1.00013 0.998625
0.999855 1.00045 0.994211
0.998863 0.99989 0.998711
1.00231 0.999723 0.990254
1.0031 0.999472 0.989022
1.00343 0.999248 0.988679
1.0005 0.999951 0.993428
1.00232 0.999729 0.990012
1.00313 0.999621 0.988922
1.00211 0.999833 0.990331
1.00041 0.999979 0.993601
0.99925 0.999998 0.998497
1.00027 0.999982 0.993872
0.999181 1 0.998548
0.999124 1.00001 0.998592
1.00219 0.999745 0.990466
1.00298 0.999437 0.989256
1.00333 0.999032 0.988984
1.00036 0.999917 0.994746
1.00207 0.999787 0.990663
1.00291 0.999456 0.989404
0.999155 1.00005 0.998566
1.00022 0.999953 0.993986
1.00194 0.999893 0.990819
0.999036 1.00012 0.998601
1.00006 1.00016 0.994095
0.998915 1.00009 0.998637
1.00053 0.999952 0.99339
1.00231 0.999706 0.990167
1.00312 0.999471 0.988903
0.999339 0.999993 0.998435
1.00051 0.999948 0.993423
1.00231 0.999732 0.990031
1.00041 0.999983 0.993592
0.999284 0.999999 0.998471
0.999218 1 0.99852
1.00049 0.999934 0.994516
1.00219 0.999741 0.990467
1.00299 0.999408 0.989211
0.999125 1.00001 0.998612
1.00032 0.999904 0.993846
1.00207 0.999794 0.990658
0.999123 1.00005 0.998577
1.00022 0.999944 0.993992
0.998995 1.00012 0.998606
0.999353 0.999986 0.996389
1.00053 0.999948 0.993917
1.00231 0.999694 0.99008
0.999349 0.999993 0.998423
1.00051 0.999946 0.993421
0.999315 1 0.998448
0.999197 0.999955 0.996603
1.00045 0.999941 0.994089
1.00219 0.999737 0.990467
0.999163 0.999986 0.997622
1.00033 0.999902 0.993832
0.999098 1.00006 0.998587
0.999358 0.999991 0.998416
1.00051 0.99994 0.993436
0.999361 0.999991 0.998415
0.999255 0.999985 0.997513
1.00043 0.999939 0.993613
0.999182 1.00001 0.998552
0.999333 0.999989 0.998437
0.999263 0.999993 0.998495

TENSORS stress float
0.00117707 2.99422e-05 3.86279e-05
2.99422e-05 0.000241465 -6.09335e-06
3.86279e-05 -6.09335e-06 0.000223416
0.0029015 -6.5125e-05 3.51327e-05
-6.5125e-05 0.00110584 3.36134e-06
3.51327e-05 3.36134e-06 0.00110601
0.00117787 3.80915e-05 1.66186e-05
3.80915e-05 0.000246118 -2.05652e-06
1.66186e-05 -2.05652e-06 0.000226925
0.00137648 9.01166e-06 5.30246e-05
9.01166e-06 0.000345307 -4.74756e-06
5.30246e-05 -4.74756e-06 0.000324194
0.00122656 2.06323e-05 4.42903e-05
2.06323e-05 0.000274769 -5.80727e-06
4.42903e-05 -5.80727e-06 0.000254859
0.0011394 3.48709e-05 3.31045e-05
3.48709e-05 0.000209211 -6.38358e-06
3.31045e-05 -6.38358e-06 0.000194979
0.00112013 7.24417e-06 7.80666e-06
7.24417e-06 0.00017486 -2.7536e-06
7.80666e-06 -2.7536e-06 0.000136276
0.00289916 -6.64876e-05 5.89963e-07
-6.64876e-05 0.00110154 -1.61973e-07
5.89963e-07 -1.61973e-07 0.0011023
0.00335307 -0.000101293 9.85773e-06
-0.000101293 0.00138093 1.29567e-06
9.85773e-06 1.29567e-06 0.00136817
0.00291185 -8.02946e-05 1.23989e-05
-8.02946e-05 0.00112915 1.31226e-06
1.23989e-05 1.31226e-06 0.00112458
0.00109171 -3.43666e-05 2.77888e-05
-3.43666e-05 0.000159109 3.96437e-06
2.77888e-05 3.96437e-06 0.000154809
0.000773879 -9.65217e-06 6.02445e-06
-9.65217e-06 -8.03687e-06 3.41247e-06
6.02445e-06 3.41247e-06 -4.08764e-05
0.00164084 -8.02441e-06 6.51495e-05
-8.02441e-06 0.000459606 6.96051e-07
6.51495e-05 6.96051e-07 0.000438349
0.00134356 -2.85064e-05 8.94156e-06
-2.85064e-05 0.000333255 1.29242e-06
8.94156e-06 1.29242e-06 0.00031025
0.00117904 4.95205e-05 -7.06454e-06
4.95205e-05 0.000251278 1.92374e-06
-7.06454e-06 1.92374e-06 0.000230589
0.00136636 3.35983e-05 2.47668e-05
3.35983e-05 0.000346693 -1.40752e-06
2.47668e-05 -1.40752e-06 0.000322987
0.00112532 4.02367e-05 1.37074e-05
4.02367e-05 0.000204662 -2.25541e-06
1.37074e-05 -2.25541e-06 0.000189948
0.00123211 3.47923e-05 1.93296e-05
3.47923e-05 0.000283011 -1.81139e-06
1.93296e-05 -1.81139e-06 0.000261236
0.00118073 6.06089e-06 -6.34384e-06
6.06089e-06 0.000203285 4.17467e-07
-6.34384e-06 4.17467e-07 0.00016536
0.00434913 4.03836e-05 6.4787e-05
4.03836e-05 0.00185337 -5.80891e-07
6.4787e-05 -5.80891e-07 0.00184598
0.00146723 9.18662e-06 5.64876e-05
9.18662e-06 0.000383813 -3.68366e-06
5.64876e-05 -3.68366e-06 0.000363133
0.00128271 1.23112e-05 4.88601e-05
1.23112e-05 0.00030441 -5.47324e-06
4.88601e-05 -5.47324e-06 0.000283604
0.00133581 7.86276e-06 8.9829e-06
7.86276e-06 0.000248603 -3.1105e-06
8.9829e-06 -3.1105e-06 0.000205254
0.00118255 4.43517e-06 8.10143e-06
4.43517e-06 0.000199376 -2.98411e-06
8.10143e-06 -2.98411e-06 0.000158805
0.00114535 3.64782e-05 2.99338e-05
3.64782e-05 0.000195555 -6.43427e-06
2.99338e-05 -6.43427e-06 0.000186771
0.00105593 1.42796e-05 7.04532e-06
1.42796e-05 0.000147365 -2.67515e-06
7.04532e-06 -2.67515e-06 0.000112287
0.00143884 -4.71285e-05 2.63545e-06
-4.71285e-05 0.000265232 -1.04645e-06
2.63545e-06 -1.04645e-06 0.000202523
0.00289267 -6.75075e-05 -3.22056e-05
-6.75075e-05 0.00109481 -3.38512e-06
-3.22056e-05 -3.38512e-06 0.00109626
0.00227161 -5.99183e-05 -1.76212e-05
-5.99183e-05 0.000821318 -5.10498e-07
-1.76212e-05 -5.10498e-07 0.000804773
0.00205873 -5.7896e-05 -1.36184e-05
-5.7896e-05 0.000688035 -7.91804e-07
-1.36184e-05 -7.91804e-07 0.000678586
0.00275931 -6.15673e-05 4.06183e-07
-6.15673e-05 0.00101663 -9.25338e-08
4.06183e-07 -9.25338e-08 0.00102103
0.000720318 -1.45611e-05 4.40983e-09
-1.45611e-05 -3.16359e-05 -6.39459e-08
4.40983e-09 -6.39459e-08 -6.5086e-05
0.00153223 -1.05816e-05 4.76311e-05
-1.05816e-05 0.000435523 3.19307e-06
4.76311e-05 3.19307e-06 0.000413702
0.00136433 -2.52539e-05 3.94577e-05
-2.52539e-05 0.000343783 3.45612e-06
3.94577e-05 3.45612e-06 0.000325816
0.00191759 1.9679e-05 2.46089e-05
1.9679e-05 0.000570323 3.11823e-06
2.46089e-05 3.11823e-06 0.00053401
0.00263325 -6.27314e-05 1.12464e-05
-6.27314e-05 0.00094151 1.48127e-06
1.12464e-05 1.48127e-06 0.000948642
0.00172324 -8.01964e-06 1.87091e-05
-8.01964e-06 0.000480984 2.72192e-06
1.87091e-05 2.72192e-06 0.000450423
0.000749669 -2.68666e-05 6.62283e-06
-2.68666e-05 -2.21566e-05 5.3308e-06
6.62283e-06 5.3308e-06 -5.14709e-05
0.000903662 2.84225e-05 3.03874e-06
2.84225e-05 3.24588e-05 1.05755e-06
3.03874e-06 1.05755e-06 -3.04418e-05
0.00257194 -4.66242e-05 2.75129e-05
-4.66242e-05 0.000893541 3.85492e-06
2.75129e-05 3.85492e-06 0.000905462
0.00445416 -3.95698e-05 1.71336e-06
-3.95698e-05 0.00190447 -2.36386e-07
1.71336e-06 -2.36386e-07 0.00189692
0.00270792 -4.04351e-05 -2.45428e-05
-4.04351e-05 0.00102899 -2.13779e-07
-2.45428e-05 -2.13779e-07 0.00101317
0.00467199 -2.89334e-05 7.2004e-05
-2.89334e-05 0.00200694 1.28637e-07
7.2004e-05 1.28637e-07 0.00199949
0.00137135 -2.22801e-05 9.72977e-06
-2.22801e-05 0.000338511 8.97234e-07
9.72977e-06 8.97234e-07 0.000315811
0.000784068 -9.84829e-06 1.21512e-05
-9.84829e-06 -7.37282e-05 2.00883e-06
1.21512e-05 2.00883e-06 -0.000120625
0.00382916 -0.000105038 8.79851e-06
-0.000105038 0.00161999 1.03847e-06
8.79851e-06 1.03847e-06 0.00160575
0.00213712 -1.0869e-05 3.27914e-05
-1.0869e-05 0.000644058 2.80832e-06
3.27914e-05 2.80832e-06 0.00060842
0.00137704 4.37419e-05 -7.03996e-06
4.37419e-05 0.000356939 1.94531e-06
-7.03996e-06 1.94531e-06 0.00033186
0.00125059 5.25132e-05 -6.24959e-06
5.25132e-05 0.000298444 2.06755e-06
-6.24959e-06 2.06755e-06 0.000274388
0.00109641 4.68583e-05 -7.17577e-06
4.68583e-05 0.000192697 1.77052e-06
-7.17577e-06 1.77052e-06 0.000177362
0.00124049 2.89269e-06 -2.12564e-05
2.89269e-06 0.000231168 3.58826e-06
-2.12564e-05 3.58826e-06 0.000194062
0.00293642 3.59112e-05 -2.5924e-05
3.59112e-05 0.00112915 -8.68723e-07
-2.5924e-05 -8.68723e-07 0.00111348
0.00141908 2.58443e-05 2.48226e-05
2.58443e-05 0.000363947 -1.13112e-06
2.48226e-05 -1.13112e-06 0.000341601
0.00109501 4.03061e-05 1.18197e-05
4.03061e-05 0.000171285 -2.31332e-06
1.18197e-05 -2.31332e-06 0.000162444
0.00129317 3.23085e-05 2.20061e-05
3.23085e-05 0.000315665 -1.6103e-06
2.20061e-05 -1.6103e-06 0.000292561
0.00139727 -4.09568e-06 -9.14795e-06
-4.09568e-06 0.000276137 9.88723e-08
-9.14795e-06 9.88723e-08 0.000234593
0.00111367 1.42041e-05 -5.10018e-06
1.42041e-05 0.000174908 4.6461e-07
-5.10018e-06 4.6461e-07 0.000140309
0.00124751 8.69074e-07 -7.79431e-06
8.69074e-07 0.000229071 3.51863e-07
-7.79431e-06 3.51863e-07 0.000189484
0.00151997 -5.05284e-05 -1.52637e-06
-5.05284e-05 0.000303736 5.68515e-07
-1.52637e-06 5.68515e-07 0.000240428
0.0045068 4.33792e-05 6.51132e-05
4.33792e-05 0.00192856 5.25885e-08
6.51132e-05 5.25885e-08 0.00192072
0.00150694 1.23273e-05 5.91119e-05
1.23273e-05 0.000399811 -2.71866e-06
5.91119e-05 -2.71866e-06 0.000379132
0.00211829 2.36004e-05 1.05149e-05
2.36004e-05 0.000616065 -1.09815e-06
1.05149e-05 -1.09815e-06 0.000577053
0.00140153 4.28302e-06 1.13887e-05
4.28302e-06 0.000266566 -2.36979e-06
1.13887e-05 -2.36979e-06 0.000224396
0.00124676 4.16074e-06 8.43434e-06
4.16074e-06 0.000220402 -3.2692e-06
8.43434e-06 -3.2692e-06 0.00017825
0.00177212 -4.86073e-05 3.99871e-06
-4.86073e-05 0.000342297 -1.72782e-06
3.99871e-06 -1.72782e-06 0.00027402
0.00120361 -4.45577e-05 3.54895e-06
-4.45577e-05 0.000117386 -1.69501e-06
3.54895e-06 -1.69501e-06 5.23172e-05
0.00121313 3.6101e-05 2.89239e-05
3.6101e-05 0.000211635 -6.29886e-06
2.89239e-05 -6.29886e-06 0.000208441
0.00103037 3.92636e-05 4.89193e-06
3.92636e-05 0.000135866 -2.74595e-06
4.89193e-06 -2.74595e-06 0.000105251
0.00130919 -3.61531e-05 2.21593e-06
-3.61531e-05 0.000228244 -9.53234e-07
2.21593e-06 -9.53234e-07 0.000167446
0.00112583 -6.18163e-05 2.05332e-06
-6.18163e-05 5.60592e-05 -8.33184e-07
2.05332e-06 -8.33184e-07 -2.19004e-05
0.0033293 -8.00874e-05 -3.90502e-05
-8.00874e-05 0.00136144 -2.67969e-06
-3.90502e-05 -2.67969e-06 0.00135213
0.00279098 -6.23732e-05 -3.04353e-05
-6.23732e-05 0.0010293 -3.46678e-06
-3.04353e-05 -3.46678e-06 0.00103451
0.00299109 -7.18728e-05 -3.4357e-05
-7.18728e-05 0.00116222 -3.16935e-06
-3.4357e-05 -3.16935e-06 0.00115967
0.000676834 -1.70137e-05 -4.78008e-06
-1.70137e-05 -5.07172e-05 -3.93949e-06
-4.78008e-06 -3.93949e-06 -8.42194e-05
0.00378063 -7.47612e-05 6.75151e-07
-7.47612e-05 0.00159177 -1.72828e-07
6.75151e-07 -1.72828e-07 0.00158075
0.0032282 -7.48506e-05 1.19605e-06
-7.48506e-05 0.00130326 -1.49801e-07
1.19605e-06 -1.49801e-07 0.00129601
0.000681774 2.84629e-05 -8.96621e-08
2.84629e-05 -5.76834e-05 -1.61069e-07
-8.96621e-08 -1.61069e-07 -0.000101058
0.0018684 -4.74879e-05 -1.141e-05
-4.74879e-05 0.000546694 -9.78083e-07
-1.141e-05 -9.78083e-07 0.000550126
0.000719952 2.40716e-06 -9.90548e-08
2.40716e-06 -3.00113e-05 -6.28909e-08
-9.90548e-08 -6.28909e-08 -6.67376e-05
0.00115286 -3.84082e-05 6.34033e-06
-3.84082e-05 0.000186257 5.08594e-07
6.34033e-06 5.08594e-07 0.000159723
0.000881217 2.50257e-05 1.22765e-07
2.50257e-05 2.12343e-05 -2.37726e-07
1.22765e-07 -2.37726e-07 -4.16989e-05
0.0026229 -5.14776e-05 2.88346e-05
-5.14776e-05 0.00092709 3.7154e-06
2.88346e-05 3.7154e-06 0.000937032
0.000790033 -3.33493e-05 3.766e-06
-3.33493e-05 -2.86003e-05 3.8839e-06
3.766e-06 3.8839e-06 -4.5132e-05
0.000780158 3.59342e-05 1.06453e-05
3.59342e-05 -2.52756e-05 4.89024e-06
1.06453e-05 4.89024e-06 -6.98679e-05
0.000769037 1.90567e-05 8.78339e-06
1.90567e-05 -9.63253e-06 5.05158e-06
8.78339e-06 5.05158e-06 -5.06879e-05
0.00101611 4.71625e-05 3.81645e-06
4.71625e-05 2.36019e-05 1.64949e-06
3.81645e-06 1.64949e-06 -4.3988e-05
0.0015719 -5.15655e-05 1.33754e-05
-5.15655e-05 0.000394102 3.45429e-06
1.33754e-05 3.45429e-06 0.000374039
0.000941113 3.99555e-05 3.00832e-06
3.99555e-05 3.86405e-05 1.19325e-06
3.00832e-06 1.19325e-06 -2.42591e-05
0.000899394 1.60578e-05 2.77233e-06
1.60578e-05 3.66143e-05 1.69214e-06
2.77233e-06 1.69214e-06 -2.53003e-05
0.000928637 5.58814e-05 1.61869e-06
5.58814e-05 1.70264e-05 -3.80924e-08
1.61869e-06 -3.80924e-08 -5.81155e-05
0.00249188 -4.17967e-05 2.55926e-05
-4.17967e-05 0.000845736 3.95899e-06
2.55926e-05 3.95899e-06 0.00085966
0.00257344 -4.67278e-05 4.01588e-07
-4.67278e-05 0.000893457 -8.8506e-08
4.01588e-07 -8.8506e-08 0.000905597
0.00398985 -4.91398e-05 -5.39696e-05
-4.91398e-05 0.00168691 -1.63111e-06
-5.39696e-05 -1.63111e-06 0.00167845
0.00434347 -3.78817e-05 -6.21474e-05
-3.78817e-05 0.00185185 -6.00611e-07
-6.21474e-05 -6.00611e-07 0.00184431
0.00461919 -1.86348e-05 3.05495e-06
-1.86348e-05 0.00198188 -3.22004e-07
3.05495e-06 -3.22004e-07 0.00197455
0.00281122 -3.35939e-05 -2.5789e-05
-3.35939e-05 0.00107334 -1.69452e-07
-2.5789e-05 -1.69452e-07 0.00105784
0.00149286 -6.73992e-07 1.44356e-05
-6.73992e-07 0.0002913 3.85217e-10
1.44356e-05 3.85217e-10 0.000249205
0.00254911 -5.24267e-05 -2.35921e-05
-5.24267e-05 0.000957974 -2.29266e-07
-2.35921e-05 -2.29266e-07 0.000940739
0.00136957 9.20353e-06 1.19793e-05
9.20353e-06 0.000254262 5.5343e-08
1.19793e-05 5.5343e-08 0.000214796
0.00468563 3.94679e-05 6.64642e-05
3.94679e-05 0.00201325 8.12395e-07
6.64642e-05 8.12395e-07 0.00200539
0.000770764 -1.22299e-06 1.03156e-05
-1.22299e-06 -9.31531e-05 5.41409e-07
1.03156e-05 5.41409e-07 -0.000141714
0.00217435 -2.9088e-05 3.50544e-05
-2.9088e-05 0.000652901 2.07722e-06
3.50544e-05 2.07722e-06 0.00061605
0.00121281 5.86285e-06 6.02986e-06
5.86285e-06 3.13712e-06 1.47348e-06
6.02986e-06 1.47348e-06 -7.18838e-05
0.00203757 2.26605e-05 2.9391e-05
2.26605e-05 0.000607161 2.76662e-06
2.9391e-05 2.76662e-06 0.000570877
0.00116315 2.94332e-05 5.56295e-06
2.94332e-05 1.57576e-05 1.57354e-06
5.56295e-06 1.57354e-06 -5.6725e-05
0.00160091 1.60822e-05 -6.30497e-05
1.60822e-05 0.000440404 5.6555e-07
-6.30497e-05 5.6555e-07 0.000419289
0.0013758 2.89854e-05 -9.49137e-06
2.89854e-05 0.000345573 1.49013e-06
-9.49137e-06 1.49013e-06 0.000322291
0.00101937 4.41937e-05 -6.95095e-06
4.41937e-05 0.000134293 1.64414e-06
-6.95095e-06 1.64414e-06 0.000125409
0.00132374 5.59798e-05 -5.15101e-06
5.59798e-05 0.000338244 2.16273e-06
-5.15101e-06 2.16273e-06 0.000312304
0.00143784 -8.32155e-06 -2.8883e-05
-8.32155e-06 0.000293809 3.31263e-06
-2.8883e-05 3.31263e-06 0.000253503
0.00129563 -4.51244e-06 -2.39019e-05
-4.51244e-06 0.00024985 3.58351e-06
-2.39019e-05 3.58351e-06 0.00021148
0.00118676 1.30694e-05 -1.81527e-05
1.30694e-05 0.000210111 3.5752e-06
-1.81527e-05 3.5752e-06 0.000176061
0.00160695 -5.37659e-05 -5.78899e-06
-5.37659e-05 0.000345093 2.24092e-06
-5.78899e-06 2.24092e-06 0.000281193
0.0045815 5.37998e-05 -2.87508e-06
5.37998e-05 0.00196472 -3.32803e-07
-2.87508e-06 -3.32803e-07 0.00195652
0.00143828 2.29334e-05 2.53701e-05
2.29334e-05 0.000368206 -7.73807e-07
2.53701e-05 -7.73807e-07 0.000346424
0.00112521 1.30419e-05 -1.57524e-05
1.30419e-05 0.000104274 2.27235e-07
-1.57524e-05 2.27235e-07 6.0098e-05
0.00144763 -2.71487e-06 -9.10182e-06
-2.71487e-06 0.000287403 7.1883e-08
-9.10182e-06 7.1883e-08 0.000246381
0.00195591 4.85918e-05 2.09151e-05
4.85918e-05 0.000596848 -1.87271e-06
2.09151e-05 -1.87271e-06 0.000598
0.00130264 3.17579e-05 -4.13661e-06
3.17579e-05 0.000271463 4.4131e-07
-4.13661e-06 4.4131e-07 0.000242924
0.00131793 -1.68768e-06 -8.94855e-06
-1.68768e-06 0.000253096 2.08321e-07
-8.94855e-06 2.08321e-07 0.000212168
0.00161085 -4.51787e-05 -2.59258e-06
-4.51787e-05 0.000259272 5.38318e-07
-2.59258e-06 5.38318e-07 0.000190086
0.00143551 -4.18336e-05 -1.24736e-06
-4.18336e-05 0.000289057 6.43778e-07
-1.24736e-06 6.43778e-07 0.000227458
0.0014022 -4.9204e-05 -6.67474e-07
-4.9204e-05 0.000217331 1.34646e-07
-6.67474e-07 1.34646e-07 0.000152761
0.00112231 -6.13504e-05 -7.70814e-09
-6.13504e-05 5.45467e-05 -3.75484e-08
-7.70814e-09 -3.75484e-08 -2.32968e-05
0.000753569 3.85649e-06 1.01499e-05
3.85649e-06 -9.66954e-05 -1.56523e-06
1.01499e-05 -1.56523e-06 -0.000145019
0.00142355 9.22498e-06 1.2062e-05
9.22498e-06 0.000270245 -1.76894e-06
1.2062e-05 -1.76894e-06 0.00022876
0.00156564 7.92416e-06 5.41947e-06
7.92416e-06 0.000186386 -1.00117e-06
5.41947e-06 -1.00117e-06 0.000114781
0.00146878 -3.28388e-05 5.25127e-06
-3.28388e-05 0.000165112 -1.41663e-06
5.25127e-06 -1.41663e-06 9.538e-05
0.0013419 -4.71139e-05 4.16455e-06
-4.71139e-05 0.000155088 -2.08085e-06
4.16455e-06 -2.08085e-06 8.74677e-05
0.00169945 -5.78909e-05 1.78857e-06
-5.78909e-05 0.000238888 -6.35148e-07
1.78857e-06 -6.35148e-07 0.000156429
0.00275946 5.71308e-05 2.97009e-05
5.71308e-05 0.000999691 -3.49683e-06
2.97009e-05 -3.49683e-06 0.00100805
0.00113972 -5.85331e-05 1.92107e-06
-5.85331e-05 3.43279e-05 -7.10594e-07
1.92107e-06 -7.10594e-07 -4.32951e-05
0.000719307 4.48428e-05 3.44978e-06
4.48428e-05 -3.80197e-05 -3.7046e-06
3.44978e-06 -3.7046e-06 -6.58951e-05
0.000762403 -2.15027e-05 2.29728e-06
-2.15027e-05 -3.20355e-05 -1.31697e-06
2.29728e-06 -1.31697e-06 -9.2927e-05
0.00118696 -6.60715e-05 2.00367e-06
-6.60715e-05 0.000119125 -1.24636e-06
2.00367e-06 -1.24636e-06 4.02694e-05
0.00122286 -7.00385e-05 1.29746e-06
-7.00385e-05 7.30233e-05 -3.23238e-07
1.29746e-06 -3.23238e-07 -1.03824e-05
0.000719343 3.50676e-05 4.13507e-06
3.50676e-05 -5.90988e-05 -3.90575e-06
4.13507e-06 -3.90575e-06 -7.85528e-05
0.000900597 7.02257e-06 2.06147e-06
7.02257e-06 1.66956e-05 -2.51118e-06
2.06147e-06 -2.51118e-06 -3.21879e-05
0.00358593 -7.96742e-05 -4.30426e-05
-7.96742e-05 0.00149439 -2.52391e-06
-4.30426e-05 -2.52391e-06 0.00148348
0.00310893 -7.70179e-05 -3.55002e-05
-7.70179e-05 0.00123919 -2.89429e-06
-3.55002e-05 -2.89429e-06 0.00123281
0.000651837 2.39192e-05 -6.72199e-06
2.39192e-05 -6.92611e-05 -4.00318e-06
-6.72199e-06 -4.00318e-06 -0.000112855
0.00272149 -5.69597e-05 -2.9563e-05
-5.69597e-05 0.00098344 -3.55298e-06
-2.9563e-05 -3.55298e-06 0.000991567
0.000650805 -4.31374e-05 -3.34689e-06
-4.31374e-05 -6.88521e-05 -4.12091e-06
-3.34689e-06 -4.12091e-06 -9.83947e-05
0.000653598 1.41228e-06 -6.11971e-06
1.41228e-06 -5.82634e-05 -3.55979e-06
-6.11971e-06 -3.55979e-06 -9.56548e-05
0.000853398 2.54079e-05 -2.78928e-06
2.54079e-05 6.65119e-06 -1.38735e-06
-2.78928e-06 -1.38735e-06 -5.59783e-05
0.00264218 -5.16339e-05 3.50898e-07
-5.16339e-05 0.000935847 -9.97698e-08
3.50898e-07 -9.97698e-08 0.000945978
0.000772546 -3.19121e-05 1.55584e-07
-3.19121e-05 -3.84403e-05 3.36402e-09
1.55584e-07 3.36402e-09 -5.45759e-05
0.00129404 2.96168e-05 1.02304e-05
2.96168e-05 0.000241097 1.38316e-08
1.02304e-05 1.38316e-08 0.00020059
0.001204 8.99432e-06 7.81231e-06
8.99432e-06 0.000218023 2.72703e-07
7.81231e-06 2.72703e-07 0.000180592
0.000997128 4.7256e-05 1.90322e-07
4.7256e-05 1.42375e-05 -3.1267e-09
1.90322e-07 -3.1267e-09 -5.32114e-05
0.000757312 -4.17802e-05 -2.02003e-08
-4.17802e-05 -2.62373e-05 1.79663e-08
-2.02003e-08 1.79663e-08 -5.00769e-05
0.00090742 3.83323e-05 -5.02571e-08
3.83323e-05 2.17047e-05 1.13113e-07
-5.02571e-08 1.13113e-07 -4.10393e-05
0.000868366 1.37586e-05 3.48157e-08
1.37586e-05 2.19568e-05 -2.07694e-07
3.48157e-08 -2.07694e-07 -3.98955e-05
0.000892502 5.48439e-05 -5.32591e-08
5.48439e-05 -2.06358e-06 -1.49546e-07
-5.32591e-08 -1.49546e-07 -7.73517e-05
0.000771578 -3.80522e-05 3.77693e-06
-3.80522e-05 -2.84514e-05 3.83559e-06
3.77693e-06 3.83559e-06 -4.85776e-05
0.000811403 -2.86652e-05 3.56458e-06
-2.86652e-05 -2.57522e-05 3.84211e-06
3.56458e-06 3.84211e-06 -3.86692e-05
0.000870789 -3.74049e-07 2.77216e-06
-3.74049e-07 1.83676e-06 2.09803e-06
2.77216e-06 2.09803e-06 -4.68861e-05
0.00105985 4.3426e-05 4.36258e-06
4.3426e-05 1.25597e-05 1.71515e-06
4.36258e-06 1.71515e-06 -5.70887e-05
0.000981426 4.6367e-05 3.31454e-06
4.6367e-05 3.84625e-05 1.54407e-06
3.31454e-06 1.54407e-06 -2.65422e-05
0.00118012 6.31708e-05 2.15538e-06
6.31708e-05 5.75227e-05 1.00098e-06
2.15538e-06 1.00098e-06 -2.31194e-05
0.000898494 1.01908e-05 2.73261e-06
1.01908e-05 2.94822e-05 1.90652e-06
2.73261e-06 1.90652e-06 -2.8119e-05
0.000948485 5.87285e-05 1.29632e-06
5.87285e-05 6.76996e-06 2.98797e-07
1.29632e-06 2.98797e-07 -6.75201e-05
0.0010454 5.47355e-05 1.68486e-06
5.47355e-05 9.288e-05 3.74519e-07
1.68486e-06 3.74519e-07 1.62624e-05
0.00107034 6.86657e-05 -7.14501e-08
6.86657e-05 8.15873e-05 -6.32763e-07
-7.14501e-08 -6.32763e-07 -6.95429e-08
0.00240709 -3.718e-05 2.33168e-05
-3.718e-05 0.000795632 3.99248e-06
2.33168e-05 3.99248e-06 0.000811549
0.00248676 -4.19495e-05 4.53919e-07
-4.19495e-05 0.000842265 -7.51609e-08
4.53919e-07 -7.51609e-08 0.000856436
0.0025739 -4.68798e-05 -2.62897e-05
-4.68798e-05 0.000892799 -3.79216e-06
-2.62897e-05 -3.79216e-06 0.000905164
0.000754444 3.03306e-05 3.67902e-06
3.03306e-05 -4.89613e-05 -3.84353e-06
3.67902e-06 -3.84353e-06 -6.45195e-05
0.00269134 5.20167e-05 2.81982e-05
5.20167e-05 0.000957841 -3.63658e-06
2.81982e-05 -3.63658e-06 0.000968281
0.00380813 -6.20619e-05 -4.89112e-05
-6.20619e-05 0.00160188 -2.11829e-06
-4.89112e-05 -2.11829e-06 0.00159222
0.00415555 -4.23709e-05 -5.8126e-05
-4.23709e-05 0.00176385 -1.11557e-06
-5.8126e-05 -1.11557e-06 0.00175607
0.000686815 2.02744e-05 -8.81017e-06
2.02744e-05 -9.53908e-05 -2.92846e-06
-8.81017e-06 -2.92846e-06 -0.000138351
0.00072838 1.30704e-05 -9.74e-06
1.30704e-05 -9.86721e-05 -1.71748e-06
-9.74e-06 -1.71748e-06 -0.000144705
0.00455785 -2.0738e-05 -6.52169e-05
-2.0738e-05 0.00195259 -9.71275e-08
-6.52169e-05 -9.71275e-08 0.0019453
0.00469582 1.80167e-05 -1.01488e-06
1.80167e-05 0.00201809 3.38103e-07
-1.01488e-06 3.38103e-07 0.0020106
0.000759614 4.21097e-07 7.15376e-08
4.21097e-07 -9.79452e-05 -2.22849e-07
7.15376e-08 -2.22849e-07 -0.000146436
0.0014339 -4.04933e-06 1.31964e-05
-4.04933e-06 0.000275731 9.11049e-08
1.31964e-05 9.11049e-08 0.00023561
0.00121199 9.14336e-06 1.04663e-07
9.14336e-06 3.08672e-06 2.24867e-08
1.04663e-07 2.24867e-08 -7.19476e-05
0.000670266 2.71381e-05 -6.3594e-08
2.71381e-05 -9.05359e-05 -7.75643e-08
-6.3594e-08 -7.75643e-08 -0.000133978
0.00116523 3.04193e-05 9.8547e-08
3.04193e-05 1.76221e-05 -1.45727e-07
9.8547e-08 -1.45727e-07 -5.49573e-05
0.000751399 -2.3979e-06 1.04467e-05
-2.3979e-06 -0.000107001 -7.04293e-07
1.04467e-05 -7.04293e-07 -0.000156644
0.00125287 2.09113e-06 6.21933e-06
2.09113e-06 3.15105e-06 8.24703e-07
6.21933e-06 8.24703e-07 -7.4711e-05
0.00119074 1.78185e-05 5.83838e-06
1.78185e-05 1.11759e-05 1.45511e-06
5.83838e-06 1.45511e-06 -6.1975e-05
0.00142867 6.67115e-06 2.89371e-06
6.67115e-06 4.51263e-05 1.06274e-06
2.89371e-06 1.06274e-06 -4.16388e-05
0.00111521 3.71107e-05 4.96848e-06
3.71107e-05 1.33614e-05 1.79505e-06
4.96848e-06 1.79505e-06 -5.79975e-05
0.0013622 3.37689e-05 2.56302e-06
3.37689e-05 5.27887e-05 5.27344e-07
2.56302e-06 5.27344e-07 -3.05575e-05
0.0046412 4.64871e-05 -7.31158e-05
4.64871e-05 0.00199257 -5.31396e-07
-7.31158e-05 -5.31396e-07 0.00198477
0.00135322 2.24477e-05 -1.00372e-05
2.24477e-05 0.000327557 1.01673e-06
-1.00372e-05 1.01673e-06 0.000305202
0.000116632 2.96105e-06 -1.14023e-05
2.96105e-06 -0.000414193 2.303e-06
-1.14023e-05 2.303e-06 -0.000464606
0.00149127 -3.35789e-06 -3.07625e-05
-3.35789e-06 0.000307528 2.58062e-06
-3.07625e-05 2.58062e-06 0.000267253
0.00267538 6.77545e-05 -1.15222e-05
6.77545e-05 0.000971278 1.3908e-06
-1.15222e-05 1.3908e-06 0.000975882
0.00159428 3.49697e-05 -1.60262e-05
3.49697e-05 0.000417531 3.58182e-06
-1.60262e-05 3.58182e-06 0.000390742
0.0013621 -8.95872e-06 -2.63775e-05
-8.95872e-06 0.00027139 3.58776e-06
-2.63775e-05 3.58776e-06 0.000232021
0.00145541 -4.23155e-05 -8.74065e-06
-4.23155e-05 0.000179278 2.74658e-06
-8.74065e-06 2.74658e-06 0.000109151
0.00161689 -5.38591e-05 -5.2742e-06
-5.38591e-05 0.000325479 1.94708e-06
-5.2742e-06 1.94708e-06 0.000261375
0.00155676 -4.71148e-05 -5.22172e-06
-4.71148e-05 0.00034741 2.32135e-06
-5.22172e-06 2.32135e-06 0.000284999
0.00112006 -6.09706e-05 -1.73029e-06
-6.09706e-05 5.36547e-05 6.64978e-07
-1.73029e-06 6.64978e-07 -2.40775e-05
0.000766505 5.07936e-06 -1.7167e-07
5.07936e-06 -9.11868e-05 -2.11284e-07
-1.7167e-07 -2.11284e-07 -0.000139578
0.00146659 5.99176e-06 -9.57075e-06
5.99176e-06 0.00028989 5.49588e-08
-9.57075e-06 5.49588e-08 0.000249267
0.00123617 6.32481e-06 -1.66244e-06
6.32481e-06 1.85347e-05 9.01943e-08
-1.66244e-06 9.01943e-08 -5.49771e-05
0.00165577 -3.44903e-05 -1.45458e-06
-3.44903e-05 0.000260038 1.26516e-07
-1.45458e-06 1.26516e-07 0.000190893
0.00271844 5.67511e-05 -3.1767e-07
5.67511e-05 0.00098049 -1.02992e-07
-3.1767e-07 -1.02992e-07 0.000988587
0.00115251 4.7818e-05 1.17134e-06
4.7818e-05 0.000184284 8.38608e-08
1.17134e-06 8.38608e-08 0.000158631
0.00111158 -2.16615e-05 1.20448e-07
-2.16615e-05 0.00014305 -4.39223e-08
1.20448e-07 -4.39223e-08 8.29017e-05
0.00134263 -4.67778e-05 -1.07993e-06
-4.67778e-05 0.000156029 1.18907e-07
-1.07993e-06 1.18907e-07 8.85358e-05
0.00142473 -5.34286e-05 -1.08935e-06
-5.34286e-05 9.87545e-05 4.53797e-07
-1.08935e-06 4.53797e-07 1.52998e-05
0.00101656 -6.09806e-05 -2.3127e-07
-6.09806e-05 3.56001e-05 -1.43724e-07
-2.3127e-07 -1.43724e-07 -4.33444e-05
0.00133153 -6.17786e-05 8.82639e-08
-6.17786e-05 0.000129397 1.06978e-07
8.82639e-08 1.06978e-07 5.22367e-05
0.00121255 -6.95145e-05 1.2018e-07
-6.95145e-05 6.83529e-05 1.98497e-08
1.2018e-07 1.98497e-08 -1.48887e-05
0.000740857 3.69456e-05 -1.36698e-07
3.69456e-05 -4.64525e-05 -9.44193e-09
-1.36698e-07 -9.44193e-09 -6.64122e-05
0.000882708 5.39025e-06 -3.11618e-07
5.39025e-06 7.28364e-06 -5.0307e-09
-3.11618e-07 -5.0307e-09 -4.15523e-05
0.0012404 3.49966e-06 5.94381e-06
3.49966e-06 -8.76153e-08 -1.10689e-06
5.94381e-06 -1.10689e-06 -7.69422e-05
0.0015018 -7.83846e-06 5.3319e-06
-7.83846e-06 0.000168796 -1.10537e-06
5.3319e-06 -1.10537e-06 9.94175e-05
0.00177871 3.23581e-06 2.21135e-06
3.23581e-06 0.000226744 -2.75681e-07
2.21135e-06 -2.75681e-07 0.000143279
0.00119587 -3.62567e-05 3.5127e-06
-3.62567e-05 -4.57193e-05 -8.0331e-07
3.5127e-06 -8.0331e-07 -0.000130123
0.00133418 -5.94605e-05 1.67018e-06
-5.94605e-05 0.000100222 -9.61394e-07
1.67018e-06 -9.61394e-07 2.11568e-05
0.00166484 -5.7712e-05 7.01606e-07
-5.7712e-05 0.000181711 -2.5224e-07
7.01606e-07 -2.5224e-07 9.6263e-05
0.0006739 4.01202e-05 3.84374e-06
4.01202e-05 -7.15218e-05 -3.8269e-06
3.84374e-06 -3.8269e-06 -9.5071e-05
0.0012705 -6.59921e-05 8.56047e-07
-6.59921e-05 6.22151e-05 -3.85084e-07
8.56047e-07 -3.85084e-07 -1.95594e-05
0.000810672 -6.81124e-06 2.31204e-06
-6.81124e-06 -7.52301e-06 -1.26413e-06
2.31204e-06 -1.26413e-06 -6.7034e-05
0.00073658 -5.04722e-05 1.68819e-06
-5.04722e-05 -7.53382e-05 -1.42501e-06
1.68819e-06 -1.42501e-06 -0.000151665
0.00156916 -8.50915e-05 8.84605e-07
-8.50915e-05 0.000286181 -6.65285e-07
8.84605e-07 -6.65285e-07 0.000199633
0.00140015 -7.67958e-05 4.01204e-07
-7.67958e-05 0.000139263 6.57428e-07
4.01204e-07 6.57428e-07 5.59265e-05
0.000901314 -4.30117e-06 2.87375e-06
-4.30117e-06 2.2741e-05 -2.11735e-06
2.87375e-06 -2.11735e-06 -3.14688e-05
0.000890234 1.57489e-05 1.36898e-06
1.57489e-05 8.05134e-06 -2.31192e-06
1.36898e-06 -2.31192e-06 -3.45316e-05
0.000963573 -2.69929e-05 1.16192e-06
-2.69929e-05 4.56544e-05 -1.015e-06
1.16192e-06 -1.015e-06 -2.43877e-05
0.000660863 3.17109e-05 -7.67132e-06
3.17109e-05 -7.98127e-05 -3.90332e-06
-7.67132e-06 -3.90332e-06 -0.000124088
0.00265742 -5.18208e-05 -2.82499e-05
-5.18208e-05 0.000942568 -3.68813e-06
-2.82499e-05 -3.68813e-06 0.000952891
0.000758362 -3.0564e-05 -3.95009e-06
-3.0564e-05 -4.65743e-05 -3.86169e-06
-3.95009e-06 -3.86169e-06 -6.23353e-05
0.000639486 1.17653e-05 -6.125e-06
1.17653e-05 -6.56313e-05 -3.71391e-06
-6.125e-06 -3.71391e-06 -0.000106565
0.000983082 4.75385e-05 -3.67721e-06
4.75385e-05 7.42586e-06 -1.80427e-06
-3.67721e-06 -1.80427e-06 -5.99071e-05
0.000670558 -3.96047e-05 -3.97282e-06
-3.96047e-05 -7.04705e-05 -3.95648e-06
-3.97282e-06 -3.95648e-06 -9.41311e-05
0.000827061 7.99202e-06 -2.3141e-06
7.99202e-06 2.56923e-06 -1.92279e-06
-2.3141e-06 -1.92279e-06 -5.94878e-05
0.00087936 3.63858e-05 -2.86864e-06
3.63858e-05 7.57178e-06 -9.08783e-07
-2.86864e-06 -9.08783e-07 -5.50159e-05
0.000854643 5.37704e-05 -1.85963e-06
5.37704e-05 -2.20568e-05 -2.66204e-07
-1.85963e-06 -2.66204e-07 -9.74845e-05
0.000747251 -3.6783e-05 1.0694e-07
-3.6783e-05 -4.20016e-05 -5.73012e-09
1.0694e-07 -5.73012e-09 -6.17382e-05
0.00079367 -2.76515e-05 1.26141e-07
-2.76515e-05 -3.51144e-05 3.62525e-08
1.26141e-07 3.62525e-08 -4.77457e-05
0.000880096 -5.53512e-06 1.25415e-07
-5.53512e-06 6.57888e-06 1.06441e-08
1.25415e-07 1.06441e-08 -4.1933e-05
0.00106259 4.41531e-05 2.38742e-07
4.41531e-05 1.42895e-05 -1.32592e-08
2.38742e-07 -1.32592e-08 -5.53158e-05
0.000942552 4.5033e-05 9.83843e-08
4.5033e-05 1.91878e-05 9.87476e-08
9.83843e-08 9.87476e-08 -4.55811e-05
0.00117137 6.335e-05 1.42472e-07
6.335e-05 5.36285e-05 4.77409e-08
1.42472e-07 4.77409e-08 -2.7067e-05
0.000878753 8.0203e-06 -2.38943e-07
8.0203e-06 2.19094e-05 1.52419e-08
-2.38943e-07 1.52419e-08 -3.59487e-05
0.00103824 6.15938e-05 -5.22493e-08
6.15938e-05 5.26408e-05 -7.59615e-08
-5.22493e-08 -7.59615e-08 -2.13864e-05
0.00102026 5.4113e-05 1.44772e-07
5.4113e-05 8.04253e-05 -2.19725e-07
1.44772e-07 -2.19725e-07 3.79883e-06
0.000977974 6.6217e-05 -5.63632e-07
6.6217e-05 3.48527e-05 2.35855e-07
-5.63632e-07 2.35855e-07 -4.71934e-05
0.000827319 -2.48661e-05 3.18839e-06
-2.48661e-05 -2.42639e-05 3.69398e-06
3.18839e-06 3.69398e-06 -3.38628e-05
0.000879675 4.40612e-06 2.9245e-06
4.40612e-06 1.05198e-05 1.77615e-06
2.9245e-06 1.77615e-06 -4.24052e-05
0.000869246 -9.10007e-06 2.1166e-06
-9.10007e-06 -2.06953e-06 2.34242e-06
2.1166e-06 2.34242e-06 -4.55086e-05
0.000990295 1.91119e-05 1.36872e-06
1.91119e-05 5.89934e-05 7.05544e-07
1.36872e-06 7.05544e-07 -9.01155e-06
0.00124161 5.48402e-05 2.70965e-06
5.48402e-05 4.93012e-05 8.95407e-07
2.70965e-06 8.95407e-07 -3.27953e-05
0.00112449 6.54207e-05 1.71701e-06
6.54207e-05 7.0103e-05 1.084e-06
1.71701e-06 1.084e-06 -7.10494e-06
0.00125697 6.95207e-05 1.09712e-06
6.95207e-05 6.64503e-05 9.93358e-07
1.09712e-06 9.93358e-07 -2.03622e-05
0.00105512 4.07636e-05 1.55155e-06
4.07636e-05 9.93507e-05 8.24792e-07
1.55155e-06 8.24792e-07 2.57514e-05
0.0011342 7.05618e-05 2.89773e-07
7.05618e-05 8.53169e-05 1.25845e-07
2.89773e-07 1.25845e-07 5.69393e-06
0.00105335 6.76861e-05 8.65319e-07
6.76861e-05 9.7852e-05 -4.85426e-07
8.65319e-07 -4.85426e-07 1.05557e-05
0.000880143 6.48452e-05 3.99547e-07
6.48452e-05 -2.63161e-05 -4.98423e-07
3.99547e-07 -4.98423e-07 -0.000111689
0.000902179 -8.19308e-06 9.02774e-07
-8.19308e-06 2.21885e-06 1.86151e-06
9.02774e-07 1.86151e-06 -2.71701e-05
0.000835293 -1.88558e-05 2.26635e-06
-1.88558e-05 -3.04781e-05 3.45715e-06
2.26635e-06 3.45715e-06 -3.51084e-05
0.00233802 -3.28116e-05 2.08925e-05
-3.28116e-05 0.000753873 4.00189e-06
2.08925e-05 4.00189e-06 0.000771602
0.00240524 -3.73858e-05 5.61802e-07
-3.73858e-05 0.000793852 -6.62839e-08
5.61802e-07 -6.62839e-08 0.000809986
0.00248375 -4.20969e-05 -2.41144e-05
-4.20969e-05 0.000839862 -3.84647e-06
-2.41144e-05 -3.84647e-06 0.000854276
0.000777865 2.71201e-05 3.17471e-06
2.71201e-05 -4.32101e-05 -3.58824e-06
3.17471e-06 -3.58824e-06 -5.49409e-05
0.00257533 4.71651e-05 2.56313e-05
4.71651e-05 0.000892794 -3.68675e-06
2.56313e-05 -3.68675e-06 0.00090531
0.000769525 3.19368e-05 -2.5787e-07
3.19368e-05 -4.01671e-05 6.02461e-09
-2.5787e-07 6.02461e-09 -5.61783e-05
0.00267616 5.17578e-05 -3.37022e-07
5.17578e-05 0.000951002 -9.51637e-08
-3.37022e-07 -9.51637e-08 0.000961252
0.000663052 2.997e-05 -8.31412e-06
2.997e-05 -9.38313e-05 -3.50299e-06
-8.31412e-06 -3.50299e-06 -0.000137392
0.000714948 1.98648e-05 -9.28371e-06
1.98648e-05 -9.28244e-05 -2.2975e-06
-9.28371e-06 -2.2975e-06 -0.00013674
0.00115288 3.00552e-05 -5.45612e-06
3.00552e-05 1.23676e-05 -1.79804e-06
-5.45612e-06 -1.79804e-06 -6.02858e-05
0.00120996 1.0463e-05 -5.8615e-06
1.0463e-05 2.48716e-06 -1.35521e-06
-5.8615e-06 -1.35521e-06 -7.25591e-05
0.000742716 4.45969e-06 -1.03076e-05
4.45969e-06 -0.000105414 -1.03109e-06
-1.03076e-05 -1.03109e-06 -0.000153917
0.00470649 2.1539e-05 -6.94514e-05
2.1539e-05 0.00202472 4.88972e-07
-6.94514e-05 4.88972e-07 0.00201635
0.000765455 4.31952e-08 3.03601e-08
4.31952e-08 -0.00010013 -3.65079e-07
3.03601e-08 -3.65079e-07 -0.000149814
0.00125258 5.57147e-06 2.29071e-08
5.57147e-06 3.03384e-06 -2.32033e-07
2.29071e-08 -2.32033e-07 -7.47591e-05
0.00118283 1.72625e-05 2.52416e-09
1.72625e-05 7.9961e-06 -3.23182e-08
2.52416e-09 -3.23182e-08 -6.52411e-05
0.00145269 5.94738e-06 8.57002e-08
5.94738e-06 5.70313e-05 5.90964e-08
8.57002e-08 5.90964e-08 -2.97326e-05
0.00112016 3.83058e-05 2.09189e-07
3.83058e-05 1.67442e-05 -3.56364e-08
2.09189e-07 -3.56364e-08 -5.46866e-05
0.00137432 3.58899e-05 3.43538e-08
3.58899e-05 5.87222e-05 -5.84394e-08
3.43538e-08 -5.84394e-08 -2.47074e-05
0.00126377 9.60519e-07 6.19882e-06
9.60519e-07 1.56593e-06 -5.88329e-07
6.19882e-06 -5.88329e-07 -7.6959e-05
0.00147944 7.56563e-06 3.06663e-06
7.56563e-06 4.91966e-05 8.93065e-07
3.06663e-06 8.93065e-07 -4.11032e-05
0.00140859 2.04227e-05 2.80372e-06
2.04227e-05 5.41311e-05 7.37404e-07
2.80372e-06 7.37404e-07 -3.01723e-05
0.00155259 1.24447e-06 1.28553e-06
1.24447e-06 7.59116e-05 7.54559e-07
1.28553e-06 7.54559e-07 -1.24714e-05
0.00130535 4.61632e-05 2.30983e-06
4.61632e-05 5.0578e-05 5.27437e-07
2.30983e-06 5.27437e-07 -3.22756e-05
0.00146117 3.76251e-05 9.2899e-07
3.76251e-05 6.4777e-05 2.17209e-07
9.2899e-07 2.17209e-07 -2.05062e-05
0.000779117 9.07351e-06 -1.01512e-05
9.07351e-06 -8.55801e-05 1.09904e-06
-1.01512e-05 1.09904e-06 -0.000134227
0.00152608 9.09305e-06 -3.20978e-05
9.09305e-06 0.000318455 1.77667e-06
-3.20978e-05 1.77667e-06 0.000278344
0.000889413 6.0304e-06 -6.5456e-06
6.0304e-06 -0.000158107 1.24142e-06
-6.5456e-06 1.24142e-06 -0.000233558
0.00184286 -3.55423e-05 -8.56417e-06
-3.55423e-05 0.000354969 1.94548e-06
-8.56417e-06 1.94548e-06 0.000286455
0.00268002 5.6366e-05 -2.95532e-05
5.6366e-05 0.000962534 3.53955e-06
-2.95532e-05 3.53955e-06 0.000970376
0.0015945 4.00737e-05 -1.48571e-05
4.00737e-05 0.000410087 2.94755e-06
-1.48571e-05 2.94755e-06 0.000387333
0.00144733 -2.82965e-05 -3.747e-06
-2.82965e-05 0.000310787 1.63065e-06
-3.747e-06 1.63065e-06 0.000251755
0.00135932 -4.68744e-05 -6.22189e-06
-4.68744e-05 0.000165221 2.31306e-06
-6.22189e-06 2.31306e-06 9.77872e-05
0.00115097 -4.89654e-05 -3.63813e-06
-4.89654e-05 -4.08768e-05 1.41496e-06
-3.63813e-06 1.41496e-06 -0.000125332
0.0015176 -6.50052e-05 -2.14067e-06
-6.50052e-05 0.000221593 9.13051e-07
-2.14067e-06 9.13051e-07 0.000144899
0.000832808 -5.54066e-05 -1.7234e-06
-5.54066e-05 -5.44387e-05 9.59176e-07
-1.7234e-06 9.59176e-07 -0.000133454
0.00120008 -6.89208e-05 -7.7428e-07
-6.89208e-05 6.26119e-05 2.98817e-07
-7.7428e-07 2.98817e-07 -2.04619e-05
0.000764774 3.83876e-05 -3.5383e-06
3.83876e-05 -3.27213e-05 3.80512e-06
-3.5383e-06 3.80512e-06 -5.31382e-05
0.000865653 4.03917e-06 -2.61966e-06
4.03917e-06 -1.69226e-06 2.09825e-06
-2.61966e-06 2.09825e-06 -5.04882e-05
0.00109037 7.05818e-06 -1.91302e-07
7.05818e-06 -7.57067e-05 -5.51386e-09
-1.91302e-07 -5.51386e-09 -0.000153371
0.00152842 -1.07565e-05 -1.56051e-06
-1.07565e-05 0.000182006 1.9454e-07
-1.56051e-06 1.9454e-07 0.000112538
0.00167414 5.39114e-06 -1.21253e-06
5.39114e-06 0.000172541 2.4782e-07
-1.21253e-06 2.4782e-07 8.85551e-05
0.00146586 -3.91757e-05 5.73712e-07
-3.91757e-05 9.25475e-05 -3.70155e-07
5.73712e-07 -3.70155e-07 9.27468e-06
0.000719293 4.14507e-05 -2.52346e-08
4.14507e-05 -4.75864e-05 1.16843e-08
-2.52346e-08 1.16843e-08 -7.1486e-05
0.000863837 -1.26953e-05 1.3061e-07
-1.26953e-05 1.7391e-05 -8.62254e-08
1.3061e-07 -8.62254e-08 -4.18587e-05
0.000832692 -5.33236e-05 5.52881e-07
-5.33236e-05 -2.58965e-05 -3.65022e-07
5.52881e-07 -3.65022e-07 -0.000101507
0.00147533 -6.15941e-05 -5.31613e-07
-6.15941e-05 0.000169442 1.03851e-07
-5.31613e-07 1.03851e-07 9.03041e-05
0.00149249 -5.38501e-05 -3.36942e-07
-5.38501e-05 9.38396e-05 5.13304e-07
-3.36942e-07 5.13304e-07 8.51352e-06
0.00130949 -7.7483e-05 -7.05246e-07
-7.7483e-05 0.000156953 1.88069e-07
-7.05246e-07 1.88069e-07 6.96195e-05
0.00127596 -6.58495e-05 8.14118e-08
-6.58495e-05 6.4621e-05 2.04287e-07
8.14118e-08 2.04287e-07 -1.70827e-05
0.00126904 -7.3168e-05 3.78689e-07
-7.3168e-05 7.43407e-05 4.17746e-07
3.78689e-07 4.17746e-07 -8.96327e-06
0.000888063 -4.49581e-06 -4.93323e-08
-4.49581e-06 1.45682e-05 -7.13312e-08
-4.93323e-08 -7.13312e-08 -3.93117e-05
0.000938066 -2.39429e-05 -1.68416e-07
-2.39429e-05 3.13249e-05 -2.12553e-07
-1.68416e-07 -2.12553e-07 -3.83798e-05
0.000877781 1.42762e-05 -1.45056e-07
1.42762e-05 1.84601e-06 1.24262e-07
-1.45056e-07 1.24262e-07 -4.08147e-05
0.00179034 1.22442e-05 2.29157e-06
1.22442e-05 0.000215051 -4.25128e-07
2.29157e-06 -4.25128e-07 0.000128292
0.00157155 -1.39998e-05 3.02897e-06
-1.39998e-05 0.000131806 -2.97262e-07
3.02897e-06 -2.97262e-07 4.92699e-05
0.00171712 7.91273e-06 1.67681e-06
7.91273e-06 0.000159885 1.12558e-07
1.67681e-06 1.12558e-07 7.07093e-05
0.00150476 -3.34926e-05 1.55086e-06
-3.34926e-05 6.9894e-05 -6.73833e-07
1.55086e-06 -6.73833e-07 -1.62146e-05
0.00114559 -5.98228e-05 9.97837e-07
-5.98228e-05 -3.30639e-05 -1.01088e-06
9.97837e-07 -1.01088e-06 -0.000115679
0.00162171 -5.30297e-05 -5.94084e-07
-5.30297e-05 0.000134106 2.70995e-07
-5.94084e-07 2.70995e-07 5.30035e-05
0.000862845 -6.62524e-06 2.80425e-06
-6.62524e-06 1.23223e-05 -1.59264e-06
2.80425e-06 -1.59264e-06 -4.51774e-05
0.00129222 -6.85996e-05 -1.21293e-07
-6.85996e-05 5.13292e-05 -2.04111e-07
-1.21293e-07 -2.04111e-07 -2.90715e-05
0.000971223 -5.25456e-05 1.14189e-06
-5.25456e-05 5.24194e-05 -1.78898e-07
1.14189e-06 -1.78898e-07 -1.96167e-05
0.000819209 -6.36005e-05 1.38208e-06
-6.36005e-05 -4.51042e-05 -1.87927e-06
1.38208e-06 -1.87927e-06 -0.000131473
0.0014196 -8.46135e-05 1.63216e-06
-8.46135e-05 0.000192158 2.20669e-08
1.63216e-06 2.20669e-08 9.97831e-05
0.00166692 -8.4656e-05 -7.21162e-07
-8.4656e-05 0.000259749 1.66799e-06
-7.21162e-07 1.66799e-06 0.000180086
0.000889875 1.94763e-05 1.1166e-06
1.94763e-05 3.91045e-06 -1.99855e-06
1.1166e-06 -1.99855e-06 -3.30563e-05
0.000980926 -3.81947e-05 1.55992e-06
-3.81947e-05 5.30734e-05 -3.24802e-07
1.55992e-06 -3.24802e-07 -1.69696e-05
0.000829199 -1.47363e-05 1.31593e-06
-1.47363e-05 -2.3483e-05 -1.85681e-06
1.31593e-06 -1.85681e-06 -9.10395e-05
0.00111884 -6.50991e-05 3.14812e-07
-6.50991e-05 0.000129597 5.14389e-07
3.14812e-07 5.14389e-07 5.02274e-05
0.00106532 4.50637e-05 -4.51985e-06
4.50637e-05 1.61705e-05 -1.91365e-06
-4.51985e-06 -1.91365e-06 -5.34251e-05
0.000776168 -2.67781e-05 -3.48114e-06
-2.67781e-05 -4.43508e-05 -3.75336e-06
-3.48114e-06 -3.75336e-06 -5.67047e-05
0.000724922 -3.51802e-05 -4.23743e-06
-3.51802e-05 -5.47011e-05 -3.89742e-06
-4.23743e-06 -3.89742e-06 -7.40064e-05
0.000889322 -1.17644e-05 -2.12035e-06
-1.17644e-05 1.14687e-05 -2.37584e-06
-2.12035e-06 -2.37584e-06 -3.69619e-05
0.000908681 4.38523e-05 -2.8683e-06
4.38523e-05 2.4219e-06 -1.37708e-06
-2.8683e-06 -1.37708e-06 -6.21234e-05
0.00115447 6.3273e-05 -2.11686e-06
6.3273e-05 4.57629e-05 -9.81953e-07
-2.11686e-06 -9.81953e-07 -3.49796e-05
0.000862626 5.34147e-06 -2.74886e-06
5.34147e-06 1.6202e-05 -1.84958e-06
-2.74886e-06 -1.84958e-06 -4.19298e-05
0.000999285 5.34704e-05 -1.61307e-06
5.34704e-05 7.01323e-05 -9.11187e-07
-1.61307e-06 -9.11187e-07 -6.51988e-06
0.00113517 6.4653e-05 -1.38923e-06
6.4653e-05 0.00010194 -3.88426e-07
-1.38923e-06 -3.88426e-07 2.81829e-05
0.000883471 6.36975e-05 -1.75093e-06
6.36975e-05 -1.28969e-05 3.4499e-07
-1.75093e-06 3.4499e-07 -9.53352e-05
0.000808554 -2.42788e-05 1.30751e-07
-2.42788e-05 -3.37756e-05 3.79362e-08
1.30751e-07 3.79362e-08 -4.3196e-05
0.000886884 3.57717e-06 -6.0275e-09
3.57717e-06 1.57356e-05 -3.78241e-08
-6.0275e-09 -3.78241e-08 -3.75444e-05
0.000877466 -1.32077e-05 3.99063e-08
-1.32077e-05 1.81522e-06 8.63467e-08
3.99063e-08 8.63467e-08 -4.14835e-05
0.000980334 1.79248e-05 1.7804e-07
1.79248e-05 5.43671e-05 -1.91238e-07
1.7804e-07 -1.91238e-07 -1.37346e-05
0.00124593 5.53801e-05 5.11842e-07
5.53801e-05 5.15983e-05 2.742e-07
5.11842e-07 2.742e-07 -3.06289e-05
0.00109576 6.50264e-05 5.96322e-08
6.50264e-05 5.68256e-05 3.01802e-08
5.96322e-08 3.01802e-08 -2.0354e-05
0.00125177 6.94529e-05 1.57247e-08
6.94529e-05 6.39735e-05 2.30135e-07
1.57247e-08 2.30135e-07 -2.28101e-05
0.00101345 4.23672e-05 1.88694e-08
4.23672e-05 7.94603e-05 1.07435e-07
1.88694e-08 1.07435e-07 6.02067e-06
0.00125322 7.40352e-05 -3.48723e-07
7.40352e-05 0.000145819 -5.35277e-07
-3.48723e-07 -5.35277e-07 6.6461e-05
0.00106971 6.855e-05 2.03535e-07
6.855e-05 0.000105549 -4.54442e-07
2.03535e-07 -4.54442e-07 1.79369e-05
0.000948676 6.68435e-05 -1.35732e-06
6.68435e-05 1.09978e-05 4.97441e-08
-1.35732e-06 4.97441e-08 -7.30874e-05
0.000839102 -2.17888e-05 2.71447e-06
-2.17888e-05 -2.38002e-05 3.56282e-06
2.71447e-06 3.56282e-06 -3.06148e-05
0.000874456 -1.41518e-05 1.58483e-06
-1.41518e-05 -2.96039e-06 2.30204e-06
1.58483e-06 2.30204e-06 -4.15254e-05
0.00102963 2.81236e-05 1.52692e-06
2.81236e-05 7.96168e-05 4.9772e-07
1.52692e-06 4.9772e-07 9.63747e-06
0.000971253 9.55939e-06 9.90096e-07
9.55939e-06 4.82366e-05 1.23037e-06
9.90096e-07 1.23037e-06 -1.58929e-05
0.000990573 4.96949e-05 9.71824e-07
4.96949e-05 6.43154e-05 -1.13059e-07
9.71824e-07 -1.13059e-07 -1.48429e-05
0.00131922 5.74858e-05 1.59473e-06
5.74858e-05 5.46242e-05 6.48461e-07
1.59473e-06 6.48461e-07 -3.2224e-05
0.00116598 7.21591e-05 6.73022e-07
7.21591e-05 6.9376e-05 1.10516e-06
6.73022e-07 1.10516e-06 -1.39256e-05
0.00131941 7.41104e-05 1.23343e-08
7.41104e-05 8.36138e-05 8.75316e-07
1.23343e-08 8.75316e-07 -5.44606e-06
0.00108687 6.53458e-05 1.73225e-06
6.53458e-05 0.000120966 1.49982e-06
1.73225e-06 1.49982e-06 3.51843e-05
0.00116378 7.48551e-05 1.42578e-06
7.48551e-05 8.99249e-05 2.29432e-07
1.42578e-06 2.29432e-07 6.61844e-06
0.000692452 5.99501e-05 1.32145e-06
5.99501e-05 -9.53672e-05 -7.85005e-07
1.32145e-06 -7.85005e-07 -0.00019154
0.000894738 -1.13397e-05 1.0312e-06
-1.13397e-05 6.55696e-07 2.00476e-06
1.0312e-06 2.00476e-06 -3.10129e-05
0.000953765 1.00019e-05 3.34357e-07
1.00019e-05 3.61101e-05 1.07131e-06
3.34357e-07 1.07131e-06 -1.14177e-05
0.00091003 -4.18328e-06 7.56062e-07
-4.18328e-06 4.52426e-06 1.80229e-06
7.56062e-07 1.80229e-06 -2.30145e-05
0.000905607 -6.10216e-06 1.19714e-07
-6.10216e-06 4.37372e-06 1.06694e-08
1.19714e-07 1.06694e-08 -2.50801e-05
0.00141799 -2.03691e-05 2.28165e-06
-2.03691e-05 0.000266209 2.0705e-06
2.28165e-06 2.0705e-06 0.000266582
0.00112879 -2.0816e-05 7.27936e-07
-2.0816e-05 0.000121184 -3.66732e-09
7.27936e-07 -3.66732e-09 0.000118205
0.0011066 -1.98817e-05 1.73807e-05
-1.98817e-05 0.000111698 6.6329e-06
1.73807e-05 6.6329e-06 0.000124995
0.00233581 -3.29978e-05 6.74615e-07
-3.29978e-05 0.000751959 -5.9316e-08
6.74615e-07 -5.9316e-08 0.000769881
0.00240146 -3.75514e-05 -2.17652e-05
-3.75514e-05 0.000791093 -3.87418e-06
-2.17652e-05 -3.87418e-06 0.000807453
0.000795472 2.47918e-05 2.66425e-06
2.47918e-05 -4.01085e-05 -3.38883e-06
2.66425e-06 -3.38883e-06 -4.85744e-05
0.00245277 4.24658e-05 2.30455e-05
4.24658e-05 0.000824064 -3.69073e-06
2.30455e-05 -3.69073e-06 0.000838723
0.000794819 2.7949e-05 -1.35275e-07
2.7949e-05 -3.43368e-05 5.87025e-08
-1.35275e-07 5.87025e-08 -4.63613e-05
0.00258371 4.68672e-05 -4.46958e-07
4.68672e-05 0.000897639 -8.74604e-08
-4.46958e-07 -8.74604e-08 0.000909921
0.000787577 3.36306e-05 -3.48508e-06
3.36306e-05 -2.98978e-05 3.88356e-06
-3.48508e-06 3.88356e-06 -4.63739e-05
0.00266355 5.1684e-05 -2.88405e-05
5.1684e-05 0.000945479 3.6725e-06
-2.88405e-05 3.6725e-06 0.000955511
0.00112786 3.95382e-05 -5.12269e-06
3.95382e-05 2.1488e-05 -1.94344e-06
-5.12269e-06 -1.94344e-06 -5.00131e-05
0.00118147 1.9746e-05 -5.64014e-06
1.9746e-05 7.86259e-06 -1.40005e-06
-5.64014e-06 -1.40005e-06 -6.54558e-05
0.00137926 3.39186e-05 -2.55349e-06
3.39186e-05 6.13119e-05 -6.57061e-07
-2.55349e-06 -6.57061e-07 -2.21207e-05
0.00147734 5.53692e-06 -2.95193e-06
5.53692e-06 6.92078e-05 -9.23997e-07
-2.95193e-06 -9.23997e-07 -1.75497e-05
0.00124833 8.07805e-06 -6.18969e-06
8.07805e-06 1.02593e-06 -1.26248e-06
-6.18969e-06 -1.26248e-06 -7.67404e-05
0.000778523 1.2289e-06 -1.05014e-05
1.2289e-06 -9.36966e-05 -3.1971e-08
-1.05014e-05 -3.1971e-08 -0.000143416
0.0012626 2.8044e-06 -2.3482e-08
2.8044e-06 7.07559e-07 -4.20427e-07
-2.3482e-08 -4.20427e-07 -7.78862e-05
0.00149368 9.06258e-06 1.48158e-08
9.06258e-06 5.6317e-05 -1.31821e-07
1.48158e-08 -1.31821e-07 -3.39368e-05
0.00141481 1.6938e-05 9.76088e-08
1.6938e-05 5.75137e-05 3.10924e-08
9.76088e-08 3.10924e-08 -2.67291e-05
0.00154923 4.808e-07 -3.09014e-08
4.808e-07 7.21327e-05 1.226e-07
-3.09014e-08 1.226e-07 -1.65354e-05
0.00131467 4.64395e-05 -4.12825e-08
4.64395e-05 5.50862e-05 -2.37725e-08
-4.12825e-08 -2.37725e-08 -2.78381e-05
0.00147533 3.71909e-05 -9.40398e-09
3.71909e-05 7.20813e-05 7.16358e-08
-9.40398e-09 7.16358e-08 -1.32422e-05
0.00150217 7.50408e-06 3.45171e-06
7.50408e-06 5.31063e-05 -6.62115e-07
3.45171e-06 -6.62115e-07 -3.81753e-05
0.0015296 4.49337e-06 1.18315e-06
4.49337e-06 4.70743e-05 1.39061e-06
1.18315e-06 1.39061e-06 -4.55484e-05
0.00149464 1.97842e-05 1.23895e-06
1.97842e-05 5.91675e-05 3.85313e-07
1.23895e-06 3.85313e-07 -2.70328e-05
0.00170252 -5.72295e-06 1.16201e-06
-5.72295e-06 0.000130807 4.61814e-07
1.16201e-06 4.61814e-07 4.38504e-05
0.00140154 4.58704e-05 6.55469e-07
4.58704e-05 6.34859e-05 -9.28852e-08
6.55469e-07 -9.28852e-08 -2.22354e-05
0.00151962 2.79531e-05 -1.5585e-06
2.79531e-05 6.92801e-05 4.83229e-07
-1.5585e-06 4.83229e-07 -9.38227e-06
0.000946062 8.51964e-06 -6.00212e-06
8.51964e-06 -0.00014839 9.55198e-07
-6.00212e-06 9.55198e-07 -0.000226888
0.00154614 -1.56773e-05 -8.56948e-06
-1.56773e-05 0.000190378 1.39495e-06
-8.56948e-06 1.39495e-06 0.000120931
0.00157137 1.13363e-05 -4.46973e-06
1.13363e-05 0.000119437 7.82018e-07
-4.46973e-06 7.82018e-07 3.49046e-05
0.00173714 -4.21861e-05 -2.98295e-06
-4.21861e-05 0.000231496 2.56018e-07
-2.98295e-06 2.56018e-07 0.000149344
0.000763565 4.28342e-05 -3.40457e-06
4.28342e-05 -2.42292e-05 3.62719e-06
-3.40457e-06 3.62719e-06 -4.84724e-05
0.000912202 -1.4955e-05 -2.63787e-06
-1.4955e-05 4.03168e-05 1.38024e-06
-2.63787e-06 1.38024e-06 -1.895e-05
0.00094701 -5.6836e-05 -8.22565e-07
-5.6836e-05 3.23842e-05 5.71333e-07
-8.22565e-07 5.71333e-07 -4.25306e-05
0.00162121 -6.37737e-05 -2.89608e-06
-6.37737e-05 0.00024106 1.22456e-06
-2.89608e-06 1.22456e-06 0.00016184
0.00132002 -4.99771e-05 -1.51603e-06
-4.99771e-05 5.88204e-06 1.08923e-06
-1.51603e-06 1.08923e-06 -7.93185e-05
0.00127916 -6.56611e-05 -7.30273e-07
-6.56611e-05 6.59266e-05 8.08105e-07
-7.30273e-07 8.08105e-07 -1.57068e-05
0.00105108 -6.99405e-05 -1.54869e-06
-6.99405e-05 2.83414e-05 1.08669e-06
-1.54869e-06 1.08669e-06 -5.97801e-05
0.00112799 -6.92785e-05 3.13261e-07
-6.92785e-05 4.52582e-06 -2.39411e-07
3.13261e-07 -2.39411e-07 -7.87333e-05
0.000878079 -5.01385e-06 -2.93574e-06
-5.01385e-06 8.09679e-06 1.72198e-06
-2.93574e-06 1.72198e-06 -4.54515e-05
0.000912157 -2.07436e-05 -1.56603e-06
-2.07436e-05 1.66984e-05 5.79247e-07
-1.56603e-06 5.79247e-07 -5.26503e-05
0.000864966 1.31625e-05 -1.73759e-06
1.31625e-05 -4.5512e-06 2.30144e-06
-1.73759e-06 2.30144e-06 -4.7298e-05
0.0016474 1.26669e-05 -1.25582e-06
1.26669e-05 0.000140685 4.1256e-07
-1.25582e-06 4.1256e-07 5.26945e-05
0.00156755 -1.93236e-05 -5.25124e-07
-1.93236e-05 0.000128742 4.93849e-08
-5.25124e-07 4.93849e-08 4.63504e-05
0.00159171 1.03411e-05 -5.37006e-07
1.03411e-05 9.57035e-05 2.87056e-07
-5.37006e-07 2.87056e-07 5.99507e-06
0.00160276 -3.21983e-05 4.92066e-08
-3.21983e-05 0.000119114 -3.76474e-07
4.92066e-08 -3.76474e-07 3.32405e-05
0.000879587 -8.5972e-06 1.42957e-07
-8.5972e-06 1.86485e-05 -1.1827e-07
1.42957e-07 -1.1827e-07 -3.84993e-05
0.00102447 -5.45858e-05 -8.76326e-09
-5.45858e-05 7.74521e-05 1.47545e-07
-8.76326e-09 1.47545e-07 5.32405e-06
0.000910266 -6.58168e-05 3.7472e-07
-6.58168e-05 3.10561e-06 -5.21101e-07
3.7472e-07 -5.21101e-07 -8.246e-05
0.00134915 -6.33918e-05 -6.85899e-09
-6.33918e-05 6.99936e-05 -3.324e-07
-6.85899e-09 -3.324e-07 -1.25486e-05
0.00151076 -5.13343e-05 3.68341e-07
-5.13343e-05 7.7211e-05 9.46579e-07
3.68341e-07 9.46579e-07 -2.76855e-06
0.00121914 -7.91547e-05 3.60641e-08
-7.91547e-05 9.45629e-05 1.12496e-07
3.60641e-08 1.12496e-07 1.04003e-06
0.00130333 -6.80332e-05 2.38867e-08
-6.80332e-05 5.64318e-05 3.46459e-07
2.38867e-08 3.46459e-07 -2.38021e-05
0.00149557 -8.00269e-05 6.3909e-07
-8.00269e-05 0.000174069 4.40818e-07
6.3909e-07 4.40818e-07 9.53001e-05
0.00100532 -3.73858e-05 -1.27184e-08
-3.73858e-05 6.50041e-05 -1.28003e-07
-1.27184e-08 -1.28003e-07 -4.91321e-06
0.00106429 -6.17313e-05 -3.19291e-07
-6.17313e-05 0.000100435 2.78024e-07
-3.19291e-07 2.78024e-07 2.08409e-05
0.000878214 1.86758e-05 -1.1055e-07
1.86758e-05 -1.52373e-06 9.10075e-08
-1.1055e-07 9.10075e-08 -3.86308e-05
0.00085645 -8.68172e-06 1.52071e-07
-8.68172e-06 -1.11154e-05 -5.49289e-07
1.52071e-07 -5.49289e-07 -7.73842e-05
0.00160398 1.19085e-05 2.13922e-06
1.19085e-05 8.84737e-05 -4.26537e-07
2.13922e-06 -4.26537e-07 -4.57232e-06
0.00167699 -1.17122e-05 1.87561e-06
-1.17122e-05 0.000142592 2.3582e-07
1.87561e-06 2.3582e-07 5.55539e-05
0.00164071 1.28743e-05 1.24819e-06
1.28743e-05 0.000103496 3.54462e-07
1.24819e-06 3.54462e-07 1.20767e-05
0.00152126 -2.66861e-05 1.87806e-07
-2.66861e-05 5.35709e-05 -1.32435e-06
1.87806e-07 -1.32435e-06 -3.03649e-05
0.00128189 -6.23914e-05 -6.17163e-07
-6.23914e-05 9.41735e-06 -3.45785e-07
-6.17163e-07 -3.45785e-07 -6.95431e-05
0.00169544 -5.06507e-05 1.35465e-06
-5.06507e-05 0.000144143 -2.65269e-07
1.35465e-06 -2.65269e-07 6.99566e-05
0.000979701 -4.91904e-05 1.36456e-06
-4.91904e-05 5.6323e-05 2.65318e-09
1.36456e-06 2.65318e-09 -1.41763e-05
0.00129355 -6.85515e-05 -1.45068e-06
-6.85515e-05 3.72859e-05 4.63504e-07
-1.45068e-06 4.63504e-07 -3.49754e-05
0.000799369 -5.97206e-05 3.70645e-07
-5.97206e-05 -3.55759e-05 -8.36006e-07
3.70645e-07 -8.36006e-07 -0.000116628
0.00109823 -7.5949e-05 1.59111e-06
-7.5949e-05 8.52172e-05 -1.7454e-06
1.59111e-06 -1.7454e-06 -1.03016e-05
0.00128366 -8.47875e-05 1.89961e-06
-8.47875e-05 0.000111113 1.48718e-06
1.89961e-06 1.48718e-06 1.3918e-05
0.0017546 -8.69995e-05 5.06636e-07
-8.69995e-05 0.000289939 8.87561e-07
5.06636e-07 8.87561e-07 0.00021145
0.000886261 1.61957e-05 1.202e-06
1.61957e-05 -3.70168e-07 -1.82527e-06
1.202e-06 -1.82527e-06 -3.38406e-05
0.000787687 -4.14722e-06 7.86024e-07
-4.14722e-06 -4.77437e-05 -1.87589e-06
7.86024e-07 -1.87589e-06 -0.000108737
0.00101784 -6.2578e-05 6.6568e-07
-6.2578e-05 7.34234e-05 6.28543e-07
6.6568e-07 6.28543e-07 -4.36069e-06
0.00101805 -5.43508e-05 1.02604e-06
-5.43508e-05 8.12388e-05 -2.465e-07
1.02604e-06 -2.465e-07 1.6835e-06
0.00111946 -6.7132e-05 2.63147e-07
-6.7132e-05 0.000126963 1.19302e-06
2.63147e-07 1.19302e-06 4.49659e-05
0.000790518 -2.37414e-05 -2.96222e-06
-2.37414e-05 -4.29258e-05 -3.64643e-06
-2.96222e-06 -3.64643e-06 -5.21705e-05
0.00125671 5.60616e-05 -1.82955e-06
5.60616e-05 5.70822e-05 -3.93847e-07
-1.82955e-06 -3.93847e-07 -2.52826e-05
0.000881787 -1.62835e-05 -1.63489e-06
-1.62835e-05 3.82064e-06 -2.36872e-06
-1.63489e-06 -2.36872e-06 -3.94067e-05
0.000898321 2.22436e-06 -2.72591e-06
2.22436e-06 2.29529e-05 -2.05838e-06
-2.72591e-06 -2.05838e-06 -3.04802e-05
0.000966293 1.80065e-05 -1.09305e-06
1.80065e-05 4.77872e-05 -1.02781e-06
-1.09305e-06 -1.02781e-06 -2.05179e-05
0.00106166 6.45021e-05 -1.72816e-06
6.45021e-05 4.09154e-05 -1.0831e-06
-1.72816e-06 -1.0831e-06 -3.62321e-05
0.00124659 6.93741e-05 -9.83549e-07
6.93741e-05 6.15319e-05 -5.16398e-07
-9.83549e-07 -5.16398e-07 -2.52264e-05
0.000976208 4.69582e-05 -1.42626e-06
4.69582e-05 6.23545e-05 -4.95357e-07
-1.42626e-06 -4.95357e-07 -1.12479e-05
0.00109349 6.96513e-05 -1.41477e-06
6.96513e-05 0.000116947 -8.96556e-07
-1.41477e-06 -8.96556e-07 2.90032e-05
0.00137066 7.74618e-05 -1.35825e-06
7.74618e-05 0.000205501 -9.22108e-07
-1.35825e-06 -9.22108e-07 0.000126414
0.00102465 6.90273e-05 -2.82122e-06
6.90273e-05 5.18491e-05 1.08503e-06
-2.82122e-06 1.08503e-06 -3.0938e-05
0.000820448 -2.13779e-05 1.17218e-07
-2.13779e-05 -3.32164e-05 3.47532e-08
1.17218e-07 3.47532e-08 -3.98997e-05
0.00088042 -1.50329e-05 2.72077e-08
-1.50329e-05 -2.32029e-07 6.31817e-08
2.72077e-08 6.31817e-08 -3.86683e-05
0.000999818 2.9596e-05 7.89537e-08
2.9596e-05 6.53328e-05 -5.87697e-08
7.89537e-08 -5.87697e-08 -4.74611e-06
0.000964876 9.47791e-06 1.40573e-07
9.47791e-06 4.55108e-05 -3.37876e-08
1.40573e-07 -3.37876e-08 -1.87282e-05
0.000966079 4.8518e-05 1.45697e-07
4.8518e-05 5.19546e-05 -2.28983e-07
1.45697e-07 -2.28983e-07 -2.73193e-05
0.00133186 5.82039e-05 6.40816e-07
5.82039e-05 6.05652e-05 5.05778e-07
6.40816e-07 5.05778e-07 -2.63988e-05
0.0011624 7.24553e-05 1.05748e-07
7.24553e-05 6.80833e-05 3.54817e-09
1.05748e-07 3.54817e-09 -1.52615e-05
0.00128257 7.42424e-05 7.45337e-07
7.42424e-05 6.50325e-05 4.46423e-07
7.45337e-07 4.46423e-07 -2.4397e-05
0.00104742 6.45294e-05 5.37354e-07
6.45294e-05 0.000102504 5.59422e-07
5.37354e-07 5.59422e-07 1.67695e-05
0.00124557 7.67491e-05 1.7114e-07
7.67491e-05 0.000131506 -4.67271e-07
1.7114e-07 -4.67271e-07 4.84338e-05
0.000934345 6.77374e-05 -9.58641e-07
6.77374e-05 2.36534e-05 -5.33833e-07
-9.58641e-07 -5.33833e-07 -7.1924e-05
0.000884401 -1.3413e-05 1.25555e-06
-1.3413e-05 -1.34211e-06 2.17992e-06
1.25555e-06 2.17992e-06 -3.60053e-05
0.000951918 3.56551e-06 7.38252e-07
3.56551e-06 3.53459e-05 1.36096e-06
7.38252e-07 1.36096e-06 -2.33387e-05
0.00105514 6.10329e-05 6.60241e-07
6.10329e-05 9.67739e-05 -1.23074e-07
6.60241e-07 -1.23074e-07 1.53027e-05
0.0010234 3.60629e-05 6.58455e-07
3.60629e-05 8.09669e-05 4.06839e-07
6.58455e-07 4.06839e-07 4.88436e-06
0.00103529 5.52204e-05 8.91867e-08
5.52204e-05 9.12756e-05 -7.57004e-07
8.91867e-08 -7.57004e-07 6.44938e-06
0.00134104 5.75127e-05 -1.37288e-06
5.75127e-05 4.66869e-05 -5.20677e-07
-1.37288e-06 -5.20677e-07 -4.02297e-05
0.00119304 7.82881e-05 1.14567e-06
7.82881e-05 6.91164e-05 9.28925e-07
1.14567e-06 9.28925e-07 -1.73337e-05
0.00108311 7.67521e-05 -7.96687e-07
7.67521e-05 -3.38251e-05 -4.78004e-07
-7.96687e-07 -4.78004e-07 -0.000119908
0.00101008 6.81264e-05 7.45742e-07
6.81264e-05 8.67202e-05 1.84712e-06
7.45742e-07 1.84712e-06 -9.5646e-06
0.00119299 8.01872e-05 2.76274e-06
8.01872e-05 0.000117424 -1.39921e-07
2.76274e-06 -1.39921e-07 1.87938e-05
0.000897504 -1.00733e-05 9.5078e-08
-1.00733e-05 2.3339e-06 1.65526e-08
9.5078e-08 1.65526e-08 -2.93265e-05
0.000793459 -3.64868e-06 5.5459e-07
-3.64868e-06 -4.82007e-05 1.71601e-06
5.5459e-07 1.71601e-06 -9.93921e-05
0.000879825 1.73573e-06 -3.95283e-07
1.73573e-06 -2.54093e-06 2.06581e-08
-3.95283e-07 2.06581e-08 -5.0632e-05
0.00116026 1.58132e-05 4.34453e-07
1.58132e-05 0.000147206 2.88051e-07
4.34453e-07 2.88051e-07 8.77333e-05
0.000930868 6.47073e-06 8.8552e-07
6.47073e-06 2.5664e-05 1.04304e-06
8.8552e-07 1.04304e-06 -2.09136e-05
0.00092351 6.0063e-07 6.1372e-07
6.0063e-07 9.82848e-06 1.74732e-06
6.1372e-07 1.74732e-06 -1.63274e-05
0.000915118 -4.69185e-06 1.21176e-07
-4.69185e-06 7.50121e-06 1.50485e-08
1.21176e-07 1.50485e-08 -2.01298e-05
0.00140608 -1.68128e-05 1.74757e-06
-1.68128e-05 0.000255697 2.01491e-06
1.74757e-06 2.01491e-06 0.000257907
0.000912094 -4.5818e-06 -1.02202e-06
-4.5818e-06 8.08545e-06 -1.85675e-06
-1.02202e-06 -1.85675e-06 -2.14447e-05
0.00143467 -1.91872e-05 -2.99686e-06
-1.91872e-05 0.000274419 -1.2266e-06
-2.99686e-06 -1.2266e-06 0.000275016
0.00110591 -1.71863e-05 1.4783e-05
-1.71863e-05 0.000105499 6.45353e-06
1.4783e-05 6.45353e-06 0.000120552
0.00142761 -2.12622e-05 -7.92185e-06
-2.12622e-05 0.000275574 -3.28945e-06
-7.92185e-06 -3.28945e-06 0.000274368
0.0016742 -2.44578e-05 1.28834e-05
-2.44578e-05 0.000404992 2.28434e-06
1.28834e-05 2.28434e-06 0.000421413
0.00233754 -3.31602e-05 -1.93548e-05
-3.31602e-05 0.000752092 -3.89037e-06
-1.93548e-05 -3.89037e-06 0.00077019
0.000805044 2.26818e-05 2.25115e-06
2.26818e-05 -4.03794e-05 -3.26075e-06
2.25115e-06 -3.26075e-06 -4.63793e-05
0.000811268 2.51231e-05 -1.50692e-07
2.51231e-05 -3.21739e-05 4.20349e-08
-1.50692e-07 4.20349e-08 -4.07971e-05
0.00236382 3.81276e-05 2.04793e-05
3.81276e-05 0.000772072 -3.70021e-06
2.04793e-05 -3.70021e-06 0.000788669
0.00246909 4.22732e-05 -4.96708e-07
4.22732e-05 0.000833 -7.04528e-08
-4.96708e-07 -7.04528e-08 0.000847388
0.000810961 2.89719e-05 -3.23184e-06
2.89719e-05 -2.5883e-05 3.76005e-06
-3.23184e-06 3.76005e-06 -3.82104e-05
0.00259215 4.67204e-05 -2.7388e-05
4.67204e-05 0.000902576 3.8076e-06
-2.7388e-05 3.8076e-06 0.0009146
0.00132591 4.68747e-05 -2.44711e-06
4.68747e-05 6.05603e-05 -6.01471e-07
-2.44711e-06 -6.01471e-07 -2.24462e-05
0.00142471 1.71622e-05 -2.74866e-06
1.71622e-05 6.2579e-05 -6.61891e-07
-2.74866e-06 -6.61891e-07 -2.16864e-05
0.00148933 3.78833e-05 -8.67932e-07
3.78833e-05 7.92674e-05 -8.60442e-08
-8.67932e-07 -8.60442e-08 -6.11767e-06
0.00154088 -3.69167e-07 -1.27252e-06
-3.69167e-07 6.5976e-05 -6.1912e-07
-1.27252e-06 -6.1912e-07 -2.29882e-05
0.0015117 1.24477e-05 -3.0385e-06
1.24477e-05 6.52874e-05 -1.1299e-06
-3.0385e-06 -1.1299e-06 -2.49528e-05
0.00127029 7.43906e-06 -6.17788e-06
7.43906e-06 4.08956e-06 -2.67838e-07
-6.17788e-06 -2.67838e-07 -7.45073e-05
0.00151459 1.19707e-05 5.52582e-08
1.19707e-05 5.91468e-05 -5.90225e-07
5.52582e-08 -5.90225e-07 -3.21796e-05
0.00153574 -3.37496e-06 1.37328e-07
-3.37496e-06 4.83402e-05 3.34277e-07
1.37328e-07 3.34277e-07 -4.50558e-05
0.00151865 1.8867e-05 4.78485e-08
1.8867e-05 7.12814e-05 -1.24915e-08
4.78485e-08 -1.24915e-08 -1.48388e-05
0.00167409 -6.57053e-06 4.05966e-08
-6.57053e-06 0.000115246 -2.86231e-07
4.05966e-08 -2.86231e-07 2.84604e-05
0.0014082 4.68799e-05 -4.15139e-08
4.68799e-05 6.66389e-05 -1.47982e-08
-4.15139e-08 -1.47982e-08 -1.92941e-05
0.00152657 2.81364e-05 -1.32679e-07
2.81364e-05 7.07739e-05 8.13064e-07
-1.32679e-07 8.13064e-07 -7.64103e-06
0.00157167 1.46049e-06 2.17694e-06
1.46049e-06 5.89623e-05 -3.42676e-07
2.17694e-06 -3.42676e-07 -3.65937e-05
0.00164523 3.89583e-06 7.86114e-07
3.89583e-06 9.13031e-05 7.1503e-07
7.86114e-07 7.1503e-07 -2.06838e-06
0.00143919 1.04263e-05 1.56285e-07
1.04263e-05 4.14379e-06 1.50992e-06
1.56285e-07 1.50992e-06 -7.78696e-05
0.00179866 -1.22678e-05 8.45675e-07
-1.22678e-05 0.0001695 2.77663e-07
8.45675e-07 2.77663e-07 8.31565e-05
0.00136249 4.14734e-05 -1.21779e-06
4.14734e-05 1.80178e-05 -9.67383e-07
-1.21779e-06 -9.67383e-07 -6.38861e-05
0.0017883 2.15803e-05 -1.58573e-07
2.15803e-05 0.000177815 8.48228e-08
-1.58573e-07 8.48228e-08 0.000104931
0.00149279 1.22868e-05 -4.35457e-06
1.22868e-05 6.04955e-05 1.15975e-06
-4.35457e-06 1.15975e-06 -2.87129e-05
0.00155925 -2.13098e-05 -4.09266e-06
-2.13098e-05 0.000123775 3.89711e-07
-4.09266e-06 3.89711e-07 4.15002e-05
0.00147623 1.06441e-05 -2.49906e-06
1.06441e-05 3.63715e-05 2.80937e-07
-2.49906e-06 2.80937e-07 -5.38694e-05
0.00169349 -3.13766e-05 -1.89942e-06
-3.13766e-05 0.000164687 -5.07662e-08
-1.89942e-06 -5.07662e-08 7.90591e-05
0.000894526 -1.06133e-05 -2.80208e-06
-1.06133e-05 2.41288e-05 1.38911e-06
-2.80208e-06 1.38911e-06 -3.26781e-05
0.00107386 -5.6573e-05 -1.38583e-06
-5.6573e-05 0.000100671 5.59066e-07
-1.38583e-06 5.59066e-07 2.84367e-05
0.00098976 -6.75735e-05 -5.14145e-07
-6.75735e-05 4.58059e-05 7.11448e-07
-5.14145e-07 7.11448e-07 -3.89541e-05
0.00155566 -6.69592e-05 -9.67947e-07
-6.69592e-05 0.000174517 4.81817e-07
-9.67947e-07 4.81817e-07 9.20477e-05
0.00139817 -4.96188e-05 -8.37221e-09
-4.96188e-05 1.95021e-05 9.72308e-07
-8.37221e-09 9.72308e-07 -5.93495e-05
0.00131514 -6.75285e-05 5.05021e-07
-6.75285e-05 6.191e-05 8.13609e-07
5.05021e-07 8.13609e-07 -1.81645e-05
0.00102499 -7.38625e-05 -1.36294e-06
-7.38625e-05 1.44322e-08 6.23932e-07
-1.36294e-06 6.23932e-07 -9.46584e-05
0.00132355 -7.53746e-05 1.23584e-06
-7.53746e-05 8.78773e-05 -2.07471e-06
1.23584e-06 -2.07471e-06 1.00276e-05
0.00102679 -3.62515e-05 -1.52684e-06
-3.62515e-05 7.52697e-05 1.62111e-07
-1.52684e-06 1.62111e-07 5.58185e-06
0.00101503 -5.88471e-05 -1.33678e-06
-5.88471e-05 7.38653e-05 -1.80363e-07
-1.33678e-06 -1.80363e-07 -5.96973e-06
0.000865505 1.83368e-05 -1.31305e-06
1.83368e-05 -7.4115e-06 2.13714e-06
-1.31305e-06 2.13714e-06 -4.47083e-05
0.000888072 -4.54237e-06 -5.60057e-07
-4.54237e-06 4.00883e-06 7.90009e-07
-5.60057e-07 7.90009e-07 -6.13221e-05
0.00160237 1.23794e-05 -1.20181e-07
1.23794e-05 8.77968e-05 2.12463e-07
-1.20181e-07 2.12463e-07 -5.24383e-06
0.00168916 -9.27765e-06 -3.66804e-07
-9.27765e-06 0.000148884 1.09177e-07
-3.66804e-07 1.09177e-07 6.21029e-05
0.00160167 1.26498e-05 -7.45793e-07
1.26498e-05 8.5005e-05 3.49519e-07
-7.45793e-07 3.49519e-07 -6.2521e-06
0.00155363 -2.74294e-05 -1.94431e-07
-2.74294e-05 6.96469e-05 -3.69822e-07
-1.94431e-07 -3.69822e-07 -1.4114e-05
0.00101703 -4.79842e-05 9.76452e-09
-4.79842e-05 7.37807e-05 -6.14455e-09
9.76452e-09 -6.14455e-09 3.43709e-06
0.000863767 -6.09988e-05 3.50054e-07
-6.09988e-05 -2.84548e-06 -2.26545e-07
3.50054e-07 -2.26545e-07 -8.3022e-05
0.00110633 -7.59458e-05 5.51177e-08
-7.59458e-05 9.06052e-05 -1.75912e-07
5.51177e-08 -1.75912e-07 -5.15393e-06
0.00140925 -6.42495e-05 -6.44507e-07
-6.42495e-05 7.35757e-05 -2.59514e-07
-6.44507e-07 -2.59514e-07 -6.18071e-06
0.00153022 -4.96191e-05 2.36766e-07
-4.96191e-05 6.94188e-05 8.83285e-07
2.36766e-07 8.83285e-07 -2.36423e-06
0.00128754 -8.43231e-05 -9.63342e-08
-8.43231e-05 0.000114753 5.64633e-07
-9.63342e-08 5.64633e-07 1.66872e-05
0.00131239 -6.82858e-05 -1.42725e-09
-6.82858e-05 4.77507e-05 6.61946e-07
-1.42725e-09 6.61946e-07 -2.44199e-05
0.00145463 -7.95848e-05 7.69902e-07
-7.95848e-05 0.000139645 -1.79554e-06
7.69902e-07 -1.79554e-06 6.37582e-05
0.00104988 -6.35148e-05 9.85873e-08
-6.35148e-05 8.89998e-05 -1.07382e-08
9.85873e-08 -1.07382e-08 1.12376e-05
0.00108861 -6.59917e-05 4.0334e-09
-6.59917e-05 0.000110331 1.16408e-07
4.0334e-09 1.16408e-07 2.8461e-05
0.00102815 -4.9307e-05 -2.93416e-07
-4.9307e-05 8.6109e-05 1.30181e-07
-2.93416e-07 1.30181e-07 6.66385e-06
0.000755291 2.08975e-05 -2.39702e-07
2.08975e-05 -6.72036e-05 2.80006e-08
-2.39702e-07 2.80006e-08 -0.000101779
0.000833363 4.11781e-06 1.58788e-07
4.11781e-06 -2.65587e-05 -4.3349e-07
1.58788e-07 -4.3349e-07 -8.61586e-05
0.00166249 1.77e-05 1.43424e-06
1.77e-05 0.000100767 -9.27127e-08
1.43424e-06 -9.27127e-08 5.84438e-06
0.00161072 6.21343e-06 1.9696e-06
6.21343e-06 7.8337e-05 1.90349e-07
1.9696e-06 1.90349e-07 -1.20742e-05
0.00159358 -3.09912e-05 1.75347e-06
-3.09912e-05 6.77708e-05 -2.14587e-06
1.75347e-06 -2.14587e-06 -1.16064e-05
0.00133904 -5.69953e-05 5.35437e-07
-5.69953e-05 2.36578e-06 -1.37093e-06
5.35437e-07 -1.37093e-06 -6.70426e-05
0.00100463 -6.34485e-05 2.88822e-07
-6.34485e-05 6.89201e-05 5.20365e-07
2.88822e-07 5.20365e-07 -8.3775e-06
0.00171422 -7.84596e-05 9.3385e-08
-7.84596e-05 0.000220864 7.71161e-07
9.3385e-08 7.71161e-07 0.000156806
0.00058164 -5.49421e-05 2.40918e-07
-5.49421e-05 -0.000140577 -1.83998e-06
2.40918e-07 -1.83998e-06 -0.0002282
0.00117211 -8.27901e-05 2.82537e-06
-8.27901e-05 0.000108535 -1.79716e-06
2.82537e-06 -1.79716e-06 9.31058e-07
0.00143859 -9.05143e-05 2.373e-06
-9.05143e-05 0.000164879 1.70881e-06
2.373e-06 1.70881e-06 6.41769e-05
0.000668434 1.5614e-05 9.84017e-07
1.5614e-05 -0.000114301 -2.33594e-06
9.84017e-07 -2.33594e-06 -0.000147147
0.00103358 -1.16271e-06 1.04079e-06
-1.16271e-06 7.63611e-05 -1.09413e-06
1.04079e-06 -1.09413e-06 2.24313e-05
0.00101917 -3.40568e-05 4.94952e-07
-3.40568e-05 7.84582e-05 -6.10672e-07
4.94952e-07 -6.10672e-07 6.26671e-06
0.00104705 -6.4815e-05 1.20229e-07
-6.4815e-05 8.64431e-05 1.00991e-06
1.20229e-07 1.00991e-06 7.20246e-06
0.00112216 -6.37329e-05 6.94118e-07
-6.37329e-05 0.000136038 9.33606e-07
6.94118e-07 9.33606e-07 4.87103e-05
0.00102287 -6.44508e-05 1.60049e-07
-6.44508e-05 7.21401e-05 8.46804e-07
1.60049e-07 8.46804e-07 -1.09533e-05
0.000803014 -2.10044e-05 -2.48363e-06
-2.10044e-05 -4.20038e-05 -3.54387e-06
-2.48363e-06 -3.54387e-06 -4.85594e-05
0.00088886 -1.56387e-05 -1.46668e-06
-1.56387e-05 3.83021e-06 -2.23838e-06
-1.46668e-06 -2.23838e-06 -3.45385e-05
0.00134604 5.902e-05 -5.56382e-07
5.902e-05 6.72062e-05 3.1207e-07
-5.56382e-07 3.1207e-07 -1.98709e-05
0.000962838 7.52707e-06 -7.89601e-07
7.52707e-06 4.47592e-05 -1.36377e-06
-7.89601e-07 -1.36377e-06 -1.94493e-05
0.000962512 2.83243e-05 -1.3624e-06
2.83243e-05 4.67336e-05 -4.43439e-07
-1.3624e-06 -4.43439e-07 -2.31034e-05
0.000942861 4.93625e-05 -5.74572e-07
4.93625e-05 4.05582e-05 -1.50957e-07
-5.74572e-07 -1.50957e-07 -3.90387e-05
0.00115722 7.26728e-05 -8.29787e-07
7.26728e-05 6.60288e-05 -1.19555e-06
-8.29787e-07 -1.19555e-06 -1.73563e-05
0.00124325 7.42409e-05 8.58835e-08
7.42409e-05 4.52295e-05 -2.44688e-07
8.58835e-08 -2.44688e-07 -4.45568e-05
0.000998181 6.33532e-05 -4.0387e-07
6.33532e-05 7.89567e-05 -2.54113e-07
-4.0387e-07 -2.54113e-07 -6.67776e-06
0.00116338 7.50619e-05 -1.61732e-06
7.50619e-05 0.000136295 -1.11702e-08
-1.61732e-06 -1.11702e-08 4.13389e-05
0.00132199 7.85029e-05 -2.06452e-06
7.85029e-05 0.000170575 -7.34704e-07
-2.06452e-06 -7.34704e-07 8.77278e-05
0.000889501 -1.3331e-05 1.06391e-07
-1.3331e-05 1.15871e-06 3.68013e-08
1.06391e-07 3.68013e-08 -3.34383e-05
0.000956432 2.41853e-06 2.04207e-08
2.41853e-06 3.76979e-05 3.77652e-08
2.04207e-08 3.77652e-08 -2.09772e-05
0.00104794 6.09837e-05 -2.41262e-07
6.09837e-05 9.42806e-05 -1.93808e-07
-2.41262e-07 -1.93808e-07 1.32317e-05
0.00101716 3.8855e-05 6.56559e-08
3.8855e-05 7.8258e-05 -5.19299e-08
6.56559e-08 -5.19299e-08 1.83164e-06
0.000982146 5.48783e-05 -2.35834e-07
5.48783e-05 6.54179e-05 -1.69213e-07
-2.35834e-07 -1.69213e-07 -2.00385e-05
0.0013596 5.96356e-05 -5.09264e-07
5.96356e-05 5.72057e-05 1.47022e-08
-5.09264e-07 1.47022e-08 -3.0272e-05
0.00120669 7.83894e-05 6.42492e-07
7.83894e-05 7.46801e-05 -7.43391e-08
6.42492e-07 -7.43391e-08 -1.18909e-05
0.00120015 7.83844e-05 3.11443e-07
7.83844e-05 2.11623e-05 5.19542e-07
3.11443e-07 5.19542e-07 -6.40249e-05
0.000880952 6.40786e-05 4.17157e-07
6.40786e-05 2.21828e-05 8.74309e-07
4.17157e-07 8.74309e-07 -7.45154e-05
0.00120186 8.05578e-05 -1.29058e-07
8.05578e-05 0.000122735 -3.78265e-07
-1.29058e-07 -3.78265e-07 2.2324e-05
0.000943235 2.12655e-06 6.76372e-07
2.12655e-06 2.94483e-05 1.33389e-06
6.76372e-07 1.33389e-06 -2.43953e-05
0.000913698 2.59363e-05 8.01445e-07
2.59363e-05 2.03452e-05 1.1277e-06
8.01445e-07 1.1277e-06 -5.23481e-05
0.0011346 7.04188e-05 1.46078e-08
7.04188e-05 0.0001441 -1.50994e-07
1.46078e-08 -1.50994e-07 5.42965e-05
0.000943902 5.00579e-05 3.04477e-07
5.00579e-05 4.48662e-05 -1.59827e-07
3.04477e-07 -1.59827e-07 -4.07531e-05
0.000999424 5.82119e-05 -1.1229e-07
5.82119e-05 6.99548e-05 -7.47879e-07
-1.1229e-07 -7.47879e-07 -1.90137e-05
0.00138667 5.96746e-05 -1.09067e-06
5.96746e-05 3.01238e-05 -5.56161e-07
-1.09067e-06 -5.56161e-07 -3.93193e-05
0.0014471 9.18357e-05 1.39233e-06
9.18357e-05 0.000192277 -4.0658e-07
1.39233e-06 -4.0658e-07 9.5714e-05
0.000551086 6.73113e-05 8.61943e-07
6.73113e-05 -0.000323361 -7.86039e-07
8.61943e-07 -7.86039e-07 -0.000406502
0.00147609 8.53859e-05 2.74612e-06
8.53859e-05 0.000307294 2.88162e-06
2.74612e-06 2.88162e-06 0.000203396
0.000307415 5.77158e-05 6.45719e-07
5.77158e-05 -0.000326004 1.66812e-07
6.45719e-07 1.66812e-07 -0.000438149
0.000900179 -7.86269e-06 -1.20129e-06
-7.86269e-06 3.94933e-06 -1.92074e-06
-1.20129e-06 -1.92074e-06 -2.76956e-05
0.000861938 1.40598e-06 3.31509e-07
1.40598e-06 -1.24043e-05 5.88593e-07
3.31509e-07 5.88593e-07 -6.342e-05
0.000879196 8.32383e-06 4.6118e-07
8.32383e-06 -1.45333e-08 1.20509e-06
4.6118e-07 1.20509e-06 -6.39659e-05
0.000807946 -7.10227e-06 -4.85999e-07
-7.10227e-06 -4.01666e-05 -1.03331e-06
-4.85999e-07 -1.03331e-06 -8.88023e-05
0.000943222 9.83743e-06 1.63243e-07
9.83743e-06 3.18765e-05 -1.40291e-08
1.63243e-07 -1.40291e-08 -1.46198e-05
0.00102002 1.78061e-06 -9.60923e-09
1.78061e-06 7.3474e-05 -4.83164e-07
-9.60923e-09 -4.83164e-07 1.37386e-05
0.00111616 1.67513e-05 2.56881e-07
1.67513e-05 0.000127234 2.32678e-07
2.56881e-07 2.32678e-07 5.82124e-05
0.00086537 -1.18612e-05 7.5154e-08
-1.18612e-05 -4.16634e-06 1.00656e-06
7.5154e-08 1.00656e-06 -6.39252e-05
0.000940132 -1.79207e-05 6.03377e-08
-1.79207e-05 2.97461e-05 9.49944e-07
6.03377e-08 9.49944e-07 -1.5235e-05
0.000926071 5.16011e-06 6.56225e-07
5.16011e-06 1.03183e-05 1.64928e-06
6.56225e-07 1.64928e-06 -1.51855e-05
0.000920067 -4.11756e-06 -1.27399e-07
-4.11756e-06 8.30142e-06 3.0614e-08
-1.27399e-07 3.0614e-08 -1.78846e-05
0.00139508 -1.27997e-05 1.30873e-06
-1.27997e-05 0.000246138 1.94478e-06
1.30873e-06 1.94478e-06 0.000249811
0.000918517 -4.92342e-06 -5.30883e-07
-4.92342e-06 9.59986e-06 -1.83747e-06
-5.30883e-07 -1.83747e-06 -1.81004e-05
0.00142114 -1.58046e-05 -2.43947e-06
-1.58046e-05 0.00026328 -1.20062e-06
-2.43947e-06 -1.20062e-06 0.000265646
0.00109595 -1.43853e-05 1.19109e-05
-1.43853e-05 9.57782e-05 6.30945e-06
1.19109e-05 6.30945e-06 0.000112305
0.00145101 -1.83322e-05 -7.01461e-06
-1.83322e-05 0.000282476 -4.49054e-06
-7.01461e-06 -4.49054e-06 0.000283256
0.0010464 -1.82311e-05 4.85143e-06
-1.82311e-05 7.50609e-05 2.45141e-06
4.85143e-06 2.45141e-06 9.00811e-05
0.00222767 -3.19536e-05 -5.74731e-06
-3.19536e-05 0.000691054 -1.63557e-06
-5.74731e-06 -1.63557e-06 0.000710374
0.000814412 2.04059e-05 1.83643e-06
2.04059e-05 -4.04597e-05 -3.2249e-06
1.83643e-06 -3.2249e-06 -4.44392e-05
0.000821368 2.28211e-05 -1.11621e-07
2.28211e-05 -3.23046e-05 3.1522e-08
-1.11621e-07 3.1522e-08 -3.83863e-05
0.00230316 3.37743e-05 1.81096e-05
3.37743e-05 0.000734766 -3.73218e-06
1.81096e-05 -3.73218e-06 0.000753034
0.000826566 2.54936e-05 -2.95838e-06
2.54936e-05 -2.44998e-05 3.48015e-06
-2.95838e-06 3.48015e-06 -3.3278e-05
0.00237059 3.78783e-05 -6.59631e-07
3.78783e-05 0.000776255 -6.299e-08
-6.59631e-07 -6.299e-08 0.000792643
0.00248074 4.19646e-05 -2.50488e-05
4.19646e-05 0.000839579 3.85765e-06
-2.50488e-05 3.85765e-06 0.000853718
0.00141462 4.78254e-05 -1.20078e-06
4.78254e-05 6.96779e-05 -6.02207e-08
-1.20078e-06 -6.02207e-08 -1.64654e-05
0.00154802 1.70439e-05 -8.76644e-07
1.70439e-05 8.60607e-05 -3.56801e-07
-8.76644e-07 -3.56801e-07 4.06616e-08
0.00153691 2.83479e-05 1.52999e-06
2.83479e-05 7.39055e-05 4.36892e-07
1.52999e-06 4.36892e-07 -4.25873e-06
0.00164617 -7.52279e-06 -8.5312e-07
-7.52279e-06 0.00010006 -8.69381e-07
-8.5312e-07 -8.69381e-07 1.3426e-05
0.0015544 -8.02736e-06 -1.28711e-06
-8.02736e-06 5.56267e-05 -8.148e-07
-1.28711e-06 -8.148e-07 -3.85341e-05
0.0015258 1.54265e-05 -3.16403e-06
1.54265e-05 6.46038e-05 -4.80214e-07
-3.16403e-06 -4.80214e-07 -2.67434e-05
0.00159888 5.17414e-06 1.74775e-07
5.17414e-06 7.14362e-05 -3.95341e-07
1.74775e-07 -3.95341e-07 -2.44374e-05
0.00164089 -2.61557e-07 1.32407e-07
-2.61557e-07 9.09738e-05 -3.39999e-07
1.32407e-07 -3.39999e-07 -2.19775e-06
0.00149122 8.85366e-06 -8.30186e-08
8.85366e-06 2.83086e-05 2.42577e-07
-8.30186e-08 2.42577e-07 -5.42667e-05
0.00167946 -1.21291e-05 -1.15811e-07
-1.21291e-05 0.00010892 -5.45284e-07
-1.15811e-07 -5.45284e-07 2.25474e-05
0.00142049 4.28448e-05 -3.2932e-07
4.28448e-05 4.82236e-05 -7.61605e-08
-3.2932e-07 -7.61605e-08 -3.39634e-05
0.00161179 2.14172e-05 1.53365e-06
2.14172e-05 9.14104e-05 -5.22023e-07
1.53365e-06 -5.22023e-07 2.08243e-05
0.00164899 1.25354e-05 9.66809e-07
1.25354e-05 8.28531e-05 3.02639e-07
9.66809e-07 3.02639e-07 -1.44744e-05
0.00165421 -7.3621e-06 7.63392e-07
-7.3621e-06 9.39965e-05 6.63485e-07
7.63392e-07 6.63485e-07 3.22283e-06
0.00160937 9.56728e-07 4.71593e-07
9.56728e-07 6.97193e-05 1.34379e-06
4.71593e-07 1.34379e-06 -9.60991e-06
0.00163578 3.79358e-05 -9.83976e-07
3.79358e-05 0.000115493 -4.97226e-07
-9.83976e-07 -4.97226e-07 4.65835e-05
0.00159754 1.27919e-05 -1.89001e-06
1.27919e-05 8.55689e-05 8.65645e-07
-1.89001e-06 8.65645e-07 -7.4694e-06
0.00170768 -8.58812e-06 -2.95891e-06
-8.58812e-06 0.000158186 1.66338e-07
-2.95891e-06 1.66338e-07 7.16638e-05
0.00153538 1.225e-05 -2.71256e-06
1.225e-05 5.32475e-05 2.49904e-07
-2.71256e-06 2.49904e-07 -3.78729e-05
0.00159486 -2.77437e-05 -1.08363e-06
-2.77437e-05 9.01129e-05 3.51141e-07
-1.08363e-06 3.51141e-07 6.52198e-06
0.00105372 -4.68498e-05 -1.36862e-06
-4.68498e-05 9.1051e-05 5.46681e-08
-1.36862e-06 5.46681e-08 2.08005e-05
0.000946676 -6.2945e-05 1.11768e-07
-6.2945e-05 3.88484e-05 1.50724e-07
1.11768e-07 1.50724e-07 -4.04683e-05
0.00111315 -7.58928e-05 -1.06625e-06
-7.58928e-05 9.54947e-05 1.84607e-06
-1.06625e-06 1.84607e-06 -5.16894e-07
0.00153603 -6.60602e-05 -3.69594e-07
-6.60602e-05 0.000137408 3.33016e-07
-3.69594e-07 3.33016e-07 5.68639e-05
0.00137806 -4.87824e-05 -3.08705e-07
-4.87824e-05 1.05664e-06 2.2227e-06
-3.08705e-07 2.2227e-06 -6.83317e-05
0.00132007 -6.78294e-05 1.39072e-06
-6.78294e-05 5.2826e-05 8.81733e-07
1.39072e-06 8.81733e-07 -1.9256e-05
0.0012912 -8.38409e-05 -1.7774e-06
-8.38409e-05 0.000118264 -9.09829e-08
-1.7774e-06 -9.09829e-08 1.93316e-05
0.00118733 -7.28639e-05 -1.28928e-06
-7.28639e-05 5.98508e-06 -5.35369e-06
-1.28928e-06 -5.35369e-06 -6.74162e-05
0.00108164 -6.45432e-05 -6.2293e-07
-6.45432e-05 0.000104451 -5.24941e-07
-6.2293e-07 -5.24941e-07 2.67e-05
0.00105516 -6.47564e-05 -9.60758e-07
-6.47564e-05 9.23631e-05 -1.13128e-06
-9.60758e-07 -1.13128e-06 1.06321e-05
0.00103749 -4.32439e-05 -7.46801e-07
-4.32439e-05 9.05589e-05 7.01049e-07
-7.46801e-07 7.01049e-07 1.13069e-05
0.000627188 2.13102e-05 -9.01968e-07
2.13102e-05 -0.000132825 1.91959e-06
-9.01968e-07 1.91959e-06 -0.000168354
0.000882579 1.10212e-05 -1.79582e-07
1.10212e-05 -3.36511e-06 7.87189e-07
-1.79582e-07 7.87189e-07 -6.17395e-05
0.00159805 1.65548e-05 -1.72611e-07
1.65548e-05 7.08708e-05 1.90762e-07
-1.72611e-07 1.90762e-07 -2.34695e-05
0.00165688 5.2516e-06 -2.14197e-07
5.2516e-06 0.00010299 7.95147e-08
-2.14197e-07 7.95147e-08 1.27589e-05
0.00165321 -3.1531e-05 -1.03995e-06
-3.1531e-05 0.000101469 1.74267e-07
-1.03995e-06 1.74267e-07 2.27726e-05
0.00105534 -6.46496e-05 3.65122e-08
-6.46496e-05 9.2969e-05 1.29586e-07
3.65122e-08 1.29586e-07 1.56459e-05
0.000875722 -6.40119e-05 6.90023e-07
-6.40119e-05 4.61192e-06 -5.77066e-07
6.90023e-07 -5.77066e-07 -8.21473e-05
0.00114401 -8.15248e-05 -1.37116e-07
-8.15248e-05 9.75399e-05 -3.02027e-07
-1.37116e-07 -3.02027e-07 -1.05788e-05
0.00141441 -5.76634e-05 3.91372e-07
-5.76634e-05 3.84284e-05 -4.60077e-07
3.91372e-07 -4.60077e-07 -3.21807e-05
0.0013848 -8.69703e-05 -2.06459e-07
-8.69703e-05 0.000139877 -3.84778e-07
-2.06459e-07 -3.84778e-07 4.21915e-05
0.00140182 -7.46904e-05 -6.07939e-07
-7.46904e-05 6.81883e-05 -7.75506e-07
-6.07939e-07 -7.75506e-07 3.60713e-06
0.000659832 1.94974e-05 5.91703e-09
1.94974e-05 -0.000118768 -5.97732e-07
5.91703e-09 -5.97732e-07 -0.000151333
0.00106306 -6.52985e-05 3.70348e-08
-6.52985e-05 9.4531e-05 1.01589e-07
3.70348e-08 1.01589e-07 1.5141e-05
0.00100559 -6.36732e-05 -7.48891e-07
-6.36732e-05 6.37806e-05 -4.41629e-08
-7.48891e-07 -4.41629e-08 -1.84365e-05
0.00111185 -6.20183e-05 -3.97117e-07
-6.20183e-05 0.000130955 5.90478e-07
-3.97117e-07 5.90478e-07 4.33103e-05
0.00108201 -3.56826e-05 -2.27449e-08
-3.56826e-05 0.000110252 1.26025e-08
-2.27449e-08 1.26025e-08 3.82133e-05
0.00092929 2.45824e-06 9.46846e-09
2.45824e-06 2.16594e-05 1.68579e-07
9.46846e-09 1.68579e-07 -3.23946e-05
0.00174795 2.00004e-05 1.66523e-06
2.00004e-05 0.000139867 1.13327e-07
1.66523e-06 1.13327e-07 4.56642e-05
0.00166587 5.37379e-06 1.89547e-06
5.37379e-06 8.64873e-05 -1.46753e-07
1.89547e-06 -1.46753e-07 -3.91174e-06
0.00142503 -3.75142e-05 2.37724e-06
-3.75142e-05 -1.62041e-05 -3.11514e-06
2.37724e-06 -3.11514e-06 -8.99346e-05
0.00161425 -6.85329e-05 9.87072e-07
-6.85329e-05 9.3416e-05 -1.29625e-06
9.87072e-07 -1.29625e-06 3.8428e-05
0.00102665 -6.5681e-05 -4.72987e-09
-6.5681e-05 7.97761e-05 3.47679e-07
-4.72987e-09 3.47679e-07 -1.04931e-06
0.00146124 -8.70231e-05 3.16961e-06
-8.70231e-05 0.000119363 2.79925e-06
3.16961e-06 2.79925e-06 3.34935e-05
0.000833164 -6.66588e-05 -1.80553e-07
-6.66588e-05 -1.89638e-05 -2.62774e-06
-1.80553e-07 -2.62774e-06 -0.000119786
0.00140555 -9.26284e-05 2.05894e-06
-9.26284e-05 0.000214466 -2.71997e-07
2.05894e-06 -2.71997e-07 9.69565e-05
0.000669637 1.5198e-05 7.60296e-07
1.5198e-05 -0.000115593 -2.33204e-06
7.60296e-07 -2.33204e-06 -0.00014603
0.00105465 -3.45435e-07 9.19313e-07
-3.45435e-07 8.63764e-05 -1.00603e-06
9.19313e-07 -1.00603e-06 3.70832e-05
0.00114316 -3.00108e-05 1.10923e-07
-3.00108e-05 0.000138493 2.79902e-07
1.10923e-07 2.79902e-07 7.15482e-05
0.00103453 -4.51437e-05 5.64143e-07
-4.51437e-05 9.1686e-05 -9.09223e-07
5.64143e-07 -9.09223e-07 6.26025e-06
0.00105208 -6.58275e-05 1.08897e-07
-6.58275e-05 8.70833e-05 6.78816e-07
1.08897e-07 6.78816e-07 5.1243e-06
0.00103087 -6.53472e-05 5.00747e-07
-6.53472e-05 8.13613e-05 1.55596e-06
5.00747e-07 1.55596e-06 -6.95168e-06
0.000891901 -1.30112e-05 -1.30394e-06
-1.30112e-05 2.21776e-06 -2.07486e-06
-1.30394e-06 -2.07486e-06 -3.22853e-05
0.000959789 1.69211e-06 -7.0667e-07
1.69211e-06 3.95263e-05 -1.42772e-06
-7.0667e-07 -1.42772e-06 -1.91625e-05
0.00138135 6.18799e-05 1.81662e-08
6.18799e-05 6.93074e-05 5.08449e-07
1.81662e-08 5.08449e-07 -1.87427e-05
0.00101147 3.86715e-05 -6.91045e-07
3.86715e-05 7.53874e-05 -5.91998e-07
-6.91045e-07 -5.91998e-07 -1.08945e-06
0.00104359 6.10866e-05 -5.26022e-07
6.10866e-05 9.33771e-05 -4.67264e-08
-5.26022e-07 -4.67264e-08 1.27175e-05
0.000934891 5.50097e-05 -6.87492e-07
5.50097e-05 4.26402e-05 9.06876e-08
-6.87492e-07 9.06876e-08 -4.3481e-05
0.00122189 7.85522e-05 -1.00964e-06
7.85522e-05 8.10006e-05 -1.26972e-06
-1.00964e-06 -1.26972e-06 -5.69454e-06
0.00131486 8.00014e-05 3.34539e-07
8.00014e-05 7.46703e-05 6.16964e-07
3.34539e-07 6.16964e-07 -9.58223e-06
0.000756551 6.02308e-05 -3.41957e-07
6.02308e-05 -3.98538e-05 -2.1247e-07
-3.41957e-07 -2.1247e-07 -0.000136999
0.0012293 8.15719e-05 -1.79595e-06
8.15719e-05 0.000137327 -2.69045e-07
-1.79595e-06 -2.69045e-07 3.50908e-05
0.000949683 9.06804e-07 1.7119e-09
9.06804e-07 3.2556e-05 5.92239e-08
1.7119e-09 5.92239e-08 -2.12767e-05
0.000956619 3.04486e-05 3.45496e-07
3.04486e-05 4.31642e-05 4.18486e-07
3.45496e-07 4.18486e-07 -2.97346e-05
0.00112957 7.01773e-05 -1.33328e-07
7.01773e-05 0.000142931 -6.02199e-07
-1.33328e-07 -6.02199e-07 5.38367e-05
0.000995311 5.0004e-05 -1.77008e-07
5.0004e-05 7.17926e-05 -4.51256e-08
-1.77008e-07 -4.51256e-08 -1.35636e-05
0.000988179 5.82565e-05 -9.19638e-07
5.82565e-05 6.75887e-05 -4.31271e-07
-9.19638e-07 -4.31271e-07 -2.11926e-05
0.0016369 6.23244e-05 -1.03724e-06
6.23244e-05 0.000150831 -4.25586e-07
-1.03724e-06 -4.25586e-07 8.12232e-05
0.0014635 9.20171e-05 9.45856e-07
9.20171e-05 0.00019624 3.52335e-08
9.45856e-07 3.52335e-08 0.00010065
0.000923498 7.56769e-05 -5.74017e-07
7.56769e-05 -0.00013018 8.1993e-07
-5.74017e-07 8.1993e-07 -0.00021095
0.00122989 7.77064e-05 1.09219e-06
7.77064e-05 0.00018607 1.14989e-06
1.09219e-06 1.14989e-06 8.15748e-05
0.00076002 7.17501e-05 -1.34715e-06
7.17501e-05 -0.000100944 -4.48063e-07
-1.34715e-06 -4.48063e-07 -0.000215822
0.000922186 2.05753e-05 7.7663e-07
2.05753e-05 2.20552e-05 1.26072e-06
7.7663e-07 1.26072e-06 -4.56158e-05
0.000915155 4.77963e-05 5.55894e-07
4.77963e-05 2.75129e-05 1.53682e-07
5.55894e-07 1.53682e-07 -5.73157e-05
0.00113233 7.11549e-05 4.06728e-07
7.11549e-05 0.000143833 3.13924e-07
4.06728e-07 3.13924e-07 4.69873e-05
0.000785824 5.35384e-05 7.08118e-07
5.35384e-05 -3.39138e-05 -1.10924e-07
7.08118e-07 -1.10924e-07 -0.00012702
0.00225819 4.86838e-05 4.05806e-08
4.86838e-05 0.000369146 9.01206e-07
4.05806e-08 9.01206e-07 0.000306915
0.00112054 7.37308e-05 2.43341e-06
7.37308e-05 -0.000126373 -8.89882e-07
2.43341e-06 -8.89882e-07 -0.000188635
0.00128063 9.29044e-05 1.85597e-06
9.29044e-05 9.99739e-05 -1.31026e-06
1.85597e-06 -1.31026e-06 -8.92991e-06
0.000685254 6.48387e-05 9.59036e-07
6.48387e-05 -9.08715e-05 1.96408e-06
9.59036e-07 1.96408e-06 -0.000214976
0.000934888 8.75136e-06 -1.91285e-07
8.75136e-06 2.59489e-05 -6.70076e-07
-1.91285e-07 -6.70076e-07 -2.50914e-05
0.00095796 1.66172e-05 1.23111e-07
1.66172e-05 4.11555e-05 4.38542e-07
1.23111e-07 4.38542e-07 -2.27917e-05
0.00103722 2.33092e-05 3.42738e-07
2.33092e-05 8.49366e-05 6.2502e-07
3.42738e-07 6.2502e-07 1.17875e-05
0.000950069 8.29752e-06 -5.90057e-07
8.29752e-06 3.49866e-05 -1.02211e-06
-5.90057e-07 -1.02211e-06 -1.1266e-05
0.000879198 -2.25774e-06 -1.1085e-07
-2.25774e-06 4.0342e-07 -1.25879e-06
-1.1085e-07 -1.25879e-06 -6.0251e-05
0.00094468 -5.35439e-06 4.08002e-07
-5.35439e-06 3.19582e-05 1.44486e-08
4.08002e-07 1.44486e-08 -1.30059e-05
0.00104215 2.20004e-05 -6.27368e-08
2.20004e-05 8.95065e-05 -4.02615e-07
-6.27368e-08 -4.02615e-07 1.8814e-05
0.000906655 -6.55289e-07 1.84109e-07
-6.55289e-07 1.81221e-05 3.82048e-07
1.84109e-07 3.82048e-07 -4.18003e-05
0.0010916 2.37081e-05 3.46591e-07
2.37081e-05 0.000115698 3.21571e-07
3.46591e-07 3.21571e-07 3.83446e-05
0.000874083 -1.21642e-05 -1.40787e-07
-1.21642e-05 3.76158e-06 9.46462e-07
-1.40787e-07 9.46462e-07 -6.552e-05
0.000861184 2.59169e-05 3.80762e-07
2.59169e-05 -3.11339e-06 9.9094e-07
3.80762e-07 9.9094e-07 -6.32052e-05
0.000960653 -1.82922e-05 -3.77339e-07
-1.82922e-05 3.90903e-05 9.15352e-07
-3.77339e-07 9.15352e-07 -4.92511e-06
0.000912801 7.40855e-06 5.11644e-07
7.40855e-06 3.8995e-06 1.58187e-06
5.11644e-07 1.58187e-06 -2.14848e-05
0.000917208 -2.53515e-06 -2.59267e-07
-2.53515e-06 5.80687e-06 3.01028e-08
-2.59267e-07 3.01028e-08 -1.96526e-05
0.00138899 -8.43991e-06 1.02261e-06
-8.43991e-06 0.000240416 1.8601e-06
1.02261e-06 1.8601e-06 0.000244721
0.000914434 -9.72615e-06 -9.9597e-08
-9.72615e-06 5.60137e-06 -1.73212e-06
-9.9597e-08 -1.73212e-06 -2.0594e-05
0.00141224 -1.1954e-05 -1.90277e-06
-1.1954e-05 0.000255071 -1.18106e-06
-1.90277e-06 -1.18106e-06 0.000258752
0.00108673 -1.12631e-05 9.06131e-06
-1.12631e-05 8.71214e-05 6.18327e-06
9.06131e-06 6.18327e-06 0.000104731
0.00143713 -1.51377e-05 -5.20832e-06
-1.51377e-05 0.000271353 -4.37677e-06
-5.20832e-06 -4.37677e-06 0.000273834
0.00103992 -1.51629e-05 3.54729e-06
-1.51629e-05 6.69175e-05 2.40921e-06
3.54729e-06 2.40921e-06 8.34873e-05
0.000986339 -1.86252e-05 -2.37425e-06
-1.86252e-05 4.4326e-05 -1.61966e-06
-2.37425e-06 -1.61966e-06 5.93993e-05
0.000823684 1.77914e-05 1.45585e-06
1.77914e-05 -4.05447e-05 -3.1978e-06
1.45585e-06 -3.1978e-06 -4.25523e-05
0.00083045 2.04692e-05 -1.25811e-07
2.04692e-05 -3.25013e-05 1.92235e-08
-1.25811e-07 1.92235e-08 -3.65384e-05
0.0022511 2.92595e-05 1.56518e-05
2.92595e-05 0.000702241 -3.76221e-06
1.56518e-05 -3.76221e-06 0.000722027
0.000838583 2.2981e-05 -2.51258e-06
2.2981e-05 -2.38026e-05 3.29365e-06
-2.51258e-06 3.29365e-06 -2.99652e-05
0.00230503 3.36415e-05 -7.3325e-07
3.36415e-05 0.00073643 -5.61473e-08
-7.3325e-07 -5.61473e-08 0.000754531
0.00237875 3.75934e-05 -2.23886e-05
3.75934e-05 0.000781135 3.8226e-06
-2.23886e-05 3.8226e-06 0.000797314
0.00147597 4.42854e-05 9.73412e-07
4.42854e-05 7.7197e-05 9.35529e-07
9.73412e-07 9.35529e-07 -5.27792e-06
0.0015437 7.18811e-06 -4.10344e-07
7.18811e-06 5.26477e-05 -5.34627e-07
-4.10344e-07 -5.34627e-07 -3.04808e-05
0.00143634 2.12261e-05 2.49492e-06
2.12261e-05 5.48242e-06 -1.87911e-06
2.49492e-06 -1.87911e-06 -6.27994e-05
0.00155172 -1.18543e-05 -9.74294e-07
-1.18543e-05 4.39305e-05 -1.2159e-06
-9.74294e-07 -1.2159e-06 -4.24438e-05
0.00164722 -3.05745e-06 -5.13639e-07
-3.05745e-06 9.57632e-05 -1.43908e-06
-5.13639e-07 -1.43908e-06 2.76199e-06
0.00161334 4.21379e-06 -1.60606e-06
4.21379e-06 7.77685e-05 -4.89261e-07
-1.60606e-06 -4.89261e-07 -1.84278e-05
0.00166656 1.46398e-05 3.49265e-08
1.46398e-05 9.51335e-05 -3.39706e-08
3.49265e-08 -3.39706e-08 -1.33888e-06
0.00162114 -1.14808e-05 -1.43872e-08
-1.14808e-05 7.82748e-05 -2.7778e-07
-1.43872e-08 -2.7778e-07 -1.25648e-05
0.00159774 1.42435e-06 6.63405e-07
1.42435e-06 6.51363e-05 -1.0943e-07
6.63405e-07 -1.0943e-07 -1.38615e-05
0.00150791 3.44677e-05 -3.28484e-10
3.44677e-05 4.8353e-05 -5.6757e-07
-3.28484e-10 -5.6757e-07 -2.03033e-05
0.00166838 8.30663e-06 5.62557e-07
8.30663e-06 9.78812e-05 6.85041e-07
5.62557e-07 6.85041e-07 3.21279e-06
0.00179411 -1.89997e-05 9.27515e-07
-1.89997e-05 0.000155259 7.97425e-07
9.27515e-07 7.97425e-07 7.10567e-05
0.00160947 1.74354e-05 4.73563e-07
1.74354e-05 6.23548e-05 2.09693e-06
4.73563e-07 2.09693e-06 -1.03157e-05
0.00155647 1.56584e-05 -2.04701e-06
1.56584e-05 5.20368e-05 5.5952e-07
-2.04701e-06 5.5952e-07 -4.16908e-05
0.00169459 4.32685e-06 -2e-06
4.32685e-06 0.00012353 4.63176e-07
-2e-06 4.63176e-07 3.34777e-05
0.0017055 -3.21311e-05 -1.70403e-06
-3.21311e-05 0.000131525 1.61692e-06
-1.70403e-06 1.61692e-06 5.3518e-05
0.00109941 -6.55321e-05 -4.87155e-07
-6.55321e-05 0.000113715 -9.34455e-08
-4.87155e-07 -9.34455e-08 3.63933e-05
0.00117909 -7.33964e-05 -2.49259e-08
-7.33964e-05 0.000154271 5.8267e-07
-2.49259e-08 5.8267e-07 6.83713e-05
0.00111172 -8.01167e-05 -1.72866e-06
-8.01167e-05 8.46786e-05 2.44507e-06
-1.72866e-06 2.44507e-06 -2.39695e-05
0.00147942 -5.82301e-05 -6.09062e-07
-5.82301e-05 6.94649e-05 9.44735e-07
-6.09062e-07 9.44735e-07 -2.34309e-06
0.00110388 -7.10282e-05 -2.1461e-06
-7.10282e-05 -7.76063e-05 -1.08257e-06
-2.1461e-06 -1.08257e-06 -0.000142705
0.00133136 -8.36747e-05 -2.9675e-06
-8.36747e-05 0.000114936 -2.77512e-06
-2.9675e-06 -2.77512e-06 2.02854e-05
0.00108015 -6.58161e-05 -3.38406e-07
-6.58161e-05 0.000103148 -6.37406e-07
-3.38406e-07 -6.37406e-07 2.36083e-05
0.000976992 -6.2503e-05 -1.8852e-06
-6.2503e-05 4.99964e-05 -1.02187e-06
-1.8852e-06 -1.02187e-06 -3.13455e-05
0.00109762 -5.94432e-05 -6.17215e-07
-5.94432e-05 0.000123563 2.64072e-08
-6.17215e-07 2.64072e-08 3.57902e-05
0.000647019 2.13132e-05 -7.85897e-07
2.13132e-05 -0.000125229 1.1023e-06
-7.85897e-07 1.1023e-06 -0.000157555
0.00113146 -3.39125e-05 -4.42494e-07
-3.39125e-05 0.000134647 7.65425e-07
-4.42494e-07 7.65425e-07 6.32228e-05
0.000815352 8.91325e-06 6.75423e-08
8.91325e-06 -3.75396e-05 1.43273e-06
6.75423e-08 1.43273e-06 -9.19083e-05
0.00166766 1.96308e-05 1.44069e-08
1.96308e-05 9.97117e-05 -1.78865e-07
1.44069e-08 -1.78865e-07 5.20337e-06
0.00165968 3.60785e-06 5.3791e-07
3.60785e-06 8.21997e-05 -1.67049e-08
5.3791e-07 -1.67049e-08 -8.17872e-06
0.00150267 -3.78841e-05 -9.54675e-08
-3.78841e-05 1.96306e-05 -4.02552e-07
-9.54675e-08 -4.02552e-07 -5.54984e-05
0.00107055 -6.70786e-05 3.51949e-08
-6.70786e-05 0.000100518 3.84267e-07
3.51949e-08 3.84267e-07 1.94752e-05
0.000876445 -6.76903e-05 -8.92481e-08
-6.76903e-05 5.09796e-06 1.46017e-07
-8.92481e-08 1.46017e-07 -9.37786e-05
0.00144958 -9.3463e-05 -1.3839e-06
-9.3463e-05 0.000235498 1.49505e-06
-1.3839e-06 1.49505e-06 0.000118414
0.0016353 -7.04436e-05 -3.57919e-07
-7.04436e-05 0.000109683 6.25354e-07
-3.57919e-07 6.25354e-07 5.44085e-05
0.00134257 -8.4068e-05 4.2497e-07
-8.4068e-05 5.61641e-05 -8.98542e-07
4.2497e-07 -8.98542e-07 -2.9009e-05
0.000784238 1.54423e-05 1.09457e-07
1.54423e-05 -5.69939e-05 -5.74036e-07
1.09457e-07 -5.74036e-07 -8.64732e-05
0.00103722 1.00006e-05 -2.88102e-07
1.00006e-05 7.77041e-05 9.33776e-08
-2.88102e-07 9.33776e-08 2.8592e-05
0.000947976 -6.25976e-05 -6.59252e-07
-6.25976e-05 3.60245e-05 2.02583e-07
-6.59252e-07 2.02583e-07 -4.59202e-05
0.00105791 -6.60313e-05 5.50133e-07
-6.60313e-05 9.44484e-05 1.9298e-07
5.50133e-07 1.9298e-07 6.72183e-06
0.00101972 -4.19737e-05 -9.94343e-08
-4.19737e-05 8.38949e-05 -2.65094e-07
-9.94343e-08 -2.65094e-07 -9.06862e-07
0.00107343 -3.14903e-05 -5.80711e-07
-3.14903e-05 0.000103265 9.60823e-07
-5.80711e-07 9.60823e-07 3.54578e-05
0.00167441 2.43482e-05 8.13512e-07
2.43482e-05 9.75349e-05 8.31799e-07
8.13512e-07 8.31799e-07 4.49306e-06
0.00168034 -4.60615e-06 1.98109e-06
-4.60615e-06 8.10714e-05 -1.78612e-07
1.98109e-06 -1.78612e-07 -6.4331e-06
0.00155939 -5.14153e-05 1.94481e-06
-5.14153e-05 1.37987e-05 -4.16679e-06
1.94481e-06 -4.16679e-06 -3.97683e-05
0.00224508 -9.58374e-05 2.10875e-06
-9.58374e-05 0.000406932 -4.45685e-07
2.10875e-06 -4.45685e-07 0.000349637
0.000874894 -6.27277e-05 -6.58972e-07
-6.27277e-05 1.2893e-05 5.86005e-09
-6.58972e-07 5.86005e-09 -7.45704e-05
0.00137237 -9.47765e-05 2.01716e-06
-9.47765e-05 0.000166316 2.84935e-06
2.01716e-06 2.84935e-06 3.9918e-05
0.00144032 -8.89702e-05 1.06743e-06
-8.89702e-05 0.000277704 -3.53413e-06
1.06743e-06 -3.53413e-06 0.000166551
0.00090861 1.23544e-05 6.10271e-07
1.23544e-05 4.10055e-06 -1.72111e-06
6.10271e-07 -1.72111e-06 -2.25139e-05
0.000939472 -2.8959e-05 8.26555e-07
-2.8959e-05 3.03693e-05 -1.04157e-06
8.26555e-07 -1.04157e-06 -1.31879e-05
0.000791002 1.29158e-05 1.88216e-07
1.29158e-05 -4.71228e-05 -1.66866e-06
1.88216e-07 -1.66866e-06 -9.56976e-05
0.00103903 -2.50875e-05 4.67836e-07
-2.50875e-05 8.50287e-05 -3.22832e-07
4.67836e-07 -3.22832e-07 2.11898e-05
0.00097234 -2.04119e-05 8.59298e-09
-2.04119e-05 5.64936e-05 -7.22226e-07
8.59298e-09 -7.22226e-07 -2.15247e-05
0.00101073 -6.56739e-05 1.94851e-06
-6.56739e-05 8.59662e-05 1.05871e-06
1.94851e-06 1.05871e-06 -9.69614e-06
0.000811917 -5.94939e-05 -1.84751e-07
-5.94939e-05 -4.08305e-05 9.8176e-07
-1.84751e-07 9.8176e-07 -0.000122049
0.00168551 -8.88187e-05 1.6006e-07
-8.88187e-05 0.000422352 1.59385e-06
1.6006e-07 1.59385e-06 0.00032947
0.000956657 -7.54652e-07 -4.83191e-07
-7.54652e-07 3.59211e-05 -1.35215e-06
-4.83191e-07 -1.35215e-06 -1.7883e-05
0.000999378 3.49769e-05 -3.9278e-07
3.49769e-05 6.5831e-05 -3.65046e-07
-3.9278e-07 -3.65046e-07 -7.24185e-06
0.00187709 6.48214e-05 3.92493e-07
6.48214e-05 0.00026652 2.89365e-07
3.92493e-07 2.89365e-07 0.000196772
0.00105299 5.11381e-05 -6.70954e-07
5.11381e-05 0.000101826 -8.69487e-08
-6.70954e-07 -8.69487e-08 1.66295e-05
0.00112803 7.00675e-05 -6.77109e-07
7.00675e-05 0.000143304 -1.24859e-06
-6.77109e-07 -1.24859e-06 5.49368e-05
0.000955097 5.82913e-05 -1.14038e-06
5.82913e-05 5.44579e-05 6.85991e-08
-1.14038e-06 6.85991e-08 -3.4172e-05
0.00147187 9.19412e-05 -4.97226e-07
9.19412e-05 0.000196063 9.46979e-09
-4.97226e-07 9.46979e-09 0.000101483
0.00132127 8.46763e-05 -7.17033e-08
8.46763e-05 7.51312e-05 2.99211e-06
-7.17033e-08 2.99211e-06 -3.24592e-06
0.000971298 6.95472e-05 5.56701e-08
6.95472e-05 5.87649e-05 -1.16377e-07
5.56701e-08 -1.16377e-07 -4.63072e-05
0.00116117 8.42002e-05 -3.75367e-06
8.42002e-05 9.82508e-05 -8.02661e-07
-3.75367e-06 -8.02661e-07 -1.92392e-05
0.000904849 2.42147e-05 3.17373e-07
2.42147e-05 1.40723e-05 4.50264e-07
3.17373e-07 4.50264e-07 -5.45759e-05
0.000962646 5.23774e-05 -2.95117e-07
5.23774e-05 5.25322e-05 -5.60168e-07
-2.95117e-07 -5.60168e-07 -3.21847e-05
0.00111574 7.0552e-05 -2.72922e-07
7.0552e-05 0.000136588 -8.33849e-07
-2.72922e-07 -8.33849e-07 4.04973e-05
0.000987017 5.96655e-05 -1.33291e-07
5.96655e-05 6.68159e-05 -2.6887e-07
-1.33291e-07 -2.6887e-07 -2.60188e-05
0.00196094 4.37006e-05 -7.68503e-07
4.37006e-05 0.000219469 -2.73205e-07
-7.68503e-07 -2.73205e-07 0.000157076
0.0012552 7.53986e-05 7.25563e-07
7.53986e-05 -4.89357e-05 -2.89319e-07
7.25563e-07 -2.89319e-07 -0.000113351
0.00154901 9.99518e-05 -9.63701e-07
9.99518e-05 0.00023017 -4.10573e-08
-9.63701e-07 -4.10573e-08 0.00012319
0.000809397 7.02654e-05 5.24248e-07
7.02654e-05 -3.62498e-05 5.81646e-07
5.24248e-07 5.81646e-07 -0.000159401
0.00104328 3.69754e-05 2.4145e-07
3.69754e-05 9.03956e-05 1.59197e-07
2.4145e-07 1.59197e-07 1.24866e-05
0.00169175 1.32203e-05 1.53661e-06
1.32203e-05 6.99917e-05 3.24205e-06
1.53661e-06 3.24205e-06 -2.57823e-06
0.00115648 6.64874e-05 5.16848e-07
6.64874e-05 0.000156223 6.9818e-07
5.16848e-07 6.9818e-07 6.26011e-05
0.00110061 7.09567e-05 5.20607e-07
7.09567e-05 0.000125087 9.13246e-07
5.20607e-07 9.13246e-07 2.04771e-05
0.00210592 7.67175e-05 3.47434e-06
7.67175e-05 0.000235634 5.80203e-07
3.47434e-06 5.80203e-07 0.000185352
0.00134316 9.69547e-05 4.64335e-06
9.69547e-05 3.83781e-05 -1.52352e-06
4.64335e-06 -1.52352e-06 -6.09741e-05
0.00163994 0.000101075 9.98955e-07
0.000101075 0.000351409 2.04838e-06
9.98955e-07 2.04838e-06 0.000218977
0.0010326 2.25569e-05 -7.35062e-07
2.25569e-05 7.99415e-05 -3.75946e-07
-7.35062e-07 -3.75946e-07 1.61937e-05
0.00103722 2.2833e-05 2.07845e-09
2.2833e-05 8.52064e-05 -2.37721e-08
2.07845e-09 -2.37721e-08 1.20863e-05
0.00105001 2.99027e-05 4.57034e-07
2.99027e-05 9.54894e-05 3.78681e-07
4.57034e-07 3.78681e-07 1.41491e-05
0.000947434 6.24933e-06 4.28092e-08
6.24933e-06 3.38577e-05 -9.23454e-07
4.28092e-08 -9.23454e-07 -1.14609e-05
0.000954969 7.44211e-06 1.00623e-07
7.44211e-06 4.35637e-05 -2.18102e-07
1.00623e-07 -2.18102e-07 -1.62607e-05
0.000962038 1.97058e-05 -3.3949e-07
1.97058e-05 4.78943e-05 -1.17372e-06
-3.3949e-07 -1.17372e-06 -2.39315e-05
0.0009466 -2.00439e-05 1.00883e-07
-2.00439e-05 3.23909e-05 3.05686e-08
1.00883e-07 3.05686e-08 -1.19618e-05
0.000856021 -4.66475e-07 -2.88295e-07
-4.66475e-07 -6.90758e-06 4.00511e-07
-2.88295e-07 4.00511e-07 -6.63288e-05
0.00104385 1.88293e-05 1.08148e-07
1.88293e-05 9.03304e-05 -4.58782e-07
1.08148e-07 -4.58782e-07 1.21758e-05
0.000991981 1.04706e-05 9.57876e-08
1.04706e-05 6.58853e-05 4.48503e-07
9.57876e-08 4.48503e-07 -3.49078e-06
0.0010891 3.69736e-05 1.81543e-07
3.69736e-05 0.000112493 -9.04929e-08
1.81543e-07 -9.04929e-08 2.89488e-05
0.000946466 -1.35262e-06 5.0723e-08
-1.35262e-06 3.96095e-05 7.16006e-07
5.0723e-08 7.16006e-07 -3.72918e-05
0.00103904 1.62321e-05 8.24581e-08
1.62321e-05 8.88289e-05 8.05707e-08
8.24581e-08 8.05707e-08 2.17172e-05
0.00096068 1.71557e-05 5.34468e-07
1.71557e-05 4.9203e-05 6.48405e-07
5.34468e-07 6.48405e-07 -9.16185e-06
0.000959973 -6.48025e-06 -2.82087e-07
-6.48025e-06 3.7235e-05 8.24649e-07
-2.82087e-07 8.24649e-07 -5.98238e-06
0.00090521 1.02476e-05 3.11226e-07
1.02476e-05 6.94862e-07 1.55225e-06
3.11226e-07 1.55225e-06 -2.47276e-05
0.000910168 -3.57958e-07 -2.02821e-07
-3.57958e-07 2.4717e-06 2.06129e-08
-2.02821e-07 2.06129e-08 -2.28736e-05
0.0013917 -4.19571e-06 6.81524e-07
-4.19571e-06 0.00024055 1.81255e-06
6.81524e-07 1.81255e-06 0.00024488
0.000910167 -1.00377e-05 -1.40704e-08
-1.00377e-05 2.20953e-06 -1.59656e-06
-1.40704e-08 -1.59656e-06 -2.32039e-05
0.00141238 -7.74847e-06 -1.36275e-06
-7.74847e-06 0.000252748 -1.18326e-06
-1.36275e-06 -1.18326e-06 0.000256911
0.00108759 -7.88091e-06 6.48712e-06
-7.88091e-06 8.48278e-05 6.18088e-06
6.48712e-06 6.18088e-06 0.000102814
0.00143128 -1.14186e-05 -3.70048e-06
-1.14186e-05 0.000264958 -4.23845e-06
-3.70048e-06 -4.23845e-06 0.000268616
0.00103898 -1.17635e-05 2.38112e-06
-1.17635e-05 6.2258e-05 2.37163e-06
2.38112e-06 2.37163e-06 8.00071e-05
0.000983482 -1.52697e-05 -1.77012e-06
-1.52697e-05 3.78295e-05 -1.56069e-06
-1.77012e-06 -1.56069e-06 5.45197e-05
0.000910489 9.49323e-06 3.91607e-07
9.49323e-06 2.70564e-06 -1.69496e-06
3.91607e-07 -1.69496e-06 -2.19124e-05
0.000833997 1.47472e-05 1.11774e-06
1.47472e-05 -3.99287e-05 -3.13736e-06
1.11774e-06 -3.13736e-06 -4.00624e-05
0.000840512 1.79066e-05 -1.09731e-07
1.79066e-05 -3.20254e-05 2.50983e-08
-1.09731e-07 2.50983e-08 -3.41223e-05
0.00220233 2.45238e-05 1.32048e-05
2.45238e-05 0.000671907 -3.77864e-06
1.32048e-05 -3.77864e-06 0.000693123
0.000846939 2.05505e-05 -2.12375e-06
2.05505e-05 -2.42742e-05 3.19617e-06
-2.12375e-06 3.19617e-06 -2.83773e-05
0.00225629 2.92463e-05 -8.58782e-07
2.92463e-05 0.000705615 -4.97717e-08
-8.58782e-07 -4.97717e-08 0.000725222
0.00230646 3.34114e-05 -1.97196e-05
3.34114e-05 0.000737876 3.81555e-06
-1.97196e-05 3.81555e-06 0.000755819
0.00138345 3.10227e-05 7.40498e-07
3.10227e-05 -1.70113e-05 -5.29768e-07
7.40498e-07 -5.29768e-07 -8.54312e-05
0.00158027 1.86629e-06 -2.50911e-07
1.86629e-06 5.76327e-05 -1.40508e-06
-2.50911e-07 -1.40508e-06 -2.10232e-05
0.00160131 -1.16676e-05 -6.73105e-07
-1.16676e-05 6.88644e-05 -1.29647e-06
-6.73105e-07 -1.29647e-06 -2.19472e-05
0.0016626 1.67673e-05 -9.39155e-07
1.67673e-05 9.69242e-05 -5.90562e-07
-9.39155e-07 -5.90562e-07 1.33978e-06
0.00166394 8.87224e-06 4.12517e-08
8.87224e-06 9.60559e-05 2.30983e-07
4.12517e-08 2.30983e-07 1.53601e-06
0.00173413 -1.77547e-05 -1.84649e-08
-1.77547e-05 0.000124922 -1.40373e-07
-1.84649e-08 -1.40373e-07 4.0106e-05
0.00156855 1.76677e-05 -2.44793e-07
1.76677e-05 4.45077e-05 4.11959e-07
-2.44793e-07 4.11959e-07 -2.73362e-05
0.00168632 1.10104e-06 1.18617e-06
1.10104e-06 0.000108614 6.48846e-07
1.18617e-06 6.48846e-07 1.88835e-05
0.00185274 -1.03723e-05 1.25676e-06
-1.03723e-05 0.000173422 1.29007e-06
1.25676e-06 1.29007e-06 9.36104e-05
0.00110092 -9.58534e-06 2.03004e-06
-9.58534e-06 -0.000227387 1.50158e-06
2.03004e-06 1.50158e-06 -0.000306869
0.00160665 1.94873e-05 -1.00934e-06
1.94873e-05 6.89235e-05 -4.72457e-08
-1.00934e-06 -4.72457e-08 -2.58732e-05
0.00167913 1.7152e-06 -1.82667e-06
1.7152e-06 9.0782e-05 4.03584e-07
-1.82667e-06 4.03584e-07 3.9108e-07
0.00159356 -3.84326e-05 -2.32011e-06
-3.84326e-05 6.16162e-05 1.10791e-06
-2.32011e-06 1.10791e-06 -1.48802e-05
0.00110838 -6.82815e-05 -3.01152e-07
-6.82815e-05 0.000118301 5.57911e-07
-3.01152e-07 5.57911e-07 3.70452e-05
0.000917083 -6.86533e-05 1.06309e-07
-6.86533e-05 2.75302e-05 2.49126e-06
1.06309e-07 2.49126e-06 -6.93644e-05
0.00143522 -9.24507e-05 -2.41537e-06
-9.24507e-05 0.000226625 3.51582e-06
-2.41537e-06 3.51582e-06 0.000110163
0.0016198 -7.1826e-05 2.07653e-06
-7.1826e-05 0.000108397 2.31185e-06
2.07653e-06 2.31185e-06 5.28503e-05
0.0012237 -8.10752e-05 -4.03534e-06
-8.10752e-05 -7.08541e-06 -2.96469e-06
-4.03534e-06 -2.96469e-06 -9.15647e-05
0.000845696 -5.94128e-05 -1.02662e-06
-5.94128e-05 -1.41017e-05 -2.09628e-07
-1.02662e-06 -2.09628e-07 -9.60371e-05
0.0010811 -6.66133e-05 -6.79534e-08
-6.66133e-05 0.000105609 -1.69651e-06
-6.79534e-08 -1.69651e-06 1.84771e-05
0.00101649 -2.81491e-05 -5.48611e-08
-2.81491e-05 8.05898e-05 4.4677e-08
-5.48611e-08 4.4677e-08 -2.70919e-06
0.000898971 1.52875e-05 -7.42809e-07
1.52875e-05 1.53099e-06 1.18335e-06
-7.42809e-07 1.18335e-06 -2.69644e-05
0.001025 2.39134e-05 -2.98468e-07
2.39134e-05 7.18589e-05 1.15971e-06
-2.98468e-07 1.15971e-06 2.27605e-05
0.00101623 -2.52578e-05 -9.59113e-07
-2.52578e-05 7.3827e-05 1.73505e-06
-9.59113e-07 1.73505e-06 5.46065e-06
0.00167208 2.42909e-05 1.58789e-07
2.42909e-05 9.72847e-05 2.88954e-07
1.58789e-07 2.88954e-07 4.98243e-06
0.000908678 1.18779e-05 -2.09769e-08
1.18779e-05 3.86108e-06 1.12044e-08
-2.09769e-08 1.12044e-08 -2.27374e-05
0.00084684 -1.98566e-06 -4.84096e-07
-1.98566e-06 -1.78508e-05 3.0497e-08
-4.84096e-07 3.0497e-08 -6.11994e-05
0.00175445 -5.19381e-06 1.43969e-07
-5.19381e-06 0.000115382 -1.94871e-07
1.43969e-07 -1.94871e-07 2.80413e-05
0.00141123 -5.16745e-05 -7.31091e-07
-5.16745e-05 -5.34635e-05 -3.79148e-07
-7.31091e-07 -3.79148e-07 -0.000111212
0.000877061 -6.24667e-05 2.17457e-08
-6.24667e-05 1.48363e-05 9.82859e-07
2.17457e-08 9.82859e-07 -7.15068e-05
0.00135942 -8.68462e-05 -5.84045e-07
-8.68462e-05 0.000236867 3.47467e-07
-5.84045e-07 3.47467e-07 0.000122734
0.00121536 -8.81555e-05 9.19882e-07
-8.81555e-05 8.38907e-05 1.40256e-06
9.19882e-07 1.40256e-06 -3.80216e-05
0.00181553 -9.00543e-05 3.2191e-07
-9.00543e-05 0.000198217 -9.37062e-07
3.2191e-07 -9.37062e-07 0.000141022
0.000987404 -1.3136e-06 7.33118e-07
-1.3136e-06 5.43513e-05 -4.84989e-07
7.33118e-07 -4.84989e-07 7.04381e-06
0.00101821 -1.35331e-05 -5.07347e-07
-1.35331e-05 7.53802e-05 4.87172e-07
-5.07347e-07 4.87172e-07 1.10435e-05
0.000989472 -6.48611e-05 3.7348e-07
-6.48611e-05 4.69059e-05 4.57755e-07
3.7348e-07 4.57755e-07 -3.53207e-05
0.00126065 -7.5152e-05 -6.21355e-07
-7.5152e-05 0.000207271 -5.37128e-07
-6.21355e-07 -5.37128e-07 0.000118589
0.000925245 -5.02156e-05 2.44095e-07
-5.02156e-05 4.30273e-05 3.29738e-07
2.44095e-07 3.29738e-07 -5.29263e-05
0.000999878 -1.71565e-05 1.92878e-07
-1.71565e-05 6.93606e-05 -2.76422e-07
1.92878e-07 -2.76422e-07 -8.50758e-06
0.00166171 2.70237e-05 1.18316e-06
2.70237e-05 8.74205e-05 4.58898e-07
1.18316e-06 4.58898e-07 1.87649e-06
0.00192772 -1.70206e-05 2.33906e-06
-1.70206e-05 0.000191412 1.46416e-07
2.33906e-06 1.46416e-07 0.000111414
0.00202096 -8.44057e-05 -7.59263e-07
-8.44057e-05 0.000190983 -4.74377e-06
-7.59263e-07 -4.74377e-06 0.000159585
0.00136978 -9.80662e-05 3.26283e-06
-9.80662e-05 5.94931e-05 2.46884e-06
3.26283e-06 2.46884e-06 -3.61576e-05
0.00112921 -7.01324e-05 -1.03972e-06
-7.01324e-05 0.000137183 -9.32786e-07
-1.03972e-06 -9.32786e-07 4.59703e-05
0.00162241 -0.000105819 5.78891e-07
-0.000105819 0.000356003 -3.00407e-06
5.78891e-07 -3.00407e-06 0.000214848
0.000760482 2.10406e-05 -5.65651e-07
2.10406e-05 -6.23298e-05 -1.37101e-06
-5.65651e-07 -1.37101e-06 -0.000104264
0.00092701 -1.15101e-05 7.96769e-07
-1.15101e-05 2.31603e-05 -1.145e-06
7.96769e-07 -1.145e-06 -2.14879e-05
0.00116446 -2.34291e-05 2.79043e-07
-2.34291e-05 0.000155865 -5.58435e-07
2.79043e-07 -5.58435e-07 9.96356e-05
0.000857979 1.51265e-05 -5.75507e-07
1.51265e-05 -2.99445e-06 -1.04212e-06
-5.75507e-07 -1.04212e-06 -6.74612e-05
0.00113015 -1.96483e-05 -4.93386e-08
-1.96483e-05 0.000135836 -4.02936e-07
-4.93386e-08 -4.02936e-07 6.22613e-05
0.000832138 -2.44756e-05 2.08348e-08
-2.44756e-05 -5.99232e-06 -5.6395e-08
2.08348e-08 -5.6395e-08 -9.43498e-05
0.00118717 -5.47003e-05 3.05024e-06
-5.47003e-05 0.00018641 -7.38562e-08
3.05024e-06 -7.38562e-08 8.28383e-05
0.000944385 -7.00282e-05 -1.28116e-06
-7.00282e-05 4.95224e-05 1.1453e-06
-1.28116e-06 1.1453e-06 -3.82137e-05
0.000887732 2.8631e-05 -2.7738e-07
2.8631e-05 6.33812e-06 -4.1294e-07
-2.7738e-07 -4.1294e-07 -6.33439e-05
0.00100757 5.59473e-05 -1.33779e-06
5.59473e-05 7.62514e-05 -1.03832e-06
-1.33779e-06 -1.03832e-06 -8.2932e-06
0.00165806 3.86008e-05 -1.4999e-06
3.86008e-05 6.7812e-05 -2.0861e-06
-1.4999e-06 -2.0861e-06 5.15826e-06
0.00141131 7.72732e-05 -9.29227e-07
7.72732e-05 3.94043e-05 1.50987e-06
-9.29227e-07 1.50987e-06 -2.72405e-05
0.00119997 6.57068e-05 -1.116e-06
6.57068e-05 0.000173266 -1.37835e-07
-1.116e-06 -1.37835e-07 8.07416e-05
0.00111388 7.03578e-05 -1.17448e-06
7.03578e-05 0.000136726 -1.85987e-06
-1.17448e-06 -1.85987e-06 4.13604e-05
0.00185937 0.000108234 -1.90484e-06
0.000108234 0.000381876 4.98073e-07
-1.90484e-06 4.98073e-07 0.000276669
0.000969545 7.66813e-05 -8.3658e-07
7.66813e-05 3.68562e-05 -1.39563e-06
-8.3658e-07 -1.39563e-06 -8.5827e-05
0.00102074 4.18748e-05 -2.21074e-07
4.18748e-05 8.0438e-05 -4.50654e-07
-2.21074e-07 -4.50654e-07 1.94567e-06
0.00155994 1.16531e-05 7.85345e-07
1.16531e-05 1.79437e-06 4.84235e-07
7.85345e-07 4.84235e-07 -7.09755e-05
0.00105278 6.30797e-05 2.92915e-07
6.30797e-05 0.0001044 5.41665e-07
2.92915e-07 5.41665e-07 1.12268e-05
0.000943505 6.56051e-05 2.11129e-07
6.56051e-05 4.40202e-05 -2.63409e-07
2.11129e-07 -2.63409e-07 -6.18866e-05
0.00162647 6.78501e-05 8.33671e-07
6.78501e-05 5.00404e-06 -3.50885e-07
8.33671e-07 -3.50885e-07 -4.73373e-05
0.00166804 0.000106954 1.02795e-06
0.000106954 0.000192077 -4.70412e-07
1.02795e-06 -4.70412e-07 9.3574e-05
0.00159018 9.99894e-05 8.06305e-08
9.99894e-05 0.000330772 4.80967e-07
8.06305e-08 4.80967e-07 0.000198678
0.00108447 4.8434e-05 1.65522e-07
4.8434e-05 0.000118982 4.15426e-07
1.65522e-07 4.15426e-07 3.05741e-05
0.00206274 4.75819e-05 2.63619e-06
4.75819e-05 0.000157559 2.26122e-06
2.63619e-06 2.26122e-06 9.99439e-05
0.00141333 7.54626e-05 -3.31334e-07
7.54626e-05 0.000272816 -1.64531e-07
-3.31334e-07 -1.64531e-07 0.000174653
0.00166925 9.44052e-05 -1.48907e-06
9.44052e-05 0.000398746 1.66586e-06
-1.48907e-06 1.66586e-06 0.000277888
0.00143456 0.000107911 6.91651e-06
0.000107911 -8.44288e-05 -1.26211e-06
6.91651e-06 -1.26211e-06 -0.00015622
0.00102775 9.01489e-05 1.50278e-07
9.01489e-05 -2.21658e-06 2.38112e-06
1.50278e-07 2.38112e-06 -0.00013587
0.00155725 3.35386e-05 1.3863e-05
3.35386e-05 6.28097e-05 -2.15739e-06
1.3863e-05 -2.15739e-06 4.25453e-05
0.00104024 2.33038e-05 -3.65389e-07
2.33038e-05 8.69924e-05 -6.40638e-07
-3.65389e-07 -6.40638e-07 1.38517e-05
0.00103298 3.06085e-05 -1.7004e-08
3.06085e-05 8.77694e-05 -1.02616e-07
-1.7004e-08 -1.02616e-07 6.29179e-06
0.00112641 4.34244e-05 1.89994e-07
4.34244e-05 0.000131366 -1.298e-07
1.89994e-07 -1.298e-07 4.46204e-05
0.000936786 -1.55762e-05 3.9895e-07
-1.55762e-05 2.75491e-05 -8.2761e-07
3.9895e-07 -8.2761e-07 -1.6937e-05
0.000853327 -2.10339e-05 -2.67813e-08
-2.10339e-05 -8.50772e-06 -2.05596e-07
-2.67813e-08 -2.05596e-07 -6.78761e-05
0.00111043 3.29572e-05 -5.46279e-07
3.29572e-05 0.00012858 -9.72879e-08
-5.46279e-07 -9.72879e-08 5.89702e-05
0.000994747 1.55522e-05 -2.29318e-07
1.55522e-05 6.44601e-05 -1.10638e-06
-2.29318e-07 -1.10638e-06 -1.45571e-05
0.000947788 -1.66026e-05 -2.72581e-07
-1.66026e-05 3.24648e-05 2.48368e-08
-2.72581e-07 2.48368e-08 -1.17318e-05
0.000901657 2.62873e-06 1.85966e-07
2.62873e-06 1.67266e-05 5.97295e-08
1.85966e-07 5.97295e-08 -4.09876e-05
0.00103741 3.20784e-05 -2.15318e-07
3.20784e-05 8.56299e-05 -6.49315e-07
-2.15318e-07 -6.49315e-07 2.11755e-06
0.00103582 3.1228e-06 -2.34602e-07
3.1228e-06 8.70558e-05 -1.5112e-07
-2.34602e-07 -1.5112e-07 1.9879e-05
0.00102132 2.50294e-06 2.09339e-07
2.50294e-06 7.90743e-05 -9.10486e-09
2.09339e-07 -9.10486e-09 2.73567e-06
0.00105487 2.66315e-05 -2.19072e-07
2.66315e-05 8.90402e-05 5.25065e-07
-2.19072e-07 5.25065e-07 5.53758e-06
0.00105791 2.23662e-05 1.5216e-07
2.23662e-05 0.00010149 -9.89946e-08
1.5216e-07 -9.89946e-08 2.83558e-05
0.00108635 2.04242e-05 1.3194e-07
2.04242e-05 0.000111543 -1.37266e-07
1.3194e-07 -1.37266e-07 4.6205e-05
0.000817802 8.28976e-06 -4.12667e-07
8.28976e-06 -2.66655e-05 6.07985e-07
-4.12667e-07 6.07985e-07 -8.48163e-05
0.000793887 1.10346e-05 3.83283e-07
1.10346e-05 -4.78187e-05 1.20853e-06
3.83283e-07 1.20853e-06 -9.24796e-05
0.00112361 -1.49483e-06 2.50645e-07
-1.49483e-06 0.00013278 8.95341e-08
2.50645e-07 8.95341e-08 7.57079e-05
0.00079 5.55812e-07 -3.83231e-07
5.55812e-07 -4.95392e-05 1.06578e-06
-3.83231e-07 1.06578e-06 -9.35925e-05
0.000907867 1.18314e-05 2.1518e-07
1.18314e-05 2.25977e-06 1.55072e-06
2.1518e-07 1.55072e-06 -2.31492e-05
0.000904641 1.66847e-06 -2.75387e-07
1.66847e-06 3.74989e-07 9.23733e-09
-2.75387e-07 9.23733e-09 -2.50128e-05
0.00085693 3.47475e-07 1.51826e-07
3.47475e-07 -3.64354e-05 2.95954e-06
1.51826e-07 2.95954e-06 -3.50008e-05
0.000908182 -8.35721e-06 2.32447e-07
-8.35721e-06 1.3967e-06 -1.56909e-06
2.32447e-07 -1.56909e-06 -2.3916e-05
0.00113652 -3.43159e-06 -8.07922e-07
-3.43159e-06 0.000108657 -1.21174e-06
-8.07922e-07 -1.21174e-06 0.000111469
0.00216063 -5.40354e-06 3.79413e-06
-5.40354e-06 0.000638296 3.88228e-06
3.79413e-06 3.88228e-06 0.000662086
0.00143345 -7.3406e-06 -2.28093e-06
-7.3406e-06 0.00026387 -4.16883e-06
-2.28093e-06 -4.16883e-06 0.000267883
0.00104493 -8.10658e-06 1.26809e-06
-8.10658e-06 6.23201e-05 2.37011e-06
1.26809e-06 2.37011e-06 8.05418e-05
0.000989305 -1.1653e-05 -1.25109e-06
-1.1653e-05 3.64415e-05 -1.50435e-06
-1.25109e-06 -1.50435e-06 5.43866e-05
0.000918548 6.34625e-06 3.16124e-07
6.34625e-06 5.01626e-06 -1.64764e-06
3.16124e-07 -1.64764e-06 -1.80147e-05
0.000912832 9.09571e-06 -3.17459e-08
9.09571e-06 3.61672e-06 5.36397e-09
-3.17459e-08 5.36397e-09 -2.09804e-05
0.000843166 1.1415e-05 7.14066e-07
1.1415e-05 -3.91489e-05 -3.09196e-06
7.14066e-07 -3.09196e-06 -3.76703e-05
0.00112667 1.61526e-05 -4.46807e-07
1.61526e-05 0.00011135 2.90535e-08
-4.46807e-07 2.90535e-08 0.000112494
0.00216165 1.96487e-05 1.07383e-05
1.96487e-05 0.000646414 -3.80561e-06
1.07383e-05 -3.80561e-06 0.000668866
0.000857198 1.80232e-05 -1.68665e-06
1.80232e-05 -2.35654e-05 3.17335e-06
-1.68665e-06 3.17335e-06 -2.5751e-05
0.00220579 2.46211e-05 -9.35628e-07
2.46211e-05 0.000674368 -4.18802e-08
-9.35628e-07 -4.18802e-08 0.000695401
0.00225786 2.91539e-05 -1.71662e-05
2.91539e-05 0.000707107 3.82316e-06
-1.71662e-05 3.82316e-06 0.000726559
0.00150677 1.79014e-05 -9.23655e-07
1.79014e-05 1.63709e-05 -1.04318e-06
-9.23655e-07 -1.04318e-06 -5.46387e-05
0.00168422 -1.59324e-05 -5.21319e-07
-1.59324e-05 9.96579e-05 -9.88743e-07
-5.21319e-07 -9.88743e-07 1.42194e-05
0.00164839 5.29046e-06 -8.99141e-07
5.29046e-06 8.90743e-05 -4.22778e-07
-8.99141e-07 -4.22778e-07 -5.40608e-06
0.00167188 2.79585e-06 -7.47265e-08
2.79585e-06 0.00010073 -1.10178e-07
-7.47265e-08 -1.10178e-07 1.10887e-05
0.00168392 -1.006e-05 -1.88279e-07
-1.006e-05 9.52193e-05 3.06146e-07
-1.88279e-07 3.06146e-07 1.56454e-05
0.00145164 -1.42809e-05 5.11022e-07
-1.42809e-05 -5.04161e-05 -2.24223e-07
5.11022e-07 -2.24223e-07 -0.000131486
0.00164128 5.44617e-06 1.98972e-06
5.44617e-06 8.25355e-05 8.07974e-08
1.98972e-06 8.07974e-08 2.02089e-06
0.00188974 -3.5551e-05 -2.09324e-06
-3.5551e-05 0.000108384 -6.31944e-06
-2.09324e-06 -6.31944e-06 8.03441e-05
0.00175364 -5.73413e-06 3.15067e-06
-5.73413e-06 4.78124e-05 1.98726e-06
3.15067e-06 1.98726e-06 -2.73741e-05
0.000947363 1.46872e-06 3.53435e-07
1.46872e-06 3.17476e-05 -8.68333e-07
3.53435e-07 -8.68333e-07 -7.51607e-06
0.00164847 2.40431e-05 -1.33296e-06
2.40431e-05 8.64841e-05 -4.74774e-07
-1.33296e-06 -4.74774e-07 -5.06644e-06
0.00182007 -5.96726e-06 -2.1435e-06
-5.96726e-06 0.00014565 4.10153e-07
-2.1435e-06 4.10153e-07 5.84597e-05
0.00130081 -5.21796e-05 -3.58174e-07
-5.21796e-05 -0.00010321 2.7637e-06
-3.58174e-07 2.7637e-06 -0.000164529
0.000887727 -6.24725e-05 5.68194e-07
-6.24725e-05 2.11582e-05 1.02789e-06
5.68194e-07 1.02789e-06 -6.40972e-05
0.00134698 -8.68725e-05 -8.44218e-07
-8.68725e-05 0.000231258 4.13372e-06
-8.44218e-07 4.13372e-06 0.000114141
0.000975457 -7.94709e-05 -9.46219e-07
-7.94709e-05 -4.04801e-05 4.04155e-07
-9.46219e-07 4.04155e-07 -0.000158707
0.001457 -8.52516e-05 -2.27142e-06
-8.52516e-05 2.47396e-05 -2.49994e-06
-2.27142e-06 -2.49994e-06 -3.25826e-05
0.00114469 -6.95231e-05 1.20909e-06
-6.95231e-05 0.000123004 -1.18454e-06
1.20909e-06 -1.18454e-06 3.98957e-05
0.000885497 -6.31007e-05 -3.78738e-06
-6.31007e-05 1.74885e-05 -4.2229e-06
-3.78738e-06 -4.2229e-06 -6.71679e-05
0.000840404 -4.71499e-05 6.53065e-08
-4.71499e-05 1.9733e-06 5.54712e-07
6.53065e-08 5.54712e-07 -9.52569e-05
0.000911281 1.15456e-05 -7.31593e-07
1.15456e-05 4.99629e-06 1.76019e-06
-7.31593e-07 1.76019e-06 -2.16069e-05
0.00102491 -2.08035e-05 5.01461e-08
-2.08035e-05 8.14183e-05 -1.56031e-08
5.01461e-08 -1.56031e-08 3.36903e-06
0.00118738 -2.21985e-05 -3.78283e-07
-2.21985e-05 0.0001581 6.45102e-07
-3.78283e-07 6.45102e-07 0.000111778
0.00100062 -1.1525e-06 -1.84934e-07
-1.1525e-06 6.71499e-05 1.42638e-06
-1.84934e-07 1.42638e-06 2.42521e-06
0.000753958 8.321e-06 7.73658e-08
8.321e-06 -6.69058e-05 1.0174e-06
7.73658e-08 1.0174e-06 -0.000109624
0.00168889 2.55488e-05 -1.48846e-07
2.55488e-05 9.87233e-05 2.46279e-07
-1.48846e-07 2.46279e-07 1.33395e-05
0.000859967 5.25227e-06 2.82495e-07
5.25227e-06 -1.18773e-05 -4.54306e-07
2.82495e-07 -4.54306e-07 -5.32369e-05
0.000933379 -1.2636e-05 -2.80311e-07
-1.2636e-05 2.70165e-05 2.45427e-08
-2.80311e-07 2.45427e-08 -1.80769e-05
0.000983353 -9.15758e-06 -6.77755e-07
-9.15758e-06 6.28274e-05 4.69727e-07
-6.77755e-07 4.69727e-07 5.50474e-06
0.00182396 -1.66215e-05 1.02476e-06
-1.66215e-05 0.000131796 4.37376e-07
1.02476e-06 4.37376e-07 5.37527e-05
0.00169433 -8.17675e-05 -1.75419e-06
-8.17675e-05 4.2354e-05 -9.64221e-07
-1.75419e-06 -9.64221e-07 7.14916e-06
0.000968286 -6.58043e-05 -4.64198e-07
-6.58043e-05 5.03117e-05 6.56565e-07
-4.64198e-07 6.56565e-07 -3.89903e-05
0.00112002 -8.88899e-05 6.37393e-07
-8.88899e-05 0.000115209 -6.69132e-07
6.37393e-07 -6.69132e-07 -2.70693e-05
0.00138612 -9.9928e-05 2.96833e-08
-9.9928e-05 6.93158e-05 9.22715e-07
2.96833e-08 9.22715e-07 -2.55666e-05
0.000950348 9.18091e-06 -1.68562e-07
9.18091e-06 4.381e-05 4.66392e-08
-1.68562e-07 4.66392e-08 -1.93028e-05
0.00108198 -2.51301e-05 -5.7482e-08
-2.51301e-05 0.000112689 -2.39527e-08
-5.7482e-08 -2.39527e-08 3.76547e-05
0.000893072 -6.79441e-05 -2.20737e-06
-6.79441e-05 2.338e-05 3.18224e-07
-2.20737e-06 3.18224e-07 -6.57589e-05
0.00114272 -4.7122e-05 2.28688e-07
-4.7122e-05 0.000163239 -2.58432e-07
2.28688e-07 -2.58432e-07 6.14077e-05
0.000950453 -3.3113e-05 3.43654e-08
-3.3113e-05 5.38586e-05 6.56691e-07
3.43654e-08 6.56691e-07 -3.40792e-05
0.00160282 2.09727e-05 1.50046e-06
2.09727e-05 3.40768e-05 7.5588e-08
1.50046e-06 7.5588e-08 -4.9876e-05
0.00238114 -5.17233e-05 3.16927e-06
-5.17233e-05 0.000335005 -2.75866e-06
3.16927e-06 -2.75866e-06 0.000291335
0.00207931 -0.000119093 6.18641e-06
-0.000119093 0.000256825 -1.61078e-06
6.18641e-06 -1.61078e-06 0.000190822
0.0014577 -0.000108061 -4.499e-07
-0.000108061 0.000217784 -1.08829e-06
-4.499e-07 -1.08829e-06 8.82145e-05
0.00103063 -7.76515e-05 3.40912e-07
-7.76515e-05 0.000104502 -2.13953e-06
3.40912e-07 -2.13953e-06 -8.48767e-06
0.000766871 1.34023e-05 9.30492e-08
1.34023e-05 -4.797e-05 -1.04116e-06
9.30492e-08 -1.04116e-06 -0.000104135
0.00087968 1.76303e-05 3.0899e-07
1.76303e-05 1.01634e-05 -1.13493e-06
3.0899e-07 -1.13493e-06 -5.15393e-05
0.0011208 9.66736e-06 3.29687e-07
9.66736e-06 0.000136372 1.65691e-08
3.29687e-07 1.65691e-08 6.88874e-05
0.00103254 -3.60772e-05 6.58484e-07
-3.60772e-05 9.20694e-05 -7.3159e-07
6.58484e-07 -7.3159e-07 1.81193e-05
0.00106324 -2.17253e-05 2.58016e-08
-2.17253e-05 0.000106102 2.67642e-07
2.58016e-08 2.67642e-07 2.47142e-05
0.00102147 -3.30876e-05 -2.78541e-07
-3.30876e-05 9.99135e-05 -1.35289e-06
-2.78541e-07 -1.35289e-06 4.6632e-06
0.000953063 -5.51805e-05 4.73969e-06
-5.51805e-05 9.06019e-05 4.29858e-07
4.73969e-06 4.29858e-07 -2.99502e-05
0.000995198 4.56964e-05 -6.85196e-07
4.56964e-05 6.88791e-05 -1.13367e-06
-6.85196e-07 -1.13367e-06 -1.01128e-05
0.000944311 5.91468e-05 -1.78033e-09
5.91468e-05 5.01864e-05 1.73084e-07
-1.78033e-09 1.73084e-07 -4.24859e-05
0.00146195 9.39116e-06 -9.9302e-07
9.39116e-06 -5.13324e-05 -1.80578e-06
-9.9302e-07 -1.80578e-06 -0.000124076
0.00113916 5.91038e-05 -7.24605e-07
5.91038e-05 -0.000229837 -1.69487e-06
-7.24605e-07 -1.69487e-06 -0.000283686
0.00199582 0.000117262 -2.88776e-06
0.000117262 0.000346228 -8.47097e-09
-2.88776e-06 -8.47097e-09 0.000248635
0.000808636 6.11202e-05 -9.92772e-08
6.11202e-05 -2.5621e-05 -1.0071e-06
-9.92772e-08 -1.0071e-06 -0.000132565
0.00147432 9.69841e-05 -5.06045e-07
9.69841e-05 0.000276677 -5.47702e-07
-5.06045e-07 -5.47702e-07 0.000145534
0.00108439 4.75865e-05 8.14854e-08
4.75865e-05 0.00011938 8.96403e-08
8.14854e-08 8.96403e-08 3.18781e-05
0.0016125 4.38866e-05 -1.52626e-06
4.38866e-05 -7.19717e-05 1.44154e-07
-1.52626e-06 1.44154e-07 -0.000128242
0.00119565 6.94285e-05 -4.51436e-07
6.94285e-05 0.000167465 -2.46155e-07
-4.51436e-07 -2.46155e-07 6.98107e-05
0.00128238 8.05843e-05 -3.64357e-07
8.05843e-05 0.000214956 4.35993e-07
-3.64357e-07 4.35993e-07 9.42897e-05
0.00170116 0.000109309 1.84118e-06
0.000109309 4.01703e-05 -1.2543e-06
1.84118e-06 -1.2543e-06 -2.73293e-05
0.00125156 9.75698e-05 -1.10153e-06
9.75698e-05 0.000115623 1.31347e-06
-1.10153e-06 1.31347e-06 -2.4415e-05
0.00184316 1.71248e-05 -2.0578e-06
1.71248e-05 0.000112505 -3.04003e-06
-2.0578e-06 -3.04003e-06 9.29869e-05
0.00112135 5.64571e-05 -6.48049e-07
5.64571e-05 0.000132916 -7.17331e-07
-6.48049e-07 -7.17331e-07 4.01208e-05
0.00212419 0.0001132 8.91279e-06
0.0001132 0.000153691 -2.15493e-06
8.91279e-06 -2.15493e-06 0.000112134
0.00129328 7.77418e-05 -1.6714e-06
7.77418e-05 0.000224313 -6.24744e-07
-1.6714e-06 -6.24744e-07 0.000121941
0.00102097 7.89314e-05 -1.54885e-06
7.89314e-05 0.000110444 1.3825e-06
-1.54885e-06 1.3825e-06 -3.66894e-05
0.000483604 0.000106587 2.16732e-07
0.000106587 -0.000361571 1.55537e-07
2.16732e-07 1.55537e-07 -0.000485316
0.00610584 -0.00011947 -2.13409e-05
-0.00011947 0.0021028 -7.95387e-07
-2.13409e-05 -7.95387e-07 0.00157751
0.00256689 -0.000108435 5.80256e-05
-0.000108435 0.00022317 9.09901e-06
5.80256e-05 9.09901e-06 -2.99417e-05
0.00118252 0.000119503 1.09267e-05
0.000119503 -0.000197447 5.42731e-06
1.09267e-05 5.42731e-06 -0.000118567
-0.00266219 -0.000168954 -3.9257e-05
-0.000168954 -0.00139234 -2.20571e-05
-3.9257e-05 -2.20571e-05 -0.00133331
0.00147456 -0.000245022 -1.28586e-05
-0.000245022 -8.59737e-05 -2.15202e-06
-1.28586e-05 -2.15202e-06 0.000498102
0.00101988 3.0817e-05 -3.84457e-07
3.0817e-05 8.18503e-05 -6.43395e-07
-3.84457e-07 -6.43395e-07 2.78128e-07
0.00109647 4.1431e-05 7.30986e-08
4.1431e-05 0.000117733 -8.17947e-08
7.30986e-08 -8.17947e-08 3.12999e-05
0.00110671 4.57487e-05 1.4083e-07
4.57487e-05 0.000112754 1.1656e-07
1.4083e-07 1.1656e-07 2.58696e-05
0.000935683 -2.83616e-05 2.64455e-07
-2.83616e-05 2.77383e-05 -8.16441e-07
2.64455e-07 -8.16441e-07 -1.74363e-05
0.00083551 1.41656e-05 5.88646e-08
1.41656e-05 -1.69235e-05 -6.51415e-07
5.88646e-08 -6.51415e-07 -7.54865e-05
0.00102999 -1.20217e-05 9.10897e-08
-1.20217e-05 8.33247e-05 -3.88933e-07
9.10897e-08 -3.88933e-07 1.65236e-05
0.00109152 9.51295e-06 -8.55712e-08
9.51295e-06 0.000116304 -4.57903e-07
-8.55712e-08 -4.57903e-07 4.05507e-05
0.00100492 2.62512e-05 -3.82452e-07
2.62512e-05 6.81083e-05 -1.20927e-06
-3.82452e-07 -1.20927e-06 -1.53396e-05
0.00100974 2.60232e-05 -3.28424e-07
2.60232e-05 7.2891e-05 -4.26545e-07
-3.28424e-07 -4.26545e-07 6.21625e-06
0.000869597 6.18452e-06 1.49741e-07
6.18452e-06 -7.97284e-06 4.18018e-07
1.49741e-07 4.18018e-07 -5.275e-05
0.000906787 3.23822e-06 -1.55254e-07
3.23822e-06 1.92756e-05 4.35332e-08
-1.55254e-07 4.35332e-08 -3.86133e-05
0.00103651 2.73909e-05 -4.43238e-08
2.73909e-05 8.17902e-05 1.67596e-07
-4.43238e-08 1.67596e-07 -1.36701e-06
0.00103786 2.03597e-05 3.70594e-08
2.03597e-05 8.98409e-05 -1.89631e-07
3.70594e-08 -1.89631e-07 1.67039e-05
0.00100026 3.78738e-05 5.00671e-08
3.78738e-05 7.23016e-05 -3.37107e-07
5.00671e-08 -3.37107e-07 -4.80533e-08
0.00108602 4.66838e-05 2.1214e-07
4.66838e-05 0.000111743 5.19782e-07
2.1214e-07 5.19782e-07 3.13039e-05
0.000874262 1.74014e-05 1.05262e-07
1.74014e-05 -7.29412e-07 7.80573e-07
1.05262e-07 7.80573e-07 -6.70458e-05
0.000851235 2.98831e-06 3.58116e-07
2.98831e-06 -1.12624e-05 7.88397e-08
3.58116e-07 7.88397e-08 -6.89726e-05
0.000767781 -2.81434e-05 -1.15848e-06
-2.81434e-05 -5.97851e-05 1.16646e-06
-1.15848e-06 1.16646e-06 -0.000104858
0.00100836 8.4646e-06 -6.61405e-08
8.4646e-06 7.02067e-05 3.80508e-07
-6.61405e-08 3.80508e-07 1.37799e-05
0.00112273 4.41884e-05 1.4891e-07
4.41884e-05 0.000130906 1.53819e-07
1.4891e-07 1.53819e-07 6.53103e-05
0.000960319 -2.69592e-06 -3.43338e-07
-2.69592e-06 4.8305e-05 6.01484e-07
-3.43338e-07 6.01484e-07 -9.71064e-06
0.000988895 8.6891e-06 3.42082e-07
8.6891e-06 6.16482e-05 -4.17867e-07
3.42082e-07 -4.17867e-07 5.08805e-06
0.000944544 -1.90106e-05 -8.65291e-07
-1.90106e-05 3.08135e-05 7.05942e-07
-8.65291e-07 7.05942e-07 -1.28879e-05
0.000789557 4.09493e-06 1.44926e-07
4.09493e-06 -4.83975e-05 3.89137e-07
1.44926e-07 3.89137e-07 -9.3366e-05
0.000909456 1.10305e-05 -6.70689e-08
1.10305e-05 2.982e-06 1.55224e-06
-6.70689e-08 1.55224e-06 -2.24555e-05
0.000903649 3.06197e-06 -2.01769e-07
3.06197e-06 3.82877e-08 4.27651e-10
-2.01769e-07 4.27651e-10 -2.52913e-05
0.00087459 3.70202e-06 -3.49845e-07
3.70202e-06 -2.66666e-05 4.15279e-06
-3.49845e-07 4.15279e-06 -2.5429e-05
0.000903357 -7.18927e-06 3.84017e-07
-7.18927e-06 -3.09837e-07 -1.54742e-06
3.84017e-07 -1.54742e-06 -2.56555e-05
0.000858882 3.09182e-07 9.58995e-08
3.09182e-07 -3.54448e-05 6.64508e-09
9.58995e-08 6.64508e-09 -3.40131e-05
0.00216036 -9.29431e-07 2.09838e-08
-9.29431e-07 0.000637576 3.8954e-06
2.09838e-08 3.8954e-06 0.000661447
0.000876611 -2.99698e-06 -4.62448e-07
-2.99698e-06 -2.56013e-05 -4.18557e-06
-4.62448e-07 -4.18557e-06 -2.43234e-05
0.00159951 -4.6962e-06 -1.61556e-07
-4.6962e-06 0.00034774 1.77085e-08
-1.61556e-07 1.77085e-08 0.000368808
0.00100179 -7.75593e-06 -7.79179e-07
-7.75593e-06 3.95814e-05 -1.47373e-06
-7.79179e-07 -1.47373e-06 5.80749e-05
0.000921847 3.18525e-06 1.12734e-07
3.18525e-06 5.35107e-06 -1.68392e-06
1.12734e-07 -1.68392e-06 -1.66278e-05
0.00091632 5.85986e-06 1.95853e-08
5.85986e-06 3.58978e-06 -1.92896e-09
1.95853e-08 -1.92896e-09 -1.93939e-05
0.000851758 7.79817e-06 4.81339e-07
7.79817e-06 -3.76522e-05 -3.04562e-06
4.81339e-07 -3.04562e-06 -3.48582e-05
0.000914372 8.73008e-06 -5.39992e-07
8.73008e-06 4.10482e-06 1.69724e-06
-5.39992e-07 1.69724e-06 -2.0466e-05
0.00111875 1.24011e-05 -1.79525e-07
1.24011e-05 0.000103203 -5.93784e-07
-1.79525e-07 -5.93784e-07 0.000106043
0.00212654 1.47473e-05 8.02361e-06
1.47473e-05 0.000624628 -3.81029e-06
8.02361e-06 -3.81029e-06 0.000648115
0.000856037 1.50156e-05 -1.30309e-06
1.50156e-05 -2.85415e-05 3.14948e-06
-1.30309e-06 3.14948e-06 -2.89551e-05
0.0021862 1.92371e-05 -4.26354e-06
1.92371e-05 0.000660019 1.10201e-06
-4.26354e-06 1.10201e-06 0.000682196
0.00221366 2.46776e-05 -1.45734e-05
2.46776e-05 0.00067909 3.8514e-06
-1.45734e-05 3.8514e-06 0.000699927
0.00147473 -8.86224e-06 -7.41572e-07
-8.86224e-06 -2.55306e-06 -4.51889e-07
-7.41572e-07 -4.51889e-07 -8.19156e-05
0.00165052 3.88356e-06 -1.15977e-06
3.88356e-06 8.94594e-05 -9.25589e-07
-1.15977e-06 -9.25589e-07 -1.08486e-07
0.00168792 -1.72202e-05 -5.15686e-07
-1.72202e-05 7.19411e-05 -1.46429e-06
-5.15686e-07 -1.46429e-06 -1.1004e-05
0.00164238 -3.29158e-05 -1.80037e-06
-3.29158e-05 1.98077e-06 -5.58712e-07
-1.80037e-06 -5.58712e-07 -3.25401e-05
0.00155588 3.43061e-06 -9.09657e-07
3.43061e-06 3.39177e-05 -2.30605e-07
-9.09657e-07 -2.30605e-07 -4.78023e-05
0.00163794 -4.73835e-07 7.24795e-07
-4.73835e-07 8.61097e-06 2.65395e-07
7.24795e-07 2.65395e-07 -7.00336e-05
0.00214599 2.45961e-05 2.27585e-06
2.45961e-05 0.000263049 2.27129e-06
2.27585e-06 2.27129e-06 0.000166458
0.00201993 -0.000100623 0.000142774
-0.000100623 0.000215047 3.3209e-05
0.000142774 3.3209e-05 -1.20437e-05
0.00123143 -2.53519e-05 -8.14907e-06
-2.53519e-05 -0.000106352 1.89362e-06
-8.14907e-06 1.89362e-06 -0.000167749
0.00094483 5.79138e-06 -4.56043e-07
5.79138e-06 3.13826e-05 -9.29997e-07
-4.56043e-07 -9.29997e-07 -7.95792e-06
0.000947888 -1.47728e-05 4.1464e-07
-1.47728e-05 3.28062e-05 -1.67574e-08
4.1464e-07 -1.67574e-08 -7.11724e-06
0.000952809 -8.17096e-06 -1.32862e-07
-8.17096e-06 4.53139e-05 -3.53348e-07
-1.32862e-07 -3.53348e-07 -6.42533e-06
0.000962014 -1.88229e-05 -3.95148e-07
-1.88229e-05 5.34787e-05 -1.46496e-07
-3.95148e-07 -1.46496e-07 -1.54675e-07
0.00171808 2.40271e-05 -7.40285e-07
2.40271e-05 0.000110819 -7.61434e-07
-7.40285e-07 -7.61434e-07 2.56166e-05
0.00175566 -1.65759e-05 -5.56476e-08
-1.65759e-05 9.16767e-05 1.39659e-06
-5.56476e-08 1.39659e-06 1.5199e-05
0.00133289 -7.92624e-05 -4.63218e-06
-7.92624e-05 -0.000123165 1.45574e-06
-4.63218e-06 1.45574e-06 -0.000163271
0.000848025 -6.27988e-05 3.29223e-07
-6.27988e-05 -1.57846e-05 2.5227e-06
3.29223e-07 2.5227e-06 -0.000103339
0.000686155 -7.37071e-05 1.14634e-06
-7.37071e-05 -9.19484e-05 2.0628e-06
1.14634e-06 2.0628e-06 -0.000234169
0.00136891 -0.000101038 -2.45113e-06
-0.000101038 6.22828e-05 -1.12611e-06
-2.45113e-06 -1.12611e-06 -3.1241e-05
0.000848178 -6.60492e-05 -4.43532e-06
-6.60492e-05 8.34537e-07 5.43809e-07
-4.43532e-06 5.43809e-07 -8.98009e-05
0.00107652 -3.7966e-05 -9.28856e-07
-3.7966e-05 0.000128645 -2.11764e-07
-9.28856e-07 -2.11764e-07 2.88259e-05
0.00106869 -4.23596e-05 -4.78187e-07
-4.23596e-05 0.000113795 1.33873e-06
-4.78187e-07 1.33873e-06 2.62432e-05
0.000937664 -5.62863e-07 -7.90063e-07
-5.62863e-07 2.92591e-05 1.17135e-06
-7.90063e-07 1.17135e-06 -1.59487e-05
0.00103311 -3.28753e-05 -9.45073e-08
-3.28753e-05 8.9055e-05 5.27169e-07
-9.45073e-08 5.27169e-07 1.26546e-05
0.00103553 1.08849e-05 -6.07901e-07
1.08849e-05 8.6759e-05 9.35089e-07
-6.07901e-07 9.35089e-07 2.51648e-05
0.000958196 -5.05164e-06 -7.58579e-08
-5.05164e-06 3.83096e-05 4.40564e-07
-7.58579e-08 4.40564e-07 -2.69575e-06
0.000788465 1.56308e-05 4.70644e-08
1.56308e-05 -3.62635e-05 1.41842e-06
4.70644e-08 1.41842e-06 -9.51106e-05
0.00167229 1.98837e-05 -4.83404e-07
1.98837e-05 7.30836e-05 1.21109e-06
-4.83404e-07 1.21109e-06 -9.56872e-06
0.000947571 1.13859e-05 2.3568e-07
1.13859e-05 4.37785e-05 -4.92693e-07
2.3568e-07 -4.92693e-07 -1.06509e-05
0.000919008 4.55195e-06 4.43081e-07
4.55195e-06 3.02786e-05 6.68715e-09
4.43081e-07 6.68715e-09 -3.0396e-05
0.00100213 2.67712e-05 -2.31374e-07
2.67712e-05 7.4827e-05 9.15046e-07
-2.31374e-07 9.15046e-07 7.8286e-06
0.00196248 -5.08431e-05 -3.09229e-06
-5.08431e-05 0.000130734 5.38642e-07
-3.09229e-06 5.38642e-07 8.26956e-05
0.0014711 -0.000104458 -8.51172e-07
-0.000104458 -3.51562e-05 -1.33583e-06
-8.51172e-07 -1.33583e-06 -9.95589e-05
0.00103571 -7.80904e-05 1.15768e-07
-7.80904e-05 0.000100359 -2.6661e-07
1.15768e-07 -2.6661e-07 -1.07464e-05
0.00151178 -0.000109701 9.28962e-08
-0.000109701 0.000250115 -4.50666e-07
9.28962e-08 -4.50666e-07 0.000117302
0.00107046 -2.00885e-05 -2.7658e-07
-2.00885e-05 0.00011035 8.86992e-08
-2.7658e-07 8.86992e-08 3.76806e-05
0.0010099 -2.56456e-05 -7.69421e-08
-2.56456e-05 7.95241e-05 7.34575e-07
-7.69421e-08 7.34575e-07 -2.018e-06
0.000971816 -5.5773e-05 2.06101e-06
-5.5773e-05 9.41652e-05 -5.06882e-07
2.06101e-06 -5.06882e-07 -2.14111e-05
0.00112813 -4.31881e-05 9.53608e-08
-4.31881e-05 0.000154362 -5.71658e-07
9.53608e-08 -5.71658e-07 5.66075e-05
0.00127972 1.04942e-05 2.77334e-06
1.04942e-05 -0.000194654 2.09374e-07
2.77334e-06 2.09374e-07 -0.000266095
0.00232727 -0.000116376 1.16041e-05
-0.000116376 0.000228926 -5.37231e-06
1.16041e-05 -5.37231e-06 0.000177503
0.00202471 -0.000127776 3.90875e-06
-0.000127776 0.000393735 -2.4223e-06
3.90875e-06 -2.4223e-06 0.000269227
0.00112144 -9.25248e-05 -2.80055e-07
-9.25248e-05 0.000150339 -1.07471e-06
-2.80055e-07 -1.07471e-06 2.56125e-05
0.000917097 1.7357e-05 -6.17516e-07
1.7357e-05 3.40045e-05 -5.24393e-07
-6.17516e-07 -5.24393e-07 -3.70283e-05
0.000943812 -3.8385e-05 9.56859e-07
-3.8385e-05 4.98716e-05 -1.31068e-06
9.56859e-07 -1.31068e-06 -2.25958e-05
0.00101071 -4.72444e-05 5.47466e-07
-4.72444e-05 8.40562e-05 -8.7698e-07
5.47466e-07 -8.7698e-07 -1.53412e-06
0.00108683 -2.35216e-05 -7.25221e-07
-2.35216e-05 0.0001481 -2.27787e-07
-7.25221e-07 -2.27787e-07 2.33884e-05
0.000357413 -9.70984e-06 -1.17174e-05
-9.70984e-06 -0.000551769 -9.85705e-07
-1.17174e-05 -9.85705e-07 -0.00105976
0.00107741 4.84725e-05 -1.68803e-07
4.84725e-05 0.000116766 -4.10871e-07
-1.68803e-07 -4.10871e-07 2.99504e-05
0.00096008 6.33838e-05 7.39913e-07
6.33838e-05 5.30574e-05 3.75802e-07
7.39913e-07 3.75802e-07 -4.408e-05
0.00113333 4.01891e-05 -2.39354e-06
4.01891e-05 -0.000319248 -1.24152e-06
-2.39354e-06 -1.24152e-06 -0.000374829
0.00164187 0.000103206 -4.0387e-06
0.000103206 5.19325e-06 7.54716e-07
-4.0387e-06 7.54716e-07 -5.9933e-05
0.00142332 0.000103671 -2.52867e-06
0.000103671 0.000209709 -2.01882e-07
-2.52867e-06 -2.01882e-07 6.25202e-05
0.00087276 6.59649e-05 1.24779e-06
6.59649e-05 1.98174e-05 3.164e-07
1.24779e-06 3.164e-07 -0.000101127
0.00207454 1.12622e-05 -1.13913e-05
1.12622e-05 0.000143494 4.77195e-09
-1.13913e-05 4.77195e-09 0.000124806
0.00109549 5.68746e-05 1.00702e-07
5.68746e-05 0.000122855 -2.0688e-07
1.00702e-07 -2.0688e-07 3.02257e-05
0.0018431 0.000108835 -9.44575e-07
0.000108835 1.00269e-05 -1.82311e-07
-9.44575e-07 -1.82311e-07 -3.24948e-05
0.00108803 7.05616e-05 6.62039e-07
7.05616e-05 0.000125161 -3.31727e-08
6.62039e-07 -3.31727e-08 2.30292e-05
0.00105523 8.07105e-05 -1.98879e-07
8.07105e-05 0.000128335 -1.7778e-07
-1.98879e-07 -1.7778e-07 -1.68259e-05
0.000773958 0.000112191 -2.76119e-06
0.000112191 -0.000230127 -5.63311e-08
-2.76119e-06 -5.63311e-08 -0.000348799
0.00169345 -0.000131813 -1.46417e-05
-0.000131813 0.000104413 -5.18575e-06
-1.46417e-05 -5.18575e-06 -0.000407492
0.00276332 -0.000124896 5.55737e-06
-0.000124896 0.000200891 -6.57835e-06
5.55737e-06 -6.57835e-06 -0.000123008
0.00094006 0.000112052 3.09172e-06
0.000112052 -0.000328315 -2.23841e-07
3.09172e-06 -2.23841e-07 -0.000244525
-0.00038976 -0.000189059 -4.17458e-06
-0.000189059 -0.000376776 -3.22751e-06
-4.17458e-06 -3.22751e-06 -0.000429815
0.000441865 -0.000259292 1.34502e-06
-0.000259292 -0.000597201 4.90595e-07
1.34502e-06 4.90595e-07 -2.79459e-05
0.00110715 5.97643e-05 5.23808e-07
5.97643e-05 0.000133551 -5.62753e-07
5.23808e-07 -5.62753e-07 4.18444e-05
-0.000201903 3.25382e-05 -9.72413e-05
3.25382e-05 -0.000321359 -1.3217e-05
-9.72413e-05 -1.3217e-05 -0.000535971
0.00196833 -0.000140571 -1.04855e-05
-0.000140571 0.000669532 -9.67145e-06
-1.04855e-05 -9.67145e-06 0.000951352
0.00122965 0.000128249 3.47252e-06
0.000128249 -0.000208725 2.57746e-06
3.47252e-06 2.57746e-06 -0.000208482
0.000817191 3.2665e-05 -5.06337e-07
3.2665e-05 2.21323e-08 -6.88048e-07
-5.06337e-07 -6.88048e-07 -0.000112496
0.00159806 7.27069e-05 -4.35748e-06
7.27069e-05 0.000439335 2.22286e-06
-4.35748e-06 2.22286e-06 0.000255389
0.00141499 0.000128857 2.7244e-06
0.000128857 0.00010898 8.8954e-06
2.7244e-06 8.8954e-06 7.04511e-05
0.00564712 -0.000246392 -6.65724e-05
-0.000246392 0.00171902 -1.88794e-05
-6.65724e-05 -1.88794e-05 0.000931858
0.00198814 -4.17087e-05 2.57391e-05
-4.17087e-05 -0.000264149 2.3301e-05
2.57391e-05 2.3301e-05 -0.000640498
-0.000120445 -0.000266464 -5.34783e-05
-0.000266464 -0.000187768 -2.47981e-05
-5.34783e-05 -2.47981e-05 -9.56852e-05
-0.00026864 -0.00012412 -8.07937e-06
-0.00012412 -0.00121667 6.65382e-07
-8.07937e-06 6.65382e-07 -0.000912987
0.00104084 3.7127e-05 -3.77809e-07
3.7127e-05 9.12891e-05 -5.01766e-07
-3.77809e-07 -5.01766e-07 5.34584e-06
0.00109957 4.77903e-05 -4.63286e-07
4.77903e-05 0.000111045 1.47796e-07
-4.63286e-07 1.47796e-07 2.39359e-05
0.00121937 6.41091e-05 -5.99772e-07
6.41091e-05 0.000163245 -3.64773e-07
-5.99772e-07 -3.64773e-07 7.63596e-05
0.000939738 2.89892e-06 4.29124e-08
2.89892e-06 2.9428e-05 -4.23305e-07
4.29124e-08 -4.23305e-07 -1.57041e-05
0.000989463 -1.10474e-05 1.15544e-07
-1.10474e-05 6.14253e-05 -5.84932e-07
1.15544e-07 -5.84932e-07 4.17248e-06
0.000941693 9.68284e-06 -1.53624e-07
9.68284e-06 3.58929e-05 -8.44154e-07
-1.53624e-07 -8.44154e-07 -3.05244e-05
0.00102248 1.93726e-05 1.75146e-07
1.93726e-05 8.05617e-05 -4.66814e-07
1.75146e-07 -4.66814e-07 7.33118e-06
0.00101594 2.4514e-05 -8.58304e-08
2.4514e-05 7.33046e-05 -4.09179e-07
-8.58304e-08 -4.09179e-07 -9.47504e-06
0.000784062 -5.07329e-06 2.8061e-07
-5.07329e-06 -5.18697e-05 3.94575e-07
2.8061e-07 3.94575e-07 -9.68959e-05
0.00098145 2.9201e-05 -2.20146e-07
2.9201e-05 6.19051e-05 -4.98759e-07
-2.20146e-07 -4.98759e-07 -9.76363e-06
0.00101635 -1.68841e-06 -1.52694e-07
-1.68841e-06 7.30761e-05 4.16988e-07
-1.52694e-07 4.16988e-07 6.98398e-06
0.000928308 1.44781e-05 2.36533e-07
1.44781e-05 2.87808e-05 -2.47308e-07
2.36533e-07 -2.47308e-07 -2.88625e-05
0.00102038 4.39405e-05 -2.89503e-10
4.39405e-05 7.69859e-05 1.4626e-07
-2.89503e-10 1.4626e-07 -3.92968e-06
0.000971744 2.59235e-05 5.59111e-08
2.59235e-05 4.97539e-05 3.45922e-07
5.59111e-08 3.45922e-07 -2.46487e-05
0.00115794 5.3524e-05 -1.02679e-07
5.3524e-05 0.000153085 1.77392e-07
-1.02679e-07 1.77392e-07 6.61489e-05
0.00100227 -3.89905e-05 -3.42127e-07
-3.89905e-05 6.49185e-05 2.26581e-07
-3.42127e-07 2.26581e-07 1.04435e-07
0.00101161 -2.46489e-05 -3.4912e-07
-2.46489e-05 7.03867e-05 -3.73642e-08
-3.4912e-07 -3.73642e-08 1.40765e-05
0.00101756 -5.60051e-09 -2.01879e-07
-5.60051e-09 7.39985e-05 -2.69944e-09
-2.01879e-07 -2.69944e-09 1.81798e-05
0.0010181 2.78984e-05 -2.38269e-07
2.78984e-05 7.51705e-05 -4.05981e-07
-2.38269e-07 -4.05981e-07 9.80176e-06
0.00100568 1.96351e-05 8.50969e-08
1.96351e-05 6.96112e-05 5.30566e-07
8.50969e-08 5.30566e-07 3.54381e-06
0.000993616 1.64537e-05 1.20132e-08
1.64537e-05 6.32007e-05 6.19169e-07
1.20132e-08 6.19169e-07 -3.11379e-06
0.00107319 2.56539e-05 -6.66934e-08
2.56539e-05 0.000100333 -2.04208e-07
-6.66934e-08 -2.04208e-07 2.92053e-05
0.00096185 -1.37644e-05 9.43712e-08
-1.37644e-05 5.72565e-05 1.1505e-06
9.43712e-08 1.1505e-06 -1.78054e-05
0.000957484 2.3404e-06 -1.33581e-07
2.3404e-06 4.43053e-05 6.94241e-07
-1.33581e-07 6.94241e-07 -1.42562e-05
0.000952608 -3.53298e-06 3.79953e-08
-3.53298e-06 4.37806e-05 -3.55562e-08
3.79953e-08 -3.55562e-08 -1.37661e-05
0.0009397 -3.42624e-06 -7.25111e-07
-3.42624e-06 2.92579e-05 7.41118e-07
-7.25111e-07 7.41118e-07 -1.50154e-05
0.000858859 1.24887e-05 1.21671e-07
1.24887e-05 -7.16165e-06 -8.22338e-07
1.21671e-07 -8.22338e-07 -6.32786e-05
0.000868961 -7.23369e-06 1.72993e-07
-7.23369e-06 -7.92772e-06 -3.68517e-10
1.72993e-07 -3.68517e-10 -5.20238e-05
0.000912635 9.60092e-06 -3.22009e-07
9.60092e-06 5.02539e-06 1.59987e-06
-3.22009e-07 1.59987e-06 -2.0859e-05
0.000798202 4.26063e-06 2.32544e-07
4.26063e-06 -4.39841e-05 -3.36884e-07
2.32544e-07 -3.36884e-07 -8.9031e-05
0.000908362 3.57518e-06 -1.80067e-07
3.57518e-06 2.3233e-06 -1.28542e-08
-1.80067e-07 -1.28542e-08 -2.3064e-05
0.00142906 7.82311e-06 -2.476e-06
7.82311e-06 0.00026189 4.1018e-06
-2.476e-06 4.1018e-06 0.000265705
0.000900582 -5.66068e-06 5.78673e-07
-5.66068e-06 -1.51956e-06 -1.53607e-06
5.78673e-07 -1.53607e-06 -2.68127e-05
0.00114554 4.03462e-06 -9.54152e-07
4.03462e-06 0.000113617 6.00603e-07
-9.54152e-07 6.00603e-07 0.000116299
0.00105576 2.29789e-06 -2.09302e-06
2.29789e-06 6.55977e-05 3.77012e-06
-2.09302e-06 3.77012e-06 8.39498e-05
0.000861928 2.67063e-07 2.98846e-08
2.67063e-07 -3.38764e-05 -2.93816e-06
2.98846e-08 -2.93816e-06 -3.2455e-05
0.00215792 -6.53711e-07 1.36726e-06
-6.53711e-07 0.000636307 3.67319e-10
1.36726e-06 3.67319e-10 0.000660191
0.00105041 -3.20886e-06 -1.12825e-06
-3.20886e-06 6.32549e-05 -3.7768e-06
-1.12825e-06 -3.7768e-06 8.1621e-05
0.000940966 2.7608e-05 1.92063e-07
2.7608e-05 3.07585e-05 -3.82388e-07
1.92063e-07 -3.82388e-07 -9.73975e-06
0.000923061 3.21435e-07 4.76936e-08
3.21435e-07 5.78813e-06 -1.68665e-06
4.76936e-08 -1.68665e-06 -1.58965e-05
0.000920404 2.68356e-06 -5.24333e-08
2.68356e-06 4.50706e-06 -6.00693e-09
-5.24333e-08 -6.00693e-09 -1.74545e-05
0.000860185 3.97896e-06 1.82636e-07
3.97896e-06 -3.5244e-05 -3.04009e-06
1.82636e-07 -3.04009e-06 -3.15698e-05
0.000914576 5.40443e-06 -3.45318e-07
5.40443e-06 2.41899e-06 1.64235e-06
-3.45318e-07 1.64235e-06 -2.05216e-05
0.00085485 7.88288e-06 6.2595e-08
7.88288e-06 -3.63754e-05 -6.07914e-07
6.2595e-08 -6.07914e-07 -3.35052e-05
0.00209387 9.77424e-06 5.30954e-06
9.77424e-06 0.000605106 -3.82553e-06
5.30954e-06 -3.82553e-06 0.00062941
0.00138733 1.4147e-05 -1.26721e-06
1.4147e-05 0.000242516 1.90833e-06
-1.26721e-06 1.90833e-06 0.000246481
0.00160197 1.29689e-05 2.61873e-07
1.29689e-05 0.000353907 1.18492e-06
2.61873e-07 1.18492e-06 0.000374357
0.00109203 1.48248e-05 -1.13447e-05
1.48248e-05 9.40723e-05 6.26483e-06
-1.13447e-05 6.26483e-06 0.000110594
0.00105336 -2.35036e-05 -9.53931e-07
-2.35036e-05 -0.000270068 2.74388e-07
-9.53931e-07 2.74388e-07 -0.000304214
0.00157727 1.98261e-07 -1.88036e-06
1.98261e-07 3.7734e-05 -5.35707e-07
-1.88036e-06 -5.35707e-07 -4.5195e-05
0.00148393 3.48891e-06 -5.00887e-06
3.48891e-06 -5.01678e-05 -4.07294e-06
-5.00887e-06 -4.07294e-06 -0.000132028
0.000954548 -7.56768e-05 3.45979e-05
-7.56768e-05 -9.76534e-05 6.41123e-06
3.45979e-05 6.41123e-06 -0.000302589
0.00143493 -2.6868e-05 -3.14389e-06
-2.6868e-05 1.52941e-05 -4.17472e-07
-3.14389e-06 -4.17472e-07 -4.77603e-05
0.00183515 2.6818e-05 -1.96057e-06
2.6818e-05 0.000104062 -1.83066e-06
-1.96057e-06 -1.83066e-06 7.50348e-06
0.00140265 4.55705e-05 -9.06392e-07
4.55705e-05 3.36285e-05 1.362e-06
-9.06392e-07 1.362e-06 -4.20911e-05
0.00118351 -4.68249e-05 0.000107253
-4.68249e-05 -1.87295e-05 6.89957e-06
0.000107253 6.89957e-06 -0.000277141
0.00534327 0.000101681 -2.42787e-05
0.000101681 0.00158583 -2.70712e-06
-2.42787e-05 -2.70712e-06 0.000902634
0.00301787 0.000287365 -3.80811e-05
0.000287365 0.0012328 1.60136e-05
-3.80811e-05 1.60136e-05 0.00126096
0.001173 0.000229933 -1.16245e-05
0.000229933 -5.2645e-06 5.69505e-06
-1.16245e-05 5.69505e-06 0.000496539
0.000770284 -1.48867e-05 9.53557e-07
-1.48867e-05 -4.53534e-05 -9.03566e-07
9.53557e-07 -9.03566e-07 -9.88704e-05
0.000949308 -8.75605e-06 1.27912e-08
-8.75605e-06 3.39061e-05 -4.8831e-09
1.27912e-08 -4.8831e-09 -5.61093e-06
0.000952866 -3.06449e-05 -7.27088e-07
-3.06449e-05 3.631e-05 9.07464e-07
-7.27088e-07 9.07464e-07 -4.37973e-06
0.000892769 3.80381e-06 -2.62418e-07
3.80381e-06 1.57413e-05 1.07768e-08
-2.62418e-07 1.07768e-08 -3.69952e-05
0.00102036 3.79382e-05 1.07163e-07
3.79382e-05 8.77091e-05 4.35447e-07
1.07163e-07 4.35447e-07 2.44547e-05
0.00101528 4.40333e-05 1.81995e-07
4.40333e-05 8.16421e-05 3.37899e-07
1.81995e-07 3.37899e-07 2.07652e-05
0.000994937 -4.02323e-06 5.46273e-07
-4.02323e-06 7.01814e-05 -1.26441e-06
5.46273e-07 -1.26441e-06 1.49728e-05
0.000899762 -2.88809e-05 -4.0357e-07
-2.88809e-05 2.0451e-05 4.72942e-07
-4.0357e-07 4.72942e-07 -3.28554e-05
0.00180704 1.92026e-05 -2.06505e-06
1.92026e-05 0.000145343 2.62176e-07
-2.06505e-06 2.62176e-07 6.38182e-05
0.00166981 -5.08241e-05 -3.11126e-06
-5.08241e-05 -1.66677e-05 1.70279e-06
-3.11126e-06 1.70279e-06 -6.85362e-05
0.000902134 -9.0939e-05 -9.25417e-06
-9.0939e-05 -0.000308372 8.16219e-07
-9.25417e-06 8.16219e-07 -0.000370672
0.000998569 -7.7124e-05 3.53025e-07
-7.7124e-05 7.50788e-05 1.44919e-06
3.53025e-07 1.44919e-06 -3.43664e-05
0.00161616 -0.000113073 -4.90837e-07
-0.000113073 0.000307813 2.0026e-06
-4.90837e-07 2.0026e-06 0.000170514
0.000992003 -5.66105e-05 -4.08541e-07
-5.66105e-05 9.89724e-05 -1.25389e-07
-4.08541e-07 -1.25389e-07 -1.22185e-05
0.00122992 -5.3514e-05 1.85991e-07
-5.3514e-05 0.000206392 1.92778e-07
1.85991e-07 1.92778e-07 0.000106016
0.000950217 -2.91706e-05 -3.9855e-07
-2.91706e-05 4.96109e-05 8.74161e-07
-3.9855e-07 8.74161e-07 -3.20086e-05
0.00096187 -4.23029e-06 2.90148e-08
-4.23029e-06 5.216e-05 9.86004e-07
2.90148e-08 9.86004e-07 -7.50287e-06
0.00111956 -1.08886e-05 -5.11391e-07
-1.08886e-05 0.000134229 7.1123e-07
-5.11391e-07 7.1123e-07 6.28752e-05
0.00114699 3.88255e-06 -2.56369e-08
3.88255e-06 0.000144622 1.92073e-07
-2.56369e-08 1.92073e-07 9.20874e-05
0.000908289 4.3743e-05 7.89981e-07
4.3743e-05 2.56024e-05 1.89062e-06
7.89981e-07 1.89062e-06 -4.0929e-05
0.00173093 1.92871e-05 1.96612e-06
1.92871e-05 2.43418e-05 -2.90105e-06
1.96612e-06 -2.90105e-06 -4.71227e-05
0.000941659 1.83672e-05 -2.93781e-07
1.83672e-05 4.71119e-05 3.31393e-07
-2.93781e-07 3.31393e-07 -2.30602e-05
0.000963925 -3.297e-05 -5.30333e-08
-3.297e-05 5.92091e-05 -4.26504e-07
-5.30333e-08 -4.26504e-07 -1.27454e-05
0.00221319 -0.000114378 -4.08615e-06
-0.000114378 0.000175997 -8.02631e-07
-4.08615e-06 -8.02631e-07 0.000128465
0.000831584 -9.77129e-05 1.42425e-06
-9.77129e-05 -0.000186856 1.96992e-06
1.42425e-06 1.96992e-06 -0.000305751
0.00120346 -9.67077e-05 1.0123e-06
-9.67077e-05 0.000188737 -7.18694e-07
1.0123e-06 -7.18694e-07 5.83795e-05
0.00103067 -4.2023e-05 7.91095e-08
-4.2023e-05 9.21073e-05 -1.57551e-07
7.91095e-08 -1.57551e-07 5.82988e-06
0.00110391 -3.14436e-05 -3.22338e-08
-3.14436e-05 0.0001555 2.86943e-07
-3.22338e-08 2.86943e-07 3.08124e-05
0.00248092 -5.43997e-05 -3.27121e-06
-5.43997e-05 0.000308564 9.32195e-06
-3.27121e-06 9.32195e-06 0.000281216
0.00273192 -0.000185268 1.0638e-05
-0.000185268 0.00059034 -4.42633e-06
1.0638e-05 -4.42633e-06 0.000466388
0.000391947 -9.0007e-05 -1.15707e-06
-9.0007e-05 -0.00024672 -2.37728e-06
-1.15707e-06 -2.37728e-06 -0.000379392
0.00118455 -6.75406e-05 -2.9316e-08
-6.75406e-05 0.000208468 3.4143e-08
-2.9316e-08 3.4143e-08 5.15995e-05
0.000858095 -4.03623e-05 4.08829e-07
-4.03623e-05 7.16766e-06 -3.22406e-07
4.08829e-07 -3.22406e-07 -6.97246e-05
0.00101633 -3.58945e-05 1.14348e-06
-3.58945e-05 8.3034e-05 -1.06041e-06
1.14348e-06 -1.06041e-06 2.56805e-07
0.00119434 -1.98877e-05 -2.93342e-07
-1.98877e-05 0.000178871 -5.06681e-07
-2.93342e-07 -5.06681e-07 7.689e-05
-0.00109399 -1.97136e-05 -7.98221e-05
-1.97136e-05 -0.000682334 -1.02196e-06
-7.98221e-05 -1.02196e-06 -0.000702479
0.00579328 -2.13148e-05 -2.30082e-05
-2.13148e-05 0.00196878 -2.47598e-06
-2.30082e-05 -2.47598e-06 0.00144899
0.00109413 5.81753e-05 4.93379e-07
5.81753e-05 0.000124733 1.99228e-07
4.93379e-07 1.99228e-07 3.22456e-05
0.000874218 6.299e-05 1.37768e-06
6.299e-05 2.1509e-05 -8.84564e-07
1.37768e-06 -8.84564e-07 -8.03195e-05
0.00167555 0.000107373 -1.001e-05
0.000107373 -8.36615e-05 2.6734e-06
-1.001e-05 2.6734e-06 -0.000123006
0.00130789 0.000125006 -3.37542e-06
0.000125006 1.50658e-05 -1.11959e-06
-3.37542e-06 -1.11959e-06 -9.75077e-05
0.00106754 8.15201e-05 1.50075e-06
8.15201e-05 0.000134796 -1.76989e-06
1.50075e-06 -1.76989e-06 -7.76272e-06
0.00500743 -4.33881e-05 2.55589e-05
-4.33881e-05 0.00146861 -8.8824e-06
2.55589e-05 -8.8824e-06 0.000823151
0.0022442 -0.000137129 -5.70571e-05
-0.000137129 3.40534e-05 -1.5789e-05
-5.70571e-05 -1.5789e-05 -0.000187446
0.000942656 9.74187e-05 -8.04496e-06
9.74187e-05 -0.000333111 -1.01031e-05
-8.04496e-06 -1.01031e-05 -0.000255355
0.00239096 -0.000252924 3.11377e-05
-0.000252924 0.00106021 1.56699e-05
3.11377e-05 1.56699e-05 0.00103755
-0.000698978 -0.000276109 1.44877e-05
-0.000276109 -0.00118619 1.03411e-05
1.44877e-05 1.03411e-05 -0.000622643
0.00105732 6.21135e-05 1.26443e-07
6.21135e-05 0.000105715 -2.89608e-07
1.26443e-07 -2.89608e-07 1.40403e-05
-0.00123685 -7.04246e-05 -1.11646e-05
-7.04246e-05 -0.000707568 -7.79135e-07
-1.11646e-05 -7.79135e-07 -0.000672853
0.000826933 -0.000131383 -2.85814e-06
-0.000131383 9.93455e-05 9.68806e-08
-2.85814e-06 9.68806e-08 0.00029264
0.00171778 0.000134618 4.91475e-07
0.000134618 3.34275e-05 6.01291e-07
4.91475e-07 6.01291e-07 2.32774e-05
0.00107581 4.88918e-05 -2.94775e-07
4.88918e-05 0.00013648 -1.15722e-06
-2.94775e-07 -1.15722e-06 2.77974e-05
0.00120227 7.67126e-05 5.64688e-07
7.67126e-05 0.000241087 1.69039e-07
5.64688e-07 1.69039e-07 5.74582e-05
0.00112569 9.03533e-05 -2.46744e-06
9.03533e-05 -4.60546e-05 -3.31414e-07
-2.46744e-06 -3.31414e-07 -5.79566e-05
0.00465002 -0.000162095 6.39082e-06
-0.000162095 0.00115451 5.40884e-06
6.39082e-06 5.40884e-06 0.000303126
0.00221749 -8.38863e-06 -1.32916e-05
-8.38863e-06 2.58312e-05 -1.38952e-05
-1.32916e-05 -1.38952e-05 -0.000131892
0.00310712 -0.000363493 5.9291e-06
-0.000363493 0.00103317 -9.89778e-07
5.9291e-06 -9.89778e-07 0.00102782
0.000135034 -0.000152335 -7.44147e-07
-0.000152335 -0.00107181 5.57312e-06
-7.44147e-07 5.57312e-06 -0.000664784
0.0010637 2.7878e-05 -2.04198e-06
2.7878e-05 7.92528e-05 -1.39554e-06
-2.04198e-06 -1.39554e-06 -8.26791e-06
5.31213e-05 -2.99399e-05 -7.17429e-06
-2.99399e-05 -0.000234911 -1.77007e-06
-7.17429e-06 -1.77007e-06 -0.000272419
0.00113152 -9.55138e-06 -7.69985e-07
-9.55138e-06 9.76418e-05 -1.02657e-05
-7.69985e-07 -1.02657e-05 5.41371e-05
1.58075e-05 0.000107561 3.07008e-06
0.000107561 -0.000441408 -4.04431e-06
3.07008e-06 -4.04431e-06 -0.000597519
0.00191965 5.59794e-05 -7.51409e-06
5.59794e-05 0.000625552 3.94185e-07
-7.51409e-06 3.94185e-07 0.000486834
0.00463252 -5.28686e-05 -1.28286e-05
-5.28686e-05 0.00206572 -6.0445e-07
-1.28286e-05 -6.0445e-07 0.00202647
0.000641355 0.000166527 -5.26334e-05
0.000166527 -0.000390871 1.07598e-05
-5.26334e-05 1.07598e-05 -0.000627953
0.00136521 -0.000249772 1.08111e-05
-0.000249772 -0.000219695 9.56191e-06
1.08111e-05 9.56191e-06 -0.00119489
0.00424274 -0.000384804 -4.29272e-05
-0.000384804 0.00100025 -1.70116e-05
-4.29272e-05 -1.70116e-05 0.0010856
0.000647966 -4.83924e-05 8.75926e-07
-4.83924e-05 -0.000516004 -2.252e-06
8.75926e-07 -2.252e-06 -0.000413563
0.00110225 5.28307e-05 1.0867e-07
5.28307e-05 0.000114867 9.01886e-07
1.0867e-07 9.01886e-07 2.7168e-05
0.00110956 5.93826e-05 9.00419e-07
5.93826e-05 0.000107894 6.23827e-07
9.00419e-07 6.23827e-07 2.03785e-05
0.000674632 5.33563e-05 1.68543e-06
5.33563e-05 -8.64728e-05 -3.94557e-07
1.68543e-06 -3.94557e-07 -0.000179165
0.000799658 1.3016e-05 1.75886e-07
1.3016e-05 -4.37693e-05 -3.90503e-07
1.75886e-07 -3.90503e-07 -8.91229e-05
0.00100601 2.24852e-05 -4.13895e-08
2.24852e-05 6.92888e-05 -5.61348e-07
-4.13895e-08 -5.61348e-07 1.16359e-05
0.00116704 -2.25542e-05 2.60499e-07
-2.25542e-05 0.000151119 4.87588e-09
2.60499e-07 4.87588e-09 8.52617e-05
0.000953635 2.32793e-05 -3.72972e-07
2.32793e-05 4.74499e-05 -6.64626e-07
-3.72972e-07 -6.64626e-07 -2.37186e-05
0.000949229 4.12738e-05 -1.58782e-07
4.12738e-05 3.9516e-05 -3.35767e-08
-1.58782e-07 -3.35767e-08 -4.18878e-05
0.000998194 7.93507e-06 3.69879e-07
7.93507e-06 6.47147e-05 -3.77526e-07
3.69879e-07 -3.77526e-07 7.80493e-06
0.00100873 2.2186e-05 -1.48992e-07
2.2186e-05 7.05775e-05 -1.29944e-07
-1.48992e-07 -1.29944e-07 -3.296e-06
0.000983665 -2.08861e-05 6.55267e-08
-2.08861e-05 5.60587e-05 -4.49426e-08
6.55267e-08 -4.49426e-08 -8.96525e-06
0.00108583 4.44127e-05 5.9273e-08
4.44127e-05 0.000118077 4.19793e-07
5.9273e-08 4.19793e-07 3.05972e-05
0.00131269 -5.14831e-06 -1.4547e-07
-5.14831e-06 0.000229817 -6.3898e-07
-1.4547e-07 -6.3898e-07 0.000139517
0.00107506 1.24296e-05 -3.45502e-07
1.24296e-05 0.000104086 6.9196e-07
-3.45502e-07 6.9196e-07 2.7126e-05
0.00100506 9.10707e-06 1.52246e-07
9.10707e-06 6.90782e-05 2.86716e-07
1.52246e-07 2.86716e-07 3.20043e-06
0.00101176 -1.36585e-05 8.23499e-08
-1.36585e-05 7.24303e-05 -4.17435e-07
8.23499e-08 -4.17435e-07 1.58951e-05
0.000909462 4.65603e-06 -7.53634e-08
4.65603e-06 1.75831e-05 -1.03935e-06
-7.53634e-08 -1.03935e-06 -4.75264e-05
0.00100054 5.16966e-06 2.6156e-07
5.16966e-06 6.65602e-05 1.18357e-08
2.6156e-07 1.18357e-08 8.44806e-07
0.000982633 1.45096e-05 3.34033e-08
1.45096e-05 5.79706e-05 4.10949e-08
3.34033e-08 4.10949e-08 -8.35437e-06
0.00103476 1.39378e-05 -3.3248e-07
1.39378e-05 7.85133e-05 -7.33067e-07
-3.3248e-07 -7.33067e-07 7.86643e-06
0.000954 3.09287e-06 -3.33284e-08
3.09287e-06 4.65577e-05 1.15226e-06
-3.33284e-08 1.15226e-06 -2.26607e-05
0.00106213 2.02887e-05 1.48308e-07
2.02887e-05 9.43961e-05 3.12999e-08
1.48308e-07 3.12999e-08 2.22452e-05
0.000922065 -2.50702e-06 2.91176e-08
-2.50702e-06 1.88382e-05 2.87509e-07
2.91176e-08 2.87509e-07 -5.55148e-05
0.000992691 -2.81585e-05 5.44562e-07
-2.81585e-05 6.96259e-05 -3.72898e-07
5.44562e-07 -3.72898e-07 -1.46126e-05
0.000800947 -4.75354e-05 2.63268e-07
-4.75354e-05 -2.4963e-06 -4.43296e-08
2.63268e-07 -4.43296e-08 -9.35487e-05
0.000865646 -2.65163e-05 -5.87806e-07
-2.65163e-05 1.39433e-05 -2.86494e-07
-5.87806e-07 -2.86494e-07 -6.63074e-05
0.00098507 -1.41335e-05 -3.23919e-09
-1.41335e-05 6.92228e-05 3.09282e-07
-3.23919e-09 3.09282e-07 -5.89722e-06
0.000972955 -8.738e-06 -2.31316e-07
-8.738e-06 5.44534e-05 1.3e-06
-2.31316e-07 1.3e-06 -8.16041e-06
0.000970692 -3.59693e-06 -6.8174e-08
-3.59693e-06 5.16889e-05 -6.57951e-08
-6.8174e-08 -6.57951e-08 -7.19809e-06
0.000942337 1.05772e-05 -2.94641e-07
1.05772e-05 3.03603e-05 8.52433e-07
-2.94641e-07 8.52433e-07 -1.49056e-05
0.000957661 3.9462e-06 3.38452e-07
3.9462e-06 4.50666e-05 -4.97835e-07
3.38452e-07 -4.97835e-07 -1.15844e-05
0.000940196 2.13464e-06 5.88047e-08
2.13464e-06 2.90563e-05 9.72122e-09
5.88047e-08 9.72122e-09 -1.50129e-05
0.000911478 1.12799e-05 -6.13311e-07
1.12799e-05 6.3134e-06 1.58605e-06
-6.13311e-07 1.58605e-06 -2.05721e-05
0.000786503 1.33453e-05 1.37988e-07
1.33453e-05 -5.07866e-05 -7.24074e-07
1.37988e-07 -7.24074e-07 -9.48043e-05
0.000912886 4.76816e-06 -8.75942e-08
4.76816e-06 5.04624e-06 -1.31772e-08
-8.75942e-08 -1.31772e-08 -2.08179e-05
0.00142604 1.17766e-05 -3.8613e-06
1.17766e-05 0.000262652 4.1187e-06
-3.8613e-06 4.1187e-06 0.00026603
0.000907164 -2.7375e-06 6.3455e-07
-2.7375e-06 1.58612e-06 -1.5309e-06
6.3455e-07 -1.5309e-06 -2.3758e-05
0.00114292 7.80058e-06 -1.50139e-06
7.80058e-06 0.000113696 5.8634e-07
-1.50139e-06 5.8634e-07 0.000116185
0.00100623 7.25446e-06 -7.44275e-07
7.25446e-06 4.14657e-05 1.46851e-06
-7.44275e-07 1.46851e-06 5.98063e-05
0.000859485 3.72247e-06 3.70896e-07
3.72247e-06 -3.4771e-05 -2.9317e-06
3.70896e-07 -2.9317e-06 -3.33899e-05
0.002157 4.28163e-06 1.3107e-06
4.28163e-06 0.00063617 9.70636e-09
1.3107e-06 9.70636e-09 0.000659999
0.00215517 -3.75801e-07 1.07173e-06
-3.75801e-07 0.000634871 -3.87204e-06
1.07173e-06 -3.87204e-06 0.00065877
0.00118359 1.97514e-05 -6.88012e-07
1.97514e-05 0.000154238 -6.92674e-07
-6.88012e-07 -6.92674e-07 0.000114441
0.000921405 -1.99928e-06 -1.39718e-07
-1.99928e-06 5.55191e-06 -1.63309e-06
-1.39718e-07 -1.63309e-06 -1.66865e-05
0.000941857 4.24079e-06 5.41088e-07
4.24079e-06 3.0814e-05 4.80261e-07
5.41088e-07 4.80261e-07 -9.28066e-06
0.000866504 1.0216e-07 -2.44457e-08
1.0216e-07 -3.25087e-05 -3.04205e-06
-2.44457e-08 -3.04205e-06 -2.85931e-05
0.000922026 -1.33721e-07 1.01433e-08
-1.33721e-07 5.24284e-06 -5.19189e-09
1.01433e-08 -5.19189e-09 -1.64395e-05
0.000916783 2.20315e-06 -2.87109e-07
2.20315e-06 2.52502e-06 1.66797e-06
-2.87109e-07 1.66797e-06 -1.94092e-05
0.000863852 4.09472e-06 -1.16398e-07
4.09472e-06 -3.33551e-05 3.74065e-09
-1.16398e-07 3.74065e-09 -2.97118e-05
0.00207243 4.86622e-06 2.29379e-06
4.86622e-06 0.000592449 -3.83809e-06
2.29379e-06 -3.83809e-06 0.000617256
0.00137765 9.67498e-06 -8.41078e-07
9.67498e-06 0.000234355 1.86696e-06
-8.41078e-07 1.86696e-06 0.000239765
0.00156411 8.91302e-06 1.55134e-06
8.91302e-06 0.000331065 2.47611e-08
1.55134e-06 2.47611e-08 0.000352635
0.00108886 1.11135e-05 -9.25233e-06
1.11135e-05 8.79414e-05 6.20647e-06
-9.25233e-06 6.20647e-06 0.000105788
-0.00274128 6.98944e-05 -5.34002e-05
6.98944e-05 -0.00164681 1.03947e-05
-5.34002e-05 1.03947e-05 -0.00160023
-0.00135039 9.86978e-05 -7.83366e-06
9.86978e-05 -0.00122946 7.64392e-06
-7.83366e-06 7.64392e-06 -0.00103855
0.00155844 -7.97386e-05 -6.13664e-05
-7.97386e-05 0.000216369 -1.08878e-05
-6.13664e-05 -1.08878e-05 1.39683e-05
0.00186102 -2.94171e-05 -1.49488e-06
-2.94171e-05 0.00024769 -1.19631e-06
-1.49488e-06 -1.19631e-06 0.000182825
0.00150988 3.06828e-05 -1.31451e-05
3.06828e-05 -6.13761e-05 -6.4418e-07
-1.31451e-05 -6.4418e-07 -0.000157871
0.000960486 -2.51055e-05 2.27317e-05
-2.51055e-05 4.55676e-05 -1.88004e-06
2.27317e-05 -1.88004e-06 -0.000117811
0.00179408 5.30821e-05 1.9135e-06
5.30821e-05 0.000215422 1.54988e-06
1.9135e-06 1.54988e-06 0.000135897
0.00482527 0.00017304 -3.00979e-05
0.00017304 0.00134887 -6.54992e-07
-3.00979e-05 -6.54992e-07 0.000736185
-0.00248586 0.000144564 1.09587e-06
0.000144564 -0.00115829 -3.90665e-06
1.09587e-06 -3.90665e-06 -0.00114022
0.000342418 0.000247505 3.6428e-06
0.000247505 -0.000550624 -5.23688e-06
3.6428e-06 -5.23688e-06 -8.17489e-06
0.00100918 4.00392e-05 3.13565e-05
4.00392e-05 0.000141104 -1.24239e-05
3.13565e-05 -1.24239e-05 -7.93755e-05
0.00580828 0.000303553 -1.14942e-05
0.000303553 0.00176618 8.64053e-06
-1.14942e-05 8.64053e-06 0.00105842
3.19918e-05 0.000253241 -5.41035e-05
0.000253241 -0.000134797 3.53753e-05
-5.41035e-05 3.53753e-05 -4.8206e-06
0.00205085 0.00015373 -1.37359e-05
0.00015373 4.18798e-05 1.03986e-05
-1.37359e-05 1.03986e-05 0.000463363
0.000900901 2.77406e-05 -4.01175e-07
2.77406e-05 2.78495e-05 -5.8793e-07
-4.01175e-07 -5.8793e-07 -3.90324e-05
0.000858622 1.90387e-06 5.92335e-08
1.90387e-06 -1.02515e-06 -4.28082e-07
5.92335e-08 -4.28082e-07 -5.38588e-05
0.000946095 -2.70152e-05 -6.87899e-07
-2.70152e-05 3.27901e-05 9.27948e-07
-6.87899e-07 9.27948e-07 -7.09725e-06
0.000825813 1.27422e-05 9.33486e-09
1.27422e-05 -1.78573e-05 5.30569e-07
9.33486e-09 5.30569e-07 -7.13061e-05
0.000991329 4.04616e-05 5.71299e-07
4.04616e-05 7.40593e-05 9.00886e-07
5.71299e-07 9.00886e-07 1.15134e-05
0.00102909 3.1801e-05 -3.48062e-07
3.1801e-05 9.34935e-05 -3.61837e-07
-3.48062e-07 -3.61837e-07 2.6996e-05
0.000969318 2.65092e-05 8.70368e-07
2.65092e-05 5.9601e-05 9.98417e-07
8.70368e-07 9.98417e-07 -2.02819e-06
0.00095522 3.41289e-06 6.03748e-07
3.41289e-06 4.95088e-05 -2.7771e-07
6.03748e-07 -2.7771e-07 -1.05892e-05
0.000920555 -1.14048e-05 2.35221e-07
-1.14048e-05 3.19517e-05 -5.24899e-07
2.35221e-07 -5.24899e-07 -2.3945e-05
0.000828691 -2.48895e-05 -4.03938e-07
-2.48895e-05 -1.57513e-05 9.96322e-07
-4.03938e-07 9.96322e-07 -6.94851e-05
0.0022569 2.91046e-05 -4.53754e-06
2.91046e-05 0.000276355 1.71499e-06
-4.53754e-06 1.71499e-06 0.000204875
0.00181445 -0.000109725 -1.3926e-05
-0.000109725 -1.66363e-05 1.94026e-06
-1.3926e-05 1.94026e-06 -5.96604e-05
-0.000395209 -6.64697e-05 -4.0196e-07
-6.64697e-05 -0.000781513 4.08206e-06
-4.0196e-07 4.08206e-06 -0.000894297
0.00123347 -9.92193e-05 1.29233e-07
-9.92193e-05 0.000200971 1.43572e-06
1.29233e-07 1.43572e-06 6.59048e-05
0.00111406 -3.91325e-05 6.94161e-07
-3.91325e-05 0.000158452 2.55504e-07
6.94161e-07 2.55504e-07 3.47465e-05
0.00104914 -3.84302e-05 -2.43955e-07
-3.84302e-05 9.88657e-05 3.69969e-07
-2.43955e-07 3.69969e-07 1.22407e-05
0.000964669 -3.37969e-05 -5.80736e-07
-3.37969e-05 5.92183e-05 5.04772e-07
-5.80736e-07 5.04772e-07 -1.24569e-05
0.000961319 1.92836e-05 -1.59944e-07
1.92836e-05 5.78077e-05 7.50326e-07
-1.59944e-07 7.50326e-07 -1.15055e-05
0.00202595 -4.42439e-05 -4.55501e-06
-4.42439e-05 6.40579e-05 1.21114e-06
-4.55501e-06 1.21114e-06 2.99251e-05
0.000878248 -1.88928e-05 -1.63494e-07
-1.88928e-05 1.71002e-05 1.5116e-09
-1.63494e-07 1.5116e-09 -6.02414e-05
0.000958428 -3.85456e-05 4.66016e-07
-3.85456e-05 5.24389e-05 -5.26897e-07
4.66016e-07 -5.26897e-07 -3.16665e-05
0.00194818 -0.00015888 2.74789e-06
-0.00015888 0.000204071 2.3255e-07
2.74789e-06 2.3255e-07 8.83286e-05
0.000678449 -9.56023e-05 3.3523e-07
-9.56023e-05 -8.9958e-05 2.56707e-06
3.3523e-07 2.56707e-06 -0.000218225
0.00116919 -6.53585e-05 8.72434e-07
-6.53585e-05 0.000192843 -2.06143e-07
8.72434e-07 -2.06143e-07 4.29313e-05
0.00117076 -2.51096e-05 -2.29141e-07
-2.51096e-05 0.000166707 -3.5732e-07
-2.29141e-07 -3.5732e-07 6.01306e-05
0.00288524 -0.000133613 5.22586e-06
-0.000133613 0.000553686 -1.16528e-06
5.22586e-06 -1.16528e-06 0.000562368
0.00207667 -0.000163129 -3.82573e-07
-0.000163129 0.000558736 -4.15968e-06
-3.82573e-07 -4.15968e-06 0.000392337
0.000906219 1.18518e-06 -1.54451e-06
1.18518e-06 7.39656e-05 -2.26281e-07
-1.54451e-06 -2.26281e-07 -7.25786e-05
0.000947597 3.39094e-05 2.39988e-07
3.39094e-05 5.34425e-05 3.63088e-07
2.39988e-07 3.63088e-07 -2.53952e-05
0.000975688 -5.49138e-05 7.92321e-07
-5.49138e-05 5.97409e-05 -4.08958e-07
7.92321e-07 -4.08958e-07 -2.65218e-05
0.00110256 -9.55066e-06 3.36692e-07
-9.55066e-06 0.000111418 2.0742e-07
3.36692e-07 2.0742e-07 1.93004e-05
0.00120825 -8.76763e-06 -8.1949e-06
-8.76763e-06 0.000392601 -8.76378e-08
-8.1949e-06 -8.76378e-08 0.000375107
0.00133248 -1.11729e-05 8.10659e-06
-1.11729e-05 0.000387043 -1.58226e-06
8.10659e-06 -1.58226e-06 0.000233494
0.000475164 9.4955e-05 -3.74885e-05
9.4955e-05 -0.000604226 4.80034e-06
-3.74885e-05 4.80034e-06 -0.00111715
0.00101929 6.275e-05 1.848e-07
6.275e-05 8.31432e-05 1.28402e-07
1.848e-07 1.28402e-07 -8.22611e-06
0.00135462 6.59716e-05 2.26534e-06
6.59716e-05 0.000281288 1.76608e-07
2.26534e-06 1.76608e-07 0.000176767
0.00217887 0.000138537 -3.26798e-06
0.000138537 0.000268408 -4.45227e-07
-3.26798e-06 -4.45227e-07 0.000244109
0.000711278 7.76817e-05 2.23243e-06
7.76817e-05 -8.47944e-07 -3.94124e-06
2.23243e-06 -3.94124e-06 -0.000185987
0.0037445 -0.00019256 4.6275e-05
-0.00019256 0.00151562 6.71544e-06
4.6275e-05 6.71544e-06 0.00149716
0.000525948 -0.000216077 3.02948e-05
-0.000216077 -0.000591589 3.00432e-05
3.02948e-05 3.00432e-05 -0.00117845
0.00357917 6.89691e-06 -6.76577e-05
6.89691e-06 0.000398202 -5.31556e-05
-6.76577e-05 -5.31556e-05 0.000129245
0.000348932 7.65039e-05 4.65464e-06
7.65039e-05 -0.000435964 1.89511e-07
4.65464e-06 1.89511e-07 -0.000412929
-0.00164752 -0.000230165 5.48036e-05
-0.000230165 -0.00105632 2.6634e-05
5.48036e-05 2.6634e-05 -0.000992235
0.00212474 -0.000131214 1.3998e-05
-0.000131214 0.000775211 9.65375e-06
1.3998e-05 9.65375e-06 0.000947141
0.00168892 -0.000187865 1.25612e-05
-0.000187865 -0.000147312 8.35225e-06
1.25612e-05 8.35225e-06 0.000294397
0.00113871 4.08291e-05 -7.81001e-08
4.08291e-05 0.000124898 1.45758e-07
-7.81001e-08 1.45758e-07 3.56934e-05
0.000613045 -4.61919e-05 -4.53103e-06
-4.61919e-05 5.82658e-05 7.76602e-08
-4.53103e-06 7.76602e-08 7.76527e-05
0.00101009 -4.44248e-06 -2.86367e-06
-4.44248e-06 1.52113e-05 -4.61559e-06
-2.86367e-06 -4.61559e-06 -2.69391e-05
0.00082227 0.000108494 -1.98208e-06
0.000108494 -4.42203e-05 2.12482e-07
-1.98208e-06 2.12482e-07 -0.000205886
0.000855159 3.21679e-05 -2.69648e-07
3.21679e-05 0.000111267 -6.25698e-08
-2.69648e-07 -6.25698e-08 -3.35541e-05
0.00257202 5.26506e-06 1.81632e-05
5.26506e-06 0.000978787 -4.69528e-07
1.81632e-05 -4.69528e-07 0.000882057
0.00421525 0.0002633 -3.05498e-05
0.0002633 0.00105383 -1.8107e-05
-3.05498e-05 -1.8107e-05 0.000646742
0.00648924 -0.000275355 -2.24983e-07
-0.000275355 0.00188149 4.71011e-06
-2.24983e-07 4.71011e-06 0.00104206
8.37756e-05 -0.000259335 7.82952e-06
-0.000259335 -0.000703721 1.51444e-05
7.82952e-06 1.51444e-05 -0.000673504
0.00191931 -6.82271e-05 -2.91016e-07
-6.82271e-05 0.000173884 8.91122e-07
-2.91016e-07 8.91122e-07 0.000358216
0.00146321 7.23602e-05 -8.03431e-07
7.23602e-05 0.000341625 -3.53858e-06
-8.03431e-07 -3.53858e-06 0.000264265
0.00186153 9.72034e-06 6.31573e-06
9.72034e-06 0.000655044 2.73621e-06
6.31573e-06 2.73621e-06 0.000590018
0.00111585 1.4436e-05 4.58666e-06
1.4436e-05 0.000133661 -1.79087e-06
4.58666e-06 -1.79087e-06 4.01562e-05
0.000466663 -4.13246e-05 -9.50476e-06
-4.13246e-05 2.46732e-05 3.4129e-06
-9.50476e-06 3.4129e-06 -0.000117541
0.000910201 0.000136335 -2.6705e-05
0.000136335 0.00028173 4.33324e-05
-2.6705e-05 4.33324e-05 1.53199e-05
0.00655518 -0.000166179 -1.44338e-05
-0.000166179 0.0015336 -1.84378e-05
-1.44338e-05 -1.84378e-05 0.000544902
-0.000183885 -0.000145049 -3.84966e-05
-0.000145049 -0.00129557 -4.52159e-05
-3.84966e-05 -4.52159e-05 -0.00114897
0.00228371 1.66015e-05 2.91416e-07
1.66015e-05 0.00041421 8.50431e-06
2.91416e-07 8.50431e-06 0.000579326
0.000980455 5.57179e-05 1.08652e-07
5.57179e-05 4.32663e-05 -4.38747e-08
1.08652e-07 -4.38747e-08 -4.50105e-05
0.00108427 6.3434e-05 5.22662e-07
6.3434e-05 0.000112888 -6.63973e-08
5.22662e-07 -6.63973e-08 2.26507e-05
0.000963069 4.98122e-05 -1.00304e-06
4.98122e-05 5.25483e-05 -2.11081e-06
-1.00304e-06 -2.11081e-06 -3.66795e-05
0.000999772 4.18853e-05 -4.52959e-07
4.18853e-05 6.51954e-05 -7.12534e-07
-4.52959e-07 -7.12534e-07 8.46138e-06
0.000975861 -1.1619e-05 3.59172e-07
-1.1619e-05 5.24883e-05 -3.01853e-07
3.59172e-07 -3.01853e-07 -1.28105e-05
0.0010413 1.89071e-05 -2.56964e-07
1.89071e-05 8.90991e-05 -2.22501e-07
-2.56964e-07 -2.22501e-07 1.58339e-05
0.0010247 3.41493e-05 2.92657e-07
3.41493e-05 8.83833e-05 5.67298e-08
2.92657e-07 5.67298e-08 6.12134e-07
0.00101506 1.89669e-05 2.43972e-07
1.89669e-05 7.29797e-05 -6.99325e-09
2.43972e-07 -6.99325e-09 7.75543e-06
0.00106513 1.2484e-05 -8.9007e-08
1.2484e-05 9.78705e-05 4.26077e-07
-8.9007e-08 4.26077e-07 2.19451e-05
0.0010991 4.57602e-06 1.87917e-07
4.57602e-06 0.000128013 -3.4145e-07
1.87917e-07 -3.4145e-07 3.45149e-05
0.00137122 -1.10939e-05 -4.70278e-07
-1.10939e-05 0.000269643 -7.00707e-07
-4.70278e-07 -7.00707e-07 0.00018275
0.00107149 -3.49995e-05 3.65889e-07
-3.49995e-05 9.32775e-05 1.44442e-07
3.65889e-07 1.44442e-07 9.37173e-06
0.00105975 3.46748e-05 6.59271e-07
3.46748e-05 9.40068e-05 5.22715e-07
6.59271e-07 5.22715e-07 2.07109e-05
0.00100591 -3.41818e-06 4.85191e-07
-3.41818e-06 6.80189e-05 -4.77049e-07
4.85191e-07 -4.77049e-07 3.10709e-06
0.000971704 1.43007e-05 1.74618e-07
1.43007e-05 5.2836e-05 -6.17543e-07
1.74618e-07 -6.17543e-07 -1.35804e-05
0.0010027 8.20499e-06 -5.09518e-07
8.20499e-06 5.94502e-05 -1.28564e-06
-5.09518e-07 -1.28564e-06 -1.0551e-05
0.00108069 1.92657e-05 -2.19202e-07
1.92657e-05 0.000102344 -4.12722e-07
-2.19202e-07 -4.12722e-07 3.09662e-05
0.000970847 6.37702e-06 8.02939e-08
6.37702e-06 5.62914e-05 3.58904e-07
8.02939e-08 3.58904e-07 -1.33558e-05
0.000978041 7.8582e-06 3.45544e-09
7.8582e-06 4.58024e-05 -1.85662e-07
3.45544e-09 -1.85662e-07 -2.78674e-05
0.000987938 -1.25008e-05 2.06858e-07
-1.25008e-05 5.58021e-05 6.02398e-07
2.06858e-07 6.02398e-07 -2.28755e-05
0.00104184 -6.43456e-06 3.12188e-07
-6.43456e-06 7.40564e-05 1.52122e-07
3.12188e-07 1.52122e-07 -2.001e-06
0.000960336 -4.86794e-05 3.57868e-07
-4.86794e-05 5.2046e-05 -8.57147e-08
3.57868e-07 -8.57147e-08 -3.6762e-05
0.00107202 -3.1947e-05 -2.53215e-07
-3.1947e-05 0.000109134 -4.57019e-08
-2.53215e-07 -4.57019e-08 2.50086e-05
0.000805376 -4.72662e-05 -7.00797e-08
-4.72662e-05 -8.6919e-07 1.2252e-06
-7.00797e-08 1.2252e-06 -9.2242e-05
0.00107766 -6.78176e-05 -1.08728e-06
-6.78176e-05 0.000119451 1.7983e-06
-1.08728e-06 1.7983e-06 2.21319e-05
0.00112175 -4.96813e-05 4.18034e-07
-4.96813e-05 0.000144619 -1.04602e-06
4.18034e-07 -1.04602e-06 6.24409e-05
0.000841896 -5.06391e-05 2.67438e-07
-5.06391e-05 2.15497e-05 -1.30786e-06
2.67438e-07 -1.30786e-06 -6.69886e-05
0.000989782 -2.91232e-05 7.52188e-08
-2.91232e-05 7.63766e-05 -5.72497e-07
7.52188e-08 -5.72497e-07 -3.00257e-06
0.000856782 -1.45509e-05 -2.49682e-07
-1.45509e-05 -3.00689e-06 8.84126e-07
-2.49682e-07 8.84126e-07 -7.19594e-05
0.00100419 -1.47358e-05 -1.7762e-07
-1.47358e-05 7.91221e-05 -2.16515e-07
-1.7762e-07 -2.16515e-07 3.95522e-06
0.000975903 -1.01127e-05 -3.63465e-08
-1.01127e-05 5.61008e-05 4.43608e-07
-3.63465e-08 4.43608e-07 -6.66861e-06
0.000935806 9.98798e-06 -2.59972e-07
9.98798e-06 2.75913e-05 1.07186e-06
-2.59972e-07 1.07186e-06 -2.05304e-05
0.000966226 -1.57812e-05 2.23187e-07
-1.57812e-05 5.11325e-05 -7.85836e-07
2.23187e-07 -7.85836e-07 -8.72767e-06
0.000932663 1.82218e-06 -2.25334e-07
1.82218e-06 2.61032e-05 -3.26629e-08
-2.25334e-07 -3.26629e-08 -1.94471e-05
0.000904998 1.29469e-05 -7.87615e-07
1.29469e-05 5.73771e-06 1.61102e-06
-7.87615e-07 1.61102e-06 -2.25138e-05
0.000939817 2.35413e-06 6.94283e-07
2.35413e-06 2.88554e-05 -8.16961e-07
6.94283e-07 -8.16961e-07 -1.53129e-05
0.000910607 6.55528e-06 -1.48771e-07
6.55528e-06 5.49896e-06 -3.31838e-09
-1.48771e-07 -3.31838e-09 -2.13098e-05
0.00142491 1.56017e-05 -5.30554e-06
1.56017e-05 0.000265566 4.15233e-06
-5.30554e-06 4.15233e-06 0.000268071
0.000910801 -9.30166e-07 9.01121e-07
-9.30166e-07 3.85442e-06 -1.55759e-06
9.01121e-07 -1.55759e-06 -2.19692e-05
0.00113904 1.15291e-05 -1.99975e-06
1.15291e-05 0.000114259 5.71318e-07
-1.99975e-06 5.71318e-07 0.00011622
0.0010013 1.12088e-05 -1.23735e-06
1.12088e-05 4.2128e-05 1.48239e-06
-1.23735e-06 1.48239e-06 5.9872e-05
0.000856872 7.24389e-06 6.42286e-07
7.24389e-06 -3.47456e-05 -2.95839e-06
6.42286e-07 -2.95839e-06 -3.35638e-05
0.00158238 8.69492e-06 3.04692e-06
8.69492e-06 0.000339831 -1.16397e-06
3.04692e-06 -1.16397e-06 0.000360812
0.00215343 4.7438e-06 3.95081e-06
4.7438e-06 0.000634592 -3.83501e-06
3.95081e-06 -3.83501e-06 0.00065841
0.0010066 -8.34636e-06 3.00622e-07
-8.34636e-06 6.40399e-05 -8.59039e-07
3.00622e-07 -8.59039e-07 2.01945e-05
0.000922172 -4.30681e-06 -2.45562e-07
-4.30681e-06 7.12765e-06 -1.56249e-06
-2.45562e-07 -1.56249e-06 -1.62452e-05
0.000986312 1.22352e-06 3.16715e-07
1.22352e-06 5.34316e-05 8.49696e-08
3.16715e-07 8.49696e-08 1.25241e-05
0.000870338 -3.64063e-06 -3.47767e-07
-3.64063e-06 -2.97875e-05 -3.03785e-06
-3.47767e-07 -3.03785e-06 -2.63473e-05
0.000921196 -2.47038e-06 -5.57979e-08
-2.47038e-06 5.4211e-06 -7.73885e-09
-5.57979e-08 -7.73885e-09 -1.6813e-05
0.000948256 -9.39574e-06 -5.14613e-07
-9.39574e-06 3.31183e-05 1.27694e-06
-5.14613e-07 1.27694e-06 -6.21142e-06
0.00206845 -5.06329e-09 -7.77662e-07
-5.06329e-09 0.000589992 -3.8665e-06
-7.77662e-07 -3.8665e-06 0.000614912
0.000865014 2.4196e-07 -7.55604e-08
2.4196e-07 -3.33091e-05 -4.75603e-09
-7.55604e-08 -4.75603e-09 -2.938e-05
0.00091941 -6.10359e-07 -9.26252e-08
-6.10359e-07 3.86617e-06 1.68095e-06
-9.26252e-08 1.68095e-06 -1.78034e-05
0.000867573 4.20941e-06 -3.69748e-07
4.20941e-06 -3.14289e-05 3.02189e-06
-3.69748e-07 3.02189e-06 -2.78192e-05
0.00207489 5.06472e-06 -1.39613e-06
5.06472e-06 0.00059389 -8.99024e-09
-1.39613e-06 -8.99024e-09 0.000618638
0.00209527 9.73109e-06 -6.97041e-06
9.73109e-06 0.000605982 3.81333e-06
-6.97041e-06 3.81333e-06 0.000630257
-0.00108249 1.80628e-05 -3.19971e-06
1.80628e-05 -0.000919476 -9.09981e-07
-3.19971e-06 -9.09981e-07 -0.000951268
-0.000702138 0.000123667 2.40373e-05
0.000123667 -0.000484564 -1.90472e-06
2.40373e-05 -1.90472e-06 -0.000545087
0.00100068 1.24946e-05 -3.99427e-06
1.24946e-05 -5.35068e-05 6.21197e-06
-3.99427e-06 6.21197e-06 -5.88844e-05
-0.00118031 0.000111091 3.1511e-06
0.000111091 -0.00102556 -4.18648e-08
3.1511e-06 -4.18648e-08 -0.000834474
0.00210007 3.04367e-05 -7.66574e-05
3.04367e-05 0.00047029 -6.57392e-06
-7.66574e-05 -6.57392e-06 0.000229988
0.00183413 5.4006e-05 8.42233e-06
5.4006e-05 0.000234379 -2.4663e-06
8.42233e-06 -2.4663e-06 0.00015178
0.000849326 -1.13657e-05 -2.58384e-05
-1.13657e-05 -0.000385836 2.43979e-06
-2.58384e-05 2.43979e-06 -0.000860794
0.00433961 0.000223289 9.51668e-05
0.000223289 0.00199357 -2.88572e-05
9.51668e-05 -2.88572e-05 0.00198573
-0.000511721 0.000265301 1.47403e-05
0.000265301 -0.00112263 -1.07631e-05
1.47403e-05 -1.07631e-05 -0.00053652
0.00135758 6.25492e-05 -2.39383e-06
6.25492e-05 0.000126851 4.02101e-06
-2.39383e-06 4.02101e-06 -6.84799e-05
0.00262013 0.00019964 6.45761e-06
0.00019964 0.000377047 -7.72038e-06
6.45761e-06 -7.72038e-06 -0.000508797
0.00292716 0.000361086 2.05438e-06
0.000361086 0.000851418 -8.59383e-07
2.05438e-06 -8.59383e-07 0.000900612
0.00164592 0.000145118 -3.06756e-06
0.000145118 -0.000203843 1.25232e-06
-3.06756e-06 1.25232e-06 0.000233459
0.00191556 6.59089e-05 -3.03006e-06
6.59089e-05 0.000411315 5.50102e-07
-3.03006e-06 5.50102e-07 0.000153512
0.00332184 0.000248984 2.97745e-05
0.000248984 0.00072235 -1.69541e-05
2.97745e-05 -1.69541e-05 -0.000252234
-0.00231136 0.00023652 -5.71484e-05
0.00023652 -0.00206625 4.34069e-05
-5.71484e-05 4.34069e-05 -0.00193413
0.00085263 5.87409e-05 -8.80957e-08
5.87409e-05 -0.000484696 4.43865e-06
-8.80957e-08 4.43865e-06 -0.000310133
0.00104499 -3.23983e-06 7.78773e-07
-3.23983e-06 0.000102235 -4.65954e-07
7.78773e-07 -4.65954e-07 2.74781e-05
0.000983407 2.82376e-05 -8.53255e-07
2.82376e-05 6.94274e-05 -3.05224e-07
-8.53255e-07 -3.05224e-07 3.83172e-06
0.000944942 7.88379e-06 3.76257e-07
7.88379e-06 4.19887e-05 9.48229e-08
3.76257e-07 9.48229e-08 -9.93035e-06
0.000952477 4.25634e-05 1.21756e-06
4.25634e-05 5.54849e-05 1.30504e-06
1.21756e-06 1.30504e-06 -6.33342e-06
0.000927039 9.39e-06 -2.38328e-07
9.39e-06 3.92297e-05 -1.48226e-07
-2.38328e-07 -1.48226e-07 -3.29958e-05
0.00105441 3.05974e-05 1.77769e-07
3.05974e-05 0.000106217 5.10593e-07
1.77769e-07 5.10593e-07 4.03551e-05
0.000937335 4.67907e-06 -3.00031e-07
4.67907e-06 4.20504e-05 1.6003e-06
-3.00031e-07 1.6003e-06 -1.86573e-05
0.00107538 3.94402e-05 -8.27026e-07
3.94402e-05 0.000110651 -4.46564e-07
-8.27026e-07 -4.46564e-07 4.7846e-05
0.0010495 1.95291e-05 -1.44093e-07
1.95291e-05 9.87101e-05 4.47824e-07
-1.44093e-07 4.47824e-07 3.85159e-05
0.00085481 -1.74192e-05 -7.14575e-07
-1.74192e-05 -1.21355e-06 1.81507e-07
-7.14575e-07 1.81507e-07 -5.83683e-05
0.00143919 -4.07812e-05 -5.75643e-06
-4.07812e-05 -0.000242205 -3.33006e-07
-5.75643e-06 -3.33006e-07 -0.000282563
0.00123131 -0.00013268 -6.57969e-06
-0.00013268 -0.000146822 5.09236e-06
-6.57969e-06 5.09236e-06 -0.000255136
0.000904931 -0.000100367 4.35484e-06
-0.000100367 3.49579e-05 4.07352e-06
4.35484e-06 4.07352e-06 -8.96551e-05
0.00116525 -6.3492e-05 9.99783e-07
-6.3492e-05 0.000184452 9.30148e-07
9.99783e-07 9.30148e-07 3.94236e-05
0.00113621 -2.18505e-05 -1.13646e-07
-2.18505e-05 0.000150197 -2.1743e-08
-1.13646e-07 -2.1743e-08 3.838e-05
0.000900146 -4.35272e-05 -2.8719e-07
-4.35272e-05 2.29219e-05 3.20746e-07
-2.8719e-07 3.20746e-07 -6.32974e-05
0.0009035 2.37637e-05 4.15466e-08
2.37637e-05 2.94556e-05 5.07913e-08
4.15466e-08 5.07913e-08 -4.82166e-05
0.000992295 -7.39496e-06 2.50951e-07
-7.39496e-06 7.55252e-05 6.28927e-07
2.50951e-07 6.28927e-07 -3.30885e-06
0.0019213 -0.000132676 1.23524e-06
-0.000132676 8.02593e-05 -1.37661e-08
1.23524e-06 -1.37661e-08 8.93288e-05
0.00105247 -5.33601e-06 -1.80395e-07
-5.33601e-06 9.98557e-05 -2.38133e-07
-1.80395e-07 -2.38133e-07 1.45714e-05
0.00120161 -1.83094e-05 -1.79747e-07
-1.83094e-05 0.000163661 -4.70255e-08
-1.79747e-07 -4.70255e-08 6.95335e-05
0.00167459 -0.000147272 -4.65824e-07
-0.000147272 0.000374476 -2.04624e-06
-4.65824e-07 -2.04624e-06 0.000197776
0.00114389 -1.28618e-05 -4.6511e-07
-1.28618e-05 0.000183743 -1.99656e-08
-4.6511e-07 -1.99656e-08 4.01172e-05
-6.0181e-05 -0.000129776 -6.35773e-06
-0.000129776 -0.000742157 -9.67487e-06
-6.35773e-06 -9.67487e-06 -0.000712774
0.00168755 -4.71773e-05 -2.32396e-06
-4.71773e-05 0.000500868 2.7802e-06
-2.32396e-06 2.7802e-06 0.000282528
0.000854988 3.13728e-05 -1.0707e-06
3.13728e-05 -8.04736e-06 1.96566e-06
-1.0707e-06 1.96566e-06 -0.000109355
0.00100541 2.68731e-05 1.0401e-08
2.68731e-05 7.01945e-05 -5.21094e-07
1.0401e-08 -5.21094e-07 -1.20633e-05
0.00104517 2.36933e-05 -2.64325e-07
2.36933e-05 7.81354e-05 2.84929e-07
-2.64325e-07 2.84929e-07 -1.4646e-05
0.00178795 -5.34716e-06 8.98317e-06
-5.34716e-06 0.000635119 7.50826e-07
8.98317e-06 7.50826e-07 0.000563963
7.54808e-05 -1.06726e-05 6.80119e-06
-1.06726e-05 -0.00024026 -4.01597e-07
6.80119e-06 -4.01597e-07 -0.000276118
-0.00323353 -2.37413e-05 7.27874e-05
-2.37413e-05 -0.00191862 6.65281e-07
7.27874e-05 6.65281e-07 -0.0019567
0.00126559 5.45499e-05 1.53798e-06
5.45499e-05 0.000197362 1.65174e-06
1.53798e-06 1.65174e-06 0.000106268
-0.000139763 1.3593e-05 2.09897e-06
1.3593e-05 -0.000367793 -1.37523e-06
2.09897e-06 -1.37523e-06 -0.000517999
0.00164582 0.000107844 1.5822e-06
0.000107844 0.00035201 -6.51448e-06
1.5822e-06 -6.51448e-06 0.000190224
-0.00116649 -2.36236e-05 5.28876e-06
-2.36236e-05 -0.000979303 1.57534e-06
5.28876e-06 1.57534e-06 -0.00101933
0.00221067 -0.000293083 2.52379e-05
-0.000293083 8.42095e-05 2.2134e-05
2.52379e-05 2.2134e-05 -0.000903337
0.00297023 0.000204745 5.89621e-05
0.000204745 0.000629067 -3.95311e-05
5.89621e-05 -3.95311e-05 0.000371165
0.000993846 2.39139e-06 3.22691e-05
2.39139e-06 9.12712e-05 1.31578e-05
3.22691e-05 1.31578e-05 -5.49745e-05
0.00429983 -0.000384618 4.37718e-05
-0.000384618 0.0011734 4.95991e-05
4.37718e-05 4.95991e-05 0.00117598
0.000796796 2.60509e-07 -2.0027e-06
2.60509e-07 -0.000128356 5.94032e-07
-2.0027e-06 5.94032e-07 -0.000168774
0.00118833 -5.49399e-05 1.03498e-06
-5.49399e-05 -0.000201911 9.86461e-07
1.03498e-06 9.86461e-07 -5.52211e-05
0.00103112 6.28092e-05 1.4633e-06
6.28092e-05 0.000124799 -7.20926e-07
1.4633e-06 -7.20926e-07 5.01899e-05
0.00124178 1.21821e-05 -7.75836e-07
1.21821e-05 0.000294477 5.78411e-07
-7.75836e-07 5.78411e-07 0.000229805
0.00103606 1.43942e-05 -2.79377e-06
1.43942e-05 7.66424e-05 -4.00831e-06
-2.79377e-06 -4.00831e-06 -1.4883e-05
-0.000157075 -8.05182e-06 9.97295e-06
-8.05182e-06 -0.000277622 -5.37052e-07
9.97295e-06 -5.37052e-07 -0.000432948
0.0028933 0.000218404 -3.76109e-05
0.000218404 0.000905394 -1.99753e-05
-3.76109e-05 -1.99753e-05 0.000685255
0.00581348 1.36194e-05 2.19944e-05
1.36194e-05 0.00113604 4.18293e-06
2.19944e-05 4.18293e-06 0.000129895
0.00142521 3.42457e-06 1.97378e-06
3.42457e-06 -5.2625e-05 -1.20272e-06
1.97378e-06 -1.20272e-06 5.88667e-05
0.00164297 -0.000224487 -1.80156e-06
-0.000224487 -0.000420517 2.50152e-05
-1.80156e-06 2.50152e-05 -0.000351349
0.000850494 3.30542e-05 -2.09348e-06
3.30542e-05 7.66767e-05 -6.34236e-06
-2.09348e-06 -6.34236e-06 1.41933e-05
0.000991556 1.35182e-05 1.21513e-05
1.35182e-05 7.33997e-05 6.205e-06
1.21513e-05 6.205e-06 -3.62607e-05
0.00145412 -4.95037e-06 -8.56439e-06
-4.95037e-06 0.000309239 -1.73747e-06
-8.56439e-06 -1.73747e-06 0.000193045
0.000910001 4.23608e-05 2.68444e-07
4.23608e-05 -0.000370456 -2.14726e-06
2.68444e-07 -2.14726e-06 -0.000250547
-0.00195315 4.74922e-05 -4.08283e-07
4.74922e-05 -0.00103515 -2.1395e-07
-4.08283e-07 -2.1395e-07 -0.00122032
0.00694178 -3.16304e-05 2.38478e-05
-3.16304e-05 0.00159218 1.4968e-05
2.38478e-05 1.4968e-05 0.000901406
0.000374317 3.04906e-06 -8.14521e-08
3.04906e-06 -0.00103143 -6.35592e-05
-8.14521e-08 -6.35592e-05 -0.000719435
0.00146567 7.48095e-05 1.36542e-06
7.48095e-05 0.00029716 2.46582e-06
1.36542e-06 2.46582e-06 0.00020949
0.00107275 5.47954e-05 -1.13498e-06
5.47954e-05 9.61471e-05 9.22665e-07
-1.13498e-06 9.22665e-07 3.85493e-06
0.00144847 5.1239e-05 -7.60981e-07
5.1239e-05 0.000290984 -3.54611e-06
-7.60981e-07 -3.54611e-06 0.000201846
0.00100075 4.5539e-05 -1.88418e-07
4.5539e-05 6.5703e-05 -3.15414e-07
-1.88418e-07 -3.15414e-07 7.09544e-07
0.0010556 2.24886e-05 -1.09438e-07
2.24886e-05 9.20704e-05 -2.96113e-07
-1.09438e-07 -2.96113e-07 1.70997e-05
0.000884997 -4.63025e-06 -4.3335e-08
-4.63025e-06 2.38094e-05 1.1712e-06
-4.3335e-08 1.1712e-06 -7.3079e-05
0.00109928 3.40552e-05 -3.92645e-08
3.40552e-05 0.000112354 -1.24605e-07
-3.92645e-08 -1.24605e-07 4.01602e-05
0.00101723 -3.83943e-05 -7.87656e-08
-3.83943e-05 6.67363e-05 5.49282e-08
-7.87656e-08 5.49282e-08 -1.86659e-05
0.00111807 -3.29617e-05 1.6495e-06
-3.29617e-05 0.000138675 8.4198e-07
1.6495e-06 8.4198e-07 4.72781e-05
0.000840761 -1.17987e-05 3.2383e-07
-1.17987e-05 1.36247e-05 -5.24069e-07
3.2383e-07 -5.24069e-07 -6.34808e-05
0.00105937 -2.57678e-05 -2.52566e-07
-2.57678e-05 7.85815e-05 1.68913e-07
-2.52566e-07 1.68913e-07 -4.85531e-07
0.00109948 1.95366e-05 -6.95493e-07
1.95366e-05 0.000110285 -7.32742e-07
-6.95493e-07 -7.32742e-07 3.97595e-05
0.000989425 9.85309e-06 -1.88321e-08
9.85309e-06 6.67969e-05 -2.7559e-07
-1.88321e-08 -2.7559e-07 -3.25064e-06
0.00102858 1.17127e-05 -2.6784e-07
1.17127e-05 7.03502e-05 -5.42106e-07
-2.6784e-07 -5.42106e-07 -2.82915e-06
0.00101779 -1.12463e-05 1.73648e-07
-1.12463e-05 6.16329e-05 -1.03993e-08
1.73648e-07 -1.03993e-08 -1.44336e-05
0.000997358 -1.1235e-05 1.12909e-07
-1.1235e-05 5.96083e-05 4.46072e-07
1.12909e-07 4.46072e-07 -1.85886e-05
0.00102056 -5.37013e-05 1.58453e-07
-5.37013e-05 8.7034e-05 9.5152e-07
1.58453e-07 9.5152e-07 6.61728e-07
0.000946438 -4.76239e-05 6.84912e-08
-4.76239e-05 4.87197e-05 -7.8557e-07
6.84912e-08 -7.8557e-07 -3.86796e-05
0.00109905 -6.71058e-05 5.66417e-07
-6.71058e-05 0.000141174 1.02245e-06
5.66417e-07 1.02245e-06 3.4195e-05
0.00116232 -3.63222e-05 -5.37326e-08
-3.63222e-05 0.000154316 -4.1388e-07
-5.37326e-08 -4.1388e-07 7.02343e-05
0.00106427 -5.56307e-05 -1.63747e-07
-5.56307e-05 0.000124275 9.44944e-07
-1.63747e-07 9.44944e-07 3.23643e-05
0.000673125 -5.76265e-05 -3.69075e-07
-5.76265e-05 -8.33932e-05 1.79343e-06
-3.69075e-07 1.79343e-06 -0.000188934
0.000986549 -6.59655e-05 -1.98388e-06
-6.59655e-05 7.15287e-05 1.27791e-07
-1.98388e-06 1.27791e-07 -2.44632e-05
0.00104985 -6.28805e-05 -1.0265e-06
-6.28805e-05 0.000111054 2.72393e-07
-1.0265e-06 2.72393e-07 2.53321e-05
0.000965118 -6.37542e-05 -2.21715e-07
-6.37542e-05 6.61289e-05 -5.10728e-08
-2.21715e-07 -5.10728e-08 -3.09182e-05
0.00100332 -3.34961e-05 -3.42183e-07
-3.34961e-05 7.51924e-05 7.33759e-07
-3.42183e-07 7.33759e-07 1.92978e-06
0.0010958 -5.08532e-05 -3.12624e-07
-5.08532e-05 0.000131615 -3.83254e-07
-3.12624e-07 -3.83254e-07 4.86458e-05
0.000871042 -5.27996e-05 -7.76835e-08
-5.27996e-05 3.95673e-05 -1.48815e-06
-7.76835e-08 -1.48815e-06 -4.63785e-05
0.00111741 -3.20493e-05 1.46344e-07
-3.20493e-05 0.000140615 -8.42509e-07
1.46344e-07 -8.42509e-07 6.20794e-05
0.000930314 -1.55896e-05 5.1843e-08
-1.55896e-05 3.45704e-05 -2.57951e-08
5.1843e-08 -2.57951e-08 -3.34125e-05
0.000951657 5.61297e-06 -3.22136e-07
5.61297e-06 3.72602e-05 1.28551e-06
-3.22136e-07 1.28551e-06 -1.53691e-05
0.000985101 -1.27019e-05 1.91846e-07
-1.27019e-05 6.13227e-05 -4.42204e-07
1.91846e-07 -4.42204e-07 -1.84984e-06
0.000939403 6.53209e-06 -1.25784e-07
6.53209e-06 2.9899e-05 -1.05443e-07
-1.25784e-07 -1.05443e-07 -1.83982e-05
0.00089491 1.59044e-05 -9.55158e-07
1.59044e-05 3.7785e-06 1.68482e-06
-9.55158e-07 1.68482e-06 -2.63812e-05
0.000930365 -2.27468e-06 4.98493e-07
-2.27468e-06 2.52347e-05 -9.6375e-07
4.98493e-07 -9.6375e-07 -2.03979e-05
0.000901762 1.19667e-05 -7.10973e-08
1.19667e-05 3.69916e-06 -3.90256e-09
-7.10973e-08 -3.90256e-09 -2.45077e-05
0.00139684 1.92359e-05 -6.00272e-06
1.92359e-05 0.000256277 3.00887e-06
-6.00272e-06 3.00887e-06 0.000257413
0.000908712 2.60762e-06 9.42768e-07
2.60762e-06 4.15653e-06 -1.56758e-06
9.42768e-07 -1.56758e-06 -2.25732e-05
0.00113739 1.51229e-05 -2.49425e-06
1.51229e-05 0.000117133 5.51481e-07
-2.49425e-06 5.51481e-07 0.000118106
0.000993271 1.4976e-05 -1.74539e-06
1.4976e-05 4.23331e-05 1.49497e-06
-1.74539e-06 1.49497e-06 5.91268e-05
0.000856546 1.07839e-05 9.649e-07
1.07839e-05 -3.22669e-05 -2.99722e-06
9.649e-07 -2.99722e-06 -3.16511e-05
0.00158175 1.31782e-05 4.08719e-06
1.31782e-05 0.000342411 -1.13229e-06
4.08719e-06 -1.13229e-06 0.000362877
0.00214991 9.79965e-06 6.65894e-06
9.79965e-06 0.000634594 -3.79457e-06
6.65894e-06 -3.79457e-06 0.000658136
0.000779084 -4.26613e-07 -3.64352e-07
-4.26613e-07 -5.11407e-05 -1.43905e-06
-3.64352e-07 -1.43905e-06 -0.000100595
0.00067459 -7.32981e-06 -2.94539e-07
-7.32981e-06 -0.000116938 -2.14128e-06
-2.94539e-07 -2.14128e-06 -0.000143923
0.00101847 -2.133e-06 -4.56179e-08
-2.133e-06 7.05464e-05 3.8448e-08
-4.56179e-08 3.8448e-08 2.62551e-05
0.000871042 -7.24265e-06 -5.89069e-07
-7.24265e-06 -2.76125e-05 -3.0492e-06
-5.89069e-07 -3.0492e-06 -2.52752e-05
0.000797162 -4.83376e-06 3.66086e-08
-4.83376e-06 -5.6418e-05 -9.21036e-09
3.66086e-08 -9.21036e-09 -8.06462e-05
0.000787988 -1.98815e-05 -1.26091e-07
-1.98815e-05 -4.75731e-05 8.80828e-07
-1.26091e-07 8.80828e-07 -8.98123e-05
0.00208332 -4.80896e-06 -3.99646e-06
-4.80896e-06 0.000598408 -3.88432e-06
-3.99646e-06 -3.88432e-06 0.000623031
0.000863984 -3.52361e-06 -1.4105e-07
-3.52361e-06 -3.31648e-05 -1.57266e-08
-1.4105e-07 -1.57266e-08 -2.96567e-05
0.000920683 -2.9908e-06 -4.77745e-08
-2.9908e-06 5.14106e-06 1.64954e-06
-4.77745e-08 1.64954e-06 -1.70876e-05
0.00206736 1.84135e-07 -1.40737e-06
1.84135e-07 0.000589419 2.61705e-10
-1.40737e-06 2.61705e-10 0.000614349
0.000865168 3.79011e-07 -7.1783e-08
3.79011e-07 -3.32534e-05 3.03453e-06
-7.1783e-08 3.03453e-06 -2.932e-05
0.0020766 5.26048e-06 -3.65583e-06
5.26048e-06 0.000594931 3.84433e-06
-3.65583e-06 3.84433e-06 0.000619622
0.00124224 -1.4896e-05 4.43323e-06
-1.4896e-05 0.000254118 4.79966e-07
4.43323e-06 4.79966e-07 0.000175094
0.00121601 4.16628e-05 1.49065e-06
4.16628e-05 0.000406137 -4.37617e-07
1.49065e-06 -4.37617e-07 0.000439953
0.000615614 7.5619e-06 0.000104957
7.5619e-06 -2.25452e-05 -1.62678e-05
0.000104957 -1.62678e-05 -0.000188677
0.000980764 1.85258e-05 -3.48391e-07
1.85258e-05 5.60074e-05 -6.16891e-07
-3.48391e-07 -6.16891e-07 -8.57229e-06
0.00108222 -2.50234e-06 1.47235e-05
-2.50234e-06 0.000103311 3.62401e-06
1.47235e-05 3.62401e-06 1.45077e-05
0.00110429 6.89418e-06 -6.74219e-06
6.89418e-06 4.07954e-05 2.73518e-06
-6.74219e-06 2.73518e-06 1.33751e-05
0.00139298 0.000134238 1.37976e-05
0.000134238 0.000411088 -8.49354e-06
1.37976e-05 -8.49354e-06 0.00066876
0.00198894 8.28567e-05 -3.99865e-05
8.28567e-05 0.000196873 1.45534e-05
-3.99865e-05 1.45534e-05 -1.84441e-05
0.00664449 0.000330608 1.56839e-05
0.000330608 0.00233709 -1.19233e-05
1.56839e-05 -1.19233e-05 0.0014649
-0.0014727 0.000250265 5.61381e-05
0.000250265 -0.0011256 -3.38752e-05
5.61381e-05 -3.38752e-05 -0.00102718
0.00230225 0.000145869 6.79587e-06
0.000145869 0.00023074 -9.12139e-06
6.79587e-06 -9.12139e-06 0.000638805
0.00173625 7.0738e-05 -2.59497e-05
7.0738e-05 -8.89385e-05 7.15364e-06
-2.59497e-05 7.15364e-06 -0.000397777
0.00498439 0.000238301 2.67454e-05
0.000238301 0.00142331 -1.76328e-05
2.67454e-05 -1.76328e-05 0.000516976
0.00165265 0.000288753 -6.44528e-06
0.000288753 -0.000393606 1.19997e-05
-6.44528e-06 1.19997e-05 -0.000255146
0.00211651 6.65992e-05 -9.48669e-08
6.65992e-05 0.000194445 1.34716e-06
-9.48669e-08 1.34716e-06 0.000417353
0.00381861 -9.42766e-05 1.71516e-05
-9.42766e-05 0.00085505 -3.13911e-05
1.71516e-05 -3.13911e-05 0.000512712
0.00771963 0.000253689 2.71006e-05
0.000253689 0.0022344 -3.51674e-06
2.71006e-05 -3.51674e-06 0.00116359
0.00158736 0.000259948 7.26479e-06
0.000259948 -0.000642134 5.81456e-05
7.26479e-06 5.81456e-05 -0.00061862
0.00272309 3.49755e-05 -3.45681e-07
3.49755e-05 0.000608211 -6.30618e-07
-3.45681e-07 -6.30618e-07 0.000813149
0.000949715 -6.94903e-06 1.62441e-07
-6.94903e-06 4.47765e-05 -6.30516e-07
1.62441e-07 -6.30516e-07 -3.40081e-05
0.00101173 -1.68941e-05 3.23781e-07
-1.68941e-05 8.553e-05 -3.49394e-08
3.23781e-07 -3.49394e-08 1.01464e-05
0.00106845 3.43652e-05 -5.46727e-07
3.43652e-05 0.000113697 4.51113e-07
-5.46727e-07 4.51113e-07 4.83061e-05
0.000968674 5.45466e-06 -3.19996e-07
5.45466e-06 5.27987e-05 -9.32341e-07
-3.19996e-07 -9.32341e-07 -1.79524e-05
0.00101946 3.12885e-05 -3.59063e-07
3.12885e-05 8.60376e-05 3.66494e-07
-3.59063e-07 3.66494e-07 1.49984e-05
0.00107292 1.52761e-05 3.40465e-07
1.52761e-05 0.000114618 1.36276e-06
3.40465e-07 1.36276e-06 4.99266e-05
0.00112426 3.94247e-05 -3.74711e-07
3.94247e-05 0.000135245 9.33089e-08
-3.74711e-07 9.33089e-08 7.26342e-05
0.00114259 4.03831e-05 7.03503e-07
4.03831e-05 0.000146951 1.27407e-06
7.03503e-07 1.27407e-06 8.68942e-05
0.00092874 -0.000128202 3.37426e-06
-0.000128202 -0.000409885 -4.13597e-06
3.37426e-06 -4.13597e-06 -0.000398469
0.00134821 -0.00013302 -6.1745e-07
-0.00013302 0.000226882 2.85774e-06
-6.1745e-07 2.85774e-06 4.07537e-05
0.000978841 -6.54496e-05 -1.40652e-06
-6.54496e-05 7.03671e-05 8.1369e-07
-1.40652e-06 8.1369e-07 -9.69545e-06
0.00143188 -2.62657e-05 4.4731e-07
-2.62657e-05 0.000318572 2.0453e-08
4.4731e-07 2.0453e-08 0.000178806
0.00126656 -3.01551e-05 -8.70821e-07
-3.01551e-05 0.00019678 2.99361e-07
-8.70821e-07 2.99361e-07 0.000101605
0.00111885 2.69233e-06 -4.89693e-07
2.69233e-06 0.000134216 -4.29592e-07
-4.89693e-07 -4.29592e-07 5.03443e-05
0.00104576 2.37644e-05 8.70421e-08
2.37644e-05 9.22823e-05 2.18364e-07
8.70421e-08 2.18364e-07 9.26145e-06
0.00150213 -0.000170809 -2.78927e-06
-0.000170809 3.86331e-05 -6.79022e-07
-2.78927e-06 -6.79022e-07 5.16922e-05
0.0010528 1.10407e-05 7.14062e-09
1.10407e-05 8.63768e-05 -7.11689e-07
7.14062e-09 -7.11689e-07 -6.0712e-06
0.00110533 4.49094e-06 -4.41314e-07
4.49094e-06 0.000124125 1.54104e-07
-4.41314e-07 1.54104e-07 1.63355e-05
0.00108776 -3.67354e-05 -3.0493e-07
-3.67354e-05 0.000216662 3.65916e-07
-3.0493e-07 3.65916e-07 -1.8399e-05
0.00117222 2.27391e-05 5.55431e-08
2.27391e-05 0.000145699 -1.48658e-07
5.55431e-08 -1.48658e-07 6.59097e-05
-0.000104568 -0.00014691 -2.23649e-05
-0.00014691 -0.00042404 -7.25177e-06
-2.23649e-05 -7.25177e-06 -0.000525009
0.00141272 5.19024e-05 -5.60956e-06
5.19024e-05 0.000411307 6.6644e-06
-5.60956e-06 6.6644e-06 0.000223462
0.000851627 1.81337e-05 -7.39505e-07
1.81337e-05 -2.65302e-05 1.16947e-06
-7.39505e-07 1.16947e-06 -0.000112681
0.00114917 5.89259e-05 -4.33094e-07
5.89259e-05 0.00013756 -1.88371e-07
-4.33094e-07 -1.88371e-07 5.03049e-05
0.00143941 -1.72188e-06 1.74397e-05
-1.72188e-06 0.000378355 -4.4128e-07
1.74397e-05 -4.4128e-07 0.000264452
0.00156401 -5.55323e-06 -5.18826e-08
-5.55323e-06 0.000485513 3.22288e-07
-5.18826e-08 3.22288e-07 0.000408868
-0.00109647 -8.97265e-06 1.02558e-05
-8.97265e-06 -0.000900364 7.66062e-07
1.02558e-05 7.66062e-07 -0.000951138
0.000506332 4.76661e-05 3.044e-06
4.76661e-05 -0.00013873 9.80372e-07
3.044e-06 9.80372e-07 -0.000209909
-0.000830004 1.49148e-05 -7.48943e-06
1.49148e-05 -0.000591036 1.7539e-06
-7.48943e-06 1.7539e-06 -0.000762454
0.000601348 1.42326e-05 -8.53686e-06
1.42326e-05 -8.02115e-05 -2.01991e-06
-8.53686e-06 -2.01991e-06 -0.000143871
0.00405823 -0.000342792 4.83354e-05
-0.000342792 0.000729749 1.39279e-05
4.83354e-05 1.39279e-05 -0.000341007
0.00419707 0.000260285 -2.24155e-05
0.000260285 0.00115931 -7.48218e-05
-2.24155e-05 -7.48218e-05 0.000686407
0.00258377 -0.000283557 1.31127e-05
-0.000283557 -0.000270503 0.000101848
1.31127e-05 0.000101848 -0.000130766
0.000975299 1.46646e-05 -1.60764e-05
1.46646e-05 3.60725e-05 -5.693e-06
-1.60764e-05 -5.693e-06 -5.38133e-05
0.000679699 -2.22956e-06 -1.07082e-06
-2.22956e-06 -0.000461683 -1.47391e-06
-1.07082e-06 -1.47391e-06 -0.000405187
0.00105744 4.73114e-05 -1.43642e-06
4.73114e-05 0.000175078 -5.26637e-07
-1.43642e-06 -5.26637e-07 0.00010708
0.00101373 1.17615e-05 2.08265e-06
1.17615e-05 9.15266e-05 2.57225e-06
2.08265e-06 2.57225e-06 -1.90048e-05
0.00122609 -6.08772e-06 -6.29788e-06
-6.08772e-06 0.000197003 2.37956e-06
-6.29788e-06 2.37956e-06 7.25337e-05
-6.99231e-05 6.82375e-05 7.92761e-06
6.82375e-05 -4.32694e-05 -3.24502e-06
7.92761e-06 -3.24502e-06 -0.00016627
0.00202978 5.2663e-05 -1.15654e-07
5.2663e-05 0.000215841 -2.1461e-06
-1.15654e-07 -2.1461e-06 0.000387495
0.0053407 9.98455e-05 2.62356e-05
9.98455e-05 0.000510504 -3.06217e-06
2.62356e-05 -3.06217e-06 9.41824e-05
0.00322022 3.72493e-05 -3.11911e-05
3.72493e-05 0.000152219 -5.2245e-06
-3.11911e-05 -5.2245e-06 0.000370647
0.000777613 6.67968e-05 1.69795e-06
6.67968e-05 0.000172711 -8.45498e-06
1.69795e-06 -8.45498e-06 7.44439e-05
0.00140502 -4.61188e-06 2.11769e-06
-4.61188e-06 0.000258086 1.51261e-06
2.11769e-06 1.51261e-06 0.000126455
0.000999008 -1.59543e-05 -1.44043e-05
-1.59543e-05 4.66487e-05 -2.50253e-06
-1.44043e-05 -2.50253e-06 -5.10315e-05
0.00210252 0.000150676 1.15851e-05
0.000150676 0.000145288 -7.66464e-06
1.15851e-05 -7.66464e-06 0.000507328
0.00143589 0.000283865 -7.06863e-06
0.000283865 -0.000663594 -5.9287e-05
-7.06863e-06 -5.9287e-05 -0.000667994
0.00160238 0.000155413 1.22314e-05
0.000155413 0.000614708 -2.12134e-06
1.22314e-05 -2.12134e-06 0.000666
0.0035785 -0.000160746 5.46733e-05
-0.000160746 0.000131778 1.76313e-05
5.46733e-05 1.76313e-05 -0.000443397
0.00122864 6.05498e-05 -1.24937e-06
6.05498e-05 0.000165211 4.24593e-06
-1.24937e-06 4.24593e-06 6.9581e-05
0.00128287 3.30408e-05 -3.71288e-07
3.30408e-05 0.000203723 1.25274e-06
-3.71288e-07 1.25274e-06 0.000120019
0.000230648 -1.94011e-05 1.33031e-06
-1.94011e-05 -0.000130514 -6.71306e-06
1.33031e-06 -6.71306e-06 -0.000309421
0.00115167 2.10242e-05 -5.05216e-07
2.10242e-05 0.000136865 -5.25162e-07
-5.05216e-07 -5.25162e-07 6.58451e-05
0.000974505 -4.00424e-05 -1.75999e-07
-4.00424e-05 4.54998e-05 4.99816e-07
-1.75999e-07 4.99816e-07 -4.06463e-05
0.000963838 -3.10889e-05 -1.40086e-07
-3.10889e-05 5.93227e-05 2.68441e-06
-1.40086e-07 2.68441e-06 -3.60917e-05
0.00102699 -3.58268e-05 -6.04637e-08
-3.58268e-05 6.44066e-05 1.04597e-07
-6.04637e-08 1.04597e-07 -1.55138e-05
0.000822123 -2.34032e-05 -8.17225e-07
-2.34032e-05 -4.01353e-06 1.45795e-06
-8.17225e-07 1.45795e-06 -8.04496e-05
0.000824768 -4.42857e-05 1.44882e-06
-4.42857e-05 4.58981e-05 -1.67573e-07
1.44882e-06 -1.67573e-07 -7.87973e-05
0.000986707 -1.58301e-05 4.99975e-08
-1.58301e-05 4.61164e-05 -2.79878e-07
4.99975e-08 -2.79878e-07 -3.0139e-05
0.00101145 9.44223e-07 -1.14227e-07
9.44223e-07 6.4897e-05 1.17343e-07
-1.14227e-07 1.17343e-07 -1.22614e-05
0.00116857 -5.40781e-05 -1.71235e-09
-5.40781e-05 0.000157584 3.57568e-07
-1.71235e-09 3.57568e-07 6.90477e-05
0.00101174 -6.63405e-05 3.06693e-07
-6.63405e-05 0.000126092 1.17887e-06
3.06693e-07 1.17887e-06 4.50682e-06
0.000939618 -4.63965e-05 -5.7903e-07
-4.63965e-05 4.90139e-05 -7.41202e-07
-5.7903e-07 -7.41202e-07 -3.69775e-05
0.000822302 -5.67432e-05 7.03456e-07
-5.67432e-05 5.23123e-06 -1.80814e-07
7.03456e-07 -1.80814e-07 -9.85027e-05
0.00108822 -7.41434e-05 9.54288e-07
-7.41434e-05 0.000134852 6.13707e-07
9.54288e-07 6.13707e-07 1.37156e-05
0.00116631 -7.84775e-05 -2.35187e-06
-7.84775e-05 0.000128225 1.92413e-06
-2.35187e-06 1.92413e-06 2.06323e-05
0.0013128 -6.36709e-05 -5.94617e-08
-6.36709e-05 0.000244235 -3.05071e-07
-5.94617e-08 -3.05071e-07 0.000151813
0.000855834 -6.37845e-05 -3.7229e-07
-6.37845e-05 5.44029e-06 2.0356e-08
-3.7229e-07 2.0356e-08 -0.000102018
0.00129146 -7.692e-05 6.23038e-08
-7.692e-05 0.000217543 -3.80975e-07
6.23038e-08 -3.80975e-07 0.000127228
0.000805767 -5.51946e-05 -1.08329e-06
-5.51946e-05 -6.07143e-06 -1.12878e-07
-1.08329e-06 -1.12878e-07 -9.39151e-05
0.000992328 -6.58913e-05 3.43601e-07
-6.58913e-05 7.36689e-05 3.45086e-08
3.43601e-07 3.45086e-08 -2.06809e-05
0.00102385 -4.16335e-05 -9.11802e-07
-4.16335e-05 8.95833e-05 3.66301e-07
-9.11802e-07 3.66301e-07 1.38911e-05
0.00107993 -6.25578e-05 -1.02006e-06
-6.25578e-05 0.000124307 6.69662e-07
-1.02006e-06 6.69662e-07 3.8659e-05
0.000853175 -5.97408e-05 -1.19682e-07
-5.97408e-05 1.32529e-05 -7.47631e-07
-1.19682e-07 -7.47631e-07 -8.35401e-05
0.000978207 -4.15252e-07 -7.09871e-07
-4.15252e-07 5.38138e-05 1.29959e-06
-7.09871e-07 1.29959e-06 -4.0739e-06
0.000960997 -3.18058e-05 2.89192e-07
-3.18058e-05 5.27454e-05 1.3453e-07
2.89192e-07 1.3453e-07 -2.05112e-05
0.00107118 -5.18406e-05 1.38918e-06
-5.18406e-05 0.000119207 -7.44046e-07
1.38918e-06 -7.44046e-07 3.54693e-05
0.000999635 -1.65702e-05 3.10086e-07
-1.65702e-05 7.00446e-05 -8.90625e-07
3.10086e-07 -8.90625e-07 3.03654e-06
0.00094742 5.47195e-06 1.09771e-07
5.47195e-06 3.50879e-05 -7.53588e-08
1.09771e-07 -7.53588e-08 -1.75512e-05
0.000893578 1.83382e-05 -1.04597e-06
1.83382e-05 7.4256e-06 1.85554e-06
-1.04597e-06 1.85554e-06 -2.57253e-05
0.000936732 2.80109e-06 2.84237e-07
2.80109e-06 2.90009e-05 -1.14948e-06
2.84237e-07 -1.14948e-06 -1.94436e-05
0.000893617 1.69604e-05 3.5423e-08
1.69604e-05 3.03987e-06 -2.53174e-08
3.5423e-08 -2.53174e-08 -2.72146e-05
0.000814019 1.99182e-05 -1.8424e-06
1.99182e-05 -3.96825e-05 3.17116e-06
-1.8424e-06 3.17116e-06 -4.31714e-05
0.000901777 1.03835e-05 8.33021e-07
1.03835e-05 3.318e-06 -1.64906e-06
8.33021e-07 -1.64906e-06 -2.48382e-05
0.000835101 1.7202e-05 1.36942e-07
1.7202e-05 -3.44486e-05 5.1191e-09
1.36942e-07 5.1191e-09 -3.63004e-05
0.00213531 2.64138e-05 -4.4568e-06
2.64138e-05 0.000638535 1.53292e-06
-4.4568e-06 1.53292e-06 0.000659657
0.000855085 1.4165e-05 1.29375e-06
1.4165e-05 -2.92652e-05 -3.03814e-06
1.29375e-06 -3.03814e-06 -2.9669e-05
0.00158499 1.7508e-05 5.06542e-06
1.7508e-05 0.000348105 -1.10729e-06
5.06542e-06 -1.10729e-06 0.000367731
0.00215405 1.47061e-05 9.35918e-06
1.47061e-05 0.000639718 -3.76268e-06
9.35918e-06 -3.76268e-06 0.000662697
0.000786744 -1.02504e-05 -9.56651e-08
-1.02504e-05 -5.0703e-05 -1.4571e-06
-9.56651e-08 -1.4571e-06 -0.000101606
0.000648018 -9.41231e-06 -4.91391e-07
-9.41231e-06 -0.00012789 -2.24501e-06
-4.91391e-07 -2.24501e-06 -0.00015803
0.000914023 -1.64428e-06 -1.59577e-07
-1.64428e-06 1.73435e-05 -5.03766e-07
-1.59577e-07 -5.03766e-07 -3.14114e-05
0.000869961 -1.08966e-05 -7.95776e-07
-1.08966e-05 -2.5117e-05 -3.12136e-06
-7.95776e-07 -3.12136e-06 -2.44616e-05
0.000667029 -7.51538e-06 -6.00653e-08
-7.51538e-06 -0.000120605 -5.9535e-07
-6.00653e-08 -5.9535e-07 -0.000147935
0.00102968 2.84571e-07 1.92129e-08
2.84571e-07 7.68899e-05 9.44166e-07
1.92129e-08 9.44166e-07 3.20225e-05
0.00211006 -9.67402e-06 -6.89523e-06
-9.67402e-06 0.000614029 -3.90317e-06
-6.89523e-06 -3.90317e-06 0.000638017
0.000861123 -7.15203e-06 -1.05701e-07
-7.15203e-06 -3.27181e-05 -1.76033e-08
-1.05701e-07 -1.76033e-08 -3.02959e-05
0.000670176 -5.24506e-06 9.31973e-08
-5.24506e-06 -0.000120857 1.53972e-06
9.31973e-08 1.53972e-06 -0.000145952
0.00207989 -4.65245e-06 -1.48391e-06
-4.65245e-06 0.000596464 9.23581e-09
-1.48391e-06 9.23581e-09 0.000621165
0.000858487 -3.40945e-06 1.2992e-07
-3.40945e-06 -3.60851e-05 3.04214e-06
1.2992e-07 3.04214e-06 -3.25153e-05
0.00206851 3.79738e-07 -6.07766e-07
3.79738e-07 0.000590004 3.8524e-06
-6.07766e-07 3.8524e-06 0.000614931
0.0011861 -1.37964e-05 1.82632e-05
-1.37964e-05 0.000202558 -1.67337e-06
1.82632e-05 -1.67337e-06 9.134e-05
0.00125766 -1.54517e-05 -6.35415e-06
-1.54517e-05 0.000265646 6.05783e-07
-6.35415e-06 6.05783e-07 0.000188975
0.00110032 2.11235e-05 1.17489e-05
2.11235e-05 0.000357104 1.63912e-06
1.17489e-05 1.63912e-06 0.000355216
0.00101399 2.45351e-05 3.91521e-08
2.45351e-05 7.26004e-05 7.03783e-08
3.91521e-08 7.03783e-08 8.76282e-06
0.00092646 9.55752e-06 -1.79854e-07
9.55752e-06 2.19462e-05 -5.36163e-07
-1.79854e-07 -5.36163e-07 -4.26005e-05
0.00110513 3.31854e-05 -2.90627e-07
3.31854e-05 0.000122213 4.48305e-08
-2.90627e-07 4.48305e-08 5.08191e-05
0.00128072 1.15391e-05 6.52108e-06
1.15391e-05 0.000203454 1.74833e-06
6.52108e-06 1.74833e-06 9.21673e-05
0.001137 -6.35235e-06 1.90597e-07
-6.35235e-06 0.000164214 -3.04503e-07
1.90597e-07 -3.04503e-07 7.26212e-05
0.00121217 9.51691e-07 -9.57018e-06
9.51691e-07 0.000141494 -2.01278e-06
-9.57018e-06 -2.01278e-06 8.91884e-05
0.000726464 6.04696e-05 -3.68609e-05
6.04696e-05 -0.000546583 1.09311e-05
-3.68609e-05 1.09311e-05 -0.000687444
0.00248206 0.000209578 1.12266e-05
0.000209578 0.00046316 -1.66751e-05
1.12266e-05 -1.66751e-05 -0.000556815
0.00396661 0.000375522 4.25088e-05
0.000375522 0.000889342 -2.7521e-05
4.25088e-05 -2.7521e-05 0.000977005
0.000790111 4.74801e-05 1.13035e-06
4.74801e-05 -0.000603409 -5.67609e-06
1.13035e-06 -5.67609e-06 -0.000396892
0.00118583 -5.36257e-05 -8.45477e-06
-5.36257e-05 -0.000233245 8.09605e-06
-8.45477e-06 8.09605e-06 -0.000299521
0.00497562 0.000103573 3.31742e-05
0.000103573 0.0010417 -4.05151e-05
3.31742e-05 -4.05151e-05 2.65434e-05
0.00102666 0.000132949 -4.27462e-06
0.000132949 -0.000725965 1.22977e-05
-4.27462e-06 1.22977e-05 -0.0005037
0.00150422 2.29271e-05 6.49251e-07
2.29271e-05 -9.21601e-05 5.77445e-06
6.49251e-07 5.77445e-06 6.98601e-05
0.00349114 -0.000272715 1.4821e-05
-0.000272715 0.000635967 -5.69462e-05
1.4821e-05 -5.69462e-05 0.000537122
0.00831778 0.000151269 2.93115e-05
0.000151269 0.00233342 -3.09197e-05
2.93115e-05 -3.09197e-05 0.00164037
0.00030821 2.44321e-06 3.95352e-06
2.44321e-06 -0.00111215 6.04001e-05
3.95352e-06 6.04001e-05 -0.000829172
0.000501902 -2.55432e-05 -9.67401e-07
-2.55432e-05 -0.000670893 4.95049e-06
-9.67401e-07 4.95049e-06 -0.000485853
0.0010493 3.86702e-06 -7.85439e-08
3.86702e-06 8.82222e-05 -6.90447e-08
-7.85439e-08 -6.90447e-08 9.78398e-06
0.000962513 -5.52196e-06 -1.13978e-07
-5.52196e-06 5.28536e-05 -1.99788e-07
-1.13978e-07 -1.99788e-07 -2.6503e-05
0.00101265 -2.51862e-05 -2.46938e-07
-2.51862e-05 8.5532e-05 5.88285e-07
-2.46938e-07 5.88285e-07 9.96558e-06
0.000979826 1.73375e-05 -4.11325e-07
1.73375e-05 5.86611e-05 -5.97784e-07
-4.11325e-07 -5.97784e-07 -1.24007e-05
0.00110514 5.80159e-05 1.15504e-06
5.80159e-05 0.000129903 8.7567e-07
1.15504e-06 8.7567e-07 5.98193e-05
0.00117251 3.95297e-05 1.5831e-07
3.95297e-05 0.000159503 7.25162e-07
1.5831e-07 7.25162e-07 9.70814e-05
0.00308448 -0.000208779 4.60519e-06
-0.000208779 0.000837986 6.76863e-07
4.60519e-06 6.76863e-07 0.000826967
0.000477877 -1.95406e-05 1.7747e-06
-1.95406e-05 -7.50978e-05 3.01042e-06
1.7747e-06 3.01042e-06 -0.000324341
0.00111535 3.20667e-05 5.12652e-07
3.20667e-05 0.000128665 5.05369e-07
5.12652e-07 5.05369e-07 4.51636e-05
0.00125351 -2.74964e-05 9.14128e-07
-2.74964e-05 0.000203548 -9.0678e-07
9.14128e-07 -9.0678e-07 8.95673e-05
0.00113416 9.87784e-07 2.05298e-07
9.87784e-07 0.000130395 -5.16711e-07
2.05298e-07 -5.16711e-07 3.94717e-05
0.00106903 1.2491e-05 4.8304e-07
1.2491e-05 9.18442e-05 5.40706e-08
4.8304e-07 5.40706e-08 1.2696e-05
0.00109095 3.34165e-05 2.94046e-07
3.34165e-05 0.000106318 -2.5342e-07
2.94046e-07 -2.5342e-07 1.99905e-05
0.000877448 -0.000147244 -3.58691e-06
-0.000147244 2.8662e-05 2.97811e-06
-3.58691e-06 2.97811e-06 -4.79106e-05
0.00117582 -5.96823e-06 6.44962e-07
-5.96823e-06 0.000133704 -1.13942e-06
6.44962e-07 -1.13942e-06 4.88151e-05
0.00117951 4.73696e-05 -1.55902e-06
4.73696e-05 0.000336877 -9.98964e-07
-1.55902e-06 -9.98964e-07 0.000158881
0.000947867 -9.34933e-07 5.19226e-07
-9.34933e-07 3.09641e-05 -1.10867e-06
5.19226e-07 -1.10867e-06 -4.81536e-05
-0.000413934 -3.36968e-05 1.20578e-06
-3.36968e-05 -0.000243815 -8.65916e-06
1.20578e-06 -8.65916e-06 -0.000469984
0.000138227 1.10037e-05 -3.29044e-06
1.10037e-05 -0.000255239 1.46422e-05
-3.29044e-06 1.46422e-05 -0.000296943
0.00104821 -1.07296e-05 -1.83063e-08
-1.07296e-05 7.35211e-05 -4.70864e-08
-1.83063e-08 -4.70864e-08 -1.12792e-05
0.00139941 -2.48966e-06 2.83388e-07
-2.48966e-06 0.000270762 7.00521e-07
2.83388e-07 7.00521e-07 0.000132883
0.00113559 -2.45146e-06 6.47266e-06
-2.45146e-06 0.000176752 3.88987e-07
6.47266e-06 3.88987e-07 5.62524e-05
0.00133013 -5.40994e-06 -1.10948e-05
-5.40994e-06 0.000330001 1.00027e-06
-1.10948e-05 1.00027e-06 0.000247612
0.00119128 6.49079e-05 3.67499e-06
6.49079e-05 0.000236829 3.91862e-06
3.67499e-06 3.91862e-06 0.000162605
0.000268254 8.98086e-05 9.57289e-06
8.98086e-05 5.90685e-06 -1.50189e-05
9.57289e-06 -1.50189e-05 -0.000104956
0.00102034 9.98194e-06 -1.39742e-05
9.98194e-06 9.99823e-05 -6.4643e-07
-1.39742e-05 -6.4643e-07 -1.11053e-05
0.00346767 2.87545e-07 -1.88404e-05
2.87545e-07 0.000201544 -9.36326e-06
-1.88404e-05 -9.36326e-06 -0.000157828
-0.000575105 3.01285e-05 -1.83643e-06
3.01285e-05 -0.00157836 7.12393e-05
-1.83643e-06 7.12393e-05 -0.0013241
0.000941862 -6.98064e-06 -4.9428e-06
-6.98064e-06 4.83056e-05 -3.13936e-06
-4.9428e-06 -3.13936e-06 -8.51707e-05
0.000823021 3.34371e-05 -1.09931e-06
3.34371e-05 -0.000503765 2.661e-06
-1.09931e-06 2.661e-06 -0.000354181
0.000602968 4.18044e-05 -3.09516e-06
4.18044e-05 6.43588e-05 -6.38229e-07
-3.09516e-06 -6.38229e-07 -2.97699e-05
0.00124132 -4.77923e-06 -1.26804e-06
-4.77923e-06 0.000158872 1.25978e-06
-1.26804e-06 1.25978e-06 2.51444e-05
0.00114426 -1.99032e-05 -2.31394e-07
-1.99032e-05 0.000167649 7.46489e-07
-2.31394e-07 7.46489e-07 6.70056e-05
0.00142865 0.00019907 3.60806e-05
0.00019907 0.000187249 1.77444e-06
3.60806e-05 1.77444e-06 0.000121918
0.00172868 0.000140228 2.14573e-06
0.000140228 -8.17689e-05 -2.54296e-06
2.14573e-06 -2.54296e-06 0.000287263
0.000788985 0.000153958 4.57064e-06
0.000153958 -0.000781403 -1.35356e-05
4.57064e-06 -1.35356e-05 -0.000597107
0.00683454 1.35921e-05 7.46536e-06
1.35921e-05 0.00167911 -1.74962e-05
7.46536e-06 -1.74962e-05 0.00122784
-0.000169516 1.37604e-05 -2.56391e-05
1.37604e-05 8.62275e-05 -1.26265e-05
-2.56391e-05 -1.26265e-05 -8.15277e-05
0.00121086 -1.98709e-05 -1.77317e-05
-1.98709e-05 0.000220427 2.20309e-06
-1.77317e-05 2.20309e-06 0.000102515
0.00094152 6.01965e-06 2.16078e-06
6.01965e-06 -7.80912e-05 -5.87583e-06
2.16078e-06 -5.87583e-06 -0.000104951
0.00140714 0.000239649 1.08107e-05
0.000239649 0.000178336 -3.17555e-06
1.08107e-05 -3.17555e-06 0.000649672
-0.0030076 0.000262449 4.96425e-05
0.000262449 -0.00223002 -3.74103e-05
4.96425e-05 -3.74103e-05 -0.00219205
0.00795026 0.000210393 5.36456e-06
0.000210393 0.00218264 -2.39389e-05
5.36456e-06 -2.39389e-05 0.00123042
0.00125759 -3.04809e-05 -2.72986e-05
-3.04809e-05 0.000107816 9.82164e-05
-2.72986e-05 9.82164e-05 -0.000101188
0.00100657 1.4869e-05 2.37724e-06
1.4869e-05 6.48498e-05 5.82597e-06
2.37724e-06 5.82597e-06 -1.38561e-05
0.000278963 -1.898e-05 1.19323e-06
-1.898e-05 -0.000106724 -1.28255e-06
1.19323e-06 -1.28255e-06 -0.000296009
0.000463471 -4.46744e-05 3.3803e-06
-4.46744e-05 8.93418e-05 -4.34882e-06
3.3803e-06 -4.34882e-06 -0.000166137
0.000975139 -4.17947e-05 1.54664e-07
-4.17947e-05 3.96698e-05 -5.18146e-07
1.54664e-07 -5.18146e-07 -4.08376e-05
0.000758782 -3.08907e-05 -5.00272e-07
-3.08907e-05 -4.37852e-05 3.75823e-06
-5.00272e-07 3.75823e-06 -0.000119766
0.000761687 -2.52058e-05 -1.45492e-07
-2.52058e-05 1.69369e-05 4.45011e-07
-1.45492e-07 4.45011e-07 -9.92624e-05
0.000867076 -7.90964e-05 1.90038e-06
-7.90964e-05 0.000118391 -9.14723e-07
1.90038e-06 -9.14723e-07 -8.28325e-05
0.00133012 -5.77523e-05 -4.43782e-07
-5.77523e-05 0.000234336 -4.71903e-08
-4.43782e-07 -4.71903e-08 0.000144096
0.00129426 -7.88059e-05 1.64106e-07
-7.88059e-05 0.000254578 2.87505e-07
1.64106e-07 2.87505e-07 0.000130488
0.00107017 -7.97255e-05 2.14312e-06
-7.97255e-05 0.000154722 1.5712e-06
2.14312e-06 1.5712e-06 -9.70709e-06
0.000550637 -4.67321e-05 -1.65215e-07
-4.67321e-05 -0.00012856 -1.38957e-06
-1.65215e-07 -1.38957e-06 -0.000228766
0.00107178 -7.32809e-05 -3.97023e-07
-7.32809e-05 0.00012536 -2.55881e-09
-3.97023e-07 -2.55881e-09 1.84965e-06
0.00169141 -0.000103432 -8.78177e-07
-0.000103432 0.000391966 1.72428e-06
-8.78177e-07 1.72428e-06 0.000260206
0.00139078 -9.18467e-05 -2.37225e-06
-9.18467e-05 0.000216569 2.73911e-06
-2.37225e-06 2.73911e-06 9.92273e-05
0.000809984 -6.47266e-05 -6.0624e-07
-6.47266e-05 -3.83706e-05 1.65143e-06
-6.0624e-07 1.65143e-06 -0.00013236
0.00111879 -7.74835e-05 -7.77176e-07
-7.74835e-05 0.000105912 5.78516e-07
-7.77176e-07 5.78516e-07 -3.3714e-06
0.00103191 -6.97687e-05 -3.50441e-07
-6.97687e-05 9.06745e-05 -6.66117e-07
-3.50441e-07 -6.66117e-07 -1.86601e-05
0.00122032 -7.23431e-05 5.054e-07
-7.23431e-05 0.000183603 -9.04534e-07
5.054e-07 -9.04534e-07 9.86557e-05
0.00110625 -7.04959e-05 1.36897e-06
-7.04959e-05 0.000126699 -6.23153e-07
1.36897e-06 -6.23153e-07 3.86166e-05
0.000867543 -4.41341e-05 -5.32384e-07
-4.41341e-05 1.851e-05 6.219e-07
-5.32384e-07 6.219e-07 -6.17499e-05
0.000935335 -5.87639e-05 2.60987e-07
-5.87639e-05 5.76473e-05 -1.13277e-07
2.60987e-07 -1.13277e-07 -2.9399e-05
0.00100999 -6.61828e-05 2.98517e-06
-6.61828e-05 8.16784e-05 -1.2612e-06
2.98517e-06 -1.2612e-06 -1.1047e-05
0.000961345 1.78266e-06 -1.03805e-06
1.78266e-06 4.90784e-05 1.15858e-06
-1.03805e-06 1.15858e-06 -1.36725e-05
0.00104244 -4.36727e-05 -1.87703e-07
-4.36727e-05 9.81063e-05 -1.14286e-08
-1.87703e-07 -1.14286e-08 2.24159e-05
0.0011045 -6.33569e-05 3.26151e-07
-6.33569e-05 0.000135143 -2.9725e-09
3.26151e-07 -2.9725e-09 4.94301e-05
0.000885043 1.7315e-05 -1.33044e-06
1.7315e-05 7.51172e-06 2.05301e-06
-1.33044e-06 2.05301e-06 -2.96254e-05
0.000960499 -1.14234e-06 1.39531e-07
-1.14234e-06 4.43537e-05 1.19466e-08
1.39531e-07 1.19466e-08 -1.32142e-05
0.000925449 -3.11106e-05 1.0271e-06
-3.11106e-05 3.37601e-05 -4.73193e-07
1.0271e-06 -4.73193e-07 -3.95627e-05
0.000945756 4.8032e-06 6.28291e-07
4.8032e-06 3.42331e-05 -1.29119e-06
6.28291e-07 -1.29119e-06 -1.84009e-05
0.000886346 2.02894e-05 1.58904e-07
2.02894e-05 3.97651e-06 -4.14227e-08
1.58904e-07 -4.14227e-08 -2.93431e-05
0.00079973 2.26896e-05 -2.21158e-06
2.26896e-05 -4.04917e-05 3.2466e-06
-2.21158e-06 3.2466e-06 -4.62491e-05
0.000892011 1.81457e-05 7.77071e-07
1.81457e-05 2.09455e-06 -1.84089e-06
7.77071e-07 -1.84089e-06 -2.82381e-05
0.000831309 2.01681e-05 9.79254e-08
2.01681e-05 -3.10629e-05 -1.62021e-08
9.79254e-08 -1.62021e-08 -3.46233e-05
0.00221059 2.85058e-05 -1.55158e-05
2.85058e-05 0.000682154 3.65732e-06
-1.55158e-05 3.65732e-06 0.000702144
0.000853389 1.73536e-05 1.67951e-06
1.73536e-05 -2.54653e-05 -3.09311e-06
1.67951e-06 -3.09311e-06 -2.73096e-05
0.00159272 2.18083e-05 6.01619e-06
2.18083e-05 0.0003576 -1.06847e-06
6.01619e-06 -1.06847e-06 0.000375949
0.00216469 1.94645e-05 1.19359e-05
1.94645e-05 0.000649239 -3.7448e-06
1.19359e-05 -3.7448e-06 0.00067137
0.000936915 1.77134e-05 -6.71213e-07
1.77134e-05 2.63299e-05 -1.0422e-06
-6.71213e-07 -1.0422e-06 -2.63561e-05
0.000887924 -1.18285e-05 -7.06423e-07
-1.18285e-05 -3.74133e-06 -1.76183e-06
-7.06423e-07 -1.76183e-06 -3.48243e-05
0.000854703 1.00476e-05 -5.97822e-07
1.00476e-05 -1.36962e-05 -5.33325e-07
-5.97822e-07 -5.33325e-07 -6.50708e-05
0.000863653 -1.43758e-05 -9.96614e-07
-1.43758e-05 -2.4018e-05 -3.23236e-06
-9.96614e-07 -3.23236e-06 -2.55744e-05
0.000778841 -9.62913e-06 -2.11123e-07
-9.62913e-06 -6.09383e-05 -5.98947e-07
-2.11123e-07 -5.98947e-07 -9.05202e-05
0.00105105 -2.6475e-06 1.30797e-07
-2.6475e-06 8.6949e-05 4.55636e-07
1.30797e-07 4.55636e-07 3.88927e-05
0.00215485 -1.46028e-05 -9.58915e-06
-1.46028e-05 0.000640056 -3.93225e-06
-9.58915e-06 -3.93225e-06 0.000663042
0.000855115 -1.07632e-05 -1.00339e-07
-1.07632e-05 -3.26479e-05 -2.0814e-08
-1.00339e-07 -2.0814e-08 -3.18876e-05
0.000661695 -7.65422e-06 7.76027e-08
-7.65422e-06 -0.000123166 1.03278e-06
7.76027e-08 1.03278e-06 -0.000150842
0.00210946 -9.51295e-06 -1.32414e-06
-9.51295e-06 0.000613431 2.0885e-08
-1.32414e-06 2.0885e-08 0.000637518
0.000849904 -7.05779e-06 4.4025e-07
-7.05779e-06 -3.84805e-05 3.05179e-06
4.4025e-07 3.05179e-06 -3.59717e-05
0.00207735 -4.48976e-06 2.46825e-06
-4.48976e-06 0.000594954 3.84648e-06
2.46825e-06 3.84648e-06 0.000619728
0.00126779 1.24836e-06 -1.42118e-06
1.24836e-06 0.000178168 -8.09063e-07
-1.42118e-06 -8.09063e-07 4.51679e-05
0.00126926 -1.30257e-05 4.01675e-06
-1.30257e-05 0.00025454 -5.37792e-07
4.01675e-06 -5.37792e-07 0.000144144
0.00130698 -1.62728e-05 -1.65102e-05
-1.62728e-05 0.000297246 5.33902e-06
-1.65102e-05 5.33902e-06 0.000224005
0.0009209 -2.68298e-06 -8.70185e-08
-2.68298e-06 1.65998e-05 -7.43922e-07
-8.70185e-08 -7.43922e-07 -4.85665e-05
0.0010922 1.76239e-05 -1.65644e-07
1.76239e-05 0.000107857 -4.96469e-07
-1.65644e-07 -4.96469e-07 3.54855e-05
0.00104748 2.87756e-05 1.17575e-06
2.87756e-05 8.96452e-05 6.60964e-07
1.17575e-06 6.60964e-07 2.64141e-05
0.000912709 5.35786e-06 -9.27279e-10
5.35786e-06 1.45672e-05 2.19055e-08
-9.27279e-10 2.19055e-08 -4.96967e-05
0.00103578 1.86291e-05 1.61887e-07
1.86291e-05 8.43788e-05 3.46143e-07
1.61887e-07 3.46143e-07 1.31944e-05
0.00102034 2.17792e-05 -4.51711e-07
2.17792e-05 7.42628e-05 -2.98646e-07
-4.51711e-07 -2.98646e-07 2.61534e-06
0.00101903 5.93484e-05 -1.66421e-07
5.93484e-05 7.98076e-05 2.47313e-07
-1.66421e-07 2.47313e-07 1.13196e-06
0.00107245 2.71655e-05 -1.03733e-05
2.71655e-05 0.000122171 1.64818e-06
-1.03733e-05 1.64818e-06 2.42394e-05
0.0011045 1.07993e-05 4.00773e-06
1.07993e-05 0.000126436 -5.17871e-06
4.00773e-06 -5.17871e-06 3.85487e-06
0.00112726 -1.048e-05 -1.38062e-05
-1.048e-05 0.000181476 3.33395e-06
-1.38062e-05 3.33395e-06 8.79539e-05
0.000580647 1.44994e-05 6.27346e-06
1.44994e-05 -0.00059237 2.20432e-06
6.27346e-06 2.20432e-06 -0.000493242
0.000917892 -5.14602e-05 -6.07024e-05
-5.14602e-05 -0.000785689 5.6505e-05
-6.07024e-05 5.6505e-05 -0.000900261
0.00209574 8.14815e-05 5.18088e-05
8.14815e-05 9.20202e-06 -5.33659e-05
5.18088e-05 -5.33659e-05 -0.000914416
0.00507657 0.000252061 2.23472e-05
0.000252061 0.0010101 -2.45473e-05
2.23472e-05 -2.45473e-05 0.00117582
0.00182859 -0.000229103 -2.22058e-05
-0.000229103 -0.000206337 1.81177e-05
-2.22058e-05 1.81177e-05 -0.00045262
0.00299532 -6.79508e-05 2.54327e-05
-6.79508e-05 -0.000186837 -4.769e-05
2.54327e-05 -4.769e-05 -0.00100446
0.00345991 -1.39755e-05 -1.02605e-05
-1.39755e-05 0.000211572 4.06203e-06
-1.02605e-05 4.06203e-06 0.000372722
0.00215099 -4.00138e-05 2.68421e-06
-4.00138e-05 0.000226343 4.84029e-07
2.68421e-06 4.84029e-07 0.000485217
0.00227507 -0.000178288 2.74743e-05
-0.000178288 0.000409864 -2.23894e-05
2.74743e-05 -2.23894e-05 0.000297296
0.00349011 -0.000295682 -1.35846e-05
-0.000295682 -0.000520875 -0.000104842
-1.35846e-05 -0.000104842 -0.000773767
0.00032544 -0.000114728 3.18769e-05
-0.000114728 -0.00109259 4.29058e-05
3.18769e-05 4.29058e-05 -0.000955852
-0.000341696 -9.96574e-05 2.07162e-06
-9.96574e-05 -0.00126823 4.56304e-06
2.07162e-06 4.56304e-06 -0.000932778
0.00112693 -6.13614e-06 -3.08368e-07
-6.13614e-06 0.000119608 8.87071e-08
-3.08368e-07 8.87071e-08 4.22497e-05
0.000991314 7.11005e-06 7.9932e-08
7.11005e-06 5.93758e-05 -1.60148e-07
7.9932e-08 -1.60148e-07 -1.95446e-05
0.000953946 -7.08148e-07 -6.118e-08
-7.08148e-07 5.03748e-05 -4.84928e-08
-6.118e-08 -4.84928e-08 -2.96988e-05
0.000998645 2.21387e-05 6.83425e-08
2.21387e-05 6.81679e-05 -3.69468e-07
6.83425e-08 -3.69468e-07 -3.06455e-06
0.00269056 -0.000164738 1.35005e-05
-0.000164738 0.000895639 5.38638e-06
1.35005e-05 5.38638e-06 0.000847416
0.000829365 3.66905e-05 3.4186e-06
3.66905e-05 0.00021878 -1.6639e-06
3.4186e-06 -1.6639e-06 4.49728e-05
0.000950485 5.78005e-06 6.40209e-08
5.78005e-06 2.99049e-05 1.86469e-07
6.40209e-08 1.86469e-07 -4.87662e-05
0.00100668 2.50186e-05 3.08946e-07
2.50186e-05 6.33187e-05 1.29884e-07
3.08946e-07 1.29884e-07 -2.29219e-05
0.00153072 -1.55621e-06 1.69862e-07
-1.55621e-06 0.000311844 -1.92395e-06
1.69862e-07 -1.92395e-06 0.000227209
0.000967794 1.54818e-05 -5.73739e-07
1.54818e-05 4.0854e-05 3.76573e-09
-5.73739e-07 3.76573e-09 -3.87659e-05
0.000981956 -1.83343e-06 -1.24498e-06
-1.83343e-06 4.10866e-05 6.33713e-07
-1.24498e-06 6.33713e-07 -4.54854e-05
0.000469429 -5.3537e-05 7.82999e-06
-5.3537e-05 0.000196032 -2.53042e-06
7.82999e-06 -2.53042e-06 1.11191e-05
0.000814552 2.85045e-06 3.34887e-06
2.85045e-06 7.779e-05 6.09523e-06
3.34887e-06 6.09523e-06 4.06536e-05
0.00113486 -7.12474e-07 1.79456e-07
-7.12474e-07 0.000128324 -2.07555e-06
1.79456e-07 -2.07555e-06 4.22318e-05
-0.000309281 2.13664e-05 4.2506e-06
2.13664e-05 0.000136011 -5.0627e-06
4.2506e-06 -5.0627e-06 -0.000243134
0.00164693 -3.74026e-05 8.21754e-06
-3.74026e-05 0.000489158 4.66992e-06
8.21754e-06 4.66992e-06 0.000387914
0.00151525 -1.74152e-06 -1.74821e-05
-1.74152e-06 0.00043174 4.40092e-07
-1.74821e-05 4.40092e-07 0.000307462
0.00121355 -3.1182e-06 3.30293e-07
-3.1182e-06 0.000160181 4.35906e-07
3.30293e-07 4.35906e-07 2.11752e-05
0.000816131 -3.10352e-06 -6.11591e-06
-3.10352e-06 -3.48548e-05 -4.60656e-07
-6.11591e-06 -4.60656e-07 -0.000161998
0.000674959 2.22596e-05 -1.26938e-06
2.22596e-05 6.68442e-05 6.22918e-06
-1.26938e-06 6.22918e-06 -2.17146e-05
0.00135145 0.000113777 -5.25303e-05
0.000113777 0.000464331 4.64907e-06
-5.25303e-05 4.64907e-06 0.00052935
0.00110045 -4.93324e-06 -6.20559e-08
-4.93324e-06 7.39925e-05 2.1352e-06
-6.20559e-08 2.1352e-06 -6.19774e-05
0.00351046 0.000190009 3.10081e-05
0.000190009 0.000102736 -8.25915e-05
3.10081e-05 -8.25915e-05 -0.000508875
0.0051212 0.000276415 -2.10193e-05
0.000276415 0.00109664 2.36988e-05
-2.10193e-05 2.36988e-05 0.00122592
0.00121755 -2.42065e-05 1.34585e-05
-2.42065e-05 0.000240505 -5.28738e-06
1.34585e-05 -5.28738e-06 0.000137624
0.00239081 0.000138446 -6.66343e-06
0.000138446 0.000385182 6.01186e-06
-6.66343e-06 6.01186e-06 0.000699153
-0.000183717 -1.07733e-05 2.11694e-05
-1.07733e-05 2.50525e-05 -4.50183e-07
2.11694e-05 -4.50183e-07 -0.000128567
0.00125507 -1.84166e-05 -4.20459e-06
-1.84166e-05 0.000248206 3.82567e-07
-4.20459e-06 3.82567e-07 0.000131008
0.00104514 5.98577e-07 5.88142e-06
5.98577e-07 1.81895e-05 -2.51058e-06
5.88142e-06 -2.51058e-06 -3.0019e-05
0.00195775 -4.46069e-05 -7.03097e-06
-4.46069e-05 0.000564571 1.90848e-05
-7.03097e-06 1.90848e-05 0.000523304
0.000373789 0.000255243 -2.76122e-06
0.000255243 -0.000486449 3.778e-06
-2.76122e-06 3.778e-06 2.70466e-05
0.00151621 0.000326588 4.12089e-06
0.000326588 -0.000309418 -9.87701e-06
4.12089e-06 -9.87701e-06 -0.00025812
0.00312654 1.69018e-05 2.31214e-05
1.69018e-05 0.000288038 -1.09237e-05
2.31214e-05 -1.09237e-05 -0.000823392
-1.09344e-05 -4.88534e-05 5.25181e-06
-4.88534e-05 6.28281e-05 -1.33925e-05
5.25181e-06 -1.33925e-05 -0.000116453
0.00126804 -1.68069e-05 -6.22366e-06
-1.68069e-05 0.000276558 7.88054e-08
-6.22366e-06 7.88054e-08 0.000185513
-0.00130894 9.89593e-05 8.07051e-06
9.89593e-05 -0.00116831 -7.94721e-06
8.07051e-06 -7.94721e-06 -0.00101323
-0.000126141 0.000280984 5.0426e-05
0.000280984 -0.000120876 -2.53034e-05
5.0426e-05 -2.53034e-05 -4.41801e-06
0.00739715 0.000441217 2.86007e-05
0.000441217 0.0022494 -4.94902e-05
2.86007e-05 -4.94902e-05 0.00128123
0.00173092 -0.000172055 -6.05317e-05
-0.000172055 -7.92305e-05 0.000103904
-6.05317e-05 0.000103904 -0.000591597
0.000579383 -2.47581e-05 -1.99057e-06
-2.47581e-05 2.92038e-05 2.39593e-06
-1.99057e-06 2.39593e-06 -0.000165227
0.000569956 -2.68352e-05 4.26127e-07
-2.68352e-05 0.000144257 -1.07761e-06
4.26127e-07 -1.07761e-06 -0.000110766
0.00149749 -0.000124194 3.64645e-06
-0.000124194 0.000435251 -1.35247e-06
3.64645e-06 -1.35247e-06 0.000205116
0.000683053 -1.46791e-05 -1.96323e-06
-1.46791e-05 -1.75433e-05 -1.53037e-07
-1.96323e-06 -1.53037e-07 -0.000126791
0.000427785 -5.38236e-05 -1.32128e-07
-5.38236e-05 -7.73557e-05 2.69379e-07
-1.32128e-07 2.69379e-07 -0.000285896
0.00129864 -0.000103157 1.82976e-06
-0.000103157 0.000272977 3.32736e-06
1.82976e-06 3.32736e-06 8.74623e-05
0.00155663 -9.08519e-05 -1.43808e-06
-9.08519e-05 0.000373896 -7.29012e-08
-1.43808e-06 -7.29012e-08 0.000245964
0.00121922 -8.37516e-05 1.88388e-07
-8.37516e-05 0.000219929 5.63696e-07
1.88388e-07 5.63696e-07 5.61106e-05
0.00103534 -9.44796e-05 2.70925e-07
-9.44796e-05 5.86155e-05 3.59571e-07
2.70925e-07 3.59571e-07 -0.000102592
0.0010969 -7.38242e-05 -8.04265e-07
-7.38242e-05 0.000136934 -5.54822e-07
-8.04265e-07 -5.54822e-07 1.03856e-05
0.00156946 -0.000100364 3.96896e-08
-0.000100364 0.000328683 3.69365e-07
3.96896e-08 3.69365e-07 0.000194512
0.00136201 -9.79793e-05 -2.58122e-07
-9.79793e-05 0.000191384 1.5757e-07
-2.58122e-07 1.5757e-07 5.55136e-05
0.00132448 -8.95145e-05 -1.86045e-06
-8.95145e-05 0.000144907 -3.25671e-08
-1.86045e-06 -3.25671e-08 2.78951e-05
0.0015427 -9.18247e-05 -2.43268e-06
-9.18247e-05 0.000298079 3.0504e-06
-2.43268e-06 3.0504e-06 0.000194036
0.00135611 -9.14214e-05 -4.47143e-07
-9.14214e-05 0.000198026 5.09241e-07
-4.47143e-07 5.09241e-07 7.89012e-05
0.000773684 -6.0922e-05 1.89737e-07
-6.0922e-05 -5.15546e-05 -3.98606e-07
1.89737e-07 -3.98606e-07 -0.000137211
0.000946779 -6.87433e-05 1.05092e-06
-6.87433e-05 3.09875e-05 -3.40555e-07
1.05092e-06 -3.40555e-07 -6.22896e-05
0.0010945 -7.72572e-05 7.50276e-07
-7.72572e-05 9.53254e-05 -1.12701e-06
7.50276e-07 -1.12701e-06 -1.57113e-05
0.00109465 -6.22177e-05 -1.7406e-07
-6.22177e-05 0.000123317 -3.30177e-09
-1.7406e-07 -3.30177e-09 4.08421e-05
0.00115582 -7.00117e-05 -7.86868e-08
-7.00117e-05 0.000152657 -2.41081e-07
-7.86868e-08 -2.41081e-07 6.74361e-05
0.0009072 -6.36494e-05 2.20722e-06
-6.36494e-05 2.90329e-05 -1.16332e-07
2.20722e-06 -1.16332e-07 -5.68008e-05
0.000903789 2.40264e-06 -5.35637e-07
2.40264e-06 2.46435e-05 1.01772e-06
-5.35637e-07 1.01772e-06 -4.34584e-05
0.00091894 -4.24177e-05 -6.10596e-08
-4.24177e-05 4.2497e-05 2.57278e-07
-6.10596e-08 2.57278e-07 -3.68184e-05
0.00106671 -6.12651e-05 8.40089e-07
-6.12651e-05 0.00012202 -3.86842e-07
8.40089e-07 -3.86842e-07 3.5888e-05
0.000862263 2.21979e-05 -1.79073e-06
2.21979e-05 -6.7938e-07 2.15434e-06
-1.79073e-06 2.15434e-06 -4.25756e-05
0.000956521 -1.5272e-06 -1.76674e-07
-1.5272e-06 4.6376e-05 1.02123e-08
-1.76674e-07 1.02123e-08 -1.63998e-05
0.00105672 -4.311e-05 4.55321e-07
-4.311e-05 0.000103974 -3.42307e-07
4.55321e-07 -3.42307e-07 2.85994e-05
0.000820756 2.53588e-05 -3.68349e-06
2.53588e-05 -2.40277e-05 4.62061e-06
-3.68349e-06 4.62061e-06 -3.23989e-05
0.000875732 2.14905e-05 2.83622e-07
2.14905e-05 3.39437e-06 -5.48512e-08
2.83622e-07 -5.48512e-08 -3.40317e-05
0.000941668 -1.39864e-06 1.01253e-06
-1.39864e-06 3.43547e-05 -1.1388e-06
1.01253e-06 -1.1388e-06 -2.29284e-05
0.000877991 2.22895e-05 9.48569e-07
2.22895e-05 -8.41941e-08 -2.01122e-06
9.48569e-07 -2.01122e-06 -3.35504e-05
0.000820621 2.3084e-05 9.83975e-08
2.3084e-05 -3.00545e-05 -4.20974e-08
9.83975e-08 -4.20974e-08 -3.59274e-05
0.00224938 3.30103e-05 -1.76405e-05
3.30103e-05 0.000708648 3.62394e-06
-1.76405e-05 3.62394e-06 0.000727076
0.000849426 2.04362e-05 2.03787e-06
2.04362e-05 -2.20316e-05 -3.17185e-06
2.03787e-06 -3.17185e-06 -2.56646e-05
0.00221216 2.85617e-05 7.32038e-07
2.85617e-05 0.000683784 4.64117e-08
7.32038e-07 4.64117e-08 0.000703599
0.00218491 2.40812e-05 1.44072e-05
2.40812e-05 0.000664673 -3.72838e-06
1.44072e-05 -3.72838e-06 0.000685679
0.00101132 2.10524e-05 -4.12875e-07
2.10524e-05 6.48473e-05 -8.2195e-07
-4.12875e-07 -8.2195e-07 -2.68739e-06
0.000948617 1.54056e-05 -6.68083e-07
1.54056e-05 3.12698e-05 -1.27966e-06
-6.68083e-07 -1.27966e-06 -2.44508e-05
0.000880633 -1.82926e-05 -7.23196e-07
-1.82926e-05 -5.26946e-06 -1.89723e-06
-7.23196e-07 -1.89723e-06 -3.86141e-05
0.000945641 1.07181e-05 7.17761e-09
1.07181e-05 2.99838e-05 -4.50051e-08
7.17761e-09 -4.50051e-08 -2.22609e-05
0.000850707 -1.72931e-05 -1.46418e-06
-1.72931e-05 -2.61252e-05 -3.3149e-06
-1.46418e-06 -3.3149e-06 -2.98911e-05
0.000895262 -1.32884e-05 -4.86758e-08
-1.32884e-05 2.83102e-07 3.95206e-09
-4.86758e-08 3.95206e-09 -3.08733e-05
0.000924039 1.51575e-05 1.43577e-07
1.51575e-05 2.12454e-05 5.16259e-07
1.43577e-07 5.16259e-07 -2.88255e-05
0.0022192 -1.95185e-05 -1.2214e-05
-1.95185e-05 0.000677141 -3.98196e-06
-1.2214e-05 -3.98196e-06 0.000698782
0.000845038 -1.422e-05 -9.59734e-08
-1.422e-05 -3.34789e-05 -3.16837e-08
-9.59734e-08 -3.16837e-08 -3.49113e-05
0.000907808 -9.9709e-06 1.82114e-07
-9.9709e-06 4.99611e-06 1.14855e-06
1.82114e-07 1.14855e-06 -2.40165e-05
0.00215135 -1.44575e-05 -1.18969e-06
-1.44575e-05 0.000637846 3.2789e-08
-1.18969e-06 3.2789e-08 0.000660984
0.000839908 -1.06244e-05 6.42435e-07
-1.06244e-05 -4.03525e-05 3.1142e-06
6.42435e-07 3.1142e-06 -3.94878e-05
0.00210505 -9.32908e-06 5.64709e-06
-9.32908e-06 0.000610836 3.85509e-06
5.64709e-06 3.85509e-06 0.000635045
0.000966271 1.52704e-05 -1.24556e-05
1.52704e-05 7.05939e-05 -8.24348e-06
-1.24556e-05 -8.24348e-06 -4.96375e-05
0.00117833 9.84484e-07 1.68863e-06
9.84484e-07 0.000125845 -1.94554e-06
1.68863e-06 -1.94554e-06 -9.80822e-06
0.00134067 -1.21605e-05 -9.73008e-06
-1.21605e-05 0.000299658 6.49198e-07
-9.73008e-06 6.49198e-07 0.000189895
0.000957893 1.27925e-05 -1.04791e-07
1.27925e-05 3.78302e-05 6.05234e-09
-1.04791e-07 6.05234e-09 -2.83536e-05
0.0010457 1.56072e-05 3.97449e-09
1.56072e-05 8.33078e-05 2.43011e-07
3.97449e-09 2.43011e-07 1.05339e-05
0.000965656 2.01696e-05 -5.63373e-07
2.01696e-05 4.60983e-05 -1.28692e-06
-5.63373e-07 -1.28692e-06 -2.99815e-05
0.000920975 1.03775e-05 -1.38418e-07
1.03775e-05 2.11171e-05 -9.42437e-07
-1.38418e-07 -9.42437e-07 -5.11722e-05
0.00111014 3.90086e-05 -3.71639e-07
3.90086e-05 0.000121893 -4.6934e-07
-3.71639e-07 -4.6934e-07 4.34444e-05
0.000894105 6.91286e-06 7.0035e-08
6.91286e-06 5.62116e-06 6.1071e-07
7.0035e-08 6.1071e-07 -5.89636e-05
0.000965688 5.16579e-06 2.42891e-07
5.16579e-06 4.60731e-05 6.09458e-07
2.42891e-07 6.09458e-07 -2.48731e-05
0.00100324 3.22283e-05 -1.46996e-07
3.22283e-05 6.75082e-05 -2.5477e-08
-1.46996e-07 -2.5477e-08 -4.96649e-06
0.00102369 2.65015e-05 4.23768e-07
2.65015e-05 7.73283e-05 4.4474e-07
4.23768e-07 4.4474e-07 7.34623e-07
0.00106834 2.71156e-05 -2.82149e-07
2.71156e-05 0.000103255 -2.47195e-07
-2.82149e-07 -2.47195e-07 2.57057e-05
0.00112779 -1.0012e-06 -2.48438e-06
-1.0012e-06 0.000139221 9.80008e-06
-2.48438e-06 9.80008e-06 7.41597e-05
0.00102568 2.74696e-05 2.80117e-07
2.74696e-05 8.96586e-05 3.83151e-06
2.80117e-07 3.83151e-06 -6.27355e-06
0.000982558 1.04438e-05 1.48849e-06
1.04438e-05 8.82655e-05 -2.35112e-06
1.48849e-06 -2.35112e-06 -4.41916e-05
0.00108809 -3.2132e-05 4.35063e-06
-3.2132e-05 -0.00038683 -1.64637e-06
4.35063e-06 -1.64637e-06 -0.000142104
-0.0009884 2.44699e-05 -1.66031e-06
2.44699e-05 -0.00183719 -6.83548e-05
-1.66031e-06 -6.83548e-05 -0.0016122
0.0013506 -0.000257343 -7.17376e-05
-0.000257343 -0.000552381 8.94746e-05
-7.17376e-05 8.94746e-05 -0.000904215
0.00722796 0.00015258 -1.66978e-05
0.00015258 0.00154282 -4.35263e-05
-1.66978e-05 -4.35263e-05 0.00108382
0.0014628 -0.000218854 -3.49655e-05
-0.000218854 -0.00018971 3.3564e-05
-3.49655e-05 3.3564e-05 -0.000582096
0.0076151 -0.000120028 3.41121e-05
-0.000120028 0.00177041 1.63911e-06
3.41121e-05 1.63911e-06 0.00133692
0.00147607 -0.00019452 8.13757e-06
-0.00019452 -0.000558134 -2.12512e-05
8.13757e-06 -2.12512e-05 -0.000461208
4.92608e-05 -0.000114892 -2.14425e-07
-0.000114892 -0.00108025 -5.66776e-06
-2.14425e-07 -5.66776e-06 -0.000688936
0.00168131 -6.37345e-05 -3.65184e-05
-6.37345e-05 0.000210146 -5.68437e-05
-3.65184e-05 -5.68437e-05 -0.000246526
0.00725172 -0.000321512 -1.85461e-05
-0.000321512 0.00161283 4.67326e-05
-1.85461e-05 4.67326e-05 0.00106472
0.005978 -0.000388301 2.07425e-05
-0.000388301 0.00177743 2.61313e-05
2.07425e-05 2.61313e-05 0.00195465
0.00132425 -0.000200881 3.62065e-06
-0.000200881 -9.74682e-05 2.94025e-06
3.62065e-06 2.94025e-06 0.000435641
0.000929605 2.27906e-05 -6.31067e-07
2.27906e-05 3.94711e-05 3.82999e-07
-6.31067e-07 3.82999e-07 -3.40562e-05
0.00108278 -3.61458e-06 -1.03075e-07
-3.61458e-06 0.000101315 1.28873e-07
-1.03075e-07 1.28873e-07 2.30028e-05
0.000967302 6.72102e-06 2.82329e-07
6.72102e-06 4.68704e-05 -3.31337e-08
2.82329e-07 -3.31337e-08 -3.21602e-05
0.00097121 -5.50942e-05 2.13846e-05
-5.50942e-05 0.000421263 -2.42598e-06
2.13846e-05 -2.42598e-06 0.000284024
0.00140588 -1.4039e-05 -7.60064e-07
-1.4039e-05 0.000365663 -2.29766e-06
-7.60064e-07 -2.29766e-06 0.000332894
0.000987043 8.13449e-06 -1.41983e-07
8.13449e-06 4.9418e-05 1.05217e-06
-1.41983e-07 1.05217e-06 -3.00356e-05
0.000960793 -2.28065e-05 -7.54623e-07
-2.28065e-05 2.94431e-05 1.50389e-06
-7.54623e-07 1.50389e-06 -5.73357e-05
0.00102351 -8.37201e-06 -1.80154e-07
-8.37201e-06 7.48171e-05 5.90209e-08
-1.80154e-07 5.90209e-08 -1.02353e-05
0.000801152 -4.02215e-05 8.46777e-07
-4.02215e-05 8.28218e-05 3.11735e-06
8.46777e-07 3.11735e-06 -2.6563e-05
-0.000173266 1.80928e-05 4.54574e-06
1.80928e-05 0.000113383 -1.10875e-05
4.54574e-06 -1.10875e-05 -0.000246889
0.000320668 7.97565e-06 -1.0117e-06
7.97565e-06 -0.000144491 2.52508e-06
-1.0117e-06 2.52508e-06 -0.000271705
0.00152722 7.02041e-05 1.26018e-05
7.02041e-05 0.000621237 2.40833e-06
1.26018e-05 2.40833e-06 0.000421616
0.00177423 -4.39795e-06 -1.07588e-05
-4.39795e-06 0.000642492 -7.68114e-07
-1.07588e-05 -7.68114e-07 0.000559243
0.00112565 -1.96126e-06 -6.34738e-06
-1.96126e-06 0.000176543 -1.35486e-07
-6.34738e-06 -1.35486e-07 4.64178e-05
0.00109632 -3.49358e-06 4.35548e-07
-3.49358e-06 9.33185e-05 -7.51432e-07
4.35548e-07 -7.51432e-07 -4.70543e-05
-0.000977502 -1.42722e-05 -1.2509e-05
-1.42722e-05 -0.000351935 1.57121e-05
-1.2509e-05 1.57121e-05 -0.000506259
0.000498437 2.69597e-05 2.79007e-05
2.69597e-05 -0.000268587 -5.27051e-05
2.79007e-05 -5.27051e-05 -0.000656259
0.00129802 -1.6868e-05 8.95428e-06
-1.6868e-05 0.000275491 -4.58039e-07
8.95428e-06 -4.58039e-07 0.000158847
0.00865018 0.000206759 4.53896e-05
0.000206759 0.00233081 8.20674e-07
4.53896e-05 8.20674e-07 0.00131096
0.00417342 0.000431531 -3.43246e-05
0.000431531 0.0011303 2.15547e-05
-3.43246e-05 2.15547e-05 0.00109937
0.00118442 -5.1056e-06 9.5363e-06
-5.1056e-06 0.000136735 5.59195e-07
9.5363e-06 5.59195e-07 6.80571e-05
-0.000554823 0.000270775 -1.1627e-05
0.000270775 -0.0011028 9.62246e-06
-1.1627e-05 9.62246e-06 -0.000548289
-0.000100068 -2.1983e-05 -5.41409e-07
-2.1983e-05 6.89282e-05 -1.45174e-07
-5.41409e-07 -1.45174e-07 -0.000121538
0.00123864 -1.78052e-05 5.9609e-06
-1.78052e-05 0.000258991 -5.15143e-07
5.9609e-06 -5.15143e-07 0.000170131
-0.00119504 0.00011359 -2.68391e-06
0.00011359 -0.00100361 -3.90325e-08
-2.68391e-06 -3.90325e-08 -0.000837587
0.00211221 -0.000131462 1.3894e-05
-0.000131462 0.000435611 2.97062e-05
1.3894e-05 2.97062e-05 2.34347e-05
0.00296774 0.000399088 -1.65678e-06
0.000399088 0.000906134 5.50279e-09
-1.65678e-06 5.50279e-09 0.000937607
0.00558214 0.000155821 2.50241e-05
0.000155821 0.00136293 -1.31337e-05
2.50241e-05 -1.31337e-05 0.000114823
0.00156501 -7.51969e-05 6.85324e-06
-7.51969e-05 0.000293437 4.81424e-06
6.85324e-06 4.81424e-06 0.000357184
-0.00103379 1.83978e-05 1.88694e-06
1.83978e-05 -0.000887798 5.39115e-07
1.88694e-06 5.39115e-07 -0.000930247
0.0031323 0.000292218 4.13061e-05
0.000292218 0.00124696 -1.45841e-05
4.13061e-05 -1.45841e-05 0.00128159
0.0039545 0.000352145 -3.04646e-05
0.000352145 0.000807233 2.7876e-05
-3.04646e-05 2.7876e-05 -0.000125063
0.00203077 -0.000127177 -1.04152e-06
-0.000127177 0.000265039 4.01018e-05
-1.04152e-06 4.01018e-05 -3.39088e-05
0.000764945 -8.97392e-06 -2.52341e-06
-8.97392e-06 0.000235985 4.92662e-06
-2.52341e-06 4.92662e-06 -1.5304e-05
0.00092127 -0.000112477 1.61694e-06
-0.000112477 0.000180019 -2.72649e-06
1.61694e-06 -2.72649e-06 -7.79425e-05
0.00286328 -0.000195875 1.12449e-06
-0.000195875 0.000843135 -2.30171e-06
1.12449e-06 -2.30171e-06 0.000666231
9.90979e-05 -3.00059e-05 -1.14407e-06
-3.00059e-05 -0.000222076 1.36667e-06
-1.14407e-06 1.36667e-06 -0.000434032
0.000756524 -8.55723e-05 1.21987e-06
-8.55723e-05 1.1051e-05 -2.35466e-07
1.21987e-06 -2.35466e-07 -0.0001772
0.00119447 -0.000115804 1.87245e-06
-0.000115804 9.31156e-05 2.08652e-06
1.87245e-06 2.08652e-06 -5.37429e-05
0.00136684 -8.71967e-05 -1.84492e-06
-8.71967e-05 0.00028257 5.04086e-07
-1.84492e-06 5.04086e-07 0.000121423
0.00120408 -9.79045e-05 -1.0673e-06
-9.79045e-05 0.000136249 -4.60943e-07
-1.0673e-06 -4.60943e-07 -1.90392e-05
0.0015191 -0.000110889 -1.25262e-06
-0.000110889 0.00020358 5.14599e-08
-1.25262e-06 5.14599e-08 7.82138e-05
0.00140107 -9.55688e-05 -3.01144e-07
-9.55688e-05 0.000241516 -8.46657e-07
-3.01144e-07 -8.46657e-07 0.000105662
0.00127903 -9.3911e-05 3.6466e-07
-9.3911e-05 0.00014654 -8.12245e-07
3.6466e-07 -8.12245e-07 1.37269e-05
0.00146726 -9.3468e-05 -1.83004e-06
-9.3468e-05 0.000176246 -2.05875e-06
-1.83004e-06 -2.05875e-06 6.202e-05
0.00132605 -8.37456e-05 -1.60328e-06
-8.37456e-05 8.87052e-05 -1.46322e-06
-1.60328e-06 -1.46322e-06 -1.24299e-05
0.00112078 -8.01947e-05 -1.47503e-06
-8.01947e-05 6.02936e-05 8.75725e-07
-1.47503e-06 8.75725e-07 -4.69575e-05
0.00125381 -8.67701e-05 3.8386e-07
-8.67701e-05 0.000107892 -9.00559e-07
3.8386e-07 -9.00559e-07 -8.00983e-06
0.00126356 -7.92043e-05 -1.04734e-06
-7.92043e-05 0.000172126 1.88531e-06
-1.04734e-06 1.88531e-06 7.90838e-05
0.00125276 -8.34422e-05 -2.67261e-07
-8.34422e-05 0.000154775 5.93059e-07
-2.67261e-07 5.93059e-07 4.89085e-05
0.00131337 -9.06381e-05 1.00584e-06
-9.06381e-05 0.000175209 -1.51714e-06
1.00584e-06 -1.51714e-06 5.43569e-05
0.000998022 -6.40651e-05 -3.94077e-07
-6.40651e-05 6.53289e-05 -7.08531e-07
-3.94077e-07 -7.08531e-07 -1.52512e-05
0.000856245 -6.31687e-05 -1.90784e-07
-6.31687e-05 -9.3916e-06 -7.92541e-07
-1.90784e-07 -7.92541e-07 -9.40482e-05
0.00109409 -7.31107e-05 2.5413e-06
-7.31107e-05 0.000105535 -2.03176e-06
2.5413e-06 -2.03176e-06 1.29539e-05
0.000945442 -2.32332e-05 -5.58665e-07
-2.32332e-05 4.7296e-05 8.26262e-07
-5.58665e-07 8.26262e-07 -2.48444e-05
0.00103715 -5.94652e-05 1.50157e-07
-5.94652e-05 9.53289e-05 3.57302e-07
1.50157e-07 3.57302e-07 1.32454e-05
0.00109048 -6.76743e-05 5.75648e-07
-6.76743e-05 0.000121232 7.40004e-07
5.75648e-07 7.40004e-07 3.57465e-05
0.000859111 3.71558e-05 -1.62983e-06
3.71558e-05 2.91178e-06 2.14808e-06
-1.62983e-06 2.14808e-06 -4.50529e-05
0.000954923 -1.27132e-06 -5.57879e-08
-1.27132e-06 5.02982e-05 6.89369e-09
-5.57879e-08 6.89369e-09 -1.80904e-05
0.000969427 -4.31796e-05 1.81593e-07
-4.31796e-05 6.65654e-05 -1.02048e-07
1.81593e-07 -1.02048e-07 -1.21059e-05
0.00145126 3.24571e-05 -1.10537e-05
3.24571e-05 0.00030764 3.2102e-06
-1.10537e-05 3.2102e-06 0.000299561
0.00086465 2.12638e-05 1.05277e-07
2.12638e-05 5.5555e-07 -5.93786e-08
1.05277e-07 -5.93786e-08 -4.12812e-05
0.00095696 -4.09567e-06 8.16799e-07
-4.09567e-06 4.62017e-05 -1.07284e-06
8.16799e-07 -1.07284e-06 -1.65013e-05
0.00100051 2.368e-05 -1.65244e-05
2.368e-05 7.15366e-05 3.70518e-06
-1.65244e-05 3.70518e-06 8.17311e-05
0.00114898 2.81472e-05 -4.16826e-06
2.81472e-05 0.000145682 4.61419e-07
-4.16826e-06 4.61419e-07 0.000138564
0.000866941 2.58336e-05 1.16917e-06
2.58336e-05 -6.00794e-07 -2.07402e-06
1.16917e-06 -2.07402e-06 -3.8229e-05
0.000841542 2.35112e-05 2.37838e-06
2.35112e-05 -1.96127e-05 -3.28869e-06
2.37838e-06 -3.28869e-06 -2.56006e-05
0.0022599 3.30421e-05 6.0373e-07
3.30421e-05 0.00071493 4.9399e-08
6.0373e-07 4.9399e-08 0.000733104
0.00221463 2.8565e-05 1.67125e-05
2.8565e-05 0.000685901 -3.7064e-06
1.67125e-05 -3.7064e-06 0.000705539
0.000955614 1.6258e-05 -5.99435e-07
1.6258e-05 3.86666e-05 -1.26907e-06
-5.99435e-07 -1.26907e-06 -3.2136e-05
0.000959599 -1.49788e-06 -5.04243e-07
-1.49788e-06 3.5602e-05 -1.50269e-06
-5.04243e-07 -1.50269e-06 -2.25202e-05
0.000996717 1.28007e-05 -1.02207e-07
1.28007e-05 5.66901e-05 -5.68733e-09
-1.02207e-07 -5.68733e-09 -1.09089e-05
0.000872975 -2.46269e-05 -7.58838e-07
-2.46269e-05 -6.32547e-06 -2.11351e-06
-7.58838e-07 -2.11351e-06 -4.18688e-05
0.000955774 4.51674e-06 3.42682e-07
4.51674e-06 3.42698e-05 -7.79216e-08
3.42682e-07 -7.79216e-08 -2.08732e-05
0.000838665 -1.98288e-05 -1.88532e-06
-1.98288e-05 -2.77352e-05 -3.39883e-06
-1.88532e-06 -3.39883e-06 -3.34011e-05
0.000888684 -1.45129e-05 -2.28383e-07
-1.45129e-05 -1.06851e-06 -2.51531e-10
-2.28383e-07 -2.51531e-10 -3.43656e-05
0.000957007 1.84431e-05 7.50316e-07
1.84431e-05 3.72108e-05 1.17978e-06
7.50316e-07 1.17978e-06 -1.60345e-05
0.00227924 -2.42191e-05 -1.49571e-05
-2.42191e-05 0.000712567 -3.966e-06
-1.49571e-05 -3.966e-06 0.000732824
0.000833807 -1.71355e-05 -1.84873e-07
-1.71355e-05 -3.46652e-05 -8.72246e-09
-1.84873e-07 -8.72246e-09 -3.83348e-05
0.000905532 -1.27217e-05 5.47532e-07
-1.27217e-05 5.75377e-06 1.75825e-06
5.47532e-07 1.75825e-06 -2.54305e-05
0.00221052 -1.94305e-05 -1.04285e-06
-1.94305e-05 0.000672163 4.09242e-08
-1.04285e-06 4.09242e-08 0.000694011
0.000827473 -1.40711e-05 8.51815e-07
-1.40711e-05 -4.23895e-05 3.22865e-06
8.51815e-07 3.22865e-06 -4.37038e-05
0.00214661 -1.42755e-05 8.42322e-06
-1.42755e-05 0.000634986 3.85734e-06
8.42322e-06 3.85734e-06 0.000658284
0.000686764 1.05224e-05 -8.06159e-06
1.05224e-05 1.12952e-06 -3.91462e-06
-8.06159e-06 -3.91462e-06 -7.69127e-05
0.00100324 1.37422e-05 -2.12969e-06
1.37422e-05 9.88008e-05 -3.30137e-06
-2.12969e-06 -3.30137e-06 -2.23979e-05
0.00116346 7.3034e-07 1.94094e-07
7.3034e-07 0.000119981 -3.21784e-06
1.94094e-07 -3.21784e-06 -1.83602e-05
0.00103134 4.64499e-05 -8.21397e-07
4.64499e-05 8.61642e-05 -2.01517e-07
-8.21397e-07 -2.01517e-07 7.46087e-06
0.00100823 1.2267e-05 2.41955e-07
1.2267e-05 6.41013e-05 7.20809e-07
2.41955e-07 7.20809e-07 -1.96174e-06
0.00100783 1.53271e-05 2.17774e-07
1.53271e-05 6.31887e-05 9.11378e-07
2.17774e-07 9.11378e-07 -1.01121e-05
0.001016 9.93543e-06 8.32066e-08
9.93543e-06 6.98022e-05 -2.10362e-07
8.32066e-08 -2.10362e-07 -1.99206e-06
0.00101659 3.09312e-05 -8.93698e-08
3.09312e-05 7.31418e-05 -2.03381e-07
-8.93698e-08 -2.03381e-07 -3.21957e-06
0.00103702 3.69949e-05 5.13726e-08
3.69949e-05 8.37835e-05 4.17097e-07
5.13726e-08 4.17097e-07 5.47148e-06
0.00103723 4.52707e-05 -8.56829e-07
4.52707e-05 8.6489e-05 -1.2059e-06
-8.56829e-07 -1.2059e-06 5.0076e-06
0.000922107 3.23212e-05 -2.39777e-07
3.23212e-05 2.8893e-05 -7.18206e-07
-2.39777e-07 -7.18206e-07 -5.01451e-05
0.000991051 4.30336e-05 5.09591e-07
4.30336e-05 6.26929e-05 3.32355e-07
5.09591e-07 3.32355e-07 -1.03214e-05
0.000990986 -3.53071e-06 3.58199e-07
-3.53071e-06 5.72284e-05 4.60147e-07
3.58199e-07 4.60147e-07 -1.7753e-05
0.00104441 2.64496e-05 -1.0773e-07
2.64496e-05 9.12214e-05 9.18096e-09
-1.0773e-07 9.18096e-09 1.36966e-05
0.00149165 3.15036e-05 1.48691e-06
3.15036e-05 0.00031718 -3.88527e-07
1.48691e-06 -3.88527e-07 0.000237126
0.001804 -0.000109794 9.61883e-06
-0.000109794 0.000619376 9.62899e-06
9.61883e-06 9.62899e-06 0.000823458
0.000964201 3.92056e-06 2.46735e-06
3.92056e-06 3.43539e-05 4.80049e-06
2.46735e-06 4.80049e-06 -2.92043e-05
0.00102512 2.72477e-05 1.5852e-05
2.72477e-05 8.30805e-05 5.47049e-06
1.5852e-05 5.47049e-06 -1.18756e-05
0.00176177 -0.000142363 -4.10279e-06
-0.000142363 -5.4593e-05 -1.13553e-05
-4.10279e-06 -1.13553e-05 0.000341679
0.00291251 -0.000263115 -3.4964e-06
-0.000263115 -0.000269941 -8.9793e-05
-3.4964e-06 -8.9793e-05 -0.000145435
0.00337503 4.62094e-05 -3.83343e-05
4.62094e-05 -0.000512042 0.000105672
-3.83343e-05 0.000105672 -0.000755474
0.00119668 -0.000210992 -5.99121e-05
-0.000210992 -2.37789e-05 7.53662e-05
-5.99121e-05 7.53662e-05 -0.00031781
0.00236857 -6.27022e-05 -1.98036e-05
-6.27022e-05 0.000752135 5.73571e-06
-1.98036e-05 5.73571e-06 0.000460645
0.000365413 -0.000211094 -3.95352e-06
-0.000211094 -0.000554774 -3.00375e-06
-3.95352e-06 -3.00375e-06 -4.02182e-05
0.00535351 -0.000100707 1.65732e-05
-0.000100707 0.000698329 5.23875e-05
1.65732e-05 5.23875e-05 -6.38613e-05
-0.00065 -0.000228463 -5.3483e-06
-0.000228463 -0.00104874 -1.00383e-05
-5.3483e-06 -1.00383e-05 -0.000891747
0.00272112 0.000145172 -5.9549e-05
0.000145172 0.000685469 -4.97529e-05
-5.9549e-05 -4.97529e-05 0.000441313
0.00745246 -0.00028172 2.87466e-06
-0.00028172 0.00221246 3.56218e-05
2.87466e-06 3.56218e-05 0.00139244
-7.77419e-05 -0.000221021 2.82625e-05
-0.000221021 -8.17858e-05 1.821e-05
2.82625e-05 1.821e-05 6.54691e-05
0.000774701 7.57468e-05 -3.13258e-06
7.57468e-05 -1.15076e-05 -1.65376e-06
-3.13258e-06 -1.65376e-06 -8.21689e-05
0.00115064 2.64395e-05 2.12375e-06
2.64395e-05 0.000144472 2.52777e-07
2.12375e-06 2.52777e-07 7.1866e-05
0.00103741 1.03785e-05 -3.32381e-07
1.03785e-05 8.32431e-05 -1.42074e-07
-3.32381e-07 -1.42074e-07 3.4655e-06
-0.000253509 1.39487e-05 -9.75046e-06
1.39487e-05 -1.15026e-05 -1.88319e-05
-9.75046e-06 -1.88319e-05 -0.000358109
0.000211458 -2.77414e-05 -1.26183e-06
-2.77414e-05 -0.000203067 -6.12445e-08
-1.26183e-06 -6.12445e-08 -0.000321792
0.000864034 6.24112e-06 2.11281e-06
6.24112e-06 -6.22084e-07 2.87416e-06
2.11281e-06 2.87416e-06 -8.53431e-05
0.000966844 3.66966e-05 2.94853e-07
3.66966e-05 0.000155745 2.49413e-07
2.94853e-07 2.49413e-07 3.02728e-05
0.000821623 3.80257e-05 4.9777e-07
3.80257e-05 0.000268956 -4.46955e-06
4.9777e-07 -4.46955e-06 9.44758e-05
-0.00103534 5.5383e-05 2.26337e-06
5.5383e-05 -0.000734662 1.44307e-05
2.26337e-06 1.44307e-05 -0.000893996
0.00248999 -1.95062e-05 2.06541e-06
-1.95062e-05 0.00116824 -6.80412e-07
2.06541e-06 -6.80412e-07 0.0011469
0.000908791 -2.90119e-06 -1.96315e-07
-2.90119e-06 0.000118929 -1.15088e-06
-1.96315e-07 -1.15088e-06 2.90949e-05
0.000706424 -2.1433e-06 6.62417e-06
-2.1433e-06 -9.72631e-05 1.73461e-07
6.62417e-06 1.73461e-07 -0.000233272
0.000598148 -3.61669e-05 1.92312e-06
-3.61669e-05 0.000417502 1.20028e-05
1.92312e-06 1.20028e-05 0.000217126
0.00143665 -0.000114455 9.59951e-07
-0.000114455 0.000149744 -4.69923e-05
9.59951e-07 -4.69923e-05 -0.000145
0.001288 -1.87484e-05 1.76142e-05
-1.87484e-05 0.000291243 -5.63472e-06
1.76142e-05 -5.63472e-06 0.000205128
0.00195793 0.000170294 -1.90061e-05
0.000170294 -4.30872e-05 2.711e-05
-1.90061e-05 2.711e-05 -0.00116464
-0.00184483 0.000274053 -5.4437e-05
0.000274053 -0.00125472 2.55153e-05
-5.4437e-05 2.55153e-05 -0.00115453
0.00124155 0.000140636 -1.16542e-05
0.000140636 0.000333715 7.4503e-06
-1.16542e-05 7.4503e-06 0.000587054
0.00163985 -9.43073e-05 6.95207e-06
-9.43073e-05 0.000351245 2.56299e-06
6.95207e-06 2.56299e-06 0.00040153
0.00121068 3.94194e-05 -2.02145e-06
3.94194e-05 0.000397081 3.73984e-07
-2.02145e-06 3.73984e-07 0.000429845
-0.00235247 0.000147554 -2.01331e-06
0.000147554 -0.00109789 2.8892e-06
-2.01331e-06 2.8892e-06 -0.00108764
0.00338349 -0.000184483 -1.19158e-05
-0.000184483 0.000623475 2.00933e-05
-1.19158e-05 2.00933e-05 0.000180801
0.00545112 0.000293948 -8.42906e-06
0.000293948 0.00147026 3.02823e-06
-8.42906e-06 3.02823e-06 0.00058067
0.000749935 -0.000123155 1.81477e-06
-0.000123155 -0.000270052 7.42712e-06
1.81477e-06 7.42712e-06 -0.000208024
-0.00267976 6.71377e-05 5.13922e-05
6.71377e-05 -0.001662 -1.59593e-05
5.13922e-05 -1.59593e-05 -0.0016158
0.00587284 0.000279629 5.33963e-06
0.000279629 0.00172992 -5.42816e-07
5.33963e-06 -5.42816e-07 0.00101901
0.00376446 -2.41174e-06 -1.10077e-05
-2.41174e-06 0.000565628 2.9989e-05
-1.10077e-05 2.9989e-05 0.000290296
0.000456025 -0.00010122 -2.66147e-06
-0.00010122 -1.67303e-05 -2.22768e-06
-2.66147e-06 -2.22768e-06 -0.000307659
0.00105522 -0.000141818 3.42174e-07
-0.000141818 -4.83893e-06 6.09758e-07
3.42174e-07 6.09758e-07 -0.000183017
0.00191053 -0.00017427 -2.86706e-07
-0.00017427 0.000286183 2.14718e-06
-2.86706e-07 2.14718e-06 0.000170226
4.4576e-05 -6.28725e-05 -1.324e-06
-6.28725e-05 -0.000329902 -1.05055e-06
-1.324e-06 -1.05055e-06 -0.000524947
0.0011823 -0.000114118 -2.83202e-07
-0.000114118 8.10787e-05 -6.26483e-07
-2.83202e-07 -6.26483e-07 -6.56545e-05
0.00186715 -0.000127256 -6.02947e-06
-0.000127256 0.000258863 -6.3359e-07
-6.02947e-06 -6.3359e-07 0.000152615
0.00129427 -9.94817e-05 -1.00581e-06
-9.94817e-05 0.000175656 -2.14553e-06
-1.00581e-06 -2.14553e-06 2.48116e-05
0.00131858 -0.000104296 6.61231e-07
-0.000104296 0.000106964 -7.70786e-07
6.61231e-07 -7.70786e-07 -1.78651e-05
0.00177693 -0.000100199 -2.58781e-06
-0.000100199 0.000245575 -3.18721e-06
-2.58781e-06 -3.18721e-06 0.000154345
0.00118505 -8.95517e-05 7.03064e-08
-8.95517e-05 9.70423e-05 -1.26242e-06
7.03064e-08 -1.26242e-06 -3.30167e-05
0.00127917 -8.71454e-05 -3.52007e-07
-8.71454e-05 7.75021e-05 -8.34139e-07
-3.52007e-07 -8.34139e-07 -3.49178e-05
0.0014896 -8.22404e-05 -1.58968e-06
-8.22404e-05 0.000110388 -3.09738e-06
-1.58968e-06 -3.09738e-06 2.87029e-05
0.0014333 -7.71691e-05 -1.49194e-06
-7.71691e-05 0.000101127 -2.0438e-06
-1.49194e-06 -2.0438e-06 2.29641e-05
0.00129498 -8.23687e-05 -1.99172e-06
-8.23687e-05 9.71338e-05 -6.29912e-07
-1.99172e-06 -6.29912e-07 -1.80273e-06
0.00131359 -8.14014e-05 6.80106e-07
-8.14014e-05 8.30582e-05 6.0958e-08
6.80106e-07 6.0958e-08 -1.5968e-05
0.000799784 -6.70959e-05 -1.36743e-06
-6.70959e-05 -8.49769e-05 1.41116e-06
-1.36743e-06 1.41116e-06 -0.000181976
0.00126619 -8.38053e-05 7.93263e-07
-8.38053e-05 0.000132721 -8.01875e-07
7.93263e-07 -8.01875e-07 2.65234e-05
0.00115533 -8.31657e-05 1.63232e-06
-8.31657e-05 5.72687e-05 -1.27452e-06
1.63232e-06 -1.27452e-06 -5.74923e-05
0.00104079 -6.88023e-05 -3.39709e-07
-6.88023e-05 7.65502e-05 6.84099e-07
-3.39709e-07 6.84099e-07 -6.74945e-06
0.00103306 -7.2021e-05 3.12583e-07
-7.2021e-05 6.02239e-05 -1.61782e-07
3.12583e-07 -1.61782e-07 -3.2862e-05
0.000959689 -7.49469e-05 1.02527e-06
-7.49469e-05 9.95479e-06 -1.72857e-06
1.02527e-06 -1.72857e-06 -9.77365e-05
0.000989796 -4.74258e-05 -1.33429e-06
-4.74258e-05 6.50097e-05 1.39758e-07
-1.33429e-06 1.39758e-07 -7.99361e-06
0.00105075 -6.52918e-05 -2.06216e-07
-6.52918e-05 9.04882e-05 -3.05679e-07
-2.06216e-07 -3.05679e-07 9.87405e-06
0.000947451 -6.5705e-05 9.58795e-08
-6.5705e-05 3.71974e-05 -1.04206e-06
9.58795e-08 -1.04206e-06 -4.64935e-05
0.000897209 9.97562e-06 -1.8681e-06
9.97562e-06 2.80276e-05 2.13169e-06
-1.8681e-06 2.13169e-06 -2.51253e-05
0.000982596 -2.46588e-05 4.42021e-07
-2.46588e-05 6.52684e-05 2.64701e-07
4.42021e-07 2.64701e-07 -6.76756e-06
0.000979642 -5.6513e-05 7.60603e-07
-5.6513e-05 6.72178e-05 6.0612e-07
7.60603e-07 6.0612e-07 -1.44467e-05
0.000757252 3.08469e-05 -3.84091e-06
3.08469e-05 -4.35206e-05 3.52601e-06
-3.84091e-06 3.52601e-06 -5.8249e-05
0.00086417 1.4944e-05 -2.01103e-07
1.4944e-05 3.8286e-06 -8.67696e-08
-2.01103e-07 -8.67696e-08 -4.32326e-05
0.000994773 -5.91159e-06 6.3529e-07
-5.91159e-06 7.03291e-05 -1.06664e-06
6.3529e-07 -1.06664e-06 1.63538e-06
0.00237192 4.63402e-05 -8.35656e-06
4.63402e-05 0.000787067 1.5155e-06
-8.35656e-06 1.5155e-06 0.000800841
0.000783837 2.81606e-05 1.76894e-07
2.81606e-05 -3.60919e-05 2.37683e-08
1.76894e-07 2.37683e-08 -4.80757e-05
0.000865268 1.99981e-05 1.96419e-06
1.99981e-05 1.26835e-06 -2.07268e-06
1.96419e-06 -2.07268e-06 -4.07914e-05
0.00232947 3.73586e-05 5.69478e-07
3.73586e-05 0.000757103 4.55055e-08
5.69478e-07 4.55055e-08 0.000773514
0.000828786 2.63319e-05 2.92029e-06
2.63319e-05 -1.94206e-05 -3.42866e-06
2.92029e-06 -3.42866e-06 -2.84012e-05
0.00227068 3.2996e-05 1.91072e-05
3.2996e-05 0.000721354 -3.72597e-06
1.91072e-05 -3.72597e-06 0.000739281
0.00105544 4.51163e-05 -6.42718e-07
4.51163e-05 9.68458e-05 -2.73263e-07
-6.42718e-07 -2.73263e-07 2.28627e-05
0.000974428 1.7431e-05 -4.80389e-08
1.7431e-05 4.86099e-05 -2.54652e-07
-4.80389e-08 -2.54652e-07 -2.21883e-05
0.000954991 -1.57139e-06 -7.81532e-07
-1.57139e-06 3.87994e-05 -1.60627e-06
-7.81532e-07 -1.60627e-06 -2.37218e-05
0.000867004 -2.43228e-05 -1.26259e-06
-2.43228e-05 -6.63267e-06 -2.3506e-06
-1.26259e-06 -2.3506e-06 -4.44909e-05
0.000950479 -3.30027e-06 1.84201e-07
-3.30027e-06 3.17246e-05 -1.75015e-08
1.84201e-07 -1.75015e-08 -2.64716e-05
0.00096809 1.87483e-05 5.24407e-07
1.87483e-05 4.31699e-05 9.8234e-07
5.24407e-07 9.8234e-07 -2.55511e-05
0.000829855 -2.22105e-05 -2.4907e-06
-2.22105e-05 -2.7912e-05 -3.4834e-06
-2.4907e-06 -3.4834e-06 -3.52006e-05
0.000879304 -1.9294e-05 -1.98863e-07
-1.9294e-05 -3.66758e-06 -7.1371e-09
-1.98863e-07 -7.1371e-09 -3.89235e-05
0.000952689 -2.54056e-06 6.42636e-07
-2.54056e-06 3.23977e-05 1.2889e-06
6.42636e-07 1.2889e-06 -2.23991e-05
0.00232084 -2.87042e-05 -1.74657e-05
-2.87042e-05 0.000738939 -3.93931e-06
-1.74657e-05 -3.93931e-06 0.00075789
0.000822651 -1.96179e-05 -1.27729e-07
-1.96179e-05 -3.57542e-05 -1.04332e-08
-1.27729e-07 -1.04332e-08 -4.13506e-05
0.000895813 -1.35065e-05 8.46701e-07
-1.35065e-05 2.47376e-06 1.81808e-06
8.46701e-07 1.81808e-06 -3.07173e-05
0.00227466 -2.42182e-05 -1.04454e-06
-2.42182e-05 0.000709674 5.17997e-08
-1.04454e-06 5.17997e-08 0.000730097
0.000815815 -1.69712e-05 1.12856e-06
-1.69712e-05 -4.37488e-05 3.35115e-06
1.12856e-06 3.35115e-06 -4.73202e-05
0.00220243 -1.92776e-05 1.0966e-05
-1.92776e-05 0.000667485 3.87464e-06
1.0966e-05 3.87464e-06 0.000689542
9.84376e-05 -3.42888e-05 4.50511e-06
-3.42888e-05 -0.000187571 5.28929e-07
4.50511e-06 5.28929e-07 -0.000225868
0.000626857 1.21411e-05 6.68728e-07
1.21411e-05 -4.07156e-05 -9.51928e-07
6.68728e-07 -9.51928e-07 -0.000118009
0.00101647 1.22123e-05 1.43868e-05
1.22123e-05 0.000112385 1.09015e-06
1.43868e-05 1.09015e-06 -9.38565e-06
0.00101582 4.26716e-05 -1.02301e-07
4.26716e-05 7.76388e-05 3.21613e-07
-1.02301e-07 3.21613e-07 -1.14094e-06
0.00113816 6.60685e-05 -6.27721e-07
6.60685e-05 0.000145898 4.69988e-07
-6.27721e-07 4.69988e-07 6.57336e-05
0.00105106 5.2818e-05 -6.90616e-07
5.2818e-05 9.55567e-05 -1.64451e-07
-6.90616e-07 -1.64451e-07 1.38097e-05
0.00109715 6.35883e-06 -2.09517e-08
6.35883e-06 0.000111293 1.62653e-07
-2.09517e-08 1.62653e-07 4.02212e-05
0.00106733 3.01503e-05 4.14278e-07
3.01503e-05 9.85773e-05 7.52314e-07
4.14278e-07 7.52314e-07 2.30202e-05
0.000959333 2.00382e-05 3.56347e-08
2.00382e-05 4.13037e-05 1.29658e-06
3.56347e-08 1.29658e-06 -3.54817e-05
0.000955053 2.84811e-05 -2.5705e-07
2.84811e-05 4.49531e-05 3.53785e-08
-2.5705e-07 3.53785e-08 -3.38911e-05
0.0010221 3.72782e-05 1.43005e-07
3.72782e-05 7.79448e-05 3.35506e-08
1.43005e-07 3.35506e-08 -2.85521e-06
0.00106628 4.67139e-05 -6.91244e-07
4.67139e-05 0.000113393 -1.17314e-06
-6.91244e-07 -1.17314e-06 2.68351e-05
0.000857746 4.06198e-05 -4.49747e-07
4.06198e-05 1.72733e-06 -1.62993e-06
-4.49747e-07 -1.62993e-06 -8.00705e-05
0.00102397 4.0208e-05 1.37666e-07
4.0208e-05 8.28611e-05 1.0325e-07
1.37666e-07 1.0325e-07 4.07085e-06
0.00119725 3.55354e-05 3.33395e-07
3.55354e-05 0.000171881 4.71985e-08
3.33395e-07 4.71985e-08 9.16076e-05
-0.00308012 -0.000135514 3.40509e-05
-0.000135514 -0.00158702 2.81667e-05
3.40509e-05 2.81667e-05 -0.0015688
0.000880922 -0.00010835 1.90797e-06
-0.00010835 0.000130734 3.35605e-07
1.90797e-06 3.35605e-07 0.000301775
0.000679377 9.17734e-06 5.75313e-06
9.17734e-06 -0.000147482 -2.35286e-08
5.75313e-06 -2.35286e-08 -0.000211008
-0.000534556 -0.000219263 -2.89506e-06
-0.000219263 -0.00100168 -7.78913e-06
-2.89506e-06 -7.78913e-06 -0.000495094
0.00408597 -0.000348484 -1.76261e-05
-0.000348484 0.00108773 -5.38771e-05
-1.76261e-05 -5.38771e-05 0.00122311
0.00474755 -8.99644e-05 3.94064e-05
-8.99644e-05 0.000599079 2.79755e-05
3.94064e-05 2.79755e-05 2.62919e-05
0.00112174 -6.3824e-05 -3.824e-05
-6.3824e-05 5.96963e-05 7.35399e-05
-3.824e-05 7.35399e-05 -0.000513622
0.00214439 0.000118292 -4.06858e-05
0.000118292 0.000241664 -2.6116e-05
-4.06858e-05 -2.6116e-05 -0.000171605
0.00269504 -0.000317811 -2.05851e-06
-0.000317811 0.000832351 6.1543e-07
-2.05851e-06 6.1543e-07 0.000903523
0.00309338 -0.000104362 3.05896e-05
-0.000104362 0.000106867 4.25949e-05
3.05896e-05 4.25949e-05 -0.000720983
0.00161766 0.000158706 -7.61294e-05
0.000158706 -3.16604e-05 -8.74625e-05
-7.61294e-05 -8.74625e-05 -0.000498043
0.00333033 -8.77822e-07 -4.89727e-05
-8.77822e-07 0.000545018 -9.56565e-06
-4.89727e-05 -9.56565e-06 -0.000307317
0.00230636 0.000168926 8.54669e-06
0.000168926 0.000700514 -6.7866e-06
8.54669e-06 -6.7866e-06 0.000565743
0.000909299 7.81105e-05 -5.0492e-07
7.81105e-05 4.41238e-05 -4.07753e-07
-5.0492e-07 -4.07753e-07 -2.45115e-05
0.0013198 3.70125e-05 1.35645e-06
3.70125e-05 0.000225829 -5.84943e-07
1.35645e-06 -5.84943e-07 0.000152665
-0.000477124 -1.01705e-05 -1.43687e-05
-1.01705e-05 -0.000351851 -8.9017e-06
-1.43687e-05 -8.9017e-06 -0.00050773
0.00163736 6.10904e-05 1.41237e-06
6.10904e-05 0.000464487 -2.15577e-06
1.41237e-06 -2.15577e-06 0.000341407
0.000944149 0.000118128 6.77955e-06
0.000118128 0.000159307 9.41633e-07
6.77955e-06 9.41633e-07 2.74757e-05
2.20064e-05 0.000121944 2.31707e-05
0.000121944 -0.000458812 1.99125e-05
2.31707e-05 1.99125e-05 -0.000573096
-0.00100242 -2.57466e-05 6.03014e-05
-2.57466e-05 -0.000731422 -8.75357e-06
6.03014e-05 -8.75357e-06 -0.000675055
0.000640145 -1.08166e-05 -5.60703e-06
-1.08166e-05 0.000106839 7.55953e-07
-5.60703e-06 7.55953e-07 6.41346e-05
-2.16616e-05 -1.54617e-06 1.26546e-05
-1.54617e-06 -0.00044552 -1.17599e-06
1.26546e-05 -1.17599e-06 -0.000541701
0.00181268 -9.86808e-05 -3.47494e-05
-9.86808e-05 0.000517828 -3.13363e-07
-3.47494e-05 -3.13363e-07 0.00049054
0.00167093 -0.000147514 -3.75768e-05
-0.000147514 -0.000106721 -7.6696e-06
-3.75768e-05 -7.6696e-06 -0.000300029
0.00106774 2.33807e-05 -9.90403e-06
2.33807e-05 0.000323426 -3.65465e-07
-9.90403e-06 -3.65465e-07 0.000323171
0.00236498 0.000274497 1.42426e-05
0.000274497 0.000184869 -3.19192e-05
1.42426e-05 -3.19192e-05 -0.000788961
0.00425511 0.000238576 -9.68992e-05
0.000238576 0.00193784 2.34826e-05
-9.68992e-05 2.34826e-05 0.00193129
0.00138372 -0.000145066 1.2401e-05
-0.000145066 1.07263e-05 -1.24105e-06
1.2401e-05 -1.24105e-06 6.39804e-05
-0.000590334 0.000111188 -2.84789e-05
0.000111188 -0.000499871 1.90918e-06
-2.84789e-05 1.90918e-06 -0.000556338
0.0030314 0.000184797 -6.37281e-06
0.000184797 0.000460841 8.72561e-06
-6.37281e-06 8.72561e-06 -0.000434902
0.00170979 5.04814e-06 -9.65869e-06
5.04814e-06 -0.000240092 4.95206e-06
-9.65869e-06 4.95206e-06 -0.000278469
-0.000699174 -7.61797e-05 1.64199e-06
-7.61797e-05 -0.0010024 5.09203e-06
1.64199e-06 5.09203e-06 -0.000952732
0.00516339 9.51715e-05 1.86906e-05
9.51715e-05 0.00148889 4.96951e-06
1.86906e-05 4.96951e-06 0.000788864
0.00148626 8.21587e-05 -3.58855e-07
8.21587e-05 1.98496e-05 -3.9543e-06
-3.58855e-07 -3.9543e-06 -0.000211023
-0.000699865 -9.20194e-05 1.82536e-06
-9.20194e-05 -0.000822445 -4.9526e-06
1.82536e-06 -4.9526e-06 -0.00100342
0.00173578 -0.000164892 1.25112e-07
-0.000164892 0.000233695 -4.44081e-07
1.25112e-07 -4.44081e-07 0.000110298
0.00160438 -0.000150278 -1.5431e-05
-0.000150278 -1.98753e-05 9.34219e-06
-1.5431e-05 9.34219e-06 -0.000112238
0.0012579 -0.000114736 -2.77759e-06
-0.000114736 0.000109658 -2.23775e-06
-2.77759e-06 -2.23775e-06 -3.59583e-05
0.00148334 -0.000118782 -3.25208e-06
-0.000118782 6.43783e-05 4.55777e-07
-3.25208e-06 4.55777e-07 -4.04694e-05
0.00226886 -0.000110953 -8.56192e-06
-0.000110953 0.000336818 2.45435e-06
-8.56192e-06 2.45435e-06 0.000280821
0.00118397 -9.94263e-05 1.9972e-06
-9.94263e-05 4.39576e-05 -1.1543e-06
1.9972e-06 -1.1543e-06 -7.99855e-05
0.0014455 -9.19793e-05 -6.03324e-07
-9.19793e-05 7.62682e-05 -7.3026e-07
-6.03324e-07 -7.3026e-07 -1.2984e-05
0.00171191 -8.20785e-05 -1.64701e-06
-8.20785e-05 0.000122469 -1.25903e-06
-1.64701e-06 -1.25903e-06 7.12215e-05
0.00109511 -8.12189e-05 1.67696e-06
-8.12189e-05 -1.90607e-05 1.09288e-07
1.67696e-06 1.09288e-07 -0.00012969
0.0013494 -7.87441e-05 1.28145e-07
-7.87441e-05 3.81267e-05 1.26655e-07
1.28145e-07 1.26655e-07 -4.26597e-05
0.00139106 -7.1635e-05 -6.5572e-07
-7.1635e-05 1.96238e-05 -1.13473e-06
-6.5572e-07 -1.13473e-06 -3.82262e-05
0.00164926 -7.19654e-05 -4.9304e-07
-7.19654e-05 0.000188545 -9.31257e-07
-4.9304e-07 -9.31257e-07 0.00012365
0.00142004 -7.52046e-05 -7.26572e-07
-7.52046e-05 9.44663e-05 1.39202e-06
-7.26572e-07 1.39202e-06 1.85358e-05
0.00136407 -7.55803e-05 -8.5625e-07
-7.55803e-05 9.32606e-05 -2.65861e-06
-8.5625e-07 -2.65861e-06 1.1118e-05
0.00129037 -7.87676e-05 -1.81171e-06
-7.87676e-05 0.000111637 2.38755e-07
-1.81171e-06 2.38755e-07 1.80775e-05
0.00138255 -8.39556e-05 7.43141e-07
-8.39556e-05 0.000142258 -3.52642e-07
7.43141e-07 -3.52642e-07 4.32231e-05
0.00128818 -7.89215e-05 2.29664e-06
-7.89215e-05 7.06693e-05 1.65179e-06
2.29664e-06 1.65179e-06 -2.61893e-05
0.000849423 -6.52211e-05 -1.56713e-06
-6.52211e-05 -4.60434e-05 1.80471e-06
-1.56713e-06 1.80471e-06 -0.000134427
0.00106267 -7.4143e-05 9.89142e-08
-7.4143e-05 4.71269e-05 -6.80856e-08
9.89142e-08 -6.80856e-08 -4.8834e-05
0.00140532 -8.72078e-05 2.54803e-06
-8.72078e-05 0.000201916 -2.27986e-06
2.54803e-06 -2.27986e-06 9.68013e-05
0.000982577 -5.40671e-05 -1.03596e-06
-5.40671e-05 5.45413e-05 3.78864e-07
-1.03596e-06 3.78864e-07 -2.00985e-05
0.00107888 -6.94573e-05 7.40958e-08
-6.94573e-05 9.44824e-05 -1.78747e-07
7.40958e-08 -1.78747e-07 1.1072e-05
0.000829243 -6.57067e-05 5.89949e-07
-6.57067e-05 -3.87814e-05 -2.09841e-06
5.89949e-07 -2.09841e-06 -0.000131921
0.000878136 -5.16811e-06 -2.5542e-06
-5.16811e-06 2.2492e-05 1.86786e-06
-2.5542e-06 1.86786e-06 -3.54149e-05
0.00102209 -4.91021e-05 -6.14392e-08
-4.91021e-05 7.99931e-05 9.09075e-09
-6.14392e-08 9.09075e-09 7.08378e-06
0.00109793 -6.6291e-05 5.75382e-07
-6.6291e-05 0.000112929 -2.17034e-07
5.75382e-07 -2.17034e-07 3.22925e-05
0.000718835 3.54651e-05 -3.8132e-06
3.54651e-05 -5.43095e-05 3.68328e-06
-3.8132e-06 3.68328e-06 -7.30954e-05
0.000881324 7.9782e-06 -2.09036e-08
7.9782e-06 1.91693e-05 2.00235e-08
-2.09036e-08 2.00235e-08 -3.42997e-05
0.00102335 -2.64661e-05 1.35503e-06
-2.64661e-05 8.50715e-05 -2.8505e-07
1.35503e-06 -2.8505e-07 1.31067e-05
0.00249609 4.68755e-05 -2.43357e-05
4.68755e-05 0.000855639 3.53695e-06
-2.43357e-05 3.53695e-06 0.00086817
0.000774887 3.20019e-05 -1.17425e-08
3.20019e-05 -3.387e-05 -2.36656e-08
-1.17425e-08 -2.36656e-08 -4.89483e-05
0.000870732 4.86643e-06 2.4928e-06
4.86643e-06 6.69965e-06 -2.11932e-06
2.4928e-06 -2.11932e-06 -4.03315e-05
0.00171391 3.68963e-05 9.23369e-06
3.68963e-05 0.000447247 -9.67641e-07
9.23369e-06 -9.67641e-07 0.000458026
0.000812501 2.90849e-05 3.55256e-06
2.90849e-05 -2.15777e-05 -3.52161e-06
3.55256e-06 -3.52161e-06 -3.36679e-05
0.00235371 3.75108e-05 2.15547e-05
3.75108e-05 0.000770809 -3.74009e-06
2.15547e-05 -3.74009e-06 0.000786748
0.00103955 5.02673e-05 -3.14419e-07
5.02673e-05 9.07492e-05 5.16626e-07
-3.14419e-07 5.16626e-07 1.55541e-05
0.00101579 3.45143e-05 1.13757e-07
3.45143e-05 7.4753e-05 4.31672e-07
1.13757e-07 4.31672e-07 1.23134e-06
0.000957434 -3.65272e-06 -1.0244e-06
-3.65272e-06 4.52274e-05 -1.20515e-06
-1.0244e-06 -1.20515e-06 -2.10363e-05
0.00100003 2.73117e-05 5.00017e-07
2.73117e-05 6.28695e-05 8.11907e-07
5.00017e-07 8.11907e-07 -8.5802e-06
0.000960797 -1.08142e-05 -9.37583e-09
-1.08142e-05 4.09693e-05 3.00938e-08
-9.37583e-09 3.00938e-08 -2.0988e-05
0.000860068 -1.86461e-05 -1.79452e-06
-1.86461e-05 -5.05492e-06 -2.46752e-06
-1.79452e-06 -2.46752e-06 -4.65164e-05
0.000819467 -2.50842e-05 -2.92015e-06
-2.50842e-05 -2.83621e-05 -3.61569e-06
-2.92015e-06 -3.61569e-06 -3.73583e-05
0.000874937 -2.13e-05 -2.06493e-07
-2.13e-05 -3.1559e-06 -3.82955e-08
-2.06493e-07 -3.82955e-08 -4.07312e-05
0.000953309 -1.57851e-05 2.27286e-07
-1.57851e-05 3.28797e-05 1.57363e-06
2.27286e-07 1.57363e-06 -2.47016e-05
0.00234512 -3.30125e-05 -1.96548e-05
-3.30125e-05 0.000756917 -3.85358e-06
-1.96548e-05 -3.85358e-06 0.000774606
0.000814408 -2.19567e-05 -1.77372e-07
-2.19567e-05 -3.55232e-05 1.35969e-08
-1.77372e-07 1.35969e-08 -4.2756e-05
0.000889095 -1.26256e-05 1.4338e-06
-1.26256e-05 8.08025e-07 2.0107e-06
1.4338e-06 2.0107e-06 -3.41898e-05
0.00232556 -2.87981e-05 -8.46654e-07
-2.87981e-05 0.000740809 5.65773e-08
-8.46654e-07 5.65773e-08 0.000759861
0.000806942 -1.94335e-05 1.63339e-06
-1.94335e-05 -4.35678e-05 3.41755e-06
1.63339e-06 3.41755e-06 -4.91037e-05
0.00226956 -2.42077e-05 1.34336e-05
-2.42077e-05 0.000706509 3.89666e-06
1.34336e-05 3.89666e-06 0.000727102
0.000218985 5.46447e-05 9.98491e-05
5.46447e-05 -0.000190699 1.29629e-05
9.98491e-05 1.29629e-05 -0.000389258
0.00133259 -4.59647e-05 4.06378e-06
-4.59647e-05 0.000509339 5.60416e-07
4.06378e-06 5.60416e-07 0.000499229
0.000596339 1.37993e-05 1.07054e-05
1.37993e-05 -6.44811e-05 1.68617e-06
1.07054e-05 1.68617e-06 -0.000141105
0.000993473 3.99668e-05 9.38932e-07
3.99668e-05 6.58078e-05 6.28371e-07
9.38932e-07 6.28371e-07 -1.31792e-05
0.00100303 4.33236e-05 4.8588e-07
4.33236e-05 7.21284e-05 1.62351e-07
4.8588e-07 1.62351e-07 -9.53247e-06
0.00105294 6.28466e-05 -7.6478e-08
6.28466e-05 0.000104877 -4.33912e-08
-7.6478e-08 -4.33912e-08 2.52808e-05
0.00113057 6.90967e-05 -1.2276e-07
6.90967e-05 0.000145248 4.44491e-07
-1.2276e-07 4.44491e-07 6.44473e-05
0.00106741 5.93133e-05 -1.49341e-06
5.93133e-05 0.000113521 1.486e-07
-1.49341e-06 1.486e-07 3.00698e-05
0.000996514 3.19702e-05 3.30759e-07
3.19702e-05 6.57475e-05 1.07498e-06
3.30759e-07 1.07498e-06 -1.32403e-05
0.000999447 4.10118e-05 9.06033e-07
4.10118e-05 6.72745e-05 9.63229e-07
9.06033e-07 9.63229e-07 -1.38407e-05
0.000935024 5.27501e-05 -4.16688e-07
5.27501e-05 4.92415e-05 -3.97594e-07
-4.16688e-07 -3.97594e-07 -3.7336e-05
0.000491779 4.98647e-05 -1.22941e-06
4.98647e-05 -0.000167526 7.40476e-07
-1.22941e-06 7.40476e-07 -0.00025295
0.000825253 5.94559e-05 -1.40223e-06
5.94559e-05 -1.11148e-05 -1.20719e-06
-1.40223e-06 -1.20719e-06 -9.92657e-05
0.00184759 0.000116246 1.15872e-06
0.000116246 0.000447322 -3.66023e-06
1.15872e-06 -3.66023e-06 0.00034365
0.00103984 4.6783e-05 -1.52771e-06
4.6783e-05 0.000103382 -8.33012e-08
-1.52771e-06 -8.33012e-08 1.9654e-05
0.00100942 3.23559e-05 5.21609e-07
3.23559e-05 7.8085e-05 5.22965e-07
5.21609e-07 5.22965e-07 -1.80761e-06
0.00778504 -0.000114809 -1.1612e-05
-0.000114809 0.00220757 -1.0162e-05
-1.1612e-05 -1.0162e-05 0.00147777
-0.000259804 -0.000165752 2.86827e-06
-0.000165752 -0.000362615 5.47316e-06
2.86827e-06 5.47316e-06 -0.000428316
0.00204455 -0.000116692 -1.30192e-05
-0.000116692 0.000760539 -7.72331e-06
-1.30192e-05 -7.72331e-06 0.000926925
-0.00222213 -0.000191782 -2.81751e-05
-0.000191782 -0.00141873 -2.75399e-05
-2.81751e-05 -2.75399e-05 -0.00124927
0.00803915 -0.000264519 6.35279e-05
-0.000264519 0.00232637 4.14002e-05
6.35279e-05 4.14002e-05 0.00122438
0.00177938 0.000102625 2.9681e-05
0.000102625 0.000320169 1.37232e-05
2.9681e-05 1.37232e-05 7.55798e-05
0.00171547 0.00015344 -3.09312e-05
0.00015344 8.00132e-05 -2.4449e-05
-3.09312e-05 -2.4449e-05 -0.000275139
0.00544351 -0.000197124 2.91313e-05
-0.000197124 0.0013652 1.69126e-05
2.91313e-05 1.69126e-05 0.000638687
0.00151749 7.84279e-05 -3.78587e-05
7.84279e-05 -9.76375e-05 -4.72521e-05
-3.78587e-05 -4.72521e-05 -0.000417179
0.00222415 0.000198719 1.78649e-05
0.000198719 0.000451765 8.79927e-06
1.78649e-05 8.79927e-06 0.000298231
0.000894917 0.000112654 -8.89517e-08
0.000112654 5.7788e-05 -4.76868e-06
-8.89517e-08 -4.76868e-06 -8.99064e-05
0.000900717 6.01352e-05 2.98136e-07
6.01352e-05 2.89386e-05 2.12843e-06
2.98136e-07 2.12843e-06 -3.5168e-05
0.00191381 0.000154549 -2.50058e-05
0.000154549 0.000608977 -1.89602e-05
-2.50058e-05 -1.89602e-05 0.000487109
3.89923e-07 0.000138169 -4.24445e-06
0.000138169 -0.000536187 1.17785e-05
-4.24445e-06 1.17785e-05 -0.000639673
0.000290342 1.95071e-05 -1.05627e-06
1.95071e-05 -0.000711374 -5.97579e-06
-1.05627e-06 -5.97579e-06 -0.0011977
0.00150384 4.88357e-06 -1.36847e-06
4.88357e-06 0.00037888 2.94044e-06
-1.36847e-06 2.94044e-06 0.000279496
-0.00114834 -5.19229e-06 -6.72908e-06
-5.19229e-06 -0.000918695 -8.02876e-08
-6.72908e-06 -8.02876e-08 -0.000982453
0.00282854 -0.00018172 -3.97843e-05
-0.00018172 0.0006843 1.00195e-06
-3.97843e-05 1.00195e-06 0.000742221
0.00169561 -6.25235e-06 3.16279e-05
-6.25235e-06 -0.000588527 -2.59093e-05
3.16279e-05 -2.59093e-05 -0.000742688
0.000541836 -1.33559e-06 -0.000112073
-1.33559e-06 -0.00010153 2.38077e-05
-0.000112073 2.38077e-05 -0.000284221
0.00604509 0.000315951 -2.30572e-05
0.000315951 0.00197116 8.88861e-06
-2.30572e-05 8.88861e-06 0.00109985
0.00114574 -0.000120135 2.00402e-06
-0.000120135 -0.000122473 -1.95326e-06
2.00402e-06 -1.95326e-06 -7.16532e-05
0.00477905 0.000182565 2.75029e-05
0.000182565 0.00132121 3.6203e-06
2.75029e-05 3.6203e-06 0.000697498
0.00241092 8.76161e-05 3.14568e-05
8.76161e-05 0.000102499 -6.70133e-06
3.14568e-05 -6.70133e-06 -0.000184305
0.00236521 -5.9545e-05 -7.47473e-06
-5.9545e-05 0.000422684 -7.92959e-07
-7.47473e-06 -7.92959e-07 0.00039233
0.000920283 6.21296e-05 -3.31555e-05
6.21296e-05 0.000113405 8.46775e-06
-3.31555e-05 8.46775e-06 -0.000138248
0.000967728 -0.000139598 7.02245e-06
-0.000139598 -0.000112713 -6.29504e-06
7.02245e-06 -6.29504e-06 -0.000240512
0.0015676 -0.000145224 -3.77472e-06
-0.000145224 -2.58808e-05 8.6616e-07
-3.77472e-06 8.6616e-07 -0.000112921
0.00238974 -0.000104492 -1.37364e-05
-0.000104492 0.000226479 2.13243e-06
-1.37364e-05 2.13243e-06 0.000177666
0.000945309 -0.000106942 3.04966e-06
-0.000106942 -0.000201892 -2.57798e-06
3.04966e-06 -2.57798e-06 -0.000304663
0.00153362 -9.75472e-05 2.06522e-06
-9.75472e-05 -1.01095e-05 1.08133e-06
2.06522e-06 1.08133e-06 -6.3912e-05
0.00181702 -7.07025e-05 -2.48371e-06
-7.07025e-05 7.90796e-05 4.07704e-06
-2.48371e-06 4.07704e-06 5.06304e-05
0.00108509 -8.36535e-05 2.02013e-06
-8.36535e-05 -0.000108322 1.70442e-06
2.02013e-06 1.70442e-06 -0.000195343
0.00148376 -7.91819e-05 9.90194e-08
-7.91819e-05 1.03148e-05 1.74157e-06
9.90194e-08 1.74157e-06 -4.14414e-05
0.00157528 -6.60775e-05 1.00292e-06
-6.60775e-05 4.17697e-05 2.16544e-06
1.00292e-06 2.16544e-06 3.56339e-07
0.00122499 -7.56638e-05 2.73461e-06
-7.56638e-05 -2.63683e-05 2.90095e-06
2.73461e-06 2.90095e-06 -0.000106278
0.00142476 -7.28814e-05 1.22116e-07
-7.28814e-05 3.7937e-05 1.177e-06
1.22116e-07 1.177e-06 -2.10232e-05
0.00149345 -6.49231e-05 2.54935e-07
-6.49231e-05 7.03924e-05 1.1259e-07
2.54935e-07 1.1259e-07 1.41437e-05
0.00145504 -6.90523e-05 -1.35378e-06
-6.90523e-05 9.32517e-05 1.16069e-06
-1.35378e-06 1.16069e-06 3.05449e-05
0.00161799 -7.10045e-05 1.1239e-06
-7.10045e-05 0.000190331 -1.76899e-06
1.1239e-06 -1.76899e-06 0.0001191
0.0014266 -7.36995e-05 1.75696e-06
-7.36995e-05 9.80033e-05 3.90833e-06
1.75696e-06 3.90833e-06 2.42286e-05
0.00137722 -7.52167e-05 1.06329e-07
-7.52167e-05 9.94401e-05 -5.25475e-07
1.06329e-07 -5.25475e-07 1.69196e-05
0.00135552 -7.314e-05 -8.08443e-07
-7.314e-05 0.000104715 -1.03034e-06
-8.08443e-07 -1.03034e-06 2.02595e-05
0.000957936 -6.68132e-05 -1.9437e-06
-6.68132e-05 -3.21585e-05 1.11865e-06
-1.9437e-06 1.11865e-06 -0.000120715
0.00128451 -7.8098e-05 4.95504e-08
-7.8098e-05 0.000109944 -1.26779e-07
4.95504e-08 -1.26779e-07 1.59371e-05
0.00147274 -8.56305e-05 2.35948e-06
-8.56305e-05 0.00018887 -2.82108e-07
2.35948e-06 -2.82108e-07 8.97063e-05
0.00101988 -6.08249e-05 -1.437e-06
-6.08249e-05 5.74517e-05 1.02201e-06
-1.437e-06 1.02201e-06 -2.04945e-05
0.00092862 -6.71686e-05 -4.35361e-07
-6.71686e-05 -4.13033e-06 4.97934e-07
-4.35361e-07 4.97934e-07 -9.18772e-05
0.0012942 -8.01684e-05 1.59745e-06
-8.01684e-05 0.000163924 -1.58315e-06
1.59745e-06 -1.58315e-06 6.90292e-05
0.000823486 -9.32954e-06 -2.31872e-06
-9.32954e-06 -4.15851e-06 1.48792e-06
-2.31872e-06 1.48792e-06 -6.49045e-05
0.00103515 -5.61508e-05 -3.20039e-09
-5.61508e-05 7.93824e-05 -1.28309e-07
-3.20039e-09 -1.28309e-07 4.61775e-06
0.00112157 -7.02852e-05 7.00885e-07
-7.02852e-05 0.000114742 -1.08427e-06
7.00885e-07 -1.08427e-06 3.12037e-05
0.000674356 3.96508e-05 -3.52191e-06
3.96508e-05 -6.87895e-05 3.84647e-06
-3.52191e-06 3.84647e-06 -9.22991e-05
0.000887324 -7.30058e-06 -1.42585e-08
-7.30058e-06 2.50734e-05 1.36491e-07
-1.42585e-08 1.36491e-07 -3.24803e-05
0.00105416 -5.03922e-05 1.30491e-06
-5.03922e-05 9.49176e-05 -1.83219e-07
1.30491e-06 -1.83219e-07 2.21156e-05
0.0025881 5.22604e-05 -2.56281e-05
5.22604e-05 0.000909487 3.43425e-06
-2.56281e-05 3.43425e-06 0.000919911
0.000748999 3.70381e-05 -2.06383e-08
3.70381e-05 -3.78868e-05 -5.9265e-08
-2.06383e-08 -5.9265e-08 -5.71419e-05
0.000869944 -5.92616e-06 2.52284e-06
-5.92616e-06 1.13354e-05 -1.8455e-06
2.52284e-06 -1.8455e-06 -4.14408e-05
0.00250009 4.70245e-05 2.51532e-07
4.70245e-05 0.000858443 7.3784e-08
2.51532e-07 7.3784e-08 0.000870738
0.000797086 3.33254e-05 3.56377e-06
3.33254e-05 -2.18641e-05 -3.62856e-06
3.56377e-06 -3.62856e-06 -3.732e-05
0.00243095 4.21834e-05 2.35579e-05
4.21834e-05 0.000817112 -3.66634e-06
2.35579e-05 -3.66634e-06 0.000831111
0.00105958 5.86799e-05 -4.73148e-07
5.86799e-05 0.000104731 2.26217e-07
-4.73148e-07 2.26217e-07 2.65609e-05
0.00100472 5.09087e-05 2.82939e-07
5.09087e-05 7.41799e-05 1.37123e-07
2.82939e-07 1.37123e-07 -1.16502e-06
0.000901454 -2.36791e-06 -1.37114e-06
-2.36791e-06 1.89377e-05 -6.08122e-07
-1.37114e-06 -6.08122e-07 -5.03882e-05
0.000973323 2.70686e-05 9.373e-07
2.70686e-05 5.19302e-05 1.02592e-06
9.373e-07 1.02592e-06 -2.16604e-05
0.000937615 -7.17708e-06 -8.16768e-08
-7.17708e-06 3.47467e-05 1.90737e-07
-8.16768e-08 1.90737e-07 -3.174e-05
0.000860904 -1.36582e-05 -2.17139e-06
-1.36582e-05 -5.431e-07 -2.2191e-06
-2.17139e-06 -2.2191e-06 -4.70518e-05
0.000953799 -1.23634e-05 6.43447e-07
-1.23634e-05 3.74844e-05 1.63508e-06
6.43447e-07 1.63508e-06 -2.44127e-05
0.000871416 -1.84983e-05 -8.11059e-08
-1.84983e-05 -2.87468e-08 -8.09767e-08
-8.11059e-08 -8.09767e-08 -4.13429e-05
0.000809916 -2.8932e-05 -3.28941e-06
-2.8932e-05 -2.6246e-05 -3.74936e-06
-3.28941e-06 -3.74936e-06 -3.78965e-05
0.00236499 -3.73017e-05 -2.14601e-05
-3.73017e-05 0.000773351 -3.77257e-06
-2.14601e-05 -3.77257e-06 0.00078966
0.000807634 -2.45973e-05 -6.62078e-08
-2.45973e-05 -3.41527e-05 -3.69928e-09
-6.62078e-08 -3.69928e-09 -4.30655e-05
0.000880007 -1.89179e-05 1.38931e-06
-1.89179e-05 -1.09145e-06 2.24226e-06
1.38931e-06 2.24226e-06 -3.84411e-05
0.00235936 -3.31493e-05 -7.42273e-07
-3.31493e-05 0.000763542 6.76935e-08
-7.42273e-07 6.76935e-08 0.000781295
0.000800044 -2.17059e-05 2.10048e-06
-2.17059e-05 -4.26248e-05 3.51789e-06
2.10048e-06 3.51789e-06 -4.97994e-05
0.00232762 -2.88356e-05 1.61596e-05
-2.88356e-05 0.000741318 3.89369e-06
1.61596e-05 3.89369e-06 0.000760484
0.00607461 -5.14695e-06 3.09374e-05
-5.14695e-06 0.0018012 5.80992e-07
3.09374e-05 5.80992e-07 0.00123056
-0.00100942 -4.0044e-05 1.17801e-05
-4.0044e-05 -0.000589048 1.28755e-06
1.17801e-05 1.28755e-06 -0.000582918
3.68671e-05 -2.9296e-05 -2.59124e-06
-2.9296e-05 -0.000264312 2.96707e-08
-2.59124e-06 2.96707e-08 -0.000304151
0.00098349 3.48358e-05 1.17823e-06
3.48358e-05 6.32206e-05 5.01147e-07
1.17823e-06 5.01147e-07 -1.8513e-05
0.000971592 6.1136e-05 5.5451e-07
6.1136e-05 6.59879e-05 -1.16378e-07
5.5451e-07 -1.16378e-07 -1.32063e-05
0.00111279 6.22272e-05 2.02987e-07
6.22272e-05 0.000136673 -4.91722e-08
2.02987e-07 -4.91722e-08 5.32046e-05
0.00107572 6.75625e-05 -3.98555e-07
6.75625e-05 0.00011802 -1.81148e-07
-3.98555e-07 -1.81148e-07 3.72373e-05
0.00112798 7.08708e-05 2.70745e-06
7.08708e-05 0.000146362 1.01304e-06
2.70745e-06 1.01304e-06 6.19716e-05
0.000805784 5.9566e-05 -1.50536e-06
5.9566e-05 -1.02532e-05 9.17764e-07
-1.50536e-06 9.17764e-07 -9.28615e-05
0.000784305 5.06225e-05 8.91222e-07
5.06225e-05 -2.59763e-05 5.38941e-07
8.91222e-07 5.38941e-07 -0.000112017
0.000770007 5.88041e-05 5.8995e-07
5.88041e-05 -2.94561e-05 -1.20069e-07
5.8995e-07 -1.20069e-07 -0.000116841
0.000835306 5.63212e-05 7.57832e-07
5.63212e-05 2.35933e-06 9.92911e-08
7.57832e-07 9.92911e-08 -8.71219e-05
0.000434643 5.93486e-05 1.6294e-07
5.93486e-05 -0.000219756 3.54518e-07
1.6294e-07 3.54518e-07 -0.000307069
0.00263245 0.000136031 2.46282e-07
0.000136031 0.00081804 -3.947e-07
2.46282e-07 -3.947e-07 0.000720927
0.0017967 0.000131314 8.9293e-07
0.000131314 0.000290882 -3.07351e-06
8.9293e-07 -3.07351e-06 0.000171391
0.00124129 9.8997e-05 9.06223e-07
9.8997e-05 0.000153814 -1.07704e-07
9.06223e-07 -1.07704e-07 5.29752e-05
0.00119121 4.76509e-05 -1.38939e-06
4.76509e-05 0.000189162 8.27044e-07
-1.38939e-06 8.27044e-07 0.000103917
0.00124808 -5.62452e-05 -1.7141e-05
-5.62452e-05 -0.000246585 -1.78292e-05
-1.7141e-05 -1.78292e-05 -0.000396333
0.003905 -0.000106379 -5.44098e-06
-0.000106379 0.000722591 -1.33019e-06
-5.44098e-06 -1.33019e-06 0.000102664
0.00285993 -0.000226883 -3.58663e-05
-0.000226883 0.0012256 -1.84437e-05
-3.58663e-05 -1.84437e-05 0.00118332
0.00461169 -0.000110528 0.000115661
-0.000110528 0.00102075 3.5842e-05
0.000115661 3.5842e-05 0.000188738
0.00298245 0.000180935 2.92584e-05
0.000180935 0.000766211 4.67013e-05
2.92584e-05 4.67013e-05 0.000571417
0.00127048 4.48416e-05 -2.13497e-05
4.48416e-05 -4.84494e-05 -8.04353e-06
-2.13497e-05 -8.04353e-06 -0.000201126
0.00113076 8.83619e-05 1.98423e-05
8.83619e-05 -0.000213715 1.23661e-05
1.98423e-05 1.23661e-05 -0.000258413
0.00188706 0.000193778 3.30414e-08
0.000193778 0.000287301 6.13592e-06
3.30414e-08 6.13592e-06 0.00015391
0.000262895 8.41695e-05 -1.76003e-06
8.41695e-05 -0.000242236 4.49724e-06
-1.76003e-06 4.49724e-06 -0.000386944
0.00203026 0.000215014 -6.13113e-05
0.000215014 0.000313017 -5.62911e-05
-6.13113e-05 -5.62911e-05 0.000253857
0.00224068 -1.12174e-05 -0.000115579
-1.12174e-05 0.000540425 -4.37799e-06
-0.000115579 -4.37799e-06 0.000242565
0.00576413 4.46361e-05 9.93319e-06
4.46361e-05 0.00189115 -1.85769e-06
9.93319e-06 -1.85769e-06 0.00135921
-0.00312735 -3.09028e-05 -5.66939e-05
-3.09028e-05 -0.0019551 7.44748e-06
-5.66939e-05 7.44748e-06 -0.00191842
0.00269049 -0.000155141 -2.35068e-07
-0.000155141 0.000615544 3.72629e-08
-2.35068e-07 3.72629e-08 0.000659054
0.00167605 8.08016e-05 3.91125e-05
8.08016e-05 -0.00018206 -5.92307e-06
3.91125e-05 -5.92307e-06 -0.000350281
0.00106031 -1.11299e-05 2.75417e-05
-1.11299e-05 -0.00025953 -2.1275e-07
2.75417e-05 -2.1275e-07 -0.000768248
0.00170297 -8.45271e-05 -5.91646e-08
-8.45271e-05 5.5688e-05 2.73681e-06
-5.91646e-08 2.73681e-06 6.3368e-05
0.00134276 9.70011e-05 2.28903e-06
9.70011e-05 0.000148611 -5.36153e-06
2.28903e-06 -5.36153e-06 -5.75554e-05
0.00309932 -1.17289e-05 1.84836e-06
-1.17289e-05 0.000664932 -1.41867e-05
1.84836e-06 -1.41867e-05 0.00062628
0.00104532 5.91894e-05 7.28647e-06
5.91894e-05 -0.000157263 -1.45611e-06
7.28647e-06 -1.45611e-06 -0.000234888
0.00245416 -0.000159552 5.70795e-06
-0.000159552 0.000424634 -3.57073e-06
5.70795e-06 -3.57073e-06 0.000338922
0.0021484 -0.000103004 2.41563e-06
-0.000103004 0.000110126 -8.74934e-07
2.41563e-06 -8.74934e-07 6.50499e-05
0.00223898 -2.71427e-05 -2.07098e-06
-2.71427e-05 0.0002414 1.54103e-06
-2.07098e-06 1.54103e-06 0.000200692
0.00085912 -8.61925e-05 1.02692e-05
-8.61925e-05 -0.000330656 -1.2522e-06
1.02692e-05 -1.2522e-06 -0.000382954
0.00179071 -7.10203e-05 3.21196e-06
-7.10203e-05 7.86e-05 1.44595e-07
3.21196e-06 1.44595e-07 4.77655e-05
0.00178801 -4.12051e-05 -1.65297e-07
-4.12051e-05 0.000103806 2.78722e-06
-1.65297e-07 2.78722e-06 5.50421e-05
0.00130898 -7.69698e-05 4.39799e-06
-7.69698e-05 -7.465e-05 2.69935e-06
4.39799e-06 2.69935e-06 -0.000127205
0.00156529 -6.64918e-05 9.89614e-07
-6.64918e-05 4.53476e-05 9.25953e-07
9.89614e-07 9.25953e-07 1.67989e-06
0.0016757 -5.39186e-05 -5.92644e-08
-5.39186e-05 0.000111577 1.36993e-06
-5.92644e-08 1.36993e-06 5.36196e-05
0.00147278 -7.42114e-05 1.4866e-06
-7.42114e-05 6.33961e-05 2.76595e-06
1.4866e-06 2.76595e-06 3.27538e-06
0.00142588 -6.59128e-05 -7.48457e-08
-6.59128e-05 4.34303e-05 -2.7356e-08
-7.48457e-08 -2.7356e-08 -1.33156e-05
0.00142279 -6.24911e-05 1.76162e-06
-6.24911e-05 6.30878e-05 1.50161e-07
1.76162e-06 1.50161e-07 -6.36279e-06
0.00127579 -6.63445e-05 -2.47126e-07
-6.63445e-05 5.35981e-06 2.93745e-06
-2.47126e-07 2.93745e-06 -5.51904e-05
0.00147136 -6.77954e-05 -9.2709e-07
-6.77954e-05 0.000116573 -6.65894e-07
-9.2709e-07 -6.65894e-07 4.67365e-05
0.00157766 -6.93614e-05 2.58543e-07
-6.93614e-05 0.000186538 -8.8746e-07
2.58543e-07 -8.8746e-07 0.000108295
0.00138871 -7.48288e-05 1.07656e-06
-7.48288e-05 0.000104664 1.48214e-06
1.07656e-06 1.48214e-06 2.17854e-05
0.00135613 -7.2625e-05 1.71478e-07
-7.2625e-05 0.00010554 -3.49395e-07
1.71478e-07 -3.49395e-07 2.06693e-05
0.00139224 -7.1393e-05 -1.05086e-06
-7.1393e-05 0.000145422 -1.5248e-07
-1.05086e-06 -1.5248e-07 6.19688e-05
0.000819525 -5.65435e-05 -2.4692e-06
-5.65435e-05 -7.36551e-05 1.41091e-06
-2.4692e-06 1.41091e-06 -0.000154022
0.00104611 -6.86834e-05 -3.47421e-07
-6.86834e-05 1.51295e-05 3.40624e-07
-3.47421e-07 3.40624e-07 -7.29408e-05
0.00127932 -7.74487e-05 1.59562e-06
-7.74487e-05 0.000108618 -7.73118e-07
1.59562e-06 -7.73118e-07 1.41564e-05
0.000848011 -2.59567e-05 -2.41989e-06
-2.59567e-05 2.28563e-06 1.54279e-06
-2.41989e-06 1.54279e-06 -6.11991e-05
0.00105285 -6.13718e-05 7.36632e-08
-6.13718e-05 7.31602e-05 3.14991e-09
7.36632e-08 3.14991e-09 -4.80783e-06
0.00102781 -6.97249e-05 5.17161e-07
-6.97249e-05 4.75045e-05 -6.95122e-07
5.17161e-07 -6.95122e-07 -3.96165e-05
0.000661968 4.29094e-05 -3.43584e-06
4.29094e-05 -6.61038e-05 3.73214e-06
-3.43584e-06 3.73214e-06 -9.50226e-05
0.000882404 -1.44438e-05 -7.37928e-08
-1.44438e-05 2.37083e-05 5.6998e-08
-7.37928e-08 5.6998e-08 -3.69278e-05
0.00108606 -5.80396e-05 1.39226e-06
-5.80396e-05 0.000103468 -7.81133e-07
1.39226e-06 -7.81133e-07 2.85782e-05
0.00271153 5.79212e-05 -2.73253e-05
5.79212e-05 0.000978837 3.36466e-06
-2.73253e-05 3.36466e-06 0.000986873
0.000725768 4.11099e-05 1.58698e-07
4.11099e-05 -4.19298e-05 -5.46554e-09
1.58698e-07 -5.46554e-09 -6.58496e-05
0.000894701 -9.33331e-06 2.68072e-06
-9.33331e-06 2.67908e-05 -1.53248e-06
2.68072e-06 -1.53248e-06 -3.04171e-05
0.00259709 5.23107e-05 2.42634e-07
5.23107e-05 0.000914674 8.10217e-08
2.42634e-07 8.10217e-08 0.000924804
0.000780696 3.82791e-05 3.21275e-06
3.82791e-05 -2.09195e-05 -3.7388e-06
3.21275e-06 -3.7388e-06 -4.05942e-05
0.00250448 4.70617e-05 2.51692e-05
4.70617e-05 0.00086141 -3.57308e-06
2.51692e-05 -3.57308e-06 0.000873483
0.00107717 6.43628e-05 -7.0795e-07
6.43628e-05 0.000114161 -5.1731e-07
-7.0795e-07 -5.1731e-07 3.27898e-05
0.00110495 6.04357e-05 1.58353e-07
6.04357e-05 0.00012738 1.09412e-07
1.58353e-07 1.09412e-07 4.95192e-05
0.0009662 2.50608e-05 -1.40308e-06
2.50608e-05 5.59621e-05 -3.31835e-07
-1.40308e-06 -3.31835e-07 -1.57323e-05
0.000973487 5.22587e-05 7.60347e-07
5.22587e-05 5.94307e-05 6.30795e-08
7.60347e-07 6.30795e-08 -1.60599e-05
0.00090596 3.019e-06 -3.73076e-07
3.019e-06 2.20772e-05 -2.14545e-08
-3.73076e-07 -2.14545e-08 -4.76775e-05
0.000860635 -2.68035e-06 -2.59471e-06
-2.68035e-06 3.64092e-06 -1.71567e-06
-2.59471e-06 -1.71567e-06 -4.84703e-05
0.000919071 -1.29305e-05 7.91402e-07
-1.29305e-05 2.53494e-05 1.3407e-06
7.91402e-07 1.3407e-06 -4.17712e-05
0.000866689 -1.49778e-05 -3.3243e-08
-1.49778e-05 2.55786e-06 -6.56691e-08
-3.3243e-08 -6.56691e-08 -4.39986e-05
0.000794197 -3.38348e-05 -3.45177e-06
-3.38348e-05 -2.62548e-05 -3.76862e-06
-3.45177e-06 -3.76862e-06 -4.1541e-05
0.00088273 -1.88436e-05 1.63679e-06
-1.88436e-05 5.02871e-06 2.48551e-06
1.63679e-06 2.48551e-06 -3.61533e-05
0.000793307 -2.79923e-05 -6.71998e-08
-2.79923e-05 -3.50307e-05 -2.79984e-08
-6.71998e-08 -2.79984e-08 -4.64233e-05
0.00242193 -4.18998e-05 -2.33061e-05
-4.18998e-05 0.000809457 -3.70014e-06
-2.33061e-05 -3.70014e-06 0.000823948
0.00238512 -3.74871e-05 -4.7411e-07
-3.74871e-05 0.000782754 6.69079e-08
-4.7411e-07 6.69079e-08 0.000799146
0.000795318 -2.41282e-05 2.74377e-06
-2.41282e-05 -4.02699e-05 3.5707e-06
2.74377e-06 3.5707e-06 -4.90875e-05
0.00237069 -3.33166e-05 1.85301e-05
-3.33166e-05 0.000768765 3.8387e-06
1.85301e-05 3.8387e-06 0.000786579
0.000994533 -3.36967e-05 -5.44584e-05
-3.36967e-05 -0.000155122 -6.34125e-06
-5.44584e-05 -6.34125e-06 -0.000331068
0.00155719 -6.1889e-05 -9.16294e-06
-6.1889e-05 -0.000199312 -5.3502e-06
-9.16294e-06 -5.3502e-06 -0.000738579
0.00316697 -0.000186643 -3.99975e-05
-0.000186643 0.00122443 -4.79937e-06
-3.99975e-05 -4.79937e-06 0.00117933
0.00118008 7.578e-05 3.28608e-06
7.578e-05 0.000145278 9.3022e-07
3.28608e-06 9.3022e-07 5.79522e-05
0.00114273 6.23694e-05 1.07899e-06
6.23694e-05 0.000152262 -3.01567e-07
1.07899e-06 -3.01567e-07 6.90503e-05
0.00101085 6.5611e-05 2.65851e-07
6.5611e-05 8.57727e-05 -3.21265e-07
2.65851e-07 -3.21265e-07 5.0476e-06
0.000988183 6.5676e-05 2.49481e-08
6.5676e-05 8.10993e-05 1.69925e-07
2.49481e-08 1.69925e-07 -2.14085e-06
0.0010549 6.89128e-05 -1.02652e-07
6.89128e-05 0.000111876 -3.91708e-07
-1.02652e-07 -3.91708e-07 2.70104e-05
0.000730247 6.29504e-05 -1.19797e-06
6.29504e-05 -5.79457e-05 1.0832e-06
-1.19797e-06 1.0832e-06 -0.000136222
0.00112256 7.05649e-05 1.98357e-06
7.05649e-05 0.000146803 -1.24606e-06
1.98357e-06 -1.24606e-06 5.71008e-05
0.00107344 5.85995e-05 5.8224e-07
5.85995e-05 0.000127174 7.00975e-07
5.8224e-07 7.00975e-07 3.61776e-05
0.00100655 7.73798e-05 -9.37258e-08
7.73798e-05 6.19273e-05 -1.37981e-07
-9.37258e-08 -1.37981e-07 -2.47337e-05
0.00196171 0.000116261 3.22298e-07
0.000116261 0.000499478 1.3056e-06
3.22298e-07 1.3056e-06 0.000404925
0.00153828 0.000111634 5.3744e-07
0.000111634 0.000180938 -1.5237e-06
5.3744e-07 -1.5237e-06 7.53027e-05
0.00202306 0.00011416 -2.76935e-06
0.00011416 0.00020887 2.27827e-07
-2.76935e-06 2.27827e-07 9.59466e-05
0.00138373 0.000118654 2.47465e-06
0.000118654 7.92388e-05 7.9712e-07
2.47465e-06 7.9712e-07 -3.94528e-05
0.000741583 8.27137e-05 -7.56003e-07
8.27137e-05 -9.39499e-05 3.73108e-06
-7.56003e-07 3.73108e-06 -0.000191823
0.00120099 -8.12024e-06 -7.95941e-06
-8.12024e-06 -0.000205135 2.83782e-06
-7.95941e-06 2.83782e-06 -0.000225387
0.00249841 -4.97744e-05 -1.67095e-06
-4.97744e-05 0.000148229 1.17149e-06
-1.67095e-06 1.17149e-06 -4.6528e-05
0.00103452 -0.000123431 -7.85289e-06
-0.000123431 -0.00049187 -4.24618e-06
-7.85289e-06 -4.24618e-06 -0.00102227
0.00261454 0.000121567 2.67729e-05
0.000121567 0.000203503 2.27914e-05
2.67729e-05 2.27914e-05 -5.55031e-05
0.00143188 9.15758e-05 1.48387e-06
9.15758e-05 -8.89652e-05 1.48482e-06
1.48387e-06 1.48482e-06 -0.000135666
0.000219283 0.000143323 -1.14712e-05
0.000143323 -0.000475165 -6.27051e-06
-1.14712e-05 -6.27051e-06 -0.000609841
0.00244427 -2.34968e-05 9.74561e-06
-2.34968e-05 0.000599656 -4.69584e-06
9.74561e-06 -4.69584e-06 0.000522781
0.000831311 -5.12828e-06 -2.29482e-05
-5.12828e-06 2.89039e-05 1.77761e-06
-2.29482e-05 1.77761e-06 -0.000201828
0.00109488 0.000137628 4.85348e-05
0.000137628 -0.000434079 -2.04708e-06
4.85348e-05 -2.04708e-06 -0.000928173
0.000892089 -9.65695e-05 -7.21715e-07
-9.65695e-05 -0.000388225 1.11244e-05
-7.21715e-07 1.11244e-05 -0.000346912
0.00211912 0.00011718 4.30238e-05
0.00011718 0.000315067 -1.41683e-05
4.30238e-05 -1.41683e-05 8.35482e-05
0.00204559 -1.17387e-05 5.9464e-06
-1.17387e-05 0.000105979 -1.73246e-06
5.9464e-06 -1.73246e-06 7.29985e-05
0.00151601 6.88423e-05 4.51782e-07
6.88423e-05 8.78409e-05 -3.89822e-06
4.51782e-07 -3.89822e-06 1.22889e-05
0.00136036 4.19524e-05 -3.72191e-06
4.19524e-05 -0.000187936 -9.70514e-07
-3.72191e-06 -9.70514e-07 -0.000261015
0.00119241 4.29754e-05 -4.16441e-06
4.29754e-05 -0.000185087 -3.96342e-06
-4.16441e-06 -3.96342e-06 -0.000279748
0.00158002 -9.53024e-05 1.17106e-05
-9.53024e-05 -0.000166435 -1.8338e-06
1.17106e-05 -1.8338e-06 -0.000204661
0.00192381 -2.76795e-05 3.70846e-06
-2.76795e-05 8.88372e-05 8.984e-07
3.70846e-06 8.984e-07 4.35142e-05
0.00184164 4.5132e-06 -7.31877e-07
4.5132e-06 0.000144393 6.27809e-08
-7.31877e-07 6.27809e-08 7.0866e-05
0.00173965 -7.16778e-05 2.89962e-06
-7.16778e-05 6.53586e-05 -4.20562e-07
2.89962e-06 -4.20562e-07 3.16348e-05
0.00180511 -4.26573e-05 3.61751e-08
-4.26573e-05 0.000115103 -4.4575e-07
3.61751e-08 -4.4575e-07 6.45236e-05
0.00180788 -2.67993e-05 -3.77345e-07
-2.67993e-05 0.000154101 1.37566e-06
-3.77345e-07 1.37566e-06 8.2486e-05
0.00154315 -6.66648e-05 2.82372e-07
-6.66648e-05 4.27939e-05 2.58951e-07
2.82372e-07 2.58951e-07 -3.07947e-06
0.00161564 -5.55326e-05 -8.68802e-07
-5.55326e-05 9.26117e-05 -1.14549e-06
-8.68802e-07 -1.14549e-06 3.52575e-05
0.0014528 -5.0754e-05 4.17891e-07
-5.0754e-05 3.6261e-05 1.80932e-06
4.17891e-07 1.80932e-06 -3.88409e-05
0.00134634 -6.66948e-05 -9.39582e-07
-6.66948e-05 1.03873e-05 -6.72456e-07
-9.39582e-07 -6.72456e-07 -4.68025e-05
0.00140017 -6.18661e-05 2.03709e-07
-6.18661e-05 5.27402e-05 -6.75445e-07
2.03709e-07 -6.75445e-07 -1.67359e-05
0.00139345 -6.2187e-05 4.73535e-07
-6.2187e-05 6.73428e-05 1.23563e-07
4.73535e-07 1.23563e-07 -1.13791e-05
0.00132197 -6.46012e-05 -1.75515e-06
-6.46012e-05 4.14352e-05 1.46375e-06
-1.75515e-06 1.46375e-06 -2.70048e-05
0.00143999 -6.58042e-05 -2.65482e-07
-6.58042e-05 0.00011678 -4.36788e-07
-2.65482e-07 -4.36788e-07 3.93473e-05
0.00135426 -6.31605e-05 -8.45921e-07
-6.31605e-05 9.64178e-05 -2.40757e-07
-8.45921e-07 -2.40757e-07 1.54333e-05
0.00135655 -7.21092e-05 1.13776e-06
-7.21092e-05 0.000106221 3.24868e-07
1.13776e-06 3.24868e-07 2.09406e-05
0.00123439 -6.75697e-05 2.6064e-07
-6.75697e-05 6.71113e-05 -1.88262e-07
2.6064e-07 -1.88262e-07 -1.69041e-05
0.00123057 -6.28258e-05 -2.14768e-06
-6.28258e-05 9.66902e-05 7.63845e-07
-2.14768e-06 7.63845e-07 1.74032e-05
0.00091346 -3.81662e-05 -2.9009e-06
-3.81662e-05 1.58325e-05 1.57864e-06
-2.9009e-06 1.57864e-06 -5.01431e-05
0.000920706 -5.8939e-05 -5.91608e-07
-5.8939e-05 -2.08242e-05 4.1467e-07
-5.91608e-07 4.1467e-07 -0.000100593
0.00111643 -6.99772e-05 1.05372e-06
-6.99772e-05 5.37091e-05 -5.27137e-07
1.05372e-06 -5.27137e-07 -3.38603e-05
0.000673207 1.88961e-05 -4.44296e-06
1.88961e-05 -5.48981e-05 3.71964e-06
-4.44296e-06 3.71964e-06 -8.82065e-05
0.000897922 -2.69174e-05 9.78672e-08
-2.69174e-05 2.70187e-05 5.3553e-08
9.78672e-08 5.3553e-08 -3.68749e-05
0.00108688 -6.20629e-05 1.68564e-06
-6.20629e-05 8.93151e-05 -1.05922e-06
1.68564e-06 -1.05922e-06 1.13224e-05
0.00279826 6.29145e-05 -2.928e-05
6.29145e-05 0.00103183 3.28937e-06
-2.928e-05 3.28937e-06 0.00103712
0.00072348 3.24159e-05 1.50508e-07
3.24159e-05 -3.75414e-05 -7.25237e-08
1.50508e-07 -7.25237e-08 -6.56185e-05
0.000928054 -1.67624e-05 2.63063e-06
-1.67624e-05 4.52414e-05 -1.62047e-06
2.63063e-06 -1.62047e-06 -1.54782e-05
0.00269154 5.7304e-05 4.19315e-07
5.7304e-05 0.000969872 1.04108e-07
4.19315e-07 1.04108e-07 0.000977615
0.000768374 3.9315e-05 3.67219e-06
3.9315e-05 -1.99993e-05 -3.61875e-06
3.67219e-06 -3.61875e-06 -4.39978e-05
0.00259837 5.20665e-05 2.69762e-05
5.20665e-05 0.000915976 -3.55954e-06
2.69762e-05 -3.55954e-06 0.000925852
0.000921983 6.49336e-05 -6.27897e-07
6.49336e-05 2.19361e-05 -6.10943e-07
-6.27897e-07 -6.10943e-07 -6.29928e-05
0.0010296 6.26271e-05 -2.90169e-08
6.26271e-05 9.01077e-05 -3.13726e-07
-2.90169e-08 -3.13726e-07 9.03245e-06
0.00106819 4.98339e-05 -1.17935e-06
4.98339e-05 0.000105901 -2.72648e-07
-1.17935e-06 -2.72648e-07 3.18341e-05
0.00115142 6.23506e-05 5.07981e-07
6.23506e-05 0.000150533 -3.44509e-07
5.07981e-07 -3.44509e-07 7.29689e-05
0.000977996 2.83704e-05 -4.31131e-07
2.83704e-05 6.23651e-05 -1.62663e-07
-4.31131e-07 -1.62663e-07 -8.933e-06
0.000876971 5.47249e-06 -2.5033e-06
5.47249e-06 1.88425e-05 -1.44886e-06
-2.5033e-06 -1.44886e-06 -3.83392e-05
0.000908323 1.01389e-05 7.11395e-07
1.01389e-05 2.34999e-05 2.80392e-07
7.11395e-07 2.80392e-07 -4.61613e-05
0.000868968 -1.03125e-05 -3.71207e-08
-1.03125e-05 9.00701e-06 4.37399e-08
-3.71207e-08 4.37399e-08 -4.31971e-05
0.00077068 -3.91859e-05 -3.3137e-06
-3.91859e-05 -2.85936e-05 -3.6626e-06
-3.3137e-06 -3.6626e-06 -4.81522e-05
0.000872438 -1.70189e-05 2.02182e-06
-1.70189e-05 5.74632e-06 2.45731e-06
2.02182e-06 2.45731e-06 -4.08542e-05
0.000774678 -3.24144e-05 -6.80447e-08
-3.24144e-05 -3.69714e-05 -1.98987e-08
-6.80447e-08 -1.98987e-08 -5.1847e-05
0.00249842 -4.68334e-05 -2.50149e-05
-4.68334e-05 0.000855782 -3.58321e-06
-2.50149e-05 -3.58321e-06 0.000868186
0.000781826 -2.72133e-05 3.22076e-06
-2.72133e-05 -4.12707e-05 3.67226e-06
3.22076e-06 3.67226e-06 -5.24131e-05
0.00242685 -4.19953e-05 -3.77625e-07
-4.19953e-05 0.0008109 6.7299e-08
-3.77625e-07 6.7299e-08 0.00082562
0.00240226 -3.75964e-05 2.07736e-05
-3.75964e-05 0.000790777 3.76215e-06
2.07736e-05 3.76215e-06 0.000807246
0.000894249 -4.39958e-05 -4.16459e-06
-4.39958e-05 -0.000273624 1.16017e-06
-4.16459e-06 1.16017e-06 -0.000307875
0.00249357 -1.37544e-05 -3.82991e-06
-1.37544e-05 0.000355123 7.49178e-06
-3.82991e-06 7.49178e-06 9.1573e-05
0.00496772 4.54627e-05 -6.94508e-05
4.54627e-05 0.00147116 -1.05995e-05
-6.94508e-05 -1.05995e-05 0.000929652
0.000876346 6.57719e-05 1.5768e-06
6.57719e-05 -1.97668e-05 9.17716e-07
1.5768e-06 9.17716e-07 -0.000101228
0.00134949 8.47439e-05 2.41411e-06
8.47439e-05 0.000163307 -9.45333e-07
2.41411e-06 -9.45333e-07 7.15244e-05
0.000863425 6.6821e-05 2.51773e-07
6.6821e-05 -4.68543e-06 -3.98533e-07
2.51773e-07 -3.98533e-07 -9.14156e-05
0.00114368 7.09258e-05 6.23044e-07
7.09258e-05 0.000157874 -1.25168e-06
6.23044e-07 -1.25168e-06 7.42121e-05
0.00101402 6.80571e-05 -1.32792e-07
6.80571e-05 9.32357e-05 -4.69317e-07
-1.32792e-07 -4.69317e-07 7.8291e-06
0.00100383 7.26073e-05 1.13936e-06
7.26073e-05 7.01243e-05 8.06085e-07
1.13936e-06 8.06085e-07 -9.35744e-06
0.00144808 9.99575e-05 -2.41818e-06
9.99575e-05 0.000148456 -2.91024e-06
-2.41818e-06 -2.91024e-06 5.20474e-05
0.00145534 9.14362e-05 1.98916e-06
9.14362e-05 0.000284745 -5.1764e-08
1.98916e-06 -5.1764e-08 0.000198707
0.0008896 8.47094e-05 -1.4382e-06
8.47094e-05 -1.22454e-05 3.7317e-06
-1.4382e-06 3.7317e-06 -0.000104188
0.00145361 0.000109112 -1.14927e-06
0.000109112 0.000143752 -2.3487e-07
-1.14927e-06 -2.3487e-07 3.94422e-05
0.00127698 9.21973e-05 -3.26321e-06
9.21973e-05 -0.000100134 -1.619e-06
-3.26321e-06 -1.619e-06 -0.00021146
0.00194047 2.9455e-05 -2.83385e-06
2.9455e-05 7.3798e-05 4.3336e-06
-2.83385e-06 4.3336e-06 -2.20317e-06
0.00191596 0.000111689 1.5614e-06
0.000111689 0.000153727 1.4212e-06
1.5614e-06 1.4212e-06 4.13919e-05
0.00114323 0.000109792 -8.95932e-07
0.000109792 -4.90974e-05 3.02511e-06
-8.95932e-07 3.02511e-06 -0.000166136
0.00141561 -9.29698e-06 5.07934e-07
-9.29698e-06 -9.58929e-05 7.54827e-08
5.07934e-07 7.54827e-08 -0.000116003
0.00336746 -7.70833e-05 4.83922e-05
-7.70833e-05 0.000460673 2.58488e-05
4.83922e-05 2.58488e-05 0.000199123
0.00204529 9.84098e-05 -3.36815e-06
9.84098e-05 0.000195695 -3.41162e-06
-3.36815e-06 -3.41162e-06 0.000145443
0.00205719 1.03129e-05 -3.10477e-06
1.03129e-05 0.000319758 -3.22595e-06
-3.10477e-06 -3.22595e-06 0.000254811
0.00150768 -1.97672e-05 5.78839e-07
-1.97672e-05 0.000145244 3.37566e-08
5.78839e-07 3.37566e-08 6.68116e-05
0.000856117 5.4975e-05 5.5336e-05
5.4975e-05 -0.000176562 6.919e-07
5.5336e-05 6.919e-07 -0.000467169
0.000890384 -2.33059e-05 4.58012e-06
-2.33059e-05 -0.0004973 3.33563e-06
4.58012e-06 3.33563e-06 -0.000521865
0.00187726 7.60991e-05 -1.04077e-05
7.60991e-05 0.000286094 2.0124e-06
-1.04077e-05 2.0124e-06 0.00021426
0.00158503 4.49592e-05 -2.05667e-06
4.49592e-05 -8.261e-05 4.16734e-06
-2.05667e-06 4.16734e-06 -0.000152492
0.00164027 5.09652e-05 5.50842e-07
5.09652e-05 3.3008e-05 9.64327e-07
5.50842e-07 9.64327e-07 -5.77962e-05
0.0017143 3.891e-05 -3.6614e-06
3.891e-05 8.70029e-05 6.20629e-08
-3.6614e-06 6.20629e-08 3.20939e-06
0.00144734 3.57021e-05 -1.8975e-06
3.57021e-05 -1.59692e-05 -1.91596e-06
-1.8975e-06 -1.91596e-06 -9.06419e-05
0.00148612 -2.76208e-05 7.79381e-06
-2.76208e-05 -0.000127899 -1.11753e-06
7.79381e-06 -1.11753e-06 -0.000176995
0.00177025 3.83432e-06 -1.17161e-06
3.83432e-06 0.000100946 -5.20666e-07
-1.17161e-06 -5.20666e-07 2.93565e-05
0.00167424 1.52716e-05 -3.28071e-07
1.52716e-05 8.35475e-05 -6.48112e-07
-3.28071e-07 -6.48112e-07 -2.36675e-07
0.00188552 -4.40818e-05 -1.95178e-06
-4.40818e-05 0.00015806 -1.97304e-06
-1.95178e-06 -1.97304e-06 0.000106272
0.00171743 -2.67229e-05 -1.46221e-07
-2.67229e-05 0.00011228 -5.1331e-07
-1.46221e-07 -5.1331e-07 4.17393e-05
0.00150279 -2.01953e-05 -3.96283e-07
-2.01953e-05 2.64265e-05 1.2997e-06
-3.96283e-07 1.2997e-06 -5.54242e-05
0.00154988 -5.6949e-05 -3.2564e-06
-5.6949e-05 7.05658e-05 -2.64819e-06
-3.2564e-06 -2.64819e-06 1.38627e-05
0.00148881 -5.03591e-05 3.15482e-07
-5.03591e-05 5.35705e-05 -5.41834e-08
3.15482e-07 -5.41834e-08 -2.15893e-05
0.00145643 -5.20503e-05 -9.33588e-08
-5.20503e-05 5.87606e-05 1.16587e-06
-9.33588e-08 1.16587e-06 -2.43493e-05
0.00137899 -6.12432e-05 -1.19127e-06
-6.12432e-05 4.30736e-05 -1.51672e-06
-1.19127e-06 -1.51672e-06 -2.64246e-05
0.00139514 -6.14684e-05 6.46977e-08
-6.14684e-05 6.7837e-05 -4.69387e-07
6.46977e-08 -4.69387e-07 -1.07983e-05
0.00135318 -6.0466e-05 -6.92319e-07
-6.0466e-05 7.00888e-05 2.51851e-07
-6.92319e-07 2.51851e-07 -1.23028e-05
0.00130075 -6.22774e-05 -3.66824e-07
-6.22774e-05 4.62357e-05 4.96118e-07
-3.66824e-07 4.96118e-07 -3.03883e-05
0.00124546 -6.08172e-05 -1.92287e-07
-6.08172e-05 4.24098e-05 -1.91875e-07
-1.92287e-07 -1.91875e-07 -3.83759e-05
0.00121249 -5.73053e-05 -2.16313e-06
-5.73053e-05 6.07855e-05 4.87642e-07
-2.16313e-06 4.87642e-07 -1.77145e-05
0.00107895 -6.38221e-05 1.54623e-06
-6.38221e-05 -1.00165e-05 -3.11897e-07
1.54623e-06 -3.11897e-07 -9.45996e-05
0.00106341 -5.84203e-05 1.08705e-07
-5.84203e-05 1.40865e-05 5.22859e-08
1.08705e-07 5.22859e-08 -6.53014e-05
0.000971378 -4.23602e-05 -3.343e-06
-4.23602e-05 1.73158e-05 1.46166e-06
-3.343e-06 1.46166e-06 -4.94685e-05
0.000676801 8.70469e-08 -5.66889e-06
8.70469e-08 -5.39924e-05 3.73738e-06
-5.66889e-06 3.73738e-06 -9.16723e-05
0.000933923 -3.98726e-05 6.96133e-08
-3.98726e-05 2.63406e-05 7.34162e-08
6.96133e-08 7.34162e-08 -3.97858e-05
0.00103385 -6.17327e-05 1.19554e-06
-6.17327e-05 3.78004e-05 -5.82598e-07
1.19554e-06 -5.82598e-07 -4.13762e-05
0.00288402 6.81856e-05 -3.03807e-05
6.81856e-05 0.00108868 3.20222e-06
-3.03807e-05 3.20222e-06 0.00109036
0.000733387 1.65328e-05 -4.76242e-08
1.65328e-05 -2.79105e-05 -6.93444e-08
-4.76242e-08 -6.93444e-08 -6.12033e-05
0.000947132 -3.04769e-05 2.93083e-06
-3.04769e-05 5.08928e-05 -1.63112e-06
2.93083e-06 -1.63112e-06 -1.31497e-05
0.00277688 6.24254e-05 3.73186e-07
6.24254e-05 0.00102323 1.01544e-07
3.73186e-07 1.01544e-07 0.001028
0.000783605 2.91043e-05 4.85149e-06
2.91043e-05 -8.20181e-06 -3.52458e-06
4.85149e-06 -3.52458e-06 -3.63508e-05
0.00268325 5.70047e-05 2.86425e-05
5.70047e-05 0.000966828 -3.48396e-06
2.86425e-05 -3.48396e-06 0.00097422
0.000715162 6.36461e-05 -3.03615e-07
6.36461e-05 -0.000114413 -5.60666e-07
-3.03615e-07 -5.60666e-07 -0.000204954
0.000796339 6.12697e-05 -1.55221e-08
6.12697e-05 -4.28431e-05 -1.02771e-07
-1.55221e-08 -1.02771e-07 -0.00012825
0.00110779 5.89412e-05 -1.45038e-06
5.89412e-05 0.000111675 -3.30321e-07
-1.45038e-06 -3.30321e-07 3.46249e-05
0.000980788 6.084e-05 2.84251e-07
6.084e-05 6.54226e-05 -2.81672e-07
2.84251e-07 -2.81672e-07 -1.53488e-05
0.00100626 4.71173e-05 -8.02361e-08
4.71173e-05 7.56027e-05 -8.54155e-08
-8.02361e-08 -8.54155e-08 1.74693e-06
0.000909717 1.01384e-05 -2.60956e-06
1.01384e-05 4.07165e-05 -1.26809e-06
-2.60956e-06 -1.26809e-06 -2.02789e-05
0.000995658 3.10648e-05 8.15312e-07
3.10648e-05 7.17888e-05 -1.1724e-07
8.15312e-07 -1.1724e-07 8.4678e-07
0.000873764 -8.44024e-07 1.0635e-07
-8.44024e-07 1.92452e-05 5.83714e-08
1.0635e-07 5.83714e-08 -3.81281e-05
0.000759205 -4.39577e-05 -3.14078e-06
-4.39577e-05 -2.42612e-05 -3.56476e-06
-3.14078e-06 -3.56476e-06 -4.86099e-05
0.00087673 -1.6492e-05 2.25992e-06
-1.6492e-05 1.41821e-05 2.09908e-06
2.25992e-06 2.09908e-06 -3.81502e-05
0.000748966 -3.79207e-05 -3.20126e-08
-3.79207e-05 -4.07708e-05 -1.71591e-08
-3.20126e-08 -1.71591e-08 -5.9894e-05
0.00257987 -5.20438e-05 -2.6572e-05
-5.20438e-05 0.000905107 -3.4565e-06
-2.6572e-05 -3.4565e-06 0.000915222
0.000756843 -3.10881e-05 3.67069e-06
-3.10881e-05 -4.68753e-05 3.7093e-06
3.67069e-06 3.7093e-06 -6.13464e-05
0.00250255 -4.69001e-05 -3.25586e-07
-4.69001e-05 0.000856785 7.4102e-08
-3.25586e-07 7.4102e-08 0.000869462
0.00244107 -4.21326e-05 2.24221e-05
-4.21326e-05 0.000817155 3.64886e-06
2.24221e-05 3.64886e-06 0.00083206
0.00164775 -2.96323e-05 1.89125e-06
-2.96323e-05 -1.58093e-05 1.78825e-06
1.89125e-06 1.78825e-06 -7.0765e-05
0.00108903 -5.03198e-05 6.8191e-07
-5.03198e-05 -0.000174744 4.89982e-07
6.8191e-07 4.89982e-07 -0.000213122
0.00104143 -4.83383e-05 4.6368e-05
-4.83383e-05 -0.000178599 1.74871e-05
4.6368e-05 1.74871e-05 -0.000365341
0.00185114 9.69349e-05 6.20151e-07
9.69349e-05 0.000356415 -2.06131e-06
6.20151e-07 -2.06131e-06 0.000266263
0.000877578 6.7192e-05 -8.27918e-07
6.7192e-05 -6.51566e-06 4.27749e-07
-8.27918e-07 4.27749e-07 -8.44595e-05
0.000748388 7.11472e-05 -2.98934e-06
7.11472e-05 -0.000207832 9.82228e-08
-2.98934e-06 9.82228e-08 -0.000304635
0.00133071 8.43261e-05 2.14124e-07
8.43261e-05 0.000152901 9.71477e-08
2.14124e-07 9.71477e-08 6.05257e-05
0.000550341 5.7772e-05 -1.50542e-06
5.7772e-05 -0.000152026 6.32427e-07
-1.50542e-06 6.32427e-07 -0.000238257
0.00173253 9.22439e-05 -3.2474e-06
9.22439e-05 0.000157468 -3.79555e-06
-3.2474e-06 -3.79555e-06 5.24578e-05
0.00127037 8.18511e-05 4.73258e-08
8.18511e-05 0.000194516 -3.99429e-07
4.73258e-08 -3.99429e-07 0.000113929
0.00142981 9.79478e-05 -4.82606e-08
9.79478e-05 0.000133179 3.26474e-07
-4.82606e-08 3.26474e-07 3.68733e-05
0.00158851 3.80121e-05 -1.72342e-07
3.80121e-05 -1.55864e-05 3.09693e-06
-1.72342e-07 3.09693e-06 -0.000107074
0.00144482 0.000108699 1.73915e-06
0.000108699 0.000143138 2.78277e-06
1.73915e-06 2.78277e-06 4.01144e-05
0.00155368 9.92168e-05 -1.04329e-06
9.92168e-05 3.06064e-05 -8.12717e-07
-1.04329e-06 -8.12717e-07 -8.19803e-05
0.00190851 3.17004e-05 -7.94702e-08
3.17004e-05 6.94831e-05 1.02057e-06
-7.94702e-08 1.02057e-06 -8.79037e-06
0.00178795 0.000106504 2.48255e-06
0.000106504 9.57274e-05 1.41238e-06
2.48255e-06 1.41238e-06 -1.64629e-05
0.00163579 -2.54241e-06 -5.10275e-06
-2.54241e-06 1.23727e-05 -6.18196e-06
-5.10275e-06 -6.18196e-06 -6.43961e-06
0.00167767 4.23356e-08 -1.31429e-06
4.23356e-08 0.000118104 -1.69539e-06
-1.31429e-06 -1.69539e-06 5.43384e-05
0.00161283 7.75851e-06 6.79181e-07
7.75851e-06 8.77861e-05 1.90716e-07
6.79181e-07 1.90716e-07 2.29363e-05
0.000559264 -1.41796e-05 -2.41768e-07
-1.41796e-05 -0.000313502 2.58515e-06
-2.41768e-07 2.58515e-06 -0.000394289
0.00184741 4.8981e-05 5.2127e-07
4.8981e-05 4.0003e-05 -4.94619e-08
5.2127e-07 -4.94619e-08 -2.71815e-05
0.00215532 5.94255e-05 1.35778e-05
5.94255e-05 0.000287319 4.30502e-06
1.35778e-05 4.30502e-06 0.000200128
0.00186505 4.13923e-05 -3.1127e-06
4.13923e-05 0.000152604 -1.8016e-07
-3.1127e-06 -1.8016e-07 6.86969e-05
0.00160648 3.57253e-05 8.78563e-07
3.57253e-05 6.71859e-05 1.84744e-06
8.78563e-07 1.84744e-06 -7.345e-06
0.00166493 3.42521e-05 -1.88747e-06
3.42521e-05 9.96198e-05 -1.73529e-06
-1.88747e-06 -1.73529e-06 1.9507e-05
0.00176062 2.80373e-06 -1.95115e-06
2.80373e-06 9.07109e-05 -1.44019e-06
-1.95115e-06 -1.44019e-06 2.05423e-05
0.00172229 1.47183e-05 -2.64923e-08
1.47183e-05 0.000106215 -2.00909e-07
-2.64923e-08 -2.00909e-07 2.2989e-05
0.00161201 1.91604e-05 -1.41656e-06
1.91604e-05 6.79086e-05 -9.19912e-07
-1.41656e-06 -9.19912e-07 -1.87682e-05
0.00163715 -2.69131e-05 -7.76283e-07
-2.69131e-05 7.59269e-05 -1.92775e-06
-7.76283e-07 -1.92775e-06 6.37302e-06
0.00155863 -2.04996e-05 2.06094e-07
-2.04996e-05 5.35923e-05 5.06384e-07
2.06094e-07 5.06384e-07 -2.85768e-05
0.00154242 -2.10461e-05 -9.87872e-07
-2.10461e-05 6.4402e-05 5.02807e-07
-9.87872e-07 5.02807e-07 -2.24584e-05
0.00152209 -4.98844e-05 -1.4655e-07
-4.98844e-05 6.95775e-05 -1.83878e-06
-1.4655e-07 -1.83878e-06 -5.64055e-06
0.00147484 -5.11185e-05 2.14007e-07
-5.11185e-05 6.69267e-05 8.75352e-08
2.14007e-07 8.75352e-08 -1.62188e-05
0.00142001 -5.27183e-05 -1.09549e-06
-5.27183e-05 6.66896e-05 7.86205e-07
-1.09549e-06 7.86205e-07 -1.88917e-05
0.00139728 -6.08151e-05 -3.50393e-07
-6.08151e-05 6.85646e-05 -1.04756e-06
-3.50393e-07 -1.04756e-06 -9.98778e-06
0.00135495 -6.0025e-05 1.44416e-08
-6.0025e-05 7.04462e-05 -2.71173e-07
1.44416e-08 -2.71173e-07 -1.18816e-05
0.00125498 -5.47505e-05 -2.06139e-06
-5.47505e-05 5.44864e-05 5.82643e-07
-2.06139e-06 5.82643e-07 -2.57274e-05
0.00113452 -5.83896e-05 6.89665e-07
-5.83896e-05 -1.26675e-05 -9.00606e-08
6.89665e-07 -9.00606e-08 -9.32455e-05
0.0012007 -5.65703e-05 -1.02929e-08
-5.65703e-05 5.49821e-05 -5.15758e-08
-1.02929e-08 -5.15758e-08 -2.3393e-05
0.00102488 -4.2011e-05 -3.76183e-06
-4.2011e-05 1.73601e-05 1.44219e-06
-3.76183e-06 1.44219e-06 -4.99151e-05
0.000888682 -5.37607e-05 1.90159e-06
-5.37607e-05 -7.22193e-05 -5.74836e-07
1.90159e-06 -5.74836e-07 -0.000151699
0.000975515 -4.28452e-05 9.2631e-08
-4.28452e-05 2.00831e-05 3.34153e-08
9.2631e-08 3.34153e-08 -4.68241e-05
0.00165998 7.37171e-06 -7.01467e-06
7.37171e-06 0.000448632 2.16755e-06
-7.01467e-06 2.16755e-06 0.000412805
0.00111922 3.58554e-05 -3.1309e-05
3.58554e-05 0.00019306 6.19062e-06
-3.1309e-05 6.19062e-06 0.000179366
0.00122448 7.19241e-06 -1.27533e-06
7.19241e-06 0.000223179 -1.84467e-08
-1.27533e-06 -1.84467e-08 0.000188232
0.000961331 -4.14858e-05 3.17459e-06
-4.14858e-05 4.02844e-05 -1.44835e-06
3.17459e-06 -1.44835e-06 -2.60024e-05
0.00290792 6.77091e-05 4.81834e-07
6.77091e-05 0.00110349 1.323e-07
4.81834e-07 1.323e-07 0.00110443
0.000799493 1.12346e-05 5.68382e-06
1.12346e-05 1.63171e-06 -3.5181e-06
5.68382e-06 -3.5181e-06 -3.11771e-05
0.00276569 6.15816e-05 3.06281e-05
6.15816e-05 0.00101954 -3.42071e-06
3.06281e-05 -3.42071e-06 0.00102385
0.00118382 7.55107e-05 -1.23064e-06
7.55107e-05 -2.89183e-05 2.19473e-07
-1.23064e-06 2.19473e-07 -0.000117455
0.000812963 6.89496e-05 8.03479e-07
6.89496e-05 -0.000106343 4.58418e-07
8.03479e-07 4.58418e-07 -0.000199864
0.000840914 6.77853e-05 -1.4499e-07
6.77853e-05 -5.69859e-05 -9.0204e-08
-1.4499e-07 -9.0204e-08 -0.000148331
0.00112577 6.4723e-05 -1.51131e-06
6.4723e-05 0.000100256 -5.67648e-07
-1.51131e-06 -5.67648e-07 2.04582e-05
0.000660634 5.72811e-05 1.80334e-07
5.72811e-05 -0.000112745 4.32361e-07
1.80334e-07 4.32361e-07 -0.000198593
0.00103492 5.5577e-05 -1.78954e-07
5.5577e-05 7.61908e-05 -4.90222e-08
-1.78954e-07 -4.90222e-08 -4.93392e-07
0.000937553 2.20296e-05 -2.78803e-06
2.20296e-05 5.35023e-05 -9.99217e-07
-2.78803e-06 -9.99217e-07 -9.6176e-06
0.000949029 4.45461e-05 1.1573e-06
4.45461e-05 4.76462e-05 1.93931e-07
1.1573e-06 1.93931e-07 -2.60077e-05
0.000864651 6.69002e-06 9.80561e-08
6.69002e-06 1.97958e-05 1.2887e-07
9.80561e-08 1.2887e-07 -4.13437e-05
0.000765571 -3.54166e-05 -4.29805e-06
-3.54166e-05 -1.41016e-05 -3.33512e-06
-4.29805e-06 -3.33512e-06 -4.2649e-05
0.000869869 -7.53913e-06 2.2796e-06
-7.53913e-06 1.93352e-05 1.58803e-06
2.2796e-06 1.58803e-06 -3.82265e-05
0.000718335 -4.26163e-05 -1.13906e-08
-4.26163e-05 -4.57955e-05 -4.44637e-08
-1.13906e-08 -4.44637e-08 -6.97583e-05
0.00264885 -5.71988e-05 -2.80176e-05
-5.71988e-05 0.000949483 -3.3751e-06
-2.80176e-05 -3.3751e-06 0.000956969
0.000723918 -3.62669e-05 3.86439e-06
-3.62669e-05 -5.4679e-05 3.67907e-06
3.86439e-06 3.67907e-06 -7.33269e-05
0.00258844 -5.21796e-05 -2.90516e-07
-5.21796e-05 0.000908279 8.2836e-08
-2.90516e-07 8.2836e-08 0.000918684
0.00250838 -4.6973e-05 2.41113e-05
-4.6973e-05 0.000858601 3.54258e-06
2.41113e-05 3.54258e-06 0.000871554
0.00159691 -2.02021e-05 1.26767e-06
-2.02021e-05 2.51447e-05 2.41227e-06
1.26767e-06 2.41227e-06 -4.70367e-05
0.00179279 -2.88415e-05 8.2408e-07
-2.88415e-05 7.94054e-05 -1.42405e-06
8.2408e-07 -1.42405e-06 2.35303e-05
0.00151327 -6.18001e-05 2.51098e-06
-6.18001e-05 3.08272e-05 -2.33843e-06
2.51098e-06 -2.33843e-06 -1.29706e-05
0.00154599 8.26882e-05 -5.12765e-06
8.26882e-05 8.7847e-05 -2.52701e-06
-5.12765e-06 -2.52701e-06 -9.72793e-06
0.00155862 8.92615e-05 -9.39338e-08
8.92615e-05 0.000229024 4.3121e-07
-9.39338e-08 4.3121e-07 0.000141648
0.000805928 6.6974e-05 -4.59169e-06
6.6974e-05 -2.95467e-05 2.47281e-07
-4.59169e-06 2.47281e-07 -0.000103889
0.00135232 8.54346e-05 1.15694e-06
8.54346e-05 8.76556e-05 1.12368e-06
1.15694e-06 1.12368e-06 -7.45533e-06
0.00134422 8.46964e-05 -1.7583e-06
8.46964e-05 0.000158661 5.86019e-07
-1.7583e-06 5.86019e-07 6.56307e-05
0.00174813 3.82071e-05 -2.06619e-08
3.82071e-05 8.48965e-05 1.82194e-06
-2.06619e-08 1.82194e-06 -1.48735e-05
0.00164195 9.18685e-05 -2.00521e-06
9.18685e-05 0.000110079 -1.65172e-06
-2.00521e-06 -1.65172e-06 3.01405e-06
0.00142576 9.6684e-05 2.12176e-06
9.6684e-05 0.00012589 4.42934e-06
2.12176e-06 4.42934e-06 2.94553e-05
0.00175055 3.81228e-05 -3.27114e-07
3.81228e-05 6.59671e-05 6.56526e-07
-3.27114e-07 6.56526e-07 -2.65117e-05
0.00191337 0.000107963 3.096e-06
0.000107963 0.000199003 7.92265e-07
3.096e-06 7.92265e-07 8.5498e-05
0.00156787 2.92172e-05 2.44829e-07
2.92172e-05 -9.05782e-05 -2.16857e-06
2.44829e-07 -2.16857e-06 -0.000170942
0.00148798 8.04815e-07 -7.49859e-07
8.04815e-07 2.37932e-05 4.86935e-08
-7.49859e-07 4.86935e-08 -5.09156e-05
0.00162057 9.70121e-07 -2.84093e-07
9.70121e-07 8.42695e-05 -6.6664e-07
-2.84093e-07 -6.6664e-07 1.93446e-05
0.00107653 3.9483e-06 4.58621e-06
3.9483e-06 -0.000190315 5.36837e-06
4.58621e-06 5.36837e-06 -0.000254839
0.0020453 4.42284e-05 2.65771e-06
4.42284e-05 0.000231978 -1.24474e-07
2.65771e-06 -1.24474e-07 0.000148086
0.00172225 3.56105e-05 6.60195e-06
3.56105e-05 0.000127675 5.62144e-06
6.60195e-06 5.62144e-06 5.34582e-05
0.00170206 3.44625e-05 -1.0736e-06
3.44625e-05 0.000118287 -4.09733e-07
-1.0736e-06 -4.09733e-07 3.85122e-05
0.00160595 2.94684e-05 -1.44e-07
2.94684e-05 8.52971e-05 -8.55347e-07
-1.44e-07 -8.55347e-07 -5.88811e-07
0.00176298 1.39701e-05 8.55448e-07
1.39701e-05 0.000124721 -2.71186e-07
8.55448e-07 -2.71186e-07 4.21429e-05
0.00163594 1.72596e-05 -5.35837e-07
1.72596e-05 7.85943e-05 -7.14844e-08
-5.35837e-07 -7.14844e-08 -8.00332e-06
0.00157625 1.05133e-05 -2.00499e-06
1.05133e-05 6.75935e-05 -1.05824e-06
-2.00499e-06 -1.05824e-06 -2.03609e-05
0.00161273 -2.09687e-05 5.66133e-07
-2.09687e-05 8.01317e-05 -7.76053e-08
5.66133e-07 -7.76053e-08 -2.39645e-06
0.00155199 -2.14071e-05 7.51353e-08
-2.14071e-05 6.86221e-05 4.05812e-07
7.51353e-08 4.05812e-07 -1.83384e-05
0.00149828 -2.88051e-05 -1.76912e-06
-2.88051e-05 7.06334e-05 2.04634e-07
-1.76912e-06 2.04634e-07 -1.67204e-05
0.00149431 -5.01259e-05 7.24474e-07
-5.01259e-05 7.5615e-05 -9.7282e-07
7.24474e-07 -9.7282e-07 -7.56131e-06
0.00142832 -5.22904e-05 1.17431e-07
-5.22904e-05 7.00808e-05 1.46226e-07
1.17431e-07 1.46226e-07 -1.55288e-05
0.00132225 -4.91923e-05 -2.37922e-06
-4.91923e-05 5.54367e-05 8.38829e-07
-2.37922e-06 8.38829e-07 -2.74607e-05
0.0013561 -5.96166e-05 7.64372e-07
-5.96166e-05 7.05182e-05 -7.83595e-07
7.64372e-07 -7.83595e-07 -1.17503e-05
0.00125893 -5.43885e-05 7.90269e-09
-5.43885e-05 5.59819e-05 -1.36909e-07
7.90269e-09 -1.36909e-07 -2.41688e-05
0.00107255 -4.09943e-05 -4.19783e-06
-4.09943e-05 1.67371e-05 1.6412e-06
-4.19783e-06 1.6412e-06 -5.24119e-05
0.00118783 -5.58251e-05 1.88348e-06
-5.58251e-05 4.86549e-05 -5.10886e-07
1.88348e-06 -5.10886e-07 -2.9597e-05
0.00101973 -4.18604e-05 1.34861e-07
-4.18604e-05 1.50637e-05 -5.41069e-08
1.34861e-07 -5.41069e-08 -5.22981e-05
0.00171994 1.73342e-06 -7.20198e-06
1.73342e-06 0.000472524 2.28945e-06
-7.20198e-06 2.28945e-06 0.000434736
0.000982865 -4.35754e-05 3.42347e-06
-4.35754e-05 2.4457e-05 -1.2981e-06
3.42347e-06 -1.2981e-06 -4.25872e-05
0.00176287 2.40642e-06 7.56497e-06
2.40642e-06 0.000495734 -9.2786e-07
7.56497e-06 -9.2786e-07 0.000460103
0.00120192 3.11605e-05 -3.81742e-05
3.11605e-05 0.000250232 6.01983e-06
-3.81742e-05 6.01983e-06 0.00023193
0.00209195 5.25604e-05 -2.54229e-05
5.25604e-05 0.00069629 1.62201e-06
-2.54229e-05 1.62201e-06 0.000687935
0.00179875 8.02925e-06 1.89171e-05
8.02925e-06 0.000513051 -2.86262e-06
1.89171e-05 -2.86262e-06 0.00048152
0.00292286 6.60276e-05 3.39882e-05
6.60276e-05 0.00111344 -3.33177e-06
3.39882e-05 -3.33177e-06 0.00111381
0.00152738 7.55475e-05 -3.3407e-06
7.55475e-05 7.41118e-05 -1.80742e-06
-3.3407e-06 -1.80742e-06 -1.91549e-05
0.00143023 8.14702e-05 1.87369e-06
8.14702e-05 0.000148863 2.2594e-07
1.87369e-06 2.2594e-07 6.0277e-05
0.00117729 7.56511e-05 1.16961e-06
7.56511e-05 -2.07168e-05 7.24858e-07
1.16961e-06 7.24858e-07 -0.000104082
0.00113806 6.95682e-05 -1.59204e-06
6.95682e-05 8.09909e-05 -8.91988e-07
-1.59204e-06 -8.91988e-07 -3.11064e-06
0.00113169 7.87174e-05 -4.28137e-07
7.87174e-05 4.72406e-05 2.19253e-07
-4.28137e-07 2.19253e-07 -4.64812e-05
0.00100074 7.31649e-05 3.24819e-07
7.31649e-05 1.68407e-05 5.98986e-07
3.24819e-07 5.98986e-07 -7.53159e-05
0.00108418 6.33048e-05 -8.916e-08
6.33048e-05 8.21499e-05 -1.23299e-07
-8.916e-08 -1.23299e-07 2.21144e-06
0.000966845 3.54331e-05 -2.71194e-06
3.54331e-05 5.81869e-05 -1.04732e-06
-2.71194e-06 -1.04732e-06 -7.09212e-06
0.00096236 5.22664e-05 9.7646e-07
5.22664e-05 4.08658e-05 1.701e-07
9.7646e-07 1.701e-07 -3.54575e-05
0.000880927 1.80608e-05 -9.97801e-08
1.80608e-05 2.55202e-05 8.87982e-08
-9.97801e-08 8.87982e-08 -3.75199e-05
0.000779051 -2.67442e-05 -5.07095e-06
-2.67442e-05 -1.81245e-06 -3.11369e-06
-5.07095e-06 -3.11369e-06 -3.53085e-05
0.000825366 3.36317e-06 2.24708e-06
3.36317e-06 1.69445e-06 1.31046e-06
2.24708e-06 1.31046e-06 -5.95951e-05
0.000707044 -4.59413e-05 -3.63374e-08
-4.59413e-05 -4.18147e-05 -4.48201e-08
-3.63374e-08 -4.48201e-08 -7.11194e-05
0.00271641 -6.21331e-05 -2.97741e-05
-6.21331e-05 0.000996281 -3.27748e-06
-2.97741e-05 -3.27748e-06 0.00100051
0.000676229 -4.12369e-05 3.6016e-06
-4.12369e-05 -6.79472e-05 3.67268e-06
3.6016e-06 3.67268e-06 -9.15152e-05
0.00267098 -5.76177e-05 -2.95735e-07
-5.76177e-05 0.000959097 9.29464e-08
-2.95735e-07 9.29464e-08 0.000966936
0.00259655 -5.22434e-05 2.57302e-05
-5.22434e-05 0.000911146 3.41662e-06
2.57302e-05 3.41662e-06 0.00092186
0.00165925 -1.46697e-05 -6.31147e-07
-1.46697e-05 5.95381e-05 2.48109e-06
-6.31147e-07 2.48109e-06 -2.49163e-05
0.00164759 -1.94122e-05 4.69324e-07
-1.94122e-05 4.75232e-05 -2.62625e-07
4.69324e-07 -2.62625e-07 -2.44908e-05
0.00200272 -2.91076e-05 -2.28729e-06
-2.91076e-05 0.000207809 -4.51372e-06
-2.28729e-06 -4.51372e-06 0.000150965
0.00153767 4.08572e-05 -1.15301e-06
4.08572e-05 4.01374e-06 9.53655e-07
-1.15301e-06 9.53655e-07 -9.28692e-05
0.00158819 8.40929e-05 3.99818e-07
8.40929e-05 0.000110317 -6.78146e-07
3.99818e-07 -6.78146e-07 1.24935e-05
0.00133659 8.32866e-05 -1.44778e-06
8.32866e-05 0.000135233 1.7178e-06
-1.44778e-06 1.7178e-06 5.07289e-05
0.00187289 9.77926e-05 2.12843e-06
9.77926e-05 0.000341427 6.93398e-07
2.12843e-06 6.93398e-07 0.000248156
0.00189282 4.07524e-05 -5.49231e-07
4.07524e-05 0.000155554 -2.26425e-07
-5.49231e-07 -2.26425e-07 5.60584e-05
0.00162285 9.25786e-05 2.5233e-06
9.25786e-05 9.67335e-05 1.07369e-06
2.5233e-06 1.07369e-06 -1.21832e-05
0.00186848 3.78316e-05 6.99304e-07
3.78316e-05 0.000127138 -1.438e-06
6.99304e-07 -1.438e-06 3.35317e-05
0.00159734 6.24932e-07 1.05527e-06
6.24932e-07 7.32416e-05 5.12409e-07
1.05527e-06 5.12409e-07 -9.92457e-06
0.00150849 2.08924e-06 1.01288e-08
2.08924e-06 2.98318e-05 -3.49869e-07
1.01288e-08 -3.49869e-07 -4.65762e-05
0.0015541 3.09236e-06 7.60681e-07
3.09236e-06 4.75696e-05 1.17712e-06
7.60681e-07 1.17712e-06 -1.87336e-05
0.00159927 2.96607e-05 9.51826e-08
2.96607e-05 8.80869e-05 -4.23103e-08
9.51826e-08 -4.23103e-08 -2.13465e-06
0.00173098 3.45754e-05 1.47626e-06
3.45754e-05 0.000133415 1.364e-06
1.47626e-06 1.364e-06 5.39096e-05
0.00161111 2.98189e-05 1.91228e-07
2.98189e-05 8.74894e-05 2.35775e-07
1.91228e-07 2.35775e-07 1.43579e-06
0.00160678 2.54106e-05 -1.63071e-07
2.54106e-05 9.36645e-05 -6.34709e-07
-1.63071e-07 -6.34709e-07 5.20501e-06
0.00167848 1.55761e-05 7.88725e-07
1.55761e-05 9.83129e-05 8.05895e-07
7.88725e-07 8.05895e-07 1.18097e-05
0.00158224 1.04588e-05 -6.75429e-07
1.04588e-05 7.10758e-05 -5.09125e-08
-6.75429e-07 -5.09125e-08 -1.6885e-05
0.00153986 3.8382e-06 -2.63529e-06
3.8382e-06 7.69455e-05 -5.12315e-07
-2.63529e-06 -5.12315e-07 -1.11962e-05
0.00156193 -2.11184e-05 1.72975e-06
-2.11184e-05 7.30162e-05 2.87139e-07
1.72975e-06 2.87139e-07 -1.40395e-05
0.00149252 -2.73321e-05 5.01872e-08
-2.73321e-05 6.79373e-05 1.94924e-07
5.01872e-08 1.94924e-07 -1.95067e-05
0.00139365 -3.43317e-05 -2.92302e-06
-3.43317e-05 6.05357e-05 4.02821e-07
-2.92302e-06 4.02821e-07 -2.35574e-05
0.00143842 -5.18326e-05 1.58344e-06
-5.18326e-05 7.43441e-05 -5.03981e-07
1.58344e-06 -5.03981e-07 -1.12888e-05
0.0013264 -4.88248e-05 6.55135e-08
-4.88248e-05 5.70669e-05 1.38801e-07
6.55135e-08 1.38801e-07 -2.58288e-05
0.00112907 -3.77733e-05 -4.87469e-06
-3.77733e-05 1.94168e-05 1.83326e-06
-4.87469e-06 1.83326e-06 -5.22501e-05
0.0012625 -5.39647e-05 2.09215e-06
-5.39647e-05 5.73064e-05 -8.30397e-07
2.09215e-06 -8.30397e-07 -2.27798e-05
0.001073 -4.04904e-05 2.22211e-07
-4.04904e-05 1.6224e-05 -9.44895e-08
2.22211e-07 -9.44895e-08 -5.29703e-05
0.00178123 3.01847e-07 -7.08234e-06
3.01847e-07 0.000494329 2.40469e-06
-7.08234e-06 2.40469e-06 0.0004558
0.00101899 -4.17564e-05 3.7011e-06
-4.17564e-05 1.50276e-05 -1.3788e-06
3.7011e-06 -1.3788e-06 -5.24316e-05
0.00183769 -4.5067e-06 8.93975e-06
-4.5067e-06 0.000527081 -8.19823e-07
8.93975e-06 -8.19823e-07 0.000489747
0.00124815 2.38441e-05 -4.32712e-05
2.38441e-05 0.000282236 5.59607e-06
-4.32712e-05 5.59607e-06 0.000261846
0.00186631 -3.61808e-06 2.35722e-05
-3.61808e-06 0.000542921 -4.30959e-06
2.35722e-05 -4.30959e-06 0.00050766
0.00119445 3.88123e-05 -1.60655e-05
3.88123e-05 0.000250165 2.06889e-06
-1.60655e-05 2.06889e-06 0.000230876
0.00300096 8.13392e-05 1.24735e-05
8.13392e-05 0.00116896 -1.32709e-06
1.24735e-05 -1.32709e-06 0.00116443
0.00182706 5.21478e-05 -1.59746e-06
5.21478e-05 0.000183537 -4.836e-07
-1.59746e-06 -4.836e-07 8.66164e-05
0.00154783 7.41748e-05 -1.12604e-06
7.41748e-05 0.000125307 -1.71917e-06
-1.12604e-06 -1.71917e-06 3.50425e-05
0.0016008 7.84649e-05 -1.75276e-06
7.84649e-05 0.000120226 1.21022e-06
-1.75276e-06 1.21022e-06 2.77928e-05
0.00148502 7.73406e-05 -1.14391e-06
7.73406e-05 0.000211217 -8.70018e-08
-1.14391e-06 -8.70018e-08 0.000127175
0.00128611 7.90956e-05 4.34223e-07
7.90956e-05 7.56217e-05 -9.96983e-07
4.34223e-07 -9.96983e-07 -1.27093e-05
0.00128076 7.80689e-05 3.24183e-06
7.80689e-05 4.2392e-05 1.19768e-06
3.24183e-06 1.19768e-06 -3.60395e-05
0.00100192 4.81021e-05 -3.05878e-06
4.81021e-05 5.37786e-05 -1.49973e-06
-3.05878e-06 -1.49973e-06 -1.57211e-05
0.00112988 6.95297e-05 -8.1152e-08
6.95297e-05 7.67982e-05 -9.11539e-08
-8.1152e-08 -9.11539e-08 -7.37212e-06
0.00141954 8.74354e-05 1.72237e-06
8.74354e-05 0.00018646 9.60458e-07
1.72237e-06 9.60458e-07 9.24692e-05
0.00102462 6.12517e-05 1.16744e-06
6.12517e-05 5.51005e-05 2.29899e-07
1.16744e-06 2.29899e-07 -2.49343e-05
0.00091691 3.37121e-05 -7.60169e-08
3.37121e-05 3.38801e-05 -9.06639e-08
-7.60169e-08 -9.06639e-08 -3.1254e-05
0.000795675 -3.84489e-08 -5.86501e-06
-3.84489e-08 7.4728e-06 -3.2294e-06
-5.86501e-06 -3.2294e-06 -2.99506e-05
0.000811643 1.43372e-05 2.16395e-06
1.43372e-05 -9.0356e-06 9.45846e-07
2.16395e-06 9.45846e-07 -7.19229e-05
0.000717365 -2.3653e-05 -9.46792e-08
-2.3653e-05 -3.09982e-05 -4.44175e-08
-9.46792e-08 -4.44175e-08 -6.4159e-05
0.00282085 -6.69021e-05 -3.24477e-05
-6.69021e-05 0.00106571 -3.10526e-06
-3.24477e-05 -3.10526e-06 0.00106598
0.000641443 -4.439e-05 3.28937e-06
-4.439e-05 -7.45407e-05 3.6234e-06
3.28937e-06 3.6234e-06 -0.000103615
0.00273436 -6.28008e-05 -3.93888e-07
-6.28008e-05 0.00100282 1.05128e-07
-3.93888e-07 1.05128e-07 0.00100758
0.00268939 -5.78876e-05 2.71332e-05
-5.78876e-05 0.000966812 3.28068e-06
2.71332e-05 3.28068e-06 0.000975026
0.00169197 -2.92901e-06 -8.19937e-07
-2.92901e-06 7.78769e-05 7.5482e-07
-8.19937e-07 7.5482e-07 -8.84324e-06
0.00170426 -1.36564e-05 -1.61319e-07
-1.36564e-05 7.46801e-05 6.674e-07
-1.61319e-07 6.674e-07 -1.08839e-05
0.00172403 -1.93109e-05 -2.33099e-07
-1.93109e-05 8.12604e-05 -2.95884e-06
-2.33099e-07 -2.95884e-06 9.5738e-06
0.00165087 4.22382e-05 8.65137e-07
4.22382e-05 5.49934e-05 -1.82208e-09
8.65137e-07 -1.82208e-09 -4.12686e-05
0.00166827 8.64952e-05 1.90585e-06
8.64952e-05 0.000151985 5.47181e-07
1.90585e-06 5.47181e-07 5.3787e-05
0.00189126 4.18236e-05 9.97996e-07
4.18236e-05 0.000155641 -1.46899e-06
9.97996e-07 -1.46899e-06 5.62739e-05
0.00160936 2.71935e-06 -3.01339e-07
2.71935e-06 7.68992e-05 6.13342e-07
-3.01339e-07 6.13342e-07 -1.25358e-05
0.00157906 3.85095e-06 5.53921e-07
3.85095e-06 6.59373e-05 -3.31635e-07
5.53921e-07 -3.31635e-07 -1.76929e-05
0.00157114 3.48824e-06 3.87788e-07
3.48824e-06 5.61855e-05 -1.95056e-07
3.87788e-07 -1.95056e-07 -2.18797e-05
0.00158911 2.11339e-05 -7.03585e-07
2.11339e-05 8.31128e-05 -2.21312e-07
-7.03585e-07 -2.21312e-07 -6.37361e-06
0.00163985 1.87265e-05 4.00539e-07
1.87265e-05 0.000116488 2.02602e-07
4.00539e-07 2.02602e-07 2.41425e-05
0.0016131 3.02325e-05 6.62612e-07
3.02325e-05 8.80955e-05 6.88187e-07
6.62612e-07 6.88187e-07 1.87943e-06
0.00162008 2.53973e-05 4.12922e-07
2.53973e-05 0.000100876 1.22553e-07
4.12922e-07 1.22553e-07 1.2416e-05
0.00155157 2.00458e-05 -4.52812e-07
2.00458e-05 8.4723e-05 -3.76602e-07
-4.52812e-07 -3.76602e-07 -4.39312e-06
0.00158871 9.75393e-06 1.0875e-06
9.75393e-06 7.47948e-05 9.19901e-07
1.0875e-06 9.19901e-07 -1.31731e-05
0.00152379 2.7589e-06 -7.2328e-07
2.7589e-06 6.95448e-05 1.15218e-07
-7.2328e-07 1.15218e-07 -1.86069e-05
0.00143271 -5.14482e-06 -3.77251e-06
-5.14482e-06 6.4855e-05 1.15373e-07
-3.77251e-06 1.15373e-07 -2.00447e-05
0.00148942 -2.73938e-05 1.86326e-06
-2.73938e-05 6.6438e-05 1.87717e-07
1.86326e-06 1.87717e-07 -2.10901e-05
0.00138735 -3.35032e-05 9.44803e-08
-3.35032e-05 5.73914e-05 1.2283e-07
9.44803e-08 1.2283e-07 -2.67467e-05
0.00116331 -2.70003e-05 -5.51593e-06
-2.70003e-05 1.35334e-05 1.44245e-06
-5.51593e-06 1.44245e-06 -5.9072e-05
0.00133073 -4.84012e-05 2.65366e-06
-4.84012e-05 5.87955e-05 -5.52437e-07
2.65366e-06 -5.52437e-07 -2.40987e-05
0.00112902 -3.6863e-05 2.42565e-07
-3.6863e-05 1.8231e-05 9.90515e-08
2.42565e-07 9.90515e-08 -5.34249e-05
0.00190677 5.39238e-06 -7.17589e-06
5.39238e-06 0.000543822 2.32733e-06
-7.17589e-06 2.32733e-06 0.00050519
0.00107392 -4.00475e-05 4.24505e-06
-4.00475e-05 1.60557e-05 -1.67396e-06
4.24505e-06 -1.67396e-06 -5.32018e-05
0.00191637 -7.94259e-06 1.02146e-05
-7.94259e-06 0.00055783 -7.25386e-07
1.02146e-05 -7.25386e-07 0.000519858
0.00129804 1.64913e-05 -4.73766e-05
1.64913e-05 0.00031031 5.07387e-06
-4.73766e-05 5.07387e-06 0.000289117
0.00195132 -1.24617e-05 2.6196e-05
-1.24617e-05 0.000579147 -4.23652e-06
2.6196e-05 -4.23652e-06 0.000542454
0.00124759 3.64499e-05 -1.84602e-05
3.64499e-05 0.000286726 1.81621e-06
-1.84602e-05 1.81621e-06 0.000264696
0.00118658 4.90454e-05 7.53041e-06
4.90454e-05 0.000250171 -1.8251e-06
7.53041e-06 -1.8251e-06 0.000229605
0.00159171 1.07349e-05 -1.10617e-06
1.07349e-05 4.27796e-05 9.48029e-07
-1.10617e-06 9.48029e-07 -4.50881e-05
0.00157034 5.39026e-05 -2.10023e-06
5.39026e-05 8.96602e-05 -1.70753e-07
-2.10023e-06 -1.70753e-07 -4.28237e-06
0.0017102 5.07024e-05 -1.26397e-06
5.07024e-05 0.000121806 -9.71106e-07
-1.26397e-06 -9.71106e-07 2.4572e-05
0.0014705 7.07482e-05 -2.39396e-06
7.07482e-05 0.000142272 -6.81261e-07
-2.39396e-06 -6.81261e-07 5.7057e-05
0.00162828 7.61264e-05 8.10485e-07
7.61264e-05 0.000170038 6.36552e-07
8.10485e-07 6.36552e-07 8.02756e-05
0.00161067 7.99476e-05 3.88254e-06
7.99476e-05 0.000134946 2.36718e-06
3.88254e-06 2.36718e-06 4.34629e-05
0.000966819 5.18315e-05 -3.767e-06
5.18315e-05 -1.64148e-06 -1.38971e-06
-3.767e-06 -1.38971e-06 -7.37358e-05
0.00117761 7.07319e-05 1.07499e-06
7.07319e-05 5.50102e-05 6.58003e-07
1.07499e-06 6.58003e-07 -3.01315e-05
0.00111948 7.62479e-05 1.44767e-06
7.62479e-05 -9.68104e-06 1.04455e-06
1.44767e-06 1.04455e-06 -9.75987e-05
0.000804049 1.99335e-05 -6.88652e-06
1.99335e-05 8.72116e-06 -3.80234e-06
-6.88652e-06 -3.80234e-06 -3.37433e-05
0.000958974 4.57509e-05 -1.95073e-07
4.57509e-05 3.20269e-05 -1.58844e-07
-1.95073e-07 -1.58844e-07 -3.71561e-05
0.00113226 6.98543e-05 1.65859e-06
6.98543e-05 7.78735e-05 7.79379e-07
1.65859e-06 7.79379e-07 -6.39093e-06
0.000863642 3.12662e-05 2.42916e-06
3.12662e-05 7.91858e-06 8.14682e-07
2.42916e-06 8.14682e-07 -5.70637e-05
0.000731072 -3.47874e-06 -3.53807e-08
-3.47874e-06 -1.99049e-05 -4.24081e-08
-3.53807e-08 -4.24081e-08 -5.77708e-05
0.00301661 -6.8555e-05 -3.84196e-05
-6.8555e-05 0.00118272 -2.95463e-06
-3.84196e-05 -2.95463e-06 0.00117896
0.000667722 -3.46733e-05 3.47645e-06
-3.46733e-05 -5.20185e-05 3.44964e-06
3.47645e-06 3.44964e-06 -8.60769e-05
0.00281582 -6.80295e-05 -5.33144e-07
-6.80295e-05 0.00106 1.26567e-07
-5.33144e-07 1.26567e-07 0.00106089
0.00276877 -6.34717e-05 2.85297e-05
-6.34717e-05 0.00101757 3.16582e-06
2.85297e-05 3.16582e-06 0.00102285
0.00169699 -1.04004e-05 -8.52566e-07
-1.04004e-05 9.78127e-05 -4.79961e-07
-8.52566e-07 -4.79961e-07 1.03472e-05
0.0017433 -3.39948e-06 -2.57623e-07
-3.39948e-06 0.000102452 2.62845e-07
-2.57623e-07 2.62845e-07 1.53072e-05
0.00178815 -1.26662e-05 -2.98476e-07
-1.26662e-05 0.000108813 -1.67963e-06
-2.98476e-07 -1.67963e-06 2.21672e-05
0.00176694 4.30803e-05 1.0097e-06
4.30803e-05 0.000106639 -1.00585e-06
1.0097e-06 -1.00585e-06 1.11145e-05
0.0016567 -1.82883e-06 -3.56926e-07
-1.82883e-06 0.000102314 -4.24282e-07
-3.56926e-07 -4.24282e-07 9.59142e-06
0.00167242 2.60195e-06 -2.59473e-07
2.60195e-06 0.000108264 -1.97226e-07
-2.59473e-07 -1.97226e-07 1.91973e-05
0.00155106 6.81018e-06 -2.3424e-07
6.81018e-06 5.39254e-05 -1.06508e-07
-2.3424e-07 -1.06508e-07 -3.0182e-05
0.00159524 1.61268e-05 -1.37619e-06
1.61268e-05 8.61927e-05 -6.88941e-07
-1.37619e-06 -6.88941e-07 -2.66803e-06
0.00159762 2.3526e-05 1.71263e-08
2.3526e-05 9.39072e-05 -3.61856e-07
1.71263e-08 -3.61856e-07 1.44175e-06
0.00161738 2.00348e-05 -1.02959e-06
2.00348e-05 0.000117398 6.15794e-07
-1.02959e-06 6.15794e-07 2.58366e-05
0.00163832 2.54306e-05 1.17377e-06
2.54306e-05 0.000110554 8.4405e-07
1.17377e-06 8.4405e-07 2.20882e-05
0.00159533 2.08379e-05 5.0582e-07
2.08379e-05 0.000108038 2.64461e-08
5.0582e-07 2.64461e-08 1.92748e-05
0.00132739 1.67202e-05 -2.69875e-06
1.67202e-05 5.69536e-06 1.33265e-09
-2.69875e-06 1.33265e-09 -8.08054e-05
0.00150042 3.2065e-06 1.03702e-06
3.2065e-06 5.86918e-05 7.49102e-07
1.03702e-06 7.49102e-07 -2.94808e-05
0.00141414 -3.11765e-06 -3.99315e-07
-3.11765e-06 5.57544e-05 1.44454e-07
-3.99315e-07 1.44454e-07 -2.90859e-05
0.00117474 -7.027e-06 -5.72964e-06
-7.027e-06 5.89548e-06 9.2551e-07
-5.72964e-06 9.2551e-07 -6.69887e-05
0.00138015 -3.04783e-05 2.97155e-06
-3.04783e-05 5.38672e-05 -1.21267e-07
2.97155e-06 -1.21267e-07 -3.0271e-05
0.00116821 -2.79517e-05 1.19795e-07
-2.79517e-05 1.5183e-05 1.93288e-07
1.19795e-07 1.93288e-07 -5.74387e-05
0.000685949 -1.44489e-05 -8.69389e-06
-1.44489e-05 -9.81365e-05 3.00644e-06
-8.69389e-06 3.00644e-06 -0.00014119
0.00112886 -3.6126e-05 5.0322e-06
-3.6126e-05 1.70381e-05 -1.56698e-06
5.0322e-06 -1.56698e-06 -5.46216e-05
0.00135746 -2.07215e-05 1.19129e-05
-2.07215e-05 0.000256837 -3.83151e-07
1.19129e-05 -3.83151e-07 0.000216628
0.00394839 7.46663e-05 -5.04665e-05
7.46663e-05 0.00167002 2.05535e-06
-5.04665e-05 2.05535e-06 0.00165941
0.00204327 -1.75453e-05 2.87407e-05
-1.75453e-05 0.000616645 -4.08809e-06
2.87407e-05 -4.08809e-06 0.000579435
0.00130277 3.46788e-05 -2.07583e-05
3.46788e-05 0.000318199 1.54608e-06
-2.07583e-05 1.54608e-06 0.000294831
0.00125549 5.19522e-05 7.01801e-06
5.19522e-05 0.000296085 -1.91028e-06
7.01801e-06 -1.91028e-06 0.000272054
0.00168249 -1.54716e-06 -1.81684e-07
-1.54716e-06 9.74446e-05 -3.50258e-08
-1.81684e-07 -3.50258e-08 1.20516e-05
0.00141653 2.01577e-05 -1.31865e-06
2.01577e-05 -1.32402e-06 8.40293e-07
-1.31865e-06 8.40293e-07 -9.08751e-05
0.00165632 1.06112e-05 3.18438e-08
1.06112e-05 7.84972e-05 -3.55699e-09
3.18438e-08 -3.55699e-09 -9.27194e-06
0.00111154 5.06427e-05 -3.04379e-06
5.06427e-05 -8.94218e-05 -8.26826e-07
-3.04379e-06 -8.26826e-07 -0.000177905
0.00157789 5.38641e-05 2.92052e-08
5.38641e-05 9.65104e-05 -1.09789e-07
2.92052e-08 -1.09789e-07 3.34506e-06
0.00159602 4.92466e-05 5.09866e-07
4.92466e-05 6.22023e-05 -1.15692e-06
5.09866e-07 -1.15692e-06 -3.54638e-05
0.000674811 4.33835e-05 -5.75879e-06
4.33835e-05 -0.000195952 -1.97222e-06
-5.75879e-06 -1.97222e-06 -0.000270792
0.00146784 7.15393e-05 6.46676e-07
7.15393e-05 0.000140327 -3.98107e-09
6.46676e-07 -3.98107e-09 5.50011e-05
0.00168718 7.78139e-05 2.76189e-06
7.78139e-05 0.000205206 1.55548e-06
2.76189e-06 1.55548e-06 0.000115789
0.000783107 3.60807e-05 -8.28783e-06
3.60807e-05 -1.44052e-05 -4.02791e-06
-8.28783e-06 -4.02791e-06 -6.02387e-05
0.000796848 4.74765e-05 -1.64341e-07
4.74765e-05 -8.99945e-05 8.70344e-08
-1.64341e-07 8.70344e-08 -0.000162989
0.000870664 6.41394e-05 3.09282e-06
6.41394e-05 -0.000101029 1.55322e-06
3.09282e-06 1.55322e-06 -0.000187263
0.0033582 -6.20118e-05 -4.6652e-05
-6.20118e-05 0.00136839 -3.15475e-06
-4.6652e-05 -3.15475e-06 0.00136128
0.000718415 1.5963e-05 -1.04278e-07
1.5963e-05 -2.8974e-05 -3.18215e-08
-1.04278e-07 -3.18215e-08 -7.16444e-05
0.00092746 4.36451e-05 2.741e-06
4.36451e-05 1.60408e-05 1.31475e-06
2.741e-06 1.31475e-06 -5.28512e-05
0.000661558 -5.82542e-06 5.08412e-06
-5.82542e-06 -4.97543e-05 3.36275e-06
5.08412e-06 3.36275e-06 -8.79426e-05
0.0029705 -7.37079e-05 -9.24596e-07
-7.37079e-05 0.00115664 1.66382e-07
-9.24596e-07 1.66382e-07 0.00115316
0.00282099 -6.8547e-05 2.98829e-05
-6.8547e-05 0.00105887 3.05256e-06
2.98829e-05 3.05256e-06 0.00106052
0.00164773 -1.17283e-05 -1.22703e-06
-1.17283e-05 8.58949e-05 -3.73592e-07
-1.22703e-06 -3.73592e-07 -2.80168e-06
0.00168618 -1.03418e-05 -4.19266e-07
-1.03418e-05 9.17967e-05 -2.07705e-07
-4.19266e-07 -2.07705e-07 4.54423e-06
0.00178251 -3.76123e-06 3.77628e-07
-3.76123e-06 0.000121312 -1.05167e-06
3.77628e-07 -1.05167e-06 3.37121e-05
0.00170033 1.21099e-05 -1.02762e-06
1.21099e-05 0.000131902 9.14787e-08
-1.02762e-06 9.14787e-08 3.72669e-05
0.00163757 1.96256e-06 -4.28883e-07
1.96256e-06 9.19134e-05 -3.5514e-07
-4.28883e-07 -3.5514e-07 -1.35412e-06
0.00173041 -2.90587e-07 -1.06492e-06
-2.90587e-07 0.000136908 -8.98403e-08
-1.06492e-06 -8.98403e-08 4.83211e-05
0.0015411 2.68207e-05 -7.45973e-08
2.68207e-05 6.42125e-05 -1.04849e-06
-7.45973e-08 -1.04849e-06 -2.8297e-05
0.00160498 2.21846e-05 4.02146e-07
2.21846e-05 0.000110682 4.27037e-08
4.02146e-07 4.27037e-08 1.91766e-05
0.00161066 1.64294e-05 -2.14386e-06
1.64294e-05 0.00013963 7.55573e-07
-2.14386e-06 7.55573e-07 5.27934e-05
0.00164347 2.16624e-05 1.93405e-06
2.16624e-05 0.000133465 5.43049e-07
1.93405e-06 5.43049e-07 4.50605e-05
0.0015094 1.92956e-05 2.7123e-08
1.92956e-05 9.9917e-05 6.21082e-08
2.7123e-08 6.21082e-08 1.46153e-05
0.000906178 1.11946e-05 -6.62949e-06
1.11946e-05 -0.000142568 1.0468e-06
-6.62949e-06 1.0468e-06 -0.000218844
0.00139156 -3.51557e-06 2.56034e-06
-3.51557e-06 4.46995e-05 2.02933e-07
2.56034e-06 2.02933e-07 -4.01442e-05
0.00117602 -5.05301e-06 -3.43189e-08
-5.05301e-06 5.96948e-06 1.15833e-08
-3.43189e-08 1.15833e-08 -6.68112e-05
0.000706944 -4.84685e-06 -8.86906e-06
-4.84685e-06 -9.55603e-05 2.2692e-06
-8.86906e-06 2.2692e-06 -0.000138687
0.00116717 -2.71254e-05 5.73298e-06
-2.71254e-05 1.38971e-05 -1.10574e-06
5.73298e-06 -1.10574e-06 -5.86962e-05
0.000696752 -1.1881e-05 -7.1975e-08
-1.1881e-05 -9.25448e-05 1.48975e-07
-7.1975e-08 1.48975e-07 -0.0001357
0.00401089 6.71145e-05 -5.28776e-05
6.71145e-05 0.00169653 1.42869e-06
-5.28776e-05 1.42869e-06 0.00168706
0.000783949 -2.76657e-05 1.09824e-05
-2.76657e-05 -3.96348e-05 -4.3662e-06
1.09824e-05 -4.3662e-06 -8.37814e-05
0.00272044 6.64989e-05 1.9047e-05
6.64989e-05 0.00104119 8.92386e-07
1.9047e-05 8.92386e-07 0.00102288
0.00132129 5.51772e-05 6.18257e-06
5.51772e-05 0.000333919 -1.92861e-06
6.18257e-06 -1.92861e-06 0.000307986
0.00178805 -1.05716e-05 -5.42426e-07
-1.05716e-05 0.00016493 -4.38216e-09
-5.42426e-07 -4.38216e-09 7.91776e-05
0.00154436 4.18814e-06 -9.02274e-07
4.18814e-06 6.02851e-05 1.25296e-07
-9.02274e-07 1.25296e-07 -2.56464e-05
0.00160545 -1.95884e-06 1.28699e-07
-1.95884e-06 6.00511e-05 1.89698e-07
1.28699e-07 1.89698e-07 -2.50788e-05
0.00137821 2.86803e-05 -2.59023e-06
2.86803e-05 2.81247e-05 7.15992e-08
-2.59023e-06 7.15992e-08 -5.7381e-05
0.0014779 2.01235e-05 3.91479e-07
2.01235e-05 2.82951e-05 -1.49443e-07
3.91479e-07 -1.49443e-07 -6.06759e-05
0.0017058 1.04167e-05 1.07382e-06
1.04167e-05 0.000106315 -7.50526e-07
1.07382e-06 -7.50526e-07 1.87045e-05
0.000785483 3.80373e-05 -6.37119e-06
3.80373e-05 -0.000180541 -1.91898e-06
-6.37119e-06 -1.91898e-06 -0.000256359
0.00148201 5.75132e-05 -9.5324e-07
5.75132e-05 9.92287e-05 -2.8206e-07
-9.5324e-07 -2.8206e-07 1.20385e-05
0.00164472 5.46878e-05 2.57158e-06
5.46878e-05 0.000131651 -4.03508e-07
2.57158e-06 -4.03508e-07 3.93821e-05
0.000746944 4.15666e-05 -9.43131e-06
4.15666e-05 -4.97048e-05 -3.91368e-06
-9.43131e-06 -3.91368e-06 -9.61479e-05
0.000744489 4.52012e-05 -1.495e-06
4.52012e-05 -0.000165153 -5.85279e-07
-1.495e-06 -5.85279e-07 -0.000240419
0.00147093 7.24705e-05 3.50453e-06
7.24705e-05 0.000141299 8.67846e-07
3.50453e-06 8.67846e-07 5.58473e-05
0.00374531 -6.32782e-05 -5.14522e-05
-6.32782e-05 0.00156924 -3.09849e-06
-5.14522e-05 -3.09849e-06 0.00155938
0.000709873 3.16967e-05 -1.24223e-07
3.16967e-05 -4.69686e-05 1.55627e-07
-1.24223e-07 1.55627e-07 -9.28939e-05
0.000627799 4.3136e-05 3.64354e-06
4.3136e-05 -0.000177891 1.79759e-06
3.64354e-06 1.79759e-06 -0.000251786
0.0032289 -7.49787e-05 -2.05503e-06
-7.49787e-05 0.00130241 1.55921e-07
-2.05503e-06 1.55921e-07 0.00129518
0.000638853 1.24057e-05 5.74254e-06
1.24057e-05 -6.38953e-05 3.74911e-06
5.74254e-06 3.74911e-06 -0.000106747
0.0029002 -7.37331e-05 3.12239e-05
-7.37331e-05 0.00111789 2.92529e-06
3.12239e-05 2.92529e-06 0.00111522
0.00168348 1.55337e-06 -9.69399e-07
1.55337e-06 0.000121335 -4.78582e-07
-9.69399e-07 -4.78582e-07 3.07268e-05
0.00166615 -1.07421e-05 2.13935e-07
-1.07421e-05 9.59573e-05 3.81416e-07
2.13935e-07 3.81416e-07 7.26175e-06
0.00167247 -1.01689e-05 1.67604e-07
-1.01689e-05 8.45597e-05 -2.11303e-07
1.67604e-07 -2.11303e-07 -2.50786e-06
0.00165263 7.15386e-07 -2.75485e-06
7.15386e-07 0.00013701 1.36711e-07
-2.75485e-06 1.36711e-07 4.72895e-05
0.00168707 1.18337e-05 4.21103e-07
1.18337e-05 0.000127937 -3.22874e-08
4.21103e-07 -3.22874e-08 3.34768e-05
0.00162141 8.17401e-06 7.66584e-07
8.17401e-06 8.31966e-05 -4.18614e-07
7.66584e-07 -4.18614e-07 -1.07448e-05
0.00159909 2.30912e-05 1.35393e-06
2.30912e-05 0.000107194 -6.54512e-07
1.35393e-06 -6.54512e-07 1.57728e-05
0.00160676 1.67835e-05 6.68826e-07
1.67835e-05 0.000137507 -6.96732e-08
6.68826e-07 -6.96732e-08 5.07824e-05
0.000940767 9.1371e-06 -6.49053e-06
9.1371e-06 -0.000142046 1.21397e-06
-6.49053e-06 1.21397e-06 -0.000220829
0.0017009 2.18817e-05 3.11688e-06
2.18817e-05 0.000198836 -4.55086e-08
3.11688e-06 -4.55086e-08 0.000114738
0.00104418 1.33314e-05 -1.17711e-06
1.33314e-05 -7.04456e-05 2.70686e-07
-1.17711e-06 2.70686e-07 -0.00014555
0.000724252 1.69413e-06 -9.31124e-06
1.69413e-06 -9.44223e-05 1.84491e-06
-9.31124e-06 1.84491e-06 -0.000139652
0.00117969 -5.11278e-06 5.61937e-06
-5.11278e-06 7.10079e-06 -9.86877e-07
5.61937e-06 -9.86877e-07 -6.55956e-05
0.00071034 2.573e-06 2.12488e-07
2.573e-06 -9.35424e-05 -2.02564e-09
2.12488e-07 -2.02564e-09 -0.000136966
0.00411718 6.54025e-05 -5.63024e-05
6.54025e-05 0.00174589 8.23284e-07
-5.63024e-05 8.23284e-07 0.00173694
0.000701916 -7.5296e-06 8.62656e-06
-7.5296e-06 -8.99717e-05 -2.72782e-06
8.62656e-06 -2.72782e-06 -0.000132995
0.00406795 7.21323e-05 -5.88256e-07
7.21323e-05 0.00172517 1.50671e-07
-5.88256e-07 1.50671e-07 0.00171532
0.00154492 1.42889e-05 4.96999e-05
1.42889e-05 0.00043376 -2.52093e-06
4.96999e-05 -2.52093e-06 0.000412118
0.00174194 -4.8508e-06 -8.45358e-07
-4.8508e-06 0.000162355 -2.84358e-07
-8.45358e-07 -2.84358e-07 7.63323e-05
0.00166459 -1.08085e-05 4.72845e-07
-1.08085e-05 0.000103378 3.20526e-07
4.72845e-07 3.20526e-07 1.80795e-05
0.00141856 4.54201e-06 -2.36589e-06
4.54201e-06 3.7557e-05 -3.26124e-07
-2.36589e-06 -3.26124e-07 -4.68162e-05
0.00156591 3.64904e-06 2.98829e-07
3.64904e-06 7.02854e-05 -1.44074e-07
2.98829e-07 -1.44074e-07 -1.56738e-05
0.00152652 -2.35413e-06 1.63061e-06
-2.35413e-06 2.16453e-05 7.56167e-09
1.63061e-06 7.56167e-09 -6.32097e-05
0.00118419 2.5517e-05 -5.76176e-06
2.5517e-05 2.70353e-06 -1.27255e-06
-5.76176e-06 -1.27255e-06 -7.11759e-05
0.0014207 2.91254e-05 -4.29318e-08
2.91254e-05 4.72544e-05 1.45529e-07
-4.29318e-08 1.45529e-07 -3.81866e-05
0.00152105 1.99028e-05 1.37617e-06
1.99028e-05 4.93202e-05 -5.42284e-07
1.37617e-06 -5.42284e-07 -3.91273e-05
0.000727242 3.58725e-05 -1.00211e-05
3.58725e-05 -7.70363e-05 -3.54513e-06
-1.00211e-05 -3.54513e-06 -0.000122147
0.000988185 4.19027e-05 -1.80342e-06
4.19027e-05 -7.74485e-05 -4.51684e-07
-1.80342e-06 -4.51684e-07 -0.000152688
0.00184067 6.40921e-05 2.53496e-06
6.40921e-05 0.000282048 2.08545e-07
2.53496e-06 2.08545e-07 0.000196163
0.00406472 -6.87262e-05 -5.41539e-05
-6.87262e-05 0.00172906 -2.78192e-06
-5.41539e-05 -2.78192e-06 0.00171789
0.000706396 3.84282e-05 1.06637e-07
3.84282e-05 -6.82295e-05 1.56648e-07
1.06637e-07 1.56648e-07 -0.000114631
0.000796232 4.67808e-05 3.51386e-06
4.67808e-05 -0.00014309 1.09952e-06
3.51386e-06 1.09952e-06 -0.000218792
0.00358805 -7.10403e-05 -1.86601e-06
-7.10403e-05 0.00149044 2.24164e-07
-1.86601e-06 2.24164e-07 0.00148071
0.000643153 2.71998e-05 6.89476e-06
2.71998e-05 -7.67768e-05 4.22042e-06
6.89476e-06 4.22042e-06 -0.000122755
0.00309448 -8.01931e-05 3.34766e-05
-8.01931e-05 0.00123337 2.81221e-06
3.34766e-05 2.81221e-06 0.00122637
0.00165937 6.38624e-06 -2.09513e-06
6.38624e-06 0.000144305 -6.92551e-07
-2.09513e-06 -6.92551e-07 5.73901e-05
0.00168854 -8.43615e-07 2.74735e-07
-8.43615e-07 0.000126009 2.3645e-07
2.74735e-07 2.3645e-07 3.56178e-05
0.00168553 -1.02298e-05 1.74006e-06
-1.02298e-05 0.000106453 1.09106e-06
1.74006e-06 1.09106e-06 1.77617e-05
0.000961126 -1.11607e-05 -7.11544e-06
-1.11607e-05 -0.000146882 3.91009e-07
-7.11544e-06 3.91009e-07 -0.000227596
0.00167029 7.56266e-06 6.97531e-07
7.56266e-06 0.000146824 1.20413e-07
6.97531e-07 1.20413e-07 5.69224e-05
0.00166951 1.18419e-05 1.89392e-06
1.18419e-05 0.000121797 -4.62469e-07
1.89392e-06 -4.62469e-07 2.75255e-05
0.00160449 1.68185e-05 3.33613e-06
1.68185e-05 0.000136227 -5.0817e-07
3.33613e-06 -5.0817e-07 4.96086e-05
0.000930405 8.85425e-06 -8.86487e-07
8.85425e-06 -0.000145081 2.49654e-07
-8.86487e-07 2.49654e-07 -0.000223442
0.0007338 8.02162e-06 -9.75149e-06
8.02162e-06 -0.000101381 1.25463e-06
-9.75149e-06 1.25463e-06 -0.000148871
0.00117467 1.62853e-05 4.47809e-06
1.62853e-05 -2.16103e-06 -7.46284e-07
4.47809e-06 -7.46284e-07 -7.6094e-05
0.000733156 1.10224e-05 2.89649e-07
1.10224e-05 -9.02027e-05 7.2226e-09
2.89649e-07 7.2226e-09 -0.000135601
0.00424073 6.35042e-05 -5.96115e-05
6.35042e-05 0.0018039 2.40436e-07
-5.96115e-05 2.40436e-07 0.00179523
0.000714679 1.1103e-05 8.75595e-06
1.1103e-05 -9.12534e-05 -2.14841e-06
8.75595e-06 -2.14841e-06 -0.000134763
0.00416957 6.79921e-05 2.72808e-07
6.79921e-05 0.00177145 1.67054e-07
2.72808e-07 1.67054e-07 0.00176242
0.0041485 7.42267e-05 5.65666e-05
7.42267e-05 0.00176475 -1.08768e-06
5.65666e-05 -1.08768e-06 0.00175489
0.00149293 -2.30582e-06 -2.55203e-06
-2.30582e-06 6.96223e-05 -7.80917e-07
-2.55203e-06 -7.80917e-07 -1.57794e-05
0.00163912 -6.01177e-06 2.85744e-07
-6.01177e-06 0.00010893 1.04784e-07
2.85744e-07 1.04784e-07 2.29471e-05
0.00154681 -1.09422e-05 9.78846e-07
-1.09422e-05 4.46731e-05 6.68573e-07
9.78846e-07 6.68573e-07 -4.01761e-05
0.00119722 2.80411e-06 -5.71513e-06
2.80411e-06 -2.64371e-06 -1.337e-06
-5.71513e-06 -1.337e-06 -7.66173e-05
0.00144626 4.41011e-06 1.39126e-07
4.41011e-06 5.06341e-05 -8.45441e-08
1.39126e-07 -8.45441e-08 -3.37762e-05
0.00158744 3.09052e-06 1.02399e-06
3.09052e-06 8.02168e-05 -4.19769e-07
1.02399e-06 -4.19769e-07 -5.76211e-06
0.000723118 2.13446e-05 -9.95954e-06
2.13446e-05 -9.13672e-05 -3.07684e-06
-9.95954e-06 -3.07684e-06 -0.000135734
0.00119586 2.56598e-05 -1.00212e-07
2.56598e-05 8.61976e-06 1.65803e-07
-1.00212e-07 1.65803e-07 -6.53483e-05
0.00146854 2.96049e-05 2.85941e-06
2.96049e-05 6.90005e-05 2.75121e-07
2.85941e-06 2.75121e-07 -1.63777e-05
0.0042164 -5.97772e-05 -5.84105e-05
-5.97772e-05 0.00179838 -2.20277e-06
-5.84105e-05 -2.20277e-06 0.00178864
0.000707724 3.4549e-05 4.25428e-08
3.4549e-05 -8.52821e-05 1.34798e-07
4.25428e-08 1.34798e-07 -0.000130542
0.00120325 4.61786e-05 4.08115e-06
4.61786e-05 3.19748e-05 1.17607e-06
4.08115e-06 1.17607e-06 -4.27406e-05
0.00389399 -6.39162e-05 -1.49378e-07
-6.39162e-05 0.00164334 1.80406e-07
-1.49378e-07 1.80406e-07 0.00163301
0.000660651 3.57936e-05 8.36665e-06
3.57936e-05 -8.94004e-05 4.04553e-06
8.36665e-06 4.04553e-06 -0.000135744
0.00341167 -8.09121e-05 4.0019e-05
-8.09121e-05 0.00140271 2.79861e-06
4.0019e-05 2.79861e-06 0.00139281
0.00126043 -6.48892e-07 -6.08548e-06
-6.48892e-07 8.60214e-06 -6.45217e-07
-6.08548e-06 -6.45217e-07 -6.90527e-05
0.00152497 1.30359e-06 7.68705e-07
1.30359e-06 7.44033e-05 -1.1601e-07
7.68705e-07 -1.1601e-07 -1.38857e-05
0.00169077 -4.35604e-06 1.7456e-06
-4.35604e-06 0.000129209 1.19394e-06
1.7456e-06 1.19394e-06 3.903e-05
0.000745828 1.06771e-05 -1.02906e-05
1.06771e-05 -0.000104964 1.87127e-07
-1.02906e-05 1.87127e-07 -0.000153376
0.000957851 -3.67313e-06 -1.09395e-06
-3.67313e-06 -0.00014773 3.25737e-07
-1.09395e-06 3.25737e-07 -0.000228187
0.00168888 1.40176e-05 4.04695e-06
1.40176e-05 0.000157131 -4.47229e-07
4.04695e-06 -4.47229e-07 6.70413e-05
0.000919978 8.95216e-06 4.38931e-06
8.95216e-06 -0.00014824 -5.10719e-07
4.38931e-06 -5.10719e-07 -0.000226162
0.000745794 1.07265e-05 2.29896e-07
1.07265e-05 -9.56435e-05 2.02572e-07
2.29896e-07 2.02572e-07 -0.000143327
0.00443392 6.28846e-05 -6.26129e-05
6.28846e-05 0.00189545 -3.28924e-07
-6.26129e-05 -3.28924e-07 0.00188674
0.000741845 1.87354e-05 9.20827e-06
1.87354e-05 -8.58477e-05 -1.6914e-06
9.20827e-06 -1.6914e-06 -0.000131565
0.00430799 6.52896e-05 7.19584e-07
6.52896e-05 0.00183619 2.07046e-07
7.19584e-07 2.07046e-07 0.00182746
0.0042164 7.07019e-05 6.09414e-05
7.07019e-05 0.00179414 -4.76936e-07
6.09414e-05 -4.76936e-07 0.00178506
0.00123294 -3.77427e-06 -6.00436e-06
-3.77427e-06 4.84842e-06 -1.3878e-06
-6.00436e-06 -1.3878e-06 -7.07499e-05
0.00142949 -3.74874e-06 -5.33761e-08
-3.74874e-06 3.56934e-05 -1.0708e-07
-5.33761e-08 -1.0708e-07 -5.00768e-05
0.00153516 -7.22284e-06 1.14798e-06
-7.22284e-06 5.50198e-05 4.04187e-07
1.14798e-06 4.04187e-07 -3.09342e-05
0.00220547 -2.91766e-06 -3.50516e-05
-2.91766e-06 0.000657248 -1.85119e-06
-3.50516e-05 -1.85119e-06 0.000620344
0.00121381 2.88714e-06 1.31301e-07
2.88714e-06 5.73221e-06 5.35279e-08
1.31301e-07 5.35279e-08 -6.84081e-05
0.00147849 4.10254e-06 2.71655e-06
4.10254e-06 6.59431e-05 2.10333e-07
2.71655e-06 2.10333e-07 -1.8506e-05
0.00432176 -4.84442e-05 -6.3759e-05
-4.84442e-05 0.00184347 -1.53802e-06
-6.3759e-05 -1.53802e-06 0.00183537
0.000718716 2.19131e-05 -6.49622e-08
2.19131e-05 -9.35919e-05 1.04103e-07
-6.49622e-08 1.04103e-07 -0.000137969
0.00121058 2.54594e-05 5.93166e-06
2.54594e-05 1.60679e-05 1.57053e-06
5.93166e-06 1.57053e-06 -5.80201e-05
0.00412574 -5.69156e-05 1.96648e-06
-5.69156e-05 0.00175416 1.43771e-07
1.96648e-06 1.43771e-07 0.0017444
0.000680168 3.2699e-05 9.16087e-06
3.2699e-05 -9.75387e-05 3.65917e-06
9.16087e-06 3.65917e-06 -0.000142926
0.00376565 -7.67876e-05 4.63605e-05
-7.67876e-05 0.0015811 2.78605e-06
4.63605e-05 2.78605e-06 0.00156997
0.000783168 5.15176e-06 -1.30567e-05
5.15176e-06 -8.77847e-05 -1.30837e-06
-1.30567e-05 -1.30837e-06 -0.000136905
0.00110669 -3.44746e-06 1.7944e-07
-3.44746e-06 -7.03914e-05 2.83265e-07
1.7944e-07 2.83265e-07 -0.000148921
0.0013828 -3.66209e-06 3.63468e-06
-3.66209e-06 4.58219e-07 6.62101e-07
3.63468e-06 6.62101e-07 -8.91432e-05
0.00460219 -2.26662e-05 -6.28693e-05
-2.26662e-05 0.00197749 -9.89966e-07
-6.28693e-05 -9.89966e-07 0.00196748
0.000758619 7.57617e-06 8.2156e-08
7.57617e-06 -9.85504e-05 2.34424e-07
8.2156e-08 2.34424e-07 -0.000147332
0.000953565 3.41547e-06 4.75197e-06
3.41547e-06 -0.00014905 -1.27286e-08
4.75197e-06 -1.27286e-08 -0.000229264
0.000757644 1.76609e-05 9.84935e-06
1.76609e-05 -8.96389e-05 -7.88669e-07
9.84935e-06 -7.88669e-07 -0.000137737
0.00449985 7.0065e-05 2.54299e-06
7.0065e-05 0.00192767 3.21567e-07
2.54299e-06 3.21567e-07 0.00191861
0.00437483 6.95099e-05 6.64859e-05
6.95099e-05 0.00186838 9.76709e-08
6.64859e-05 9.76709e-08 0.00185947
0.00228766 -1.93977e-05 -3.92728e-05
-1.93977e-05 0.00068891 -1.78793e-06
-3.92728e-05 -1.78793e-06 0.00064985
0.00123817 -2.3477e-06 -3.7753e-08
-2.3477e-06 7.20226e-06 1.34214e-08
-3.7753e-08 1.34214e-08 -6.8349e-05
0.00136518 -5.02711e-06 2.5261e-06
-5.02711e-06 1.2708e-06 5.88081e-07
2.5261e-06 5.88081e-07 -8.48554e-05
0.00424102 -5.67539e-05 -1.76951e-05
-5.67539e-05 0.00180359 -5.69153e-07
-1.76951e-05 -5.69153e-07 0.00179355
0.000746096 5.70816e-06 -1.17371e-07
5.70816e-06 -8.86379e-05 6.31651e-08
-1.17371e-07 6.31651e-08 -0.000133684
0.00123306 4.1223e-06 5.89993e-06
4.1223e-06 1.52148e-05 1.37528e-06
5.89993e-06 1.37528e-06 -5.90284e-05
0.00424892 -4.54047e-05 4.57535e-07
-4.54047e-05 0.00180843 2.12122e-07
4.57535e-07 2.12122e-07 0.00180028
0.000711441 2.34092e-05 9.92748e-06
2.34092e-05 -9.71897e-05 3.25253e-06
9.92748e-06 3.25253e-06 -0.000141544
0.00400373 -4.96556e-05 5.47629e-05
-4.96556e-05 0.00169352 2.37876e-06
5.47629e-05 2.37876e-06 0.00168449
0.00163217 -8.98063e-06 -6.57321e-05
-8.98063e-06 0.000448957 -2.20351e-07
-6.57321e-05 -2.20351e-07 0.000425877
0.0015547 1.44449e-07 -1.52441e-05
1.44449e-07 0.000308348 4.24379e-07
-1.52441e-05 4.24379e-07 0.000264307
0.00096475 -2.56131e-06 6.04095e-06
-2.56131e-06 -0.000143443 1.08809e-06
6.04095e-06 1.08809e-06 -0.000222829
0.00461601 -7.90937e-06 2.82691e-06
-7.90937e-06 0.00198346 -5.36942e-07
2.82691e-06 -5.36942e-07 0.00197394
0.000762169 5.99801e-06 1.04989e-05
5.99801e-06 -9.6883e-05 2.80235e-07
1.04989e-05 2.80235e-07 -0.000145753
0.00456055 6.32745e-05 6.93096e-05
6.32745e-05 0.00195626 7.27738e-07
6.93096e-05 7.27738e-07 0.00194758
0.00143366 -2.13757e-05 -9.91372e-06
-2.13757e-05 0.000357484 -9.00908e-07
-9.91372e-06 -9.00908e-07 0.000332912
0.00154333 -1.48026e-06 -1.44471e-05
-1.48026e-06 0.000309806 1.85196e-07
-1.44471e-05 1.85196e-07 0.000267032
0.00124201 -3.35247e-06 5.73569e-06
-3.35247e-06 8.95699e-06 1.36985e-06
5.73569e-06 1.36985e-06 -6.66032e-05
0.00287138 -3.32543e-05 2.67947e-05
-3.32543e-05 0.00109803 9.95559e-08
2.67947e-05 9.95559e-08 0.0010822
0.000747164 1.17337e-05 1.03165e-05
1.17337e-05 -8.88362e-05 2.79384e-06
1.03165e-05 2.79384e-06 -0.000133898
0.00419637 -3.99544e-05 6.01713e-05
-3.99544e-05 0.00178295 1.90305e-06
6.01713e-05 1.90305e-06 0.00177497
0.00463223 -6.38383e-05 -2.38463e-06
-6.38383e-05 0.00198966 3.33053e-07
-2.38463e-06 3.33053e-07 0.00198077
0.000766108 4.91617e-06 1.0603e-05
4.91617e-06 -9.48376e-05 1.47801e-06
1.0603e-05 1.47801e-06 -0.000143286
0.00463868 2.17357e-05 6.81422e-05
2.17357e-05 0.00199335 -7.00539e-07
6.81422e-05 -7.00539e-07 0.0019842
0.00298888 -3.64352e-05 2.75411e-05
-3.64352e-05 0.00115174 -4.36094e-08
2.75411e-05 -4.36094e-08 0.0011351
0.000772174 4.88406e-06 1.03563e-05
4.88406e-06 -8.42252e-05 2.27197e-06
1.03563e-05 2.27197e-06 -0.000131286
0.00432359 -4.04325e-05 6.29344e-05
-4.04325e-05 0.00184146 1.33585e-06
6.29344e-05 1.33585e-06 0.00183382
0.00458437 -8.55918e-05 6.37728e-05
-8.55918e-05 0.00196895 -4.30691e-08
6.37728e-05 -4.30691e-08 0.00195829
0.00446697 -4.44687e-05 6.47986e-05
-4.44687e-05 0.00190928 6.74279e-07
6.47986e-05 6.74279e-07 0.00190145
