# vtk DataFile Version 2.0
Wound Healing Simulation
ASCII
DATASET UNSTRUCTURED_GRID
POINTS 3012 float
69.9759 18.75 4
67.2507 60.3285 4
69.976 18.75 2
73.0099 25.446 4
71.1327 20.9142 4
68.6801 16.6661 4
67.8225 19.9264 3.97561
67.2507 60.3286 2
71.1327 54.0858 4
68.6801 58.3339 4
65.6939 62.2254 4
65.3095 58.9996 3.97472
74.6784 42.3946 4
73.7221 47.2057 4
69.9759 18.75 0
73.0099 25.446 2
68.6801 16.6661 2
71.1327 20.9142 2
67.8232 19.93 2
74.6792 32.6053 4
73.7222 27.7943 4
72.1454 23.1494 4
70.6119 26.2216 3.97544
68.8829 21.9581 3.97599
67.2507 14.6715 4
66.6338 17.9731 3.97438
65.7878 21.0291 3.96419
67.2507 60.3285 0
71.1327 54.0858 2
68.6801 58.3339 2
65.694 62.2255 2
65.3105 58.9947 2
72.1454 51.8506 4
69.9759 56.25 4
68.8334 53.1134 3.97543
64.0165 64.0165 4
66.6077 57.1326 3.97514
63.8825 60.7635 3.97432
63.4931 57.7643 3.96583
60.3285 67.2507 4
74.6792 42.3947 2
73.7222 47.2057 2
74.9194 39.9526 4
74.2788 44.8158 4
72.1666 42.0857 3.97679
73.0099 49.554 4
71.2471 46.598 3.9753
73.0099 25.446 0
71.1327 20.9142 0
68.6801 16.6661 0
67.8225 19.9264 0.0243859
74.6792 32.6053 2
73.7222 27.7943 2
67.2508 14.6715 2
72.1455 23.1494 2
70.6116 26.2222 2
66.6349 17.9776 2
68.8831 21.9605 2
65.7851 21.0309 2
74.9197 35.0474 4
74.2794 30.1841 4
72.1833 32.9442 3.97703
71.2762 28.4322 3.97569
69.813 24.0598 3.9758
68.3403 26.9545 3.96453
66.7536 22.9363 3.9641
65.694 12.7746 4
65.3201 16.1057 3.97309
64.7051 19.2005 3.96441
63.8048 22.0675 3.96439
71.1327 54.0858 0
65.6939 62.2254 0
68.6801 58.3339 0
65.3095 58.9996 0.0252849
72.1455 51.8506 2
69.9759 56.25 2
68.8335 53.1109 2
64.0165 64.0165 2
66.6085 57.1284 2
63.8842 60.7583 2
63.4914 57.764 2
62.2254 65.694 4
58.8919 65.413 3.98377
69.7662 50.9893 3.97515
67.7806 55.1671 3.97557
66.6383 52.2067 3.96423
62.3327 62.4244 3.97744
64.6525 56.0271 3.96524
62.196 59.3917 3.96579
61.7767 56.6547 3.96186
58.3339 68.6801 4
60.3285 67.2508 2
73.7221 47.2057 0
74.6784 42.3946 0
74.9197 39.9526 2
74.2794 44.8159 2
72.1659 42.0854 2
73.0099 49.554 2
71.2467 46.5976 2
75 37.5 4
72.4039 39.8025 3.97773
71.7807 44.3529 3.97642
69.7991 41.7899 3.96705
70.5726 48.8136 3.97488
68.9059 46.014 3.96548
74.6792 32.6053 0
73.7222 27.7943 0
67.2507 14.6715 0
72.1454 23.1494 0
70.6119 26.2216 0.0245636
68.8829 21.9581 0.0240131
66.6338 17.9731 0.0256187
65.7878 21.0291 0.0358077
74.9197 35.0474 2
74.2794 30.1841 2
72.1825 32.9446 2
71.2759 28.4328 2
65.694 12.7745 2
65.3215 16.111 2
69.8128 24.0611 2
68.34 26.9556 2
64.7025 19.2019 2
66.7533 22.9378 2
63.8041 22.0684 2
72.4118 35.2249 3.97779
71.8022 30.6772 3.97667
69.8352 33.271 3.96698
68.9603 29.0412 3.96537
67.6042 24.9148 3.96421
66.0974 27.6599 3.96812
64.0165 10.9835 4
64.6656 23.8606 3.96575
63.8861 14.3303 3.97379
63.5042 17.4567 3.96512
62.8307 20.3549 3.96248
61.923 23.0075 3.96829
60.6811 11.1015 3.9787
57.6059 11.4728 3.96963
72.1454 51.8506 0
69.9759 56.25 0
68.8334 53.1134 0.0245711
64.0165 64.0165 0
63.8825 60.7635 0.0256758
66.6077 57.1326 0.0248618
63.4931 57.7643 0.0341689
62.2255 65.694 2
58.8941 65.4094 2
69.7659 50.9878 2
67.7812 55.1637 2
66.6374 52.2055 2
62.3351 62.4199 2
64.6511 56.0266 2
62.1935 59.3914 2
61.7768 56.6551 2
60.6661 63.9737 3.98008
57.0229 66.7339 3.98704
57.5529 63.6761 3.97143
67.4964 50.1746 3.96434
65.6934 54.1706 3.96448
64.4323 51.3546 3.96587
60.7676 60.9183 3.96861
62.7529 55.0401 3.96346
60.6278 58.1313 3.96072
60.2279 55.7356 3.9646
56.25 69.9759 4
58.3339 68.6801 2
60.3285 67.2507 0
58.9183 9.65931 3.98009
62.2254 9.30607 4
73.0099 49.554 0
74.2788 44.8158 0
71.2471 46.598 0.0247046
72.1666 42.0857 0.0232134
74.9194 39.9526 0
75 37.5 2
72.4037 39.8024 2
71.7805 44.3523 2
69.7983 41.7896 2
70.5721 48.813 2
68.9056 46.0134 2
72.4874 37.5126 3.97736
70.0366 39.6582 3.96743
69.4249 43.9072 3.96644
67.5027 41.4894 3.97195
68.257 48.1056 3.96478
66.5978 45.42 3.97015
74.9197 35.0474 0
74.2794 30.1841 0
72.1833 32.9442 0.0229695
71.2762 28.4322 0.0243147
65.694 12.7746 0
65.3201 16.1057 0.0269054
69.813 24.0598 0.0242002
68.3403 26.9545 0.0354731
66.7536 22.9363 0.0359022
64.7051 19.2005 0.0355862
63.8048 22.0675 0.0356126
72.4116 35.2249 2
71.802 30.6778 2
69.8344 33.2717 2
68.9601 29.0422 2
64.0165 10.9835 2
63.8881 14.3356 2
63.5028 17.4577 2
67.6039 24.9161 2
66.0964 27.6607 2
62.8297 20.3557 2
64.6651 23.8615 2
61.9219 23.0085 2
60.6836 11.1057 2
57.6069 11.4654 2
70.0535 35.3941 3.96744
69.462 31.1524 3.96613
67.5689 33.6026 3.97121
66.6736 29.6444 3.96893
65.4281 25.7275 3.96691
63.9352 28.3062 3.97472
62.338 12.6588 3.97663
62.6697 24.6985 3.97053
62.1908 15.8006 3.96616
61.7521 18.7209 3.96102
61.059 21.41 3.96541
60.1718 23.8219 3.97233
59.2397 12.8093 3.96745
55.8689 10.255 3.973
56.3939 13.1702 3.9688
69.7662 50.9893 0.0248471
62.2254 65.694 0
58.8919 65.413 0.0162325
67.7806 55.1671 0.024431
66.6383 52.2067 0.0357657
62.3327 62.4244 0.0225585
62.196 59.3917 0.0342132
64.6525 56.0271 0.0347645
61.7767 56.6547 0.038139
60.6684 63.9707 2
57.0254 66.732 2
57.554 63.6799 2
67.497 50.1736 2
65.691 54.1694 2
64.4323 51.3542 2
60.7664 60.92 2
62.7531 55.0403 2
60.6316 58.133 2
60.2268 55.7356 2
55.0687 67.9312 3.98819
59.2132 62.3376 3.96922
55.8013 64.9018 3.97559
56.3163 62.0453 3.97035
65.2161 49.3792 3.9672
63.6158 53.2621 3.9645
62.2248 50.5908 3.96957
59.3179 59.527 3.96249
60.9333 54.2537 3.9669
59.2002 56.9583 3.96176
59.0941 55.1163 3.96762
48.0998 68.5746 3.98441
50.9465 69.9313 3.98996
54.0858 71.1327 4
56.25 69.976 2
58.3339 68.6801 0
57.0556 8.33863 3.98217
60.3285 7.74928 4
58.9212 9.66348 2
62.2255 9.30602 2
70.5726 48.8136 0.0251194
71.7807 44.3529 0.0235788
68.9059 46.014 0.0345227
69.7991 41.7899 0.0329472
72.4039 39.8025 0.0222661
75 37.5 0
72.4866 37.5125 2
70.0364 39.6582 2
69.4246 43.9068 2
67.5011 41.4891 2
68.2582 48.1049 2
66.5953 45.4195 2
70.1248 37.523 3.96749
67.7486 39.5095 3.97234
67.117 43.4559 3.97084
65.3337 41.1893 3.97681
65.9514 47.3928 3.9689
64.4074 44.8063 3.97552
72.4118 35.2249 0.0222116
71.8022 30.6772 0.0233254
69.8352 33.271 0.0330223
68.9603 29.0412 0.0346286
64.0165 10.9835 0
63.8861 14.3303 0.0262098
63.5042 17.4567 0.0348846
67.6042 24.9148 0.0357895
66.0974 27.6599 0.0318759
64.6656 23.8606 0.0342532
62.8307 20.3549 0.0375227
61.923 23.0075 0.0317094
60.6811 11.1015 0.0213015
57.6059 11.4728 0.0303671
70.0532 35.3944 2
69.4617 31.1531 2
67.5672 33.603 2
66.6721 29.6451 2
62.3406 12.6637 2
62.1891 15.8015 2
61.7518 18.7209 2
65.4274 25.7284 2
63.9329 28.3074 2
61.0576 21.4109 2
62.6683 24.6996 2
60.1705 23.823 2
59.2403 12.8093 2
56.3955 13.1674 2
55.8709 10.253 2
67.7875 35.5544 3.97188
67.1749 31.639 3.97009
65.49 33.9499 3.97698
64.4483 30.2351 3.97594
63.3367 26.4711 3.97269
61.9409 28.8567 3.9762
60.7683 14.2462 3.96734
60.768 25.4285 3.97481
60.5747 17.1644 3.96062
60.0748 19.8891 3.9621
59.4178 22.3588 3.96809
58.6561 24.4418 3.97452
54.0341 9.14735 3.97339
57.8973 14.3769 3.96603
54.7761 12.0659 3.96876
55.2938 14.7158 3.9662
67.4964 50.1746 0.0356619
57.0229 66.7339 0.0129584
60.6661 63.9737 0.019915
57.5529 63.6761 0.0285748
65.6934 54.1706 0.03552
64.4323 51.3546 0.0341253
60.7676 60.9183 0.0313891
60.6278 58.1313 0.0392777
62.7529 55.0401 0.0365442
60.2279 55.7356 0.0353956
55.0708 67.9296 2
59.2132 62.3398 2
55.8017 64.9007 2
56.315 62.0454 2
65.2156 49.3786 2
63.6154 53.2618 2
62.2245 50.5903 2
59.3178 59.5296 2
60.9337 54.2537 2
59.2053 56.9597 2
59.0977 55.1168 2
53.0408 68.9993 3.98968
53.9635 66.0053 3.97871
57.8679 60.8334 3.9689
54.6748 63.1792 3.97099
55.1936 60.5636 3.97269
62.9613 48.6037 3.97176
61.5581 52.5154 3.96824
59.9527 49.9292 3.97209
57.9717 58.2165 3.96133
59.126 53.8706 3.96906
57.9545 55.734 3.96298
50.1065 67.8526 3.98354
47.4607 66.5714 3.97946
46.0538 69.1538 3.98523
48.1005 68.5748 2
48.8004 70.7225 3.99042
50.9481 69.9306 2
51.8506 72.1454 4
54.0858 71.1327 2
56.25 69.9759 0
55.1007 7.14299 3.98573
58.3339 6.31992 4
57.0588 8.34208 2
60.3286 7.74926 2
58.9183 9.65931 0.0199081
62.2254 9.30607 0
68.257 48.1056 0.0352153
69.4249 43.9072 0.0335574
66.5978 45.42 0.0298484
67.5027 41.4894 0.0280484
70.0366 39.6582 0.0325695
72.4874 37.5126 0.0226372
70.124 37.5232 2
67.7465 39.5094 2
67.1161 43.4555 2
65.3307 41.1886 2
65.9513 47.3923 2
64.4054 44.8054 2
67.8493 37.5241 3.97228
65.5729 39.3616 3.97672
64.9479 42.9936 3.97676
63.433 40.9016 3.97666
63.718 46.6655 3.97378
62.4533 44.1515 3.97646
70.0535 35.3941 0.032562
69.462 31.1524 0.0338732
67.5689 33.6026 0.0287878
66.6736 29.6444 0.0310685
62.338 12.6588 0.0233671
62.1908 15.8006 0.0338379
61.7521 18.7209 0.0389801
65.4281 25.7275 0.0330881
63.9352 28.3062 0.0252838
62.6697 24.6985 0.0294712
61.059 21.41 0.0345936
60.1718 23.8219 0.0276731
59.2397 12.8093 0.0325493
56.3939 13.1702 0.031196
55.8689 10.255 0.0269998
67.7852 35.5547 2
67.1741 31.6395 2
65.4864 33.9508 2
64.4457 30.2362 2
60.768 14.247 2
60.5735 17.1642 2
60.0733 19.8899 2
63.3348 26.4722 2
61.9386 28.8575 2
59.4195 22.3594 2
60.7661 25.4297 2
58.6553 24.4431 2
57.8961 14.3771 2
55.2948 14.7131 2
54.0362 9.14742 2
54.7769 12.0612 2
65.6715 35.6798 3.97681
64.9677 32.1877 3.97677
63.9979 34.2785 3.9767
62.2577 30.7004 3.97629
61.3513 27.1583 3.9758
60.463 29.2357 3.97637
59.2923 15.7072 3.96127
58.9717 25.9193 3.97621
59.0216 18.4249 3.96059
58.521 20.958 3.96357
57.9754 23.2199 3.96959
57.6128 24.8043 3.97519
52.1094 8.16264 3.97708
53.0492 11.0535 3.9702
56.6506 15.8047 3.96136
53.7897 13.7545 3.96505
54.3372 16.0831 3.96086
55.0687 67.9312 0.0118072
65.2161 49.3792 0.0327986
55.8013 64.9018 0.0244133
59.2132 62.3376 0.0307764
56.3163 62.0453 0.0296472
63.6158 53.2621 0.0354994
62.2248 50.5908 0.0304274
59.3179 59.527 0.0375114
59.2002 56.9583 0.0382359
60.9333 54.2537 0.0330985
59.0941 55.1163 0.0323777
53.0427 68.9985 2
53.9645 66.0052 2
57.8664 60.8344 2
54.6744 63.1809 2
55.1907 60.5638 2
62.96 48.6029 2
61.558 52.5151 2
59.9539 49.9287 2
57.9686 58.2176 2
59.1298 53.8709 2
57.9512 55.7325 2
52.0676 66.9948 3.98208
52.948 64.2033 3.97558
56.6239 59.445 3.96672
53.6636 61.5695 3.96997
54.2293 59.2684 3.97349
60.6284 47.7922 3.97343
59.4386 52.0183 3.97012
57.6203 49.4988 3.97364
56.6849 56.9217 3.96377
56.8687 54.0222 3.96675
50.107 67.8524 2
49.3343 65.9117 3.97937
47.461 66.5714 2
46.8887 64.721 3.97835
45.5562 67.0887 3.9799
43.9714 69.5858 3.98618
46.0545 69.154 2
46.6069 71.367 3.99082
48.0998 68.5746 0.0155903
48.8019 70.7222 2
49.554 73.0099 4
50.9465 69.9313 0.0100408
51.8506 72.1455 2
54.0858 71.1327 0
53.063 6.07319 3.98878
55.1039 7.14441 2
56.25 5.02411 4
58.3339 6.3199 2
57.0556 8.33863 0.0178279
60.3285 7.74928 0
65.9514 47.3928 0.0311026
67.117 43.4559 0.029157
64.4074 44.8063 0.0244819
65.3337 41.1893 0.0231943
67.7486 39.5095 0.0276594
70.1248 37.523 0.0325143
67.8476 37.5242 2
65.5695 39.3613 2
64.9447 42.9926 2
63.4318 40.9014 2
63.7165 46.6646 2
62.4516 44.1508 2
65.6817 37.5045 3.97671
63.5823 39.2544 3.97673
62.987 42.5069 3.97648
62.0316 40.6624 3.9766
61.5976 45.8414 3.97557
61.01 43.6103 3.97623
67.7875 35.5544 0.0281223
67.1749 31.639 0.0299088
65.49 33.9499 0.0230191
64.4483 30.2351 0.0240646
60.7683 14.2462 0.032656
60.5747 17.1644 0.0393822
60.0748 19.8891 0.0379047
63.3367 26.4711 0.0273051
61.9409 28.8567 0.0238002
60.768 25.4285 0.0251904
59.4178 22.3588 0.0319133
58.6561 24.4418 0.0254762
57.8973 14.3769 0.033975
55.2938 14.7158 0.0337976
54.0341 9.14735 0.0266145
54.7761 12.0659 0.0312414
65.668 35.6801 2
64.9643 32.1888 2
63.9961 34.279 2
62.2558 30.7007 2
59.2908 15.7062 2
59.0296 18.4228 2
58.521 20.9589 2
61.3495 27.1594 2
60.4622 29.2362 2
57.9685 23.2227 2
58.9708 25.9205 2
57.6185 24.8062 2
56.6486 15.8042 2
54.3412 16.0783 2
53.7894 13.7438 2
52.1114 8.16247 2
53.0503 11.0519 2
63.7917 35.6494 3.97659
62.5811 33.0923 3.97638
60.1784 30.7023 3.9761
59.1636 28.0284 3.97614
57.8876 17.0464 3.9597
57.3294 25.8777 3.9761
57.5442 19.577 3.96006
57.077 21.9754 3.96388
56.8045 24.101 3.97052
50.1106 7.29187 3.98231
51.2264 10.1463 3.9737
52.1551 12.8549 3.97103
55.4842 17.0551 3.95907
52.9443 15.353 3.96345
53.7015 17.0805 3.95885
53.0408 68.9993 0.0103155
53.9635 66.0053 0.0212927
62.9613 48.6037 0.0282375
54.6748 63.1792 0.0290055
57.8679 60.8334 0.0311048
55.1936 60.5636 0.0273081
61.5581 52.5154 0.0317553
59.9527 49.9292 0.0279106
57.9717 58.2165 0.0386722
57.9545 55.734 0.0370242
59.126 53.8706 0.0309425
52.0684 66.9951 2
52.9475 64.2042 2
56.6214 59.4455 2
53.6619 61.5715 2
54.2266 59.2689 2
60.6279 47.7913 2
59.4395 52.0179 2
57.6186 49.4978 2
56.6816 56.9247 2
56.8655 54.0208 2
51.1646 65.1168 3.9779
52.0337 62.514 3.97201
55.4293 58.1952 3.96215
52.8008 60.0629 3.96854
53.5949 58.4117 3.96677
57.8036 46.7212 3.97586
57.2255 51.6752 3.9704
55.7691 49.4151 3.97299
55.3319 55.7086 3.96478
55.0565 53.2698 3.96331
50.1065 67.8526 0.0164619
49.3344 65.9113 2
48.6131 64.1084 3.97854
47.4607 66.5714 0.0205389
45.5565 67.089 2
46.8893 64.7205 2
46.3753 63.0337 3.98236
45.1302 65.1816 3.97758
43.6298 67.4604 3.98173
41.8592 69.8729 3.98587
43.9719 69.5864 2
44.3742 71.8615 3.99114
46.0538 69.1538 0.0147672
46.6081 71.3668 2
47.2057 73.7222 4
48.8004 70.7225 0.00958194
49.554 73.0099 2
51.8506 72.1454 0
50.9538 5.13385 3.99048
53.0655 6.07419 2
54.0858 3.86728 4
55.1007 7.14299 0.0142656
56.25 5.02406 2
58.3339 6.31992 0
63.718 46.6655 0.0262188
64.9479 42.9936 0.0232382
62.4533 44.1515 0.0235405
63.433 40.9016 0.0233385
65.5729 39.3616 0.0232829
67.8493 37.5241 0.0277177
65.678 37.5045 2
63.5814 39.2544 2
62.9859 42.5065 2
62.0322 40.6623 2
61.5963 45.8404 2
61.0091 43.6102 2
63.6464 37.4586 3.97663
61.7405 39.3351 3.97676
60.7553 41.8993 3.97659
59.7717 44.6679 3.97627
65.6715 35.6798 0.0231858
64.9677 32.1877 0.0232336
63.9979 34.2785 0.0233008
62.2577 30.7004 0.0237113
59.2923 15.7072 0.0387328
59.0216 18.4249 0.0394071
58.521 20.958 0.0364345
61.3513 27.1583 0.0241958
60.463 29.2357 0.0236252
58.9717 25.9193 0.0237918
57.9754 23.2199 0.0304095
57.6128 24.8043 0.024808
56.6506 15.8047 0.038644
54.3372 16.0831 0.0391433
53.7897 13.7545 0.0349452
52.1094 8.16264 0.0229196
53.0492 11.0535 0.029797
63.7906 35.6494 2
62.5809 33.0928 2
60.1788 30.7025 2
57.8858 17.0465 2
57.5591 19.5727 2
57.0728 21.9779 2
59.1625 28.0293 2
56.8219 24.1021 2
57.3312 25.881 2
50.1125 7.28995 2
55.4856 17.0529 2
53.7083 17.0709 2
52.9448 15.3432 2
52.1561 12.8594 2
51.2281 10.1439 2
61.7834 35.3831 3.97647
59.7999 32.8149 3.97617
58.1026 30.1938 3.97592
56.8116 27.5415 3.97654
56.5412 18.245 3.96056
55.8561 25.2778 3.97519
56.1376 20.6497 3.96088
55.7517 23.0316 3.96398
48.0558 6.53159 3.98647
49.3213 9.34527 3.97638
50.4207 12.0358 3.97312
51.3479 14.5688 3.96487
54.3264 18.0255 3.95952
52.3123 17.1513 3.95895
52.0676 66.9948 0.017922
52.948 64.2033 0.0244169
60.6284 47.7922 0.0265746
53.6636 61.5695 0.0300281
56.6239 59.445 0.0332803
54.2293 59.2684 0.0265077
59.4386 52.0183 0.0298804
57.6203 49.4988 0.0263611
56.6849 56.9217 0.0362324
56.8687 54.0222 0.0332482
51.1645 65.1172 2
52.0323 62.5152 2
55.4284 58.1957 2
52.7992 60.0669 2
53.5932 58.4139 2
57.8028 46.7203 2
57.222 51.6738 2
55.7629 49.4132 2
55.3295 55.7084 2
55.0574 53.2698 2
50.3389 63.3655 3.97958
51.2196 60.8831 3.97545
54.1434 57.202 3.96819
52.2472 58.5597 3.97092
56.0358 44.0384 3.97656
54.9225 47.7392 3.97473
54.6455 51.2532 3.96588
53.7993 54.446 3.96584
49.3343 65.9117 0.0206344
48.6133 64.1071 2
47.9516 62.4562 3.98079
45.5562 67.0887 0.0201013
46.8887 64.721 0.0216502
43.6299 67.4613 2
46.3756 63.0333 2
45.1307 65.1817 2
45.9773 61.5634 3.98941
44.7629 63.4315 3.97709
43.3557 65.4932 3.97837
41.6623 67.679 3.98138
39.7015 70.0187 3.98531
41.8595 69.8734 2
42.1089 72.2059 3.99156
43.9714 69.5858 0.0138229
44.3752 71.8615 2
44.8159 74.2794 4
46.6069 71.367 0.00918226
47.2057 73.7222 2
49.554 73.0099 0
48.7851 4.32411 3.99149
50.9556 5.13358 2
51.8506 2.85458 4
53.063 6.07319 0.0112163
54.0858 3.86728 2
56.25 5.02411 0
61.5976 45.8414 0.0244274
62.987 42.5069 0.0235181
61.01 43.6103 0.0237743
62.0316 40.6624 0.0234038
63.5823 39.2544 0.0232734
65.6817 37.5045 0.0232937
63.6454 37.4585 2
61.7414 39.3352 2
60.7563 41.8993 2
59.7716 44.6673 2
61.57 37.4448 3.9769
59.713 39.8095 3.97681
58.3996 42.8268 3.9761
63.7917 35.6494 0.0234053
62.5811 33.0923 0.0236154
60.1784 30.7023 0.0239038
57.8876 17.0464 0.0403033
57.5442 19.577 0.0399408
57.077 21.9754 0.0361243
59.1636 28.0284 0.0238635
57.3294 25.8777 0.0238975
56.8045 24.101 0.0294848
55.4842 17.0551 0.0409339
53.7015 17.0805 0.0411509
52.9443 15.353 0.0365466
50.1106 7.29187 0.0176902
52.1551 12.8549 0.0289698
51.2264 10.1463 0.0263046
61.7842 35.3831 2
59.8002 32.8148 2
58.1037 30.1931 2
56.5437 18.2436 2
56.1562 20.6437 2
55.7594 23.0366 2
56.8112 27.5429 2
55.8614 25.283 2
48.057 6.53054 2
49.323 9.34359 2
54.3405 18.0232 2
52.3045 17.1416 2
51.3452 14.5691 2
50.4224 12.0361 2
59.3493 35.1542 3.97659
57.3768 32.3655 3.97565
55.9683 29.4954 3.97622
54.9137 26.8069 3.97567
55.2112 19.2999 3.96224
54.5297 24.2478 3.97123
54.7287 21.7165 3.96018
45.9625 5.88564 3.98824
43.3743 7.47902 3.98418
47.3539 8.63255 3.98121
48.5917 11.3198 3.97397
49.6873 13.792 3.96951
50.588 16.2208 3.96277
53.0191 18.7911 3.96234
51.2315 18.2009 3.96314
51.1646 65.1168 0.0220962
52.0337 62.514 0.0279913
57.8036 46.7212 0.0241361
52.8008 60.0629 0.0314616
55.4293 58.1952 0.0378471
53.5949 58.4117 0.0332258
57.2255 51.6752 0.0296032
55.7691 49.4151 0.0270111
55.3319 55.7086 0.0352155
55.0565 53.2698 0.0366875
50.3383 63.3645 2
51.2175 60.8818 2
54.1422 57.2034 2
52.2452 58.5617 2
56.0362 44.0378 2
54.9189 47.7376 2
54.6427 51.2519 2
53.7992 54.4478 2
49.5762 61.7271 3.9755
54.7841 41.6335 3.97407
50.5171 59.2728 3.96997
52.0639 56.4129 3.96825
53.4468 45.3769 3.97414
52.7886 49.1681 3.9697
52.3425 52.7318 3.96039
48.6131 64.1084 0.021457
47.9509 62.4536 2
47.3115 60.9875 3.99219
43.6298 67.4604 0.0182674
45.1302 65.1816 0.0224179
46.3753 63.0337 0.0176362
41.6627 67.6785 2
43.3564 65.4943 2
45.9759 61.5635 2
44.7634 63.4314 2
45.7461 60.6091 3.9892
44.4766 61.8063 3.97937
43.1441 63.7069 3.97805
41.5455 65.6316 3.977
39.6319 67.7561 3.98062
37.5259 70.0429 3.98423
39.7018 70.0189 2
39.8162 72.4024 3.99143
41.8592 69.8729 0.014135
42.1096 72.2061 2
42.3947 74.6792 4
44.3742 71.8615 0.00886384
44.8159 74.2794 2
47.2057 73.7222 0
43.8519 5.3623 3.98755
46.5713 3.64854 3.99197
48.7861 4.32388 2
49.554 1.99015 4
50.9538 5.13385 0.0095221
51.8506 2.85453 2
54.0858 3.86728 0
59.7717 44.6679 0.0237317
60.7553 41.8993 0.0234058
61.7405 39.3351 0.0232406
63.6464 37.4586 0.0233677
61.5706 37.4447 2
59.7142 39.8092 2
58.3999 42.8267 2
59.2036 37.5656 3.97727
57.3275 40.594 3.97719
54.1841 39.6469 3.97532
61.7834 35.3831 0.0235342
59.7999 32.8149 0.0238316
58.1026 30.1938 0.024076
56.5412 18.245 0.0394353
56.1376 20.6497 0.0391152
55.7517 23.0316 0.0360156
56.8116 27.5415 0.0234564
55.8561 25.2778 0.0248125
54.3264 18.0255 0.040484
52.3123 17.1513 0.0410478
51.3479 14.5688 0.0351307
48.0558 6.53159 0.013528
49.3213 9.34527 0.0236244
50.4207 12.0358 0.026881
59.3501 35.1538 2
45.9631 5.88406 2
43.3746 7.47705 2
57.3779 32.3659 2
55.9681 29.4948 2
55.2021 19.3049 2
54.7591 21.7185 2
54.5284 24.253 2
54.9113 26.8092 2
47.3554 8.62996 2
48.5935 11.3191 2
53.0305 18.7669 2
51.2383 18.1985 2
50.5851 16.2202 2
49.6866 13.795 2
56.7028 34.8091 3.97714
55.0309 31.6473 3.97567
53.8863 28.6045 3.977
53.2909 25.7242 3.97482
53.8021 20.2692 3.96079
53.2692 22.9061 3.95666
41.4001 7.08359 3.98363
45.36 7.99924 3.9867
42.8665 9.42497 3.97824
46.6637 10.6677 3.97881
47.724 13.1329 3.97449
48.8926 15.467 3.9693
49.9365 17.7858 3.95917
51.5325 19.4858 3.97178
50.3389 63.3655 0.0204186
51.2196 60.8831 0.0245487
56.0358 44.0384 0.0234371
54.9225 47.7392 0.0252681
52.2472 58.5597 0.0290768
54.1434 57.202 0.0318087
54.6455 51.2532 0.0341207
53.7993 54.446 0.0341648
49.5745 61.7256 2
54.7736 41.6291 2
50.515 59.2739 2
52.0663 56.4161 2
53.4423 45.3744 2
52.7866 49.1661 2
52.3442 52.7318 2
48.8155 60.1783 3.97723
51.5448 42.501 3.98329
49.7039 57.5692 3.96521
50.3789 54.341 3.96206
51.12 47.0831 3.97526
50.7841 50.807 3.95498
47.2298 43.5642 3.97443
47.9516 62.4562 0.0192084
47.3092 60.985 2
46.5886 59.7795 3.99479
41.6623 67.679 0.0186201
43.3557 65.4932 0.0216344
44.7629 63.4315 0.0229145
45.9773 61.5634 0.0105892
39.6326 67.7567 2
41.5461 65.6296 2
45.7454 60.6089 2
43.1442 63.7057 2
44.4748 61.8079 2
44.6029 60.2643 3.9958
42.9449 62.0586 3.97483
41.5993 63.8009 3.97704
39.6468 65.5955 3.97616
37.5632 67.7365 3.97868
31.6981 65.1131 3.97603
33.3929 67.4747 3.97854
35.334 69.9534 3.98444
37.5257 70.0444 2
37.509 72.4567 3.99197
39.7015 70.0187 0.0146904
39.8167 72.4025 2
39.9526 74.9197 4
42.1089 72.2059 0.00844018
42.3947 74.6792 2
44.8159 74.2794 0
41.7367 4.97045 3.98815
43.8522 5.36074 2
44.3269 3.11151 3.9925
46.5719 3.64799 2
47.2057 1.27793 4
48.7851 4.32411 0.00851044
49.554 1.99013 2
51.8506 2.85458 0
58.3996 42.8268 0.0238966
59.713 39.8095 0.0231932
61.57 37.4448 0.0231045
59.2049 37.5664 2
57.3275 40.5955 2
54.174 39.6542 2
56.0595 37.8761 3.97679
48.5715 41.2232 3.97194
52.1353 39.2852 3.98257
39.4438 6.80674 3.98456
59.3493 35.1542 0.0234104
57.3768 32.3655 0.0243485
55.9683 29.4954 0.0237796
55.2112 19.2999 0.037763
54.7287 21.7165 0.0398212
54.5297 24.2478 0.028766
54.9137 26.8069 0.0243283
53.0191 18.7911 0.0376649
51.2315 18.2009 0.0368625
50.588 16.2208 0.0372346
45.9625 5.88564 0.0117642
49.6873 13.792 0.0304906
47.3539 8.63255 0.0187895
48.5917 11.3198 0.0260287
43.3743 7.47902 0.0158224
56.7024 34.8099 2
41.4003 7.08354 2
45.3606 7.99682 2
42.8672 9.42313 2
55.0332 31.6457 2
53.885 28.6058 2
53.8068 20.2859 2
53.2569 22.9075 2
53.2875 25.7245 2
46.6654 10.6634 2
47.7244 13.1302 2
51.5535 19.4866 2
49.9355 17.787 2
48.8863 15.4779 2
54.0053 34.0087 3.97487
52.7366 30.7003 3.97555
51.995 27.4556 3.97476
51.7763 24.3473 3.97868
52.1969 21.2303 3.97408
41.0134 9.05762 3.97755
44.726 10.0007 3.98529
42.4615 10.9091 4.00162
45.9865 12.7439 3.97025
47.6484 14.6424 3.96685
48.0446 17.0429 3.96583
49.7382 19.8775 3.97696
49.5762 61.7271 0.0245014
50.5171 59.2728 0.0300346
54.7841 41.6335 0.0259339
53.4468 45.3769 0.025863
52.7886 49.1681 0.0302967
52.0639 56.4129 0.0317509
52.3425 52.7318 0.0396086
48.8123 60.176 2
51.5577 42.5133 2
49.702 57.5694 2
50.3792 54.3427 2
51.1221 47.0812 2
50.7869 50.8068 2
47.2414 43.5974 2
47.9303 58.6971 3.98424
49.217 45.104 3.98088
48.4594 55.856 3.9595
48.8357 52.4935 3.97625
49.1439 48.8854 3.97034
44.9693 39.7835 3.85209
45.4631 42.4848 3.89155
45.7335 45.5628 3.98317
42.8 41.0041 3.66997
41.5434 41.788 3.4709
47.3115 60.9875 0.00781133
46.5866 59.7742 2
45.4263 58.7766 3.99445
39.6319 67.7561 0.0193756
41.5455 65.6316 0.0229987
43.1441 63.7069 0.0219549
44.4766 61.8063 0.0206322
45.7461 60.6091 0.0108043
41.5994 63.7992 2
37.5635 67.7381 2
39.6476 65.5963 2
44.6031 60.2655 2
42.9429 62.0585 2
41.7482 62.4653 3.97677
42.4651 59.9519 3.98151
39.8941 63.5321 3.97591
37.6417 65.4912 3.97549
35.4637 67.6461 3.97851
33.576 65.3247 3.97468
31.9604 63.2749 3.97654
29.886 64.7035 3.97994
31.6976 65.1133 2
31.3779 67.1856 3.97911
33.3926 67.4755 2
33.1577 69.7471 3.98446
35.3335 69.9547 2
35.1958 72.3713 3.992
37.5259 70.0429 0.0157688
37.5091 72.4573 2
37.5 75 4
39.8162 72.4024 0.00856546
39.9526 74.9197 2
42.3947 74.6792 0
39.6247 4.71819 3.98925
41.7369 4.97014 2
42.0634 2.71854 3.99292
43.8519 5.3623 0.0124526
44.327 3.1107 2
44.8158 0.721173 4
46.5713 3.64854 0.00803035
47.2057 1.27779 2
49.554 1.99015 0
57.3275 40.594 0.0228096
59.2036 37.5656 0.0227349
54.1841 39.6469 0.0246823
48.5947 41.2316 2
56.0599 37.8732 2
52.1298 39.2498 2
52.9948 36.6152 3.97793
46.5016 40.3013 3.89588
49.5145 38.5059 3.98418
37.5177 6.67651 3.98541
39.4445 6.80509 2
39.2113 8.6988 3.98199
35.9438 8.49714 3.9837
56.7028 34.8091 0.0228597
55.0309 31.6473 0.0243255
53.8863 28.6045 0.023005
53.8021 20.2692 0.039208
53.2692 22.9061 0.0433432
53.2909 25.7242 0.0251762
51.5325 19.4858 0.0282206
49.9365 17.7858 0.0408271
48.8926 15.467 0.0307033
45.36 7.99924 0.0133021
47.724 13.1329 0.0255063
46.6637 10.6677 0.0211851
41.4001 7.08359 0.016372
42.8665 9.42497 0.0217583
54.0045 34.0067 2
41.0148 9.05952 2
44.7269 9.99794 2
42.4628 10.9097 2
52.7308 30.6979 2
52.0021 27.4572 2
52.1955 21.2387 2
51.7655 24.3524 2
45.9871 12.7374 2
47.6412 14.6118 2
49.7566 19.863 2
48.0406 17.0501 2
51.5079 32.9234 3.98233
50.5675 29.4165 3.97746
50.2952 25.9558 3.97039
49.7596 22.4737 3.98541
40.5642 11.6198 3.98344
43.8426 11.9146 3.9787
45.7651 15.4841 3.98859
47.4424 19.4886 3.97873
45.4303 37.4829 3.84956
48.8155 60.1783 0.0227694
49.7039 57.5692 0.0347927
51.5448 42.501 0.0167054
51.12 47.0831 0.0247431
50.7841 50.807 0.0450233
50.3789 54.341 0.0379397
47.2298 43.5642 0.0255658
47.9278 58.7016 2
49.2332 45.1191 2
48.4553 55.8585 2
48.8354 52.4968 2
49.1466 48.887 2
45.0604 39.8078 2
45.4915 42.5061 2
45.7403 45.5796 2
42.851 41.0555 2
41.5808 41.8131 2
46.7561 57.3031 3.97923
43.5216 39.3494 3.66937
41.9187 40.7214 3.48388
47.4055 47.134 3.98395
46.9759 54.1633 3.9601
47.2131 50.6373 3.97822
44.2706 47.1897 3.98277
44.112 41.8229 3.8507
44.2267 44.2969 3.88857
41.8392 42.4195 3.71237
40.5707 42.0809 3.45277
46.5886 59.7795 0.00520811
45.4267 58.7746 2
43.834 57.6609 3.98253
37.5632 67.7365 0.0213153
39.6468 65.5955 0.0238362
41.5993 63.8009 0.0229614
42.9449 62.0586 0.0251726
44.6029 60.2643 0.00419719
35.4637 67.6479 2
41.7468 62.4685 2
39.8934 63.5324 2
37.6422 65.493 2
42.4673 59.9491 2
40.6187 61.6073 3.98106
40.4289 58.1288 3.98339
37.8371 63.1875 3.97282
35.573 65.4137 3.97631
33.576 65.3252 2
31.9614 63.2774 2
33.6293 63.3157 3.97471
30.3804 62.8371 3.98066
32.1289 61.9779 3.98742
26.8815 61.4585 3.97941
28.0669 64.1331 3.97904
29.885 64.7048 2
29.408 66.7487 3.97961
31.6981 65.1131 0.0239679
31.3776 67.1859 2
31.0155 69.4127 3.98445
33.3929 67.4747 0.0214564
33.1569 69.7478 2
32.8939 72.1457 3.99139
35.334 69.9534 0.0155622
35.1953 72.372 2
35.0474 74.9194 4
37.509 72.4567 0.00802732
37.5 75 2
39.9526 74.9197 0
35.6222 6.72805 3.98467
37.5245 4.61722 3.98956
39.6248 4.71668 2
39.7899 2.47525 3.99301
41.7367 4.97045 0.0118495
42.0633 2.71823 2
42.3946 0.32156 4
44.3269 3.11151 0.00749708
44.8159 0.72056 2
47.2057 1.27793 0
48.5715 41.2232 0.0280616
56.0595 37.8761 0.0232142
52.1353 39.2852 0.0174331
46.522 40.3068 2
49.5132 38.5055 2
52.9944 36.6413 2
50.3195 35.5636 3.97395
47.164 37.7601 3.90399
44.9936 35.1868 3.85117
42.8451 33.9512 3.66807
41.5791 33.1726 3.46954
37.4591 8.53708 3.98475
37.5183 6.67595 2
39.4438 6.80674 0.0154398
39.2134 8.69659 2
38.9761 10.1353 3.98466
35.9001 9.77983 3.97992
34.1537 8.8292 3.98173
35.9448 8.49455 2
54.0053 34.0087 0.0251284
52.7366 30.7003 0.024448
51.995 27.4556 0.0252427
52.1969 21.2303 0.0259203
51.7763 24.3473 0.021324
49.7382 19.8775 0.0230418
48.0446 17.0429 0.0341668
47.6484 14.6424 0.0331521
44.726 10.0007 0.0147128
45.9865 12.7439 0.0297462
41.0134 9.05762 0.0224482
42.4615 10.9091 -0.00161841
51.5195 32.9198 2
40.5666 11.6242 2
43.8419 11.9101 2
50.5855 29.4159 2
50.2903 25.9602 2
49.7475 22.4663 2
45.7541 15.4319 2
47.4448 19.5184 2
49.0936 31.5493 3.98633
48.6676 27.725 3.97659
49.0423 24.6028 3.97999
47.074 22.2556 3.98991
38.2994 12.7506 3.97683
42.0825 14.3208 3.97908
44.7548 18.6108 3.9751
43.9454 37.4858 3.68203
45.5274 37.4874 2
47.9303 58.6971 0.015763
48.4594 55.856 0.0404979
49.217 45.104 0.0191207
49.1439 48.8854 0.0296574
48.8357 52.4935 0.0237516
44.9693 39.7835 0.14791
45.4631 42.4848 0.108451
45.7335 45.5628 0.0168255
42.8 41.0041 0.33003
41.5434 41.788 0.529103
46.7531 57.3084 2
43.5908 39.3759 2
41.9257 40.7352 2
47.4128 47.1293 2
46.971 54.167 2
47.2136 50.6442 2
44.3059 47.1849 2
44.1689 41.8557 2
44.2805 44.3269 2
41.897 42.4749 2
40.6031 42.0955 2
45.2881 55.8839 3.99972
42.2632 39.2009 3.49429
40.4593 40.6006 3.59832
45.6239 48.776 4.00219
45.2645 52.4261 3.98462
43.0217 48.1847 3.99432
42.9153 45.8274 3.88176
43.0047 43.5865 3.8322
40.684 43.4178 3.69024
39.1683 42.3385 3.50091
45.4263 58.7766 0.0055487
43.8321 57.6686 2
42.0573 56.2446 3.98731
35.4637 67.6461 0.0214857
37.6417 65.4912 0.0245072
39.8941 63.5321 0.0240859
41.7482 62.4653 0.0232332
42.4651 59.9519 0.018491
35.5734 65.4161 2
40.6189 61.6063 2
37.8375 63.1876 2
40.4291 58.1328 2
38.9065 56.3895 3.99346
38.2467 60.2897 3.98054
35.6071 63.1817 3.97268
33.576 65.3247 0.0253242
31.9604 63.2749 0.023456
33.6304 63.3167 2
30.3809 62.8391 2
32.1302 61.9798 2
28.6882 62.1751 3.98015
33.348 61.4832 3.97878
31.0785 61.2021 3.98199
27.5947 59.5512 3.98026
23.83 59.0306 3.99296
25.0515 60.8273 3.97686
26.8822 61.4589 2
26.2362 63.4623 3.9762
28.066 64.1314 2
27.4651 66.1728 3.97936
29.886 64.7035 0.020055
29.4073 66.7487 2
28.9082 68.9381 3.98366
31.3779 67.1856 0.0208927
31.0146 69.4128 2
30.6168 71.7773 3.99088
33.1577 69.7471 0.0155442
32.8929 72.1461 2
32.6054 74.6784 4
35.1958 72.3713 0.00799783
35.0474 74.9197 2
37.5 75 0
33.7253 6.98425 3.98336
35.4366 4.68739 3.98918
35.6228 6.7267 2
37.5156 2.38761 3.99312
37.5246 4.61657 2
39.6247 4.71819 0.0107498
39.7897 2.47443 2
39.9526 0.0806499 4
42.0634 2.71854 0.00708123
42.3947 0.320817 2
44.8158 0.721173 0
43.5392 35.6211 3.6734
41.9415 34.2345 3.47193
46.5016 40.3013 0.104124
49.5145 38.5059 0.0158197
52.9948 36.6152 0.0220733
47.1587 37.7374 2
50.3299 35.5599 2
45.0718 35.1664 2
42.8877 33.9041 2
41.6071 33.1469 2
47.3646 34.3513 3.94267
44.1665 33.1422 3.83564
41.8911 32.5437 3.7112
40.6007 32.8898 3.45176
37.312 10.6342 3.98151
37.4608 8.53682 2
37.5177 6.67651 0.0145922
39.2113 8.6988 0.0180131
38.9797 10.1332 2
34.7568 10.3895 3.98021
35.9022 9.77463 2
32.3806 9.37532 3.97806
34.1531 8.82477 2
35.9438 8.49714 0.0162965
51.5079 32.9234 0.0176698
50.5675 29.4165 0.022537
50.2952 25.9558 0.0296109
49.7596 22.4737 0.0145925
47.4424 19.4886 0.0212692
45.7651 15.4841 0.011409
43.8426 11.9146 0.0213001
40.5642 11.6198 0.0165616
49.1139 31.5362 2
38.3007 12.7457 2
42.0883 14.3329 2
48.6695 27.7273 2
49.0349 24.6055 2
47.0588 22.2548 2
44.7578 18.6762 2
47.0105 29.7169 3.9838
46.7249 25.3242 3.97155
44.2084 21.616 3.97983
36.5861 12.964 3.97416
38.6781 14.8668 3.97439
41.724 17.9498 3.97902
42.427 37.4671 3.53105
44.0051 37.4871 2
45.4303 37.4829 0.150435
46.7561 57.3031 0.0207728
46.9759 54.1633 0.0399
47.4055 47.134 0.0160523
47.2131 50.6373 0.0217844
43.5216 39.3494 0.330627
44.112 41.8229 0.149299
44.2267 44.2969 0.111426
44.2706 47.1897 0.0172252
41.8392 42.4195 0.287634
41.9187 40.7214 0.51612
40.5707 42.0809 0.547228
45.2848 55.8864 2
42.2666 39.2078 2
40.4946 40.5864 2
45.6233 48.7935 2
45.2596 52.4286 2
43.0584 48.2007 2
42.9732 45.876 2
43.0586 43.618 2
40.7297 43.4854 2
39.1662 42.3544 2
43.6115 54.343 3.99455
40.562 39.0474 3.61797
39.064 40.6759 3.56726
43.3474 50.2718 4.00393
41.6614 47.3331 3.92548
41.5738 44.921 3.84381
39.3429 44.0697 3.65657
37.4996 42.454 3.54339
43.834 57.6609 0.0174687
42.061 56.2367 2
40.3711 54.8037 3.99498
35.573 65.4137 0.0236859
37.8371 63.1875 0.0271759
40.6187 61.6073 0.018944
40.4289 58.1288 0.0166144
35.6078 63.1804 2
38.2458 60.2912 2
38.9086 56.3742 2
37.9813 55.0674 3.99495
36.9293 57.5761 3.99158
35.3642 60.8829 3.97901
33.6293 63.3157 0.0252901
30.3804 62.8371 0.0193438
32.1289 61.9779 0.0125802
33.349 61.4833 2
28.6887 62.1783 2
31.0797 61.2061 2
29.4223 60.2569 3.9765
32.3693 59.7012 3.99448
28.0662 58.3373 4.01248
27.5965 59.5509 2
25.4183 58.5502 3.98031
22.8167 58.1855 3.96768
23.4216 60.2953 3.97774
23.8319 59.0308 2
25.0526 60.8263 2
24.4421 62.744 3.97685
26.8815 61.4585 0.0205904
26.2364 63.4623 2
25.5503 65.481 3.97805
28.0669 64.1331 0.0209595
27.4645 66.1729 2
26.838 68.3263 3.98363
29.408 66.7487 0.0203922
28.9072 68.9378 2
28.3721 71.2626 3.99014
31.0155 69.4127 0.0155499
30.6156 71.7771 2
30.1842 74.2788 4
32.8939 72.1457 0.0086122
32.6053 74.6792 2
35.0474 74.9194 0
31.7898 7.42348 3.98199
33.3492 4.92723 3.98816
33.7252 6.98161 2
35.2461 2.46352 3.99316
35.4366 4.68669 2
35.6222 6.72805 0.0153332
37.5 0 4
37.5151 2.38722 2
37.5245 4.61722 0.0104367
39.7899 2.47525 0.0069885
39.9526 0.0802889 2
42.3946 0.32156 0
42.2577 35.7312 3.48036
43.6186 35.5904 2
40.5005 34.3592 3.59854
41.9408 34.2171 2
47.164 37.7601 0.0960089
50.3195 35.5636 0.0260461
44.9936 35.1868 0.148831
42.8451 33.9512 0.33193
41.5791 33.1726 0.530463
47.3932 34.3699 2
44.2089 33.1092 2
41.9436 32.4859 2
40.6299 32.8746 2
45.4782 31.7661 3.90275
43.053 31.3776 3.82584
40.7269 31.5498 3.68999
39.1894 32.6491 3.49615
35.6961 11.7872 3.97609
37.3161 10.6326 2
37.4591 8.53708 0.0152534
38.9761 10.1353 0.015345
33.1017 11.2275 3.97289
34.7561 10.3817 2
35.9001 9.77983 0.0200778
30.4862 10.0273 3.97729
32.3802 9.37418 2
34.1537 8.8292 0.0182705
49.0936 31.5493 0.0136671
48.6676 27.725 0.0234058
49.0423 24.6028 0.0200064
47.074 22.2556 0.0100868
44.7548 18.6108 0.0249023
42.0825 14.3208 0.0209201
38.2994 12.7506 0.023167
36.583 12.9429 2
47.0183 29.663 2
38.6766 14.8447 2
41.7158 17.9511 2
46.7254 25.3248 2
44.1929 21.5907 2
44.9845 27.8577 3.9987
43.5713 24.2565 4.02713
41.2836 20.964 3.98862
35.7713 14.8043 3.97772
38.6641 17.6793 3.98326
40.6187 37.4506 3.63417
42.4384 37.4715 2
43.9454 37.4858 0.317973
45.2881 55.8839 0.000282877
45.2645 52.4261 0.0153807
45.6239 48.776 -0.00218823
42.2632 39.2009 0.505714
43.0047 43.5865 0.167798
42.9153 45.8274 0.118237
43.0217 48.1847 0.00567824
40.684 43.4178 0.309761
40.4593 40.6006 0.401681
39.1683 42.3385 0.499091
43.6091 54.34 2
40.5716 39.0473 2
39.0641 40.6708 2
43.3391 50.2846 2
41.6663 47.3693 2
41.5936 44.9663 2
37.4951 42.4753 2
39.3581 44.1357 2
41.7628 52.8124 3.99967
39.0738 39.0847 3.57587
37.5031 40.7312 3.60019
35.8384 42.3478 3.49892
40.7994 49.4136 3.99423
39.7159 45.6567 3.81259
37.4988 44.3357 3.69015
42.0573 56.2446 0.0126856
40.3697 54.8124 2
38.7221 53.6128 3.99658
35.6071 63.1817 0.0273173
38.2467 60.2897 0.019455
38.9065 56.3895 0.00653773
35.3643 60.8769 2
36.9303 57.5807 2
37.982 55.0665 2
36.3183 55.1462 3.99747
34.4956 58.4852 3.99398
33.348 61.4832 0.021221
28.6882 62.1751 0.0198539
31.0785 61.2021 0.0180134
32.3697 59.704 2
29.4236 60.2559 2
30.3377 57.7792 3.98515
28.0692 58.3361 2
27.0337 56.7862 3.96842
27.5947 59.5512 0.0197414
25.421 58.5496 2
23.9434 56.7421 3.95919
21.4319 57.328 3.95868
22.0237 59.5673 3.97865
22.8183 58.1873 2
22.7489 61.989 3.97313
23.4227 60.2948 2
23.83 59.0306 0.00704368
25.0515 60.8273 0.0231418
24.4427 62.7471 2
23.6861 64.6967 3.97542
26.2362 63.4623 0.0237964
25.5495 65.4824 2
24.8105 67.5874 3.98243
27.4651 66.1728 0.0206431
26.8368 68.3272 2
26.1674 70.6035 3.98998
28.9082 68.9381 0.0163414
28.3708 71.2623 2
27.7943 73.7221 4
30.6168 71.7773 0.0091179
30.1841 74.2794 2
32.6054 74.6784 0
29.8126 7.99951 3.98006
31.2545 5.33383 3.98722
31.7894 7.42206 2
32.9821 2.70177 3.99274
33.3488 4.92565 2
33.7253 6.98425 0.0166367
35.0474 0.080333 4
35.2455 2.46327 2
35.4366 4.68739 0.0108187
37.5 0 2
37.5156 2.38761 0.00687901
39.9526 0.0806499 0
40.6101 35.879 3.62176
42.2637 35.732 2
43.5392 35.6211 0.326598
28.5466 10.7021 3.97727
39.0767 34.3103 3.56447
40.5108 34.3678 2
41.9415 34.2345 0.528073
47.3646 34.3513 0.057334
44.1665 33.1422 0.164357
41.8911 32.5437 0.288797
40.6007 32.8898 0.548239
45.5129 31.7495 2
43.099 31.3423 2
40.7712 31.4821 2
39.1927 32.633 2
43.8554 29.9895 3.89552
41.5943 30.0387 3.84494
39.3725 30.9065 3.65512
37.5311 32.5418 3.54125
34.0988 12.9518 3.97429
35.6961 11.7739 2
37.312 10.6342 0.0184872
31.1918 11.9996 3.97752
33.1022 11.2269 2
34.7568 10.3895 0.0197868
30.4845 10.0227 2
32.3806 9.37532 0.0219429
47.0105 29.7169 0.0161998
46.7249 25.3242 0.0284512
36.5861 12.964 0.0258352
44.2084 21.616 0.0201719
41.724 17.9498 0.0209771
38.6781 14.8668 0.0256129
35.7742 14.8126 2
44.9799 27.855 2
38.6628 17.6844 2
41.2659 20.9539 2
43.5586 24.2391 2
33.6152 15.909 3.98572
42.7316 26.6931 3.9855
40.7792 23.5632 3.99483
38.3905 20.4552 3.99322
35.8445 17.5736 3.98169
39.0935 37.4876 3.58851
40.621 37.4545 2
42.427 37.4671 0.468954
43.6115 54.343 0.00544622
43.3474 50.2718 -0.00393427
40.562 39.0474 0.382025
41.5738 44.921 0.156193
41.6614 47.3331 0.0745203
39.3429 44.0697 0.34343
39.064 40.6759 0.432742
37.4996 42.454 0.456609
41.7545 52.813 2
39.0668 39.0718 2
37.4997 40.7212 2
40.7817 49.4315 2
35.8366 42.3626 2
39.7336 45.7154 2
37.492 44.3988 2
39.7204 51.6075 4.00293
37.5079 39.0877 3.6142
35.9499 40.6906 3.56814
34.4303 42.0973 3.45416
35.6548 44.087 3.64572
38.66 48.3063 3.93697
37.529 45.948 3.8449
40.3711 54.8037 0.0050167
38.7218 53.6052 2
36.7597 52.9258 3.9965
35.3642 60.8829 0.0209936
36.9293 57.5761 0.00842246
37.9813 55.0674 0.00504945
34.4942 58.4819 2
36.3215 55.1347 2
33.2699 55.3463 3.99308
32.3693 59.7012 0.00551573
29.4223 60.2569 0.0234993
30.34 57.775 2
28.8276 55.2849 3.98816
28.0662 58.3373 -0.0124825
27.0372 56.7851 2
25.472 55.0717 3.95679
21.9837 55.2591 3.95986
25.4183 58.5502 0.0196889
23.9454 56.7438 2
20.3039 56.9601 3.96279
20.6843 58.7233 3.96609
21.434 57.3297 2
21.1841 61.1184 3.97342
22.0246 59.5686 2
22.8167 58.1855 0.0323183
21.9017 63.8175 3.97495
22.75 61.9906 2
23.4216 60.2953 0.0222559
24.4421 62.744 0.0231483
23.6855 64.6963 2
22.8391 66.7296 3.97957
25.5503 65.481 0.0219488
24.8092 67.5878 2
24.0116 69.805 3.98986
26.838 68.3263 0.0163707
26.1656 70.6034 2
25.446 73.0099 4
28.3721 71.2626 0.00985527
27.7943 73.7222 2
30.1842 74.2788 0
27.8225 8.65944 3.98024
29.1568 5.88068 3.98541
29.8115 7.99607 2
30.7277 3.09853 3.99248
31.254 5.33245 2
31.7898 7.42348 0.018014
32.6053 0.320823 4
32.9812 2.70119 2
33.3492 4.92723 0.0118444
35.0474 0.0802903 2
35.2461 2.46352 0.00683865
37.5 0 0
39.0593 35.8995 3.58564
40.592 35.8784 2
42.2577 35.7312 0.519643
28.545 10.6992 2
26.6252 11.3988 3.97784
29.2328 12.6514 3.98129
37.5246 34.2706 3.59934
39.0928 34.3267 2
40.5005 34.3592 0.401459
45.4782 31.7661 0.097251
43.053 31.3776 0.174165
40.7269 31.5498 0.310015
39.1894 32.6491 0.503854
43.8864 29.9559 2
41.6224 29.9962 2
39.3814 30.8417 2
37.5327 32.5196 2
42.0195 28.6792 3.86521
39.718 29.3093 3.83533
37.526 30.6616 3.69296
35.859 32.6506 3.50309
31.9273 14.4991 3.9802
34.0997 12.9577 2
35.6961 11.7872 0.0239126
31.1903 11.9924 2
33.1017 11.2275 0.0271076
30.4862 10.0273 0.0227107
44.9845 27.8577 0.00129789
43.5713 24.2565 -0.0271335
35.7713 14.8043 0.0222767
41.2836 20.964 0.0113758
38.6641 17.6793 0.016743
33.6099 15.8968 2
35.8399 17.5702 2
42.7681 26.6726 2
38.3732 20.5154 2
40.7731 23.5415 2
33.551 17.4509 3.98117
40.2084 25.9836 3.95538
38.0317 23.3071 3.99812
35.5626 20.2135 3.99746
37.5142 37.4892 3.62975
39.0815 37.4798 2
40.6187 37.4506 0.365832
41.7628 52.8124 0.000327657
40.7994 49.4136 0.00576733
39.0738 39.0847 0.424128
39.7159 45.6567 0.187411
37.4988 44.3357 0.309852
37.5031 40.7312 0.399815
35.8384 42.3478 0.501076
39.7021 51.6131 2
37.5096 39.0838 2
35.9475 40.6797 2
38.6779 48.3654 2
34.4028 42.1121 2
35.6338 44.1496 2
37.5232 46.0075 2
37.6811 50.6093 3.99508
35.9596 39.096 3.5849
34.5491 40.6258 3.60128
33.4518 41.807 3.47365
34.3205 43.4305 3.68495
35.2481 45.6781 3.83097
36.9229 47.9141 3.90197
38.7221 53.6128 0.00342235
36.7615 52.9023 2
34.4552 52.2529 3.99874
34.4956 58.4852 0.00602429
36.3183 55.1462 0.00252829
33.2759 55.3556 2
30.6678 53.2551 3.99325
30.3377 57.7792 0.0148451
28.8299 55.28 2
27.1091 53.3608 3.95705
27.0337 56.7862 0.0315759
25.4757 55.0737 2
23.8345 53.3738 3.95475
20.786 53.0999 3.95825
20.0789 55.7485 3.96173
21.9826 55.2612 2
23.9434 56.7421 0.040806
19.4935 57.829 3.96308
20.3009 56.9625 2
19.7261 60.1474 3.97441
20.6828 58.7252 2
21.4319 57.328 0.041324
20.2166 62.8278 3.97149
21.1848 61.1201 2
22.0237 59.5673 0.0213517
20.9411 65.7554 3.97675
21.9016 63.821 2
22.7489 61.989 0.0268721
23.6861 64.6967 0.0245777
22.8377 66.7292 2
21.9143 68.8721 3.98908
24.8105 67.5874 0.0175662
24.0094 69.8042 2
23.1494 72.1454 4
26.1674 70.6035 0.0100211
25.446 73.0099 2
27.7943 73.7221 0
25.8618 9.38872 3.9793
27.0715 6.54511 3.98399
27.8208 8.6573 2
28.4902 3.64449 3.99162
29.1558 5.87854 2
29.8126 7.99951 0.0199389
30.1841 0.720592 4
30.7263 3.09817 2
31.2545 5.33383 0.0127807
32.6053 0.320817 2
32.9821 2.70177 0.00725707
35.0474 0.080333 0
37.5109 35.8965 3.60961
39.0437 35.894 2
40.6101 35.879 0.378235
24.7826 12.0877 3.97604
23.7655 14.3902 3.97604
28.5466 10.7021 0.0227291
26.6237 11.3959 2
29.2303 12.6493 2
27.3004 13.3843 3.97852
29.7943 14.2116 3.98195
35.9585 34.3117 3.56852
37.5322 34.2789 2
39.0767 34.3103 0.435528
37.5311 32.5418 0.458749
43.8554 29.9895 0.10448
41.5943 30.0387 0.155057
39.3725 30.9065 0.344876
42.0514 28.6192 2
39.7426 29.254 2
37.5286 30.5987 2
35.8594 32.6364 2
39.8819 27.9447 3.87949
37.4877 29.0405 3.83615
35.6849 30.9229 3.65797
34.4515 32.902 3.45617
30.9425 16.8557 3.98896
31.9233 14.4869 2
34.0988 12.9518 0.0257097
31.1918 11.9996 0.0224751
42.7316 26.6931 0.0145045
40.7792 23.5632 0.00517356
33.6152 15.909 0.0142779
35.8445 17.5736 0.0183123
38.3905 20.4552 0.00678334
33.5452 17.4664 2
35.5727 20.2073 2
40.2812 25.9665 2
38.0168 23.2659 2
32.8859 19.8478 3.99769
37.6583 25.6222 3.96724
35.2432 22.9584 4.00421
35.9388 37.4865 3.59089
37.5066 37.4887 2
39.0935 37.4876 0.411489
39.7204 51.6075 -0.00293241
38.66 48.3063 0.0630283
37.5079 39.0877 0.385796
37.529 45.948 0.155101
35.6548 44.087 0.354277
35.9499 40.6906 0.431858
34.4303 42.0973 0.545842
37.6629 50.6458 2
35.9778 39.0838 2
34.5146 40.6192 2
36.9077 47.9756 2
33.4166 41.8338 2
34.2762 43.4953 2
35.2271 45.7316 2
35.5663 49.7992 3.98594
34.4433 39.0894 3.6201
33.0862 40.7464 3.47752
33.1517 42.4348 3.71641
33.4562 44.9281 3.83432
34.4781 47.0627 3.87408
36.7597 52.9258 0.00350195
34.4473 52.2638 2
32.2392 51.0536 4.01042
33.2699 55.3463 0.00691673
30.6724 53.258 2
28.7068 51.468 3.98382
28.8276 55.2849 0.0118419
27.1113 53.3595 2
25.41 51.6094 3.9532
25.472 55.0717 0.0432099
23.8355 53.3789 2
22.3524 51.6635 3.95162
19.6391 51.4911 3.96123
19.1732 54.203 3.96117
20.788 53.0989 2
18.5533 56.6511 3.96323
20.0765 55.7504 2
21.9837 55.2591 0.0401361
18.3959 59.0596 3.96574
19.4909 57.8309 2
20.3039 56.9601 0.037211
18.6313 61.7177 3.9718
19.7262 60.15 2
20.6843 58.7233 0.0339118
19.1304 64.6659 3.97584
20.2169 62.8314 2
21.1841 61.1184 0.0265757
19.8886 67.8084 3.98678
20.9398 65.7542 2
21.9017 63.8175 0.025046
22.8391 66.7296 0.0204285
21.9117 68.8707 2
20.9142 71.1327 4
24.0116 69.805 0.0101356
23.1494 72.1455 2
25.446 73.0099 0
23.1052 12.8078 3.97725
23.975 10.1781 3.97687
25.025 7.31612 3.98264
25.8596 9.38683 2
26.282 4.3286 3.9907
27.0701 6.54379 2
27.8225 8.65944 0.0197647
27.7943 1.27781 4
28.4881 3.64422 2
29.1568 5.88068 0.0145925
30.1841 0.720551 2
30.7277 3.09853 0.00751655
32.6053 0.320823 0
35.9453 35.8866 3.57527
37.5297 35.9052 2
39.0593 35.8995 0.414356
24.7794 12.083 2
23.7659 14.395 2
22.4989 15.0801 3.97891
25.3689 13.933 3.97182
24.0527 15.65 3.98592
26.6252 11.3988 0.0221614
29.2328 12.6514 0.0187093
27.3002 13.3829 2
29.7887 14.2088 2
28.379 15.9802 3.98442
34.5674 34.3791 3.59712
35.9561 34.3162 2
37.5246 34.2706 0.400657
35.859 32.6506 0.496913
37.526 30.6616 0.307045
42.0195 28.6792 0.134792
39.718 29.3093 0.164669
39.9121 27.9025 2
37.4839 28.9828 2
35.6706 30.8529 2
34.4188 32.8897 2
37.627 27.6739 3.87365
35.3014 29.3248 3.833
34.3278 31.5662 3.68671
33.4714 33.1892 3.47118
30.2324 19.4371 3.98301
30.9365 16.8432 2
31.9273 14.4991 0.0198011
40.2084 25.9836 0.0446227
38.0317 23.3071 0.00187844
33.551 17.4509 0.0188331
35.5626 20.2135 0.00253729
32.8867 19.874 2
35.2435 22.9456 2
37.715 25.6002 2
32.4312 22.5822 3.99728
35.1239 25.5362 3.99049
34.3999 37.5067 3.63758
35.9396 37.4952 2
37.5142 37.4892 0.370254
37.6811 50.6093 0.00491981
36.9229 47.9141 0.0980305
35.9596 39.096 0.415096
35.2481 45.6781 0.169034
34.3205 43.4305 0.315047
34.5491 40.6258 0.398717
33.4518 41.807 0.526347
35.5458 49.8122 2
34.4398 39.087 2
33.0808 40.7598 2
34.4568 47.1157 2
33.109 42.4919 2
33.4299 44.9732 2
33.4158 48.8878 3.9741
32.7579 39.2408 3.48445
32.1814 41.0278 3.67032
31.9849 43.6009 3.83112
32.6525 46.0496 3.87607
34.4552 52.2529 0.00126442
32.2451 51.0621 2
30.2426 49.6219 4.00083
30.6678 53.2551 0.00675246
28.7089 51.4628 2
26.9236 49.8341 3.97368
27.1091 53.3608 0.0429542
25.4107 51.6119 2
23.8005 50.0201 3.96402
23.8345 53.3738 0.0452489
22.3535 51.6614 2
20.9647 50.151 3.96409
18.4242 50.193 3.96971
18.1923 52.6692 3.96381
19.6384 51.4901 2
17.6344 55.2507 3.96233
19.1712 54.203 2
20.786 53.0999 0.0417463
17.1953 57.8173 3.96092
18.549 56.6526 2
20.0789 55.7485 0.0382697
17.1478 60.5041 3.96698
18.3952 59.0608 2
19.4935 57.829 0.0369241
17.4133 63.4451 3.9697
18.632 61.7192 2
19.7261 60.1474 0.0255918
17.9446 66.6156 3.9851
19.1295 64.6631 2
20.2166 62.8278 0.0285055
18.75 69.9759 4
19.8859 67.8058 2
20.9411 65.7554 0.0232531
21.9143 68.8721 0.0109153
20.9142 71.1327 2
23.1494 72.1454 0
21.6005 13.6379 3.97483
22.1949 11.0434 3.97355
23.103 12.8129 2
23.0426 8.18294 3.98038
23.9721 10.1769 2
24.1196 5.14346 3.99003
25.0231 7.3151 2
25.8618 9.38872 0.0207023
25.446 1.99014 4
26.2794 4.32903 2
27.0715 6.54511 0.0160086
27.7943 1.27778 2
28.4902 3.64449 0.00838381
30.1841 0.720592 0
34.4664 35.9182 3.61674
35.9562 35.9024 2
37.5109 35.8965 0.390392
21.3338 15.8866 3.98057
24.7826 12.0877 0.0239568
23.7655 14.3902 0.0239605
25.368 13.9189 2
22.5007 15.0752 2
24.0564 15.6564 2
23.3018 16.2871 3.96815
25.4096 16.1199 3.98446
27.3004 13.3843 0.0214833
29.7943 14.2116 0.0180469
28.3727 15.9896 2
27.4748 18.861 3.98347
33.0993 34.2575 3.48584
34.5321 34.3927 2
35.9585 34.3117 0.431483
34.4515 32.902 0.543831
35.6849 30.9229 0.34203
37.4877 29.0405 0.163846
39.8819 27.9447 0.12051
37.6 27.635 2
33.4392 33.165 2
35.3018 29.262 2
34.2857 31.4999 2
35.1994 27.7707 3.88899
33.4542 30.061 3.83544
33.1769 32.5606 3.71366
29.7429 22.0403 4.00575
30.2353 19.4427 2
30.9425 16.8557 0.0110397
37.6583 25.6222 0.032765
35.2432 22.9584 -0.00421396
32.8859 19.8478 0.00231396
32.4358 22.5748 2
35.1545 25.526 2
32.0048 25.8499 4.00478
32.5861 37.5047 3.53029
34.4109 37.5011 2
35.9388 37.4865 0.409105
35.5663 49.7992 0.0140608
34.4781 47.0627 0.125924
34.4433 39.0894 0.379902
33.4562 44.9281 0.165683
33.1517 42.4348 0.283593
33.0862 40.7464 0.522483
33.4011 48.8894 2
32.7663 39.2479 2
32.141 41.0716 2
32.6215 46.0993 2
31.936 43.6339 2
31.5873 47.7355 3.98044
31.4849 39.3655 3.6737
30.8666 41.8457 3.84195
31.0515 44.6844 3.88797
32.2392 51.0536 -0.0104185
30.2503 49.6501 2
28.3981 48.0091 3.96488
28.7068 51.468 0.0161831
26.923 49.8356 2
25.2091 48.2771 3.96549
25.41 51.6094 0.0467961
23.8024 50.0191 2
22.25 48.5982 3.97082
22.3524 51.6635 0.0483787
20.9638 50.1503 2
19.5407 48.9361 3.97338
17.302 49.2073 3.97486
17.1383 51.2895 3.96874
18.4267 50.1914 2
16.6449 53.7736 3.96516
18.1908 52.6688 2
19.6391 51.4911 0.038771
16.0914 56.4109 3.96222
17.6333 55.2513 2
19.1732 54.203 0.0388258
15.7656 59.1731 3.96386
17.1908 57.8194 2
18.5533 56.6511 0.0367725
15.7934 62.1032 3.96831
17.1491 60.5062 2
18.3959 59.0596 0.034261
16.0914 65.2982 3.9832
17.412 63.4516 2
18.6313 61.7177 0.0282008
16.6661 68.6801 4
17.9419 66.613 2
19.1304 64.6659 0.0241635
18.75 69.9759 2
19.8886 67.8084 0.0132183
20.9142 71.1327 0
20.2355 14.6492 3.96818
21.5987 13.6501 2
20.5365 12.0232 3.97417
21.1461 9.15589 3.97774
22.1918 11.0412 2
23.1052 12.8078 0.0227497
22.0188 6.08221 3.98956
23.0402 8.18208 2
23.975 10.1781 0.0231281
23.1494 2.85457 4
24.1165 5.14431 2
25.025 7.31612 0.0173588
25.446 1.99012 2
26.282 4.3286 0.00929518
27.7943 1.27781 0
32.749 35.7731 3.49422
34.4543 35.9182 2
35.9453 35.8866 0.424725
21.3371 15.8795 2
20.3471 17.0127 3.96806
22.1344 16.6854 3.96645
25.3689 13.933 0.0281819
22.4989 15.0801 0.0210927
24.0527 15.65 0.0140832
25.4122 16.1119 2
23.3061 16.2847 2
24.2539 18.5607 3.96891
27.1767 21.6523 3.99389
28.379 15.9802 0.0155806
27.4714 18.9069 2
32.2216 33.9732 3.66466
33.0966 34.2404 2
34.5674 34.3791 0.402879
33.4714 33.1892 0.528821
34.3278 31.5662 0.313289
35.3014 29.3248 0.167
37.627 27.6739 0.126346
35.1995 27.7208 2
33.1032 32.5042 2
33.4238 30.0206 2
32.9027 28.4177 3.89796
31.995 31.3968 3.82205
29.135 24.533 4.00456
29.7365 22.0552 2
30.2324 19.4371 0.0169864
35.1239 25.5362 0.00950951
32.4312 22.5822 0.00272286
31.9957 25.8216 2
30.1302 27.5069 3.97676
31.0707 37.4955 3.67874
32.5909 37.5038 2
34.3999 37.5067 0.362419
33.4158 48.8878 0.0258985
32.6525 46.0496 0.123929
32.7579 39.2408 0.515554
31.9849 43.6009 0.168881
32.1814 41.0278 0.329679
31.5406 47.7592 2
31.4094 39.3885 2
30.8251 41.8795 2
31.0072 44.7245 2
29.8227 46.3441 3.99073
30.0253 39.8043 3.85411
29.5498 42.9566 3.89729
30.2426 49.6219 -0.000826939
28.3951 48.0086 2
26.6208 46.4444 3.98131
26.9236 49.8341 0.0263198
25.21 48.2752 2
23.4995 46.8626 3.97349
23.8005 50.0201 0.0359843
22.2495 48.5986 2
20.5463 47.4449 3.97649
20.9647 50.151 0.035913
19.5412 48.9348 2
18.1351 48.0395 3.97693
16.5343 48.5679 3.9765
17.303 49.2062 2
16.2048 50.0615 3.97305
15.6568 52.321 3.96876
17.1399 51.2885 2
18.4242 50.193 0.0302927
15.0416 54.9053 3.96376
16.6465 53.7732 2
18.1923 52.6692 0.0361894
14.4983 57.7033 3.96193
16.0917 56.4114 2
17.6344 55.2507 0.0376735
14.2712 60.6686 3.96782
15.768 59.1741 2
17.1953 57.8173 0.0390791
14.3362 63.855 3.97887
15.7943 62.1055 2
17.1478 60.5041 0.0330165
14.6715 67.2507 4
16.0888 65.2944 2
17.4133 63.4451 0.0302992
16.6661 68.6801 2
17.9446 66.6156 0.0149017
18.75 69.9759 0
18.9556 15.832 3.97626
20.2368 14.6463 2
18.9899 13.1463 3.97341
21.6005 13.6379 0.025173
20.535 12.0253 2
19.3462 10.2466 3.97515
19.9937 7.14751 3.98783
21.1428 9.15551 2
22.1949 11.0434 0.0264515
20.9142 3.86727 4
22.015 6.08383 2
23.0426 8.18294 0.0196163
23.1494 2.85451 2
24.1196 5.14346 0.00997176
25.446 1.99014 0
31.5105 35.637 3.66917
32.7529 35.765 2
34.4664 35.9182 0.383257
21.3338 15.8866 0.0194339
22.1376 16.6783 2
20.3495 17.0089 2
19.3456 18.4805 3.95679
21.8294 17.9362 3.97788
25.4096 16.1199 0.015545
23.3018 16.2871 0.0318457
24.2451 18.5845 2
22.4281 20.0056 3.97175
24.7582 21.52 3.98694
26.7564 23.8185 3.98189
27.185 21.5742 2
27.4748 18.861 0.0165339
30.9229 33.161 3.84615
32.1794 33.9212 2
33.0993 34.2575 0.514164
33.1769 32.5606 0.286337
33.4542 30.061 0.164559
35.1994 27.7707 0.111007
32.8623 28.3858 2
31.9392 31.3551 2
30.744 29.7993 3.92436
28.3949 26.6928 3.99659
29.1188 24.5393 2
29.7429 22.0403 -0.00575419
32.0048 25.8499 -0.00478264
30.1214 27.4843 2
29.5776 37.494 3.85064
31.0076 37.4937 2
32.5861 37.5047 0.469712
31.5873 47.7355 0.0195558
31.0515 44.6844 0.112032
31.4849 39.3655 0.326303
30.8666 41.8457 0.158047
29.8267 46.3457 2
29.9515 39.8169 2
29.5178 42.9893 2
28.0953 44.6696 3.96952
27.784 40.5254 3.93197
28.3981 48.0091 0.0351176
26.6193 46.4447 2
24.8071 44.977 3.97859
25.2091 48.2771 0.0345069
23.498 46.8619 2
21.5712 45.7228 3.97774
22.25 48.5982 0.0291764
20.5466 47.444 2
18.8679 46.5907 3.9766
19.5407 48.9361 0.0266157
18.1358 48.0384 2
16.7732 47.591 3.97638
16.5357 48.567 2
15.5505 48.9131 3.97562
17.302 49.2073 0.025138
16.2066 50.0606 2
14.7706 50.8974 3.97214
14.0147 53.3662 3.9666
15.6582 52.3204 2
17.1383 51.2895 0.0312622
13.3299 56.1289 3.9618
15.0422 54.9053 2
16.6449 53.7736 0.0348434
12.8578 59.1079 3.96614
14.5021 57.7032 2
16.0914 56.4109 0.0377829
12.6821 62.297 3.97638
14.2729 60.6689 2
15.7656 59.1731 0.0361416
12.7746 65.6939 4
14.3339 63.8512 2
15.7934 62.1032 0.0316942
14.6714 67.2507 2
16.0914 65.2982 0.016804
16.6661 68.6801 0
17.7153 17.2102 3.96293
18.9556 15.8302 2
17.5262 14.4171 3.96851
20.2355 14.6492 0.0318161
18.9893 13.1508 2
17.6431 11.4676 3.97352
20.5365 12.0232 0.0258345
19.3426 10.2476 2
18.0541 8.3406 3.98586
18.75 5.0241 4
19.9892 7.14981 2
21.1461 9.15589 0.0222586
20.9142 3.86727 2
22.0188 6.08221 0.0104365
23.1494 2.85457 0
30.0544 35.2034 3.85274
31.4371 35.6128 2
32.749 35.7731 0.505779
22.1344 16.6854 0.0335457
20.3471 17.0127 0.0319441
21.8286 17.9355 2
19.3393 18.4742 2
18.1798 20.0355 3.96163
21.0097 19.4764 3.96589
24.2539 18.5607 0.0310891
22.4191 20.0125 2
24.7653 21.5026 2
22.6014 21.8512 3.98134
25.0321 23.2571 3.97153
25.9989 26.0685 3.97901
26.7527 23.8121 2
27.1767 21.6523 0.00611155
29.3139 32.5074 3.89769
30.8553 33.1257 2
32.2216 33.9732 0.335336
31.995 31.3968 0.177954
32.9027 28.4177 0.102039
30.722 29.7888 2
27.7543 29.2715 4.01448
28.3807 26.7032 2
29.135 24.533 -0.00455628
30.1302 27.5069 0.0232369
27.9253 37.3614 3.89938
29.5044 37.4862 2
31.0707 37.4955 0.321262
29.8227 46.3441 0.00927171
29.5498 42.9566 0.102706
30.0253 39.8043 0.145891
28.0901 44.726 2
27.7522 40.5234 2
26.1826 43.0316 3.98796
25.0538 39.4405 3.97182
26.6208 46.4444 0.0186852
24.7967 44.9788 2
22.7217 43.7621 3.97624
23.4995 46.8626 0.0265108
21.5678 45.7245 2
19.6374 44.8284 3.97625
20.5463 47.4449 0.0235102
18.8677 46.5911 2
17.131 46.0892 3.97625
18.1351 48.0395 0.023071
16.7744 47.5903 2
15.3155 47.5669 3.97613
16.5343 48.5679 0.0234985
15.5525 48.9123 2
14.0801 49.4641 3.97451
16.2048 50.0615 0.0269466
14.7718 50.8968 2
13.0854 51.8116 3.96894
12.2351 54.4894 3.96341
14.0156 53.3658 2
15.6568 52.321 0.0312391
11.5448 57.4462 3.96532
13.3302 56.129 2
15.0416 54.9053 0.0362409
11.1371 60.6225 3.9734
12.8599 59.1073 2
14.4983 57.7033 0.0380734
10.9835 64.0165 4
12.6804 62.2924 2
14.2712 60.6686 0.0321791
12.7745 65.694 2
14.3362 63.855 0.0211278
14.6715 67.2507 0
16.522 18.719 3.96194
17.7136 17.2077 2
16.1209 15.8222 3.9664
18.9556 15.832 0.0237435
17.5258 14.4134 2
16.0274 12.837 3.97108
18.9899 13.1463 0.0265875
17.6412 11.4743 2
16.2052 9.66489 3.98295
19.3462 10.2466 0.0248487
18.0491 8.34494 2
16.6661 6.31991 4
18.75 5.02404 2
19.9937 7.14751 0.012169
20.9142 3.86727 0
28.4482 34.8477 3.89856
29.9704 35.169 2
31.5105 35.637 0.330831
16.9187 21.4725 3.96716
21.8294 17.9362 0.0221238
19.3456 18.4805 0.0432149
21.0011 19.4725 2
18.1783 20.0329 2
20.0008 21.6919 3.97105
22.4281 20.0056 0.0282515
24.7582 21.52 0.0130631
22.5963 21.8566 2
25.0241 23.259 2
23.314 24.7336 3.97189
25.3038 28.6692 3.98387
25.9905 26.0744 2
26.7564 23.8185 0.0181083
27.1673 31.8673 3.98213
29.2781 32.486 2
30.9229 33.161 0.153853
30.744 29.7993 0.0756373
27.766 29.2505 2
28.3949 26.6928 0.00340704
25.7496 36.849 3.9704
27.9056 37.3644 2
29.5776 37.494 0.149356
28.0953 44.6696 0.0304805
27.784 40.5254 0.0680252
26.1591 43.0537 2
25.0289 39.4441 2
23.9362 41.7792 3.98234
22.7729 38.5237 3.97984
24.8071 44.977 0.0214086
22.7194 43.7628 2
20.5174 42.7795 3.97532
21.5712 45.7228 0.0222569
19.6377 44.829 2
17.5393 44.269 3.97565
18.8679 46.5907 0.0234006
17.1315 46.0894 2
15.2789 45.9914 3.9759
16.7732 47.591 0.0236223
15.317 47.5661 2
13.6106 47.9298 3.97563
15.5505 48.9131 0.0243833
14.0818 49.4633 2
12.3163 50.1947 3.97102
14.7706 50.8974 0.0278585
13.0862 51.811 2
11.2327 52.803 3.96499
10.3371 55.7032 3.96442
12.236 54.489 2
14.0147 53.3662 0.0334048
9.70399 58.8454 3.97311
11.5461 57.4458 2
13.3299 56.1289 0.0382015
9.30605 62.2254 4
11.1359 60.6183 2
12.8578 59.1079 0.0338575
10.9835 64.0165 2
12.6821 62.297 0.0236155
12.7746 65.6939 0
15.311 20.2577 3.96372
16.5221 18.7182 2
14.7844 17.3433 3.96342
17.7153 17.2102 0.0370722
16.1224 15.8204 2
14.4906 14.3218 3.96694
17.5262 14.4171 0.0314897
16.0265 12.8332 2
14.4475 11.1167 3.98068
17.6431 11.4676 0.0264796
16.2008 9.67061 2
14.6715 7.74927 4
18.0541 8.3406 0.0141438
16.6661 6.31988 2
18.75 5.0241 0
26.4085 34.3574 3.97547
28.4307 34.8554 2
30.0544 35.2034 0.147259
18.1746 22.438 3.97395
15.8214 23.0165 3.97107
16.9211 21.4721 2
21.0097 19.4764 0.0341073
18.1798 20.0355 0.0383652
19.9987 21.6897 2
20.117 24.5304 3.97196
22.6014 21.8512 0.0186646
25.0321 23.2571 0.0284733
23.3103 24.735 2
22.6674 27.9996 3.9717
24.7326 31.3595 3.98216
25.3093 28.6597 2
25.9989 26.0685 0.0209862
27.1417 31.8287 2
29.3139 32.5074 0.102315
27.7543 29.2715 -0.0144813
23.5021 36.2938 3.98153
25.7307 36.8467 2
27.9253 37.3614 0.100619
26.1826 43.0316 0.0120414
25.0538 39.4405 0.0281848
23.9152 41.7777 2
22.7592 38.5191 2
21.6204 40.5989 3.97482
20.9732 37.8012 3.97697
22.7217 43.7621 0.0237579
20.5167 42.7802 2
18.0183 42.0194 3.9757
19.6374 44.8284 0.0237525
17.5393 44.2694 2
15.328 44.1122 3.97554
17.131 46.0892 0.023754
15.2794 45.9912 2
13.3097 46.2198 3.9759
15.3155 47.5669 0.0238714
13.6121 47.9291 2
11.7069 48.4954 3.97287
14.0801 49.4641 0.0254865
12.3178 50.1939 2
10.3638 51.0499 3.96621
13.0854 51.8116 0.0310585
11.2334 52.8023 2
9.24809 53.8842 3.96438
8.38765 56.9799 3.97464
10.3404 55.7018 2
12.2351 54.4894 0.0365872
7.74927 60.3285 4
9.70304 58.8414 2
11.5448 57.4462 0.0346763
9.306 62.2255 2
11.1371 60.6225 0.0265967
10.9835 64.0165 0
14.1449 21.8209 3.96711
15.3089 20.2567 2
13.5129 18.9404 3.96299
16.522 18.719 0.0380564
14.7858 17.3425 2
13.0354 15.9076 3.96934
16.1209 15.8222 0.0335952
14.4919 14.3202 2
12.7853 12.6927 3.97764
16.0274 12.837 0.0289221
14.4444 11.1236 2
12.7746 9.30605 4
16.2052 9.66489 0.0170512
14.6715 7.74924 2
16.6661 6.31991 0
24.0828 33.8806 3.98104
26.388 34.3555 2
28.4482 34.8477 0.10144
18.0476 24.1708 3.97247
18.1813 22.4382 2
14.6563 24.546 3.97312
15.8241 23.0165 2
16.9187 21.4725 0.03284
19.6487 27.3693 3.97423
20.0008 21.6919 0.0289465
20.1115 24.5294 2
22.0412 30.8257 3.97452
23.314 24.7336 0.0281113
22.6667 28.0022 2
24.6999 31.355 2
25.3038 28.6692 0.0161261
27.1673 31.8673 0.0178744
21.0956 35.9661 3.97652
23.5017 36.295 2
25.7496 36.849 0.0296039
23.9362 41.7792 0.0176555
22.7729 38.5237 0.0201576
21.6244 40.6007 2
20.9729 37.7993 2
18.7797 38.986 3.97704
20.5174 42.7795 0.0246777
18.0178 42.0197 2
15.3131 41.8618 3.97601
17.5393 44.269 0.0243467
15.3277 44.1122 2
13.0749 44.3267 3.97592
15.2789 45.9914 0.0240961
13.3111 46.2192 2
11.2218 46.6847 3.9746
13.6106 47.9298 0.0243701
11.7088 48.4946 2
9.634 49.2124 3.96736
12.3163 50.1947 0.0289818
10.3643 51.0492 2
8.28003 51.9988 3.96431
11.2327 52.803 0.0350126
9.24993 53.8826 2
7.19665 55.0318 3.97562
6.31991 58.3339 4
8.38657 56.976 2
10.3371 55.7032 0.035577
7.74924 60.3285 2
9.70399 58.8454 0.026887
9.30605 62.2254 0
13.5201 25.4409 3.97596
13.0476 23.3479 3.97013
14.1441 21.8205 2
12.3258 20.5886 3.96374
15.311 20.2577 0.0362833
13.5145 18.9398 2
11.6685 17.5809 3.96759
14.7844 17.3433 0.0365775
13.0383 15.9068 2
11.2235 14.3785 3.97422
14.4906 14.3218 0.0330595
12.783 12.6983 2
10.9835 10.9835 4
14.4475 11.1167 0.0193163
12.7745 9.306 2
14.6715 7.74927 0
21.4434 33.495 3.97631
24.0862 33.8667 2
26.4085 34.3574 0.0245257
16.3768 26.524 3.97404
18.0516 24.1709 2
18.1746 22.438 0.0260534
14.656 24.5461 2
15.8214 23.0165 0.0289259
19.0508 30.3197 3.97468
19.6488 27.3696 2
20.117 24.5304 0.0280408
22.058 30.8271 2
22.6674 27.9996 0.0282975
24.7326 31.3595 0.017838
18.3866 35.9991 3.97763
21.0978 35.9657 2
23.5021 36.2938 0.0184653
21.6204 40.5989 0.0251777
20.9732 37.8012 0.0230321
18.7778 38.9855 2
14.8093 39.1592 3.977
18.0183 42.0194 0.0242983
15.3124 41.8616 2
12.7707 42.2342 3.97625
15.328 44.1122 0.024458
13.0758 44.3263 2
10.8093 44.7604 3.97614
13.3097 46.2198 0.0240985
11.2241 46.6838 2
9.02077 47.2946 3.96846
11.7069 48.4954 0.0271278
9.63454 49.2117 2
7.44454 50.033 3.96434
10.3638 51.0499 0.0337883
8.28009 51.9975 2
6.13726 53.0075 3.97587
9.24809 53.8842 0.0356223
7.19604 55.0284 2
5.0241 56.25 4
6.31988 58.3339 2
8.38765 56.9799 0.025357
7.74927 60.3285 0
13.8 26.898 3.97545
12.1577 24.8471 3.97291
13.5195 25.441 2
11.2548 22.2721 3.96577
13.048 23.3481 2
14.1449 21.8209 0.0328876
12.3274 20.5886 2
10.4012 19.3292 3.96549
13.5129 18.9404 0.037011
11.6711 17.5808 2
9.7643 16.1616 3.97354
13.0354 15.9076 0.0306607
11.222 14.3841 2
9.30607 12.7746 4
12.7853 12.6927 0.0223586
10.9835 10.9835 2
12.7746 9.30605 0
18.5447 33.1878 3.97608
21.4425 33.4984 2
24.0828 33.8806 0.0189553
15.9998 29.7508 3.97555
16.3762 26.524 2
18.0476 24.1708 0.0275304
14.6563 24.546 0.0268759
19.0491 30.3199 2
19.6487 27.3693 0.0257672
22.0412 30.8257 0.0254757
15.4439 36.0367 3.97727
18.3859 35.9995 2
21.0956 35.9661 0.0234762
13.0009 37.8286 3.97699
18.7797 38.986 0.0229564
14.8087 39.1591 2
12.2714 40.118 3.97664
15.3131 41.8618 0.0239905
12.7712 42.2338 2
10.4124 42.7456 3.97648
13.0749 44.3267 0.0240817
10.8116 44.7596 2
8.50011 45.3007 3.96936
11.2218 46.6847 0.0254048
9.02147 47.2941 2
6.73432 47.9985 3.96442
9.634 49.2124 0.0326354
7.44402 50.0319 2
5.21386 50.9109 3.97555
8.28003 51.9988 0.0356874
6.13705 53.0051 2
3.86727 54.0858 4
7.19665 55.0318 0.0243843
5.02404 56.25 2
6.31991 58.3339 0
13.2834 29.1079 3.9751
11.6036 26.5421 3.97383
13.7995 26.898 2
10.3097 23.9992 3.96752
12.16 24.8477 2
13.5201 25.4409 0.0240427
9.25863 21.1442 3.96513
11.256 22.2722 2
13.0476 23.3479 0.02987
12.3258 20.5886 0.0362583
10.4054 19.3296 2
8.42042 18.0317 3.97401
11.6685 17.5809 0.032405
9.7633 16.1667 2
7.74928 14.6715 4
11.2235 14.3785 0.025785
9.30602 12.7745 2
10.9835 10.9835 0
14.9879 32.9216 3.97632
18.5434 33.1871 2
21.4434 33.495 0.0236928
16.0003 29.7509 2
16.3768 26.524 0.0259608
19.0508 30.3197 0.0253226
13.302 36.2211 3.97674
15.4432 36.0367 2
18.3866 35.9991 0.0223736
13.0009 37.8284 2
11.5985 38.3045 3.97699
14.8093 39.1592 0.0230031
12.2724 40.1179 2
9.99008 40.7353 3.97661
12.7707 42.2342 0.0237507
10.4158 42.7447 2
8.04526 43.2548 3.97034
10.8093 44.7604 0.0238561
8.50255 45.3 2
6.13952 45.9038 3.965
9.02077 47.2946 0.0315357
6.73449 47.9976 2
4.42514 48.7514 3.97512
7.44454 50.033 0.0356619
5.214 50.9095 2
2.85457 51.8506 4
6.13726 53.0075 0.0241293
3.86727 54.0858 2
5.0241 56.25 0
12.4137 31.3079 3.97611
11.0147 28.4616 3.97496
13.2836 29.1081 2
9.52499 25.8251 3.96857
11.6058 26.5428 2
13.8 26.898 0.0245524
8.24516 23.0264 3.96503
10.3109 23.9997 2
12.1577 24.8471 0.0270867
7.2026 19.98 3.97542
9.2654 21.1459 2
11.2548 22.2721 0.0342292
10.4012 19.3292 0.0345085
8.41979 18.036 2
6.31992 16.6661 4
9.7643 16.1616 0.0264629
7.74926 14.6714 2
9.30607 12.7746 0
12.4515 34.3242 3.97648
14.9874 32.9223 2
18.5447 33.1878 0.0239188
15.9998 29.7508 0.0244475
11.1349 36.6192 3.97673
13.3019 36.2211 2
15.4439 36.0367 0.0227337
13.0009 37.8286 0.0230067
11.6 38.3042 2
9.57048 38.8167 3.97683
12.2714 40.118 0.0233554
9.99315 40.7347 2
7.64993 41.2017 3.97121
10.4124 42.7456 0.0235221
8.046 43.2544 2
5.65067 43.7668 3.96586
8.50011 45.3007 0.0306391
6.13984 45.9029 2
3.77044 46.5368 3.97533
6.73432 47.9985 0.0355762
4.42552 48.7506 2
1.99014 49.554 4
5.21386 50.9109 0.0244495
2.85451 51.8506 2
3.86727 54.0858 0
11.2236 32.9539 3.97666
10.3196 30.4184 3.97564
12.4144 31.3086 2
8.83314 27.7549 3.9688
11.0169 28.4622 2
13.2834 29.1079 0.0249002
7.36686 24.9839 3.96489
9.52593 25.8256 2
11.6036 26.5421 0.0261683
6.11953 22.0022 3.97617
8.24677 23.0276 2
10.3097 23.9992 0.0324811
5.02411 18.75 4
7.20204 19.9833 2
9.25863 21.1442 0.0348658
8.42042 18.0317 0.0259929
6.3199 16.6661 2
7.74928 14.6715 0
10.7209 35.0166 3.97664
12.4514 34.3244 2
14.9879 32.9216 0.023682
9.22793 36.9877 3.97691
11.1366 36.6192 2
13.302 36.2211 0.023258
11.5985 38.3045 0.0230132
9.57374 38.8164 2
7.32448 39.1778 3.97152
9.99008 40.7353 0.0233866
7.6515 41.2014 2
5.26549 41.6129 3.96633
8.04526 43.2548 0.0296634
5.65098 43.7662 2
3.24784 44.2815 3.97603
6.13952 45.9038 0.0350043
3.77081 46.5362 2
1.27781 47.2057 4
4.42514 48.7514 0.0248846
1.99012 49.554 2
2.85457 51.8506 0
10.3556 33.9039 3.9765
9.59758 32.1801 3.97642
11.2255 32.9545 2
8.17348 29.7134 3.96931
10.3222 30.4191 2
12.4137 31.3079 0.0238913
6.60772 27.0094 3.96488
8.83421 27.7553 2
11.0147 28.4616 0.0250353
5.17468 24.0945 3.97599
7.36637 24.9847 2
9.52499 25.8251 0.0314314
3.86728 20.9142 4
6.1194 22.0045 2
8.24516 23.0264 0.0349655
5.02406 18.75 2
7.2026 19.98 0.0245849
6.31992 16.6661 0
9.04163 35.2898 3.97714
10.7229 35.0168 2
12.4515 34.3242 0.0235205
7.10107 37.2063 3.97134
9.23128 36.9877 2
11.1349 36.6192 0.0232662
9.57048 38.8167 0.0231694
7.32645 39.1776 2
4.99269 39.4668 3.96691
7.64993 41.2017 0.0287864
5.26622 41.6124 2
2.85813 42.0017 3.97637
5.65067 43.7668 0.0341372
3.24809 44.281 2
0.720592 44.8159 4
3.77044 46.5368 0.024674
1.27778 47.2057 2
1.99014 49.554 0
9.08193 33.7149 3.97715
10.3584 33.9043 2
7.60292 31.622 3.97003
9.6008 32.1808 2
11.2236 32.9539 0.0233363
5.95155 29.0703 3.96536
8.17464 29.7138 2
10.3196 30.4184 0.0243648
4.36204 26.2471 3.9756
6.60759 27.01 2
8.83314 27.7549 0.0312002
2.85458 23.1494 4
5.17492 24.0957 2
7.36686 24.9839 0.0351108
3.86728 20.9142 2
6.11953 22.0022 0.0238293
5.02411 18.75 0
7.0488 35.3105 3.971
9.04522 35.2902 2
10.7209 35.0166 0.0233584
4.84281 37.3397 3.96727
7.10341 37.2062 2
9.22793 36.9877 0.0230937
7.32448 39.1778 0.028475
4.99343 39.4666 2
2.606 39.7133 3.97679
5.26549 41.6129 0.0336711
2.8587 42.0015 2
0.320823 42.3947 4
3.24784 44.2815 0.0239721
0.720551 44.8159 2
1.27781 47.2057 0
7.21219 33.4694 3.97055
9.08546 33.7155 2
10.3556 33.9039 0.0234981
5.42186 31.1344 3.96604
7.60455 31.6224 2
9.59758 32.1801 0.0235777
3.68338 28.4433 3.97576
5.95199 29.0711 2
8.17348 29.7134 0.0306925
1.99015 25.446 4
4.36243 26.2476 2
6.60772 27.0094 0.0351216
2.85453 23.1494 2
5.17468 24.0945 0.0240144
3.86728 20.9142 0
4.85715 35.252 3.96708
7.05044 35.3106 2
9.04163 35.2898 0.022863
2.49744 37.428 3.97763
4.84301 37.3399 2
7.10107 37.2063 0.0286611
4.99269 39.4668 0.0330876
2.60669 39.7137 2
0.080333 39.9526 4
2.85813 42.0017 0.0236253
0.320817 42.3947 2
0.720592 44.8159 0
5.05068 33.1909 3.96676
7.21396 33.4696 2
9.08193 33.7149 0.0228529
3.1474 30.6662 3.97625
5.42223 31.135 2
7.60292 31.622 0.0299669
1.27793 27.7943 4
3.6838 28.4437 2
5.95155 29.0703 0.0346353
1.99013 25.446 2
4.36204 26.2471 0.0244009
2.85458 23.1494 0
2.54955 35.1588 3.97732
4.85797 35.2523 2
7.0488 35.3105 0.029001
0 37.5 4
2.49762 37.4285 2
4.84281 37.3397 0.032732
2.606 39.7133 0.0232112
0.0802903 39.9526 2
0.320823 42.3947 0
2.76725 32.9057 3.97732
5.05101 33.1914 2
7.21219 33.4694 0.0294472
0.721173 30.1842 4
3.14787 30.6667 2
5.42186 31.1344 0.0339564
1.27779 27.7943 2
3.68338 28.4433 0.0242426
1.99015 25.446 0
0.0806499 35.0474 4
2.55031 35.1593 2
4.85715 35.252 0.0329228
0 37.5 2
2.49744 37.428 0.0223675
0.080333 39.9526 0
0.32156 32.6054 4
2.7675 32.9063 2
5.05068 33.1909 0.0332446
0.72056 30.1841 2
3.1474 30.6662 0.0237532
1.27793 27.7943 0
0.0802889 35.0474 2
2.54955 35.1588 0.0226802
0 37.5 0
0.320817 32.6053 2
2.76725 32.9057 0.0226791
0.721173 30.1842 0
0.0806499 35.0474 0
0.32156 32.6054 0
CELLS 1910 17190
8 18 6 25 56 2 0 5 16
8 57 23 6 18 17 4 0 2
8 78 36 9 29 31 11 1 7
8 31 11 1 7 79 37 10 30
8 110 57 18 50 48 17 2 14
8 50 18 56 111 14 2 16 49
8 116 62 22 55 52 20 3 15
8 56 25 67 118 16 5 24 53
8 119 63 23 57 54 21 4 17
8 55 22 63 119 15 3 21 54
8 58 26 68 121 18 6 25 56
8 122 65 26 58 57 23 6 18
8 73 31 7 27 142 79 30 71
8 143 78 29 72 73 31 7 27
8 83 147 76 34 32 74 28 8
8 84 148 78 36 33 75 29 9
8 76 34 8 28 148 84 33 75
8 37 79 150 86 10 30 77 35
8 151 87 36 78 80 38 11 31
8 80 38 11 31 152 88 37 79
8 175 100 42 94 96 44 12 40
8 44 96 176 101 12 40 95 43
8 101 176 98 46 43 95 41 13
8 46 98 178 103 13 41 97 45
8 178 103 45 97 147 83 32 74
8 189 116 55 109 106 52 15 47
8 111 56 118 191 49 16 53 107
8 192 119 57 110 108 54 17 48
8 109 55 119 192 47 15 54 108
8 194 122 58 112 110 57 18 50
8 112 58 121 195 50 18 56 111
8 115 61 19 51 197 124 59 113
8 115 61 125 198 51 19 60 114
8 198 125 62 116 114 60 20 52
8 200 127 64 120 116 62 22 55
8 118 67 132 202 53 24 66 117
8 121 68 133 203 56 25 67 118
8 120 64 128 204 55 22 63 119
8 204 128 65 122 119 63 23 57
8 206 134 68 121 123 69 26 58
8 123 69 26 58 207 131 65 122
8 226 147 74 138 140 76 28 70
8 229 148 75 139 143 78 29 72
8 140 76 28 70 229 148 75 139
8 142 79 30 71 231 150 77 141
8 144 80 31 73 232 152 79 142
8 233 151 78 143 144 80 31 73
8 150 86 35 77 235 154 81 145
8 235 154 81 145 146 82 39 91
8 146 82 39 91 236 155 90 165
8 238 157 83 147 149 85 34 76
8 239 158 84 148 151 87 36 78
8 149 85 34 76 239 158 84 148
8 152 88 37 79 241 160 86 150
8 242 161 87 151 153 89 38 80
8 153 89 38 80 243 162 88 152
8 171 98 41 92 265 178 97 169
8 265 178 97 169 226 147 74 138
8 172 96 40 93 266 176 95 170
8 266 176 95 170 171 98 41 92
8 269 175 94 173 172 96 40 93
8 271 180 99 174 175 100 42 94
8 197 124 59 113 271 180 99 174
8 272 181 100 175 177 102 44 96
8 273 182 101 176 179 104 46 98
8 177 102 44 96 273 182 101 176
8 179 104 46 98 275 184 103 178
8 275 184 103 178 238 157 83 147
8 188 115 51 105 283 197 113 186
8 188 115 198 284 105 51 114 187
8 284 198 116 189 187 114 52 106
8 286 200 120 193 189 116 55 109
8 191 118 202 288 107 53 117 190
8 195 121 203 289 111 56 118 191
8 193 120 204 290 109 55 119 192
8 290 204 122 194 192 119 57 110
8 196 123 58 112 292 207 122 194
8 293 206 121 195 196 123 58 112
8 199 126 61 115 297 211 124 197
8 298 212 127 200 198 125 62 116
8 199 126 212 298 115 61 125 198
8 205 129 64 120 300 214 127 200
8 301 217 130 201 202 132 66 117
8 209 136 168 264 301 217 130 201
8 302 219 132 202 203 133 67 118
8 303 220 133 203 206 134 68 121
8 205 129 215 304 120 64 128 204
8 304 215 131 207 204 128 65 122
8 306 221 134 206 208 135 69 123
8 208 135 69 123 307 218 131 207
8 210 137 167 263 309 223 136 209
8 328 238 147 226 230 149 76 140
8 228 146 91 166 329 236 165 260
8 231 150 77 141 330 235 145 227
8 330 235 145 227 228 146 91 166
8 332 239 148 229 233 151 78 143
8 230 149 76 140 332 239 148 229
8 232 152 79 142 334 241 150 231
8 234 153 80 144 335 243 152 232
8 336 242 151 233 234 153 80 144
8 236 155 90 165 338 245 164 259
8 241 160 86 150 339 246 154 235
8 339 246 154 235 237 156 82 146
8 237 156 82 146 340 247 155 236
8 342 249 157 238 240 159 85 149
8 343 250 158 239 242 161 87 151
8 240 159 85 149 343 250 158 239
8 243 162 88 152 345 252 160 241
8 244 163 253 346 153 89 161 242
8 244 163 89 153 347 254 162 243
8 311 224 261 371 210 137 167 263
8 263 167 262 372 209 136 168 264
8 267 179 98 171 375 275 178 265
8 375 275 178 265 328 238 147 226
8 376 273 176 266 267 179 98 171
8 268 177 96 172 376 273 176 266
8 379 272 175 269 268 177 96 172
8 380 271 174 270 269 175 94 173
8 283 197 113 186 380 271 174 270
8 381 277 180 271 272 181 100 175
8 297 211 124 197 381 277 180 271
8 382 278 181 272 274 183 102 177
8 274 183 102 177 383 279 182 273
8 383 279 182 273 276 185 104 179
8 385 281 184 275 342 249 157 238
8 276 185 104 179 385 281 184 275
8 285 199 115 188 393 297 197 283
8 394 298 200 286 284 198 116 189
8 285 199 298 394 188 115 198 284
8 291 205 120 193 396 300 200 286
8 397 301 201 287 288 202 117 190
8 295 209 264 374 397 301 201 287
8 398 302 202 288 289 203 118 191
8 399 303 203 289 293 206 121 195
8 291 205 304 400 193 120 204 290
8 400 304 207 292 290 204 122 194
8 294 208 123 196 402 307 207 292
8 403 306 206 293 294 208 123 196
8 296 210 263 373 405 309 209 295
8 408 312 213 299 297 211 126 199
8 299 213 313 409 199 126 212 298
8 409 313 214 300 298 212 127 200
8 305 216 129 205 411 315 214 300
8 412 318 217 301 302 219 132 202
8 309 223 136 209 412 318 217 301
8 413 320 219 302 303 220 133 203
8 306 221 321 414 206 134 220 303
8 307 218 131 207 415 316 215 304
8 305 216 316 415 205 129 215 304
8 417 322 221 306 308 222 135 208
8 308 222 135 208 418 319 218 307
8 310 225 137 210 420 325 223 309
8 423 326 224 311 310 225 137 210
8 329 236 165 260 441 338 259 368
8 442 342 238 328 333 240 149 230
8 331 237 146 228 443 340 236 329
8 334 241 150 231 444 339 235 330
8 444 339 235 330 331 237 146 228
8 446 343 239 332 336 242 151 233
8 333 240 149 230 446 343 239 332
8 335 243 152 232 448 345 241 334
8 337 244 153 234 449 347 243 335
8 337 244 346 450 234 153 242 336
8 338 245 164 259 452 349 258 367
8 340 247 155 236 453 350 245 338
8 345 252 160 241 454 351 246 339
8 454 351 246 339 341 248 156 237
8 341 248 156 237 455 352 247 340
8 240 159 251 344 342 249 354 457
8 242 161 253 346 343 250 355 458
8 343 250 355 458 240 159 251 344
8 347 254 162 243 460 357 252 345
8 348 255 358 461 244 163 253 346
8 348 255 163 244 462 359 254 347
8 473 360 257 365 363 256 364 482
8 452 349 258 367 365 257 366 485
8 422 324 369 488 311 224 261 371
8 371 261 370 490 263 167 262 372
8 407 311 371 491 296 210 263 373
8 373 263 372 492 295 209 264 374
8 493 385 275 375 442 342 238 328
8 377 276 179 267 493 385 275 375
8 378 274 177 268 494 383 273 376
8 494 383 273 376 377 276 179 267
8 497 382 272 379 378 274 177 268
8 498 381 271 380 379 272 175 269
8 393 297 197 283 498 381 271 380
8 499 387 277 381 382 278 181 272
8 408 312 211 297 499 387 277 381
8 500 388 278 382 384 280 183 274
8 501 389 279 383 386 282 185 276
8 384 280 183 274 501 389 279 383
8 386 282 185 276 503 391 281 385
8 503 391 281 385 457 354 249 342
8 511 408 299 395 393 297 199 285
8 395 299 409 512 285 199 298 394
8 512 409 300 396 394 298 200 286
8 401 305 205 291 514 411 300 396
8 515 412 301 397 398 302 202 288
8 405 309 209 295 515 412 301 397
8 516 413 302 398 399 303 203 289
8 403 306 414 517 293 206 303 399
8 402 307 207 292 518 415 304 400
8 401 305 415 518 291 205 304 400
8 404 308 208 294 520 418 307 402
8 521 417 306 403 404 308 208 294
8 406 310 210 296 523 420 309 405
8 526 423 311 407 406 310 210 296
8 410 314 213 299 527 424 312 408
8 528 425 315 411 409 313 214 300
8 410 314 425 528 299 213 313 409
8 416 317 216 305 530 427 315 411
8 531 430 318 412 413 320 219 302
8 420 325 223 309 531 430 318 412
8 532 432 320 413 414 321 220 303
8 417 322 433 533 306 221 321 414
8 418 319 218 307 534 428 316 415
8 416 317 428 534 305 216 316 415
8 419 323 434 536 308 222 322 417
8 419 323 222 308 537 431 319 418
8 421 327 225 310 539 438 325 420
8 421 327 439 541 310 225 326 423
8 543 437 324 422 423 326 224 311
8 441 338 259 368 559 452 367 486
8 443 340 236 329 560 453 338 441
8 333 240 344 447 442 342 457 561
8 445 341 237 331 562 455 340 443
8 448 345 241 334 563 454 339 444
8 563 454 339 444 445 341 237 331
8 336 242 346 450 446 343 458 565
8 446 343 458 565 333 240 344 447
8 449 347 243 335 567 460 345 448
8 451 348 244 337 568 462 347 449
8 451 348 461 569 337 244 346 450
8 570 463 349 452 473 360 257 365
8 453 350 245 338 570 463 349 452
8 455 352 247 340 571 464 350 453
8 460 357 252 345 572 465 351 454
8 572 465 351 454 456 353 248 341
8 456 353 248 341 573 466 352 455
8 344 251 356 459 457 354 468 575
8 458 355 469 576 344 251 356 459
8 346 253 358 461 458 355 469 576
8 462 359 254 347 578 471 357 460
8 348 255 359 462 461 358 472 579
8 591 474 360 473 475 361 256 363
8 475 361 256 363 594 477 362 479
8 363 256 364 482 479 362 480 603
8 590 473 365 484 481 363 482 605
8 482 364 257 365 606 483 366 485
8 559 452 367 486 484 365 485 607
8 542 436 487 609 422 324 369 488
8 525 422 488 611 407 311 371 491
8 488 369 489 612 371 261 370 490
8 491 371 490 613 373 263 372 492
8 495 386 276 377 614 503 385 493
8 614 503 385 493 561 457 342 442
8 615 501 383 494 495 386 276 377
8 496 384 274 378 615 501 383 494
8 618 500 382 497 496 384 274 378
8 619 499 381 498 497 382 272 379
8 511 408 297 393 619 499 381 498
8 620 505 387 499 500 388 278 382
8 527 424 312 408 620 505 387 499
8 502 390 506 621 384 280 388 500
8 622 507 389 501 504 392 282 386
8 502 390 280 384 622 507 389 501
8 504 392 282 386 624 509 391 503
8 624 509 391 503 575 468 354 457
8 513 410 299 395 630 527 408 511
8 631 528 411 514 512 409 300 396
8 513 410 528 631 395 299 409 512
8 519 416 305 401 633 530 411 514
8 634 531 412 515 516 413 302 398
8 523 420 309 405 634 531 412 515
8 635 532 413 516 517 414 303 399
8 521 417 533 636 403 306 414 517
8 520 418 307 402 637 534 415 518
8 519 416 534 637 401 305 415 518
8 522 419 308 404 639 537 418 520
8 522 419 536 640 404 308 417 521
8 524 421 310 406 642 539 420 523
8 524 421 541 644 406 310 423 526
8 646 543 422 525 526 423 311 407
8 529 426 314 410 647 544 424 527
8 528 425 545 648 411 315 427 530
8 529 426 545 648 410 314 425 528
8 535 429 317 416 649 546 427 530
8 650 548 430 531 532 432 320 413
8 539 438 325 420 650 548 430 531
8 533 433 550 651 414 321 432 532
8 536 434 551 652 417 322 433 533
8 537 431 319 418 653 547 428 534
8 535 429 547 653 416 317 428 534
8 538 435 552 654 419 323 434 536
8 538 435 323 419 655 549 431 537
8 540 440 327 421 657 556 438 539
8 540 440 557 659 421 327 439 541
8 541 439 555 660 423 326 437 543
8 661 554 436 542 543 437 324 422
8 676 570 452 559 590 473 365 484
8 560 453 338 441 676 570 452 559
8 562 455 340 443 677 571 453 560
8 447 344 459 566 561 457 575 678
8 564 456 341 445 679 573 455 562
8 567 460 345 448 680 572 454 563
8 680 572 454 563 564 456 341 445
8 565 458 576 682 447 344 459 566
8 450 346 461 569 565 458 576 682
8 568 462 347 449 684 578 460 567
8 451 348 462 568 569 461 579 685
8 686 580 463 570 591 474 360 473
8 571 464 350 453 686 580 463 570
8 573 466 352 455 687 581 464 571
8 572 465 582 688 460 357 471 578
8 574 467 582 688 456 353 465 572
8 574 467 353 456 689 583 466 573
8 459 356 470 577 575 468 585 691
8 576 469 586 692 459 356 470 577
8 461 358 472 579 576 469 586 692
8 462 359 471 578 579 472 588 694
8 704 591 473 590 593 475 363 481
8 595 476 592 705 475 361 474 591
8 593 475 363 481 707 594 479 602
8 594 477 362 479 709 598 478 600
8 595 476 361 475 711 597 477 594
8 479 362 480 603 600 478 601 720
8 481 363 482 605 602 479 603 722
8 603 480 364 482 723 604 483 606
8 605 482 365 484 724 606 485 607
8 656 553 608 726 542 436 487 609
8 645 542 609 728 525 422 488 611
8 609 487 610 729 488 369 489 612
8 611 488 612 730 491 371 490 613
8 616 504 386 495 731 624 503 614
8 731 624 503 614 678 575 457 561
8 732 622 501 615 616 504 386 495
8 617 502 384 496 732 622 501 615
8 617 502 621 735 496 384 500 618
8 736 620 499 619 618 500 382 497
8 630 527 408 511 736 620 499 619
8 621 506 626 737 500 388 505 620
8 647 544 424 527 737 626 505 620
8 623 508 627 738 502 390 506 621
8 623 508 390 502 739 628 507 622
8 625 510 628 739 504 392 507 622
8 740 629 509 624 691 585 468 575
8 625 510 392 504 740 629 509 624
8 632 529 410 513 744 647 527 630
8 631 528 648 745 514 411 530 633
8 632 529 648 745 513 410 528 631
8 638 535 416 519 746 649 530 633
8 747 650 531 634 635 532 413 516
8 642 539 420 523 747 650 531 634
8 636 533 651 748 517 414 532 635
8 640 536 652 749 521 417 533 636
8 639 537 418 520 750 653 534 637
8 638 535 653 750 519 416 534 637
8 641 538 419 522 751 655 537 639
8 641 538 654 752 522 419 536 640
8 643 540 421 524 753 657 539 642
8 643 540 659 755 524 421 541 644
8 644 541 660 757 526 423 543 646
8 758 661 542 645 646 543 422 525
8 529 426 544 647 648 545 662 759
8 530 427 545 648 649 546 663 760
8 535 429 546 649 653 547 664 761
8 762 666 548 650 651 550 432 532
8 657 556 438 539 762 666 548 650
8 652 551 668 763 533 433 550 651
8 654 552 669 764 536 434 551 652
8 655 549 431 537 765 665 547 653
8 538 435 549 655 654 552 667 766
8 661 554 671 768 542 436 553 656
8 658 558 440 540 769 674 556 657
8 658 558 675 770 540 440 557 659
8 659 557 673 771 541 439 555 660
8 660 555 672 772 543 437 554 661
8 788 686 570 676 704 591 473 590
8 677 571 453 560 788 686 570 676
8 679 573 455 562 789 687 571 677
8 566 459 577 683 678 575 691 790
8 681 574 456 564 791 689 573 679
8 680 572 688 792 567 460 578 684
8 681 574 688 792 564 456 572 680
8 682 576 692 794 566 459 577 683
8 569 461 579 685 682 576 692 794
8 568 462 578 684 685 579 694 796
8 687 581 464 571 798 696 580 686
8 798 696 580 686 705 592 474 591
8 689 583 466 573 799 697 581 687
8 688 582 698 800 578 471 588 694
8 690 584 698 800 574 467 582 688
8 690 584 467 574 801 699 583 689
8 693 587 701 803 577 470 585 691
8 693 587 470 577 804 702 586 692
8 695 589 702 804 579 472 586 692
8 695 589 472 579 805 703 588 694
8 708 595 705 813 593 475 591 704
8 710 596 706 814 595 476 592 705
8 707 594 479 602 816 709 600 719
8 708 595 475 593 817 711 594 707
8 709 598 478 600 819 715 599 717
8 711 597 477 594 820 714 598 709
8 710 596 476 595 822 713 597 711
8 600 478 601 720 717 599 718 832
8 602 479 603 722 719 600 720 834
8 720 601 480 603 835 721 604 723
8 722 603 482 605 836 723 606 724
8 767 670 725 839 656 553 608 726
8 756 656 726 841 645 542 609 728
8 726 608 727 842 609 487 610 729
8 728 609 729 843 611 488 612 730
8 844 740 624 731 790 691 575 678
8 733 625 504 616 844 740 624 731
8 734 623 502 617 845 739 622 732
8 733 625 739 845 616 504 622 732
8 734 623 738 846 617 502 621 735
8 735 621 737 847 618 500 620 736
8 744 647 527 630 847 737 620 736
8 621 506 627 738 737 626 741 848
8 647 544 626 737 759 662 741 848
8 623 508 628 739 738 627 742 849
8 740 629 585 691 850 743 700 802
8 625 510 629 740 739 628 743 850
8 632 529 647 744 745 648 759 854
8 633 530 648 745 746 649 760 855
8 638 535 649 746 750 653 761 856
8 857 762 650 747 748 651 532 635
8 753 657 539 642 857 762 650 747
8 749 652 763 858 636 533 651 748
8 752 654 764 859 640 536 652 749
8 751 655 537 639 860 765 653 750
8 641 538 655 751 752 654 766 861
8 754 658 540 643 862 769 657 753
8 754 658 770 863 643 540 659 755
8 755 659 771 864 644 541 660 757
8 758 661 768 866 645 542 656 756
8 757 660 772 867 646 543 661 758
8 759 662 773 868 648 545 663 760
8 649 546 663 760 761 664 774 871
8 765 665 547 653 872 775 664 761
8 873 777 666 762 763 668 550 651
8 769 674 556 657 873 777 666 762
8 764 669 779 874 652 551 668 763
8 654 552 667 766 764 669 778 875
8 655 549 665 765 766 667 776 876
8 768 671 782 877 656 553 670 767
8 772 672 783 878 661 554 671 768
8 658 558 674 769 770 675 786 879
8 659 557 675 770 771 673 785 881
8 882 784 672 772 771 673 555 660
8 789 687 571 677 897 798 686 788
8 897 798 686 788 813 705 591 704
8 791 689 573 679 898 799 687 789
8 795 693 803 900 683 577 691 790
8 793 690 574 681 901 801 689 791
8 792 688 800 902 684 578 694 796
8 793 690 800 902 681 574 688 792
8 795 693 577 683 903 804 692 794
8 797 695 804 903 685 579 692 794
8 797 695 579 685 904 805 694 796
8 905 806 697 799 798 696 581 687
8 814 706 806 905 705 592 696 798
8 689 583 697 799 801 699 808 907
8 800 698 809 908 694 588 703 805
8 690 584 699 801 800 698 809 908
8 803 701 810 909 691 585 700 802
8 693 587 702 804 803 701 811 910
8 695 589 703 805 804 702 812 911
8 818 710 814 919 708 595 705 813
8 821 712 815 920 710 596 706 814
8 816 709 600 719 922 819 717 831
8 817 711 594 707 923 820 709 816
8 818 710 595 708 924 822 711 817
8 819 715 599 717 926 827 716 829
8 820 714 598 709 927 826 715 819
8 929 825 713 822 820 714 597 711
8 821 712 596 710 930 824 713 822
8 717 599 718 832 829 716 830 942
8 719 600 720 834 831 717 832 944
8 832 718 601 720 945 833 721 835
8 834 720 603 722 946 835 723 836
8 869 780 838 950 767 670 725 839
8 865 767 839 952 756 656 726 841
8 839 725 840 953 726 608 727 842
8 841 726 842 954 728 609 729 843
8 844 740 691 790 955 850 802 899
8 733 625 740 844 845 739 850 955
8 734 623 739 845 846 738 849 956
8 735 621 738 846 847 737 848 957
8 744 647 737 847 854 759 848 957
8 738 627 742 849 848 741 851 958
8 848 741 851 958 759 662 773 868
8 850 743 700 802 959 852 807 906
8 849 742 628 739 959 852 743 850
8 854 759 868 965 745 648 760 855
8 746 649 760 855 856 761 871 966
8 860 765 653 750 967 872 761 856
8 968 873 762 857 858 763 651 748
8 862 769 657 753 968 873 762 857
8 859 764 874 969 749 652 763 858
8 752 654 766 861 859 764 875 970
8 751 655 765 860 861 766 876 971
8 754 658 769 862 863 770 879 972
8 755 659 770 863 864 771 881 974
8 976 882 772 867 864 771 660 757
8 866 768 877 977 756 656 767 865
8 867 772 878 978 758 661 768 866
8 760 663 773 868 871 774 883 980
8 870 781 837 948 982 890 780 869
8 982 890 780 869 877 782 670 767
8 761 664 774 871 872 775 884 984
8 876 776 665 765 985 885 775 872
8 873 777 668 763 986 887 779 874
8 769 674 777 873 879 786 887 986
8 764 669 778 875 874 779 888 987
8 766 667 776 876 875 778 886 988
8 878 783 892 989 768 671 782 877
8 878 783 672 772 990 893 784 882
8 880 787 675 770 991 896 786 879
8 880 787 895 992 770 675 785 881
8 881 785 894 993 771 673 784 882
8 1006 905 799 898 897 798 687 789
8 919 814 905 1006 813 705 798 897
8 791 689 799 898 901 801 907 1007
8 900 803 909 1009 790 691 802 899
8 795 693 804 903 900 803 910 1010
8 902 800 908 1011 796 694 805 904
8 793 690 801 901 902 800 908 1011
8 797 695 805 904 903 804 911 1012
8 799 697 806 905 907 808 912 1013
8 920 815 912 1013 814 706 806 905
8 802 700 810 909 906 807 913 1014
8 801 699 808 907 908 809 914 1015
8 805 703 809 908 911 812 915 1016
8 803 701 811 910 909 810 916 1017
8 911 812 917 1018 804 702 811 910
8 925 821 920 1030 818 710 814 919
8 928 823 921 1031 821 712 815 920
8 922 819 717 831 1033 926 829 941
8 923 820 709 816 1034 927 819 922
8 1035 929 822 924 923 820 711 817
8 925 821 710 818 1036 930 822 924
8 1038 933 825 929 927 826 714 820
8 926 827 716 829 1039 935 828 939
8 927 826 715 819 1040 934 827 926
8 928 823 712 821 1041 931 824 930
8 1042 932 824 930 929 825 713 822
8 829 716 830 942 939 828 940 1058
8 831 717 832 944 941 829 942 1060
8 942 830 718 832 1061 943 833 945
8 944 832 720 834 1062 945 835 946
8 981 889 947 1064 870 781 837 948
8 948 837 949 1067 869 780 838 950
8 975 869 950 1069 865 767 839 952
8 950 838 951 1070 839 725 840 953
8 952 839 953 1071 841 726 842 954
8 955 850 802 899 1072 959 906 1008
8 956 849 739 845 1072 959 850 955
8 846 738 849 956 957 848 958 1073
8 957 848 958 1073 854 759 868 965
8 849 742 852 959 958 851 961 1076
8 960 853 961 1076 906 807 852 959
8 958 851 961 1076 868 773 883 980
8 960 853 807 906 1077 963 913 1014
8 855 760 868 965 966 871 980 1085
8 856 761 871 966 967 872 984 1086
8 971 876 765 860 1087 985 872 967
8 968 873 763 858 1088 986 874 969
8 862 769 873 968 972 879 986 1088
8 859 764 875 970 969 874 987 1089
8 861 766 876 971 970 875 988 1090
8 973 880 770 863 1091 991 879 972
8 973 880 992 1092 863 770 881 974
8 974 881 993 1093 864 771 882 976
8 979 870 948 1066 1094 982 869 975
8 1094 982 869 975 977 877 767 865
8 978 878 772 867 1095 990 882 976
8 978 878 989 1096 866 768 877 977
8 871 774 883 980 984 884 994 1099
8 983 891 999 1100 870 781 889 981
8 1101 1000 890 982 989 892 782 877
8 983 891 781 870 1101 1000 890 982
8 872 775 884 984 985 885 995 1103
8 876 776 885 985 988 886 996 1104
8 986 887 779 874 1105 998 888 987
8 879 786 887 986 991 896 998 1105
8 875 778 886 988 987 888 997 1106
8 990 893 1002 1107 878 783 892 989
8 1108 1003 893 990 993 894 784 882
8 880 787 896 991 992 895 1005 1109
8 993 894 785 881 1110 1004 895 992
8 898 799 905 1006 1007 907 1013 1120
8 1030 920 1013 1120 919 814 905 1006
8 901 801 907 1007 1011 908 1015 1121
8 899 802 909 1009 1008 906 1014 1122
8 900 803 910 1010 1009 909 1017 1123
8 1012 911 1018 1124 903 804 910 1010
8 904 805 908 1011 1012 911 1016 1125
8 1013 912 1020 1127 907 808 914 1015
8 1031 921 1020 1127 920 815 912 1013
8 1019 918 962 1075 1128 1021 913 1014
8 1128 1021 913 1014 1017 916 810 909
8 1015 914 1022 1129 908 809 915 1016
8 1016 915 1023 1130 911 812 917 1018
8 1018 917 1024 1131 910 811 916 1017
8 1037 928 1031 1148 925 821 920 1030
8 928 823 931 1041 1031 921 1032 1149
8 1033 926 829 941 1151 1039 939 1057
8 1034 927 819 922 1152 1040 926 1033
8 1153 1038 929 1035 1034 927 820 923
8 1154 1042 930 1036 1035 929 822 924
8 1037 928 821 925 1155 1041 930 1036
8 1039 935 828 939 1156 1047 938 1055
8 1157 1043 932 1042 1038 933 825 929
8 1038 933 826 927 1158 1045 934 1040
8 1040 934 827 926 1159 1046 935 1039
8 930 824 932 1042 1041 931 1044 1160
8 1051 936 1048 1165 1175 1052 937 1053
8 1156 1047 938 1055 1053 937 1054 1178
8 939 828 940 1058 1055 938 1056 1181
8 941 829 942 1060 1057 939 1058 1183
8 942 830 943 1061 1058 940 1059 1184
8 1060 942 832 944 1185 1061 945 1062
8 1082 964 1063 1188 981 889 947 1064
8 1097 981 1064 1190 979 870 948 1066
8 1064 947 1065 1191 948 837 949 1067
8 1066 948 1067 1193 975 869 950 1069
8 1067 949 1068 1194 950 838 951 1070
8 1069 950 1070 1195 952 839 953 1071
8 956 849 959 1072 1073 958 1076 1197
8 1074 960 1076 1197 1008 906 959 1072
8 1073 958 1076 1197 965 868 980 1085
8 1074 960 906 1008 1198 1077 1014 1122
8 1133 1026 1079 1199 1019 918 962 1075
8 1077 963 913 1014 1200 1080 962 1075
8 960 853 963 1077 1076 961 1078 1201
8 980 883 961 1076 1099 994 1078 1201
8 1210 1083 964 1082 1100 999 889 981
8 966 871 980 1085 1086 984 1099 1215
8 967 872 984 1086 1087 985 1103 1216
8 971 876 985 1087 1090 988 1104 1217
8 1088 986 874 969 1218 1105 987 1089
8 972 879 986 1088 1091 991 1105 1218
8 970 875 988 1090 1089 987 1106 1219
8 973 880 991 1091 1092 992 1109 1220
8 1093 993 881 974 1221 1110 992 1092
8 1222 1108 990 1095 1093 993 882 976
8 1223 1101 982 1094 1096 989 877 977
8 1098 983 870 979 1223 1101 982 1094
8 1095 990 1107 1224 978 878 989 1096
8 1098 983 1100 1225 979 870 981 1097
8 984 884 994 1099 1103 995 1111 1227
8 1102 1001 1115 1228 983 891 999 1100
8 1101 1000 892 989 1229 1116 1002 1107
8 1102 1001 891 983 1229 1116 1000 1101
8 985 885 995 1103 1104 996 1112 1230
8 988 886 996 1104 1106 997 1113 1231
8 1105 998 888 987 1232 1114 997 1106
8 991 896 998 1105 1109 1005 1114 1232
8 1108 1003 1117 1233 990 893 1002 1107
8 1108 1003 894 993 1233 1117 1004 1110
8 992 895 1005 1109 1110 1004 1118 1234
8 1120 1013 1127 1244 1007 907 1015 1121
8 1148 1031 1127 1244 1030 920 1013 1120
8 1121 1015 1129 1245 1011 908 1016 1125
8 1126 1019 1075 1196 1246 1128 1014 1122
8 1246 1128 1014 1122 1123 1017 909 1009
8 1124 1018 1131 1247 1010 910 1017 1123
8 1125 1016 1130 1248 1012 911 1018 1124
8 1127 1020 1137 1254 1015 914 1022 1129
8 1031 921 1032 1149 1127 1020 1137 1254
8 1134 1027 918 1019 1257 1140 1021 1128
8 1257 1140 1021 1128 1131 1024 916 1017
8 1129 1022 1141 1258 1016 915 1023 1130
8 1130 1023 1142 1259 1018 917 1024 1131
8 1261 1144 1025 1132 1133 1026 1079 1199
8 1255 1138 1025 1132 1135 1028 1144 1261
8 1133 1026 918 1019 1262 1145 1027 1134
8 1136 1029 1139 1256 1263 1146 1028 1135
8 1037 928 1041 1155 1148 1031 1149 1275
8 1041 931 1044 1160 1149 1032 1150 1276
8 1151 1039 939 1057 1278 1156 1055 1180
8 1152 1040 926 1033 1279 1159 1039 1151
8 1153 1038 927 1034 1280 1158 1040 1152
8 1281 1157 1042 1154 1153 1038 929 1035
8 1036 930 1042 1154 1155 1041 1160 1282
8 1283 1164 1046 1159 1156 1047 935 1039
8 1165 1048 1164 1283 1053 937 1047 1156
8 1157 1043 933 1038 1284 1161 1045 1158
8 1157 1043 1161 1284 1042 932 1044 1160
8 1040 934 1046 1159 1158 1045 1163 1285
8 1166 1049 1167 1292 1051 936 1048 1165
8 1166 1049 936 1051 1293 1168 1050 1172
8 1051 936 1052 1175 1172 1050 1173 1306
8 1174 1051 1165 1290 1308 1175 1053 1177
8 1053 937 1054 1178 1175 1052 1176 1309
8 1278 1156 1055 1180 1177 1053 1178 1311
8 1055 938 1056 1181 1178 1054 1179 1312
8 1057 939 1058 1183 1180 1055 1181 1314
8 1058 940 1059 1184 1181 1056 1182 1315
8 1060 942 1061 1185 1183 1058 1184 1316
8 1208 1081 1187 1321 1082 964 1063 1188
8 1209 1082 1188 1322 1097 981 1064 1190
8 1188 1063 1189 1323 1064 947 1065 1191
8 1190 1064 1191 1325 1066 948 1067 1193
8 1191 1065 1192 1326 1067 949 1068 1194
8 1067 1193 1069 950 1194 1327 1195 1070
8 1250 1133 1199 1330 1126 1019 1075 1196
8 1198 1077 1014 1122 1331 1200 1075 1196
8 1074 960 1077 1198 1197 1076 1201 1332
8 1085 980 1076 1197 1215 1099 1201 1332
8 1199 1079 1203 1333 1075 962 1080 1200
8 1132 1025 1119 1243 1199 1079 1203 1333
8 1201 1078 963 1077 1334 1202 1080 1200
8 1099 994 1078 1201 1227 1111 1202 1334
8 1343 1207 1081 1208 1210 1083 964 1082
8 1214 1084 1186 1319 1343 1207 1081 1208
8 1345 1210 1082 1209 1225 1100 981 1097
8 1346 1211 1083 1210 1228 1115 999 1100
8 1086 984 1099 1215 1216 1103 1227 1352
8 1087 985 1103 1216 1217 1104 1230 1353
8 1090 988 1104 1217 1219 1106 1231 1354
8 1218 1105 987 1089 1355 1232 1106 1219
8 1091 991 1105 1218 1220 1109 1232 1355
8 1092 992 1109 1220 1221 1110 1234 1356
8 1222 1108 1233 1357 1095 990 1107 1224
8 1222 1108 993 1093 1357 1233 1110 1221
8 1223 1101 989 1096 1358 1229 1107 1224
8 1226 1102 983 1098 1358 1229 1101 1223
8 1226 1102 1228 1359 1098 983 1100 1225
8 1103 995 1111 1227 1230 1112 1235 1360
8 1107 1002 1117 1233 1229 1116 1240 1362
8 1102 1001 1116 1229 1228 1115 1240 1362
8 1104 996 1112 1230 1231 1113 1236 1363
8 1364 1237 1114 1232 1231 1113 997 1106
8 1109 1005 1114 1232 1234 1118 1238 1365
8 1110 1004 1118 1234 1233 1117 1241 1366
8 1242 1374 1255 1138 1119 1243 1132 1025
8 1244 1127 1254 1376 1121 1015 1129 1245
8 1148 1031 1149 1275 1244 1127 1254 1376
8 1245 1129 1258 1377 1125 1016 1130 1248
8 1251 1134 1019 1126 1378 1257 1128 1246
8 1378 1257 1128 1246 1247 1131 1017 1123
8 1248 1130 1259 1379 1124 1018 1131 1247
8 1261 1381 1250 1133 1132 1249 1330 1199
8 1255 1380 1252 1135 1132 1249 1381 1261
8 1250 1133 1019 1126 1382 1262 1134 1251
8 1253 1136 1256 1385 1384 1263 1135 1252
8 1254 1137 1265 1387 1129 1022 1141 1258
8 1149 1032 1150 1276 1254 1137 1265 1387
8 1028 1135 1255 1138 1139 1256 1388 1266
8 1136 1029 1147 1264 1256 1139 1267 1389
8 1390 1268 1140 1257 1259 1142 1024 1131
8 1260 1143 1027 1134 1390 1268 1140 1257
8 1258 1141 1269 1391 1130 1023 1142 1259
8 1262 1145 1027 1134 1393 1271 1143 1260
8 1261 1144 1026 1133 1394 1272 1145 1262
8 1135 1028 1144 1261 1263 1146 1272 1394
8 1136 1029 1146 1263 1264 1147 1273 1395
8 1155 1041 1160 1282 1275 1149 1276 1405
8 1276 1150 1044 1160 1406 1277 1162 1286
8 1408 1283 1159 1279 1278 1156 1039 1151
8 1290 1165 1283 1408 1177 1053 1156 1278
8 1152 1040 1159 1279 1280 1158 1285 1409
8 1281 1157 1038 1153 1410 1284 1158 1280
8 1281 1157 1284 1410 1154 1042 1160 1282
8 1159 1046 1164 1283 1285 1163 1289 1412
8 1292 1167 1289 1412 1165 1048 1164 1283
8 1158 1045 1163 1285 1284 1161 1288 1413
8 1284 1161 1288 1413 1160 1044 1162 1286
8 1291 1166 1292 1418 1174 1051 1165 1290
8 1291 1166 1051 1174 1419 1293 1172 1305
8 1294 1169 1296 1421 1166 1049 1167 1292
8 1293 1168 1050 1172 1422 1295 1171 1303
8 1294 1169 1049 1166 1423 1297 1168 1293
8 1422 1295 1171 1303 1301 1170 1302 1435
8 1172 1050 1173 1306 1303 1171 1304 1438
8 1174 1051 1175 1308 1305 1172 1306 1440
8 1175 1052 1176 1309 1306 1173 1307 1441
8 1177 1053 1178 1311 1308 1175 1309 1443
8 1178 1054 1179 1312 1309 1176 1310 1444
8 1180 1055 1181 1314 1311 1178 1312 1446
8 1056 1181 1312 1179 1182 1315 1447 1313
8 1183 1058 1184 1316 1314 1181 1315 1448
8 1319 1186 1084 1214 1451 1317 1213 1350
8 1319 1186 1318 1453 1208 1081 1187 1321
8 1321 1187 1320 1456 1188 1063 1189 1323
8 1344 1208 1321 1457 1209 1082 1188 1322
8 1322 1188 1323 1458 1190 1064 1191 1325
8 1323 1189 1324 1459 1191 1065 1192 1326
8 1191 1325 1193 1067 1326 1460 1327 1194
8 1242 1374 1243 1119 1328 1462 1335 1204
8 1330 1199 1333 1465 1196 1075 1200 1331
8 1132 1249 1330 1199 1243 1375 1465 1333
8 1332 1201 1077 1198 1466 1334 1200 1331
8 1215 1099 1201 1332 1352 1227 1334 1466
8 1119 1243 1333 1203 1204 1335 1470 1338
8 1333 1203 1338 1470 1200 1080 1202 1334
8 1227 1111 1202 1334 1360 1235 1338 1470
8 1328 1462 1335 1204 1205 1336 1471 1339
8 1337 1206 1340 1472 1464 1329 1205 1336
8 1346 1211 1342 1479 1210 1083 1207 1343
8 1346 1211 1115 1228 1479 1342 1239 1361
8 1348 1212 1084 1214 1479 1342 1207 1343
8 1480 1343 1208 1344 1345 1210 1082 1209
8 1351 1214 1319 1454 1480 1343 1208 1344
8 1481 1346 1210 1345 1359 1228 1100 1225
8 1348 1212 1347 1483 1214 1084 1213 1350
8 1216 1103 1227 1352 1353 1230 1360 1488
8 1217 1104 1230 1353 1354 1231 1363 1489
8 1490 1364 1232 1355 1354 1231 1106 1219
8 1220 1109 1232 1355 1356 1234 1365 1491
8 1221 1110 1234 1356 1357 1233 1366 1492
8 1224 1107 1233 1357 1358 1229 1362 1493
8 1226 1102 1229 1358 1359 1228 1362 1493
8 1230 1112 1235 1360 1363 1236 1367 1496
8 1361 1239 1115 1228 1497 1371 1240 1362
8 1366 1241 1372 1498 1233 1117 1240 1362
8 1364 1237 1113 1231 1499 1368 1236 1363
8 1364 1237 1368 1499 1232 1114 1238 1365
8 1234 1118 1238 1365 1366 1241 1369 1500
8 1507 1373 1242 1374 1388 1266 1138 1255
8 1508 1374 1243 1375 1380 1255 1132 1249
8 1376 1254 1387 1509 1245 1129 1258 1377
8 1275 1149 1276 1405 1376 1254 1387 1509
8 1377 1258 1391 1510 1248 1130 1259 1379
8 1511 1390 1257 1378 1379 1259 1131 1247
8 1383 1260 1134 1251 1511 1390 1257 1378
8 1252 1135 1256 1385 1380 1255 1388 1512
8 1261 1381 1513 1394 1133 1250 1382 1262
8 1135 1252 1384 1263 1261 1381 1513 1394
8 1382 1262 1134 1251 1514 1393 1260 1383
8 1253 1136 1263 1384 1386 1264 1395 1516
8 1253 1136 1264 1386 1385 1256 1389 1517
8 1387 1265 1397 1519 1258 1141 1269 1391
8 1276 1150 1277 1406 1387 1265 1397 1519
8 1256 1139 1267 1389 1388 1266 1398 1520
8 1264 1147 1274 1396 1389 1267 1399 1521
8 1392 1270 1143 1260 1522 1400 1268 1390
8 1390 1268 1142 1259 1522 1400 1269 1391
8 1392 1270 1401 1523 1260 1143 1271 1393
8 1272 1394 1524 1402 1145 1262 1393 1271
8 1395 1273 1146 1263 1524 1402 1272 1394
8 1273 1395 1264 1147 1403 1526 1396 1274
8 1405 1276 1160 1282 1534 1406 1286 1411
8 1414 1287 1407 1535 1286 1162 1277 1406
8 1279 1159 1283 1408 1409 1285 1412 1537
8 1418 1292 1412 1537 1290 1165 1283 1408
8 1280 1158 1285 1409 1410 1284 1413 1538
8 1410 1284 1413 1538 1282 1160 1286 1411
8 1285 1163 1289 1412 1413 1288 1417 1540
8 1421 1296 1417 1540 1292 1167 1289 1412
8 1414 1287 1162 1286 1541 1416 1288 1413
8 1420 1294 1421 1545 1291 1166 1292 1418
8 1419 1293 1172 1305 1546 1422 1303 1437
8 1420 1294 1166 1291 1547 1423 1293 1419
8 1294 1169 1297 1423 1421 1296 1425 1548
8 1423 1297 1168 1293 1549 1424 1295 1422
8 1301 1170 1298 1427 1422 1295 1424 1549
8 1432 1300 1428 1554 1301 1170 1298 1427
8 1431 1299 1428 1554 1560 1430 1300 1432
8 1563 1433 1300 1432 1435 1302 1170 1301
8 1546 1422 1303 1437 1434 1301 1435 1565
8 1303 1171 1304 1438 1435 1302 1436 1566
8 1305 1172 1306 1440 1437 1303 1438 1568
8 1306 1173 1307 1441 1438 1304 1439 1569
8 1308 1175 1309 1443 1440 1306 1441 1571
8 1309 1176 1310 1444 1441 1307 1442 1572
8 1311 1178 1312 1446 1443 1309 1444 1574
8 1179 1312 1444 1310 1313 1447 1575 1445
8 1314 1181 1315 1448 1446 1312 1447 1576
8 1350 1213 1349 1486 1451 1317 1449 1579
8 1451 1317 1450 1581 1319 1186 1318 1453
8 1454 1319 1214 1351 1582 1451 1350 1487
8 1453 1318 1452 1584 1321 1187 1320 1456
8 1454 1319 1453 1585 1344 1208 1321 1457
8 1456 1320 1455 1586 1323 1189 1324 1459
8 1457 1321 1456 1587 1322 1188 1323 1458
8 1458 1323 1459 1588 1325 1191 1326 1460
8 1205 1336 1464 1329 1328 1462 1590 1461
8 1507 1373 1461 1590 1374 1242 1328 1462
8 1508 1374 1462 1591 1375 1243 1335 1467
8 1337 1206 1329 1464 1473 1341 1463 1594
8 1375 1243 1335 1467 1465 1333 1470 1596
8 1465 1333 1470 1596 1331 1200 1334 1466
8 1352 1227 1334 1466 1488 1360 1470 1596
8 1591 1462 1336 1468 1467 1335 1471 1597
8 1469 1337 1472 1598 1595 1464 1336 1468
8 1471 1339 1474 1600 1335 1204 1338 1470
8 1600 1474 1367 1496 1470 1338 1235 1360
8 1336 1205 1340 1472 1471 1339 1475 1601
8 1337 1206 1341 1473 1472 1340 1476 1602
8 1495 1370 1478 1609 1361 1239 1342 1479
8 1348 1212 1342 1479 1483 1347 1478 1609
8 1481 1346 1479 1610 1345 1210 1343 1480
8 1481 1346 1228 1359 1610 1479 1361 1494
8 1484 1348 1214 1351 1610 1479 1343 1480
8 1483 1347 1482 1612 1350 1213 1349 1486
8 1484 1348 1483 1613 1351 1214 1350 1487
8 1353 1230 1360 1488 1489 1363 1496 1616
8 1490 1364 1231 1354 1617 1499 1363 1489
8 1490 1364 1499 1617 1355 1232 1365 1491
8 1356 1234 1365 1491 1492 1366 1500 1619
8 1492 1366 1498 1620 1357 1233 1362 1493
8 1494 1361 1228 1359 1621 1497 1362 1493
8 1495 1370 1239 1361 1622 1504 1371 1497
8 1363 1236 1367 1496 1499 1368 1501 1623
8 1497 1371 1240 1362 1624 1505 1372 1498
8 1625 1503 1372 1498 1500 1369 1241 1366
8 1365 1238 1368 1499 1500 1369 1502 1626
8 1520 1398 1506 1633 1388 1266 1373 1507
8 1634 1507 1374 1508 1512 1388 1255 1380
8 1509 1387 1519 1635 1377 1258 1391 1510
8 1405 1276 1406 1534 1509 1387 1519 1635
8 1515 1392 1260 1383 1636 1522 1390 1511
8 1511 1390 1259 1379 1636 1522 1391 1510
8 1385 1256 1389 1517 1512 1388 1520 1637
8 1513 1394 1262 1382 1638 1524 1393 1514
8 1395 1516 1638 1524 1263 1384 1513 1394
8 1515 1392 1523 1639 1383 1260 1393 1514
8 1516 1395 1526 1640 1386 1264 1396 1518
8 1386 1264 1396 1518 1517 1389 1521 1641
8 1519 1397 1527 1643 1391 1269 1400 1522
8 1535 1407 1527 1643 1406 1277 1397 1519
8 1389 1267 1399 1521 1520 1398 1528 1644
8 1645 1529 1399 1521 1525 1404 1274 1396
8 1392 1270 1400 1522 1523 1401 1531 1646
8 1524 1402 1271 1393 1648 1532 1401 1523
8 1403 1526 1648 1532 1273 1395 1524 1402
8 1525 1404 1274 1396 1649 1533 1403 1526
8 1539 1414 1535 1657 1411 1286 1406 1534
8 1542 1415 1536 1658 1414 1287 1407 1535
8 1409 1285 1412 1537 1538 1413 1540 1660
8 1545 1421 1540 1660 1418 1292 1412 1537
8 1539 1414 1286 1411 1661 1541 1413 1538
8 1540 1417 1544 1663 1413 1288 1416 1541
8 1421 1296 1425 1548 1540 1417 1544 1663
8 1542 1415 1287 1414 1664 1543 1416 1541
8 1420 1294 1423 1547 1545 1421 1548 1666
8 1547 1423 1293 1419 1667 1549 1422 1546
8 1434 1301 1427 1553 1546 1422 1549 1667
8 1423 1297 1424 1549 1548 1425 1550 1668
8 1551 1426 1550 1668 1427 1298 1424 1549
8 1551 1426 1298 1427 1671 1552 1428 1554
8 1562 1432 1554 1674 1434 1301 1427 1553
8 1431 1299 1429 1558 1554 1428 1555 1675
8 1431 1299 1430 1560 1558 1429 1557 1680
8 1560 1430 1300 1432 1683 1559 1433 1563
8 1561 1431 1554 1674 1684 1560 1432 1562
8 1685 1563 1432 1562 1565 1435 1301 1434
8 1435 1302 1436 1566 1563 1433 1564 1686
8 1437 1303 1438 1568 1565 1435 1566 1688
8 1438 1304 1439 1569 1566 1436 1567 1689
8 1440 1306 1441 1571 1568 1438 1569 1691
8 1441 1307 1442 1572 1569 1439 1570 1692
8 1443 1309 1444 1574 1571 1441 1572 1694
8 1310 1444 1572 1442 1445 1575 1695 1573
8 1446 1312 1447 1576 1574 1444 1575 1696
8 1486 1349 1485 1614 1579 1449 1577 1699
8 1451 1317 1449 1579 1581 1450 1578 1701
8 1487 1350 1486 1615 1582 1451 1579 1702
8 1581 1450 1580 1704 1453 1318 1452 1584
8 1582 1451 1581 1705 1454 1319 1453 1585
8 1584 1452 1583 1706 1456 1320 1455 1586
8 1585 1453 1584 1707 1457 1321 1456 1587
8 1587 1456 1586 1708 1458 1323 1459 1588
8 1633 1506 1589 1710 1507 1373 1461 1590
8 1464 1329 1461 1590 1594 1463 1589 1710
8 1468 1336 1462 1591 1595 1464 1590 1711
8 1634 1507 1590 1711 1508 1374 1462 1591
8 1473 1341 1463 1594 1603 1477 1593 1716
8 1469 1337 1464 1595 1599 1473 1594 1717
8 1471 1597 1467 1335 1600 1718 1596 1470
8 1718 1600 1496 1616 1596 1470 1360 1488
8 1336 1468 1597 1471 1472 1598 1719 1601
8 1469 1337 1473 1599 1598 1472 1602 1720
8 1722 1604 1501 1623 1600 1474 1367 1496
8 1475 1601 1471 1339 1604 1722 1600 1474
8 1602 1476 1605 1723 1472 1340 1475 1601
8 1476 1602 1724 1606 1341 1473 1603 1477
8 1483 1347 1478 1609 1612 1482 1608 1731
8 1495 1370 1504 1622 1609 1478 1608 1731
8 1618 1495 1609 1732 1494 1361 1479 1610
8 1484 1348 1479 1610 1613 1483 1609 1732
8 1486 1349 1482 1612 1614 1485 1611 1733
8 1613 1483 1612 1734 1487 1350 1486 1615
8 1489 1363 1496 1616 1617 1499 1623 1736
8 1491 1365 1499 1617 1619 1500 1626 1737
8 1618 1495 1361 1494 1738 1622 1497 1621
8 1739 1625 1498 1620 1619 1500 1366 1492
8 1621 1497 1362 1493 1740 1624 1498 1620
8 1742 1631 1504 1622 1624 1505 1371 1497
8 1743 1628 1502 1626 1623 1501 1368 1499
8 1744 1630 1505 1624 1625 1503 1372 1498
8 1745 1629 1503 1625 1626 1502 1369 1500
8 1520 1398 1528 1644 1633 1506 1632 1751
8 1637 1520 1633 1752 1512 1388 1507 1634
8 1635 1519 1643 1753 1510 1391 1522 1636
8 1657 1535 1643 1753 1534 1406 1519 1635
8 1515 1392 1522 1636 1639 1523 1646 1754
8 1517 1389 1521 1641 1637 1520 1644 1755
8 1524 1638 1756 1648 1393 1514 1639 1523
8 1640 1526 1395 1516 1756 1648 1524 1638
8 1642 1525 1396 1518 1757 1649 1526 1640
8 1758 1645 1521 1641 1642 1525 1396 1518
8 1646 1531 1400 1522 1760 1650 1527 1643
8 1535 1407 1536 1658 1643 1527 1650 1760
8 1521 1399 1529 1645 1644 1528 1651 1761
8 1647 1530 1652 1762 1525 1404 1529 1645
8 1401 1523 1648 1532 1531 1646 1763 1655
8 1525 1404 1533 1649 1647 1530 1654 1765
8 1533 1649 1766 1656 1403 1526 1648 1532
8 1662 1542 1658 1774 1539 1414 1535 1657
8 1542 1415 1543 1664 1658 1536 1659 1775
8 1660 1540 1663 1777 1538 1413 1541 1661
8 1545 1421 1548 1666 1660 1540 1663 1777
8 1662 1542 1414 1539 1778 1664 1541 1661
8 1664 1543 1416 1541 1779 1665 1544 1663
8 1548 1425 1550 1668 1663 1544 1665 1779
8 1547 1423 1549 1667 1666 1548 1668 1781
8 1670 1551 1668 1781 1553 1427 1549 1667
8 1551 1426 1552 1671 1668 1550 1669 1782
8 1670 1551 1427 1553 1784 1671 1554 1674
8 1675 1555 1672 1785 1554 1428 1552 1671
8 1678 1556 1673 1789 1558 1429 1555 1675
8 1561 1431 1558 1681 1674 1554 1675 1790
8 1794 1677 1556 1678 1680 1557 1429 1558
8 1560 1430 1559 1683 1680 1557 1679 1797
8 1561 1431 1560 1684 1681 1558 1680 1798
8 1563 1433 1564 1686 1683 1559 1682 1800
8 1684 1560 1432 1562 1801 1683 1563 1685
8 1565 1435 1566 1688 1685 1563 1686 1802
8 1566 1436 1567 1689 1686 1564 1687 1803
8 1568 1438 1569 1691 1688 1566 1689 1805
8 1569 1439 1570 1692 1689 1567 1690 1806
8 1571 1441 1572 1694 1691 1569 1692 1808
8 1442 1572 1692 1570 1573 1695 1809 1693
8 1574 1444 1575 1696 1694 1572 1695 1810
8 1614 1485 1592 1712 1699 1577 1697 1813
8 1579 1449 1577 1699 1701 1578 1698 1815
8 1615 1486 1614 1735 1702 1579 1699 1816
8 1701 1578 1700 1818 1581 1450 1580 1704
8 1582 1451 1579 1702 1705 1581 1701 1819
8 1704 1580 1703 1820 1584 1452 1583 1706
8 1705 1581 1704 1821 1585 1453 1584 1707
8 1707 1584 1706 1822 1587 1456 1586 1708
8 1710 1589 1506 1633 1824 1709 1632 1751
8 1594 1463 1589 1710 1716 1593 1709 1824
8 1752 1633 1710 1825 1634 1507 1590 1711
8 1595 1464 1590 1711 1717 1594 1710 1825
8 1830 1714 1592 1712 1733 1611 1485 1614
8 1603 1477 1593 1716 1725 1607 1715 1834
8 1599 1473 1594 1717 1721 1603 1716 1835
8 1837 1722 1623 1736 1718 1600 1496 1616
8 1719 1601 1722 1837 1597 1471 1600 1718
8 1602 1720 1598 1472 1723 1838 1719 1601
8 1720 1602 1473 1599 1839 1724 1603 1721
8 1723 1605 1726 1840 1601 1475 1604 1722
8 1840 1726 1628 1743 1722 1604 1501 1623
8 1724 1606 1727 1841 1602 1476 1605 1723
8 1725 1607 1728 1842 1603 1477 1606 1724
8 1612 1482 1608 1731 1733 1611 1730 1849
8 1741 1627 1730 1849 1622 1504 1608 1731
8 1613 1483 1609 1732 1734 1612 1731 1850
8 1618 1495 1622 1738 1732 1609 1731 1850
8 1615 1486 1612 1734 1735 1614 1733 1851
8 1852 1743 1626 1737 1736 1623 1499 1617
8 1853 1745 1625 1739 1737 1626 1500 1619
8 1855 1742 1622 1738 1740 1624 1497 1621
8 1856 1744 1624 1740 1739 1625 1498 1620
8 1741 1627 1504 1622 1857 1746 1631 1742
8 1742 1631 1505 1624 1858 1749 1630 1744
8 1859 1747 1629 1745 1743 1628 1502 1626
8 1860 1748 1630 1744 1745 1629 1503 1625
8 1644 1528 1651 1761 1751 1632 1750 1865
8 1637 1520 1644 1755 1752 1633 1751 1866
8 1754 1646 1522 1636 1867 1760 1643 1753
8 1657 1535 1658 1774 1753 1643 1760 1867
8 1639 1523 1646 1754 1756 1648 1763 1868
8 1641 1521 1645 1758 1755 1644 1761 1869
8 1757 1649 1526 1640 1870 1766 1648 1756
8 1642 1525 1649 1757 1759 1647 1765 1871
8 1759 1647 1762 1872 1642 1525 1645 1758
8 1760 1650 1767 1874 1646 1531 1655 1763
8 1658 1536 1659 1775 1760 1650 1767 1874
8 1762 1652 1768 1875 1645 1529 1651 1761
8 1764 1653 1769 1876 1647 1530 1652 1762
8 1656 1766 1877 1773 1532 1648 1763 1655
8 1771 1879 1765 1654 1653 1764 1647 1530
8 1533 1649 1765 1654 1656 1766 1880 1772
8 1662 1542 1664 1778 1774 1658 1775 1887
8 1664 1543 1665 1779 1775 1659 1776 1888
8 1778 1664 1541 1661 1890 1779 1663 1777
8 1666 1548 1668 1781 1777 1663 1779 1890
8 1782 1669 1780 1891 1668 1550 1665 1779
8 1670 1551 1671 1784 1781 1668 1782 1893
8 1671 1552 1672 1785 1782 1669 1783 1894
8 1790 1675 1785 1896 1674 1554 1671 1784
8 1675 1555 1673 1789 1785 1672 1786 1897
8 1792 1676 1788 1903 1678 1556 1673 1789
8 1795 1678 1789 1904 1681 1558 1675 1790
8 1792 1676 1556 1678 1906 1791 1677 1794
8 1680 1557 1679 1797 1794 1677 1793 1909
8 1910 1794 1678 1795 1798 1680 1558 1681
8 1683 1559 1682 1800 1797 1679 1796 1912
8 1684 1560 1683 1801 1798 1680 1797 1913
8 1686 1564 1687 1803 1800 1682 1799 1915
8 1685 1563 1686 1802 1801 1683 1800 1916
8 1688 1566 1689 1805 1802 1686 1803 1917
8 1689 1567 1690 1806 1803 1687 1804 1918
8 1691 1569 1692 1808 1805 1689 1806 1920
8 1692 1570 1693 1809 1806 1690 1807 1921
8 1694 1572 1695 1810 1808 1692 1809 1922
8 1829 1713 1811 1926 1712 1592 1697 1813
8 1813 1697 1812 1928 1699 1577 1698 1815
8 1735 1614 1712 1828 1816 1699 1813 1929
8 1815 1698 1814 1931 1701 1578 1700 1818
8 1702 1579 1699 1816 1819 1701 1815 1932
8 1818 1700 1817 1933 1704 1580 1703 1820
8 1819 1701 1818 1934 1705 1581 1704 1821
8 1821 1704 1820 1935 1707 1584 1706 1822
8 1824 1709 1632 1751 1937 1823 1750 1865
8 1716 1593 1709 1824 1834 1715 1823 1937
8 1825 1710 1633 1752 1938 1824 1751 1866
8 1717 1594 1710 1825 1835 1716 1824 1938
8 1945 1830 1712 1828 1851 1733 1614 1735
8 1830 1714 1831 1946 1712 1592 1713 1829
8 1947 1832 1714 1830 1849 1730 1611 1733
8 1843 1729 1607 1725 1950 1833 1715 1834
8 1721 1603 1716 1835 1836 1725 1834 1951
8 1836 1725 1842 1953 1721 1603 1724 1839
8 1723 1838 1719 1601 1840 1954 1837 1722
8 1954 1840 1743 1852 1837 1722 1623 1736
8 1724 1839 1720 1602 1841 1955 1838 1723
8 1841 1727 1844 1956 1723 1605 1726 1840
8 1956 1844 1747 1859 1840 1726 1628 1743
8 1728 1842 1724 1606 1845 1957 1841 1727
8 1725 1607 1729 1843 1842 1728 1846 1958
8 1741 1627 1746 1857 1849 1730 1848 1965
8 1734 1612 1731 1850 1851 1733 1849 1966
8 1854 1741 1849 1966 1738 1622 1731 1850
8 1967 1859 1745 1853 1852 1743 1626 1737
8 1968 1860 1744 1856 1853 1745 1625 1739
8 1854 1741 1622 1738 1969 1857 1742 1855
8 1855 1742 1624 1740 1970 1858 1744 1856
8 1857 1746 1631 1742 1971 1861 1749 1858
8 1858 1749 1630 1744 1972 1863 1748 1860
8 1859 1747 1862 1973 1745 1629 1748 1860
8 1875 1768 1864 1977 1761 1651 1750 1865
8 1755 1644 1761 1869 1866 1751 1865 1978
8 1867 1760 1874 1979 1754 1646 1763 1868
8 1774 1658 1775 1887 1867 1760 1874 1979
8 1870 1766 1648 1756 1980 1877 1763 1868
8 1872 1762 1875 1981 1758 1645 1761 1869
8 1757 1649 1766 1870 1871 1765 1880 1982
8 1983 1879 1764 1873 1871 1765 1647 1759
8 1873 1764 1876 1984 1759 1647 1762 1872
8 1877 1773 1655 1763 1986 1881 1767 1874
8 1775 1659 1776 1888 1874 1767 1881 1986
8 1876 1769 1882 1987 1762 1652 1768 1875
8 1878 1770 1883 1988 1764 1653 1769 1876
8 1880 1772 1656 1766 1989 1886 1773 1877
8 1878 1770 1653 1764 1990 1884 1771 1879
8 1765 1654 1772 1880 1879 1771 1885 1991
8 1778 1664 1779 1890 1887 1775 1888 1997
8 1998 1889 1776 1888 1891 1780 1665 1779
8 1893 1782 1891 2000 1781 1668 1779 1890
8 1894 1783 1892 2001 1782 1669 1780 1891
8 1784 1671 1785 1896 1893 1782 1894 2003
8 1897 1786 1895 2004 1785 1672 1783 1894
8 1790 1675 1789 1904 1896 1785 1897 2006
8 1901 1787 1898 2007 1789 1673 1786 1897
8 1903 1788 1900 2013 1789 1673 1787 1901
8 1792 1676 1791 1906 1903 1788 1902 2016
8 1907 1792 1903 2017 1795 1678 1789 1904
8 1906 1791 1677 1794 2019 1905 1793 1909
8 1907 1792 1678 1795 2020 1906 1794 1910
8 1797 1679 1796 1912 1909 1793 1908 2022
8 1798 1680 1797 1913 1910 1794 1909 2023
8 1800 1682 1799 1915 1912 1796 1911 2025
8 1801 1683 1800 1916 1913 1797 1912 2026
8 1803 1687 1804 1918 1915 1799 1914 2028
8 1802 1686 1803 1917 1916 1800 1915 2029
8 1805 1689 1806 1920 1917 1803 1918 2030
8 1806 1690 1807 1921 1918 1804 1919 2031
8 1808 1692 1809 1922 1920 1806 1921 2032
8 1939 1826 1924 2037 1829 1713 1811 1926
8 1926 1811 1925 2039 1813 1697 1812 1928
8 1944 1829 1926 2040 1828 1712 1813 1929
8 1928 1812 1927 2042 1815 1698 1814 1931
8 1929 1813 1928 2043 1816 1699 1815 1932
8 1931 1814 1930 2044 1818 1700 1817 1933
8 1932 1815 1931 2045 1819 1701 1818 1934
8 1934 1818 1933 2046 1821 1704 1820 1935
8 2048 1936 1823 1937 1977 1864 1750 1865
8 1950 1833 1715 1834 2048 1936 1823 1937
8 1938 1824 1751 1866 2049 1937 1865 1978
8 1835 1716 1824 1938 1951 1834 1937 2049
8 1939 1826 1713 1829 2053 1942 1831 1946
8 1940 1827 1923 2035 2053 1942 1826 1939
8 1945 1830 1946 2058 1828 1712 1829 1944
8 2059 1947 1830 1945 1966 1849 1733 1851
8 1947 1832 1730 1849 2060 1948 1848 1965
8 1947 1832 1948 2060 1830 1714 1831 1946
8 1959 1847 1729 1843 2063 1949 1833 1950
8 1952 1843 1725 1836 2064 1950 1834 1951
8 1836 1725 1843 1952 1953 1842 1958 2066
8 1953 1842 1957 2067 1839 1724 1841 1955
8 1841 1955 1838 1723 1956 2068 1954 1840
8 2068 1956 1859 1967 1954 1840 1743 1852
8 1956 1844 1960 2069 1859 1747 1862 1973
8 1845 1957 1841 1727 1960 2069 1956 1844
8 1728 1842 1957 1845 1846 1958 2071 1961
8 1962 2072 1959 1847 1846 1958 1843 1729
8 1971 1861 1964 2077 1857 1746 1848 1965
8 1854 1741 1857 1969 1966 1849 1965 2078
8 1967 1859 1973 2079 1853 1745 1860 1968
8 1970 1858 1744 1856 2080 1972 1860 1968
8 1969 1857 1742 1855 2081 1971 1858 1970
8 1971 1861 1749 1858 2082 1974 1863 1972
8 1973 1862 1975 2083 1860 1748 1863 1972
8 1987 1882 1976 2086 1875 1768 1864 1977
8 1981 1875 1977 2087 1869 1761 1865 1978
8 1980 1877 1763 1868 2088 1986 1874 1979
8 1887 1775 1888 1997 1979 1874 1986 2088
8 1880 1982 2089 1989 1766 1870 1980 1877
8 1984 1876 1987 2090 1872 1762 1875 1981
8 1765 1871 1983 1879 1880 1982 2091 1991
8 1985 1878 1764 1873 2092 1990 1879 1983
8 1985 1878 1988 2093 1873 1764 1876 1984
8 2094 1992 1881 1986 1998 1889 1776 1888
8 1986 1881 1992 2094 1877 1773 1886 1989
8 1988 1883 1993 2095 1876 1769 1882 1987
8 1878 1770 1884 1990 1988 1883 1994 2096
8 1991 1885 1772 1880 2097 1996 1886 1989
8 1879 1771 1885 1991 1990 1884 1995 2098
8 2103 1998 1888 1997 2000 1891 1779 1890
8 2104 1999 1889 1998 2001 1892 1780 1891
8 2003 1894 2001 2106 1893 1782 1891 2000
8 2004 1895 2002 2107 1894 1783 1892 2001
8 2006 1897 2004 2109 1896 1785 1894 2003
8 2007 1898 2005 2110 1897 1786 1895 2004
8 2014 1901 2007 2112 1904 1789 1897 2006
8 2011 1899 2008 2113 1901 1787 1898 2007
8 2119 2010 1899 2011 2013 1900 1787 1901
8 2016 1902 2012 2122 1903 1788 1900 2013
8 2017 1903 2013 2123 1904 1789 1901 2014
8 1906 1791 1905 2019 2016 1902 2015 2125
8 1907 1792 1906 2020 2017 1903 2016 2126
8 1909 1793 1908 2022 2019 1905 2018 2128
8 2020 1906 1794 1910 2129 2019 1909 2023
8 1912 1796 1911 2025 2022 1908 2021 2131
8 1913 1797 1912 2026 2023 1909 2022 2132
8 1915 1799 1914 2028 2025 1911 2024 2134
8 1916 1800 1915 2029 2026 1912 2025 2135
8 1918 1804 1919 2031 2028 1914 2027 2136
8 1917 1803 1918 2030 2029 1915 2028 2137
8 1920 1806 1921 2032 2030 1918 2031 2138
8 1940 1827 1941 2054 2035 1923 2033 2140
8 2035 1923 2034 2143 1939 1826 1924 2037
8 2037 1924 2036 2146 1926 1811 1925 2039
8 2051 1939 2037 2147 1944 1829 1926 2040
8 2039 1925 2038 2149 1928 1812 1927 2042
8 2040 1926 2039 2150 1929 1813 1928 2043
8 2042 1927 2041 2151 1931 1814 1930 2044
8 2043 1928 2042 2152 1932 1815 1931 2045
8 2045 1931 2044 2153 1934 1818 1933 2046
8 2155 2047 1936 2048 2086 1976 1864 1977
8 2063 1949 1833 1950 2155 2047 1936 2048
8 2156 2048 1937 2049 2087 1977 1865 1978
8 2064 1950 1834 1951 2156 2048 1937 2049
8 2051 1939 1829 1944 2160 2053 1946 2058
8 2052 1940 2035 2144 2160 2053 1939 2051
8 2053 1942 1831 1946 2163 2057 1948 2060
8 2055 1943 1827 1940 2163 2057 1942 2053
8 2055 1943 2056 2164 1940 1827 1941 2054
8 2059 1947 1849 1966 2167 2060 1965 2078
8 2059 1947 2060 2167 1945 1830 1946 2058
8 2077 1964 2061 2168 1965 1848 1948 2060
8 2070 1963 1847 1959 2170 2062 1949 2063
8 2065 1959 1843 1952 2171 2063 1950 2064
8 2173 2072 1958 2066 2065 1959 1843 1952
8 1953 1842 1958 2066 2067 1957 2071 2174
8 2068 1956 2069 2175 1967 1859 1973 2079
8 2067 1957 2069 2175 1955 1841 1956 2068
8 1845 1957 2069 1960 1961 2071 2176 2073
8 2069 1960 2073 2176 1973 1862 1975 2083
8 2070 1963 2075 2177 1959 1847 1962 2072
8 1846 1958 2071 1961 1962 2072 2178 2074
8 2077 1964 1861 1971 2182 2076 1974 2082
8 2081 1971 2077 2183 1969 1857 1965 2078
8 2079 1973 2083 2184 1968 1860 1972 2080
8 2081 1971 1858 1970 2185 2082 1972 2080
8 2083 1975 2084 2186 1972 1863 1974 2082
8 2086 1976 1882 1987 2189 2085 1993 2095
8 2090 1987 2086 2190 1981 1875 1977 2087
8 2191 2094 1986 2088 2103 1998 1888 1997
8 2088 1986 2094 2191 1980 1877 1989 2089
8 1991 2091 2192 2097 1880 1982 2089 1989
8 2093 1988 2095 2193 1984 1876 1987 2090
8 1879 1983 2092 1990 1991 2091 2194 2098
8 1985 1878 1990 2092 2093 1988 2096 2195
8 2097 1996 1886 1989 2196 2099 1992 2094
8 2196 2099 1992 2094 2104 1999 1889 1998
8 1994 2096 1988 1883 2100 2197 2095 1993
8 2096 1994 1884 1990 2198 2101 1995 2098
8 1995 2098 2199 2102 1885 1991 2097 1996
8 2203 2104 1998 2103 2106 2001 1891 2000
8 2107 2002 2105 2204 2001 1892 1999 2104
8 2109 2004 2107 2206 2003 1894 2001 2106
8 2110 2005 2108 2207 2004 1895 2002 2107
8 2112 2007 2110 2209 2006 1897 2004 2109
8 2113 2008 2111 2210 2007 1898 2005 2110
8 2120 2011 2113 2212 2014 1901 2007 2112
8 2117 2009 2114 2213 2011 1899 2008 2113
8 2219 2116 2009 2117 2119 2010 1899 2011
8 2222 2118 2010 2119 2122 2012 1900 2013
8 2223 2119 2011 2120 2123 2013 1901 2014
8 2016 1902 2015 2125 2122 2012 2121 2225
8 2126 2016 2122 2226 2017 1903 2013 2123
8 2019 1905 2018 2128 2125 2015 2124 2228
8 2020 1906 2019 2129 2126 2016 2125 2229
8 2022 1908 2021 2131 2128 2018 2127 2231
8 2023 1909 2022 2132 2129 2019 2128 2232
8 2025 1911 2024 2134 2131 2021 2130 2234
8 2026 1912 2025 2135 2132 2022 2131 2235
8 1914 2028 2134 2024 2027 2136 2236 2133
8 2029 1915 2028 2137 2135 2025 2134 2237
8 2030 1918 2031 2138 2137 2028 2136 2238
8 2157 2050 2139 2240 2054 1941 2033 2140
8 2052 1940 2054 2161 2144 2035 2140 2242
8 2140 2033 2141 2243 2035 1923 2034 2143
8 2143 2034 2142 2246 2037 1924 2036 2146
8 2144 2035 2143 2247 2051 1939 2037 2147
8 2146 2036 2145 2249 2039 1925 2038 2149
8 2147 2037 2146 2250 2040 1926 2039 2150
8 2149 2038 2148 2251 2042 1927 2041 2151
8 2150 2039 2149 2252 2043 1928 2042 2152
8 2152 2042 2151 2253 2045 1931 2044 2153
8 2255 2154 2047 2155 2189 2085 1976 2086
8 2170 2062 1949 2063 2255 2154 2047 2155
8 2256 2155 2048 2156 2190 2086 1977 2087
8 2171 2063 1950 2064 2256 2155 2048 2156
8 2258 2159 2050 2157 2164 2056 1941 2054
8 2160 2053 1946 2058 2262 2163 2060 2167
8 2162 2055 1940 2052 2262 2163 2053 2160
8 2162 2055 2164 2263 2052 1940 2054 2161
8 2163 2057 1948 2060 2264 2165 2061 2168
8 2055 1943 2057 2163 2164 2056 2165 2264
8 2182 2076 2166 2268 2077 1964 2061 2168
8 2183 2077 2168 2269 2078 1965 2060 2167
8 2070 1963 2062 2170 2177 2075 2169 2271
8 2172 2070 1959 2065 2272 2170 2063 2171
8 2172 2070 2177 2273 2065 1959 2072 2173
8 2066 1958 2072 2173 2174 2071 2178 2274
8 2067 1957 2071 2174 2175 2069 2176 2275
8 2175 2069 2176 2275 2079 1973 2083 2184
8 2071 1961 2074 2178 2176 2073 2179 2276
8 2176 2073 2179 2276 2083 1975 2084 2186
8 2072 1962 2075 2177 2178 2074 2180 2277
8 2182 2076 1974 2082 2280 2181 2084 2186
8 2183 2077 1971 2081 2281 2182 2082 2185
8 2184 2083 2186 2282 2080 1972 2082 2185
8 2189 2085 1993 2095 2285 2188 2100 2197
8 2190 2086 1987 2090 2286 2189 2095 2193
8 2192 2097 1989 2089 2287 2196 2094 2191
8 2287 2196 2094 2191 2203 2104 1998 2103
8 2194 2098 1991 2091 2288 2199 2097 2192
8 2195 2096 2197 2289 2093 1988 2095 2193
8 2096 2195 2290 2198 1990 2092 2194 2098
8 2097 1996 2099 2196 2199 2102 2200 2291
8 2196 2099 1999 2104 2291 2200 2105 2204
8 2100 2197 2292 2201 1994 2096 2198 2101
8 1995 2098 2198 2101 2102 2199 2293 2202
8 2206 2107 2204 2296 2106 2001 2104 2203
8 2207 2108 2205 2297 2107 2002 2105 2204
8 2209 2110 2207 2299 2109 2004 2107 2206
8 2210 2111 2208 2300 2110 2005 2108 2207
8 2212 2113 2210 2302 2112 2007 2110 2209
8 2213 2114 2211 2303 2113 2008 2111 2210
8 2220 2117 2213 2305 2120 2011 2113 2212
8 2216 2115 2214 2306 2117 2009 2114 2213
8 2216 2115 2009 2117 2311 2217 2116 2219
8 2219 2116 2010 2119 2314 2218 2118 2222
8 2315 2219 2117 2220 2223 2119 2011 2120
8 2122 2012 2121 2225 2222 2118 2221 2317
8 2318 2222 2119 2223 2226 2122 2013 2123
8 2125 2015 2124 2228 2225 2121 2224 2320
8 2126 2016 2125 2229 2226 2122 2225 2321
8 2128 2018 2127 2231 2228 2124 2227 2323
8 2129 2019 2128 2232 2229 2125 2228 2324
8 2131 2021 2130 2234 2231 2127 2230 2326
8 2132 2022 2131 2235 2232 2128 2231 2327
8 2134 2024 2133 2236 2234 2130 2233 2328
8 2135 2025 2134 2237 2235 2131 2234 2329
8 2137 2028 2136 2238 2237 2134 2236 2330
8 2157 2050 2158 2259 2240 2139 2239 2332
8 2257 2157 2240 2334 2161 2054 2140 2242
8 2240 2139 2241 2335 2140 2033 2141 2243
8 2242 2140 2243 2337 2144 2035 2143 2247
8 2243 2141 2244 2338 2143 2034 2142 2246
8 2246 2142 2245 2341 2146 2036 2145 2249
8 2247 2143 2246 2342 2147 2037 2146 2250
8 2249 2145 2248 2343 2149 2038 2148 2251
8 2250 2146 2249 2344 2150 2039 2149 2252
8 2252 2149 2251 2345 2152 2042 2151 2253
8 2169 2271 2347 2254 2062 2170 2255 2154
8 2189 2085 2188 2285 2255 2154 2254 2347
8 2348 2255 2155 2256 2286 2189 2086 2190
8 2272 2170 2063 2171 2348 2255 2155 2256
8 2349 2258 2157 2257 2263 2164 2054 2161
8 2258 2159 2261 2351 2157 2050 2158 2259
8 2258 2159 2056 2164 2351 2261 2165 2264
8 2262 2163 2060 2167 2355 2264 2168 2269
8 2162 2055 2163 2262 2263 2164 2264 2355
8 2357 2266 2165 2264 2268 2166 2061 2168
8 2268 2166 2076 2182 2361 2267 2181 2280
8 2281 2182 2268 2362 2183 2077 2168 2269
8 2271 2169 2270 2364 2177 2075 2180 2277
8 2172 2070 2170 2272 2273 2177 2271 2365
8 2072 2173 2274 2178 2177 2273 2366 2277
8 2071 2174 2275 2176 2178 2274 2367 2276
8 2275 2176 2276 2367 2184 2083 2186 2282
8 2283 2187 2084 2186 2368 2278 2179 2276
8 2178 2074 2180 2277 2276 2179 2278 2368
8 2283 2187 2279 2370 2186 2084 2181 2280
8 2281 2182 2082 2185 2371 2280 2186 2282
8 2188 2285 2374 2284 2100 2197 2292 2201
8 2286 2189 2095 2193 2375 2285 2197 2289
8 2192 2097 2196 2287 2288 2199 2291 2376
8 2287 2196 2104 2203 2376 2291 2204 2296
8 2194 2098 2199 2288 2290 2198 2293 2377
8 2289 2197 2096 2195 2378 2292 2198 2290
8 2291 2200 2105 2204 2379 2294 2205 2297
8 2199 2102 2200 2291 2293 2202 2294 2379
8 2198 2101 2202 2293 2292 2201 2295 2380
8 2299 2207 2297 2383 2206 2107 2204 2296
8 2300 2208 2298 2384 2207 2108 2205 2297
8 2302 2210 2300 2386 2209 2110 2207 2299
8 2303 2211 2301 2387 2210 2111 2208 2300
8 2305 2213 2303 2389 2212 2113 2210 2302
8 2306 2214 2304 2390 2213 2114 2211 2303
8 2310 2216 2306 2392 2220 2117 2213 2305
8 2308 2215 2307 2393 2216 2115 2214 2306
8 2308 2215 2115 2216 2396 2309 2217 2311
8 2310 2216 2117 2220 2398 2311 2219 2315
8 2311 2217 2116 2219 2399 2312 2218 2314
8 2314 2218 2118 2222 2402 2313 2221 2317
8 2315 2219 2119 2223 2403 2314 2222 2318
8 2225 2121 2224 2320 2317 2221 2316 2405
8 2226 2122 2225 2321 2318 2222 2317 2406
8 2228 2124 2227 2323 2320 2224 2319 2408
8 2229 2125 2228 2324 2321 2225 2320 2409
8 2231 2127 2230 2326 2323 2227 2322 2411
8 2232 2128 2231 2327 2324 2228 2323 2412
8 2234 2130 2233 2328 2326 2230 2325 2413
8 2235 2131 2234 2329 2327 2231 2326 2414
8 2237 2134 2236 2330 2329 2234 2328 2415
8 2259 2158 2260 2352 2332 2239 2331 2417
8 2257 2157 2259 2350 2334 2240 2332 2419
8 2240 2139 2239 2332 2335 2241 2333 2420
8 2334 2240 2335 2422 2242 2140 2243 2337
8 2335 2241 2336 2423 2243 2141 2244 2338
8 2337 2243 2338 2425 2247 2143 2246 2342
8 2338 2244 2339 2426 2246 2142 2245 2341
8 2341 2245 2340 2428 2249 2145 2248 2343
8 2342 2246 2341 2429 2250 2146 2249 2344
8 2344 2249 2343 2430 2252 2149 2251 2345
8 2188 2285 2347 2254 2284 2374 2432 2346
8 2347 2254 2346 2432 2271 2169 2270 2364
8 2365 2271 2170 2272 2433 2347 2255 2348
8 2286 2189 2285 2375 2348 2255 2347 2433
8 2349 2258 2351 2435 2257 2157 2259 2350
8 2349 2258 2164 2263 2435 2351 2264 2355
8 2259 2158 2261 2351 2352 2260 2354 2437
8 2356 2265 2354 2437 2264 2165 2261 2351
8 2441 2357 2264 2355 2362 2268 2168 2269
8 2356 2265 2165 2264 2442 2358 2266 2357
8 2443 2359 2266 2357 2361 2267 2166 2268
8 2370 2279 2360 2446 2280 2181 2267 2361
8 2362 2268 2182 2281 2447 2361 2280 2371
8 2180 2277 2368 2278 2270 2364 2449 2363
8 2271 2365 2273 2177 2364 2450 2366 2277
8 2372 2283 2186 2282 2451 2368 2276 2367
8 2178 2274 2367 2276 2277 2366 2451 2368
8 2283 2187 2278 2368 2370 2279 2369 2452
8 2372 2283 2370 2453 2282 2186 2280 2371
8 2284 2374 2455 2373 2201 2292 2380 2295
8 2375 2285 2197 2289 2456 2374 2292 2378
8 2376 2291 2204 2296 2457 2379 2297 2383
8 2288 2199 2291 2376 2377 2293 2379 2457
8 2198 2290 2378 2292 2293 2377 2458 2380
8 2293 2202 2294 2379 2380 2295 2381 2459
8 2384 2298 2381 2459 2297 2205 2294 2379
8 2386 2300 2384 2463 2299 2207 2297 2383
8 2387 2301 2385 2464 2300 2208 2298 2384
8 2389 2303 2387 2466 2302 2210 2300 2386
8 2390 2304 2388 2467 2303 2211 2301 2387
8 2392 2306 2390 2469 2305 2213 2303 2389
8 2393 2307 2391 2470 2306 2214 2304 2390
8 2395 2308 2393 2472 2310 2216 2306 2392
8 2308 2215 2309 2396 2393 2307 2394 2473
8 2395 2308 2216 2310 2475 2396 2311 2398
8 2396 2309 2217 2311 2476 2397 2312 2399
8 2398 2311 2219 2315 2478 2399 2314 2403
8 2399 2312 2218 2314 2479 2400 2313 2402
8 2317 2221 2316 2405 2402 2313 2401 2482
8 2403 2314 2222 2318 2483 2402 2317 2406
8 2320 2224 2319 2408 2405 2316 2404 2485
8 2321 2225 2320 2409 2406 2317 2405 2486
8 2323 2227 2322 2411 2408 2319 2407 2488
8 2324 2228 2323 2412 2409 2320 2408 2489
8 2326 2230 2325 2413 2411 2322 2410 2490
8 2327 2231 2326 2414 2412 2323 2411 2491
8 2329 2234 2328 2415 2414 2326 2413 2492
8 2417 2331 2260 2352 2494 2416 2353 2438
8 2350 2259 2352 2436 2419 2332 2417 2496
8 2332 2239 2331 2417 2420 2333 2418 2497
8 2334 2240 2332 2419 2422 2335 2420 2499
8 2420 2333 2421 2500 2335 2241 2336 2423
8 2422 2335 2423 2502 2337 2243 2338 2425
8 2423 2336 2424 2503 2338 2244 2339 2426
8 2425 2338 2426 2505 2342 2246 2341 2429
8 2426 2339 2427 2506 2341 2245 2340 2428
8 2429 2341 2428 2507 2344 2249 2343 2430
8 2432 2346 2284 2374 2509 2431 2373 2455
8 2432 2346 2431 2509 2364 2270 2363 2449
8 2375 2285 2374 2456 2433 2347 2432 2510
8 2347 2433 2365 2271 2432 2510 2450 2364
8 2350 2259 2351 2435 2436 2352 2437 2514
8 2440 2356 2437 2514 2355 2264 2351 2435
8 2352 2260 2354 2437 2438 2353 2439 2516
8 2356 2265 2358 2442 2437 2354 2439 2516
8 2440 2356 2264 2355 2518 2442 2357 2441
8 2519 2443 2357 2441 2447 2361 2268 2362
8 2443 2359 2444 2520 2357 2266 2358 2442
8 2443 2359 2267 2361 2520 2444 2360 2446
8 2446 2360 2279 2370 2523 2445 2369 2452
8 2453 2370 2446 2524 2371 2280 2361 2447
8 2449 2363 2448 2525 2368 2278 2369 2452
8 2366 2277 2364 2450 2451 2368 2449 2526
8 2372 2283 2368 2451 2453 2370 2452 2527
8 2455 2373 2295 2380 2529 2454 2382 2460
8 2456 2374 2292 2378 2530 2455 2380 2458
8 2377 2293 2379 2457 2458 2380 2459 2531
8 2463 2384 2459 2531 2383 2297 2379 2457
8 2533 2461 2382 2460 2459 2381 2295 2380
8 2464 2385 2461 2533 2384 2298 2381 2459
8 2466 2387 2464 2537 2386 2300 2384 2463
8 2467 2388 2465 2538 2387 2301 2385 2464
8 2469 2390 2467 2540 2389 2303 2387 2466
8 2470 2391 2468 2541 2390 2304 2388 2467
8 2472 2393 2470 2543 2392 2306 2390 2469
8 2393 2307 2394 2473 2470 2391 2471 2544
8 2395 2308 2396 2475 2472 2393 2473 2546
8 2396 2309 2397 2476 2473 2394 2474 2547
8 2475 2396 2311 2398 2549 2476 2399 2478
8 2476 2397 2312 2399 2550 2477 2400 2479
8 2478 2399 2314 2403 2552 2479 2402 2483
8 2479 2400 2313 2402 2553 2480 2401 2482
8 2405 2316 2404 2485 2482 2401 2481 2556
8 2406 2317 2405 2486 2483 2402 2482 2557
8 2408 2319 2407 2488 2485 2404 2484 2559
8 2409 2320 2408 2489 2486 2405 2485 2560
8 2411 2322 2410 2490 2488 2407 2487 2561
8 2412 2323 2411 2491 2489 2408 2488 2562
8 2414 2326 2413 2492 2491 2411 2490 2563
8 2513 2434 2493 2565 2438 2353 2416 2494
8 2496 2417 2352 2436 2567 2494 2438 2515
8 2494 2416 2495 2568 2417 2331 2418 2497
8 2419 2332 2417 2496 2499 2420 2497 2570
8 2497 2418 2498 2571 2420 2333 2421 2500
8 2499 2420 2500 2573 2422 2335 2423 2502
8 2500 2421 2501 2574 2423 2336 2424 2503
8 2502 2423 2503 2576 2425 2338 2426 2505
8 2503 2424 2504 2577 2426 2339 2427 2506
8 2505 2426 2506 2578 2429 2341 2428 2507
8 2509 2431 2373 2455 2580 2508 2454 2529
8 2509 2431 2508 2580 2449 2363 2448 2525
8 2432 2510 2581 2509 2374 2456 2530 2455
8 2432 2510 2450 2364 2509 2581 2526 2449
8 2583 2511 2434 2513 2516 2439 2353 2438
8 2436 2352 2437 2514 2515 2438 2516 2588
8 2440 2356 2442 2518 2514 2437 2516 2588
8 2442 2358 2444 2520 2516 2439 2517 2589
8 2519 2443 2520 2591 2441 2357 2442 2518
8 2519 2443 2361 2447 2591 2520 2446 2524
8 2446 2360 2445 2523 2520 2444 2521 2592
8 2525 2448 2522 2593 2452 2369 2445 2523
8 2524 2446 2370 2453 2594 2523 2452 2527
8 2526 2449 2525 2595 2451 2368 2452 2527
8 2534 2462 2528 2597 2460 2382 2454 2529
8 2530 2455 2380 2458 2598 2529 2460 2532
8 2599 2533 2460 2532 2531 2459 2380 2458
8 2537 2464 2533 2599 2463 2384 2459 2531
8 2534 2462 2382 2460 2601 2535 2461 2533
8 2538 2465 2535 2601 2464 2385 2461 2533
8 2540 2467 2538 2604 2466 2387 2464 2537
8 2541 2468 2539 2605 2467 2388 2465 2538
8 2543 2470 2541 2607 2469 2390 2467 2540
8 2470 2391 2471 2544 2541 2468 2542 2608
8 2472 2393 2473 2546 2543 2470 2544 2610
8 2473 2394 2474 2547 2544 2471 2545 2611
8 2475 2396 2476 2549 2546 2473 2547 2613
8 2476 2397 2477 2550 2547 2474 2548 2614
8 2549 2476 2399 2478 2616 2550 2479 2552
8 2479 2400 2480 2553 2550 2477 2551 2617
8 2552 2479 2402 2483 2619 2553 2482 2557
8 2482 2401 2481 2556 2553 2480 2554 2620
8 2485 2404 2484 2559 2556 2481 2555 2623
8 2486 2405 2485 2560 2557 2482 2556 2624
8 2488 2407 2487 2561 2559 2484 2558 2625
8 2489 2408 2488 2562 2560 2485 2559 2626
8 2491 2411 2490 2563 2562 2488 2561 2627
8 2513 2434 2512 2585 2565 2493 2564 2630
8 2586 2513 2565 2632 2515 2438 2494 2567
8 2565 2493 2566 2633 2494 2416 2495 2568
8 2567 2494 2568 2635 2496 2417 2497 2570
8 2568 2495 2569 2636 2497 2418 2498 2571
8 2570 2497 2571 2638 2499 2420 2500 2573
8 2571 2498 2572 2639 2500 2421 2501 2574
8 2573 2500 2574 2641 2502 2423 2503 2576
8 2574 2501 2575 2642 2503 2424 2504 2577
8 2576 2503 2577 2643 2505 2426 2506 2578
8 2597 2528 2579 2645 2529 2454 2508 2580
8 2580 2508 2579 2645 2525 2448 2522 2593
8 2581 2509 2455 2530 2646 2580 2529 2598
8 2581 2509 2580 2646 2526 2449 2525 2595
8 2583 2511 2582 2648 2513 2434 2512 2585
8 2583 2511 2439 2516 2648 2582 2517 2589
8 2649 2583 2513 2586 2588 2516 2438 2515
8 2589 2517 2444 2520 2653 2587 2521 2592
8 2518 2442 2520 2591 2588 2516 2589 2654
8 2593 2522 2590 2655 2523 2445 2521 2592
8 2524 2446 2523 2594 2591 2520 2592 2656
8 2595 2525 2593 2657 2527 2452 2523 2594
8 2602 2536 2596 2659 2534 2462 2528 2597
8 2600 2534 2597 2660 2532 2460 2529 2598
8 2600 2534 2460 2532 2661 2601 2533 2599
8 2604 2538 2601 2661 2537 2464 2533 2599
8 2602 2536 2462 2534 2663 2603 2535 2601
8 2601 2535 2465 2538 2663 2603 2539 2605
8 2607 2541 2605 2665 2540 2467 2538 2604
8 2608 2542 2606 2666 2541 2468 2539 2605
8 2543 2470 2544 2610 2607 2541 2608 2668
8 2544 2471 2545 2611 2608 2542 2609 2669
8 2546 2473 2547 2613 2610 2544 2611 2671
8 2547 2474 2548 2614 2611 2545 2612 2672
8 2549 2476 2550 2616 2613 2547 2614 2674
8 2550 2477 2551 2617 2614 2548 2615 2675
8 2552 2479 2553 2619 2616 2550 2617 2677
8 2553 2480 2554 2620 2617 2551 2618 2678
8 2557 2482 2556 2624 2619 2553 2620 2680
8 2556 2481 2555 2623 2620 2554 2621 2681
8 2559 2484 2558 2625 2623 2555 2622 2683
8 2560 2485 2559 2626 2624 2556 2623 2684
8 2562 2488 2561 2627 2626 2559 2625 2685
8 2690 2629 2564 2630 2650 2584 2512 2585
8 2586 2513 2585 2651 2632 2565 2630 2691
8 2630 2564 2631 2692 2565 2493 2566 2633
8 2632 2565 2633 2694 2567 2494 2568 2635
8 2633 2566 2634 2695 2568 2495 2569 2636
8 2635 2568 2636 2697 2570 2497 2571 2638
8 2636 2569 2637 2698 2571 2498 2572 2639
8 2638 2571 2639 2700 2573 2500 2574 2641
8 2639 2572 2640 2701 2574 2501 2575 2642
8 2641 2574 2642 2702 2576 2503 2577 2643
8 2597 2528 2596 2659 2645 2579 2644 2704
8 2645 2579 2644 2704 2593 2522 2590 2655
8 2660 2597 2645 2705 2598 2529 2580 2646
8 2646 2580 2645 2705 2595 2525 2593 2657
8 2650 2584 2512 2585 2707 2647 2582 2648
8 2648 2582 2517 2589 2707 2647 2587 2653
8 2649 2583 2648 2708 2586 2513 2585 2651
8 2649 2583 2516 2588 2708 2648 2589 2654
8 2655 2590 2652 2710 2592 2521 2587 2653
8 2654 2589 2520 2591 2711 2653 2592 2656
8 2657 2593 2655 2712 2594 2523 2592 2656
8 2602 2536 2603 2663 2659 2596 2658 2714
8 2662 2602 2659 2715 2600 2534 2597 2660
8 2662 2602 2534 2600 2717 2663 2601 2661
8 2661 2601 2538 2604 2717 2663 2605 2665
8 2666 2606 2664 2718 2605 2539 2603 2663
8 2668 2608 2666 2720 2607 2541 2605 2665
8 2608 2542 2609 2669 2666 2606 2667 2721
8 2610 2544 2611 2671 2668 2608 2669 2723
8 2611 2545 2612 2672 2669 2609 2670 2724
8 2613 2547 2614 2674 2671 2611 2672 2726
8 2614 2548 2615 2675 2672 2612 2673 2727
8 2616 2550 2617 2677 2674 2614 2675 2729
8 2617 2551 2618 2678 2675 2615 2676 2730
8 2619 2553 2620 2680 2677 2617 2678 2732
8 2620 2554 2621 2681 2678 2618 2679 2733
8 2624 2556 2623 2684 2680 2620 2681 2735
8 2681 2621 2555 2623 2736 2682 2622 2683
8 2626 2559 2625 2685 2684 2623 2683 2737
8 2688 2628 2584 2650 2740 2686 2647 2707
8 2688 2628 2687 2742 2650 2584 2629 2690
8 2690 2629 2689 2745 2630 2564 2631 2692
8 2746 2690 2630 2691 2709 2650 2585 2651
8 2691 2630 2692 2747 2632 2565 2633 2694
8 2692 2631 2693 2748 2633 2566 2634 2695
8 2694 2633 2695 2750 2635 2568 2636 2697
8 2695 2634 2696 2751 2636 2569 2637 2698
8 2697 2636 2698 2753 2638 2571 2639 2700
8 2698 2637 2699 2754 2639 2572 2640 2701
8 2700 2639 2701 2755 2641 2574 2642 2702
8 2659 2596 2658 2714 2704 2644 2703 2757
8 2704 2644 2703 2757 2655 2590 2652 2710
8 2660 2597 2659 2715 2705 2645 2704 2758
8 2705 2645 2704 2758 2657 2593 2655 2712
8 2759 2706 2647 2707 2710 2652 2587 2653
8 2709 2650 2585 2651 2760 2707 2648 2708
8 2708 2648 2589 2654 2760 2707 2653 2711
8 2712 2655 2710 2761 2656 2592 2653 2711
8 2763 2713 2658 2714 2718 2664 2603 2663
8 2662 2602 2663 2717 2715 2659 2714 2764
8 2720 2666 2718 2767 2665 2605 2663 2717
8 2768 2719 2664 2718 2721 2667 2606 2666
8 2668 2608 2669 2723 2720 2666 2721 2770
8 2669 2609 2670 2724 2721 2667 2722 2771
8 2671 2611 2672 2726 2723 2669 2724 2773
8 2672 2612 2673 2727 2724 2670 2725 2774
8 2674 2614 2675 2729 2726 2672 2727 2776
8 2675 2615 2676 2730 2727 2673 2728 2777
8 2677 2617 2678 2732 2729 2675 2730 2779
8 2678 2618 2679 2733 2730 2676 2731 2780
8 2680 2620 2681 2735 2732 2678 2733 2782
8 2733 2679 2621 2681 2783 2734 2682 2736
8 2735 2681 2623 2684 2784 2736 2683 2737
8 2740 2686 2647 2707 2787 2738 2706 2759
8 2688 2628 2686 2740 2742 2687 2739 2789
8 2743 2688 2650 2709 2790 2740 2707 2760
8 2742 2687 2741 2792 2690 2629 2689 2745
8 2743 2688 2742 2793 2709 2650 2690 2746
8 2745 2689 2744 2795 2692 2631 2693 2748
8 2746 2690 2745 2796 2691 2630 2692 2747
8 2747 2692 2748 2797 2694 2633 2695 2750
8 2748 2693 2749 2798 2695 2634 2696 2751
8 2750 2695 2751 2800 2697 2636 2698 2753
8 2751 2696 2752 2801 2698 2637 2699 2754
8 2753 2698 2754 2802 2700 2639 2701 2755
8 2763 2713 2756 2804 2714 2658 2703 2757
8 2759 2706 2652 2710 2804 2756 2703 2757
8 2715 2659 2714 2764 2758 2704 2757 2805
8 2758 2704 2757 2805 2712 2655 2710 2761
8 2806 2759 2707 2760 2761 2710 2653 2711
8 2765 2716 2762 2808 2718 2664 2713 2763
8 2809 2763 2714 2764 2767 2718 2663 2717
8 2765 2716 2664 2718 2811 2766 2719 2768
8 2813 2768 2718 2767 2770 2721 2666 2720
8 2814 2769 2719 2768 2771 2722 2667 2721
8 2723 2669 2724 2773 2770 2721 2771 2816
8 2724 2670 2725 2774 2771 2722 2772 2817
8 2726 2672 2727 2776 2773 2724 2774 2819
8 2727 2673 2728 2777 2774 2725 2775 2820
8 2729 2675 2730 2779 2776 2727 2777 2822
8 2730 2676 2731 2780 2777 2728 2778 2823
8 2732 2678 2733 2782 2779 2730 2780 2825
8 2780 2731 2679 2733 2826 2781 2734 2783
8 2782 2733 2681 2735 2827 2783 2736 2784
8 2830 2785 2738 2787 2804 2756 2706 2759
8 2789 2739 2686 2740 2832 2786 2738 2787
8 2790 2740 2707 2760 2833 2787 2759 2806
8 2742 2687 2739 2789 2792 2741 2788 2835
8 2743 2688 2740 2790 2793 2742 2789 2836
8 2792 2741 2791 2838 2745 2689 2744 2795
8 2793 2742 2792 2839 2746 2690 2745 2796
8 2795 2744 2794 2841 2748 2693 2749 2798
8 2796 2745 2795 2842 2747 2692 2748 2797
8 2797 2748 2798 2843 2750 2695 2751 2800
8 2798 2749 2799 2844 2751 2696 2752 2801
8 2800 2751 2801 2845 2753 2698 2754 2802
8 2808 2762 2803 2847 2763 2713 2756 2804
8 2809 2763 2804 2848 2764 2714 2757 2805
8 2806 2759 2710 2761 2848 2804 2757 2805
8 2765 2716 2766 2811 2808 2762 2807 2850
8 2810 2765 2808 2851 2767 2718 2763 2809
8 2810 2765 2718 2767 2852 2811 2768 2813
8 2811 2766 2719 2768 2853 2812 2769 2814
8 2855 2814 2768 2813 2816 2771 2721 2770
8 2856 2815 2769 2814 2817 2772 2722 2771
8 2773 2724 2774 2819 2816 2771 2817 2858
8 2774 2725 2775 2820 2817 2772 2818 2859
8 2776 2727 2777 2822 2819 2774 2820 2861
8 2777 2728 2778 2823 2820 2775 2821 2862
8 2779 2730 2780 2825 2822 2777 2823 2864
8 2823 2778 2731 2780 2865 2824 2781 2826
8 2825 2780 2733 2782 2866 2826 2783 2827
8 2869 2828 2785 2830 2847 2803 2756 2804
8 2871 2829 2786 2832 2830 2785 2738 2787
8 2872 2830 2787 2833 2848 2804 2759 2806
8 2789 2739 2786 2832 2835 2788 2831 2874
8 2836 2789 2740 2790 2875 2832 2787 2833
8 2792 2741 2788 2835 2838 2791 2834 2877
8 2793 2742 2789 2836 2839 2792 2835 2878
8 2838 2791 2837 2880 2795 2744 2794 2841
8 2839 2792 2838 2881 2796 2745 2795 2842
8 2841 2794 2840 2882 2798 2749 2799 2844
8 2842 2795 2841 2883 2797 2748 2798 2843
8 2843 2798 2844 2884 2800 2751 2801 2845
8 2886 2846 2803 2847 2850 2807 2762 2808
8 2851 2808 2847 2887 2809 2763 2804 2848
8 2850 2807 2766 2811 2889 2849 2812 2853
8 2810 2765 2811 2852 2851 2808 2850 2890
8 2852 2811 2768 2813 2891 2853 2814 2855
8 2853 2812 2769 2814 2892 2854 2815 2856
8 2894 2856 2814 2855 2858 2817 2771 2816
8 2817 2772 2818 2859 2856 2815 2857 2895
8 2819 2774 2820 2861 2858 2817 2859 2897
8 2820 2775 2821 2862 2859 2818 2860 2898
8 2822 2777 2823 2864 2861 2820 2862 2900
8 2823 2778 2824 2865 2862 2821 2863 2901
8 2864 2823 2780 2825 2902 2865 2826 2866
8 2904 2867 2828 2869 2886 2846 2803 2847
8 2869 2828 2868 2906 2830 2785 2829 2871
8 2907 2869 2830 2872 2887 2847 2804 2848
8 2871 2829 2870 2909 2832 2786 2831 2874
8 2910 2871 2832 2875 2872 2830 2787 2833
8 2835 2788 2831 2874 2877 2834 2873 2912
8 2836 2789 2832 2875 2878 2835 2874 2913
8 2877 2834 2876 2915 2838 2791 2837 2880
8 2839 2792 2835 2878 2881 2838 2877 2916
8 2880 2837 2879 2917 2841 2794 2840 2882
8 2881 2838 2880 2918 2842 2795 2841 2883
8 2883 2841 2882 2919 2843 2798 2844 2884
8 2921 2885 2846 2886 2889 2849 2807 2850
8 2922 2886 2847 2887 2890 2850 2808 2851
8 2889 2849 2812 2853 2924 2888 2854 2892
8 2890 2850 2811 2852 2925 2889 2853 2891
8 2891 2853 2814 2855 2926 2892 2856 2894
8 2892 2854 2815 2856 2927 2893 2857 2895
8 2858 2817 2859 2897 2894 2856 2895 2929
8 2859 2818 2860 2898 2895 2857 2896 2930
8 2861 2820 2862 2900 2897 2859 2898 2932
8 2862 2821 2863 2901 2898 2860 2899 2933
8 2864 2823 2865 2902 2900 2862 2901 2934
8 2904 2867 2846 2886 2936 2903 2885 2921
8 2904 2867 2903 2936 2869 2828 2868 2906
8 2937 2904 2869 2907 2922 2886 2847 2887
8 2906 2868 2905 2939 2871 2829 2870 2909
8 2907 2869 2906 2940 2872 2830 2871 2910
8 2909 2870 2908 2942 2874 2831 2873 2912
8 2910 2871 2909 2943 2875 2832 2874 2913
8 2912 2873 2911 2945 2877 2834 2876 2915
8 2878 2835 2874 2913 2916 2877 2912 2946
8 2915 2876 2914 2947 2880 2837 2879 2917
8 2916 2877 2915 2948 2881 2838 2880 2918
8 2918 2880 2917 2949 2883 2841 2882 2919
8 2921 2885 2849 2889 2951 2920 2888 2924
8 2952 2921 2886 2922 2925 2889 2850 2890
8 2924 2888 2854 2892 2954 2923 2893 2927
8 2925 2889 2853 2891 2955 2924 2892 2926
8 2926 2892 2856 2894 2956 2927 2895 2929
8 2895 2857 2896 2930 2927 2893 2928 2957
8 2897 2859 2898 2932 2929 2895 2930 2959
8 2898 2860 2899 2933 2930 2896 2931 2960
8 2900 2862 2901 2934 2932 2898 2933 2961
8 2936 2903 2885 2921 2963 2935 2920 2951
8 2936 2903 2935 2963 2906 2868 2905 2939
8 2937 2904 2886 2922 2964 2936 2921 2952
8 2937 2904 2936 2964 2907 2869 2906 2940
8 2939 2905 2938 2966 2909 2870 2908 2942
8 2940 2906 2939 2967 2910 2871 2909 2943
8 2942 2908 2941 2969 2912 2873 2911 2945
8 2943 2909 2942 2970 2913 2874 2912 2946
8 2945 2911 2944 2971 2915 2876 2914 2947
8 2946 2912 2945 2972 2916 2877 2915 2948
8 2948 2915 2947 2973 2918 2880 2917 2949
8 2951 2920 2888 2924 2975 2950 2923 2954
8 2952 2921 2889 2925 2976 2951 2924 2955
8 2927 2893 2928 2957 2954 2923 2953 2978
8 2955 2924 2892 2926 2979 2954 2927 2956
8 2929 2895 2930 2959 2956 2927 2957 2980
8 2930 2896 2931 2960 2957 2928 2958 2981
8 2932 2898 2933 2961 2959 2930 2960 2982
8 2951 2920 2950 2975 2963 2935 2962 2984
8 2963 2935 2962 2984 2939 2905 2938 2966
8 2964 2936 2921 2952 2985 2963 2951 2976
8 2964 2936 2963 2985 2940 2906 2939 2967
8 2966 2938 2965 2987 2942 2908 2941 2969
8 2967 2939 2966 2988 2943 2909 2942 2970
8 2969 2941 2968 2989 2945 2911 2944 2971
8 2970 2942 2969 2990 2946 2912 2945 2972
8 2972 2945 2971 2991 2948 2915 2947 2973
8 2954 2923 2953 2978 2975 2950 2974 2993
8 2976 2951 2924 2955 2994 2975 2954 2979
8 2957 2928 2958 2981 2978 2953 2977 2995
8 2956 2927 2957 2980 2979 2954 2978 2996
8 2959 2930 2960 2982 2980 2957 2981 2997
8 2984 2962 2983 2999 2966 2938 2965 2987
8 2975 2950 2974 2993 2984 2962 2983 2999
8 2976 2951 2975 2994 2985 2963 2984 3000
8 2985 2963 2984 3000 2967 2939 2966 2988
8 2987 2965 2986 3001 2969 2941 2968 2989
8 2988 2966 2987 3002 2970 2942 2969 2990
8 2990 2969 2989 3003 2972 2945 2971 2991
8 2978 2953 2977 2995 2993 2974 2992 3004
8 2979 2954 2978 2996 2994 2975 2993 3005
8 2980 2957 2981 2997 2996 2978 2995 3006
8 2974 2993 2999 2983 2992 3004 3007 2998
8 2983 2999 2987 2965 2998 3007 3001 2986
8 3000 2984 2999 3008 2988 2966 2987 3002
8 2994 2975 2993 3005 3000 2984 2999 3008
8 3002 2987 3001 3009 2990 2969 2989 3003
8 2996 2978 2995 3006 3005 2993 3004 3010
8 3005 2993 3004 3010 3008 2999 3007 3011
8 3008 2999 3007 3011 3002 2987 3001 3009

CELL_TYPES 1910
12
12
12
12
12
12
12
12
12
12
12
12
12
12
12
12
12
12
12
12
12
12
12
12
12
12
12
12
12
12
12
12
12
12
12
12
12
12
12
12
12
12
12
12
12
12
12
12
12
12
12
12
12
12
12
12
12
12
12
12
12
12
12
12
12
12
12
12
12
12
12
12
12
12
12
12
12
12
12
12
12
12
12
12
12
12
12
12
12
12
12
12
12
12
12
12
12
12
12
12
12
12
12
12
12
12
12
12
12
12
12
12
12
12
12
12
12
12
12
12
12
12
12
12
12
12
12
12
12
12
12
12
12
12
12
12
12
12
12
12
12
12
12
12
12
12
12
12
12
12
12
12
12
12
12
12
12
12
12
12
12
12
12
12
12
12
12
12
12
12
12
12
12
12
12
12
12
12
12
12
12
12
12
12
12
12
12
12
12
12
12
12
12
12
12
12
12
12
12
12
12
12
12
12
12
12
12
12
12
12
12
12
12
12
12
12
12
12
12
12
12
12
12
12
12
12
12
12
12
12
12
12
12
12
12
12
12
12
12
12
12
12
12
12
12
12
12
12
12
12
12
12
12
12
12
12
12
12
12
12
12
12
12
12
12
12
12
12
12
12
12
12
12
12
12
12
12
12
12
12
12
12
12
12
12
12
12
12
12
12
12
12
12
12
12
12
12
12
12
12
12
12
12
12
12
12
12
12
12
12
12
12
12
12
12
12
12
12
12
12
12
12
12
12
12
12
12
12
12
12
12
12
12
12
12
12
12
12
12
12
12
12
12
12
12
12
12
12
12
12
12
12
12
12
12
12
12
12
12
12
12
12
12
12
12
12
12
12
12
12
12
12
12
12
12
12
12
12
12
12
12
12
12
12
12
12
12
12
12
12
12
12
12
12
12
12
12
12
12
12
12
12
12
12
12
12
12
12
12
12
12
12
12
12
12
12
12
12
12
12
12
12
12
12
12
12
12
12
12
12
12
12
12
12
12
12
12
12
12
12
12
12
12
12
12
12
12
12
12
12
12
12
12
12
12
12
12
12
12
12
12
12
12
12
12
12
12
12
12
12
12
12
12
12
12
12
12
12
12
12
12
12
12
12
12
12
12
12
12
12
12
12
12
12
12
12
12
12
12
12
12
12
12
12
12
12
12
12
12
12
12
12
12
12
12
12
12
12
12
12
12
12
12
12
12
12
12
12
12
12
12
12
12
12
12
12
12
12
12
12
12
12
12
12
12
12
12
12
12
12
12
12
12
12
12
12
12
12
12
12
12
12
12
12
12
12
12
12
12
12
12
12
12
12
12
12
12
12
12
12
12
12
12
12
12
12
12
12
12
12
12
12
12
12
12
12
12
12
12
12
12
12
12
12
12
12
12
12
12
12
12
12
12
12
12
12
12
12
12
12
12
12
12
12
12
12
12
12
12
12
12
12
12
12
12
12
12
12
12
12
12
12
12
12
12
12
12
12
12
12
12
12
12
12
12
12
12
12
12
12
12
12
12
12
12
12
12
12
12
12
12
12
12
12
12
12
12
12
12
12
12
12
12
12
12
12
12
12
12
12
12
12
12
12
12
12
12
12
12
12
12
12
12
12
12
12
12
12
12
12
12
12
12
12
12
12
12
12
12
12
12
12
12
12
12
12
12
12
12
12
12
12
12
12
12
12
12
12
12
12
12
12
12
12
12
12
12
12
12
12
12
12
12
12
12
12
12
12
12
12
12
12
12
12
12
12
12
12
12
12
12
12
12
12
12
12
12
12
12
12
12
12
12
12
12
12
12
12
12
12
12
12
12
12
12
12
12
12
12
12
12
12
12
12
12
12
12
12
12
12
12
12
12
12
12
12
12
12
12
12
12
12
12
12
12
12
12
12
12
12
12
12
12
12
12
12
12
12
12
12
12
12
12
12
12
12
12
12
12
12
12
12
12
12
12
12
12
12
12
12
12
12
12
12
12
12
12
12
12
12
12
12
12
12
12
12
12
12
12
12
12
12
12
12
12
12
12
12
12
12
12
12
12
12
12
12
12
12
12
12
12
12
12
12
12
12
12
12
12
12
12
12
12
12
12
12
12
12
12
12
12
12
12
12
12
12
12
12
12
12
12
12
12
12
12
12
12
12
12
12
12
12
12
12
12
12
12
12
12
12
12
12
12
12
12
12
12
12
12
12
12
12
12
12
12
12
12
12
12
12
12
12
12
12
12
12
12
12
12
12
12
12
12
12
12
12
12
12
12
12
12
12
12
12
12
12
12
12
12
12
12
12
12
12
12
12
12
12
12
12
12
12
12
12
12
12
12
12
12
12
12
12
12
12
12
12
12
12
12
12
12
12
12
12
12
12
12
12
12
12
12
12
12
12
12
12
12
12
12
12
12
12
12
12
12
12
12
12
12
12
12
12
12
12
12
12
12
12
12
12
12
12
12
12
12
12
12
12
12
12
12
12
12
12
12
12
12
12
12
12
12
12
12
12
12
12
12
12
12
12
12
12
12
12
12
12
12
12
12
12
12
12
12
12
12
12
12
12
12
12
12
12
12
12
12
12
12
12
12
12
12
12
12
12
12
12
12
12
12
12
12
12
12
12
12
12
12
12
12
12
12
12
12
12
12
12
12
12
12
12
12
12
12
12
12
12
12
12
12
12
12
12
12
12
12
12
12
12
12
12
12
12
12
12
12
12
12
12
12
12
12
12
12
12
12
12
12
12
12
12
12
12
12
12
12
12
12
12
12
12
12
12
12
12
12
12
12
12
12
12
12
12
12
12
12
12
12
12
12
12
12
12
12
12
12
12
12
12
12
12
12
12
12
12
12
12
12
12
12
12
12
12
12
12
12
12
12
12
12
12
12
12
12
12
12
12
12
12
12
12
12
12
12
12
12
12
12
12
12
12
12
12
12
12
12
12
12
12
12
12
12
12
12
12
12
12
12
12
12
12
12
12
12
12
12
12
12
12
12
12
12
12
12
12
12
12
12
12
12
12
12
12
12
12
12
12
12
12
12
12
12
12
12
12
12
12
12
12
12
12
12
12
12
12
12
12
12
12
12
12
12
12
12
12
12
12
12
12
12
12
12
12
12
12
12
12
12
12
12
12
12
12
12
12
12
12
12
12
12
12
12
12
12
12
12
12
12
12
12
12
12
12
12
12
12
12
12
12
12
12
12
12
12
12
12
12
12
12
12
12
12
12
12
12
12
12
12
12
12
12
12
12
12
12
12
12
12
12
12
12
12
12
12
12
12
12
12
12
12
12
12
12
12
12
12
12
12
12
12
12
12
12
12
12
12
12
12
12
12
12
12
12
12
12
12
12
12
12
12
12
12
12
12
12
12
12
12
12
12
12
12
12
12
12
12
12
12
12
12
12
12
12
12
12
12
12
12
12
12
12
12
12
12
12
12
12
12
12
12
12
12
12
12
12
12
12
12
12
12
12
12
12
12
12
12
12
12
12
12
12
12
12
12
12
12
12
12
12
12
12
12
12
12
12
12
12
12
12
12
12
12
12
12
12
12
12
12
12
12
12
12
12
12
12
12
12
12
12
12
12
12
12
12
12
12
12
12
12
12
12
12
12
12
12
12
12
12
12
12
12
12
12
12
12
12
12
12
12
12
12
12
12
12
12
12
12
12
12
12
12
12
12
12
12
12
12
12
12
12
12
12
12
12
12
12
12
12
12
12
12
12
12
12
12
12
12
12
12
12
12
12
12
12
12
12
12
12
12
12
12
12
12
12
12
12
12
12
12
12
12
12
12
12
12
12
12
12
12
12
12
12
12
12
12
12
12
12
12
12
12
12
12
12
12
12
12
12
12
12
12
12
12
12
12
12
12
12
12
12
12
12
12
12
12
12
12
12
12
12
12
12
12
12
12
12
12
12
12
12
12
12
12
12
12
12
12
12
12
12
12
12
12
12
12
12
12
12
12
12
12
12
12
12
12
12
12
12
12
12
12
12
12
12
12
12
12
12
12
12
12
12
12
12
12
12
12
12
12
12
12
12
12
12
12
12
12
12
12
12
12
12
12
12
12
12
12
12
12
12
12
12
12
12
12
12
12
12
12
12
12
12
12
12
12
12
12
12
12
12
12
12
12
12
12
12
12
12
12
12
12
12
12
12
12
12
12
12
12
12
12
12
12
12
12
12
12
12
12
12
12
12
12
12
12
12
12
12
12
12
12
12
12
12
12
12
12
12
12
12
12
12
12
12
12
12
12
12
12
12
12
12
12
12
12
12
12
12
12
12
12
12
12
12
12
12
12
12
12
12
12
12
12
12
12
12
12
12
12
12
12
12
12
12
12
12
12
12
12
12
12

POINT_DATA 3012
SCALARS Jp_lamdaP float 4
LOOKUP_TABLE default
0.999664 1 1 0.999664
1 1 1 1
0.999674 1 1 0.999674
0.999609 1 1 0.999609
0.999666 1 1 0.999666
0.999645 1 1 0.999645
0.999129 1.0003 1 0.998827
1 1 1 1
1 1 1 1
1 1 1 1
0.999739 1 1 0.999739
0.998934 1 1 0.998934
0.999607 1 1 0.999607
0.999614 1 1 0.999614
0.999676 1 1 0.999676
0.999636 1 1 0.999636
0.999652 1 1 0.999652
0.999683 1 1 0.999683
0.999234 1.00041 1 0.998828
1 1 1 1
0.999591 1 1 0.999591
0.999643 1 1 0.999643
0.998703 1 1 0.998703
0.999079 1.00027 1 0.998805
0.99965 1 1 0.99965
0.998849 1.00001 1 0.998841
1.01375 1.01624 1 0.997551
1 1 1 1
0.999824 1 1 0.999824
0.999837 1 1 0.999837
1 1 1 1
0.998943 1 1 0.998943
0.99964 1 1 0.99964
0.999667 1 1 0.999667
0.999644 1.00067 1 0.998976
1 1 1 1
0.99911 1.00005 1 0.999059
0.999035 1 1 0.999035
1.00665 1.00914 1 0.997532
1 1 1 1
1 1 1 1
0.999807 1 1 0.999807
1 1 1 1
0.99962 1 1 0.99962
0.998634 1 1 0.998634
1 1 1 1
0.998879 1 1 0.998879
0.99966 1 1 0.99966
0.999695 1 1 0.999695
0.999653 1 1 0.999653
0.999308 1.00048 1 0.998833
0.999791 1 1 0.999791
0.999616 1 1 0.999616
0.999664 1 1 0.999664
0.999667 1 1 0.999667
0.9987 1 1 0.9987
0.998979 1.00014 1 0.998844
0.999068 1.00026 1 0.998806
1.014 1.0165 1 0.997537
1 1 1 1
0.999592 1 1 0.999592
0.998908 1 1 0.998908
0.998674 1 1 0.998674
0.998792 1.00004 1 0.998757
1.01691 1.01968 1 0.997288
1.01504 1.01768 1 0.9974
0.999715 1 1 0.999715
0.998943 1 1 0.998943
1.01098 1.01337 1 0.997641
1.03352 1.03698 1 0.996663
1 1 1 1
1 1 1 1
1 1 1 1
0.998952 1 1 0.998952
1 1 1 1
1 1 1 1
0.999375 1.00058 1 0.998796
0.999903 1 1 0.999903
0.998966 1.00007 1 0.998899
0.999185 1 1.00003 0.999152
1.00534 1.00783 1 0.997528
1 1 1 1
1.0012 1 1.00144 0.999756
0.999217 1.0005 1 0.998718
0.999252 1.00042 1 0.998829
1.01816 1.02112 1 0.997107
0.999753 1 1.00035 0.999408
1.01143 1.01404 1 0.997431
1.00225 1.00458 1 0.997682
1.01515 1.0184 1 0.996808
1 1 1 1
1 1 1 1
1 1 1 1
1 1 1 1
1 1 1 1
0.999808 1 1 0.999808
0.998763 1 1 0.998763
0.999809 1 1 0.999809
0.998814 1.00003 1 0.998784
1 1 1 1
0.998648 1 1 0.998648
0.998873 1 1 0.998873
1.01622 1.01935 1 0.996926
0.999036 1.00012 1 0.998913
1.01957 1.02268 1 0.996957
0.999629 1 1 0.999629
0.999638 1 1 0.999638
0.999674 1 1 0.999674
0.999687 1 1 0.999687
0.998698 1 1 0.998698
0.999086 1.00028 1 0.998809
0.999055 1.00021 1 0.99885
1.0142 1.01672 1 0.997523
1 1 1 1
0.999616 1 1 0.999616
0.998677 1 1 0.998677
0.998668 1 1 0.998668
0.999858 1 1 0.999858
0.99902 1 1 0.99902
0.998787 1.00003 1 0.998756
1.01691 1.01971 1 0.997251
1.01152 1.01392 1 0.997624
1.01535 1.01797 1 0.997427
1.0334 1.03685 1 0.99667
0.998671 1 1 0.998671
0.998671 1 1 0.998671
1.01521 1.01809 1 0.997171
1.01696 1.01981 1 0.997199
1.01659 1.01934 1 0.9973
1.04269 1.04624 1 0.996605
1 1 1 1
1.03667 1.04016 1 0.996641
0.999409 1 1.00026 0.999148
1.00628 1.00868 1 0.997619
1.03005 1.03347 1 0.996684
1.03955 1.04315 1 0.996546
1.00138 1 1.0019 0.999482
1.00651 1 1.00814 0.998391
1 1 1 1
1 1 1 1
0.99929 1.00049 1 0.998802
1 1 1 1
0.999273 1 1.00017 0.999105
0.998954 1.00005 1 0.998906
1.00419 1.00669 1 0.997525
1 1 1 1
1.0009 1 1.00112 0.99978
0.9994 1.00057 1 0.998832
0.999208 1.00027 1 0.998935
1.01761 1.02056 1 0.997108
1.00004 1 1.00069 0.99935
1.0101 1.0127 1 0.997434
1.00137 1.00367 1.00002 0.997681
1.01644 1.01971 1 0.996796
1.0012 1 1.00164 0.999558
1.00013 1 1.00025 0.999886
1.00367 1 1.00499 0.998685
1.02003 1.02309 1 0.997006
1.01526 1.01804 1 0.997268
1.04005 1.04369 1 0.99651
1.00024 1.00167 1.00061 0.997965
1.02545 1.02879 1 0.996758
1.0105 1.01307 1.00057 0.996897
1.02514 1.02859 1 0.996644
1 1 1 1
1 1 1 1
1 1 1 1
1.00094 1 1.00131 0.999627
1 1 1 1
1 1 1 1
1 1 1 1
0.998824 1.00014 1 0.998689
0.998667 1 1 0.998667
1 1 1 1
1 1 1 1
0.998649 1 1 0.998649
0.998778 1 1 0.998778
1.01685 1.01998 1 0.996927
0.998994 1.00029 1 0.998705
1.01977 1.02288 1 0.996957
0.998646 1 1 0.998646
1.01479 1.01795 1 0.996895
1.01814 1.02126 1 0.996954
1.04808 1.05171 1 0.996545
1.02029 1.0234 1 0.996964
1.04941 1.05305 1 0.996543
1 1 1 1
0.999639 1 1 0.999639
0.998421 1 1 0.998421
0.998663 1 1 0.998663
1 1 1 1
0.999102 1 1 0.9991
0.998788 1.00003 1 0.998758
1.01688 1.01972 1 0.997215
1.01571 1.0183 1 0.997454
1.01211 1.01454 1 0.997607
1.03334 1.03678 1 0.996678
0.998668 1 1 0.998668
0.998665 1 1 0.998665
1.01512 1.01813 1 0.997044
1.01703 1.01987 1 0.99722
1 1 1 1
0.99931 1 1.00012 0.999194
1.00768 1.01001 1 0.997698
1.01659 1.01935 1 0.997295
1.0425 1.04607 1 0.996591
1.02954 1.03297 1 0.996677
1.03693 1.04039 1 0.996676
1.03912 1.04271 1 0.996555
1.00123 1 1.00176 0.99947
1.00502 1 1.00664 0.998393
1.01456 1.0177 1 0.996915
1.01574 1.0186 1 0.997192
1.04516 1.04872 1 0.996607
1.04318 1.04677 1 0.996572
1.04013 1.0436 1 0.996678
1.04974 1.0534 0.999833 0.996693
1.00048 1 1.00117 0.999316
1.04205 1.04557 1 0.996631
1.00164 1.00374 1.00011 0.997807
1.02284 1.02616 1 0.99676
1.03702 1.04068 1 0.996483
1.03973 1.04313 1 0.996742
1.00307 1.00021 1.00471 0.998159
1.00448 1 1.00581 0.998681
1.00326 1.00011 1.00546 0.997708
0.999348 1.0006 1 0.998747
1 1 1 1
1.00024 1 1.00044 0.999803
0.999075 1.00021 1 0.998863
1.01703 1.01998 1 0.997108
1.00022 1 1.00087 0.999353
1.00012 1.00241 1.00004 0.997679
1.00884 1.01143 1 0.997436
1.01771 1.02099 1 0.996785
1.00109 1 1.00151 0.99958
0.999903 1 1 0.999903
1.00434 1 1.00566 0.998686
1.01949 1.02256 1 0.997004
1.01448 1.01726 1 0.997272
1.04014 1.04379 1 0.996505
0.999437 1.00098 1.00049 0.997969
1.02668 1.03001 1 0.996763
1.00995 1.01262 1.00047 0.996891
1.02589 1.02935 1 0.996639
0.999948 1 1 0.999948
1.00163 1.0003 1.00304 0.998297
1.00255 1 1.00347 0.999084
1.00427 1.00021 1.00607 0.998002
1.04445 1.04814 1 0.996479
1.03418 1.03767 1 0.996629
1.04399 1.04771 1 0.996454
1.00482 1.00712 1.00049 0.997229
1.03178 1.03523 1 0.996664
1.02105 1.02294 1.00158 0.996576
1.03347 1.03704 1 0.996558
0.999668 1 1 0.999668
0.99999 1 1 0.99999
1 1 1 1
1 1 1 1
1 1 1 1
1.0001 1 1.00034 0.999761
1 1 1 1
1.00133 1 1.00172 0.999612
1 1 1 1
0.999069 1.00036 1 0.998706
0.998682 1 1 0.998682
1.02 1.02312 1 0.996956
1.01745 1.02059 1 0.996927
0.998651 1 1 0.998651
1 1 1 1
0.998645 1 1 0.998645
1.01515 1.01831 1 0.996895
1.01865 1.02177 1 0.996953
1.04722 1.05086 1 0.996543
1.02014 1.02324 1 0.996961
1.04948 1.05312 1 0.99654
1.01431 1.01747 1 0.996892
1.0464 1.05006 1 0.996517
1.04898 1.0526 1 0.996556
1.05276 1.05829 0.997942 0.996831
1.04868 1.05236 1 0.996507
1.05531 1.05933 0.999473 0.996733
0.998666 1 1 0.998666
0.998659 1 1 0.998659
1.01504 1.01818 1 0.996917
1.01713 1.01995 1 0.997242
1 1 1 1
0.999241 1 1 0.999241
1.00907 1.01132 1 0.997776
1.01658 1.01934 1 0.99729
1.04235 1.04593 1 0.996577
1.03712 1.04054 1 0.996711
1.02905 1.03249 1 0.996671
1.03884 1.04242 1 0.996564
1.00128 1 1.00183 0.999458
1.00421 1 1.00583 0.998395
1.01445 1.0176 1 0.996897
1.0158 1.01867 1 0.997187
1.045 1.04859 0.999947 0.996629
1.04324 1.04681 1 0.996581
1.00018 1 1.00087 0.999305
1.00301 1.00513 1.00008 0.997805
1.02224 1.02553 1 0.996792
1.04041 1.04389 1 0.996662
1.04985 1.05352 0.99978 0.996735
1.03669 1.04037 1 0.996463
1.04185 1.04537 1 0.996636
1.03995 1.04335 1 0.996739
1.00281 1.00031 1.00435 0.998161
1.00399 1.00036 1.00594 0.99771
1.00484 1 1.00617 0.99868
1.0447 1.04828 1 0.996576
1.04462 1.04817 0.999962 0.996643
1.05263 1.05759 0.998538 0.996769
1.05086 1.05488 0.999456 0.99673
1.04505 1.04856 0.999938 0.996715
1.04531 1.05171 0.996877 0.997024
0.999494 1.0009 1.0006 0.997996
1.04189 1.04534 0.999822 0.996875
1.01066 1.01364 1 0.997066
1.0284 1.03215 1 0.996361
1.03609 1.03979 1 0.996444
1.03448 1.03761 0.999986 0.996994
1.00244 1 1.00348 0.998957
0.999416 1.00115 1.00067 0.9976
1.00846 1 1.01062 0.997869
1.0025 1.0024 1.00266 0.997453
1.01905 1.02212 1 0.997002
0.99992 1 1 0.99992
1.00116 1 1.00156 0.999602
1.00582 1 1.00714 0.998687
1.01354 1.01631 1 0.997275
1.04027 1.04392 1 0.9965
0.998745 1.00037 1.00041 0.997974
1.00949 1.01231 1.00033 0.996885
1.02787 1.0312 1 0.996767
1.02586 1.02932 1 0.996634
0.999958 1 1 0.999958
1.00245 1.00015 1.00401 0.998298
1.00225 1 1.00316 0.999093
1.00482 1.00014 1.00669 0.997996
1.04439 1.04808 1 0.996474
1.03436 1.03786 1 0.996627
1.04355 1.04727 1 0.996451
1.00329 1.00562 1.00045 0.997236
1.03145 1.0349 1 0.996664
1.02036 1.02211 1.00173 0.996564
1.0332 1.03668 1 0.996639
0.999978 1 1 0.999978
1.00036 1 1.00099 0.999372
1.00185 1.0023 1.00191 0.997652
1.00568 1 1.00733 0.998363
1.00157 1.00066 1.00322 0.997698
1.04879 1.05246 1 0.996509
1.03771 1.04133 1 0.996528
1.03915 1.04272 1 0.996579
1.00838 1.00956 1.00199 0.996845
1.03026 1.03371 1 0.996662
1.01904 1.02191 1.00086 0.996342
0.999623 1 1 0.999623
0.999105 1 1 0.999105
0.999703 1 1 0.999703
0.99967 1 1 0.99967
0.999995 1 1 0.999995
0.999991 1 1 0.999991
1 1 1 1
1 1 1 1
1 1 1 1
0.999883 1 1 0.999883
1 1 1 1
1.00054 1 1.0008 0.999744
1 1 1 1
1.00133 1 1.00173 0.999598
1 1 1 1
1.02003 1.02314 1 0.996958
1.0191 1.02222 1 0.996953
1.04926 1.0529 1 0.996537
1.04636 1.04999 1 0.996541
1.01557 1.01874 1 0.996895
0.998645 1 1 0.998645
1.01441 1.01757 1 0.996892
1.04606 1.04971 1 0.996517
1.0484 1.05203 1 0.996554
1.05307 1.05889 0.997649 0.996849
1.04797 1.05165 1 0.996503
1.05509 1.05902 0.999554 0.99673
1.04498 1.04864 1 0.996509
1.05233 1.05859 0.997221 0.996853
1.05435 1.05922 0.998601 0.996801
1.04908 1.0576 0.994864 0.997066
1.05207 1.05563 1 0.996627
1.05055 1.0587 0.995213 0.997077
1.01437 1.01755 1 0.99688
1.01587 1.01874 1 0.997182
1.04486 1.04848 0.999891 0.996651
1.04327 1.04684 1 0.996591
0.999868 1 1.00057 0.999294
1.00433 1.00649 1.00005 0.997803
1.02207 1.02533 1 0.996824
1.04069 1.04419 1 0.996645
1.04996 1.05367 0.999704 0.996777
1.04171 1.04522 1 0.996641
1.03623 1.03993 1 0.996444
1.04016 1.04356 1 0.996736
1.00225 1.00044 1.00365 0.998163
1.0046 1.00061 1.00629 0.997712
1.00499 1 1.00632 0.998678
1.04477 1.04838 1 0.996552
1.04477 1.04832 0.999971 0.99664
1.05219 1.05735 0.998309 0.996812
1.05078 1.05489 0.999387 0.996714
1.00041 1.00166 1.00075 0.997994
1.01166 1.01464 1 0.997062
1.02711 1.03078 1.00003 0.996403
1.04515 1.04867 0.999958 0.996683
1.04501 1.05177 0.996495 0.997073
1.03673 1.04047 1 0.996406
1.04198 1.04542 0.999825 0.996878
1.03532 1.03842 0.999989 0.997029
1.00086 1.0021 1.00117 0.997601
1.00266 1.00248 1.00277 0.99742
1.00292 1 1.00397 0.998953
1.00782 1 1.00994 0.997909
1.05219 1.05752 0.998152 0.996803
1.05313 1.05782 0.998797 0.996763
1.04483 1.05334 0.994927 0.996981
1.04447 1.05406 0.993784 0.997099
1.0434 1.04774 0.998844 0.997008
1.04183 1.05074 0.994254 0.997256
1.00245 1.00509 1 0.997379
1.03622 1.04107 0.998101 0.997237
1.01554 1.01898 1 0.996624
1.02621 1.02998 1.00018 0.996164
1.03761 1.04133 1 0.996427
1.03615 1.0392 1 0.997063
1.0001 1 1.00092 0.999185
1.00815 1 1.01001 0.998158
1.0014 1.0041 1 0.997315
1.00433 1.00031 1.00645 0.997592
1.00324 1.00376 1.00217 0.997325
0.999968 1 1 0.999968
1.04422 1.04792 1 0.996468
1.00131 1 1.00221 0.999102
1.00314 1.00011 1.00474 0.998299
1.00505 1.00005 1.00703 0.997989
1.03461 1.03811 1 0.996625
1.04315 1.04687 1 0.996448
1.00201 1.00428 1.00051 0.997243
1.02105 1.02261 1.00193 0.996552
1.03127 1.03472 1 0.996664
1.03356 1.03696 1 0.996719
0.999982 1 1 0.999982
0.999976 1 1.00059 0.999381
1.00061 1.00162 1.00134 0.997655
1.00668 1 1.00833 0.998362
1.00175 1.00044 1.00363 0.997682
1.04866 1.05234 1 0.996503
1.03761 1.04123 1 0.996526
1.0392 1.04278 1 0.996568
1.00864 1.00968 1.00213 0.996848
1.03271 1.03617 1 0.996656
1.01938 1.02212 1.00096 0.996365
0.999538 1 1 0.999538
1.002 1 1.00328 0.998722
1.001 1.00322 1.00048 0.99731
1.00735 1.00053 1.00884 0.997991
1.00197 1.00231 1.00203 0.99764
1.04534 1.04879 1 0.996707
1.03355 1.03709 1 0.996589
1.03864 1.04198 1 0.996789
1.00344 1.00299 1.00379 0.996667
1.01771 1.02149 1 0.9963
0.999626 1 1 0.999626
0.999025 1 1 0.999025
0.999079 1 1 0.999079
0.998826 1 1 0.998826
0.999127 1 1 0.999127
0.999723 1 1 0.999723
0.999705 1 1 0.999705
0.999998 1 1 0.999998
0.999672 1 1 0.999672
0.999996 1 1 0.999996
1 1 1 1
0.999993 1 1 0.999993
1 1 1 1
1 1 1 1
0.999963 1 1 0.999963
1.00006 1 1.00019 0.999863
1 1 1 1
1 1 1 1
1.00097 1 1.00124 0.999728
1 1 1 1
1.04739 1.05107 1 0.996498
1.04806 1.05168 1 0.996552
1.05512 1.05897 0.999636 0.996728
1.05345 1.05955 0.997366 0.996866
1.04562 1.04927 1 0.996518
1.01444 1.0176 1 0.996891
1.045 1.04866 1 0.99651
1.05221 1.05841 0.997282 0.996848
1.05471 1.0595 0.998672 0.996801
1.04829 1.05734 0.994321 0.997097
1.05286 1.05643 1 0.99662
1.05061 1.05856 0.995378 0.997099
1.05229 1.05811 0.997671 0.996823
1.047 1.0561 0.994322 0.997041
1.04923 1.05868 0.993918 0.99714
1.04804 1.05978 0.991681 0.99722
1.05043 1.05493 0.998813 0.996919
1.04773 1.0596 0.991471 0.997307
1.04474 1.04838 1 0.996527
1.04491 1.04843 1 0.996638
1.05173 1.05708 0.998081 0.996854
1.05058 1.05478 0.999315 0.996698
1.00134 1.00244 1.00091 0.997991
1.01189 1.01488 1 0.997057
1.02537 1.02885 1.00018 0.996445
1.04523 1.04874 1 0.996652
1.04472 1.05181 0.99613 0.997123
1.04197 1.04541 0.999826 0.996881
1.03727 1.04106 1 0.996368
1.03542 1.03847 1 0.997065
1.00221 1.00282 1.00179 0.997601
1.00266 1.00238 1.0029 0.997388
1.00331 1 1.00437 0.998949
1.0069 1 1.00896 0.997949
1.05205 1.05739 0.998145 0.996802
1.05262 1.05716 0.998962 0.996743
1.04499 1.05357 0.994827 0.997013
1.0452 1.05425 0.994322 0.997081
1.00325 1.0059 1 0.997371
1.01401 1.01737 1.00003 0.996667
1.0263 1.02987 1.00039 0.996154
1.04349 1.04756 0.999157 0.996959
1.04071 1.04999 0.993833 0.997313
1.034 1.03773 1 0.996412
1.0371 1.04185 0.998195 0.997238
1.03687 1.03986 1 0.997123
1.00125 1.00394 1 0.997314
1.00292 1.00405 1.00156 0.997321
1.00532 1.00058 1.00717 0.997586
1.00058 1 1.00143 0.999149
1.00774 1 1.00956 0.998197
1.04557 1.05504 0.993973 0.997028
1.04575 1.05559 0.993598 0.997057
1.04143 1.05458 0.990206 0.997299
1.03739 1.04676 0.993713 0.99732
1.00573 1.00871 1 0.997045
1.04112 1.04607 0.997842 0.997414
1.00849 1.01187 1.00029 0.996373
1.02252 1.02614 1.00051 0.995962
1.0308 1.03451 1 0.996412
0.999433 1 1.00007 0.99936
1.00444 1 1.00593 0.99852
1.00608 1 1.00819 0.997906
1.00257 1.00539 1 0.997198
1.00397 1.00028 1.0064 0.997304
1.00395 1.00505 1.00174 0.997172
0.999986 1 1 0.999986
0.999624 1 1.00023 0.999391
1.04853 1.05222 1 0.996498
1.00793 1 1.00958 0.998361
0.999119 1.00072 1.00074 0.997658
1.0019 1.00034 1.0039 0.997666
1.03734 1.04096 1 0.996524
1.03917 1.04276 1 0.996556
1.00811 1.00899 1.00229 0.996852
1.01858 1.02148 1.00077 0.996387
1.03511 1.03859 1 0.99665
0.999544 1 1 0.999544
1.00197 1 1.00325 0.998726
1.00117 1.00346 1.00041 0.997307
1.00851 1.00032 1.01022 0.997984
1.00195 1.00258 1.00174 0.997641
1.04524 1.0487 1 0.9967
1.03412 1.03767 1 0.996577
1.03865 1.04197 1 0.996815
1.00438 1.00452 1.00324 0.996629
1.01651 1.02026 1.00006 0.996271
0.999212 1 1.00025 0.99896
1.00826 1 1.00999 0.998287
1.00246 1.00329 1.002 0.997175
1.00739 1.00258 1.00705 0.997762
1.00748 1.00899 1.001 0.997512
1.04334 1.04883 0.997564 0.997195
1.03364 1.03729 1 0.996484
1.03601 1.03932 1 0.996807
1.00664 1.00581 1.00433 0.996508
1.00737 1.01133 1 0.996081
0.999629 1 1 0.999629
0.999043 1 1 0.999043
0.99875 1 1 0.99875
0.999054 1 1 0.999054
0.999125 1 1 0.999125
0.998797 1 1 0.998797
0.998705 1 1 0.998705
0.998875 1 1.00014 0.998738
0.999145 1 1 0.999145
0.999716 1 1 0.999716
0.999723 1 1 0.999723
1 1 1 1
0.999707 1 1 0.999707
0.999999 1 1 0.999999
1 1 1 1
0.999997 1 1 0.999997
1 1 1 1
1 1 1 1
0.999994 1 1 0.999994
0.999947 1 1 0.999947
1 1 1 1
1.00041 1 1.00057 0.999843
1 1 1 1
1 1 1 1
1.05358 1.05716 1 0.996614
1.05482 1.05955 0.998739 0.996801
1.05063 1.05836 0.995565 0.997122
1.04744 1.05705 0.993765 0.997128
1.05212 1.05826 0.997351 0.996842
1.04514 1.0488 1 0.996511
1.05223 1.05793 0.997802 0.996803
1.04756 1.05626 0.994715 0.997034
1.04858 1.05811 0.993848 0.997124
1.04696 1.05934 0.991055 0.997232
1.05002 1.05429 0.999027 0.99692
1.04576 1.05839 0.9907 0.997347
1.04765 1.05603 0.99503 0.997016
1.04822 1.06091 0.990805 0.997217
1.04822 1.06159 0.990061 0.997319
1.04302 1.05555 0.990725 0.997373
1.05197 1.05732 0.998139 0.996802
1.0522 1.0566 0.99911 0.996722
1.04518 1.05381 0.994748 0.997046
1.04602 1.05454 0.994842 0.997063
1.00461 1.00726 1 0.997363
1.01326 1.0166 1 0.996709
1.02643 1.02981 1.00058 0.996143
1.0436 1.04741 0.99945 0.996909
1.0395 1.04919 0.993378 0.99737
1.03829 1.04298 0.998265 0.997239
1.03134 1.03506 1 0.996397
1.03923 1.04216 1 0.997182
1.00132 1.00401 1 0.997313
1.00327 1.00528 1.00069 0.997318
1.00668 1.00078 1.00834 0.997579
1.00096 1 1.00185 0.999113
1.00749 1 1.00927 0.998237
1.04595 1.05539 0.994017 0.99703
1.0463 1.05617 0.993586 0.997052
1.04127 1.05381 0.990794 0.99729
1.00569 1.00868 1 0.99704
1.00909 1.01246 1.00026 0.996416
1.02112 1.02449 1.00076 0.995951
1.03788 1.04691 0.994056 0.997306
1.03393 1.03754 1 0.996521
1.0376 1.04278 0.997639 0.997382
0.999449 1 1.00005 0.999395
1.003 1.00583 1 0.997189
1.00221 1.00409 1.00083 0.997298
1.00622 1.00151 1.00743 0.997295
1.00635 1 1.00844 0.99793
1.00447 1 1.006 0.998485
1.04661 1.05895 0.991217 0.997106
1.04487 1.06126 0.987291 0.997225
1.03509 1.05224 0.986287 0.997381
1.03564 1.04946 0.989285 0.997522
1.00589 1.00907 1 0.996847
1.03303 1.03663 0.999547 0.996983
1.00425 1.00667 1.00165 0.995964
1.01218 1.0154 1.00104 0.995799
0.999633 1 1 0.999633
1.00052 1 1.00171 0.99882
1.00479 1 1.00662 0.998181
1.00634 1 1.00888 0.997481
1.0031 1.00475 1.00135 0.997018
1.00778 1.00242 1.00838 0.996997
0.999549 1 1 0.999549
1.0019 1 1.00317 0.998731
1.04536 1.04882 1 0.996694
1.00957 1.00008 1.01154 0.997978
1.00138 1.00382 1.00027 0.997304
1.00141 1.00225 1.00152 0.997642
1.03488 1.03845 1 0.996565
1.03888 1.04217 1 0.996841
1.00579 1.00648 1.00273 0.996591
1.01536 1.01892 1.00027 0.996242
0.999092 1 1.00013 0.998963
1.00846 1 1.0102 0.998277
1.0031 1.00394 1.00198 0.997184
1.00636 1.00203 1.00656 0.997769
1.00788 1.00984 1.00048 0.997587
1.04453 1.05015 0.9974 0.997241
1.03322 1.03684 1 0.996506
1.03743 1.04067 1 0.996881
1.00665 1.0056 1.00458 0.996474
1.00764 1.01165 1.00003 0.99601
0.999919 1 1.00129 0.998634
1.0083 1 1.01042 0.997901
1.00815 1.0073 1.00378 0.997067
1.00666 1.00767 1.00161 0.997394
1.04116 1.06415 0.98086 0.997496
1.03799 1.04227 0.998619 0.997272
1.02115 1.02506 1 0.99619
1.01008 1.00974 1.00426 0.996091
0.999062 1 1 0.999062
0.998763 1 1 0.998763
0.998703 1 1 0.998703
0.999124 1 1 0.999124
0.998768 1 1 0.998768
0.999144 1 1 0.999144
0.998709 1 1 0.998709
0.998868 1 1.00012 0.99875
0.998741 1 1 0.998741
0.998978 1 1.00039 0.998583
0.998795 1 1.0001 0.9987
0.999125 1 1 0.999125
0.999688 1 1 0.999688
0.999715 1 1 0.999715
1 1 1 1
0.999723 1 1 0.999723
1 1 1 1
1 1 1 1
0.999999 1 1 0.999999
1 1 1 1
1 1 1 1
1 1 1 1
0.999988 1 1 0.999988
1 1 1 1
0.99993 1 1 0.99993
1 1 1 1
1 1 1 1
1.04952 1.05356 0.999247 0.996922
1.04801 1.05765 0.993756 0.997109
1.04389 1.05727 0.989927 0.997387
1.04593 1.05897 0.990419 0.997243
1.04813 1.05643 0.995105 0.997027
1.05208 1.05768 0.997918 0.996784
1.04741 1.05591 0.99492 0.997016
1.04811 1.06058 0.991007 0.997208
1.04695 1.06077 0.989629 0.997318
1.04427 1.05647 0.991052 0.997383
1.04932 1.06094 0.99186 0.997161
1.04994 1.06745 0.98619 0.99737
1.04848 1.06684 0.985313 0.997439
1.04632 1.05573 0.994043 0.997032
1.04678 1.05667 0.993576 0.997047
1.04124 1.05304 0.991489 0.997281
1.00529 1.00828 1 0.997036
1.00909 1.0125 1.00018 0.996457
1.01935 1.02264 1.00085 0.995939
1.03843 1.04709 0.994419 0.997292
1.03348 1.03894 0.997383 0.997349
1.03554 1.03904 1 0.996629
1.00203 1.00465 1.00021 0.997179
0.998595 1.00117 1 0.997424
1.00752 1.00208 1.00817 0.997286
0.999484 1 1.00005 0.99943
1.00578 1 1.00784 0.997954
1.00464 1 1.0062 0.998449
1.04739 1.05948 0.991447 0.997114
1.04426 1.06099 0.986964 0.997231
1.0353 1.05186 0.986855 0.997374
1.00332 1.0065 1 0.996839
1.00432 1.00691 1.0014 0.996042
1.01239 1.01567 1.0009 0.995877
1.03586 1.04918 0.989754 0.997526
1.03022 1.03448 0.998912 0.996963
0.999695 1 1 0.999695
1.00059 1 1.00177 0.998818
1.0004 1.00307 1.00028 0.997066
1.00948 1.0018 1.01055 0.997146
1.00578 1.00002 1.00825 0.997526
1.00473 1 1.0066 0.998146
1.04748 1.06497 0.986247 0.997291
1.03656 1.06181 0.978825 0.997336
1.03216 1.05202 0.983516 0.997569
1.0261 1.03768 0.991289 0.997532
1.00241 1.00457 1.00131 0.996533
1.01246 1.01498 1.0014 0.996126
1.00481 1.00644 1.00264 0.995753
0.999846 1 1 0.999846
0.999353 1 1 0.999353
0.999089 1 1.00001 0.99908
1.00127 1 1.00292 0.998356
1.00613 1 1.00834 0.99781
1.00862 1 1.01135 0.997304
0.999293 1.00192 1.00024 0.997144
1.03198 1.00092 1.03374 0.997388
0.999034 1 1.00007 0.998966
1.009 1 1.01076 0.998267
1.04573 1.05145 0.997269 0.997288
1.00628 1.00221 1.00629 0.997776
1.00392 1.00458 1.00215 0.997193
1.00815 1.01047 1.00004 0.997662
1.03249 1.03609 1 0.996528
1.03871 1.04188 1 0.996954
1.00663 1.00538 1.00482 0.99644
1.00774 1.01185 1 0.99594
1.00039 1 1.00179 0.9986
1.00767 1 1.00977 0.997912
1.00999 1.00875 1.00415 0.997095
1.00595 1.00711 1.00142 0.99743
1.04335 1.0663 0.980911 0.997515
1.03887 1.04281 0.999 0.997221
1.02127 1.02513 1 0.996238
1.01131 1.01152 1.00377 0.996039
1.00159 1 1.0032 0.998389
1.04426 1.07047 0.977944 0.997521
1.00206 1 1.00452 0.997557
1.00916 1.00966 1.00268 0.996836
1.03606 1.05302 0.986244 0.997617
1.01859 1.02234 1 0.996331
1.00818 1.00913 1.00323 0.995839
0.998775 1 1 0.998775
0.998692 1 1 0.998692
0.998754 1 1 0.998754
0.999142 1 1 0.999142
0.998845 1 1.00008 0.998761
0.998713 1 1 0.998713
0.999123 1 1 0.999123
0.998955 1 1.00025 0.998705
0.998751 1 1 0.998751
0.998784 1 1.00018 0.998601
0.998815 1 1 0.998815
0.99873 1 1.00009 0.998641
0.999182 1 1.00071 0.998474
0.998646 1 1 0.998646
0.99906 1 1 0.99906
0.999651 1 1 0.999651
0.999685 1 1 0.999685
1 1 1 1
0.999713 1 1 0.999713
1 1 1 1
1 1 1 1
1 1 1 1
1 1 1 1
1 1 1 1
0.999872 1 1 0.999872
1 1 1 1
0.999999 1 1 0.999999
1 1 1 1
0.999981 1 1 0.999981
1 1 1 1
1 1 1 1
1.04547 1.05736 0.991342 0.997393
1.04565 1.05984 0.989265 0.997317
1.04795 1.06021 0.991216 0.997199
1.04719 1.05578 0.994826 0.997015
1.04896 1.06084 0.991599 0.99718
1.04976 1.06687 0.986568 0.997361
1.04645 1.0648 0.985288 0.997447
1.04962 1.06732 0.986037 0.99735
1.05886 1.0781 0.984652 0.997463
1.05028 1.07328 0.9808 0.997725
1.04814 1.05998 0.991688 0.997122
1.04361 1.06073 0.986582 0.997237
1.03538 1.05148 0.98729 0.997366
1.00273 1.00586 1.00006 0.996832
1.00498 1.00762 1.00126 0.996121
1.01474 1.01807 1.00078 0.995956
1.03602 1.04876 0.990304 0.997531
1.02774 1.0325 0.998442 0.996943
1.00082 1.00342 1.0003 0.997114
1.01284 1.00243 1.01312 0.997294
1.00664 1.00032 1.00877 0.997571
0.999756 1 1 0.999756
1.00053 1 1.00172 0.998817
1.00483 1 1.00673 0.998111
1.04736 1.06526 0.985859 0.997302
0.999841 1 1 0.999841
0.99932 1 1 0.99932
1.03711 1.06102 0.980074 0.997338
1.03071 1.05107 0.983048 0.997539
1.00292 1.00454 1.00177 0.99662
1.0051 1.00606 1.00332 0.995744
1.01329 1.01639 1.00084 0.996117
1.02489 1.03715 0.990649 0.997507
0.999239 1 1.00008 0.999161
1.00116 1 1.00281 0.998348
1.00115 1.00181 1.0023 0.997041
1.02756 1.00103 1.02901 0.997552
1.00714 1.00011 1.00972 0.997322
1.00561 1 1.0078 0.997827
1.05644 1.07721 0.983259 0.997419
1.01825 1.05923 0.963748 0.997474
1.02099 1.04386 0.980332 0.997722
1.00679 1.01889 0.990875 0.997225
1.00434 1.00221 1.00545 0.996698
1.00472 1.00352 1.0055 0.995717
0.999289 1 1 0.999289
0.999314 1 1 0.999314
0.99902 1 1 0.99902
0.998596 1 1.00006 0.998533
1.00351 1 1.00542 0.998101
1.00529 1.00016 1.00767 0.997479
1.04575 1 1.04855 0.997331
1.00179 1.00049 1.00365 0.997662
1.00076 1 1.0022 0.998567
1.00661 1 1.00871 0.997923
1.04478 1.06742 0.981202 0.997535
1.03937 1.04304 0.999315 0.99717
1.0052 1.00659 1.00115 0.997467
1.0119 1.01037 1.00441 0.997122
1.02172 1.02549 1.00004 0.996286
1.01273 1.01342 1.00335 0.995986
1.0018 1 1.00343 0.998372
1.04683 1.07369 0.977355 0.997575
1.00274 1 1.00517 0.997583
1.00777 1.00832 1.00269 0.996777
1.03473 1.05205 0.985908 0.997591
1.01786 1.02152 1 0.996411
1.00913 1.00981 1.00348 0.995855
1.00428 1 1.00623 0.998057
1.01494 1.04536 0.972837 0.998002
1.00366 1.00304 1.00334 0.997288
1.00428 1.00415 1.00379 0.996353
1.01715 1.02744 0.99279 0.99717
1.00223 1.00398 1.00221 0.996051
0.980251 1.00372 0.979097 0.997473
0.998681 1 1 0.998681
0.999188 0.999782 1.00065 0.998753
0.999217 1 1.00055 0.998668
0.99912 1 1 0.99912
0.999208 1 1.0005 0.998711
0.998643 1 1.00002 0.998619
0.998762 1 1 0.998762
0.99906 1 1 0.99906
0.998671 1 1.00003 0.998638
0.998781 1 1 0.998781
0.998933 1 1.00046 0.998475
0.998717 1 1.00009 0.998626
0.99877 1 1 0.99877
0.998781 1 1.00049 0.998294
0.999812 1 1.00136 0.998451
0.998561 1 1.00003 0.998528
0.998926 1 1 0.998926
0.99903 1 1.00033 0.998704
0.998899 1 1 0.998899
0.999631 1 1 0.999631
0.999648 1 1 0.999648
1 1 1 1
0.999682 1 1 0.999682
1 1 1 1
1 1 1 1
1 1 1 1
1 1 1 1
1 1 1 1
0.999897 1 1 0.999897
0.999872 1 1 0.999872
1 1 1 1
1 1 1 1
1 1 1 1
0.999998 1 1 0.999998
1 1 1 1
1 1 1 1
1.0447 1.06314 0.985159 0.997456
1.04947 1.06631 0.986821 0.997351
1.04866 1.06079 0.99134 0.997199
1.04965 1.06728 0.986098 0.997348
1.05647 1.0759 0.984447 0.99746
1.04967 1.07165 0.981792 0.997653
1.0603 1.08319 0.981291 0.997528
0.975908 1.01605 0.96448 0.995861
1.01263 1.04311 0.972328 0.998413
0.99942 1 1 0.99942
1.04725 1.06555 0.985473 0.997312
1.03778 1.06026 0.981412 0.997339
1.02926 1.05021 0.982499 0.997508
1.00016 1.00264 1.00082 0.996704
1.0043 1.00456 1.00402 0.995735
1.01295 1.01652 1.00038 0.99611
1.02381 1.03674 0.990019 0.997482
0.998936 1.00193 1.00007 0.99694
1.0203 1.00002 1.02261 0.997719
1.00518 1 1.00786 0.99734
0.999837 1 1 0.999837
1.00648 1 1.00865 0.997844
0.999386 1 1.00015 0.99924
1.00113 1 1.00279 0.99834
0.999287 1 1 0.999287
1.05322 1.07747 0.980021 0.997426
0.999332 1 1 0.999332
0.999313 1 1 0.999313
0.99897 1 0.999985 0.998985
1.02243 1.05952 0.967435 0.997473
1.02148 1.04423 0.980489 0.997675
1.00126 1.00183 1.00272 0.996726
1.00744 1.00606 1.00556 0.995833
1.00616 1.01678 0.992324 0.997209
0.998714 1 1.00013 0.998586
1.00375 1 1.0057 0.998054
1.00728 1.00031 1.00943 0.997558
1.03623 1 1.03897 0.99736
1.0042 1.00002 1.00667 0.997525
1.03586 1.06629 0.973869 0.99753
1.00269 1.05052 0.956743 0.997623
1.0138 1.02804 0.988737 0.997383
0.992555 1.00671 0.988939 0.996965
1.00353 1 1.00627 0.997278
0.998865 1 1 0.998865
0.998803 1 1 0.998803
0.999787 1 1.00107 0.998714
1.00333 1 1.00502 0.998317
1.0065 1 1.0086 0.997925
1.03434 0.999996 1.0369 0.997539
1.0289 1.00131 1.03008 0.997555
1.00177 1 1.00342 0.998355
1.00332 1 1.00572 0.997609
1.04857 1.07778 0.975218 0.997627
1.0339 1.05185 0.985338 0.997564
1.01738 1.02096 1 0.996491
1.00619 1.00681 1.00268 0.996719
1.00979 1.01033 1.0036 0.995873
1.0039 1 1.00582 0.998098
1.01394 1.04558 0.971652 0.998037
1.00133 1.00197 1.00207 0.997301
1.00356 1.00314 1.00408 0.996356
1.01653 1.02777 0.991752 0.997283
1.00256 1.0038 1.00273 0.996043
0.980045 1.00371 0.979802 0.996548
1.00439 1.00065 1.00582 0.997931
1.00434 1.02337 0.983384 0.997981
1.0006 1.00137 1.00204 0.997194
1.0044 1.00141 1.00644 0.996572
0.992668 1.00605 0.989638 0.997026
0.922553 0.978688 0.965082 0.976748
0.921945 0.971619 0.960342 0.988059
0.971936 0.985678 0.988452 0.997578
0.749677 0.847798 0.924688 0.956284
0.673309 0.815414 0.875204 0.943468
0.999297 0.999523 1.00102 0.998752
1.00012 0.99973 1.00167 0.998721
0.999427 1 1.00072 0.998707
0.999059 1 1 0.999059
0.998629 1 1 0.998629
0.998642 1 1.00017 0.998476
0.998668 1 1.00006 0.998611
0.998747 1 1 0.998747
1.0005 1 1.00207 0.998426
0.99896 1 1 0.99896
0.998559 1 1.00001 0.998548
0.998803 1 1.00007 0.998732
0.999111 1 1.00078 0.998331
1.00153 1 1.00319 0.998343
1.00225 1 1.00383 0.998428
1.00102 1 1.00267 0.998357
0.998776 1 1.00031 0.998462
0.998893 1 1 0.998893
0.998613 1 1.00007 0.998547
0.998764 1 1.00023 0.998534
0.998782 1 1.00006 0.998719
0.999004 1 1.00034 0.998664
0.999011 1 1 0.999011
0.998912 1 1.00002 0.998896
0.999626 1 1 0.999626
0.999631 1 1 0.999631
1 1 1 1
0.999646 1 1 0.999646
1 1 1 1
1 1 1 1
1 1 1 1
1 1 1 1
1 1 1 1
0.999923 1 1 0.999923
0.999893 1 1 0.999893
1 1 1 1
0.999872 1 1 0.999872
1 1 1 1
1 1 1 1
1 1 1 1
1 1 1 1
1 1 1 1
1.05374 1.07338 0.984204 0.997457
1.0497 1.06723 0.986196 0.997346
1.04964 1.07037 0.983005 0.997582
0.977364 1.01587 0.966026 0.995934
1.05722 1.08049 0.980894 0.997527
1.02459 1.0465 0.98074 0.998286
1.04224 1.05738 0.988002 0.997652
0.933069 0.980962 0.963535 0.987174
0.993774 1.01935 0.978134 0.996702
0.999438 1 1 0.999438
0.999416 1 1 0.999416
0.998977 1 1 0.998977
0.999059 1 1 0.999059
1.05095 1.07776 0.977631 0.997433
1.02618 1.05933 0.971169 0.997472
1.02188 1.04437 0.980788 0.997628
1.00035 1.00085 1.00276 0.996753
1.0108 1.0095 1.00536 0.995948
1.00525 1.01486 0.993321 0.997192
1.01639 1 1.01898 0.997453
1.02899 1.00003 1.03165 0.997388
1.00225 1 1.00469 0.997571
0.999312 1 1 0.999312
1.00213 1 1.00413 0.998008
0.99878 1 1.00014 0.998639
0.999374 1 1 0.999374
0.998949 1 1 0.998949
1.03352 1.06614 0.97179 0.997545
0.998907 1 1 0.998907
0.99886 1 1 0.99886
0.999186 1 1.00033 0.998858
1.0076 1.05313 0.959054 0.997616
1.0131 1.0279 0.988193 0.997382
1.00369 1.00041 1.00604 0.99726
0.995064 1.00688 0.991199 0.997034
1.00185 1 1.00359 0.998268
1.00547 1 1.00766 0.997827
1.03484 1.0013 1.03604 0.997536
1.0347 1.00023 1.03709 0.997469
0.997111 1.04282 0.95835 0.997723
0.995411 1.03286 0.966058 0.997607
1.00471 1.01087 0.996842 0.997054
0.985635 1.0009 0.986829 0.997896
0.999336 1 1.00077 0.998567
1.00086 1 1.00239 0.998478
1.01268 1 1.01445 0.998262
1.05368 1 1.05626 0.997559
0.899085 0.968634 0.952958 0.974018
1.00422 1 1.00609 0.998139
0.999285 1.00088 1.00109 0.997314
1.01435 1.04546 0.97212 0.998073
1.01604 1.02762 0.99131 0.997395
1.0029 1.00359 1.0033 0.996032
1.00323 1.00242 1.00447 0.996358
0.98069 1.00492 0.980206 0.995598
1.00316 1.00031 1.00487 0.997989
1.00423 1.02456 0.982146 0.997967
1.00031 1.0014 1.0017 0.997209
1.00454 1.00187 1.00611 0.996574
0.996184 1.007 0.992214 0.997025
0.921304 0.985243 0.960003 0.974063
0.915637 0.968822 0.959122 0.985384
0.975705 0.986299 0.991637 0.997602
0.747578 0.84382 0.925585 0.957173
0.659017 0.804826 0.871848 0.93919
1.00136 1.00007 1.00312 0.99818
0.77851 0.865302 0.937803 0.959368
0.711977 0.821275 0.917651 0.944712
0.988595 1.00636 0.984374 0.997942
1.00746 1.00146 1.00836 0.997647
1.01291 1.00483 1.01071 0.997358
0.966695 0.979015 0.989535 0.997858
0.906945 0.961235 0.96773 0.974984
0.88976 0.942594 0.95943 0.983864
0.73751 0.844805 0.909775 0.959572
0.732252 0.867382 0.895394 0.942836
1.00152 0.999564 1.00319 0.998773
1.00073 0.999837 1.00222 0.998682
1.00306 1 1.00421 0.998847
0.998993 1 1 0.998993
0.998568 1 1 0.998568
1.00094 1 1.00254 0.998402
0.999661 1 1.0013 0.998368
0.998694 1 1 0.998694
0.998894 1 1 0.998894
1.00179 1 1.00346 0.998332
1.0014 1 1.00303 0.998368
0.99858 1 1.00008 0.998499
1.00229 1 1.00384 0.998451
1.00407 1 1.00569 0.998389
1.00969 1 1.01115 0.998549
0.999791 1 1.00149 0.9983
0.998762 1 1.00025 0.998511
0.998559 1 1.00002 0.998543
0.998987 1 1.00045 0.998539
0.999175 1 1.00081 0.998367
0.999132 1 1.00057 0.998567
1.00001 1 1.00147 0.998546
1.00395 1 1.0056 0.998357
0.999576 1 1.0009 0.998679
0.998856 1 1.00014 0.99872
0.999047 1 1 0.999047
0.998841 1 1.00022 0.998625
0.998983 1 1 0.998983
0.999616 1 1 0.999616
0.998893 1 1 0.998893
0.999627 1 1 0.999627
1 1 1 1
0.999631 1 1 0.999631
1 1 1 1
1 1 1 1
1 1 1 1
1 1 1 1
1 1 1 1
0.999394 1 1 0.999394
0.999926 1 1 0.999926
0.999919 1 1 0.999919
1 1 1 1
0.99989 1 1 0.99989
1 1 1 1
1 1 1 1
1 1 1 1
1 1 1 1
1 1 1 1
0.979462 1.0157 0.968182 0.996011
1.05483 1.0775 0.981392 0.997527
1.03145 1.04961 0.984515 0.998157
0.926498 0.974586 0.961925 0.988286
0.993565 1.01907 0.978036 0.996868
1.04211 1.06112 0.984443 0.997607
1.0058 1.02732 0.98209 0.99691
0.940751 0.975438 0.974583 0.989592
0.920628 0.977768 0.966067 0.974633
0.746331 0.845172 0.920461 0.959358
0.64146 0.77622 0.87666 0.942657
0.999005 1 1 0.999005
0.999436 1 1 0.999436
0.999413 1 1 0.999413
0.998969 1 1 0.998969
0.998737 1 1 0.998737
0.998758 1 1 0.998758
0.998941 1 1 0.998941
0.99902 1 1 0.99902
1.02978 1.0663 0.968115 0.997559
1.01302 1.05684 0.960829 0.997608
1.01261 1.02785 0.987756 0.997381
1.00296 1.00129 1.00444 0.997243
0.997508 1.00669 0.993754 0.997104
1.03783 1.00076 1.03962 0.997515
1.03422 1.00041 1.03649 0.9974
1.00632 1 1.00861 0.99773
0.998888 1 0.99997 0.998918
1.00184 1 1.00363 0.998217
0.998949 1 1 0.998949
0.999002 1 1 0.999002
0.996214 1.04354 0.956811 0.997736
0.999485 1 1.0009 0.998588
1.0009 1 1.00238 0.998525
0.994024 1.03145 0.966048 0.997582
1.00202 1.01125 0.993668 0.997189
0.987766 1.00119 0.988791 0.997779
1.02092 1.00015 1.02274 0.998077
1.04967 1.00104 1.05112 0.997588
0.981941 1.02721 0.95814 0.997692
0.986178 1.01015 0.978607 0.997609
0.978981 1.00166 0.979673 0.997638
0.98903 1.00118 0.989801 0.998048
1.0045 1 1.00632 0.998192
1.01002 1 1.01179 0.998254
1.04884 1 1.05106 0.997896
0.778794 0.874703 0.926446 0.961041
0.916712 0.975853 0.960817 0.977704
1.00124 0.999938 1.00327 0.998047
0.999901 1.00123 1.00145 0.997226
1.00421 1.02609 0.980681 0.997954
0.999116 1.00837 0.993779 0.997025
1.00479 1.00252 1.00571 0.996579
0.917612 0.975188 0.96506 0.975026
0.920035 0.975621 0.956415 0.986
0.976687 0.984943 0.993983 0.99762
0.751008 0.845537 0.924889 0.960334
0.646202 0.794335 0.870269 0.934784
1.00068 0.999868 1.00263 0.99818
0.777474 0.871646 0.929022 0.960107
0.698767 0.808931 0.916635 0.942376
0.988382 1.00727 0.983275 0.997939
1.00755 1.00187 1.00802 0.997668
1.01112 1.00316 1.01045 0.997509
0.959557 0.973259 0.987876 0.998022
0.916639 0.972521 0.969156 0.972535
0.886852 0.941445 0.95509 0.986306
0.743075 0.842345 0.921111 0.957703
0.731122 0.873046 0.889107 0.941886
1.00303 1 1.00438 0.998649
0.74388 0.833338 0.943735 0.945869
0.816325 0.905324 0.945837 0.953328
0.988354 0.99656 0.993086 0.998671
1.01469 1.0025 1.01357 0.998607
0.968801 0.964783 1.00645 0.99773
0.894056 0.929901 0.973623 0.9875
0.875932 0.93054 0.969181 0.971249
0.746752 0.837691 0.929983 0.958556
0.778218 0.912754 0.90127 0.946002
1.00164 0.999584 1.0034 0.998659
1.00234 1 1.00353 0.998809
1.0058 0.99972 1.00701 0.999077
0.998895 1 1 0.998895
0.998536 1 1 0.998536
1.0021 1 1.00372 0.998379
1.00232 1 1.004 0.998321
1.00207 1 1.0036 0.998475
0.998712 1 1.0002 0.99851
1.00267 1 1.00431 0.998372
0.999816 1 1.00152 0.998302
1.00973 0.999896 1.01125 0.998607
1.02838 0.998958 1.03038 0.999096
1.00507 1 1.00668 0.9984
0.999225 1 1.00097 0.998261
0.998558 1 1.00002 0.998539
0.999308 1 1.00077 0.998543
0.999485 1 1.00113 0.99836
0.999476 1 1.00092 0.998556
0.999371 1 1.00075 0.998625
1.00245 1 1.00396 0.998493
1.00057 1 1.00213 0.998446
1.0017 1 1.00307 0.998636
0.999096 1 1.0007 0.998393
0.998731 1 1.00093 0.997804
1.00329 1 1.00504 0.998255
1.00338 1 1.00503 0.998357
1.00297 1 1.00441 0.998572
1.00034 1 1.00166 0.998677
0.999028 1 1 0.999028
0.999162 1 1.00044 0.998721
0.999048 1 1 0.999048
0.999608 1 1 0.999608
0.998956 1 1 0.998956
0.999618 1 1 0.999618
0.999997 1 1 0.999997
0.999628 1 1 0.999628
0.999999 1 1 0.999999
1 1 1 1
1 1 1 1
1 1 1 1
1 1 1 1
0.999403 1 1 0.999403
0.999906 1 1 0.999906
0.999396 1 1 0.999396
1 1 1 1
0.999927 1 1 0.999927
0.999916 1 1 0.999916
1 1 1 1
1 1 1 1
1 1 1 1
1 1 1 1
1 1 1 1
0.771808 0.862558 0.934752 0.957247
0.704995 0.817226 0.913673 0.944176
0.927556 0.978195 0.958965 0.988808
0.995045 1.01886 0.979526 0.997039
1.04506 1.0651 0.983581 0.997562
0.922461 0.959177 0.970466 0.990989
1.00625 1.02667 0.983013 0.997051
0.932477 0.989646 0.965662 0.975737
0.746234 0.847442 0.920141 0.956998
0.641819 0.784852 0.871496 0.938339
0.95566 0.996237 0.965782 0.993256
0.919152 0.970309 0.971103 0.975466
0.735309 0.843715 0.908882 0.958885
0.716771 0.857676 0.887372 0.941785
0.999968 1 1.00138 0.998588
0.999039 1 1 0.999039
0.999435 1 1 0.999435
0.998961 1 1 0.998961
0.998791 1 1 0.998791
0.999639 1 1.00109 0.998554
0.998736 1 1 0.998736
0.998638 1 1 0.998638
0.998901 1 1 0.998901
0.998981 1 1 0.998981
0.996382 1.0437 0.95682 0.997749
0.991081 1.02885 0.965646 0.99756
0.999695 1.0119 0.990587 0.997325
0.989906 1.00132 0.990916 0.997661
1.04465 1.00261 1.04443 0.997618
1.02964 1.00024 1.03157 0.997894
0.999477 1 1.00091 0.998573
0.999598 1 1.00099 0.998608
0.982796 1.02753 0.958617 0.997756
1.00549 1 1.00734 0.998157
1.00957 1 1.01139 0.998209
0.983682 1.00836 0.977927 0.997545
0.977053 1.00129 0.978017 0.997732
0.990557 1.002 0.990582 0.997978
1.0426 1 1.04484 0.997853
0.980664 1.00385 0.978833 0.998024
0.971421 0.999395 0.973543 0.998424
1.01367 1.00091 1.01458 0.998193
1.00864 1 1.01056 0.998108
1.00963 1 1.01165 0.998
1.02693 1 1.02899 0.997999
0.768482 0.848804 0.949565 0.953458
0.786737 0.873555 0.936991 0.961178
0.905228 0.972392 0.955656 0.974125
1.00042 0.999736 1.00251 0.998179
1.00722 1.00185 1.00769 0.997688
0.990938 1.00835 0.984768 0.997937
1.00954 1.00178 1.01012 0.997656
0.772917 0.866663 0.92762 0.961419
0.911317 0.968855 0.965605 0.974117
0.883748 0.938162 0.957346 0.98397
0.956609 0.969347 0.988659 0.99818
0.737619 0.842476 0.916562 0.95524
0.698924 0.810148 0.914736 0.943126
0.722674 0.864363 0.88545 0.94424
1.00323 0.999835 1.00476 0.99864
0.745696 0.835951 0.940493 0.948474
0.827662 0.915684 0.94836 0.953091
0.988144 0.994356 0.994986 0.99876
1.01463 1.00154 1.01453 0.998563
0.966154 0.963512 1.00461 0.998141
0.887551 0.933434 0.965127 0.985201
0.892006 0.938797 0.975432 0.974089
0.765963 0.859313 0.932114 0.956285
0.766186 0.901345 0.896672 0.948002
1.00731 0.998983 1.00891 0.999431
0.842617 0.920926 0.953849 0.959238
0.813648 0.911465 0.93238 0.957423
0.987605 0.973269 1.01502 0.999715
0.915738 0.929688 0.993445 0.991494
0.898147 0.928579 0.994224 0.972846
0.810643 0.890702 0.953514 0.954487
0.802478 0.938179 0.902818 0.94743
1.00226 1 1.0035 0.998771
1.00591 0.999399 1.00745 0.999072
1.02307 0.997483 1.02631 0.999354
0.998825 1 1.00032 0.998508
0.999745 1 1.00144 0.998304
1.00087 1 1.00252 0.998354
1.0098 0.999773 1.01138 0.998664
0.999514 1 1.00126 0.998261
1.00497 1 1.00659 0.998391
1.03296 0.999639 1.03419 0.999173
1.043 0.996511 1.04724 0.999446
1.03363 0.999337 1.03528 0.999068
0.99952 1 1.00118 0.998344
0.999719 1 1.00137 0.998352
0.999424 1 1.00088 0.998545
0.998704 1 1 0.998704
1.00025 1 1.00179 0.998463
1.00169 1 1.0032 0.998494
1.00221 1 1.00356 0.998652
1.00097 1 1.00248 0.998497
1.00655 0.999449 1.00814 0.998966
0.997239 1.00023 0.998512 0.998494
0.999713 1.00048 1.00082 0.998413
0.998711 1 1.00069 0.998018
1.00101 1.00248 1.00153 0.997012
1.00229 1 1.00414 0.998151
0.998812 1 1.00079 0.998022
1.00298 1 1.00471 0.998271
1.00536 1 1.00695 0.998413
1.00254 1 1.00419 0.998357
1.00266 1 1.00409 0.998571
0.999188 1 1.00026 0.998932
1.00063 1 1.00196 0.998674
0.999025 1 1 0.999025
0.999593 1 1 0.999593
0.99905 1 1 0.99905
0.999608 1 1 0.999608
0.99999 1 1 0.99999
0.99962 1 1 0.99962
0.999995 1 1 0.999995
1 1 1 1
0.999999 1 1 0.999999
1 1 1 1
1 1 1 1
0.999173 1 1 0.999173
0.999867 1 1 0.999867
0.999331 1 1 0.999331
1 1 1 1
0.99991 1 1 0.99991
0.999397 1 1 0.999397
1 1 1 1
1 1 1 1
0.999928 1 1 0.999928
1 1 1 1
1 1 1 1
1 1 1 1
0.739168 0.832527 0.935824 0.948747
0.778019 0.869788 0.932802 0.958931
0.822066 0.914597 0.943501 0.952653
0.70077 0.81406 0.913032 0.94283
0.923479 0.968604 0.964447 0.988559
1.00422 1.02617 0.981356 0.997201
0.93757 0.987127 0.972519 0.976637
0.755589 0.850833 0.925499 0.959546
0.646042 0.796759 0.868189 0.933942
0.954038 0.991051 0.970026 0.992399
0.913316 0.970095 0.969288 0.971301
0.748884 0.852078 0.91825 0.957138
0.717956 0.861933 0.886499 0.939606
0.930446 0.977098 0.961831 0.990043
0.891965 0.934896 0.982912 0.970666
0.76991 0.870504 0.926691 0.954409
0.772281 0.910477 0.899227 0.943273
1.00171 1 1.0034 0.998316
0.999305 1 1.00067 0.998633
0.999073 1 1 0.999073
0.998845 1 1 0.998845
0.998618 1 1.0004 0.998217
0.998948 1 1.00035 0.998597
0.998715 1 1 0.998715
0.998605 1 1 0.998605
0.998684 1 1.00001 0.998676
0.998861 1 1 0.998861
0.984067 1.02869 0.958715 0.99782
0.98348 1.00738 0.978741 0.997484
0.974972 1.00129 0.97584 0.997825
0.994285 1.00326 0.993131 0.997911
1.03526 1 1.03754 0.99781
1.00889 1 1.01075 0.998165
1.00592 1 1.00781 0.998122
1.00777 1 1.00972 0.99807
0.978279 1.00409 0.976211 0.998033
1.00804 1 1.01007 0.99799
1.02744 1 1.02951 0.997984
0.970019 0.999853 0.971714 0.998403
1.01031 1.00196 1.01019 0.998151
0.953285 0.982721 0.971561 0.998441
0.984975 0.990608 0.995076 0.999234
1.0386 0.999668 1.0406 0.998403
1.00484 1 1.00685 0.998002
1.0177 1 1.01967 0.998064
0.852287 0.926579 0.955605 0.962553
0.76987 0.848195 0.952545 0.952875
0.775557 0.867867 0.931945 0.958893
1.00345 0.999869 1.00496 0.998633
1.01506 1.00054 1.01602 0.998519
0.984729 0.992087 0.993726 0.99885
0.749005 0.838197 0.941334 0.949281
0.890074 0.934551 0.980909 0.970943
0.890772 0.931249 0.969437 0.986691
0.958058 0.95981 0.999633 0.998541
0.766425 0.862278 0.92693 0.958904
0.834636 0.921096 0.950891 0.952931
0.770883 0.904607 0.898757 0.948171
1.00583 0.998904 1.00756 0.999384
0.839611 0.919747 0.950208 0.960708
0.813778 0.911478 0.932456 0.957483
0.990137 0.97708 1.01382 0.999549
0.927409 0.939514 0.995825 0.991255
0.873632 0.921673 0.977496 0.969698
0.803169 0.938048 0.903093 0.94809
0.825403 0.898248 0.961522 0.955676
1.00306 0.98121 1.02256 0.999711
0.823275 0.906186 0.939455 0.967057
0.837178 0.933595 0.93499 0.959075
0.771712 0.909302 0.899515 0.943492
0.964902 0.953556 1.01416 0.997767
0.923993 0.942233 1.00676 0.974062
0.867657 0.931821 0.972704 0.957271
1.00647 0.999055 1.00836 0.999065
1.02281 0.997246 1.02639 0.99927
1.02249 0.985479 1.038 0.999566
0.999562 1 1.0013 0.99826
1.00447 1 1.0061 0.998382
1.03783 0.999793 1.03882 0.999251
0.999872 1 1.00152 0.99835
1.03284 0.999428 1.03439 0.999079
1.04449 0.996318 1.04896 0.999421
1.03299 0.992529 1.0413 0.999489
1.0213 0.998926 1.02336 0.999058
1.00011 1 1.00163 0.998482
1.00132 1 1.00283 0.998495
1.00277 1 1.00411 0.998671
1.00592 0.999759 1.00723 0.998938
1.00047 1 1.00197 0.998495
1.00206 1 1.00321 0.998853
0.998026 1.00007 0.999189 0.998762
1.00191 1.00021 1.00411 0.997597
1.0002 1.00093 1.00084 0.998437
0.999154 1.00066 1.00057 0.997932
0.998582 1.00081 1.00101 0.996763
1.01223 1.01424 1.00129 0.996724
1.002 1.00144 1.00276 0.997807
1.00005 1.00161 1.00138 0.997062
1.00773 1 1.00953 0.998217
1.00329 1.00035 1.0048 0.998143
0.998882 1 1.00065 0.998238
1.00284 1 1.00456 0.998287
1.00472 1 1.00628 0.998448
0.999902 1 1.0011 0.998804
1.00254 1 1.00397 0.99857
0.999272 1 1.00034 0.998932
0.999536 1 1 0.999536
0.999022 1 1 0.999022
0.99959 1 1 0.99959
0.999986 1 1 0.999986
0.999609 1 1 0.999609
0.999989 1 1 0.999989
1 1 1 1
0.999993 1 1 0.999993
1 1 1 1
1 1 1 1
0.998933 1 1 0.998933
0.999683 1 1 0.999683
0.999171 1 1 0.999171
1 1 1 1
0.999819 1 1 0.999819
0.99926 1 1 0.99926
1 1 1 1
1 1 1 1
0.999915 1 1 0.999915
1 1 1 1
1 1 1 1
1 1 1 1
0.839002 0.923748 0.946276 0.959823
0.736774 0.832203 0.931249 0.950691
0.774421 0.86576 0.933218 0.95851
0.998485 1 1 0.998485
0.819791 0.909299 0.939364 0.95976
0.820794 0.914171 0.942618 0.952513
0.704478 0.820999 0.908231 0.944775
0.961649 0.993865 0.976066 0.99131
0.910439 0.962942 0.96988 0.974839
0.752473 0.864112 0.912247 0.954572
0.713014 0.850493 0.891049 0.940862
0.92816 0.973605 0.965734 0.987149
0.891108 0.935773 0.977882 0.973808
0.778811 0.87132 0.936125 0.954818
0.768333 0.904797 0.899666 0.943881
0.889529 0.935892 0.96571 0.984209
0.886779 0.920548 0.991857 0.971226
0.839004 0.910419 0.963949 0.956023
0.803527 0.937548 0.904666 0.947368
1.00115 1 1.00307 0.998088
1.00291 1 1.00465 0.998272
0.998849 1 1.00017 0.998678
0.998301 1 1.00002 0.998285
0.998847 1 1.00056 0.998284
0.99864 1 1 0.99864
0.998611 1 1 0.998611
0.998738 1 1.00003 0.998713
0.974854 1.00477 0.972139 0.998037
0.968223 1.00073 0.96908 0.998388
1.00727 1 1.00926 0.998032
1.00722 1.00297 1.00615 0.998107
1.02926 1 1.03136 0.997968
1.00744 1 1.00948 0.997981
1.00521 1 1.00721 0.998013
0.957562 0.983113 0.975435 0.99854
1.01616 1 1.0181 0.998092
1.02809 1.00032 1.02937 0.998436
0.981878 0.991599 0.990903 0.999286
1.00729 1 1.00917 0.998139
0.950783 0.96934 0.982555 0.998271
1.00184 0.987493 1.01506 0.999474
1.04883 0.997261 1.05325 0.998537
1.01115 1 1.01292 0.998253
0.833673 0.909163 0.945667 0.969651
0.85171 0.92654 0.955067 0.962485
0.772865 0.847474 0.957659 0.952283
1.00375 0.998648 1.00578 0.999341
0.99326 0.980166 1.01398 0.999387
0.838861 0.920609 0.947051 0.962146
0.898963 0.923763 0.999561 0.973581
0.91683 0.937026 0.990276 0.988056
0.824724 0.898473 0.961814 0.954361
0.814577 0.91253 0.932257 0.957524
0.804791 0.938762 0.903596 0.948753
1.00699 0.987491 1.02009 0.999669
0.824883 0.907523 0.939932 0.967026
0.836269 0.931396 0.934186 0.96112
0.973642 0.958918 1.01592 0.999444
0.76722 0.903332 0.899698 0.944008
0.902427 0.926232 1.0024 0.971964
0.874182 0.939022 0.972975 0.956807
1.00189 0.976304 1.02646 0.999753
0.847508 0.927335 0.942951 0.96921
0.817428 0.906466 0.939368 0.959981
0.714612 0.856035 0.886207 0.941983
0.837867 0.910006 0.963559 0.955549
0.952494 0.951749 1.00568 0.995126
0.931308 0.939977 1.02304 0.96846
1.02003 0.997716 1.0232 0.999188
1.02475 0.986703 1.03904 0.999534
1.01138 0.974967 1.03778 0.999582
1.00022 1 1.00187 0.998356
1.03484 0.999495 1.03631 0.999091
1.04642 0.997459 1.04972 0.999396
1.01633 0.999138 1.01818 0.999045
1.03299 0.994207 1.03954 0.999488
1.0113 0.989816 1.02249 0.999235
1.00485 0.999996 1.00595 0.99891
1.0001 1 1.00161 0.998495
1.0044 1 1.00558 0.998833
1.00996 1 1.01183 0.998157
0.999028 1 1 0.999028
1.00005 1.0002 1.00207 0.997784
1.0018 1.00087 1.00448 0.996474
1.00537 1.00744 1.00188 0.996068
0.999674 1.00143 1.0004 0.997844
0.998991 1.00132 1.0011 0.996582
1.01335 1.01606 1.00053 0.996815
1.00741 1.00749 1.00261 0.997322
1.01133 1.01329 1.00125 0.996813
1.00709 1 1.00909 0.998017
1.00409 1.00299 1.00332 0.997784
0.998823 1.00044 1.00128 0.997113
1.0033 1 1.00469 0.998617
1.00715 1 1.00893 0.998232
1.00429 1.00063 1.00554 0.998135
1.00436 1 1.00589 0.998482
1.00041 1 1.00161 0.998803
0.999467 1 1.00004 0.99943
0.999479 1 1.00055 0.998933
0.999532 1 1 0.999532
0.999981 1 1 0.999981
0.999587 1 1 0.999587
0.999985 1 1 0.999985
1 1 1 1
0.999987 1 1 0.999987
1 1 1 1
1 1 1 1
0.998846 1 1 0.998846
0.99954 1 1 0.99954
0.998977 1 1 0.998977
1 1 1 1
0.999668 1 1 0.999668
0.999168 1 1 0.999168
1 1 1 1
1 1 1 1
0.999771 1 1 0.999771
1 1 1 1
1 1 1 1
1 1 1 1
0.829376 0.908996 0.942633 0.967937
0.841712 0.923358 0.949749 0.959809
0.737221 0.832258 0.931591 0.950856
0.998519 1 1 0.998519
0.998447 1 1 0.998447
0.998387 1 1 0.998387
0.836394 0.935017 0.932907 0.958856
0.816386 0.908766 0.935953 0.95982
0.820077 0.913578 0.942535 0.952383
0.933395 0.978129 0.964745 0.989137
0.877198 0.930532 0.971287 0.970552
0.769518 0.855153 0.938708 0.958615
0.780275 0.913959 0.905734 0.942585
0.892014 0.940108 0.961446 0.986891
0.893087 0.924961 0.993736 0.971627
0.818014 0.887443 0.963274 0.956908
0.802814 0.938246 0.902618 0.947969
0.88849 0.929464 0.970746 0.984724
0.907474 0.930252 1.00291 0.972686
0.867409 0.929958 0.974145 0.957496
0.782063 0.915549 0.902997 0.945962
0.998798 1 1.00064 0.998156
1.00181 1 1.00376 0.998059
1.00282 1 1.0046 0.998228
0.998287 1 1.00001 0.998275
0.998689 1 1.00034 0.998351
0.998618 1 1 0.998618
0.960186 0.98054 0.980594 0.998621
0.977163 0.990706 0.986998 0.999323
1.0054 1 1.00739 0.998024
1.01972 1.00052 1.02075 0.998467
1.01666 1 1.01858 0.99812
1.00929 1 1.01118 0.998128
1.01054 0.999502 1.01278 0.998279
0.957679 0.969452 0.989474 0.998365
1.04705 0.99679 1.05181 0.998679
1.00594 0.983518 1.02342 0.999385
1.00856 0.999424 1.01072 0.998434
0.977324 0.962473 1.01733 0.998132
1.00631 0.978286 1.02927 0.999395
1.03482 0.9899 1.04664 0.998793
0.860194 0.932298 0.949626 0.971603
0.835188 0.909705 0.946331 0.970154
0.851132 0.926423 0.954608 0.962416
1.01221 0.99377 1.01893 0.999627
0.962557 0.955932 1.00867 0.998279
0.826395 0.908549 0.940622 0.966995
0.89807 0.914786 1.00587 0.975997
0.868899 0.936298 0.971581 0.95516
0.836386 0.929823 0.933913 0.963164
0.781095 0.913176 0.907237 0.94282
0.997655 0.973627 1.0249 0.999781
0.848545 0.927038 0.943668 0.96997
0.817971 0.908838 0.937477 0.960044
0.948645 0.947301 1.01007 0.991438
0.71627 0.860143 0.885967 0.939914
0.813011 0.8857 0.959989 0.956188
0.940927 0.946028 1.0223 0.972912
1.00189 0.960706 1.04398 0.99893
0.830187 0.908256 0.944183 0.96808
0.829224 0.919621 0.946161 0.953011
0.640333 0.773722 0.877433 0.943205
0.763773 0.864619 0.925612 0.954356
0.906719 0.927097 1.00621 0.971984
0.927219 0.94272 0.994724 0.988773
1.02764 0.987789 1.04087 0.999501
1.01565 0.98166 1.03505 0.999586
1.01221 0.986239 1.02684 0.999516
1.01097 0.999447 1.01251 0.999032
1.03098 0.995422 1.03625 0.999487
1.01488 0.98788 1.02803 0.999319
1.00861 1 1.00981 0.998812
1.00681 1 1.00801 0.998812
1.00822 1.00003 1.01024 0.997982
1.01962 1.00083 1.02221 0.996646
0.998047 1.00005 1.00002 0.997973
1.00329 1.00119 1.00565 0.996467
1.00435 1.00252 1.00625 0.995601
1.00569 1.00816 1.00191 0.995653
1.00777 1.0103 1.00108 0.996424
1.00522 1.00731 1.00192 0.996018
0.999235 1.0016 1.00124 0.996402
1.00613 1.00793 1.0011 0.997115
1.01357 1.01623 1.00048 0.9969
1.00245 1.0002 1.00464 0.997619
1.00878 1.00866 1.00274 0.997388
1.01102 1.01297 1.00117 0.996902
1.00784 1 1.00954 0.998317
1.00644 1.00024 1.0082 0.998016
1.00632 1.00476 1.0038 0.99776
0.999652 1 1.00036 0.999289
1.00284 1 1.00423 0.998616
1.00621 1 1.00798 0.998247
1.00034 1 1.00154 0.998802
0.999511 1 1.00009 0.999426
0.999965 1 1 0.999965
0.999528 1 1 0.999528
0.999977 1 1 0.999977
1 1 1 1
0.999984 1 1 0.999984
1 1 1 1
1 1 1 1
0.998812 1 1 0.998812
0.999522 1 1 0.999522
0.998873 1 1 0.998873
0.999998 1 1 0.999998
0.999582 1 1 0.999582
0.999021 1 1 0.999021
1 1 1 1
1 1 1 1
0.999653 1 1 0.999653
1 1 1 1
1 1 1 1
1 1 1 1
0.846903 0.927279 0.9425 0.96904
0.831567 0.909757 0.944356 0.967913
0.843239 0.922423 0.952421 0.959825
0.999615 1 1.00127 0.998343
0.999764 1 1.00156 0.998205
0.998553 1 1 0.998553
0.998436 1 1 0.998436
0.998378 1 1 0.998378
0.998388 1 1.00002 0.998368
0.998337 1 1 0.998337
0.814487 0.914272 0.930688 0.957205
0.838223 0.933011 0.934936 0.960927
0.814739 0.907313 0.935497 0.959884
0.802815 0.93907 0.901242 0.948584
0.886374 0.936072 0.96179 0.984526
0.892734 0.921298 0.996903 0.972005
0.826479 0.898517 0.960089 0.958062
0.879948 0.930623 0.961127 0.98379
0.905393 0.92303 1.01178 0.969474
0.872983 0.937969 0.972081 0.957446
0.767885 0.903161 0.896887 0.947967
0.903343 0.934011 0.980529 0.986371
0.918252 0.932517 1.01607 0.969132
0.815229 0.894377 0.954615 0.954839
0.733328 0.869719 0.894551 0.942572
1.01365 1 1.01526 0.998416
1.00032 1 1.00215 0.998172
1.00288 1 1.00486 0.998031
0.998265 1 1 0.998265
0.964806 0.969906 0.996248 0.998488
1.00826 0.981587 1.02791 0.999291
1.00845 1 1.01035 0.998117
1.00979 0.999833 1.01168 0.998305
1.03966 0.994862 1.04626 0.998821
1.00696 0.999938 1.00861 0.998432
1.03616 0.990028 1.04788 0.99878
0.975943 0.962035 1.01763 0.99688
1.00455 0.969478 1.03666 0.999539
1.01187 0.990781 1.02241 0.998908
0.954493 0.932668 1.02697 0.996522
1.01369 0.968405 1.0475 0.999296
0.834748 0.908747 0.947232 0.969742
0.858189 0.93152 0.947129 0.972706
0.836436 0.91001 0.94694 0.970653
0.992497 0.969133 1.02431 0.999805
0.954642 0.951633 1.00774 0.995453
0.847707 0.925828 0.943221 0.970738
0.939285 0.949144 1.02117 0.969096
0.81764 0.89271 0.956659 0.957402
0.818101 0.910561 0.935793 0.960103
0.712381 0.848947 0.891609 0.941147
1.00324 0.963173 1.04254 0.999103
0.831083 0.910586 0.942804 0.96806
0.823783 0.915514 0.944304 0.952875
0.929801 0.942913 0.994776 0.991272
0.641847 0.78381 0.872127 0.938946
0.770726 0.864541 0.933972 0.95451
0.905803 0.924166 1.01065 0.9698
0.995767 0.968723 1.03051 0.997484
0.840232 0.925206 0.945894 0.960103
0.705071 0.816087 0.914485 0.944756
0.737436 0.845434 0.909164 0.959406
0.876938 0.909797 0.991069 0.97257
0.894082 0.924453 0.981704 0.985172
1.02003 0.985661 1.0353 0.99959
1.01313 0.983261 1.03088 0.999516
0.985866 0.980796 1.00585 0.99932
1.01921 0.986232 1.03405 0.999402
1.00613 0.992941 1.0144 0.998897
1.0019 1.0008 1.00331 0.997801
1.00678 1.00003 1.00897 0.997806
1.01739 1.00076 1.02014 0.996543
1.00995 1.00044 1.01386 0.995707
1.00495 1.00184 1.00667 0.996459
1.00494 1.00228 1.00717 0.995511
1.00195 1.0022 1.00448 0.995292
1.01954 1.02383 1 0.995807
1.01292 1.01628 1.00077 0.995935
1.00601 1.00826 1.00218 0.995597
1.00487 1.00805 1.00013 0.996722
1.00658 1.00937 1.00074 0.996487
1.00501 1.00713 1.00194 0.995968
1.00295 1.00468 1.00112 0.997168
1.00611 1.00796 1.00108 0.997092
1.01352 1.01615 1.00043 0.996985
1.00565 1.00009 1.00765 0.997927
1.00305 1.00075 1.00462 0.997682
1.00993 1.00961 1.00288 0.997454
1.00172 1 1.00269 0.999036
1.00649 1 1.00818 0.998322
1.00581 1.00047 1.00734 0.998014
0.999939 1 1 0.999939
1.00011 1 1.00083 0.999282
1.00276 1 1.00415 0.998614
0.999713 1 1.00029 0.999421
0.999959 1 1 0.999959
1 1 1 1
0.999973 1 1 0.999973
1 1 1 1
1 1 1 1
1.0018 1 1.00347 0.998332
0.998776 1 1.0001 0.998677
0.999408 1 1 0.999408
0.998809 1 1 0.998809
0.999988 1 1 0.999988
0.999525 1 1 0.999525
0.998899 1 1 0.998899
1 1 1 1
0.999999 1 1 0.999999
0.999624 1 1 0.999624
1 1 1 1
1 1 1 1
1 1 1 1
0.822776 0.906315 0.938873 0.966931
0.845281 0.925311 0.941942 0.969815
0.832441 0.911852 0.943205 0.967884
0.999706 1 1.00135 0.998354
1.00081 1 1.00261 0.998206
1.0003 1 1.00206 0.998242
0.999799 1 1.00159 0.998216
1.00564 1 1.00749 0.998168
0.998424 1 1 0.998424
0.998369 1 1 0.998369
0.99837 1 1 0.99837
0.998342 1 1 0.998342
1.00795 1 1.00957 0.998398
0.816701 0.906926 0.944889 0.953038
0.815161 0.913635 0.932021 0.957293
0.83957 0.932158 0.93529 0.962989
0.770371 0.905658 0.897138 0.948148
0.869707 0.935142 0.97336 0.955481
0.874494 0.925879 0.961386 0.982437
0.914789 0.93197 1.0095 0.972329
0.900413 0.937165 0.977008 0.983394
0.927919 0.943069 1.01188 0.972381
0.828731 0.898897 0.963858 0.956513
0.73275 0.875705 0.888714 0.941533
0.914367 0.929429 0.998112 0.985656
0.910628 0.925499 1.01124 0.972999
0.749216 0.840104 0.930727 0.95819
0.672716 0.814804 0.875852 0.942643
1.01284 1 1.01387 0.998981
1.01489 1 1.0165 0.998425
1.00314 1 1.00496 0.998189
0.977485 0.964367 1.0181 0.995577
1.00702 0.9635 1.04549 0.999693
1.00678 1 1.00836 0.998429
1.03878 0.989528 1.05107 0.998768
1.01309 0.993656 1.02067 0.998915
1.01911 0.975109 1.04587 0.999285
0.960569 0.943099 1.02212 0.996477
1.01732 0.992957 1.02521 0.999345
0.972972 0.959426 1.01727 0.996898
0.85089 0.926194 0.954789 0.962197
0.837186 0.910134 0.948067 0.970236
0.856069 0.930495 0.944755 0.973812
1.00523 0.969096 1.03806 0.999253
0.925951 0.940416 0.997436 0.987149
0.834345 0.912907 0.944125 0.968032
0.909537 0.932084 1.00628 0.969723
0.760264 0.846546 0.937185 0.958271
0.81835 0.911356 0.942469 0.95276
0.645712 0.795579 0.868418 0.934602
0.994479 0.967392 1.03037 0.997696
0.841375 0.922912 0.949558 0.960081
0.70105 0.813907 0.912983 0.943434
0.90186 0.932634 0.980142 0.986596
0.750163 0.852864 0.918542 0.957583
0.871793 0.915458 0.981339 0.970412
0.955937 0.955512 1.00438 0.996082
0.739506 0.833337 0.934875 0.94922
0.746336 0.844941 0.920193 0.959907
0.888286 0.934499 0.97918 0.97076
0.87231 0.921806 0.958369 0.987412
1.01207 0.980505 1.03269 0.999515
0.989433 0.979199 1.01116 0.999295
0.995743 0.993449 1.00385 0.998464
1.00326 0.985164 1.01941 0.998979
1.0015 1.00082 1.0028 0.997885
0.997997 1.00199 0.999119 0.996898
1.01497 1.00067 1.01792 0.996439
1.00853 1.00076 1.0121 0.995713
0.999161 1.00187 1.00137 0.995929
1.00523 1.00195 1.00788 0.995422
1.00209 1.00309 1.0037 0.995325
1.01759 1.02165 1 0.996025
1.04016 1.04394 1 0.996384
1.02946 1.03369 1.00002 0.995888
1.01958 1.02384 1 0.995836
1.01474 1.01859 1 0.996219
1.01146 1.01456 1.00107 0.995882
1.00649 1.00854 1.00244 0.995541
1.00676 1.00991 1 0.996881
1.00337 1.00657 1.00002 0.996796
1.00515 1.00831 1.00032 0.996551
1.00096 1.00135 1.00208 0.997536
1.00268 1.00419 1.0013 0.997203
1.00627 1.00813 1.0011 0.997068
1.00684 1 1.00824 0.998606
1.00611 1.00038 1.00781 0.99793
1.00364 1.00115 1.00475 0.997745
0.999886 1 1 0.999886
1.00252 1 1.00349 0.999028
1.00581 1 1.0075 0.998327
0.999998 1 1 0.999998
0.999927 1 1 0.999927
1.00045 1 1.00117 0.999275
0.999952 1 1 0.999952
1 1 1 1
1 1 1 1
1.0048 1 1.00658 0.998238
1.00015 1 1.00161 0.998533
1.00236 1 1.00405 0.998313
0.999291 1 1 0.99929
0.999019 1 1.00034 0.998675
0.999967 1 1 0.999967
0.999412 1 1 0.999412
0.998806 1 1 0.998806
1 1 1 1
0.999992 1 1 0.999992
0.999528 1 1 0.999528
1 1 1 1
1 1 1 1
1 1 1 1
0.838527 0.921328 0.945596 0.962492
0.826016 0.908647 0.940176 0.966906
0.845465 0.923078 0.943669 0.970594
0.998922 1.00028 1.00039 0.998248
1.0002 1 1.00184 0.998366
1.00104 1 1.00284 0.998208
0.99928 1 1.00107 0.998211
1.0002 1 1.00194 0.998265
1.00353 1 1.00528 0.998255
1.01152 1 1.01364 0.997902
1.01401 1 1.01582 0.998213
0.998372 1 1 0.998372
0.998346 1 1 0.998346
1.00765 1 1.00929 0.998383
1.02091 0.999612 1.02274 0.998595
0.712306 0.820676 0.919229 0.944215
0.827444 0.917088 0.946941 0.952807
0.816094 0.91349 0.933171 0.957361
0.725148 0.86791 0.885215 0.943851
0.829879 0.902458 0.962273 0.955628
0.921991 0.936295 1.01602 0.9692
0.900665 0.929615 0.984502 0.984109
0.912817 0.929111 0.99477 0.987629
0.659728 0.806002 0.872183 0.938473
0.90484 0.92392 1.00958 0.970051
0.767668 0.860522 0.933367 0.955782
0.912983 0.937843 0.98457 0.988749
0.896044 0.925315 0.994103 0.974111
0.737809 0.84599 0.910345 0.958015
0.998321 1 0.99878 0.99954
1.01233 1 1.01336 0.998986
1.01476 1 1.01635 0.998433
0.959504 0.944322 1.01964 0.996505
1.02467 0.981744 1.04449 0.999273
1.01364 0.996631 1.01817 0.998922
1.01704 0.993768 1.02409 0.999344
0.969804 0.95827 1.01514 0.996943
0.993289 0.986662 1.0088 0.997931
0.769415 0.848495 0.954147 0.950377
0.848164 0.925405 0.95072 0.96404
0.837192 0.910815 0.946891 0.970722
0.995722 0.96655 1.03241 0.997843
0.892007 0.928107 0.973307 0.987461
0.840233 0.920716 0.950518 0.960094
0.877522 0.907879 0.994883 0.971535
0.75578 0.867001 0.912684 0.955115
0.705457 0.821317 0.908594 0.945343
0.956594 0.953079 1.00756 0.996154
0.737218 0.832738 0.930782 0.951129
0.747371 0.847597 0.920822 0.957571
0.872609 0.92279 0.960771 0.98423
0.88938 0.938114 0.973495 0.973864
0.948834 0.964873 0.985249 0.9981
0.768649 0.859622 0.933761 0.957601
0.921211 0.972756 0.970927 0.975369
0.882523 0.935793 0.958419 0.98399
0.99233 0.97743 1.01598 0.999274
0.987463 0.993204 0.995657 0.998556
0.994349 1.0012 0.995537 0.997611
1.00191 1.00094 1.00301 0.997968
1.00133 1.00246 1.002 0.996878
1.00031 1.00402 0.999428 0.996879
1.00722 1.00106 1.01048 0.995718
0.999032 1.00144 1.00167 0.995939
1.0224 1.02664 0.999043 0.996826
1.0025 1.00398 1.00319 0.995358
1.01656 1.02061 1 0.996036
1.04073 1.04432 0.999584 0.996976
1.04349 1.04662 0.999985 0.997021
1.04278 1.04666 1 0.9963
1.04041 1.04414 1 0.996428
1.0308 1.03483 1 0.996109
1.02791 1.03209 1 0.995946
1.01937 1.02361 1 0.995864
1.01942 1.02293 1 0.996565
1.01495 1.01863 1.00014 0.996245
1.01012 1.01286 1.00148 0.995828
1.00297 1.00578 1 0.997209
1.00685 1.01001 1 0.996876
1.00191 1.00506 1 0.99687
1.00335 1.00016 1.00503 0.998168
1.00233 1.00246 1.00234 0.997533
1.00214 1.00347 1.00145 0.997239
1.00052 1 1.00077 0.999759
1.00484 1 1.00624 0.998603
1.00558 1.0007 1.00696 0.997933
1 1 1 1
0.99997 1 1.0001 0.999867
1.00255 1 1.00354 0.99902
1 1 1 1
0.999918 1 1 0.999918
1 1 1 1
0.999946 1.00014 1.00168 0.998128
1.00344 1 1.00523 0.998224
1.00347 1 1.00509 0.998393
0.999863 1 1.0007 0.999165
1.00049 1 1.00196 0.998531
1.00198 1 1.00369 0.998293
0.999936 1 1 0.999936
0.999294 1 1 0.999294
0.998821 1 1.00015 0.998673
1 1 1 1
0.999973 1 1 0.999973
0.999415 1 1 0.999415
1 1 1 1
0.999996 1 1 0.999996
1 1 1 1
0.743727 0.833424 0.942942 0.946373
0.839435 0.922123 0.945789 0.962507
0.829505 0.911219 0.941505 0.966883
1.00127 1.00007 1.00298 0.998228
1.00489 1.00204 1.00492 0.997926
1.00907 1 1.01102 0.998073
1.00034 1 1.00213 0.998206
0.999956 1 1.00167 0.998286
1.00374 1 1.00541 0.998341
1.01257 1 1.01442 0.998179
1.01101 1 1.01309 0.99795
1.01306 1.00033 1.01493 0.997832
0.988447 1.00082 0.988654 0.998972
1.00615 1 1.0078 0.998368
1.01698 0.999721 1.01872 0.998569
0.747342 0.843835 0.926962 0.955432
0.698134 0.807847 0.917521 0.941876
0.834667 0.923034 0.9492 0.95266
0.647637 0.796244 0.870662 0.934192
0.769104 0.861968 0.931012 0.958382
0.89372 0.919008 1.00049 0.972008
0.919247 0.934981 0.998083 0.985059
0.902834 0.930605 0.983391 0.986544
0.739644 0.840079 0.920281 0.956714
0.878455 0.914778 0.98846 0.971504
0.892041 0.936285 0.964539 0.987773
0.877568 0.936921 0.964369 0.971259
1.00328 1 1.00426 0.999021
0.99794 1 0.998455 0.999484
1.01199 1 1.01301 0.998991
0.967148 0.957803 1.0128 0.99699
1.01652 0.994037 1.02329 0.999344
0.994003 0.987862 1.00837 0.997868
0.98014 0.991634 0.991427 0.996955
0.779791 0.876608 0.925662 0.960993
0.769493 0.847111 0.955103 0.951073
0.849204 0.926706 0.948769 0.96585
0.959677 0.959774 1.0036 0.996308
0.875187 0.922715 0.963168 0.984763
0.738113 0.833388 0.931053 0.951264
0.873277 0.929561 0.967638 0.97087
0.758162 0.853285 0.92542 0.960127
0.95236 0.967341 0.987386 0.997091
0.778098 0.869339 0.933031 0.959287
0.916684 0.973084 0.969656 0.97152
0.886726 0.938187 0.958071 0.986512
0.959606 0.984796 0.97639 0.997983
0.925075 0.979935 0.968509 0.974712
0.927384 0.976964 0.960088 0.988712
0.978532 0.991989 0.987783 0.998635
0.990853 1.00166 0.991612 0.997583
0.98177 1.0076 0.976837 0.997473
1.00319 1.00278 1.00356 0.996859
0.999672 1.00416 0.998648 0.996875
1.02283 1.03442 0.991251 0.99752
0.998803 1.001 1.00186 0.995949
1.02152 1.02643 0.998399 0.996807
1.03697 1.04639 0.993426 0.997551
1.01557 1.0196 1 0.996047
1.0398 1.04388 0.99912 0.99697
1.04219 1.04754 0.997367 0.997513
1.04048 1.04358 0.999635 0.997391
1.04437 1.04755 0.999872 0.997091
1.04274 1.04601 1 0.996872
1.04424 1.04805 1 0.996364
1.0428 1.04666 1 0.996316
1.04088 1.04457 1 0.996472
1.0319 1.03568 1 0.996356
1.03248 1.03648 1 0.99614
1.02636 1.03047 1 0.996005
1.01309 1.01623 1 0.996915
1.01855 1.02207 1 0.996562
1.0151 1.01873 1.00017 0.996272
0.998981 1.00085 1.00026 0.997873
1.00458 1.0074 1 0.997205
1.00752 1.01068 1 0.99687
1.00154 1 1.00202 0.999524
1.00303 1.00035 1.00452 0.99817
1.00423 1.0037 1.003 0.997531
1 1 1 1
1.00133 1 1.0016 0.999734
1.00407 1 1.00548 0.9986
0.999997 1 1 0.999997
1.00049 1 1.00063 0.999852
1 1 1 1
0.998677 1.00065 1 0.998025
1.00113 1.00014 1.00285 0.998144
1.00396 1 1.00571 0.998256
1.00156 1 1.00336 0.99821
1.00364 1 1.00526 0.998393
1.00136 1 1.00236 0.999009
0.999896 1 1 0.999896
0.999694 1 1.00053 0.999167
1.00147 1 1.00294 0.998529
1 1 1 1
0.999945 1 1 0.999945
0.999298 1 1 0.999298
1 1 1 1
0.99998 1 1 0.99998
1 1 1 1
0.777224 0.864846 0.936934 0.959175
0.746471 0.835795 0.94318 0.946932
0.83923 0.922285 0.945385 0.962515
1.00397 1 1.00578 0.998207
1.01132 1 1.01342 0.997924
1.00282 1.00121 1.00362 0.998
1.00216 1.00415 1.00088 0.997143
1.01131 1.00115 1.01225 0.997921
1.0113 1 1.01318 0.998147
1.00912 1 1.01114 0.997999
1.01618 1.00053 1.01776 0.997908
0.999335 1.00191 0.999819 0.997615
0.978655 1.00159 0.978502 0.998572
0.977812 1.00035 0.979706 0.997716
0.988591 1.00076 0.988813 0.999012
1.01144 1 1.01292 0.998544
0.90591 0.964013 0.965278 0.973532
0.743988 0.839727 0.92619 0.956594
0.697226 0.80852 0.914866 0.942596
0.737703 0.842962 0.917212 0.954122
0.889431 0.925967 0.988915 0.97131
0.906844 0.927102 0.989193 0.988836
0.893057 0.935323 0.965028 0.989413
0.895008 0.941217 0.975448 0.974839
0.919319 0.969827 0.958916 0.988533
0.994036 1.00132 0.994499 0.998218
1.00307 1 1.00408 0.998999
0.997765 1 0.998336 0.999428
0.995788 0.990431 1.00758 0.997843
0.986153 0.995054 0.993884 0.997153
0.901099 0.966977 0.956709 0.974039
0.787497 0.875037 0.936237 0.961251
0.76884 0.844278 0.956763 0.951801
0.95782 0.972537 0.988798 0.996025
0.890612 0.942663 0.959988 0.984161
0.776165 0.866187 0.93452 0.958857
0.910183 0.963049 0.969544 0.974794
0.96716 0.984537 0.984259 0.998061
0.934359 0.989619 0.967777 0.975597
0.923986 0.972843 0.963026 0.986245
0.979339 1.00404 0.977887 0.997455
0.952412 0.993609 0.966097 0.992176
0.991618 1.00416 0.98991 0.997577
0.980956 1.00731 0.976352 0.997424
0.996585 1.03444 0.96557 0.997762
0.999123 1.00414 0.998123 0.99687
1.02375 1.03497 0.991647 0.997493
1.03442 1.05417 0.983396 0.997831
1.02051 1.0262 0.997661 0.996788
1.03647 1.04652 0.992852 0.997527
1.03225 1.04636 0.988741 0.997755
1.03866 1.04327 0.998617 0.996964
1.04212 1.04796 0.996926 0.997492
1.03969 1.04649 0.995901 0.997589
1.0408 1.04405 0.999442 0.997445
1.03905 1.04219 0.999782 0.997202
1.04509 1.04833 0.999743 0.997161
1.04263 1.04591 1 0.996864
1.04479 1.04828 1 0.996671
1.04139 1.04514 1 0.996406
1.04405 1.04788 1 0.996353
1.04282 1.04666 1 0.996333
1.02595 1.02935 1 0.996701
1.03153 1.03529 1 0.996366
1.03422 1.03819 1 0.996171
1.00154 1.00389 1 0.997651
1.01328 1.01642 1 0.996913
1.01751 1.02102 1 0.996558
1.00027 1 1.00102 0.999256
1 1.00163 1.0005 0.997873
1.00591 1.00873 1 0.997201
1 1 1 1
1.00137 1 1.00187 0.999499
1.00224 1.00053 1.00355 0.998171
1 1 1 1
1.00154 1 1.00183 0.999709
1 1 1 1
1.00307 1.00582 1 0.997268
0.99899 1.00098 1 0.998013
1.00027 1 1.00223 0.998047
1.00277 1 1.00461 0.998161
1.00338 1 1.00517 0.998224
1.00306 1 1.00428 0.998783
1.00406 1 1.00568 0.998393
1.00095 1 1.00194 0.99901
0.999847 1 1 0.999842
1 1 1 1
0.999907 1 1 0.999907
0.999441 1 1.00027 0.999169
1 1 1 1
0.999954 1 1 0.999954
1 1 1 1
0.924893 0.980812 0.965511 0.976671
0.777062 0.871164 0.92916 0.959987
0.751588 0.839141 0.947112 0.945679
1.01272 1 1.01498 0.997775
1.00077 1.00076 1.00194 0.998075
1.00936 1.00109 1.0104 0.99788
1.00349 1.00517 1.00111 0.997223
1.01273 1.01586 1.00016 0.996752
0.999626 1.00213 1 0.997503
1.02053 1.00086 1.02171 0.997982
0.999955 1.00255 1 0.997413
0.984652 1.00186 0.984242 0.998555
0.995571 1.00151 0.996432 0.997634
0.975079 1.00335 0.973953 0.997809
0.995082 1.00129 0.99648 0.997306
0.979563 1.00082 0.980875 0.997845
0.992548 1.00066 0.992831 0.999052
0.926091 0.976203 0.959648 0.988557
0.911678 0.969435 0.965815 0.973709
0.748413 0.841067 0.927266 0.959636
0.896409 0.943444 0.978755 0.97077
0.898345 0.934804 0.970321 0.990393
0.921939 0.966274 0.961935 0.991873
0.985613 1.00377 0.98441 0.997465
0.992004 1.00067 0.993136 0.998191
1.00292 1 1.00395 0.998978
0.987936 0.997345 0.993216 0.997332
0.938154 0.973772 0.974271 0.988865
0.91649 0.973893 0.962563 0.977659
0.775412 0.869019 0.930517 0.958912
0.966719 0.980553 0.987736 0.998133
0.927745 0.977661 0.96056 0.987907
0.938544 0.987686 0.973199 0.976414
0.971761 1.00224 0.972019 0.997502
0.951048 0.989617 0.969356 0.991406
0.972663 1.02444 0.951862 0.997475
0.994245 1.01687 0.981283 0.996398
0.979249 1.00704 0.974964 0.997369
0.994557 1.03282 0.965114 0.997757
1.00432 1.05532 0.953801 0.997771
1.0253 1.03611 0.992081 0.997466
1.03416 1.05395 0.983378 0.997811
1.02978 1.0505 0.98253 0.997707
1.03643 1.04689 0.992484 0.997504
1.03211 1.04572 0.989227 0.997737
1.03923 1.05187 0.990402 0.997558
1.04226 1.04849 0.996572 0.997471
1.03769 1.04443 0.995955 0.997581
1.04 1.04547 0.997451 0.99731
1.0412 1.04456 0.999278 0.997499
1.03943 1.04252 0.99979 0.997248
1.04324 1.04651 1 0.996878
1.04258 1.04587 1 0.996855
1.04482 1.04832 1 0.99666
1.04356 1.04713 1 0.996588
1.03393 1.03745 1 0.996606
1.04144 1.04519 1 0.996409
1.0438 1.04764 1 0.996341
1.00743 1.01 1 0.997454
1.02502 1.02841 1 0.996704
1.03111 1.03486 1 0.996376
0.999197 1 1.00016 0.999037
1.00315 1.00551 1 0.997649
1.01336 1.0165 1 0.996911
1 1 1 1
1 1 1.00076 0.999239
1.00092 1.00238 1.00067 0.997874
1 1 1 1
1.00139 1 1.00191 0.999475
1 1 1 1
1.01359 1.0168 1 0.996849
1.00503 1.00775 1 0.997295
1.00442 1.00619 1.00066 0.997574
0.998962 1.00096 1 0.998
1.00013 1 1.00213 0.998004
1.00212 1.0001 1.00354 0.998483
1.00285 1 1.00467 0.998193
1.00311 1 1.00433 0.998784
1.00086 1 1.0011 0.99976
1.00084 1 1.00183 0.99901
0.999888 1 1.00004 0.999852
1 1 1 1
1 1 1 1
0.999918 1 1 0.999918
1 1 1 1
0.928941 0.976444 0.961698 0.989242
0.916411 0.980141 0.960426 0.973503
0.770098 0.864041 0.927209 0.961245
1.02801 1.03149 1.00007 0.996562
1.00752 1.0008 1.00889 0.997839
1.00481 1.00617 1.00135 0.997304
0.99958 1.0021 1 0.997485
1.01179 1.01467 1.00042 0.996734
1.00317 1.00589 0.999875 0.997423
0.999757 1.00255 1 0.997211
0.986472 1.00149 0.986444 0.998537
0.993364 1.00177 0.993947 0.997646
0.968702 1.00229 0.968715 0.997702
1.00345 1.01053 0.995994 0.996981
0.999966 1.00689 0.995775 0.997334
0.995846 1.00195 0.996624 0.997271
0.980302 1.00134 0.980982 0.997974
0.983779 1.00613 0.979787 0.99796
0.92141 0.974091 0.958103 0.987283
0.912877 0.970987 0.964948 0.974304
0.915919 0.960132 0.96389 0.98969
0.988289 1.00533 0.984858 0.998166
0.99202 1.0002 0.993652 0.998158
0.985015 1.00668 0.982363 0.996044
0.923897 0.959398 0.972427 0.990303
0.903962 0.970704 0.955944 0.974161
0.968391 1.00014 0.970637 0.997548
0.958409 0.991611 0.975893 0.990393
0.97637 1.02557 0.954332 0.997581
0.99638 1.01654 0.983456 0.996656
0.992781 1.03992 0.956963 0.997606
1.04295 1.05637 0.989811 0.99746
0.991735 1.03066 0.964405 0.997751
1.0085 1.05667 0.956564 0.997757
1.01862 1.06161 0.961848 0.997564
1.03311 1.05321 0.983083 0.997792
1.02795 1.04932 0.981895 0.997703
1.03847 1.05793 0.984115 0.997443
1.03165 1.04491 0.989563 0.997718
1.03789 1.05068 0.990231 0.997571
1.04191 1.05111 0.993974 0.997259
1.03563 1.04236 0.99596 0.997574
1.04052 1.04595 0.997489 0.997308
1.04547 1.04902 0.999629 0.996982
1.03978 1.04282 0.999796 0.997293
1.0436 1.04683 1 0.996921
1.04561 1.04912 1 0.996651
1.04483 1.04835 1 0.996649
1.04333 1.04692 1 0.996571
1.03674 1.04024 1 0.996635
1.013 1.01571 1 0.997332
1.03321 1.03672 1 0.996622
1.0415 1.04525 1 0.996412
0.998952 1.00006 1 0.998888
1.00899 1.01157 1 0.997454
1.02428 1.02767 1 0.996708
1 1 1 1
0.999047 1 1.00002 0.999024
1.00489 1.00726 1 0.997647
1 1 1 1
0.999604 1 1.00038 0.999223
1 1 1 1
1.02728 1.03084 1 0.99655
1.01523 1.01844 1 0.996847
1.01295 1.01582 1 0.997173
1.00706 1.00976 1.00001 0.997322
1.00326 1.00515 1.00056 0.997567
1.00181 1.00166 1.00199 0.998162
0.99987 1 1.00191 0.99796
1.00299 1 1.00451 0.998484
1.00137 1 1.00174 0.999628
1.00255 1 1.00377 0.998786
1.00025 1 1.00048 0.999771
1 1 1 1
0.999863 1 1 0.999863
1 1 1 1
1 1 1 1
0.979832 1.01057 0.971801 0.997723
0.923445 0.973596 0.961175 0.986802
0.91407 0.970638 0.963867 0.977024
1.01925 1.02233 1.00001 0.996981
1.03825 1.04177 1 0.996626
1.02602 1.02935 1.00013 0.996631
0.999795 1.00233 1 0.997466
1.01102 1.01361 1.00073 0.996714
1.00411 1.00775 0.998989 0.997397
1.02047 1.02526 0.998392 0.996931
0.992537 1.00274 0.992151 0.997658
0.965154 1.00183 0.965712 0.997594
1.00464 1.01225 0.995408 0.99707
1.02259 1.03111 0.994923 0.996798
1.005 1.02489 0.982984 0.997567
1.00276 1.00874 0.996772 0.997294
0.9973 1.00262 0.997448 0.997234
0.988326 1.00794 0.982309 0.9982
0.925004 0.976494 0.960815 0.985904
0.988205 1.00572 0.983682 0.998888
1.02275 1.04379 0.981733 0.998071
0.982747 1.00539 0.981237 0.996168
0.927767 0.970305 0.967662 0.988114
0.979334 1.02699 0.955808 0.997681
0.998417 1.01669 0.985057 0.996929
0.990789 1.04046 0.954416 0.997742
1.04257 1.05783 0.988068 0.997476
1.03734 1.06778 0.973955 0.997465
1.07053 1.08661 0.987571 0.9976
1.01275 1.05875 0.958712 0.997743
1.02401 1.06275 0.965899 0.997564
1.04181 1.06742 0.97861 0.997347
1.02643 1.04829 0.981408 0.997699
1.03825 1.05707 0.984712 0.997442
1.04234 1.05666 0.989197 0.997225
1.03661 1.04952 0.990095 0.997584
1.04241 1.0516 0.993994 0.997256
1.04753 1.05308 0.997741 0.996987
1.041 1.0464 0.997527 0.997306
1.0458 1.04933 0.999647 0.996981
1.04867 1.05217 1 0.996677
1.04396 1.04714 1 0.996963
1.0451 1.0486 1 0.996664
1.03952 1.04305 1 0.996619
1.04314 1.04675 1 0.996553
1.03666 1.04016 1 0.996632
1.01526 1.01805 1 0.997265
0.999222 1.00039 1 0.998827
1.01346 1.01617 1 0.997332
1.03258 1.03606 1 0.996638
1 1 1 1
0.99901 1.00013 1 0.998877
1.0106 1.01318 1 0.997454
1 1 1 1
0.99901 1 1 0.99901
1 1 1 1
1.03583 1.03948 1 0.996487
1.02695 1.03051 1 0.996541
1.02055 1.02375 1 0.996871
1.01639 1.01961 1 0.996845
1.01173 1.01459 1 0.997181
1.00374 1.00553 1.00035 0.997875
1.00191 1.0039 1.00046 0.997561
1.00177 1.00112 1.00249 0.998165
1.00053 1 1.00112 0.999414
1.00457 1 1.0061 0.998486
1.00125 1 1.00161 0.999644
1 1 1 1
1.00002 1 1.00024 0.999782
1 1 1 1
1 1 1 1
1.00562 1.03839 0.970353 0.998033
0.976832 1.00952 0.970568 0.996963
0.923842 0.975444 0.959073 0.987516
1.03305 1.03635 1 0.996812
1.02072 1.02362 1 0.997175
1.05314 1.05664 1 0.996692
1.03886 1.04239 1 0.99661
1.02409 1.0273 1.00018 0.996701
1.04443 1.05067 0.997356 0.996692
1.00494 1.00968 0.997929 0.997372
1.02046 1.02469 0.999009 0.996869
1.04132 1.06103 0.984411 0.996969
1.00462 1.01372 0.993846 0.997159
1.02302 1.03176 0.994769 0.996741
1.0063 1.0268 0.982393 0.997601
1.00315 1.009 0.996944 0.997251
0.993365 1.00973 0.985342 0.998426
1.05588 1.07775 0.982022 0.997644
1.02455 1.04336 0.983845 0.998094
0.98133 1.00409 0.980974 0.996288
0.989536 1.04026 0.953266 0.997876
1.04111 1.05816 0.986362 0.997494
1.03289 1.06685 0.970613 0.997487
1.07168 1.08862 0.986815 0.997593
1.05952 1.08079 0.9828 0.997482
1.02906 1.06353 0.969953 0.997565
1.04254 1.06679 0.979858 0.997357
1.04377 1.06195 0.985594 0.997249
1.03799 1.05618 0.985298 0.997441
1.04232 1.05642 0.989417 0.997205
1.04658 1.05577 0.99431 0.996972
1.04295 1.05211 0.994018 0.997252
1.04772 1.05325 0.997765 0.996983
1.05165 1.05529 0.999859 0.996689
1.04614 1.04967 0.999665 0.99698
1.04853 1.05202 1 0.99668
1.04326 1.04684 1 0.996577
1.04459 1.04807 1 0.996678
1.0396 1.04312 1 0.996624
1.01624 1.0191 1 0.997194
1.03655 1.04006 1 0.996629
1.01548 1.01827 1 0.997264
0.999735 1.00071 1 0.999026
0.999627 1 1 0.999627
0.999353 1.00044 1 0.998913
1.01368 1.01639 1 0.997331
1 1 1 1
0.998995 1.00013 1 0.998865
1 1 1 1
1.059 1.06242 1 0.996781
1.04484 1.0484 1 0.9966
1.0368 1.04045 1 0.996492
1.02846 1.03184 1 0.996725
1.02701 1.03058 1 0.996531
1.02168 1.02489 1 0.996869
1.00836 1.01075 1 0.997634
1.01074 1.01359 1 0.997188
1.00259 1.00425 1.00047 0.997877
0.999274 1 1.00012 0.999152
1.00151 1.00052 1.00282 0.998167
1.00071 1 1.00127 0.999434
1 1 1 1
1.00072 1 1.00105 0.999661
1 1 1 1
1 1 1 1
1.0492 1.07625 0.977414 0.997392
1.00994 1.04426 0.968986 0.998087
0.973842 1.00962 0.96823 0.996215
1.05007 1.05443 0.999144 0.996717
1.03032 1.03356 1 0.996864
1.02186 1.02456 1 0.997367
1.05179 1.05526 1 0.996709
1.0395 1.04305 1 0.996594
1.05216 1.07018 0.986167 0.99695
1.04101 1.04762 0.997028 0.996653
1.02028 1.02372 0.999832 0.996806
1.03983 1.05935 0.984554 0.996965
1.02628 1.03461 0.995249 0.996683
1.01145 1.03289 0.98156 0.997643
1.05968 1.07829 0.985119 0.997581
1.05906 1.08003 0.982864 0.997679
1.0256 1.0432 0.984984 0.99812
1.02993 1.06718 0.967507 0.997508
1.07378 1.09155 0.986098 0.997587
1.05951 1.08173 0.981926 0.997489
1.05007 1.06385 0.989674 0.997345
1.04323 1.06609 0.981135 0.997366
1.04408 1.06166 0.986168 0.997237
1.04761 1.05792 0.993225 0.997008
1.04233 1.05622 0.989631 0.997186
1.04723 1.0564 0.994329 0.996971
1.05385 1.05806 0.999324 0.996695
1.04789 1.05339 0.997789 0.99698
1.05194 1.05558 0.999855 0.99669
1.046 1.04964 1 0.996528
1.0484 1.05189 1 0.996683
1.04343 1.04701 1 0.996581
1.01749 1.02045 1 0.9971
1.03966 1.04318 1 0.996629
1.01677 1.01963 1 0.997193
0.9997 1.00066 1 0.999038
1.01568 1.01847 1 0.997262
0.999762 1.00074 1 0.999021
0.99965 1 1 0.99965
0.999821 1 1 0.999821
0.99962 1.00061 1 0.999006
1 1 1 1
1.0538 1.05796 0.999284 0.996777
1.05 1.05351 1 0.996667
1.0579 1.06119 1 0.996905
1.0387 1.04218 1 0.99666
1.04685 1.05044 1 0.996588
1.03769 1.04133 1 0.996496
1.02942 1.03281 1 0.996718
1.01356 1.01616 1 0.997437
1.02264 1.02585 1 0.996868
1.00672 1.00911 1 0.997635
0.998947 1 1 0.998947
1.00131 1.00291 1.00052 0.99788
0.999552 1 1.00038 0.999171
1 1 1 1
1.00105 1 1.0016 0.999454
1 1 1 1
1 1 1 1
1.05064 1.07238 0.982405 0.99728
1.04658 1.07345 0.977525 0.997388
1.01258 1.04743 0.968539 0.998132
1.05229 1.06337 0.992689 0.996866
1.04734 1.05195 0.998897 0.996717
1.02796 1.03114 1 0.996917
1.05024 1.05369 1 0.996726
1.05067 1.06836 0.986476 0.996925
1.03752 1.04448 0.996715 0.996613
1.03404 1.05315 0.984845 0.996961
1.05394 1.06757 0.989795 0.997407
1.05811 1.07654 0.985304 0.997541
1.06202 1.08188 0.983898 0.997713
1.04869 1.0589 0.993094 0.997244
1.05899 1.08229 0.980927 0.997496
1.04999 1.06395 0.98952 0.997331
1.04946 1.05878 0.994067 0.99711
1.04443 1.06137 0.986778 0.997224
1.04776 1.05811 0.993189 0.99701
1.05425 1.05933 0.998485 0.996712
1.04782 1.05698 0.994351 0.99697
1.05352 1.05776 0.999291 0.996696
1.04703 1.05071 1 0.996495
1.05214 1.05579 0.999851 0.99669
1.04607 1.04972 1 0.996531
1.01843 1.02148 1 0.99701
1.04357 1.04714 1 0.996585
1.01789 1.02085 1 0.997101
0.999337 1.00032 1 0.999012
1.01738 1.02024 1 0.997193
0.999625 1.0006 1 0.999026
0.999655 1 1 0.999655
0.999802 1.00079 1 0.999018
0.999658 1 1 0.999658
1 1 1 1
1.0527 1.05887 0.997482 0.996681
1.0524 1.05597 1 0.99662
1.0555 1.0597 0.999259 0.996776
1.04504 1.04851 1 0.996689
1.05133 1.05481 1 0.996701
1.05697 1.06012 1 0.997027
1.01767 1.02045 1 0.997279
1.03855 1.04204 1 0.99665
1.04909 1.05269 1 0.996576
1.03032 1.03372 1 0.996711
1.01222 1.01482 1 0.997438
0.999465 1.00062 1 0.998844
1.00516 1.00754 1 0.997636
0.999021 1.00006 1 0.998962
1 1 1 1
0.999778 1 1.00059 0.999189
1 1 1 1
1 1 1 1
1.04879 1.06321 0.989254 0.997152
1.05055 1.07256 0.982172 0.997263
1.04623 1.07317 0.977454 0.997383
1.05165 1.06279 0.992607 0.996882
1.04427 1.04913 0.998645 0.996718
1.05018 1.06757 0.98677 0.996901
1.05039 1.06106 0.992679 0.997243
1.05423 1.06774 0.989928 0.9974
1.05664 1.07494 0.985431 0.997502
1.0491 1.05917 0.993209 0.997264
1.04899 1.05708 0.995274 0.997059
1.04989 1.06406 0.989338 0.997317
1.04972 1.05877 0.994365 0.99707
1.05367 1.05956 0.997638 0.9968
1.04793 1.05831 0.993152 0.997012
1.05389 1.05901 0.998442 0.996715
1.04728 1.05099 1 0.996475
1.0534 1.05768 0.999255 0.996698
1.04757 1.05125 1 0.996497
1.01874 1.02186 1 0.99695
1.0463 1.04994 1 0.996534
1.01857 1.02162 1 0.997011
0.999053 1.0001 1 0.998957
1.01836 1.02133 1 0.997101
0.999249 1.00025 1 0.998995
0.999634 1 1 0.999634
0.999511 1.00049 1 0.999019
0.999672 1 1 0.999672
0.999662 1 1 0.999662
1.05193 1.0608 0.994689 0.996938
1.05403 1.05791 0.999802 0.996532
1.05305 1.06017 0.996558 0.99671
1.04742 1.05098 1 0.996619
1.05156 1.05514 1 0.996608
1.05719 1.06142 0.999237 0.996775
1.01996 1.02285 1 0.997173
1.04487 1.04838 1 0.99666
1.05245 1.0559 1 0.996735
1.00024 1.00142 1 0.998817
1.01754 1.02032 1 0.997282
1.03866 1.04216 1 0.996641
1.01103 1.01362 1 0.99744
0.999334 1.00048 1 0.998856
1 1 1 1
0.998977 1 1 0.998977
1 1 1 1
1 1 1 1
1.04746 1.05814 0.992754 0.997137
1.04903 1.06331 0.98939 0.997144
1.04997 1.07217 0.981994 0.997246
1.05105 1.06226 0.992525 0.996899
1.04946 1.05617 0.996616 0.997017
1.05058 1.06111 0.992798 0.997254
1.05457 1.06787 0.99012 0.997394
1.04954 1.05944 0.993348 0.997285
1.04907 1.05728 0.995159 0.997069
1.05387 1.0592 0.998179 0.996787
1.05004 1.05879 0.994696 0.99703
1.05388 1.05942 0.998011 0.996751
1.04716 1.05103 0.999788 0.996525
1.05343 1.05859 0.998401 0.996718
1.04785 1.05155 1 0.996477
1.01814 1.0213 1 0.996906
1.04781 1.05149 1 0.996499
1.01856 1.02167 1 0.996951
0.998726 1.00001 1 0.998713
1.01863 1.02168 1 0.997012
0.998893 1.00004 1 0.998852
1 1 1 1
0.999115 1.00013 1 0.998981
0.999657 1 1 0.999657
0.999683 1 1 0.999683
1.04998 1.05753 0.995819 0.99703
1.05315 1.05798 0.998771 0.996663
1.05238 1.06055 0.995356 0.996928
1.04715 1.05084 1 0.996485
1.05291 1.05712 0.999464 0.996547
1.05344 1.06151 0.995641 0.996738
1.01975 1.02282 1 0.997002
1.04756 1.05111 1 0.996619
1.05076 1.05435 1 0.996595
0.999905 1.00109 1 0.99882
1.01949 1.02242 1 0.997133
1.04463 1.04816 1 0.996631
1 1 1 1
0.999972 1.00114 1 0.998829
1.01685 1.01962 1 0.997284
0.999221 1.00035 1 0.998868
1 1 1 1
1 1 1 1
1.04816 1.05476 0.996705 0.997029
1.04779 1.0583 0.992902 0.997144
1.0492 1.06339 0.989483 0.997136
1.05391 1.05846 0.998977 0.996725
1.04886 1.0559 0.996289 0.997029
1.05076 1.06116 0.992912 0.997265
1.0491 1.05747 0.994996 0.997079
1.0535 1.05896 0.998057 0.996788
1.04625 1.04995 0.999893 0.996585
1.05397 1.05922 0.998338 0.996701
1.04734 1.05112 0.999883 0.996521
1.01711 1.02035 1 0.99682
1.04857 1.05227 1 0.996479
1.01789 1.02104 1 0.996907
0.998676 1 1 0.998676
1.01848 1.02159 1 0.996951
0.998711 1 1 0.998711
1 1 1 1
0.99873 1 1 0.99873
0.999808 1 1 0.999808
0.999676 1 1 0.999676
1.04895 1.05524 0.997042 0.996985
1.05377 1.05788 0.999375 0.996732
1.04989 1.05737 0.99588 0.997037
1.0469 1.0506 1 0.996479
1.05409 1.05857 0.999119 0.996647
1.05282 1.0603 0.996018 0.996918
1.01875 1.0219 1 0.996912
1.04692 1.05059 1 0.996505
1.05176 1.05632 0.999115 0.996562
0.999172 1.00038 1 0.998797
1.01954 1.02262 1 0.996989
1.04768 1.05124 1 0.996619
1 1 1 1
1.00006 1.00123 1 0.998829
1.01929 1.02226 1 0.997092
1 1 1 1
0.999988 1.00115 1 0.99884
1 1 1 1
1.05359 1.0581 0.998966 0.996771
1.04767 1.05426 0.996733 0.997013
1.04806 1.0584 0.99306 0.997151
1.04568 1.04933 0.999941 0.996581
1.05338 1.05823 0.998668 0.996747
1.04826 1.05563 0.995964 0.997042
1.05317 1.05872 0.997967 0.996789
1.04616 1.04996 0.999793 0.996585
1.01611 1.01937 1 0.996808
1.04757 1.05123 1 0.996517
1.01699 1.02021 1 0.996844
0.998629 1 1 0.998629
1.01755 1.02071 1 0.996908
0.998673 1 1 0.998673
1 1 1 1
0.998708 1 1 0.998708
1 1 1 1
0.999651 1 1 0.999651
1.05479 1.05902 0.999254 0.996748
1.04816 1.05498 0.996524 0.997007
1.04644 1.0501 1 0.996517
1.05438 1.05841 0.999459 0.996731
1.04985 1.05727 0.995925 0.997045
1.01751 1.02063 1 0.996939
1.04633 1.05003 1 0.996475
1.05503 1.05915 0.999479 0.996631
0.998772 1.00003 1 0.998744
1.01901 1.02214 1 0.996935
1.04665 1.0503 1 0.996524
1 1 1 1
0.999385 1.00058 1 0.998803
1.01943 1.02252 1 0.996976
1 1 1 1
1.00011 1.00127 1 0.998838
1 1 1 1
1.04562 1.04919 0.999981 0.996608
1.05353 1.05793 0.999078 0.996759
1.0472 1.05376 0.996766 0.996998
1.01532 1.01856 1 0.996821
1.04557 1.04929 0.999873 0.996582
1.05283 1.05799 0.998352 0.996768
1.04606 1.04997 0.999692 0.996585
1.01619 1.01944 1 0.996807
0.998603 1 1 0.998603
1.0169 1.02009 1 0.996868
0.998627 1 1 0.998627
1 1 1 1
0.998671 1 1 0.998671
1 1 1 1
1 1 1 1
1.04637 1.05 1 0.996537
1.05456 1.0589 0.999102 0.996792
1.04735 1.05468 0.996015 0.997029
1.01665 1.01978 1 0.996939
1.04604 1.0497 1 0.996514
1.05498 1.05892 0.999542 0.99673
0.998696 1 1 0.998696
1.01795 1.02108 1 0.996937
1.0458 1.0495 1 0.996472
1 1 1 1
0.998875 1.00013 1 0.998748
1.0193 1.02241 1 0.996958
1 1 1 1
0.999509 1.0007 1 0.998808
1 1 1 1
1.01541 1.01858 1 0.996891
1.04544 1.04909 0.999931 0.996582
1.0535 1.05779 0.999196 0.996746
0.99862 1 1 0.99862
1.01545 1.0187 1 0.996819
1.04546 1.04925 0.999808 0.996582
1.01626 1.01952 1 0.996806
0.998603 1 1 0.998603
1 1 1 1
0.998624 1 1 0.998624
1 1 1 1
1 1 1 1
1.01597 1.0191 1 0.996924
1.04604 1.04967 0.999988 0.996558
1.05434 1.05878 0.998973 0.996835
0.998892 1 1 0.998892
1.01692 1.02004 1 0.996937
1.04562 1.04928 1 0.99651
1 1 1 1
0.998698 1 1 0.998698
1.01832 1.02146 1 0.996935
1 1 1 1
0.998965 1.00021 1 0.998751
1 1 1 1
0.99861 1 1 0.99861
1.01555 1.01874 1 0.996868
1.04527 1.04901 0.999872 0.996555
1 1 1 1
0.998619 1 1 0.998619
1.01558 1.01883 1 0.996816
0.998602 1 1 0.998602
1 1 1 1
1 1 1 1
0.998853 1 1 0.998853
1.01619 1.01933 1 0.996924
1.04568 1.04932 0.999957 0.99658
1 1 1 1
0.998672 1 1 0.998672
1.0172 1.02032 1 0.996936
1 1 1 1
0.998727 1.00003 1 0.998699
1 1 1 1
0.9996 1 1 0.9996
0.998741 1 1 0.998741
1.01567 1.01888 1 0.996845
1 1 1 1
0.99862 1 1 0.99862
1 1 1 1
0.999614 1 1 0.999614
0.998758 1 1 0.998758
1.01644 1.01958 1 0.996924
0.999805 1 1 0.999805
0.998673 1 1 0.998673
1 1 1 1
1 1 1 1
0.998642 1 1 0.998642
1 1 1 1
0.999805 1 1 0.999805
0.99866 1 1 0.99866
1 1 1 1
1 1 1 1
1 1 1 1

VECTORS lamdaE float
1.00148 1.00009 0.99354
1.00104 1.00078 0.996818
1.00101 1.0003 0.993852
1.00157 1.00005 0.993446
1.00155 0.999958 0.993578
1.00146 1.00033 0.993329
1.00285 1.00042 0.99049
1.00105 1.00072 0.996814
1.00097 1.00014 0.997316
1.00048 1.00092 0.997329
1.00087 1.00095 0.993498
1.00255 1.00128 0.989186
1.00108 0.999983 0.994049
1.00087 1.00001 0.994144
1.00059 1.00051 0.994135
1.00122 1.00004 0.993792
1.00093 1.00069 0.993611
1.00116 1 0.993906
1.00308 1.00025 0.990349
1.00111 1.00002 0.996974
1.00147 1.00009 0.99353
1.00159 0.999973 0.993515
1.00292 1.00016 0.990653
1.00295 1.00016 0.990597
1.00143 1.00053 0.9931
1.00273 1.00091 0.990235
1.00523 1.00082 0.985897
1.00105 1.00067 0.996822
1.00119 1.00002 0.995487
1.00081 1.00065 0.995464
1.00095 1.00076 0.996873
1.00246 1.00143 0.989198
1.00148 0.999809 0.993578
1.00125 1.00018 0.993674
1.00324 1.00006 0.990904
0.999997 1.00103 0.997607
1.00301 1.0007 0.990778
1.00221 1.0019 0.989143
1.00465 1.00143 0.985544
1.00021 0.999593 0.997923
1.00111 0.99999 0.996967
1.00109 1.00002 0.99551
1.00103 0.999972 0.997024
1.00068 1.00005 0.994386
1.00277 0.999936 0.990239
1.00108 0.999957 0.997238
1.0032 1.00007 0.990979
1.00088 0.999977 0.994137
1.00079 1.00005 0.994221
1.00043 1.00106 0.993873
1.00328 1.00008 0.990222
1.00092 1.00004 0.995674
1.00111 1.00011 0.993874
1.00087 1.00101 0.993363
1.00124 0.999947 0.993854
1.00307 1.00013 0.990483
1.00298 1.00064 0.9901
1.00313 1.00006 0.990448
1.00522 1.00081 0.98592
1.00101 1 0.997021
1.00131 1.00007 0.993752
1.00252 0.999995 0.991945
1.00278 1.00016 0.990857
1.00297 1.00012 0.990618
1.00514 1.00027 0.986524
1.00521 1.00032 0.986299
1.00116 1.00051 0.993402
1.00222 1.00188 0.990027
1.00522 1.0011 0.985675
1.00528 1.00029 0.985576
1.00148 1.00005 0.996842
1.00086 1.00067 0.997036
1.00114 1.00054 0.996826
1.00237 1.00153 0.989204
1.00154 0.999932 0.996781
1.00135 1.00024 0.996861
1.00311 1 0.98947
1.00026 1.00082 0.995858
1.00275 1.00074 0.98934
1.00207 1.00213 0.990054
1.00472 1.00127 0.985531
1.00049 1.00015 0.997499
1.00031 1.00212 0.992273
1.00327 0.99997 0.989308
1.00313 1.00012 0.989412
1.00523 1.00036 0.98568
1.00151 1.00258 0.991412
1.00502 1.00079 0.985545
1.00375 1.00275 0.985724
1.0053 1.00139 0.984372
1.00002 0.998713 0.99837
1.00006 0.999329 0.998111
1.00141 0.99999 0.996783
1.00117 0.999988 0.996943
1.00107 0.999978 0.99702
1.00094 1 0.995671
1.00281 0.999927 0.990923
1.00126 0.999964 0.995412
1.00313 1.00009 0.990271
1.00103 0.999984 0.997039
1.00261 0.999839 0.990539
1.00302 1.00005 0.991302
1.00495 0.999334 0.98729
1.00328 1 0.990881
1.00519 0.999701 0.986521
1.00106 0.999994 0.994083
1.00073 1.00013 0.994222
1.00031 1.00154 0.993625
1.0009 0.999883 0.99419
1.00322 1.00015 0.990313
1.00331 0.999977 0.990307
1.00325 1.00035 0.989975
1.0052 1.0008 0.985944
1.00106 0.999985 0.99703
1.00096 1.00007 0.994094
1.0027 0.999953 0.990793
1.00293 1.00014 0.990679
1.00092 1.00094 0.995106
1.00259 1.00168 0.990089
1.00313 1.00006 0.990462
1.00516 1.00012 0.986682
1.00519 1.00109 0.9857
1.00521 1.00048 0.986191
1.00528 1.00029 0.98561
1.0026 0.999882 0.990542
1.00262 1.00006 0.991171
1.00486 0.999173 0.988101
1.00505 0.999754 0.987142
1.00517 1.00011 0.98658
1.00533 0.99869 0.987367
1.00051 1.00073 0.997275
1.00531 0.999602 0.986235
1.00165 1.00284 0.98897
1.00484 1.00143 0.985174
1.00529 1.00103 0.984883
1.00523 0.998352 0.987443
1.00085 1.00296 0.990375
1.00191 1.0046 0.986998
1.00155 0.999951 0.996801
1.00132 1.00028 0.996842
1.00313 0.999973 0.989459
1.00046 1.0005 0.997392
1.00172 1.00244 0.989341
1.00273 1.00075 0.989364
1.00482 1.00114 0.985519
1.00031 1.0001 0.997652
1.0002 1.00219 0.992299
1.00329 0.999999 0.990086
1.00315 1.00018 0.99013
1.00523 1.00037 0.985655
1.00111 1.00278 0.990094
1.00506 1.00076 0.985528
1.00399 1.00238 0.985713
1.00532 1.00129 0.984509
1.00069 1.00254 0.991049
1.00011 1.00132 0.993435
1.00164 1.00472 0.98783
1.00524 1.00016 0.985893
1.00519 1.00053 0.985555
1.0053 0.999409 0.986531
1.00314 1.00324 0.986264
1.00531 1.0005 0.985405
1.00509 1.00197 0.98414
1.00531 1.00045 0.985196
0.999967 0.998239 0.998651
0.999947 0.998677 0.99849
0.999957 0.99919 0.998283
1.00059 1.00277 0.991049
1.00028 1.00047 0.997533
1.00154 0.999953 0.996762
1.00126 0.999996 0.99686
1.00297 1.00013 0.989629
1.0027 0.999927 0.990303
1.00105 0.999977 0.997008
1.00101 0.999978 0.997035
1.0026 0.999851 0.990532
1.00294 1.00003 0.990606
1.00494 0.999336 0.987289
1.00314 1.00005 0.989408
1.00515 0.999723 0.986519
1.00256 0.999845 0.990604
1.00488 0.999218 0.987508
1.00506 0.999509 0.986931
1.00534 0.996831 0.98931
1.00524 0.999918 0.986172
1.00534 0.997614 0.988483
1.00102 0.999984 0.997029
1.00058 1.00013 0.994435
1.00272 0.999949 0.989786
1.00309 1.00014 0.990498
1.00021 1.00147 0.997241
1.00309 1.00128 0.990153
1.00328 1.00004 0.990307
1.00518 0.999957 0.98684
1.00522 1.00062 0.98608
1.00512 1.00111 0.985727
1.00529 1.00028 0.985645
1.00258 0.999875 0.990546
1.00278 1.00008 0.990993
1.0049 0.999153 0.987814
1.00509 0.999907 0.986994
1.00065 1.00077 0.99716
1.0019 1.00257 0.989833
1.00469 1.00178 0.985401
1.00519 1.00015 0.986537
1.00533 0.998322 0.987741
1.00529 1.00094 0.984969
1.00531 0.999731 0.9862
1.00523 0.998369 0.987461
1.00091 1.00286 0.99036
1.00198 1.00451 0.987001
1.00485 0.999284 0.987496
1.00496 0.999479 0.987651
1.00534 0.997431 0.988717
1.00535 0.997507 0.988485
1.00533 0.998851 0.987052
1.00525 0.996111 0.989943
1.00117 1.00305 0.989642
1.00525 0.997284 0.988532
1.00404 1.00247 0.98537
1.00531 1.00158 0.984156
1.00523 0.999789 0.986152
1.0052 0.996599 0.989371
1.00283 1.00372 0.986261
1.0012 1.00508 0.987779
1.00368 1.00253 0.986234
1.00317 0.999981 0.989401
1.00012 0.999922 0.997828
1.00008 1.00222 0.992322
1.003 1.00019 0.989459
1.00524 1.00038 0.985629
1.00105 1.00297 0.990026
1.00415 1.00198 0.985701
1.00508 1.00075 0.985512
1.00533 1.00118 0.984644
1.00065 1.00266 0.991057
1.00003 1.00127 0.993474
1.00131 1.00492 0.98779
1.00524 1.00018 0.985867
1.0052 1.00052 0.985536
1.0053 0.999412 0.986507
1.00324 1.00304 0.986278
1.00531 1.0006 0.985306
1.00523 1.00192 0.984101
1.00531 1.00021 0.985383
1.0001 1.00044 0.994258
1.0025 1.00393 0.986936
1.00097 1.00454 0.98898
1.00273 1.00333 0.987184
1.0053 0.998759 0.987235
1.00531 1.00005 0.985839
1.00524 0.997522 0.98831
1.00477 1.00196 0.984731
1.00525 0.999045 0.986892
1.00532 1.00131 0.984645
1.0053 0.999366 0.986307
1.00023 1.0019 0.992592
1.00028 0.999227 0.995147
0.999995 0.997763 0.998813
0.999944 0.99812 0.998713
0.999897 0.998534 0.998584
1.00018 1.00257 0.99192
1.00014 1.0001 0.997785
1.00065 1.00271 0.991016
1.00038 1.00054 0.997444
1.00312 1.00009 0.989414
1.00284 1.00002 0.989975
1.00512 0.999746 0.986517
1.00492 0.999342 0.987287
1.00261 0.999866 0.990531
1.00106 0.999967 0.997033
1.00258 0.999839 0.990607
1.00487 0.999228 0.98751
1.00504 0.999525 0.986929
1.00533 0.996843 0.989319
1.00522 0.999943 0.986153
1.00533 0.997604 0.988476
1.00485 0.999215 0.987559
1.00532 0.996652 0.989539
1.00536 0.997177 0.988927
1.00526 0.994937 0.99125
1.00531 0.998132 0.987918
1.00523 0.995423 0.990687
1.00258 0.999874 0.990555
1.00294 1.00005 0.990815
1.00493 0.999113 0.987529
1.00512 1.00005 0.986845
1.00078 1.00082 0.997028
1.00225 1.00238 0.990491
1.00466 1.00206 0.985625
1.00521 1.00019 0.986494
1.00533 0.997958 0.988115
1.0053 0.999866 0.986166
1.0053 1.00084 0.985056
1.00524 0.998383 0.987478
1.00095 1.00279 0.990346
1.00203 1.00442 0.987004
1.00486 0.999097 0.98766
1.00499 0.999455 0.987626
1.00534 0.997233 0.988927
1.00535 0.997908 0.988096
1.00125 1.00298 0.98964
1.00397 1.00268 0.985395
1.00531 1.00169 0.984054
1.00533 0.999071 0.98689
1.00524 0.995827 0.990195
1.00524 0.999575 0.986369
1.00525 0.997306 0.988535
1.0052 0.996555 0.989301
1.0028 1.00385 0.986225
1.00346 1.00271 0.986133
1.00125 1.00498 0.987812
1.00532 0.997185 0.989009
1.00538 0.997404 0.988691
1.00523 0.995317 0.990922
1.00525 0.995252 0.990772
1.00526 0.996256 0.989509
1.00522 0.99508 0.990853
1.00341 1.00325 0.985753
1.0052 0.995514 0.990197
1.00525 1.0024 0.983558
1.00525 1.0008 0.984866
1.0052 0.998182 0.987706
1.00517 0.99596 0.989978
1.00074 1.00496 0.988542
1.00453 1.00231 0.985112
1.00269 1.00396 0.986299
1.00492 1.00202 0.985092
1.00523 1.00019 0.985842
0.999992 1.00123 0.993513
1.00049 1.00285 0.991072
1.00099 1.00496 0.987749
1.00522 1.0005 0.985514
1.00529 0.999417 0.986484
1.00337 1.00279 0.986297
1.00529 1.00191 0.984061
1.00532 1.0007 0.985208
1.0053 0.999957 0.985569
1.00009 1.00039 0.994298
1.00241 1.00382 0.986956
1.00078 1.00459 0.988976
1.0026 1.00339 0.987167
1.0053 0.998757 0.987213
1.0053 1.00006 0.985812
1.00524 0.99751 0.988308
1.00487 1.00193 0.984736
1.00524 0.999202 0.986688
1.00528 1.00119 0.984623
1.0053 0.999223 0.986476
1.0002 0.99972 0.994825
1.00066 1.00368 0.990279
1.00383 1.00221 0.986144
1.0018 1.00464 0.987804
1.00373 1.00088 0.987939
1.00525 0.996695 0.989184
1.00523 0.998304 0.987473
1.00522 0.996328 0.989328
1.00493 1.00172 0.984636
1.00524 0.998052 0.987685
1.00504 1.00033 0.985741
1.00034 1.00215 0.992182
1.00035 1.00347 0.990869
1.0001 1.00178 0.992943
1.0002 1.00194 0.992588
1.00024 0.998976 0.996059
1.00026 0.999175 0.995536
1.00018 0.99738 0.997473
0.999994 0.997709 0.998847
0.999929 0.998034 0.998765
0.999896 1.00184 0.993109
0.999949 0.999635 0.998142
1.00027 1.00245 0.991909
1.00023 1.00017 0.997686
1.00071 1.00262 0.990986
1.0005 1.00057 0.997352
1.0052 0.999966 0.986135
1.00502 0.999536 0.986928
1.00532 0.997621 0.988469
1.00532 0.996855 0.989328
1.00485 0.999239 0.987511
1.00257 0.999828 0.990605
1.00484 0.999216 0.987563
1.00532 0.996658 0.989543
1.00534 0.997191 0.988931
1.00526 0.994936 0.991236
1.00532 0.998131 0.987902
1.00524 0.995402 0.990698
1.00531 0.996663 0.989544
1.00527 0.994958 0.991245
1.00524 0.995057 0.991101
1.0052 0.99496 0.991234
1.00524 0.99598 0.990018
1.00524 0.99489 0.990951
1.00486 0.998914 0.987825
1.00501 0.999446 0.987601
1.00533 0.997064 0.989137
1.00536 0.998312 0.987707
1.00133 1.00292 0.989643
1.00377 1.00301 0.985422
1.0053 1.00182 0.983953
1.00533 0.99928 0.986728
1.00523 0.995547 0.990447
1.00524 0.997329 0.988537
1.00524 0.99937 0.986586
1.0052 0.996494 0.989231
1.00279 1.00408 0.986188
1.00342 1.00278 0.986033
1.00129 1.00482 0.987846
1.00532 0.997004 0.989211
1.00537 0.997376 0.9887
1.00524 0.995142 0.991079
1.00523 0.995508 0.990556
1.00334 1.00344 0.985748
1.00523 1.00243 0.9836
1.00525 1.00097 0.984701
1.00526 0.996564 0.989224
1.00523 0.994998 0.990866
1.0052 0.998091 0.987673
1.00521 0.995541 0.990174
1.00517 0.99585 0.990029
1.0043 1.00262 0.985078
1.00488 1.00199 0.984864
1.0009 1.00484 0.988559
1.00247 1.00395 0.986352
1.00524 0.99496 0.991317
1.00525 0.995444 0.990631
1.00517 0.99494 0.991325
1.00519 0.99491 0.990995
1.00522 0.995033 0.990663
1.00524 0.994924 0.990798
1.00513 1.00253 0.983868
1.00521 0.995002 0.99058
1.00521 1.00211 0.983697
1.00523 1.00004 0.985534
1.00519 0.997416 0.988223
1.00518 0.996004 0.989888
1.0005 1.00438 0.989581
1.00133 1.0051 0.987115
1.0051 1.00274 0.983722
1.0044 1.00336 0.985342
1.00501 1.0034 0.983389
1.00007 1.00029 0.994336
1.00531 0.998754 0.98719
1.00054 1.00472 0.988973
1.00231 1.0038 0.986974
1.00254 1.00336 0.98715
1.0053 1.00006 0.985786
1.00523 0.997499 0.988306
1.00516 1.0017 0.984739
1.00526 1.0011 0.984603
1.00524 0.999357 0.986485
1.00531 0.999106 0.986645
1.00019 0.999653 0.994858
1.00045 1.00382 0.990302
1.00407 1.00188 0.986204
1.00138 1.00481 0.987742
1.00368 1.00084 0.987717
1.00525 0.996671 0.989186
1.00523 0.998288 0.98747
1.00522 0.99628 0.989325
1.00501 1.00179 0.984564
1.00525 0.998139 0.987519
1.00511 1.00034 0.985855
1.00041 1.0028 0.991448
1.00097 1.00495 0.988859
1.00456 1.00132 0.985787
1.00241 1.00347 0.987654
1.00472 1.00022 0.987689
1.00528 0.995594 0.990056
1.00521 0.997086 0.988464
1.00523 0.995718 0.989591
1.00491 1.00113 0.985043
1.00508 0.998922 0.986723
1.00034 1.00213 0.992186
1.0004 1.00337 0.990658
1.00013 1.00366 0.990834
1.00051 1.00374 0.990587
1.00019 1.00351 0.991147
1.00003 1.00159 0.993236
1.00008 1.00177 0.992953
1.0002 0.998849 0.996231
1.00019 1.00197 0.992584
1.00025 0.998954 0.996084
1.00023 0.997135 0.997597
1.00025 0.999152 0.995915
1.0001 0.99741 0.998196
0.999998 0.99761 0.998877
0.999813 1.00068 0.994349
0.999949 1.00177 0.993099
0.999775 0.998892 0.998563
1.00007 0.999684 0.997995
1.00037 1.00235 0.991896
1.00031 1.00029 0.997592
1.00532 0.998128 0.987887
1.00533 0.997182 0.988936
1.00525 0.995372 0.990707
1.00526 0.994934 0.991222
1.00532 0.996664 0.989546
1.00484 0.999217 0.987567
1.00531 0.996667 0.989542
1.00527 0.994958 0.99125
1.00525 0.99504 0.991114
1.00521 0.99496 0.991199
1.00525 0.995939 0.990023
1.00524 0.994901 0.990947
1.00526 0.994959 0.991272
1.00522 0.994948 0.991288
1.00522 0.994942 0.991087
1.00527 0.994945 0.991085
1.00527 0.995087 0.990622
1.0053 0.994887 0.990838
1.00532 0.996817 0.989412
1.00537 0.997343 0.988709
1.00525 0.994953 0.991235
1.00521 0.995763 0.990338
1.00328 1.00354 0.985745
1.0052 1.00242 0.983639
1.00524 1.00107 0.984534
1.00525 0.99687 0.988938
1.00524 0.99491 0.990879
1.00522 0.995568 0.99015
1.00521 0.998 0.98764
1.00518 0.995716 0.990085
1.00395 1.0031 0.985046
1.00477 1.00202 0.984637
1.00108 1.00472 0.988576
1.00234 1.00391 0.986408
1.00525 0.994959 0.991308
1.00525 0.995408 0.990698
1.00516 0.994945 0.991298
1.0052 0.994917 0.990998
1.00492 1.00273 0.983879
1.00521 1.00217 0.983608
1.00521 1.00003 0.985515
1.00523 0.995119 0.990583
1.00524 0.994924 0.990773
1.00517 0.997447 0.988223
1.0052 0.994986 0.990562
1.00519 0.995803 0.989996
1.00502 1.00277 0.983777
1.00498 1.00355 0.983178
1.00393 1.00305 0.985367
1.0005 1.0042 0.989629
1.00121 1.00511 0.987271
1.0052 0.99495 0.991253
1.00519 0.994942 0.991126
1.00525 0.994911 0.990722
1.00524 0.994903 0.990721
1.00516 1.00306 0.983112
1.00521 0.99503 0.990478
1.00507 1.00158 0.983993
1.00516 0.999479 0.986036
1.00513 0.997125 0.988419
0.999935 1.00345 0.991156
1.00087 1.00512 0.988437
1.00191 1.00501 0.986857
1.00498 1.00395 0.982745
1.00485 1.00311 0.984282
1.00501 1.00324 0.982746
1.00017 0.999603 0.994891
1.00031 1.00397 0.990325
1.00525 0.996648 0.989188
1.00103 1.00498 0.987679
1.00416 1.00181 0.986267
1.00356 1.001 0.9875
1.00523 0.998274 0.987466
1.00522 0.996233 0.989321
1.00517 1.0018 0.984491
1.00513 1.00039 0.985971
1.00526 0.998208 0.987353
1.00036 1.00284 0.991457
1.00062 1.00504 0.988879
1.00482 1.00115 0.985673
1.00223 1.0036 0.987636
1.00442 0.999527 0.987589
1.00526 0.995573 0.990074
1.00523 0.997102 0.988444
1.00524 0.995755 0.989572
1.0049 1.00117 0.985108
1.0051 0.999019 0.98671
1.0006 1.00415 0.990054
1.00032 1.00513 0.988628
1.00492 1.0014 0.985218
1.00268 1.00145 0.987882
1.00518 0.999879 0.987173
1.00524 0.995053 0.990339
1.00526 0.997109 0.988193
1.00529 0.996025 0.989044
1.00487 1.00002 0.986178
1.00513 0.999067 0.986627
1.00033 1.00211 0.992189
1.00042 1.0035 0.990643
0.999988 1.00378 0.990868
0.999972 1.00379 0.9908
1.00006 1.00365 0.991136
1.00008 1.00404 0.990665
0.999946 1.00335 0.991718
1.00001 1.0042 0.990407
1.00003 1.00338 0.991521
1 1.00162 0.993252
1.00001 1.00159 0.99324
1.00012 0.998804 0.996384
1.00005 1.00174 0.992962
1.00021 0.998827 0.996256
1.00022 0.997016 0.9977
1.00027 0.998923 0.996113
1.0002 0.997159 0.997597
1 0.997426 0.998941
0.999836 0.999693 0.995303
0.999848 1.00074 0.994304
0.99973 0.998282 0.998845
1.00005 1.00167 0.99309
0.999883 0.999091 0.998408
1.00018 0.999811 0.997859
1.00525 0.995903 0.990029
1.00526 0.995026 0.991126
1.00524 0.994911 0.990943
1.00521 0.994961 0.991164
1.00527 0.994957 0.991255
1.00532 0.996671 0.989541
1.00526 0.994961 0.991289
1.00522 0.994947 0.991298
1.00521 0.994936 0.991112
1.00527 0.994939 0.991065
1.00527 0.99511 0.990646
1.00529 0.994889 0.990787
1.00521 0.994947 0.991291
1.00527 0.994936 0.991154
1.00528 0.994937 0.99093
1.0053 0.994865 0.990617
1.00525 0.994958 0.9913
1.00524 0.995381 0.990765
1.00516 0.994948 0.99127
1.00521 0.994923 0.991002
1.00478 1.00281 0.98389
1.00522 1.00227 0.983524
1.00519 1.0001 0.985497
1.00524 0.995209 0.990504
1.00524 0.994922 0.990748
1.0052 0.99498 0.990545
1.00515 0.99744 0.988219
1.0052 0.995628 0.990102
1.00477 1.00285 0.983833
1.005 1.00352 0.982969
1.00332 1.00322 0.985392
1.00051 1.00399 0.989686
1.00121 1.00511 0.987429
1.00519 0.994948 0.991251
1.0052 0.994939 0.99114
1.00525 0.994917 0.990748
1.00511 1.00307 0.983169
1.00513 1.00177 0.983905
1.00514 0.99954 0.986031
1.00524 0.994906 0.990723
1.00516 0.996963 0.988668
1.00521 0.995064 0.990429
0.999939 1.00323 0.99139
1.00487 1.00381 0.982833
1.00481 1.00425 0.982461
1.00443 1.00332 0.984361
1.00201 1.00493 0.98695
1.00069 1.00513 0.988433
1.00526 0.994942 0.991132
1.00528 0.994908 0.990862
1.00526 0.994905 0.990627
1.00523 0.994871 0.990609
1.0051 1.00297 0.983193
1.00519 0.995349 0.990112
1.00505 1.00123 0.984566
1.00507 0.999606 0.986156
0.999989 1.00149 0.993023
1.00015 1.00485 0.989925
1.00141 1.00505 0.988212
1.00268 1.00503 0.98526
1.00472 1.00425 0.983216
1.00499 1.00348 0.983069
1.00029 1.00291 0.991467
1.0002 1.00513 0.988899
1.00524 0.995556 0.990093
1.00207 1.00356 0.987615
1.00511 1.00097 0.985556
1.00398 0.999174 0.987479
1.00523 0.997119 0.988423
1.00524 0.995787 0.989552
1.00489 1.00125 0.985168
1.00514 0.999134 0.986697
1.00041 1.00426 0.990064
1.00077 1.00513 0.988354
1.00494 1.00131 0.985195
1.00318 1.00138 0.98768
1.00494 1.0001 0.986772
1.00526 0.995083 0.990378
1.00526 0.997022 0.988397
1.00528 0.996084 0.989135
1.00487 0.999992 0.986263
1.00509 0.999282 0.9864
0.999606 1.00433 0.990268
1.00055 1.00444 0.988832
1.00491 1.00022 0.986316
1.00406 0.9997 0.98738
1.00534 0.994859 0.990345
1.00526 0.995671 0.989916
1.00523 0.998169 0.986981
1.00515 0.999298 0.986283
1.00054 1.00348 0.990628
1.00014 1.00375 0.990845
0.999377 1.00375 0.9926
0.999944 1.00381 0.991125
0.999605 1.00436 0.990745
0.999988 1.0034 0.991512
0.99965 1.00331 0.992068
1.00002 1.00442 0.990333
0.99973 1.00127 0.994071
0.999797 1.00434 0.990931
0.99986 1.00444 0.990417
1.00013 1.0032 0.991536
0.999971 1.00186 0.993005
0.999967 1.00162 0.993243
1 0.998861 0.996497
0.999995 1.00157 0.993246
1.00013 0.998818 0.996402
1.00014 0.997047 0.99779
1.00022 0.998819 0.996284
1.0002 0.997035 0.997698
1.00016 0.997193 0.997589
0.999965 0.998942 0.995889
0.99984 0.999817 0.995237
0.999728 0.997805 0.999011
0.999847 1.00082 0.994254
0.999771 0.998375 0.998771
1.00002 0.999157 0.99824
1.00527 0.995128 0.99067
1.00521 0.994931 0.991136
1.00527 0.994893 0.990735
1.00527 0.994932 0.991045
1.00522 0.994946 0.991307
1.00526 0.994964 0.991306
1.00521 0.994949 0.991302
1.00527 0.994936 0.991152
1.00528 0.994927 0.990921
1.00529 0.994862 0.990638
1.00527 0.994941 0.991183
1.00528 0.994927 0.99105
1.00532 0.994885 0.990722
1.00519 0.994947 0.991248
1.00521 0.994936 0.991155
1.00525 0.994923 0.990772
1.00511 1.00305 0.983227
1.00512 1.00189 0.983814
1.00511 0.999483 0.986025
1.00523 0.994911 0.990725
1.00521 0.995097 0.99038
1.00521 0.996741 0.98891
1.00482 1.0037 0.982919
1.00503 1.00427 0.982192
1.0043 1.0033 0.984437
0.999982 1.00304 0.991632
1.00218 1.00474 0.987042
1.00043 1.00514 0.98842
1.00526 0.994943 0.991143
1.00528 0.994904 0.99083
1.00527 0.994903 0.99062
1.00501 1.00307 0.983224
1.00493 1.00115 0.984483
1.00506 0.999283 0.986507
1.00523 0.994875 0.990573
1.0051 0.995468 0.990058
0.999993 1.00145 0.993248
1.00007 1.00486 0.989895
1.00478 1.00321 0.983099
1.00473 1.00373 0.983308
1.00313 1.00477 0.985421
1.0012 1.00505 0.988029
1.00529 0.994909 0.99105
1.00532 0.994857 0.990566
1.00528 0.994894 0.990558
1.00521 0.994895 0.990342
1.00447 1.00242 0.984019
1.00516 0.997262 0.988415
1.00493 1.00149 0.984623
1.00015 1.00057 0.994055
1.00029 1.00164 0.992872
0.999678 1.00334 0.991926
1.00053 1.00505 0.989042
1.00128 1.00505 0.987159
1.00355 1.00438 0.983897
1.00374 1.00406 0.984371
1.00389 1.00488 0.98453
1.00018 1.00443 0.990074
1.00108 1.00514 0.988078
1.00527 0.995117 0.990417
1.00368 1.00092 0.987484
1.00497 1.00116 0.985177
1.00484 1.00044 0.986385
1.00526 0.996909 0.988605
1.00527 0.996132 0.989229
1.0049 0.99993 0.986347
1.00505 0.999425 0.986174
1.00004 1.00413 0.990096
1.00076 1.00453 0.988548
1.00503 1.00021 0.986181
1.00459 1.00016 0.987287
1.00534 0.994844 0.990357
1.00528 0.995587 0.989848
1.00519 0.998131 0.987096
1.00517 0.999376 0.986247
0.999717 1.00428 0.990324
1.00536 0.994898 0.990356
1.00266 1.00363 0.988141
1.00484 0.999417 0.986965
1.00529 0.994987 0.990599
1.00519 0.997267 0.986972
1.00506 1.00056 0.985606
1.00025 1.00376 0.990821
0.999291 1.00356 0.992509
0.998534 1.00224 0.995492
0.999987 1.00334 0.991504
1.00003 1.00464 0.990258
0.998789 1.00392 0.992412
1.00012 1.00313 0.991529
0.999866 1.00449 0.990413
0.998905 1.00189 0.994453
0.999915 1.00432 0.990815
0.999256 0.999805 0.997115
0.999073 1.00284 0.993441
0.999686 1.00502 0.990161
1.00034 1.00425 0.990033
1.00019 1.00342 0.991132
0.999909 1.00222 0.992742
0.999902 1.002 0.992985
0.99988 0.999081 0.996534
0.999929 1.00171 0.993234
1.00002 0.998902 0.996496
1.00004 0.997139 0.997876
1.00013 0.998811 0.996423
1.00016 0.997041 0.997785
1.0002 0.997053 0.997691
1.00016 1.00057 0.994106
1.00004 0.998524 0.996193
0.999957 0.999028 0.995845
0.999803 0.997448 0.999104
0.999844 0.999931 0.995173
0.99976 0.997917 0.998972
0.999835 0.998537 0.998666
1.00529 0.994859 0.990659
1.00528 0.994917 0.990911
1.00527 0.994936 0.99115
1.00521 0.99495 0.991312
1.00527 0.994942 0.991185
1.00528 0.994926 0.991063
1.0053 0.994888 0.990688
1.00528 0.994922 0.991107
1.00534 0.994919 0.990879
1.00546 0.995065 0.991098
1.00526 0.994943 0.991154
1.00528 0.994898 0.990798
1.00527 0.994901 0.990613
1.00488 1.00321 0.983257
1.00493 1.00158 0.984422
1.00487 0.999075 0.986855
1.00522 0.994887 0.990537
1.00499 0.995645 0.990006
1.00446 1.00352 0.982985
1.00424 1.00441 0.983513
1.00301 1.00447 0.985584
0.999983 1.00136 0.993471
1.00008 1.00488 0.989862
1.00108 1.00503 0.987843
1.00529 0.994907 0.991032
1.00013 1.00058 0.994043
1.00018 1.00174 0.992727
1.00532 0.994868 0.990578
1.00526 0.994895 0.990571
1.00478 1.00266 0.983923
1.0047 1.00145 0.98484
1.0051 0.997001 0.98832
1.00521 0.9949 0.990287
0.999735 1.0033 0.992098
1.00055 1.00506 0.988998
1.00394 1.00389 0.984222
1.00365 1.00431 0.984195
1.00384 1.00461 0.983877
1.00145 1.00503 0.98709
1.00537 0.994867 0.99078
1.00533 0.994824 0.990477
1.00524 0.994859 0.990394
1.00518 0.994921 0.990352
1.00409 1.00232 0.985087
1.00451 1.00098 0.98621
1.00006 1.00229 0.992236
0.999989 1.00188 0.99302
1.00139 1.0005 0.992553
1.00047 1.0038 0.990194
1.00075 1.00508 0.98857
1.00238 1.00452 0.986429
1.00237 1.00518 0.984453
1.00281 1.00106 0.987974
1.00051 1.00397 0.989925
1.00118 1.00462 0.988261
1.00535 0.99483 0.990369
1.00529 0.995548 0.989782
1.00511 1.00058 0.98719
1.0051 1.00026 0.98604
1.00513 0.998107 0.987208
1.00519 0.999475 0.986213
1.00031 1.00398 0.990217
1.00538 0.994927 0.990587
1.00197 1.00368 0.98831
1.00498 0.999615 0.986724
1.00529 0.994985 0.99062
1.00518 0.997465 0.987173
1.00496 1.00039 0.985593
0.999701 1.00493 0.99084
1.00494 0.994811 0.990832
1.0026 1.00261 0.988033
1.00473 1.00124 0.985106
1.00511 0.995641 0.989848
1.00369 1.00109 0.986218
0.998775 0.995395 0.986303
0.999051 1.00357 0.992426
0.998008 1.00263 0.995502
0.998534 1.00161 0.996633
1.00002 1.00322 0.991522
0.999814 1.00462 0.990409
1.00034 1.00392 0.990703
0.998453 1.0021 0.994851
1.00011 1.00352 0.991134
1.00025 1.00429 0.99008
0.999332 0.999621 0.996816
0.999807 1.00493 0.990175
0.999479 1.00279 0.992997
0.998304 1.00118 0.997228
1.0004 1.00423 0.990109
1.00017 1.00482 0.989973
1.00069 1.00424 0.989692
1.00012 1.00393 0.990517
1.00035 1.00457 0.990073
1.00011 1.00413 0.990274
0.9999 1.00232 0.992644
0.99992 1.00222 0.992724
0.999754 0.999198 0.995975
0.999896 1.002 0.992963
0.999867 0.999132 0.996209
0.999998 0.997307 0.9991
1.00003 0.998951 0.996495
1.00006 0.997114 0.997875
1.00017 0.997036 0.997775
1.00005 1.0005 0.994254
1.00017 1.00047 0.994137
1.00009 0.998298 0.996391
1.00004 0.998537 0.99647
0.999867 0.997177 0.999165
0.999942 0.999136 0.995799
0.999804 0.997521 0.999082
0.999791 0.997944 0.998934
1.00529 0.994892 0.990654
1.00528 0.994924 0.991077
1.00527 0.994943 0.991186
1.00528 0.994922 0.991107
1.00534 0.994917 0.990857
1.00544 0.994994 0.99083
1.00541 0.994885 0.99089
1.00135 0.994875 0.981882
1.00476 0.994968 0.992233
1.00009 1.00172 0.992969
1.00529 0.994906 0.991015
1.00532 0.994877 0.990591
1.00525 0.99489 0.990584
1.00479 1.00231 0.983806
1.00491 1.00103 0.985038
1.00501 0.996891 0.988225
1.00521 0.994889 0.990233
1.00441 1.00328 0.984115
1.00418 1.00398 0.983913
1.00372 1.00461 0.983857
1.00013 1.0006 0.994033
1.00196 1.00502 0.987019
0.999758 1.00326 0.992256
1.00054 1.00504 0.988951
1.00016 1.00174 0.992581
1.00537 0.994857 0.990781
1.00003 1.00231 0.992377
0.999988 1.0019 0.993034
1.00102 1.00049 0.992907
1.00534 0.994834 0.990446
1.00523 0.994863 0.990363
1.00333 1.0032 0.985177
1.00476 0.999755 0.986719
1.00518 0.994904 0.990278
1.00027 1.00381 0.990402
1.00101 1.00506 0.988382
1.00298 1.00245 0.987413
1.00295 1.00502 0.984239
1.00277 1.00403 0.986576
1.00534 0.994803 0.990953
1.00523 0.994779 0.990752
1.00516 0.994998 0.989915
1.00501 0.996931 0.990222
1.00188 1.00204 0.988806
0.999453 1.00357 0.991837
1.00118 1.00103 0.992014
1.00002 1.00014 0.993178
1.00059 1.00443 0.990447
1.00043 1.00507 0.989228
1.00092 1.0043 0.987928
1.00215 1.00024 0.990268
1.00111 1.00361 0.990109
1.00103 1.0037 0.988486
1.0054 0.994952 0.990809
1.00529 0.994942 0.990634
1.00517 0.99761 0.987373
1.00504 0.999763 0.986483
1.00488 1.00023 0.985585
1.00016 1.00469 0.990809
1.00467 0.994841 0.991039
1.00278 1.00236 0.98786
1.0048 1.0013 0.984997
1.00506 0.995536 0.990115
1.00399 1.00092 0.986299
0.998539 0.996493 0.984432
0.999084 1.00439 0.991817
1.003 0.996121 0.991102
1.00337 1.00236 0.98602
1.00307 1.00106 0.986982
1.00336 0.997579 0.990716
0.999957 0.994868 0.944314
0.995237 0.994801 0.965399
0.995632 0.99955 0.988235
0.9993 0.994797 0.861198
0.994714 0.994839 0.823473
0.997603 1.00296 0.995508
0.997738 1.00196 0.9969
0.997759 1.00298 0.996695
1.00007 1.00357 0.991136
1.00029 1.00409 0.990125
0.999978 1.00479 0.99019
0.999708 1.00291 0.992536
0.999305 0.999226 0.996508
1.00012 1.00476 0.990003
1.00015 1.0039 0.9906
1.00061 1.00421 0.989731
0.99858 1.0004 0.996658
0.999981 1.00443 0.990463
1.00043 1.00463 0.990459
0.998789 1.00447 0.992198
1.00013 1.00469 0.990169
1.00052 1.00463 0.989177
1.0002 1.00402 0.990362
1.00033 1.00499 0.989371
1.0004 1.00411 0.990575
0.999652 1.00486 0.99069
1.00017 1.00465 0.990037
1.00026 1.00382 0.990676
1.00015 1.00414 0.990267
0.999921 1.00231 0.992647
0.999912 1.00233 0.992647
0.999723 0.999275 0.995992
0.999887 1.00232 0.992706
0.99974 0.999241 0.995968
0.999946 0.997307 0.99913
0.999845 0.999196 0.995885
0.999973 0.997304 0.998494
1.00009 0.997092 0.997871
0.999925 1.00034 0.994587
1.00004 1.00054 0.994259
1.00009 0.998144 0.996569
1.00018 1.00038 0.994167
1.00008 0.998252 0.996674
0.999923 0.996906 0.999218
1.00006 0.998581 0.996146
0.999866 0.997303 0.999141
0.999815 0.997622 0.999062
1.00533 0.994914 0.990836
1.00528 0.994923 0.991107
1.00542 0.994929 0.990571
1.00073 0.994837 0.982038
1.00541 0.994885 0.990901
1.00461 0.994957 0.99202
1.00516 0.996084 0.99121
0.996236 0.99488 0.964805
1.00138 0.995489 0.984108
1.00014 1.00144 0.993245
1.00005 1.00189 0.992931
0.999363 1.00384 0.991923
0.999878 1.00231 0.992675
1.00537 0.994853 0.990782
1.00534 0.99485 0.990415
1.00522 0.994875 0.990332
1.00423 1.00357 0.985273
1.00466 0.997868 0.987251
1.00519 0.994904 0.990203
1.00258 1.00314 0.986824
1.0044 1.00495 0.984014
1.00297 1.0026 0.986714
0.999944 1.00199 0.993051
1.00094 1.00506 0.988206
1.00016 1.00386 0.990612
0.999924 1.00252 0.992516
1.00051 1.00081 0.993233
1.00534 0.994802 0.990959
0.999788 1.00351 0.991653
1.00134 1.00057 0.992246
0.998398 1.00123 0.995464
1.00524 0.994804 0.990663
1.00517 0.995054 0.989931
1.00314 1.00088 0.988799
1.00468 0.995992 0.990532
1.00067 1.0045 0.989817
1.0008 1.00482 0.988357
1.00187 1.0018 0.990176
1.00236 1.00364 0.987353
1.00431 0.995115 0.991625
1.00512 0.995002 0.991046
1.00502 0.995944 0.989641
1.00339 0.996718 0.99297
0.998064 1.00462 0.993125
1.00091 1.00141 0.991836
0.998196 1.00475 0.992984
0.999305 1.0046 0.990968
0.999985 0.994892 0.931143
1.00042 1.00454 0.990773
1.00281 1.00255 0.987682
1.00431 0.994881 0.991278
1.00508 0.995492 0.990377
1.00417 1.00076 0.986362
1.00463 1.00144 0.984882
0.998429 0.997226 0.982422
0.999407 1.00428 0.992052
1.00293 0.996334 0.991003
1.00331 1.00263 0.986055
1.00358 1.00104 0.987084
1.00377 0.997633 0.99045
0.99996 0.994866 0.931622
0.995601 0.994803 0.961925
0.995578 1.00009 0.98845
0.998243 0.994768 0.866015
0.994725 0.994837 0.814089
0.999377 1.00424 0.991499
0.999789 0.994818 0.872277
0.994721 0.994808 0.815929
1.00032 0.99966 0.992658
1.00159 1.00204 0.989462
1.00145 0.99948 0.992597
0.995 0.99862 0.990888
0.997764 0.994825 0.943168
0.994912 0.994783 0.957941
0.996455 0.994851 0.883478
0.99473 0.994811 0.80633
0.997165 1.00232 0.997177
0.997517 1.0023 0.996546
0.997731 1.00448 0.995262
1.00023 1.00383 0.99068
1.00055 1.00419 0.98977
0.999648 1.00498 0.990033
0.999708 1.00463 0.990815
0.999094 0.999587 0.996095
1.00022 1.00398 0.990368
1.00019 1.00465 0.990343
0.999987 1.00483 0.99002
1.00067 1.00456 0.989307
0.998721 1.00434 0.992483
0.999475 1.0046 0.991708
0.997574 1.0051 0.99325
1.00012 1.00507 0.98946
1.00053 1.00469 0.989432
1.00045 1.0049 0.989351
1.0002 1.00373 0.990856
1.00031 1.00501 0.989696
0.999892 1.00381 0.991366
0.999212 1.00282 0.992041
0.999216 1.00498 0.99098
0.999537 1.00474 0.990694
0.999827 1.00454 0.990715
1.00011 1.00382 0.990823
1.00004 1.00466 0.990002
1.00026 1.0038 0.990606
1 1.00229 0.992566
1.0002 1.00414 0.990259
0.999933 1.00228 0.992658
0.99991 0.999237 0.996435
0.999893 1.00234 0.992651
0.99977 0.999243 0.996252
0.999893 0.997297 0.997973
0.99973 0.999258 0.995962
0.999941 0.997326 0.999138
0.999966 0.997331 0.997886
1.00024 1.00143 0.993033
0.999923 1.00021 0.994733
0.99993 1.00037 0.994578
1.00005 0.998069 0.996678
1.00002 1.00059 0.994263
1.00009 0.998107 0.996568
0.999965 0.996795 0.999251
1.00007 0.998259 0.996917
0.999926 0.997063 0.998649
0.999893 0.997359 0.997992
1.00021 0.994813 0.982174
1.00541 0.994887 0.99091
1.0044 0.995507 0.991794
0.996449 0.994858 0.96538
1.00149 0.995186 0.98448
1.00519 0.995575 0.991188
1.00347 0.996296 0.986526
0.997278 0.994863 0.968097
0.999985 0.994866 0.942369
0.998084 0.994817 0.884911
0.994654 0.994803 0.822237
0.999705 1.00242 0.992669
1.00016 1.00139 0.993232
1.00015 1.0018 0.99289
0.999719 1.00325 0.992066
0.999165 1.0041 0.992391
1.00056 1.00198 0.991906
1.0002 1.00287 0.991952
1.00011 1.00212 0.992538
1.00535 0.994798 0.990957
1.00526 0.994822 0.990578
1.00518 0.995066 0.989942
1.00309 1.00114 0.988789
1.00451 0.995562 0.99084
1.00168 1.00253 0.990064
1.0038 1.00391 0.986787
1.00151 1.00504 0.987494
1.00138 1.0001 0.992471
1.00074 1.0046 0.989156
1.00037 1.0031 0.991484
0.99741 1.00162 0.997718
1.00428 0.994823 0.9919
0.998542 1.00421 0.993021
1.0007 1.00179 0.99231
1.00485 0.994925 0.991017
1.00471 0.99582 0.989981
1.00272 0.996797 0.992646
0.999501 1.0051 0.991311
1.00054 1.00336 0.991195
1.00329 0.994838 0.991328
1.0039 0.998545 0.99052
1.00461 0.995496 0.991089
1.00088 0.998073 0.993961
0.999442 1.00488 0.990744
0.998814 1.00442 0.992267
0.999443 1.00496 0.991896
0.999787 0.994912 0.874902
1.00026 0.994864 0.944915
0.999958 1.00382 0.99229
1.00348 1.00278 0.9861
1.00286 0.996895 0.990899
1.00409 0.997699 0.990196
1.00403 1.00113 0.987209
0.999989 0.994883 0.942651
0.995887 0.994789 0.961409
0.995578 1.00049 0.988702
0.997703 0.994823 0.883657
0.994731 0.994828 0.804167
0.999653 1.00421 0.991456
0.999812 0.994852 0.87149
0.994685 0.994793 0.809161
1.00042 0.999612 0.992623
1.0016 1.00217 0.989458
1.00136 0.999614 0.99299
0.99489 0.999738 0.991618
0.998551 0.995211 0.937021
0.994865 0.994798 0.959459
0.995963 0.995343 0.883078
0.994747 0.994809 0.804785
0.998578 1.00413 0.994245
0.994717 0.994805 0.806815
0.994745 0.994779 0.81609
0.996951 1.00207 0.996898
0.999831 1.00188 0.994561
0.99489 0.999513 0.988726
0.995002 0.994893 0.960798
0.995462 0.994785 0.93192
0.994775 0.996162 0.887792
0.994831 0.994839 0.811051
0.997526 1.00184 0.996404
0.998165 1.00377 0.995016
0.996928 1.00396 0.995546
1.00023 1.00395 0.990374
1.00081 1.0044 0.989437
1.00002 1.00492 0.989869
0.999904 1.00468 0.990228
0.998287 1.00426 0.992769
1.0005 1.00474 0.989419
0.99954 1.00434 0.991368
1.00034 1.00499 0.989473
0.997187 1.00501 0.993624
0.995953 1.00521 0.996353
0.998869 1.00496 0.991828
1.00053 1.00507 0.989343
1.00056 1.00474 0.989332
1.00009 1.00332 0.991131
1.00022 1.00498 0.989638
1.00001 1.00366 0.991273
0.999028 1.00304 0.992788
0.998989 1.00478 0.991376
0.998765 1.00508 0.991531
0.998724 1.00328 0.993289
1.00037 1.00166 0.992787
1.00239 0.999665 0.990966
0.999079 1.00483 0.991106
0.999417 1.00481 0.991026
0.999579 1.005 0.99008
0.999589 1.00489 0.990699
1.00005 1.00398 0.990725
0.999809 1.00457 0.990739
1.00014 1.00382 0.990851
1.00003 1.00231 0.992413
1.00027 1.00386 0.990537
0.999981 1.00229 0.992581
1.00004 0.99919 0.99625
0.999922 1.00228 0.99267
0.999887 0.999206 0.996091
1 0.997241 0.997832
0.999765 0.999225 0.995961
0.99995 0.997287 0.999147
0.999938 0.997323 0.999147
1.00031 1.00183 0.992873
0.999949 1.00037 0.994567
1.00014 1.00161 0.993045
1.00005 0.998029 0.996719
0.999915 1.00023 0.994732
0.999929 1.00042 0.99457
1.00006 0.998067 0.996667
0.999992 0.996708 0.999265
1.00007 0.998123 0.997061
0.999977 0.996794 0.998726
0.999945 0.997077 0.998134
0.999811 0.994827 0.859518
0.994691 0.99477 0.806904
0.996511 0.994856 0.965803
1.00131 0.994903 0.984948
1.00524 0.994813 0.991177
0.996925 0.995178 0.967702
1.00353 0.995445 0.987047
1.0008 0.994878 0.938989
0.998507 0.994777 0.86626
0.994703 0.994817 0.813095
0.99797 0.994835 0.973664
0.998616 0.994864 0.942616
0.996604 0.994856 0.883564
0.994757 0.994812 0.812863
1.00012 1.00328 0.991682
0.999858 1.00216 0.992801
1.00011 1.00149 0.993221
0.999876 1.00294 0.992207
0.999006 1.00403 0.992679
1.00028 1.00351 0.990816
1.0003 1.00275 0.991738
1.00049 1.00349 0.990467
1.00016 1.00287 0.991835
0.999991 1.00244 0.992395
1.00409 0.994768 0.992161
1.00471 0.994849 0.990988
1.00437 0.995749 0.990322
1.00226 0.99734 0.992318
1.00102 1.00303 0.991422
0.999582 1.00516 0.989663
1.00025 1.00225 0.992857
0.998724 1.00411 0.992903
1.00247 0.994937 0.991767
0.999518 1.005 0.990515
0.998533 1.00481 0.992036
1.00365 0.99747 0.990694
1.00435 0.995521 0.991296
1.00107 0.998182 0.994256
0.999239 1.00495 0.991632
1.00024 0.995226 0.990762
1.00132 0.998653 0.993693
0.998965 1.00148 0.995042
0.998794 1.00478 0.990078
0.998692 1.00511 0.99086
0.998697 1.00489 0.992213
0.994723 0.99484 0.829992
0.999788 0.99488 0.880032
0.999996 0.994873 0.931485
0.999471 1.00404 0.991394
1.00183 1.00237 0.989429
1.00051 0.999374 0.992581
1.00121 0.999767 0.99339
0.999816 0.994873 0.883856
0.998049 0.994831 0.93185
0.994839 0.994827 0.958019
0.994887 1.00084 0.992245
0.996796 0.994831 0.868292
0.994663 0.99479 0.814683
0.994793 0.994821 0.818987
0.998415 1.00351 0.993956
0.994706 0.994813 0.816725
0.994769 0.994782 0.815526
0.99711 1.00055 0.997535
0.999412 1.00188 0.994443
0.994948 0.998364 0.991138
0.995451 0.994854 0.959592
0.996392 0.996949 0.942966
0.994719 0.997321 0.871091
0.994951 0.994835 0.821309
0.997041 1.00393 0.996604
0.994783 0.99483 0.824382
0.994813 0.994791 0.812731
0.995005 1.00226 1.0001
0.995311 0.997019 0.96827
0.99483 0.998315 0.941938
0.995198 0.995904 0.863285
0.99522 0.994879 0.828953
0.998586 1.00272 0.994731
0.997263 1.00426 0.995714
0.995692 1.00421 0.997963
1.00039 1.00479 0.989406
1.00045 1.00502 0.989489
0.999688 1.00401 0.991029
0.996983 1.00487 0.994
1.00027 1.00508 0.989349
0.998824 1.00497 0.991806
0.995754 1.0052 0.996709
0.994993 1.00507 0.998277
0.995827 1.00514 0.996781
0.999378 1.0051 0.991238
1.00021 1.00501 0.989576
1.00006 1.00337 0.991177
0.998704 1.00331 0.993516
0.998773 1.00507 0.991621
0.99921 1.00474 0.99139
0.998703 1.00352 0.993406
0.998825 1.00447 0.992194
0.996398 1.00497 0.99594
1.00222 0.997356 0.993653
0.999994 1.00139 0.993354
1.00113 1.00084 0.991761
1.00467 1.00045 0.986969
1.00167 1.00192 0.990869
1.00121 0.999508 0.992882
0.999615 1.00458 0.990833
0.99971 1.00512 0.989625
0.999676 1.00459 0.991073
0.999883 1.00504 0.990085
1.00009 1.00455 0.990098
0.999981 1.00473 0.990702
1.00028 1.00376 0.990709
1.00011 1.00244 0.992211
1.00034 1.00353 0.99088
1.00011 1.00229 0.992421
1.00015 0.999221 0.996039
1.00001 1.00224 0.992597
1.00002 0.999197 0.995874
1.00009 0.99726 0.997695
0.999891 0.999185 0.995796
0.99999 0.997246 0.998487
0.999963 0.99726 0.999129
1.00023 1.00245 0.992
1.00009 1.0005 0.994268
1.00021 1.00187 0.992697
1.00004 0.998086 0.996667
0.999967 1.00032 0.994575
1.00013 1.00159 0.993056
1.00002 0.996669 0.999274
1.00004 0.99803 0.99672
0.999916 1.00025 0.994732
1.00007 0.998054 0.996657
0.999993 0.996746 0.999262
0.999962 0.996787 0.999247
0.994688 0.994777 0.810227
0.999791 0.994841 0.8714
0.994755 0.994768 0.813317
0.994709 0.994771 0.806033
0.996963 0.994882 0.965765
1.00342 0.99485 0.987574
0.999906 0.994857 0.934932
0.999101 0.994814 0.88478
0.99474 0.994826 0.803671
0.998482 0.994865 0.972797
0.999481 0.995852 0.928766
0.996167 0.996201 0.881788
0.994719 0.994805 0.805607
0.995228 0.994822 0.965528
0.996318 0.996358 0.930381
0.994828 0.997398 0.863656
0.994822 0.994865 0.809742
1.00084 1.00448 0.990279
0.999785 1.00327 0.991783
1.00001 1.00189 0.992928
0.998714 1.00374 0.99297
1.00086 1.00383 0.989469
1.00021 1.00339 0.991022
0.999884 1.00324 0.991578
1.00097 1.00302 0.990482
1.00057 1.00358 0.990573
1.0002 1.00269 0.991721
1.00209 0.994784 0.9922
1.00347 0.996643 0.990881
1.00394 0.995595 0.991506
1.00091 0.997271 0.994572
1.00026 1.00494 0.991351
0.99894 1.00515 0.991816
0.999641 1.00501 0.990282
1.00017 1.00482 0.989818
0.999876 0.995474 0.991228
0.999581 1.00509 0.99059
0.999409 1.00485 0.992073
1.00124 0.998303 0.99436
0.999793 1.00036 0.994864
0.996512 0.999219 0.990768
0.996759 0.999039 1.00068
0.997001 1.00342 0.995629
0.99946 1.00485 0.990936
0.997869 1.00506 0.993409
0.994811 0.994815 0.830382
0.994716 0.994822 0.826003
0.999797 0.99489 0.863206
0.998405 1.00308 0.993725
0.99912 1.00159 0.994318
0.997288 0.999839 0.998174
0.99468 0.994797 0.815333
0.996479 0.996315 0.93164
0.995597 0.994885 0.959344
0.994865 0.99676 0.993841
0.994795 0.997192 0.889382
0.994773 0.994785 0.815586
0.995098 0.994841 0.82243
0.99739 1.00389 0.996442
0.99479 0.994827 0.827259
0.994805 0.994792 0.813577
0.995208 1.00155 0.999185
0.995289 0.9962 0.97024
0.99485 0.99613 0.930429
0.995085 0.994866 0.825142
0.99502 0.998691 0.871481
0.994926 1.00471 0.999998
0.994795 0.994826 0.819516
0.994869 0.994827 0.820954
0.994817 0.99485 0.810293
0.994812 0.998774 0.990272
0.994865 0.998551 0.945381
0.997253 0.996653 0.879499
0.997709 1.00484 0.995907
0.995827 1.00473 0.997755
0.995175 1.00471 0.999236
1.00022 1.00508 0.989356
0.998801 1.00503 0.99178
0.995575 1.00517 0.99706
0.999052 1.0051 0.991229
0.995978 1.00513 0.996783
0.995203 1.00485 0.99824
0.994949 1.00516 0.998458
0.995719 1.00504 0.996968
0.998669 1.00494 0.991725
0.999376 1.0048 0.991404
0.998726 1.00394 0.99355
0.996612 1.00489 0.995801
0.998821 1.00467 0.992077
0.999115 1.00189 0.994399
0.999755 0.99775 0.997187
1.00238 1.00012 0.989449
0.999626 1.00115 0.993878
1.0017 1.00087 0.991265
1.00435 1.00186 0.985919
1.00498 1.0024 0.984122
1.00354 0.999511 0.989805
1.00386 1.00042 0.98737
1.0008 1.00511 0.988782
1.00095 1.00229 0.991276
1.00003 0.999438 0.994773
1.00016 1.00438 0.990561
0.999898 1.00511 0.989665
1.00023 1.005 0.989326
1.00017 1.00506 0.990092
1.00025 1.00438 0.990111
1.00014 1.00287 0.991669
1.00038 1.0037 0.990692
1.00015 1.00237 0.992203
1.00018 0.999292 0.995911
1.00012 1.00226 0.992429
1.00013 0.999235 0.995661
1.00017 0.997298 0.997537
1.00003 0.999211 0.995552
1.00007 0.997251 0.998387
1.00003 0.997229 0.999073
1.00056 1.00268 0.991101
1.00012 1.00084 0.99357
1.00037 1.00232 0.991992
1.00011 0.998137 0.996514
1.00006 1.00051 0.994118
1.00015 1.00191 0.992522
1.00004 0.996688 0.999259
1.00006 0.998053 0.996678
0.999981 1.00025 0.994583
1.00002 0.996688 0.999271
1.00003 0.998045 0.99672
0.999994 0.996719 0.999259
0.994821 0.994821 0.820869
0.994697 0.99481 0.822844
0.999799 0.994814 0.870501
1.00112 1.00263 0.990485
0.994818 0.994796 0.819504
0.994756 0.994769 0.81328
0.99474 0.994781 0.818472
0.999066 0.994877 0.971957
0.998189 0.994836 0.941608
0.99631 0.994858 0.865834
0.994699 0.99481 0.814249
0.996418 0.994844 0.963005
0.996477 0.998093 0.941281
0.994731 0.996636 0.866871
0.994835 0.994851 0.813863
0.994826 0.994966 0.957469
0.994818 0.9961 0.939753
0.995409 0.999932 0.87488
0.995098 0.994888 0.828892
0.999677 1.00481 0.990394
1.00026 1.00431 0.99021
0.999953 1.00328 0.991886
1.00065 1.00316 0.990527
1.00064 1.00421 0.989733
1.00019 1.00367 0.991225
1.00096 1.00315 0.990441
1.00056 1.00361 0.990671
0.998744 0.996949 0.991533
1.0008 0.997843 0.994943
1.00037 1.0049 0.989556
1.00069 0.999711 0.994694
0.99962 1.00477 0.991935
1.00004 1.0051 0.990329
0.999208 1.00474 0.99101
0.995992 0.998644 0.991449
0.998218 1.00503 0.993389
0.997709 1.00304 0.995907
0.996224 0.999926 1.00083
0.998757 1.00472 0.992365
0.994815 1.00085 0.987962
0.995436 1.00258 0.998964
0.996101 1.00485 0.996741
0.9978 1.00544 0.994184
0.994781 0.994808 0.825065
0.994816 0.994817 0.828064
0.994705 0.994809 0.821915
0.997691 1.00396 0.996258
0.99543 1.00057 0.998259
0.994805 0.994827 0.829955
0.994788 0.997882 0.942536
0.995632 0.996087 0.967577
0.995036 0.998396 0.869854
0.994806 0.994793 0.814221
0.994886 0.994855 0.821352
0.995391 1.00449 0.999635
0.994797 0.994822 0.819561
0.994864 0.994836 0.822039
0.994795 0.999395 0.994007
0.994827 0.994842 0.81415
0.994852 0.996319 0.937674
0.996043 0.99745 0.881588
0.994791 1.00327 0.998562
0.994836 0.994843 0.825857
0.994802 0.994801 0.820584
0.994748 0.994812 0.813107
0.995567 0.999924 0.873789
0.994868 1.00081 0.975108
0.995493 0.997888 0.930751
0.996101 1.00506 0.997558
0.995059 1.00507 0.999209
0.994897 1.00518 0.998452
0.998661 1.00512 0.991221
0.995841 1.00514 0.996791
0.995016 1.00521 0.998204
0.995764 1.00494 0.996893
0.994958 1.00515 0.998489
0.997708 1.00221 0.997641
0.996769 1.00484 0.995646
0.998775 1.00477 0.991975
0.998912 1.00212 0.995075
0.998825 1.00179 0.992951
0.997421 0.99811 1.00056
1.00212 0.99979 0.990683
1.00426 1.00435 0.982679
1.00465 1.00294 0.983716
1.00223 1.00083 0.990723
1.00426 1.0022 0.985209
1.0051 1.00229 0.984007
1.00489 0.999973 0.986577
1.00472 1.00215 0.984483
1.00169 1.00309 0.988851
1.00316 1.00011 0.989563
1.00312 1.00033 0.987792
1.00042 1.00513 0.988624
1.00034 1.00506 0.989042
1.00031 1.00253 0.991678
1.00001 1.00511 0.989704
1.00036 1.00498 0.989345
1.00019 1.00389 0.990644
1.0004 1.00435 0.990123
1.00019 1.00291 0.991651
1.00014 0.999506 0.995036
1.00024 1.00237 0.992197
1.0002 0.999292 0.995184
1.00008 0.997296 0.998942
1.00013 0.999277 0.995324
1.00013 0.997289 0.998269
1.00009 0.997241 0.999005
1.00053 1.00278 0.99102
1.00028 1.0013 0.992888
1.0005 1.00273 0.991251
1.00017 0.998292 0.996268
1.0002 1.00082 0.993493
1.00041 1.0023 0.99198
1.00008 0.99668 0.999224
1.00011 0.998114 0.996529
1.00006 1.00051 0.993968
1.00004 0.996669 0.999265
1.00007 0.998018 0.996688
1.00001 0.996727 0.99927
0.994799 0.994828 0.82624
0.994818 0.99482 0.821144
0.994689 0.994826 0.822745
1.00101 1.00267 0.990656
1.00071 1.00296 0.990522
1.00112 1.002 0.991344
0.994874 0.994832 0.820082
0.994817 0.994794 0.820201
0.994755 0.994762 0.813327
0.996758 0.994846 0.963792
0.996009 0.99479 0.9296
0.994774 0.998637 0.888019
0.994823 0.994838 0.808324
0.99499 0.995006 0.960147
0.994911 0.997693 0.935981
0.995352 0.997793 0.871221
0.995082 0.994876 0.824818
0.995815 0.995186 0.957063
0.994851 0.997266 0.940552
0.996454 0.99672 0.880329
0.994839 0.994836 0.812013
0.999791 1.00314 0.991833
1.00029 1.00421 0.990209
1.00038 1.00393 0.990138
1.00084 1.00302 0.990468
1.00032 1.00442 0.989998
1.00093 1.00334 0.990402
0.99593 0.997383 0.992258
0.996068 1.00085 1.00113
0.999644 1.00397 0.99108
0.998658 1.00238 0.996099
0.998478 1.00495 0.99336
0.998267 1.00435 0.992994
0.997267 1.0053 0.994268
0.994854 1.00131 0.987821
0.995859 1.00509 0.997177
0.995763 1.00292 0.998267
0.997151 1.00513 0.994637
0.994959 1.00271 0.984872
0.995545 1.00468 0.995493
0.995334 1.00444 0.998524
0.994845 0.994832 0.82445
0.994785 0.994816 0.824405
0.994819 0.994813 0.825784
0.995759 1.00386 0.999236
0.994797 0.999727 0.989953
0.994793 0.99482 0.819617
0.99485 0.997768 0.937288
0.996649 0.99666 0.866519
0.994865 0.994838 0.823104
0.994819 0.994833 0.809
0.994791 1.00309 0.999026
0.994826 0.994843 0.826177
0.994819 0.994802 0.821327
0.994873 0.999605 0.972535
0.994714 0.994806 0.806245
0.995841 0.999473 0.868586
0.994974 0.995554 0.944157
0.994867 1.00518 0.990738
0.99479 0.994838 0.82652
0.994775 0.994784 0.814555
0.994656 0.994808 0.82367
0.994789 0.997395 0.86284
0.994851 0.998815 0.939094
0.994874 1.00104 0.96689
0.995061 1.00498 0.999156
0.994934 1.00518 0.99839
0.996251 1.00379 0.99758
0.995975 1.00478 0.996821
0.994985 1.00506 0.998503
0.996359 1.00383 0.997692
0.999384 0.998843 0.997898
0.998666 1.00255 0.995738
1.00118 1.00138 0.992042
1.00226 1.00483 0.985746
1.00169 0.999518 0.992136
1.00422 1.00419 0.983356
1.00429 1.00492 0.982206
1.00502 1.00159 0.984045
1.00505 1.0019 0.984219
1.00462 1.00304 0.983609
1.00445 1.00246 0.984515
1.00509 1.0015 0.98484
1.00511 1.00218 0.984051
1.00376 1.00075 0.987655
1.00461 1.0001 0.98691
1.00438 1.00194 0.984845
1.00078 1.00509 0.987989
1.00176 1.00336 0.988789
1.00265 1.00086 0.989311
1.00039 1.00457 0.989668
1.00072 1.00512 0.988628
1.00007 1.00501 0.989303
1.00055 1.00491 0.989367
1.00032 1.0037 0.99065
1.00006 1.00011 0.994543
1.0003 1.0028 0.991633
1.00016 0.999551 0.99501
1.0001 0.997426 0.998906
1.00021 0.999307 0.995181
1.00015 0.99732 0.998212
1.00013 0.997286 0.998948
1.00065 1.00318 0.990758
1.00039 1.00157 0.992628
1.00065 1.00265 0.991076
1.00024 0.998534 0.995901
1.00027 1.0013 0.992972
1.0005 1.00272 0.991402
1.00011 0.996748 0.999168
1.00018 0.998241 0.996288
1.00023 1.00079 0.993417
1.00007 0.996698 0.999235
1.00011 0.998089 0.996543
1.00004 0.996682 0.999271
0.994834 0.994837 0.825021
0.994801 0.994843 0.826298
0.994815 0.99483 0.821466
1.00018 1.00451 0.989706
1.00108 1.00423 0.989949
1.00082 1.0028 0.990832
1.00061 1.00328 0.990411
1.00063 1.00217 0.991525
1.00027 1.00297 0.991336
1.00018 1.00181 0.992601
0.994832 0.994803 0.813132
0.994877 0.994841 0.821279
0.994812 0.994816 0.820915
0.994891 0.994868 0.820823
0.995158 0.994956 0.957797
0.994849 0.998935 0.930895
0.995448 0.995638 0.885292
0.995342 0.994996 0.956164
0.99484 0.998567 0.928095
0.995521 0.997661 0.882001
0.994887 0.99483 0.822066
0.996115 0.996461 0.960177
0.994999 0.999328 0.929385
0.995167 0.996262 0.863557
0.994733 0.994812 0.807304
0.997839 1.00468 0.993897
0.999555 1.00361 0.992141
1.00035 1.00447 0.990025
1.00093 1.00321 0.990414
0.994893 1.00143 0.98786
0.995826 1.00344 0.997419
0.997948 1.0049 0.993625
0.997065 1.00523 0.994358
0.99564 1.00514 0.997689
0.997049 1.00494 0.994758
0.995396 1.00449 0.998543
0.99572 1.00252 0.981509
0.995087 1.00512 0.995758
0.995639 1.00384 0.99779
0.994801 1.00491 0.980346
0.99514 1.00273 0.999514
0.994779 0.994816 0.825551
0.994839 0.994832 0.827555
0.99479 0.994831 0.823726
0.994798 1.00304 0.999472
0.99486 0.999636 0.975861
0.994818 0.994838 0.826544
0.995201 0.997485 0.931724
0.996143 0.99673 0.883512
0.994829 0.994825 0.821999
0.994695 0.994812 0.814672
0.994873 1.00458 0.991633
0.994808 0.994837 0.826602
0.994759 0.994782 0.814572
0.994874 0.999778 0.966842
0.994707 0.994819 0.814647
0.994711 0.997291 0.865229
0.995064 0.99882 0.927287
0.994926 1.00479 0.985562
0.994835 0.994818 0.821055
0.994682 0.994776 0.808489
0.99638 0.994857 0.885012
0.994772 0.997872 0.939042
0.994799 0.999985 0.959893
0.994964 1.00528 0.998737
0.995588 1.00425 0.997653
0.996816 1.00026 0.99883
0.995292 1.00501 0.997733
0.997667 1.0006 0.998256
1.00199 0.999803 0.992872
1.00361 1.00086 0.991143
1.00313 1.00499 0.98499
1.00383 1.00379 0.983538
1.00389 1.00422 0.984031
1.00442 1.00478 0.982138
1.00439 1.00414 0.982865
1.00519 0.999889 0.985457
1.00512 1.00099 0.98496
1.00504 1.00181 0.984009
1.00509 1.00166 0.984504
1.00504 1.00177 0.984226
1.00451 1.00324 0.983501
1.00511 1.00112 0.985454
1.005 1.00173 0.984689
1.00512 1.00208 0.984098
1.00248 1.00359 0.987406
1.00339 1.00101 0.988038
1.00434 1.00015 0.987245
1.00054 1.00489 0.988662
1.00116 1.00492 0.988048
1.00164 1.00364 0.988725
1.00014 1.00068 0.993834
1.0005 1.00438 0.989677
1.00095 1.00511 0.988631
1.0004 1.00359 0.990654
1.00008 1.00017 0.994508
1.00005 0.997685 0.99883
1.00018 0.999582 0.994984
1.0001 0.997434 0.998892
1.00013 0.997285 0.998922
1.00007 1.00511 0.989867
1.00072 1.0041 0.989866
1.00052 1.00203 0.991998
1.00062 1.00313 0.990742
1.00027 0.998873 0.995504
1.00039 1.0016 0.992618
1.00067 1.00264 0.991133
1.00013 0.996901 0.999077
1.00024 0.998517 0.995923
1.00028 1.00131 0.993055
1.0001 0.996738 0.999186
1.00018 0.998212 0.996308
1.00007 0.996679 0.999247
0.994799 0.994834 0.819707
0.994819 0.994832 0.825374
0.994811 0.994833 0.826349
1.00037 1.00471 0.989684
1.00048 1.00364 0.990135
1.0002 1.00297 0.990001
0.999627 1.0045 0.990124
1.00141 1.00344 0.990487
1.00074 1.00353 0.990299
1.00047 1.00227 0.991704
1.00036 1.00303 0.991363
1.00037 1.00191 0.992605
0.998924 1.00394 0.992974
0.994752 0.994776 0.816417
0.994816 0.994802 0.814033
0.994879 0.994837 0.822407
0.995049 0.994838 0.823111
0.995833 0.996726 0.867411
0.994945 0.995073 0.954938
0.994851 0.997344 0.940085
0.995381 0.996544 0.956426
0.994894 0.996135 0.941173
0.994978 0.998967 0.872115
0.994752 0.994804 0.8058
0.994838 0.998871 0.959737
0.994835 1.00071 0.940986
0.994768 0.997608 0.887532
0.994709 0.994844 0.824777
0.998377 1.00186 0.996134
0.997467 1.00456 0.994212
0.999505 1.00346 0.99246
0.996153 1.00226 0.977875
0.994938 1.00517 0.99604
0.996913 1.00478 0.994875
0.994956 1.00462 0.998556
0.996025 1.00382 0.997748
0.995141 1.00228 0.999796
0.994853 1.00259 0.979666
0.995929 1.00115 1.0001
0.995668 1.00025 0.98625
0.994816 0.99482 0.829395
0.994791 0.994827 0.824907
0.994832 0.994831 0.830701
0.994899 1.00396 0.991937
0.994846 0.999542 0.964398
0.994823 0.994845 0.826672
0.994852 0.999211 0.939044
0.994748 0.998641 0.885865
0.994743 0.994762 0.814743
0.994735 0.994828 0.805301
0.995324 1.00469 0.986313
0.994816 0.994824 0.821227
0.994704 0.994777 0.807703
0.995042 0.999251 0.960945
0.995993 0.995658 0.882761
0.994872 0.997636 0.933837
0.995157 1.00297 0.983284
0.994688 0.994782 0.811033
0.998047 0.994825 0.886188
0.99617 0.996469 0.930586
0.99484 0.996464 0.962218
0.995539 1.00501 0.997731
0.996356 1.00136 0.998764
0.999004 1.00215 0.995474
0.995965 1.00264 0.998589
1.00087 1.00013 0.993688
1.00375 0.999209 0.989639
1.00395 1.00505 0.984217
1.00373 1.00397 0.98343
1.00432 1.00084 0.985542
1.0047 1.00464 0.982072
1.00449 1.00367 0.982954
1.00498 0.999966 0.985907
1.00527 0.997318 0.987771
1.00523 0.999395 0.985829
1.0052 0.999791 0.985536
1.00518 1.00083 0.985182
1.00512 1.00103 0.984871
1.00505 1.00195 0.98397
1.00518 1.00201 0.984379
1.00502 1.00157 0.984531
1.00504 1.00166 0.984232
1.00437 1.00157 0.986246
1.0046 1.00153 0.985585
1.00493 1.002 0.984539
1.00106 1.00499 0.987407
1.00232 1.00354 0.987403
1.00321 1.00124 0.988418
1.00009 1.00167 0.993934
1.00081 1.00488 0.988672
1.0015 1.00469 0.988109
1.00009 0.998231 0.996685
1.00013 1.00089 0.994193
1.00063 1.00427 0.989685
1.00011 1.00025 0.994472
1.00006 0.997766 0.998778
1.0001 0.997448 0.998875
1.00056 1.00501 0.98913
1.00084 1.00496 0.989014
0.999703 1.00513 0.989759
1.00051 1.003 0.991101
1.00053 1.00428 0.989839
1.00024 0.999265 0.995167
1.00048 1.00206 0.992012
1.00071 1.00308 0.990724
1.00013 0.99716 0.998984
1.00027 0.998853 0.99552
1.00038 1.00165 0.992609
1.00012 0.996896 0.999106
1.00023 0.998484 0.995945
1.0001 0.996739 0.999203
0.994787 0.99482 0.830711
0.994807 0.994836 0.819771
0.994805 0.994847 0.825746
1.00171 1.00158 0.989595
0.999954 1.00505 0.98966
1.00027 1.0035 0.990336
1.00032 1.00492 0.989833
1.00112 1.00254 0.990084
1.00058 1.00326 0.991609
1.00301 1.0024 0.987564
0.998184 1.00498 0.99182
1.00033 1.00299 0.991387
1.00011 1.0017 0.992607
0.998608 1.00387 0.992888
0.998156 1.00469 0.993531
0.99472 0.994807 0.8162
0.994775 0.99478 0.815896
0.994813 0.994801 0.814759
0.994779 0.994817 0.819588
0.994902 0.998803 0.870893
0.995193 0.998599 0.929568
0.994855 0.995943 0.956604
0.994869 0.999324 0.958957
0.994718 0.994845 0.815226
0.994864 0.996486 0.933224
0.994755 0.997932 0.870862
0.994913 0.996546 0.964631
0.994854 0.999202 0.942169
0.995977 0.994854 0.884647
0.999726 0.995421 0.999799
0.998315 1.00171 0.996053
0.997396 1.00441 0.994508
0.994871 1.00176 0.979421
0.995081 1.00162 1.00004
0.996649 1.00393 0.997703
0.996994 1.00059 1.0003
0.995214 0.999089 0.986419
0.996456 0.998502 0.991834
0.994715 0.994841 0.824647
0.994814 0.994812 0.830763
0.9948 0.994827 0.824184
0.99496 1.00443 0.986564
0.994858 0.999967 0.960623
0.9948 0.99483 0.821585
0.994833 0.999078 0.929217
0.996167 0.994857 0.867219
0.994743 0.994791 0.819817
0.994767 1.0048 0.983234
0.994698 0.994817 0.82344
0.998145 0.994786 0.867434
0.994857 0.995828 0.957979
0.99622 0.997725 0.94173
0.994877 1.00259 0.989422
0.999805 0.994838 0.859725
0.998424 0.994874 0.943734
0.994835 0.994837 0.957066
0.995851 1.00238 0.998753
0.998333 1.00136 0.995251
1.00135 1.00292 0.991319
0.999789 1.00003 0.994507
1.00298 0.999803 0.989444
1.00437 0.999388 0.987907
1.00376 1.00411 0.98332
1.00431 1.00102 0.985456
1.00505 0.99686 0.988203
1.0045 1.00311 0.983044
1.00484 0.999847 0.985902
1.00529 0.996054 0.989029
1.00526 0.995755 0.989748
1.00527 0.997495 0.987725
1.00529 0.99726 0.987894
1.00525 0.999216 0.986043
1.00522 0.999364 0.986016
1.0052 0.999738 0.985616
1.00526 1.0012 0.984549
1.00518 1.00075 0.985136
1.00512 1.00104 0.984781
1.00516 1.00134 0.984924
1.00503 1.00194 0.984417
1.00492 1.00147 0.984557
1.00258 1.00372 0.986606
1.00407 1.00195 0.986156
1.00399 1.00193 0.985718
1.00019 1.0025 0.991897
1.00158 1.0049 0.987429
1.00223 1.00368 0.987395
0.999821 0.999103 0.998423
1.00015 1.00172 0.992843
1.00106 1.00481 0.988683
1.00006 0.99818 0.998592
1.00013 1.00093 0.993699
1.00008 0.997815 0.998718
1.00276 1.00333 0.98795
1.00062 1.00496 0.988965
1.00103 1.00508 0.988539
1.0006 1.00388 0.990069
1.00059 1.00501 0.988986
0.999914 1.00516 0.989654
1.00015 0.999862 0.994747
1.00049 1.00294 0.991124
1.00033 1.00434 0.98981
1.0001 0.99738 0.99891
1.00024 0.999211 0.995183
1.00046 1.00205 0.992024
1.00012 0.997115 0.999011
1.00026 0.998834 0.995535
1.00012 0.996852 0.999135
0.99472 0.994804 0.809152
0.994807 0.994823 0.831013
0.994815 0.994837 0.819859
1.00156 1.0024 0.989527
1.00473 1.00152 0.986906
1.00206 1.00323 0.988616
1.00028 1.0048 0.989539
1.00228 1.00223 0.990164
0.999273 1.00251 0.992701
0.999068 1.0047 0.991381
1.00205 1.00294 0.988444
1.00223 1.0025 0.989115
0.999209 0.999863 0.995859
0.999348 1.00382 0.992792
0.998462 1.0047 0.993463
0.998822 0.994811 0.860811
0.994689 0.994797 0.809739
0.994783 0.994784 0.815983
0.99473 0.994831 0.805136
0.9948 0.997373 0.88901
0.994844 0.998282 0.928725
0.994948 0.997035 0.957555
0.994867 0.996904 0.962467
0.996242 0.997138 0.882576
0.994847 0.997219 0.930279
0.994865 0.99743 0.965582
0.996018 0.994798 0.930638
1.00013 0.995628 1.00106
0.999466 0.996713 0.999792
0.998083 1.00161 0.996015
0.994966 0.998783 0.986737
0.997682 0.999868 1.00051
0.996907 0.998702 0.991524
0.996726 0.996187 0.990361
0.999791 0.994926 0.873812
0.994705 0.994827 0.822148
0.99482 0.994813 0.831969
0.994776 1.00498 0.983559
0.994854 0.994899 0.956356
0.994693 0.99483 0.823184
0.995874 0.994786 0.930957
0.998864 0.994826 0.886256
0.994881 1.00065 0.986191
0.999773 0.994855 0.871733
0.998669 0.995376 0.930313
0.994852 0.9948 0.958915
0.996812 0.998236 0.987597
0.999943 0.994884 0.943205
0.995241 0.99481 0.963928
0.997842 1.00047 0.995006
1.00035 1.00127 0.991371
1.00369 0.999712 0.990546
1.00225 1.00079 0.989265
1.00413 0.999279 0.987882
1.00516 0.99632 0.989082
1.00429 1.00125 0.985375
1.00494 0.997354 0.988148
1.00527 0.995059 0.989949
1.00475 0.999705 0.985895
1.00529 0.9961 0.988975
1.00525 0.99503 0.990398
1.00526 0.995175 0.990447
1.00526 0.995704 0.989898
1.00523 0.996157 0.989638
1.00527 0.997849 0.987707
1.00526 0.997552 0.987855
1.0053 0.99719 0.988018
1.00529 0.999974 0.985677
1.00526 0.999264 0.986002
1.00522 0.999308 0.986202
1.00528 1.00155 0.984383
1.00527 1.00121 0.984582
1.00518 1.0007 0.985089
1.0035 1.00274 0.986131
1.00506 1.00144 0.984916
1.00484 1.0019 0.984456
1.00067 1.00295 0.990686
1.00263 1.00376 0.986587
1.00391 1.00205 0.986071
1.00004 0.999344 0.998149
1.00035 1.00235 0.991865
1.00198 1.00475 0.98745
0.999983 0.99901 0.997318
1.00024 1.00164 0.992849
1.00008 0.99845 0.99848
1.0042 1.00077 0.987701
1.00194 1.00329 0.988109
1.00093 1.00505 0.988132
1.00058 1.00495 0.988791
1.0007 1.00509 0.988582
1.0008 1.00461 0.989168
1.00012 1.00062 0.994071
1.0005 1.00403 0.990059
1.00019 1.00507 0.98896
1.00007 0.997705 0.99879
1.00014 0.999781 0.994775
1.00045 1.00296 0.991147
1.00009 0.997365 0.998931
1.00024 0.999175 0.995205
1.00012 0.997089 0.999039
0.999782 0.994829 0.87156
0.994706 0.994813 0.814813
0.994816 0.994822 0.831331
1.0013 1.00255 0.989463
1.00199 1.00354 0.987824
1.00418 1.00211 0.986938
1.00508 1.00349 0.983206
1.0019 1.00294 0.988426
0.999534 1.0049 0.990979
1.00148 1.00334 0.989318
1.00132 1.00269 0.989739
1.00441 0.997157 0.988915
1.00203 0.9992 0.992864
1.00268 0.996099 0.994029
1.00019 0.999158 0.995679
0.999386 1.00344 0.993401
0.997947 0.994866 0.940804
0.998947 0.994783 0.865464
0.994664 0.994795 0.815068
0.996328 0.994849 0.868777
0.994851 0.999032 0.939506
0.994856 0.995676 0.963849
0.994866 0.996968 0.967274
0.996671 0.998429 0.942663
0.99574 0.994819 0.966715
0.99949 0.996303 0.999613
0.999468 0.996013 1.00111
0.999177 0.998091 0.999745
0.997403 0.998258 0.991334
0.997549 0.996896 0.990534
0.999986 0.994895 0.930996
0.999793 0.994891 0.879439
0.994691 0.994809 0.819766
0.994893 0.999537 0.98267
0.995094 0.994795 0.95732
0.999801 0.994823 0.870969
0.998123 0.994843 0.942775
0.996547 0.998131 0.987838
1.00043 0.994889 0.939264
0.996152 0.99484 0.961707
1.00046 0.994896 0.987659
0.998242 0.994865 0.971731
0.999247 0.999493 0.991477
1.00296 0.99811 0.990588
1.00502 0.995256 0.991371
1.00393 0.998999 0.987847
1.00511 0.996198 0.988975
1.00527 0.994878 0.990322
1.00475 0.997824 0.988094
1.00527 0.995122 0.989896
1.00525 0.994876 0.990473
1.00528 0.99614 0.988922
1.00524 0.995066 0.990366
1.00527 0.994903 0.990601
1.00526 0.995126 0.990503
1.00523 0.995395 0.990438
1.00526 0.99565 0.990047
1.00523 0.996137 0.989638
1.00522 0.996705 0.989044
1.00528 0.998831 0.986941
1.00527 0.997908 0.987688
1.00526 0.997608 0.987986
1.00533 1.00118 0.984574
1.0053 1.00005 0.98554
1.00526 0.999313 0.985962
1.0042 1.00198 0.985669
1.0052 1.00159 0.984428
1.00528 1.00124 0.984615
1.00119 1.00305 0.989663
1.00333 1.00298 0.986132
1.0048 1.0017 0.984908
1.00017 1.00008 0.997743
1.00079 1.00278 0.990679
1.00282 1.00385 0.986567
1.00011 0.999499 0.998007
1.00051 1.00228 0.991832
1.00011 0.998938 0.998231
1.00512 1.00261 0.984157
1.00377 1.00089 0.987588
1.00229 1.00331 0.987394
1.00132 1.00335 0.988284
1.00102 1.005 0.987952
1.00101 1.00508 0.988324
1.00053 1.00511 0.988621
1.00055 1.00477 0.989131
1.00016 1.00149 0.99316
1.00005 0.998162 0.998579
1.00008 1.00056 0.994096
1.00036 1.00412 0.990049
1.00005 0.997649 0.998834
1.00015 0.999686 0.994791
1.00009 0.997331 0.998953
0.99997 0.994879 0.944127
0.999815 0.994857 0.871074
0.994684 0.994803 0.809052
1.0017 1.00463 0.987027
1.00338 1.00265 0.986974
1.00302 1.0028 0.98784
1.00463 1.00328 0.983727
1.00522 1.00096 0.984656
1.00357 1.0003 0.986943
1.00051 1.00305 0.990333
1.0045 0.996998 0.988866
1.00214 0.998785 0.992926
1.00403 0.995735 0.990382
1.00395 0.997007 0.991957
1.00259 0.996785 0.993321
1.00227 0.99631 0.993996
0.99968 0.999718 0.995503
0.99583 0.994845 0.964936
0.998874 0.996039 0.936425
0.997835 0.99484 0.882237
0.99603 0.996653 0.930291
0.994944 0.996966 0.967747
0.995495 0.995742 0.972521
0.99926 0.994852 0.992573
1.00022 0.995716 0.999108
0.998842 0.996121 1.00118
0.998747 0.998801 0.990749
0.997353 0.995488 0.966207
1.00009 0.994873 0.944667
0.9998 0.994901 0.862489
0.9961 0.998158 0.988166
0.99661 0.99485 0.962254
0.999845 0.994864 0.934957
0.999927 0.995503 0.98799
0.998505 0.994874 0.970926
1.00288 0.995108 0.990094
1.00335 0.996744 0.98487
1.00198 0.996744 0.990617
1.00452 0.995201 0.991388
1.00523 0.994806 0.990865
1.00502 0.996174 0.98887
1.00527 0.994875 0.990273
1.00529 0.994915 0.990468
1.00527 0.995202 0.989841
1.00525 0.994885 0.990453
1.00529 0.994915 0.990512
1.00524 0.995105 0.990333
1.00526 0.99491 0.990599
1.00526 0.99493 0.990646
1.00526 0.995083 0.990558
1.00523 0.995329 0.99046
1.00523 0.995922 0.990001
1.00523 0.996124 0.989638
1.00523 0.996738 0.989035
1.00527 0.997999 0.987881
1.00532 1.00034 0.985467
1.00528 0.999004 0.98671
1.00527 0.997971 0.987669
1.00498 1.00095 0.985412
1.00532 1.00119 0.984618
1.0053 1.00014 0.985404
1.00175 1.00272 0.988938
1.00404 1.00227 0.985677
1.00509 1.00164 0.98447
1.00054 1.00063 0.997279
1.00126 1.00293 0.989655
1.00317 1.00324 0.986132
1.00036 1.00024 0.997555
1.00083 1.00265 0.99068
1.00025 0.999688 0.997834
1.00512 1.00161 0.984556
1.00512 1.00221 0.984348
1.00432 1.002 0.985427
1.00351 1.00154 0.987473
1.00227 1.00342 0.9872
1.00205 1.00447 0.987258
1.00101 1.00489 0.987776
1.00087 1.0051 0.988331
1.00036 1.00226 0.99214
1.00039 1.00497 0.989098
1.00006 1.00156 0.993182
1.00003 0.998888 0.998284
1.00002 0.998127 0.998658
1.00003 1.00056 0.994127
1.00004 0.997599 0.998871
0.996824 0.994876 0.966691
0.999938 0.994873 0.930481
0.999815 0.994875 0.883174
1.00526 0.998854 0.986472
1.00428 1.00268 0.987271
1.00419 1.00301 0.984247
1.00433 1.00009 0.987278
1.0052 1.00118 0.984618
1.00493 0.997754 0.988217
1.00483 0.998331 0.988825
1.00195 0.997991 0.993
1.00462 0.99647 0.990307
1.00382 0.99722 0.990937
1.00475 0.996309 0.989642
1.00327 0.994901 0.994321
1.00259 0.99644 0.993413
1.00218 0.996518 0.993953
0.99874 0.994836 0.99105
0.995807 0.994854 0.963337
0.998602 0.994839 0.931317
0.995159 0.996292 0.971663
0.998879 0.994852 0.995283
1.00034 0.995262 0.998549
1.0021 0.995198 0.981789
0.997407 0.995042 0.966228
0.999994 0.994888 0.931081
0.999107 0.995568 0.988334
0.998837 0.994881 0.970221
1.00201 0.9949 0.990599
1.00319 0.995929 0.985749
1.00392 0.995076 0.991085
1.00487 0.996742 0.990968
1.00408 0.995079 0.991394
1.00516 0.994836 0.990763
1.00535 0.994874 0.990388
1.00527 0.994875 0.990225
1.00527 0.994906 0.990469
1.00533 0.9949 0.990441
1.00525 0.994895 0.990433
1.00528 0.994909 0.990524
1.00528 0.994908 0.990671
1.00524 0.994916 0.990596
1.00526 0.99493 0.990635
1.00525 0.995126 0.990616
1.00523 0.995262 0.990484
1.00523 0.995793 0.990111
1.00527 0.997108 0.988859
1.00523 0.996767 0.989027
1.00526 0.997924 0.987957
1.0053 0.999911 0.986042
1.00524 1.00062 0.985371
1.00532 1.00049 0.985314
1.00529 0.99917 0.986479
1.0026 1.00154 0.988802
1.00489 1.00108 0.985414
1.00531 1.00118 0.984662
1.00088 1.00086 0.99693
1.00201 1.00244 0.988927
1.00389 1.00247 0.985689
1.00067 1.0007 0.997138
1.0014 1.00282 0.98965
1.0005 1.00038 0.997387
1.00527 1.00026 0.985373
1.0052 1.00162 0.984453
1.00511 1.00127 0.984959
1.0052 1.00178 0.984537
1.00451 1.00185 0.985404
1.0031 1.0036 0.986448
1.0024 1.00316 0.987005
1.00186 1.00459 0.987267
1.00064 1.00269 0.991082
1.00073 1.00509 0.98833
1.00018 1.0023 0.992163
1.00003 0.999626 0.997946
0.999956 1.00152 0.993205
0.999989 0.998755 0.998396
0.999987 0.998011 0.99873
1.00039 0.995037 0.986788
0.996652 0.994887 0.963076
0.999984 0.994871 0.943914
1.00521 0.997299 0.988242
1.00528 0.996881 0.988588
1.00527 0.998607 0.986727
1.00505 0.999431 0.987605
1.00516 1.00146 0.984583
1.00498 0.997636 0.98848
1.00519 0.995569 0.989418
1.00497 0.996326 0.990239
1.00363 0.997845 0.989922
1.00452 0.996825 0.990061
1.00508 0.995013 0.990793
1.00369 0.994943 0.993049
1.00293 0.995 0.994001
1.00283 0.995974 0.993519
0.999434 0.99484 0.991119
0.995783 0.994849 0.961934
0.998836 0.994853 0.998119
1.00473 0.994928 0.990639
1.002 0.995763 0.981909
0.997554 0.994854 0.964729
1.00172 0.994789 0.991062
1.00305 0.995005 0.986648
1.00394 0.994997 0.991757
1.0049 0.995838 0.99108
1.00532 0.994785 0.990975
1.00542 0.994857 0.991216
1.00515 0.994852 0.990663
1.00537 0.994875 0.990362
1.00536 0.994872 0.990495
1.00526 0.994895 0.990469
1.00533 0.9949 0.990466
1.00529 0.994904 0.990649
1.00527 0.994904 0.990536
1.00528 0.994908 0.990666
1.00525 0.994927 0.990868
1.00526 0.994929 0.990624
1.00525 0.995142 0.990592
1.00528 0.996313 0.989562
1.00523 0.99566 0.990222
1.00527 0.997043 0.9889
1.00532 0.99935 0.986559
1.00526 0.997853 0.988034
1.0053 0.999821 0.986154
1.00524 1.00054 0.985453
1.00294 1.00063 0.989107
1.00518 1.00068 0.985379
1.00532 1.00064 0.98516
1.00116 1.00085 0.996713
1.00264 1.00146 0.988792
1.00475 1.00129 0.985418
1.00098 1.00093 0.996818
1.00215 1.00223 0.988913
1.00079 1.00084 0.996994
1.00527 0.998473 0.987109
1.00526 1.00011 0.985568
1.00528 1.00087 0.985057
1.00521 1.00159 0.984348
1.00517 1.00122 0.984952
1.00362 1.00247 0.986365
1.00471 1.00175 0.985387
1.00296 1.00333 0.986442
1.00097 1.00302 0.990058
1.00151 1.00465 0.98728
1.00054 1.00281 0.991118
1.00014 1.00046 0.997588
1.00009 1.00239 0.992184
0.999993 0.999485 0.998075
0.999935 0.998647 0.998496
1.00433 0.995066 0.991996
1.00055 0.994996 0.984579
0.996538 0.99491 0.962613
1.00524 0.996193 0.989443
1.00518 0.996868 0.988535
1.00526 0.995754 0.98983
1.00527 0.996925 0.988556
1.00528 0.998323 0.986977
1.00532 0.994897 0.990106
1.00509 0.99771 0.988732
1.00521 0.995857 0.989431
1.00528 0.994822 0.99055
1.00442 0.997227 0.990478
1.00508 0.99514 0.990476
1.00338 0.995011 0.993316
1.00231 0.995492 0.993686
0.999876 0.99485 0.990989
1.00539 0.994895 0.990869
1.00473 0.99565 0.990794
1.0018 0.996141 0.982098
1.00383 0.994811 0.992414
1.00488 0.995042 0.9912
1.00531 0.994779 0.991025
1.00543 0.994881 0.991123
1.00539 0.994851 0.990945
1.00539 0.994883 0.990338
1.00536 0.994874 0.990507
1.0053 0.994896 0.990801
1.00532 0.994901 0.990492
1.00529 0.994905 0.990647
1.00522 0.994907 0.990991
1.00528 0.994908 0.990661
1.00526 0.994926 0.990842
1.00528 0.995632 0.990312
1.00525 0.995159 0.990568
1.00528 0.996351 0.989552
1.00536 0.998767 0.987163
1.00526 0.996976 0.988942
1.00532 0.999359 0.986583
1.00524 1.00043 0.985592
1.0053 0.999727 0.986266
1.00524 1.00053 0.985469
1.00294 1.00029 0.991111
1.00153 1.00024 0.993357
1.00296 1.00063 0.989935
1.00513 1.00073 0.985383
1.00118 1.00085 0.996706
1.00277 1.00124 0.988774
1.00105 1.00099 0.99673
1.00524 0.995681 0.990183
1.00526 0.997208 0.988578
1.00527 0.998451 0.987306
1.0053 1.00029 0.985578
1.00525 0.999984 0.985763
1.00529 1.00091 0.984989
1.00431 1.00129 0.986183
1.00522 1.00116 0.984943
1.00377 1.00202 0.986357
1.00164 1.00278 0.989253
1.00299 1.00306 0.986433
1.00095 1.00313 0.990048
1.00041 1.00106 0.997163
1.0004 1.00285 0.991153
1.00004 1.0002 0.99773
0.999931 0.999351 0.998198
1.00539 0.994831 0.990811
1.00435 0.994966 0.99172
1.00102 0.994896 0.982434
1.0053 0.995162 0.99025
1.00521 0.996171 0.989317
1.00522 0.996463 0.988831
1.00526 0.995925 0.989785
1.00527 0.996969 0.988524
1.00537 0.994825 0.990535
1.00532 0.994895 0.990123
1.00523 0.996109 0.989444
1.00524 0.994819 0.990593
1.00508 0.995162 0.990156
1.0032 0.994783 0.993582
1.00534 0.994907 0.991013
1.00541 0.994885 0.991014
1.00478 0.996255 0.990945
1.00531 0.994774 0.991054
1.00545 0.994906 0.991035
1.00539 0.994859 0.990907
1.00529 0.994923 0.991088
1.00536 0.994879 0.99052
1.0053 0.994901 0.990767
1.00521 0.99494 0.991093
1.0053 0.994907 0.990645
1.00523 0.994907 0.990979
1.00528 0.995153 0.990873
1.00526 0.994925 0.990816
1.00528 0.995655 0.990298
1.00537 0.998226 0.987739
1.00528 0.996388 0.989543
1.00535 0.998773 0.987185
1.00523 1.00032 0.985742
1.00531 0.999369 0.986609
1.00525 1.00041 0.985613
1.00302 1.00008 0.991205
1.00525 1.00052 0.985483
1.00315 1.00019 0.990979
1.00157 0.999935 0.99357
1.00124 1.00053 0.995141
1.00317 1.0006 0.99059
1.00119 1.00086 0.996719
1.00526 0.995071 0.990772
1.00524 0.996874 0.988956
1.00523 0.995548 0.990338
1.00532 0.999459 0.986396
1.00525 0.997275 0.988567
1.00526 0.998427 0.987503
1.0053 1.00031 0.985517
1.00499 1.00048 0.985807
1.0053 1.00097 0.984921
1.00446 1.00101 0.986177
1.00235 1.00185 0.988922
1.00386 1.00165 0.986353
1.00145 1.00295 0.989243
1.0007 1.00136 0.996834
1.00081 1.00328 0.990055
1.00026 1.0009 0.997333
0.999992 1.00003 0.997862
1.00532 0.994898 0.990766
1.00534 0.994831 0.990845
1.00423 0.994954 0.991443
1.0053 0.994851 0.990701
1.00529 0.995219 0.990219
1.00514 0.99616 0.989197
1.00525 0.996098 0.98974
1.00536 0.99483 0.990541
1.00533 0.994893 0.99014
1.00521 0.994817 0.990636
1.00529 0.99495 0.991095
1.00533 0.994908 0.990993
1.00542 0.994879 0.991157
1.00526 0.994943 0.991191
1.00539 0.994861 0.990871
1.00529 0.994922 0.991075
1.00521 0.994951 0.991178
1.0053 0.994904 0.990733
1.00521 0.994939 0.991098
1.00528 0.99496 0.991151
1.00524 0.994906 0.990966
1.00526 0.995166 0.990861
1.00537 0.997743 0.988266
1.00527 0.995677 0.990284
1.00537 0.998229 0.987755
1.00519 1.00019 0.985957
1.00534 0.99878 0.987207
1.00525 1.0003 0.985765
1.00304 1.00009 0.991162
1.00526 1.00039 0.985633
1.0032 1.00001 0.991046
1.00164 0.99984 0.99357
1.00335 1.00007 0.990855
1.00113 1.0001 0.993872
1.00061 1.00087 0.997267
1.00525 0.994908 0.990893
1.00526 0.996002 0.989878
1.00526 0.99512 0.990708
1.00532 0.999088 0.986845
1.00525 0.996561 0.989208
1.00522 0.995418 0.990493
1.00524 1.00016 0.985814
1.0053 0.99946 0.986358
1.00525 0.997337 0.988556
1.00531 1.00031 0.985455
1.00508 1.0004 0.9858
1.00275 1.00094 0.989081
1.00468 1.00072 0.986173
1.00218 1.00205 0.988952
1.00089 1.00133 0.996733
1.00141 1.00309 0.989222
1.0006 1.00125 0.996952
1.0001 1.0007 0.997496
1.00528 0.994915 0.990969
1.00532 0.994899 0.990725
1.00531 0.994831 0.990881
1.0053 0.994854 0.990731
1.00527 0.995275 0.990189
1.00535 0.994835 0.990546
1.00526 0.994955 0.991135
1.00529 0.994944 0.991106
1.00532 0.994909 0.990972
1.00526 0.994947 0.991181
1.00519 0.994944 0.991364
1.00529 0.994923 0.991061
1.00521 0.994951 0.991213
1.00528 0.994939 0.991185
1.00521 0.994939 0.991103
1.00527 0.994957 0.991138
1.00537 0.997337 0.988732
1.00524 0.995169 0.990848
1.00539 0.997743 0.988268
1.00514 0.999981 0.986293
1.00537 0.998231 0.987772
1.00522 1.00016 0.985973
1.00296 1.00021 0.991133
1.00527 1.00027 0.985788
1.0032 1.00004 0.990991
1.00166 0.999899 0.993474
1.00336 0.999954 0.990896
1.00125 0.999886 0.993897
1.00071 1.0003 0.994158
1.00523 0.994916 0.991073
1.00525 0.995396 0.990589
1.00525 0.9949 0.990884
1.00533 0.998159 0.987789
1.00526 0.99609 0.989797
1.00526 0.995167 0.990645
1.00528 0.999986 0.985979
1.00532 0.998722 0.987146
1.00526 0.996249 0.98946
1.00293 1.00027 0.98945
1.00525 1.00015 0.985801
1.0053 0.99947 0.986319
1.00512 1.00035 0.985794
1.00272 1.00102 0.989101
1.00104 1.00103 0.996795
1.00204 1.00225 0.98898
1.00086 1.00127 0.996759
1.00047 1.00117 0.997087
1.00526 0.994945 0.991108
1.00528 0.99492 0.990943
1.00532 0.994899 0.990685
1.00531 0.994857 0.99076
1.00518 0.99495 0.991365
1.00526 0.99495 0.991143
1.00529 0.994937 0.991118
1.00526 0.994951 0.991171
1.00519 0.994943 0.99135
1.00526 0.995226 0.990938
1.00521 0.994949 0.991248
1.00528 0.995104 0.991034
1.00535 0.996754 0.989388
1.00526 0.994961 0.991126
1.00538 0.997335 0.988723
1.00504 0.999761 0.986687
1.0054 0.997758 0.988269
1.00515 0.999962 0.986299
1.00293 1.00026 0.989573
1.00525 1.00012 0.985988
1.00312 1.00016 0.990161
1.00144 0.999969 0.996793
1.00336 1.00001 0.99082
1.00132 0.999874 0.99381
1.00089 0.999928 0.994207
1.0052 0.994948 0.991173
1.00524 0.995254 0.990856
1.00522 0.994923 0.991085
1.00536 0.997529 0.988477
1.00525 0.995555 0.990358
1.00525 0.994893 0.990875
1.00525 0.999587 0.986424
1.00533 0.998163 0.987809
1.00526 0.996174 0.989717
1.00303 0.999876 0.989682
1.00527 0.999824 0.986103
1.00532 0.998354 0.987448
1.00117 1.00056 0.996895
1.00294 1.00024 0.989452
1.00526 1.00013 0.985782
1.00262 1.00108 0.989123
1.00104 1.001 0.99676
1.0008 1.00123 0.996808
1.00516 0.994957 0.991291
1.00525 0.994948 0.991108
1.00529 0.994925 0.990917
1.00525 0.995254 0.991005
1.00519 0.994949 0.991335
1.00526 0.994944 0.991151
1.0052 0.994943 0.991336
1.00526 0.995268 0.990936
1.00535 0.996951 0.989204
1.00529 0.995283 0.990882
1.00536 0.997103 0.989019
1.00495 0.999201 0.987426
1.0054 0.997319 0.988715
1.00505 0.999746 0.986692
1.00283 1.00017 0.98984
1.00517 0.999945 0.986306
1.00294 1.00024 0.989586
1.00136 1.00002 0.996802
1.00316 1.00015 0.989331
1.00129 0.999978 0.995333
1.00097 0.999835 0.994145
1.00514 0.994952 0.991359
1.00523 0.995145 0.991102
1.00519 0.99495 0.991187
1.00537 0.997696 0.988289
1.00525 0.995184 0.990881
1.00521 0.99493 0.991096
1.00524 0.99947 0.986588
1.00535 0.997887 0.9881
1.00526 0.995717 0.990128
1.0031 0.999794 0.989682
1.00525 0.999557 0.986435
1.00532 0.998166 0.987828
1.00134 1.00016 0.996913
1.00307 0.99983 0.989683
1.00526 0.999658 0.986227
1.0012 1.00058 0.996856
1.00296 1.00022 0.989456
1.00101 1.00101 0.996749
1.00522 0.995303 0.990923
1.00517 0.994955 0.991319
1.00525 0.994952 0.991108
1.00535 0.996935 0.98923
1.00524 0.995294 0.990978
1.00519 0.994948 0.991306
1.00526 0.995308 0.990935
1.00534 0.996981 0.989211
1.00489 0.999024 0.987703
1.00537 0.997443 0.988651
1.00497 0.999368 0.98721
1.00275 1.00004 0.990096
1.00506 0.999729 0.986698
1.0028 1.00019 0.989853
1.00125 1.00003 0.996843
1.00293 1.00023 0.989597
1.00132 1.00004 0.996812
1.00138 0.999935 0.993586
1.00521 0.995424 0.990866
1.00513 0.994953 0.991306
1.00537 0.997461 0.988567
1.00524 0.995074 0.991109
1.00517 0.994951 0.991202
1.00515 0.999771 0.986468
1.00536 0.997708 0.98829
1.00526 0.995113 0.990906
1.00308 0.999887 0.989651
1.00522 0.999661 0.986418
1.00534 0.99825 0.987724
1.00145 0.999955 0.996858
1.00311 0.999782 0.989683
1.00524 0.999526 0.986449
1.00133 1.00019 0.996912
1.0031 0.999791 0.989682
1.00122 1.00059 0.996812
1.00535 0.997027 0.989098
1.00522 0.99534 0.990952
1.00517 0.994954 0.991348
1.00488 0.998968 0.987762
1.00534 0.996969 0.98923
1.00524 0.995334 0.990951
1.00534 0.997014 0.989217
1.00491 0.999005 0.987672
1.00265 0.999968 0.990345
1.00498 0.999535 0.986993
1.00273 1.00005 0.990105
1.00119 1.00002 0.996895
1.00279 1.0002 0.989867
1.00121 1.00006 0.996868
1.00128 1.00004 0.996829
1.00537 0.997283 0.988799
1.00522 0.995201 0.991041
1.00513 0.994952 0.991254
1.00507 0.99964 0.986777
1.00537 0.997471 0.98857
1.00525 0.995007 0.991116
1.00295 1.00002 0.98976
1.00513 0.999794 0.986467
1.00535 0.99772 0.988292
1.00143 0.999921 0.996812
1.00307 0.999917 0.989649
1.00519 0.999842 0.986247
1.00143 0.999988 0.996881
1.00312 0.999784 0.989682
1.00136 1.0002 0.9969
1.00492 0.999355 0.987311
1.00535 0.996876 0.989277
1.00522 0.995371 0.990981
1.0026 0.999883 0.990532
1.00489 0.998942 0.987759
1.00534 0.997 0.989231
1.00494 0.998981 0.987641
1.00266 0.999941 0.990353
1.00112 1.00002 0.996931
1.00271 1.00006 0.990114
1.00116 1.00003 0.996902
1.00116 1.00008 0.996885
1.00498 0.999478 0.987096
1.00536 0.997072 0.989029
1.00522 0.994962 0.991216
1.00294 1.00003 0.99138
1.00503 0.999658 0.986781
1.00536 0.997482 0.988573
1.00132 0.999963 0.996825
1.00295 1.00004 0.989755
1.00511 0.999816 0.986465
1.00144 0.999943 0.996828
1.00306 0.999954 0.989645
1.00144 1 0.9969
1.00271 0.99988 0.990416
1.00491 0.999177 0.987481
1.00535 0.996726 0.989456
1.00104 0.99998 0.996999
1.00259 0.999881 0.990526
1.0049 0.998919 0.987757
1.00265 0.999915 0.990358
1.00109 1.00001 0.996955
1.00113 1.00005 0.996918
1.0029 0.999951 0.991579
1.00496 0.999484 0.987097
1.00536 0.996871 0.989258
1.00073 1.00001 0.997401
1.00282 1.00003 0.990001
1.00501 0.999673 0.986785
1.00135 0.999968 0.996825
1.00295 1.00006 0.989749
1.00146 0.999956 0.996845
1.00103 0.999941 0.994171
1.00273 0.999884 0.991101
1.0049 0.999 0.987651
1.00107 0.999984 0.997006
1.0026 0.999882 0.990528
1.00111 0.999997 0.996974
1.00056 0.999988 0.994612
1.0028 0.999935 0.990929
1.00494 0.999494 0.987098
1.00096 0.999993 0.99566
1.00281 1.00003 0.990021
1.00138 0.999971 0.996826
1.00106 0.999967 0.996997
1.00261 0.999872 0.990511
1.00103 0.999985 0.997003
1.00083 0.999963 0.995808
1.0027 0.999926 0.990329
1.00126 0.999986 0.996863
1.00109 0.999967 0.997001
1.00113 0.999974 0.996941

TENSORS stress float
0.00222315 -0.000152529 0.000257966
-0.000152529 0.00106124 -4.35738e-05
0.000257966 -4.35738e-05 0.00103513
0.00691441 5.59809e-05 0.000295706
5.59809e-05 0.00401476 3.35854e-05
0.000295706 3.35854e-05 0.00401974
0.00185819 -8.29338e-05 0.000108341
-8.29338e-05 0.00083073 -1.7198e-05
0.000108341 -1.7198e-05 0.000793083
0.00222829 -8.69381e-05 0.000250087
-8.69381e-05 0.00104023 -2.51398e-05
0.000250087 -2.51398e-05 0.00102364
0.00225648 -0.000134171 0.000252116
-0.000134171 0.00107205 -3.83584e-05
0.000252116 -3.83584e-05 0.0010493
0.00221266 -0.000156059 0.000268422
-0.000156059 0.00105519 -4.519e-05
0.000268422 -4.519e-05 0.00102934
0.00184377 -0.000141169 5.06043e-05
-0.000141169 0.000731298 -1.38213e-05
5.06043e-05 -1.38213e-05 0.000618453
0.0068445 4.58328e-05 -7.41976e-06
4.58328e-05 0.00396196 -1.43142e-06
-7.41976e-06 -1.43142e-06 0.00397145
0.00654582 0.000211664 0.0001474
0.000211664 0.00377314 1.43352e-05
0.0001474 1.43352e-05 0.00374713
0.0065734 -3.01572e-05 8.24192e-05
-3.01572e-05 0.0037751 4.11107e-06
8.24192e-05 4.11107e-06 0.00375507
0.00193269 0.000196992 0.000272112
0.000196992 0.000885186 3.53744e-05
0.000272112 3.53744e-05 0.000875851
0.000429233 0.000255397 2.63604e-05
0.000255397 -0.000120675 2.01975e-05
2.63604e-05 2.01975e-05 -0.000257518
0.00181439 -3.30179e-05 0.000244648
-3.30179e-05 0.000780623 4.02756e-06
0.000244648 4.02756e-06 0.000781573
0.00147353 2.50024e-06 6.31827e-05
2.50024e-06 0.000588135 1.76675e-06
6.31827e-05 1.76675e-06 0.000541711
0.00157481 -8.20782e-05 -5.70989e-05
-8.20782e-05 0.00066241 1.01674e-05
-5.70989e-05 1.01674e-05 0.000608334
0.00185736 -8.6324e-05 8.20938e-05
-8.6324e-05 0.000825545 -5.06725e-06
8.20938e-05 -5.06725e-06 0.000791073
0.00190268 -7.1278e-05 0.000118031
-7.1278e-05 0.000863395 -1.85704e-05
0.000118031 -1.85704e-05 0.00082198
0.00187527 -9.07033e-05 9.6516e-05
-9.07033e-05 0.00083471 -1.33081e-05
9.6516e-05 -1.33081e-05 0.000800059
0.00192026 -0.000177057 -4.10229e-05
-0.000177057 0.000776896 5.95101e-06
-4.10229e-05 5.95101e-06 0.000673318
0.00615836 -0.000144365 0.000317294
-0.000144365 0.0035405 -1.36447e-05
0.000317294 -1.36447e-05 0.00355836
0.0021574 -6.38099e-05 0.000247134
-6.38099e-05 0.000996474 -1.8692e-05
0.000247134 -1.8692e-05 0.000982977
0.00226153 -0.000111364 0.000250615
-0.000111364 0.0010663 -3.19186e-05
0.000250615 -3.19186e-05 0.00104699
0.00180943 -0.000139091 7.07619e-05
-0.000139091 0.000703672 -1.08674e-05
7.07619e-05 -1.08674e-05 0.000604785
0.00184779 -0.000146392 5.95847e-05
-0.000146392 0.000724648 -1.3372e-05
5.95847e-05 -1.3372e-05 0.000619527
0.00210209 -0.000133924 0.000268202
-0.000133924 0.000978622 -4.20507e-05
0.000268202 -4.20507e-05 0.000955646
0.00191353 -0.000141242 4.36066e-05
-0.000141242 0.000791109 -1.42526e-05
4.36066e-05 -1.42526e-05 0.000666244
0.00206538 -0.000326301 1.8534e-05
-0.000326301 0.000642297 -7.75441e-06
1.8534e-05 -7.75441e-06 0.000428031
0.00680069 3.09328e-05 -0.000292957
3.09328e-05 0.00392434 -2.38807e-05
-0.000292957 -2.38807e-05 0.00393862
0.00425342 0.000156968 -0.000145976
0.000156968 0.00233011 -1.64527e-05
-0.000145976 -1.64527e-05 0.00230762
0.00422441 7.0352e-05 -0.000145352
7.0352e-05 0.00232044 -1.42236e-05
-0.000145352 -1.42236e-05 0.002299
0.00674271 -2.61591e-05 -3.8063e-06
-2.61591e-05 0.00390921 -4.7535e-07
-3.8063e-06 -4.7535e-07 0.00391463
0.000445215 0.000239511 -1.30789e-06
0.000239511 -0.000108705 -1.12317e-06
-1.30789e-06 -1.12317e-06 -0.000245652
0.001875 6.95489e-05 0.000254696
6.95489e-05 0.00081829 2.36369e-05
0.000254696 2.36369e-05 0.00080575
0.001996 0.000159344 0.00026087
0.000159344 0.000926949 3.65218e-05
0.00026087 3.65218e-05 0.000902493
0.00283146 0.000211086 0.000156103
0.000211086 0.0013329 2.26445e-05
0.000156103 2.26445e-05 0.00125001
0.00590865 -0.000297658 1.16674e-05
-0.000297658 0.00345312 5.01095e-06
1.16674e-05 5.01095e-06 0.00339673
0.00298608 0.000290247 0.000162698
0.000290247 0.00147056 2.81334e-05
0.000162698 2.81334e-05 0.00137161
0.000439508 0.000224459 2.66298e-05
0.000224459 -0.000108881 2.69883e-05
2.66298e-05 2.69883e-05 -0.00024495
0.000932014 0.000262667 1.37457e-05
0.000262667 3.82409e-05 6.19079e-06
1.37457e-05 6.19079e-06 -0.000183751
0.00473389 -0.000108658 0.000179878
-0.000108658 0.00270226 1.64913e-05
0.000179878 1.64913e-05 0.0027005
0.00613901 8.27444e-05 3.38013e-06
8.27444e-05 0.00351516 -1.8564e-06
3.38013e-06 -1.8564e-06 0.00354037
0.0040143 9.11786e-05 -0.000122119
9.11786e-05 0.00217807 -5.57151e-06
-0.000122119 -5.57151e-06 0.00216655
0.00599144 5.80795e-05 0.000308306
5.80795e-05 0.00342555 4.32131e-06
0.000308306 4.32131e-06 0.00345144
0.0014356 8.76084e-05 6.52946e-05
8.76084e-05 0.000568789 4.30763e-06
6.52946e-05 4.30763e-06 0.000527221
0.000511873 1.16157e-05 1.52035e-05
1.16157e-05 -0.000136637 1.85299e-06
1.52035e-05 1.85299e-06 -0.000222682
0.00638745 0.000235521 0.000178806
0.000235521 0.00369735 1.72569e-05
0.000178806 1.72569e-05 0.0036717
0.00282878 7.69962e-05 0.000146679
7.69962e-05 0.00130512 9.28153e-06
0.000146679 9.28153e-06 0.001246
0.0014438 -8.71005e-05 -7.7648e-05
-8.71005e-05 0.000584766 9.8897e-06
-7.7648e-05 9.8897e-06 0.000531829
0.00149947 -0.000110927 -7.05235e-05
-0.000110927 0.0006221 1.22938e-05
-7.05235e-05 1.22938e-05 0.000565516
0.00163741 -4.13248e-05 -4.55662e-05
-4.13248e-05 0.000698185 8.76528e-06
-4.55662e-05 8.76528e-06 0.000643758
0.00196935 -0.000179998 -0.000139434
-0.000179998 0.000799884 2.56386e-05
-0.000139434 2.56386e-05 0.000707563
0.00385992 -2.03814e-05 -0.000123857
-2.03814e-05 0.00209189 -1.71329e-06
-0.000123857 -1.71329e-06 0.0020802
0.00181398 -6.73305e-05 8.65888e-05
-6.73305e-05 0.000795602 -4.00146e-06
8.65888e-05 -4.00146e-06 0.000765477
0.00187013 -4.90188e-05 0.00012301
-4.90188e-05 0.000845682 -1.73353e-05
0.00012301 -1.73353e-05 0.000802468
0.0018802 -8.94591e-05 8.7789e-05
-8.94591e-05 0.000836928 -8.71701e-06
8.7789e-05 -8.71701e-06 0.000802898
0.0018865 -0.000117048 -3.31699e-05
-0.000117048 0.000741141 2.31007e-06
-3.31699e-05 2.31007e-06 0.000653891
0.00190006 -0.000179204 -4.80907e-05
-0.000179204 0.000775469 6.82241e-06
-4.80907e-05 6.82241e-06 0.000664454
0.00191868 -0.000163715 -3.53779e-05
-0.000163715 0.000768529 4.22312e-06
-3.53779e-05 4.22312e-06 0.000671384
0.00208047 -0.00032845 -9.91038e-06
-0.00032845 0.000648159 2.63079e-06
-9.91038e-06 2.63079e-06 0.000434091
0.00597672 5.46697e-06 0.000304298
5.46697e-06 0.00341424 -2.31938e-06
0.000304298 -2.31938e-06 0.00344142
0.00208003 -3.91752e-05 0.000241919
-3.91752e-05 0.000952241 -1.29109e-05
0.000241919 -1.29109e-05 0.00094246
0.00244747 -8.98703e-06 5.19745e-05
-8.98703e-06 0.00109344 -1.0439e-06
5.19745e-05 -1.0439e-06 0.00102497
0.00176863 -0.00011279 6.30109e-05
-0.00011279 0.000673531 -7.2014e-06
6.30109e-05 -7.2014e-06 0.00058366
0.0018345 -0.000144463 6.69221e-05
-0.000144463 0.000717394 -1.25294e-05
6.69221e-05 -1.25294e-05 0.000615606
0.00190649 -0.000212353 1.08922e-05
-0.000212353 0.000468359 -2.99823e-06
1.08922e-05 -2.99823e-06 0.000300147
0.00191776 -0.000287053 1.65928e-05
-0.000287053 0.000509772 -5.75375e-06
1.65928e-05 -5.75375e-06 0.000315008
0.00185604 -8.9469e-05 0.000242028
-8.9469e-05 0.00082699 -3.35582e-05
0.000242028 -3.35582e-05 0.000808476
0.00180911 -0.000106742 3.33826e-05
-0.000106742 0.000742558 -1.36345e-05
3.33826e-05 -1.36345e-05 0.000615359
0.00209019 -0.000355105 1.87093e-05
-0.000355105 0.000702919 -8.69061e-06
1.87093e-05 -8.69061e-06 0.000472418
0.00169907 -0.000427076 7.08676e-06
-0.000427076 0.00018706 -6.92641e-07
7.08676e-06 -6.92641e-07 -7.47716e-05
0.00693601 0.000268383 -0.000346383
0.000268383 0.00401691 -3.87985e-05
-0.000346383 -3.87985e-05 0.00402258
0.00663323 -5.31695e-05 -0.000262466
-5.31695e-05 0.00384253 -1.90609e-05
-0.000262466 -1.90609e-05 0.00384969
0.00683576 0.00010918 -0.000309526
0.00010918 0.00393991 -2.87167e-05
-0.000309526 -2.87167e-05 0.0039562
0.000403678 0.000229842 -2.52416e-05
0.000229842 -0.000129032 -2.0495e-05
-2.52416e-05 -2.0495e-05 -0.000268275
0.00682131 0.000241873 -2.42484e-06
0.000241873 0.00394057 -2.39989e-06
-2.42484e-06 -2.39989e-06 0.00395068
0.00694435 0.000218272 -8.95074e-06
0.000218272 0.00401445 -2.98288e-06
-8.95074e-06 -2.98288e-06 0.00402322
0.000361798 0.000132332 2.28316e-07
0.000132332 -0.000218976 -2.80063e-07
2.28316e-07 -2.80063e-07 -0.000333661
0.00369626 -9.34254e-05 -0.000119235
-9.34254e-05 0.00203824 -4.81701e-06
-0.000119235 -4.81701e-06 0.00200504
0.000349152 0.000211103 4.40001e-07
0.000211103 -0.000179972 -5.10413e-07
4.40001e-07 -5.10413e-07 -0.000313527
0.00175403 0.000231934 5.81362e-05
0.000231934 0.000719102 3.35156e-06
5.81362e-05 3.35156e-06 0.000605951
0.000846558 0.000254028 3.01334e-07
0.000254028 -8.68976e-06 3.56601e-08
3.01334e-07 3.56601e-08 -0.000228211
0.00561117 -0.000134673 0.000207932
-0.000134673 0.00326347 2.34541e-05
0.000207932 2.34541e-05 0.00324943
0.000637313 6.00833e-05 1.59405e-05
6.00833e-05 7.51201e-05 1.36495e-05
1.59405e-05 1.36495e-05 -4.33243e-07
0.00046459 0.000102216 1.50769e-05
0.000102216 -0.000173249 1.04629e-05
1.50769e-05 1.04629e-05 -0.000281869
0.000473758 0.000160922 1.97363e-05
0.000160922 -0.00013607 1.80882e-05
1.97363e-05 1.80882e-05 -0.000258229
0.00116129 0.000250224 1.54344e-05
0.000250224 9.14568e-06 5.64269e-06
1.54344e-05 5.64269e-06 -0.000192484
0.00302531 0.000213144 0.000145259
0.000213144 0.00152838 2.04842e-05
0.000145259 2.04842e-05 0.00144801
0.000969183 0.00027137 1.5463e-05
0.00027137 -7.67479e-06 6.55437e-06
1.5463e-05 6.55437e-06 -0.000226576
0.000835269 0.000257318 1.27413e-05
0.000257318 7.36444e-05 5.98501e-06
1.27413e-05 5.98501e-06 -0.000153335
0.0012676 0.000419298 2.47473e-06
0.000419298 0.00013958 -1.73551e-06
2.47473e-06 -1.73551e-06 -0.000161342
0.00365382 -0.00012375 0.000112286
-0.00012375 0.00201153 7.39755e-06
0.000112286 7.39755e-06 0.00200999
0.00425178 -0.000165234 2.42569e-05
-0.000165234 0.00240803 -6.16403e-07
2.42569e-05 -6.16403e-07 0.00239341
0.00660323 6.29165e-05 -0.000327318
6.29165e-05 0.00378958 -1.64361e-05
-0.000327318 -1.64361e-05 0.00381344
0.00622694 7.39305e-05 -0.000318506
7.39305e-05 0.00356616 -1.0008e-05
-0.000318506 -1.0008e-05 0.00359244
0.0060817 8.38164e-05 -7.88427e-08
8.38164e-05 0.00348697 -3.83189e-06
-7.88427e-08 -3.83189e-06 0.00350969
0.00386878 3.34206e-05 -0.000132958
3.34206e-05 0.0020875 -7.02008e-06
-0.000132958 -7.02008e-06 0.00208133
0.00158997 3.86986e-05 6.33132e-05
3.86986e-05 0.000540055 1.75777e-06
6.33132e-05 1.75777e-06 0.000471416
0.00419725 0.000150588 -0.000124874
0.000150588 0.00229667 -7.46613e-06
-0.000124874 -7.46613e-06 0.00227715
0.00166739 9.33439e-05 6.48381e-05
9.33439e-05 0.000581164 3.23661e-06
6.48381e-05 3.23661e-06 0.000501159
0.00603243 0.000121276 0.000311019
0.000121276 0.0034651 7.27463e-06
0.000311019 7.27463e-06 0.00348283
0.00041147 1.0454e-05 1.83903e-05
1.0454e-05 -0.000194289 8.89672e-07
1.83903e-05 8.89672e-07 -0.000276968
0.00280375 4.01375e-05 0.000143872
4.01375e-05 0.00129373 6.24032e-06
0.000143872 6.24032e-06 0.00124068
0.00111749 6.54033e-05 1.16594e-05
6.54033e-05 -3.83216e-05 7.24358e-07
1.16594e-05 7.24358e-07 -0.000171761
0.00279504 0.00012267 0.000152367
0.00012267 0.00128627 1.25779e-05
0.000152367 1.25779e-05 0.00122031
0.00120843 0.000148392 1.1422e-05
0.000148392 -6.43432e-06 1.64213e-06
1.1422e-05 1.64213e-06 -0.000163845
0.00182977 4.21e-05 -0.000243704
4.21e-05 0.000788318 3.13515e-06
-0.000243704 3.13515e-06 0.000791307
0.00143548 -1.79122e-05 -6.38692e-05
-1.79122e-05 0.00057165 2.95432e-06
-6.38692e-05 2.95432e-06 0.000525044
0.00169274 -4.70225e-06 -3.80083e-05
-4.70225e-06 0.000736436 8.41742e-06
-3.80083e-05 8.41742e-06 0.000679807
0.00143822 -0.000102901 -7.88854e-05
-0.000102901 0.000583188 1.2052e-05
-7.88854e-05 1.2052e-05 0.000528621
0.0020124 -9.6009e-05 -0.000132506
-9.6009e-05 0.000809592 1.258e-05
-0.000132506 1.258e-05 0.000733935
0.00200232 -0.000150077 -0.000135369
-0.000150077 0.000809354 2.16397e-05
-0.000135369 2.16397e-05 0.000724932
0.00194181 -0.000196361 -0.000143574
-0.000196361 0.000793793 2.74108e-05
-0.000143574 2.74108e-05 0.000694328
0.00206762 -0.000327891 -3.47372e-05
-0.000327891 0.000636855 1.19188e-05
-3.47372e-05 1.19188e-05 0.000423668
0.00607225 -0.000106383 2.33451e-06
-0.000106383 0.00348616 -1.88676e-06
2.33451e-06 -1.88676e-06 0.00350569
0.00171819 2.88976e-05 9.34867e-05
2.88976e-05 0.000729539 -4.60829e-06
9.34867e-05 -4.60829e-06 0.000708217
0.00115822 -1.10825e-05 -6.63654e-05
-1.10825e-05 0.00027521 2.01613e-06
-6.63654e-05 2.01613e-06 0.000205606
0.00184382 -7.68718e-05 -3.61459e-05
-7.68718e-05 0.000712742 2.95794e-06
-3.61459e-05 2.95794e-06 0.000632636
0.00437434 -4.04239e-05 0.000249333
-4.04239e-05 0.00242299 -1.68102e-05
0.000249333 -1.68102e-05 0.00241576
0.00245632 -0.000186189 -4.34076e-05
-0.000186189 0.00113639 3.88382e-06
-4.34076e-05 3.88382e-06 0.00102183
0.00190608 -0.000141629 -3.27588e-05
-0.000141629 0.000756355 2.99461e-06
-3.27588e-05 2.99461e-06 0.000664559
0.00198208 -0.0002132 -1.00901e-05
-0.0002132 0.000511897 1.82846e-06
-1.00901e-05 1.82846e-06 0.000347087
0.00208415 -0.000358115 -8.65584e-06
-0.000358115 0.000693272 2.4315e-06
-8.65584e-06 2.4315e-06 0.000462067
0.0019916 -0.000289824 -8.6832e-06
-0.000289824 0.000556516 2.28281e-06
-8.6832e-06 2.28281e-06 0.000360463
0.00173508 -0.000429296 8.2896e-07
-0.000429296 0.000211104 -1.41831e-07
8.2896e-07 -1.41831e-07 -5.03314e-05
0.000449341 9.57457e-06 1.9216e-05
9.57457e-06 -0.000174378 -7.02576e-07
1.9216e-05 -7.02576e-07 -0.000253606
0.00167935 -4.39082e-06 5.34311e-05
-4.39082e-06 0.000608577 -2.8038e-06
5.34311e-05 -2.8038e-06 0.000531865
0.00183546 -6.96794e-05 1.03954e-05
-6.96794e-05 0.000416233 -4.25661e-07
1.03954e-05 -4.25661e-07 0.000296797
0.0018188 -0.000167099 1.06221e-05
-0.000167099 0.000401563 -1.60462e-06
1.06221e-05 -1.60462e-06 0.000252693
0.00190619 -0.000249805 1.3519e-05
-0.000249805 0.000475486 -3.80696e-06
1.3519e-05 -3.80696e-06 0.000297494
0.00190242 -0.00029921 5.11151e-07
-0.00029921 0.000188699 -2.12027e-07
5.11151e-07 -2.12027e-07 1.20696e-05
0.00620851 0.000102858 0.000220489
0.000102858 0.00360116 -1.70859e-05
0.000220489 -1.70859e-05 0.00359691
0.00169832 -0.000393282 4.57381e-06
-0.000393282 0.000134884 -5.73666e-07
4.57381e-06 -5.73666e-07 -9.84906e-05
0.000243891 -0.000179597 2.03491e-05
-0.000179597 -0.000240006 -2.10064e-05
2.03491e-05 -2.10064e-05 -0.000359927
0.000896235 -0.000273287 1.43351e-05
-0.000273287 1.35235e-05 -8.73485e-06
1.43351e-05 -8.73485e-06 -0.000217389
0.00178509 -0.000475093 9.52819e-06
-0.000475093 0.000303139 -1.5594e-06
9.52819e-06 -1.5594e-06 5.2993e-06
0.00192387 -0.000498708 2.54596e-06
-0.000498708 0.000220324 2.12557e-06
2.54596e-06 2.12557e-06 -2.92822e-05
0.000460707 -0.000145633 2.23809e-05
-0.000145633 -6.73497e-05 -1.66695e-05
2.23809e-05 -1.66695e-05 -0.000168735
0.000627908 -0.00013075 -3.44436e-07
-0.00013075 9.11178e-05 -3.06126e-08
-3.44436e-07 -3.06126e-08 -0.000149798
0.00689191 0.000265594 -0.000353855
0.000265594 0.00399065 -3.67101e-05
-0.000353855 -3.67101e-05 0.00399749
0.00689952 0.000204946 -0.000330577
0.000204946 0.00398466 -3.51906e-05
-0.000330577 -3.51906e-05 0.00399696
0.000338572 0.000129275 -1.83089e-05
0.000129275 -0.00023512 -1.29365e-05
-1.83089e-05 -1.29365e-05 -0.000350014
0.00590562 -0.000127196 -0.000207172
-0.000127196 0.00342252 -1.51161e-05
-0.000207172 -1.51161e-05 0.00341675
0.000329596 0.000201242 -2.31308e-05
0.000201242 -0.000177724 -2.06175e-05
-2.31308e-05 -2.06175e-05 -0.000298413
0.00034679 0.000197393 -2.08459e-05
0.000197393 -0.000179476 -1.85273e-05
-2.08459e-05 -1.85273e-05 -0.000314094
0.000859585 0.000251593 -1.47301e-05
0.000251593 3.79623e-06 -6.7737e-06
-1.47301e-05 -6.7737e-06 -0.000214094
0.00533893 -0.000126486 -6.77418e-07
-0.000126486 0.00308067 8.08592e-07
-6.77418e-07 8.08592e-07 0.00307385
0.000510012 4.6598e-05 1.65602e-06
4.6598e-05 -8.42781e-07 4.51317e-07
1.65602e-06 4.51317e-07 -7.28394e-05
0.00167422 0.000143886 6.67993e-05
0.000143886 0.000589231 5.83587e-06
6.67993e-05 5.83587e-06 0.000495998
0.00164962 0.000206094 6.8048e-05
0.000206094 0.000608692 6.60033e-06
6.8048e-05 6.60033e-06 0.000500402
0.00113087 0.000249026 9.90095e-08
0.000249026 -4.33529e-06 -2.84477e-07
9.90095e-08 -2.84477e-07 -0.00020679
0.000448143 0.000175161 -7.03588e-08
0.000175161 -8.6805e-05 -4.71512e-07
-7.03588e-08 -4.71512e-07 -0.000192486
0.000995602 0.000269465 9.51652e-07
0.000269465 1.82808e-05 1.13447e-07
9.51652e-07 1.13447e-07 -0.000199752
0.000827805 0.00024658 3.4868e-07
0.00024658 6.14246e-05 -8.623e-07
3.4868e-07 -8.623e-07 -0.000160739
0.00140555 0.000440904 -3.54273e-07
0.000440904 0.000212266 -4.21529e-07
-3.54273e-07 -4.21529e-07 -9.22336e-05
0.00043445 0.000125647 1.85589e-05
0.000125647 -6.78602e-05 1.64276e-05
1.85589e-05 1.64276e-05 -0.000165785
0.000669867 9.70986e-06 8.63812e-06
9.70986e-06 0.000104348 1.20117e-05
8.63812e-06 1.20117e-05 4.97569e-05
0.00131407 0.000192272 5.21535e-06
0.000192272 0.000538754 4.12159e-06
5.21535e-06 4.12159e-06 0.000320911
0.0011954 0.000219456 1.2323e-05
0.000219456 -2.41555e-06 4.08895e-06
1.2323e-05 4.08895e-06 -0.00018942
0.0011044 0.000271565 1.69492e-05
0.000271565 1.94163e-05 6.50515e-06
1.69492e-05 6.50515e-06 -0.00019413
0.00189383 0.000421841 3.82935e-06
0.000421841 0.000233179 -8.49905e-08
3.82935e-06 -8.49905e-08 -4.37805e-06
0.000698624 0.000217911 9.5391e-06
0.000217911 4.66787e-05 5.90091e-06
9.5391e-06 5.90091e-06 -0.000170316
0.00177767 0.000483729 4.07189e-06
0.000483729 0.000330751 -1.02641e-06
4.07189e-06 -1.02641e-06 3.90237e-05
0.00109462 0.000387785 1.01116e-06
0.000387785 0.000121211 -2.04626e-06
1.01116e-06 -2.04626e-06 -0.0001884
0.00155101 0.000528605 -6.02888e-06
0.000528605 0.000202435 -4.75063e-06
-6.02888e-06 -4.75063e-06 -0.000123159
0.00324739 -0.000132577 7.16403e-05
-0.000132577 0.00175005 4.05502e-06
7.16403e-05 4.05502e-06 0.00174651
0.00359946 -0.000161539 1.3895e-05
-0.000161539 0.00198471 -8.57629e-07
1.3895e-05 -8.57629e-07 0.00197304
0.00406293 -0.000204326 -8.31978e-05
-0.000204326 0.00229474 -6.5708e-06
-8.31978e-05 -6.5708e-06 0.00227033
0.000492692 -0.000129748 2.13144e-05
-0.000129748 -2.97314e-05 -1.49388e-05
2.13144e-05 -1.49388e-05 -0.000117027
0.00561345 0.000149237 0.000181338
0.000149237 0.00326077 -1.75133e-05
0.000181338 -1.75133e-05 0.00324442
0.00682123 0.000223476 -0.000352892
0.000223476 0.00394048 -3.04159e-05
-0.000352892 -3.04159e-05 0.00395379
0.00634943 9.67669e-05 -0.000322388
9.67669e-05 0.00363875 -1.4122e-05
-0.000322388 -1.4122e-05 0.00366356
0.000400562 9.71921e-05 -1.90507e-05
9.71921e-05 -0.000210336 -5.5358e-06
-1.90507e-05 -5.5358e-06 -0.000307414
0.000408614 4.35507e-05 -1.90058e-05
4.35507e-05 -0.000196708 -2.75092e-06
-1.90058e-05 -2.75092e-06 -0.000283524
0.0060283 -5.7002e-06 -0.000305973
-5.7002e-06 0.00344457 -2.67202e-06
-0.000305973 -2.67202e-06 0.00347194
0.00596955 5.44781e-06 -1.25132e-07
5.44781e-06 0.00340929 -1.02311e-06
-1.25132e-07 -1.02311e-06 0.00343675
0.000391591 8.18659e-07 -7.79504e-08
8.18659e-07 -0.000209489 1.50444e-07
-7.79504e-08 1.50444e-07 -0.000290365
0.0015831 4.03976e-05 6.38731e-05
4.03976e-05 0.000529934 2.92507e-06
6.38731e-05 2.92507e-06 0.000458542
0.00108764 6.90114e-05 -6.29935e-08
6.90114e-05 -6.13921e-05 -5.6437e-08
-6.29935e-08 -5.6437e-08 -0.000195757
0.000377988 8.45869e-05 -7.44874e-07
8.45869e-05 -0.00022633 -4.36917e-07
-7.44874e-07 -4.36917e-07 -0.000329986
0.00114936 0.000148797 -1.78162e-07
0.000148797 -4.35426e-05 -1.84946e-07
-1.78162e-07 -1.84946e-07 -0.000202152
0.000386088 -3.17115e-05 1.90032e-05
-3.17115e-05 -0.000214238 -8.06541e-07
1.90032e-05 -8.06541e-07 -0.000292419
0.00106948 2.83596e-05 1.1392e-05
2.83596e-05 -5.71636e-05 3.58699e-07
1.1392e-05 3.58699e-07 -0.000185098
0.0011472 0.000106765 1.15896e-05
0.000106765 -3.36451e-05 1.17893e-06
1.15896e-05 1.17893e-06 -0.00017759
0.00185015 0.000110071 5.92993e-07
0.000110071 7.07301e-05 -4.48838e-07
5.92993e-07 -4.48838e-07 -3.33745e-05
0.0012122 0.00018386 1.09157e-05
0.00018386 -5.49028e-06 2.65728e-06
1.09157e-05 2.65728e-06 -0.000177103
0.00197072 0.000253697 8.10563e-07
0.000253697 0.000156984 -7.56061e-07
8.10563e-07 -7.56061e-07 1.28133e-05
0.00598934 -6.78705e-05 -0.000310039
-6.78705e-05 0.00342852 3.21114e-06
-0.000310039 3.21114e-06 0.00345206
0.0013701 -0.000156892 -6.46827e-05
-0.000156892 0.000547769 7.91082e-06
-6.46827e-05 7.91082e-06 0.000496715
-0.000249341 -6.61215e-06 -1.19766e-05
-6.61215e-06 -0.00060243 1.80935e-06
-1.19766e-05 1.80935e-06 -0.000697788
0.00195561 -6.83614e-05 -0.000129989
-6.83614e-05 0.000775654 8.82093e-06
-0.000129989 8.82093e-06 0.000705111
0.00657679 0.000260846 -3.10004e-05
0.000260846 0.00383288 3.76358e-06
-3.10004e-05 3.76358e-06 0.00378315
0.00314142 -0.00027496 -0.000148206
-0.00027496 0.00156211 2.86736e-05
-0.000148206 2.86736e-05 0.00145239
0.00202356 -0.000122458 -0.000133749
-0.000122458 0.000817926 1.69018e-05
-0.000133749 1.69018e-05 0.000738674
0.00202918 -0.000212397 -3.06145e-05
-0.000212397 0.00053721 5.63936e-06
-3.06145e-05 5.63936e-06 0.000376126
0.00205052 -0.000291937 -3.21089e-05
-0.000291937 0.000593304 1.02752e-05
-3.21089e-05 1.02752e-05 0.000396212
0.00199837 -0.000354396 -3.26272e-05
-0.000354396 0.000635188 1.24832e-05
-3.26272e-05 1.24832e-05 0.000404241
0.00179261 -0.000433317 -5.48875e-06
-0.000433317 0.000248367 5.4664e-07
-5.48875e-06 5.4664e-07 -1.2956e-05
0.000389572 4.47324e-06 -2.97784e-08
4.47324e-06 -0.000209671 3.18462e-07
-2.97784e-08 3.18462e-07 -0.0002899
0.00181339 -8.71514e-05 -3.47511e-05
-8.71514e-05 0.000698809 5.02293e-07
-3.47511e-05 5.02293e-07 0.000623635
0.00148053 -6.5283e-05 -1.07439e-05
-6.5283e-05 0.000193634 7.27339e-07
-1.07439e-05 7.27339e-07 6.98659e-05
0.00190451 -0.000167952 -9.17655e-06
-0.000167952 0.000454498 1.45538e-06
-9.17655e-06 1.45538e-06 0.0003043
0.00643434 0.000101673 5.2622e-06
0.000101673 0.00374503 5.61921e-07
5.2622e-06 5.61921e-07 0.00373863
0.00171503 -0.000183994 4.92601e-06
-0.000183994 0.000694107 6.6156e-07
4.92601e-06 6.6156e-07 0.000564833
0.00138988 -0.000310233 1.62227e-06
-0.000310233 0.00032263 -1.08174e-06
1.62227e-06 -1.08174e-06 8.79645e-05
0.00194702 -0.000252506 -9.20875e-06
-0.000252506 0.000499769 2.34803e-06
-9.20875e-06 2.34803e-06 0.000321201
0.00193973 -0.000303541 -4.1496e-07
-0.000303541 0.000207916 -1.7001e-08
-4.1496e-07 -1.7001e-08 3.70168e-05
0.00178545 -0.000474172 1.01485e-06
-0.000474172 0.000306607 -3.12862e-07
1.01485e-06 -3.12862e-07 1.04541e-05
0.00182546 -0.000398247 6.30224e-07
-0.000398247 0.000217414 -2.09941e-07
6.30224e-07 -2.09941e-07 -1.64389e-05
0.00196272 -0.000500203 8.30828e-07
-0.000500203 0.000249224 1.35878e-07
8.30828e-07 1.35878e-07 -2.37545e-07
0.000464219 -0.00015703 2.02929e-06
-0.00015703 -7.02584e-05 5.58434e-07
2.02929e-06 5.58434e-07 -0.000171715
0.00069122 -0.000170298 9.99509e-07
-0.000170298 0.000118071 1.55386e-07
9.99509e-07 1.55386e-07 -0.000112724
0.00106914 -3.22123e-05 1.16311e-05
-3.22123e-05 -5.26753e-05 -5.87056e-07
1.16311e-05 -5.87056e-07 -0.000180918
0.00189037 -0.00011532 9.57645e-06
-0.00011532 0.000448676 -8.13705e-07
9.57645e-06 -8.13705e-07 0.000317581
0.0018373 -0.000116562 6.14483e-07
-0.000116562 9.15649e-05 1.81322e-07
6.14483e-07 1.81322e-07 -2.23945e-05
0.00181879 -0.000245494 -2.89112e-07
-0.000245494 0.000104329 8.26405e-07
-2.89112e-07 8.26405e-07 -3.80736e-05
0.00181443 -0.00035399 7.43307e-07
-0.00035399 0.00016058 3.7648e-07
7.43307e-07 3.7648e-07 -3.9916e-05
0.00209003 -0.000346912 2.56324e-06
-0.000346912 0.000189628 -4.39956e-07
2.56324e-06 -4.39956e-07 5.06214e-05
0.000345672 -0.000165923 2.00897e-05
-0.000165923 -0.000154159 -1.99592e-05
2.00897e-05 -1.99592e-05 -0.000268686
0.00197345 -0.000460543 8.42884e-07
-0.000460543 0.000202529 1.58008e-06
8.42884e-07 1.58008e-06 -6.6314e-06
0.000599783 -0.00023885 1.02214e-05
-0.00023885 -7.92645e-05 -8.57607e-06
1.02214e-05 -8.57607e-06 -0.000306475
0.00147938 -0.000485102 1.12981e-05
-0.000485102 0.000207147 -1.81313e-06
1.12981e-05 -1.81313e-06 -0.000122081
0.00212965 -0.000561083 3.36099e-06
-0.000561083 0.000415655 1.19291e-06
3.36099e-06 1.19291e-06 0.000112337
0.00224194 -0.000536697 -1.15572e-06
-0.000536697 0.000380352 4.18782e-06
-1.15572e-06 4.18782e-06 0.00016015
0.000586307 -0.000208329 1.61825e-06
-0.000208329 3.31468e-05 -3.54556e-06
1.61825e-06 -3.54556e-06 -0.000216788
0.000680905 -0.000120784 3.80473e-07
-0.000120784 0.000136847 -1.27077e-06
3.80473e-07 -1.27077e-06 -6.62533e-05
0.000930933 -0.000276156 -1.3434e-06
-0.000276156 0.000258345 2.85744e-06
-1.3434e-06 2.85744e-06 -3.40852e-05
0.000369126 0.00010817 -1.76465e-05
0.00010817 -0.000228173 -9.94475e-06
-1.76465e-05 -9.94475e-06 -0.00033795
0.00485487 -0.000182432 -0.000140579
-0.000182432 0.0027935 -1.1531e-05
-0.000140579 -1.1531e-05 0.00277359
0.000291731 3.64198e-05 -1.0858e-05
3.64198e-05 -0.000134368 -1.34901e-05
-1.0858e-05 -1.34901e-05 -0.00020059
0.000354359 0.000163725 -1.98875e-05
0.000163725 -0.000202796 -1.59491e-05
-1.98875e-05 -1.59491e-05 -0.000326777
0.00111424 0.000248805 -1.64403e-05
0.000248805 -9.1367e-06 -6.23267e-06
-1.64403e-05 -6.23267e-06 -0.000212477
0.000457872 0.000163943 -2.29533e-05
0.000163943 -8.16309e-05 -1.86428e-05
-2.29533e-05 -1.86428e-05 -0.000186248
0.000617292 0.000226894 -1.12559e-05
0.000226894 -6.99402e-05 -7.6892e-06
-1.12559e-05 -7.6892e-06 -0.000286668
0.00096778 0.000264107 -1.57948e-05
0.000264107 1.06428e-05 -7.06519e-06
-1.57948e-05 -7.06519e-06 -0.000206241
0.00151013 0.000458914 -4.00725e-06
0.000458914 0.000263946 7.95354e-07
-4.00725e-06 7.95354e-07 -4.33137e-05
0.000502661 0.000121582 -5.32876e-07
0.000121582 -3.18468e-05 1.24513e-06
-5.32876e-07 1.24513e-06 -0.000122692
0.000424233 -1.07585e-05 3.8529e-07
-1.07585e-05 -4.0265e-05 6.395e-07
3.8529e-07 6.395e-07 -9.53513e-05
0.000725986 0.000120651 3.27659e-06
0.000120651 0.000158409 -8.25262e-07
3.27659e-06 -8.25262e-07 -4.32643e-05
0.00117215 0.000219655 -1.18636e-07
0.000219655 -1.17081e-05 -3.18448e-07
-1.18636e-07 -3.18448e-07 -0.000199835
0.00106223 0.000267061 4.87592e-07
0.000267061 -1.69843e-07 -2.0952e-07
4.87592e-07 -2.0952e-07 -0.000213323
0.00186827 0.000420029 -2.85656e-07
0.000420029 0.000215884 -1.37466e-07
-2.85656e-07 -1.37466e-07 -2.18107e-05
0.000670192 0.000220311 -3.07791e-07
0.000220311 3.17043e-05 6.94912e-08
-3.07791e-07 6.94912e-08 -0.000183751
0.00176981 0.000481136 -3.47972e-07
0.000481136 0.0003205 -3.40879e-07
-3.47972e-07 -3.40879e-07 2.78849e-05
0.00128257 0.000408496 2.24781e-07
0.000408496 0.000240374 -1.03335e-06
2.24781e-07 -1.03335e-06 -7.33086e-05
0.00153942 0.000538508 -5.59671e-07
0.000538508 0.000178539 1.71523e-06
-5.59671e-07 1.71523e-06 -0.000147245
0.000514506 -2.13504e-05 2.48562e-06
-2.13504e-05 1.13448e-05 1.00361e-05
2.48562e-06 1.00361e-05 -3.31242e-05
0.00103032 0.000189171 5.4809e-06
0.000189171 0.000310682 3.26019e-06
5.4809e-06 3.26019e-06 9.09094e-05
0.00103645 6.92017e-05 4.72825e-07
6.92017e-05 0.000344559 6.55274e-06
4.72825e-07 6.55274e-06 0.000188089
0.00106869 0.000207456 1.51765e-06
0.000207456 0.000389338 3.79736e-07
1.51765e-06 3.79736e-07 0.000113901
0.00193818 0.000373488 7.98466e-07
0.000373488 0.000200008 -1.61951e-06
7.98466e-07 -1.61951e-06 -4.09246e-06
0.00182775 0.000460129 4.756e-06
0.000460129 0.000268093 -9.5442e-08
4.756e-06 -9.5442e-08 -1.43229e-06
0.00207801 0.000489494 1.47883e-07
0.000489494 0.000252493 -1.06254e-06
1.47883e-07 -1.06254e-06 2.69985e-05
0.000916982 0.000312112 3.19065e-06
0.000312112 7.10471e-05 7.84782e-07
3.19065e-06 7.84782e-07 -0.000202202
0.00222749 0.000608281 -3.86868e-06
0.000608281 0.000493752 -2.20482e-06
-3.86868e-06 -2.20482e-06 0.000188664
0.00184179 0.000573587 -3.93935e-06
0.000573587 0.000495496 -6.54725e-06
-3.93935e-06 -6.54725e-06 0.000118345
0.00187188 0.000585644 -1.18453e-06
0.000585644 0.000289873 -1.73473e-06
-1.18453e-06 -1.73473e-06 -2.75412e-05
0.000559872 4.75568e-05 2.23293e-06
4.75568e-05 5.24299e-05 4.56438e-06
2.23293e-06 4.56438e-06 -2.34217e-05
0.000475243 -1.7906e-05 1.87956e-06
-1.7906e-05 -2.79863e-05 7.24767e-06
1.87956e-06 7.24767e-06 -5.75632e-05
0.00285825 -0.000121916 4.60305e-05
-0.000121916 0.00149659 4.19119e-06
4.60305e-05 4.19119e-06 0.00149555
0.0031068 -0.00014624 8.76301e-06
-0.00014624 0.00166419 -8.73049e-07
8.76301e-06 -8.73049e-07 0.00165651
0.00340799 -0.000175502 -5.74746e-05
-0.000175502 0.00186708 -4.19849e-06
-5.74746e-05 -4.19849e-06 0.00185074
0.000449196 -0.000111012 1.79844e-05
-0.000111012 -3.45755e-05 -1.44423e-05
1.79844e-05 -1.44423e-05 -0.000108656
0.0051025 0.000177773 0.000145056
0.000177773 0.00295643 -1.66383e-05
0.000145056 -1.66383e-05 0.00293263
0.000503268 -0.000128498 6.31198e-07
-0.000128498 -2.37301e-05 3.82738e-07
6.31198e-07 3.82738e-07 -0.000115849
0.00584335 0.000131356 5.09185e-06
0.000131356 0.00339917 8.78657e-07
5.09185e-06 8.78657e-07 0.00338538
0.000403921 0.000110668 -1.88047e-05
0.000110668 -0.000207718 -7.75452e-06
-1.88047e-05 -7.75452e-06 -0.000313523
0.000420549 3.48405e-05 -1.79827e-05
3.48405e-05 -0.000196392 -3.35234e-06
-1.79827e-05 -3.35234e-06 -0.000285906
0.00111842 0.000149164 -1.14992e-05
0.000149164 -6.43023e-05 -1.96888e-06
-1.14992e-05 -1.96888e-06 -0.000223896
0.00106201 7.15099e-05 -1.17492e-05
7.15099e-05 -8.15992e-05 -7.66027e-07
-1.17492e-05 -7.66027e-07 -0.000216702
0.000444172 -7.66652e-06 -1.90678e-05
-7.66652e-06 -0.000179784 -8.37366e-07
-1.90678e-05 -8.37366e-07 -0.000258894
0.00606235 -0.000100169 -0.000316937
-0.000100169 0.00347893 5.51731e-06
-0.000316937 5.51731e-06 0.00350038
0.000433618 -2.38137e-06 8.79238e-08
-2.38137e-06 -0.000185448 -6.73136e-07
8.79238e-08 -6.73136e-07 -0.000263539
0.00105245 3.36789e-05 -8.26897e-08
3.36789e-05 -6.9704e-05 4.86309e-08
-8.26897e-08 4.86309e-08 -0.000198129
0.00113385 0.000109019 -1.29193e-07
0.000109019 -4.56589e-05 -3.11367e-08
-1.29193e-07 -3.11367e-08 -0.000190567
0.00185415 0.000108429 -1.36553e-07
0.000108429 8.07422e-05 2.5774e-07
-1.36553e-07 2.5774e-07 -2.31902e-05
0.00117348 0.000185438 -2.67512e-07
0.000185438 -2.74153e-05 -2.46304e-07
-2.67512e-07 -2.46304e-07 -0.000200598
0.00191908 0.000250781 -1.63711e-07
0.000250781 0.000123224 1.40445e-07
-1.63711e-07 1.40445e-07 -2.10169e-05
0.00104642 -3.66069e-06 1.14419e-05
-3.66069e-06 -6.62526e-05 -3.01633e-07
1.14419e-05 -3.01633e-07 -0.000193128
0.00181416 5.17918e-05 1.23979e-06
5.17918e-05 5.65613e-05 -4.71588e-08
1.23979e-06 -4.71588e-08 -3.89026e-05
0.00190269 0.000179176 4.53826e-07
0.000179176 0.000107585 -8.51342e-07
4.53826e-07 -8.51342e-07 -1.32148e-05
0.0020171 0.000136841 3.92839e-06
0.000136841 6.40031e-05 9.7081e-07
3.92839e-06 9.7081e-07 1.16951e-05
0.00196699 0.000318062 6.99054e-07
0.000318062 0.000169568 -1.00363e-06
6.99054e-07 -1.00363e-06 -2.73592e-06
0.00204342 0.000280218 2.50979e-06
0.000280218 9.62559e-05 -1.94798e-07
2.50979e-06 -1.94798e-07 -8.41282e-06
0.000418438 -2.7814e-06 -1.82388e-05
-2.7814e-06 -0.000188339 8.97186e-07
-1.82388e-05 8.97186e-07 -0.000270791
0.00190972 -4.28907e-05 -0.000127484
-4.28907e-05 0.000749392 5.93429e-06
-0.000127484 5.93429e-06 0.000684776
0.00108909 -6.01184e-05 -1.81883e-05
-6.01184e-05 -5.15231e-05 1.65498e-06
-1.81883e-05 1.65498e-06 -0.000180012
0.00197024 -0.000167933 -2.83894e-05
-0.000167933 0.000494306 4.31902e-06
-2.83894e-05 4.31902e-06 0.0003429
0.00663854 8.04377e-05 -0.00025306
8.04377e-05 0.00386678 2.47979e-05
-0.00025306 2.47979e-05 0.00386232
0.0032343 -0.000259404 -0.000155336
-0.000259404 0.00163837 2.39113e-05
-0.000155336 2.39113e-05 0.0015385
0.00206132 -0.000366622 -2.67674e-05
-0.000366622 0.000740511 1.11108e-05
-2.67674e-05 1.11108e-05 0.000497934
0.00198227 -0.000254444 -3.1291e-05
-0.000254444 0.000520271 8.02213e-06
-3.1291e-05 8.02213e-06 0.000341404
0.00198272 -0.00030822 -2.52876e-06
-0.00030822 0.000230377 -3.27658e-07
-2.52876e-06 -3.27658e-07 6.51384e-05
0.00194888 -0.000402792 -3.8416e-06
-0.000402792 0.000298659 8.94928e-07
-3.8416e-06 8.94928e-07 6.43614e-05
0.00177485 -0.000472387 -7.76537e-06
-0.000472387 0.000301785 5.47158e-07
-7.76537e-06 5.47158e-07 7.59391e-06
0.00200033 -0.000502093 -7.84658e-07
-0.000502093 0.00027585 -1.90476e-06
-7.84658e-07 -1.90476e-06 2.63952e-05
0.000443123 -0.000163477 -2.0627e-05
-0.000163477 -7.77513e-05 1.8054e-05
-2.0627e-05 1.8054e-05 -0.000185547
0.000686889 -0.000193431 -5.23566e-07
-0.000193431 0.000116321 -2.71258e-07
-5.23566e-07 -2.71258e-07 -0.000114467
0.00106198 -2.71195e-05 3.50616e-07
-2.71195e-05 -5.92952e-05 6.08969e-08
3.50616e-07 6.08969e-08 -0.000184531
0.00188466 -0.000115734 -9.28984e-06
-0.000115734 0.000442838 1.12716e-06
-9.28984e-06 1.12716e-06 0.000311933
0.00186069 -0.000113501 2.41399e-07
-0.000113501 0.000103693 -2.36084e-07
2.41399e-07 -2.36084e-07 -5.30431e-06
0.0018207 -0.000244898 -2.5807e-06
-0.000244898 0.000112001 7.94397e-07
-2.5807e-06 7.94397e-07 -3.70689e-05
0.000432272 -0.000187009 2.18915e-07
-0.000187009 -0.000101697 1.60824e-07
2.18915e-07 1.60824e-07 -0.000217285
0.000808828 -0.000254629 -4.74917e-07
-0.000254629 4.22394e-05 -1.91263e-07
-4.74917e-07 -1.91263e-07 -0.000188306
0.00145515 -0.000480612 1.90307e-06
-0.000480612 0.000198954 -3.01983e-07
1.90307e-06 -3.01983e-07 -0.000130552
0.00187475 -0.000356044 -2.91728e-06
-0.000356044 0.00020143 8.62503e-07
-2.91728e-06 8.62503e-07 -2.27608e-06
0.00205493 -0.000347833 2.25137e-06
-0.000347833 0.000157934 -9.76454e-07
2.25137e-06 -9.76454e-07 2.40851e-05
0.00217654 -0.000569805 -6.57598e-07
-0.000569805 0.000440568 -6.15905e-07
-6.57598e-07 -6.15905e-07 0.000138365
0.00199236 -0.00046154 5.86422e-07
-0.00046154 0.000216172 1.44596e-08
5.86422e-07 1.44596e-08 6.77981e-06
0.00209791 -0.000530183 6.84841e-07
-0.000530183 0.000283428 8.57975e-07
6.84841e-07 8.57975e-07 6.2655e-05
0.000633297 -0.000201274 4.33795e-07
-0.000201274 6.36015e-05 -3.87639e-07
4.33795e-07 -3.87639e-07 -0.000183381
0.00051856 -0.000189944 1.01715e-06
-0.000189944 -2.86496e-05 7.03265e-07
1.01715e-06 7.03265e-07 -0.000296414
0.000727247 -0.000142415 5.95986e-07
-0.000142415 0.000167674 1.19985e-07
5.95986e-07 1.19985e-07 -4.08903e-05
0.00181158 -5.23226e-05 7.14887e-07
-5.23226e-05 7.53321e-05 4.8513e-09
7.14887e-07 4.8513e-09 -2.85692e-05
0.00194479 -0.000177723 -2.02118e-06
-0.000177723 0.000164873 6.99478e-07
-2.02118e-06 6.99478e-07 4.31389e-05
0.00199488 -0.000129896 5.9576e-06
-0.000129896 6.54119e-05 -1.06383e-06
5.9576e-06 -1.06383e-06 1.99461e-06
0.00198302 -0.000285673 1.05131e-06
-0.000285673 8.5357e-05 1.30904e-07
1.05131e-06 1.30904e-07 -1.79025e-05
0.00187575 -0.000409543 -7.60305e-07
-0.000409543 9.0457e-05 1.7267e-06
-7.60305e-07 1.7267e-06 -7.94544e-05
0.00218417 -0.000375678 3.92716e-06
-0.000375678 0.000180791 -1.1661e-06
3.92716e-06 -1.1661e-06 8.34754e-05
0.000646382 -0.000237626 6.48384e-06
-0.000237626 2.04663e-05 -7.24884e-06
6.48384e-06 -7.24884e-06 -0.000209574
0.00195806 -0.000487184 -2.32806e-07
-0.000487184 0.000141483 1.39777e-06
-2.32806e-07 1.39777e-06 -4.03362e-05
0.00130518 -0.00044291 8.20521e-06
-0.00044291 0.000251438 -2.96409e-06
8.20521e-06 -2.96409e-06 -8.18466e-05
0.00185188 -0.000629638 6.62019e-06
-0.000629638 0.000334603 2.03375e-06
6.62019e-06 2.03375e-06 -3.8899e-05
0.00224352 -0.000599349 4.38655e-06
-0.000599349 0.000437335 4.02162e-06
4.38655e-06 4.02162e-06 0.000151435
0.00229301 -0.000560523 -2.71225e-06
-0.000560523 0.000415673 2.30288e-06
-2.71225e-06 2.30288e-06 0.000202907
0.000443015 -0.00011382 -1.38885e-07
-0.00011382 2.85268e-06 -6.07838e-06
-1.38885e-07 -6.07838e-06 -0.000171177
0.00120007 -0.000300977 6.87171e-07
-0.000300977 0.000320192 -2.48291e-06
6.87171e-07 -2.48291e-06 6.26462e-05
0.000572916 -0.000202087 2.378e-07
-0.000202087 0.00011076 5.70714e-06
2.378e-07 5.70714e-06 -0.000210982
0.00171098 -0.000385592 -2.8585e-06
-0.000385592 0.000664868 3.25502e-06
-2.8585e-06 3.25502e-06 0.000359321
0.00113087 0.000219339 -1.33887e-05
0.000219339 -3.29856e-05 -4.66863e-06
-1.33887e-05 -4.66863e-06 -0.000222262
0.000330144 -3.72116e-05 1.97773e-06
-3.72116e-05 -8.35223e-05 -1.25851e-05
1.97773e-06 -1.25851e-05 -0.000145434
0.000426815 0.000100926 -2.04158e-05
0.000100926 -7.8442e-05 -1.43578e-05
-2.04158e-05 -1.43578e-05 -0.000163433
-5.32421e-05 9.96398e-05 -2.55069e-06
9.96398e-05 -0.000315905 -3.73768e-06
-2.55069e-06 -3.73768e-06 -0.000521544
0.00105378 0.000264524 -1.75753e-05
0.000264524 1.54434e-06 -7.2192e-06
-1.75753e-05 -7.2192e-06 -0.000211307
0.00183414 0.000417503 -3.69387e-06
0.000417503 0.00019299 1.17217e-07
-3.69387e-06 1.17217e-07 -4.47409e-05
0.000634341 0.000219891 -6.39541e-06
0.000219891 9.32121e-06 -4.08217e-06
-6.39541e-06 -4.08217e-06 -0.000203974
0.00135438 0.000417227 -3.65248e-06
0.000417227 0.000287083 -1.15249e-06
-3.65248e-06 -1.15249e-06 -2.80799e-05
0.0017636 0.000478929 -4.20518e-06
0.000478929 0.000311456 5.61535e-07
-4.20518e-06 5.61535e-07 1.78713e-05
0.00148527 0.000541933 3.146e-06
0.000541933 0.000134118 6.39282e-06
3.146e-06 6.39282e-06 -0.000190147
0.00047056 -3.71741e-05 -3.6525e-06
-3.71741e-05 -7.83104e-06 8.0359e-07
-3.6525e-06 8.0359e-07 -5.59029e-05
0.000662505 0.000204653 -1.45289e-06
0.000204653 9.58046e-05 -6.5381e-07
-1.45289e-06 -6.5381e-07 -0.000133231
0.00062272 6.85048e-05 4.47139e-07
6.85048e-05 8.43926e-05 1.05207e-07
4.47139e-07 1.05207e-07 -6.3555e-05
0.000811918 0.000177903 9.30397e-08
0.000177903 0.000214005 -5.15106e-07
9.30397e-08 -5.15106e-07 -4.98463e-05
0.00191807 0.00037173 -1.24926e-06
0.00037173 0.000187149 -1.05807e-06
-1.24926e-06 -1.05807e-06 -1.70277e-05
0.00178216 0.000457579 -3.06143e-07
0.000457579 0.000238439 -2.39191e-07
-3.06143e-07 -2.39191e-07 -3.14974e-05
0.00204827 0.000485343 2.32196e-07
0.000485343 0.000237888 2.2386e-07
2.32196e-07 2.2386e-07 1.33141e-05
0.00108503 0.000325555 2.95942e-06
0.000325555 0.000192359 1.04165e-07
2.95942e-06 1.04165e-07 -8.18801e-05
0.00211251 0.000589443 2.91379e-08
0.000589443 0.000431574 4.27764e-07
2.91379e-08 4.27764e-07 0.000128144
0.00158441 0.000549769 -1.11194e-06
0.000549769 0.000336376 -1.78164e-06
-1.11194e-06 -1.78164e-06 -3.85714e-05
0.00188214 0.000577469 -4.29839e-06
0.000577469 0.000300793 1.99504e-06
-4.29839e-06 1.99504e-06 -8.7859e-06
0.000535574 -2.46689e-05 1.54859e-06
-2.46689e-05 1.72883e-05 8.41046e-06
1.54859e-06 8.41046e-06 -1.84459e-05
0.000869618 5.9208e-05 2.07599e-06
5.9208e-05 0.000238309 6.78141e-06
2.07599e-06 6.78141e-06 0.00012303
0.00076434 0.000236082 1.13149e-06
0.000236082 6.60652e-05 2.33058e-06
1.13149e-06 2.33058e-06 -0.000173407
0.00153342 0.000172195 8.49407e-07
0.000172195 0.000730392 7.6408e-07
8.49407e-07 7.6408e-07 0.000460823
0.00115186 0.000350065 -1.10425e-06
0.000350065 0.000372682 7.30832e-07
-1.10425e-06 7.30832e-07 0.000115853
0.00212824 0.000436405 -4.40507e-07
0.000436405 0.000217182 -3.00202e-06
-4.40507e-07 -3.00202e-06 3.30021e-05
0.0020446 0.000546519 -7.74882e-07
0.000546519 0.000302948 -1.46816e-06
-7.74882e-07 -1.46816e-06 3.46851e-05
0.00207352 0.000531419 -2.13729e-06
0.000531419 0.000232607 -1.0942e-06
-2.13729e-06 -1.0942e-06 1.38913e-05
0.00120001 0.000469945 5.57404e-06
0.000469945 0.000240308 3.61239e-07
5.57404e-06 3.61239e-07 -0.000119849
0.00229434 0.0006544 -2.55722e-06
0.0006544 0.000485294 -1.54087e-06
-2.55722e-06 -1.54087e-06 0.000181038
0.00161565 0.000605098 6.09106e-06
0.000605098 0.000288946 -3.69575e-06
6.09106e-06 -3.69575e-06 -8.19155e-05
0.000596187 4.45721e-05 2.12886e-06
4.45721e-05 7.30734e-05 4.92897e-06
2.12886e-06 4.92897e-06 -8.69402e-06
0.000625479 9.42044e-05 -3.81898e-07
9.42044e-05 0.000132226 2.59901e-06
-3.81898e-07 2.59901e-06 3.35825e-06
0.000588629 5.66517e-05 2.18689e-06
5.66517e-05 7.71817e-05 4.28979e-06
2.18689e-06 4.28979e-06 3.85317e-06
0.00052781 1.04208e-05 -6.79771e-07
1.04208e-05 3.36473e-05 -4.97532e-08
-6.79771e-07 -4.97532e-08 -4.22893e-05
0.00132756 -3.53195e-05 1.42043e-06
-3.53195e-05 0.000508503 4.16773e-06
1.42043e-06 4.16773e-06 0.000485721
0.000903182 -3.02653e-05 3.09557e-07
-3.02653e-05 0.000242759 -1.92331e-07
3.09557e-07 -1.92331e-07 0.000215229
0.000841137 -4.92988e-05 3.41016e-05
-4.92988e-05 0.000207969 9.41193e-06
3.41016e-05 9.41193e-06 0.000205958
0.00282582 -0.000124822 7.28052e-06
-0.000124822 0.00147633 -6.95993e-07
7.28052e-06 -6.95993e-07 0.0014745
0.00302087 -0.000148408 -4.55588e-05
-0.000148408 0.00161064 -4.0505e-06
-4.55588e-05 -4.0505e-06 0.00160225
0.000409493 -6.1311e-05 8.9029e-06
-6.1311e-05 -4.3951e-05 -1.19809e-05
8.9029e-06 -1.19809e-05 -0.000103355
0.00449612 0.000171065 0.000105992
0.000171065 0.00256483 -1.03833e-05
0.000105992 -1.03833e-05 0.00254508
0.000489194 -0.000105857 -1.49687e-06
-0.000105857 -9.85904e-06 6.57308e-07
-1.49687e-06 6.57308e-07 -8.8442e-05
0.00528261 0.000144035 -8.49227e-06
0.000144035 0.00305806 -7.73396e-07
-8.49227e-06 -7.73396e-07 0.00304216
0.000493103 -0.00013196 -2.04029e-05
-0.00013196 -3.34258e-05 1.56973e-05
-2.04029e-05 1.56973e-05 -0.00012735
0.00604972 0.000132215 -0.000213363
0.000132215 0.00353245 2.40553e-05
-0.000213363 2.40553e-05 0.00351654
0.00113448 0.000186996 -1.15337e-05
0.000186996 -4.9605e-05 -3.11257e-06
-1.15337e-05 -3.11257e-06 -0.00022428
0.0010971 0.000112512 -1.18458e-05
0.000112512 -7.1309e-05 -1.17567e-06
-1.18458e-05 -1.17567e-06 -0.000217512
0.00190564 0.000245409 -1.96748e-06
0.000245409 0.00011518 1.00942e-06
-1.96748e-06 1.00942e-06 -2.83471e-05
0.00185698 0.000106962 -5.65075e-07
0.000106962 9.01031e-05 1.06092e-06
-5.65075e-07 1.06092e-06 -1.36822e-05
0.00103942 3.85781e-05 -1.14659e-05
3.85781e-05 -8.02844e-05 -2.87796e-07
-1.14659e-05 -2.87796e-07 -0.000209209
0.000397326 2.89281e-05 -1.90068e-05
2.89281e-05 -0.000210056 -6.28694e-07
-1.90068e-05 -6.28694e-07 -0.000286768
0.00103825 1.44427e-07 -6.20215e-08
1.44427e-07 -7.16025e-05 -5.68686e-08
-6.20215e-08 -5.68686e-08 -0.000198516
0.00182845 5.2579e-05 -1.04256e-07
5.2579e-05 6.94488e-05 2.02488e-07
-1.04256e-07 2.02488e-07 -2.60273e-05
0.00189692 0.000175954 -7.69541e-08
0.000175954 0.000106831 7.57975e-09
-7.69541e-08 7.57975e-09 -1.35578e-05
0.00201038 0.000134768 -9.15629e-08
0.000134768 4.99154e-05 5.10546e-08
-9.15629e-08 5.10546e-08 6.13583e-07
0.00194699 0.000315613 -4.56345e-07
0.000315613 0.00016145 -1.6933e-08
-4.56345e-07 -1.6933e-08 -1.06705e-05
0.00204751 0.000279816 -4.67643e-07
0.000279816 0.000102293 1.59643e-07
-4.67643e-07 1.59643e-07 -2.65494e-06
0.0018091 -6.91991e-07 1.37935e-06
-6.91991e-07 6.42284e-05 1.54887e-07
1.37935e-06 1.54887e-07 -2.96897e-05
0.00199482 6.46224e-05 3.26802e-06
6.46224e-05 4.06846e-05 3.72064e-07
3.26802e-06 3.72064e-07 2.52707e-06
0.00199251 0.000202847 3.50883e-06
0.000202847 5.23586e-05 7.68251e-07
3.50883e-06 7.68251e-07 -1.97747e-05
0.00202195 0.000124507 6.27431e-06
0.000124507 2.84713e-05 8.11727e-07
6.27431e-06 8.11727e-07 8.26723e-06
0.00214367 0.000371207 8.44287e-07
0.000371207 0.000188642 -9.78094e-07
8.44287e-07 -9.78094e-07 4.33952e-05
0.00205687 0.000293626 2.96642e-06
0.000293626 1.89309e-05 1.04082e-06
2.96642e-06 1.04082e-06 -3.90819e-05
0.00105286 -2.31258e-05 -1.20396e-05
-2.31258e-05 -6.69543e-05 6.93423e-07
-1.20396e-05 6.93423e-07 -0.000189294
0.00190107 -0.000116849 -2.78486e-05
-0.000116849 0.000450992 3.07999e-06
-2.78486e-05 3.07999e-06 0.000320192
0.00192955 -0.000109132 -2.31623e-06
-0.000109132 0.000144511 -3.82938e-07
-2.31623e-06 -3.82938e-07 4.09025e-05
0.0018265 -0.000243944 -2.90529e-06
-0.000243944 0.000122607 7.22882e-07
-2.90529e-06 7.22882e-07 -3.3048e-05
0.000559473 -0.000216103 -2.59484e-05
-0.000216103 -2.44065e-05 1.99474e-05
-2.59484e-05 1.99474e-05 -0.000141222
0.000859924 -0.000261357 -1.20638e-05
-0.000261357 7.31403e-05 8.21153e-06
-1.20638e-05 8.21153e-06 -0.000160309
0.00146597 -0.000481475 -7.03396e-06
-0.000481475 0.000210521 1.64679e-06
-7.03396e-06 1.64679e-06 -0.000120841
0.00191714 -0.000357044 -5.13414e-06
-0.000357044 0.000230415 1.17749e-06
-5.13414e-06 1.17749e-06 2.36584e-05
0.00202904 -0.000349241 2.08128e-08
-0.000349241 0.000131788 -1.03911e-06
2.08128e-08 -1.03911e-06 3.25143e-06
0.0020097 -0.000462497 -5.79207e-07
-0.000462497 0.000228554 -1.23296e-06
-5.79207e-07 -1.23296e-06 1.89197e-05
0.00223357 -0.000578277 -3.05598e-06
-0.000578277 0.000473966 -3.69262e-06
-3.05598e-06 -3.69262e-06 0.000173099
0.00193149 -0.00051888 2.12277e-06
-0.00051888 0.000172966 -2.67988e-06
2.12277e-06 -2.67988e-06 -4.69024e-05
0.000887537 -0.000207877 -5.50613e-06
-0.000207877 0.000214233 4.57955e-06
-5.50613e-06 4.57955e-06 -2.51039e-05
0.000355348 -0.000160539 1.0617e-06
-0.000160539 -0.000139717 -2.07062e-06
1.0617e-06 -2.07062e-06 -0.000403655
0.00064079 -0.000168918 -6.93324e-07
-0.000168918 0.000111185 1.00041e-06
-6.93324e-07 1.00041e-06 -9.84801e-05
0.00184373 -4.92864e-05 3.65515e-07
-4.92864e-05 9.34494e-05 -1.10806e-08
3.65515e-07 -1.10806e-08 -6.97716e-06
0.00190374 -0.00018428 -2.75546e-06
-0.00018428 0.000138498 3.74173e-07
-2.75546e-06 3.74173e-07 1.53084e-05
0.00200683 -0.000127208 2.56438e-06
-0.000127208 6.7123e-05 -4.33865e-07
2.56438e-06 -4.33865e-07 9.87633e-06
0.00197089 -0.000277482 -1.10557e-06
-0.000277482 8.10595e-05 4.81114e-07
-1.10557e-06 4.81114e-07 -2.42592e-05
0.000749826 -0.000243479 7.83276e-07
-0.000243479 8.34654e-05 -3.26195e-07
7.83276e-07 -3.26195e-07 -0.00014994
0.00138114 -0.000453479 -8.48337e-07
-0.000453479 0.000291082 -2.92687e-07
-8.48337e-07 -2.92687e-07 -4.40606e-05
0.00180621 -0.000621991 6.59348e-07
-0.000621991 0.000321686 8.904e-07
6.59348e-07 8.904e-07 -5.35453e-05
0.00187396 -0.000406768 -1.30646e-06
-0.000406768 9.51677e-05 1.0148e-06
-1.30646e-06 1.0148e-06 -8.00686e-05
0.0021312 -0.000377092 8.60154e-07
-0.000377092 0.000138325 -4.21553e-07
8.60154e-07 -4.21553e-07 4.52803e-05
0.00212155 -0.000596194 -2.78749e-07
-0.000596194 0.000350083 4.9306e-07
-2.78749e-07 4.9306e-07 6.26633e-05
0.00198411 -0.000488167 -2.1455e-07
-0.000488167 0.000156129 6.77696e-07
-2.1455e-07 6.77696e-07 -2.60392e-05
0.00221363 -0.000544386 5.95157e-07
-0.000544386 0.000356825 -6.12714e-07
5.95157e-07 -6.12714e-07 0.000150634
0.00105464 -0.000294831 -5.90307e-07
-0.000294831 0.000239686 1.00288e-06
-5.90307e-07 1.00288e-06 -2.69186e-05
0.00126023 -0.000344788 -9.64563e-07
-0.000344788 0.000377944 2.16791e-06
-9.64563e-07 2.16791e-06 7.48983e-05
0.000677038 -0.000125992 -2.55787e-07
-0.000125992 0.000148711 -6.33172e-07
-2.55787e-07 -6.33172e-07 -3.14782e-05
8.88177e-05 -0.000112903 1.16475e-06
-0.000112903 -0.000212849 -2.46977e-06
1.16475e-06 -2.46977e-06 -0.00050721
0.00201592 -6.64298e-05 5.01912e-06
-6.64298e-05 7.37218e-05 -6.36258e-07
5.01912e-06 -6.36258e-07 2.69419e-05
0.00194391 -0.000208513 3.71768e-06
-0.000208513 2.81721e-05 -1.10335e-06
3.71768e-06 -1.10335e-06 -5.40036e-05
0.00199357 -0.000119711 6.77069e-06
-0.000119711 4.78462e-05 -1.21251e-06
6.77069e-06 -1.21251e-06 2.80032e-05
0.00206238 -0.000304737 1.44832e-06
-0.000304737 4.17643e-05 -6.68541e-07
1.44832e-06 -6.68541e-07 -4.86899e-06
0.00193828 -0.000437204 -6.46129e-07
-0.000437204 7.92614e-05 -4.68899e-08
-6.46129e-07 -4.68899e-08 -6.22121e-05
0.00210044 -0.000389575 4.26275e-06
-0.000389575 8.24954e-05 -1.50863e-06
4.26275e-06 -1.50863e-06 9.44015e-06
0.00133652 -0.000386675 5.9141e-06
-0.000386675 0.00037042 -5.44261e-06
5.9141e-06 -5.44261e-06 6.46641e-05
0.00199914 -0.000518429 -3.09428e-06
-0.000518429 0.00014159 -3.50269e-08
-3.09428e-06 -3.50269e-08 -2.10525e-05
0.00159091 -0.000621199 -3.71638e-06
-0.000621199 0.000350787 3.41261e-06
-3.71638e-06 3.41261e-06 -5.98916e-05
0.0020374 -0.000691836 4.85699e-06
-0.000691836 0.000402789 2.99178e-06
4.85699e-06 2.99178e-06 1.92962e-05
0.00207436 -0.000604752 -6.11475e-07
-0.000604752 0.000276902 4.25716e-06
-6.11475e-07 4.25716e-06 -1.56556e-06
0.00229439 -0.000579455 -1.1523e-05
-0.000579455 0.0003776 -1.97469e-06
-1.1523e-05 -1.97469e-06 0.000160934
0.000485056 -0.00011236 -1.31819e-06
-0.00011236 2.52334e-05 -6.95395e-06
-1.31819e-06 -6.95395e-06 -0.0001146
1.15648e-05 -0.00013882 -4.17274e-06
-0.00013882 -0.000177946 -1.26693e-06
-4.17274e-06 -1.26693e-06 -0.000480187
0.00139742 -0.000420136 -4.10127e-07
-0.000420136 0.00043426 -3.51126e-06
-4.10127e-07 -3.51126e-06 0.000105738
0.00265215 -0.000433532 -4.49757e-06
-0.000433532 0.00133422 1.10126e-05
-4.49757e-06 1.10126e-05 0.00100002
0.00168081 -0.000436376 -1.14984e-05
-0.000436376 0.000642708 8.16779e-06
-1.14984e-05 8.16779e-06 0.0002862
0.000319357 -4.28315e-05 -5.57803e-07
-4.28315e-05 -0.000100944 -9.50941e-06
-5.57803e-07 -9.50941e-06 -0.000147983
0.00189646 0.000369455 -2.86793e-06
0.000369455 0.000174191 -2.85773e-07
-2.86793e-06 -2.85773e-07 -2.99346e-05
0.000218534 3.82591e-05 -1.25952e-06
3.82591e-05 -0.000161129 -6.38551e-06
-1.25952e-06 -6.38551e-06 -0.000302419
0.000422155 0.000200479 -6.82737e-06
0.000200479 -7.6825e-05 -9.84261e-07
-6.82737e-06 -9.84261e-07 -0.000291595
0.000609858 0.000163693 -1.11731e-06
0.000163693 7.17037e-05 1.02268e-06
-1.11731e-06 1.02268e-06 -0.000180797
0.00176201 0.000457293 -4.78996e-06
0.000457293 0.000224244 -2.89137e-08
-4.78996e-06 -2.89137e-08 -4.64752e-05
0.00202108 0.000481537 1.08923e-06
0.000481537 0.000224481 1.68414e-06
1.08923e-06 1.68414e-06 7.51302e-07
0.00142887 0.000370876 -2.62316e-06
0.000370876 0.000428347 -3.41529e-06
-2.62316e-06 -3.41529e-06 0.000141564
0.00143101 0.000543777 3.17526e-07
0.000543777 0.000233496 3.28844e-06
3.17526e-07 3.28844e-06 -0.000144731
0.00200253 0.000570457 2.04774e-06
0.000570457 0.000371236 3.41021e-06
2.04774e-06 3.41021e-06 6.96433e-05
0.00196484 0.000580795 3.79102e-06
0.000580795 0.000354621 9.43626e-06
3.79102e-06 9.43626e-06 4.9388e-05
0.000457991 -2.08627e-05 -9.28926e-07
-2.08627e-05 -3.07595e-05 3.01643e-07
-9.28926e-07 3.01643e-07 -6.56974e-05
0.00059805 4.42749e-05 3.37405e-07
4.42749e-05 7.3583e-05 3.54532e-07
3.37405e-07 3.54532e-07 -3.78622e-05
0.00094503 0.000269881 8.55719e-07
0.000269881 0.000182844 1.68261e-06
8.55719e-07 1.68261e-06 -5.92404e-05
0.000671093 0.000114127 5.3016e-07
0.000114127 0.000183346 -1.06326e-06
5.3016e-07 -1.06326e-06 -7.23921e-05
0.000684653 0.000254017 -2.13889e-06
0.000254017 3.63852e-05 2.85143e-06
-2.13889e-06 2.85143e-06 -0.000189228
0.00209961 0.000434958 -1.68056e-06
0.000434958 0.000199467 -1.84337e-06
-1.68056e-06 -1.84337e-06 1.54739e-05
0.00201224 0.000543523 5.70453e-07
0.000543523 0.000284878 1.34219e-07
5.70453e-07 1.34219e-07 1.71843e-05
0.00200927 0.000527472 1.67437e-06
0.000527472 0.000194436 1.63562e-07
1.67437e-06 1.63562e-07 -2.40381e-05
0.00137846 0.000487332 2.26339e-06
0.000487332 0.0003598 2.68243e-07
2.26339e-06 2.68243e-07 -7.0238e-06
0.00218476 0.000641387 2.35841e-06
0.000641387 0.000404318 3.67409e-07
2.35841e-06 3.67409e-07 0.000100734
0.0019635 0.000639663 -3.34292e-06
0.000639663 0.000507492 -5.07018e-08
-3.34292e-06 -5.07018e-08 0.00013175
0.000649039 4.25804e-05 6.91181e-07
4.25804e-05 0.00010613 5.4265e-06
6.91181e-07 5.4265e-06 1.33165e-05
0.00144008 0.000177238 1.76076e-07
0.000177238 0.000661801 2.94765e-06
1.76076e-07 2.94765e-06 0.000456693
0.000998304 0.000356431 -1.82725e-06
0.000356431 0.000188983 5.34793e-06
-1.82725e-06 5.34793e-06 -9.38552e-05
0.00118051 0.000165138 5.29768e-06
0.000165138 0.000462078 -3.52091e-06
5.29768e-06 -3.52091e-06 0.000185944
0.00246117 0.000355417 -4.67658e-06
0.000355417 0.00105562 3.78391e-07
-4.67658e-06 3.78391e-07 0.000819461
0.00207545 0.000457447 -3.92293e-06
0.000457447 0.000160454 -2.22526e-06
-3.92293e-06 -2.22526e-06 -1.00332e-05
0.00205875 0.000596116 -1.53827e-06
0.000596116 0.00027702 -7.15546e-07
-1.53827e-06 -7.15546e-07 1.10846e-05
0.00193114 0.000573737 5.5536e-06
0.000573737 0.000104535 1.59364e-08
5.5536e-06 1.59364e-08 -0.000121778
0.00123597 0.000554147 9.02087e-06
0.000554147 0.000286693 -3.08676e-06
9.02087e-06 -3.08676e-06 -0.000124116
0.00160569 0.000630785 1.11886e-05
0.000630785 0.00017771 -1.25358e-06
1.11886e-05 -1.25358e-06 -0.000162588
0.000572594 3.80744e-05 -3.7323e-07
3.80744e-05 5.537e-05 2.14779e-07
-3.7323e-07 2.14779e-07 -2.44114e-05
0.000329145 6.04025e-05 2.96734e-07
6.04025e-05 -7.45228e-05 2.86584e-06
2.96734e-07 2.86584e-06 -0.000194408
0.000349044 5.82636e-05 -5.64639e-07
5.82636e-05 -5.78315e-05 -2.56705e-07
-5.64639e-07 -2.56705e-07 -0.00017176
0.0010261 0.000157991 -1.71934e-06
0.000157991 0.000388044 -1.07079e-06
-1.71934e-06 -1.07079e-06 0.000241186
0.000697313 0.000117522 1.46348e-06
0.000117522 0.000181623 2.75366e-06
1.46348e-06 2.75366e-06 5.65062e-05
0.000544418 6.48546e-05 2.41892e-06
6.48546e-05 5.49793e-05 3.82011e-06
2.41892e-06 3.82011e-06 -1.68009e-05
0.000527952 1.62514e-05 -6.87228e-07
1.62514e-05 3.9115e-05 -5.69139e-08
-6.87228e-07 -5.69139e-08 -3.35448e-05
0.00129705 -2.02782e-05 1.32305e-06
-2.02782e-05 0.000488414 3.74183e-06
1.32305e-06 3.74183e-06 0.000468812
0.000549227 2.689e-05 -1.44703e-06
2.689e-05 4.1615e-05 -4.65118e-06
-1.44703e-06 -4.65118e-06 -3.08242e-05
0.00135644 -2.97568e-05 -8.31731e-06
-2.97568e-05 0.000526008 -1.60029e-06
-8.31731e-06 -1.60029e-06 0.000504729
0.000792874 -3.56918e-05 3.36051e-05
-3.56918e-05 0.000170281 9.24472e-06
3.36051e-05 9.24472e-06 0.000172744
0.0013877 -3.70446e-05 -1.49071e-05
-3.70446e-05 0.000549695 -5.60573e-06
-1.49071e-05 -5.60573e-06 0.000525439
0.00173474 -7.5648e-05 3.30769e-05
-7.5648e-05 0.000775555 1.49051e-06
3.30769e-05 1.49051e-06 0.000776118
0.00273352 -0.000120633 -3.92275e-05
-0.000120633 0.00141673 -4.35042e-06
-3.92275e-05 -4.35042e-06 0.00141587
0.000303905 7.93995e-05 -6.61829e-06
7.93995e-05 -8.11239e-05 -9.77496e-06
-6.61829e-06 -9.77496e-06 -0.000140343
0.000431231 -4.34763e-05 -6.89346e-07
-4.34763e-05 -2.58607e-05 6.56803e-07
-6.89346e-07 6.56803e-07 -9.11169e-05
0.00361601 0.000186534 1.4818e-05
0.000186534 0.00200283 -7.27295e-06
1.4818e-05 -7.27295e-06 0.00197936
0.00465301 0.000133615 -1.58567e-05
0.000133615 0.00265793 -1.47565e-06
-1.58567e-05 -1.47565e-06 0.00264664
0.00056958 -0.000108551 -1.67282e-05
-0.000108551 3.63795e-05 1.3792e-05
-1.67282e-05 1.3792e-05 -4.52361e-05
0.0055179 0.000134192 -0.000184785
0.000134192 0.00320615 2.20936e-05
-0.000184785 2.20936e-05 0.00319048
0.00191671 0.000313155 -1.77327e-06
0.000313155 0.000145773 1.10052e-06
-1.77327e-06 1.10052e-06 -2.62834e-05
0.00186075 0.000175087 -1.0041e-06
0.000175087 8.58766e-05 9.01712e-07
-1.0041e-06 9.01712e-07 -3.48044e-05
0.00204888 0.000280765 -2.30256e-06
0.000280765 0.000104932 7.74406e-07
-2.30256e-06 7.74406e-07 -5.74238e-07
0.002005 0.000132607 -3.62517e-06
0.000132607 3.63589e-05 -4.63438e-07
-3.62517e-06 -4.63438e-07 -9.99952e-06
0.00184091 5.45566e-05 -1.15635e-06
5.45566e-05 8.19546e-05 4.97379e-07
-1.15635e-06 4.97379e-07 -1.35536e-05
0.00104093 4.9339e-06 -1.11182e-05
4.9339e-06 -6.99275e-05 8.35998e-08
-1.11182e-05 8.35998e-08 -0.00019677
0.0018203 2.67247e-06 8.03582e-08
2.67247e-06 7.23644e-05 1.76763e-07
8.03582e-08 1.76763e-07 -2.16075e-05
0.00198891 5.5808e-05 -6.51542e-07
5.5808e-05 3.89835e-05 6.55382e-09
-6.51542e-07 6.55382e-09 7.17581e-07
0.00202167 0.000203812 -3.06252e-07
0.000203812 6.88061e-05 3.47889e-07
-3.06252e-07 3.47889e-07 -3.51108e-06
0.00200037 0.000123027 2.57775e-07
0.000123027 8.73513e-06 -5.0122e-08
2.57775e-07 -5.0122e-08 -6.17848e-06
0.00210814 0.000371598 -4.25005e-07
0.000371598 0.000159449 3.31414e-08
-4.25005e-07 3.31414e-08 1.39978e-05
0.00205554 0.000287445 1.66359e-07
0.000287445 2.01257e-05 1.82819e-07
1.66359e-07 1.82819e-07 -3.73693e-05
0.00198134 -5.48519e-06 4.2012e-06
-5.48519e-06 4.14717e-05 -3.55327e-08
4.2012e-06 -3.55327e-08 1.14056e-06
0.00200233 5.3401e-05 5.51215e-06
5.3401e-05 2.85327e-05 1.65553e-07
5.51215e-06 1.65553e-07 2.01769e-05
0.00205646 0.000199358 2.90507e-06
0.000199358 1.93687e-05 5.47465e-07
2.90507e-06 5.47465e-07 -5.01709e-06
0.0020863 0.000126421 2.49128e-06
0.000126421 6.49138e-06 2.71325e-07
2.49128e-06 2.71325e-07 1.55055e-05
0.0019927 0.00036272 1.1847e-06
0.00036272 4.10734e-05 2.24364e-07
1.1847e-06 2.24364e-07 -7.48684e-05
0.00224006 0.000294439 3.20642e-06
0.000294439 6.80486e-05 9.86699e-07
3.20642e-06 9.86699e-07 4.62084e-05
0.00186745 -4.61923e-05 -1.83312e-06
-4.61923e-05 0.0001069 -3.01477e-07
-1.83312e-06 -3.01477e-07 9.9779e-06
0.00186567 -0.000189097 -3.41949e-06
-0.000189097 0.000112445 -4.24911e-09
-3.41949e-06 -4.24911e-09 -1.19636e-05
0.00199832 -0.000125215 -1.16796e-06
-0.000125215 5.58913e-05 3.89584e-07
-1.16796e-06 3.89584e-07 4.58577e-06
0.00195482 -0.000269765 -2.79417e-06
-0.000269765 7.54339e-05 5.76731e-07
-2.79417e-06 5.76731e-07 -3.20564e-05
0.000748123 -0.000241671 -9.46262e-06
-0.000241671 7.84226e-05 8.34077e-06
-9.46262e-06 8.34077e-06 -0.000156351
0.00133813 -0.000448674 -8.53699e-06
-0.000448674 0.000260625 2.06105e-06
-8.53699e-06 2.06105e-06 -7.23383e-05
0.0016225 -0.000599861 1.69295e-06
-0.000599861 0.000226974 -1.97365e-06
1.69295e-06 -1.97365e-06 -0.000147559
0.00186887 -0.000403693 -1.50762e-06
-0.000403693 9.82528e-05 1.34004e-07
-1.50762e-06 1.34004e-07 -8.24534e-05
0.00206401 -0.000377116 -1.37233e-06
-0.000377116 8.71536e-05 4.73501e-07
-1.37233e-06 4.73501e-07 -1.51915e-06
0.00200134 -0.000488426 -1.33827e-07
-0.000488426 0.000166113 -7.98849e-08
-1.33827e-07 -7.98849e-08 -1.6322e-05
0.00199842 -0.00059712 -2.94781e-06
-0.00059712 0.000262227 -3.58872e-06
-2.94781e-06 -3.58872e-06 -2.82969e-05
0.00209583 -0.000531855 8.58489e-06
-0.000531855 0.000280639 -4.28493e-06
8.58489e-06 -4.28493e-06 7.91547e-05
0.000844843 -0.0002734 -7.30728e-07
-0.0002734 0.000119634 2.60845e-06
-7.30728e-07 2.60845e-06 -0.000150815
0.000726203 -0.000267531 2.66471e-06
-0.000267531 1.45114e-05 -9.46956e-07
2.66471e-06 -9.46956e-07 -0.000268665
0.00096927 -0.000134854 -5.75766e-07
-0.000134854 0.000326653 5.4928e-06
-5.75766e-07 5.4928e-06 0.000142831
-0.000214823 -7.32524e-05 1.97467e-06
-7.32524e-05 -0.000422313 -6.74401e-06
1.97467e-06 -6.74401e-06 -0.000692611
0.00201551 -6.6246e-05 -2.3311e-07
-6.6246e-05 7.42212e-05 1.01926e-07
-2.3311e-07 1.01926e-07 2.74431e-05
0.00197348 -0.000208956 3.03456e-06
-0.000208956 5.39894e-05 -9.26978e-07
3.03456e-06 -9.26978e-07 -2.89734e-05
0.00196779 -0.000118347 9.0742e-07
-0.000118347 2.64754e-05 -1.38322e-07
9.0742e-07 -1.38322e-07 7.81633e-06
0.00206949 -0.000304026 -8.78975e-07
-0.000304026 5.29556e-05 2.44891e-07
-8.78975e-07 2.44891e-07 1.33736e-06
0.00116461 -0.000357047 -2.77183e-06
-0.000357047 0.000247577 1.63269e-08
-2.77183e-06 1.63269e-08 -4.79771e-05
0.00150549 -0.000599542 1.73726e-06
-0.000599542 0.000311329 -4.21325e-07
1.73726e-06 -4.21325e-07 -9.29451e-05
0.00195052 -0.00069547 -3.40286e-07
-0.00069547 0.000346965 3.82091e-07
-3.40286e-07 3.82091e-07 -4.24093e-05
0.00194582 -0.000433312 -1.24472e-06
-0.000433312 9.13407e-05 5.80196e-07
-1.24472e-06 5.80196e-07 -5.40822e-05
0.00206668 -0.000389488 1.12641e-06
-0.000389488 6.20932e-05 -2.2936e-07
1.12641e-06 -2.2936e-07 -6.97332e-06
0.00205529 -0.000606284 -3.00967e-07
-0.000606284 0.000290584 3.74964e-07
-3.00967e-07 3.74964e-07 1.02325e-05
0.00195135 -0.000516976 -9.0116e-07
-0.000516976 0.000105933 9.8551e-07
-9.0116e-07 9.8551e-07 -5.76191e-05
0.00218226 -0.000565619 3.54336e-06
-0.000565619 0.000302531 -4.69936e-06
3.54336e-06 -4.69936e-06 9.30091e-05
0.00133464 -0.000411795 -1.15658e-06
-0.000411795 0.000395278 -6.52343e-07
-1.15658e-06 -6.52343e-07 6.96804e-05
0.00154055 -0.000418585 -1.18127e-06
-0.000418585 0.000535404 1.55147e-06
-1.18127e-06 1.55147e-06 0.000187899
0.00109569 -0.000290757 1.1045e-06
-0.000290757 0.000348558 -1.49632e-07
1.1045e-06 -1.49632e-07 3.73977e-05
0.000290139 -8.36478e-05 -2.29469e-06
-8.36478e-05 -9.84637e-05 9.7574e-07
-2.29469e-06 9.7574e-07 -0.000238924
-3.26239e-05 -8.76647e-05 -8.62645e-07
-8.76647e-05 -0.000226698 -1.01697e-06
-8.62645e-07 -1.01697e-06 -0.000507747
0.00193897 -6.50965e-05 4.81921e-06
-6.50965e-05 -9.77943e-06 -3.23421e-07
4.81921e-06 -3.23421e-07 -1.58742e-05
0.00199682 -0.000183039 3.74367e-06
-0.000183039 1.42421e-06 -1.00465e-06
3.74367e-06 -1.00465e-06 -1.6598e-05
0.00212179 -0.000356977 7.55224e-07
-0.000356977 1.08579e-05 -4.48558e-07
7.55224e-07 -4.48558e-07 -1.50881e-05
0.00208636 -0.000455643 2.00272e-06
-0.000455643 9.74193e-05 -1.98579e-06
2.00272e-06 -1.98579e-06 6.90226e-06
0.00143938 -0.000504161 -4.19112e-07
-0.000504161 0.000405136 -7.76133e-07
-4.19112e-07 -7.76133e-07 2.83473e-05
0.0022378 -0.000623359 -6.22828e-06
-0.000623359 0.000191093 -5.30157e-06
-6.22828e-06 -5.30157e-06 3.86711e-06
0.00124184 -0.000658198 -1.74065e-05
-0.000658198 0.000135922 6.9047e-06
-1.74065e-05 6.9047e-06 -0.000298967
0.00207738 -0.000759026 1.10264e-06
-0.000759026 0.00038602 7.12049e-07
1.10264e-06 7.12049e-07 -1.64744e-05
0.00187969 -0.000571818 -1.62115e-05
-0.000571818 0.000179744 7.97916e-07
-1.62115e-05 7.97916e-07 -8.41163e-05
3.85831e-05 -1.13946e-05 -2.94232e-06
-1.13946e-05 -0.000242133 -6.19799e-06
-2.94232e-06 -6.19799e-06 -0.000352038
0.000830263 -0.000159115 -2.53624e-06
-0.000159115 0.000324893 -1.08575e-06
-2.53624e-06 -1.08575e-06 7.76826e-05
0.000995703 -0.000221551 -1.99236e-06
-0.000221551 0.000398661 -4.46306e-06
-1.99236e-06 -4.46306e-06 0.000103636
0.00168388 -0.000505102 -1.05658e-05
-0.000505102 0.000600353 4.15751e-06
-1.05658e-05 4.15751e-06 0.000220535
0.00206182 -0.000368773 -3.65762e-06
-0.000368773 0.000898359 1.23398e-05
-3.65762e-06 1.23398e-05 0.000568024
0.000823535 -0.000387792 -1.2509e-05
-0.000387792 5.69411e-05 1.71093e-05
-1.2509e-05 1.71093e-05 -0.000300503
0.000398843 -1.87127e-05 -2.27869e-06
-1.87127e-05 -6.7468e-05 -7.67896e-06
-2.27869e-06 -7.67896e-06 -0.00010172
0.000503883 3.21716e-05 -3.93333e-07
3.21716e-05 2.03298e-05 -6.86158e-06
-3.93333e-07 -6.86158e-06 -8.95071e-05
0.00207355 0.000433617 -2.18546e-06
0.000433617 0.000183616 -4.30346e-07
-2.18546e-06 -4.30346e-07 -1.94765e-07
-5.19213e-05 2.67671e-05 2.84093e-07
2.67671e-05 -0.000271579 -2.06802e-06
2.84093e-07 -2.06802e-06 -0.00051934
0.0011368 0.000284035 -1.19947e-06
0.000284035 0.000301751 1.26691e-07
-1.19947e-06 1.26691e-07 6.57416e-05
0.000320198 0.000181731 -3.71056e-06
0.000181731 -0.000223347 2.15304e-06
-3.71056e-06 2.15304e-06 -0.000424495
0.00197207 0.000539412 1.70958e-06
0.000539412 0.000263331 1.62404e-06
1.70958e-06 1.62404e-06 -3.54179e-06
0.00195854 0.00052433 2.34326e-06
0.00052433 0.000164944 7.74265e-07
2.34326e-06 7.74265e-07 -5.33423e-05
0.00167389 0.000514484 -1.41947e-06
0.000514484 0.000557381 -3.2535e-07
-1.41947e-06 -3.2535e-07 0.000181744
0.00224015 0.000660414 -4.07234e-06
0.000660414 0.000686188 3.04942e-06
-4.07234e-06 3.04942e-06 0.000311678
0.00205541 0.000627497 1.09224e-06
0.000627497 0.000310689 2.48363e-06
1.09224e-06 2.48363e-06 7.78961e-06
0.000583789 3.82947e-05 -4.57496e-07
3.82947e-05 6.81872e-05 5.75748e-07
-4.57496e-07 5.75748e-07 -2.48775e-05
0.000762877 8.70318e-05 -1.17474e-06
8.70318e-05 0.000228382 1.65595e-07
-1.17474e-06 1.65595e-07 4.02627e-05
0.00123624 0.000383475 9.48669e-07
0.000383475 0.000329314 1.60557e-06
9.48669e-07 1.60557e-06 4.1364e-05
0.00091681 0.000142491 2.47798e-06
0.000142491 0.00029117 -1.48423e-06
2.47798e-06 -1.48423e-06 1.92166e-05
0.000581243 0.000201323 3.14207e-06
0.000201323 -0.000128572 -1.05327e-06
3.14207e-06 -1.05327e-06 -0.000333428
0.00203351 0.000457243 -2.35892e-06
0.000457243 0.000138976 -1.56957e-06
-2.35892e-06 -1.56957e-06 -3.23204e-05
0.00208266 0.000598001 1.94578e-06
0.000598001 0.000289101 5.90564e-07
1.94578e-06 5.90564e-07 2.27451e-05
0.00199285 0.000574445 1.07144e-06
0.000574445 0.000139329 2.35649e-07
1.07144e-06 2.35649e-07 -8.59544e-05
0.00137475 0.000580427 2.25068e-06
0.000580427 0.000354304 8.27282e-07
2.25068e-06 8.27282e-07 -5.84272e-05
0.00177766 0.00065266 -2.19917e-06
0.00065266 0.000296264 -2.01412e-06
-2.19917e-06 -2.01412e-06 -5.19989e-05
0.00107564 0.000128137 1.29755e-06
0.000128137 0.000411256 3.36044e-06
1.29755e-06 3.36044e-06 0.000262914
-0.000167835 -6.59058e-06 -2.57311e-06
-6.59058e-06 -0.000293631 1.25921e-06
-2.57311e-06 1.25921e-06 -0.000549191
0.0014704 0.000463589 -2.19889e-06
0.000463589 0.000467732 -2.61654e-06
-2.19889e-06 -2.61654e-06 0.000126323
-0.000627125 0.000113373 5.32931e-06
0.000113373 -0.000779943 -1.67925e-06
5.32931e-06 -1.67925e-06 -0.00100439
0.0026196 0.000505119 -3.4185e-06
0.000505119 0.00109083 -3.52459e-06
-3.4185e-06 -3.52459e-06 0.000812042
0.00199865 0.0004945 1.03677e-06
0.0004945 3.07223e-05 -1.10019e-07
1.03677e-06 -1.10019e-07 -0.00011464
0.00214146 0.000658902 9.17624e-06
0.000658902 0.000290735 -1.74765e-06
9.17624e-06 -1.74765e-06 -2.62705e-06
0.00203445 0.000607849 1.02029e-05
0.000607849 0.000132394 1.87664e-06
1.02029e-05 1.87664e-06 -0.000110377
0.00136633 0.000605158 9.72749e-06
0.000605158 0.000296559 9.16309e-07
9.72749e-06 9.16309e-07 -0.000112957
0.00205369 0.000746287 3.16077e-06
0.000746287 0.000471022 -1.68841e-07
3.16077e-06 -1.68841e-07 8.86037e-05
0.000524493 3.0057e-05 -1.72279e-06
3.0057e-05 2.33692e-05 -4.86162e-06
-1.72279e-06 -4.86162e-06 -5.49168e-05
0.000527129 7.60349e-05 1.32048e-06
7.60349e-05 5.41055e-05 3.78344e-07
1.32048e-06 3.78344e-07 -6.9212e-05
0.000266053 6.09755e-05 -3.95313e-07
6.09755e-05 -0.000115086 1.47243e-06
-3.95313e-07 1.47243e-06 -0.000229656
9.87399e-05 -2.04947e-05 1.14699e-07
-2.04947e-05 -0.000207584 -3.40189e-06
1.14699e-07 -3.40189e-06 -0.000322615
0.000592102 6.55822e-05 -3.01979e-07
6.55822e-05 0.00011508 4.20612e-08
-3.01979e-07 4.20612e-08 -6.9045e-06
0.000558572 9.5677e-05 -6.77968e-07
9.5677e-05 8.27818e-05 -4.17361e-08
-6.77968e-07 -4.17361e-08 -4.46827e-05
0.00076153 0.000140318 -3.27935e-06
0.000140318 0.000226668 -4.31081e-06
-3.27935e-06 -4.31081e-06 9.73412e-05
0.000243008 1.89089e-05 -9.53876e-07
1.89089e-05 -0.000100038 -3.43451e-07
-9.53876e-07 -3.43451e-07 -0.000238448
0.000686379 0.000100286 4.07156e-07
0.000100286 0.000165307 2.77797e-06
4.07156e-07 2.77797e-06 5.35415e-05
0.00056216 7.23854e-05 3.20706e-06
7.23854e-05 6.92212e-05 3.71427e-06
3.20706e-06 3.71427e-06 -4.23991e-06
0.000521612 2.40174e-05 -2.53231e-06
2.40174e-05 3.89666e-05 3.01463e-08
-2.53231e-06 3.01463e-08 -3.14387e-05
0.00125573 -4.66604e-06 1.81898e-06
-4.66604e-06 0.000465322 3.30115e-06
1.81898e-06 3.30115e-06 0.000447565
0.000416716 -6.57548e-05 2.69399e-06
-6.57548e-05 -2.24403e-05 -4.17801e-06
2.69399e-06 -4.17801e-06 -9.91274e-05
0.00132227 -1.48761e-05 -7.18687e-06
-1.48761e-05 0.000503893 -1.66954e-06
-7.18687e-06 -1.66954e-06 0.000485431
0.000741206 -2.56047e-05 2.91808e-05
-2.56047e-05 0.000135782 9.35021e-06
2.91808e-05 9.35021e-06 0.000140459
0.00138003 -2.60676e-05 -1.3173e-05
-2.60676e-05 0.000540252 -7.34877e-06
-1.3173e-05 -7.34877e-06 0.000519815
0.000763229 -4.03862e-05 1.17879e-05
-4.03862e-05 0.000151412 3.46312e-06
1.17879e-05 3.46312e-06 0.000151688
0.00258301 -0.000114475 -1.6861e-06
-0.000114475 0.00131359 -2.91169e-06
-1.6861e-06 -2.91169e-06 0.00131353
0.00030257 6.26396e-05 -4.33726e-06
6.26396e-05 -9.82737e-05 -6.19168e-06
-4.33726e-06 -6.19168e-06 -0.000138396
0.000417856 1.18856e-05 -3.49875e-06
1.18856e-05 -2.96635e-05 2.14078e-07
-3.49875e-06 2.14078e-07 -7.97225e-05
0.00302849 0.000155273 3.2145e-06
0.000155273 0.00162459 -6.54604e-06
3.2145e-06 -6.54604e-06 0.00161136
0.000516749 -7.50967e-05 -1.12938e-05
-7.50967e-05 1.93374e-05 1.19941e-05
-1.12938e-05 1.19941e-05 -4.57439e-05
0.0039398 0.000141066 -3.50236e-05
0.000141066 0.00219897 -2.07889e-07
-3.50236e-05 -2.07889e-07 0.00218751
0.00488686 0.000106918 -0.000165594
0.000106918 0.0027981 1.78139e-05
-0.000165594 1.78139e-05 0.00279247
0.00207255 0.000371836 -2.13315e-06
0.000371836 0.000130795 1.10105e-06
-2.13315e-06 1.10105e-06 -1.48598e-05
0.0020507 0.000203451 -2.91004e-06
0.000203451 8.66151e-05 9.50511e-08
-2.91004e-06 9.50511e-08 1.44199e-05
0.00204762 0.000280401 -1.47046e-06
0.000280401 1.77474e-05 -3.58724e-08
-1.47046e-06 -3.58724e-08 -3.92582e-05
0.00197817 0.000121717 -2.94319e-06
0.000121717 -1.12509e-05 -3.92838e-07
-2.94319e-06 -3.92838e-07 -2.07991e-05
0.0019812 4.85927e-05 -4.97431e-06
4.85927e-05 3.61426e-05 -1.4439e-07
-4.97431e-06 -1.4439e-07 -2.36963e-06
0.00183044 5.37375e-06 -1.31346e-06
5.37375e-06 7.85749e-05 2.25353e-07
-1.31346e-06 2.25353e-07 -1.54101e-05
0.00199303 -6.22191e-06 -2.12301e-07
-6.22191e-06 5.31862e-05 -9.84687e-10
-2.12301e-07 -9.84687e-10 1.16364e-05
0.00200615 5.39334e-05 1.26497e-06
5.39334e-05 3.46878e-05 3.54357e-08
1.26497e-06 3.54357e-08 2.26434e-05
0.00206032 0.000196689 -6.84913e-08
0.000196689 2.54647e-05 2.33662e-08
-6.84913e-08 2.33662e-08 2.39058e-06
0.0020625 0.000127631 6.38979e-07
0.000127631 -1.37352e-05 1.65546e-07
6.38979e-07 1.65546e-07 1.14705e-06
0.00204288 0.000364674 -5.90298e-07
0.000364674 8.2955e-05 2.4834e-07
-5.90298e-07 2.4834e-07 -3.4774e-05
0.00216519 0.000294617 2.85089e-06
0.000294617 1.91509e-05 3.4043e-07
2.85089e-06 3.4043e-07 4.17629e-06
0.00195737 -1.20057e-05 4.80654e-06
-1.20057e-05 9.8714e-06 1.32276e-07
4.80654e-06 1.32276e-07 -3.99123e-06
0.00206815 6.09002e-05 7.84109e-07
6.09002e-05 -1.41709e-05 -1.76615e-07
7.84109e-07 -1.76615e-07 9.3326e-06
0.00213586 0.000195961 3.50477e-07
0.000195961 -1.02841e-05 3.06046e-08
3.50477e-07 3.06046e-08 2.80332e-06
0.00216116 0.000397705 6.89601e-09
0.000397705 2.37217e-05 8.12751e-07
6.89601e-09 8.12751e-07 -1.9544e-05
0.00201493 -6.60785e-05 -5.3091e-06
-6.60785e-05 7.41312e-05 7.83772e-07
-5.3091e-06 7.83772e-07 2.73332e-05
0.00200558 -0.000210212 -2.53062e-07
-0.000210212 8.1673e-05 -4.10598e-07
-2.53062e-07 -4.10598e-07 -2.11034e-06
0.00193806 -0.000117046 -5.0062e-06
-0.000117046 2.86686e-06 1.24144e-06
-5.0062e-06 1.24144e-06 -1.48526e-05
0.00208205 -0.000303713 -5.30384e-06
-0.000303713 6.59181e-05 1.20365e-06
-5.30384e-06 1.20365e-06 9.43943e-06
0.000954927 -0.000343092 -6.66695e-06
-0.000343092 0.000107907 2.98024e-06
-6.66695e-06 2.98024e-06 -0.000186712
0.00150672 -0.000588884 8.98313e-06
-0.000588884 0.000319702 -3.53898e-06
8.98313e-06 -3.53898e-06 -8.03239e-05
0.00197014 -0.000710073 -2.80007e-06
-0.000710073 0.000355585 -2.52345e-06
-2.80007e-06 -2.52345e-06 -4.21813e-05
0.00196511 -0.000430577 -3.03094e-06
-0.000430577 0.000110206 9.10504e-07
-3.03094e-06 9.10504e-07 -3.92047e-05
0.00203441 -0.00039003 -9.41245e-07
-0.00039003 4.28023e-05 1.10384e-06
-9.41245e-07 1.10384e-06 -2.21634e-05
0.00192316 -0.00051812 9.28711e-07
-0.00051812 7.88401e-05 1.87206e-06
9.28711e-07 1.87206e-06 -8.59301e-05
0.00200119 -0.000593472 2.80675e-07
-0.000593472 0.000277391 -2.85065e-06
2.80675e-07 -2.85065e-06 1.19909e-07
0.0021047 -0.000551349 1.61214e-05
-0.000551349 0.000238514 -6.0367e-06
1.61214e-05 -6.0367e-06 3.65758e-05
0.000927103 -0.000365074 -9.29564e-07
-0.000365074 0.000139495 1.15043e-06
-9.29564e-07 1.15043e-06 -0.000174701
0.00129012 -0.00039889 1.10667e-05
-0.00039889 0.000350937 -6.1828e-06
1.10667e-05 -6.1828e-06 1.29611e-05
-0.000174437 -0.000148548 2.34697e-06
-0.000148548 -0.000432981 -1.138e-05
2.34697e-06 -1.138e-05 -0.000733124
0.000104412 -6.91552e-05 3.84459e-07
-6.91552e-05 -0.000214677 5.69682e-06
3.84459e-07 5.69682e-06 -0.000357075
0.000223776 -4.72615e-05 4.37728e-06
-4.72615e-05 -7.97842e-05 5.25653e-07
4.37728e-06 5.25653e-07 -0.000348762
0.00192705 -7.33177e-05 3.34185e-08
-7.33177e-05 -2.01131e-05 -1.76503e-07
3.34185e-08 -1.76503e-07 -2.72467e-05
0.00203817 -0.000184729 1.26597e-06
-0.000184729 2.38759e-05 -4.3598e-08
1.26597e-06 -4.3598e-08 5.4554e-06
0.00212003 -0.000350853 -6.33396e-07
-0.000350853 2.57219e-05 8.39986e-08
-6.33396e-07 8.39986e-08 -4.50492e-06
0.00142082 -0.000504846 -1.41278e-06
-0.000504846 0.000390889 -7.54074e-07
-1.41278e-06 -7.54074e-07 1.43035e-05
0.00150878 -0.000671845 3.34468e-06
-0.000671845 0.000293451 -8.6468e-07
3.34468e-06 -8.6468e-07 -0.000141163
0.00210166 -0.000766975 -4.19156e-08
-0.000766975 0.000407625 -2.25063e-07
-4.19156e-08 -2.25063e-07 -9.24507e-07
0.00206498 -0.000452201 2.57383e-07
-0.000452201 8.68415e-05 2.11934e-07
2.57383e-07 2.11934e-07 -6.02778e-06
0.00209923 -0.000612149 1.63494e-06
-0.000612149 0.000282768 -3.64297e-06
1.63494e-06 -3.64297e-06 1.49601e-05
0.00215372 -0.000602723 -1.69111e-06
-0.000602723 0.000173016 -3.29748e-07
-1.69111e-06 -3.29748e-07 -9.19452e-06
6.63753e-05 4.3641e-05 -1.96717e-06
4.3641e-05 -0.000235948 -9.02124e-07
-1.96717e-06 -9.02124e-07 -0.000335962
0.00132236 -0.000462358 -1.33436e-07
-0.000462358 0.000366711 -1.94686e-06
-1.33436e-07 -1.94686e-06 -1.53436e-07
0.00136433 -0.000454298 -2.07615e-06
-0.000454298 0.000406784 1.26615e-06
-2.07615e-06 1.26615e-06 3.04315e-05
0.00141267 -0.00034363 -1.14604e-06
-0.00034363 0.000527925 2.74842e-06
-1.14604e-06 2.74842e-06 0.000179789
0.00125284 -0.000235459 1.77078e-06
-0.000235459 0.000554832 -2.89653e-06
1.77078e-06 -2.89653e-06 0.000259801
0.000404902 -7.99553e-05 -9.19834e-07
-7.99553e-05 4.80964e-05 1.39169e-06
-9.19834e-07 1.39169e-06 -0.000187563
0.00204358 -9.52691e-05 1.77906e-06
-9.52691e-05 -1.18191e-05 -1.05823e-08
1.77906e-06 -1.05823e-08 4.05207e-06
0.00219439 -0.000244755 2.45134e-07
-0.000244755 -1.15813e-05 -3.62067e-08
2.45134e-07 -3.62067e-08 1.70828e-05
0.00219425 -0.000431385 9.12072e-07
-0.000431385 2.41159e-05 -4.01988e-07
9.12072e-07 -4.01988e-07 1.38834e-05
0.00223521 -0.000539933 1.93715e-06
-0.000539933 9.0076e-05 -2.62974e-06
1.93715e-06 -2.62974e-06 1.64863e-05
0.00163268 -0.000607619 -1.09434e-05
-0.000607619 0.000478388 5.45196e-06
-1.09434e-05 5.45196e-06 6.02917e-05
0.00222283 -0.000692695 -6.24074e-06
-0.000692695 0.000260846 -6.01515e-06
-6.24074e-06 -6.01515e-06 1.50888e-05
0.00189985 -0.000791813 -3.5916e-05
-0.000791813 0.000495999 5.55596e-06
-3.5916e-05 5.55596e-06 1.77432e-05
0.00236425 -0.000832708 -2.23075e-05
-0.000832708 0.00057817 -1.49656e-07
-2.23075e-05 -1.49656e-07 0.000147752
-1.73034e-05 5.43032e-05 -6.06018e-06
5.43032e-05 -0.000292293 -2.91166e-06
-6.06018e-06 -2.91166e-06 -0.00036855
0.000844864 -3.93508e-06 -2.8047e-06
-3.93508e-06 0.000309174 -1.14028e-06
-2.8047e-06 -1.14028e-06 0.00013452
0.0017493 -0.000261613 -5.61499e-06
-0.000261613 0.000906162 -6.13587e-07
-5.61499e-06 -6.13587e-07 0.000627026
0.000665768 -0.00013448 -3.92137e-07
-0.00013448 0.000138047 -5.54974e-06
-3.92137e-07 -5.54974e-06 -0.000171157
0.0024884 -0.000639517 -1.81332e-05
-0.000639517 0.00106092 1.24431e-05
-1.81332e-05 1.24431e-05 0.000637389
0.00153721 -0.000457761 -2.54074e-06
-0.000457761 0.000561851 2.32522e-05
-2.54074e-06 2.32522e-05 0.000133388
0.000531699 2.75788e-05 -1.24767e-06
2.75788e-05 3.66992e-05 -5.33604e-06
-1.24767e-06 -5.33604e-06 -5.51581e-05
-0.000118597 2.12228e-05 1.39839e-06
2.12228e-05 -0.000331265 -1.58381e-06
1.39839e-06 -1.58381e-06 -0.000500255
0.00199322 0.000457709 -1.74912e-06
0.000457709 0.00011683 -9.87691e-07
-1.74912e-06 -9.87691e-07 -5.54734e-05
0.000434137 9.35421e-05 -6.9556e-07
9.35421e-05 -2.81891e-05 2.07798e-06
-6.9556e-07 2.07798e-06 -0.000286966
0.00148967 0.000412684 -3.55279e-06
0.000412684 0.000478979 -4.36873e-06
-3.55279e-06 -4.36873e-06 0.000186144
-0.00116285 4.27069e-05 -3.66137e-06
4.27069e-05 -0.00122931 1.83121e-06
-3.66137e-06 1.83121e-06 -0.00139248
0.00210192 0.000599888 2.50152e-06
0.000599888 0.000296876 1.26678e-06
2.50152e-06 1.26678e-06 3.00272e-05
0.00203075 0.000572963 -6.9027e-06
0.000572963 0.000158086 -1.03503e-07
-6.9027e-06 -1.03503e-07 -6.58202e-05
0.00154892 0.000610748 -3.84915e-06
0.000610748 0.000443473 3.412e-06
-3.84915e-06 3.412e-06 2.70147e-05
0.0020313 0.000683163 -6.66622e-06
0.000683163 0.000466136 4.3494e-07
-6.66622e-06 4.3494e-07 0.000106865
0.000786932 8.63011e-05 -6.75569e-07
8.63011e-05 0.000222288 1.26553e-07
-6.75569e-07 1.26553e-07 8.53409e-05
0.000527424 7.52266e-05 1.12498e-06
7.52266e-05 0.00013724 3.30879e-07
1.12498e-06 3.30879e-07 -0.000133613
0.00131034 0.000440682 -3.16318e-06
0.000440682 0.000364337 -1.50251e-06
-3.16318e-06 -1.50251e-06 2.96212e-05
0.000227994 0.000147238 7.85247e-07
0.000147238 -0.000271243 -1.83171e-06
7.85247e-07 -1.83171e-06 -0.000494905
0.00177316 0.000400598 3.59169e-06
0.000400598 0.000546234 -1.66498e-06
3.59169e-06 -1.66498e-06 0.000292237
0.0021518 0.000508544 -2.62521e-06
0.000508544 0.000111552 -9.36601e-07
-2.62521e-06 -9.36601e-07 -3.36802e-05
0.00228579 0.000660276 2.81243e-06
0.000660276 0.000382044 -5.34955e-07
2.81243e-06 -5.34955e-07 9.46824e-05
0.00222298 0.000631701 2.31273e-06
0.000631701 0.00023737 2.80343e-06
2.31273e-06 2.80343e-06 -9.48122e-06
0.00146594 0.000621121 4.00139e-06
0.000621121 0.000359718 1.44204e-06
4.00139e-06 1.44204e-06 -5.52606e-05
0.00193551 0.000755886 -4.87148e-06
0.000755886 0.000401865 1.81201e-07
-4.87148e-06 1.81201e-07 7.53679e-06
-0.000729614 7.00173e-06 -3.60289e-06
7.00173e-06 -0.000709918 6.23317e-06
-3.60289e-06 6.23317e-06 -0.000843687
-0.000327486 0.000234471 6.67612e-07
0.000234471 -0.000317822 1.44078e-06
6.67612e-07 1.44078e-06 -0.000641788
0.0014642 0.000491576 2.79024e-06
0.000491576 0.00042507 -2.53767e-06
2.79024e-06 -2.53767e-06 7.35569e-05
-0.000155448 0.00019103 3.33762e-07
0.00019103 -0.000628427 -4.19458e-06
3.33762e-07 -4.19458e-06 -0.000836545
0.00237474 0.000513118 5.51996e-06
0.000513118 -4.53167e-05 2.5693e-06
5.51996e-06 2.5693e-06 -3.06739e-05
0.002733 0.000637776 9.17112e-06
0.000637776 0.000472952 1.78689e-06
9.17112e-06 1.78689e-06 0.000272076
0.00216735 0.000750906 6.50605e-06
0.000750906 0.000333774 -2.99464e-06
6.50605e-06 -2.99464e-06 -2.04316e-05
0.00169092 0.000729904 1.47556e-06
0.000729904 0.000364881 2.09763e-07
1.47556e-06 2.09763e-07 -7.72722e-05
0.000751197 0.000119438 -6.50886e-07
0.000119438 0.000204036 -2.43259e-06
-6.50886e-07 -2.43259e-06 7.20983e-05
0.000533428 0.000106283 -1.09039e-06
0.000106283 6.68804e-05 -6.9905e-07
-1.09039e-06 -6.9905e-07 -6.04453e-05
0.00126537 0.000106904 -7.75585e-06
0.000106904 0.000525668 -3.83368e-06
-7.75585e-06 -3.83368e-06 0.000422186
0.000543066 4.50368e-05 -6.26569e-07
4.50368e-05 6.05727e-05 -3.17533e-06
-6.26569e-07 -3.17533e-06 -4.42787e-05
-3.32593e-06 4.27893e-05 -1.37659e-07
4.27893e-05 -0.000265015 -8.89239e-07
-1.37659e-07 -8.89239e-07 -0.000382013
0.000603006 5.23092e-05 -6.70082e-07
5.23092e-05 0.000115385 2.14595e-07
-6.70082e-07 2.14595e-07 3.18921e-06
0.000486671 0.000129036 -1.07277e-08
0.000129036 7.27551e-05 7.63277e-07
-1.07277e-08 7.63277e-07 -5.58926e-05
0.000478142 5.73739e-05 1.12915e-06
5.73739e-05 5.71306e-05 -5.58002e-08
1.12915e-06 -5.58002e-08 -8.93047e-05
0.00065028 0.000109354 4.97528e-06
0.000109354 0.000121886 -3.00323e-06
4.97528e-06 -3.00323e-06 3.82602e-05
0.000714436 1.68176e-05 3.23277e-06
1.68176e-05 0.000201393 -5.01026e-06
3.23277e-06 -5.01026e-06 6.19358e-05
0.000241827 6.84729e-05 -2.67732e-07
6.84729e-05 -9.33804e-05 2.35644e-06
-2.67732e-07 2.35644e-06 -0.000233194
0.000673365 0.000112397 2.27362e-06
0.000112397 0.0001595 3.66535e-06
2.27362e-06 3.66535e-06 4.39944e-05
0.000464879 7.79946e-05 3.21953e-06
7.79946e-05 1.49716e-05 3.68912e-06
3.21953e-06 3.68912e-06 -6.49121e-05
0.00045842 1.57595e-05 -1.55209e-06
1.57595e-05 2.59447e-06 -3.08762e-07
-1.55209e-06 -3.08762e-07 -6.90606e-05
0.00122302 8.04456e-06 1.56687e-06
8.04456e-06 0.000450822 2.9547e-06
1.56687e-06 2.9547e-06 0.000433273
0.000448237 -4.27936e-05 3.55376e-07
-4.27936e-05 -8.71449e-06 -3.23643e-06
3.55376e-07 -3.23643e-06 -7.75245e-05
0.00131393 -5.27695e-06 -6.90105e-06
-5.27695e-06 0.000501906 -1.70592e-06
-6.90105e-06 -1.70592e-06 0.000484795
0.000743012 -1.59299e-05 2.66986e-05
-1.59299e-05 0.000139125 9.20326e-06
2.66986e-05 9.20326e-06 0.000144678
0.00135803 -1.93721e-05 -1.06649e-05
-1.93721e-05 0.000526468 -6.91936e-06
-1.06649e-05 -6.91936e-06 0.000508532
0.000748304 -2.96824e-05 1.02428e-05
-2.96824e-05 0.000138739 3.51168e-06
1.02428e-05 3.51168e-06 0.000141811
0.000728789 -4.15902e-05 3.30766e-07
-4.15902e-05 0.000129373 -3.21045e-06
3.30766e-07 -3.21045e-06 0.000128764
0.00038544 4.27936e-05 -1.80653e-06
4.27936e-05 -6.84528e-05 -4.18567e-06
-1.80653e-06 -4.18567e-06 -9.40368e-05
0.000400124 7.26792e-05 -2.61565e-07
7.26792e-05 -3.3693e-05 3.69158e-07
-2.61565e-07 3.69158e-07 -7.7262e-05
0.00257048 0.00011955 7.53457e-06
0.00011955 0.00132519 -5.24594e-06
7.53457e-06 -5.24594e-06 0.00132195
0.000469566 1.3714e-05 -5.26159e-06
1.3714e-05 5.51999e-06 1.02972e-05
-5.26159e-06 1.02972e-05 -4.76786e-05
0.00315438 0.000156409 -1.49076e-05
0.000156409 0.00170283 -1.57075e-06
-1.49076e-05 -1.57075e-06 0.001689
0.00410607 8.4838e-05 -0.000136922
8.4838e-05 0.00229788 1.31833e-05
-0.000136922 1.31833e-05 0.00229978
0.00208949 0.00036622 -9.25803e-07
0.00036622 0.000123345 5.75725e-07
-9.25803e-07 5.75725e-07 3.87167e-06
0.00207035 0.000194748 -4.69064e-06
0.000194748 3.44611e-05 -7.59433e-07
-4.69064e-06 -7.59433e-07 1.27546e-05
0.00209196 0.000294915 -4.54306e-07
0.000294915 -2.93868e-05 5.72753e-08
-4.54306e-07 5.72753e-08 -3.74749e-05
0.00203812 0.000129037 -6.61444e-07
0.000129037 -3.49399e-05 -7.4491e-08
-6.61444e-07 -7.4491e-08 -1.40892e-05
0.00201103 5.47183e-05 -4.49002e-06
5.47183e-05 4.13387e-05 -3.39694e-07
-4.49002e-06 -3.39694e-07 2.5653e-05
0.00200864 -9.04348e-06 -6.22422e-06
-9.04348e-06 6.7568e-05 2.38199e-07
-6.22422e-06 2.38199e-07 2.49855e-05
0.00196861 -1.01368e-05 -7.45832e-09
-1.01368e-05 1.79546e-05 -4.62527e-08
-7.45832e-09 -4.62527e-08 5.05016e-06
0.00206019 6.36206e-05 1.14193e-06
6.36206e-05 -1.44042e-05 1.48551e-07
1.14193e-06 1.48551e-07 6.96404e-06
0.00213655 0.000202686 1.08518e-06
0.000202686 -9.83818e-06 2.04298e-07
1.08518e-06 2.04298e-07 5.69174e-06
0.00217212 0.000388102 6.16447e-07
0.000388102 2.39971e-05 1.92868e-07
6.16447e-07 1.92868e-07 -1.85815e-05
0.00203178 -1.60767e-05 1.48699e-07
-1.60767e-05 -2.14785e-05 -7.33461e-08
1.48699e-07 -7.33461e-08 -5.9075e-06
0.00219335 0.000114471 -9.46123e-07
0.000114471 -4.69389e-05 -6.33762e-07
-9.46123e-07 -6.33762e-07 1.42536e-05
0.00235488 0.000307492 2.37204e-06
0.000307492 8.14018e-06 2.08482e-07
2.37204e-06 2.08482e-07 3.89331e-05
0.00191485 -8.1513e-05 -4.45807e-06
-8.1513e-05 -3.08096e-05 4.27041e-07
-4.45807e-06 4.27041e-07 -3.88195e-05
0.00208096 -0.000185991 -3.3913e-06
-0.000185991 4.79705e-05 7.42561e-07
-3.3913e-06 7.42561e-07 2.92118e-05
0.00211276 -0.000344086 -2.37513e-06
-0.000344086 3.80155e-05 6.11222e-07
-2.37513e-06 6.11222e-07 2.70459e-06
0.00147752 -0.000512406 -1.14252e-06
-0.000512406 0.000424624 -4.37483e-07
-1.14252e-06 -4.37483e-07 4.73323e-05
0.00149826 -0.000648594 2.0265e-05
-0.000648594 0.000291573 -7.13132e-06
2.0265e-05 -7.13132e-06 -0.000132932
0.00192251 -0.000753792 -4.14211e-07
-0.000753792 0.000316804 5.1965e-07
-4.14211e-07 5.1965e-07 -9.24486e-05
0.00205103 -0.000448871 -1.75741e-06
-0.000448871 8.05624e-05 1.52104e-06
-1.75741e-06 1.52104e-06 -1.47887e-05
0.00210077 -0.000583562 7.90905e-06
-0.000583562 0.000175301 3.21879e-06
7.90905e-06 3.21879e-06 -1.65643e-06
0.00223585 -0.000647586 1.65943e-05
-0.000647586 0.000346009 -6.86702e-06
1.65943e-05 -6.86702e-06 7.47001e-05
0.00118042 -0.00043763 3.92642e-06
-0.00043763 0.000281101 -4.90437e-06
3.92642e-06 -4.90437e-06 -7.74351e-05
0.00156522 -0.000491504 9.84728e-06
-0.000491504 0.000542863 -1.55656e-05
9.84728e-06 -1.55656e-05 0.000159369
0.00113857 -0.00038104 -1.38455e-07
-0.00038104 0.000386447 -1.27446e-05
-1.38455e-07 -1.27446e-05 1.90918e-05
0.000246676 4.00959e-05 3.70039e-06
4.00959e-05 -0.000127385 2.27932e-06
3.70039e-06 2.27932e-06 -0.000223013
0.00155849 -0.000256001 3.46771e-06
-0.000256001 0.000717969 4.05506e-06
3.46771e-06 4.05506e-06 0.000437641
-0.000230443 7.33957e-07 5.88837e-06
7.33957e-07 -0.000360356 1.01828e-06
5.88837e-06 1.01828e-06 -0.000582204
0.00205407 -9.32662e-05 -5.30419e-07
-9.32662e-05 -6.20523e-06 1.23916e-07
-5.30419e-07 1.23916e-07 7.88817e-06
0.00216038 -0.000252135 1.00093e-07
-0.000252135 -3.56391e-05 -8.29781e-08
1.00093e-07 -8.29781e-08 -5.57388e-06
0.00218235 -0.000423614 -7.14042e-07
-0.000423614 2.35126e-05 3.10724e-07
-7.14042e-07 3.10724e-07 1.00151e-05
0.00159406 -0.000597605 -5.60387e-07
-0.000597605 0.000474971 7.77921e-07
-5.60387e-07 7.77921e-07 5.95462e-05
0.00132004 -0.000715968 4.64098e-06
-0.000715968 0.000162209 -1.97211e-06
4.64098e-06 -1.97211e-06 -0.000297442
0.00236513 -0.000815745 -4.55275e-06
-0.000815745 0.000576543 -8.31702e-08
-4.55275e-06 -8.31702e-08 0.000162481
0.00220093 -0.000548057 2.2941e-07
-0.000548057 7.16261e-05 -6.55668e-07
2.2941e-07 -6.55668e-07 -9.26123e-06
0.00205135 -0.000666885 2.34184e-06
-0.000666885 0.000176233 -1.62633e-06
2.34184e-06 -1.62633e-06 -5.97057e-05
0.000270139 6.06018e-05 -1.64597e-06
6.06018e-05 -0.000114473 -1.29609e-06
-1.64597e-06 -1.29609e-06 -0.000186772
0.000620881 -3.08468e-05 -6.62304e-07
-3.08468e-05 0.000160218 8.96651e-07
-6.62304e-07 8.96651e-07 -6.90766e-06
0.00096008 -0.000470275 -3.20425e-06
-0.000470275 0.000117629 2.17728e-06
-3.20425e-06 2.17728e-06 -0.00025846
0.00154704 -0.000433352 -5.25413e-06
-0.000433352 0.000583168 1.43216e-08
-5.25413e-06 1.43216e-08 0.000162436
0.00165863 -0.000221958 -5.84462e-07
-0.000221958 0.000748104 -1.18029e-06
-5.84462e-07 -1.18029e-06 0.000431345
0.000962475 -0.000195497 -7.93879e-07
-0.000195497 0.000405429 1.50357e-06
-7.93879e-07 1.50357e-06 0.000136216
0.00215188 -0.00012998 -1.71253e-06
-0.00012998 -5.12411e-05 5.82068e-07
-1.71253e-06 5.82068e-07 7.93525e-06
0.00229585 -0.000361395 -2.17747e-06
-0.000361395 -7.30296e-05 1.1039e-06
-2.17747e-06 1.1039e-06 6.36551e-06
0.00227027 -0.000513491 2.74497e-06
-0.000513491 2.27295e-05 -8.82127e-07
2.74497e-06 -8.82127e-07 1.86632e-05
0.00236236 -0.000708479 7.24352e-06
-0.000708479 0.000174861 -3.96186e-06
7.24352e-06 -3.96186e-06 2.13511e-05
0.000807092 -0.000551248 -8.04245e-06
-0.000551248 -1.34751e-05 -7.28558e-06
-8.04245e-06 -7.28558e-06 -0.000430486
0.00268781 -0.000896496 -4.27405e-06
-0.000896496 0.000672676 3.01321e-06
-4.27405e-06 3.01321e-06 0.000281325
0.00233039 -0.000910088 -3.91055e-05
-0.000910088 0.000683461 -3.94124e-06
-3.91055e-05 -3.94124e-06 0.00015949
0.000543326 4.56653e-05 -3.23737e-07
4.56653e-05 3.9682e-05 -7.32147e-08
-3.23737e-07 -7.32147e-08 -1.44066e-05
0.000678875 -0.000143916 3.94622e-06
-0.000143916 0.000182288 -1.24466e-06
3.94622e-06 -1.24466e-06 7.10239e-05
0.000368609 8.82016e-05 -8.12095e-06
8.82016e-05 -6.63815e-06 -5.42651e-07
-8.12095e-06 -5.42651e-07 -0.000125232
0.000800206 -7.02241e-05 -3.95654e-06
-7.02241e-05 0.000296994 1.48139e-06
-3.95654e-06 1.48139e-06 7.88084e-05
-2.43857e-05 -0.000134376 2.05723e-06
-0.000134376 -0.00025499 -8.11963e-06
2.05723e-06 -8.11963e-06 -0.000519189
-6.65831e-05 -0.000136369 6.49418e-06
-0.000136369 -0.000267682 -6.77476e-07
6.49418e-06 -6.77476e-07 -0.000662936
0.00140413 -0.000551059 -3.56722e-05
-0.000551059 0.000405517 2.485e-05
-3.56722e-05 2.485e-05 2.43439e-05
0.00307723 -0.000563199 -2.94846e-05
-0.000563199 0.00169877 1.69767e-05
-2.94846e-05 1.69767e-05 0.00105698
0.000506297 4.30891e-05 -2.50774e-07
4.30891e-05 3.47521e-05 -1.93835e-06
-2.50774e-07 -1.93835e-06 -8.81502e-05
0.000926448 0.000219687 -5.88245e-07
0.000219687 0.000370907 -1.09852e-07
-5.88245e-07 -1.09852e-07 9.33072e-05
0.00230668 0.000522851 -3.38017e-06
0.000522851 0.000194234 -1.8652e-06
-3.38017e-06 -1.8652e-06 4.88654e-05
0.000484766 0.000224356 -3.96983e-06
0.000224356 -8.33788e-05 2.99263e-06
-3.96983e-06 2.99263e-06 -0.000342622
0.00111667 0.000416332 -1.54153e-06
0.000416332 0.000237773 9.42297e-09
-1.54153e-06 9.42297e-09 -9.15255e-05
0.0014926 0.000340607 -2.9003e-06
0.000340607 0.000352356 -3.66138e-06
-2.9003e-06 -3.66138e-06 0.000113719
0.00240701 0.000657229 -7.58014e-06
0.000657229 0.000462007 -6.23967e-07
-7.58014e-06 -6.23967e-07 0.000182105
0.00240673 0.000654708 -1.22119e-05
0.000654708 0.000341125 4.26638e-06
-1.22119e-05 4.26638e-06 9.06161e-05
0.00165123 0.000650867 -3.71092e-06
0.000650867 0.000469666 1.16891e-06
-3.71092e-06 1.16891e-06 4.73978e-05
0.001746 0.000758645 -5.44151e-06
0.000758645 0.000288235 -6.75243e-07
-5.44151e-06 -6.75243e-07 -0.000115546
-0.0002311 6.89456e-05 1.02472e-06
6.89456e-05 -0.000393945 1.52484e-06
1.02472e-06 1.52484e-06 -0.000547376
-9.18357e-05 0.00024591 -3.5022e-07
0.00024591 -0.00018073 -2.60584e-06
-3.5022e-07 -2.60584e-06 -0.000500436
0.0016004 0.000518396 1.37402e-06
0.000518396 0.00049049 1.83942e-07
1.37402e-06 1.83942e-07 0.000128513
0.00169131 0.000362097 -3.29529e-06
0.000362097 0.000537087 1.27671e-06
-3.29529e-06 1.27671e-06 0.00029483
0.00236688 0.000493454 6.91837e-07
0.000493454 -6.85057e-05 -7.79484e-07
6.91837e-07 -7.79484e-07 -4.49614e-05
0.00258758 0.000636789 3.46225e-06
0.000636789 0.000387141 4.24118e-08
3.46225e-06 4.24118e-08 0.000179724
0.00211067 0.000731786 -2.08183e-06
0.000731786 0.000314808 2.60971e-09
-2.08183e-06 2.60971e-09 -3.16429e-05
0.00183285 0.000740714 9.73303e-07
0.000740714 0.00043003 2.53838e-07
9.73303e-07 2.53838e-07 -7.56892e-06
-0.000440362 3.73658e-05 -2.89375e-06
3.73658e-05 -0.000515636 4.80905e-06
-2.89375e-06 4.80905e-06 -0.000673328
0.00225104 0.000378354 1.28489e-05
0.000378354 -0.000184733 3.51421e-06
1.28489e-05 3.51421e-06 -0.00010681
0.0028229 0.000535302 6.9775e-06
0.000535302 0.00155615 9.08031e-06
6.9775e-06 9.08031e-06 0.00121042
0.00137422 0.000501626 2.45704e-06
0.000501626 0.000281565 -1.46039e-06
2.45704e-06 -1.46039e-06 -4.99353e-05
0.00258194 0.000616136 -1.31256e-05
0.000616136 0.000209404 -7.17565e-06
-1.31256e-05 -7.17565e-06 0.00013629
0.00120318 0.000679682 3.91135e-06
0.000679682 -0.000309727 -7.98657e-06
3.91135e-06 -7.98657e-06 -0.000635709
0.00272561 0.000862774 1.33264e-06
0.000862774 0.000887592 4.23589e-06
1.33264e-06 4.23589e-06 0.000419435
0.000784565 0.000120721 -1.18494e-06
0.000120721 0.000224174 -2.49554e-06
-1.18494e-06 -2.49554e-06 9.4272e-05
0.000631694 0.00011232 -3.7311e-06
0.00011232 0.000150387 -1.56274e-06
-3.7311e-06 -1.56274e-06 4.04292e-05
0.00119213 0.000109433 -2.9001e-06
0.000109433 0.000501453 1.87697e-06
-2.9001e-06 1.87697e-06 0.000429442
0.000489442 7.57852e-06 8.24427e-07
7.57852e-06 4.5775e-05 -3.56428e-06
8.24427e-07 -3.56428e-06 -6.6972e-05
0.000709771 8.72439e-05 2.37304e-06
8.72439e-05 0.000207909 -8.70145e-07
2.37304e-06 -8.70145e-07 5.64023e-05
-0.000223968 8.02633e-05 -2.56436e-06
8.02633e-05 -0.000343728 5.08249e-06
-2.56436e-06 5.08249e-06 -0.00046207
0.000551146 2.34992e-05 -1.47915e-06
2.34992e-05 8.84084e-05 1.67375e-08
-1.47915e-06 1.67375e-08 -3.01347e-05
0.000319546 -1.154e-05 -1.0299e-06
-1.154e-05 -2.97389e-05 -8.65724e-08
-1.0299e-06 -8.65724e-08 -0.000179805
9.99914e-05 5.60569e-05 -4.91844e-07
5.60569e-05 -0.000195408 1.7728e-06
-4.91844e-07 1.7728e-06 -0.000267356
0.000799508 9.9566e-05 1.12031e-06
9.9566e-05 0.00026913 -1.44321e-06
1.12031e-06 -1.44321e-06 0.000117289
0.00178836 0.00014226 -5.3438e-08
0.00014226 0.0008217 -1.56051e-06
-5.3438e-08 -1.56051e-06 0.000775888
0.000422392 2.63363e-05 1.05485e-05
2.63363e-05 2.17015e-06 -7.79224e-06
1.05485e-05 -7.79224e-06 -8.54133e-05
0.0003154 0.000112664 5.82099e-07
0.000112664 -2.0849e-05 2.49758e-06
5.82099e-07 2.49758e-06 -0.000183479
0.000548309 4.82116e-05 1.51294e-06
4.82116e-05 0.0001087 3.87094e-06
1.51294e-06 3.87094e-06 -5.3239e-05
0.000570159 3.31018e-05 2.63982e-06
3.31018e-05 9.11768e-05 3.22485e-06
2.63982e-06 3.22485e-06 -2.86437e-05
0.000476648 -5.86527e-05 -5.24547e-07
-5.86527e-05 1.95109e-05 3.0816e-06
-5.24547e-07 3.0816e-06 -6.09823e-05
0.00048752 1.12524e-05 2.99343e-07
1.12524e-05 2.0726e-05 -3.74523e-07
2.99343e-07 -3.74523e-07 -5.30352e-05
0.00129966 2.95133e-05 3.42357e-06
2.95133e-05 0.000507602 3.17463e-06
3.42357e-06 3.17463e-06 0.000487421
0.000490189 3.42609e-06 2.07026e-07
3.42609e-06 1.2913e-05 -3.39063e-06
2.07026e-07 -3.39063e-06 -5.23665e-05
0.0013115 1.18325e-05 -6.4387e-06
1.18325e-05 0.00050665 -1.72345e-06
-6.4387e-06 -1.72345e-06 0.000488892
0.000741665 -8.38466e-06 2.17117e-05
-8.38466e-06 0.000143006 8.94129e-06
2.17117e-05 8.94129e-06 0.000148425
0.0013493 -9.02552e-06 -8.37902e-06
-9.02552e-06 0.000523984 -6.6693e-06
-8.37902e-06 -6.6693e-06 0.000507307
0.000771251 -2.00686e-05 7.98771e-06
-2.00686e-05 0.000153786 3.53369e-06
7.98771e-06 3.53369e-06 0.000158135
0.000759929 -3.14302e-05 2.38152e-07
-3.14302e-05 0.0001439 -2.97344e-06
2.38152e-07 -2.97344e-06 0.000146354
0.000636852 -1.14004e-05 1.48147e-06
-1.14004e-05 9.22922e-05 -1.48859e-06
1.48147e-06 -1.48859e-06 4.20751e-05
0.000410979 2.79894e-05 -2.65282e-07
2.79894e-05 -6.42017e-05 -3.64089e-06
-2.65282e-07 -3.64089e-06 -8.23695e-05
0.000424807 4.77866e-05 3.66714e-07
4.77866e-05 -4.07951e-05 2.59876e-07
3.66714e-07 2.59876e-07 -6.82295e-05
0.00236346 9.33997e-05 1.17941e-05
9.33997e-05 0.00118388 -4.62025e-06
1.17941e-05 -4.62025e-06 0.00118781
0.000488384 6.47675e-05 5.40234e-06
6.47675e-05 1.54918e-05 7.78156e-06
5.40234e-06 7.78156e-06 -2.60384e-05
0.00275352 0.00012934 -5.04763e-06
0.00012934 0.0014421 -5.70936e-07
-5.04763e-06 -5.70936e-07 0.00143653
0.00339576 0.000119408 -5.17178e-05
0.000119408 0.00184473 6.02893e-06
-5.17178e-05 6.02893e-06 0.00183878
0.0021825 0.000379052 -9.0527e-08
0.000379052 2.36854e-05 -3.63971e-07
-9.0527e-08 -3.63971e-07 -1.80402e-05
0.00213744 0.000209339 -1.23636e-06
0.000209339 -7.92413e-06 3.07933e-09
-1.23636e-06 3.07933e-09 9.3807e-06
0.00205184 6.74113e-05 -8.01223e-07
6.74113e-05 -1.40805e-05 4.76281e-08
-8.01223e-07 4.76281e-08 5.04426e-06
0.00197777 -8.16521e-06 -4.66111e-06
-8.16521e-06 2.49775e-05 -1.70466e-07
-4.66111e-06 -1.70466e-07 1.29135e-05
0.00203638 -1.09055e-05 -9.30629e-07
-1.09055e-05 -2.00439e-05 -3.08439e-08
-9.30629e-07 -3.08439e-08 -1.91378e-06
0.00217487 0.000107661 -8.96737e-08
0.000107661 -4.8638e-05 3.07495e-07
-8.96737e-08 3.07495e-07 9.91666e-06
0.00228805 0.00031438 -1.21208e-06
0.00031438 -2.06161e-05 -3.414e-08
-1.21208e-06 -3.414e-08 9.23476e-06
0.00215308 -1.09786e-05 -1.87024e-06
-1.09786e-05 -6.55941e-05 -2.63436e-07
-1.87024e-06 -2.63436e-07 3.28683e-06
0.0023831 0.000162273 5.06952e-06
0.000162273 -4.98194e-05 -1.40617e-06
5.06952e-06 -1.40617e-06 2.07205e-05
0.00255958 0.000116706 1.28977e-05
0.000116706 0.000136091 1.20703e-05
1.28977e-05 1.20703e-05 0.00021719
0.00206405 -9.17425e-05 -1.60009e-06
-9.17425e-05 -5.70044e-07 1.12914e-07
-1.60009e-06 1.12914e-07 1.16354e-05
0.00213139 -0.000260999 -5.67005e-07
-0.000260999 -5.75696e-05 -1.12839e-07
-5.67005e-07 -1.12839e-07 -2.59628e-05
0.00217132 -0.000415315 -3.74364e-07
-0.000415315 2.31316e-05 -1.5032e-07
-3.74364e-07 -1.5032e-07 7.58078e-06
0.00151217 -0.000593689 7.37196e-06
-0.000593689 0.000425242 -3.45142e-06
7.37196e-06 -3.45142e-06 8.48846e-06
0.00181643 -0.000769411 2.53409e-05
-0.000769411 0.000449841 -1.17047e-06
2.53409e-05 -1.17047e-06 -2.12449e-05
0.00197072 -0.000750954 1.15143e-05
-0.000750954 0.000356125 -8.19956e-07
1.15143e-05 -8.19956e-07 -3.41146e-05
0.00213971 -0.000552342 5.73164e-07
-0.000552342 4.04015e-05 3.23805e-06
5.73164e-07 3.23805e-06 -4.75818e-05
0.00189724 -0.00064182 7.53776e-06
-0.00064182 0.000107018 3.00434e-06
7.53776e-06 3.00434e-06 -0.000120888
0.000450913 -0.000405951 1.24477e-05
-0.000405951 -0.000190779 -1.86019e-05
1.24477e-05 -1.86019e-05 -0.000555532
0.00149865 -0.000397243 1.72687e-05
-0.000397243 0.000610767 -1.92229e-05
1.72687e-05 -1.92229e-05 0.000170669
0.00114693 -0.000126102 -1.36436e-06
-0.000126102 0.000399632 2.40578e-06
-1.36436e-06 2.40578e-06 0.000108457
0.000445453 1.89925e-05 2.97518e-06
1.89925e-05 -6.50968e-06 9.29309e-07
2.97518e-06 9.29309e-07 -7.43044e-05
0.000615165 2.73846e-05 6.73919e-06
2.73846e-05 0.000150487 2.07401e-06
6.73919e-06 2.07401e-06 -1.32189e-05
0.000400372 -0.000135622 1.11757e-06
-0.000135622 3.96807e-05 7.23717e-06
1.11757e-06 7.23717e-06 -0.000219906
0.00216205 -0.000132884 5.75543e-07
-0.000132884 -5.36749e-05 -9.66376e-08
5.75543e-07 -9.66376e-08 7.94766e-06
0.000486076 9.66057e-06 1.76058e-06
9.66057e-06 3.91688e-06 3.33533e-07
1.76058e-06 3.33533e-07 -4.9969e-05
0.000386053 -7.3171e-05 -2.25927e-06
-7.3171e-05 -3.32583e-05 -5.40327e-07
-2.25927e-06 -5.40327e-07 -0.000124157
0.00227276 -0.000351132 -1.98318e-07
-0.000351132 -6.47495e-05 1.43618e-07
-1.98318e-07 1.43618e-07 5.04979e-06
0.00222551 -0.000501512 -1.82119e-06
-0.000501512 4.95572e-06 3.72493e-07
-1.82119e-06 3.72493e-07 7.86e-06
0.00182584 -0.00068042 -1.53935e-06
-0.00068042 0.000582191 2.08121e-06
-1.53935e-06 2.08121e-06 0.000131426
0.0019123 -0.000854836 7.69222e-06
-0.000854836 0.00046947 7.78229e-07
7.69222e-06 7.78229e-07 -4.85447e-05
0.00202198 -0.000827586 3.11445e-06
-0.000827586 0.000282732 -5.23945e-06
3.11445e-06 -5.23945e-06 -9.09531e-05
0.00230316 -0.00070154 3.02732e-06
-0.00070154 0.000143797 -1.03402e-06
3.02732e-06 -1.03402e-06 -4.28857e-06
0.000690165 1.5244e-05 -8.39881e-07
1.5244e-05 0.000202751 -1.29309e-06
-8.39881e-07 -1.29309e-06 8.06791e-05
0.000790363 -6.19159e-05 9.81012e-07
-6.19159e-05 0.000291435 1.98885e-06
9.81012e-07 1.98885e-06 7.28082e-05
0.00145647 -0.000536625 4.10307e-06
-0.000536625 0.00045698 5.42374e-06
4.10307e-06 5.42374e-06 6.12764e-05
0.00107072 -0.000372618 1.07549e-05
-0.000372618 0.000452612 -9.48342e-06
1.07549e-05 -9.48342e-06 -9.64439e-05
0.00096177 -0.000154999 -3.72836e-07
-0.000154999 0.000298441 -5.5947e-07
-3.72836e-07 -5.5947e-07 -5.28063e-05
0.000240415 -0.000104846 4.70329e-07
-0.000104846 -8.49756e-05 -1.8984e-06
4.70329e-07 -1.8984e-06 -0.000356185
0.0021666 -0.000154351 1.01486e-06
-0.000154351 -0.000194443 -3.94764e-07
1.01486e-06 -3.94764e-07 -0.000109318
0.00226768 -0.000451046 -1.04521e-06
-0.000451046 -0.000219869 3.20049e-06
-1.04521e-06 3.20049e-06 -1.57986e-05
0.00246585 -0.000692596 -3.45046e-06
-0.000692596 8.23428e-05 -1.91454e-06
-3.45046e-06 -1.91454e-06 4.55829e-05
0.0025134 -0.000914165 1.16996e-05
-0.000914165 0.000347774 -4.80672e-06
1.16996e-05 -4.80672e-06 0.000108436
0.00120305 -0.000644218 -3.75241e-06
-0.000644218 0.000260168 -1.961e-05
-3.75241e-06 -1.961e-05 -0.000204871
0.00306724 -0.00107477 -1.01236e-05
-0.00107477 0.00102015 7.9957e-06
-1.01236e-05 7.9957e-06 0.000460204
0.000176897 5.26127e-05 -2.65867e-06
5.26127e-05 -0.000157829 -4.77587e-06
-2.65867e-06 -4.77587e-06 -0.000255999
0.000550406 -4.4582e-05 3.97221e-06
-4.4582e-05 7.69815e-05 9.6891e-07
3.97221e-06 9.6891e-07 -1.11565e-05
0.00127134 -0.000161874 -2.91872e-06
-0.000161874 0.000496267 1.35145e-05
-2.91872e-06 1.35145e-05 0.00038021
0.000477843 1.33671e-05 -4.30055e-06
1.33671e-05 6.23045e-05 4.05074e-06
-4.30055e-06 4.05074e-06 -0.000104519
0.000736347 -9.79553e-05 -4.06636e-06
-9.79553e-05 0.000232722 6.91242e-06
-4.06636e-06 6.91242e-06 4.30142e-06
0.000832396 -7.67485e-05 1.18522e-05
-7.67485e-05 0.000207808 -9.757e-06
1.18522e-05 -9.757e-06 -4.98357e-05
-0.000896458 -0.000306847 5.47271e-07
-0.000306847 -0.000408197 -4.8144e-07
5.47271e-07 -4.8144e-07 -0.00120528
6.18647e-05 -0.000526056 -5.70759e-05
-0.000526056 -0.000425617 2.26255e-05
-5.70759e-05 2.26255e-05 -0.000779725
0.000420863 7.77428e-05 -1.07384e-06
7.77428e-05 3.49895e-05 -1.898e-06
-1.07384e-06 -1.898e-06 -0.000149675
0.000674444 0.000262763 -1.0635e-05
0.000262763 0.000268051 -5.41631e-06
-1.0635e-05 -5.41631e-06 -4.02353e-05
0.00236095 0.000473668 -9.55226e-06
0.000473668 -8.21588e-05 -3.44421e-06
-9.55226e-06 -3.44421e-06 -5.24983e-05
0.00248899 0.000638819 -9.4856e-06
0.000638819 0.000331994 -1.27861e-06
-9.4856e-06 -1.27861e-06 0.000117656
0.00343868 0.000482944 -5.62453e-06
0.000482944 0.00159984 3.6778e-08
-5.62453e-06 3.6778e-08 0.00134791
0.00167506 0.000535224 -3.5021e-06
0.000535224 0.000523687 -2.75473e-06
-3.5021e-06 -2.75473e-06 0.000153224
0.00204765 0.000712427 -5.87546e-06
0.000712427 0.000292097 1.41651e-06
-5.87546e-06 1.41651e-06 -4.71276e-05
0.00201343 0.000753077 -3.79575e-06
0.000753077 0.000519408 -1.4068e-06
-3.79575e-06 -1.4068e-06 8.55206e-05
0.00040303 0.000110359 1.2174e-06
0.000110359 3.1848e-05 -1.40921e-06
1.2174e-06 -1.40921e-06 -0.000162508
0.00242499 0.000363162 -2.48911e-06
0.000363162 -7.45453e-05 -2.00913e-06
-2.48911e-06 -2.00913e-06 8.04138e-06
0.00146133 0.000345923 9.97062e-07
0.000345923 0.00069069 1.40444e-06
9.97062e-07 1.40444e-06 0.000393196
0.00161354 0.000523116 2.4768e-06
0.000523116 0.00045858 1.0708e-06
2.4768e-06 1.0708e-06 0.000116058
0.00259926 0.000611309 1.76679e-06
0.000611309 0.000236232 3.18645e-07
1.76679e-06 3.18645e-07 0.000162154
0.00169533 0.000723478 -1.74493e-06
0.000723478 -1.76349e-05 -4.60122e-06
-1.74493e-06 -4.60122e-06 -0.000348643
0.00217781 0.0007901 2.69099e-08
0.0007901 0.000588242 5.68799e-07
2.69099e-08 5.68799e-07 0.000133661
0.00123514 0.00028186 -3.80399e-06
0.00028186 0.000634326 2.14377e-06
-3.80399e-06 2.14377e-06 0.000372812
0.00350419 0.000523833 -7.76171e-05
0.000523833 0.00056382 -2.02717e-05
-7.76171e-05 -2.02717e-05 0.000706699
0.00135852 0.000485601 -6.97025e-06
0.000485601 0.000546493 4.65182e-06
-6.97025e-06 4.65182e-06 0.000208716
0.00159399 0.000608565 -2.63748e-06
0.000608565 0.000375813 -5.79688e-06
-2.63748e-06 -5.79688e-06 -3.43157e-05
0.00232289 0.000809096 -3.09623e-05
0.000809096 0.0001824 -1.87847e-05
-3.09623e-05 -1.87847e-05 -4.35189e-05
0.00109858 0.000683444 -2.09969e-05
0.000683444 -6.54383e-05 -2.19343e-06
-2.09969e-05 -2.19343e-06 -0.000481665
0.000389541 0.000815612 3.20572e-05
0.000815612 -0.00176815 -3.57704e-05
3.20572e-05 -3.57704e-05 -0.00142058
-0.000101239 0.000123255 3.77632e-06
0.000123255 -0.000272394 -1.24937e-06
3.77632e-06 -1.24937e-06 -0.000391605
0.000462271 0.000107178 1.22006e-06
0.000107178 9.74421e-05 2.15695e-06
1.22006e-06 2.15695e-06 1.33187e-05
0.00191785 0.000170492 2.09591e-06
0.000170492 0.000954351 1.77407e-06
2.09591e-06 1.77407e-06 0.000879331
0.000412665 -6.38426e-05 6.94403e-07
-6.38426e-05 1.02808e-05 -4.14126e-06
6.94403e-07 -4.14126e-06 -0.000111364
0.00038458 -3.74351e-05 -5.37269e-07
-3.74351e-05 6.48482e-06 -1.36869e-06
-5.37269e-07 -1.36869e-06 -0.000140321
0.00106915 0.000190965 4.19533e-07
0.000190965 0.000440489 9.72938e-07
4.19533e-07 9.72938e-07 0.000275627
-0.000130805 3.39528e-05 -6.98531e-06
3.39528e-05 -0.000316734 1.38238e-05
-6.98531e-06 1.38238e-05 -0.000386039
0.000522858 -1.38947e-05 -3.20694e-07
-1.38947e-05 7.88938e-05 -1.35549e-07
-3.20694e-07 -1.35549e-07 -4.98939e-05
0.000483327 7.09234e-05 1.37392e-07
7.09234e-05 4.78689e-05 -7.21513e-07
1.37392e-07 -7.21513e-07 -9.86868e-05
0.00126269 0.000123178 2.336e-06
0.000123178 0.000489738 4.51895e-06
2.336e-06 4.51895e-06 0.000444436
0.000509369 7.09446e-05 1.65618e-06
7.09446e-05 7.76107e-05 6.94014e-07
1.65618e-06 6.94014e-07 -7.35122e-05
0.000695096 5.67235e-05 -1.29179e-06
5.67235e-05 0.000164971 -2.0658e-06
-1.29179e-06 -2.0658e-06 6.63587e-05
0.00159137 0.000136128 -2.32843e-06
0.000136128 0.00073255 -1.29611e-05
-2.32843e-06 -1.29611e-05 0.00068094
0.000866464 0.0001426 -2.11882e-06
0.0001426 0.000255936 -2.30553e-06
-2.11882e-06 -2.30553e-06 0.000109344
0.000957391 0.000136188 1.70249e-06
0.000136188 0.000349216 1.67812e-06
1.70249e-06 1.67812e-06 0.000186635
0.000894528 9.5847e-05 1.29856e-07
9.5847e-05 0.000325651 1.95156e-06
1.29856e-07 1.95156e-06 0.000149619
0.000252726 -2.32281e-05 -3.7085e-07
-2.32281e-05 -0.000109647 2.31294e-06
-3.7085e-07 2.31294e-06 -0.00023441
0.00110808 -8.43017e-05 6.50517e-07
-8.43017e-05 0.000500729 -1.70056e-06
6.50517e-07 -1.70056e-06 0.000310304
0.000181613 -4.01303e-05 -1.16385e-06
-4.01303e-05 -0.000151014 3.80364e-06
-1.16385e-06 3.80364e-06 -0.000280974
0.000452843 4.00168e-06 -1.78966e-06
4.00168e-06 1.06514e-05 3.15507e-06
-1.78966e-06 3.15507e-06 -7.48072e-05
0.000471701 3.88784e-05 2.49256e-06
3.88784e-05 1.98538e-05 -1.46965e-07
2.49256e-06 -1.46965e-07 -6.32464e-05
0.000379178 2.1553e-05 3.74212e-09
2.1553e-05 -6.52033e-05 4.52143e-06
3.74212e-09 4.52143e-06 -8.92611e-05
0.000428264 6.68021e-06 -2.71211e-06
6.68021e-06 -7.4888e-06 -3.75778e-06
-2.71211e-06 -3.75778e-06 -8.68614e-05
0.000882271 1.63762e-05 -3.53847e-06
1.63762e-05 0.000244774 -1.54071e-06
-3.53847e-06 -1.54071e-06 0.000223694
0.00263099 -4.19929e-06 1.98479e-05
-4.19929e-06 0.00133157 5.57018e-06
1.98479e-05 5.57018e-06 0.00134427
0.00139825 2.45402e-05 -1.04629e-05
2.45402e-05 0.000562221 -6.7859e-06
-1.04629e-05 -6.7859e-06 0.000543855
0.000766979 -1.03778e-05 6.99083e-06
-1.03778e-05 0.000155375 3.4405e-06
6.99083e-06 3.4405e-06 0.000160278
0.000793753 -2.13019e-05 6.22174e-07
-2.13019e-05 0.000164451 -2.68913e-06
6.22174e-07 -2.68913e-06 0.000168549
0.000490658 1.3826e-05 -2.17447e-06
1.3826e-05 8.49598e-06 -2.47192e-06
-2.17447e-06 -2.47192e-06 -4.2197e-05
0.000549736 -2.51222e-05 8.19764e-07
-2.51222e-05 4.11876e-05 -3.14556e-07
8.19764e-07 -3.14556e-07 -1.06379e-05
0.000492036 2.29601e-05 9.39625e-08
2.29601e-05 -1.91057e-05 -3.56459e-06
9.39625e-08 -3.56459e-06 -3.35892e-05
0.000801842 3.83482e-05 -1.02641e-07
3.83482e-05 0.000183368 1.50409e-07
-1.02641e-07 1.50409e-07 0.000166368
0.00221336 7.25e-05 9.1479e-06
7.25e-05 0.00108097 -4.5531e-06
9.1479e-06 -4.5531e-06 0.00108988
0.000478395 5.56459e-05 5.10963e-06
5.56459e-05 -2.39713e-06 5.67428e-06
5.10963e-06 5.67428e-06 -3.2849e-05
0.00244353 9.94533e-05 -2.86717e-06
9.94533e-05 0.00123576 -2.87404e-07
-2.86717e-06 -2.87404e-07 0.00123819
0.00281071 0.000135365 6.24498e-06
0.000135365 0.00147916 7.55245e-06
6.24498e-06 7.55245e-06 0.00147219
0.00222236 0.000321027 -2.32189e-06
0.000321027 -5.19702e-05 -3.57708e-07
-2.32189e-06 -3.57708e-07 -2.19439e-05
0.00215246 0.000102478 2.3144e-06
0.000102478 -5.40624e-05 5.66254e-07
2.3144e-06 5.66254e-07 3.01169e-06
0.0020429 -6.46805e-06 -3.68471e-07
-6.46805e-06 -1.79574e-05 -1.79939e-07
-3.68471e-07 -1.79939e-07 2.7551e-06
0.00213948 -7.13697e-06 1.23009e-07
-7.13697e-06 -7.31192e-05 -2.42684e-07
1.23009e-07 -2.42684e-07 -4.40473e-06
0.00235028 0.000167804 -3.57065e-07
0.000167804 -5.54576e-05 4.55722e-07
-3.57065e-07 4.55722e-07 1.43509e-05
0.00229594 9.2958e-05 8.30179e-06
9.2958e-05 -4.30248e-05 -5.90676e-06
8.30179e-06 -5.90676e-06 3.2903e-05
0.00240016 -1.75264e-06 1.27807e-06
-1.75264e-06 -9.7257e-05 -1.80956e-06
1.27807e-06 -1.80956e-06 1.36261e-05
0.00457263 0.000845478 6.26578e-05
0.000845478 -0.000467747 1.27449e-05
6.26578e-05 1.27449e-05 0.000204642
0.00284641 7.2329e-05 -2.32489e-05
7.2329e-05 0.000452777 2.86958e-05
-2.32489e-05 2.86958e-05 0.000664258
0.000484437 0.000110197 -2.8994e-06
0.000110197 4.43023e-05 -1.13494e-06
-2.8994e-06 -1.13494e-06 -5.11313e-05
0.002168 -0.000133862 9.84095e-07
-0.000133862 -5.86188e-05 -5.58736e-07
9.84095e-07 -5.58736e-07 5.63001e-06
0.00224492 -0.000340372 2.22845e-06
-0.000340372 -5.98569e-05 -8.45819e-07
2.22845e-06 -8.45819e-07 -1.85998e-08
0.00218525 -0.000492219 -4.08136e-07
-0.000492219 -1.28424e-05 5.15084e-07
-4.08136e-07 5.15084e-07 -2.85285e-06
0.00113717 -0.000607347 4.51487e-07
-0.000607347 0.00018408 9.88417e-06
4.51487e-07 9.88417e-06 -0.000246744
0.00217525 -0.00087648 2.38531e-05
-0.00087648 0.000616597 9.75188e-06
2.38531e-05 9.75188e-06 0.000100326
0.00149753 -0.000770357 -4.16525e-06
-0.000770357 -1.64367e-05 -4.0842e-06
-4.16525e-06 -4.0842e-06 -0.000374899
0.00223047 -0.000695858 -5.60535e-06
-0.000695858 0.000103541 1.91146e-06
-5.60535e-06 1.91146e-06 -3.96483e-05
0.00166458 -0.000530102 4.2719e-05
-0.000530102 0.000507131 -3.38222e-05
4.2719e-05 -3.38222e-05 0.000147095
0.00152303 -0.000444246 3.13234e-05
-0.000444246 0.000677738 -2.90733e-05
3.13234e-05 -2.90733e-05 0.000192237
0.000633214 -5.95372e-05 -6.86813e-08
-5.95372e-05 5.32265e-05 4.70497e-06
-6.86813e-08 4.70497e-06 -0.000259497
0.0004849 1.00753e-05 2.37592e-06
1.00753e-05 3.66643e-06 8.47682e-07
2.37592e-06 8.47682e-07 -5.08035e-05
0.0013897 -0.000118416 1.30546e-06
-0.000118416 0.000634277 7.63578e-06
1.30546e-06 7.63578e-06 0.000341456
0.000896222 -2.18437e-05 7.56031e-06
-2.18437e-05 0.000344447 -1.31315e-06
7.56031e-06 -1.31315e-06 0.000217581
0.000677688 -5.59408e-05 2.74316e-06
-5.59408e-05 0.000209886 -7.07881e-07
2.74316e-06 -7.07881e-07 -2.46231e-06
0.000114268 -4.40514e-05 -3.33674e-06
-4.40514e-05 -0.000211644 -3.02127e-07
-3.33674e-06 -3.02127e-07 -0.000298491
0.00224168 -0.000172289 -4.64548e-07
-0.000172289 -0.000180332 3.45059e-08
-4.64548e-07 3.45059e-08 -6.85222e-05
0.000341424 2.71677e-05 4.36499e-07
2.71677e-05 -4.17317e-05 -2.48096e-06
4.36499e-07 -2.48096e-06 -0.000145582
0.000592518 -5.87824e-05 2.62051e-06
-5.87824e-05 0.000118849 9.77545e-07
2.62051e-06 9.77545e-07 2.08986e-05
0.000902762 -0.000128846 3.81179e-06
-0.000128846 0.000263703 2.04201e-07
3.81179e-06 2.04201e-07 0.00015938
0.00228994 -0.00046406 2.07776e-06
-0.00046406 -0.00018615 -8.20784e-07
2.07776e-06 -8.20784e-07 -2.09038e-05
0.00237905 -0.000686935 5.30049e-07
-0.000686935 3.54728e-05 -5.69544e-07
5.30049e-07 -5.69544e-07 -1.12851e-06
0.000517437 -0.000497849 7.17046e-06
-0.000497849 -0.000137509 -2.00623e-07
7.17046e-06 -2.00623e-07 -0.000536498
0.00268239 -0.00104071 1.82031e-05
-0.00104071 0.000783096 2.8776e-07
1.82031e-05 2.8776e-07 0.000245661
0.00236952 -0.000904131 -7.70129e-07
-0.000904131 0.00028518 2.19414e-06
-7.70129e-07 2.19414e-06 3.50347e-05
0.000296734 -2.68727e-05 -6.45229e-07
-2.68727e-05 -4.9932e-05 3.18329e-07
-6.45229e-07 3.18329e-07 -0.000209199
0.00106243 -0.000127176 -8.437e-07
-0.000127176 0.00045755 4.05289e-06
-8.437e-07 4.05289e-06 0.000202464
0.00171235 -0.000730454 -1.00348e-06
-0.000730454 0.000541839 1.78866e-06
-1.00348e-06 1.78866e-06 9.82168e-05
0.000130879 -0.000221015 -1.42626e-06
-0.000221015 -7.55543e-06 1.98839e-06
-1.42626e-06 1.98839e-06 -0.000625682
0.00127031 -0.000126479 1.54686e-06
-0.000126479 0.000484616 5.895e-06
1.54686e-06 5.895e-06 0.000221342
0.00269557 -0.000326261 -7.63184e-06
-0.000326261 8.89154e-05 1.54982e-06
-7.63184e-06 1.54982e-06 0.000209462
0.0020591 -0.000515827 -1.58303e-05
-0.000515827 -0.000302142 7.42219e-06
-1.58303e-05 7.42219e-06 -6.40973e-05
0.00217855 -0.00081819 -6.37007e-06
-0.00081819 4.56872e-05 -1.90489e-06
-6.37007e-06 -1.90489e-06 -0.000134464
0.00447316 -0.00121838 -7.55037e-06
-0.00121838 0.00159136 -2.97534e-06
-7.55037e-06 -2.97534e-06 0.00123248
0.000111714 -0.000617045 -2.02442e-05
-0.000617045 -0.000400928 -7.74342e-06
-2.02442e-05 -7.74342e-06 -0.000836805
4.2266e-05 -2.8014e-05 6.55722e-07
-2.8014e-05 -0.000222615 7.15462e-07
6.55722e-07 7.15462e-07 -0.000331842
0.000781995 1.15696e-05 -4.42999e-06
1.15696e-05 0.000169391 1.22209e-05
-4.42999e-06 1.22209e-05 6.3809e-05
-0.00163833 -0.000120698 -6.47567e-06
-0.000120698 -0.00131268 6.73003e-07
-6.47567e-06 6.73003e-07 -0.00139123
0.00209991 -0.000294289 -2.36273e-05
-0.000294289 0.00109374 2.44856e-05
-2.36273e-05 2.44856e-05 0.000874842
0.000894083 -0.000100924 -5.44237e-06
-0.000100924 0.000332034 2.69347e-05
-5.44237e-06 2.69347e-05 9.56737e-05
-0.00146111 -0.000115019 7.04755e-06
-0.000115019 -0.000530741 7.92306e-07
7.04755e-06 7.92306e-07 -0.00129279
0.000430496 -0.000797554 -2.14077e-05
-0.000797554 9.63654e-05 9.75507e-06
-2.14077e-05 9.75507e-06 -0.000560678
0.00166596 0.000249027 -4.29732e-06
0.000249027 0.000823552 -6.67425e-06
-4.29732e-06 -6.67425e-06 0.000596447
-0.000574833 8.56596e-05 -5.03232e-06
8.56596e-05 -0.000592878 -2.0835e-06
-5.03232e-06 -2.0835e-06 -0.00082623
0.00256982 0.000338675 7.88552e-07
0.000338675 8.01477e-06 1.30007e-06
7.88552e-07 1.30007e-06 0.00010605
0.00256996 0.000603981 1.13838e-05
0.000603981 0.00022796 5.63805e-06
1.13838e-05 5.63805e-06 0.00015787
0.00214896 0.000763717 5.30869e-06
0.000763717 0.000250225 2.64034e-06
5.30869e-06 2.64034e-06 -8.47093e-05
0.0015851 0.000514706 -1.64791e-06
0.000514706 0.000468443 1.01228e-06
-1.64791e-06 1.01228e-06 0.000122419
0.00172384 0.000730213 1.48213e-06
0.000730213 0.000341649 2.68253e-06
1.48213e-06 2.68253e-06 -0.000100822
0.00199186 0.000311302 7.73443e-07
0.000311302 0.00103813 -5.99525e-07
7.73443e-07 -5.99525e-07 0.000803356
0.00278147 0.000424827 5.80701e-06
0.000424827 0.000184471 2.8694e-06
5.80701e-06 2.8694e-06 0.000359708
0.00120114 0.000411619 -3.90887e-06
0.000411619 0.000417965 3.56239e-06
-3.90887e-06 3.56239e-06 0.000116204
0.00168034 0.000623746 3.40958e-06
0.000623746 0.000465442 -2.55541e-07
3.40958e-06 -2.55541e-07 3.86647e-05
0.00229513 0.000787522 -3.17351e-06
0.000787522 0.000184885 -3.54273e-06
-3.17351e-06 -3.54273e-06 -2.03698e-05
0.00183674 0.000778154 -4.40453e-06
0.000778154 0.000349081 5.29533e-06
-4.40453e-06 5.29533e-06 -8.85471e-05
0.00307682 0.00112772 3.98122e-05
0.00112772 -0.000615432 7.92992e-06
3.98122e-05 7.92992e-06 -0.000444502
0.000355637 0.000269657 -3.03677e-06
0.000269657 0.000117564 1.79283e-06
-3.03677e-06 1.79283e-06 -0.000140958
0.00280733 0.000777972 -8.20458e-05
0.000777972 0.000319215 -3.74515e-05
-8.20458e-05 -3.74515e-05 0.000281545
0.000685176 0.000411315 -7.77212e-06
0.000411315 -7.20069e-05 2.90861e-06
-7.77212e-06 2.90861e-06 -0.000394758
-3.48885e-05 0.000469987 -1.9736e-07
0.000469987 -0.000549202 -1.49219e-05
-1.9736e-07 -1.49219e-05 -0.000947314
0.00133422 0.000838025 -3.69472e-05
0.000838025 -0.000136767 -1.18237e-05
-3.69472e-05 -1.18237e-05 -0.000411018
0.0147414 0.000406352 -0.000503773
0.000406352 0.00223527 -8.43033e-05
-0.000503773 -8.43033e-05 0.00178783
0.00359971 0.00173954 -5.72455e-05
0.00173954 -0.00200583 -6.76835e-05
-5.72455e-05 -6.76835e-05 -0.000711875
0.000361056 0.00128799 1.23496e-05
0.00128799 -0.000872521 2.14175e-06
1.23496e-05 2.14175e-06 -0.00111705
0.00254509 -0.00225898 0.00152959
-0.00225898 0.00198349 0.000311067
0.00152959 0.000311067 -0.00141028
0.0221077 -0.00865204 -4.47956e-05
-0.00865204 0.00861339 8.04303e-05
-4.47956e-05 8.04303e-05 0.00594234
-7.84442e-05 0.000104701 7.66654e-06
0.000104701 -0.000199472 1.85313e-06
7.66654e-06 1.85313e-06 -0.000292389
0.000829604 0.000112345 -8.62965e-07
0.000112345 0.000331357 -2.7631e-06
-8.62965e-07 -2.7631e-06 0.000254656
0.0020198 0.00028171 1.68129e-06
0.00028171 0.00109161 -1.77146e-07
1.68129e-06 -1.77146e-07 0.000964356
0.000492212 -5.58925e-05 -5.24986e-07
-5.58925e-05 6.95981e-05 -2.85108e-06
-5.24986e-07 -2.85108e-06 -6.4301e-05
0.000340655 6.54046e-05 -1.0119e-06
6.54046e-05 -4.15623e-05 -3.35953e-06
-1.0119e-06 -3.35953e-06 -0.000187768
0.000749652 -2.42227e-05 -5.20741e-08
-2.42227e-05 0.000225606 -1.59335e-06
-5.20741e-08 -1.59335e-06 7.22723e-05
0.000771982 7.93796e-05 -3.97645e-06
7.93796e-05 0.00020655 1.06585e-05
-3.97645e-06 1.06585e-05 0.000102134
0.00016427 8.31367e-05 1.82721e-06
8.31367e-05 -0.000191612 8.97897e-06
1.82721e-06 8.97897e-06 -0.000233315
0.000755889 0.000148271 -1.36623e-06
0.000148271 0.000252241 -4.25746e-07
-1.36623e-06 -4.25746e-07 7.09529e-05
0.000403151 -1.08572e-05 3.87799e-07
-1.08572e-05 -6.38238e-06 1.01984e-06
3.87799e-07 1.01984e-06 -0.000136531
0.000709286 5.42256e-05 -6.96248e-07
5.42256e-05 0.000202128 3.0123e-08
-6.96248e-07 3.0123e-08 3.4176e-05
0.000292625 9.07568e-05 -1.11469e-06
9.07568e-05 -7.51198e-05 -2.05024e-06
-1.11469e-06 -2.05024e-06 -0.000125106
0.000654438 0.000118464 -1.50464e-06
0.000118464 0.000142856 -1.83663e-07
-1.50464e-06 -1.83663e-07 -1.04541e-06
0.0020203 0.000239387 -1.38816e-06
0.000239387 0.00103 -8.80238e-07
-1.38816e-06 -8.80238e-07 0.000836913
0.000233685 0.000103596 2.11914e-07
0.000103596 -3.56823e-05 -3.448e-06
2.11914e-07 -3.448e-06 -0.000197775
0.000915528 0.000108439 3.0207e-06
0.000108439 0.00033612 1.16344e-07
3.0207e-06 1.16344e-07 0.000164897
0.000324517 -9.227e-06 1.01446e-06
-9.227e-06 -5.74004e-05 -1.18447e-07
1.01446e-06 -1.18447e-07 -0.000219179
0.000348242 -7.31082e-05 -7.2138e-07
-7.31082e-05 -4.1001e-05 1.5478e-06
-7.2138e-07 1.5478e-06 -0.000175451
0.000667913 -3.24585e-05 -7.09878e-07
-3.24585e-05 0.000174983 -5.14224e-07
-7.09878e-07 -5.14224e-07 9.45904e-06
0.00132796 -1.33323e-05 1.05069e-06
-1.33323e-05 0.000581889 -1.03176e-05
1.05069e-06 -1.03176e-05 0.000423494
0.000748747 -5.19471e-05 -9.81478e-07
-5.19471e-05 0.000267859 -1.1972e-06
-9.81478e-07 -1.1972e-06 0.000106186
0.00075445 -7.57536e-05 1.91398e-06
-7.57536e-05 0.000247322 -7.35841e-07
1.91398e-06 -7.35841e-07 8.09688e-05
0.000660806 -0.000125962 -1.86838e-06
-0.000125962 0.000160281 3.21132e-06
-1.86838e-06 3.21132e-06 2.5007e-05
0.000276813 -2.47617e-05 2.01844e-07
-2.47617e-05 -8.74226e-05 1.06248e-06
2.01844e-07 1.06248e-06 -0.000220995
0.000502368 -5.75661e-05 -1.76093e-06
-5.75661e-05 3.16488e-05 3.99343e-06
-1.76093e-06 3.99343e-06 -4.82027e-05
0.000498801 -3.8753e-05 1.95754e-06
-3.8753e-05 3.68346e-05 1.07495e-07
1.95754e-06 1.07495e-07 -4.73549e-05
0.000435841 2.74842e-06 2.98783e-06
2.74842e-06 -2.63125e-05 6.44536e-06
2.98783e-06 6.44536e-06 -5.18782e-05
0.000510325 5.26464e-05 -1.88303e-06
5.26464e-05 3.79646e-05 -3.38563e-06
-1.88303e-06 -3.38563e-06 -4.11026e-05
0.000400083 3.24505e-05 3.37739e-07
3.24505e-05 -4.99831e-05 7.36152e-08
3.37739e-07 7.36152e-08 -7.51623e-05
0.0025494 5.39929e-06 6.08534e-06
5.39929e-06 0.00128245 5.41093e-06
6.08534e-06 5.41093e-06 0.00129477
0.000460044 4.1143e-05 -3.74252e-06
4.1143e-05 -1.68112e-05 -7.36849e-06
-3.74252e-06 -7.36849e-06 -4.26991e-05
0.00171284 -4.84891e-06 -3.87627e-06
-4.84891e-06 0.000753891 1.76202e-07
-3.87627e-06 1.76202e-07 0.000761758
0.000814342 -1.10625e-05 4.92906e-07
-1.10625e-05 0.000180433 -2.36473e-06
4.92906e-07 -2.36473e-06 0.000185375
0.000436202 6.31937e-06 -3.58812e-07
6.31937e-06 -2.99916e-05 -1.72169e-06
-3.58812e-07 -1.72169e-06 -7.20159e-05
0.000531498 -3.8367e-05 9.49711e-08
-3.8367e-05 3.74064e-05 1.75121e-08
9.49711e-08 1.75121e-08 -1.53744e-05
0.000519319 1.21355e-05 9.53817e-07
1.21355e-05 -4.44219e-06 -3.34201e-06
9.53817e-07 -3.34201e-06 -1.57469e-05
0.000478635 -3.86454e-05 -1.39522e-06
-3.86454e-05 -2.14183e-06 4.05586e-07
-1.39522e-06 4.05586e-07 -5.44886e-05
0.00079712 2.77336e-05 -1.696e-07
2.77336e-05 0.000173719 -7.1237e-07
-1.696e-07 -7.1237e-07 0.000161357
0.00202877 5.33121e-05 5.84493e-06
5.33121e-05 0.000957959 -4.61076e-06
5.84493e-06 -4.61076e-06 0.000971096
0.000456197 3.43042e-05 1.16762e-06
3.43042e-05 -3.42749e-05 3.78952e-06
1.16762e-06 3.78952e-06 -5.38209e-05
0.00235695 7.87473e-05 -5.7157e-06
7.87473e-05 0.00117456 1.17474e-06
-5.7157e-06 1.17474e-06 0.00118185
0.00258733 0.000108265 -1.12582e-07
0.000108265 0.00132864 5.89161e-06
-1.12582e-07 5.89161e-06 0.00132905
0.00231212 0.000175566 -2.84008e-06
0.000175566 -6.25131e-05 -7.45513e-07
-2.84008e-06 -7.45513e-07 6.87189e-06
0.00213002 -6.14507e-06 2.04616e-06
-6.14507e-06 -7.76012e-05 -2.03112e-07
2.04616e-06 -2.03112e-07 -9.42446e-06
0.00206075 6.70794e-05 -7.93553e-06
6.70794e-05 -0.000213354 3.63442e-06
-7.93553e-06 3.63442e-06 -0.000139968
0.00257513 0.000632697 9.484e-05
0.000632697 -0.00149641 2.0283e-05
9.484e-05 2.0283e-05 -0.000733433
0.00238824 -3.02838e-05 -1.86057e-07
-3.02838e-05 -8.10614e-05 -2.7809e-06
-1.86057e-07 -2.7809e-06 2.87153e-05
0.00222845 6.56769e-05 1.32925e-07
6.56769e-05 8.48953e-05 -9.39346e-06
1.32925e-07 -9.39346e-06 0.000233304
0.0032117 -4.26352e-05 -2.46056e-05
-4.26352e-05 0.000792805 -1.03481e-06
-2.46056e-05 -1.03481e-06 0.000826091
0.00327676 0.000143897 -1.60257e-05
0.000143897 -0.00191296 -4.08776e-05
-1.60257e-05 -4.08776e-05 -0.000805863
0.0025627 0.000216633 0.00012989
0.000216633 -0.000856737 4.85192e-05
0.00012989 4.85192e-05 -0.000320367
0.000591902 8.83952e-05 -9.34654e-08
8.83952e-05 0.000113813 -8.10122e-07
-9.34654e-08 -8.10122e-07 1.92489e-05
0.000575209 -2.88741e-06 3.93648e-07
-2.88741e-06 0.000114744 -1.10626e-07
3.93648e-07 -1.10626e-07 1.11447e-05
0.000334802 -9.01721e-05 -6.29337e-06
-9.01721e-05 -2.33315e-05 1.26729e-06
-6.29337e-06 1.26729e-06 -0.000139394
0.000416468 -4.83546e-05 -3.92485e-06
-4.83546e-05 3.12097e-05 2.02174e-06
-3.92485e-06 2.02174e-06 -8.75104e-05
0.00232428 -0.000192494 -3.25724e-06
-0.000192494 -0.000153719 -4.00294e-07
-3.25724e-06 -4.00294e-07 -2.40973e-05
0.00229039 -0.000471495 7.1763e-07
-0.000471495 -0.000158615 -2.39245e-06
7.1763e-07 -2.39245e-06 -3.10535e-05
0.00229655 -0.000678393 -3.58019e-06
-0.000678393 -5.9189e-06 1.80392e-06
-3.58019e-06 1.80392e-06 -4.27891e-05
0.0036754 -0.000855599 1.99027e-05
-0.000855599 0.00167655 1.41795e-05
1.99027e-05 1.41795e-05 0.00121076
0.000345571 -0.000788676 -1.74483e-06
-0.000788676 -0.000531228 1.63299e-06
-1.74483e-06 1.63299e-06 -0.00101837
0.00230537 -0.000900716 -5.62825e-07
-0.000900716 0.000264496 -1.67723e-06
-5.62825e-07 -1.67723e-06 5.15931e-06
0.000866094 -0.000696993 2.20717e-05
-0.000696993 2.737e-05 -1.99282e-05
2.20717e-05 -1.99282e-05 -0.000454915
0.00359169 -0.0003246 1.01013e-05
-0.0003246 0.00176352 -5.75492e-06
1.01013e-05 -5.75492e-06 0.00136488
-5.44773e-05 -1.67599e-05 -6.91312e-06
-1.67599e-05 -0.000409656 3.86653e-06
-6.91312e-06 3.86653e-06 -0.000618005
0.000642941 -5.7892e-05 3.81069e-06
-5.7892e-05 0.000149438 -8.55914e-07
3.81069e-06 -8.55914e-07 5.2264e-05
0.000620051 -0.000140313 -3.89887e-06
-0.000140313 0.000197465 -1.29142e-05
-3.89887e-06 -1.29142e-05 -6.00709e-05
0.000424728 -2.52137e-05 5.84354e-06
-2.52137e-05 2.89528e-05 -1.24975e-06
5.84354e-06 -1.24975e-06 -0.000124765
0.000589507 1.28279e-06 5.44064e-07
1.28279e-06 0.000140265 1.8783e-06
5.44064e-07 1.8783e-06 2.3639e-05
0.000618752 -7.76222e-05 -7.77293e-06
-7.76222e-05 8.78942e-05 -7.23716e-07
-7.77293e-06 -7.23716e-07 -3.94725e-06
0.00263469 -0.000308177 2.05778e-06
-0.000308177 6.35177e-05 1.41772e-06
2.05778e-06 1.41772e-06 0.000200656
0.000486879 -2.51474e-05 -7.91217e-07
-2.51474e-05 7.45338e-05 2.02413e-06
-7.91217e-07 2.02413e-06 -5.57501e-05
0.000843711 -4.9566e-05 6.79514e-06
-4.9566e-05 0.000220882 -1.96119e-07
6.79514e-06 -1.96119e-07 0.000104525
-0.000677965 -4.2749e-05 4.59574e-06
-4.2749e-05 -0.000653335 -3.40386e-07
4.59574e-06 -3.40386e-07 -0.000714179
0.00205288 -0.000528564 7.33135e-07
-0.000528564 -0.000327882 -1.28044e-06
7.33135e-07 -1.28044e-06 -0.000106446
0.0022852 -0.000828296 2.14963e-06
-0.000828296 9.92872e-05 -1.30345e-06
2.14963e-06 -1.30345e-06 -7.52823e-05
0.00193808 -0.000862399 -4.74852e-06
-0.000862399 0.000614599 5.44971e-07
-4.74852e-06 5.44971e-07 0.000134213
0.00263551 -0.00103495 -6.15035e-06
-0.00103495 0.000589047 1.56269e-06
-6.15035e-06 1.56269e-06 0.000252474
0.00147785 -0.000162486 3.84868e-06
-0.000162486 0.000691447 -2.80826e-06
3.84868e-06 -2.80826e-06 0.00048278
0.000184214 -3.78381e-05 7.79487e-06
-3.78381e-05 -0.000138677 9.91041e-06
7.79487e-06 9.91041e-06 -0.00036986
0.0017775 -0.00103832 1.67195e-06
-0.00103832 0.000934204 -2.83258e-06
1.67195e-06 -2.83258e-06 0.000191456
0.00108612 -0.00039866 -7.68329e-06
-0.00039866 0.000471337 -8.09035e-07
-7.68329e-06 -8.09035e-07 -3.24946e-05
0.00341295 -0.000452633 -4.44003e-05
-0.000452633 0.000434531 5.59511e-06
-4.44003e-05 5.59511e-06 0.000697122
0.00267628 -0.000690156 -4.13675e-05
-0.000690156 0.000240024 1.30668e-05
-4.13675e-05 1.30668e-05 0.000300061
0.00259253 -0.000965602 3.50694e-06
-0.000965602 0.00046333 -1.00459e-05
3.50694e-06 -1.00459e-05 0.00013489
0.00304467 -0.00103881 5.64859e-06
-0.00103881 0.00103408 5.87599e-06
5.64859e-06 5.87599e-06 0.000682468
6.67146e-05 -6.52904e-05 -2.20812e-06
-6.52904e-05 -0.000116881 -7.71383e-06
-2.20812e-06 -7.71383e-06 -0.000245783
0.000439719 -0.000128079 -1.2828e-05
-0.000128079 5.33182e-05 -3.17097e-06
-1.2828e-05 -3.17097e-06 -0.000134658
0.000145666 -0.000189404 -6.8388e-06
-0.000189404 0.000141441 5.16295e-05
-6.8388e-06 5.16295e-05 -0.000190663
-0.000392992 -0.000877373 -3.25028e-06
-0.000877373 0.000347308 -2.75112e-05
-3.25028e-06 -2.75112e-05 -0.000735143
0.00270083 -0.000459576 5.92203e-05
-0.000459576 -0.00530922 -2.19915e-05
5.92203e-05 -2.19915e-05 -0.00536027
0.00236603 0.000295755 9.26677e-07
0.000295755 0.00124391 -3.59042e-06
9.26677e-07 -3.59042e-06 0.00101222
0.00126552 0.00036042 -9.858e-07
0.00036042 0.000442264 -1.77451e-07
-9.858e-07 -1.77451e-07 0.000164733
0.00191273 0.000346089 5.58768e-05
0.000346089 -0.000298463 1.72621e-05
5.58768e-05 1.72621e-05 -9.79201e-05
0.00256167 0.000795155 2.34462e-05
0.000795155 0.000344374 9.69028e-06
2.34462e-05 9.69028e-06 0.000150594
0.00221035 0.00082565 7.79853e-06
0.00082565 0.000569023 1.10523e-05
7.79853e-06 1.10523e-05 0.000117702
0.00125357 0.000576854 6.76362e-06
0.000576854 0.000248213 7.09364e-06
6.76362e-06 7.09364e-06 -0.000182076
0.00548463 0.00146325 0.0001138
0.00146325 0.00030773 3.2706e-05
0.0001138 3.2706e-05 0.000276443
0.00137438 0.000315295 5.32018e-06
0.000315295 0.000709672 3.93428e-07
5.32018e-06 3.93428e-07 0.000461602
0.00264148 0.000738964 -2.40932e-05
0.000738964 0.000216734 7.88487e-07
-2.40932e-05 7.88487e-07 0.000212001
0.000908246 0.000439304 -5.03831e-06
0.000439304 0.000104731 3.77257e-06
-5.03831e-06 3.77257e-06 -0.000231745
0.00145852 0.000668184 6.62807e-07
0.000668184 0.000315206 -6.67968e-06
6.62807e-07 -6.67968e-06 -0.000123292
0.00229532 0.00092036 -1.12966e-05
0.00092036 0.000379366 -4.0385e-07
-1.12966e-05 -4.0385e-07 7.63846e-05
0.00470219 -0.000653252 -0.000164364
-0.000653252 -0.00484962 -8.89975e-05
-0.000164364 -8.89975e-05 -0.0056806
0.00695691 0.00181278 -0.000145259
0.00181278 -0.000412583 -5.99472e-05
-0.000145259 -5.99472e-05 0.000656721
0.00115279 0.00128904 -1.16922e-06
0.00128904 -0.000426176 5.56207e-06
-1.16922e-06 5.56207e-06 -0.000783138
0.00103596 -0.00204378 0.000550146
-0.00204378 0.00292257 0.000212843
0.000550146 0.000212843 -3.85964e-05
0.0140527 -0.00881323 -0.00049101
-0.00881323 0.00680742 -0.000445615
-0.00049101 -0.000445615 0.0039628
0.000700248 0.000258286 -1.50818e-05
0.000258286 0.000189933 -1.23213e-06
-1.50818e-05 -1.23213e-06 -2.98262e-05
0.00132947 0.000544048 0.000773144
0.000544048 0.00418871 6.91831e-05
0.000773144 6.91831e-05 0.00219341
0.00384767 -0.00318929 -0.000181226
-0.00318929 0.00582567 -0.000231196
-0.000181226 -0.000231196 0.000554669
0.00316762 0.00118288 -5.6881e-05
0.00118288 0.000636244 -1.34884e-05
-5.6881e-05 -1.34884e-05 0.000441332
0.000685824 0.000348152 -2.74683e-05
0.000348152 -2.60762e-05 -4.97591e-06
-2.74683e-05 -4.97591e-06 -0.000321605
0.0008479 0.000687774 -3.2292e-05
0.000687774 3.42762e-05 -2.72796e-05
-3.2292e-05 -2.72796e-05 -0.000336965
-0.000271219 0.00115538 5.43871e-05
0.00115538 -0.000914666 9.80406e-05
5.43871e-05 9.80406e-05 -0.00128493
0.0125002 0.00248684 5.72087e-05
0.00248684 0.00135115 -1.8787e-05
5.72087e-05 -1.8787e-05 0.000530004
0.00494656 0.00268024 -4.9599e-05
0.00268024 -0.000201882 -5.02724e-05
-4.9599e-05 -5.02724e-05 0.000450858
0.0156784 -0.00660587 0.00101189
-0.00660587 0.00504712 0.00052593
0.00101189 0.00052593 0.00124746
0.0132099 -0.00302519 -0.000100774
-0.00302519 0.00379511 0.000627305
-0.000100774 0.000627305 0.00208172
0.000339038 8.4066e-05 4.64491e-06
8.4066e-05 6.8671e-05 -5.06087e-06
4.64491e-06 -5.06087e-06 -1.83298e-05
0.000188104 0.000132278 8.25587e-06
0.000132278 -2.57274e-05 1.41174e-06
8.25587e-06 1.41174e-06 -0.000136158
0.00193089 0.000305392 2.73515e-06
0.000305392 0.00105013 -1.80804e-06
2.73515e-06 -1.80804e-06 0.000865524
0.000580628 7.5426e-06 1.05838e-06
7.5426e-06 0.000130189 -6.04673e-08
1.05838e-06 -6.04673e-08 -1.6477e-05
0.000605902 7.09135e-05 -6.11401e-07
7.09135e-05 0.000129355 -2.2975e-06
-6.11401e-07 -2.2975e-06 -3.13586e-05
-3.73883e-07 3.7075e-05 -1.68248e-06
3.7075e-05 -0.000239292 7.48005e-07
-1.68248e-06 7.48005e-07 -0.00039617
0.000779411 0.000121149 -7.71946e-06
0.000121149 0.000241931 2.04514e-06
-7.71946e-06 2.04514e-06 9.31114e-05
-0.000443494 6.29507e-05 -3.94148e-06
6.29507e-05 -0.000548975 -2.51215e-07
-3.94148e-06 -2.51215e-07 -0.000597093
0.000341553 -1.28313e-05 8.00936e-08
-1.28313e-05 -3.96718e-05 7.91572e-07
8.00936e-08 7.91572e-07 -0.000177818
0.001311 0.00014881 1.94097e-06
0.00014881 0.000566391 1.16816e-07
1.94097e-06 1.16816e-07 0.000391793
0.000570493 5.94049e-05 1.1088e-08
5.94049e-05 0.00013187 1.06276e-07
1.1088e-08 1.06276e-07 -4.55035e-05
0.000773845 3.84788e-05 1.3122e-06
3.84788e-05 0.000254129 -4.08289e-07
1.3122e-06 -4.08289e-07 7.16313e-05
0.000290026 0.000103753 -5.60016e-07
0.000103753 2.47653e-07 -2.9158e-06
-5.60016e-07 -2.9158e-06 -0.000159959
0.00147031 0.000138605 -2.1507e-06
0.000138605 0.000694537 -3.10232e-06
-2.1507e-06 -3.10232e-06 0.000523316
-0.00037764 5.67825e-05 -6.31102e-06
5.67825e-05 -0.000272804 -5.3224e-06
-6.31102e-06 -5.3224e-06 -0.000503277
0.000420935 -7.80541e-05 9.33417e-08
-7.80541e-05 3.04051e-05 -1.43797e-07
9.33417e-08 -1.43797e-07 -0.000144467
0.000793131 -8.50181e-05 -1.3655e-06
-8.50181e-05 0.000273628 -8.30043e-07
-1.3655e-06 -8.30043e-07 9.07656e-05
0.000792272 -4.9824e-05 -2.87455e-07
-4.9824e-05 0.00027003 -6.88742e-07
-2.87455e-07 -6.88742e-07 9.06706e-05
0.000684713 -3.08054e-05 -3.92167e-06
-3.08054e-05 0.000164875 4.61618e-07
-3.92167e-06 4.61618e-07 2.52707e-05
0.00112077 5.36465e-06 -6.65999e-06
5.36465e-06 0.00051179 -5.14797e-06
-6.65999e-06 -5.14797e-06 0.000307885
0.000811835 -6.65094e-05 2.91998e-06
-6.65094e-05 0.000255615 -9.83882e-06
2.91998e-06 -9.83882e-06 0.000120367
-0.00132796 -7.59346e-07 -3.44804e-06
-7.59346e-07 -0.00106095 -6.78485e-06
-3.44804e-06 -6.78485e-06 -0.00117661
0.000328738 -4.37777e-05 2.25768e-06
-4.37777e-05 3.18323e-07 -2.05075e-06
2.25768e-06 -2.05075e-06 -0.0001793
0.000330474 -7.85769e-05 1.97658e-06
-7.85769e-05 -3.5844e-05 2.66794e-07
1.97658e-06 2.66794e-07 -0.000172724
0.000738856 -0.000110791 -1.2034e-06
-0.000110791 0.000241805 9.59237e-08
-1.2034e-06 9.59237e-08 8.74325e-05
0.000516599 -8.56729e-05 -1.05648e-06
-8.56729e-05 5.18821e-05 2.2258e-06
-1.05648e-06 2.2258e-06 -6.64602e-05
0.000407064 -8.70285e-05 3.3127e-06
-8.70285e-05 -5.11612e-06 5.8709e-07
3.3127e-06 5.8709e-07 -0.000146071
0.000539579 -0.000115366 9.81897e-09
-0.000115366 8.09724e-05 2.08491e-07
9.81897e-09 2.08491e-07 -5.30021e-05
0.000536717 -5.6441e-05 -1.99121e-06
-5.6441e-05 5.00428e-05 4.78799e-06
-1.99121e-06 4.78799e-06 -3.04703e-05
0.000379301 -8.05379e-06 8.0949e-07
-8.05379e-06 -5.85438e-06 -1.19059e-06
8.0949e-07 -1.19059e-06 -0.000151549
0.000488796 7.1432e-07 2.26854e-06
7.1432e-07 3.08317e-05 1.36557e-07
2.26854e-06 1.36557e-07 -5.38436e-05
0.0014525 -3.12666e-05 -9.46839e-06
-3.12666e-05 0.000604002 6.91762e-06
-9.46839e-06 6.91762e-06 0.00058257
0.000476912 6.7651e-05 -2.076e-06
6.7651e-05 2.30177e-05 -3.3079e-06
-2.076e-06 -3.3079e-06 -6.06249e-05
0.000869227 -1.70406e-05 -3.9714e-06
-1.70406e-05 0.000244892 7.3242e-07
-3.9714e-06 7.3242e-07 0.000221394
0.000783754 3.51319e-06 -2.71936e-06
3.51319e-06 0.000176035 4.80926e-06
-2.71936e-06 4.80926e-06 0.000180427
0.000388279 -1.93167e-05 3.43932e-06
-1.93167e-05 -5.82328e-05 -4.96224e-06
3.43932e-06 -4.96224e-06 -8.25749e-05
0.00257731 3.92843e-06 7.10022e-06
3.92843e-06 0.00130034 -1.21729e-08
7.10022e-06 -1.21729e-08 0.00131257
0.000885535 3.07471e-06 -9.35333e-06
3.07471e-06 0.000236264 -5.41488e-06
-9.35333e-06 -5.41488e-06 0.000239911
0.000503263 6.59997e-05 2.2134e-06
6.59997e-05 6.0386e-05 8.73027e-07
2.2134e-06 8.73027e-07 -4.04728e-05
0.000456156 5.29416e-05 -2.52976e-06
5.29416e-05 -6.47207e-06 -2.27081e-06
-2.52976e-06 -2.27081e-06 -5.38492e-05
0.000476231 -3.40766e-06 1.60011e-06
-3.40766e-06 7.01874e-06 1.46681e-07
1.60011e-06 1.46681e-07 -4.25745e-05
0.000478396 9.22099e-06 8.72792e-07
9.22099e-06 -2.93504e-05 -3.09097e-06
8.72792e-07 -3.09097e-06 -3.91461e-05
0.000551722 -6.30429e-05 -1.82153e-06
-6.30429e-05 5.82158e-05 2.19151e-06
-1.82153e-06 2.19151e-06 8.7661e-07
0.000474845 1.31552e-05 1.04725e-07
1.31552e-05 -3.27091e-05 -7.22561e-07
1.04725e-07 -7.22561e-07 -4.38052e-05
0.00201623 3.70261e-05 3.93419e-06
3.70261e-05 0.000945744 -4.6592e-06
3.93419e-06 -4.6592e-06 0.000961233
0.00110729 3.60183e-05 -7.2969e-08
3.60183e-05 0.000370812 1.66108e-06
-7.2969e-08 1.66108e-06 0.000359505
0.00146574 4.58591e-05 -3.52633e-07
4.58591e-05 0.000604049 1.43701e-06
-3.52633e-07 1.43701e-06 0.000612349
0.000887457 4.98736e-05 -6.19562e-06
4.98736e-05 0.000245748 8.16873e-06
-6.19562e-06 8.16873e-06 0.000246174
0.000890207 0.00043777 7.59671e-05
0.00043777 -0.00230205 1.61417e-05
7.59671e-05 1.61417e-05 -0.00151255
0.00236129 -5.09381e-05 -4.53731e-06
-5.09381e-05 -6.36652e-05 6.17542e-06
-4.53731e-06 6.17542e-06 3.77529e-05
0.00220064 7.00365e-05 3.10892e-05
7.00365e-05 9.35357e-05 -1.21794e-05
3.10892e-05 -1.21794e-05 0.000217898
0.00275508 0.000391985 -5.40529e-05
0.000391985 -0.00184918 -3.6673e-05
-5.40529e-05 -3.6673e-05 -0.000483484
0.0025019 0.000118864 4.57553e-05
0.000118864 -0.000687032 -1.64671e-06
4.57553e-05 -1.64671e-06 -0.000253566
0.00260491 -5.20506e-05 2.78007e-06
-5.20506e-05 0.000340086 -9.61623e-06
2.78007e-06 -9.61623e-06 0.000404734
0.00479295 -0.000364197 -5.86025e-05
-0.000364197 0.00108001 -1.92198e-05
-5.86025e-05 -1.92198e-05 0.00123968
0.00307217 -0.00025697 2.91718e-05
-0.00025697 -0.000516814 9.94867e-07
2.91718e-05 9.94867e-07 0.000143487
0.0163578 -0.000861671 5.16995e-05
-0.000861671 0.00280789 -1.94019e-05
5.16995e-05 -1.94019e-05 0.00177851
0.0153031 0.00567202 0.0014645
0.00567202 0.00598192 -0.000461509
0.0014645 -0.000461509 0.00291088
0.0193215 0.00657791 4.86758e-05
0.00657791 0.0124546 1.36853e-05
4.86758e-05 1.36853e-05 0.00938542
0.000155566 -9.87048e-05 -1.2109e-07
-9.87048e-05 -0.000140082 -5.77307e-07
-1.2109e-07 -5.77307e-07 -0.000250856
0.000542663 -6.41584e-06 1.60577e-06
-6.41584e-06 8.20302e-05 -9.19901e-08
1.60577e-06 -9.19901e-08 -1.24068e-05
0.000620425 -8.77137e-05 -2.48703e-07
-8.77137e-05 0.000149382 3.31386e-06
-2.48703e-07 3.31386e-06 3.929e-05
0.000539631 -3.19389e-05 8.06032e-07
-3.19389e-05 9.35152e-05 4.27145e-07
8.06032e-07 4.27145e-07 -2.22164e-05
0.000925858 0.000111919 -5.02975e-06
0.000111919 0.000381597 8.47848e-07
-5.02975e-06 8.47848e-07 0.000244822
0.000479224 0.000131286 5.41048e-07
0.000131286 2.93087e-05 7.51342e-06
5.41048e-07 7.51342e-06 -9.20746e-05
0.000964338 -3.51197e-06 2.30387e-06
-3.51197e-06 0.000375431 3.85521e-06
2.30387e-06 3.85521e-06 0.000236228
0.000516182 -2.75949e-05 -1.55495e-06
-2.75949e-05 7.45056e-05 1.31455e-06
-1.55495e-06 1.31455e-06 -4.04426e-05
0.00258586 -0.000292054 1.18904e-05
-0.000292054 2.75805e-05 -1.68469e-06
1.18904e-05 -1.68469e-06 0.000196173
0.00209667 -0.00055272 1.45795e-05
-0.00055272 -0.00033745 -6.80189e-06
1.45795e-05 -6.80189e-06 -0.00013257
0.00232544 -0.000833631 -3.49184e-08
-0.000833631 0.000115863 4.08788e-06
-3.49184e-08 4.08788e-06 -5.30188e-05
0.00225165 -0.000869877 1.74282e-05
-0.000869877 0.000755494 8.33253e-06
1.74282e-05 8.33253e-06 0.000302053
0.00201439 -0.000991302 -1.76644e-05
-0.000991302 0.000245594 5.15267e-06
-1.76644e-05 5.15267e-06 -9.42532e-05
0.00210072 -0.00111732 3.60757e-05
-0.00111732 0.0011992 -1.16771e-05
3.60757e-05 -1.16771e-05 0.000371279
0.00470856 -0.000756212 5.66366e-06
-0.000756212 0.00237879 3.0489e-06
5.66366e-06 3.0489e-06 0.0019693
0.000977165 -0.000229487 7.34378e-06
-0.000229487 0.000420049 -4.83941e-05
7.34378e-06 -4.83941e-05 0.000109419
0.000579848 -8.3641e-05 3.65197e-06
-8.3641e-05 3.35531e-05 -2.00789e-07
3.65197e-06 -2.00789e-07 -6.69859e-05
0.000853529 -7.996e-05 1.035e-05
-7.996e-05 0.000266986 -1.92373e-05
1.035e-05 -1.92373e-05 7.74767e-05
0.00106046 -4.95303e-05 3.69069e-06
-4.95303e-05 0.000423512 1.85024e-06
3.69069e-06 1.85024e-06 0.000282455
0.000790217 2.00768e-05 7.24681e-06
2.00768e-05 0.000276657 -5.99603e-06
7.24681e-06 -5.99603e-06 0.000243574
0.00243592 -0.000402776 -5.93515e-07
-0.000402776 -7.75991e-05 3.12916e-06
-5.93515e-07 3.12916e-06 0.000209256
0.000482648 -8.14402e-05 -3.49365e-06
-8.14402e-05 0.000126981 -3.44767e-07
-3.49365e-06 -3.44767e-07 -8.85958e-06
0.00118525 -0.000175718 -7.55222e-06
-0.000175718 0.000492265 4.8111e-06
-7.55222e-06 4.8111e-06 0.000328278
0.00173252 -0.000634227 7.82538e-06
-0.000634227 -0.000311769 -3.66571e-06
7.82538e-06 -3.66571e-06 -0.000199283
0.00183117 -0.000851379 1.20794e-06
-0.000851379 3.97541e-05 4.48152e-07
1.20794e-06 4.48152e-07 -0.000213675
0.000901269 -0.000783915 -1.46852e-06
-0.000783915 -0.000191482 -5.0245e-06
-1.46852e-06 -5.0245e-06 -0.000483131
0.00169866 -0.000356796 9.79882e-07
-0.000356796 0.000972274 -2.50843e-05
9.79882e-07 -2.50843e-05 0.000584708
0.00156365 -0.000662564 5.75271e-06
-0.000662564 0.00124226 3.58077e-06
5.75271e-06 3.58077e-06 0.000391651
0.00516718 -0.000831906 -5.31955e-05
-0.000831906 0.0012542 2.36057e-05
-5.31955e-05 2.36057e-05 0.00145562
0.00416853 -0.000984952 -4.81201e-05
-0.000984952 0.00133929 1.29738e-05
-4.81201e-05 1.29738e-05 0.00114135
0.00213954 -0.000984453 1.0561e-05
-0.000984453 0.000314877 -3.25447e-06
1.0561e-05 -3.25447e-06 4.97605e-05
-0.000878777 -0.000445885 -3.69931e-06
-0.000445885 -0.000902336 1.46823e-05
-3.69931e-06 1.46823e-05 -0.00103226
0.000340513 -0.000145003 9.68703e-07
-0.000145003 7.86971e-05 8.67269e-06
9.68703e-07 8.67269e-06 -0.000155846
0.000309575 -0.000163552 4.4353e-06
-0.000163552 0.000122356 5.52832e-07
4.4353e-06 5.52832e-07 -0.000147198
0.00201366 -0.000258024 -7.60523e-06
-0.000258024 0.00146769 -2.40952e-05
-7.60523e-06 -2.40952e-05 0.000787191
-0.00679765 -0.00038601 0.000571155
-0.00038601 -0.00424574 -3.28947e-05
0.000571155 -3.28947e-05 -0.00395964
0.0117362 -0.00035415 6.78613e-05
-0.00035415 0.00114721 2.24362e-05
6.78613e-05 2.24362e-05 0.0012615
0.0024571 0.000357012 1.09718e-05
0.000357012 0.00131071 -9.95528e-06
1.09718e-05 -9.95528e-06 0.00109263
0.0015637 0.000519153 -3.11343e-06
0.000519153 0.000539357 5.44725e-06
-3.11343e-06 5.44725e-06 0.000177157
0.0028912 0.000700619 9.97032e-05
0.000700619 0.000371874 4.28648e-05
9.97032e-05 4.28648e-05 0.000387121
0.00297459 0.000984648 2.40007e-05
0.000984648 0.000743764 9.39531e-06
2.40007e-05 9.39531e-06 0.000422148
0.00295037 0.000862153 1.77524e-05
0.000862153 0.00117174 5.11178e-06
1.77524e-05 5.11178e-06 0.0006963
0.0159328 0.000735722 8.41743e-05
0.000735722 0.00298919 -3.67388e-05
8.41743e-05 -3.67388e-05 0.0022583
0.00858374 0.00233798 -0.000220647
0.00233798 -0.000603956 -2.77081e-05
-0.000220647 -2.77081e-05 0.000762368
0.00181829 0.00127444 7.95283e-06
0.00127444 7.51285e-05 -3.30863e-05
7.95283e-06 -3.30863e-05 -0.000396445
0.013487 -0.00437264 -0.000491391
-0.00437264 0.0057458 1.44448e-06
-0.000491391 1.44448e-06 0.00293631
0.00420513 -0.00921692 -0.00244855
-0.00921692 0.00485976 -0.00152108
-0.00244855 -0.00152108 0.00153946
0.00113391 0.000338424 2.03911e-06
0.000338424 0.000519908 -1.42514e-06
2.03911e-06 -1.42514e-06 0.000263311
-0.00161353 -0.00257309 0.000490198
-0.00257309 -0.00262546 8.03505e-05
0.000490198 8.03505e-05 -0.00459069
-0.00236671 -0.00244216 -0.00052356
-0.00244216 0.0056835 -0.000203138
-0.00052356 -0.000203138 0.000243641
0.00344373 0.00111444 -1.59796e-05
0.00111444 0.000744254 2.07206e-06
-1.59796e-05 2.07206e-06 0.000602864
0.000819045 0.000429799 -8.72184e-06
0.000429799 0.000108655 8.24473e-06
-8.72184e-06 8.24473e-06 -0.000236241
0.00129473 0.000794539 5.79702e-06
0.000794539 0.000270867 1.77119e-06
5.79702e-06 1.77119e-06 -0.000141392
0.00107221 0.0011547 5.35802e-05
0.0011547 5.6026e-05 3.71112e-05
5.35802e-05 3.71112e-05 -0.000236074
0.0142011 0.00264698 -0.000151062
0.00264698 0.0011287 -9.0126e-05
-0.000151062 -9.0126e-05 -0.000583361
0.00440576 0.0029533 -3.90613e-05
0.0029533 -0.000555943 -4.16983e-05
-3.90613e-05 -4.16983e-05 0.000355369
0.0173935 -0.0051416 0.000569156
-0.0051416 0.00713097 -1.38373e-05
0.000569156 -1.38373e-05 0.00313578
0.016139 -0.00431849 0.000144564
-0.00431849 0.00308252 0.00072942
0.000144564 0.00072942 0.000963369
0.00215099 0.00040085 -2.07443e-05
0.00040085 0.00109323 -1.4486e-05
-2.07443e-05 -1.4486e-05 0.000869881
-0.0104496 0.00126016 -0.000144804
0.00126016 0.00373933 -0.00014352
-0.000144804 -0.00014352 -0.00290219
0.00506426 0.000904395 -0.000381535
0.000904395 0.00407216 -0.000499633
-0.000381535 -0.000499633 -0.000719025
0.00258338 0.0008321 -3.02757e-05
0.0008321 0.000636933 -3.08025e-06
-3.02757e-05 -3.08025e-06 0.000589083
0.00234771 0.000817518 -7.20535e-05
0.000817518 0.000989926 -2.74616e-05
-7.20535e-05 -2.74616e-05 0.000599562
0.000631975 0.000800135 -0.000103005
0.000800135 0.000642396 -2.50216e-05
-0.000103005 -2.50216e-05 -5.91825e-05
-0.00267935 0.00173995 -2.74213e-05
0.00173995 -0.00122899 -3.7174e-05
-2.74213e-05 -3.7174e-05 -0.00143739
0.000742982 0.00321491 0.000378228
0.00321491 -0.00206378 0.000141237
0.000378228 0.000141237 -0.00434043
0.0186629 -0.00638352 0.000197421
-0.00638352 0.00968031 0.000715433
0.000197421 0.000715433 0.00512265
0.00886486 -0.00087181 -0.000182533
-0.00087181 -0.00202711 -0.000149698
-0.000182533 -0.000149698 -0.0010252
-0.000712782 0.00012762 2.89218e-06
0.00012762 -0.000527577 -6.58834e-06
2.89218e-06 -6.58834e-06 -0.000666774
0.0016589 0.00030035 1.07406e-05
0.00030035 0.000868625 2.4838e-06
1.07406e-05 2.4838e-06 0.000687151
-0.000621068 7.05616e-05 -2.12464e-06
7.05616e-05 -0.000433594 -1.55055e-06
-2.12464e-06 -1.55055e-06 -0.000599001
0.000335279 5.23935e-05 1.73327e-06
5.23935e-05 -4.45945e-05 5.31079e-07
1.73327e-06 5.31079e-07 -0.000182229
0.00102708 9.27199e-05 -7.97434e-07
9.27199e-05 0.00042156 -1.50369e-06
-7.97434e-07 -1.50369e-06 0.000232196
0.000554931 1.63326e-05 -2.05684e-06
1.63326e-05 0.000129284 1.75928e-06
-2.05684e-06 1.75928e-06 -5.72209e-05
0.000488539 9.62158e-05 5.14322e-06
9.62158e-05 6.70365e-05 5.74697e-06
5.14322e-06 5.74697e-06 -0.000109735
-0.000503227 5.11028e-05 -4.04218e-06
5.11028e-05 -0.000469905 6.99044e-07
-4.04218e-06 6.99044e-07 -0.000621126
0.000773409 4.45576e-05 2.28139e-07
4.45576e-05 0.000263004 -9.02304e-07
2.28139e-07 -9.02304e-07 7.9739e-05
0.000739105 8.94023e-05 7.64269e-07
8.94023e-05 0.000232806 -1.48934e-07
7.64269e-07 -1.48934e-07 6.99914e-05
0.000852746 -4.42725e-05 -1.1086e-06
-4.42725e-05 0.000307428 2.07952e-06
-1.1086e-06 2.07952e-06 0.000122016
-0.000940303 2.56662e-05 2.38272e-06
2.56662e-05 -0.000601435 3.7825e-07
2.38272e-06 3.7825e-07 -0.000825241
8.81405e-05 5.12925e-05 -2.82373e-06
5.12925e-05 0.00022608 5.0895e-06
-2.82373e-06 5.0895e-06 -0.000128697
0.000630637 -3.36973e-05 -1.72559e-06
-3.36973e-05 0.000250121 -8.52161e-06
-1.72559e-06 -8.52161e-06 5.4176e-05
0.00121228 -9.94796e-06 -9.03668e-07
-9.94796e-06 0.000568614 6.13458e-07
-9.03668e-07 6.13458e-07 0.000355803
0.000799592 -8.19238e-05 -6.14771e-07
-8.19238e-05 0.000278363 -1.63298e-06
-6.14771e-07 -1.63298e-06 9.38383e-05
0.000230376 -8.55229e-05 3.89974e-06
-8.55229e-05 -0.000128809 7.74361e-06
3.89974e-06 7.74361e-06 -0.00025734
0.000771515 -8.85714e-05 4.73692e-07
-8.85714e-05 0.000274148 -1.29417e-06
4.73692e-07 -1.29417e-06 8.37788e-05
0.000735357 -7.49123e-05 -1.7361e-06
-7.49123e-05 0.000196618 -7.93285e-08
-1.7361e-06 -7.93285e-08 6.29377e-05
-0.00037779 -6.08698e-05 1.89895e-06
-6.08698e-05 -0.000463376 4.23769e-06
1.89895e-06 4.23769e-06 -0.000574475
3.60256e-05 -5.31279e-05 5.40684e-08
-5.31279e-05 -0.000179619 -2.74018e-06
5.40684e-08 -2.74018e-06 -0.000336662
0.000105839 -3.19486e-05 -7.5866e-06
-3.19486e-05 -8.44341e-05 -3.87013e-06
-7.5866e-06 -3.87013e-06 -0.000258208
-7.1578e-05 -8.38261e-05 3.46385e-06
-8.38261e-05 -0.000242535 -5.2246e-06
3.46385e-06 -5.2246e-06 -0.000373913
0.00101513 -0.000115477 9.90342e-06
-0.000115477 0.000300034 -1.63124e-05
9.90342e-06 -1.63124e-05 0.000199048
0.00066814 -0.000193069 2.51972e-07
-0.000193069 4.32523e-05 4.04462e-06
2.51972e-07 4.04462e-06 -0.000121094
-4.65245e-05 -5.5426e-05 -6.464e-06
-5.5426e-05 -0.00023235 -2.78971e-06
-6.464e-06 -2.78971e-06 -0.000406123
0.000647542 -5.68886e-05 1.51503e-06
-5.68886e-05 0.000188339 -1.01487e-06
1.51503e-06 -1.01487e-06 1.07148e-05
-7.89205e-05 -3.47455e-05 2.12425e-06
-3.47455e-05 -0.000271109 -1.2704e-06
2.12425e-06 -1.2704e-06 -0.000442593
0.000672424 -0.000112146 -2.38195e-07
-0.000112146 0.000202916 -3.05014e-07
-2.38195e-07 -3.05014e-07 4.38014e-05
0.000464489 -2.68961e-05 1.30833e-06
-2.68961e-05 2.39141e-05 1.25386e-06
1.30833e-06 1.25386e-06 -9.82608e-05
0.000783061 -0.00010868 -1.45408e-06
-0.00010868 0.000259435 1.08104e-06
-1.45408e-06 1.08104e-06 0.000109993
0.000632849 -8.41056e-05 -7.61532e-07
-8.41056e-05 0.00013953 1.59137e-07
-7.61532e-07 1.59137e-07 1.10571e-05
0.000414178 3.19559e-05 2.60455e-07
3.19559e-05 -2.75446e-05 4.25235e-06
2.60455e-07 4.25235e-06 -0.000109356
0.000530147 -0.000109452 9.86597e-07
-0.000109452 6.92459e-05 -1.84167e-06
9.86597e-07 -1.84167e-06 -6.23257e-05
0.000516259 -3.95756e-05 -4.75119e-07
-3.95756e-05 3.39543e-05 1.01986e-07
-4.75119e-07 1.01986e-07 -4.38192e-05
0.0014181 1.23686e-05 -7.4071e-06
1.23686e-05 0.000574294 7.29453e-06
-7.4071e-06 7.29453e-06 0.000553495
0.000487743 -6.18113e-05 1.21068e-06
-6.18113e-05 2.53186e-05 -3.69166e-06
1.21068e-06 -3.69166e-06 -5.59671e-05
0.000865936 -1.75894e-05 -7.11038e-06
-1.75894e-05 0.000235713 8.31713e-07
-7.11038e-06 8.31713e-07 0.000212566
0.000764866 1.23597e-05 1.17061e-06
1.23597e-05 0.000155095 2.2936e-06
1.17061e-06 2.2936e-06 0.000158599
0.000426272 -1.75278e-05 2.54868e-06
-1.75278e-05 -3.72066e-05 -4.68304e-06
2.54868e-06 -4.68304e-06 -6.09499e-05
0.002555 1.26625e-05 7.04217e-06
1.26625e-05 0.00128584 2.89411e-08
7.04217e-06 2.89411e-08 0.0012984
0.00257811 1.79402e-06 1.1955e-06
1.79402e-06 0.00130084 -5.07085e-06
1.1955e-06 -5.07085e-06 0.00131309
0.00102798 8.0674e-05 -9.54346e-07
8.0674e-05 0.000388729 9.57963e-07
-9.54346e-07 9.57963e-07 0.00028354
0.000511619 6.1968e-05 -1.88803e-06
6.1968e-05 3.209e-05 -2.44509e-06
-1.88803e-06 -2.44509e-06 -2.05342e-05
0.000538186 -1.42203e-05 -2.15838e-07
-1.42203e-05 8.61389e-05 7.78648e-07
-2.15838e-07 7.78648e-07 -1.49642e-05
0.000479754 7.23757e-06 9.16652e-07
7.23757e-06 -2.88334e-05 -3.34907e-06
9.16652e-07 -3.34907e-06 -3.79273e-05
0.000457557 -1.18704e-05 1.02176e-06
-1.18704e-05 -6.93929e-06 -1.83027e-07
1.02176e-06 -1.83027e-07 -5.33652e-05
0.000534166 -5.87296e-05 -1.45313e-06
-5.87296e-05 4.65656e-05 2.17329e-06
-1.45313e-06 2.17329e-06 -5.34012e-06
0.000481829 7.26826e-06 -4.62911e-07
7.26826e-06 -2.76205e-05 -4.35672e-09
-4.62911e-07 -4.35672e-09 -3.73923e-05
0.00197527 2.27622e-05 -1.34923e-06
2.27622e-05 0.000917156 -4.73519e-06
-1.34923e-06 -4.73519e-06 0.000934187
0.00113175 2.40266e-05 -5.48375e-07
2.40266e-05 0.000382914 2.07989e-06
-5.48375e-07 2.07989e-06 0.000374631
0.00130891 2.97641e-05 -1.53385e-06
2.97641e-05 0.00049835 7.23122e-09
-1.53385e-06 7.23122e-09 0.000510489
0.000810064 3.56518e-05 -8.34222e-06
3.56518e-05 0.000189645 7.45402e-06
-8.34222e-06 7.45402e-06 0.000194963
-0.00857562 0.00127111 0.000543716
0.00127111 -0.00297622 -4.99372e-05
0.000543716 -4.99372e-05 -0.00581904
-0.000799747 0.000291093 0.00117092
0.000291093 0.00639988 -0.000293817
0.00117092 -0.000293817 0.00259953
0.00222344 0.000357614 -0.00016425
0.000357614 -0.00237892 -2.91395e-05
-0.00016425 -2.91395e-05 -0.000721876
0.00183369 8.89995e-06 1.34347e-05
8.89995e-06 -0.00100568 -2.76276e-05
1.34347e-05 -2.76276e-05 -0.000532016
0.00173159 -7.53692e-05 7.69815e-06
-7.53692e-05 -0.000277077 1.96885e-05
7.69815e-06 1.96885e-05 -0.000207157
-0.00138011 2.82656e-05 -9.91591e-05
2.82656e-05 -0.00172704 -2.70119e-05
-9.91591e-05 -2.70119e-05 -0.000602266
0.0039109 -0.000415036 3.73334e-06
-0.000415036 0.000418707 5.72842e-06
3.73334e-06 5.72842e-06 0.00058111
0.012176 -0.000104584 0.00019079
-0.000104584 -0.000734803 -7.90909e-05
0.00019079 -7.90909e-05 -0.00144665
0.00159838 0.00375176 -3.24783e-07
0.00375176 0.000909549 -6.60135e-05
-3.24783e-07 -6.60135e-05 -0.00255905
0.0132583 0.00754201 -0.000529368
0.00754201 0.00901215 0.000260569
-0.000529368 0.000260569 0.00604583
0.001754 -0.000795303 2.40193e-05
-0.000795303 -0.0023596 -4.01389e-05
2.40193e-05 -4.01389e-05 -0.00117364
0.0154018 -0.00242163 0.000226183
-0.00242163 0.00173564 -7.55759e-05
0.000226183 -7.55759e-05 0.000309509
0.016967 0.00634337 0.000383172
0.00634337 0.00535459 -0.000538867
0.000383172 -0.000538867 0.00164111
0.0199604 0.00437249 -0.000322185
0.00437249 0.00608523 0.000278205
-0.000322185 0.000278205 0.00391124
0.000999812 0.00016612 -3.15015e-06
0.00016612 0.000431799 3.67063e-06
-3.15015e-06 3.67063e-06 0.000254115
0.00034929 3.92068e-05 4.35965e-07
3.92068e-05 -3.38767e-05 -1.05814e-06
4.35965e-07 -1.05814e-06 -0.000137462
0.000548128 -9.50118e-05 1.75483e-06
-9.50118e-05 9.62775e-05 1.40956e-06
1.75483e-06 1.40956e-06 -4.02192e-06
0.000668773 1.30895e-05 7.01519e-06
1.30895e-05 0.000180675 -7.01763e-07
7.01519e-06 -7.01763e-07 5.92092e-05
0.000858819 8.8812e-05 2.6139e-06
8.8812e-05 0.000353492 1.39489e-06
2.6139e-06 1.39489e-06 0.0002155
0.00048224 1.72762e-05 -3.43627e-07
1.72762e-05 7.63179e-05 7.64507e-06
-3.43627e-07 7.64507e-06 -8.86498e-05
0.000748521 9.40703e-05 8.46828e-07
9.40703e-05 0.000226151 3.33745e-06
8.46828e-07 3.33745e-06 8.95465e-05
0.000454934 6.43108e-05 4.67669e-06
6.43108e-05 1.78914e-05 1.61325e-06
4.67669e-06 1.61325e-06 -0.000121999
0.000697368 -3.03701e-05 2.67772e-06
-3.03701e-05 0.000207692 -1.25528e-06
2.67772e-06 -1.25528e-06 6.97078e-05
0.00048244 -1.69293e-05 2.10827e-06
-1.69293e-05 4.37994e-05 -2.77963e-06
2.10827e-06 -2.77963e-06 -6.43083e-05
0.00138781 -0.000341416 3.49375e-05
-0.000341416 -0.000614083 -6.58989e-06
3.49375e-05 -6.58989e-06 -0.000316414
0.0010781 -0.000583639 2.96987e-05
-0.000583639 -0.000671007 -9.82535e-06
2.96987e-05 -9.82535e-06 -0.000522928
0.00104774 -0.000735541 1.57458e-06
-0.000735541 -0.00040029 4.39254e-06
1.57458e-06 4.39254e-06 -0.00057696
-1.29488e-05 -0.000677618 -1.46755e-05
-0.000677618 -0.00068245 3.48995e-06
-1.46755e-05 3.48995e-06 -0.000954252
0.00285038 -0.000497823 8.80041e-06
-0.000497823 0.00178932 3.53074e-05
8.80041e-06 3.53074e-05 0.00112312
-0.00026423 -0.00051544 -4.20533e-06
-0.00051544 -0.000206399 -7.30365e-06
-4.20533e-06 -7.30365e-06 -0.000720237
0.00157888 -0.000256745 5.59511e-06
-0.000256745 0.000737501 -3.31309e-06
5.59511e-06 -3.31309e-06 0.000594268
0.000596307 -5.25431e-05 4.55757e-08
-5.25431e-05 0.000186523 3.24216e-06
4.55757e-08 3.24216e-06 4.99685e-05
0.00240933 -0.000597572 1.12819e-05
-0.000597572 -0.000218267 -8.76081e-06
1.12819e-05 -8.76081e-06 5.87685e-05
0.000383665 -5.85794e-05 6.70967e-07
-5.85794e-05 0.000108158 1.61953e-06
6.70967e-07 1.61953e-06 -0.000137916
-0.000167302 -0.000193806 -1.07705e-06
-0.000193806 -0.000153192 -5.89418e-06
-1.07705e-06 -5.89418e-06 -0.000427742
0.00184739 -0.000776793 1.93983e-05
-0.000776793 2.56729e-05 -2.09158e-06
1.93983e-05 -2.09158e-06 -4.33711e-05
0.0019362 -0.00096778 -7.46893e-07
-0.00096778 0.000133047 3.08302e-06
-7.46893e-07 3.08302e-06 -6.06723e-05
0.000279134 -0.000711996 2.01059e-05
-0.000711996 -0.000222436 -1.52965e-05
2.01059e-05 -1.52965e-05 -0.000478781
0.00111182 -0.000358186 5.87919e-06
-0.000358186 0.000960869 -1.93292e-05
5.87919e-06 -1.93292e-05 0.000265436
0.00234108 -0.000936749 -6.51643e-05
-0.000936749 0.000191567 3.99941e-05
-6.51643e-05 3.99941e-05 -6.31612e-05
0.000994598 -0.000703702 -3.07131e-05
-0.000703702 -0.000202175 5.25477e-06
-3.07131e-05 5.25477e-06 -0.000219099
0.000249296 -0.000643592 -6.98779e-05
-0.000643592 0.000161948 4.52888e-05
-6.98779e-05 4.52888e-05 -0.000265707
-0.00237014 -0.000220229 -7.38652e-06
-0.000220229 -0.00158919 1.11901e-05
-7.38652e-06 1.11901e-05 -0.00183776
-0.00102839 -4.65913e-05 1.7941e-06
-4.65913e-05 -0.000674171 9.76907e-06
1.7941e-06 9.76907e-06 -0.000971187
0.000638942 -7.95343e-05 8.45446e-06
-7.95343e-05 0.000410046 -1.40419e-05
8.45446e-06 -1.40419e-05 2.61268e-05
-0.00245085 0.00128195 -0.000419344
0.00128195 0.00709377 1.97824e-05
-0.000419344 1.97824e-05 0.00216191
0.00022219 -0.00153775 -1.20308e-05
-0.00153775 0.00239338 1.15074e-05
-1.20308e-05 1.15074e-05 0.00144915
0.00264182 0.00101992 -0.00012779
0.00101992 -0.00538328 -2.25155e-05
-0.00012779 -2.25155e-05 -0.0055911
0.000228343 0.000257133 1.28962e-05
0.000257133 -6.20469e-06 -3.06871e-06
1.28962e-05 -3.06871e-06 -0.000253719
0.00165382 0.000599366 1.25092e-05
0.000599366 0.000646749 2.00835e-05
1.25092e-05 2.00835e-05 0.000235755
0.00345707 0.000985237 6.83754e-05
0.000985237 0.000737254 2.06951e-05
6.83754e-05 2.06951e-05 0.000638719
0.00155798 0.000859234 1.53615e-05
0.000859234 0.00043317 2.13852e-05
1.53615e-05 2.13852e-05 -1.2571e-05
0.0128574 -0.00297417 0.000233647
-0.00297417 0.00485661 8.02227e-05
0.000233647 8.02227e-05 0.00365435
0.00357031 0.00144564 -0.000370033
0.00144564 -0.00444784 -7.69104e-05
-0.000370033 -7.69104e-05 -0.00602727
0.00519739 0.00282202 3.36488e-05
0.00282202 0.000256921 2.77502e-05
3.36488e-05 2.77502e-05 0.00079528
0.00278956 0.00118643 5.68168e-05
0.00118643 0.00113151 -1.28823e-05
5.68168e-05 -1.28823e-05 0.00088493
0.00842049 -0.0032257 -0.000385643
-0.0032257 0.00371724 -0.000370627
-0.000385643 -0.000370627 0.000182897
-0.000162522 -0.00351629 -0.000712018
-0.00351629 0.0062469 -0.000221095
-0.000712018 -0.000221095 0.000680378
0.0244087 -0.00556954 0.000745361
-0.00556954 0.00687299 0.000383535
0.000745361 0.000383535 0.00443551
0.000384882 0.000249438 1.72047e-05
0.000249438 5.75744e-05 -4.30069e-06
1.72047e-05 -4.30069e-06 -0.000155521
-0.00413479 0.000462709 -0.000184943
0.000462709 0.00566634 -3.50826e-05
-0.000184943 -3.50826e-05 2.79284e-05
0.0057567 0.00124222 -0.000134447
0.00124222 0.00333109 -0.000174074
-0.000134447 -0.000174074 -0.00195206
0.00177417 0.000852842 1.0473e-05
0.000852842 0.000303163 3.33577e-06
1.0473e-05 3.33577e-06 0.000188456
0.000776822 0.000634331 1.31397e-05
0.000634331 0.000236306 4.6308e-06
1.31397e-05 4.6308e-06 -0.000164076
0.00075048 0.000961348 -5.69647e-05
0.000961348 0.000508549 -6.21304e-05
-5.69647e-05 -6.21304e-05 -6.52199e-05
0.00418638 0.00320764 3.15729e-05
0.00320764 0.00124185 3.13448e-05
3.15729e-05 3.13448e-05 0.00105897
0.0166085 0.00430044 3.42485e-05
0.00430044 0.0036553 1.19021e-05
3.42485e-05 1.19021e-05 0.00148388
0.00830516 -0.00375672 8.6824e-05
-0.00375672 0.00372267 -9.14282e-05
8.6824e-05 -9.14282e-05 -0.00130697
0.0154186 -0.00220621 -1.13266e-05
-0.00220621 0.00217823 -6.96618e-05
-1.13266e-05 -6.96618e-05 0.0033399
0.000683038 0.000465962 -1.43738e-05
0.000465962 0.000246408 -8.66168e-06
-1.43738e-05 -8.66168e-06 -4.51793e-05
0.00188583 0.00022334 -0.000352408
0.00022334 0.00221418 -8.44453e-05
-0.000352408 -8.44453e-05 -0.00254345
0.000999015 0.00080947 -0.000135002
0.00080947 -0.000186606 -0.000172638
-0.000135002 -0.000172638 -0.00177128
-0.00063795 0.00030951 -6.03184e-06
0.00030951 -0.000129753 -1.98283e-05
-6.03184e-06 -1.98283e-05 -0.000392037
-0.000884494 0.000666928 -0.000193072
0.000666928 0.000976493 -1.28464e-05
-0.000193072 -1.28464e-05 0.00018818
0.0134172 0.00492438 0.000114344
0.00492438 0.00431432 -4.15375e-05
0.000114344 -4.15375e-05 -5.40687e-05
-0.00177066 -0.00529112 -2.9881e-06
-0.00529112 -0.000157104 0.000232292
-2.9881e-06 0.000232292 -0.00511872
0.0119068 0.00021421 6.73346e-05
0.00021421 -0.00163551 -0.000326525
6.73346e-05 -0.000326525 0.00090239
0.000806697 0.000187214 -4.1774e-06
0.000187214 0.00030383 1.62016e-05
-4.1774e-06 1.62016e-05 0.000161742
0.000935207 0.000234356 -9.44466e-06
0.000234356 0.000522186 -5.53466e-06
-9.44466e-06 -5.53466e-06 0.000317732
-0.000280381 0.000120262 7.32199e-07
0.000120262 -2.1667e-05 -1.00288e-06
7.32199e-07 -1.00288e-06 -0.00032901
0.000566061 8.63358e-05 -1.58255e-06
8.63358e-05 0.000113915 -1.28516e-06
-1.58255e-06 -1.28516e-06 -5.48494e-05
0.00118676 -3.48186e-05 -2.14831e-06
-3.48186e-05 0.000530059 4.64893e-06
-2.14831e-06 4.64893e-06 0.000333231
0.000134369 7.43093e-05 2.72971e-06
7.43093e-05 -0.00015411 2.50536e-06
2.72971e-06 2.50536e-06 -0.000308859
-0.0011286 3.29501e-05 1.97869e-06
3.29501e-05 -0.000700362 2.24545e-06
1.97869e-06 2.24545e-06 -0.000923992
0.000625151 -2.45532e-05 1.22741e-06
-2.45532e-05 0.00016706 2.89014e-07
1.22741e-06 2.89014e-07 -1.80676e-05
0.000512283 3.28319e-05 4.8188e-07
3.28319e-05 0.000170342 -2.31028e-06
4.8188e-07 -2.31028e-06 -2.0691e-05
6.98675e-05 3.60438e-05 2.19217e-06
3.60438e-05 0.000254823 2.91191e-06
2.19217e-06 2.91191e-06 -0.000127716
-0.000378809 6.31851e-05 -3.39801e-06
6.31851e-05 0.000160596 1.26067e-05
-3.39801e-06 1.26067e-05 -0.000332838
0.000409124 3.56073e-06 -2.9206e-06
3.56073e-06 0.000469874 -2.75851e-06
-2.9206e-06 -2.75851e-06 7.93322e-05
0.00122298 2.76558e-05 -1.7504e-06
2.76558e-05 0.000588839 -3.85799e-06
-1.7504e-06 -3.85799e-06 0.000412488
0.000719779 -0.000150558 2.73214e-06
-0.000150558 0.000227656 1.44303e-06
2.73214e-06 1.44303e-06 4.54436e-05
0.000317158 -5.47475e-05 1.06497e-06
-5.47475e-05 -8.08635e-05 3.75474e-06
1.06497e-06 3.75474e-06 -0.000204935
0.000298041 -9.02767e-05 1.76341e-06
-9.02767e-05 -4.00914e-05 1.30401e-05
1.76341e-06 1.30401e-05 -0.000139091
0.000253501 -4.18693e-05 2.33013e-06
-4.18693e-05 -1.40125e-05 3.11696e-06
2.33013e-06 3.11696e-06 -0.000172335
0.000551499 -5.03918e-05 -1.41884e-07
-5.03918e-05 0.00012739 6.97018e-07
-1.41884e-07 6.97018e-07 -2.51186e-05
0.000415332 -5.36615e-05 -1.04856e-07
-5.36615e-05 5.32086e-05 -1.95516e-06
-1.04856e-07 -1.95516e-06 -7.52924e-05
0.000370911 -6.09964e-05 -8.51502e-06
-6.09964e-05 1.3882e-05 -5.08384e-06
-8.51502e-06 -5.08384e-06 -0.000118206
0.000480287 -7.72283e-05 9.71598e-06
-7.72283e-05 0.000261356 -7.11459e-06
9.71598e-06 -7.11459e-06 9.78643e-05
0.000769706 -0.000217423 9.77564e-07
-0.000217423 5.36259e-05 3.95909e-06
9.77564e-07 3.95909e-06 -3.24425e-05
0.000557692 -0.000135085 -1.21118e-05
-0.000135085 4.1972e-05 -5.53358e-07
-1.21118e-05 -5.53358e-07 -6.66824e-05
0.000354351 -0.000189326 8.10076e-06
-0.000189326 -0.000105671 7.05932e-06
8.10076e-06 7.05932e-06 -0.000261225
0.00202851 -0.000537243 3.56194e-07
-0.000537243 0.00081773 2.07123e-05
3.56194e-07 2.07123e-05 0.000482798
0.00183719 -0.000254173 4.31859e-06
-0.000254173 0.000840047 -9.62395e-06
4.31859e-06 -9.62395e-06 0.000642972
0.00020237 -0.000149947 -8.32261e-06
-0.000149947 -0.000203832 -6.40669e-06
-8.32261e-06 -6.40669e-06 -0.000336508
0.000528723 -8.04435e-05 -1.66124e-07
-8.04435e-05 9.39274e-05 -9.10793e-07
-1.66124e-07 -9.10793e-07 -7.79913e-05
-0.00024603 -4.5969e-05 -3.97301e-07
-4.5969e-05 -0.0003552 -2.70209e-06
-3.97301e-07 -2.70209e-06 -0.000560094
0.00103571 -6.80555e-05 -1.77035e-07
-6.80555e-05 0.000418253 1.58623e-06
-1.77035e-07 1.58623e-06 0.000243233
0.000727444 -0.000128117 -2.13486e-07
-0.000128117 0.000236146 3.69292e-07
-2.13486e-07 3.69292e-07 5.18912e-05
0.0005172 -6.36031e-05 1.18467e-06
-6.36031e-05 4.35044e-05 1.6176e-06
1.18467e-06 1.6176e-06 -8.14509e-05
0.0013871 -0.000193944 -2.60835e-06
-0.000193944 0.000668794 -2.17348e-07
-2.60835e-06 -2.17348e-07 0.000483746
0.000677908 -0.000107446 -5.34508e-07
-0.000107446 0.000158398 4.34477e-08
-5.34508e-07 4.34477e-08 2.95248e-05
0.000506327 5.61227e-06 -1.10459e-06
5.61227e-06 2.41522e-05 3.5342e-06
-1.10459e-06 3.5342e-06 -5.81264e-05
0.000722028 -0.000131931 7.03493e-07
-0.000131931 0.000195374 -1.94414e-06
7.03493e-07 -1.94414e-06 6.27107e-05
0.000586969 -5.59483e-05 -1.1869e-07
-5.59483e-05 7.69338e-05 1.57084e-07
-1.1869e-07 1.57084e-07 -4.42895e-06
0.00143551 1.10645e-05 -1.21686e-05
1.10645e-05 0.000580751 7.55408e-06
-1.21686e-05 7.55408e-06 0.000558257
0.000536817 -6.83992e-05 1.61076e-06
-6.83992e-05 5.53392e-05 -4.37807e-06
1.61076e-06 -4.37807e-06 -2.81403e-05
0.00086611 -1.20295e-05 -8.4211e-06
-1.20295e-05 0.000228932 6.91458e-07
-8.4211e-06 6.91458e-07 0.000204988
0.000811288 2.17492e-05 1.20308e-06
2.17492e-05 0.000180996 2.88767e-06
1.20308e-06 2.88767e-06 0.000182834
0.000432088 -3.08473e-05 2.37673e-06
-3.08473e-05 -3.85123e-05 -5.15573e-06
2.37673e-06 -5.15573e-06 -6.37931e-05
0.00166238 2.10208e-05 1.09874e-05
2.10208e-05 0.000722454 -1.46723e-06
1.09874e-05 -1.46723e-06 0.000730544
0.00251719 1.18156e-05 1.14888e-05
1.18156e-05 0.00126136 -5.18384e-06
1.14888e-05 -5.18384e-06 0.00127409
0.000492186 5.16931e-05 1.32557e-06
5.16931e-05 3.09795e-05 -9.68801e-07
1.32557e-06 -9.68801e-07 -7.04905e-05
0.000598895 6.30862e-05 -1.35485e-06
6.30862e-05 8.07524e-05 -1.86102e-06
-1.35485e-06 -1.86102e-06 2.51511e-05
0.00058863 2.60549e-06 8.41557e-07
2.60549e-06 0.00010599 7.89414e-07
8.41557e-07 7.89414e-07 5.71878e-06
0.000468482 4.18986e-06 1.61116e-06
4.18986e-06 -3.4842e-05 -3.64167e-06
1.61116e-06 -3.64167e-06 -4.46338e-05
0.000492733 5.27305e-05 3.54907e-08
5.27305e-05 1.54909e-05 -1.74273e-07
3.54907e-08 -1.74273e-07 -3.42416e-05
0.000518008 -0.00011286 -2.74086e-06
-0.00011286 6.34407e-05 7.15642e-07
-2.74086e-06 7.15642e-07 -3.13248e-05
0.00199868 8.98669e-06 -6.50764e-06
8.98669e-06 0.000929805 -4.78117e-06
-6.50764e-06 -4.78117e-06 0.000947684
0.000457615 5.60175e-06 -2.50071e-07
5.60175e-06 -4.22686e-05 2.86101e-08
-2.50071e-07 2.86101e-08 -5.13472e-05
0.000495986 -1.07386e-05 -1.46101e-06
-1.07386e-05 1.36483e-05 2.11026e-06
-1.46101e-06 2.11026e-06 -3.06002e-05
0.000469161 5.54313e-06 -1.38553e-06
5.54313e-06 -3.62461e-05 3.3569e-06
-1.38553e-06 3.3569e-06 -4.59925e-05
0.00202897 2.4355e-05 -5.34827e-06
2.4355e-05 0.00095123 -1.10257e-07
-5.34827e-06 -1.10257e-07 0.000967911
0.00199245 3.81615e-05 -4.88193e-06
3.81615e-05 0.000930936 4.67402e-06
-4.88193e-06 4.67402e-06 0.000946436
-0.00639459 -0.00176903 -0.00018862
-0.00176903 0.00569614 5.76059e-05
-0.00018862 5.76059e-05 0.0014683
0.00205439 0.00144128 -0.000270035
0.00144128 0.00071098 8.48007e-05
-0.000270035 8.48007e-05 -0.00146483
0.00293438 -0.00101454 -0.000616926
-0.00101454 0.00124048 0.000265614
-0.000616926 0.000265614 -0.00340071
-7.16831e-05 0.000756409 0.00111722
0.000756409 0.00631354 -0.000335093
0.00111722 -0.000335093 0.00202654
0.00264619 0.000610026 -4.63146e-05
0.000610026 -0.0010375 5.90047e-06
-4.63146e-05 5.90047e-06 -0.000116851
0.00280211 -0.000483029 9.12575e-05
-0.000483029 -0.000285684 7.98361e-06
9.12575e-05 7.98361e-06 -0.000149411
0.000842971 -0.000374099 0.000288311
-0.000374099 -0.00499978 -6.02615e-05
0.000288311 -6.02615e-05 -0.00660605
0.0219667 0.00333057 -0.000858448
0.00333057 0.00973542 6.67623e-05
-0.000858448 6.67623e-05 0.00669756
0.00555062 0.00875422 -0.00235492
0.00875422 0.00476234 0.00150905
-0.00235492 0.00150905 0.00156153
0.00477038 -0.000659571 3.00821e-05
-0.000659571 -0.000446514 5.93128e-06
3.00821e-05 5.93128e-06 0.000304267
0.00885715 -0.00229215 0.000166799
-0.00229215 -0.00174651 -0.000140249
0.000166799 -0.000140249 -0.00395948
0.0202213 0.00561896 -0.000336043
0.00561896 0.00650085 -0.000113343
-0.000336043 -0.000113343 0.00275487
0.0149371 0.00446002 -5.84113e-06
0.00446002 0.00307161 0.000407332
-5.84113e-06 0.000407332 0.000686077
0.00182049 -0.00177984 -0.00011755
-0.00177984 -0.00314895 2.5551e-05
-0.00011755 2.5551e-05 -0.00193194
0.00635409 -0.00374383 0.000439463
-0.00374383 -0.000171716 -0.000227483
0.000439463 -0.000227483 -0.00391258
0.00719936 0.00344486 9.12024e-05
0.00344486 0.00151448 -0.000823403
9.12024e-05 -0.000823403 -0.00251497
0.00870915 0.000762057 -0.000294214
0.000762057 -0.00221343 9.62e-06
-0.000294214 9.62e-06 -0.00138948
0.00249654 -9.00369e-05 1.06454e-06
-9.00369e-05 0.00142143 1.64225e-05
1.06454e-06 1.64225e-05 0.0011498
0.000332849 9.68391e-05 -1.5394e-06
9.68391e-05 -1.42544e-05 -2.27912e-06
-1.5394e-06 -2.27912e-06 -0.000157526
0.000509658 0.000101705 2.98604e-06
0.000101705 5.44645e-05 -1.04322e-06
2.98604e-06 -1.04322e-06 -4.35738e-05
0.000154778 7.14412e-07 6.68166e-06
7.14412e-07 -0.000108322 -2.26544e-06
6.68166e-06 -2.26544e-06 -0.000218063
0.000444555 0.000100357 3.28765e-06
0.000100357 3.04765e-05 4.17194e-06
3.28765e-06 4.17194e-06 -0.000153371
0.000446776 4.21974e-05 -1.77062e-10
4.21974e-05 4.26157e-05 2.25031e-06
-1.77062e-10 2.25031e-06 -0.000108477
0.000223365 2.58252e-05 1.32979e-06
2.58252e-05 -0.000100742 -3.52753e-06
1.32979e-06 -3.52753e-06 -0.000230653
0.000916801 0.000181029 4.0202e-06
0.000181029 0.000344155 7.80448e-06
4.0202e-06 7.80448e-06 0.000168518
0.000907657 0.000131769 -2.73518e-07
0.000131769 0.000346355 -2.9066e-07
-2.73518e-07 -2.9066e-07 0.000175363
0.000375711 -1.65722e-05 -3.66295e-06
-1.65722e-05 -7.37219e-06 -6.48715e-06
-3.66295e-06 -6.48715e-06 -0.000138963
0.000524912 -0.000472277 8.58461e-05
-0.000472277 -0.00122444 -4.37744e-05
8.58461e-05 -4.37744e-05 -0.000905439
0.000164271 -0.00063641 1.27539e-05
-0.00063641 -0.000926021 -8.48307e-06
1.27539e-05 -8.48307e-06 -0.000917688
0.00134269 -0.00090139 -1.32887e-05
-0.00090139 -0.000244849 1.72139e-05
-1.32887e-05 1.72139e-05 -0.000345663
-0.00100936 -0.000696088 3.76372e-06
-0.000696088 -0.000907236 -4.64006e-06
3.76372e-06 -4.64006e-06 -0.00125641
0.00344558 -0.000459079 -2.63468e-05
-0.000459079 0.00213477 6.80274e-05
-2.63468e-05 6.80274e-05 0.00161543
0.00102593 -0.000217567 -3.18454e-06
-0.000217567 0.000592565 6.46271e-06
-3.18454e-06 6.46271e-06 0.000293976
0.000370308 0.000126409 -2.80021e-06
0.000126409 8.55953e-05 -1.56255e-05
-2.80021e-06 -1.56255e-05 -0.000157204
0.000735643 -6.80385e-05 -2.91258e-06
-6.80385e-05 0.000316504 9.40754e-06
-2.91258e-06 9.40754e-06 3.5775e-05
0.00180025 -0.000823897 -9.62505e-06
-0.000823897 -0.000193947 -3.67815e-06
-9.62505e-06 -3.67815e-06 -0.000241792
0.000790506 -5.96004e-05 1.21812e-06
-5.96004e-05 0.000383467 4.86843e-06
1.21812e-06 4.86843e-06 0.000104865
0.00219227 -0.000301062 2.36078e-06
-0.000301062 0.00133204 -1.76594e-06
2.36078e-06 -1.76594e-06 0.000930597
0.00139784 -0.000746541 7.92129e-06
-0.000746541 1.25571e-05 2.98181e-06
7.92129e-06 2.98181e-06 -2.07152e-05
0.000551909 -0.00064991 -3.21856e-05
-0.00064991 0.000256771 8.13449e-06
-3.21856e-05 8.13449e-06 -0.000129223
0.00204187 -0.00141839 4.65206e-05
-0.00141839 -1.1659e-05 -2.03908e-05
4.65206e-05 -2.03908e-05 -5.76611e-05
-0.000306927 -0.000480653 -5.37096e-06
-0.000480653 -0.000440312 2.3548e-05
-5.37096e-06 2.3548e-05 -0.000490757
-0.00143098 -7.14274e-05 2.14e-05
-7.14274e-05 -0.000629375 -9.21494e-07
2.14e-05 -9.21494e-07 -0.00110941
0.000653324 3.21495e-05 -4.36064e-06
3.21495e-05 0.000250919 7.58175e-08
-4.36064e-06 7.58175e-08 2.36674e-05
0.000590765 -4.05745e-05 6.68173e-06
-4.05745e-05 0.00037914 -6.22062e-06
6.68173e-06 -6.22062e-06 5.94782e-05
0.00131318 0.000134603 -4.56678e-05
0.000134603 0.00188528 -1.76948e-05
-4.56678e-05 -1.76948e-05 -0.00215155
-0.00663723 0.000433823 -0.000368612
0.000433823 0.00647371 -1.92691e-05
-0.000368612 -1.92691e-05 0.00132378
-0.0133132 -0.00252049 -0.00072589
-0.00252049 -0.005291 -7.60552e-06
-0.00072589 -7.60552e-06 -0.00615647
-0.000669145 0.000190614 1.11025e-05
0.000190614 -0.000515384 -5.11567e-06
1.11025e-05 -5.11567e-06 -0.000752426
-0.000789668 0.000477762 -3.1475e-06
0.000477762 -0.000549579 9.28543e-06
-3.1475e-06 9.28543e-06 -0.000960835
0.00221054 0.000988537 3.24031e-05
0.000988537 0.00055559 2.63398e-05
3.24031e-05 2.63398e-05 0.000399405
-0.00554024 0.00196998 7.90378e-05
0.00196998 0.00620016 5.83578e-05
7.90378e-05 5.83578e-05 0.00151711
0.00686889 0.00368053 -0.000294941
0.00368053 7.55956e-05 -0.000171265
-0.000294941 -0.000171265 -0.00329491
0.00179058 0.0021676 0.000428062
0.0021676 0.000339322 0.000155806
0.000428062 0.000155806 0.000194226
-3.50321e-06 0.000911105 2.25048e-05
0.000911105 -2.45001e-05 -4.61769e-05
2.25048e-05 -4.61769e-05 -0.000308439
0.026881 -0.00374161 -0.000153729
-0.00374161 0.00876314 -0.000370688
-0.000153729 -0.000370688 0.00534484
0.0063352 0.00160767 0.000552924
0.00160767 0.00317566 0.000199499
0.000552924 0.000199499 -0.00255313
0.0138623 -0.00190623 0.000176076
-0.00190623 0.00242811 2.96175e-05
0.000176076 2.96175e-05 0.00371874
0.0012491 0.000523206 2.69755e-06
0.000523206 0.000646714 -2.07727e-06
2.69755e-06 -2.07727e-06 0.000339686
0.00381421 0.000589985 -1.11058e-05
0.000589985 0.00314627 1.39775e-05
-1.11058e-05 1.39775e-05 -0.000421204
0.00166346 0.000735416 6.98155e-05
0.000735416 9.50897e-05 4.23078e-07
6.98155e-05 4.23078e-07 -0.0015174
-0.000463784 0.00048302 -2.66502e-06
0.00048302 -0.000145394 -5.38305e-06
-2.66502e-06 -5.38305e-06 -0.000474806
0.000195097 0.00128137 -0.000123065
0.00128137 0.000823095 -6.0269e-05
-0.000123065 -6.0269e-05 -0.000397324
0.00107802 0.00461044 0.000212069
0.00461044 0.000615516 0.000110893
0.000212069 0.000110893 -0.00381274
0.00964954 -4.16354e-05 -3.3387e-06
-4.16354e-05 -0.00344753 -0.000212555
-3.3387e-06 -0.000212555 -0.000642356
0.0056282 -0.00263602 -7.77974e-05
-0.00263602 0.00348562 -0.000166348
-7.77974e-05 -0.000166348 -0.0014436
0.000987272 0.000418226 -7.50361e-06
0.000418226 0.000790154 -1.44847e-05
-7.50361e-06 -1.44847e-05 0.000436115
-0.00298463 0.000234558 1.40967e-05
0.000234558 3.86667e-05 2.65879e-05
1.40967e-05 2.65879e-05 -0.000395131
0.00501787 -0.00019329 0.000117406
-0.00019329 -0.00022145 -0.000154841
0.000117406 -0.000154841 -0.00146362
0.00857482 0.000925025 0.000294421
0.000925025 -0.00197096 -2.0194e-05
0.000294421 -2.0194e-05 -0.00120767
-0.00256785 0.000142564 3.57015e-05
0.000142564 -0.000132268 -3.00643e-05
3.57015e-05 -3.00643e-05 -0.000956464
0.0131233 0.00347521 0.000323175
0.00347521 0.00625867 7.70521e-05
0.000323175 7.70521e-05 0.000973278
0.00189863 -0.000561293 4.05913e-05
-0.000561293 0.00279321 0.000391235
4.05913e-05 0.000391235 -0.000887312
0.00320393 0.000467539 2.6637e-05
0.000467539 0.00192606 1.09139e-05
2.6637e-05 1.09139e-05 0.00166373
0.000425818 0.000212401 -5.59772e-06
0.000212401 0.000435996 -1.64944e-06
-5.59772e-06 -1.64944e-06 8.29361e-05
0.000225997 0.000187105 3.27592e-06
0.000187105 0.000485117 -3.70857e-07
3.27592e-06 -3.70857e-07 3.95021e-05
0.00051064 0.0001463 1.27814e-06
0.0001463 0.000107318 -6.39995e-07
1.27814e-06 -6.39995e-07 -8.36891e-05
0.000508823 7.66299e-05 1.04019e-06
7.66299e-05 0.000147858 2.9816e-06
1.04019e-06 2.9816e-06 -2.85753e-05
0.000129631 -1.14446e-05 6.40648e-06
-1.14446e-05 0.000319692 -3.03463e-06
6.40648e-06 -3.03463e-06 -8.09689e-05
0.000428742 3.0331e-05 -3.95262e-09
3.0331e-05 8.0034e-05 -6.18401e-07
-3.95262e-09 -6.18401e-07 -7.90169e-05
0.000742131 -3.98751e-05 -1.08498e-06
-3.98751e-05 0.000674064 -2.45885e-06
-1.08498e-06 -2.45885e-06 0.000283462
-4.36759e-06 4.52972e-05 -1.90672e-08
4.52972e-05 0.000381206 -1.63118e-06
-1.90672e-08 -1.63118e-06 -0.000109412
-6.92475e-05 -1.83431e-05 -5.74913e-06
-1.83431e-05 0.000300142 1.00565e-05
-5.74913e-06 1.00565e-05 -0.000113331
0.000343703 -3.11229e-05 -9.17923e-07
-3.11229e-05 0.000372565 -5.24247e-06
-9.17923e-07 -5.24247e-06 6.39763e-05
-1.10696e-05 -5.96848e-05 4.50584e-06
-5.96848e-05 -0.000205222 8.88726e-06
4.50584e-06 8.88726e-06 -0.000342881
0.00106995 -5.51723e-05 -6.6509e-07
-5.51723e-05 0.000439624 3.15229e-06
-6.6509e-07 3.15229e-06 0.000289085
0.00131535 -6.79021e-05 -1.51149e-05
-6.79021e-05 0.000607409 1.20438e-05
-1.51149e-05 1.20438e-05 0.000477373
0.000708227 -8.52305e-05 4.86431e-06
-8.52305e-05 0.000379276 -9.49833e-07
4.86431e-06 -9.49833e-07 0.000224452
0.000484739 -5.57399e-05 -9.79645e-07
-5.57399e-05 8.24149e-05 -9.36305e-07
-9.79645e-07 -9.36305e-07 -4.82229e-05
0.000486167 -0.000185537 -5.45138e-07
-0.000185537 7.64301e-05 3.24818e-06
-5.45138e-07 3.24818e-06 -5.77174e-05
0.000190073 -0.00016302 -1.22199e-05
-0.00016302 -0.000188858 -1.21441e-06
-1.22199e-05 -1.21441e-06 -0.00024102
-0.000851149 -0.000297106 1.09687e-05
-0.000297106 -0.0007591 1.97078e-05
1.09687e-05 1.97078e-05 -0.00105289
6.44982e-05 -0.000164299 5.61523e-06
-0.000164299 -0.000236667 -4.39083e-07
5.61523e-06 -4.39083e-07 -0.000350498
0.0011689 -0.000288455 -3.75202e-06
-0.000288455 0.000379518 1.14793e-05
-3.75202e-06 1.14793e-05 0.000194788
0.00202388 -0.000564824 -6.33747e-06
-0.000564824 0.00082869 1.40394e-05
-6.33747e-06 1.40394e-05 0.000460938
0.00166204 -0.000534639 -5.79281e-06
-0.000534639 0.000490386 -9.95403e-07
-5.79281e-06 -9.95403e-07 0.00010675
0.00150745 -0.000370758 2.18319e-06
-0.000370758 0.000584113 1.81439e-06
2.18319e-06 1.81439e-06 0.000339816
0.000518491 -0.000344278 9.32721e-06
-0.000344278 -0.000106883 -4.06155e-06
9.32721e-06 -4.06155e-06 -0.000387733
0.00123967 -0.000172821 3.17003e-06
-0.000172821 0.000552618 -4.1418e-06
3.17003e-06 -4.1418e-06 0.000297933
0.00118584 -0.000222755 -8.22186e-06
-0.000222755 0.000482184 1.29228e-06
-8.22186e-06 1.29228e-06 0.000275105
-0.000147915 -0.000121751 1.2215e-05
-0.000121751 -0.000385973 -1.67158e-05
1.2215e-05 -1.67158e-05 -0.00049019
0.00118762 -0.000110324 -1.87629e-06
-0.000110324 0.000472338 2.4118e-06
-1.87629e-06 2.4118e-06 0.000300331
0.000269087 -8.41577e-05 8.13713e-07
-8.41577e-05 -4.23633e-05 -3.63639e-07
8.13713e-07 -3.63639e-07 -0.000245542
0.000404593 -5.42876e-05 2.02655e-06
-5.42876e-05 -2.81196e-05 7.07807e-07
2.02655e-06 7.07807e-07 -0.000170006
0.00147564 -0.000223817 -1.96225e-06
-0.000223817 0.000709839 6.8875e-07
-1.96225e-06 6.8875e-07 0.000510332
0.000654365 -9.79914e-05 -4.03571e-07
-9.79914e-05 0.000144002 -1.47533e-07
-4.03571e-07 -1.47533e-07 5.07392e-06
0.000422101 1.17973e-05 3.20196e-06
1.17973e-05 -1.69162e-05 4.62266e-06
3.20196e-06 4.62266e-06 -0.000113858
0.00079849 -0.000136586 -6.23804e-07
-0.000136586 0.000246733 -2.19842e-06
-6.23804e-07 -2.19842e-06 0.000106686
0.000485588 6.98426e-06 -2.14179e-06
6.98426e-06 2.01048e-05 -2.02468e-07
-2.14179e-06 -2.02468e-07 -6.86285e-05
0.00142316 9.74521e-06 -1.64985e-05
9.74521e-06 0.000573172 5.3647e-06
-1.64985e-05 5.3647e-06 0.000549168
0.000583756 -6.44204e-05 1.96069e-06
-6.44204e-05 7.91732e-05 -4.27767e-06
1.96069e-06 -4.27767e-06 -4.90027e-06
0.000881377 -7.65255e-06 -8.37291e-06
-7.65255e-06 0.000233193 5.64469e-07
-8.37291e-06 5.64469e-07 0.000208057
0.00083978 3.18719e-05 4.98306e-07
3.18719e-05 0.000196685 3.09805e-06
4.98306e-07 3.09805e-06 0.000196256
0.000448022 -2.30704e-05 2.37603e-06
-2.30704e-05 -3.5699e-05 -5.96553e-06
2.37603e-06 -5.96553e-06 -6.22219e-05
0.001721 3.31071e-05 1.40061e-05
3.31071e-05 0.000756688 -1.24517e-06
1.40061e-05 -1.24517e-06 0.000763593
0.00254186 2.59336e-05 1.63639e-05
2.59336e-05 0.00127461 -5.44848e-06
1.63639e-05 -5.44848e-06 0.00128699
0.000313403 1.76808e-05 1.26557e-06
1.76808e-05 -6.38501e-05 1.39929e-06
1.26557e-06 1.39929e-06 -0.000196059
0.000153563 1.96422e-05 -7.6605e-08
1.96422e-05 -0.000202117 -3.59863e-06
-7.6605e-08 -3.59863e-06 -0.000265071
0.000624159 5.1112e-05 1.41274e-07
5.1112e-05 0.000124595 1.59818e-07
1.41274e-07 1.59818e-07 1.27386e-05
0.000468428 3.96312e-06 1.40258e-06
3.96312e-06 -3.68012e-05 -3.76774e-06
1.40258e-06 -3.76774e-06 -4.80846e-05
0.000329143 6.49314e-06 1.59485e-06
6.49314e-06 -9.38646e-05 2.32953e-08
1.59485e-06 2.32953e-08 -0.00014698
0.000253466 -9.37111e-05 -9.35813e-07
-9.37111e-05 -0.000105857 -7.55624e-07
-9.35813e-07 -7.55624e-07 -0.000205948
0.00205471 -4.97712e-06 -1.12228e-05
-4.97712e-06 0.000964269 -4.79908e-06
-1.12228e-05 -4.79908e-06 0.000982096
0.000463359 3.27856e-06 5.8716e-09
3.27856e-06 -3.89408e-05 -6.78372e-08
5.8716e-09 -6.78372e-08 -4.84383e-05
0.000435661 -1.51425e-05 -2.58381e-06
-1.51425e-05 -2.53387e-05 2.25813e-06
-2.58381e-06 2.25813e-06 -7.1835e-05
0.00201432 1.03528e-05 -4.64772e-06
1.03528e-05 0.000940036 7.98207e-09
-4.64772e-06 7.98207e-09 0.000957707
0.000454846 4.79941e-06 -1.25784e-06
4.79941e-06 -4.33964e-05 3.26103e-06
-1.25784e-06 3.26103e-06 -5.25435e-05
0.00198718 2.53167e-05 1.41809e-06
2.53167e-05 0.000924821 4.81394e-06
1.41809e-06 4.81394e-06 0.00094157
-0.000297042 -0.000784451 -0.000243919
-0.000784451 -0.00013974 9.23298e-05
-0.000243919 9.23298e-05 -0.00331102
0.00182528 0.000637623 -0.000113473
0.000637623 0.00754545 2.16836e-05
-0.000113473 2.16836e-05 0.00339253
0.00227522 -2.11794e-05 -0.000861549
-2.11794e-05 0.00382097 0.000176266
-0.000861549 0.000176266 0.00194367
0.000721289 0.000123559 4.82788e-06
0.000123559 0.000186912 6.53009e-06
4.82788e-06 6.53009e-06 2.98691e-05
0.00502125 -0.000904137 -8.93545e-05
-0.000904137 0.00320526 0.000238207
-8.93545e-05 0.000238207 0.00108973
0.00410569 -0.0012728 -0.000273847
-0.0012728 0.00170739 2.52843e-05
-0.000273847 2.52843e-05 -0.00292196
0.0110288 0.00333399 0.000345588
0.00333399 0.00773644 -0.000344013
0.000345588 -0.000344013 0.00351043
0.007214 -0.00104255 0.000120608
-0.00104255 0.00077797 -2.24196e-05
0.000120608 -2.24196e-05 0.00108661
0.0130678 -0.00228864 0.000266189
-0.00228864 0.000992528 -0.000134808
0.000266189 -0.000134808 -0.00012807
0.00860297 0.00474015 -0.000649898
0.00474015 0.000547115 0.000420321
-0.000649898 0.000420321 -0.0028776
0.0137619 0.00427925 0.000109513
0.00427925 0.00492716 0.000227747
0.000109513 0.000227747 0.00227621
0.00737969 -0.00223188 -0.00012216
-0.00223188 0.000155255 -5.30902e-06
-0.00012216 -5.30902e-06 0.000628558
0.0172921 -0.00407376 3.6034e-05
-0.00407376 0.00408085 -3.35493e-05
3.6034e-05 -3.35493e-05 0.00159322
0.00835507 0.00282409 0.000148347
0.00282409 0.00296126 -0.000352295
0.000148347 -0.000352295 -0.00128117
0.012017 0.00125983 1.11938e-05
0.00125983 -0.000349546 4.13973e-05
1.11938e-05 4.13973e-05 -0.000147371
0.00294488 -0.00241856 -6.00349e-05
-0.00241856 2.39707e-06 7.98027e-05
-6.00349e-05 7.98027e-05 -5.40512e-05
0.0107189 -0.00431632 0.000153585
-0.00431632 0.00454218 -0.000107453
0.000153585 -0.000107453 0.000181935
0.00985154 -0.000279877 0.000129959
-0.000279877 0.00467278 -0.000451078
0.000129959 -0.000451078 0.00179821
0.0119641 0.000414993 -0.000136647
0.000414993 -0.00133341 0.000247536
-0.000136647 0.000247536 0.000833603
0.000317082 6.93371e-05 4.04625e-06
6.93371e-05 3.67448e-05 9.32344e-06
4.04625e-06 9.32344e-06 -0.00018002
0.00073098 -0.00013225 6.06326e-07
-0.00013225 0.000309482 -3.57134e-07
6.06326e-07 -3.57134e-07 6.32974e-05
0.000893076 0.000132784 1.82063e-06
0.000132784 0.000354714 -4.86062e-06
1.82063e-06 -4.86062e-06 0.000198167
0.000483411 0.000128147 1.59059e-06
0.000128147 2.33934e-05 1.06283e-05
1.59059e-06 1.06283e-05 -0.000121067
0.000828296 0.000188956 3.49112e-07
0.000188956 0.000299817 7.68422e-07
3.49112e-07 7.68422e-07 0.000103999
0.00107705 0.000104631 -4.5244e-06
0.000104631 0.000454236 -4.58506e-06
-4.5244e-06 -4.58506e-06 0.000295351
0.00103794 0.000171405 -1.50205e-06
0.000171405 0.000422386 -8.19516e-08
-1.50205e-06 -8.19516e-08 0.000244739
0.00105974 0.000181514 1.49117e-06
0.000181514 0.000459481 2.32062e-06
1.49117e-06 2.32062e-06 0.000278613
0.000487895 -0.000604455 0.000116837
-0.000604455 -0.000954368 -6.60034e-05
0.000116837 -6.60034e-05 -0.000800005
0.000513706 -0.00068663 -2.59503e-05
-0.00068663 -0.000560336 -4.35633e-06
-2.59503e-05 -4.35633e-06 -0.000510087
0.000944979 -0.00022722 2.48344e-06
-0.00022722 0.000463453 -2.76898e-05
2.48344e-06 -2.76898e-05 0.000166629
0.00173054 -0.000694235 1.88332e-05
-0.000694235 0.000871788 -2.46632e-05
1.88332e-05 -2.46632e-05 0.000526789
0.00251544 -0.000466257 -2.09388e-05
-0.000466257 0.00146594 2.08292e-05
-2.09388e-05 2.08292e-05 0.00107328
0.00157644 -0.000159096 3.77443e-06
-0.000159096 0.000853656 -2.24888e-05
3.77443e-06 -2.24888e-05 0.000561319
-1.86372e-05 -2.80419e-05 3.42076e-06
-2.80419e-05 -0.0001724 7.72699e-06
3.42076e-06 7.72699e-06 -0.00038951
0.00044957 -0.00117158 -7.14337e-06
-0.00117158 -0.000698576 -4.24499e-06
-7.14337e-06 -4.24499e-06 -0.000753636
0.00131773 -1.23851e-05 -7.57735e-07
-1.23851e-05 0.000826849 -6.62687e-07
-7.57735e-07 -6.62687e-07 0.000498193
0.00035214 -0.000237858 -7.73726e-07
-0.000237858 0.000328278 4.72555e-06
-7.73726e-07 4.72555e-06 -0.000105017
-0.000330185 -0.0003866 2.36032e-05
-0.0003866 -0.000472318 7.3924e-07
2.36032e-05 7.3924e-07 -0.000447373
0.00080969 0.000108753 8.32573e-07
0.000108753 0.000355669 5.56532e-07
8.32573e-07 5.56532e-07 0.000151903
-0.000168476 -0.00104762 -5.5671e-05
-0.00104762 -0.000446412 -2.41446e-05
-5.5671e-05 -2.41446e-05 -0.000668815
-0.000984201 -0.00040378 -1.58197e-05
-0.00040378 -0.000531866 3.0481e-05
-1.58197e-05 3.0481e-05 -0.000795907
6.57527e-05 0.000142724 1.92298e-05
0.000142724 0.000395824 -2.56838e-05
1.92298e-05 -2.56838e-05 -0.000133802
0.00202895 0.000314457 -4.10369e-06
0.000314457 0.0012606 -1.2725e-06
-4.10369e-06 -1.2725e-06 0.000974482
-0.00117493 0.000102356 0.000112731
0.000102356 0.00150783 2.24114e-05
0.000112731 2.24114e-05 0.000591507
0.000449701 -1.5591e-05 0.000156382
-1.5591e-05 0.00125398 -3.36112e-05
0.000156382 -3.36112e-05 -0.00279999
-0.0114469 -0.000349718 -0.000269331
-0.000349718 0.00596991 2.68546e-05
-0.000269331 2.68546e-05 0.000416884
0.00176113 0.000561772 2.06754e-05
0.000561772 0.00102654 3.82419e-06
2.06754e-05 3.82419e-06 0.000710244
-0.000703954 0.000675008 1.28607e-05
0.000675008 -0.000309711 1.04434e-05
1.28607e-05 1.04434e-05 -0.000754886
0.00550076 0.000783587 0.000314343
0.000783587 0.00373987 6.06737e-05
0.000314343 6.06737e-05 0.00128199
0.00969479 0.00375306 0.000266276
0.00375306 0.00334444 0.000197886
0.000266276 0.000197886 -0.000769365
0.00435679 0.00241996 -8.94223e-05
0.00241996 0.00246873 -9.76236e-05
-8.94223e-05 -9.76236e-05 0.00108462
0.00470116 -0.00224064 -0.000180153
-0.00224064 0.0041888 -0.000451885
-0.000180153 -0.000451885 0.000376533
0.00272371 0.000610907 0.000135546
0.000610907 0.000361322 0.000182748
0.000135546 0.000182748 -0.00123116
0.00754715 -0.000219083 -5.25067e-05
-0.000219083 -0.00539527 -0.000238008
-5.25067e-05 -0.000238008 -0.00216484
0.00102174 0.000496481 6.00894e-06
0.000496481 0.000772697 1.66471e-06
6.00894e-06 1.66471e-06 0.000390097
-0.00252294 0.000104162 -2.73045e-06
0.000104162 0.000106245 2.32889e-06
-2.73045e-06 2.32889e-06 -0.000460667
0.00440973 -8.90195e-05 0.000112451
-8.90195e-05 -0.000256888 2.26424e-05
0.000112451 2.26424e-05 -0.000856778
-0.00175142 0.000425228 -1.34713e-05
0.000425228 -0.000275378 -1.09116e-05
-1.34713e-05 -1.09116e-05 -0.00100454
0.011723 0.00138853 -4.43837e-06
0.00138853 -0.000296238 -4.30572e-05
-4.43837e-06 -4.30572e-05 -0.000162174
0.00264205 0.00191093 0.000219144
0.00191093 0.00381979 0.000135715
0.000219144 0.000135715 -0.00187608
0.00713247 0.000675545 -0.000170777
0.000675545 0.00319762 4.49596e-06
-0.000170777 4.49596e-06 -0.000484973
0.000375382 0.000425711 4.84955e-06
0.000425711 0.000539232 -2.38144e-05
4.84955e-06 -2.38144e-05 1.53078e-05
0.00148192 -1.67029e-05 4.98636e-06
-1.67029e-05 0.000250911 -1.58643e-05
4.98636e-06 -1.58643e-05 -0.000134182
0.00391954 -0.00114213 7.3304e-05
-0.00114213 0.00318197 -0.000237412
7.3304e-05 -0.000237412 0.00131031
0.0197538 0.00476447 0.000308302
0.00476447 0.00595735 -0.000280104
0.000308302 -0.000280104 0.00375533
0.00890229 -0.000135596 -0.000108032
-0.000135596 0.00470868 0.000457906
-0.000108032 0.000457906 0.00153268
0.000267336 0.00041761 -1.8325e-05
0.00041761 0.000715902 -0.000134695
-1.8325e-05 -0.000134695 5.59563e-05
0.00438199 0.00145867 0.000262991
0.00145867 0.00613874 2.61409e-05
0.000262991 2.61409e-05 -0.00209402
0.00126017 0.000332983 8.41119e-06
0.000332983 0.000917706 1.10928e-05
8.41119e-06 1.10928e-05 0.000549763
0.000619584 0.000240712 4.14597e-06
0.000240712 0.000709901 1.81444e-06
4.14597e-06 1.81444e-06 0.000281342
0.000443991 -2.76702e-05 -1.79512e-05
-2.76702e-05 0.000744417 1.51673e-06
-1.79512e-05 1.51673e-06 0.000374012
-0.000492734 -4.22173e-05 1.52267e-06
-4.22173e-05 -0.000505518 2.95085e-06
1.52267e-06 2.95085e-06 -0.000647795
0.000400291 -1.38474e-05 4.64841e-06
-1.38474e-05 0.000483972 -1.52694e-06
4.64841e-06 -1.52694e-06 7.78953e-05
0.000105913 4.92478e-05 4.52961e-06
4.92478e-05 0.000449091 -4.62606e-06
4.52961e-06 -4.62606e-06 -3.76149e-05
0.000207883 -3.17277e-05 3.18942e-07
-3.17277e-05 0.000232354 4.89958e-07
3.18942e-07 4.89958e-07 -2.33754e-05
-1.36521e-05 -3.88715e-05 4.26704e-06
-3.88715e-05 0.000324087 6.8661e-07
4.26704e-06 6.8661e-07 -9.03065e-05
0.00150221 -0.000365417 4.30792e-06
-0.000365417 0.00100262 -1.09115e-05
4.30792e-06 -1.09115e-05 0.000673176
0.000820126 -9.24631e-05 -6.44537e-06
-9.24631e-05 0.000426925 6.18797e-06
-6.44537e-06 6.18797e-06 0.000283338
0.000367725 -9.89478e-06 -1.08671e-06
-9.89478e-06 1.10228e-05 1.77325e-06
-1.08671e-06 1.77325e-06 -0.000117928
0.00133742 -0.000277788 9.64043e-07
-0.000277788 0.000591756 5.51908e-06
9.64043e-07 5.51908e-06 0.000422766
-0.00291567 -0.000116517 1.82326e-05
-0.000116517 -0.00178262 2.01726e-05
1.82326e-05 2.01726e-05 -0.00211151
-0.000288001 -0.000111023 1.06264e-05
-0.000111023 -0.000390002 -1.90228e-06
1.06264e-05 -1.90228e-06 -0.000409416
-9.38807e-05 -0.00033838 -8.91868e-07
-0.00033838 -0.000352531 -5.09066e-06
-8.91868e-07 -5.09066e-06 -0.000609508
0.00125495 -0.000534416 -5.30753e-07
-0.000534416 0.00032095 -9.91336e-07
-5.30753e-07 -9.91336e-07 -0.00013354
0.00168999 -0.000642201 -6.79466e-06
-0.000642201 0.000464203 -1.87396e-07
-6.79466e-06 -1.87396e-07 2.26569e-05
0.00168977 -0.000361264 5.09839e-06
-0.000361264 0.000683399 -3.64642e-06
5.09839e-06 -3.64642e-06 0.000474897
0.00128137 -0.00047911 9.52987e-07
-0.00047911 0.000361023 6.72235e-07
9.52987e-07 6.72235e-07 2.12591e-06
0.00164462 -0.000543997 4.72108e-06
-0.000543997 0.000451764 -4.3232e-06
4.72108e-06 -4.3232e-06 7.50249e-05
0.00106036 -0.000370932 -1.72523e-06
-0.000370932 0.000188299 6.93724e-06
-1.72523e-06 6.93724e-06 -0.000102992
0.00112852 -0.000465959 2.14167e-06
-0.000465959 0.000174714 -4.78908e-06
2.14167e-06 -4.78908e-06 -0.000185999
0.000582759 -0.000161344 1.13199e-06
-0.000161344 0.000106582 -6.09271e-06
1.13199e-06 -6.09271e-06 -0.000147236
0.00110791 -0.000349981 -5.89872e-06
-0.000349981 0.000349433 3.43717e-06
-5.89872e-06 3.43717e-06 9.20821e-05
-0.000887434 -0.000162608 -6.01569e-07
-0.000162608 -0.000964187 -9.68103e-06
-6.01569e-07 -9.68103e-06 -0.0011927
3.86693e-05 -5.59677e-05 1.26457e-06
-5.59677e-05 -0.000232744 -2.43743e-06
1.26457e-06 -2.43743e-06 -0.000419672
0.000379059 -0.000137721 2.61859e-07
-0.000137721 4.48492e-05 3.7541e-07
2.61859e-07 3.7541e-07 -0.00020736
0.000512722 -0.000203272 1.05203e-05
-0.000203272 0.000116023 -8.10587e-08
1.05203e-05 -8.10587e-08 -0.000106688
0.00059797 -0.000125019 -1.60138e-07
-0.000125019 0.000155608 2.95818e-06
-1.60138e-07 2.95818e-06 -4.50712e-05
0.000714881 -0.000113707 3.54913e-08
-0.000113707 0.000181957 3.64367e-07
3.54913e-08 3.64367e-07 2.3342e-05
0.000567541 -5.88791e-06 2.21587e-06
-5.88791e-06 6.46278e-05 6.4547e-06
2.21587e-06 6.4547e-06 -4.10836e-05
0.00100679 -0.000141703 -2.13371e-06
-0.000141703 0.000380056 -1.07677e-06
-2.13371e-06 -1.07677e-06 0.000225566
0.000574832 -8.44926e-06 -1.19213e-06
-8.44926e-06 6.74284e-05 -3.49601e-07
-1.19213e-06 -3.49601e-07 -2.42388e-05
0.000401341 4.63764e-05 2.36916e-06
4.63764e-05 -6.05021e-05 7.13385e-06
2.36916e-06 7.13385e-06 -9.67471e-05
0.000687077 -6.42765e-05 8.96713e-07
-6.42765e-05 0.000137979 -3.78841e-06
8.96713e-07 -3.78841e-06 5.19897e-05
0.000452339 2.98053e-06 -1.26138e-06
2.98053e-06 -3.93592e-05 -4.5931e-08
-1.26138e-06 -4.5931e-08 -6.91354e-05
0.00259591 9.09618e-05 -2.09742e-06
9.09618e-05 0.00131106 2.62071e-06
-2.09742e-06 2.62071e-06 0.00131572
0.000469704 -1.4372e-05 2.44375e-06
-1.4372e-05 -2.70723e-05 -6.14089e-06
2.44375e-06 -6.14089e-06 -5.51913e-05
0.00175497 4.66506e-05 1.69071e-05
4.66506e-05 0.000777407 -1.03263e-06
1.69071e-05 -1.03263e-06 0.000782339
0.00260682 4.18452e-05 2.32194e-05
4.18452e-05 0.00131427 -5.62418e-06
2.32194e-05 -5.62418e-06 0.00132569
0.000270253 2.14942e-05 1.22411e-06
2.14942e-05 -0.000109572 1.09357e-06
1.22411e-06 1.09357e-06 -0.000230919
0.000221042 1.07217e-05 1.26829e-06
1.07217e-05 -0.000161176 -2.70921e-06
1.26829e-06 -2.70921e-06 -0.000235509
0.000461177 3.72572e-05 -5.96271e-07
3.72572e-05 2.41008e-05 -1.22761e-06
-5.96271e-07 -1.22761e-06 -0.000101658
0.000491443 3.84837e-06 1.51482e-06
3.84837e-06 -2.29006e-05 -4.24396e-06
1.51482e-06 -4.24396e-06 -3.71095e-05
0.00019566 1.60488e-05 -5.93067e-07
1.60488e-05 -0.000176326 -1.75129e-06
-5.93067e-07 -1.75129e-06 -0.00024139
0.000669323 5.65947e-05 1.26263e-08
5.65947e-05 0.00016568 1.45202e-06
1.26263e-08 1.45202e-06 4.48443e-05
0.00207615 -1.84167e-05 -1.65216e-05
-1.84167e-05 0.000976569 -4.70112e-06
-1.65216e-05 -4.70112e-06 0.0009942
0.00047073 1.93703e-06 -6.53592e-07
1.93703e-06 -3.57968e-05 -6.91202e-08
-6.53592e-07 -6.91202e-08 -4.67544e-05
0.000114708 1.53181e-05 1.55811e-06
1.53181e-05 -0.000225287 1.70559e-06
1.55811e-06 1.70559e-06 -0.000282193
0.00203671 -3.77076e-06 -4.05702e-06
-3.77076e-06 0.00095278 4.7102e-08
-4.05702e-06 4.7102e-08 0.000970748
0.000452694 2.79159e-06 -1.50858e-06
2.79159e-06 -4.62838e-05 3.46124e-06
-1.50858e-06 3.46124e-06 -5.54227e-05
0.00206084 1.19057e-05 6.94955e-06
1.19057e-05 0.000969784 4.87392e-06
6.94955e-06 4.87392e-06 0.000987032
0.00044556 -4.11782e-05 0.000129935
-4.11782e-05 0.0021716 5.11923e-05
0.000129935 5.11923e-05 0.00152813
-0.000247072 -0.000383737 -5.07009e-05
-0.000383737 0.00038975 -1.06562e-05
-5.07009e-05 -1.06562e-05 -0.00342151
0.000198342 0.000620944 -3.55682e-05
0.000620944 0.00718878 -4.63943e-05
-3.55682e-05 -4.63943e-05 0.00290559
0.000759536 0.000132907 6.21757e-07
0.000132907 0.000200616 9.15125e-08
6.21757e-07 9.15125e-08 5.45455e-05
0.000298232 9.00814e-05 5.74237e-06
9.00814e-05 -9.95656e-05 4.65787e-06
5.74237e-06 4.65787e-06 -0.000233186
0.00107017 0.000192196 8.4584e-06
0.000192196 0.000396062 8.15844e-06
8.4584e-06 8.15844e-06 0.000247917
0.00592197 -0.000344443 -9.2997e-05
-0.000344443 -0.000397611 0.000226386
-9.2997e-05 0.000226386 -0.00144349
0.00497236 -0.0010544 9.33169e-05
-0.0010544 0.0028823 5.72693e-06
9.33169e-05 5.72693e-06 0.00140989
0.00461864 -0.00176257 0.000193009
-0.00176257 0.0019366 -0.00025535
0.000193009 -0.00025535 -0.00277283
0.00862419 -0.00267662 -1.76455e-05
-0.00267662 0.000221205 -3.27927e-05
-1.76455e-05 -3.27927e-05 0.000898783
0.0010968 -0.00323403 -0.000410231
-0.00323403 -0.00201297 9.75755e-05
-0.000410231 9.75755e-05 -0.00469104
0.0260487 0.00417906 0.000229215
0.00417906 0.0106917 0.000171286
0.000229215 0.000171286 0.00597734
0.00722411 -0.000139665 0.000294181
-0.000139665 -0.00272207 -0.000235203
0.000294181 -0.000235203 -0.0029167
0.00436964 -0.0027931 -3.02826e-05
-0.0027931 1.57915e-05 1.74214e-05
-3.02826e-05 1.74214e-05 0.000398855
0.00733778 -0.00418284 -0.000116951
-0.00418284 0.00273412 2.02384e-05
-0.000116951 2.02384e-05 -0.00200408
-0.00213578 0.00370645 -8.91201e-05
0.00370645 0.0038552 -0.000310139
-8.91201e-05 -0.000310139 -0.00102778
0.00995218 9.39126e-05 -7.70183e-05
9.39126e-05 -0.00351686 0.000142653
-7.70183e-05 0.000142653 -0.000646245
0.00200983 -0.00203047 -0.000107226
-0.00203047 0.00122287 4.64397e-05
-0.000107226 4.64397e-05 0.000779648
0.010786 -0.00306969 -0.000300091
-0.00306969 0.00580575 0.000175152
-0.000300091 0.000175152 0.000709558
-0.000237142 -8.88738e-05 4.61689e-05
-8.88738e-05 0.00243738 -0.000341354
4.61689e-05 -0.000341354 -0.00135129
0.00901616 -0.000872614 0.000122616
-0.000872614 -0.00196443 6.29091e-05
0.000122616 6.29091e-05 -0.00119349
0.00025359 9.91483e-05 6.82598e-06
9.91483e-05 -6.98707e-05 1.89125e-05
6.82598e-06 1.89125e-05 -0.000217638
0.000697208 -2.0656e-06 2.41653e-06
-2.0656e-06 0.000252824 -3.12436e-06
2.41653e-06 -3.12436e-06 2.54873e-05
0.000424432 -0.000161379 1.99264e-06
-0.000161379 4.15405e-05 -1.06139e-05
1.99264e-06 -1.06139e-05 -0.000167487
0.00065388 0.00013451 -2.00754e-06
0.00013451 0.000133286 1.44689e-06
-2.00754e-06 1.44689e-06 -1.8901e-05
0.000750488 0.000140712 2.32287e-06
0.000140712 0.000253162 -5.12228e-06
2.32287e-06 -5.12228e-06 6.94755e-05
0.0011677 0.000196901 -3.74224e-06
0.000196901 0.000507126 -4.35419e-06
-3.74224e-06 -4.35419e-06 0.000327067
-0.000474748 -0.00100705 3.39049e-05
-0.00100705 -0.00110142 -1.53066e-05
3.39049e-05 -1.53066e-05 -0.0011505
0.00106756 -0.000372074 2.31807e-05
-0.000372074 0.000314364 -2.49577e-05
2.31807e-05 -2.49577e-05 0.000355732
3.2943e-05 5.74287e-05 -1.26805e-06
5.74287e-05 -0.000133666 -1.45965e-05
-1.26805e-06 -1.45965e-05 -0.00036235
0.00225664 -0.000470057 5.91108e-05
-0.000470057 0.00136214 -2.58115e-05
5.91108e-05 -2.58115e-05 0.000965646
0.00180513 -0.000123677 -1.40686e-06
-0.000123677 0.00108089 4.67459e-06
-1.40686e-06 4.67459e-06 0.000777492
-6.46927e-05 9.56562e-05 4.03024e-06
9.56562e-05 -0.000126048 4.23183e-06
4.03024e-06 4.23183e-06 -0.00035042
0.000677582 0.000128483 6.00339e-07
0.000128483 0.000418549 -1.8768e-06
6.00339e-07 -1.8768e-06 0.000169455
0.000435761 -0.00116047 -2.75244e-05
-0.00116047 -0.000193629 -8.85023e-07
-2.75244e-05 -8.85023e-07 -0.000514691
0.000278833 -4.03128e-05 -5.99868e-06
-4.03128e-05 0.000534888 4.56752e-06
-5.99868e-06 4.56752e-06 1.1007e-05
0.00124056 -0.00035471 -1.99655e-06
-0.00035471 0.000736239 -8.88675e-06
-1.99655e-06 -8.88675e-06 0.000396605
0.000691817 0.000160181 1.46415e-06
0.000160181 0.000411491 -1.54576e-05
1.46415e-06 -1.54576e-05 0.000185295
-0.00199614 -0.000273767 -6.29596e-05
-0.000273767 -0.000193227 -1.52326e-05
-6.29596e-05 -1.52326e-05 -0.00107811
0.000658957 -0.000209182 -2.87845e-05
-0.000209182 0.000790599 8.13349e-06
-2.87845e-05 8.13349e-06 0.000403927
-0.000152137 9.75399e-05 -1.24616e-05
9.75399e-05 0.000362454 1.08002e-05
-1.24616e-05 1.08002e-05 -0.000104333
-0.000214997 0.000187126 -1.06935e-05
0.000187126 -0.000611978 2.94672e-06
-1.06935e-05 2.94672e-06 -0.00174356
-0.00178556 0.000189926 5.39466e-05
0.000189926 0.00123289 -1.35171e-05
5.39466e-05 -1.35171e-05 0.000316719
-0.000392031 -0.000154685 0.000331532
-0.000154685 0.000660757 2.67081e-05
0.000331532 2.67081e-05 -0.00339024
9.40835e-05 0.000461283 2.04341e-06
0.000461283 0.000215188 1.64326e-05
2.04341e-06 1.64326e-05 -0.000189212
0.000443437 0.000803431 -1.98858e-05
0.000803431 0.000450119 -8.60897e-06
-1.98858e-05 -8.60897e-06 -0.000187312
-0.00229355 5.85326e-05 -3.7447e-05
5.85326e-05 0.000159607 -2.08442e-05
-3.7447e-05 -2.08442e-05 -0.000545441
-0.00477162 0.000712092 6.45487e-05
0.000712092 0.00249335 0.00018605
6.45487e-05 0.00018605 -0.00290792
-0.000994116 0.00124732 -0.00018986
0.00124732 -0.00170721 -0.000472533
-0.00018986 -0.000472533 -0.00625824
0.00366869 1.24574e-05 8.53072e-05
1.24574e-05 -0.000348228 9.57272e-05
8.53072e-05 9.57272e-05 -0.000411263
0.00673121 2.42177e-05 -0.000293104
2.42177e-05 -0.00250174 0.000237059
-0.000293104 0.000237059 -0.00292203
0.000213338 0.000346961 -1.29904e-07
0.000346961 0.000491746 -7.28819e-07
-1.29904e-07 -7.28819e-07 3.6996e-05
0.00104184 8.84589e-06 3.16679e-05
8.84589e-06 0.000170831 -1.5144e-05
3.16679e-05 -1.5144e-05 -0.000191498
0.00416194 -0.000826409 -9.08561e-05
-0.000826409 0.00284959 1.49141e-06
-9.08561e-05 1.49141e-06 0.00133525
-0.000412328 0.000668158 -0.000135369
0.000668158 0.00106885 -6.16612e-06
-0.000135369 -6.16612e-06 -0.000322163
0.0142976 0.0048541 1.63856e-05
0.0048541 0.00306258 -0.000401061
1.63856e-05 -0.000401061 0.000686979
0.000163134 0.00305533 7.8577e-05
0.00305533 0.0042647 0.000321497
7.8577e-05 0.000321497 -0.000708557
0.00517732 0.000651512 6.04008e-05
0.000651512 0.00582258 -2.18616e-05
6.04008e-05 -2.18616e-05 -0.00144592
0.000669836 -1.93223e-05 4.26969e-05
-1.93223e-05 0.0014241 -2.77535e-05
4.26969e-05 -2.77535e-05 0.000405679
2.68951e-05 -0.000139852 -0.00011478
-0.000139852 0.00225136 3.68633e-06
-0.00011478 3.68633e-06 0.00145352
0.00200794 -0.000908352 0.000700938
-0.000908352 0.000699079 -0.000256914
0.000700938 -0.000256914 -0.0041725
0.0185646 0.00708236 -7.08829e-05
0.00708236 0.0125885 -3.15963e-06
-7.08829e-05 -3.15963e-06 0.00936442
0.00602327 0.00369184 -0.000138707
0.00369184 0.0015749 0.000790613
-0.000138707 0.000790613 -0.00240666
0.0118915 -0.00334235 0.000274597
-0.00334235 0.00595392 -0.000226796
0.000274597 -0.000226796 0.000257231
0.00363277 -0.000750342 -6.93625e-05
-0.000750342 0.00318265 3.56085e-05
-6.93625e-05 3.56085e-05 0.00228663
0.000632028 0.000231767 -3.54466e-06
0.000231767 0.000738574 2.61676e-06
-3.54466e-06 2.61676e-06 0.000306759
7.36549e-06 -5.47205e-05 -8.13603e-06
-5.47205e-05 0.000420741 -3.21671e-06
-8.13603e-06 -3.21671e-06 2.09433e-05
0.00127765 -0.000505205 3.96193e-05
-0.000505205 0.000935794 -1.31739e-05
3.96193e-05 -1.31739e-05 0.000431298
0.000386702 -7.81353e-05 -1.22629e-06
-7.81353e-05 0.000294262 3.52727e-06
-1.22629e-06 3.52727e-06 8.27745e-05
-1.53793e-05 -5.00954e-05 3.70968e-07
-5.00954e-05 0.000293785 -1.27791e-05
3.70968e-07 -1.27791e-05 -9.95661e-05
0.000478352 -0.000292582 -4.17469e-06
-0.000292582 0.000523461 4.07513e-07
-4.17469e-06 4.07513e-07 0.000178635
0.000908185 -0.000576124 2.08454e-05
-0.000576124 0.000335275 -1.94285e-05
2.08454e-05 -1.94285e-05 5.89388e-05
0.00234177 -0.000380504 -1.11812e-06
-0.000380504 0.00121928 1.05921e-06
-1.11812e-06 1.05921e-06 0.00100188
0.00174059 -0.000637169 1.47709e-05
-0.000637169 0.000780013 -2.99391e-06
1.47709e-05 -2.99391e-06 0.00038594
0.00104624 -0.000553779 7.92945e-06
-0.000553779 0.000374726 9.13148e-07
7.92945e-06 9.13148e-07 -0.000240683
0.00062322 -0.000350948 -5.53578e-06
-0.000350948 3.8853e-05 -5.4447e-06
-5.53578e-06 -5.4447e-06 -0.000169255
0.00197232 -0.000619917 -2.39969e-06
-0.000619917 0.000701289 -7.87079e-07
-2.39969e-06 -7.87079e-07 0.000241751
0.00215685 -0.000777328 -6.96786e-06
-0.000777328 0.000707872 -1.08963e-07
-6.96786e-06 -1.08963e-07 0.000148976
0.00191822 -0.000820529 -1.14295e-05
-0.000820529 0.000422492 1.89825e-06
-1.14295e-05 1.89825e-06 -6.83273e-05
0.00177875 -0.000688796 -2.1627e-06
-0.000688796 0.000493159 -6.63624e-07
-2.1627e-06 -6.63624e-07 5.53682e-05
0.00163391 -0.000638388 -4.71252e-06
-0.000638388 0.000421026 1.29199e-06
-4.71252e-06 1.29199e-06 -2.19723e-05
0.00119859 -0.000474884 -1.58906e-06
-0.000474884 0.000283444 -5.60559e-06
-1.58906e-06 -5.60559e-06 -8.47665e-05
0.00150644 -0.000492799 9.23881e-06
-0.000492799 0.000440803 -2.09513e-06
9.23881e-06 -2.09513e-06 9.33024e-05
0.00157565 -0.000543746 5.88458e-06
-0.000543746 0.000411084 -2.10971e-06
5.88458e-06 -2.10971e-06 3.45504e-05
0.000697912 -0.000236188 2.10924e-06
-0.000236188 5.69323e-05 -6.55883e-07
2.10924e-06 -6.55883e-07 -0.000188089
0.00103425 -0.000378801 4.32623e-06
-0.000378801 0.000180615 -3.55921e-06
4.32623e-06 -3.55921e-06 -0.000112107
0.000436862 -0.000380195 -1.90154e-06
-0.000380195 -0.000241338 -8.1e-06
-1.90154e-06 -8.1e-06 -0.000576002
-3.05407e-05 -5.88877e-05 6.78154e-07
-5.88877e-05 -0.000248949 -2.99208e-06
6.78154e-07 -2.99208e-06 -0.000494234
0.00105081 -0.000221815 -3.57594e-07
-0.000221815 0.000409656 3.68079e-07
-3.57594e-07 3.68079e-07 0.000145883
0.000585566 -0.000310904 -3.83834e-06
-0.000310904 3.63489e-05 -1.53324e-06
-3.83834e-06 -1.53324e-06 -0.000228694
0.000637155 -4.40089e-05 4.40771e-07
-4.40089e-05 0.000103086 7.80733e-06
4.40771e-07 7.80733e-06 -1.86363e-05
0.00078246 -0.000113006 -3.79287e-07
-0.000113006 0.00022637 -1.12213e-07
-3.79287e-07 -1.12213e-07 3.44486e-05
2.06671e-05 -0.00010791 1.45074e-07
-0.00010791 -0.000171292 4.43895e-06
1.45074e-07 4.43895e-06 -0.000411703
0.00108594 -0.000137515 -4.04506e-07
-0.000137515 0.000423984 -6.0016e-07
-4.04506e-07 -6.0016e-07 0.000254181
0.000611668 -4.94463e-05 -2.19904e-07
-4.94463e-05 8.98891e-05 -3.64719e-07
-2.19904e-07 -3.64719e-07 -1.75712e-05
0.000356576 2.53426e-05 2.10695e-06
2.53426e-05 -8.22991e-05 9.39647e-06
2.10695e-06 9.39647e-06 -0.000124988
0.000661597 -5.5653e-05 -3.84451e-07
-5.5653e-05 0.000118669 -4.76491e-06
-3.84451e-07 -4.76491e-06 2.59502e-05
0.000478388 1.57974e-05 -2.78252e-06
1.57974e-05 -1.76622e-05 -2.50681e-07
-2.78252e-06 -2.50681e-07 -5.162e-05
0.00275402 9.73835e-05 -3.74979e-05
9.73835e-05 0.00141744 4.69575e-06
-3.74979e-05 4.69575e-06 0.00142173
0.000497096 -5.6906e-06 2.28576e-06
-5.6906e-06 -1.35036e-05 -6.34104e-06
2.28576e-06 -6.34104e-06 -4.26e-05
0.00175605 6.31482e-05 1.97354e-05
6.31482e-05 0.000780506 -7.19677e-07
1.97354e-05 -7.19677e-07 0.000783051
0.00268054 6.09769e-05 2.86253e-05
6.09769e-05 0.00136159 -5.28196e-06
2.86253e-05 -5.28196e-06 0.0013712
0.000773153 0.000100722 4.30512e-06
0.000100722 0.000219076 1.08982e-06
4.30512e-06 1.08982e-06 8.14014e-05
0.000515901 4.81262e-05 1.77759e-06
4.81262e-05 2.45696e-05 -2.04773e-06
1.77759e-06 -2.04773e-06 -5.5741e-05
0.000459987 5.19669e-05 -9.46545e-07
5.19669e-05 2.42762e-05 -1.28523e-06
-9.46545e-07 -1.28523e-06 -0.000108556
0.000487484 4.59006e-06 8.84706e-07
4.59006e-06 -2.52798e-05 -5.1692e-06
8.84706e-07 -5.1692e-06 -4.41908e-05
0.000327644 3.87505e-05 -2.27439e-06
3.87505e-05 -9.28147e-05 -1.83877e-06
-2.27439e-06 -1.83877e-06 -0.000166596
0.000660914 7.86021e-05 -9.0204e-07
7.86021e-05 0.000153298 -2.82104e-06
-9.0204e-07 -2.82104e-06 2.68937e-05
0.00216957 -3.37853e-05 -2.04279e-05
-3.37853e-05 0.00103541 -4.7859e-06
-2.04279e-05 -4.7859e-06 0.00105171
0.00046461 -2.68929e-06 5.46743e-08
-2.68929e-06 -4.05827e-05 -1.35301e-07
5.46743e-08 -1.35301e-07 -5.42662e-05
0.000131109 1.43677e-05 -1.44124e-06
1.43677e-05 -0.000217193 3.02454e-07
-1.44124e-06 3.02454e-07 -0.000283472
0.00211389 -1.78237e-05 -5.42468e-06
-1.78237e-05 0.00100052 1.26259e-07
-5.42468e-06 1.26259e-07 0.00101803
0.000461288 -1.30699e-06 -2.4105e-06
-1.30699e-06 -4.20793e-05 3.57578e-06
-2.4105e-06 3.57578e-06 -5.27622e-05
0.00207076 -2.32122e-06 1.18159e-05
-2.32122e-06 0.000974237 4.85883e-06
1.18159e-05 4.85883e-06 0.000992052
0.001442 -0.000244146 -5.97528e-05
-0.000244146 0.000137834 3.44662e-05
-5.97528e-05 3.44662e-05 -0.000271308
-0.000669968 -0.000207249 6.42023e-05
-0.000207249 0.00182188 -3.5736e-06
6.42023e-05 -3.5736e-06 0.00100878
-0.000844941 -0.000376723 0.00015588
-0.000376723 0.000636916 -0.000145035
0.00015588 -0.000145035 -0.0036187
0.000123469 4.98083e-05 2.97379e-06
4.98083e-05 -0.000200596 5.07895e-06
2.97379e-06 5.07895e-06 -0.000344093
0.00228391 0.000105598 1.68926e-06
0.000105598 0.00114015 3.0595e-06
1.68926e-06 3.0595e-06 0.000966866
0.000747869 0.000149415 -2.95644e-06
0.000149415 0.000199571 -5.14243e-06
-2.95644e-06 -5.14243e-06 5.59673e-05
0.000375788 7.71771e-05 8.68258e-07
7.71771e-05 -6.33475e-05 9.81579e-07
8.68258e-07 9.81579e-07 -0.000188511
0.000423833 9.42442e-05 4.22687e-07
9.42442e-05 -2.16912e-05 -7.76024e-07
4.22687e-07 -7.76024e-07 -0.00014652
0.000462016 8.90576e-05 6.59235e-06
8.90576e-05 3.83983e-06 2.2671e-06
6.59235e-06 2.2671e-06 -0.000116601
0.000344057 0.000142558 1.20166e-05
0.000142558 -2.77901e-05 7.37299e-06
1.20166e-05 7.37299e-06 -0.000158758
0.00171045 0.00093748 0.00020871
0.00093748 -0.000459321 0.000244989
0.00020871 0.000244989 -0.00178812
0.00487527 -0.000223448 -4.97736e-05
-0.000223448 -0.000211465 5.58553e-05
-4.97736e-05 5.58553e-05 -0.00107878
0.00403149 -0.000703269 0.000203655
-0.000703269 0.00275561 -0.000109214
0.000203655 -0.000109214 0.00147731
0.00786594 -0.000134661 6.85683e-07
-0.000134661 -0.00578478 0.000177692
6.85683e-07 0.000177692 -0.00214601
0.00450552 -0.00281096 -0.00012183
-0.00281096 0.000515285 4.17276e-05
-0.00012183 4.17276e-05 0.000687305
0.00137515 -0.00392455 -0.000266036
-0.00392455 0.00155017 8.22112e-05
-0.000266036 8.22112e-05 -0.00410192
0.015385 0.00419526 0.000126829
0.00419526 0.00718829 -0.000152409
0.000126829 -0.000152409 0.00272423
0.00241173 -0.00232868 -5.88247e-05
-0.00232868 0.000165362 2.31751e-05
-5.88247e-05 2.31751e-05 0.000405538
-0.00130742 -0.00082402 -5.52775e-05
-0.00082402 0.00381819 5.27327e-05
-5.52775e-05 5.27327e-05 -0.00313796
0.0082341 0.000566385 0.000198415
0.000566385 0.00332316 -2.70124e-05
0.000198415 -2.70124e-05 -0.000129313
0.0152588 -0.0020512 -7.43645e-05
-0.0020512 0.00198997 -1.79269e-05
-7.43645e-05 -1.79269e-05 0.00324546
-0.000937851 -0.000577957 -0.000189908
-0.000577957 0.000455785 0.000145307
-0.000189908 0.000145307 0.00039344
0.00338117 0.00206043 -0.000189613
0.00206043 0.0052957 -9.52913e-05
-0.000189613 -9.52913e-05 -0.00180531
-0.00178171 -0.00503396 3.92815e-06
-0.00503396 -0.000406731 -0.000246166
3.92815e-06 -0.000246166 -0.00532591
0.0135208 -0.00287197 0.000126157
-0.00287197 0.00362523 -0.000622647
0.000126157 -0.000622647 0.00212754
0.000704996 2.0277e-05 1.32986e-05
2.0277e-05 0.000367073 1.72271e-06
1.32986e-05 1.72271e-06 0.000138572
0.000809287 0.000181088 -1.12507e-06
0.000181088 0.000300968 -3.6587e-06
-1.12507e-06 -3.6587e-06 0.000137021
0.000971802 -1.93999e-05 2.48274e-07
-1.93999e-05 0.000444452 -3.18788e-06
2.48274e-07 -3.18788e-06 0.000190466
0.00105417 0.000159635 -4.35978e-06
0.000159635 0.00041086 -9.85851e-06
-4.35978e-06 -9.85851e-06 0.000236376
0.000678175 -0.00102444 3.47731e-05
-0.00102444 -1.02378e-05 3.17073e-05
3.47731e-05 3.17073e-05 -0.000393625
0.00265759 -0.000335572 2.16166e-06
-0.000335572 0.00160942 -2.81904e-05
2.16166e-06 -2.81904e-05 0.00118382
0.000880837 0.000101097 -1.03506e-05
0.000101097 0.000441984 -1.3659e-05
-1.03506e-05 -1.3659e-05 0.000242302
0.000199659 5.09373e-05 -7.27868e-07
5.09373e-05 0.00011036 -8.09804e-06
-7.27868e-07 -8.09804e-06 -0.000124592
0.000442765 -1.41721e-05 -2.58428e-06
-1.41721e-05 0.000614632 1.53024e-05
-2.58428e-06 1.53024e-05 0.000162564
0.000372797 5.97413e-05 2.46214e-06
5.97413e-05 0.000163604 4.71839e-06
2.46214e-06 4.71839e-06 -2.06875e-05
0.000123471 7.22823e-05 4.01468e-06
7.22823e-05 0.000505947 1.96378e-06
4.01468e-06 1.96378e-06 3.498e-05
0.00101498 -0.000428773 -1.02717e-07
-0.000428773 0.00129046 4.64486e-06
-1.02717e-07 4.64486e-06 0.000149474
0.000174654 -0.000120405 9.49803e-06
-0.000120405 0.000703033 6.17135e-07
9.49803e-06 6.17135e-07 0.000289123
-0.000929882 8.00211e-05 1.88037e-06
8.00211e-05 -0.000421222 -1.2976e-05
1.88037e-06 -1.2976e-05 -0.000652963
0.00198238 -1.56801e-06 -9.55425e-05
-1.56801e-06 0.00351599 -2.97924e-05
-9.55425e-05 -2.97924e-05 0.00173983
0.000736317 0.000303878 -3.31877e-05
0.000303878 0.00101847 1.47967e-05
-3.31877e-05 1.47967e-05 0.000482657
-0.00180636 6.02586e-05 -7.70439e-05
6.02586e-05 0.00156358 -1.37818e-05
-7.70439e-05 -1.37818e-05 0.00053156
0.0009232 5.32076e-05 1.43501e-05
5.32076e-05 -8.77546e-05 5.40604e-06
1.43501e-05 5.40604e-06 -0.000539916
-0.0026187 0.000248947 -1.51621e-05
0.000248947 0.000844421 -5.9232e-05
-1.51621e-05 -5.9232e-05 -5.96632e-05
0.000247455 0.000261969 -2.30389e-05
0.000261969 0.000604339 7.0144e-06
-2.30389e-05 7.0144e-06 0.000237503
-0.0014386 0.000797208 0.000137855
0.000797208 -0.000130968 0.000105975
0.000137855 0.000105975 -0.000871156
0.00069183 2.49499e-05 6.05326e-05
2.49499e-05 8.92016e-05 -6.74138e-06
6.05326e-05 -6.74138e-06 -6.65768e-05
0.00549117 -0.00206236 0.000229685
-0.00206236 0.00563479 -0.00017607
0.000229685 -0.00017607 -0.00251572
0.0178028 0.00364618 -0.000170235
0.00364618 0.0078404 0.000150623
-0.000170235 0.000150623 0.00346335
0.00332412 -0.000618782 -0.000185443
-0.000618782 0.00220983 0.000113501
-0.000185443 0.000113501 0.00107072
0.0129276 0.00452839 -7.41047e-05
0.00452839 0.00500246 -0.000213465
-7.41047e-05 -0.000213465 0.00219564
0.000450699 0.000206039 -5.68668e-05
0.000206039 0.00116293 1.46238e-05
-5.68668e-05 1.46238e-05 0.000188033
4.23985e-05 -0.000195568 -7.39116e-05
-0.000195568 0.00181867 1.12866e-06
-7.39116e-05 1.12866e-06 0.00125977
0.00327315 -0.00137756 0.000268779
-0.00137756 0.00153862 -3.53735e-05
0.000268779 -3.53735e-05 -0.0031644
-0.00253599 -0.000124972 4.4965e-05
-0.000124972 -0.00050004 3.06186e-05
4.4965e-05 3.06186e-05 -0.000929257
0.0124819 0.0079723 0.000576221
0.0079723 0.00903884 -0.000259268
0.000576221 -0.000259268 0.00597511
0.00762045 0.00296825 -0.000160597
0.00296825 0.00297125 0.000355892
-0.000160597 0.000355892 -0.00121731
-0.00284861 -0.00122208 0.000165563
-0.00122208 0.00271695 -0.000135799
0.000165563 -0.000135799 -0.00469927
-0.000692455 -0.00038597 2.23304e-05
-0.00038597 0.000539305 -2.78802e-05
2.23304e-05 -2.78802e-05 -0.000439523
0.000262462 -0.000728196 0.000276667
-0.000728196 -0.00019569 -6.76172e-05
0.000276667 -6.76172e-05 -0.00332526
-0.000929047 0.00048747 -0.0011145
0.00048747 0.00660974 0.000302356
-0.0011145 0.000302356 0.00278221
0.0170879 0.00669569 -0.000557353
0.00669569 0.00529857 0.000537821
-0.000557353 0.000537821 0.00157343
0.00823028 -0.00331255 -0.000152269
-0.00331255 0.0034306 5.32364e-05
-0.000152269 5.32364e-05 -0.000194672
0.00275652 -0.00142691 1.66081e-05
-0.00142691 0.00249425 6.43819e-06
1.66081e-05 6.43819e-06 0.00168336
0.000397327 -5.8738e-05 5.23378e-06
-5.8738e-05 0.00058709 -1.36564e-06
5.23378e-06 -1.36564e-06 0.000176445
6.86171e-05 -0.000361665 6.94605e-07
-0.000361665 0.000356649 -9.84537e-07
6.94605e-07 -9.84537e-07 -0.000164043
0.000229182 -0.000640822 2.51325e-06
-0.000640822 0.000146115 -1.93303e-06
2.51325e-06 -1.93303e-06 -0.000132732
-0.000470483 -0.000215771 1.13308e-06
-0.000215771 7.58111e-05 7.58752e-06
1.13308e-06 7.58752e-06 -0.000280276
-0.00058241 -0.000377397 1.5257e-06
-0.000377397 -0.000345311 -5.04865e-07
1.5257e-06 -5.04865e-07 -0.000620182
0.00291647 -0.000851972 3.816e-05
-0.000851972 0.00120343 -1.17055e-05
3.816e-05 -1.17055e-05 0.000832166
0.00642464 -0.00118579 -1.29546e-05
-0.00118579 0.00335589 -6.62459e-07
-1.29546e-05 -6.62459e-07 0.00288575
0.00277378 -0.000777313 9.79413e-06
-0.000777313 0.00124798 -2.2962e-06
9.79413e-06 -2.2962e-06 0.000636494
0.0015916 -0.000779876 6.63124e-06
-0.000779876 0.000362959 -1.51643e-05
6.63124e-06 -1.51643e-05 -0.000251004
0.00219604 -0.000640788 -9.95434e-06
-0.000640788 0.000802746 -6.65733e-06
-9.95434e-06 -6.65733e-06 0.000351041
0.00228386 -0.000801503 2.16842e-06
-0.000801503 0.000760811 -1.34755e-06
2.16842e-06 -1.34755e-06 0.000191869
0.00252217 -0.000896401 -1.31378e-06
-0.000896401 0.000799424 -1.05956e-05
-1.31378e-06 -1.05956e-05 0.000236616
0.00214089 -0.000735127 -6.28609e-06
-0.000735127 0.000384853 -4.79734e-06
-6.28609e-06 -4.79734e-06 -5.69223e-06
0.00244037 -0.000878407 -7.77233e-06
-0.000878407 0.000691049 1.45367e-06
-7.77233e-06 1.45367e-06 0.000217243
0.00227448 -0.000863974 -2.81964e-06
-0.000863974 0.000617751 -1.03544e-07
-2.81964e-06 -1.03544e-07 0.000114599
0.00172564 -0.000656384 8.74469e-06
-0.000656384 0.000493249 -3.38937e-06
8.74469e-06 -3.38937e-06 8.39168e-05
0.00151736 -0.000647269 2.65671e-06
-0.000647269 0.000343556 -7.47135e-07
2.65671e-06 -7.47135e-07 -7.7851e-05
0.00150985 -0.00062404 3.6759e-06
-0.00062404 0.000337092 -5.6748e-08
3.6759e-06 -5.6748e-08 -0.000104246
0.0017106 -0.000453767 8.15151e-06
-0.000453767 0.000602594 3.85532e-06
8.15151e-06 3.85532e-06 0.000286227
0.00141326 -0.000480055 -1.24393e-06
-0.000480055 0.000386508 -1.98583e-06
-1.24393e-06 -1.98583e-06 3.94522e-05
0.00153073 -0.000545304 5.95622e-06
-0.000545304 0.0003856 1.96762e-06
5.95622e-06 1.96762e-06 9.39592e-06
0.00115957 -0.000215629 2.25095e-06
-0.000215629 0.000442129 -5.00837e-06
2.25095e-06 -5.00837e-06 0.000167827
0.00069961 -0.000245637 -2.88842e-06
-0.000245637 7.90933e-05 2.06767e-06
-2.88842e-06 2.06767e-06 -0.000164694
0.0009156 -0.000373122 -3.08886e-07
-0.000373122 0.000112989 -1.02005e-05
-3.08886e-07 -1.02005e-05 -0.000177446
1.90662e-05 -6.37e-05 -1.20464e-06
-6.37e-05 -0.000280657 5.15257e-06
-1.20464e-06 5.15257e-06 -0.000432339
0.000754769 -0.000114845 8.74807e-09
-0.000114845 0.000235524 9.03892e-07
8.74807e-09 9.03892e-07 -1.295e-05
0.00108237 -0.000286043 2.74541e-06
-0.000286043 0.000455679 2.06469e-06
2.74541e-06 2.06469e-06 0.000177337
0.000352035 -6.70563e-06 -5.19381e-06
-6.70563e-06 -9.46664e-05 1.42461e-05
-5.19381e-06 1.42461e-05 -0.00014155
0.000651792 -6.48455e-05 7.75192e-07
-6.48455e-05 0.000104894 1.24275e-07
7.75192e-07 1.24275e-07 -1.67255e-05
0.00134498 -0.000189128 -1.78864e-06
-0.000189128 0.000574526 1.89358e-06
-1.78864e-06 1.89358e-06 0.000376011
0.000640475 -5.60037e-05 -7.53828e-07
-5.60037e-05 0.000105384 -5.81592e-06
-7.53828e-07 -5.81592e-06 -3.12931e-06
0.000444387 1.39027e-05 -4.52547e-07
1.39027e-05 -3.27945e-05 -4.41005e-07
-4.52547e-07 -4.41005e-07 -7.36733e-05
0.00289565 0.000122737 -3.81449e-05
0.000122737 0.00151619 4.62513e-06
-3.81449e-05 4.62513e-06 0.00151449
0.00052041 5.90181e-06 1.39382e-06
5.90181e-06 4.65315e-06 -7.65751e-06
1.39382e-06 -7.65751e-06 -2.77922e-05
0.00274597 0.000100161 4.68189e-06
0.000100161 0.00141271 5.42301e-07
4.68189e-06 5.42301e-07 0.00141652
0.00265011 7.96129e-05 3.17021e-05
7.96129e-05 0.00134565 -4.82391e-06
3.17021e-05 -4.82391e-06 0.00135331
0.000946048 9.0545e-05 3.5447e-06
9.0545e-05 0.000400654 -4.84336e-06
3.5447e-06 -4.84336e-06 0.000194389
0.000982313 0.000142872 6.6662e-06
0.000142872 0.000381264 5.37155e-07
6.6662e-06 5.37155e-07 0.000208923
0.000571798 4.07422e-05 3.12891e-06
4.07422e-05 5.65911e-05 -3.34086e-06
3.12891e-06 -3.34086e-06 -3.28888e-05
0.000603015 0.000104912 2.43981e-07
0.000104912 0.00010836 -2.56369e-07
2.43981e-07 -2.56369e-07 -2.55781e-05
0.000469383 1.50317e-06 4.9851e-07
1.50317e-06 -3.40132e-05 -6.3529e-06
4.9851e-07 -6.3529e-06 -5.83217e-05
0.000531125 5.0694e-05 2.17438e-07
5.0694e-05 3.45088e-05 -1.46701e-07
2.17438e-07 -1.46701e-07 -4.58841e-05
0.000572457 5.55006e-05 -4.18095e-06
5.55006e-05 8.04998e-05 -2.18787e-06
-4.18095e-06 -2.18787e-06 -4.31781e-05
0.00231222 -4.98548e-05 -2.65089e-05
-4.98548e-05 0.00112686 -4.95954e-06
-2.65089e-05 -4.95954e-06 0.00114084
0.000472808 -5.03183e-07 -7.64796e-07
-5.03183e-07 -3.40896e-05 -1.61555e-07
-7.64796e-07 -1.61555e-07 -5.24983e-05
0.000474561 5.61067e-05 -3.31762e-06
5.61067e-05 8.31459e-07 1.05349e-07
-3.31762e-06 1.05349e-07 -7.25218e-05
0.00217242 -3.31306e-05 -4.75131e-06
-3.31306e-05 0.00103717 2.31334e-07
-4.75131e-06 2.31334e-07 0.00105356
0.000470456 -2.05301e-06 -2.46697e-06
-2.05301e-06 -3.74616e-05 3.93021e-06
-2.46697e-06 3.93021e-06 -5.0782e-05
0.00210213 -1.71968e-05 1.58154e-05
-1.71968e-05 0.000992954 4.71455e-06
1.58154e-05 4.71455e-06 0.00101051
-0.00231067 0.000192159 -1.44092e-05
0.000192159 0.000266529 -3.9406e-05
-1.44092e-05 -3.9406e-05 -0.000112513
0.00146752 -0.000199008 -1.54834e-05
-0.000199008 0.000317127 7.67077e-06
-1.54834e-05 7.67077e-06 8.40623e-05
-1.82729e-05 -0.000205683 8.37174e-06
-0.000205683 0.00168649 -3.76658e-05
8.37174e-06 -3.76658e-05 0.00103089
0.000810097 0.000101846 -5.00523e-08
0.000101846 0.000272745 6.48793e-07
-5.00523e-08 6.48793e-07 9.48212e-05
0.000238316 8.59162e-05 5.54627e-06
8.59162e-05 -0.000127925 -1.64824e-06
5.54627e-06 -1.64824e-06 -0.000288251
-0.00161758 -1.2541e-05 -3.37385e-06
-1.2541e-05 -0.00127424 -8.25197e-06
-3.37385e-06 -8.25197e-06 -0.00142136
-0.000634084 2.33529e-05 2.30354e-07
2.33529e-05 -0.000642748 1.45023e-05
2.30354e-07 1.45023e-05 -0.000790104
0.00286463 0.000398802 -2.33948e-06
0.000398802 0.00153043 -5.96649e-07
-2.33948e-06 -5.96649e-07 0.00127035
0.000893439 4.55674e-05 -5.73965e-06
4.55674e-05 0.000249647 -4.8084e-06
-5.73965e-06 -4.8084e-06 0.000125414
0.000453739 0.000102876 -8.11222e-06
0.000102876 -5.12405e-06 -1.00951e-05
-8.11222e-06 -1.00951e-05 -0.00012386
0.000785247 6.51863e-05 4.30214e-07
6.51863e-05 0.000205791 -4.5679e-07
4.30214e-07 -4.5679e-07 8.40319e-05
0.000992082 0.00016571 -7.83574e-07
0.00016571 0.000358328 -2.35315e-06
-7.83574e-07 -2.35315e-06 0.000229915
0.000904418 0.000125703 7.73356e-06
0.000125703 0.000449079 -1.53047e-05
7.73356e-06 -1.53047e-05 0.000229534
0.00547446 0.000951394 0.000394953
0.000951394 0.00393676 0.000484652
0.000394953 0.000484652 -0.000755843
0.00226603 0.000758684 2.08029e-05
0.000758684 6.89185e-05 8.88425e-05
2.08029e-05 8.88425e-05 -0.00149665
0.00426511 -0.000163713 4.00247e-05
-0.000163713 -0.000214023 -1.95729e-05
4.00247e-05 -1.95729e-05 -0.000644961
0.0140164 -0.00174461 -0.000270937
-0.00174461 0.00214338 -0.000128061
-0.000270937 -0.000128061 0.00378941
-0.00334444 0.00145877 7.49173e-05
0.00145877 -0.00225105 0.000423679
7.49173e-05 0.000423679 -0.00680916
0.00179439 -0.00226656 -5.77145e-05
-0.00226656 0.000423199 -3.43238e-05
-5.77145e-05 -3.43238e-05 0.000461451
0.00838472 -0.00210059 -0.000130899
-0.00210059 0.00516999 3.6453e-05
-0.000130899 3.6453e-05 2.81143e-06
0.000934986 -0.000949797 -9.31991e-05
-0.000949797 0.000842611 0.000110841
-9.31991e-05 0.000110841 0.000507131
0.00954917 -9.09078e-05 -0.000156769
-9.09078e-05 0.0064114 2.32259e-06
-0.000156769 2.32259e-06 -4.7024e-05
0.00534844 -0.00262198 9.89978e-05
-0.00262198 0.00357318 0.000185833
9.89978e-05 0.000185833 -0.00125077
0.0163011 -0.00412982 -0.000142813
-0.00412982 0.00289299 -0.000721153
-0.000142813 -0.000721153 0.000927914
0.00280062 9.22581e-06 -0.000136369
9.22581e-06 0.00294097 0.000112216
-0.000136369 0.000112216 0.00184068
0.0131055 0.00259182 -0.000193821
0.00259182 0.00732995 8.02168e-06
-0.000193821 8.02168e-06 0.00219788
0.0196221 -0.00642932 -0.000154229
-0.00642932 0.00970756 -0.000710742
-0.000154229 -0.000710742 0.00522545
0.0223343 -0.0082848 8.45213e-05
-0.0082848 0.0088089 -7.11025e-05
8.45213e-05 -7.11025e-05 0.00615876
0.000955652 0.000304862 1.37769e-05
0.000304862 0.000554389 -1.14914e-06
1.37769e-05 -1.14914e-06 0.000253269
-1.37737e-06 4.89326e-05 3.2858e-06
4.89326e-05 5.96465e-06 2.89797e-06
3.2858e-06 2.89797e-06 -0.000266796
0.000919214 0.000182086 -1.1816e-05
0.000182086 0.000386735 -1.42906e-05
-1.1816e-05 -1.42906e-05 0.000207973
0.00291704 -0.00061104 3.68359e-05
-0.00061104 0.00186138 2.43391e-05
3.68359e-05 2.43391e-05 0.000531818
-2.48378e-05 -0.000102542 1.67259e-05
-0.000102542 0.000751884 -3.82474e-05
1.67259e-05 -3.82474e-05 0.000282427
-4.00696e-06 5.60574e-05 -4.81621e-06
5.60574e-05 -6.81781e-05 2.04777e-06
-4.81621e-06 2.04777e-06 -0.000248246
-0.000660357 -2.41985e-05 1.64747e-05
-2.41985e-05 7.01573e-05 -8.37327e-06
1.64747e-05 -8.37327e-06 -0.000426852
-2.6655e-05 0.000111138 -6.40589e-07
0.000111138 9.4858e-05 -5.84657e-07
-6.40589e-07 -5.84657e-07 -0.000150498
0.000364328 0.0003284 1.42542e-05
0.0003284 0.000658336 1.14935e-06
1.42542e-05 1.14935e-06 0.000113797
-0.00211665 -6.86214e-05 0.000260701
-6.86214e-05 0.000892662 -2.23357e-05
0.000260701 -2.23357e-05 -0.000970083
-0.0010256 0.000363481 -5.3532e-06
0.000363481 -0.000534933 1.2129e-05
-5.3532e-06 1.2129e-05 -0.00090984
0.00287991 0.000924181 -0.000144825
0.000924181 0.00223199 -7.88516e-05
-0.000144825 -7.88516e-05 0.000829655
0.00127394 0.000194642 0.00018097
0.000194642 0.00170916 6.10758e-05
0.00018097 6.10758e-05 -0.00234912
-0.00213413 0.000181627 -5.81229e-05
0.000181627 0.00129201 1.53458e-05
-5.81229e-05 1.53458e-05 0.000188483
0.00232618 -0.000237208 -2.66052e-05
-0.000237208 0.000628033 -2.767e-06
-2.66052e-05 -2.767e-06 0.000773951
-0.000644178 0.000511089 0.000124216
0.000511089 0.000416531 1.28065e-05
0.000124216 1.28065e-05 -0.000631281
0.00127817 0.000307915 -9.97351e-05
0.000307915 0.00227652 9.66602e-05
-9.97351e-05 9.66602e-05 0.000906705
-0.000234623 -0.000253856 -9.60228e-06
-0.000253856 0.00158971 -7.02147e-06
-9.60228e-06 -7.02147e-06 0.000858483
0.0164853 -0.00400126 0.000226115
-0.00400126 0.00828064 -0.00010673
0.000226115 -0.00010673 0.00219753
0.0231934 0.00461749 -0.000145239
0.00461749 0.0103858 -0.000153654
-0.000145239 -0.000153654 0.00565554
0.00496525 -0.00156555 -0.000258865
-0.00156555 0.00250381 0.000249175
-0.000258865 0.000249175 -0.00200556
0.00498955 0.00914119 0.00244871
0.00914119 0.00476587 -0.0015398
0.00244871 -0.0015398 0.00160269
0.0011652 -0.000497281 3.86163e-05
-0.000497281 0.0014791 -1.1724e-05
3.86163e-05 -1.1724e-05 0.000420091
-0.000298358 -0.000526055 4.38563e-05
-0.000526055 0.000384553 1.34954e-05
4.38563e-05 1.34954e-05 -0.00333478
-0.000121851 0.000908455 -0.00114129
0.000908455 0.00631535 0.000335049
-0.00114129 0.000335049 0.00213927
0.000697336 -0.000817895 1.07613e-05
-0.000817895 0.00125868 3.18349e-05
1.07613e-05 3.18349e-05 0.000545892
0.0193929 0.00605914 0.00034895
0.00605914 0.00612194 9.54732e-05
0.00034895 9.54732e-05 0.00233334
0.00743239 -0.00478054 0.000192847
-0.00478054 0.00244888 -7.58212e-05
0.000192847 -7.58212e-05 -0.00149013
0.00106494 -0.00120757 -7.77628e-06
-0.00120757 0.000743378 2.94138e-05
-7.77628e-06 2.94138e-05 -5.43624e-05
-0.00629847 -0.00172964 0.000142271
-0.00172964 0.00548625 -7.77282e-05
0.000142271 -7.77282e-05 0.00148763
0.0156696 0.00585027 -0.00152208
0.00585027 0.00614784 0.000517483
-0.00152208 0.000517483 0.00316202
0.00632849 -0.00354699 -0.000437882
-0.00354699 -0.000414112 0.000188137
-0.000437882 0.000188137 -0.00372083
0.00112976 -0.00194446 0.000189047
-0.00194446 3.85621e-05 -0.000120779
0.000189047 -0.000120779 0.000939369
0.00107622 -0.000508092 -9.84896e-05
-0.000508092 0.000805006 3.26634e-05
-9.84896e-05 3.26634e-05 0.000338598
0.000660778 -0.000577113 -5.18434e-06
-0.000577113 0.000426191 1.14911e-05
-5.18434e-06 1.14911e-05 8.51748e-05
0.00315126 -0.000893953 1.91551e-05
-0.000893953 0.00143567 -1.22475e-05
1.91551e-05 -1.22475e-05 0.00105626
-0.00161477 -0.000187645 7.95226e-06
-0.000187645 -0.000754604 1.01487e-05
7.95226e-06 1.01487e-05 -0.00102788
0.00131419 -0.000646839 4.50015e-06
-0.000646839 0.000375808 -2.93052e-06
4.50015e-06 -2.93052e-06 1.91424e-05
0.00312874 -0.000979445 9.55213e-06
-0.000979445 0.00100246 -1.45767e-06
9.55213e-06 -1.45767e-06 0.000605051
0.00416773 -0.00095446 -2.82741e-05
-0.00095446 0.00194931 2.54944e-06
-2.82741e-05 2.54944e-06 0.00134579
0.00138226 -0.000726461 -7.43749e-07
-0.000726461 0.000237965 -1.25673e-06
-7.43749e-07 -1.25673e-06 -0.000352703
0.00183742 -0.000900016 1.44122e-06
-0.000900016 0.000242499 -1.1877e-05
1.44122e-06 -1.1877e-05 -0.000227854
0.00280052 -0.000875158 1.31109e-06
-0.000875158 0.0010249 4.84143e-06
1.31109e-06 4.84143e-06 0.000440824
0.00221839 -0.000864156 1.33036e-06
-0.000864156 0.000605879 -4.48694e-06
1.33036e-06 -4.48694e-06 6.28212e-05
0.00261122 -0.000795924 -7.03405e-07
-0.000795924 0.000600959 -9.9635e-06
-7.03405e-07 -9.9635e-06 0.000213231
0.00173453 -0.000512108 -5.62485e-06
-0.000512108 -4.52233e-06 -2.81066e-06
-5.62485e-06 -2.81066e-06 -0.000252393
0.0018988 -0.000735288 -1.8843e-06
-0.000735288 0.000192778 -1.50427e-06
-1.8843e-06 -1.50427e-06 -0.000196321
0.002135 -0.000736366 2.97982e-06
-0.000736366 0.000372508 -2.87158e-06
2.97982e-06 -2.87158e-06 -1.61278e-05
0.00227704 -0.000772021 -3.45102e-06
-0.000772021 0.000659055 -7.77708e-07
-3.45102e-06 -7.77708e-07 0.000234262
0.00239241 -0.000872309 -3.03966e-06
-0.000872309 0.000673632 3.46352e-08
-3.03966e-06 3.46352e-08 0.000195523
0.002513 -0.000894632 7.63086e-06
-0.000894632 0.000744481 -3.93867e-06
7.63086e-06 -3.93867e-06 0.000231335
0.00190492 -0.00057592 7.15116e-06
-0.00057592 0.00065768 3.35603e-07
7.15116e-06 3.35603e-07 0.000284421
0.00141348 -0.000611365 2.35929e-06
-0.000611365 0.000319662 -3.51148e-07
2.35929e-06 -3.51148e-07 -7.5947e-05
0.00128901 -0.000612387 2.40917e-06
-0.000612387 0.000212789 1.89866e-06
2.40917e-06 1.89866e-06 -0.000193661
0.0013694 -0.000348323 -5.47708e-08
-0.000348323 0.000454968 -3.94573e-07
-5.47708e-08 -3.94573e-07 0.00018626
0.0012086 -0.000387935 9.92224e-07
-0.000387935 0.000306207 -3.70573e-07
9.92224e-07 -3.70573e-07 5.21854e-06
0.0014198 -0.000477154 -6.19191e-06
-0.000477154 0.000395399 1.76823e-07
-6.19191e-06 1.76823e-07 4.63213e-05
-0.000324853 -9.69598e-05 -2.20612e-06
-9.69598e-05 -0.000487207 1.6299e-06
-2.20612e-06 1.6299e-06 -0.00070243
0.000706567 -0.000227207 2.81638e-08
-0.000227207 0.000171568 -4.63557e-07
2.81638e-08 -4.63557e-07 -0.000107308
0.00113008 -0.000288969 -4.73906e-06
-0.000288969 0.000368599 1.60938e-06
-4.73906e-06 1.60938e-06 0.000116229
0.00181708 2.41241e-05 -4.62544e-05
2.41241e-05 0.000836498 8.9457e-06
-4.62544e-05 8.9457e-06 0.000786788
0.000714798 -0.000111086 8.88677e-08
-0.000111086 0.000144325 -4.86217e-07
8.88677e-08 -4.86217e-07 -1.43673e-05
0.00133471 -0.00017236 -1.01652e-06
-0.00017236 0.000595739 3.7733e-06
-1.01652e-06 3.7733e-06 0.000340158
0.000726888 3.52539e-05 -5.0862e-05
3.52539e-05 0.000147201 6.1929e-06
-5.0862e-05 6.1929e-06 0.000136569
0.0011589 1.54657e-05 -1.69178e-05
1.54657e-05 0.000416419 -6.03187e-07
-1.69178e-05 -6.03187e-07 0.000370636
0.000818601 -7.95984e-05 2.49192e-06
-7.95984e-05 0.000203345 -7.01945e-06
2.49192e-06 -7.01945e-06 8.06831e-05
0.000595061 7.19355e-06 2.19785e-06
7.19355e-06 5.76152e-05 -9.75908e-06
2.19785e-06 -9.75908e-06 1.72632e-05
0.00297451 0.000123398 8.1638e-06
0.000123398 0.00156594 7.36558e-07
8.1638e-06 7.36558e-07 0.00156419
0.00274906 0.000100431 3.59086e-05
0.000100431 0.00141485 -4.67437e-06
3.59086e-05 -4.67437e-06 0.00141876
0.00093987 0.00014691 1.14908e-05
0.00014691 0.000374617 -1.78456e-06
1.14908e-05 -1.78456e-06 0.000147443
0.0013494 0.000173124 4.70526e-06
0.000173124 0.000628479 -1.6396e-06
4.70526e-06 -1.6396e-06 0.000420976
-6.13935e-05 5.12331e-05 5.31664e-07
5.12331e-05 -0.000256878 5.6706e-07
5.31664e-07 5.6706e-07 -0.000438112
0.000677913 4.40003e-05 3.22303e-06
4.40003e-05 0.000126049 -4.77234e-06
3.22303e-06 -4.77234e-06 2.27534e-05
0.000789988 0.000113267 6.77983e-07
0.000113267 0.000244656 1.7906e-07
6.77983e-07 1.7906e-07 8.51761e-05
0.000462976 9.82702e-06 -1.67271e-06
9.82702e-06 -3.26107e-05 -7.92514e-06
-1.67271e-06 -7.92514e-06 -6.25582e-05
0.000548362 4.39728e-05 -1.05159e-07
4.39728e-05 4.58207e-05 -4.02573e-07
-1.05159e-07 -4.02573e-07 -4.48427e-05
0.000711535 6.34009e-05 -3.64781e-06
6.34009e-05 0.000200478 -3.64078e-07
-3.64781e-06 -3.64078e-07 4.95793e-05
0.00254909 -6.83794e-05 -3.49751e-05
-6.83794e-05 0.00128023 -4.91749e-06
-3.49751e-05 -4.91749e-06 0.00129088
0.000451006 3.2777e-06 -6.13829e-07
3.2777e-06 -4.4726e-05 -1.38889e-07
-6.13829e-07 -1.38889e-07 -6.8887e-05
0.000548701 5.51395e-05 -9.37374e-07
5.51395e-05 4.68696e-05 2.48621e-06
-9.37374e-07 2.48621e-06 -3.40807e-05
0.00233306 -5.03592e-05 -6.03857e-06
-5.03592e-05 0.00114006 3.62497e-07
-6.03857e-06 3.62497e-07 0.00115394
0.000436106 -1.06669e-05 -4.21002e-06
-1.06669e-05 -5.67961e-05 4.85686e-06
-4.21002e-06 4.85686e-06 -7.49067e-05
0.00219882 -3.19476e-05 2.13699e-05
-3.19476e-05 0.00105378 4.67404e-06
2.13699e-05 4.67404e-06 0.00107026
0.00652728 0.000650587 0.000328428
0.000650587 0.00376683 7.25242e-05
0.000328428 7.25242e-05 0.00149351
-0.00200454 0.00013204 -2.87613e-06
0.00013204 0.000226801 -7.34756e-06
-2.87613e-06 -7.34756e-06 -0.000392764
0.000606374 0.000110327 -1.2836e-05
0.000110327 0.000401109 -8.80982e-06
-1.2836e-05 -8.80982e-06 9.16223e-05
-0.00050874 0.000102325 -8.17719e-06
0.000102325 -0.000649354 2.26292e-06
-8.17719e-06 2.26292e-06 -0.000802391
0.000300081 5.46804e-05 -6.21612e-06
5.46804e-05 -6.75249e-05 -3.55753e-06
-6.21612e-06 -3.55753e-06 -0.000222777
-0.000166734 5.38167e-05 -1.11116e-06
5.38167e-05 -0.000374076 -4.5178e-06
-1.11116e-06 -4.5178e-06 -0.000530618
0.00128565 7.39774e-05 1.6477e-06
7.39774e-05 0.000528649 -9.08979e-08
1.6477e-06 -9.08979e-08 0.000371166
0.000141855 9.61139e-05 -2.63135e-06
9.61139e-05 -0.00021319 -2.77743e-06
-2.63135e-06 -2.77743e-06 -0.000364696
0.00213472 0.000301026 -4.55874e-06
0.000301026 0.00108579 -3.9334e-06
-4.55874e-06 -3.9334e-06 0.000881247
0.00100492 0.000250692 -6.82764e-06
0.000250692 0.000336736 -1.48009e-05
-6.82764e-06 -1.48009e-05 2.95591e-05
-0.00114168 0.000100075 2.73383e-07
0.000100075 -0.000677192 8.91197e-07
2.73383e-07 8.91197e-07 -0.00101731
0.000682031 0.000139095 -6.19246e-06
0.000139095 0.000168742 -3.95914e-06
-6.19246e-06 -3.95914e-06 3.06128e-05
6.46493e-05 5.55449e-05 -9.64888e-06
5.55449e-05 -0.000265419 -8.34386e-06
-9.64888e-06 -8.34386e-06 -0.000355999
-0.000100302 4.23893e-05 -7.26853e-08
4.23893e-05 -0.000178173 1.27078e-06
-7.26853e-08 1.27078e-06 -0.00038589
0.000943746 0.000298179 1.66119e-05
0.000298179 0.000612435 -1.46507e-06
1.66119e-05 -1.46507e-06 0.000220176
0.00338371 -0.00309404 0.000126329
-0.00309404 0.00587437 0.000252064
0.000126329 0.000252064 0.000368521
0.00627674 0.00132657 0.000136753
0.00132657 0.00321006 0.000170819
0.000136753 0.000170819 -0.00190453
0.00307589 0.000494942 -3.43396e-05
0.000494942 0.000608159 -7.92724e-05
-3.43396e-05 -7.92724e-05 -0.00118887
0.0243514 -0.0052605 -0.000737264
-0.0052605 0.00660378 -0.000375129
-0.000737264 -0.000375129 0.00432377
0.00578523 -0.00170539 0.000276418
-0.00170539 0.0037969 0.000492788
0.000276418 0.000492788 0.000271777
0.0036116 -0.00162837 -0.000250627
-0.00162837 0.00507139 0.000100491
-0.000250627 0.000100491 -0.00209651
-0.001202 -0.000510568 0.000126612
-0.000510568 0.00104076 1.73102e-05
0.000126612 1.73102e-05 0.000105267
-0.000504526 -0.000153092 9.65339e-05
-0.000153092 0.00101263 5.36663e-05
9.65339e-05 5.36663e-05 0.000317245
0.0145046 -0.00864355 0.000458444
-0.00864355 0.00685544 0.000431492
0.000458444 0.000431492 0.00393698
0.0016326 0.00147689 -9.73018e-05
0.00147689 0.00409892 -8.3959e-05
-9.73018e-05 -8.3959e-05 -0.00235703
0.00809461 -0.0037394 -0.000130036
-0.0037394 0.00375632 0.000104441
-0.000130036 0.000104441 -0.00131934
0.000514155 0.00071451 -1.6189e-05
0.00071451 0.00110135 6.72674e-05
-1.6189e-05 6.72674e-05 0.000740621
0.0117005 0.00395862 -0.000112267
0.00395862 0.00394202 5.31694e-06
-0.000112267 5.31694e-06 0.000167533
0.0149314 -0.00662347 -0.000824086
-0.00662347 0.00460817 -0.000505448
-0.000824086 -0.000505448 0.000577408
-0.000139636 0.000470029 2.5501e-06
0.000470029 -0.000475842 -4.92948e-06
2.5501e-06 -4.92948e-06 -0.000621621
0.000517949 0.00017444 7.81916e-06
0.00017444 0.00025638 3.97034e-06
7.81916e-06 3.97034e-06 1.66896e-05
1.15889e-05 5.89836e-05 -9.59245e-06
5.89836e-05 -9.01805e-06 -4.99072e-06
-9.59245e-06 -4.99072e-06 -0.000265017
-0.00401482 -0.000360409 -0.00012152
-0.000360409 -0.000305776 -6.49693e-05
-0.00012152 -6.49693e-05 -0.00209426
-0.00065939 0.000243212 1.69127e-05
0.000243212 -9.25521e-05 -2.04231e-05
1.69127e-05 -2.04231e-05 -0.000610922
0.00163314 0.000203617 -4.16203e-06
0.000203617 0.00103777 1.34664e-05
-4.16203e-06 1.34664e-05 0.000787954
0.00117216 0.000655033 1.40992e-05
0.000655033 0.000607251 3.03508e-06
1.40992e-05 3.03508e-06 0.000209833
-0.000423647 0.000507258 4.20114e-05
0.000507258 0.000660419 -2.97569e-05
4.20114e-05 -2.97569e-05 -0.000541741
0.000724602 0.00128936 6.35042e-05
0.00128936 7.76807e-07 7.08506e-06
6.35042e-05 7.08506e-06 -0.000832658
-0.00595826 0.00112116 0.000352111
0.00112116 0.00542051 5.63274e-06
0.000352111 5.63274e-06 -0.00138339
0.00228262 -0.000159104 -8.9587e-06
-0.000159104 0.0019843 6.53922e-05
-8.9587e-06 6.53922e-05 -0.000799471
-0.00251288 -4.99641e-05 -1.26124e-05
-4.99641e-05 0.000802843 5.2077e-05
-1.26124e-05 5.2077e-05 -5.72932e-05
-0.00051765 -0.000275492 -6.47975e-05
-0.000275492 0.000683004 1.65129e-05
-6.47975e-05 1.65129e-05 -0.00043384
-0.00154974 -0.000422272 -6.23254e-05
-0.000422272 -0.000401483 5.03103e-05
-6.23254e-05 5.03103e-05 -0.000167821
-0.000256181 -0.00044068 -0.000186204
-0.00044068 0.000784153 0.00011722
-0.000186204 0.00011722 -0.00319682
-1.3838e-05 -0.00380708 0.000265174
-0.00380708 0.0021094 -8.95018e-05
0.000265174 -8.95018e-05 -0.00359636
0.00950308 0.00509912 0.00068993
0.00509912 0.000589779 -0.000441898
0.00068993 -0.000441898 -0.00284438
0.0103411 0.00336169 -0.000398081
0.00336169 0.00755713 0.000322224
-0.000398081 0.000322224 0.0033171
0.00126053 -0.000810408 -1.05964e-05
-0.000810408 0.00129338 -1.7784e-06
-1.05964e-05 -1.7784e-06 0.0005327
0.00188708 0.000555804 0.000126129
0.000555804 0.00732521 -2.13024e-05
0.000126129 -2.13024e-05 0.00328318
0.000750143 0.00400271 9.15803e-06
0.00400271 0.000719529 6.97601e-05
9.15803e-06 6.97601e-05 -0.00282701
0.00245428 -0.00256278 8.51379e-05
-0.00256278 0.0007238 -4.15648e-05
8.51379e-05 -4.15648e-05 0.000921044
0.0169206 -0.00390344 1.75563e-05
-0.00390344 0.00334812 -2.05313e-06
1.75563e-05 -2.05313e-06 0.00144815
0.00307231 -0.00158294 5.70913e-06
-0.00158294 0.00122248 2.00314e-05
5.70913e-06 2.00314e-05 0.000873295
-0.00830408 0.00121506 -0.000581648
0.00121506 -0.00254285 9.19061e-05
-0.000581648 9.19061e-05 -0.00527244
0.0160308 -0.00251103 -0.000230757
-0.00251103 0.00218167 6.79139e-05
-0.000230757 6.79139e-05 0.000788657
0.00385911 -0.00268276 0.000107482
-0.00268276 -8.46364e-05 -7.33515e-05
0.000107482 -7.33515e-05 0.000435184
0.000910566 -0.0005334 -1.67847e-05
-0.0005334 0.000629211 1.61418e-05
-1.67847e-05 1.61418e-05 0.000215427
0.00106931 -0.000788551 -2.35425e-07
-0.000788551 0.000197236 -2.20005e-06
-2.35425e-07 -2.20005e-06 -5.66876e-05
0.00549424 -0.00107473 2.30318e-05
-0.00107473 0.00231739 -1.33793e-05
2.30318e-05 -1.33793e-05 0.00193674
-0.000833282 -0.000394508 -6.54851e-06
-0.000394508 -0.000745788 7.49234e-06
-6.54851e-06 7.49234e-06 -0.00108453
0.00138174 -0.000781634 -3.36329e-06
-0.000781634 0.000108702 1.1735e-08
-3.36329e-06 1.1735e-08 -0.000284524
0.00308025 -0.0010273 4.50084e-06
-0.0010273 0.000785617 -7.67878e-06
4.50084e-06 -7.67878e-06 0.000381817
0.00153688 -0.000720879 -1.14312e-05
-0.000720879 0.000291118 8.87907e-06
-1.14312e-05 8.87907e-06 -0.000281348
0.00195506 -0.000903175 -1.05456e-06
-0.000903175 0.000309335 1.37535e-06
-1.05456e-06 1.37535e-06 -0.000169369
0.00182463 -0.000732028 -1.06163e-06
-0.000732028 3.66141e-07 -6.79489e-06
-1.06163e-06 -6.79489e-06 -0.000297069
0.00154802 -0.000788519 -1.66399e-06
-0.000788519 0.000215036 3.34897e-06
-1.66399e-06 3.34897e-06 -0.000303689
0.00199015 -0.000715758 -1.36492e-06
-0.000715758 0.000266134 1.43989e-06
-1.36492e-06 1.43989e-06 -0.000103977
0.00203508 -0.000541067 -1.4487e-06
-0.000541067 0.000101762 -4.47291e-06
-1.4487e-06 -4.47291e-06 -0.000111295
0.00186885 -0.000446719 -4.97369e-06
-0.000446719 6.23356e-05 -7.7243e-07
-4.97369e-06 -7.7243e-07 -0.000112949
0.0017065 -0.000528886 -6.01604e-06
-0.000528886 -4.01456e-06 -1.99697e-06
-6.01604e-06 -1.99697e-06 -0.000263912
0.00182145 -0.000513463 1.58583e-06
-0.000513463 4.98814e-05 2.6921e-06
1.58583e-06 2.6921e-06 -0.000194688
0.00168197 -0.000635768 -6.06254e-06
-0.000635768 0.000123024 -2.61192e-06
-6.06254e-06 -2.61192e-06 -0.000226235
0.00206863 -0.000742319 2.82751e-06
-0.000742319 0.000313112 -3.00333e-07
2.82751e-06 -3.00333e-07 -7.21395e-05
0.00217318 -0.000740816 6.44453e-06
-0.000740816 0.000387883 1.26622e-06
6.44453e-06 1.26622e-06 6.03623e-07
0.00166808 -0.000634588 -1.2901e-06
-0.000634588 0.000338285 -2.25487e-06
-1.2901e-06 -2.25487e-06 -5.25893e-05
0.00210752 -0.000758737 2.03568e-06
-0.000758737 0.000554306 -6.97755e-07
2.03568e-06 -6.97755e-07 0.00012943
0.00229956 -0.000859305 1.75905e-06
-0.000859305 0.000630547 -1.73969e-06
1.75905e-06 -1.73969e-06 0.000149352
0.00127844 -0.000377623 -6.2496e-06
-0.000377623 0.000295513 2.35863e-06
-6.2496e-06 2.35863e-06 1.3755e-05
0.0015192 -0.000528586 1.92488e-06
-0.000528586 0.000411065 1.11698e-06
1.92488e-06 1.11698e-06 5.12966e-05
0.00102241 -0.000555705 -5.06691e-06
-0.000555705 9.86835e-05 1.99283e-06
-5.06691e-06 1.99283e-06 -0.000280886
0.000496096 -0.000210004 -7.36079e-06
-0.000210004 -5.35213e-05 -9.01332e-07
-7.36079e-06 -9.01332e-07 -0.000271717
0.00106808 -0.000334589 5.88989e-07
-0.000334589 0.00025836 -7.04352e-07
5.88989e-07 -7.04352e-07 -4.21791e-06
0.000434568 -0.000301067 -9.21903e-06
-0.000301067 -0.000154457 2.93637e-07
-9.21903e-06 2.93637e-07 -0.000436738
0.000343285 -5.04417e-05 -1.14225e-05
-5.04417e-05 -0.000106966 1.34109e-05
-1.14225e-05 1.34109e-05 -0.000179733
0.000846683 -0.000173479 2.83884e-06
-0.000173479 0.000240814 1.1834e-06
2.83884e-06 1.1834e-06 1.75493e-05
0.000676816 -0.000244078 2.66072e-08
-0.000244078 0.000157961 2.17214e-06
2.66072e-08 2.17214e-06 -0.000119739
0.00383411 0.000229871 4.08749e-06
0.000229871 0.00214676 5.16622e-06
4.08749e-06 5.16622e-06 0.00211159
0.000473263 -2.50923e-05 3.6331e-07
-2.50923e-05 -1.92811e-05 -3.33117e-07
3.6331e-07 -3.33117e-07 -7.91352e-05
0.00122297 -0.000110192 -3.10823e-07
-0.000110192 0.000464253 -6.39085e-06
-3.10823e-07 -6.39085e-06 0.000296698
0.00331099 0.000141727 8.89874e-06
0.000141727 0.0017855 7.04151e-07
8.89874e-06 7.04151e-07 0.00177905
0.000518287 -5.57375e-06 4.23026e-06
-5.57375e-06 1.04442e-05 -1.14086e-05
4.23026e-06 -1.14086e-05 -3.9648e-05
0.00299706 0.00011727 5.19375e-05
0.00011727 0.00157885 -4.95013e-06
5.19375e-05 -4.95013e-06 0.00157864
0.00221722 0.000332291 6.80782e-06
0.000332291 0.00108411 2.94398e-06
6.80782e-06 2.94398e-06 0.000846961
0.000783508 0.000158853 5.99215e-07
0.000158853 0.000282775 -4.23505e-06
5.99215e-07 -4.23505e-06 5.15987e-05
0.00130453 0.000174882 7.06013e-07
0.000174882 0.000614095 -6.57126e-06
7.06013e-07 -6.57126e-06 0.000370125
0.000701607 6.00308e-05 2.95698e-06
6.00308e-05 0.000141522 -5.64621e-06
2.95698e-06 -5.64621e-06 1.81173e-05
0.000772941 0.000104248 3.57532e-07
0.000104248 0.000254826 1.49681e-06
3.57532e-07 1.49681e-06 6.14103e-05
0.000327958 0.000114849 -1.27494e-06
0.000114849 1.02016e-05 4.92876e-06
-1.27494e-06 4.92876e-06 -0.000191474
0.000514781 -4.62562e-07 -1.76802e-06
-4.62562e-07 7.07181e-06 -9.68204e-06
-1.76802e-06 -9.68204e-06 -3.04338e-05
0.00057334 4.30184e-05 -6.05021e-08
4.30184e-05 6.44667e-05 -3.9028e-07
-6.05021e-08 -3.9028e-07 -4.02865e-05
0.000339588 8.40991e-05 -5.05963e-06
8.40991e-05 -5.64126e-05 -1.31362e-07
-5.05963e-06 -1.31362e-07 -0.000197542
0.0026996 -8.55008e-05 -4.3503e-05
-8.55008e-05 0.00138071 -4.74263e-06
-4.3503e-05 -4.74263e-06 0.00138841
0.000418893 -1.89377e-05 2.83754e-06
-1.89377e-05 -5.81993e-05 -1.33389e-07
2.83754e-06 -1.33389e-07 -8.88922e-05
0.000494417 4.67671e-05 -2.32232e-06
4.67671e-05 1.42871e-05 3.32197e-06
-2.32232e-06 3.32197e-06 -7.6822e-05
0.0025129 -6.84997e-05 -6.61411e-06
-6.84997e-05 0.00125719 4.89767e-07
-6.61411e-06 4.89767e-07 0.00126778
0.000435463 -1.72898e-06 -2.08615e-06
-1.72898e-06 -5.44743e-05 6.06878e-06
-2.08615e-06 6.06878e-06 -7.81207e-05
0.00229836 -4.95768e-05 2.36066e-05
-4.95768e-05 0.00111804 4.68698e-06
2.36066e-05 4.68698e-06 0.00113219
-0.00961633 0.00107299 -0.000109739
0.00107299 0.0038413 8.08746e-05
-0.000109739 8.08746e-05 -0.00252936
0.00613722 0.000466128 4.28189e-06
0.000466128 0.00360607 -1.71895e-06
4.28189e-06 -1.71895e-06 0.00144096
-0.0016089 6.42414e-05 4.59272e-05
6.42414e-05 0.000253695 2.17666e-05
4.59272e-05 2.17666e-05 -0.000607772
0.000220668 0.000139944 -4.30718e-07
0.000139944 -0.000154726 2.33918e-06
-4.30718e-07 2.33918e-06 -0.000347198
0.00333912 0.00066823 1.43839e-05
0.00066823 0.00169973 1.03203e-05
1.43839e-05 1.03203e-05 0.00134187
0.00126325 0.000195679 -9.27762e-06
0.000195679 0.000589247 1.65476e-06
-9.27762e-06 1.65476e-06 0.000276891
0.000565947 7.15959e-05 -7.48169e-06
7.15959e-05 8.34183e-05 -1.52894e-05
-7.48169e-06 -1.52894e-05 -7.81888e-05
0.00268045 0.000292082 3.80011e-06
0.000292082 0.00133031 -1.45212e-06
3.80011e-06 -1.45212e-06 0.00115792
-0.000682821 3.33023e-05 -1.08013e-05
3.33023e-05 -0.000638435 9.85606e-06
-1.08013e-05 9.85606e-06 -0.00078709
8.04284e-05 0.000108266 -1.16517e-06
0.000108266 -3.6507e-05 5.92638e-06
-1.16517e-06 5.92638e-06 -0.000317133
0.000622008 0.000161093 -3.17089e-06
0.000161093 0.000159489 -5.52977e-06
-3.17089e-06 -5.52977e-06 -0.000149485
0.00184606 0.000520224 7.29319e-06
0.000520224 0.000916454 -2.69524e-05
7.29319e-06 -2.69524e-05 0.000471417
8.87207e-05 0.000466774 -1.44585e-05
0.000466774 -0.000276632 4.99864e-05
-1.44585e-05 4.99864e-05 -0.000433729
0.00153582 4.79612e-05 -1.38061e-05
4.79612e-05 0.000786607 1.51298e-05
-1.38061e-05 1.51298e-05 0.000592412
0.00148065 0.000271721 5.25207e-06
0.000271721 0.000938562 -1.05064e-05
5.25207e-06 -1.05064e-05 0.000569859
-0.000145823 -0.00238436 -0.00155434
-0.00238436 0.00150013 -0.000261731
-0.00155434 -0.000261731 -0.0023188
-0.0023758 -0.00235643 0.000525474
-0.00235643 0.00580019 0.000198498
0.000525474 0.000198498 0.000177651
0.00702726 0.00167679 -0.00055424
0.00167679 0.00299938 -0.000191863
-0.00055424 -0.000191863 -0.00251216
0.00446129 -0.00914161 0.0024206
-0.00914161 0.00475754 0.00150852
0.0024206 0.00150852 0.00125706
0.0255366 -0.00386057 6.51327e-05
-0.00386057 0.00872151 0.000362118
6.51327e-05 0.000362118 0.0052339
-0.00313572 0.00143167 -1.54821e-05
0.00143167 0.0022927 -0.000187529
-1.54821e-05 -0.000187529 -0.00339314
-0.0026431 0.000143717 -0.00038512
0.000143717 0.000757404 -6.38091e-05
-0.00038512 -6.38091e-05 -0.000922987
0.0010693 0.00073717 7.66893e-05
0.00073717 0.00162162 5.2429e-05
7.66893e-05 5.2429e-05 0.0012823
0.0196427 -0.00494272 -0.000644399
-0.00494272 0.00807922 6.3056e-06
-0.000644399 6.3056e-06 0.00415584
-0.00254872 0.00296331 -0.000114541
0.00296331 0.000335069 -4.65701e-05
-0.000114541 -4.65701e-05 -0.00437813
0.00312855 0.00214159 1.59122e-05
0.00214159 0.000959835 -7.16136e-05
1.59122e-05 -7.16136e-05 0.00160703
0.0026262 0.00466345 -0.000404199
0.00466345 -0.00209243 -0.000108308
-0.000404199 -0.000108308 -0.00475618
0.00329941 0.00117317 2.48642e-05
0.00117317 0.00123899 -1.4099e-05
2.48642e-05 -1.4099e-05 0.000885741
0.000984294 0.000566609 -5.13687e-06
0.000566609 0.000266025 -1.69186e-06
-5.13687e-06 -1.69186e-06 0.000102043
-0.000226978 0.000156037 -7.10156e-06
0.000156037 -0.000186695 1.49884e-06
-7.10156e-06 1.49884e-06 -0.000430523
-0.00154174 0.000367743 -8.42354e-05
0.000367743 0.000102592 -7.50855e-05
-8.42354e-05 -7.50855e-05 -0.000938866
0.0020691 0.000771334 -3.48673e-05
0.000771334 0.00103585 -2.02895e-05
-3.48673e-05 -2.02895e-05 0.000625146
0.00195605 0.00144843 1.11934e-05
0.00144843 0.000536501 -8.76977e-06
1.11934e-05 -8.76977e-06 -0.000288206
-0.00081255 0.00154358 0.000100258
0.00154358 -0.00172396 4.58622e-05
0.000100258 4.58622e-05 -0.00204241
-0.00624313 -0.00046602 -0.000594543
-0.00046602 -0.00433899 4.70091e-05
-0.000594543 4.70091e-05 -0.00412108
-0.00852578 0.00049584 0.000389365
0.00049584 0.0056329 1.69041e-05
0.000389365 1.69041e-05 -0.000630111
0.0029256 -9.32191e-05 -0.000123937
-9.32191e-05 0.002066 3.36423e-05
-0.000123937 3.36423e-05 0.00027536
0.00223535 -0.000963497 -5.33214e-05
-0.000963497 0.00138521 -4.65263e-05
-5.33214e-05 -4.65263e-05 0.000652867
-0.000616832 -0.00193618 4.39938e-05
-0.00193618 -0.000653295 4.40765e-05
4.39938e-05 4.40765e-05 -0.000405299
0.00066102 0.000638085 6.11071e-05
0.000638085 0.0070269 4.4866e-05
6.11071e-05 4.4866e-05 0.00285358
0.00249713 -0.00332259 0.000473916
-0.00332259 -0.00165972 -0.000114186
0.000473916 -0.000114186 -0.00386396
0.0221678 0.00347559 0.000861229
0.00347559 0.00975515 -9.951e-05
0.000861229 -9.951e-05 0.00673553
0.00160068 -0.00165235 -1.76038e-05
-0.00165235 0.000346397 4.5665e-06
-1.76038e-05 4.5665e-06 -0.000255735
0.00207031 0.00147441 0.000262224
0.00147441 0.000719597 -8.03667e-05
0.000262224 -8.03667e-05 -0.00147115
0.00762439 -0.00219873 -0.000167275
-0.00219873 -0.00246881 0.000143664
-0.000167275 0.000143664 -0.00462451
0.00377121 -0.00268125 -1.08367e-05
-0.00268125 -0.000439698 2.6663e-05
-1.08367e-05 2.6663e-05 0.00032346
0.00248357 -0.00139553 7.05445e-05
-0.00139553 0.000191907 -1.9078e-05
7.05445e-05 -1.9078e-05 4.04429e-05
0.0168109 -0.000850047 -7.24368e-05
-0.000850047 0.0033134 4.96252e-05
-7.24368e-05 4.96252e-05 0.00210815
0.00251778 -0.0017755 0.000129561
-0.0017755 -0.00314922 -9.20483e-05
0.000129561 -9.20483e-05 -0.00175688
-0.000645659 -0.000656486 -2.81605e-05
-0.000656486 -0.000814654 3.16161e-05
-2.81605e-05 3.16161e-05 -0.000936238
0.000177301 -0.000576054 -4.01683e-05
-0.000576054 -0.000588811 3.67044e-06
-4.01683e-05 3.67044e-06 -0.000734102
0.00613909 -0.001142 6.19193e-05
-0.001142 0.00231275 -2.47028e-05
6.19193e-05 -2.47028e-05 0.00208932
0.000339247 -0.000649528 -1.34086e-05
-0.000649528 -0.000401278 8.82474e-08
-1.34086e-05 8.82474e-08 -0.000796496
0.00214051 -0.000912875 -2.62974e-06
-0.000912875 0.000301302 -3.3407e-06
-2.62974e-06 -3.3407e-06 -7.3636e-05
0.00274365 -0.000831719 1.06538e-06
-0.000831719 0.000322695 -4.93783e-06
1.06538e-06 -4.93783e-06 0.000113515
0.0021147 -0.000911206 1.31391e-06
-0.000911206 0.000399153 9.6931e-06
1.31391e-06 9.6931e-06 -8.71537e-05
0.00216109 -0.000758991 -1.14078e-06
-0.000758991 0.000189003 6.66973e-07
-1.14078e-06 6.66973e-07 -0.000111627
0.00213253 -0.000564193 1.461e-08
-0.000564193 3.00523e-05 -1.62246e-06
1.461e-08 -1.62246e-06 -0.000100388
0.00149658 -0.000650513 6.01904e-06
-0.000650513 -1.91295e-06 7.78033e-06
6.01904e-06 7.78033e-06 -0.000357072
0.00199002 -0.000530097 -4.13103e-07
-0.000530097 7.7431e-05 2.36248e-06
-4.13103e-07 2.36248e-06 -0.000129213
0.00206791 -0.00049809 -2.61894e-06
-0.00049809 8.63854e-05 1.25135e-06
-2.61894e-06 1.25135e-06 -5.47875e-05
0.00201205 -0.000466611 -4.56685e-06
-0.000466611 0.000145175 1.05478e-06
-4.56685e-06 1.05478e-06 -1.07086e-05
0.00200484 -0.000456804 -3.0285e-06
-0.000456804 0.000139353 3.28363e-06
-3.0285e-06 3.28363e-06 -3.28343e-05
0.00208612 -0.000469133 -2.59638e-06
-0.000469133 0.000236476 -3.92465e-06
-2.59638e-06 -3.92465e-06 4.82745e-05
0.00201272 -0.00055905 -7.11704e-06
-0.00055905 0.000208861 -2.78485e-06
-7.11704e-06 -2.78485e-06 -5.96469e-05
0.00193822 -0.000545953 1.82546e-06
-0.000545953 0.000144567 8.84752e-07
1.82546e-06 8.84752e-07 -0.000116092
0.00190189 -0.00051459 6.98714e-06
-0.00051459 9.82514e-05 7.45491e-06
6.98714e-06 7.45491e-06 -0.000142933
0.00191354 -0.000627693 -7.8267e-06
-0.000627693 0.000327505 -2.43028e-06
-7.8267e-06 -2.43028e-06 -2.30975e-05
0.00169851 -0.000644529 -5.0811e-07
-0.000644529 0.000119479 1.06739e-07
-5.0811e-07 1.06739e-07 -0.000233271
0.00221154 -0.000747816 8.48368e-06
-0.000747816 0.000416003 1.16351e-06
8.48368e-06 1.16351e-06 3.47535e-05
0.00142047 -0.000465336 -1.05104e-05
-0.000465336 0.000278888 3.35853e-06
-1.05104e-05 3.35853e-06 -4.35321e-05
0.00176699 -0.000643396 -6.95461e-07
-0.000643396 0.000401284 7.46169e-07
-6.95461e-07 7.46169e-07 9.50375e-06
0.00199501 -0.000753457 3.00246e-06
-0.000753457 0.000481949 7.19347e-07
3.00246e-06 7.19347e-07 5.54368e-05
0.000693032 -0.000218781 -8.31078e-06
-0.000218781 2.1913e-05 4.48827e-06
-8.31078e-06 4.48827e-06 -0.000190658
0.00120667 -0.000378127 1.13626e-06
-0.000378127 0.000242368 -7.78989e-08
1.13626e-06 -7.78989e-08 -4.21963e-05
0.00105836 -0.000475268 -1.83575e-06
-0.000475268 0.000113895 1.86135e-06
-1.83575e-06 1.86135e-06 -0.000231708
0.000467429 -0.000127551 -2.24839e-05
-0.000127551 -6.15524e-05 1.52352e-05
-2.24839e-05 1.52352e-05 -0.000155325
0.000643767 -0.00020334 -1.98113e-06
-0.00020334 6.20838e-05 1.03689e-06
-1.98113e-06 1.03689e-06 -0.000171523
0.000720538 -0.000345982 1.52412e-06
-0.000345982 3.92104e-05 -2.40952e-08
1.52412e-06 -2.40952e-08 -0.000229239
0.00429097 0.000209061 -8.73572e-05
0.000209061 0.0024346 6.86487e-06
-8.73572e-05 6.86487e-06 0.00240856
0.00049503 -6.81406e-05 1.39833e-06
-6.81406e-05 -1.66429e-05 -3.73184e-07
1.39833e-06 -3.73184e-07 -9.59728e-05
0.0016662 -0.000254231 5.55714e-06
-0.000254231 0.000745122 -2.25349e-06
5.55714e-06 -2.25349e-06 0.000514678
0.00250284 0.000131043 5.14565e-05
0.000131043 0.00128963 1.38507e-06
5.14565e-05 1.38507e-06 0.00126644
0.000601061 -3.4059e-05 1.01791e-05
-3.4059e-05 5.66258e-05 -1.30193e-05
1.01791e-05 -1.30193e-05 -6.15749e-06
0.00357518 0.000134441 8.15864e-05
0.000134441 0.00195198 -4.97848e-06
8.15864e-05 -4.97848e-06 0.00194755
0.00181967 0.000346323 4.03145e-06
0.000346323 0.000720521 -3.72721e-06
4.03145e-06 -3.72721e-06 0.000503179
0.000411632 0.000140762 -3.80066e-06
0.000140762 -6.42091e-05 -1.62779e-07
-3.80066e-06 -1.62779e-07 -0.000258039
0.000492811 0.000161251 1.37915e-06
0.000161251 7.13194e-05 -8.15142e-06
1.37915e-06 -8.15142e-06 -0.000161473
0.000428657 0.000130391 -2.43984e-06
0.000130391 4.0447e-05 1.13341e-05
-2.43984e-06 1.13341e-05 -0.000169528
0.00059029 9.83196e-05 7.44729e-07
9.83196e-05 0.000140715 1.31495e-07
7.44729e-07 1.31495e-07 -7.71874e-05
0.00100793 0.000108796 5.70313e-07
0.000108796 0.00032481 -8.82656e-06
5.70313e-07 -8.82656e-06 0.000179218
0.000578312 3.04797e-05 -5.04237e-06
3.04797e-05 4.89001e-05 -1.19668e-05
-5.04237e-06 -1.19668e-05 2.04524e-06
0.000671734 5.84759e-05 4.22776e-07
5.84759e-05 0.000129222 -4.43378e-08
4.22776e-07 -4.43378e-08 4.87632e-06
-0.000113626 3.49108e-05 -6.25044e-06
3.49108e-05 -0.000326067 1.11292e-06
-6.25044e-06 1.11292e-06 -0.000496386
0.00292314 -9.96064e-05 -6.0673e-05
-9.96064e-05 0.00152918 -4.93158e-06
-6.0673e-05 -4.93158e-06 0.00153426
0.000421363 1.36839e-05 9.8382e-07
1.36839e-05 -4.98326e-05 -2.94239e-07
9.8382e-07 -2.94239e-07 -8.71496e-05
0.000532845 4.57657e-05 -3.45051e-06
4.57657e-05 4.50337e-05 4.74264e-06
-3.45051e-06 4.74264e-06 -6.1994e-05
0.0026953 -8.67316e-05 -7.25796e-06
-8.67316e-05 0.00137825 5.93876e-07
-7.25796e-06 5.93876e-07 0.00138535
0.000400255 -1.00303e-05 3.03258e-07
-1.00303e-05 -6.89388e-05 7.45462e-06
3.03258e-07 7.45462e-06 -9.94059e-05
0.0025073 -6.83102e-05 2.96998e-05
-6.83102e-05 0.0012534 4.8702e-06
2.96998e-05 4.8702e-06 0.00126394
0.00120043 7.74935e-05 -0.000848783
7.74935e-05 0.00377625 -6.02143e-05
-0.000848783 -6.02143e-05 0.00165012
-0.00580959 0.000165829 3.60833e-05
0.000165829 0.00484677 -3.35679e-06
3.60833e-05 -3.35679e-06 -0.00175524
0.00582501 0.000218412 -0.000249468
0.000218412 0.00348701 -6.67913e-05
-0.000249468 -6.67913e-05 0.00147725
-0.000296632 4.29142e-05 2.90723e-06
4.29142e-05 -0.000472029 -8.92517e-06
2.90723e-06 -8.92517e-06 -0.000664976
0.000425881 8.42346e-05 5.98959e-06
8.42346e-05 2.25645e-05 7.82599e-06
5.98959e-06 7.82599e-06 -0.000269907
0.00279625 0.000586559 -3.37086e-06
0.000586559 0.00139892 3.98433e-06
-3.37086e-06 3.98433e-06 0.0010547
0.00225553 0.00068698 1.62298e-05
0.00068698 0.000927901 7.31517e-06
1.62298e-05 7.31517e-06 0.000476682
0.000504892 0.000384626 6.74698e-06
0.000384626 0.000129794 2.65342e-06
6.74698e-06 2.65342e-06 -0.000248094
0.000936332 0.000160318 -7.0332e-06
0.000160318 0.000479621 8.64576e-06
-7.0332e-06 8.64576e-06 0.000194062
0.00101465 0.000175562 1.10727e-05
0.000175562 0.00043126 1.0915e-05
1.10727e-05 1.0915e-05 0.00014166
0.000598663 0.000424991 -4.91673e-06
0.000424991 0.000233341 -8.2385e-07
-4.91673e-06 -8.2385e-07 -0.000215642
-0.000266174 0.000551778 1.51059e-05
0.000551778 -0.000659564 -1.14773e-05
1.51059e-05 -1.14773e-05 -0.000990849
0.00247008 0.000827968 -9.72459e-06
0.000827968 0.000911755 2.61302e-05
-9.72459e-06 2.61302e-05 0.000679327
0.00146183 0.00087646 3.05595e-05
0.00087646 5.28177e-05 1.05247e-05
3.05595e-05 1.05247e-05 -9.72183e-05
0.00138755 0.000634685 -7.01587e-06
0.000634685 0.000505104 -3.20888e-06
-7.01587e-06 -3.20888e-06 0.000268117
0.00200509 0.000365981 -7.82001e-06
0.000365981 0.00112522 3.44748e-05
-7.82001e-06 3.44748e-05 0.000801402
0.0138414 0.00254267 -0.000123347
0.00254267 0.0017336 6.38645e-05
-0.000123347 6.38645e-05 0.000492306
0.00251608 -0.00201599 -0.000564214
-0.00201599 0.00379431 -0.000205431
-0.000564214 -0.000205431 0.000687475
-4.08124e-05 -0.00354354 0.00077066
-0.00354354 0.00637714 0.000208446
0.00077066 0.000208446 0.000666153
0.00731383 -0.00301325 0.000307368
-0.00301325 0.00323598 0.000322534
0.000307368 0.000322534 -0.000419593
0.0141984 0.00478123 -0.000111279
0.00478123 0.00466679 -4.84822e-05
-0.000111279 -4.84822e-05 0.000697477
-0.00305438 0.000241776 -5.56945e-05
0.000241776 -0.000161725 -5.706e-05
-5.56945e-05 -5.706e-05 -0.000563569
0.00215357 0.00189283 -5.35119e-05
0.00189283 0.000542005 -2.11389e-05
-5.35119e-05 -2.11389e-05 0.00128358
0.0173223 0.00456899 1.77836e-05
0.00456899 0.00383849 3.83184e-05
1.77836e-05 3.83184e-05 0.00143723
0.00649687 0.00358298 -8.12507e-05
0.00358298 -0.000135673 -0.000105111
-8.12507e-05 -0.000105111 0.000283203
0.0016239 0.00119127 1.13202e-05
0.00119127 0.000111872 -6.18759e-06
1.13202e-05 -6.18759e-06 -0.000140578
0.00159172 0.000917649 9.77094e-06
0.000917649 0.000441409 -3.92314e-06
9.77094e-06 -3.92314e-06 0.000134796
0.0021227 0.000632501 -2.58348e-05
0.000632501 0.00101016 1.09459e-06
-2.58348e-05 1.09459e-06 0.000831145
0.00271235 0.00161992 -7.10943e-05
0.00161992 0.000781809 -2.68093e-05
-7.10943e-05 -2.68093e-05 -2.20775e-05
0.00138828 0.00179383 7.49762e-05
0.00179383 -0.000801272 3.81063e-05
7.49762e-05 3.81063e-05 -0.00121148
0.00239262 -0.000303553 -0.000123482
-0.000303553 -0.00495453 5.76219e-05
-0.000123482 5.76219e-05 -0.00519478
0.000758703 -0.00166999 1.05868e-05
-0.00166999 0.00219861 4.32697e-06
1.05868e-05 4.32697e-06 0.00124136
-0.0116294 -0.000270661 0.000313262
-0.000270661 0.00608026 -2.40552e-05
0.000313262 -2.40552e-05 0.000441091
0.00053356 -0.00181559 -5.80558e-05
-0.00181559 -0.000488206 1.95285e-05
-5.80558e-05 1.95285e-05 -0.00130007
0.00562031 -0.00315881 2.84869e-05
-0.00315881 0.00035911 4.58349e-05
2.84869e-05 4.58349e-05 0.000670229
0.00241763 -6.66165e-06 0.000915942
-6.66165e-06 0.00395418 -0.000216655
0.000915942 -0.000216655 0.00202596
0.0139857 -0.00243287 -0.000278103
-0.00243287 0.00157565 0.000151235
-0.000278103 0.000151235 0.00056402
0.00171917 -0.00138778 -3.03015e-05
-0.00138778 -0.000130175 6.47192e-07
-3.03015e-05 6.47192e-07 -0.000428575
0.0115146 -0.000108376 -0.000195287
-0.000108376 -0.000919657 6.6985e-05
-0.000195287 6.6985e-05 -0.00175444
0.00721096 -0.00207936 0.000101223
-0.00207936 -0.000295313 1.17087e-05
0.000101223 1.17087e-05 0.000474158
0.00356578 -0.00118875 6.28689e-05
-0.00118875 0.000346909 -4.46029e-05
6.28689e-05 -4.46029e-05 0.000147512
0.00258694 -0.000785957 -7.36863e-06
-0.000785957 -0.00198738 7.88315e-06
-7.36863e-06 7.88315e-06 -0.000830322
-0.00553087 -5.71417e-05 1.29323e-05
-5.71417e-05 -0.00368363 1.1978e-05
1.29323e-05 1.1978e-05 -0.00365049
0.00152816 -0.000731363 -1.76952e-05
-0.000731363 -0.000225609 1.76206e-06
-1.76952e-05 1.76206e-06 -0.00024419
0.00366929 -0.000770434 3.62697e-05
-0.000770434 0.00071101 -1.47814e-05
3.62697e-05 -1.47814e-05 0.000762232
0.00105248 -0.000787033 -1.03414e-05
-0.000787033 -0.00026278 6.80982e-06
-1.03414e-05 6.80982e-06 -0.000608057
0.00218447 -0.000778035 -3.61527e-06
-0.000778035 2.7688e-05 3.21391e-06
-3.61527e-06 3.21391e-06 -0.000175665
0.00240232 -0.000632206 5.72217e-06
-0.000632206 -7.91635e-06 -1.57137e-06
5.72217e-06 -1.57137e-06 -3.97594e-05
0.00225743 -0.000757787 -4.08854e-06
-0.000757787 0.000251344 1.06751e-05
-4.08854e-06 1.06751e-05 -4.62123e-05
0.00212512 -0.000561299 4.38917e-07
-0.000561299 2.45742e-05 1.46778e-06
4.38917e-07 1.46778e-06 -0.000101601
0.00226708 -0.000554313 -4.99805e-07
-0.000554313 8.66798e-05 2.43118e-07
-4.99805e-07 2.43118e-07 1.77029e-05
0.00192416 -0.000516744 4.24261e-06
-0.000516744 4.21426e-05 6.80757e-06
4.24261e-06 6.80757e-06 -0.000157409
0.00204662 -0.000497258 -1.60853e-08
-0.000497258 7.0925e-05 1.3383e-06
-1.60853e-08 1.3383e-06 -6.77093e-05
0.00219613 -0.00053254 -2.40881e-06
-0.00053254 0.000148948 1.50589e-06
-2.40881e-06 1.50589e-06 1.85954e-05
0.0020258 -0.000474125 -4.26039e-06
-0.000474125 0.000145618 2.47372e-06
-4.26039e-06 2.47372e-06 -8.96989e-06
0.00216473 -0.000474921 -1.42777e-06
-0.000474921 0.000276608 -1.12904e-06
-1.42777e-06 -1.12904e-06 0.000112441
0.00212343 -0.000466058 3.50672e-06
-0.000466058 0.000206989 5.85533e-06
3.50672e-06 5.85533e-06 3.80017e-05
0.00206151 -0.000467869 6.34109e-07
-0.000467869 0.000219713 -6.87426e-07
6.34109e-07 -6.87426e-07 3.17362e-05
0.00195952 -0.000484692 -3.16317e-06
-0.000484692 0.000160063 -2.97034e-06
-3.16317e-06 -2.97034e-06 -4.88115e-05
0.00204686 -0.000540619 -5.08149e-06
-0.000540619 0.000303503 -4.03626e-06
-5.08149e-06 -4.03626e-06 2.53637e-05
0.00207802 -0.000567085 -4.46315e-07
-0.000567085 0.000251567 7.58384e-09
-4.46315e-07 7.58384e-09 -1.96997e-05
0.00217016 -0.000562732 8.54408e-06
-0.000562732 0.000294365 4.19439e-06
8.54408e-06 4.19439e-06 3.30257e-05
0.00156897 -0.000505174 -1.03891e-05
-0.000505174 0.000224407 2.06483e-06
-1.03891e-05 2.06483e-06 -0.000100806
0.00183995 -0.000618033 -1.70973e-06
-0.000618033 0.000284673 -2.29236e-07
-1.70973e-06 -2.29236e-07 -6.60234e-05
0.00171515 -0.000652415 6.37504e-06
-0.000652415 0.000116172 2.08409e-06
6.37504e-06 2.08409e-06 -0.000239821
0.000736697 -0.000245104 -1.11078e-05
-0.000245104 -1.3325e-05 6.92299e-06
-1.11078e-05 6.92299e-06 -0.000234044
0.00133675 -0.000459697 9.77954e-07
-0.000459697 0.000226781 3.00306e-07
9.77954e-07 3.00306e-07 -9.48717e-05
0.00186624 -0.000650967 3.15382e-06
-0.000650967 0.000466691 2.23353e-06
3.15382e-06 2.23353e-06 7.44994e-05
0.000403745 -0.000183295 -2.23061e-05
-0.000183295 -0.000113006 1.88816e-05
-2.23061e-05 1.88816e-05 -0.000230922
0.000633618 -0.000222205 -5.45293e-07
-0.000222205 -8.12144e-06 2.63716e-07
-5.45293e-07 2.63716e-07 -0.000226124
0.000947447 -0.000350278 6.43284e-06
-0.000350278 7.23982e-05 -1.22395e-06
6.43284e-06 -1.22395e-06 -0.000206785
0.00508612 0.000175721 -0.000141311
0.000175721 0.00292576 9.49957e-06
-0.000141311 9.49957e-06 0.00290793
0.000502341 -0.000145084 -2.7455e-06
-0.000145084 -3.67054e-05 -8.12091e-07
-2.7455e-06 -8.12091e-07 -0.000137042
0.00119359 -0.000246739 5.71354e-06
-0.000246739 0.000418978 -1.5918e-06
5.71354e-06 -1.5918e-06 0.000171908
0.00449582 0.000179709 2.24341e-05
0.000179709 0.00255973 8.65082e-07
2.24341e-05 8.65082e-07 0.00254092
0.000730518 -9.01063e-05 1.90817e-05
-9.01063e-05 0.000125311 -1.44304e-05
1.90817e-05 -1.44304e-05 4.18832e-05
0.00399143 0.000139009 0.000111924
0.000139009 0.0022214 -6.9e-06
0.000111924 -6.9e-06 0.00221576
0.0020628 0.00056434 2.78574e-06
0.00056434 0.000828777 -2.70215e-06
2.78574e-06 -2.70215e-06 0.000456633
0.000765387 0.000260937 -8.24644e-07
0.000260937 7.87879e-05 -3.31872e-06
-8.24644e-07 -3.31872e-06 -0.000130805
0.000280333 0.00016304 4.21477e-06
0.00016304 -0.000159036 4.22822e-06
4.21477e-06 4.22822e-06 -0.000366278
-0.000763035 3.58558e-05 -2.22931e-06
3.58558e-05 -0.000772481 8.00698e-07
-2.22931e-06 8.00698e-07 -0.000967716
0.00037436 0.000110959 -3.67006e-07
0.000110959 -3.16472e-05 2.34494e-06
-3.67006e-07 2.34494e-06 -0.000246923
0.00100309 0.000104091 5.03761e-07
0.000104091 0.000330587 -1.0317e-05
5.03761e-07 -1.0317e-05 0.000150982
0.000275818 5.96661e-05 -3.16336e-06
5.96661e-05 -7.42726e-05 4.41018e-06
-3.16336e-06 4.41018e-06 -0.000276473
0.000570948 8.28037e-05 -1.71387e-07
8.28037e-05 6.32799e-05 4.28814e-07
-1.71387e-07 4.28814e-07 -8.10395e-05
0.00062445 3.68931e-05 -6.9992e-06
3.68931e-05 7.61175e-05 -1.50959e-05
-6.9992e-06 -1.50959e-05 1.76905e-05
0.00322274 -0.00010851 -8.47675e-05
-0.00010851 0.00172678 -6.3177e-06
-8.47675e-05 -6.3177e-06 0.00172968
0.000433892 1.26873e-05 1.36975e-06
1.26873e-05 -3.65458e-05 -3.52041e-07
1.36975e-06 -3.52041e-07 -8.40972e-05
0.000446705 4.65417e-05 -3.97306e-06
4.65417e-05 -5.31184e-06 6.44039e-06
-3.97306e-06 6.44039e-06 -0.000128893
0.00285762 -0.000105865 -8.15726e-06
-0.000105865 0.0014888 7.35092e-07
-8.15726e-06 7.35092e-07 0.00149171
0.00032006 -5.10618e-05 -6.37358e-06
-5.10618e-05 -0.000105908 9.11883e-06
-6.37358e-06 9.11883e-06 -0.000146764
0.0026747 -8.73318e-05 3.6966e-05
-8.73318e-05 0.00136491 4.91799e-06
3.6966e-05 4.91799e-06 0.00137162
0.0149061 0.000598124 0.000484655
0.000598124 0.00195954 0.000118422
0.000484655 0.000118422 0.00164417
-0.00117211 -0.0028765 -0.000509359
-0.0028765 -0.00246543 -8.3253e-05
-0.000509359 -8.3253e-05 -0.00464663
-0.00942923 0.00147765 -0.00020762
0.00147765 0.00427011 -0.000125554
-0.00020762 -0.000125554 -0.00264585
0.000165053 3.3691e-05 1.77343e-05
3.3691e-05 -0.000128677 -6.33398e-06
1.77343e-05 -6.33398e-06 -0.000438443
0.00156205 0.000434226 -8.9044e-06
0.000434226 0.000661244 3.90015e-07
-8.9044e-06 3.90015e-07 0.000348401
0.00237803 0.000591474 -1.0392e-05
0.000591474 0.00122109 -2.51267e-06
-1.0392e-05 -2.51267e-06 0.000795561
0.00151219 0.000596306 9.48424e-07
0.000596306 0.000480747 -8.73182e-07
9.48424e-07 -8.73182e-07 5.42405e-05
0.00145099 0.000643361 1.19537e-05
0.000643361 0.000256285 1.86641e-05
1.19537e-05 1.86641e-05 -0.000151866
-0.000730922 0.000421764 2.85695e-05
0.000421764 -0.000894963 6.09907e-06
2.85695e-05 6.09907e-06 -0.00123199
-0.000231068 0.00030995 -1.20708e-05
0.00030995 -0.000175015 1.14866e-05
-1.20708e-05 1.14866e-05 -0.000656123
-0.000300781 0.000534992 1.08347e-05
0.000534992 -0.000691192 -8.54161e-07
1.08347e-05 -8.54161e-07 -0.00101882
0.00223531 0.000794185 5.69946e-06
0.000794185 0.000828725 7.56105e-06
5.69946e-06 7.56105e-06 0.000552152
-0.00063025 0.000523374 5.97701e-06
0.000523374 -0.00100461 -3.88272e-06
5.97701e-06 -3.88272e-06 -0.00124441
0.00362703 0.00102231 4.45594e-06
0.00102231 0.00122125 1.51368e-05
4.45594e-06 1.51368e-05 0.00103119
0.00131669 0.000869974 2.18356e-05
0.000869974 -8.805e-06 6.10221e-06
2.18356e-05 6.10221e-06 -0.000296771
0.000562193 0.000765209 3.161e-06
0.000765209 -0.000472859 1.81572e-07
3.161e-06 1.81572e-07 -0.000550558
0.000591388 0.000515091 1.97412e-06
0.000515091 4.41775e-05 -5.19705e-05
1.97412e-06 -5.19705e-05 -0.000164944
0.00510238 0.00173069 1.97319e-05
0.00173069 -0.00145588 2.64488e-05
1.97319e-05 2.64488e-05 -9.77719e-06
0.0137404 0.00296625 0.00027902
0.00296625 0.000940866 0.000150539
0.00027902 0.000150539 -0.00062079
0.0115654 -0.00424098 0.000520771
-0.00424098 0.00553083 -4.10224e-05
0.000520771 -4.10224e-05 0.002306
0.0057567 0.00483364 0.000552655
0.00483364 -0.000982501 0.000316919
0.000552655 0.000316919 -0.00510209
0.000251056 0.00130439 -5.88241e-05
0.00130439 0.000200339 -9.98704e-07
-5.88241e-05 -9.98704e-07 0.000823626
0.00395688 0.00251789 -0.000109299
0.00251789 -0.000584937 -5.39769e-05
-0.000109299 -5.39769e-05 0.000172101
0.00605465 0.0021579 7.33033e-05
0.0021579 0.00116855 3.10616e-05
7.33033e-05 3.10616e-05 0.000910342
0.00428695 0.00156316 1.91305e-05
0.00156316 0.00130173 9.09443e-06
1.91305e-05 9.09443e-06 0.000973765
-0.000215301 0.000672893 -3.0071e-05
0.000672893 -0.000497891 1.11803e-05
-3.0071e-05 1.11803e-05 -0.000738938
0.00681379 0.00245451 -0.000181703
0.00245451 0.00171784 -1.84379e-05
-0.000181703 -1.84379e-05 0.00114206
0.00302447 -0.000515887 1.69085e-05
-0.000515887 -0.00059492 1.41662e-05
1.69085e-05 1.41662e-05 8.17626e-05
0.0114392 -0.000552336 -4.63657e-05
-0.000552336 0.00120502 -1.01002e-05
-4.63657e-05 -1.01002e-05 0.00117196
-0.0126304 -0.00270487 0.000768307
-0.00270487 -0.00529089 2.23439e-06
0.000768307 2.23439e-06 -0.00621488
0.000755228 -0.00119299 -0.00011098
-0.00119299 -0.000515445 3.31731e-05
-0.00011098 3.31731e-05 -0.000779192
0.0088854 -0.00258067 -6.18993e-06
-0.00258067 -0.000111591 9.32211e-05
-6.18993e-06 9.32211e-05 0.000936525
0.00104614 -0.000282198 -0.000282998
-0.000282198 -0.00482146 3.3941e-05
-0.000282998 3.3941e-05 -0.00652615
0.00279924 -0.00101982 3.43295e-05
-0.00101982 -9.95025e-05 7.60785e-07
3.43295e-05 7.60785e-07 -1.09177e-05
0.00506233 -0.000719623 -4.70335e-05
-0.000719623 -0.000500465 -2.0494e-06
-4.70335e-05 -2.0494e-06 0.000292516
0.00576985 -0.000879138 4.43843e-05
-0.000879138 0.00128749 -3.31503e-05
4.43843e-05 -3.31503e-05 0.00162813
0.00567841 -0.0004524 0.000107647
-0.0004524 0.00137194 2.28029e-06
0.000107647 2.28029e-06 0.00156399
-0.00335524 -0.000335087 9.26098e-06
-0.000335087 -0.00299755 1.17015e-05
9.26098e-06 1.17015e-05 -0.00273699
0.00204811 -0.000651975 -6.7904e-06
-0.000651975 -0.000229319 1.66321e-06
-6.7904e-06 1.66321e-06 -6.80747e-05
0.00236691 -0.000499082 2.5339e-05
-0.000499082 -0.000202236 -6.27873e-06
2.5339e-05 -6.27873e-06 6.43962e-05
0.00171361 -0.000737184 5.33203e-07
-0.000737184 -0.000224222 6.37795e-06
5.33203e-07 6.37795e-06 -0.000425587
0.00234216 -0.00062811 1.41119e-06
-0.00062811 -3.54184e-05 1.46421e-06
1.41119e-06 1.46421e-06 -6.90321e-05
0.00237482 -0.000549541 2.1618e-06
-0.000549541 1.5209e-05 -7.22368e-07
2.1618e-06 -7.22368e-07 2.07551e-05
0.00214916 -0.000562853 2.31317e-06
-0.000562853 3.65656e-05 5.73088e-06
2.31317e-06 5.73088e-06 -8.80082e-05
0.00221487 -0.000545717 3.31584e-07
-0.000545717 6.89712e-05 4.33211e-07
3.31584e-07 4.33211e-07 -2.4615e-06
0.00220672 -0.000487697 -2.09228e-06
-0.000487697 5.27204e-05 1.73428e-07
-2.09228e-06 1.73428e-07 -1.03739e-05
0.00204094 -0.000498143 3.71361e-06
-0.000498143 6.38449e-05 1.78124e-06
3.71361e-06 1.78124e-06 -7.31778e-05
0.00214159 -0.000524855 -1.66425e-07
-0.000524855 0.00013826 5.66686e-08
-1.66425e-07 5.66686e-08 8.16379e-06
0.00204846 -0.000471886 -7.80974e-08
-0.000471886 0.000121376 3.32259e-07
-7.80974e-08 3.32259e-07 -1.1746e-05
0.00205935 -0.00048278 -5.20239e-07
-0.00048278 0.000158439 1.98771e-06
-5.20239e-07 1.98771e-06 4.75387e-06
0.00210315 -0.000465646 -1.77533e-06
-0.000465646 0.000233079 3.25433e-07
-1.77533e-06 3.25433e-07 7.24584e-05
0.00215953 -0.000469943 -1.72626e-06
-0.000469943 0.000276551 -9.53863e-07
-1.72626e-06 -9.53863e-07 9.85111e-05
0.00204598 -0.000466209 4.75409e-06
-0.000466209 0.000208928 2.93076e-06
4.75409e-06 2.93076e-06 2.14116e-05
0.00200909 -0.000488603 -2.66284e-07
-0.000488603 0.000190646 -1.72641e-07
-2.66284e-07 -1.72641e-07 -1.92796e-05
0.00204904 -0.000481886 -1.23929e-06
-0.000481886 0.000265283 -2.77706e-06
-1.23929e-06 -2.77706e-06 3.47589e-05
0.0017231 -0.000469216 -9.07537e-06
-0.000469216 0.00021558 -5.1194e-07
-9.07537e-06 -5.1194e-07 -6.81333e-05
0.00198068 -0.000540737 -7.6092e-07
-0.000540737 0.000261767 -1.11432e-06
-7.6092e-07 -1.11432e-06 -2.19508e-05
0.0021449 -0.000575636 5.63101e-06
-0.000575636 0.000295904 2.64248e-06
5.63101e-06 2.64248e-06 2.16987e-05
0.000900982 -0.000273131 -1.49696e-05
-0.000273131 -9.0249e-06 7.27313e-06
-1.49696e-05 7.27313e-06 -0.000234123
0.00161307 -0.000503089 -1.42609e-07
-0.000503089 0.000258819 7.29469e-07
-1.42609e-07 7.29469e-07 -6.37458e-05
0.0017656 -0.000608156 3.58542e-06
-0.000608156 0.000241711 1.98262e-06
3.58542e-06 1.98262e-06 -0.000109008
0.000254819 -0.000186861 -1.94148e-05
-0.000186861 -0.000224012 1.95378e-05
-1.94148e-05 1.95378e-05 -0.000351637
0.000795766 -0.000254881 7.63078e-07
-0.000254881 1.99266e-05 3.26444e-07
7.63078e-07 3.26444e-07 -0.000204998
0.00121637 -0.000449742 1.08124e-05
-0.000449742 0.000153234 -1.82146e-06
1.08124e-05 -1.82146e-06 -0.000166712
0.00614523 0.00010251 -0.000215637
0.00010251 0.00355653 1.34076e-05
-0.000215637 1.34076e-05 0.003554
0.00038175 -0.000188784 -1.10153e-06
-0.000188784 -0.000126027 -6.93939e-08
-1.10153e-06 -6.93939e-08 -0.000244856
0.000629342 -0.000225613 9.81509e-06
-0.000225613 -5.44642e-06 -5.73956e-06
9.81509e-06 -5.73956e-06 -0.000227573
0.00552198 0.000124052 -3.30145e-06
0.000124052 0.00318743 -1.40915e-06
-3.30145e-06 -1.40915e-06 0.00317915
0.000420644 -0.00014399 1.92632e-05
-0.00014399 -8.08798e-05 -1.70608e-05
1.92632e-05 -1.70608e-05 -0.000187441
0.00485563 0.000114971 0.000173781
0.000114971 0.00277327 -1.53466e-05
0.000173781 -1.53466e-05 0.00276856
0.001607 0.000582785 -4.2164e-06
0.000582785 0.000400836 2.95749e-06
-4.2164e-06 2.95749e-06 2.27587e-05
0.00174668 0.000526706 -1.20103e-06
0.000526706 0.000614269 -1.45304e-06
-1.20103e-06 -1.45304e-06 0.000256742
0.000751841 0.000306344 -1.64054e-06
0.000306344 1.06056e-05 -3.11306e-06
-1.64054e-06 -3.11306e-06 -0.000254167
0.000893953 0.000291907 -8.3202e-06
0.000291907 0.00019525 -3.27128e-06
-8.3202e-06 -3.27128e-06 -3.42611e-05
0.000103231 0.000155937 2.19226e-06
0.000155937 -0.000261187 -2.53965e-07
2.19226e-06 -2.53965e-07 -0.00047286
0.00111706 0.000260089 -1.94717e-06
0.000260089 0.000407019 -6.16746e-06
-1.94717e-06 -6.16746e-06 0.000177699
-5.92342e-05 6.22135e-05 -8.76509e-07
6.22135e-05 -0.00031828 3.42008e-06
-8.76509e-07 3.42008e-06 -0.000521379
0.000687243 0.000122323 7.55095e-07
0.000122323 0.000145304 -2.96213e-07
7.55095e-07 -2.96213e-07 -3.91321e-05
0.00076385 6.87547e-05 -1.38526e-05
6.87547e-05 0.000152914 -1.70804e-05
-1.38526e-05 -1.70804e-05 7.84905e-05
0.000411681 5.59358e-05 -2.98846e-06
5.59358e-05 -2.15624e-05 9.94607e-06
-2.98846e-06 9.94607e-06 -0.000170485
0.000519723 4.41583e-05 4.21739e-07
4.41583e-05 1.55242e-05 -3.40052e-07
4.21739e-07 -3.40052e-07 -4.25119e-05
0.00381569 -0.000126916 -0.000111388
-0.000126916 0.00211246 -8.59976e-06
-0.000111388 -8.59976e-06 0.00210959
0.00321261 -0.000126319 -1.01958e-05
-0.000126319 0.00172341 9.14485e-07
-1.01958e-05 9.14485e-07 0.00172127
0.000350541 3.80408e-05 5.25295e-06
3.80408e-05 -8.7222e-05 1.1759e-05
5.25295e-06 1.1759e-05 -0.000133469
0.00281793 -0.000106048 4.52112e-05
-0.000106048 0.00146377 4.87617e-06
4.52112e-05 4.87617e-06 0.00146635
0.00400364 0.000161458 8.99846e-05
0.000161458 -0.00123435 2.78945e-05
8.99846e-05 2.78945e-05 0.000224163
0.00515313 -0.000932058 0.000173879
-0.000932058 -0.00433243 8.12633e-05
0.000173879 8.12633e-05 -0.00524612
0.0125797 -0.00309737 -0.000223733
-0.00309737 0.00503852 -9.96315e-05
-0.000223733 -9.96315e-05 0.0037869
0.001428 0.000621635 7.93562e-06
0.000621635 5.02877e-05 8.95789e-06
7.93562e-06 8.95789e-06 -0.000295621
0.00460879 0.000831538 -1.19908e-05
0.000831538 0.00251449 1.60732e-06
-1.19908e-05 1.60732e-06 0.00204872
0.000723805 0.000498329 -7.89143e-06
0.000498329 7.94273e-06 -5.7407e-06
-7.89143e-06 -5.7407e-06 -0.00039188
0.00144979 0.000681486 1.80897e-06
0.000681486 0.000409289 -1.78897e-06
1.80897e-06 -1.78897e-06 1.43179e-05
0.0016454 0.000664219 -1.66949e-06
0.000664219 0.000397775 3.80014e-06
-1.66949e-06 3.80014e-06 -2.10333e-05
0.00165283 0.000747149 2.4886e-05
0.000747149 0.000335874 1.38029e-05
2.4886e-05 1.38029e-05 -2.8293e-05
0.00251618 0.000837507 -4.04661e-05
0.000837507 0.000998545 -1.2941e-06
-4.04661e-05 -1.2941e-06 0.000589876
0.000653901 0.000629942 1.84942e-05
0.000629942 -4.19417e-05 -3.51174e-05
1.84942e-05 -3.51174e-05 -0.000317538
0.00189002 0.000837432 1.17829e-06
0.000837432 0.000433155 -2.25377e-06
1.17829e-06 -2.25377e-06 0.000126376
0.00210658 0.000875565 8.84388e-06
0.000875565 0.00028716 -2.1506e-07
8.84388e-06 -2.1506e-07 0.000230015
0.00210797 0.000891081 1.47917e-05
0.000891081 0.000269378 -2.43666e-06
1.47917e-05 -2.43666e-06 -3.93618e-05
0.00182775 0.000770304 2.33687e-05
0.000770304 0.000209336 2.0633e-05
2.33687e-05 2.0633e-05 1.61538e-05
0.000885709 0.000823763 -5.71031e-06
0.000823763 -0.000237849 -5.99859e-06
-5.71031e-06 -5.99859e-06 -0.00050725
0.000508064 0.000751605 -1.68806e-05
0.000751605 -0.000496015 -2.53156e-05
-1.68806e-05 -2.53156e-05 -0.000558794
0.00118219 0.000765595 5.22574e-05
0.000765595 -0.00112637 3.63786e-05
5.22574e-05 3.63786e-05 -0.000777483
0.00612031 0.00178918 -9.18859e-05
0.00178918 -0.00118926 -2.74348e-05
-9.18859e-05 -2.74348e-05 0.000211402
0.0041873 0.00197141 0.000554335
0.00197141 -0.00441695 0.000114817
0.000554335 0.000114817 -0.00613282
0.00200808 0.00198183 -0.000165602
0.00198183 -0.000812514 -6.43693e-05
-0.000165602 -6.43693e-05 -0.000114904
0.00456997 0.00176034 -3.0629e-05
0.00176034 0.000810096 -9.33118e-06
-3.0629e-05 -9.33118e-06 0.000637769
0.0050603 0.001666 -0.000147776
0.001666 0.00161157 -3.50792e-05
-0.000147776 -3.50792e-05 0.00126329
0.00239458 -0.000244718 -6.22958e-05
-0.000244718 -0.000738302 -2.04366e-05
-6.22958e-05 -2.04366e-05 -0.000379669
-0.000508683 -0.000288918 8.51002e-05
-0.000288918 -0.0011995 1.81546e-05
8.51002e-05 1.81546e-05 -0.000331235
0.00321903 0.000816951 0.000214551
0.000816951 -0.00503156 -1.74248e-05
0.000214551 -1.74248e-05 -0.00523641
0.000374975 -0.000768702 -4.88911e-05
-0.000768702 -0.00132755 7.43544e-05
-4.88911e-05 7.43544e-05 -0.00104886
0.00670517 -0.000802993 -0.000164624
-0.000802993 0.000450748 4.66223e-05
-0.000164624 4.66223e-05 0.000778037
0.00253798 -0.000644105 -1.83101e-05
-0.000644105 -0.00045447 1.1928e-05
-1.83101e-05 1.1928e-05 -4.46022e-05
0.00430971 -0.000459251 -8.00889e-06
-0.000459251 0.000570927 -3.09051e-06
-8.00889e-06 -3.09051e-06 0.000722055
0.00274582 -0.000371327 6.27297e-05
-0.000371327 -8.93876e-05 -7.78965e-06
6.27297e-05 -7.78965e-06 0.000257996
0.00375644 -0.000108564 4.82397e-05
-0.000108564 0.00112554 1.42385e-06
4.82397e-05 1.42385e-06 0.00113526
0.000450611 -0.000524778 -2.352e-05
-0.000524778 -0.00113152 1.31991e-05
-2.352e-05 1.31991e-05 -0.000868103
0.00215274 -0.000514025 -2.48285e-06
-0.000514025 -0.000357716 1.82462e-06
-2.48285e-06 1.82462e-06 -9.43159e-05
0.00241672 -0.000438088 5.06069e-06
-0.000438088 -0.000182657 -1.62557e-06
5.06069e-06 -1.62557e-06 3.2596e-05
0.00227103 -0.000618229 -2.405e-06
-0.000618229 -6.37203e-05 4.07846e-06
-2.405e-06 4.07846e-06 -9.57759e-05
0.00235818 -0.000538455 3.30366e-08
-0.000538455 2.2552e-05 -3.1775e-07
3.30366e-08 -3.1775e-07 3.23841e-05
0.00227824 -0.000427435 -4.48727e-07
-0.000427435 -1.4626e-05 -3.14539e-07
-4.48727e-07 -3.14539e-07 -2.30515e-06
0.00215688 -0.000535342 -1.95233e-07
-0.000535342 4.9213e-05 1.09325e-06
-1.95233e-07 1.09325e-06 -2.31458e-05
0.00219952 -0.000493144 -8.96364e-07
-0.000493144 5.89175e-05 8.64554e-08
-8.96364e-07 8.64554e-08 -5.129e-06
0.00210748 -0.000419478 -1.50718e-06
-0.000419478 7.45991e-05 9.05959e-07
-1.50718e-06 9.05959e-07 -7.32679e-06
0.00207935 -0.000516496 7.56156e-07
-0.000516496 0.000122962 -9.38083e-07
7.56156e-07 -9.38083e-07 -6.36375e-06
0.00203419 -0.000472073 1.02635e-06
-0.000472073 0.000109096 -5.36436e-07
1.02635e-06 -5.36436e-07 -2.45741e-05
0.00201368 -0.00043652 -5.31599e-07
-0.00043652 0.000133841 -5.23283e-07
-5.31599e-07 -5.23283e-07 -1.55977e-05
0.00203794 -0.000456263 -1.42038e-06
-0.000456263 0.000187682 1.97181e-06
-1.42038e-06 1.97181e-06 3.06106e-05
0.0021423 -0.000466837 -1.80005e-06
-0.000466837 0.000259012 6.79156e-07
-1.80005e-06 6.79156e-07 8.4705e-05
0.00215244 -0.000458857 -9.41256e-07
-0.000458857 0.000290848 -2.12767e-06
-9.41256e-07 -2.12767e-06 9.2334e-05
0.00205653 -0.000492714 2.91754e-06
-0.000492714 0.000219447 2.9371e-06
2.91754e-06 2.9371e-06 8.40204e-06
0.00205997 -0.000484576 4.22022e-07
-0.000484576 0.000272204 -4.48444e-07
4.22022e-07 -4.48444e-07 4.19164e-05
0.00181873 -0.000420041 -6.28109e-06
-0.000420041 0.000231591 1.98889e-07
-6.28109e-06 1.98889e-07 -1.5741e-05
0.00106605 -0.000282392 -1.79185e-05
-0.000282392 2.3134e-05 7.95746e-06
-1.79185e-05 7.95746e-06 -0.000198797
0.00169293 -0.000464581 -1.12474e-06
-0.000464581 0.000205032 -4.1955e-07
-1.12474e-06 -4.1955e-07 -8.02023e-05
0.00191037 -0.000540771 3.32052e-06
-0.000540771 0.00021679 1.47436e-06
3.32052e-06 1.47436e-06 -7.25303e-05
0.000403039 -0.000232525 -2.27097e-05
-0.000232525 -0.000142582 1.89299e-05
-2.27097e-05 1.89299e-05 -0.000286279
0.000892897 -0.00027694 1.13327e-06
-0.00027694 -2.30657e-05 -1.69736e-07
1.13327e-06 -1.69736e-07 -0.00025027
0.00164021 -0.000500396 9.35532e-06
-0.000500396 0.000280576 -5.05505e-07
9.35532e-06 -5.05505e-07 -3.93416e-05
0.00678877 5.71852e-05 -0.000258823
5.71852e-05 0.00393619 1.78908e-05
-0.000258823 1.78908e-05 0.00393973
0.000458584 -0.000240995 -1.37025e-06
-0.000240995 -9.04592e-05 7.27632e-07
-1.37025e-06 7.27632e-07 -0.000228875
0.000762614 -0.000263196 1.29401e-05
-0.000263196 -4.21956e-06 -6.61806e-06
1.29401e-05 -6.61806e-06 -0.000233779
0.00633426 8.52231e-05 -5.22429e-06
8.52231e-05 0.00367755 -3.24006e-07
-5.22429e-06 -3.24006e-07 0.003674
0.000583831 -0.000231136 2.59483e-05
-0.000231136 -1.48925e-06 -1.94434e-05
2.59483e-05 -1.94434e-05 -0.000123267
0.00580408 0.000137809 0.000203064
0.000137809 0.00338464 -2.42235e-05
0.000203064 -2.42235e-05 0.00336535
0.00157216 0.000572757 -3.00265e-07
0.000572757 0.000200885 5.40644e-06
-3.00265e-07 5.40644e-06 -0.000145281
0.00168732 0.000598135 -2.02013e-06
0.000598135 0.000440583 2.87556e-07
-2.02013e-06 2.87556e-07 5.62682e-05
0.00123732 0.000423302 -7.71016e-06
0.000423302 0.000194555 -7.41686e-07
-7.71016e-06 -7.41686e-07 -0.000106119
0.00155639 0.000505703 -8.33807e-07
0.000505703 0.000472376 2.49423e-08
-8.33807e-07 2.49423e-08 0.000125755
0.000933467 0.000309874 -3.55613e-06
0.000309874 0.000124819 -2.11415e-06
-3.55613e-06 -2.11415e-06 -0.00013592
0.00131943 0.000260637 -8.50347e-06
0.000260637 0.000462557 -2.21505e-06
-8.50347e-06 -2.21505e-06 0.000231961
-0.000244902 0.000110585 -3.47196e-06
0.000110585 -0.000492184 -2.08325e-06
-3.47196e-06 -2.08325e-06 -0.000696241
0.000851166 0.000162228 -1.00505e-06
0.000162228 0.000224357 -6.97357e-07
-1.00505e-06 -6.97357e-07 9.78117e-06
0.000573476 0.000113561 -2.16064e-05
0.000113561 1.27755e-05 -1.79053e-05
-2.16064e-05 -1.79053e-05 -7.54909e-05
0.000327986 9.08947e-05 6.43675e-07
9.08947e-05 -8.93261e-05 9.76185e-06
6.43675e-07 9.76185e-06 -0.000259883
0.00042082 6.32102e-05 -5.15802e-07
6.32102e-05 -5.50102e-05 -3.49836e-07
-5.15802e-07 -3.49836e-07 -0.000125296
0.00439775 -0.000149885 -0.000132202
-0.000149885 0.00249334 -1.16848e-05
-0.000132202 -1.16848e-05 0.00248163
0.000238906 4.78263e-05 7.55558e-06
4.78263e-05 -0.000154519 1.47877e-05
7.55558e-06 1.47877e-05 -0.000211656
0.00367948 -0.000146599 -1.04611e-05
-0.000146599 0.00203107 1.05475e-06
-1.04611e-05 1.05475e-06 0.00202288
0.00308143 -0.000130837 5.35113e-05
-0.000130837 0.00164119 5.12585e-06
5.35113e-05 5.12585e-06 0.00163724
0.000502605 0.00014937 -1.79692e-06
0.00014937 -0.00181525 9.96657e-06
-1.79692e-06 9.96657e-06 -0.00112661
0.00510188 4.20496e-05 6.62438e-05
4.20496e-05 -0.000655198 1.79175e-05
6.62438e-05 1.79175e-05 0.000681201
0.0141629 0.000824087 -2.31782e-05
0.000824087 0.00226179 1.22892e-05
-2.31782e-05 1.22892e-05 0.00200917
0.00193176 0.000741425 1.08434e-06
0.000741425 0.000323856 5.27152e-06
1.08434e-06 5.27152e-06 -1.78209e-05
0.00216294 0.000717022 -5.44988e-07
0.000717022 0.00029908 3.68002e-06
-5.44988e-07 3.68002e-06 -8.77419e-06
0.00151364 0.000634426 -4.01986e-07
0.000634426 0.000113743 -3.55024e-06
-4.01986e-07 -3.55024e-06 -0.000231312
0.00286265 0.000853939 -1.26276e-05
0.000853939 0.00124253 3.50891e-06
-1.26276e-05 3.50891e-06 0.000814131
0.00192127 0.000693806 -7.17664e-06
0.000693806 0.000589714 -1.00075e-05
-7.17664e-06 -1.00075e-05 0.000157508
0.00198885 0.000801682 7.41733e-06
0.000801682 0.000492826 3.19034e-06
7.41733e-06 3.19034e-06 0.000127762
0.00191035 0.000806903 -1.26309e-06
0.000806903 0.00010608 -3.51113e-06
-1.26309e-06 -3.51113e-06 -0.000195879
0.00254062 0.000931499 -1.99218e-05
0.000931499 0.000755384 5.38531e-06
-1.99218e-05 5.38531e-06 0.000435236
0.00103944 0.000767837 -1.15378e-05
0.000767837 -0.000391421 1.16247e-05
-1.15378e-05 1.16247e-05 -0.000327399
0.00271039 0.000956025 8.13333e-07
0.000956025 0.000621172 3.76577e-06
8.13333e-07 3.76577e-06 0.00029884
0.00265001 0.000822314 -4.10398e-06
0.000822314 0.000395101 3.19951e-06
-4.10398e-06 3.19951e-06 0.000161799
0.00128284 0.00040454 3.70733e-05
0.00040454 -0.000285541 1.8197e-05
3.70733e-05 1.8197e-05 -0.000232794
0.00041757 0.000640604 9.32555e-06
0.000640604 -0.000529466 -4.02444e-06
9.32555e-06 -4.02444e-06 -0.000706888
0.000951131 0.000828311 -3.57535e-05
0.000828311 -0.000201433 -4.15888e-06
-3.57535e-05 -4.15888e-06 -0.000474471
0.00297767 0.000908667 5.74807e-06
0.000908667 -0.000154299 8.00101e-06
5.74807e-06 8.00101e-06 6.07982e-05
0.00700783 0.00139671 -2.40737e-05
0.00139671 -0.000725762 -4.09736e-05
-2.40737e-05 -4.09736e-05 0.000317056
0.00426232 0.00147242 -4.30164e-05
0.00147242 0.00105086 -5.38048e-05
-4.30164e-05 -5.38048e-05 0.000952759
0.00184543 -8.09269e-05 3.53035e-05
-8.09269e-05 -0.000188817 3.19172e-06
3.53035e-05 3.19172e-06 -2.52509e-05
0.00278701 -0.000237226 -5.71835e-05
-0.000237226 -0.000442987 3.45661e-06
-5.71835e-05 3.45661e-06 -6.98609e-05
0.00377954 0.00036692 2.09111e-05
0.00036692 -0.000287132 -1.6309e-05
2.09111e-05 -1.6309e-05 0.000324073
0.000977171 -0.000550827 -6.98427e-05
-0.000550827 -0.00125374 5.14636e-05
-6.98427e-05 5.14636e-05 -0.000837422
0.00274135 -0.000510402 -9.95113e-05
-0.000510402 -0.000324393 -2.92657e-06
-9.95113e-05 -2.92657e-06 -0.000218864
0.00266393 -0.000372204 8.57869e-06
-0.000372204 -4.61398e-05 -3.42498e-06
8.57869e-06 -3.42498e-06 0.000295661
0.00250725 -0.000103171 -1.58011e-05
-0.000103171 0.000301742 7.32053e-07
-1.58011e-05 7.32053e-07 0.000333197
0.00243702 -0.000243315 1.49455e-05
-0.000243315 -3.08115e-05 -3.5635e-07
1.49455e-05 -3.5635e-07 0.000107538
0.00238365 3.88271e-06 1.11033e-05
3.88271e-06 -2.4342e-05 2.81234e-06
1.11033e-05 2.81234e-06 3.47868e-05
0.0020592 -0.000537716 -1.77781e-05
-0.000537716 -0.000445328 5.58257e-06
-1.77781e-05 5.58257e-06 -0.000191251
0.00243351 -0.000452826 -2.68921e-06
-0.000452826 -0.000167954 6.43708e-07
-2.68921e-06 6.43708e-07 1.08804e-05
0.00235294 -0.000315085 5.9199e-07
-0.000315085 -8.89047e-05 -1.20274e-06
5.9199e-07 -1.20274e-06 3.31184e-06
0.00233659 -0.000528331 -3.96892e-06
-0.000528331 2.41132e-05 1.11694e-06
-3.96892e-06 1.11694e-06 3.75063e-05
0.00228053 -0.0004244 -7.57154e-08
-0.0004244 -2.335e-07 -1.31752e-07
-7.57154e-08 -1.31752e-07 7.30322e-06
0.00218019 -0.000352813 -5.86658e-07
-0.000352813 1.35887e-05 3.9208e-07
-5.86658e-07 3.9208e-07 -3.90345e-06
0.00219262 -0.000498776 -3.92722e-07
-0.000498776 6.47529e-05 -6.99014e-07
-3.92722e-07 -6.99014e-07 -4.94923e-07
0.00210783 -0.000418713 5.1553e-07
-0.000418713 7.08461e-05 -1.47943e-07
5.1553e-07 -1.47943e-07 -1.08887e-05
0.00206683 -0.00038327 -1.93801e-06
-0.00038327 0.000104647 6.31284e-07
-1.93801e-06 6.31284e-07 -3.94328e-06
0.00202227 -0.000472316 2.19606e-06
-0.000472316 9.83663e-05 -1.29223e-06
2.19606e-06 -1.29223e-06 -3.58436e-05
0.00200782 -0.000435697 5.86917e-07
-0.000435697 0.000126635 -5.23589e-07
5.86917e-07 -5.23589e-07 -2.31008e-05
0.00201471 -0.000410629 -7.00365e-07
-0.000410629 0.000162786 -1.48544e-06
-7.00365e-07 -1.48544e-06 -6.20762e-06
0.00212191 -0.000463582 -8.88884e-07
-0.000463582 0.000239281 2.6669e-06
-8.88884e-07 2.6669e-06 6.87306e-05
0.00211553 -0.000457313 -5.33033e-07
-0.000457313 0.000269325 -1.98289e-07
-5.33033e-07 -1.98289e-07 7.17053e-05
0.00179806 -0.000386429 -4.32461e-06
-0.000386429 0.000173708 1.17856e-07
-4.32461e-06 1.17856e-07 -4.90382e-05
0.00207523 -0.000487547 2.66334e-06
-0.000487547 0.000281898 2.31326e-06
2.66334e-06 2.31326e-06 5.18011e-05
0.00186579 -0.000425321 -8.33707e-07
-0.000425321 0.000260974 7.6492e-09
-8.33707e-07 7.6492e-09 1.43252e-05
0.00107914 -0.000258025 -1.73382e-05
-0.000258025 -3.51037e-06 7.32702e-06
-1.73382e-05 7.32702e-06 -0.000212988
0.000339605 -0.000202597 -2.00154e-05
-0.000202597 -0.000201938 1.72866e-05
-2.00154e-05 1.72866e-05 -0.000337356
0.00102279 -0.00028094 8.48275e-07
-0.00028094 -5.92979e-06 1.74966e-08
8.48275e-07 1.74966e-08 -0.000228272
0.00168843 -0.000462124 6.82699e-06
-0.000462124 0.000210369 -6.98528e-07
6.82699e-06 -6.98528e-07 -7.67447e-05
0.0071545 -2.62099e-05 -0.000296425
-2.62099e-05 0.00413991 2.1894e-05
-0.000296425 2.1894e-05 0.00415205
0.00036664 -0.000227566 -8.83607e-07
-0.000227566 -0.000174165 1.30843e-06
-8.83607e-07 1.30843e-06 -0.000312445
0.000889195 -0.000279146 1.43042e-05
-0.000279146 -3.33431e-05 -6.45428e-06
1.43042e-05 -6.45428e-06 -0.000262455
0.00698327 2.76325e-05 -9.05509e-07
2.76325e-05 0.00405543 5.49042e-07
-9.05509e-07 5.49042e-07 0.00406001
0.000484466 -0.00024172 2.45177e-05
-0.00024172 -7.99707e-05 -1.99029e-05
2.45177e-05 -1.99029e-05 -0.000218251
0.00664643 5.1625e-05 0.000262095
5.1625e-05 0.00386437 -2.36723e-05
0.000262095 -2.36723e-05 0.0038648
0.0018441 0.000630878 -4.92293e-07
0.000630878 0.000221584 5.75446e-06
-4.92293e-07 5.75446e-06 -9.79724e-05
0.00162178 0.000583656 -5.2581e-08
0.000583656 0.000235152 8.4317e-07
-5.2581e-08 8.4317e-07 -0.000111449
0.00149401 0.00047609 -8.4318e-06
0.00047609 0.000246917 3.38053e-08
-8.4318e-06 3.38053e-08 -6.22411e-05
0.00152622 0.000585019 4.87693e-07
0.000585019 0.000333832 -2.04817e-06
4.87693e-07 -2.04817e-06 -4.97965e-05
0.00126859 0.000420223 -1.57669e-06
0.000420223 0.000221356 -4.75255e-08
-1.57669e-06 -4.75255e-08 -7.69695e-05
0.000986232 0.000242425 -1.17239e-05
0.000242425 0.000165937 -4.3997e-06
-1.17239e-05 -4.3997e-06 -4.92025e-05
0.00122608 0.000323504 8.47e-07
0.000323504 0.000312377 -1.62383e-06
8.47e-07 -1.62383e-06 5.29506e-05
0.000565309 0.000203717 5.65853e-07
0.000203717 -6.7125e-06 1.67622e-06
5.65853e-07 1.67622e-06 -0.000230342
0.000422286 0.000186214 -2.75224e-05
0.000186214 -9.71426e-05 -1.86218e-05
-2.75224e-05 -1.86218e-05 -0.000202768
0.000103568 0.000100984 6.37991e-07
0.000100984 -0.000230925 5.25328e-06
6.37991e-07 5.25328e-06 -0.000447556
0.00055493 9.82293e-05 -1.03974e-06
9.82293e-05 6.14002e-06 -4.72544e-07
-1.03974e-06 -4.72544e-07 -7.99703e-05
0.00535303 -0.000164447 -0.000175625
-0.000164447 0.00310844 -1.65632e-05
-0.000175625 -1.65632e-05 0.00308869
0.00035109 6.18579e-05 1.17109e-05
6.18579e-05 -9.39844e-05 1.76875e-05
1.17109e-05 1.76875e-05 -0.000162764
0.00428415 -0.00017195 -1.02923e-05
-0.00017195 0.00242727 1.19896e-06
-1.02923e-05 1.19896e-06 0.00241045
0.00353947 -0.000157391 7.30828e-05
-0.000157391 0.00194526 6.0746e-06
7.30828e-05 6.0746e-06 0.00193356
0.0014388 0.000166693 3.02048e-05
0.000166693 -0.000343722 1.89777e-05
3.02048e-05 1.89777e-05 -0.000122585
0.00268297 0.000198593 -1.85946e-05
0.000198593 -0.000940065 -2.56853e-06
-1.85946e-05 -2.56853e-06 -0.000193991
0.00413964 0.000288165 0.000216202
0.000288165 -0.00166601 6.39763e-05
0.000216202 6.39763e-05 0.000157783
0.0026359 0.000774876 -8.16109e-06
0.000774876 0.000538519 7.80077e-08
-8.16109e-06 7.80077e-08 0.000242026
0.00175104 0.000744061 -6.11331e-06
0.000744061 0.000198465 -4.69323e-06
-6.11331e-06 -4.69323e-06 -0.000138639
0.00217419 0.000579802 8.45651e-07
0.000579802 0.000177438 4.56661e-06
8.45651e-07 4.56661e-06 -4.80122e-05
0.00215484 0.00070623 1.35098e-06
0.00070623 0.00029618 4.45033e-07
1.35098e-06 4.45033e-07 -8.63661e-06
0.00153566 0.000640568 1.56921e-06
0.000640568 0.000137031 -1.13104e-05
1.56921e-06 -1.13104e-05 -0.000205754
0.00208841 0.00062945 -2.3173e-06
0.00062945 3.27675e-05 8.39674e-07
-2.3173e-06 8.39674e-07 -0.000170624
0.00277651 0.00091039 -1.02295e-05
0.00091039 0.000916091 -3.87178e-06
-1.02295e-05 -3.87178e-06 0.000536772
0.00239931 0.000838928 3.8598e-07
0.000838928 0.000399286 4.2243e-08
3.8598e-07 4.2243e-08 8.60824e-05
0.00207418 0.000426618 -1.25798e-05
0.000426618 -0.000145276 -8.8328e-07
-1.25798e-05 -8.8328e-07 -0.000150819
0.00348561 0.00105068 -5.8e-06
0.00105068 0.00104987 6.28061e-06
-5.8e-06 6.28061e-06 0.000713809
0.00249619 0.000810922 4.11593e-07
0.000810922 0.000307281 -5.53812e-07
4.11593e-07 -5.53812e-07 7.15742e-05
0.000675464 0.000390431 -9.49417e-08
0.000390431 -0.000613601 1.64302e-06
-9.49417e-08 1.64302e-06 -0.000552895
-0.00117622 0.000495428 -2.46486e-05
0.000495428 -0.00135669 -9.48484e-06
-2.46486e-05 -9.48484e-06 -0.00150655
0.00381997 0.00102514 -0.000124302
0.00102514 0.000268592 -4.06751e-05
-0.000124302 -4.06751e-05 0.000372744
0.00214562 9.78174e-05 -1.09113e-06
9.78174e-05 -0.000194755 -1.86523e-07
-1.09113e-06 -1.86523e-07 -9.78317e-05
0.00266204 -8.15435e-05 7.59819e-06
-8.15435e-05 0.000405395 -6.41317e-07
7.59819e-06 -6.41317e-07 0.000515144
0.00278495 -0.000254889 -9.48606e-05
-0.000254889 -0.000396801 5.90261e-06
-9.48606e-05 5.90261e-06 -1.49271e-05
0.00213239 -0.000361636 -7.273e-05
-0.000361636 -0.000275407 6.62463e-06
-7.273e-05 6.62463e-06 6.0436e-05
0.00130639 -0.000111776 -1.45887e-05
-0.000111776 -0.00048687 1.04165e-06
-1.45887e-05 1.04165e-06 -0.000435125
0.00244111 -0.000247295 1.4312e-06
-0.000247295 -4.82993e-05 -1.86786e-06
1.4312e-06 -1.86786e-06 0.0001133
0.00240698 6.55171e-06 -3.09596e-06
6.55171e-06 -4.00656e-05 9.22097e-07
-3.09596e-06 9.22097e-07 2.357e-05
0.00238953 -7.73053e-05 1.05233e-06
-7.73053e-05 -7.45655e-05 -7.68701e-07
1.05233e-06 -7.68701e-07 2.09836e-05
0.00245262 -0.000464445 -6.41078e-06
-0.000464445 -0.000144901 1.25663e-06
-6.41078e-06 1.25663e-06 -2.86133e-06
0.0023082 -0.000303934 3.8036e-07
-0.000303934 -9.77076e-05 -2.4886e-07
3.8036e-07 -2.4886e-07 -1.43954e-05
0.00223054 -0.000233805 5.31615e-07
-0.000233805 -2.44012e-05 -3.23184e-07
5.31615e-07 -3.23184e-07 2.07311e-05
0.00228571 -0.000421665 -3.74727e-07
-0.000421665 1.65061e-05 2.14635e-07
-3.74727e-07 2.14635e-07 1.91074e-05
0.0021762 -0.000349636 9.41117e-08
-0.000349636 1.54826e-05 1.85627e-07
9.41117e-08 1.85627e-07 -3.32873e-06
0.00208617 -0.000299254 -2.80564e-06
-0.000299254 5.38806e-05 8.03458e-07
-2.80564e-06 8.03458e-07 2.2855e-06
0.00210783 -0.000417888 2.02173e-06
-0.000417888 6.66037e-05 -1.05593e-06
2.02173e-06 -1.05593e-06 -1.49383e-05
0.00205486 -0.000381464 6.66845e-07
-0.000381464 9.4528e-05 -2.36864e-07
6.66845e-07 -2.36864e-07 -1.40869e-05
0.00203824 -0.000351577 -1.24169e-06
-0.000351577 0.000137953 -8.7854e-07
-1.24169e-06 -8.7854e-07 3.67346e-06
0.00200109 -0.00043494 1.49985e-06
-0.00043494 0.000118715 -4.15304e-07
1.49985e-06 -4.15304e-07 -3.13376e-05
0.00205564 -0.000412988 -3.11316e-07
-0.000412988 0.000189688 -1.19096e-07
-3.11316e-07 -1.19096e-07 2.01629e-05
0.00185713 -0.000350773 -2.42011e-06
-0.000350773 0.000166163 -2.5118e-07
-2.42011e-06 -2.5118e-07 -3.14421e-05
0.00207706 -0.000455528 5.39104e-07
-0.000455528 0.000246734 1.77698e-06
5.39104e-07 1.77698e-06 5.00887e-05
0.00183105 -0.000388566 -5.85347e-07
-0.000388566 0.0001951 1.09485e-07
-5.85347e-07 1.09485e-07 -2.75218e-05
0.00108194 -0.00022902 -1.48703e-05
-0.00022902 -2.41302e-05 6.34155e-06
-1.48703e-05 6.34155e-06 -0.000220418
0.00190481 -0.000429994 5.43173e-06
-0.000429994 0.000285076 -2.60723e-09
5.43173e-06 -2.60723e-09 3.92081e-05
0.00109117 -0.000257963 2.12183e-07
-0.000257963 4.00447e-07 7.89049e-08
2.12183e-07 7.89049e-08 -0.000208339
0.00274898 -0.000182994 -4.95837e-05
-0.000182994 0.00128947 1.22382e-05
-4.95837e-05 1.22382e-05 0.00118482
0.00230127 -0.000104964 -0.000263291
-0.000104964 0.00109279 3.56817e-05
-0.000263291 3.56817e-05 0.00107389
0.00158994 -0.000208082 -1.34216e-05
-0.000208082 0.000575788 -2.26565e-08
-1.34216e-05 -2.26565e-08 0.000451289
0.00100209 -0.000280355 1.69336e-05
-0.000280355 -1.99752e-05 -6.8131e-06
1.69336e-05 -6.8131e-06 -0.000242628
0.00720346 -4.51932e-05 -7.90485e-06
-4.51932e-05 0.00417817 1.30995e-06
-7.90485e-06 1.30995e-06 0.00418715
0.000341778 -0.000254256 2.49972e-05
-0.000254256 -0.000188763 -1.86089e-05
2.49972e-05 -1.86089e-05 -0.000329668
0.00712902 3.94137e-06 0.000291472
3.94137e-06 0.00415123 -2.80889e-05
0.000291472 -2.80889e-05 0.00415324
0.00215215 0.000446223 1.77294e-07
0.000446223 0.000158861 7.85873e-07
1.77294e-07 7.85873e-07 -9.24179e-06
0.0021236 0.000584306 3.14439e-06
0.000584306 0.000287546 5.46439e-06
3.14439e-06 5.46439e-06 2.72866e-05
0.00211292 0.000652562 2.79323e-07
0.000652562 0.000381588 2.04599e-07
2.79323e-07 2.04599e-07 6.19172e-05
0.00173574 0.00051001 -8.01957e-06
0.00051001 0.000283512 1.34081e-06
-8.01957e-06 1.34081e-06 -1.77426e-05
0.00171449 0.000600636 3.48454e-06
0.000600636 0.00029331 -3.45346e-06
3.48454e-06 -3.45346e-06 -5.54433e-05
0.00150146 0.000480914 -1.00929e-07
0.000480914 0.000242231 5.7938e-07
-1.00929e-07 5.7938e-07 -6.96707e-05
0.000847438 0.000267928 -1.3926e-05
0.000267928 -1.30196e-05 -5.66211e-06
-1.3926e-05 -5.66211e-06 -0.000229979
0.00127917 0.000415709 8.1501e-06
0.000415709 0.000234304 2.48921e-06
8.1501e-06 2.48921e-06 -6.146e-05
0.000654735 0.000220398 1.19491e-06
0.000220398 -4.13952e-05 7.65968e-09
1.19491e-06 7.65968e-09 -0.000250541
0.000531807 0.000257879 -2.88026e-05
0.000257879 -4.23705e-05 -1.94981e-05
-2.88026e-05 -1.94981e-05 -0.000168258
0.000228323 0.000170097 4.37632e-06
0.000170097 -0.000228591 3.09002e-06
4.37632e-06 3.09002e-06 -0.000442712
0.000508759 0.000169033 1.16964e-06
0.000169033 -4.8127e-05 -8.53642e-07
1.16964e-06 -8.53642e-07 -0.000149513
0.00628205 -0.000136278 -0.000223786
-0.000136278 0.00368074 -2.27055e-05
-0.000223786 -2.27055e-05 0.00366059
0.00031723 8.86925e-05 1.75853e-05
8.86925e-05 -0.000137992 1.76869e-05
1.75853e-05 1.76869e-05 -0.000218614
0.00492615 -0.000185411 -6.81204e-06
-0.000185411 0.00283793 1.28892e-08
-6.81204e-06 1.28892e-08 0.00281526
0.00411715 -0.000188722 9.47487e-05
-0.000188722 0.00232666 8.33463e-06
9.47487e-05 8.33463e-06 0.00230526
0.00224678 0.000219439 -5.94366e-06
0.000219439 -0.000174808 -1.15033e-06
-5.94366e-06 -1.15033e-06 -5.14246e-05
0.00211538 0.000118427 2.1675e-05
0.000118427 -8.10104e-05 -2.93472e-06
2.1675e-05 -2.93472e-06 0.000178412
0.00566651 0.000301133 -0.000115179
0.000301133 0.000409587 -1.9324e-06
-0.000115179 -1.9324e-06 0.00119387
0.00219887 0.000532708 -3.2303e-06
0.000532708 0.000138977 1.34428e-06
-3.2303e-06 1.34428e-06 -4.51773e-05
0.00224792 0.00072622 -3.58499e-06
0.00072622 0.000345496 -3.07121e-07
-3.58499e-06 -3.07121e-07 5.70191e-05
0.00176491 0.000766145 -6.03781e-06
0.000766145 0.000185315 -1.07395e-05
-6.03781e-06 -1.07395e-05 -0.000150472
0.00229103 0.00057426 3.02409e-06
0.00057426 0.000266576 1.52571e-06
3.02409e-06 1.52571e-06 4.36713e-05
0.00214754 0.00069563 1.03628e-06
0.00069563 0.000294354 -4.6674e-06
1.03628e-06 -4.6674e-06 -7.52815e-06
0.00241821 0.00042471 -1.72619e-07
0.00042471 2.5277e-05 1.69982e-07
-1.72619e-07 1.69982e-07 1.16205e-05
0.00213744 0.000639171 -6.88704e-07
0.000639171 7.81038e-05 2.94157e-07
-6.88704e-07 2.94157e-07 -0.000125163
0.00280333 0.000861519 -6.03824e-06
0.000861519 0.000648954 -2.0204e-06
-6.03824e-06 -2.0204e-06 0.000324551
0.00203827 0.000416181 -2.77835e-08
0.000416181 -0.000145687 -3.23188e-07
-2.77835e-08 -3.23188e-07 -0.000149616
0.00219703 0.000782113 1.22593e-05
0.000782113 0.000129161 3.1583e-06
1.22593e-05 3.1583e-06 -0.000105662
-9.39271e-06 0.000347887 -3.89878e-05
0.000347887 -0.000997 -1.98515e-05
-3.89878e-05 -1.98515e-05 -0.000923438
0.00238738 8.93022e-05 1.01289e-06
8.93022e-05 -2.7179e-05 3.46342e-07
1.01289e-06 3.46342e-07 4.63629e-05
0.00226923 0.000106783 -1.6773e-06
0.000106783 -0.00010356 2.81447e-07
-1.6773e-06 2.81447e-07 -1.40874e-05
0.00344652 -8.21577e-05 -4.92848e-05
-8.21577e-05 0.000969544 1.72202e-06
-4.92848e-05 1.72202e-06 0.00103514
0.00243506 -0.000246881 -2.34013e-05
-0.000246881 -7.72022e-05 2.13977e-06
-2.34013e-05 2.13977e-06 0.000106745
0.00245067 1.33588e-05 -7.77859e-06
1.33588e-05 -4.81828e-05 -4.6858e-06
-7.77859e-06 -4.6858e-06 1.93849e-05
0.00235953 -8.55429e-05 -2.34678e-07
-8.55429e-05 -0.000108115 1.19951e-07
-2.34678e-07 1.19951e-07 -5.90971e-06
0.00211297 -7.14794e-05 5.09311e-07
-7.14794e-05 -3.14987e-05 1.18578e-07
5.09311e-07 1.18578e-07 1.63956e-06
0.00226268 -0.000291972 -4.3402e-07
-0.000291972 -0.00010559 4.12237e-07
-4.3402e-07 4.12237e-07 -3.13132e-05
0.00218497 -0.000238761 -1.93342e-07
-0.000238761 -4.54065e-05 2.61625e-08
-1.93342e-07 2.61625e-08 -6.87816e-06
0.00206226 -0.000199698 -2.01932e-06
-0.000199698 1.70288e-05 1.86308e-07
-2.01932e-06 1.86308e-07 -1.63226e-06
0.00217232 -0.000346506 7.61977e-07
-0.000346506 1.73626e-05 3.37381e-08
7.61977e-07 3.37381e-08 -2.7351e-06
0.00209666 -0.000300401 3.32429e-07
-0.000300401 5.5758e-05 -2.0379e-09
3.32429e-07 -2.0379e-09 3.76738e-06
0.00208414 -0.000286533 -2.44175e-06
-0.000286533 0.00012291 -1.80226e-07
-2.44175e-06 -1.80226e-07 2.25478e-05
0.00204317 -0.000379523 2.6759e-06
-0.000379523 8.46957e-05 -9.39273e-07
2.6759e-06 -9.39273e-07 -2.39008e-05
0.00204186 -0.000352449 -2.47829e-07
-0.000352449 0.00013704 -9.90721e-08
-2.47829e-07 -9.90721e-08 2.28012e-06
0.00187029 -0.000301885 -1.93038e-06
-0.000301885 0.000137991 -4.53824e-07
-1.93038e-06 -4.53824e-07 -3.3602e-05
0.00209728 -0.000415428 9.98013e-07
-0.000415428 0.000217094 9.46551e-07
9.98013e-07 9.46551e-07 4.70167e-05
0.00188422 -0.000352621 -4.21055e-07
-0.000352621 0.000183024 5.27039e-08
-4.21055e-07 5.27039e-08 -1.4448e-05
0.00109678 -0.00020482 -1.32546e-05
-0.00020482 -3.48789e-05 4.99496e-06
-1.32546e-05 4.99496e-06 -0.000220849
0.00186499 -0.000390709 3.295e-06
-0.000390709 0.000217227 -2.28516e-08
3.295e-06 -2.28516e-08 -5.26225e-06
0.00112528 -0.000230457 2.82042e-09
-0.000230457 -3.27098e-06 2.06328e-07
2.82042e-09 2.06328e-07 -0.000198739
0.00276293 -0.000177731 -5.77883e-05
-0.000177731 0.00128941 1.19126e-05
-5.77883e-05 1.19126e-05 0.00119315
0.00111474 -0.000258854 1.68413e-05
-0.000258854 1.17854e-05 -6.89807e-06
1.68413e-05 -6.89807e-06 -0.00019635
0.00290123 -0.000222419 4.93982e-05
-0.000222419 0.00138542 -7.76481e-06
4.93982e-05 -7.76481e-06 0.00128851
0.00225444 -0.000138686 -0.000258564
-0.000138686 0.00107065 4.0388e-05
-0.000258564 4.0388e-05 0.0010492
0.00460222 -0.000118159 -0.000255127
-0.000118159 0.00255247 2.65257e-05
-0.000255127 2.65257e-05 0.00254655
0.00297719 -0.000280762 0.000163016
-0.000280762 0.00144828 -2.62026e-05
0.000163016 -2.62026e-05 0.00135033
0.00725454 -5.8549e-05 0.000303032
-5.8549e-05 0.00421842 -3.22437e-05
0.000303032 -3.22437e-05 0.00422317
0.00231471 0.000440956 -1.99397e-06
0.000440956 0.00024613 -5.20025e-07
-1.99397e-06 -5.20025e-07 0.000102317
0.00192507 0.000451058 1.74122e-06
0.000451058 0.000122667 1.65782e-06
1.74122e-06 1.65782e-06 -7.70794e-05
0.00214182 0.000436161 2.3965e-07
0.000436161 0.000160299 -1.52796e-06
2.3965e-07 -1.52796e-06 -8.11458e-07
0.00187661 0.000485022 -6.09834e-06
0.000485022 0.000256162 1.66866e-06
-6.09834e-06 1.66866e-06 -1.16334e-05
0.0022039 0.000592214 7.64487e-07
0.000592214 0.000323632 3.27598e-07
7.64487e-07 3.27598e-07 6.21323e-05
0.00238419 0.000675479 6.16064e-07
0.000675479 0.00054369 -4.8819e-06
6.16064e-07 -4.8819e-06 0.000223567
0.00169615 0.000510689 2.06025e-07
0.000510689 0.000251712 6.92268e-07
2.06025e-07 6.92268e-07 -5.16638e-05
0.000920314 0.000292008 -1.90522e-05
0.000292008 -5.9291e-05 -5.88382e-06
-1.90522e-05 -5.88382e-06 -0.000281981
0.00149005 0.000483277 9.85584e-06
0.000483277 0.000227381 1.59555e-06
9.85584e-06 1.59555e-06 -8.67841e-05
0.00077142 0.000257747 -9.01192e-07
0.000257747 -5.52913e-05 -2.76931e-07
-9.01192e-07 -2.76931e-07 -0.00026812
0.000439197 0.000259086 -2.61859e-05
0.000259086 -0.000110524 -1.9977e-05
-2.61859e-05 -1.9977e-05 -0.000250438
0.00030929 0.000195802 9.07778e-06
0.000195802 -0.000253078 2.04584e-06
9.07778e-06 2.04584e-06 -0.000456466
0.000320888 0.000211971 3.128e-06
0.000211971 -0.000174023 3.75162e-07
3.128e-06 3.75162e-07 -0.00029476
0.00695347 -4.99003e-05 -0.000268183
-4.99003e-05 0.00406839 -2.80355e-05
-0.000268183 -2.80355e-05 0.00405891
0.000386402 0.000128892 2.27148e-05
0.000128892 -0.000122284 1.75868e-05
2.27148e-05 1.75868e-05 -0.000219318
0.00591993 -0.000160812 4.87758e-06
-0.000160812 0.00345074 -2.25402e-06
4.87758e-06 -2.25402e-06 0.00343125
0.00476471 -0.00022268 0.000117251
-0.00022268 0.00275133 1.11644e-05
0.000117251 1.11644e-05 0.00271829
0.00238851 0.00025626 2.25188e-07
0.00025626 -3.71232e-05 6.45584e-07
2.25188e-07 6.45584e-07 3.26098e-05
0.00217597 0.000225699 1.7443e-06
0.000225699 -0.000195171 -3.98622e-08
1.7443e-06 -3.98622e-08 -7.28504e-05
0.00255211 7.69159e-05 -7.73149e-05
7.69159e-05 5.81859e-05 -9.33565e-06
-7.73149e-05 -9.33565e-06 0.000357147
0.00216299 0.000378888 7.6704e-07
0.000378888 6.20962e-06 3.18818e-07
7.6704e-07 3.18818e-07 -5.6202e-05
0.00218401 0.000528004 -8.43187e-07
0.000528004 0.000153258 2.67026e-07
-8.43187e-07 2.67026e-07 -2.85157e-05
0.00178198 0.000668659 6.13677e-06
0.000668659 0.00010773 -2.63551e-06
6.13677e-06 -2.63551e-06 -0.000170976
0.00240634 0.000568406 -5.38944e-07
0.000568406 0.000355082 -2.8014e-06
-5.38944e-07 -2.8014e-06 0.00013484
0.00236641 0.000408241 -9.32754e-07
0.000408241 1.13981e-05 1.23526e-08
-9.32754e-07 1.23526e-08 -1.1218e-06
0.00219136 0.000649948 -2.67579e-06
0.000649948 0.000125401 -5.39628e-08
-2.67579e-06 -5.39628e-08 -7.80092e-05
0.0019718 0.000405388 1.20085e-05
0.000405388 -0.000132456 5.26382e-07
1.20085e-05 5.26382e-07 -0.000135846
0.00218326 6.91947e-05 2.04075e-06
6.91947e-05 -1.35894e-05 3.95331e-07
2.04075e-06 3.95331e-07 1.84938e-05
0.00230316 8.37324e-05 6.90782e-08
8.37324e-05 -6.66995e-05 -1.17927e-08
6.90782e-08 -1.17927e-08 5.4614e-06
0.00237101 0.000121564 -8.57446e-06
0.000121564 -2.2009e-05 -1.43089e-06
-8.57446e-06 -1.43089e-06 5.87235e-05
0.0020423 -1.3159e-05 -2.86352e-06
-1.3159e-05 1.01508e-05 3.60762e-07
-2.86352e-06 3.60762e-07 1.50654e-05
0.00231776 -0.00010008 -5.96705e-07
-0.00010008 -0.000148825 -4.70361e-07
-5.96705e-07 -4.70361e-07 -3.88935e-05
0.00212463 -7.45812e-05 -7.0463e-07
-7.45812e-05 -2.89479e-05 2.37127e-07
-7.0463e-07 2.37127e-07 4.3641e-06
0.00198916 -0.000109174 -3.3468e-06
-0.000109174 -1.6322e-05 3.97136e-07
-3.3468e-06 3.97136e-07 -2.77333e-05
0.00213602 -0.000243388 2.40071e-08
-0.000243388 -6.85178e-05 2.8948e-07
2.40071e-08 2.8948e-07 -3.67944e-05
0.00206031 -0.000198235 1.05071e-06
-0.000198235 1.4754e-05 -2.92324e-07
1.05071e-06 -2.92324e-07 -3.37674e-06
0.00209368 -0.000202833 -1.09026e-06
-0.000202833 0.000102517 2.45247e-07
-1.09026e-06 2.45247e-07 3.2922e-05
0.00210972 -0.000301164 3.0177e-06
-0.000301164 5.93215e-05 -7.68085e-07
3.0177e-06 -7.68085e-07 7.01608e-06
0.0020381 -0.000281577 -1.37833e-07
-0.000281577 9.48387e-05 -3.16323e-07
-1.37833e-07 -3.16323e-07 -4.88441e-06
0.00185272 -0.000238343 -1.64519e-06
-0.000238343 0.000103542 -4.70503e-07
-1.64519e-06 -4.70503e-07 -4.20635e-05
0.00204272 -0.000353001 1.9553e-06
-0.000353001 0.000134934 4.03642e-07
1.9553e-06 4.03642e-07 -2.51658e-07
0.00189117 -0.000302322 -3.13186e-07
-0.000302322 0.000151943 -1.60824e-08
-3.13186e-07 -1.60824e-08 -1.92573e-05
0.00110119 -0.00017736 -1.26841e-05
-0.00017736 -4.81887e-05 3.75154e-06
-1.26841e-05 3.75154e-06 -0.000223297
0.00190188 -0.000353767 1.4734e-06
-0.000353767 0.000194201 2.33269e-07
1.4734e-06 2.33269e-07 -3.06276e-06
0.00113537 -0.000204607 -1.96232e-07
-0.000204607 -1.59426e-05 2.23036e-07
-1.96232e-07 2.23036e-07 -0.000200649
0.00273058 -0.000170567 -6.50488e-05
-0.000170567 0.00126951 1.14296e-05
-6.50488e-05 1.14296e-05 0.0011771
0.00115393 -0.000231274 1.44786e-05
-0.000231274 7.73782e-06 -5.95669e-06
1.44786e-05 -5.95669e-06 -0.000186848
0.00284759 -0.000199779 4.51238e-05
-0.000199779 0.00134282 -6.12824e-06
4.51238e-05 -6.12824e-06 0.00125407
0.00227421 -0.000118094 -0.000252437
-0.000118094 0.00107426 3.53709e-05
-0.000252437 3.53709e-05 0.00105537
0.00301371 -0.000229999 0.00015619
-0.000229999 0.00145068 -2.73712e-05
0.00015619 -2.73712e-05 0.0013639
0.00189271 -7.58257e-05 -0.000104803
-7.58257e-05 0.000845417 1.53936e-05
-0.000104803 1.53936e-05 0.000810938
0.00669832 6.91873e-06 9.27141e-05
6.91873e-06 0.00385143 -4.54322e-06
9.27141e-05 -4.54322e-06 0.00383221
0.00215058 0.000377812 -6.59712e-07
0.000377812 0.00010561 -5.87213e-08
-6.59712e-07 -5.87213e-08 -8.52691e-07
0.00212888 0.000414414 -1.52929e-06
0.000414414 0.000187751 -6.39941e-07
-1.52929e-06 -6.39941e-07 2.36271e-05
0.00228352 0.000442001 -3.67534e-06
0.000442001 0.000216993 -1.50384e-07
-3.67534e-06 -1.50384e-07 7.1546e-05
0.00190825 0.000416192 -2.87304e-06
0.000416192 0.00020894 3.85349e-07
-2.87304e-06 3.85349e-07 -1.91009e-05
0.00191429 0.000457733 -9.47989e-07
0.000457733 9.67153e-05 -2.30147e-06
-9.47989e-07 -2.30147e-06 -9.98744e-05
0.00213652 0.000426686 -4.01294e-06
0.000426686 0.000165051 -4.07731e-06
-4.01294e-06 -4.07731e-06 1.08405e-05
0.0011296 0.000292714 -2.15658e-05
0.000292714 8.73304e-06 -6.34833e-06
-2.15658e-05 -6.34833e-06 -0.000206691
0.0017859 0.000477523 1.10509e-06
0.000477523 0.000199602 3.25688e-07
1.10509e-06 3.25688e-07 -6.77288e-05
0.00227355 0.000598824 1.67791e-06
0.000598824 0.000351991 -4.36244e-06
1.67791e-06 -4.36244e-06 8.95235e-05
0.00164187 0.000510019 9.34479e-06
0.000510019 0.000210533 1.33457e-07
9.34479e-06 1.33457e-07 -9.4633e-05
0.000994911 0.000292556 -1.53661e-06
0.000292556 -4.15327e-06 8.03475e-08
-1.53661e-06 8.03475e-08 -0.000225468
0.00030748 0.000245826 -2.56199e-05
0.000245826 -0.000206839 -1.81757e-05
-2.56199e-05 -1.81757e-05 -0.000345728
0.000832054 0.00025675 1.42049e-05
0.00025675 -1.48478e-05 6.14927e-06
1.42049e-05 6.14927e-06 -0.000224515
0.000343281 0.000243935 2.01595e-06
0.000243935 -0.000164485 9.50899e-07
2.01595e-06 9.50899e-07 -0.000303909
0.00724788 4.0018e-05 -0.000290606
4.0018e-05 0.00423537 -3.50085e-05
-0.000290606 -3.50085e-05 0.00422816
0.00038111 0.000192705 2.46489e-05
0.000192705 -0.000141099 1.97066e-05
2.46489e-05 1.97066e-05 -0.000259223
0.00671669 -9.26326e-05 4.23366e-06
-9.26326e-05 0.00391784 -7.87836e-07
4.23366e-06 -7.87836e-07 0.0039093
0.00547109 -0.000192612 0.00015697
-0.000192612 0.00317311 1.06494e-05
0.00015697 1.06494e-05 0.00314905
0.00215747 0.000204688 -1.64148e-07
0.000204688 -1.40205e-05 -2.63921e-07
-1.64148e-07 -2.63921e-07 2.82399e-06
0.00235673 0.000260029 -1.27893e-07
0.000260029 -6.34629e-05 5.22618e-07
-1.27893e-07 5.22618e-07 8.23331e-06
0.00217494 0.000230423 3.53687e-06
0.000230423 -0.000194178 -6.74239e-09
3.53687e-06 -6.74239e-09 -7.20332e-05
0.00220101 0.000375576 -2.02385e-07
0.000375576 3.458e-05 1.1938e-07
-2.02385e-07 1.1938e-07 -2.49088e-05
0.0021561 0.000521513 5.07425e-07
0.000521513 0.000162813 -7.24905e-07
5.07425e-07 -7.24905e-07 -1.62402e-05
0.00234183 0.000394012 1.76662e-06
0.000394012 7.31732e-06 -1.0214e-07
1.76662e-06 -1.0214e-07 -4.44224e-06
0.00205881 6.32598e-05 -8.72248e-07
6.32598e-05 -5.96883e-06 2.33004e-07
-8.72248e-07 2.33004e-07 4.01388e-08
0.00216588 6.40592e-05 3.00389e-07
6.40592e-05 -2.23614e-05 -1.45292e-07
3.00389e-07 -1.45292e-07 9.36995e-06
0.00222709 7.80615e-05 -1.197e-06
7.80615e-05 -0.000102287 -2.42226e-07
-1.197e-06 -2.42226e-07 -3.09399e-05
0.00202953 -1.1513e-05 -8.89073e-07
-1.1513e-05 -9.98961e-08 4.75992e-08
-8.89073e-07 4.75992e-08 4.09251e-06
0.00201832 -3.72162e-05 -6.18943e-06
-3.72162e-05 4.17333e-05 5.95351e-07
-6.18943e-06 5.95351e-07 2.61571e-05
0.00213908 -7.74931e-05 -3.19393e-07
-7.74931e-05 -2.49968e-05 2.9712e-07
-3.19393e-07 2.9712e-07 8.67612e-06
0.00201252 -0.000108977 -1.49512e-06
-0.000108977 4.3529e-06 2.30977e-07
-1.49512e-06 2.30977e-07 -9.80386e-06
0.00199137 -0.000125769 -5.71008e-06
-0.000125769 2.81506e-05 8.46054e-07
-5.71008e-06 8.46054e-07 -2.04514e-05
0.00205797 -0.000197184 4.13048e-06
-0.000197184 1.25795e-05 -8.10485e-07
4.13048e-06 -8.10485e-07 -5.1315e-06
0.00204146 -0.00020105 2.88839e-06
-0.00020105 7.19077e-05 -6.25997e-07
2.88839e-06 -6.25997e-07 2.36199e-06
0.00188041 -0.000173825 1.27305e-06
-0.000173825 0.000103063 -1.14805e-06
1.27305e-06 -1.14805e-06 -2.07091e-05
0.00197724 -0.000277695 2.69836e-06
-0.000277695 5.61516e-05 -5.59216e-07
2.69836e-06 -5.59216e-07 -4.32558e-05
0.00189425 -0.000241395 -1.83385e-07
-0.000241395 0.000126011 -1.08925e-08
-1.83385e-07 -1.08925e-08 -1.97412e-05
0.00112312 -0.000143457 -1.25194e-05
-0.000143457 -4.6263e-05 2.55348e-06
-1.25194e-05 2.55348e-06 -0.00020804
0.00191712 -0.000303287 9.24825e-07
-0.000303287 0.000167882 3.79693e-07
9.24825e-07 3.79693e-07 -3.00154e-06
0.00115046 -0.000176743 -2.99471e-07
-0.000176743 -2.06888e-05 3.02237e-07
-2.99471e-07 3.02237e-07 -0.000194405
0.00265308 -0.00017087 -6.72316e-05
-0.00017087 0.00122366 9.78599e-06
-6.72316e-05 9.78599e-06 0.00113389
0.00117986 -0.000204893 1.28306e-05
-0.000204893 5.99817e-06 -4.64934e-06
1.28306e-05 -4.64934e-06 -0.000177459
0.00279636 -0.000171245 4.30318e-05
-0.000171245 0.00130579 -4.70418e-06
4.30318e-05 -4.70418e-06 0.00122247
0.00226861 -9.8063e-05 -0.000249979
-9.8063e-05 0.00106416 2.96183e-05
-0.000249979 2.96183e-05 0.0010467
0.00293806 -0.00019255 0.000152605
-0.00019255 0.00139177 -2.33262e-05
0.000152605 -2.33262e-05 0.00131413
0.00188833 -7.83897e-05 -9.51097e-05
-7.83897e-05 0.000837306 1.23037e-05
-9.51097e-05 1.23037e-05 0.000805261
0.00159432 -7.33855e-05 6.1456e-05
-7.33855e-05 0.00067027 -9.6966e-06
6.1456e-05 -9.6966e-06 0.000618768
0.002095 0.000244047 -1.75341e-06
0.000244047 2.80917e-05 -4.96367e-07
-1.75341e-06 -4.96367e-07 -1.28935e-05
0.00212646 0.000343069 -2.33277e-06
0.000343069 0.000155609 4.30307e-07
-2.33277e-06 4.30307e-07 2.86584e-05
0.00215954 0.000381094 -4.03676e-07
0.000381094 9.05475e-05 -5.17853e-08
-4.03676e-07 -5.17853e-08 -7.79958e-06
0.00199864 0.00037913 5.48067e-08
0.00037913 0.000209629 6.54115e-07
5.48067e-08 6.54115e-07 1.58595e-05
0.00211356 0.000410103 -1.27169e-06
0.000410103 0.000187598 -5.80065e-07
-1.27169e-06 -5.80065e-07 2.29373e-05
0.00224965 0.000443369 1.58012e-06
0.000443369 0.000185833 1.00086e-07
1.58012e-06 1.00086e-07 3.86017e-05
0.00121558 0.000259307 -1.86817e-05
0.000259307 2.27462e-05 -6.02307e-06
-1.86817e-05 -6.02307e-06 -0.000175132
0.00186485 0.000418721 2.1635e-06
0.000418721 0.000173958 -1.08059e-07
2.1635e-06 -1.08059e-07 -5.00534e-05
0.00191235 0.000464965 -2.00493e-06
0.000464965 7.6819e-05 -4.60695e-06
-2.00493e-06 -4.60695e-06 -0.000116662
0.000311239 0.000188879 -2.25556e-05
0.000188879 -0.000228848 -1.52835e-05
-2.25556e-05 -1.52835e-05 -0.00035534
0.00111232 0.000289473 -6.6479e-07
0.000289473 -8.79072e-07 4.74297e-09
-6.6479e-07 4.74297e-09 -0.000215736
0.00173272 0.000473872 8.11993e-06
0.000473872 0.000165013 -1.09437e-06
8.11993e-06 -1.09437e-06 -0.000102625
0.000975885 0.000287198 1.93225e-05
0.000287198 -6.79174e-06 7.3805e-06
1.93225e-05 7.3805e-06 -0.000226371
0.000373674 0.000234848 8.36547e-07
0.000234848 -0.000163208 1.1823e-06
8.36547e-07 1.1823e-06 -0.000304002
0.00724881 0.000140135 -0.00029971
0.000140135 0.00421872 -3.91984e-05
-0.00029971 -3.91984e-05 0.00421404
0.000346314 0.000230548 2.2314e-05
0.000230548 -0.000160618 1.88405e-05
2.2314e-05 1.88405e-05 -0.000298435
0.00711375 1.05156e-05 7.51732e-06
1.05156e-05 0.00413934 1.94571e-07
7.51732e-06 1.94571e-07 0.00413991
0.00648167 -0.000123863 0.000219658
-0.000123863 0.00376835 1.30818e-05
0.000219658 1.30818e-05 0.00375983
0.00207939 0.000127539 -3.39293e-06
0.000127539 2.47176e-05 -8.41896e-07
-3.39293e-06 -8.41896e-07 2.32065e-05
0.00216124 0.000209156 7.666e-07
0.000209156 -1.37134e-05 3.41145e-07
7.666e-07 3.41145e-07 7.94158e-07
0.00231256 0.000264122 -4.03919e-07
0.000264122 -9.36174e-05 -7.48777e-07
-4.03919e-07 -7.48777e-07 -2.04135e-05
0.00223722 0.000371146 1.98387e-06
0.000371146 6.15992e-05 -5.79685e-08
1.98387e-06 -5.79685e-08 5.35225e-06
0.00198715 1.84877e-05 -6.12282e-06
1.84877e-05 4.3044e-05 3.13539e-07
-6.12282e-06 3.13539e-07 1.51424e-05
0.00204376 5.37815e-05 -1.14347e-08
5.37815e-05 -1.42008e-05 2.45538e-08
-1.14347e-08 2.45538e-08 -8.41069e-06
0.00214745 5.88277e-05 -1.2033e-06
5.88277e-05 -3.11112e-05 -2.07485e-07
-1.2033e-06 -2.07485e-07 -3.03087e-07
0.00201439 -8.83886e-06 1.4477e-07
-8.83886e-06 -1.14782e-05 -5.24979e-07
1.4477e-07 -5.24979e-07 -8.26211e-06
0.00201683 -3.14597e-05 -6.98525e-07
-3.14597e-05 3.72558e-05 -1.58659e-07
-6.98525e-07 -1.58659e-07 2.28671e-05
0.00188822 -5.40165e-05 -4.51069e-06
-5.40165e-05 -2.13508e-05 3.90716e-07
-4.51069e-06 3.90716e-07 -7.39279e-05
0.00203456 -0.000108908 3.61717e-06
-0.000108908 2.41284e-05 -2.34255e-07
3.61717e-06 -2.34255e-07 6.92595e-06
0.00200001 -0.000126683 -2.06607e-06
-0.000126683 4.23055e-05 4.25624e-07
-2.06607e-06 4.25624e-07 -1.32059e-05
0.001929 -0.000114519 -1.3571e-06
-0.000114519 0.000117601 -3.44027e-07
-1.3571e-06 -3.44027e-07 1.70859e-05
0.00200446 -0.000198442 6.83703e-06
-0.000198442 5.10825e-05 -1.43301e-06
6.83703e-06 -1.43301e-06 -1.81325e-05
0.0019057 -0.000173077 1.89042e-06
-0.000173077 0.000113632 -5.69037e-07
1.89042e-06 -5.69037e-07 -9.67356e-06
0.00112732 -0.000106335 -1.22243e-05
-0.000106335 -4.5121e-05 1.6713e-06
-1.22243e-05 1.6713e-06 -0.000194086
0.00195858 -0.000242814 1.35939e-06
-0.000242814 0.000164878 3.69741e-07
1.35939e-06 3.69741e-07 1.9503e-05
0.00113516 -0.000142483 -1.56129e-07
-0.000142483 -3.71535e-05 2.0551e-07
-1.56129e-07 2.0551e-07 -0.000198119
0.000400027 -9.00904e-05 -1.98012e-05
-9.00904e-05 -0.00020623 5.77101e-06
-1.98012e-05 5.77101e-06 -0.000303699
0.0011835 -0.000175341 1.25434e-05
-0.000175341 -2.31254e-06 -3.2569e-06
1.25434e-05 -3.2569e-06 -0.000174591
0.00158439 -0.000112184 6.39043e-05
-0.000112184 0.000538234 -4.91356e-06
6.39043e-05 -4.91356e-06 0.000452289
0.00665413 -0.000166639 -0.000333191
-0.000166639 0.00382972 2.49088e-05
-0.000333191 2.49088e-05 0.00384813
0.0028906 -0.000154873 0.000149872
-0.000154873 0.00135432 -1.83731e-05
0.000149872 -1.83731e-05 0.00128257
0.0018938 -7.67307e-05 -8.61055e-05
-7.67307e-05 0.000839451 8.01691e-06
-8.61055e-05 8.01691e-06 0.000807371
0.00151863 -9.83146e-05 7.35456e-05
-9.83146e-05 0.00062683 -1.15024e-05
7.35456e-05 -1.15024e-05 0.000574153
0.00203098 0.000171066 -3.94238e-06
0.000171066 3.16333e-05 -1.08855e-06
-3.94238e-06 -1.08855e-06 -4.24375e-06
0.00213311 0.000264478 -1.48954e-06
0.000264478 0.000140637 5.85645e-07
-1.48954e-06 5.85645e-07 5.03481e-05
0.00208582 0.000237303 3.69986e-08
0.000237303 3.16261e-05 9.87335e-08
3.69986e-08 9.87335e-08 -1.44993e-05
0.00202884 0.000307761 3.66377e-07
0.000307761 0.000209474 1.37063e-06
3.66377e-07 1.37063e-06 5.04179e-05
0.0020398 0.00033753 1.00811e-06
0.00033753 0.000102924 1.68285e-07
1.00811e-06 1.68285e-07 -2.37432e-05
0.00217011 0.000384868 7.52587e-07
0.000384868 7.63701e-05 1.90734e-07
7.52587e-07 1.90734e-07 -1.40829e-05
0.00121339 0.000227307 -1.49837e-05
0.000227307 2.27648e-06 -4.05601e-06
-1.49837e-05 -4.05601e-06 -0.000177748
0.00200525 0.000376411 2.21945e-06
0.000376411 0.000214249 6.14783e-07
2.21945e-06 6.14783e-07 2.1573e-05
0.00208791 0.000404981 -9.95275e-08
0.000404981 0.000181462 -1.59646e-06
-9.95275e-08 -1.59646e-06 1.63673e-05
0.000309583 0.000134763 -1.94717e-05
0.000134763 -0.000251392 -1.18249e-05
-1.94717e-05 -1.18249e-05 -0.000363431
0.00113387 0.000255579 4.33105e-07
0.000255579 -2.70697e-05 4.49792e-07
4.33105e-07 4.49792e-07 -0.000223142
0.00180057 0.000419105 6.88383e-06
0.000419105 0.000126044 -1.31048e-06
6.88383e-06 -1.31048e-06 -9.35174e-05
0.00704363 0.000215131 -0.000306774
0.000215131 0.00407869 -3.88166e-05
-0.000306774 -3.88166e-05 0.00407875
0.00029882 0.000181645 3.62938e-07
0.000181645 -0.000236464 7.977e-07
3.62938e-07 7.977e-07 -0.000363549
0.00106502 0.000282485 2.23361e-05
0.000282485 -2.52001e-05 7.02983e-06
2.23361e-05 7.02983e-06 -0.00023863
0.00026632 0.00021343 2.09803e-05
0.00021343 -0.000225758 1.78003e-05
2.09803e-05 1.78003e-05 -0.00036684
0.00717894 0.000132109 9.92303e-06
0.000132109 0.00416931 1.27676e-06
9.92303e-06 1.27676e-06 0.00417146
0.00698287 -2.49912e-05 0.000271796
-2.49912e-05 0.00404831 1.87347e-05
0.000271796 1.87347e-05 0.00405357
0.00195007 7.06356e-05 -7.99136e-06
7.06356e-05 1.90266e-05 -3.48711e-07
-7.99136e-06 -3.48711e-07 -1.28571e-05
0.00206865 0.000124081 1.15209e-07
0.000124081 1.83833e-05 -1.71169e-08
1.15209e-07 -1.71169e-08 1.59661e-05
0.00216649 0.000213698 5.96097e-07
0.000213698 -1.27406e-05 2.61954e-07
5.96097e-07 2.61954e-07 -2.17177e-07
0.00193306 6.19075e-06 -5.47708e-06
6.19075e-06 2.62511e-05 -1.42432e-07
-5.47708e-06 -1.42432e-07 -3.22481e-05
0.00197024 2.34412e-05 3.27887e-07
2.34412e-05 2.9187e-05 5.03655e-08
3.27887e-07 5.03655e-08 3.96273e-06
0.0020316 4.32744e-05 2.00678e-07
4.32744e-05 -2.08651e-05 -2.38019e-07
2.00678e-07 -2.38019e-07 -1.52259e-05
0.00201683 -2.642e-05 3.82512e-06
-2.642e-05 3.32374e-05 -4.13233e-07
3.82512e-06 -4.13233e-07 2.05051e-05
0.00194389 -5.26158e-05 -1.3829e-06
-5.26158e-05 1.74417e-05 2.37166e-07
-1.3829e-06 2.37166e-07 -3.38683e-05
0.00186095 -5.39838e-05 4.15179e-07
-5.39838e-05 8.68995e-05 -4.50896e-07
4.15179e-07 -4.50896e-07 -1.19675e-05
0.00202683 -0.000127695 1.29021e-06
-0.000127695 6.90995e-05 -1.08904e-07
1.29021e-06 -1.08904e-07 7.1168e-06
0.00190307 -0.000115737 4.75519e-07
-0.000115737 0.000105624 1.41339e-08
4.75519e-07 1.41339e-08 -2.24253e-06
0.00114747 -6.43756e-05 -1.23758e-05
-6.43756e-05 -3.19593e-05 7.67562e-07
-1.23758e-05 7.67562e-07 -0.000164087
0.00190708 -0.000173916 2.91036e-06
-0.000173916 0.000108442 -1.33369e-07
2.91036e-06 -1.33369e-07 -1.48932e-05
0.00111672 -0.000101741 -4.38668e-08
-0.000101741 -4.99028e-05 3.86619e-08
-4.38668e-08 3.86619e-08 -0.000197849
0.000404973 -2.4079e-05 -1.8377e-05
-2.4079e-05 -0.000205438 3.34438e-06
-1.8377e-05 3.34438e-06 -0.000296035
0.0011719 -0.000141059 1.2283e-05
-0.000141059 -1.44908e-05 -2.1947e-06
1.2283e-05 -2.1947e-06 -0.000174395
0.000402526 -7.49413e-05 -1.43762e-07
-7.49413e-05 -0.00020329 4.69021e-07
-1.43762e-07 4.69021e-07 -0.000301262
0.0065445 -5.71415e-05 -0.000321723
-5.71415e-05 0.00375588 1.5426e-05
-0.000321723 1.5426e-05 0.00377942
0.00045707 -7.75806e-05 1.45121e-05
-7.75806e-05 -0.000173346 -7.7435e-06
1.45121e-05 -7.7435e-06 -0.000276857
0.00417157 -0.000108555 0.000142489
-0.000108555 0.00227492 -7.52036e-06
0.000142489 -7.52036e-06 0.0022587
0.00148886 -9.10048e-05 7.96343e-05
-9.10048e-05 0.00060733 -1.11839e-05
7.96343e-05 -1.11839e-05 0.0005554
0.00204092 0.000131276 -8.1368e-06
0.000131276 7.6223e-05 -1.03191e-06
-8.1368e-06 -1.03191e-06 3.54691e-05
0.00212383 0.000196461 -2.45695e-06
0.000196461 0.000145332 4.35893e-07
-2.45695e-06 4.35893e-07 6.84648e-05
0.00200934 0.000165111 -6.23917e-07
0.000165111 1.99617e-05 -1.36518e-07
-6.23917e-07 -1.36518e-07 -1.52565e-05
0.00191233 0.000235747 -1.05833e-07
0.000235747 0.000126021 1.06664e-06
-1.05833e-07 1.06664e-06 -1.73721e-05
0.00208651 0.00026204 1.78898e-07
0.00026204 0.000106991 8.00327e-08
1.78898e-07 8.00327e-08 1.44882e-05
0.0020716 0.000230337 3.0232e-06
0.000230337 3.19215e-05 7.74795e-07
3.0232e-06 7.74795e-07 -1.9249e-05
0.00119007 0.000186191 -1.35523e-05
0.000186191 -1.6544e-05 -2.78964e-06
-1.35523e-05 -2.78964e-06 -0.000182121
0.00195617 0.000302933 2.01654e-06
0.000302933 0.000170093 7.18899e-07
2.01654e-06 7.18899e-07 5.08517e-06
0.00195183 0.000331825 1.14174e-06
0.000331825 4.95343e-05 -5.25465e-07
1.14174e-06 -5.25465e-07 -7.67246e-05
0.000343779 9.57046e-05 -1.82441e-05
9.57046e-05 -0.000244004 -8.60458e-06
-1.82441e-05 -8.60458e-06 -0.000346845
0.00116024 0.000223128 -7.01725e-07
0.000223128 -2.88219e-05 3.50177e-07
-7.01725e-07 3.50177e-07 -0.000208137
0.00200889 0.000373937 4.61332e-06
0.000373937 0.000217038 5.92101e-07
4.61332e-06 5.92101e-07 2.53341e-05
0.00687054 0.0002694 -0.000322771
0.0002694 0.00397258 -3.73716e-05
-0.000322771 -3.73716e-05 0.00397417
0.000335187 0.000133914 -1.01855e-07
0.000133914 -0.000238693 4.00631e-07
-1.01855e-07 4.00631e-07 -0.000351244
0.00106096 0.000253639 1.80852e-05
0.000253639 -7.31051e-05 5.8171e-06
1.80852e-05 5.8171e-06 -0.000267752
0.00707472 0.000233238 1.38454e-05
0.000233238 0.00410539 3.86851e-06
1.38454e-05 3.86851e-06 0.00410327
0.000316614 0.000173856 1.99602e-05
0.000173856 -0.000227426 1.50047e-05
1.99602e-05 1.50047e-05 -0.000355126
0.00709956 9.54094e-05 0.000299741
9.54094e-05 0.00410553 2.71072e-05
0.000299741 2.71072e-05 0.00411593
0.0018859 5.33839e-05 -5.9009e-06
5.33839e-05 -7.78275e-06 -2.41359e-07
-5.9009e-06 -2.41359e-07 -6.82545e-05
0.00198347 7.6307e-05 -8.54264e-07
7.6307e-05 4.75908e-05 -2.00405e-07
-8.54264e-07 -2.00405e-07 1.50545e-05
0.00205545 0.000120877 2.88499e-06
0.000120877 1.12607e-05 4.9784e-07
2.88499e-06 4.9784e-07 7.82335e-06
0.00185325 -6.30036e-06 1.0783e-06
-6.30036e-06 8.77042e-05 -4.7378e-07
1.0783e-06 -4.7378e-07 -9.61698e-06
0.00194989 7.25748e-06 -1.84909e-06
7.25748e-06 3.64848e-05 1.94936e-07
-1.84909e-06 1.94936e-07 -1.92814e-05
0.00195195 2.96096e-05 6.84301e-06
2.96096e-05 1.44788e-05 -9.8121e-08
6.84301e-06 -9.8121e-08 -8.14051e-06
0.00199711 -5.12267e-05 1.48553e-06
-5.12267e-05 5.49437e-05 1.21315e-07
1.48553e-06 1.21315e-07 4.59346e-06
0.00189961 -5.36619e-05 2.3317e-06
-5.36619e-05 0.000112455 -8.62896e-08
2.3317e-06 -8.62896e-08 1.46519e-05
0.00111618 -2.75192e-05 -1.19473e-05
-2.75192e-05 -4.3367e-05 6.61598e-08
-1.19473e-05 6.61598e-08 -0.000168564
0.00186374 -0.000116947 4.00401e-07
-0.000116947 8.44081e-05 4.17302e-07
4.00401e-07 4.17302e-07 -3.10207e-05
0.00111261 -6.38839e-05 1.83309e-07
-6.38839e-05 -5.22636e-05 -8.84466e-08
1.83309e-07 -8.84466e-08 -0.000187492
0.000410824 -8.866e-06 -1.86055e-05
-8.866e-06 -0.000201631 2.08933e-06
-1.86055e-05 2.08933e-06 -0.00028847
0.0011118 -9.86673e-05 1.13992e-05
-9.86673e-05 -5.03967e-05 -1.59807e-06
1.13992e-05 -1.59807e-06 -0.000197485
0.000386978 -3.6452e-05 8.58155e-07
-3.6452e-05 -0.000216505 -3.00274e-07
8.58155e-07 -3.00274e-07 -0.00030644
0.00634341 -0.000151692 -0.000322636
-0.000151692 0.00364726 1.67158e-05
-0.000322636 1.67158e-05 0.00366463
0.000374538 -5.84e-05 1.78253e-05
-5.84e-05 -0.000220663 -4.33108e-06
1.78253e-05 -4.33108e-06 -0.000318002
0.0064849 -9.33626e-05 7.64469e-06
-9.33626e-05 0.00372215 9.17749e-09
7.64469e-06 9.17749e-09 0.00374487
0.00180508 -3.59892e-05 0.000250288
-3.59892e-05 0.000774401 -1.66651e-05
0.000250288 -1.66651e-05 0.000764498
0.00201524 0.000130066 -5.4279e-06
0.000130066 7.37996e-05 -5.59218e-07
-5.4279e-06 -5.59218e-07 2.25766e-06
0.00199769 0.000132403 -1.92038e-06
0.000132403 4.07019e-05 -1.61495e-07
-1.92038e-06 -1.61495e-07 4.21278e-06
0.00188213 0.000169455 5.62775e-07
0.000169455 9.96799e-05 1.04264e-06
5.62775e-07 1.04264e-06 -2.45545e-05
0.00206526 0.00019507 8.61456e-07
0.00019507 0.000101106 2.885e-08
8.61456e-07 2.885e-08 2.4017e-05
0.00199004 0.000159064 4.85336e-06
0.000159064 9.0182e-06 7.61027e-07
4.85336e-06 7.61027e-07 -2.53752e-05
0.00116838 0.000139726 -1.23888e-05
0.000139726 -1.92208e-05 -2.0631e-06
-1.23888e-05 -2.0631e-06 -0.000176201
0.00190712 0.000233887 1.77119e-07
0.000233887 0.00012755 9.54787e-08
1.77119e-07 9.54787e-08 -1.56723e-05
0.00204839 0.000259825 2.6025e-06
0.000259825 7.90632e-05 -3.82483e-07
2.6025e-06 -3.82483e-07 -1.57441e-05
0.00038095 7.0854e-05 -1.79406e-05
7.0854e-05 -0.00022647 -5.97296e-06
-1.79406e-05 -5.97296e-06 -0.000324501
0.0011649 0.000185411 -5.40925e-07
0.000185411 -2.97204e-05 4.11792e-07
-5.40925e-07 4.11792e-07 -0.000198384
0.00188948 0.000298161 2.27925e-06
0.000298161 0.000135056 3.70208e-07
2.27925e-06 3.70208e-07 -3.5863e-05
0.00674052 0.000281873 -0.000339852
0.000281873 0.00390133 -3.47379e-05
-0.000339852 -3.47379e-05 0.00390261
0.000368786 9.86184e-05 2.4308e-07
9.86184e-05 -0.000230871 2.00576e-07
2.4308e-07 2.00576e-07 -0.000334364
0.00110852 0.000218727 1.15908e-05
0.000218727 -5.99045e-05 4.3566e-06
1.15908e-05 4.3566e-06 -0.00023835
0.0068901 0.000293654 1.09864e-05
0.000293654 0.00399723 4.92546e-06
1.09864e-05 4.92546e-06 0.00399304
0.000365893 0.000132435 1.87899e-05
0.000132435 -0.00022282 1.21299e-05
1.87899e-05 1.21299e-05 -0.000335609
0.00707099 0.000236463 0.000326298
0.000236463 0.00409514 3.74424e-05
0.000326298 3.74424e-05 0.00409939
0.00182399 4.91818e-05 2.64462e-06
4.91818e-05 7.09493e-05 -1.99827e-07
2.64462e-06 -1.99827e-07 -2.99189e-05
0.00195365 5.43675e-05 -3.39627e-06
5.43675e-05 4.30977e-05 -1.18961e-07
-3.39627e-06 -1.18961e-07 -1.82602e-05
0.00202051 8.14474e-05 7.32926e-06
8.14474e-05 7.84516e-05 4.45233e-07
7.32926e-06 4.45233e-07 4.52966e-05
0.0010932 -1.06646e-05 -1.23599e-05
-1.06646e-05 -5.07721e-05 -2.08429e-07
-1.23599e-05 -2.08429e-07 -0.000174261
0.0018885 -1.83699e-06 2.77684e-06
-1.83699e-06 0.000112099 -8.20259e-08
2.77684e-06 -8.20259e-08 1.53312e-05
0.001967 7.83267e-06 1.35959e-06
7.83267e-06 4.69785e-05 3.82111e-07
1.35959e-06 3.82111e-07 -5.96969e-06
0.00194283 -5.38371e-05 3.93179e-06
-5.38371e-05 0.000141134 2.0072e-07
3.93179e-06 2.0072e-07 4.44021e-05
0.00110397 -2.88526e-05 1.9667e-07
-2.88526e-05 -5.36435e-05 -5.29787e-08
1.9667e-07 -5.29787e-08 -0.000179112
0.000413205 -3.24499e-05 -1.91183e-05
-3.24499e-05 -0.000198472 8.49266e-07
-1.91183e-05 8.49266e-07 -0.000281721
0.00105373 -6.23469e-05 1.18439e-05
-6.23469e-05 -8.73744e-05 -1.22238e-06
1.18439e-05 -1.22238e-06 -0.000225737
0.000388005 2.63634e-06 4.09817e-07
2.63634e-06 -0.000216767 8.2259e-08
4.09817e-07 8.2259e-08 -0.000302425
0.00625325 -0.000122169 -0.000322592
-0.000122169 0.00358994 1.24475e-05
-0.000322592 1.24475e-05 0.00361036
0.00039699 -4.40825e-05 1.85009e-05
-4.40825e-05 -0.00020758 -3.07827e-06
1.85009e-05 -3.07827e-06 -0.000298664
0.00633109 -4.65228e-05 -3.16695e-06
-4.65228e-05 0.00362721 2.83278e-06
-3.16695e-06 2.83278e-06 0.00365221
0.0064309 -0.000107149 0.000321118
-0.000107149 0.00369 -1.48645e-05
0.000321118 -1.48645e-05 0.00371277
0.00184459 0.00010646 5.70986e-07
0.00010646 7.88141e-05 4.57332e-07
5.70986e-07 4.57332e-07 -3.28701e-05
0.0019996 0.000128089 -3.49125e-06
0.000128089 5.57671e-05 -6.5481e-07
-3.49125e-06 -6.5481e-07 -1.01311e-05
0.00195145 0.000133994 6.3177e-06
0.000133994 3.59739e-06 8.32303e-07
6.3177e-06 8.32303e-07 -2.87967e-05
0.00116676 9.28793e-05 -1.21558e-05
9.28793e-05 -1.55232e-05 -1.3373e-06
-1.21558e-05 -1.3373e-06 -0.000159616
0.00189512 0.000168209 2.77961e-07
0.000168209 0.000111758 -1.05186e-07
2.77961e-07 -1.05186e-07 -1.24154e-05
0.0020101 0.000193672 2.69865e-06
0.000193672 5.9368e-05 -7.28247e-07
2.69865e-06 -7.28247e-07 -1.79455e-05
0.000399568 4.79587e-05 -1.75222e-05
4.79587e-05 -0.000212856 -4.23431e-06
-1.75222e-05 -4.23431e-06 -0.000306819
0.00114737 0.000141674 3.31733e-07
0.000141674 -3.38839e-05 2.64221e-07
3.31733e-07 2.64221e-07 -0.000192051
0.00190532 0.000232176 7.37275e-07
0.000232176 0.00013088 -8.54648e-07
7.37275e-07 -8.54648e-07 -1.21945e-05
0.00656754 0.000236137 -0.000347558
0.000236137 0.00379277 -2.83668e-05
-0.000347558 -2.83668e-05 0.00380157
0.000391215 7.61713e-05 6.87006e-07
7.61713e-05 -0.000219427 2.53584e-07
6.87006e-07 2.53584e-07 -0.000318794
0.00111069 0.000183433 1.13903e-05
0.000183433 -6.12695e-05 3.48291e-06
1.13903e-05 3.48291e-06 -0.00023297
0.00678482 0.000298037 5.73191e-06
0.000298037 0.00393435 3.44112e-06
5.73191e-06 3.44112e-06 0.00393332
0.000394514 0.000103554 1.77822e-05
0.000103554 -0.000215695 9.34077e-06
1.77822e-05 9.34077e-06 -0.000320422
0.00695564 0.000328022 0.000338651
0.000328022 0.00404613 4.38023e-05
0.000338651 4.38023e-05 0.00403763
0.00107264 2.62463e-05 -1.23322e-05
2.62463e-05 -5.94939e-05 -6.27204e-07
-1.23322e-05 -6.27204e-07 -0.000190389
0.00185795 4.68437e-05 3.05988e-06
4.68437e-05 9.15699e-05 2.16807e-08
3.05988e-06 2.16807e-08 -5.91655e-06
0.00201453 5.55573e-05 -1.5435e-08
5.55573e-05 8.89776e-05 4.45472e-07
-1.5435e-08 4.45472e-07 2.66323e-05
0.000451208 3.19452e-05 -1.96621e-05
3.19452e-05 -0.000182692 -9.10031e-07
-1.96621e-05 -9.10031e-07 -0.000257555
0.00106952 -5.14204e-06 2.45744e-08
-5.14204e-06 -6.80563e-05 3.60745e-08
2.45744e-08 3.60745e-08 -0.000191562
0.00191988 3.95885e-06 4.31899e-06
3.95885e-06 0.000133833 1.25783e-07
4.31899e-06 1.25783e-07 3.75714e-05
0.00108852 -2.97373e-05 1.23533e-05
-2.97373e-05 -6.62567e-05 -4.70116e-07
1.23533e-05 -4.70116e-07 -0.000191977
0.000410684 -5.86313e-06 4.49089e-07
-5.86313e-06 -0.000200228 3.76087e-07
4.49089e-07 3.76087e-07 -0.000283452
0.0061551 1.37341e-05 -0.000325081
1.37341e-05 0.00352115 1.65676e-06
-0.000325081 1.65676e-06 0.00354885
0.00036907 1.42217e-05 1.8048e-05
1.42217e-05 -0.000230262 -1.03884e-06
1.8048e-05 -1.03884e-06 -0.000314496
0.00621726 -0.000119891 -7.85479e-06
-0.000119891 0.00356913 2.01934e-06
-7.85479e-06 2.01934e-06 0.00358912
0.00626583 -2.85655e-05 0.00030839
-2.85655e-05 0.0035867 -7.88878e-06
0.00030839 -7.88878e-06 0.00361187
0.00112649 5.49525e-05 -1.222e-05
5.49525e-05 -3.23063e-05 -1.14567e-06
-1.222e-05 -1.14567e-06 -0.000167475
0.00187688 0.000103351 -3.27102e-07
0.000103351 9.85793e-05 -4.21219e-07
-3.27102e-07 -4.21219e-07 -8.54863e-06
0.0019633 0.000125341 -1.19286e-06
0.000125341 2.38461e-05 -7.33363e-07
-1.19286e-06 -7.33363e-07 -3.65408e-05
0.00270013 6.48503e-05 -0.000149792
6.48503e-05 0.00123168 -5.44233e-06
-0.000149792 -5.44233e-06 0.00117838
0.00111412 9.42041e-05 2.73453e-07
9.42041e-05 -4.87787e-05 1.6843e-07
2.73453e-07 1.6843e-07 -0.000193895
0.00190657 0.000166831 7.86652e-07
0.000166831 0.000122989 -1.18427e-06
7.86652e-07 -1.18427e-06 -1.13227e-06
0.00638917 0.000171122 -0.000344867
0.000171122 0.00367586 -2.02307e-05
-0.000344867 -2.02307e-05 0.00369385
0.000418477 6.71257e-05 9.90713e-07
6.71257e-05 -0.000198571 4.4714e-07
9.90713e-07 4.4714e-07 -0.000294687
0.00112763 0.000143441 1.26163e-05
0.000143441 -4.76063e-05 2.47309e-06
1.26163e-05 2.47309e-06 -0.000206899
0.00666035 0.000252071 9.81502e-07
0.000252071 0.00385201 1.59984e-06
9.81502e-07 1.59984e-06 0.00385944
0.000420982 8.4716e-05 1.80667e-05
8.4716e-05 -0.000199232 7.16296e-06
1.80667e-05 7.16296e-06 -0.000300632
0.00684637 0.000333564 0.000348535
0.000333564 0.00398615 4.33253e-05
0.000348535 4.33253e-05 0.00397807
0.000531353 1.20906e-05 -1.55954e-05
1.20906e-05 -0.000122321 -2.04907e-06
-1.55954e-05 -2.04907e-06 -0.000206528
0.00106026 2.57795e-05 1.466e-07
2.57795e-05 -7.17847e-05 2.0491e-07
1.466e-07 2.0491e-07 -0.00020015
0.00189345 4.33056e-05 4.0995e-06
4.33056e-05 0.000113125 -7.76557e-08
4.0995e-06 -7.76557e-08 1.91433e-05
0.00598607 -0.00010249 -0.000307151
-0.00010249 0.00343419 4.07713e-06
-0.000307151 4.07713e-06 0.00345075
0.000408217 9.57988e-06 -5.87849e-07
9.57988e-06 -0.000205184 -1.19269e-07
-5.87849e-07 -1.19269e-07 -0.000282706
0.00106315 -8.63921e-07 1.22898e-05
-8.63921e-07 -7.46267e-05 2.63687e-08
1.22898e-05 2.63687e-08 -0.000198089
0.000366338 2.08183e-05 1.834e-05
2.08183e-05 -0.000229506 4.11465e-07
1.834e-05 4.11465e-07 -0.000311499
0.00609288 -2.17428e-05 1.92062e-06
-2.17428e-05 0.00348872 -1.64777e-06
1.92062e-06 -1.64777e-06 0.00351165
0.00620401 -4.23703e-05 0.000313754
-4.23703e-05 0.00354879 -5.5332e-06
0.000313754 -5.5332e-06 0.0035749
0.00278208 1.72361e-05 -0.00014365
1.72361e-05 0.00128252 -3.08322e-06
-0.00014365 -3.08322e-06 0.00123316
0.00110197 5.81092e-05 8.93405e-08
5.81092e-05 -4.93013e-05 -4.8843e-08
8.93405e-08 -4.8843e-08 -0.000185216
0.00192318 0.000100697 1.17414e-06
0.000100697 0.000127995 -8.08747e-07
1.17414e-06 -8.08747e-07 2.55736e-05
0.00587254 -3.23247e-05 -0.000136166
-3.23247e-05 0.00336547 2.37775e-07
-0.000136166 2.37775e-07 0.00335432
0.000430099 5.93442e-05 2.3812e-07
5.93442e-05 -0.000189526 2.76702e-07
2.3812e-07 2.76702e-07 -0.000279529
0.0010935 9.66028e-05 1.21979e-05
9.66028e-05 -6.2992e-05 1.62855e-06
1.21979e-05 1.62855e-06 -0.000209036
0.00648278 0.000147937 -1.07061e-05
0.000147937 0.0037285 -1.82102e-06
-1.07061e-05 -1.82102e-06 0.00374773
0.000442449 9.00699e-05 1.95331e-05
9.00699e-05 -0.00018287 5.8941e-06
1.95331e-05 5.8941e-06 -0.000280137
0.00673583 0.000276377 0.000355264
0.000276377 0.00390524 3.6652e-05
0.000355264 3.6652e-05 0.00391001
0.00181003 -5.3903e-05 -0.000243341
-5.3903e-05 0.000781678 1.3557e-06
-0.000243341 1.3557e-06 0.000781647
0.00159259 3.17229e-05 -6.17617e-05
3.17229e-05 0.00053564 8.38858e-08
-6.17617e-05 8.38858e-08 0.000474189
0.0010455 2.7933e-05 1.26873e-05
2.7933e-05 -8.50155e-05 6.89381e-07
1.26873e-05 6.89381e-07 -0.000210919
0.00606434 -4.92137e-05 6.78341e-06
-4.92137e-05 0.00347639 2.70068e-06
6.78341e-06 2.70068e-06 0.00349854
0.00042617 -1.1526e-05 1.89861e-05
-1.1526e-05 -0.000187471 8.82379e-07
1.89861e-05 8.82379e-07 -0.000268945
0.00613155 -8.45758e-05 0.000325805
-8.45758e-05 0.00351686 -5.15481e-06
0.000325805 -5.15481e-06 0.0035394
0.00137474 2.29285e-05 -6.38737e-05
2.29285e-05 0.000536507 -1.17118e-06
-6.38737e-05 -1.17118e-06 0.000497311
0.00158495 1.95457e-05 -6.27793e-05
1.95457e-05 0.000532792 -1.47374e-06
-6.27793e-05 -1.47374e-06 0.00046661
0.00106583 5.97137e-05 1.21905e-05
5.97137e-05 -7.33303e-05 1.03835e-06
1.21905e-05 1.03835e-06 -0.000210018
0.00387119 7.00661e-05 0.000122146
7.00661e-05 0.00209079 3.73038e-06
0.000122146 3.73038e-06 0.00208354
0.000434718 6.93386e-05 1.98046e-05
6.93386e-05 -0.000186366 4.53954e-06
1.98046e-05 4.53954e-06 -0.000276331
0.00656203 0.000135465 0.000338519
0.000135465 0.00376979 2.19694e-05
0.000338519 2.19694e-05 0.00379289
0.0060202 -1.98225e-05 -8.82583e-06
-1.98225e-05 0.00345202 -3.26317e-06
-8.82583e-06 -3.26317e-06 0.00347289
0.000420398 5.06584e-05 2.06136e-05
5.06584e-05 -0.000202718 2.60416e-06
2.06136e-05 2.60416e-06 -0.000277225
0.00597733 3.58996e-05 0.000313937
3.58996e-05 0.00341749 2.19156e-07
0.000313937 2.19156e-07 0.00344342
0.00374289 3.29933e-05 0.000133484
3.29933e-05 0.00201592 5.29148e-06
0.000133484 5.29148e-06 0.00201093
0.000453314 9.55534e-06 1.90462e-05
9.55534e-06 -0.000174123 2.6981e-06
1.90462e-05 2.6981e-06 -0.000257714
0.00633277 3.82737e-06 0.000324516
3.82737e-06 0.00362829 9.81692e-06
0.000324516 9.81692e-06 0.00365337
0.00607862 -0.000117575 0.000312527
-0.000117575 0.00349238 -4.29885e-06
0.000312527 -4.29885e-06 0.00350897
0.00611479 1.10343e-05 0.00031606
1.10343e-05 0.0034933 5.69766e-06
0.00031606 5.69766e-06 0.00352137
