# vtk DataFile Version 2.0
Wound Healing Simulation
ASCII
DATASET UNSTRUCTURED_GRID
POINTS 3012 float
69.9759 18.75 4
67.2507 60.3285 4
69.976 18.75 2
73.0099 25.446 4
71.1327 20.9142 4
68.6801 16.6661 4
67.8192 19.9238 3.96995
67.2507 60.3286 2
71.1327 54.0858 4
68.6801 58.3339 4
65.6939 62.2254 4
65.3061 58.9994 3.96905
74.6784 42.3946 4
73.7221 47.2057 4
69.9759 18.75 0
73.0099 25.446 2
68.6801 16.6661 2
71.1327 20.9142 2
67.8195 19.9277 2
74.6792 32.6053 4
73.7222 27.7943 4
72.1454 23.1494 4
70.6103 26.2211 3.97081
68.8802 21.956 3.9704
67.2507 14.6715 4
66.63 17.9709 3.96906
65.6962 21.058 3.96043
67.2507 60.3285 0
71.1327 54.0858 2
68.6801 58.3339 2
65.694 62.2255 2
65.3077 58.9935 2
72.1454 51.8506 4
69.9759 56.25 4
68.8309 53.1149 3.97041
64.0165 64.0165 4
66.6041 57.1339 3.96983
63.8788 60.7613 3.96556
63.4224 57.737 3.95721
60.3285 67.2507 4
74.6792 42.3947 2
73.7222 47.2057 2
74.9194 39.9526 4
74.2788 44.8158 4
72.1654 42.086 3.97342
73.0099 49.554 4
71.2458 46.5985 3.97178
73.0099 25.446 0
71.1327 20.9142 0
68.6801 16.6661 0
67.8192 19.9238 0.030046
74.6792 32.6053 2
73.7222 27.7943 2
67.2508 14.6715 2
72.1455 23.1494 2
70.6095 26.2223 2
66.631 17.9752 2
68.88 21.9588 2
65.6972 21.0586 2
74.9197 35.0474 4
74.2794 30.1841 4
72.1821 32.9447 3.97342
71.275 28.4324 3.97152
69.8109 24.0586 3.9705
68.2813 26.9704 3.96393
66.6732 22.961 3.96219
65.694 12.7746 4
65.3169 16.1043 3.96854
64.6073 19.2316 3.95838
63.6367 22.1313 3.96595
71.1327 54.0858 0
65.6939 62.2254 0
68.6801 58.3339 0
65.3061 58.9994 0.030947
72.1455 51.8506 2
69.9759 56.25 2
68.831 53.1113 2
64.0165 64.0165 2
66.6055 57.1283 2
63.8802 60.7546 2
63.4144 57.7366 2
62.2254 65.694 4
58.8885 65.4078 3.97286
69.7641 50.9902 3.97056
67.7776 55.1689 3.9702
66.552 52.1799 3.96293
62.3291 62.4223 3.96605
64.5634 55.9968 3.95944
62.1758 59.3749 3.953
61.6134 56.5806 3.9612
58.3339 68.6801 4
60.3285 67.2508 2
73.7221 47.2057 0
74.6784 42.3946 0
74.9197 39.9526 2
74.2794 44.8159 2
72.1642 42.0848 2
73.0099 49.554 2
71.245 46.5967 2
75 37.5 4
72.4027 39.8028 3.97429
71.7793 44.3532 3.97279
69.7734 41.7857 3.96754
70.5711 48.8143 3.97113
68.8516 46.0012 3.96623
74.6792 32.6053 0
73.7222 27.7943 0
67.2507 14.6715 0
72.1454 23.1494 0
70.6103 26.2211 0.0291874
68.8802 21.956 0.0295969
66.63 17.9709 0.0309378
65.6962 21.058 0.0395726
74.9197 35.0474 2
74.2794 30.1841 2
72.1807 32.9448 2
71.2739 28.4332 2
65.694 12.7745 2
65.3172 16.1099 2
69.8103 24.0605 2
68.2844 26.971 2
64.6005 19.2332 2
66.6754 22.9618 2
63.6369 22.1315 2
72.4106 35.2253 3.97424
71.801 30.6777 3.97284
69.8093 33.2763 3.96663
68.9134 29.0531 3.96479
67.535 24.935 3.96335
65.9487 27.7016 3.97442
64.0165 10.9835 4
64.4972 23.9188 3.96904
63.8817 14.3313 3.96502
63.4167 17.4852 3.95541
62.6634 20.4238 3.96289
61.688 23.1045 3.97271
60.6783 11.1053 3.97204
57.6016 11.5017 3.96333
72.1454 51.8506 0
69.9759 56.25 0
68.8309 53.1149 0.0295872
64.0165 64.0165 0
63.8788 60.7613 0.0344394
66.6041 57.1339 0.0301704
63.4224 57.737 0.0427943
62.2255 65.694 2
58.8923 65.4017 2
69.7639 50.9876 2
67.7783 55.1641 2
66.5532 52.179 2
62.3313 62.4131 2
64.5571 55.9955 2
62.1645 59.3742 2
61.6175 56.5819 2
60.6622 63.9717 3.97204
57.0201 66.7308 3.97709
57.5409 63.6393 3.96711
67.4175 50.1519 3.96414
65.6017 54.1407 3.9611
64.2563 51.2933 3.97
60.7595 60.8994 3.95991
62.5828 54.9693 3.96506
60.4652 58.052 3.95599
60.0053 55.6297 3.96719
56.25 69.9759 4
58.3339 68.6801 2
60.3285 67.2507 0
58.9175 9.66407 3.97188
62.2254 9.30607 4
73.0099 49.554 0
74.2788 44.8158 0
71.2458 46.5985 0.0282218
72.1654 42.086 0.0265845
74.9194 39.9526 0
75 37.5 2
72.402 39.802 2
71.7787 44.3516 2
69.7755 41.7853 2
70.5706 48.8123 2
68.8554 46.0006 2
72.4862 37.5129 3.97413
70.0181 39.6567 3.96752
69.3893 43.8995 3.96728
67.3592 41.4738 3.97662
68.1874 48.0875 3.96496
66.4429 45.3856 3.97643
74.9197 35.0474 0
74.2794 30.1841 0
72.1821 32.9447 0.0265753
71.275 28.4324 0.0284751
65.694 12.7746 0
65.3169 16.1043 0.031461
69.8109 24.0586 0.0295034
68.2813 26.9704 0.0360717
66.6732 22.961 0.0378109
64.6073 19.2316 0.0416164
63.6367 22.1313 0.0340476
72.4098 35.225 2
71.8002 30.6783 2
69.8125 33.2766 2
68.9179 29.0534 2
64.0165 10.9835 2
63.8833 14.3382 2
63.4249 17.4818 2
67.5378 24.9357 2
65.9462 27.7027 2
62.669 20.4223 2
64.4961 23.9195 2
61.688 23.1054 2
60.6808 11.1106 2
57.5989 11.4909 2
70.033 35.3969 3.96699
69.4273 31.1606 3.96564
67.4273 33.6191 3.9766
66.5297 29.6778 3.97572
65.2699 25.7775 3.97231
63.7006 28.3718 3.97531
62.3337 12.6611 3.96653
62.4344 24.7895 3.97448
62.1675 15.8142 3.95381
61.5721 18.7977 3.95932
60.8298 21.5127 3.96906
59.8857 23.9523 3.97403
59.2345 12.8273 3.96343
55.8686 10.2764 3.97138
56.3762 13.2061 3.96256
69.7641 50.9902 0.0294385
62.2254 65.694 0
58.8885 65.4078 0.0271368
67.7776 55.1689 0.0298017
66.552 52.1799 0.0370724
62.3291 62.4223 0.0339513
62.1758 59.3749 0.0470004
64.5634 55.9968 0.0405559
61.6134 56.5806 0.0388002
60.6663 63.9646 2
57.0241 66.7253 2
57.545 63.6479 2
67.419 50.1509 2
65.6007 54.1398 2
64.2548 51.2925 2
60.7508 60.9006 2
62.5858 54.9703 2
60.459 58.0507 2
60.0036 55.6294 2
55.0656 67.9291 3.98167
59.2103 62.3154 3.96863
55.7874 64.8582 3.96981
56.3071 62.0069 3.98114
65.048 49.3261 3.97308
63.4368 53.1941 3.96728
61.9725 50.492 3.97377
59.2214 59.4648 3.95356
60.7005 54.1495 3.97149
58.9397 56.8359 3.96042
58.8179 54.9854 3.97119
48.0971 68.5669 3.97851
50.9439 69.9301 3.9856
54.0858 71.1327 4
56.25 69.976 2
58.3339 68.6801 0
57.0559 8.33677 3.97979
60.3285 7.74928 4
58.9196 9.66934 2
62.2255 9.30602 2
70.5711 48.8143 0.0288721
71.7793 44.3532 0.0272104
68.8516 46.0012 0.0337738
69.7734 41.7857 0.032461
72.4027 39.8028 0.0257138
75 37.5 0
72.4849 37.5124 2
70.0209 39.6565 2
69.3909 43.8989 2
67.3564 41.4732 2
68.1881 48.0864 2
66.4391 45.3843 2
70.106 37.5238 3.96734
67.607 39.503 3.97655
66.9705 43.4311 3.97659
65.1399 41.1743 3.97634
65.7915 47.3491 3.9751
64.1941 44.7665 3.97579
72.4106 35.2253 0.0257623
71.801 30.6777 0.0271556
69.8093 33.2763 0.0333659
68.9134 29.0531 0.0352097
64.0165 10.9835 0
63.8817 14.3313 0.0349782
63.4167 17.4852 0.0445861
67.535 24.935 0.0366474
65.9487 27.7016 0.0255762
64.4972 23.9188 0.0309571
62.6634 20.4238 0.0371078
61.688 23.1045 0.0272938
60.6783 11.1053 0.0279563
57.6016 11.5017 0.0366705
70.0358 35.3971 2
69.4306 31.1609 2
67.425 33.6196 2
66.5265 29.679 2
62.3361 12.6683 2
62.167 15.8143 2
61.5823 18.795 2
65.268 25.7785 2
63.6993 28.3721 2
60.8297 21.5137 2
62.4339 24.7903 2
59.884 23.9541 2
59.2331 12.8247 2
56.3709 13.1965 2
55.8683 10.2823 2
67.6494 35.5635 3.97667
67.0296 31.6643 3.97652
65.2978 33.9688 3.97651
64.2204 30.2846 3.97565
63.1033 26.5532 3.97468
61.6506 28.9362 3.97509
60.7566 14.2619 3.95699
60.4741 25.5509 3.97436
60.4162 17.2393 3.95521
59.8302 20.0028 3.96406
59.1344 22.494 3.9717
58.3243 24.6013 3.97413
54.0372 9.15544 3.98806
57.8493 14.4225 3.95174
54.7745 12.103 3.97489
55.2315 14.778 3.95112
67.4175 50.1519 0.0358594
57.0201 66.7308 0.0229114
60.6622 63.9717 0.0279585
57.5409 63.6393 0.0328921
65.6017 54.1407 0.0389029
64.2563 51.2933 0.030001
60.7595 60.8994 0.0400891
60.4652 58.052 0.0440072
62.5828 54.9693 0.0349377
60.0053 55.6297 0.0328093
55.0703 67.9238 2
59.2075 62.3214 2
55.7916 64.8532 2
56.3039 62.0093 2
65.0458 49.325 2
63.4367 53.194 2
61.9716 50.4917 2
59.2473 59.4739 2
60.6994 54.1493 2
58.947 56.8381 2
58.8268 54.9875 2
53.0375 68.9963 3.98236
53.9547 65.9853 3.97032
57.8385 60.7957 3.95384
54.6562 63.1093 3.96511
55.1657 60.5188 3.97634
62.7128 48.5174 3.97406
61.312 52.4121 3.9731
59.6258 49.7913 3.97293
57.7816 58.1121 3.95661
58.8424 53.7359 3.97244
57.6261 55.58 3.96318
50.1025 67.845 3.97448
47.4526 66.5592 3.97448
46.0519 69.1483 3.98106
48.1012 68.5681 2
48.7979 70.721 3.98744
50.9489 69.9266 2
51.8506 72.1454 4
54.0858 71.1327 2
56.25 69.9759 0
55.1011 7.14037 3.99252
58.3339 6.31992 4
57.0591 8.34282 2
60.3286 7.74926 2
58.9175 9.66407 0.0281212
62.2254 9.30607 0
68.1874 48.0875 0.0350438
69.3893 43.8995 0.0327197
66.4429 45.3856 0.0235675
67.3592 41.4738 0.0233791
70.0181 39.6567 0.032476
72.4862 37.5129 0.0258749
70.1097 37.5237 2
67.6041 39.5027 2
66.9683 43.4299 2
65.1395 41.1742 2
65.7889 47.3479 2
64.1934 44.7663 2
67.7103 37.5258 3.97651
65.3819 39.3541 3.97648
64.7443 42.9656 3.97617
63.1911 40.88 3.9763
63.4843 46.6027 3.97491
62.1841 44.1082 3.9757
70.033 35.3969 0.0330089
69.4273 31.1606 0.0343647
67.4273 33.6191 0.0233965
66.5297 29.6778 0.0242826
62.3337 12.6611 0.0334743
62.1675 15.8142 0.0461946
61.5721 18.7977 0.0406828
65.2699 25.7775 0.0276889
63.7006 28.3718 0.0246904
62.4344 24.7895 0.0255248
60.8298 21.5127 0.0309435
59.8857 23.9523 0.0259677
59.2345 12.8273 0.0365744
56.3762 13.2061 0.0374436
55.8686 10.2764 0.0286187
67.6471 35.5639 2
67.0273 31.6653 2
65.2964 33.9689 2
64.2198 30.2848 2
60.7539 14.2616 2
60.4089 17.2403 2
59.8294 20.0039 2
63.102 26.5541 2
61.6505 28.9361 2
59.1348 22.4953 2
60.4736 25.5512 2
58.3199 24.6036 2
57.8478 14.4129 2
55.2205 14.7611 2
54.0413 9.15031 2
54.7639 12.0963 2
65.4806 35.6909 3.97653
64.7573 32.2178 3.97588
63.7724 34.2998 3.97609
61.9761 30.7598 3.9754
61.0551 27.2549 3.97464
60.1205 29.33 3.97552
59.1817 15.7703 3.95407
58.6203 26.0613 3.97471
58.7704 18.5447 3.96017
58.2201 21.1038 3.96622
57.6543 23.3815 3.97199
57.2472 24.9777 3.97524
52.1022 8.18343 3.96838
53.0586 11.0607 3.97514
56.5335 15.8918 3.95608
53.7667 13.7908 3.96524
54.2184 16.1652 3.95653
55.0656 67.9291 0.0183343
65.048 49.3261 0.026918
55.7874 64.8582 0.0301919
59.2103 62.3154 0.0313737
56.3071 62.0069 0.0188581
63.4368 53.1941 0.0327246
61.9725 50.492 0.0262285
59.2214 59.4648 0.0464408
58.9397 56.8359 0.0395754
60.7005 54.1495 0.0285052
58.8179 54.9854 0.0288122
53.0427 68.993 2
53.9589 65.985 2
57.8394 60.8032 2
54.6542 63.1089 2
55.163 60.517 2
62.7122 48.5169 2
61.3115 52.4119 2
59.6261 49.7911 2
57.7886 58.1162 2
58.8467 53.7364 2
57.6231 55.5786 2
52.061 66.9808 3.97327
52.93 64.147 3.96835
56.5199 59.3659 3.95165
53.6227 61.4817 3.96556
54.1663 59.1844 3.9646
60.3082 47.6857 3.97376
59.1328 51.8811 3.97284
57.2291 49.3302 3.97354
56.4523 56.7915 3.9604
56.4746 53.839 3.96776
50.1064 67.8418 2
49.3223 65.8813 3.97377
47.4566 66.5511 2
46.8766 64.6769 3.97807
45.5528 67.0779 3.97798
43.9703 69.5816 3.98294
46.0557 69.1489 2
46.6052 71.3656 3.98908
48.0971 68.5669 0.0214879
48.8028 70.7203 2
49.554 73.0099 4
50.9439 69.9301 0.0143997
51.8506 72.1455 2
54.0858 71.1327 0
53.0625 6.08108 3.9801
55.1054 7.14286 2
56.25 5.02411 4
58.3339 6.3199 2
57.0559 8.33677 0.0202135
60.3285 7.74928 0
65.7915 47.3491 0.0249034
66.9705 43.4311 0.0234062
64.1941 44.7665 0.0242118
65.1399 41.1743 0.023655
67.607 39.503 0.0234533
70.106 37.5238 0.0326557
67.7076 37.5259 2
65.3816 39.3542 2
64.7431 42.9653 2
63.1919 40.8801 2
63.4838 46.602 2
62.1844 44.1084 2
65.4917 37.5065 3.97644
63.3395 39.2463 3.97625
62.7372 42.4759 3.97607
61.7436 40.6404 3.97648
61.304 45.7661 3.97497
60.6942 43.5592 3.97597
67.6494 35.5635 0.0233331
67.0296 31.6643 0.0234757
65.2978 33.9688 0.0234896
64.2204 30.2846 0.0243489
60.7566 14.2619 0.043009
60.4162 17.2393 0.0447915
59.8302 20.0028 0.0359427
63.1033 26.5532 0.0253176
61.6506 28.9362 0.0249078
60.4741 25.5509 0.0256358
59.1344 22.494 0.0283049
58.3243 24.6013 0.0258705
57.8493 14.4225 0.0482583
55.2315 14.778 0.0488756
54.0372 9.15544 0.011944
54.7745 12.103 0.0251128
65.4799 35.6909 2
64.7565 32.2181 2
63.7734 34.2998 2
61.9763 30.7595 2
59.1999 15.7643 2
58.7695 18.5453 2
58.2175 21.1062 2
61.0546 27.2552 2
60.1212 29.3298 2
57.6499 23.3845 2
58.6178 26.062 2
57.2432 24.9809 2
56.5168 15.8959 2
54.2252 16.165 2
53.7492 13.774 2
52.1043 8.19051 2
53.0542 11.0567 2
63.5523 35.6647 3.97605
62.3098 33.1309 3.97587
59.8249 30.7844 3.97531
58.7833 28.1495 3.97492
57.6877 17.1539 3.95635
56.9255 26.0496 3.97464
57.2362 19.7283 3.95943
56.7317 22.1491 3.96777
56.4484 24.2835 3.97391
50.1053 7.30531 3.97428
51.1989 10.2079 3.9643
52.1348 12.8696 3.97411
55.2984 17.1717 3.95627
52.8781 15.4108 3.96076
53.5455 17.1849 3.95499
53.0375 68.9963 0.0176419
53.9547 65.9853 0.0296786
62.7128 48.5174 0.0259426
54.6562 63.1093 0.0348874
57.8385 60.7957 0.0461594
55.1657 60.5188 0.0236647
61.312 52.4121 0.0268954
59.6258 49.7913 0.0270703
57.7816 58.1121 0.0433855
57.6261 55.58 0.0368186
58.8424 53.7359 0.027561
52.0651 66.9752 2
52.9312 64.1465 2
56.5146 59.3665 2
53.6206 61.4805 2
54.1592 59.1843 2
60.3085 47.6855 2
59.1348 51.8809 2
57.2298 49.3308 2
56.4486 56.7946 2
56.4721 53.8379 2
51.1496 65.0827 3.96737
52.0013 62.4326 3.96443
55.2759 58.0847 3.96014
52.7077 59.9581 3.95767
53.497 58.3074 3.96179
57.3603 46.5746 3.97464
56.8464 51.4933 3.97254
55.3526 49.2092 3.97475
55.0644 55.5567 3.96153
54.6443 53.0726 3.96236
50.1025 67.845 0.0255235
49.325 65.8809 2
48.5949 64.0592 3.97782
47.4526 66.5592 0.0255181
45.5546 67.0826 2
46.8791 64.6751 2
46.3574 62.9793 3.98295
45.12 65.165 3.98068
43.6282 67.4534 3.97993
41.8584 69.8685 3.98301
43.9727 69.5824 2
44.3732 71.8605 3.98988
46.0519 69.1483 0.0189367
46.6086 71.3651 2
47.2057 73.7222 4
48.7979 70.721 0.012557
49.554 73.0099 2
51.8506 72.1454 0
50.9541 5.1372 3.98482
53.0652 6.08114 2
54.0858 3.86728 4
55.1011 7.14037 0.00747885
56.25 5.02406 2
58.3339 6.31992 0
63.4843 46.6027 0.0250937
64.7443 42.9656 0.0238284
62.1841 44.1082 0.0243038
63.1911 40.88 0.0236959
65.3819 39.3541 0.0235152
67.7103 37.5258 0.0234896
65.4911 37.5065 2
63.3408 39.2467 2
62.7381 42.4756 2
61.744 40.6406 2
61.3043 45.7657 2
60.6943 43.5592 2
63.4047 37.4625 3.97634
61.4374 39.323 3.97663
60.4333 41.859 3.97677
59.4 44.5903 3.9753
65.4806 35.6909 0.0234704
64.7573 32.2178 0.0241221
63.7724 34.2998 0.0239115
61.9761 30.7598 0.0245955
59.1817 15.7703 0.0459322
58.7704 18.5447 0.0398262
58.2201 21.1038 0.0337794
61.0551 27.2549 0.0253615
60.1205 29.33 0.0244792
58.6203 26.0613 0.0252889
57.6543 23.3815 0.028011
57.2472 24.9777 0.0247582
56.5335 15.8918 0.0439184
54.2184 16.1652 0.0434665
53.7667 13.7908 0.034756
52.1022 8.18343 0.0316186
53.0586 11.0607 0.0248612
63.5534 35.6643 2
62.3116 33.1313 2
59.8257 30.7843 2
57.6976 17.1519 2
57.2349 19.7288 2
56.7294 22.1523 2
58.7835 28.1484 2
56.4557 24.2871 2
56.9242 26.0491 2
50.1106 7.29424 2
55.2943 17.1728 2
53.5514 17.1783 2
52.8689 15.4065 2
52.1419 12.8728 2
51.2046 10.2083 2
61.4798 35.408 3.97633
59.4313 32.8746 3.97582
57.6698 30.3097 3.97492
56.3687 27.6972 3.97506
56.2815 18.3835 3.95633
55.428 25.4751 3.97403
55.7874 20.8279 3.96116
55.3689 23.2287 3.96843
48.0557 6.53611 3.98067
49.3011 9.38389 3.97321
50.3805 12.1347 3.9715
51.2963 14.6091 3.97382
54.1245 18.1651 3.95945
52.1743 17.2457 3.95653
52.061 66.9808 0.0267325
52.93 64.147 0.0316469
60.3082 47.6857 0.0262378
53.6227 61.4817 0.0344354
56.5199 59.3659 0.0483524
54.1663 59.1844 0.0353959
59.1328 51.8811 0.0271636
57.2291 49.3302 0.0264643
56.4523 56.7915 0.0396025
56.4746 53.839 0.03224
51.1513 65.0787 2
52.0015 62.4402 2
55.2681 58.0839 2
52.7104 59.961 2
53.4903 58.3095 2
57.3605 46.574 2
56.8452 51.4925 2
55.3519 49.2086 2
55.0629 55.5571 2
54.6434 53.0727 2
50.3135 63.3122 3.97058
51.1497 60.7896 3.97044
53.9646 57.0739 3.9677
52.0832 58.432 3.96812
55.5251 43.9314 3.97517
54.4333 47.5269 3.9753
54.1453 51.0256 3.96574
53.4891 54.2726 3.96474
49.3223 65.8813 0.0262255
48.593 64.0725 2
47.9228 62.4069 3.98965
45.5528 67.0779 0.0220166
46.8766 64.6769 0.0219348
43.6292 67.4549 2
46.3573 62.9771 2
45.1236 65.1593 2
45.9505 61.5009 3.99178
44.7487 63.394 3.97545
43.351 65.4814 3.97882
41.6618 67.6712 3.97867
39.7011 70.0158 3.98271
41.8599 69.8708 2
42.1084 72.2043 3.99042
43.9703 69.5816 0.0170587
44.3758 71.8599 2
44.8159 74.2794 4
46.6052 71.3656 0.010922
47.2057 73.7222 2
49.554 73.0099 0
48.7852 4.32481 3.98639
50.9551 5.13547 2
51.8506 2.85458 4
53.0625 6.08108 0.0198966
54.0858 3.86728 2
56.25 5.02411 0
61.304 45.7661 0.0250304
62.7372 42.4759 0.0239261
60.6942 43.5592 0.0240334
61.7436 40.6404 0.0235241
63.3395 39.2463 0.0237482
65.4917 37.5065 0.0235607
63.4064 37.4625 2
61.4375 39.3238 2
60.4334 41.859 2
59.401 44.59 2
61.2547 37.4514 3.97664
59.3421 39.7915 3.97665
57.9896 42.7667 3.97585
63.5523 35.6647 0.0239526
62.3098 33.1309 0.0241284
59.8249 30.7844 0.0246942
57.6877 17.1539 0.0436543
57.2362 19.7283 0.0405672
56.7317 22.1491 0.0322284
58.7833 28.1495 0.0250813
56.9255 26.0496 0.0253575
56.4484 24.2835 0.0260908
55.2984 17.1717 0.0437336
53.5455 17.1849 0.045005
52.8781 15.4108 0.039238
50.1053 7.30531 0.0257237
52.1348 12.8696 0.0258891
51.1989 10.2079 0.0357022
61.4799 35.4077 2
59.4307 32.8748 2
57.671 30.3104 2
56.2835 18.3834 2
55.8025 20.8235 2
55.3888 23.2302 2
56.3691 27.6964 2
55.4297 25.4776 2
48.052 6.54432 2
49.3043 9.38605 2
54.125 18.1691 2
52.1679 17.2403 2
51.2901 14.6053 2
50.3846 12.1291 2
58.9591 35.1894 3.97639
56.9114 32.454 3.97508
55.4626 29.6444 3.97503
54.4369 27.0041 3.97407
54.9349 19.4608 3.96065
54.1139 24.459 3.97155
54.354 21.9165 3.96406
45.9617 5.89519 3.98107
43.3687 7.49182 3.97904
47.3396 8.65564 3.97299
48.5624 11.3939 3.96935
49.6261 13.902 3.97878
50.495 16.3095 3.95906
52.8159 18.9514 3.96076
51.0853 18.349 3.95269
51.1496 65.0827 0.0326279
52.0013 62.4326 0.0355674
57.3603 46.5746 0.0253585
52.7077 59.9581 0.0423305
55.2759 58.0847 0.0398619
53.497 58.3074 0.0382051
56.8464 51.4933 0.0274583
55.3526 49.2092 0.0252488
55.0644 55.5567 0.0384721
54.6443 53.0726 0.0376403
50.3109 63.3103 2
51.1499 60.7895 2
53.9551 57.0741 2
52.0749 58.435 2
55.5287 43.9306 2
54.434 47.5275 2
54.1405 51.0242 2
53.4837 54.2738 2
49.5292 61.6718 3.97778
54.2002 41.5684 3.97424
50.4024 59.1585 3.96882
51.8027 56.2535 3.96603
52.8413 45.1713 3.97244
52.2224 48.9118 3.9695
51.9356 52.5241 3.95848
48.5949 64.0592 0.0221815
47.9215 62.4092 2
47.2717 60.929 3.99187
43.6282 67.4534 0.0200706
45.12 65.165 0.0193162
46.3574 62.9793 0.0170525
41.6633 67.6734 2
43.3571 65.4827 2
45.9518 61.5024 2
44.7504 63.386 2
45.7083 60.5444 4.00501
44.4556 61.7549 3.98223
43.1345 63.6794 3.97945
41.5436 65.6213 3.97378
39.6319 67.7512 3.97822
37.5257 70.0403 3.9827
39.7019 70.0163 2
39.8162 72.4017 3.99076
41.8584 69.8685 0.0169889
42.1102 72.2051 2
42.3947 74.6792 4
44.3732 71.8605 0.0101155
44.8159 74.2794 2
47.2057 73.7222 0
43.8506 5.36878 3.98014
46.5698 3.65097 3.98768
48.784 4.32855 2
49.554 1.99015 4
50.9541 5.1372 0.0151818
51.8506 2.85453 2
54.0858 3.86728 0
59.4 44.5903 0.0246989
60.4333 41.859 0.0232283
61.4374 39.323 0.0233726
63.4047 37.4625 0.0236563
61.2561 37.4513 2
59.3402 39.7915 2
57.9885 42.7658 2
58.8022 37.5716 3.97668
56.8852 40.5482 3.97748
53.5918 39.6131 3.97682
61.4798 35.408 0.0236676
59.4313 32.8746 0.0241782
57.6698 30.3097 0.0250817
56.2815 18.3835 0.0436745
55.7874 20.8279 0.0388397
55.3689 23.2287 0.0315667
56.3687 27.6972 0.0249413
55.428 25.4751 0.0259742
54.1245 18.1651 0.0405522
52.1743 17.2457 0.0434697
51.2963 14.6091 0.0261833
48.0557 6.53611 0.0193271
49.3011 9.38389 0.0267872
50.3805 12.1347 0.028501
58.9568 35.1885 2
45.961 5.89423 2
43.3698 7.49518 2
56.9099 32.4538 2
55.4653 29.6416 2
54.9251 19.4646 2
54.3828 21.9148 2
54.1087 24.4619 2
54.4381 27.0044 2
47.3422 8.64991 2
48.5657 11.3827 2
52.8073 18.9225 2
51.0853 18.3522 2
50.502 16.3081 2
49.6221 13.9046 2
56.2155 34.8653 3.97724
54.4685 31.7881 3.97431
53.3295 28.7907 3.9758
52.8113 25.9358 3.9734
53.517 20.4538 3.96739
52.879 23.1204 3.97012
41.396 7.0916 3.97964
45.3498 8.0106 3.984
42.8592 9.44481 3.97407
46.643 10.7232 3.97424
47.6764 13.2143 3.97314
48.7959 15.5597 3.97777
49.8003 17.9424 3.96161
51.3307 19.6608 3.97746
50.3135 63.3122 0.0294237
51.1497 60.7896 0.0295582
55.5251 43.9314 0.0248287
54.4333 47.5269 0.0247034
52.0832 58.432 0.0318822
53.9646 57.0739 0.0323046
54.1453 51.0256 0.0342577
53.4891 54.2726 0.0352585
49.5298 61.6673 2
54.1949 41.5606 2
50.4011 59.1643 2
51.8071 56.2583 2
52.8355 45.1694 2
52.2178 48.9099 2
51.9408 52.5254 2
48.7398 60.1181 3.99702
50.7936 42.3809 3.98302
49.5327 57.4402 3.96506
50.0601 54.155 3.95974
50.5048 46.8055 3.97713
50.3047 50.5729 3.95231
46.5551 43.3252 3.95738
47.9228 62.4069 0.0103478
47.2775 60.9257 2
46.5338 59.7124 3.99409
41.6618 67.6712 0.0213335
43.351 65.4814 0.021178
44.7487 63.394 0.0245526
45.9505 61.5009 0.00822365
39.6336 67.7519 2
41.5483 65.6179 2
45.7128 60.5459 2
43.1343 63.6748 2
44.456 61.7511 2
44.5789 60.1999 3.99429
42.9287 62.015 3.97976
41.5903 63.7886 3.98081
39.645 65.5906 3.97632
37.5628 67.733 3.97689
31.7018 65.0966 3.97136
33.394 67.4713 3.97862
35.334 69.9514 3.98262
37.5256 70.0422 2
37.5093 72.4557 3.99125
39.7011 70.0158 0.0172907
39.8173 72.4018 2
39.9526 74.9197 4
42.1084 72.2043 0.00957822
42.3947 74.6792 2
44.8159 74.2794 0
41.7356 4.97577 3.98465
43.8502 5.37 2
44.3258 3.11307 3.98949
46.5707 3.65059 2
47.2057 1.27793 4
48.7852 4.32481 0.0136061
49.554 1.99013 2
51.8506 2.85458 0
57.9896 42.7667 0.0241518
59.3421 39.7915 0.0233482
61.2547 37.4514 0.0233625
58.8027 37.5721 2
56.886 40.5495 2
53.5895 39.6131 2
55.5535 37.8846 3.97714
47.8079 41.1153 3.96671
51.3344 39.2482 3.97907
39.4399 6.81517 3.97844
58.9591 35.1894 0.0236138
56.9114 32.454 0.0249246
55.4626 29.6444 0.0249742
54.9349 19.4608 0.0393503
54.354 21.9165 0.0359429
54.1139 24.459 0.0284478
54.4369 27.0041 0.0259338
52.8159 18.9514 0.0392372
51.0853 18.349 0.0473142
50.495 16.3095 0.0409393
45.9617 5.89519 0.0189308
49.6261 13.902 0.0212233
47.3396 8.65564 0.0270146
48.5624 11.3939 0.0306527
43.3687 7.49182 0.0209637
56.2147 34.8688 2
41.3977 7.0931 2
45.3507 8.01304 2
42.8556 9.44617 2
54.466 31.7882 2
53.3252 28.7906 2
53.5201 20.46 2
52.8528 23.1304 2
52.8191 25.9376 2
46.6425 10.7133 2
47.6789 13.2036 2
51.3314 19.6608 2
49.8012 17.9391 2
48.8058 15.5867 2
53.3738 34.1099 3.97548
52.0946 30.8628 3.97466
51.4631 27.6568 3.97486
51.3047 24.5515 3.97098
51.8941 21.434 3.97479
41.0086 9.06683 3.97554
44.7146 10.0339 3.9788
42.4462 10.9315 4.00464
45.9453 12.8037 3.97057
47.5792 14.7399 3.97384
47.9333 17.1541 3.98209
49.5732 20.061 3.98862
49.5292 61.6718 0.0222174
50.4024 59.1585 0.0311769
54.2002 41.5684 0.025761
52.8413 45.1713 0.0275614
52.2224 48.9118 0.0305034
51.8027 56.2535 0.0339694
51.9356 52.5241 0.0415198
48.7389 60.1154 2
50.819 42.4046 2
49.5305 57.4381 2
50.0602 54.1577 2
50.5054 46.8051 2
50.3076 50.5729 2
46.5658 43.3681 2
47.8355 58.5903 3.99046
48.5557 44.8939 3.98177
48.2387 55.7046 3.95258
48.4709 52.2895 3.97866
48.614 48.6288 3.97181
44.2175 39.6794 3.81159
44.7816 42.2665 3.86011
45.1437 45.2522 3.97567
42.1283 40.9491 3.57347
41.1779 41.4672 3.37141
47.2717 60.929 0.00813062
46.5354 59.7138 2
45.3768 58.6941 3.99384
39.6319 67.7512 0.0217816
41.5436 65.6213 0.0262204
43.1345 63.6794 0.0205457
44.4556 61.7549 0.0177653
45.7083 60.5444 -0.00501043
41.5938 63.7815 2
37.5644 67.7351 2
39.6495 65.592 2
44.5753 60.2019 2
42.929 62.0055 2
41.7383 62.4351 3.98638
42.4476 59.8911 3.98839
39.8863 63.5269 3.98022
37.6403 65.4878 3.97541
35.4634 67.6421 3.97589
33.5775 65.3128 3.97326
31.9676 63.2472 3.98517
29.8932 64.6876 3.97922
31.6964 65.1062 2
31.3814 67.1849 3.97868
33.3956 67.476 2
33.158 69.7455 3.98346
35.3335 69.9529 2
35.1964 72.3709 3.99159
37.5257 70.0403 0.0172976
37.5098 72.4564 2
37.5 75 4
39.8162 72.4017 0.00924243
39.9526 74.9197 2
42.3947 74.6792 0
39.6241 4.72208 3.98563
41.7353 4.97618 2
42.0624 2.72007 3.9904
43.8506 5.36878 0.0198604
44.3259 3.11347 2
44.8158 0.721173 4
46.5698 3.65097 0.0123238
47.2057 1.27779 2
49.554 1.99015 0
56.8852 40.5482 0.0225152
58.8022 37.5716 0.0233169
53.5918 39.6131 0.0231809
47.8499 41.1373 2
55.549 37.883 2
51.3491 39.2329 2
52.2691 36.6351 3.97671
45.7314 40.2162 3.88024
48.6765 38.4675 3.96594
37.5147 6.68312 3.98237
39.4413 6.81477 2
39.2076 8.715 3.98062
35.9417 8.50754 3.9785
56.2155 34.8653 0.0227642
54.4685 31.7881 0.0256901
53.3295 28.7907 0.0241975
53.517 20.4538 0.0326096
52.879 23.1204 0.029877
52.8113 25.9358 0.0265956
51.3307 19.6608 0.0225431
49.8003 17.9424 0.0383879
48.7959 15.5597 0.0222326
45.3498 8.0106 0.0160029
47.6764 13.2143 0.0268613
46.643 10.7232 0.0257641
41.396 7.0916 0.0203589
42.8592 9.44481 0.0259285
53.3757 34.1147 2
41.0061 9.07004 2
44.7126 10.0304 2
42.4433 10.9382 2
52.0996 30.8585 2
51.4662 27.6577 2
51.8972 21.4373 2
51.2939 24.5615 2
45.9479 12.7932 2
47.574 14.7239 2
49.5854 20.081 2
47.9341 17.1531 2
50.7639 33.107 3.9751
49.9086 29.6485 3.97642
49.7619 26.171 3.97057
49.4353 22.6315 3.9729
40.5509 11.6259 3.98928
43.8094 11.9578 3.96635
45.7024 15.6086 3.9986
47.2889 19.6486 3.97931
44.5292 37.5042 3.82221
48.7398 60.1181 0.00297892
49.5327 57.4402 0.0349433
50.7936 42.3809 0.0169802
50.5048 46.8055 0.0228704
50.3047 50.5729 0.0476874
50.0601 54.155 0.0402634
46.5551 43.3252 0.0426228
47.8266 58.5938 2
48.5702 44.9076 2
48.2335 55.7073 2
48.4711 52.2945 2
48.6177 48.6296 2
44.3421 39.6976 2
44.8172 42.3066 2
45.1507 45.2761 2
42.1929 41.014 2
41.2182 41.4923 2
46.626 57.1832 3.99206
42.7377 39.3872 3.5652
41.5556 40.4637 3.35215
46.8316 46.8695 3.99127
46.7129 53.9881 3.95707
46.7941 50.4198 3.97263
43.8131 46.873 3.98226
43.4537 41.6577 3.8172
43.694 44.0376 3.84635
41.4726 42.1501 3.60371
40.3326 41.7396 3.29399
46.5338 59.7124 0.00591193
45.3666 58.6929 2
43.7846 57.5571 3.99519
37.5628 67.733 0.0231097
39.645 65.5906 0.0236788
41.5903 63.7886 0.0191891
42.9287 62.015 0.0202386
44.5789 60.1999 0.00570813
35.4649 67.6433 2
41.7377 62.4295 2
39.8887 63.5289 2
37.6438 65.4904 2
42.4452 59.8926 2
40.6096 61.5845 3.98715
40.418 58.0665 3.99252
37.834 63.178 3.97369
35.5726 65.4054 3.97411
33.5744 65.305 2
31.9684 63.232 2
33.6331 63.3029 3.98451
30.398 62.7955 3.98541
32.1486 61.9497 4.00164
26.9223 61.3782 3.98914
28.0831 64.0947 3.98828
29.8917 64.6826 2
29.4128 66.7391 3.97923
31.7018 65.0966 0.0286364
31.3827 67.1863 2
31.0163 69.4121 3.984
33.394 67.4713 0.0213802
33.1569 69.7481 2
32.8948 72.1453 3.99152
35.334 69.9514 0.0173798
35.196 72.3717 2
35.0474 74.9194 4
37.5093 72.4557 0.00875334
37.5 75 2
39.9526 74.9197 0
35.6194 6.73488 3.97989
37.5241 4.62097 3.98662
39.6234 4.7217 2
39.7892 2.4761 3.99143
41.7356 4.97577 0.0153477
42.0624 2.72024 2
42.3946 0.32156 4
44.3258 3.11307 0.0105126
44.8159 0.72056 2
47.2057 1.27793 0
47.8079 41.1153 0.033288
55.5535 37.8846 0.0228581
51.3344 39.2482 0.020928
45.7884 40.2047 2
48.7136 38.4609 2
52.2684 36.631 2
49.5178 35.6129 3.97837
46.3066 37.705 3.84573
44.2438 35.29 3.81482
42.1791 34.0033 3.57494
41.2212 33.4851 3.37447
37.4569 8.54601 3.98049
37.5158 6.68359 2
39.4399 6.81517 0.0215563
39.208 8.71433 2
38.9682 10.1508 3.99337
35.897 9.7913 3.98198
34.1519 8.83838 3.97676
35.9412 8.50826 2
53.3738 34.1099 0.024524
52.0946 30.8628 0.0253398
51.4631 27.6568 0.0251439
51.8941 21.434 0.0252061
51.3047 24.5515 0.0290202
49.5732 20.061 0.0113793
47.9333 17.1541 0.0179129
47.5792 14.7399 0.0261572
44.7146 10.0339 0.0211995
45.9453 12.8037 0.0294294
41.0086 9.06683 0.0244562
42.4462 10.9315 -0.0046402
50.786 33.0893 2
40.5537 11.6398 2
43.81 11.9393 2
49.9199 29.6452 2
49.762 26.1838 2
49.4269 22.6031 2
45.6865 15.5537 2
47.2994 19.6868 2
48.3657 31.6684 3.97995
48.083 27.9541 3.97479
48.6077 24.7803 3.96973
46.8273 22.4505 3.9927
38.2943 12.7755 3.98115
42.0451 14.4231 3.99158
44.6367 18.7166 3.99827
43.0227 37.4862 3.56381
44.6461 37.4908 2
47.8355 58.5903 0.00954413
48.2387 55.7046 0.0474152
48.5557 44.8939 0.0182293
48.614 48.6288 0.0281894
48.4709 52.2895 0.0213429
44.2175 39.6794 0.188407
44.7816 42.2665 0.139889
45.1437 45.2522 0.0243276
42.1283 40.9491 0.426528
41.1779 41.4672 0.628588
46.6203 57.1886 2
42.8308 39.4037 2
41.5809 40.4712 2
46.837 46.8723 2
46.7057 53.9915 2
46.7937 50.4325 2
43.8552 46.8879 2
43.5261 41.718 2
43.756 44.0751 2
41.529 42.247 2
40.4095 41.7568 2
45.1285 55.7431 4.00268
41.8712 39.0508 3.36204
40.1827 40.4067 3.3988
45.1711 48.5088 4.00276
44.9392 52.2165 3.99513
42.6459 47.8495 3.98853
42.4914 45.5069 3.85626
42.5463 43.341 3.79082
40.6189 43.0372 3.5708
39.0998 42.0337 3.38274
45.3768 58.6941 0.00615774
43.7759 57.5711 2
42.0087 56.0963 3.99589
35.4634 67.6421 0.0241068
37.6403 65.4878 0.0245931
39.8863 63.5269 0.0197767
41.7383 62.4351 0.013615
42.4476 59.8911 0.011609
35.575 65.4104 2
40.61 61.5718 2
37.8373 63.1799 2
40.4154 58.0769 2
38.9085 56.2416 3.99606
38.2428 60.2659 3.98777
35.6074 63.1716 3.9741
33.5775 65.3128 0.0267379
31.9676 63.2472 0.0148333
33.634 63.3051 2
30.3973 62.7827 2
32.1553 61.9378 2
28.7153 62.1327 3.98983
33.363 61.4654 3.991
31.1262 61.1653 4.01263
27.6703 59.4774 3.96184
23.9181 58.9228 3.97807
25.1062 60.7254 3.97993
26.9217 61.3845 2
26.2621 63.4201 3.97571
28.0848 64.0963 2
27.4752 66.1541 3.97824
29.8932 64.6876 0.0207785
29.4128 66.75 2
28.9114 68.9323 3.9821
31.3814 67.1849 0.0213217
31.0145 69.4126 2
30.6182 71.7775 3.99123
33.158 69.7455 0.0165439
32.8934 72.1464 2
32.6054 74.6784 4
35.1964 72.3709 0.0084119
35.0474 74.9197 2
37.5 75 0
33.7221 6.99064 3.97821
35.4364 4.69086 3.98627
35.6206 6.73557 2
37.5153 2.38861 3.99169
37.523 4.6207 2
39.6241 4.72208 0.0143706
39.7888 2.47602 2
39.9526 0.0806499 4
42.0624 2.72007 0.00959613
42.3947 0.320817 2
44.8158 0.721173 0
42.7742 35.5752 3.57223
41.5966 34.4755 3.33781
45.7314 40.2162 0.119758
48.6765 38.4675 0.0340636
52.2691 36.6351 0.0232936
46.3338 37.715 2
49.5571 35.634 2
44.3626 35.2748 2
42.2389 33.9359 2
41.2371 33.4568 2
46.6252 34.5133 3.92329
43.5093 33.2969 3.80935
41.5126 32.8058 3.60688
40.3505 33.2204 3.29209
37.306 10.6471 3.98056
37.4572 8.54699 2
37.5147 6.68312 0.0176285
39.2076 8.715 0.0193796
38.9711 10.1551 2
34.755 10.4033 3.97483
35.9007 9.79186 2
32.3802 9.38776 3.97162
34.1507 8.84063 2
35.9417 8.50754 0.0215002
50.7639 33.107 0.0248983
49.9086 29.6485 0.0235806
49.7619 26.171 0.0294272
49.4353 22.6315 0.0270952
47.2889 19.6486 0.0206873
45.7024 15.6086 0.00140198
43.8094 11.9578 0.033647
40.5509 11.6259 0.0107173
48.3858 31.6474 2
38.2938 12.7788 2
42.0589 14.4171 2
48.0776 27.9519 2
48.6075 24.7875 2
46.8209 22.4397 2
44.6445 18.7823 2
46.3596 29.988 3.97668
46.3032 25.4842 3.97671
44.0491 21.7216 3.98253
36.588 12.9894 3.98172
38.652 14.9342 3.97942
41.6453 18.0487 3.99119
42.02 37.4544 3.37626
43.1074 37.487 2
44.5292 37.5042 0.177794
46.626 57.1832 0.00793511
46.7129 53.9881 0.0429295
46.8316 46.8695 0.00872806
46.7941 50.4198 0.0273718
42.7377 39.3872 0.434798
43.4537 41.6577 0.182796
43.694 44.0376 0.153653
43.8131 46.873 0.0177371
41.4726 42.1501 0.396291
41.5556 40.4637 0.647847
40.3326 41.7396 0.706012
45.1237 55.7451 2
41.8986 39.0582 2
40.2752 40.3968 2
45.1689 48.5348 2
44.9311 52.2192 2
42.6972 47.874 2
42.5632 45.5834 2
42.5977 43.3754 2
40.6922 43.1281 2
39.0589 42.0763 2
43.4451 54.1622 4.0055
40.2281 38.9327 3.43356
39.0052 40.5089 3.39479
42.9913 49.9617 4.0038
41.3542 46.9822 3.91082
41.2597 44.5703 3.78904
39.3653 43.6986 3.56812
37.5048 42.1923 3.45329
43.7846 57.5571 0.00481448
42.0097 56.0872 2
40.3085 54.6533 3.99711
35.5726 65.4054 0.0258901
37.834 63.178 0.0263108
40.6096 61.5845 0.0128475
40.418 58.0665 0.00748355
35.6101 63.1716 2
38.2423 60.2499 2
38.907 56.2344 2
37.9743 54.9208 3.99461
36.9365 57.4683 3.99609
35.3688 60.8573 3.98808
33.6331 63.3029 0.0154948
30.398 62.7955 0.0145851
32.1486 61.9497 -0.00163619
33.3737 61.4597 2
28.7122 62.141 2
31.1264 61.1586 2
29.4961 60.2804 3.97947
32.3928 59.6014 3.99321
28.1624 58.2555 4.00499
27.6721 59.4833 2
25.5141 58.4493 3.97269
22.9296 58.0685 3.96806
23.4847 60.1928 3.97082
23.9196 58.923 2
25.1063 60.7224 2
24.4777 62.6829 3.97235
26.9223 61.3782 0.0108634
26.2624 63.4259 2
25.5663 65.45 3.97414
28.0831 64.0947 0.0117199
27.4703 66.1406 2
26.8435 68.3231 3.98108
29.4128 66.7391 0.0207654
28.9073 68.9341 2
28.3742 71.2612 3.98818
31.0163 69.4121 0.0160001
30.6161 71.7768 2
30.1842 74.2788 4
32.8948 72.1453 0.00847731
32.6053 74.6792 2
35.0474 74.9194 0
31.7863 7.43287 3.97576
33.3488 4.93028 3.98479
33.7235 6.99195 2
35.2459 2.46455 3.99144
35.4348 4.6915 2
35.6194 6.73488 0.0201142
37.5 0 4
37.5143 2.38864 2
37.5241 4.62097 0.0133809
39.7892 2.4761 0.00857447
39.9526 0.0802889 2
42.3946 0.32156 0
41.8711 35.8578 3.31029
42.8826 35.5589 2
40.2425 34.5232 3.41767
41.618 34.4605 2
46.3066 37.705 0.154274
49.5178 35.6129 0.0216293
44.2438 35.29 0.185181
42.1791 34.0033 0.425062
41.2212 33.4851 0.625531
46.6727 34.5155 2
43.5713 33.236 2
41.5583 32.7124 2
40.4067 33.2039 2
44.8128 31.9978 3.87641
42.5809 31.6117 3.77947
40.655 31.9208 3.576
39.096 32.9331 3.3821
35.6955 11.8097 3.97457
37.3119 10.6482 2
37.4569 8.54601 0.0195083
38.9682 10.1508 0.00662907
33.1037 11.2513 3.97224
34.7584 10.4017 2
35.897 9.7913 0.0180208
30.4884 10.0464 3.97277
32.3789 9.39259 2
34.1519 8.83838 0.0232381
48.3657 31.6684 0.0200472
48.083 27.9541 0.0252095
48.6077 24.7803 0.0302728
46.8273 22.4505 0.00729832
44.6367 18.7166 0.0017293
42.0451 14.4231 0.00841836
38.2943 12.7755 0.0188532
36.5832 12.9874 2
46.3424 29.9308 2
38.6634 14.907 2
41.6287 18.0364 2
46.3051 25.4703 2
44.0446 21.7155 2
44.4714 28.1555 3.99142
43.2644 24.3868 4.0058
41.1639 21.0821 3.99563
35.7738 14.8189 3.99407
38.6052 17.8104 3.99262
40.2862 37.4108 3.4646
42.0555 37.4619 2
43.0227 37.4862 0.436187
45.1285 55.7431 -0.00267771
44.9392 52.2165 0.0048668
45.1711 48.5088 -0.00275982
41.8712 39.0508 0.63796
42.5463 43.341 0.209182
42.4914 45.5069 0.143738
42.6459 47.8495 0.0114749
40.6189 43.0372 0.429201
40.1827 40.4067 0.601203
39.0998 42.0337 0.61726
43.4384 54.1594 2
40.2846 38.9371 2
38.975 40.5133 2
42.9753 49.9827 2
41.3478 47.0069 2
41.2841 44.6189 2
37.4946 42.2168 2
39.3837 43.7931 2
41.603 52.6117 4.0041
39.019 38.9984 3.3791
37.4979 40.5462 3.47051
35.9008 42.0558 3.38056
40.6049 49.1225 3.98827
39.5629 45.2628 3.75856
37.4995 44.0134 3.61883
42.0087 56.0963 0.00410922
40.3047 54.6616 2
38.6759 53.3891 3.99852
35.6074 63.1716 0.0259024
38.2428 60.2659 0.0122264
38.9085 56.2416 0.00393724
35.3773 60.8475 2
36.939 57.4839 2
37.9685 54.917 2
36.3316 55.0313 3.99715
34.5256 58.3987 3.99818
33.363 61.4654 0.00900226
28.7153 62.1327 0.0101672
31.1262 61.1653 -0.0126301
32.395 59.5993 2
29.4973 60.2858 2
30.4113 57.6382 3.97929
28.1603 58.2521 2
27.1739 56.6807 3.96279
27.6703 59.4774 0.0381612
25.5166 58.4484 2
24.1097 56.6134 3.95923
21.6176 57.1946 3.96052
22.0977 59.4707 3.97378
22.9328 58.0684 2
22.793 61.8923 3.97112
23.4843 60.1935 2
23.9181 58.9228 0.0219272
25.1062 60.7254 0.0200661
24.4781 62.6881 2
23.7054 64.6608 3.96568
26.2621 63.4201 0.0242912
25.5619 65.4526 2
24.8172 67.5827 3.97302
27.4752 66.1541 0.0217619
26.8399 68.3252 2
26.17 70.603 3.98853
28.9114 68.9323 0.0179022
28.3713 71.2616 2
27.7943 73.7221 4
30.6182 71.7775 0.00877019
30.1841 74.2794 2
32.6054 74.6784 0
29.8096 8.01225 3.97113
31.254 5.33868 3.98306
31.7883 7.43267 2
32.9819 2.70257 3.99094
33.347 4.93113 2
33.7221 6.99064 0.0217943
35.0474 0.080333 4
35.2445 2.46496 2
35.4364 4.69086 0.0137316
37.5 0 2
37.5153 2.38861 0.00831141
39.9526 0.0806499 0
40.3677 35.9491 3.47182
41.9168 35.8573 2
42.7742 35.5752 0.42777
28.5514 10.7263 3.97245
38.9986 34.476 3.37703
40.2498 34.5166 2
41.5966 34.4755 0.662187
46.6252 34.5133 0.0767051
43.5093 33.2969 0.190647
41.5126 32.8058 0.393118
40.3505 33.2204 0.707909
44.8401 31.9684 2
42.6384 31.5685 2
40.7238 31.8313 2
39.0698 32.8894 2
43.3294 30.2943 3.85966
41.2779 30.3692 3.79015
39.3672 31.2641 3.57456
37.5066 32.7985 3.45072
34.1017 12.975 3.98205
35.6991 11.8023 2
37.306 10.6471 0.0194417
31.1963 12.0263 3.9746
33.106 11.2463 2
34.755 10.4033 0.0251651
30.4844 10.0432 2
32.3802 9.38776 0.0283835
46.3596 29.988 0.02332
46.3032 25.4842 0.0232906
36.588 12.9894 0.0182777
44.0491 21.7216 0.0174682
41.6453 18.0487 0.00881489
38.652 14.9342 0.0205827
35.7644 14.8414 2
44.4676 28.1605 2
38.6204 17.7972 2
41.1731 21.0647 2
43.2553 24.3627 2
33.6363 15.9441 3.99065
42.4063 26.9346 3.96544
40.7245 23.804 4.00387
38.3537 20.6377 3.9955
35.8166 17.7159 3.98392
39.0277 37.4903 3.36326
40.3206 37.4204 2
42.02 37.4544 0.623737
43.4451 54.1622 -0.00549847
42.9913 49.9617 -0.00380114
40.2281 38.9327 0.566441
41.2597 44.5703 0.210962
41.3542 46.9822 0.0891813
39.3653 43.6986 0.431876
39.0052 40.5089 0.60521
37.5048 42.1923 0.546706
41.5906 52.6083 2
38.9885 38.9933 2
37.4852 40.5514 2
40.589 49.1267 2
35.9352 42.0939 2
39.5958 45.3362 2
37.4903 44.0936 2
39.6719 51.3522 3.99983
37.4987 38.9943 3.44335
36.0286 40.5327 3.38807
34.6738 41.7706 3.29139
35.6363 43.718 3.56782
38.575 47.9374 3.9184
37.4869 45.5496 3.79165
40.3085 54.6533 0.00288522
38.6713 53.4002 2
36.7691 52.7482 3.99828
35.3688 60.8573 0.0119199
36.9365 57.4683 0.00390848
37.9743 54.9208 0.00539302
34.5184 58.404 2
36.3386 55.0313 2
33.3922 55.2338 4.00863
32.3928 59.6014 0.00678964
29.4961 60.2804 0.0205267
30.4115 57.6251 2
29.0111 55.1986 3.98922
28.1624 58.2555 -0.00499333
27.1772 56.6794 2
25.6969 54.939 3.95861
22.2605 55.0957 3.95949
25.5141 58.4493 0.0273148
24.1139 56.613 2
20.5118 56.8255 3.96195
20.7912 58.6196 3.96205
21.622 57.1953 2
21.2348 61.0258 3.9688
22.0966 59.4701 2
22.9296 58.0685 0.0319388
21.9276 63.753 3.9697
22.7942 61.899 2
23.4847 60.1928 0.0291827
24.4777 62.6829 0.0276485
23.7017 64.6559 2
22.8464 66.7189 3.97029
25.5663 65.45 0.0258566
24.8133 67.5779 2
24.0144 69.8045 3.98639
26.8435 68.3231 0.0189187
26.1653 70.6025 2
25.446 73.0099 4
28.3742 71.2612 0.0118187
27.7943 73.7222 2
30.1842 74.2788 0
27.8209 8.68131 3.97279
29.1558 5.88565 3.98026
29.8101 8.00962 2
30.7276 3.10004 3.99022
31.2521 5.33827 2
31.7863 7.43287 0.0242417
32.6053 0.320823 4
32.9802 2.70312 2
33.3488 4.93028 0.0152105
35.0474 0.0802903 2
35.2459 2.46455 0.00855723
37.5 0 0
38.9165 35.9902 3.37999
40.3425 35.9467 2
41.8711 35.8578 0.689713
28.5484 10.7281 2
26.6356 11.4292 3.97297
29.241 12.6767 3.97859
37.5164 34.4505 3.47087
39.0178 34.4856 2
40.2425 34.5232 0.58233
44.8128 31.9978 0.123585
42.5809 31.6117 0.220525
40.655 31.9208 0.424
39.096 32.9331 0.617899
43.3761 30.2557 2
41.3208 30.3154 2
39.384 31.1672 2
37.5168 32.7714 2
41.6926 29.0282 3.85013
39.579 29.6979 3.78117
37.4998 30.9645 3.62129
35.9097 32.9498 3.38729
31.9456 14.5283 3.98564
34.1048 12.9762 2
35.6955 11.8097 0.025435
31.1955 12.0142 2
33.1037 11.2513 0.0277567
30.4884 10.0464 0.0272273
44.4714 28.1555 0.0085796
43.2644 24.3868 -0.00580478
35.7738 14.8189 0.00592838
41.1639 21.0821 0.00437136
38.6052 17.8104 0.00738456
33.6168 15.9264 2
35.8406 17.6014 2
42.4669 26.8926 2
38.3029 20.6692 2
40.7009 23.8183 2
33.5752 17.484 3.99077
40.1632 26.3079 3.96185
37.9958 23.5828 3.99549
35.5099 20.4608 3.99513
37.5268 37.4834 3.46323
38.9874 37.4844 2
40.2862 37.4108 0.535402
41.603 52.6117 -0.00409967
40.6049 49.1225 0.0117306
39.019 38.9984 0.6209
39.5629 45.2628 0.241435
37.4995 44.0134 0.381169
37.4979 40.5462 0.529493
35.9008 42.0558 0.619437
39.6587 51.3434 2
37.4854 38.999 2
36.0127 40.5092 2
38.6003 48.0062 2
34.6079 41.7886 2
35.6103 43.8153 2
37.4943 45.6206 2
37.6702 50.3131 3.98963
36.0908 39.0237 3.38681
34.7868 40.4448 3.41787
33.807 41.5069 3.37477
34.3888 43.0695 3.5673
35.3857 45.3388 3.78937
36.9413 47.5653 3.87041
38.6759 53.3891 0.00147895
36.7926 52.6962 2
34.5286 52.0936 4.00008
34.5256 58.3987 0.00182313
36.3316 55.0313 0.00284755
33.3966 55.2339 2
30.8912 53.2079 3.99537
30.4113 57.6382 0.0207084
29.0153 55.2068 2
27.38 53.2033 3.95347
27.1739 56.6807 0.0372053
25.7028 54.9386 2
24.1666 53.187 3.95335
21.1793 52.9049 3.95854
20.364 55.5916 3.96024
22.2624 55.0958 2
24.1097 56.6134 0.0407703
19.6629 57.7128 3.96135
20.5032 56.8302 2
19.7737 60.0812 3.97449
20.7789 58.6257 2
21.6176 57.1946 0.039479
20.2529 62.7351 3.97172
21.2422 61.0301 2
22.0977 59.4707 0.0262154
20.9516 65.726 3.96664
21.9246 63.7477 2
22.793 61.8923 0.0288801
23.7054 64.6608 0.0343198
22.8432 66.7174 2
21.918 68.8686 3.98241
24.8172 67.5827 0.0269831
24.0103 69.801 2
23.1494 72.1454 4
26.17 70.603 0.0114654
25.446 73.0099 2
27.7943 73.7221 0
25.8614 9.41509 3.97214
27.0703 6.55217 3.97724
27.8197 8.67451 2
28.49 3.64571 3.98905
29.1539 5.88637 2
29.8096 8.01225 0.0288747
30.1841 0.720592 4
30.7248 3.10023 2
31.254 5.33868 0.0169435
32.6053 0.320817 2
32.9819 2.70257 0.0090614
35.0474 0.080333 0
37.5171 35.978 3.43074
38.8922 35.9519 2
40.3677 35.9491 0.528179
24.7996 12.1073 3.96777
23.8004 14.5182 3.9796
28.5514 10.7263 0.0275482
26.631 11.4299 2
29.2384 12.6885 2
27.3064 13.4534 3.97528
29.82 14.2313 3.99818
36.0023 34.475 3.40214
37.5391 34.438 2
38.9986 34.476 0.622973
37.5066 32.7985 0.549276
43.3294 30.2943 0.140338
41.2779 30.3692 0.209848
39.3672 31.2641 0.425443
41.723 28.9512 2
39.595 29.6246 2
37.5044 30.886 2
35.9448 32.9086 2
39.7638 28.317 3.84775
37.4642 29.4061 3.77716
35.6446 31.2872 3.5712
34.6618 33.2419 3.29897
30.9891 16.8892 3.99682
31.9367 14.5062 2
34.1017 12.975 0.0179478
31.1963 12.0263 0.0254011
42.4063 26.9346 0.0345611
40.7245 23.804 -0.00387396
33.6363 15.9441 0.00935208
35.8166 17.7159 0.0160834
38.3537 20.6377 0.00450109
33.5349 17.5377 2
35.4674 20.5379 2
40.166 26.2942 2
38.0536 23.5734 2
33.0072 20.0288 3.99788
37.7638 25.9843 3.95512
35.4011 23.218 4.00807
36.0481 37.4827 3.37086
37.5002 37.4838 2
39.0277 37.4903 0.636738
39.6719 51.3522 0.000169512
38.575 47.9374 0.0816026
37.4987 38.9943 0.556651
37.4869 45.5496 0.20835
35.6363 43.718 0.432181
36.0286 40.5327 0.611934
34.6738 41.7706 0.708614
37.6374 50.3493 2
36.1424 39.0071 2
34.7338 40.461 2
36.9281 47.6348 2
33.7699 41.5366 2
34.3164 43.1546 2
35.3578 45.397 2
35.587 49.5114 3.98105
34.6928 38.9998 3.46645
33.4288 40.5145 3.33723
33.5206 42.1869 3.6049
33.7755 44.6014 3.77954
34.6932 46.7391 3.84935
36.7691 52.7482 0.00172301
34.5178 52.1216 2
32.433 50.877 4.00446
33.3922 55.2338 -0.0086288
30.8917 53.2065 2
29.0032 51.2295 3.98415
29.0111 55.1986 0.0107773
27.3857 53.2044 2
25.7865 51.4019 3.95444
25.6969 54.939 0.0413873
24.1721 53.19 2
22.7724 51.4548 3.95529
20.0945 51.2813 3.96551
19.5382 54.0245 3.96124
21.1815 52.9032 2
18.8094 56.5129 3.96112
20.3635 55.5936 2
22.2605 55.0957 0.0405076
18.503 58.9714 3.95443
19.6558 57.7171 2
20.5118 56.8255 0.0380453
18.6547 61.6845 3.97744
19.7767 60.0837 2
20.7912 58.6196 0.0379458
19.1463 64.6115 3.96646
20.2514 62.7351 2
21.2348 61.0258 0.0312008
19.8914 67.8083 3.9811
20.9472 65.7228 2
21.9276 63.753 0.0303043
22.8464 66.7189 0.0297104
21.9133 68.8662 2
20.9142 71.1327 4
24.0144 69.8045 0.0136113
23.1494 72.1455 2
25.446 73.0099 0
23.1201 12.9181 3.97428
23.9791 10.1929 3.97156
25.0239 7.32456 3.97397
25.8613 9.41515 2
26.282 4.33058 3.98781
27.0678 6.55254 2
27.8209 8.68131 0.0272101
27.7943 1.27781 4
28.4864 3.64739 2
29.1558 5.88565 0.0197424
30.1841 0.720551 2
30.7276 3.10004 0.00978185
32.6053 0.320823 0
36.0095 35.978 3.38438
37.5612 35.992 2
38.9165 35.9902 0.620015
24.7858 12.1482 2
23.7968 14.5274 2
22.5526 15.1869 3.98511
25.3881 14.0575 3.97695
24.1193 15.7723 4.01429
26.6356 11.4292 0.0270281
29.241 12.6767 0.0214087
27.3179 13.4269 2
29.8078 14.2443 2
28.4348 15.9911 3.98925
34.812 34.5672 3.4041
36.0385 34.4736 2
37.5164 34.4505 0.529127
35.9097 32.9498 0.612707
37.4998 30.9645 0.378706
41.6926 29.0282 0.149875
39.579 29.6979 0.218827
39.8093 28.258 2
37.4717 29.3582 2
35.6253 31.1933 2
34.5944 33.2246 2
37.6185 28.0258 3.84256
35.4409 29.7111 3.77613
34.3701 31.9418 3.57216
33.8068 33.5103 3.37469
30.351 19.6782 3.98304
30.9517 16.8914 2
31.9456 14.5283 0.0143578
40.1632 26.3079 0.0381535
37.9958 23.5828 0.00451492
33.5752 17.484 0.00922544
35.5099 20.4608 0.00487444
33.0034 20.0483 2
35.3518 23.2026 2
37.7385 25.9547 2
32.6512 22.793 4.00477
35.257 25.8406 3.98245
34.6913 37.5212 3.48612
36.0405 37.5057 2
37.5268 37.4834 0.536766
37.6702 50.3131 0.0103652
36.9413 47.5653 0.129591
36.0908 39.0237 0.613192
35.3857 45.3388 0.210628
34.3888 43.0695 0.432705
34.7868 40.4448 0.58213
33.807 41.5069 0.625229
35.5734 49.5221 2
34.6654 39.0116 2
33.4065 40.5192 2
34.6354 46.8144 2
33.4654 42.2841 2
33.7289 44.6541 2
33.64 48.6389 3.97012
33.133 39.1166 3.31351
32.8391 40.9858 3.57354
32.4435 43.3801 3.78698
33.0157 45.7372 3.84526
34.5286 52.0936 -8.47295e-05
32.4485 50.8743 2
30.6163 49.3782 4.0029
30.8912 53.2079 0.00462535
29.0085 51.2185 2
27.3528 49.5951 3.97983
27.38 53.2033 0.0465345
25.794 51.4009 2
24.2602 49.7985 3.96953
24.1666 53.187 0.0466547
22.7743 51.4525 2
21.4723 49.9244 3.96764
18.8056 50.0089 3.97362
18.5886 52.4832 3.96683
20.0892 51.2809 2
17.9644 55.0935 3.96243
19.5325 54.0257 2
21.1793 52.9049 0.0414596
17.3933 57.7068 3.95825
18.811 56.5139 2
20.364 55.5916 0.0397588
17.2036 60.4572 3.95005
18.4978 58.9765 2
19.6629 57.7128 0.0386453
17.4133 63.4155 3.97295
18.6537 61.6789 2
19.7737 60.0812 0.0255131
17.9486 66.6082 3.97236
19.1395 64.6082 2
20.2529 62.7351 0.0282795
18.75 69.9759 4
19.8872 67.8033 2
20.9516 65.726 0.0333636
21.918 68.8686 0.017591
20.9142 71.1327 2
23.1494 72.1454 0
21.6241 13.7376 3.96815
22.2034 11.0901 3.9651
23.1199 12.908 2
23.0421 8.19576 3.97186
23.9753 10.2197 2
24.1198 5.14532 3.98712
25.0201 7.32588 2
25.8614 9.41509 0.0278562
25.446 1.99014 4
26.2773 4.33215 2
27.0703 6.55217 0.0227639
27.7943 1.27778 2
28.49 3.64571 0.0109522
30.1841 0.720592 0
34.7724 36.0217 3.44032
36.0453 35.9842 2
37.5171 35.978 0.569261
21.4166 15.9899 3.96191
24.7996 12.1073 0.0322271
23.8004 14.5182 0.0203963
25.3869 14.0232 2
22.5538 15.1816 2
24.1196 15.784 2
23.4037 16.3927 3.96743
25.4672 16.2784 3.98963
27.3064 13.4534 0.0247241
29.82 14.2313 0.00181936
28.4183 16.0419 2
27.5999 19.0884 3.98985
33.4309 34.5089 3.35716
34.7234 34.577 2
36.0023 34.475 0.59786
34.6618 33.2419 0.701028
35.6446 31.2872 0.428805
37.4642 29.4061 0.222845
39.7638 28.317 0.152249
37.5707 27.9943 2
33.7714 33.4882 2
35.4306 29.6448 2
34.3087 31.8546 2
35.3222 28.1184 3.86133
33.7498 30.3981 3.78662
33.5079 32.82 3.61001
29.9846 22.2937 4.00927
30.3337 19.6888 2
30.9891 16.8892 0.00318198
37.7638 25.9843 0.0448756
35.4011 23.218 -0.00807284
33.0072 20.0288 0.00212496
32.6439 22.7553 2
35.2678 25.8318 2
32.3115 26.1169 4.01609
32.9744 37.5115 3.36503
34.6807 37.5133 2
36.0481 37.4827 0.629136
35.587 49.5114 0.0189524
34.6932 46.7391 0.150653
34.6928 38.9998 0.533547
33.7755 44.6014 0.220464
33.5206 42.1869 0.395097
33.4288 40.5145 0.662772
33.601 48.6294 2
33.1235 39.1228 2
32.7796 41.0533 2
33.0016 45.8037 2
32.3964 43.4082 2
31.9887 47.4325 3.98517
32.2448 39.4151 3.57501
31.5127 41.698 3.81212
31.5643 44.4119 3.84744
32.433 50.877 -0.00445624
30.6289 49.3985 2
28.8944 47.7964 3.97194
29.0032 51.2295 0.0158526
27.3583 49.5941 2
25.7439 48.036 3.97595
25.7865 51.4019 0.0455626
24.262 49.7967 2
22.7974 48.3555 3.97262
22.7724 51.4548 0.0447079
21.472 49.9222 2
19.9765 48.7384 3.97519
17.6785 49.0458 3.97617
17.4787 51.125 3.9725
18.8069 50.0073 2
16.9847 53.6168 3.96795
18.5874 52.4826 2
20.0945 51.2813 0.0344906
16.3671 56.2815 3.96201
17.9599 55.095 2
19.5382 54.0245 0.0387551
15.8552 59.1053 3.95468
17.3965 57.7078 2
18.8094 56.5129 0.0388772
15.7971 62.0697 3.96967
17.199 60.4594 2
18.503 58.9714 0.0455699
16.095 65.2987 3.97936
17.4121 63.4247 2
18.6547 61.6845 0.0225625
16.6661 68.6801 4
17.9441 66.6042 2
19.1463 64.6115 0.0335387
18.75 69.9759 2
19.8914 67.8083 0.0189002
20.9142 71.1327 0
20.2772 14.738 3.96522
21.6307 13.7401 2
20.552 12.1054 3.97098
21.1469 9.17533 3.97256
22.1953 11.1035 2
23.1201 12.9181 0.0257205
22.0204 6.08546 3.98551
23.0384 8.20029 2
23.9791 10.1929 0.0284437
23.1494 2.85457 4
24.1146 5.14904 2
25.0239 7.32456 0.0260317
25.446 1.99012 2
26.282 4.33058 0.0121931
27.7943 1.27781 0
33.1112 35.9177 3.36141
34.7114 36.022 2
36.0095 35.978 0.615618
21.4265 15.9871 2
20.4957 17.1648 3.96168
22.2482 16.7976 3.96251
25.3881 14.0575 0.0230525
22.5526 15.1869 0.0148931
24.1193 15.7723 -0.0142863
25.4643 16.276 2
23.4078 16.4002 2
24.3932 18.7389 3.98253
27.4363 21.8867 3.99171
28.4348 15.9911 0.0107453
27.5859 19.0874 2
32.8434 34.0173 3.57054
33.4067 34.5064 2
34.812 34.5672 0.5959
33.8068 33.5103 0.62531
34.3701 31.9418 0.427843
35.4409 29.7111 0.223871
37.6185 28.0258 0.157444
35.3035 28.0686 2
33.4646 32.7318 2
33.7041 30.3372 2
33.2183 28.751 3.87253
32.4467 31.6187 3.78356
29.4787 24.7694 4.01597
29.9717 22.2706 2
30.351 19.6782 0.0169602
35.257 25.8406 0.0175488
32.6512 22.793 -0.00476695
32.2956 26.0779 2
30.5845 27.7889 3.99071
31.9863 37.4945 3.56004
32.9567 37.512 2
34.6913 37.5212 0.513879
33.64 48.6389 0.0298813
33.0157 45.7372 0.154739
33.133 39.1166 0.686492
32.4435 43.3801 0.213021
32.8391 40.9858 0.426462
31.9452 47.4618 2
32.1478 39.4217 2
31.4443 41.7608 2
31.4949 44.4708 2
30.3575 46.0511 3.97915
30.7703 39.7073 3.81823
30.2046 42.7539 3.86977
30.6163 49.3782 -0.00289847
28.8992 47.8014 2
27.2131 46.2141 3.98503
27.3528 49.5951 0.0201651
25.7493 48.0347 2
24.1084 46.6168 3.9761
24.2602 49.7985 0.030467
22.7977 48.3543 2
21.0628 47.2444 3.97544
21.4723 49.9244 0.0323644
19.9757 48.7376 2
18.5757 47.8709 3.97591
16.9233 48.4178 3.97579
17.6782 49.0459 2
16.5259 49.9156 3.97498
15.9514 52.1825 3.97272
17.4804 51.1238 2
18.8056 50.0089 0.0263804
15.3022 54.7838 3.96708
16.9853 53.6164 2
18.5886 52.4832 0.0331718
14.6556 57.6218 3.96044
16.3652 56.2827 2
17.9644 55.0935 0.0375742
14.2809 60.6491 3.96456
15.8563 59.107 2
17.3933 57.7068 0.0417545
14.3386 63.852 3.96806
15.8011 62.071 2
17.2036 60.4572 0.0499466
14.6715 67.2507 4
16.09 65.2923 2
17.4133 63.4155 0.0270519
16.6661 68.6801 2
17.9486 66.6082 0.0276404
18.75 69.9759 0
19.0401 15.9407 3.95691
20.2856 14.7282 2
19.0099 13.2304 3.9673
21.6241 13.7376 0.0318459
20.5449 12.1095 2
19.3522 10.2761 3.97019
19.9951 7.14831 3.98328
21.142 9.16912 2
22.2034 11.0901 0.034896
20.9142 3.86727 4
22.0131 6.08764 2
23.0421 8.19576 0.0281429
23.1494 2.85451 2
24.1198 5.14532 0.0128825
25.446 1.99014 0
32.2623 35.5839 3.56114
33.0964 35.9115 2
34.7724 36.0217 0.55968
21.4166 15.9899 0.0380866
22.2587 16.7978 2
20.5067 17.162 2
19.5648 18.6507 3.96695
21.9699 18.142 3.98457
25.4672 16.2784 0.0103656
23.4037 16.3927 0.0325655
24.3983 18.7459 2
22.6866 20.1906 3.97066
25.0434 21.7238 3.99056
27.1241 24.0402 3.97954
27.446 21.7904 2
27.5999 19.0884 0.0101512
31.5246 33.31 3.81048
32.7868 33.9642 2
33.4309 34.5089 0.642837
33.5079 32.82 0.389995
33.7498 30.3981 0.213385
35.3222 28.1184 0.13867
33.1755 28.706 2
32.3713 31.5574 2
31.2628 30.1064 3.88987
28.8812 26.9618 4.01408
29.4682 24.7695 2
29.9846 22.2937 -0.00926608
32.3115 26.1169 -0.016085
30.5797 27.7764 2
30.4738 37.4827 3.82151
31.8829 37.4933 2
32.9744 37.5115 0.634971
31.9887 47.4325 0.0148322
31.5643 44.4119 0.152556
32.2448 39.4151 0.424993
31.5127 41.698 0.18788
30.3709 46.0662 2
30.6674 39.7158 2
30.1734 42.7875 2
28.7294 44.42 3.95982
28.5186 40.3744 3.91524
28.8944 47.7964 0.0280649
27.2156 46.2128 2
25.4637 44.7552 3.97981
25.7439 48.036 0.0240481
24.1092 46.616 2
22.1593 45.5657 3.97676
22.7974 48.3555 0.0273806
21.064 47.2443 2
19.3626 46.4364 3.97537
19.9765 48.7384 0.024808
18.5765 47.8714 2
17.191 47.4507 3.97521
16.9249 48.4185 2
15.8985 48.7751 3.97506
17.6785 49.0458 0.0238279
16.5276 49.915 2
15.0511 50.7712 3.97443
14.2509 53.2596 3.9716
15.9518 52.1822 2
17.4787 51.125 0.027504
13.5127 56.0469 3.96225
15.3022 54.7841 2
16.9847 53.6168 0.0320487
12.895 59.0867 3.95133
14.6562 57.6231 2
16.3671 56.2815 0.0379887
12.6865 62.2923 3.96463
14.2827 60.6514 2
15.8552 59.1053 0.04532
12.7746 65.6939 4
14.3352 63.8441 2
15.7971 62.0697 0.030329
14.6714 67.2507 2
16.095 65.2987 0.0206373
16.6661 68.6801 0
17.9084 17.3452 3.95888
19.0563 15.9334 2
17.5552 14.4792 3.96053
20.2772 14.738 0.0347815
19.0048 13.218 2
17.6566 11.5302 3.96985
20.552 12.1054 0.0290166
19.3464 10.294 2
18.0548 8.34256 3.97988
18.75 5.0241 4
19.9881 7.15669 2
21.1469 9.17533 0.027441
20.9142 3.86727 2
22.0204 6.08546 0.0144884
23.1494 2.85457 0
30.7732 35.3076 3.81244
32.1607 35.5703 2
33.1112 35.9177 0.638588
22.2482 16.7976 0.0374898
20.4957 17.1648 0.0383192
21.9825 18.1305 2
19.5649 18.646 2
18.4877 20.2188 3.96835
21.2493 19.6661 3.97454
24.3932 18.7389 0.0174655
22.6949 20.1871 2
25.0624 21.6845 2
22.9604 22.0654 3.97591
25.4481 23.364 3.97823
26.5176 26.3333 3.98375
27.1254 24.0439 2
27.4363 21.8867 0.00828782
29.9545 32.7007 3.86836
31.4484 33.2586 2
32.8434 34.0173 0.429456
32.4467 31.6187 0.216435
33.2183 28.751 0.127474
31.2418 30.0722 2
28.3486 29.5756 4.00594
28.8675 26.9743 2
29.4787 24.7694 -0.015971
30.5845 27.7889 0.00928942
28.7855 37.4232 3.84595
30.3655 37.4948 2
31.9863 37.4945 0.439958
30.3575 46.0511 0.0208497
30.2046 42.7539 0.130235
30.7703 39.7073 0.181773
28.7344 44.479 2
28.4718 40.395 2
26.8979 42.92 3.98112
25.8522 39.3809 3.97765
27.2131 46.2141 0.014974
25.4553 44.7645 2
23.4193 43.6136 3.97501
24.1084 46.6168 0.0238983
22.1574 45.5667 2
20.2018 44.6856 3.97486
21.0628 47.2444 0.0245562
19.3625 46.4374 2
17.5775 45.9605 3.97512
18.5757 47.8709 0.0240909
17.1916 47.4512 2
15.6821 47.45 3.97514
16.9233 48.4178 0.0242113
15.9004 48.7752 2
14.374 49.3474 3.97469
16.5259 49.9156 0.0250184
15.0521 50.7706 2
13.3177 51.7145 3.97423
12.4048 54.4174 3.96542
14.2509 53.2597 2
15.9514 52.1825 0.0272766
11.6343 57.4129 3.95673
13.5138 56.047 2
15.3022 54.7838 0.0329213
11.141 60.6209 3.96506
12.8895 59.0884 2
14.6556 57.6218 0.0395565
10.9835 64.0165 4
12.6842 62.2843 2
14.2809 60.6491 0.0354366
12.7745 65.694 2
14.3386 63.852 0.031937
14.6715 67.2507 0
16.7632 18.8621 3.96188
17.9133 17.3403 2
16.211 15.8995 3.95527
19.0401 15.9407 0.0430948
17.5603 14.477 2
16.0322 12.876 3.96297
19.0099 13.2304 0.0327032
17.6482 11.5312 2
16.2074 9.67072 3.97178
19.3522 10.2761 0.0298116
18.0487 8.35032 2
16.6661 6.31991 4
18.75 5.02404 2
19.9951 7.14831 0.0167247
20.9142 3.86727 0
29.1705 34.9412 3.88158
30.6497 35.2757 2
32.2623 35.5839 0.438864
17.228 21.6448 3.97128
21.9699 18.142 0.0154298
19.5648 18.6507 0.0330493
21.2542 19.6623 2
18.479 20.212 2
20.385 21.915 3.97375
22.6866 20.1906 0.0293387
25.0434 21.7238 0.00943883
22.9634 22.0621 2
25.4332 23.4123 2
23.8277 24.9874 3.97102
25.922 28.9474 3.98409
26.5085 26.3512 2
27.1241 24.0402 0.0204579
27.8314 32.0554 3.97533
29.9045 32.6799 2
31.5246 33.31 0.189517
31.2628 30.1064 0.110134
28.3603 29.5348 2
28.8812 26.9618 -0.0140756
26.5796 36.8914 3.95545
28.7371 37.3939 2
30.4738 37.4827 0.17849
28.7294 44.42 0.0401756
28.5186 40.3744 0.0847611
26.8721 42.953 2
25.8033 39.368 2
24.6774 41.6108 3.97699
23.5445 38.5177 3.97591
25.4637 44.7552 0.0201922
23.4163 43.62 2
21.1157 42.6596 3.97454
22.1593 45.5657 0.0232432
20.2028 44.6868 2
18.0069 44.1591 3.97508
19.3626 46.4364 0.0246345
17.5776 45.9614 2
15.6544 45.8902 3.97514
17.191 47.4507 0.0247906
15.6824 47.4504 2
13.9137 47.8306 3.97492
15.8985 48.7751 0.0249429
14.3751 49.3472 2
12.5579 50.1031 3.97465
15.0511 50.7712 0.0255697
13.3184 51.7143 2
11.3986 52.739 3.96794
10.4356 55.6688 3.95967
12.4033 54.4177 2
14.2509 53.2596 0.0283969
9.70741 58.8459 3.96821
11.6395 57.4125 2
13.5127 56.0469 0.0377544
9.30605 62.2254 4
11.1396 60.6134 2
12.895 59.0867 0.0486748
10.9835 64.0165 2
12.6865 62.2923 0.035371
12.7746 65.6939 0
15.5575 20.3929 3.96701
16.7754 18.8603 2
14.9538 17.4379 3.95775
17.9084 17.3452 0.0411173
16.2045 15.8915 2
14.4954 14.3483 3.96295
17.5552 14.4792 0.0394688
16.036 12.8715 2
14.4515 11.1215 3.97123
17.6566 11.5302 0.0301473
16.2017 9.68043 2
14.6715 7.74927 4
18.0548 8.34256 0.0201201
16.6661 6.31988 2
18.75 5.0241 0
27.126 34.4566 3.97496
29.1339 34.9513 2
30.7732 35.3076 0.187564
18.5324 22.6411 3.97437
16.1245 23.1798 3.97286
17.2263 21.6405 2
21.2493 19.6661 0.0254576
18.4877 20.2188 0.0316506
20.39 21.9133 2
20.5612 24.7717 3.972
22.9604 22.0654 0.024091
25.4481 23.364 0.0217709
23.8247 24.9822 2
23.2976 28.2787 3.97104
25.4061 31.5493 3.98314
25.9339 28.8829 2
26.5176 26.3333 0.0162476
27.7968 32.0275 2
29.9545 32.7007 0.131638
28.3486 29.5756 -0.00593807
24.2783 36.3473 3.97869
26.5328 36.8909 2
28.7855 37.4232 0.154048
26.8979 42.92 0.0188843
25.8522 39.3809 0.0223504
24.6451 41.6194 2
23.5399 38.5184 2
22.296 40.5035 3.9754
21.5847 37.7912 3.97818
23.4193 43.6136 0.024987
21.116 42.6582 2
18.5022 41.9445 3.97572
20.2018 44.6856 0.0251396
18.0067 44.1593 2
15.7038 44.0328 3.97521
17.5775 45.9605 0.0248753
15.6538 45.8905 2
13.6124 46.1416 3.97513
15.6821 47.45 0.0248612
13.9138 47.8306 2
11.9492 48.4154 3.9748
14.374 49.3474 0.0253109
12.559 50.1027 2
10.5327 50.9923 3.97068
13.3177 51.7145 0.0257726
11.3993 52.7384 2
9.33722 53.854 3.96167
8.39119 56.9814 3.96917
10.438 55.6679 2
12.4048 54.4174 0.0345839
7.74927 60.3285 4
9.70647 58.8405 2
11.6343 57.4129 0.0432672
9.306 62.2255 2
11.141 60.6209 0.0349445
10.9835 64.0165 0
14.3892 21.9441 3.97175
15.5599 20.3894 2
13.6903 19.0296 3.96218
16.7632 18.8621 0.0381208
14.9525 17.4323 2
13.0506 15.9265 3.9564
16.211 15.8995 0.0447277
14.505 14.3409 2
12.7882 12.6956 3.96653
16.0322 12.876 0.0370316
14.4468 11.1331 2
12.7746 9.30605 4
16.2074 9.67072 0.0282237
14.6715 7.74924 2
16.6661 6.31991 0
24.7999 33.9642 3.98104
27.0987 34.4202 2
29.1705 34.9412 0.118419
18.4204 24.3816 3.97257
18.5412 22.6403 2
14.9368 24.6743 3.974
16.1242 23.176 2
17.228 21.6448 0.028722
20.1305 27.5616 3.97296
20.385 21.915 0.0262522
20.5655 24.7709 2
22.6773 30.9907 3.97383
23.8277 24.9874 0.02898
23.2909 28.2872 2
25.355 31.6059 2
25.922 28.9474 0.0159083
27.8314 32.0554 0.0246689
21.6697 35.9999 3.9779
24.278 36.3575 2
26.5796 36.8914 0.0445465
24.6774 41.6108 0.0230075
23.5445 38.5177 0.0240935
22.3003 40.5046 2
21.5862 37.7891 2
19.2957 38.9615 3.97713
21.1157 42.6596 0.0254623
18.5022 41.9445 2
15.6911 41.8131 3.97588
18.0069 44.1591 0.0249186
15.7029 44.0329 2
13.3704 44.2695 3.9753
15.6544 45.8902 0.0248552
13.6117 46.1418 2
11.4636 46.6197 3.97561
13.9137 47.8306 0.025078
11.9505 48.4149 2
9.79871 49.1618 3.97386
12.5579 50.1031 0.0253476
10.5338 50.9915 2
8.36128 51.9732 3.96348
11.3986 52.739 0.0320635
9.33541 53.8533 2
7.19966 55.0336 3.97019
6.31991 58.3339 4
8.39002 56.9766 2
10.4356 55.6688 0.0403318
7.74924 60.3285 2
9.70741 58.8459 0.0317883
9.30605 62.2254 0
13.7751 25.555 3.97588
13.2788 23.4568 3.97425
14.3896 21.9408 2
12.5054 20.67 3.96521
15.5575 20.3929 0.0329911
13.6813 19.0235 2
11.7338 17.6093 3.95568
14.9538 17.4379 0.0422456
13.0628 15.9241 2
11.2268 14.3824 3.96436
14.4954 14.3483 0.0370479
12.7876 12.7065 2
10.9835 10.9835 4
14.4515 11.1215 0.0287669
12.7745 9.306 2
14.6715 7.74927 0
22.0462 33.6004 3.97679
24.7955 33.9196 2
27.126 34.4566 0.0250434
16.7309 26.6635 3.97395
18.4231 24.3804 2
18.5324 22.6411 0.025635
14.9332 24.673 2
16.1245 23.1798 0.0271439
19.5239 30.4427 3.97477
20.1305 27.5584 2
20.5612 24.7717 0.0280041
22.6921 30.9803 2
23.2976 28.2787 0.028963
25.4061 31.5493 0.016864
18.8651 36.0334 3.97748
21.6761 35.9995 2
24.2783 36.3473 0.021314
22.296 40.5035 0.0245958
21.5847 37.7912 0.0218219
19.2945 38.96 2
15.1717 39.143 3.97688
18.5022 41.9445 0.0242802
15.6908 41.8131 2
13.0572 42.1969 3.97587
15.7038 44.0328 0.0247859
13.3695 44.2695 2
11.0444 44.7154 3.97587
13.6124 46.1416 0.0248661
11.4646 46.6193 2
9.18408 47.2518 3.97545
11.9492 48.4154 0.0252039
9.80058 49.1608 2
7.51939 50.0117 3.96438
10.5327 50.9923 0.0293177
8.35927 51.9723 2
6.13975 53.0088 3.9706
9.33722 53.854 0.0383342
7.19919 55.0293 2
5.0241 56.25 4
6.31988 58.3339 2
8.39119 56.9814 0.0308265
7.74927 60.3285 0
14.0831 26.9993 3.97478
12.3793 24.9405 3.97484
13.7725 25.5535 2
11.4272 22.3437 3.96873
13.2778 23.4541 2
14.3892 21.9441 0.0282478
12.5004 20.6657 2
10.5103 19.3676 3.95871
13.6903 19.0296 0.0378194
11.7498 17.6088 2
9.76729 16.163 3.9678
13.0506 15.9265 0.0435999
11.2266 14.3891 2
9.30607 12.7746 4
12.7882 12.6956 0.0334725
10.9835 10.9835 2
12.7746 9.30605 0
19.0251 33.2599 3.97576
22.04 33.6088 2
24.7999 33.9642 0.0189581
16.3596 29.8463 3.97502
16.7288 26.6645 2
18.4204 24.3816 0.0274268
14.9368 24.6743 0.0259955
19.5187 30.444 2
20.1305 27.5616 0.0270367
22.6773 30.9907 0.0261737
15.8244 36.0628 3.97707
18.8659 36.0336 2
21.6697 35.9999 0.0220974
13.2951 37.8307 3.97703
19.2957 38.9615 0.0228722
15.1712 39.1431 2
12.5428 40.1008 3.97641
15.6911 41.8131 0.0241245
13.0561 42.1967 2
10.6349 42.7189 3.97588
13.3704 44.2695 0.0247
11.0451 44.7153 2
8.66122 45.2665 3.9765
11.4636 46.6197 0.0243853
9.18671 47.2507 2
6.8001 47.9818 3.96494
9.79871 49.1618 0.0261436
7.51724 50.0109 2
5.2159 50.9117 3.97077
8.36128 51.9732 0.0365221
6.13972 53.0056 2
3.86727 54.0858 4
7.19966 55.0336 0.0298129
5.02404 56.25 2
6.31991 58.3339 0
13.556 29.1799 3.97428
11.8276 26.6173 3.97486
14.0819 26.9995 2
10.4638 24.0584 3.97308
12.3802 24.9395 2
13.7751 25.555 0.0241172
9.35834 21.179 3.96195
11.426 22.3414 2
13.2788 23.4568 0.0257481
12.5054 20.67 0.0347876
10.5208 19.3678 2
8.42337 18.0312 3.96922
11.7338 17.6093 0.0443166
9.76715 16.1679 2
7.74928 14.6715 4
11.2268 14.3824 0.0356394
9.30602 12.7745 2
10.9835 10.9835 0
15.3309 32.9703 3.97629
19.0256 33.2608 2
22.0462 33.6004 0.0232148
16.3602 29.8462 2
16.7309 26.6635 0.0260542
19.5239 30.4427 0.0252283
13.6078 36.2364 3.97666
15.8249 36.0625 2
18.8651 36.0334 0.022518
13.2942 37.8306 2
11.8481 38.3032 3.97647
15.1717 39.143 0.023124
12.5418 40.1011 2
10.201 40.7204 3.97635
13.0572 42.1969 0.0241264
10.6356 42.7184 2
8.20422 43.2302 3.97646
11.0444 44.7154 0.0241263
8.66461 45.2655 2
6.19429 45.8919 3.96601
9.18408 47.2518 0.024552
6.79835 47.9811 2
4.42668 48.7519 3.97125
7.51939 50.0117 0.0356154
5.21619 50.9094 2
2.85457 51.8506 4
6.13975 53.0088 0.0293976
3.86727 54.0858 2
5.0241 56.25 0
12.6722 31.3536 3.9756
11.2339 28.5229 3.9751
13.556 29.1797 2
9.67187 25.8752 3.97454
11.8278 26.6175 2
14.0831 26.9993 0.0252249
8.3229 23.0539 3.96386
10.4657 24.0574 2
12.3793 24.9405 0.0251617
7.20531 19.9788 3.97031
9.3643 21.1797 2
11.4272 22.3437 0.0312675
10.5103 19.3676 0.0412897
8.42299 18.0353 2
6.31992 16.6661 4
9.76729 16.163 0.0322034
7.74926 14.6714 2
9.30607 12.7746 0
12.716 34.3533 3.97662
15.3305 32.9706 2
19.0251 33.2599 0.0242388
16.3596 29.8463 0.0249805
11.3674 36.6298 3.97645
13.6073 36.2365 2
15.8244 36.0628 0.0229265
13.2951 37.8307 0.0229685
11.8471 38.3032 2
9.76979 38.8133 3.97665
12.5428 40.1008 0.023593
10.2013 40.7202 2
7.80316 41.1886 3.97637
10.6349 42.7189 0.0241214
8.20644 43.2288 2
5.69148 43.7599 3.96702
8.66122 45.2665 0.0234986
6.19128 45.8914 2
3.77177 46.5372 3.97176
6.8001 47.9818 0.0350641
4.4273 48.7501 2
1.99014 49.554 4
5.2159 50.9117 0.0292311
2.85451 51.8506 2
3.86727 54.0858 0
11.4455 32.9872 3.97639
10.5283 30.4603 3.97567
12.671 31.3538 2
8.97446 27.796 3.97517
11.2343 28.5229 2
13.556 29.1799 0.0257245
7.43422 25.0062 3.96445
9.67351 25.8748 2
11.8276 26.6173 0.0251447
6.12175 22.0013 3.97081
8.32392 23.0545 2
10.4638 24.0584 0.0269228
5.02411 18.75 4
7.20525 19.9821 2
9.35834 21.179 0.0380483
8.42337 18.0312 0.030782
6.3199 16.6661 2
7.74928 14.6715 0
10.939 35.0344 3.9762
12.715 34.3531 2
15.3309 32.9703 0.0237113
9.41652 36.9935 3.97678
11.3663 36.63 2
13.6078 36.2364 0.023336
11.8481 38.3032 0.0235317
9.77046 38.8133 2
7.46589 39.1742 3.97664
10.201 40.7204 0.0236461
7.80644 41.1879 2
5.297 41.6097 3.96748
8.20422 43.2302 0.0235443
5.68947 43.7595 2
3.24918 44.2819 3.97273
6.19429 45.8919 0.0339909
3.77265 46.5358 2
1.27781 47.2057 4
4.42668 48.7519 0.0287479
1.99012 49.554 2
2.85457 51.8506 0
10.5552 33.926 3.97608
9.78561 32.2094 3.97643
11.4448 32.9873 2
8.30835 29.7454 3.9757
10.5288 30.4607 2
12.6722 31.3536 0.0244049
6.66213 27.0265 3.96491
8.97687 27.7962 2
11.2339 28.5229 0.0249005
5.17625 24.0944 3.97108
7.43258 25.0065 2
9.67187 25.8752 0.0254634
3.86728 20.9142 4
6.12203 22.0037 2
8.3229 23.0539 0.0361408
5.02406 18.75 2
7.20531 19.9788 0.0296905
6.31992 16.6661 0
9.22217 35.3041 3.97701
10.9383 35.0342 2
12.716 34.3533 0.0233793
7.23227 37.2101 3.97674
9.4176 36.9936 2
11.3674 36.6298 0.0235518
9.76979 38.8133 0.0233495
7.46902 39.174 2
5.01913 39.4667 3.96744
7.80316 41.1886 0.0236285
5.29504 41.6094 2
2.85937 42.0023 3.97334
5.69148 43.7599 0.0329788
3.24988 44.2808 2
0.720592 44.8159 4
3.77177 46.5372 0.0282355
1.27778 47.2057 2
1.99014 49.554 0
9.25612 33.7353 3.97707
10.555 33.9259 2
7.73278 31.6457 3.97635
9.78742 32.2095 2
11.4455 32.9872 0.0236091
5.99496 29.0833 3.96515
8.31121 29.7459 2
10.5283 30.4603 0.0243306
4.36314 26.2478 3.97133
6.65946 27.0268 2
8.97446 27.796 0.0248274
2.85458 23.1494 4
5.17685 24.0959 2
7.43422 25.0062 0.0355513
3.86728 20.9142 2
6.12175 22.0013 0.029192
5.02411 18.75 0
7.17241 35.3207 3.9768
9.22392 35.3041 2
10.939 35.0344 0.0237959
4.8632 37.3423 3.9671
7.23512 37.2102 2
9.41652 36.9935 0.0232214
7.46589 39.1742 0.0233563
5.01678 39.4665 2
2.60718 39.7142 3.97375
5.297 41.6097 0.0325243
2.86037 42.0017 2
0.320823 42.3947 4
3.24918 44.2819 0.02727
0.720551 44.8159 2
1.27781 47.2057 0
7.33409 33.4858 3.97681
9.25812 33.7356 2
10.5552 33.926 0.0239232
5.45356 31.1438 3.96556
7.73555 31.6462 2
9.78561 32.2094 0.0235704
3.68427 28.4446 3.97193
5.99134 29.0836 2
8.30835 29.7454 0.0243012
1.99015 25.446 4
4.3639 26.2489 2
6.66213 27.0265 0.0350948
2.85453 23.1494 2
5.17625 24.0944 0.0289195
3.86728 20.9142 0
4.8756 35.2566 3.96649
7.17442 35.3211 2
9.22217 35.3041 0.0229852
2.49863 37.4292 3.97441
4.85957 37.3422 2
7.23227 37.2101 0.023263
5.01913 39.4667 0.0325599
2.60833 39.7142 2
0.080333 39.9526 4
2.85937 42.0023 0.0266557
0.320817 42.3947 2
0.720592 44.8159 0
5.07349 33.1976 3.96601
7.33607 33.4862 2
9.25612 33.7353 0.0229348
3.14829 30.6677 3.97273
5.44894 31.144 2
7.73278 31.6457 0.0236477
1.27793 27.7943 4
3.68527 28.4455 2
5.99496 29.0833 0.034854
1.99013 25.446 2
4.36314 26.2478 0.0286697
2.85458 23.1494 0
2.55061 35.1602 3.97416
4.87244 35.2568 2
7.17241 35.3207 0.0232018
0 37.5 4
2.49942 37.4294 2
4.8632 37.3423 0.0329
2.60718 39.7142 0.0262513
0.0802903 39.9526 2
0.320823 42.3947 0
2.76833 32.9072 3.97381
5.07015 33.1979 2
7.33409 33.4858 0.0231889
0.721173 30.1842 4
3.1495 30.6686 2
5.45356 31.1438 0.0344353
1.27779 27.7943 2
3.68427 28.4446 0.0280724
1.99015 25.446 0
0.0806499 35.0474 4
2.55198 35.1605 2
4.8756 35.2566 0.0335137
0 37.5 2
2.49863 37.4292 0.0255887
0.080333 39.9526 0
0.32156 32.6054 4
2.76918 32.908 2
5.07349 33.1976 0.033987
0.72056 30.1841 2
3.14829 30.6677 0.0272714
1.27793 27.7943 0
0.0802889 35.0474 2
2.55061 35.1602 0.0258439
0 37.5 0
0.320817 32.6053 2
2.76833 32.9072 0.0261939
0.721173 30.1842 0
0.0806499 35.0474 0
0.32156 32.6054 0
CELLS 1910 17190
8 18 6 25 56 2 0 5 16
8 57 23 6 18 17 4 0 2
8 78 36 9 29 31 11 1 7
8 31 11 1 7 79 37 10 30
8 110 57 18 50 48 17 2 14
8 50 18 56 111 14 2 16 49
8 116 62 22 55 52 20 3 15
8 56 25 67 118 16 5 24 53
8 119 63 23 57 54 21 4 17
8 55 22 63 119 15 3 21 54
8 58 26 68 121 18 6 25 56
8 122 65 26 58 57 23 6 18
8 73 31 7 27 142 79 30 71
8 143 78 29 72 73 31 7 27
8 83 147 76 34 32 74 28 8
8 84 148 78 36 33 75 29 9
8 76 34 8 28 148 84 33 75
8 37 79 150 86 10 30 77 35
8 151 87 36 78 80 38 11 31
8 80 38 11 31 152 88 37 79
8 175 100 42 94 96 44 12 40
8 44 96 176 101 12 40 95 43
8 101 176 98 46 43 95 41 13
8 46 98 178 103 13 41 97 45
8 178 103 45 97 147 83 32 74
8 189 116 55 109 106 52 15 47
8 111 56 118 191 49 16 53 107
8 192 119 57 110 108 54 17 48
8 109 55 119 192 47 15 54 108
8 194 122 58 112 110 57 18 50
8 112 58 121 195 50 18 56 111
8 115 61 19 51 197 124 59 113
8 115 61 125 198 51 19 60 114
8 198 125 62 116 114 60 20 52
8 200 127 64 120 116 62 22 55
8 118 67 132 202 53 24 66 117
8 121 68 133 203 56 25 67 118
8 120 64 128 204 55 22 63 119
8 204 128 65 122 119 63 23 57
8 206 134 68 121 123 69 26 58
8 123 69 26 58 207 131 65 122
8 226 147 74 138 140 76 28 70
8 229 148 75 139 143 78 29 72
8 140 76 28 70 229 148 75 139
8 142 79 30 71 231 150 77 141
8 144 80 31 73 232 152 79 142
8 233 151 78 143 144 80 31 73
8 150 86 35 77 235 154 81 145
8 235 154 81 145 146 82 39 91
8 146 82 39 91 236 155 90 165
8 238 157 83 147 149 85 34 76
8 239 158 84 148 151 87 36 78
8 149 85 34 76 239 158 84 148
8 152 88 37 79 241 160 86 150
8 242 161 87 151 153 89 38 80
8 153 89 38 80 243 162 88 152
8 171 98 41 92 265 178 97 169
8 265 178 97 169 226 147 74 138
8 172 96 40 93 266 176 95 170
8 266 176 95 170 171 98 41 92
8 269 175 94 173 172 96 40 93
8 271 180 99 174 175 100 42 94
8 197 124 59 113 271 180 99 174
8 272 181 100 175 177 102 44 96
8 273 182 101 176 179 104 46 98
8 177 102 44 96 273 182 101 176
8 179 104 46 98 275 184 103 178
8 275 184 103 178 238 157 83 147
8 188 115 51 105 283 197 113 186
8 188 115 198 284 105 51 114 187
8 284 198 116 189 187 114 52 106
8 286 200 120 193 189 116 55 109
8 191 118 202 288 107 53 117 190
8 195 121 203 289 111 56 118 191
8 193 120 204 290 109 55 119 192
8 290 204 122 194 192 119 57 110
8 196 123 58 112 292 207 122 194
8 293 206 121 195 196 123 58 112
8 199 126 61 115 297 211 124 197
8 298 212 127 200 198 125 62 116
8 199 126 212 298 115 61 125 198
8 205 129 64 120 300 214 127 200
8 301 217 130 201 202 132 66 117
8 209 136 168 264 301 217 130 201
8 302 219 132 202 203 133 67 118
8 303 220 133 203 206 134 68 121
8 205 129 215 304 120 64 128 204
8 304 215 131 207 204 128 65 122
8 306 221 134 206 208 135 69 123
8 208 135 69 123 307 218 131 207
8 210 137 167 263 309 223 136 209
8 328 238 147 226 230 149 76 140
8 228 146 91 166 329 236 165 260
8 231 150 77 141 330 235 145 227
8 330 235 145 227 228 146 91 166
8 332 239 148 229 233 151 78 143
8 230 149 76 140 332 239 148 229
8 232 152 79 142 334 241 150 231
8 234 153 80 144 335 243 152 232
8 336 242 151 233 234 153 80 144
8 236 155 90 165 338 245 164 259
8 241 160 86 150 339 246 154 235
8 339 246 154 235 237 156 82 146
8 237 156 82 146 340 247 155 236
8 342 249 157 238 240 159 85 149
8 343 250 158 239 242 161 87 151
8 240 159 85 149 343 250 158 239
8 243 162 88 152 345 252 160 241
8 244 163 253 346 153 89 161 242
8 244 163 89 153 347 254 162 243
8 311 224 261 371 210 137 167 263
8 263 167 262 372 209 136 168 264
8 267 179 98 171 375 275 178 265
8 375 275 178 265 328 238 147 226
8 376 273 176 266 267 179 98 171
8 268 177 96 172 376 273 176 266
8 379 272 175 269 268 177 96 172
8 380 271 174 270 269 175 94 173
8 283 197 113 186 380 271 174 270
8 381 277 180 271 272 181 100 175
8 297 211 124 197 381 277 180 271
8 382 278 181 272 274 183 102 177
8 274 183 102 177 383 279 182 273
8 383 279 182 273 276 185 104 179
8 385 281 184 275 342 249 157 238
8 276 185 104 179 385 281 184 275
8 285 199 115 188 393 297 197 283
8 394 298 200 286 284 198 116 189
8 285 199 298 394 188 115 198 284
8 291 205 120 193 396 300 200 286
8 397 301 201 287 288 202 117 190
8 295 209 264 374 397 301 201 287
8 398 302 202 288 289 203 118 191
8 399 303 203 289 293 206 121 195
8 291 205 304 400 193 120 204 290
8 400 304 207 292 290 204 122 194
8 294 208 123 196 402 307 207 292
8 403 306 206 293 294 208 123 196
8 296 210 263 373 405 309 209 295
8 408 312 213 299 297 211 126 199
8 299 213 313 409 199 126 212 298
8 409 313 214 300 298 212 127 200
8 305 216 129 205 411 315 214 300
8 412 318 217 301 302 219 132 202
8 309 223 136 209 412 318 217 301
8 413 320 219 302 303 220 133 203
8 306 221 321 414 206 134 220 303
8 307 218 131 207 415 316 215 304
8 305 216 316 415 205 129 215 304
8 417 322 221 306 308 222 135 208
8 308 222 135 208 418 319 218 307
8 310 225 137 210 420 325 223 309
8 423 326 224 311 310 225 137 210
8 329 236 165 260 441 338 259 368
8 442 342 238 328 333 240 149 230
8 331 237 146 228 443 340 236 329
8 334 241 150 231 444 339 235 330
8 444 339 235 330 331 237 146 228
8 446 343 239 332 336 242 151 233
8 333 240 149 230 446 343 239 332
8 335 243 152 232 448 345 241 334
8 337 244 153 234 449 347 243 335
8 337 244 346 450 234 153 242 336
8 338 245 164 259 452 349 258 367
8 340 247 155 236 453 350 245 338
8 345 252 160 241 454 351 246 339
8 454 351 246 339 341 248 156 237
8 341 248 156 237 455 352 247 340
8 240 159 251 344 342 249 354 457
8 242 161 253 346 343 250 355 458
8 343 250 355 458 240 159 251 344
8 347 254 162 243 460 357 252 345
8 348 255 358 461 244 163 253 346
8 348 255 163 244 462 359 254 347
8 473 360 257 365 363 256 364 482
8 452 349 258 367 365 257 366 485
8 422 324 369 488 311 224 261 371
8 371 261 370 490 263 167 262 372
8 407 311 371 491 296 210 263 373
8 373 263 372 492 295 209 264 374
8 493 385 275 375 442 342 238 328
8 377 276 179 267 493 385 275 375
8 378 274 177 268 494 383 273 376
8 494 383 273 376 377 276 179 267
8 497 382 272 379 378 274 177 268
8 498 381 271 380 379 272 175 269
8 393 297 197 283 498 381 271 380
8 499 387 277 381 382 278 181 272
8 408 312 211 297 499 387 277 381
8 500 388 278 382 384 280 183 274
8 501 389 279 383 386 282 185 276
8 384 280 183 274 501 389 279 383
8 386 282 185 276 503 391 281 385
8 503 391 281 385 457 354 249 342
8 511 408 299 395 393 297 199 285
8 395 299 409 512 285 199 298 394
8 512 409 300 396 394 298 200 286
8 401 305 205 291 514 411 300 396
8 515 412 301 397 398 302 202 288
8 405 309 209 295 515 412 301 397
8 516 413 302 398 399 303 203 289
8 403 306 414 517 293 206 303 399
8 402 307 207 292 518 415 304 400
8 401 305 415 518 291 205 304 400
8 404 308 208 294 520 418 307 402
8 521 417 306 403 404 308 208 294
8 406 310 210 296 523 420 309 405
8 526 423 311 407 406 310 210 296
8 410 314 213 299 527 424 312 408
8 528 425 315 411 409 313 214 300
8 410 314 425 528 299 213 313 409
8 416 317 216 305 530 427 315 411
8 531 430 318 412 413 320 219 302
8 420 325 223 309 531 430 318 412
8 532 432 320 413 414 321 220 303
8 417 322 433 533 306 221 321 414
8 418 319 218 307 534 428 316 415
8 416 317 428 534 305 216 316 415
8 419 323 434 536 308 222 322 417
8 419 323 222 308 537 431 319 418
8 421 327 225 310 539 438 325 420
8 421 327 439 541 310 225 326 423
8 543 437 324 422 423 326 224 311
8 441 338 259 368 559 452 367 486
8 443 340 236 329 560 453 338 441
8 333 240 344 447 442 342 457 561
8 445 341 237 331 562 455 340 443
8 448 345 241 334 563 454 339 444
8 563 454 339 444 445 341 237 331
8 336 242 346 450 446 343 458 565
8 446 343 458 565 333 240 344 447
8 449 347 243 335 567 460 345 448
8 451 348 244 337 568 462 347 449
8 451 348 461 569 337 244 346 450
8 570 463 349 452 473 360 257 365
8 453 350 245 338 570 463 349 452
8 455 352 247 340 571 464 350 453
8 460 357 252 345 572 465 351 454
8 572 465 351 454 456 353 248 341
8 456 353 248 341 573 466 352 455
8 344 251 356 459 457 354 468 575
8 458 355 469 576 344 251 356 459
8 346 253 358 461 458 355 469 576
8 462 359 254 347 578 471 357 460
8 348 255 359 462 461 358 472 579
8 591 474 360 473 475 361 256 363
8 475 361 256 363 594 477 362 479
8 363 256 364 482 479 362 480 603
8 590 473 365 484 481 363 482 605
8 482 364 257 365 606 483 366 485
8 559 452 367 486 484 365 485 607
8 542 436 487 609 422 324 369 488
8 525 422 488 611 407 311 371 491
8 488 369 489 612 371 261 370 490
8 491 371 490 613 373 263 372 492
8 495 386 276 377 614 503 385 493
8 614 503 385 493 561 457 342 442
8 615 501 383 494 495 386 276 377
8 496 384 274 378 615 501 383 494
8 618 500 382 497 496 384 274 378
8 619 499 381 498 497 382 272 379
8 511 408 297 393 619 499 381 498
8 620 505 387 499 500 388 278 382
8 527 424 312 408 620 505 387 499
8 502 390 506 621 384 280 388 500
8 622 507 389 501 504 392 282 386
8 502 390 280 384 622 507 389 501
8 504 392 282 386 624 509 391 503
8 624 509 391 503 575 468 354 457
8 513 410 299 395 630 527 408 511
8 631 528 411 514 512 409 300 396
8 513 410 528 631 395 299 409 512
8 519 416 305 401 633 530 411 514
8 634 531 412 515 516 413 302 398
8 523 420 309 405 634 531 412 515
8 635 532 413 516 517 414 303 399
8 521 417 533 636 403 306 414 517
8 520 418 307 402 637 534 415 518
8 519 416 534 637 401 305 415 518
8 522 419 308 404 639 537 418 520
8 522 419 536 640 404 308 417 521
8 524 421 310 406 642 539 420 523
8 524 421 541 644 406 310 423 526
8 646 543 422 525 526 423 311 407
8 529 426 314 410 647 544 424 527
8 528 425 545 648 411 315 427 530
8 529 426 545 648 410 314 425 528
8 535 429 317 416 649 546 427 530
8 650 548 430 531 532 432 320 413
8 539 438 325 420 650 548 430 531
8 533 433 550 651 414 321 432 532
8 536 434 551 652 417 322 433 533
8 537 431 319 418 653 547 428 534
8 535 429 547 653 416 317 428 534
8 538 435 552 654 419 323 434 536
8 538 435 323 419 655 549 431 537
8 540 440 327 421 657 556 438 539
8 540 440 557 659 421 327 439 541
8 541 439 555 660 423 326 437 543
8 661 554 436 542 543 437 324 422
8 676 570 452 559 590 473 365 484
8 560 453 338 441 676 570 452 559
8 562 455 340 443 677 571 453 560
8 447 344 459 566 561 457 575 678
8 564 456 341 445 679 573 455 562
8 567 460 345 448 680 572 454 563
8 680 572 454 563 564 456 341 445
8 565 458 576 682 447 344 459 566
8 450 346 461 569 565 458 576 682
8 568 462 347 449 684 578 460 567
8 451 348 462 568 569 461 579 685
8 686 580 463 570 591 474 360 473
8 571 464 350 453 686 580 463 570
8 573 466 352 455 687 581 464 571
8 572 465 582 688 460 357 471 578
8 574 467 582 688 456 353 465 572
8 574 467 353 456 689 583 466 573
8 459 356 470 577 575 468 585 691
8 576 469 586 692 459 356 470 577
8 461 358 472 579 576 469 586 692
8 462 359 471 578 579 472 588 694
8 704 591 473 590 593 475 363 481
8 595 476 592 705 475 361 474 591
8 593 475 363 481 707 594 479 602
8 594 477 362 479 709 598 478 600
8 595 476 361 475 711 597 477 594
8 479 362 480 603 600 478 601 720
8 481 363 482 605 602 479 603 722
8 603 480 364 482 723 604 483 606
8 605 482 365 484 724 606 485 607
8 656 553 608 726 542 436 487 609
8 645 542 609 728 525 422 488 611
8 609 487 610 729 488 369 489 612
8 611 488 612 730 491 371 490 613
8 616 504 386 495 731 624 503 614
8 731 624 503 614 678 575 457 561
8 732 622 501 615 616 504 386 495
8 617 502 384 496 732 622 501 615
8 617 502 621 735 496 384 500 618
8 736 620 499 619 618 500 382 497
8 630 527 408 511 736 620 499 619
8 621 506 626 737 500 388 505 620
8 647 544 424 527 737 626 505 620
8 623 508 627 738 502 390 506 621
8 623 508 390 502 739 628 507 622
8 625 510 628 739 504 392 507 622
8 740 629 509 624 691 585 468 575
8 625 510 392 504 740 629 509 624
8 632 529 410 513 744 647 527 630
8 631 528 648 745 514 411 530 633
8 632 529 648 745 513 410 528 631
8 638 535 416 519 746 649 530 633
8 747 650 531 634 635 532 413 516
8 642 539 420 523 747 650 531 634
8 636 533 651 748 517 414 532 635
8 640 536 652 749 521 417 533 636
8 639 537 418 520 750 653 534 637
8 638 535 653 750 519 416 534 637
8 641 538 419 522 751 655 537 639
8 641 538 654 752 522 419 536 640
8 643 540 421 524 753 657 539 642
8 643 540 659 755 524 421 541 644
8 644 541 660 757 526 423 543 646
8 758 661 542 645 646 543 422 525
8 529 426 544 647 648 545 662 759
8 530 427 545 648 649 546 663 760
8 535 429 546 649 653 547 664 761
8 762 666 548 650 651 550 432 532
8 657 556 438 539 762 666 548 650
8 652 551 668 763 533 433 550 651
8 654 552 669 764 536 434 551 652
8 655 549 431 537 765 665 547 653
8 538 435 549 655 654 552 667 766
8 661 554 671 768 542 436 553 656
8 658 558 440 540 769 674 556 657
8 658 558 675 770 540 440 557 659
8 659 557 673 771 541 439 555 660
8 660 555 672 772 543 437 554 661
8 788 686 570 676 704 591 473 590
8 677 571 453 560 788 686 570 676
8 679 573 455 562 789 687 571 677
8 566 459 577 683 678 575 691 790
8 681 574 456 564 791 689 573 679
8 680 572 688 792 567 460 578 684
8 681 574 688 792 564 456 572 680
8 682 576 692 794 566 459 577 683
8 569 461 579 685 682 576 692 794
8 568 462 578 684 685 579 694 796
8 687 581 464 571 798 696 580 686
8 798 696 580 686 705 592 474 591
8 689 583 466 573 799 697 581 687
8 688 582 698 800 578 471 588 694
8 690 584 698 800 574 467 582 688
8 690 584 467 574 801 699 583 689
8 693 587 701 803 577 470 585 691
8 693 587 470 577 804 702 586 692
8 695 589 702 804 579 472 586 692
8 695 589 472 579 805 703 588 694
8 708 595 705 813 593 475 591 704
8 710 596 706 814 595 476 592 705
8 707 594 479 602 816 709 600 719
8 708 595 475 593 817 711 594 707
8 709 598 478 600 819 715 599 717
8 711 597 477 594 820 714 598 709
8 710 596 476 595 822 713 597 711
8 600 478 601 720 717 599 718 832
8 602 479 603 722 719 600 720 834
8 720 601 480 603 835 721 604 723
8 722 603 482 605 836 723 606 724
8 767 670 725 839 656 553 608 726
8 756 656 726 841 645 542 609 728
8 726 608 727 842 609 487 610 729
8 728 609 729 843 611 488 612 730
8 844 740 624 731 790 691 575 678
8 733 625 504 616 844 740 624 731
8 734 623 502 617 845 739 622 732
8 733 625 739 845 616 504 622 732
8 734 623 738 846 617 502 621 735
8 735 621 737 847 618 500 620 736
8 744 647 527 630 847 737 620 736
8 621 506 627 738 737 626 741 848
8 647 544 626 737 759 662 741 848
8 623 508 628 739 738 627 742 849
8 740 629 585 691 850 743 700 802
8 625 510 629 740 739 628 743 850
8 632 529 647 744 745 648 759 854
8 633 530 648 745 746 649 760 855
8 638 535 649 746 750 653 761 856
8 857 762 650 747 748 651 532 635
8 753 657 539 642 857 762 650 747
8 749 652 763 858 636 533 651 748
8 752 654 764 859 640 536 652 749
8 751 655 537 639 860 765 653 750
8 641 538 655 751 752 654 766 861
8 754 658 540 643 862 769 657 753
8 754 658 770 863 643 540 659 755
8 755 659 771 864 644 541 660 757
8 758 661 768 866 645 542 656 756
8 757 660 772 867 646 543 661 758
8 759 662 773 868 648 545 663 760
8 649 546 663 760 761 664 774 871
8 765 665 547 653 872 775 664 761
8 873 777 666 762 763 668 550 651
8 769 674 556 657 873 777 666 762
8 764 669 779 874 652 551 668 763
8 654 552 667 766 764 669 778 875
8 655 549 665 765 766 667 776 876
8 768 671 782 877 656 553 670 767
8 772 672 783 878 661 554 671 768
8 658 558 674 769 770 675 786 879
8 659 557 675 770 771 673 785 881
8 882 784 672 772 771 673 555 660
8 789 687 571 677 897 798 686 788
8 897 798 686 788 813 705 591 704
8 791 689 573 679 898 799 687 789
8 795 693 803 900 683 577 691 790
8 793 690 574 681 901 801 689 791
8 792 688 800 902 684 578 694 796
8 793 690 800 902 681 574 688 792
8 795 693 577 683 903 804 692 794
8 797 695 804 903 685 579 692 794
8 797 695 579 685 904 805 694 796
8 905 806 697 799 798 696 581 687
8 814 706 806 905 705 592 696 798
8 689 583 697 799 801 699 808 907
8 800 698 809 908 694 588 703 805
8 690 584 699 801 800 698 809 908
8 803 701 810 909 691 585 700 802
8 693 587 702 804 803 701 811 910
8 695 589 703 805 804 702 812 911
8 818 710 814 919 708 595 705 813
8 821 712 815 920 710 596 706 814
8 816 709 600 719 922 819 717 831
8 817 711 594 707 923 820 709 816
8 818 710 595 708 924 822 711 817
8 819 715 599 717 926 827 716 829
8 820 714 598 709 927 826 715 819
8 929 825 713 822 820 714 597 711
8 821 712 596 710 930 824 713 822
8 717 599 718 832 829 716 830 942
8 719 600 720 834 831 717 832 944
8 832 718 601 720 945 833 721 835
8 834 720 603 722 946 835 723 836
8 869 780 838 950 767 670 725 839
8 865 767 839 952 756 656 726 841
8 839 725 840 953 726 608 727 842
8 841 726 842 954 728 609 729 843
8 844 740 691 790 955 850 802 899
8 733 625 740 844 845 739 850 955
8 734 623 739 845 846 738 849 956
8 735 621 738 846 847 737 848 957
8 744 647 737 847 854 759 848 957
8 738 627 742 849 848 741 851 958
8 848 741 851 958 759 662 773 868
8 850 743 700 802 959 852 807 906
8 849 742 628 739 959 852 743 850
8 854 759 868 965 745 648 760 855
8 746 649 760 855 856 761 871 966
8 860 765 653 750 967 872 761 856
8 968 873 762 857 858 763 651 748
8 862 769 657 753 968 873 762 857
8 859 764 874 969 749 652 763 858
8 752 654 766 861 859 764 875 970
8 751 655 765 860 861 766 876 971
8 754 658 769 862 863 770 879 972
8 755 659 770 863 864 771 881 974
8 976 882 772 867 864 771 660 757
8 866 768 877 977 756 656 767 865
8 867 772 878 978 758 661 768 866
8 760 663 773 868 871 774 883 980
8 870 781 837 948 982 890 780 869
8 982 890 780 869 877 782 670 767
8 761 664 774 871 872 775 884 984
8 876 776 665 765 985 885 775 872
8 873 777 668 763 986 887 779 874
8 769 674 777 873 879 786 887 986
8 764 669 778 875 874 779 888 987
8 766 667 776 876 875 778 886 988
8 878 783 892 989 768 671 782 877
8 878 783 672 772 990 893 784 882
8 880 787 675 770 991 896 786 879
8 880 787 895 992 770 675 785 881
8 881 785 894 993 771 673 784 882
8 1006 905 799 898 897 798 687 789
8 919 814 905 1006 813 705 798 897
8 791 689 799 898 901 801 907 1007
8 900 803 909 1009 790 691 802 899
8 795 693 804 903 900 803 910 1010
8 902 800 908 1011 796 694 805 904
8 793 690 801 901 902 800 908 1011
8 797 695 805 904 903 804 911 1012
8 799 697 806 905 907 808 912 1013
8 920 815 912 1013 814 706 806 905
8 802 700 810 909 906 807 913 1014
8 801 699 808 907 908 809 914 1015
8 805 703 809 908 911 812 915 1016
8 803 701 811 910 909 810 916 1017
8 911 812 917 1018 804 702 811 910
8 925 821 920 1030 818 710 814 919
8 928 823 921 1031 821 712 815 920
8 922 819 717 831 1033 926 829 941
8 923 820 709 816 1034 927 819 922
8 1035 929 822 924 923 820 711 817
8 925 821 710 818 1036 930 822 924
8 1038 933 825 929 927 826 714 820
8 926 827 716 829 1039 935 828 939
8 927 826 715 819 1040 934 827 926
8 928 823 712 821 1041 931 824 930
8 1042 932 824 930 929 825 713 822
8 829 716 830 942 939 828 940 1058
8 831 717 832 944 941 829 942 1060
8 942 830 718 832 1061 943 833 945
8 944 832 720 834 1062 945 835 946
8 981 889 947 1064 870 781 837 948
8 948 837 949 1067 869 780 838 950
8 975 869 950 1069 865 767 839 952
8 950 838 951 1070 839 725 840 953
8 952 839 953 1071 841 726 842 954
8 955 850 802 899 1072 959 906 1008
8 956 849 739 845 1072 959 850 955
8 846 738 849 956 957 848 958 1073
8 957 848 958 1073 854 759 868 965
8 849 742 852 959 958 851 961 1076
8 960 853 961 1076 906 807 852 959
8 958 851 961 1076 868 773 883 980
8 960 853 807 906 1077 963 913 1014
8 855 760 868 965 966 871 980 1085
8 856 761 871 966 967 872 984 1086
8 971 876 765 860 1087 985 872 967
8 968 873 763 858 1088 986 874 969
8 862 769 873 968 972 879 986 1088
8 859 764 875 970 969 874 987 1089
8 861 766 876 971 970 875 988 1090
8 973 880 770 863 1091 991 879 972
8 973 880 992 1092 863 770 881 974
8 974 881 993 1093 864 771 882 976
8 979 870 948 1066 1094 982 869 975
8 1094 982 869 975 977 877 767 865
8 978 878 772 867 1095 990 882 976
8 978 878 989 1096 866 768 877 977
8 871 774 883 980 984 884 994 1099
8 983 891 999 1100 870 781 889 981
8 1101 1000 890 982 989 892 782 877
8 983 891 781 870 1101 1000 890 982
8 872 775 884 984 985 885 995 1103
8 876 776 885 985 988 886 996 1104
8 986 887 779 874 1105 998 888 987
8 879 786 887 986 991 896 998 1105
8 875 778 886 988 987 888 997 1106
8 990 893 1002 1107 878 783 892 989
8 1108 1003 893 990 993 894 784 882
8 880 787 896 991 992 895 1005 1109
8 993 894 785 881 1110 1004 895 992
8 898 799 905 1006 1007 907 1013 1120
8 1030 920 1013 1120 919 814 905 1006
8 901 801 907 1007 1011 908 1015 1121
8 899 802 909 1009 1008 906 1014 1122
8 900 803 910 1010 1009 909 1017 1123
8 1012 911 1018 1124 903 804 910 1010
8 904 805 908 1011 1012 911 1016 1125
8 1013 912 1020 1127 907 808 914 1015
8 1031 921 1020 1127 920 815 912 1013
8 1019 918 962 1075 1128 1021 913 1014
8 1128 1021 913 1014 1017 916 810 909
8 1015 914 1022 1129 908 809 915 1016
8 1016 915 1023 1130 911 812 917 1018
8 1018 917 1024 1131 910 811 916 1017
8 1037 928 1031 1148 925 821 920 1030
8 928 823 931 1041 1031 921 1032 1149
8 1033 926 829 941 1151 1039 939 1057
8 1034 927 819 922 1152 1040 926 1033
8 1153 1038 929 1035 1034 927 820 923
8 1154 1042 930 1036 1035 929 822 924
8 1037 928 821 925 1155 1041 930 1036
8 1039 935 828 939 1156 1047 938 1055
8 1157 1043 932 1042 1038 933 825 929
8 1038 933 826 927 1158 1045 934 1040
8 1040 934 827 926 1159 1046 935 1039
8 930 824 932 1042 1041 931 1044 1160
8 1051 936 1048 1165 1175 1052 937 1053
8 1156 1047 938 1055 1053 937 1054 1178
8 939 828 940 1058 1055 938 1056 1181
8 941 829 942 1060 1057 939 1058 1183
8 942 830 943 1061 1058 940 1059 1184
8 1060 942 832 944 1185 1061 945 1062
8 1082 964 1063 1188 981 889 947 1064
8 1097 981 1064 1190 979 870 948 1066
8 1064 947 1065 1191 948 837 949 1067
8 1066 948 1067 1193 975 869 950 1069
8 1067 949 1068 1194 950 838 951 1070
8 1069 950 1070 1195 952 839 953 1071
8 956 849 959 1072 1073 958 1076 1197
8 1074 960 1076 1197 1008 906 959 1072
8 1073 958 1076 1197 965 868 980 1085
8 1074 960 906 1008 1198 1077 1014 1122
8 1133 1026 1079 1199 1019 918 962 1075
8 1077 963 913 1014 1200 1080 962 1075
8 960 853 963 1077 1076 961 1078 1201
8 980 883 961 1076 1099 994 1078 1201
8 1210 1083 964 1082 1100 999 889 981
8 966 871 980 1085 1086 984 1099 1215
8 967 872 984 1086 1087 985 1103 1216
8 971 876 985 1087 1090 988 1104 1217
8 1088 986 874 969 1218 1105 987 1089
8 972 879 986 1088 1091 991 1105 1218
8 970 875 988 1090 1089 987 1106 1219
8 973 880 991 1091 1092 992 1109 1220
8 1093 993 881 974 1221 1110 992 1092
8 1222 1108 990 1095 1093 993 882 976
8 1223 1101 982 1094 1096 989 877 977
8 1098 983 870 979 1223 1101 982 1094
8 1095 990 1107 1224 978 878 989 1096
8 1098 983 1100 1225 979 870 981 1097
8 984 884 994 1099 1103 995 1111 1227
8 1102 1001 1115 1228 983 891 999 1100
8 1101 1000 892 989 1229 1116 1002 1107
8 1102 1001 891 983 1229 1116 1000 1101
8 985 885 995 1103 1104 996 1112 1230
8 988 886 996 1104 1106 997 1113 1231
8 1105 998 888 987 1232 1114 997 1106
8 991 896 998 1105 1109 1005 1114 1232
8 1108 1003 1117 1233 990 893 1002 1107
8 1108 1003 894 993 1233 1117 1004 1110
8 992 895 1005 1109 1110 1004 1118 1234
8 1120 1013 1127 1244 1007 907 1015 1121
8 1148 1031 1127 1244 1030 920 1013 1120
8 1121 1015 1129 1245 1011 908 1016 1125
8 1126 1019 1075 1196 1246 1128 1014 1122
8 1246 1128 1014 1122 1123 1017 909 1009
8 1124 1018 1131 1247 1010 910 1017 1123
8 1125 1016 1130 1248 1012 911 1018 1124
8 1127 1020 1137 1254 1015 914 1022 1129
8 1031 921 1032 1149 1127 1020 1137 1254
8 1134 1027 918 1019 1257 1140 1021 1128
8 1257 1140 1021 1128 1131 1024 916 1017
8 1129 1022 1141 1258 1016 915 1023 1130
8 1130 1023 1142 1259 1018 917 1024 1131
8 1261 1144 1025 1132 1133 1026 1079 1199
8 1255 1138 1025 1132 1135 1028 1144 1261
8 1133 1026 918 1019 1262 1145 1027 1134
8 1136 1029 1139 1256 1263 1146 1028 1135
8 1037 928 1041 1155 1148 1031 1149 1275
8 1041 931 1044 1160 1149 1032 1150 1276
8 1151 1039 939 1057 1278 1156 1055 1180
8 1152 1040 926 1033 1279 1159 1039 1151
8 1153 1038 927 1034 1280 1158 1040 1152
8 1281 1157 1042 1154 1153 1038 929 1035
8 1036 930 1042 1154 1155 1041 1160 1282
8 1283 1164 1046 1159 1156 1047 935 1039
8 1165 1048 1164 1283 1053 937 1047 1156
8 1157 1043 933 1038 1284 1161 1045 1158
8 1157 1043 1161 1284 1042 932 1044 1160
8 1040 934 1046 1159 1158 1045 1163 1285
8 1166 1049 1167 1292 1051 936 1048 1165
8 1166 1049 936 1051 1293 1168 1050 1172
8 1051 936 1052 1175 1172 1050 1173 1306
8 1174 1051 1165 1290 1308 1175 1053 1177
8 1053 937 1054 1178 1175 1052 1176 1309
8 1278 1156 1055 1180 1177 1053 1178 1311
8 1055 938 1056 1181 1178 1054 1179 1312
8 1057 939 1058 1183 1180 1055 1181 1314
8 1058 940 1059 1184 1181 1056 1182 1315
8 1060 942 1061 1185 1183 1058 1184 1316
8 1208 1081 1187 1321 1082 964 1063 1188
8 1209 1082 1188 1322 1097 981 1064 1190
8 1188 1063 1189 1323 1064 947 1065 1191
8 1190 1064 1191 1325 1066 948 1067 1193
8 1191 1065 1192 1326 1067 949 1068 1194
8 1067 1193 1069 950 1194 1327 1195 1070
8 1250 1133 1199 1330 1126 1019 1075 1196
8 1198 1077 1014 1122 1331 1200 1075 1196
8 1074 960 1077 1198 1197 1076 1201 1332
8 1085 980 1076 1197 1215 1099 1201 1332
8 1199 1079 1203 1333 1075 962 1080 1200
8 1132 1025 1119 1243 1199 1079 1203 1333
8 1201 1078 963 1077 1334 1202 1080 1200
8 1099 994 1078 1201 1227 1111 1202 1334
8 1343 1207 1081 1208 1210 1083 964 1082
8 1214 1084 1186 1319 1343 1207 1081 1208
8 1345 1210 1082 1209 1225 1100 981 1097
8 1346 1211 1083 1210 1228 1115 999 1100
8 1086 984 1099 1215 1216 1103 1227 1352
8 1087 985 1103 1216 1217 1104 1230 1353
8 1090 988 1104 1217 1219 1106 1231 1354
8 1218 1105 987 1089 1355 1232 1106 1219
8 1091 991 1105 1218 1220 1109 1232 1355
8 1092 992 1109 1220 1221 1110 1234 1356
8 1222 1108 1233 1357 1095 990 1107 1224
8 1222 1108 993 1093 1357 1233 1110 1221
8 1223 1101 989 1096 1358 1229 1107 1224
8 1226 1102 983 1098 1358 1229 1101 1223
8 1226 1102 1228 1359 1098 983 1100 1225
8 1103 995 1111 1227 1230 1112 1235 1360
8 1107 1002 1117 1233 1229 1116 1240 1362
8 1102 1001 1116 1229 1228 1115 1240 1362
8 1104 996 1112 1230 1231 1113 1236 1363
8 1364 1237 1114 1232 1231 1113 997 1106
8 1109 1005 1114 1232 1234 1118 1238 1365
8 1110 1004 1118 1234 1233 1117 1241 1366
8 1242 1374 1255 1138 1119 1243 1132 1025
8 1244 1127 1254 1376 1121 1015 1129 1245
8 1148 1031 1149 1275 1244 1127 1254 1376
8 1245 1129 1258 1377 1125 1016 1130 1248
8 1251 1134 1019 1126 1378 1257 1128 1246
8 1378 1257 1128 1246 1247 1131 1017 1123
8 1248 1130 1259 1379 1124 1018 1131 1247
8 1261 1381 1250 1133 1132 1249 1330 1199
8 1255 1380 1252 1135 1132 1249 1381 1261
8 1250 1133 1019 1126 1382 1262 1134 1251
8 1253 1136 1256 1385 1384 1263 1135 1252
8 1254 1137 1265 1387 1129 1022 1141 1258
8 1149 1032 1150 1276 1254 1137 1265 1387
8 1028 1135 1255 1138 1139 1256 1388 1266
8 1136 1029 1147 1264 1256 1139 1267 1389
8 1390 1268 1140 1257 1259 1142 1024 1131
8 1260 1143 1027 1134 1390 1268 1140 1257
8 1258 1141 1269 1391 1130 1023 1142 1259
8 1262 1145 1027 1134 1393 1271 1143 1260
8 1261 1144 1026 1133 1394 1272 1145 1262
8 1135 1028 1144 1261 1263 1146 1272 1394
8 1136 1029 1146 1263 1264 1147 1273 1395
8 1155 1041 1160 1282 1275 1149 1276 1405
8 1276 1150 1044 1160 1406 1277 1162 1286
8 1408 1283 1159 1279 1278 1156 1039 1151
8 1290 1165 1283 1408 1177 1053 1156 1278
8 1152 1040 1159 1279 1280 1158 1285 1409
8 1281 1157 1038 1153 1410 1284 1158 1280
8 1281 1157 1284 1410 1154 1042 1160 1282
8 1159 1046 1164 1283 1285 1163 1289 1412
8 1292 1167 1289 1412 1165 1048 1164 1283
8 1158 1045 1163 1285 1284 1161 1288 1413
8 1284 1161 1288 1413 1160 1044 1162 1286
8 1291 1166 1292 1418 1174 1051 1165 1290
8 1291 1166 1051 1174 1419 1293 1172 1305
8 1294 1169 1296 1421 1166 1049 1167 1292
8 1293 1168 1050 1172 1422 1295 1171 1303
8 1294 1169 1049 1166 1423 1297 1168 1293
8 1422 1295 1171 1303 1301 1170 1302 1435
8 1172 1050 1173 1306 1303 1171 1304 1438
8 1174 1051 1175 1308 1305 1172 1306 1440
8 1175 1052 1176 1309 1306 1173 1307 1441
8 1177 1053 1178 1311 1308 1175 1309 1443
8 1178 1054 1179 1312 1309 1176 1310 1444
8 1180 1055 1181 1314 1311 1178 1312 1446
8 1056 1181 1312 1179 1182 1315 1447 1313
8 1183 1058 1184 1316 1314 1181 1315 1448
8 1319 1186 1084 1214 1451 1317 1213 1350
8 1319 1186 1318 1453 1208 1081 1187 1321
8 1321 1187 1320 1456 1188 1063 1189 1323
8 1344 1208 1321 1457 1209 1082 1188 1322
8 1322 1188 1323 1458 1190 1064 1191 1325
8 1323 1189 1324 1459 1191 1065 1192 1326
8 1191 1325 1193 1067 1326 1460 1327 1194
8 1242 1374 1243 1119 1328 1462 1335 1204
8 1330 1199 1333 1465 1196 1075 1200 1331
8 1132 1249 1330 1199 1243 1375 1465 1333
8 1332 1201 1077 1198 1466 1334 1200 1331
8 1215 1099 1201 1332 1352 1227 1334 1466
8 1119 1243 1333 1203 1204 1335 1470 1338
8 1333 1203 1338 1470 1200 1080 1202 1334
8 1227 1111 1202 1334 1360 1235 1338 1470
8 1328 1462 1335 1204 1205 1336 1471 1339
8 1337 1206 1340 1472 1464 1329 1205 1336
8 1346 1211 1342 1479 1210 1083 1207 1343
8 1346 1211 1115 1228 1479 1342 1239 1361
8 1348 1212 1084 1214 1479 1342 1207 1343
8 1480 1343 1208 1344 1345 1210 1082 1209
8 1351 1214 1319 1454 1480 1343 1208 1344
8 1481 1346 1210 1345 1359 1228 1100 1225
8 1348 1212 1347 1483 1214 1084 1213 1350
8 1216 1103 1227 1352 1353 1230 1360 1488
8 1217 1104 1230 1353 1354 1231 1363 1489
8 1490 1364 1232 1355 1354 1231 1106 1219
8 1220 1109 1232 1355 1356 1234 1365 1491
8 1221 1110 1234 1356 1357 1233 1366 1492
8 1224 1107 1233 1357 1358 1229 1362 1493
8 1226 1102 1229 1358 1359 1228 1362 1493
8 1230 1112 1235 1360 1363 1236 1367 1496
8 1361 1239 1115 1228 1497 1371 1240 1362
8 1366 1241 1372 1498 1233 1117 1240 1362
8 1364 1237 1113 1231 1499 1368 1236 1363
8 1364 1237 1368 1499 1232 1114 1238 1365
8 1234 1118 1238 1365 1366 1241 1369 1500
8 1507 1373 1242 1374 1388 1266 1138 1255
8 1508 1374 1243 1375 1380 1255 1132 1249
8 1376 1254 1387 1509 1245 1129 1258 1377
8 1275 1149 1276 1405 1376 1254 1387 1509
8 1377 1258 1391 1510 1248 1130 1259 1379
8 1511 1390 1257 1378 1379 1259 1131 1247
8 1383 1260 1134 1251 1511 1390 1257 1378
8 1252 1135 1256 1385 1380 1255 1388 1512
8 1261 1381 1513 1394 1133 1250 1382 1262
8 1135 1252 1384 1263 1261 1381 1513 1394
8 1382 1262 1134 1251 1514 1393 1260 1383
8 1253 1136 1263 1384 1386 1264 1395 1516
8 1253 1136 1264 1386 1385 1256 1389 1517
8 1387 1265 1397 1519 1258 1141 1269 1391
8 1276 1150 1277 1406 1387 1265 1397 1519
8 1256 1139 1267 1389 1388 1266 1398 1520
8 1264 1147 1274 1396 1389 1267 1399 1521
8 1392 1270 1143 1260 1522 1400 1268 1390
8 1390 1268 1142 1259 1522 1400 1269 1391
8 1392 1270 1401 1523 1260 1143 1271 1393
8 1272 1394 1524 1402 1145 1262 1393 1271
8 1395 1273 1146 1263 1524 1402 1272 1394
8 1273 1395 1264 1147 1403 1526 1396 1274
8 1405 1276 1160 1282 1534 1406 1286 1411
8 1414 1287 1407 1535 1286 1162 1277 1406
8 1279 1159 1283 1408 1409 1285 1412 1537
8 1418 1292 1412 1537 1290 1165 1283 1408
8 1280 1158 1285 1409 1410 1284 1413 1538
8 1410 1284 1413 1538 1282 1160 1286 1411
8 1285 1163 1289 1412 1413 1288 1417 1540
8 1421 1296 1417 1540 1292 1167 1289 1412
8 1414 1287 1162 1286 1541 1416 1288 1413
8 1420 1294 1421 1545 1291 1166 1292 1418
8 1419 1293 1172 1305 1546 1422 1303 1437
8 1420 1294 1166 1291 1547 1423 1293 1419
8 1294 1169 1297 1423 1421 1296 1425 1548
8 1423 1297 1168 1293 1549 1424 1295 1422
8 1301 1170 1298 1427 1422 1295 1424 1549
8 1432 1300 1428 1554 1301 1170 1298 1427
8 1431 1299 1428 1554 1560 1430 1300 1432
8 1563 1433 1300 1432 1435 1302 1170 1301
8 1546 1422 1303 1437 1434 1301 1435 1565
8 1303 1171 1304 1438 1435 1302 1436 1566
8 1305 1172 1306 1440 1437 1303 1438 1568
8 1306 1173 1307 1441 1438 1304 1439 1569
8 1308 1175 1309 1443 1440 1306 1441 1571
8 1309 1176 1310 1444 1441 1307 1442 1572
8 1311 1178 1312 1446 1443 1309 1444 1574
8 1179 1312 1444 1310 1313 1447 1575 1445
8 1314 1181 1315 1448 1446 1312 1447 1576
8 1350 1213 1349 1486 1451 1317 1449 1579
8 1451 1317 1450 1581 1319 1186 1318 1453
8 1454 1319 1214 1351 1582 1451 1350 1487
8 1453 1318 1452 1584 1321 1187 1320 1456
8 1454 1319 1453 1585 1344 1208 1321 1457
8 1456 1320 1455 1586 1323 1189 1324 1459
8 1457 1321 1456 1587 1322 1188 1323 1458
8 1458 1323 1459 1588 1325 1191 1326 1460
8 1205 1336 1464 1329 1328 1462 1590 1461
8 1507 1373 1461 1590 1374 1242 1328 1462
8 1508 1374 1462 1591 1375 1243 1335 1467
8 1337 1206 1329 1464 1473 1341 1463 1594
8 1375 1243 1335 1467 1465 1333 1470 1596
8 1465 1333 1470 1596 1331 1200 1334 1466
8 1352 1227 1334 1466 1488 1360 1470 1596
8 1591 1462 1336 1468 1467 1335 1471 1597
8 1469 1337 1472 1598 1595 1464 1336 1468
8 1471 1339 1474 1600 1335 1204 1338 1470
8 1600 1474 1367 1496 1470 1338 1235 1360
8 1336 1205 1340 1472 1471 1339 1475 1601
8 1337 1206 1341 1473 1472 1340 1476 1602
8 1495 1370 1478 1609 1361 1239 1342 1479
8 1348 1212 1342 1479 1483 1347 1478 1609
8 1481 1346 1479 1610 1345 1210 1343 1480
8 1481 1346 1228 1359 1610 1479 1361 1494
8 1484 1348 1214 1351 1610 1479 1343 1480
8 1483 1347 1482 1612 1350 1213 1349 1486
8 1484 1348 1483 1613 1351 1214 1350 1487
8 1353 1230 1360 1488 1489 1363 1496 1616
8 1490 1364 1231 1354 1617 1499 1363 1489
8 1490 1364 1499 1617 1355 1232 1365 1491
8 1356 1234 1365 1491 1492 1366 1500 1619
8 1492 1366 1498 1620 1357 1233 1362 1493
8 1494 1361 1228 1359 1621 1497 1362 1493
8 1495 1370 1239 1361 1622 1504 1371 1497
8 1363 1236 1367 1496 1499 1368 1501 1623
8 1497 1371 1240 1362 1624 1505 1372 1498
8 1625 1503 1372 1498 1500 1369 1241 1366
8 1365 1238 1368 1499 1500 1369 1502 1626
8 1520 1398 1506 1633 1388 1266 1373 1507
8 1634 1507 1374 1508 1512 1388 1255 1380
8 1509 1387 1519 1635 1377 1258 1391 1510
8 1405 1276 1406 1534 1509 1387 1519 1635
8 1515 1392 1260 1383 1636 1522 1390 1511
8 1511 1390 1259 1379 1636 1522 1391 1510
8 1385 1256 1389 1517 1512 1388 1520 1637
8 1513 1394 1262 1382 1638 1524 1393 1514
8 1395 1516 1638 1524 1263 1384 1513 1394
8 1515 1392 1523 1639 1383 1260 1393 1514
8 1516 1395 1526 1640 1386 1264 1396 1518
8 1386 1264 1396 1518 1517 1389 1521 1641
8 1519 1397 1527 1643 1391 1269 1400 1522
8 1535 1407 1527 1643 1406 1277 1397 1519
8 1389 1267 1399 1521 1520 1398 1528 1644
8 1645 1529 1399 1521 1525 1404 1274 1396
8 1392 1270 1400 1522 1523 1401 1531 1646
8 1524 1402 1271 1393 1648 1532 1401 1523
8 1403 1526 1648 1532 1273 1395 1524 1402
8 1525 1404 1274 1396 1649 1533 1403 1526
8 1539 1414 1535 1657 1411 1286 1406 1534
8 1542 1415 1536 1658 1414 1287 1407 1535
8 1409 1285 1412 1537 1538 1413 1540 1660
8 1545 1421 1540 1660 1418 1292 1412 1537
8 1539 1414 1286 1411 1661 1541 1413 1538
8 1540 1417 1544 1663 1413 1288 1416 1541
8 1421 1296 1425 1548 1540 1417 1544 1663
8 1542 1415 1287 1414 1664 1543 1416 1541
8 1420 1294 1423 1547 1545 1421 1548 1666
8 1547 1423 1293 1419 1667 1549 1422 1546
8 1434 1301 1427 1553 1546 1422 1549 1667
8 1423 1297 1424 1549 1548 1425 1550 1668
8 1551 1426 1550 1668 1427 1298 1424 1549
8 1551 1426 1298 1427 1671 1552 1428 1554
8 1562 1432 1554 1674 1434 1301 1427 1553
8 1431 1299 1429 1558 1554 1428 1555 1675
8 1431 1299 1430 1560 1558 1429 1557 1680
8 1560 1430 1300 1432 1683 1559 1433 1563
8 1561 1431 1554 1674 1684 1560 1432 1562
8 1685 1563 1432 1562 1565 1435 1301 1434
8 1435 1302 1436 1566 1563 1433 1564 1686
8 1437 1303 1438 1568 1565 1435 1566 1688
8 1438 1304 1439 1569 1566 1436 1567 1689
8 1440 1306 1441 1571 1568 1438 1569 1691
8 1441 1307 1442 1572 1569 1439 1570 1692
8 1443 1309 1444 1574 1571 1441 1572 1694
8 1310 1444 1572 1442 1445 1575 1695 1573
8 1446 1312 1447 1576 1574 1444 1575 1696
8 1486 1349 1485 1614 1579 1449 1577 1699
8 1451 1317 1449 1579 1581 1450 1578 1701
8 1487 1350 1486 1615 1582 1451 1579 1702
8 1581 1450 1580 1704 1453 1318 1452 1584
8 1582 1451 1581 1705 1454 1319 1453 1585
8 1584 1452 1583 1706 1456 1320 1455 1586
8 1585 1453 1584 1707 1457 1321 1456 1587
8 1587 1456 1586 1708 1458 1323 1459 1588
8 1633 1506 1589 1710 1507 1373 1461 1590
8 1464 1329 1461 1590 1594 1463 1589 1710
8 1468 1336 1462 1591 1595 1464 1590 1711
8 1634 1507 1590 1711 1508 1374 1462 1591
8 1473 1341 1463 1594 1603 1477 1593 1716
8 1469 1337 1464 1595 1599 1473 1594 1717
8 1471 1597 1467 1335 1600 1718 1596 1470
8 1718 1600 1496 1616 1596 1470 1360 1488
8 1336 1468 1597 1471 1472 1598 1719 1601
8 1469 1337 1473 1599 1598 1472 1602 1720
8 1722 1604 1501 1623 1600 1474 1367 1496
8 1475 1601 1471 1339 1604 1722 1600 1474
8 1602 1476 1605 1723 1472 1340 1475 1601
8 1476 1602 1724 1606 1341 1473 1603 1477
8 1483 1347 1478 1609 1612 1482 1608 1731
8 1495 1370 1504 1622 1609 1478 1608 1731
8 1618 1495 1609 1732 1494 1361 1479 1610
8 1484 1348 1479 1610 1613 1483 1609 1732
8 1486 1349 1482 1612 1614 1485 1611 1733
8 1613 1483 1612 1734 1487 1350 1486 1615
8 1489 1363 1496 1616 1617 1499 1623 1736
8 1491 1365 1499 1617 1619 1500 1626 1737
8 1618 1495 1361 1494 1738 1622 1497 1621
8 1739 1625 1498 1620 1619 1500 1366 1492
8 1621 1497 1362 1493 1740 1624 1498 1620
8 1742 1631 1504 1622 1624 1505 1371 1497
8 1743 1628 1502 1626 1623 1501 1368 1499
8 1744 1630 1505 1624 1625 1503 1372 1498
8 1745 1629 1503 1625 1626 1502 1369 1500
8 1520 1398 1528 1644 1633 1506 1632 1751
8 1637 1520 1633 1752 1512 1388 1507 1634
8 1635 1519 1643 1753 1510 1391 1522 1636
8 1657 1535 1643 1753 1534 1406 1519 1635
8 1515 1392 1522 1636 1639 1523 1646 1754
8 1517 1389 1521 1641 1637 1520 1644 1755
8 1524 1638 1756 1648 1393 1514 1639 1523
8 1640 1526 1395 1516 1756 1648 1524 1638
8 1642 1525 1396 1518 1757 1649 1526 1640
8 1758 1645 1521 1641 1642 1525 1396 1518
8 1646 1531 1400 1522 1760 1650 1527 1643
8 1535 1407 1536 1658 1643 1527 1650 1760
8 1521 1399 1529 1645 1644 1528 1651 1761
8 1647 1530 1652 1762 1525 1404 1529 1645
8 1401 1523 1648 1532 1531 1646 1763 1655
8 1525 1404 1533 1649 1647 1530 1654 1765
8 1533 1649 1766 1656 1403 1526 1648 1532
8 1662 1542 1658 1774 1539 1414 1535 1657
8 1542 1415 1543 1664 1658 1536 1659 1775
8 1660 1540 1663 1777 1538 1413 1541 1661
8 1545 1421 1548 1666 1660 1540 1663 1777
8 1662 1542 1414 1539 1778 1664 1541 1661
8 1664 1543 1416 1541 1779 1665 1544 1663
8 1548 1425 1550 1668 1663 1544 1665 1779
8 1547 1423 1549 1667 1666 1548 1668 1781
8 1670 1551 1668 1781 1553 1427 1549 1667
8 1551 1426 1552 1671 1668 1550 1669 1782
8 1670 1551 1427 1553 1784 1671 1554 1674
8 1675 1555 1672 1785 1554 1428 1552 1671
8 1678 1556 1673 1789 1558 1429 1555 1675
8 1561 1431 1558 1681 1674 1554 1675 1790
8 1794 1677 1556 1678 1680 1557 1429 1558
8 1560 1430 1559 1683 1680 1557 1679 1797
8 1561 1431 1560 1684 1681 1558 1680 1798
8 1563 1433 1564 1686 1683 1559 1682 1800
8 1684 1560 1432 1562 1801 1683 1563 1685
8 1565 1435 1566 1688 1685 1563 1686 1802
8 1566 1436 1567 1689 1686 1564 1687 1803
8 1568 1438 1569 1691 1688 1566 1689 1805
8 1569 1439 1570 1692 1689 1567 1690 1806
8 1571 1441 1572 1694 1691 1569 1692 1808
8 1442 1572 1692 1570 1573 1695 1809 1693
8 1574 1444 1575 1696 1694 1572 1695 1810
8 1614 1485 1592 1712 1699 1577 1697 1813
8 1579 1449 1577 1699 1701 1578 1698 1815
8 1615 1486 1614 1735 1702 1579 1699 1816
8 1701 1578 1700 1818 1581 1450 1580 1704
8 1582 1451 1579 1702 1705 1581 1701 1819
8 1704 1580 1703 1820 1584 1452 1583 1706
8 1705 1581 1704 1821 1585 1453 1584 1707
8 1707 1584 1706 1822 1587 1456 1586 1708
8 1710 1589 1506 1633 1824 1709 1632 1751
8 1594 1463 1589 1710 1716 1593 1709 1824
8 1752 1633 1710 1825 1634 1507 1590 1711
8 1595 1464 1590 1711 1717 1594 1710 1825
8 1830 1714 1592 1712 1733 1611 1485 1614
8 1603 1477 1593 1716 1725 1607 1715 1834
8 1599 1473 1594 1717 1721 1603 1716 1835
8 1837 1722 1623 1736 1718 1600 1496 1616
8 1719 1601 1722 1837 1597 1471 1600 1718
8 1602 1720 1598 1472 1723 1838 1719 1601
8 1720 1602 1473 1599 1839 1724 1603 1721
8 1723 1605 1726 1840 1601 1475 1604 1722
8 1840 1726 1628 1743 1722 1604 1501 1623
8 1724 1606 1727 1841 1602 1476 1605 1723
8 1725 1607 1728 1842 1603 1477 1606 1724
8 1612 1482 1608 1731 1733 1611 1730 1849
8 1741 1627 1730 1849 1622 1504 1608 1731
8 1613 1483 1609 1732 1734 1612 1731 1850
8 1618 1495 1622 1738 1732 1609 1731 1850
8 1615 1486 1612 1734 1735 1614 1733 1851
8 1852 1743 1626 1737 1736 1623 1499 1617
8 1853 1745 1625 1739 1737 1626 1500 1619
8 1855 1742 1622 1738 1740 1624 1497 1621
8 1856 1744 1624 1740 1739 1625 1498 1620
8 1741 1627 1504 1622 1857 1746 1631 1742
8 1742 1631 1505 1624 1858 1749 1630 1744
8 1859 1747 1629 1745 1743 1628 1502 1626
8 1860 1748 1630 1744 1745 1629 1503 1625
8 1644 1528 1651 1761 1751 1632 1750 1865
8 1637 1520 1644 1755 1752 1633 1751 1866
8 1754 1646 1522 1636 1867 1760 1643 1753
8 1657 1535 1658 1774 1753 1643 1760 1867
8 1639 1523 1646 1754 1756 1648 1763 1868
8 1641 1521 1645 1758 1755 1644 1761 1869
8 1757 1649 1526 1640 1870 1766 1648 1756
8 1642 1525 1649 1757 1759 1647 1765 1871
8 1759 1647 1762 1872 1642 1525 1645 1758
8 1760 1650 1767 1874 1646 1531 1655 1763
8 1658 1536 1659 1775 1760 1650 1767 1874
8 1762 1652 1768 1875 1645 1529 1651 1761
8 1764 1653 1769 1876 1647 1530 1652 1762
8 1656 1766 1877 1773 1532 1648 1763 1655
8 1771 1879 1765 1654 1653 1764 1647 1530
8 1533 1649 1765 1654 1656 1766 1880 1772
8 1662 1542 1664 1778 1774 1658 1775 1887
8 1664 1543 1665 1779 1775 1659 1776 1888
8 1778 1664 1541 1661 1890 1779 1663 1777
8 1666 1548 1668 1781 1777 1663 1779 1890
8 1782 1669 1780 1891 1668 1550 1665 1779
8 1670 1551 1671 1784 1781 1668 1782 1893
8 1671 1552 1672 1785 1782 1669 1783 1894
8 1790 1675 1785 1896 1674 1554 1671 1784
8 1675 1555 1673 1789 1785 1672 1786 1897
8 1792 1676 1788 1903 1678 1556 1673 1789
8 1795 1678 1789 1904 1681 1558 1675 1790
8 1792 1676 1556 1678 1906 1791 1677 1794
8 1680 1557 1679 1797 1794 1677 1793 1909
8 1910 1794 1678 1795 1798 1680 1558 1681
8 1683 1559 1682 1800 1797 1679 1796 1912
8 1684 1560 1683 1801 1798 1680 1797 1913
8 1686 1564 1687 1803 1800 1682 1799 1915
8 1685 1563 1686 1802 1801 1683 1800 1916
8 1688 1566 1689 1805 1802 1686 1803 1917
8 1689 1567 1690 1806 1803 1687 1804 1918
8 1691 1569 1692 1808 1805 1689 1806 1920
8 1692 1570 1693 1809 1806 1690 1807 1921
8 1694 1572 1695 1810 1808 1692 1809 1922
8 1829 1713 1811 1926 1712 1592 1697 1813
8 1813 1697 1812 1928 1699 1577 1698 1815
8 1735 1614 1712 1828 1816 1699 1813 1929
8 1815 1698 1814 1931 1701 1578 1700 1818
8 1702 1579 1699 1816 1819 1701 1815 1932
8 1818 1700 1817 1933 1704 1580 1703 1820
8 1819 1701 1818 1934 1705 1581 1704 1821
8 1821 1704 1820 1935 1707 1584 1706 1822
8 1824 1709 1632 1751 1937 1823 1750 1865
8 1716 1593 1709 1824 1834 1715 1823 1937
8 1825 1710 1633 1752 1938 1824 1751 1866
8 1717 1594 1710 1825 1835 1716 1824 1938
8 1945 1830 1712 1828 1851 1733 1614 1735
8 1830 1714 1831 1946 1712 1592 1713 1829
8 1947 1832 1714 1830 1849 1730 1611 1733
8 1843 1729 1607 1725 1950 1833 1715 1834
8 1721 1603 1716 1835 1836 1725 1834 1951
8 1836 1725 1842 1953 1721 1603 1724 1839
8 1723 1838 1719 1601 1840 1954 1837 1722
8 1954 1840 1743 1852 1837 1722 1623 1736
8 1724 1839 1720 1602 1841 1955 1838 1723
8 1841 1727 1844 1956 1723 1605 1726 1840
8 1956 1844 1747 1859 1840 1726 1628 1743
8 1728 1842 1724 1606 1845 1957 1841 1727
8 1725 1607 1729 1843 1842 1728 1846 1958
8 1741 1627 1746 1857 1849 1730 1848 1965
8 1734 1612 1731 1850 1851 1733 1849 1966
8 1854 1741 1849 1966 1738 1622 1731 1850
8 1967 1859 1745 1853 1852 1743 1626 1737
8 1968 1860 1744 1856 1853 1745 1625 1739
8 1854 1741 1622 1738 1969 1857 1742 1855
8 1855 1742 1624 1740 1970 1858 1744 1856
8 1857 1746 1631 1742 1971 1861 1749 1858
8 1858 1749 1630 1744 1972 1863 1748 1860
8 1859 1747 1862 1973 1745 1629 1748 1860
8 1875 1768 1864 1977 1761 1651 1750 1865
8 1755 1644 1761 1869 1866 1751 1865 1978
8 1867 1760 1874 1979 1754 1646 1763 1868
8 1774 1658 1775 1887 1867 1760 1874 1979
8 1870 1766 1648 1756 1980 1877 1763 1868
8 1872 1762 1875 1981 1758 1645 1761 1869
8 1757 1649 1766 1870 1871 1765 1880 1982
8 1983 1879 1764 1873 1871 1765 1647 1759
8 1873 1764 1876 1984 1759 1647 1762 1872
8 1877 1773 1655 1763 1986 1881 1767 1874
8 1775 1659 1776 1888 1874 1767 1881 1986
8 1876 1769 1882 1987 1762 1652 1768 1875
8 1878 1770 1883 1988 1764 1653 1769 1876
8 1880 1772 1656 1766 1989 1886 1773 1877
8 1878 1770 1653 1764 1990 1884 1771 1879
8 1765 1654 1772 1880 1879 1771 1885 1991
8 1778 1664 1779 1890 1887 1775 1888 1997
8 1998 1889 1776 1888 1891 1780 1665 1779
8 1893 1782 1891 2000 1781 1668 1779 1890
8 1894 1783 1892 2001 1782 1669 1780 1891
8 1784 1671 1785 1896 1893 1782 1894 2003
8 1897 1786 1895 2004 1785 1672 1783 1894
8 1790 1675 1789 1904 1896 1785 1897 2006
8 1901 1787 1898 2007 1789 1673 1786 1897
8 1903 1788 1900 2013 1789 1673 1787 1901
8 1792 1676 1791 1906 1903 1788 1902 2016
8 1907 1792 1903 2017 1795 1678 1789 1904
8 1906 1791 1677 1794 2019 1905 1793 1909
8 1907 1792 1678 1795 2020 1906 1794 1910
8 1797 1679 1796 1912 1909 1793 1908 2022
8 1798 1680 1797 1913 1910 1794 1909 2023
8 1800 1682 1799 1915 1912 1796 1911 2025
8 1801 1683 1800 1916 1913 1797 1912 2026
8 1803 1687 1804 1918 1915 1799 1914 2028
8 1802 1686 1803 1917 1916 1800 1915 2029
8 1805 1689 1806 1920 1917 1803 1918 2030
8 1806 1690 1807 1921 1918 1804 1919 2031
8 1808 1692 1809 1922 1920 1806 1921 2032
8 1939 1826 1924 2037 1829 1713 1811 1926
8 1926 1811 1925 2039 1813 1697 1812 1928
8 1944 1829 1926 2040 1828 1712 1813 1929
8 1928 1812 1927 2042 1815 1698 1814 1931
8 1929 1813 1928 2043 1816 1699 1815 1932
8 1931 1814 1930 2044 1818 1700 1817 1933
8 1932 1815 1931 2045 1819 1701 1818 1934
8 1934 1818 1933 2046 1821 1704 1820 1935
8 2048 1936 1823 1937 1977 1864 1750 1865
8 1950 1833 1715 1834 2048 1936 1823 1937
8 1938 1824 1751 1866 2049 1937 1865 1978
8 1835 1716 1824 1938 1951 1834 1937 2049
8 1939 1826 1713 1829 2053 1942 1831 1946
8 1940 1827 1923 2035 2053 1942 1826 1939
8 1945 1830 1946 2058 1828 1712 1829 1944
8 2059 1947 1830 1945 1966 1849 1733 1851
8 1947 1832 1730 1849 2060 1948 1848 1965
8 1947 1832 1948 2060 1830 1714 1831 1946
8 1959 1847 1729 1843 2063 1949 1833 1950
8 1952 1843 1725 1836 2064 1950 1834 1951
8 1836 1725 1843 1952 1953 1842 1958 2066
8 1953 1842 1957 2067 1839 1724 1841 1955
8 1841 1955 1838 1723 1956 2068 1954 1840
8 2068 1956 1859 1967 1954 1840 1743 1852
8 1956 1844 1960 2069 1859 1747 1862 1973
8 1845 1957 1841 1727 1960 2069 1956 1844
8 1728 1842 1957 1845 1846 1958 2071 1961
8 1962 2072 1959 1847 1846 1958 1843 1729
8 1971 1861 1964 2077 1857 1746 1848 1965
8 1854 1741 1857 1969 1966 1849 1965 2078
8 1967 1859 1973 2079 1853 1745 1860 1968
8 1970 1858 1744 1856 2080 1972 1860 1968
8 1969 1857 1742 1855 2081 1971 1858 1970
8 1971 1861 1749 1858 2082 1974 1863 1972
8 1973 1862 1975 2083 1860 1748 1863 1972
8 1987 1882 1976 2086 1875 1768 1864 1977
8 1981 1875 1977 2087 1869 1761 1865 1978
8 1980 1877 1763 1868 2088 1986 1874 1979
8 1887 1775 1888 1997 1979 1874 1986 2088
8 1880 1982 2089 1989 1766 1870 1980 1877
8 1984 1876 1987 2090 1872 1762 1875 1981
8 1765 1871 1983 1879 1880 1982 2091 1991
8 1985 1878 1764 1873 2092 1990 1879 1983
8 1985 1878 1988 2093 1873 1764 1876 1984
8 2094 1992 1881 1986 1998 1889 1776 1888
8 1986 1881 1992 2094 1877 1773 1886 1989
8 1988 1883 1993 2095 1876 1769 1882 1987
8 1878 1770 1884 1990 1988 1883 1994 2096
8 1991 1885 1772 1880 2097 1996 1886 1989
8 1879 1771 1885 1991 1990 1884 1995 2098
8 2103 1998 1888 1997 2000 1891 1779 1890
8 2104 1999 1889 1998 2001 1892 1780 1891
8 2003 1894 2001 2106 1893 1782 1891 2000
8 2004 1895 2002 2107 1894 1783 1892 2001
8 2006 1897 2004 2109 1896 1785 1894 2003
8 2007 1898 2005 2110 1897 1786 1895 2004
8 2014 1901 2007 2112 1904 1789 1897 2006
8 2011 1899 2008 2113 1901 1787 1898 2007
8 2119 2010 1899 2011 2013 1900 1787 1901
8 2016 1902 2012 2122 1903 1788 1900 2013
8 2017 1903 2013 2123 1904 1789 1901 2014
8 1906 1791 1905 2019 2016 1902 2015 2125
8 1907 1792 1906 2020 2017 1903 2016 2126
8 1909 1793 1908 2022 2019 1905 2018 2128
8 2020 1906 1794 1910 2129 2019 1909 2023
8 1912 1796 1911 2025 2022 1908 2021 2131
8 1913 1797 1912 2026 2023 1909 2022 2132
8 1915 1799 1914 2028 2025 1911 2024 2134
8 1916 1800 1915 2029 2026 1912 2025 2135
8 1918 1804 1919 2031 2028 1914 2027 2136
8 1917 1803 1918 2030 2029 1915 2028 2137
8 1920 1806 1921 2032 2030 1918 2031 2138
8 1940 1827 1941 2054 2035 1923 2033 2140
8 2035 1923 2034 2143 1939 1826 1924 2037
8 2037 1924 2036 2146 1926 1811 1925 2039
8 2051 1939 2037 2147 1944 1829 1926 2040
8 2039 1925 2038 2149 1928 1812 1927 2042
8 2040 1926 2039 2150 1929 1813 1928 2043
8 2042 1927 2041 2151 1931 1814 1930 2044
8 2043 1928 2042 2152 1932 1815 1931 2045
8 2045 1931 2044 2153 1934 1818 1933 2046
8 2155 2047 1936 2048 2086 1976 1864 1977
8 2063 1949 1833 1950 2155 2047 1936 2048
8 2156 2048 1937 2049 2087 1977 1865 1978
8 2064 1950 1834 1951 2156 2048 1937 2049
8 2051 1939 1829 1944 2160 2053 1946 2058
8 2052 1940 2035 2144 2160 2053 1939 2051
8 2053 1942 1831 1946 2163 2057 1948 2060
8 2055 1943 1827 1940 2163 2057 1942 2053
8 2055 1943 2056 2164 1940 1827 1941 2054
8 2059 1947 1849 1966 2167 2060 1965 2078
8 2059 1947 2060 2167 1945 1830 1946 2058
8 2077 1964 2061 2168 1965 1848 1948 2060
8 2070 1963 1847 1959 2170 2062 1949 2063
8 2065 1959 1843 1952 2171 2063 1950 2064
8 2173 2072 1958 2066 2065 1959 1843 1952
8 1953 1842 1958 2066 2067 1957 2071 2174
8 2068 1956 2069 2175 1967 1859 1973 2079
8 2067 1957 2069 2175 1955 1841 1956 2068
8 1845 1957 2069 1960 1961 2071 2176 2073
8 2069 1960 2073 2176 1973 1862 1975 2083
8 2070 1963 2075 2177 1959 1847 1962 2072
8 1846 1958 2071 1961 1962 2072 2178 2074
8 2077 1964 1861 1971 2182 2076 1974 2082
8 2081 1971 2077 2183 1969 1857 1965 2078
8 2079 1973 2083 2184 1968 1860 1972 2080
8 2081 1971 1858 1970 2185 2082 1972 2080
8 2083 1975 2084 2186 1972 1863 1974 2082
8 2086 1976 1882 1987 2189 2085 1993 2095
8 2090 1987 2086 2190 1981 1875 1977 2087
8 2191 2094 1986 2088 2103 1998 1888 1997
8 2088 1986 2094 2191 1980 1877 1989 2089
8 1991 2091 2192 2097 1880 1982 2089 1989
8 2093 1988 2095 2193 1984 1876 1987 2090
8 1879 1983 2092 1990 1991 2091 2194 2098
8 1985 1878 1990 2092 2093 1988 2096 2195
8 2097 1996 1886 1989 2196 2099 1992 2094
8 2196 2099 1992 2094 2104 1999 1889 1998
8 1994 2096 1988 1883 2100 2197 2095 1993
8 2096 1994 1884 1990 2198 2101 1995 2098
8 1995 2098 2199 2102 1885 1991 2097 1996
8 2203 2104 1998 2103 2106 2001 1891 2000
8 2107 2002 2105 2204 2001 1892 1999 2104
8 2109 2004 2107 2206 2003 1894 2001 2106
8 2110 2005 2108 2207 2004 1895 2002 2107
8 2112 2007 2110 2209 2006 1897 2004 2109
8 2113 2008 2111 2210 2007 1898 2005 2110
8 2120 2011 2113 2212 2014 1901 2007 2112
8 2117 2009 2114 2213 2011 1899 2008 2113
8 2219 2116 2009 2117 2119 2010 1899 2011
8 2222 2118 2010 2119 2122 2012 1900 2013
8 2223 2119 2011 2120 2123 2013 1901 2014
8 2016 1902 2015 2125 2122 2012 2121 2225
8 2126 2016 2122 2226 2017 1903 2013 2123
8 2019 1905 2018 2128 2125 2015 2124 2228
8 2020 1906 2019 2129 2126 2016 2125 2229
8 2022 1908 2021 2131 2128 2018 2127 2231
8 2023 1909 2022 2132 2129 2019 2128 2232
8 2025 1911 2024 2134 2131 2021 2130 2234
8 2026 1912 2025 2135 2132 2022 2131 2235
8 1914 2028 2134 2024 2027 2136 2236 2133
8 2029 1915 2028 2137 2135 2025 2134 2237
8 2030 1918 2031 2138 2137 2028 2136 2238
8 2157 2050 2139 2240 2054 1941 2033 2140
8 2052 1940 2054 2161 2144 2035 2140 2242
8 2140 2033 2141 2243 2035 1923 2034 2143
8 2143 2034 2142 2246 2037 1924 2036 2146
8 2144 2035 2143 2247 2051 1939 2037 2147
8 2146 2036 2145 2249 2039 1925 2038 2149
8 2147 2037 2146 2250 2040 1926 2039 2150
8 2149 2038 2148 2251 2042 1927 2041 2151
8 2150 2039 2149 2252 2043 1928 2042 2152
8 2152 2042 2151 2253 2045 1931 2044 2153
8 2255 2154 2047 2155 2189 2085 1976 2086
8 2170 2062 1949 2063 2255 2154 2047 2155
8 2256 2155 2048 2156 2190 2086 1977 2087
8 2171 2063 1950 2064 2256 2155 2048 2156
8 2258 2159 2050 2157 2164 2056 1941 2054
8 2160 2053 1946 2058 2262 2163 2060 2167
8 2162 2055 1940 2052 2262 2163 2053 2160
8 2162 2055 2164 2263 2052 1940 2054 2161
8 2163 2057 1948 2060 2264 2165 2061 2168
8 2055 1943 2057 2163 2164 2056 2165 2264
8 2182 2076 2166 2268 2077 1964 2061 2168
8 2183 2077 2168 2269 2078 1965 2060 2167
8 2070 1963 2062 2170 2177 2075 2169 2271
8 2172 2070 1959 2065 2272 2170 2063 2171
8 2172 2070 2177 2273 2065 1959 2072 2173
8 2066 1958 2072 2173 2174 2071 2178 2274
8 2067 1957 2071 2174 2175 2069 2176 2275
8 2175 2069 2176 2275 2079 1973 2083 2184
8 2071 1961 2074 2178 2176 2073 2179 2276
8 2176 2073 2179 2276 2083 1975 2084 2186
8 2072 1962 2075 2177 2178 2074 2180 2277
8 2182 2076 1974 2082 2280 2181 2084 2186
8 2183 2077 1971 2081 2281 2182 2082 2185
8 2184 2083 2186 2282 2080 1972 2082 2185
8 2189 2085 1993 2095 2285 2188 2100 2197
8 2190 2086 1987 2090 2286 2189 2095 2193
8 2192 2097 1989 2089 2287 2196 2094 2191
8 2287 2196 2094 2191 2203 2104 1998 2103
8 2194 2098 1991 2091 2288 2199 2097 2192
8 2195 2096 2197 2289 2093 1988 2095 2193
8 2096 2195 2290 2198 1990 2092 2194 2098
8 2097 1996 2099 2196 2199 2102 2200 2291
8 2196 2099 1999 2104 2291 2200 2105 2204
8 2100 2197 2292 2201 1994 2096 2198 2101
8 1995 2098 2198 2101 2102 2199 2293 2202
8 2206 2107 2204 2296 2106 2001 2104 2203
8 2207 2108 2205 2297 2107 2002 2105 2204
8 2209 2110 2207 2299 2109 2004 2107 2206
8 2210 2111 2208 2300 2110 2005 2108 2207
8 2212 2113 2210 2302 2112 2007 2110 2209
8 2213 2114 2211 2303 2113 2008 2111 2210
8 2220 2117 2213 2305 2120 2011 2113 2212
8 2216 2115 2214 2306 2117 2009 2114 2213
8 2216 2115 2009 2117 2311 2217 2116 2219
8 2219 2116 2010 2119 2314 2218 2118 2222
8 2315 2219 2117 2220 2223 2119 2011 2120
8 2122 2012 2121 2225 2222 2118 2221 2317
8 2318 2222 2119 2223 2226 2122 2013 2123
8 2125 2015 2124 2228 2225 2121 2224 2320
8 2126 2016 2125 2229 2226 2122 2225 2321
8 2128 2018 2127 2231 2228 2124 2227 2323
8 2129 2019 2128 2232 2229 2125 2228 2324
8 2131 2021 2130 2234 2231 2127 2230 2326
8 2132 2022 2131 2235 2232 2128 2231 2327
8 2134 2024 2133 2236 2234 2130 2233 2328
8 2135 2025 2134 2237 2235 2131 2234 2329
8 2137 2028 2136 2238 2237 2134 2236 2330
8 2157 2050 2158 2259 2240 2139 2239 2332
8 2257 2157 2240 2334 2161 2054 2140 2242
8 2240 2139 2241 2335 2140 2033 2141 2243
8 2242 2140 2243 2337 2144 2035 2143 2247
8 2243 2141 2244 2338 2143 2034 2142 2246
8 2246 2142 2245 2341 2146 2036 2145 2249
8 2247 2143 2246 2342 2147 2037 2146 2250
8 2249 2145 2248 2343 2149 2038 2148 2251
8 2250 2146 2249 2344 2150 2039 2149 2252
8 2252 2149 2251 2345 2152 2042 2151 2253
8 2169 2271 2347 2254 2062 2170 2255 2154
8 2189 2085 2188 2285 2255 2154 2254 2347
8 2348 2255 2155 2256 2286 2189 2086 2190
8 2272 2170 2063 2171 2348 2255 2155 2256
8 2349 2258 2157 2257 2263 2164 2054 2161
8 2258 2159 2261 2351 2157 2050 2158 2259
8 2258 2159 2056 2164 2351 2261 2165 2264
8 2262 2163 2060 2167 2355 2264 2168 2269
8 2162 2055 2163 2262 2263 2164 2264 2355
8 2357 2266 2165 2264 2268 2166 2061 2168
8 2268 2166 2076 2182 2361 2267 2181 2280
8 2281 2182 2268 2362 2183 2077 2168 2269
8 2271 2169 2270 2364 2177 2075 2180 2277
8 2172 2070 2170 2272 2273 2177 2271 2365
8 2072 2173 2274 2178 2177 2273 2366 2277
8 2071 2174 2275 2176 2178 2274 2367 2276
8 2275 2176 2276 2367 2184 2083 2186 2282
8 2283 2187 2084 2186 2368 2278 2179 2276
8 2178 2074 2180 2277 2276 2179 2278 2368
8 2283 2187 2279 2370 2186 2084 2181 2280
8 2281 2182 2082 2185 2371 2280 2186 2282
8 2188 2285 2374 2284 2100 2197 2292 2201
8 2286 2189 2095 2193 2375 2285 2197 2289
8 2192 2097 2196 2287 2288 2199 2291 2376
8 2287 2196 2104 2203 2376 2291 2204 2296
8 2194 2098 2199 2288 2290 2198 2293 2377
8 2289 2197 2096 2195 2378 2292 2198 2290
8 2291 2200 2105 2204 2379 2294 2205 2297
8 2199 2102 2200 2291 2293 2202 2294 2379
8 2198 2101 2202 2293 2292 2201 2295 2380
8 2299 2207 2297 2383 2206 2107 2204 2296
8 2300 2208 2298 2384 2207 2108 2205 2297
8 2302 2210 2300 2386 2209 2110 2207 2299
8 2303 2211 2301 2387 2210 2111 2208 2300
8 2305 2213 2303 2389 2212 2113 2210 2302
8 2306 2214 2304 2390 2213 2114 2211 2303
8 2310 2216 2306 2392 2220 2117 2213 2305
8 2308 2215 2307 2393 2216 2115 2214 2306
8 2308 2215 2115 2216 2396 2309 2217 2311
8 2310 2216 2117 2220 2398 2311 2219 2315
8 2311 2217 2116 2219 2399 2312 2218 2314
8 2314 2218 2118 2222 2402 2313 2221 2317
8 2315 2219 2119 2223 2403 2314 2222 2318
8 2225 2121 2224 2320 2317 2221 2316 2405
8 2226 2122 2225 2321 2318 2222 2317 2406
8 2228 2124 2227 2323 2320 2224 2319 2408
8 2229 2125 2228 2324 2321 2225 2320 2409
8 2231 2127 2230 2326 2323 2227 2322 2411
8 2232 2128 2231 2327 2324 2228 2323 2412
8 2234 2130 2233 2328 2326 2230 2325 2413
8 2235 2131 2234 2329 2327 2231 2326 2414
8 2237 2134 2236 2330 2329 2234 2328 2415
8 2259 2158 2260 2352 2332 2239 2331 2417
8 2257 2157 2259 2350 2334 2240 2332 2419
8 2240 2139 2239 2332 2335 2241 2333 2420
8 2334 2240 2335 2422 2242 2140 2243 2337
8 2335 2241 2336 2423 2243 2141 2244 2338
8 2337 2243 2338 2425 2247 2143 2246 2342
8 2338 2244 2339 2426 2246 2142 2245 2341
8 2341 2245 2340 2428 2249 2145 2248 2343
8 2342 2246 2341 2429 2250 2146 2249 2344
8 2344 2249 2343 2430 2252 2149 2251 2345
8 2188 2285 2347 2254 2284 2374 2432 2346
8 2347 2254 2346 2432 2271 2169 2270 2364
8 2365 2271 2170 2272 2433 2347 2255 2348
8 2286 2189 2285 2375 2348 2255 2347 2433
8 2349 2258 2351 2435 2257 2157 2259 2350
8 2349 2258 2164 2263 2435 2351 2264 2355
8 2259 2158 2261 2351 2352 2260 2354 2437
8 2356 2265 2354 2437 2264 2165 2261 2351
8 2441 2357 2264 2355 2362 2268 2168 2269
8 2356 2265 2165 2264 2442 2358 2266 2357
8 2443 2359 2266 2357 2361 2267 2166 2268
8 2370 2279 2360 2446 2280 2181 2267 2361
8 2362 2268 2182 2281 2447 2361 2280 2371
8 2180 2277 2368 2278 2270 2364 2449 2363
8 2271 2365 2273 2177 2364 2450 2366 2277
8 2372 2283 2186 2282 2451 2368 2276 2367
8 2178 2274 2367 2276 2277 2366 2451 2368
8 2283 2187 2278 2368 2370 2279 2369 2452
8 2372 2283 2370 2453 2282 2186 2280 2371
8 2284 2374 2455 2373 2201 2292 2380 2295
8 2375 2285 2197 2289 2456 2374 2292 2378
8 2376 2291 2204 2296 2457 2379 2297 2383
8 2288 2199 2291 2376 2377 2293 2379 2457
8 2198 2290 2378 2292 2293 2377 2458 2380
8 2293 2202 2294 2379 2380 2295 2381 2459
8 2384 2298 2381 2459 2297 2205 2294 2379
8 2386 2300 2384 2463 2299 2207 2297 2383
8 2387 2301 2385 2464 2300 2208 2298 2384
8 2389 2303 2387 2466 2302 2210 2300 2386
8 2390 2304 2388 2467 2303 2211 2301 2387
8 2392 2306 2390 2469 2305 2213 2303 2389
8 2393 2307 2391 2470 2306 2214 2304 2390
8 2395 2308 2393 2472 2310 2216 2306 2392
8 2308 2215 2309 2396 2393 2307 2394 2473
8 2395 2308 2216 2310 2475 2396 2311 2398
8 2396 2309 2217 2311 2476 2397 2312 2399
8 2398 2311 2219 2315 2478 2399 2314 2403
8 2399 2312 2218 2314 2479 2400 2313 2402
8 2317 2221 2316 2405 2402 2313 2401 2482
8 2403 2314 2222 2318 2483 2402 2317 2406
8 2320 2224 2319 2408 2405 2316 2404 2485
8 2321 2225 2320 2409 2406 2317 2405 2486
8 2323 2227 2322 2411 2408 2319 2407 2488
8 2324 2228 2323 2412 2409 2320 2408 2489
8 2326 2230 2325 2413 2411 2322 2410 2490
8 2327 2231 2326 2414 2412 2323 2411 2491
8 2329 2234 2328 2415 2414 2326 2413 2492
8 2417 2331 2260 2352 2494 2416 2353 2438
8 2350 2259 2352 2436 2419 2332 2417 2496
8 2332 2239 2331 2417 2420 2333 2418 2497
8 2334 2240 2332 2419 2422 2335 2420 2499
8 2420 2333 2421 2500 2335 2241 2336 2423
8 2422 2335 2423 2502 2337 2243 2338 2425
8 2423 2336 2424 2503 2338 2244 2339 2426
8 2425 2338 2426 2505 2342 2246 2341 2429
8 2426 2339 2427 2506 2341 2245 2340 2428
8 2429 2341 2428 2507 2344 2249 2343 2430
8 2432 2346 2284 2374 2509 2431 2373 2455
8 2432 2346 2431 2509 2364 2270 2363 2449
8 2375 2285 2374 2456 2433 2347 2432 2510
8 2347 2433 2365 2271 2432 2510 2450 2364
8 2350 2259 2351 2435 2436 2352 2437 2514
8 2440 2356 2437 2514 2355 2264 2351 2435
8 2352 2260 2354 2437 2438 2353 2439 2516
8 2356 2265 2358 2442 2437 2354 2439 2516
8 2440 2356 2264 2355 2518 2442 2357 2441
8 2519 2443 2357 2441 2447 2361 2268 2362
8 2443 2359 2444 2520 2357 2266 2358 2442
8 2443 2359 2267 2361 2520 2444 2360 2446
8 2446 2360 2279 2370 2523 2445 2369 2452
8 2453 2370 2446 2524 2371 2280 2361 2447
8 2449 2363 2448 2525 2368 2278 2369 2452
8 2366 2277 2364 2450 2451 2368 2449 2526
8 2372 2283 2368 2451 2453 2370 2452 2527
8 2455 2373 2295 2380 2529 2454 2382 2460
8 2456 2374 2292 2378 2530 2455 2380 2458
8 2377 2293 2379 2457 2458 2380 2459 2531
8 2463 2384 2459 2531 2383 2297 2379 2457
8 2533 2461 2382 2460 2459 2381 2295 2380
8 2464 2385 2461 2533 2384 2298 2381 2459
8 2466 2387 2464 2537 2386 2300 2384 2463
8 2467 2388 2465 2538 2387 2301 2385 2464
8 2469 2390 2467 2540 2389 2303 2387 2466
8 2470 2391 2468 2541 2390 2304 2388 2467
8 2472 2393 2470 2543 2392 2306 2390 2469
8 2393 2307 2394 2473 2470 2391 2471 2544
8 2395 2308 2396 2475 2472 2393 2473 2546
8 2396 2309 2397 2476 2473 2394 2474 2547
8 2475 2396 2311 2398 2549 2476 2399 2478
8 2476 2397 2312 2399 2550 2477 2400 2479
8 2478 2399 2314 2403 2552 2479 2402 2483
8 2479 2400 2313 2402 2553 2480 2401 2482
8 2405 2316 2404 2485 2482 2401 2481 2556
8 2406 2317 2405 2486 2483 2402 2482 2557
8 2408 2319 2407 2488 2485 2404 2484 2559
8 2409 2320 2408 2489 2486 2405 2485 2560
8 2411 2322 2410 2490 2488 2407 2487 2561
8 2412 2323 2411 2491 2489 2408 2488 2562
8 2414 2326 2413 2492 2491 2411 2490 2563
8 2513 2434 2493 2565 2438 2353 2416 2494
8 2496 2417 2352 2436 2567 2494 2438 2515
8 2494 2416 2495 2568 2417 2331 2418 2497
8 2419 2332 2417 2496 2499 2420 2497 2570
8 2497 2418 2498 2571 2420 2333 2421 2500
8 2499 2420 2500 2573 2422 2335 2423 2502
8 2500 2421 2501 2574 2423 2336 2424 2503
8 2502 2423 2503 2576 2425 2338 2426 2505
8 2503 2424 2504 2577 2426 2339 2427 2506
8 2505 2426 2506 2578 2429 2341 2428 2507
8 2509 2431 2373 2455 2580 2508 2454 2529
8 2509 2431 2508 2580 2449 2363 2448 2525
8 2432 2510 2581 2509 2374 2456 2530 2455
8 2432 2510 2450 2364 2509 2581 2526 2449
8 2583 2511 2434 2513 2516 2439 2353 2438
8 2436 2352 2437 2514 2515 2438 2516 2588
8 2440 2356 2442 2518 2514 2437 2516 2588
8 2442 2358 2444 2520 2516 2439 2517 2589
8 2519 2443 2520 2591 2441 2357 2442 2518
8 2519 2443 2361 2447 2591 2520 2446 2524
8 2446 2360 2445 2523 2520 2444 2521 2592
8 2525 2448 2522 2593 2452 2369 2445 2523
8 2524 2446 2370 2453 2594 2523 2452 2527
8 2526 2449 2525 2595 2451 2368 2452 2527
8 2534 2462 2528 2597 2460 2382 2454 2529
8 2530 2455 2380 2458 2598 2529 2460 2532
8 2599 2533 2460 2532 2531 2459 2380 2458
8 2537 2464 2533 2599 2463 2384 2459 2531
8 2534 2462 2382 2460 2601 2535 2461 2533
8 2538 2465 2535 2601 2464 2385 2461 2533
8 2540 2467 2538 2604 2466 2387 2464 2537
8 2541 2468 2539 2605 2467 2388 2465 2538
8 2543 2470 2541 2607 2469 2390 2467 2540
8 2470 2391 2471 2544 2541 2468 2542 2608
8 2472 2393 2473 2546 2543 2470 2544 2610
8 2473 2394 2474 2547 2544 2471 2545 2611
8 2475 2396 2476 2549 2546 2473 2547 2613
8 2476 2397 2477 2550 2547 2474 2548 2614
8 2549 2476 2399 2478 2616 2550 2479 2552
8 2479 2400 2480 2553 2550 2477 2551 2617
8 2552 2479 2402 2483 2619 2553 2482 2557
8 2482 2401 2481 2556 2553 2480 2554 2620
8 2485 2404 2484 2559 2556 2481 2555 2623
8 2486 2405 2485 2560 2557 2482 2556 2624
8 2488 2407 2487 2561 2559 2484 2558 2625
8 2489 2408 2488 2562 2560 2485 2559 2626
8 2491 2411 2490 2563 2562 2488 2561 2627
8 2513 2434 2512 2585 2565 2493 2564 2630
8 2586 2513 2565 2632 2515 2438 2494 2567
8 2565 2493 2566 2633 2494 2416 2495 2568
8 2567 2494 2568 2635 2496 2417 2497 2570
8 2568 2495 2569 2636 2497 2418 2498 2571
8 2570 2497 2571 2638 2499 2420 2500 2573
8 2571 2498 2572 2639 2500 2421 2501 2574
8 2573 2500 2574 2641 2502 2423 2503 2576
8 2574 2501 2575 2642 2503 2424 2504 2577
8 2576 2503 2577 2643 2505 2426 2506 2578
8 2597 2528 2579 2645 2529 2454 2508 2580
8 2580 2508 2579 2645 2525 2448 2522 2593
8 2581 2509 2455 2530 2646 2580 2529 2598
8 2581 2509 2580 2646 2526 2449 2525 2595
8 2583 2511 2582 2648 2513 2434 2512 2585
8 2583 2511 2439 2516 2648 2582 2517 2589
8 2649 2583 2513 2586 2588 2516 2438 2515
8 2589 2517 2444 2520 2653 2587 2521 2592
8 2518 2442 2520 2591 2588 2516 2589 2654
8 2593 2522 2590 2655 2523 2445 2521 2592
8 2524 2446 2523 2594 2591 2520 2592 2656
8 2595 2525 2593 2657 2527 2452 2523 2594
8 2602 2536 2596 2659 2534 2462 2528 2597
8 2600 2534 2597 2660 2532 2460 2529 2598
8 2600 2534 2460 2532 2661 2601 2533 2599
8 2604 2538 2601 2661 2537 2464 2533 2599
8 2602 2536 2462 2534 2663 2603 2535 2601
8 2601 2535 2465 2538 2663 2603 2539 2605
8 2607 2541 2605 2665 2540 2467 2538 2604
8 2608 2542 2606 2666 2541 2468 2539 2605
8 2543 2470 2544 2610 2607 2541 2608 2668
8 2544 2471 2545 2611 2608 2542 2609 2669
8 2546 2473 2547 2613 2610 2544 2611 2671
8 2547 2474 2548 2614 2611 2545 2612 2672
8 2549 2476 2550 2616 2613 2547 2614 2674
8 2550 2477 2551 2617 2614 2548 2615 2675
8 2552 2479 2553 2619 2616 2550 2617 2677
8 2553 2480 2554 2620 2617 2551 2618 2678
8 2557 2482 2556 2624 2619 2553 2620 2680
8 2556 2481 2555 2623 2620 2554 2621 2681
8 2559 2484 2558 2625 2623 2555 2622 2683
8 2560 2485 2559 2626 2624 2556 2623 2684
8 2562 2488 2561 2627 2626 2559 2625 2685
8 2690 2629 2564 2630 2650 2584 2512 2585
8 2586 2513 2585 2651 2632 2565 2630 2691
8 2630 2564 2631 2692 2565 2493 2566 2633
8 2632 2565 2633 2694 2567 2494 2568 2635
8 2633 2566 2634 2695 2568 2495 2569 2636
8 2635 2568 2636 2697 2570 2497 2571 2638
8 2636 2569 2637 2698 2571 2498 2572 2639
8 2638 2571 2639 2700 2573 2500 2574 2641
8 2639 2572 2640 2701 2574 2501 2575 2642
8 2641 2574 2642 2702 2576 2503 2577 2643
8 2597 2528 2596 2659 2645 2579 2644 2704
8 2645 2579 2644 2704 2593 2522 2590 2655
8 2660 2597 2645 2705 2598 2529 2580 2646
8 2646 2580 2645 2705 2595 2525 2593 2657
8 2650 2584 2512 2585 2707 2647 2582 2648
8 2648 2582 2517 2589 2707 2647 2587 2653
8 2649 2583 2648 2708 2586 2513 2585 2651
8 2649 2583 2516 2588 2708 2648 2589 2654
8 2655 2590 2652 2710 2592 2521 2587 2653
8 2654 2589 2520 2591 2711 2653 2592 2656
8 2657 2593 2655 2712 2594 2523 2592 2656
8 2602 2536 2603 2663 2659 2596 2658 2714
8 2662 2602 2659 2715 2600 2534 2597 2660
8 2662 2602 2534 2600 2717 2663 2601 2661
8 2661 2601 2538 2604 2717 2663 2605 2665
8 2666 2606 2664 2718 2605 2539 2603 2663
8 2668 2608 2666 2720 2607 2541 2605 2665
8 2608 2542 2609 2669 2666 2606 2667 2721
8 2610 2544 2611 2671 2668 2608 2669 2723
8 2611 2545 2612 2672 2669 2609 2670 2724
8 2613 2547 2614 2674 2671 2611 2672 2726
8 2614 2548 2615 2675 2672 2612 2673 2727
8 2616 2550 2617 2677 2674 2614 2675 2729
8 2617 2551 2618 2678 2675 2615 2676 2730
8 2619 2553 2620 2680 2677 2617 2678 2732
8 2620 2554 2621 2681 2678 2618 2679 2733
8 2624 2556 2623 2684 2680 2620 2681 2735
8 2681 2621 2555 2623 2736 2682 2622 2683
8 2626 2559 2625 2685 2684 2623 2683 2737
8 2688 2628 2584 2650 2740 2686 2647 2707
8 2688 2628 2687 2742 2650 2584 2629 2690
8 2690 2629 2689 2745 2630 2564 2631 2692
8 2746 2690 2630 2691 2709 2650 2585 2651
8 2691 2630 2692 2747 2632 2565 2633 2694
8 2692 2631 2693 2748 2633 2566 2634 2695
8 2694 2633 2695 2750 2635 2568 2636 2697
8 2695 2634 2696 2751 2636 2569 2637 2698
8 2697 2636 2698 2753 2638 2571 2639 2700
8 2698 2637 2699 2754 2639 2572 2640 2701
8 2700 2639 2701 2755 2641 2574 2642 2702
8 2659 2596 2658 2714 2704 2644 2703 2757
8 2704 2644 2703 2757 2655 2590 2652 2710
8 2660 2597 2659 2715 2705 2645 2704 2758
8 2705 2645 2704 2758 2657 2593 2655 2712
8 2759 2706 2647 2707 2710 2652 2587 2653
8 2709 2650 2585 2651 2760 2707 2648 2708
8 2708 2648 2589 2654 2760 2707 2653 2711
8 2712 2655 2710 2761 2656 2592 2653 2711
8 2763 2713 2658 2714 2718 2664 2603 2663
8 2662 2602 2663 2717 2715 2659 2714 2764
8 2720 2666 2718 2767 2665 2605 2663 2717
8 2768 2719 2664 2718 2721 2667 2606 2666
8 2668 2608 2669 2723 2720 2666 2721 2770
8 2669 2609 2670 2724 2721 2667 2722 2771
8 2671 2611 2672 2726 2723 2669 2724 2773
8 2672 2612 2673 2727 2724 2670 2725 2774
8 2674 2614 2675 2729 2726 2672 2727 2776
8 2675 2615 2676 2730 2727 2673 2728 2777
8 2677 2617 2678 2732 2729 2675 2730 2779
8 2678 2618 2679 2733 2730 2676 2731 2780
8 2680 2620 2681 2735 2732 2678 2733 2782
8 2733 2679 2621 2681 2783 2734 2682 2736
8 2735 2681 2623 2684 2784 2736 2683 2737
8 2740 2686 2647 2707 2787 2738 2706 2759
8 2688 2628 2686 2740 2742 2687 2739 2789
8 2743 2688 2650 2709 2790 2740 2707 2760
8 2742 2687 2741 2792 2690 2629 2689 2745
8 2743 2688 2742 2793 2709 2650 2690 2746
8 2745 2689 2744 2795 2692 2631 2693 2748
8 2746 2690 2745 2796 2691 2630 2692 2747
8 2747 2692 2748 2797 2694 2633 2695 2750
8 2748 2693 2749 2798 2695 2634 2696 2751
8 2750 2695 2751 2800 2697 2636 2698 2753
8 2751 2696 2752 2801 2698 2637 2699 2754
8 2753 2698 2754 2802 2700 2639 2701 2755
8 2763 2713 2756 2804 2714 2658 2703 2757
8 2759 2706 2652 2710 2804 2756 2703 2757
8 2715 2659 2714 2764 2758 2704 2757 2805
8 2758 2704 2757 2805 2712 2655 2710 2761
8 2806 2759 2707 2760 2761 2710 2653 2711
8 2765 2716 2762 2808 2718 2664 2713 2763
8 2809 2763 2714 2764 2767 2718 2663 2717
8 2765 2716 2664 2718 2811 2766 2719 2768
8 2813 2768 2718 2767 2770 2721 2666 2720
8 2814 2769 2719 2768 2771 2722 2667 2721
8 2723 2669 2724 2773 2770 2721 2771 2816
8 2724 2670 2725 2774 2771 2722 2772 2817
8 2726 2672 2727 2776 2773 2724 2774 2819
8 2727 2673 2728 2777 2774 2725 2775 2820
8 2729 2675 2730 2779 2776 2727 2777 2822
8 2730 2676 2731 2780 2777 2728 2778 2823
8 2732 2678 2733 2782 2779 2730 2780 2825
8 2780 2731 2679 2733 2826 2781 2734 2783
8 2782 2733 2681 2735 2827 2783 2736 2784
8 2830 2785 2738 2787 2804 2756 2706 2759
8 2789 2739 2686 2740 2832 2786 2738 2787
8 2790 2740 2707 2760 2833 2787 2759 2806
8 2742 2687 2739 2789 2792 2741 2788 2835
8 2743 2688 2740 2790 2793 2742 2789 2836
8 2792 2741 2791 2838 2745 2689 2744 2795
8 2793 2742 2792 2839 2746 2690 2745 2796
8 2795 2744 2794 2841 2748 2693 2749 2798
8 2796 2745 2795 2842 2747 2692 2748 2797
8 2797 2748 2798 2843 2750 2695 2751 2800
8 2798 2749 2799 2844 2751 2696 2752 2801
8 2800 2751 2801 2845 2753 2698 2754 2802
8 2808 2762 2803 2847 2763 2713 2756 2804
8 2809 2763 2804 2848 2764 2714 2757 2805
8 2806 2759 2710 2761 2848 2804 2757 2805
8 2765 2716 2766 2811 2808 2762 2807 2850
8 2810 2765 2808 2851 2767 2718 2763 2809
8 2810 2765 2718 2767 2852 2811 2768 2813
8 2811 2766 2719 2768 2853 2812 2769 2814
8 2855 2814 2768 2813 2816 2771 2721 2770
8 2856 2815 2769 2814 2817 2772 2722 2771
8 2773 2724 2774 2819 2816 2771 2817 2858
8 2774 2725 2775 2820 2817 2772 2818 2859
8 2776 2727 2777 2822 2819 2774 2820 2861
8 2777 2728 2778 2823 2820 2775 2821 2862
8 2779 2730 2780 2825 2822 2777 2823 2864
8 2823 2778 2731 2780 2865 2824 2781 2826
8 2825 2780 2733 2782 2866 2826 2783 2827
8 2869 2828 2785 2830 2847 2803 2756 2804
8 2871 2829 2786 2832 2830 2785 2738 2787
8 2872 2830 2787 2833 2848 2804 2759 2806
8 2789 2739 2786 2832 2835 2788 2831 2874
8 2836 2789 2740 2790 2875 2832 2787 2833
8 2792 2741 2788 2835 2838 2791 2834 2877
8 2793 2742 2789 2836 2839 2792 2835 2878
8 2838 2791 2837 2880 2795 2744 2794 2841
8 2839 2792 2838 2881 2796 2745 2795 2842
8 2841 2794 2840 2882 2798 2749 2799 2844
8 2842 2795 2841 2883 2797 2748 2798 2843
8 2843 2798 2844 2884 2800 2751 2801 2845
8 2886 2846 2803 2847 2850 2807 2762 2808
8 2851 2808 2847 2887 2809 2763 2804 2848
8 2850 2807 2766 2811 2889 2849 2812 2853
8 2810 2765 2811 2852 2851 2808 2850 2890
8 2852 2811 2768 2813 2891 2853 2814 2855
8 2853 2812 2769 2814 2892 2854 2815 2856
8 2894 2856 2814 2855 2858 2817 2771 2816
8 2817 2772 2818 2859 2856 2815 2857 2895
8 2819 2774 2820 2861 2858 2817 2859 2897
8 2820 2775 2821 2862 2859 2818 2860 2898
8 2822 2777 2823 2864 2861 2820 2862 2900
8 2823 2778 2824 2865 2862 2821 2863 2901
8 2864 2823 2780 2825 2902 2865 2826 2866
8 2904 2867 2828 2869 2886 2846 2803 2847
8 2869 2828 2868 2906 2830 2785 2829 2871
8 2907 2869 2830 2872 2887 2847 2804 2848
8 2871 2829 2870 2909 2832 2786 2831 2874
8 2910 2871 2832 2875 2872 2830 2787 2833
8 2835 2788 2831 2874 2877 2834 2873 2912
8 2836 2789 2832 2875 2878 2835 2874 2913
8 2877 2834 2876 2915 2838 2791 2837 2880
8 2839 2792 2835 2878 2881 2838 2877 2916
8 2880 2837 2879 2917 2841 2794 2840 2882
8 2881 2838 2880 2918 2842 2795 2841 2883
8 2883 2841 2882 2919 2843 2798 2844 2884
8 2921 2885 2846 2886 2889 2849 2807 2850
8 2922 2886 2847 2887 2890 2850 2808 2851
8 2889 2849 2812 2853 2924 2888 2854 2892
8 2890 2850 2811 2852 2925 2889 2853 2891
8 2891 2853 2814 2855 2926 2892 2856 2894
8 2892 2854 2815 2856 2927 2893 2857 2895
8 2858 2817 2859 2897 2894 2856 2895 2929
8 2859 2818 2860 2898 2895 2857 2896 2930
8 2861 2820 2862 2900 2897 2859 2898 2932
8 2862 2821 2863 2901 2898 2860 2899 2933
8 2864 2823 2865 2902 2900 2862 2901 2934
8 2904 2867 2846 2886 2936 2903 2885 2921
8 2904 2867 2903 2936 2869 2828 2868 2906
8 2937 2904 2869 2907 2922 2886 2847 2887
8 2906 2868 2905 2939 2871 2829 2870 2909
8 2907 2869 2906 2940 2872 2830 2871 2910
8 2909 2870 2908 2942 2874 2831 2873 2912
8 2910 2871 2909 2943 2875 2832 2874 2913
8 2912 2873 2911 2945 2877 2834 2876 2915
8 2878 2835 2874 2913 2916 2877 2912 2946
8 2915 2876 2914 2947 2880 2837 2879 2917
8 2916 2877 2915 2948 2881 2838 2880 2918
8 2918 2880 2917 2949 2883 2841 2882 2919
8 2921 2885 2849 2889 2951 2920 2888 2924
8 2952 2921 2886 2922 2925 2889 2850 2890
8 2924 2888 2854 2892 2954 2923 2893 2927
8 2925 2889 2853 2891 2955 2924 2892 2926
8 2926 2892 2856 2894 2956 2927 2895 2929
8 2895 2857 2896 2930 2927 2893 2928 2957
8 2897 2859 2898 2932 2929 2895 2930 2959
8 2898 2860 2899 2933 2930 2896 2931 2960
8 2900 2862 2901 2934 2932 2898 2933 2961
8 2936 2903 2885 2921 2963 2935 2920 2951
8 2936 2903 2935 2963 2906 2868 2905 2939
8 2937 2904 2886 2922 2964 2936 2921 2952
8 2937 2904 2936 2964 2907 2869 2906 2940
8 2939 2905 2938 2966 2909 2870 2908 2942
8 2940 2906 2939 2967 2910 2871 2909 2943
8 2942 2908 2941 2969 2912 2873 2911 2945
8 2943 2909 2942 2970 2913 2874 2912 2946
8 2945 2911 2944 2971 2915 2876 2914 2947
8 2946 2912 2945 2972 2916 2877 2915 2948
8 2948 2915 2947 2973 2918 2880 2917 2949
8 2951 2920 2888 2924 2975 2950 2923 2954
8 2952 2921 2889 2925 2976 2951 2924 2955
8 2927 2893 2928 2957 2954 2923 2953 2978
8 2955 2924 2892 2926 2979 2954 2927 2956
8 2929 2895 2930 2959 2956 2927 2957 2980
8 2930 2896 2931 2960 2957 2928 2958 2981
8 2932 2898 2933 2961 2959 2930 2960 2982
8 2951 2920 2950 2975 2963 2935 2962 2984
8 2963 2935 2962 2984 2939 2905 2938 2966
8 2964 2936 2921 2952 2985 2963 2951 2976
8 2964 2936 2963 2985 2940 2906 2939 2967
8 2966 2938 2965 2987 2942 2908 2941 2969
8 2967 2939 2966 2988 2943 2909 2942 2970
8 2969 2941 2968 2989 2945 2911 2944 2971
8 2970 2942 2969 2990 2946 2912 2945 2972
8 2972 2945 2971 2991 2948 2915 2947 2973
8 2954 2923 2953 2978 2975 2950 2974 2993
8 2976 2951 2924 2955 2994 2975 2954 2979
8 2957 2928 2958 2981 2978 2953 2977 2995
8 2956 2927 2957 2980 2979 2954 2978 2996
8 2959 2930 2960 2982 2980 2957 2981 2997
8 2984 2962 2983 2999 2966 2938 2965 2987
8 2975 2950 2974 2993 2984 2962 2983 2999
8 2976 2951 2975 2994 2985 2963 2984 3000
8 2985 2963 2984 3000 2967 2939 2966 2988
8 2987 2965 2986 3001 2969 2941 2968 2989
8 2988 2966 2987 3002 2970 2942 2969 2990
8 2990 2969 2989 3003 2972 2945 2971 2991
8 2978 2953 2977 2995 2993 2974 2992 3004
8 2979 2954 2978 2996 2994 2975 2993 3005
8 2980 2957 2981 2997 2996 2978 2995 3006
8 2974 2993 2999 2983 2992 3004 3007 2998
8 2983 2999 2987 2965 2998 3007 3001 2986
8 3000 2984 2999 3008 2988 2966 2987 3002
8 2994 2975 2993 3005 3000 2984 2999 3008
8 3002 2987 3001 3009 2990 2969 2989 3003
8 2996 2978 2995 3006 3005 2993 3004 3010
8 3005 2993 3004 3010 3008 2999 3007 3011
8 3008 2999 3007 3011 3002 2987 3001 3009

CELL_TYPES 1910
12
12
12
12
12
12
12
12
12
12
12
12
12
12
12
12
12
12
12
12
12
12
12
12
12
12
12
12
12
12
12
12
12
12
12
12
12
12
12
12
12
12
12
12
12
12
12
12
12
12
12
12
12
12
12
12
12
12
12
12
12
12
12
12
12
12
12
12
12
12
12
12
12
12
12
12
12
12
12
12
12
12
12
12
12
12
12
12
12
12
12
12
12
12
12
12
12
12
12
12
12
12
12
12
12
12
12
12
12
12
12
12
12
12
12
12
12
12
12
12
12
12
12
12
12
12
12
12
12
12
12
12
12
12
12
12
12
12
12
12
12
12
12
12
12
12
12
12
12
12
12
12
12
12
12
12
12
12
12
12
12
12
12
12
12
12
12
12
12
12
12
12
12
12
12
12
12
12
12
12
12
12
12
12
12
12
12
12
12
12
12
12
12
12
12
12
12
12
12
12
12
12
12
12
12
12
12
12
12
12
12
12
12
12
12
12
12
12
12
12
12
12
12
12
12
12
12
12
12
12
12
12
12
12
12
12
12
12
12
12
12
12
12
12
12
12
12
12
12
12
12
12
12
12
12
12
12
12
12
12
12
12
12
12
12
12
12
12
12
12
12
12
12
12
12
12
12
12
12
12
12
12
12
12
12
12
12
12
12
12
12
12
12
12
12
12
12
12
12
12
12
12
12
12
12
12
12
12
12
12
12
12
12
12
12
12
12
12
12
12
12
12
12
12
12
12
12
12
12
12
12
12
12
12
12
12
12
12
12
12
12
12
12
12
12
12
12
12
12
12
12
12
12
12
12
12
12
12
12
12
12
12
12
12
12
12
12
12
12
12
12
12
12
12
12
12
12
12
12
12
12
12
12
12
12
12
12
12
12
12
12
12
12
12
12
12
12
12
12
12
12
12
12
12
12
12
12
12
12
12
12
12
12
12
12
12
12
12
12
12
12
12
12
12
12
12
12
12
12
12
12
12
12
12
12
12
12
12
12
12
12
12
12
12
12
12
12
12
12
12
12
12
12
12
12
12
12
12
12
12
12
12
12
12
12
12
12
12
12
12
12
12
12
12
12
12
12
12
12
12
12
12
12
12
12
12
12
12
12
12
12
12
12
12
12
12
12
12
12
12
12
12
12
12
12
12
12
12
12
12
12
12
12
12
12
12
12
12
12
12
12
12
12
12
12
12
12
12
12
12
12
12
12
12
12
12
12
12
12
12
12
12
12
12
12
12
12
12
12
12
12
12
12
12
12
12
12
12
12
12
12
12
12
12
12
12
12
12
12
12
12
12
12
12
12
12
12
12
12
12
12
12
12
12
12
12
12
12
12
12
12
12
12
12
12
12
12
12
12
12
12
12
12
12
12
12
12
12
12
12
12
12
12
12
12
12
12
12
12
12
12
12
12
12
12
12
12
12
12
12
12
12
12
12
12
12
12
12
12
12
12
12
12
12
12
12
12
12
12
12
12
12
12
12
12
12
12
12
12
12
12
12
12
12
12
12
12
12
12
12
12
12
12
12
12
12
12
12
12
12
12
12
12
12
12
12
12
12
12
12
12
12
12
12
12
12
12
12
12
12
12
12
12
12
12
12
12
12
12
12
12
12
12
12
12
12
12
12
12
12
12
12
12
12
12
12
12
12
12
12
12
12
12
12
12
12
12
12
12
12
12
12
12
12
12
12
12
12
12
12
12
12
12
12
12
12
12
12
12
12
12
12
12
12
12
12
12
12
12
12
12
12
12
12
12
12
12
12
12
12
12
12
12
12
12
12
12
12
12
12
12
12
12
12
12
12
12
12
12
12
12
12
12
12
12
12
12
12
12
12
12
12
12
12
12
12
12
12
12
12
12
12
12
12
12
12
12
12
12
12
12
12
12
12
12
12
12
12
12
12
12
12
12
12
12
12
12
12
12
12
12
12
12
12
12
12
12
12
12
12
12
12
12
12
12
12
12
12
12
12
12
12
12
12
12
12
12
12
12
12
12
12
12
12
12
12
12
12
12
12
12
12
12
12
12
12
12
12
12
12
12
12
12
12
12
12
12
12
12
12
12
12
12
12
12
12
12
12
12
12
12
12
12
12
12
12
12
12
12
12
12
12
12
12
12
12
12
12
12
12
12
12
12
12
12
12
12
12
12
12
12
12
12
12
12
12
12
12
12
12
12
12
12
12
12
12
12
12
12
12
12
12
12
12
12
12
12
12
12
12
12
12
12
12
12
12
12
12
12
12
12
12
12
12
12
12
12
12
12
12
12
12
12
12
12
12
12
12
12
12
12
12
12
12
12
12
12
12
12
12
12
12
12
12
12
12
12
12
12
12
12
12
12
12
12
12
12
12
12
12
12
12
12
12
12
12
12
12
12
12
12
12
12
12
12
12
12
12
12
12
12
12
12
12
12
12
12
12
12
12
12
12
12
12
12
12
12
12
12
12
12
12
12
12
12
12
12
12
12
12
12
12
12
12
12
12
12
12
12
12
12
12
12
12
12
12
12
12
12
12
12
12
12
12
12
12
12
12
12
12
12
12
12
12
12
12
12
12
12
12
12
12
12
12
12
12
12
12
12
12
12
12
12
12
12
12
12
12
12
12
12
12
12
12
12
12
12
12
12
12
12
12
12
12
12
12
12
12
12
12
12
12
12
12
12
12
12
12
12
12
12
12
12
12
12
12
12
12
12
12
12
12
12
12
12
12
12
12
12
12
12
12
12
12
12
12
12
12
12
12
12
12
12
12
12
12
12
12
12
12
12
12
12
12
12
12
12
12
12
12
12
12
12
12
12
12
12
12
12
12
12
12
12
12
12
12
12
12
12
12
12
12
12
12
12
12
12
12
12
12
12
12
12
12
12
12
12
12
12
12
12
12
12
12
12
12
12
12
12
12
12
12
12
12
12
12
12
12
12
12
12
12
12
12
12
12
12
12
12
12
12
12
12
12
12
12
12
12
12
12
12
12
12
12
12
12
12
12
12
12
12
12
12
12
12
12
12
12
12
12
12
12
12
12
12
12
12
12
12
12
12
12
12
12
12
12
12
12
12
12
12
12
12
12
12
12
12
12
12
12
12
12
12
12
12
12
12
12
12
12
12
12
12
12
12
12
12
12
12
12
12
12
12
12
12
12
12
12
12
12
12
12
12
12
12
12
12
12
12
12
12
12
12
12
12
12
12
12
12
12
12
12
12
12
12
12
12
12
12
12
12
12
12
12
12
12
12
12
12
12
12
12
12
12
12
12
12
12
12
12
12
12
12
12
12
12
12
12
12
12
12
12
12
12
12
12
12
12
12
12
12
12
12
12
12
12
12
12
12
12
12
12
12
12
12
12
12
12
12
12
12
12
12
12
12
12
12
12
12
12
12
12
12
12
12
12
12
12
12
12
12
12
12
12
12
12
12
12
12
12
12
12
12
12
12
12
12
12
12
12
12
12
12
12
12
12
12
12
12
12
12
12
12
12
12
12
12
12
12
12
12
12
12
12
12
12
12
12
12
12
12
12
12
12
12
12
12
12
12
12
12
12
12
12
12
12
12
12
12
12
12
12
12
12
12
12
12
12
12
12
12
12
12
12
12
12
12
12
12
12
12
12
12
12
12
12
12
12
12
12
12
12
12
12
12
12
12
12
12
12
12
12
12
12
12
12
12
12
12
12
12
12
12
12
12
12
12
12
12
12
12
12
12
12
12
12
12
12
12
12
12
12
12
12
12
12
12
12
12
12
12
12
12
12
12
12
12
12
12
12
12
12
12
12
12
12
12
12
12
12
12
12
12
12
12
12
12
12
12
12
12
12
12
12
12
12
12
12
12
12
12
12
12
12
12
12
12
12
12
12
12
12
12
12
12
12
12
12
12
12
12
12
12
12
12
12
12
12
12
12
12
12
12
12
12
12
12
12
12
12
12
12
12
12
12
12
12
12
12
12
12
12
12
12
12
12
12
12
12
12
12
12
12
12
12
12
12
12
12
12
12
12
12
12
12
12
12
12
12
12
12
12
12
12
12
12
12
12
12
12
12
12
12
12
12
12
12
12
12
12
12
12
12
12
12
12
12
12
12
12
12
12
12
12
12
12
12
12
12
12
12
12
12
12
12
12
12
12
12
12
12
12
12
12
12
12
12
12
12
12
12
12
12
12
12
12
12
12
12
12
12
12
12
12
12
12
12
12
12
12
12
12
12
12
12
12
12
12
12
12
12
12
12
12
12
12
12
12
12
12
12
12
12
12
12
12
12
12
12
12
12
12
12
12
12
12
12
12
12
12
12
12
12
12
12
12
12
12
12
12
12
12
12
12
12
12
12
12
12
12

POINT_DATA 3012
SCALARS Jp_lamdaP float 4
LOOKUP_TABLE default
0.999355 1 1 0.999355
1 1 1 1
0.999375 1 1 0.999375
0.999299 1 1 0.999299
0.999358 1 1 0.999358
0.999322 1 1 0.999322
1.0177 1.01958 1 0.998155
1 1 1 1
1 1 1 1
1 1 1 1
0.999387 1 1 0.999387
1.01332 1.01525 1 0.998101
0.999367 1 1 0.999367
0.99934 1 1 0.99934
0.999385 1 1 0.999385
0.999341 1 1 0.999341
0.999335 1 1 0.999335
0.999389 1 1 0.999389
1.01755 1.01944 1 0.99815
1 1 1 1
0.999293 1 1 0.999293
0.999332 1 1 0.999332
1.01007 1.01202 1 0.998082
1.01533 1.0172 1 0.998156
0.999304 1 1 0.999304
1.01834 1.02025 1 0.998125
1.05063 1.05442 1 0.9964
1 1 1 1
0.999683 1 1 0.999683
0.999693 1 1 0.999693
1 1 1 1
1.01112 1.01303 1 0.998109
0.999357 1 1 0.999357
0.999385 1 1 0.999385
1.0162 1.01784 1 0.998391
1 1 1 1
1.01733 1.01892 1 0.99844
1.00572 1.00759 1 0.998142
1.03543 1.03934 1 0.996241
1 1 1 1
1 1 1 1
0.999674 1 1 0.999674
1 1 1 1
0.999367 1 1 0.999367
1.00213 1.00414 1 0.997998
1 1 1 1
1.00768 1.00938 1 0.998317
0.999377 1 1 0.999377
0.999412 1 1 0.999412
0.99934 1 1 0.99934
1.01749 1.01937 1 0.99815
0.999658 1 1 0.999658
0.99933 1 1 0.99933
0.999318 1 1 0.999318
0.999371 1 1 0.999371
1.0098 1.01175 1 0.99807
1.0183 1.02021 1 0.998123
1.01511 1.01699 1 0.99815
1.05134 1.05515 1 0.996395
1 1 1 1
0.999318 1 1 0.999318
1.00294 1.00453 1 0.998423
1.00742 1.00936 1 0.998074
1.01249 1.0144 1 0.998122
1.04899 1.05289 1 0.996297
1.05142 1.05527 1 0.996353
0.99932 1 1 0.99932
1.00935 1.01122 1 0.998153
1.04954 1.05332 1 0.996408
1.07042 1.07514 1 0.995612
1 1 1 1
1 1 1 1
1 1 1 1
1.00895 1.01086 1 0.998116
1 1 1 1
1 1 1 1
1.01631 1.01829 1 0.998055
0.999747 1 1 0.999747
1.01636 1.01827 1 0.998123
1.00412 1.00543 1.00032 0.998377
1.0387 1.04262 1 0.996236
1 1 1 1
1.00411 1 1.00487 0.999243
1.01389 1.01595 1 0.997969
1.0171 1.01907 1 0.998073
1.05666 1.06091 1 0.995996
1.0015 1.00143 1.00129 0.99879
1.04778 1.05177 1 0.996203
1.02823 1.03152 1.00041 0.996393
1.06249 1.06727 1 0.995518
1 1 1 1
1 1 1 1
1 1 1 1
1 1 1 1
1 1 1 1
0.999685 1 1 0.999685
1.00289 1.0047 1 0.998199
0.999669 1 1 0.999669
1.00876 1.01063 1 0.998149
1 1 1 1
1.00115 1.0031 1 0.998053
1.00458 1.00625 1 0.998341
1.0478 1.05196 1 0.99604
1.01152 1.0132 1 0.998343
1.05457 1.0588 1 0.996006
0.999392 1 1 0.999392
0.999364 1 1 0.999364
0.999327 1 1 0.999327
0.999404 1 1 0.999404
1.00952 1.01148 1 0.998061
1.0149 1.01679 1 0.998147
1.01792 1.01983 1 0.998124
1.05238 1.05619 1 0.99639
1 1 1 1
0.999352 1 1 0.999352
1.00248 1.00439 1 0.998103
1.00708 1.00903 1 0.99806
0.999667 1 1 0.999667
1.01104 1.01276 1.00004 0.998267
1.01227 1.01418 1 0.998114
1.04943 1.05333 1 0.996293
1.04914 1.05293 1 0.996402
1.05233 1.05617 1 0.99636
1.06974 1.07444 1 0.995623
1.0018 1.00373 1 0.998075
1.00485 1.00676 1 0.998105
1.04452 1.04839 0.99992 0.996388
1.04671 1.05058 1 0.996315
1.05097 1.05485 1 0.996323
1.08374 1.08905 0.999261 0.995858
1 1 1 1
1.0755 1.08014 1 0.995701
1.00139 1.00257 1.00062 0.99821
1.04077 1.04471 1 0.996237
1.06641 1.07121 1 0.995519
1.07304 1.07781 0.999788 0.995786
1.00249 1 1.00374 0.998764
1.0107 1.00153 1.01186 0.997327
1 1 1 1
1 1 1 1
1.01668 1.01866 1 0.998058
1 1 1 1
1.00234 1.00335 1.00075 0.998246
1.01587 1.01777 1 0.99813
1.04159 1.04553 1 0.996229
1 1 1 1
1.00455 1 1.00529 0.999267
1.01473 1.0166 1 0.998167
1.01745 1.01923 1 0.998255
1.05568 1.05992 1 0.995993
1.00144 1.00101 1.00184 0.998587
1.04753 1.05152 1 0.996202
1.02837 1.03182 1.00028 0.996388
1.06188 1.06665 1 0.995535
1.00228 1 1.00336 0.998922
1.00569 1 1.0062 0.999497
1.01144 1.00276 1.01091 0.997764
1.05643 1.06072 1 0.995954
1.05487 1.059 1 0.996098
1.07958 1.08432 1 0.995625
1.02104 1.02227 1.00202 0.996787
1.06422 1.06884 1 0.99568
1.0503 1.05433 1.00067 0.995505
1.07073 1.07552 1 0.995546
1 1 1 1
1 1 1 1
1 1 1 1
1.00364 1 1.00464 0.999013
1 1 1 1
1 1 1 1
1 1 1 1
1.00962 1.01166 1 0.997989
1.00326 1.00523 1 0.998042
1 1 1 1
1 1 1 1
1.00135 1.0033 1 0.998053
1.00527 1.00711 1 0.998177
1.04743 1.05159 1 0.996041
1.01196 1.01401 1 0.997978
1.05273 1.05695 1 0.996004
1.00107 1.00302 1 0.99806
1.04518 1.04935 1 0.996026
1.05108 1.05526 1 0.996041
1.08311 1.09003 0.997602 0.996043
1.05569 1.05997 1 0.995965
1.08329 1.08961 0.998232 0.99596
1 1 1 1
0.999387 1 1 0.999387
1.00196 1.00423 1 0.997743
1.00675 1.00872 1 0.998047
1 1 1 1
1.01289 1.01453 1 0.998385
1.01206 1.01398 1 0.998109
1.04979 1.0537 1 0.996289
1.05333 1.05717 1 0.996367
1.04825 1.05204 1 0.996397
1.06848 1.07317 1 0.995633
1.00153 1.00346 1 0.998073
1.00458 1.0065 1 0.998091
1.0451 1.04916 0.99989 0.996234
1.04769 1.05158 1 0.996302
1 1 1 1
1.0039 1.00526 1.00029 0.998358
1.03843 1.04209 1.00013 0.99636
1.05147 1.05536 1 0.996313
1.08215 1.08814 0.998604 0.995892
1.06615 1.07095 1 0.995522
1.07554 1.08016 1 0.995725
1.07266 1.07744 0.999766 0.995794
1.00208 1.00004 1.0033 0.99875
1.00991 1.00273 1.00986 0.997323
1.04387 1.04802 1 0.996041
1.04584 1.04975 0.999919 0.996362
1.08271 1.08871 0.998484 0.996006
1.08252 1.08941 0.997706 0.995964
1.07873 1.08476 0.99859 0.995848
1.07745 1.08831 0.993815 0.996183
1.00105 1.00049 1.00208 0.998477
1.07436 1.08063 0.998185 0.996005
1.02968 1.03318 1.00018 0.996435
1.06382 1.06869 1 0.995445
1.07283 1.07764 1 0.995536
1.06938 1.07658 0.997145 0.996155
1.00966 1.00682 1.00589 0.996943
1.00971 1.00013 1.01182 0.99779
1.01189 1.00923 1.00616 0.996498
1.01519 1.01721 1 0.998009
1 1 1 1
1.00455 1 1.00526 0.999292
1.01734 1.01926 1 0.998111
1.05486 1.05911 1 0.995989
1.00148 1.0006 1.0023 0.998584
1.02952 1.03321 1.00005 0.996384
1.04691 1.05091 1 0.996201
1.06256 1.06731 1 0.995552
1.00273 1.00004 1.00375 0.998947
1.00484 1 1.00533 0.999515
1.00997 1.00126 1.01096 0.997764
1.05553 1.05982 1 0.995948
1.05338 1.05751 1 0.996097
1.07953 1.08428 1 0.995619
1.01712 1.01874 1.00163 0.996789
1.06546 1.07009 1 0.995671
1.0551 1.05924 1.00061 0.99549
1.07134 1.07611 1 0.995573
1.00371 1 1.00404 0.999667
1.01295 1.00956 1.00613 0.997252
1.01223 1.00001 1.01401 0.998234
1.01334 1.00971 1.00649 0.997128
1.08276 1.08803 0.999449 0.995707
1.07246 1.07717 1 0.99563
1.07713 1.08399 0.997852 0.995805
1.03345 1.03498 1.00271 0.995824
1.0677 1.07216 1 0.995844
1.06137 1.06465 1.00158 0.995344
1.08435 1.0891 1 0.995637
1.00131 1 1.00208 0.999227
1.00011 1 1.00025 0.99985
1 1 1 1
1 1 1 1
1 1 1 1
1.00421 1 1.00494 0.999279
1 1 1 1
1.00393 1 1.00494 0.998991
1 1 1 1
1.01294 1.01499 1 0.997979
1.00609 1.00809 1 0.998019
1.05137 1.05559 1 0.996003
1.0471 1.05126 1 0.996042
1.00159 1.00354 1 0.998055
1 1 1 1
1.00106 1.00301 1 0.99806
1.04522 1.04939 1 0.996027
1.05034 1.05451 1 0.99604
1.08298 1.08987 0.997626 0.996042
1.0546 1.05888 1 0.99596
1.08469 1.09093 0.998313 0.995958
1.0438 1.04797 1 0.996027
1.08273 1.08953 0.997725 0.996024
1.08372 1.09025 0.997977 0.996027
1.07236 1.08423 0.992608 0.996416
1.08344 1.08953 0.99856 0.995841
1.0759 1.08877 0.991863 0.996283
1.00134 1.00327 1 0.998072
1.0043 1.00624 1 0.998076
1.04567 1.04997 0.999829 0.996082
1.04872 1.05263 1 0.99629
1 1 1 1
1.00643 1.00783 1.0001 0.998512
1.03671 1.0402 1.00017 0.996481
1.05197 1.05587 1 0.996303
1.08067 1.08735 0.997921 0.995926
1.07543 1.08002 1 0.995748
1.06705 1.07184 1 0.995525
1.07264 1.07743 0.999751 0.995803
1.00198 1.00015 1.0031 0.998736
1.0108 1.00422 1.00926 0.997318
1.04414 1.04833 0.999946 0.996057
1.04651 1.05039 0.99995 0.996356
1.08197 1.08837 0.998078 0.996036
1.08252 1.08886 0.998237 0.995927
1.00101 1.00093 1.00162 0.998464
1.02873 1.03209 1.00031 0.996436
1.06595 1.07082 1 0.995454
1.07947 1.08487 0.999198 0.995818
1.07693 1.0886 0.993019 0.996238
1.07234 1.07713 1 0.995548
1.07408 1.08047 0.998076 0.996007
1.06974 1.07693 0.997172 0.996139
1.01216 1.00953 1.00568 0.996941
1.01282 1.0085 1.00782 0.996492
1.01175 1.00027 1.01372 0.997793
1.08259 1.08865 0.998427 0.995996
1.08272 1.08953 0.997715 0.996021
1.07252 1.08284 0.994108 0.996344
1.07545 1.08831 0.991877 0.996274
1.07434 1.08445 0.994488 0.996169
1.06786 1.08553 0.987132 0.99654
1.01493 1.01721 1.00108 0.99669
1.06563 1.07998 0.990332 0.996348
1.05644 1.06112 1 0.995588
1.06773 1.07286 1 0.995221
1.06754 1.07228 0.999898 0.995681
1.06069 1.07329 0.991802 0.996431
1.01491 1.00257 1.01421 0.998126
1.02037 1.02008 1.00413 0.996178
1.01293 1.00111 1.01496 0.996895
1.02067 1.01563 1.00893 0.996064
1.05471 1.05901 1 0.995942
1.0045 1 1.00497 0.999533
1.00319 1 1.00422 0.998973
1.01054 1.00038 1.01242 0.997764
1.05221 1.05633 1 0.996097
1.07938 1.08414 1 0.995613
1.01118 1.01319 1.00122 0.996791
1.05613 1.06046 1.00044 0.995475
1.06673 1.07138 1 0.995663
1.0699 1.07463 1 0.9956
1.00301 1 1.00333 0.999681
1.00984 1.00608 1.00648 0.997265
1.01344 1.0002 1.01503 0.998233
1.01156 1.00736 1.00706 0.997129
1.08264 1.08782 0.999534 0.995701
1.07315 1.07787 1 0.995626
1.07688 1.08372 0.997882 0.995804
1.03173 1.03324 1.00273 0.995822
1.06676 1.07126 0.999985 0.995813
1.05778 1.06091 1.00173 0.99533
1.08398 1.08861 1 0.995746
1.00106 1 1.00129 0.999773
1.01022 1 1.01165 0.998587
1.01714 1.01698 1.00368 0.996492
1.01683 1.00453 1.01479 0.997485
1.01108 1.01058 1.00359 0.996917
1.07691 1.08791 0.993916 0.995946
1.07278 1.07752 0.99982 0.995782
1.06793 1.08 0.992797 0.996
1.0296 1.03168 1.00253 0.995466
1.07149 1.07672 0.999198 0.995937
1.04916 1.05323 1.00086 0.995278
1.00241 1 1.00334 0.999071
1.00566 1 1.00718 0.998491
0.999492 1 1.00013 0.999358
1.00043 1 1.0012 0.999229
0.99991 1 1 0.99991
1.00004 1 1.00018 0.999861
0.999996 1 1 0.999996
1 1 1 1
1 1 1 1
1.00253 1 1.00297 0.999554
1 1 1 1
1.00434 1 1.00509 0.999257
1 1 1 1
1.0035 1 1.00454 0.99897
1 1 1 1
1.05318 1.05746 1 0.995954
1.04929 1.05347 1 0.99604
1.08567 1.09181 0.998416 0.995955
1.08277 1.08963 0.997652 0.996041
1.04522 1.04939 1 0.996028
1.00095 1.0029 1 0.998059
1.04398 1.04815 1 0.996027
1.08244 1.08925 0.997712 0.996025
1.08382 1.09038 0.997953 0.996026
1.07188 1.0844 0.991994 0.996433
1.08398 1.08992 0.998709 0.995837
1.07558 1.08837 0.991939 0.996283
1.08229 1.08884 0.997965 0.996012
1.07136 1.08404 0.991838 0.996441
1.0741 1.08587 0.992759 0.996376
1.07217 1.08816 0.988638 0.996633
1.07524 1.08908 0.991123 0.996131
1.07211 1.09206 0.985074 0.996604
1.04427 1.04851 0.999886 0.996073
1.04722 1.05106 1 0.996349
1.08128 1.08804 0.997713 0.996065
1.08239 1.08821 0.998762 0.99589
1.001 1.00142 1.00113 0.998452
1.02822 1.03142 1.00047 0.996439
1.06865 1.07352 1 0.995464
1.08023 1.08499 0.999831 0.995788
1.07638 1.08881 0.992256 0.996293
1.0738 1.0803 0.997958 0.996009
1.07149 1.07627 1 0.995559
1.06993 1.07716 0.997151 0.996123
1.01502 1.01266 1.00542 0.996938
1.0119 1.00794 1.00747 0.996487
1.01187 1.00039 1.01371 0.997795
1.08216 1.08826 0.998381 0.996009
1.082 1.08906 0.997489 0.996019
1.07213 1.08323 0.993338 0.996389
1.07589 1.08818 0.99243 0.996248
1.01978 1.02176 1.00138 0.996693
1.05584 1.0605 1.00001 0.995592
1.06788 1.07297 1.00003 0.995232
1.07484 1.08424 0.995195 0.996116
1.06762 1.08595 0.986494 0.996585
1.06819 1.07294 0.999925 0.995641
1.06614 1.0805 0.99033 0.996348
1.0609 1.07371 0.991563 0.99647
1.01989 1.02049 1.00325 0.99618
1.01717 1.01334 1.0078 0.996007
1.01242 1.00203 1.01226 0.998129
1.01077 1.00104 1.01281 0.996953
1.07205 1.08294 0.993526 0.996394
1.07503 1.08683 0.992812 0.996308
1.06717 1.08307 0.988729 0.99655
1.0654 1.08692 0.983527 0.996619
1.06579 1.0836 0.987015 0.996504
1.06903 1.09053 0.983487 0.996748
1.03667 1.04045 1.00052 0.995853
1.05755 1.07921 0.983163 0.996708
1.05217 1.05717 1 0.995272
1.06192 1.06694 1.00018 0.99512
1.06499 1.07072 0.998921 0.995722
1.06288 1.07789 0.989544 0.996499
1.01196 1.00285 1.01074 0.99837
1.02035 1.00817 1.01493 0.997199
1.02456 1.02599 1.00284 0.995773
1.01246 1.00508 1.01082 0.996565
1.01751 1.01054 1.01111 0.995835
1.00192 1 1.00222 0.999695
1.08252 1.08762 0.999616 0.995695
1.01273 1.00029 1.01423 0.998232
1.00761 1.00323 1.00711 0.997279
1.00917 1.00481 1.00723 0.997129
1.07378 1.0785 1 0.995623
1.0766 1.0834 0.997913 0.995803
1.03408 1.03664 1.00172 0.99582
1.05755 1.06047 1.00193 0.995316
1.06615 1.07069 0.99997 0.995783
1.08442 1.08893 1 0.995855
1.0005 1 1.00072 0.999783
1.01065 1 1.01207 0.998598
1.01578 1.01627 1.00302 0.996505
1.01668 1.0038 1.01539 0.997474
1.01201 1.01118 1.00402 0.996812
1.07694 1.08794 0.993917 0.995943
1.07241 1.07718 0.999791 0.995782
1.06717 1.07939 0.992659 0.995989
1.03049 1.03261 1.0025 0.995462
1.07582 1.08107 0.999234 0.995909
1.04941 1.05332 1.00096 0.99533
1.00502 1 1.00616 0.99887
1.01523 1.00148 1.01595 0.997822
1.00954 1.01219 1.00129 0.99609
1.02251 1.0123 1.01301 0.997102
1.01953 1.01995 1.00299 0.996607
1.07062 1.08851 0.987336 0.996182
1.06728 1.07383 0.997952 0.995938
1.05888 1.07443 0.989271 0.996217
1.00824 1.00904 1.00379 0.995431
1.04545 1.05036 0.999942 0.995377
1.00251 1 1.00344 0.999073
1.00507 1 1.00673 0.998355
1.00601 1 1.00755 0.99847
1.00567 1 1.00742 0.998268
1.00241 1 1.00381 0.998608
0.999437 1 1 0.999437
0.999702 1 1.00034 0.999362
0.999949 1 1 0.999949
1.00038 1 1.00115 0.999231
0.999921 1 1 0.999921
1 1 1 1
0.999872 1 1 0.999872
0.999998 1 1 0.999998
1 1 1 1
1.00142 1 1.00165 0.999771
1.00365 1 1.00411 0.999538
1 1 1 1
1 1 1 1
1.00509 1 1.00586 0.999235
1 1 1 1
1.08473 1.09051 0.998861 0.995832
1.08423 1.09084 0.997902 0.996024
1.07541 1.08812 0.992007 0.996283
1.07148 1.08465 0.991377 0.996449
1.08212 1.08895 0.997696 0.996025
1.04433 1.0485 1 0.996027
1.08208 1.08862 0.997968 0.996013
1.07156 1.08395 0.992107 0.996436
1.07429 1.08607 0.992743 0.996377
1.07123 1.08797 0.987914 0.99666
1.07535 1.08934 0.990995 0.996127
1.0721 1.09212 0.984987 0.996627
1.07159 1.08366 0.992427 0.996412
1.07074 1.08806 0.987426 0.996616
1.07267 1.0896 0.987742 0.996688
1.07371 1.09574 0.98307 0.996776
1.07152 1.09168 0.985047 0.996429
1.0764 1.09962 0.982005 0.996821
1.08178 1.08791 0.99834 0.996021
1.08125 1.08857 0.997248 0.996018
1.07166 1.08357 0.992548 0.996435
1.07636 1.08807 0.992987 0.996222
1.02298 1.02463 1.00171 0.996695
1.05258 1.05724 1 0.995595
1.06747 1.07238 1.00018 0.995242
1.07527 1.08399 0.995874 0.996062
1.06745 1.08636 0.985915 0.996631
1.06677 1.08113 0.990338 0.996348
1.06886 1.0736 0.999991 0.995602
1.06086 1.07403 0.991195 0.99651
1.02091 1.02013 1.00459 0.996182
1.01589 1.01074 1.00918 0.995951
1.01163 1.00173 1.01178 0.998131
1.0095 1.00122 1.01129 0.99701
1.07231 1.08319 0.993539 0.996394
1.07474 1.08651 0.992847 0.996293
1.06678 1.08291 0.988489 0.996579
1.06671 1.08726 0.984447 0.996602
1.03602 1.03816 1.00209 0.995851
1.0511 1.05603 1.00003 0.995297
1.06127 1.06607 1.00039 0.995107
1.06666 1.08381 0.987676 0.996455
1.06681 1.08917 0.982617 0.996803
1.06315 1.06868 0.999116 0.995709
1.05854 1.08024 0.983149 0.996708
1.0613 1.07671 0.989081 0.996573
1.02387 1.02403 1.00409 0.995781
1.01646 1.00974 1.01088 0.995818
1.014 1.00428 1.01316 0.996564
1.01184 1.00215 1.01134 0.998354
1.01697 1.00375 1.01599 0.997233
1.06939 1.0865 0.987617 0.996595
1.06978 1.08933 0.985401 0.996602
1.06606 1.09494 0.976757 0.996788
1.06196 1.08625 0.980783 0.9968
1.03294 1.03756 1.00001 0.995541
1.0597 1.08338 0.981205 0.996876
1.03418 1.03901 1.00029 0.995062
1.05226 1.05714 1.0004 0.994989
1.05965 1.06907 0.995432 0.995734
1.00663 1 1.00789 0.998753
1.01644 1.00001 1.01889 0.997587
1.01832 1.01186 1.00951 0.9969
1.01692 1.01624 1.00502 0.995677
1.01976 1.00572 1.01798 0.996055
1.01906 1.00858 1.01476 0.995688
1.00029 1 1.00049 0.999793
1.01164 1 1.01305 0.998608
1.0769 1.08791 0.993921 0.995939
1.01734 1.00274 1.01713 0.997463
1.01333 1.01329 1.00354 0.996518
1.01366 1.01246 1.00449 0.996708
1.0718 1.07659 0.999761 0.995782
1.06661 1.07898 0.992525 0.995978
1.02945 1.03146 1.0026 0.995459
1.0486 1.05265 1.00077 0.995381
1.08047 1.08573 0.999269 0.995881
1.00484 1 1.00597 0.998875
1.01581 1.00057 1.01744 0.997826
1.0138 1.01609 1.00174 0.996014
1.02311 1.01102 1.0149 0.997106
1.02061 1.02114 1.0029 0.996584
1.06934 1.08709 0.987442 0.996178
1.07025 1.07675 0.998033 0.995924
1.06189 1.07761 0.989137 0.996237
1.01075 1.01212 1.00324 0.995414
1.04307 1.04796 0.999994 0.995339
1.00846 1 1.0103 0.998173
1.02101 1.00263 1.02099 0.997405
1.00766 1.00932 1.00244 0.99593
1.03062 1.02171 1.01201 0.99675
1.03934 1.04193 1.00111 0.996416
1.05938 1.08724 0.977637 0.996665
1.07143 1.07977 0.996509 0.995753
1.07004 1.08327 0.991596 0.996156
1.01352 1.01378 1.00433 0.995434
1.01969 1.0247 1 0.99511
1.00216 1 1.00308 0.999076
1.00435 1 1.006 0.998361
1.00068 1 1.0024 0.998282
1.00406 1 1.00562 0.998449
1.00166 1 1.00306 0.998604
1.00688 1 1.00863 0.998262
1.00187 1 1.00354 0.998332
1.00585 1 1.00766 0.998203
0.999622 1 1.00093 0.99869
0.99944 1 1 0.99944
0.999437 1 1 0.999437
0.999974 1 1 0.999974
0.999453 1 1.00009 0.999365
0.999957 1 1 0.999957
1 1 1 1
0.999933 1 1 0.999933
1 1 1 1
1 1 1 1
1.00004 1 1.00014 0.9999
1.00155 1 1.00181 0.999747
1 1 1 1
1.00391 1 1.00439 0.999521
1 1 1 1
1 1 1 1
1.07544 1.08958 0.990861 0.996123
1.07427 1.08607 0.992738 0.996378
1.07208 1.09219 0.984883 0.996649
1.07022 1.08774 0.987163 0.996687
1.0718 1.08388 0.992396 0.996431
1.08179 1.08832 0.997973 0.996014
1.07186 1.08365 0.992699 0.996395
1.07129 1.08804 0.987951 0.996609
1.07218 1.08898 0.987852 0.996674
1.07162 1.09468 0.98209 0.996785
1.07173 1.09164 0.985279 0.996432
1.0735 1.0979 0.980859 0.996856
1.07189 1.08813 0.988451 0.996588
1.07456 1.09798 0.981834 0.996779
1.07388 1.0987 0.980488 0.996859
1.06742 1.09852 0.974753 0.996856
1.07262 1.08349 0.993552 0.996393
1.0745 1.08625 0.992884 0.996277
1.0665 1.08285 0.988254 0.996608
1.06805 1.08766 0.985338 0.996585
1.03692 1.03884 1.00231 0.995848
1.05091 1.05585 1 0.995322
1.0605 1.0651 1.00058 0.995094
1.06739 1.08394 0.98829 0.996406
1.06456 1.08782 0.98171 0.996859
1.05936 1.08107 0.983159 0.996707
1.06165 1.0668 0.999476 0.995694
1.061 1.07648 0.988939 0.996647
1.02015 1.02016 1.00423 0.995788
1.01426 1.00936 1.00909 0.995801
1.0166 1.00405 1.01599 0.996562
1.00965 1.00143 1.00989 0.99834
1.01379 1.0003 1.01626 0.997268
1.06916 1.08623 0.987644 0.996596
1.07042 1.08995 0.985436 0.996598
1.06705 1.09436 0.978186 0.996781
1.03307 1.03753 1.00016 0.99554
1.03461 1.03944 1.00026 0.995093
1.05018 1.0547 1.00074 0.994978
1.06221 1.08601 0.981239 0.996788
1.06185 1.0715 0.99511 0.995866
1.0566 1.0806 0.980891 0.996843
1.007 1 1.00819 0.99882
1.01428 1.01322 1.00539 0.995674
1.01789 1.00664 1.01547 0.995778
1.02228 1.00784 1.01835 0.996042
1.01995 1.01214 1.01082 0.996933
1.01907 1.00323 1.01828 0.997543
1.0733 1.09588 0.982682 0.996662
1.07102 1.10167 0.975347 0.996743
1.06002 1.09379 0.972186 0.996855
1.05288 1.08644 0.972044 0.996987
1.01809 1.02247 1.00031 0.995411
1.05045 1.06931 0.985889 0.99643
1.01924 1.02294 1.00165 0.994745
1.03723 1.04237 1.0002 0.994869
1.00122 1 1.00197 0.999254
1.01506 1 1.01701 0.998085
1.0162 1.00673 1.01222 0.997225
1.02634 1.00956 1.02034 0.996349
1.01164 1.00576 1.0102 0.995686
1.02433 1.007 1.02183 0.995489
1.00444 1 1.00556 0.998881
1.0157 1 1.0179 0.99783
1.06808 1.0857 0.987546 0.996173
1.02238 1.00922 1.01598 0.99711
1.01804 1.02029 1.00187 0.995936
1.02004 1.02101 1.0025 0.996559
1.07335 1.07979 0.998116 0.99591
1.06457 1.08054 0.988921 0.996257
1.01373 1.01564 1.00273 0.995395
1.04049 1.04519 1.0002 0.9953
1.00845 1.00007 1.01023 0.99818
1.02108 1.00244 1.02129 0.997361
1.00807 1.00958 1.00258 0.995925
1.0297 1.02218 1.01065 0.99674
1.04399 1.04713 1.00055 0.996446
1.06215 1.08975 0.977889 0.996712
1.07129 1.07956 0.996516 0.995805
1.07077 1.08326 0.992195 0.996245
1.01568 1.01572 1.00458 0.995399
1.01881 1.02389 1.00003 0.995009
1.00654 1 1.0086 0.997951
1.02036 1.00256 1.02072 0.997096
1.02431 1.02457 1.00378 0.995977
1.037 1.03768 1.00301 0.996343
1.06172 1.11349 0.956427 0.996947
1.05923 1.08425 0.980151 0.996704
1.05272 1.05849 0.999273 0.995276
1.02661 1.02737 1.00426 0.995027
1.00392 1 1.00557 0.998366
1.0018 1 1.00354 0.998267
1.00024 0.999864 1.00188 0.998495
1.00238 1 1.00378 0.998602
1.009 1 1.01076 0.998257
0.999723 1 1.00104 0.998684
1.0019 0.999851 1.00368 0.998367
1.00769 1 1.0095 0.998215
0.99995 1 1.00134 0.998617
1.00761 1 1.00952 0.99811
1.00292 1 1.00476 0.998163
0.999022 1 1.00037 0.998653
0.999395 1 1 0.999395
0.999436 1 1 0.999436
0.999985 1 1 0.999985
0.999437 1 1 0.999437
0.999978 1 1 0.999978
1 1 1 1
0.999965 1 1 0.999965
1 1 1 1
1 1 1 1
0.999957 1 1 0.999957
1.00082 1 1.00095 0.999877
1 1 1 1
1.00303 1 1.00331 0.999723
1 1 1 1
1 1 1 1
1.07185 1.0915 0.985507 0.996434
1.07176 1.08845 0.987972 0.996661
1.07067 1.09622 0.979744 0.99689
1.06963 1.09371 0.981128 0.996794
1.0718 1.08799 0.988484 0.996602
1.0721 1.08363 0.992954 0.996378
1.07142 1.08787 0.988247 0.996589
1.07393 1.09729 0.98188 0.996769
1.07292 1.09806 0.98019 0.996854
1.06714 1.09812 0.97484 0.996869
1.0761 1.09843 0.982892 0.996725
1.07234 1.10353 0.974738 0.996924
1.07497 1.10987 0.971519 0.996945
1.06885 1.08588 0.98767 0.996597
1.07101 1.09049 0.985497 0.996595
1.06796 1.09376 0.979565 0.996775
1.03442 1.03855 1.00048 0.99554
1.03418 1.03907 1.00018 0.995124
1.04837 1.05279 1.00085 0.994967
1.06259 1.08598 0.981636 0.996775
1.05307 1.07762 0.980352 0.99681
1.06383 1.07401 0.994504 0.995998
1.0123 1.01023 1.0064 0.995671
1.01465 1.0043 1.0145 0.995869
1.02357 1.00974 1.01774 0.996029
1.00763 1 1.00875 0.998888
1.01819 1.0105 1.01067 0.996965
1.022 1.00586 1.0186 0.997498
1.07448 1.09656 0.983135 0.996672
1.06987 1.10164 0.974338 0.996745
1.06048 1.09369 0.972706 0.996847
1.01735 1.02174 1.00031 0.995401
1.01841 1.02228 1.0014 0.994823
1.03942 1.04515 0.999529 0.994985
1.0539 1.08687 0.972592 0.996988
1.04694 1.06631 0.985379 0.996405
1.00151 1 1.00217 0.999342
1.01409 1 1.01604 0.99808
1.00868 1.00453 1.00846 0.99571
1.02727 1.00671 1.02484 0.995687
1.02443 1.00984 1.01814 0.996382
1.01811 1.00946 1.01141 0.997187
1.07193 1.10399 0.974042 0.996839
1.06125 1.10764 0.961187 0.996814
1.05459 1.09379 0.967033 0.997031
1.03742 1.06899 0.973418 0.996972
1.0033 1.0067 1.00133 0.995295
1.03093 1.04454 0.991467 0.995467
1.0153 1.01808 1.00264 0.994639
0.999607 1 1 0.999607
0.999209 1 1.00021 0.998996
1.00712 1 1.00856 0.99857
1.01054 1 1.01306 0.997513
1.01257 1 1.01578 0.996839
1.03529 1.01387 1.02526 0.995962
1.00909 1.00201 1.01108 0.996025
1.04872 1.00546 1.04691 0.99628
1.00893 1 1.01076 0.998187
1.02239 1.00261 1.02247 0.997317
1.06524 1.09251 0.978213 0.996759
1.03093 1.02468 1.00941 0.996731
1.00843 1.00949 1.00305 0.99592
1.04795 1.05162 1.00004 0.996477
1.07116 1.07937 0.996522 0.995857
1.07171 1.08342 0.992834 0.996335
1.01716 1.017 1.00482 0.995364
1.01763 1.02283 1 0.994908
1.00774 1 1.00987 0.997883
1.01871 1.0023 1.01938 0.997055
1.03062 1.03051 1.00415 0.995977
1.03486 1.03636 1.00219 0.996369
1.06298 1.11547 0.955845 0.996966
1.06514 1.08843 0.981892 0.996648
1.04854 1.05446 0.999035 0.99534
1.02812 1.02942 1.00377 0.994978
1.00643 0.999625 1.00894 0.997887
1.07397 1.12524 0.957321 0.996987
1.01129 1.00253 1.01207 0.996706
1.0305 1.03207 1.00271 0.99578
1.04125 1.09516 0.953534 0.997107
1.04022 1.04897 0.99623 0.995411
1.01841 1.02051 1.00323 0.994725
1.0033 1 1.00506 0.998251
0.998845 0.998742 1.00162 0.998487
1.00046 0.998072 1.00367 0.998723
0.9994 1 1.00072 0.998678
1.00862 1 1.01042 0.998226
1.00226 0.999391 1.00448 0.998401
0.998806 1 1.00016 0.998648
1.00317 1 1.00501 0.998174
1.00003 0.999695 1.00167 0.998668
1.00659 1 1.0085 0.998112
0.998814 0.999999 1 0.998815
1.00275 1 1.00432 0.998433
1.00786 1 1.00993 0.997957
0.998937 1 1.00093 0.998008
0.998541 1 1 0.998541
0.999346 1 1 0.999346
0.999389 1 1 0.999389
0.99999 1 1 0.99999
0.999433 1 1 0.999433
0.999987 1 1 0.999987
1 1 1 1
0.999981 1 1 0.999981
1 1 1 1
1 1 1 1
0.999671 1 1 0.999671
0.999981 1 1 0.999981
0.999947 1 1 0.999947
1 1 1 1
1.00093 1 1.00108 0.999854
1 1 1 1
1 1 1 1
1.06676 1.09762 0.97492 0.996881
1.07197 1.09738 0.979933 0.996848
1.07323 1.09654 0.981921 0.996759
1.07102 1.08766 0.988069 0.996591
1.07586 1.09856 0.982528 0.996744
1.07201 1.10324 0.974706 0.996915
1.07143 1.10628 0.971465 0.996947
1.07303 1.10506 0.974028 0.996907
1.08389 1.12177 0.969138 0.997005
1.09727 1.14369 0.962047 0.997262
1.07562 1.09722 0.983575 0.996681
1.0689 1.10158 0.973498 0.996748
1.0612 1.09355 0.973492 0.99684
1.01745 1.02186 1.0003 0.995393
1.01864 1.02257 1.00126 0.994905
1.04201 1.048 0.999178 0.995101
1.05472 1.08687 0.97335 0.996988
1.04292 1.06244 0.985197 0.996379
1.00904 1.00397 1.00936 0.995735
1.03248 1.00745 1.02909 0.995878
1.02393 1.00892 1.01853 0.996414
1.00067 1 1.00124 0.99943
1.01323 1 1.01519 0.998074
1.02089 1.0127 1.01097 0.997149
1.07126 1.10387 0.973529 0.996848
0.9996 1 1 0.9996
0.9995 1 1.00055 0.998946
1.06287 1.10691 0.963283 0.996817
1.05315 1.09228 0.967079 0.997002
1.00459 1.00733 1.00192 0.995374
1.01615 1.01822 1.00332 0.994672
1.0288 1.04195 0.99189 0.995451
1.03658 1.06858 0.973037 0.99694
1.00632 1 1.00766 0.99867
1.01113 1 1.01367 0.997498
1.01016 1.00217 1.01213 0.995896
1.04353 1.00656 1.04057 0.996305
1.03337 1.01081 1.02645 0.995964
1.01324 1.00241 1.01397 0.996874
1.08127 1.12626 0.962993 0.996942
1.04518 1.106 0.947915 0.996927
1.03812 1.08133 0.962759 0.997176
1.02078 1.04534 0.979802 0.99664
1.00652 1.00379 1.00704 0.99572
1.01453 1.01827 1.00145 0.994892
0.999231 1 1.00035 0.998885
1.00139 1 1.00243 0.998959
0.999942 1.00021 1.00114 0.998594
1.00579 1 1.00797 0.997834
1.01404 1 1.01687 0.997218
1.0101 1.0004 1.01315 0.996582
1.07476 1.00611 1.07231 0.996195
0.993322 1.00049 0.995609 0.997211
1.00796 1 1.01017 0.997816
1.01637 1.00191 1.01746 0.997014
1.06328 1.11591 0.955711 0.996985
1.07056 1.09209 0.983641 0.996593
1.03364 1.03529 1.00202 0.996394
1.03825 1.03786 1.00441 0.995976
1.04478 1.05079 0.998873 0.995403
1.03062 1.03241 1.00335 0.994929
1.00616 0.999225 1.00908 0.997873
1.07524 1.12864 0.955487 0.997067
1.0124 1.00136 1.01429 0.99679
1.02603 1.02769 1.00269 0.995705
1.04215 1.0957 0.953908 0.997086
1.03631 1.046 0.995195 0.995515
1.02024 1.02207 1.00348 0.994737
1.01448 0.997966 1.01889 0.997696
1.00359 1.07256 0.938102 0.997437
1.00581 1.0001 1.00924 0.996499
1.00897 1.01008 1.00379 0.995124
1.01072 1.04335 0.97202 0.996608
1.00392 1.00669 1.00221 0.995043
0.936393 1.00121 0.939268 0.995734
0.996505 0.996735 1.00129 0.998479
0.99893 0.995586 1.00464 0.998728
1.00173 0.997257 1.00583 0.998668
0.998939 1 1.0003 0.998644
1.00509 1 1.00692 0.998185
1.0053 1 1.0072 0.998115
1.00012 0.999615 1.00178 0.998721
0.998672 1 1.00013 0.998541
0.999498 1 1.00148 0.998024
0.997456 0.998583 1.00009 0.998781
1.00856 1 1.01063 0.997954
1.00263 1 1.00424 0.998392
1.00007 0.997894 1.00342 0.99877
1.00619 1 1.00838 0.997821
1.00698 1 1.00908 0.997918
0.998231 1 1.00034 0.997888
0.998397 1 1.00005 0.99835
1.00576 1 1.00768 0.998087
1.00028 1 1.00197 0.998319
0.999326 1 1 0.999326
0.999341 1 1 0.999341
0.999995 1 1 0.999995
0.999384 1 1 0.999384
0.999992 1 1 0.999992
1 1 1 1
0.999988 1 1 0.999988
1 1 1 1
1 1 1 1
0.999746 1 1 0.999746
0.999675 1 1 0.999675
0.999994 1 1 0.999994
0.999976 1 1 0.999976
1 1 1 1
0.999962 1 1.00002 0.999938
1 1 1 1
1 1 1 1
1.06813 1.10311 0.971255 0.99695
1.07181 1.1032 0.974564 0.996906
1.07564 1.09874 0.982157 0.996762
1.07281 1.10494 0.973944 0.996905
1.08084 1.11928 0.968559 0.996997
1.0985 1.1437 0.963207 0.997173
1.09151 1.13707 0.962752 0.997073
0.934289 1.01615 0.925614 0.993334
1.04216 1.09261 0.955816 0.997912
0.999331 1 1.00023 0.9991
1.07071 1.10401 0.972897 0.996856
1.06412 1.1061 0.965112 0.996819
1.05128 1.09072 0.966769 0.996973
1.00217 1.00592 1.00082 0.99545
1.0168 1.0183 1.00385 0.994701
1.02641 1.03936 0.992067 0.995434
1.03617 1.0689 0.972385 0.996908
1.0058 1.00221 1.00784 0.995776
1.0369 1.00718 1.03329 0.996342
1.03142 1.00769 1.02769 0.995966
1.00052 1 1.00093 0.999593
1.01328 1.00386 1.01252 0.996907
1.00636 1 1.0076 0.998766
1.01186 1 1.01441 0.997483
0.999962 1 1.00107 0.998897
1.07995 1.12672 0.96142 0.996949
0.999066 1 1.00012 0.99895
1.00224 1 1.00328 0.998963
0.999806 1.00057 1.00068 0.998554
1.04905 1.10651 0.950991 0.996925
1.03536 1.07885 0.962452 0.997125
1.00248 1.00258 1.00416 0.995758
1.01768 1.02171 1.00101 0.995045
1.01991 1.0444 0.97986 0.996621
1.00562 1 1.00773 0.9979
1.01272 1 1.01558 0.997176
1.00452 1.00031 1.00725 0.996979
1.06258 1.00461 1.06176 0.996178
1.01026 1.00341 1.01022 0.996636
1.05561 1.11952 0.945713 0.997039
1.01647 1.08961 0.935601 0.997094
1.02701 1.05707 0.974686 0.996795
1.00302 1.02472 0.982363 0.996394
1.00008 1.00001 1.00335 0.996733
0.998492 1 1 0.998492
1.00314 1.00038 1.00453 0.99824
1.00295 0.999972 1.00461 0.99837
1.01503 1 1.01743 0.997643
1.01388 1 1.01666 0.997268
1.04584 0.999932 1.04917 0.996895
1.02727 1.0023 1.02768 0.99731
1.00646 0.999499 1.00913 0.997855
1.01291 1.00002 1.01606 0.996876
1.07585 1.13287 0.952394 0.997145
1.04371 1.09729 0.953968 0.997064
1.03264 1.04337 0.994072 0.99562
1.02009 1.02183 1.00268 0.995631
1.02119 1.02289 1.0036 0.994751
1.01524 0.998664 1.01883 0.997812
1.0061 1.0744 0.938781 0.997499
1.00281 1.00065 1.00567 0.996504
1.0067 1.0075 1.00411 0.995117
1.00852 1.04113 0.971836 0.996757
1.00489 1.00715 1.00273 0.995043
0.934423 0.999267 0.940414 0.994358
1.01525 0.996002 1.0217 0.997676
0.977451 1.02809 0.953198 0.997424
1.00064 1.00137 1.00312 0.996156
1.00425 1.00245 1.00614 0.995678
0.988888 1.00751 0.984928 0.996535
0.872834 0.970376 0.933262 0.963802
0.844009 0.948992 0.906656 0.98094
0.938184 0.973977 0.966864 0.996262
0.614599 0.774771 0.865403 0.916643
0.526762 0.702557 0.843911 0.888457
0.998251 0.993516 1.00604 0.998733
1.00328 0.994903 1.00972 0.998721
1.00402 0.996983 1.00836 0.998703
0.998541 1 1 0.998541
0.999283 1 1.00125 0.99804
1.00797 1 1.01004 0.997952
1.00237 1 1.00403 0.99835
0.99578 0.997029 1 0.998747
1.00732 1 1.00943 0.997913
0.998392 1 1 0.998392
0.998276 1 1.00037 0.997904
0.999717 0.998442 1.00259 0.998694
1.00631 1 1.00842 0.997909
1.01112 1 1.0132 0.997948
1.01041 0.998717 1.01346 0.99827
1.00672 1 1.00884 0.997896
0.998989 1 1.00123 0.99776
0.998954 1 1.00064 0.998312
1.00217 1 1.00425 0.997928
1.00576 1 1.00767 0.998107
1.00506 1 1.00684 0.998226
1.00539 1 1.00734 0.998058
1.0006 1 1.00214 0.998464
1.00103 1 1.00272 0.998315
0.999319 1 1 0.999319
0.999326 1 1 0.999326
0.999998 1 1 0.999998
0.999337 1 1 0.999337
0.999996 1 1 0.999996
1 1 1 1
0.999993 1 1 0.999993
1 1 1 1
1 1 1 1
0.999822 1 1 0.999822
0.999744 1 1 0.999744
0.999999 1 1 0.999999
0.999678 1 1 0.999678
0.999991 1 1 0.999991
1 1 1 1
0.999971 1 1 0.999971
1 1 1 1
1 1 1 1
1.07766 1.11658 0.968054 0.996988
1.07211 1.1043 0.97387 0.996903
1.10194 1.14481 0.965366 0.997086
0.938902 1.01578 0.930436 0.99342
1.09028 1.13667 0.962003 0.997069
1.04916 1.09494 0.960316 0.997784
1.06623 1.11311 0.960582 0.997192
0.888831 0.969482 0.935251 0.980283
0.972564 1.02578 0.953663 0.994188
0.999158 1 1 0.999158
0.9993 1 1.00021 0.999093
0.999137 1 1.00055 0.998587
0.998714 1 1 0.998714
1.07845 1.12703 0.959821 0.996956
1.05271 1.10718 0.953742 0.996923
1.03293 1.07646 0.962376 0.997073
1.00184 1.00229 1.00377 0.995796
1.0198 1.02498 0.999745 0.995201
1.01863 1.04266 0.980287 0.996603
1.01675 1 1.02008 0.996738
1.05237 1.00439 1.05181 0.99616
1.01258 1.00663 1.00924 0.996691
1.00224 1 1.00327 0.998967
1.01187 1.00061 1.01416 0.997136
1.00515 1 1.0072 0.997966
0.999016 1 1 0.999016
0.999706 1.00066 1.00053 0.998514
1.05497 1.12107 0.943822 0.997053
0.998794 1 1.0003 0.998497
1.00214 1.0006 1.0032 0.998339
1.00276 0.998971 1.00512 0.998685
1.02452 1.09358 0.939594 0.997081
1.02672 1.05668 0.974775 0.996794
0.997941 1.00196 0.999264 0.996724
1.00438 1.02364 0.984658 0.996464
1.0142 1 1.01673 0.997517
1.01407 1.00003 1.01702 0.997076
1.03349 1.00323 1.03296 0.997292
1.04734 1.00296 1.04764 0.996765
1.00558 1.07311 0.939713 0.99719
0.997667 1.05788 0.945821 0.997101
1.01125 1.02433 0.990767 0.996424
0.970981 1.00179 0.971544 0.997639
1.00785 0.999848 1.00956 0.998454
1.00824 1 1.0105 0.99777
1.02171 0.999218 1.02443 0.998121
1.06572 1.00117 1.06733 0.997318
0.863074 0.967813 0.931297 0.957565
1.01594 0.998369 1.01972 0.997928
1.00079 1.00091 1.00338 0.996507
1.00859 1.07581 0.939801 0.997567
1.00621 1.03859 0.97183 0.996904
1.00605 1.00774 1.0033 0.995039
1.00521 1.00556 1.00457 0.995107
0.933866 0.999176 0.941297 0.992924
1.01198 0.995883 1.01847 0.997737
0.976426 1.02841 0.95193 0.997396
1.00061 1.0015 1.00296 0.996167
1.00583 1.0043 1.00585 0.995698
0.992043 1.0086 0.987024 0.996514
0.862215 0.972232 0.926015 0.957696
0.843981 0.946837 0.91202 0.977356
0.940567 0.974079 0.969146 0.996336
0.610764 0.771637 0.861324 0.918955
0.520844 0.705425 0.83674 0.882402
1.00397 0.99595 1.01029 0.997791
0.653168 0.796599 0.888391 0.922955
0.56512 0.728145 0.873956 0.888041
0.980789 1.00558 0.977619 0.997675
1.01006 1.00189 1.01115 0.997039
1.01562 1.00622 1.01229 0.997089
0.929463 0.96022 0.97098 0.996899
0.816127 0.938773 0.904066 0.961606
0.809627 0.9142 0.908563 0.974741
0.587881 0.752146 0.843981 0.926093
0.573679 0.777263 0.83804 0.880717
1.00434 0.992453 1.01322 0.998773
1.00336 0.99514 1.0096 0.998676
1.01385 0.99675 1.01834 0.998837
0.998433 1 1 0.998433
0.998545 1 1.00063 0.997921
1.00754 1 1.00965 0.997909
1.00729 1 1.00932 0.997996
0.999168 0.998915 1.00164 0.998618
0.998866 1 1.00056 0.998312
1.01173 1 1.01383 0.99793
1.00677 1 1.00892 0.997872
0.998733 1 1.00092 0.997812
1.01062 0.998577 1.01375 0.998327
1.01076 1 1.01258 0.998194
1.02821 0.997977 1.03185 0.998495
1.00444 1 1.00673 0.997721
0.999427 1 1.00158 0.997852
1.00119 1 1.00328 0.99792
1.00503 0.999849 1.00703 0.99816
1.00132 0.999955 1.00347 0.997905
1.00019 0.999823 1.00213 0.998242
1.00959 0.998617 1.01262 0.99839
1.01271 0.999713 1.01498 0.998048
1.0064 1 1.00817 0.998237
1.00623 1 1.00801 0.998229
1.00519 1 1.0067 0.998497
1.00684 1 1.00883 0.998029
1.00089 1 1.00246 0.998426
0.999291 1 1 0.999291
1.00171 1 1.0034 0.998311
0.999323 1 1 0.999323
0.999993 1 1 0.999993
0.999327 1 1 0.999327
0.999997 1 1 0.999997
1 1 1 1
0.999998 1 1 0.999998
1 1 1 1
1 1 1 1
0.999086 1 1 0.999086
0.999847 1 1 0.999847
0.999818 1 1 0.999818
1 1 1 1
0.999742 1 1 0.999742
0.999998 1 1 0.999998
1 1 1 1
0.999987 1 1 0.999987
1 1 1 1
1 1 1 1
0.941524 1.01511 0.933568 0.993507
1.08933 1.13605 0.961697 0.997064
1.05462 1.09665 0.963932 0.997654
0.875268 0.967526 0.921633 0.981568
0.968354 1.0254 0.949643 0.994441
1.06816 1.11583 0.96002 0.99715
0.979978 1.04406 0.942891 0.995477
0.894477 0.975419 0.932647 0.983243
0.871611 0.975105 0.929822 0.961328
0.624172 0.780232 0.86294 0.927042
0.489594 0.667325 0.826782 0.887376
0.999085 1 1.0004 0.998689
0.999207 1 1.00005 0.999155
0.999189 1 1.0001 0.999084
0.999177 1 1.00056 0.998614
1.00012 1 1.00164 0.998484
0.998656 1 1.00031 0.998343
0.999033 1 1.00056 0.998479
0.998665 1 1 0.998665
1.05635 1.12268 0.943686 0.997065
1.033 1.09766 0.943859 0.997067
1.02668 1.05704 0.974409 0.996792
0.996812 1.00312 0.996983 0.996716
1.00617 1.02288 0.987085 0.996533
1.04152 1.00397 1.04024 0.997272
1.04827 1.00552 1.04603 0.996636
1.01153 1.00036 1.01432 0.996884
1.00126 1.00077 1.00205 0.998436
1.0148 1 1.01746 0.997386
0.998855 1 1.00035 0.998504
1.00216 0.998801 1.00437 0.999002
1.002 1.07303 0.936377 0.997249
1.00709 0.999632 1.00905 0.99842
1.01021 1 1.01226 0.997979
0.99631 1.05591 0.946323 0.997073
1.01058 1.02655 0.987807 0.996589
0.974623 1.00193 0.975186 0.997493
1.03163 1.00052 1.03343 0.997743
1.05836 1.00273 1.05826 0.997366
0.960835 1.03413 0.931941 0.996974
0.997289 1.01986 0.980722 0.997091
0.974314 1.00266 0.974464 0.99719
0.971441 0.996828 0.976551 0.997933
1.01089 1 1.01309 0.997829
1.02206 0.99904 1.02508 0.998007
1.05426 0.999197 1.05754 0.997702
0.675309 0.804864 0.906096 0.925989
0.873983 0.973769 0.930053 0.965027
1.00894 0.997161 1.01404 0.997799
1.00029 1.00132 1.0028 0.996181
0.976675 1.02876 0.951877 0.997366
0.995223 1.01001 0.988825 0.996496
1.00763 1.00621 1.00571 0.995726
0.864766 0.972431 0.9249 0.96149
0.849888 0.958596 0.906561 0.977978
0.940688 0.972408 0.97085 0.996426
0.626085 0.772471 0.873986 0.927356
0.515487 0.709399 0.829404 0.876115
1.00439 0.997826 1.0088 0.9978
0.667001 0.807084 0.894462 0.923945
0.536781 0.700418 0.867213 0.883719
0.980022 1.00671 0.975785 0.997648
1.01 1.00258 1.01039 0.997038
1.01338 1.00399 1.01215 0.997232
0.925279 0.95463 0.971971 0.997205
0.820292 0.947776 0.904054 0.957346
0.808166 0.910699 0.907848 0.977491
0.605749 0.760772 0.861759 0.923959
0.581099 0.791311 0.835142 0.87931
1.00534 0.997288 1.00962 0.998476
0.575517 0.738535 0.87931 0.886228
0.62849 0.813895 0.865262 0.892448
0.983755 0.989201 0.995883 0.998606
1.01763 1.00255 1.01653 0.998531
0.936273 0.944362 0.995184 0.996233
0.828832 0.903141 0.936915 0.979513
0.757793 0.887233 0.8949 0.954418
0.632662 0.761377 0.898009 0.925317
0.655389 0.862872 0.857148 0.886129
1.00453 0.996329 1.0096 0.99865
1.01192 0.998223 1.01496 0.998787
1.01036 0.995978 1.01538 0.999074
0.998593 1 1.00028 0.998312
0.998436 1 1.00057 0.997865
1.00752 1 1.0097 0.997849
1.01208 1 1.01419 0.997913
1.01034 0.998422 1.01358 0.998385
0.998924 1 1.00108 0.997847
1.01122 1 1.01311 0.99813
1.00377 1 1.00606 0.997723
1.02516 0.995859 1.03091 0.998559
1.04254 0.993391 1.05043 0.999094
1.01925 1 1.0211 0.998185
1.00198 1 1.0043 0.997692
1.00001 1 1.0021 0.997912
1.00322 0.999855 1.00517 0.998212
1.0014 1 1.00351 0.997895
1.00078 1.00002 1.00255 0.998219
1.00591 0.997994 1.00942 0.998518
1.00539 0.999372 1.00783 0.998201
1.0148 0.998017 1.01862 0.998233
1.0027 0.995511 1.00867 0.998564
1.00933 1.00001 1.01125 0.998086
1.00355 1.00538 1.00093 0.997249
1.01373 1 1.01592 0.99785
1.01203 0.999761 1.01425 0.99805
1.01289 1 1.01492 0.998002
1.00673 1 1.00851 0.998241
1.00312 1 1.00468 0.998445
1.0052 1 1.00698 0.998231
1.00232 1 1.00381 0.998508
0.999295 1 1.00005 0.999241
1.00013 1 1.00175 0.998387
0.999295 1 1 0.999295
0.999974 1 1 0.999974
0.999326 1 1 0.999326
0.999989 1 1 0.999989
1 1 1 1
0.999996 1 1 0.999996
1 1 1 1
1 1 1 1
0.999062 1 1 0.999062
0.999802 1 1 0.999802
0.999089 1 1 0.999089
1 1 1 1
0.999847 1 1 0.999847
0.999813 1 1 0.999813
1 1 1 1
1 1 1 1
0.999996 1 1 0.999996
1 1 1 1
1 1 1 1
0.652264 0.796577 0.892929 0.91702
0.547762 0.720718 0.860189 0.883554
0.874551 0.966025 0.921652 0.982268
0.966604 1.02493 0.948099 0.99472
1.06884 1.11929 0.95769 0.99711
0.887122 0.959267 0.939439 0.984409
0.981305 1.04164 0.946092 0.995753
0.879701 0.982163 0.93149 0.961553
0.607184 0.775408 0.851926 0.919154
0.502272 0.688966 0.82716 0.881358
0.905379 0.992424 0.922709 0.988708
0.841692 0.954673 0.916108 0.962392
0.596303 0.75981 0.847901 0.925587
0.581137 0.782528 0.841584 0.882432
1.00098 1 1.00277 0.998219
0.998948 1 1.00022 0.998732
0.999323 1 1.00017 0.999153
0.999396 1 1.00076 0.998641
0.999609 1 1.00099 0.998621
0.999914 1 1.00192 0.997995
0.998927 1 1.00059 0.998335
0.999367 1 1.00137 0.998004
0.998762 1 1.00034 0.998424
0.998616 1 1 0.998616
0.996006 1.07274 0.930976 0.997305
0.994324 1.05356 0.946568 0.997048
1.01076 1.02869 0.985771 0.996756
0.97695 1.00204 0.97756 0.997346
1.04853 1.00437 1.04668 0.997414
1.04265 1.00142 1.04392 0.997371
1.0111 1 1.01293 0.998188
1.00634 0.999183 1.00879 0.998384
0.960528 1.03485 0.930851 0.997127
1.01379 1 1.01605 0.997769
1.02149 0.998248 1.02535 0.997982
0.987119 1.0157 0.974759 0.997028
0.971984 1.00206 0.97264 0.997274
0.973103 0.99827 0.976834 0.997907
1.04712 0.998761 1.0509 0.997644
0.944449 1.00211 0.945193 0.997106
0.969134 0.997107 0.973746 0.998152
1.01114 0.990482 1.02273 0.998168
1.01088 1 1.01322 0.997686
1.02483 0.998959 1.02824 0.997719
1.02962 0.998671 1.03323 0.997838
0.600495 0.749788 0.889648 0.900229
0.672716 0.802482 0.904207 0.927104
0.866915 0.974097 0.929208 0.957771
1.0034 0.996875 1.00876 0.997806
1.00961 1.00277 1.00982 0.99703
0.981145 1.00796 0.975722 0.997619
1.01133 1.00233 1.01165 0.997369
0.673555 0.801205 0.905311 0.928607
0.825541 0.94935 0.908078 0.957612
0.803039 0.9084 0.906808 0.974864
0.926424 0.951962 0.975632 0.99748
0.602486 0.768091 0.855274 0.917125
0.525784 0.689642 0.860175 0.886333
0.58877 0.795023 0.835503 0.886375
1.00478 0.996896 1.0095 0.998424
0.578688 0.737623 0.880071 0.89144
0.646615 0.832917 0.870322 0.891999
0.980755 0.986461 0.995487 0.998723
1.01666 1.00107 1.01712 0.998474
0.933738 0.94244 0.993644 0.997104
0.816413 0.908451 0.920311 0.976503
0.787556 0.898243 0.91302 0.960302
0.634533 0.769822 0.898094 0.917788
0.649052 0.8545 0.852308 0.891191
1.00616 0.994615 1.01219 0.999431
0.671286 0.836974 0.889601 0.901572
0.659285 0.845664 0.870031 0.896066
0.970304 0.949364 1.02235 0.999715
0.867608 0.90319 0.974659 0.98558
0.791348 0.867367 0.952459 0.957895
0.728365 0.857719 0.928949 0.914139
0.703711 0.908421 0.865934 0.894587
1.00989 0.998858 1.01232 0.998736
1.0129 0.995843 1.01809 0.999059
1.02409 0.984048 1.04136 0.999354
0.999022 1 1.00118 0.997841
1.00279 1 1.00507 0.997725
1.0113 1 1.01326 0.998066
1.02313 0.994252 1.03046 0.998624
1.00235 1 1.00467 0.997692
1.01801 0.999411 1.02047 0.998174
1.04764 0.993176 1.05571 0.999173
1.0411 0.98179 1.06099 0.999446
1.04554 0.994394 1.05241 0.999068
1.01213 0.999509 1.01458 0.998076
1.00115 1 1.00327 0.997883
1.00129 1.00012 1.00299 0.998195
1.00101 0.996028 1.00637 0.998643
1.01349 0.998116 1.01718 0.998258
1.00258 0.999826 1.00457 0.998194
1.00649 0.995165 1.0128 0.998598
1.01466 0.999021 1.01738 0.998298
1.02139 0.991487 1.03123 0.998962
1.00259 1.00188 1.00243 0.998281
1.00708 1.00093 1.00806 0.998097
0.999575 1.00134 1.00071 0.997533
1.00937 1.01175 1.00153 0.996126
1.00719 1.00262 1.00702 0.997552
1.00186 1.00351 1.00075 0.99761
1.01278 1 1.01497 0.997843
1.02124 1 1.02353 0.997758
1.01016 1 1.01213 0.998054
1.01295 1 1.01498 0.998004
1.00615 1 1.00792 0.998236
1.00772 1 1.00949 0.998244
1.00533 1 1.0069 0.998442
1.00186 1 1.00271 0.999152
1.00227 1 1.00375 0.998519
1.00013 1 1.00089 0.999242
0.999944 1 1 0.999944
0.999299 1 1 0.999299
0.999966 1 1 0.999966
1 1 1 1
0.999985 1 1 0.999985
1 1 1 1
1 1 1 1
0.998786 1 1.00009 0.998694
0.999719 1 1 0.999719
0.998966 1 1 0.998966
1 1 1 1
0.999809 1 1 0.999809
0.999092 1 1 0.999092
1 1 1 1
1 1 1 1
0.999847 1 1 0.999847
1 1 1 1
1 1 1 1
1 1 1 1
0.560139 0.727588 0.86622 0.888754
0.662488 0.803622 0.89385 0.922278
0.644805 0.834788 0.866321 0.891607
0.545293 0.722826 0.855108 0.882217
0.886405 0.963724 0.936987 0.981625
0.983571 1.03909 0.950327 0.996044
0.876433 0.984215 0.926311 0.961329
0.621594 0.77145 0.869306 0.926885
0.516126 0.715317 0.824353 0.875273
0.91121 0.987038 0.934814 0.987551
0.816958 0.943806 0.906949 0.954408
0.610305 0.766609 0.862156 0.923395
0.569133 0.774074 0.837274 0.87814
0.864329 0.957379 0.918095 0.983348
0.754806 0.870567 0.90953 0.953271
0.663372 0.809094 0.897169 0.913869
0.646769 0.853094 0.85772 0.883907
1.00463 1 1.00686 0.997778
1.00081 1 1.00253 0.998279
0.998773 1 1 0.998773
0.998956 1 1.0002 0.998759
0.999106 1 1.00155 0.997558
0.999417 1 1.00136 0.998062
0.999099 1 1.00077 0.998327
0.999046 1 1.00107 0.997976
0.999023 1 1.00098 0.998043
0.998571 1 1.0002 0.998369
0.961283 1.03596 0.930454 0.997274
0.978935 1.01197 0.970292 0.996971
0.967839 1.00129 0.969154 0.997358
0.97524 1.00004 0.977268 0.997884
1.03787 0.99893 1.0415 0.997584
1.02105 0.99838 1.0248 0.997958
1.01561 1 1.01795 0.99771
1.01027 1 1.01267 0.997628
0.945966 1.00194 0.946766 0.997216
1.02004 0.998988 1.02345 0.997677
1.02885 0.998588 1.03256 0.997816
0.96819 0.998521 0.971418 0.998154
1.00439 0.993573 1.01279 0.998124
0.939809 0.969946 0.97148 0.997374
0.956745 0.957721 0.999751 0.99923
1.04247 0.985944 1.05905 0.998377
1.00912 0.999401 1.01193 0.997827
1.03319 0.997143 1.03822 0.998004
0.686121 0.851429 0.888167 0.907314
0.59398 0.748998 0.882828 0.898287
0.662979 0.797605 0.903532 0.91996
1.00479 0.997398 1.00905 0.998377
1.0159 0.999159 1.01836 0.998415
0.975606 0.983935 0.99268 0.998847
0.571483 0.732158 0.875619 0.891422
0.759969 0.878122 0.90738 0.953788
0.821219 0.905683 0.926936 0.978212
0.923016 0.936084 0.987991 0.998025
0.645774 0.782758 0.891315 0.925597
0.660038 0.845373 0.875398 0.891898
0.646903 0.850719 0.852659 0.891821
1.00365 0.994331 1.01001 0.999376
0.674065 0.840007 0.888099 0.903562
0.655688 0.840639 0.870107 0.896427
0.972517 0.954424 1.01947 0.999492
0.879526 0.915493 0.974824 0.985525
0.764394 0.866031 0.9277 0.95143
0.69671 0.902628 0.863557 0.893824
0.744982 0.85946 0.944466 0.917771
0.990144 0.9556 1.03645 0.999711
0.665806 0.831457 0.883286 0.906581
0.702704 0.886605 0.879114 0.901564
0.644681 0.851675 0.856189 0.8841
0.925837 0.916937 1.01359 0.996169
0.856849 0.900572 0.991323 0.959777
0.806161 0.926228 0.943121 0.922861
1.01603 0.995896 1.02119 0.999043
1.0272 0.988618 1.03979 0.99927
1.0382 0.978412 1.06156 0.999566
1.00283 1 1.00515 0.997693
1.01682 0.999058 1.01965 0.998162
1.05207 0.991587 1.06179 0.999251
1.01452 0.999428 1.01705 0.998085
1.04537 0.994285 1.05235 0.999079
1.04839 0.982405 1.06779 0.999421
1.03365 0.974209 1.06155 0.999489
1.03006 0.99351 1.03776 0.999058
1.01236 0.998275 1.01585 0.998287
1.00166 1.00018 1.0033 0.998188
1.01179 0.996355 1.01688 0.998633
1.02114 0.993929 1.02847 0.998933
1.01953 1.00001 1.02125 0.99831
1.00851 0.999336 1.01038 0.998815
1.00278 0.999854 1.00428 0.998654
1.00408 1.00148 1.00563 0.996981
1.00551 1.00265 1.00474 0.99812
1.00138 1.00322 1.00076 0.997408
1.00267 1.00472 1.00227 0.995704
1.02503 1.02834 1.00129 0.995493
1.00987 1.01018 1.00264 0.997066
1.00587 1.00833 1.00138 0.99619
1.01531 1.00026 1.01765 0.99744
1.00841 1.00357 1.00726 0.997579
1.00039 1.00184 1.00059 0.997966
1.0124 1 1.0146 0.997836
1.02027 1 1.02254 0.997781
1.012 1 1.01403 0.997994
1.01315 1 1.01517 0.998006
1.00513 1 1.0069 0.998235
1.00288 1 1.0039 0.998979
1.00373 1 1.0053 0.998439
1.00156 1 1.00241 0.999148
0.999915 1 1 0.999915
1.00027 1 1.00102 0.999243
0.999936 1 1 0.999936
1 1 1 1
0.999958 1 1 0.999958
1 1 1 1
1 1 1 1
0.99911 1 1.00077 0.998339
0.999424 1 1 0.999424
0.998939 1 1.00025 0.998692
0.999999 1 1 0.999999
0.999649 1 1 0.999649
0.99887 1 1 0.99887
1 1 1 1
1 1 1 1
0.999815 1 1 0.999815
1 1 1 1
1 1 1 1
1 1 1 1
0.685478 0.859943 0.884189 0.901527
0.571777 0.730334 0.874817 0.894928
0.649782 0.795948 0.886235 0.921158
0.999522 1 1.00165 0.997874
0.65628 0.837024 0.871208 0.899973
0.645749 0.833939 0.86866 0.891415
0.562476 0.742975 0.852325 0.888229
0.918728 0.992043 0.938994 0.986265
0.818836 0.935581 0.910215 0.961548
0.602747 0.773479 0.850518 0.916227
0.55739 0.752187 0.839594 0.882599
0.860375 0.95335 0.921176 0.9797
0.78177 0.888921 0.916358 0.959733
0.650434 0.787122 0.903038 0.915072
0.648241 0.853396 0.857877 0.885444
0.802184 0.898784 0.915261 0.975155
0.769433 0.855859 0.940685 0.955706
0.755104 0.865942 0.948887 0.918974
0.702378 0.903771 0.868743 0.894584
1.00212 1 1.00442 0.997703
1.00515 1 1.00742 0.997752
1.00066 1 1.00233 0.998339
0.998877 1 1.00113 0.997752
0.999708 1 1.00208 0.997637
0.999596 1 1.00147 0.99813
0.999026 1 1.00105 0.997975
0.999077 1 1.001 0.99808
0.948021 1.0029 0.947842 0.997299
0.968563 1.00115 0.969232 0.998165
1.00922 1 1.01168 0.997568
0.997279 0.996342 1.00287 0.998079
1.02864 0.997113 1.0339 0.997793
1.02044 1 1.02286 0.997633
1.0137 0.999965 1.01597 0.997805
0.941255 0.96842 0.974344 0.997543
1.03047 0.998238 1.03436 0.998003
1.03361 0.990655 1.045 0.998422
0.960571 0.96239 0.998835 0.999275
1.01676 0.999791 1.01895 0.998065
0.923779 0.933372 0.992933 0.996767
0.987613 0.958998 1.03038 0.999476
1.07019 0.994039 1.07819 0.998536
1.05915 0.996492 1.06479 0.998211
0.665681 0.826838 0.883749 0.910996
0.685039 0.850651 0.888546 0.906326
0.588283 0.747016 0.878644 0.896279
1.00021 0.994167 1.00677 0.999322
0.975636 0.958273 1.01886 0.999271
0.680033 0.846126 0.887621 0.905455
0.783585 0.851206 0.959705 0.959211
0.868131 0.913287 0.968755 0.981214
0.734789 0.8508 0.943278 0.915579
0.65476 0.839196 0.870098 0.896708
0.694479 0.900695 0.863392 0.893045
0.99908 0.96749 1.03299 0.999669
0.66712 0.833363 0.882968 0.90662
0.707205 0.886521 0.882761 0.903677
0.942529 0.928828 1.01599 0.998778
0.646427 0.851951 0.856829 0.885545
0.824452 0.878859 0.981615 0.955664
0.803686 0.917525 0.949633 0.922386
0.992418 0.957783 1.03655 0.999629
0.708446 0.872545 0.890263 0.912012
0.657933 0.83544 0.874328 0.900724
0.578226 0.779651 0.840398 0.882495
0.750083 0.861373 0.94829 0.918283
0.925117 0.926499 1.00788 0.990703
0.871418 0.907981 1.01035 0.9499
1.0288 0.994104 1.03574 0.999188
1.03359 0.972953 1.06282 0.999534
1.01703 0.952358 1.06835 0.999581
1.01598 0.998796 1.01915 0.998094
1.04638 0.992992 1.05472 0.999091
1.0571 0.984281 1.07463 0.999396
1.02451 0.993285 1.03242 0.999045
1.02984 0.975301 1.05646 0.999488
0.991635 0.972749 1.0202 0.999235
1.02045 0.995675 1.02601 0.998903
1.02393 0.999151 1.02652 0.998324
1.0145 0.999222 1.01652 0.998788
1.00632 0.998097 1.01026 0.997999
1.0024 0.998487 1.0049 0.999025
0.998127 1.00128 0.999619 0.997233
1.00745 1.00302 1.00945 0.995011
1.00806 1.01048 1.00283 0.994783
1.0026 1.00508 1.00026 0.997272
1.00308 1.00559 1.00205 0.995462
1.02356 1.02762 1.00053 0.995521
1.02088 1.02207 1.00261 0.996231
1.02151 1.02473 1.00125 0.995609
1.01297 1.00591 1.00982 0.997224
1.01322 1.0129 1.00331 0.997022
1.00145 1.00393 1.00128 0.996257
1.01949 1 1.02176 0.99777
1.01467 1.00044 1.01679 0.997472
1.00954 1.00437 1.00757 0.997605
1.01898 1 1.02123 0.997804
1.01225 1 1.01428 0.997996
1.00796 1 1.00924 0.998731
1.0064 1 1.00818 0.998233
1.00373 1 1.00476 0.998973
0.999871 1 1 0.999871
1.00266 1 1.00352 0.999144
0.999907 1 1 0.999907
1 1 1 1
0.999928 1 1 0.999928
1 1 1 1
1 1 1 1
0.999568 1 1.00133 0.998243
0.999873 1 1.0007 0.999175
0.999347 1 1.00094 0.998406
0.999988 1 1 0.999988
0.999397 1 1 0.999397
0.998943 1 1.00025 0.99869
1 1 1 1
0.999999 1 1 0.999999
0.999578 1 1 0.999578
1 1 1 1
1 1 1 1
1 1 1 1
0.671068 0.834291 0.883754 0.910159
0.685189 0.857532 0.886245 0.901583
0.573276 0.728692 0.879074 0.894941
0.999674 1 1.00176 0.997917
1.00549 1 1.00771 0.997799
0.998701 1 1.00077 0.997932
0.707381 0.890598 0.881571 0.900978
0.655297 0.838995 0.867526 0.900319
0.643687 0.835343 0.864565 0.891276
0.865017 0.959735 0.917902 0.981922
0.750967 0.879235 0.895958 0.953297
0.660236 0.776948 0.918625 0.925057
0.651123 0.860777 0.857242 0.882407
0.808648 0.903903 0.914347 0.978423
0.785301 0.866675 0.948612 0.955193
0.746534 0.859031 0.944719 0.919894
0.69715 0.901159 0.865632 0.8937
0.826389 0.897249 0.944077 0.975582
0.825656 0.883173 0.976746 0.957132
0.807556 0.922604 0.948048 0.923266
0.659474 0.86475 0.860231 0.886527
0.999661 0.999843 1.00186 0.99796
1.00179 1 1.00414 0.997657
1.00432 1 1.00661 0.997726
0.998612 1 1.00088 0.997733
0.999651 1 1.00194 0.997716
0.998698 1 1.00073 0.997974
0.937827 0.961417 0.977677 0.997736
0.962491 0.962442 1.00076 0.999294
1.01276 1 1.01501 0.997785
1.0293 0.997232 1.03374 0.998466
1.02643 0.999656 1.02884 0.998001
1.01519 0.998803 1.01836 0.998083
1.04084 0.990997 1.05214 0.998248
0.926918 0.931452 0.998246 0.996881
1.06407 0.989568 1.07671 0.998678
0.988126 0.947415 1.04376 0.999243
1.02608 0.987961 1.04023 0.998418
0.946083 0.929985 1.02105 0.996337
1.00946 0.957254 1.05553 0.99906
1.02769 0.960098 1.0717 0.998792
0.727237 0.886203 0.898734 0.913086
0.671611 0.830644 0.887228 0.911313
0.6832 0.850103 0.887691 0.905345
1.00846 0.978998 1.03048 0.999627
0.931066 0.927915 1.00668 0.996737
0.667333 0.833567 0.882993 0.906661
0.820612 0.864257 0.988971 0.960089
0.795507 0.921078 0.942082 0.916767
0.709583 0.888003 0.882202 0.905776
0.65107 0.85983 0.857853 0.882678
0.985339 0.951497 1.03585 0.999723
0.70575 0.867526 0.891231 0.912805
0.661277 0.843609 0.869892 0.901109
0.920103 0.922044 1.01227 0.985796
0.56608 0.769408 0.837573 0.878411
0.746158 0.857821 0.946741 0.918762
0.862448 0.904557 0.994966 0.958272
1.00556 0.945293 1.06614 0.997765
0.672977 0.833118 0.886989 0.9107
0.656583 0.84166 0.874274 0.892289
0.491923 0.665752 0.831993 0.888106
0.650354 0.797435 0.892882 0.913399
0.833472 0.879649 0.990569 0.956527
0.887286 0.906868 0.996569 0.981775
1.02799 0.969427 1.06094 0.999501
1.02687 0.966392 1.06303 0.999575
1.00123 0.961766 1.04162 0.999436
1.01929 0.994311 1.02612 0.999032
1.02584 0.976767 1.05078 0.999487
0.997077 0.969654 1.02898 0.999319
1.0114 0.993073 1.01972 0.998751
1.022 0.99973 1.02355 0.998758
1.00354 0.999639 1.00625 0.997675
1.0301 1.00117 1.03345 0.995592
0.992158 1.00059 0.994064 0.997492
1.00868 1.00267 1.01095 0.995095
1.00807 1.00411 1.00985 0.994155
1.01455 1.01827 1.00191 0.994454
1.01498 1.0188 1.00108 0.995177
1.00791 1.0101 1.00312 0.994725
1.00322 1.00634 1.00169 0.995223
1.01636 1.01948 1.0011 0.995848
1.02559 1.02961 1.00048 0.995617
1.01233 1.01074 1.00498 0.996618
1.02266 1.02364 1.00274 0.996321
1.01999 1.02317 1.00117 0.995725
1.01823 1.00319 1.01754 0.997497
1.01396 1.00669 1.01005 0.99721
1.01671 1.01589 1.00384 0.996975
1.01496 1 1.01651 0.998474
1.01813 1 1.02041 0.997768
1.01509 1.00069 1.01693 0.997505
1.01192 1 1.01395 0.997999
1.00691 1 1.00819 0.998728
1.00035 1 1.00056 0.999784
1.00309 1 1.00413 0.998966
0.99986 1 1 0.99986
1 1 1 1
0.9999 1 1 0.9999
1 1 1 1
1 1 1 1
0.999629 1 1.00147 0.998162
1.00043 1 1.00133 0.999105
1.00001 1 1.00174 0.99827
0.999961 1 1 0.999961
0.999612 1 1.00039 0.999227
0.999466 1 1.00099 0.998474
1 1 1 1
0.999992 1 1 0.999992
0.99937 1 1 0.99937
1 1 1 1
1 1 1 1
1 1 1 1
0.705363 0.870069 0.889614 0.911292
0.677668 0.835937 0.890635 0.910213
0.687437 0.857064 0.889548 0.901676
1.02256 1 1.02495 0.997667
1.0067 1.00076 1.0082 0.997754
0.99929 1 1.00133 0.997961
1.00513 1 1.00737 0.997775
0.999204 1 1.00124 0.997964
1.00586 1 1.00798 0.997901
0.997116 0.998964 1 0.99815
0.665893 0.853979 0.870017 0.896251
0.710395 0.889037 0.884782 0.903117
0.66128 0.837739 0.876422 0.900665
0.695246 0.900663 0.864603 0.89281
0.812851 0.910478 0.915171 0.975526
0.792359 0.865682 0.959123 0.954309
0.752373 0.873324 0.932118 0.924245
0.813185 0.899788 0.927485 0.974411
0.829416 0.876516 0.995766 0.950288
0.80279 0.915464 0.950022 0.923054
0.652495 0.858176 0.852829 0.891536
0.86364 0.905069 0.975731 0.977959
0.850192 0.89028 1.00509 0.950136
0.731941 0.860465 0.929899 0.91476
0.578635 0.783736 0.838164 0.880858
1.04619 0.997697 1.05031 0.998375
1.00172 0.999585 1.00415 0.997995
1.00282 1 1.00522 0.997611
0.998694 1 1.00098 0.997715
0.936331 0.934801 1.00464 0.997011
0.987405 0.939697 1.05182 0.999005
1.01305 0.997897 1.01711 0.998101
1.03025 0.99069 1.04172 0.998285
1.04774 0.97516 1.07569 0.998821
1.02797 0.993666 1.03616 0.99842
1.03858 0.960302 1.08284 0.998779
0.945979 0.929157 1.02387 0.994372
1.01025 0.950059 1.06417 0.99923
1.01222 0.96879 1.04598 0.998906
0.936447 0.914383 1.0312 0.993146
0.985397 0.932805 1.05718 0.99924
0.67163 0.827761 0.89002 0.911645
0.722377 0.880345 0.896187 0.915614
0.679571 0.834548 0.893244 0.911619
0.976167 0.941156 1.0374 0.999805
0.927416 0.926058 1.01031 0.99125
0.701444 0.861731 0.890962 0.913613
0.878319 0.915377 1.00898 0.950973
0.748053 0.868159 0.933254 0.923279
0.668174 0.844624 0.877586 0.901439
0.555476 0.747162 0.842194 0.882751
1.00609 0.947265 1.06416 0.998061
0.678697 0.839326 0.887841 0.910773
0.650078 0.833231 0.874536 0.892118
0.88955 0.906685 0.996341 0.984705
0.50555 0.689703 0.830899 0.882173
0.640989 0.777049 0.902267 0.914254
0.831563 0.880994 0.992473 0.951051
0.988423 0.946766 1.0489 0.995326
0.691645 0.866949 0.884573 0.901895
0.544299 0.713164 0.862963 0.884415
0.595953 0.75898 0.847732 0.926239
0.773317 0.844174 0.956966 0.957258
0.836934 0.879808 0.973977 0.976686
1.0345 0.97217 1.06455 0.99959
1.00596 0.959881 1.04858 0.999449
0.982077 0.966748 1.01667 0.999194
1.00243 0.966374 1.03793 0.999402
1.01224 0.981199 1.0328 0.998868
1.01886 1.0008 1.02053 0.997569
1.00025 1.00119 1.00171 0.997353
1.02985 1.00145 1.03311 0.995397
1.0172 1.00331 1.0195 0.994446
1.01013 1.00257 1.01242 0.995179
1.00935 1.00435 1.01099 0.994058
1.00495 1.00649 1.00448 0.99401
1.04989 1.05554 0.999822 0.994826
1.02889 1.03344 1.00077 0.994827
1.01452 1.01801 1.00218 0.994396
1.01688 1.02135 1.00013 0.995491
1.01288 1.01697 1.00074 0.995241
1.00775 1.00955 1.00357 0.994665
1.01904 1.02144 1.00179 0.995869
1.01668 1.01984 1.00108 0.995821
1.02636 1.03034 1.00043 0.995714
1.01038 1.00528 1.00807 0.997041
1.01321 1.01046 1.006 0.996742
1.02318 1.0239 1.00289 0.996413
1.01725 1.00247 1.01663 0.998153
1.01725 1.00397 1.01576 0.997504
1.01429 1.00772 1.00935 0.997195
1.00325 1 1.00359 0.999663
1.01458 1.00023 1.01589 0.998473
1.01627 1 1.01854 0.997766
1.00661 1 1.0079 0.998725
1.00101 1 1.00124 0.99977
1 1 1 1
0.999906 1 1.00006 0.999849
1 1 1 1
1 1 1 1
1.01646 1.00029 1.01852 0.997689
1.00988 1 1.01197 0.997932
1.00032 1 1.00143 0.998886
1.00123 1 1.00308 0.998157
0.999921 1 1 0.999921
1.00037 1 1.00127 0.999107
1.00115 1 1.00286 0.998298
1 1 1 1
0.99997 1 1 0.99997
0.999369 1 1.00009 0.99928
1 1 1 1
0.999996 1 1 0.999996
1 1 1 1
0.671424 0.834855 0.88683 0.906872
0.699853 0.865113 0.886915 0.912119
0.677485 0.839582 0.886486 0.910258
1.02456 1 1.02697 0.997659
1.00996 1.00074 1.01146 0.997784
0.998041 1.00131 0.999192 0.997539
1.02659 0.999945 1.02894 0.997768
1.00742 1.0019 1.00771 0.997819
1.00727 1 1.00954 0.99775
0.99978 1 1.00179 0.997995
1.00692 0.999592 1.00944 0.997908
0.998457 0.999936 1.00031 0.998209
1.02622 0.999582 1.02846 0.998239
0.633858 0.821489 0.864552 0.892482
0.662676 0.846682 0.872853 0.896684
0.708646 0.88841 0.881144 0.905251
0.649893 0.856506 0.850491 0.892159
0.797569 0.918422 0.946778 0.917229
0.808096 0.8932 0.930161 0.972649
0.831875 0.876906 0.991891 0.956403
0.854039 0.909204 0.964714 0.973684
0.853372 0.903921 0.986825 0.956682
0.748567 0.858929 0.948291 0.919034
0.585246 0.796303 0.835767 0.879376
0.879432 0.905944 0.994056 0.97654
0.833572 0.86867 1.00218 0.957509
0.641587 0.76615 0.905091 0.92523
0.530392 0.706488 0.845288 0.888152
1.03678 0.998756 1.03918 0.998928
1.04775 0.997087 1.05252 0.998382
1.00659 1 1.00857 0.998033
0.943591 0.927464 1.0253 0.992288
1.01235 0.946405 1.07035 0.999367
1.02912 0.996939 1.03391 0.998422
1.05318 0.959263 1.09926 0.998767
1.01733 0.974266 1.04534 0.998912
0.991369 0.942418 1.05273 0.999255
0.93476 0.914651 1.02901 0.993171
1.00745 0.981867 1.02672 0.999345
0.95464 0.940659 1.0204 0.994569
0.693986 0.857369 0.892511 0.90692
0.682448 0.836682 0.894434 0.91193
0.716112 0.874638 0.891697 0.918196
1.0099 0.958267 1.05569 0.998286
0.884901 0.907505 0.995516 0.979484
0.688096 0.847691 0.891193 0.910835
0.835957 0.881701 0.994118 0.95373
0.646461 0.764845 0.914783 0.923956
0.640069 0.829646 0.864852 0.892056
0.517814 0.715231 0.826316 0.876157
0.985509 0.945627 1.04669 0.995688
0.688727 0.859928 0.88804 0.901887
0.544439 0.718064 0.858591 0.883081
0.851157 0.895173 0.971673 0.978549
0.60925 0.765945 0.860956 0.923882
0.768202 0.856746 0.94062 0.953255
0.930686 0.928413 1.0091 0.993404
0.561783 0.727631 0.868091 0.88939
0.626825 0.782081 0.863913 0.927736
0.756882 0.874698 0.907681 0.953316
0.809502 0.886816 0.931963 0.979458
1.00951 0.960297 1.05181 0.999466
0.984972 0.957719 1.02932 0.999164
0.996181 0.986797 1.01114 0.998388
1.0128 0.967672 1.0477 0.998979
1.01145 0.998937 1.0149 0.997666
0.991833 1.00436 0.991069 0.996423
1.02898 1.00139 1.03252 0.995198
1.01575 1.00459 1.01676 0.994439
1.00369 1.00767 1.00108 0.994975
1.01015 1.00448 1.01176 0.993962
1.00444 1.00672 1.0037 0.994051
1.04139 1.04937 0.997275 0.995107
1.074 1.08435 0.994758 0.995679
1.06352 1.06892 1.00002 0.994929
1.05079 1.05662 0.999627 0.99486
1.03844 1.04353 1 0.995126
1.02756 1.03186 1.00107 0.994765
1.01526 1.01856 1.00244 0.994339
1.03313 1.03773 1 0.995561
1.01475 1.01926 1.00002 0.99556
1.01065 1.0151 1.00032 0.995306
1.01684 1.01515 1.00532 0.996359
1.01591 1.01738 1.00262 0.995948
1.01793 1.02111 1.0011 0.995794
1.01789 1.00338 1.01681 0.997691
1.01464 1.00735 1.01023 0.997036
1.01421 1.01043 1.0069 0.996864
1.00547 1 1.00595 0.999526
1.01813 1.00313 1.01684 0.998152
1.01742 1.00485 1.01504 0.997511
0.999913 1 1 0.999913
1.00449 1 1.00484 0.999647
1.01417 1.00022 1.0155 0.998472
1.00168 1 1.00192 0.999756
1 1 1 1
1 1 1 1
1.01063 1.00301 1.01012 0.997495
1.016 1.00019 1.01814 0.997704
1.01934 1.00006 1.02167 0.997661
1.00376 1 1.00511 0.998654
1.00824 1.00009 1.01024 0.997927
1.00001 1 1.00014 0.999868
1.0011 1 1.00221 0.99889
1.00216 1 1.00401 0.998151
1 1 1 1
0.999933 1 1 0.999933
1.00004 1 1.00093 0.99911
1 1 1 1
0.999979 1 1 0.999979
1 1 1 1
0.67733 0.843602 0.885625 0.906594
0.675392 0.839071 0.887526 0.906935
0.700639 0.857863 0.894627 0.912923
1.0088 1.00439 1.00712 0.997291
1.02194 1 1.02435 0.997651
1.0067 1 1.0089 0.997818
1.01992 1 1.02227 0.997703
1.00044 1.00326 0.999629 0.997562
1.00265 1.00092 1.00371 0.998036
1.01692 1.00276 1.01714 0.997029
1.01994 0.992699 1.02942 0.998072
1.00715 0.999241 1.01002 0.997915
0.998267 1 1 0.998267
1.02788 0.997925 1.03185 0.998224
1.04547 1.00119 1.04583 0.998474
0.565357 0.729534 0.872944 0.88775
0.650428 0.838703 0.869368 0.892046
0.662445 0.843628 0.875381 0.897019
0.592443 0.799814 0.835717 0.886335
0.738838 0.852569 0.944662 0.917367
0.855013 0.896423 1.00373 0.950259
0.858554 0.908031 0.970279 0.974474
0.874967 0.902312 0.990598 0.978898
0.524513 0.709083 0.838531 0.882146
0.825752 0.875004 0.991133 0.952155
0.643529 0.774593 0.90547 0.91753
0.874389 0.90971 0.979524 0.981266
0.79424 0.864281 0.957669 0.95958
0.595584 0.756278 0.851329 0.925047
0.986471 1.0012 0.985741 0.999543
1.03904 0.999385 1.04079 0.998934
1.04711 0.996684 1.05229 0.998386
0.938595 0.918233 1.02916 0.993218
0.998702 0.954339 1.04725 0.999273
1.02483 0.983638 1.04301 0.998919
1.00372 0.978725 1.02621 0.999349
0.95031 0.939928 1.0165 0.994631
0.975964 0.974386 1.00504 0.996591
0.595914 0.74617 0.891566 0.895762
0.689818 0.854382 0.888302 0.908912
0.687244 0.843663 0.893048 0.912152
0.984765 0.943916 1.04758 0.995895
0.845986 0.893106 0.967125 0.97944
0.684235 0.851668 0.89068 0.902014
0.784908 0.855704 0.962303 0.953198
0.603668 0.77465 0.849901 0.916905
0.564903 0.74096 0.857632 0.888952
0.929623 0.921899 1.01504 0.993435
0.573857 0.730479 0.877305 0.895458
0.610175 0.776154 0.85467 0.919832
0.807847 0.893303 0.927539 0.974985
0.784638 0.895194 0.913231 0.959779
0.923641 0.944061 0.981337 0.996976
0.652461 0.794626 0.895074 0.917345
0.845466 0.957671 0.91736 0.962366
0.803099 0.906396 0.909145 0.974581
0.989163 0.95108 1.04094 0.999139
0.982536 0.985903 0.998114 0.998468
0.989085 1.00032 0.991445 0.997298
1.00407 0.997559 1.00878 0.997765
0.99435 1.00428 0.993709 0.99638
0.997453 1.0098 0.991482 0.996255
1.01525 1.00642 1.01442 0.994432
1.0036 1.00736 1.0013 0.994971
1.03517 1.05085 0.988908 0.996131
1.00402 1.00678 1.00319 0.994093
1.03989 1.04829 0.99686 0.995113
1.0699 1.08701 0.98786 0.996356
1.06583 1.08178 0.988728 0.996492
1.07663 1.08466 0.996999 0.995592
1.07611 1.08646 0.994721 0.995731
1.07022 1.07542 1 0.995163
1.06114 1.06646 1 0.99501
1.05047 1.05647 0.999422 0.994894
1.05603 1.06096 1 0.995362
1.03879 1.04372 1.00014 0.995144
1.02584 1.02978 1.00148 0.994703
1.03733 1.04029 1.00133 0.995822
1.03016 1.03471 1.00004 0.995558
1.0127 1.01715 1 0.995629
1.0127 1.00695 1.00856 0.997179
1.0198 1.01801 1.00542 0.996348
1.01249 1.0129 1.00359 0.996028
1.00536 1 1.00614 0.999218
1.01666 1.00525 1.0137 0.997685
1.01758 1.00946 1.01105 0.99703
1 1 1 1
1.00558 1 1.00616 0.999429
1.01851 1.0039 1.01643 0.998151
1 1 1 1
1.00561 1 1.006 0.999612
1 1 1 1
1.00795 1.00808 1.00269 0.997182
1.00882 1.00265 1.00873 0.997441
1.01652 1.00139 1.01761 0.997534
1.01015 1 1.01173 0.998436
1.01844 1.00015 1.02064 0.997701
1.02532 1 1.02775 0.997633
1.00082 1 1.00103 0.999788
1.00294 1 1.00428 0.99866
1.00685 1 1.00895 0.99792
1 1 1 1
1.00002 1 1.00014 0.999881
1.00147 1 1.00258 0.998895
1 1 1 1
0.999945 1 1 0.999945
1 1 1 1
0.573461 0.736148 0.877966 0.88728
0.681982 0.84968 0.885236 0.906688
0.679597 0.844202 0.887541 0.907019
1.01548 1.00301 1.01521 0.99726
1.0292 1.0112 1.02105 0.996817
1.03346 1.00228 1.03405 0.997157
1.0204 1 1.02281 0.997636
1.00261 1.00608 0.998959 0.997586
1.0002 0.999015 1.00294 0.998246
1.0216 0.996864 1.02689 0.997973
1.01886 1.00272 1.01893 0.997216
1.01903 0.999015 1.02267 0.997422
0.971633 1.00069 0.971971 0.998965
1.02909 0.999097 1.03187 0.998208
1.04043 0.999887 1.04218 0.998437
0.618809 0.777155 0.86947 0.915787
0.538705 0.7032 0.867079 0.883514
0.66259 0.849656 0.874303 0.891948
0.519642 0.712896 0.832181 0.875912
0.654579 0.785278 0.900857 0.9253
0.813804 0.869274 0.98182 0.953524
0.87052 0.896884 0.994747 0.97573
0.859869 0.900435 0.976226 0.978204
0.612913 0.764254 0.868824 0.923058
0.77514 0.860129 0.945036 0.953604
0.838227 0.907317 0.942222 0.980503
0.757517 0.896059 0.885855 0.954317
0.994725 1 0.995651 0.99907
0.986369 1.00074 0.98615 0.999483
1.03969 0.998544 1.04231 0.998939
0.93856 0.932034 1.01235 0.994716
0.997274 0.972676 1.02595 0.999354
0.978189 0.977483 1.00418 0.996552
0.95778 0.984379 0.977625 0.995249
0.678199 0.805881 0.909243 0.925564
0.590261 0.744484 0.88544 0.895425
0.692969 0.856352 0.888475 0.910786
0.931648 0.929454 1.00873 0.993683
0.812106 0.892586 0.932832 0.975347
0.575205 0.729818 0.880238 0.89538
0.753632 0.884965 0.892838 0.953807
0.623081 0.770772 0.871482 0.927598
0.921687 0.947722 0.977137 0.995284
0.665254 0.804655 0.896033 0.922687
0.819962 0.946434 0.907412 0.95477
0.80599 0.905686 0.910339 0.977572
0.928557 0.971668 0.958889 0.996603
0.873757 0.975084 0.931963 0.961501
0.861577 0.956672 0.917491 0.981589
0.968045 0.983367 0.985872 0.998526
0.983742 1.00034 0.986112 0.99726
0.97565 1.00912 0.969712 0.99703
0.996368 1.00385 0.996196 0.996339
0.99688 1.00914 0.991581 0.996242
1.01707 1.05432 0.967637 0.996933
1.00298 1.00662 1.00142 0.994969
1.03169 1.04876 0.987577 0.996103
1.04881 1.08578 0.968884 0.996976
1.03897 1.04777 0.99646 0.995118
1.06835 1.08646 0.986943 0.996343
1.05525 1.08255 0.977719 0.996992
1.06204 1.08198 0.984645 0.996878
1.06578 1.08238 0.988057 0.996569
1.06771 1.0791 0.993082 0.996342
1.08029 1.08623 0.998873 0.995656
1.07738 1.08484 0.997482 0.995626
1.07882 1.08921 0.99465 0.995782
1.07565 1.08067 1 0.995348
1.07153 1.07672 1 0.995187
1.05936 1.06458 1 0.995091
1.05736 1.06207 1 0.995564
1.05756 1.0625 1 0.99536
1.03925 1.04412 1.00017 0.995163
1.01361 1.01643 1.00052 0.996704
1.03716 1.04067 1.0008 0.995829
1.027 1.03149 1.00009 0.995555
1.00464 1 1.0058 0.99885
1.01522 1.00947 1.00855 0.997172
1.02381 1.02129 1.00614 0.996339
1 1 1 1
1.0057 1 1.00651 0.999195
1.01709 1.00711 1.01226 0.997678
0.999931 1 1 0.999931
1.00627 1 1.00685 0.999425
1 1 1 1
1.01855 1.01481 1.00688 0.996839
1.00737 1.00402 1.00617 0.997192
1.00941 1.00355 1.0085 0.997359
1.00568 1.0019 1.0064 0.997388
1.01586 1.00108 1.01727 0.997539
1.01594 1 1.01776 0.99821
1.00218 1 1.00251 0.999669
1.00912 1 1.0107 0.998435
1.01892 1 1.02127 0.997699
1 1 1 1
1.00017 1 1.00037 0.999805
1.00213 1 1.00347 0.998665
1 1 1 1
0.999897 1 1 0.999897
1 1 1 1
0.652371 0.79622 0.888153 0.922515
0.575859 0.736285 0.879259 0.889515
0.683386 0.852535 0.883973 0.906807
1.02068 1.00171 1.02177 0.997231
1.04148 1.00195 1.04272 0.99687
1.02357 1.01027 1.01636 0.996852
1.01492 1.01668 1.00242 0.995855
1.03134 1.00399 1.03 0.997316
1.01978 0.999926 1.02202 0.997881
1.02024 1.00327 1.01956 0.997403
1.02007 1.00074 1.02183 0.997546
0.995974 1.00822 0.990709 0.997116
0.961102 1.00117 0.961469 0.998448
0.968846 1.00064 0.970508 0.997653
0.977546 1.00104 0.977528 0.998984
1.03458 0.998779 1.0375 0.998402
0.82032 0.941427 0.90815 0.959487
0.612962 0.773254 0.863244 0.918285
0.527659 0.692049 0.860551 0.886013
0.609645 0.773011 0.860676 0.91633
0.78005 0.863889 0.944423 0.956089
0.869241 0.901228 0.982903 0.981284
0.835672 0.90428 0.940364 0.982737
0.791471 0.899363 0.915522 0.961239
0.851867 0.951363 0.912105 0.981704
0.98874 1.00076 0.98974 0.998234
0.995906 0.999664 0.997196 0.999042
0.986748 1.00037 0.986948 0.999424
0.982873 0.982673 1.00363 0.996585
0.967156 0.987397 0.983436 0.995999
0.863119 0.964886 0.934215 0.95752
0.675608 0.804015 0.906589 0.926873
0.58319 0.740396 0.879927 0.895157
0.925379 0.956249 0.974078 0.99347
0.811248 0.916705 0.907761 0.974883
0.654193 0.798552 0.888909 0.921605
0.823718 0.94099 0.910352 0.961578
0.93743 0.973412 0.966209 0.996715
0.881361 0.982585 0.932971 0.961425
0.858419 0.953372 0.920267 0.978415
0.933783 0.999861 0.937671 0.995992
0.90379 0.988291 0.926274 0.987287
0.981516 1.00215 0.982112 0.997252
0.969814 1.00902 0.964053 0.996987
0.975182 1.04375 0.936804 0.997333
0.995979 1.00856 0.991269 0.996228
1.02044 1.05634 0.969027 0.996897
1.03825 1.09022 0.954918 0.997295
1.02818 1.04663 0.986243 0.996074
1.04893 1.08545 0.969313 0.996947
1.04493 1.0849 0.96585 0.997213
1.06626 1.08534 0.986041 0.996331
1.05502 1.08184 0.978174 0.996969
1.05794 1.0865 0.976579 0.997064
1.05997 1.08087 0.983679 0.996935
1.06356 1.08176 0.986446 0.996686
1.06546 1.08262 0.987456 0.996647
1.06723 1.07893 0.9928 0.996334
1.06965 1.07777 0.996361 0.996096
1.07956 1.08454 0.999808 0.995596
1.08073 1.08637 0.999157 0.995643
1.078 1.08489 0.997974 0.99566
1.0702 1.07507 1 0.995467
1.07755 1.0826 1 0.995337
1.07281 1.07797 1 0.995211
1.02666 1.03033 1.00009 0.996335
1.05665 1.06135 1 0.995571
1.0591 1.06404 1 0.995358
1.00129 1.00033 1.00253 0.998434
1.01703 1.01933 1.00104 0.996709
1.03705 1.04092 1.00045 0.995835
1 1 1 1
1.00399 1 1.00517 0.998822
1.01639 1.01185 1.00734 0.997165
1 1 1 1
1.00535 1 1.00618 0.999171
1 1 1 1
1.02788 1.03121 1.00086 0.995917
1.01771 1.01715 1.00374 0.99683
1.01041 1.00685 1.0066 0.996965
1.00753 1.00039 1.00996 0.997202
1.00856 1.00207 1.00919 0.997311
1.01494 1.00205 1.01501 0.997883
1.01796 1.00081 1.01964 0.997543
1.01722 1 1.01905 0.998204
1.00673 1 1.00725 0.999485
1 1 1 1
1.00229 1 1.00261 0.999683
1.01045 1 1.01203 0.998435
1 1 1 1
1.00026 1 1.00044 0.999818
1 1 1 1
0.87201 0.972476 0.930527 0.963636
0.66634 0.806323 0.894753 0.9236
0.570455 0.734282 0.876406 0.886448
1.05139 1.00153 1.05339 0.99658
1.01864 1.01085 1.01085 0.996888
1.02669 1.00448 1.02504 0.997138
1.01383 1.01567 1.00224 0.995956
1.03693 1.04128 1.00016 0.99566
1.00017 1.011 0.992481 0.996783
1.024 1.0028 1.02353 0.997664
0.997515 1.00991 0.990809 0.99689
0.970157 1.00218 0.969569 0.99843
0.997838 1.00579 0.994953 0.997125
0.972232 1.00345 0.97125 0.99757
0.992436 1.00165 0.993667 0.997118
0.967657 1.00095 0.96892 0.997753
0.983953 0.999846 0.985086 0.999004
0.864329 0.963972 0.913475 0.981562
0.825579 0.950605 0.906093 0.958487
0.629291 0.773729 0.87798 0.926356
0.762914 0.887143 0.901827 0.953583
0.847825 0.906622 0.950467 0.983882
0.857694 0.940247 0.924722 0.986461
0.954785 1.0036 0.954924 0.996271
0.98575 1.00011 0.987487 0.998127
0.996448 0.999002 0.998428 0.999014
0.973087 0.989404 0.986732 0.996733
0.893425 0.973448 0.934365 0.982265
0.873746 0.970989 0.932594 0.964891
0.665108 0.798894 0.905283 0.919641
0.935432 0.96877 0.96864 0.996849
0.858806 0.955399 0.917019 0.980239
0.877705 0.983287 0.928749 0.961103
0.932088 0.997957 0.937617 0.996138
0.907693 0.985587 0.933812 0.986245
0.943922 1.02548 0.923714 0.996491
0.955713 1.02486 0.937425 0.994774
0.963302 1.00887 0.957769 0.996936
0.972689 1.04058 0.937252 0.997336
1.00686 1.08578 0.929855 0.997267
1.02464 1.0589 0.970693 0.996861
1.03809 1.0897 0.95525 0.99727
1.05385 1.09469 0.965427 0.997162
1.0494 1.0855 0.969734 0.996918
1.04631 1.08474 0.967291 0.997193
1.06428 1.0953 0.974579 0.99702
1.05501 1.08143 0.978556 0.996946
1.05651 1.08431 0.977231 0.997059
1.06407 1.08766 0.981464 0.996791
1.05808 1.07999 0.982676 0.996992
1.06297 1.08155 0.986043 0.996732
1.06844 1.08117 0.991833 0.996357
1.06682 1.07884 0.992504 0.996326
1.07035 1.07833 0.996494 0.996086
1.07524 1.08089 0.998881 0.995886
1.07262 1.07742 1 0.995547
1.08029 1.08521 0.999904 0.995563
1.08113 1.08645 0.999471 0.995631
1.04366 1.0477 1 0.996141
1.06898 1.07384 1 0.995474
1.07965 1.08472 1 0.995325
1.00208 1.00356 1.00039 0.998135
1.02662 1.03015 1.00024 0.996335
1.05514 1.05983 1 0.995577
1 1 1 1
1.00135 1.00111 1.00184 0.998409
1.0204 1.02216 1.00157 0.996714
1 1 1 1
1.00371 1 1.00492 0.998796
1 1 1 1
1.04748 1.05209 1 0.995616
1.02829 1.03197 1.00049 0.995944
1.0267 1.02828 1.00221 0.996263
1.01719 1.01859 1.00182 0.99682
1.01205 1.00977 1.00538 0.996888
1.01475 1.00968 1.00759 0.99745
1.00711 1 1.00987 0.997263
1.01418 1.00146 1.01485 0.997886
1.00682 1 1.00758 0.999243
1.01567 1 1.0175 0.998199
1.00493 1 1.00544 0.999497
1 1 1 1
1 1 1 1
1.00108 1 1.00139 0.999699
1 1 1 1
0.887927 0.964568 0.936513 0.982948
0.862933 0.968676 0.931158 0.956699
0.671697 0.799139 0.905535 0.928208
1.06269 1.06732 0.999978 0.995679
1.02083 1.00436 1.01949 0.996965
1.01343 1.01532 1.00208 0.996058
1.00075 1.01171 0.992346 0.996795
1.03643 1.04052 1.00042 0.995644
1.02223 1.02646 0.999146 0.996732
1.00072 1.01176 0.992396 0.996664
0.976983 1.00224 0.976356 0.998409
0.996538 1.00759 0.991867 0.99714
0.964142 1.00265 0.964078 0.997423
1.02278 1.02374 1.00269 0.996387
0.977142 1.00774 0.972342 0.99722
0.991401 1.00225 0.992046 0.997111
0.967925 1.00134 0.968715 0.997852
0.940888 1.0053 0.938835 0.9969
0.852368 0.955885 0.910059 0.979833
0.827168 0.955208 0.904172 0.957734
0.856256 0.933876 0.931806 0.983986
0.957552 1.00357 0.956554 0.997486
0.984433 0.999948 0.986451 0.998006
0.963033 1.01314 0.956952 0.993306
0.889091 0.958616 0.942994 0.983541
0.864933 0.970916 0.930201 0.957688
0.935471 0.996839 0.941945 0.996276
0.915153 0.98815 0.94019 0.985043
0.946629 1.02742 0.924412 0.996703
0.96263 1.02535 0.943381 0.995175
0.990641 1.05765 0.939447 0.997012
1.0566 1.11103 0.953925 0.996942
0.969047 1.03676 0.937186 0.997338
1.01322 1.08743 0.934324 0.997249
1.04859 1.1102 0.94734 0.997013
1.03767 1.08875 0.955718 0.997244
1.05007 1.09238 0.964005 0.997159
1.06648 1.10515 0.968004 0.996901
1.0475 1.08434 0.968764 0.997174
1.06165 1.09323 0.974003 0.997034
1.06815 1.09269 0.980735 0.996742
1.05505 1.08203 0.977944 0.997053
1.06463 1.08818 0.981514 0.996788
1.06816 1.08565 0.987354 0.996485
1.06228 1.08124 0.985641 0.996778
1.06804 1.08125 0.991348 0.996403
1.07676 1.08417 0.997087 0.996071
1.07103 1.07891 0.996604 0.996077
1.07533 1.08073 0.999118 0.995885
1.07388 1.07855 1 0.99567
1.05088 1.055 1 0.996098
1.07195 1.07676 1 0.995535
1.08093 1.08578 0.999997 0.99553
1.01148 1.01349 1 0.998023
1.04133 1.04537 1 0.996142
1.06804 1.07289 1 0.995481
1 1 1 1
1.00509 1.00687 1.00011 0.998117
1.02757 1.03122 1.00013 0.996335
1 1 1 1
1.00148 1.00223 1.00086 0.998385
1 1 1 1
1.06385 1.06867 1 0.99549
1.04639 1.051 1 0.995607
1.05157 1.05596 1 0.995843
1.02823 1.03214 1.00024 0.995971
1.0317 1.03316 1.00237 0.996228
1.0232 1.02268 1.00349 0.997032
1.0132 1.01269 1.00371 0.996811
1.01171 1.00612 1.00812 0.997455
1.00384 1 1.00488 0.998973
1.01474 1.00045 1.01643 0.997885
1.0065 1 1.00725 0.999258
1 1 1 1
1.00435 1 1.00485 0.999509
1 1 1 1
1 1 1 1
0.945611 1.01044 0.93929 0.996324
0.878497 0.964115 0.930409 0.97935
0.861947 0.967434 0.924249 0.963985
1.05946 1.06375 0.999676 0.996288
1.06976 1.07876 0.995667 0.995971
1.0617 1.06634 0.999876 0.995777
1.00125 1.01259 0.991974 0.996805
1.03556 1.03935 1.00073 0.995626
1.02539 1.03048 0.998336 0.996723
1.04875 1.0663 0.987198 0.996304
0.995982 1.00935 0.989573 0.997155
0.958856 1.00223 0.959338 0.997278
1.02628 1.02738 1.0024 0.996543
1.02561 1.05909 0.97197 0.996315
0.981303 1.03092 0.954408 0.997339
0.987921 1.01109 0.979879 0.997146
0.993774 1.00275 0.99393 0.997102
0.939769 1.00639 0.936354 0.997269
0.861044 0.960354 0.916664 0.978101
0.958199 1.00241 0.957096 0.998745
1.03857 1.08075 0.963438 0.997436
0.958517 1.0119 0.953466 0.993473
0.890739 0.965186 0.940682 0.981062
0.94953 1.02975 0.924964 0.996899
0.967805 1.02577 0.947661 0.995601
0.984686 1.05778 0.933498 0.997219
1.05311 1.10965 0.951924 0.996976
1.05757 1.1238 0.943917 0.996974
1.10454 1.15119 0.962223 0.997144
1.01964 1.09012 0.937947 0.99723
1.05461 1.11347 0.94998 0.997014
1.06831 1.11499 0.96118 0.99683
1.04605 1.09014 0.96229 0.997156
1.06651 1.10465 0.96847 0.996903
1.06695 1.09808 0.974851 0.996715
1.05899 1.09116 0.973388 0.997048
1.06921 1.09369 0.980813 0.996739
1.06987 1.08884 0.986022 0.9965
1.06522 1.08873 0.981558 0.996786
1.06875 1.08621 0.987399 0.996482
1.07744 1.0882 0.993937 0.996155
1.06761 1.0813 0.990853 0.996449
1.07584 1.0836 0.996739 0.996081
1.07861 1.08322 1 0.995748
1.07543 1.08055 0.999374 0.995885
1.07357 1.07823 1 0.995684
1.05146 1.05558 1 0.996098
1.01773 1.01974 1 0.99803
1.051 1.05511 1 0.9961
1.0716 1.07642 1 0.995524
1 1 1 1
1.01294 1.01496 1 0.998014
1.03822 1.04206 1.00017 0.996142
1 1 1 1
1.00719 1.00911 1 0.998099
1 1 1 1
1.07228 1.07773 0.999271 0.995674
1.06307 1.06786 1 0.995511
1.06545 1.0701 1 0.995652
1.04507 1.04969 1 0.995598
1.05268 1.05708 1 0.995841
1.02837 1.03096 1.00082 0.996662
1.03679 1.03821 1.00244 0.996194
1.01843 1.01796 1.00344 0.997034
1.00152 1.00075 1.00215 0.998623
1.00909 1.00351 1.00812 0.997463
1.0044 1 1.00541 0.998993
1 1 1 1
1.00583 1 1.00656 0.999273
1 1 1 1
1 1 1 1
0.987439 1.0566 0.936732 0.997666
0.945312 1.00889 0.941659 0.995038
0.881119 0.967436 0.929096 0.980284
1.06248 1.07691 0.990348 0.996219
1.0582 1.06274 0.999222 0.99651
1.07683 1.09198 0.989931 0.996154
1.06915 1.07948 0.994461 0.99595
1.06044 1.06511 0.999741 0.995876
1.07016 1.10054 0.976179 0.996127
1.02877 1.03466 0.997585 0.996714
1.04687 1.06337 0.988205 0.996242
1.04878 1.10305 0.954184 0.996455
1.02463 1.03073 0.997374 0.996699
1.02625 1.0604 0.971472 0.996216
0.976999 1.03645 0.945112 0.997386
0.994727 1.0129 0.984951 0.997068
0.938843 1.00702 0.934561 0.99758
1.09009 1.14035 0.958624 0.997185
1.04502 1.08548 0.965177 0.997464
0.958903 1.01007 0.955408 0.993648
0.979066 1.05732 0.928386 0.997422
1.04999 1.10816 0.95035 0.997011
1.05031 1.11974 0.940821 0.996995
1.11186 1.15717 0.963589 0.997144
1.08528 1.13033 0.963008 0.997026
1.06045 1.11623 0.952872 0.997015
1.06904 1.11389 0.962773 0.996841
1.06767 1.10233 0.971698 0.996769
1.06664 1.10414 0.96904 0.996905
1.06765 1.09823 0.975377 0.996695
1.06909 1.09025 0.984045 0.996498
1.07029 1.09471 0.980901 0.996735
1.07034 1.08931 0.986042 0.996495
1.07652 1.08968 0.99168 0.996214
1.06935 1.08677 0.987445 0.99648
1.07747 1.0882 0.993965 0.996154
1.08356 1.08851 0.999637 0.995816
1.07493 1.08307 0.996373 0.996091
1.07863 1.08324 0.999996 0.995754
1.05217 1.0563 1 0.996082
1.07307 1.07771 1 0.995697
1.05257 1.05669 1 0.9961
1.01802 1.01963 1 0.998424
0.999313 1 1 0.999313
1.0179 1.01974 1 0.998194
1.05079 1.0549 1 0.996101
1 1 1 1
1.01519 1.01722 1 0.998004
1 1 1 1
1.08082 1.09408 0.991569 0.996279
1.07474 1.08325 0.996166 0.995963
1.07174 1.07792 0.998561 0.995705
1.065 1.06966 1 0.995647
1.06277 1.06754 1 0.995531
1.06348 1.06814 1 0.995642
1.03184 1.03546 1.00014 0.996367
1.05351 1.05792 1 0.995838
1.02749 1.03009 1.00082 0.99666
1.00447 1.00597 1.00026 0.998251
1.0134 1.01289 1.00348 0.997036
1.00218 1.0006 1.00294 0.998644
1 1 1 1
1.00481 1 1.0058 0.999014
1 1 1 1
1 1 1 1
1.07603 1.13081 0.954496 0.996918
0.998968 1.06757 0.937943 0.997652
0.942691 1.00891 0.940219 0.993779
1.07055 1.0935 0.982754 0.996193
1.05827 1.07308 0.989903 0.996261
1.05702 1.06174 0.998821 0.99673
1.07612 1.08998 0.991081 0.996168
1.06848 1.08005 0.993333 0.995929
1.07565 1.11769 0.965839 0.996433
1.06408 1.09528 0.975335 0.996084
1.04541 1.06092 0.98916 0.996179
1.04327 1.09678 0.954591 0.996456
1.03211 1.06414 0.973675 0.996118
0.974868 1.04599 0.934397 0.997442
1.0809 1.11933 0.968437 0.997136
1.09123 1.1409 0.959121 0.997223
1.05028 1.09085 0.96523 0.997492
1.04327 1.11633 0.937356 0.997012
1.11941 1.16375 0.96465 0.997144
1.08737 1.13267 0.962874 0.99703
1.07545 1.10343 0.977677 0.996899
1.06972 1.11273 0.964387 0.996851
1.06839 1.10219 0.972495 0.996751
1.07059 1.09152 0.984213 0.996551
1.06838 1.09841 0.975909 0.996676
1.06976 1.09088 0.984093 0.996497
1.07497 1.08898 0.990853 0.99625
1.07084 1.0898 0.986062 0.996491
1.07688 1.08999 0.991728 0.996212
1.08594 1.09162 0.998929 0.995866
1.07744 1.08814 0.993993 0.996154
1.08347 1.08845 0.999602 0.99582
1.05274 1.05693 1 0.996037
1.07868 1.08328 0.999993 0.995761
1.05346 1.0576 1 0.996085
1.01629 1.01787 1 0.99845
1.05403 1.05816 1 0.996101
1.01754 1.01915 1 0.998417
0.999347 1 1 0.999347
0.999674 1 1 0.999674
1.01818 1.01983 1 0.998375
1 1 1 1
1.0719 1.09097 0.986177 0.996294
1.07773 1.08639 0.995929 0.99608
1.07888 1.09257 0.991031 0.99641
1.07438 1.07899 1 0.995731
1.07713 1.08515 0.996644 0.995959
1.07116 1.07817 0.997757 0.995735
1.06565 1.07032 1 0.995635
1.04683 1.05081 1 0.996213
1.06238 1.06704 1 0.995632
1.03638 1.04011 1.00005 0.996368
1.01329 1.01526 1 0.998068
1.02683 1.02973 1.00052 0.996659
1.00309 1.00399 1.00083 0.998276
1 1 1 1
1.00256 1.00022 1.00368 0.998665
1 1 1 1
1 1 1 1
1.0751 1.11462 0.967638 0.996797
1.067 1.12079 0.954945 0.996921
1.01004 1.07597 0.940954 0.997632
1.07259 1.101 0.977744 0.996369
1.06783 1.09111 0.982414 0.996188
1.05377 1.06897 0.989434 0.996305
1.07511 1.08788 0.992053 0.996183
1.07581 1.11658 0.966957 0.996407
1.05745 1.08921 0.974693 0.996041
1.03411 1.08564 0.955919 0.996458
1.07908 1.10608 0.97856 0.996965
1.07961 1.11741 0.968994 0.997092
1.09205 1.14074 0.959948 0.997261
1.07439 1.096 0.98342 0.996807
1.08919 1.13469 0.962756 0.997033
1.07505 1.10315 0.977577 0.996884
1.073 1.09224 0.985673 0.996669
1.06912 1.10203 0.97332 0.996734
1.07087 1.09184 0.98419 0.996554
1.07477 1.08787 0.991644 0.996284
1.07038 1.09146 0.984142 0.996495
1.07527 1.0893 0.990843 0.996249
1.08623 1.09244 0.998392 0.99591
1.07721 1.09028 0.991775 0.99621
1.08523 1.09098 0.998862 0.995869
1.0522 1.05644 1 0.995991
1.08337 1.08838 0.999566 0.995825
1.05381 1.058 1 0.996041
1.01432 1.01591 1 0.998428
1.05474 1.05888 1 0.996088
1.01565 1.01724 1 0.998434
0.999349 1 1 0.999349
1.01691 1.01853 1 0.998414
0.999365 1 1 0.999365
1 1 1 1
1.07099 1.09004 0.986271 0.996207
1.07684 1.08963 0.992131 0.996103
1.07384 1.09212 0.98692 0.996293
1.0823 1.08718 0.999676 0.995828
1.07787 1.08821 0.994346 0.996135
1.07713 1.09119 0.99054 0.996541
1.05753 1.06163 1 0.996143
1.07478 1.0794 1 0.99572
1.07993 1.08731 0.997242 0.995954
1.06624 1.07093 1 0.995623
1.04754 1.05152 1 0.996211
1.01955 1.02155 1 0.998048
1.03978 1.04357 1 0.996368
1.01036 1.0123 1 0.998084
1 1 1 1
1.0018 1.00215 1.00136 0.998297
1 1 1 1
1 1 1 1
1.0743 1.10085 0.979132 0.996688
1.07625 1.1167 0.966899 0.996772
1.06001 1.11394 0.954524 0.996925
1.07218 1.10044 0.977849 0.996387
1.06504 1.08871 0.982004 0.996182
1.07681 1.11663 0.967848 0.996381
1.07674 1.09744 0.984282 0.996805
1.07912 1.1059 0.978767 0.99696
1.07883 1.11599 0.969566 0.997049
1.07471 1.09601 0.983685 0.996829
1.07154 1.08807 0.988135 0.996636
1.07465 1.1029 0.977445 0.996869
1.07346 1.09208 0.986268 0.996632
1.07361 1.0866 0.991634 0.996378
1.07117 1.09216 0.984169 0.996557
1.07473 1.08786 0.991616 0.996286
1.08502 1.09205 0.99761 0.995938
1.07567 1.08972 0.990832 0.996249
1.08549 1.0918 0.998309 0.995912
1.0512 1.05545 1 0.995971
1.08459 1.0904 0.998794 0.995872
1.05339 1.05762 1 0.995994
1.01209 1.01374 1 0.998379
1.05492 1.05911 1 0.996045
1.01364 1.01525 1 0.998405
0.999323 1 1 0.999323
1.01502 1.01662 1 0.998423
0.99938 1 1 0.99938
0.999377 1 1 0.999377
1.07233 1.09097 0.986384 0.996481
1.07731 1.08956 0.992661 0.996067
1.07043 1.09088 0.984962 0.996232
1.0834 1.09037 0.997699 0.995893
1.07745 1.08933 0.992983 0.996087
1.07579 1.09328 0.987659 0.996292
1.05676 1.06089 1 0.996103
1.08138 1.08699 0.998987 0.995845
1.07788 1.08994 0.992715 0.99619
1.01882 1.02078 1 0.998077
1.0558 1.05989 1 0.996141
1.07501 1.07964 1 0.995708
1.0483 1.05229 1 0.99621
1.01833 1.02031 1 0.998057
1 1 1 1
1.00772 1.00957 1.00007 0.998101
1 1 1 1
1 1 1 1
1.07297 1.09275 0.985157 0.996695
1.07441 1.10093 0.97917 0.996676
1.07657 1.1179 0.966171 0.996748
1.07215 1.10008 0.978128 0.996404
1.07219 1.08589 0.990754 0.996594
1.07683 1.09772 0.984098 0.996816
1.07916 1.10568 0.978995 0.996955
1.07509 1.09605 0.983977 0.99685
1.07159 1.08849 0.987785 0.996645
1.07416 1.08575 0.992926 0.996365
1.07396 1.09194 0.986887 0.996595
1.07458 1.08682 0.992382 0.996327
1.08307 1.09091 0.996784 0.996018
1.07472 1.08787 0.991588 0.996289
1.0844 1.09138 0.997647 0.99594
1.04968 1.05394 1 0.995963
1.08454 1.09091 0.998242 0.995913
1.05225 1.0565 1 0.995973
1.00917 1.0112 1 0.997999
1.05445 1.05869 1 0.995998
1.01115 1.01298 1 0.998197
1 1 1 1
1.01295 1.01459 1 0.998385
0.999361 1 1 0.999361
0.999403 1 1 0.999403
1.07182 1.08689 0.989512 0.996588
1.07561 1.08831 0.992089 0.996213
1.0728 1.09038 0.987352 0.996475
1.08326 1.08989 0.998033 0.995878
1.07663 1.089 0.992541 0.996067
1.0699 1.09175 0.983661 0.996256
1.05318 1.05736 1 0.99604
1.08358 1.09015 0.998071 0.995894
1.07815 1.08907 0.993877 0.996071
1.01511 1.01704 1 0.998104
1.05522 1.05936 1 0.99609
1.08019 1.08649 0.998334 0.995861
1 1 1 1
1.01962 1.02158 1 0.998086
1.05403 1.05811 1 0.996139
1.0171 1.01907 1 0.998067
1 1 1 1
1 1 1 1
1.07076 1.08369 0.991443 0.996596
1.07393 1.09326 0.985566 0.996701
1.07439 1.10088 0.979201 0.996664
1.07493 1.08495 0.994441 0.996308
1.07131 1.08557 0.990228 0.996604
1.0769 1.09802 0.983886 0.996828
1.07159 1.08891 0.987392 0.996655
1.07408 1.08577 0.992836 0.996365
1.08315 1.08997 0.997726 0.99601
1.07547 1.08696 0.993126 0.996275
1.08336 1.09071 0.997282 0.995971
1.04755 1.05199 0.999794 0.995984
1.08387 1.09083 0.997666 0.995942
1.05053 1.05479 1 0.995963
1.00654 1.00856 1 0.997994
1.05352 1.05778 1 0.995974
1.0084 1.01042 1 0.997997
1 1 1 1
1.01025 1.01229 1 0.997984
0.999652 1 1 0.999652
0.999394 1 1 0.999394
1.06767 1.08066 0.991394 0.996558
1.0755 1.08564 0.994337 0.996304
1.07125 1.08614 0.989657 0.996596
1.08272 1.0887 0.99862 0.995879
1.07605 1.08847 0.992362 0.996201
1.07319 1.08971 0.988324 0.996468
1.05081 1.05505 1 0.995986
1.0836 1.08976 0.99849 0.995853
1.07587 1.08839 0.992396 0.996067
1.01158 1.01352 1 0.998083
1.05224 1.05644 1 0.996032
1.08369 1.08992 0.998383 0.995894
1 1 1 1
1.01629 1.01821 1 0.998112
1.05402 1.05817 1 0.996076
1 1 1 1
1.02045 1.0224 1 0.998095
1 1 1 1
1.07573 1.08513 0.994973 0.996341
1.06992 1.08299 0.991318 0.996583
1.07487 1.09373 0.986003 0.996707
1.0834 1.08989 0.99803 0.996003
1.07444 1.08485 0.99406 0.996326
1.07043 1.08524 0.989705 0.996614
1.07403 1.08579 0.992773 0.996366
1.08248 1.08947 0.997566 0.99601
1.04495 1.04924 0.999914 0.995996
1.08363 1.09053 0.997734 0.995925
1.04831 1.05267 0.999881 0.995967
1.00429 1.00632 1 0.997982
1.05123 1.05549 1 0.995964
1.00579 1.00782 1 0.997993
1 1 1 1
1.00753 1.00956 1 0.997995
1 1 1 1
0.999367 1 1 0.999367
1.0755 1.08461 0.995269 0.996315
1.06651 1.08039 0.990547 0.996573
1.08272 1.08849 0.998753 0.995942
1.07598 1.08609 0.994371 0.996304
1.07066 1.08541 0.989763 0.996605
1.04852 1.05277 1 0.995966
1.0833 1.08918 0.99872 0.995875
1.0766 1.08875 0.992627 0.996189
1.00849 1.01048 1 0.998033
1.05035 1.05459 1 0.995975
1.08401 1.08967 0.998971 0.995827
1 1 1 1
1.01255 1.01449 1 0.998089
1.05137 1.05557 1 0.996023
1 1 1 1
1.0174 1.01931 1 0.998119
1 1 1 1
1.0835 1.08958 0.998399 0.996016
1.07573 1.085 0.995106 0.996331
1.06908 1.08227 0.991208 0.996571
1.04307 1.04729 0.999962 0.996014
1.08281 1.08936 0.997981 0.996003
1.07393 1.08473 0.993676 0.996344
1.08183 1.08896 0.997429 0.996011
1.04559 1.05 0.999812 0.995993
1.00285 1.00487 1 0.997988
1.04912 1.05338 1 0.99595
1.00385 1.00588 1 0.99798
1 1 1 1
1.00509 1.00711 1 0.997992
1 1 1 1
1 1 1 1
1.08368 1.08917 0.998971 0.995978
1.07514 1.08472 0.994787 0.996363
1.06544 1.0802 0.989708 0.996587
1.04638 1.05059 1 0.995993
1.08319 1.08887 0.998836 0.995939
1.07646 1.08651 0.994425 0.996303
1.00576 1.00778 1 0.998001
1.04771 1.05195 1 0.995964
1.08382 1.08959 0.998825 0.995872
1 1 1 1
1.00935 1.01133 1 0.998036
1.04983 1.05408 1 0.995965
1 1 1 1
1.01346 1.0154 1 0.998094
1 1 1 1
1.043 1.04719 1 0.996002
1.08297 1.0892 0.998253 0.996024
1.07571 1.0849 0.995196 0.996322
1.00174 1.00372 1 0.998028
1.04369 1.04798 0.999901 0.996011
1.08223 1.08883 0.997926 0.996004
1.04621 1.05075 0.999694 0.995989
1.0025 1.00452 1 0.997989
1 1 1 1
1.00341 1.00544 1 0.997979
1 1 1 1
1 1 1 1
1.04419 1.04837 1 0.996011
1.08329 1.08902 0.998719 0.99601
1.07474 1.08476 0.994325 0.996412
1.00372 1.00536 1 0.998371
1.04552 1.04973 1 0.995992
1.08355 1.08915 0.998915 0.995936
1 1 1 1
1.0065 1.00852 1 0.998002
1.0469 1.05115 1 0.995962
1 1 1 1
1.01021 1.0122 1 0.998039
1 1 1 1
1.00116 1.00316 1 0.998004
1.04286 1.04707 0.999964 0.996014
1.0825 1.08882 0.998153 0.996032
1 1 1 1
1.00153 1.00351 1 0.998027
1.04434 1.04869 0.99984 0.996008
1.00217 1.00419 1 0.997988
1 1 1 1
1 1 1 1
1.00208 1.00373 1 0.998355
1.04385 1.04803 1 0.996012
1.08299 1.08898 0.998454 0.996042
1 1 1 1
1.00408 1.00608 1 0.99801
1.04487 1.04907 1 0.995992
1 1 1 1
1.00724 1.00926 1 0.998003
1 1 1 1
0.999381 1 1 0.999381
1.00146 1.00326 1 0.998204
1.04271 1.04697 0.999909 0.996025
1 1 1 1
1.0013 1.00327 1 0.998028
1 1 1 1
0.999385 1 1 0.999385
1.00235 1.00416 1 0.998197
1.04337 1.04755 1 0.996012
0.999683 1 1 0.999683
1.00471 1.00671 1 0.998013
1 1 1 1
1 1 1 1
1.0014 1.00335 1 0.998049
1 1 1 1
0.999694 1 1 0.999694
1.00267 1.00464 1 0.998042
1 1 1 1
1 1 1 1
1 1 1 1

VECTORS lamdaE float
1.00304 0.999677 0.99212
1.00249 1.00066 0.995995
1.00249 0.99982 0.992568
1.00257 1.00011 0.992284
1.00291 0.999807 0.992169
1.00314 0.999694 0.992026
1.0037 1.0007 0.989324
1.00256 1.00073 0.995918
1.00197 1.00004 0.996745
1.00172 1.00072 0.996727
1.00225 1.00125 0.991456
1.00364 1.00168 0.98703
1.00185 0.999965 0.993245
1.00151 1.00009 0.993493
1.00196 0.999997 0.99299
1.00213 1.00012 0.992742
1.00248 1.00001 0.992447
1.00242 0.999847 0.992625
1.00396 1.00063 0.989069
1.00193 1.00001 0.996387
1.00236 1.00015 0.992478
1.00276 0.999977 0.992188
1.00352 1.00029 0.990055
1.00364 1.00049 0.989647
1.00303 0.999915 0.991915
1.00371 1.0011 0.988877
1.00537 1.00151 0.985087
1.00265 1.00077 0.995825
1.00228 0.99994 0.994621
1.00214 1.00039 0.994534
1.00258 1.00121 0.995719
1.00363 1.00177 0.986974
1.00241 0.999857 0.992544
1.00253 0.999863 0.992428
1.00395 1.00049 0.989734
1.00099 1.00276 0.99644
1.00391 1.00114 0.989285
1.00378 1.00245 0.986066
1.00536 1.00316 0.982875
1.00104 1.00136 0.996713
1.00189 0.999987 0.996412
1.00181 1.00004 0.994896
1.00181 0.999966 0.996475
1.00134 1.00008 0.993705
1.00345 0.999853 0.989447
1.00175 1 0.996795
1.00382 1.00019 0.990299
1.00171 1.00009 0.9932
1.00196 0.999873 0.993068
1.0019 1.00028 0.992853
1.0042 1.00054 0.98883
1.0017 1.00004 0.994991
1.00193 1.00019 0.992938
1.00247 1.00033 0.992272
1.00231 0.999979 0.992647
1.00374 1.00025 0.989799
1.004 1.00095 0.988639
1.00388 1.00044 0.98939
1.00538 1.00144 0.985223
1.00182 0.999991 0.996444
1.00217 1.00009 0.992772
1.00321 0.999925 0.99124
1.0034 1.00016 0.990359
1.0036 1.00038 0.989853
1.00537 0.99967 0.987053
1.00535 1.00015 0.986467
1.00315 1.00044 0.991352
1.00362 1.00202 0.988085
1.00537 1.00242 0.984082
1.00534 0.998568 0.987342
1.0027 0.999885 0.996084
1.00255 1.00126 0.995723
1.00261 1.00032 0.996036
1.00362 1.0018 0.986915
1.0025 0.999904 0.996108
1.00267 0.999964 0.99609
1.00378 1.00051 0.988102
1.00138 1.00204 0.994051
1.0037 1.00108 0.987614
1.0038 1.00258 0.987036
1.0054 1.00308 0.982839
1.00156 1.00156 0.996233
1.00173 1.00325 0.988717
1.00388 1.00035 0.988207
1.00395 1.00054 0.987848
1.00534 1.00004 0.98617
1.00338 1.00347 0.988236
1.00541 1.00173 0.984225
1.00509 1.0043 0.982027
1.00554 1.00081 0.98468
1.00062 1.00082 0.997159
1.00079 1.0013 0.996877
1.00222 0.999996 0.996208
1.00195 0.999984 0.996378
1.00185 0.999968 0.996468
1.00168 1 0.995045
1.00348 0.999852 0.990183
1.00203 0.999997 0.994758
1.00368 1.0002 0.989564
1.00183 0.999969 0.996483
1.00329 0.999717 0.989753
1.0037 1.00004 0.990595
1.00537 0.997992 0.988435
1.00383 1.00025 0.99012
1.0054 0.998477 0.987861
1.00187 0.999967 0.993218
1.00149 1.00022 0.9934
1.00182 1.00075 0.992619
1.00187 0.999961 0.993102
1.00395 1.00025 0.989545
1.00411 1.00041 0.989139
1.00425 1.00091 0.988406
1.00539 1.00139 0.985354
1.00186 0.999975 0.996462
1.00175 1.00009 0.993228
1.00344 0.999798 0.990103
1.00361 1.00013 0.9901
1.00271 1.00107 0.993555
1.00391 1.00181 0.988308
1.00382 1.00034 0.989597
1.00538 0.999347 0.987453
1.00539 1.00241 0.984226
1.00535 1.00044 0.986244
1.00534 0.998615 0.987344
1.00331 0.999759 0.98969
1.00328 0.999927 0.99073
1.00539 0.997851 0.988995
1.0054 0.99858 0.988183
1.00532 0.999506 0.98734
1.00533 0.996179 0.990125
1.00189 1.00164 0.996179
1.00537 0.997349 0.988492
1.00354 1.00302 0.985826
1.00544 1.00346 0.982196
1.00532 0.99989 0.986138
1.00531 0.995687 0.990054
1.00219 1.00349 0.987642
1.00328 1.00385 0.985765
1.00259 0.999891 0.996095
1.00275 1 0.996071
1.00376 1.00054 0.988078
1.00182 1.00162 0.996158
1.00344 1.00286 0.986145
1.00374 1.001 0.987587
1.00545 1.00303 0.982799
1.00136 1.0016 0.996445
1.00184 1.00339 0.988694
1.00389 1.0004 0.989044
1.00399 1.00064 0.988651
1.00534 1.00005 0.98613
1.00281 1.00358 0.986431
1.0054 1.00178 0.984187
1.00516 1.00412 0.982008
1.00552 1.0005 0.984989
1.00235 1.00343 0.987665
1.00148 1.00287 0.989862
1.00275 1.00311 0.986649
1.00534 0.999433 0.986864
1.00541 1.00079 0.985246
1.0054 0.996774 0.989162
1.00386 1.00467 0.983435
1.00534 0.998858 0.987111
1.00556 1.00294 0.98305
1.00557 0.998216 0.98683
1.00035 0.999949 0.997719
1.0004 1.00064 0.997391
1.00051 1.00124 0.997064
1.00146 1.00384 0.988926
1.00104 1.00189 0.996517
1.00243 0.999938 0.99613
1.00205 0.999994 0.996288
1.00348 1.00025 0.98889
1.00331 0.999863 0.989548
1.00183 0.999966 0.996455
1.00179 0.999963 0.996485
1.00327 0.999726 0.989752
1.00357 1.00002 0.989883
1.00536 0.998004 0.988446
1.00365 1.00033 0.988556
1.00539 0.998487 0.987861
1.00327 0.999683 0.989795
1.00536 0.997955 0.988487
1.00538 0.998147 0.988239
1.00532 0.994956 0.991726
1.0054 0.998922 0.987377
1.00528 0.995058 0.991515
1.00181 0.999972 0.996471
1.0013 1.00017 0.993682
1.00347 0.99973 0.989148
1.00383 1.00012 0.98984
1.00174 1.00186 0.996312
1.00424 1.00123 0.988541
1.00404 1.00032 0.989345
1.00539 0.999013 0.987852
1.00535 1.00072 0.986019
1.00539 1.0023 0.984382
1.00532 0.998663 0.987345
1.00329 0.999749 0.989693
1.00348 0.999947 0.990477
1.00539 0.997761 0.988884
1.0054 0.998917 0.987832
1.00215 1.00154 0.995975
1.00358 1.00274 0.986987
1.00536 1.0037 0.982649
1.00532 0.999529 0.987306
1.00531 0.995896 0.9905
1.00531 0.999766 0.986234
1.00537 0.997649 0.9883
1.00532 0.995738 0.990019
1.00227 1.0034 0.987604
1.00319 1.00405 0.985644
1.00537 0.99812 0.988312
1.00542 0.998165 0.988655
1.00531 0.995617 0.990987
1.00532 0.995252 0.991166
1.00534 0.996896 0.989212
1.00523 0.994932 0.991316
1.00298 1.00317 0.986505
1.00535 0.995017 0.990794
1.00545 1.00431 0.981622
1.00539 1.00103 0.984516
1.00532 0.997354 0.98851
1.00538 0.994957 0.990706
1.00424 1.00339 0.984032
1.00092 1.00483 0.98917
1.00452 1.00377 0.983777
1.0037 1.00045 0.988295
1.00107 1.0016 0.996608
1.00169 1.00354 0.988675
1.00379 1.00065 0.987862
1.00535 1.00005 0.986093
1.00279 1.00343 0.986555
1.00541 1.00398 0.981981
1.00538 1.00182 0.984145
1.0055 1.00018 0.985303
1.00215 1.00355 0.987716
1.00122 1.00305 0.989862
1.00291 1.00363 0.986699
1.00533 0.999445 0.986837
1.00539 1.00082 0.985211
1.00538 0.996756 0.989185
1.00437 1.00424 0.983369
1.00536 0.99894 0.987017
1.00553 1.00283 0.982979
1.00555 0.997886 0.987123
1.00093 1.00247 0.991159
1.00306 1.00385 0.985543
1.00234 1.00442 0.986981
1.0027 1.00147 0.987631
1.0053 0.995897 0.990263
1.00539 0.997923 0.987973
1.00537 0.994918 0.990737
1.00514 1.00463 0.981866
1.00539 0.995996 0.989655
1.0054 1.00094 0.985129
1.00554 0.99672 0.988325
1.00065 1.00399 0.990179
1.00037 1.00149 0.992884
1.00025 0.999302 0.998049
1.00026 0.999795 0.997854
1.00027 1.00039 0.997606
1.00034 1.00207 0.992023
1.00026 1.00122 0.997098
1.00156 1.00347 0.988868
1.00131 1.00183 0.996423
1.0036 1.00036 0.988564
1.00341 1.00002 0.989237
1.00538 0.998498 0.987869
1.00535 0.998018 0.988457
1.00328 0.999737 0.989757
1.00185 0.999953 0.996484
1.00328 0.999684 0.989802
1.00536 0.997966 0.988493
1.00537 0.998163 0.988252
1.00532 0.994958 0.991727
1.00538 0.998936 0.98737
1.00529 0.995025 0.991526
1.00537 0.998013 0.988432
1.00534 0.994955 0.991737
1.0053 0.994957 0.99169
1.00519 0.994937 0.991725
1.00525 0.995378 0.991062
1.00517 0.994978 0.991536
1.00331 0.999745 0.989703
1.0037 0.999909 0.990224
1.00539 0.997652 0.988782
1.00541 0.99924 0.987482
1.00235 1.00154 0.995799
1.00388 1.00266 0.987884
1.00522 1.00367 0.983085
1.00532 0.999538 0.987272
1.00529 0.99561 0.990876
1.00538 0.997949 0.988109
1.00532 0.999661 0.986328
1.00532 0.99579 0.989984
1.0023 1.00328 0.987567
1.0031 1.00385 0.985526
1.00538 0.997807 0.988634
1.00542 0.998123 0.988663
1.00532 0.995618 0.990961
1.0053 0.995642 0.99081
1.00295 1.00331 0.98643
1.00525 1.00422 0.981646
1.00544 1.00137 0.984212
1.00534 0.996875 0.989238
1.00524 0.994934 0.991291
1.00532 0.997078 0.988798
1.00534 0.995031 0.990748
1.00537 0.994921 0.990623
1.00421 1.00387 0.98401
1.0042 1.00411 0.983837
1.00088 1.00423 0.989243
1.00533 0.995584 0.991063
1.00531 0.995739 0.990744
1.00516 0.994945 0.991853
1.00517 0.994964 0.991479
1.00535 0.994889 0.991001
1.00531 0.994926 0.991034
1.00486 1.00428 0.982367
1.00537 0.994807 0.990804
1.00549 1.00333 0.982427
1.0054 0.998591 0.986809
1.00532 0.995904 0.989874
1.00545 0.994774 0.990601
1.0012 1.00065 0.991308
1.00529 1.00504 0.981538
1.00062 1.00446 0.98781
1.00519 1.00402 0.982088
1.00532 0.999454 0.986812
1.00102 1.00324 0.989861
1.00202 1.0037 0.987763
1.00284 1.00393 0.986735
1.00539 1.00083 0.985177
1.00537 0.99674 0.989207
1.0046 1.00381 0.983304
1.0055 1.00277 0.982897
1.00537 0.999032 0.986923
1.00552 0.997579 0.987416
1.0007 1.00259 0.991168
1.00341 1.00369 0.985686
1.00207 1.00443 0.98682
1.00346 1.00143 0.987731
1.00533 0.995864 0.990276
1.00539 0.997862 0.987986
1.00537 0.994918 0.990776
1.00529 1.0047 0.981677
1.00539 0.996283 0.989412
1.00536 1.00077 0.985124
1.00555 0.996635 0.988656
1.00054 1.00212 0.992058
1.0019 1.0051 0.987205
1.00381 1.00397 0.983881
1.00326 1.00232 0.987427
1.00291 1.00213 0.988214
1.00534 0.994877 0.991002
1.00536 0.995237 0.990283
1.00538 0.994869 0.990582
1.00521 1.00366 0.982777
1.00548 0.995362 0.98999
1.00519 0.999358 0.986633
1.00102 1.00467 0.988883
1.00039 1.00508 0.989492
1.00026 1.00332 0.99132
1.00038 1.00411 0.990183
1.00027 1.00053 0.994763
1.00029 1.0014 0.993472
1.00044 0.998463 0.996291
1.00021 0.999257 0.998133
1.00022 0.999738 0.997952
1.00029 1.00043 0.993871
0.999743 0.999638 0.998284
1.00052 1.00226 0.99184
1.00064 1.00147 0.996843
1.00161 1.00316 0.98881
1.00159 1.00172 0.996271
1.00535 0.998955 0.987359
1.00536 0.998178 0.988263
1.0053 0.994994 0.991537
1.00533 0.994959 0.991728
1.00535 0.997978 0.988498
1.00327 0.999677 0.989806
1.00537 0.998018 0.988429
1.00534 0.994955 0.991735
1.0053 0.994955 0.991697
1.00519 0.994936 0.991708
1.00529 0.995306 0.991069
1.00517 0.994984 0.991539
1.00534 0.994953 0.991745
1.0052 0.994937 0.991736
1.00517 0.994966 0.991675
1.00532 0.994924 0.991484
1.00525 0.994928 0.991279
1.00529 0.994949 0.991162
1.00539 0.997504 0.988953
1.00541 0.998102 0.988672
1.00532 0.99562 0.990935
1.00528 0.996039 0.990453
1.003 1.00343 0.986356
1.00525 1.00454 0.981671
1.00548 1.00164 0.983916
1.00535 0.996856 0.989263
1.00526 0.994933 0.991266
1.00533 0.995047 0.990702
1.00533 0.996782 0.989086
1.00536 0.994899 0.990539
1.00404 1.00418 0.983997
1.00362 1.00501 0.983896
1.00095 1.00397 0.989315
1.00533 0.995273 0.991402
1.00531 0.995734 0.990752
1.00516 0.994945 0.991788
1.00519 0.994963 0.991514
1.00476 1.00444 0.982448
1.00554 1.00328 0.982496
1.0054 0.998861 0.986447
1.00534 0.99489 0.990959
1.00531 0.99493 0.990992
1.00533 0.995723 0.989921
1.00536 0.994804 0.990794
1.00545 0.994737 0.990607
1.00504 1.00503 0.981632
1.00516 1.00448 0.98194
1.00158 1.00081 0.991373
1.0014 1.00409 0.988388
1.00518 0.994938 0.991811
1.00515 0.994967 0.991656
1.00532 0.994949 0.991497
1.00531 0.994927 0.99108
1.00533 0.994899 0.990817
1.00536 0.994918 0.9908
1.00546 1.00476 0.981264
1.00541 0.994784 0.990581
1.00536 1.00106 0.984491
1.00535 0.997557 0.987816
1.00543 0.995133 0.990274
1.00541 0.994746 0.990613
1.00313 1.00072 0.988782
1.00179 1.00036 0.989783
1.00519 1.00445 0.981633
1.00269 1.00472 0.986477
1.00513 1.00423 0.98212
1.00049 1.00265 0.991184
1.00536 0.995832 0.99029
1.00249 1.00462 0.986658
1.00339 1.00352 0.985848
1.00396 1.00115 0.987833
1.00538 0.997802 0.987998
1.00538 0.994917 0.990815
1.00539 1.00468 0.981498
1.00538 1.00062 0.985116
1.00538 0.996553 0.989169
1.00556 0.996535 0.988984
1.00043 1.00216 0.992082
1.00168 1.00514 0.987171
1.00433 1.00373 0.983959
1.00311 1.00248 0.987323
1.00341 1.00172 0.987194
1.00532 0.994874 0.991029
1.00537 0.995246 0.990317
1.00538 0.994867 0.990584
1.00522 1.0037 0.982763
1.0055 0.995446 0.989866
1.00519 0.99946 0.98697
1.00137 1.00513 0.987874
1.00325 1.00493 0.985917
1.00374 1.00447 0.984058
1.00387 1.00229 0.986513
1.00448 1.00327 0.985503
1.00537 0.994873 0.990769
1.0054 0.994908 0.990373
1.00536 0.994826 0.990451
1.00505 1.00157 0.984636
1.00516 0.997891 0.987975
1.00085 1.00474 0.988904
1.00077 1.00514 0.988415
0.999646 1.00509 0.989613
1.00008 1.00487 0.990864
1.00029 1.0047 0.990498
1.00004 1.00289 0.992028
1.00006 1.00354 0.991338
1.00011 1.00011 0.995396
1.00019 1.00432 0.990185
1.00025 1.0005 0.994868
1.00032 0.997834 0.996882
1.00025 1.0014 0.994047
1.00023 0.998646 0.997364
1.00014 0.999071 0.99822
1.00034 1.00199 0.992628
1.00034 1.00029 0.993923
0.99983 0.999472 0.998443
1.00005 0.999969 0.997794
1.00083 1.00235 0.991679
1.00089 1.0018 0.996673
1.00534 0.99523 0.991077
1.0053 0.994953 0.991704
1.00516 0.994993 0.991542
1.00519 0.994936 0.991691
1.00535 0.994954 0.991732
1.00537 0.998021 0.988429
1.00534 0.994953 0.99174
1.0052 0.994936 0.991743
1.00517 0.994973 0.991671
1.00532 0.994924 0.991464
1.00522 0.994927 0.991293
1.00529 0.994945 0.991168
1.00519 0.994939 0.991776
1.00533 0.994925 0.991563
1.0053 0.994939 0.991374
1.00534 0.99491 0.991453
1.00533 0.994925 0.990988
1.00533 0.99493 0.991092
1.00533 0.994952 0.991741
1.00531 0.995728 0.99076
1.00516 0.994944 0.991723
1.00521 0.994962 0.99155
1.00448 1.00472 0.982523
1.00556 1.00329 0.982556
1.00539 0.999096 0.986091
1.00533 0.994892 0.990917
1.00531 0.994935 0.99095
1.00536 0.994802 0.990785
1.00533 0.995525 0.989967
1.00546 0.994696 0.990614
1.00493 1.00481 0.981718
1.00494 1.00504 0.981786
1.00203 1.00093 0.991426
1.00151 1.00296 0.988953
1.00517 0.994938 0.991814
1.00515 0.994965 0.991685
1.00532 0.994944 0.991459
1.00531 0.994928 0.991081
1.00541 1.00468 0.981369
1.00535 1.00119 0.984346
1.00536 0.997466 0.987815
1.00533 0.994899 0.990856
1.00535 0.994916 0.990796
1.00542 0.995135 0.990297
1.00542 0.99479 0.990573
1.00542 0.994704 0.99068
1.00522 1.00462 0.981692
1.00489 1.00474 0.98217
1.00248 1.0043 0.986515
1.00257 1.00143 0.988866
1.00193 1.0021 0.989542
1.00533 0.994934 0.99149
1.00533 0.994933 0.991313
1.00537 0.994887 0.990819
1.00537 0.994912 0.990623
1.00527 1.00336 0.982816
1.00538 0.994816 0.990405
1.0053 1.00015 0.984836
1.00532 0.996617 0.98865
1.00549 0.994786 0.990422
1.00099 1.00506 0.988281
1.00401 1.00318 0.987664
1.00251 1.00022 0.98937
1.00499 1.00488 0.982461
1.00342 1.0045 0.985424
1.00474 1.00457 0.982928
1.00033 1.00225 0.992103
1.00147 1.00515 0.987138
1.00531 0.99487 0.991055
1.00257 1.00291 0.987214
1.0052 1.00367 0.984036
1.00403 1.00116 0.986187
1.00538 0.995257 0.990351
1.00537 0.994865 0.990586
1.00519 1.0037 0.982765
1.00517 0.999597 0.987308
1.00551 0.995527 0.989742
1.00131 1.00514 0.987879
1.00265 1.00497 0.985929
1.00431 1.0047 0.983076
1.00389 1.00178 0.986661
1.00431 1.0023 0.985367
1.00536 0.994876 0.990769
1.00542 0.99491 0.990361
1.00539 0.994808 0.99044
1.00503 1.00159 0.984916
1.00515 0.99802 0.987835
1.00255 1.00512 0.986618
1.00184 1.00501 0.986209
1.00455 1.00288 0.984642
1.00266 1.00204 0.985437
1.00523 1.00144 0.986072
1.00537 0.994822 0.990594
1.00545 0.9955 0.989446
1.0054 0.994844 0.989895
1.005 1.00026 0.986432
1.00507 0.998831 0.987401
1.00072 1.00473 0.988928
1.00115 1.00513 0.988262
0.99911 1.0044 0.99134
0.9994 1.0051 0.989713
0.999794 1.0048 0.990467
0.999122 1.00478 0.991153
0.999111 1.00436 0.992425
0.999066 1.00505 0.991173
0.999735 1.00447 0.991056
1.0001 1.0026 0.992222
1.00005 1.0028 0.992019
1.00004 0.99977 0.995788
0.999894 1.00355 0.99135
1.00014 0.99999 0.995464
1.00021 0.997617 0.997272
1.00026 1.00037 0.994975
1.00028 0.997912 0.996844
0.999961 0.998791 0.998461
1.00013 1.00215 0.992545
1.00063 1.00111 0.992759
0.999675 0.999974 0.998241
1.00071 0.999987 0.993952
0.9998 0.999199 0.99849
1.0004 1.00047 0.997333
1.0052 0.994926 0.991308
1.00517 0.994976 0.991667
1.0053 0.99494 0.991174
1.00532 0.994923 0.991445
1.0052 0.994935 0.991749
1.00534 0.994952 0.991735
1.00518 0.99494 0.9918
1.00534 0.994925 0.991555
1.0053 0.994941 0.991383
1.00533 0.994905 0.99144
1.00533 0.994926 0.990988
1.00534 0.994925 0.991071
1.00532 0.994927 0.99156
1.00536 0.994915 0.991486
1.00532 0.994901 0.991394
1.00538 0.994884 0.990759
1.00517 0.994938 0.991817
1.00516 0.994966 0.991715
1.00531 0.994939 0.991421
1.00531 0.994929 0.991082
1.00541 1.00456 0.981481
1.00537 1.00136 0.984195
1.00536 0.997415 0.987812
1.00533 0.994896 0.990896
1.00534 0.994914 0.990792
1.00541 0.994794 0.990566
1.0054 0.995101 0.990319
1.00541 0.994656 0.990747
1.00525 1.00477 0.981752
1.00457 1.00469 0.982222
1.00291 1.00406 0.986552
1.00227 1.00221 0.988981
1.00242 1.00419 0.989318
1.00533 0.994935 0.991478
1.00533 0.994935 0.991323
1.00537 0.994895 0.990834
1.00527 1.00353 0.982813
1.00533 1.00035 0.98472
1.00529 0.996511 0.988682
1.00537 0.994915 0.990643
1.00542 0.994745 0.990502
1.00539 0.994831 0.990434
1.00053 1.00459 0.988587
1.00476 1.00455 0.982468
1.00485 1.00438 0.982492
1.00349 1.00437 0.985129
1.00245 1.00124 0.989547
1.00368 1.00279 0.987108
1.00536 0.994918 0.99141
1.00537 0.994889 0.991129
1.00538 0.99488 0.990634
1.00536 0.994882 0.990442
1.00508 1.00348 0.983262
1.00535 0.994805 0.990351
1.00529 0.999042 0.986315
1.00528 0.99577 0.989106
1.00003 1.00377 0.990133
1.00138 1.00512 0.988086
1.00356 1.00263 0.988213
1.00154 1.00262 0.989447
1.00433 1.004 0.984007
1.00485 1.00405 0.983112
1.00114 1.00516 0.987883
1.00216 1.00484 0.985936
1.00536 0.994878 0.990768
1.00392 1.00143 0.986798
1.00499 1.00491 0.982079
1.00371 1.00263 0.985222
1.00544 0.994911 0.990348
1.00541 0.994792 0.990429
1.00502 1.00165 0.985196
1.00515 0.998158 0.987696
1.00202 1.00512 0.98668
1.00269 1.00483 0.985928
1.00449 1.00311 0.984381
1.00388 1.00307 0.984923
1.00513 1.00179 0.985637
1.00538 0.994824 0.990591
1.00545 0.995353 0.989701
1.00538 0.994916 0.990153
1.00503 1.00015 0.986387
1.00499 0.999196 0.987131
1.00014 1.0043 0.988751
0.999772 1.00478 0.987849
1.00484 1.00057 0.986491
1.0046 1.00066 0.986713
1.00546 0.994792 0.990446
1.00536 0.994729 0.990407
1.00528 0.997439 0.98786
1.00514 0.999476 0.986565
1.00153 1.00512 0.988115
0.999416 1.00475 0.990978
0.997113 1.00485 0.994482
0.999392 1.00504 0.990445
0.997891 1.00509 0.991436
0.999805 1.00444 0.990993
0.998619 1.00448 0.992787
0.999218 1.00505 0.991262
0.998644 1.00145 0.995775
0.998917 1.00509 0.991699
0.999003 1.00503 0.990998
1.00002 1.00429 0.990835
0.999974 1.00277 0.992186
1.00001 1.00267 0.992203
0.999959 0.999591 0.995999
0.99996 1.0029 0.992013
1.00005 0.999703 0.995819
1.0001 0.99752 0.997476
1.00013 0.999903 0.995531
1.00018 0.997657 0.997241
1.00017 0.998035 0.996791
1.0004 1.00066 0.993603
1.00021 1.00206 0.992473
0.999819 0.998833 0.998421
1.0005 1.00044 0.992895
0.999821 0.999761 0.998288
0.999932 0.998751 0.998407
1.00533 0.994928 0.990989
1.0053 0.994944 0.991393
1.00535 0.994921 0.991051
1.00533 0.9949 0.991428
1.00534 0.994925 0.991546
1.00518 0.994942 0.991823
1.00532 0.994927 0.991563
1.00535 0.994913 0.99148
1.00533 0.994906 0.991337
1.00537 0.994881 0.990801
1.00537 0.994916 0.991491
1.00534 0.994893 0.991447
1.00537 0.99487 0.991073
1.00533 0.994936 0.991466
1.00533 0.994936 0.991332
1.00537 0.9949 0.990848
1.00526 1.00368 0.982816
1.00537 1.00054 0.984607
1.00529 0.99644 0.98871
1.00536 0.994919 0.990663
1.00541 0.994829 0.990462
1.00538 0.994769 0.990587
1.00474 1.00447 0.982475
1.00502 1.00456 0.98207
1.00376 1.00467 0.984841
1.00067 1.00465 0.988892
1.0026 1.00191 0.989719
1.00301 1.00235 0.98653
1.00537 0.994921 0.991425
1.00537 0.994887 0.991096
1.00538 0.994883 0.990645
1.00503 1.00336 0.983253
1.00528 0.998984 0.986183
1.00535 0.995655 0.989321
1.00536 0.99488 0.990408
1.00539 0.994795 0.990338
0.999909 1.00431 0.990387
1.0012 1.00509 0.988015
1.00432 1.00391 0.983783
1.00454 1.00415 0.983297
1.00235 1.00321 0.988761
1.00296 1.00143 0.98851
1.00537 0.994887 0.991366
1.00541 0.994867 0.990766
1.00537 0.994855 0.99047
1.0053 0.994887 0.990231
1.00446 1.00167 0.985525
1.00538 0.994708 0.990364
1.00493 0.998338 0.987619
0.999995 1.0038 0.991118
1.00029 1.00379 0.990901
0.999486 1.00512 0.989508
1.00095 1.00509 0.988325
1.00166 1.00468 0.990095
1.00456 1.001 0.985713
1.00365 1.00402 0.985413
1.00398 1.00398 0.985579
1.00177 1.00513 0.98675
1.00323 1.00497 0.985647
1.00539 0.994826 0.990588
1.00526 1.00267 0.984422
1.0045 1.00319 0.984122
1.0053 1.00213 0.985216
1.00544 0.995192 0.989957
1.00537 0.994978 0.990411
1.00505 1.00002 0.986343
1.00488 0.999523 0.986861
1.00082 1.00419 0.988336
1.00139 1.00484 0.987261
1.00484 1.00068 0.98616
1.00491 1.00119 0.98635
1.00544 0.994796 0.99045
1.00539 0.994761 0.990409
1.00522 0.997348 0.987974
1.00514 0.99959 0.98658
0.998467 1.00381 0.992258
1.00549 0.994748 0.99082
1.00261 1.004 0.98879
1.00469 0.999892 0.986924
1.0054 0.994759 0.990646
1.00511 0.996893 0.987659
1.00512 1.00055 0.986019
0.999589 1.00475 0.990619
0.997509 1.00431 0.994608
0.995937 1.00331 0.997251
0.999604 1.00431 0.990927
0.999097 1.00504 0.991347
0.997458 1.00513 0.993168
0.999965 1.00414 0.990824
0.999178 1.00502 0.991081
0.996995 1.00314 0.996367
0.999 1.0051 0.991548
0.996512 1.00214 0.998512
0.996798 1.00459 0.994879
0.998916 1.00505 0.991809
1.00018 1.00473 0.989942
1.0002 1.00404 0.990554
0.999973 1.00274 0.992163
0.999954 1.00278 0.992169
0.999822 0.9997 0.996149
0.999936 1.0028 0.992185
0.999964 0.999655 0.996012
0.999975 0.997687 0.99761
1.00005 0.999645 0.995857
1.00011 0.997569 0.997461
1.0002 0.997699 0.997203
1.00022 1.0032 0.991376
0.999976 1.00061 0.99419
1.00024 1.00084 0.993561
1.00002 0.998575 0.998596
1.00031 1.00167 0.992404
0.999824 0.999547 0.998325
0.999901 0.999525 0.99838
1.00535 0.994878 0.990844
1.00534 0.994911 0.99128
1.00534 0.994911 0.991475
1.00533 0.994927 0.991566
1.00536 0.994915 0.991494
1.00534 0.994885 0.99144
1.00536 0.994873 0.991012
1.00538 0.994889 0.9914
1.00534 0.994857 0.991453
1.0056 0.994718 0.991327
1.00537 0.994923 0.99144
1.00537 0.994885 0.991062
1.00538 0.994886 0.990657
1.00501 1.00321 0.983245
1.00527 0.999008 0.986062
1.0054 0.995436 0.989528
1.00536 0.994891 0.990374
1.00541 0.994792 0.990322
1.00441 1.0042 0.983554
1.00404 1.00419 0.983452
1.00232 1.00456 0.988077
1.00011 1.00415 0.990648
1.00077 1.00502 0.987939
1.0025 1.00053 0.9888
1.00537 0.994888 0.991353
1.00035 1.00334 0.991102
0.999859 1.00424 0.990853
1.00541 0.994859 0.990768
1.00538 0.994859 0.990491
1.00465 1.00182 0.985372
1.00525 0.997641 0.988007
1.0053 0.994694 0.990338
1.0053 0.99488 0.990167
1.00003 1.00506 0.989612
1.00116 1.00503 0.98821
1.00322 1.00438 0.985231
1.00409 1.00378 0.983982
1.0042 1.00244 0.985527
1.00084 1.00307 0.99079
1.00543 0.994793 0.991272
1.0054 0.995101 0.990414
1.00534 0.994848 0.990456
1.00525 0.99491 0.989793
1.00338 1.00098 0.987651
1.00531 0.995745 0.989938
1.00004 1.00427 0.990496
0.999525 1.00408 0.990877
1.00086 1.00334 0.990977
1.00068 1.00481 0.988894
1.00097 1.00457 0.989319
1.0007 1.001 0.991823
1.00245 1.00206 0.987126
1.00183 1.00178 0.990363
1.00106 1.00467 0.987937
1.00335 1.00487 0.986661
1.00541 0.994807 0.990454
1.00542 0.994792 0.990413
1.00516 1.0018 0.985978
1.0048 1.00089 0.985818
1.00515 0.997268 0.988089
1.00514 0.999702 0.986597
0.999172 1.00399 0.992206
1.00548 0.994738 0.990997
1.0015 1.00393 0.989488
1.00466 1.00012 0.98674
1.00541 0.994749 0.990733
1.00515 0.997073 0.987875
1.00512 1.00022 0.985972
0.99801 1.00447 0.994554
1.00502 0.994702 0.990297
1.00163 1.00337 0.989323
1.00427 1.00205 0.984924
1.00504 0.995268 0.990907
1.00372 1.0008 0.986838
0.998854 0.994762 0.981669
0.997793 1.00417 0.99471
0.99677 1.00289 0.997172
0.995789 1.00274 0.998313
0.999985 1.00402 0.990806
0.998834 1.00499 0.991173
0.999618 1.00513 0.991401
0.995661 1.00369 0.996974
1.00021 1.004 0.990564
0.99989 1.0047 0.990289
0.995581 1.00153 1.00002
0.99865 1.00506 0.991731
0.99748 1.00473 0.994306
0.994948 1.0049 0.998122
0.998276 1.00521 0.992748
0.999078 1.00471 0.991927
1.00048 1.00395 0.99037
1.00005 1.00431 0.990239
1.00044 1.00504 0.990051
1.00003 1.00413 0.990414
0.999843 1.00282 0.992221
0.999937 1.00283 0.992145
0.999704 0.999677 0.995623
0.999989 1.00266 0.992156
0.999814 0.999691 0.995814
0.999975 0.997641 0.999023
0.999967 0.99966 0.996031
1.00001 0.997608 0.997599
1.00012 0.997605 0.99744
0.999923 1.00269 0.992227
1.0004 1.00295 0.991428
1.00008 0.999896 0.994822
1.00009 1.00049 0.994631
0.999943 0.99816 0.99876
1.00006 1.0014 0.993518
0.999926 0.998394 0.998567
0.99986 0.999803 0.998193
1.00536 0.994872 0.990953
1.00534 0.994878 0.991433
1.00536 0.994914 0.991498
1.00537 0.994892 0.991401
1.00537 0.994847 0.991386
1.00561 0.99474 0.991325
1.00545 0.994841 0.991447
1.00066 0.994623 0.979885
1.00549 0.994746 0.989844
1.00011 1.00362 0.991057
1.00536 0.994891 0.991341
1.00541 0.99486 0.99077
1.00538 0.994869 0.990511
1.00461 1.00177 0.985207
1.00531 0.996847 0.988373
1.00519 0.994722 0.990288
1.0053 0.994877 0.990102
1.00353 1.0044 0.985102
1.00467 1.00505 0.982437
1.00382 1.00309 0.985318
1.00046 1.00314 0.991087
1.00099 1.0022 0.99145
1.00059 1.00496 0.989696
1.00087 1.00512 0.988102
0.999795 1.00425 0.990808
1.00542 0.994823 0.991282
1.00016 1.00402 0.990606
1.00003 1.0042 0.990869
0.999861 1.00381 0.991447
1.00539 0.994925 0.990438
1.00532 0.994848 0.990414
1.00325 1.00189 0.987668
1.00506 0.995512 0.989955
1.00529 0.994963 0.989824
1.00061 1.00482 0.988914
1.00075 1.00463 0.989694
1.00285 1.0021 0.989485
1.00307 1.00411 0.98633
1.00256 0.999727 0.991913
1.00547 0.994791 0.990843
1.00535 0.994909 0.990486
1.00526 0.994884 0.990236
1.00463 0.997628 0.989492
1.00305 0.999937 0.989308
0.999751 1.00316 0.992057
1.00042 1.00398 0.989612
0.999374 1.00298 0.992693
1.00065 1.00408 0.99068
1.00042 1.00182 0.993095
0.999589 1.00074 0.994247
1.0018 0.99966 0.993073
1.00058 1.00358 0.992088
0.999868 1.00402 0.990197
1.00548 0.994714 0.991163
1.00543 0.994739 0.990806
1.00518 0.997268 0.988092
1.00459 1.00027 0.986559
1.00513 0.999894 0.985936
0.997802 1.00461 0.99555
1.00461 0.994683 0.990438
1.00156 1.00333 0.989208
1.00461 1.00198 0.98479
1.00481 0.995199 0.991184
1.00407 1.00071 0.986884
0.998724 0.994749 0.980028
0.997347 1.00481 0.994621
1.00351 0.994719 0.990364
1.00244 1.00292 0.986819
1.00345 1.00069 0.987507
1.00348 0.997454 0.991808
0.999956 0.994851 0.93535
0.994865 0.994696 0.957836
0.996877 0.994866 0.985345
0.995312 0.995078 0.842974
0.994698 0.997117 0.80226
0.997858 1.00265 0.997107
0.996205 1.00281 0.998533
0.994937 1.00488 0.998509
1.00029 1.0039 0.99058
0.999711 1.00478 0.990637
0.998812 1.00507 0.991641
0.997866 1.00485 0.993697
0.995128 1.00115 1.00148
0.998864 1.00458 0.99228
1.00028 1.00409 0.990278
1.00032 1.00429 0.990294
0.995312 1.00438 0.997974
0.997766 1.0052 0.993199
0.998021 1.00502 0.993661
0.99627 1.00518 0.995661
0.998913 1.00423 0.992729
1.00018 1.00462 0.989841
1.00009 1.00438 0.990027
0.999302 1.00481 0.990629
0.998999 1.00335 0.993858
0.999021 1.00503 0.991813
1 1.00504 0.990312
1.00017 1.00374 0.990819
0.999897 1.00411 0.990378
0.99998 1.00248 0.992482
1 1.00269 0.992231
0.999681 0.999627 0.995738
0.999899 1.00295 0.992124
0.999694 0.999704 0.995624
0.999938 0.997627 0.99906
0.999803 0.999704 0.995487
0.999926 0.997647 0.998362
1.00005 0.997543 0.997585
0.999894 1.00204 0.992988
1.00008 1.00255 0.992248
1.00004 0.999423 0.995412
1.00053 1.0027 0.991476
1.00006 0.999939 0.995222
0.999976 0.997765 0.998908
1.00025 1.00035 0.994105
0.999972 0.998375 0.998689
0.999888 0.998882 0.99853
1.0054 0.994838 0.991319
1.00537 0.994895 0.991403
1.00563 0.994774 0.991347
0.999508 0.99469 0.979711
1.00548 0.994818 0.991422
1.00549 0.99477 0.989927
1.00548 0.99473 0.991205
0.995119 0.994788 0.960536
1.00448 0.994729 0.976343
1.00029 1.00301 0.991449
1.00028 1.00352 0.991051
0.999416 1.00411 0.991713
1.00025 1.00362 0.990904
1.00542 0.994839 0.991292
1.0054 0.994868 0.990464
1.0053 0.994836 0.990373
1.00387 1.00179 0.987688
1.00511 0.995392 0.990023
1.00532 0.99485 0.989879
1.00279 1.0011 0.988552
1.00372 1.00475 0.985552
1.00278 0.997418 0.992067
1.00004 1.00469 0.99087
1.00003 1.00391 0.990097
1.00065 1.00486 0.988932
1.00035 1.00373 0.990714
0.999081 1.00449 0.992014
1.0055 0.994798 0.990822
0.999729 1.00363 0.991542
1.00072 1.00389 0.989816
0.996982 1.00381 0.995397
1.00536 0.994941 0.990469
1.00526 0.994877 0.990212
1.00383 0.998709 0.989476
1.00461 0.997279 0.989406
1.00109 1.00396 0.990087
0.99949 1.00211 0.992312
1.00149 0.999274 0.993177
1.00136 0.999757 0.993417
1.00392 0.996869 0.989744
1.00523 0.994773 0.990728
1.00401 0.998651 0.989541
1.00445 0.998117 0.989888
0.996326 1.00479 0.995886
1.00139 1.00372 0.989114
0.997941 1.00049 0.998234
0.997666 1.00306 0.995236
0.999772 0.99676 0.918735
0.997806 1.00441 0.996599
1.00115 1.00348 0.989083
1.00407 0.994675 0.990622
1.00453 0.995119 0.991452
1.00431 1.00053 0.986901
1.00485 1.00202 0.984642
0.99845 0.994723 0.978083
0.997549 1.00449 0.994932
1.00311 0.994694 0.990287
1.00259 1.00336 0.986792
1.00387 1.00052 0.987686
1.0035 0.997751 0.991699
0.998886 0.994861 0.920764
0.995198 0.994739 0.954587
0.996721 0.995415 0.985804
0.99647 0.995148 0.849346
0.994763 0.996934 0.798955
0.997886 1.00394 0.993918
0.997479 0.994845 0.853345
0.99481 0.996176 0.796766
1.00139 0.994836 0.99374
1.00174 1.0016 0.990273
1.00133 1.00104 0.992554
0.99519 0.995878 0.989122
0.997429 0.994681 0.933594
0.994908 0.994756 0.94959
0.994723 0.997056 0.86124
0.99478 0.995329 0.778736
0.996331 1.00256 0.998755
0.99508 1.005 0.998295
0.995304 1.00491 0.999083
1.00045 1.00389 0.990312
1.0001 1.00444 0.990213
0.998327 1.00457 0.992638
0.997593 1.0052 0.993653
0.995732 1.00393 0.997848
1.00021 1.00444 0.990002
0.997656 1.00482 0.994106
0.998699 1.00452 0.992332
1.00038 1.00452 0.989907
0.996128 1.00521 0.996056
0.996809 1.00495 0.99516
0.995181 1.00505 0.997182
0.998907 1.00509 0.991279
1.00028 1.00471 0.989659
0.999909 1.00462 0.990572
0.998142 1.00317 0.994828
0.997834 1.00411 0.993697
0.998939 1.00131 0.995708
0.99676 1.00128 0.999498
0.998827 1.00187 0.993932
0.99792 1.00432 0.993135
0.998922 1.00515 0.991851
0.999066 1.00508 0.990984
0.999554 1.00511 0.990577
1.00015 1.00421 0.990681
1.00005 1.00257 0.992505
1.00013 1.00423 0.990335
0.99993 1.00252 0.992506
0.999862 0.999448 0.99638
0.999781 1.00301 0.992243
0.999742 0.999568 0.996042
0.999911 0.997521 0.997878
0.999675 0.999717 0.995619
0.999927 0.997634 0.999071
0.999933 0.997685 0.997695
1.00036 1.00331 0.991167
0.99988 1.00175 0.993296
0.99995 1.00201 0.992981
1 0.999074 0.9958
1.00019 1.00245 0.992272
1.00006 0.999425 0.995397
0.999988 0.997456 0.999019
1.00004 1.00014 0.995508
0.999955 0.997896 0.998069
0.999947 0.998184 0.996953
0.998833 0.994717 0.97951
1.0055 0.994804 0.991399
1.00548 0.994845 0.989999
0.996169 0.994751 0.960514
1.00436 0.994681 0.976536
1.00548 0.994832 0.99128
1.00398 0.994625 0.984766
0.999226 0.994742 0.958987
0.998462 0.994971 0.934728
0.996555 0.994761 0.870351
0.994837 0.997287 0.802373
0.999352 1.00386 0.991669
1.00024 1.00315 0.991466
1.00037 1.00352 0.991038
0.999569 1.00361 0.992028
0.997783 1.00502 0.993702
0.999766 1.00455 0.99091
1.00016 1.00472 0.989957
1.00007 1.00385 0.990938
1.00551 0.994815 0.990796
1.00537 0.994848 0.99045
1.00525 0.994876 0.990187
1.00404 0.998552 0.989642
1.00469 0.997189 0.9893
1.00126 0.999582 0.993277
1.00365 0.998439 0.992581
1.0007 1.00331 0.991521
1.00093 1.00339 0.989978
1.00119 1.00399 0.989443
0.999724 1.00437 0.991025
0.9953 1.00446 0.997779
1.00423 0.995753 0.990133
0.996643 1.00473 0.995541
1.0006 1.00323 0.991019
1.00501 0.994794 0.990698
1.00382 0.999083 0.989535
1.00369 0.997991 0.990264
0.998667 1.00065 0.996621
0.998736 1.00196 0.995411
1.00279 0.996537 0.988263
1.00281 0.999412 0.990574
1.00359 1.00047 0.989699
1.00144 0.998739 0.993815
0.998047 1.0048 0.993715
0.996681 1.00335 0.996027
0.996653 1.00233 0.997903
0.999813 0.999272 0.848177
1.00071 0.994882 0.935054
0.998013 1.00407 0.995245
1.003 1.00365 0.986783
1.0027 0.994705 0.990195
1.0036 0.997906 0.991611
1.00416 1.00035 0.987909
0.999986 0.994832 0.932918
0.995696 0.994755 0.95409
0.996557 0.996194 0.986498
0.994915 0.995357 0.868636
0.994824 0.995419 0.795288
0.998355 1.00389 0.993991
0.999744 0.994975 0.85045
0.994758 0.995205 0.790644
1.00112 0.99571 0.993528
1.00163 1.00183 0.990324
1.00134 1.00065 0.99339
0.99552 0.996661 0.990168
0.996115 0.994659 0.926673
0.99503 0.99476 0.950372
0.99478 0.995748 0.864666
0.994813 0.995704 0.776024
0.996861 1.00466 0.996784
0.994787 0.994816 0.783647
0.994734 0.994738 0.772537
0.997037 1.00102 0.996829
0.999008 1.00202 0.997262
0.994858 0.998397 0.987195
0.994915 0.994796 0.955337
0.994882 0.994608 0.917886
0.994818 0.995357 0.868063
0.994898 0.994898 0.793332
0.995271 1.00515 0.998108
0.99518 1.0047 0.999202
0.99492 1.00457 0.999336
1.00031 1.00437 0.989969
1.00061 1.00453 0.989976
0.998678 1.00486 0.991937
0.997223 1.00462 0.994547
0.99579 1.00523 0.996448
1.0005 1.00474 0.9896
0.996963 1.00505 0.994809
0.999214 1.00508 0.991255
0.995249 1.00509 0.99736
0.995012 1.0048 0.998454
0.996503 1.00514 0.995134
0.999537 1.00493 0.991435
1.00051 1.0042 0.990521
0.997932 1.00287 0.995773
0.998157 1.00434 0.993593
0.999472 1.00063 0.995432
0.995545 1.00116 1.00026
0.999219 0.999241 0.995839
0.995392 1.00488 0.996791
0.997513 0.999657 1.00045
1.00197 1.00509 0.98766
1.00515 0.999735 0.988642
0.998305 1.00468 0.991358
0.998777 1.0026 0.994009
0.99871 1.00433 0.991174
0.998429 1.00444 0.993199
1.00003 1.00477 0.990623
0.999018 1.00511 0.991887
0.99951 1.00454 0.991127
0.999505 1.00336 0.992071
1.0002 1.00432 0.990536
0.999893 1.00247 0.992531
0.999946 0.9994 0.996226
1.00009 1.00225 0.992526
0.999847 0.999383 0.996073
1.00002 0.997225 0.997867
0.999719 0.999585 0.995748
0.999959 0.997486 0.9991
0.999924 0.997606 0.999083
1.00062 1.00353 0.990856
0.999941 1.00188 0.993137
1.00046 1.00308 0.991177
1.00002 0.998904 0.995953
0.999957 1.00169 0.993281
1.00004 1.0019 0.992974
1.00002 0.999087 0.995785
0.999996 0.997251 0.999095
1.00007 0.99947 0.996037
1 0.997532 0.998283
0.99998 0.997848 0.997392
0.999086 0.996877 0.836352
0.994818 0.994901 0.781121
0.995645 0.99477 0.961391
1.00419 0.994656 0.976933
1.00551 0.994873 0.991347
1.00165 0.994777 0.956021
1.00333 0.994715 0.985502
0.999691 0.994884 0.930009
0.994975 0.994765 0.84913
0.994836 0.996239 0.799459
0.998527 0.994772 0.968419
0.99547 0.994707 0.935759
0.994737 0.99493 0.863101
0.994857 0.996644 0.791152
0.999474 1.00461 0.992076
0.999801 1.00364 0.991526
1.0002 1.0032 0.991495
0.999573 1.00313 0.992358
0.997203 1.00448 0.994827
1.00034 1.0047 0.989803
0.999286 1.00463 0.991395
1.00086 1.00494 0.988627
1.0003 1.00467 0.989854
0.999546 1.00444 0.990983
1.00435 0.994847 0.990494
1.00488 0.994815 0.990666
1.00342 0.999462 0.989526
1.00293 0.997982 0.990644
0.999254 1.00204 0.995587
0.998996 1.00062 0.995063
0.999516 1.00296 0.993157
0.99683 1.00468 0.995174
1.00219 0.995768 0.988924
0.997848 1.00505 0.993521
0.996734 1.00347 0.996439
1.00264 0.999288 0.990609
1.00319 1.00114 0.988999
1.00064 0.999045 0.994738
0.997076 1.00224 0.998315
0.999511 0.995429 0.987278
1.00077 1.00155 0.992795
0.996652 1.00393 0.996723
0.998778 1.00359 0.993594
0.99622 1.00516 0.995212
0.995335 1.00406 0.998168
0.994765 0.994786 0.797976
0.999781 0.99497 0.858171
0.999878 0.996926 0.918981
0.998625 1.00389 0.994042
1.00182 1.0021 0.99032
1.00081 0.996362 0.993302
1.00122 1.00008 0.994231
0.999642 0.997242 0.865523
0.995436 0.994699 0.920307
0.994934 0.994707 0.949713
0.995732 0.997597 0.990975
0.994775 0.995294 0.84782
0.99471 0.994896 0.796994
0.994855 0.997217 0.791717
0.996908 1.00449 0.99649
0.994786 0.994834 0.790724
0.994768 0.994755 0.772161
0.997367 0.999311 0.997464
0.998727 1.00194 0.997175
0.994839 0.997163 0.989029
0.995154 0.99478 0.952152
0.995061 0.994624 0.930669
0.994792 0.996247 0.847342
0.9953 0.994892 0.802168
0.995806 1.00406 1.00067
0.994732 0.99478 0.780237
0.99482 0.994832 0.776805
0.994802 1.00214 1.00039
0.994847 0.996632 0.96368
0.994799 0.994778 0.928361
0.994915 0.994906 0.849107
0.995864 0.994906 0.822709
0.995154 1.00447 0.999314
0.995024 1.0048 0.999601
0.994896 1.00465 0.999932
1.0003 1.00501 0.989544
0.999578 1.00498 0.991231
0.99703 1.00506 0.994459
0.995303 1.0051 0.997536
0.999138 1.00492 0.991386
0.996639 1.00515 0.995131
0.99514 1.00462 0.998513
0.995142 1.00471 0.998943
0.995208 1.00424 0.998842
0.997049 1.00515 0.994823
0.998352 1.00484 0.993474
0.999379 1.00004 0.995167
0.994887 1.00152 1.00104
0.995747 1.00423 0.997226
0.999363 1.00042 0.995498
0.996337 0.999537 1.00096
1.00119 1.00271 0.992446
0.994769 1.00425 1.00005
1.00305 1.00037 0.989799
1.00156 1.00354 0.989246
1.00294 1.00188 0.9881
1.00502 0.99964 0.987187
1.00374 1.00105 0.988664
1.00441 0.999353 0.989117
0.999508 1.00416 0.991404
0.999048 1.00513 0.989345
0.998754 1.00385 0.994084
0.99963 1.00435 0.99119
1.00073 1.00515 0.98865
0.998845 1.00453 0.99325
0.999432 1.00496 0.99067
0.999766 1.00408 0.990896
0.999883 1.00443 0.99127
0.999815 1.00326 0.992093
1.00015 0.999835 0.995601
0.999848 1.00258 0.992563
0.999929 0.99955 0.995757
1.00009 0.99738 0.99768
0.99986 0.999325 0.995786
1.00002 0.997279 0.998489
0.999974 0.997418 0.999104
1.00041 1.00452 0.989567
1.00004 1.0022 0.992727
1.00029 1.00384 0.990637
1.00006 0.998954 0.995844
0.999923 1.00187 0.993158
1.00032 1.00315 0.991185
1.00001 0.997189 0.99911
1 0.998941 0.995947
0.999931 1.0018 0.993272
1.00003 0.999089 0.99577
0.999999 0.997302 0.999075
0.999995 0.99751 0.998988
0.994757 0.994823 0.777514
0.998786 0.995069 0.850761
0.994801 0.994773 0.775733
0.994845 0.994909 0.783143
0.999234 0.994899 0.956953
1.00249 0.994774 0.98627
0.999183 0.994764 0.924692
0.995753 0.994784 0.869521
0.994849 0.995125 0.796795
0.998347 0.994798 0.967108
0.996085 0.994665 0.920024
0.99475 0.995678 0.865781
0.994815 0.99592 0.783763
0.994914 0.994787 0.959797
0.994761 0.99465 0.915518
0.994793 0.995398 0.841433
0.994862 0.994899 0.799117
1.00027 1.00425 0.99097
0.998666 1.00455 0.992256
0.999915 1.0038 0.991378
0.996452 1.00397 0.995927
1.00079 1.00394 0.989423
0.999987 1.00495 0.989985
0.99884 1.00444 0.99187
1.00127 1.00478 0.988328
1.00103 1.00502 0.98856
1.00033 1.0046 0.989744
1.0023 0.994792 0.989513
1.00235 0.999239 0.990669
1.00295 1.00183 0.988306
0.999753 0.999011 0.995665
0.997239 1.00304 0.998711
0.997126 1.00334 0.996844
0.998103 1.00508 0.993338
0.999075 1.00307 0.993566
0.999459 0.996364 0.987956
0.997312 1.00506 0.994638
0.996692 1.0028 0.998368
1.00054 1.00118 0.99296
0.997473 1.00264 0.996721
0.996579 1.00024 0.986478
0.996656 1.00285 0.997617
0.994633 1.0054 0.998341
0.996168 1.00403 0.997258
0.995328 1.00462 0.99754
0.994745 0.994769 0.78618
0.994775 0.994739 0.792973
0.999783 0.999353 0.836938
0.996911 1.00438 0.996243
0.998843 1.0017 0.997113
0.997902 0.99816 0.998079
0.994771 0.994812 0.786279
0.994788 0.994624 0.916092
0.994922 0.994767 0.952773
0.994856 0.995672 0.991376
0.994779 0.996106 0.865994
0.994811 0.994773 0.772747
0.995889 0.994882 0.804332
0.996094 1.00384 1.00071
0.99475 0.994798 0.781051
0.994799 0.994831 0.778042
0.994843 1.00258 0.999112
0.994849 0.995712 0.96545
0.995213 0.994781 0.914186
0.995651 0.9949 0.81717
0.995376 0.996386 0.858531
0.994722 1.00484 1.00159
0.994766 0.99483 0.767606
0.994866 0.994848 0.795873
0.994865 0.994893 0.798618
0.994713 0.999851 0.987689
0.994835 0.995483 0.933621
0.997385 0.994885 0.872624
0.995229 1.00498 0.999868
0.995185 1.00456 0.999731
0.994945 1.00513 0.999458
0.999157 1.00469 0.991352
0.996642 1.00516 0.995128
0.995245 1.00431 0.99857
0.996556 1.00514 0.994951
0.99512 1.00402 0.998968
0.995235 1.00444 0.99866
0.995126 1.00392 1.00009
0.994901 1.00428 0.998999
0.995885 1.00332 0.997723
0.999429 1.00111 0.99515
0.994999 0.999372 1.00141
0.994868 1.00406 0.999734
0.999824 1.00151 0.993313
1.00092 1.00133 0.993798
1.00004 1.00193 0.99316
1.00333 1.00014 0.988486
1.00132 1.00171 0.990711
1.00315 1.00155 0.988084
1.00481 1.00114 0.986046
1.00514 1.00078 0.98559
1.00493 0.998555 0.988087
1.00484 0.99957 0.987168
1.00224 1.00415 0.987911
1.00284 1.0015 0.988791
1.00357 0.99887 0.989595
1.00074 1.00359 0.991446
0.99995 1.00513 0.989107
1.00164 1.00512 0.986654
1.00026 1.00449 0.991213
1.00111 1.00501 0.988603
1.00065 1.00477 0.988757
0.999591 1.00512 0.990702
1.00015 1.00379 0.990856
1.00021 1.00025 0.995124
1.00008 1.00276 0.99211
1.00014 0.999881 0.995145
1.00032 0.997609 0.99709
0.999886 0.999659 0.995436
1.0001 0.997328 0.998416
1.00006 0.997214 0.99909
1.00102 1.005 0.988058
1.00021 1.00262 0.991625
1.00066 1.00436 0.989581
1.00011 0.999149 0.995574
1.00011 1.00212 0.992506
1.00042 1.00371 0.990419
1.00003 0.997219 0.999077
1.00005 0.998948 0.995858
1.00001 1.0017 0.993173
1.00001 0.997218 0.999109
0.999992 0.998965 0.995941
1 0.997328 0.999056
0.994797 0.994816 0.778862
0.994775 0.994859 0.792696
0.999192 0.994887 0.84989
1.00077 1.00508 0.988645
0.99478 0.994801 0.780136
0.99479 0.994796 0.77564
0.994876 0.994913 0.797063
0.998004 0.994748 0.966945
0.995455 0.994706 0.934906
0.994677 0.996468 0.848535
0.994793 0.995302 0.795602
0.99537 0.994776 0.957118
0.99488 0.994655 0.930085
0.994786 0.995928 0.846729
0.994881 0.994898 0.800039
0.994939 0.994762 0.951193
0.994805 0.994835 0.926089
0.996461 0.99492 0.861774
0.995338 0.994913 0.823052
0.998497 1.00354 0.993713
0.999412 1.00439 0.991431
0.998706 1.00394 0.992438
1.00119 1.00275 0.990366
1.001 1.00434 0.989343
0.999853 1.00505 0.990165
1.00141 1.00503 0.988286
1.00129 1.00478 0.988493
0.998706 0.997277 0.988478
0.999907 1.00094 0.993057
0.998103 1.00353 0.993519
0.998273 1.00133 0.996678
0.997551 1.002 0.99854
0.997996 1.00473 0.993955
0.996487 1.00383 0.996115
0.996249 1.00029 0.986583
0.996107 1.00478 0.997272
0.995653 1.00398 0.998324
0.996142 1.00315 0.997739
0.995163 1.00509 0.996858
0.99533 1.00442 0.983425
0.99461 1.00376 0.999467
0.994852 1.00499 0.998935
0.995421 1.00542 0.997176
0.994733 0.994809 0.769159
0.994737 0.99477 0.782587
0.994781 0.99469 0.78773
0.996014 1.00411 1.00073
0.994856 1.00193 0.997784
0.994767 0.994817 0.781714
0.994757 0.994833 0.929607
0.994845 0.995488 0.96192
0.99567 0.99491 0.857529
0.99478 0.99483 0.779033
0.994893 0.994899 0.811461
0.994774 1.00488 1.00147
0.994769 0.994827 0.768091
0.994875 0.994859 0.793918
0.994743 1.00056 0.991339
0.994882 0.994934 0.79949
0.994832 0.996755 0.926876
0.996727 0.997042 0.874188
0.994807 1.00411 0.997274
0.994834 0.994844 0.783282
0.994792 0.994815 0.782075
0.994816 0.996719 0.789897
0.996549 0.994919 0.861557
0.994875 1.00142 0.969712
0.994862 0.995122 0.91971
0.9954 1.00481 0.999554
0.995013 1.00514 0.999462
0.994737 1.00514 0.998122
0.996263 1.00513 0.995065
0.995022 1.00397 0.9991
0.995394 1.00455 0.998411
0.994899 1.00438 0.998855
0.994953 1.00438 0.999851
0.997258 1.00249 1.00022
0.994926 1.00385 0.999423
0.997857 1.00039 0.994283
0.99946 1.00145 0.994756
1.00062 0.999432 0.992358
0.996585 1.00389 0.996161
1.00286 1.00011 0.989142
1.0045 1.00267 0.984223
1.00474 1.00201 0.984783
1.00353 1.00144 0.98799
1.00469 1.00121 0.985686
1.00512 1.00149 0.984881
1.00486 1.00058 0.986401
1.005 1.00082 0.985663
1.00414 1.00028 0.988338
1.00423 0.999554 0.987973
1.00486 0.999433 0.987163
1.00149 1.00511 0.986795
1.00152 1.00433 0.987936
1.00172 1.00205 0.988898
1.00095 1.00514 0.988874
1.0021 1.00509 0.986654
1.00135 1.00523 0.986889
1.0011 1.0048 0.988554
1.00093 1.00474 0.988735
1.00025 1.00113 0.993302
1.00059 1.0038 0.990846
1.00031 1.00019 0.994247
1.00012 0.99771 0.99876
1.00015 0.999923 0.9948
1.00021 0.997596 0.998017
1.00014 0.997478 0.998946
1.00092 1.00501 0.988184
1.00048 1.00348 0.990348
1.00086 1.00507 0.988359
1.00021 0.999426 0.995163
1.00026 1.00268 0.991486
1.00063 1.00449 0.989587
1.00005 0.99733 0.999016
1.00014 0.999086 0.995596
1.00007 1.00213 0.992287
1.00003 0.997219 0.999089
1.00005 0.998951 0.995872
1 0.997228 0.999109
0.994751 0.994813 0.776419
0.99479 0.994803 0.779231
0.994771 0.995055 0.791326
1.0009 1.00493 0.988775
1.00021 1.0051 0.988746
1.00129 1.00319 0.990988
0.994878 0.994863 0.794588
0.994796 0.994799 0.781323
0.994795 0.994784 0.775724
0.996108 0.994759 0.95765
0.994866 0.994636 0.916538
0.994786 0.996421 0.866613
0.994884 0.994883 0.794425
0.994923 0.994789 0.953161
0.994923 0.994797 0.921697
0.996078 0.995071 0.861818
0.995354 0.994907 0.817352
0.994907 0.99485 0.952522
0.994809 0.995121 0.929075
0.996957 0.994906 0.872745
0.994889 0.994905 0.79556
0.997616 1.00315 0.99504
0.998599 1.0036 0.993623
0.999117 1.00499 0.991894
1.00087 1.00313 0.990276
1.00066 1.00484 0.989269
1.00131 1.00505 0.98824
0.995926 0.999959 0.987049
0.996227 1.00337 0.997889
0.997913 1.00287 0.995042
0.99681 1.00296 0.998173
0.997386 1.00417 0.997046
0.995465 1.00498 0.996855
0.995581 1.00532 0.996806
0.995166 1.00355 0.98353
0.994832 1.00517 0.999094
0.994573 1.0046 0.99789
0.995249 1.00534 0.998034
0.994687 1.00225 0.982748
0.994752 1.00499 0.994931
0.994903 1.00275 0.999077
0.994864 0.994854 0.771387
0.994744 0.994816 0.7686
0.99473 0.99477 0.778974
0.994833 1.00476 1.00132
0.994775 1.0013 0.986743
0.994767 0.994824 0.768592
0.994823 0.996624 0.92739
0.996195 0.994886 0.860201
0.994889 0.994854 0.791945
0.994885 0.994875 0.794063
0.994766 1.00417 0.997802
0.994815 0.994845 0.782082
0.994812 0.994799 0.783462
0.99489 1.00201 0.966281
0.994802 0.996263 0.782606
0.995987 0.996742 0.860555
0.994864 0.99724 0.933553
0.994855 1.00511 0.988065
0.994762 0.994817 0.779068
0.994785 0.994787 0.775897
0.994824 0.998045 0.801139
0.994785 0.995795 0.839295
0.994801 0.994909 0.931162
0.994804 1.00164 0.959733
0.995228 1.00482 0.999414
0.994783 1.00513 0.998314
0.994887 1.00471 0.998756
0.9949 1.00443 0.998713
0.994767 1.00451 0.999479
0.996187 1.0018 1.00075
0.998115 1.00231 0.998466
0.99809 1.00124 0.995655
1.00265 0.999203 0.991595
1.00184 1.00419 0.986586
1.00225 1.00035 0.990291
1.00448 1.00272 0.984336
1.00444 1.00265 0.983919
1.00521 0.999804 0.985794
1.00513 1.00139 0.984919
1.00485 1.00196 0.984734
1.00475 1.00131 0.985337
1.00504 1.00255 0.984402
1.00514 1.0014 0.984923
1.00483 1.00045 0.986588
1.00473 1.00094 0.986559
1.00466 1.00092 0.985733
1.0022 1.00268 0.988481
1.00363 1.00057 0.988224
1.00372 1.0005 0.987843
1.00222 1.00521 0.985837
1.00202 1.00506 0.986799
1.00071 1.0042 0.987967
1.00255 1.00507 0.98667
1.00196 1.00512 0.986901
1.00049 1.00197 0.991992
1.0016 1.00446 0.988691
1.00033 1.00115 0.993233
1.00027 0.998179 0.998589
1.00051 1.00002 0.994183
1.0003 0.997791 0.997877
1.00024 0.997566 0.998786
1.00167 1.00488 0.988
1.00086 1.00387 0.989798
1.00107 1.00505 0.988152
1.00023 0.999931 0.994624
1.00045 1.00352 0.990501
1.00079 1.00509 0.988668
1.00007 0.997448 0.99892
1.0002 0.999382 0.995188
1.00042 1.0027 0.991352
1.00005 0.99728 0.999034
1.00015 0.999042 0.995618
1.00003 0.997237 0.999101
0.994831 0.994845 0.780542
0.994755 0.994831 0.776935
0.994801 0.994791 0.779361
1.00035 1.00487 0.988643
1.00255 1.00228 0.99238
1.00048 1.00511 0.988913
1.00042 1.00509 0.988668
1.00023 1.00222 0.991704
1.00072 1.00256 0.99139
0.998334 1.00231 0.995072
0.994833 0.994835 0.779309
0.994874 0.994861 0.792519
0.994807 0.994826 0.78245
0.994892 0.994902 0.811456
0.995136 0.994776 0.951042
0.994827 0.994827 0.916764
0.995955 0.99489 0.872858
0.995081 0.994862 0.951143
0.994805 0.997412 0.915196
0.996449 0.996039 0.873424
0.995112 0.994897 0.804194
0.994847 0.99541 0.955485
0.99484 0.998142 0.916309
0.994914 0.994907 0.849824
0.9948 0.995793 0.781211
0.995425 1.00525 0.996921
0.997289 1.00369 0.995576
0.998338 1.00396 0.993534
1.00063 1.004 0.990184
0.995201 1.00242 0.983456
0.99455 1.0053 0.996461
0.995537 1.00514 0.996869
0.996601 1.00525 0.996445
0.994557 1.00536 0.999549
0.9951 1.00532 0.997966
0.996034 1.00364 0.999352
0.994978 1.00213 0.979827
0.994836 1.00519 0.994802
0.995804 1.0029 0.999916
0.996226 1.00055 0.974981
0.994758 1.00348 0.999178
0.99474 0.994831 0.77271
0.994841 0.994855 0.777418
0.994755 0.994834 0.768032
0.994661 1.00453 0.998325
0.994885 1.00145 0.970652
0.994794 0.994847 0.780875
0.994885 0.995118 0.920892
0.995867 0.994908 0.872426
0.994801 0.994826 0.784568
0.994774 0.995692 0.794096
0.994826 1.00503 0.989121
0.994762 0.994829 0.779687
0.994777 0.994809 0.775863
0.994814 1.002 0.959787
0.994829 0.996144 0.798336
0.994776 0.996167 0.844635
0.994845 0.99558 0.917363
0.995244 1.00403 0.982525
0.99482 0.994819 0.77948
0.994797 0.994923 0.780249
0.994717 0.994992 0.861735
0.994821 0.994875 0.927671
0.99484 0.999268 0.955436
0.994753 1.00499 0.99904
0.994817 1.00463 0.998803
0.994828 1.00492 0.998103
0.9952 1.00111 1.00128
0.996723 1.00251 0.999063
1.00069 1.0012 0.993929
1.00467 0.998825 0.990847
1.00298 1.0045 0.985747
1.00428 1.00178 0.985511
1.00441 1.00272 0.984444
1.00462 1.00272 0.983815
1.00487 1.00117 0.985352
1.00535 0.997098 0.988033
1.00526 0.999641 0.986389
1.00521 0.999981 0.985804
1.00514 1.00169 0.984983
1.0051 1.00119 0.984948
1.00492 1.00184 0.984681
1.0051 1.004 0.982889
1.00504 1.00243 0.984494
1.00513 1.00139 0.984977
1.00423 1.00205 0.987651
1.00384 1.00106 0.987416
1.00465 1.00144 0.986721
1.00337 1.00282 0.986471
1.00238 1.0025 0.988455
1.00303 1.00134 0.988108
1.00104 1.00215 0.990965
1.00244 1.00519 0.985958
1.00239 1.00513 0.986802
1.00214 1.00506 0.986911
1.00059 1.00193 0.991976
1.00034 0.998768 0.998257
1.00028 1.00126 0.993173
1.00028 0.998251 0.998484
1.0003 0.997659 0.998673
1.00288 1.00419 0.988518
1.0026 1.00513 0.987286
1.00113 1.00446 0.988792
1.0015 1.00469 0.987996
1.0002 1.00055 0.994058
1.00079 1.004 0.989772
1.00114 1.00516 0.988114
1.00006 0.997821 0.998791
1.00023 0.999888 0.99465
1.00047 1.00361 0.990651
1.00006 0.997484 0.99895
1.00019 0.999375 0.995219
1.00006 0.997266 0.999055
0.994781 0.994847 0.770214
0.994822 0.994835 0.7794
0.994753 0.994824 0.777448
1.00109 1.00498 0.988151
0.999636 1.00179 0.993235
1.00191 1.00025 0.990366
0.997754 1.00406 0.992561
1.0015 0.998637 0.994802
1.00063 1.00508 0.988569
0.99953 1.00289 0.992479
1.00041 1.00332 0.991387
0.998629 1.00091 0.996611
0.99894 1.00294 0.995546
0.994765 0.994748 0.775567
0.994812 0.994843 0.780705
0.99487 0.994843 0.790537
0.995325 0.994882 0.806401
0.99624 0.994904 0.860383
0.994978 0.994868 0.949833
0.994766 0.995775 0.928213
0.994872 0.996386 0.950385
0.994859 0.998043 0.928756
0.995078 0.996298 0.859468
0.994826 0.995826 0.778581
0.994926 0.99846 0.951394
0.994796 0.996487 0.928302
0.994816 0.995546 0.869591
0.99473 0.997407 0.804831
0.998359 1.00024 0.997741
0.995421 1.00504 0.997235
0.997522 1.00321 0.99614
0.994759 1.00237 0.976435
0.994847 1.00514 0.99381
0.995146 1.00527 0.997822
0.994764 1.00448 0.999597
0.995393 1.00361 0.999737
0.994802 1.00192 0.999736
0.994812 1.0019 0.975847
0.99542 1.00196 1.00272
0.994829 1.00006 0.983671
0.994773 0.994789 0.788296
0.994761 0.994842 0.7719
0.994824 0.994846 0.783754
0.994864 1.00506 0.989491
0.994849 0.999858 0.957612
0.994779 0.994836 0.780302
0.994824 0.994915 0.929523
0.994779 0.996632 0.863923
0.994806 0.994783 0.776203
0.994844 0.995142 0.795836
0.995111 1.0044 0.983427
0.994814 0.994807 0.779508
0.994817 0.995163 0.782064
0.994856 0.998381 0.956697
0.994732 0.995816 0.864827
0.995033 0.994812 0.918621
0.994721 1.00252 0.981356
0.994747 0.994819 0.777065
0.996147 0.994819 0.870142
0.994788 0.994661 0.915017
0.994945 0.994845 0.956148
0.995007 1.00464 0.998882
0.994757 1.00515 0.997855
0.997907 1.00016 0.996817
0.995391 1.00277 0.999634
0.999549 1.00169 0.994804
1.00427 0.995501 0.992784
1.00407 1.00493 0.984885
1.00418 1.00169 0.985472
1.00493 0.99775 0.988466
1.00477 1.00283 0.983713
1.00482 1.00093 0.9854
1.00505 0.9975 0.988417
1.00536 0.994954 0.990248
1.00536 0.996931 0.987996
1.00536 0.997041 0.988065
1.00532 0.99959 0.98654
1.00524 0.999675 0.986338
1.00518 1.00011 0.985816
1.00538 1.00259 0.983552
1.0051 1.00162 0.984841
1.00508 1.00103 0.984976
1.00509 1.00506 0.983384
1.00431 1.0038 0.98364
1.00508 1.00219 0.984585
1.00247 1.00355 0.987842
1.00293 1.00245 0.98752
1.00306 1.00143 0.988235
1.00161 1.00285 0.99118
1.00314 1.00312 0.986565
1.00257 1.0024 0.988425
1.00061 0.999781 0.994953
1.00116 1.00252 0.991178
1.00278 1.00519 0.986088
1.00078 1.00196 0.991942
1.00042 0.998899 0.998148
1.00033 0.998579 0.998375
1.00187 1.00158 0.988301
1.00277 1.00502 0.986734
1.00057 1.00438 0.988637
1.00125 1.005 0.988132
1.00162 1.005 0.987292
0.999949 1.00134 0.993559
1.001 1.00459 0.988777
1.00132 1.005 0.987984
1.00004 0.998156 0.99867
1.00019 1.00046 0.994101
1.00063 1.00409 0.989746
1.00005 0.997704 0.998831
1.00025 0.999778 0.994675
1.00006 0.997397 0.998979
0.994764 0.994826 0.786692
0.994786 0.994842 0.770804
0.994799 0.994856 0.778078
1.00242 1.00403 0.986394
1.00069 1.00502 0.987695
0.998175 1.00223 0.994361
0.999588 1.00505 0.991782
1.00317 0.999587 0.990051
0.99948 0.997476 0.998555
1.0033 0.999819 0.990072
0.99508 1.00518 0.996309
0.999341 1.00394 0.991344
0.998541 0.998061 0.998082
0.99715 1.00336 0.995643
0.997673 1.00211 0.996381
0.994819 0.996243 0.798156
0.994791 0.994766 0.775152
0.994798 0.994851 0.78177
0.99488 0.997384 0.794061
0.995267 0.994907 0.858108
0.994853 0.998143 0.916702
0.995364 0.995071 0.950895
0.995538 0.998823 0.952155
0.994785 0.997365 0.801466
0.994823 0.996458 0.919766
0.994803 0.99655 0.848934
0.994871 0.996597 0.958676
0.994793 0.994815 0.930068
0.994723 0.997201 0.863927
0.999382 0.996011 1.00212
0.998339 1.00029 0.997644
0.994905 1.00537 0.997524
0.994945 1.00255 0.976137
0.996087 1.00039 1.00027
0.995819 1.00287 0.999663
0.995977 1.00012 1.00309
0.994956 0.999318 0.983813
0.995501 0.997744 0.994256
0.994739 0.994759 0.793645
0.994767 0.994803 0.787816
0.994787 0.994836 0.770815
0.994727 1.00481 0.983506
0.994832 0.999854 0.956051
0.994794 0.994808 0.779839
0.994834 0.994831 0.914882
0.994667 0.996247 0.847463
0.994856 0.995376 0.795982
0.99476 1.00459 0.98105
0.994763 0.994857 0.792279
0.995057 0.994772 0.848428
0.995063 0.994839 0.950712
0.994969 0.994659 0.929637
0.995622 0.998623 0.988499
0.999017 0.997113 0.835727
0.995452 0.994721 0.935978
0.994946 0.994752 0.948749
0.994709 1.00524 0.997662
0.997566 1.00178 0.996519
1.00096 0.997913 0.993745
0.998468 1.00258 0.99568
1.00349 0.996701 0.992554
1.0049 0.994821 0.991908
1.00411 1.00153 0.985436
1.0049 0.997553 0.988329
1.0051 0.995724 0.990126
1.00476 1.00055 0.985449
1.00501 0.997369 0.988339
1.00535 0.994772 0.99041
1.0053 0.994773 0.991101
1.00533 0.995078 0.990169
1.00537 0.994964 0.990249
1.00542 0.996762 0.988148
1.00536 0.996841 0.988184
1.00539 0.99698 0.988096
1.00546 0.999997 0.985654
1.00532 0.999438 0.986418
1.00523 0.999693 0.986282
1.00538 1.0039 0.981953
1.00537 1.00279 0.983486
1.00506 1.00154 0.984697
1.00318 1.0026 0.986903
1.00409 1.00494 0.983318
1.0035 1.00377 0.98441
1.00152 1.00311 0.989268
1.00287 1.00264 0.987698
1.00174 1.00258 0.987374
1.00005 1.00183 0.997261
1.00163 1.00303 0.989302
1.00334 1.00262 0.986636
1.0005 0.999275 0.997834
1.0013 1.00246 0.990463
1.00047 0.998798 0.998036
1.00459 1.00299 0.985627
1.0032 1.00144 0.987848
1.00249 1.00453 0.986797
1.0016 1.00514 0.987876
1.00229 1.00506 0.986728
1.00022 1.00476 0.988745
1.00005 1.00197 0.992968
1.00109 1.00508 0.988149
1.00161 1.00428 0.987291
1.00002 0.998718 0.998541
0.999995 1.00135 0.993562
1.00091 1.00478 0.988762
1.00002 0.998162 0.998706
1.00018 1.0005 0.994135
1.00004 0.997699 0.998871
0.994766 0.994818 0.783852
0.994773 0.994814 0.78691
0.994791 0.994835 0.771496
1.00277 1.00375 0.986582
1.00445 1.00328 0.986128
1.00145 1.00469 0.988168
0.999279 1.00506 0.990972
1.0047 0.99936 0.989762
0.995994 0.997659 1.00193
0.997487 1.00205 0.99628
1.00163 1.00087 0.991778
1.00078 1.00012 0.993734
0.998481 1.00034 0.996539
0.997194 1.00315 0.995706
0.998615 1.00206 0.996347
0.995757 0.995001 0.84358
0.994771 0.995199 0.792437
0.994813 0.994782 0.775646
0.994835 0.995452 0.797665
0.994784 0.996308 0.867649
0.994832 0.99565 0.916744
0.99482 0.999106 0.951378
0.994891 0.997551 0.955322
0.994786 0.995951 0.865892
0.994923 0.994799 0.916234
0.994933 0.996114 0.960557
0.99489 0.994591 0.91827
0.99857 0.995421 1.00586
0.999385 0.995845 1.00194
0.998133 1.00036 0.997631
0.994829 0.999511 0.984132
0.996089 0.999605 1.00342
0.995585 0.997874 0.993913
0.994938 0.995409 0.991903
0.999481 0.999765 0.847005
0.994759 0.99473 0.789985
0.994764 0.994821 0.787045
0.994802 1.00435 0.981567
0.995026 0.994826 0.950037
0.99476 0.994893 0.790653
0.994882 0.994632 0.916909
0.995722 0.995019 0.868944
0.995486 0.998419 0.984856
0.99886 0.994909 0.850799
0.995902 0.994668 0.920337
0.994999 0.99479 0.950158
0.996749 0.996758 0.984472
0.998449 0.994865 0.935097
0.994918 0.994784 0.958012
0.997108 1.00257 0.996244
1.00047 0.997659 0.993662
1.00335 0.996871 0.992435
1.0027 0.997465 0.992337
1.00467 0.994813 0.991843
1.00509 0.994642 0.991276
1.00489 0.997443 0.988196
1.00503 0.995795 0.990006
1.00532 0.994756 0.990435
1.00496 0.997261 0.98826
1.00536 0.994769 0.990363
1.0053 0.994824 0.990759
1.00532 0.994867 0.990848
1.00528 0.994777 0.99109
1.00532 0.994823 0.991077
1.00534 0.995259 0.990354
1.00534 0.995145 0.990305
1.00537 0.994968 0.990251
1.00546 0.99731 0.987907
1.00542 0.996735 0.988129
1.00536 0.996739 0.988372
1.0054 1.00167 0.983938
1.00547 0.999995 0.985651
1.0053 0.999333 0.9863
1.00484 1.00252 0.984163
1.0054 1.00375 0.982149
1.00532 1.00288 0.983417
1.00169 1.00409 0.987787
1.00311 1.00318 0.986841
1.00311 1.00454 0.983268
1.00081 1.00078 0.997115
1.00168 1.00292 0.989316
1.00278 1.00233 0.98756
1.00051 1.00094 0.995553
1.00158 1.00256 0.989601
1.00061 1.00017 0.997481
1.0048 1.0043 0.982873
1.00357 1.00339 0.985625
1.00312 1.00277 0.986309
1.00403 1.00211 0.987401
1.0026 1.00426 0.986864
1.00176 1.00514 0.987519
1.00053 1.00222 0.992126
1.0013 1.00515 0.987836
1.00075 1.0051 0.986738
1.00008 0.998785 0.998319
0.999954 1.00189 0.992965
1.0011 1.00515 0.988165
0.999964 0.998481 0.998581
1.00004 1.00108 0.993596
0.999998 0.998019 0.998742
0.997691 0.994848 0.852377
0.994777 0.994811 0.789539
0.994783 0.994807 0.787284
1.0028 1.00312 0.986777
1.0019 1.00478 0.987301
1.00431 1.00296 0.985453
1.00499 0.99919 0.987505
1.00222 0.999988 0.991465
0.998979 1.00209 0.996284
1.0014 1.00019 0.993468
1.00119 1.00009 0.993849
1.00481 0.995581 0.991553
1.00179 0.998187 0.994974
1.00182 0.998564 0.994803
1.00024 0.99888 0.996502
0.999298 1.00158 0.996377
0.99744 0.994678 0.931661
0.996587 0.995182 0.849273
0.994734 0.99489 0.7983
0.994761 0.995759 0.849985
0.994794 0.994824 0.927484
0.995042 0.997156 0.958017
0.994977 0.995644 0.962578
0.994888 0.994637 0.932475
0.99564 0.994787 0.959186
0.997058 0.995749 1.00532
0.997491 0.996208 1.00594
0.999605 0.995531 1.0017
0.99524 0.997368 0.993753
0.996127 0.99491 0.993556
0.999748 0.99745 0.918513
0.999742 0.995101 0.856658
0.994778 0.994701 0.786304
0.995386 0.997486 0.980724
0.994911 0.994761 0.949274
0.999093 0.994853 0.849849
0.995455 0.994689 0.935115
0.996846 0.995846 0.984657
0.999588 0.994847 0.930171
0.995339 0.994791 0.955376
0.999721 0.994669 0.98376
0.997887 0.994793 0.96749
1.00006 0.997834 0.99355
1.00241 0.996031 0.992494
1.00488 0.994651 0.991981
1.00439 0.994822 0.991771
1.00503 0.99466 0.991191
1.00529 0.994682 0.990724
1.00494 0.995848 0.989885
1.00531 0.994762 0.990393
1.00535 0.994827 0.990451
1.00537 0.994768 0.990316
1.0053 0.994821 0.990763
1.00534 0.994862 0.990604
1.00531 0.994868 0.990832
1.00534 0.994849 0.990811
1.00526 0.994782 0.991079
1.00531 0.994802 0.991083
1.00528 0.994879 0.991025
1.00535 0.995952 0.98986
1.00535 0.995295 0.990359
1.00534 0.995225 0.990441
1.00539 0.999962 0.985645
1.00549 0.997386 0.987759
1.00541 0.996693 0.988108
1.00525 1.00439 0.982271
1.0054 1.00177 0.984055
1.00553 0.999992 0.985647
1.00299 1.00373 0.986115
1.00433 1.00311 0.984271
1.0054 1.00392 0.982339
1.00082 1.00137 0.996806
1.00199 1.00381 0.98772
1.00289 1.00386 0.98679
1.00076 1.00078 0.997087
1.00193 1.00273 0.989369
1.00077 1.00051 0.997212
1.00506 1.00289 0.984492
1.00481 1.00442 0.983014
1.0031 1.00499 0.983615
1.003 1.00351 0.985608
1.00266 1.00401 0.986035
1.00194 1.00437 0.986351
1.00232 1.00363 0.986911
1.00147 1.00514 0.987418
1.00114 1.00282 0.99056
1.00012 0.999585 0.997972
1.00026 1.00241 0.992113
1.00086 1.00516 0.987802
0.999999 0.999071 0.998403
0.999823 1.00215 0.992918
0.999947 0.998484 0.998622
0.999964 0.994828 0.935269
0.999849 0.995346 0.849097
0.994767 0.994775 0.783477
1.00201 1.00514 0.986419
1.00417 1.00319 0.984773
1.00306 1.00002 0.990335
1.00498 0.999689 0.987094
1.00511 0.99745 0.988535
1.0048 0.995429 0.990818
1.00193 0.9983 0.993926
1.00502 0.995823 0.9908
1.0018 0.998288 0.994836
1.00439 0.998201 0.99034
1.00214 0.99905 0.992722
1.00208 0.998765 0.994417
1.0017 0.999109 0.994973
1.0011 0.998337 0.996454
0.994946 0.994776 0.958413
0.996592 0.994656 0.926472
0.995152 0.995358 0.867893
0.994793 0.994609 0.917368
0.994867 0.995842 0.963291
0.995729 0.994905 0.96558
0.998595 0.994769 0.990177
0.998448 0.995306 1.00385
0.996843 0.99707 1.00603
0.997527 0.995072 0.995283
0.999088 0.994754 0.958386
1.0007 0.994871 0.934836
0.999465 1.0003 0.83528
0.996787 0.995743 0.985092
0.995891 0.994782 0.955555
0.998761 0.994783 0.924946
0.999493 0.995193 0.984375
0.997656 0.994803 0.96623
1.00195 0.996617 0.987226
1.00364 0.9947 0.984197
1.00138 0.99563 0.992565
1.00419 0.994666 0.992101
1.00522 0.994821 0.990839
1.00496 0.994674 0.991106
1.00529 0.994692 0.990689
1.00539 0.994789 0.990472
1.00529 0.99476 0.990348
1.00535 0.994821 0.990458
1.00537 0.994845 0.99054
1.0053 0.994818 0.990766
1.00534 0.994861 0.990629
1.00534 0.994878 0.99075
1.00529 0.994867 0.990816
1.00535 0.994852 0.990804
1.00532 0.994876 0.99098
1.00531 0.994781 0.991089
1.00528 0.99487 0.991038
1.00529 0.995549 0.990394
1.00534 0.998388 0.987463
1.00536 0.996177 0.989519
1.00535 0.995331 0.990364
1.0053 1.00314 0.982775
1.00537 1.00016 0.98565
1.00551 0.997476 0.987612
1.00353 1.00299 0.985989
1.00477 1.00446 0.982301
1.00538 1.00193 0.984184
1.0018 1.00207 0.995864
1.00295 1.00372 0.98598
1.00377 1.00377 0.984393
1.00126 1.00165 0.996374
1.0023 1.00348 0.987658
1.00094 1.00068 0.996893
1.00537 1.00021 0.985623
1.00499 1.00293 0.984129
1.00493 1.00404 0.98284
1.00479 1.00362 0.983149
1.0044 1.00438 0.983334
1.00339 1.00375 0.984895
1.00334 1.00509 0.985779
1.0028 1.00441 0.986402
1.00161 1.00349 0.98865
1.0015 1.00513 0.98734
1.00079 1.00303 0.99057
1.00027 1.00078 0.99732
1.00005 0.999329 0.998112
1.00003 1.00238 0.992117
0.999905 0.998858 0.99847
0.995071 0.99482 0.962656
0.998846 0.994892 0.918712
0.999642 0.99808 0.864597
1.00535 0.996046 0.989277
1.00402 1.00001 0.989234
1.00501 0.999922 0.986685
1.00504 0.995675 0.990822
1.00527 0.9973 0.988614
1.00535 0.995607 0.989996
1.00502 0.995925 0.990063
1.00122 0.998075 0.994732
1.00448 0.996999 0.99038
1.00188 0.999143 0.992558
1.00343 0.999019 0.990153
1.00337 0.994602 0.994555
1.00136 0.998419 0.994832
1.0013 0.999376 0.99515
0.997995 0.994751 0.988387
0.995383 0.994756 0.95669
0.995885 0.994688 0.920486
0.995178 0.994804 0.966958
0.998626 0.994756 0.992363
0.999211 0.994821 1.00235
1.00424 0.994706 0.975534
1.00047 0.994834 0.955819
0.999898 0.996701 0.918806
0.998913 0.995628 0.984938
0.996843 0.994801 0.965925
1.00138 0.995715 0.987967
1.00261 0.994715 0.984771
1.0032 0.996683 0.990181
1.00541 0.994611 0.990736
1.00358 0.994677 0.992224
1.00521 0.994803 0.990828
1.0054 0.994927 0.990508
1.0053 0.994708 0.990654
1.00539 0.994803 0.990482
1.00539 0.99484 0.990608
1.00536 0.99482 0.990465
1.00537 0.994847 0.990536
1.00534 0.994882 0.990809
1.00535 0.994862 0.990653
1.00534 0.994878 0.990743
1.0053 0.994894 0.990962
1.00535 0.994854 0.990797
1.00531 0.994868 0.990952
1.00532 0.994905 0.991059
1.00528 0.994861 0.991051
1.00528 0.995363 0.990597
1.00533 0.997629 0.988433
1.0053 1.00172 0.984334
1.00532 0.998698 0.987174
1.00537 0.996386 0.989179
1.00368 1.00184 0.986694
1.00531 1.00317 0.982782
1.00536 1.00032 0.985649
1.00261 1.00158 0.995652
1.00352 1.00283 0.985922
1.00445 1.00453 0.982312
1.00205 1.00206 0.995735
1.00292 1.00373 0.985833
1.00154 1.00209 0.996028
1.0054 0.997781 0.98754
1.0053 1.00029 0.985654
1.00547 1.0025 0.983536
1.00487 1.00336 0.983773
1.00496 1.00429 0.982577
1.00393 1.00398 0.983692
1.00521 1.00406 0.983061
1.0034 1.00406 0.984927
1.00214 1.00391 0.987347
1.00268 1.00445 0.986389
1.00158 1.00377 0.988697
1.00061 1.00202 0.996718
1.00057 1.00333 0.990579
1.00006 1.00057 0.997587
0.999978 0.999494 0.998229
0.998788 0.994568 0.985604
0.99637 0.994779 0.957211
0.999992 0.994839 0.934967
1.00541 0.995005 0.989977
1.00533 0.995007 0.990305
1.00538 0.995776 0.989431
1.00527 0.996044 0.99082
1.00538 0.997064 0.988699
1.00535 0.995695 0.989998
1.00537 0.995074 0.98995
1.00475 0.996021 0.990417
1.00255 0.999478 0.99241
1.00358 0.99828 0.990728
1.00522 0.994803 0.991176
1.00351 0.994857 0.993174
1.00254 0.994715 0.994482
1.00138 0.998146 0.99525
0.998775 0.994664 0.988229
0.996123 0.99479 0.955826
0.999279 0.994779 0.994681
1.0051 0.995309 0.989367
1.00415 0.994957 0.975556
0.999145 0.994813 0.956712
1.00149 0.994803 0.988592
1.00166 0.9947 0.985377
1.00356 0.995772 0.99054
1.00536 0.994596 0.990936
1.00546 0.994739 0.991009
1.00551 0.994683 0.991441
1.00522 0.994775 0.990815
1.00541 0.994875 0.990521
1.00541 0.994845 0.990904
1.00539 0.994809 0.990492
1.0054 0.994838 0.990623
1.00535 0.99486 0.990924
1.00537 0.994846 0.990532
1.00534 0.994883 0.990809
1.00528 0.994909 0.991059
1.00535 0.994878 0.990737
1.0053 0.994894 0.990958
1.00526 0.994886 0.991245
1.0053 0.99486 0.990923
1.00532 0.994909 0.990997
1.00534 0.996635 0.989424
1.00527 0.995188 0.990799
1.00534 0.997531 0.988549
1.00531 1.00076 0.985409
1.00375 1.00114 0.987424
1.00532 1.00168 0.984364
1.00531 0.999024 0.986885
1.00277 1.0008 0.995798
1.00366 1.00194 0.986768
1.00531 1.00322 0.982785
1.00259 1.00145 0.995682
1.00351 1.00293 0.985867
1.00221 1.00213 0.995646
1.00532 0.995823 0.989588
1.0054 0.997612 0.987819
1.00538 1.00074 0.985263
1.00528 1.00039 0.985683
1.00547 1.00251 0.98342
1.00456 1.00427 0.982655
1.00538 1.00432 0.982308
1.00431 1.00404 0.983657
1.00254 1.00408 0.986283
1.00399 1.00428 0.984991
1.002 1.004 0.98739
1.001 1.00249 0.996272
1.00123 1.00405 0.988743
1.00037 1.00179 0.996917
1.00001 1.00011 0.99782
1.00375 0.994681 0.992202
0.9983 0.994711 0.982971
0.995944 0.994778 0.958701
1.00538 0.994837 0.990267
1.00539 0.995054 0.990014
1.00528 0.994844 0.990831
1.00533 0.995094 0.990267
1.0054 0.995552 0.989575
1.00541 0.994825 0.990445
1.00534 0.995686 0.989992
1.00535 0.995042 0.989973
1.00532 0.994728 0.990909
1.00362 0.997381 0.991298
1.00522 0.99474 0.990819
1.00297 0.994707 0.993384
1.00143 0.994764 0.994441
0.999512 0.994578 0.987846
1.00542 0.994742 0.991625
1.0053 0.994708 0.989394
1.004 0.994762 0.975663
1.00375 0.994875 0.990873
1.00535 0.994619 0.991128
1.00542 0.994739 0.990955
1.00554 0.994709 0.991571
1.00544 0.994793 0.991436
1.00542 0.994834 0.990537
1.0054 0.994841 0.990903
1.00535 0.994866 0.99121
1.0054 0.994839 0.990638
1.00535 0.994864 0.990924
1.0053 0.994908 0.991189
1.00534 0.994884 0.990808
1.00529 0.994909 0.991056
1.00516 0.994917 0.991481
1.0053 0.994894 0.990953
1.00528 0.994888 0.991212
1.00534 0.995791 0.990477
1.00532 0.994912 0.990934
1.00535 0.996662 0.989401
1.00531 1.00003 0.986242
1.00534 0.997427 0.988665
1.00532 1.00073 0.985436
1.00361 1.00095 0.989786
1.00311 0.999861 0.992052
1.00375 1.00116 0.988425
1.00533 1.00162 0.984394
1.00267 1.00076 0.995881
1.00362 1.00174 0.986843
1.00253 1.00142 0.995743
1.00529 0.994892 0.991054
1.00535 0.995001 0.990617
1.00532 0.995808 0.98978
1.00533 0.998969 0.98694
1.00539 0.997412 0.988099
1.00536 1.00066 0.985212
1.00516 1.0035 0.982678
1.00542 1.00259 0.983303
1.00493 1.00397 0.982615
1.00311 1.00343 0.985839
1.00458 1.0042 0.983629
1.00261 1.00405 0.986328
1.00171 1.00265 0.995787
1.00214 1.00401 0.987445
1.00088 1.00234 0.996457
0.999993 1.00162 0.99717
1.00536 0.994811 0.99139
1.00334 0.99477 0.991687
0.998269 0.994791 0.980355
1.00531 0.994876 0.990749
1.0054 0.99489 0.990217
1.00537 0.995071 0.990063
1.00528 0.99486 0.990868
1.00533 0.995219 0.99023
1.00536 0.994827 0.990953
1.00538 0.994812 0.990397
1.00532 0.995087 0.989996
1.00528 0.994725 0.990957
1.00519 0.994744 0.99046
1.00252 0.994462 0.993534
1.00539 0.99482 0.991468
1.00542 0.994745 0.991631
1.00535 0.994608 0.989425
1.00539 0.994729 0.990891
1.0056 0.994694 0.991701
1.00545 0.994797 0.991414
1.00535 0.994878 0.991474
1.0054 0.994836 0.990901
1.00535 0.994869 0.991169
1.00531 0.994914 0.991354
1.00535 0.994868 0.990923
1.00529 0.994909 0.991193
1.00513 0.99495 0.991626
1.00529 0.994909 0.991052
1.00518 0.994919 0.991466
1.00531 0.995235 0.991228
1.0053 0.994889 0.99118
1.0053 0.995808 0.990468
1.0053 0.999473 0.986867
1.00537 0.996686 0.989379
1.00529 1.00001 0.986279
1.0036 1.00071 0.990024
1.00533 1.00069 0.985466
1.00387 1.00078 0.989628
1.00301 0.999655 0.992223
1.00272 1.00019 0.994135
1.00396 1.00116 0.989202
1.00264 1.00064 0.995943
1.00527 0.994912 0.991042
1.00533 0.994889 0.991005
1.00529 0.994905 0.991082
1.00536 0.997323 0.988546
1.00534 0.994951 0.990738
1.00532 0.99581 0.989973
1.00532 0.998864 0.986946
1.00534 1.00195 0.983984
1.00533 1.00055 0.985166
1.00514 1.00357 0.982664
1.00344 1.0023 0.986613
1.00529 1.00379 0.98258
1.00312 1.00348 0.985904
1.0022 1.00204 0.995713
1.0026 1.0039 0.986376
1.00151 1.00238 0.995977
1.00064 1.00236 0.996578
1.00535 0.994844 0.991218
1.00533 0.994807 0.991438
1.0025 0.994964 0.991202
1.0053 0.994901 0.991021
1.00531 0.994865 0.990708
1.0054 0.994886 0.99017
1.00528 0.994874 0.990904
1.00538 0.994841 0.990908
1.00535 0.994804 0.990348
1.00526 0.994736 0.991001
1.00537 0.994873 0.991473
1.00538 0.994828 0.991443
1.00539 0.994771 0.991632
1.00533 0.994897 0.991529
1.00545 0.994808 0.991393
1.00535 0.994879 0.991461
1.00532 0.994913 0.991493
1.00535 0.994872 0.991127
1.00531 0.994914 0.99136
1.00516 0.994949 0.99169
1.00529 0.99491 0.991198
1.00513 0.994948 0.991624
1.00527 0.994996 0.991621
1.0052 0.994921 0.99145
1.00527 0.995284 0.991221
1.00535 0.999001 0.987354
1.00526 0.995827 0.99046
1.00531 0.999467 0.986893
1.00357 1.00053 0.990193
1.00528 0.999999 0.986317
1.00384 1.00058 0.989838
1.0029 0.999743 0.99227
1.00412 1.00061 0.989476
1.00246 0.99981 0.992645
1.00192 1.00055 0.996659
1.00525 0.994943 0.991132
1.00521 0.994917 0.991279
1.00527 0.994917 0.991064
1.00533 0.996845 0.989186
1.00532 0.994875 0.99105
1.00529 0.994918 0.991113
1.00535 1.00058 0.985468
1.00537 0.997263 0.988573
1.00533 0.994906 0.990858
1.00533 0.998766 0.986951
1.00534 1.00203 0.983951
1.00354 1.00144 0.987493
1.00533 1.00359 0.982637
1.00343 1.00237 0.986581
1.00233 1.00124 0.995921
1.00315 1.00356 0.985951
1.00215 1.00207 0.995707
1.00142 1.0023 0.996207
1.00531 0.994898 0.991349
1.00537 0.994836 0.99116
1.0053 0.994782 0.991492
1.00529 0.994903 0.991028
1.00532 0.994852 0.990669
1.00539 0.99485 0.990863
1.00534 0.994904 0.991529
1.00537 0.994874 0.99148
1.00538 0.994834 0.991418
1.00533 0.994899 0.991549
1.0053 0.994919 0.991613
1.00535 0.99488 0.991448
1.00531 0.994914 0.991515
1.00517 0.994925 0.99173
1.00531 0.994913 0.991367
1.00515 0.994949 0.991698
1.00529 0.99494 0.99173
1.00513 0.994946 0.991623
1.00527 0.995011 0.991605
1.00538 0.99855 0.987837
1.00522 0.995333 0.991213
1.00537 0.998988 0.987363
1.00346 1.00041 0.990441
1.00532 0.999461 0.98692
1.0038 1.00045 0.989999
1.00276 0.999872 0.99232
1.00407 1.00046 0.989659
1.0024 0.99981 0.992711
1.00193 0.999996 0.993053
1.00526 0.994935 0.991351
1.00516 0.994965 0.991432
1.00526 0.994937 0.991103
1.00528 0.99618 0.990099
1.0052 0.994924 0.991271
1.00527 0.994922 0.991084
1.00531 0.999819 0.986433
1.00533 0.996466 0.989576
1.00532 0.994858 0.991096
1.00362 1.00084 0.987987
1.00533 1.00065 0.985419
1.00538 0.99719 0.988601
1.00532 1.00209 0.983917
1.00355 1.0014 0.987433
1.00239 1.00068 0.996061
1.0034 1.00248 0.98656
1.00237 1.00135 0.995843
1.00204 1.00199 0.995751
1.00529 0.99492 0.991526
1.00531 0.994895 0.991308
1.00538 0.994831 0.991102
1.00529 0.994908 0.991035
1.00527 0.994935 0.991642
1.00534 0.994903 0.991533
1.00537 0.994879 0.991486
1.00533 0.994901 0.99157
1.0053 0.994918 0.991622
1.00515 0.994927 0.991896
1.00531 0.994913 0.991539
1.00517 0.994926 0.991786
1.00531 0.994937 0.991672
1.00514 0.99495 0.991705
1.00529 0.994941 0.991721
1.00535 0.998197 0.988255
1.00527 0.995027 0.99159
1.00539 0.998539 0.987829
1.00347 1.0003 0.988879
1.0054 0.998978 0.987369
1.00368 1.00037 0.98937
1.0023 0.999958 0.99618
1.00402 1.00037 0.989805
1.0023 0.999903 0.992755
1.00193 0.999859 0.993135
1.00525 0.994942 0.991509
1.00512 0.994949 0.991591
1.00525 0.99494 0.991391
1.00526 0.995313 0.991162
1.00515 0.994962 0.991425
1.00526 0.994931 0.991075
1.00535 0.998629 0.987691
1.00529 0.996151 0.990095
1.0052 0.994933 0.991264
1.00368 1.00051 0.988243
1.00531 0.999479 0.986773
1.00534 0.996089 0.989965
1.00244 1.00027 0.99613
1.00364 1.00082 0.987942
1.00533 1.00071 0.98537
1.00358 1.00138 0.987377
1.00244 1.00072 0.996021
1.00243 1.00141 0.995757
1.00525 0.994955 0.99156
1.0053 0.994921 0.991513
1.00531 0.99489 0.991268
1.0051 0.994942 0.992032
1.00527 0.994935 0.991616
1.00534 0.994902 0.991537
1.0053 0.994918 0.991631
1.00516 0.994924 0.991899
1.0053 0.99547 0.991122
1.00517 0.994927 0.991842
1.00531 0.995227 0.991394
1.00535 0.997432 0.989096
1.0053 0.994943 0.99171
1.00537 0.998177 0.988241
1.00339 1.00005 0.989235
1.0054 0.998528 0.987825
1.00349 1.00026 0.988895
1.00218 1.00001 0.996221
1.00374 1.00033 0.988488
1.0021 0.999996 0.994623
1.00185 0.999916 0.993187
1.0052 0.99496 0.991662
1.00505 0.994963 0.991839
1.00524 0.994944 0.99152
1.00525 0.995257 0.9914
1.00512 0.994949 0.991631
1.00525 0.994946 0.99143
1.00538 0.998259 0.988028
1.00527 0.995611 0.990814
1.00515 0.994959 0.991418
1.00366 1.00041 0.988408
1.00535 0.998565 0.987738
1.0053 0.996125 0.990091
1.00242 1.00006 0.996146
1.00367 1.00053 0.988226
1.00531 0.999141 0.987118
1.00249 1.0003 0.996107
1.00366 1.00079 0.987896
1.00245 1.00078 0.995987
1.00506 0.994961 0.991991
1.00525 0.994951 0.991596
1.00531 0.994922 0.9915
1.00528 0.995515 0.991138
1.0051 0.994941 0.992007
1.00527 0.994935 0.99159
1.00516 0.994923 0.991902
1.0053 0.995513 0.991115
1.00535 0.997331 0.989148
1.00531 0.99553 0.991115
1.00535 0.997716 0.988781
1.00332 0.999855 0.989532
1.00538 0.998159 0.988227
1.00338 1.00006 0.989246
1.00204 1 0.996295
1.0035 1.00023 0.988907
1.00212 1.00002 0.996243
1.00221 0.999992 0.992693
1.005 0.99498 0.992031
1.0052 0.994954 0.991589
1.00523 0.995136 0.991618
1.00506 0.994965 0.991845
1.00523 0.994945 0.991532
1.00539 0.998784 0.987496
1.00526 0.995175 0.991398
1.00511 0.994948 0.99167
1.00358 1.00038 0.9886
1.00537 0.998603 0.987683
1.00528 0.995922 0.990466
1.00233 1.00003 0.996142
1.00364 1.00045 0.988401
1.00534 0.998497 0.987787
1.00248 1.00008 0.99614
1.00366 1.00056 0.988202
1.00257 1.0003 0.996081
1.00525 0.995601 0.991089
1.00506 0.994964 0.992035
1.00524 0.994948 0.991631
1.00537 0.997428 0.989038
1.00528 0.995555 0.991127
1.0051 0.99494 0.991983
1.0053 0.995555 0.991107
1.00535 0.997382 0.989149
1.00328 0.999739 0.989734
1.00535 0.997989 0.988466
1.00333 0.999852 0.989535
1.00195 0.999985 0.996379
1.00339 1.00006 0.98926
1.00199 1.00003 0.996334
1.00208 1.00003 0.996274
1.00522 0.995064 0.991781
1.00502 0.99498 0.991965
1.00519 0.994948 0.991516
1.00539 0.998633 0.98769
1.00524 0.995071 0.991618
1.00507 0.994967 0.99185
1.00349 1.00029 0.98886
1.00538 0.998815 0.987501
1.00528 0.995092 0.991396
1.00218 1.00008 0.996159
1.00356 1.00042 0.988597
1.00536 0.998936 0.987337
1.00238 1.00003 0.996143
1.00362 1.0005 0.988392
1.00255 1.00006 0.996131
1.00538 0.998276 0.988114
1.00525 0.995293 0.99145
1.00506 0.994964 0.992079
1.00326 0.999712 0.989829
1.00536 0.997453 0.989055
1.00528 0.995594 0.991115
1.00534 0.99743 0.989149
1.0033 0.999717 0.98973
1.00188 0.999972 0.996426
1.00333 0.999849 0.989537
1.00192 0.99999 0.996393
1.00193 1.00004 0.996363
1.00539 0.998472 0.987908
1.00522 0.995029 0.99176
1.00502 0.99498 0.991898
1.00357 1.00014 0.990614
1.00538 0.998655 0.987695
1.00524 0.995007 0.991616
1.00205 1.00011 0.996218
1.00346 1.00033 0.988861
1.00537 0.998847 0.987506
1.00224 1.00007 0.996154
1.00354 1.00046 0.988594
1.00245 1.00002 0.996141
1.00342 0.999725 0.989625
1.00537 0.997954 0.988495
1.00525 0.994972 0.991811
1.00179 0.999975 0.996479
1.00327 0.999683 0.989813
1.00536 0.997482 0.989075
1.00331 0.999693 0.989723
1.00185 0.999965 0.996444
1.00188 1 0.996411
1.00363 0.999934 0.990797
1.00538 0.998479 0.987916
1.00522 0.994994 0.991739
1.00136 1.00014 0.996979
1.00339 1.00016 0.989163
1.00538 0.998675 0.987704
1.00209 1.00011 0.996203
1.00343 1.00038 0.988861
1.0023 1.00005 0.996148
1.00182 0.999864 0.993395
1.00344 0.999759 0.990344
1.00537 0.997641 0.988872
1.00182 0.99997 0.99648
1.00329 0.999663 0.989805
1.00186 0.999961 0.996456
1.00118 1.00006 0.993929
1.0035 0.99988 0.990121
1.00537 0.998491 0.987922
1.00162 1.00011 0.995024
1.00336 1.00016 0.989187
1.00213 1.0001 0.996189
1.00183 0.999976 0.99646
1.00327 0.999761 0.989728
1.0018 0.999957 0.996472
1.00158 0.999957 0.995187
1.00336 0.999861 0.989507
1.00198 1.00011 0.996265
1.00183 1 0.996447
1.00188 1.00003 0.996364

TENSORS stress float
0.0028256 -0.000199036 0.000326933
-0.000199036 0.0015121 -6.21011e-05
0.000326933 -6.21011e-05 0.00148413
0.008574 0.00020662 0.000409987
0.00020662 0.00528157 5.52002e-05
0.000409987 5.52002e-05 0.0053016
0.00242064 -0.00012849 0.00012744
-0.00012849 0.00123964 -2.35272e-05
0.00012744 -2.35272e-05 0.00119554
0.00256817 -0.000110222 0.000302725
-0.000110222 0.00133548 -3.47151e-05
0.000302725 -3.47151e-05 0.00132003
0.00276357 -0.000172265 0.00031608
-0.000172265 0.00146797 -5.38007e-05
0.00031608 -5.38007e-05 0.00144357
0.00295266 -0.000210415 0.000342413
-0.000210415 0.00159108 -6.58471e-05
0.000342413 -6.58471e-05 0.00156438
0.00228995 -0.000256073 6.53182e-05
-0.000256073 0.000962081 -1.61442e-05
6.53182e-05 -1.61442e-05 0.000796382
0.0087398 0.000202236 -9.59404e-06
0.000202236 0.00538015 -3.77667e-06
-9.59404e-06 -3.77667e-06 0.00540455
0.00751368 0.000298095 0.000198572
0.000298095 0.00461977 2.39411e-05
0.000198572 2.39411e-05 0.00458262
0.00799722 0.000125118 0.000143392
0.000125118 0.00488066 1.13732e-05
0.000143392 1.13732e-05 0.00485815
0.00232592 0.000272299 0.000367667
0.000272299 0.00121642 6.13086e-05
0.000367667 6.13086e-05 0.00118935
0.000229818 0.000328803 2.59247e-05
0.000328803 -0.000297143 2.56633e-05
2.59247e-05 2.56633e-05 -0.000512432
0.0020697 -2.58327e-05 0.000288042
-2.58327e-05 0.00101051 6.18359e-06
0.000288042 6.18359e-06 0.00101812
0.001822 1.10933e-05 8.35614e-05
1.10933e-05 0.000875757 3.94128e-06
8.35614e-05 3.94128e-06 0.000821717
0.00208581 -0.00012477 -8.36013e-05
-0.00012477 0.00103597 1.57363e-05
-8.36013e-05 1.57363e-05 0.000965227
0.0022214 -0.000106614 9.68314e-05
-0.000106614 0.00112952 -6.74519e-06
9.68314e-05 -6.74519e-06 0.0010891
0.00251622 -0.000122887 0.000140726
-0.000122887 0.00130053 -2.70783e-05
0.000140726 -2.70783e-05 0.00125522
0.00236443 -0.000128025 0.000114541
-0.000128025 0.00120883 -1.73663e-05
0.000114541 -1.73663e-05 0.00116587
0.0024207 -0.000293044 -5.03908e-05
-0.000293044 0.00105062 9.07849e-06
-5.03908e-05 9.07849e-06 0.000895326
0.00684141 -0.000178136 0.000385471
-0.000178136 0.00418476 -2.11487e-05
0.000385471 -2.11487e-05 0.00421512
0.00242148 -8.35608e-05 0.000294255
-8.35608e-05 0.00124234 -2.6154e-05
0.000294255 -2.6154e-05 0.00123114
0.00268877 -0.000140987 0.000309844
-0.000140987 0.00141489 -4.42398e-05
0.000309844 -4.42398e-05 0.00139518
0.00214506 -0.000190555 7.90637e-05
-0.000190555 0.000916031 -1.28736e-05
7.90637e-05 -1.28736e-05 0.000794175
0.00225676 -0.000241358 7.19704e-05
-0.000241358 0.000955731 -1.58094e-05
7.19704e-05 -1.58094e-05 0.000807708
0.00284794 -0.000192557 0.000348361
-0.000192557 0.00151737 -6.37413e-05
0.000348361 -6.37413e-05 0.0014953
0.002344 -0.000272028 6.31705e-05
-0.000272028 0.000998262 -1.73763e-05
6.31705e-05 -1.73763e-05 0.000810176
0.00225711 -0.000516036 1.59011e-05
-0.000516036 0.000590322 -5.04807e-06
1.59011e-05 -5.04807e-06 0.00027554
0.00886689 0.000202736 -0.000444898
0.000202736 0.0054496 -4.88799e-05
-0.000444898 -4.88799e-05 0.00548172
0.00503231 0.000218724 -0.000174625
0.000218724 0.002974 -2.24708e-05
-0.000174625 -2.24708e-05 0.00294708
0.00529007 0.000169076 -0.000186925
0.000169076 0.00313227 -2.43821e-05
-0.000186925 -2.43821e-05 0.0031091
0.00918509 0.000146924 -6.40224e-06
0.000146924 0.00566781 -2.85988e-06
-6.40224e-06 -2.85988e-06 0.00569434
0.000246102 0.00031267 -1.14537e-06
0.00031267 -0.000277905 -1.11387e-06
-1.14537e-06 -1.11387e-06 -0.000490621
0.00223376 8.63521e-05 0.000303238
8.63521e-05 0.00111349 3.23733e-05
0.000303238 3.23733e-05 0.00110366
0.00235975 0.000179486 0.000320194
0.000179486 0.00122053 5.15598e-05
0.000320194 5.15598e-05 0.00119653
0.00308505 0.000291006 0.000184722
0.000291006 0.00150552 2.99409e-05
0.000184722 2.99409e-05 0.00138736
0.00887282 -0.000174661 7.92883e-05
-0.000174661 0.00550506 4.75208e-06
7.92883e-05 4.75208e-06 0.00546203
0.00331524 0.000404544 0.000204513
0.000404544 0.0017015 4.07545e-05
0.000204513 4.07545e-05 0.00154589
0.000255432 0.000299187 2.66946e-05
0.000299187 -0.000255344 3.52217e-05
2.66946e-05 3.52217e-05 -0.000473704
0.00150671 0.00056261 3.09964e-05
0.00056261 0.000233022 4.72295e-06
3.09964e-05 4.72295e-06 -0.000166512
0.00723077 -6.90331e-05 0.000286348
-6.90331e-05 0.00451651 3.78038e-05
0.000286348 3.78038e-05 0.00451373
0.00675793 9.50361e-05 2.78083e-06
9.50361e-05 0.00411379 -2.28032e-06
2.78083e-06 -2.28032e-06 0.0041541
0.00447309 0.000110571 -0.000145308
0.000110571 0.00261184 -7.43279e-06
-0.000145308 -7.43279e-06 0.00260257
0.0066299 5.79796e-05 0.000373403
5.79796e-05 0.00403197 5.56835e-06
0.000373403 5.56835e-06 0.00407369
0.00171323 9.30901e-05 8.5357e-05
9.30901e-05 0.000810228 7.14728e-06
8.5357e-05 7.14728e-06 0.000759721
0.000387465 1.90595e-05 1.20347e-05
1.90595e-05 -0.000216782 3.12819e-06
1.20347e-05 3.12819e-06 -0.00031662
0.00700408 0.000259245 0.000217461
0.000259245 0.00431151 2.29905e-05
0.000217461 2.29905e-05 0.00428432
0.00299886 0.000112507 0.000166679
0.000112507 0.00146186 1.30792e-05
0.000166679 1.30792e-05 0.00139417
0.00185823 -0.000107466 -9.99663e-05
-0.000107466 0.00091401 1.39622e-05
-9.99663e-05 1.39622e-05 0.000847973
0.00195767 -0.000141886 -9.5277e-05
-0.000141886 0.000971072 1.79229e-05
-9.5277e-05 1.79229e-05 0.000897533
0.0021819 -9.09052e-05 -7.18002e-05
-9.09052e-05 0.00108302 1.32398e-05
-7.18002e-05 1.32398e-05 0.00101561
0.00250545 -0.000294664 -0.000173419
-0.000294664 0.00109503 3.43068e-05
-0.000173419 3.43068e-05 0.000955956
0.00435359 -4.83499e-05 -0.00014789
-4.83499e-05 0.00254088 -5.31075e-07
-0.00014789 -5.31075e-07 0.00253273
0.00213189 -8.45759e-05 9.94157e-05
-8.45759e-05 0.00107027 -5.27045e-06
9.94157e-05 -5.27045e-06 0.00103533
0.0027225 -9.85817e-05 0.000144419
-9.85817e-05 0.00142927 -2.58063e-05
0.000144419 -2.58063e-05 0.00138382
0.00230662 -0.000117661 0.000104435
-0.000117661 0.00117783 -1.13368e-05
0.000104435 -1.13368e-05 0.00113597
0.00224123 -0.000169817 -4.12422e-05
-0.000169817 0.00096433 3.83047e-06
-4.12422e-05 3.83047e-06 0.000858378
0.00245733 -0.000320355 -5.81669e-05
-0.000320355 0.00107326 1.061e-05
-5.81669e-05 1.061e-05 0.000897192
0.00235346 -0.000255106 -4.50644e-05
-0.000255106 0.00101568 6.87738e-06
-4.50644e-05 6.87738e-06 0.000879688
0.00240064 -0.000527954 -1.02513e-05
-0.000527954 0.000683262 2.69408e-06
-1.02513e-05 2.69408e-06 0.000369046
0.0066612 -2.43689e-05 0.000372264
-2.43689e-05 0.00404826 -6.02842e-06
0.000372264 -6.02842e-06 0.00409142
0.00232982 -5.66665e-05 0.000287286
-5.66665e-05 0.00118612 -1.85992e-05
0.000287286 -1.85992e-05 0.00118039
0.00252583 -3.69077e-05 6.15473e-05
-3.69077e-05 0.00119804 -1.32895e-06
6.15473e-05 -1.32895e-06 0.00111985
0.00206811 -0.000149242 7.09078e-05
-0.000149242 0.000875007 -8.64791e-06
7.09078e-05 -8.64791e-06 0.000768652
0.00221917 -0.000217993 7.70126e-05
-0.000217993 0.000949962 -1.49626e-05
7.70126e-05 -1.49626e-05 0.000815676
0.00210255 -0.000319667 1.45919e-06
-0.000319667 0.000421207 -1.23152e-06
1.45919e-06 -1.23152e-06 0.000221845
0.00219774 -0.00045564 1.06914e-05
-0.00045564 0.000500462 -2.10737e-06
1.06914e-05 -2.10737e-06 0.000239043
0.0030807 -0.00016945 0.000363705
-0.00016945 0.00166118 -5.96335e-05
0.000363705 -5.96335e-05 0.00163974
0.0023853 -0.000229303 5.30159e-05
-0.000229303 0.00106657 -1.54243e-05
5.30159e-05 -1.54243e-05 0.000872674
0.00225006 -0.000583878 1.77305e-05
-0.000583878 0.000620502 -4.64406e-06
1.77305e-05 -4.64406e-06 0.000251302
0.0022302 -0.000689082 -5.43464e-07
-0.000689082 0.000314736 4.21633e-06
-5.43464e-07 4.21633e-06 -3.3064e-05
0.00803164 0.000353605 -0.000442055
0.000353605 0.00494916 -5.86054e-05
-0.000442055 -5.86054e-05 0.00496103
0.00918341 0.000113289 -0.00041994
0.000113289 0.00566767 -4.30847e-05
-0.00041994 -4.30847e-05 0.00569593
0.00842264 0.00025834 -0.000429981
0.00025834 0.00516997 -5.22141e-05
-0.000429981 -5.22141e-05 0.00519657
0.000180014 0.000294443 -2.6104e-05
0.000294443 -0.00031198 -2.55584e-05
-2.6104e-05 -2.55584e-05 -0.000523408
0.00762441 0.000289464 -2.02726e-06
0.000289464 0.00467934 -2.93055e-06
-2.02726e-06 -2.93055e-06 0.00469946
0.00809921 0.000327361 -7.68966e-06
0.000327361 0.00497987 -4.21106e-06
-7.68966e-06 -4.21106e-06 0.004994
0.000369371 0.00019827 -3.48277e-09
0.00019827 -0.000281116 -2.99005e-07
-3.48277e-09 -2.99005e-07 -0.00044421
0.00522259 1.26755e-05 -0.000183688
1.26755e-05 0.00312742 -1.48603e-05
-0.000183688 -1.48603e-05 0.0030934
0.000334676 0.000288682 1.75623e-06
0.000288682 -0.000256838 -4.10758e-07
1.75623e-06 -4.10758e-07 -0.000457315
0.00186578 0.000331564 9.24572e-05
0.000331564 0.00080269 7.05393e-06
9.24572e-05 7.05393e-06 0.000618994
0.00145514 0.000578677 6.70634e-07
0.000578677 0.000177787 4.5165e-07
6.70634e-07 4.5165e-07 -0.000231272
0.00804596 -2.45973e-05 0.000342409
-2.45973e-05 0.00501656 4.56274e-05
0.000342409 4.56274e-05 0.00502079
0.000352913 0.000232104 3.48292e-05
0.000232104 -0.000154622 1.81104e-05
3.48292e-05 1.81104e-05 -0.000279852
0.00047563 0.000158563 1.41976e-05
0.000158563 -0.000217217 1.27081e-05
1.41976e-05 1.27081e-05 -0.00036353
0.000469149 0.000235236 1.81596e-05
0.000235236 -0.000209538 2.1729e-05
1.81596e-05 2.1729e-05 -0.000387875
0.00164749 0.000438456 1.20031e-05
0.000438456 8.10483e-05 3.83811e-06
1.20031e-05 3.83811e-06 -0.000188191
0.00392296 0.000369454 0.000215105
0.000369454 0.00216493 4.04573e-05
0.000215105 4.04573e-05 0.00202504
0.00160818 0.000544776 2.55244e-05
0.000544776 0.000178941 5.68405e-06
2.55244e-05 5.68405e-06 -0.000179712
0.00114344 0.000527323 3.25642e-05
0.000527323 9.76942e-05 4.45899e-06
3.25642e-05 4.45899e-06 -0.000324529
0.00208993 0.000809463 7.92207e-07
0.000809463 0.000377912 -7.34964e-06
7.92207e-07 -7.34964e-06 -0.000102013
0.00609595 -0.00015769 0.000200472
-0.00015769 0.00379391 2.5577e-05
0.000200472 2.5577e-05 0.00377316
0.00678626 -0.000145308 7.35844e-06
-0.000145308 0.00423628 4.95599e-06
7.35844e-06 4.95599e-06 0.00421926
0.0072506 9.311e-05 -0.00039566
9.311e-05 0.00441728 -2.34472e-05
-0.00039566 -2.34472e-05 0.00445577
0.00685849 8.75591e-05 -0.000385622
8.75591e-05 0.00417442 -1.44287e-05
-0.000385622 -1.44287e-05 0.00421622
0.00671592 8.41356e-05 -4.10744e-07
8.41356e-05 0.00409196 -4.68345e-06
-4.10744e-07 -4.68345e-06 0.00413157
0.00433661 5.35348e-05 -0.000155867
5.35348e-05 0.0025214 -9.38518e-06
-0.000155867 -9.38518e-06 0.00251845
0.00151828 4.85211e-05 7.40864e-05
4.85211e-05 0.000523115 2.4856e-06
7.40864e-05 2.4856e-06 0.000445862
0.00470574 0.000175848 -0.00014998
0.000175848 0.00276912 -1.00641e-05
-0.00014998 -1.00641e-05 0.00275028
0.00165329 0.000124552 7.5438e-05
0.000124552 0.000579949 4.48133e-06
7.5438e-05 4.48133e-06 0.000483955
0.00668548 0.00010402 0.00037792
0.00010402 0.00407878 7.2492e-06
0.00037792 7.2492e-06 0.00411458
0.000248111 1.07874e-05 1.51327e-05
1.07874e-05 -0.000298495 1.91203e-06
1.51327e-05 1.91203e-06 -0.000393837
0.00291924 6.36056e-05 0.00016487
6.36056e-05 0.00142634 9.1777e-06
0.00016487 9.1777e-06 0.00136911
0.00145599 0.000104639 4.14895e-06
0.000104639 -6.0847e-05 1.1975e-06
4.14895e-06 1.1975e-06 -0.000189062
0.00292142 0.000172142 0.000172973
0.000172142 0.00139781 1.6984e-05
0.000172973 1.6984e-05 0.00131504
0.0015484 0.000223191 2.60701e-06
0.000223191 -2.78201e-05 1.05413e-06
2.60701e-06 1.05413e-06 -0.000190272
0.00209036 3.19486e-05 -0.000288814
3.19486e-05 0.00101825 5.50546e-06
-0.000288814 5.50546e-06 0.00102904
0.00181489 -3.64833e-05 -8.58119e-05
-3.64833e-05 0.000875535 5.28476e-06
-8.58119e-05 5.28476e-06 0.00081903
0.00237068 -6.05438e-05 -6.70136e-05
-6.05438e-05 0.00119972 1.20707e-05
-6.70136e-05 1.20707e-05 0.0011327
0.00189874 -0.000127035 -0.000102563
-0.000127035 0.000938666 1.70175e-05
-0.000102563 1.70175e-05 0.000868802
0.00236398 -0.000148145 -0.000156486
-0.000148145 0.0010308 1.6451e-05
-0.000156486 1.6451e-05 0.000940808
0.00247954 -0.000241241 -0.000166127
-0.000241241 0.00108275 2.82732e-05
-0.000166127 2.82732e-05 0.000964476
0.0026339 -0.000352323 -0.000184177
-0.000352323 0.00119454 3.80402e-05
-0.000184177 3.80402e-05 0.00102922
0.00256039 -0.00054351 -3.34284e-05
-0.00054351 0.000786954 9.57158e-06
-3.34284e-05 9.57158e-06 0.000472165
0.00674176 -0.000128138 2.51419e-06
-0.000128138 0.00411737 -2.205e-06
2.51419e-06 -2.205e-06 0.00415122
0.00202139 6.89185e-06 0.000105548
6.89185e-06 0.000987114 -6.25555e-06
0.000105548 -6.25555e-06 0.000964882
0.00123213 -2.67413e-05 -7.75893e-05
-2.67413e-05 0.000333943 3.41914e-06
-7.75893e-05 3.41914e-06 0.000257283
0.00216139 -0.000114978 -4.29651e-05
-0.000114978 0.000924009 4.33938e-06
-4.29651e-05 4.33938e-06 0.000832217
0.00618553 -0.000159418 0.00035218
-0.000159418 0.00369959 -3.80655e-05
0.00035218 -3.80655e-05 0.00370056
0.00298352 -0.000322738 -5.39693e-05
-0.000322738 0.0014678 6.77507e-06
-5.39693e-05 6.77507e-06 0.0012901
0.00231234 -0.000212673 -4.20094e-05
-0.000212673 0.00100066 5.08415e-06
-4.20094e-05 5.08415e-06 0.000881091
0.00223054 -0.000324951 -8.72764e-06
-0.000324951 0.00050355 1.7347e-06
-8.72764e-06 1.7347e-06 0.000311628
0.00251477 -0.000614329 -7.91376e-06
-0.000614329 0.000808109 2.57524e-06
-7.91376e-06 2.57524e-06 0.000433497
0.00229074 -0.000462355 -1.07509e-05
-0.000462355 0.000565553 3.26706e-06
-1.07509e-05 3.26706e-06 0.000299135
0.00226793 -0.000691572 1.085e-06
-0.000691572 0.000346606 -1.23488e-07
1.085e-06 -1.23488e-07 -1.87774e-06
0.000276574 2.32262e-07 1.6124e-05
2.32262e-07 -0.000289247 1.23097e-07
1.6124e-05 1.23097e-07 -0.000382212
0.00198757 -3.78949e-05 6.27088e-05
-3.78949e-05 0.000822215 -3.17517e-06
6.27088e-05 -3.17517e-06 0.000736402
0.00210169 -0.000118318 4.99238e-08
-0.000118318 0.000397019 3.9804e-07
4.99238e-08 3.9804e-07 0.000282315
0.00211421 -0.000259097 -6.10576e-07
-0.000259097 0.00042358 1.0647e-07
-6.10576e-07 1.0647e-07 0.000263737
0.00228544 -0.000393335 5.51257e-06
-0.000393335 0.000547169 -1.10346e-06
5.51257e-06 -1.10346e-06 0.000328303
0.00219126 -0.000446724 1.14568e-06
-0.000446724 0.00011076 -3.11352e-07
1.14568e-06 -3.11352e-07 -6.43272e-05
0.00887184 -5.59625e-05 0.00036453
-5.59625e-05 0.00549091 -3.75174e-05
0.00036453 -3.75174e-05 0.0055086
0.00210718 -0.000613769 1.19508e-06
-0.000613769 0.000152764 3.03522e-06
1.19508e-06 3.03522e-06 -0.000133898
0.000256364 -0.00025992 2.14763e-05
-0.00025992 -0.000281738 -2.89162e-05
2.14763e-05 -2.89162e-05 -0.000474893
0.00129997 -0.000616478 1.03294e-05
-0.000616478 5.99248e-05 -2.05653e-06
1.03294e-05 -2.05653e-06 -0.000385278
0.0024191 -0.000763946 -3.79488e-06
-0.000763946 0.000518509 6.11404e-06
-3.79488e-06 6.11404e-06 0.000104757
0.00227936 -0.000754316 -7.96291e-07
-0.000754316 0.000258299 3.237e-06
-7.96291e-07 3.237e-06 -5.84685e-05
0.000311086 -0.000239732 2.49202e-05
-0.000239732 -0.000185425 -2.36773e-05
2.49202e-05 -2.36773e-05 -0.000351642
0.000913261 -0.000227018 2.21908e-06
-0.000227018 0.00028182 1.84127e-06
2.21908e-06 1.84127e-06 -4.62816e-05
0.00778442 0.000318134 -0.000437465
0.000318134 0.00478842 -5.18339e-05
-0.000437465 -5.18339e-05 0.00480544
0.0083025 0.000329988 -0.000443694
0.000329988 0.00510986 -5.87371e-05
-0.000443694 -5.87371e-05 0.00512838
0.000341755 0.00019969 -1.72457e-05
0.00019969 -0.000299822 -1.56802e-05
-1.72457e-05 -1.56802e-05 -0.00046502
0.00864289 1.6797e-05 -0.000355678
1.6797e-05 0.00535758 -3.49057e-05
-0.000355678 -3.49057e-05 0.00537582
0.000199882 0.000269149 -2.61212e-05
0.000269149 -0.000291935 -2.8794e-05
-2.61212e-05 -2.8794e-05 -0.000491116
0.000276058 0.000279229 -2.08442e-05
0.000279229 -0.00029439 -2.38175e-05
-2.08442e-05 -2.38175e-05 -0.00049581
0.0014341 0.000594056 -3.53512e-05
0.000594056 0.000143378 -4.82745e-06
-3.53512e-05 -4.82745e-06 -0.000274545
0.0079325 -2.30199e-05 -1.20219e-05
-2.30199e-05 0.00493812 1.20866e-06
-1.20219e-05 1.20866e-06 0.00494566
0.000767433 0.000204024 1.88626e-06
0.000204024 0.000108323 3.65877e-07
1.88626e-06 3.65877e-07 -1.23064e-05
0.001777 0.000209453 8.07173e-05
0.000209453 0.000638852 8.08289e-06
8.07173e-05 8.08289e-06 0.000512045
0.00185023 0.000296982 8.62068e-05
0.000296982 0.000705339 1.05302e-05
8.62068e-05 1.05302e-05 0.000544711
0.00162018 0.000436503 -2.9975e-07
0.000436503 6.978e-05 -2.37634e-07
-2.9975e-07 -2.37634e-07 -0.000200587
0.000159972 0.000269714 -9.5903e-07
0.000269714 -0.000294325 -1.03188e-06
-9.5903e-07 -1.03188e-06 -0.000482711
0.00157772 0.000540049 4.15947e-07
0.000540049 0.000161451 -2.52839e-08
4.15947e-07 -2.52839e-08 -0.000197279
0.000987257 0.000514624 4.18911e-06
0.000514624 -1.26646e-05 -1.84413e-06
4.18911e-06 -1.84413e-06 -0.000428802
0.00207277 0.000813972 -8.04796e-07
0.000813972 0.00036143 3.72368e-07
-8.04796e-07 3.72368e-07 -0.00011495
0.000627633 0.000268473 2.5347e-05
0.000268473 6.91055e-06 2.70781e-05
2.5347e-05 2.70781e-05 -0.000149663
0.00081007 0.000138773 2.00427e-05
0.000138773 0.000184479 1.93844e-05
2.00427e-05 1.93844e-05 6.69965e-05
-0.000266862 0.000332186 8.80378e-07
0.000332186 -0.000474066 -2.19024e-06
8.80378e-07 -2.19024e-06 -0.000773776
0.00164306 0.000372863 8.506e-06
0.000372863 5.61185e-05 2.98501e-06
8.506e-06 2.98501e-06 -0.000172883
0.00166939 0.000500055 1.87177e-05
0.000500055 0.000137524 5.0112e-06
1.87177e-05 5.0112e-06 -0.000176809
0.00236038 0.000647507 2.74081e-06
0.000647507 0.00029851 -1.89577e-06
2.74081e-06 -1.89577e-06 1.28814e-05
0.000480198 0.000425658 1.3482e-05
0.000425658 -0.000147497 5.71582e-06
1.3482e-05 5.71582e-06 -0.000540941
0.00238858 0.000812148 -1.81901e-06
0.000812148 0.000502479 -6.0425e-06
-1.81901e-06 -6.0425e-06 8.51487e-05
0.00248105 0.000975702 -3.63926e-06
0.000975702 0.000815173 -1.02181e-05
-3.63926e-06 -1.02181e-05 0.000199933
0.00198046 0.000829005 -1.08975e-05
0.000829005 0.000181765 -9.20451e-06
-1.08975e-05 -9.20451e-06 -0.000262844
0.00503922 -0.000158507 0.000126581
-0.000158507 0.00307569 1.47026e-05
0.000126581 1.47026e-05 0.00305828
0.00570017 -0.000181999 1.29273e-05
-0.000181999 0.00351884 1.27971e-06
1.29273e-05 1.27971e-06 0.00349474
0.00634051 -0.000183656 -0.0001723
-0.000183656 0.00393294 -1.53021e-05
-0.0001723 -1.53021e-05 0.00390978
0.00088641 -0.000232184 2.49911e-05
-0.000232184 0.000232647 -2.31109e-05
2.49911e-05 -2.31109e-05 8.60484e-05
0.00773285 1.68064e-05 0.000293654
1.68064e-05 0.00480168 -3.31738e-05
0.000293654 -3.31738e-05 0.00480535
0.00753021 0.000255283 -0.000426616
0.000255283 0.00461626 -4.14508e-05
-0.000426616 -4.14508e-05 0.00464259
0.00696849 0.000119893 -0.000387551
0.000119893 0.00424299 -2.02508e-05
-0.000387551 -2.02508e-05 0.0042817
0.000295361 0.000125377 -1.54981e-05
0.000125377 -0.000311904 -7.73095e-06
-1.54981e-05 -7.73095e-06 -0.000432045
0.000227376 5.06737e-05 -1.51227e-05
5.06737e-05 -0.000321516 -3.99494e-06
-1.51227e-05 -3.99494e-06 -0.000422755
0.0066619 1.02688e-06 -0.000371512
1.02688e-06 0.00404831 -4.34324e-06
-0.000371512 -4.34324e-06 0.00409133
0.00661359 -6.16984e-06 3.24428e-08
-6.16984e-06 0.00401778 -1.40364e-06
3.24428e-08 -1.40364e-06 0.00406118
0.000223045 3.67976e-06 -1.50152e-07
3.67976e-06 -0.000318348 2.13297e-07
-1.50152e-07 2.13297e-07 -0.000412192
0.0015627 6.20661e-05 7.50276e-05
6.20661e-05 0.000535321 3.8529e-06
7.50276e-05 3.8529e-06 0.000452766
0.00145574 0.000107705 5.26473e-08
0.000107705 -5.25531e-05 -7.01491e-09
5.26473e-08 -7.01491e-09 -0.000181616
0.000362618 0.000128966 -8.74979e-07
0.000128966 -0.000279518 -3.88898e-07
-8.74979e-07 -3.88898e-07 -0.000412392
0.00153225 0.000223351 -1.79057e-07
0.000223351 -2.08175e-05 -7.78303e-08
-1.79057e-07 -7.78303e-08 -0.000184342
0.000218645 -3.28734e-05 1.59448e-05
-3.28734e-05 -0.00032276 3.29016e-08
1.59448e-05 3.29016e-08 -0.00041398
0.00141189 4.79035e-05 3.13533e-06
4.79035e-05 -7.27552e-05 9.06941e-07
3.13533e-06 9.06941e-07 -0.000194318
0.00148807 0.000164798 3.31131e-06
0.000164798 -5.42946e-05 1.31169e-06
3.31131e-06 1.31169e-06 -0.000196152
0.00227078 0.000163444 1.68877e-06
0.000163444 9.39341e-05 9.54083e-07
1.68877e-06 9.54083e-07 3.77373e-05
0.00162339 0.000299897 5.31876e-06
0.000299897 2.95413e-05 1.74561e-06
5.31876e-06 1.74561e-06 -0.000163611
0.00230122 0.000355638 2.83654e-06
0.000355638 0.000148137 1.07725e-06
2.83654e-06 1.07725e-06 3.82918e-05
0.00664998 -9.11058e-05 -0.000375614
-9.11058e-05 0.00405188 6.57576e-06
-0.000375614 6.57576e-06 0.00408932
0.00170517 -0.000168678 -8.52692e-05
-0.000168678 0.000830476 1.16764e-05
-8.52692e-05 1.16764e-05 0.000764819
-0.000164618 -1.47111e-05 -8.04629e-06
-1.47111e-05 -0.000579096 1.10221e-06
-8.04629e-06 1.10221e-06 -0.000685975
0.00227458 -0.000105081 -0.000151395
-0.000105081 0.000988839 1.16365e-05
-0.000151395 1.16365e-05 0.000910524
0.00913439 0.000114322 -9.80503e-05
0.000114322 0.00560904 4.53842e-06
-9.80503e-05 4.53842e-06 0.0055761
0.00317772 -0.000379181 -0.000185596
-0.000379181 0.0016062 3.90782e-05
-0.000185596 3.90782e-05 0.00144096
0.00243375 -0.000192165 -0.000161304
-0.000192165 0.00106357 2.21155e-05
-0.000161304 2.21155e-05 0.000961314
0.00234621 -0.000329209 -2.15293e-05
-0.000329209 0.000577742 3.96126e-06
-2.15293e-05 3.96126e-06 0.000393494
0.00235193 -0.000467064 -2.87753e-05
-0.000467064 0.00060769 8.52155e-06
-2.87753e-05 8.52155e-06 0.000336743
0.00261752 -0.00062607 -3.82568e-05
-0.00062607 0.000885276 1.08083e-05
-3.82568e-05 1.08083e-05 0.000510442
0.00228478 -0.000690205 1.47253e-06
-0.000690205 0.000368866 -4.15491e-06
1.47253e-06 -4.15491e-06 2.07958e-05
0.00022906 -2.52627e-06 3.89503e-08
-2.52627e-06 -0.000317245 3.92247e-07
3.89503e-08 3.92247e-07 -0.000410885
0.00210511 -0.000113262 -4.13624e-05
-0.000113262 0.000908689 1.05537e-06
-4.13624e-05 1.05537e-06 0.000825165
0.0018322 -0.000114726 -1.41964e-05
-0.000114726 0.000211345 8.99522e-07
-1.41964e-05 8.99522e-07 9.44493e-05
0.00211031 -0.000256237 -1.32185e-05
-0.000256237 0.000414223 2.2448e-06
-1.32185e-05 2.2448e-06 0.000249229
0.00904631 -6.07725e-05 3.77164e-06
-6.07725e-05 0.00559842 -9.26956e-07
3.77164e-06 -9.26956e-07 0.00561656
0.00161391 -0.000260658 1.14236e-05
-0.000260658 0.000619921 3.78302e-07
1.14236e-05 3.78302e-07 0.000421991
0.00206002 -0.000630847 4.03909e-06
-0.000630847 0.000573368 -2.37733e-06
4.03909e-06 -2.37733e-06 0.00014763
0.00229226 -0.000397364 -1.10838e-05
-0.000397364 0.000546923 3.28446e-06
-1.10838e-05 3.28446e-06 0.000326538
0.00230248 -0.00045585 2.96769e-06
-0.00045585 0.000186275 -1.05935e-06
2.96769e-06 -1.05935e-06 2.21423e-05
0.00234792 -0.000758083 1.42815e-06
-0.000758083 0.000472696 -5.09118e-08
1.42815e-06 -5.09118e-08 6.14483e-05
0.00224004 -0.000619025 1.59752e-07
-0.000619025 0.000250746 -1.63911e-07
1.59752e-07 -1.63911e-07 -3.96375e-05
0.00230861 -0.000755945 3.95592e-07
-0.000755945 0.000281137 7.20587e-07
3.95592e-07 7.20587e-07 -3.65507e-05
0.000344266 -0.000265182 2.44651e-06
-0.000265182 -0.000174563 8.25463e-07
2.44651e-06 8.25463e-07 -0.000339327
0.000839257 -0.00030967 4.10341e-07
-0.00030967 0.000224436 -1.36368e-06
4.10341e-07 -1.36368e-06 -0.000107341
0.00141156 -5.54713e-05 2.73367e-06
-5.54713e-05 -5.60155e-05 8.49861e-08
2.73367e-06 8.49861e-08 -0.000180566
0.0021962 -0.000188626 -1.36856e-06
-0.000188626 0.000461376 3.13555e-07
-1.36856e-06 3.13555e-07 0.000329644
0.002172 -0.00017766 1.24963e-06
-0.00017766 4.42076e-05 -6.13244e-07
1.24963e-06 -6.13244e-07 -3.60872e-05
0.00223742 -0.000374933 -2.20541e-07
-0.000374933 9.75134e-05 5.69221e-07
-2.20541e-07 5.69221e-07 -1.7158e-05
0.00221553 -0.000541554 -1.03271e-06
-0.000541554 0.000170002 1.27441e-06
-1.03271e-06 1.27441e-06 -5.33739e-05
0.00228919 -0.000479876 4.95885e-06
-0.000479876 7.85967e-05 -8.49088e-07
4.95885e-06 -8.49088e-07 -2.97348e-05
0.000135298 -0.000244274 1.59372e-05
-0.000244274 -0.000335535 -3.02032e-05
1.59372e-05 -3.02032e-05 -0.000520776
0.00237073 -0.00068538 4.68582e-08
-0.00068538 0.000253018 8.09558e-07
4.68582e-08 8.09558e-07 7.2212e-06
0.00152883 -0.000545449 1.19454e-05
-0.000545449 0.00027536 -6.82111e-06
1.19454e-05 -6.82111e-06 -0.000143235
0.00203416 -0.000848237 3.27218e-06
-0.000848237 0.000320886 7.25808e-06
3.27218e-06 7.25808e-06 -0.000189531
0.00256942 -0.000837471 -2.42023e-06
-0.000837471 0.000516152 3.57154e-06
-2.42023e-06 3.57154e-06 0.000120169
0.00248419 -0.000790901 7.97952e-07
-0.000790901 0.000344408 5.68044e-07
7.97952e-07 5.68044e-07 6.09114e-05
0.00018084 -0.000272817 5.49975e-06
-0.000272817 -0.000244209 1.63679e-06
5.49975e-06 1.63679e-06 -0.000595782
0.00152004 -0.000210667 -5.53683e-06
-0.000210667 0.000767788 -9.01438e-06
-5.53683e-06 -9.01438e-06 0.000489687
0.00117764 -0.000429667 3.98904e-06
-0.000429667 0.000406435 8.24536e-06
3.98904e-06 8.24536e-06 -2.0952e-05
0.000336833 0.000167133 -1.57648e-05
0.000167133 -0.000305732 -1.21481e-05
-1.57648e-05 -1.21481e-05 -0.000456198
0.0075152 -6.91439e-05 -0.000282898
-6.91439e-05 0.00466858 -2.50099e-05
-0.000282898 -2.50099e-05 0.00467373
0.000576684 0.000161758 -2.01402e-05
0.000161758 3.00988e-06 -2.0192e-05
-2.01402e-05 -2.0192e-05 -0.00011919
0.000295156 0.000237189 -1.87281e-05
0.000237189 -0.000315547 -1.99279e-05
-1.87281e-05 -1.99279e-05 -0.000497609
0.00158751 0.000434906 -1.40863e-05
0.000434906 5.35022e-05 -4.10238e-06
-1.40863e-05 -4.10238e-06 -0.000218114
7.35585e-05 0.000242158 -1.75448e-05
0.000242158 -0.000360329 -3.09648e-05
-1.75448e-05 -3.09648e-05 -0.000542236
0.00135733 0.000536269 -3.14796e-05
0.000536269 0.000195315 -1.06421e-05
-3.14796e-05 -1.06421e-05 -0.000217021
0.00151418 0.000531576 -2.69701e-05
0.000531576 0.000123909 -5.69574e-06
-2.69701e-05 -5.69574e-06 -0.000234013
0.00206641 0.00082479 -5.53917e-06
0.00082479 0.000342911 7.20855e-06
-5.53917e-06 7.20855e-06 -0.000132482
0.000375903 0.000254846 -1.01807e-05
0.000254846 -0.000155362 2.15027e-06
-1.01807e-05 2.15027e-06 -0.000305103
0.000416843 0.000105985 -1.34145e-06
0.000105985 -5.66097e-05 1.56239e-06
-1.34145e-06 1.56239e-06 -0.000171123
0.000927678 0.000311867 -8.94192e-07
0.000311867 0.000255445 7.90318e-08
-8.94192e-07 7.90318e-08 -1.14905e-05
0.00159629 0.000370636 -3.42147e-07
0.000370636 3.16881e-05 -1.59819e-07
-3.42147e-07 -1.59819e-07 -0.000198503
0.00162148 0.000492992 -3.27945e-08
0.000492992 0.000116663 -4.17551e-07
-3.27945e-08 -4.17551e-07 -0.000197213
0.00233499 0.000644292 -1.09661e-06
0.000644292 0.000282236 -3.9646e-07
-1.09661e-06 -3.9646e-07 -2.24974e-06
0.000928812 0.00041155 2.85207e-06
0.00041155 0.000118262 2.21504e-07
2.85207e-06 2.21504e-07 -0.000251769
0.00240115 0.000808549 -1.40549e-06
0.000808549 0.000506873 -5.34205e-07
-1.40549e-06 -5.34205e-07 8.98979e-05
0.00219527 0.000950389 -2.58065e-06
0.000950389 0.000591776 -2.84813e-06
-2.58065e-06 -2.84813e-06 -1.91605e-05
0.00194968 0.000832625 -5.31148e-07
0.000832625 0.000141987 4.42872e-06
-5.31148e-07 4.42872e-06 -0.000298157
0.000745465 7.97089e-05 1.24141e-05
7.97089e-05 0.00018219 1.72746e-05
1.24141e-05 1.72746e-05 8.57327e-05
8.32809e-05 0.000364141 3.37284e-06
0.000364141 -0.000282519 6.32582e-07
3.37284e-06 6.32582e-07 -0.000608823
0.00105512 0.000235722 -1.04694e-06
0.000235722 0.000425671 1.16623e-06
-1.04694e-06 1.16623e-06 0.000134679
-0.00121026 0.000225801 -8.9603e-06
0.000225801 -0.0010848 5.64044e-06
-8.9603e-06 5.64044e-06 -0.00140089
0.0022681 0.000552671 2.44672e-06
0.000552671 0.000172744 -1.5961e-06
2.44672e-06 -1.5961e-06 -4.40989e-05
0.00237541 0.00073458 4.69377e-07
0.00073458 0.000402383 -3.18585e-06
4.69377e-07 -3.18585e-06 4.64016e-05
0.00231266 0.000700919 4.45555e-07
0.000700919 0.000188076 -6.30331e-07
4.45555e-07 -6.30331e-07 -6.68898e-05
0.00173128 0.000813508 -1.40547e-05
0.000813508 0.000532559 -1.08759e-05
-1.40547e-05 -1.08759e-05 -7.35996e-05
0.00259533 0.000904726 -5.84684e-06
0.000904726 0.00053076 -3.84834e-06
-5.84684e-06 -3.84834e-06 0.000129934
0.00258633 0.00109298 -1.72289e-05
0.00109298 0.000752921 -1.78054e-05
-1.72289e-05 -1.78054e-05 0.000106787
0.00213083 0.000851907 -4.49897e-06
0.000851907 0.00012976 -4.45007e-06
-4.49897e-06 -4.45007e-06 -0.000281481
0.000912196 0.000134692 -2.68183e-06
0.000134692 0.000360945 7.17401e-06
-2.68183e-06 7.17401e-06 0.000215402
0.000508089 4.68317e-05 4.76485e-06
4.68317e-05 4.719e-05 1.48537e-05
4.76485e-06 1.48537e-05 -1.51092e-05
0.00437195 -0.000135619 9.30985e-05
-0.000135619 0.00261962 9.93794e-06
9.30985e-05 9.93794e-06 0.00260888
0.00481261 -0.000189064 1.84278e-05
-0.000189064 0.00293543 -2.0312e-06
1.84278e-05 -2.0312e-06 0.00290906
0.00531732 -0.000248572 -9.81716e-05
-0.000248572 0.00329816 -1.50405e-05
-9.81716e-05 -1.50405e-05 0.00325201
0.00010429 -0.000181496 1.82474e-05
-0.000181496 -0.000224556 -1.83923e-05
1.82474e-05 -1.83923e-05 -0.000333134
0.00581185 7.81522e-05 0.000181559
7.81522e-05 0.00357055 -2.46266e-05
0.000181559 -2.46266e-05 0.00356143
0.000538499 -0.000236917 1.27381e-06
-0.000236917 -3.14383e-06 7.90484e-07
1.27381e-06 7.90484e-07 -0.000152702
0.00816001 -2.06914e-05 4.78526e-06
-2.06914e-05 0.00507045 -2.4409e-07
4.78526e-06 -2.4409e-07 0.00507954
0.000327676 0.000151924 -1.6011e-05
0.000151924 -0.000303191 -9.799e-06
-1.6011e-05 -9.799e-06 -0.00043978
0.000256753 5.23553e-05 -1.39199e-05
5.23553e-05 -0.000322352 -4.87432e-06
-1.39199e-05 -4.87432e-06 -0.000429484
0.00152562 0.000223477 -3.09165e-06
0.000223477 -1.23316e-05 -9.0069e-07
-3.09165e-06 -9.0069e-07 -0.000176877
0.0014612 0.000110273 -3.90495e-06
0.000110273 -4.108e-05 -1.04978e-06
-3.90495e-06 -1.04978e-06 -0.000170831
0.000267224 -2.45799e-06 -1.55624e-05
-2.45799e-06 -0.000293005 -1.85276e-06
-1.55624e-05 -1.85276e-06 -0.00038555
0.00670559 -0.000105438 -0.000382893
-0.000105438 0.00409188 7.13163e-06
-0.000382893 7.13163e-06 0.00412878
0.000261919 -3.93522e-06 -3.99502e-08
-3.93522e-06 -0.000295027 -6.69876e-07
-3.99502e-08 -6.69876e-07 -0.000385969
0.00142386 5.32608e-05 -5.75713e-09
5.32608e-05 -6.08688e-05 5.57911e-08
-5.75713e-09 5.57911e-08 -0.000182869
0.00149707 0.000164822 6.40082e-09
0.000164822 -3.83836e-05 1.39461e-07
6.40082e-09 1.39461e-07 -0.000180834
0.00228404 0.000161316 -6.90541e-08
0.000161316 0.000104217 1.30794e-07
-6.90541e-08 1.30794e-07 4.81854e-05
0.00157517 0.000296968 -3.86321e-07
0.000296968 6.73957e-06 -2.9854e-07
-3.86321e-07 -2.9854e-07 -0.000187334
0.00228299 0.000356715 -2.98689e-07
0.000356715 0.00012622 3.55204e-07
-2.98689e-07 3.55204e-07 1.56951e-05
0.00139911 -5.89388e-06 2.34281e-06
-5.89388e-06 -6.8016e-05 4.1423e-07
2.34281e-06 4.1423e-07 -0.000189223
0.00227163 7.73614e-05 1.9864e-06
7.73614e-05 9.29456e-05 4.98427e-07
1.9864e-06 4.98427e-07 4.49951e-05
0.00226713 0.000253931 1.67242e-06
0.000253931 0.000104719 1.30806e-06
1.67242e-06 1.30806e-06 2.72734e-05
0.00217298 0.000168523 4.42057e-06
0.000168523 -3.47353e-06 5.56745e-07
4.42057e-06 5.56745e-07 -9.56972e-06
0.00227939 0.000456154 3.25798e-06
0.000456154 0.000149522 9.70135e-08
3.25798e-06 9.70135e-08 -5.80693e-06
0.00227047 0.000350312 4.66745e-06
0.000350312 3.55337e-05 8.42228e-07
4.66745e-06 8.42228e-07 -9.31958e-06
0.000268219 -8.19115e-06 -1.51316e-05
-8.19115e-06 -0.000287261 2.82702e-08
-1.51316e-05 2.82702e-08 -0.000382903
0.00219676 -6.93464e-05 -0.000148777
-6.93464e-05 0.000954255 7.97784e-06
-0.000148777 7.97784e-06 0.000886293
0.00154553 -0.000111094 -1.39236e-05
-0.000111094 1.34677e-05 1.14043e-06
-1.39236e-05 1.14043e-06 -0.000105742
0.00209352 -0.000253976 -1.9139e-05
-0.000253976 0.000394535 3.11742e-06
-1.9139e-05 3.11742e-06 0.000224238
0.00926899 -8.75564e-05 -0.000404573
-8.75564e-05 0.00573285 4.81387e-05
-0.000404573 4.81387e-05 0.00575192
0.00345557 -0.000378104 -0.000214741
-0.000378104 0.00182643 3.89293e-05
-0.000214741 3.89293e-05 0.00166435
0.00224906 -0.000634853 -2.49412e-05
-0.000634853 0.000752884 7.58636e-06
-2.49412e-05 7.58636e-06 0.000335005
0.00228161 -0.000400336 -2.67917e-05
-0.000400336 0.000533877 6.66373e-06
-2.67917e-05 6.66373e-06 0.000312231
0.00241002 -0.000464911 2.1781e-07
-0.000464911 0.000257758 -1.52991e-06
2.1781e-07 -1.52991e-06 0.000104811
0.0023765 -0.000624552 -2.44698e-07
-0.000624552 0.000352383 -1.97268e-06
-2.44698e-07 -1.97268e-06 5.821e-05
0.00235913 -0.000762713 5.74055e-06
-0.000762713 0.00047464 -6.07615e-06
5.74055e-06 -6.07615e-06 6.32964e-05
0.00234883 -0.000760014 2.00974e-06
-0.000760014 0.000308554 -1.99355e-06
2.00974e-06 -1.99355e-06 -1.08641e-05
0.000214956 -0.00028914 -2.53771e-05
-0.00028914 -0.000258934 2.59572e-05
-2.53771e-05 2.59572e-05 -0.000426076
0.000198456 -0.000308103 -6.40027e-06
-0.000308103 -0.000171544 -6.59596e-07
-6.40027e-06 -6.59596e-07 -0.000516831
0.00145528 -5.22248e-05 8.59396e-07
-5.22248e-05 -3.1623e-05 -1.05263e-07
8.59396e-07 -1.05263e-07 -0.000149332
0.00213862 -0.000188888 -1.23526e-05
-0.000188888 0.000417488 1.55214e-06
-1.23526e-05 1.55214e-06 0.000285618
0.00215805 -0.000172873 2.701e-06
-0.000172873 2.9779e-05 -3.77297e-07
2.701e-06 -3.77297e-07 -4.55909e-05
0.00219207 -0.00037109 -1.56932e-06
-0.00037109 8.35678e-05 4.87304e-07
-1.56932e-06 4.87304e-07 -4.31095e-05
0.000161737 -0.000264958 -8.81805e-07
-0.000264958 -0.000305775 -5.95137e-07
-8.81805e-07 -5.95137e-07 -0.000496093
0.000955201 -0.000524114 -3.06885e-06
-0.000524114 -5.4836e-05 -5.10166e-07
-3.06885e-06 -5.10166e-07 -0.000481895
0.0021944 -0.000868277 -2.31427e-07
-0.000868277 0.000418104 1.77541e-06
-2.31427e-07 1.77541e-06 -0.000102888
0.00221989 -0.000539133 -1.37392e-07
-0.000539133 0.000176401 -6.38749e-09
-1.37392e-07 -6.38749e-09 -5.138e-05
0.00233488 -0.000487117 5.99855e-07
-0.000487117 9.67233e-05 -4.00677e-07
5.99855e-07 -4.00677e-07 -5.52105e-06
0.00261788 -0.000842696 1.7291e-06
-0.000842696 0.000546302 -1.9371e-06
1.7291e-06 -1.9371e-06 0.000154443
0.00231423 -0.00067878 -2.2668e-07
-0.00067878 0.000214126 7.09822e-07
-2.2668e-07 7.09822e-07 -2.97353e-05
0.00232539 -0.000785711 2.21785e-07
-0.000785711 0.000230565 9.46726e-07
2.21785e-07 9.46726e-07 -5.44999e-05
0.000777828 -0.000321063 8.74796e-07
-0.000321063 0.000127812 6.92006e-07
8.74796e-07 6.92006e-07 -0.00023077
0.00100028 -0.000383709 -1.72294e-06
-0.000383709 0.000275772 1.11433e-06
-1.72294e-06 1.11433e-06 -0.000137969
0.00065481 -0.0001868 -3.00949e-06
-0.0001868 0.000265199 1.22133e-07
-3.00949e-06 1.22133e-07 -4.55603e-05
0.00216867 -8.68036e-05 1.64927e-06
-8.68036e-05 3.90618e-05 -4.51734e-07
1.64927e-06 -4.51734e-07 -2.87163e-05
0.00215256 -0.000265531 -3.08054e-07
-0.000265531 2.09251e-05 -4.65551e-07
-3.08054e-07 -4.65551e-07 -7.18892e-05
0.00226623 -0.000166114 6.61197e-06
-0.000166114 8.95026e-05 -5.37631e-07
6.61197e-06 -5.37631e-07 6.99047e-05
0.00228884 -0.000385699 3.36309e-06
-0.000385699 4.53816e-05 -3.43111e-07
3.36309e-06 -3.43111e-07 -9.07441e-06
0.00239265 -0.000609989 9.85057e-07
-0.000609989 0.000188891 -2.70118e-07
9.85057e-07 -2.70118e-07 2.0244e-05
0.00242677 -0.000509882 1.48312e-06
-0.000509882 8.88708e-05 3.31992e-07
1.48312e-06 3.31992e-07 3.6557e-05
0.000821077 -0.000403195 8.05469e-06
-0.000403195 3.57156e-05 -9.36588e-06
8.05469e-06 -9.36588e-06 -0.000340904
0.00243425 -0.000728994 1.26492e-06
-0.000728994 0.00019695 -7.68816e-07
1.26492e-06 -7.68816e-07 1.46279e-05
0.00221826 -0.000964916 -3.24048e-08
-0.000964916 0.00059668 3.76574e-06
-3.24048e-08 3.76574e-06 -2.78976e-05
0.0024796 -0.000963698 6.87166e-06
-0.000963698 0.000505069 4.89329e-06
6.87166e-06 4.89329e-06 -6.2719e-06
0.00267135 -0.000861397 4.54481e-06
-0.000861397 0.000564117 1.23346e-06
4.54481e-06 1.23346e-06 0.000191379
0.0025061 -0.000839012 3.89459e-06
-0.000839012 0.000295376 -1.23777e-06
3.89459e-06 -1.23777e-06 4.57723e-05
-0.000969957 9.75663e-06 4.78525e-06
9.75663e-06 -0.000828471 -1.23827e-06
4.78525e-06 -1.23827e-06 -0.00109984
0.00201316 -0.000644712 -2.95069e-07
-0.000644712 0.000801063 6.85687e-06
-2.95069e-07 6.85687e-06 0.000283286
-0.00175642 -0.000108624 1.49058e-05
-0.000108624 -0.00113817 6.31087e-06
1.49058e-05 6.31087e-06 -0.00156804
0.00102277 -0.000596394 1.4123e-05
-0.000596394 0.000300659 1.82078e-05
1.4123e-05 1.82078e-05 -0.000291789
0.00155059 0.000368849 -1.04173e-05
0.000368849 7.32122e-06 -3.29991e-06
-1.04173e-05 -3.29991e-06 -0.000224092
0.000230131 9.85318e-05 -1.35057e-05
9.85318e-05 -0.00017302 -1.89945e-05
-1.35057e-05 -1.89945e-05 -0.000284623
0.00033761 0.000213173 -2.84068e-05
0.000213173 -0.000174351 -2.27396e-05
-2.84068e-05 -2.27396e-05 -0.000318909
0.00126052 0.000271304 -5.82337e-06
0.000271304 0.000461413 6.58286e-06
-5.82337e-06 6.58286e-06 0.000203023
0.00156495 0.000486797 -1.99243e-05
0.000486797 8.73869e-05 -5.3466e-06
-1.99243e-05 -5.3466e-06 -0.000226451
0.0023124 0.000640995 -2.66689e-06
0.000640995 0.00026856 1.93764e-06
-2.66689e-06 1.93764e-06 -1.47197e-05
0.000702409 0.000358438 -1.51295e-05
0.000358438 -8.30758e-06 -8.95067e-06
-1.51295e-05 -8.95067e-06 -0.000352224
0.0019862 0.00091366 -9.71063e-07
0.00091366 0.000443866 5.77866e-06
-9.71063e-07 5.77866e-06 -0.000154329
0.00242423 0.000806336 2.68578e-06
0.000806336 0.000518721 5.64887e-06
2.68578e-06 5.64887e-06 0.00010168
0.00191421 0.000830345 1.0258e-05
0.000830345 0.000112664 1.56005e-05
1.0258e-05 1.56005e-05 -0.00032068
0.000395787 6.40195e-05 -2.17177e-06
6.40195e-05 -3.41541e-05 3.83781e-07
-2.17177e-06 3.83781e-07 -0.000130331
0.000860068 0.000291215 -1.77332e-06
0.000291215 0.000232346 1.68734e-06
-1.77332e-06 1.68734e-06 -8.43665e-05
0.000182917 0.000223059 5.50999e-06
0.000223059 -0.0001297 -1.86752e-06
5.50999e-06 -1.86752e-06 -0.000427682
0.000703096 0.000304241 -6.20649e-06
0.000304241 0.000111551 7.83915e-06
-6.20649e-06 7.83915e-06 -0.000205092
0.00231436 0.000555611 -1.7174e-06
0.000555611 0.000206687 -1.05449e-06
-1.7174e-06 -1.05449e-06 -1.08187e-05
0.00231296 0.000731029 -9.20934e-07
0.000731029 0.000355116 -3.54228e-07
-9.20934e-07 -3.54228e-07 -1.78489e-07
0.00237635 0.000706325 3.18606e-07
0.000706325 0.000234446 3.51221e-08
3.18606e-07 3.51221e-08 -2.14636e-05
0.00188064 0.000841217 2.17068e-06
0.000841217 0.000637025 -1.29339e-06
2.17068e-06 -1.29339e-06 1.88243e-05
0.00259141 0.000898389 1.24305e-06
0.000898389 0.000543124 9.55159e-07
1.24305e-06 9.55159e-07 0.000139658
0.0022963 0.00103956 -1.05319e-06
0.00103956 0.000587303 -2.15425e-06
-1.05319e-06 -2.15425e-06 -4.1991e-05
0.0024095 0.00085224 -8.44075e-06
0.00085224 0.000336046 3.23935e-06
-8.44075e-06 3.23935e-06 -6.24337e-05
0.000613107 5.63395e-05 7.61347e-06
5.63395e-05 0.000112035 1.62906e-05
7.61347e-06 1.62906e-05 3.55567e-05
0.00121577 0.0001644 -3.11612e-06
0.0001644 0.000565392 1.19213e-05
-3.11612e-06 1.19213e-05 0.000301382
3.24109e-05 0.000465892 -1.03805e-05
0.000465892 -0.000379982 -6.0655e-06
-1.03805e-05 -6.0655e-06 -0.000826363
0.000907858 0.000335603 1.16834e-05
0.000335603 0.000334375 -4.35028e-06
1.16834e-05 -4.35028e-06 -1.86332e-05
0.00117575 0.000252884 -1.66023e-06
0.000252884 0.00032113 1.80575e-05
-1.66023e-06 1.80575e-05 6.88514e-06
0.0024249 0.00060809 5.84018e-07
0.00060809 0.000175323 -6.70164e-07
5.84018e-07 -6.70164e-07 1.05955e-05
0.00227277 0.000803483 -1.42343e-06
0.000803483 0.000247151 -2.28444e-06
-1.42343e-06 -2.28444e-06 -9.10275e-05
0.00243796 0.000775588 -2.35051e-06
0.000775588 0.000218541 -1.80601e-07
-2.35051e-06 -1.80601e-07 -1.78608e-05
0.00225416 0.00114142 -4.31831e-06
0.00114142 0.000847276 -1.42901e-05
-4.31831e-06 -1.42901e-05 8.12298e-05
0.00280363 0.000957272 -6.22376e-06
0.000957272 0.00057453 -3.21395e-06
-6.22376e-06 -3.21395e-06 0.000175742
0.00206551 0.0011039 5.2046e-06
0.0011039 0.00032647 -9.25578e-06
5.2046e-06 -9.25578e-06 -0.000296096
0.00087492 0.000135371 -1.59993e-06
0.000135371 0.000334274 1.19852e-05
-1.59993e-06 1.19852e-05 0.000161941
0.00088006 0.000165525 -8.24799e-06
0.000165525 0.000475194 6.36802e-06
-8.24799e-06 6.36802e-06 0.000209942
0.000665516 9.60851e-05 -2.35834e-06
9.60851e-05 0.000196323 4.9994e-06
-2.35834e-06 4.9994e-06 8.24087e-05
0.00045738 4.85857e-05 -2.45463e-06
4.85857e-05 6.2796e-05 1.13993e-07
-2.45463e-06 1.13993e-07 -7.35251e-05
0.00158198 7.29901e-06 1.23411e-06
7.29901e-06 0.000758083 7.91098e-06
1.23411e-06 7.91098e-06 0.000713184
0.00101931 2.89321e-05 -5.88832e-07
2.89321e-05 0.000388166 -4.11609e-07
-5.88832e-07 -4.11609e-07 0.000329816
0.00108567 -1.38931e-05 8.05683e-05
-1.38931e-05 0.000426433 1.67467e-05
8.05683e-05 1.67467e-05 0.000417979
0.00431599 -0.000150585 1.55711e-05
-0.000150585 0.00258906 -1.64742e-06
1.55711e-05 -1.64742e-06 0.00257376
0.00477818 -0.000205948 -8.3059e-05
-0.000205948 0.00291832 -1.15956e-05
-8.3059e-05 -1.15956e-05 0.00288741
0.000231213 -0.000119072 2.7096e-05
-0.000119072 -0.00013556 -8.51401e-06
2.7096e-05 -8.51401e-06 -0.000205534
0.00403813 0.000130839 9.53321e-05
0.000130839 0.0024296 -1.42349e-05
9.53321e-05 -1.42349e-05 0.00241425
0.00054898 -0.000147818 -2.24953e-06
-0.000147818 7.62123e-05 1.5853e-06
-2.24953e-06 1.5853e-06 -4.56465e-05
0.00668017 3.71988e-05 -2.10148e-06
3.71988e-05 0.0041458 1.24792e-06
-2.10148e-06 1.24792e-06 0.00414269
0.000124348 -0.000227443 -2.24973e-05
-0.000227443 -0.000270144 2.18543e-05
-2.24973e-05 2.18543e-05 -0.000424072
0.00843393 -2.06941e-05 -0.00035348
-2.06941e-05 0.0052432 4.46294e-05
-0.00035348 4.46294e-05 0.00525272
0.00152459 0.000293071 -6.55428e-06
0.000293071 -1.48634e-05 -2.24014e-06
-6.55428e-06 -2.24014e-06 -0.000209582
0.00149619 0.000165763 -3.14426e-06
0.000165763 -2.5689e-05 -7.31138e-07
-3.14426e-06 -7.31138e-07 -0.000168979
0.00228029 0.000355168 -3.01918e-06
0.000355168 0.000115863 -2.94331e-07
-3.01918e-06 -2.94331e-07 5.41794e-06
0.00229769 0.000159348 -1.93502e-06
0.000159348 0.000115616 -6.94739e-07
-1.93502e-06 -6.94739e-07 5.96936e-05
0.00143493 5.87282e-05 -3.11728e-06
5.87282e-05 -4.93073e-05 -7.43521e-07
-3.11728e-06 -7.43521e-07 -0.00017175
0.000226976 2.71866e-05 -1.57704e-05
2.71866e-05 -0.000319949 -1.63196e-06
-1.57704e-05 -1.63196e-06 -0.000408895
0.00140694 -5.98686e-07 -4.08402e-08
-5.98686e-07 -6.18055e-05 4.04607e-09
-4.08402e-08 4.04607e-09 -0.00018301
0.00227677 7.60644e-05 -9.92946e-08
7.60644e-05 9.85895e-05 9.63265e-08
-9.92946e-08 9.63265e-08 5.08968e-05
0.00228856 0.00025295 6.06005e-08
0.00025295 0.000116032 1.76664e-07
6.06005e-08 1.76664e-07 3.94963e-05
0.00215771 0.000164456 -4.08386e-07
0.000164456 -2.32376e-05 -3.47885e-08
-4.08386e-07 -3.47885e-08 -2.2746e-05
0.0022986 0.000459626 -8.44956e-07
0.000459626 0.000158643 1.61872e-08
-8.44956e-07 1.61872e-08 2.01292e-06
0.00226798 0.000350189 -8.18689e-09
0.000350189 3.79255e-05 2.21804e-07
-8.18689e-09 2.21804e-07 -7.40924e-06
0.00226653 -6.45682e-06 1.48146e-06
-6.45682e-06 9.49253e-05 -6.55158e-08
1.48146e-06 -6.55158e-08 4.75251e-05
0.00211783 7.69166e-05 2.83232e-06
7.69166e-05 -5.16495e-05 -2.4789e-08
2.83232e-06 -2.4789e-08 -3.93227e-05
0.00219017 0.000242849 5.05553e-06
0.000242849 5.65933e-06 8.61427e-07
5.05553e-06 8.61427e-07 -1.68109e-05
0.00225742 0.000160231 1.80811e-06
0.000160231 -3.40379e-05 8.04388e-08
1.80811e-06 8.04388e-08 -6.69418e-08
0.00243005 0.000496085 2.96904e-06
0.000496085 0.000132483 4.55436e-07
2.96904e-06 4.55436e-07 4.40828e-05
0.00233904 0.000367947 5.21131e-07
0.000367947 -5.21331e-05 -3.21706e-07
5.21131e-07 -3.21706e-07 -3.50639e-05
0.00150333 -4.92997e-05 -4.82408e-06
-4.92997e-05 -2.14161e-06 1.71813e-07
-4.82408e-06 1.71813e-07 -0.000113002
0.00210162 -0.000188955 -2.23474e-05
-0.000188955 0.000388069 2.52883e-06
-2.23474e-05 2.52883e-06 0.000255943
0.00215591 -0.000166732 4.01528e-06
-0.000166732 2.19166e-05 -3.97173e-07
4.01528e-06 -3.97173e-07 -4.85133e-05
0.0021506 -0.000366328 3.94316e-07
-0.000366328 7.36175e-05 3.88645e-07
3.94316e-07 3.88645e-07 -6.47803e-05
0.00033872 -0.000291168 -2.46602e-05
-0.000291168 -0.000188899 2.97249e-05
-2.46602e-05 2.97249e-05 -0.000381607
0.00148738 -0.000556876 -1.40281e-05
-0.000556876 0.000285066 4.04447e-06
-1.40281e-05 4.04447e-06 -0.000146701
0.00225829 -0.000882641 6.13326e-06
-0.000882641 0.000446096 -5.59077e-06
6.13326e-06 -5.59077e-06 -8.50554e-05
0.00222295 -0.000536327 -2.52462e-07
-0.000536327 0.00018231 -1.49907e-06
-2.52462e-07 -1.49907e-06 -4.99682e-05
0.00237707 -0.000493985 -2.21509e-06
-0.000493985 0.000113107 -2.20145e-07
-2.21509e-06 -2.20145e-07 1.67501e-05
0.00224729 -0.000671146 1.05533e-07
-0.000671146 0.000168259 1.45816e-07
1.05533e-07 1.45816e-07 -7.33738e-05
0.00263495 -0.000843889 2.32208e-06
-0.000843889 0.000557872 -6.49626e-06
2.32208e-06 -6.49626e-06 0.000171298
0.0021843 -0.000780128 -7.71931e-07
-0.000780128 0.000130208 1.10638e-06
-7.71931e-07 1.10638e-06 -0.000155589
0.000803405 -0.000330875 -5.57393e-06
-0.000330875 0.00012826 1.86851e-06
-5.57393e-06 1.86851e-06 -0.000233072
0.0010059 -0.00034117 -7.84479e-06
-0.00034117 0.00028791 -1.22884e-05
-7.84479e-06 -1.22884e-05 -0.000103981
0.000542428 -0.000278823 3.72309e-07
-0.000278823 0.000197837 5.59755e-06
3.72309e-07 5.59755e-06 -0.000128266
0.00222243 -8.33596e-05 3.87075e-06
-8.33596e-05 7.58074e-05 -2.29433e-07
3.87075e-06 -2.29433e-07 1.52395e-05
0.00213503 -0.000270213 1.9898e-06
-0.000270213 1.44826e-05 -6.2741e-07
1.9898e-06 -6.2741e-07 -7.72727e-05
0.00221566 -0.000159718 1.63403e-07
-0.000159718 3.69301e-05 4.11558e-08
1.63403e-07 4.11558e-08 2.57643e-05
0.00233632 -0.000381145 -6.52435e-07
-0.000381145 8.7434e-05 1.49834e-07
-6.52435e-07 1.49834e-07 2.90356e-05
0.000984248 -0.000433422 -1.49701e-06
-0.000433422 0.000109776 -7.17925e-07
-1.49701e-06 -7.17925e-07 -0.000280252
0.00236283 -0.000998957 7.62866e-07
-0.000998957 0.000689876 -1.60519e-06
7.62866e-07 -1.60519e-06 5.42941e-05
0.00232864 -0.000947978 1.23175e-06
-0.000947978 0.000409522 2.18546e-06
1.23175e-06 2.18546e-06 -0.000106161
0.00226911 -0.000594666 -8.99922e-07
-0.000594666 0.000114395 3.97148e-07
-8.99922e-07 3.97148e-07 -5.85452e-05
0.00241068 -0.000513019 8.80378e-08
-0.000513019 6.43902e-05 6.29555e-08
8.80378e-08 6.29555e-08 1.74184e-05
0.00253731 -0.000850683 -5.88984e-07
-0.000850683 0.000464391 -1.65133e-07
-5.88984e-07 -1.65133e-07 9.42728e-05
0.00240496 -0.000727041 -7.48971e-07
-0.000727041 0.000173311 4.06633e-07
-7.48971e-07 4.06633e-07 -8.18979e-06
0.00242205 -0.000833752 1.45993e-06
-0.000833752 0.000235357 -5.19976e-07
1.45993e-06 -5.19976e-07 -8.427e-06
0.00153482 -0.00062119 -4.26096e-06
-0.00062119 0.000515245 -1.49751e-06
-4.26096e-06 -1.49751e-06 -4.39531e-06
0.00140854 -0.000624968 -3.24965e-06
-0.000624968 0.000554411 -6.10378e-07
-3.24965e-06 -6.10378e-07 -2.7819e-05
0.000265941 -4.00533e-05 5.25519e-06
-4.00533e-05 -4.66114e-05 2.63423e-06
5.25519e-06 2.63423e-06 -0.000293348
0.000415103 -0.000174322 9.58799e-08
-0.000174322 0.000148352 -6.39251e-06
9.58799e-08 -6.39251e-06 -0.000217708
0.00216714 -8.97576e-05 5.41636e-06
-8.97576e-05 9.45019e-06 -2.76578e-07
5.41636e-06 -2.76578e-07 4.36961e-06
0.00220838 -0.000264111 3.83484e-06
-0.000264111 3.35582e-06 -9.57425e-07
3.83484e-06 -9.57425e-07 -2.51822e-05
0.00228098 -0.000162932 2.51399e-06
-0.000162932 2.54463e-05 -1.37537e-07
2.51399e-06 -1.37537e-07 5.67877e-05
0.00236312 -0.000403196 -1.10314e-06
-0.000403196 -1.72235e-05 6.06031e-07
-1.10314e-06 6.06031e-07 2.73953e-06
0.0023862 -0.000630921 -4.65081e-07
-0.000630921 8.98e-05 8.03473e-07
-4.65081e-07 8.03473e-07 -1.36994e-05
0.0024839 -0.000551249 1.21109e-06
-0.000551249 2.73821e-05 4.21378e-07
1.21109e-06 4.21378e-07 -1.43924e-06
0.00196211 -0.00091528 -6.14516e-06
-0.00091528 0.000653629 8.98406e-06
-6.14516e-06 8.98406e-06 3.69008e-06
0.00252007 -0.000796468 1.09845e-06
-0.000796468 0.000152603 3.43711e-08
1.09845e-06 3.43711e-08 1.49465e-05
0.00226218 -0.00110766 2.24181e-06
-0.00110766 0.000572322 6.54433e-06
2.24181e-06 6.54433e-06 -9.43613e-05
0.00266422 -0.00100079 8.89076e-06
-0.00100079 0.000596656 2.25121e-06
8.89076e-06 2.25121e-06 9.25978e-05
0.00260575 -0.000878111 -1.49656e-07
-0.000878111 0.000477321 9.2675e-09
-1.49656e-07 9.2675e-09 0.0001187
0.0024812 -0.000906705 -3.04699e-07
-0.000906705 0.000198693 -3.83864e-06
-3.04699e-07 -3.83864e-06 -4.95212e-05
3.80638e-05 -0.000209028 9.2559e-06
-0.000209028 -0.000288111 -1.0529e-05
9.2559e-06 -1.0529e-05 -0.000535522
-0.00201634 5.76597e-06 1.10479e-05
5.76597e-06 -0.00153391 3.71126e-06
1.10479e-05 3.71126e-06 -0.00187374
0.00137249 -0.000833586 1.58751e-05
-0.000833586 0.000413062 1.09376e-05
1.58751e-05 1.09376e-05 -0.00024992
0.00182854 -0.000484779 1.54102e-05
-0.000484779 0.00102603 1.15287e-05
1.54102e-05 1.15287e-05 0.000573133
0.00142998 -0.000768637 -7.93926e-06
-0.000768637 0.000621093 9.11691e-06
-7.93926e-06 9.11691e-06 -8.20283e-05
-5.53868e-07 5.08129e-05 -8.54875e-06
5.08129e-05 -0.000285847 -1.73673e-05
-8.54875e-06 -1.73673e-05 -0.000376285
0.00236145 0.000558431 -3.98553e-06
0.000558431 0.000241393 2.73219e-07
-3.98553e-06 2.73219e-07 2.32755e-05
0.00119815 0.000114179 4.43895e-06
0.000114179 0.000506758 -5.98074e-06
4.43895e-06 -5.98074e-06 0.000217174
0.00080412 0.000337063 -4.72342e-06
0.000337063 0.000179696 8.20285e-06
-4.72342e-06 8.20285e-06 -0.000116714
0.00161932 0.000335437 -4.51064e-06
0.000335437 0.000692529 1.06785e-05
-4.51064e-06 1.06785e-05 0.000377554
0.00225019 0.000727383 -2.90422e-07
0.000727383 0.000308232 3.03798e-06
-2.90422e-07 3.03798e-06 -4.63899e-05
0.00243723 0.000711485 -4.65876e-07
0.000711485 0.00027917 2.54695e-07
-4.65876e-07 2.54695e-07 2.23461e-05
0.00179776 0.000894843 1.32749e-05
0.000894843 0.000590123 8.10522e-06
1.32749e-05 8.10522e-06 -6.24015e-05
0.00219807 0.00102899 7.64357e-06
0.00102899 0.000523511 1.19451e-05
7.64357e-06 1.19451e-05 -0.000104243
0.0025781 0.00088881 5.77541e-06
0.00088881 0.000546808 6.71619e-06
5.77541e-06 6.71619e-06 0.000142178
0.00272454 0.000862955 1.47537e-05
0.000862955 0.000562967 1.82466e-05
1.47537e-05 1.82466e-05 0.000173123
0.000455509 6.2215e-05 -1.27046e-06
6.2215e-05 1.16781e-05 2.93484e-07
-1.27046e-06 2.93484e-07 -6.13289e-05
0.000678241 0.000136814 -1.62913e-06
0.000136814 0.000235437 -4.10641e-07
-1.62913e-06 -4.10641e-07 -3.68127e-05
0.00100837 0.000541855 9.84342e-06
0.000541855 0.000258727 -1.67916e-06
9.84342e-06 -1.67916e-06 -0.000198334
0.00062787 0.00020932 9.01384e-07
0.00020932 0.000145515 -5.2867e-06
9.01384e-07 -5.2867e-06 -0.000193746
0.000356093 0.00024804 -2.38321e-06
0.00024804 -0.000207834 4.85213e-06
-2.38321e-06 4.85213e-06 -0.000547823
0.0024291 0.000609094 -9.21353e-07
0.000609094 0.00017805 -7.07803e-07
-9.21353e-07 -7.07803e-07 1.33116e-05
0.00235764 0.000809461 4.41598e-07
0.000809461 0.000308245 -1.64501e-07
4.41598e-07 -1.64501e-07 -3.01966e-05
0.00243194 0.000775827 1.36787e-06
0.000775827 0.000218699 4.80045e-07
1.36787e-06 4.80045e-07 -1.72736e-05
0.00228271 0.00114581 1.32958e-06
0.00114581 0.000883231 -2.53426e-06
1.32958e-06 -2.53426e-06 0.00011372
0.0027657 0.000953539 3.41588e-06
0.000953539 0.000525373 1.8664e-07
3.41588e-06 1.8664e-07 0.000125905
0.00264505 0.00116525 -5.48447e-06
0.00116525 0.00073028 6.31376e-07
-5.48447e-06 6.31376e-07 9.89857e-05
0.000943676 0.000168358 -6.92945e-07
0.000168358 0.000370696 1.29558e-05
-6.92945e-07 1.29558e-05 0.000167562
0.00238666 0.000470578 1.40234e-07
0.000470578 0.00137924 5.60478e-06
1.40234e-07 5.60478e-06 0.000978077
0.00108833 0.000759463 -1.78034e-07
0.000759463 0.000342302 -7.81813e-07
-1.78034e-07 -7.81813e-07 -0.000247983
0.00135769 0.000257946 1.01683e-05
0.000257946 0.000375129 -1.04349e-06
1.01683e-05 -1.04349e-06 6.82711e-05
0.00321488 0.000789511 1.70599e-06
0.000789511 0.00145147 -3.57308e-07
1.70599e-06 -3.57308e-07 0.000963119
0.0024688 0.000648135 -3.25201e-06
0.000648135 0.000105317 -1.4627e-06
-3.25201e-06 -1.4627e-06 -1.09242e-05
0.00248239 0.000885975 -3.43394e-06
0.000885975 0.000338452 -7.64769e-07
-3.43394e-06 -7.64769e-07 -8.51511e-06
0.00249624 0.000867601 -1.97376e-07
0.000867601 0.000222026 -1.01094e-06
-1.97376e-07 -1.01094e-06 -1.78218e-05
0.00169539 0.00117738 1.01621e-05
0.00117738 0.000566143 -9.54629e-06
1.01621e-05 -9.54629e-06 -0.000214351
0.00235251 0.00111517 1.51277e-05
0.00111517 0.000408209 -4.382e-06
1.51277e-05 -4.382e-06 -0.000149165
0.00060706 0.000115551 -3.25105e-07
0.000115551 0.000159888 -1.51434e-07
-3.25105e-07 -1.51434e-07 -9.94832e-06
0.000324671 0.000250848 -4.96722e-06
0.000250848 5.29479e-05 1.09666e-06
-4.96722e-06 1.09666e-06 -0.000204902
-0.000654323 0.000104136 2.78536e-07
0.000104136 -0.000530604 -2.70482e-06
2.78536e-07 -2.70482e-06 -0.00078092
0.00187428 0.000318273 -9.79214e-06
0.000318273 0.00117224 -3.81087e-08
-9.79214e-06 -3.81087e-08 0.000873345
0.00156424 0.000268253 -4.07029e-06
0.000268253 0.000895213 1.26484e-06
-4.07029e-06 1.26484e-06 0.000671951
0.000551382 0.000100391 -4.67214e-07
0.000100391 0.000130396 2.98322e-06
-4.67214e-07 2.98322e-06 2.47335e-05
0.000543109 4.70853e-05 -1.39376e-06
4.70853e-05 0.000122528 -2.93223e-07
-1.39376e-06 -2.93223e-07 7.89548e-06
0.00150103 1.94959e-05 1.64283e-06
1.94959e-05 0.000708923 5.78837e-06
1.64283e-06 5.78837e-06 0.000671761
0.00035104 6.70945e-05 5.29834e-06
6.70945e-05 -1.27688e-05 -6.77964e-06
5.29834e-06 -6.77964e-06 -0.000141821
0.00161961 3.95806e-06 -1.68504e-05
3.95806e-06 0.000783406 -2.35361e-06
-1.68504e-05 -2.35361e-06 0.000742554
0.000750281 -1.18454e-05 5.93559e-05
-1.18454e-05 0.000204639 1.27758e-05
5.93559e-05 1.27758e-05 0.000202008
0.00174804 3.29469e-05 -3.37608e-05
3.29469e-05 0.000871565 -1.1189e-05
-3.37608e-05 -1.1189e-05 0.000822014
0.0024049 -7.41941e-05 7.17059e-05
-7.41941e-05 0.00131133 1.46285e-06
7.17059e-05 1.46285e-06 0.00130084
0.00402892 -0.000153867 -6.6178e-05
-0.000153867 0.0024024 -9.53429e-06
-6.6178e-05 -9.53429e-06 0.00238559
0.000791188 3.27384e-05 1.17886e-06
3.27384e-05 0.000239472 -9.34393e-06
1.17886e-06 -9.34393e-06 0.000161441
0.000226292 -9.34972e-05 5.17183e-06
-9.34972e-05 -0.00013471 1.64547e-06
5.17183e-06 1.64547e-06 -0.00021418
0.00422146 0.000173137 5.84456e-05
0.000173137 0.00255557 -1.01948e-05
5.84456e-05 -1.01948e-05 0.00252772
0.00450227 0.000102023 -1.81601e-05
0.000102023 0.00273467 1.88378e-06
-1.81601e-05 1.88378e-06 0.00272183
0.00119046 -0.000155335 -1.46226e-05
-0.000155335 0.000484665 2.15001e-05
-1.46226e-05 2.15001e-05 0.000353056
0.00747021 3.47709e-05 -0.000296545
3.47709e-05 0.00466805 4.17402e-05
-0.000296545 4.17402e-05 0.0046629
0.00231168 0.000463571 -3.09145e-06
0.000463571 0.000161787 4.16312e-07
-3.09145e-06 4.16312e-07 3.623e-06
0.00229698 0.000253941 -2.23727e-06
0.000253941 0.000118073 -1.02051e-06
-2.23727e-06 -1.02051e-06 4.19273e-05
0.00226506 0.00035087 -4.36193e-06
0.00035087 3.95908e-05 -4.03905e-07
-4.36193e-06 -4.03905e-07 -6.40004e-06
0.00214261 0.000160212 -3.74511e-06
0.000160212 -4.3682e-05 -2.80171e-07
-3.74511e-06 -2.80171e-07 -3.65625e-05
0.00228296 7.54419e-05 -2.06796e-06
7.54419e-05 0.000105185 -2.65566e-07
-2.06796e-06 -2.65566e-07 5.77508e-05
0.00142259 4.70844e-06 -2.29649e-06
4.70844e-06 -5.20398e-05 -4.50686e-07
-2.29649e-06 -4.50686e-07 -0.000173189
0.00226644 -5.48506e-06 -1.82279e-08
-5.48506e-06 9.66265e-05 5.28221e-08
-1.82279e-08 5.28221e-08 4.91405e-05
0.00211903 6.90113e-05 -4.75428e-07
6.90113e-05 -4.78233e-05 -4.86023e-08
-4.75428e-07 -4.86023e-08 -3.75772e-05
0.00219614 0.000242385 -1.52153e-07
0.000242385 7.703e-06 3.87134e-08
-1.52153e-07 3.87134e-08 -1.44841e-05
0.00224369 0.000162123 7.52615e-08
0.000162123 -5.07303e-05 4.18506e-08
7.52615e-08 4.18506e-08 -1.00459e-05
0.00240018 0.000494254 1.35359e-07
0.000494254 0.000108941 1.21212e-07
1.35359e-07 1.21212e-07 2.24817e-05
0.00233342 0.000358117 2.27965e-07
0.000358117 -5.90398e-05 2.22211e-07
2.27965e-07 2.22211e-07 -3.80633e-05
0.00211837 -1.04517e-05 3.33622e-06
-1.04517e-05 -4.22035e-05 -1.6594e-07
3.33622e-06 -1.6594e-07 -3.2853e-05
0.00229615 6.8369e-05 9.74434e-07
6.8369e-05 -1.38014e-05 -6.01148e-07
9.74434e-07 -6.01148e-07 4.06708e-05
0.00225497 0.00023203 -3.91737e-07
0.00023203 -6.33096e-05 -4.21472e-07
-3.91737e-07 -4.21472e-07 -3.43793e-05
0.00237121 0.000172378 3.28952e-07
0.000172378 -7.46981e-05 -4.76385e-07
3.28952e-07 -4.76385e-07 1.12067e-05
0.00243572 0.000497586 -3.97437e-07
0.000497586 2.53228e-05 -3.84795e-07
-3.97437e-07 -3.84795e-07 -2.81744e-06
0.00245767 0.000352217 2.44483e-07
0.000352217 -8.09582e-05 4.22476e-08
2.44483e-07 4.22476e-08 -2.80216e-05
0.00226677 -7.98969e-05 1.87002e-06
-7.98969e-05 0.000105239 2.76801e-07
1.87002e-06 2.76801e-07 5.18375e-05
0.00213429 -0.000274388 4.35792e-06
-0.000274388 1.72298e-05 -6.40236e-07
4.35792e-06 -6.40236e-07 -7.30973e-05
0.00215873 -0.00015346 -3.49382e-06
-0.00015346 -1.89397e-05 1.60004e-07
-3.49382e-06 1.60004e-07 -2.16314e-05
0.00238271 -0.000377244 -5.28938e-06
-0.000377244 0.000129186 9.99667e-07
-5.28938e-06 9.99667e-07 6.66614e-05
0.000864967 -0.000452791 -9.50312e-06
-0.000452791 4.16766e-05 6.65492e-06
-9.50312e-06 6.65492e-06 -0.000364334
0.00248829 -0.00101742 -1.7803e-06
-0.00101742 0.000789213 -5.53089e-06
-1.7803e-06 -5.53089e-06 0.000149345
0.00210718 -0.000920475 1.85734e-06
-0.000920475 0.000271394 -3.78641e-06
1.85734e-06 -3.78641e-06 -0.000245383
0.00215296 -0.000579893 -3.23662e-06
-0.000579893 4.49416e-05 7.73186e-07
-3.23662e-06 7.73186e-07 -0.000132159
0.0023952 -0.000515819 1.03421e-07
-0.000515819 4.09578e-05 -9.27351e-07
1.03421e-07 -9.27351e-07 -1.14721e-06
0.00237195 -0.000725403 -1.35239e-06
-0.000725403 0.000146483 9.13611e-07
-1.35239e-06 9.13611e-07 -3.42697e-05
0.00239343 -0.000843331 -2.50151e-06
-0.000843331 0.000356353 -1.869e-06
-2.50151e-06 -1.869e-06 -1.3219e-05
0.0023678 -0.000838625 -1.07135e-06
-0.000838625 0.000191311 6.96296e-07
-1.07135e-06 6.96296e-07 -4.93219e-05
0.00111395 -0.000579732 -2.2082e-07
-0.000579732 0.000226599 -1.38288e-05
-2.2082e-07 -1.38288e-05 -0.000290637
0.00145799 -0.000588537 -2.13876e-05
-0.000588537 0.000582135 -9.03755e-06
-2.13876e-05 -9.03755e-06 1.62926e-05
0.00160139 -8.39136e-05 7.86694e-06
-8.39136e-05 0.000816793 7.79721e-06
7.86694e-06 7.79721e-06 0.000573373
-0.000151871 -8.19536e-05 -1.15986e-05
-8.19536e-05 -0.000276578 -9.80374e-06
-1.15986e-05 -9.80374e-06 -0.000585526
0.00216461 -8.9166e-05 -1.13963e-07
-8.9166e-05 5.88259e-06 3.52443e-08
-1.13963e-07 3.52443e-08 7.66681e-07
0.00226521 -0.000267333 1.41939e-06
-0.000267333 4.62124e-05 -3.0491e-07
1.41939e-06 -3.0491e-07 1.68382e-05
0.00222013 -0.00016033 -6.02896e-08
-0.00016033 -2.11249e-05 -1.97965e-07
-6.02896e-08 -1.97965e-07 1.33063e-05
0.00234359 -0.000401768 -3.16716e-07
-0.000401768 -2.28513e-05 2.7102e-07
-3.16716e-07 2.7102e-07 -1.1307e-05
0.00190459 -0.000856599 -1.39034e-06
-0.000856599 0.000595883 -3.9464e-07
-1.39034e-06 -3.9464e-07 -2.57863e-05
0.00218707 -0.00110276 3.48539e-06
-0.00110276 0.00052301 1.73829e-07
3.48539e-06 1.73829e-07 -0.00014577
0.00258685 -0.0010085 -5.99021e-07
-0.0010085 0.000543663 8.83696e-07
-5.99021e-07 8.83696e-07 3.20252e-05
0.00241087 -0.000632346 -9.52539e-07
-0.000632346 0.000115388 1.14767e-07
-9.52539e-07 1.14767e-07 4.98347e-06
0.00246062 -0.000547866 7.53939e-07
-0.000547866 1.31927e-05 -4.12631e-07
7.53939e-07 -4.12631e-07 -6.12092e-06
0.00263414 -0.000886516 -2.06874e-06
-0.000886516 0.000506355 7.47959e-07
-2.06874e-06 7.47959e-07 0.000141858
0.00253388 -0.000801875 -1.19368e-06
-0.000801875 0.000154584 5.10194e-07
-1.19368e-06 5.10194e-07 1.52524e-05
0.00251691 -0.000906785 7.3585e-06
-0.000906785 0.000220108 -3.12197e-06
7.3585e-06 -3.12197e-06 -2.14864e-05
0.00175683 -0.000891522 2.28923e-06
-0.000891522 0.000680554 -8.2965e-07
2.28923e-06 -8.2965e-07 -1.15974e-05
0.00169007 -0.000795173 -1.30117e-06
-0.000795173 0.000775385 -1.13595e-06
-1.30117e-06 -1.13595e-06 7.61561e-05
0.000755049 -0.000419713 -2.16213e-06
-0.000419713 0.000354591 3.0522e-07
-2.16213e-06 3.0522e-07 -0.000106506
-0.000149854 -0.00012869 -5.78856e-06
-0.00012869 -0.000360176 -8.44992e-07
-5.78856e-06 -8.44992e-07 -0.000622072
0.00040405 0.000112023 -3.7847e-06
0.000112023 8.48393e-05 -2.39863e-06
-3.7847e-06 -2.39863e-06 -0.000259105
0.00222542 -0.000101262 3.46533e-07
-0.000101262 -5.25114e-05 4.54782e-07
3.46533e-07 4.54782e-07 -2.57206e-06
0.00228985 -0.000241541 -9.5514e-07
-0.000241541 -6.26547e-05 -1.80299e-07
-9.5514e-07 -1.80299e-07 -1.44479e-05
0.00249798 -0.000490224 -8.92364e-07
-0.000490224 -7.32747e-05 -6.92662e-09
-8.92364e-07 -6.92662e-09 -1.37254e-05
0.00249094 -0.00067073 1.03171e-06
-0.00067073 4.27574e-05 1.48509e-06
1.03171e-06 1.48509e-06 -1.05665e-05
0.00207642 -0.00113039 -1.97202e-06
-0.00113039 0.00070141 2.50304e-06
-1.97202e-06 2.50304e-06 -4.05019e-05
0.00270891 -0.000937087 -3.43535e-07
-0.000937087 0.000161768 -1.07509e-06
-3.43535e-07 -1.07509e-06 -9.27409e-06
0.00175207 -0.00111185 7.25159e-07
-0.00111185 0.000263198 7.67649e-06
7.25159e-07 7.67649e-06 -0.000415324
0.00277437 -0.00107394 -3.80707e-06
-0.00107394 0.000643122 2.18722e-06
-3.80707e-06 2.18722e-06 0.00012334
0.00258936 -0.000917578 -1.41941e-05
-0.000917578 0.000406619 -3.60229e-06
-1.41941e-05 -3.60229e-06 7.31012e-05
0.000512625 -0.00019193 -1.27166e-07
-0.00019193 0.00015901 -5.54612e-06
-1.27166e-07 -5.54612e-06 -8.71413e-05
0.00412582 -0.000304133 -4.11168e-06
-0.000304133 0.00250092 2.66929e-06
-4.11168e-06 2.66929e-06 0.00210381
-0.00098919 -7.08954e-05 -3.91516e-06
-7.08954e-05 -0.00102521 4.95482e-06
-3.91516e-06 4.95482e-06 -0.00128924
0.00284028 -0.00111846 -7.98774e-06
-0.00111846 0.00138009 3.57162e-06
-7.98774e-06 3.57162e-06 0.000610463
0.00210529 -0.00059631 7.90712e-06
-0.00059631 0.00114743 8.70715e-06
7.90712e-06 8.70715e-06 0.000580948
0.00240553 -0.000948311 -9.1632e-06
-0.000948311 0.00120189 1.17086e-05
-9.1632e-06 1.17086e-05 0.000438344
0.000395155 6.25411e-05 -8.52215e-06
6.25411e-05 -2.51833e-05 -1.65981e-05
-8.52215e-06 -1.65981e-05 -9.70014e-05
0.000119389 0.000120821 9.28747e-07
0.000120821 -0.000105564 -1.23435e-05
9.28747e-07 -1.23435e-05 -0.000390804
0.00243064 0.000609932 -3.54929e-06
0.000609932 0.000179383 -1.17219e-06
-3.54929e-06 -1.17219e-06 1.46302e-05
-0.000237497 2.51472e-05 -2.60052e-06
2.51472e-05 -0.000378051 -8.91919e-08
-2.60052e-06 -8.91919e-08 -0.000726946
0.00309394 0.000647759 1.8408e-05
0.000647759 0.00156457 -5.00748e-06
1.8408e-05 -5.00748e-06 0.00111285
-0.000343503 0.000294842 -1.60119e-05
0.000294842 -0.000679518 -3.16701e-06
-1.60119e-05 -3.16701e-06 -0.00105915
0.00243589 0.000813795 1.65528e-06
0.000813795 0.00036705 1.57134e-06
1.65528e-06 1.57134e-06 2.88809e-05
0.00242434 0.000776321 2.64329e-06
0.000776321 0.000216482 5.34109e-07
2.64329e-06 5.34109e-07 -1.91296e-05
0.00215448 0.00112038 8.33657e-06
0.00112038 0.000827121 1.14e-05
8.33657e-06 1.14e-05 6.2986e-05
0.00319509 0.0012157 -4.66534e-06
0.0012157 0.00111487 9.41743e-06
-4.66534e-06 9.41743e-06 0.000480237
0.00272208 0.000952432 3.72204e-06
0.000952432 0.000468256 4.31049e-06
3.72204e-06 4.31049e-06 6.68946e-05
0.00082012 0.000169143 5.09026e-07
0.000169143 0.000295575 -7.78726e-08
5.09026e-07 -7.78726e-08 9.11032e-05
0.00100156 0.000277048 -3.63956e-06
0.000277048 0.000486237 -1.16505e-07
-3.63956e-06 -1.16505e-07 0.000102152
0.00142198 0.000821505 -1.72219e-07
0.000821505 0.000531655 -2.09544e-07
-1.72219e-07 -2.09544e-07 -9.74919e-05
0.000860867 0.00023057 8.62903e-07
0.00023057 5.64104e-05 -1.50355e-06
8.62903e-07 -1.50355e-06 -0.000250108
0.00128388 0.000548981 2.12689e-06
0.000548981 0.000127067 -5.68198e-06
2.12689e-06 -5.68198e-06 -0.000300549
0.00246196 0.000647101 -2.08137e-06
0.000647101 0.000114267 -1.06045e-06
-2.08137e-06 -1.06045e-06 -3.73475e-06
0.00251844 0.000893558 2.59185e-06
0.000893558 0.000342078 3.66156e-07
2.59185e-06 3.66156e-07 -7.28303e-06
0.00253708 0.000874823 1.04912e-06
0.000874823 0.000218879 9.22121e-07
1.04912e-06 9.22121e-07 -1.96326e-05
0.00208112 0.00124796 2.63445e-06
0.00124796 0.000773472 1.15835e-06
2.63445e-06 1.15835e-06 -1.90146e-05
0.00232163 0.0011292 -2.8717e-06
0.0011292 0.000428021 -3.21445e-06
-2.8717e-06 -3.21445e-06 -0.000144159
0.00191458 0.000461267 2.65879e-06
0.000461267 0.00106139 7.40554e-06
2.65879e-06 7.40554e-06 0.000740204
-0.000315268 0.000258332 -4.95389e-07
0.000258332 -0.000369036 -1.05043e-06
-4.95389e-07 -1.05043e-06 -0.000779035
0.00187075 0.000981337 7.50555e-06
0.000981337 0.000803792 -6.75325e-06
7.50555e-06 -6.75325e-06 0.000130144
-0.00307124 0.00041252 1.11279e-05
0.00041252 -0.00254119 -4.21825e-06
1.11279e-05 -4.21825e-06 -0.00296961
0.0036133 0.00105263 8.39808e-06
0.00105263 0.00154999 -7.40363e-06
8.39808e-06 -7.40363e-06 0.000984951
0.00262927 0.000762255 -3.33919e-06
0.000762255 6.96157e-05 -7.34851e-07
-3.33919e-06 -7.34851e-07 9.31304e-06
0.00255924 0.000952797 9.41201e-06
0.000952797 0.000298923 -3.05256e-06
9.41201e-06 -3.05256e-06 -8.14207e-05
0.00228658 0.000842382 7.22427e-06
0.000842382 -2.11928e-05 -1.64815e-07
7.22427e-06 -1.64815e-07 -0.000276711
0.00239917 0.00131626 2.0873e-05
0.00131626 0.000876184 1.50482e-06
2.0873e-05 1.50482e-06 9.89789e-05
0.00275343 0.00135381 8.66164e-06
0.00135381 0.000765627 -9.23087e-07
8.66164e-06 -9.23087e-07 8.53847e-05
0.000331182 8.74235e-05 6.45971e-06
8.74235e-05 -2.00631e-05 -1.18961e-05
6.45971e-06 -1.18961e-05 -0.000185984
0.000967625 0.000223836 -5.98694e-07
0.000223836 0.000458295 5.79263e-07
-5.98694e-07 5.79263e-07 0.000207546
-0.000354131 0.000117986 -5.84373e-06
0.000117986 -0.000394844 -2.03234e-05
-5.84373e-06 -2.03234e-05 -0.000569656
-0.00104907 -2.90324e-05 8.80551e-06
-2.90324e-05 -0.000827717 -3.52439e-06
8.80551e-06 -3.52439e-06 -0.00103613
0.000529933 0.000122055 -2.01428e-06
0.000122055 0.000192188 8.99485e-08
-2.01428e-06 8.99485e-08 1.46493e-06
-8.41206e-05 0.000106984 4.58585e-06
0.000106984 -0.000137442 4.81177e-07
4.58585e-06 4.81177e-07 -0.000382334
0.00111804 0.000264057 -4.65777e-06
0.000264057 0.00065258 -2.84241e-06
-4.65777e-06 -2.84241e-06 0.000416843
0.000234718 -7.50339e-06 -9.46353e-06
-7.50339e-06 5.19367e-05 5.73896e-06
-9.46353e-06 5.73896e-06 -0.000176695
0.000778465 0.000141741 -2.41899e-06
0.000141741 0.0003214 -2.01117e-06
-2.41899e-06 -2.01117e-06 0.00016724
0.000528859 0.00010152 1.70004e-06
0.00010152 0.000113663 2.61323e-06
1.70004e-06 2.61323e-06 1.05167e-05
0.000426828 4.13393e-05 -3.2078e-06
4.13393e-05 4.06161e-05 1.58684e-07
-3.2078e-06 1.58684e-07 -5.97867e-05
0.00141952 7.57814e-06 1.70209e-06
7.57814e-06 0.000653811 5.01122e-06
1.70209e-06 5.01122e-06 0.000623462
0.000193901 -8.75474e-05 9.32891e-06
-8.75474e-05 -9.5277e-05 -3.82676e-06
9.32891e-06 -3.82676e-06 -0.000211674
0.00149843 6.78371e-06 -1.50195e-05
6.78371e-06 0.000703535 -2.19365e-06
-1.50195e-05 -2.19365e-06 0.000670843
0.00075648 -9.97946e-06 4.75033e-05
-9.97946e-06 0.000208636 1.16334e-05
4.75033e-05 1.16334e-05 0.000208938
0.0016037 5.86715e-06 -2.14808e-05
5.86715e-06 0.000769491 -1.07911e-05
-2.14808e-05 -1.07911e-05 0.000732754
0.000729872 -2.92837e-05 2.45389e-05
-2.92837e-05 0.000190998 4.73096e-06
2.45389e-05 4.73096e-06 0.000181891
0.00357381 -0.000158907 1.11783e-05
-0.000158907 0.00209308 -6.11999e-06
1.11783e-05 -6.11999e-06 0.00207409
0.000383294 0.00010533 -3.78134e-06
0.00010533 2.41815e-05 -9.78979e-06
-3.78134e-06 -9.78979e-06 -7.10873e-05
0.000372435 -4.38232e-05 -6.69584e-06
-4.38232e-05 -3.59845e-05 -1.86629e-06
-6.69584e-06 -1.86629e-06 -0.000118672
0.00430517 0.000242425 -2.77981e-05
0.000242425 0.00262756 -1.40138e-05
-2.77981e-05 -1.40138e-05 0.00258227
0.000681549 -0.000131932 -1.00017e-05
-0.000131932 0.000157946 1.44323e-05
-1.00017e-05 1.44323e-05 7.24318e-05
0.00381732 0.00014707 -1.69433e-05
0.00014707 0.00229187 2.56733e-07
-1.69433e-05 2.56733e-07 0.0022714
0.00534953 6.46248e-05 -0.000224505
6.46248e-05 0.00331369 3.97358e-05
-0.000224505 3.97358e-05 0.00329957
0.00237283 0.000492393 -3.8367e-06
0.000492393 8.72289e-05 -5.58112e-07
-3.8367e-06 -5.58112e-07 2.78096e-06
0.00220167 0.000241245 -4.72027e-06
0.000241245 1.05493e-05 -6.16662e-07
-4.72027e-06 -6.16662e-07 -1.12811e-05
0.00233022 0.000348609 8.34349e-07
0.000348609 -6.45848e-05 6.72403e-07
8.34349e-07 6.72403e-07 -3.96672e-05
0.00222914 0.000164492 6.02156e-07
0.000164492 -6.79499e-05 3.62648e-07
6.02156e-07 3.62648e-07 -2.03331e-05
0.00212011 6.19704e-05 -3.66497e-06
6.19704e-05 -4.39172e-05 1.92272e-07
-3.66497e-06 1.92272e-07 -3.59512e-05
0.00226245 -4.91e-06 -1.38661e-06
-4.91e-06 9.59095e-05 2.49117e-07
-1.38661e-06 2.49117e-07 4.83495e-05
0.00213665 -1.18807e-05 2.65645e-07
-1.18807e-05 -2.5294e-05 -2.79366e-08
2.65645e-07 -2.79366e-08 -1.85504e-05
0.00227705 7.0818e-05 5.19063e-07
7.0818e-05 -2.18805e-05 3.81671e-09
5.19063e-07 3.81671e-09 2.76425e-05
0.00227993 0.000233006 -6.05307e-07
0.000233006 -4.03208e-05 -5.33566e-08
-6.05307e-07 -5.33566e-08 -1.28121e-05
0.00234687 0.00017397 6.44404e-07
0.00017397 -9.47222e-05 1.43725e-07
6.44404e-07 1.43725e-07 9.41742e-07
0.00243731 0.000499468 -3.28765e-07
0.000499468 3.00458e-05 4.7359e-08
-3.28765e-07 4.7359e-08 -7.98953e-07
0.00246156 0.00035622 1.94101e-06
0.00035622 -7.82236e-05 7.19975e-07
1.94101e-06 7.19975e-07 -1.58765e-05
0.00222489 -1.6822e-05 -1.20413e-06
-1.6822e-05 -5.41692e-05 7.72287e-08
-1.20413e-06 7.72287e-08 -7.07348e-06
0.00239021 8.77246e-05 -3.83895e-07
8.77246e-05 -8.74801e-05 -1.06337e-06
-3.83895e-07 -1.06337e-06 1.95675e-05
0.00245528 0.000243513 -4.81009e-07
0.000243513 -7.35764e-05 -2.73076e-07
-4.81009e-07 -2.73076e-07 2.54452e-05
0.00256934 0.000516377 -1.64928e-06
0.000516377 -7.19942e-05 2.06994e-07
-1.64928e-06 2.06994e-07 -4.45537e-06
0.00216082 -8.85512e-05 -5.37876e-06
-8.85512e-05 9.06285e-07 3.94426e-07
-5.37876e-06 3.94426e-07 -4.2414e-06
0.00231797 -0.000271128 -3.77278e-06
-0.000271128 8.70878e-05 8.28998e-07
-3.77278e-06 8.28998e-07 5.67592e-05
0.00215829 -0.000158632 -6.14263e-07
-0.000158632 -6.88679e-05 -4.14447e-08
-6.14263e-07 -4.14447e-08 -3.1498e-05
0.00233119 -0.000401128 -1.99484e-06
-0.000401128 -2.4926e-05 -2.50954e-07
-1.99484e-06 -2.50954e-07 -2.18226e-05
0.00192334 -0.000838632 7.03851e-06
-0.000838632 0.000599365 -8.96608e-06
7.03851e-06 -8.96608e-06 -1.11182e-05
0.00221532 -0.0011134 6.07089e-06
-0.0011134 0.000536912 -5.28978e-06
6.07089e-06 -5.28978e-06 -0.000138031
0.00253884 -0.00102278 -6.9688e-06
-0.00102278 0.000511095 -2.87823e-06
-6.9688e-06 -2.87823e-06 -1.10083e-05
0.00243742 -0.000633718 -2.99825e-06
-0.000633718 0.00014236 5.95455e-07
-2.99825e-06 5.95455e-07 2.54788e-05
0.00243748 -0.000545125 2.08684e-06
-0.000545125 -9.1915e-07 -1.23051e-06
2.08684e-06 -1.23051e-06 -1.05811e-05
0.00253184 -0.000804519 -3.92029e-06
-0.000804519 0.000148088 7.51404e-07
-3.92029e-06 7.51404e-07 7.98056e-06
0.00255321 -0.000878084 -1.13357e-06
-0.000878084 0.000468235 1.15551e-06
-1.13357e-06 1.15551e-06 0.000101788
0.00247435 -0.000897454 3.5172e-06
-0.000897454 0.00018885 2.05942e-06
3.5172e-06 2.05942e-06 -4.49914e-05
0.00212504 -0.000931782 -1.83351e-05
-0.000931782 0.000935148 -7.74527e-06
-1.83351e-05 -7.74527e-06 0.000235867
0.000913179 -0.000683612 1.37299e-05
-0.000683612 0.000286807 -1.05088e-05
1.37299e-05 -1.05088e-05 -0.000372964
0.00146155 -0.000462751 -1.29061e-05
-0.000462751 0.000805964 -9.50237e-06
-1.29061e-05 -9.50237e-06 0.000320215
0.00043105 -6.83082e-05 -2.78625e-06
-6.83082e-05 4.13376e-05 3.32722e-06
-2.78625e-06 3.32722e-06 -0.000213492
0.00426399 0.000203021 1.60061e-06
0.000203021 0.00258146 -4.41328e-07
1.60061e-06 -4.41328e-07 0.00224526
0.00221533 -0.000109165 2.50636e-07
-0.000109165 -5.71851e-05 -8.29004e-08
2.50636e-07 -8.29004e-08 -8.43605e-06
0.00230524 -0.000243466 1.93125e-06
-0.000243466 -5.51708e-05 4.39072e-08
1.93125e-06 4.39072e-08 -8.17098e-06
0.0024838 -0.000483743 -9.86832e-07
-0.000483743 -6.25898e-05 2.012e-07
-9.86832e-07 2.012e-07 -1.52305e-05
0.0023529 -0.0011428 -2.23928e-06
-0.0011428 0.000875495 -1.86173e-07
-2.23928e-06 -1.86173e-07 0.000135195
0.00187516 -0.00111855 5.15658e-06
-0.00111855 0.000336251 -1.78989e-07
5.15658e-06 -1.78989e-07 -0.000342687
0.00261256 -0.0010746 -1.40738e-06
-0.0010746 0.000547603 -2.1905e-07
-1.40738e-06 -2.1905e-07 1.9977e-05
0.00249946 -0.000662832 2.45216e-07
-0.000662832 5.56568e-05 -4.52081e-07
2.45216e-07 -4.52081e-07 7.54825e-07
0.00252814 -0.000925542 5.75649e-06
-0.000925542 0.000341068 -3.77176e-06
5.75649e-06 -3.77176e-06 9.89961e-06
0.00271456 -0.000927532 -8.0979e-07
-0.000927532 0.000193722 -7.6228e-07
-8.0979e-07 -7.6228e-07 2.71284e-05
-0.00079036 -2.93992e-05 -8.9292e-07
-2.93992e-05 -0.000714972 -1.14048e-07
-8.9292e-07 -1.14048e-07 -0.000931603
0.00174475 -0.000956969 1.36005e-06
-0.000956969 0.000714165 1.03718e-06
1.36005e-06 1.03718e-06 -1.93045e-05
0.00186136 -0.000893576 -6.61767e-06
-0.000893576 0.000868678 1.54648e-06
-6.61767e-06 1.54648e-06 9.40236e-05
0.00165264 -0.000599145 5.21922e-07
-0.000599145 0.00088423 5.05703e-06
5.21922e-07 5.05703e-06 0.000285523
0.000593287 -0.000183711 -3.6854e-06
-0.000183711 2.34356e-05 -2.26638e-06
-3.6854e-06 -2.26638e-06 -0.000268791
0.00203963 -0.000100958 -4.3645e-06
-0.000100958 0.00110376 4.66484e-06
-4.3645e-06 4.66484e-06 0.000707697
0.00232652 -0.000141342 -1.02297e-06
-0.000141342 -0.000110229 7.05975e-07
-1.02297e-06 7.05975e-07 -1.74393e-05
0.00250422 -0.00032191 1.56572e-06
-0.00032191 -0.000126901 4.9093e-07
1.56572e-06 4.9093e-07 5.50883e-07
0.00260058 -0.000610484 -9.9696e-07
-0.000610484 -4.88019e-05 1.18322e-06
-9.9696e-07 1.18322e-06 9.99983e-06
0.0026354 -0.00079929 -7.24022e-07
-0.00079929 2.45819e-05 2.45548e-06
-7.24022e-07 2.45548e-06 4.24954e-06
0.00270266 -0.0012661 -4.46545e-06
-0.0012661 0.0011132 2.42139e-06
-4.46545e-06 2.42139e-06 0.000325881
0.00268197 -0.00106549 6.32992e-07
-0.00106549 0.000259807 -3.78567e-06
6.32992e-07 -3.78567e-06 -2.72255e-05
0.00253652 -0.00132837 -4.28705e-05
-0.00132837 0.000738839 1.25073e-05
-4.28705e-05 1.25073e-05 -3.68809e-06
0.00233795 -0.00110389 -3.52906e-05
-0.00110389 0.000395066 2.98297e-06
-3.52906e-05 2.98297e-06 -0.000138628
-0.000936331 -1.02849e-05 -1.33598e-06
-1.02849e-05 -0.000844457 -4.18985e-06
-1.33598e-06 -4.18985e-06 -0.00097907
0.00124157 -0.000191007 -2.93662e-06
-0.000191007 0.000752154 3.6428e-06
-2.93662e-06 3.6428e-06 0.000371898
0.00321692 -0.00034438 -1.24985e-05
-0.00034438 0.00180754 9.63179e-06
-1.24985e-05 9.63179e-06 0.00145656
0.000268309 -0.000126979 -1.25663e-06
-0.000126979 -7.47969e-05 -1.00048e-05
-1.25663e-06 -1.00048e-05 -0.000467495
0.00234169 -0.00104483 -2.61685e-06
-0.00104483 0.00109223 1.70652e-05
-2.61685e-06 1.70652e-05 0.00032572
0.00210596 -0.000932304 -1.18481e-06
-0.000932304 0.00104419 1.79043e-05
-1.18481e-06 1.79043e-05 0.000210574
0.000444586 0.000152565 2.32716e-06
0.000152565 5.27024e-05 -1.25146e-05
2.32716e-06 -1.25146e-05 -0.000147637
-0.000396818 0.000101749 8.58593e-07
0.000101749 -0.000429189 -3.12341e-06
8.58593e-07 -3.12341e-06 -0.000790047
0.0024557 0.000646176 -7.70447e-07
0.000646176 0.000123295 -4.58899e-07
-7.70447e-07 -4.58899e-07 3.50247e-06
0.000581245 0.000203447 -5.35554e-06
0.000203447 -0.000109853 3.20163e-06
-5.35554e-06 3.20163e-06 -0.000415232
0.00200346 0.000914709 7.22715e-06
0.000914709 0.000886105 -2.0733e-06
7.22715e-06 -2.0733e-06 0.000211824
2.41301e-05 0.000315384 -1.52289e-05
0.000315384 -0.000641749 1.11461e-06
-1.52289e-05 1.11461e-06 -0.000996215
0.00255661 0.000901432 3.88976e-06
0.000901432 0.000346379 2.8966e-07
3.88976e-06 2.8966e-07 -5.44947e-06
0.0025781 0.000880789 -3.47997e-06
0.000880789 0.000217564 3.26598e-07
-3.47997e-06 3.26598e-07 -1.85649e-05
0.00253046 0.00132582 -7.91777e-06
0.00132582 0.00102111 6.53988e-06
-7.91777e-06 6.53988e-06 0.000214825
0.00231041 0.00114394 -9.11757e-06
0.00114394 0.000467933 3.19256e-06
-9.11757e-06 3.19256e-06 -0.000120346
0.000731235 0.000294084 -2.18629e-07
0.000294084 0.000299812 -7.83913e-07
-2.18629e-07 -7.83913e-07 -1.22214e-05
0.00104788 0.000370035 1.78159e-07
0.000370035 0.000488936 -2.70154e-06
1.78159e-07 -2.70154e-06 6.79091e-05
0.00163719 0.000931737 -3.06566e-06
0.000931737 0.000664831 -7.26554e-08
-3.06566e-06 -7.26554e-08 2.73117e-06
0.000689338 0.000489745 -3.43695e-06
0.000489745 -0.000200321 -3.93722e-07
-3.43695e-06 -3.93722e-07 -0.000587112
0.00326188 0.000958682 1.49941e-06
0.000958682 0.00133248 2.27277e-06
1.49941e-06 2.27277e-06 0.000795292
0.00266709 0.000771468 -2.57133e-06
0.000771468 7.57158e-05 -3.5e-07
-2.57133e-06 -3.5e-07 1.07707e-05
0.00266352 0.000926653 2.86412e-06
0.000926653 0.000374148 -8.24223e-07
2.86412e-06 -8.24223e-07 1.35361e-05
0.0026857 0.000878008 5.61301e-07
0.000878008 0.000247277 2.87734e-06
5.61301e-07 2.87734e-06 -1.80076e-05
0.00232838 0.001322 5.41447e-06
0.001322 0.000821382 1.64918e-06
5.41447e-06 1.64918e-06 3.65649e-05
0.00264282 0.00140795 -5.77203e-06
0.00140795 0.000705007 1.00978e-06
-5.77203e-06 1.00978e-06 -1.09218e-05
-0.00182109 8.11965e-05 -9.61065e-06
8.11965e-05 -0.00134907 -4.78395e-06
-9.61065e-06 -4.78395e-06 -0.00159281
-0.00338193 0.000469138 -1.60642e-06
0.000469138 -0.00195088 -2.74663e-06
-1.60642e-06 -2.74663e-06 -0.00258622
0.0021769 0.00105914 1.71411e-05
0.00105914 0.000851304 -3.94697e-06
1.71411e-05 -3.94697e-06 0.000188469
0.00188171 0.000643169 3.86642e-06
0.000643169 0.000436816 -1.30043e-05
3.86642e-06 -1.30043e-05 4.14083e-05
0.00281819 0.000705035 5.34762e-07
0.000705035 -0.000185433 2.98135e-06
5.34762e-07 2.98135e-06 -1.62886e-05
0.0027142 0.000935761 6.41749e-06
0.000935761 0.000105484 -6.37447e-08
6.41749e-06 -6.37447e-08 -4.55641e-05
0.00287669 0.00118761 1.20547e-05
0.00118761 0.000517059 -4.7336e-06
1.20547e-05 -4.7336e-06 -2.79308e-05
0.0024437 0.00145938 6.64199e-06
0.00145938 0.000673117 -1.26112e-06
6.64199e-06 -1.26112e-06 -0.000144771
0.00160587 0.000269331 7.03912e-06
0.000269331 0.0009132 -2.32664e-06
7.03912e-06 -2.32664e-06 0.000630616
0.000316688 0.000223683 -4.99915e-06
0.000223683 8.28217e-05 1.42414e-06
-4.99915e-06 1.42414e-06 -0.000130827
7.01157e-05 0.000112724 -3.63037e-06
0.000112724 -4.91272e-05 -8.30337e-06
-3.63037e-06 -8.30337e-06 -0.000184356
-7.04243e-05 4.3429e-05 4.10115e-06
4.3429e-05 -0.000223803 -1.3769e-06
4.10115e-06 -1.3769e-06 -0.000394482
-0.00213059 3.21152e-05 2.19965e-06
3.21152e-05 -0.00140431 -2.4951e-06
2.19965e-06 -2.4951e-06 -0.00166259
0.000790111 9.65277e-05 -1.18462e-06
9.65277e-05 0.000331924 -1.24087e-07
-1.18462e-06 -1.24087e-07 0.000174184
0.000643609 0.000246426 6.74684e-06
0.000246426 0.000380743 2.70294e-06
6.74684e-06 2.70294e-06 0.000147501
0.000703234 9.75124e-05 1.67785e-06
9.75124e-05 0.000394504 2.17195e-06
1.67785e-06 2.17195e-06 0.000130548
0.000685799 0.00015411 -6.94366e-06
0.00015411 0.000249923 -9.30125e-06
-6.94366e-06 -9.30125e-06 0.000140056
0.000696511 3.69721e-05 -6.97995e-06
3.69721e-05 0.000406305 1.86507e-06
-6.97995e-06 1.86507e-06 0.000134264
-0.000186062 7.99088e-05 -4.53918e-06
7.99088e-05 -0.000259462 2.87612e-06
-4.53918e-06 2.87612e-06 -0.000452653
0.000833655 0.000158978 1.71123e-06
0.000158978 0.000356614 1.1494e-06
1.71123e-06 1.1494e-06 0.000197896
0.000443153 0.000102169 2.57468e-06
0.000102169 6.61847e-05 3.48667e-06
2.57468e-06 3.48667e-06 -4.11494e-05
0.000406024 2.2803e-05 -1.97909e-06
2.2803e-05 2.90601e-05 -4.29371e-07
-1.97909e-06 -4.29371e-07 -7.00195e-05
0.0012726 2.62839e-05 6.087e-07
2.62839e-05 0.000562599 3.44353e-06
6.087e-07 3.44353e-06 0.000533335
0.000369778 -5.25768e-05 3.88608e-06
-5.25768e-05 -3.87413e-07 -2.57057e-06
3.88608e-06 -2.57057e-06 -9.672e-05
0.00137258 9.54998e-06 -1.31768e-05
9.54998e-06 0.000625821 -2.00772e-06
-1.31768e-05 -2.00772e-06 0.000596017
0.000664475 -1.69034e-06 4.2532e-05
-1.69034e-06 0.000150371 1.12013e-05
4.2532e-05 1.12013e-05 0.000152506
0.00144016 -4.0364e-05 -1.30875e-05
-4.0364e-05 0.000668835 -9.433e-06
-1.30875e-05 -9.433e-06 0.000636525
0.000708541 -1.99997e-05 2.03147e-05
-1.99997e-05 0.000175936 4.29013e-06
2.03147e-05 4.29013e-06 0.000172339
0.000595001 -3.59692e-05 5.19116e-06
-3.59692e-05 0.000104811 -4.97392e-06
5.19116e-06 -4.97392e-06 9.23575e-05
0.000395504 2.51329e-05 2.7391e-06
2.51329e-05 -2.47342e-05 -9.83902e-06
2.7391e-06 -9.83902e-06 -7.60777e-05
0.000366462 3.38242e-05 -2.13085e-06
3.38242e-05 -2.15334e-05 3.74807e-07
-2.13085e-06 3.74807e-07 -0.000100892
0.00323265 0.000177495 -2.25202e-05
0.000177495 0.00189086 -1.24929e-05
-2.25202e-05 -1.24929e-05 0.00186559
-0.000694832 -7.46561e-05 -2.20329e-05
-7.46561e-05 -0.000733122 5.17865e-06
-2.20329e-05 5.17865e-06 -0.000816369
0.0044084 0.000164974 -2.76961e-05
0.000164974 0.00266673 -1.78682e-06
-2.76961e-05 -1.78682e-06 0.00264127
0.00333969 7.2616e-05 -0.000111333
7.2616e-05 0.00196454 2.25525e-05
-0.000111333 2.25525e-05 0.00196308
0.00243502 0.000500812 8.57618e-07
0.000500812 3.28571e-05 6.92195e-07
8.57618e-07 6.92195e-07 -4.81887e-07
0.00230646 0.000233993 -5.90121e-07
0.000233993 -1.67351e-05 -1.45069e-07
-5.90121e-07 -1.45069e-07 9.26552e-06
0.00246557 0.0003594 1.7565e-06
0.0003594 -7.54916e-05 1.75835e-06
1.7565e-06 1.75835e-06 -3.72616e-06
0.00232232 0.000175563 1.35046e-06
0.000175563 -0.000115231 5.09726e-07
1.35046e-06 5.09726e-07 -9.9556e-06
0.00225666 7.33281e-05 -1.00248e-07
7.33281e-05 -3.0515e-05 6.87382e-07
-1.00248e-07 6.87382e-07 1.40135e-05
0.00215524 -1.43156e-05 -5.09298e-06
-1.43156e-05 -8.50327e-06 1.76166e-07
-5.09298e-06 1.76166e-07 -4.15676e-06
0.00223289 -1.63971e-05 8.00916e-07
-1.63971e-05 -4.7597e-05 -2.75742e-08
8.00916e-07 -2.75742e-08 1.13627e-06
0.00235503 9.28546e-05 4.36082e-07
9.28546e-05 -0.000106204 2.12422e-07
4.36082e-07 2.12422e-07 3.14111e-07
0.00244928 0.000248937 7.47963e-07
0.000248937 -7.98139e-05 5.01867e-08
7.47963e-07 5.01867e-08 1.98171e-05
0.00256227 0.000498907 5.76352e-07
0.000498907 -7.63971e-05 2.68567e-07
5.76352e-07 2.68567e-07 -3.31902e-06
0.00236212 -1.6052e-05 -1.93296e-06
-1.6052e-05 -9.7982e-05 -4.40268e-09
-1.93296e-06 -4.40268e-09 1.59569e-06
0.00249585 0.000150529 2.76835e-08
0.000150529 -0.000136045 -5.78084e-07
2.76835e-08 -5.78084e-07 3.2869e-05
0.00269369 0.000350692 3.12174e-07
0.000350692 -0.000110876 6.13673e-08
3.12174e-07 6.13673e-08 3.92936e-05
0.00220635 -0.0001168 4.97023e-08
-0.0001168 -6.04578e-05 -7.16032e-07
4.97023e-08 -7.16032e-07 -1.28693e-05
0.00232133 -0.000244339 -1.0587e-06
-0.000244339 -4.62516e-05 -4.23702e-07
-1.0587e-06 -4.23702e-07 -5.82234e-07
0.00246225 -0.000476327 7.33068e-08
-0.000476327 -5.75002e-05 -1.59125e-07
7.33068e-08 -1.59125e-07 -2.13263e-05
0.00256027 -0.0011543 -9.18122e-07
-0.0011543 0.000998488 -4.40381e-06
-9.18122e-07 -4.40381e-06 0.000256723
0.00202686 -0.00111911 6.34124e-06
-0.00111911 0.000430994 -5.47354e-06
6.34124e-06 -5.47354e-06 -0.000243975
0.00256304 -0.00107968 6.00393e-06
-0.00107968 0.000520074 -2.41789e-06
6.00393e-06 -2.41789e-06 -1.25468e-05
0.00251837 -0.000656247 -7.13582e-07
-0.000656247 7.32743e-05 -6.27564e-07
-7.13582e-07 -6.27564e-07 1.68029e-05
0.00275054 -0.000919252 -6.70151e-07
-0.000919252 0.000243738 1.41996e-06
-6.70151e-07 1.41996e-06 8.25727e-05
0.0026368 -0.000953083 1.09865e-05
-0.000953083 0.000382546 -2.27974e-06
1.09865e-05 -2.27974e-06 5.04189e-05
0.00154755 -0.000928986 6.97775e-07
-0.000928986 0.000612492 -2.76525e-06
6.97775e-07 -2.76525e-06 -0.000117722
0.00204483 -0.000936148 1.45025e-05
-0.000936148 0.000986683 -1.78924e-05
1.45025e-05 -1.78924e-05 0.000196945
0.00228613 -0.000802382 -7.60629e-06
-0.000802382 0.0013494 -1.44558e-06
-7.60629e-06 -1.44558e-06 0.000685894
2.76265e-05 3.08862e-05 6.38934e-06
3.08862e-05 -0.000157701 1.06073e-06
6.38934e-06 1.06073e-06 -0.000387694
0.00215837 -0.000286198 5.2159e-06
-0.000286198 0.00102169 -1.36504e-06
5.2159e-06 -1.36504e-06 0.00074068
-0.000974814 0.000152547 7.7389e-06
0.000152547 -0.000890179 3.80926e-08
7.7389e-06 3.80926e-08 -0.00127681
0.00235835 -0.000132829 -4.20255e-07
-0.000132829 -8.75745e-05 1.20331e-07
-4.20255e-07 1.20331e-07 1.46591e-06
0.0024926 -0.000336324 2.08944e-07
-0.000336324 -0.000144105 -2.89708e-07
2.08944e-07 -2.89708e-07 -1.07704e-05
0.00259261 -0.000596845 -4.55608e-07
-0.000596845 -4.88838e-05 -2.94183e-07
-4.55608e-07 -2.94183e-07 9.48817e-06
0.00240757 -0.00121889 -3.49582e-06
-0.00121889 0.000920888 2.27686e-07
-3.49582e-06 2.27686e-07 0.000149327
0.00220337 -0.00126758 8.74211e-06
-0.00126758 0.000551951 -2.66683e-06
8.74211e-06 -2.66683e-06 -0.000170878
0.00263959 -0.00113449 -1.39011e-06
-0.00113449 0.00055446 -2.58645e-06
-1.39011e-06 -2.58645e-06 2.80921e-05
0.00263597 -0.00081267 6.72144e-07
-0.00081267 2.20578e-05 -5.95828e-07
6.72144e-07 -5.95828e-07 -8.87543e-06
0.00272782 -0.00105536 2.07677e-06
-0.00105536 0.000303787 -1.46555e-06
2.07677e-06 -1.46555e-06 2.51027e-05
-4.71972e-05 3.60522e-05 -3.42005e-09
3.60522e-05 -0.00024964 -4.43669e-06
-3.42005e-09 -4.43669e-06 -0.000387333
0.0007095 -0.000168953 -3.3071e-06
-0.000168953 0.00038597 1.17967e-06
-3.3071e-06 1.17967e-06 2.45315e-05
0.00180919 -0.000981049 -5.45192e-06
-0.000981049 0.000773887 -3.94404e-07
-5.45192e-06 -3.94404e-07 3.21153e-05
0.00162661 -0.000812813 9.93548e-08
-0.000812813 0.000805699 -1.35067e-06
9.93548e-08 -1.35067e-06 -1.2639e-05
0.00215725 -0.000256802 -4.25512e-06
-0.000256802 0.00111089 -5.08526e-06
-4.25512e-06 -5.08526e-06 0.000707788
0.00049653 -0.000208318 2.57624e-06
-0.000208318 2.25359e-05 -3.17845e-06
2.57624e-06 -3.17845e-06 -0.000315775
0.00245716 -0.000175987 1.63369e-06
-0.000175987 -0.000172284 5.22952e-07
1.63369e-06 5.22952e-07 -2.13344e-07
0.00271768 -0.000497927 2.22297e-06
-0.000497927 -0.00017405 3.9177e-07
2.22297e-06 3.9177e-07 3.1494e-05
0.00265601 -0.00075587 6.82415e-08
-0.00075587 -8.73508e-05 2.99183e-06
6.82415e-08 2.99183e-06 -2.9505e-05
0.00285231 -0.0010458 1.17985e-06
-0.0010458 0.000191801 -1.28682e-06
1.17985e-06 -1.28682e-06 4.32991e-05
0.00191389 -0.00120043 -5.25307e-06
-0.00120043 0.000658017 -2.26626e-06
-5.25307e-06 -2.26626e-06 -8.40522e-05
0.0030716 -0.00132215 7.93857e-06
-0.00132215 0.000659014 -5.0489e-06
7.93857e-06 -5.0489e-06 0.000170716
0.00253135 -0.0014328 -5.66764e-05
-0.0014328 0.000705108 7.12933e-06
-5.66764e-05 7.12933e-06 -7.00497e-05
0.000454654 3.75666e-05 2.28988e-06
3.75666e-05 5.42646e-05 -5.86837e-06
2.28988e-06 -5.86837e-06 -4.75434e-05
0.000770394 -0.000179821 3.62458e-06
-0.000179821 0.000344952 -8.27667e-06
3.62458e-06 -8.27667e-06 0.000171908
-0.0011126 3.01621e-05 -7.65716e-06
3.01621e-05 -0.000826192 5.6458e-07
-7.65716e-06 5.6458e-07 -0.00107932
0.000589469 -0.00028732 -9.66401e-06
-0.00028732 0.000345718 1.48757e-05
-9.66401e-06 1.48757e-05 -3.18102e-05
0.00432956 -2.54497e-05 -1.42318e-05
-2.54497e-05 0.00259556 -5.33812e-06
-1.42318e-05 -5.33812e-06 0.00228232
-2.37655e-05 -0.000295111 -7.746e-06
-0.000295111 -0.00031142 -4.63228e-06
-7.746e-06 -4.63228e-06 -0.000863684
0.00248733 -0.00114973 -2.10698e-05
-0.00114973 0.00109612 4.05361e-05
-2.10698e-05 4.05361e-05 0.000322176
0.00344992 -0.00114627 -2.7301e-05
-0.00114627 0.00192314 2.03584e-05
-2.7301e-05 2.03584e-05 0.000926759
0.000261696 0.000164965 7.14798e-06
0.000164965 -3.69024e-05 -5.214e-06
7.14798e-06 -5.214e-06 -0.000319442
0.00220485 0.000524017 2.94863e-06
0.000524017 0.00120193 5.88799e-06
2.94863e-06 5.88799e-06 0.000774794
0.00270851 0.00078231 2.07091e-07
0.00078231 8.20828e-05 -7.34154e-07
2.07091e-07 -7.34154e-07 1.14755e-05
0.00284687 0.000426058 4.2852e-06
0.000426058 0.00104392 2.51828e-06
4.2852e-06 2.51828e-06 0.00069624
0.00138421 0.000880856 -1.76962e-06
0.000880856 0.000514185 -9.16706e-07
-1.76962e-06 -9.16706e-07 -0.000138464
0.00358857 0.000962522 -8.298e-06
0.000962522 0.00154005 1.05361e-05
-8.298e-06 1.05361e-05 0.00100266
0.00274772 0.000896481 -5.57779e-06
0.000896481 0.0004367 -4.15491e-07
-5.57779e-06 -4.15491e-07 9.74784e-05
0.0030711 0.000913031 -3.96038e-06
0.000913031 0.000506143 7.04325e-06
-3.96038e-06 7.04325e-06 0.000230818
0.00221908 0.0013228 -8.75737e-06
0.0013228 0.000741963 1.96687e-06
-8.75737e-06 1.96687e-06 -4.77314e-05
0.00242516 0.00145186 -1.65122e-05
0.00145186 0.000580096 -4.56468e-07
-1.65122e-05 -4.56468e-07 -0.000168326
-0.00101303 0.000176039 8.61407e-07
0.000176039 -0.000772224 6.33931e-07
8.61407e-07 6.33931e-07 -0.0010791
-0.000189559 0.00054604 4.77024e-06
0.00054604 -1.09597e-05 -1.65164e-06
4.77024e-06 -1.65164e-06 -0.000590623
0.0019302 0.00105875 1.38083e-07
0.00105875 0.000642925 -7.44343e-07
1.38083e-07 -7.44343e-07 -3.27791e-05
0.00282369 0.000751336 -7.6077e-06
0.000751336 0.0011126 -4.35296e-07
-7.6077e-06 -4.35296e-07 0.000677705
0.00275073 0.000668838 1.22384e-07
0.000668838 -0.000266006 1.82899e-07
1.22384e-07 1.82899e-07 -6.98379e-05
0.00289024 0.000945476 3.51131e-06
0.000945476 0.000211851 -8.95461e-07
3.51131e-06 -8.95461e-07 3.86739e-05
0.00264822 0.00113644 -4.51034e-06
0.00113644 0.000438391 -5.73684e-07
-4.51034e-06 -5.73684e-07 -8.70609e-05
0.00266601 0.00145805 1.58654e-06
0.00145805 0.000795536 5.28014e-07
1.58654e-06 5.28014e-07 -7.35547e-06
-0.00152558 -1.33602e-05 -6.02578e-06
-1.33602e-05 -0.00105842 -3.39486e-06
-6.02578e-06 -3.39486e-06 -0.00128048
0.00272721 0.000459919 6.73511e-07
0.000459919 -0.000308173 4.9866e-06
6.73511e-07 4.9866e-06 -6.76963e-05
0.00401683 0.000996902 -8.48258e-06
0.000996902 0.00261098 8.85769e-06
-8.48258e-06 8.85769e-06 0.00194619
0.00184634 0.000946966 3.62049e-06
0.000946966 0.000487679 -3.89549e-06
3.62049e-06 -3.89549e-06 -9.7945e-05
0.00287012 0.00092769 -2.22992e-05
0.00092769 -3.73566e-05 -1.40669e-05
-2.22992e-05 -1.40669e-05 3.84678e-05
0.00175033 0.00105901 8.78501e-06
0.00105901 -0.000206913 -1.24695e-05
8.78501e-06 -1.24695e-05 -0.000675284
0.00363638 0.0016118 4.46836e-06
0.0016118 0.00130298 4.01521e-06
4.46836e-06 4.01521e-06 0.000459008
0.000175852 0.000178597 3.14453e-06
0.000178597 1.72922e-05 8.08516e-06
3.14453e-06 8.08516e-06 -0.000219237
0.000392196 0.000160879 -2.95961e-06
0.000160879 0.000168675 -2.75597e-07
-2.95961e-06 -2.75597e-07 2.09522e-05
-0.00105502 3.68588e-05 -1.04022e-05
3.68588e-05 -0.000709779 3.46203e-07
-1.04022e-05 3.46203e-07 -0.000822078
4.64522e-05 1.96403e-06 3.09603e-06
1.96403e-06 -0.000169509 -4.46982e-09
3.09603e-06 -4.46982e-09 -0.000310415
0.000531262 0.000134837 5.40886e-06
0.000134837 0.000281221 -6.73572e-06
5.40886e-06 -6.73572e-06 1.84266e-05
-0.000588683 0.000142031 -6.14429e-06
0.000142031 -0.000397911 5.0679e-06
-6.14429e-06 5.0679e-06 -0.00060161
0.000468892 3.85345e-05 -1.60058e-06
3.85345e-05 0.000112708 -2.82237e-07
-1.60058e-06 -2.82237e-07 -3.93564e-05
0.000318048 2.37544e-06 -4.92073e-08
2.37544e-06 9.73417e-05 -6.97928e-07
-4.92073e-08 -6.97928e-07 -0.000119382
8.80678e-05 0.000111524 -7.52498e-06
0.000111524 -6.8944e-05 4.2594e-06
-7.52498e-06 4.2594e-06 -0.000170968
0.000675354 0.000170037 2.67179e-06
0.000170037 0.000404335 -3.59989e-06
2.67179e-06 -3.59989e-06 0.000124533
0.000532547 0.000144866 -2.55406e-07
0.000144866 0.000213322 -3.9561e-06
-2.55406e-07 -3.9561e-06 0.00014504
-0.000408867 6.77716e-05 7.78259e-06
6.77716e-05 -0.000354941 -1.00764e-05
7.78259e-06 -1.00764e-05 -0.000499796
0.000782436 0.000106497 -6.536e-06
0.000106497 0.000477036 7.6168e-06
-6.536e-06 7.6168e-06 0.000197825
0.000567372 5.60633e-05 -4.77094e-06
5.60633e-05 0.000223119 2.49438e-06
-4.77094e-06 2.49438e-06 1.33809e-05
0.000492776 5.0011e-05 6.39082e-07
5.0011e-05 0.000108998 2.08094e-06
6.39082e-07 2.08094e-06 -3.88817e-05
0.00037656 -8.07925e-05 -1.92725e-06
-8.07925e-05 1.19524e-05 3.21118e-06
-1.92725e-06 3.21118e-06 -9.03783e-05
0.000414448 1.93057e-05 4.41739e-07
1.93057e-05 2.8545e-05 -4.12446e-07
4.41739e-07 -4.12446e-07 -6.76034e-05
0.00133668 3.13615e-05 4.06445e-06
3.13615e-05 0.0006096 4.03867e-06
4.06445e-06 4.03867e-06 0.000580657
0.000416221 1.72527e-05 2.52044e-06
1.72527e-05 1.74696e-05 -2.30557e-06
2.52044e-06 -2.30557e-06 -6.98868e-05
0.00139248 2.18017e-05 -1.28912e-05
2.18017e-05 0.000644897 -2.19617e-06
-1.28912e-05 -2.19617e-06 0.000614564
0.0008091 4.14928e-06 3.88566e-05
4.14928e-06 0.000250426 1.01603e-05
3.88566e-05 1.01603e-05 0.000251749
0.00134448 -2.1676e-05 -1.18286e-05
-2.1676e-05 0.000605956 -8.50657e-06
-1.18286e-05 -8.50657e-06 0.000578623
0.000745975 -1.14095e-05 1.68708e-05
-1.14095e-05 0.000200392 4.26192e-06
1.68708e-05 4.26192e-06 0.00019941
0.000787639 -2.89657e-05 3.87375e-06
-2.89657e-05 0.000223315 -3.86858e-06
3.87375e-06 -3.86858e-06 0.000217614
0.000469752 -2.92463e-05 1.4543e-07
-2.92463e-05 4.68006e-05 -6.27679e-06
1.4543e-07 -6.27679e-06 -4.49046e-05
0.000192043 3.28696e-05 1.09074e-07
3.28696e-05 -0.000141815 -9.22823e-06
1.09074e-07 -9.22823e-06 -0.000190432
0.00022276 3.10295e-05 1.57134e-06
3.10295e-05 -0.000127584 9.79886e-07
1.57134e-06 9.79886e-07 -0.000184653
0.00356857 0.000146909 -1.8455e-06
0.000146909 0.00209101 -9.19748e-06
-1.8455e-06 -9.19748e-06 0.00207653
-5.77493e-05 -3.10131e-06 -2.84737e-06
-3.10131e-06 -0.00031378 9.87912e-06
-2.84737e-06 9.87912e-06 -0.000389458
0.00415044 0.000212972 -1.55044e-05
0.000212972 0.00250612 -2.02341e-06
-1.55044e-05 -2.02341e-06 0.0024719
0.00437741 0.000147456 -6.39106e-05
0.000147456 0.00264299 9.23572e-06
-6.39106e-05 9.23572e-06 0.0026243
0.00255296 0.000482555 1.64218e-06
0.000482555 -8.14969e-05 4.84803e-07
1.64218e-06 4.84803e-07 -3.20453e-06
0.00244112 0.000255307 -6.05338e-08
0.000255307 -8.67097e-05 4.3975e-07
-6.05338e-08 4.3975e-07 1.29106e-05
0.00231186 9.80666e-05 1.34636e-06
9.80666e-05 -0.000130075 6.69437e-07
1.34636e-06 6.69437e-07 -2.38641e-05
0.00224202 -1.61108e-05 -2.70594e-07
-1.61108e-05 -4.0393e-05 -8.92758e-08
-2.70594e-07 -8.92758e-08 9.72457e-06
0.00234819 -1.28978e-05 -6.20695e-07
-1.28978e-05 -0.000112287 -4.77053e-08
-6.20695e-07 -4.77053e-08 -8.63127e-06
0.00245729 0.000149164 8.93904e-07
0.000149164 -0.000160247 2.53995e-07
8.93904e-07 2.53995e-07 1.00397e-05
0.00260406 0.000366003 -6.77508e-07
0.000366003 -0.000147733 -1.31424e-07
-6.77508e-07 -1.31424e-07 7.22033e-07
0.00241974 -1.33316e-05 1.45623e-06
-1.33316e-05 -0.000210204 -1.63282e-07
1.45623e-06 -1.63282e-07 -2.44883e-05
0.00273705 0.000183872 2.69284e-06
0.000183872 -0.000178334 -8.93609e-07
2.69284e-06 -8.93609e-07 4.38934e-05
0.00248979 0.000185572 -1.03568e-06
0.000185572 -0.000461733 1.02743e-05
-1.03568e-06 1.02743e-05 -0.000194421
0.00237498 -0.000124922 8.07015e-07
-0.000124922 -7.61084e-05 -7.43231e-07
8.07015e-07 -7.43231e-07 9.61684e-06
0.00248253 -0.00035142 -2.38858e-06
-0.00035142 -0.000158834 -4.15172e-07
-2.38858e-06 -4.15172e-07 -2.15147e-05
0.00258227 -0.000583124 1.33689e-06
-0.000583124 -4.71514e-05 -2.51756e-08
1.33689e-06 -2.51756e-08 8.26523e-06
0.00222094 -0.00119145 -3.9041e-06
-0.00119145 0.000784518 -2.11134e-06
-3.9041e-06 -2.11134e-06 2.32737e-05
0.00198515 -0.00123997 2.71918e-05
-0.00123997 0.000424568 -6.13242e-06
2.71918e-05 -6.13242e-06 -0.000292444
0.00270427 -0.00114364 2.53704e-05
-0.00114364 0.00057077 -3.55781e-06
2.53704e-05 -3.55781e-06 5.28312e-05
0.00261915 -0.000823085 2.02883e-06
-0.000823085 1.36321e-05 -2.32884e-06
2.02883e-06 -2.32884e-06 -2.86756e-05
0.00272584 -0.00103448 3.03315e-06
-0.00103448 0.00032814 2.42564e-07
3.03315e-06 2.42564e-07 5.89382e-05
0.002131 -0.00102858 -4.57502e-07
-0.00102858 0.00097899 -1.89343e-05
-4.57502e-07 -1.89343e-05 0.000215194
0.00046035 -0.000595128 6.8946e-06
-0.000595128 0.000172976 -1.51333e-05
6.8946e-06 -1.51333e-05 -0.000637413
0.00311772 -0.000431862 2.63203e-06
-0.000431862 0.001704 3.45156e-06
2.63203e-06 3.45156e-06 0.00131239
0.000558386 -7.12426e-05 -3.70563e-06
-7.12426e-05 0.000146295 8.67478e-06
-3.70563e-06 8.67478e-06 1.45941e-05
-0.000511795 -2.98679e-05 8.62348e-06
-2.98679e-05 -0.000429158 -5.20538e-06
8.62348e-06 -5.20538e-06 -0.000768678
-0.00145541 -8.17957e-05 1.87618e-06
-8.17957e-05 -0.0012656 -1.22337e-05
1.87618e-06 -1.22337e-05 -0.00159913
0.00245985 -0.000177822 5.83695e-08
-0.000177822 -0.000176805 -6.44692e-07
5.83695e-08 -6.44692e-07 -1.17705e-06
0.000556814 -4.55005e-05 1.64022e-06
-4.55005e-05 0.000118525 3.27896e-07
1.64022e-06 3.27896e-07 1.22561e-05
0.000389411 -0.000112101 -3.27745e-06
-0.000112101 6.83147e-05 -2.86479e-07
-3.27745e-06 -2.86479e-07 -8.2256e-05
0.00265994 -0.00048698 -4.62693e-08
-0.00048698 -0.000190516 2.14271e-07
-4.62693e-08 2.14271e-07 9.18707e-07
0.00266273 -0.000742892 -1.66188e-06
-0.000742892 -6.5128e-05 2.89621e-07
-1.66188e-06 2.89621e-07 -4.50549e-06
0.00243744 -0.00130219 1.26501e-06
-0.00130219 0.000953065 1.09701e-06
1.26501e-06 1.09701e-06 0.000170243
0.00298933 -0.00152263 1.08057e-05
-0.00152263 0.000945173 -2.55136e-06
1.08057e-05 -2.55136e-06 0.000150484
0.00273763 -0.0012675 3.83918e-06
-0.0012675 0.000486312 -7.88248e-07
3.83918e-06 -7.88248e-07 1.15387e-05
0.00275528 -0.00103892 2.38496e-06
-0.00103892 0.000135251 -1.40146e-06
2.38496e-06 -1.40146e-06 -7.70477e-06
0.000209323 -3.45013e-05 -3.16529e-06
-3.45013e-05 2.84106e-05 -1.99001e-06
-3.16529e-06 -1.99001e-06 -0.000224883
0.000826543 -0.00022566 -9.72001e-07
-0.00022566 0.000499277 6.41953e-07
-9.72001e-07 6.41953e-07 0.000113532
0.00154597 -0.000970343 1.50425e-05
-0.000970343 0.0006123 7.15839e-06
1.50425e-05 7.15839e-06 -0.00012997
0.000980434 -0.000757194 1.41392e-05
-0.000757194 0.000524208 -1.66829e-05
1.41392e-05 -1.66829e-05 -0.000452368
0.000766568 -0.00035849 -4.88933e-07
-0.00035849 0.000304095 8.74366e-07
-4.88933e-07 8.74366e-07 -0.00028813
0.00102691 -0.000172758 6.88388e-06
-0.000172758 0.000459697 -1.53577e-06
6.88388e-06 -1.53577e-06 0.000176555
0.00251686 -0.000208906 2.21839e-06
-0.000208906 -0.000408446 -2.63117e-06
2.21839e-06 -2.63117e-06 -0.000124199
0.00286515 -0.000655976 -2.10344e-06
-0.000655976 -0.000173198 4.17571e-06
-2.10344e-06 4.17571e-06 9.07269e-05
0.00308749 -0.001094 -1.27588e-06
-0.001094 0.000126097 1.72358e-06
-1.27588e-06 1.72358e-06 8.007e-05
0.00260326 -0.0012375 1.90606e-06
-0.0012375 0.000183607 -8.63274e-06
1.90606e-06 -8.63274e-06 -0.000135408
0.000874104 -0.0011575 1.1784e-06
-0.0011575 9.35352e-05 -6.77889e-06
1.1784e-06 -6.77889e-06 -0.000670157
0.00368971 -0.00175784 2.08852e-06
-0.00175784 0.00117401 -8.45109e-06
2.08852e-06 -8.45109e-06 0.000364168
0.000350337 5.68128e-05 -3.11248e-06
5.68128e-05 2.45757e-05 -7.42289e-06
-3.11248e-06 -7.42289e-06 -0.000120307
-0.000585667 -7.5986e-05 4.36801e-06
-7.5986e-05 -0.00055294 -3.61787e-06
4.36801e-06 -3.61787e-06 -0.000714422
0.00166175 -0.000248779 -7.98717e-06
-0.000248779 0.000894519 1.31201e-05
-7.98717e-06 1.31201e-05 0.000702346
0.000355335 -6.5459e-05 -5.79087e-06
-6.5459e-05 0.000135022 1.65921e-05
-5.79087e-06 1.65921e-05 -0.000163865
0.00134641 -0.000332017 -1.22423e-05
-0.000332017 0.000809741 2.63321e-05
-1.22423e-05 2.63321e-05 0.000434037
-0.000810762 -0.000102627 -9.91123e-06
-0.000102627 -0.000715211 -2.13604e-05
-9.91123e-06 -2.13604e-05 -0.000955986
-0.00162607 -0.000278365 -2.71461e-05
-0.000278365 -0.000642029 5.70171e-06
-2.71461e-05 5.70171e-06 -0.00174088
0.00120327 -0.00127639 -4.92411e-05
-0.00127639 0.000161084 2.36346e-05
-4.92411e-05 2.36346e-05 -0.000443359
-0.000374096 0.000355096 1.88414e-06
0.000355096 -0.000263777 1.26036e-06
1.88414e-06 1.26036e-06 -0.000649593
0.00376144 0.000717868 -5.80017e-06
0.000717868 0.00237911 -2.59047e-06
-5.80017e-06 -2.59047e-06 0.00188276
0.00265669 0.000629859 -2.56713e-06
0.000629859 -0.000353321 -4.04421e-06
-2.56713e-06 -4.04421e-06 -0.000133102
0.00306118 0.000953806 -5.17391e-06
0.000953806 0.000318906 -1.94726e-07
-5.17391e-06 -1.94726e-07 0.000123917
0.00376407 0.000809588 -7.57132e-06
0.000809588 0.00173881 3.76383e-06
-7.57132e-06 3.76383e-06 0.00129759
0.00169261 0.00106081 -1.71475e-05
0.00106081 0.000439345 -2.81108e-06
-1.71475e-05 -2.81108e-06 -0.000250347
0.00244258 0.00108682 -6.52802e-06
0.00108682 0.000374093 3.43139e-06
-6.52802e-06 3.43139e-06 -0.000132903
0.00290303 0.00145226 -1.1624e-05
0.00145226 0.00092431 -1.05177e-06
-1.1624e-05 -1.05177e-06 0.000137707
0.000344083 0.000301455 3.28481e-06
0.000301455 0.000218161 6.56476e-07
3.28481e-06 6.56476e-07 -9.55846e-05
0.00268298 0.00045004 -3.62723e-06
0.00045004 -0.000339401 -4.28256e-06
-3.62723e-06 -4.28256e-06 -7.9923e-05
0.00210131 0.0006969 3.01375e-06
0.0006969 0.0014247 6.35339e-06
3.01375e-06 6.35339e-06 0.000861071
0.00177477 0.000917454 3.96815e-06
0.000917454 0.000507415 2.17939e-06
3.96815e-06 2.17939e-06 -7.47219e-05
0.00298534 0.000893752 3.24204e-07
0.000893752 8.23659e-05 6.98086e-07
3.24204e-07 6.98086e-07 0.000154985
0.00235281 0.00115263 -3.01312e-06
0.00115263 0.000153227 -6.51445e-06
-3.01312e-06 -6.51445e-06 -0.00033051
0.00314373 0.00150031 -2.18044e-06
0.00150031 0.00103981 -3.51845e-07
-2.18044e-06 -3.51845e-07 0.000232035
0.00166821 0.000529431 -9.15887e-06
0.000529431 0.00118655 -1.96857e-06
-9.15887e-06 -1.96857e-06 0.000745163
0.00453483 0.000932197 -0.000133908
0.000932197 0.000577217 -5.09328e-05
-0.000133908 -5.09328e-05 0.00103737
0.00164265 0.000768305 -6.32309e-06
0.000768305 0.000976468 1.34883e-05
-6.32309e-06 1.34883e-05 0.000384544
0.00142897 0.000984817 -1.89631e-06
0.000984817 0.000314596 -1.0674e-05
-1.89631e-06 -1.0674e-05 -0.000356959
0.00369571 0.00128769 -4.96431e-05
0.00128769 0.000759025 -2.61366e-05
-4.96431e-05 -2.61366e-05 0.000485604
0.00155075 0.001249 -3.20044e-05
0.001249 0.000142977 -5.86366e-06
-3.20044e-05 -5.86366e-06 -0.000566436
0.00128763 0.00197707 -2.05398e-06
0.00197707 -0.00324761 -7.56947e-05
-2.05398e-06 -7.56947e-05 -0.00144265
0.000969877 0.000266878 1.1292e-05
0.000266878 0.000590172 1.27168e-05
1.1292e-05 1.27168e-05 0.000415226
0.000181893 0.000163353 -1.75646e-06
0.000163353 0.00011255 -8.06667e-07
-1.75646e-06 -8.06667e-07 -3.26186e-05
-0.000846047 6.89063e-05 -3.68339e-06
6.89063e-05 -0.000533458 3.03225e-06
-3.68339e-06 3.03225e-06 -0.000670883
0.000311281 -6.13052e-05 3.25672e-06
-6.13052e-05 1.16429e-05 -1.45055e-06
3.25672e-06 -1.45055e-06 -0.000142296
-0.000392977 1.72215e-06 3.87772e-06
1.72215e-06 -0.000360591 -3.56046e-06
3.87772e-06 -3.56046e-06 -0.000577083
0.00194808 0.000348399 4.63759e-07
0.000348399 0.00125136 -8.97715e-06
4.63759e-07 -8.97715e-06 0.000944732
-0.00140327 2.81845e-05 -6.21667e-06
2.81845e-05 -0.000963705 1.35794e-05
-6.21667e-06 1.35794e-05 -0.00105337
0.000462037 -9.03765e-07 -3.73802e-07
-9.03765e-07 0.000104957 -3.61902e-07
-3.73802e-07 -3.61902e-07 -5.31599e-05
0.000368751 9.8287e-05 4.76105e-07
9.8287e-05 5.76583e-05 -4.63032e-07
4.76105e-07 -4.63032e-07 -0.000120697
-0.000409549 9.57874e-05 1.17673e-06
9.57874e-05 -0.00034578 3.5904e-06
1.17673e-06 3.5904e-06 -0.000394778
7.84351e-05 8.90191e-05 7.07926e-07
8.90191e-05 -9.40397e-06 -1.877e-07
7.07926e-07 -1.877e-07 -0.000264621
0.000586162 0.00010489 6.22681e-08
0.00010489 0.000267951 -2.90838e-07
6.22681e-08 -2.90838e-07 0.000112341
0.000139146 0.00010861 1.30777e-05
0.00010861 8.11677e-05 -1.10577e-05
1.30777e-05 -1.10577e-05 -3.5598e-05
0.000891211 0.000169946 -6.55481e-06
0.000169946 0.000508221 8.71097e-06
-6.55481e-06 8.71097e-06 0.000278117
0.000857502 0.000136733 -4.36749e-06
0.000136733 0.000455003 3.18953e-06
-4.36749e-06 3.18953e-06 0.000223935
0.0007374 0.000147886 -7.32746e-06
0.000147886 0.000312894 -2.18382e-06
-7.32746e-06 -2.18382e-06 0.000117421
9.81276e-05 7.07081e-06 -2.43055e-06
7.07081e-06 -0.00015858 6.76065e-07
-2.43055e-06 6.76065e-07 -0.00030233
0.00172549 -0.000201383 5.84348e-06
-0.000201383 0.00110574 -1.00829e-05
5.84348e-06 -1.00829e-05 0.000780934
2.96805e-05 -8.18099e-05 -3.37429e-06
-8.18099e-05 -0.000183453 3.55621e-06
-3.37429e-06 3.55621e-06 -0.000347076
0.000285208 3.47656e-06 -2.41645e-06
3.47656e-06 -3.95142e-05 2.84317e-06
-2.41645e-06 2.84317e-06 -0.000144452
0.000397541 5.1873e-05 2.29267e-06
5.1873e-05 3.22102e-05 -1.10741e-07
2.29267e-06 -1.10741e-07 -7.3786e-05
0.000293121 2.03536e-05 -3.14223e-06
2.03536e-05 -6.75793e-05 5.42796e-06
-3.14223e-06 5.42796e-06 -0.000102908
0.000291953 -1.07938e-06 -8.97125e-07
-1.07938e-06 -3.94292e-05 -3.59901e-06
-8.97125e-07 -3.59901e-06 -0.000143776
0.000828735 1.82535e-05 -5.17868e-06
1.82535e-05 0.000279888 -1.57913e-06
-5.17868e-06 -1.57913e-06 0.000247864
0.00274437 9.27834e-06 3.50091e-05
9.27834e-06 0.00152248 6.6777e-06
3.50091e-05 6.6777e-06 0.00153372
0.00142334 6.64166e-05 -2.16659e-05
6.64166e-05 0.000670291 -8.50611e-06
-2.16659e-05 -8.50611e-06 0.000638104
0.000767341 -2.37845e-06 1.62507e-05
-2.37845e-06 0.000218312 4.1657e-06
1.62507e-05 4.1657e-06 0.000218279
0.000805732 -1.81774e-05 3.05008e-06
-1.81774e-05 0.000235848 -3.49496e-06
3.05008e-06 -3.49496e-06 0.000233508
0.000268014 1.04271e-05 -2.88825e-06
1.04271e-05 -6.28927e-05 -6.8218e-06
-2.88825e-06 -6.8218e-06 -0.000153108
0.000577356 -6.0127e-05 3.19303e-07
-6.0127e-05 0.000130677 -5.38569e-07
3.19303e-07 -5.38569e-07 2.89613e-05
0.000319748 2.82549e-05 -6.38268e-07
2.82549e-05 -6.79517e-05 -7.1238e-06
-6.38268e-07 -7.1238e-06 -0.000105772
0.000912073 4.67124e-05 5.03709e-09
4.67124e-05 0.000326965 1.35481e-07
5.03709e-09 1.35481e-07 0.00028188
0.00303934 0.000111458 -7.38763e-06
0.000111458 0.0017342 -8.25189e-06
-7.38763e-06 -8.25189e-06 0.00172878
0.000585899 4.65688e-05 1.75959e-06
4.65688e-05 0.00012137 1.0828e-05
1.75959e-06 1.0828e-05 6.03065e-05
0.00305292 0.000144404 -5.20009e-06
0.000144404 0.00175592 -5.01999e-07
-5.20009e-06 -5.01999e-07 0.00174157
0.00442874 0.000154875 -2.53667e-05
0.000154875 0.00266899 9.40475e-06
-2.53667e-05 9.40475e-06 0.00264552
0.00252514 0.000380137 -7.48884e-07
0.000380137 -0.000181913 -5.83482e-07
-7.48884e-07 -5.83482e-07 -3.33821e-05
0.00241532 0.000148115 -3.9379e-07
0.000148115 -0.00018994 3.66443e-07
-3.9379e-07 3.66443e-07 -1.6821e-05
0.00235278 -9.4993e-06 1.4275e-06
-9.4993e-06 -0.000113614 7.30392e-08
1.4275e-06 7.30392e-08 -6.18516e-06
0.00240715 -4.79727e-06 -1.20771e-08
-4.79727e-06 -0.000219028 6.91471e-08
-1.20771e-08 6.91471e-08 -3.18389e-05
0.00272402 0.000198152 1.29375e-06
0.000198152 -0.000170454 7.82496e-08
1.29375e-06 7.82496e-08 5.09862e-05
0.00266956 0.000156938 4.68789e-06
0.000156938 -0.000346683 -2.16124e-06
4.68789e-06 -2.16124e-06 -8.93291e-05
0.00284207 4.80803e-05 3.93845e-06
4.80803e-05 -0.000243721 2.13566e-06
3.93845e-06 2.13566e-06 4.53814e-05
0.00661652 0.00216791 3.15839e-05
0.00216791 -0.00138551 2.51569e-05
3.15839e-05 2.51569e-05 0.000747688
0.00280675 0.000188574 -6.72252e-05
0.000188574 -0.000319364 1.60414e-05
-6.72252e-05 1.60414e-05 0.000165153
0.000354332 0.000119844 -5.053e-06
0.000119844 3.52803e-05 -3.91965e-06
-5.053e-06 -3.91965e-06 -0.000106373
0.00246729 -0.000178181 -1.29106e-06
-0.000178181 -0.00018084 -4.32691e-08
-1.29106e-06 -4.32691e-08 -4.37788e-07
0.00260066 -0.000474951 -2.57179e-06
-0.000474951 -0.000210356 -7.33727e-07
-2.57179e-06 -7.33727e-07 -3.05571e-05
0.00267855 -0.000727124 2.17731e-06
-0.000727124 -3.84382e-05 -2.54965e-06
2.17731e-06 -2.54965e-06 2.829e-05
0.00197217 -0.00124935 -1.02969e-05
-0.00124935 0.00068817 7.76472e-07
-1.02969e-05 7.76472e-07 -8.33028e-05
0.00257093 -0.00143668 2.782e-05
-0.00143668 0.000706811 1.12601e-06
2.782e-05 1.12601e-06 -5.33189e-05
0.00236028 -0.00120163 -7.07793e-06
-0.00120163 0.000295399 3.91241e-06
-7.07793e-06 3.91241e-06 -0.000161721
0.00268173 -0.00103857 3.44186e-06
-0.00103857 8.45958e-05 -8.19564e-07
3.44186e-06 -8.19564e-07 -5.28076e-05
0.0022969 -0.00103237 3.5686e-05
-0.00103237 0.0010075 -5.27747e-05
3.5686e-05 -5.27747e-05 0.000296066
0.00211838 -0.000950864 3.55184e-05
-0.000950864 0.00111319 -4.20023e-05
3.55184e-05 -4.20023e-05 0.000175101
0.000414702 -0.000390749 2.00202e-05
-0.000390749 0.000173413 9.85087e-06
2.00202e-05 9.85087e-06 -0.000470384
0.000488518 -2.27829e-05 -1.40315e-07
-2.27829e-05 7.37687e-05 6.99492e-06
-1.40315e-07 6.99492e-06 -3.80506e-05
0.00116182 -0.000213698 -1.20411e-06
-0.000213698 0.000552063 3.72351e-06
-1.20411e-06 3.72351e-06 0.000251651
0.00144058 -0.000184578 9.28664e-06
-0.000184578 0.000886734 -2.29392e-06
9.28664e-06 -2.29392e-06 0.00059201
0.000132341 -0.000131282 6.53746e-06
-0.000131282 1.39051e-05 -1.43726e-05
6.53746e-06 -1.43726e-05 -0.000347192
0.000198135 -8.75008e-05 -6.47574e-06
-8.75008e-05 -5.21281e-05 6.25534e-06
-6.47574e-06 6.25534e-06 -0.000205499
0.00263435 -0.000232122 -1.2931e-06
-0.000232122 -0.000335083 -1.53087e-06
-1.2931e-06 -1.53087e-06 -4.78283e-05
0.000388912 4.56315e-05 1.08072e-06
4.56315e-05 6.4768e-05 -2.40944e-06
1.08072e-06 -2.40944e-06 -8.88128e-05
0.000713012 -0.000178616 2.18891e-06
-0.000178616 0.00037069 2.72495e-06
2.18891e-06 2.72495e-06 0.000150058
0.000734761 -0.00014333 9.92835e-06
-0.00014333 0.00028782 8.15416e-07
9.92835e-06 8.15416e-07 0.000122816
0.00271316 -0.000657352 2.51976e-06
-0.000657352 -0.000281967 -6.36518e-07
2.51976e-06 -6.36518e-07 -3.15812e-05
0.00297494 -0.00106242 -9.38141e-07
-0.00106242 8.27259e-05 -4.60895e-07
-9.38141e-07 -4.60895e-07 4.99175e-05
0.00182883 -0.00119492 -1.21414e-06
-0.00119492 0.00060082 1.38832e-06
-1.21414e-06 1.38832e-06 -0.000102959
0.00256126 -0.00158457 1.17367e-05
-0.00158457 0.000547493 -1.23885e-07
1.17367e-05 -1.23885e-07 -0.000207904
0.00285452 -0.00128228 -2.7901e-08
-0.00128228 0.00033328 3.44878e-07
-2.7901e-08 3.44878e-07 -7.77562e-06
0.000207743 -7.71443e-05 -1.34161e-06
-7.71443e-05 3.07087e-05 -1.17135e-06
-1.34161e-06 -1.17135e-06 -0.000258425
0.00145654 -0.000314823 7.30452e-06
-0.000314823 0.000900354 -4.74955e-07
7.30452e-06 -4.74955e-07 0.000521859
0.00331747 -0.0015867 -3.90297e-06
-0.0015867 0.00139811 9.1826e-06
-3.90297e-06 9.1826e-06 0.000596508
0.00200034 -0.000623449 -2.24312e-06
-0.000623449 0.00119523 9.0474e-06
-2.24312e-06 9.0474e-06 0.00035617
0.0019452 -0.000217777 1.29086e-05
-0.000217777 0.0010062 1.07372e-05
1.29086e-05 1.07372e-05 0.000725848
0.00294817 -0.000456116 -2.21183e-05
-0.000456116 -0.000269814 3.85215e-06
-2.21183e-05 3.85215e-06 8.6415e-05
0.0025805 -0.000770828 -2.46246e-05
-0.000770828 -0.000366251 1.1926e-05
-2.46246e-05 1.1926e-05 -1.5998e-05
0.00301406 -0.00129494 -6.63931e-06
-0.00129494 0.00027535 -4.10498e-06
-6.63931e-06 -4.10498e-06 7.25355e-06
0.00375261 -0.00161401 1.05798e-05
-0.00161401 0.00110263 -2.28826e-06
1.05798e-05 -2.28826e-06 0.000506474
0.00132867 -0.00135747 -1.02597e-06
-0.00135747 0.000132734 1.31202e-05
-1.02597e-06 1.31202e-05 -0.000594115
0.000336224 -2.58465e-05 -8.40614e-07
-2.58465e-05 3.16051e-05 1.77564e-06
-8.40614e-07 1.77564e-06 -0.000110277
-0.000407756 -5.87911e-05 -5.71524e-06
-5.87911e-05 -0.000483211 1.78967e-05
-5.71524e-06 1.78967e-05 -0.000674848
0.000153738 -0.000246317 -6.37315e-06
-0.000246317 -2.6287e-05 3.63554e-06
-6.37315e-06 3.63554e-06 -0.000216845
0.00187077 -0.000418343 -4.87783e-05
-0.000418343 0.00111787 4.71883e-05
-4.87783e-05 4.71883e-05 0.000758234
0.00149582 -0.000287169 2.5243e-06
-0.000287169 0.000865857 2.33743e-05
2.5243e-06 2.33743e-05 0.000573707
-0.000766882 -0.000117134 -1.11185e-05
-0.000117134 -0.000144581 3.24828e-07
-1.11185e-05 3.24828e-07 -0.000813693
0.00235684 -0.00169054 -1.55502e-05
-0.00169054 0.00119278 -1.85718e-05
-1.55502e-05 -1.85718e-05 0.000216437
0.00298596 0.000710779 7.12545e-06
0.000710779 0.00191339 2.17844e-06
7.12545e-06 2.17844e-06 0.00152255
-0.000900298 0.000269224 -1.63012e-06
0.000269224 -0.000418419 -1.33632e-06
-1.63012e-06 -1.33632e-06 -0.000865232
0.00263976 0.000434314 1.4347e-05
0.000434314 -0.000378181 2.13605e-06
1.4347e-05 2.13605e-06 -8.8844e-05
0.00310964 0.000861286 2.12504e-05
0.000861286 0.000197464 1.29839e-05
2.12504e-05 1.29839e-05 0.000273138
0.00293352 0.00124202 4.1166e-06
0.00124202 0.000500136 5.03735e-06
4.1166e-06 5.03735e-06 3.15074e-06
0.00146904 0.000856226 -5.49537e-06
0.000856226 0.000388867 2.40284e-06
-5.49537e-06 2.40284e-06 -0.000180578
0.00268582 0.0013989 3.4749e-06
0.0013989 0.000798966 6.54154e-06
3.4749e-06 6.54154e-06 2.48058e-05
0.00272271 0.000585491 -6.85876e-07
0.000585491 0.00183017 1.01294e-07
-6.85876e-07 1.01294e-07 0.00141656
0.00324711 0.000736024 1.90339e-05
0.000736024 -0.000149938 6.16021e-06
1.90339e-05 6.16021e-06 0.000405487
0.00121369 0.000652816 -6.50649e-06
0.000652816 0.000649507 5.53862e-06
-6.50649e-06 5.53862e-06 0.000134571
0.0021007 0.00110604 3.40023e-06
0.00110604 0.000736936 -2.22303e-06
3.40023e-06 -2.22303e-06 1.64849e-05
0.00308607 0.00118972 -3.15715e-06
0.00118972 0.000468625 -4.08991e-06
-3.15715e-06 -4.08991e-06 0.000247315
0.0025474 0.00140594 -5.19323e-06
0.00140594 0.000689353 8.49537e-06
-5.19323e-06 8.49537e-06 -6.47291e-05
0.00308962 0.00241403 5.9779e-05
0.00241403 -0.00257728 7.85502e-06
5.9779e-05 7.85502e-06 -0.000943612
0.000425869 0.000404046 4.33618e-06
0.000404046 0.000509443 1.99973e-06
4.33618e-06 1.99973e-06 -2.99083e-06
0.00467001 0.00155174 -0.000139688
0.00155174 0.000731631 -5.87241e-05
-0.000139688 -5.87241e-05 0.000841179
8.9205e-05 0.000650273 -1.93243e-05
0.000650273 -0.000287878 8.39094e-06
-1.93243e-05 8.39094e-06 -0.000822149
0.00102168 0.00107997 -5.40658e-06
0.00107997 5.79789e-05 -2.3559e-05
-5.40658e-06 -2.3559e-05 -0.00064604
0.00329731 0.00163955 -5.65975e-05
0.00163955 0.000802846 -3.04112e-05
-5.65975e-05 -3.04112e-05 0.000242217
0.0158316 0.00112476 -0.00093053
0.00112476 -0.000533743 -8.0073e-05
-0.00093053 -8.0073e-05 0.00118987
0.00269498 0.00368093 -0.000186607
0.00368093 -0.00538916 -0.000175755
-0.000186607 -0.000175755 -0.000662771
0.000543777 0.00275846 3.17778e-05
0.00275846 -0.00176405 -1.02225e-05
3.17778e-05 -1.02225e-05 -0.00155746
0.00583331 -0.00697811 0.00382251
-0.00697811 0.00456647 -0.000156656
0.00382251 -0.000156656 -0.0037392
0.0357674 -0.0184142 -0.000175055
-0.0184142 0.0244223 -9.47545e-06
-0.000175055 -9.47545e-06 0.00968099
0.00234135 0.000317471 1.3359e-05
0.000317471 0.00149389 6.27981e-06
1.3359e-05 6.27981e-06 0.00131411
0.000600006 0.000152683 1.25753e-06
0.000152683 0.000419181 2.54533e-06
1.25753e-06 2.54533e-06 0.0002453
0.000106474 0.000204168 1.31565e-05
0.000204168 0.000168946 -9.88908e-07
1.31565e-05 -9.88908e-07 -5.94835e-05
0.000520858 -5.36613e-05 1.77125e-06
-5.36613e-05 0.000153887 -8.71601e-07
1.77125e-06 -8.71601e-07 -1.17014e-05
0.000560663 8.63352e-05 5.58436e-06
8.63352e-05 0.000206157 -3.18323e-06
5.58436e-06 -3.18323e-06 2.25745e-05
0.000336359 -3.52916e-05 3.53709e-06
-3.52916e-05 0.000151181 -7.76181e-06
3.53709e-06 -7.76181e-06 -0.000101162
0.000803645 0.000130026 6.3502e-06
0.000130026 0.000387999 4.90518e-06
6.3502e-06 4.90518e-06 0.000228806
6.7626e-05 0.000112052 7.65267e-06
0.000112052 -2.35802e-05 1.05479e-05
7.65267e-06 1.05479e-05 -5.8608e-05
0.000654653 0.000151736 -3.05539e-06
0.000151736 0.000364513 1.90915e-06
-3.05539e-06 1.90915e-06 0.000114387
0.000356595 -7.3786e-07 5.91971e-07
-7.3786e-07 2.10224e-05 6.70325e-07
5.91971e-07 6.70325e-07 -0.000133316
0.000755581 9.30578e-05 -1.15719e-06
9.30578e-05 0.000331709 1.33368e-07
-1.15719e-06 1.33368e-07 0.000135259
6.23324e-05 0.00010606 -2.38578e-06
0.00010606 5.72998e-06 -5.81916e-06
-2.38578e-06 -5.81916e-06 -9.92483e-05
0.000321893 9.90975e-05 1.58056e-06
9.90975e-05 0.000139827 5.20138e-07
1.58056e-06 5.20138e-07 -7.19206e-05
0.00130877 0.000183152 -2.4709e-06
0.000183152 0.000819174 1.07857e-05
-2.4709e-06 1.07857e-05 0.000558064
4.17963e-05 7.57041e-05 2.48279e-06
7.57041e-05 8.35261e-05 -2.2541e-06
2.48279e-06 -2.2541e-06 -0.00015693
0.000925329 0.000119472 -6.95737e-07
0.000119472 0.000517513 5.59423e-07
-6.95737e-07 5.59423e-07 0.000288983
0.000279432 2.04774e-05 -3.92855e-06
2.04774e-05 -1.23954e-05 -2.97004e-06
-3.92855e-06 -2.97004e-06 -0.000194507
-3.85119e-05 -4.0612e-05 -1.9056e-06
-4.0612e-05 -0.000240218 -4.14107e-08
-1.9056e-06 -4.14107e-08 -0.000395143
-0.000337609 -1.35811e-05 1.02382e-06
-1.35811e-05 -0.00037581 -3.5606e-06
1.02382e-06 -3.5606e-06 -0.000567764
0.001494 -0.000152216 1.20134e-05
-0.000152216 0.000868272 6.33535e-07
1.20134e-05 6.33535e-07 0.000653205
0.00100297 -0.000118852 -6.967e-07
-0.000118852 0.000610092 -4.95557e-06
-6.967e-07 -4.95557e-06 0.000349686
0.00113765 -0.000220686 3.39394e-06
-0.000220686 0.000653942 9.76963e-07
3.39394e-06 9.76963e-07 0.000386789
0.000357649 -0.000142407 -3.99389e-06
-0.000142407 6.29299e-05 -1.74595e-06
-3.99389e-06 -1.74595e-06 -0.000118624
-0.000359687 -5.27454e-05 -9.38133e-07
-5.27454e-05 -0.000427198 1.95273e-06
-9.38133e-07 1.95273e-06 -0.000597723
0.000480256 -8.64885e-05 -2.62845e-06
-8.64885e-05 7.28632e-05 2.72107e-06
-2.62845e-06 2.72107e-06 -2.31492e-05
0.000471036 -5.58951e-05 2.83212e-06
-5.58951e-05 7.91161e-05 5.22764e-08
2.83212e-06 5.22764e-08 -2.72495e-05
0.00032653 4.60515e-06 4.97437e-06
4.60515e-06 -4.24779e-05 7.3778e-06
4.97437e-06 7.3778e-06 -7.84574e-05
0.000459472 7.57526e-05 -1.77285e-06
7.57526e-05 6.31186e-05 -3.84415e-06
-1.77285e-06 -3.84415e-06 -3.68685e-05
0.000313137 3.06834e-05 5.71701e-07
3.06834e-05 -5.49788e-05 1.80351e-07
5.71701e-07 1.80351e-07 -8.99554e-05
0.00269257 1.64276e-05 2.13921e-05
1.64276e-05 0.00148963 6.27491e-06
2.13921e-05 6.27491e-06 0.00149982
0.000350103 7.68879e-05 -6.25402e-06
7.68879e-05 -2.68029e-05 -8.86161e-06
-6.25402e-06 -8.86161e-06 -6.74748e-05
0.00171026 1.82911e-06 -1.29344e-05
1.82911e-06 0.000841019 -4.68543e-08
-1.29344e-05 -4.68543e-08 0.000845779
0.000775102 -7.84745e-06 2.02646e-06
-7.84745e-06 0.000216885 -2.34157e-06
2.02646e-06 -2.34157e-06 0.000216537
0.000367957 2.27193e-05 -3.88907e-07
2.27193e-05 -1.82518e-05 -4.38235e-06
-3.88907e-07 -4.38235e-06 -8.63906e-05
0.000450934 -5.45487e-05 1.54317e-06
-5.45487e-05 5.48877e-05 1.03718e-07
1.54317e-06 1.03718e-07 -3.66812e-05
0.000389274 5.43636e-07 2.32443e-06
5.43636e-07 -2.85413e-05 -6.30881e-06
2.32443e-06 -6.30881e-06 -5.69798e-05
0.000560688 -8.45569e-05 -1.51343e-06
-8.45569e-05 0.000122099 3.99119e-06
-1.51343e-06 3.99119e-06 1.74713e-05
0.000901881 3.7776e-05 5.67125e-07
3.7776e-05 0.000315518 -1.03608e-06
5.67125e-07 -1.03608e-06 0.000279607
0.00275547 7.88958e-05 -3.01601e-06
7.88958e-05 0.00153693 -7.10671e-06
-3.01601e-06 -7.10671e-06 0.00153944
0.000326704 2.7191e-05 -1.69642e-06
2.7191e-05 -6.62566e-05 8.58335e-06
-1.69642e-06 8.58335e-06 -0.000113159
0.00330883 0.000126694 -2.51404e-06
0.000126694 0.00191884 1.91506e-06
-2.51404e-06 1.91506e-06 0.00191004
0.00362739 0.000167912 3.02618e-05
0.000167912 0.0021443 1.35675e-05
3.02618e-05 1.35675e-05 0.00212392
0.00269332 0.000214356 -3.06413e-06
0.000214356 -0.000174191 -1.1989e-06
-3.06413e-06 -1.1989e-06 4.62825e-05
0.0023961 6.96329e-07 -1.16867e-06
6.96329e-07 -0.000222372 -1.66456e-07
-1.16867e-06 -1.66456e-07 -3.42505e-05
0.00291195 0.000124755 5.23844e-06
0.000124755 -0.000170736 -3.68474e-06
5.23844e-06 -3.68474e-06 6.02003e-05
0.00277808 0.00163106 0.000158216
0.00163106 -0.00341417 5.89933e-05
0.000158216 5.89933e-05 -0.00117965
0.00281671 9.78686e-06 -2.76786e-06
9.78686e-06 -0.000252991 1.03858e-07
-2.76786e-06 1.03858e-07 3.764e-05
0.00288066 0.000152731 4.12894e-07
0.000152731 -0.000234543 -3.65072e-06
4.12894e-07 -3.65072e-06 0.000182844
0.00306069 -9.52522e-05 -4.76827e-05
-9.52522e-05 1.4468e-05 -9.85844e-07
-4.76827e-05 -9.85844e-07 0.000319603
0.00330188 0.00135916 -0.000221301
0.00135916 -0.00358026 6.13698e-06
-0.000221301 6.13698e-06 -0.00062383
0.00397302 0.000505946 0.000143283
0.000505946 -0.0015703 6.48012e-05
0.000143283 6.48012e-05 -0.000203086
0.00043012 8.97872e-05 2.60555e-07
8.97872e-05 8.35321e-05 -4.31805e-06
2.60555e-07 -4.31805e-06 -5.37781e-05
0.000569643 -3.65512e-05 1.18687e-07
-3.65512e-05 0.000193295 -3.4737e-07
1.18687e-07 -3.4737e-07 3.75702e-05
0.000462966 -0.00013341 -3.49373e-06
-0.00013341 0.000130934 4.88751e-06
-3.49373e-06 4.88751e-06 -2.33202e-05
0.000458146 -0.000101669 -9.18883e-07
-0.000101669 0.000129233 3.09417e-08
-9.18883e-07 3.09417e-08 -3.86824e-05
0.0027623 -0.00025533 -2.93471e-06
-0.00025533 -0.000253103 4.84684e-06
-2.93471e-06 4.84684e-06 3.70317e-05
0.00270912 -0.000662636 6.91866e-07
-0.000662636 -0.000272254 -2.13173e-06
6.91866e-07 -2.13173e-06 -5.0178e-05
0.00285016 -0.00103326 -1.16447e-06
-0.00103326 2.88391e-05 -1.41417e-06
-1.16447e-06 -1.41417e-06 8.19075e-06
0.00350039 -0.00143283 1.87974e-05
-0.00143283 0.00155892 2.92706e-06
1.87974e-05 2.92706e-06 0.000792598
0.00252265 -0.00164031 -2.22548e-05
-0.00164031 0.000490551 1.20673e-05
-2.22548e-05 1.20673e-05 -0.000267579
0.00289289 -0.00130055 2.96513e-06
-0.00130055 0.000361126 4.5058e-06
2.96513e-06 4.5058e-06 7.97894e-06
0.000376792 -0.00115759 1.83927e-05
-0.00115759 -0.000158804 -1.76175e-05
1.83927e-05 -1.76175e-05 -0.00102547
0.00356044 -0.000678264 3.10112e-05
-0.000678264 0.00193366 -1.13804e-05
3.10112e-05 -1.13804e-05 0.00126883
-0.00067328 -0.000221737 1.66748e-05
-0.000221737 -0.000707398 1.03533e-05
1.66748e-05 1.03533e-05 -0.000993787
0.0014833 -0.000112101 8.60387e-06
-0.000112101 0.000853486 3.40096e-06
8.60387e-06 3.40096e-06 0.000642927
-0.000757588 -2.08159e-05 -1.36931e-05
-2.08159e-05 -0.000473793 -1.91793e-05
-1.36931e-05 -1.91793e-05 -0.000855886
0.000413574 -5.83696e-05 2.26879e-06
-5.83696e-05 0.00014565 -1.26152e-05
2.26879e-06 -1.26152e-05 -0.000129392
0.000561656 -3.34582e-05 1.59614e-06
-3.34582e-05 0.000201171 5.4201e-06
1.59614e-06 5.4201e-06 3.06328e-05
0.0007308 -0.000117719 -9.89273e-06
-0.000117719 0.000295228 5.66305e-06
-9.89273e-06 5.66305e-06 0.000135789
0.00285896 -0.00044598 3.93134e-06
-0.00044598 -0.000332233 3.42691e-07
3.93134e-06 3.42691e-07 4.9254e-05
0.000222243 -6.68757e-05 -1.47394e-06
-6.68757e-05 -2.67596e-05 4.91431e-06
-1.47394e-06 4.91431e-06 -0.000182987
0.000476148 -0.000139337 4.7681e-06
-0.000139337 0.000114888 -4.64174e-06
4.7681e-06 -4.64174e-06 -9.93782e-05
-0.000374179 -9.55177e-05 1.63042e-05
-9.55177e-05 -0.000304814 -5.45899e-06
1.63042e-05 -5.45899e-06 -0.000448048
0.00262576 -0.000816117 1.35725e-06
-0.000816117 -0.000340504 -1.01124e-06
1.35725e-06 -1.01124e-06 -4.4167e-05
0.00295383 -0.001284 1.60998e-06
-0.001284 0.000236059 -1.94871e-06
1.60998e-06 -1.94871e-06 -2.5152e-05
0.00207075 -0.00154738 -1.15658e-05
-0.00154738 0.000518696 7.09323e-09
-1.15658e-05 7.09323e-09 -0.0002429
0.00313983 -0.00159436 -4.44715e-06
-0.00159436 0.000725625 -2.01153e-06
-4.44715e-06 -2.01153e-06 0.000131234
0.00186511 -0.000306018 2.17261e-05
-0.000306018 0.00112512 -8.72422e-06
2.17261e-05 -8.72422e-06 0.000757211
-0.00148446 -5.55634e-05 1.20386e-05
-5.55634e-05 -0.000963854 9.58898e-07
1.20386e-05 9.58898e-07 -0.00131444
0.000928893 -0.00146417 -4.24232e-07
-0.00146417 0.000512388 1.18618e-06
-4.24232e-07 1.18618e-06 -0.000488067
0.00145088 -0.000540979 -1.86046e-05
-0.000540979 0.000817611 3.88899e-07
-1.86046e-05 3.88899e-07 0.00023471
0.00404317 -0.000680127 -8.19763e-05
-0.000680127 0.000444475 2.69823e-05
-8.19763e-05 2.69823e-05 0.00081369
0.00295326 -0.00112625 -4.41081e-05
-0.00112625 2.84e-05 2.22919e-05
-4.41081e-05 2.22919e-05 0.000141852
0.00315024 -0.00145307 5.49728e-06
-0.00145307 0.000762396 -1.63837e-05
5.49728e-06 -1.63837e-05 0.000194912
0.00363491 -0.00187155 -2.77216e-06
-0.00187155 0.00117419 2.96277e-05
-2.77216e-06 2.96277e-05 0.000516956
0.000146108 -0.000227674 7.98075e-07
-0.000227674 0.000162682 -1.5481e-05
7.98075e-07 -1.5481e-05 -7.61713e-05
0.000915676 -0.000378926 -1.71576e-05
-0.000378926 0.000453095 2.25443e-05
-1.71576e-05 2.25443e-05 0.000105645
0.000820937 -0.000338625 -2.36798e-05
-0.000338625 0.000684876 6.89726e-05
-2.36798e-05 6.89726e-05 0.000296435
-0.000752986 -0.000903708 9.78646e-06
-0.000903708 0.000199141 -4.31166e-05
9.78646e-06 -4.31166e-05 -0.000866892
0.00715343 -0.000614387 2.87236e-05
-0.000614387 -0.00697264 3.27721e-05
2.87236e-05 3.27721e-05 -0.00753776
0.0039205 0.000566867 1.47525e-05
0.000566867 0.00256514 -4.71201e-06
1.47525e-05 -4.71201e-06 0.00215998
0.000156137 0.000492377 -3.76001e-06
0.000492377 -9.23753e-06 -4.8406e-06
-3.76001e-06 -4.8406e-06 -0.000475745
0.00174899 0.000570672 8.46214e-05
0.000570672 -0.00104927 3.56057e-05
8.46214e-05 3.56057e-05 -0.000389103
0.0023127 0.00107474 2.93473e-05
0.00107474 8.70487e-05 1.45241e-05
2.93473e-05 1.45241e-05 -7.32296e-05
0.00302665 0.00148032 1.29303e-05
0.00148032 0.000954392 1.74826e-05
1.29303e-05 1.74826e-05 0.000176547
0.00263941 0.00120783 1.56481e-05
0.00120783 0.0010696 1.42076e-05
1.56481e-05 1.42076e-05 0.0003058
0.00420267 0.00280048 0.000125249
0.00280048 -0.00233741 6.30846e-05
0.000125249 6.30846e-05 -0.000918577
0.000876371 0.000401987 2.53638e-06
0.000401987 0.000724794 -6.09141e-06
2.53638e-06 -6.09141e-06 0.000279945
0.0031623 0.00134399 -6.36905e-06
0.00134399 -0.000135842 4.29571e-06
-6.36905e-06 4.29571e-06 0.000133434
0.00104752 0.000795635 -1.07716e-05
0.000795635 0.000310999 8.73328e-06
-1.07716e-05 8.73328e-06 -0.000271801
0.00220483 0.00128523 1.65345e-06
0.00128523 0.00072892 -1.02498e-05
1.65345e-06 -1.02498e-05 -2.84364e-05
0.00362799 0.00161388 -1.31617e-05
0.00161388 0.0010311 -1.00403e-06
-1.31617e-05 -1.00403e-06 0.000456831
0.0045097 0.000355634 -0.000262221
0.000355634 -0.0090701 -0.000185214
-0.000262221 -0.000185214 -0.00817464
0.0067243 0.00404661 -0.000217637
0.00404661 -0.00277441 -0.000111752
-0.000217637 -0.000111752 0.00089932
0.00119777 0.00269143 -2.15669e-05
0.00269143 -0.00134791 -6.84878e-06
-2.15669e-05 -6.84878e-06 -0.00122096
0.0127793 -0.00495657 0.00104284
-0.00495657 0.00781083 0.000226836
0.00104284 0.000226836 0.00167189
0.034935 -0.0215473 -0.000475787
-0.0215473 0.023946 -0.00055352
-0.000475787 -0.00055352 0.00814372
-0.000348891 0.000340147 8.04367e-07
0.000340147 -0.000250258 -3.17201e-06
8.04367e-07 -3.17201e-06 -0.000624971
0.00186664 -0.00186141 0.00229307
-0.00186141 0.00426927 -3.50893e-05
0.00229307 -3.50893e-05 0.000936686
0.013391 -0.0112136 0.000229005
-0.0112136 0.0155552 -0.00024381
0.000229005 -0.00024381 0.00105917
0.00383725 0.00231288 -8.70295e-05
0.00231288 0.000545518 -3.28182e-05
-8.70295e-05 -3.28182e-05 6.89601e-05
0.00126501 0.000869996 -3.70502e-05
0.000869996 0.00034429 -6.12543e-06
-3.70502e-05 -6.12543e-06 -0.00022849
0.00214451 0.00136527 -5.87923e-05
0.00136527 0.000673791 -5.00482e-05
-5.87923e-05 -5.00482e-05 -2.88428e-05
-0.000206074 0.00252861 0.000173896
0.00252861 -0.00133594 0.000140145
0.000173896 0.000140145 -0.00146055
0.0161909 0.00618077 0.000303369
0.00618077 -0.00243764 -1.06129e-05
0.000303369 -1.06129e-05 0.000955303
0.00693621 0.00613263 -0.000165436
0.00613263 -0.00131516 -0.000185072
-0.000165436 -0.000185072 0.000961754
0.027758 -0.0105032 0.00135007
-0.0105032 0.0136809 9.55116e-05
0.00135007 9.55116e-05 0.00288487
0.0225513 -0.00274276 -0.000800511
-0.00274276 0.0117173 0.000830783
-0.000800511 0.000830783 0.00562266
0.000899119 0.000153793 7.36677e-06
0.000153793 0.000641657 -7.53251e-08
7.36677e-06 -7.53251e-08 0.00045234
0.000373589 0.000226294 2.28773e-06
0.000226294 0.000355367 1.06772e-06
2.28773e-06 1.06772e-06 0.000118649
0.00123998 0.000416187 9.0665e-06
0.000416187 0.000921931 -9.0832e-06
9.0665e-06 -9.0832e-06 0.000546751
0.000484162 7.17853e-06 3.36251e-06
7.17853e-06 0.000130318 9.90797e-07
3.36251e-06 9.90797e-07 -4.2359e-05
0.000360197 0.000121919 4.91837e-06
0.000121919 4.62754e-05 5.60157e-07
4.91837e-06 5.60157e-07 -0.000129503
-5.93384e-05 3.0876e-05 4.49902e-06
3.0876e-05 -0.000131561 -9.85658e-07
4.49902e-06 -9.85658e-07 -0.000344847
0.000551563 0.000115781 -3.16156e-06
0.000115781 0.000305082 -5.06514e-06
-3.16156e-06 -5.06514e-06 8.71464e-05
0.000290182 0.000116907 -7.1792e-06
0.000116907 0.000122089 1.88893e-06
-7.1792e-06 1.88893e-06 2.76385e-05
0.000297579 1.93438e-05 2.6513e-08
1.93438e-05 -2.3383e-06 1.02469e-06
2.6513e-08 1.02469e-06 -0.000171261
0.000795655 0.000102884 2.44008e-06
0.000102884 0.000477854 2.3847e-06
2.44008e-06 2.3847e-06 0.000233227
0.000284528 7.21864e-05 -4.41413e-07
7.21864e-05 9.24189e-05 -2.61349e-06
-4.41413e-07 -2.61349e-06 -0.000130438
0.000666621 9.10385e-05 1.2269e-06
9.10385e-05 0.000287083 4.68001e-09
1.2269e-06 4.68001e-09 7.28281e-05
0.000315645 9.60364e-05 -1.82122e-06
9.60364e-05 0.000256747 -2.90811e-06
-1.82122e-06 -2.90811e-06 1.7569e-05
0.000458104 5.23603e-05 1.59824e-06
5.23603e-05 0.000273665 6.82072e-06
1.59824e-06 6.82072e-06 5.8581e-05
-0.000849387 2.78463e-07 4.54465e-06
2.78463e-07 -0.000248033 -4.58548e-06
4.54465e-06 -4.58548e-06 -0.00066543
6.43557e-05 -8.198e-05 -4.26812e-06
-8.198e-05 -5.52206e-05 2.71214e-06
-4.26812e-06 2.71214e-06 -0.000284336
0.000354527 -5.12748e-05 -6.55548e-06
-5.12748e-05 6.74012e-05 -4.81288e-06
-6.55548e-06 -4.81288e-06 -0.000138731
0.000679573 -2.10302e-05 8.55417e-07
-2.10302e-05 0.000320618 -4.75662e-06
8.55417e-07 -4.75662e-06 9.87478e-05
0.000650214 -0.000167214 -5.0373e-06
-0.000167214 0.000329954 5.10302e-06
-5.0373e-06 5.10302e-06 0.000139644
-0.000372717 0.000177829 -1.48393e-05
0.000177829 -0.00034868 -2.20495e-06
-1.48393e-05 -2.20495e-06 -0.000506616
0.0011058 -0.000294204 1.3227e-05
-0.000294204 0.000517963 -2.49157e-06
1.3227e-05 -2.49157e-06 0.000398978
0.00133499 -0.000114867 -3.70782e-06
-0.000114867 0.000843337 8.38805e-06
-3.70782e-06 8.38805e-06 0.000673195
-0.00102752 -1.44355e-05 2.65019e-06
-1.44355e-05 -0.000690101 -4.6099e-06
2.65019e-06 -4.6099e-06 -0.000984181
-0.000678646 -1.92945e-05 -1.33584e-06
-1.92945e-05 -0.000520856 -6.13366e-06
-1.33584e-06 -6.13366e-06 -0.000719918
0.00100635 -0.000263563 -1.18906e-06
-0.000263563 0.00060662 1.07638e-06
-1.18906e-06 1.07638e-06 0.000345771
3.67867e-06 -3.66363e-05 -1.83414e-06
-3.66363e-05 -0.000132747 -6.49674e-07
-1.83414e-06 -6.49674e-07 -0.000330458
0.000620446 -0.000239904 -1.87386e-07
-0.000239904 0.000269815 1.09192e-06
-1.87386e-07 1.09192e-06 3.86299e-05
0.000810451 -0.000168775 2.07158e-06
-0.000168775 0.000365299 -2.98259e-07
2.07158e-06 -2.98259e-07 0.00017649
0.000802219 -8.49847e-05 -1.38809e-06
-8.49847e-05 0.000284928 2.8667e-06
-1.38809e-06 2.8667e-06 0.000186675
0.000271693 1.75046e-05 1.89859e-06
1.75046e-05 2.20333e-05 -6.29368e-07
1.89859e-06 -6.29368e-07 -0.00017888
0.000453879 -9.16235e-06 3.07037e-06
-9.16235e-06 6.99773e-05 1.12097e-07
3.07037e-06 1.12097e-07 -3.34584e-05
0.00138778 -4.23091e-05 -1.83821e-05
-4.23091e-05 0.000643899 7.37369e-06
-1.83821e-05 7.37369e-06 0.000617919
0.000443759 9.70997e-05 -1.9262e-06
9.70997e-05 6.72205e-05 -2.56601e-06
-1.9262e-06 -2.56601e-06 -3.86419e-05
0.000810356 -3.21063e-05 -6.79474e-06
-3.21063e-05 0.00027595 8.7838e-07
-6.79474e-06 8.7838e-07 0.000242095
0.000832551 -5.03641e-06 -1.62744e-05
-5.03641e-06 0.000266086 5.06713e-06
-1.62744e-05 5.06713e-06 0.000268664
0.000279014 -5.37343e-05 6.83803e-06
-5.37343e-05 -7.60219e-05 -6.14127e-06
6.83803e-06 -6.14127e-06 -0.00011117
0.00269506 3.20154e-06 1.92639e-05
3.20154e-06 0.00149131 6.01348e-08
1.92639e-05 6.01348e-08 0.00150134
0.000853594 1.00944e-05 -1.92328e-05
1.00944e-05 0.000280959 -5.99789e-06
-1.92328e-05 -5.99789e-06 0.000281009
0.000593167 8.36834e-05 2.39107e-06
8.36834e-05 0.000206604 -4.08549e-06
2.39107e-06 -4.08549e-06 5.43816e-05
0.000337239 7.33019e-05 -2.06353e-06
7.33019e-05 -1.66372e-05 -5.43949e-06
-2.06353e-06 -5.43949e-06 -9.39922e-05
0.000433945 9.88526e-07 2.52575e-06
9.88526e-07 4.57266e-05 2.24241e-07
2.52575e-06 2.24241e-07 -3.6062e-05
0.000362137 1.05441e-05 1.33639e-06
1.05441e-05 -4.77549e-05 -5.38501e-06
1.33639e-06 -5.38501e-06 -7.08301e-05
0.000590476 -0.000103578 -2.08148e-06
-0.000103578 0.000160817 6.00311e-06
-2.08148e-06 6.00311e-06 5.86625e-05
0.000423932 5.62297e-06 1.26315e-06
5.62297e-06 -6.67323e-06 -1.03313e-06
1.26315e-06 -1.03313e-06 -3.52662e-05
0.00249487 5.18314e-05 -1.6484e-06
5.18314e-05 0.00135899 -6.3561e-06
-1.6484e-06 -6.3561e-06 0.0013671
0.00154151 5.251e-05 2.50269e-06
5.251e-05 0.000740428 4.94098e-06
2.50269e-06 4.94098e-06 0.000703274
0.0017058 6.03834e-05 -2.21873e-06
6.03834e-05 0.000848223 2.42639e-06
-2.21873e-06 2.42639e-06 0.000844844
0.000505841 5.60287e-05 1.68273e-05
5.60287e-05 6.79455e-05 1.6603e-05
1.68273e-05 1.6603e-05 5.22935e-05
0.000226195 0.00125827 0.000166127
0.00125827 -0.00483626 3.28201e-05
0.000166127 3.28201e-05 -0.00240122
0.00273879 -2.52852e-05 -1.64996e-06
-2.52852e-05 -0.000297136 -2.16106e-06
-1.64996e-06 -2.16106e-06 -5.54251e-06
0.00289519 0.000119843 6.10797e-05
0.000119843 -0.000154129 -1.16281e-05
6.10797e-05 -1.16281e-05 0.000186911
0.00556676 0.00149152 -0.000120284
0.00149152 -0.00337349 -4.66982e-05
-0.000120284 -4.66982e-05 0.000681382
0.00362269 0.000256921 0.000125795
0.000256921 -0.00199709 -1.16914e-05
0.000125795 -1.16914e-05 -0.00039101
0.00312479 -0.000116857 -1.35775e-06
-0.000116857 6.41254e-05 2.41682e-06
-1.35775e-06 2.41682e-06 0.000345812
0.00605713 -0.000968074 -9.24318e-05
-0.000968074 0.000181835 -3.74267e-05
-9.24318e-05 -3.74267e-05 0.00143042
0.00490839 -0.000842724 -0.000114681
-0.000842724 -0.00321287 -4.93399e-05
-0.000114681 -4.93399e-05 0.000242489
0.0193919 -0.00153565 7.48834e-05
-0.00153565 -7.75082e-05 -0.000139931
7.48834e-05 -0.000139931 0.00104027
0.0247931 0.0114521 0.00265589
0.0114521 0.0117802 -5.74702e-05
0.00265589 -5.74702e-05 0.0024052
0.0446112 0.0163191 0.000203755
0.0163191 0.028556 0.000242365
0.000203755 0.000242365 0.0144435
-0.000131268 -9.75318e-05 4.9997e-06
-9.75318e-05 -0.000254814 1.99248e-07
4.9997e-06 1.99248e-07 -0.00040038
0.000531391 -2.8534e-05 2.25146e-06
-2.8534e-05 0.000161652 4.78256e-08
2.25146e-06 4.78256e-08 1.80932e-05
0.00073986 -0.000143492 -1.11866e-06
-0.000143492 0.000325468 5.37238e-06
-1.11866e-06 5.37238e-06 0.000155679
0.000548485 -8.14439e-05 5.06217e-06
-8.14439e-05 0.000165423 -1.12509e-06
5.06217e-06 -1.12509e-06 2.54775e-05
0.000868835 0.000151775 -3.57127e-06
0.000151775 0.000477697 -5.21649e-06
-3.57127e-06 -5.21649e-06 0.000309749
0.000721131 0.000171281 4.39692e-07
0.000171281 0.000321888 1.21588e-06
4.39692e-07 1.21588e-06 0.000143175
0.000527647 2.23276e-05 4.3027e-06
2.23276e-05 0.000173305 -4.89177e-06
4.3027e-06 -4.89177e-06 -1.10609e-05
0.000454975 -1.21569e-05 -3.17365e-07
-1.21569e-05 0.000113597 5.57698e-07
-3.17365e-07 5.57698e-07 -4.48302e-05
0.00275873 -0.000442011 1.96811e-05
-0.000442011 -0.000393226 -5.02095e-06
1.96811e-05 -5.02095e-06 -2.79614e-06
0.00253573 -0.000861924 2.29275e-05
-0.000861924 -0.00042707 -9.91765e-06
2.29275e-05 -9.91765e-06 -0.000171912
0.00288844 -0.00127355 4.35561e-07
-0.00127355 0.000189296 4.8724e-06
4.35561e-07 4.8724e-06 -6.1776e-05
0.00271725 -0.00159817 1.03504e-05
-0.00159817 0.000849438 9.29663e-07
1.03504e-05 9.29663e-07 0.000130457
0.00319215 -0.00162564 -2.53123e-05
-0.00162564 0.000757864 1.40383e-05
-2.53123e-05 1.40383e-05 0.000122893
0.000770826 -0.00144669 1.89694e-05
-0.00144669 0.000465173 2.10753e-05
1.89694e-05 2.10753e-05 -0.000578083
0.0043676 -0.000961838 2.03452e-05
-0.000961838 0.00227635 6.0631e-06
2.03452e-05 6.0631e-06 0.00174446
0.00211744 -0.000489721 2.68677e-05
-0.000489721 0.00136135 -4.78341e-05
2.68677e-05 -4.78341e-05 0.000913269
0.000510079 -4.65189e-05 -1.38003e-06
-4.65189e-05 0.000118646 6.04589e-07
-1.38003e-06 6.04589e-07 -8.02297e-05
0.00120874 -0.000136412 1.77873e-05
-0.000136412 0.000665858 -3.832e-05
1.77873e-05 -3.832e-05 0.000320568
0.000558425 -0.000139274 1.46873e-06
-0.000139274 0.000193144 4.73046e-06
1.46873e-06 4.73046e-06 2.58322e-05
9.09359e-05 6.18971e-06 -1.64853e-05
6.18971e-06 1.37017e-05 -3.63337e-06
-1.64853e-05 -3.63337e-06 -7.65052e-05
0.00286943 -0.000605591 2.04498e-06
-0.000605591 -0.000307323 5.37749e-06
2.04498e-06 5.37749e-06 0.000184847
0.000330859 -0.000122726 -7.81174e-06
-0.000122726 0.000220249 3.97338e-06
-7.81174e-06 3.97338e-06 1.14707e-05
0.00102801 -0.000291171 -2.50437e-06
-0.000291171 0.000533356 1.39284e-06
-2.50437e-06 1.39284e-06 0.00023531
0.00220523 -0.00106193 9.49666e-06
-0.00106193 -0.000407 -5.5337e-06
9.49666e-06 -5.5337e-06 -0.000239209
0.0030418 -0.00142379 5.41522e-07
-0.00142379 0.000678535 5.84509e-06
5.41522e-07 5.84509e-06 0.000156311
0.00184033 -0.00156678 3.06998e-06
-0.00156678 0.000168096 -1.67926e-05
3.06998e-06 -1.67926e-05 -0.000392711
0.00066949 -0.0003995 -3.75568e-06
-0.0003995 0.000517904 -2.46867e-05
-3.75568e-06 -2.46867e-05 1.29329e-05
0.000655555 -0.000992997 1.69636e-05
-0.000992997 0.000945643 -1.26053e-07
1.69636e-05 -1.26053e-07 -4.53962e-05
0.00644395 -0.0015208 -6.17559e-05
-0.0015208 0.00131286 4.63855e-05
-6.17559e-05 4.63855e-05 0.00183816
0.00270326 -0.00146115 -3.99042e-05
-0.00146115 0.000403118 2.35559e-05
-3.99042e-05 2.35559e-05 -1.91049e-05
0.00368666 -0.00186579 1.7447e-06
-0.00186579 0.00111262 1.68382e-05
1.7447e-06 1.68382e-05 0.000473871
0.00112447 -0.00114386 -3.57725e-05
-0.00114386 0.000207064 2.02095e-05
-3.57725e-05 2.02095e-05 -9.64276e-05
0.00101082 -0.000258898 7.76535e-06
-0.000258898 0.000751567 -1.78262e-06
7.76535e-06 -1.78262e-06 0.000394757
-0.00122683 -4.76226e-05 8.93354e-06
-4.76226e-05 -0.00058841 1.83024e-05
8.93354e-06 1.83024e-05 -0.000975048
-0.000659684 -0.000333737 -9.20989e-06
-0.000333737 0.000155108 -2.05407e-05
-9.20989e-06 -2.05407e-05 -0.000614884
-0.00729778 -0.000861521 0.00152912
-0.000861521 0.000149333 -2.94923e-05
0.00152912 -2.94923e-05 -0.00560139
0.014078 -0.000531205 -7.02386e-06
-0.000531205 -0.00213662 4.99199e-05
-7.02386e-06 4.99199e-05 5.54274e-05
0.00188202 0.000463502 5.27596e-06
0.000463502 0.00123032 -1.31772e-05
5.27596e-06 -1.31772e-05 0.000856192
0.00246743 0.00100932 -3.48177e-06
0.00100932 0.001203 7.11649e-06
-3.48177e-06 7.11649e-06 0.000549534
0.00163212 0.00108806 0.000134469
0.00108806 -0.000982726 6.68411e-05
0.000134469 6.68411e-05 -0.000577499
0.00398039 0.00159819 3.71891e-05
0.00159819 0.00126761 2.13528e-05
3.71891e-05 2.13528e-05 0.000669604
0.00309028 0.00144214 2.48936e-05
0.00144214 0.0012172 8.10111e-06
2.48936e-05 8.10111e-06 0.000420351
0.0202426 0.00107152 7.20471e-05
0.00107152 0.000345197 -0.000254564
7.20471e-05 -0.000254564 0.00212378
0.00862507 0.00486408 -0.000349212
0.00486408 -0.00371279 1.17123e-05
-0.000349212 1.17123e-05 0.000655709
0.00233143 0.00276241 -2.29114e-05
0.00276241 -0.000591036 -4.06151e-05
-2.29114e-05 -4.06151e-05 -0.000632079
0.0185025 -0.00912093 -0.00152171
-0.00912093 0.0100772 0.000383614
-0.00152171 0.000383614 0.00136872
0.0309757 -0.0249043 -0.00277554
-0.0249043 0.0233444 -0.00172914
-0.00277554 -0.00172914 0.0068706
0.000666073 0.000500966 8.12034e-06
0.000500966 0.000419516 -7.08186e-06
8.12034e-06 -7.08186e-06 -7.44203e-06
0.00333988 -0.00702865 0.00132871
-0.00702865 0.0011239 3.18438e-05
0.00132871 3.18438e-05 -0.00648877
0.00564783 -0.00848337 -0.00126144
-0.00848337 0.0160202 2.62075e-05
-0.00126144 2.62075e-05 0.00358009
0.00412096 0.00217518 -2.02902e-05
0.00217518 0.000630589 7.08406e-06
-2.02902e-05 7.08406e-06 0.000248338
0.00120838 0.000911552 -1.46966e-05
0.000911552 0.000381692 9.95997e-06
-1.46966e-05 9.95997e-06 -0.000237032
0.00294814 0.00156049 -2.72433e-06
0.00156049 0.00107784 -8.78869e-07
-2.72433e-06 -8.78869e-07 0.000312538
0.00225273 0.00267657 0.000100876
0.00267657 0.000284457 6.74322e-05
0.000100876 6.74322e-05 6.25281e-05
0.0140599 0.00677728 -0.000315137
0.00677728 -0.00445673 -0.00013352
-0.000315137 -0.00013352 -0.00201631
0.00328469 0.00578259 -6.71714e-05
0.00578259 -0.00175081 -9.08638e-05
-6.71714e-05 -9.08638e-05 0.000371168
0.0318296 -0.00947146 0.00106434
-0.00947146 0.0154859 -0.000286402
0.00106434 -0.000286402 0.00471087
0.0313027 -0.00693236 -0.000379139
-0.00693236 0.0124616 0.00104656
-0.000379139 0.00104656 0.0030436
0.00119613 0.000651012 -1.34352e-05
0.000651012 0.000665044 -1.58403e-05
-1.34352e-05 -1.58403e-05 0.0002446
-0.00187685 -0.000130649 0.000272709
-0.000130649 0.00817626 -0.000221424
0.000272709 -0.000221424 -0.00240773
0.0100865 0.00390967 -0.00108526
0.00390967 0.00757395 -0.000639087
-0.00108526 -0.000639087 0.00181993
0.00303539 0.00172946 -6.08687e-05
0.00172946 0.000562245 -3.58809e-05
-6.08687e-05 -3.58809e-05 0.000290533
0.00260516 0.00153066 -9.38792e-05
0.00153066 0.00115117 -4.15024e-05
-9.38792e-05 -4.15024e-05 0.000399274
0.001687 0.00204592 -0.000125736
0.00204592 0.00122014 -5.4463e-05
-0.000125736 -5.4463e-05 0.000253038
-0.00225318 0.00441422 9.64421e-05
0.00441422 -0.000626191 -5.04265e-05
9.64421e-05 -5.04265e-05 -0.000752962
0.00592846 0.00987676 0.00125293
0.00987676 -0.00422584 0.000164978
0.00125293 0.000164978 -0.00326668
0.0326465 -0.0117894 -0.00110539
-0.0117894 0.0196274 0.0012453
-0.00110539 0.0012453 0.00716412
0.0100923 0.00120257 -0.0001328
0.00120257 -0.00140236 -0.000281324
-0.0001328 -0.000281324 -0.0031687
0.000794067 0.000286628 -1.06414e-05
0.000286628 0.000621683 3.48409e-06
-1.06414e-05 3.48409e-06 0.000363313
0.000803968 0.000385523 6.60021e-06
0.000385523 0.00063359 1.64383e-07
6.60021e-06 1.64383e-07 0.000286765
-0.000219735 0.000312666 2.34048e-06
0.000312666 6.54312e-05 -2.12141e-06
2.34048e-06 -2.12141e-06 -0.000294279
0.000374489 9.37437e-05 5.71584e-06
9.37437e-05 5.2782e-05 2.2333e-06
5.71584e-06 2.2333e-06 -0.000120263
0.00128463 0.000185923 1.3743e-06
0.000185923 0.000720127 1.58161e-06
1.3743e-06 1.58161e-06 0.00048415
0.000151621 3.76958e-05 1.64711e-06
3.76958e-05 7.42571e-06 6.8341e-07
1.64711e-06 6.8341e-07 -0.000221656
0.000102229 6.32805e-05 8.94238e-06
6.32805e-05 5.34534e-05 -5.27794e-06
8.94238e-06 -5.27794e-06 -0.000192696
9.78997e-05 7.69773e-05 -5.56054e-06
7.69773e-05 0.00012554 3.49803e-06
-5.56054e-06 3.49803e-06 -0.00010443
0.00081869 8.11531e-05 -9.90677e-07
8.11531e-05 0.000391877 -1.35222e-06
-9.90677e-07 -1.35222e-06 0.000167538
0.000477984 5.16251e-05 1.47705e-06
5.16251e-05 0.000289502 -2.81327e-06
1.47705e-06 -2.81327e-06 6.18813e-05
0.000731622 1.49507e-06 3.75462e-07
1.49507e-06 0.000389224 3.07882e-06
3.75462e-07 3.07882e-06 0.000148318
-0.000359194 7.0075e-05 -2.05941e-06
7.0075e-05 6.00751e-05 -9.07841e-07
-2.05941e-06 -9.07841e-07 -0.000341678
-0.00013025 4.47234e-05 2.98982e-06
4.47234e-05 0.00036329 -2.54765e-06
2.98982e-06 -2.54765e-06 -0.000182541
-5.33292e-05 -5.59579e-05 5.54443e-07
-5.59579e-05 9.01052e-05 1.55349e-06
5.54443e-07 1.55349e-06 -0.00024155
0.00148135 -6.46897e-05 -9.70174e-06
-6.46897e-05 0.000924315 -2.43469e-06
-9.70174e-06 -2.43469e-06 0.000652471
0.00137418 -0.00019705 -2.2943e-06
-0.00019705 0.00079625 -3.41443e-06
-2.2943e-06 -3.41443e-06 0.000549533
0.00107964 -0.000250182 -8.09774e-06
-0.000250182 0.000572488 5.02637e-06
-8.09774e-06 5.02637e-06 0.000421662
0.000550371 -0.000114024 1.29875e-06
-0.000114024 0.000270567 -2.67096e-07
1.29875e-06 -2.67096e-07 8.85614e-05
0.000995345 -0.000385773 -1.00415e-08
-0.000385773 0.000406841 -2.20889e-06
-1.00415e-08 -2.20889e-06 0.000290516
-0.000665039 -3.76144e-05 -6.4185e-06
-3.76144e-05 -0.000384179 1.01051e-05
-6.4185e-06 1.01051e-05 -0.000523961
-0.00113204 -0.000110443 1.09821e-05
-0.000110443 -0.000864061 -8.13847e-06
1.09821e-05 -8.13847e-06 -0.00103528
-0.000621531 -3.09174e-05 -1.80777e-05
-3.09174e-05 -0.000289492 7.49191e-06
-1.80777e-05 7.49191e-06 -0.000547601
0.00189725 -0.00030362 4.4335e-06
-0.00030362 0.0011059 -1.54251e-06
4.4335e-06 -1.54251e-06 0.000984268
0.00231862 -6.98919e-05 9.30395e-06
-6.98919e-05 0.00119466 -1.83172e-05
9.30395e-06 -1.83172e-05 0.000926148
0.00424944 -0.000779786 -3.17002e-06
-0.000779786 0.00229774 5.20849e-06
-3.17002e-06 5.20849e-06 0.00190107
-0.00187967 -0.000299929 9.47703e-07
-0.000299929 -0.00122569 1.73179e-06
9.47703e-07 1.73179e-06 -0.00156054
4.33473e-05 2.54014e-05 1.99288e-06
2.54014e-05 1.00799e-05 -1.94954e-06
1.99288e-06 -1.94954e-06 -0.000292002
-0.00168793 3.59778e-05 1.18809e-05
3.59778e-05 -0.00112007 -1.10551e-05
1.18809e-05 -1.10551e-05 -0.00142195
0.000820537 -0.000228471 -4.65585e-06
-0.000228471 0.000463067 -1.85599e-06
-4.65585e-06 -1.85599e-06 0.000228836
0.00125903 -7.6453e-05 7.83402e-06
-7.6453e-05 0.000675287 4.73572e-06
7.83402e-06 4.73572e-06 0.000458085
0.00123156 -0.000216751 3.14087e-06
-0.000216751 0.000720749 3.5211e-06
3.14087e-06 3.5211e-06 0.000481472
0.000447252 -5.7109e-05 -1.4549e-06
-5.7109e-05 0.000140772 5.83286e-07
-1.4549e-06 5.83286e-07 -4.40752e-05
7.94135e-05 5.67176e-05 4.9644e-06
5.67176e-05 -0.000168435 1.41206e-06
4.9644e-06 1.41206e-06 -0.000273612
0.000864326 -0.000173206 1.12782e-06
-0.000173206 0.000388592 5.09768e-06
1.12782e-06 5.09768e-06 0.000206219
0.000345594 -5.10372e-05 -1.03044e-06
-5.10372e-05 -2.26921e-05 1.15665e-07
-1.03044e-06 1.15665e-07 -0.000111593
0.00128573 4.00502e-05 -8.66191e-06
4.00502e-05 0.000571282 8.04962e-06
-8.66191e-06 8.04962e-06 0.000546069
0.000471801 -9.77895e-05 2.01241e-06
-9.77895e-05 6.95775e-05 -2.0347e-06
2.01241e-06 -2.0347e-06 -2.92035e-05
0.000830336 -2.92232e-05 -1.30977e-05
-2.92232e-05 0.000278223 1.03531e-06
-1.30977e-05 1.03531e-06 0.000249596
0.000647573 8.44708e-06 2.21774e-06
8.44708e-06 0.000131765 1.77002e-06
2.21774e-06 1.77002e-06 0.000135777
0.000378688 -5.30965e-05 5.74765e-06
-5.30965e-05 -1.4864e-05 -5.29707e-06
5.74765e-06 -5.29707e-06 -4.7489e-05
0.00259416 1.80325e-06 6.47399e-06
1.80325e-06 0.00142242 4.5833e-09
6.47399e-06 4.5833e-09 0.00143392
0.00266397 -8.03708e-06 1.667e-05
-8.03708e-06 0.00147014 -5.50054e-06
1.667e-05 -5.50054e-06 0.00148036
0.00110078 8.21444e-05 -1.20257e-06
8.21444e-05 0.000532273 -5.36448e-06
-1.20257e-06 -5.36448e-06 0.00037366
0.000444819 8.44699e-05 -8.0681e-07
8.44699e-05 6.01328e-05 -6.81024e-06
-8.0681e-07 -6.81024e-06 -2.48033e-05
0.000513154 -2.33264e-05 -8.27781e-07
-2.33264e-05 0.000147955 9.59258e-07
-8.27781e-07 9.59258e-07 -2.41885e-06
0.000363024 1.72179e-05 1.23172e-06
1.72179e-05 -4.84191e-05 -5.4428e-06
1.23172e-06 -5.4428e-06 -6.96621e-05
0.000400396 -1.58713e-05 2.39648e-06
-1.58713e-05 2.07792e-05 -2.34796e-07
2.39648e-06 -2.34796e-07 -5.55982e-05
0.000454688 -8.6717e-05 -3.98706e-06
-8.6717e-05 6.36278e-05 5.41072e-06
-3.98706e-06 5.41072e-06 -2.24249e-05
0.000391988 -3.65123e-06 -5.48333e-07
-3.65123e-06 -2.90101e-05 1.24092e-07
-5.48333e-07 1.24092e-07 -5.2184e-05
0.00232365 3.27562e-05 -6.87429e-06
3.27562e-05 0.00124267 -6.12295e-06
-6.87429e-06 -6.12295e-06 0.00125425
0.00139947 2.12976e-05 -6.58261e-07
2.12976e-05 0.000635628 4.76933e-06
-6.58261e-07 4.76933e-06 0.000610666
0.00159751 3.82622e-05 -6.10609e-06
3.82622e-05 0.000766096 8.6693e-08
-6.10609e-06 8.6693e-08 0.000769091
0.000738802 4.47483e-05 5.00716e-06
4.47483e-05 0.000209964 1.27797e-05
5.00716e-06 1.27797e-05 0.00020256
-0.00175762 0.00486746 0.00155856
0.00486746 0.00152974 -8.21529e-05
0.00155856 -8.21529e-05 -0.006466
0.00679908 0.00559187 0.00305467
0.00559187 0.0140401 -0.000110337
0.00305467 -0.000110337 0.00337788
0.00183924 0.00161445 -7.77938e-05
0.00161445 -0.00493873 -8.69485e-05
-7.77938e-05 -8.69485e-05 -0.000437861
0.00329674 6.44302e-06 8.89704e-05
6.44302e-06 -0.00235704 1.47062e-06
8.89704e-05 1.47062e-06 -0.000578574
0.00324365 -0.000134364 4.48539e-05
-0.000134364 0.000110639 -1.91753e-06
4.48539e-05 -1.91753e-06 0.000387216
0.00234909 -5.65011e-07 -8.57962e-05
-5.65011e-07 -0.00260626 -3.90751e-05
-8.57962e-05 -3.90751e-05 0.000416201
0.00483838 -0.000912501 2.09999e-05
-0.000912501 -0.000336179 1.46213e-06
2.09999e-05 1.46213e-06 0.000706936
0.0130326 -0.00123295 0.000427835
-0.00123295 -0.00428661 -0.0001643
0.000427835 -0.0001643 -0.00337031
0.00996444 0.00752778 -5.15657e-05
0.00752778 0.00410714 -0.000110795
-5.15657e-05 -0.000110795 -0.00280057
0.0393271 0.0203836 -0.000813965
0.0203836 0.0263284 0.000298356
-0.000813965 0.000298356 0.0112386
0.00382816 -0.00222443 -8.18271e-05
-0.00222443 -0.00387335 -2.78789e-05
-8.18271e-05 -2.78789e-05 -0.000224997
0.0148871 -0.00597218 0.000535283
-0.00597218 -0.00316665 -8.95961e-05
0.000535283 -8.95961e-05 -0.00187815
0.0285215 0.0100828 0.000414593
0.0100828 0.0135288 -0.000482698
0.000414593 -0.000482698 0.00257274
0.0348767 0.0067687 -0.000501412
0.0067687 0.015823 0.000458242
-0.000501412 0.000458242 0.00770041
0.00181923 0.000205347 -4.46887e-06
0.000205347 0.00114944 -4.0893e-07
-4.46887e-06 -4.0893e-07 0.000882445
0.000373543 3.749e-05 1.20745e-06
3.749e-05 5.73912e-05 -6.70146e-07
1.20745e-06 -6.70146e-07 -8.88743e-05
0.000540989 -0.000135165 2.47199e-06
-0.000135165 0.000182328 3.45076e-06
2.47199e-06 3.45076e-06 3.0492e-05
0.000319844 -1.01185e-05 4.94838e-06
-1.01185e-05 2.27177e-05 -1.59242e-06
4.94838e-06 -1.59242e-06 -0.000116228
0.000370571 6.62939e-05 4.90088e-06
6.62939e-05 0.000135396 -1.28696e-06
4.90088e-06 -1.28696e-06 1.05468e-05
0.000714836 0.000120232 1.24984e-06
0.000120232 0.000323434 1.11795e-06
1.24984e-06 1.11795e-06 9.97089e-05
0.000449128 7.65185e-05 -1.89054e-06
7.65185e-05 0.0001553 8.71135e-07
-1.89054e-06 8.71135e-07 -1.90546e-05
0.000551041 0.000124719 5.91447e-06
0.000124719 0.000166443 1.17142e-06
5.91447e-06 1.17142e-06 -4.14169e-05
0.000595773 1.71944e-05 1.18987e-06
1.71944e-05 0.000229 -1.07846e-06
1.18987e-06 -1.07846e-06 3.45884e-05
0.000187565 -2.6323e-05 4.75602e-07
-2.6323e-05 -7.38759e-05 2.07521e-06
4.75602e-07 2.07521e-06 -0.000213749
0.00149103 -0.00051742 6.27185e-05
-0.00051742 -0.00123728 -2.60438e-05
6.27185e-05 -2.60438e-05 -0.000567762
0.00164853 -0.000994033 2.93001e-05
-0.000994033 -0.00069374 -1.73592e-05
2.93001e-05 -1.73592e-05 -0.000490389
0.00220856 -0.00129515 5.7365e-06
-0.00129515 0.000202309 5.28617e-06
5.7365e-06 5.28617e-06 -0.000245072
0.000161434 -0.00128046 -6.85631e-06
-0.00128046 -0.000759911 -7.45736e-06
-6.85631e-06 -7.45736e-06 -0.00124863
0.00249809 -0.00101086 -6.34196e-06
-0.00101086 0.00190632 5.57336e-05
-6.34196e-06 5.57336e-05 0.001021
-0.000664348 -0.000660081 -8.71859e-06
-0.000660081 -0.000238741 -2.12516e-05
-8.71859e-06 -2.12516e-05 -0.000936407
0.00110578 -0.000330286 1.53291e-05
-0.000330286 0.00062056 -1.80455e-05
1.53291e-05 -1.80455e-05 0.000360228
0.000167195 -6.60619e-05 -2.40906e-06
-6.60619e-05 6.43626e-05 2.72043e-06
-2.40906e-06 2.72043e-06 -0.000115487
0.003384 -0.00120204 1.11334e-05
-0.00120204 -0.000514362 -1.09971e-05
1.11334e-05 -1.09971e-05 0.000251662
0.000610983 -0.000120703 8.97342e-09
-0.000120703 0.000487702 2.42992e-06
8.97342e-09 2.42992e-06 0.000132948
-0.000279129 -0.000237212 -1.35693e-05
-0.000237212 2.59439e-05 1.29154e-06
-1.35693e-05 1.29154e-06 -0.000367857
0.00195342 -0.00129967 2.12243e-05
-0.00129967 -3.0989e-05 -1.78325e-06
2.12243e-05 -1.78325e-06 -0.000297308
0.00266265 -0.00165548 -8.88949e-07
-0.00165548 0.000585355 -6.59761e-06
-8.88949e-07 -6.59761e-06 8.86993e-06
0.000577715 -0.00107072 2.04364e-05
-0.00107072 -5.67908e-05 -1.67961e-05
2.04364e-05 -1.67961e-05 -0.000409397
0.00112402 -0.000551247 2.75922e-05
-0.000551247 0.00116353 -3.15641e-05
2.75922e-05 -3.15641e-05 0.000466124
0.00201214 -0.00195452 -4.02327e-05
-0.00195452 -0.00097138 5.17784e-05
-4.02327e-05 5.17784e-05 -0.000668701
0.0022569 -0.00144334 -4.52113e-05
-0.00144334 0.000581389 3.4094e-05
-4.52113e-05 3.4094e-05 0.000129759
-9.81373e-05 -0.000588743 -5.89815e-05
-0.000588743 0.000230876 2.3303e-05
-5.89815e-05 2.3303e-05 -0.000256556
0.000869219 0.000108972 -2.58136e-06
0.000108972 0.00058843 -3.62537e-07
-2.58136e-06 -3.62537e-07 0.000264981
-0.000808086 -4.10058e-06 -7.4101e-06
-4.10058e-06 -0.000268101 1.77382e-05
-7.4101e-06 1.77382e-05 -0.0007097
-0.000440905 -6.82621e-05 7.88592e-06
-6.82621e-05 -9.88377e-06 8.21848e-06
7.88592e-06 8.21848e-06 -0.000415446
-0.00262036 0.00160816 -0.000803004
0.00160816 0.00884191 -1.25372e-05
-0.000803004 -1.25372e-05 0.000915327
0.000205363 -0.00261065 -1.58065e-05
-0.00261065 0.00568822 -8.07687e-05
-1.58065e-05 -8.07687e-05 0.00148217
0.00753981 0.000285195 -0.000116389
0.000285195 -0.00757341 -3.20754e-05
-0.000116389 -3.20754e-05 -0.0076311
0.00126609 0.000580648 1.62567e-05
0.000580648 0.000845155 -1.09764e-05
1.62567e-05 -1.09764e-05 0.000391741
0.00201992 0.00109163 2.31775e-05
0.00109163 0.000910346 3.2098e-05
2.31775e-05 3.2098e-05 0.000209126
0.00398752 0.00191534 0.000106799
0.00191534 0.000511068 5.3511e-05
0.000106799 5.3511e-05 0.000258587
0.00297776 0.00163975 4.1518e-05
0.00163975 0.00110672 3.80692e-05
4.1518e-05 3.80692e-05 0.000302058
0.0182517 -0.00831355 0.000349882
-0.00831355 0.0118297 0.000134527
0.000349882 0.000134527 0.00298763
0.00269352 0.00508112 -0.000881395
0.00508112 -0.0110664 -0.000161845
-0.000881395 -0.000161845 -0.0091102
0.00655239 0.00623291 -1.78614e-05
0.00623291 -0.000423344 2.57859e-05
-1.78614e-05 2.57859e-05 0.00140176
0.00432411 0.00267308 0.000117676
0.00267308 0.00165752 2.80007e-05
0.000117676 2.80007e-05 0.00136242
0.0226141 -0.00634892 -0.000762725
-0.00634892 0.0102518 -0.000182497
-0.000762725 -0.000182497 0.000822982
0.00616229 -0.00963583 -0.00198593
-0.00963583 0.0173786 -9.40833e-05
-0.00198593 -9.40833e-05 0.005497
0.0439038 -0.0115678 0.0018077
-0.0115678 0.0169081 0.00050158
0.0018077 0.00050158 0.00560157
0.000648015 0.000601996 1.55264e-05
0.000601996 0.000387839 -4.64656e-06
1.55264e-05 -4.64656e-06 -4.90749e-05
0.00104497 -0.00172637 -7.71432e-05
-0.00172637 0.0108078 3.57565e-06
-7.71432e-05 3.57565e-06 0.000626546
0.00997981 0.00439125 -0.00034041
0.00439125 0.00523997 -0.000212693
-0.00034041 -0.000212693 -0.00158321
0.00284215 0.00186968 1.33935e-05
0.00186968 0.000609654 4.85312e-06
1.33935e-05 4.85312e-06 0.000189039
0.00132971 0.0012819 7.40739e-06
0.0012819 0.000569983 7.80618e-06
7.40739e-06 7.80618e-06 -0.000150234
0.000650949 0.00203428 -0.000159741
0.00203428 0.000609555 -0.000109382
-0.000159741 -0.000109382 -0.000152785
0.00392876 0.00664681 0.000105836
0.00664681 0.000804513 5.81544e-05
0.000105836 5.81544e-05 0.000758173
0.0120636 0.0104308 -3.96438e-05
0.0104308 -0.000825946 -1.50995e-05
-3.96438e-05 -1.50995e-05 -0.00168924
0.0158565 -0.00691102 9.527e-05
-0.00691102 0.0130192 -0.0001876
9.527e-05 -0.0001876 0.00116542
0.0204704 -0.00235057 -0.000136756
-0.00235057 0.00406185 -3.87465e-05
-0.000136756 -3.87465e-05 0.00249128
0.00147123 0.00113601 -1.6844e-05
0.00113601 0.000864609 -1.49823e-05
-1.6844e-05 -1.49823e-05 0.000233842
0.00168969 0.00111077 -0.000728805
0.00111077 0.00438397 -0.000198476
-0.000728805 -0.000198476 -0.00307469
0.00404621 0.00167498 -0.000124109
0.00167498 0.00132505 -0.000217021
-0.000124109 -0.000217021 -0.00235506
-0.00102876 0.000757501 -5.41367e-06
0.000757501 -5.05947e-05 -3.31984e-05
-5.41367e-06 -3.31984e-05 -0.000607056
-0.00268252 0.00191059 -0.00011304
0.00191059 0.00074233 4.00098e-05
-0.00011304 4.00098e-05 -0.000261001
0.0077439 0.00915556 0.000439189
0.00915556 0.00413216 4.82058e-05
0.000439189 4.82058e-05 -0.00148708
0.0122954 -0.00669688 1.72481e-05
-0.00669688 0.00442694 0.000227738
1.72481e-05 0.000227738 -0.00494299
0.0191247 -0.00103595 0.000114742
-0.00103595 0.000417823 -0.000347493
0.000114742 -0.000347493 0.000558844
0.000629711 0.000351586 -3.53257e-06
0.000351586 0.000503503 2.19799e-05
-3.53257e-06 2.19799e-05 0.000196554
0.000856942 0.000421047 -2.89652e-06
0.000421047 0.000731778 -4.89292e-06
-2.89652e-06 -4.89292e-06 0.000340147
0.000205395 0.000364724 6.20497e-06
0.000364724 0.000499393 -5.13657e-06
6.20497e-06 -5.13657e-06 -2.52896e-05
0.000676441 0.000131537 2.0915e-06
0.000131537 0.00027658 2.24092e-06
2.0915e-06 2.24092e-06 7.03578e-05
0.00138547 -1.73468e-05 -9.22725e-09
-1.73468e-05 0.00082681 3.40361e-06
-9.22725e-09 3.40361e-06 0.000574048
0.00014886 6.36438e-05 3.76246e-06
6.36438e-05 8.68428e-05 -4.50828e-06
3.76246e-06 -4.50828e-06 -0.000154814
1.41493e-05 0.00012726 -2.06518e-07
0.00012726 0.000295954 3.30366e-06
-2.06518e-07 3.30366e-06 -0.000100746
0.000503331 -2.03087e-05 2.66281e-06
-2.03087e-05 0.000227841 1.20427e-06
2.66281e-06 1.20427e-06 2.65488e-06
0.00027834 -6.17046e-06 -2.21432e-07
-6.17046e-06 0.000284495 -3.90201e-06
-2.21432e-07 -3.90201e-06 -3.09478e-05
3.55113e-05 5.86798e-05 -7.40394e-07
5.86798e-05 0.000495255 5.62829e-07
-7.40394e-07 5.62829e-07 -8.05572e-05
-0.000224219 0.000113595 -9.45616e-07
0.000113595 0.000453484 1.97658e-06
-9.45616e-07 1.97658e-06 -0.000174949
0.000574341 -6.6757e-05 4.5935e-06
-6.6757e-05 0.000800651 -1.11114e-05
4.5935e-06 -1.11114e-05 0.000274719
0.000830484 -2.78637e-06 -1.42327e-05
-2.78637e-06 0.000627827 2.91372e-06
-1.42327e-05 2.91372e-06 0.000326564
0.00156724 -0.000234774 4.71412e-06
-0.000234774 0.000950071 4.44694e-06
4.71412e-06 4.44694e-06 0.000746556
-0.000436136 -0.00044272 -6.16929e-06
-0.00044272 -0.000534407 -6.21591e-06
-6.16929e-06 -6.21591e-06 -0.000648482
-0.000610927 -5.24275e-05 2.63542e-05
-5.24275e-05 -0.000321063 3.19342e-06
2.63542e-05 3.19342e-06 -0.000436884
-0.000106256 1.81137e-06 3.14221e-06
1.81137e-06 4.29294e-05 3.36981e-06
3.14221e-06 3.36981e-06 -0.00021338
0.000473306 -0.000159809 -2.45697e-06
-0.000159809 0.000119497 4.71621e-06
-2.45697e-06 4.71621e-06 -2.75622e-05
-0.000325804 -0.000232011 -1.15417e-05
-0.000232011 -0.000255708 -4.23747e-06
-1.15417e-05 -4.23747e-06 -0.000371199
0.00358453 -0.000301505 1.19303e-05
-0.000301505 0.00206916 9.32821e-06
1.19303e-05 9.32821e-06 0.00179408
0.00134543 -0.000162017 4.95442e-06
-0.000162017 0.00108607 8.10363e-06
4.95442e-06 8.10363e-06 0.000767105
0.00147021 -0.000581753 -1.20123e-05
-0.000581753 0.000689901 7.06781e-06
-1.20123e-05 7.06781e-06 0.000259714
0.00141065 -0.000182346 -2.17522e-05
-0.000182346 0.000625777 2.43447e-06
-2.17522e-05 2.43447e-06 0.00036608
0.00116888 -0.000461129 2.00629e-05
-0.000461129 0.000381527 2.32351e-09
2.00629e-05 2.32351e-09 6.79492e-05
0.00206795 -0.000921699 -1.50773e-05
-0.000921699 0.000894912 1.90439e-05
-1.50773e-05 1.90439e-05 0.000320904
0.00240218 -0.000354667 1.7758e-05
-0.000354667 0.00113869 -7.78068e-06
1.7758e-05 -7.78068e-06 0.00088538
0.00244532 -0.000597748 3.88555e-07
-0.000597748 0.00119373 -8.217e-06
3.88555e-07 -8.217e-06 0.000853866
0.000361305 -0.000287234 9.97881e-07
-0.000287234 0.000148596 -2.20384e-06
9.97881e-07 -2.20384e-06 -0.00017257
-0.00239982 -0.000219668 5.96595e-06
-0.000219668 -0.00152885 -9.46903e-06
5.96595e-06 -9.46903e-06 -0.00193465
0.001926 -1.0082e-05 1.53314e-06
-1.0082e-05 0.00122823 4.03438e-07
1.53314e-06 4.03438e-07 0.000921737
0.000643395 -0.000318356 5.44722e-06
-0.000318356 0.000310962 -1.82844e-06
5.44722e-06 -1.82844e-06 1.73568e-05
0.000634092 -0.000118405 1.28165e-05
-0.000118405 0.000232817 3.57787e-06
1.28165e-05 3.57787e-06 -1.14623e-05
0.00202739 -0.000490556 -9.45664e-06
-0.000490556 0.0012512 7.13683e-06
-9.45664e-06 7.13683e-06 0.000985459
0.000221001 -0.000181645 -1.4217e-07
-0.000181645 4.11673e-05 -5.32871e-07
-1.4217e-07 -5.32871e-07 -0.000198217
3.04458e-05 -3.9179e-05 5.19354e-06
-3.9179e-05 -0.000197221 5.35911e-06
5.19354e-06 5.35911e-06 -0.00033347
0.00133291 -0.000236064 -2.92267e-06
-0.000236064 0.000753655 4.74429e-06
-2.92267e-06 4.74429e-06 0.000541688
0.000682091 -0.000102928 1.08605e-07
-0.000102928 0.000224858 4.66994e-07
1.08605e-07 4.66994e-07 0.000111346
0.00147137 -4.16293e-06 -1.68175e-05
-4.16293e-06 0.000691392 8.64796e-06
-1.68175e-05 8.64796e-06 0.000657644
0.000432671 -9.86925e-05 -1.99931e-07
-9.86925e-05 5.81869e-05 -2.04722e-06
-1.99931e-07 -2.04722e-06 -4.44123e-05
0.000802498 -1.89928e-05 -1.56553e-05
-1.89928e-05 0.000255291 7.74968e-07
-1.56553e-05 7.74968e-07 0.000224793
0.000763789 1.75019e-05 3.23128e-06
1.75019e-05 0.000206911 3.15963e-06
3.23128e-06 3.15963e-06 0.000207973
0.000378957 -5.57009e-05 4.69711e-06
-5.57009e-05 -2.11981e-05 -5.37134e-06
4.69711e-06 -5.37134e-06 -5.21146e-05
0.0015934 1.15628e-05 1.79559e-05
1.15628e-05 0.000758288 -1.84633e-06
1.79559e-05 -1.84633e-06 0.000767025
0.0025327 -1.98107e-06 2.54472e-05
-1.98107e-06 0.00138096 -5.37495e-06
2.54472e-05 -5.37495e-06 0.00139334
0.000251948 0.000101461 1.07341e-06
0.000101461 -6.72842e-05 -6.1546e-06
1.07341e-06 -6.1546e-06 -0.000214242
0.000530859 8.71753e-05 2.07106e-07
8.71753e-05 0.000114806 -7.36187e-06
2.07106e-07 -7.36187e-06 2.37268e-05
0.00047882 2.39417e-05 9.42521e-07
2.39417e-05 0.000112923 6.33539e-07
9.42521e-07 6.33539e-07 -3.50715e-05
0.000374691 1.32218e-05 3.07233e-06
1.32218e-05 -4.22146e-05 -6.15813e-06
3.07233e-06 -6.15813e-06 -6.43005e-05
0.000414153 7.10695e-05 4.13396e-07
7.10695e-05 3.12033e-05 2.17338e-08
4.13396e-07 2.17338e-08 -4.75688e-05
0.000341747 -0.000120272 -3.52921e-06
-0.000120272 1.55885e-05 6.36472e-06
-3.52921e-06 6.36472e-06 -0.000119966
0.00229458 1.64326e-05 -1.21219e-05
1.64326e-05 0.00122149 -6.21122e-06
-1.21219e-05 -6.21122e-06 0.00123462
0.000380143 1.07091e-05 -4.84527e-07
1.07091e-05 -3.70747e-05 -6.67717e-09
-4.84527e-07 -6.67717e-09 -5.82314e-05
0.00050177 -8.30952e-07 -2.65668e-06
-8.30952e-07 7.48352e-05 4.98952e-06
-2.65668e-06 4.98952e-06 6.13176e-06
0.000410373 -7.21512e-06 -3.16452e-06
-7.21512e-06 -1.79649e-05 5.65033e-06
-3.16452e-06 5.65033e-06 -4.12393e-05
0.00237579 3.41417e-05 -6.72481e-06
3.41417e-05 0.00127752 -1.92456e-07
-6.72481e-06 -1.92456e-07 0.00128851
0.00254389 5.46268e-05 2.92424e-06
5.46268e-05 0.00139211 6.90152e-06
2.92424e-06 6.90152e-06 0.00139936
0.00188964 -0.00145024 -0.000478206
-0.00145024 0.0116247 7.25238e-05
-0.000478206 7.25238e-05 0.00473977
0.00725158 0.00543325 -0.000541443
0.00543325 0.0050901 0.00018136
-0.000541443 0.00018136 -0.00243525
0.00572945 -0.00216832 -0.000558329
-0.00216832 0.00225465 0.000349483
-0.000558329 0.000349483 -0.0032555
0.0117504 0.00638856 0.00170906
0.00638856 0.0140293 -0.000105156
0.00170906 -0.000105156 0.00294387
0.00514235 0.000988441 4.4379e-05
0.000988441 -0.00173905 5.73324e-06
4.4379e-05 5.73324e-06 0.000815981
0.00312144 -0.000922595 0.000123246
-0.000922595 -0.00120876 8.37479e-06
0.000123246 8.37479e-06 -0.000300988
0.00309489 -0.000927422 0.000632221
-0.000927422 -0.0106518 -2.45771e-05
0.000632221 -2.45771e-05 -0.00867179
0.0240139 0.00782016 -0.00248882
0.00782016 0.0145636 -0.000242747
-0.00248882 -0.000242747 0.00596675
0.0316608 0.024336 -0.00286758
0.024336 0.0221515 0.00176742
-0.00286758 0.00176742 0.00631329
0.0056862 -0.00163717 8.69738e-05
-0.00163717 -0.00241333 -2.56725e-06
8.69738e-05 -2.56725e-06 0.000265016
0.00821065 -0.00614716 0.000362257
-0.00614716 -0.00745074 -0.000233958
0.000362257 -0.000233958 -0.00597684
0.0313176 0.0100023 -0.000616401
0.0100023 0.0150181 -0.000333887
-0.000616401 -0.000333887 0.00373796
0.0260121 0.00627845 0.000457363
0.00627845 0.0121395 0.000589885
0.000457363 0.000589885 0.00422079
0.00276657 -0.00380089 -0.000110042
-0.00380089 -0.00474628 0.000116685
-0.000110042 0.000116685 -0.0012216
0.00188909 -0.00916524 0.00112032
-0.00916524 -0.00380217 -0.000299628
0.00112032 -0.000299628 -0.00438538
0.0178183 0.00453781 -0.000646802
0.00453781 0.00903087 -0.00134598
-0.000646802 -0.00134598 -0.0014293
0.0119178 -0.00126967 -0.000418721
-0.00126967 0.00155461 5.66588e-05
-0.000418721 5.66588e-05 -0.000714206
0.00162619 -3.60854e-05 5.29614e-07
-3.60854e-05 0.000999025 1.28758e-05
5.29614e-07 1.28758e-05 0.000691142
0.000141188 2.33982e-05 -4.51743e-07
2.33982e-05 -2.59153e-05 -7.9711e-07
-4.51743e-07 -7.9711e-07 -0.000205197
0.000655615 0.000140539 1.29424e-06
0.000140539 0.000236331 1.80257e-06
1.29424e-06 1.80257e-06 9.07255e-05
-0.000470129 -0.000118669 -9.91811e-06
-0.000118669 -0.00049849 -1.84578e-06
-9.91811e-06 -1.84578e-06 -0.000531373
0.000144941 0.000159614 4.54921e-06
0.000159614 -9.75109e-05 1.54184e-05
4.54921e-06 1.54184e-05 -0.000308784
0.000513247 9.98083e-05 -7.48611e-07
9.98083e-05 0.000202528 -9.13479e-07
-7.48611e-07 -9.13479e-07 -1.41766e-05
-0.000157964 -3.87976e-05 -2.1593e-08
-3.87976e-05 -0.000252075 2.51085e-06
-2.1593e-08 2.51085e-06 -0.000406384
0.000793601 0.000188082 8.81831e-06
0.000188082 0.000368007 7.77497e-06
8.81831e-06 7.77497e-06 0.000123075
0.000952231 0.000218717 -3.32099e-07
0.000218717 0.000480344 -1.70295e-06
-3.32099e-07 -1.70295e-06 0.00023501
0.000415585 5.40291e-05 -3.88872e-06
5.40291e-05 0.000103997 2.38565e-06
-3.88872e-06 2.38565e-06 -8.69461e-05
0.00173404 -0.00107108 0.000142878
-0.00107108 -0.0014711 -8.54941e-05
0.000142878 -8.54941e-05 -0.000635805
0.000981831 -0.00115641 1.67249e-06
-0.00115641 -0.000624829 -1.55473e-05
1.67249e-06 -1.55473e-05 -0.000740422
0.00204359 -0.00152059 8.95289e-06
-0.00152059 0.000281933 6.65608e-06
8.95289e-06 6.65608e-06 -0.000241225
-0.00066822 -0.000946664 9.17595e-06
-0.000946664 -0.00079063 -7.88883e-06
9.17595e-06 -7.88883e-06 -0.00111789
0.00341716 -0.000771304 -7.62486e-05
-0.000771304 0.00240512 7.37133e-05
-7.62486e-05 7.37133e-05 0.00187519
0.00108644 -0.000336179 -2.37491e-08
-0.000336179 0.000897885 -1.61831e-05
-2.37491e-08 -1.61831e-05 0.00047458
0.00101423 4.1604e-05 1.67706e-06
4.1604e-05 0.000722521 -9.17113e-06
1.67706e-06 -9.17113e-06 0.000363468
0.000814928 4.15411e-05 -6.78465e-06
4.15411e-05 0.000514939 3.29888e-07
-6.78465e-06 3.29888e-07 0.000204543
0.00336709 -0.00199884 -3.31544e-05
-0.00199884 -0.000227797 4.16679e-06
-3.31544e-05 4.16679e-06 0.000183974
0.000918117 -9.00084e-05 -1.5996e-06
-9.00084e-05 0.000745525 5.6462e-06
-1.5996e-06 5.6462e-06 0.000336275
0.00129279 -0.000354346 1.17023e-05
-0.000354346 0.00100737 -7.27189e-06
1.17023e-05 -7.27189e-06 0.000585426
0.00142966 -0.00135018 1.62309e-05
-0.00135018 9.37728e-05 -2.44963e-06
1.62309e-05 -2.44963e-06 -0.000308913
0.000151531 -0.000633338 -9.56908e-06
-0.000633338 0.000214282 4.68446e-06
-9.56908e-06 4.68446e-06 -0.000171437
0.0026412 -0.00307954 3.32078e-05
-0.00307954 0.000419499 -3.46316e-06
3.32078e-05 -3.46316e-06 -0.000350192
0.000129625 -0.000916404 -7.67305e-06
-0.000916404 0.000301619 1.83795e-05
-7.67305e-06 1.83795e-05 -0.000161389
-0.00112802 -0.000195224 2.091e-06
-0.000195224 -9.95913e-05 -1.83497e-06
2.091e-06 -1.83497e-06 -0.000735065
0.000557442 0.00014165 8.53153e-06
0.00014165 0.000418196 -1.88083e-06
8.53153e-06 -1.88083e-06 0.000182773
-0.000570373 -0.000185446 -1.08609e-05
-0.000185446 -6.39823e-05 3.22306e-05
-1.08609e-05 3.22306e-05 -0.000516598
0.0029554 0.000397738 -0.00020153
0.000397738 0.00270976 -7.39126e-05
-0.00020153 -7.39126e-05 -0.00271452
-0.00710723 0.000348005 -0.000985458
0.000348005 0.00772535 1.80816e-05
-0.000985458 1.80816e-05 0.00130093
-0.0098001 -0.00458342 -0.00184395
-0.00458342 -0.000271189 5.36052e-05
-0.00184395 5.36052e-05 -0.00643866
6.08838e-05 0.000561678 1.71589e-05
0.000561678 0.000103853 -6.28832e-06
1.71589e-05 -6.28832e-06 -0.000365545
0.00110857 0.00120319 6.76601e-06
0.00120319 0.000529474 1.29289e-05
6.76601e-06 1.29289e-05 -0.0001891
0.00415367 0.0022805 7.57502e-05
0.0022805 0.00132613 7.33073e-05
7.57502e-05 7.33073e-05 0.000715575
-0.000129878 0.000701129 0.000226779
0.000701129 0.0118952 8.87191e-05
0.000226779 8.87191e-05 0.00410415
0.00245629 0.0094894 -0.00105844
0.0094894 -0.0045067 -0.000225776
-0.00105844 -0.000225776 -0.00457338
0.000652428 0.00472759 0.000593105
0.00472759 -0.000711719 0.000293318
0.000593105 0.000293318 -0.000291402
8.12064e-06 0.00190448 -8.99482e-06
0.00190448 0.000254786 -5.52811e-05
-8.99482e-06 -5.52811e-05 -0.000100176
0.0342814 -0.00672815 0.00027147
-0.00672815 0.0157089 -0.000719736
0.00027147 -0.000719736 0.00574879
0.0105362 0.00520945 0.00143863
0.00520945 0.00442509 0.000414228
0.00143863 0.000414228 -0.00337605
0.0146435 -0.000926352 8.1885e-05
-0.000926352 0.00365429 9.00815e-05
8.1885e-05 9.00815e-05 0.00374766
0.0020016 0.00117891 9.30201e-06
0.00117891 0.00119587 -6.46426e-07
9.30201e-06 -6.46426e-07 0.00056847
0.0041718 0.002268 -0.000150916
0.002268 0.00543766 -3.46275e-05
-0.000150916 -3.46275e-05 -0.00100268
0.00381417 0.00125889 0.000189894
0.00125889 0.0020336 -2.50656e-05
0.000189894 -2.50656e-05 -0.00132169
0.00020943 0.00125861 -2.54544e-05
0.00125861 0.000479441 -1.01543e-05
-2.54544e-05 -1.01543e-05 -0.000268532
-0.00131508 0.00306747 -0.000177576
0.00306747 0.000421627 -0.000127102
-0.000177576 -0.000127102 -0.00116715
0.00310306 0.00996417 0.000593263
0.00996417 0.00224305 0.000210134
0.000593263 0.000210134 -0.00309829
0.0146648 -0.000840133 2.51376e-05
-0.000840133 -0.00183545 -0.000217654
2.51376e-05 -0.000217654 -0.0012983
0.0108236 -0.00379767 -0.000157918
-0.00379767 0.00684334 -0.000273731
-0.000157918 -0.000273731 -0.00200944
0.0014388 0.000986123 -1.98349e-06
0.000986123 0.00132577 -1.67951e-05
-1.98349e-06 -1.67951e-05 0.000580864
-0.00371676 0.00128645 0.000114862
0.00128645 0.00266261 0.000103014
0.000114862 0.000103014 -0.0012852
0.00916836 -0.00167575 0.000478811
-0.00167575 0.000929992 -4.59061e-05
0.000478811 -4.59061e-05 -0.00182598
0.0120304 -0.00132394 0.000404568
-0.00132394 0.00147156 -3.28998e-05
0.000404568 -3.28998e-05 -0.000549076
-0.00323996 0.000753692 7.63095e-05
0.000753692 0.000629135 -6.04476e-06
7.63095e-05 -6.04476e-06 -0.000809026
0.00706975 0.00487919 0.000519174
0.00487919 0.00640364 0.000283217
0.000519174 0.000283217 -0.00147555
0.0117451 -0.000774556 -4.40351e-05
-0.000774556 0.00382889 0.000456327
-4.40351e-05 0.000456327 -0.00107185
0.00210864 0.000553214 1.79192e-05
0.000553214 0.0015038 1.4653e-05
1.79192e-05 1.4653e-05 0.00107465
0.000342926 0.000437069 -8.3751e-06
0.000437069 0.000569286 -3.23736e-06
-8.3751e-06 -3.23736e-06 -1.05884e-05
2.22039e-05 0.000327463 5.28197e-06
0.000327463 0.000609365 -1.05551e-05
5.28197e-06 -1.05551e-05 -0.000175843
0.000169754 0.000112363 8.05936e-06
0.000112363 1.2166e-05 2.41737e-06
8.05936e-06 2.41737e-06 -0.000212816
0.000321094 5.64941e-05 4.25164e-06
5.64941e-05 0.00028365 -4.19775e-06
4.25164e-06 -4.19775e-06 -8.20361e-06
4.85804e-05 4.81351e-05 1.65542e-06
4.81351e-05 0.000570381 3.81475e-06
1.65542e-06 3.81475e-06 -4.42799e-05
-0.000136263 -2.97947e-05 -1.16626e-06
-2.97947e-05 4.62916e-06 1.22536e-08
-1.16626e-06 1.22536e-08 -0.000290727
0.000130989 -5.34489e-05 -1.33176e-06
-5.34489e-05 0.000561067 -1.55652e-06
-1.33176e-06 -1.55652e-06 1.4999e-05
-0.000323994 3.89915e-05 2.77867e-06
3.89915e-05 0.00046633 1.21507e-06
2.77867e-06 1.21507e-06 -0.000197051
0.000594587 -0.000141658 -1.39729e-05
-0.000141658 0.000902797 1.26696e-05
-1.39729e-05 1.26696e-05 0.000386746
0.000232658 -3.91669e-05 3.01755e-06
-3.91669e-05 0.000508346 -1.02837e-05
3.01755e-06 -1.02837e-05 9.13649e-05
-0.000392181 -8.5766e-06 1.48912e-05
-8.5766e-06 -0.000157271 -2.85722e-06
1.48912e-05 -2.85722e-06 -0.000393731
0.00117859 -0.000147954 -5.89854e-06
-0.000147954 0.000535452 3.2098e-06
-5.89854e-06 3.2098e-06 0.000402294
-0.00311301 -8.77084e-05 1.59064e-06
-8.77084e-05 -0.00194485 -1.65943e-05
1.59064e-06 -1.65943e-05 -0.00208378
0.000890145 -0.000131318 -9.99994e-07
-0.000131318 0.000783228 6.4276e-06
-9.99994e-07 6.4276e-06 0.000472745
-0.000298317 -7.825e-05 -1.28984e-05
-7.825e-05 -0.000211642 2.13163e-06
-1.28984e-05 2.13163e-06 -0.000580638
0.003288 -0.000772128 3.57916e-06
-0.000772128 0.00190022 1.48959e-05
3.57916e-06 1.48959e-05 0.00149868
0.00101978 -0.00041674 9.52912e-06
-0.00041674 0.000474568 -2.69706e-06
9.52912e-06 -2.69706e-06 0.000191383
0.000292672 -0.000486179 7.42063e-06
-0.000486179 -9.56998e-05 1.27314e-05
7.42063e-06 1.27314e-05 -0.000494322
0.000292866 -0.000189693 -2.37443e-06
-0.000189693 -8.70815e-05 8.09493e-09
-2.37443e-06 8.09493e-09 -0.000308345
0.00115531 -0.000481555 -6.5379e-06
-0.000481555 0.000385554 5.88194e-06
-6.5379e-06 5.88194e-06 5.98845e-05
0.00250051 -0.00099448 -1.4179e-05
-0.00099448 0.00111851 1.33049e-05
-1.4179e-05 1.33049e-05 0.000499307
0.00193331 -0.0010578 -5.60961e-06
-0.0010578 0.000677199 1.77309e-07
-5.60961e-06 1.77309e-07 2.67481e-06
0.00110886 -0.000499324 4.43913e-06
-0.000499324 0.00025447 1.33201e-06
4.43913e-06 1.33201e-06 -8.45538e-05
0.00141797 -0.000807154 5.73202e-06
-0.000807154 0.000506612 -1.68493e-06
5.73202e-06 -1.68493e-06 -2.81468e-05
0.00189555 -0.000338947 2.99553e-06
-0.000338947 0.00106649 -9.97737e-06
2.99553e-06 -9.97737e-06 0.000673541
0.00103297 -0.000289413 -5.53203e-06
-0.000289413 0.000330363 2.6967e-06
-5.53203e-06 2.6967e-06 5.31437e-05
0.000260799 -0.000389573 1.51306e-05
-0.000389573 -0.000155372 -1.32306e-05
1.51306e-05 -1.32306e-05 -0.000434242
0.00257558 -0.00029321 -5.47461e-06
-0.00029321 0.0015062 3.27407e-06
-5.47461e-06 3.27407e-06 0.00119106
-0.000534865 -0.000328803 1.17217e-06
-0.000328803 -0.000393833 -6.60355e-07
1.17217e-06 -6.60355e-07 -0.000780614
-0.000170417 -6.2577e-05 1.08444e-05
-6.2577e-05 -0.000264968 5.52514e-06
1.08444e-05 5.52514e-06 -0.000597173
0.00250376 -0.000739321 -8.85942e-06
-0.000739321 0.0014423 9.53715e-06
-8.85942e-06 9.53715e-06 0.00115803
0.00125383 -0.000303706 -4.88817e-07
-0.000303706 0.000639669 -7.10107e-07
-4.88817e-07 -7.10107e-07 0.000379433
9.00792e-06 -0.000103112 9.12532e-06
-0.000103112 -0.000225781 1.17039e-05
9.12532e-06 1.17039e-05 -0.000400677
0.000878007 -0.000241418 -7.21626e-06
-0.000241418 0.000455161 -4.39113e-06
-7.21626e-06 -4.39113e-06 0.000229258
0.000432514 -3.91841e-05 -3.35153e-06
-3.91841e-05 7.28811e-05 -9.01941e-07
-3.35153e-06 -9.01941e-07 -7.4151e-05
0.00152822 -4.2775e-05 -2.76351e-05
-4.2775e-05 0.000726503 7.32437e-06
-2.76351e-05 7.32437e-06 0.000689124
0.000596119 -0.000101108 -1.39148e-06
-0.000101108 0.000162802 -2.3923e-06
-1.39148e-06 -2.3923e-06 4.78642e-05
0.000873403 -3.4277e-05 -1.44896e-05
-3.4277e-05 0.000296557 9.26116e-07
-1.44896e-05 9.26116e-07 0.000260314
0.000767749 2.63164e-05 2.80253e-06
2.63164e-05 0.000204211 3.14106e-06
2.80253e-06 3.14106e-06 0.000198565
0.000422527 -4.79946e-05 3.19933e-06
-4.79946e-05 4.62939e-06 -6.40647e-06
3.19933e-06 -6.40647e-06 -2.92243e-05
0.00173507 2.40517e-05 2.09418e-05
2.40517e-05 0.00084857 -1.3321e-06
2.09418e-05 -1.3321e-06 0.000856254
0.00241574 9.38457e-06 2.88799e-05
9.38457e-06 0.0012992 -5.51988e-06
2.88799e-05 -5.51988e-06 0.00131332
0.000131734 3.64073e-05 6.17774e-07
3.64073e-05 -0.000115392 1.48512e-06
6.17774e-07 1.48512e-06 -0.000317308
-4.08646e-05 2.97911e-05 4.39516e-07
2.97911e-05 -0.000277007 -9.33471e-06
4.39516e-07 -9.33471e-06 -0.000376655
0.000585511 7.94774e-05 -9.9357e-08
7.94774e-05 0.00017869 1.05149e-06
-9.9357e-08 1.05149e-06 9.13293e-06
0.000382261 1.58739e-05 3.30775e-06
1.58739e-05 -3.73065e-05 -6.7123e-06
3.30775e-06 -6.7123e-06 -6.28229e-05
0.000272742 4.89576e-06 1.59328e-06
4.89576e-06 -7.25696e-05 4.94314e-08
1.59328e-06 4.94314e-08 -0.000156793
0.000265121 -0.000125556 5.48378e-08
-0.000125556 -2.48462e-05 7.36855e-06
5.48378e-08 7.36855e-06 -0.000179912
0.00234083 6.89746e-07 -1.63284e-05
6.89746e-07 0.00125108 -6.38057e-06
-1.63284e-05 -6.38057e-06 0.00126426
0.000375209 1.22441e-05 9.0938e-07
1.22441e-05 -4.15305e-05 -6.12769e-08
9.0938e-07 -6.12769e-08 -6.36249e-05
0.000372365 -1.64165e-05 -5.88582e-06
-1.64165e-05 -4.36518e-06 6.03494e-06
-5.88582e-06 6.03494e-06 -7.87902e-05
0.00232236 1.73927e-05 -5.85926e-06
1.73927e-05 0.00124041 -2.90055e-08
-5.85926e-06 -2.90055e-08 0.00125318
0.000380024 7.05263e-07 -3.54847e-06
7.05263e-07 -3.67288e-05 5.50201e-06
-3.54847e-06 5.50201e-06 -5.79466e-05
0.00239287 3.59336e-05 8.48313e-06
3.59336e-05 0.00128929 6.79873e-06
8.48313e-06 6.79873e-06 0.00129973
-0.00139143 -0.00242593 -0.000382183
-0.00242593 -4.36615e-05 0.000154801
-0.000382183 0.000154801 -0.00527431
0.00683419 0.00395408 -0.0004137
0.00395408 0.0142604 8.55361e-05
-0.0004137 8.55361e-05 0.00495638
0.00879653 0.00230063 -0.00211195
0.00230063 0.00711511 0.0003554
-0.00211195 0.0003554 0.00322125
0.000547534 0.00012335 9.96071e-06
0.00012335 0.00021023 2.66534e-06
9.96071e-06 2.66534e-06 -2.51034e-05
0.00820542 -0.00199588 -0.000259424
-0.00199588 0.00581605 0.000381038
-0.000259424 0.000381038 0.00192498
0.0050486 -0.00194553 -0.00031098
-0.00194553 0.00292299 3.61334e-05
-0.00031098 3.61334e-05 -0.00283381
0.0262426 0.01288 5.33835e-05
0.01288 0.0166963 -0.000716285
5.33835e-05 -0.000716285 0.00323799
0.00708428 -0.00251957 0.0002068
-0.00251957 -0.00210002 -3.49813e-05
0.0002068 -3.49813e-05 0.00026161
0.0130285 -0.00541103 0.000430338
-0.00541103 -0.00349764 -0.000344796
0.000430338 -0.000344796 -0.00101974
0.0223828 0.00787837 -0.00126284
0.00787837 0.0096954 0.000201151
-0.00126284 0.000201151 -0.000673039
0.0192321 0.00567621 0.000549929
0.00567621 0.0134201 0.000371615
0.000549929 0.000371615 0.00751052
0.0075628 -0.00465986 -9.65131e-05
-0.00465986 -0.00181291 -8.65454e-07
-9.65131e-05 -8.65454e-07 0.000623303
0.0111176 -0.00951991 2.59892e-05
-0.00951991 -0.00043438 -8.20801e-05
2.59892e-05 -8.20801e-05 -0.00156151
0.0153154 0.00232594 8.1349e-05
0.00232594 0.0110394 -0.000566946
8.1349e-05 -0.000566946 0.0014773
0.0180068 0.0014069 -3.49321e-05
0.0014069 0.00407292 9.52807e-05
-3.49321e-05 9.52807e-05 0.000137974
0.00478366 -0.0059386 9.71361e-06
-0.0059386 0.000557386 4.77447e-05
9.71361e-06 4.77447e-05 0.00153659
0.00879364 -0.0087534 0.000423702
-0.0087534 0.00461201 -0.000252193
0.000423702 -0.000252193 0.000393561
0.00805953 0.00070957 -0.000123196
0.00070957 0.00742029 -0.000520943
-0.000123196 -0.000520943 0.00105241
0.0178468 -0.000869769 -0.000298873
-0.000869769 0.00114982 0.000345292
-0.000298873 0.000345292 0.000666931
0.000349795 0.000260941 2.06805e-05
0.000260941 0.000157762 1.96561e-05
2.06805e-05 1.96561e-05 -6.79224e-05
0.000457491 -0.000101828 -7.02399e-07
-0.000101828 0.000232006 -2.4969e-06
-7.02399e-07 -2.4969e-06 -3.5809e-05
-0.000380645 -2.38849e-05 3.23474e-06
-2.38849e-05 -0.000405131 1.61142e-06
3.23474e-06 1.61142e-06 -0.000549687
0.000720699 0.000245328 1.46626e-05
0.000245328 0.000252478 2.38185e-05
1.46626e-05 2.38185e-05 5.78686e-05
0.00107889 0.000283175 -3.1807e-06
0.000283175 0.000571331 -3.95342e-06
-3.1807e-06 -3.95342e-06 0.0003093
0.00061634 0.000122772 8.38253e-07
0.000122772 0.000276623 8.27662e-07
8.38253e-07 8.27662e-07 5.90057e-05
0.00141846 0.000248363 -1.73812e-06
0.000248363 0.000808842 3.05759e-09
-1.73812e-06 3.05759e-09 0.00053899
0.00108497 0.000233232 1.11956e-06
0.000233232 0.00058074 6.6545e-06
1.11956e-06 6.6545e-06 0.000320479
0.00253703 -0.00178744 0.000177618
-0.00178744 -0.000751614 -0.000113498
0.000177618 -0.000113498 -7.71928e-05
-0.000484842 -0.00110262 -6.37695e-06
-0.00110262 -0.00100376 -2.09557e-05
-6.37695e-06 -2.09557e-05 -0.00129474
-0.000916195 4.69808e-05 -7.56276e-06
4.69808e-05 -0.000655583 -1.17602e-05
-7.56276e-06 -1.17602e-05 -0.000878602
0.000196262 -0.000655505 1.98287e-05
-0.000655505 0.000111073 -1.38292e-05
1.98287e-05 -1.38292e-05 -0.000197756
0.00258745 -0.000533191 -3.20501e-05
-0.000533191 0.0017341 1.06992e-05
-3.20501e-05 1.06992e-05 0.00131718
0.00110808 -0.00013299 1.70911e-05
-0.00013299 0.000850214 -3.02279e-05
1.70911e-05 -3.02279e-05 0.000408821
-0.00067652 0.00018587 2.55879e-06
0.00018587 -0.000371934 1.71705e-05
2.55879e-06 1.71705e-05 -0.000637524
0.0018759 -0.00284177 -1.7618e-05
-0.00284177 4.17028e-05 -3.81804e-06
-1.7618e-05 -3.81804e-06 -0.000613902
0.00111472 -0.000244149 -6.26065e-06
-0.000244149 0.000964982 3.55237e-06
-6.26065e-06 3.55237e-06 0.000500092
-0.000481121 -0.00020773 -2.37978e-06
-0.00020773 0.000105978 8.43115e-06
-2.37978e-06 8.43115e-06 -0.000429531
-0.000676245 -0.000811057 6.12006e-06
-0.000811057 -0.000324443 1.88361e-06
6.12006e-06 1.88361e-06 -0.000642781
-0.000881651 -2.66695e-05 1.67293e-05
-2.66695e-05 -0.0004328 -5.09614e-06
1.67293e-05 -5.09614e-06 -0.000703716
0.00278082 -0.0029554 -0.000105609
-0.0029554 0.00222269 -9.2047e-06
-0.000105609 -9.2047e-06 0.000790612
-0.000710742 -0.000738222 1.12079e-05
-0.000738222 4.45137e-05 -6.90866e-06
1.12079e-05 -6.90866e-06 -0.000558816
3.96911e-06 1.00588e-06 1.78621e-05
1.00588e-06 0.000577267 -6.00453e-06
1.78621e-05 -6.00453e-06 -0.000115317
-5.16445e-05 -2.16075e-05 8.60091e-06
-2.16075e-05 0.000571176 2.41358e-05
8.60091e-06 2.41358e-05 -0.000174291
0.000804647 -0.000151983 0.000382292
-0.000151983 0.00596686 9.48504e-05
0.000382292 9.48504e-05 0.00171965
-0.000304284 0.000103221 0.000220412
0.000103221 0.00138001 -1.74578e-05
0.000220412 -1.74578e-05 -0.00433633
-0.0137784 -0.000705549 -0.00100535
-0.000705549 0.00611472 2.37663e-05
-0.00100535 2.37663e-05 0.000866556
0.0021377 0.00113411 2.4321e-05
0.00113411 0.00132259 6.83217e-06
2.4321e-05 6.83217e-06 0.000734179
-0.00047542 0.00151515 2.76048e-05
0.00151515 0.00014095 1.67074e-05
2.76048e-05 1.67074e-05 -0.000790707
0.00573388 0.00286338 0.000835286
0.00286338 0.00548037 0.000211143
0.000835286 0.000211143 -0.000209924
0.00389982 0.00630092 0.000239934
0.00630092 0.00349476 0.000261753
0.000239934 0.000261753 -0.000536466
0.00121965 0.0045886 -0.000257493
0.0045886 0.00165781 -0.000231929
-0.000257493 -0.000231929 -0.000649429
0.00742125 -0.00186862 -0.000134078
-0.00186862 0.00701627 -0.000544162
-0.000134078 -0.000544162 0.000415439
0.00453655 0.000521195 7.63474e-05
0.000521195 0.00262067 0.000113603
7.63474e-05 0.000113603 -0.000601916
0.0112383 -0.000139883 -3.89088e-05
-0.000139883 -0.00376538 -0.000293352
-3.89088e-05 -0.000293352 -0.00350344
0.000694812 0.00105723 5.16057e-06
0.00105723 0.000826802 -8.58715e-07
5.16057e-06 -8.58715e-07 1.33114e-05
-0.00236411 0.000825636 1.43811e-05
0.000825636 0.00303354 5.37957e-06
1.43811e-05 5.37957e-06 -0.00111777
0.00784735 -0.000637552 0.000295747
-0.000637552 0.000825324 8.0155e-06
0.000295747 8.0155e-06 -0.00211416
-0.00213175 0.00127559 -3.6114e-05
0.00127559 0.000304625 -1.86611e-05
-3.6114e-05 -1.86611e-05 -0.00108678
0.0189736 0.00178254 4.0001e-05
0.00178254 0.00402606 -0.000105312
4.0001e-05 -0.000105312 1.49778e-05
0.00408261 0.00341997 0.000426625
0.00341997 0.00648174 0.000278775
0.000426625 0.000278775 -0.00103316
0.0161588 0.000669096 -0.000227249
0.000669096 0.00604113 -2.86924e-05
-0.000227249 -2.86924e-05 0.000187946
0.000264548 0.000961676 -2.17416e-06
0.000961676 0.000827779 -1.74632e-05
-2.17416e-06 -1.74632e-05 -0.000178998
0.00471447 2.45976e-05 0.000116183
2.45976e-05 0.00328535 6.69374e-05
0.000116183 6.69374e-05 8.828e-05
0.00385848 -0.00386492 0.000396792
-0.00386492 0.00485837 -0.000272441
0.000396792 -0.000272441 0.00157379
0.0368824 0.00816555 0.000636103
0.00816555 0.0164748 -0.00043539
0.000636103 -0.00043539 0.00733651
0.00969213 -4.08398e-05 -2.69912e-06
-4.08398e-05 0.0084534 0.000648239
-2.69912e-06 0.000648239 0.00186608
-0.00196773 0.00119504 -0.000215133
0.00119504 0.00129914 -0.000131859
-0.000215133 -0.000131859 -0.000257171
0.00095026 2.00021e-05 0.000173663
2.00021e-05 0.00577851 -2.59099e-05
0.000173663 -2.59099e-05 -0.00471574
0.000789593 0.000567743 4.33381e-06
0.000567743 0.000797535 1.60967e-05
4.33381e-06 1.60967e-05 0.000173375
0.000483493 0.000369794 5.48968e-06
0.000369794 0.00091467 5.32006e-06
5.48968e-06 5.32006e-06 0.000180357
0.000397633 -0.000166954 -7.65603e-06
-0.000166954 0.00131537 2.13313e-05
-7.65603e-06 2.13313e-05 0.00058493
-0.000679463 -2.32512e-05 1.50746e-05
-2.32512e-05 -0.000332411 -2.83339e-06
1.50746e-05 -2.83339e-06 -0.000631353
-2.90247e-05 -1.60897e-05 3.58163e-06
-1.60897e-05 0.000479839 1.01038e-05
3.58163e-06 1.01038e-05 -7.04578e-05
0.000198041 5.86628e-05 -4.31577e-06
5.86628e-05 0.000783265 -1.94699e-06
-4.31577e-06 -1.94699e-06 0.000111028
0.000172142 -3.09652e-05 -1.08554e-07
-3.09652e-05 0.000420487 5.33324e-07
-1.08554e-07 5.33324e-07 5.57526e-05
0.00030636 -9.79928e-05 1.22404e-06
-9.79928e-05 0.000756983 2.52447e-06
1.22404e-06 2.52447e-06 0.000222749
0.00424167 -0.000807147 2.13491e-05
-0.000807147 0.00273495 -1.04815e-05
2.13491e-05 -1.04815e-05 0.00233045
0.000313686 -9.14912e-05 -5.37462e-06
-9.14912e-05 0.000399704 -4.56075e-06
-5.37462e-06 -4.56075e-06 0.000106032
-0.00535293 7.35305e-05 3.65186e-06
7.35305e-05 -0.00321425 -8.41504e-06
3.65186e-06 -8.41504e-06 -0.00366186
0.00112943 -0.000568172 -2.30811e-06
-0.000568172 0.000699387 3.71369e-06
-2.30811e-06 3.71369e-06 0.000194237
-0.00286229 -0.000115608 2.42542e-05
-0.000115608 -0.00174231 1.46637e-05
2.42542e-05 1.46637e-05 -0.00214805
-0.000476838 -0.000202842 -2.38547e-06
-0.000202842 -0.000377486 -1.28071e-07
-2.38547e-06 -1.28071e-07 -0.000536532
0.000137614 -0.000524918 -1.43002e-05
-0.000524918 -0.000214018 -4.90954e-06
-1.43002e-05 -4.90954e-06 -0.000594237
0.00191967 -0.0010088 -6.31035e-06
-0.0010088 0.000760132 3.5072e-06
-6.31035e-06 3.5072e-06 7.727e-06
0.00228959 -0.00124071 -1.56056e-05
-0.00124071 0.000816957 4.21209e-06
-1.56056e-05 4.21209e-06 4.91982e-05
0.00181223 -0.000569772 8.25574e-06
-0.000569772 0.000794328 -1.0061e-05
8.25574e-06 -1.0061e-05 0.000446776
0.00181237 -0.000901517 -2.64526e-06
-0.000901517 0.000698995 1.62503e-06
-2.64526e-06 1.62503e-06 9.76772e-05
0.00188671 -0.00110994 1.06477e-05
-0.00110994 0.000578353 -7.77774e-06
1.06477e-05 -7.77774e-06 -0.000115167
0.0016071 -0.0007909 7.19703e-06
-0.0007909 0.000584556 3.14661e-06
7.19703e-06 3.14661e-06 4.51179e-05
0.00169066 -0.00101983 4.92477e-06
-0.00101983 0.000544917 -4.86868e-06
4.92477e-06 -4.86868e-06 -0.00011679
0.00162016 -0.000323979 -4.43808e-06
-0.000323979 0.000648256 -6.78814e-06
-4.43808e-06 -6.78814e-06 0.000355622
0.000696752 -0.000471303 -5.93501e-07
-0.000471303 6.58756e-06 2.25757e-07
-5.93501e-07 2.25757e-07 -0.000349341
0.00123758 -0.000757081 7.40464e-06
-0.000757081 0.000418469 -9.66625e-06
7.40464e-06 -9.66625e-06 -9.51822e-05
-0.000340778 -0.000144342 5.7356e-06
-0.000144342 -0.000319849 1.50446e-06
5.7356e-06 1.50446e-06 -0.000726145
0.000415831 -0.000274519 2.29407e-07
-0.000274519 0.00017001 1.87379e-07
2.29407e-07 1.87379e-07 -0.000231333
-0.000750398 -0.000187513 3.0944e-06
-0.000187513 -0.000725288 -5.13844e-07
3.0944e-06 -5.13844e-07 -0.0010255
0.0015953 -0.0004179 -7.06099e-06
-0.0004179 0.000909333 1.22055e-05
-7.06099e-06 1.22055e-05 0.000543284
0.000908095 -0.000290209 1.93056e-06
-0.000290209 0.000420779 6.29745e-07
1.93056e-06 6.29745e-07 7.65901e-05
-0.00041695 -7.22911e-05 5.66445e-06
-7.22911e-05 -0.000485885 1.10481e-05
5.66445e-06 1.10481e-05 -0.000734956
0.000885692 -0.000513848 -1.30928e-05
-0.000513848 0.000439194 -3.6599e-06
-1.30928e-05 -3.6599e-06 0.000133924
0.000571731 -0.00010529 -9.4904e-07
-0.00010529 0.000133687 -4.99555e-08
-9.4904e-07 -4.99555e-08 -4.59366e-05
0.000300295 2.96739e-05 3.13867e-06
2.96739e-05 -7.7453e-05 1.26555e-05
3.13867e-06 1.26555e-05 -0.00013767
0.00146351 -0.000174294 -6.38278e-06
-0.000174294 0.000741076 -5.89916e-06
-6.38278e-06 -5.89916e-06 0.000584641
0.00044454 -4.79892e-05 -2.66533e-06
-4.79892e-05 6.07965e-06 9.97564e-08
-2.66533e-06 9.97564e-08 -3.89427e-05
0.00280229 9.61767e-05 3.94925e-06
9.61767e-05 0.00155782 3.65213e-06
3.94925e-06 3.65213e-06 0.00155737
0.000487765 -5.90562e-05 3.64823e-06
-5.90562e-05 4.1062e-05 -7.03087e-06
3.64823e-06 -7.03087e-06 -5.36166e-07
0.00180153 3.56127e-05 2.76357e-05
3.56127e-05 0.000894161 -1.53783e-06
2.76357e-05 -1.53783e-06 0.000896942
0.00277525 2.45206e-05 4.03231e-05
2.45206e-05 0.00153572 -6.57311e-06
4.03231e-05 -6.57311e-06 0.00154762
0.000121566 8.75332e-05 1.55153e-06
8.75332e-05 -0.000130914 2.12014e-06
1.55153e-06 2.12014e-06 -0.000328579
1.83896e-06 2.66386e-05 2.45341e-06
2.66386e-05 -0.000243302 -8.63961e-06
2.45341e-06 -8.63961e-06 -0.000371183
0.000303154 7.63025e-05 -1.75164e-07
7.63025e-05 5.46492e-06 1.96564e-07
-1.75164e-07 1.96564e-07 -0.000194943
0.000414234 1.44175e-05 4.09585e-06
1.44175e-05 -1.80823e-05 -7.72494e-06
4.09585e-06 -7.72494e-06 -4.84266e-05
-3.7752e-05 3.50603e-05 -9.90045e-07
3.50603e-05 -0.000273503 -2.68093e-06
-9.90045e-07 -2.68093e-06 -0.00037636
0.000704408 0.000111678 6.52227e-07
0.000111678 0.000287591 7.67333e-06
6.52227e-07 7.67333e-06 9.8935e-05
0.00245863 -1.51211e-05 -2.23613e-05
-1.51211e-05 0.00132887 -6.44988e-06
-2.23613e-05 -6.44988e-06 0.0013411
0.000387509 1.26297e-05 -8.2623e-07
1.26297e-05 -3.55041e-05 -1.60464e-07
-8.2623e-07 -1.60464e-07 -6.02502e-05
-0.000139867 1.85205e-05 2.35701e-07
1.85205e-05 -0.000345197 6.92364e-06
2.35701e-07 6.92364e-06 -0.00043039
0.00234648 1.15067e-06 -4.64295e-06
1.15067e-06 0.00125503 1.06005e-07
-4.64295e-06 1.06005e-07 0.00126815
0.000383077 1.54605e-05 -2.49558e-06
1.54605e-05 -3.61426e-05 5.87882e-06
-2.49558e-06 5.87882e-06 -5.8053e-05
0.00232604 1.8344e-05 1.25853e-05
1.8344e-05 0.00124334 6.39298e-06
1.25853e-05 6.39298e-06 0.00125585
0.00107967 -0.000271048 0.00036347
-0.000271048 0.00616413 0.000210805
0.00036347 0.000210805 0.00319765
-0.00143113 -0.000839671 -7.09806e-05
-0.000839671 0.000439908 9.67775e-06
-7.09806e-05 9.67775e-06 -0.0053403
0.00292178 0.00389765 -0.000703415
0.00389765 0.0131655 -0.000178925
-0.000703415 -0.000178925 0.00365015
0.000803279 0.000196236 -1.97428e-07
0.000196236 0.000358992 1.33409e-06
-1.97428e-07 1.33409e-06 0.000133287
-0.000591616 0.000154374 9.1098e-06
0.000154374 -0.000488263 2.90663e-06
9.1098e-06 2.90663e-06 -0.000760019
0.00239031 0.000364855 2.76765e-05
0.000364855 0.00142312 9.71484e-06
2.76765e-05 9.71484e-06 0.00118874
0.010194 -0.00135182 -0.000470349
-0.00135182 0.000788267 9.0157e-05
-0.000470349 9.0157e-05 -0.00275052
0.00910391 -0.0035728 0.000220754
-0.0035728 0.00518781 5.37768e-05
0.000220754 5.37768e-05 0.0023848
0.00482202 -0.00501823 0.000378135
-0.00501823 0.00211876 -0.000365728
0.000378135 -0.000365728 -0.0031238
0.00889755 -0.00535088 2.53772e-05
-0.00535088 -0.00188815 -0.000101566
2.53772e-05 -0.000101566 0.000788871
0.00383801 -0.00917313 -0.00120376
-0.00917313 -0.00411977 8.12586e-05
-0.00120376 8.12586e-05 -0.00342744
0.0324394 0.0083169 0.000979125
0.0083169 0.0185208 0.000377864
0.000979125 0.000377864 0.00621659
0.0098655 -0.00177857 0.000519037
-0.00177857 -0.000613157 -0.000338863
0.000519037 -0.000338863 -0.00383535
0.00341677 -0.00558881 8.08737e-06
-0.00558881 -0.000587814 1.32965e-05
8.08737e-06 1.32965e-05 0.000928813
0.00429544 -0.00917719 -0.000335581
-0.00917719 0.00283931 1.25982e-05
-0.000335581 1.25982e-05 -0.00277362
0.00963396 0.00506782 -0.000199331
0.00506782 0.00841672 -0.000437531
-0.000199331 -0.000437531 0.000591027
0.0146181 -0.000554298 -0.000198435
-0.000554298 -0.00108504 0.000191091
-0.000198435 0.000191091 -0.00116563
0.000417438 -0.00468334 -0.000209781
-0.00468334 0.00168398 0.000121494
-0.000209781 0.000121494 0.000379662
0.00829919 -0.00469068 -0.000444352
-0.00469068 0.00657582 0.000328078
-0.000444352 0.000328078 6.96323e-05
0.011184 -0.000246904 5.10235e-05
-0.000246904 0.00452548 -0.000405542
5.10235e-05 -0.000405542 -0.000846492
0.0103401 0.00117536 -3.4764e-05
0.00117536 -0.000611409 0.000245523
-3.4764e-05 0.000245523 -0.00302059
-0.000408617 0.000110568 1.49878e-05
0.000110568 -0.000329266 3.124e-05
1.49878e-05 3.124e-05 -0.00049177
0.000551058 3.35028e-06 -4.17281e-06
3.35028e-06 0.000285878 1.49025e-06
-4.17281e-06 1.49025e-06 6.64079e-05
0.00130119 -0.000369077 1.2312e-05
-0.000369077 0.000786646 -1.01518e-05
1.2312e-05 -1.01518e-05 0.000510167
0.00038502 0.000193998 -1.20876e-07
0.000193998 3.254e-05 4.25205e-06
-1.20876e-07 4.25205e-06 -0.000151655
0.000911383 0.000291117 -2.65417e-06
0.000291117 0.000478829 -1.09361e-05
-2.65417e-06 -1.09361e-05 0.000216244
0.00115896 0.000297211 -7.72874e-06
0.000297211 0.000635502 -5.06469e-06
-7.72874e-06 -5.06469e-06 0.000369316
0.00102237 -0.0023512 8.14824e-05
-0.0023512 -0.000143273 -4.19682e-05
8.14824e-05 -4.19682e-05 -0.000593658
0.0003754 -0.000852558 1.59215e-05
-0.000852558 0.000109942 -3.46791e-05
1.59215e-05 -3.46791e-05 -0.000125038
-0.000195081 0.000277715 -8.9194e-06
0.000277715 -0.000109084 -3.35896e-05
-8.9194e-06 -3.35896e-05 -0.000399806
0.000845162 -0.000357046 3.03687e-05
-0.000357046 0.000707797 -2.29266e-05
3.03687e-05 -2.29266e-05 0.000230731
0.0030279 -0.00015613 7.38652e-06
-0.00015613 0.0020944 -4.01857e-05
7.38652e-06 -4.01857e-05 0.00164643
-0.00037542 6.75547e-05 1.10498e-05
6.75547e-05 -0.00010116 7.24156e-06
1.10498e-05 7.24156e-06 -0.00038165
-0.000421417 2.74791e-05 3.78063e-06
2.74791e-05 0.000313177 1.84189e-05
3.78063e-06 1.84189e-05 -0.000359709
0.00173096 -0.00259935 -3.44025e-05
-0.00259935 0.00168468 -9.0338e-06
-3.44025e-05 -9.0338e-06 0.000361437
0.000222647 -2.54268e-05 -2.47376e-06
-2.54268e-05 0.000756693 -1.72201e-06
-2.47376e-06 -1.72201e-06 2.93006e-05
0.000244106 -0.000695708 -1.69955e-06
-0.000695708 0.00089542 5.54403e-06
-1.69955e-06 5.54403e-06 8.1317e-05
0.000384032 0.000265672 4.15869e-05
0.000265672 0.000666616 -4.88385e-05
4.15869e-05 -4.88385e-05 0.000121153
-0.00318001 -0.000425184 -0.0002273
-0.000425184 0.000215173 2.27441e-05
-0.0002273 2.27441e-05 -0.00103578
-0.000561732 -0.000312615 -6.34036e-05
-0.000312615 0.00116063 -1.88862e-05
-6.34036e-05 -1.88862e-05 0.000206244
-0.00377936 -0.000119517 -9.60093e-06
-0.000119517 -0.00125271 -1.17961e-05
-9.60093e-06 -1.17961e-05 -0.00205726
0.00181716 0.000814338 6.97939e-06
0.000814338 0.000135374 -1.32531e-05
6.97939e-06 -1.32531e-05 -0.00558752
-0.00122299 0.00134781 0.000249429
0.00134781 0.00553693 2.38911e-05
0.000249429 2.38911e-05 0.00155468
-0.00240389 0.000329957 0.000521744
0.000329957 0.000563195 4.97455e-05
0.000521744 4.97455e-05 -0.00484608
-0.000308016 0.00108343 1.3189e-05
0.00108343 0.000184637 2.91113e-05
1.3189e-05 2.91113e-05 -0.000694173
0.00141678 0.00196368 2.38631e-06
0.00196368 0.00160423 -4.49276e-05
2.38631e-06 -4.49276e-05 0.00021066
-0.00168522 0.000881999 -0.000325753
0.000881999 0.00352959 -9.77716e-05
-0.000325753 -9.77716e-05 -0.000757669
-0.00311456 0.00163109 0.000285832
0.00163109 0.00516416 0.000294393
0.000285832 0.000294393 -0.00163963
0.0079645 0.000384127 -0.000223104
0.000384127 -0.000365884 -0.000539953
-0.000223104 -0.000539953 -0.00684642
0.00785166 0.000186108 0.000116149
0.000186108 0.000256436 -1.16563e-05
0.000116149 -1.16563e-05 -0.00198762
0.00887052 -0.00164134 -0.000527142
-0.00164134 -0.00109423 0.000322161
-0.000527142 0.000322161 -0.00404239
0.000619349 0.000857817 -1.86917e-05
0.000857817 0.0010602 -4.06408e-06
-1.86917e-05 -4.06408e-06 0.000173442
0.00251908 0.000737382 9.80004e-05
0.000737382 0.00324198 5.87515e-05
9.80004e-05 5.87515e-05 0.00013882
0.00822715 -0.00252087 -0.000212449
-0.00252087 0.0047457 -4.12668e-05
-0.000212449 -4.12668e-05 0.00219166
-8.47854e-05 0.00128693 -0.000177403
0.00128693 0.00316328 -2.98307e-05
-0.000177403 -2.98307e-05 0.0003884
0.0265085 0.00784195 -0.000499713
0.00784195 0.0130331 -0.00058851
-0.000499713 -0.00058851 0.00442319
0.0138658 0.00394208 0.000124998
0.00394208 0.00979699 0.000493548
0.000124998 0.000493548 0.000837237
0.00780681 0.00279535 0.000119368
0.00279535 0.00835093 8.24239e-07
0.000119368 8.24239e-07 0.000480447
2.07833e-05 5.92777e-05 4.04706e-05
5.92777e-05 0.00189451 -1.67544e-05
4.04706e-05 -1.67544e-05 5.88153e-05
0.00196604 0.00030579 -0.000374975
0.00030579 0.00775223 -1.01795e-05
-0.000374975 -1.01795e-05 0.00447362
0.000943354 -0.00125476 0.000816569
-0.00125476 0.000962283 -0.000281809
0.000816569 -0.000281809 -0.00539136
0.0427541 0.0173862 -7.34295e-05
0.0173862 0.0291375 -0.000214876
-7.34295e-05 -0.000214876 0.0141631
0.0186299 0.00634654 0.000852429
0.00634654 0.00976896 0.00138156
0.000852429 0.00138156 -0.00104519
0.0120294 -0.00664146 0.000661061
-0.00664146 0.0086542 -0.000433244
0.000661061 -0.000433244 -0.000182484
0.00015487 -0.000873517 -9.65301e-05
-0.000873517 0.00390354 6.29649e-05
-9.65301e-05 6.29649e-05 0.00197689
0.0009044 0.00037165 -5.74963e-06
0.00037165 0.00116731 3.19895e-06
-5.74963e-06 3.19895e-06 0.000496599
-0.00013292 -0.000124438 -7.99755e-06
-0.000124438 0.000777895 -7.98728e-06
-7.99755e-06 -7.98728e-06 -2.82808e-05
0.00087494 -0.000855266 6.4778e-05
-0.000855266 0.00109375 -1.75568e-05
6.4778e-05 -1.75568e-05 0.000153279
-8.95794e-06 -2.31845e-05 -2.01737e-06
-2.31845e-05 0.000270073 7.62124e-06
-2.01737e-06 7.62124e-06 -5.7374e-05
-0.000672176 -7.56301e-05 1.67481e-05
-7.56301e-05 0.000223806 -1.47643e-05
1.67481e-05 -1.47643e-05 -0.000339304
0.00112245 -0.000471862 -8.67168e-06
-0.000471862 0.00102759 4.10906e-07
-8.67168e-06 4.10906e-07 0.000646955
0.00218886 -0.00113895 4.60873e-05
-0.00113895 0.00133079 -1.42579e-05
4.60873e-05 -1.42579e-05 0.000588834
-0.00137589 -0.000324207 3.2101e-06
-0.000324207 -0.000721035 -4.40669e-06
3.2101e-06 -4.40669e-06 -0.00134022
0.00168162 -0.00089363 2.05304e-05
-0.00089363 0.000708462 -7.52247e-06
2.05304e-05 -7.52247e-06 0.000159867
-0.000300363 -0.000726927 -1.36529e-06
-0.000726927 -0.000262356 -4.92272e-06
-1.36529e-06 -4.92272e-06 -0.00124243
0.000737217 -0.000586093 -8.92738e-06
-0.000586093 0.000137594 4.17774e-06
-8.92738e-06 4.17774e-06 -0.000206496
0.00209051 -0.00103853 -7.0517e-07
-0.00103853 0.000829665 -1.09943e-06
-7.0517e-07 -1.09943e-06 7.90761e-05
0.00203087 -0.00129428 -2.04306e-05
-0.00129428 0.000600355 1.40523e-06
-2.04306e-05 1.40523e-06 -0.000289166
0.00278206 -0.00147571 -1.51504e-05
-0.00147571 0.000816424 -9.65026e-07
-1.51504e-05 -9.65026e-07 1.48701e-05
0.00243016 -0.00137561 -5.54999e-06
-0.00137561 0.000825147 -6.77874e-07
-5.54999e-06 -6.77874e-07 2.30003e-05
0.00249692 -0.00126642 -4.99139e-06
-0.00126642 0.000925995 1.13864e-06
-4.99139e-06 1.13864e-06 0.000151634
0.00168183 -0.000895684 6.66678e-06
-0.000895684 0.00060012 -7.75523e-06
6.66678e-06 -7.75523e-06 -4.88225e-06
0.00227564 -0.00112784 2.06542e-05
-0.00112784 0.000924309 -1.02856e-05
2.06542e-05 -1.02856e-05 0.000213806
0.00189353 -0.00112197 1.08064e-05
-0.00112197 0.000584201 -4.24267e-06
1.08064e-05 -4.24267e-06 -0.000113442
0.00123124 -0.000471985 2.26353e-06
-0.000471985 0.000335517 -2.42303e-06
2.26353e-06 -2.42303e-06 -4.80679e-05
0.00204201 -0.000843896 4.93258e-06
-0.000843896 0.000847656 -4.79791e-06
4.93258e-06 -4.79791e-06 0.000298238
0.000985764 -0.000921402 -1.64195e-06
-0.000921402 0.000116978 -4.90569e-06
-1.64195e-06 -4.90569e-06 -0.000516477
0.000392892 1.11551e-05 5.31955e-07
1.11551e-05 3.02437e-05 -5.57861e-07
5.31955e-07 -5.57861e-07 -0.000302699
0.000634709 -0.000347256 2.8908e-07
-0.000347256 2.95362e-05 -8.11562e-08
2.8908e-07 -8.11562e-08 -0.000277444
0.00066716 -0.000487277 -1.02104e-05
-0.000487277 -1.25853e-05 7.6236e-07
-1.02104e-05 7.6236e-07 -0.000390535
0.000139838 -0.00022736 3.83085e-06
-0.00022736 -0.000124133 1.16603e-05
3.83085e-06 1.16603e-05 -0.000444086
0.000912137 -0.000315424 -1.70888e-07
-0.000315424 0.000466272 1.03836e-06
-1.70888e-07 1.03836e-06 6.18995e-05
-0.00167849 -0.000401915 -1.00342e-06
-0.000401915 -0.00115639 8.59915e-06
-1.00342e-06 8.59915e-06 -0.00155893
0.00199925 -0.000451573 -6.47283e-06
-0.000451573 0.00111346 -3.35794e-06
-6.47283e-06 -3.35794e-06 0.000767555
0.000892385 -0.00017002 -6.35896e-07
-0.00017002 0.000334781 6.63273e-07
-6.35896e-07 6.63273e-07 9.95033e-05
0.000176074 -1.61412e-05 1.59732e-06
-1.61412e-05 -0.000156552 1.73782e-05
1.59732e-06 1.73782e-05 -0.000239663
0.00165745 -0.000171163 -1.97368e-06
-0.000171163 0.000824565 -1.1597e-05
-1.97368e-06 -1.1597e-05 0.000645192
0.000416026 -2.2293e-05 -6.84477e-06
-2.2293e-05 -2.39097e-06 -9.38667e-07
-6.84477e-06 -9.38667e-07 -6.56983e-05
0.0035631 0.000107266 -5.27801e-05
0.000107266 0.00206803 7.26729e-06
-5.27801e-05 7.26729e-06 0.00206582
0.000554163 -5.6696e-05 3.10897e-06
-5.6696e-05 6.9985e-05 -1.06368e-05
3.10897e-06 -1.06368e-05 2.43714e-05
0.00208802 6.1964e-05 3.26039e-05
6.1964e-05 0.00108281 -6.07481e-07
3.26039e-05 -6.07481e-07 0.00108087
0.00289086 4.38825e-05 4.66896e-05
4.38825e-05 0.00161048 -6.28063e-06
4.66896e-05 -6.28063e-06 0.00162034
0.00139287 0.000217488 1.16764e-06
0.000217488 0.000735844 -1.31933e-05
1.16764e-06 -1.31933e-05 0.000491611
0.000615392 0.000109978 2.98057e-06
0.000109978 0.000169568 -7.08518e-06
2.98057e-06 -7.08518e-06 1.92439e-05
0.000448461 9.88415e-05 -9.23341e-07
9.88415e-05 0.000121934 1.39078e-06
-9.23341e-07 1.39078e-06 -0.000103502
0.000423531 3.54352e-05 -6.23792e-07
3.54352e-05 -3.98221e-06 -1.02308e-05
-6.23792e-07 -1.02308e-05 -4.43789e-05
0.000188112 5.92125e-05 -2.62611e-06
5.92125e-05 -0.000118248 -3.75014e-06
-2.62611e-06 -3.75014e-06 -0.000243688
0.000609884 0.000101694 -1.37883e-06
0.000101694 0.000223752 -1.4906e-06
-1.37883e-06 -1.4906e-06 1.74297e-05
0.00253277 -3.24486e-05 -2.57257e-05
-3.24486e-05 0.00137896 -6.84803e-06
-2.57257e-05 -6.84803e-06 0.0013894
0.00037557 2.42345e-06 9.05811e-07
2.42345e-06 -4.15206e-05 -3.32717e-07
9.05811e-07 -3.32717e-07 -7.18322e-05
0.000147204 2.31133e-05 -2.41947e-06
2.31133e-05 -0.000147378 4.35217e-06
-2.41947e-06 4.35217e-06 -0.000257416
0.00240818 -1.50343e-05 -6.7536e-06
-1.50343e-05 0.00129547 1.52884e-07
-6.7536e-06 1.52884e-07 0.00130797
0.000398072 6.42338e-06 -5.26129e-06
6.42338e-06 -2.92364e-05 6.37556e-06
-5.26129e-06 6.37556e-06 -5.34415e-05
0.00238178 2.46723e-06 1.74216e-05
2.46723e-06 0.00127877 6.37514e-06
1.74216e-05 6.37514e-06 0.00129168
0.00359448 -0.000187494 -0.000275076
-0.000187494 0.00276047 -6.84743e-06
-0.000275076 -6.84743e-06 -0.000479173
-0.00217546 0.000181934 0.000234053
0.000181934 0.00578322 -2.63214e-06
0.000234053 -2.63214e-06 0.00186895
-0.000167113 -0.000545527 6.93817e-05
-0.000545527 0.00162848 -0.000303593
6.93817e-05 -0.000303593 -0.00490699
-0.000728563 -4.50036e-05 6.31099e-06
-4.50036e-05 -0.000489965 -5.65347e-06
6.31099e-06 -5.65347e-06 -0.000905995
0.0062468 0.000598369 1.94109e-05
0.000598369 0.0038343 2.14666e-05
1.94109e-05 2.14666e-05 0.00351728
0.000297337 0.000182106 -5.79196e-06
0.000182106 5.64565e-05 -4.32887e-06
-5.79196e-06 -4.32887e-06 -0.000173794
-0.000183491 9.16587e-05 1.08483e-06
9.16587e-05 -0.000261629 -3.35047e-06
1.08483e-06 -3.35047e-06 -0.000523019
-0.000370408 6.42866e-05 1.124e-06
6.42866e-05 -0.000464648 -5.32358e-06
1.124e-06 -5.32358e-06 -0.000608969
0.000793162 0.000177679 1.11554e-05
0.000177679 0.000354086 2.23158e-06
1.11554e-05 2.23158e-06 0.000124757
0.000142089 0.000120218 2.28988e-05
0.000120218 -3.2322e-05 -9.16163e-06
2.28988e-05 -9.16163e-06 -0.000158481
0.00604233 0.00221055 0.000238457
0.00221055 0.00077567 0.000232777
0.000238457 0.000232777 -0.00248812
0.00879272 -0.000434316 -0.000175908
-0.000434316 0.000992062 3.35977e-05
-0.000175908 3.35977e-05 -0.00273702
0.00682706 -0.00112756 0.000583479
-0.00112756 0.00601266 -0.000126457
0.000583479 -0.000126457 0.00218487
0.0117221 0.000255368 -5.6748e-05
0.000255368 -0.00332069 0.000228699
-5.6748e-05 0.000228699 -0.00337514
0.00666603 -0.00685835 -0.000145928
-0.00685835 0.000435477 2.62248e-05
-0.000145928 2.62248e-05 0.00121596
-4.43284e-05 -0.00766439 -0.000502418
-0.00766439 0.00258104 0.000216965
-0.000502418 0.000216965 -0.00487737
0.027138 0.00446479 0.000364375
0.00446479 0.0108408 -0.000364251
0.000364375 -0.000364251 0.00306364
0.00348846 -0.006192 -0.000125799
-0.006192 0.00143006 8.0193e-05
-0.000125799 8.0193e-05 0.000876467
-0.000142833 -0.00213934 -0.000145167
-0.00213934 0.00634842 7.98162e-05
-0.000145167 7.98162e-05 -0.00286398
0.0155459 0.00029915 0.000470114
0.00029915 0.00608647 -4.60746e-05
0.000470114 -4.60746e-05 -0.000229608
0.0205506 -0.00197986 -6.01147e-05
-0.00197986 0.00376391 1.94101e-06
-6.01147e-05 1.94101e-06 0.00238521
-0.00609853 -0.000770133 -0.000220995
-0.000770133 -0.000210071 0.000254313
-0.000220995 0.000254313 -0.0012723
0.000889431 0.000310362 -0.000227826
0.000310362 0.00638818 -0.000219751
-0.000227826 -0.000219751 -0.00273957
0.012803 -0.00614397 -8.39213e-05
-0.00614397 0.00462059 -0.000257721
-8.39213e-05 -0.000257721 -0.00467918
0.0234742 -0.00232154 0.000751436
-0.00232154 0.0114136 -0.000822779
0.000751436 -0.000822779 0.00555524
-0.000182862 0.000112145 4.66197e-05
0.000112145 0.00032402 -1.81877e-05
4.66197e-05 -1.81877e-05 -0.000265879
0.000387627 0.000210486 -2.91655e-06
0.000210486 0.000215313 -6.01999e-06
-2.91655e-06 -6.01999e-06 2.70871e-05
0.000319689 -7.89066e-06 5.59129e-07
-7.89066e-06 0.00015793 -1.29728e-05
5.59129e-07 -1.29728e-05 -7.89998e-05
0.000947079 0.000172332 -7.43319e-06
0.000172332 0.000433399 -1.27367e-05
-7.43319e-06 -1.27367e-05 0.000227969
0.000406864 -0.00242573 5.47105e-05
-0.00242573 0.000935118 1.74256e-05
5.47105e-05 1.74256e-05 -0.000419006
0.00137718 -0.00067615 -8.24929e-06
-0.00067615 0.00170924 -4.85306e-06
-8.24929e-06 -4.85306e-06 0.000756115
7.58933e-05 6.30612e-05 -4.10142e-05
6.30612e-05 0.000161462 -1.41334e-05
-4.10142e-05 -1.41334e-05 -9.31869e-05
0.00145655 -0.000355403 1.84956e-05
-0.000355403 0.00117871 -6.89565e-05
1.84956e-05 -6.89565e-05 0.000707031
0.000648551 -4.0942e-07 -1.64845e-05
-4.0942e-07 0.00109279 1.02221e-05
-1.64845e-05 1.02221e-05 0.000462871
0.000260288 0.000169395 -3.20878e-06
0.000169395 0.000483224 1.39558e-05
-3.20878e-06 1.39558e-05 1.70808e-05
0.0011278 -0.000204756 2.15131e-06
-0.000204756 0.00135457 -1.5182e-06
2.15131e-06 -1.5182e-06 0.000674516
0.000232019 -0.00144611 5.77486e-05
-0.00144611 0.0019669 -1.74931e-05
5.77486e-05 -1.74931e-05 -1.10425e-05
0.000187525 -0.000144556 -1.74191e-05
-0.000144556 0.00151737 -1.76342e-05
-1.74191e-05 -1.76342e-05 0.000638836
0.000360092 0.000144669 3.04191e-05
0.000144669 0.000522216 -2.46886e-05
3.04191e-05 -2.46886e-05 8.44063e-05
-0.00165807 -7.04689e-05 -0.000293485
-7.04689e-05 0.0024288 1.79742e-05
-0.000293485 1.79742e-05 -0.000261581
0.00123479 0.000584514 2.7228e-05
0.000584514 0.00166133 -9.00516e-06
2.7228e-05 -9.00516e-06 0.000906225
-0.00452643 -0.000338279 -4.51575e-05
-0.000338279 0.00543162 -0.00013794
-4.51575e-05 -0.00013794 0.00185389
0.00302775 0.000179959 4.91456e-05
0.000179959 0.00198797 2.69658e-05
4.91456e-05 2.69658e-05 -0.00195704
-0.00468106 0.00228388 -0.000162303
0.00228388 0.00489187 -0.000116151
-0.000162303 -0.000116151 0.000311252
0.00110591 0.000730652 -4.12575e-06
0.000730652 0.00145924 -5.1638e-07
-4.12575e-06 -5.1638e-07 0.0007085
-0.00126126 0.00163412 0.000340939
0.00163412 0.00166285 0.000122584
0.000340939 0.000122584 -1.20558e-05
0.00106767 -1.25729e-06 0.000100548
-1.25729e-06 0.00372467 -8.90651e-06
0.000100548 -8.90651e-06 0.000793915
0.00518188 -0.00169976 0.000427765
-0.00169976 0.006315 -0.000240847
0.000427765 -0.000240847 -0.00422941
0.0290754 0.00417417 -0.000471831
0.00417417 0.0114409 0.000343598
-0.000471831 0.000343598 0.00262146
0.00361546 -0.00106029 -0.000578253
-0.00106029 0.00418051 3.08497e-05
-0.000578253 3.08497e-05 0.000719473
0.0189747 0.00663593 -0.000624291
0.00663593 0.0146105 -0.000372548
-0.000624291 -0.000372548 0.0076947
0.000623272 0.000273319 -7.28285e-05
0.000273319 0.00200161 3.10738e-06
-7.28285e-05 3.10738e-06 0.000205982
-0.00117303 -0.000955631 -0.000204006
-0.000955631 0.00557468 6.8047e-06
-0.000204006 6.8047e-06 0.00253811
0.0015456 -0.00253796 0.00028303
-0.00253796 0.00271098 -6.9454e-05
0.00028303 -6.9454e-05 -0.00356454
-0.0039163 7.6741e-05 0.000101594
7.6741e-05 0.00141263 5.07428e-05
0.000101594 5.07428e-05 9.0752e-05
0.0379559 0.0208716 0.00089885
0.0208716 0.026709 -0.000267235
0.00089885 -0.000267235 0.0107341
0.0161279 0.00376535 -9.00545e-05
0.00376535 0.0118542 0.000559453
-9.00545e-05 0.000559453 0.00164591
-0.000334278 -0.00223363 0.000394752
-0.00223363 0.00523328 -0.000251796
0.000394752 -0.000251796 -0.00451226
-0.00196846 -0.00107251 -3.84228e-05
-0.00107251 0.00109827 -5.38321e-05
-3.84228e-05 -5.38321e-05 -0.000833227
0.00209744 -0.00159179 0.000483727
-0.00159179 0.000355684 -0.000119993
0.000483727 -0.000119993 -0.00526179
0.00571738 0.00610743 -0.00303754
0.00610743 0.0154323 0.000136367
-0.00303754 0.000136367 0.00439524
0.0278453 0.0107112 -0.000458633
0.0107112 0.0135892 0.000456833
-0.000458633 0.000456833 0.00255862
0.00586926 -0.00679956 -0.000386331
-0.00679956 0.00436369 0.00019789
-0.000386331 0.00019789 -2.23503e-05
0.00307187 -0.00354465 7.94631e-05
-0.00354465 0.00501199 6.87451e-05
7.94631e-05 6.87451e-05 0.00254477
-0.000169783 -0.000128497 2.27613e-05
-0.000128497 0.000686278 -1.95443e-05
2.27613e-05 -1.95443e-05 -0.000199955
0.000550588 -0.000685924 -1.52433e-05
-0.000685924 0.00103566 2.22751e-06
-1.52433e-05 2.22751e-06 3.18719e-05
-7.83133e-05 -0.00147709 1.43504e-05
-0.00147709 0.000328785 1.52205e-05
1.43504e-05 1.52205e-05 -0.000660956
-0.00175143 -0.000196128 5.44402e-06
-0.000196128 -0.000491595 3.47605e-06
5.44402e-06 3.47605e-06 -0.000856543
-0.000293468 -0.000689104 -1.11701e-05
-0.000689104 0.000116604 4.01049e-06
-1.11701e-05 4.01049e-06 -0.000510296
0.00213561 -0.00119332 3.99211e-05
-0.00119332 0.000928557 -1.0207e-05
3.99211e-05 -1.0207e-05 0.000163883
0.00597976 -0.00166763 -1.24477e-05
-0.00166763 0.0030072 1.10871e-05
-1.24477e-05 1.10871e-05 0.00232359
0.00247936 -0.00121741 1.16183e-05
-0.00121741 0.00114922 -3.9195e-06
1.16183e-05 -3.9195e-06 0.000145444
0.00276558 -0.00159591 1.43082e-06
-0.00159591 0.000918661 -2.14594e-05
1.43082e-06 -2.14594e-05 -0.000117572
0.00204509 -0.00103694 -6.25265e-07
-0.00103694 0.000766281 -7.90144e-06
-6.25265e-07 -7.90144e-06 2.17826e-05
0.00253292 -0.0013798 1.5662e-06
-0.0013798 0.000870166 -2.91266e-06
1.5662e-06 -2.91266e-06 -4.5381e-05
0.00349892 -0.00163913 -4.67691e-06
-0.00163913 0.00121531 -1.16875e-05
-4.67691e-06 -1.16875e-05 0.000321139
0.00258908 -0.00109006 -1.40558e-06
-0.00109006 0.000429985 -5.6891e-06
-1.40558e-06 -5.6891e-06 -9.55727e-05
0.00340739 -0.00151696 -8.16263e-06
-0.00151696 0.00113921 -3.06022e-06
-8.16263e-06 -3.06022e-06 0.000359929
0.00309831 -0.00152511 -4.69698e-06
-0.00152511 0.000985168 -7.01805e-07
-4.69698e-06 -7.01805e-07 0.000167575
0.00278722 -0.00139053 1.31184e-05
-0.00139053 0.00106568 -8.94797e-06
1.31184e-05 -8.94797e-06 0.000275051
0.00205722 -0.00128898 4.59604e-06
-0.00128898 0.000618838 -1.98151e-06
4.59604e-06 -1.98151e-06 -0.000146894
0.00251237 -0.00125864 1.16112e-05
-0.00125864 0.000917419 -4.8291e-06
1.16112e-05 -4.8291e-06 0.000146862
0.00219052 -0.000991236 2.45419e-05
-0.000991236 0.000952805 1.14737e-07
2.45419e-05 1.14737e-07 0.000269278
0.00227035 -0.00112392 -2.60491e-06
-0.00112392 0.000924318 -2.49095e-06
-2.60491e-06 -2.49095e-06 0.000216682
0.00193151 -0.0011352 -8.3622e-06
-0.0011352 0.00061568 5.8581e-06
-8.3622e-06 5.8581e-06 -8.58364e-05
0.00330534 -0.000320588 9.08802e-06
-0.000320588 0.00179462 3.80803e-06
9.08802e-06 3.80803e-06 0.00144231
0.000807767 -0.000367079 -9.4534e-06
-0.000367079 0.000140742 4.29235e-06
-9.4534e-06 4.29235e-06 -0.000242203
0.00279502 -0.00092507 -1.162e-05
-0.00092507 0.00132383 -7.71278e-06
-1.162e-05 -7.71278e-06 0.000757409
0.000373958 -0.000222654 -1.47422e-07
-0.000222654 -8.07002e-05 8.09794e-07
-1.47422e-07 8.09794e-07 -0.000383858
0.000570017 -0.000167197 -3.09165e-06
-0.000167197 0.000121542 3.58635e-07
-3.09165e-06 3.58635e-07 -0.00020975
0.000121843 -0.00016886 8.25813e-06
-0.00016886 -0.000244031 5.07231e-06
8.25813e-06 5.07231e-06 -0.000576772
0.000242275 -0.00010183 -1.72654e-05
-0.00010183 -0.000145249 2.32534e-05
-1.72654e-05 2.32534e-05 -0.0002455
0.00081146 -0.000217918 2.97792e-06
-0.000217918 0.000281993 1.62625e-06
2.97792e-06 1.62625e-06 -1.86704e-05
0.00192889 -0.000474972 -3.41575e-06
-0.000474972 0.00109916 -3.12607e-06
-3.41575e-06 -3.12607e-06 0.000702602
0.00125477 -0.000172957 -4.16639e-06
-0.000172957 0.000557022 -1.14894e-05
-4.16639e-06 -1.14894e-05 0.000327546
0.00035022 -5.72762e-05 -2.24362e-08
-5.72762e-05 -6.05174e-05 -5.00636e-07
-2.24362e-08 -5.00636e-07 -0.000138505
0.00408376 0.00014601 -6.25201e-05
0.00014601 0.00242333 8.35703e-06
-6.25201e-05 8.35703e-06 0.0024106
0.000399151 -5.9693e-05 5.45837e-06
-5.9693e-05 -2.10002e-05 -1.41799e-05
5.45837e-06 -1.41799e-05 -7.99801e-05
0.00354057 0.000104687 1.0898e-05
0.000104687 0.00205306 1.0527e-06
1.0898e-05 1.0527e-06 0.00205103
0.00300822 6.62458e-05 5.30901e-05
6.62458e-05 0.0016895 -6.90197e-06
5.30901e-05 -6.90197e-06 0.00169691
0.00416104 0.000215329 1.427e-05
0.000215329 0.00266806 -7.56656e-06
1.427e-05 -7.56656e-06 0.00219087
0.00292348 0.000269535 1.31224e-05
0.000269535 0.00186978 -3.20339e-05
1.31224e-05 -3.20339e-05 0.00146749
0.000648646 9.80553e-05 4.93266e-06
9.80553e-05 0.000185291 -1.14934e-05
4.93266e-06 -1.14934e-05 1.91666e-05
0.000712064 0.000186066 7.85745e-07
0.000186066 0.000297144 1.38494e-06
7.85745e-07 1.38494e-06 4.86576e-05
0.000446717 -2.59297e-05 6.92753e-06
-2.59297e-05 1.41502e-05 -1.20348e-05
6.92753e-06 -1.20348e-05 -3.34934e-05
0.000624885 0.000109603 -6.03447e-07
0.000109603 0.000177508 -4.07285e-07
-6.03447e-07 -4.07285e-07 2.75193e-05
0.000724098 0.00010588 -4.74333e-06
0.00010588 0.000296393 -5.49005e-06
-4.74333e-06 -5.49005e-06 6.93365e-05
0.00286844 -4.9807e-05 -3.79509e-05
-4.9807e-05 0.00160535 -7.50665e-06
-3.79509e-05 -7.50665e-06 0.00161271
0.00040209 1.32094e-06 -3.08513e-06
1.32094e-06 -1.95261e-05 -3.16964e-07
-3.08513e-06 -3.16964e-07 -5.8314e-05
0.000581174 0.000103821 -5.428e-06
0.000103821 0.000148016 5.36173e-06
-5.428e-06 5.36173e-06 2.06322e-05
0.00260874 -3.50149e-05 -6.58109e-06
-3.50149e-05 0.00142952 4.28115e-07
-6.58109e-06 4.28115e-07 0.00143941
0.000393438 -2.98656e-06 -5.6596e-06
-2.98656e-06 -3.07488e-05 7.32851e-06
-5.6596e-06 7.32851e-06 -6.01742e-05
0.00242461 -1.51121e-05 2.05739e-05
-1.51121e-05 0.00130607 6.42258e-06
2.05739e-05 6.42258e-06 0.00131847
-0.00174059 0.00148778 -7.79001e-05
0.00148778 0.0040753 -0.000175427
-7.79001e-05 -0.000175427 -0.00025215
0.00587923 -0.000528775 -5.44544e-05
-0.000528775 0.00420149 -9.39436e-05
-5.44544e-05 -9.39436e-05 0.00114462
0.000255787 -0.000618623 0.000113562
-0.000618623 0.00584051 -8.98648e-05
0.000113562 -8.98648e-05 0.0024176
0.000426847 3.60805e-05 2.629e-06
3.60805e-05 0.000367123 -9.67778e-06
2.629e-06 -9.67778e-06 -0.000159276
-0.000254298 0.000354282 5.91039e-06
0.000354282 -0.00023879 -1.07497e-05
5.91039e-06 -1.07497e-05 -0.000541585
-0.00116372 0.000196153 2.9803e-05
0.000196153 -0.00108965 -2.80428e-05
2.9803e-05 -2.80428e-05 -0.00125848
-0.00251512 -1.12573e-05 3.56892e-06
-1.12573e-05 -0.00140074 3.50135e-05
3.56892e-06 3.50135e-05 -0.00193671
0.0021917 0.000636185 6.97196e-06
0.000636185 0.00121528 -7.79097e-06
6.97196e-06 -7.79097e-06 0.000827147
0.000111957 9.52519e-05 -8.55909e-06
9.52519e-05 -5.99188e-05 2.03322e-06
-8.55909e-06 2.03322e-06 -0.000345047
0.000104807 0.000111688 -1.6212e-05
0.000111688 -0.000119011 -4.01622e-06
-1.6212e-05 -4.01622e-06 -0.000271414
0.00115785 1.20471e-05 9.33502e-06
1.20471e-05 0.000596701 1.88302e-06
9.33502e-06 1.88302e-06 0.000360806
0.00106412 0.000204179 -6.46338e-06
0.000204179 0.000545142 -8.80292e-06
-6.46338e-06 -8.80292e-06 0.00043056
0.00301574 0.000272146 -3.45756e-06
0.000272146 0.00201526 -3.26917e-05
-3.45756e-06 -3.26917e-05 0.00161624
0.0115492 0.00429428 0.00107735
0.00429428 0.00710565 0.000642493
0.00107735 0.000642493 0.00167266
0.00520072 0.00181454 2.69897e-05
0.00181454 0.00234632 6.95557e-05
2.69897e-05 6.95557e-05 -0.00133903
0.00923896 -0.000423455 0.00023664
-0.000423455 0.000712598 5.69638e-06
0.00023664 5.69638e-06 -0.00193664
0.0157591 -0.000477198 -0.00026379
-0.000477198 0.00268033 -0.000131749
-0.00026379 -0.000131749 0.00354722
0.00754495 0.000729768 0.00018227
0.000729768 0.000277807 0.000476989
0.00018227 0.000476989 -0.00646901
0.00375882 -0.00622829 -0.000151796
-0.00622829 0.00216084 5.62735e-05
-0.000151796 5.62735e-05 0.00126744
0.00378955 -0.00252279 -0.000536138
-0.00252279 0.00631726 0.000158991
-0.000536138 0.000158991 -0.000490549
-0.0013145 -0.00225885 -0.000129263
-0.00225885 0.00141096 0.000163796
-0.000129263 0.000163796 -0.000113276
0.0123216 -0.000359089 -0.000438773
-0.000359089 0.00945939 -4.77402e-06
-0.000438773 -4.77402e-06 0.000907571
0.00999609 -0.0037641 0.00017662
-0.0037641 0.00686278 0.000289822
0.00017662 0.000289822 -0.00158701
0.0317274 -0.00654219 0.000364842
-0.00654219 0.0122465 -0.00105911
0.000364842 -0.00105911 0.00308496
-0.00152572 0.000533751 -0.000266958
0.000533751 0.00270094 0.000141844
-0.000266958 0.000141844 9.98337e-05
0.0042485 0.0021333 -0.000400111
0.0021333 0.00747072 -0.000155161
-0.000400111 -0.000155161 0.000209267
0.0324692 -0.0117255 0.00114249
-0.0117255 0.0194846 -0.00125979
0.00114249 -0.00125979 0.00687458
0.0364844 -0.0182953 0.000137113
-0.0182953 0.0243832 -5.71144e-05
0.000137113 -5.71144e-05 0.0097703
0.000628297 0.000526109 5.15853e-05
0.000526109 0.000622366 1.48629e-05
5.15853e-05 1.48629e-05 8.89623e-06
-0.000150329 8.79457e-05 1.49895e-05
8.79457e-05 0.00039454 4.18198e-06
1.49895e-05 4.18198e-06 -0.000233835
0.00106281 0.000195017 -4.02912e-05
0.000195017 0.000648141 -1.50459e-05
-4.02912e-05 -1.50459e-05 0.000448921
0.0019038 -0.00191679 8.77769e-05
-0.00191679 0.00260588 4.22355e-06
8.77769e-05 4.22355e-06 0.00017236
-0.00172669 -0.000185477 0.000155616
-0.000185477 0.000630908 1.75173e-05
0.000155616 1.75173e-05 -0.00035501
0.000283644 0.000176674 -3.40989e-05
0.000176674 0.000457004 1.65994e-05
-3.40989e-05 1.65994e-05 1.3425e-05
-0.000364976 -0.000244701 -1.56765e-05
-0.000244701 0.000687986 1.45816e-06
-1.56765e-05 1.45816e-06 -0.000196592
1.71266e-05 0.000258641 -1.31875e-05
0.000258641 0.000365574 3.528e-06
-1.31875e-05 3.528e-06 -9.11678e-05
-0.000331555 0.000445361 3.15214e-05
0.000445361 0.000582201 7.69352e-06
3.15214e-05 7.69352e-06 -0.000177718
-0.00325037 5.79409e-05 0.000199457
5.79409e-05 0.00155837 -0.000110986
0.000199457 -0.000110986 -0.000836626
0.00236322 0.00115667 7.59546e-05
0.00115667 0.00132207 6.93782e-05
7.59546e-05 6.93782e-05 0.000708594
0.000964217 0.00127939 -0.00010984
0.00127939 0.00195236 -0.000143029
-0.00010984 -0.000143029 -0.000203889
-0.000185227 -0.00100791 0.000365694
-0.00100791 0.00150764 0.000141632
0.000365694 0.000141632 -0.00417616
-0.00371591 0.000944139 -0.000259134
0.000944139 0.00531807 -1.67249e-05
-0.000259134 -1.67249e-05 0.00074742
0.00622093 -0.000684225 -0.00019127
-0.000684225 0.00442381 1.61734e-05
-0.00019127 1.61734e-05 0.00236627
0.000511777 0.000842414 9.41446e-05
0.000842414 0.00157691 2.36729e-05
9.41446e-05 2.36729e-05 -0.000316863
-0.000367146 0.000471986 -7.44039e-05
0.000471986 0.00332218 0.000117502
-7.44039e-05 0.000117502 0.000802139
-0.00171565 -0.000131391 -8.58735e-05
-0.000131391 0.00435613 -9.81833e-05
-8.58735e-05 -9.81833e-05 0.000744765
0.0140553 -0.00709666 0.000563082
-0.00709666 0.0102696 -0.000333676
0.000563082 -0.000333676 0.000525969
0.0319166 0.0101499 -0.0010084
0.0101499 0.0189849 -0.0004187
-0.0010084 -0.0004187 0.00632103
0.00788978 -0.00350756 -0.000605591
-0.00350756 0.00435115 0.000365607
-0.000605591 0.000365607 -0.000723885
0.0309443 0.0249014 0.00268038
0.0249014 0.0225206 -0.00178093
0.00268038 -0.00178093 0.00609122
-0.000748634 -0.000932649 2.92448e-05
-0.000932649 0.00154175 -4.78342e-06
2.92448e-05 -4.78342e-06 -0.000459065
0.000574496 -0.00109088 0.000122743
-0.00109088 0.00142478 4.66248e-06
0.000122743 4.66248e-06 -0.00466954
0.0105745 0.0066987 -0.00171055
0.0066987 0.0148331 8.21979e-05
-0.00171055 8.21979e-05 0.00332786
-6.4735e-06 -0.00216581 4.94629e-05
-0.00216581 0.00256726 3.74392e-05
4.94629e-05 3.74392e-05 0.000771109
0.0317046 0.0107466 0.000634532
0.0107466 0.0152142 0.000335332
0.000634532 0.000335332 0.00393103
0.00485579 -0.00983115 0.000520647
-0.00983115 0.00332301 -0.000165724
0.000520647 -0.000165724 -0.00218278
-0.000745998 -0.00258023 3.89196e-05
-0.00258023 0.000811956 5.75936e-05
3.89196e-05 5.75936e-05 -0.00107301
0.00156204 -0.00090881 0.000206119
-0.00090881 0.0119522 -0.000154031
0.000206119 -0.000154031 0.00493114
0.0243134 0.0116331 -0.00262719
0.0116331 0.0116675 0.000114684
-0.00262719 0.000114684 0.00210732
0.00263575 -0.00894598 -0.00110428
-0.00894598 -0.00416667 0.000279272
-0.00110428 0.000279272 -0.00433596
-0.000320239 -0.00384219 0.000249999
-0.00384219 0.00016953 -0.000206664
0.000249999 -0.000206664 0.000804211
0.00105734 -0.000647031 -0.000104626
-0.000647031 0.00120223 3.82683e-05
-0.000104626 3.82683e-05 0.000217206
1.85349e-05 -0.00119424 -2.05525e-05
-0.00119424 0.000510719 1.56373e-05
-2.05525e-05 1.56373e-05 -0.000448462
-0.000320323 -0.0011829 -2.5699e-06
-0.0011829 -0.000310586 -1.33197e-05
-2.5699e-06 -1.33197e-05 -0.00104635
-0.00251671 -0.000265153 1.36325e-05
-0.000265153 -0.000932546 1.41049e-06
1.36325e-05 1.41049e-06 -0.00146045
0.000630117 -0.00100068 4.23895e-06
-0.00100068 0.000129542 -6.47599e-06
4.23895e-06 -6.47599e-06 -0.000550728
0.00355717 -0.00176337 -1.09744e-08
-0.00176337 0.00105014 -2.05754e-06
-1.09744e-08 -2.05754e-06 0.000385186
0.00524208 -0.00168288 -3.20424e-05
-0.00168288 0.00258054 8.49098e-06
-3.20424e-05 8.49098e-06 0.00155315
0.0023113 -0.00146993 -3.06911e-06
-0.00146993 0.000660422 -2.08627e-06
-3.06911e-06 -2.08627e-06 -0.000313004
0.0035441 -0.00176912 4.37817e-06
-0.00176912 0.000977964 -1.10446e-05
4.37817e-06 -1.10446e-05 0.000177569
0.00297854 -0.00144839 8.40475e-06
-0.00144839 0.00111939 2.19644e-06
8.40475e-06 2.19644e-06 0.000181281
0.00302764 -0.00155625 3.42605e-06
-0.00155625 0.000954167 -4.22051e-06
3.42605e-06 -4.22051e-06 9.41715e-05
0.00310621 -0.00122719 -2.29834e-07
-0.00122719 0.000681777 -6.70237e-06
-2.29834e-07 -6.70237e-06 0.000146297
0.00221921 -0.000718162 -1.06855e-06
-0.000718162 4.06798e-05 -1.10056e-06
-1.06855e-06 -1.10056e-06 -0.000198586
0.00231048 -0.00106344 1.43182e-06
-0.00106344 0.00020376 -3.72571e-06
1.43182e-06 -3.72571e-06 -0.000319014
0.00261303 -0.00110504 4.51284e-06
-0.00110504 0.000423485 -1.54096e-06
4.51284e-06 -1.54096e-06 -0.000104433
0.00329557 -0.00136073 -1.25398e-06
-0.00136073 0.00112897 -5.02423e-06
-1.25398e-06 -5.02423e-06 0.000426258
0.00334316 -0.00151468 -4.65356e-06
-0.00151468 0.00110693 -5.89086e-07
-4.65356e-06 -5.89086e-07 0.00032096
0.00327167 -0.00155853 9.7016e-06
-0.00155853 0.00106951 -4.41398e-06
9.7016e-06 -4.41398e-06 0.000238923
0.00237419 -0.00121863 3.69813e-06
-0.00121863 0.000839723 -1.34751e-05
3.69813e-06 -1.34751e-05 9.1656e-05
0.00231512 -0.00132645 2.15321e-06
-0.00132645 0.000793653 -8.89964e-07
2.15321e-06 -8.89964e-07 1.92117e-05
0.00175765 -0.00122153 3.21557e-06
-0.00122153 0.000456922 2.22036e-06
3.21557e-06 2.22036e-06 -0.000279579
0.00403178 -0.000760996 1.14747e-05
-0.000760996 0.0021998 1.47081e-05
1.14747e-05 1.47081e-05 0.00168757
0.00103093 -0.000840689 3.44433e-06
-0.000840689 0.000267666 5.22094e-06
3.44433e-06 5.22094e-06 -0.0003784
0.00219304 -0.00110184 -2.01721e-05
-0.00110184 0.000868796 1.10126e-05
-2.01721e-05 1.10126e-05 0.000172526
0.00146126 -0.000328684 5.64501e-06
-0.000328684 0.000567644 -6.23369e-06
5.64501e-06 -6.23369e-06 0.00030189
0.000586468 -0.000352356 -1.06168e-06
-0.000352356 9.52825e-05 -7.31084e-06
-1.06168e-06 -7.31084e-06 -0.000271555
0.00053543 -0.000246694 -5.60599e-06
-0.000246694 2.61896e-05 -2.63159e-06
-5.60599e-06 -2.63159e-06 -0.000348618
0.00292574 -0.000119672 -0.000109098
-0.000119672 0.00158424 1.5874e-05
-0.000109098 1.5874e-05 0.00149333
0.000469135 -0.00021309 -3.72289e-06
-0.00021309 -1.23527e-05 1.23159e-06
-3.72289e-06 1.23159e-06 -0.000316375
0.000863017 -0.00037542 -4.7138e-06
-0.00037542 0.000292979 -1.06273e-06
-4.7138e-06 -1.06273e-06 -4.92169e-05
0.00145723 8.071e-06 -0.000106399
8.071e-06 0.00067407 1.12499e-05
-0.000106399 1.12499e-05 0.000650334
0.00134118 -8.02831e-05 -3.09777e-05
-8.02831e-05 0.000588272 -9.43336e-07
-3.09777e-05 -9.43336e-07 0.000479205
0.00186694 -0.000264895 1.22304e-06
-0.000264895 0.00091982 -8.33502e-06
1.22304e-06 -8.33502e-06 0.00064657
0.000797499 -7.83743e-05 1.33381e-05
-7.83743e-05 0.000221388 -1.64165e-05
1.33381e-05 -1.64165e-05 0.000141635
0.00431037 0.000134384 1.37626e-05
0.000134384 0.00256989 1.05267e-06
1.37626e-05 1.05267e-06 0.00256081
0.00397266 0.00010058 7.77157e-05
0.00010058 0.00233724 -7.93149e-06
7.77157e-05 -7.93149e-06 0.002336
-0.00223718 7.04916e-05 3.21824e-06
7.04916e-05 -0.00164805 9.9366e-06
3.21824e-06 9.9366e-06 -0.00196898
0.00244807 0.000375503 6.27606e-06
0.000375503 0.00157198 -2.44459e-05
6.27606e-06 -2.44459e-05 0.00110985
-0.000941374 9.42132e-05 4.34797e-06
9.42132e-05 -0.000590322 -2.61187e-07
4.34797e-06 -2.61187e-07 -0.00104643
0.000810951 0.000136194 -7.09432e-07
0.000136194 0.000297786 -1.30821e-05
-7.09432e-07 -1.30821e-05 9.66291e-05
0.000433843 0.000205292 6.23271e-06
0.000205292 0.00019993 -9.32041e-07
6.23271e-06 -9.32041e-07 -0.000155739
0.000287418 2.63273e-05 -5.15835e-06
2.63273e-05 -6.99563e-05 -1.5028e-05
-5.15835e-06 -1.5028e-05 -0.000131611
0.000522981 9.66754e-05 4.71233e-07
9.66754e-05 0.000114894 7.07914e-07
4.71233e-07 7.07914e-07 -5.98822e-05
0.000705135 0.000152003 -3.94021e-06
0.000152003 0.000325406 1.05362e-05
-3.94021e-06 1.05362e-05 5.85147e-05
0.00312066 -6.90901e-05 -5.07107e-05
-6.90901e-05 0.00177857 -7.94801e-06
-5.07107e-05 -7.94801e-06 0.00178286
0.000339544 1.4499e-05 -7.59447e-07
1.4499e-05 -5.14435e-05 -3.47517e-09
-7.59447e-07 -3.47517e-09 -0.000100053
0.000318716 9.34879e-05 -2.83198e-06
9.34879e-05 -2.5441e-05 8.51333e-06
-2.83198e-06 8.51333e-06 -0.000170019
0.00273053 -5.4545e-05 -9.15109e-06
-5.4545e-05 0.00151412 5.9793e-07
-9.15109e-06 5.9793e-07 0.00152081
0.000301881 -2.30076e-05 -8.95659e-06
-2.30076e-05 -8.50028e-05 9.28492e-06
-8.95659e-06 9.28492e-06 -0.000122568
0.00250598 -3.31048e-05 2.50638e-05
-3.31048e-05 0.00136163 6.6272e-06
2.50638e-05 6.6272e-06 0.00137227
0.00646933 0.00193647 0.000727503
0.00193647 0.00593678 0.000180297
0.000727503 0.000180297 0.00141114
-0.00171146 0.00141671 -3.66663e-05
0.00141671 0.00347894 -1.17117e-05
-3.66663e-05 -1.17117e-05 -0.00107805
0.00059414 0.00183028 -4.37178e-07
0.00183028 0.00428832 -2.83648e-05
-4.37178e-07 -2.83648e-05 0.000316033
2.68753e-05 0.000432603 -1.95711e-05
0.000432603 -0.000180809 5.4754e-06
-1.95711e-05 5.4754e-06 -0.000596157
-0.00108995 9.07327e-06 -1.94518e-05
9.07327e-06 -0.000711121 3.15829e-05
-1.94518e-05 3.15829e-05 -0.0011667
-0.0015138 7.57263e-05 -2.57343e-05
7.57263e-05 -0.00106394 -1.70718e-05
-2.57343e-05 -1.70718e-05 -0.00126147
0.00232502 0.000164583 1.15785e-05
0.000164583 0.00146266 -1.34979e-07
1.15785e-05 -1.34979e-07 0.00110566
0.000558347 0.000339872 3.17184e-06
0.000339872 -3.12172e-05 -8.93971e-06
3.17184e-06 -8.93971e-06 -0.000229903
0.000785607 0.000494485 -2.36801e-05
0.000494485 0.000327804 -9.12768e-06
-2.36801e-05 -9.12768e-06 0.000104515
0.00138154 0.000513038 1.96481e-05
0.000513038 0.000579604 -4.21009e-05
1.96481e-05 -4.21009e-05 0.000173276
-0.00201311 0.000146116 -2.27836e-05
0.000146116 -0.000915636 9.19662e-06
-2.27836e-05 9.19662e-06 -0.00134542
-0.000561075 3.14809e-05 -6.3894e-06
3.14809e-05 -0.000422757 -9.52958e-06
-6.3894e-06 -9.52958e-06 -0.00069205
-0.00115767 3.65233e-05 -1.75587e-05
3.65233e-05 -0.000981316 8.4009e-06
-1.75587e-05 8.4009e-06 -0.00101327
-0.000608419 5.84642e-05 -7.8471e-06
5.84642e-05 -0.000161511 3.73309e-06
-7.8471e-06 3.73309e-06 -0.000594762
-0.000343783 0.000413685 -4.15716e-06
0.000413685 0.00015263 2.23564e-05
-4.15716e-06 2.23564e-05 -0.000595877
0.0146594 -0.0113072 -0.000301591
-0.0113072 0.0155032 0.000229555
-0.000301591 0.000229555 0.00117423
0.0112607 0.00472236 0.000332963
0.00472236 0.00491396 0.000211627
0.000332963 0.000211627 -0.00148093
0.00533196 0.0010793 0.0001738
0.0010793 0.00346818 -6.10835e-05
0.0001738 -6.10835e-05 -0.000657815
0.0441449 -0.0112077 -0.00171148
-0.0112077 0.016658 -0.000503491
-0.00171148 -0.000503491 0.00569341
0.00727398 -0.00111427 0.000344964
-0.00111427 0.0062548 0.000639436
0.000344964 0.000639436 6.82844e-05
0.00186579 -0.00051762 -0.000271634
-0.00051762 0.00636277 0.000195858
-0.000271634 0.000195858 -0.00281832
-0.000372915 -0.00274978 -5.08241e-05
-0.00274978 0.00254918 0.000120185
-5.08241e-05 0.000120185 0.000148526
-0.0011708 -0.000339876 0.000228907
-0.000339876 0.00263723 3.95735e-05
0.000228907 3.95735e-05 0.000723455
0.0363047 -0.0214245 0.000409385
-0.0214245 0.0241295 0.000557315
0.000409385 0.000557315 0.00831432
0.00326864 0.00280569 -0.000256037
0.00280569 0.00655996 -0.000155822
-0.000256037 -0.000155822 -0.00197548
0.0155074 -0.00655576 -0.000137137
-0.00655576 0.0130285 0.000214312
-0.000137137 0.000214312 0.000808738
-0.000530463 0.00150281 1.36702e-05
0.00150281 0.00211145 -1.46864e-05
1.36702e-05 -1.46864e-05 0.00047281
0.00537378 0.00741896 -0.000299502
0.00741896 0.00334582 6.32517e-06
-0.000299502 6.32517e-06 -0.00122735
0.0293386 -0.0103714 -0.0011947
-0.0103714 0.0141858 -0.000186226
-0.0011947 -0.000186226 0.00261389
0.00197565 0.001107 1.78317e-05
0.001107 0.00087669 3.97402e-05
1.78317e-05 3.97402e-05 0.000536129
0.000353182 0.000487971 7.5271e-06
0.000487971 0.000536178 2.99869e-06
7.5271e-06 2.99869e-06 -0.000156705
-0.000661214 4.26403e-05 -6.28154e-05
4.26403e-05 0.000120947 1.20179e-05
-6.28154e-05 1.20179e-05 -0.000543639
-0.001726 -0.000342003 -0.000166253
-0.000342003 0.00233797 -3.66457e-05
-0.000166253 -3.66457e-05 8.8964e-05
0.00174834 0.000569374 -6.80018e-05
0.000569374 0.00120426 1.07368e-06
-6.80018e-05 1.07368e-06 0.000620463
-0.00012547 0.000281153 -1.93794e-05
0.000281153 0.000274658 1.049e-05
-1.93794e-05 1.049e-05 -0.000219046
0.00127673 0.000974978 -4.31555e-06
0.000974978 0.000701689 -2.69952e-06
-4.31555e-06 -2.69952e-06 0.0001288
0.000133189 0.00128402 -4.93557e-05
0.00128402 0.00154051 -7.18763e-05
-4.93557e-05 -7.18763e-05 -0.000387291
0.00318694 0.00311911 0.000131592
0.00311911 0.00156441 4.56208e-05
0.000131592 4.56208e-05 -0.000126403
-0.00684163 0.0012277 0.00070629
0.0012277 0.00671662 -6.14815e-05
0.00070629 -6.14815e-05 -0.00300281
0.0013759 -0.00114855 -5.58605e-05
-0.00114855 0.00272933 0.000103071
-5.58605e-05 0.000103071 -0.00138293
-0.00265279 0.000321498 -6.97468e-05
0.000321498 0.00433465 0.000133465
-6.97468e-05 0.000133465 -7.56551e-05
-0.00181964 -0.000571409 -6.64967e-05
-0.000571409 0.000958178 4.64039e-06
-6.64967e-05 4.64039e-06 -0.00104445
-0.00151643 -0.00142974 -2.75913e-05
-0.00142974 0.00123397 1.2125e-05
-2.75913e-05 1.2125e-05 0.000562166
-0.002878 -0.00190031 -0.000304312
-0.00190031 0.00140953 0.000210064
-0.000304312 0.000210064 -0.00488264
-0.00123602 -0.00761267 0.000425976
-0.00761267 0.00346299 -0.000267153
0.000425976 -0.000267153 -0.00477234
0.0227451 0.00875236 0.00113219
0.00875236 0.00972663 -0.000264918
0.00113219 -0.000264918 -0.000755077
0.0258034 0.0127508 -0.000314284
0.0127508 0.0175912 0.000688279
-0.000314284 0.000688279 0.0031505
0.000338829 -0.00189926 -4.83692e-05
-0.00189926 0.00189761 1.5303e-05
-4.83692e-05 1.5303e-05 0.000150953
0.00741027 0.00366091 0.000507056
0.00366091 0.0145969 -7.72059e-05
0.000507056 -7.72059e-05 0.00487456
0.00970694 0.00783584 6.01183e-05
0.00783584 0.00455786 0.000123022
6.01183e-05 0.000123022 -0.00277089
0.00242649 -0.005993 7.89368e-05
-0.005993 0.00109638 -5.81207e-05
7.89368e-05 -5.81207e-05 0.000594369
0.0120495 -0.00955673 7.25221e-07
-0.00955673 -0.0010385 2.18634e-05
7.25221e-07 2.18634e-05 -0.00157192
0.00251144 -0.00311634 4.19062e-05
-0.00311634 0.00119947 4.95531e-06
4.19062e-05 4.95531e-06 0.0003705
-0.00172602 0.00473442 -0.00175089
0.00473442 0.0022227 0.00014313
-0.00175089 0.00014313 -0.006082
0.0153221 -0.00618983 -0.000502731
-0.00618983 -0.00277472 8.02913e-05
-0.000502731 8.02913e-05 -0.00163642
0.00498008 -0.00602619 0.000121001
-0.00602619 -0.000772252 -0.000102234
0.000121001 -0.000102234 0.000971052
0.000167151 -0.000902025 -1.4754e-05
-0.000902025 0.000733842 -7.73494e-06
-1.4754e-05 -7.73494e-06 -0.000229686
0.00239095 -0.00182392 3.5903e-05
-0.00182392 0.000924928 -1.71324e-05
3.5903e-05 -1.71324e-05 0.000154095
0.0025546 -0.00155698 2.65316e-06
-0.00155698 0.00049058 -1.43955e-05
2.65316e-06 -1.43955e-05 -7.25915e-05
-7.14966e-05 -0.000960777 -4.24587e-06
-0.000960777 -0.000261706 2.77145e-06
-4.24587e-06 2.77145e-06 -0.000886614
0.00245896 -0.00165006 -6.09589e-06
-0.00165006 0.000487745 1.51938e-06
-6.09589e-06 1.51938e-06 -0.000161937
0.00397517 -0.00177244 -1.91898e-06
-0.00177244 0.00103052 -3.70491e-06
-1.91898e-06 -3.70491e-06 0.000428024
0.0019021 -0.00136854 -1.84955e-07
-0.00136854 0.000414218 1.07647e-05
-1.84955e-07 1.07647e-05 -0.000503877
0.00299592 -0.00169027 -8.7136e-07
-0.00169027 0.000683515 4.22296e-06
-8.7136e-07 4.22296e-06 -0.00010183
0.00313644 -0.00132616 -6.9662e-07
-0.00132616 0.000478638 -2.82135e-06
-6.9662e-07 -2.82135e-06 5.75604e-05
0.00234475 -0.0014435 6.28325e-06
-0.0014435 0.000573681 4.33248e-06
6.28325e-06 4.33248e-06 -0.000246733
0.00267107 -0.00115772 -2.80217e-06
-0.00115772 0.000432115 3.39477e-06
-2.80217e-06 3.39477e-06 -7.93761e-05
0.0025082 -0.000815814 2.9908e-07
-0.000815814 8.82534e-05 -9.60002e-07
2.9908e-07 -9.60002e-07 -0.000101547
0.00253058 -0.000781622 -3.00859e-06
-0.000781622 0.000227319 5.79502e-07
-3.00859e-06 5.79502e-07 5.26227e-05
0.00207521 -0.000711073 -3.80314e-06
-0.000711073 -2.46941e-06 -1.02199e-06
-3.80314e-06 -1.02199e-06 -0.000272225
0.00221536 -0.000713407 9.2099e-07
-0.000713407 2.3917e-05 2.71762e-06
9.2099e-07 2.71762e-06 -0.000212216
0.00214653 -0.000920087 -3.63575e-06
-0.000920087 0.000170073 -5.52144e-06
-3.63575e-06 -5.52144e-06 -0.000286538
0.0024134 -0.00106013 4.19553e-06
-0.00106013 0.000296965 5.82188e-07
4.19553e-06 5.82188e-07 -0.000218507
0.00267457 -0.00111877 3.42016e-06
-0.00111877 0.000446427 4.78684e-06
3.42016e-06 4.78684e-06 -8.23599e-05
0.0026231 -0.00119439 -3.99696e-06
-0.00119439 0.000730046 -7.41697e-06
-3.99696e-06 -7.41697e-06 7.06316e-05
0.0029222 -0.00132308 1.29285e-06
-0.00132308 0.000891983 -9.2907e-07
1.29285e-06 -9.2907e-07 0.000193682
0.00324725 -0.00150278 -1.57766e-07
-0.00150278 0.00105964 -1.60413e-07
-1.57766e-07 -1.60413e-07 0.000270403
0.00168516 -0.000843742 -9.31715e-06
-0.000843742 0.000415424 -4.32882e-06
-9.31715e-06 -4.32882e-06 -0.000184141
0.00253467 -0.00123573 1.57819e-06
-0.00123573 0.000941532 -4.26479e-07
1.57819e-06 -4.26479e-07 0.000189251
0.00183893 -0.00126232 -1.56132e-06
-0.00126232 0.000522046 7.12168e-06
-1.56132e-06 7.12168e-06 -0.000236957
0.000692345 -0.000427634 -1.31856e-05
-0.000427634 -3.36533e-05 -3.18284e-06
-1.31856e-05 -3.18284e-06 -0.000275815
0.00143207 -0.000748278 4.01753e-06
-0.000748278 0.000537447 2.91778e-06
4.01753e-06 2.91778e-06 2.78903e-05
3.11487e-05 -0.000724202 -1.03368e-05
-0.000724202 -0.000308336 1.11773e-05
-1.03368e-05 1.11773e-05 -0.000926513
0.000421992 -0.000178218 -3.04224e-05
-0.000178218 -9.47908e-05 1.50121e-05
-3.04224e-05 1.50121e-05 -0.000214563
0.000848475 -0.000432856 3.88785e-06
-0.000432856 0.00024278 1.9708e-07
3.88785e-06 1.9708e-07 -7.4433e-05
-0.00226768 -0.000376604 -7.6703e-06
-0.000376604 -0.00172253 -1.16741e-05
-7.6703e-06 -1.16741e-05 -0.00208495
0.00643928 0.000414037 4.00681e-05
0.000414037 0.00407528 1.42653e-05
4.00681e-05 1.42653e-05 0.0039783
0.000565195 -0.000168971 6.96466e-06
-0.000168971 1.70965e-05 2.03034e-06
6.96466e-06 2.03034e-06 -0.000105758
0.000355732 -0.000165215 -5.25217e-06
-0.000165215 -0.000106247 5.51538e-07
-5.25217e-06 5.51538e-07 -0.000401254
0.00456144 0.000160693 2.17557e-05
0.000160693 0.00274828 1.10938e-06
2.17557e-05 1.10938e-06 0.00273149
0.000594307 -0.000103933 1.05131e-05
-0.000103933 9.41077e-05 -1.84999e-05
1.05131e-05 -1.84999e-05 -3.28025e-05
0.00411265 0.000120441 8.47219e-05
0.000120441 0.00243345 -1.06641e-05
8.47219e-05 -1.06641e-05 0.00242752
0.00268989 0.000534836 -2.00661e-06
0.000534836 0.00133736 9.76351e-06
-2.00661e-06 9.76351e-06 0.000979423
9.24621e-05 0.000222173 4.29135e-06
0.000222173 -0.000219611 1.07484e-06
4.29135e-06 1.07484e-06 -0.000527803
0.00127937 0.000779679 -4.75375e-06
0.000779679 0.000714714 -3.7825e-06
-4.75375e-06 -3.7825e-06 0.000273846
0.00160037 0.000320287 -3.41028e-06
0.000320287 0.000778755 -1.15822e-05
-3.41028e-06 -1.15822e-05 0.000548443
0.00133201 0.00021205 -3.25118e-07
0.00021205 0.000873134 1.11666e-06
-3.25118e-07 1.11666e-06 0.000388247
-0.00110995 0.000131553 -3.13766e-06
0.000131553 -0.000622946 6.45342e-06
-3.13766e-06 6.45342e-06 -0.00111231
0.000602981 1.73699e-05 -5.2975e-06
1.73699e-05 0.000139706 -1.6431e-05
-5.2975e-06 -1.6431e-05 6.1384e-05
0.00058676 0.000129591 3.84589e-07
0.000129591 0.000149444 9.32905e-07
3.84589e-07 9.32905e-07 -4.45623e-05
-0.000629027 6.03845e-05 -9.79512e-06
6.03845e-05 -0.000568388 3.17002e-05
-9.79512e-06 3.17002e-05 -0.000867141
0.00370271 -9.44841e-05 -6.79484e-05
-9.44841e-05 0.00217303 -8.89417e-06
-6.79484e-05 -8.89417e-06 0.00217262
0.000402531 -3.17081e-05 9.11425e-07
-3.17081e-05 4.58595e-06 -4.20661e-07
9.11425e-07 -4.20661e-07 -5.71259e-05
0.000586208 9.40267e-05 -3.42032e-06
9.40267e-05 0.000166961 1.08577e-05
-3.42032e-06 1.08577e-05 -1.43421e-05
0.00314059 -7.73058e-05 -1.08277e-05
-7.73058e-05 0.00179308 8.97473e-07
-1.08277e-05 8.97473e-07 0.0017951
0.000410365 3.40593e-05 5.89742e-07
3.40593e-05 -6.79905e-06 1.14638e-05
5.89742e-07 1.14638e-05 -5.4002e-05
0.0027632 -5.72779e-05 2.54618e-05
-5.72779e-05 0.00153574 7.06671e-06
2.54618e-05 7.06671e-06 0.00154188
-0.00271754 -0.000810539 -0.00064276
-0.000810539 0.00732271 0.000111638
-0.00064276 0.000111638 -0.00261812
0.00674692 0.00172581 0.000112659
0.00172581 0.00491776 6.89056e-06
0.000112659 6.89056e-06 0.000749399
-0.000585334 0.00159638 0.000314759
0.00159638 0.00343873 0.000130889
0.000314759 0.000130889 -0.00114777
0.000683217 0.000396663 -1.04547e-05
0.000396663 0.000297195 7.55891e-06
-1.04547e-05 7.55891e-06 -0.000205478
0.00411207 0.00124216 9.82149e-06
0.00124216 0.00226908 3.41891e-05
9.82149e-06 3.41891e-05 0.00155674
0.000878144 0.000382605 -2.35966e-05
0.000382605 0.000794456 3.21717e-06
-2.35966e-05 3.21717e-06 3.88719e-05
0.000359427 0.000236918 -1.25515e-05
0.000236918 0.000276756 -1.80099e-05
-1.25515e-05 -1.80099e-05 -0.000121471
0.00361091 0.000614163 -4.70745e-06
0.000614163 0.00186236 -3.1454e-06
-4.70745e-06 -3.1454e-06 0.00159478
-0.00268631 0.000112822 -6.77561e-06
0.000112822 -0.00188305 2.34657e-05
-6.77561e-06 2.34657e-05 -0.00191331
-0.000679402 0.000294062 -8.11113e-07
0.000294062 -0.000275129 9.67451e-06
-8.11113e-07 9.67451e-06 -0.000685268
0.00106438 0.000397604 -1.37589e-05
0.000397604 0.000577733 -6.08916e-07
-1.37589e-05 -6.08916e-07 0.000115163
0.00125011 0.00100978 -2.9611e-05
0.00100978 0.000759039 -7.65567e-06
-2.9611e-05 -7.65567e-06 5.55483e-05
-0.00140845 0.000786556 -5.37384e-05
0.000786556 -0.0011302 8.45045e-05
-5.37384e-05 8.45045e-05 -0.00142319
-0.000764972 0.000100596 -1.46371e-05
0.000100596 -0.000346786 1.96009e-05
-1.46371e-05 1.96009e-05 -0.000743393
0.00177247 0.000777745 2.79601e-05
0.000777745 0.00128545 -1.5495e-06
2.79601e-05 -1.5495e-06 0.000639948
0.00807642 -0.00676615 -0.00373759
-0.00676615 0.0055335 0.00016913
-0.00373759 0.00016913 -0.00361764
0.00731481 -0.00874329 0.00119424
-0.00874329 0.0158208 -2.23923e-05
0.00119424 -2.23923e-05 0.00335707
0.0113891 0.00533933 -0.00139406
0.00533933 0.00405555 -0.000396851
-0.00139406 -0.000396851 -0.0032009
0.0323354 -0.0245773 0.0026968
-0.0245773 0.0234498 0.00173445
0.0026968 0.00173445 0.00682624
0.0332524 -0.00637036 -0.000294018
-0.00637036 0.0157433 0.000647987
-0.000294018 0.000647987 0.0056953
-0.000586115 0.00223718 -0.000204043
0.00223718 0.00511873 -0.000260808
-0.000204043 -0.000260808 -0.00227047
-0.000197592 -0.000187454 -0.000190758
-0.000187454 0.00425922 4.69309e-05
-0.000190758 4.69309e-05 0.00165556
0.000310121 0.00161821 6.62111e-05
0.00161821 0.00288535 5.64885e-05
6.62111e-05 5.64885e-05 0.00128038
0.0320972 -0.00931887 -0.00108254
-0.00931887 0.0156076 0.000290363
-0.00108254 0.000290363 0.00427637
-0.001116 0.00741801 -0.000405135
0.00741801 0.00145409 -5.07512e-05
-0.000405135 -5.07512e-05 -0.00384517
0.00258117 0.0047304 2.93664e-05
0.0047304 0.0012941 -0.000126104
2.93664e-05 -0.000126104 0.00129529
0.00738281 0.0123949 -0.0012069
0.0123949 -0.00341968 -0.000130581
-0.0012069 -0.000130581 -0.00388174
0.00411762 0.00201986 3.97983e-05
0.00201986 0.00179102 1.65499e-05
3.97983e-05 1.65499e-05 0.00112076
0.00164388 0.00102296 -9.25721e-06
0.00102296 0.000642228 -5.33064e-06
-9.25721e-06 -5.33064e-06 0.000373698
-6.23292e-05 0.000393319 -5.69647e-05
0.000393319 0.000278934 -1.31228e-05
-5.69647e-05 -1.31228e-05 -0.000388873
-0.000192365 0.0013304 -0.000165628
0.0013304 0.00153233 -8.93386e-05
-0.000165628 -8.93386e-05 -0.000188643
0.00109897 0.00105235 -8.33872e-05
0.00105235 0.000600076 -6.89888e-05
-8.33872e-05 -6.89888e-05 5.59476e-05
0.00319359 0.00315115 1.7362e-06
0.00315115 0.00137875 -1.58482e-05
1.7362e-06 -1.58482e-05 -0.00020955
-0.000742327 0.00323898 0.000171963
0.00323898 -0.00190127 0.000116311
0.000171963 0.000116311 -0.00248452
-0.00721284 -0.000775851 -0.00149286
-0.000775851 0.00047935 6.703e-05
-0.00149286 6.703e-05 -0.00590728
-0.0102758 0.00064187 0.00103165
0.00064187 0.00716263 -2.55113e-05
0.00103165 -2.55113e-05 -0.000550836
0.00144196 0.000574333 -0.000281998
0.000574333 0.00274017 4.31545e-05
-0.000281998 4.31545e-05 -0.000237676
0.00110861 -0.00218542 -0.000119925
-0.00218542 0.00167904 -7.71515e-05
-0.000119925 -7.71515e-05 -5.94817e-05
0.000783929 -0.00506753 0.000206054
-0.00506753 0.000742577 4.59573e-05
0.000206054 4.59573e-05 8.4412e-05
0.00398811 0.00376347 0.000833304
0.00376347 0.0136717 0.000211573
0.000833304 0.000211573 0.00392268
0.00594372 -0.00956295 0.00125607
-0.00956295 -0.00425589 -0.000166418
0.00125607 -0.000166418 -0.00320293
0.0235714 0.00804912 0.00243326
0.00804912 0.014805 0.000197578
0.00243326 0.000197578 0.0060684
0.00360588 -0.00402408 -2.25037e-05
-0.00402408 0.00140603 -6.1254e-06
-2.25037e-05 -6.1254e-06 0.000128272
0.00770231 0.00564848 0.000573632
0.00564848 0.00543623 -0.000175087
0.000573632 -0.000175087 -0.00249173
0.00826778 -0.00618567 -0.000371195
-0.00618567 -0.00745651 0.000225763
-0.000371195 0.000225763 -0.00597862
0.00285428 -0.0052676 -5.9091e-05
-0.0052676 -0.00162876 6.61058e-05
-5.9091e-05 6.61058e-05 0.000593108
0.00317923 -0.00301271 5.03005e-05
-0.00301271 -5.45246e-05 -2.83136e-05
5.03005e-05 -2.83136e-05 -2.652e-05
0.0187039 -0.00158906 -0.000128233
-0.00158906 4.53083e-05 0.000153375
-0.000128233 0.000153375 0.00106452
0.00336934 -0.00380257 0.000146346
-0.00380257 -0.00495664 -0.000179734
0.000146346 -0.000179734 -0.00116083
0.0034483 -0.00219759 -8.43707e-05
-0.00219759 0.00139303 4.85918e-05
-8.43707e-05 4.85918e-05 0.000643353
0.000574889 -0.00128699 -1.67496e-05
-0.00128699 -0.000571101 2.43131e-06
-1.67496e-05 2.43131e-06 -0.000939101
0.00600262 -0.0017872 5.56351e-05
-0.0017872 0.00199237 -2.80319e-05
5.56351e-05 -2.80319e-05 0.0016149
0.000727168 -0.0014125 -7.17928e-06
-0.0014125 -0.000395805 1.78194e-06
-7.17928e-06 1.78194e-06 -0.00100779
0.00307906 -0.00164229 1.36818e-06
-0.00164229 0.000580632 -1.63581e-06
1.36818e-06 -1.63581e-06 2.14198e-05
0.0033179 -0.00130291 -3.94045e-07
-0.00130291 0.000398561 -2.82243e-06
-3.94045e-07 -2.82243e-06 0.000214577
0.00264125 -0.00163639 9.11106e-06
-0.00163639 0.000495053 1.21766e-05
9.11106e-06 1.21766e-05 -0.0002803
0.00292334 -0.00128277 -4.15876e-06
-0.00128277 0.000362831 2.01594e-06
-4.15876e-06 2.01594e-06 -3.49726e-05
0.0026798 -0.000880718 -6.53524e-07
-0.000880718 6.01194e-06 -9.16345e-07
-6.53524e-07 -9.16345e-07 -2.10119e-05
0.0022258 -0.00108972 6.34629e-06
-0.00108972 0.000174381 7.35491e-06
6.34629e-06 7.35491e-06 -0.000314328
0.00242789 -0.000800671 -1.38211e-08
-0.000800671 3.44983e-05 2.51942e-06
-1.38211e-08 2.51942e-06 -0.00014347
0.00259592 -0.000850089 -2.24208e-06
-0.000850089 8.78562e-05 5.53433e-07
-2.24208e-06 5.53433e-07 -8.06504e-07
0.00251996 -0.000816397 -4.21141e-06
-0.000816397 0.000132484 -1.01585e-07
-4.21141e-06 -1.01585e-07 -8.46246e-06
0.00246842 -0.000778946 -3.68109e-06
-0.000778946 0.000175555 1.96766e-06
-3.68109e-06 1.96766e-06 9.5049e-06
0.00249353 -0.000745642 -8.20611e-07
-0.000745642 0.000288583 -1.71645e-06
-8.20611e-07 -1.71645e-06 7.87624e-05
0.00247007 -0.00076668 -5.79695e-06
-0.00076668 0.000304614 -2.59065e-06
-5.79695e-06 -2.59065e-06 -1.23501e-06
0.00232807 -0.00072434 1.26824e-06
-0.00072434 0.000176367 1.4229e-06
1.26824e-06 1.4229e-06 -9.72253e-05
0.00220467 -0.000711221 2.33126e-06
-0.000711221 -3.74156e-06 6.81791e-06
2.33126e-06 6.81791e-06 -0.000237363
0.00234902 -0.000918403 -5.48226e-06
-0.000918403 0.000342342 -7.80502e-06
-5.48226e-06 -7.80502e-06 -0.000116812
0.00209003 -0.000930887 -4.3484e-07
-0.000930887 0.00011384 -3.49265e-08
-4.3484e-07 -3.49265e-08 -0.000348614
0.00251098 -0.0010612 7.21669e-06
-0.0010612 0.000379242 5.45331e-06
7.21669e-06 5.45331e-06 -0.000130817
0.00184264 -0.000987581 -9.72492e-06
-0.000987581 0.000270224 -6.35939e-06
-9.72492e-06 -6.35939e-06 -0.000332775
0.00267288 -0.0012054 -1.04782e-06
-0.0012054 0.000735388 6.38991e-07
-1.04782e-06 6.38991e-07 7.32345e-05
0.00258853 -0.00129162 4.12081e-06
-0.00129162 0.000676814 4.16537e-06
4.12081e-06 4.16537e-06 -1.8711e-05
0.000837607 -0.000365922 -7.18468e-06
-0.000365922 -2.47853e-05 8.58146e-06
-7.18468e-06 8.58146e-06 -0.000337241
0.00177292 -0.000862123 -1.75642e-06
-0.000862123 0.000466715 2.76974e-06
-1.75642e-06 2.76974e-06 -0.000130831
0.00243224 -0.0012185 8.47605e-07
-0.0012185 0.000875604 1.08057e-05
8.47605e-07 1.08057e-05 0.000128859
0.000204699 -0.000216095 -1.87074e-05
-0.000216095 -0.000226235 2.56534e-05
-1.87074e-05 2.56534e-05 -0.000401116
0.0012627 -0.000453551 -1.13374e-05
-0.000453551 0.000378036 6.37177e-07
-1.13374e-05 6.37177e-07 9.26858e-05
-0.00151771 -0.000710859 5.67717e-07
-0.000710859 -0.00132847 -3.23374e-06
5.67717e-07 -3.23374e-06 -0.00184673
0.00644146 0.00019008 -0.000186178
0.00019008 0.00399575 1.61738e-05
-0.000186178 1.61738e-05 0.00397261
0.000596022 -0.000193435 -5.69866e-06
-0.000193435 1.90286e-05 -1.83295e-06
-5.69866e-06 -1.83295e-06 -0.000111825
1.32842e-06 -0.000412437 1.76674e-05
-0.000412437 -0.000241972 -2.16756e-06
1.76674e-05 -2.16756e-06 -0.000595299
0.00374937 0.000147116 9.762e-05
0.000147116 0.00222621 -1.8801e-06
9.762e-05 -1.8801e-06 0.00217816
0.000201104 -0.000180449 2.94851e-05
-0.000180449 -0.000214632 -1.54283e-05
2.94851e-05 -1.54283e-05 -0.000344876
0.00561683 0.000120958 0.000178392
0.000120958 0.00343874 -1.50541e-05
0.000178392 -1.50541e-05 0.0034324
0.00145165 0.000635376 -1.73074e-05
0.000635376 0.000472036 1.43119e-05
-1.73074e-05 1.43119e-05 -4.37396e-05
0.000751455 0.000353747 -6.74469e-06
0.000353747 0.000180311 1.32421e-06
-6.74469e-06 1.32421e-06 -0.000178026
-0.000284486 0.000202038 9.0559e-06
0.000202038 -0.000496085 6.1664e-06
9.0559e-06 6.1664e-06 -0.000801513
0.00239238 0.000445088 4.76596e-06
0.000445088 0.00127805 -4.25901e-06
4.76596e-06 -4.25901e-06 0.000931195
0.00124091 0.000199412 3.79673e-07
0.000199412 0.000659749 -3.43998e-07
3.79673e-07 -3.43998e-07 0.000261448
0.00146037 0.000183181 1.42051e-06
0.000183181 0.00076338 -1.65893e-05
1.42051e-06 -1.65893e-05 0.000440795
0.000849481 0.000127111 -1.95541e-05
0.000127111 0.000276948 -2.14058e-05
-1.95541e-05 -2.14058e-05 0.00018469
0.000775483 0.000178264 -2.02838e-06
0.000178264 0.000307617 6.0771e-07
-2.02838e-06 6.0771e-07 4.93737e-05
-0.00223561 -3.79725e-05 -1.74295e-05
-3.79725e-05 -0.00145548 2.85872e-05
-1.74295e-05 2.85872e-05 -0.00191319
0.00360212 -9.68298e-05 -8.69794e-05
-9.68298e-05 0.00211279 -1.20584e-05
-8.69794e-05 -1.20584e-05 0.00211271
0.00023506 6.80447e-05 1.10782e-06
6.80447e-05 -9.90448e-05 -5.06266e-07
1.10782e-06 -5.06266e-07 -0.000172762
0.000726865 0.000158859 -3.25436e-06
0.000158859 0.000251764 1.20304e-05
-3.25436e-06 1.20304e-05 5.52886e-05
0.00329381 -9.45821e-05 -1.10375e-05
-9.45821e-05 0.00190409 9.35449e-07
-1.10375e-05 9.35449e-07 0.0019025
0.000156233 -1.90904e-06 2.00364e-06
-1.90904e-06 -0.000154121 1.3637e-05
2.00364e-06 1.3637e-05 -0.000214869
0.00293489 -7.86944e-05 3.24155e-05
-7.86944e-05 0.00165689 7.83026e-06
3.24155e-05 7.83026e-06 0.00165837
0.0026671 -0.0024584 -0.00241961
-0.0024584 0.00459434 3.21797e-05
-0.00241961 3.21797e-05 0.000912459
-0.001148 -0.00213672 -0.000148151
-0.00213672 0.00913552 -7.90358e-05
-0.000148151 -7.90358e-05 -0.0013962
0.00722006 0.00125526 -0.000713117
0.00125526 0.00448557 -0.000187666
-0.000713117 -0.000187666 0.000547644
9.18306e-05 0.000212633 -1.20722e-06
0.000212633 -7.96469e-05 1.05882e-05
-1.20722e-06 1.05882e-05 -0.000566531
0.000978404 0.00030018 1.45703e-05
0.00030018 0.000722671 2.61042e-06
1.45703e-05 2.61042e-06 1.71738e-05
0.00229918 0.000996562 -4.28453e-06
0.000996562 0.00113227 -1.35007e-06
-4.28453e-06 -1.35007e-06 0.000437489
0.00220492 0.00124578 1.20259e-05
0.00124578 0.000843944 2.09791e-05
1.20259e-05 2.09791e-05 0.00011384
0.00129134 0.0009973 -2.28111e-05
0.0009973 0.000812068 2.22381e-05
-2.28111e-05 2.22381e-05 4.09835e-05
0.00295874 0.000521381 3.64853e-06
0.000521381 0.00187659 2.23754e-06
3.64853e-06 2.23754e-06 0.00153643
0.00179683 0.000481016 2.33978e-05
0.000481016 0.00114848 1.67784e-05
2.33978e-05 1.67784e-05 0.000645993
0.00230643 0.00101939 -5.6974e-06
0.00101939 0.00136869 8.88689e-08
-5.6974e-06 8.88689e-08 0.000680513
0.00232472 0.00145952 -1.81893e-05
0.00145952 0.000837786 6.73187e-06
-1.81893e-05 6.73187e-06 0.000176785
0.00273805 0.00143784 -1.16796e-05
0.00143784 0.00102299 6.12218e-05
-1.16796e-05 6.12218e-05 0.0006336
0.00216371 0.00186756 4.48451e-05
0.00186756 0.000267107 -5.90212e-06
4.48451e-05 -5.90212e-06 -0.000210538
0.0013827 0.00115709 1.8236e-05
0.00115709 0.000507075 9.23467e-06
1.8236e-05 9.23467e-06 4.83183e-05
0.00307993 0.000988047 -1.09665e-05
0.000988047 0.00206926 -2.51722e-06
-1.09665e-05 -2.51722e-06 0.00129148
0.0183403 0.00677484 -0.000192332
0.00677484 -0.000352457 8.1615e-05
-0.000192332 8.1615e-05 0.00109372
0.01406 -0.00526253 -0.000992493
-0.00526253 0.00808878 -0.000230849
-0.000992493 -0.000230849 0.00138816
0.00755789 -0.00986006 0.00199552
-0.00986006 0.0173448 0.000124234
0.00199552 0.000124234 0.00527129
0.0239693 -0.0057407 0.000776139
-0.0057407 0.0105961 0.00016008
0.000776139 0.00016008 0.000653524
0.00982648 0.00936664 -0.000279729
0.00936664 0.00470354 -0.000112374
-0.000279729 -0.000112374 -8.35434e-05
-0.000855326 0.00156091 1.96478e-05
0.00156091 0.00246877 3.43688e-05
1.96478e-05 3.43688e-05 0.000739591
0.00172871 0.0043214 -0.000161345
0.0043214 0.000826477 -8.77899e-05
-0.000161345 -8.77899e-05 0.00127187
0.0110131 0.0103254 7.33763e-05
0.0103254 -0.000740984 8.99153e-05
7.33763e-05 8.99153e-05 -0.00208325
0.00808957 0.00732799 -0.000217943
0.00732799 -0.000909971 -0.00016129
-0.000217943 -0.00016129 0.000380429
0.00170211 0.00201268 1.37335e-05
0.00201268 0.000145449 -2.02634e-05
1.37335e-05 -2.02634e-05 -0.000355203
0.00195849 0.00161537 1.88589e-05
0.00161537 0.000667761 3.24528e-06
1.88589e-05 3.24528e-06 0.000127659
0.00140906 0.000921003 -2.69968e-05
0.000921003 0.000565932 -4.10659e-05
-2.69968e-05 -4.10659e-05 0.00033383
0.00147896 0.00296982 -9.53659e-05
0.00296982 0.000284189 -5.66767e-05
-9.53659e-05 -5.66767e-05 -0.00118923
0.00333378 0.0037404 0.000128582
0.0037404 3.9244e-05 5.8722e-05
0.000128582 5.8722e-05 -0.000927156
0.00768492 -0.000438792 -6.74536e-05
-0.000438792 -0.00606989 2.37732e-05
-6.74536e-05 2.37732e-05 -0.00672509
-5.46302e-05 -0.00285588 -2.51749e-05
-0.00285588 0.00560944 0.000109843
-2.51749e-05 0.000109843 0.000896171
-0.0138989 -0.000172462 0.00123831
-0.000172462 0.00836105 1.9161e-05
0.00123831 1.9161e-05 0.00268614
0.0027009 -0.00464765 -0.000150198
-0.00464765 0.000453156 9.33842e-05
-0.000150198 9.33842e-05 -0.00107339
0.00683156 -0.00687227 -3.55001e-06
-0.00687227 -0.00074715 0.00012341
-3.55001e-06 0.00012341 0.000932768
0.00882171 0.00250805 0.00240555
0.00250805 0.00718254 -0.000389772
0.00240555 -0.000389772 0.00291287
0.0137102 -0.00578554 -0.000478383
-0.00578554 -0.0036919 0.00035447
-0.000478383 0.00035447 -0.00115974
0.00247851 -0.0029734 -3.99683e-05
-0.0029734 -0.000486719 1.4592e-05
-3.99683e-05 1.4592e-05 -0.000569637
0.0133369 -0.00116913 -0.00042777
-0.00116913 -0.00397705 0.000143861
-0.00042777 0.000143861 -0.00319908
0.00772981 -0.00446969 0.000116458
-0.00446969 -0.00221669 -2.44814e-06
0.000116458 -2.44814e-06 0.000579718
0.00352898 -0.00233254 5.87935e-05
-0.00233254 -0.000980628 -7.40242e-05
5.87935e-05 -7.40242e-05 -0.000275434
0.0037579 -0.00181718 0.000129442
-0.00181718 -0.00406321 -3.32608e-05
0.000129442 -3.32608e-05 -0.000365664
-0.000513213 -0.00117733 2.19154e-06
-0.00117733 -0.00124648 1.86354e-05
2.19154e-06 1.86354e-05 -0.00146209
0.001953 -0.00131896 -3.15764e-05
-0.00131896 -0.000376481 9.51586e-06
-3.15764e-05 9.51586e-06 -0.000357198
0.00455234 -0.00127846 5.07896e-05
-0.00127846 0.000900826 -2.59339e-05
5.07896e-05 -2.59339e-05 0.0010273
0.00204394 -0.00149008 -6.4959e-06
-0.00149008 5.75076e-05 1.02611e-05
-6.4959e-06 1.02611e-05 -0.000447775
0.00299515 -0.00128691 -4.90062e-06
-0.00128691 0.000208186 1.98069e-06
-4.90062e-06 1.98069e-06 2.53142e-05
0.00301473 -0.0009695 5.12399e-06
-0.0009695 3.01035e-06 -2.52825e-06
5.12399e-06 -2.52825e-06 9.1369e-05
0.00261148 -0.00122248 -1.11032e-05
-0.00122248 0.000199638 9.52583e-06
-1.11032e-05 9.52583e-06 -0.000170596
0.00258383 -0.000871228 -9.28536e-08
-0.000871228 -5.49203e-05 1.39739e-06
-9.28536e-08 1.39739e-06 -8.01256e-05
0.00274766 -0.000848485 -1.01033e-06
-0.000848485 1.64672e-05 -1.30614e-06
-1.01033e-06 -1.30614e-06 3.99613e-05
0.00235518 -0.000783019 2.24924e-06
-0.000783019 -9.42163e-06 4.79942e-06
2.24924e-06 4.79942e-06 -0.000174889
0.00257369 -0.000840728 -1.69402e-07
-0.000840728 8.85889e-05 6.33872e-07
-1.69402e-07 6.33872e-07 -1.92765e-06
0.00267116 -0.000824926 -2.18654e-06
-0.000824926 8.2837e-05 -5.73388e-07
-2.18654e-06 -5.73388e-07 1.48092e-05
0.00248323 -0.000818398 -5.05956e-06
-0.000818398 0.000104657 4.76293e-07
-5.05956e-06 4.76293e-07 -2.79811e-05
0.00243745 -0.00076542 -1.12911e-06
-0.00076542 0.000127169 -9.08762e-07
-1.12911e-06 -9.08762e-07 -2.07587e-05
0.00241037 -0.000776426 2.82516e-07
-0.000776426 0.000130028 3.34308e-06
2.82516e-07 3.34308e-06 -2.83017e-05
0.00247563 -0.000742029 9.64431e-07
-0.000742029 0.000275583 -5.38909e-07
9.64431e-07 -5.38909e-07 6.92422e-05
0.0023963 -0.000736109 -2.70008e-06
-0.000736109 0.000276492 -5.91005e-07
-2.70008e-06 -5.91005e-07 3.02756e-05
0.00253022 -0.000785232 -1.12672e-06
-0.000785232 0.000413907 -6.51688e-06
-1.12672e-06 -6.51688e-06 7.65587e-05
0.0025537 -0.000774505 -3.6173e-07
-0.000774505 0.000362349 5.97733e-08
-3.6173e-07 5.97733e-08 5.16687e-05
0.00259702 -0.000737169 7.60594e-06
-0.000737169 0.000369904 3.7726e-06
7.60594e-06 3.7726e-06 9.27625e-05
0.00214602 -0.000889429 -7.68842e-06
-0.000889429 0.000315376 -3.84675e-06
-7.68842e-06 -3.84675e-06 -0.000181698
0.00231554 -0.000930794 -3.19208e-06
-0.000930794 0.00030221 -9.83111e-07
-3.19208e-06 -9.83111e-07 -0.00016609
0.00198596 -0.00093434 4.46027e-06
-0.00093434 2.87492e-05 5.28296e-06
4.46027e-06 5.28296e-06 -0.000437392
0.00205676 -0.000632615 -1.40678e-05
-0.000632615 0.00067354 1.15529e-05
-1.40678e-05 1.15529e-05 0.000236602
0.00214721 -0.00101722 -1.58631e-06
-0.00101722 0.000482785 1.00974e-06
-1.58631e-06 1.00974e-06 -0.000125551
0.00282903 -0.00122991 3.8899e-06
-0.00122991 0.000807186 7.80465e-06
3.8899e-06 7.80465e-06 0.000138983
0.000388936 -0.000280941 -1.73592e-05
-0.000280941 -0.000159173 2.88382e-05
-1.73592e-05 2.88382e-05 -0.000362157
0.000650719 -0.000366045 3.63521e-06
-0.000366045 -0.000143247 -3.35052e-06
3.63521e-06 -3.35052e-06 -0.00047041
0.00227712 -0.000913128 1.01996e-05
-0.000913128 0.000786372 4.09499e-06
1.01996e-05 4.09499e-06 0.000187646
0.00689814 5.2758e-05 -0.000242585
5.2758e-05 0.00425173 2.10111e-05
-0.000242585 2.10111e-05 0.0042547
0.000428601 -0.00023472 -4.85281e-06
-0.00023472 -8.38147e-05 -5.774e-07
-4.85281e-06 -5.774e-07 -0.00026552
0.00161825 -0.00059324 9.49173e-06
-0.00059324 0.000715082 -3.31772e-06
9.49173e-06 -3.31772e-06 0.00035546
0.00628173 0.000139642 1.27568e-05
0.000139642 0.00388064 -3.74993e-06
1.27568e-05 -3.74993e-06 0.00386641
0.00103285 -0.000221653 2.29109e-05
-0.000221653 0.000294664 -2.01776e-05
2.29109e-05 -2.01776e-05 0.00015978
0.00608112 0.00020295 0.00014973
0.00020295 0.00377444 -2.0897e-05
0.00014973 -2.0897e-05 0.00374387
0.00306558 0.00122326 -1.07596e-05
0.00122326 0.00138692 1.76946e-05
-1.07596e-05 1.76946e-05 0.000651565
0.00185956 0.000756973 -1.54266e-06
0.000756973 0.000777462 2.5516e-06
-1.54266e-06 2.5516e-06 0.000212497
-0.000863741 0.00037506 -3.21957e-06
0.00037506 -0.000827635 4.9071e-06
-3.21957e-06 4.9071e-06 -0.00124974
-0.000540946 0.000194609 5.48843e-06
0.000194609 -0.000575403 -9.48885e-06
5.48843e-06 -9.48885e-06 -0.000928354
2.6296e-05 0.000407013 3.55657e-06
0.000407013 -0.000282539 -4.04714e-06
3.55657e-06 -4.04714e-06 -0.000592859
-0.0007741 0.000501646 -1.2423e-05
0.000501646 -0.000797557 -7.33012e-06
-1.2423e-05 -7.33012e-06 -0.00110645
-0.000298295 0.000101945 -1.00605e-05
0.000101945 -0.0003248 2.28765e-06
-1.00605e-05 2.28765e-06 -0.000735323
0.000652098 0.00031461 4.06021e-06
0.00031461 0.000222816 4.90764e-07
4.06021e-06 4.90764e-07 -9.87592e-05
0.000934883 0.000176404 -2.42519e-05
0.000176404 0.00030428 -2.46765e-05
-2.42519e-05 -2.46765e-05 0.000176552
0.00434408 -0.000128369 -0.000109966
-0.000128369 0.00262175 -1.84829e-05
-0.000109966 -1.84829e-05 0.00261244
0.000499856 7.87364e-05 4.8585e-06
7.87364e-05 6.70365e-05 -2.28412e-07
4.8585e-06 -2.28412e-07 -3.01339e-05
-0.000334023 3.85082e-05 -5.80875e-06
3.85082e-05 -0.000361777 1.41492e-05
-5.80875e-06 1.41492e-05 -0.0006505
0.00396682 -0.000130613 -1.44845e-05
-0.000130613 0.00236218 1.70301e-06
-1.44845e-05 1.70301e-06 0.00235271
0.000241728 -7.70765e-05 -1.25756e-05
-7.70765e-05 -7.32485e-05 1.75018e-05
-1.25756e-05 1.75018e-05 -0.000158212
0.003319 -0.0001036 4.44482e-05
-0.0001036 0.00192188 8.81588e-06
4.44482e-05 8.81588e-06 0.00191775
0.0162625 0.00107167 0.000843949
0.00107167 -0.000817737 0.0001691
0.000843949 0.0001691 0.00119744
0.00414537 -0.00729758 -0.00137251
-0.00729758 0.00172652 -2.04137e-05
-0.00137251 -2.04137e-05 -0.00636966
-0.0041817 0.000320364 -0.000302614
0.000320364 0.00858941 -8.14029e-05
-0.000302614 -8.14029e-05 -0.000793911
0.000512604 0.000148462 9.92894e-06
0.000148462 0.000397634 -1.99961e-05
9.92894e-06 -1.99961e-05 -0.000332779
0.00122848 0.000868628 1.25427e-05
0.000868628 0.000495325 -2.1712e-05
1.25427e-05 -2.1712e-05 -0.000222455
0.00194003 0.00099214 -1.2841e-05
0.00099214 0.00105978 -1.10867e-05
-1.2841e-05 -1.10867e-05 0.000336013
0.00224179 0.00127059 -2.64753e-06
0.00127059 0.000882662 -4.5504e-07
-2.64753e-06 -4.5504e-07 0.000130945
0.00201001 0.00117431 2.69601e-05
0.00117431 0.000470729 2.7559e-05
2.69601e-05 2.7559e-05 -0.000162476
0.000985452 0.00128597 2.45916e-06
0.00128597 -1.01464e-05 1.62395e-05
2.45916e-06 1.62395e-05 -0.000612544
0.00151619 0.000871994 -8.50458e-06
0.000871994 0.000813113 -1.49543e-05
-8.50458e-06 -1.49543e-05 0.000140822
0.00219641 0.00145929 1.45122e-07
0.00145929 0.00072037 3.44543e-06
1.45122e-07 3.44543e-06 6.49873e-05
0.00268432 0.00137001 3.07992e-05
0.00137001 0.00110642 6.64984e-06
3.07992e-05 6.64984e-06 0.000605477
0.00380831 0.00152416 1.02532e-05
0.00152416 0.00158917 1.13096e-05
1.02532e-05 1.13096e-05 0.000914807
0.0014786 0.00143701 3.93626e-06
0.00143701 5.31067e-05 1.11735e-05
3.93626e-06 1.11735e-05 -0.000364686
0.00339188 0.00192622 2.39456e-05
0.00192622 0.000980731 1.70627e-05
2.39456e-05 1.70627e-05 0.000276287
0.00273876 0.00187922 1.46511e-05
0.00187922 0.000662479 3.57812e-06
1.46511e-05 3.57812e-06 0.000157535
0.00298694 0.00124575 -3.95408e-05
0.00124575 0.00138256 -0.000115176
-3.95408e-05 -0.000115176 0.00089546
0.00474963 0.00364262 3.24942e-05
0.00364262 -0.00472951 7.40489e-05
3.24942e-05 7.40489e-05 -0.000359591
0.0135783 0.00775186 0.000569847
0.00775186 -0.00405236 0.000283514
0.000569847 0.000283514 -0.00258985
0.0191181 -0.00921174 0.00151274
-0.00921174 0.0105274 -0.000384954
0.00151274 -0.000384954 0.00117379
0.0051121 0.0121087 0.00139787
0.0121087 -0.00303262 0.000503811
0.00139787 0.000503811 -0.00488683
-0.000883411 0.00320284 -2.56135e-05
0.00320284 0.000276549 4.03317e-05
-2.56135e-05 4.03317e-05 0.000466727
0.00356596 0.00439835 -0.000121559
0.00439835 -0.00157526 -9.81744e-05
-0.000121559 -9.81744e-05 0.000417346
0.00742277 0.00381225 5.59262e-05
0.00381225 0.000896822 2.74183e-05
5.59262e-05 2.74183e-05 0.000735962
0.00607675 0.00288121 2.56948e-05
0.00288121 0.00210756 8.5839e-06
2.56948e-05 8.5839e-06 0.00136967
0.00129601 0.00144925 -3.67133e-05
0.00144925 0.000307049 -1.4926e-05
-3.67133e-05 -1.4926e-05 -0.000171989
0.00922785 0.0046009 -0.000185343
0.0046009 0.00277445 3.44302e-05
-0.000185343 3.44302e-05 0.00141601
0.00618961 -0.00116508 0.000133423
-0.00116508 -0.00282969 7.29629e-05
0.000133423 7.29629e-05 0.000518536
0.0141693 -0.000437448 -2.15732e-05
-0.000437448 -0.00170908 -5.01686e-05
-2.15732e-05 -5.01686e-05 0.000225676
-0.00957593 -0.00491407 0.00186147
-0.00491407 0.000126829 -8.71991e-05
0.00186147 -8.71991e-05 -0.00680981
0.00266091 -0.00289134 -0.000144236
-0.00289134 -0.00033616 7.76775e-05
-0.000144236 7.76775e-05 -0.000338321
0.00806112 -0.0048944 -0.000132338
-0.0048944 -0.00255991 0.000187519
-0.000132338 0.000187519 0.000579489
0.00300724 -0.000750424 -0.000556122
-0.000750424 -0.0101824 1.67785e-05
-0.000556122 1.67785e-05 -0.00856287
0.00372824 -0.0022054 5.19304e-05
-0.0022054 -0.000841165 -6.22385e-08
5.19304e-05 -6.22385e-08 7.8595e-05
0.00525451 -0.00185742 -0.000109653
-0.00185742 -0.00290489 9.87564e-06
-0.000109653 9.87564e-06 1.93063e-05
0.00679142 -0.00165126 7.37724e-05
-0.00165126 0.000979891 -6.36797e-05
7.37724e-05 -6.36797e-05 0.00184713
0.00845259 -0.00120539 0.000188179
-0.00120539 0.00127379 1.36981e-05
0.000188179 1.36981e-05 0.00267957
-0.00153741 -0.00097209 3.68457e-05
-0.00097209 -0.00256905 1.20413e-05
3.68457e-05 1.20413e-05 -0.00210495
0.00261341 -0.0010979 -1.57819e-05
-0.0010979 -0.000304688 2.97925e-06
-1.57819e-05 2.97925e-06 5.61103e-05
0.00285253 -0.000772798 3.3235e-05
-0.000772798 -0.000297977 -1.67859e-05
3.3235e-05 -1.67859e-05 0.000122826
0.00266147 -0.00127632 -3.19908e-06
-0.00127632 7.55043e-06 5.12396e-06
-3.19908e-06 5.12396e-06 -0.00017885
0.00298232 -0.000967819 5.12744e-07
-0.000967819 -5.16558e-06 1.18681e-06
5.12744e-07 1.18681e-06 8.04722e-05
0.00287043 -0.000792448 5.34283e-07
-0.000792448 -6.88165e-05 -2.20784e-06
5.34283e-07 -2.20784e-06 4.45227e-06
0.00247313 -0.000863857 1.55086e-06
-0.000863857 -0.000131026 3.83239e-06
1.55086e-06 3.83239e-06 -0.000154267
0.00271666 -0.000846437 -3.20757e-10
-0.000846437 8.61401e-06 3.03327e-07
-3.20757e-10 3.03327e-07 2.17978e-05
0.0026367 -0.000706117 -1.40355e-06
-0.000706117 -3.32707e-05 -1.42843e-06
-1.40355e-06 -1.42843e-06 -3.04536e-05
0.00255083 -0.000833528 1.77097e-06
-0.000833528 8.41664e-05 1.19689e-06
1.77097e-06 1.19689e-06 -7.73024e-06
0.00267171 -0.0008243 -1.44014e-07
-0.0008243 0.00011036 -1.65708e-07
-1.44014e-07 -1.65708e-07 3.53797e-05
0.00256093 -0.000709991 1.18495e-06
-0.000709991 0.000100746 -1.22413e-06
1.18495e-06 -1.22413e-06 2.4901e-05
0.00244068 -0.0008202 -2.26796e-06
-0.0008202 7.10683e-05 9.38717e-07
-2.26796e-06 9.38717e-07 -5.27158e-05
0.00242186 -0.000770284 -1.51048e-06
-0.000770284 0.000110259 2.38187e-07
-1.51048e-06 2.38187e-07 -3.35969e-05
0.00245469 -0.000715609 -1.98745e-06
-0.000715609 0.000225428 1.04583e-07
-1.98745e-06 1.04583e-07 4.05862e-05
0.00244988 -0.000736596 3.28089e-06
-0.000736596 0.000257571 9.88958e-07
3.28089e-06 9.88958e-07 5.54994e-05
0.00241674 -0.000729541 3.68637e-07
-0.000729541 0.000287872 -9.2613e-08
3.68637e-07 -9.2613e-08 4.31246e-05
0.00235895 -0.000729211 -1.33648e-06
-0.000729211 0.000282625 -1.43062e-06
-1.33648e-06 -1.43062e-06 -1.52022e-06
0.00222321 -0.000738409 -2.72037e-06
-0.000738409 0.00031408 -6.02337e-06
-2.72037e-06 -6.02337e-06 -6.0754e-05
0.00242169 -0.000782662 -8.0415e-07
-0.000782662 0.00033552 -1.52805e-06
-8.0415e-07 -1.52805e-06 -1.04069e-05
0.00264048 -0.000783354 4.62524e-06
-0.000783354 0.000422768 3.02381e-06
4.62524e-06 3.02381e-06 0.00010658
0.00141718 -0.000605711 -2.16489e-05
-0.000605711 9.1169e-05 1.67179e-06
-2.16489e-05 1.67179e-06 -0.000332747
0.0023368 -0.000903169 -4.16162e-07
-0.000903169 0.000457784 2.00123e-07
-4.16162e-07 2.00123e-07 -4.19006e-05
0.00228775 -0.000944322 2.52787e-07
-0.000944322 0.000265245 5.62425e-06
2.52787e-07 5.62425e-06 -0.000212712
0.000421806 -0.000290911 -1.90637e-05
-0.000290911 -0.000162114 2.75124e-05
-1.90637e-05 2.75124e-05 -0.000367576
0.00107439 -0.000553637 9.81765e-06
-0.000553637 6.65313e-05 1.53176e-06
9.81765e-06 1.53176e-06 -0.000362601
0.00247021 -0.00104499 7.30161e-06
-0.00104499 0.000713726 5.89368e-06
7.30161e-06 5.89368e-06 0.00010095
0.00884496 -5.25523e-05 -0.000349137
-5.25523e-05 0.00547441 3.38357e-05
-0.000349137 3.38357e-05 0.00548639
9.70326e-05 -0.000292829 3.30013e-06
-0.000292829 -0.000340504 8.0447e-07
3.30013e-06 8.0447e-07 -0.000546256
0.000476307 -0.000344563 -5.13632e-06
-0.000344563 -0.000250663 -5.39468e-06
-5.13632e-06 -5.39468e-06 -0.000589728
0.00768363 2.11306e-05 -2.08047e-05
2.11306e-05 0.00477112 -2.02297e-06
-2.08047e-05 -2.02297e-06 0.00477014
0.000595018 -0.000222479 9.41594e-06
-0.000222479 1.95498e-05 -2.7337e-05
9.41594e-06 -2.7337e-05 -0.000168609
0.00626446 6.50564e-05 0.000258453
6.50564e-05 0.00387853 -3.64659e-05
0.000258453 -3.64659e-05 0.00387243
0.00230002 0.00110368 -1.49027e-05
0.00110368 0.00064127 1.77024e-05
-1.49027e-05 1.77024e-05 9.2563e-07
0.00238829 0.00111909 -8.21561e-08
0.00111909 0.000956748 2.55761e-07
-8.21561e-08 2.55761e-07 0.000252379
0.00162295 0.000817398 -1.0494e-05
0.000817398 0.000497001 1.22015e-05
-1.0494e-05 1.22015e-05 -8.50364e-05
0.000830355 0.000696263 2.07671e-05
0.000696263 0.00011095 -1.01249e-05
2.07671e-05 -1.01249e-05 -0.000449659
0.00109806 0.000439348 -3.42021e-06
0.000439348 0.00026162 -1.92641e-06
-3.42021e-06 -1.92641e-06 -0.00013932
-0.000240828 0.000296093 -6.93253e-06
0.000296093 -0.000472876 -5.4075e-07
-6.93253e-06 -5.4075e-07 -0.000831292
0.00284862 0.000317798 1.28604e-06
0.000317798 0.00150092 -4.88731e-06
1.28604e-06 -4.88731e-06 0.00119534
0.001372 0.000254371 3.96592e-06
0.000254371 0.000604333 -1.75228e-06
3.96592e-06 -1.75228e-06 0.000287261
0.000344938 0.000234616 -3.34679e-05
0.000234616 -0.000136279 -2.53947e-05
-3.34679e-05 -2.53947e-05 -0.000283288
0.000564484 0.000244327 -6.28967e-08
0.000244327 0.000181894 1.84231e-05
-6.28967e-08 1.84231e-05 -0.000141739
0.000416219 0.000162153 -1.27912e-06
0.000162153 -1.81811e-05 -4.4491e-07
-1.27912e-06 -4.4491e-07 -0.000141193
0.00549081 -0.000130704 -0.000182542
-0.000130704 0.00339602 -2.73879e-05
-0.000182542 -2.73879e-05 0.00337902
0.00403545 -0.000145003 -1.52764e-05
-0.000145003 0.00242147 1.82369e-06
-1.52764e-05 1.82369e-06 0.00240683
-9.1469e-05 0.000136552 2.14182e-05
0.000136552 -0.000320041 2.05475e-05
2.14182e-05 2.05475e-05 -0.000405745
0.00354261 -0.000127572 5.59127e-05
-0.000127572 0.00208289 9.96856e-06
5.59127e-05 9.96856e-06 0.00207257
0.00131654 0.000944028 0.000169514
0.000944028 -0.0040942 4.40839e-05
0.000169514 4.40839e-05 -0.000689598
0.0043768 0.000184331 0.000308635
0.000184331 -0.00849445 0.000191632
0.000308635 0.000191632 -0.00838234
0.0195727 -0.00835199 -0.000387262
-0.00835199 0.0129688 -0.00015928
-0.000387262 -0.00015928 0.00379895
0.00215766 0.000999516 1.44645e-05
0.000999516 0.000314897 1.66539e-05
1.44645e-05 1.66539e-05 -0.000171089
0.00290496 0.00106741 3.45851e-06
0.00106741 0.00149474 -1.7814e-05
3.45851e-06 -1.7814e-05 0.000797166
0.00201862 0.00126481 -3.75389e-06
0.00126481 0.000747168 -2.36563e-05
-3.75389e-06 -2.36563e-05 -1.69256e-05
0.00206319 0.00140305 2.77461e-06
0.00140305 0.000652088 2.01177e-06
2.77461e-06 2.01177e-06 3.33423e-06
0.00236048 0.00122632 1.07927e-06
0.00122632 0.000692416 3.21463e-06
1.07927e-06 3.21463e-06 4.17163e-05
0.00265305 0.00135466 1.11455e-05
0.00135466 0.000767894 1.66679e-05
1.11455e-05 1.66679e-05 0.000139223
0.00131191 0.00132509 -2.1745e-06
0.00132509 0.000167341 -6.46484e-06
-2.1745e-06 -6.46484e-06 -0.000451602
0.000683197 0.00107205 2.037e-05
0.00107205 4.85392e-06 -6.1079e-05
2.037e-05 -6.1079e-05 -0.0004359
0.00233324 0.00144378 1.46332e-06
0.00144378 0.000630943 -1.19653e-06
1.46332e-06 -1.19653e-06 2.52167e-05
0.000487134 0.00135001 1.35172e-05
0.00135001 -0.000560382 -3.28094e-05
1.35172e-05 -3.28094e-05 -0.00086177
0.00281886 0.00138095 2.14911e-05
0.00138095 0.000768827 1.15576e-06
2.14911e-05 1.15576e-06 8.78931e-05
0.00303437 0.00128348 5.47867e-05
0.00128348 0.000660777 6.20518e-05
5.47867e-05 6.20518e-05 0.000448648
0.00128407 0.00152003 -1.39269e-05
0.00152003 -9.38676e-05 -1.63033e-05
-1.39269e-05 -1.63033e-05 -0.000617379
0.00227536 0.00172737 -3.95745e-05
0.00172737 0.00045393 -1.45228e-05
-3.95745e-05 -1.45228e-05 4.37644e-05
0.00291346 0.00171751 1.87642e-05
0.00171751 -0.00192445 5.77775e-05
1.87642e-05 5.77775e-05 -0.00027023
0.00649622 0.00399026 -0.000162372
0.00399026 -0.00371142 -7.17044e-05
-0.000162372 -7.17044e-05 0.000569841
0.0037424 0.00559277 0.00109191
0.00559277 -0.0105508 0.000311807
0.00109191 0.000311807 -0.00886293
0.00273663 0.00404782 -0.000295649
0.00404782 -0.00091502 -0.00014847
-0.000295649 -0.00014847 0.000538582
0.00594403 0.00313354 -3.09645e-05
0.00313354 0.000640442 -1.5013e-05
-3.09645e-05 -1.5013e-05 0.000691836
0.00846827 0.00338383 -0.000247045
0.00338383 0.00308653 -7.77818e-05
-0.000247045 -7.77818e-05 0.00223213
0.00461483 -0.000120683 -4.57208e-05
-0.000120683 -0.00106376 -2.32534e-05
-4.57208e-05 -2.32534e-05 0.000111399
0.0016527 -0.000587672 0.000125767
-0.000587672 -0.00289295 3.29435e-05
0.000125767 3.29435e-05 -0.000121632
0.0086453 -0.000165407 0.00023754
-0.000165407 -0.00670105 -4.19141e-05
0.00023754 -4.19141e-05 -0.00697556
0.00279803 -0.00197244 -8.51e-05
-0.00197244 -0.00124501 0.000128117
-8.51e-05 0.000128117 -0.000213532
0.00552231 -0.0018639 -0.000257416
-0.0018639 -0.00321326 8.54505e-05
-0.000257416 8.54505e-05 -0.000617276
0.00371106 -0.00135932 -1.94745e-05
-0.00135932 -0.000807073 1.30449e-05
-1.94745e-05 1.30449e-05 0.00025939
0.00498148 -0.000988905 -6.1675e-05
-0.000988905 -0.000479706 -4.27663e-08
-6.1675e-05 -4.27663e-08 0.000731074
0.00458518 -0.000676452 0.000124924
-0.000676452 0.000641983 -2.67497e-05
0.000124924 -2.67497e-05 0.00110045
0.00311856 -0.000137115 6.21088e-05
-0.000137115 -8.29411e-05 4.7155e-07
6.21088e-05 4.7155e-07 0.000293023
0.000784951 -0.000887614 -1.85669e-05
-0.000887614 -0.00135567 1.84807e-05
-1.85669e-05 1.84807e-05 -0.00079642
0.00279299 -0.000801084 -5.17966e-06
-0.000801084 -0.000313696 9.29218e-07
-5.17966e-06 9.29218e-07 6.1085e-05
0.00282889 -0.000579441 5.5931e-06
-0.000579441 -0.000273625 -3.62237e-06
5.5931e-06 -3.62237e-06 3.69599e-05
0.00294881 -0.000962362 -3.85536e-06
-0.000962362 -6.24325e-06 3.46965e-06
-3.85536e-06 3.46965e-06 7.59891e-05
0.00287904 -0.000767186 -3.50419e-07
-0.000767186 -2.56607e-05 -3.48333e-07
-3.50419e-07 -3.48333e-07 5.8947e-05
0.00264942 -0.000567739 -7.77442e-07
-0.000567739 -0.000156109 -1.1762e-06
-7.77442e-07 -1.1762e-06 -3.62478e-05
0.00268739 -0.000842464 -1.47762e-07
-0.000842464 6.27775e-06 1.59957e-06
-1.47762e-07 1.59957e-06 8.80941e-06
0.00262706 -0.000708206 -7.03147e-07
-0.000708206 -2.27427e-05 -1.39837e-08
-7.03147e-07 -1.39837e-08 -1.77984e-05
0.00251862 -0.00058048 7.4968e-07
-0.00058048 1.64406e-05 -7.33999e-07
7.4968e-07 -7.33999e-07 1.02757e-06
0.00267144 -0.000822357 6.20682e-07
-0.000822357 0.000139209 5.66999e-07
6.20682e-07 5.66999e-07 5.69791e-05
0.0025705 -0.000711598 1.0285e-06
-0.000711598 0.000103791 -2.43129e-07
1.0285e-06 -2.43129e-07 2.70148e-05
0.00242456 -0.000633139 2.81933e-08
-0.000633139 0.000117156 -4.25875e-07
2.81933e-08 -4.25875e-07 1.11892e-05
0.00240923 -0.000775791 -1.26394e-06
-0.000775791 9.55542e-05 1.64381e-06
-1.26394e-06 1.64381e-06 -4.44653e-05
0.00238661 -0.000715785 -1.13188e-06
-0.000715785 0.00017023 2.87079e-07
-1.13188e-06 2.87079e-07 -9.2329e-06
0.00244169 -0.000687562 -1.35928e-06
-0.000687562 0.000266776 -4.59823e-07
-1.35928e-06 -4.59823e-07 4.00493e-05
0.00243917 -0.000723174 3.48458e-06
-0.000723174 0.000300041 3.95435e-07
3.48458e-06 3.95435e-07 5.68992e-05
0.00236965 -0.000727356 -6.07859e-07
-0.000727356 0.000291525 6.48072e-07
-6.07859e-07 6.48072e-07 9.31906e-06
0.00231129 -0.000672601 -1.83855e-06
-0.000672601 0.000335423 -3.08982e-06
-1.83855e-06 -3.08982e-06 2.09975e-05
0.00157305 -0.000530194 -2.09731e-05
-0.000530194 0.000112973 4.4294e-06
-2.09731e-05 4.4294e-06 -0.000238022
0.00219963 -0.000734594 2.26931e-07
-0.000734594 0.00030812 -1.80642e-06
2.26931e-07 -1.80642e-06 -7.17269e-05
0.00229598 -0.000778316 -2.33959e-07
-0.000778316 0.000245073 3.72978e-06
-2.33959e-07 3.72978e-06 -0.000108894
0.000134074 -0.000302168 -2.21257e-05
-0.000302168 -0.000370184 2.43471e-05
-2.21257e-05 2.43471e-05 -0.000587948
0.00148346 -0.000603439 -3.40388e-07
-0.000603439 0.000146412 -5.74699e-08
-3.40388e-07 -5.74699e-08 -0.000272961
0.00251285 -0.000916986 3.9867e-06
-0.000916986 0.000587057 5.66734e-06
3.9867e-06 5.66734e-06 8.4701e-05
0.0097098 -0.000131191 -0.000438212
-0.000131191 0.00600013 4.40414e-05
-0.000438212 4.40414e-05 0.00602638
5.7132e-05 -0.000310531 3.68335e-07
-0.000310531 -0.000384916 2.29336e-06
3.68335e-07 2.29336e-06 -0.000606442
0.000457639 -0.000512617 1.14361e-05
-0.000512617 -0.000328835 -1.60782e-06
1.14361e-05 -1.60782e-06 -0.000753908
0.00922068 -9.70931e-05 -6.26589e-06
-9.70931e-05 0.00572073 1.37491e-06
-6.26589e-06 1.37491e-06 0.00573843
-0.00016964 -0.000340259 2.44448e-05
-0.000340259 -0.000502075 -3.10039e-05
2.44448e-05 -3.10039e-05 -0.000712419
0.00848414 -1.45306e-05 0.000362532
-1.45306e-05 0.00529527 -4.8193e-05
0.000362532 -4.8193e-05 0.00529798
0.00199304 0.000917277 -6.1102e-06
0.000917277 0.000252242 1.56507e-05
-6.1102e-06 1.56507e-05 -0.00023691
0.00228482 0.00108598 -4.86992e-07
0.00108598 0.000649768 2.3905e-06
-4.86992e-07 2.3905e-06 1.68797e-05
0.00229046 0.0009746 -1.79314e-06
0.0009746 0.0006837 1.70874e-05
-1.79314e-06 1.70874e-05 8.05309e-05
0.00214376 0.00105957 6.33497e-06
0.00105957 0.000817051 -1.57124e-05
6.33497e-06 -1.57124e-05 0.000130792
0.00167492 0.000832903 -4.38039e-07
0.000832903 0.000515976 6.15137e-07
-4.38039e-07 6.15137e-07 -7.5599e-05
-9.49891e-05 0.000379113 -1.51068e-05
0.000379113 -0.000538287 2.57437e-06
-1.51068e-05 2.57437e-06 -0.000917445
0.0022616 0.000538474 6.09975e-06
0.000538474 0.000949213 -8.64098e-06
6.09975e-06 -8.64098e-06 0.000530472
0.000292307 0.000344709 3.87701e-06
0.000344709 -0.000178713 -1.40352e-06
3.87701e-06 -1.40352e-06 -0.00049609
0.000421131 0.000286961 -3.85435e-05
0.000286961 -0.000146894 -2.71022e-05
-3.85435e-05 -2.71022e-05 -0.000292445
0.00116388 0.000311271 3.63101e-06
0.000311271 0.000454667 7.46655e-06
3.63101e-06 7.46655e-06 0.000140882
0.000739826 0.000238305 2.02639e-07
0.000238305 0.000112922 -1.69334e-06
2.02639e-07 -1.69334e-06 -2.21525e-05
0.00719022 -0.000213486 -0.000218836
-0.000213486 0.00454745 -3.63742e-05
-0.000218836 -3.63742e-05 0.00450013
0.000330133 0.00015665 2.33165e-05
0.00015665 -6.14189e-05 2.47576e-05
2.33165e-05 2.47576e-05 -0.000183704
0.0050827 -0.000203918 -2.163e-05
-0.000203918 0.00314855 2.28781e-06
-2.163e-05 2.28781e-06 0.00311167
0.00427473 -0.00017347 7.38911e-05
-0.00017347 0.00258574 1.29155e-05
7.38911e-05 1.29155e-05 0.00256339
0.000749919 0.000752647 3.72553e-05
0.000752647 -0.0034856 4.89632e-05
3.72553e-05 4.89632e-05 -0.00131751
0.00576212 0.000863407 8.11131e-05
0.000863407 -0.00281884 2.91647e-05
8.11131e-05 2.91647e-05 0.000827133
0.0180761 0.00105376 3.70776e-05
0.00105376 -0.000466586 0.00018097
3.70776e-05 0.00018097 0.00190184
0.00235283 0.00110897 -1.49584e-07
0.00110897 0.000338739 8.84764e-06
-1.49584e-07 8.84764e-06 -0.000156995
0.0025737 0.00102936 1.88869e-06
0.00102936 0.000337401 9.04837e-06
1.88869e-06 9.04837e-06 -5.60682e-05
0.00211898 0.00100221 -1.55006e-06
0.00100221 0.000287199 -4.15478e-06
-1.55006e-06 -4.15478e-06 -0.000196006
0.00326124 0.00153238 1.10013e-05
0.00153238 0.00138489 -6.88049e-06
1.10013e-05 -6.88049e-06 0.000689515
0.00248942 0.00124355 -1.43971e-05
0.00124355 0.000776582 -1.75495e-05
-1.43971e-05 -1.75495e-05 0.000119615
0.0027751 0.00141482 7.85629e-06
0.00141482 0.00079171 2.30662e-06
7.85629e-06 2.30662e-06 0.00015031
0.00306231 0.00131897 -1.23548e-05
0.00131897 0.000478846 9.39783e-07
-1.23548e-05 9.39783e-07 4.86255e-05
0.00171951 0.00147002 5.57717e-06
0.00147002 0.000197373 -1.04045e-05
5.57717e-06 -1.04045e-05 -0.000393802
0.00224508 0.00163339 -8.19431e-06
0.00163339 0.000478368 9.40603e-05
-8.19431e-06 9.40603e-05 -2.42164e-06
0.00282141 0.00147021 5.18613e-06
0.00147021 0.000698847 -5.36991e-06
5.18613e-06 -5.36991e-06 1.32442e-05
0.00354425 0.00128906 3.67453e-06
0.00128906 0.000605395 2.30192e-05
3.67453e-06 2.30192e-05 0.000362943
0.00245009 0.000633999 8.27919e-05
0.000633999 0.000126772 8.39643e-06
8.27919e-05 8.39643e-06 0.000389115
0.000382661 0.00096648 2.27563e-07
0.00096648 -0.000734243 -2.32816e-05
2.27563e-07 -2.32816e-05 -0.000870025
0.00142845 0.00147649 -5.21813e-05
0.00147649 4.06864e-05 2.54683e-06
-5.21813e-05 2.54683e-06 -0.000480377
0.0046027 0.00189006 4.2808e-05
0.00189006 -0.00097047 1.70685e-05
4.2808e-05 1.70685e-05 0.000576796
0.0106442 0.00406886 -0.000104729
0.00406886 -0.00113473 -7.16786e-05
-0.000104729 -7.16786e-05 0.00212307
0.00653563 0.0027258 -0.000114037
0.0027258 0.00153121 -0.000113472
-0.000114037 -0.000113472 0.0016306
0.0039334 -1.0418e-05 9.46829e-05
-1.0418e-05 0.000467408 7.57769e-06
9.46829e-05 7.57769e-06 0.000858564
0.00435071 -0.000245795 -0.000146918
-0.000245795 -0.00157707 1.23258e-05
-0.000146918 1.23258e-05 3.21277e-05
0.00529432 0.00047365 -6.72912e-05
0.00047365 -0.00155254 -4.38342e-05
-6.72912e-05 -4.38342e-05 0.000870569
0.00222748 -0.0012638 -0.000133885
-0.0012638 -0.00164839 9.63426e-05
-0.000133885 9.63426e-05 -0.00054428
0.00175953 -0.000899385 -0.000114479
-0.000899385 -0.00221222 1.38793e-05
-0.000114479 1.38793e-05 -0.00109155
0.00362798 -0.000626187 5.40441e-06
-0.000626187 1.6429e-05 -8.64444e-06
5.40441e-06 -8.64444e-06 0.000605833
0.00266002 -0.000140175 -2.02089e-05
-0.000140175 -0.000354195 -2.60047e-06
-2.02089e-05 -2.60047e-06 4.09788e-05
0.0027945 -0.000357951 1.14055e-05
-0.000357951 -0.000373248 -3.50429e-06
1.14055e-05 -3.50429e-06 1.47953e-05
0.00254234 0.000127426 2.2305e-06
0.000127426 -0.000532118 -6.57693e-07
2.2305e-06 -6.57693e-07 -0.000237602
0.00281267 -0.000838819 -2.39276e-05
-0.000838819 -0.000291956 1.33645e-05
-2.39276e-05 1.33645e-05 3.62402e-05
0.00286032 -0.000609955 -3.26506e-06
-0.000609955 -0.000278287 8.388e-07
-3.26506e-06 8.388e-07 -7.05646e-07
0.00273245 -0.000420376 -5.6307e-07
-0.000420376 -0.000219949 -5.66712e-07
-5.6307e-07 -5.66712e-07 1.56514e-05
0.00288041 -0.000741387 -3.34725e-06
-0.000741387 6.78328e-06 1.89801e-06
-3.34725e-06 1.89801e-06 0.000106687
0.00265952 -0.000572243 2.30767e-07
-0.000572243 -0.000141246 -2.53697e-07
2.30767e-07 -2.53697e-07 -2.80091e-05
0.00254718 -0.000466051 1.17548e-06
-0.000466051 -7.97889e-05 -5.85925e-07
1.17548e-06 -5.85925e-07 5.77316e-06
0.00262063 -0.000710966 -7.1774e-07
-0.000710966 -1.14979e-05 1.57938e-06
-7.1774e-07 1.57938e-06 -4.15676e-06
0.00252172 -0.00057887 4.21992e-07
-0.00057887 1.11422e-05 -6.40362e-08
4.21992e-07 -6.40362e-08 -3.91375e-06
0.00237704 -0.000513347 2.28451e-07
-0.000513347 3.11684e-05 -3.32092e-07
2.28451e-07 -3.32092e-07 -1.26092e-05
0.00258128 -0.00071359 1.52931e-06
-0.00071359 0.000107231 6.4709e-07
1.52931e-06 6.4709e-07 2.94702e-05
0.00242511 -0.000633776 6.27828e-07
-0.000633776 0.000113467 -1.31348e-07
6.27828e-07 -1.31348e-07 7.11092e-06
0.00239951 -0.000597817 -2.88782e-06
-0.000597817 0.000176361 3.11669e-07
-2.88782e-06 3.11669e-07 2.06628e-05
0.00232024 -0.000716301 5.92737e-07
-0.000716301 0.00011601 5.30593e-07
5.92737e-07 5.30593e-07 -5.80778e-05
0.00236081 -0.000684042 5.69192e-07
-0.000684042 0.000211475 -4.14926e-07
5.69192e-07 -4.14926e-07 -1.25498e-05
0.00227709 -0.00061791 -1.85977e-06
-0.00061791 0.000243185 -2.46366e-06
-1.85977e-06 -2.46366e-06 -2.25487e-05
0.00238979 -0.000726334 -4.88762e-07
-0.000726334 0.000307716 3.06559e-06
-4.88762e-07 3.06559e-06 2.70121e-05
0.0023551 -0.000678601 -4.39718e-07
-0.000678601 0.000367234 -1.33896e-07
-4.39718e-07 -1.33896e-07 5.30788e-05
0.00156896 -0.000459939 -1.41294e-05
-0.000459939 8.35304e-05 4.08118e-06
-1.41294e-05 4.08118e-06 -0.000212484
0.00032157 -0.000286865 -1.87031e-05
-0.000286865 -0.000287497 2.19448e-05
-1.87031e-05 2.19448e-05 -0.000491968
0.00159485 -0.000532403 4.22232e-08
-0.000532403 0.000126019 1.25036e-07
4.22232e-08 1.25036e-07 -0.000224165
0.00220266 -0.000734349 1.59479e-06
-0.000734349 0.000318731 3.04678e-06
1.59479e-06 3.04678e-06 -6.716e-05
0.0091752 -0.000198959 -0.000437971
-0.000198959 0.00563813 4.60421e-05
-0.000437971 4.60421e-05 0.00566653
0.000344863 -0.000318688 -1.17059e-06
-0.000318688 -0.000245304 1.14213e-06
-1.17059e-06 1.14213e-06 -0.000460692
0.00155817 -0.000592586 2.00547e-05
-0.000592586 0.000212769 -3.07865e-06
2.00547e-05 -3.07865e-06 -0.000199421
0.00952621 -0.000149799 -3.72176e-06
-0.000149799 0.00588061 2.726e-06
-3.72176e-06 2.726e-06 0.00590354
9.62824e-05 -0.000323478 2.38382e-05
-0.000323478 -0.000361244 -2.83146e-05
2.38382e-05 -2.83146e-05 -0.000587707
0.00958312 -0.000127328 0.00041954
-0.000127328 0.00594487 -4.9116e-05
0.00041954 -4.9116e-05 0.00596188
0.00219787 0.000936301 3.80783e-06
0.000936301 0.000228644 1.41237e-05
3.80783e-06 1.41237e-05 -0.00019498
0.00216633 0.000940185 2.61788e-06
0.000940185 0.000377003 -1.01431e-07
2.61788e-06 -1.01431e-07 -0.000114336
0.00243816 0.000914382 5.006e-06
0.000914382 0.000609356 1.64735e-05
5.006e-06 1.64735e-05 9.20007e-05
0.00239319 0.00108243 1.36511e-05
0.00108243 0.000745175 -1.32214e-05
1.36511e-05 -1.32214e-05 0.000115657
0.00213553 0.000953696 3.39008e-07
0.000953696 0.000576555 1.69756e-06
3.39008e-07 1.69756e-06 -2.2042e-05
0.000679989 0.00047572 -2.83497e-05
0.00047572 -0.000182906 2.42354e-06
-2.83497e-05 2.42354e-06 -0.000585721
0.00238074 0.000864209 -2.62508e-06
0.000864209 0.000890715 -1.26478e-05
-2.62508e-06 -1.26478e-05 0.000307762
0.000837969 0.000380701 -5.32446e-07
0.000380701 5.63541e-05 -8.2656e-07
-5.32446e-07 -8.2656e-07 -0.000299836
0.000107436 0.000299643 -3.32975e-05
0.000299643 -0.000333232 -3.09667e-05
-3.32975e-05 -3.09667e-05 -0.000514373
0.00212956 0.000256192 3.81039e-06
0.000256192 0.000955621 1.02557e-06
3.81039e-06 1.02557e-06 0.000675002
0.000259262 0.000259604 5.65467e-06
0.000259604 -0.000236603 -1.44268e-06
5.65467e-06 -1.44268e-06 -0.000386928
0.00817257 -0.000134566 -0.000284152
-0.000134566 0.0051316 -3.84863e-05
-0.000284152 -3.84863e-05 0.0051082
0.000364939 0.000217744 3.09026e-05
0.000217744 -0.000102074 2.72332e-05
3.09026e-05 2.72332e-05 -0.000241692
0.0066143 -0.000183574 -4.47436e-06
-0.000183574 0.00414039 -1.34366e-06
-4.47436e-06 -1.34366e-06 0.0041088
0.00463667 -0.000212515 9.14409e-05
-0.000212515 0.00285285 1.8875e-05
9.14409e-05 1.8875e-05 0.0028148
0.00147513 0.000442328 6.17715e-05
0.000442328 -0.000858682 3.70547e-05
6.17715e-05 3.70547e-05 -0.000296681
0.00149168 0.000867337 3.80235e-05
0.000867337 -0.00341933 -1.06785e-05
3.80235e-05 -1.06785e-05 -0.0012998
0.00582154 0.00164279 0.000303362
0.00164279 -0.00300171 0.000133228
0.000303362 0.000133228 0.00107571
0.0028044 0.00107722 -7.7458e-06
0.00107722 0.000372593 2.10833e-06
-7.7458e-06 2.10833e-06 2.25524e-05
0.00247298 0.00114149 -1.01175e-05
0.00114149 0.000406633 -4.14168e-06
-1.01175e-05 -4.14168e-06 -9.43235e-05
0.00251144 0.000802752 6.71105e-06
0.000802752 0.000167306 4.77218e-06
6.71105e-06 4.77218e-06 -5.27362e-05
0.00260189 0.00102352 1.22054e-06
0.00102352 0.00035201 2.21553e-07
1.22054e-06 2.21553e-07 -2.78819e-05
0.00214091 0.00100486 -7.42487e-06
0.00100486 0.000305347 -1.76389e-05
-7.42487e-06 -1.76389e-05 -0.0001742
0.00301157 0.00097883 -4.50487e-06
0.00097883 0.000206509 2.5913e-06
-4.50487e-06 2.5913e-06 5.28139e-05
0.00272864 0.00145493 2.69371e-06
0.00145493 0.000715117 -8.70787e-06
2.69371e-06 -8.70787e-06 6.66933e-05
0.00299761 0.00126075 -1.05894e-06
0.00126075 0.000474927 -1.30745e-06
-1.05894e-06 -1.30745e-06 5.9028e-05
0.00240275 0.000603969 -6.13224e-06
0.000603969 -0.000386507 2.00038e-06
-6.13224e-06 2.00038e-06 -0.00017597
0.00222566 0.00148619 -1.33019e-05
0.00148619 0.000280048 1.88859e-05
-1.33019e-05 1.88859e-05 -0.000358281
0.0030302 0.0012277 3.17662e-06
0.0012277 0.000316875 -5.75556e-06
3.17662e-06 -5.75556e-06 9.04424e-05
0.000838489 0.000628011 -3.62125e-05
0.000628011 -0.00100658 -2.83396e-06
-3.62125e-05 -2.83396e-06 -0.000564844
-0.00319185 0.000577605 -2.28187e-05
0.000577605 -0.00264295 -1.41074e-05
-2.28187e-05 -1.41074e-05 -0.0026691
0.00592209 0.00205101 -0.00023098
0.00205101 -0.000205806 -9.12033e-05
-0.00023098 -9.12033e-05 0.00120079
0.00277396 0.000233748 -4.50758e-06
0.000233748 -0.000289198 -3.7388e-06
-4.50758e-06 -3.7388e-06 1.09734e-05
0.00332821 2.45722e-05 -4.39532e-06
2.45722e-05 3.21834e-05 -3.9837e-06
-4.39532e-06 -3.9837e-06 0.000420688
0.00335359 -0.000408757 -0.000187516
-0.000408757 -0.00222252 -2.20471e-05
-0.000187516 -2.20471e-05 -0.000498431
0.00226717 -0.000546436 -0.000120978
-0.000546436 -0.000862776 3.11735e-05
-0.000120978 3.11735e-05 -0.00012054
0.002329 -0.000152707 -2.04585e-05
-0.000152707 -0.000526216 5.45644e-09
-2.04585e-05 5.45644e-09 -0.00012502
0.00269003 -0.000379365 6.45751e-06
-0.000379365 -0.00047179 -1.22184e-06
6.45751e-06 -1.22184e-06 -3.37253e-05
0.00286425 0.000147106 -1.81906e-06
0.000147106 -0.000302677 2.42683e-06
-1.81906e-06 2.42683e-06 -3.33276e-05
0.00273322 -7.00751e-05 -1.0859e-06
-7.00751e-05 -0.000279221 1.17101e-07
-1.0859e-06 1.17101e-07 8.98796e-06
0.0028874 -0.000635998 -4.57206e-06
-0.000635998 -0.00027606 2.92231e-06
-4.57206e-06 2.92231e-06 -3.32467e-05
0.00265964 -0.00040235 3.34205e-07
-0.00040235 -0.000251339 -3.15603e-07
3.34205e-07 -3.15603e-07 -2.40749e-05
0.00256342 -0.000300914 1.37134e-06
-0.000300914 -0.000129283 -6.24499e-07
1.37134e-06 -6.24499e-07 3.67323e-05
0.00267424 -0.000577142 -1.5194e-07
-0.000577142 -0.000121329 1.43961e-06
-1.5194e-07 1.43961e-06 -1.62232e-05
0.0025345 -0.000464797 3.01954e-07
-0.000464797 -8.43592e-05 1.56883e-07
3.01954e-07 1.56883e-07 -3.15436e-06
0.00236883 -0.00039063 5.92363e-07
-0.00039063 -2.33708e-05 -4.72415e-08
5.92363e-07 -4.72415e-08 -3.98749e-06
0.00252403 -0.000576921 -7.9178e-08
-0.000576921 5.20352e-06 6.13277e-07
-7.9178e-08 6.13277e-07 -9.44056e-06
0.0023919 -0.000514476 4.07894e-07
-0.000514476 3.68895e-05 -1.01535e-07
4.07894e-07 -1.01535e-07 -7.33575e-06
0.00232265 -0.000481734 -3.82258e-06
-0.000481734 8.25341e-05 1.73853e-07
-3.82258e-06 1.73853e-07 -4.11505e-06
0.00242781 -0.00063458 1.08754e-06
-0.00063458 0.000111215 1.35283e-07
1.08754e-06 1.35283e-07 4.40403e-06
0.00241235 -0.000598674 6.38751e-07
-0.000598674 0.000184834 -1.04093e-07
6.38751e-07 -1.04093e-07 2.83058e-05
0.0023724 -0.000548117 -2.06199e-06
-0.000548117 0.000255304 -1.82811e-06
-2.06199e-06 -1.82811e-06 4.56239e-05
0.00227742 -0.000680373 1.01128e-06
-0.000680373 0.000153812 3.28469e-07
1.01128e-06 3.28469e-07 -6.7275e-05
0.00231723 -0.000621515 -7.55874e-07
-0.000621515 0.000270049 2.00314e-07
-7.55874e-07 2.00314e-07 3.39644e-06
0.0015554 -0.000404649 -1.063e-05
-0.000404649 5.04702e-05 3.3206e-06
-1.063e-05 3.3206e-06 -0.000205348
0.00238612 -0.000682681 1.19936e-06
-0.000682681 0.000391276 3.0754e-06
1.19936e-06 3.0754e-06 7.79777e-05
0.00158711 -0.000463073 2.71626e-08
-0.000463073 8.67219e-05 2.60292e-07
2.71626e-08 2.60292e-07 -0.000208921
0.00310172 -0.000298169 -6.37515e-05
-0.000298169 0.00152173 1.62691e-05
-6.37515e-05 1.62691e-05 0.00136082
0.00317644 -0.000168653 -0.000348514
-0.000168653 0.00171889 5.64486e-05
-0.000348514 5.64486e-05 0.00170169
0.00179018 -0.000314269 -2.06629e-05
-0.000314269 0.000671165 6.38798e-07
-2.06629e-05 6.38798e-07 0.000480135
0.00159059 -0.000531795 1.86613e-05
-0.000531795 0.000123104 -4.3307e-06
1.86613e-05 -4.3307e-06 -0.000225583
0.00899246 -0.000202138 -8.62123e-06
-0.000202138 0.00553188 3.23976e-06
-8.62123e-06 3.23976e-06 0.00555503
6.44608e-05 -0.000334377 2.3658e-05
-0.000334377 -0.000429197 -2.45039e-05
2.3658e-05 -2.45039e-05 -0.000650067
0.00943884 -0.000160077 0.000417392
-0.000160077 0.00583113 -5.01153e-05
0.000417392 -5.01153e-05 0.00584922
0.00237973 0.000628158 4.09719e-06
0.000628158 0.000100114 2.22069e-06
4.09719e-06 2.22069e-06 -4.79272e-05
0.00239391 0.000818517 8.21334e-06
0.000818517 0.000261519 9.46384e-06
8.21334e-06 9.46384e-06 -4.07906e-05
0.00244671 0.000954869 7.87581e-07
0.000954869 0.000390168 -1.13422e-08
7.87581e-07 -1.13422e-08 -2.62341e-05
0.00239083 0.000847126 6.05941e-06
0.000847126 0.000499123 1.41849e-05
6.05941e-06 1.41849e-05 5.9352e-05
0.00227241 0.000960481 5.15654e-06
0.000960481 0.000449814 -1.59625e-05
5.15654e-06 -1.59625e-05 -4.38758e-05
0.00222626 0.000888772 8.66436e-07
0.000888772 0.000472366 2.35631e-07
8.66436e-07 2.35631e-07 -3.85307e-05
0.00130317 0.000572692 -3.82037e-05
0.000572692 0.000121268 -3.38268e-07
-3.82037e-05 -3.38268e-07 -0.000293007
0.00199523 0.00093312 3.89089e-06
0.00093312 0.000480259 -1.47437e-05
3.89089e-06 -1.47437e-05 -0.000113895
0.00104949 0.000505539 -5.16174e-06
0.000505539 4.49726e-05 2.82221e-07
-5.16174e-06 2.82221e-07 -0.000358253
-0.000135706 0.000329137 -3.11903e-05
0.000329137 -0.000492059 -2.74399e-05
-3.11903e-05 -2.74399e-05 -0.000705757
0.00163987 0.000383384 1.86358e-05
0.000383384 0.000590306 -3.91411e-06
1.86358e-05 -3.91411e-06 0.000251455
0.000265441 0.000268054 2.5732e-06
0.000268054 -0.000237422 -4.20195e-07
2.5732e-06 -4.20195e-07 -0.000416583
0.00939111 1.1919e-05 -0.000376647
1.1919e-05 0.00585278 -4.51161e-05
-0.000376647 -4.51161e-05 0.00585441
0.000660823 0.000252911 3.60115e-05
0.000252911 9.4579e-06 2.75934e-05
3.60115e-05 2.75934e-05 -0.000131003
0.00794689 -0.000130281 1.01632e-05
-0.000130281 0.00497053 -3.65433e-06
1.01632e-05 -3.65433e-06 0.00495345
0.00587005 -0.000225721 0.000136081
-0.000225721 0.00366868 2.23486e-05
0.000136081 2.23486e-05 0.00362484
0.00255921 0.00027084 -3.70863e-06
0.00027084 -0.000426034 1.07297e-06
-3.70863e-06 1.07297e-06 -9.5088e-05
0.00153658 0.000361947 -2.85749e-06
0.000361947 -0.00116475 -8.5963e-06
-2.85749e-06 -8.5963e-06 -0.000394795
0.00322604 0.00104671 -0.000185516
0.00104671 -0.0029084 -5.38582e-05
-0.000185516 -5.38582e-05 -0.000655738
0.00262566 0.000757897 9.12428e-07
0.000757897 0.000122658 7.08305e-07
9.12428e-07 7.08305e-07 -3.73828e-07
0.00274659 0.00106233 -5.01239e-06
0.00106233 0.000371244 -6.90239e-07
-5.01239e-06 -6.90239e-07 2.9319e-05
0.00258102 0.00117493 -2.35351e-07
0.00117493 0.000464789 -9.93724e-06
-2.35351e-07 -9.93724e-06 -4.1351e-05
0.00253487 0.000788051 1.5782e-06
0.000788051 0.000204963 1.12068e-06
1.5782e-06 1.12068e-06 -1.79703e-05
0.00267445 0.00102466 -1.93206e-06
0.00102466 0.000396967 -1.07179e-05
-1.93206e-06 -1.07179e-05 2.72206e-05
0.00286162 0.000594706 5.39276e-06
0.000594706 -5.101e-05 2.24346e-07
5.39276e-06 2.24346e-07 7.35314e-05
0.00288927 0.000966511 -1.6966e-06
0.000966511 0.000150639 1.09157e-06
-1.6966e-06 1.09157e-06 8.04861e-06
0.00303052 0.00121913 6.40041e-06
0.00121913 0.000525106 -4.36079e-06
6.40041e-06 -4.36079e-06 0.00011895
0.00231756 0.000552962 -2.20838e-07
0.000552962 -0.000359748 4.96394e-07
-2.20838e-07 4.96394e-07 -0.00013921
0.00254992 0.00113728 5.184e-06
0.00113728 4.36841e-05 -5.07567e-06
5.184e-06 -5.07567e-06 -0.000164264
-0.000741505 0.00054147 -4.10022e-05
0.00054147 -0.00218649 -6.52584e-06
-4.10022e-05 -6.52584e-06 -0.00143432
0.00265412 0.0001287 -1.22901e-06
0.0001287 -0.000206309 8.10162e-07
-1.22901e-06 8.10162e-07 2.84176e-05
0.00272034 0.000215559 1.1454e-06
0.000215559 -0.000327419 3.79277e-07
1.1454e-06 3.79277e-07 -2.59255e-05
0.00307036 3.73716e-05 -5.96982e-05
3.73716e-05 -0.000157186 5.14097e-06
-5.96982e-05 5.14097e-06 0.000202184
0.00257598 -0.00040747 -2.89189e-05
-0.00040747 -0.000592582 6.8266e-06
-2.89189e-05 6.8266e-06 -9.9351e-05
0.00317011 0.000172305 2.83941e-06
0.000172305 -9.59032e-05 -9.75647e-07
2.83941e-06 -9.75647e-07 0.000153041
0.00274264 -7.31448e-05 -1.16927e-06
-7.31448e-05 -0.000280954 -6.90586e-07
-1.16927e-06 -6.90586e-07 3.19837e-06
0.00242698 -8.4279e-05 1.29725e-06
-8.4279e-05 -0.000153184 -4.45153e-08
1.29725e-06 -4.45153e-08 -5.21351e-06
0.00257819 -0.00038332 7.78902e-07
-0.00038332 -0.000288272 -3.45721e-07
7.78902e-07 -3.45721e-07 -6.88045e-05
0.00252404 -0.00031065 -4.36221e-08
-0.00031065 -0.000149092 5.17639e-10
-4.36221e-08 5.17639e-10 6.89769e-06
0.00231865 -0.000257108 1.73051e-06
-0.000257108 -6.97826e-05 -7.30051e-07
1.73051e-06 -7.30051e-07 -1.41343e-05
0.00252033 -0.000463443 -1.56127e-06
-0.000463443 -8.99476e-05 8.55913e-07
-1.56127e-06 8.55913e-07 -1.30641e-05
0.00236378 -0.000389326 2.15565e-08
-0.000389326 -3.09606e-05 8.84471e-08
2.15565e-08 8.84471e-08 -1.14516e-05
0.00230652 -0.000364722 -4.35055e-06
-0.000364722 4.9793e-05 7.74372e-07
-4.35055e-06 7.74372e-07 1.19857e-05
0.00240498 -0.000515563 4.60338e-07
-0.000515563 4.111e-05 3.91717e-08
4.60338e-07 3.91717e-08 -3.52466e-06
0.00235543 -0.000485076 2.76879e-07
-0.000485076 0.000103248 -2.52434e-07
2.76879e-07 -2.52434e-07 1.50647e-05
0.00233467 -0.00045867 -2.26146e-06
-0.00045867 0.000189931 -4.35087e-07
-2.26146e-06 -4.35087e-07 3.46888e-05
0.00242365 -0.000599367 3.17976e-06
-0.000599367 0.000192792 -2.03032e-07
3.17976e-06 -2.03032e-07 3.54816e-05
0.00229419 -0.000542906 -9.81985e-07
-0.000542906 0.000200488 -2.31206e-07
-9.81985e-07 -2.31206e-07 -8.42768e-06
0.0014912 -0.000345444 -8.04565e-06
-0.000345444 -1.2201e-05 2.8126e-06
-8.04565e-06 2.8126e-06 -0.000234321
0.00235615 -0.000625054 2.46917e-06
-0.000625054 0.000296011 1.91827e-06
2.46917e-06 1.91827e-06 2.84432e-05
0.00156719 -0.000407362 -1.04947e-07
-0.000407362 4.83194e-05 6.58578e-08
-1.04947e-07 6.58578e-08 -0.000207078
0.00298683 -0.000268576 -6.92022e-05
-0.000268576 0.00145018 1.52029e-05
-6.92022e-05 1.52029e-05 0.00130752
0.00160687 -0.00046782 1.28348e-05
-0.00046782 8.83982e-05 -3.83687e-06
1.28348e-05 -3.83687e-06 -0.000207421
0.00320111 -0.000328217 6.01939e-05
-0.000328217 0.00159098 -1.07894e-05
6.01939e-05 -1.07894e-05 0.00144274
0.00286425 -0.000182108 -0.000326778
-0.000182108 0.00153056 5.77963e-05
-0.000326778 5.77963e-05 0.00150842
0.00574106 -0.000212271 -0.000317256
-0.000212271 0.00341768 4.2403e-05
-0.000317256 4.2403e-05 0.00341809
0.00339192 -0.000395488 0.000201094
-0.000395488 0.00172864 -3.72705e-05
0.000201094 -3.72705e-05 0.00157378
0.00882259 -0.000209235 0.000409864
-0.000209235 0.00542995 -5.30096e-05
0.000409864 -5.30096e-05 0.00544904
0.00245851 0.000601054 5.332e-07
0.000601054 9.78978e-05 -7.7993e-07
5.332e-07 -7.7993e-07 1.54969e-05
0.00229127 0.00065749 2.62422e-06
0.00065749 0.000165049 4.42494e-06
2.62422e-06 4.42494e-06 -4.71121e-05
0.00239157 0.000617639 7.2267e-07
0.000617639 0.000115891 9.40754e-08
7.2267e-07 9.40754e-08 -2.2097e-05
0.00228649 0.000725691 1.24669e-06
0.000725691 0.000319498 1.05515e-05
1.24669e-06 1.05515e-05 -2.32464e-05
0.00246613 0.000823385 -6.04355e-08
0.000823385 0.000299586 -4.85222e-07
-6.04355e-08 -4.85222e-07 -4.32407e-06
0.0027199 0.000976144 -3.43113e-06
0.000976144 0.00056654 -1.33871e-05
-3.43113e-06 -1.33871e-05 0.000157616
0.00224374 0.000835095 8.12407e-07
0.000835095 0.000393297 2.15993e-07
8.12407e-07 2.15993e-07 -4.39941e-05
0.00159529 0.000585765 -3.46959e-05
0.000585765 0.000161836 -1.76225e-06
-3.46959e-05 -1.76225e-06 -0.00022022
0.00194979 0.00085922 -1.34972e-06
0.00085922 0.000288003 -1.58013e-05
-1.34972e-06 -1.58013e-05 -0.000216036
0.00134966 0.00059849 -3.97777e-06
0.00059849 0.000126366 -1.3978e-08
-3.97777e-06 -1.3978e-08 -0.000298252
0.000160436 0.000343849 -2.86784e-05
0.000343849 -0.000344488 -2.34931e-05
-2.86784e-05 -2.34931e-05 -0.000568236
0.00156537 0.000521616 3.18872e-05
0.000521616 0.000351284 2.08288e-06
3.18872e-05 2.08288e-06 -4.177e-05
6.26817e-05 0.000296011 1.31391e-06
0.000296011 -0.00037686 2.30079e-06
1.31391e-06 2.30079e-06 -0.000579978
0.00953555 0.000114969 -0.000399962
0.000114969 0.00590872 -5.01432e-05
-0.000399962 -5.01432e-05 0.0059171
9.68152e-05 0.000224803 2.69083e-05
0.000224803 -0.000357383 3.00247e-05
2.69083e-05 3.00247e-05 -0.000528267
0.00878835 -3.54646e-05 1.27392e-05
-3.54646e-05 0.00546246 -1.6928e-06
1.27392e-05 -1.6928e-06 0.00546267
0.00758828 -0.000156235 0.00023367
-0.000156235 0.00473492 2.26906e-05
0.00023367 2.26906e-05 0.00471624
0.00267876 0.000352622 1.87032e-06
0.000352622 -0.000171118 -7.01101e-07
1.87032e-06 -7.01101e-07 2.09329e-05
0.00244905 0.000281888 2.69186e-06
0.000281888 -0.000414994 -1.87329e-06
2.69186e-06 -1.87329e-06 -8.75112e-05
0.000713592 0.000311622 -6.14311e-05
0.000311622 -0.0019942 -8.96297e-06
-6.14311e-05 -8.96297e-06 -0.00103491
0.00255056 0.000521146 3.89478e-06
0.000521146 -3.25921e-05 4.15061e-07
3.89478e-06 4.15061e-07 1.57161e-06
0.00256483 0.000750123 -1.48951e-06
0.000750123 9.49635e-05 7.236e-07
-1.48951e-06 7.236e-07 -2.18657e-05
0.00259201 0.00103454 7.70659e-06
0.00103454 0.000308239 -4.62144e-06
7.70659e-06 -4.62144e-06 -2.10318e-05
0.00255248 0.000773022 -5.48612e-06
0.000773022 0.000236689 -4.4719e-06
-5.48612e-06 -4.4719e-06 1.2877e-05
0.00278992 0.000582055 -2.21654e-06
0.000582055 -8.56552e-05 3.60248e-07
-2.21654e-06 3.60248e-07 3.36042e-05
0.00278063 0.000952447 1.46153e-07
0.000952447 0.00011235 -4.1048e-06
1.46153e-07 -4.1048e-06 -2.09311e-05
0.00220034 0.000544643 4.37931e-06
0.000544643 -0.000311737 -4.10946e-06
4.37931e-06 -4.10946e-06 -0.000100325
0.00248617 0.000101977 1.14386e-06
0.000101977 -0.000124244 5.39075e-07
1.14386e-06 5.39075e-07 1.38197e-05
0.00258567 0.000130536 5.03823e-07
0.000130536 -0.000237033 -4.95976e-07
5.03823e-07 -4.95976e-07 -7.82579e-06
0.0026479 0.000208571 -5.43901e-06
0.000208571 -0.000367785 2.34769e-06
-5.43901e-06 2.34769e-06 -6.99116e-05
0.00229103 -1.29081e-05 5.71715e-07
-1.29081e-05 -0.000128658 1.17774e-08
5.71715e-07 1.17774e-08 -3.05906e-05
0.00275066 -8.0842e-05 2.3402e-06
-8.0842e-05 -0.000282925 -1.01091e-06
2.3402e-06 -1.01091e-06 -2.67189e-06
0.00243524 -8.90264e-05 -4.16886e-07
-8.90264e-05 -0.000147588 4.34558e-07
-4.16886e-07 4.34558e-07 -6.87948e-07
0.00228423 -0.00013356 8.07314e-07
-0.00013356 -8.04466e-05 -3.75009e-07
8.07314e-07 -3.75009e-07 -1.52419e-05
0.00248503 -0.000320289 -1.12715e-06
-0.000320289 -0.000168367 7.31598e-07
-1.12715e-06 7.31598e-07 -2.26772e-05
0.00231843 -0.000253418 6.18171e-07
-0.000253418 -7.17116e-05 -3.93865e-07
6.18171e-07 -3.93865e-07 -1.50673e-05
0.00225115 -0.000248675 -3.41836e-06
-0.000248675 1.24965e-05 6.58446e-07
-3.41836e-06 6.58446e-07 -1.22817e-06
0.00236042 -0.00038768 -2.68448e-07
-0.00038768 -3.75276e-05 1.49662e-07
-2.68448e-07 1.49662e-07 -1.78196e-05
0.00230314 -0.000364464 1.8304e-07
-0.000364464 4.43573e-05 -1.51589e-07
1.8304e-07 -1.51589e-07 6.63713e-06
0.00227563 -0.000354731 -2.25614e-06
-0.000354731 0.000119814 3.94201e-07
-2.25614e-06 3.94201e-07 1.01007e-05
0.00239596 -0.000488648 4.12791e-06
-0.000488648 0.00012953 -6.79218e-07
4.12791e-06 -6.79218e-07 3.97694e-05
0.00228652 -0.000453029 -5.86694e-07
-0.000453029 0.000161799 -1.09774e-07
-5.86694e-07 -1.09774e-07 7.70178e-06
0.00149216 -0.000285421 -5.41887e-06
-0.000285421 -2.31643e-05 1.98853e-06
-5.41887e-06 1.98853e-06 -0.000215345
0.00221784 -0.000537668 1.98688e-06
-0.000537668 0.000147013 6.41833e-07
1.98688e-06 6.41833e-07 -6.11022e-05
0.00154466 -0.000348411 -2.42782e-07
-0.000348411 1.54957e-05 6.04743e-08
-2.42782e-07 6.04743e-08 -0.000205704
0.00284889 -0.000238434 -7.37141e-05
-0.000238434 0.00136752 1.40783e-05
-7.37141e-05 1.40783e-05 0.00123935
0.00157098 -0.000409756 8.68466e-06
-0.000409756 4.07245e-05 -3.21224e-06
8.68466e-06 -3.21224e-06 -0.000214167
0.00308043 -0.00028417 5.46606e-05
-0.00028417 0.00151155 -8.36416e-06
5.46606e-05 -8.36416e-06 0.00138212
0.00279091 -0.000152395 -0.00031539
-0.000152395 0.00147869 4.92532e-05
-0.00031539 4.92532e-05 0.00146001
0.00328684 -0.0003291 0.000187456
-0.0003291 0.00164232 -3.60651e-05
0.000187456 -3.60651e-05 0.00151095
0.00244243 -0.000116822 -0.000123524
-0.000116822 0.00125351 2.06992e-05
-0.000123524 2.06992e-05 0.00121286
0.0080848 -0.000141398 0.000151952
-0.000141398 0.00493669 -1.21414e-05
0.000151952 -1.21414e-05 0.00491414
0.00243778 0.00050142 8.49247e-08
0.00050142 6.77524e-05 9.63854e-08
8.49247e-08 9.63854e-08 2.37691e-05
0.00238923 0.000581035 -2.09887e-06
0.000581035 0.000143677 -4.83478e-07
-2.09887e-06 -4.83478e-07 9.69153e-06
0.00246547 0.000596723 -2.50122e-06
0.000596723 0.000104581 1.96151e-07
-2.50122e-06 1.96151e-07 1.70567e-05
0.002157 0.000607205 -1.92621e-06
0.000607205 0.000156787 4.11012e-06
-1.92621e-06 4.11012e-06 -0.000111038
0.0023768 0.000675777 -1.03037e-06
0.000675777 0.000196261 -1.79826e-06
-1.03037e-06 -1.79826e-06 -5.57163e-06
0.00239831 0.000605734 -7.39617e-06
0.000605734 0.000129399 -4.14928e-06
-7.39617e-06 -4.14928e-06 1.66098e-06
0.00164498 0.000505034 -2.47065e-05
0.000505034 8.84561e-05 -2.15872e-06
-2.47065e-05 -2.15872e-06 -0.000224191
0.00227698 0.000725436 1.52793e-06
0.000725436 0.000311211 4.89164e-07
1.52793e-06 4.89164e-07 -3.11151e-05
0.00255563 0.000830409 -2.75408e-06
0.000830409 0.0003491 -9.30161e-06
-2.75408e-06 -9.30161e-06 4.1733e-05
0.00213341 0.000825988 -4.57736e-06
0.000825988 0.000313688 -1.35698e-05
-4.57736e-06 -1.35698e-05 -0.000121649
0.00164757 0.00059189 -6.55138e-07
0.00059189 0.00019628 3.02317e-07
-6.55138e-07 3.02317e-07 -0.000188989
0.000414825 0.000329936 -2.61416e-05
0.000329936 -0.000214113 -2.02103e-05
-2.61416e-05 -2.02103e-05 -0.000428872
0.00176334 0.000648339 4.19008e-05
0.000648339 0.00037007 2.79696e-06
4.19008e-05 2.79696e-06 -6.67848e-05
0.000161378 0.000324881 7.56664e-07
0.000324881 -0.000332487 1.3043e-06
7.56664e-07 1.3043e-06 -0.000552397
0.00896727 0.000201246 -0.000396127
0.000201246 0.00553712 -5.62943e-05
-0.000396127 -5.62943e-05 0.0055433
0.000311627 0.000272874 2.80385e-05
0.000272874 -0.000220992 2.67688e-05
2.80385e-05 2.67688e-05 -0.000418377
0.00944409 7.50633e-05 9.19572e-06
7.50633e-05 0.00584441 1.53763e-06
9.19572e-06 1.53763e-06 0.00585775
0.00878407 -6.82871e-05 0.000313361
-6.82871e-05 0.00545558 2.56473e-05
0.000313361 2.56473e-05 0.00545851
0.00245721 0.000285824 1.18062e-06
0.000285824 -9.73431e-05 5.79625e-07
1.18062e-06 5.79625e-07 2.09897e-07
0.00265271 0.000360695 -5.6344e-07
0.000360695 -0.000215349 4.49527e-07
-5.6344e-07 4.49527e-07 -1.47172e-05
0.00237106 0.00026623 -2.91739e-06
0.00026623 -0.000422496 9.2355e-07
-2.91739e-06 9.2355e-07 -8.64841e-05
0.00253539 0.000515947 -6.62692e-07
0.000515947 -3.98782e-05 1.47196e-07
-6.62692e-07 1.47196e-07 -3.74177e-06
0.00251666 0.000745316 -1.97981e-06
0.000745316 7.47872e-05 -2.40913e-06
-1.97981e-06 -2.40913e-06 -3.64323e-05
0.00271181 0.000565896 -8.43843e-07
0.000565896 -0.000136825 -1.05411e-06
-8.43843e-07 -1.05411e-06 -1.86093e-05
0.00237223 9.55813e-05 1.381e-06
9.55813e-05 -7.38163e-05 3.537e-07
1.381e-06 3.537e-07 9.53398e-06
0.0024736 0.000101527 1.21384e-07
0.000101527 -0.000127198 -1.30367e-07
1.21384e-07 -1.30367e-07 9.59031e-06
0.00254856 0.000131886 2.28401e-07
0.000131886 -0.000246879 -3.91344e-08
2.28401e-07 -3.91344e-08 -2.43532e-05
0.002327 -8.8468e-06 -6.34625e-07
-8.8468e-06 -0.00010022 6.36562e-08
-6.34625e-07 6.36562e-08 -4.92896e-06
0.00227081 -3.11946e-05 -7.36822e-07
-3.11946e-05 -2.63139e-05 -1.08491e-07
-7.36822e-07 -1.08491e-07 2.41705e-05
0.00244401 -9.35138e-05 -1.51574e-06
-9.35138e-05 -0.000142118 2.12758e-07
-1.51574e-06 2.12758e-07 3.91711e-06
0.0022927 -0.00013573 -9.65687e-07
-0.00013573 -6.53656e-05 2.22543e-07
-9.65687e-07 2.22543e-07 -6.03275e-06
0.00214239 -0.000151668 -3.62475e-06
-0.000151668 -5.90067e-05 4.80018e-07
-3.62475e-06 4.80018e-07 -5.31185e-05
0.00231436 -0.000250057 -1.60855e-07
-0.000250057 -7.58465e-05 -7.14393e-08
-1.60855e-07 -7.14393e-08 -1.82668e-05
0.00223392 -0.000247005 1.04746e-06
-0.000247005 1.46299e-06 -2.46702e-07
1.04746e-06 -2.46702e-07 -1.18146e-05
0.00231447 -0.000258683 -1.70329e-06
-0.000258683 0.000118865 1.31286e-06
-1.70329e-06 1.31286e-06 4.41726e-05
0.00229662 -0.000365071 4.40857e-06
-0.000365071 3.7149e-05 -9.98233e-07
4.40857e-06 -9.98233e-07 -6.90607e-07
0.00227562 -0.000353189 -1.92991e-07
-0.000353189 0.000123354 -3.08652e-07
-1.92991e-07 -3.08652e-07 1.4401e-05
0.0015209 -0.000225967 -3.63131e-06
-0.000225967 -1.19089e-05 9.48106e-07
-3.63131e-06 9.48106e-07 -0.000177255
0.00222566 -0.000446999 2.27292e-06
-0.000446999 0.000124001 -6.84271e-08
2.27292e-06 -6.84271e-08 -2.89694e-05
0.00154537 -0.000288134 -3.20087e-07
-0.000288134 3.29417e-06 2.60334e-07
-3.20087e-07 2.60334e-07 -0.000188066
0.0027318 -0.000216773 -7.39479e-05
-0.000216773 0.00130129 1.1977e-05
-7.39479e-05 1.1977e-05 0.00118639
0.00160064 -0.000351767 6.60588e-06
-0.000351767 4.4576e-05 -2.65951e-06
6.60588e-06 -2.65951e-06 -0.000175715
0.00297083 -0.000236572 5.17246e-05
-0.000236572 0.00144165 -6.33474e-06
5.17246e-05 -6.33474e-06 0.00132833
0.00271549 -0.000124127 -0.000307931
-0.000124127 0.00142661 4.03218e-05
-0.000307931 4.03218e-05 0.00141118
0.00318355 -0.000273271 0.000180988
-0.000273271 0.00156928 -2.98869e-05
0.000180988 -2.98869e-05 0.00145722
0.00238396 -0.000109181 -0.00011267
-0.000109181 0.00121818 1.58776e-05
-0.00011267 1.58776e-05 0.00117972
0.002067 -0.000108551 8.68412e-05
-0.000108551 0.0010254 -1.52685e-05
8.68412e-05 -1.52685e-05 0.000958586
0.00232658 0.000314802 9.08195e-07
0.000314802 -3.62918e-05 4.37214e-07
9.08195e-07 4.37214e-07 -1.8265e-05
0.00234835 0.000458473 -3.61869e-06
0.000458473 9.66325e-05 -1.95968e-07
-3.61869e-06 -1.95968e-07 7.59739e-06
0.00242288 0.000502492 -6.43447e-07
0.000502492 3.68386e-05 -2.74088e-07
-6.43447e-07 -2.74088e-07 5.29048e-06
0.00231622 0.000550657 -3.76731e-07
0.000550657 0.000192329 1.4095e-06
-3.76731e-07 1.4095e-06 -8.52285e-06
0.00237052 0.000575818 -5.53367e-07
0.000575818 0.000139702 -2.28356e-07
-5.53367e-07 -2.28356e-07 -7.95457e-07
0.00247772 0.000593957 -6.97642e-07
0.000593957 0.000114616 7.29362e-08
-6.97642e-07 7.29362e-08 2.13321e-05
0.00157233 0.000419929 -1.62736e-05
0.000419929 3.33512e-05 -2.4763e-06
-1.62736e-05 -2.4763e-06 -0.00022515
0.00223086 0.000618871 1.50815e-07
0.000618871 0.000196971 -1.61617e-06
1.50815e-07 -1.61617e-06 -6.06143e-05
0.00246655 0.000695356 -4.31383e-06
0.000695356 0.000229144 -5.49586e-06
-4.31383e-06 -5.49586e-06 3.74458e-05
0.000404363 0.000261899 -2.20489e-05
0.000261899 -0.000240762 -1.63363e-05
-2.20489e-05 -1.63363e-05 -0.000427193
0.00161597 0.000495608 1.02814e-07
0.000495608 8.50067e-05 1.25806e-07
1.02814e-07 1.25806e-07 -0.000226183
0.00223368 0.000721647 -7.22684e-07
0.000721647 0.000280229 -1.07236e-05
-7.22684e-07 -1.07236e-05 -6.0729e-05
0.00161285 0.000592267 3.70102e-05
0.000592267 0.000170486 2.16966e-06
3.70102e-05 2.16966e-06 -0.000217398
0.000297371 0.000315728 1.94753e-07
0.000315728 -0.000287221 1.02954e-06
1.94753e-07 1.02954e-06 -0.000501442
0.00848675 0.00028732 -0.000392916
0.00028732 0.00522633 -6.00153e-05
-0.000392916 -6.00153e-05 0.00522851
0.0002184 0.000306719 2.66887e-05
0.000306719 -0.000290707 2.20734e-05
2.66887e-05 2.20734e-05 -0.000505478
0.00911411 0.000181846 1.00396e-05
0.000181846 0.00561852 2.39197e-06
1.00396e-05 2.39197e-06 0.00563373
0.00914798 4.0076e-05 0.000367017
4.0076e-05 0.00564656 3.32141e-05
0.000367017 3.32141e-05 0.00566084
0.00235936 0.000177196 1.11665e-06
0.000177196 -3.83829e-05 2.57894e-07
1.11665e-06 2.57894e-07 2.69366e-05
0.0024248 0.000290386 4.69243e-07
0.000290386 -0.000125772 2.89231e-07
4.69243e-07 2.89231e-07 -2.8685e-05
0.00262132 0.000372092 -6.58417e-07
0.000372092 -0.00025617 9.40345e-07
-6.58417e-07 9.40345e-07 -4.81716e-05
0.00252088 0.000509324 -2.62255e-07
0.000509324 -4.6849e-05 -4.48475e-07
-2.62255e-07 -4.48475e-07 -9.75829e-06
0.00222642 4.35613e-05 -1.19919e-06
4.35613e-05 -1.38242e-05 1.85353e-07
-1.19919e-06 1.85353e-07 1.11791e-05
0.00237213 8.46158e-05 1.09147e-07
8.46158e-05 -7.74355e-05 -8.90917e-08
1.09147e-07 -8.90917e-08 8.94661e-06
0.00246532 0.000100789 -4.08604e-07
0.000100789 -0.000126349 -4.86169e-07
-4.08604e-07 -4.86169e-07 8.79877e-06
0.00235577 -4.37035e-06 -3.17107e-06
-4.37035e-06 -7.68066e-05 -9.94541e-08
-3.17107e-06 -9.94541e-08 1.55787e-05
0.00228188 -2.50363e-05 -6.23934e-07
-2.50363e-05 -2.49756e-05 -1.27666e-07
-6.23934e-07 -1.27666e-07 2.91001e-05
0.00219882 -5.77016e-05 -4.49104e-06
-5.77016e-05 7.12112e-06 1.13189e-07
-4.49104e-06 1.13189e-07 1.09191e-05
0.00230251 -0.000137787 -5.31415e-07
-0.000137787 -4.93676e-05 6.24943e-07
-5.31415e-07 6.24943e-07 3.844e-06
0.0022015 -0.000152765 -1.62086e-06
-0.000152765 -8.34045e-06 3.34056e-07
-1.62086e-06 3.34056e-07 -9.97028e-06
0.00223834 -0.000168873 -1.78629e-06
-0.000168873 4.4942e-05 6.7196e-07
-1.78629e-06 6.7196e-07 -4.33181e-06
0.00221638 -0.00024442 5.46169e-06
-0.00024442 -1.12539e-05 -1.12137e-06
5.46169e-06 -1.12137e-06 -2.38541e-05
0.00230241 -0.000255989 7.44784e-07
-0.000255989 0.000114315 -1.34402e-07
7.44784e-07 -1.34402e-07 3.98244e-05
0.00151474 -0.000167832 -3.63e-06
-0.000167832 -2.08496e-05 6.8516e-07
-3.63e-06 6.8516e-07 -0.000164878
0.00228564 -0.000350423 2.44017e-06
-0.000350423 0.000134236 -1.1695e-06
2.44017e-06 -1.1695e-06 2.64071e-05
0.001526 -0.000226043 -1.1357e-07
-0.000226043 -1.68986e-05 8.892e-08
-1.1357e-07 8.892e-08 -0.000181558
0.000299599 -0.000116173 -1.62494e-05
-0.000116173 -0.000304732 7.01012e-06
-1.62494e-05 7.01012e-06 -0.000424241
0.00160346 -0.000290754 4.56433e-06
-0.000290754 3.42741e-05 -1.61623e-06
4.56433e-06 -1.61623e-06 -0.000156152
0.00162098 -0.000158074 7.6379e-05
-0.000158074 0.000556912 -6.61148e-06
7.6379e-05 -6.61148e-06 0.000448661
0.00733297 -0.000197919 -0.000403042
-0.000197919 0.00448155 3.43315e-05
-0.000403042 3.43315e-05 0.0045126
0.0030999 -0.000218859 0.000175427
-0.000218859 0.00151481 -2.32924e-05
0.000175427 -2.32924e-05 0.00141855
0.00232509 -9.87508e-05 -0.000102574
-9.87508e-05 0.00118466 1.03142e-05
-0.000102574 1.03142e-05 0.00114733
0.0019687 -0.000119585 9.71265e-05
-0.000119585 0.000972451 -1.64385e-05
9.71265e-05 -1.64385e-05 0.0009056
0.00225804 0.000210591 1.79836e-07
0.000210591 -2.05549e-05 -2.53112e-07
1.79836e-07 -2.53112e-07 -4.20059e-06
0.00227987 0.000346296 -2.81841e-06
0.000346296 3.13055e-05 1.76144e-07
-2.81841e-06 1.76144e-07 -1.33558e-05
0.00235146 0.000306946 -4.72376e-07
0.000306946 -3.69797e-06 -1.01855e-07
-4.72376e-07 -1.01855e-07 7.12666e-06
0.00230721 0.000440557 -1.05323e-07
0.000440557 0.000163235 1.42007e-06
-1.05323e-07 1.42007e-06 2.12994e-05
0.00231803 0.000457905 3.57226e-07
0.000457905 7.8595e-05 -1.32389e-08
3.57226e-07 -1.32389e-08 -9.26778e-06
0.00240342 0.00050317 -6.86956e-07
0.00050317 2.80894e-06 -3.59259e-07
-6.86956e-07 -3.59259e-07 -1.62856e-05
0.00168227 0.000369205 -7.94918e-06
0.000369205 0.000104441 -1.65986e-07
-7.94918e-06 -1.65986e-07 -0.000107881
0.002272 0.000543019 -1.08662e-06
0.000543019 0.000165001 -7.08316e-07
-1.08662e-06 -7.08316e-07 -3.68671e-05
0.00234531 0.000569076 1.46607e-06
0.000569076 0.000132416 -8.35077e-07
1.46607e-06 -8.35077e-07 -1.44503e-05
0.00037472 0.000193287 -1.84985e-05
0.000193287 -0.000266016 -1.21665e-05
-1.84985e-05 -1.21665e-05 -0.00042554
0.00157668 0.000417325 5.64843e-07
0.000417325 4.44043e-05 2.70151e-07
5.64843e-07 2.70151e-07 -0.000207471
0.00229899 0.000628569 -5.05029e-08
0.000628569 0.000235887 -8.97547e-06
-5.05029e-08 -8.97547e-06 -1.10894e-05
0.00809176 0.000335567 -0.000394426
0.000335567 0.00497375 -5.80973e-05
-0.000394426 -5.80973e-05 0.00497596
0.000354333 0.000260585 4.2938e-07
0.000260585 -0.000278855 7.26599e-07
4.2938e-07 7.26599e-07 -0.000467778
0.00159154 0.000487064 2.72755e-05
0.000487064 8.50701e-05 2.23448e-06
2.72755e-05 2.23448e-06 -0.000224902
0.000238203 0.00030417 2.36549e-05
0.00030417 -0.000321988 2.07242e-05
2.36549e-05 2.07242e-05 -0.000536242
0.00861415 0.000286102 9.22654e-06
0.000286102 0.00530556 3.2831e-06
9.22654e-06 3.2831e-06 0.00531364
0.00922581 0.000157305 0.000418565
0.000157305 0.0056735 4.17487e-05
0.000418565 4.17487e-05 0.00569748
0.00217299 0.000111805 -2.12407e-06
0.000111805 -3.47687e-05 1.57724e-07
-2.12407e-06 1.57724e-07 -2.19557e-05
0.00235688 0.000171482 -1.19593e-07
0.000171482 -4.13699e-05 3.18365e-08
-1.19593e-07 3.18365e-08 2.09884e-05
0.00239172 0.000294674 -5.78504e-07
0.000294674 -0.000153963 -1.56815e-08
-5.78504e-07 -1.56815e-08 -5.73112e-05
0.00223394 2.33774e-05 -6.39992e-06
2.33774e-05 5.85344e-05 -1.87539e-07
-6.39992e-06 -1.87539e-07 4.97263e-05
0.00220369 5.10244e-05 8.3568e-07
5.10244e-05 -3.37435e-05 3.48989e-08
8.3568e-07 3.48989e-08 -4.17275e-06
0.00237226 7.28505e-05 -1.66502e-06
7.28505e-05 -8.14333e-05 -2.20283e-07
-1.66502e-06 -2.20283e-07 8.31358e-06
0.00229858 -1.91087e-05 -1.48948e-07
-1.91087e-05 -1.9993e-05 1.38006e-07
-1.48948e-07 1.38006e-07 3.80009e-05
0.00220316 -5.66312e-05 -3.50674e-07
-5.66312e-05 9.37806e-06 2.75701e-08
-3.50674e-07 2.75701e-08 1.42685e-05
0.00206633 -7.73049e-05 -1.66079e-06
-7.73049e-05 -5.77805e-05 -8.33511e-09
-1.66079e-06 -8.33511e-09 -0.000116766
0.00225964 -0.000154103 4.12633e-06
-0.000154103 4.24222e-05 -3.57849e-07
4.12633e-06 -3.57849e-07 3.3331e-05
0.00222969 -0.00017153 7.36581e-07
-0.00017153 5.09683e-05 -2.14394e-08
7.36581e-07 -2.14394e-08 -9.25461e-06
0.00158804 -0.000106953 -4.17801e-06
-0.000106953 2.69624e-05 3.04856e-07
-4.17801e-06 3.04856e-07 -8.87695e-05
0.0022899 -0.000254777 2.72769e-06
-0.000254777 0.000110442 -1.55818e-06
2.72769e-06 -1.55818e-06 3.58198e-05
0.00149989 -0.000164189 9.08354e-08
-0.000164189 -4.10006e-05 -2.76168e-08
9.08354e-08 -2.76168e-08 -0.000184044
0.000271785 -4.45253e-05 -1.48259e-05
-4.45253e-05 -0.000316631 3.95237e-06
-1.48259e-05 3.95237e-06 -0.000422784
0.00153407 -0.000224863 3.11886e-06
-0.000224863 -2.29663e-05 -1.05442e-06
3.11886e-06 -1.05442e-06 -0.000186656
0.000318673 -0.000101116 -3.97967e-07
-0.000101116 -0.000288119 5.0698e-07
-3.97967e-07 5.0698e-07 -0.000406525
0.00720117 -8.98629e-05 -0.000390102
-8.98629e-05 0.0043875 2.22209e-05
-0.000390102 2.22209e-05 0.00442568
0.000442839 -0.000116718 1.25938e-05
-0.000116718 -0.000217708 -9.14151e-06
1.25938e-05 -9.14151e-06 -0.0003478
0.00469976 -0.000130844 0.000165139
-0.000130844 0.00275683 -1.03677e-05
0.000165139 -1.03677e-05 0.00274194
0.00191248 -0.00010497 0.000101173
-0.00010497 0.000939728 -1.51061e-05
0.000101173 -1.51061e-05 0.000875863
0.002286 0.000177356 -4.56373e-06
0.000177356 7.28158e-05 -3.41659e-07
-4.56373e-06 -3.41659e-07 7.7442e-05
0.00223502 0.0002463 -5.62626e-06
0.0002463 4.08272e-05 -1.51814e-07
-5.62626e-06 -1.51814e-07 3.75449e-06
0.00224868 0.000201882 -7.31221e-07
0.000201882 -2.01576e-05 -3.15454e-07
-7.31221e-07 -3.15454e-07 -3.26728e-06
0.0023685 0.000354381 -7.19674e-07
0.000354381 0.000201302 1.02336e-06
-7.19674e-07 1.02336e-06 8.66681e-05
0.00230658 0.000343205 -1.55805e-07
0.000343205 5.20929e-05 -1.34958e-07
-1.55805e-07 -1.34958e-07 6.33594e-06
0.00237625 0.000299476 2.29786e-07
0.000299476 2.94133e-05 -3.71525e-07
2.29786e-07 -3.71525e-07 3.29165e-05
0.00157328 0.000294528 -3.41011e-06
0.000294528 2.49848e-05 -2.45409e-08
-3.41011e-06 -2.45409e-08 -0.000155175
0.00223446 0.000436189 1.46037e-06
0.000436189 0.000121771 2.80303e-07
1.46037e-06 2.80303e-07 -3.05374e-05
0.00228689 0.000457448 3.30903e-06
0.000457448 6.01105e-05 -1.22537e-07
3.30903e-06 -1.22537e-07 -2.6347e-05
0.000339799 0.000143015 -1.60784e-05
0.000143015 -0.000285166 -8.86553e-06
-1.60784e-05 -8.86553e-06 -0.000426161
0.00163182 0.000360754 2.16337e-06
0.000360754 7.82303e-05 1.22464e-06
2.16337e-06 1.22464e-06 -0.000131317
0.00223798 0.00053652 -1.27416e-06
0.00053652 0.000144352 -2.79021e-06
-1.27416e-06 -2.79021e-06 -5.83013e-05
0.00774771 0.000354885 -0.000402653
0.000354885 0.00476528 -5.40218e-05
-0.000402653 -5.40218e-05 0.00476778
0.000352709 0.000197741 5.13998e-07
0.000197741 -0.000285443 5.25013e-07
5.13998e-07 5.25013e-07 -0.000448009
0.0015984 0.000417751 1.69856e-05
0.000417751 6.50122e-05 1.43829e-06
1.69856e-05 1.43829e-06 -0.000181049
0.00820582 0.000358474 1.14274e-05
0.000358474 0.00505834 5.66149e-06
1.14274e-05 5.66149e-06 0.00505722
0.000303841 0.000258444 1.98699e-05
0.000258444 -0.000317967 1.69252e-05
1.98699e-05 1.69252e-05 -0.000509371
0.00866857 0.000263309 0.000417829
0.000263309 0.00532433 5.08362e-05
0.000417829 5.08362e-05 0.00534265
0.00216843 9.01372e-05 -6.30954e-06
9.01372e-05 1.14737e-05 -1.00822e-07
-6.30954e-06 -1.00822e-07 -5.63277e-06
0.00220269 0.000120147 -7.56525e-07
0.000120147 -6.46037e-06 -2.73222e-07
-7.56525e-07 -2.73222e-07 6.72974e-06
0.00235791 0.000166164 -8.30503e-07
0.000166164 -4.10154e-05 -1.57456e-07
-8.30503e-07 -1.57456e-07 1.79903e-05
0.00206647 1.50733e-06 -4.06582e-07
1.50733e-06 -5.22627e-05 -2.69134e-07
-4.06582e-07 -2.69134e-07 -0.000111253
0.00221247 2.58819e-05 -3.82208e-07
2.58819e-05 3.90526e-05 5.51262e-08
-3.82208e-07 5.51262e-08 3.39111e-05
0.00217893 5.91354e-05 9.92112e-07
5.91354e-05 -5.49969e-05 7.46092e-08
9.92112e-07 7.46092e-08 -2.0893e-05
0.00220757 -5.57125e-05 3.54778e-06
-5.57125e-05 1.20277e-05 6.96311e-08
3.54778e-06 6.96311e-08 1.77627e-05
0.00210933 -7.62229e-05 -1.64901e-06
-7.62229e-05 -2.23592e-05 2.1289e-07
-1.64901e-06 2.1289e-07 -7.95555e-05
0.00146681 -4.34402e-05 -2.71411e-06
-4.34402e-05 -3.62816e-05 2.72117e-09
-2.71411e-06 2.72117e-09 -0.000145443
0.00223474 -0.000174409 6.86425e-07
-0.000174409 6.6718e-05 -9.39307e-07
6.86425e-07 -9.39307e-07 -4.05516e-06
0.00154261 -0.000108669 3.31001e-06
-0.000108669 -8.76691e-06 -3.47981e-07
3.31001e-06 -3.47981e-07 -0.000131134
0.000235885 -1.99822e-05 -1.48867e-05
-1.99822e-05 -0.000328175 2.48684e-06
-1.48867e-05 2.48684e-06 -0.0004275
0.00148039 -0.000162285 3.65239e-06
-0.000162285 -6.1923e-05 -9.64697e-07
3.65239e-06 -9.64697e-07 -0.000204303
0.00026768 -5.37385e-05 4.47432e-07
-5.37385e-05 -0.000314595 -3.7114e-07
4.47432e-07 -3.7114e-07 -0.000419851
0.00695963 -0.000178041 -0.000387548
-0.000178041 0.00425152 2.38886e-05
-0.000387548 2.38886e-05 0.00428184
0.000321691 -8.55989e-05 1.45922e-05
-8.55989e-05 -0.000282565 -5.48234e-06
1.45922e-05 -5.48234e-06 -0.000399063
0.00711248 -0.000124441 6.68693e-06
-0.000124441 0.00433555 2.84214e-07
6.68693e-06 2.84214e-07 0.00437195
0.00215025 -5.49955e-05 0.000295153
-5.49955e-05 0.00106272 -2.34022e-05
0.000295153 -2.34022e-05 0.00105626
0.00221988 0.000172057 -7.91291e-06
0.000172057 5.7642e-05 -6.26135e-07
-7.91291e-06 -6.26135e-07 2.71925e-05
0.00218753 0.000178044 -6.90804e-07
0.000178044 -6.5256e-06 2.76853e-08
-6.90804e-07 2.76853e-08 6.12401e-06
0.00237855 0.00026274 7.24254e-07
0.00026274 0.000190457 7.19301e-07
7.24254e-07 7.19301e-07 0.000102668
0.0022611 0.000246673 6.45505e-07
0.000246673 5.56227e-05 -8.81888e-09
6.45505e-07 -8.81888e-09 1.8539e-05
0.0022407 0.000193 4.54262e-07
0.000193 -1.94454e-05 -3.13862e-07
4.54262e-07 -3.13862e-07 -1.62882e-06
0.00145909 0.000220408 -9.03919e-07
0.000220408 -4.52072e-05 -4.33697e-07
-9.03919e-07 -4.33697e-07 -0.00021392
0.00229834 0.000352416 4.28003e-07
0.000352416 0.000144882 7.2262e-08
4.28003e-07 7.2262e-08 2.97534e-05
0.00233466 0.000340023 4.10359e-06
0.000340023 7.28224e-05 2.36353e-07
4.10359e-06 2.36353e-07 2.60753e-05
0.000328496 0.000106513 -1.49604e-05
0.000106513 -0.000282136 -6.56889e-06
-1.49604e-05 -6.56889e-06 -0.000409929
0.00152992 0.000289252 3.16535e-06
0.000289252 6.09772e-06 1.08031e-06
3.16535e-06 1.08031e-06 -0.000179832
0.00218523 0.00043332 1.82289e-07
0.00043332 9.69777e-05 -1.03516e-06
1.82289e-07 -1.03516e-06 -6.6182e-05
0.00745951 0.000334592 -0.000411117
0.000334592 0.00459164 -4.8038e-05
-0.000411117 -4.8038e-05 0.00459765
0.000351004 0.000150309 5.4682e-07
0.000150309 -0.000280914 2.73823e-07
5.4682e-07 2.73823e-07 -0.000424771
0.00157276 0.000351541 9.40387e-06
0.000351541 4.53292e-05 2.3049e-06
9.40387e-06 2.3049e-06 -0.000161136
0.0078781 0.000383916 8.35221e-06
0.000383916 0.0048615 5.9005e-06
8.35221e-06 5.9005e-06 0.00485854
0.000341074 0.000201315 1.69665e-05
0.000201315 -0.000298124 1.29676e-05
1.69665e-05 1.29676e-05 -0.00046364
0.00835066 0.000375101 0.00042799
0.000375101 0.00514909 6.16681e-05
0.00042799 6.16681e-05 0.00515175
0.00205272 8.74456e-05 1.11905e-06
8.74456e-05 -5.18702e-05 -3.89685e-07
1.11905e-06 -3.89685e-07 -0.000119117
0.00221835 9.09429e-05 -2.22517e-06
9.09429e-05 5.20284e-05 -5.63641e-08
-2.22517e-06 -5.63641e-08 3.38454e-05
0.00223177 0.0001283 3.11817e-06
0.0001283 2.15759e-05 -8.06254e-08
3.11817e-06 -8.06254e-08 3.50284e-05
0.0014491 -3.49484e-06 -1.63007e-06
-3.49484e-06 -2.91065e-05 9.97924e-09
-1.63007e-06 9.97924e-09 -0.000138381
0.00209537 3.7236e-06 -1.61363e-06
3.7236e-06 -2.51854e-05 4.98559e-08
-1.61363e-06 4.98559e-08 -8.38147e-05
0.00219465 2.79153e-05 4.06621e-06
2.79153e-05 2.23253e-05 2.50423e-07
4.06621e-06 2.50423e-07 2.08685e-05
0.00214957 -7.53462e-05 -2.14181e-06
-7.53462e-05 1.1191e-05 3.82349e-07
-2.14181e-06 3.82349e-07 -4.44311e-05
0.00153845 -4.67948e-05 2.6231e-06
-4.67948e-05 5.86896e-06 -1.32114e-07
2.6231e-06 -1.32114e-07 -0.000102338
0.000249279 -3.39784e-05 -1.55477e-05
-3.39784e-05 -0.00031197 1.61531e-06
-1.55477e-05 1.61531e-06 -0.000406699
0.00148589 -0.000109357 7.03477e-06
-0.000109357 -5.36498e-05 -1.22131e-06
7.03477e-06 -1.22131e-06 -0.000182821
0.000251308 -9.04782e-06 -4.33605e-08
-9.04782e-06 -0.000317799 3.84168e-08
-4.33605e-08 3.84168e-08 -0.000415416
0.00684783 -0.000143482 -0.000386565
-0.000143482 0.00417713 1.82773e-05
-0.000386565 1.82773e-05 0.00421183
0.000300846 -5.98082e-05 1.53974e-05
-5.98082e-05 -0.000286819 -3.90402e-06
1.53974e-05 -3.90402e-06 -0.000392319
0.0069477 -7.75718e-05 -2.71619e-06
-7.75718e-05 0.00422892 3.78259e-06
-2.71619e-06 3.78259e-06 0.00426853
0.00707104 -0.000137681 0.000386581
-0.000137681 0.00431172 -2.18483e-05
0.000386581 -2.18483e-05 0.00434765
0.00229291 0.000171506 1.55326e-06
0.000171506 0.000127862 -1.65599e-07
1.55326e-06 -1.65599e-07 5.74524e-05
0.00218606 0.00017312 -9.49179e-07
0.00017312 2.26278e-05 -3.32117e-08
-9.49179e-07 -3.32117e-08 -3.22914e-06
0.00208904 0.000178935 3.08436e-06
0.000178935 -8.64186e-05 2.97309e-07
3.08436e-06 2.97309e-07 -6.5849e-05
0.00142629 0.000151005 -5.7749e-10
0.000151005 -6.14745e-05 -9.41572e-08
-5.7749e-10 -9.41572e-08 -0.000210704
0.00229947 0.000259516 3.48238e-07
0.000259516 0.000129153 -1.17697e-07
3.48238e-07 -1.17697e-07 4.10799e-05
0.00228959 0.000247246 5.19679e-06
0.000247246 7.26112e-05 -1.09376e-07
5.19679e-06 -1.09376e-07 3.53062e-05
0.000311815 7.40214e-05 -1.41618e-05
7.40214e-05 -0.000281109 -4.84099e-06
-1.41618e-05 -4.84099e-06 -0.000397768
0.00148804 0.000221745 8.92275e-08
0.000221745 -1.36217e-05 2.20751e-07
8.92275e-08 2.20751e-07 -0.000183342
0.00222828 0.000350276 7.80462e-07
0.000350276 8.90103e-05 -1.03877e-06
7.80462e-07 -1.03877e-06 -2.66125e-05
0.00721021 0.000270744 -0.000414008
0.000270744 0.00442708 -3.85201e-05
-0.000414008 -3.85201e-05 0.00444533
0.000337363 0.000115313 6.0385e-07
0.000115313 -0.000278352 2.09507e-07
6.0385e-07 2.09507e-07 -0.000408976
0.0014654 0.00028226 4.82409e-06
0.00028226 -2.76314e-05 1.90393e-06
4.82409e-06 1.90393e-06 -0.000218955
0.00757727 0.000355068 4.84094e-06
0.000355068 0.00467221 3.73013e-06
4.84094e-06 3.73013e-06 0.00467595
0.000358855 0.00015882 1.55392e-05
0.00015882 -0.000277482 9.78993e-06
1.55392e-05 9.78993e-06 -0.000424802
0.00801002 0.000425642 0.000431327
0.000425642 0.00496119 6.58802e-05
0.000431327 6.58802e-05 0.00495147
0.0013533 4.8958e-05 -2.52828e-06
4.8958e-05 -8.4389e-05 3.02901e-08
-2.52828e-06 3.02901e-08 -0.000212356
0.00213704 8.47192e-05 -2.68184e-06
8.47192e-05 6.92036e-06 -2.63761e-07
-2.68184e-06 -2.63761e-07 -5.17872e-05
0.00226568 9.2121e-05 4.8987e-06
9.2121e-05 8.99015e-05 3.51578e-07
4.8987e-06 3.51578e-07 7.10384e-05
0.000290198 3.28819e-05 -1.62852e-05
3.28819e-05 -0.000287168 -5.36817e-07
-1.62852e-05 -5.36817e-07 -0.000374113
0.00150918 -1.51018e-07 2.77034e-06
-1.51018e-07 5.51383e-06 1.91569e-08
2.77034e-06 1.91569e-08 -0.000102928
0.00212212 7.58737e-06 -3.12176e-06
7.58737e-06 -1.10587e-07 2.94548e-07
-3.12176e-06 2.94548e-07 -5.83264e-05
0.00160404 -4.96892e-05 8.85797e-06
-4.96892e-05 4.42808e-05 -7.61211e-07
8.85797e-06 -7.61211e-07 -6.28331e-05
0.000256373 -8.35583e-06 1.33771e-07
-8.35583e-06 -0.000306064 4.01779e-07
1.33771e-07 4.01779e-07 -0.00040053
0.00674261 -3.59421e-06 -0.000387877
-3.59421e-06 0.00409836 4.47471e-06
-0.000387877 4.47471e-06 0.00414238
0.000252223 2.47296e-06 1.52215e-05
2.47296e-06 -0.000317178 -1.58973e-06
1.52215e-05 -1.58973e-06 -0.000412968
0.00679686 -0.000140421 -7.07942e-06
-0.000140421 0.00414625 2.37886e-06
-7.07942e-06 2.37886e-06 0.00418032
0.00687488 -6.09935e-05 0.000372276
-6.09935e-05 0.00418162 -1.29838e-05
0.000372276 -1.29838e-05 0.00422152
0.00141045 9.52338e-05 -1.51896e-06
9.52338e-05 -5.34753e-05 -2.89757e-07
-1.51896e-06 -2.89757e-07 -0.000189317
0.00223272 0.000166079 -2.25657e-07
0.000166079 7.90849e-05 -3.14104e-07
-2.25657e-07 -3.14104e-07 1.19108e-05
0.00214953 0.000173793 3.28488e-06
0.000173793 -1.35348e-05 -2.30348e-07
3.28488e-06 -2.30348e-07 -3.49824e-05
0.00277315 8.70015e-05 -0.000169982
8.70015e-05 0.00134217 -7.54326e-06
-0.000169982 -7.54326e-06 0.00128275
0.00145208 0.000152523 -1.30725e-08
0.000152523 -3.26936e-05 1.09299e-07
-1.30725e-08 1.09299e-07 -0.000182727
0.00221381 0.000255737 2.05119e-07
0.000255737 6.39808e-05 -9.72295e-07
2.05119e-07 -9.72295e-07 -2.42814e-05
0.00703284 0.00020051 -0.000410758
0.00020051 0.00430403 -2.80991e-05
-0.000410758 -2.80991e-05 0.00433411
0.000322133 9.38129e-05 8.11037e-07
9.38129e-05 -0.000274471 4.84555e-07
8.11037e-07 4.84555e-07 -0.000394214
0.00151765 0.000222662 1.38095e-06
0.000222662 1.84551e-05 6.79037e-07
1.38095e-06 6.79037e-07 -0.000152257
0.00732496 0.000288341 2.09338e-06
0.000288341 0.00450231 1.96238e-06
2.09338e-06 1.96238e-06 0.00451876
0.000356035 0.000126329 1.5319e-05
0.000126329 -0.000267208 7.71686e-06
1.5319e-05 7.71686e-06 -0.000401264
0.00769794 0.00039092 0.000430773
0.00039092 0.00476343 6.04778e-05
0.000430773 6.04778e-05 0.00476108
0.000386042 1.90896e-05 -1.22899e-05
1.90896e-05 -0.000211571 -1.67596e-06
-1.22899e-05 -1.67596e-06 -0.000308501
0.00143245 4.91052e-05 -8.72742e-07
4.91052e-05 -3.30977e-05 -2.79993e-08
-8.72742e-07 -2.79993e-08 -0.00015406
0.00220245 8.06075e-05 -2.52796e-06
8.06075e-05 5.19068e-05 2.78368e-07
-2.52796e-06 2.78368e-07 1.30945e-06
0.00661923 -0.000103597 -0.000372136
-0.000103597 0.00403594 6.7069e-06
-0.000372136 6.7069e-06 0.00406938
0.000250457 1.32533e-05 -7.34947e-07
1.32533e-05 -0.000308317 -2.5228e-07
-7.34947e-07 -2.5228e-07 -0.000397872
0.00157703 1.77557e-06 8.00123e-06
1.77557e-06 4.52226e-05 -2.99657e-07
8.00123e-06 -2.99657e-07 -6.23677e-05
0.000243422 1.66505e-05 1.55002e-05
1.66505e-05 -0.000315131 -2.13964e-07
1.55002e-05 -2.13964e-07 -0.000408203
0.00668877 -3.64162e-05 1.65972e-06
-3.64162e-05 0.00407062 -2.09164e-06
1.65972e-06 -2.09164e-06 0.00410912
0.00676919 -6.87464e-05 0.000375827
-6.87464e-05 0.00411469 -9.76861e-06
0.000375827 -9.76861e-06 0.00415537
0.00287316 3.38901e-05 -0.000164738
3.38901e-05 0.0014111 -3.99654e-06
-0.000164738 -3.99654e-06 0.00135873
0.00141455 9.8e-05 -1.59073e-07
9.8e-05 -4.68825e-05 -5.03717e-08
-1.59073e-07 -5.03717e-08 -0.000183455
0.00217555 0.000160979 -4.10746e-07
0.000160979 3.17588e-05 -5.65993e-07
-4.10746e-07 -5.65993e-07 -3.20717e-05
0.00658778 3.17538e-06 -0.000181289
3.17538e-06 0.00402501 -1.72512e-06
-0.000181289 -1.72512e-06 0.00401647
0.000292837 7.49877e-05 6.19076e-07
7.49877e-05 -0.000283885 2.31737e-07
6.19076e-07 2.31737e-07 -0.000392483
0.00148258 0.000155144 6.62843e-07
0.000155144 -2.88865e-06 1.43415e-07
6.62843e-07 1.43415e-07 -0.000153831
0.00709911 0.000178385 -7.79143e-06
0.000178385 0.00433981 -1.72195e-06
-7.79143e-06 -1.72195e-06 0.0043712
0.000329799 0.000115218 1.62024e-05
0.000115218 -0.000270727 6.57835e-06
1.62024e-05 6.57835e-06 -0.00039281
0.00740782 0.000309846 0.00042644
0.000309846 0.00456013 4.8875e-05
0.00042644 4.8875e-05 0.0045751
0.00206339 -4.8677e-05 -0.000286694
-4.8677e-05 0.00100883 1.85945e-06
-0.000286694 1.85945e-06 0.00101642
0.00151604 4.08668e-05 -7.34449e-05
4.08668e-05 0.000522019 -3.44251e-07
-7.34449e-05 -3.44251e-07 0.000453017
0.00152441 5.19331e-05 4.61817e-06
5.19331e-05 2.82088e-05 1.18859e-07
4.61817e-06 1.18859e-07 -8.56162e-05
0.0066781 -4.97893e-05 6.5426e-06
-4.97893e-05 0.00406758 3.68287e-06
6.5426e-06 3.68287e-06 0.00410715
0.000257731 -4.5208e-06 1.60687e-05
-4.5208e-06 -0.000296316 3.94545e-07
1.60687e-05 3.94545e-07 -0.000389595
0.00670669 -9.50557e-05 0.000388618
-9.50557e-05 0.00408784 -8.01089e-06
0.000388618 -8.01089e-06 0.00412586
0.00163642 3.22906e-05 -8.45998e-05
3.22906e-05 0.000764951 -2.19246e-06
-8.45998e-05 -2.19246e-06 0.000718352
0.00151851 3.50116e-05 -7.42411e-05
3.50116e-05 0.000522084 -2.29508e-06
-7.42411e-05 -2.29508e-06 0.000446496
0.00142055 9.89878e-05 1.77511e-06
9.89878e-05 -3.79936e-05 -9.5398e-09
1.77511e-06 -9.5398e-09 -0.000175187
0.00432446 9.05463e-05 0.000146407
9.05463e-05 0.00251909 5.63016e-06
0.000146407 5.63016e-06 0.00251433
0.000269131 8.61097e-05 1.63074e-05
8.61097e-05 -0.000302052 5.06625e-06
1.63074e-05 5.06625e-06 -0.000411208
0.00716754 0.000166421 0.000405138
0.000166421 0.00437521 3.02792e-05
0.000405138 3.02792e-05 0.00441039
0.00666495 -9.4552e-06 -7.96978e-06
-9.4552e-06 0.00406403 -4.15197e-06
-7.96978e-06 -4.15197e-06 0.0041015
0.00025264 5.7389e-05 1.7836e-05
5.7389e-05 -0.000309405 2.48744e-06
1.7836e-05 2.48744e-06 -0.00039757
0.00660692 3.30964e-05 0.000378759
3.30964e-05 0.00401669 5.42272e-07
0.000378759 5.42272e-07 0.00405961
0.00423231 5.05202e-05 0.000156933
5.05202e-05 0.00246026 7.38786e-06
0.000156933 7.38786e-06 0.00245977
0.000278789 2.3762e-05 1.58522e-05
2.3762e-05 -0.000290518 2.70794e-06
1.58522e-05 2.70794e-06 -0.000389364
0.00693456 3.59568e-05 0.000389904
3.59568e-05 0.00422103 1.49753e-05
0.000389904 1.49753e-05 0.00426119
0.00669609 -9.98499e-05 0.000379074
-9.98499e-05 0.00408594 -4.01113e-06
0.000379074 -4.01113e-06 0.00412036
0.0067324 3.651e-05 0.000382033
3.651e-05 0.00409021 9.60629e-06
0.000382033 9.60629e-06 0.00413357
