# vtk DataFile Version 2.0
Wound Healing Simulation
ASCII
DATASET UNSTRUCTURED_GRID
POINTS 3012 float
69.9759 18.75 4
67.2507 60.3285 4
69.976 18.75 2
73.0099 25.446 4
71.1327 20.9142 4
68.6801 16.6661 4
67.8223 19.9263 3.97527
67.2507 60.3286 2
71.1327 54.0858 4
68.6801 58.3339 4
65.6939 62.2254 4
65.3092 58.9994 3.97416
74.6784 42.3946 4
73.7221 47.2057 4
69.9759 18.75 0
73.0099 25.446 2
68.6801 16.6661 2
71.1327 20.9142 2
67.823 19.9302 2
74.6792 32.6053 4
73.7222 27.7943 4
72.1454 23.1494 4
70.6117 26.2216 3.97503
68.8827 21.9579 3.97564
67.2507 14.6715 4
66.6335 17.973 3.97408
65.7842 21.03 3.96381
67.2507 60.3285 0
71.1327 54.0858 2
68.6801 58.3339 2
65.694 62.2255 2
65.3103 58.9946 2
72.1454 51.8506 4
69.9759 56.25 4
68.8332 53.1135 3.97513
64.0165 64.0165 4
66.6075 57.1327 3.97484
63.8824 60.7634 3.97376
63.4924 57.7641 3.96556
60.3285 67.2507 4
74.6792 42.3947 2
73.7222 47.2057 2
74.9194 39.9526 4
74.2788 44.8158 4
72.1665 42.0856 3.9765
73.0099 49.554 4
71.2469 46.5979 3.97487
73.0099 25.446 0
71.1327 20.9142 0
68.6801 16.6661 0
67.8223 19.9263 0.024734
74.6792 32.6053 2
73.7222 27.7943 2
67.2508 14.6715 2
72.1455 23.1494 2
70.6113 26.2222 2
66.6349 17.9777 2
68.883 21.9607 2
65.7814 21.0321 2
74.9197 35.0474 4
74.2794 30.1841 4
72.1832 32.9443 3.97678
71.2761 28.4323 3.97538
69.8128 24.0597 3.9754
68.3397 26.9548 3.96426
66.7509 22.9371 3.96383
65.694 12.7746 4
65.3198 16.1059 3.97237
64.7036 19.2009 3.96386
63.7963 22.0708 3.96435
71.1327 54.0858 0
65.6939 62.2254 0
68.6801 58.3339 0
65.3092 58.9994 0.0258408
72.1455 51.8506 2
69.9759 56.25 2
68.8334 53.111 2
64.0165 64.0165 2
66.6084 57.1285 2
63.8839 60.7582 2
63.4908 57.764 2
62.2254 65.694 4
58.8917 65.4129 3.98328
69.766 50.9894 3.97486
67.7804 55.1672 3.97523
66.6344 52.2059 3.96396
62.3326 62.4244 3.97711
64.652 56.0271 3.96454
62.1955 59.3913 3.96536
61.77 56.6522 3.96151
58.3339 68.6801 4
60.3285 67.2508 2
73.7221 47.2057 0
74.6784 42.3946 0
74.9197 39.9526 2
74.2794 44.8159 2
72.1657 42.0853 2
73.0099 49.554 2
71.2465 46.5977 2
75 37.5 4
72.4038 39.8025 3.97752
71.7806 44.3529 3.9762
69.7988 41.7898 3.96693
70.5725 48.8137 3.97458
68.9054 46.0136 3.96534
74.6792 32.6053 0
73.7222 27.7943 0
67.2507 14.6715 0
72.1454 23.1494 0
70.6117 26.2216 0.0249686
68.8827 21.9579 0.0243638
66.6335 17.973 0.0259155
65.7842 21.03 0.0361929
74.9197 35.0474 2
74.2794 30.1841 2
72.1824 32.9446 2
71.2757 28.4328 2
65.694 12.7745 2
65.3212 16.111 2
69.8127 24.0613 2
68.3397 26.9559 2
64.699 19.203 2
66.7508 22.9388 2
63.7956 22.0717 2
72.4117 35.2249 3.97757
71.8021 30.6773 3.97638
69.835 33.2711 3.96686
68.9601 29.0414 3.96518
67.6026 24.9154 3.96399
66.0891 27.6622 3.96832
64.0165 10.9835 4
64.6574 23.8636 3.96581
63.8858 14.3304 3.97312
63.5036 17.457 3.96446
62.8226 20.3584 3.96238
61.9106 23.0125 3.9685
60.6809 11.1017 3.97822
57.6055 11.4744 3.96928
72.1454 51.8506 0
69.9759 56.25 0
68.8332 53.1135 0.0248679
64.0165 64.0165 0
63.8824 60.7634 0.0262375
66.6075 57.1327 0.0251591
63.4924 57.7641 0.0344361
62.2255 65.694 2
58.8939 65.409 2
69.7658 50.9878 2
67.7811 55.1637 2
66.6337 52.2047 2
62.3349 62.4197 2
64.6492 56.0264 2
62.1929 59.3911 2
61.7693 56.6525 2
60.6659 63.9736 3.97981
57.0227 66.7337 3.98636
57.5524 63.6746 3.97137
67.493 50.1738 3.96416
65.6907 54.17 3.9641
64.4228 51.3518 3.96595
60.7674 60.918 3.96842
62.7452 55.0375 3.96332
60.6214 58.1288 3.96035
60.2169 55.7315 3.96464
56.25 69.9759 4
58.3339 68.6801 2
60.3285 67.2507 0
58.9182 9.65964 3.97955
62.2254 9.30607 4
73.0099 49.554 0
74.2788 44.8158 0
71.2469 46.5979 0.0251269
72.1665 42.0856 0.0234983
74.9194 39.9526 0
75 37.5 2
72.4036 39.8024 2
71.7804 44.3523 2
69.798 41.7895 2
70.5719 48.813 2
68.9055 46.0132 2
72.4873 37.5126 3.97714
70.0364 39.6582 3.9673
69.4248 43.9071 3.96641
67.4975 41.4887 3.97256
68.2543 48.105 3.96462
66.59 45.4184 3.97058
74.9197 35.0474 0
74.2794 30.1841 0
72.1832 32.9443 0.0232153
71.2761 28.4323 0.0246152
65.694 12.7746 0
65.3198 16.1059 0.0276309
69.8128 24.0597 0.024597
68.3397 26.9548 0.0357397
66.7509 22.9371 0.0361734
64.7036 19.2009 0.0361377
63.7963 22.0708 0.0356512
72.4115 35.2249 2
71.8019 30.6779 2
69.8342 33.2718 2
68.9599 29.0424 2
64.0165 10.9835 2
63.8878 14.3358 2
63.5018 17.4582 2
67.6032 24.9167 2
66.088 27.6631 2
62.8207 20.3593 2
64.6565 23.8646 2
61.9096 23.0136 2
60.6835 11.106 2
57.6064 11.4675 2
70.0532 35.3941 3.96733
69.4617 31.1526 3.96596
67.5632 33.6033 3.97174
66.6657 29.6463 3.96921
65.4203 25.7302 3.96715
63.9224 28.3102 3.97514
62.3377 12.6589 3.97622
62.6567 24.7033 3.97077
62.1903 15.8011 3.9656
61.7444 18.7243 3.96061
61.0467 21.4154 3.96554
60.1563 23.8286 3.97256
59.2392 12.81 3.96676
55.8684 10.258 3.97279
56.3935 13.1723 3.96924
69.766 50.9894 0.0251426
62.2254 65.694 0
58.8917 65.4129 0.0167238
67.7804 55.1672 0.0247742
66.6344 52.2059 0.0360401
62.3326 62.4244 0.0228888
62.1955 59.3913 0.0346423
64.652 56.0271 0.035459
61.77 56.6522 0.038495
60.6682 63.9706 2
57.0252 66.7316 2
57.5535 63.679 2
67.4937 50.1728 2
65.6875 54.1686 2
64.4226 51.3514 2
60.7661 60.9197 2
62.745 55.0375 2
60.6249 58.1306 2
60.2154 55.7314 2
55.0685 67.9311 3.98782
59.2131 62.3371 3.96896
55.8008 64.9008 3.97462
56.3159 62.0444 3.97132
65.2064 49.3765 3.96731
63.6063 53.2592 3.96457
62.2107 50.5865 3.9698
59.3162 59.5257 3.9616
60.9212 54.2494 3.96709
59.1878 56.9536 3.9615
59.0796 55.1109 3.96771
48.0997 68.5741 3.98392
50.9463 69.9313 3.98971
54.0858 71.1327 4
56.25 69.976 2
58.3339 68.6801 0
57.0556 8.33883 3.98181
60.3285 7.74928 4
58.9211 9.66376 2
62.2255 9.30602 2
70.5725 48.8137 0.0254245
71.7806 44.3529 0.0238009
68.9054 46.0136 0.0346601
69.7988 41.7898 0.0330723
72.4038 39.8025 0.0224804
75 37.5 0
72.4865 37.5125 2
70.0362 39.6581 2
69.4244 43.9066 2
67.4957 41.4884 2
68.256 48.1043 2
66.5875 45.4177 2
70.1245 37.523 3.96737
67.7436 39.5092 3.97285
67.1101 43.4547 3.97129
65.3219 41.1883 3.97661
65.9425 47.3905 3.96918
64.3952 44.8031 3.97591
72.4117 35.2249 0.0224258
71.8021 30.6773 0.0236212
69.835 33.2711 0.0331436
68.9601 29.0414 0.0348161
64.0165 10.9835 0
63.8858 14.3304 0.0268783
63.5036 17.457 0.0355359
67.6026 24.9154 0.0360076
66.0891 27.6622 0.0316819
64.6574 23.8636 0.034194
62.8226 20.3584 0.0376244
61.9106 23.0125 0.031503
60.6809 11.1017 0.0217764
57.6055 11.4744 0.030717
70.053 35.3945 2
69.4614 31.1533 2
67.5614 33.6038 2
66.6639 29.647 2
62.3404 12.6639 2
62.1884 15.8021 2
61.7438 18.7245 2
65.4195 25.7312 2
63.9201 28.3115 2
61.0451 21.4164 2
62.6551 24.7045 2
60.1548 23.8299 2
59.2398 12.8102 2
56.3948 13.1698 2
55.8706 10.2558 2
67.782 35.5548 3.97234
67.1681 31.6403 3.97067
65.4784 33.9514 3.97683
64.434 30.2385 3.97624
63.3239 26.4754 3.97306
61.9241 28.8619 3.97612
60.7679 14.2467 3.96675
60.7514 25.4351 3.97497
60.5688 17.1674 3.9601
60.0623 19.8948 3.96203
59.4028 22.3658 3.96833
58.6385 24.4502 3.97454
54.0337 9.14809 3.97279
57.8962 14.3787 3.96525
54.7753 12.0703 3.96799
55.2927 14.7191 3.96537
67.493 50.1738 0.0358362
57.0227 66.7337 0.0136385
60.6659 63.9736 0.0201873
57.5524 63.6746 0.0286345
65.6907 54.17 0.0359002
64.4228 51.3518 0.0340519
60.7674 60.918 0.0315834
60.6214 58.1288 0.039654
62.7452 55.0375 0.0366789
60.2169 55.7315 0.0353635
55.0707 67.9294 2
59.213 62.3396 2
55.8013 64.8994 2
56.3147 62.0447 2
65.2056 49.3759 2
63.606 53.259 2
62.2103 50.586 2
59.3161 59.5288 2
60.9214 54.2494 2
59.1934 56.9552 2
59.0835 55.1116 2
53.0405 68.9993 3.98932
53.9632 66.0048 3.97814
57.8675 60.8328 3.96875
54.6736 63.1749 3.97081
55.1935 60.5634 3.97471
62.9468 48.5995 3.9721
61.5446 52.5109 3.96844
59.9344 49.9232 3.97241
57.9617 58.2127 3.96079
59.111 53.865 3.96933
57.9379 55.7277 3.9629
50.1063 67.852 3.98299
47.4604 66.5703 3.97883
46.0537 69.1534 3.98488
48.1006 68.5741 2
48.8002 70.7225 3.99021
50.948 69.9304 2
51.8506 72.1454 4
54.0858 71.1327 2
56.25 69.9759 0
55.1006 7.14314 3.98534
58.3339 6.31992 4
57.0588 8.34228 2
60.3286 7.74926 2
58.9182 9.65964 0.0204462
62.2254 9.30607 0
68.2543 48.105 0.0353825
69.4248 43.9071 0.0335854
66.59 45.4184 0.0294229
67.4975 41.4887 0.0274405
70.0364 39.6582 0.0326962
72.4873 37.5126 0.0228596
70.1238 37.5232 2
67.7413 39.5091 2
67.1093 43.4544 2
65.319 41.1877 2
65.9419 47.3899 2
64.3935 44.8022 2
67.8441 37.5242 3.97274
65.5613 39.3612 3.97664
64.9347 42.9908 3.97672
63.4182 40.9002 3.9766
63.7051 46.662 3.97418
62.4367 44.148 3.97623
70.0532 35.3941 0.0326704
69.4617 31.1526 0.0340366
67.5632 33.6033 0.0282563
66.6657 29.6463 0.0307939
62.3377 12.6589 0.0237804
62.1903 15.8011 0.0343962
61.7444 18.7243 0.0393934
65.4203 25.7302 0.0328471
63.9224 28.3102 0.0248637
62.6567 24.7033 0.0292319
61.0467 21.4154 0.034465
60.1563 23.8286 0.0274414
59.2392 12.81 0.0332421
56.3935 13.1723 0.0307578
55.8684 10.258 0.0272095
67.7796 35.5551 2
67.167 31.6408 2
65.4747 33.9522 2
64.4311 30.2397 2
60.7675 14.2477 2
60.5666 17.1676 2
60.0608 19.8958 2
63.3221 26.4766 2
61.9219 28.8626 2
59.4039 22.3666 2
60.7491 25.4364 2
58.6369 24.4516 2
57.8951 14.3791 2
55.294 14.7159 2
54.0361 9.14799 2
54.7764 12.0653 2
65.66 35.6807 3.97671
64.954 32.1903 3.97656
63.9848 34.2801 3.9766
62.2409 30.7037 3.97628
61.3349 27.1645 3.97576
60.4434 29.2411 3.97631
59.2893 15.7095 3.96061
58.953 25.9279 3.9762
59.01 18.4305 3.96035
58.5056 20.9655 3.9637
57.9587 23.2283 3.96978
57.5939 24.8137 3.97525
52.1093 8.16327 3.97658
53.0484 11.057 3.96952
56.6475 15.8084 3.96038
53.7884 13.7589 3.96494
54.3341 16.0885 3.96052
55.0685 67.9311 0.0121793
65.2064 49.3765 0.0326889
55.8008 64.9008 0.0253827
59.2131 62.3371 0.031036
56.3159 62.0444 0.0286842
63.6063 53.2592 0.0354328
62.2107 50.5865 0.0302
59.3162 59.5257 0.0384001
59.1878 56.9536 0.0385003
60.9212 54.2494 0.032906
59.0796 55.1109 0.0322887
53.0426 68.9983 2
53.9643 66.0044 2
57.8659 60.8339 2
54.6732 63.1762 2
55.1908 60.5637 2
62.9453 48.5988 2
61.5449 52.5107 2
59.9356 49.9229 2
57.9588 58.2136 2
59.115 53.8655 2
57.9344 55.7264 2
52.0673 66.9941 3.98153
52.9472 64.2014 3.97511
56.6205 59.4435 3.96498
53.6615 61.5662 3.97037
54.2271 59.267 3.97246
60.6095 47.7865 3.97379
59.4222 52.0125 3.9704
57.5988 49.4911 3.97381
56.6724 56.9162 3.96332
56.8488 54.0148 3.96678
50.107 67.8517 2
49.3339 65.9106 3.97874
47.4608 66.5701 2
46.8882 64.7192 3.97751
45.5561 67.0878 3.97947
43.9713 69.5855 3.98592
46.0546 69.1534 2
46.6067 71.3669 3.99067
48.0997 68.5741 0.0160818
48.8018 70.7221 2
49.554 73.0099 4
50.9463 69.9313 0.0102933
51.8506 72.1455 2
54.0858 71.1327 0
53.0629 6.07338 3.98854
55.1039 7.14475 2
56.25 5.02411 4
58.3339 6.3199 2
57.0556 8.33883 0.0181892
60.3285 7.74928 0
65.9425 47.3905 0.0308178
67.1101 43.4547 0.0287127
64.3952 44.8031 0.0240892
65.3219 41.1883 0.0233856
67.7436 39.5092 0.0271477
70.1245 37.523 0.0326253
67.8421 37.5243 2
65.558 39.361 2
64.9316 42.9898 2
63.4173 40.8999 2
63.7034 46.6611 2
62.4353 44.1475 2
65.6703 37.5047 3.97663
63.5676 39.2539 3.97668
62.9715 42.5053 3.9764
62.0139 40.6611 3.9766
61.5819 45.8363 3.97568
60.9902 43.6075 3.97613
67.782 35.5548 0.027664
67.1681 31.6403 0.0293275
65.4784 33.9514 0.0231677
64.434 30.2385 0.0237614
60.7679 14.2467 0.0332496
60.5688 17.1674 0.0398995
60.0623 19.8948 0.0379651
63.3239 26.4754 0.0269375
61.9241 28.8619 0.0238833
60.7514 25.4351 0.0250333
59.4028 22.3658 0.0316694
58.6385 24.4502 0.0254603
57.8962 14.3787 0.0347476
55.2927 14.7191 0.034632
54.0337 9.14809 0.0272143
54.7753 12.0703 0.0320082
65.6564 35.6809 2
64.9506 32.1914 2
63.9831 34.2806 2
62.2392 30.704 2
59.2881 15.7085 2
59.0193 18.4283 2
58.5052 20.9666 2
61.3332 27.1657 2
60.4428 29.2418 2
57.9505 23.2314 2
58.952 25.9291 2
57.5993 24.8154 2
56.646 15.808 2
54.3389 16.0826 2
53.7882 13.7475 2
52.1113 8.16297 2
53.0497 11.0558 2
63.7774 35.6504 3.9765
62.5652 33.0947 3.97626
60.1581 30.7074 3.976
59.1422 28.0353 3.97606
57.8789 17.0515 3.95938
57.3079 25.8879 3.97606
57.5292 19.5846 3.95999
57.0583 21.9846 3.96409
56.7858 24.1108 3.97065
50.1104 7.29241 3.98196
51.2257 10.1482 3.97326
52.154 12.861 3.9698
55.476 17.0615 3.95876
52.9412 15.3581 3.96332
53.6944 17.087 3.95834
53.0405 68.9993 0.0106834
53.9632 66.0048 0.0218635
62.9468 48.5995 0.0279032
54.6736 63.1749 0.0291879
57.8675 60.8328 0.0312504
55.1935 60.5634 0.025287
61.5446 52.5109 0.0315553
59.9344 49.9232 0.0275906
57.9617 58.2127 0.0392085
57.9379 55.7277 0.037103
59.111 53.865 0.0306747
52.0683 66.9943 2
52.9467 64.2028 2
56.6182 59.4437 2
53.6596 61.5677 2
54.2238 59.2687 2
60.609 47.7858 2
59.4235 52.0123 2
57.5976 49.4902 2
56.6685 56.9195 2
56.8457 54.0136 2
51.1642 65.1157 3.97733
52.0321 62.5093 3.97167
55.4211 58.1912 3.96117
52.7974 60.0596 3.96834
53.5904 58.4082 3.96593
57.7785 46.7125 3.97581
57.2056 51.6677 3.97061
55.7448 49.4057 3.97331
55.3176 55.7024 3.9646
55.0348 53.261 3.96354
50.1063 67.852 0.0170077
49.334 65.9101 2
48.6124 64.1067 3.97801
47.4604 66.5703 0.0211738
45.5565 67.0881 2
46.8888 64.7184 2
46.3743 63.0313 3.98236
45.1299 65.1803 3.97738
43.6298 67.4598 3.98147
41.8591 69.8726 3.98562
43.972 69.586 2
44.3741 71.8614 3.99104
46.0537 69.1534 0.0151163
46.608 71.3666 2
47.2057 73.7222 4
48.8002 70.7225 0.00979475
49.554 73.0099 2
51.8506 72.1454 0
50.9537 5.13403 3.99035
53.0654 6.0743 2
54.0858 3.86728 4
55.1006 7.14314 0.0146585
56.25 5.02406 2
58.3339 6.31992 0
63.7051 46.662 0.0258182
64.9347 42.9908 0.0232768
62.4367 44.148 0.0237711
63.4182 40.9002 0.0234036
65.5613 39.3612 0.0233632
67.8441 37.5242 0.0272577
65.6667 37.5047 2
63.567 39.2538 2
62.9708 42.5051 2
62.0147 40.661 2
61.5806 45.8354 2
60.9897 43.6074 2
63.6318 37.459 3.97658
61.7219 39.3344 3.97675
60.7351 41.8968 3.97657
59.7492 44.6628 3.9761
65.66 35.6807 0.0232878
64.954 32.1903 0.0234382
63.9848 34.2801 0.0234022
62.2409 30.7037 0.0237151
59.2893 15.7095 0.0393913
59.01 18.4305 0.0396493
58.5056 20.9655 0.0362959
61.3349 27.1645 0.0242414
60.4434 29.2411 0.0236904
58.953 25.9279 0.023802
57.9587 23.2283 0.0302213
57.5939 24.8137 0.0247543
56.6475 15.8084 0.0396216
54.3341 16.0885 0.0394804
53.7884 13.7589 0.0350584
52.1093 8.16327 0.0234201
53.0484 11.057 0.030476
63.7765 35.6504 2
62.5652 33.0951 2
60.1585 30.7077 2
57.8788 17.0514 2
57.5451 19.5803 2
57.0544 21.9872 2
59.1414 28.0362 2
56.8027 24.1118 2
57.3101 25.891 2
50.1124 7.29019 2
55.4793 17.0586 2
53.7042 17.0765 2
52.941 15.3486 2
52.1549 12.8654 2
51.2276 10.1453 2
61.7653 35.3844 3.97647
59.7783 32.8183 3.97612
58.078 30.2005 3.97582
56.7874 27.5502 3.97644
56.5301 18.2519 3.96026
55.8332 25.2887 3.97512
56.12 20.6589 3.9609
55.7312 23.0421 3.9641
48.0558 6.53219 3.98611
49.3206 9.34626 3.97607
50.4197 12.0401 3.97235
51.3449 14.5741 3.96455
54.3161 18.033 3.95924
52.3068 17.1565 3.95876
52.0673 66.9941 0.0184739
52.9472 64.2014 0.0248906
60.6095 47.7865 0.0262144
53.6615 61.5662 0.0296339
56.6205 59.4435 0.0350179
54.2271 59.267 0.0275434
59.4222 52.0125 0.029597
57.5988 49.4911 0.0261887
56.6724 56.9162 0.036676
56.8488 54.0148 0.0332163
51.164 65.116 2
52.0306 62.5111 2
55.4198 58.1924 2
52.7957 60.0629 2
53.5888 58.4109 2
57.778 46.7118 2
57.2023 51.6665 2
55.7392 49.404 2
55.315 55.7021 2
55.0353 53.2613 2
50.3379 63.364 3.97918
51.2161 60.8773 3.97537
54.1336 57.1967 3.96772
52.2378 58.5546 3.96978
56.0055 44.0317 3.97648
54.8948 47.7288 3.97486
54.6202 51.2432 3.96599
53.7836 54.4382 3.96604
49.3339 65.9106 0.0212597
48.6125 64.1051 2
47.9499 62.4543 3.98094
45.5561 67.0878 0.0205278
46.8882 64.7192 0.0224914
43.63 67.4606 2
46.3747 63.0307 2
45.1306 65.1803 2
45.9757 61.5605 3.98961
44.7624 63.4287 3.97682
43.3557 65.4923 3.97819
41.6623 67.6784 3.98111
39.7015 70.0184 3.98505
41.8596 69.873 2
42.1088 72.2058 3.99148
43.9713 69.5855 0.0140832
44.3752 71.8614 2
44.8159 74.2794 4
46.6067 71.3669 0.00932747
47.2057 73.7222 2
49.554 73.0099 0
48.7851 4.32429 3.99128
50.9556 5.13366 2
51.8506 2.85458 4
53.0629 6.07338 0.0114608
54.0858 3.86728 2
56.25 5.02411 0
61.5819 45.8363 0.0243176
62.9715 42.5053 0.0235999
60.9902 43.6075 0.0238651
62.0139 40.6611 0.0234031
63.5676 39.2539 0.0233177
65.6703 37.5047 0.0233669
63.6311 37.4589 2
61.723 39.3345 2
60.7364 41.8968 2
59.7494 44.6621 2
61.551 37.4453 3.97691
59.6896 39.8082 3.97679
58.3737 42.823 3.97606
63.7774 35.6504 0.0235005
62.5652 33.0947 0.0237391
60.1581 30.7074 0.024005
57.8789 17.0515 0.0406184
57.5292 19.5846 0.0400093
57.0583 21.9846 0.0359143
59.1422 28.0353 0.0239415
57.3079 25.8879 0.0239371
56.7858 24.1108 0.0293487
55.476 17.0615 0.0412407
53.6944 17.087 0.0416628
52.9412 15.3581 0.0366845
50.1104 7.29241 0.018044
52.154 12.861 0.0302012
51.2257 10.1482 0.0267439
61.7662 35.3844 2
59.7786 32.8182 2
58.0791 30.1998 2
56.5327 18.2505 2
56.1418 20.6524 2
55.7403 23.0467 2
56.7874 27.5518 2
55.8401 25.2941 2
48.0568 6.53109 2
49.3225 9.34436 2
54.3332 18.0305 2
52.2994 17.1482 2
51.3422 14.575 2
50.4215 12.0406 2
59.3254 35.156 3.97658
57.3496 32.3704 3.97561
55.9399 29.5039 3.97613
54.8883 26.8185 3.97561
55.1993 19.3079 3.96232
54.5095 24.2584 3.9725
54.7095 21.7266 3.96031
45.9625 5.88605 3.98799
43.3743 7.47984 3.98386
47.3535 8.63357 3.98094
48.5908 11.3228 3.97366
49.685 13.796 3.96901
50.5841 16.2275 3.96198
53.009 18.7995 3.96268
51.225 18.2094 3.96177
51.1642 65.1157 0.0226742
52.0321 62.5093 0.0283332
57.7785 46.7125 0.0241929
52.7974 60.0596 0.0316581
55.4211 58.1912 0.0388269
53.5904 58.4082 0.0340733
57.2056 51.6677 0.0293897
55.7448 49.4057 0.0266889
55.3176 55.7024 0.0354011
55.0348 53.261 0.0364623
50.3371 63.3628 2
51.2142 60.8759 2
54.1325 57.1984 2
52.2351 58.5568 2
56.0061 44.0316 2
54.8917 47.7273 2
54.6169 51.242 2
53.7827 54.44 2
49.5737 61.7255 3.97483
54.7464 41.6286 3.97405
50.5107 59.2681 3.97028
52.0497 56.4053 3.96795
53.4124 45.3648 3.97416
52.7583 49.1567 3.96978
52.3183 52.722 3.96027
48.6124 64.1067 0.0219851
47.9493 62.4511 2
47.3093 60.9851 3.99353
43.6298 67.4598 0.018533
45.1299 65.1803 0.0226177
46.3743 63.0313 0.0176449
41.6628 67.6778 2
43.3566 65.4932 2
45.9744 61.5604 2
44.7629 63.4282 2
45.7434 60.6062 3.9899
44.4755 61.803 3.97924
43.1438 63.7043 3.97809
41.5455 65.6308 3.97651
39.632 67.7556 3.98035
37.5259 70.0427 3.98409
39.7019 70.0186 2
39.8162 72.4024 3.9914
41.8591 69.8726 0.0143755
42.1096 72.206 2
42.3947 74.6792 4
44.3741 71.8614 0.00895613
44.8159 74.2794 2
47.2057 73.7222 0
43.8519 5.36267 3.98734
46.5714 3.64869 3.99183
48.7861 4.32403 2
49.554 1.99015 4
50.9537 5.13403 0.00964772
51.8506 2.85453 2
54.0858 3.86728 0
59.7492 44.6628 0.0238979
60.7351 41.8968 0.0234298
61.7219 39.3344 0.0232534
63.6318 37.459 0.0234219
61.5518 37.4451 2
59.691 39.8079 2
58.3741 42.8231 2
59.1797 37.5656 3.97729
57.2991 40.5911 3.97723
54.1458 39.643 3.97543
61.7653 35.3844 0.0235277
59.7783 32.8183 0.0238816
58.078 30.2005 0.0241824
56.5301 18.2519 0.0397433
56.12 20.6589 0.0390987
55.7312 23.0421 0.0359047
56.7874 27.5502 0.0235642
55.8332 25.2887 0.0248762
54.3161 18.033 0.0407619
52.3068 17.1565 0.0412443
51.3449 14.5741 0.0354451
48.0558 6.53219 0.0138895
49.3206 9.34626 0.0239324
50.4197 12.0401 0.0276465
59.3261 35.1553 2
45.9631 5.88446 2
43.3747 7.47741 2
57.3506 32.3709 2
55.9396 29.5034 2
55.19 19.3132 2
54.7442 21.7282 2
54.51 24.2639 2
54.8863 26.8204 2
47.3551 8.63092 2
48.5928 11.3213 2
53.0222 18.7735 2
51.2324 18.2051 2
50.581 16.2263 2
49.6843 13.7997 2
56.6729 34.8122 3.97715
54.9984 31.6548 3.97563
53.8562 28.6145 3.97696
53.2659 25.7351 3.97459
53.7889 20.2781 3.96051
53.2495 22.9169 3.95711
41.4002 7.08401 3.98354
45.3599 7.99992 3.98656
42.8665 9.42634 3.97755
46.6631 10.6695 3.97854
47.7221 13.1354 3.97387
48.8893 15.4723 3.9687
49.9303 17.792 3.95834
51.5228 19.495 3.97278
50.3379 63.364 0.0208217
51.2161 60.8773 0.0246313
56.0055 44.0317 0.023524
54.8948 47.7288 0.0251381
52.2378 58.5546 0.0302161
54.1336 57.1967 0.0322806
54.6202 51.2432 0.0340092
53.7836 54.4382 0.0339626
49.572 61.7232 2
54.7363 41.6241 2
50.5079 59.2693 2
52.0522 56.4089 2
53.4076 45.3624 2
52.7553 49.1546 2
52.3207 52.7222 2
48.8113 60.1756 3.97801
51.5009 42.4969 3.98327
49.6945 57.5637 3.96445
50.3603 54.3324 3.96216
51.0843 47.0697 3.97544
50.7566 50.7961 3.955
47.1894 43.5511 3.97398
47.9499 62.4543 0.0190644
47.3068 60.9821 2
46.5852 59.7777 3.99452
41.6623 67.6784 0.018888
43.3557 65.4923 0.0218125
44.7624 63.4287 0.0231766
45.9757 61.5605 0.0103919
39.6327 67.7561 2
41.5463 65.6285 2
45.7431 60.6058 2
43.1437 63.7032 2
44.4736 61.8047 2
44.6003 60.2607 3.99609
42.944 62.0563 3.97481
41.5991 63.7997 3.97691
39.6467 65.5949 3.97587
37.5632 67.7362 3.97848
31.6981 65.1129 3.97574
33.393 67.4744 3.97835
35.3341 69.9533 3.98436
37.5258 70.0442 2
37.509 72.4567 3.99196
39.7015 70.0184 0.0149497
39.8167 72.4024 2
39.9526 74.9197 4
42.1088 72.2058 0.0085233
42.3947 74.6792 2
44.8159 74.2794 0
41.7368 4.97071 3.98808
43.8522 5.36086 2
44.3269 3.11164 3.99244
46.572 3.64813 2
47.2057 1.27793 4
48.7851 4.32429 0.00871854
49.554 1.99013 2
51.8506 2.85458 0
58.3737 42.823 0.0239447
59.6896 39.8082 0.0232055
61.551 37.4453 0.023091
59.1812 37.5661 2
57.2997 40.5927 2
54.1359 39.6507 2
56.0277 37.8749 3.97678
48.5269 41.2187 3.97102
52.0895 39.2802 3.98206
39.4439 6.80723 3.98425
59.3254 35.156 0.0234164
57.3496 32.3704 0.0243895
55.9399 29.5039 0.0238699
55.1993 19.3079 0.0376832
54.7095 21.7266 0.0396865
54.5095 24.2584 0.0275001
54.8883 26.8185 0.0243943
53.009 18.7995 0.0373153
51.225 18.2094 0.0382346
50.5841 16.2275 0.0380179
45.9625 5.88605 0.0120067
49.685 13.796 0.0309877
47.3535 8.63357 0.0190645
48.5908 11.3228 0.0263427
43.3743 7.47984 0.0161372
56.6724 34.8126 2
41.4004 7.08375 2
45.3606 7.99757 2
42.8671 9.42402 2
55.0006 31.6536 2
53.855 28.6158 2
53.7942 20.2953 2
53.2364 22.9194 2
53.2621 25.7365 2
46.6649 10.6647 2
47.7227 13.1325 2
51.5457 19.4951 2
49.9293 17.7924 2
48.8825 15.4833 2
53.9669 34.0129 3.97485
52.6997 30.711 3.97539
51.9664 27.4682 3.97473
51.7549 24.3605 3.97861
52.1833 21.2404 3.97454
41.0135 9.05805 3.97742
44.7261 10.0019 3.98509
42.4605 10.9104 4.00333
45.9845 12.7454 3.96927
47.6459 14.6479 3.96634
48.0391 17.0476 3.96634
49.7319 19.891 3.97859
49.5737 61.7255 0.0251707
50.5107 59.2681 0.0297224
54.7464 41.6286 0.02595
53.4124 45.3648 0.0258433
52.7583 49.1567 0.030218
52.0497 56.4053 0.0320527
52.3183 52.722 0.0397304
48.8079 60.1729 2
51.5131 42.5086 2
49.6917 57.5638 2
50.3611 54.3346 2
51.0867 47.0682 2
50.7603 50.796 2
47.2005 43.5846 2
47.9245 58.6915 3.98666
49.1783 45.0924 3.98092
48.4467 55.8491 3.95918
48.8142 52.4835 3.97648
49.1136 48.8729 3.97023
44.9237 39.7769 3.8496
45.4225 42.4745 3.8897
45.6985 45.547 3.98297
42.7586 40.9984 3.6626
41.5219 41.7696 3.46273
47.3093 60.9851 0.00646502
46.5834 59.771 2
45.4223 58.773 3.99454
39.632 67.7556 0.0196501
41.5455 65.6308 0.0234928
43.1438 63.7043 0.021906
44.4755 61.803 0.0207635
45.7434 60.6062 0.0100951
41.5993 63.7978 2
37.5637 67.7378 2
39.6478 65.5955 2
44.6008 60.2622 2
42.9418 62.0561 2
41.7474 62.4628 3.97666
42.4628 59.95 3.98216
39.8939 63.5314 3.97602
37.6416 65.4908 3.97519
35.4637 67.6458 3.97839
33.5761 65.3241 3.97447
31.9606 63.2729 3.97669
29.8862 64.7026 3.97948
31.6977 65.1124 2
31.3781 67.1855 3.97893
33.3927 67.4752 2
33.1577 69.747 3.98433
35.3335 69.9547 2
35.1959 72.3713 3.99201
37.5259 70.0427 0.0159093
37.5092 72.4572 2
37.5 75 4
39.8162 72.4024 0.0085991
39.9526 74.9197 2
42.3947 74.6792 0
39.6248 4.71843 3.98915
41.7369 4.97026 2
42.0635 2.71864 3.99285
43.8519 5.36267 0.0126566
44.3271 3.11072 2
44.8158 0.721173 4
46.5714 3.64869 0.00817077
47.2057 1.27779 2
49.554 1.99015 0
57.2991 40.5911 0.0227654
59.1797 37.5656 0.0227141
54.1458 39.643 0.0245747
48.5496 41.2257 2
56.0289 37.8718 2
52.0836 39.2439 2
52.9484 36.6141 3.97781
46.4573 40.2955 3.89469
49.4679 38.5041 3.98356
37.5179 6.67682 3.98526
39.4446 6.80545 2
39.2115 8.69966 3.98184
35.944 8.49763 3.9835
56.6729 34.8122 0.0228503
54.9984 31.6548 0.024368
53.8562 28.6145 0.0230436
53.7889 20.2781 0.0394921
53.2495 22.9169 0.0428937
53.2659 25.7351 0.0254101
51.5228 19.495 0.0272156
49.9303 17.792 0.0416612
48.8893 15.4723 0.0313
45.3599 7.99992 0.0134429
47.7221 13.1354 0.0261282
46.6631 10.6695 0.0214611
41.4002 7.08401 0.0164579
42.8665 9.42634 0.0224466
53.9657 34.0103 2
41.0149 9.0597 2
44.7265 9.9989 2
42.4618 10.9109 2
52.6935 30.7087 2
51.9734 27.4703 2
52.1809 21.2498 2
51.7431 24.3656 2
45.9855 12.7383 2
47.6383 14.6169 2
49.752 19.8743 2
48.0348 17.0558 2
51.4651 32.9306 3.98223
50.5319 29.4291 3.97738
50.2684 25.9663 3.97018
49.7469 22.487 3.98563
40.5637 11.6203 3.98387
43.8402 11.916 3.9774
45.7625 15.4921 3.98926
47.4379 19.5021 3.97939
45.3843 37.4832 3.84761
48.8113 60.1756 0.0219929
49.6945 57.5637 0.0355476
51.5009 42.4969 0.016728
51.0843 47.0697 0.0245578
50.7566 50.7961 0.0450001
50.3603 54.3324 0.0378433
47.1894 43.5511 0.0260202
47.9211 58.6971 2
49.1945 45.1077 2
48.4424 55.8517 2
48.8147 52.4878 2
49.1174 48.8751 2
45.0194 39.8028 2
45.4506 42.4947 2
45.706 45.5655 2
42.8123 41.0514 2
41.5602 41.7946 2
46.7484 57.2973 3.97983
43.4755 39.3487 3.66145
41.8992 40.7083 3.47218
47.3727 47.121 3.98395
46.9606 54.1549 3.95985
47.1886 50.6263 3.9779
44.2456 47.1747 3.98367
44.0718 41.8143 3.84849
44.1929 44.2813 3.88521
41.8123 42.4047 3.70623
40.5572 42.0606 3.43969
46.5852 59.7777 0.00547731
45.4224 58.7714 2
43.8298 57.6548 3.98286
37.5632 67.7362 0.0215222
39.6467 65.5949 0.0241297
41.5991 63.7997 0.0230858
42.944 62.0563 0.0251941
44.6003 60.2607 0.00391275
35.4638 67.6478 2
41.7458 62.4659 2
39.8933 63.5315 2
37.6423 65.4925 2
42.4651 59.9471 2
40.6177 61.6043 3.98158
40.4263 58.1256 3.98394
37.837 63.187 3.97269
35.5729 65.4134 3.97645
33.5761 65.3244 2
31.9618 63.2762 2
33.6293 63.3151 3.97501
30.3807 62.8351 3.98082
32.1294 61.9759 3.98733
26.8824 61.4551 3.97994
28.0673 64.1321 3.97924
29.8853 64.7035 2
29.4081 66.7482 3.97919
31.6981 65.1129 0.0242643
31.3778 67.1854 2
31.0156 69.4127 3.98431
33.393 67.4744 0.0216534
33.157 69.7477 2
32.894 72.1457 3.99136
35.3341 69.9533 0.015638
35.1954 72.372 2
35.0474 74.9194 4
37.509 72.4567 0.00804205
37.5 75 2
39.9526 74.9197 0
35.6224 6.72839 3.98446
37.5247 4.61742 3.98946
39.6249 4.71684 2
39.79 2.47533 3.99295
41.7368 4.97071 0.011916
42.0633 2.71827 2
42.3946 0.32156 4
44.3269 3.11164 0.00756252
44.8159 0.72056 2
47.2057 1.27793 0
48.5269 41.2187 0.0289788
56.0277 37.8749 0.0232214
52.0895 39.2802 0.0179373
46.4769 40.302 2
49.4665 38.5029 2
52.9493 36.6413 2
50.2735 35.5606 3.97413
47.1166 37.7569 3.90136
44.9495 35.1914 3.84861
42.8062 33.9556 3.66118
41.5586 33.1886 3.46141
37.4594 8.53744 3.98461
37.5184 6.67629 2
39.4439 6.80723 0.0157505
39.2135 8.69723 2
38.976 10.1361 3.98517
35.9002 9.78039 3.98004
34.1539 8.82963 3.98148
35.9451 8.49502 2
53.9669 34.0129 0.0251508
52.6997 30.711 0.0246076
51.9664 27.4682 0.025273
52.1833 21.2404 0.0254564
51.7549 24.3605 0.0213863
49.7319 19.891 0.0214089
48.0391 17.0476 0.0336576
47.6459 14.6479 0.0336601
44.7261 10.0019 0.0149111
45.9845 12.7454 0.0307324
41.0135 9.05805 0.0225801
42.4605 10.9104 -0.00333127
51.4774 32.9259 2
40.5661 11.6243 2
43.8397 11.9091 2
50.5497 29.4291 2
50.2636 25.9715 2
49.733 22.4784 2
45.7513 15.4386 2
47.4403 19.5329 2
49.0528 31.5528 3.98593
48.6366 27.7352 3.97642
49.0215 24.6103 3.98071
47.065 22.2714 3.98989
38.2991 12.7518 3.97689
42.0811 14.3264 3.97984
44.7514 18.6185 3.97425
43.8991 37.4852 3.6746
45.4828 37.4876 2
47.9245 58.6915 0.0133385
48.4467 55.8491 0.0408182
49.1783 45.0924 0.0190817
49.1136 48.8729 0.0297688
48.8142 52.4835 0.0235171
44.9237 39.7769 0.150404
45.4225 42.4745 0.110295
45.6985 45.547 0.0170318
42.7586 40.9984 0.3374
41.5219 41.7696 0.537275
46.745 57.3038 2
43.5476 39.3755 2
41.9072 40.7217 2
47.3804 47.1174 2
46.9555 54.159 2
47.1901 50.6345 2
44.2803 47.1719 2
44.1317 41.8474 2
44.2498 44.3105 2
41.8704 42.4621 2
40.5905 42.0758 2
45.2786 55.8771 4.0001
42.2436 39.1939 3.48265
40.4461 40.5883 3.58533
45.5971 48.7629 4.00197
45.2452 52.4166 3.98552
43.003 48.1697 3.99412
42.8905 45.8102 3.87921
42.9796 43.5778 3.83117
40.6784 43.3939 3.68261
39.1654 42.3178 3.49137
45.4223 58.773 0.00545848
43.8279 57.6633 2
42.053 56.2352 3.98819
35.4637 67.6458 0.0216096
37.6416 65.4908 0.0248103
39.8939 63.5314 0.0239761
41.7474 62.4628 0.023341
42.4628 59.95 0.01784
35.5735 65.4162 2
40.6178 61.603 2
37.8374 63.1865 2
40.4267 58.1296 2
38.9043 56.3794 3.99352
38.2458 60.2857 3.98116
35.607 63.1812 3.97248
33.5761 65.3241 0.02553
31.9606 63.2729 0.023312
33.6308 63.3163 2
30.3815 62.8376 2
32.1309 61.9781 2
28.6885 62.174 3.98013
33.3483 61.4812 3.97903
31.0795 61.2001 3.98281
27.5968 59.5487 3.98034
23.8328 59.0253 3.99344
25.0528 60.8227 3.97651
26.8834 61.4557 2
26.2368 63.4616 3.97596
28.0666 64.1302 2
27.4653 66.1719 3.97897
29.8862 64.7026 0.0205202
29.4075 66.7481 2
28.9083 68.9378 3.9834
31.3781 67.1855 0.0210746
31.0147 69.4125 2
30.6169 71.7773 3.99082
33.1577 69.747 0.0156678
32.893 72.1461 2
32.6054 74.6784 4
35.1959 72.3713 0.00798841
35.0474 74.9197 2
37.5 75 0
33.7255 6.98454 3.98313
35.4368 4.68759 3.98905
35.6229 6.72702 2
37.5158 2.38769 3.99305
37.5247 4.61675 2
39.6248 4.71843 0.010852
39.7897 2.47447 2
39.9526 0.0806499 4
42.0635 2.71864 0.00715039
42.3947 0.320817 2
44.8158 0.721173 0
43.4946 35.6191 3.66576
41.9232 34.2452 3.45943
46.4573 40.2955 0.105313
49.4679 38.5041 0.0164393
52.9484 36.6141 0.0221905
47.1121 37.7361 2
50.285 35.5594 2
45.0303 35.1717 2
42.8494 33.9068 2
41.5866 33.1629 2
47.3219 34.3586 3.94165
44.1278 33.1506 3.83543
41.8654 32.5559 3.70493
40.5875 32.9073 3.43868
37.312 10.6346 3.98155
37.461 8.53735 2
37.5179 6.67682 0.0147364
39.2115 8.69966 0.0181582
38.9796 10.1339 2
34.757 10.3901 3.98007
35.9026 9.7752 2
32.3808 9.37574 3.97787
34.1533 8.82515 2
35.944 8.49763 0.0165016
51.4651 32.9306 0.017775
50.5319 29.4291 0.0226176
50.2684 25.9663 0.0298158
49.7469 22.487 0.0143714
47.4379 19.5021 0.0206129
45.7625 15.4921 0.0107364
43.8402 11.916 0.0226006
40.5637 11.6203 0.0161337
49.0734 31.5385 2
38.3007 12.7471 2
42.0876 14.3392 2
48.6378 27.7373 2
49.0136 24.6144 2
47.0496 22.2715 2
44.7547 18.6849 2
46.9757 29.7282 3.98352
46.7045 25.3284 3.97247
44.2025 21.6233 3.98025
36.586 12.9656 3.97454
38.677 14.8685 3.97484
41.7208 17.9555 3.97856
42.4098 37.4654 3.51942
43.9605 37.4867 2
45.3843 37.4832 0.15239
46.7484 57.2973 0.0201704
46.9606 54.1549 0.0401456
47.3727 47.121 0.0160482
47.1886 50.6263 0.0221042
43.4755 39.3487 0.338555
44.0718 41.8143 0.151512
44.1929 44.2813 0.114792
44.2456 47.1747 0.0163331
41.8123 42.4047 0.293769
41.8992 40.7083 0.52782
40.5572 42.0606 0.560307
45.275 55.8797 2
42.2481 39.201 2
40.4845 40.5746 2
45.5976 48.7816 2
45.2403 52.4192 2
43.0393 48.1849 2
42.949 45.8602 2
43.0341 43.6097 2
40.7249 43.4633 2
39.162 42.3349 2
43.601 54.3336 3.99552
40.5472 39.039 3.60603
39.0611 40.6645 3.55422
43.3254 50.2577 4.00383
41.6447 47.3146 3.92466
41.556 44.9043 3.84221
39.3446 44.0448 3.65019
37.501 42.4368 3.53575
43.8298 57.6548 0.0171398
42.0568 56.228 2
40.3667 54.7941 3.99489
35.5729 65.4134 0.023554
37.837 63.187 0.0273076
40.6177 61.6043 0.0184246
40.4263 58.1256 0.0160568
35.608 63.1792 2
38.2446 60.2869 2
38.907 56.3616 2
37.979 55.055 3.99488
36.9273 57.5683 3.99139
35.3642 60.88 3.97934
33.6293 63.3151 0.0249851
30.3807 62.8351 0.0191794
32.1294 61.9759 0.0126651
33.3494 61.4817 2
28.6893 62.177 2
31.0809 61.205 2
29.4237 60.2566 3.97696
32.3693 59.6968 3.996
28.0692 58.3354 4.01457
27.5988 59.5483 2
25.4213 58.5456 3.9798
22.8208 58.1807 3.96755
23.4231 60.2895 3.97719
23.8349 59.0256 2
25.0542 60.8219 2
24.4429 62.7422 3.97669
26.8824 61.4551 0.0200596
26.2372 63.4608 2
25.5504 65.4804 3.97768
28.0673 64.1321 0.0207619
27.4649 66.172 2
26.8381 68.3258 3.98324
29.4081 66.7482 0.0208147
28.9073 68.9375 2
28.3722 71.2626 3.99005
31.0156 69.4127 0.0156898
30.6158 71.777 2
30.1842 74.2788 4
32.894 72.1457 0.00863816
32.6053 74.6792 2
35.0474 74.9194 0
31.7899 7.42379 3.98178
33.3493 4.92737 3.98802
33.7253 6.98191 2
35.2462 2.46358 3.99309
35.4367 4.68686 2
35.6224 6.72839 0.0155386
37.5 0 4
37.5151 2.38727 2
37.5247 4.61742 0.0105367
39.79 2.47533 0.00705292
39.9526 0.0802889 2
42.3946 0.32156 0
42.2382 35.735 3.46688
43.5762 35.5887 2
40.4896 34.3675 3.58579
41.923 34.2276 2
47.1166 37.7569 0.0986367
50.2735 35.5606 0.0258655
44.9495 35.1914 0.151393
42.8062 33.9556 0.338824
41.5586 33.1886 0.538587
47.3516 34.3752 2
44.1716 33.1144 2
41.9181 32.4963 2
40.6174 32.8914 2
45.4408 31.7759 3.90093
43.0296 31.3848 3.82441
40.7221 31.5708 3.68226
39.1856 32.6671 3.48656
35.6963 11.7881 3.97615
37.3162 10.6335 2
37.4594 8.53744 0.0153924
38.976 10.1361 0.0148262
33.102 11.228 3.97298
34.7566 10.3821 2
35.9002 9.78039 0.019956
30.4865 10.0276 3.97723
32.3803 9.37436 2
34.1539 8.82963 0.0185189
49.0528 31.5528 0.014071
48.6366 27.7352 0.0235823
49.0215 24.6103 0.0192942
47.065 22.2714 0.0101098
44.7514 18.6185 0.0257488
42.0811 14.3264 0.0201565
38.2991 12.7518 0.0231069
36.5831 12.9443 2
46.9823 29.6745 2
38.6761 14.8469 2
41.7126 17.9574 2
46.7042 25.3302 2
44.1866 21.5985 2
44.9569 27.8695 3.99607
43.5572 24.2638 4.02565
41.2786 20.9693 3.98977
35.7708 14.8054 3.97917
38.6609 17.6849 3.98337
40.6038 37.4474 3.6229
42.422 37.4699 2
43.8991 37.4852 0.325402
45.2786 55.8771 -9.63295e-05
45.2452 52.4166 0.0144813
45.5971 48.7629 -0.00196642
42.2436 39.1939 0.517345
42.9796 43.5778 0.168835
42.8905 45.8102 0.120786
43.003 48.1697 0.0058814
40.6784 43.3939 0.31739
40.4461 40.5883 0.414674
39.1654 42.3178 0.508633
43.598 54.3305 2
40.5591 39.0394 2
39.0604 40.6605 2
43.3175 50.2706 2
41.6485 47.3511 2
41.5751 44.9505 2
37.496 42.4588 2
39.3608 44.1129 2
41.7514 52.7993 4.00008
39.0706 39.0788 3.56119
37.5039 40.7196 3.58928
35.8442 42.3272 3.48866
40.7882 49.3972 3.99406
39.7081 45.6319 3.8091
37.4992 44.3134 3.68482
42.053 56.2352 0.0118055
40.3657 54.8025 2
38.7204 53.5958 3.99652
35.607 63.1812 0.0275225
38.2458 60.2857 0.0188397
38.9043 56.3794 0.00648483
35.364 60.873 2
36.9288 57.5753 2
37.9792 55.053 2
36.316 55.1374 3.99741
34.4941 58.4802 3.9936
33.3483 61.4812 0.0209749
28.6885 62.174 0.0198698
31.0795 61.2001 0.0171933
32.3695 59.6993 2
29.4253 60.2552 2
30.3396 57.7778 3.98591
28.0724 58.334 2
27.04 56.783 3.96915
27.5968 59.5487 0.0196633
25.4243 58.5452 2
23.9505 56.736 3.95931
21.4402 57.3218 3.95853
22.0257 59.5629 3.97986
22.8227 58.1825 2
22.7499 61.985 3.97291
23.4245 60.2893 2
23.8328 59.0253 0.0065627
25.0528 60.8227 0.0234938
24.4437 62.7449 2
23.6864 64.6959 3.97505
26.2368 63.4616 0.0240415
25.5501 65.4818 2
24.8105 67.587 3.9821
27.4653 66.1719 0.0210264
26.837 68.3268 2
26.1675 70.6034 3.9898
28.9083 68.9378 0.0165976
28.3709 71.2622 2
27.7943 73.7221 4
30.6169 71.7773 0.00918318
30.1841 74.2794 2
32.6054 74.6784 0
29.8128 7.9998 3.97993
31.2547 5.33399 3.98707
31.7894 7.42226 2
32.9823 2.7018 3.99268
33.3489 4.92582 2
33.7255 6.98454 0.0168675
35.0474 0.080333 4
35.2455 2.46332 2
35.4368 4.68759 0.010949
37.5 0 2
37.5158 2.38769 0.00694524
39.9526 0.0806499 0
40.5996 35.8826 3.61102
42.2457 35.7356 2
43.4946 35.6191 0.334239
28.5467 10.702 3.97729
39.0743 34.3192 3.55089
40.5007 34.3751 2
41.9232 34.2452 0.540574
47.3219 34.3586 0.0583485
44.1278 33.1506 0.16457
41.8654 32.5559 0.295071
40.5875 32.9073 0.561321
45.4761 31.7605 2
43.0772 31.3487 2
40.7682 31.5009 2
39.1884 32.6494 2
43.8277 30.0065 3.89284
41.5785 30.0526 3.84318
39.3752 30.9281 3.64915
37.5318 32.5565 3.53324
34.0994 12.9522 3.97492
35.6964 11.7747 2
37.312 10.6346 0.0184465
31.1923 11.9999 3.97774
33.1026 11.2268 2
34.757 10.3901 0.0199312
30.4844 10.0225 2
32.3808 9.37574 0.0221329
46.9757 29.7282 0.0164799
46.7045 25.3284 0.0275324
36.586 12.9656 0.0254556
44.2025 21.6233 0.0197517
41.7208 17.9555 0.0214403
38.677 14.8685 0.0251601
35.7737 14.8124 2
44.9513 27.8668 2
38.6602 17.6891 2
41.2608 20.9595 2
43.544 24.2462 2
33.616 15.9098 3.98686
42.7194 26.7028 3.98466
40.7751 23.5703 3.99429
38.3865 20.4623 3.99346
35.8444 17.5745 3.9848
39.0909 37.4873 3.57268
40.6082 37.4519 2
42.4098 37.4654 0.480584
43.601 54.3336 0.00447782
43.3254 50.2577 -0.00383308
40.5472 39.039 0.393972
41.556 44.9043 0.157786
41.6447 47.3146 0.075341
39.3446 44.0448 0.349811
39.0611 40.6645 0.445782
37.501 42.4368 0.464254
41.743 52.8004 2
39.0631 39.0663 2
37.4999 40.7104 2
40.7688 49.4141 2
35.8434 42.3433 2
39.7258 45.692 2
37.4931 44.378 2
39.7144 51.5916 4.0028
37.5088 39.081 3.60085
35.9546 40.6793 3.55526
34.4458 42.0769 3.44119
35.653 44.0614 3.64017
38.6566 48.2834 3.93515
37.5303 45.9249 3.84258
40.3667 54.7941 0.00511245
38.7194 53.5912 2
36.7623 52.9153 3.99667
35.3642 60.88 0.0206618
36.9273 57.5683 0.00860674
37.979 55.055 0.00512348
34.4927 58.4778 2
36.3198 55.1265 2
33.2728 55.3398 3.99292
32.3693 59.6968 0.00399541
29.4237 60.2566 0.0230398
30.3421 57.773 2
28.8366 55.2848 3.98895
28.0692 58.3354 -0.0145679
27.0434 56.7817 2
25.4838 55.0661 3.95578
21.9977 55.2511 3.96016
25.4213 58.5456 0.0201951
23.953 56.7378 2
20.3132 56.9538 3.96281
20.6873 58.7191 3.96523
21.4428 57.3231 2
21.1854 61.1133 3.97285
22.0269 59.5642 2
22.8208 58.1807 0.0324454
21.9022 63.8157 3.97458
22.7512 61.9863 2
23.4231 60.2895 0.0228143
24.4429 62.7422 0.0233066
23.6861 64.6953 2
22.8391 66.729 3.97914
25.5504 65.4804 0.0223163
24.8094 67.5874 2
24.0118 69.805 3.98969
26.8381 68.3258 0.0167628
26.1657 70.6033 2
25.446 73.0099 4
28.3722 71.2626 0.00995238
27.7943 73.7222 2
30.1842 74.2788 0
27.8226 8.65952 3.98024
29.1569 5.88083 3.98529
29.8114 7.99604 2
30.7278 3.09856 3.99241
31.2541 5.33256 2
31.7899 7.42379 0.0182211
32.6053 0.320823 4
32.9813 2.70124 2
33.3493 4.92737 0.0119812
35.0474 0.0802903 2
35.2462 2.46358 0.00690607
37.5 0 0
39.0532 35.9042 3.57174
40.5813 35.8817 2
42.2382 35.735 0.53312
28.5448 10.6991 2
26.6254 11.3994 3.97791
29.2332 12.6509 3.98136
37.5267 34.2797 3.58869
39.0919 34.3354 2
40.4896 34.3675 0.414207
45.4408 31.7759 0.0990715
43.0296 31.3848 0.175593
40.7221 31.5708 0.31774
39.1856 32.6671 0.513441
43.8578 29.9729 2
41.6062 30.0092 2
39.3842 30.8616 2
37.5338 32.5326 2
42.0024 28.6961 3.86318
39.7126 29.3302 3.83162
37.5279 30.6806 3.68908
35.8645 32.6679 3.49373
31.9285 14.4992 3.98075
34.0998 12.9575 2
35.6963 11.7881 0.0238486
31.1904 11.9916 2
33.102 11.228 0.0270202
30.4865 10.0276 0.0227726
44.9569 27.8695 0.00393066
43.5572 24.2638 -0.0256487
35.7708 14.8054 0.0208305
41.2786 20.9693 0.0102323
38.6609 17.6849 0.0166282
33.6097 15.895 2
35.8399 17.567 2
42.7574 26.6816 2
38.3687 20.5199 2
40.7691 23.551 2
33.5518 17.4533 3.98183
40.2065 26.0032 3.95637
38.0297 23.3199 3.99793
35.5574 20.2243 3.99693
37.5157 37.4878 3.61641
39.0776 37.479 2
40.6038 37.4474 0.377098
41.7514 52.7993 -8.40026e-05
40.7882 49.3972 0.00593857
39.0706 39.0788 0.438812
39.7081 45.6319 0.190902
37.4992 44.3134 0.31518
37.5039 40.7196 0.410716
35.8442 42.3272 0.511344
39.6954 51.5959 2
37.5104 39.0778 2
35.9519 40.6683 2
38.6753 48.3433 2
34.4175 42.0923 2
35.6327 44.1256 2
37.5227 45.9842 2
37.681 50.5878 3.99454
35.9667 39.0895 3.57118
34.5629 40.6137 3.58859
33.4752 41.7883 3.46547
34.3308 43.407 3.67647
35.2555 45.656 3.82824
36.9216 47.891 3.90004
38.7204 53.5958 0.00347938
36.7613 52.8865 2
34.4593 52.2404 3.99901
34.4941 58.4802 0.00640046
36.316 55.1374 0.00258743
33.2789 55.3492 2
30.678 53.2506 3.99392
30.3396 57.7778 0.0140899
28.8388 55.2797 2
27.1238 53.3542 3.95714
27.04 56.783 0.0308454
25.4876 55.0676 2
23.8518 53.3638 3.95446
20.8077 53.0902 3.95821
20.0939 55.7407 3.96162
21.9974 55.2528 2
23.9505 56.736 0.040693
19.4999 57.8238 3.96264
20.3104 56.956 2
19.727 60.1442 3.97503
20.6863 58.7206 2
21.4402 57.3218 0.0414721
20.2173 62.8234 3.97139
21.1863 61.1149 2
22.0257 59.5629 0.0201403
20.9411 65.7547 3.97634
21.9023 63.8192 2
22.7499 61.985 0.0270937
23.6864 64.6959 0.0249465
22.838 66.7289 2
21.9145 68.872 3.98886
24.8105 67.587 0.017896
24.0095 69.8041 2
23.1494 72.1454 4
26.1675 70.6034 0.0101995
25.446 73.0099 2
27.7943 73.7221 0
25.8619 9.38906 3.97901
27.0716 6.54518 3.9839
27.8206 8.65729 2
28.4903 3.64451 3.99156
29.1558 5.87854 2
29.8128 7.9998 0.0200731
30.1841 0.720592 4
30.7263 3.0982 2
31.2547 5.33399 0.0129256
32.6053 0.320817 2
32.9823 2.7018 0.00732459
35.0474 0.080333 0
37.5119 35.9003 3.59573
39.037 35.8968 2
40.5996 35.8826 0.388979
24.7831 12.0874 3.97629
23.7671 14.3947 3.97706
28.5467 10.702 0.0227055
26.6236 11.396 2
29.2304 12.649 2
27.3006 13.3843 3.97824
29.7957 14.2105 3.98265
35.9634 34.3199 3.55595
37.5347 34.2867 2
39.0743 34.3192 0.449113
37.5318 32.5565 0.466757
43.8277 30.0065 0.107155
41.5785 30.0526 0.156823
39.3752 30.9281 0.350852
42.0361 28.6353 2
39.738 29.2738 2
37.5298 30.6156 2
35.8656 32.6529 2
39.8781 27.9645 3.87768
37.4884 29.0605 3.83349
35.6855 30.945 3.65098
34.4663 32.9196 3.44295
30.9447 16.8546 3.99061
31.9231 14.4854 2
34.0994 12.9522 0.0250764
31.1923 11.9999 0.0222628
42.7194 26.7028 0.0153428
40.7751 23.5703 0.00570969
33.616 15.9098 0.013136
35.8444 17.5745 0.0151994
38.3865 20.4623 0.00653874
33.5444 17.4639 2
35.5634 20.2261 2
40.278 25.9833 2
38.0161 23.2804 2
32.893 19.8511 3.99641
37.6601 25.6409 3.96575
35.253 22.9704 4.00432
35.9454 37.4842 3.57515
37.5072 37.4872 2
39.0909 37.4873 0.427315
39.7144 51.5916 -0.0027961
38.6566 48.2834 0.0648491
37.5088 39.081 0.399151
37.5303 45.9249 0.157423
35.653 44.0614 0.359832
35.9546 40.6793 0.444737
34.4458 42.0769 0.558814
37.6622 50.6258 2
35.9868 39.0772 2
34.5256 40.6086 2
36.9079 47.9531 2
33.4391 41.8154 2
34.2836 43.4738 2
35.2344 45.7104 2
35.5667 49.7797 3.98526
34.4572 39.0821 3.60892
33.1071 40.7333 3.46519
33.1813 42.4203 3.71048
33.4771 44.9114 3.83211
34.492 47.0422 3.87224
36.7623 52.9153 0.00333436
34.4499 52.2517 2
32.2526 51.0474 4.00967
33.2728 55.3398 0.00707717
30.6822 53.2529 2
28.7248 51.4587 3.98216
28.8366 55.2848 0.0110477
27.1262 53.3524 2
25.4307 51.5979 3.95308
25.4838 55.0661 0.04422
23.8536 53.3697 2
22.3764 51.6525 3.95191
19.6666 51.48 3.96151
19.1927 54.1941 3.96121
20.8102 53.0886 2
18.5662 56.6444 3.96313
20.0923 55.7423 2
21.9977 55.2511 0.0398409
18.3984 59.056 3.96521
19.4974 57.8256 2
20.3132 56.9538 0.0371903
18.6319 61.7146 3.97178
19.7273 60.1464 2
20.6873 58.7191 0.034772
19.1306 64.6651 3.97539
20.2178 62.8272 2
21.1854 61.1133 0.0271515
19.8887 67.8082 3.98642
20.9401 65.7538 2
21.9022 63.8157 0.0254195
22.8391 66.729 0.0208552
21.9118 68.8706 2
20.9142 71.1327 4
24.0118 69.805 0.0103104
23.1494 72.1455 2
25.446 73.0099 0
23.106 12.8109 3.97718
23.9748 10.178 3.97642
25.0252 7.31629 3.98242
25.8594 9.38695 2
26.2821 4.32859 3.99066
27.07 6.54387 2
27.8226 8.65952 0.0197579
27.7943 1.27781 4
28.4881 3.64424 2
29.1569 5.88083 0.0147091
30.1841 0.720551 2
30.7278 3.09856 0.00758751
32.6053 0.320823 0
35.9509 35.8897 3.56106
37.5326 35.909 2
39.0532 35.9042 0.428259
24.7797 12.0841 2
23.7672 14.3991 2
22.5014 15.0854 3.97836
25.3697 13.9372 3.97174
24.0557 15.654 3.98637
26.6254 11.3994 0.022085
29.2332 12.6509 0.0186394
27.3006 13.3829 2
29.7887 14.2083 2
28.3815 15.978 3.98484
34.5821 34.3883 3.58418
35.9615 34.3234 2
37.5267 34.2797 0.411313
35.8645 32.6679 0.50627
37.5279 30.6806 0.310915
42.0024 28.6961 0.136819
39.7126 29.3302 0.168378
39.9057 27.9218 2
37.4855 29.0021 2
35.6707 30.8731 2
34.4327 32.9061 2
37.6306 27.6945 3.8719
35.3132 29.3455 3.82963
34.3385 31.5875 3.68098
33.4945 33.2054 3.4631
30.2382 19.444 3.98217
30.9367 16.8417 2
31.9285 14.4992 0.0192479
40.2065 26.0032 0.0436269
38.0297 23.3199 0.00206916
33.5518 17.4533 0.0181651
35.5574 20.2243 0.00307051
32.8946 19.8797 2
35.2497 22.9603 2
37.7135 25.6201 2
32.4454 22.5887 3.99701
35.1349 25.5521 3.98991
34.4154 37.5059 3.62685
35.9455 37.494 2
37.5157 37.4878 0.383589
37.681 50.5878 0.00545816
36.9216 47.891 0.0999564
35.9667 39.0895 0.428816
35.2555 45.656 0.17176
34.3308 43.407 0.323526
34.5629 40.6137 0.411415
33.4752 41.7883 0.534529
35.5472 49.7932 2
34.4519 39.0801 2
33.1006 40.7465 2
34.4658 47.0981 2
33.1374 42.4793 2
33.4504 44.9578 2
33.4262 48.8741 3.97345
32.7791 39.2341 3.47127
32.2234 41.0211 3.66333
32.0125 43.5919 3.82975
32.6755 46.0315 3.8737
34.4593 52.2404 0.000991489
32.2605 51.0545 2
30.2653 49.61 4.00043
30.678 53.2506 0.00608114
28.7276 51.4541 2
26.9488 49.8232 3.97435
27.1238 53.3542 0.042863
25.432 51.6009 2
23.8275 50.0084 3.96527
23.8518 53.3638 0.0455371
22.3782 51.6506 2
20.9947 50.1393 3.96396
18.4481 50.1831 3.96995
18.2156 52.6594 3.96403
19.665 51.479 2
17.6515 55.2431 3.9623
19.1912 54.1939 2
20.8077 53.0902 0.0417865
17.205 57.8121 3.96088
18.5625 56.6458 2
20.0939 55.7407 0.0383798
17.1479 60.5022 3.96684
18.3977 59.0572 2
19.4999 57.8238 0.0373553
17.4138 63.4425 3.96949
18.6331 61.7159 2
19.727 60.1442 0.0249652
17.9447 66.6155 3.98463
19.1299 64.6629 2
20.2173 62.8234 0.0286141
18.75 69.9759 4
19.8859 67.8057 2
20.9411 65.7547 0.0236648
21.9145 68.872 0.0111387
20.9142 71.1327 2
23.1494 72.1454 0
21.6017 13.6431 3.97474
22.195 11.0451 3.97354
23.1038 12.8144 2
23.0426 8.18304 3.98011
23.972 10.1779 2
24.1198 5.14346 3.99002
25.0229 7.31516 2
25.8619 9.38906 0.0209852
25.446 1.99014 4
26.2793 4.3291 2
27.0716 6.54518 0.016101
27.7943 1.27778 2
28.4903 3.64451 0.00843517
30.1841 0.720592 0
34.4833 35.9231 3.60487
35.9626 35.9054 2
37.5119 35.9003 0.404268
21.3368 15.8914 3.97871
24.7831 12.0874 0.0237065
23.7671 14.3947 0.0229353
25.3685 13.9191 2
22.503 15.0805 2
24.0592 15.6599 2
23.3057 16.2926 3.96694
25.4126 16.1239 3.98558
27.3006 13.3843 0.0217567
29.7957 14.2105 0.0173535
28.3734 15.9902 2
27.4796 18.8721 3.98348
33.1202 34.2679 3.47439
34.5436 34.4015 2
35.9634 34.3199 0.444054
34.4663 32.9196 0.557053
35.6855 30.945 0.349024
37.4884 29.0605 0.166512
39.8781 27.9645 0.122323
37.6021 27.6548 2
33.4616 33.1807 2
35.3124 29.2831 2
34.2957 31.5196 2
35.207 27.7887 3.8872
33.4738 30.0742 3.83337
33.2056 32.5725 3.70835
29.7584 22.0478 4.00633
30.2412 19.4535 2
30.9447 16.8546 0.00938649
37.6601 25.6409 0.0342465
35.253 22.9704 -0.00431868
32.893 19.8511 0.00359021
32.4486 22.58 2
35.1643 25.5431 2
32.0226 25.8592 4.00551
32.6053 37.5034 3.51826
34.4256 37.4999 2
35.9454 37.4842 0.424847
35.5667 49.7797 0.0147374
34.492 47.0422 0.127759
34.4572 39.0821 0.391081
33.4771 44.9114 0.167892
33.1813 42.4203 0.289525
33.1071 40.7333 0.534811
33.4089 48.8757 2
32.787 39.242 2
32.1815 41.0675 2
32.6466 46.0824 2
31.9615 43.6256 2
31.6119 47.7208 3.98093
31.5316 39.3654 3.66608
30.9088 41.8361 3.8417
31.0845 44.666 3.88491
32.2526 51.0474 -0.00967368
30.274 49.6389 2
28.4277 47.9986 3.96659
28.7248 51.4587 0.0178355
26.9487 49.8254 2
25.2415 48.265 3.96502
25.4307 51.5979 0.0469194
23.83 50.0075 2
22.2836 48.5853 3.97089
22.3764 51.6525 0.0480917
20.9945 50.1384 2
19.5677 48.9251 3.97346
17.3249 49.1981 3.97496
17.1597 51.2806 3.96899
18.4503 50.1814 2
16.6646 53.7655 3.96532
18.2136 52.6592 2
19.6666 51.48 0.0384898
16.1043 56.4052 3.96207
17.6509 55.2435 2
19.1927 54.1941 0.0387945
15.767 59.1708 3.96314
17.2003 57.8142 2
18.5662 56.6444 0.0368673
15.7936 62.1019 3.96822
17.1495 60.5043 2
18.3984 59.056 0.0347912
16.0914 65.2979 3.98272
17.4126 63.4481 2
18.6319 61.7146 0.0282192
16.6661 68.6801 4
17.942 66.6126 2
19.1306 64.6651 0.0246135
18.75 69.9759 2
19.8887 67.8082 0.0135847
20.9142 71.1327 0
20.2372 14.653 3.96785
21.5996 13.6553 2
20.537 12.0266 3.97382
21.146 9.15618 3.97731
22.1919 11.0424 2
23.106 12.8109 0.022823
22.019 6.08214 3.98945
23.0401 8.18262 2
23.9748 10.178 0.0235844
23.1494 2.85457 4
24.1164 5.14433 2
25.0252 7.31629 0.0175832
25.446 1.99012 2
26.2821 4.32859 0.00934349
27.7943 1.27781 0
32.7699 35.7776 3.48276
34.4682 35.9229 2
35.9509 35.8897 0.438942
21.34 15.8847 2
20.3517 17.0175 3.96707
22.1385 16.6906 3.96537
25.3697 13.9372 0.0282584
22.5014 15.0854 0.0216415
24.0557 15.654 0.0136291
25.4148 16.1175 2
23.3099 16.2901 2
24.26 18.5696 3.96928
27.1918 21.6647 3.9938
28.3815 15.978 0.0151626
27.4769 18.9164 2
32.2637 33.9754 3.65753
33.1163 34.2512 2
34.5821 34.3883 0.415822
33.4945 33.2054 0.536902
34.3385 31.5875 0.319021
35.3132 29.3455 0.170369
37.6306 27.6945 0.128099
35.207 27.74 2
33.1321 32.5134 2
33.4433 30.0328 2
32.9246 28.4339 3.89617
32.023 31.4021 3.82068
29.1546 24.5415 4.00683
29.7485 22.067 2
30.2382 19.444 0.0178275
35.1349 25.5521 0.0100911
32.4454 22.5887 0.0029867
32.0125 25.8314 2
30.1596 27.5196 3.97624
31.1192 37.4933 3.67128
32.6094 37.5027 2
34.4154 37.5059 0.373149
33.4262 48.8741 0.0265534
32.6755 46.0315 0.126299
32.7791 39.2341 0.528726
32.0125 43.5919 0.170253
32.2234 41.0211 0.336673
31.565 47.7455 2
31.4544 39.3876 2
30.8647 41.8732 2
31.0403 44.7064 2
29.8562 46.3297 3.99005
30.0713 39.7973 3.85157
29.5916 42.9466 3.89573
30.2653 49.61 -0.000432773
28.4254 47.9993 2
26.6576 46.4305 3.98008
26.9488 49.8232 0.0256475
25.2428 48.2634 2
23.5369 46.8486 3.97323
23.8275 50.0084 0.0347265
22.2837 48.5855 2
20.577 47.4329 3.97644
20.9947 50.1393 0.0360385
19.5684 48.9237 2
18.1609 48.0293 3.97693
16.5567 48.5592 3.97652
17.3254 49.197 2
16.2245 50.0535 3.97331
15.6751 52.3137 3.96904
17.1611 51.2796 2
18.4481 50.1831 0.0300538
15.0567 54.8991 3.96382
16.6658 53.7652 2
18.2156 52.6594 0.0359666
14.5045 57.7001 3.9617
16.1049 56.4055 2
17.6515 55.2431 0.0376954
14.2714 60.6679 3.96761
15.7696 59.1717 2
17.205 57.8121 0.039121
14.3362 63.8544 3.97835
15.7944 62.1038 2
17.1479 60.5022 0.033162
14.6715 67.2507 4
16.089 65.2941 2
17.4138 63.4425 0.0305147
16.6661 68.6801 2
17.9447 66.6155 0.015373
18.75 69.9759 0
18.9576 15.8355 3.97589
20.2386 14.6503 2
18.9908 13.1505 3.97296
21.6017 13.6431 0.0252602
20.5356 12.0275 2
19.3463 10.2473 3.9747
19.9938 7.14747 3.98755
21.1428 9.15615 2
22.195 11.0451 0.0264589
20.9142 3.86727 4
22.0149 6.08402 2
23.0426 8.18304 0.0198922
23.1494 2.85451 2
24.1198 5.14346 0.00997684
25.446 1.99014 0
31.558 35.6344 3.6613
32.7731 35.7692 2
34.4833 35.9231 0.395134
21.3368 15.8914 0.0212899
22.1416 16.6838 2
20.3537 17.0141 2
19.3574 18.4875 3.9573
21.8352 17.9418 3.97707
25.4126 16.1239 0.0144155
23.3057 16.2926 0.0330618
24.2505 18.5927 2
22.4412 20.0139 3.97423
24.7736 21.5285 3.98791
26.7783 23.8257 3.9833
27.1982 21.5836 2
27.4796 18.8721 0.0165227
30.9644 33.1666 3.84392
32.2195 33.9225 2
33.1202 34.2679 0.525614
33.2056 32.5725 0.291649
33.4738 30.0742 0.16663
35.207 27.7887 0.112804
32.8847 28.4012 2
31.9674 31.3591 2
30.7778 29.8135 3.92195
28.4254 26.7038 3.99674
29.1393 24.5443 2
29.7584 22.0478 -0.00633384
32.0226 25.8592 -0.00551242
30.1512 27.4964 2
29.6257 37.4912 3.84884
31.0539 37.4913 2
32.6053 37.5034 0.481741
31.6119 47.7208 0.0190676
31.0845 44.666 0.115093
31.5316 39.3654 0.333916
30.9088 41.8361 0.158302
29.8599 46.3328 2
29.9958 39.8098 2
29.559 42.9765 2
28.1361 44.6549 3.9691
27.8289 40.5152 3.93109
28.4277 47.9986 0.0334104
26.6564 46.4316 2
24.848 44.9625 3.97893
25.2415 48.265 0.0349843
23.5356 46.8479 2
21.6051 45.713 3.97778
22.2836 48.5853 0.0291126
20.5775 47.432 2
18.8972 46.5814 3.97653
19.5677 48.9251 0.0265372
18.1617 48.0282 2
16.7981 47.5824 3.97633
16.5581 48.5582 2
15.571 48.9053 3.97555
17.3249 49.1981 0.0250434
16.2263 50.0526 2
14.7881 50.8907 3.97244
14.0292 53.3606 3.96679
15.6763 52.3131 2
17.1597 51.2806 0.0310139
13.3396 56.1251 3.96153
15.057 54.8991 2
16.6646 53.7655 0.0346783
12.8586 59.1073 3.96582
14.5086 57.6999 2
16.1043 56.4052 0.0379319
12.6822 62.2968 3.97614
14.273 60.668 2
15.767 59.1708 0.0368564
12.7746 65.6939 4
14.334 63.8509 2
15.7936 62.1019 0.031781
14.6714 67.2507 2
16.0914 65.2979 0.0172832
16.6661 68.6801 0
17.723 17.2155 3.96257
18.9575 15.8341 2
17.527 14.4204 3.96801
20.2372 14.653 0.0321468
18.9902 13.155 2
17.6436 11.47 3.97338
20.537 12.0266 0.0261762
19.3426 10.248 2
18.0541 8.3409 3.98532
18.75 5.0241 4
19.9891 7.15 2
21.146 9.15618 0.0226856
20.9142 3.86727 2
22.019 6.08214 0.0105526
23.1494 2.85457 0
30.1003 35.2065 3.85019
31.4823 35.6102 2
32.7699 35.7776 0.517242
22.1385 16.6906 0.0346337
20.3517 17.0175 0.0329255
21.8342 17.9411 2
19.3502 18.4811 2
18.1943 20.0429 3.96171
21.0231 19.4845 3.96561
24.26 18.5696 0.0307219
22.4312 20.0206 2
24.7799 21.5121 2
22.6198 21.8596 3.98075
25.0553 23.264 3.97155
26.0308 26.0788 3.97886
26.7745 23.8198 2
27.1918 21.6647 0.00620416
29.3565 32.5134 3.89585
30.8944 33.1311 2
32.2637 33.9754 0.342466
32.023 31.4021 0.179316
32.9246 28.4339 0.103829
30.7556 29.803 2
27.7925 29.2843 4.01423
28.4121 26.7122 2
29.1546 24.5415 -0.00683472
30.1596 27.5196 0.0237576
27.9751 37.363 3.89641
29.5514 37.4842 2
31.1192 37.4933 0.32872
29.8562 46.3297 0.00994603
29.5916 42.9466 0.104268
30.0713 39.7973 0.148427
28.131 44.711 2
27.7965 40.5156 2
26.227 43.0257 3.9868
25.1016 39.4378 3.97187
26.6576 46.4305 0.0199237
24.8373 44.9644 2
22.7648 43.7518 3.97587
23.5369 46.8486 0.0267719
21.6016 45.7147 2
19.6715 44.819 3.97616
20.577 47.4329 0.0235638
18.8969 46.5818 2
17.158 46.0809 3.97614
18.1609 48.0293 0.0230744
16.7992 47.5818 2
15.3374 47.5592 3.976
16.5567 48.5592 0.0234798
15.5728 48.9044 2
14.0979 49.4577 3.97476
16.2245 50.0535 0.0266945
14.7893 50.89 2
13.0993 51.8065 3.9692
12.2455 54.4857 3.96342
14.0299 53.3602 2
15.6751 52.3137 0.0309585
11.5459 57.4458 3.96452
13.3397 56.1252 2
15.0567 54.8991 0.036178
11.1374 60.6222 3.97271
12.8605 59.1065 2
14.5045 57.7001 0.0383005
10.9835 64.0165 4
12.6805 62.2923 2
14.2714 60.6679 0.032393
12.7745 65.694 2
14.3362 63.8544 0.0216517
14.6715 67.2507 0
16.5326 18.7248 3.96201
17.7175 17.2124 2
16.1219 15.8246 3.9658
18.9576 15.8355 0.0241107
17.5271 14.4174 2
16.0278 12.84 3.97043
18.9908 13.1505 0.0270366
17.6415 11.4781 2
16.2053 9.66519 3.98267
19.3463 10.2473 0.0253019
18.049 8.34549 2
16.6661 6.31991 4
18.75 5.02404 2
19.9938 7.14747 0.0124546
20.9142 3.86727 0
28.4943 34.8511 3.89734
30.0136 35.1707 2
31.558 35.6344 0.338696
16.936 21.4803 3.96732
21.8352 17.9418 0.0229326
19.3574 18.4875 0.0426955
21.0121 19.4803 2
18.1937 20.0406 2
20.021 21.7019 3.97134
22.4412 20.0139 0.0257667
24.7736 21.5285 0.0120891
22.6158 21.8648 2
25.0467 23.267 2
23.3446 24.7443 3.97193
25.3433 28.6793 3.98384
26.0229 26.0853 2
26.7783 23.8257 0.0167042
27.211 31.8732 3.9819
29.3201 32.4918 2
30.9644 33.1666 0.156085
30.7778 29.8135 0.0780451
27.8042 29.2625 2
28.4254 26.7038 0.00325511
25.7985 36.8477 3.97088
27.954 37.3647 2
29.6257 37.4912 0.151162
28.1361 44.6549 0.0308981
27.8289 40.5152 0.0689078
26.2032 43.0485 2
25.0756 39.4409 2
23.9818 41.7705 3.98225
22.8198 38.5235 3.97986
24.848 44.9625 0.0210711
22.7622 43.7529 2
20.555 42.7709 3.9752
21.6051 45.713 0.0222239
19.6718 44.8195 2
17.5684 44.2614 3.97553
18.8972 46.5814 0.02347
17.1584 46.0811 2
15.3021 45.9849 3.97581
16.7981 47.5824 0.0236685
15.3389 47.5585 2
13.629 47.9235 3.97564
15.571 48.9053 0.0244471
14.0996 49.4569 2
12.3307 50.19 3.97135
14.7881 50.8907 0.0275609
13.1001 51.8059 2
11.2424 52.7997 3.96498
10.3409 55.7022 3.96404
12.2464 54.4853 2
14.0292 53.3606 0.0332134
9.70432 58.8454 3.97255
11.5473 57.4453 2
13.3396 56.1251 0.0384736
9.30605 62.2254 4
11.1362 60.618 2
12.8586 59.1073 0.0341785
10.9835 64.0165 2
12.6822 62.2968 0.0238561
12.7746 65.6939 0
15.3236 20.2636 3.96389
16.5339 18.7242 2
14.7906 17.3467 3.9633
17.723 17.2155 0.0374347
16.1235 15.8229 2
14.4905 14.3229 3.96733
17.527 14.4204 0.0319927
16.0272 12.8366 2
14.4476 11.117 3.98023
17.6436 11.47 0.0266161
16.2007 9.67096 2
14.6715 7.74927 4
18.0541 8.3409 0.0146808
16.6661 6.31988 2
18.75 5.0241 0
26.4543 34.3628 3.97484
28.4771 34.8584 2
30.1003 35.2065 0.149807
18.1968 22.4476 3.97428
15.8402 23.0243 3.9714
16.9392 21.4801 2
21.0231 19.4845 0.0343938
18.1943 20.0429 0.0382875
20.0199 21.6998 2
20.1423 24.5415 3.97197
22.6198 21.8596 0.0192506
25.0553 23.264 0.028454
23.3409 24.7458 2
22.7066 28.0128 3.9716
24.7766 31.3691 3.98229
25.3492 28.6672 2
26.0308 26.0788 0.0211438
27.1848 31.8343 2
29.3565 32.5134 0.104152
27.7925 29.2843 -0.0142257
23.5504 36.2975 3.98008
25.7786 36.8443 2
27.9751 37.363 0.103591
26.227 43.0257 0.013204
25.1016 39.4378 0.0281319
23.9601 41.7689 2
22.8057 38.518 2
21.6636 40.5911 3.97462
21.013 37.8 3.97678
22.7648 43.7518 0.0241307
20.5545 42.7712 2
18.0486 42.0137 3.97567
19.6715 44.819 0.0238394
17.5685 44.2617 2
15.3514 44.1065 3.97544
17.158 46.0809 0.0238572
15.3025 45.9847 2
13.3289 46.214 3.97587
15.3374 47.5592 0.0240025
13.6306 47.9227 2
11.7215 48.4911 3.97327
14.0979 49.4577 0.0252408
12.3324 50.1891 2
10.3735 51.0468 3.96628
13.0993 51.8065 0.0307974
11.243 52.799 2
9.2526 53.883 3.96409
8.38781 56.9799 3.97428
10.3452 55.7004 2
12.2455 54.4857 0.0365815
7.74927 60.3285 4
9.7033 58.8413 2
11.5459 57.4458 0.0354759
9.306 62.2255 2
11.1374 60.6222 0.0272871
10.9835 64.0165 0
14.1595 21.8268 3.96739
15.3221 20.2625 2
13.5203 18.9437 3.96278
16.5326 18.7248 0.0379866
14.7916 17.3458 2
13.0357 15.9083 3.96901
16.1219 15.8246 0.0342019
14.4923 14.3213 2
12.7855 12.6928 3.97721
16.0278 12.84 0.029568
14.4445 11.1241 2
12.7746 9.30605 4
16.2053 9.66519 0.0173331
14.6715 7.74924 2
16.6661 6.31991 0
24.1285 33.8818 3.98074
26.434 34.3616 2
28.4943 34.8511 0.102659
18.0711 24.1807 3.97278
18.2042 22.448 2
14.6745 24.5532 3.9734
15.8429 23.0242 2
16.936 21.4803 0.0326799
19.6804 27.3807 3.97409
20.021 21.7019 0.0286641
20.1364 24.5402 2
22.0835 30.8342 3.97445
23.3446 24.7443 0.0280701
22.706 28.0154 2
24.7426 31.3663 2
25.3433 28.6793 0.016162
27.211 31.8732 0.0181041
21.1334 35.9656 3.97666
23.5493 36.2987 2
25.7985 36.8477 0.029123
23.9818 41.7705 0.0177499
22.8198 38.5235 0.020137
21.668 40.5931 2
21.0128 37.7984 2
18.8118 38.9833 3.97708
20.555 42.7709 0.0247973
18.0482 42.0138 2
15.3364 41.8582 3.97598
17.5684 44.2614 0.0244665
15.351 44.1065 2
13.0933 44.3229 3.97581
15.3021 45.9849 0.0241929
13.3301 46.2135 2
11.2368 46.6805 3.97493
13.629 47.9235 0.0243552
11.7236 48.4901 2
9.6435 49.2096 3.96763
12.3307 50.19 0.0286507
10.3742 51.046 2
8.28379 51.9979 3.9641
11.2424 52.7997 0.0350211
9.25444 53.8814 2
7.19686 55.0318 3.9753
6.31991 58.3339 4
8.38663 56.9759 2
10.3409 55.7022 0.0359615
7.74924 60.3285 2
9.70432 58.8454 0.0274495
9.30605 62.2254 0
13.5362 25.4469 3.97606
13.0625 23.3534 3.97035
14.1595 21.8263 2
12.3357 20.5923 3.96378
15.3236 20.2636 0.0361087
13.5216 18.943 2
11.6692 17.5813 3.96732
14.7906 17.3467 0.0367041
13.0391 15.9074 2
11.2237 14.3787 3.97356
14.4905 14.3229 0.032674
12.7832 12.6988 2
10.9835 10.9835 4
14.4476 11.117 0.0197689
12.7745 9.306 2
14.6715 7.74927 0
21.4803 33.4994 3.97639
24.1321 33.868 2
26.4543 34.3628 0.0251633
16.3992 26.5333 3.97434
18.0752 24.1807 2
18.1968 22.4476 0.0257153
14.6739 24.5532 2
15.8402 23.0243 0.0286001
19.0828 30.3262 3.97468
19.6808 27.381 2
20.1423 24.5415 0.0280326
22.101 30.8358 2
22.7066 28.0128 0.0284019
24.7766 31.3691 0.0177107
18.4169 36.0006 3.9777
21.1357 35.9651 2
23.5504 36.2975 0.0199174
21.6636 40.5911 0.0253827
21.013 37.8 0.0232167
18.8102 38.9828 2
14.8318 39.1576 3.97698
18.0486 42.0137 0.0243305
15.3357 41.8579 2
12.7884 42.2318 3.97611
15.3514 44.1065 0.0245552
13.0941 44.3225 2
10.8246 44.7567 3.97624
13.3289 46.214 0.0241314
11.239 46.6795 2
9.03068 47.2921 3.96876
11.7215 48.4911 0.0267307
9.64431 49.2088 2
7.44731 50.0323 3.96416
10.3735 51.0468 0.0337161
8.28375 51.9964 2
6.13745 53.0076 3.97556
9.2526 53.883 0.0359114
7.19618 55.0282 2
5.0241 56.25 4
6.31988 58.3339 2
8.38781 56.9799 0.0257242
7.74927 60.3285 0
13.8176 26.9045 3.97553
12.1721 24.8519 3.97337
13.5357 25.447 2
11.266 22.2756 3.96583
13.0628 23.3534 2
14.1595 21.8268 0.0326122
12.3381 20.5923 2
10.4026 19.3291 3.96487
13.5203 18.9437 0.0372222
11.6722 17.5809 2
9.76449 16.162 3.9727
13.0357 15.9083 0.0309873
11.2222 14.3843 2
9.30607 12.7746 4
12.7855 12.6928 0.022795
10.9835 10.9835 2
12.7746 9.30605 0
18.5753 33.1901 3.97601
21.4792 33.5029 2
24.1285 33.8818 0.0192556
16.0233 29.7556 3.97552
16.3987 26.5331 2
18.0711 24.1807 0.0272176
14.6745 24.5532 0.0266006
19.081 30.3262 2
19.6804 27.3807 0.025913
22.0835 30.8342 0.0255537
15.4677 36.0371 3.97732
18.4163 36.0011 2
21.1334 35.9656 0.0233392
13.0191 37.828 3.97696
18.8118 38.9833 0.0229163
14.8314 39.1574 2
12.2885 40.1161 3.97659
15.3364 41.8582 0.0240194
12.7887 42.2313 2
10.427 42.7427 3.97635
13.0933 44.3229 0.0241902
10.827 44.7558 2
8.50899 45.2987 3.9698
11.2368 46.6805 0.0250669
9.03104 47.2916 2
6.73619 47.998 3.96433
9.6435 49.2096 0.0323744
7.44631 50.0312 2
5.21405 50.911 3.97519
8.28379 51.9979 0.0359015
6.13718 53.005 2
3.86727 54.0858 4
7.19686 55.0318 0.0247012
5.02404 56.25 2
6.31991 58.3339 0
13.301 29.1124 3.97513
11.617 26.5462 3.97434
13.8173 26.9046 2
10.3194 24.0022 3.96766
12.1747 24.8525 2
13.5362 25.4469 0.0239367
9.26452 21.1454 3.96476
11.2665 22.2757 2
13.0625 23.3534 0.0296516
12.3357 20.5923 0.0362236
10.4096 19.3307 2
8.42063 18.0318 3.97394
11.6692 17.5813 0.0326848
9.76367 16.1671 2
7.74928 14.6715 4
11.2237 14.3787 0.0264375
9.30602 12.7745 2
10.9835 10.9835 0
15.0104 32.9227 3.97626
18.5741 33.1894 2
21.4803 33.4994 0.0236137
16.0236 29.7557 2
16.3992 26.5333 0.0256621
19.0828 30.3262 0.0253167
13.3213 36.221 3.97672
15.467 36.0371 2
18.4169 36.0006 0.0223009
13.0189 37.8279 2
11.614 38.3039 3.97689
14.8318 39.1576 0.023025
12.2894 40.116 2
10.0037 40.7339 3.97646
12.7884 42.2318 0.0238866
10.4303 42.742 2
8.0523 43.2536 3.971
10.8246 44.7567 0.0237583
8.51168 45.2981 2
6.13972 45.9036 3.96485
9.03068 47.2921 0.0312444
6.73501 47.9972 2
4.42525 48.7515 3.97476
7.44731 50.0323 0.035839
5.21416 50.9094 2
2.85457 51.8506 4
6.13745 53.0076 0.0244427
3.86727 54.0858 2
5.0241 56.25 0
12.4309 31.3101 3.97612
11.0284 28.4654 3.97525
13.3012 29.1125 2
9.53406 25.8277 3.96882
11.6196 26.547 2
13.8176 26.9045 0.0244684
8.24943 23.0274 3.96483
10.3209 24.0028 2
12.1721 24.8519 0.0266315
7.20277 19.9799 3.9752
9.27114 21.1474 2
11.266 22.2756 0.0341665
10.4026 19.3291 0.0351305
8.41982 18.0359 2
6.31992 16.6661 4
9.76449 16.162 0.0272993
7.74926 14.6714 2
9.30607 12.7746 0
12.468 34.3253 3.97648
15.0099 32.9234 2
18.5753 33.1901 0.0239852
16.0233 29.7556 0.0244821
11.1496 36.6195 3.97665
13.3211 36.221 2
15.4677 36.0371 0.0226785
13.0191 37.828 0.0230404
11.6152 38.3036 2
9.58335 38.8162 3.97672
12.2885 40.1161 0.0234096
10.0067 40.7334 2
7.65571 41.2011 3.97183
10.427 42.7427 0.0236498
8.05331 43.2531 2
5.65094 43.7667 3.96566
8.50899 45.2987 0.0301993
6.14006 45.9029 2
3.77055 46.5368 3.97499
6.73619 47.998 0.03567
4.42574 48.7506 2
1.99014 49.554 4
5.21405 50.911 0.0248134
2.85451 51.8506 2
3.86727 54.0858 0
11.2383 32.9559 3.97662
10.3339 30.4214 3.97599
12.4315 31.3107 2
8.84222 27.7571 3.96907
11.0305 28.466 2
13.301 29.1124 0.0248693
7.37007 24.9846 3.96473
9.5354 25.8284 2
11.617 26.5462 0.0256569
6.11975 22.002 3.97588
8.25093 23.0288 2
10.3194 24.0022 0.032339
5.02411 18.75 4
7.20225 19.9832 2
9.26452 21.1454 0.0352375
8.42063 18.0318 0.0260589
6.3199 16.6661 2
7.74928 14.6715 0
10.7342 35.0176 3.97656
12.4676 34.3255 2
15.0104 32.9227 0.0237406
9.24015 36.988 3.97681
11.1511 36.6195 2
13.3213 36.221 0.023278
11.614 38.3039 0.023109
9.58661 38.8159 2
7.3302 39.1775 3.97207
10.0037 40.7339 0.0235422
7.6575 41.2007 2
5.26575 41.6127 3.96615
8.0523 43.2536 0.0290038
5.65127 43.7661 2
3.24794 44.2815 3.97568
6.13972 45.9036 0.0351497
3.77097 46.5363 2
1.27781 47.2057 4
4.42525 48.7515 0.0252419
1.99012 49.554 2
2.85457 51.8506 0
10.3683 33.9052 3.97636
9.6111 32.1822 3.97663
11.24 32.9564 2
8.18102 29.715 3.96959
10.3366 30.4222 2
12.4309 31.3101 0.0238844
6.60959 27.0098 3.9648
8.84311 27.7576 2
11.0284 28.4654 0.0247518
5.17486 24.0943 3.97562
7.36915 24.9856 2
9.53406 25.8277 0.0311812
3.86728 20.9142 4
6.11958 22.0043 2
8.24943 23.0274 0.0351722
5.02406 18.75 2
7.20277 19.9799 0.0247997
6.31992 16.6661 0
9.05338 35.2907 3.97703
10.736 35.0177 2
12.468 34.3253 0.023522
7.10711 37.2064 3.97183
9.24351 36.9878 2
11.1496 36.6195 0.0233522
9.58335 38.8162 0.0232776
7.33244 39.1773 2
4.9929 39.4667 3.96679
7.65571 41.2011 0.0281727
5.26648 41.6123 2
2.85824 42.0016 3.97608
5.65094 43.7667 0.0343373
3.24822 44.281 2
0.720592 44.8159 4
3.77055 46.5368 0.0250111
1.27778 47.2057 2
1.99014 49.554 0
9.09372 33.7161 3.977
10.3709 33.9055 2
7.61021 31.6231 3.97042
9.61435 32.1829 2
11.2383 32.9559 0.0233793
5.9518 29.0705 3.96519
8.18261 29.7155 2
10.3339 30.4214 0.0240069
4.36214 26.247 3.97526
6.60801 27.0104 2
8.84222 27.7571 0.0309275
2.85458 23.1494 4
5.17509 24.0956 2
7.37007 24.9846 0.0352695
3.86728 20.9142 2
6.11975 22.002 0.0241241
5.02411 18.75 0
7.05523 35.3109 3.97145
9.05704 35.2909 2
10.7342 35.0176 0.0234367
4.843 37.3397 3.9672
7.10968 37.2063 2
9.24015 36.988 0.0231884
7.3302 39.1775 0.0279338
4.99364 39.4665 2
2.60609 39.7133 3.97656
5.26575 41.6127 0.0338484
2.85882 42.0015 2
0.320823 42.3947 4
3.24794 44.2815 0.024318
0.720551 44.8159 2
1.27781 47.2057 0
7.21876 33.4701 3.97108
9.09726 33.7167 2
10.3683 33.9052 0.0236387
5.42213 31.1345 3.96586
7.61219 31.6235 2
9.6111 32.1822 0.023375
3.6835 28.4432 3.9754
5.95223 29.0711 2
8.18102 29.715 0.030409
1.99015 25.446 4
4.36263 26.2476 2
6.60959 27.0098 0.0351993
2.85453 23.1494 2
5.17486 24.0943 0.0243751
3.86728 20.9142 0
4.85732 35.252 3.96702
7.05707 35.3109 2
9.05338 35.2907 0.0229718
2.49753 37.428 3.97743
4.8432 37.3398 2
7.10711 37.2064 0.0281731
4.9929 39.4667 0.0332099
2.60679 39.7136 2
0.080333 39.9526 4
2.85824 42.0016 0.0239223
0.320817 42.3947 2
0.720592 44.8159 0
5.05088 33.1909 3.96667
7.22073 33.4703 2
9.09372 33.7161 0.0229974
3.14751 30.6662 3.97593
5.42248 31.1351 2
7.61021 31.6231 0.029583
1.27793 27.7943 4
3.68398 28.4436 2
5.9518 29.0705 0.0348066
1.99013 25.446 2
4.36214 26.247 0.0247372
2.85458 23.1494 0
2.54962 35.1587 3.97713
4.85815 35.2523 2
7.05523 35.3109 0.0285479
0 37.5 4
2.49772 37.4285 2
4.843 37.3397 0.0327972
2.60609 39.7133 0.0234411
0.0802903 39.9526 2
0.320823 42.3947 0
2.76734 32.9057 3.97709
5.05121 33.1914 2
7.21876 33.4701 0.0289194
0.721173 30.1842 4
3.14799 30.6667 2
5.42213 31.1345 0.034139
1.27779 27.7943 2
3.6835 28.4432 0.0245953
1.99015 25.446 0
0.0806499 35.0474 4
2.5504 35.1593 2
4.85732 35.252 0.0329766
0 37.5 2
2.49753 37.428 0.0225746
0.080333 39.9526 0
0.32156 32.6054 4
2.76761 32.9063 2
5.05088 33.1909 0.0333299
0.72056 30.1841 2
3.14751 30.6662 0.0240678
1.27793 27.7943 0
0.0802889 35.0474 2
2.54962 35.1587 0.0228687
0 37.5 0
0.320817 32.6053 2
2.76734 32.9057 0.0229125
0.721173 30.1842 0
0.0806499 35.0474 0
0.32156 32.6054 0
CELLS 1910 17190
8 18 6 25 56 2 0 5 16
8 57 23 6 18 17 4 0 2
8 78 36 9 29 31 11 1 7
8 31 11 1 7 79 37 10 30
8 110 57 18 50 48 17 2 14
8 50 18 56 111 14 2 16 49
8 116 62 22 55 52 20 3 15
8 56 25 67 118 16 5 24 53
8 119 63 23 57 54 21 4 17
8 55 22 63 119 15 3 21 54
8 58 26 68 121 18 6 25 56
8 122 65 26 58 57 23 6 18
8 73 31 7 27 142 79 30 71
8 143 78 29 72 73 31 7 27
8 83 147 76 34 32 74 28 8
8 84 148 78 36 33 75 29 9
8 76 34 8 28 148 84 33 75
8 37 79 150 86 10 30 77 35
8 151 87 36 78 80 38 11 31
8 80 38 11 31 152 88 37 79
8 175 100 42 94 96 44 12 40
8 44 96 176 101 12 40 95 43
8 101 176 98 46 43 95 41 13
8 46 98 178 103 13 41 97 45
8 178 103 45 97 147 83 32 74
8 189 116 55 109 106 52 15 47
8 111 56 118 191 49 16 53 107
8 192 119 57 110 108 54 17 48
8 109 55 119 192 47 15 54 108
8 194 122 58 112 110 57 18 50
8 112 58 121 195 50 18 56 111
8 115 61 19 51 197 124 59 113
8 115 61 125 198 51 19 60 114
8 198 125 62 116 114 60 20 52
8 200 127 64 120 116 62 22 55
8 118 67 132 202 53 24 66 117
8 121 68 133 203 56 25 67 118
8 120 64 128 204 55 22 63 119
8 204 128 65 122 119 63 23 57
8 206 134 68 121 123 69 26 58
8 123 69 26 58 207 131 65 122
8 226 147 74 138 140 76 28 70
8 229 148 75 139 143 78 29 72
8 140 76 28 70 229 148 75 139
8 142 79 30 71 231 150 77 141
8 144 80 31 73 232 152 79 142
8 233 151 78 143 144 80 31 73
8 150 86 35 77 235 154 81 145
8 235 154 81 145 146 82 39 91
8 146 82 39 91 236 155 90 165
8 238 157 83 147 149 85 34 76
8 239 158 84 148 151 87 36 78
8 149 85 34 76 239 158 84 148
8 152 88 37 79 241 160 86 150
8 242 161 87 151 153 89 38 80
8 153 89 38 80 243 162 88 152
8 171 98 41 92 265 178 97 169
8 265 178 97 169 226 147 74 138
8 172 96 40 93 266 176 95 170
8 266 176 95 170 171 98 41 92
8 269 175 94 173 172 96 40 93
8 271 180 99 174 175 100 42 94
8 197 124 59 113 271 180 99 174
8 272 181 100 175 177 102 44 96
8 273 182 101 176 179 104 46 98
8 177 102 44 96 273 182 101 176
8 179 104 46 98 275 184 103 178
8 275 184 103 178 238 157 83 147
8 188 115 51 105 283 197 113 186
8 188 115 198 284 105 51 114 187
8 284 198 116 189 187 114 52 106
8 286 200 120 193 189 116 55 109
8 191 118 202 288 107 53 117 190
8 195 121 203 289 111 56 118 191
8 193 120 204 290 109 55 119 192
8 290 204 122 194 192 119 57 110
8 196 123 58 112 292 207 122 194
8 293 206 121 195 196 123 58 112
8 199 126 61 115 297 211 124 197
8 298 212 127 200 198 125 62 116
8 199 126 212 298 115 61 125 198
8 205 129 64 120 300 214 127 200
8 301 217 130 201 202 132 66 117
8 209 136 168 264 301 217 130 201
8 302 219 132 202 203 133 67 118
8 303 220 133 203 206 134 68 121
8 205 129 215 304 120 64 128 204
8 304 215 131 207 204 128 65 122
8 306 221 134 206 208 135 69 123
8 208 135 69 123 307 218 131 207
8 210 137 167 263 309 223 136 209
8 328 238 147 226 230 149 76 140
8 228 146 91 166 329 236 165 260
8 231 150 77 141 330 235 145 227
8 330 235 145 227 228 146 91 166
8 332 239 148 229 233 151 78 143
8 230 149 76 140 332 239 148 229
8 232 152 79 142 334 241 150 231
8 234 153 80 144 335 243 152 232
8 336 242 151 233 234 153 80 144
8 236 155 90 165 338 245 164 259
8 241 160 86 150 339 246 154 235
8 339 246 154 235 237 156 82 146
8 237 156 82 146 340 247 155 236
8 342 249 157 238 240 159 85 149
8 343 250 158 239 242 161 87 151
8 240 159 85 149 343 250 158 239
8 243 162 88 152 345 252 160 241
8 244 163 253 346 153 89 161 242
8 244 163 89 153 347 254 162 243
8 311 224 261 371 210 137 167 263
8 263 167 262 372 209 136 168 264
8 267 179 98 171 375 275 178 265
8 375 275 178 265 328 238 147 226
8 376 273 176 266 267 179 98 171
8 268 177 96 172 376 273 176 266
8 379 272 175 269 268 177 96 172
8 380 271 174 270 269 175 94 173
8 283 197 113 186 380 271 174 270
8 381 277 180 271 272 181 100 175
8 297 211 124 197 381 277 180 271
8 382 278 181 272 274 183 102 177
8 274 183 102 177 383 279 182 273
8 383 279 182 273 276 185 104 179
8 385 281 184 275 342 249 157 238
8 276 185 104 179 385 281 184 275
8 285 199 115 188 393 297 197 283
8 394 298 200 286 284 198 116 189
8 285 199 298 394 188 115 198 284
8 291 205 120 193 396 300 200 286
8 397 301 201 287 288 202 117 190
8 295 209 264 374 397 301 201 287
8 398 302 202 288 289 203 118 191
8 399 303 203 289 293 206 121 195
8 291 205 304 400 193 120 204 290
8 400 304 207 292 290 204 122 194
8 294 208 123 196 402 307 207 292
8 403 306 206 293 294 208 123 196
8 296 210 263 373 405 309 209 295
8 408 312 213 299 297 211 126 199
8 299 213 313 409 199 126 212 298
8 409 313 214 300 298 212 127 200
8 305 216 129 205 411 315 214 300
8 412 318 217 301 302 219 132 202
8 309 223 136 209 412 318 217 301
8 413 320 219 302 303 220 133 203
8 306 221 321 414 206 134 220 303
8 307 218 131 207 415 316 215 304
8 305 216 316 415 205 129 215 304
8 417 322 221 306 308 222 135 208
8 308 222 135 208 418 319 218 307
8 310 225 137 210 420 325 223 309
8 423 326 224 311 310 225 137 210
8 329 236 165 260 441 338 259 368
8 442 342 238 328 333 240 149 230
8 331 237 146 228 443 340 236 329
8 334 241 150 231 444 339 235 330
8 444 339 235 330 331 237 146 228
8 446 343 239 332 336 242 151 233
8 333 240 149 230 446 343 239 332
8 335 243 152 232 448 345 241 334
8 337 244 153 234 449 347 243 335
8 337 244 346 450 234 153 242 336
8 338 245 164 259 452 349 258 367
8 340 247 155 236 453 350 245 338
8 345 252 160 241 454 351 246 339
8 454 351 246 339 341 248 156 237
8 341 248 156 237 455 352 247 340
8 240 159 251 344 342 249 354 457
8 242 161 253 346 343 250 355 458
8 343 250 355 458 240 159 251 344
8 347 254 162 243 460 357 252 345
8 348 255 358 461 244 163 253 346
8 348 255 163 244 462 359 254 347
8 473 360 257 365 363 256 364 482
8 452 349 258 367 365 257 366 485
8 422 324 369 488 311 224 261 371
8 371 261 370 490 263 167 262 372
8 407 311 371 491 296 210 263 373
8 373 263 372 492 295 209 264 374
8 493 385 275 375 442 342 238 328
8 377 276 179 267 493 385 275 375
8 378 274 177 268 494 383 273 376
8 494 383 273 376 377 276 179 267
8 497 382 272 379 378 274 177 268
8 498 381 271 380 379 272 175 269
8 393 297 197 283 498 381 271 380
8 499 387 277 381 382 278 181 272
8 408 312 211 297 499 387 277 381
8 500 388 278 382 384 280 183 274
8 501 389 279 383 386 282 185 276
8 384 280 183 274 501 389 279 383
8 386 282 185 276 503 391 281 385
8 503 391 281 385 457 354 249 342
8 511 408 299 395 393 297 199 285
8 395 299 409 512 285 199 298 394
8 512 409 300 396 394 298 200 286
8 401 305 205 291 514 411 300 396
8 515 412 301 397 398 302 202 288
8 405 309 209 295 515 412 301 397
8 516 413 302 398 399 303 203 289
8 403 306 414 517 293 206 303 399
8 402 307 207 292 518 415 304 400
8 401 305 415 518 291 205 304 400
8 404 308 208 294 520 418 307 402
8 521 417 306 403 404 308 208 294
8 406 310 210 296 523 420 309 405
8 526 423 311 407 406 310 210 296
8 410 314 213 299 527 424 312 408
8 528 425 315 411 409 313 214 300
8 410 314 425 528 299 213 313 409
8 416 317 216 305 530 427 315 411
8 531 430 318 412 413 320 219 302
8 420 325 223 309 531 430 318 412
8 532 432 320 413 414 321 220 303
8 417 322 433 533 306 221 321 414
8 418 319 218 307 534 428 316 415
8 416 317 428 534 305 216 316 415
8 419 323 434 536 308 222 322 417
8 419 323 222 308 537 431 319 418
8 421 327 225 310 539 438 325 420
8 421 327 439 541 310 225 326 423
8 543 437 324 422 423 326 224 311
8 441 338 259 368 559 452 367 486
8 443 340 236 329 560 453 338 441
8 333 240 344 447 442 342 457 561
8 445 341 237 331 562 455 340 443
8 448 345 241 334 563 454 339 444
8 563 454 339 444 445 341 237 331
8 336 242 346 450 446 343 458 565
8 446 343 458 565 333 240 344 447
8 449 347 243 335 567 460 345 448
8 451 348 244 337 568 462 347 449
8 451 348 461 569 337 244 346 450
8 570 463 349 452 473 360 257 365
8 453 350 245 338 570 463 349 452
8 455 352 247 340 571 464 350 453
8 460 357 252 345 572 465 351 454
8 572 465 351 454 456 353 248 341
8 456 353 248 341 573 466 352 455
8 344 251 356 459 457 354 468 575
8 458 355 469 576 344 251 356 459
8 346 253 358 461 458 355 469 576
8 462 359 254 347 578 471 357 460
8 348 255 359 462 461 358 472 579
8 591 474 360 473 475 361 256 363
8 475 361 256 363 594 477 362 479
8 363 256 364 482 479 362 480 603
8 590 473 365 484 481 363 482 605
8 482 364 257 365 606 483 366 485
8 559 452 367 486 484 365 485 607
8 542 436 487 609 422 324 369 488
8 525 422 488 611 407 311 371 491
8 488 369 489 612 371 261 370 490
8 491 371 490 613 373 263 372 492
8 495 386 276 377 614 503 385 493
8 614 503 385 493 561 457 342 442
8 615 501 383 494 495 386 276 377
8 496 384 274 378 615 501 383 494
8 618 500 382 497 496 384 274 378
8 619 499 381 498 497 382 272 379
8 511 408 297 393 619 499 381 498
8 620 505 387 499 500 388 278 382
8 527 424 312 408 620 505 387 499
8 502 390 506 621 384 280 388 500
8 622 507 389 501 504 392 282 386
8 502 390 280 384 622 507 389 501
8 504 392 282 386 624 509 391 503
8 624 509 391 503 575 468 354 457
8 513 410 299 395 630 527 408 511
8 631 528 411 514 512 409 300 396
8 513 410 528 631 395 299 409 512
8 519 416 305 401 633 530 411 514
8 634 531 412 515 516 413 302 398
8 523 420 309 405 634 531 412 515
8 635 532 413 516 517 414 303 399
8 521 417 533 636 403 306 414 517
8 520 418 307 402 637 534 415 518
8 519 416 534 637 401 305 415 518
8 522 419 308 404 639 537 418 520
8 522 419 536 640 404 308 417 521
8 524 421 310 406 642 539 420 523
8 524 421 541 644 406 310 423 526
8 646 543 422 525 526 423 311 407
8 529 426 314 410 647 544 424 527
8 528 425 545 648 411 315 427 530
8 529 426 545 648 410 314 425 528
8 535 429 317 416 649 546 427 530
8 650 548 430 531 532 432 320 413
8 539 438 325 420 650 548 430 531
8 533 433 550 651 414 321 432 532
8 536 434 551 652 417 322 433 533
8 537 431 319 418 653 547 428 534
8 535 429 547 653 416 317 428 534
8 538 435 552 654 419 323 434 536
8 538 435 323 419 655 549 431 537
8 540 440 327 421 657 556 438 539
8 540 440 557 659 421 327 439 541
8 541 439 555 660 423 326 437 543
8 661 554 436 542 543 437 324 422
8 676 570 452 559 590 473 365 484
8 560 453 338 441 676 570 452 559
8 562 455 340 443 677 571 453 560
8 447 344 459 566 561 457 575 678
8 564 456 341 445 679 573 455 562
8 567 460 345 448 680 572 454 563
8 680 572 454 563 564 456 341 445
8 565 458 576 682 447 344 459 566
8 450 346 461 569 565 458 576 682
8 568 462 347 449 684 578 460 567
8 451 348 462 568 569 461 579 685
8 686 580 463 570 591 474 360 473
8 571 464 350 453 686 580 463 570
8 573 466 352 455 687 581 464 571
8 572 465 582 688 460 357 471 578
8 574 467 582 688 456 353 465 572
8 574 467 353 456 689 583 466 573
8 459 356 470 577 575 468 585 691
8 576 469 586 692 459 356 470 577
8 461 358 472 579 576 469 586 692
8 462 359 471 578 579 472 588 694
8 704 591 473 590 593 475 363 481
8 595 476 592 705 475 361 474 591
8 593 475 363 481 707 594 479 602
8 594 477 362 479 709 598 478 600
8 595 476 361 475 711 597 477 594
8 479 362 480 603 600 478 601 720
8 481 363 482 605 602 479 603 722
8 603 480 364 482 723 604 483 606
8 605 482 365 484 724 606 485 607
8 656 553 608 726 542 436 487 609
8 645 542 609 728 525 422 488 611
8 609 487 610 729 488 369 489 612
8 611 488 612 730 491 371 490 613
8 616 504 386 495 731 624 503 614
8 731 624 503 614 678 575 457 561
8 732 622 501 615 616 504 386 495
8 617 502 384 496 732 622 501 615
8 617 502 621 735 496 384 500 618
8 736 620 499 619 618 500 382 497
8 630 527 408 511 736 620 499 619
8 621 506 626 737 500 388 505 620
8 647 544 424 527 737 626 505 620
8 623 508 627 738 502 390 506 621
8 623 508 390 502 739 628 507 622
8 625 510 628 739 504 392 507 622
8 740 629 509 624 691 585 468 575
8 625 510 392 504 740 629 509 624
8 632 529 410 513 744 647 527 630
8 631 528 648 745 514 411 530 633
8 632 529 648 745 513 410 528 631
8 638 535 416 519 746 649 530 633
8 747 650 531 634 635 532 413 516
8 642 539 420 523 747 650 531 634
8 636 533 651 748 517 414 532 635
8 640 536 652 749 521 417 533 636
8 639 537 418 520 750 653 534 637
8 638 535 653 750 519 416 534 637
8 641 538 419 522 751 655 537 639
8 641 538 654 752 522 419 536 640
8 643 540 421 524 753 657 539 642
8 643 540 659 755 524 421 541 644
8 644 541 660 757 526 423 543 646
8 758 661 542 645 646 543 422 525
8 529 426 544 647 648 545 662 759
8 530 427 545 648 649 546 663 760
8 535 429 546 649 653 547 664 761
8 762 666 548 650 651 550 432 532
8 657 556 438 539 762 666 548 650
8 652 551 668 763 533 433 550 651
8 654 552 669 764 536 434 551 652
8 655 549 431 537 765 665 547 653
8 538 435 549 655 654 552 667 766
8 661 554 671 768 542 436 553 656
8 658 558 440 540 769 674 556 657
8 658 558 675 770 540 440 557 659
8 659 557 673 771 541 439 555 660
8 660 555 672 772 543 437 554 661
8 788 686 570 676 704 591 473 590
8 677 571 453 560 788 686 570 676
8 679 573 455 562 789 687 571 677
8 566 459 577 683 678 575 691 790
8 681 574 456 564 791 689 573 679
8 680 572 688 792 567 460 578 684
8 681 574 688 792 564 456 572 680
8 682 576 692 794 566 459 577 683
8 569 461 579 685 682 576 692 794
8 568 462 578 684 685 579 694 796
8 687 581 464 571 798 696 580 686
8 798 696 580 686 705 592 474 591
8 689 583 466 573 799 697 581 687
8 688 582 698 800 578 471 588 694
8 690 584 698 800 574 467 582 688
8 690 584 467 574 801 699 583 689
8 693 587 701 803 577 470 585 691
8 693 587 470 577 804 702 586 692
8 695 589 702 804 579 472 586 692
8 695 589 472 579 805 703 588 694
8 708 595 705 813 593 475 591 704
8 710 596 706 814 595 476 592 705
8 707 594 479 602 816 709 600 719
8 708 595 475 593 817 711 594 707
8 709 598 478 600 819 715 599 717
8 711 597 477 594 820 714 598 709
8 710 596 476 595 822 713 597 711
8 600 478 601 720 717 599 718 832
8 602 479 603 722 719 600 720 834
8 720 601 480 603 835 721 604 723
8 722 603 482 605 836 723 606 724
8 767 670 725 839 656 553 608 726
8 756 656 726 841 645 542 609 728
8 726 608 727 842 609 487 610 729
8 728 609 729 843 611 488 612 730
8 844 740 624 731 790 691 575 678
8 733 625 504 616 844 740 624 731
8 734 623 502 617 845 739 622 732
8 733 625 739 845 616 504 622 732
8 734 623 738 846 617 502 621 735
8 735 621 737 847 618 500 620 736
8 744 647 527 630 847 737 620 736
8 621 506 627 738 737 626 741 848
8 647 544 626 737 759 662 741 848
8 623 508 628 739 738 627 742 849
8 740 629 585 691 850 743 700 802
8 625 510 629 740 739 628 743 850
8 632 529 647 744 745 648 759 854
8 633 530 648 745 746 649 760 855
8 638 535 649 746 750 653 761 856
8 857 762 650 747 748 651 532 635
8 753 657 539 642 857 762 650 747
8 749 652 763 858 636 533 651 748
8 752 654 764 859 640 536 652 749
8 751 655 537 639 860 765 653 750
8 641 538 655 751 752 654 766 861
8 754 658 540 643 862 769 657 753
8 754 658 770 863 643 540 659 755
8 755 659 771 864 644 541 660 757
8 758 661 768 866 645 542 656 756
8 757 660 772 867 646 543 661 758
8 759 662 773 868 648 545 663 760
8 649 546 663 760 761 664 774 871
8 765 665 547 653 872 775 664 761
8 873 777 666 762 763 668 550 651
8 769 674 556 657 873 777 666 762
8 764 669 779 874 652 551 668 763
8 654 552 667 766 764 669 778 875
8 655 549 665 765 766 667 776 876
8 768 671 782 877 656 553 670 767
8 772 672 783 878 661 554 671 768
8 658 558 674 769 770 675 786 879
8 659 557 675 770 771 673 785 881
8 882 784 672 772 771 673 555 660
8 789 687 571 677 897 798 686 788
8 897 798 686 788 813 705 591 704
8 791 689 573 679 898 799 687 789
8 795 693 803 900 683 577 691 790
8 793 690 574 681 901 801 689 791
8 792 688 800 902 684 578 694 796
8 793 690 800 902 681 574 688 792
8 795 693 577 683 903 804 692 794
8 797 695 804 903 685 579 692 794
8 797 695 579 685 904 805 694 796
8 905 806 697 799 798 696 581 687
8 814 706 806 905 705 592 696 798
8 689 583 697 799 801 699 808 907
8 800 698 809 908 694 588 703 805
8 690 584 699 801 800 698 809 908
8 803 701 810 909 691 585 700 802
8 693 587 702 804 803 701 811 910
8 695 589 703 805 804 702 812 911
8 818 710 814 919 708 595 705 813
8 821 712 815 920 710 596 706 814
8 816 709 600 719 922 819 717 831
8 817 711 594 707 923 820 709 816
8 818 710 595 708 924 822 711 817
8 819 715 599 717 926 827 716 829
8 820 714 598 709 927 826 715 819
8 929 825 713 822 820 714 597 711
8 821 712 596 710 930 824 713 822
8 717 599 718 832 829 716 830 942
8 719 600 720 834 831 717 832 944
8 832 718 601 720 945 833 721 835
8 834 720 603 722 946 835 723 836
8 869 780 838 950 767 670 725 839
8 865 767 839 952 756 656 726 841
8 839 725 840 953 726 608 727 842
8 841 726 842 954 728 609 729 843
8 844 740 691 790 955 850 802 899
8 733 625 740 844 845 739 850 955
8 734 623 739 845 846 738 849 956
8 735 621 738 846 847 737 848 957
8 744 647 737 847 854 759 848 957
8 738 627 742 849 848 741 851 958
8 848 741 851 958 759 662 773 868
8 850 743 700 802 959 852 807 906
8 849 742 628 739 959 852 743 850
8 854 759 868 965 745 648 760 855
8 746 649 760 855 856 761 871 966
8 860 765 653 750 967 872 761 856
8 968 873 762 857 858 763 651 748
8 862 769 657 753 968 873 762 857
8 859 764 874 969 749 652 763 858
8 752 654 766 861 859 764 875 970
8 751 655 765 860 861 766 876 971
8 754 658 769 862 863 770 879 972
8 755 659 770 863 864 771 881 974
8 976 882 772 867 864 771 660 757
8 866 768 877 977 756 656 767 865
8 867 772 878 978 758 661 768 866
8 760 663 773 868 871 774 883 980
8 870 781 837 948 982 890 780 869
8 982 890 780 869 877 782 670 767
8 761 664 774 871 872 775 884 984
8 876 776 665 765 985 885 775 872
8 873 777 668 763 986 887 779 874
8 769 674 777 873 879 786 887 986
8 764 669 778 875 874 779 888 987
8 766 667 776 876 875 778 886 988
8 878 783 892 989 768 671 782 877
8 878 783 672 772 990 893 784 882
8 880 787 675 770 991 896 786 879
8 880 787 895 992 770 675 785 881
8 881 785 894 993 771 673 784 882
8 1006 905 799 898 897 798 687 789
8 919 814 905 1006 813 705 798 897
8 791 689 799 898 901 801 907 1007
8 900 803 909 1009 790 691 802 899
8 795 693 804 903 900 803 910 1010
8 902 800 908 1011 796 694 805 904
8 793 690 801 901 902 800 908 1011
8 797 695 805 904 903 804 911 1012
8 799 697 806 905 907 808 912 1013
8 920 815 912 1013 814 706 806 905
8 802 700 810 909 906 807 913 1014
8 801 699 808 907 908 809 914 1015
8 805 703 809 908 911 812 915 1016
8 803 701 811 910 909 810 916 1017
8 911 812 917 1018 804 702 811 910
8 925 821 920 1030 818 710 814 919
8 928 823 921 1031 821 712 815 920
8 922 819 717 831 1033 926 829 941
8 923 820 709 816 1034 927 819 922
8 1035 929 822 924 923 820 711 817
8 925 821 710 818 1036 930 822 924
8 1038 933 825 929 927 826 714 820
8 926 827 716 829 1039 935 828 939
8 927 826 715 819 1040 934 827 926
8 928 823 712 821 1041 931 824 930
8 1042 932 824 930 929 825 713 822
8 829 716 830 942 939 828 940 1058
8 831 717 832 944 941 829 942 1060
8 942 830 718 832 1061 943 833 945
8 944 832 720 834 1062 945 835 946
8 981 889 947 1064 870 781 837 948
8 948 837 949 1067 869 780 838 950
8 975 869 950 1069 865 767 839 952
8 950 838 951 1070 839 725 840 953
8 952 839 953 1071 841 726 842 954
8 955 850 802 899 1072 959 906 1008
8 956 849 739 845 1072 959 850 955
8 846 738 849 956 957 848 958 1073
8 957 848 958 1073 854 759 868 965
8 849 742 852 959 958 851 961 1076
8 960 853 961 1076 906 807 852 959
8 958 851 961 1076 868 773 883 980
8 960 853 807 906 1077 963 913 1014
8 855 760 868 965 966 871 980 1085
8 856 761 871 966 967 872 984 1086
8 971 876 765 860 1087 985 872 967
8 968 873 763 858 1088 986 874 969
8 862 769 873 968 972 879 986 1088
8 859 764 875 970 969 874 987 1089
8 861 766 876 971 970 875 988 1090
8 973 880 770 863 1091 991 879 972
8 973 880 992 1092 863 770 881 974
8 974 881 993 1093 864 771 882 976
8 979 870 948 1066 1094 982 869 975
8 1094 982 869 975 977 877 767 865
8 978 878 772 867 1095 990 882 976
8 978 878 989 1096 866 768 877 977
8 871 774 883 980 984 884 994 1099
8 983 891 999 1100 870 781 889 981
8 1101 1000 890 982 989 892 782 877
8 983 891 781 870 1101 1000 890 982
8 872 775 884 984 985 885 995 1103
8 876 776 885 985 988 886 996 1104
8 986 887 779 874 1105 998 888 987
8 879 786 887 986 991 896 998 1105
8 875 778 886 988 987 888 997 1106
8 990 893 1002 1107 878 783 892 989
8 1108 1003 893 990 993 894 784 882
8 880 787 896 991 992 895 1005 1109
8 993 894 785 881 1110 1004 895 992
8 898 799 905 1006 1007 907 1013 1120
8 1030 920 1013 1120 919 814 905 1006
8 901 801 907 1007 1011 908 1015 1121
8 899 802 909 1009 1008 906 1014 1122
8 900 803 910 1010 1009 909 1017 1123
8 1012 911 1018 1124 903 804 910 1010
8 904 805 908 1011 1012 911 1016 1125
8 1013 912 1020 1127 907 808 914 1015
8 1031 921 1020 1127 920 815 912 1013
8 1019 918 962 1075 1128 1021 913 1014
8 1128 1021 913 1014 1017 916 810 909
8 1015 914 1022 1129 908 809 915 1016
8 1016 915 1023 1130 911 812 917 1018
8 1018 917 1024 1131 910 811 916 1017
8 1037 928 1031 1148 925 821 920 1030
8 928 823 931 1041 1031 921 1032 1149
8 1033 926 829 941 1151 1039 939 1057
8 1034 927 819 922 1152 1040 926 1033
8 1153 1038 929 1035 1034 927 820 923
8 1154 1042 930 1036 1035 929 822 924
8 1037 928 821 925 1155 1041 930 1036
8 1039 935 828 939 1156 1047 938 1055
8 1157 1043 932 1042 1038 933 825 929
8 1038 933 826 927 1158 1045 934 1040
8 1040 934 827 926 1159 1046 935 1039
8 930 824 932 1042 1041 931 1044 1160
8 1051 936 1048 1165 1175 1052 937 1053
8 1156 1047 938 1055 1053 937 1054 1178
8 939 828 940 1058 1055 938 1056 1181
8 941 829 942 1060 1057 939 1058 1183
8 942 830 943 1061 1058 940 1059 1184
8 1060 942 832 944 1185 1061 945 1062
8 1082 964 1063 1188 981 889 947 1064
8 1097 981 1064 1190 979 870 948 1066
8 1064 947 1065 1191 948 837 949 1067
8 1066 948 1067 1193 975 869 950 1069
8 1067 949 1068 1194 950 838 951 1070
8 1069 950 1070 1195 952 839 953 1071
8 956 849 959 1072 1073 958 1076 1197
8 1074 960 1076 1197 1008 906 959 1072
8 1073 958 1076 1197 965 868 980 1085
8 1074 960 906 1008 1198 1077 1014 1122
8 1133 1026 1079 1199 1019 918 962 1075
8 1077 963 913 1014 1200 1080 962 1075
8 960 853 963 1077 1076 961 1078 1201
8 980 883 961 1076 1099 994 1078 1201
8 1210 1083 964 1082 1100 999 889 981
8 966 871 980 1085 1086 984 1099 1215
8 967 872 984 1086 1087 985 1103 1216
8 971 876 985 1087 1090 988 1104 1217
8 1088 986 874 969 1218 1105 987 1089
8 972 879 986 1088 1091 991 1105 1218
8 970 875 988 1090 1089 987 1106 1219
8 973 880 991 1091 1092 992 1109 1220
8 1093 993 881 974 1221 1110 992 1092
8 1222 1108 990 1095 1093 993 882 976
8 1223 1101 982 1094 1096 989 877 977
8 1098 983 870 979 1223 1101 982 1094
8 1095 990 1107 1224 978 878 989 1096
8 1098 983 1100 1225 979 870 981 1097
8 984 884 994 1099 1103 995 1111 1227
8 1102 1001 1115 1228 983 891 999 1100
8 1101 1000 892 989 1229 1116 1002 1107
8 1102 1001 891 983 1229 1116 1000 1101
8 985 885 995 1103 1104 996 1112 1230
8 988 886 996 1104 1106 997 1113 1231
8 1105 998 888 987 1232 1114 997 1106
8 991 896 998 1105 1109 1005 1114 1232
8 1108 1003 1117 1233 990 893 1002 1107
8 1108 1003 894 993 1233 1117 1004 1110
8 992 895 1005 1109 1110 1004 1118 1234
8 1120 1013 1127 1244 1007 907 1015 1121
8 1148 1031 1127 1244 1030 920 1013 1120
8 1121 1015 1129 1245 1011 908 1016 1125
8 1126 1019 1075 1196 1246 1128 1014 1122
8 1246 1128 1014 1122 1123 1017 909 1009
8 1124 1018 1131 1247 1010 910 1017 1123
8 1125 1016 1130 1248 1012 911 1018 1124
8 1127 1020 1137 1254 1015 914 1022 1129
8 1031 921 1032 1149 1127 1020 1137 1254
8 1134 1027 918 1019 1257 1140 1021 1128
8 1257 1140 1021 1128 1131 1024 916 1017
8 1129 1022 1141 1258 1016 915 1023 1130
8 1130 1023 1142 1259 1018 917 1024 1131
8 1261 1144 1025 1132 1133 1026 1079 1199
8 1255 1138 1025 1132 1135 1028 1144 1261
8 1133 1026 918 1019 1262 1145 1027 1134
8 1136 1029 1139 1256 1263 1146 1028 1135
8 1037 928 1041 1155 1148 1031 1149 1275
8 1041 931 1044 1160 1149 1032 1150 1276
8 1151 1039 939 1057 1278 1156 1055 1180
8 1152 1040 926 1033 1279 1159 1039 1151
8 1153 1038 927 1034 1280 1158 1040 1152
8 1281 1157 1042 1154 1153 1038 929 1035
8 1036 930 1042 1154 1155 1041 1160 1282
8 1283 1164 1046 1159 1156 1047 935 1039
8 1165 1048 1164 1283 1053 937 1047 1156
8 1157 1043 933 1038 1284 1161 1045 1158
8 1157 1043 1161 1284 1042 932 1044 1160
8 1040 934 1046 1159 1158 1045 1163 1285
8 1166 1049 1167 1292 1051 936 1048 1165
8 1166 1049 936 1051 1293 1168 1050 1172
8 1051 936 1052 1175 1172 1050 1173 1306
8 1174 1051 1165 1290 1308 1175 1053 1177
8 1053 937 1054 1178 1175 1052 1176 1309
8 1278 1156 1055 1180 1177 1053 1178 1311
8 1055 938 1056 1181 1178 1054 1179 1312
8 1057 939 1058 1183 1180 1055 1181 1314
8 1058 940 1059 1184 1181 1056 1182 1315
8 1060 942 1061 1185 1183 1058 1184 1316
8 1208 1081 1187 1321 1082 964 1063 1188
8 1209 1082 1188 1322 1097 981 1064 1190
8 1188 1063 1189 1323 1064 947 1065 1191
8 1190 1064 1191 1325 1066 948 1067 1193
8 1191 1065 1192 1326 1067 949 1068 1194
8 1067 1193 1069 950 1194 1327 1195 1070
8 1250 1133 1199 1330 1126 1019 1075 1196
8 1198 1077 1014 1122 1331 1200 1075 1196
8 1074 960 1077 1198 1197 1076 1201 1332
8 1085 980 1076 1197 1215 1099 1201 1332
8 1199 1079 1203 1333 1075 962 1080 1200
8 1132 1025 1119 1243 1199 1079 1203 1333
8 1201 1078 963 1077 1334 1202 1080 1200
8 1099 994 1078 1201 1227 1111 1202 1334
8 1343 1207 1081 1208 1210 1083 964 1082
8 1214 1084 1186 1319 1343 1207 1081 1208
8 1345 1210 1082 1209 1225 1100 981 1097
8 1346 1211 1083 1210 1228 1115 999 1100
8 1086 984 1099 1215 1216 1103 1227 1352
8 1087 985 1103 1216 1217 1104 1230 1353
8 1090 988 1104 1217 1219 1106 1231 1354
8 1218 1105 987 1089 1355 1232 1106 1219
8 1091 991 1105 1218 1220 1109 1232 1355
8 1092 992 1109 1220 1221 1110 1234 1356
8 1222 1108 1233 1357 1095 990 1107 1224
8 1222 1108 993 1093 1357 1233 1110 1221
8 1223 1101 989 1096 1358 1229 1107 1224
8 1226 1102 983 1098 1358 1229 1101 1223
8 1226 1102 1228 1359 1098 983 1100 1225
8 1103 995 1111 1227 1230 1112 1235 1360
8 1107 1002 1117 1233 1229 1116 1240 1362
8 1102 1001 1116 1229 1228 1115 1240 1362
8 1104 996 1112 1230 1231 1113 1236 1363
8 1364 1237 1114 1232 1231 1113 997 1106
8 1109 1005 1114 1232 1234 1118 1238 1365
8 1110 1004 1118 1234 1233 1117 1241 1366
8 1242 1374 1255 1138 1119 1243 1132 1025
8 1244 1127 1254 1376 1121 1015 1129 1245
8 1148 1031 1149 1275 1244 1127 1254 1376
8 1245 1129 1258 1377 1125 1016 1130 1248
8 1251 1134 1019 1126 1378 1257 1128 1246
8 1378 1257 1128 1246 1247 1131 1017 1123
8 1248 1130 1259 1379 1124 1018 1131 1247
8 1261 1381 1250 1133 1132 1249 1330 1199
8 1255 1380 1252 1135 1132 1249 1381 1261
8 1250 1133 1019 1126 1382 1262 1134 1251
8 1253 1136 1256 1385 1384 1263 1135 1252
8 1254 1137 1265 1387 1129 1022 1141 1258
8 1149 1032 1150 1276 1254 1137 1265 1387
8 1028 1135 1255 1138 1139 1256 1388 1266
8 1136 1029 1147 1264 1256 1139 1267 1389
8 1390 1268 1140 1257 1259 1142 1024 1131
8 1260 1143 1027 1134 1390 1268 1140 1257
8 1258 1141 1269 1391 1130 1023 1142 1259
8 1262 1145 1027 1134 1393 1271 1143 1260
8 1261 1144 1026 1133 1394 1272 1145 1262
8 1135 1028 1144 1261 1263 1146 1272 1394
8 1136 1029 1146 1263 1264 1147 1273 1395
8 1155 1041 1160 1282 1275 1149 1276 1405
8 1276 1150 1044 1160 1406 1277 1162 1286
8 1408 1283 1159 1279 1278 1156 1039 1151
8 1290 1165 1283 1408 1177 1053 1156 1278
8 1152 1040 1159 1279 1280 1158 1285 1409
8 1281 1157 1038 1153 1410 1284 1158 1280
8 1281 1157 1284 1410 1154 1042 1160 1282
8 1159 1046 1164 1283 1285 1163 1289 1412
8 1292 1167 1289 1412 1165 1048 1164 1283
8 1158 1045 1163 1285 1284 1161 1288 1413
8 1284 1161 1288 1413 1160 1044 1162 1286
8 1291 1166 1292 1418 1174 1051 1165 1290
8 1291 1166 1051 1174 1419 1293 1172 1305
8 1294 1169 1296 1421 1166 1049 1167 1292
8 1293 1168 1050 1172 1422 1295 1171 1303
8 1294 1169 1049 1166 1423 1297 1168 1293
8 1422 1295 1171 1303 1301 1170 1302 1435
8 1172 1050 1173 1306 1303 1171 1304 1438
8 1174 1051 1175 1308 1305 1172 1306 1440
8 1175 1052 1176 1309 1306 1173 1307 1441
8 1177 1053 1178 1311 1308 1175 1309 1443
8 1178 1054 1179 1312 1309 1176 1310 1444
8 1180 1055 1181 1314 1311 1178 1312 1446
8 1056 1181 1312 1179 1182 1315 1447 1313
8 1183 1058 1184 1316 1314 1181 1315 1448
8 1319 1186 1084 1214 1451 1317 1213 1350
8 1319 1186 1318 1453 1208 1081 1187 1321
8 1321 1187 1320 1456 1188 1063 1189 1323
8 1344 1208 1321 1457 1209 1082 1188 1322
8 1322 1188 1323 1458 1190 1064 1191 1325
8 1323 1189 1324 1459 1191 1065 1192 1326
8 1191 1325 1193 1067 1326 1460 1327 1194
8 1242 1374 1243 1119 1328 1462 1335 1204
8 1330 1199 1333 1465 1196 1075 1200 1331
8 1132 1249 1330 1199 1243 1375 1465 1333
8 1332 1201 1077 1198 1466 1334 1200 1331
8 1215 1099 1201 1332 1352 1227 1334 1466
8 1119 1243 1333 1203 1204 1335 1470 1338
8 1333 1203 1338 1470 1200 1080 1202 1334
8 1227 1111 1202 1334 1360 1235 1338 1470
8 1328 1462 1335 1204 1205 1336 1471 1339
8 1337 1206 1340 1472 1464 1329 1205 1336
8 1346 1211 1342 1479 1210 1083 1207 1343
8 1346 1211 1115 1228 1479 1342 1239 1361
8 1348 1212 1084 1214 1479 1342 1207 1343
8 1480 1343 1208 1344 1345 1210 1082 1209
8 1351 1214 1319 1454 1480 1343 1208 1344
8 1481 1346 1210 1345 1359 1228 1100 1225
8 1348 1212 1347 1483 1214 1084 1213 1350
8 1216 1103 1227 1352 1353 1230 1360 1488
8 1217 1104 1230 1353 1354 1231 1363 1489
8 1490 1364 1232 1355 1354 1231 1106 1219
8 1220 1109 1232 1355 1356 1234 1365 1491
8 1221 1110 1234 1356 1357 1233 1366 1492
8 1224 1107 1233 1357 1358 1229 1362 1493
8 1226 1102 1229 1358 1359 1228 1362 1493
8 1230 1112 1235 1360 1363 1236 1367 1496
8 1361 1239 1115 1228 1497 1371 1240 1362
8 1366 1241 1372 1498 1233 1117 1240 1362
8 1364 1237 1113 1231 1499 1368 1236 1363
8 1364 1237 1368 1499 1232 1114 1238 1365
8 1234 1118 1238 1365 1366 1241 1369 1500
8 1507 1373 1242 1374 1388 1266 1138 1255
8 1508 1374 1243 1375 1380 1255 1132 1249
8 1376 1254 1387 1509 1245 1129 1258 1377
8 1275 1149 1276 1405 1376 1254 1387 1509
8 1377 1258 1391 1510 1248 1130 1259 1379
8 1511 1390 1257 1378 1379 1259 1131 1247
8 1383 1260 1134 1251 1511 1390 1257 1378
8 1252 1135 1256 1385 1380 1255 1388 1512
8 1261 1381 1513 1394 1133 1250 1382 1262
8 1135 1252 1384 1263 1261 1381 1513 1394
8 1382 1262 1134 1251 1514 1393 1260 1383
8 1253 1136 1263 1384 1386 1264 1395 1516
8 1253 1136 1264 1386 1385 1256 1389 1517
8 1387 1265 1397 1519 1258 1141 1269 1391
8 1276 1150 1277 1406 1387 1265 1397 1519
8 1256 1139 1267 1389 1388 1266 1398 1520
8 1264 1147 1274 1396 1389 1267 1399 1521
8 1392 1270 1143 1260 1522 1400 1268 1390
8 1390 1268 1142 1259 1522 1400 1269 1391
8 1392 1270 1401 1523 1260 1143 1271 1393
8 1272 1394 1524 1402 1145 1262 1393 1271
8 1395 1273 1146 1263 1524 1402 1272 1394
8 1273 1395 1264 1147 1403 1526 1396 1274
8 1405 1276 1160 1282 1534 1406 1286 1411
8 1414 1287 1407 1535 1286 1162 1277 1406
8 1279 1159 1283 1408 1409 1285 1412 1537
8 1418 1292 1412 1537 1290 1165 1283 1408
8 1280 1158 1285 1409 1410 1284 1413 1538
8 1410 1284 1413 1538 1282 1160 1286 1411
8 1285 1163 1289 1412 1413 1288 1417 1540
8 1421 1296 1417 1540 1292 1167 1289 1412
8 1414 1287 1162 1286 1541 1416 1288 1413
8 1420 1294 1421 1545 1291 1166 1292 1418
8 1419 1293 1172 1305 1546 1422 1303 1437
8 1420 1294 1166 1291 1547 1423 1293 1419
8 1294 1169 1297 1423 1421 1296 1425 1548
8 1423 1297 1168 1293 1549 1424 1295 1422
8 1301 1170 1298 1427 1422 1295 1424 1549
8 1432 1300 1428 1554 1301 1170 1298 1427
8 1431 1299 1428 1554 1560 1430 1300 1432
8 1563 1433 1300 1432 1435 1302 1170 1301
8 1546 1422 1303 1437 1434 1301 1435 1565
8 1303 1171 1304 1438 1435 1302 1436 1566
8 1305 1172 1306 1440 1437 1303 1438 1568
8 1306 1173 1307 1441 1438 1304 1439 1569
8 1308 1175 1309 1443 1440 1306 1441 1571
8 1309 1176 1310 1444 1441 1307 1442 1572
8 1311 1178 1312 1446 1443 1309 1444 1574
8 1179 1312 1444 1310 1313 1447 1575 1445
8 1314 1181 1315 1448 1446 1312 1447 1576
8 1350 1213 1349 1486 1451 1317 1449 1579
8 1451 1317 1450 1581 1319 1186 1318 1453
8 1454 1319 1214 1351 1582 1451 1350 1487
8 1453 1318 1452 1584 1321 1187 1320 1456
8 1454 1319 1453 1585 1344 1208 1321 1457
8 1456 1320 1455 1586 1323 1189 1324 1459
8 1457 1321 1456 1587 1322 1188 1323 1458
8 1458 1323 1459 1588 1325 1191 1326 1460
8 1205 1336 1464 1329 1328 1462 1590 1461
8 1507 1373 1461 1590 1374 1242 1328 1462
8 1508 1374 1462 1591 1375 1243 1335 1467
8 1337 1206 1329 1464 1473 1341 1463 1594
8 1375 1243 1335 1467 1465 1333 1470 1596
8 1465 1333 1470 1596 1331 1200 1334 1466
8 1352 1227 1334 1466 1488 1360 1470 1596
8 1591 1462 1336 1468 1467 1335 1471 1597
8 1469 1337 1472 1598 1595 1464 1336 1468
8 1471 1339 1474 1600 1335 1204 1338 1470
8 1600 1474 1367 1496 1470 1338 1235 1360
8 1336 1205 1340 1472 1471 1339 1475 1601
8 1337 1206 1341 1473 1472 1340 1476 1602
8 1495 1370 1478 1609 1361 1239 1342 1479
8 1348 1212 1342 1479 1483 1347 1478 1609
8 1481 1346 1479 1610 1345 1210 1343 1480
8 1481 1346 1228 1359 1610 1479 1361 1494
8 1484 1348 1214 1351 1610 1479 1343 1480
8 1483 1347 1482 1612 1350 1213 1349 1486
8 1484 1348 1483 1613 1351 1214 1350 1487
8 1353 1230 1360 1488 1489 1363 1496 1616
8 1490 1364 1231 1354 1617 1499 1363 1489
8 1490 1364 1499 1617 1355 1232 1365 1491
8 1356 1234 1365 1491 1492 1366 1500 1619
8 1492 1366 1498 1620 1357 1233 1362 1493
8 1494 1361 1228 1359 1621 1497 1362 1493
8 1495 1370 1239 1361 1622 1504 1371 1497
8 1363 1236 1367 1496 1499 1368 1501 1623
8 1497 1371 1240 1362 1624 1505 1372 1498
8 1625 1503 1372 1498 1500 1369 1241 1366
8 1365 1238 1368 1499 1500 1369 1502 1626
8 1520 1398 1506 1633 1388 1266 1373 1507
8 1634 1507 1374 1508 1512 1388 1255 1380
8 1509 1387 1519 1635 1377 1258 1391 1510
8 1405 1276 1406 1534 1509 1387 1519 1635
8 1515 1392 1260 1383 1636 1522 1390 1511
8 1511 1390 1259 1379 1636 1522 1391 1510
8 1385 1256 1389 1517 1512 1388 1520 1637
8 1513 1394 1262 1382 1638 1524 1393 1514
8 1395 1516 1638 1524 1263 1384 1513 1394
8 1515 1392 1523 1639 1383 1260 1393 1514
8 1516 1395 1526 1640 1386 1264 1396 1518
8 1386 1264 1396 1518 1517 1389 1521 1641
8 1519 1397 1527 1643 1391 1269 1400 1522
8 1535 1407 1527 1643 1406 1277 1397 1519
8 1389 1267 1399 1521 1520 1398 1528 1644
8 1645 1529 1399 1521 1525 1404 1274 1396
8 1392 1270 1400 1522 1523 1401 1531 1646
8 1524 1402 1271 1393 1648 1532 1401 1523
8 1403 1526 1648 1532 1273 1395 1524 1402
8 1525 1404 1274 1396 1649 1533 1403 1526
8 1539 1414 1535 1657 1411 1286 1406 1534
8 1542 1415 1536 1658 1414 1287 1407 1535
8 1409 1285 1412 1537 1538 1413 1540 1660
8 1545 1421 1540 1660 1418 1292 1412 1537
8 1539 1414 1286 1411 1661 1541 1413 1538
8 1540 1417 1544 1663 1413 1288 1416 1541
8 1421 1296 1425 1548 1540 1417 1544 1663
8 1542 1415 1287 1414 1664 1543 1416 1541
8 1420 1294 1423 1547 1545 1421 1548 1666
8 1547 1423 1293 1419 1667 1549 1422 1546
8 1434 1301 1427 1553 1546 1422 1549 1667
8 1423 1297 1424 1549 1548 1425 1550 1668
8 1551 1426 1550 1668 1427 1298 1424 1549
8 1551 1426 1298 1427 1671 1552 1428 1554
8 1562 1432 1554 1674 1434 1301 1427 1553
8 1431 1299 1429 1558 1554 1428 1555 1675
8 1431 1299 1430 1560 1558 1429 1557 1680
8 1560 1430 1300 1432 1683 1559 1433 1563
8 1561 1431 1554 1674 1684 1560 1432 1562
8 1685 1563 1432 1562 1565 1435 1301 1434
8 1435 1302 1436 1566 1563 1433 1564 1686
8 1437 1303 1438 1568 1565 1435 1566 1688
8 1438 1304 1439 1569 1566 1436 1567 1689
8 1440 1306 1441 1571 1568 1438 1569 1691
8 1441 1307 1442 1572 1569 1439 1570 1692
8 1443 1309 1444 1574 1571 1441 1572 1694
8 1310 1444 1572 1442 1445 1575 1695 1573
8 1446 1312 1447 1576 1574 1444 1575 1696
8 1486 1349 1485 1614 1579 1449 1577 1699
8 1451 1317 1449 1579 1581 1450 1578 1701
8 1487 1350 1486 1615 1582 1451 1579 1702
8 1581 1450 1580 1704 1453 1318 1452 1584
8 1582 1451 1581 1705 1454 1319 1453 1585
8 1584 1452 1583 1706 1456 1320 1455 1586
8 1585 1453 1584 1707 1457 1321 1456 1587
8 1587 1456 1586 1708 1458 1323 1459 1588
8 1633 1506 1589 1710 1507 1373 1461 1590
8 1464 1329 1461 1590 1594 1463 1589 1710
8 1468 1336 1462 1591 1595 1464 1590 1711
8 1634 1507 1590 1711 1508 1374 1462 1591
8 1473 1341 1463 1594 1603 1477 1593 1716
8 1469 1337 1464 1595 1599 1473 1594 1717
8 1471 1597 1467 1335 1600 1718 1596 1470
8 1718 1600 1496 1616 1596 1470 1360 1488
8 1336 1468 1597 1471 1472 1598 1719 1601
8 1469 1337 1473 1599 1598 1472 1602 1720
8 1722 1604 1501 1623 1600 1474 1367 1496
8 1475 1601 1471 1339 1604 1722 1600 1474
8 1602 1476 1605 1723 1472 1340 1475 1601
8 1476 1602 1724 1606 1341 1473 1603 1477
8 1483 1347 1478 1609 1612 1482 1608 1731
8 1495 1370 1504 1622 1609 1478 1608 1731
8 1618 1495 1609 1732 1494 1361 1479 1610
8 1484 1348 1479 1610 1613 1483 1609 1732
8 1486 1349 1482 1612 1614 1485 1611 1733
8 1613 1483 1612 1734 1487 1350 1486 1615
8 1489 1363 1496 1616 1617 1499 1623 1736
8 1491 1365 1499 1617 1619 1500 1626 1737
8 1618 1495 1361 1494 1738 1622 1497 1621
8 1739 1625 1498 1620 1619 1500 1366 1492
8 1621 1497 1362 1493 1740 1624 1498 1620
8 1742 1631 1504 1622 1624 1505 1371 1497
8 1743 1628 1502 1626 1623 1501 1368 1499
8 1744 1630 1505 1624 1625 1503 1372 1498
8 1745 1629 1503 1625 1626 1502 1369 1500
8 1520 1398 1528 1644 1633 1506 1632 1751
8 1637 1520 1633 1752 1512 1388 1507 1634
8 1635 1519 1643 1753 1510 1391 1522 1636
8 1657 1535 1643 1753 1534 1406 1519 1635
8 1515 1392 1522 1636 1639 1523 1646 1754
8 1517 1389 1521 1641 1637 1520 1644 1755
8 1524 1638 1756 1648 1393 1514 1639 1523
8 1640 1526 1395 1516 1756 1648 1524 1638
8 1642 1525 1396 1518 1757 1649 1526 1640
8 1758 1645 1521 1641 1642 1525 1396 1518
8 1646 1531 1400 1522 1760 1650 1527 1643
8 1535 1407 1536 1658 1643 1527 1650 1760
8 1521 1399 1529 1645 1644 1528 1651 1761
8 1647 1530 1652 1762 1525 1404 1529 1645
8 1401 1523 1648 1532 1531 1646 1763 1655
8 1525 1404 1533 1649 1647 1530 1654 1765
8 1533 1649 1766 1656 1403 1526 1648 1532
8 1662 1542 1658 1774 1539 1414 1535 1657
8 1542 1415 1543 1664 1658 1536 1659 1775
8 1660 1540 1663 1777 1538 1413 1541 1661
8 1545 1421 1548 1666 1660 1540 1663 1777
8 1662 1542 1414 1539 1778 1664 1541 1661
8 1664 1543 1416 1541 1779 1665 1544 1663
8 1548 1425 1550 1668 1663 1544 1665 1779
8 1547 1423 1549 1667 1666 1548 1668 1781
8 1670 1551 1668 1781 1553 1427 1549 1667
8 1551 1426 1552 1671 1668 1550 1669 1782
8 1670 1551 1427 1553 1784 1671 1554 1674
8 1675 1555 1672 1785 1554 1428 1552 1671
8 1678 1556 1673 1789 1558 1429 1555 1675
8 1561 1431 1558 1681 1674 1554 1675 1790
8 1794 1677 1556 1678 1680 1557 1429 1558
8 1560 1430 1559 1683 1680 1557 1679 1797
8 1561 1431 1560 1684 1681 1558 1680 1798
8 1563 1433 1564 1686 1683 1559 1682 1800
8 1684 1560 1432 1562 1801 1683 1563 1685
8 1565 1435 1566 1688 1685 1563 1686 1802
8 1566 1436 1567 1689 1686 1564 1687 1803
8 1568 1438 1569 1691 1688 1566 1689 1805
8 1569 1439 1570 1692 1689 1567 1690 1806
8 1571 1441 1572 1694 1691 1569 1692 1808
8 1442 1572 1692 1570 1573 1695 1809 1693
8 1574 1444 1575 1696 1694 1572 1695 1810
8 1614 1485 1592 1712 1699 1577 1697 1813
8 1579 1449 1577 1699 1701 1578 1698 1815
8 1615 1486 1614 1735 1702 1579 1699 1816
8 1701 1578 1700 1818 1581 1450 1580 1704
8 1582 1451 1579 1702 1705 1581 1701 1819
8 1704 1580 1703 1820 1584 1452 1583 1706
8 1705 1581 1704 1821 1585 1453 1584 1707
8 1707 1584 1706 1822 1587 1456 1586 1708
8 1710 1589 1506 1633 1824 1709 1632 1751
8 1594 1463 1589 1710 1716 1593 1709 1824
8 1752 1633 1710 1825 1634 1507 1590 1711
8 1595 1464 1590 1711 1717 1594 1710 1825
8 1830 1714 1592 1712 1733 1611 1485 1614
8 1603 1477 1593 1716 1725 1607 1715 1834
8 1599 1473 1594 1717 1721 1603 1716 1835
8 1837 1722 1623 1736 1718 1600 1496 1616
8 1719 1601 1722 1837 1597 1471 1600 1718
8 1602 1720 1598 1472 1723 1838 1719 1601
8 1720 1602 1473 1599 1839 1724 1603 1721
8 1723 1605 1726 1840 1601 1475 1604 1722
8 1840 1726 1628 1743 1722 1604 1501 1623
8 1724 1606 1727 1841 1602 1476 1605 1723
8 1725 1607 1728 1842 1603 1477 1606 1724
8 1612 1482 1608 1731 1733 1611 1730 1849
8 1741 1627 1730 1849 1622 1504 1608 1731
8 1613 1483 1609 1732 1734 1612 1731 1850
8 1618 1495 1622 1738 1732 1609 1731 1850
8 1615 1486 1612 1734 1735 1614 1733 1851
8 1852 1743 1626 1737 1736 1623 1499 1617
8 1853 1745 1625 1739 1737 1626 1500 1619
8 1855 1742 1622 1738 1740 1624 1497 1621
8 1856 1744 1624 1740 1739 1625 1498 1620
8 1741 1627 1504 1622 1857 1746 1631 1742
8 1742 1631 1505 1624 1858 1749 1630 1744
8 1859 1747 1629 1745 1743 1628 1502 1626
8 1860 1748 1630 1744 1745 1629 1503 1625
8 1644 1528 1651 1761 1751 1632 1750 1865
8 1637 1520 1644 1755 1752 1633 1751 1866
8 1754 1646 1522 1636 1867 1760 1643 1753
8 1657 1535 1658 1774 1753 1643 1760 1867
8 1639 1523 1646 1754 1756 1648 1763 1868
8 1641 1521 1645 1758 1755 1644 1761 1869
8 1757 1649 1526 1640 1870 1766 1648 1756
8 1642 1525 1649 1757 1759 1647 1765 1871
8 1759 1647 1762 1872 1642 1525 1645 1758
8 1760 1650 1767 1874 1646 1531 1655 1763
8 1658 1536 1659 1775 1760 1650 1767 1874
8 1762 1652 1768 1875 1645 1529 1651 1761
8 1764 1653 1769 1876 1647 1530 1652 1762
8 1656 1766 1877 1773 1532 1648 1763 1655
8 1771 1879 1765 1654 1653 1764 1647 1530
8 1533 1649 1765 1654 1656 1766 1880 1772
8 1662 1542 1664 1778 1774 1658 1775 1887
8 1664 1543 1665 1779 1775 1659 1776 1888
8 1778 1664 1541 1661 1890 1779 1663 1777
8 1666 1548 1668 1781 1777 1663 1779 1890
8 1782 1669 1780 1891 1668 1550 1665 1779
8 1670 1551 1671 1784 1781 1668 1782 1893
8 1671 1552 1672 1785 1782 1669 1783 1894
8 1790 1675 1785 1896 1674 1554 1671 1784
8 1675 1555 1673 1789 1785 1672 1786 1897
8 1792 1676 1788 1903 1678 1556 1673 1789
8 1795 1678 1789 1904 1681 1558 1675 1790
8 1792 1676 1556 1678 1906 1791 1677 1794
8 1680 1557 1679 1797 1794 1677 1793 1909
8 1910 1794 1678 1795 1798 1680 1558 1681
8 1683 1559 1682 1800 1797 1679 1796 1912
8 1684 1560 1683 1801 1798 1680 1797 1913
8 1686 1564 1687 1803 1800 1682 1799 1915
8 1685 1563 1686 1802 1801 1683 1800 1916
8 1688 1566 1689 1805 1802 1686 1803 1917
8 1689 1567 1690 1806 1803 1687 1804 1918
8 1691 1569 1692 1808 1805 1689 1806 1920
8 1692 1570 1693 1809 1806 1690 1807 1921
8 1694 1572 1695 1810 1808 1692 1809 1922
8 1829 1713 1811 1926 1712 1592 1697 1813
8 1813 1697 1812 1928 1699 1577 1698 1815
8 1735 1614 1712 1828 1816 1699 1813 1929
8 1815 1698 1814 1931 1701 1578 1700 1818
8 1702 1579 1699 1816 1819 1701 1815 1932
8 1818 1700 1817 1933 1704 1580 1703 1820
8 1819 1701 1818 1934 1705 1581 1704 1821
8 1821 1704 1820 1935 1707 1584 1706 1822
8 1824 1709 1632 1751 1937 1823 1750 1865
8 1716 1593 1709 1824 1834 1715 1823 1937
8 1825 1710 1633 1752 1938 1824 1751 1866
8 1717 1594 1710 1825 1835 1716 1824 1938
8 1945 1830 1712 1828 1851 1733 1614 1735
8 1830 1714 1831 1946 1712 1592 1713 1829
8 1947 1832 1714 1830 1849 1730 1611 1733
8 1843 1729 1607 1725 1950 1833 1715 1834
8 1721 1603 1716 1835 1836 1725 1834 1951
8 1836 1725 1842 1953 1721 1603 1724 1839
8 1723 1838 1719 1601 1840 1954 1837 1722
8 1954 1840 1743 1852 1837 1722 1623 1736
8 1724 1839 1720 1602 1841 1955 1838 1723
8 1841 1727 1844 1956 1723 1605 1726 1840
8 1956 1844 1747 1859 1840 1726 1628 1743
8 1728 1842 1724 1606 1845 1957 1841 1727
8 1725 1607 1729 1843 1842 1728 1846 1958
8 1741 1627 1746 1857 1849 1730 1848 1965
8 1734 1612 1731 1850 1851 1733 1849 1966
8 1854 1741 1849 1966 1738 1622 1731 1850
8 1967 1859 1745 1853 1852 1743 1626 1737
8 1968 1860 1744 1856 1853 1745 1625 1739
8 1854 1741 1622 1738 1969 1857 1742 1855
8 1855 1742 1624 1740 1970 1858 1744 1856
8 1857 1746 1631 1742 1971 1861 1749 1858
8 1858 1749 1630 1744 1972 1863 1748 1860
8 1859 1747 1862 1973 1745 1629 1748 1860
8 1875 1768 1864 1977 1761 1651 1750 1865
8 1755 1644 1761 1869 1866 1751 1865 1978
8 1867 1760 1874 1979 1754 1646 1763 1868
8 1774 1658 1775 1887 1867 1760 1874 1979
8 1870 1766 1648 1756 1980 1877 1763 1868
8 1872 1762 1875 1981 1758 1645 1761 1869
8 1757 1649 1766 1870 1871 1765 1880 1982
8 1983 1879 1764 1873 1871 1765 1647 1759
8 1873 1764 1876 1984 1759 1647 1762 1872
8 1877 1773 1655 1763 1986 1881 1767 1874
8 1775 1659 1776 1888 1874 1767 1881 1986
8 1876 1769 1882 1987 1762 1652 1768 1875
8 1878 1770 1883 1988 1764 1653 1769 1876
8 1880 1772 1656 1766 1989 1886 1773 1877
8 1878 1770 1653 1764 1990 1884 1771 1879
8 1765 1654 1772 1880 1879 1771 1885 1991
8 1778 1664 1779 1890 1887 1775 1888 1997
8 1998 1889 1776 1888 1891 1780 1665 1779
8 1893 1782 1891 2000 1781 1668 1779 1890
8 1894 1783 1892 2001 1782 1669 1780 1891
8 1784 1671 1785 1896 1893 1782 1894 2003
8 1897 1786 1895 2004 1785 1672 1783 1894
8 1790 1675 1789 1904 1896 1785 1897 2006
8 1901 1787 1898 2007 1789 1673 1786 1897
8 1903 1788 1900 2013 1789 1673 1787 1901
8 1792 1676 1791 1906 1903 1788 1902 2016
8 1907 1792 1903 2017 1795 1678 1789 1904
8 1906 1791 1677 1794 2019 1905 1793 1909
8 1907 1792 1678 1795 2020 1906 1794 1910
8 1797 1679 1796 1912 1909 1793 1908 2022
8 1798 1680 1797 1913 1910 1794 1909 2023
8 1800 1682 1799 1915 1912 1796 1911 2025
8 1801 1683 1800 1916 1913 1797 1912 2026
8 1803 1687 1804 1918 1915 1799 1914 2028
8 1802 1686 1803 1917 1916 1800 1915 2029
8 1805 1689 1806 1920 1917 1803 1918 2030
8 1806 1690 1807 1921 1918 1804 1919 2031
8 1808 1692 1809 1922 1920 1806 1921 2032
8 1939 1826 1924 2037 1829 1713 1811 1926
8 1926 1811 1925 2039 1813 1697 1812 1928
8 1944 1829 1926 2040 1828 1712 1813 1929
8 1928 1812 1927 2042 1815 1698 1814 1931
8 1929 1813 1928 2043 1816 1699 1815 1932
8 1931 1814 1930 2044 1818 1700 1817 1933
8 1932 1815 1931 2045 1819 1701 1818 1934
8 1934 1818 1933 2046 1821 1704 1820 1935
8 2048 1936 1823 1937 1977 1864 1750 1865
8 1950 1833 1715 1834 2048 1936 1823 1937
8 1938 1824 1751 1866 2049 1937 1865 1978
8 1835 1716 1824 1938 1951 1834 1937 2049
8 1939 1826 1713 1829 2053 1942 1831 1946
8 1940 1827 1923 2035 2053 1942 1826 1939
8 1945 1830 1946 2058 1828 1712 1829 1944
8 2059 1947 1830 1945 1966 1849 1733 1851
8 1947 1832 1730 1849 2060 1948 1848 1965
8 1947 1832 1948 2060 1830 1714 1831 1946
8 1959 1847 1729 1843 2063 1949 1833 1950
8 1952 1843 1725 1836 2064 1950 1834 1951
8 1836 1725 1843 1952 1953 1842 1958 2066
8 1953 1842 1957 2067 1839 1724 1841 1955
8 1841 1955 1838 1723 1956 2068 1954 1840
8 2068 1956 1859 1967 1954 1840 1743 1852
8 1956 1844 1960 2069 1859 1747 1862 1973
8 1845 1957 1841 1727 1960 2069 1956 1844
8 1728 1842 1957 1845 1846 1958 2071 1961
8 1962 2072 1959 1847 1846 1958 1843 1729
8 1971 1861 1964 2077 1857 1746 1848 1965
8 1854 1741 1857 1969 1966 1849 1965 2078
8 1967 1859 1973 2079 1853 1745 1860 1968
8 1970 1858 1744 1856 2080 1972 1860 1968
8 1969 1857 1742 1855 2081 1971 1858 1970
8 1971 1861 1749 1858 2082 1974 1863 1972
8 1973 1862 1975 2083 1860 1748 1863 1972
8 1987 1882 1976 2086 1875 1768 1864 1977
8 1981 1875 1977 2087 1869 1761 1865 1978
8 1980 1877 1763 1868 2088 1986 1874 1979
8 1887 1775 1888 1997 1979 1874 1986 2088
8 1880 1982 2089 1989 1766 1870 1980 1877
8 1984 1876 1987 2090 1872 1762 1875 1981
8 1765 1871 1983 1879 1880 1982 2091 1991
8 1985 1878 1764 1873 2092 1990 1879 1983
8 1985 1878 1988 2093 1873 1764 1876 1984
8 2094 1992 1881 1986 1998 1889 1776 1888
8 1986 1881 1992 2094 1877 1773 1886 1989
8 1988 1883 1993 2095 1876 1769 1882 1987
8 1878 1770 1884 1990 1988 1883 1994 2096
8 1991 1885 1772 1880 2097 1996 1886 1989
8 1879 1771 1885 1991 1990 1884 1995 2098
8 2103 1998 1888 1997 2000 1891 1779 1890
8 2104 1999 1889 1998 2001 1892 1780 1891
8 2003 1894 2001 2106 1893 1782 1891 2000
8 2004 1895 2002 2107 1894 1783 1892 2001
8 2006 1897 2004 2109 1896 1785 1894 2003
8 2007 1898 2005 2110 1897 1786 1895 2004
8 2014 1901 2007 2112 1904 1789 1897 2006
8 2011 1899 2008 2113 1901 1787 1898 2007
8 2119 2010 1899 2011 2013 1900 1787 1901
8 2016 1902 2012 2122 1903 1788 1900 2013
8 2017 1903 2013 2123 1904 1789 1901 2014
8 1906 1791 1905 2019 2016 1902 2015 2125
8 1907 1792 1906 2020 2017 1903 2016 2126
8 1909 1793 1908 2022 2019 1905 2018 2128
8 2020 1906 1794 1910 2129 2019 1909 2023
8 1912 1796 1911 2025 2022 1908 2021 2131
8 1913 1797 1912 2026 2023 1909 2022 2132
8 1915 1799 1914 2028 2025 1911 2024 2134
8 1916 1800 1915 2029 2026 1912 2025 2135
8 1918 1804 1919 2031 2028 1914 2027 2136
8 1917 1803 1918 2030 2029 1915 2028 2137
8 1920 1806 1921 2032 2030 1918 2031 2138
8 1940 1827 1941 2054 2035 1923 2033 2140
8 2035 1923 2034 2143 1939 1826 1924 2037
8 2037 1924 2036 2146 1926 1811 1925 2039
8 2051 1939 2037 2147 1944 1829 1926 2040
8 2039 1925 2038 2149 1928 1812 1927 2042
8 2040 1926 2039 2150 1929 1813 1928 2043
8 2042 1927 2041 2151 1931 1814 1930 2044
8 2043 1928 2042 2152 1932 1815 1931 2045
8 2045 1931 2044 2153 1934 1818 1933 2046
8 2155 2047 1936 2048 2086 1976 1864 1977
8 2063 1949 1833 1950 2155 2047 1936 2048
8 2156 2048 1937 2049 2087 1977 1865 1978
8 2064 1950 1834 1951 2156 2048 1937 2049
8 2051 1939 1829 1944 2160 2053 1946 2058
8 2052 1940 2035 2144 2160 2053 1939 2051
8 2053 1942 1831 1946 2163 2057 1948 2060
8 2055 1943 1827 1940 2163 2057 1942 2053
8 2055 1943 2056 2164 1940 1827 1941 2054
8 2059 1947 1849 1966 2167 2060 1965 2078
8 2059 1947 2060 2167 1945 1830 1946 2058
8 2077 1964 2061 2168 1965 1848 1948 2060
8 2070 1963 1847 1959 2170 2062 1949 2063
8 2065 1959 1843 1952 2171 2063 1950 2064
8 2173 2072 1958 2066 2065 1959 1843 1952
8 1953 1842 1958 2066 2067 1957 2071 2174
8 2068 1956 2069 2175 1967 1859 1973 2079
8 2067 1957 2069 2175 1955 1841 1956 2068
8 1845 1957 2069 1960 1961 2071 2176 2073
8 2069 1960 2073 2176 1973 1862 1975 2083
8 2070 1963 2075 2177 1959 1847 1962 2072
8 1846 1958 2071 1961 1962 2072 2178 2074
8 2077 1964 1861 1971 2182 2076 1974 2082
8 2081 1971 2077 2183 1969 1857 1965 2078
8 2079 1973 2083 2184 1968 1860 1972 2080
8 2081 1971 1858 1970 2185 2082 1972 2080
8 2083 1975 2084 2186 1972 1863 1974 2082
8 2086 1976 1882 1987 2189 2085 1993 2095
8 2090 1987 2086 2190 1981 1875 1977 2087
8 2191 2094 1986 2088 2103 1998 1888 1997
8 2088 1986 2094 2191 1980 1877 1989 2089
8 1991 2091 2192 2097 1880 1982 2089 1989
8 2093 1988 2095 2193 1984 1876 1987 2090
8 1879 1983 2092 1990 1991 2091 2194 2098
8 1985 1878 1990 2092 2093 1988 2096 2195
8 2097 1996 1886 1989 2196 2099 1992 2094
8 2196 2099 1992 2094 2104 1999 1889 1998
8 1994 2096 1988 1883 2100 2197 2095 1993
8 2096 1994 1884 1990 2198 2101 1995 2098
8 1995 2098 2199 2102 1885 1991 2097 1996
8 2203 2104 1998 2103 2106 2001 1891 2000
8 2107 2002 2105 2204 2001 1892 1999 2104
8 2109 2004 2107 2206 2003 1894 2001 2106
8 2110 2005 2108 2207 2004 1895 2002 2107
8 2112 2007 2110 2209 2006 1897 2004 2109
8 2113 2008 2111 2210 2007 1898 2005 2110
8 2120 2011 2113 2212 2014 1901 2007 2112
8 2117 2009 2114 2213 2011 1899 2008 2113
8 2219 2116 2009 2117 2119 2010 1899 2011
8 2222 2118 2010 2119 2122 2012 1900 2013
8 2223 2119 2011 2120 2123 2013 1901 2014
8 2016 1902 2015 2125 2122 2012 2121 2225
8 2126 2016 2122 2226 2017 1903 2013 2123
8 2019 1905 2018 2128 2125 2015 2124 2228
8 2020 1906 2019 2129 2126 2016 2125 2229
8 2022 1908 2021 2131 2128 2018 2127 2231
8 2023 1909 2022 2132 2129 2019 2128 2232
8 2025 1911 2024 2134 2131 2021 2130 2234
8 2026 1912 2025 2135 2132 2022 2131 2235
8 1914 2028 2134 2024 2027 2136 2236 2133
8 2029 1915 2028 2137 2135 2025 2134 2237
8 2030 1918 2031 2138 2137 2028 2136 2238
8 2157 2050 2139 2240 2054 1941 2033 2140
8 2052 1940 2054 2161 2144 2035 2140 2242
8 2140 2033 2141 2243 2035 1923 2034 2143
8 2143 2034 2142 2246 2037 1924 2036 2146
8 2144 2035 2143 2247 2051 1939 2037 2147
8 2146 2036 2145 2249 2039 1925 2038 2149
8 2147 2037 2146 2250 2040 1926 2039 2150
8 2149 2038 2148 2251 2042 1927 2041 2151
8 2150 2039 2149 2252 2043 1928 2042 2152
8 2152 2042 2151 2253 2045 1931 2044 2153
8 2255 2154 2047 2155 2189 2085 1976 2086
8 2170 2062 1949 2063 2255 2154 2047 2155
8 2256 2155 2048 2156 2190 2086 1977 2087
8 2171 2063 1950 2064 2256 2155 2048 2156
8 2258 2159 2050 2157 2164 2056 1941 2054
8 2160 2053 1946 2058 2262 2163 2060 2167
8 2162 2055 1940 2052 2262 2163 2053 2160
8 2162 2055 2164 2263 2052 1940 2054 2161
8 2163 2057 1948 2060 2264 2165 2061 2168
8 2055 1943 2057 2163 2164 2056 2165 2264
8 2182 2076 2166 2268 2077 1964 2061 2168
8 2183 2077 2168 2269 2078 1965 2060 2167
8 2070 1963 2062 2170 2177 2075 2169 2271
8 2172 2070 1959 2065 2272 2170 2063 2171
8 2172 2070 2177 2273 2065 1959 2072 2173
8 2066 1958 2072 2173 2174 2071 2178 2274
8 2067 1957 2071 2174 2175 2069 2176 2275
8 2175 2069 2176 2275 2079 1973 2083 2184
8 2071 1961 2074 2178 2176 2073 2179 2276
8 2176 2073 2179 2276 2083 1975 2084 2186
8 2072 1962 2075 2177 2178 2074 2180 2277
8 2182 2076 1974 2082 2280 2181 2084 2186
8 2183 2077 1971 2081 2281 2182 2082 2185
8 2184 2083 2186 2282 2080 1972 2082 2185
8 2189 2085 1993 2095 2285 2188 2100 2197
8 2190 2086 1987 2090 2286 2189 2095 2193
8 2192 2097 1989 2089 2287 2196 2094 2191
8 2287 2196 2094 2191 2203 2104 1998 2103
8 2194 2098 1991 2091 2288 2199 2097 2192
8 2195 2096 2197 2289 2093 1988 2095 2193
8 2096 2195 2290 2198 1990 2092 2194 2098
8 2097 1996 2099 2196 2199 2102 2200 2291
8 2196 2099 1999 2104 2291 2200 2105 2204
8 2100 2197 2292 2201 1994 2096 2198 2101
8 1995 2098 2198 2101 2102 2199 2293 2202
8 2206 2107 2204 2296 2106 2001 2104 2203
8 2207 2108 2205 2297 2107 2002 2105 2204
8 2209 2110 2207 2299 2109 2004 2107 2206
8 2210 2111 2208 2300 2110 2005 2108 2207
8 2212 2113 2210 2302 2112 2007 2110 2209
8 2213 2114 2211 2303 2113 2008 2111 2210
8 2220 2117 2213 2305 2120 2011 2113 2212
8 2216 2115 2214 2306 2117 2009 2114 2213
8 2216 2115 2009 2117 2311 2217 2116 2219
8 2219 2116 2010 2119 2314 2218 2118 2222
8 2315 2219 2117 2220 2223 2119 2011 2120
8 2122 2012 2121 2225 2222 2118 2221 2317
8 2318 2222 2119 2223 2226 2122 2013 2123
8 2125 2015 2124 2228 2225 2121 2224 2320
8 2126 2016 2125 2229 2226 2122 2225 2321
8 2128 2018 2127 2231 2228 2124 2227 2323
8 2129 2019 2128 2232 2229 2125 2228 2324
8 2131 2021 2130 2234 2231 2127 2230 2326
8 2132 2022 2131 2235 2232 2128 2231 2327
8 2134 2024 2133 2236 2234 2130 2233 2328
8 2135 2025 2134 2237 2235 2131 2234 2329
8 2137 2028 2136 2238 2237 2134 2236 2330
8 2157 2050 2158 2259 2240 2139 2239 2332
8 2257 2157 2240 2334 2161 2054 2140 2242
8 2240 2139 2241 2335 2140 2033 2141 2243
8 2242 2140 2243 2337 2144 2035 2143 2247
8 2243 2141 2244 2338 2143 2034 2142 2246
8 2246 2142 2245 2341 2146 2036 2145 2249
8 2247 2143 2246 2342 2147 2037 2146 2250
8 2249 2145 2248 2343 2149 2038 2148 2251
8 2250 2146 2249 2344 2150 2039 2149 2252
8 2252 2149 2251 2345 2152 2042 2151 2253
8 2169 2271 2347 2254 2062 2170 2255 2154
8 2189 2085 2188 2285 2255 2154 2254 2347
8 2348 2255 2155 2256 2286 2189 2086 2190
8 2272 2170 2063 2171 2348 2255 2155 2256
8 2349 2258 2157 2257 2263 2164 2054 2161
8 2258 2159 2261 2351 2157 2050 2158 2259
8 2258 2159 2056 2164 2351 2261 2165 2264
8 2262 2163 2060 2167 2355 2264 2168 2269
8 2162 2055 2163 2262 2263 2164 2264 2355
8 2357 2266 2165 2264 2268 2166 2061 2168
8 2268 2166 2076 2182 2361 2267 2181 2280
8 2281 2182 2268 2362 2183 2077 2168 2269
8 2271 2169 2270 2364 2177 2075 2180 2277
8 2172 2070 2170 2272 2273 2177 2271 2365
8 2072 2173 2274 2178 2177 2273 2366 2277
8 2071 2174 2275 2176 2178 2274 2367 2276
8 2275 2176 2276 2367 2184 2083 2186 2282
8 2283 2187 2084 2186 2368 2278 2179 2276
8 2178 2074 2180 2277 2276 2179 2278 2368
8 2283 2187 2279 2370 2186 2084 2181 2280
8 2281 2182 2082 2185 2371 2280 2186 2282
8 2188 2285 2374 2284 2100 2197 2292 2201
8 2286 2189 2095 2193 2375 2285 2197 2289
8 2192 2097 2196 2287 2288 2199 2291 2376
8 2287 2196 2104 2203 2376 2291 2204 2296
8 2194 2098 2199 2288 2290 2198 2293 2377
8 2289 2197 2096 2195 2378 2292 2198 2290
8 2291 2200 2105 2204 2379 2294 2205 2297
8 2199 2102 2200 2291 2293 2202 2294 2379
8 2198 2101 2202 2293 2292 2201 2295 2380
8 2299 2207 2297 2383 2206 2107 2204 2296
8 2300 2208 2298 2384 2207 2108 2205 2297
8 2302 2210 2300 2386 2209 2110 2207 2299
8 2303 2211 2301 2387 2210 2111 2208 2300
8 2305 2213 2303 2389 2212 2113 2210 2302
8 2306 2214 2304 2390 2213 2114 2211 2303
8 2310 2216 2306 2392 2220 2117 2213 2305
8 2308 2215 2307 2393 2216 2115 2214 2306
8 2308 2215 2115 2216 2396 2309 2217 2311
8 2310 2216 2117 2220 2398 2311 2219 2315
8 2311 2217 2116 2219 2399 2312 2218 2314
8 2314 2218 2118 2222 2402 2313 2221 2317
8 2315 2219 2119 2223 2403 2314 2222 2318
8 2225 2121 2224 2320 2317 2221 2316 2405
8 2226 2122 2225 2321 2318 2222 2317 2406
8 2228 2124 2227 2323 2320 2224 2319 2408
8 2229 2125 2228 2324 2321 2225 2320 2409
8 2231 2127 2230 2326 2323 2227 2322 2411
8 2232 2128 2231 2327 2324 2228 2323 2412
8 2234 2130 2233 2328 2326 2230 2325 2413
8 2235 2131 2234 2329 2327 2231 2326 2414
8 2237 2134 2236 2330 2329 2234 2328 2415
8 2259 2158 2260 2352 2332 2239 2331 2417
8 2257 2157 2259 2350 2334 2240 2332 2419
8 2240 2139 2239 2332 2335 2241 2333 2420
8 2334 2240 2335 2422 2242 2140 2243 2337
8 2335 2241 2336 2423 2243 2141 2244 2338
8 2337 2243 2338 2425 2247 2143 2246 2342
8 2338 2244 2339 2426 2246 2142 2245 2341
8 2341 2245 2340 2428 2249 2145 2248 2343
8 2342 2246 2341 2429 2250 2146 2249 2344
8 2344 2249 2343 2430 2252 2149 2251 2345
8 2188 2285 2347 2254 2284 2374 2432 2346
8 2347 2254 2346 2432 2271 2169 2270 2364
8 2365 2271 2170 2272 2433 2347 2255 2348
8 2286 2189 2285 2375 2348 2255 2347 2433
8 2349 2258 2351 2435 2257 2157 2259 2350
8 2349 2258 2164 2263 2435 2351 2264 2355
8 2259 2158 2261 2351 2352 2260 2354 2437
8 2356 2265 2354 2437 2264 2165 2261 2351
8 2441 2357 2264 2355 2362 2268 2168 2269
8 2356 2265 2165 2264 2442 2358 2266 2357
8 2443 2359 2266 2357 2361 2267 2166 2268
8 2370 2279 2360 2446 2280 2181 2267 2361
8 2362 2268 2182 2281 2447 2361 2280 2371
8 2180 2277 2368 2278 2270 2364 2449 2363
8 2271 2365 2273 2177 2364 2450 2366 2277
8 2372 2283 2186 2282 2451 2368 2276 2367
8 2178 2274 2367 2276 2277 2366 2451 2368
8 2283 2187 2278 2368 2370 2279 2369 2452
8 2372 2283 2370 2453 2282 2186 2280 2371
8 2284 2374 2455 2373 2201 2292 2380 2295
8 2375 2285 2197 2289 2456 2374 2292 2378
8 2376 2291 2204 2296 2457 2379 2297 2383
8 2288 2199 2291 2376 2377 2293 2379 2457
8 2198 2290 2378 2292 2293 2377 2458 2380
8 2293 2202 2294 2379 2380 2295 2381 2459
8 2384 2298 2381 2459 2297 2205 2294 2379
8 2386 2300 2384 2463 2299 2207 2297 2383
8 2387 2301 2385 2464 2300 2208 2298 2384
8 2389 2303 2387 2466 2302 2210 2300 2386
8 2390 2304 2388 2467 2303 2211 2301 2387
8 2392 2306 2390 2469 2305 2213 2303 2389
8 2393 2307 2391 2470 2306 2214 2304 2390
8 2395 2308 2393 2472 2310 2216 2306 2392
8 2308 2215 2309 2396 2393 2307 2394 2473
8 2395 2308 2216 2310 2475 2396 2311 2398
8 2396 2309 2217 2311 2476 2397 2312 2399
8 2398 2311 2219 2315 2478 2399 2314 2403
8 2399 2312 2218 2314 2479 2400 2313 2402
8 2317 2221 2316 2405 2402 2313 2401 2482
8 2403 2314 2222 2318 2483 2402 2317 2406
8 2320 2224 2319 2408 2405 2316 2404 2485
8 2321 2225 2320 2409 2406 2317 2405 2486
8 2323 2227 2322 2411 2408 2319 2407 2488
8 2324 2228 2323 2412 2409 2320 2408 2489
8 2326 2230 2325 2413 2411 2322 2410 2490
8 2327 2231 2326 2414 2412 2323 2411 2491
8 2329 2234 2328 2415 2414 2326 2413 2492
8 2417 2331 2260 2352 2494 2416 2353 2438
8 2350 2259 2352 2436 2419 2332 2417 2496
8 2332 2239 2331 2417 2420 2333 2418 2497
8 2334 2240 2332 2419 2422 2335 2420 2499
8 2420 2333 2421 2500 2335 2241 2336 2423
8 2422 2335 2423 2502 2337 2243 2338 2425
8 2423 2336 2424 2503 2338 2244 2339 2426
8 2425 2338 2426 2505 2342 2246 2341 2429
8 2426 2339 2427 2506 2341 2245 2340 2428
8 2429 2341 2428 2507 2344 2249 2343 2430
8 2432 2346 2284 2374 2509 2431 2373 2455
8 2432 2346 2431 2509 2364 2270 2363 2449
8 2375 2285 2374 2456 2433 2347 2432 2510
8 2347 2433 2365 2271 2432 2510 2450 2364
8 2350 2259 2351 2435 2436 2352 2437 2514
8 2440 2356 2437 2514 2355 2264 2351 2435
8 2352 2260 2354 2437 2438 2353 2439 2516
8 2356 2265 2358 2442 2437 2354 2439 2516
8 2440 2356 2264 2355 2518 2442 2357 2441
8 2519 2443 2357 2441 2447 2361 2268 2362
8 2443 2359 2444 2520 2357 2266 2358 2442
8 2443 2359 2267 2361 2520 2444 2360 2446
8 2446 2360 2279 2370 2523 2445 2369 2452
8 2453 2370 2446 2524 2371 2280 2361 2447
8 2449 2363 2448 2525 2368 2278 2369 2452
8 2366 2277 2364 2450 2451 2368 2449 2526
8 2372 2283 2368 2451 2453 2370 2452 2527
8 2455 2373 2295 2380 2529 2454 2382 2460
8 2456 2374 2292 2378 2530 2455 2380 2458
8 2377 2293 2379 2457 2458 2380 2459 2531
8 2463 2384 2459 2531 2383 2297 2379 2457
8 2533 2461 2382 2460 2459 2381 2295 2380
8 2464 2385 2461 2533 2384 2298 2381 2459
8 2466 2387 2464 2537 2386 2300 2384 2463
8 2467 2388 2465 2538 2387 2301 2385 2464
8 2469 2390 2467 2540 2389 2303 2387 2466
8 2470 2391 2468 2541 2390 2304 2388 2467
8 2472 2393 2470 2543 2392 2306 2390 2469
8 2393 2307 2394 2473 2470 2391 2471 2544
8 2395 2308 2396 2475 2472 2393 2473 2546
8 2396 2309 2397 2476 2473 2394 2474 2547
8 2475 2396 2311 2398 2549 2476 2399 2478
8 2476 2397 2312 2399 2550 2477 2400 2479
8 2478 2399 2314 2403 2552 2479 2402 2483
8 2479 2400 2313 2402 2553 2480 2401 2482
8 2405 2316 2404 2485 2482 2401 2481 2556
8 2406 2317 2405 2486 2483 2402 2482 2557
8 2408 2319 2407 2488 2485 2404 2484 2559
8 2409 2320 2408 2489 2486 2405 2485 2560
8 2411 2322 2410 2490 2488 2407 2487 2561
8 2412 2323 2411 2491 2489 2408 2488 2562
8 2414 2326 2413 2492 2491 2411 2490 2563
8 2513 2434 2493 2565 2438 2353 2416 2494
8 2496 2417 2352 2436 2567 2494 2438 2515
8 2494 2416 2495 2568 2417 2331 2418 2497
8 2419 2332 2417 2496 2499 2420 2497 2570
8 2497 2418 2498 2571 2420 2333 2421 2500
8 2499 2420 2500 2573 2422 2335 2423 2502
8 2500 2421 2501 2574 2423 2336 2424 2503
8 2502 2423 2503 2576 2425 2338 2426 2505
8 2503 2424 2504 2577 2426 2339 2427 2506
8 2505 2426 2506 2578 2429 2341 2428 2507
8 2509 2431 2373 2455 2580 2508 2454 2529
8 2509 2431 2508 2580 2449 2363 2448 2525
8 2432 2510 2581 2509 2374 2456 2530 2455
8 2432 2510 2450 2364 2509 2581 2526 2449
8 2583 2511 2434 2513 2516 2439 2353 2438
8 2436 2352 2437 2514 2515 2438 2516 2588
8 2440 2356 2442 2518 2514 2437 2516 2588
8 2442 2358 2444 2520 2516 2439 2517 2589
8 2519 2443 2520 2591 2441 2357 2442 2518
8 2519 2443 2361 2447 2591 2520 2446 2524
8 2446 2360 2445 2523 2520 2444 2521 2592
8 2525 2448 2522 2593 2452 2369 2445 2523
8 2524 2446 2370 2453 2594 2523 2452 2527
8 2526 2449 2525 2595 2451 2368 2452 2527
8 2534 2462 2528 2597 2460 2382 2454 2529
8 2530 2455 2380 2458 2598 2529 2460 2532
8 2599 2533 2460 2532 2531 2459 2380 2458
8 2537 2464 2533 2599 2463 2384 2459 2531
8 2534 2462 2382 2460 2601 2535 2461 2533
8 2538 2465 2535 2601 2464 2385 2461 2533
8 2540 2467 2538 2604 2466 2387 2464 2537
8 2541 2468 2539 2605 2467 2388 2465 2538
8 2543 2470 2541 2607 2469 2390 2467 2540
8 2470 2391 2471 2544 2541 2468 2542 2608
8 2472 2393 2473 2546 2543 2470 2544 2610
8 2473 2394 2474 2547 2544 2471 2545 2611
8 2475 2396 2476 2549 2546 2473 2547 2613
8 2476 2397 2477 2550 2547 2474 2548 2614
8 2549 2476 2399 2478 2616 2550 2479 2552
8 2479 2400 2480 2553 2550 2477 2551 2617
8 2552 2479 2402 2483 2619 2553 2482 2557
8 2482 2401 2481 2556 2553 2480 2554 2620
8 2485 2404 2484 2559 2556 2481 2555 2623
8 2486 2405 2485 2560 2557 2482 2556 2624
8 2488 2407 2487 2561 2559 2484 2558 2625
8 2489 2408 2488 2562 2560 2485 2559 2626
8 2491 2411 2490 2563 2562 2488 2561 2627
8 2513 2434 2512 2585 2565 2493 2564 2630
8 2586 2513 2565 2632 2515 2438 2494 2567
8 2565 2493 2566 2633 2494 2416 2495 2568
8 2567 2494 2568 2635 2496 2417 2497 2570
8 2568 2495 2569 2636 2497 2418 2498 2571
8 2570 2497 2571 2638 2499 2420 2500 2573
8 2571 2498 2572 2639 2500 2421 2501 2574
8 2573 2500 2574 2641 2502 2423 2503 2576
8 2574 2501 2575 2642 2503 2424 2504 2577
8 2576 2503 2577 2643 2505 2426 2506 2578
8 2597 2528 2579 2645 2529 2454 2508 2580
8 2580 2508 2579 2645 2525 2448 2522 2593
8 2581 2509 2455 2530 2646 2580 2529 2598
8 2581 2509 2580 2646 2526 2449 2525 2595
8 2583 2511 2582 2648 2513 2434 2512 2585
8 2583 2511 2439 2516 2648 2582 2517 2589
8 2649 2583 2513 2586 2588 2516 2438 2515
8 2589 2517 2444 2520 2653 2587 2521 2592
8 2518 2442 2520 2591 2588 2516 2589 2654
8 2593 2522 2590 2655 2523 2445 2521 2592
8 2524 2446 2523 2594 2591 2520 2592 2656
8 2595 2525 2593 2657 2527 2452 2523 2594
8 2602 2536 2596 2659 2534 2462 2528 2597
8 2600 2534 2597 2660 2532 2460 2529 2598
8 2600 2534 2460 2532 2661 2601 2533 2599
8 2604 2538 2601 2661 2537 2464 2533 2599
8 2602 2536 2462 2534 2663 2603 2535 2601
8 2601 2535 2465 2538 2663 2603 2539 2605
8 2607 2541 2605 2665 2540 2467 2538 2604
8 2608 2542 2606 2666 2541 2468 2539 2605
8 2543 2470 2544 2610 2607 2541 2608 2668
8 2544 2471 2545 2611 2608 2542 2609 2669
8 2546 2473 2547 2613 2610 2544 2611 2671
8 2547 2474 2548 2614 2611 2545 2612 2672
8 2549 2476 2550 2616 2613 2547 2614 2674
8 2550 2477 2551 2617 2614 2548 2615 2675
8 2552 2479 2553 2619 2616 2550 2617 2677
8 2553 2480 2554 2620 2617 2551 2618 2678
8 2557 2482 2556 2624 2619 2553 2620 2680
8 2556 2481 2555 2623 2620 2554 2621 2681
8 2559 2484 2558 2625 2623 2555 2622 2683
8 2560 2485 2559 2626 2624 2556 2623 2684
8 2562 2488 2561 2627 2626 2559 2625 2685
8 2690 2629 2564 2630 2650 2584 2512 2585
8 2586 2513 2585 2651 2632 2565 2630 2691
8 2630 2564 2631 2692 2565 2493 2566 2633
8 2632 2565 2633 2694 2567 2494 2568 2635
8 2633 2566 2634 2695 2568 2495 2569 2636
8 2635 2568 2636 2697 2570 2497 2571 2638
8 2636 2569 2637 2698 2571 2498 2572 2639
8 2638 2571 2639 2700 2573 2500 2574 2641
8 2639 2572 2640 2701 2574 2501 2575 2642
8 2641 2574 2642 2702 2576 2503 2577 2643
8 2597 2528 2596 2659 2645 2579 2644 2704
8 2645 2579 2644 2704 2593 2522 2590 2655
8 2660 2597 2645 2705 2598 2529 2580 2646
8 2646 2580 2645 2705 2595 2525 2593 2657
8 2650 2584 2512 2585 2707 2647 2582 2648
8 2648 2582 2517 2589 2707 2647 2587 2653
8 2649 2583 2648 2708 2586 2513 2585 2651
8 2649 2583 2516 2588 2708 2648 2589 2654
8 2655 2590 2652 2710 2592 2521 2587 2653
8 2654 2589 2520 2591 2711 2653 2592 2656
8 2657 2593 2655 2712 2594 2523 2592 2656
8 2602 2536 2603 2663 2659 2596 2658 2714
8 2662 2602 2659 2715 2600 2534 2597 2660
8 2662 2602 2534 2600 2717 2663 2601 2661
8 2661 2601 2538 2604 2717 2663 2605 2665
8 2666 2606 2664 2718 2605 2539 2603 2663
8 2668 2608 2666 2720 2607 2541 2605 2665
8 2608 2542 2609 2669 2666 2606 2667 2721
8 2610 2544 2611 2671 2668 2608 2669 2723
8 2611 2545 2612 2672 2669 2609 2670 2724
8 2613 2547 2614 2674 2671 2611 2672 2726
8 2614 2548 2615 2675 2672 2612 2673 2727
8 2616 2550 2617 2677 2674 2614 2675 2729
8 2617 2551 2618 2678 2675 2615 2676 2730
8 2619 2553 2620 2680 2677 2617 2678 2732
8 2620 2554 2621 2681 2678 2618 2679 2733
8 2624 2556 2623 2684 2680 2620 2681 2735
8 2681 2621 2555 2623 2736 2682 2622 2683
8 2626 2559 2625 2685 2684 2623 2683 2737
8 2688 2628 2584 2650 2740 2686 2647 2707
8 2688 2628 2687 2742 2650 2584 2629 2690
8 2690 2629 2689 2745 2630 2564 2631 2692
8 2746 2690 2630 2691 2709 2650 2585 2651
8 2691 2630 2692 2747 2632 2565 2633 2694
8 2692 2631 2693 2748 2633 2566 2634 2695
8 2694 2633 2695 2750 2635 2568 2636 2697
8 2695 2634 2696 2751 2636 2569 2637 2698
8 2697 2636 2698 2753 2638 2571 2639 2700
8 2698 2637 2699 2754 2639 2572 2640 2701
8 2700 2639 2701 2755 2641 2574 2642 2702
8 2659 2596 2658 2714 2704 2644 2703 2757
8 2704 2644 2703 2757 2655 2590 2652 2710
8 2660 2597 2659 2715 2705 2645 2704 2758
8 2705 2645 2704 2758 2657 2593 2655 2712
8 2759 2706 2647 2707 2710 2652 2587 2653
8 2709 2650 2585 2651 2760 2707 2648 2708
8 2708 2648 2589 2654 2760 2707 2653 2711
8 2712 2655 2710 2761 2656 2592 2653 2711
8 2763 2713 2658 2714 2718 2664 2603 2663
8 2662 2602 2663 2717 2715 2659 2714 2764
8 2720 2666 2718 2767 2665 2605 2663 2717
8 2768 2719 2664 2718 2721 2667 2606 2666
8 2668 2608 2669 2723 2720 2666 2721 2770
8 2669 2609 2670 2724 2721 2667 2722 2771
8 2671 2611 2672 2726 2723 2669 2724 2773
8 2672 2612 2673 2727 2724 2670 2725 2774
8 2674 2614 2675 2729 2726 2672 2727 2776
8 2675 2615 2676 2730 2727 2673 2728 2777
8 2677 2617 2678 2732 2729 2675 2730 2779
8 2678 2618 2679 2733 2730 2676 2731 2780
8 2680 2620 2681 2735 2732 2678 2733 2782
8 2733 2679 2621 2681 2783 2734 2682 2736
8 2735 2681 2623 2684 2784 2736 2683 2737
8 2740 2686 2647 2707 2787 2738 2706 2759
8 2688 2628 2686 2740 2742 2687 2739 2789
8 2743 2688 2650 2709 2790 2740 2707 2760
8 2742 2687 2741 2792 2690 2629 2689 2745
8 2743 2688 2742 2793 2709 2650 2690 2746
8 2745 2689 2744 2795 2692 2631 2693 2748
8 2746 2690 2745 2796 2691 2630 2692 2747
8 2747 2692 2748 2797 2694 2633 2695 2750
8 2748 2693 2749 2798 2695 2634 2696 2751
8 2750 2695 2751 2800 2697 2636 2698 2753
8 2751 2696 2752 2801 2698 2637 2699 2754
8 2753 2698 2754 2802 2700 2639 2701 2755
8 2763 2713 2756 2804 2714 2658 2703 2757
8 2759 2706 2652 2710 2804 2756 2703 2757
8 2715 2659 2714 2764 2758 2704 2757 2805
8 2758 2704 2757 2805 2712 2655 2710 2761
8 2806 2759 2707 2760 2761 2710 2653 2711
8 2765 2716 2762 2808 2718 2664 2713 2763
8 2809 2763 2714 2764 2767 2718 2663 2717
8 2765 2716 2664 2718 2811 2766 2719 2768
8 2813 2768 2718 2767 2770 2721 2666 2720
8 2814 2769 2719 2768 2771 2722 2667 2721
8 2723 2669 2724 2773 2770 2721 2771 2816
8 2724 2670 2725 2774 2771 2722 2772 2817
8 2726 2672 2727 2776 2773 2724 2774 2819
8 2727 2673 2728 2777 2774 2725 2775 2820
8 2729 2675 2730 2779 2776 2727 2777 2822
8 2730 2676 2731 2780 2777 2728 2778 2823
8 2732 2678 2733 2782 2779 2730 2780 2825
8 2780 2731 2679 2733 2826 2781 2734 2783
8 2782 2733 2681 2735 2827 2783 2736 2784
8 2830 2785 2738 2787 2804 2756 2706 2759
8 2789 2739 2686 2740 2832 2786 2738 2787
8 2790 2740 2707 2760 2833 2787 2759 2806
8 2742 2687 2739 2789 2792 2741 2788 2835
8 2743 2688 2740 2790 2793 2742 2789 2836
8 2792 2741 2791 2838 2745 2689 2744 2795
8 2793 2742 2792 2839 2746 2690 2745 2796
8 2795 2744 2794 2841 2748 2693 2749 2798
8 2796 2745 2795 2842 2747 2692 2748 2797
8 2797 2748 2798 2843 2750 2695 2751 2800
8 2798 2749 2799 2844 2751 2696 2752 2801
8 2800 2751 2801 2845 2753 2698 2754 2802
8 2808 2762 2803 2847 2763 2713 2756 2804
8 2809 2763 2804 2848 2764 2714 2757 2805
8 2806 2759 2710 2761 2848 2804 2757 2805
8 2765 2716 2766 2811 2808 2762 2807 2850
8 2810 2765 2808 2851 2767 2718 2763 2809
8 2810 2765 2718 2767 2852 2811 2768 2813
8 2811 2766 2719 2768 2853 2812 2769 2814
8 2855 2814 2768 2813 2816 2771 2721 2770
8 2856 2815 2769 2814 2817 2772 2722 2771
8 2773 2724 2774 2819 2816 2771 2817 2858
8 2774 2725 2775 2820 2817 2772 2818 2859
8 2776 2727 2777 2822 2819 2774 2820 2861
8 2777 2728 2778 2823 2820 2775 2821 2862
8 2779 2730 2780 2825 2822 2777 2823 2864
8 2823 2778 2731 2780 2865 2824 2781 2826
8 2825 2780 2733 2782 2866 2826 2783 2827
8 2869 2828 2785 2830 2847 2803 2756 2804
8 2871 2829 2786 2832 2830 2785 2738 2787
8 2872 2830 2787 2833 2848 2804 2759 2806
8 2789 2739 2786 2832 2835 2788 2831 2874
8 2836 2789 2740 2790 2875 2832 2787 2833
8 2792 2741 2788 2835 2838 2791 2834 2877
8 2793 2742 2789 2836 2839 2792 2835 2878
8 2838 2791 2837 2880 2795 2744 2794 2841
8 2839 2792 2838 2881 2796 2745 2795 2842
8 2841 2794 2840 2882 2798 2749 2799 2844
8 2842 2795 2841 2883 2797 2748 2798 2843
8 2843 2798 2844 2884 2800 2751 2801 2845
8 2886 2846 2803 2847 2850 2807 2762 2808
8 2851 2808 2847 2887 2809 2763 2804 2848
8 2850 2807 2766 2811 2889 2849 2812 2853
8 2810 2765 2811 2852 2851 2808 2850 2890
8 2852 2811 2768 2813 2891 2853 2814 2855
8 2853 2812 2769 2814 2892 2854 2815 2856
8 2894 2856 2814 2855 2858 2817 2771 2816
8 2817 2772 2818 2859 2856 2815 2857 2895
8 2819 2774 2820 2861 2858 2817 2859 2897
8 2820 2775 2821 2862 2859 2818 2860 2898
8 2822 2777 2823 2864 2861 2820 2862 2900
8 2823 2778 2824 2865 2862 2821 2863 2901
8 2864 2823 2780 2825 2902 2865 2826 2866
8 2904 2867 2828 2869 2886 2846 2803 2847
8 2869 2828 2868 2906 2830 2785 2829 2871
8 2907 2869 2830 2872 2887 2847 2804 2848
8 2871 2829 2870 2909 2832 2786 2831 2874
8 2910 2871 2832 2875 2872 2830 2787 2833
8 2835 2788 2831 2874 2877 2834 2873 2912
8 2836 2789 2832 2875 2878 2835 2874 2913
8 2877 2834 2876 2915 2838 2791 2837 2880
8 2839 2792 2835 2878 2881 2838 2877 2916
8 2880 2837 2879 2917 2841 2794 2840 2882
8 2881 2838 2880 2918 2842 2795 2841 2883
8 2883 2841 2882 2919 2843 2798 2844 2884
8 2921 2885 2846 2886 2889 2849 2807 2850
8 2922 2886 2847 2887 2890 2850 2808 2851
8 2889 2849 2812 2853 2924 2888 2854 2892
8 2890 2850 2811 2852 2925 2889 2853 2891
8 2891 2853 2814 2855 2926 2892 2856 2894
8 2892 2854 2815 2856 2927 2893 2857 2895
8 2858 2817 2859 2897 2894 2856 2895 2929
8 2859 2818 2860 2898 2895 2857 2896 2930
8 2861 2820 2862 2900 2897 2859 2898 2932
8 2862 2821 2863 2901 2898 2860 2899 2933
8 2864 2823 2865 2902 2900 2862 2901 2934
8 2904 2867 2846 2886 2936 2903 2885 2921
8 2904 2867 2903 2936 2869 2828 2868 2906
8 2937 2904 2869 2907 2922 2886 2847 2887
8 2906 2868 2905 2939 2871 2829 2870 2909
8 2907 2869 2906 2940 2872 2830 2871 2910
8 2909 2870 2908 2942 2874 2831 2873 2912
8 2910 2871 2909 2943 2875 2832 2874 2913
8 2912 2873 2911 2945 2877 2834 2876 2915
8 2878 2835 2874 2913 2916 2877 2912 2946
8 2915 2876 2914 2947 2880 2837 2879 2917
8 2916 2877 2915 2948 2881 2838 2880 2918
8 2918 2880 2917 2949 2883 2841 2882 2919
8 2921 2885 2849 2889 2951 2920 2888 2924
8 2952 2921 2886 2922 2925 2889 2850 2890
8 2924 2888 2854 2892 2954 2923 2893 2927
8 2925 2889 2853 2891 2955 2924 2892 2926
8 2926 2892 2856 2894 2956 2927 2895 2929
8 2895 2857 2896 2930 2927 2893 2928 2957
8 2897 2859 2898 2932 2929 2895 2930 2959
8 2898 2860 2899 2933 2930 2896 2931 2960
8 2900 2862 2901 2934 2932 2898 2933 2961
8 2936 2903 2885 2921 2963 2935 2920 2951
8 2936 2903 2935 2963 2906 2868 2905 2939
8 2937 2904 2886 2922 2964 2936 2921 2952
8 2937 2904 2936 2964 2907 2869 2906 2940
8 2939 2905 2938 2966 2909 2870 2908 2942
8 2940 2906 2939 2967 2910 2871 2909 2943
8 2942 2908 2941 2969 2912 2873 2911 2945
8 2943 2909 2942 2970 2913 2874 2912 2946
8 2945 2911 2944 2971 2915 2876 2914 2947
8 2946 2912 2945 2972 2916 2877 2915 2948
8 2948 2915 2947 2973 2918 2880 2917 2949
8 2951 2920 2888 2924 2975 2950 2923 2954
8 2952 2921 2889 2925 2976 2951 2924 2955
8 2927 2893 2928 2957 2954 2923 2953 2978
8 2955 2924 2892 2926 2979 2954 2927 2956
8 2929 2895 2930 2959 2956 2927 2957 2980
8 2930 2896 2931 2960 2957 2928 2958 2981
8 2932 2898 2933 2961 2959 2930 2960 2982
8 2951 2920 2950 2975 2963 2935 2962 2984
8 2963 2935 2962 2984 2939 2905 2938 2966
8 2964 2936 2921 2952 2985 2963 2951 2976
8 2964 2936 2963 2985 2940 2906 2939 2967
8 2966 2938 2965 2987 2942 2908 2941 2969
8 2967 2939 2966 2988 2943 2909 2942 2970
8 2969 2941 2968 2989 2945 2911 2944 2971
8 2970 2942 2969 2990 2946 2912 2945 2972
8 2972 2945 2971 2991 2948 2915 2947 2973
8 2954 2923 2953 2978 2975 2950 2974 2993
8 2976 2951 2924 2955 2994 2975 2954 2979
8 2957 2928 2958 2981 2978 2953 2977 2995
8 2956 2927 2957 2980 2979 2954 2978 2996
8 2959 2930 2960 2982 2980 2957 2981 2997
8 2984 2962 2983 2999 2966 2938 2965 2987
8 2975 2950 2974 2993 2984 2962 2983 2999
8 2976 2951 2975 2994 2985 2963 2984 3000
8 2985 2963 2984 3000 2967 2939 2966 2988
8 2987 2965 2986 3001 2969 2941 2968 2989
8 2988 2966 2987 3002 2970 2942 2969 2990
8 2990 2969 2989 3003 2972 2945 2971 2991
8 2978 2953 2977 2995 2993 2974 2992 3004
8 2979 2954 2978 2996 2994 2975 2993 3005
8 2980 2957 2981 2997 2996 2978 2995 3006
8 2974 2993 2999 2983 2992 3004 3007 2998
8 2983 2999 2987 2965 2998 3007 3001 2986
8 3000 2984 2999 3008 2988 2966 2987 3002
8 2994 2975 2993 3005 3000 2984 2999 3008
8 3002 2987 3001 3009 2990 2969 2989 3003
8 2996 2978 2995 3006 3005 2993 3004 3010
8 3005 2993 3004 3010 3008 2999 3007 3011
8 3008 2999 3007 3011 3002 2987 3001 3009

CELL_TYPES 1910
12
12
12
12
12
12
12
12
12
12
12
12
12
12
12
12
12
12
12
12
12
12
12
12
12
12
12
12
12
12
12
12
12
12
12
12
12
12
12
12
12
12
12
12
12
12
12
12
12
12
12
12
12
12
12
12
12
12
12
12
12
12
12
12
12
12
12
12
12
12
12
12
12
12
12
12
12
12
12
12
12
12
12
12
12
12
12
12
12
12
12
12
12
12
12
12
12
12
12
12
12
12
12
12
12
12
12
12
12
12
12
12
12
12
12
12
12
12
12
12
12
12
12
12
12
12
12
12
12
12
12
12
12
12
12
12
12
12
12
12
12
12
12
12
12
12
12
12
12
12
12
12
12
12
12
12
12
12
12
12
12
12
12
12
12
12
12
12
12
12
12
12
12
12
12
12
12
12
12
12
12
12
12
12
12
12
12
12
12
12
12
12
12
12
12
12
12
12
12
12
12
12
12
12
12
12
12
12
12
12
12
12
12
12
12
12
12
12
12
12
12
12
12
12
12
12
12
12
12
12
12
12
12
12
12
12
12
12
12
12
12
12
12
12
12
12
12
12
12
12
12
12
12
12
12
12
12
12
12
12
12
12
12
12
12
12
12
12
12
12
12
12
12
12
12
12
12
12
12
12
12
12
12
12
12
12
12
12
12
12
12
12
12
12
12
12
12
12
12
12
12
12
12
12
12
12
12
12
12
12
12
12
12
12
12
12
12
12
12
12
12
12
12
12
12
12
12
12
12
12
12
12
12
12
12
12
12
12
12
12
12
12
12
12
12
12
12
12
12
12
12
12
12
12
12
12
12
12
12
12
12
12
12
12
12
12
12
12
12
12
12
12
12
12
12
12
12
12
12
12
12
12
12
12
12
12
12
12
12
12
12
12
12
12
12
12
12
12
12
12
12
12
12
12
12
12
12
12
12
12
12
12
12
12
12
12
12
12
12
12
12
12
12
12
12
12
12
12
12
12
12
12
12
12
12
12
12
12
12
12
12
12
12
12
12
12
12
12
12
12
12
12
12
12
12
12
12
12
12
12
12
12
12
12
12
12
12
12
12
12
12
12
12
12
12
12
12
12
12
12
12
12
12
12
12
12
12
12
12
12
12
12
12
12
12
12
12
12
12
12
12
12
12
12
12
12
12
12
12
12
12
12
12
12
12
12
12
12
12
12
12
12
12
12
12
12
12
12
12
12
12
12
12
12
12
12
12
12
12
12
12
12
12
12
12
12
12
12
12
12
12
12
12
12
12
12
12
12
12
12
12
12
12
12
12
12
12
12
12
12
12
12
12
12
12
12
12
12
12
12
12
12
12
12
12
12
12
12
12
12
12
12
12
12
12
12
12
12
12
12
12
12
12
12
12
12
12
12
12
12
12
12
12
12
12
12
12
12
12
12
12
12
12
12
12
12
12
12
12
12
12
12
12
12
12
12
12
12
12
12
12
12
12
12
12
12
12
12
12
12
12
12
12
12
12
12
12
12
12
12
12
12
12
12
12
12
12
12
12
12
12
12
12
12
12
12
12
12
12
12
12
12
12
12
12
12
12
12
12
12
12
12
12
12
12
12
12
12
12
12
12
12
12
12
12
12
12
12
12
12
12
12
12
12
12
12
12
12
12
12
12
12
12
12
12
12
12
12
12
12
12
12
12
12
12
12
12
12
12
12
12
12
12
12
12
12
12
12
12
12
12
12
12
12
12
12
12
12
12
12
12
12
12
12
12
12
12
12
12
12
12
12
12
12
12
12
12
12
12
12
12
12
12
12
12
12
12
12
12
12
12
12
12
12
12
12
12
12
12
12
12
12
12
12
12
12
12
12
12
12
12
12
12
12
12
12
12
12
12
12
12
12
12
12
12
12
12
12
12
12
12
12
12
12
12
12
12
12
12
12
12
12
12
12
12
12
12
12
12
12
12
12
12
12
12
12
12
12
12
12
12
12
12
12
12
12
12
12
12
12
12
12
12
12
12
12
12
12
12
12
12
12
12
12
12
12
12
12
12
12
12
12
12
12
12
12
12
12
12
12
12
12
12
12
12
12
12
12
12
12
12
12
12
12
12
12
12
12
12
12
12
12
12
12
12
12
12
12
12
12
12
12
12
12
12
12
12
12
12
12
12
12
12
12
12
12
12
12
12
12
12
12
12
12
12
12
12
12
12
12
12
12
12
12
12
12
12
12
12
12
12
12
12
12
12
12
12
12
12
12
12
12
12
12
12
12
12
12
12
12
12
12
12
12
12
12
12
12
12
12
12
12
12
12
12
12
12
12
12
12
12
12
12
12
12
12
12
12
12
12
12
12
12
12
12
12
12
12
12
12
12
12
12
12
12
12
12
12
12
12
12
12
12
12
12
12
12
12
12
12
12
12
12
12
12
12
12
12
12
12
12
12
12
12
12
12
12
12
12
12
12
12
12
12
12
12
12
12
12
12
12
12
12
12
12
12
12
12
12
12
12
12
12
12
12
12
12
12
12
12
12
12
12
12
12
12
12
12
12
12
12
12
12
12
12
12
12
12
12
12
12
12
12
12
12
12
12
12
12
12
12
12
12
12
12
12
12
12
12
12
12
12
12
12
12
12
12
12
12
12
12
12
12
12
12
12
12
12
12
12
12
12
12
12
12
12
12
12
12
12
12
12
12
12
12
12
12
12
12
12
12
12
12
12
12
12
12
12
12
12
12
12
12
12
12
12
12
12
12
12
12
12
12
12
12
12
12
12
12
12
12
12
12
12
12
12
12
12
12
12
12
12
12
12
12
12
12
12
12
12
12
12
12
12
12
12
12
12
12
12
12
12
12
12
12
12
12
12
12
12
12
12
12
12
12
12
12
12
12
12
12
12
12
12
12
12
12
12
12
12
12
12
12
12
12
12
12
12
12
12
12
12
12
12
12
12
12
12
12
12
12
12
12
12
12
12
12
12
12
12
12
12
12
12
12
12
12
12
12
12
12
12
12
12
12
12
12
12
12
12
12
12
12
12
12
12
12
12
12
12
12
12
12
12
12
12
12
12
12
12
12
12
12
12
12
12
12
12
12
12
12
12
12
12
12
12
12
12
12
12
12
12
12
12
12
12
12
12
12
12
12
12
12
12
12
12
12
12
12
12
12
12
12
12
12
12
12
12
12
12
12
12
12
12
12
12
12
12
12
12
12
12
12
12
12
12
12
12
12
12
12
12
12
12
12
12
12
12
12
12
12
12
12
12
12
12
12
12
12
12
12
12
12
12
12
12
12
12
12
12
12
12
12
12
12
12
12
12
12
12
12
12
12
12
12
12
12
12
12
12
12
12
12
12
12
12
12
12
12
12
12
12
12
12
12
12
12
12
12
12
12
12
12
12
12
12
12
12
12
12
12
12
12
12
12
12
12
12
12
12
12
12
12
12
12
12
12
12
12
12
12
12
12
12
12
12
12
12
12
12
12
12
12
12
12
12
12
12
12
12
12
12
12
12
12
12
12
12
12
12
12
12
12
12
12
12
12
12
12
12
12
12
12
12
12
12
12
12
12
12
12
12
12
12
12
12
12
12
12
12
12
12
12
12
12
12
12
12
12
12
12
12
12
12
12
12
12
12
12
12
12
12
12
12
12
12
12
12
12
12
12
12
12
12
12
12
12
12
12
12
12
12
12
12
12
12
12
12
12
12
12
12
12
12
12
12
12
12
12
12
12
12
12
12
12
12
12
12
12
12
12
12
12
12
12
12
12
12
12
12
12
12
12
12
12
12
12
12
12
12
12
12
12
12
12
12
12
12
12
12
12
12
12
12
12
12
12
12
12
12
12
12
12
12
12
12
12
12
12
12
12
12
12
12
12
12
12
12
12
12
12
12
12
12
12
12
12
12
12
12
12
12
12
12
12
12
12
12
12
12
12
12
12
12
12
12
12
12
12
12
12
12
12
12
12
12
12
12
12
12
12
12
12
12
12
12
12
12
12
12
12
12
12
12
12
12
12
12
12
12
12
12
12
12
12
12
12
12
12
12
12
12
12
12
12
12
12
12
12
12
12
12
12
12
12
12
12
12
12
12
12
12
12
12
12
12
12
12
12
12
12
12
12
12
12
12
12
12
12
12
12
12
12
12
12
12
12
12
12
12
12
12
12
12
12
12
12
12
12
12
12
12
12
12
12
12
12
12
12
12
12
12
12
12
12
12
12
12
12
12
12
12
12
12
12
12
12
12
12
12
12
12
12
12
12
12
12
12
12
12
12
12
12
12
12
12
12
12
12
12
12
12
12
12
12
12
12
12
12
12
12
12
12
12
12
12
12
12
12
12
12
12
12
12
12
12
12
12
12
12

POINT_DATA 3012
SCALARS Jp_lamdaP float 4
LOOKUP_TABLE default
0.999646 1 1 0.999646
1 1 1 1
0.999657 1 1 0.999657
0.999591 1 1 0.999591
0.999648 1 1 0.999648
0.999626 1 1 0.999626
0.999729 1.00095 1 0.998785
1 1 1 1
1 1 1 1
1 1 1 1
0.999721 1 1 0.999721
0.998886 1 1 0.998886
0.999593 1 1 0.999593
0.999598 1 1 0.999598
0.999659 1 1 0.999659
0.999619 1 1 0.999619
0.999633 1 1 0.999633
0.999666 1 1 0.999666
0.999841 1.00106 1 0.998786
1 1 1 1
0.999574 1 1 0.999574
0.999625 1 1 0.999625
0.99873 1.00007 1 0.998663
0.999569 1.00081 1 0.998764
0.999629 1 1 0.999629
0.999087 1.00029 1 0.998797
1.01572 1.01829 1 0.997476
1 1 1 1
0.999815 1 1 0.999815
0.999829 1 1 0.999829
1 1 1 1
0.99894 1.00004 1 0.998896
0.999623 1 1 0.999623
0.999651 1 1 0.999651
1.00029 1.00135 1 0.99894
1 1 1 1
0.999374 1.00035 1 0.999022
0.998986 1 1 0.998986
1.00818 1.01075 1 0.997455
1 1 1 1
1 1 1 1
0.999799 1 1 0.999799
1 1 1 1
0.999605 1 1 0.999605
0.998595 1 1 0.998595
1 1 1 1
0.998869 1.00003 1 0.998844
0.999643 1 1 0.999643
0.999679 1 1 0.999679
0.999635 1 1 0.999635
0.999943 1.00115 1 0.998791
0.999784 1 1 0.999784
0.999599 1 1 0.999599
0.999643 1 1 0.999643
0.999649 1 1 0.999649
0.998696 1.00004 1 0.998659
0.999332 1.00053 1 0.9988
0.999557 1.00079 1 0.998764
1.01589 1.01848 1 0.997462
1 1 1 1
0.999576 1 1 0.999576
0.998878 1 1 0.998878
0.998635 1 1 0.998635
0.999026 1.00031 1 0.998716
1.0186 1.02144 1 0.997219
1.01687 1.01959 1 0.997329
0.999694 1 1 0.999694
0.998897 1 1 0.998897
1.0129 1.01537 1 0.997565
1.03582 1.03937 1 0.996586
1 1 1 1
1 1 1 1
1 1 1 1
0.998904 1 1 0.998904
1 1 1 1
1 1 1 1
1.00001 1.00126 1 0.99875
0.999896 1 1 0.999896
0.999097 1.00024 1 0.998853
0.999146 1 1.00004 0.99911
1.00678 1.00935 1 0.997451
1 1 1 1
1.0012 1 1.00146 0.999733
0.999764 1.00109 1 0.998671
0.999814 1.00103 1 0.998783
1.02016 1.0232 1 0.997031
0.999729 1 1.00035 0.999375
1.01289 1.01558 1 0.997354
1.00344 1.00584 1 0.997606
1.01775 1.0211 1 0.996721
1 1 1 1
1 1 1 1
1 1 1 1
1 1 1 1
1 1 1 1
0.999801 1 1 0.999801
0.998728 1 1 0.998728
0.9998 1 1 0.9998
0.998902 1.00016 1 0.998744
1 1 1 1
0.998612 1 1 0.998612
0.998839 1 1 0.998839
1.01732 1.02052 1 0.996864
0.999314 1.00044 1 0.998877
1.02133 1.02452 1 0.996888
0.999615 1 1 0.999615
0.999622 1 1 0.999622
0.999654 1 1 0.999654
0.999671 1 1 0.999671
0.998664 1.00001 1 0.998657
0.999569 1.0008 1 0.998768
0.999508 1.0007 1 0.998806
1.016 1.01859 1 0.997449
1 1 1 1
0.9996 1 1 0.9996
0.998641 1 1 0.998641
0.998629 1 1 0.998629
0.999848 1 1 0.999848
0.998978 1 1 0.998976
0.998969 1.00025 1 0.998715
1.01863 1.0215 1 0.997183
1.01321 1.0157 1 0.997548
1.01721 1.0199 1 0.997355
1.03572 1.03926 1 0.996594
0.998634 1 1 0.998634
0.998635 1 1 0.998635
1.01642 1.01936 1 0.997115
1.01862 1.02155 1 0.997135
1.01821 1.02104 1 0.997231
1.04554 1.04916 1 0.996543
1 1 1 1
1.03918 1.04276 1 0.99657
0.999375 1 1.00028 0.999098
1.00761 1.01009 1 0.997539
1.03243 1.03595 1 0.996602
1.0415 1.04518 1 0.996485
1.00143 1 1.00198 0.999443
1.00653 1 1.00822 0.998325
1 1 1 1
1 1 1 1
0.999879 1.00112 1 0.998756
1 1 1 1
0.999242 1 1.00018 0.999058
0.999071 1.00021 1 0.998859
1.00565 1.00822 1 0.997447
1 1 1 1
1.00096 1 1.0012 0.999757
0.999976 1.00119 1 0.998791
0.999669 1.00078 1 0.998893
1.01958 1.02262 1 0.997031
1.00002 1 1.00071 0.999309
1.01173 1.01441 1 0.997356
1.00241 1.00479 1.00003 0.997605
1.01918 1.02254 1 0.996711
1.00118 1 1.00165 0.999526
1.00023 1 1.00035 0.999872
1.00368 1 1.00506 0.998627
1.02209 1.02524 1 0.996932
1.01695 1.01982 1 0.997191
1.04246 1.04618 1 0.996442
1.00082 1.00231 1.00063 0.997894
1.02808 1.0315 1 0.996681
1.01234 1.015 1.00057 0.996808
1.0277 1.03125 1 0.996564
1 1 1 1
1 1 1 1
1 1 1 1
1.0012 1 1.00161 0.999594
1 1 1 1
1 1 1 1
1 1 1 1
0.998988 1.00034 1 0.998645
0.998628 1 1 0.998628
1 1 1 1
1 1 1 1
0.998613 1 1 0.998613
0.998741 1 1 0.998741
1.01801 1.02122 1 0.996864
0.999347 1.00069 1 0.998659
1.02146 1.02465 1 0.996888
0.99861 1 1 0.99861
1.01586 1.01909 1 0.996834
1.01946 1.02264 1 0.996888
1.05089 1.05458 1 0.996499
1.02237 1.02556 1 0.996892
1.05223 1.05593 1 0.99649
1 1 1 1
0.999625 1 1 0.999625
0.998378 1 1 0.998378
0.998624 1 1 0.998624
1 1 1 1
0.999163 1.00011 1 0.999058
0.998931 1.00021 1 0.998716
1.01863 1.02154 1 0.997148
1.01763 1.0203 1 0.997381
1.01353 1.01604 1 0.997531
1.0357 1.03923 1 0.996602
0.998632 1 1 0.998632
0.998629 1 1 0.998629
1.01635 1.01942 1 0.996986
1.01871 1.02162 1 0.997155
1 1 1 1
0.999275 1 1.00013 0.999149
1.00912 1.01153 1 0.997619
1.01833 1.02116 1 0.997226
1.04538 1.04902 1 0.996533
1.03193 1.03546 1 0.996596
1.03944 1.04298 1 0.996605
1.04108 1.04475 1 0.996494
1.00126 1 1.00183 0.999431
1.00515 1 1.00684 0.998327
1.0157 1.01891 1 0.996855
1.01718 1.02011 1 0.997133
1.04793 1.05155 1 0.996557
1.04621 1.04987 0.999993 0.99652
1.04292 1.04646 1 0.996614
1.05174 1.05558 0.999702 0.996653
1.00047 1 1.0012 0.999272
1.04419 1.04777 1 0.996579
1.00262 1.0048 1.00011 0.997728
1.02543 1.02885 1 0.996671
1.0389 1.04264 1 0.996411
1.04142 1.04487 1 0.996697
1.0031 1.00032 1.00471 0.998087
1.00522 1 1.00661 0.998622
1.0034 1.00032 1.00546 0.997636
0.999964 1.00126 1 0.998701
1 1 1 1
1.00025 1 1.00047 0.99978
0.999441 1.00062 1 0.998818
1.01905 1.02209 1 0.997032
1.00019 1 1.00088 0.999312
1.00099 1.00336 1.00004 0.997603
1.01052 1.01319 1 0.997358
1.0205 1.02388 1 0.996701
1.00109 1 1.00155 0.999548
0.999893 1 1 0.999889
1.00448 1 1.00587 0.998627
1.02152 1.02467 1 0.99693
1.01631 1.01917 1 0.997194
1.04257 1.0463 1 0.996436
0.999826 1.00143 1.0005 0.997898
1.02926 1.03269 1 0.996684
1.01212 1.01489 1.00047 0.996802
1.0285 1.03205 1 0.996561
0.999939 1 1 0.999939
1.00174 1.00043 1.00308 0.998231
1.00296 1 1.00393 0.999034
1.00459 1.00041 1.00625 0.99794
1.04687 1.05063 1 0.996417
1.03666 1.04024 1 0.996554
1.04595 1.04972 1 0.9964
1.00606 1.00845 1.00049 0.997145
1.03378 1.03731 1 0.996599
1.02378 1.02577 1.00158 0.996491
1.03607 1.03972 1 0.996488
0.999648 1 1 0.999648
0.999986 1 1 0.999986
1 1 1 1
1 1 1 1
1 1 1 1
1.0004 1 1.00066 0.999735
1 1 1 1
1.00152 1 1.00194 0.999579
1 1 1 1
0.999508 1.00085 1 0.99866
0.998645 1 1 0.99864
1.02162 1.02481 1 0.996887
1.01868 1.02189 1 0.996864
0.998615 1 1 0.998615
1 1 1 1
0.99861 1 1 0.99861
1.01622 1.01945 1 0.996834
1.02006 1.02324 1 0.996888
1.04998 1.05367 1 0.996498
1.02205 1.02524 1 0.996889
1.0522 1.0559 1 0.996488
1.01542 1.01865 1 0.996831
1.04901 1.05272 1 0.996474
1.05198 1.05567 1 0.996508
1.05449 1.06063 0.997395 0.996801
1.05118 1.05493 1 0.99645
1.05704 1.06124 0.999342 0.996698
0.99863 1 1 0.99863
0.998622 1 1 0.998622
1.01629 1.01949 1 0.996857
1.01882 1.02171 1 0.997175
1 1 1 1
0.999201 1 1 0.999201
1.01053 1.01286 1 0.997699
1.01843 1.02126 1 0.997221
1.04525 1.0489 1 0.996522
1.03959 1.0431 1 0.996639
1.0315 1.03503 1 0.99659
1.04081 1.04446 1 0.996503
1.00128 1 1.00186 0.99942
1.00439 1 1.00608 0.998329
1.01559 1.01881 1 0.996838
1.01726 1.02019 1 0.997127
1.04771 1.05142 0.99989 0.99658
1.0463 1.04996 0.999991 0.996526
1.00015 1 1.00089 0.999261
1.00409 1.00629 1.00009 0.997726
1.02477 1.02816 1 0.996703
1.04313 1.04669 1 0.996596
1.05167 1.0556 0.999583 0.996697
1.03863 1.04239 1 0.996394
1.04397 1.04755 1 0.996584
1.04161 1.04507 1 0.996693
1.00293 1.00047 1.00438 0.998089
1.00405 1.00048 1.00594 0.997637
1.00549 1 1.00688 0.998621
1.04735 1.051 1 0.996528
1.04764 1.05138 0.999856 0.996592
1.05434 1.05968 0.998223 0.996736
1.05273 1.05706 0.999207 0.996697
1.0471 1.05079 0.999821 0.996671
1.04645 1.05356 0.996245 0.99699
0.999846 1.00133 1.0006 0.99792
1.04352 1.04713 0.999721 0.996837
1.01279 1.01587 1 0.996972
1.03045 1.0343 1 0.996279
1.03772 1.04148 1 0.996385
1.03587 1.03907 0.999966 0.996954
1.00322 1 1.00432 0.998903
0.999717 1.00153 1.00067 0.997519
1.00866 1 1.01089 0.997798
1.00294 1.00291 1.00266 0.997371
1.02102 1.02416 1 0.996927
0.999907 1 1 0.999907
1.0012 1 1.00163 0.99957
1.00611 1 1.00749 0.998627
1.01547 1.01832 1 0.997197
1.04266 1.0464 1 0.996431
0.998929 1.00062 1.00041 0.997903
1.01198 1.0149 1.00033 0.996795
1.03047 1.03389 1 0.996687
1.02841 1.03196 1 0.996557
0.99995 1 1 0.99995
1.00251 1.00024 1.00405 0.998233
1.00264 1 1.0036 0.999043
1.00495 1.00024 1.00679 0.997933
1.04684 1.05061 1 0.996411
1.0368 1.04038 1 0.996552
1.04549 1.04927 1 0.996397
1.00456 1.00698 1.00045 0.997151
1.03342 1.03695 1 0.996597
1.02279 1.02463 1.00173 0.996479
1.03581 1.03937 1 0.99657
0.999972 1 1 0.999972
1.00066 1 1.00133 0.999332
1.00269 1.0032 1.00191 0.99758
1.00623 1 1.00794 0.998305
1.00211 1.00125 1.00322 0.997643
1.0508 1.05453 1 0.996463
1.03962 1.0433 1 0.996468
1.04096 1.04458 1 0.996534
1.00952 1.01079 1.00199 0.996759
1.03228 1.03579 1 0.996603
1.02063 1.02358 1.00086 0.996267
0.999599 1 1 0.999599
0.99907 1 1 0.99907
0.999686 1 1 0.999686
0.99965 1 1 0.99965
0.999993 1 1 0.999993
0.999988 1 1 0.999988
1 1 1 1
1 1 1 1
1 1 1 1
0.999896 1 1.00003 0.999867
1 1 1 1
1.00082 1 1.00111 0.999719
1 1 1 1
1.00147 1 1.0019 0.999565
1 1 1 1
1.02184 1.02504 1 0.996886
1.02056 1.02375 1 0.996887
1.05187 1.05558 1 0.996485
1.04904 1.05273 1 0.996496
1.01664 1.01987 1 0.996834
0.998609 1 1 0.998609
1.01551 1.01874 1 0.996831
1.04868 1.05239 1 0.996474
1.05124 1.05493 1 0.996506
1.05475 1.06121 0.997086 0.996818
1.05053 1.05428 1 0.996446
1.05691 1.06102 0.999431 0.996696
1.04757 1.05129 1 0.996466
1.05427 1.06096 0.996867 0.996823
1.05583 1.06125 0.998117 0.996769
1.05049 1.0594 0.994535 0.997036
1.05404 1.05765 1 0.996587
1.05155 1.06072 0.994292 0.997044
1.01551 1.01875 1 0.996822
1.01735 1.02029 1 0.997122
1.04749 1.0513 0.999767 0.996604
1.04639 1.05003 1 0.996532
0.999836 1 1.00059 0.99925
1.0056 1.00783 1.00006 0.997724
1.02461 1.02797 1 0.996734
1.04337 1.04695 1 0.996578
1.05161 1.05565 0.999431 0.99674
1.04378 1.04736 1 0.996589
1.03823 1.04201 1 0.996376
1.04181 1.04527 1 0.99669
1.0025 1.00068 1.00373 0.99809
1.00471 1.0008 1.00629 0.997639
1.00557 1 1.00696 0.998619
1.04741 1.05109 1 0.996506
1.04777 1.05147 0.999884 0.99659
1.0539 1.05948 0.997944 0.99678
1.0525 1.05691 0.999146 0.996678
1.00096 1.00228 1.00077 0.997917
1.01366 1.01674 1 0.996968
1.02915 1.03292 1.00003 0.996319
1.04725 1.05089 0.999895 0.996637
1.04615 1.05371 0.995776 0.99704
1.03841 1.04222 1 0.996347
1.04367 1.04727 0.999717 0.996839
1.03678 1.03993 0.999981 0.996989
1.00127 1.00258 1.00117 0.997519
1.00326 1.00316 1.00277 0.997337
1.00362 1 1.00473 0.9989
1.00803 1 1.01021 0.997838
1.05394 1.05966 0.997821 0.996773
1.0549 1.06 0.998453 0.996728
1.04583 1.05491 0.994429 0.996951
1.04521 1.05567 0.993007 0.997066
1.04488 1.04971 0.998418 0.996973
1.04315 1.05283 0.993568 0.997222
1.00354 1.00626 1 0.997288
1.03739 1.04282 0.997587 0.997201
1.01729 1.02083 1 0.996532
1.02809 1.03195 1.00018 0.996088
1.03918 1.04296 1 0.996373
1.03767 1.04077 1 0.997022
1.00033 1 1.0012 0.99914
1.00904 1 1.01097 0.998093
1.0021 1.00489 1 0.997222
1.0046 1.00065 1.00645 0.997512
1.00413 1.0047 1.00221 0.99723
0.999961 1 1 0.999961
1.04673 1.05051 1 0.996405
1.00173 1 1.00268 0.999052
1.00313 1.00016 1.00475 0.998234
1.00499 1.00005 1.00703 0.997927
1.03707 1.04066 1 0.99655
1.04508 1.04886 1 0.996394
1.00342 1.00577 1.00051 0.997158
1.02331 1.02496 1.00193 0.996467
1.03322 1.03675 1 0.996595
1.03624 1.03972 1 0.996652
0.999977 1 1 0.999977
1.00023 1 1.00089 0.999342
1.0012 1.00228 1.00134 0.997584
1.00731 1 1.00902 0.998303
1.00221 1.00096 1.00363 0.997624
1.05066 1.0544 1 0.996457
1.03949 1.04317 1 0.996466
1.041 1.04463 1 0.996522
1.01002 1.01115 1.00213 0.996762
1.03481 1.03834 1 0.996595
1.021 1.02382 1.00096 0.99629
0.999536 1 1.00003 0.999508
1.00257 1 1.00391 0.998671
1.0011 1.00339 1.00048 0.997234
1.00811 1.00103 1.00917 0.997932
1.00267 1.00307 1.00203 0.99758
1.04763 1.0512 0.999938 0.996667
1.0353 1.03889 1 0.996536
1.04053 1.04392 1 0.996746
1.00387 1.0035 1.00379 0.996585
1.01916 1.02301 1 0.996233
0.999602 1 1 0.999602
0.998988 1 1 0.998988
0.999044 1 1 0.999044
0.998789 1 1 0.998789
0.999095 1 1 0.999095
0.999708 1 1 0.999708
0.999688 1 1 0.999688
0.999997 1 1 0.999997
0.999652 1 1 0.999652
0.999994 1 1 0.999994
1 1 1 1
0.99999 1 1 0.99999
1 1 1 1
1 1 1 1
0.999956 1 1 0.999956
1.00021 1 1.00036 0.999847
1 1 1 1
1 1 1 1
1.00129 1 1.00159 0.999702
1 1 1 1
1.04995 1.0537 1 0.996441
1.05077 1.05446 1 0.996503
1.05707 1.06108 0.999521 0.996694
1.05507 1.06183 0.996788 0.996836
1.04825 1.05196 1 0.996474
1.01553 1.01876 1 0.996831
1.04762 1.05133 1 0.996467
1.05413 1.06075 0.996932 0.996817
1.05631 1.06167 0.998175 0.996769
1.04975 1.0592 0.993998 0.997066
1.05481 1.05843 1 0.996581
1.05173 1.06063 0.994527 0.997066
1.05418 1.06041 0.997327 0.996792
1.04839 1.05801 0.993876 0.997011
1.05065 1.06064 0.99345 0.997108
1.04982 1.06211 0.991212 0.997188
1.05215 1.05722 0.998313 0.996884
1.04934 1.06226 0.990538 0.997273
1.04739 1.05109 1 0.996483
1.04787 1.05153 0.999928 0.996587
1.05345 1.05926 0.997679 0.996824
1.05215 1.05665 0.999072 0.99666
1.00204 1.00319 1.00094 0.997915
1.01355 1.01664 1 0.996964
1.02733 1.0309 1.00018 0.99636
1.04738 1.05095 1 0.996603
1.04587 1.05382 0.995349 0.997089
1.04369 1.0473 0.999712 0.996841
1.03899 1.04284 1 0.996309
1.03691 1.04 1 0.997025
1.00273 1.00343 1.00179 0.99752
1.00332 1.00312 1.0029 0.997303
1.00399 1 1.0051 0.998896
1.00716 1 1.00931 0.997878
1.05384 1.05958 0.997806 0.996772
1.05441 1.05934 0.998637 0.996708
1.04599 1.05512 0.994353 0.996983
1.04606 1.05591 0.993598 0.997048
1.00427 1.00701 1 0.99728
1.01575 1.01921 1.00003 0.996574
1.02803 1.03168 1.00039 0.996077
1.04511 1.04959 0.998806 0.996923
1.04201 1.05205 0.993155 0.997279
1.03541 1.03919 1 0.996358
1.03827 1.04361 0.997675 0.997202
1.03847 1.04151 1 0.997082
1.00187 1.00467 1 0.997222
1.00371 1.00487 1.00162 0.997225
1.00578 1.00104 1.00724 0.997507
1.00089 1 1.00178 0.999104
1.00869 1 1.01057 0.998133
1.04687 1.05685 0.993543 0.996997
1.04693 1.05736 0.993092 0.997025
1.04273 1.05679 0.98941 0.997264
1.03855 1.04886 0.992863 0.997285
1.00698 1.01006 1 0.996948
1.04239 1.04793 0.997321 0.997378
1.00952 1.013 1.00029 0.996284
1.02387 1.02757 1.00051 0.99589
1.0319 1.03567 1 0.996359
0.999494 1 1.00017 0.999328
1.00544 1 1.00699 0.998465
1.0064 1 1.00858 0.997838
1.00309 1.00601 1 0.997098
1.0045 1.0009 1.0064 0.997217
1.00494 1.00592 1.00196 0.997072
0.999982 1 1 0.999982
0.999773 1 1.00042 0.999352
1.05051 1.05426 1 0.996451
1.00862 1 1.01034 0.998301
0.999377 1.00105 1.00074 0.997587
1.00228 1.00078 1.0039 0.997605
1.03917 1.04285 1 0.996464
1.041 1.04464 1 0.996511
1.00968 1.01064 1.00229 0.996765
1.02017 1.02315 1.00077 0.996314
1.03732 1.04087 1 0.996589
0.999514 1 1 0.999514
1.00276 1 1.00409 0.998676
1.00169 1.00406 1.00041 0.99723
1.00917 1.00079 1.01046 0.997925
1.00281 1.0035 1.00174 0.99758
1.04738 1.05092 0.999969 0.996661
1.03597 1.03958 1 0.996524
1.04062 1.04399 0.999996 0.996772
1.00482 1.00504 1.00324 0.996548
1.01788 1.0217 1.00006 0.996204
0.999448 1 1.00053 0.998919
1.00907 1 1.01085 0.998234
1.00283 1.00375 1.002 0.997094
1.00847 1.0035 1.00726 0.997703
1.00971 1.01129 1.001 0.997446
1.04471 1.05093 0.996912 0.997157
1.03581 1.03952 1 0.99643
1.03842 1.0418 1 0.996759
1.00695 1.0062 1.00433 0.996436
1.00832 1.01236 1 0.996014
0.999605 1 1 0.999605
0.999007 1 1 0.999007
0.998716 1 1 0.998716
0.999019 1 1 0.999019
0.999093 1 1 0.999093
0.998839 1 1.00008 0.998761
0.998787 1 1.00011 0.998678
0.999033 1 1.00033 0.9987
0.999117 1 1 0.999117
0.999702 1 1 0.999702
0.999708 1 1 0.999708
0.999999 1 1 0.999999
0.99969 1 1 0.99969
0.999998 1 1 0.999998
1 1 1 1
0.999996 1 1 0.999996
1 1 1 1
1 1 1 1
0.999992 1 1 0.999992
0.999939 1 1 0.999939
1 1 1 1
1.00063 1 1.00081 0.999827
1 1 1 1
1 1 1 1
1.05551 1.05914 1 0.996574
1.05652 1.06182 0.998229 0.996769
1.05186 1.06047 0.994781 0.997089
1.04896 1.05895 0.993451 0.997096
1.05401 1.06056 0.997 0.996812
1.04777 1.05149 1 0.996467
1.05411 1.0602 0.997475 0.996773
1.04896 1.05818 0.994261 0.997004
1.04989 1.06001 0.993341 0.997092
1.04866 1.06165 0.990542 0.9972
1.05179 1.0566 0.998555 0.996885
1.04727 1.06093 0.989783 0.997313
1.04903 1.05793 0.994589 0.996986
1.04991 1.06324 0.990257 0.997186
1.05004 1.06404 0.989533 0.997286
1.04439 1.05819 0.989589 0.997337
1.0538 1.05955 0.997792 0.996772
1.054 1.05877 0.998803 0.996688
1.04619 1.05535 0.994288 0.997015
1.047 1.05628 0.994171 0.997031
1.00565 1.0084 1 0.997272
1.01504 1.01848 1 0.996616
1.02803 1.03149 1.00058 0.996066
1.04535 1.04951 0.999156 0.996873
1.04079 1.05125 0.992697 0.997335
1.03947 1.04474 0.997746 0.997203
1.0326 1.03639 1 0.996343
1.04086 1.04385 1 0.997142
1.00168 1.00447 1 0.997221
1.00383 1.00594 1.00069 0.997219
1.00712 1.00115 1.00848 0.997501
1.0013 1 1.00223 0.999069
1.0084 1 1.01025 0.998174
1.0472 1.05714 0.993581 0.996999
1.0475 1.05799 0.993052 0.99702
1.04264 1.05601 0.990053 0.997255
1.00674 1.00983 1 0.996944
1.01012 1.01359 1.00026 0.996326
1.02236 1.02581 1.00076 0.995878
1.03901 1.04895 0.99323 0.997271
1.03527 1.03894 1 0.99647
1.03879 1.04459 0.997095 0.997345
0.999506 1 1.00014 0.999365
1.00335 1.00626 1.00002 0.997089
1.00298 1.0048 1.00099 0.997196
1.00687 1.00214 1.00754 0.997208
1.00673 1 1.00889 0.997863
1.00547 1 1.00705 0.99843
1.04827 1.06122 0.990703 0.997075
1.04641 1.06374 0.986478 0.997191
1.03646 1.05455 0.985458 0.997346
1.03642 1.05147 0.988164 0.997487
1.00661 1.00989 1 0.996751
1.03436 1.03823 0.999323 0.996944
1.0046 1.0071 1.00165 0.99588
1.01294 1.01623 1.00104 0.995728
0.999617 1 1 0.999617
1.00098 1 1.0022 0.998778
1.00551 1 1.0074 0.998125
1.00654 1 1.00916 0.997401
1.00321 1.00487 1.00142 0.996922
1.00804 1.00277 1.00838 0.996899
0.99952 1 1 0.99952
1.00296 1 1.00429 0.99868
1.04732 1.05084 1 0.996655
1.01004 1.00051 1.01163 0.997919
1.00234 1.00485 1.00027 0.997225
1.00237 1.00327 1.00152 0.997579
1.03682 1.04045 1 0.996512
1.04088 1.04423 0.999994 0.996797
1.00624 1.00702 1.00273 0.99651
1.01662 1.02025 1.00027 0.996175
0.999322 1 1.0004 0.998922
1.00927 1 1.01107 0.998223
1.00345 1.00438 1.00198 0.997103
1.00743 1.00308 1.00664 0.997709
1.0104 1.01243 1.00048 0.997518
1.04605 1.05238 0.996775 0.997204
1.03536 1.03905 1 0.996453
1.03973 1.04303 0.999996 0.996834
1.00705 1.00608 1.00458 0.996402
1.0085 1.01258 1.00003 0.995941
1.00032 1 1.00173 0.998595
1.00895 1.00013 1.01099 0.997851
1.00891 1.00813 1.00378 0.996996
1.00872 1.0098 1.00161 0.997331
1.04268 1.06702 0.979677 0.997458
1.03986 1.0445 0.998316 0.997231
1.02315 1.02713 1 0.996125
1.01121 1.01095 1.00426 0.996021
0.999025 1 1 0.999025
0.998728 1 1 0.998728
0.998682 1 1 0.998682
0.999092 1 1 0.999092
0.998851 1 1.00012 0.998732
0.999115 1 1 0.999115
0.998726 1 1.00004 0.998685
0.999087 1 1.00038 0.998711
0.998731 1 1 0.998731
0.999311 1 1.00076 0.99855
0.999149 1 1.00049 0.998663
0.999097 1 1 0.999097
0.999671 1 1 0.999671
0.9997 1 1 0.9997
1 1 1 1
0.999708 1 1 0.999708
1 1 1 1
1 1 1 1
0.999999 1 1 0.999999
1 1 1 1
1 1 1 1
1 1 1 1
0.999985 1 1 0.999985
1 1 1 1
0.999921 1 1 0.999921
1 1 1 1
1 1 1 1
1.05136 1.05591 0.9988 0.996887
1.04924 1.05951 0.993217 0.997077
1.0453 1.05969 0.989037 0.997352
1.04756 1.06125 0.989859 0.997211
1.04954 1.05837 0.994641 0.996997
1.05398 1.05994 0.997613 0.996754
1.04881 1.0578 0.994492 0.996986
1.04979 1.06291 0.990451 0.997176
1.04868 1.0632 0.989024 0.997285
1.0456 1.05908 0.989892 0.997347
1.05101 1.06324 0.991341 0.99713
1.05161 1.06985 0.985573 0.997338
1.05012 1.0696 0.984348 0.997404
1.0475 1.05741 0.993606 0.997001
1.04802 1.05854 0.99302 0.997016
1.04265 1.05523 0.9908 0.997247
1.00634 1.00943 1 0.996939
1.01006 1.01357 1.00018 0.996366
1.02048 1.02385 1.00085 0.995866
1.03953 1.04908 0.993619 0.997258
1.03464 1.0408 0.996762 0.997312
1.03725 1.04081 1 0.99658
1.00246 1.00506 1.00033 0.99708
0.998964 1.00165 1 0.997319
1.00834 1.00286 1.00829 0.9972
0.999539 1 1.00014 0.999402
1.00621 1 1.00834 0.997887
1.00571 1 1.00732 0.998395
1.04906 1.06174 0.990947 0.997083
1.04576 1.06346 0.986118 0.997197
1.03668 1.05421 0.986001 0.997338
1.00394 1.00722 1 0.996744
1.00463 1.0073 1.0014 0.995957
1.01313 1.01648 1.0009 0.995809
1.03666 1.05118 0.98867 0.99749
1.03122 1.03585 0.998608 0.996924
0.99968 1 1 0.99968
1.00105 1 1.00227 0.998776
1.00055 1.00323 1.00036 0.996969
1.00991 1.00211 1.01077 0.997051
1.00593 1.00009 1.00841 0.997448
1.0054 1 1.00733 0.998088
1.04902 1.06744 0.985444 0.997259
1.0379 1.06458 0.977579 0.9973
1.03354 1.05441 0.982632 0.997533
1.02688 1.03947 0.990368 0.997495
1.00245 1.0047 1.00131 0.996444
1.01373 1.0163 1.0014 0.996073
1.00532 1.00703 1.00264 0.995669
0.999838 1 1 0.999838
0.999335 1 1 0.999335
0.999171 1 1.00012 0.999054
1.00167 1 1.00337 0.998306
1.00671 1 1.00899 0.997746
1.0087 1 1.01152 0.997213
0.99952 1.00192 1.00055 0.997058
1.03289 1.00104 1.03461 0.997303
0.999211 1 1.00029 0.998925
1.00986 1 1.01167 0.998211
1.04742 1.05381 0.996674 0.997251
1.00761 1.0036 1.0063 0.997714
1.00427 1.00502 1.00215 0.997112
1.01092 1.01332 1.00004 0.997589
1.03466 1.03831 1 0.996477
1.04092 1.04416 0.999988 0.996908
1.00711 1.00593 1.00482 0.99637
1.00844 1.01262 1 0.995869
1.00086 1 1.0023 0.998559
1.00815 1.00002 1.01029 0.997859
1.01116 1.00998 1.00415 0.997023
1.00801 1.00924 1.00142 0.997367
1.04477 1.06924 0.979587 0.997478
1.04098 1.0452 0.998773 0.997179
1.023 1.02693 1 0.996174
1.01264 1.01292 1.00377 0.995968
1.00204 1 1.0037 0.99835
1.0463 1.07357 0.977054 0.997484
1.00216 1.00005 1.00462 0.997502
1.01056 1.01113 1.00268 0.99677
1.03672 1.05549 0.984601 0.997581
1.0202 1.02403 0.999992 0.996267
1.0092 1.01023 1.00323 0.995763
0.998741 1 1 0.998741
0.998671 1 1 0.998671
0.998749 1 1 0.998749
0.999113 1 1 0.999113
0.999154 1 1.00043 0.998721
0.998715 1 1.00002 0.998691
0.999094 1 1 0.999094
0.999272 1 1.0006 0.998668
0.998744 1 1 0.998744
0.999048 1 1.00048 0.998567
0.998815 1 1 0.998815
0.99875 1 1.00013 0.998625
0.999501 1 1.00107 0.998434
0.998605 1 1 0.998605
0.999029 1 1 0.999029
0.999632 1 1 0.999632
0.999668 1 1 0.999668
1 1 1 1
0.999699 1 1 0.999699
1 1 1 1
1 1 1 1
1 1 1 1
1 1 1 1
1 1 1 1
0.999864 1 1 0.999864
1 1 1 1
0.999999 1 1 0.999999
1 1 1 1
0.999977 1 1 0.999977
1 1 1 1
1 1 1 1
1.04675 1.05996 0.990151 0.997357
1.04729 1.06228 0.988574 0.997284
1.04963 1.06254 0.990656 0.997167
1.04858 1.05767 0.994405 0.996985
1.05065 1.06314 0.991082 0.997149
1.05141 1.06926 0.985932 0.997329
1.048 1.06743 0.984344 0.997412
1.05122 1.06972 0.985343 0.997319
1.06093 1.08103 0.983929 0.997429
1.05342 1.07723 0.980155 0.997693
1.04982 1.06223 0.991199 0.997091
1.04505 1.0632 0.985689 0.997203
1.03679 1.05388 0.986424 0.99733
1.00329 1.00652 1.00006 0.996737
1.00532 1.00805 1.00126 0.996036
1.01563 1.01903 1.00078 0.99589
1.03686 1.05068 0.989322 0.997494
1.02836 1.03346 0.99816 0.996903
1.00106 1.00362 1.00043 0.997016
1.0135 1.00282 1.01349 0.9972
1.00678 1.00038 1.00892 0.997494
0.999743 1 1 0.999743
1.00098 1 1.00221 0.998774
1.00544 1 1.0074 0.998051
1.0489 1.06774 0.985047 0.997269
0.999833 1 1 0.999833
0.999301 1 1 0.999301
1.03854 1.06378 0.978921 0.997302
1.03197 1.05335 0.982155 0.997503
1.00312 1.00478 1.00182 0.99653
1.00554 1.00658 1.00332 0.995662
1.01452 1.0177 1.00081 0.996064
1.02575 1.03897 0.989778 0.997469
0.999299 1 1.00016 0.999137
1.00161 1 1.00332 0.998298
1.00131 1.00183 1.00254 0.996954
1.02834 1.00113 1.02978 0.997464
1.00725 1.00015 1.0099 0.997231
1.00607 1 1.00832 0.997762
1.05828 1.0804 0.982089 0.997384
1.01935 1.06206 0.962258 0.997438
1.02171 1.0459 0.979136 0.997684
1.00761 1.02045 0.9902 0.997187
1.00484 1.00253 1.00571 0.996618
1.00509 1.00396 1.0055 0.995647
0.999266 1 1 0.999266
0.999297 1 1 0.999297
0.999 1 1 0.999
0.998648 1 1.00015 0.998493
1.00433 1 1.0063 0.998048
1.0055 1.00016 1.00796 0.997409
1.04722 1 1.05011 0.997244
1.00172 1.00049 1.00363 0.997606
1.00133 1 1.00281 0.998525
1.007 1 1.00915 0.997868
1.04611 1.07043 0.979738 0.997497
1.04167 1.04555 0.999163 0.997128
1.00712 1.00858 1.00115 0.997402
1.01355 1.01208 1.00441 0.997049
1.02319 1.02703 1.00004 0.996223
1.01433 1.01509 1.00335 0.995915
1.00222 1 1.0039 0.998333
1.04901 1.07693 0.976481 0.997539
1.00301 1.00007 1.00543 0.99753
1.00892 1.00953 1.00269 0.99671
1.03549 1.05453 0.984342 0.997556
1.01934 1.02308 0.999994 0.996348
1.01026 1.01102 1.00348 0.995779
1.00503 1 1.00702 0.998024
1.01443 1.0467 0.971142 0.997966
1.00394 1.0031 1.00362 0.997232
1.00454 1.00449 1.00379 0.996272
1.01744 1.02847 0.992121 0.997128
1.00242 1.00425 1.00221 0.99598
0.978287 1.00356 0.977374 0.997382
0.998661 1 1 0.998661
0.999202 0.999687 1.00077 0.998748
0.999325 1 1.00066 0.998668
0.999091 1 1 0.999091
0.999556 1 1.00088 0.998673
0.998784 1 1.0002 0.998584
0.998757 1 1 0.998757
0.999028 1 1 0.999028
0.998704 1 1.00011 0.998597
0.998781 1 1 0.998781
0.999297 1 1.00086 0.998435
0.998731 1 1.00012 0.998609
0.99878 1 1.00001 0.99877
0.998768 1 1.00051 0.998255
1.00017 1 1.00177 0.99841
0.998547 1 1.00006 0.998485
0.998889 1 1 0.998889
0.999135 1 1.00047 0.998663
0.998882 1 1.00002 0.998861
0.999612 1 1 0.999612
0.999629 1 1 0.999629
1 1 1 1
0.999665 1 1 0.999665
1 1 1 1
1 1 1 1
1 1 1 1
1 1 1 1
1 1 1 1
0.99989 1 1 0.99989
0.999865 1 1 0.999865
1 1 1 1
1 1 1 1
1 1 1 1
0.999997 1 1 0.999997
1 1 1 1
1 1 1 1
1.04613 1.06564 0.984238 0.997421
1.05108 1.06869 0.986169 0.997319
1.05036 1.06309 0.990825 0.997168
1.05123 1.06966 0.985413 0.997317
1.05849 1.07879 0.983713 0.997426
1.05268 1.07545 0.981156 0.997619
1.06264 1.08674 0.980279 0.997495
0.974276 1.01605 0.963013 0.99571
1.0133 1.04496 0.971276 0.998389
0.999404 1 1 0.999404
1.04878 1.06803 0.984659 0.99728
1.0393 1.06301 0.98034 0.997303
1.03036 1.05238 0.981556 0.997472
1.00013 1.0027 1.00082 0.996613
1.00446 1.0048 1.00402 0.995655
1.01385 1.01758 1.00028 0.996056
1.02457 1.03855 0.989073 0.997443
0.998918 1.00198 1.00009 0.996852
1.02114 1.00017 1.0234 0.997628
1.00532 1 1.00809 0.997249
0.999828 1 1 0.999828
1.00679 1 1.00903 0.997778
0.999421 1 1.0002 0.999217
1.0016 1 1.00331 0.99829
0.999267 1 1 0.999267
1.05494 1.08064 0.978775 0.997392
0.99931 1 1 0.99931
0.999297 1 1 0.999297
0.998848 1 0.999883 0.998965
1.0237 1.06243 0.966022 0.997436
1.02215 1.04619 0.979338 0.997637
1.0015 1.002 1.00286 0.996646
1.00834 1.00703 1.00556 0.995767
1.00678 1.01828 0.991509 0.997171
0.998767 1 1.00022 0.998548
1.00449 1 1.0065 0.997999
1.00747 1.00031 1.00968 0.997498
1.03743 1 1.04027 0.997272
1.00456 1.00007 1.00704 0.997457
1.03679 1.06923 0.972089 0.997497
1.00267 1.05254 0.954927 0.997589
1.01443 1.02945 0.988035 0.997342
0.992038 1.00744 0.987749 0.996927
1.00357 1 1.00636 0.997228
0.99884 1 1 0.99884
0.998778 1 1 0.998778
0.999841 1 1.00114 0.9987
1.0044 1 1.00613 0.998279
1.00721 1 1.00936 0.997877
1.03517 0.999889 1.0379 0.997482
1.02972 1.00153 1.0307 0.997518
1.00215 1 1.00384 0.998315
1.00356 1 1.00602 0.997557
1.05087 1.08114 0.974345 0.997593
1.03477 1.05437 0.983842 0.997529
1.01883 1.02249 0.999988 0.996429
1.00701 1.0077 1.00268 0.99665
1.01098 1.0116 1.0036 0.995796
1.00449 1 1.00644 0.998065
1.01367 1.04702 0.970083 0.998003
1.0014 1.00198 1.00218 0.997243
1.00373 1.00339 1.00408 0.996275
1.01669 1.02871 0.991055 0.997243
1.00286 1.00417 1.00273 0.995972
0.978052 1.00355 0.978083 0.996428
1.00513 1.00065 1.00658 0.997907
1.00351 1.02373 0.982267 0.997947
1.00054 1.00137 1.00206 0.997121
1.00436 1.00144 1.00644 0.996507
0.992404 1.00605 0.989409 0.996991
0.919311 0.978031 0.963069 0.976006
0.917529 0.970243 0.957491 0.987653
0.970754 0.985154 0.987846 0.997506
0.741887 0.843993 0.921352 0.954055
0.663633 0.809058 0.872272 0.940365
0.999196 0.999251 1.0012 0.998748
1.00024 0.999517 1.002 0.998721
0.999743 1 1.00104 0.998706
0.999027 1 1 0.999027
0.998589 1 1 0.998589
0.998974 1 1.00054 0.998437
0.998687 1 1.0001 0.998591
0.998747 1 1 0.998747
1.00084 1 1.00246 0.998386
0.998924 1 1 0.998924
0.998521 1 1.00002 0.998505
0.998872 1 1.00014 0.998729
0.999085 1 1.00079 0.998295
1.00195 1 1.00365 0.998306
1.00265 1 1.00426 0.998406
1.00149 1 1.00318 0.998318
0.998837 1 1.00042 0.998414
0.998856 1 1 0.998856
0.998709 1 1.00021 0.998501
0.998901 1 1.0004 0.998498
0.99893 1 1.00025 0.998684
0.999171 1 1.00055 0.998624
0.998976 1 1 0.998976
0.998908 1 1.00005 0.998857
0.999607 1 1 0.999607
0.999612 1 1 0.999612
1 1 1 1
0.999627 1 1 0.999627
1 1 1 1
1 1 1 1
1 1 1 1
1 1 1 1
1 1 1 1
0.999919 1 1 0.999919
0.999887 1 1 0.999887
1 1 1 1
0.999864 1 1 0.999864
1 1 1 1
1 1 1 1
1 1 1 1
1 1 1 1
1 1 1 1
1.05569 1.07622 0.983453 0.997423
1.05128 1.0696 0.98552 0.997315
1.05244 1.07399 0.982348 0.997547
0.975473 1.01587 0.964302 0.995784
1.05957 1.08404 0.979876 0.997494
1.0256 1.04845 0.979913 0.998261
1.04351 1.05981 0.98697 0.997621
0.930804 0.980567 0.961983 0.986765
0.992816 1.01935 0.977314 0.996576
0.999423 1 1 0.999423
0.999399 1 1 0.999399
0.998952 1 1 0.998952
0.99904 1 1 0.99904
1.0526 1.0809 0.976355 0.997399
1.02762 1.06227 0.969874 0.997435
1.02257 1.04623 0.979744 0.99759
1.00042 1.0009 1.00286 0.996675
1.0125 1.01127 1.00536 0.995886
1.00598 1.01647 0.992505 0.997153
1.01702 1 1.01969 0.997388
1.03004 1.00003 1.03279 0.997298
1.00271 1 1.00522 0.997504
0.999296 1 1 0.999296
1.00284 1 1.00489 0.997951
0.998828 1 1.00023 0.998603
0.999354 1 1 0.999354
0.998929 1 1 0.998929
1.03449 1.06913 0.970017 0.997512
0.99888 1 1 0.99888
0.998837 1 1 0.998837
0.999383 1 1.00053 0.998851
1.00786 1.05523 0.95743 0.997581
1.01385 1.0294 0.987525 0.997341
1.00378 1.00053 1.00606 0.99721
0.994846 1.0076 0.990318 0.996998
1.00281 1 1.00459 0.998224
1.00639 1 1.00863 0.997773
1.03605 1.00146 1.03713 0.997498
1.03564 1.00021 1.03812 0.997407
0.996626 1.04408 0.956755 0.997694
0.995292 1.03389 0.965004 0.997575
1.00502 1.01146 0.996617 0.99701
0.984551 1.00092 0.985735 0.997881
0.999887 1 1.00134 0.998553
1.00125 1 1.0028 0.998451
1.01344 0.999934 1.01529 0.998246
1.05519 1 1.0578 0.997527
0.896343 0.968376 0.95121 0.973093
1.00477 1 1.00668 0.998105
0.999267 1.00088 1.00114 0.997255
1.01434 1.04701 0.970698 0.998042
1.01603 1.0284 0.990589 0.997358
1.00324 1.004 1.0033 0.995963
1.00333 1.0026 1.00447 0.996276
0.978558 1.00484 0.978302 0.995447
1.00382 1.00028 1.00559 0.997964
1.00324 1.02487 0.98092 0.997933
1.00028 1.00141 1.00173 0.997137
1.00455 1.00195 1.00611 0.99651
0.995992 1.00708 0.991983 0.996988
0.917737 0.984537 0.95788 0.973139
0.911005 0.967199 0.956321 0.984921
0.974553 0.985821 0.991016 0.997531
0.739208 0.839715 0.921762 0.955027
0.649525 0.798715 0.868884 0.935928
1.00173 0.999961 1.00362 0.998148
0.770293 0.860806 0.934718 0.957348
0.701614 0.815226 0.914076 0.941538
0.988209 1.00623 0.984131 0.997922
1.00756 1.00151 1.00846 0.997601
1.01311 1.00492 1.01084 0.997338
0.96521 0.978063 0.989033 0.997802
0.901833 0.959367 0.964915 0.974209
0.884552 0.940872 0.956077 0.983332
0.730032 0.84017 0.907306 0.957681
0.721833 0.861708 0.891713 0.939402
1.00193 0.99928 1.00388 0.998773
1.00094 0.999716 1.00255 0.99868
1.0039 1 1.00506 0.998843
0.998958 1 1 0.998958
0.998525 1 1 0.998525
1.00141 1 1.00305 0.998362
0.999628 1 1.0013 0.998335
0.998688 1 1 0.998688
0.998857 1 1 0.998857
1.00226 1 1.00397 0.998294
1.00187 1 1.00354 0.998328
0.998571 1 1.00012 0.998453
1.00281 1 1.00439 0.998432
1.00456 1 1.00621 0.998364
1.01121 1 1.01269 0.998536
1.0003 1 1.00205 0.998256
0.998851 1 1.00039 0.998466
0.99854 1 1.00004 0.998497
0.999231 1 1.00073 0.998505
0.999478 1 1.00116 0.998324
0.999229 1 1.00069 0.998538
1.00053 1 1.00201 0.998522
1.00455 1 1.00623 0.998325
0.99973 1 1.00109 0.998644
0.998876 1 1.00019 0.998685
0.999012 1 1 0.999012
0.99894 1 1.00036 0.998584
0.998947 1 1 0.998947
0.999596 1 1 0.999596
0.99888 1 1.00003 0.998854
0.999608 1 1 0.999608
1 1 1 1
0.999612 1 1 0.999612
1 1 1 1
1 1 1 1
1 1 1 1
1 1 1 1
1 1 1 1
0.999378 1 1 0.999378
0.999924 1 1 0.999924
0.999915 1 1 0.999915
1 1 1 1
0.999884 1 1 0.999884
1 1 1 1
1 1 1 1
1 1 1 1
1 1 1 1
1 1 1 1
0.977413 1.01566 0.96634 0.995863
1.05724 1.08109 0.980393 0.997494
1.03285 1.05161 0.983996 0.998131
0.924003 0.974372 0.959932 0.98789
0.992369 1.01907 0.976973 0.996748
1.04307 1.06364 0.983043 0.997576
1.00422 1.02763 0.980333 0.996824
0.938337 0.975312 0.972557 0.989237
0.917581 0.977497 0.963907 0.973854
0.739243 0.841598 0.917351 0.957517
0.630406 0.768597 0.872992 0.939532
0.998986 1 1 0.998986
0.999421 1 1 0.999421
0.999395 1 1 0.999395
0.998945 1 1 0.998945
0.998716 1 1 0.998716
0.998732 1 1 0.998732
0.998916 1 1 0.998916
0.999 1 1 0.999
1.03083 1.06939 0.966335 0.997526
1.01356 1.05906 0.959364 0.997572
1.01339 1.02944 0.98703 0.99734
1.00312 1.00156 1.00437 0.997193
0.997368 1.00728 0.993072 0.99707
1.03928 1.0009 1.04098 0.997477
1.03536 1.00059 1.03752 0.997334
1.00728 1 1.00963 0.997669
0.998663 1 0.999766 0.998897
1.00284 1 1.00468 0.998168
0.99892 1 1 0.99892
0.999002 1 1 0.999002
0.995581 1.04481 0.955069 0.99771
0.999886 1 1.00132 0.99857
1.0015 1 1.003 0.9985
0.993646 1.03242 0.964807 0.99755
1.00223 1.01189 0.993292 0.997149
0.986575 1.0012 0.987604 0.99776
1.02195 1.00013 1.02382 0.998048
1.0512 1.00121 1.0525 0.997558
0.98016 1.02738 0.956276 0.997658
0.986696 1.01051 0.97881 0.997573
0.977551 1.00166 0.978272 0.997607
0.987889 1.00118 0.98867 0.998038
1.00475 1 1.00661 0.998158
1.01078 1 1.01257 0.998232
1.04953 1 1.05177 0.997871
0.77207 0.870225 0.925007 0.959135
0.913966 0.975799 0.958703 0.976979
1.00149 0.999782 1.0037 0.998022
0.999933 1.00124 1.00154 0.997154
1.0031 1.02635 0.979384 0.997919
0.999041 1.00854 0.993578 0.996986
1.00485 1.00264 1.00571 0.996516
0.914704 0.974973 0.962976 0.974255
0.915491 0.974326 0.953405 0.985535
0.975829 0.984508 0.993616 0.997552
0.743607 0.841443 0.922016 0.958474
0.636736 0.78844 0.867114 0.931353
1.00092 0.999806 1.00297 0.998149
0.770147 0.867545 0.926535 0.95812
0.687571 0.80216 0.912758 0.939076
0.988103 1.00723 0.98306 0.997919
1.00765 1.00193 1.00811 0.997621
1.01129 1.00323 1.01056 0.997489
0.958182 0.972137 0.987647 0.997973
0.912255 0.971087 0.966812 0.971664
0.880902 0.938576 0.952069 0.985803
0.735925 0.837959 0.918869 0.955778
0.720976 0.867697 0.885422 0.938431
1.00314 1 1.00451 0.998635
0.733147 0.827422 0.940039 0.94258
0.805265 0.90019 0.941483 0.95015
0.987641 0.995683 0.993246 0.998667
1.01482 1.00254 1.01367 0.998599
0.967177 0.963664 1.00602 0.997638
0.890437 0.928118 0.972015 0.987023
0.868893 0.927365 0.965645 0.970282
0.739958 0.832819 0.928739 0.956671
0.769719 0.909246 0.898061 0.942638
1.00191 0.999459 1.00381 0.998655
1.00309 1 1.00429 0.998804
1.00622 0.999572 1.00758 0.999075
0.998858 1 1 0.998858
0.998491 1 1 0.998491
1.00259 1 1.00426 0.998338
1.00283 1 1.00456 0.998282
1.00272 1 1.00427 0.998457
0.998783 1 1.00032 0.998464
1.00316 1 1.00482 0.998343
1.00035 1 1.0021 0.998258
1.01096 0.99987 1.01251 0.998595
1.03019 0.998876 1.03228 0.999095
1.00607 1 1.00771 0.998375
0.999735 1 1.00152 0.998215
0.998512 1 1.00002 0.998493
0.999636 1 1.00113 0.998512
0.999842 1 1.00153 0.998316
0.999591 1 1.00107 0.998526
0.999559 1 1.00095 0.998608
1.00268 1 1.00422 0.998464
1.00132 1 1.00291 0.998418
1.00192 0.999977 1.00333 0.998621
0.999079 1 1.0007 0.998376
0.998698 1 1.00093 0.997771
1.00383 1 1.00561 0.998223
1.00381 1 1.0055 0.998325
1.00347 1 1.00495 0.998532
1.00045 1 1.00181 0.998642
0.998993 1 1 0.998993
0.999127 1 1.00044 0.998686
0.999014 1 1 0.999014
0.999586 1 1 0.999586
0.998919 1 1 0.998919
0.999598 1 1 0.999598
0.999996 1 1 0.999996
0.999609 1 1 0.999609
0.999999 1 1 0.999999
1 1 1 1
1 1 1 1
1 1 1 1
1 1 1 1
0.999385 1 1 0.999385
0.999902 1 1 0.999902
0.99938 1 1 0.99938
1 1 1 1
0.999925 1 1 0.999925
0.999912 1 1 0.999912
1 1 1 1
1 1 1 1
1 1 1 1
1 1 1 1
1 1 1 1
0.763875 0.858409 0.93177 0.955036
0.693574 0.810673 0.909351 0.940839
0.924708 0.977537 0.957041 0.988419
0.993937 1.01895 0.978464 0.996925
1.04573 1.06765 0.981894 0.997531
0.920311 0.958747 0.968987 0.990633
1.00477 1.02691 0.981413 0.996973
0.929726 0.989552 0.963711 0.974921
0.738089 0.843526 0.916362 0.954866
0.631758 0.778254 0.868145 0.935055
0.953323 0.996228 0.963685 0.992993
0.915712 0.969615 0.968932 0.974689
0.728319 0.839488 0.906563 0.956994
0.707126 0.852591 0.883785 0.938446
1.00001 1 1.00146 0.998562
0.999021 1 1 0.999021
0.99942 1 1 0.99942
0.998939 1 1 0.998939
0.998773 1 1 0.998773
0.999605 1 1.00109 0.99852
0.99871 1 1 0.99871
0.998601 1 1 0.998601
0.998875 1 1 0.998875
0.99896 1 1 0.99896
0.995403 1.04492 0.954784 0.997725
0.990512 1.02974 0.96429 0.997527
0.999906 1.01258 0.990166 0.997288
0.988844 1.00137 0.989833 0.997639
1.04619 1.00292 1.04566 0.99759
1.03093 1.00027 1.03287 0.99785
1.00023 1 1.00168 0.99855
0.999876 1 1.00129 0.998587
0.980978 1.02772 0.956694 0.997727
1.00576 1 1.00765 0.998121
1.01041 1 1.01224 0.998185
0.983828 1.00867 0.977807 0.99751
0.975584 1.00132 0.976544 0.997703
0.98909 1.00201 0.989116 0.99797
1.04318 1 1.04545 0.997826
0.978933 1.00377 0.977227 0.99798
0.969924 0.999103 0.972352 0.998398
1.01361 1.00091 1.01453 0.998188
1.00868 1 1.01063 0.998069
1.01003 1 1.01208 0.997968
1.02706 1 1.02914 0.997976
0.758671 0.843126 0.946583 0.950608
0.779465 0.869062 0.934948 0.959309
0.902474 0.972317 0.953721 0.973207
1.00047 0.999604 1.00272 0.998147
1.0073 1.00191 1.00776 0.99764
0.990652 1.0083 0.984549 0.997916
1.00973 1.00187 1.01023 0.997636
0.766114 0.862591 0.925549 0.959597
0.906669 0.967488 0.96296 0.973184
0.878267 0.935456 0.954676 0.983438
0.955072 0.968129 0.988353 0.998138
0.730271 0.838517 0.913787 0.953075
0.687339 0.802917 0.91077 0.939922
0.713629 0.859779 0.882023 0.941035
1.0033 0.999814 1.00487 0.998624
0.735017 0.829815 0.936959 0.945356
0.816955 0.910997 0.944069 0.949899
0.987438 0.993593 0.995041 0.998758
1.01487 1.00162 1.01469 0.998554
0.964549 0.962313 1.00425 0.998081
0.883263 0.931638 0.962814 0.984692
0.887571 0.936677 0.973581 0.973288
0.757815 0.853583 0.930487 0.954129
0.758226 0.898273 0.893391 0.944819
1.0074 0.998944 1.00904 0.999431
0.833311 0.916692 0.950599 0.956283
0.804072 0.907716 0.928324 0.954214
0.986433 0.971976 1.01516 0.999715
0.913135 0.928252 0.992508 0.991141
0.8929 0.925324 0.992768 0.971989
0.805785 0.888692 0.952258 0.952167
0.795952 0.936225 0.900266 0.944356
1.00297 1 1.00422 0.998764
1.00647 0.99921 1.0082 0.999069
1.02326 0.996767 1.02725 0.999354
0.998917 1 1.00045 0.998463
1.00031 1 1.00205 0.99826
1.00132 1 1.00301 0.998322
1.01082 0.999718 1.01247 0.998654
1.0001 1 1.00189 0.998215
1.00585 1 1.00749 0.998366
1.03478 0.999611 1.03604 0.999173
1.0436 0.996326 1.04803 0.999446
1.03486 0.999256 1.0366 0.999068
1.0003 1 1.00199 0.998314
1.00003 1 1.00173 0.998308
0.999571 1 1.00106 0.998514
0.998776 1 1.00008 0.998692
1.00102 1 1.00259 0.998436
1.00188 1 1.00342 0.998465
1.00255 1 1.00392 0.998639
1.00095 1 1.00248 0.998474
1.00686 0.999252 1.00866 0.998963
0.99686 1.00026 0.998113 0.998482
0.999731 1.00052 1.00082 0.998394
0.998685 1 1.00069 0.997991
1.00137 1.0029 1.00153 0.996947
1.00253 1 1.00442 0.998118
0.998795 1 1.00079 0.998004
1.00356 1 1.00533 0.998237
1.00635 1 1.00799 0.998369
1.00284 1 1.00452 0.998326
1.00317 1 1.00465 0.998531
0.999277 1 1.00039 0.998892
1.00079 1 1.00215 0.998639
0.99899 1 1 0.99899
0.999569 1 1 0.999569
0.999015 1 1 0.999015
0.999587 1 1 0.999587
0.999988 1 1 0.999988
0.9996 1 1 0.9996
0.999994 1 1 0.999994
1 1 1 1
0.999998 1 1 0.999998
1 1 1 1
1 1 1 1
0.999148 1 1 0.999148
0.999861 1 1 0.999861
0.999312 1 1 0.999312
1 1 1 1
0.999907 1 1 0.999907
0.999381 1 1 0.999381
1 1 1 1
1 1 1 1
0.999925 1 1 0.999925
1 1 1 1
1 1 1 1
1 1 1 1
0.727643 0.826073 0.931599 0.94552
0.770378 0.865608 0.930062 0.956909
0.810936 0.909652 0.938962 0.94943
0.68961 0.8078 0.908698 0.939464
0.921288 0.968288 0.962853 0.988168
1.00274 1.02637 0.97979 0.997131
0.934375 0.986917 0.970272 0.975769
0.747942 0.846776 0.922306 0.957688
0.636735 0.791052 0.865044 0.930497
0.95185 0.990849 0.968271 0.99212
0.909319 0.969159 0.966963 0.970311
0.742139 0.847789 0.91644 0.955198
0.707372 0.855961 0.882777 0.936145
0.926791 0.976308 0.959208 0.989651
0.885072 0.931477 0.979906 0.969665
0.763671 0.867046 0.925058 0.952127
0.764057 0.906757 0.896545 0.93986
1.00173 1 1.00346 0.998278
0.999335 1 1.00073 0.998608
0.999056 1 1 0.999056
0.998829 1 1 0.998829
0.998574 1 1.0004 0.998173
0.998915 1 1.00035 0.998565
0.998688 1 1 0.998688
0.998569 1 1 0.998569
0.998648 1 1.00001 0.99864
0.998835 1 1 0.998835
0.982193 1.02886 0.956752 0.997795
0.983139 1.00763 0.978192 0.99745
0.97328 1.00129 0.974173 0.997798
0.992305 1.00326 0.991159 0.997905
1.03569 1 1.038 0.99778
1.01001 1 1.0119 0.998139
1.00617 1 1.00811 0.998084
1.00784 1 1.00983 0.998029
0.97668 1.004 0.974747 0.997993
1.00852 1 1.01059 0.997956
1.0275 1 1.0296 0.99796
0.968629 0.999665 0.970524 0.998382
1.00988 1.00196 1.00978 0.998145
0.952322 0.981871 0.971472 0.998388
0.983141 0.988879 0.99496 0.999234
1.03901 0.999663 1.04102 0.998398
1.00481 1 1.00685 0.997971
1.01845 1 1.02043 0.998052
0.843429 0.922974 0.952141 0.959749
0.759568 0.842378 0.949195 0.949957
0.768373 0.863497 0.930041 0.956774
1.00345 0.999823 1.00502 0.998615
1.01532 1.00061 1.01622 0.998509
0.984035 0.991468 0.993646 0.99885
0.737638 0.831605 0.937495 0.946144
0.88329 0.931289 0.977831 0.969962
0.887045 0.929481 0.967709 0.98619
0.956446 0.95836 0.999485 0.998518
0.759528 0.857861 0.925116 0.957041
0.823997 0.916506 0.946646 0.949736
0.762766 0.901265 0.895582 0.945004
1.00581 0.998832 1.00761 0.999382
0.83047 0.91566 0.946921 0.957803
0.8041 0.907586 0.928419 0.954286
0.988781 0.975682 1.01389 0.999547
0.925227 0.938386 0.995015 0.990916
0.86721 0.918477 0.974728 0.968662
0.796221 0.935895 0.900311 0.944962
0.820545 0.89598 0.960487 0.953481
1.00209 0.979851 1.02299 0.999711
0.814456 0.902311 0.936244 0.9641
0.829181 0.93101 0.93162 0.955996
0.763126 0.905469 0.896508 0.940088
0.962621 0.951463 1.01409 0.997674
0.920154 0.939743 1.00607 0.973242
0.864768 0.931821 0.971535 0.955232
1.00713 0.998835 1.00925 0.999061
1.02301 0.996673 1.02717 0.99927
1.02252 0.984852 1.0387 0.999566
1.00016 1 1.00194 0.998214
1.00511 1 1.00676 0.998357
1.03934 0.99974 1.04039 0.999251
1.00072 1 1.00241 0.99832
1.03406 0.999346 1.03569 0.999079
1.04529 0.996107 1.04998 0.999421
1.03384 0.99191 1.04281 0.999489
1.02155 0.998639 1.02391 0.999058
1.00072 1 1.00227 0.998456
1.00143 1 1.00296 0.998467
1.0031 1 1.00445 0.998658
1.0062 0.999584 1.00769 0.998935
1.00052 1 1.00205 0.998473
1.00181 1 1.00297 0.998848
0.997839 1.00009 0.998991 0.998756
1.00214 1.00026 1.00433 0.997553
1.00026 1.00101 1.00084 0.998415
0.999214 1.00075 1.00057 0.997902
0.998705 1.00101 1.00101 0.996689
1.01295 1.01506 1.00129 0.996636
1.00226 1.00173 1.00276 0.997765
1.00027 1.00189 1.00138 0.997
1.00864 1 1.01049 0.998166
1.00366 1.00045 1.00511 0.998112
0.998879 1 1.00065 0.998235
1.00348 1 1.00524 0.998251
1.00566 1 1.00727 0.998404
1.00028 1 1.00152 0.998757
1.00301 1 1.00449 0.99853
0.99932 1 1.00043 0.998892
0.999509 1 1 0.999509
0.998987 1 1 0.998987
0.999567 1 1 0.999567
0.999983 1 1 0.999983
0.999588 1 1 0.999588
0.999987 1 1 0.999987
1 1 1 1
0.999991 1 1 0.999991
1 1 1 1
1 1 1 1
0.998901 1 1 0.998901
0.999671 1 1 0.999671
0.999146 1 1 0.999146
1 1 1 1
0.999812 1 1 0.999812
0.99924 1 1 0.99924
1 1 1 1
1 1 1 1
0.999911 1 1 0.999911
1 1 1 1
1 1 1 1
1 1 1 1
0.830268 0.920297 0.942879 0.95683
0.72609 0.825893 0.927692 0.947682
0.766273 0.86142 0.930049 0.956451
0.998448 1 1 0.998448
0.810435 0.905667 0.935383 0.956666
0.809719 0.909259 0.938102 0.949286
0.694106 0.81535 0.904076 0.941623
0.959657 0.993794 0.974405 0.991016
0.905313 0.960958 0.967203 0.97404
0.745363 0.860068 0.909968 0.952377
0.702175 0.843957 0.887419 0.937554
0.924267 0.972337 0.963366 0.98671
0.886511 0.93362 0.975911 0.972979
0.770967 0.865974 0.934616 0.952572
0.76019 0.901358 0.896698 0.940543
0.883856 0.932777 0.963285 0.983669
0.880133 0.917025 0.989114 0.970333
0.83414 0.907821 0.963258 0.953886
0.797198 0.9356 0.902336 0.944295
1.00112 1 1.00307 0.998052
1.00295 1 1.00472 0.998234
0.99886 1 1.00021 0.998653
0.998266 1 1.00002 0.998249
0.998805 1 1.00056 0.998242
0.998609 1 1 0.998609
0.998574 1 1 0.998574
0.998703 1 1.00003 0.998678
0.97352 1.00469 0.970919 0.998001
0.967069 1.00074 0.967928 0.998373
1.00738 1 1.00941 0.997989
1.00644 1.00297 1.00537 0.9981
1.02931 1 1.03143 0.997943
1.00801 1 1.01009 0.997944
1.00529 1 1.00732 0.997983
0.956105 0.981872 0.975227 0.998493
1.01681 1 1.01877 0.998077
1.02852 1.00032 1.0298 0.998433
0.980114 0.990087 0.990634 0.999287
1.00733 1 1.00923 0.99812
0.948691 0.967288 0.982555 0.998187
1.00181 0.986186 1.01638 0.999475
1.0503 0.997261 1.05473 0.998536
1.01452 1 1.01631 0.998242
0.824495 0.905102 0.942187 0.966837
0.842942 0.923028 0.951638 0.959646
0.762082 0.841465 0.954036 0.949294
1.00375 0.998648 1.00578 0.999336
0.991778 0.978709 1.01398 0.999382
0.830026 0.916814 0.943761 0.959286
0.892757 0.919836 0.997749 0.972751
0.914291 0.935987 0.989031 0.987654
0.8193 0.895368 0.961063 0.952115
0.804971 0.908708 0.928228 0.954336
0.797531 0.936472 0.900657 0.94557
1.00641 0.986562 1.02046 0.999669
0.816069 0.903711 0.936676 0.964069
0.828474 0.928785 0.931021 0.958086
0.97146 0.956834 1.01588 0.999409
0.758767 0.899724 0.89652 0.940674
0.897768 0.923421 1.00124 0.971018
0.870762 0.938386 0.971892 0.954773
1.00022 0.974452 1.0267 0.999749
0.839678 0.924314 0.940037 0.96638
0.807939 0.902536 0.935501 0.956907
0.70477 0.850747 0.88256 0.938649
0.832716 0.907091 0.96289 0.953386
0.950689 0.950037 1.00584 0.994874
0.927957 0.937788 1.02288 0.967387
1.02039 0.997275 1.02401 0.999188
1.02473 0.985819 1.03996 0.999534
1.01205 0.974067 1.03943 0.999582
1.00125 1 1.00293 0.998326
1.03634 0.999411 1.0379 0.999091
1.04806 0.997194 1.05165 0.999396
1.01663 0.998898 1.01873 0.999045
1.03383 0.993655 1.04096 0.999488
1.01074 0.988954 1.02281 0.999235
1.00532 0.999876 1.00655 0.998906
1.00024 1 1.00177 0.998471
1.00434 1 1.00552 0.998827
1.01057 0.999939 1.01251 0.998142
0.999028 1 1 0.999028
0.999966 1.00022 1.00201 0.997745
1.00211 1.00094 1.00481 0.996373
1.00528 1.00745 1.00188 0.995977
0.999803 1.00159 1.0004 0.997809
0.999204 1.00156 1.00115 0.996503
1.01407 1.01687 1.00053 0.996725
1.00798 1.00813 1.00261 0.997253
1.01201 1.01406 1.00125 0.996727
1.00738 1 1.00943 0.997967
1.00452 1.00344 1.00334 0.99774
0.998918 1.00059 1.00128 0.997054
1.00439 1 1.00583 0.998565
1.008 1 1.00983 0.998183
1.00483 1.00084 1.00589 0.998107
1.00527 1 1.00684 0.998439
1.00083 1 1.00207 0.998757
0.999504 1 1.00011 0.999394
0.999535 1 1.00064 0.998893
0.999504 1 1 0.999504
0.999977 1 1 0.999977
0.999564 1 1 0.999564
0.999982 1 1 0.999982
1 1 1 1
0.999985 1 1 0.999985
1 1 1 1
1 1 1 1
0.998814 1 1 0.998814
0.999523 1 1 0.999523
0.998947 1 1 0.998947
1 1 1 1
0.999655 1 1 0.999655
0.999143 1 1 0.999143
1 1 1 1
1 1 1 1
0.999762 1 1 0.999762
1 1 1 1
1 1 1 1
1 1 1 1
0.820762 0.905232 0.939472 0.965103
0.832885 0.919841 0.946331 0.956818
0.726678 0.825834 0.928347 0.947849
0.998484 1 1 0.998484
0.998411 1 1 0.998411
0.998357 1 1 0.998357
0.82856 0.932541 0.929624 0.95576
0.807014 0.905107 0.931942 0.956736
0.808848 0.908652 0.93785 0.949153
0.930143 0.97749 0.962422 0.988717
0.870047 0.927293 0.967736 0.969548
0.763161 0.85056 0.937826 0.956728
0.771503 0.910281 0.902459 0.939149
0.886248 0.937352 0.958516 0.9864
0.887834 0.922228 0.991778 0.970687
0.813971 0.885628 0.962656 0.954743
0.796137 0.936173 0.900069 0.944835
0.884673 0.927194 0.969486 0.984173
0.902656 0.927628 1.00133 0.971791
0.864651 0.929884 0.973172 0.955481
0.773601 0.912194 0.899696 0.942614
0.998774 1 1.00064 0.998132
1.00177 1 1.00376 0.998022
1.00285 1 1.00467 0.998189
0.99825 1 1.00001 0.998239
0.998649 1 1.00034 0.998311
0.99858 1 1 0.99858
0.958166 0.978859 0.98025 0.998581
0.975653 0.989247 0.986927 0.999322
1.00556 1 1.00758 0.997995
1.02002 1.00052 1.02105 0.998466
1.01724 1 1.01917 0.998103
1.0094 1 1.01131 0.998114
1.01269 0.998965 1.0155 0.998269
0.955933 0.967395 0.989854 0.998281
1.04804 0.996553 1.05305 0.998679
1.00591 0.982159 1.02482 0.999375
1.00881 0.998483 1.01193 0.998426
0.976693 0.961296 1.01803 0.998021
1.00663 0.977317 1.03064 0.999378
1.03477 0.987575 1.04905 0.998792
0.852476 0.929524 0.946635 0.96881
0.826245 0.905742 0.943032 0.967338
0.842362 0.922992 0.951124 0.959541
1.01178 0.993108 1.01918 0.999627
0.96033 0.953822 1.00865 0.998192
0.817503 0.904689 0.937338 0.964038
0.893702 0.911997 1.00499 0.975076
0.865511 0.935843 0.97057 0.952889
0.828699 0.927233 0.930804 0.960174
0.772163 0.909444 0.903824 0.939396
0.995974 0.971731 1.02517 0.99978
0.840616 0.923854 0.940795 0.967162
0.808804 0.905245 0.933626 0.956982
0.946603 0.945578 1.01006 0.991116
0.70561 0.854081 0.882215 0.936464
0.808686 0.883517 0.959466 0.953971
0.93745 0.944172 1.02141 0.972066
1.00204 0.959464 1.04556 0.998868
0.821595 0.904341 0.941205 0.965253
0.818713 0.915116 0.941928 0.949811
0.629465 0.766193 0.873889 0.940108
0.756728 0.860378 0.923821 0.952058
0.902545 0.924263 1.0056 0.971063
0.925026 0.940879 0.994716 0.988373
1.02682 0.986618 1.04126 0.999501
1.01651 0.980874 1.03676 0.999586
1.01138 0.984792 1.0275 0.999513
1.01119 0.999244 1.01293 0.999032
1.03136 0.994896 1.03719 0.999487
1.01442 0.986859 1.02863 0.999319
1.00843 0.999862 1.00978 0.998806
1.00694 1 1.00814 0.998805
1.00854 0.99999 1.01061 0.997958
1.02055 1.00084 1.0232 0.996571
0.99767 1.00005 0.999677 0.997941
1.00355 1.00125 1.00595 0.996372
1.00448 1.00252 1.00648 0.995497
1.00605 1.00861 1.00191 0.995565
1.00802 1.01064 1.00108 0.996336
1.00517 1.00733 1.00195 0.995926
0.999453 1.0019 1.00124 0.996317
1.0068 1.00869 1.0011 0.997032
1.01436 1.01712 1.00048 0.996811
1.00255 1.00037 1.00464 0.997559
1.00954 1.00949 1.00274 0.997322
1.01165 1.01369 1.00117 0.99682
1.00866 1 1.01042 0.99826
1.00685 1.00037 1.00852 0.997965
1.00692 1.00538 1.00383 0.997714
0.999869 1 1.00062 0.999245
1.00381 1 1.00525 0.998563
1.00695 1 1.00877 0.9982
1.00075 1 1.002 0.998756
0.999567 1 1.00018 0.99939
0.99996 1 1 0.99996
0.9995 1 1 0.9995
0.999973 1 1 0.999973
1 1 1 1
0.999981 1 1 0.999981
1 1 1 1
1 1 1 1
0.998778 1 1 0.998778
0.999503 1 1 0.999503
0.998841 1 1 0.998841
0.999998 1 1 0.999998
0.999566 1 1 0.999566
0.998992 1 1 0.998992
1 1 1 1
1 1 1 1
0.99964 1 1 0.99964
1 1 1 1
1 1 1 1
1 1 1 1
0.838948 0.924216 0.939503 0.966193
0.823219 0.906049 0.941458 0.965078
0.834509 0.918839 0.94919 0.956838
1.00012 1 1.00182 0.9983
1.00039 1 1.00223 0.998165
0.998519 1 1 0.998519
0.998398 1 1 0.998398
0.99835 1 1 0.99835
0.998497 1 1.00016 0.998338
0.998319 1 1 0.998319
0.805423 0.910907 0.926834 0.953999
0.830657 0.930606 0.93185 0.957877
0.805655 0.903542 0.931911 0.956811
0.795852 0.936868 0.898551 0.945392
0.881576 0.93433 0.958886 0.983993
0.887362 0.918339 0.995133 0.970995
0.822343 0.896982 0.958879 0.956105
0.875393 0.92836 0.959035 0.983223
0.901134 0.920156 1.0113 0.96838
0.86937 0.93691 0.9712 0.955428
0.759769 0.900046 0.893469 0.944795
0.901106 0.932404 0.980289 0.985866
0.914792 0.930122 1.01599 0.968044
0.809728 0.891882 0.953128 0.952534
0.722921 0.864107 0.890816 0.93915
1.01516 1 1.01678 0.998408
1.00033 1 1.00219 0.998151
1.00284 1 1.00486 0.997991
0.998228 1 1 0.998228
0.963423 0.967837 0.997028 0.998406
1.00814 0.980169 1.02929 0.999269
1.00871 1 1.01062 0.998108
1.01084 0.999108 1.01347 0.998296
1.04018 0.994164 1.04752 0.998821
1.0075 0.999606 1.00949 0.998426
1.03688 0.987852 1.05091 0.998779
0.975781 0.960964 1.01876 0.996722
1.00497 0.968248 1.03842 0.999525
1.01103 0.989006 1.02338 0.998907
0.953449 0.930727 1.02819 0.996329
1.01138 0.965394 1.04837 0.999296
0.825672 0.904657 0.943898 0.966938
0.85048 0.928656 0.944162 0.96998
0.82785 0.906176 0.943925 0.967836
0.991121 0.967294 1.02483 0.999805
0.952529 0.949819 1.00768 0.995214
0.839615 0.922504 0.94028 0.967953
0.936216 0.947335 1.02088 0.968047
0.813294 0.890693 0.955722 0.955407
0.809488 0.907174 0.932362 0.957051
0.701457 0.842327 0.88795 0.937846
1.00327 0.961959 1.04394 0.999047
0.822759 0.907001 0.939795 0.965233
0.812991 0.910679 0.940041 0.949672
0.927545 0.941126 0.994627 0.990893
0.631914 0.777299 0.868834 0.935692
0.762422 0.858806 0.932303 0.952233
0.901626 0.921529 1.01001 0.968701
0.995391 0.967631 1.03141 0.997362
0.831687 0.922014 0.942449 0.957115
0.693615 0.809357 0.910293 0.94145
0.730588 0.841389 0.906815 0.95754
0.870277 0.905562 0.989053 0.971673
0.890238 0.921317 0.981324 0.984657
1.02168 0.984971 1.03769 0.99959
1.01288 0.98204 1.0319 0.999514
0.984859 0.97952 1.00614 0.999313
1.01904 0.985188 1.03498 0.999402
1.0059 0.992443 1.01469 0.998895
1.00188 1.0008 1.00331 0.997781
1.00678 1.00003 1.009 0.997773
1.01831 1.00078 1.02112 0.996462
1.01029 1.00044 1.01429 0.995615
1.00531 1.00185 1.00712 0.99637
1.00514 1.00228 1.00748 0.995407
1.00186 1.0022 1.00448 0.995194
1.02118 1.02556 1 0.99573
1.01379 1.01723 1.00077 0.995853
1.00636 1.0087 1.00218 0.995508
1.00555 1.00881 1.00013 0.996637
1.00681 1.00969 1.00074 0.9964
1.00508 1.00714 1.00209 0.995874
1.00385 1.00566 1.00112 0.99709
1.0067 1.00863 1.00108 0.997007
1.01438 1.01711 1.00043 0.996896
1.00581 1.00021 1.00775 0.997865
1.0033 1.00105 1.00463 0.997626
1.01083 1.01057 1.00288 0.997391
1.00265 1 1.00367 0.998984
1.00732 1 1.00907 0.998265
1.00635 1.00075 1.00765 0.997963
0.999929 1 1 0.999929
1.00042 1 1.00118 0.999239
1.0036 1 1.00505 0.998562
0.999783 1 1.0004 0.999385
0.999952 1 1 0.999952
1 1 1 1
0.999969 1 1 0.999969
1 1 1 1
1 1 1 1
1.00271 1 1.00442 0.998291
0.99892 1 1.00029 0.998635
0.999383 1 1 0.999383
0.998774 1 1 0.998774
0.999986 1 1 0.999986
0.999505 1 1 0.999505
0.998868 1 1 0.998868
1 1 1 1
0.999999 1 1 0.999999
0.999608 1 1 0.999608
1 1 1 1
1 1 1 1
1 1 1 1
0.814182 0.902531 0.935822 0.963976
0.837078 0.921998 0.938887 0.966991
0.824072 0.908318 0.940108 0.965049
1.00038 1 1.00207 0.998311
1.0017 1 1.00354 0.998168
1.00046 1 1.00227 0.9982
1.00096 1 1.00279 0.998177
1.00649 1 1.00837 0.998132
0.998397 1 1.00001 0.998386
0.998342 1 1 0.998342
0.998376 1 1.00004 0.998341
0.998323 1 1 0.998323
1.00909 1 1.01073 0.998382
0.805694 0.90192 0.940466 0.949859
0.805845 0.909975 0.928171 0.954101
0.832059 0.929834 0.932147 0.959984
0.762251 0.902412 0.893852 0.944992
0.866431 0.934584 0.97256 0.953233
0.870527 0.923986 0.959565 0.981845
0.910414 0.929041 1.00878 0.971418
0.897542 0.935513 0.976188 0.982815
0.924327 0.941012 1.01111 0.971479
0.823822 0.896317 0.963092 0.954342
0.722607 0.870466 0.884924 0.93809
0.911777 0.927292 0.998116 0.985124
0.906477 0.922391 1.01094 0.97211
0.742629 0.835239 0.929743 0.956308
0.663093 0.808419 0.872998 0.939559
1.0146 1 1.01564 0.998978
1.0165 1 1.01811 0.998419
1.00316 1 1.005 0.99817
0.977718 0.963331 1.01966 0.995369
1.00733 0.962104 1.04734 0.999681
1.0074 1 1.00899 0.998425
1.04009 0.987206 1.05487 0.998767
1.01263 0.992065 1.02184 0.998913
1.01714 0.972563 1.04658 0.999284
0.959445 0.941291 1.02309 0.996279
1.01697 0.992368 1.02546 0.999345
0.971749 0.958132 1.0175 0.996764
0.84218 0.922681 0.951408 0.959371
0.82853 0.906313 0.944953 0.96743
0.848312 0.927505 0.941784 0.971154
1.0049 0.968066 1.03888 0.999202
0.923372 0.938227 0.997429 0.986703
0.826381 0.909624 0.941238 0.965205
0.905084 0.928994 1.00566 0.968781
0.753284 0.841397 0.936145 0.956345
0.806962 0.906203 0.937793 0.949556
0.636376 0.789744 0.865346 0.931189
0.993631 0.966069 1.03102 0.997583
0.832591 0.91937 0.946209 0.957094
0.689934 0.807552 0.908788 0.940101
0.898853 0.930268 0.979844 0.986107
0.743566 0.848715 0.916756 0.955661
0.865836 0.912147 0.97916 0.969431
0.953876 0.95321 1.0048 0.995917
0.728096 0.826913 0.930749 0.946011
0.739399 0.841375 0.917241 0.958089
0.881493 0.931242 0.976095 0.96976
0.868432 0.919281 0.957184 0.986943
1.01187 0.979219 1.03385 0.999514
0.987804 0.977329 1.01144 0.999288
0.995423 0.992814 1.00418 0.998453
1.00263 0.984047 1.01993 0.998979
1.00166 1.00078 1.00302 0.997865
0.997957 1.00199 0.999119 0.996855
1.01582 1.00068 1.01885 0.996351
1.00894 1.00084 1.01253 0.995619
0.999164 1.00195 1.00137 0.995853
1.00539 1.00197 1.00814 0.995317
1.00206 1.00315 1.0037 0.995228
1.01902 1.02316 1 0.995951
1.04249 1.04633 1 0.996326
1.03134 1.03566 1.00002 0.995814
1.02127 1.02561 1 0.995759
1.01611 1.02005 1 0.996139
1.01236 1.01554 1.00107 0.9958
1.0069 1.00904 1.00244 0.995452
1.0082 1.01144 1 0.996795
1.00399 1.00728 1.00002 0.996711
1.00535 1.0086 1.00032 0.996464
1.00137 1.00183 1.00208 0.997465
1.00325 1.00484 1.0013 0.997126
1.0068 1.00875 1.0011 0.996982
1.00753 1 1.009 0.998544
1.00645 1.00058 1.00802 0.997868
1.00408 1.0016 1.00479 0.997692
0.99987 1 1 0.99987
1.00326 1 1.00429 0.998976
1.00663 1 1.00837 0.998271
0.999997 1 1 0.999997
0.999916 1 1 0.999916
1.00085 1 1.00162 0.999232
0.999944 1 1 0.999944
1 1 1 1
1 1 1 1
1.0053 1 1.00713 0.99819
1.00066 1 1.00218 0.998484
1.00342 1 1.00516 0.99827
0.999361 1 1.0001 0.999257
0.999143 1 1.00051 0.998633
0.999963 1 1 0.999963
0.999387 1 1 0.999387
0.998771 1 1 0.998771
1 1 1 1
0.999991 1 1 0.999991
0.999508 1 1 0.999508
1 1 1 1
1 1 1 1
1 1 1 1
0.829316 0.917197 0.9422 0.959653
0.817561 0.905013 0.937153 0.963951
0.83731 0.919518 0.9409 0.967793
0.999054 1.00046 1.00039 0.998202
1.00072 1 1.0024 0.998323
1.00161 1 1.00345 0.998171
0.999909 1 1.00174 0.99817
1.00039 1 1.00217 0.998223
1.00399 1 1.00577 0.998228
1.01196 1 1.01415 0.99784
1.01498 1 1.01683 0.998188
0.998343 1 1 0.998343
0.998328 1 1 0.998328
1.00901 1 1.01066 0.998367
1.02249 0.99958 1.02437 0.998578
0.701922 0.814635 0.915625 0.94104
0.816802 0.912506 0.942613 0.949615
0.806718 0.909769 0.92931 0.954178
0.715865 0.863156 0.881682 0.940654
0.824202 0.899123 0.961459 0.953418
0.918596 0.934282 1.01559 0.968115
0.897388 0.927461 0.98377 0.983538
0.910319 0.927318 0.994495 0.987103
0.650305 0.799814 0.869384 0.935225
0.900621 0.921301 1.0088 0.969028
0.760647 0.855445 0.932422 0.953627
0.910819 0.936406 0.984183 0.988308
0.891024 0.922479 0.992427 0.973271
0.730742 0.841649 0.908051 0.956143
0.997254 1 0.997713 0.999539
1.01393 1 1.01496 0.998984
1.01655 1 1.01815 0.998429
0.958654 0.942968 1.0204 0.996306
1.02314 0.979777 1.04501 0.999273
1.01381 0.995674 1.01932 0.99892
1.01629 0.992734 1.0244 0.999344
0.968273 0.956733 1.0153 0.996809
0.992732 0.986149 1.00884 0.997849
0.759347 0.842638 0.951162 0.947425
0.839358 0.92186 0.947208 0.961251
0.828722 0.907172 0.943807 0.967913
0.994831 0.965213 1.03303 0.997733
0.888989 0.925909 0.972794 0.986977
0.831283 0.916858 0.947292 0.957111
0.872403 0.904696 0.993629 0.970489
0.748838 0.863138 0.910416 0.952944
0.695365 0.815734 0.904718 0.942217
0.954559 0.950571 1.00824 0.995988
0.726698 0.826467 0.927382 0.948133
0.739354 0.843706 0.917167 0.955461
0.868121 0.920389 0.958855 0.983685
0.88489 0.936076 0.971509 0.973041
0.947742 0.963602 0.985486 0.998026
0.760869 0.855376 0.931042 0.955396
0.917867 0.972056 0.968855 0.974608
0.876974 0.932931 0.955849 0.983441
0.990659 0.975445 1.01634 0.999267
0.986966 0.992574 0.9958 0.998544
0.994652 1.00116 0.995913 0.997579
1.0021 1.00092 1.00323 0.99795
1.00124 1.00248 1.00194 0.996833
1.00041 1.00417 0.999428 0.996822
1.00769 1.00121 1.01089 0.995624
0.999048 1.00153 1.00167 0.995862
1.02359 1.02804 0.998895 0.996772
1.0024 1.00398 1.00319 0.995261
1.0179 1.02203 1 0.995962
1.04311 1.04689 0.999463 0.996928
1.04561 1.04886 0.999917 0.996979
1.04499 1.04893 1 0.996242
1.04284 1.04664 1 0.996371
1.03286 1.03697 1 0.996037
1.02972 1.03398 1 0.995874
1.02101 1.02533 1 0.995788
1.02155 1.02516 1 0.99648
1.01635 1.02012 1.00014 0.996165
1.01104 1.01386 1.00148 0.995745
1.00427 1.00716 1 0.997126
1.00813 1.01137 1 0.996789
1.00243 1.00566 1 0.996785
1.00342 1.00022 1.0051 0.9981
1.00296 1.00316 1.00234 0.997461
1.00233 1.00373 1.00145 0.997163
1.00081 1 1.00108 0.999733
1.00548 1 1.00695 0.998541
1.00614 1.00098 1.00731 0.997871
1 1 1 1
1.00013 1 1.00028 0.999848
1.00319 1 1.00423 0.998968
1 1 1 1
0.999906 1 1 0.999906
1 1 1 1
1.0002 1.00031 1.00182 0.998069
1.00407 1 1.00591 0.998174
1.00421 1 1.00588 0.99834
1.00005 1 1.00093 0.999124
1.0011 1 1.00263 0.998482
1.00346 1 1.00522 0.99825
0.99993 1 1 0.99993
0.999262 1 1 0.999262
0.998896 1 1.00027 0.99863
1 1 1 1
0.99997 1 1 0.99997
0.999391 1 1 0.999391
1 1 1 1
0.999995 1 1 0.999995
1 1 1 1
0.733055 0.827546 0.939237 0.943126
0.830581 0.918354 0.94243 0.959671
0.821205 0.907756 0.938507 0.963928
1.00133 1.00016 1.003 0.998181
1.00526 1.00248 1.00493 0.997859
1.00913 1.00004 1.01109 0.998019
1.0012 1 1.00305 0.998162
1.00013 1 1.00189 0.998246
1.00428 1 1.00597 0.998323
1.01375 1 1.01562 0.998151
1.01153 1.00002 1.01364 0.997896
1.01406 1.00053 1.01577 0.997785
0.987573 1.00096 0.98764 0.99897
1.00745 1 1.00912 0.99835
1.01851 0.999752 1.02024 0.998555
0.739679 0.840035 0.923775 0.95319
0.687054 0.801152 0.913702 0.938579
0.824189 0.91863 0.944945 0.949466
0.638258 0.790309 0.867672 0.930772
0.762199 0.857712 0.929039 0.956518
0.889061 0.916068 0.999564 0.970941
0.91685 0.933311 0.997828 0.984502
0.899827 0.92854 0.98278 0.986058
0.733194 0.836015 0.918547 0.95478
0.873107 0.911852 0.986636 0.970479
0.888173 0.934215 0.962902 0.987345
0.871212 0.934413 0.96093 0.970272
1.00298 1 1.00396 0.999021
0.997263 1 0.997778 0.999484
1.0134 1 1.01443 0.998988
0.965103 0.955828 1.01289 0.996857
1.01527 0.992386 1.02373 0.999344
0.993628 0.987572 1.00836 0.997788
0.979427 0.991285 0.991149 0.996861
0.773294 0.872174 0.924465 0.959071
0.759002 0.841074 0.951838 0.948081
0.840591 0.923312 0.945295 0.963094
0.957796 0.957358 1.00433 0.996147
0.870922 0.920229 0.961608 0.984204
0.727731 0.82705 0.927915 0.948267
0.866286 0.926539 0.963999 0.969887
0.750699 0.849241 0.922434 0.958295
0.951029 0.966068 0.987417 0.996977
0.770694 0.865196 0.930533 0.957273
0.912696 0.971997 0.967479 0.970555
0.880709 0.935368 0.954934 0.985999
0.959045 0.984306 0.976382 0.997904
0.922298 0.979666 0.966625 0.973946
0.923146 0.975767 0.957279 0.988294
0.977903 0.991297 0.987851 0.99862
0.990936 1.00157 0.991816 0.997551
0.981883 1.00769 0.976893 0.997436
1.00315 1.00278 1.00356 0.996813
0.99975 1.0043 0.998648 0.996817
1.0234 1.03584 0.990496 0.997472
0.998862 1.00114 1.00186 0.995872
1.02258 1.02779 0.998179 0.996752
1.03835 1.04875 0.992554 0.99751
1.01696 1.02107 1 0.995973
1.04211 1.04643 0.998945 0.996921
1.04366 1.04972 0.996743 0.997476
1.04233 1.04584 0.999289 0.997354
1.04649 1.04984 0.999761 0.99705
1.04467 1.04799 1 0.996829
1.04647 1.05035 1 0.996306
1.045 1.04892 1 0.996259
1.04347 1.04722 1 0.996416
1.03424 1.0381 1 0.996281
1.03455 1.03864 1 0.996068
1.02811 1.0323 1 0.995934
1.0155 1.01873 1 0.996828
1.0208 1.02441 1 0.996477
1.01654 1.02025 1.00017 0.996192
0.999157 1.0011 1.00026 0.9978
1.00584 1.00875 1 0.997122
1.00871 1.01196 1 0.996784
1.00171 1 1.00223 0.999489
1.0032 1.00044 1.00467 0.998101
1.00512 1.00466 1.003 0.997458
1 1 1 1
1.00154 1 1.00184 0.999708
1.00459 1 1.00606 0.998538
0.999995 1 1 0.999995
1.00069 1 1.00085 0.999834
1 1 1 1
0.998917 1.00095 1 0.997965
1.0012 1.00023 1.00289 0.998087
1.0044 1 1.00621 0.998199
1.0022 1 1.00405 0.998159
1.00448 1 1.00615 0.99834
1.00188 1 1.00293 0.998961
0.999887 1 1 0.999887
0.99986 1 1.00073 0.999126
1.00214 1 1.00366 0.99848
1 1 1 1
0.99994 1 1 0.99994
0.999266 1 1 0.999266
1 1 1 1
0.999978 1 1 0.999978
1 1 1 1
0.769177 0.860423 0.933982 0.957141
0.735738 0.829645 0.939642 0.943775
0.830524 0.918693 0.942007 0.959683
1.00393 1 1.00578 0.99816
1.01137 1 1.01353 0.997864
1.00305 1.00149 1.00363 0.997934
1.00334 1.00539 1.00091 0.997047
1.01144 1.00121 1.01237 0.997867
1.01237 1 1.01428 0.998115
1.00968 1 1.01175 0.997952
1.01689 1.00062 1.01844 0.997866
0.999269 1.0023 0.999406 0.997566
0.978088 1.00174 0.977807 0.998554
0.97662 1.00035 0.978521 0.997707
0.987624 1.00084 0.98777 0.999009
1.01308 1 1.01457 0.998531
0.901744 0.962607 0.963052 0.972713
0.735832 0.835709 0.922524 0.954433
0.685767 0.801323 0.911007 0.939392
0.730773 0.839297 0.914633 0.951962
0.883793 0.923074 0.98663 0.97042
0.90388 0.92489 0.988764 0.98839
0.889067 0.933168 0.963318 0.98902
0.890965 0.939531 0.973588 0.974034
0.915063 0.968544 0.956118 0.988144
0.993883 1.00132 0.994347 0.998218
1.0024 1 1.0034 0.998999
0.997468 1 0.998038 0.999428
0.995587 0.990317 1.00757 0.997767
0.985253 0.994506 0.993592 0.997085
0.898476 0.966745 0.955062 0.973112
0.780451 0.870632 0.934381 0.959373
0.757802 0.837975 0.953155 0.94877
0.956127 0.971319 0.988445 0.995867
0.88546 0.940957 0.956693 0.983618
0.768186 0.861915 0.931487 0.956808
0.905173 0.961079 0.966958 0.974013
0.966346 0.98402 0.984023 0.997985
0.931805 0.989578 0.965975 0.974786
0.919951 0.971501 0.960593 0.985786
0.977185 1.00389 0.975954 0.997379
0.950304 0.993502 0.964345 0.991885
0.99149 1.00401 0.989959 0.997546
0.980801 1.00744 0.976108 0.997388
0.995882 1.03518 0.964227 0.997732
0.999192 1.00427 0.998123 0.996813
1.02455 1.03655 0.990954 0.997444
1.03554 1.05652 0.98231 0.997793
1.02143 1.02748 0.99737 0.996733
1.03791 1.04889 0.992025 0.997486
1.0332 1.0485 0.987659 0.997719
1.04085 1.04576 0.998385 0.996915
1.04353 1.05007 0.996308 0.997454
1.04102 1.0488 0.995014 0.997553
1.04256 1.04627 0.999041 0.997408
1.04085 1.04424 0.999589 0.997165
1.04716 1.05062 0.999584 0.997121
1.04452 1.04786 1 0.996821
1.04662 1.05016 1 0.996623
1.04366 1.0475 1 0.996341
1.04628 1.05017 1 0.996294
1.04499 1.0489 1 0.996277
1.02865 1.03214 1 0.996616
1.03397 1.03782 1 0.996289
1.03633 1.04039 1 0.996098
1.00233 1.00476 1 0.997574
1.01535 1.01858 1 0.996827
1.01984 1.02345 1 0.996474
1.00029 1 1.00108 0.999212
1.00036 1.00206 1.0005 0.997801
1.00712 1.01003 1 0.997119
1 1 1 1
1.00149 1 1.00203 0.999464
1.00251 1.00065 1.00376 0.998102
1 1 1 1
1.00184 1 1.00216 0.999683
1 1 1 1
1.00412 1.00696 1 0.99718
0.999337 1.00139 1 0.997952
1.00036 1.00013 1.00226 0.997984
1.00271 1 1.00461 0.998105
1.00379 1 1.00563 0.998166
1.00377 1 1.00505 0.998728
1.00508 1 1.00675 0.99834
1.00159 1 1.00263 0.998961
1.00001 1 1.00019 0.999826
1 1 1 1
0.999898 1 1 0.999898
0.999492 1 1.00036 0.999128
1 1 1 1
0.99995 1 1 0.99995
1 1 1 1
0.921888 0.980326 0.963589 0.975923
0.769831 0.867094 0.926762 0.95799
0.740208 0.832606 0.943344 0.94242
1.01284 1 1.01517 0.997708
1.00098 1.00101 1.00196 0.998009
1.00955 1.00126 1.01048 0.997821
1.00442 1.00619 1.00112 0.997132
1.01447 1.01769 1.00016 0.996668
0.99974 1.00231 1 0.997437
1.02104 1.00097 1.02216 0.997946
1.00023 1.00297 0.999908 0.997365
0.984122 1.00204 0.983553 0.998537
0.995585 1.00172 0.996273 0.997597
0.974114 1.0034 0.972967 0.997785
0.994772 1.00134 0.99614 0.99729
0.978533 1.00082 0.979856 0.997833
0.991653 1.00075 0.991849 0.999048
0.922797 0.97545 0.957364 0.988153
0.90807 0.968594 0.963699 0.972829
0.74119 0.837005 0.924595 0.957746
0.890307 0.940774 0.975857 0.969768
0.895433 0.933248 0.969163 0.990009
0.91736 0.964269 0.959439 0.991572
0.983885 1.00377 0.982744 0.997404
0.991855 1.00067 0.992994 0.998185
1.00187 1 1.0029 0.998978
0.986962 0.996646 0.992976 0.997289
0.935934 0.973592 0.972518 0.988486
0.913754 0.973733 0.960562 0.97693
0.768443 0.864695 0.928829 0.956782
0.96564 0.979985 0.987276 0.99806
0.924458 0.976906 0.95833 0.98746
0.935398 0.987435 0.971046 0.975547
0.969846 1.00209 0.970316 0.99743
0.948983 0.98946 0.967703 0.991101
0.970629 1.02451 0.949856 0.997427
0.992371 1.01705 0.979365 0.996294
0.978738 1.00721 0.974334 0.997333
0.993657 1.03346 0.963678 0.997727
1.0045 1.05731 0.952206 0.997738
1.02629 1.03784 0.991438 0.997417
1.03525 1.05629 0.982269 0.997773
1.03142 1.05299 0.981798 0.99767
1.03793 1.04928 0.991708 0.997462
1.03318 1.0479 0.988232 0.9977
1.04092 1.05438 0.98969 0.997522
1.04363 1.05055 0.995975 0.997433
1.03902 1.04666 0.995145 0.997546
1.04159 1.04776 0.996829 0.997274
1.04293 1.0468 0.998832 0.997463
1.04124 1.04457 0.999599 0.997211
1.04513 1.04845 1 0.996838
1.04446 1.0478 1 0.996812
1.04667 1.05023 1 0.996612
1.04574 1.04938 1 0.996531
1.03649 1.0401 1 0.996529
1.04376 1.04759 1 0.996342
1.04603 1.04993 1 0.996282
1.00903 1.01168 1 0.997376
1.02765 1.03113 1 0.99662
1.03363 1.03747 1 0.996298
0.999172 1 1.00019 0.998987
1.00415 1.0066 1 0.997572
1.01505 1.01829 1 0.996825
1 1 1 1
0.999995 1 1.0008 0.999195
1.00148 1.00298 1.0007 0.997801
1 1 1 1
1.00145 1 1.00201 0.99944
1 1 1 1
1.01499 1.01828 1 0.996764
1.00625 1.00906 1 0.997209
1.00503 1.00689 1.00066 0.997495
0.999155 1.00122 1 0.997938
1.00015 1.00002 1.00219 0.997939
1.00258 1.00027 1.0039 0.99842
1.00324 1 1.00512 0.998134
1.00395 1 1.00523 0.99873
1.0013 1 1.00156 0.999736
1.00168 1 1.00272 0.998962
0.999997 1 1.00016 0.999837
1 1 1 1
1 1 1 1
0.99991 1 1 0.99991
1 1 1 1
0.926419 0.975808 0.960075 0.988866
0.913073 0.979567 0.958419 0.972559
0.763288 0.859932 0.925168 0.959409
1.03016 1.03371 1.00007 0.996494
1.00772 1.00102 1.00894 0.997775
1.0056 1.00704 1.00135 0.997217
0.999909 1.00249 1 0.997423
1.01338 1.01636 1.00042 0.99665
1.00376 1.00656 0.999858 0.997368
0.999843 1.00269 1 0.997164
0.985832 1.00166 0.985661 0.99852
0.993392 1.00206 0.993731 0.997608
0.967735 1.00237 0.967703 0.99767
1.00435 1.01148 0.995994 0.996937
0.999061 1.00695 0.99483 0.997326
0.995438 1.00198 0.996206 0.997256
0.979347 1.00134 0.98004 0.997959
0.981973 1.00613 0.978047 0.997901
0.917837 0.972951 0.955924 0.98685
0.908657 0.970079 0.962319 0.97336
0.911657 0.957949 0.961919 0.989351
0.986632 1.00527 0.983293 0.998135
0.991835 1.0002 0.99348 0.998144
0.983582 1.00668 0.981081 0.995894
0.92148 0.958914 0.97074 0.989927
0.901331 0.970626 0.954144 0.973237
0.966838 0.999947 0.969331 0.997481
0.956397 0.991461 0.974304 0.990075
0.974486 1.02574 0.952375 0.997538
0.994911 1.01676 0.981884 0.996563
0.992447 1.04076 0.9559 0.997573
1.04343 1.05857 0.988244 0.997427
0.99073 1.03118 0.962966 0.997721
1.00894 1.05865 0.955227 0.997722
1.02047 1.06462 0.960904 0.997526
1.03419 1.05554 0.98198 0.997753
1.02939 1.05168 0.981095 0.997666
1.04038 1.06082 0.983287 0.997406
1.03282 1.04711 0.988643 0.997681
1.03946 1.05311 0.989469 0.997535
1.04346 1.05352 0.993205 0.997224
1.03693 1.04449 0.995212 0.997538
1.0421 1.04824 0.996862 0.997272
1.04732 1.05117 0.999389 0.996947
1.04157 1.04485 0.999605 0.997257
1.04551 1.04878 1 0.996881
1.04779 1.05136 1 0.996601
1.04671 1.05028 1 0.996601
1.0455 1.04915 1 0.996514
1.03918 1.04276 1 0.996562
1.01507 1.01787 1 0.997253
1.03579 1.03938 1 0.996544
1.04387 1.0477 1 0.996343
0.999039 1.0002 1 0.998837
1.01051 1.01317 1 0.997375
1.02685 1.03033 1 0.996624
1 1 1 1
0.999023 1 1.00005 0.998973
1.00615 1.0086 1 0.997571
1 1 1 1
0.999584 1 1.00041 0.999179
1 1 1 1
1.02945 1.03309 1 0.996473
1.01693 1.02023 1 0.996762
1.01442 1.01738 1 0.997092
1.00871 1.0115 1.00001 0.997237
1.00409 1.00606 1.00056 0.997489
1.00237 1.00222 1.00207 0.998093
0.999851 1 1.00196 0.997894
1.0033 1.00006 1.00483 0.998421
1.00162 1 1.00202 0.999595
1.00335 1 1.00463 0.998731
1.00054 1 1.00079 0.999748
1 1 1 1
0.999847 1 1 0.999847
1 1 1 1
1 1 1 1
0.978752 1.01057 0.97081 0.997639
0.921024 0.973059 0.959607 0.986367
0.91118 0.970398 0.961793 0.976276
1.02102 1.02415 1.00001 0.996927
1.04044 1.04401 1 0.996575
1.02823 1.03164 1.00013 0.996564
1.00037 1.00297 1 0.997407
1.01235 1.01502 1.00073 0.99663
1.00484 1.00854 0.998979 0.997344
1.022 1.027 0.998233 0.996886
0.992795 1.00315 0.992041 0.99762
0.964261 1.00189 0.964803 0.997554
1.00546 1.01325 0.995267 0.99703
1.023 1.03264 0.993882 0.996764
1.00392 1.0252 0.981642 0.997551
1.00227 1.00883 0.996199 0.997283
0.996891 1.00262 0.997051 0.997222
0.986471 1.0079 0.980554 0.998151
0.921521 0.975568 0.958549 0.985447
0.986628 1.00558 0.982241 0.998888
1.02324 1.04574 0.980421 0.998033
0.981245 1.00539 0.979882 0.996021
0.925131 0.969915 0.965695 0.98771
0.977495 1.02728 0.95378 0.997644
0.997203 1.01697 0.983669 0.996847
0.990085 1.04124 0.953054 0.997714
1.04282 1.06002 0.986295 0.997444
1.03805 1.07059 0.972103 0.997432
1.07257 1.09028 0.986156 0.997569
1.01335 1.06073 0.957535 0.997707
1.02603 1.06594 0.964944 0.997526
1.04371 1.07055 0.977557 0.99731
1.02763 1.05051 0.980514 0.997662
1.04013 1.05993 0.983876 0.997405
1.04395 1.0592 0.988378 0.997189
1.03805 1.05187 0.98929 0.997548
1.04398 1.05403 0.993225 0.99722
1.04888 1.05517 0.997073 0.996953
1.04259 1.04869 0.996896 0.99727
1.04766 1.05148 0.999414 0.996945
1.05097 1.05452 1 0.996633
1.04589 1.04912 1 0.996924
1.04727 1.05083 1 0.996616
1.04216 1.04577 1 0.99655
1.04529 1.04897 1 0.996497
1.03911 1.0427 1 0.99656
1.01735 1.02022 1 0.997187
0.999733 1.00095 1 0.998779
1.01533 1.01813 1 0.997253
1.03522 1.0388 1 0.996558
1 1 1 1
0.999189 1.00036 1 0.998826
1.01207 1.01473 1 0.997375
1 1 1 1
0.99896 1 1 0.99896
1 1 1 1
1.03797 1.0417 1 0.996424
1.02902 1.03267 1 0.996465
1.02283 1.02612 1 0.99679
1.01821 1.02152 1 0.996759
1.01328 1.01622 1 0.997099
1.00476 1.00663 1.00035 0.997804
1.00267 1.00473 1.00046 0.997483
1.00212 1.00149 1.00253 0.998095
1.00053 1 1.00115 0.999374
1.00488 1 1.00647 0.998423
1.00154 1 1.00193 0.999612
1 1 1 1
1.00025 1 1.00049 0.999759
1 1 1 1
1 1 1 1
1.00518 1.0395 0.968916 0.998007
0.975694 1.00952 0.969548 0.996848
0.921706 0.974931 0.957779 0.987081
1.03512 1.03848 1 0.996767
1.0225 1.02545 1 0.997123
1.05531 1.05886 0.999998 0.996651
1.04101 1.04461 1 0.996558
1.02635 1.02962 1.00018 0.996636
1.04614 1.05346 0.996387 0.996653
1.00592 1.01071 0.997929 0.997321
1.02213 1.02658 0.998842 0.996824
1.04202 1.06347 0.982845 0.996933
1.00533 1.01481 0.99351 0.997123
1.02351 1.03332 0.993778 0.996704
1.00509 1.02732 0.98073 0.997586
1.00287 1.00908 0.996599 0.997237
0.991523 1.00967 0.983615 0.998385
1.05819 1.0812 0.981064 0.997611
1.02568 1.04534 0.983101 0.998058
0.980006 1.0041 0.979783 0.996144
0.988446 1.04093 0.951618 0.997854
1.04129 1.06033 0.984544 0.997463
1.03348 1.06957 0.968718 0.997455
1.07414 1.09242 0.98567 0.997562
1.06134 1.08416 0.981464 0.997449
1.0313 1.06689 0.969035 0.997527
1.04445 1.06992 0.978816 0.99732
1.04531 1.06452 0.984695 0.997215
1.03984 1.059 0.984457 0.997404
1.04396 1.05899 0.988606 0.99717
1.04764 1.05768 0.993546 0.99694
1.04453 1.05457 0.993248 0.997217
1.04914 1.05541 0.997093 0.99695
1.05387 1.05767 0.99975 0.996651
1.04802 1.05182 0.999437 0.996944
1.05082 1.05437 1 0.996636
1.0462 1.04986 1 0.996514
1.04676 1.0503 1 0.99663
1.04219 1.04579 1 0.996556
1.01827 1.02122 1 0.997117
1.03901 1.0426 1 0.996558
1.01757 1.02044 1 0.997186
1.00051 1.00152 1 0.998989
0.999609 1 1 0.999609
0.999931 1.00106 1 0.998869
1.01523 1.01802 1 0.997252
1 1 1 1
0.999241 1.00043 1 0.998813
1 1 1 1
1.06097 1.06443 1 0.996742
1.04689 1.05051 1 0.996548
1.03888 1.0426 1 0.99643
1.03076 1.03423 1 0.996649
1.02901 1.03267 1 0.996457
1.02401 1.02731 1 0.996788
1.00977 1.01223 1 0.997562
1.01262 1.01556 1 0.997106
1.00346 1.00518 1.00047 0.997807
0.999226 1 1.00012 0.999104
1.00159 1.00067 1.00282 0.998097
1.00078 1 1.00138 0.999393
1 1 1 1
1.00102 1 1.00139 0.999629
1 1 1 1
1 1 1 1
1.05084 1.07961 0.975929 0.997358
1.00958 1.04573 0.967312 0.998058
0.972574 1.00962 0.96711 0.99607
1.05199 1.05699 0.998586 0.996679
1.0321 1.03539 1 0.996818
1.02367 1.02643 1 0.997317
1.05389 1.05741 0.999999 0.996667
1.04163 1.04524 1 0.996542
1.05359 1.0733 0.98467 0.996913
1.04272 1.05043 0.996041 0.996613
1.02204 1.02571 0.999656 0.996761
1.04032 1.06161 0.982962 0.99693
1.02699 1.03628 0.994366 0.996644
1.01027 1.03374 0.97961 0.997629
1.06156 1.08117 0.984282 0.997548
1.06139 1.08363 0.981788 0.997646
1.02725 1.04526 0.984657 0.998084
1.03045 1.06987 0.965592 0.997476
1.07669 1.09552 0.985218 0.997555
1.0614 1.08509 0.98066 0.997456
1.05175 1.06633 0.988987 0.997313
1.04516 1.06921 0.980122 0.99733
1.04568 1.06425 0.985308 0.997202
1.04892 1.05982 0.992724 0.996976
1.044 1.05881 0.988832 0.99715
1.04836 1.05839 0.993562 0.996938
1.05585 1.06045 0.999004 0.996662
1.04937 1.05563 0.997115 0.996946
1.0541 1.05791 0.999745 0.996652
1.0491 1.05281 1 0.99647
1.0507 1.05424 1 0.996639
1.04631 1.04996 1 0.996518
1.01947 1.02251 1 0.997025
1.0422 1.0458 1 0.996561
1.01892 1.02186 1 0.997117
1.00043 1.00143 1 0.999002
1.01782 1.02069 1 0.997185
1.00056 1.00157 1 0.998984
0.999633 1 1 0.999633
0.999813 1 1 0.999813
1.00033 1.00137 1 0.998967
1 1 1 1
1.05548 1.06018 0.998823 0.996743
1.05197 1.05554 1 0.996619
1.0598 1.06315 0.999979 0.996867
1.04127 1.04484 1 0.99659
1.04893 1.05258 1 0.996536
1.03975 1.04347 1 0.996436
1.03178 1.03525 1 0.996641
1.01484 1.01752 1 0.997362
1.02495 1.02826 1 0.996786
1.00798 1.01044 1 0.997563
0.999014 1.00012 1 0.998897
1.00198 1.00366 1.00052 0.99781
0.999508 1 1.00039 0.999123
1 1 1 1
1.00115 1 1.00174 0.999413
1 1 1 1
1 1 1 1
1.05233 1.0751 0.981526 0.997246
1.0478 1.07637 0.976041 0.997354
1.01229 1.04914 0.966711 0.998101
1.05338 1.06591 0.991385 0.996831
1.04912 1.05439 0.998318 0.996679
1.02946 1.03269 1 0.99687
1.05226 1.05576 1 0.996684
1.05206 1.07141 0.985003 0.996889
1.03924 1.04731 0.995706 0.996573
1.03416 1.05503 0.983248 0.996926
1.05584 1.07001 0.989352 0.997375
1.0599 1.0793 0.984475 0.997509
1.06439 1.08559 0.982749 0.997682
1.0504 1.06121 0.992583 0.997213
1.06087 1.08563 0.979675 0.997463
1.05166 1.06642 0.988832 0.997299
1.05087 1.06071 0.993621 0.997079
1.04607 1.06398 0.985945 0.997189
1.04905 1.05998 0.992684 0.996978
1.05611 1.06175 0.998002 0.996681
1.04904 1.05906 0.993581 0.996937
1.05543 1.06003 0.998988 0.996663
1.05017 1.05392 1 0.996441
1.05422 1.05804 0.99974 0.996653
1.04919 1.0529 1 0.996473
1.02035 1.02349 1 0.996936
1.04635 1.05 1 0.996522
1.02002 1.02306 1 0.997025
0.999833 1.00086 1 0.998976
1.01962 1.02257 1 0.997116
1.00029 1.0013 1 0.99899
0.999637 1 1 0.999637
1.00058 1.0016 1 0.998981
0.999641 1 1 0.999641
1 1 1 1
1.05383 1.06095 0.996632 0.996648
1.05443 1.05813 0.999929 0.996579
1.05719 1.06192 0.9988 0.996741
1.04763 1.05117 1 0.996623
1.05336 1.05691 0.999987 0.996654
1.05882 1.06205 0.999962 0.996991
1.01975 1.02261 1 0.997204
1.04102 1.04459 1 0.99658
1.05115 1.05482 1 0.996524
1.03277 1.03626 1 0.996633
1.01394 1.01662 1 0.997363
1.00013 1.00134 1 0.998796
1.0065 1.00896 1 0.997564
0.999104 1.00019 1 0.998912
1 1 1 1
0.999765 1 1.00062 0.999141
1 1 1 1
1 1 1 1
1.05038 1.06559 0.988574 0.997119
1.05229 1.07532 0.981297 0.997228
1.04716 1.0758 0.975961 0.99735
1.05279 1.06536 0.991325 0.996848
1.04592 1.05145 0.998051 0.996679
1.05161 1.07063 0.985326 0.996865
1.05221 1.06334 0.992294 0.997212
1.05608 1.07017 0.989435 0.997369
1.05835 1.07761 0.984615 0.997469
1.05083 1.06145 0.992737 0.997233
1.05015 1.0588 0.994784 0.997029
1.05157 1.06653 0.988656 0.997285
1.0511 1.06067 0.99392 0.997039
1.05554 1.06201 0.997132 0.996769
1.04919 1.06017 0.992642 0.99698
1.05569 1.06137 0.997955 0.996684
1.05033 1.0541 1 0.996425
1.05519 1.05983 0.998959 0.996664
1.05083 1.05458 1 0.996443
1.02059 1.02378 1 0.99688
1.04943 1.05314 1 0.996476
1.02058 1.02372 1 0.996938
0.999276 1.00036 1 0.998921
1.02064 1.02369 1 0.997026
0.999676 1.00072 1 0.998959
0.999615 1 1 0.999615
1.00013 1.00115 1 0.998982
0.999655 1 1 0.999655
0.999645 1 1 0.999645
1.05297 1.06261 0.994003 0.996906
1.05582 1.05995 0.999599 0.996497
1.0541 1.06224 0.995646 0.996676
1.05011 1.05373 1 0.996561
1.05362 1.0573 0.999956 0.996566
1.05887 1.06363 0.998778 0.99674
1.02229 1.02527 1 0.997099
1.04748 1.05106 1 0.996597
1.05453 1.05806 0.999971 0.99669
1.00114 1.00237 1 0.998772
1.01961 1.02247 1 0.997207
1.04106 1.04464 1 0.99657
1.01281 1.01548 1 0.997364
0.99972 1.00091 1 0.998807
1 1 1 1
0.998964 1.00004 1 0.998927
1 1 1 1
1 1 1 1
1.04913 1.06036 0.992281 0.997106
1.05069 1.06573 0.988742 0.997111
1.0517 1.07494 0.98112 0.99721
1.05225 1.06486 0.99126 0.996865
1.05065 1.05784 0.996202 0.996987
1.05234 1.06339 0.992366 0.997223
1.05636 1.07031 0.989575 0.997362
1.05128 1.0617 0.992915 0.997254
1.05027 1.05904 0.994665 0.997039
1.0558 1.0615 0.997871 0.996754
1.05139 1.06066 0.994247 0.996999
1.05582 1.06189 0.997557 0.996718
1.04997 1.054 0.999697 0.99648
1.05519 1.0609 0.997918 0.996686
1.05102 1.05479 1 0.996427
1.01972 1.02295 1 0.996838
1.05121 1.05496 1 0.996445
1.02038 1.02358 1 0.99688
0.998797 1.00013 1 0.998669
1.02084 1.02397 1 0.996939
0.999087 1.00028 1 0.998811
1 1 1 1
0.999494 1.00055 1 0.998943
0.999639 1 1 0.999639
0.999667 1 1 0.999667
1.05111 1.05918 0.995369 0.996999
1.05474 1.05998 0.998421 0.99663
1.05343 1.0623 0.994729 0.996897
1.05017 1.05393 1 0.996432
1.05477 1.05927 0.999243 0.99651
1.05441 1.06356 0.994672 0.996704
1.02189 1.02503 1 0.996932
1.05017 1.0538 1 0.996561
1.05286 1.05652 0.999981 0.996553
1.00065 1.00188 1 0.998776
1.02174 1.02475 1 0.99706
1.04721 1.05082 1 0.99657
1 1 1 1
1.00084 1.00206 1 0.998783
1.01902 1.02187 1 0.997209
0.999537 1.00072 1 0.99882
1 1 1 1
1 1 1 1
1.04924 1.05626 0.996352 0.996998
1.04947 1.0605 0.992466 0.997113
1.05093 1.06585 0.988867 0.997102
1.05572 1.06061 0.998692 0.996693
1.05007 1.05761 0.995864 0.996999
1.05247 1.06344 0.992434 0.997233
1.05034 1.05927 0.994498 0.997049
1.05543 1.06127 0.997741 0.996755
1.04903 1.05288 0.999809 0.996539
1.05601 1.06171 0.99795 0.996668
1.05026 1.05414 0.999841 0.996473
1.01836 1.02167 1 0.996758
1.05185 1.05562 1 0.996429
1.01935 1.02259 1 0.996839
0.998633 1 1 0.998633
1.02021 1.0234 1 0.996881
0.998693 1.00003 1 0.998667
1 1 1 1
0.998795 1.00011 1 0.998684
0.999799 1 1 0.999799
0.99966 1 1 0.99966
1.04968 1.05642 0.996652 0.996955
1.05548 1.05993 0.999098 0.996701
1.05095 1.05892 0.995455 0.997007
1.05011 1.05388 1 0.996425
1.05576 1.06064 0.998778 0.996614
1.05385 1.06198 0.995444 0.996887
1.02078 1.02402 1 0.996844
1.04985 1.05359 1 0.996449
1.05367 1.05854 0.998873 0.996523
0.999626 1.00087 1 0.998753
1.02162 1.02477 1 0.99692
1.05022 1.05385 1 0.996561
1 1 1 1
1.00088 1.00209 1 0.998785
1.02146 1.02451 1 0.997021
1 1 1 1
1.00071 1.00192 1 0.998795
1 1 1 1
1.05524 1.06003 0.998735 0.996738
1.04878 1.05579 0.996366 0.996983
1.04974 1.06056 0.992663 0.997119
1.04845 1.05224 0.999856 0.996535
1.05515 1.06035 0.998375 0.996714
1.0495 1.05737 0.995532 0.997012
1.0551 1.06104 0.997639 0.996756
1.0489 1.05285 0.999708 0.996539
1.01729 1.02061 1 0.996749
1.05058 1.0543 1 0.996467
1.01822 1.02151 1 0.99678
0.998589 1 1 0.998589
1.01892 1.02215 1 0.99684
0.998631 1 1 0.998631
1 1 1 1
0.998664 1 1 0.998664
1 1 1 1
0.999634 1 1 0.999634
1.0564 1.06092 0.999023 0.996715
1.0489 1.05618 0.996127 0.996977
1.04959 1.05331 1 0.996466
1.05606 1.06049 0.999114 0.9967
1.05084 1.05872 0.995528 0.997014
1.01919 1.02239 1 0.99687
1.04945 1.05322 1 0.996421
1.05681 1.06132 0.999152 0.996599
0.99887 1.00017 1 0.998701
1.02095 1.02417 1 0.996865
1.04949 1.05322 1 0.996466
1 1 1 1
0.999899 1.00114 1 0.998759
1.02143 1.0246 1 0.996907
1 1 1 1
1.00101 1.00222 1 0.998794
1 1 1 1
1.04847 1.05216 0.999928 0.996561
1.05516 1.05985 0.998844 0.996726
1.04835 1.05534 0.996392 0.996968
1.01662 1.01992 1 0.996763
1.0483 1.05217 0.999787 0.996535
1.05455 1.06008 0.998042 0.996736
1.04877 1.05283 0.999605 0.996539
1.01738 1.0207 1 0.996748
0.998565 1 1 0.998565
1.0181 1.02137 1 0.996802
0.998587 1 1 0.998587
1 1 1 1
0.998629 1 1 0.998629
1 1 1 1
1 1 1 1
1.0494 1.0531 1 0.996487
1.05611 1.06081 0.998801 0.99676
1.0481 1.0559 0.995599 0.996999
1.01822 1.02142 1 0.996872
1.04919 1.05291 1 0.996462
1.05663 1.06105 0.999136 0.996699
0.998653 1 1 0.998653
1.01969 1.02289 1 0.996868
1.04884 1.05261 1 0.996418
1 1 1 1
0.999106 1.0004 1 0.998704
1.02127 1.02446 1 0.996886
1 1 1 1
1.00011 1.00135 1 0.998765
1 1 1 1
1.01685 1.02008 1 0.996829
1.04823 1.05203 0.999855 0.996536
1.05509 1.05969 0.998939 0.996713
0.998583 1 1 0.998583
1.01677 1.02007 1 0.99676
1.04817 1.0521 0.999728 0.996536
1.01747 1.0208 1 0.996747
0.998565 1 1 0.998565
1 1 1 1
0.998584 1 1 0.998584
1 1 1 1
1 1 1 1
1.01746 1.02067 1 0.99686
1.04904 1.05275 0.999962 0.99651
1.05585 1.06071 0.998615 0.996804
0.998859 1 1 0.998859
1.01851 1.0217 1 0.99687
1.04876 1.05249 1 0.996459
1 1 1 1
0.998685 1.00003 1 0.998654
1.02004 1.02325 1 0.996865
1 1 1 1
0.999229 1.00052 1 0.998707
1 1 1 1
0.998572 1 1 0.998572
1.017 1.02025 1 0.996808
1.04802 1.05192 0.999785 0.996511
1 1 1 1
0.998582 1 1 0.998582
1.01691 1.02022 1 0.996758
0.998564 1 1 0.998564
1 1 1 1
1 1 1 1
0.998822 1 1 0.998822
1.01771 1.02091 1 0.99686
1.04863 1.05239 0.999893 0.996534
1 1 1 1
0.998631 1 1 0.998631
1.01881 1.02201 1 0.996869
1 1 1 1
0.998805 1.00015 1 0.998656
1 1 1 1
0.999587 1 1 0.999587
0.998708 1 1 0.998708
1.01712 1.0204 1 0.996786
1 1 1 1
0.998583 1 1 0.998583
1 1 1 1
0.999601 1 1 0.999601
0.998723 1 1 0.998723
1.01798 1.02119 1 0.99686
0.999798 1 1 0.999798
0.998632 1 1 0.998632
1 1 1 1
1 1 1 1
0.998605 1 1 0.998605
1 1 1 1
0.999799 1 1 0.999799
0.998622 1 1 0.998622
1 1 1 1
1 1 1 1
1 1 1 1

VECTORS lamdaE float
1.00158 1.00007 0.993455
1.00114 1.00078 0.996757
1.00108 1.00029 0.993774
1.00165 1.00005 0.993342
1.00164 0.999946 0.993489
1.00156 1.00031 0.993251
1.00291 1.00045 0.990397
1.00115 1.00073 0.996744
1.00103 1.00013 0.997282
1.00056 1.0009 0.997292
1.00095 1.00099 0.993368
1.00269 1.00123 0.989009
1.00113 0.999987 0.993986
1.00094 1 0.994059
1.00063 1.00053 0.994066
1.0013 1.00004 0.993697
1.001 1.00068 0.993534
1.00123 1 0.993825
1.00314 1.00028 0.99025
1.00116 1.00002 0.996935
1.00153 1.00009 0.993451
1.00167 0.999974 0.993411
1.003 1.00016 0.990562
1.00301 1.00019 0.990516
1.00156 1.00054 0.99293
1.00279 1.00092 0.990118
1.00525 1.00091 0.98579
1.00115 1.00069 0.996748
1.00126 1.00002 0.995434
1.0009 1.00063 0.995403
1.00104 1.00079 0.996799
1.00258 1.00139 0.989025
1.00155 0.999804 0.993508
1.00133 1.00016 0.993596
1.0033 1.00007 0.990822
1.00004 1.00107 0.997569
1.00311 1.00066 0.990654
1.00231 1.00192 0.988955
1.00476 1.00139 0.985413
1.00025 0.999661 0.997869
1.00117 0.999992 0.996926
1.00116 1.00002 0.995443
1.00108 0.999971 0.996988
1.00072 1.00006 0.994334
1.00283 0.999938 0.990162
1.00114 0.999953 0.997201
1.00329 1.00007 0.990883
1.00096 0.99996 0.994051
1.00085 1.00005 0.994147
1.00048 1.00107 0.993797
1.00336 1.0001 0.990118
1.00097 1.00004 0.995627
1.00116 1.00012 0.993801
1.00099 1.00104 0.993201
1.00132 0.999942 0.99376
1.00316 1.00012 0.990387
1.00308 1.00065 0.989981
1.0032 1.00008 0.990361
1.00524 1.00089 0.98582
1.00106 1 0.996984
1.00138 1.00007 0.993676
1.00257 0.999992 0.991889
1.00284 1.00017 0.990793
1.00304 1.00013 0.990534
1.0052 1.00024 0.986473
1.00523 1.00035 0.986259
1.00126 1.00054 0.993247
1.00236 1.00189 0.989826
1.00525 1.0012 0.98551
1.00528 1.00025 0.98563
1.00155 1.00004 0.996795
1.00094 1.0007 0.996973
1.00124 1.00053 0.996766
1.00251 1.00149 0.989033
1.00161 0.999923 0.996737
1.00143 1.00022 0.996814
1.00317 1.00001 0.989376
1.00031 1.00085 0.995793
1.00287 1.00069 0.989207
1.00217 1.00215 0.989892
1.00482 1.00124 0.9854
1.00054 1.00018 0.997456
1.00036 1.00222 0.992094
1.00333 0.999983 0.989222
1.00319 1.00013 0.989302
1.00525 1.0004 0.985635
1.00158 1.00261 0.991303
1.00508 1.00083 0.98539
1.00382 1.00276 0.985621
1.00533 1.00142 0.984305
1.00006 0.998819 0.998301
1.0001 0.999402 0.99805
1.00149 0.999992 0.99673
1.00122 0.99999 0.996904
1.00112 0.999977 0.996983
1.00099 1.00001 0.995626
1.00287 0.999928 0.990857
1.00133 0.999956 0.995353
1.0032 1.00011 0.99017
1.00109 0.999982 0.997003
1.00266 0.999831 0.990473
1.00307 1.00005 0.991236
1.00497 0.999297 0.987328
1.00333 1.00002 0.990795
1.00522 0.999644 0.986547
1.00111 0.999994 0.994023
1.00078 1.00013 0.994156
1.0004 1.00154 0.993469
1.00097 0.999892 0.994107
1.00331 1.00013 0.990212
1.00338 0.999995 0.990214
1.00334 1.00038 0.989852
1.00523 1.00087 0.985849
1.00111 0.999983 0.996994
1.00101 1.00008 0.994025
1.00275 0.999948 0.990735
1.003 1.00014 0.99061
1.00102 1.00097 0.994986
1.00274 1.00169 0.989876
1.0032 1.00007 0.990372
1.00521 1.00008 0.98665
1.00522 1.00119 0.985544
1.00524 1.00052 0.986142
1.00528 1.00025 0.985662
1.00265 0.999874 0.990481
1.00268 1.00006 0.991114
1.00488 0.999121 0.988161
1.00509 0.999707 0.987152
1.00521 1.00008 0.986573
1.00535 0.998542 0.987491
1.00058 1.00078 0.997215
1.0053 0.999532 0.986324
1.00176 1.00286 0.988746
1.00493 1.00153 0.98495
1.00528 1.00106 0.984896
1.00524 0.998198 0.987592
1.00094 1.00299 0.990196
1.00208 1.0045 0.98687
1.00162 0.999942 0.996757
1.00141 1.00026 0.996796
1.00319 0.999985 0.989362
1.00052 1.00052 0.997348
1.0018 1.00246 0.989169
1.00283 1.0007 0.989232
1.00495 1.00111 0.985389
1.00036 1.00014 0.997607
1.00027 1.00225 0.992114
1.00335 1.00001 0.990004
1.00322 1.00018 0.990027
1.00525 1.00041 0.985609
1.00117 1.0028 0.989978
1.00514 1.00081 0.985373
1.00406 1.00237 0.985604
1.00534 1.00133 0.984456
1.00076 1.00256 0.990934
1.00016 1.00147 0.9932
1.00174 1.00468 0.987747
1.00526 1.00017 0.985884
1.00522 1.00061 0.985444
1.00529 0.999346 0.986629
1.00317 1.00326 0.986178
1.00532 1.00049 0.985434
1.00514 1.00207 0.984003
1.00531 1.0004 0.985224
1 0.998328 0.998594
0.999987 0.998775 0.998425
1.00001 0.999272 0.998217
1.00067 1.00283 0.990876
1.00033 1.00056 0.99747
1.00162 0.999944 0.996716
1.00132 0.999997 0.996811
1.00302 1.00016 0.989525
1.00274 0.999929 0.990234
1.0011 0.999976 0.996969
1.00106 0.999976 0.997
1.00265 0.999843 0.990466
1.00298 1.00004 0.99053
1.00495 0.9993 0.987327
1.0032 1.00007 0.989314
1.00518 0.999684 0.986545
1.00261 0.999834 0.990544
1.00491 0.999177 0.987534
1.00506 0.999478 0.986976
1.00533 0.99662 0.989559
1.00526 0.999912 0.986183
1.00534 0.997454 0.988696
1.00107 0.999982 0.996993
1.00063 1.00014 0.994374
1.00278 0.999943 0.989728
1.00315 1.00015 0.990424
1.0003 1.00152 0.997171
1.00322 1.00131 0.989928
1.00337 1.00003 0.990211
1.00523 0.999909 0.986827
1.00524 1.00067 0.986021
1.00519 1.00119 0.985581
1.00529 1.00025 0.985696
1.00263 0.999867 0.990484
1.00283 1.00008 0.990931
1.00491 0.999097 0.987881
1.00512 0.999878 0.986989
1.00073 1.00081 0.997096
1.00203 1.00261 0.989625
1.00477 1.00186 0.985181
1.00523 1.00013 0.986529
1.00536 0.998174 0.987885
1.00529 1.00096 0.984981
1.0053 0.99967 0.986282
1.00524 0.998217 0.987608
1.001 1.0029 0.990179
1.00211 1.00442 0.986874
1.00487 0.999244 0.987526
1.00498 0.999438 0.987703
1.00533 0.997264 0.988913
1.00538 0.997309 0.988646
1.00533 0.998748 0.987176
1.00526 0.995923 0.990129
1.00127 1.00307 0.989456
1.00526 0.997106 0.988703
1.00414 1.00255 0.98515
1.00532 1.00166 0.984085
1.00523 0.999691 0.986261
1.00521 0.996449 0.989514
1.00293 1.00372 0.986062
1.00134 1.00506 0.987647
1.00378 1.00229 0.986241
1.00322 0.999993 0.989315
1.00016 0.999964 0.997778
1.00016 1.00233 0.992131
1.00307 1.00019 0.989347
1.00525 1.00042 0.985583
1.0011 1.00298 0.989905
1.00423 1.00197 0.985586
1.00516 1.0008 0.985354
1.00534 1.00122 0.984606
1.00071 1.00267 0.990944
1.00006 1.00147 0.993235
1.00141 1.00482 0.987711
1.00525 1.00019 0.985857
1.00523 1.00061 0.985423
1.00529 0.999348 0.986606
1.00328 1.00308 0.986191
1.00531 1.0006 0.985329
1.00527 1.00202 0.983959
1.00532 1.00014 0.985424
1.00011 1.00062 0.994052
1.00257 1.00389 0.986888
1.00106 1.0046 0.988761
1.00289 1.00282 0.987399
1.00529 0.998669 0.987361
1.0053 1.00002 0.985905
1.00523 0.997366 0.988482
1.00482 1.00209 0.984544
1.00524 0.998917 0.987038
1.00533 1.00134 0.984593
1.00533 0.999232 0.986407
1.00023 1.00213 0.992385
1.00028 0.999373 0.995013
1.00002 0.997823 0.998772
0.999972 0.998205 0.998663
0.999931 0.998636 0.998524
1.00024 1.00262 0.991763
1.00016 1.0002 0.997729
1.00073 1.00275 0.990839
1.00044 1.00061 0.997383
1.00318 1.00009 0.989316
1.0029 1.00002 0.989895
1.00514 0.999727 0.986543
1.00494 0.999309 0.987325
1.00266 0.999859 0.990465
1.00111 0.999965 0.996997
1.00263 0.999829 0.990547
1.00489 0.999188 0.987537
1.00506 0.999484 0.986974
1.00533 0.996637 0.989567
1.00524 0.99993 0.986159
1.00532 0.997437 0.988693
1.00487 0.999172 0.987587
1.00531 0.99646 0.989778
1.00536 0.996982 0.989158
1.00529 0.994936 0.991249
1.00529 0.998008 0.988096
1.00522 0.995274 0.990847
1.00263 0.999865 0.990494
1.003 1.00005 0.990749
1.00494 0.999054 0.987603
1.00515 1.00003 0.986826
1.00086 1.00086 0.996958
1.00238 1.00243 0.990295
1.00477 1.00212 0.985408
1.00524 1.00017 0.986486
1.00536 0.997806 0.988278
1.0053 0.999812 0.986242
1.0053 1.00085 0.985066
1.00524 0.998234 0.987624
1.00104 1.00284 0.990162
1.00216 1.00433 0.986878
1.00488 0.999046 0.987709
1.00501 0.999408 0.987676
1.00533 0.997097 0.989096
1.00538 0.997732 0.988244
1.00134 1.00301 0.989456
1.00406 1.00275 0.985178
1.00531 1.00178 0.983965
1.00532 0.998969 0.987015
1.00524 0.995671 0.990369
1.00524 0.999461 0.98649
1.00526 0.99713 0.988701
1.0052 0.996409 0.989437
1.00293 1.00384 0.986018
1.00364 1.00257 0.986079
1.00137 1.00492 0.98769
1.00532 0.997031 0.989191
1.00537 0.997301 0.988836
1.00525 0.995255 0.990971
1.00526 0.995095 0.990929
1.00526 0.996117 0.98967
1.00521 0.995009 0.990913
1.00349 1.00335 0.985523
1.00521 0.995405 0.990301
1.00528 1.00253 0.983397
1.00525 1.00075 0.984923
1.0052 0.998034 0.987856
1.00517 0.99588 0.990057
1.00084 1.00499 0.988356
1.00456 1.00248 0.98494
1.00293 1.00375 0.986175
1.005 1.00213 0.984896
1.00525 1.00021 0.985829
1.00002 1.00142 0.993268
1.00055 1.00287 0.990962
1.0011 1.00487 0.987674
1.00525 1.00059 0.985398
1.00529 0.999352 0.986583
1.00341 1.00282 0.98621
1.00531 1.00199 0.983915
1.00531 1.00071 0.985225
1.00531 0.999875 0.985623
1.0001 1.00057 0.994093
1.00248 1.00374 0.986923
1.00086 1.0047 0.988745
1.00277 1.00288 0.987406
1.00529 0.99867 0.987339
1.00529 1.00002 0.985881
1.00523 0.997354 0.98848
1.00492 1.00208 0.984537
1.00524 0.99909 0.986822
1.0053 1.00121 0.984571
1.00532 0.999091 0.98658
1.00021 0.999865 0.994667
1.00073 1.00387 0.990014
1.00383 1.00224 0.986139
1.00199 1.00423 0.987887
1.00374 1.00033 0.988446
1.00524 0.996528 0.989378
1.00523 0.99816 0.987629
1.00522 0.996146 0.989517
1.00504 1.00192 0.984369
1.00524 0.997886 0.987858
1.00509 1.00023 0.985749
1.00036 1.00236 0.99195
1.00034 1.00375 0.990611
1.00009 1.00197 0.992785
1.00019 1.00216 0.992382
1.00023 0.999108 0.995966
1.00026 0.999315 0.995411
1.0002 0.99742 0.997406
1.00002 0.997768 0.99881
0.999955 0.998111 0.99872
0.999909 1.00198 0.99296
0.999971 0.999712 0.998096
1.00034 1.00252 0.991753
1.00026 1.00027 0.997626
1.00079 1.00267 0.990805
1.00056 1.00064 0.997293
1.00523 0.999947 0.986139
1.00504 0.999482 0.986972
1.00531 0.997445 0.98869
1.00532 0.996652 0.989576
1.00487 0.999199 0.98754
1.00262 0.999817 0.990545
1.00486 0.999173 0.987591
1.00531 0.996467 0.989781
1.00534 0.996999 0.989167
1.00528 0.994933 0.991243
1.0053 0.998001 0.98808
1.00523 0.995269 0.99086
1.00531 0.996488 0.989764
1.00528 0.994959 0.991263
1.00524 0.995009 0.991164
1.00522 0.994961 0.991224
1.00524 0.995791 0.99022
1.00525 0.994897 0.990946
1.00489 0.998851 0.987894
1.00503 0.999397 0.98765
1.00533 0.996963 0.989279
1.00539 0.998156 0.987844
1.00143 1.00296 0.98946
1.00385 1.00309 0.98521
1.00532 1.00191 0.983846
1.00532 0.999183 0.986855
1.00523 0.995424 0.990609
1.00526 0.997155 0.9887
1.00524 0.99924 0.986718
1.0052 0.996349 0.98936
1.00294 1.00408 0.985971
1.00353 1.00272 0.985917
1.00137 1.00473 0.987732
1.00531 0.996838 0.989412
1.00536 0.997259 0.988849
1.00526 0.995114 0.991103
1.00525 0.995353 0.990704
1.00342 1.00353 0.985521
1.00526 1.00256 0.98344
1.00525 1.00092 0.984742
1.00526 0.9964 0.989394
1.00522 0.994964 0.99091
1.00521 0.997926 0.98783
1.00522 0.995428 0.990275
1.00518 0.995769 0.990101
1.00432 1.00277 0.984912
1.00489 1.00211 0.984661
1.001 1.00486 0.988371
1.00272 1.0037 0.9862
1.00526 0.994961 0.991324
1.00526 0.995377 0.990712
1.0052 0.994946 0.991297
1.00519 0.994909 0.991004
1.00524 0.994983 0.990713
1.00525 0.994916 0.990793
1.00515 1.00274 0.983639
1.0052 0.994988 0.990612
1.00523 1.0021 0.983684
1.00523 0.999917 0.985657
1.00519 0.997272 0.988364
1.00519 0.995906 0.989949
1.00058 1.00444 0.989385
1.00148 1.00511 0.986811
1.0051 1.00298 0.983457
1.00473 1.00311 0.985233
1.00499 1.00355 0.983264
1.00007 1.00048 0.994134
1.0053 0.998671 0.987316
1.00063 1.00481 0.988729
1.00237 1.00371 0.986957
1.00272 1.00282 0.98741
1.00529 1.00002 0.985858
1.00523 0.997341 0.988478
1.00518 1.00189 0.984528
1.00528 1.00114 0.984552
1.00523 0.999251 0.986608
1.00533 0.998967 0.986751
1.0002 0.999807 0.9947
1.0005 1.00402 0.990032
1.00406 1.00187 0.986216
1.0016 1.00436 0.987811
1.00368 1.00039 0.988045
1.00524 0.996501 0.989383
1.00523 0.998143 0.987627
1.00522 0.996096 0.989516
1.00507 1.00199 0.984288
1.00526 0.997972 0.987684
1.00514 1.00025 0.985881
1.00043 1.00304 0.991213
1.00109 1.00501 0.988706
1.00449 1.00161 0.985631
1.00263 1.00283 0.98792
1.00489 1.00039 0.987595
1.00528 0.995433 0.990221
1.00521 0.996901 0.988651
1.00523 0.995602 0.989728
1.00492 1.00125 0.984848
1.00509 0.998811 0.986808
1.00035 1.00237 0.991952
1.00044 1.00358 0.990399
1.00011 1.00394 0.990576
1.00052 1.00401 0.990348
1.00017 1.00374 0.990965
1.00001 1.00173 0.99312
1.00007 1.00195 0.992797
1.00019 0.998959 0.996162
1.00018 1.00219 0.992378
1.00025 0.999075 0.995995
1.00024 0.997168 0.997545
1.00025 0.999291 0.9958
1.00012 0.997461 0.998149
1.00002 0.997669 0.998842
0.999809 1.00081 0.994233
0.999979 1.00186 0.992953
0.999784 0.998979 0.998526
1.0001 0.999773 0.997944
1.00043 1.00239 0.991744
1.00036 1.00037 0.99753
1.00531 0.997992 0.988064
1.00532 0.996994 0.989176
1.00525 0.995253 0.990873
1.00528 0.994931 0.991236
1.00531 0.996473 0.989784
1.00486 0.999174 0.987596
1.00531 0.996491 0.989763
1.00528 0.99496 0.991269
1.00526 0.994994 0.991176
1.00523 0.994962 0.991194
1.00523 0.995757 0.990233
1.00525 0.994904 0.990947
1.00527 0.994959 0.991293
1.00523 0.994946 0.991295
1.00524 0.994948 0.991084
1.00528 0.994944 0.991102
1.00527 0.995016 0.990704
1.00532 0.994896 0.990817
1.00531 0.99664 0.989631
1.00536 0.997213 0.988861
1.00526 0.994954 0.991236
1.00523 0.995613 0.990479
1.00336 1.00362 0.985521
1.00522 1.00255 0.983481
1.00525 1.00103 0.984559
1.00526 0.996681 0.989117
1.00523 0.994908 0.990906
1.00523 0.995452 0.990249
1.00521 0.997825 0.987804
1.00519 0.995633 0.990151
1.00397 1.00325 0.984886
1.0049 1.00214 0.984429
1.00119 1.00475 0.988387
1.00261 1.00356 0.986227
1.00526 0.99496 0.991317
1.00526 0.995336 0.990766
1.00519 0.994946 0.991272
1.0052 0.994914 0.991017
1.00495 1.00294 0.983655
1.00522 1.00218 0.983584
1.00522 0.999907 0.98564
1.00524 0.99504 0.990649
1.00525 0.994918 0.99077
1.00518 0.997294 0.988365
1.00521 0.994961 0.990595
1.0052 0.995721 0.990058
1.00504 1.00302 0.983522
1.00494 1.00368 0.983066
1.00413 1.00278 0.985267
1.00057 1.00427 0.989439
1.00138 1.00512 0.986966
1.00522 0.99495 0.991251
1.00522 0.994941 0.991107
1.00527 0.994904 0.990714
1.00525 0.994898 0.990724
1.00516 1.00316 0.982978
1.00522 0.994995 0.990492
1.00512 1.00148 0.984039
1.00517 0.999314 0.986184
1.00515 0.996986 0.988557
0.999979 1.00356 0.99101
1.00105 1.00511 0.988199
1.00207 1.00505 0.986564
1.00499 1.00406 0.982664
1.00497 1.00301 0.984228
1.005 1.00321 0.982708
1.00018 0.999758 0.994732
1.00033 1.00418 0.990049
1.00523 0.996475 0.989388
1.00128 1.00451 0.987735
1.00423 1.00176 0.986298
1.0036 1.00064 0.987649
1.00522 0.998128 0.987625
1.00522 0.996048 0.989516
1.0052 1.00197 0.984207
1.00517 1.00029 0.986015
1.00527 0.998046 0.987509
1.00037 1.00306 0.99122
1.00071 1.00507 0.988716
1.0048 1.00145 0.985395
1.00246 1.00288 0.98792
1.00452 0.999655 0.987434
1.00526 0.995413 0.990243
1.00523 0.99692 0.988629
1.00524 0.995636 0.989707
1.00492 1.00129 0.98494
1.0051 0.998919 0.986798
1.00068 1.00434 0.989822
1.00042 1.00496 0.988587
1.00482 1.00183 0.984908
1.003 1.00117 0.987711
1.00502 1.00052 0.986831
1.00525 0.995006 0.990396
1.00526 0.996966 0.988332
1.00529 0.995908 0.989171
1.00493 1.00005 0.986128
1.00511 0.998995 0.986748
1.00034 1.00235 0.991954
1.00045 1.00371 0.990382
0.999993 1.00392 0.990707
0.99995 1.00405 0.99054
1.00003 1.00388 0.990957
1.00004 1.0043 0.990446
0.999921 1.00346 0.991651
0.999957 1.00442 0.990278
1 1.00354 0.991404
0.999998 1.00174 0.993151
1 1.00173 0.993124
1.0001 0.998895 0.996336
1.00003 1.00192 0.992807
1.0002 0.998931 0.996191
1.00022 0.99705 0.997665
1.00026 0.999035 0.996027
1.00021 0.997203 0.997544
1.00002 0.997483 0.998913
0.99983 0.999789 0.995216
0.99985 1.00085 0.994186
0.999732 0.998345 0.998824
1.0001 1.00174 0.992946
0.9999 0.999163 0.998368
1.00021 0.9999 0.997805
1.00523 0.995729 0.990246
1.00527 0.994982 0.991189
1.00526 0.99491 0.990948
1.00523 0.994963 0.991164
1.00527 0.99496 0.991276
1.00531 0.996496 0.989762
1.00527 0.994962 0.991309
1.00523 0.994946 0.991302
1.00523 0.994945 0.991105
1.00527 0.99494 0.991086
1.00527 0.995038 0.990729
1.00531 0.994896 0.990767
1.00523 0.994949 0.991295
1.00528 0.994934 0.991181
1.00529 0.994938 0.990946
1.00531 0.994869 0.990614
1.00527 0.99496 0.991309
1.00527 0.995302 0.99082
1.00519 0.994945 0.991246
1.0052 0.994919 0.99103
1.0048 1.00301 0.98367
1.00522 1.00229 0.983488
1.0052 0.999958 0.985623
1.00525 0.995104 0.990585
1.00524 0.99492 0.990746
1.00521 0.99494 0.990579
1.00516 0.997284 0.988362
1.0052 0.995591 0.990165
1.00477 1.00309 0.983585
1.00495 1.00375 0.982871
1.00353 1.00298 0.9853
1.00059 1.00405 0.989502
1.00142 1.00511 0.987123
1.00521 0.99495 0.991246
1.00522 0.994938 0.991129
1.00527 0.994911 0.990742
1.00514 1.00317 0.983034
1.00514 1.0017 0.98394
1.00516 0.999366 0.986182
1.00524 0.994901 0.990727
1.00517 0.996841 0.988791
1.00522 0.995034 0.990449
0.999949 1.00335 0.991247
1.00482 1.00397 0.982752
1.00479 1.0044 0.982392
1.00456 1.00324 0.984322
1.00224 1.00489 0.986611
1.00084 1.00511 0.988209
1.00527 0.994939 0.991142
1.0053 0.994904 0.990871
1.00528 0.994902 0.990617
1.00524 0.994867 0.990599
1.00509 1.00301 0.983168
1.00519 0.99529 0.990259
1.00505 1.00109 0.984683
1.00509 0.999357 0.986333
0.999961 1.00164 0.992894
1.00024 1.00489 0.989794
1.00159 1.00511 0.987933
1.00279 1.005 0.985121
1.00469 1.0044 0.983254
1.00494 1.00365 0.983019
1.0003 1.00313 0.991228
1.00026 1.00512 0.988727
1.00523 0.995392 0.990265
1.0023 1.00285 0.987917
1.00513 1.00128 0.985156
1.0039 0.999433 0.987265
1.00524 0.99694 0.988608
1.00524 0.995666 0.989685
1.00493 1.00139 0.985028
1.00514 0.99905 0.986787
1.00047 1.0044 0.98983
1.00089 1.005 0.988315
1.00483 1.0018 0.984878
1.00353 1.00109 0.987548
1.00481 1.00078 0.986426
1.00526 0.995045 0.990426
1.00526 0.996883 0.988541
1.00528 0.995943 0.989284
1.00489 1.00003 0.986214
1.00506 0.999203 0.98654
0.999612 1.00439 0.990075
1.00076 1.00395 0.988861
1.00479 1.00057 0.986153
1.0042 0.999972 0.987062
1.00534 0.994861 0.990363
1.00527 0.995546 0.989997
1.00525 0.998029 0.987107
1.00512 0.999265 0.986353
1.0006 1.00369 0.990364
1.00014 1.00391 0.990677
0.999286 1.00384 0.992707
0.999898 1.00406 0.99095
0.999513 1.00465 0.990545
0.999964 1.00357 0.991392
0.999596 1.00344 0.992036
0.999978 1.00463 0.990199
0.999747 1.00117 0.994169
0.999758 1.00443 0.990892
0.999835 1.00452 0.990356
1.00011 1.00334 0.991427
0.999969 1.00195 0.992918
0.999963 1.00173 0.993141
0.999989 0.99894 0.996459
0.999983 1.0017 0.99313
1.00011 0.998902 0.996355
1.00014 0.99708 0.997766
1.00021 0.998913 0.996222
1.00021 0.997075 0.997662
1.00017 0.997247 0.997535
0.999963 0.999035 0.995806
0.999834 0.999919 0.99515
0.999728 0.997855 0.998994
0.999858 1.00094 0.994137
0.999777 0.998447 0.998744
1.00004 0.999243 0.998195
1.00528 0.995057 0.990754
1.00522 0.994943 0.991126
1.0053 0.994897 0.990718
1.00527 0.994936 0.991071
1.00523 0.994945 0.991309
1.00527 0.994964 0.991325
1.00523 0.99495 0.991306
1.00527 0.994933 0.991177
1.00529 0.99493 0.990933
1.00531 0.994866 0.99063
1.00527 0.994937 0.991208
1.00528 0.994927 0.991082
1.00533 0.994886 0.99073
1.00521 0.994951 0.991241
1.00522 0.994936 0.991152
1.00527 0.994917 0.990769
1.00515 1.00315 0.983093
1.00513 1.00185 0.983838
1.00513 0.999279 0.986178
1.00524 0.994903 0.990729
1.00522 0.995059 0.990405
1.00521 0.996616 0.989018
1.00475 1.00384 0.982838
1.00501 1.00445 0.982094
1.00431 1.00318 0.984414
0.999987 1.00317 0.991491
1.00255 1.00464 0.986656
1.00055 1.00512 0.98821
1.00527 0.994941 0.991157
1.00529 0.994901 0.990838
1.00528 0.994898 0.990609
1.00503 1.00311 0.983195
1.00495 1.001 0.984594
1.00508 0.999076 0.98668
1.00524 0.99487 0.990567
1.00506 0.995379 0.990206
0.999968 1.00162 0.993113
1.00015 1.00488 0.989766
1.00473 1.00325 0.983128
1.00476 1.00372 0.983233
1.00331 1.00465 0.985249
1.00136 1.0051 0.98775
1.00529 0.994906 0.99108
1.00533 0.994854 0.990578
1.00528 0.994898 0.990551
1.00521 0.99489 0.990337
1.00449 1.00238 0.98408
1.00516 0.996954 0.988753
1.00496 1.00129 0.984785
1.00013 1.00073 0.99394
1.00024 1.00186 0.992752
0.999629 1.00352 0.991822
1.00065 1.00505 0.988886
1.00136 1.00509 0.98693
1.00385 1.00424 0.983696
1.00356 1.00417 0.984515
1.00383 1.00503 0.984528
1.00022 1.00453 0.989839
1.00125 1.00501 0.988041
1.00528 0.995085 0.990455
1.00407 1.00025 0.98739
1.00484 1.00174 0.984852
1.00476 1.00108 0.986033
1.00526 0.996774 0.988752
1.00527 0.995966 0.989399
1.0049 0.999955 0.9863
1.00502 0.999337 0.986333
1.00013 1.00416 0.989907
1.00102 1.00412 0.988559
1.00491 1.00057 0.985987
1.00466 1.00033 0.987007
1.00535 0.994843 0.990372
1.00529 0.99547 0.989938
1.0052 0.997987 0.987223
1.00516 0.999333 0.986332
0.999676 1.00434 0.990288
1.00537 0.994893 0.990381
1.00296 1.00328 0.988242
1.0048 0.999598 0.986818
1.00529 0.994923 0.990644
1.0052 0.997143 0.98708
1.00509 1.00044 0.985697
1.00026 1.00392 0.990648
0.999179 1.00364 0.992617
0.998353 1.00217 0.995791
0.999964 1.0035 0.99138
0.999991 1.00483 0.990118
0.998618 1.00411 0.992413
1.00012 1.00326 0.991419
0.999853 1.00457 0.990355
0.998828 1.00189 0.994565
0.999905 1.0044 0.990766
0.999259 0.999701 0.997234
0.99903 1.00284 0.993491
0.999706 1.00499 0.99017
1.00034 1.00441 0.989893
1.0002 1.00351 0.991032
0.999918 1.00227 0.992688
0.9999 1.0021 0.992897
0.999866 0.999142 0.996508
0.999924 1.00183 0.993131
1 0.998976 0.996458
1.00003 0.997179 0.997857
1.00012 0.998887 0.996378
1.00015 0.99708 0.997761
1.0002 0.997101 0.997652
1.00014 1.00069 0.994027
1.00003 0.99861 0.996126
0.999951 0.999125 0.995761
0.999802 0.997503 0.999086
0.999837 1.00003 0.995086
0.999761 0.997972 0.998954
0.999847 0.998598 0.998632
1.00531 0.994863 0.990646
1.00529 0.994921 0.99092
1.00527 0.994932 0.991174
1.00523 0.99495 0.991317
1.00527 0.994936 0.991212
1.00528 0.994925 0.991095
1.00531 0.994889 0.990694
1.00528 0.994917 0.991141
1.00534 0.994912 0.990922
1.00547 0.995107 0.991077
1.00527 0.994942 0.991171
1.00529 0.994895 0.990805
1.00529 0.994897 0.990601
1.00485 1.00324 0.983225
1.00497 1.00143 0.984528
1.00486 0.998924 0.987022
1.00523 0.994882 0.990535
1.00498 0.995511 0.990156
1.00438 1.00367 0.983005
1.00431 1.00434 0.983409
1.00321 1.00431 0.985377
0.999965 1.00153 0.99333
1.00011 1.0049 0.989736
1.00122 1.00507 0.987563
1.00529 0.994905 0.99106
1.00012 1.00073 0.993929
1.00016 1.00192 0.992607
1.00533 0.994865 0.990591
1.00527 0.994896 0.990564
1.00477 1.00261 0.98398
1.00472 1.00123 0.985015
1.00508 0.996712 0.988662
1.00522 0.994893 0.990293
0.999704 1.00345 0.991991
1.00065 1.00505 0.988837
1.00379 1.00402 0.984372
1.0037 1.00451 0.984028
1.00405 1.00448 0.983662
1.00154 1.00508 0.986875
1.00538 0.994863 0.990808
1.00533 0.99483 0.990478
1.00524 0.994861 0.990404
1.00519 0.994913 0.99036
1.0041 1.00221 0.985188
1.00454 1.00066 0.986522
1.00006 1.00239 0.992154
0.999948 1.00205 0.992914
1.00141 1.00055 0.992448
1.00055 1.00382 0.990015
1.00088 1.00511 0.988356
1.00249 1.00453 0.986315
1.00251 1.00514 0.984331
1.00256 1.00119 0.988403
1.00064 1.00399 0.989741
1.00137 1.00432 0.988252
1.00535 0.994826 0.99038
1.0053 0.995444 0.98988
1.0052 1.00082 0.986948
1.00497 1.0006 0.985814
1.00514 0.997961 0.987337
1.00519 0.999425 0.986313
1.00033 1.00397 0.990174
1.00538 0.994935 0.99061
1.00208 1.00341 0.988405
1.00496 0.999796 0.986596
1.0053 0.994925 0.990665
1.00519 0.997337 0.987278
1.00498 1.00029 0.985681
0.999545 1.00494 0.991157
1.00496 0.994811 0.990776
1.00242 1.00259 0.988211
1.0047 1.00125 0.985125
1.0051 0.995599 0.989919
1.00369 1.00099 0.986321
0.998776 0.995204 0.986134
0.99892 1.00364 0.992535
0.997814 1.00262 0.995819
0.998255 1.00162 0.996979
1.00002 1.00333 0.99141
0.999784 1.0047 0.990356
1.00036 1.00399 0.990645
0.998341 1.00217 0.994978
1.00012 1.00362 0.991034
1.00025 1.00438 0.989962
0.99933 0.999487 0.996996
0.999787 1.00494 0.990181
0.999442 1.00283 0.993029
0.998167 1.00125 0.997358
1.00043 1.00413 0.990165
1.00016 1.00488 0.989949
1.00072 1.00428 0.989611
1.00013 1.00397 0.990452
1.00034 1.00474 0.989983
1.00009 1.0042 0.990221
0.9999 1.00235 0.992613
0.999918 1.00228 0.99267
0.999741 0.999237 0.99596
0.999891 1.00209 0.992876
0.999852 0.999188 0.996184
0.999995 0.997336 0.999096
1.00001 0.999021 0.996459
1.00005 0.997157 0.997855
1.00017 0.997081 0.99775
1.00004 1.00057 0.994203
1.00015 1.00059 0.994058
1.00008 0.998358 0.996349
1.00003 0.998623 0.996406
0.999863 0.997226 0.999153
0.999931 0.999243 0.995715
0.999803 0.997576 0.999065
0.999793 0.997997 0.998917
1.00529 0.994892 0.990658
1.00528 0.994923 0.991108
1.00527 0.994935 0.991217
1.00528 0.994918 0.991141
1.00534 0.994912 0.990895
1.00546 0.995012 0.990839
1.00542 0.994879 0.990923
1.00134 0.994864 0.981623
1.00483 0.995021 0.992051
1.0001 1.0018 0.99289
1.00529 0.994905 0.991041
1.00532 0.994875 0.990604
1.00526 0.99489 0.990576
1.00482 1.00227 0.983857
1.00494 1.00078 0.985227
1.00491 0.996625 0.988567
1.00521 0.994885 0.99025
1.00431 1.00326 0.984276
1.00426 1.00415 0.98359
1.00391 1.00448 0.983628
1.00011 1.00075 0.993921
1.00207 1.00507 0.986818
0.999742 1.00339 0.992145
1.00064 1.00506 0.988785
1.00012 1.00192 0.992464
1.00537 0.994855 0.99081
1.00003 1.00238 0.992306
0.999935 1.0021 0.992932
1.00101 1.00064 0.992845
1.00534 0.994838 0.990449
1.00523 0.994867 0.99037
1.00332 1.00313 0.985283
1.0048 0.999389 0.987018
1.00518 0.994901 0.990293
1.00037 1.00383 0.99022
1.00113 1.00511 0.98818
1.0028 1.00254 0.987767
1.00307 1.00497 0.984085
1.00291 1.00391 0.986479
1.00535 0.994783 0.990968
1.00524 0.994793 0.990728
1.00517 0.994988 0.989912
1.00504 0.996864 0.990334
1.00183 1.00187 0.988995
0.999431 1.00355 0.991879
1.00134 1.001 0.991814
1.00002 1.0002 0.993174
1.00077 1.00437 0.990247
1.0005 1.00508 0.989147
1.00095 1.00421 0.988043
1.002 1.00012 0.990756
1.00122 1.00354 0.990056
1.00106 1.00351 0.988574
1.0054 0.994972 0.990831
1.00531 0.994884 0.990679
1.00518 0.99748 0.987475
1.005 0.999942 0.986373
1.00489 1.00013 0.98567
1 1.0047 0.991123
1.00468 0.994847 0.990983
1.00268 1.00241 0.988005
1.00478 1.00128 0.985034
1.00505 0.995495 0.990194
1.00399 1.00084 0.986399
0.998545 0.996303 0.984243
0.99869 1.00438 0.992423
1.00304 0.995887 0.991108
1.0033 1.00233 0.986127
1.00303 1.00105 0.987059
1.00341 0.997552 0.990709
0.999959 0.994876 0.943658
0.995197 0.994785 0.964875
0.995668 0.999334 0.988116
0.999218 0.994802 0.85921
0.99471 0.994846 0.820979
0.997422 1.00297 0.995839
0.997636 1.00183 0.997202
0.997617 1.00299 0.996842
1.00008 1.00366 0.991037
1.00026 1.00426 0.990031
0.999949 1.00484 0.990194
0.999693 1.00297 0.992548
0.999311 0.998937 0.99675
1.00007 1.00489 0.989994
1.00017 1.00395 0.990531
1.00063 1.00428 0.989638
0.998504 1.00037 0.996782
0.999984 1.00436 0.990536
1.00045 1.00459 0.990551
0.998702 1.00437 0.992441
1.00006 1.00471 0.990251
1.00054 1.00464 0.989111
1.00018 1.00406 0.990352
1.00029 1.005 0.989381
1.00037 1.00415 0.990627
0.99964 1.00495 0.99061
1.00017 1.00473 0.989963
1.00026 1.00391 0.990589
1.00014 1.0042 0.990219
0.99991 1.00237 0.99261
0.999911 1.00237 0.992617
0.999712 0.999301 0.995986
0.999882 1.00238 0.992653
0.999726 0.999281 0.995955
0.999944 0.997332 0.999128
0.999829 0.999248 0.995861
0.999966 0.997333 0.998488
1.00008 0.997137 0.99785
0.999916 1.0004 0.994539
1.00002 1.00062 0.994208
1.00009 0.998184 0.996538
1.00017 1.00048 0.994088
1.00008 0.998308 0.996635
0.999919 0.996936 0.99921
1.00005 0.998678 0.996072
0.999863 0.997359 0.999125
0.999814 0.997681 0.999045
1.00533 0.99491 0.990868
1.00528 0.994919 0.991142
1.00544 0.994916 0.990609
1.00068 0.994847 0.981786
1.00542 0.994878 0.990931
1.00465 0.994972 0.991875
1.00522 0.995904 0.991188
0.996182 0.994888 0.96445
1.00152 0.995325 0.98372
1.00015 1.00151 0.993166
1.00006 1.00197 0.992851
0.999365 1.00385 0.991906
0.999858 1.0024 0.992612
1.00537 0.994852 0.990812
1.00535 0.99485 0.990419
1.00522 0.994878 0.990336
1.00419 1.00357 0.985384
1.00467 0.997476 0.98754
1.00519 0.9949 0.990226
1.00242 1.00317 0.987095
1.00457 1.00485 0.983827
1.00313 1.00237 0.986632
0.999895 1.00218 0.992954
1.00102 1.00511 0.988018
1.00025 1.00392 0.990425
0.999931 1.00257 0.992456
1.00052 1.0009 0.993205
1.00536 0.994786 0.990972
0.999778 1.00351 0.991664
1.00145 1.00055 0.992062
0.998191 1.00121 0.995684
1.00525 0.994816 0.990643
1.00518 0.995055 0.989927
1.00314 1.0007 0.989001
1.0047 0.995916 0.990604
1.00084 1.00448 0.98958
1.00084 1.00478 0.988246
1.00172 1.00163 0.990681
1.00242 1.00352 0.987457
1.00429 0.995179 0.991566
1.00513 0.99503 0.991009
1.00504 0.995926 0.989651
1.00348 0.9964 0.993165
0.997893 1.00463 0.993363
1.00103 1.00154 0.991514
0.998113 1.0047 0.993165
0.999289 1.00455 0.991218
0.999988 0.994885 0.930198
1.00027 1.00455 0.991085
1.00271 1.00267 0.987791
1.0043 0.994892 0.991219
1.00505 0.995443 0.990464
1.00417 1.00072 0.986457
1.00464 1.0014 0.984935
0.998431 0.997058 0.982211
0.999114 1.00423 0.992546
1.00295 0.996154 0.991002
1.00325 1.00266 0.986142
1.00358 1.00098 0.987169
1.00378 0.997636 0.990456
0.999954 0.994865 0.930722
0.995565 0.994804 0.961438
0.995617 0.999896 0.988348
0.998121 0.994773 0.86404
0.994722 0.994843 0.811949
0.999241 1.00423 0.991689
0.999789 0.99482 0.870264
0.994722 0.994811 0.813139
1.00038 0.999534 0.992658
1.00156 1.00197 0.989545
1.00146 0.99951 0.992603
0.994909 0.998339 0.9909
0.997658 0.994822 0.942616
0.994895 0.994784 0.957419
0.996347 0.994838 0.882044
0.994731 0.994815 0.80324
0.997126 1.00211 0.997437
0.997396 1.00237 0.99671
0.99754 1.00455 0.995521
1.00024 1.00389 0.990607
1.00057 1.00426 0.989666
0.999596 1.00503 0.990039
0.999683 1.00462 0.990905
0.999044 0.999629 0.996214
1.00021 1.004 0.990356
1.00021 1.0046 0.990404
0.999934 1.00486 0.990077
1.0007 1.00461 0.989246
0.998629 1.00421 0.992735
0.999419 1.00447 0.991956
0.997438 1.00506 0.99353
1.00008 1.00506 0.989511
1.00051 1.0047 0.989457
1.00042 1.00496 0.989358
1.00016 1.00372 0.990924
1.00025 1.005 0.989802
0.9999 1.00372 0.991453
0.999122 1.00275 0.992248
0.999122 1.00497 0.991081
0.999514 1.00477 0.990684
0.999804 1.00469 0.990636
1.00009 1.004 0.990685
1.00003 1.00476 0.989944
1.00025 1.00392 0.990516
1 1.00235 0.992505
1.00019 1.00422 0.990216
0.999931 1.00232 0.992621
0.999905 0.999266 0.996423
0.999887 1.00238 0.99262
0.999761 0.99927 0.996244
0.999892 0.99731 0.997973
0.999714 0.999295 0.99595
0.999938 0.997348 0.999137
0.999956 0.997361 0.997877
1.00027 1.00148 0.992954
0.99992 1.00028 0.99468
0.999919 1.00044 0.994531
1.00005 0.99811 0.996647
1 1.00068 0.994212
1.00009 0.998148 0.996536
0.999964 0.99682 0.999244
1.00006 0.998309 0.996879
0.999921 0.997106 0.998635
0.999887 0.997419 0.997957
1.00018 0.994827 0.981927
1.00543 0.99488 0.990937
1.0045 0.995389 0.991686
0.996411 0.994848 0.964999
1.00166 0.995127 0.984097
1.00523 0.995542 0.991172
1.00346 0.99624 0.986452
0.997339 0.994848 0.967647
0.999984 0.994865 0.941892
0.997797 0.994812 0.883562
0.994658 0.994806 0.819661
0.999683 1.00248 0.992642
1.00017 1.00146 0.993153
1.00016 1.00187 0.992811
0.999718 1.00325 0.992066
0.999043 1.0042 0.992485
1.00053 1.00206 0.991898
1.00022 1.00291 0.99188
1.00012 1.00217 0.992484
1.00537 0.994789 0.990968
1.00527 0.994835 0.990562
1.00519 0.995079 0.989938
1.00309 1.00101 0.989003
1.00454 0.995492 0.990872
1.00144 1.00234 0.990587
1.00384 1.00377 0.98688
1.0017 1.00501 0.987353
1.00145 1.00019 0.992301
1.00095 1.00458 0.988876
1.00036 1.00313 0.991464
0.997052 1.0018 0.99816
1.00427 0.994841 0.991845
0.998352 1.0043 0.993254
1.00079 1.00182 0.992154
1.00486 0.994931 0.99098
1.00468 0.995857 0.990021
1.00274 0.996621 0.992844
0.999493 1.00508 0.991394
1.00046 1.00322 0.991453
1.00331 0.994891 0.991171
1.00385 0.998602 0.990536
1.00454 0.995501 0.991278
1.00087 0.997851 0.99414
0.999378 1.00483 0.99092
0.998707 1.00454 0.992351
0.99947 1.00493 0.99195
0.999787 0.994916 0.872784
1.00025 0.994863 0.944252
0.999898 1.00372 0.992675
1.00342 1.00285 0.986168
1.00287 0.996759 0.990892
1.00409 0.997734 0.990217
1.00406 1.001 0.987303
0.999988 0.994858 0.941957
0.995853 0.994801 0.960933
0.995615 1.00011 0.988614
0.997585 0.99483 0.882021
0.994738 0.994828 0.802395
0.999543 1.0042 0.991647
0.999813 0.994851 0.869345
0.994689 0.994796 0.806363
1.00045 0.999469 0.992609
1.00157 1.00214 0.98955
1.00136 0.999668 0.993012
0.994897 0.999422 0.991657
0.998445 0.995093 0.936332
0.994903 0.994799 0.958741
0.995824 0.995095 0.881748
0.994748 0.994811 0.801612
0.998441 1.00418 0.994407
0.994719 0.994801 0.8036
0.994746 0.994776 0.812214
0.996936 1.002 0.996931
0.99985 1.00176 0.994804
0.994894 0.999385 0.988713
0.995032 0.994884 0.960285
0.995347 0.994784 0.93136
0.994759 0.995537 0.886437
0.994832 0.994845 0.808546
0.997452 1.00181 0.996586
0.998017 1.00386 0.995254
0.996784 1.00396 0.99584
1.00025 1.00395 0.990361
1.00082 1.00445 0.989381
0.999985 1.00496 0.9899
0.999907 1.00463 0.990259
0.998201 1.0041 0.993031
1.0005 1.00474 0.989442
0.999495 1.00419 0.991584
1.00031 1.00499 0.989529
0.997051 1.00497 0.993882
0.995974 1.00522 0.996419
0.998774 1.00491 0.992043
1.00055 1.00506 0.9894
1.00055 1.00477 0.989335
1.00002 1.00337 0.991214
1.00015 1.00495 0.989744
1.00003 1.00355 0.991361
0.998903 1.00316 0.992926
0.998956 1.00468 0.991497
0.998618 1.0051 0.991695
0.998556 1.00317 0.993673
1.00027 1.00173 0.992894
1.00273 0.999382 0.990932
0.999094 1.00483 0.991067
0.999354 1.00482 0.991122
0.999553 1.00501 0.990068
0.999559 1.00495 0.990691
1.00006 1.0041 0.990581
0.999761 1.00471 0.99066
1.00013 1.00398 0.990718
1.00002 1.00243 0.992307
1.00026 1.00399 0.990443
0.999977 1.00236 0.99252
1.00004 0.999225 0.996224
0.999924 1.00232 0.992633
0.999883 0.999235 0.996075
1 0.997252 0.997825
0.999756 0.999252 0.995954
0.99995 0.9973 0.999147
0.999934 0.997345 0.999146
1.00034 1.00188 0.99279
0.999953 1.00043 0.994508
1.00015 1.00168 0.992966
1.00005 0.998069 0.996687
0.99991 1.00029 0.994678
0.999915 1.00049 0.994523
1.00006 0.998109 0.996636
0.999992 0.996732 0.999258
1.00007 0.998166 0.997033
0.999974 0.99682 0.998714
0.999938 0.99712 0.998117
0.999807 0.994824 0.857166
0.994694 0.994775 0.803502
0.996471 0.99485 0.96543
1.00138 0.994903 0.984577
1.00526 0.994792 0.991168
0.997004 0.995097 0.967126
1.00351 0.995334 0.986979
1.00071 0.994874 0.938328
0.998286 0.994773 0.864428
0.994704 0.994823 0.810895
0.99785 0.994805 0.973414
0.998367 0.994857 0.942408
0.996568 0.994852 0.882107
0.994765 0.994824 0.810096
1.00004 1.00337 0.991748
0.999824 1.00226 0.992762
1.0001 1.00159 0.993143
0.999859 1.00297 0.992226
0.998875 1.0041 0.992822
1.00029 1.00349 0.990819
1.00025 1.00283 0.991757
1.00055 1.00341 0.99045
1.00017 1.00292 0.991763
0.999974 1.00251 0.992349
1.00408 0.994762 0.99211
1.00471 0.994856 0.99095
1.00428 0.995849 0.990392
1.00225 0.997164 0.992518
1.00095 1.00281 0.991686
0.999573 1.00513 0.989653
1.00026 1.0022 0.992883
0.998504 1.00417 0.993129
1.00243 0.994972 0.991623
0.999457 1.00496 0.990694
0.998413 1.0049 0.992177
1.00354 0.997626 0.990697
1.00423 0.995547 0.991541
1.00109 0.99801 0.994393
0.999256 1.00491 0.991615
1.0002 0.995289 0.990329
1.00122 0.998747 0.993805
0.998741 1.00159 0.995188
0.998821 1.00456 0.990354
0.998525 1.005 0.991176
0.998763 1.00483 0.992244
0.994722 0.994838 0.826853
0.999786 0.99488 0.878052
0.999999 0.994879 0.930573
0.999396 1.00406 0.991584
1.00181 1.00237 0.989527
1.00052 0.999222 0.992554
1.00117 0.999784 0.993425
0.999818 0.994878 0.882045
0.997944 0.994831 0.930954
0.994845 0.994819 0.957498
0.994883 1.00069 0.992308
0.996705 0.994836 0.866696
0.994663 0.99479 0.812051
0.994779 0.994823 0.816135
0.998293 1.00356 0.994116
0.994707 0.99481 0.813567
0.994767 0.994779 0.811631
0.997097 1.00043 0.997555
0.999398 1.00171 0.994692
0.994881 0.998237 0.991083
0.995429 0.994843 0.959123
0.996344 0.996358 0.942565
0.994722 0.997267 0.869225
0.994959 0.99484 0.818844
0.996959 1.00375 0.996949
0.99478 0.994827 0.820483
0.994812 0.994796 0.808906
0.994983 1.00221 1.00011
0.995262 0.99697 0.967963
0.994823 0.997656 0.94135
0.995091 0.995558 0.861746
0.995294 0.994876 0.827337
0.998448 1.00275 0.994947
0.997128 1.00424 0.995996
0.995651 1.00421 0.998086
1.00038 1.00478 0.989425
1.00043 1.00505 0.989549
0.999641 1.00386 0.991211
0.996856 1.00483 0.994236
1.00023 1.00507 0.98941
0.998722 1.00494 0.992012
0.995736 1.0052 0.99675
0.995009 1.00506 0.998261
0.995867 1.00516 0.996737
0.999348 1.00509 0.991369
1.00018 1.00501 0.989683
1.0001 1.00318 0.991266
0.998552 1.00343 0.993586
0.998645 1.0051 0.991787
0.999196 1.00464 0.991504
0.998524 1.0034 0.993774
0.99869 1.00447 0.992488
0.996105 1.00502 0.99631
1.00207 0.997425 0.994034
0.999871 1.0014 0.99353
1.00123 1.00076 0.991702
1.00479 1.0003 0.98702
1.00188 1.00158 0.990886
1.0015 0.999107 0.992908
0.999632 1.00459 0.990794
0.999745 1.00512 0.989554
0.999637 1.00461 0.991164
0.999884 1.00505 0.99007
1.00014 1.00458 0.989968
0.999954 1.00481 0.990696
1.00029 1.00389 0.990568
1.00011 1.00259 0.992069
1.00033 1.00368 0.990753
1.0001 1.00241 0.992315
1.00015 0.999273 0.995997
1.00001 1.00231 0.992535
1.00002 0.999236 0.995843
1.00009 0.997285 0.997678
0.99989 0.99921 0.995779
0.999993 0.997255 0.998483
0.999963 0.99727 0.999128
1.00026 1.00248 0.991933
1.0001 1.00055 0.994205
1.00023 1.00192 0.992611
1.00005 0.998123 0.996634
0.99997 1.00038 0.994516
1.00014 1.00166 0.992978
1.00002 0.996692 0.999267
1.00004 0.998071 0.996688
0.99991 1.00032 0.994677
1.00007 0.998097 0.996626
0.999992 0.996771 0.999255
0.99996 0.996816 0.99924
0.994689 0.994773 0.806607
0.999777 0.99484 0.869285
0.994753 0.994768 0.809409
0.994711 0.994773 0.80279
0.997103 0.994882 0.965258
1.0034 0.994815 0.987511
0.999876 0.994847 0.934064
0.999075 0.994812 0.883396
0.994746 0.994832 0.801876
0.998449 0.994845 0.972487
0.999077 0.99571 0.928421
0.996012 0.995841 0.880512
0.99472 0.994817 0.802755
0.995164 0.994813 0.965158
0.996229 0.995986 0.929868
0.994845 0.997402 0.861649
0.994824 0.994872 0.807637
1.00079 1.00447 0.990386
0.999697 1.00334 0.991852
1.00001 1.00196 0.992879
0.998574 1.00376 0.993165
1.0009 1.00367 0.989569
1.00022 1.00339 0.99102
0.999817 1.00329 0.991623
1.00105 1.00289 0.990493
1.00063 1.00352 0.990542
1.00023 1.00271 0.991647
1.00206 0.99478 0.992067
1.00332 0.996896 0.990867
1.00377 0.995623 0.991806
1.00088 0.997258 0.994664
1.00033 1.00489 0.991261
0.998818 1.0051 0.992013
0.999553 1.00502 0.990465
1.00011 1.00465 0.990084
0.999867 0.995626 0.990828
0.999446 1.00501 0.990883
0.999486 1.00473 0.992088
1.00111 0.99845 0.994417
0.999663 1.00043 0.99501
0.996466 0.999749 0.990098
0.996798 0.999195 1.00043
0.996717 1.0036 0.995865
0.999245 1.00451 0.991614
0.997745 1.005 0.99361
0.994808 0.994814 0.826593
0.994715 0.994818 0.822769
0.999798 0.994891 0.860857
0.99831 1.00319 0.993886
0.999104 1.00139 0.994575
0.997304 0.999775 0.998179
0.994681 0.994794 0.812052
0.996381 0.995881 0.931107
0.995526 0.994875 0.95872
0.994859 0.996467 0.993763
0.99479 0.997005 0.887808
0.994775 0.994782 0.811722
0.995134 0.994846 0.820082
0.997349 1.00368 0.996815
0.994789 0.994826 0.823333
0.994803 0.994796 0.80981
0.995206 1.00147 0.999193
0.995241 0.996105 0.969905
0.994817 0.99596 0.92974
0.995124 0.994866 0.823338
0.995039 0.998672 0.870123
0.994926 1.00466 1.00013
0.994795 0.994827 0.814683
0.994869 0.994831 0.817809
0.994818 0.994858 0.808064
0.994792 0.998709 0.990132
0.994871 0.998307 0.944727
0.997421 0.996524 0.878549
0.997573 1.00482 0.996177
0.995782 1.00473 0.997863
0.995211 1.00473 0.999196
1.00016 1.00507 0.98942
0.998723 1.005 0.991977
0.995548 1.0052 0.997073
0.998982 1.0051 0.99137
0.995995 1.00517 0.996739
0.995206 1.00488 0.998216
0.994929 1.00519 0.998445
0.995628 1.00508 0.997046
0.998523 1.00506 0.991895
0.999391 1.00469 0.99151
0.998551 1.00392 0.993902
0.996352 1.00495 0.996182
0.998659 1.00462 0.992378
0.99901 1.00177 0.99478
0.999464 0.997728 0.997744
1.0023 0.999944 0.989714
0.999486 1.00109 0.994117
1.00179 1.00074 0.991237
1.00439 1.0018 0.985905
1.00492 1.00253 0.984137
1.00375 0.999095 0.989949
1.00393 1.00028 0.987436
1.00087 1.00511 0.98868
1.00108 1.00201 0.991306
1.00026 0.998908 0.994858
1.00018 1.00442 0.990524
0.999943 1.00512 0.989597
1.00027 1.00504 0.989194
1.00021 1.00506 0.990074
1.0003 1.00444 0.989978
1.00015 1.003 0.991521
1.0004 1.00381 0.990554
1.00015 1.00251 0.992062
1.00018 0.999369 0.995846
1.00012 1.00238 0.992321
1.00013 0.999298 0.99561
1.00018 0.997317 0.99751
1.00002 0.999258 0.995519
1.00008 0.997269 0.998377
1.00003 0.997236 0.999069
1.00059 1.00266 0.991078
1.00013 1.00089 0.993507
1.0004 1.00234 0.991926
1.00011 0.99817 0.99648
1.00007 1.00057 0.994053
1.00016 1.00198 0.992435
1.00004 0.996707 0.999252
1.00006 0.998091 0.996644
0.999984 1.00031 0.994524
1.00002 0.996712 0.999265
1.00003 0.998088 0.996689
0.999993 0.996746 0.999253
0.99482 0.99482 0.816941
0.994697 0.994808 0.819527
0.999792 0.994812 0.868284
1.00114 1.00257 0.990529
0.994818 0.994797 0.815589
0.994755 0.994769 0.809372
0.994744 0.99478 0.815604
0.999024 0.994864 0.971676
0.997911 0.99483 0.941529
0.996249 0.994855 0.864253
0.994691 0.994822 0.81174
0.996351 0.994832 0.962697
0.996398 0.997487 0.940997
0.994743 0.996432 0.865002
0.994839 0.994857 0.811621
0.994812 0.994901 0.957021
0.994808 0.995635 0.939213
0.99543 0.999865 0.873558
0.99512 0.994888 0.827398
0.999569 1.00469 0.990729
1.00019 1.00429 0.990346
0.999874 1.00332 0.991956
1.00073 1.00293 0.990646
1.00068 1.00407 0.989813
1.00017 1.0037 0.991218
1.00105 1.00303 0.990447
1.00062 1.00356 0.990627
0.998703 0.99722 0.99117
1.00062 0.998061 0.994948
1.00031 1.00476 0.98981
1.00066 0.999669 0.994841
0.999679 1.00463 0.991936
0.999942 1.00505 0.990596
0.999053 1.00444 0.991627
0.995989 0.999143 0.990751
0.998151 1.00488 0.993671
0.997545 1.00304 0.996141
0.996216 1.00014 1.00057
0.998675 1.00434 0.992928
0.994805 1.00117 0.987582
0.995458 1.00273 0.998736
0.996046 1.00478 0.99694
0.997444 1.00527 0.994762
0.99478 0.994809 0.820165
0.994812 0.994816 0.824143
0.994704 0.994803 0.818577
0.997613 1.00375 0.996656
0.995432 1.00049 0.998258
0.994805 0.994826 0.825998
0.994777 0.997179 0.942102
0.995649 0.996068 0.967188
0.995069 0.998025 0.868452
0.994805 0.994796 0.810501
0.99489 0.994861 0.819346
0.995348 1.00446 0.999779
0.994797 0.994825 0.814758
0.994868 0.99484 0.818676
0.994792 0.999358 0.993869
0.994832 0.994847 0.811834
0.99485 0.996359 0.93697
0.996057 0.997444 0.880654
0.994808 1.00325 0.998485
0.994837 0.994842 0.821491
0.994803 0.994804 0.816774
0.994758 0.994819 0.810248
0.995728 0.999868 0.872359
0.99486 1.00094 0.974597
0.995528 0.997674 0.930049
0.99608 1.00502 0.997653
0.995078 1.00509 0.999179
0.994893 1.0052 0.998427
0.99852 1.00513 0.99137
0.995779 1.0052 0.996747
0.994987 1.00522 0.998178
0.995668 1.00498 0.996977
0.994952 1.00518 0.99847
0.997667 1.00228 0.997748
0.996504 1.0049 0.996037
0.998578 1.00468 0.992284
0.998758 1.002 0.995454
0.998733 1.00144 0.993305
0.997007 0.998004 1.00128
1.00199 0.999704 0.990997
1.00431 1.00446 0.982493
1.00456 1.00297 0.983861
1.00232 1.00066 0.99072
1.00428 1.00214 0.985235
1.00509 1.0023 0.984002
1.005 0.999939 0.986589
1.00464 1.00225 0.984491
1.00193 1.0028 0.988838
1.00329 0.999761 0.989696
1.00311 1.00021 0.987877
1.00047 1.00513 0.98852
1.00039 1.00504 0.98894
1.00034 1.00231 0.991717
1.00006 1.00511 0.989639
1.00043 1.005 0.989214
1.00022 1.004 0.990488
1.00044 1.00447 0.989988
1.0002 1.00305 0.991503
1.00015 0.99959 0.994946
1.00025 1.00249 0.992057
1.00021 0.999374 0.995104
1.0001 0.997326 0.998924
1.00013 0.99935 0.995267
1.00014 0.997309 0.998251
1.00009 0.997259 0.998997
1.00053 1.00279 0.991011
1.00029 1.00132 0.992849
1.00053 1.00271 0.991231
1.00018 0.998319 0.996236
1.00021 1.00086 0.993432
1.00045 1.00232 0.991915
1.00008 0.996697 0.999217
1.00012 0.998146 0.996494
1.00008 1.00056 0.993901
1.00004 0.996691 0.999258
1.00007 0.998056 0.996655
1.00001 0.996753 0.999263
0.994797 0.994829 0.821808
0.994817 0.994819 0.81724
0.99469 0.994825 0.819377
1.00104 1.00259 0.990694
1.00067 1.00296 0.990549
1.00118 1.00183 0.991436
0.994876 0.994835 0.816898
0.994816 0.994795 0.816341
0.994755 0.99476 0.809427
0.996741 0.994829 0.963345
0.995749 0.994776 0.929193
0.994793 0.99817 0.886389
0.994826 0.994839 0.806019
0.994979 0.995023 0.959504
0.994907 0.99736 0.935315
0.995379 0.997473 0.870119
0.995111 0.994877 0.823115
0.995781 0.995176 0.956523
0.994862 0.997223 0.939839
0.99642 0.996409 0.879778
0.994838 0.99484 0.809581
0.999733 1.00286 0.992186
1.00021 1.00401 0.990543
1.00027 1.00391 0.990303
1.0009 1.00281 0.990588
1.00036 1.00432 0.990059
1.00101 1.00322 0.990402
0.99599 0.997844 0.99154
0.996062 1.00103 1.00085
0.999504 1.00369 0.991638
0.998622 1.00232 0.996323
0.998483 1.00457 0.993724
0.998075 1.00407 0.993552
0.997002 1.00498 0.994965
0.994801 1.00169 0.987427
0.995758 1.00508 0.99734
0.995642 1.00316 0.998069
0.996988 1.00511 0.994887
0.994903 1.00267 0.984807
0.995498 1.00497 0.995289
0.995142 1.00425 0.998708
0.994847 0.994835 0.819403
0.994783 0.994818 0.819428
0.994816 0.994813 0.821733
0.995761 1.00379 0.99939
0.994796 0.999636 0.989739
0.994794 0.994824 0.814845
0.994831 0.997636 0.936552
0.99672 0.996531 0.865492
0.994868 0.994841 0.819521
0.994826 0.994832 0.806586
0.994792 1.00309 0.998959
0.994827 0.994843 0.8217
0.99482 0.994804 0.81758
0.994871 0.99973 0.972052
0.994718 0.994814 0.803322
0.995811 0.999319 0.867522
0.994894 0.995571 0.943567
0.994868 1.00517 0.990478
0.99479 0.994839 0.822158
0.994774 0.994784 0.810711
0.994671 0.994812 0.821126
0.994803 0.997394 0.86074
0.994855 0.998606 0.938547
0.994873 1.00117 0.966413
0.99507 1.00506 0.999128
0.994926 1.00518 0.99836
0.996132 1.00402 0.997521
0.995898 1.00479 0.996913
0.994977 1.00508 0.998494
0.996317 1.00389 0.997759
0.999309 0.999148 0.997851
0.998464 1.00239 0.996115
1.00111 1.00114 0.992356
1.00222 1.00487 0.985786
1.00148 0.999507 0.992526
1.00422 1.00427 0.983297
1.00429 1.0048 0.982244
1.00501 1.0015 0.984185
1.00503 1.00188 0.984298
1.00455 1.00307 0.983727
1.00444 1.00243 0.984583
1.00509 1.00155 0.984772
1.0051 1.00219 0.984073
1.00401 1.00047 0.987641
1.00464 1.00007 0.986927
1.0043 1.00201 0.984844
1.00086 1.00505 0.987951
1.00191 1.00313 0.98877
1.00268 1.00059 0.989435
1.00044 1.00463 0.989505
1.00079 1.00511 0.988521
1.00012 1.005 0.989201
1.00063 1.00494 0.989236
1.00035 1.00381 0.990496
1.00007 1.0002 0.99443
1.00033 1.00292 0.991486
1.00017 0.999632 0.99492
1.00012 0.997458 0.998885
1.00022 0.999384 0.995103
1.00017 0.997349 0.998183
1.00014 0.997313 0.998934
1.00073 1.00315 0.99069
1.00041 1.0016 0.992587
1.00067 1.00264 0.991068
1.00026 0.998548 0.995874
1.00029 1.00132 0.992934
1.00054 1.00268 0.991386
1.00011 0.99676 0.999162
1.00019 0.998265 0.996255
1.00026 1.00082 0.993358
1.00008 0.996715 0.999228
1.00012 0.998121 0.996509
1.00004 0.996707 0.999264
0.994834 0.994838 0.82057
0.9948 0.994843 0.8219
0.994813 0.994828 0.817577
1.00008 1.00462 0.989775
1.00101 1.00421 0.990185
1.00086 1.00271 0.990864
1.00057 1.00331 0.990439
1.00066 1.002 0.991636
1.00025 1.00289 0.991386
1.00003 1.00174 0.992836
0.994832 0.994806 0.809454
0.994878 0.994844 0.817874
0.99481 0.994817 0.817109
0.994895 0.994871 0.818899
0.995218 0.995041 0.957333
0.994833 0.998546 0.930108
0.995425 0.995396 0.884149
0.995293 0.995046 0.955714
0.994857 0.998466 0.92723
0.995545 0.997535 0.881149
0.994895 0.994835 0.819662
0.996062 0.996522 0.959855
0.994942 0.999072 0.928739
0.995026 0.996044 0.862231
0.994735 0.994813 0.804261
0.997685 1.00465 0.994176
0.999459 1.0034 0.992523
1.00029 1.00422 0.990358
1.00095 1.00303 0.990537
0.9948 1.00165 0.987437
0.99571 1.00367 0.997255
0.997681 1.00484 0.994176
0.996953 1.0049 0.995174
0.995543 1.00515 0.997828
0.996821 1.00506 0.99504
0.995352 1.00435 0.998734
0.995577 1.00237 0.981476
0.995142 1.00522 0.995538
0.995713 1.00407 0.997606
0.994858 1.00491 0.979885
0.995176 1.00284 0.999333
0.994777 0.994817 0.820744
0.994841 0.994835 0.822605
0.994789 0.994833 0.818671
0.994794 1.00308 0.999415
0.994861 0.999899 0.975348
0.994819 0.994839 0.821956
0.995102 0.997484 0.93107
0.996267 0.996343 0.882309
0.994829 0.994825 0.818302
0.994687 0.99482 0.812062
0.994876 1.00465 0.991382
0.994807 0.994837 0.822275
0.994759 0.994783 0.810728
0.99487 0.999762 0.966382
0.994712 0.994823 0.812461
0.994724 0.997215 0.863291
0.994977 0.998697 0.926628
0.994899 1.00473 0.985302
0.994834 0.994818 0.817117
0.994686 0.99478 0.805126
0.996325 0.994843 0.883618
0.994769 0.997334 0.9385
0.994793 0.999983 0.959522
0.99495 1.00527 0.998697
0.995522 1.00437 0.997598
0.996783 1.00029 0.998689
0.995269 1.00508 0.99776
0.997582 1.00079 0.998237
1.00197 1.00024 0.99256
1.00357 1.00071 0.991417
1.00311 1.00499 0.985042
1.00398 1.00337 0.983713
1.00387 1.00418 0.984099
1.00442 1.0047 0.982184
1.00445 1.00393 0.983016
1.00521 0.99968 0.985623
1.00511 1.00092 0.985066
1.00504 1.00168 0.98414
1.00509 1.00165 0.984516
1.00503 1.00173 0.984306
1.00446 1.00323 0.983591
1.00512 1.00117 0.985376
1.00502 1.00178 0.984627
1.0051 1.00209 0.984147
1.00264 1.00335 0.98743
1.0035 1.00083 0.98808
1.00435 1.00011 0.987269
1.00058 1.00494 0.988528
1.00125 1.00484 0.988014
1.00168 1.00347 0.988701
1.00017 1.00078 0.993687
1.00056 1.00447 0.989518
1.00104 1.0051 0.988521
1.00044 1.00371 0.990501
1.00009 1.00026 0.994396
1.00007 0.997714 0.998806
1.00018 0.999669 0.994895
1.00012 0.997461 0.998871
1.00015 0.99731 0.998903
1.00007 1.00511 0.989939
1.00072 1.00423 0.98978
1.00055 1.00205 0.991923
1.00064 1.00317 0.990672
1.00027 0.998895 0.995483
1.00041 1.00162 0.992578
1.00069 1.00262 0.991126
1.00014 0.996908 0.999072
1.00025 0.998536 0.995895
1.0003 1.00132 0.993016
1.00011 0.996751 0.999179
1.0002 0.998235 0.996275
1.00008 0.996699 0.999239
0.9948 0.994837 0.81502
0.99482 0.994833 0.820811
0.99481 0.994833 0.821987
1.00029 1.00477 0.989763
1.0003 1.00364 0.990377
1.00035 1.00304 0.98966
0.999373 1.00449 0.990366
1.00133 1.00342 0.990658
1.0007 1.00369 0.990329
1.00052 1.00209 0.991835
1.0003 1.00313 0.991416
1.00036 1.0017 0.992872
0.998903 1.00392 0.993136
0.994753 0.994773 0.812578
0.994815 0.994807 0.81042
0.994881 0.994839 0.818783
0.995083 0.994841 0.820803
0.995691 0.996417 0.86659
0.994875 0.99505 0.954573
0.994835 0.99727 0.939313
0.995369 0.996453 0.95604
0.994893 0.996112 0.94058
0.995 0.998801 0.870769
0.994754 0.99481 0.802693
0.994877 0.998772 0.959235
0.994845 1.00056 0.940329
0.994773 0.996957 0.886423
0.994711 0.99485 0.822452
0.998436 1.00166 0.99617
0.997295 1.00448 0.994555
0.999436 1.00321 0.992876
0.995849 1.00222 0.977884
0.994953 1.00524 0.995763
0.996607 1.00498 0.995185
0.994937 1.00458 0.998753
0.996031 1.004 0.997574
0.995182 1.00223 0.999655
0.994848 1.00263 0.979279
0.996031 1.00122 0.999982
0.995637 1.00023 0.985995
0.994813 0.99482 0.825645
0.994791 0.994829 0.820022
0.994832 0.994833 0.825857
0.994898 1.0041 0.991678
0.994859 0.99959 0.963978
0.994824 0.994844 0.822383
0.994834 0.999077 0.938467
0.994767 0.998189 0.884058
0.994744 0.99476 0.810916
0.99474 0.994837 0.803496
0.995338 1.00473 0.986043
0.994816 0.994822 0.817304
0.994708 0.994782 0.804489
0.99504 0.999156 0.960599
0.99585 0.995288 0.881473
0.994876 0.997379 0.933148
0.995179 1.00279 0.983009
0.994692 0.994778 0.80744
0.9978 0.994821 0.884852
0.996078 0.996077 0.930052
0.994847 0.996349 0.961738
0.99557 1.00501 0.997684
0.99629 1.00166 0.998603
0.999013 1.00204 0.995462
0.995906 1.00293 0.998606
1.00086 1.00037 0.99349
1.00393 0.998915 0.989659
1.00393 1.00509 0.984283
1.00382 1.00361 0.983605
1.0044 1.00045 0.985864
1.00468 1.00465 0.982125
1.00452 1.00345 0.983105
1.00499 0.999791 0.986032
1.00529 0.997129 0.987933
1.00523 0.999224 0.985989
1.00522 0.999606 0.985698
1.00517 1.00078 0.985266
1.00511 1.00095 0.984982
1.00506 1.00182 0.984093
1.00518 1.00201 0.984353
1.00503 1.00156 0.984535
1.00501 1.00161 0.984312
1.00443 1.00153 0.986206
1.0046 1.00158 0.985538
1.00497 1.00205 0.984483
1.00119 1.00485 0.987343
1.00244 1.00334 0.987425
1.00318 1.00112 0.988516
1.00011 1.00185 0.993782
1.00088 1.0049 0.988542
1.00159 1.00456 0.98808
1.00012 0.998291 0.996595
1.00016 1.00098 0.994054
1.00069 1.00435 0.98953
1.00012 1.00035 0.994361
1.00008 0.9978 0.99875
1.00012 0.997479 0.998854
1.00069 1.00488 0.989052
1.00087 1.00504 0.98896
0.999617 1.00512 0.989851
1.00051 1.0031 0.990995
1.00055 1.00434 0.989753
1.00024 0.999292 0.995141
1.0005 1.00212 0.991939
1.0007 1.00317 0.99065
1.00013 0.997171 0.998981
1.00027 0.99887 0.9955
1.0004 1.00166 0.992571
1.00013 0.996907 0.9991
1.00024 0.998506 0.995916
1.00011 0.996752 0.999196
0.994785 0.994821 0.826834
0.994806 0.994837 0.815119
0.994806 0.994848 0.821066
1.00204 1.00149 0.9891
0.999884 1.00501 0.989749
1.00005 1.00361 0.990589
1.0002 1.005 0.990052
1.0013 1.0026 0.989765
1.00051 1.0033 0.991801
1.00314 1.00256 0.987212
0.997908 1.00501 0.992188
1.00019 1.00314 0.991441
1.00012 1.00133 0.992906
0.998447 1.00388 0.993063
0.998267 1.00442 0.993651
0.994724 0.994808 0.813513
0.994773 0.99478 0.812039
0.994811 0.994807 0.8112
0.994784 0.994841 0.81691
0.99492 0.998574 0.86943
0.995031 0.998591 0.928904
0.994896 0.995741 0.956232
0.994896 0.999271 0.958558
0.994723 0.994862 0.813223
0.994872 0.996392 0.932381
0.994752 0.997415 0.869437
0.994899 0.996536 0.96422
0.994838 0.998823 0.941686
0.995836 0.994859 0.883549
0.99985 0.995069 1.00007
0.9984 1.00154 0.996084
0.997151 1.00437 0.99491
0.994883 1.00185 0.979045
0.995259 1.00141 0.99994
0.996585 1.00403 0.99755
0.997072 1.00056 1.00021
0.995205 0.999136 0.98616
0.996359 0.998578 0.991894
0.994713 0.994834 0.821529
0.994811 0.994812 0.826902
0.9948 0.99483 0.81921
0.994963 1.00443 0.986289
0.994856 0.999968 0.960237
0.994799 0.994829 0.817686
0.99483 0.998681 0.928278
0.996092 0.994856 0.865672
0.99475 0.9948 0.816958
0.99478 1.00485 0.982937
0.994701 0.994818 0.820131
0.997939 0.99477 0.865613
0.994857 0.995801 0.957511
0.996163 0.997138 0.941418
0.994886 1.00243 0.989357
0.99981 0.994842 0.857375
0.998161 0.994852 0.943529
0.994833 0.994835 0.956584
0.995729 1.00278 0.998565
0.998322 1.00141 0.995267
1.00119 1.00268 0.99152
0.999794 1.00022 0.994422
1.00311 0.99959 0.989449
1.00444 0.999285 0.98795
1.0038 1.00383 0.983494
1.00435 1.00067 0.98577
1.00505 0.996772 0.988373
1.00457 1.00289 0.983196
1.0049 0.999661 0.986014
1.00531 0.995976 0.98909
1.00527 0.995644 0.989861
1.00527 0.997314 0.987904
1.0053 0.997075 0.988053
1.00525 0.999083 0.98618
1.00522 0.999202 0.986174
1.00521 0.999563 0.985774
1.00526 1.00117 0.984588
1.00517 1.00069 0.98522
1.00512 1.00095 0.984896
1.00517 1.00144 0.984801
1.00505 1.00195 0.984394
1.00496 1.00145 0.984555
1.00267 1.0036 0.986584
1.00413 1.0019 0.986112
1.00399 1.00198 0.985702
1.00026 1.00256 0.991716
1.00169 1.00478 0.987364
1.0023 1.00351 0.987415
0.999826 0.99922 0.998375
1.00019 1.00182 0.992662
1.00114 1.00483 0.988555
1.00009 0.998229 0.998553
1.00018 1.00103 0.993548
1.0001 0.997856 0.998687
1.00298 1.00315 0.987785
1.00076 1.00479 0.988899
1.00112 1.00509 0.988448
1.00062 1.00403 0.98993
1.00061 1.00506 0.988934
0.99982 1.00518 0.989767
1.00015 0.999934 0.994683
1.00049 1.00307 0.991014
1.00036 1.00432 0.989724
1.00011 0.997382 0.998905
1.00024 0.999246 0.995157
1.00045 1.00214 0.991955
1.00013 0.997122 0.999007
1.00027 0.998847 0.995514
1.00012 0.996863 0.999129
0.994722 0.9948 0.805968
0.994805 0.994823 0.827155
0.994814 0.994838 0.815245
1.00189 1.00235 0.989005
1.00483 1.00152 0.986686
1.00232 1.00314 0.988114
1.0001 1.00485 0.989734
1.0025 1.00226 0.98987
0.999107 1.00244 0.992909
0.998869 1.00465 0.991694
1.00211 1.00306 0.988203
1.00228 1.00214 0.989325
0.999093 0.999762 0.996116
0.999208 1.00391 0.992977
0.998529 1.00453 0.993571
0.998695 0.994806 0.85896
0.994694 0.994797 0.807044
0.994781 0.994784 0.812152
0.994738 0.994838 0.803459
0.994806 0.997371 0.887859
0.99485 0.997843 0.927913
0.994904 0.997082 0.957182
0.994869 0.996902 0.96201
0.996108 0.99661 0.881537
0.994841 0.996746 0.929652
0.994859 0.997386 0.965271
0.995906 0.994785 0.93016
0.999913 0.995538 1.00162
0.999562 0.996318 1.00006
0.998179 1.00145 0.996056
0.994937 0.998859 0.986484
0.997732 0.999772 1.00045
0.996787 0.998788 0.991551
0.99652 0.996405 0.990243
0.999788 0.994929 0.871691
0.994703 0.994822 0.818912
0.994818 0.994814 0.827984
0.994782 1.00502 0.98327
0.994856 0.994892 0.955829
0.994695 0.994831 0.819817
0.995632 0.994774 0.930554
0.998819 0.994816 0.884885
0.99489 1.00047 0.986086
0.999766 0.994852 0.869618
0.998302 0.995227 0.929957
0.994844 0.994791 0.95825
0.996682 0.998328 0.98742
0.99995 0.994882 0.942721
0.995178 0.994804 0.963623
0.997733 1.00061 0.995056
1.00025 1.00121 0.991559
1.00367 0.999775 0.990495
1.00235 1.00056 0.989257
1.00418 0.999158 0.987912
1.00517 0.996415 0.989022
1.00427 1.00092 0.985682
1.00491 0.997261 0.988323
1.00528 0.995027 0.989974
1.00481 0.999525 0.985995
1.00531 0.996011 0.989036
1.00526 0.994988 0.990438
1.00527 0.995131 0.990486
1.00527 0.995602 0.990001
1.00524 0.996018 0.989783
1.00527 0.997675 0.987886
1.00527 0.997364 0.988036
1.00532 0.997007 0.988175
1.00529 0.999881 0.985773
1.00525 0.999134 0.986134
1.00522 0.999156 0.986359
1.0053 1.0016 0.984295
1.00528 1.00119 0.98462
1.00518 1.00064 0.985174
1.00353 1.00274 0.986074
1.00509 1.00153 0.984798
1.00487 1.00192 0.984437
1.00074 1.00301 0.990541
1.00273 1.00363 0.986558
1.00395 1.00199 0.986023
1.00006 0.999437 0.998092
1.00042 1.00246 0.991687
1.00208 1.00465 0.987386
1 0.999106 0.997236
1.00032 1.00169 0.992672
1.0001 0.998494 0.998434
1.00439 1.00072 0.987473
1.0022 1.00311 0.987906
1.0011 1.00493 0.987986
1.00071 1.00478 0.988738
1.00075 1.0051 0.988494
1.00088 1.00467 0.989031
1.00014 1.00074 0.993937
1.00053 1.00414 0.989916
1.00016 1.0051 0.988909
1.00008 0.997728 0.998771
1.00014 0.999844 0.994712
1.00046 1.00307 0.991032
1.0001 0.997381 0.998927
1.00024 0.999215 0.99518
1.00012 0.9971 0.999034
0.999757 0.994823 0.86957
0.994708 0.994809 0.811722
0.994814 0.994822 0.827502
1.00163 1.00254 0.988915
1.00228 1.00352 0.987324
1.00439 1.00208 0.986679
1.00504 1.00341 0.983375
1.00211 1.00289 0.988212
0.999483 1.00491 0.991243
1.0016 1.00344 0.989186
1.00143 1.00227 0.989999
1.0045 0.996953 0.989128
1.00209 0.998873 0.993144
1.00244 0.996228 0.994447
1.0002 0.998988 0.995885
0.999506 1.00315 0.993494
0.997817 0.994857 0.940256
0.998802 0.994776 0.86359
0.994667 0.994795 0.812534
0.996204 0.994842 0.867542
0.994837 0.998643 0.939113
0.994853 0.995762 0.96341
0.994858 0.996867 0.966956
0.996576 0.997889 0.942299
0.99574 0.9948 0.966189
0.999278 0.996531 0.999858
0.999213 0.996024 1.00167
0.999246 0.997697 0.999992
0.997282 0.998275 0.991327
0.997432 0.997065 0.990376
0.999989 0.994893 0.930056
0.999792 0.994888 0.87744
0.994689 0.994804 0.816414
0.994903 0.999481 0.982513
0.995106 0.994784 0.956878
0.999805 0.994813 0.86876
0.997872 0.994827 0.942688
0.996422 0.998198 0.987665
1.00032 0.994878 0.938613
0.99602 0.994835 0.961437
1.00042 0.994951 0.987328
0.998089 0.994839 0.97152
0.999221 0.999554 0.991644
1.00285 0.998253 0.99054
1.0051 0.995244 0.991258
1.00397 0.998878 0.987865
1.00511 0.996254 0.988934
1.00528 0.994869 0.990326
1.00471 0.997726 0.988275
1.00528 0.995088 0.989923
1.00526 0.994864 0.990477
1.0053 0.996035 0.988984
1.00525 0.995022 0.990408
1.00528 0.994882 0.990613
1.00527 0.995083 0.990543
1.00525 0.995325 0.990483
1.00527 0.995555 0.990141
1.00523 0.995998 0.989784
1.00522 0.996551 0.98922
1.00527 0.998689 0.987097
1.00527 0.997736 0.987868
1.00527 0.997413 0.988168
1.00533 1.00121 0.984551
1.0053 0.999965 0.985629
1.00526 0.999187 0.986089
1.00429 1.002 0.985527
1.00523 1.00163 0.984345
1.00529 1.00121 0.984651
1.00123 1.00309 0.989528
1.00335 1.003 0.986075
1.00484 1.00178 0.984794
1.00019 1.00018 0.997682
1.00086 1.00283 0.990532
1.00293 1.00371 0.986531
1.00013 0.999619 0.997946
1.00056 1.00234 0.991658
1.00012 0.999049 0.998174
1.00515 1.00261 0.984168
1.00393 1.00082 0.987379
1.00254 1.00309 0.987231
1.00162 1.00311 0.988046
1.00117 1.00489 0.987811
1.00109 1.00508 0.988196
1.00056 1.00513 0.988537
1.00061 1.00482 0.988997
1.00018 1.00158 0.992997
1.00005 0.998243 0.998536
1.0001 1.00067 0.993963
1.00038 1.00421 0.989902
1.00006 0.997664 0.99882
1.00016 0.999745 0.994728
1.00009 0.997342 0.998949
0.999971 0.994881 0.943458
0.999817 0.994854 0.868955
0.994685 0.994797 0.805867
1.00195 1.0047 0.986526
1.00361 1.00258 0.986675
1.00322 1.00282 0.987592
1.00458 1.00323 0.983825
1.0052 1.00083 0.984831
1.00362 1.00025 0.986963
1.0006 1.00268 0.990637
1.00454 0.996378 0.989374
1.00218 0.998491 0.993188
1.0042 0.995428 0.990466
1.00382 0.997135 0.992227
1.00246 0.996925 0.993464
1.00204 0.996437 0.994348
0.99967 0.999619 0.995662
0.995757 0.994828 0.964458
0.998732 0.995965 0.935779
0.997688 0.994834 0.880701
0.995878 0.996359 0.929839
0.99492 0.996884 0.967406
0.995512 0.995744 0.971964
0.999281 0.994818 0.992331
1.00005 0.995895 0.999312
0.99856 0.996225 1.00175
0.998715 0.998988 0.990551
0.9974 0.995273 0.965858
1.00007 0.99487 0.943989
0.9998 0.994903 0.860126
0.996 0.998249 0.988012
0.99643 0.994851 0.961889
0.999809 0.99485 0.934094
0.999833 0.995694 0.987694
0.998439 0.994859 0.97065
1.0029 0.995245 0.989795
1.00345 0.996436 0.984824
1.00182 0.997033 0.990571
1.00457 0.995203 0.991273
1.00524 0.994826 0.990814
1.00503 0.996179 0.988846
1.00528 0.994866 0.990275
1.0053 0.994913 0.990463
1.00528 0.995166 0.989868
1.00526 0.994875 0.990457
1.0053 0.994914 0.990502
1.00525 0.995063 0.990377
1.00527 0.994893 0.990614
1.00528 0.994921 0.990639
1.00527 0.995042 0.990599
1.00525 0.99527 0.990499
1.00523 0.995795 0.990138
1.00523 0.995986 0.989786
1.00522 0.996577 0.989216
1.00526 0.997857 0.988044
1.00531 1.00031 0.985519
1.00528 0.99887 0.986856
1.00527 0.9978 0.98785
1.00506 1.00103 0.985224
1.00532 1.00122 0.984597
1.00531 1.00005 0.985487
1.00184 1.00274 0.988754
1.0041 1.0023 0.985542
1.00515 1.00167 0.984393
1.00058 1.00072 0.997223
1.00131 1.00298 0.989519
1.00318 1.00328 0.986076
1.00039 1.00035 0.997496
1.0009 1.0027 0.990532
1.00027 0.999821 0.997771
1.0052 1.00149 0.984625
1.00517 1.00217 0.984335
1.00444 1.00195 0.985324
1.00375 1.00146 0.987284
1.00255 1.00319 0.987039
1.00214 1.00432 0.987168
1.00116 1.00481 0.987639
1.00094 1.0051 0.988207
1.0004 1.00232 0.991992
1.00041 1.00502 0.988968
1.00008 1.00171 0.993017
1.00003 0.999022 0.998235
1.00002 0.998191 0.998624
1.00005 1.00068 0.993995
1.00005 0.997623 0.998862
0.996755 0.994875 0.966374
0.999924 0.994875 0.92955
0.999818 0.994877 0.881396
1.00526 0.998729 0.986629
1.00447 1.00274 0.986991
1.00418 1.00295 0.984273
1.00434 1.00002 0.987377
1.00519 1.00104 0.984791
1.00495 0.997525 0.988334
1.0049 0.997497 0.989629
1.00196 0.99763 0.993247
1.00471 0.996228 0.990444
1.00365 0.997389 0.991161
1.0047 0.996416 0.989681
1.00328 0.994884 0.994308
1.00246 0.996572 0.993564
1.00199 0.99663 0.994237
0.998692 0.994816 0.990872
0.995777 0.994836 0.962877
0.998492 0.994827 0.930476
0.995181 0.996295 0.971319
0.998884 0.994833 0.995063
1.00022 0.995354 0.998711
1.00228 0.994916 0.981528
0.997467 0.994902 0.965726
0.999998 0.994881 0.930168
0.998945 0.995856 0.988064
0.998746 0.994868 0.969976
1.00202 0.994957 0.990302
1.00325 0.995626 0.98569
1.00389 0.99521 0.990945
1.00503 0.996447 0.990948
1.00408 0.995103 0.991279
1.00518 0.994855 0.990719
1.00536 0.994904 0.99035
1.00528 0.994866 0.990225
1.00528 0.994906 0.990467
1.00534 0.994908 0.990426
1.00526 0.994885 0.990437
1.00529 0.994908 0.990516
1.00529 0.994911 0.990656
1.00526 0.994902 0.990616
1.00528 0.99492 0.990629
1.00525 0.995065 0.99069
1.00525 0.995216 0.990516
1.00523 0.995667 0.990236
1.00526 0.996937 0.989062
1.00523 0.996599 0.989211
1.00526 0.997772 0.988128
1.00529 0.999863 0.986119
1.00526 1.00073 0.985238
1.00531 1.00047 0.985357
1.00529 0.999044 0.986614
1.00271 1.00152 0.988604
1.00497 1.00115 0.985224
1.00531 1.00121 0.984645
1.00094 1.00092 0.996867
1.00212 1.00245 0.988738
1.00393 1.00251 0.98556
1.00071 1.00077 0.997084
1.00146 1.00288 0.989514
1.00054 1.00047 0.997335
1.00526 1.00015 0.985513
1.00522 1.0015 0.98453
1.00513 1.00127 0.984936
1.0052 1.0017 0.984501
1.00464 1.00177 0.985289
1.00316 1.00347 0.986451
1.00267 1.00294 0.986846
1.00203 1.00442 0.987177
1.00069 1.00274 0.990945
1.0008 1.00511 0.988208
1.00021 1.00241 0.992016
1.00004 0.999733 0.997899
0.999958 1.00173 0.993037
0.999987 0.998865 0.998347
0.999997 0.998053 0.998704
1.00032 0.995148 0.98658
0.996608 0.994889 0.962659
0.999986 0.994868 0.943249
1.00522 0.997084 0.988421
1.00525 0.99672 0.988788
1.00526 0.99846 0.986887
1.005 0.999346 0.987784
1.00516 1.00131 0.984756
1.00504 0.997432 0.988584
1.00522 0.995489 0.989478
1.005 0.995994 0.990424
1.00342 0.998084 0.9901
1.00447 0.996929 0.990094
1.00511 0.994973 0.990801
1.00371 0.994878 0.993025
1.00293 0.994946 0.99399
1.00268 0.996131 0.993678
0.999396 0.994807 0.990929
0.995806 0.994833 0.961515
0.998853 0.994866 0.997925
1.00487 0.99496 0.990487
1.0022 0.995472 0.981647
0.997656 0.994854 0.964331
1.00173 0.99478 0.990761
1.00306 0.994817 0.986574
1.00392 0.995069 0.991619
1.00506 0.995599 0.991052
1.00536 0.994785 0.990958
1.00546 0.994815 0.991208
1.00518 0.994874 0.990625
1.00538 0.994902 0.990326
1.00537 0.994887 0.990501
1.00526 0.994896 0.990471
1.00534 0.994905 0.990453
1.00531 0.994906 0.99064
1.00528 0.994903 0.990529
1.00529 0.994911 0.990652
1.00525 0.994915 0.990893
1.00528 0.994919 0.990619
1.00526 0.995075 0.990665
1.00527 0.996145 0.989768
1.00523 0.995535 0.990333
1.00526 0.996873 0.989095
1.00531 0.99928 0.986671
1.00526 0.997692 0.988212
1.00529 0.999766 0.986238
1.00526 1.00059 0.985396
1.003 1.00066 0.988961
1.00522 1.00078 0.985246
1.00532 1.00063 0.985195
1.00127 1.00087 0.996632
1.00276 1.00146 0.988593
1.00482 1.00136 0.985226
1.00107 1.00097 0.996744
1.00228 1.00226 0.988718
1.00086 1.0009 0.996933
1.00525 0.998357 0.987284
1.00525 1 0.98571
1.00528 1.00088 0.985079
1.00523 1.00146 0.984432
1.00519 1.00123 0.984919
1.00365 1.00246 0.986338
1.00485 1.00166 0.985259
1.00305 1.00317 0.98644
1.00103 1.00309 0.989903
1.00172 1.00444 0.987191
1.0006 1.00287 0.990976
1.00017 1.00056 0.997532
1.0001 1.00255 0.992038
0.999993 0.999614 0.998028
0.99993 0.998745 0.998451
1.00432 0.995202 0.991869
1.00044 0.995045 0.984363
0.996516 0.994913 0.962272
1.00525 0.995947 0.989625
1.00521 0.99666 0.988726
1.00526 0.995609 0.990004
1.00525 0.996778 0.988755
1.00527 0.998162 0.98714
1.00534 0.994877 0.990153
1.00513 0.997549 0.988823
1.00523 0.995767 0.989491
1.00529 0.99481 0.990561
1.00437 0.9973 0.990505
1.00512 0.995082 0.99048
1.00336 0.995009 0.993296
1.0023 0.995465 0.993679
0.999812 0.994802 0.990777
1.00543 0.994878 0.990876
1.00489 0.995537 0.990565
1.00199 0.995764 0.981843
1.00383 0.994804 0.992279
1.00505 0.994754 0.991167
1.00534 0.994786 0.991003
1.00548 0.994847 0.991106
1.0054 0.994841 0.990977
1.0054 0.994905 0.990305
1.00537 0.994887 0.990515
1.00531 0.994896 0.990815
1.00534 0.994904 0.990481
1.00531 0.994907 0.990637
1.00523 0.994912 0.990982
1.0053 0.994911 0.990648
1.00526 0.994916 0.99087
1.00528 0.995494 0.990482
1.00526 0.995086 0.990641
1.00527 0.996182 0.989755
1.00535 0.998646 0.987324
1.00526 0.996807 0.989128
1.00531 0.999286 0.986696
1.00526 1.00045 0.985566
1.00529 0.999666 0.986358
1.00527 1.00058 0.985412
1.003 1.00031 0.991024
1.00163 1.00024 0.993257
1.00303 1.00066 0.989802
1.00518 1.00082 0.98525
1.00129 1.00086 0.996632
1.00291 1.00125 0.988575
1.00115 1.00104 0.996651
1.00523 0.995526 0.990349
1.00524 0.997052 0.988764
1.00524 0.998327 0.987483
1.00527 1.0003 0.985633
1.00524 0.999865 0.985907
1.00527 1.00094 0.985008
1.00438 1.00125 0.98606
1.00524 1.00117 0.984901
1.00381 1.002 0.986324
1.00175 1.00282 0.989032
1.00315 1.00287 0.986426
1.00101 1.00317 0.989891
1.00047 1.00115 0.997093
1.00046 1.00292 0.991008
1.00006 1.0003 0.997678
0.999923 0.999473 0.998149
1.00541 0.99482 0.990827
1.00432 0.995104 0.99157
1.00089 0.9949 0.982213
1.0053 0.995043 0.990398
1.00522 0.995952 0.989503
1.00521 0.996256 0.989033
1.00525 0.995788 0.989955
1.00524 0.996836 0.988722
1.00537 0.994824 0.990559
1.00534 0.994875 0.990154
1.00524 0.995992 0.989502
1.00526 0.994808 0.990606
1.00511 0.995108 0.990157
1.00318 0.994756 0.993562
1.00533 0.994898 0.991067
1.00544 0.99486 0.990977
1.00496 0.996006 0.99064
1.00533 0.994791 0.991027
1.00551 0.99488 0.991008
1.0054 0.994848 0.990933
1.0053 0.994918 0.991111
1.00536 0.994889 0.990529
1.00531 0.9949 0.990778
1.00523 0.994943 0.991073
1.00531 0.994908 0.990634
1.00524 0.994912 0.990974
1.00528 0.995071 0.990969
1.00526 0.994917 0.990846
1.00527 0.995515 0.990466
1.00537 0.998059 0.987935
1.00527 0.996219 0.989742
1.00534 0.998657 0.987346
1.00525 1.0003 0.985746
1.0053 0.999293 0.986721
1.00527 1.00043 0.985589
1.00308 1.0001 0.991124
1.00527 1.00057 0.985427
1.00321 1.00021 0.99089
1.00166 0.999918 0.993492
1.00131 1.00054 0.995068
1.00325 1.00063 0.990469
1.00128 1.00087 0.996652
1.00526 0.994988 0.990869
1.00523 0.996709 0.989155
1.00523 0.995418 0.990483
1.0053 0.999413 0.986489
1.00525 0.99711 0.98875
1.00524 0.998299 0.987682
1.00527 1.00031 0.985572
1.00502 1.00059 0.985668
1.00527 1.001 0.984936
1.00457 1.001 0.986057
1.00248 1.00181 0.988706
1.00392 1.00162 0.986314
1.00155 1.00301 0.989027
1.00079 1.00144 0.996739
1.00088 1.00332 0.989895
1.00031 1.00098 0.99727
0.999997 1.00016 0.997817
1.00532 0.994896 0.990797
1.00535 0.994821 0.990873
1.00415 0.995083 0.991271
1.00529 0.994845 0.990753
1.00528 0.995104 0.990352
1.00517 0.995962 0.989388
1.00523 0.995964 0.989905
1.00536 0.994826 0.990561
1.00534 0.994872 0.990155
1.00522 0.99481 0.990652
1.00528 0.994947 0.991133
1.00532 0.994899 0.991044
1.00545 0.994845 0.991076
1.00528 0.994939 0.991201
1.0054 0.99485 0.99089
1.00529 0.994918 0.991099
1.00524 0.994944 0.991172
1.00531 0.994904 0.990741
1.00523 0.994941 0.99108
1.00529 0.994936 0.991177
1.00525 0.994912 0.990966
1.00527 0.995077 0.990953
1.00537 0.997544 0.988501
1.00526 0.995537 0.99045
1.00537 0.998067 0.987949
1.00524 1.00013 0.985981
1.00533 0.998668 0.987367
1.00527 1.00028 0.985771
1.0031 1.0001 0.991076
1.00528 1.00041 0.985612
1.00326 1.00003 0.990962
1.00172 0.999824 0.99349
1.00342 1.00009 0.990766
1.0012 1.0001 0.993799
1.00066 1.00088 0.997224
1.00524 0.994891 0.990982
1.00524 0.995841 0.990068
1.00526 0.995031 0.990822
1.0053 0.999021 0.986946
1.00524 0.996399 0.989404
1.00523 0.995311 0.990616
1.00527 1.00023 0.985727
1.00529 0.999407 0.986451
1.00525 0.997167 0.988738
1.00529 1.00032 0.98551
1.00511 1.00049 0.985666
1.00283 1.0009 0.988983
1.00472 1.00077 0.986058
1.00231 1.00203 0.988742
1.00099 1.00138 0.996667
1.00149 1.00314 0.989012
1.00068 1.00133 0.996867
1.00015 1.00079 0.997437
1.00528 0.994926 0.990986
1.00533 0.994896 0.990751
1.00531 0.994819 0.990922
1.0053 0.994847 0.990774
1.00527 0.995166 0.990305
1.00536 0.994828 0.990562
1.00527 0.994956 0.991161
1.00528 0.994942 0.991147
1.00531 0.994901 0.99102
1.00527 0.994943 0.991192
1.00521 0.994942 0.991348
1.00529 0.994919 0.991086
1.00524 0.994945 0.991202
1.0053 0.994943 0.991192
1.00523 0.99494 0.991088
1.00529 0.994936 0.991164
1.00536 0.997116 0.989005
1.00526 0.995082 0.990937
1.00539 0.997542 0.9885
1.00517 0.999958 0.98631
1.00537 0.998074 0.987963
1.00526 1.0001 0.985997
1.00304 1.0002 0.991048
1.00529 1.00025 0.985796
1.00326 1.00006 0.9909
1.00175 0.999891 0.993383
1.00343 0.999962 0.990808
1.00132 0.999876 0.993825
1.00076 1.00032 0.994092
1.0052 0.994922 0.991116
1.00524 0.995257 0.990764
1.00523 0.994885 0.990961
1.00532 0.998032 0.987951
1.00525 0.995915 0.990007
1.00526 0.995071 0.990775
1.00529 1.00003 0.98595
1.00531 0.998642 0.987269
1.00525 0.996088 0.989653
1.00297 1.00027 0.989397
1.00526 1.00024 0.98571
1.00528 0.9994 0.986415
1.00523 1.00037 0.98566
1.00282 1.00095 0.989
1.00111 1.00099 0.996763
1.0022 1.00224 0.988772
1.00096 1.00131 0.996674
1.00054 1.00123 0.997013
1.00526 0.994948 0.991126
1.00528 0.994928 0.990961
1.00533 0.994896 0.990705
1.0053 0.994848 0.990794
1.0052 0.994955 0.991352
1.00527 0.994951 0.991168
1.00528 0.994937 0.991161
1.00527 0.994947 0.991184
1.00522 0.994941 0.991337
1.00528 0.995165 0.990999
1.00523 0.994946 0.991232
1.0053 0.995078 0.991067
1.00534 0.996603 0.989606
1.00528 0.994935 0.991151
1.00537 0.997113 0.988994
1.00506 0.999755 0.986696
1.00541 0.997556 0.988499
1.00518 0.999926 0.98632
1.00298 1.00028 0.989471
1.00528 1.00007 0.986014
1.00319 1.00016 0.990063
1.00152 0.999962 0.996739
1.00343 1.00002 0.990726
1.00139 0.999867 0.993727
1.00095 0.999925 0.994143
1.00519 0.99495 0.9912
1.00524 0.995093 0.990998
1.0052 0.994928 0.991138
1.00537 0.997368 0.988655
1.00525 0.995398 0.990533
1.00523 0.994879 0.990941
1.00526 0.999574 0.986456
1.00531 0.998045 0.987968
1.00525 0.995986 0.989946
1.00309 0.999887 0.989598
1.00528 0.999859 0.986086
1.0053 0.998262 0.987591
1.00125 1.00053 0.996859
1.003 1.00022 0.989395
1.00527 1.00025 0.985688
1.00275 1.00101 0.989024
1.00113 1.001 0.99672
1.0009 1.00128 0.996717
1.00518 0.994962 0.99128
1.00526 0.994953 0.991126
1.00529 0.994931 0.990936
1.00526 0.995202 0.991062
1.00521 0.994953 0.991325
1.00527 0.994946 0.991175
1.00522 0.99494 0.991327
1.00528 0.995211 0.990998
1.00534 0.996839 0.989357
1.0053 0.995227 0.990942
1.00535 0.996935 0.989239
1.00497 0.999152 0.987494
1.00539 0.997095 0.988984
1.00506 0.999738 0.986702
1.00288 1.00019 0.989738
1.0052 0.999898 0.986328
1.003 1.00025 0.989482
1.00143 1.00002 0.996749
1.00324 1.00015 0.989223
1.00136 0.999974 0.995266
1.00104 0.999835 0.99407
1.00515 0.994958 0.991349
1.00525 0.994993 0.991209
1.00518 0.994953 0.991207
1.0054 0.997504 0.988471
1.00525 0.995038 0.991038
1.00519 0.994934 0.99116
1.00526 0.99942 0.986635
1.00536 0.997735 0.988264
1.00526 0.995545 0.990301
1.00315 0.99982 0.989583
1.00526 0.999536 0.986471
1.0053 0.998061 0.987984
1.00142 1.00013 0.996867
1.00312 0.999841 0.989596
1.00526 0.999688 0.986221
1.00127 1.00054 0.996825
1.00302 1.00018 0.989394
1.00109 1.00102 0.996686
1.00523 0.995258 0.990975
1.00519 0.994961 0.991305
1.00526 0.994957 0.991125
1.00534 0.996834 0.989378
1.00525 0.995244 0.991035
1.00521 0.994952 0.991296
1.00528 0.995255 0.990996
1.00533 0.996871 0.989364
1.00491 0.998969 0.98778
1.00535 0.997254 0.988874
1.00499 0.999333 0.987249
1.00281 1.00004 0.990007
1.00507 0.999718 0.986708
1.00286 1.00021 0.98975
1.00131 1.00004 0.996792
1.003 1.00023 0.989492
1.00139 1.00004 0.99676
1.00146 0.999931 0.993499
1.00523 0.995321 0.990943
1.00515 0.994956 0.991288
1.00538 0.997266 0.98877
1.00525 0.994971 0.991219
1.00517 0.994956 0.991215
1.00519 0.999715 0.986478
1.00539 0.997521 0.988473
1.00525 0.994985 0.991079
1.00314 0.999912 0.989547
1.00525 0.999604 0.986454
1.00535 0.998106 0.987875
1.00152 0.999941 0.996806
1.00317 0.999809 0.989582
1.00525 0.999495 0.986487
1.00141 1.00017 0.996869
1.00316 0.999803 0.989594
1.0013 1.00056 0.996788
1.00534 0.996931 0.989245
1.00523 0.995295 0.991004
1.0052 0.99496 0.991331
1.00489 0.998912 0.987848
1.00533 0.99687 0.989379
1.00525 0.995288 0.991009
1.00533 0.996906 0.989371
1.00493 0.998947 0.987747
1.0027 0.999965 0.990277
1.005 0.999514 0.987003
1.00279 1.00005 0.990017
1.00125 1.00003 0.996847
1.00285 1.00022 0.989764
1.00127 1.00006 0.996817
1.00135 1.00004 0.996778
1.00535 0.997109 0.989028
1.00523 0.995149 0.991095
1.00516 0.994953 0.991226
1.00509 0.999618 0.986788
1.00538 0.997278 0.988777
1.00525 0.994945 0.991229
1.00303 1.00002 0.989655
1.00516 0.999754 0.986477
1.00537 0.997536 0.988474
1.0015 0.999919 0.99676
1.00313 0.999934 0.989546
1.00524 0.999778 0.986275
1.00151 0.999972 0.996831
1.00318 0.99981 0.98958
1.00144 1.00017 0.99686
1.00492 0.999319 0.987361
1.00534 0.996773 0.989439
1.00523 0.995331 0.991032
1.00265 0.999876 0.990478
1.0049 0.998883 0.987844
1.00533 0.996902 0.989379
1.00496 0.99892 0.987714
1.00271 0.999938 0.990286
1.00118 1.00002 0.996891
1.00277 1.00006 0.990026
1.00122 1.00003 0.996857
1.00122 1.00008 0.996836
1.00499 0.999448 0.987131
1.00535 0.996922 0.989234
1.00523 0.994963 0.991248
1.003 1.00004 0.991299
1.00506 0.999636 0.98679
1.00538 0.997292 0.988784
1.00139 0.999958 0.996774
1.00302 1.00005 0.989651
1.00514 0.999793 0.986474
1.00151 0.999935 0.996775
1.00313 0.999961 0.989542
1.00152 0.999985 0.996852
1.00275 0.999872 0.990366
1.00492 0.999132 0.98755
1.00533 0.996615 0.989634
1.00109 0.999979 0.996964
1.00263 0.999874 0.990473
1.00491 0.998858 0.987841
1.0027 0.999912 0.990292
1.00114 1.00001 0.996917
1.00119 1.00005 0.996875
1.00295 0.99995 0.991521
1.00498 0.999452 0.987133
1.00535 0.996748 0.989439
1.00078 1.00001 0.997365
1.00288 1.00004 0.989907
1.00504 0.999651 0.986794
1.00142 0.999966 0.996773
1.003 1.00008 0.989647
1.00154 0.999944 0.996793
1.00108 0.999939 0.994122
1.00278 0.999877 0.991051
1.00491 0.998944 0.987737
1.00111 0.999982 0.996971
1.00264 0.999876 0.990475
1.00116 0.999996 0.996937
1.0006 0.999989 0.994562
1.00285 0.999932 0.990864
1.00496 0.999462 0.987134
1.00102 0.999994 0.995604
1.00286 1.00005 0.989928
1.00145 0.999968 0.996774
1.00111 0.999965 0.996963
1.00265 0.999865 0.99046
1.00108 0.999984 0.996969
1.00088 0.999963 0.995766
1.00275 0.999924 0.990261
1.00132 0.999985 0.996813
1.00114 0.999965 0.996966
1.00118 0.999973 0.996899

TENSORS stress float
0.00226563 -0.000156053 0.00026279
-0.000156053 0.00109231 -4.50735e-05
0.00026279 -4.50735e-05 0.0010661
0.00704656 6.57526e-05 0.000303942
6.57526e-05 0.00410997 3.48165e-05
0.000303942 3.48165e-05 0.00411618
0.001888 -8.62579e-05 0.00010988
-8.62579e-05 0.000853196 -1.76479e-05
0.00010988 -1.76479e-05 0.000815099
0.00225495 -8.88002e-05 0.000254539
-8.88002e-05 0.00106141 -2.58015e-05
0.000254539 -2.58015e-05 0.00104482
0.00229667 -0.000137224 0.000256774
-0.000137224 0.0011018 -3.96897e-05
0.000256774 -3.96897e-05 0.00107899
0.00229024 -0.000160635 0.000274681
-0.000160635 0.00110805 -4.67195e-05
0.000274681 -4.67195e-05 0.00108227
0.00186854 -0.00014684 5.18459e-05
-0.00014684 0.000747057 -1.44655e-05
5.18459e-05 -1.44655e-05 0.000631632
0.00697749 5.66048e-05 -7.63862e-06
5.66048e-05 0.00405789 -1.60082e-06
-7.63862e-06 -1.60082e-06 0.00406871
0.00660266 0.000218401 0.000150908
0.000218401 0.00382405 1.49801e-05
0.000150908 1.49801e-05 0.00379725
0.0066446 -1.95737e-05 8.62393e-05
-1.95737e-05 0.00383147 4.40502e-06
8.62393e-05 4.40502e-06 0.00381178
0.00198254 0.000202805 0.000279985
0.000202805 0.000922098 3.6981e-05
0.000279985 3.6981e-05 0.000911907
0.000423514 0.000260347 2.6731e-05
0.000260347 -0.000125154 2.04512e-05
2.6731e-05 2.04512e-05 -0.000265755
0.00183307 -3.26214e-05 0.000248039
-3.26214e-05 0.000796637 4.11803e-06
0.000248039 4.11803e-06 0.000798007
0.00148522 3.31773e-06 6.49787e-05
3.31773e-06 0.000598457 1.78437e-06
6.49787e-05 1.78437e-06 0.000551258
0.00159172 -8.55369e-05 -5.86075e-05
-8.55369e-05 0.000677804 1.07531e-05
-5.86075e-05 1.07531e-05 0.000622332
0.00189331 -8.81486e-05 8.32e-05
-8.81486e-05 0.000851878 -5.20348e-06
8.32e-05 -5.20348e-06 0.0008169
0.00191666 -7.52336e-05 0.000120236
-7.52336e-05 0.000876354 -1.9038e-05
0.000120236 -1.9038e-05 0.000834525
0.00189739 -9.32994e-05 9.80726e-05
-9.32994e-05 0.000852883 -1.36131e-05
9.80726e-05 -1.36131e-05 0.000817685
0.00195072 -0.000182993 -4.15772e-05
-0.000182993 0.000796941 6.12809e-06
-4.15772e-05 6.12809e-06 0.000690712
0.00620712 -0.000146717 0.000322555
-0.000146717 0.003585 -1.41201e-05
0.000322555 -1.41201e-05 0.00360374
0.00218289 -6.53406e-05 0.000250972
-6.53406e-05 0.00101737 -1.91665e-05
0.000250972 -1.91665e-05 0.00100405
0.00229091 -0.000113602 0.000255047
-0.000113602 0.00108929 -3.30129e-05
0.000255047 -3.30129e-05 0.00106986
0.00184126 -0.000141517 7.1932e-05
-0.000141517 0.000727007 -1.10613e-05
7.1932e-05 -1.10613e-05 0.000626639
0.00186487 -0.000150489 6.04283e-05
-0.000150489 0.000736987 -1.39739e-05
6.04283e-05 -1.39739e-05 0.000629725
0.00215686 -0.000139724 0.000276235
-0.000139724 0.00101626 -4.35401e-05
0.000276235 -4.35401e-05 0.000992621
0.00187901 -0.000144786 4.507e-05
-0.000144786 0.000772444 -1.47326e-05
4.507e-05 -1.47326e-05 0.000645039
0.00207492 -0.000337055 1.95127e-05
-0.000337055 0.000640541 -8.37715e-06
1.95127e-05 -8.37715e-06 0.000419877
0.00693186 4.10547e-05 -0.000301827
4.10547e-05 0.00401889 -2.51154e-05
-0.000301827 -2.51154e-05 0.00403434
0.0042963 0.000161396 -0.000148127
0.000161396 0.00236662 -1.68711e-05
-0.000148127 -1.68711e-05 0.00234388
0.00430379 7.68772e-05 -0.000148305
7.68772e-05 0.00237801 -1.49209e-05
-0.000148305 -1.49209e-05 0.00235667
0.00687056 -1.64356e-05 -3.55604e-06
-1.64356e-05 0.00400152 -5.51303e-07
-3.55604e-06 -5.51303e-07 0.00400836
0.000411024 0.000241804 -1.26884e-06
0.000241804 -0.000131008 -1.19195e-06
-1.26884e-06 -1.19195e-06 -0.000271284
0.00189402 7.05325e-05 0.000258151
7.05325e-05 0.000834274 2.43045e-05
0.000258151 2.43045e-05 0.000822013
0.00202372 0.000160712 0.000264932
0.000160712 0.000948673 3.75007e-05
0.000264932 3.75007e-05 0.000924173
0.00284287 0.00021441 0.000158272
0.00021441 0.0013434 2.32156e-05
0.000158272 2.32156e-05 0.00125902
0.00601192 -0.00028894 1.54507e-05
-0.00028894 0.00352648 4.71588e-06
1.54507e-05 4.71588e-06 0.0034721
0.00297647 0.000293326 0.00016597
0.000293326 0.00146886 2.88737e-05
0.00016597 2.88737e-05 0.00136813
0.000423199 0.000228401 2.63743e-05
0.000228401 -0.000118493 2.74049e-05
2.63743e-05 2.74049e-05 -0.000258632
0.000939933 0.00027317 1.44707e-05
0.00027317 3.24415e-05 6.27411e-06
1.44707e-05 6.27411e-06 -0.000195829
0.0048484 -0.000110761 0.000183374
-0.000110761 0.00278812 1.76313e-05
0.000183374 1.76313e-05 0.00278531
0.00618875 8.37948e-05 3.36518e-06
8.37948e-05 0.00355991 -1.89442e-06
3.36518e-06 -1.89442e-06 0.00358618
0.00406221 9.27062e-05 -0.000124183
9.27062e-05 0.00221672 -5.79985e-06
-0.000124183 -5.79985e-06 0.00220526
0.00603729 5.80867e-05 0.00031334
5.80867e-05 0.00346758 4.40847e-06
0.00031334 4.40847e-06 0.00349459
0.00144869 8.76352e-05 6.65632e-05
8.76352e-05 0.000581247 4.37631e-06
6.65632e-05 4.37631e-06 0.000538992
0.000500561 1.18716e-05 1.50912e-05
1.18716e-05 -0.000142151 1.83905e-06
1.50912e-05 1.83905e-06 -0.000229283
0.00645332 0.000238021 0.000182337
0.000238021 0.00375293 1.77245e-05
0.000182337 1.77245e-05 0.00372715
0.00286849 7.90262e-05 0.000148834
7.90262e-05 0.0013349 9.37842e-06
0.000148834 9.37842e-06 0.00127517
0.00145773 -8.82232e-05 -7.95378e-05
-8.82232e-05 0.000596426 1.02254e-05
-7.95378e-05 1.02254e-05 0.000542609
0.00151057 -0.000113074 -7.19211e-05
-0.000113074 0.000633484 1.2913e-05
-7.19211e-05 1.2913e-05 0.000575631
0.0016546 -4.39606e-05 -4.65882e-05
-4.39606e-05 0.000712634 8.99767e-06
-4.65882e-05 8.99767e-06 0.000656977
0.00199367 -0.000185064 -0.00014207
-0.000185064 0.000815264 2.66979e-05
-0.00014207 2.66979e-05 0.000720769
0.00389236 -2.236e-05 -0.000125753
-2.236e-05 0.00212106 -1.65045e-06
-0.000125753 -1.65045e-06 0.00210964
0.00182904 -6.85404e-05 8.76853e-05
-6.85404e-05 0.000809566 -4.0647e-06
8.76853e-05 -4.0647e-06 0.000779095
0.00193826 -5.26152e-05 0.00012586
-5.26152e-05 0.000890106 -1.8165e-05
0.00012586 -1.8165e-05 0.00084577
0.00190335 -9.15112e-05 8.90266e-05
-9.15112e-05 0.000855365 -8.92642e-06
8.90266e-05 -8.92642e-06 0.000820782
0.00191171 -0.000119311 -3.3772e-05
-0.000119311 0.000760066 2.39252e-06
-3.3772e-05 2.39252e-06 0.000671708
0.00196327 -0.000187274 -4.89404e-05
-0.000187274 0.000816482 7.02939e-06
-4.89404e-05 7.02939e-06 0.000702335
0.00194532 -0.00016766 -3.60117e-05
-0.00016766 0.000786408 4.37596e-06
-3.60117e-05 4.37596e-06 0.000687422
0.00208697 -0.000338773 -1.02294e-05
-0.000338773 0.000644793 2.70781e-06
-1.02294e-05 2.70781e-06 0.000424631
0.00602198 3.29733e-06 0.000309372
3.29733e-06 0.00345579 -2.52804e-06
0.000309372 -2.52804e-06 0.0034841
0.0021002 -4.0371e-05 0.000245542
-4.0371e-05 0.000969604 -1.32425e-05
0.000245542 -1.32425e-05 0.000960105
0.0024484 -1.05706e-05 5.28178e-05
-1.05706e-05 0.00109969 -1.04114e-06
5.28178e-05 -1.04114e-06 0.00103063
0.00178575 -0.000114565 6.39876e-05
-0.000114565 0.000688936 -7.30264e-06
6.39876e-05 -7.30264e-06 0.00059793
0.00185721 -0.000147581 6.77054e-05
-0.000147581 0.000734204 -1.30688e-05
6.77054e-05 -1.30688e-05 0.000630684
0.00192436 -0.000219589 1.04139e-05
-0.000219589 0.000469434 -2.96028e-06
1.04139e-05 -2.96028e-06 0.000298363
0.00192986 -0.000294988 1.64468e-05
-0.000294988 0.000508866 -6.07214e-06
1.64468e-05 -6.07214e-06 0.00031015
0.00189772 -9.39158e-05 0.000248388
-9.39158e-05 0.000856901 -3.51217e-05
0.000248388 -3.51217e-05 0.00083757
0.00184577 -0.000110936 3.4975e-05
-0.000110936 0.000766216 -1.37895e-05
3.4975e-05 -1.37895e-05 0.00063563
0.00207069 -0.000365782 2.06912e-05
-0.000365782 0.000683253 -9.36015e-06
2.06912e-05 -9.36015e-06 0.000444797
0.00172704 -0.000442645 7.464e-06
-0.000442645 0.000191331 -8.85604e-07
7.464e-06 -8.85604e-07 -7.63341e-05
0.00699587 0.000274475 -0.000352315
0.000274475 0.00407 -4.00539e-05
-0.000352315 -4.00539e-05 0.00407591
0.00673803 -4.42755e-05 -0.000269229
-4.42755e-05 0.0039204 -2.00165e-05
-0.000269229 -2.00165e-05 0.00392892
0.00694764 0.000119745 -0.000318751
0.000119745 0.00402334 -3.01392e-05
-0.000318751 -3.01392e-05 0.00404063
0.00041988 0.000235261 -2.54471e-05
0.000235261 -0.000119938 -2.06728e-05
-2.54471e-05 -2.06728e-05 -0.000262976
0.0068826 0.000245801 -2.48619e-06
0.000245801 0.00399396 -2.43864e-06
-2.48619e-06 -2.43864e-06 0.00400472
0.00700704 0.000225991 -9.11904e-06
0.000225991 0.00406884 -3.09855e-06
-9.11904e-06 -3.09855e-06 0.00407792
0.000352343 0.000134194 3.3392e-07
0.000134194 -0.000226814 -2.72439e-07
3.3392e-07 -2.72439e-07 -0.000343703
0.00375065 -8.75673e-05 -0.000121544
-8.75673e-05 0.0020791 -5.26288e-06
-0.000121544 -5.26288e-06 0.00204658
0.00035768 0.000214277 3.92096e-07
0.000214277 -0.000176196 -5.87165e-07
3.92096e-07 -5.87165e-07 -0.000312583
0.0017645 0.000237329 5.96217e-05
0.000237329 0.000728958 3.54543e-06
5.96217e-05 3.54543e-06 0.000612462
0.000833381 0.000262876 3.83175e-07
0.000262876 -2.66866e-05 1.8961e-07
3.83175e-07 1.8961e-07 -0.000252245
0.00567333 -0.000136371 0.00021022
-0.000136371 0.00331875 2.48659e-05
0.00021022 2.48659e-05 0.00330329
0.00064361 6.91348e-05 1.74577e-05
6.91348e-05 7.81949e-05 1.37916e-05
1.74577e-05 1.37916e-05 1.15367e-06
0.000461467 0.000104043 1.49387e-05
0.000104043 -0.000176615 1.07467e-05
1.49387e-05 1.07467e-05 -0.000287102
0.000464067 0.000162978 1.96264e-05
0.000162978 -0.0001436 1.83529e-05
1.96264e-05 1.83529e-05 -0.000268299
0.00119077 0.000260512 1.56458e-05
0.000260512 1.59412e-05 5.72915e-06
1.56458e-05 5.72915e-06 -0.000190399
0.00305986 0.000222399 0.000148366
0.000222399 0.00155524 2.12009e-05
0.000148366 2.12009e-05 0.00147315
0.000957826 0.000281534 1.73536e-05
0.000281534 -2.31925e-05 6.66233e-06
1.73536e-05 6.66233e-06 -0.000249219
0.000852418 0.00026713 1.32555e-05
0.00026713 7.95257e-05 5.84942e-06
1.32555e-05 5.84942e-06 -0.000153731
0.00131081 0.000440747 3.48264e-06
0.000440747 0.000149856 -2.00678e-06
3.48264e-06 -2.00678e-06 -0.000161756
0.00379324 -0.000126089 0.000116856
-0.000126089 0.00210981 8.07319e-06
0.000116856 8.07319e-06 0.00210745
0.0043639 -0.000168252 2.46654e-05
-0.000168252 0.00249135 -6.54469e-07
2.46654e-05 -6.54469e-07 0.00247555
0.00667616 6.50063e-05 -0.000333362
6.50063e-05 0.00384911 -1.69178e-05
-0.000333362 -1.69178e-05 0.00387397
0.00627438 7.50329e-05 -0.000323521
7.50329e-05 0.0036097 -1.02983e-05
-0.000323521 -1.02983e-05 0.00363699
0.00612892 8.39164e-05 -7.55076e-08
8.39164e-05 0.00352995 -3.89354e-06
-7.55076e-08 -3.89354e-06 0.00355384
0.0038956 3.46071e-05 -0.000134783
3.46071e-05 0.00211338 -7.20809e-06
-0.000134783 -7.20809e-06 0.00210743
0.00158692 3.912e-05 6.42451e-05
3.912e-05 0.000542074 1.79073e-06
6.42451e-05 1.79073e-06 0.000472818
0.00423224 0.00015267 -0.000126901
0.00015267 0.00232785 -7.62615e-06
-0.000126901 -7.62615e-06 0.00230831
0.00166109 9.38808e-05 6.59188e-05
9.38808e-05 0.0005804 3.28703e-06
6.59188e-05 3.28703e-06 0.000499211
0.00607627 0.000120079 0.000315954
0.000120079 0.00350579 7.30698e-06
0.000315954 7.30698e-06 0.00352477
0.000398032 1.04297e-05 1.83053e-05
1.04297e-05 -0.000201471 8.82983e-07
1.83053e-05 8.82983e-07 -0.000285025
0.00280685 4.10095e-05 0.000145453
4.10095e-05 0.0013023 6.2926e-06
0.000145453 6.2926e-06 0.0012489
0.00112108 6.76539e-05 1.14783e-05
6.76539e-05 -4.20144e-05 7.36647e-07
1.14783e-05 7.36647e-07 -0.000175817
0.00278968 0.000123754 0.000154067
0.000123754 0.001288 1.29079e-05
0.000154067 1.29079e-05 0.00122116
0.00122512 0.000152335 1.0869e-05
0.000152335 -8.66712e-06 1.38963e-06
1.0869e-05 1.38963e-06 -0.000167044
0.00184558 4.18154e-05 -0.000247027
4.18154e-05 0.000802324 3.24531e-06
-0.000247027 3.24531e-06 0.000805922
0.00144283 -1.91121e-05 -6.52648e-05
-1.91121e-05 0.000579926 3.04879e-06
-6.52648e-05 3.04879e-06 0.000532621
0.0016839 -1.11152e-05 -4.00626e-05
-1.11152e-05 0.000732343 8.52906e-06
-4.00626e-05 8.52906e-06 0.000674316
0.00147823 -0.00010535 -8.09082e-05
-0.00010535 0.000611975 1.26806e-05
-8.09082e-05 1.26806e-05 0.000556202
0.00204033 -9.81922e-05 -0.000134596
-9.81922e-05 0.000830266 1.28929e-05
-0.000134596 1.28929e-05 0.000753838
0.00203629 -0.000153995 -0.000137666
-0.000153995 0.000831378 2.25193e-05
-0.000137666 2.25193e-05 0.000745493
0.00197445 -0.000202446 -0.00014726
-0.000202446 0.000816463 2.84323e-05
-0.00014726 2.84323e-05 0.000714142
0.00210031 -0.000340066 -3.56968e-05
-0.000340066 0.000651108 1.25487e-05
-3.56968e-05 1.25487e-05 0.00043169
0.0061168 -0.00010786 2.35374e-06
-0.00010786 0.0035278 -1.91076e-06
2.35374e-06 -1.91076e-06 0.0035483
0.00173755 2.76314e-05 9.45471e-05
2.76314e-05 0.000745571 -4.73109e-06
9.45471e-05 -4.73109e-06 0.000724221
0.00116188 -1.17986e-05 -6.7266e-05
-1.17986e-05 0.00028039 2.10087e-06
-6.7266e-05 2.10087e-06 0.000210303
0.0018625 -7.85759e-05 -3.67014e-05
-7.85759e-05 0.000728825 3.05781e-06
-3.67014e-05 3.05781e-06 0.000647938
0.0044589 -4.84434e-05 0.000256014
-4.84434e-05 0.00248367 -1.8039e-05
0.000256014 -1.8039e-05 0.00247692
0.00252496 -0.000197043 -4.45887e-05
-0.000197043 0.00118174 4.21966e-06
-4.45887e-05 4.21966e-06 0.00106329
0.00193677 -0.000144609 -3.32793e-05
-0.000144609 0.000778215 3.10241e-06
-3.32793e-05 3.10241e-06 0.000685024
0.00199252 -0.000220239 -1.00268e-05
-0.000220239 0.000508331 1.79189e-06
-1.00268e-05 1.79189e-06 0.000340996
0.00207138 -0.000369534 -8.72355e-06
-0.000369534 0.000680279 2.38534e-06
-8.72355e-06 2.38534e-06 0.000441026
0.00200799 -0.000298141 -8.95121e-06
-0.000298141 0.000558435 2.34836e-06
-8.95121e-06 2.34836e-06 0.000358216
0.00177665 -0.000445548 9.09584e-07
-0.000445548 0.000223989 -1.53606e-07
9.09584e-07 -1.53606e-07 -4.33363e-05
0.000434368 9.31396e-06 1.91184e-05
9.31396e-06 -0.000182338 -6.546e-07
1.91184e-05 -6.546e-07 -0.000262387
0.00169939 -5.96045e-06 5.44302e-05
-5.96045e-06 0.000625076 -2.81376e-06
5.44302e-05 -2.81376e-06 0.00054768
0.001853 -7.24201e-05 9.99598e-06
-7.24201e-05 0.000422376 -3.93086e-07
9.99598e-06 -3.93086e-07 0.000303074
0.00183055 -0.000172515 1.03728e-05
-0.000172515 0.000399502 -1.41641e-06
1.03728e-05 -1.41641e-06 0.000249211
0.00192986 -0.000257645 1.25023e-05
-0.000257645 0.000482251 -4.01943e-06
1.25023e-05 -4.01943e-06 0.000301535
0.00191376 -0.000310468 4.36966e-07
-0.000310468 0.000176471 -2.67914e-07
4.36966e-07 -2.67914e-07 -1.67624e-06
0.00634802 9.3586e-05 0.000229127
9.3586e-05 0.00369977 -1.80018e-05
0.000229127 -1.80018e-05 0.00369734
0.00172817 -0.000406662 4.71238e-06
-0.000406662 0.000137947 -7.34728e-07
4.71238e-06 -7.34728e-07 -9.93516e-05
0.000215281 -0.000184348 2.02937e-05
-0.000184348 -0.000259707 -2.17174e-05
2.02937e-05 -2.17174e-05 -0.000383826
0.000942181 -0.000288193 1.55339e-05
-0.000288193 3.56509e-05 -9.12101e-06
1.55339e-05 -9.12101e-06 -0.000204652
0.00183763 -0.0004945 1.08716e-05
-0.0004945 0.000324169 -1.70197e-06
1.08716e-05 -1.70197e-06 1.79226e-05
0.00195021 -0.000514608 2.68545e-06
-0.000514608 0.00022493 2.02525e-06
2.68545e-06 2.02525e-06 -2.87305e-05
0.000453123 -0.000151917 2.25383e-05
-0.000151917 -7.33776e-05 -1.71789e-05
2.25383e-05 -1.71789e-05 -0.000178224
0.000701468 -0.000140243 -4.45952e-07
-0.000140243 0.000132451 -4.60655e-07
-4.45952e-07 -4.60655e-07 -0.000111974
0.00695617 0.000269858 -0.000359982
0.000269858 0.00404611 -3.77844e-05
-0.000359982 -3.77844e-05 0.00405359
0.00698969 0.000214028 -0.000338584
0.000214028 0.00405598 -3.66736e-05
-0.000338584 -3.66736e-05 0.00406881
0.000336416 0.000131762 -1.8364e-05
0.000131762 -0.000238351 -1.32085e-05
-1.8364e-05 -1.32085e-05 -0.000355522
0.00600062 -0.000118885 -0.000213685
-0.000118885 0.00349294 -1.57791e-05
-0.000213685 -1.57791e-05 0.00348908
0.000309618 0.000204393 -2.30211e-05
0.000204393 -0.000189648 -2.10096e-05
-2.30211e-05 -2.10096e-05 -0.000314189
0.000314422 0.000198172 -2.06694e-05
0.000198172 -0.000201197 -1.86163e-05
-2.06694e-05 -1.86163e-05 -0.000338248
0.00091692 0.000265651 -1.58353e-05
0.000265651 2.94292e-05 -6.74005e-06
-1.58353e-05 -6.74005e-06 -0.000195129
0.00543452 -0.000123562 -2.55026e-06
-0.000123562 0.00315354 1.0807e-06
-2.55026e-06 1.0807e-06 0.00314702
0.000495766 5.43914e-05 1.76364e-06
5.43914e-05 -1.10238e-05 3.93051e-07
1.76364e-06 3.93051e-07 -8.4865e-05
0.00167674 0.000146369 6.78053e-05
0.000146369 0.000591925 5.99675e-06
6.78053e-05 5.99675e-06 0.00049713
0.00165639 0.000208764 6.92098e-05
0.000208764 0.000614316 6.85423e-06
6.92098e-05 6.85423e-06 0.000503938
0.0011583 0.000259323 4.64397e-08
0.000259323 1.00425e-06 -2.97786e-07
4.64397e-08 -2.97786e-07 -0.000206228
0.000440382 0.000178164 -1.5615e-07
0.000178164 -9.03945e-05 -4.33037e-07
-1.5615e-07 -4.33037e-07 -0.000199199
0.00102164 0.000282527 1.18399e-06
0.000282527 2.50927e-05 2.52198e-08
1.18399e-06 2.52198e-08 -0.000200476
0.00082141 0.000254107 4.0995e-07
0.000254107 5.27224e-05 -9.60498e-07
4.0995e-07 -9.60498e-07 -0.000175057
0.00146005 0.000463582 -4.75052e-07
0.000463582 0.000229677 -4.4897e-07
-4.75052e-07 -4.4897e-07 -8.56623e-05
0.000436007 0.000130721 1.88204e-05
0.000130721 -6.77223e-05 1.67069e-05
1.88204e-05 1.67069e-05 -0.00016748
0.00063797 1.67338e-05 9.55529e-06
1.67338e-05 8.59051e-05 1.2439e-05
9.55529e-06 1.2439e-05 2.84169e-05
0.00136287 0.000202989 4.91826e-06
0.000202989 0.000569653 3.54664e-06
4.91826e-06 3.54664e-06 0.000349121
0.00121647 0.000227401 1.18772e-05
0.000227401 -2.00687e-06 4.08574e-06
1.18772e-05 4.08574e-06 -0.00019226
0.00112569 0.000283569 1.83031e-05
0.000283569 2.47062e-05 6.69151e-06
1.83031e-05 6.69151e-06 -0.000195609
0.00192525 0.000435924 3.81633e-06
0.000435924 0.000239514 -2.01524e-07
3.81633e-06 -2.01524e-07 -2.2275e-06
0.000663914 0.000221032 9.89734e-06
0.000221032 2.52201e-05 5.87618e-06
9.89734e-06 5.87618e-06 -0.000196235
0.00184636 0.000507139 4.62713e-06
0.000507139 0.000358669 -1.28421e-06
4.62713e-06 -1.28421e-06 5.77632e-05
0.00116004 0.000412884 1.57699e-06
0.000412884 0.000154679 -2.58214e-06
1.57699e-06 -2.58214e-06 -0.000168641
0.00156765 0.000546629 -5.66322e-06
0.000546629 0.000196018 -5.07157e-06
-5.66322e-06 -5.07157e-06 -0.000138066
0.00335741 -0.000134093 7.56518e-05
-0.000134093 0.00182845 4.45199e-06
7.56518e-05 4.45199e-06 0.00182436
0.00372966 -0.000164988 1.48304e-05
-0.000164988 0.0020773 -9.27783e-07
1.48304e-05 -9.27783e-07 0.00206456
0.00419475 -0.00020961 -8.69364e-05
-0.00020961 0.00239032 -7.27804e-06
-8.69364e-05 -7.27804e-06 0.0023643
0.000523777 -0.000138685 2.18967e-05
-0.000138685 -1.05192e-05 -1.52545e-05
2.18967e-05 -1.52545e-05 -0.000101666
0.00575681 0.000140975 0.000190046
0.000140975 0.0033616 -1.82379e-05
0.000190046 -1.82379e-05 0.00334713
0.00688687 0.000226346 -0.000358811
0.000226346 0.00399618 -3.12427e-05
-0.000358811 -3.12427e-05 0.00401038
0.00639182 9.85579e-05 -0.000327813
9.85579e-05 0.00367921 -1.45115e-05
-0.000327813 -1.45115e-05 0.003705
0.00038589 9.73518e-05 -1.90008e-05
9.73518e-05 -0.00021859 -5.56782e-06
-1.90008e-05 -5.56782e-06 -0.00031748
0.000389371 4.35754e-05 -1.88416e-05
4.35754e-05 -0.000207035 -2.78405e-06
-1.88416e-05 -2.78405e-06 -0.000294883
0.00607419 -5.10495e-06 -0.000311172
-5.10495e-06 0.00348663 -2.7651e-06
-0.000311172 -2.7651e-06 0.0035151
0.00601363 4.64806e-06 -1.1191e-07
4.64806e-06 0.00345014 -1.05612e-06
-1.1191e-07 -1.05612e-06 0.00347873
0.000376786 8.24338e-07 -5.29773e-08
8.24338e-07 -0.000217537 1.73831e-07
-5.29773e-08 1.73831e-07 -0.000299305
0.00156211 4.06224e-05 6.48276e-05
4.06224e-05 0.000521056 3.06061e-06
6.48276e-05 3.06061e-06 0.000448812
0.00108811 7.11999e-05 -3.1287e-08
7.11999e-05 -6.74821e-05 -6.51691e-08
-3.1287e-08 -6.51691e-08 -0.000202273
0.000389235 8.63981e-05 -7.09292e-07
8.63981e-05 -0.00022043 -3.8616e-07
-7.09292e-07 -3.8616e-07 -0.000325796
0.00116412 0.000152565 -1.84052e-07
0.000152565 -4.55636e-05 -2.10425e-07
-1.84052e-07 -2.10425e-07 -0.000205279
0.000372738 -3.18895e-05 1.8904e-05
-3.18895e-05 -0.000221323 -8.1624e-07
1.8904e-05 -8.1624e-07 -0.00030032
0.00107329 2.95123e-05 1.12092e-05
2.95123e-05 -6.09501e-05 3.461e-07
1.12092e-05 3.461e-07 -0.000189141
0.00114367 0.000109978 1.11315e-05
0.000109978 -4.25608e-05 1.12162e-06
1.11315e-05 1.12162e-06 -0.000187237
0.0018567 0.000112691 8.07091e-07
0.000112691 5.50419e-05 -4.1983e-07
8.07091e-07 -4.1983e-07 -4.59875e-05
0.0012388 0.000189188 1.01785e-05
0.000189188 -2.46718e-06 2.52968e-06
1.01785e-05 2.52968e-06 -0.000176037
0.00201674 0.000262154 6.86183e-07
0.000262154 0.000169226 -7.1644e-07
6.86183e-07 -7.1644e-07 2.6079e-05
0.00603412 -6.9426e-05 -0.000315028
-6.9426e-05 0.00347011 3.41939e-06
-0.000315028 3.41939e-06 0.00349463
0.00138589 -0.000158114 -6.61685e-05
-0.000158114 0.000562133 8.15488e-06
-6.61685e-05 8.15488e-06 0.000509953
-0.00024279 -7.03727e-06 -1.19217e-05
-7.03727e-06 -0.000598309 1.74989e-06
-1.19217e-05 1.74989e-06 -0.000694547
0.00197421 -6.98751e-05 -0.000131864
-6.98751e-05 0.000791879 8.98441e-06
-0.000131864 8.98441e-06 0.000720763
0.0067331 0.000252513 -3.51241e-05
0.000252513 0.00393933 3.64501e-06
-3.51241e-05 3.64501e-06 0.00389098
0.00315692 -0.000279861 -0.00015225
-0.000279861 0.00157643 2.94523e-05
-0.00015225 2.94523e-05 0.00146344
0.00205193 -0.000124862 -0.000135663
-0.000124862 0.000837811 1.76064e-05
-0.000135663 1.76064e-05 0.000757652
0.00205426 -0.00022017 -3.05029e-05
-0.00022017 0.000543004 5.62728e-06
-3.05029e-05 5.62728e-06 0.000379669
0.00206495 -0.00030016 -3.22778e-05
-0.00030016 0.000593615 1.08056e-05
-3.22778e-05 1.08056e-05 0.000392222
0.00207281 -0.000372 -3.55027e-05
-0.000372 0.00067728 1.34281e-05
-3.55027e-05 1.34281e-05 0.000437811
0.001829 -0.000448881 -5.99013e-06
-0.000448881 0.000257743 7.70468e-07
-5.99013e-06 7.70468e-07 -9.34322e-06
0.00037579 4.26134e-06 -2.23528e-08
4.26134e-06 -0.000217056 3.36381e-07
-2.23528e-08 3.36381e-07 -0.000298106
0.00183339 -8.86247e-05 -3.52134e-05
-8.86247e-05 0.000716 5.24473e-07
-3.52134e-05 5.24473e-07 0.000640077
0.00150512 -6.80229e-05 -1.10323e-05
-6.80229e-05 0.000203201 7.40613e-07
-1.10323e-05 7.40613e-07 7.96601e-05
0.00191739 -0.000173701 -9.45533e-06
-0.000173701 0.000453544 1.492e-06
-9.45533e-06 1.492e-06 0.000301598
0.00657209 9.2572e-05 5.15349e-06
9.2572e-05 0.00384261 4.88214e-07
5.15349e-06 4.88214e-07 0.00383806
0.00175305 -0.000191296 5.63125e-06
-0.000191296 0.000719145 7.32864e-07
5.63125e-06 7.32864e-07 0.000585539
0.00135554 -0.000318726 1.67838e-06
-0.000318726 0.000294118 -1.1623e-06
1.67838e-06 -1.1623e-06 5.13011e-05
0.00197557 -0.000260623 -9.39424e-06
-0.000260623 0.000508684 2.43571e-06
-9.39424e-06 2.43571e-06 0.000327322
0.00199101 -0.000316733 -1.84417e-07
-0.000316733 0.000221532 -7.59149e-08
-1.84417e-07 -7.59149e-08 4.93102e-05
0.00182852 -0.000493433 9.23653e-07
-0.000493433 0.000321119 -2.55886e-07
9.23653e-07 -2.55886e-07 1.6519e-05
0.0018498 -0.00041135 5.1227e-07
-0.00041135 0.000217662 -2.32764e-07
5.1227e-07 -2.32764e-07 -2.02403e-05
0.00198998 -0.00051602 8.5425e-07
-0.00051602 0.000254342 1.53626e-07
8.5425e-07 1.53626e-07 8.28558e-07
0.000460188 -0.000164626 2.00565e-06
-0.000164626 -7.45882e-05 5.02034e-07
2.00565e-06 5.02034e-07 -0.000179164
0.000682613 -0.000181357 1.30812e-06
-0.000181357 0.000112334 2.75114e-07
1.30812e-06 2.75114e-07 -0.000124108
0.00107389 -3.36469e-05 1.14743e-05
-3.36469e-05 -5.63141e-05 -5.67716e-07
1.14743e-05 -5.67716e-07 -0.000184804
0.0019179 -0.000119489 9.25857e-06
-0.000119489 0.00045975 -7.28759e-07
9.25857e-06 -7.28759e-07 0.000328307
0.00183632 -0.000120575 1.12867e-06
-0.000120575 7.18058e-05 6.24548e-08
1.12867e-06 6.24548e-08 -4.02585e-05
0.00182906 -0.000254704 -1.59957e-07
-0.000254704 8.7976e-05 6.97167e-07
-1.59957e-07 6.97167e-07 -5.40812e-05
0.00184846 -0.00036683 2.86653e-07
-0.00036683 0.000164667 2.56952e-07
2.86653e-07 2.56952e-07 -3.83651e-05
0.00209812 -0.000358054 3.08107e-06
-0.000358054 0.000180634 -7.15123e-07
3.08107e-06 -7.15123e-07 4.24928e-05
0.000325322 -0.000170921 2.01255e-05
-0.000170921 -0.000168528 -2.06123e-05
2.01255e-05 -2.06123e-05 -0.000286749
0.00199348 -0.00047423 1.04216e-06
-0.00047423 0.000201259 1.40917e-06
1.04216e-06 1.40917e-06 -1.03114e-05
0.000631154 -0.000248835 1.0865e-05
-0.000248835 -6.56023e-05 -8.94204e-06
1.0865e-05 -8.94204e-06 -0.000300525
0.0015329 -0.000509384 1.24321e-05
-0.000509384 0.000226551 -1.9942e-06
1.24321e-05 -1.9942e-06 -0.000115137
0.00216292 -0.000577969 3.91901e-06
-0.000577969 0.000426782 1.06059e-06
3.91901e-06 1.06059e-06 0.000117497
0.00226794 -0.000553231 -3.88197e-07
-0.000553231 0.000387549 3.87606e-06
-3.88197e-07 3.87606e-06 0.000163193
0.000527759 -0.000207399 1.17049e-06
-0.000207399 -4.67023e-06 -4.0599e-06
1.17049e-06 -4.0599e-06 -0.000258866
0.000779428 -0.000125536 -5.23375e-08
-0.000125536 0.0002034 -1.22505e-06
-5.23375e-08 -1.22505e-06 -1.06191e-05
0.000824071 -0.000266427 -9.00352e-07
-0.000266427 0.000184953 2.7151e-06
-9.00352e-07 2.7151e-06 -0.000106031
0.00035782 0.000109914 -1.74807e-05
0.000109914 -0.000236995 -1.02177e-05
-1.74807e-05 -1.02177e-05 -0.000348714
0.00494061 -0.000175158 -0.000147236
-0.000175158 0.00285627 -1.18667e-05
-0.000147236 -1.18667e-05 0.00283851
0.000336851 4.29813e-05 -1.23881e-05
4.29813e-05 -0.000108418 -1.36364e-05
-1.23881e-05 -1.36364e-05 -0.000176101
0.000320141 0.000163206 -1.97627e-05
0.000163206 -0.000225258 -1.62003e-05
-1.97627e-05 -1.62003e-05 -0.000351327
0.00113294 0.000258863 -1.66486e-05
0.000258863 -9.84665e-06 -6.30091e-06
-1.66486e-05 -6.30091e-06 -0.000218042
0.000427299 0.000167457 -2.28559e-05
0.000167457 -0.00010005 -1.90617e-05
-2.28559e-05 -1.90617e-05 -0.0002076
0.000606099 0.000232741 -1.16763e-05
0.000232741 -8.16804e-05 -7.72326e-06
-1.16763e-05 -7.72326e-06 -0.000303402
0.0010063 0.000277774 -1.76696e-05
0.000277774 2.50533e-05 -7.54596e-06
-1.76696e-05 -7.54596e-06 -0.000199419
0.00156521 0.00048177 -4.97372e-06
0.00048177 0.000281944 9.18117e-07
-4.97372e-06 9.18117e-07 -3.60759e-05
0.000489269 0.000128401 -1.14247e-06
0.000128401 -4.14564e-05 1.3277e-06
-1.14247e-06 1.3277e-06 -0.000133663
0.000446842 -4.54409e-06 6.61241e-07
-4.54409e-06 -2.54165e-05 5.67151e-07
6.61241e-07 5.67151e-07 -8.27269e-05
0.000717177 0.000131973 2.57639e-06
0.000131973 0.000150578 -6.4596e-07
2.57639e-06 -6.4596e-07 -5.30459e-05
0.00119389 0.000227459 -1.2995e-07
0.000227459 -1.07939e-05 -3.10949e-07
-1.2995e-07 -3.10949e-07 -0.000202182
0.00110228 0.000280617 3.43879e-07
0.000280617 1.51765e-05 -2.00226e-07
3.43879e-07 -2.00226e-07 -0.000205046
0.00190222 0.000434313 -3.11375e-07
0.000434313 0.000223668 -1.29931e-07
-3.11375e-07 -1.29931e-07 -1.82106e-05
0.000669488 0.000223579 -3.19318e-07
0.000223579 3.21323e-05 7.40218e-08
-3.19318e-07 7.40218e-08 -0.000187378
0.00181605 0.000502256 -3.93566e-07
0.000502256 0.000334897 -3.95573e-07
-3.93566e-07 -3.95573e-07 3.34261e-05
0.00134715 0.000435385 -8.18145e-08
0.000435385 0.000271184 -1.0575e-06
-8.18145e-08 -1.0575e-06 -5.71368e-05
0.00156118 0.000556729 -6.39218e-07
0.000556729 0.000174478 1.81691e-06
-6.39218e-07 1.81691e-06 -0.000159446
0.000513061 -1.65156e-05 2.84718e-06
-1.65156e-05 1.29338e-05 1.06918e-05
2.84718e-06 1.06918e-05 -3.37263e-05
0.00104653 0.000193348 5.67484e-06
0.000193348 0.000323259 2.92216e-06
5.67484e-06 2.92216e-06 0.000100262
0.00101059 8.38327e-05 1.46906e-06
8.38327e-05 0.000328375 6.06098e-06
1.46906e-06 6.06098e-06 0.000167162
0.000994575 0.000216566 8.39085e-07
0.000216566 0.000337277 8.28984e-07
8.39085e-07 8.28984e-07 6.39399e-05
0.00196965 0.000385226 1.00604e-06
0.000385226 0.000205989 -1.78472e-06
1.00604e-06 -1.78472e-06 -4.91136e-07
0.00186739 0.000478151 4.81527e-06
0.000478151 0.000279308 -2.81434e-07
4.81527e-06 -2.81434e-07 3.13213e-06
0.00209378 0.000502561 6.02384e-08
0.000502561 0.000251564 -1.21541e-06
6.02384e-08 -1.21541e-06 2.34122e-05
0.000935813 0.000333486 3.9509e-06
0.000333486 8.15231e-05 2.51354e-07
3.9509e-06 2.51354e-07 -0.000205527
0.0022617 0.000626157 -3.9623e-06
0.000626157 0.000503932 -2.48913e-06
-3.9623e-06 -2.48913e-06 0.000192992
0.00188847 0.000600487 -4.25757e-06
0.000600487 0.00050937 -7.1946e-06
-4.25757e-06 -7.1946e-06 0.000118191
0.00191939 0.000604464 -1.06064e-06
0.000604464 0.000302238 -2.16918e-06
-1.06064e-06 -2.16918e-06 -2.16687e-05
0.000568087 5.2047e-05 2.09931e-06
5.2047e-05 6.3383e-05 5.00643e-06
2.09931e-06 5.00643e-06 -1.6416e-05
0.000476822 -1.42295e-05 2.02908e-06
-1.42295e-05 -2.29687e-05 7.6132e-06
2.02908e-06 7.6132e-06 -5.42249e-05
0.00293341 -0.00012267 4.89753e-05
-0.00012267 0.00155188 4.3493e-06
4.89753e-05 4.3493e-06 0.00155049
0.00321061 -0.000148865 9.13665e-06
-0.000148865 0.00173865 -9.01434e-07
9.13665e-06 -9.01434e-07 0.00173011
0.00353592 -0.000180285 -6.02836e-05
-0.000180285 0.00195805 -4.55308e-06
-6.02836e-05 -4.55308e-06 0.00194025
0.000424005 -0.000118969 1.889e-05
-0.000118969 -4.93199e-05 -1.45698e-05
1.889e-05 -1.45698e-05 -0.000126931
0.00520364 0.000170637 0.000151443
0.000170637 0.00303056 -1.70875e-05
0.000151443 -1.70875e-05 0.00300841
0.000496144 -0.000137613 1.00081e-06
-0.000137613 -2.8988e-05 4.48721e-07
1.00081e-06 4.48721e-07 -0.0001244
0.00597489 0.000122347 5.42132e-06
0.000122347 0.00349271 7.74317e-07
5.42132e-06 7.74317e-07 0.00348084
0.000370231 0.000111626 -1.8494e-05
0.000111626 -0.000229877 -7.94635e-06
-1.8494e-05 -7.94635e-06 -0.000337476
0.000417766 3.55021e-05 -1.79256e-05
3.55021e-05 -0.000197073 -3.20297e-06
-1.79256e-05 -3.20297e-06 -0.000287783
0.0011365 0.000152832 -1.07527e-05
0.000152832 -6.2689e-05 -1.73209e-06
-1.07527e-05 -1.73209e-06 -0.00022351
0.00106885 7.39389e-05 -1.15858e-05
7.39389e-05 -8.42677e-05 -8.0531e-07
-1.15858e-05 -8.0531e-07 -0.000219831
0.00043031 -7.65357e-06 -1.89756e-05
-7.65357e-06 -0.000187091 -7.92095e-07
-1.89756e-05 -7.92095e-07 -0.000267107
0.00610637 -0.000100517 -0.000321873
-0.000100517 0.00352014 5.63892e-06
-0.000321873 5.63892e-06 0.00354265
0.000420399 -2.48367e-06 8.30127e-08
-2.48367e-06 -0.000192381 -6.87175e-07
8.30127e-08 -6.87175e-07 -0.000271269
0.00105476 3.48101e-05 -9.76676e-08
3.48101e-05 -7.44429e-05 5.27586e-08
-9.76676e-08 5.27586e-08 -0.000203135
0.00115189 0.00011291 -1.85207e-07
0.00011291 -4.28562e-05 2.25195e-08
-1.85207e-07 2.25195e-08 -0.000188411
0.00187797 0.000111368 -1.82998e-07
0.000111368 7.69798e-05 3.05233e-07
-1.82998e-07 3.05233e-07 -2.38478e-05
0.00118723 0.000190182 -3.30134e-07
0.000190182 -3.13234e-05 -2.6618e-07
-3.30134e-07 -2.6618e-07 -0.00020648
0.00194849 0.000258461 -1.51623e-07
0.000258461 0.000125278 1.86535e-07
-1.51623e-07 1.86535e-07 -1.78252e-05
0.00104733 -3.80426e-06 1.12692e-05
-3.80426e-06 -7.22015e-05 -3.03962e-07
1.12692e-05 -3.03962e-07 -0.00019927
0.00183596 5.37069e-05 1.61254e-06
5.37069e-05 5.25283e-05 -7.16211e-09
1.61254e-06 -7.16211e-09 -3.98507e-05
0.00193894 0.000185238 4.77113e-07
0.000185238 0.000110591 -9.16548e-07
4.77113e-07 -9.16548e-07 -8.03066e-06
0.00205888 0.000140526 4.29252e-06
0.000140526 7.23446e-05 8.48339e-07
4.29252e-06 8.48339e-07 2.44062e-05
0.00198466 0.000326494 9.10305e-07
0.000326494 0.000166295 -1.06746e-06
9.10305e-07 -1.06746e-06 -6.35522e-06
0.00202439 0.0002856 2.45038e-06
0.0002856 7.20314e-05 1.84045e-07
2.45038e-06 1.84045e-07 -3.07276e-05
0.000405462 -2.98751e-06 -1.81419e-05
-2.98751e-06 -0.000195148 8.71028e-07
-1.81419e-05 8.71028e-07 -0.000278431
0.00193007 -4.42874e-05 -0.000129388
-4.42874e-05 0.000766728 6.06861e-06
-0.000129388 6.06861e-06 0.0007017
0.00112103 -6.28853e-05 -1.84715e-05
-6.28853e-05 -3.84526e-05 1.6571e-06
-1.84715e-05 1.6571e-06 -0.000166626
0.00197523 -0.000173565 -2.85496e-05
-0.000173565 0.000488341 4.32532e-06
-2.85496e-05 4.32532e-06 0.000334934
0.00676797 7.02193e-05 -0.00026201
7.02193e-05 0.00395926 2.5944e-05
-0.00026201 2.5944e-05 0.00395673
0.00328995 -0.000267598 -0.000159657
-0.000267598 0.00167859 2.48949e-05
-0.000159657 2.48949e-05 0.0015753
0.00207669 -0.000380186 -2.85877e-05
-0.000380186 0.000743004 1.14877e-05
-2.85877e-05 1.14877e-05 0.000491548
0.0020037 -0.000262575 -3.07074e-05
-0.000262575 0.000523918 8.3223e-06
-3.07074e-05 8.3223e-06 0.000342156
0.00206386 -0.000322914 -2.39237e-06
-0.000322914 0.000263395 -3.2119e-07
-2.39237e-06 -3.2119e-07 9.70427e-05
0.00197143 -0.000415872 -3.70568e-06
-0.000415872 0.000298698 1.05345e-06
-3.70568e-06 1.05345e-06 6.0201e-05
0.0018248 -0.000492918 -8.62326e-06
-0.000492918 0.000320006 7.44233e-07
-8.62326e-06 7.44233e-07 1.70582e-05
0.00202631 -0.000517597 -9.76862e-07
-0.000517597 0.000280248 -1.75425e-06
-9.76862e-07 -1.75425e-06 2.67791e-05
0.000434062 -0.000172065 -2.1149e-05
-0.000172065 -8.55918e-05 1.85e-05
-2.1149e-05 1.85e-05 -0.000196223
0.000679648 -0.000206933 -2.1672e-07
-0.000206933 0.00011341 2.07075e-07
-2.1672e-07 2.07075e-07 -0.000124604
0.00107789 -2.8611e-05 4.08667e-07
-2.8611e-05 -5.57191e-05 5.00419e-08
4.08667e-07 5.00419e-08 -0.00018084
0.00190277 -0.000119716 -9.59546e-06
-0.000119716 0.000447474 1.2179e-06
-9.59546e-06 1.2179e-06 0.000316225
0.00186665 -0.000117504 4.62327e-07
-0.000117504 8.83715e-05 -2.31735e-07
4.62327e-07 -2.31735e-07 -1.86331e-05
0.00185221 -0.000255086 -2.64881e-06
-0.000255086 0.000109673 8.31414e-07
-2.64881e-06 8.31414e-07 -3.93966e-05
0.000424423 -0.000192624 2.95608e-07
-0.000192624 -0.000107542 2.0208e-07
2.95608e-07 2.0208e-07 -0.000226968
0.000801194 -0.000263757 -4.8535e-07
-0.000263757 3.23514e-05 -2.07268e-07
-4.8535e-07 -2.07268e-07 -0.000206207
0.00150256 -0.00050413 1.84102e-06
-0.00050413 0.000214617 -2.29633e-07
1.84102e-06 -2.29633e-07 -0.000127436
0.00189531 -0.00036813 -2.90038e-06
-0.00036813 0.000197672 8.78335e-07
-2.90038e-06 8.78335e-07 -8.5449e-06
0.00207625 -0.000359358 2.32873e-06
-0.000359358 0.000158126 -9.67514e-07
2.32873e-06 -9.67514e-07 2.54224e-05
0.00220777 -0.000586648 -6.35966e-07
-0.000586648 0.000450056 -6.93499e-07
-6.35966e-07 -6.93499e-07 0.000142107
0.0020209 -0.000476065 5.61092e-07
-0.000476065 0.000220385 -4.06581e-10
5.61092e-07 -4.06581e-10 8.3727e-06
0.00211076 -0.000545702 7.35699e-07
-0.000545702 0.000282323 8.49334e-07
7.35699e-07 8.49334e-07 5.74224e-05
0.000639591 -0.000206364 4.18267e-07
-0.000206364 6.56814e-05 -4.52408e-07
4.18267e-07 -4.52408e-07 -0.000186649
0.000669429 -0.000205985 1.2139e-06
-0.000205985 6.05456e-05 1.02219e-06
1.2139e-06 1.02219e-06 -0.000210316
0.00074196 -0.000148176 4.90404e-07
-0.000148176 0.000181673 1.17235e-07
4.90404e-07 1.17235e-07 -3.67714e-05
0.00181928 -5.46997e-05 1.24941e-06
-5.46997e-05 6.21095e-05 -6.59904e-08
1.24941e-06 -6.59904e-08 -3.97434e-05
0.00197108 -0.000184157 -1.37658e-06
-0.000184157 0.000160315 6.29318e-07
-1.37658e-06 6.29318e-07 4.00199e-05
0.00200024 -0.000132114 6.57506e-06
-0.000132114 5.28337e-05 -9.13142e-07
6.57506e-06 -9.13142e-07 -7.52112e-06
0.00202088 -0.000295582 1.54835e-06
-0.000295582 9.33004e-05 -3.85543e-07
1.54835e-06 -3.85543e-07 -7.54647e-06
0.00192596 -0.000423582 -5.43692e-07
-0.000423582 0.000107554 1.54082e-06
-5.43692e-07 1.54082e-06 -6.32005e-05
0.0021507 -0.000382504 4.00187e-06
-0.000382504 0.000144725 -1.2435e-06
4.00187e-06 -1.2435e-06 5.1361e-05
0.000639476 -0.000240644 6.73713e-06
-0.000240644 1.47962e-05 -7.62435e-06
6.73713e-06 -7.62435e-06 -0.000221202
0.0019817 -0.000501478 4.31602e-07
-0.000501478 0.000145457 1.03795e-06
4.31602e-07 1.03795e-06 -3.91134e-05
0.00134565 -0.000467894 8.9534e-06
-0.000467894 0.000266818 -3.16313e-06
8.9534e-06 -3.16313e-06 -8.15641e-05
0.00189836 -0.000652571 6.59158e-06
-0.000652571 0.000351428 2.03028e-06
6.59158e-06 2.03028e-06 -3.22935e-05
0.00226781 -0.000615252 5.53949e-06
-0.000615252 0.000444577 3.59598e-06
5.53949e-06 3.59598e-06 0.000153848
0.00231645 -0.000576571 -1.5593e-06
-0.000576571 0.000423117 2.02654e-06
-1.5593e-06 2.02654e-06 0.000205227
0.000443262 -0.00011783 -3.41424e-07
-0.00011783 1.03158e-05 -5.88267e-06
-3.41424e-07 -5.88267e-06 -0.000174893
0.00126388 -0.000316017 2.54228e-07
-0.000316017 0.000366003 -3.50201e-06
2.54228e-07 -3.50201e-06 9.88097e-05
0.000655442 -0.000216893 -1.5761e-07
-0.000216893 0.000161215 6.26862e-06
-1.5761e-07 6.26862e-06 -0.000168609
0.00177034 -0.000401157 -3.87713e-06
-0.000401157 0.000705482 3.80844e-06
-3.87713e-06 3.80844e-06 0.00038964
0.00115622 0.00022706 -1.30543e-05
0.00022706 -2.96135e-05 -4.64975e-06
-1.30543e-05 -4.64975e-06 -0.000222149
0.000303753 -3.06742e-05 1.29444e-06
-3.06742e-05 -9.94594e-05 -1.32036e-05
1.29444e-06 -1.32036e-05 -0.000163358
0.000427783 0.00010626 -2.13551e-05
0.00010626 -7.84131e-05 -1.43921e-05
-2.13551e-05 -1.43921e-05 -0.00016534
-3.64376e-05 0.000106518 -2.9797e-06
0.000106518 -0.000307482 -2.57044e-06
-2.9797e-06 -2.57044e-06 -0.000516707
0.00106341 0.000276172 -1.88738e-05
0.000276172 -2.79974e-06 -7.27766e-06
-1.88738e-05 -7.27766e-06 -0.000222622
0.00187211 0.000432021 -3.60681e-06
0.000432021 0.000203516 2.52357e-07
-3.60681e-06 2.52357e-07 -3.83921e-05
0.000620766 0.000219736 -6.79985e-06
0.000219736 1.47836e-06 -3.94214e-06
-6.79985e-06 -3.94214e-06 -0.000214598
0.00133656 0.000437248 -4.21087e-06
0.000437248 0.000263448 -4.33092e-07
-4.21087e-06 -4.33092e-07 -6.5316e-05
0.00181876 0.000500613 -4.85567e-06
0.000500613 0.000331644 7.11902e-07
-4.85567e-06 7.11902e-07 2.9034e-05
0.00151971 0.000560632 3.13858e-06
0.000560632 0.000137803 7.13004e-06
3.13858e-06 7.13004e-06 -0.000194278
0.000460014 -3.22376e-05 -3.70431e-06
-3.22376e-05 -1.1955e-05 8.25954e-07
-3.70431e-06 8.25954e-07 -6.20498e-05
0.000650887 0.000206882 -1.38143e-06
0.000206882 8.95134e-05 -6.861e-07
-1.38143e-06 -6.861e-07 -0.000141843
0.000641003 7.49805e-05 8.02954e-07
7.49805e-05 9.77865e-05 -1.8023e-07
8.02954e-07 -1.8023e-07 -5.65438e-05
0.000813631 0.000190885 -5.16573e-07
0.000190885 0.000207808 1.37705e-09
-5.16573e-07 1.37705e-09 -5.3009e-05
0.001949 0.00038343 -1.35269e-06
0.00038343 0.000192665 -1.13344e-06
-1.35269e-06 -1.13344e-06 -1.39066e-05
0.00182564 0.000475642 -3.93649e-07
0.000475642 0.000252224 -2.40558e-07
-3.93649e-07 -2.40558e-07 -2.42398e-05
0.00207014 0.000498837 2.20317e-07
0.000498837 0.000240859 2.40774e-07
2.20317e-07 2.40774e-07 1.35972e-05
0.0011173 0.00034454 3.13902e-06
0.00034454 0.000210403 -6.43879e-08
3.13902e-06 -6.43879e-08 -7.66215e-05
0.00215187 0.00060801 2.43468e-07
0.00060801 0.000445267 5.1943e-07
2.43468e-07 5.1943e-07 0.000135592
0.00162659 0.000575046 -1.14573e-06
0.000575046 0.000348631 -1.79797e-06
-1.14573e-06 -1.79797e-06 -3.97329e-05
0.00193019 0.000595555 -4.59528e-06
0.000595555 0.000313726 2.10656e-06
-4.59528e-06 2.10656e-06 -1.92455e-06
0.000538887 -2.07176e-05 1.80805e-06
-2.07176e-05 2.24328e-05 8.84681e-06
1.80805e-06 8.84681e-06 -1.50385e-05
0.000910171 6.59208e-05 1.6096e-06
6.59208e-05 0.000269049 7.24704e-06
1.6096e-06 7.24704e-06 0.000146696
0.000787032 0.000243926 7.79909e-07
0.000243926 7.9879e-05 2.50117e-06
7.79909e-07 2.50117e-06 -0.000164634
0.00150437 0.000172349 1.41164e-06
0.000172349 0.000714031 -4.20112e-07
1.41164e-06 -4.20112e-07 0.000439432
0.00109152 0.000306937 -2.00129e-06
0.000306937 0.000325335 2.98494e-06
-2.00129e-06 2.98494e-06 7.94493e-05
0.00213969 0.000446098 -1.7147e-07
0.000446098 0.000213032 -3.14984e-06
-1.7147e-07 -3.14984e-06 2.80595e-05
0.00207396 0.00056293 -1.13535e-06
0.00056293 0.00031069 -1.64493e-06
-1.13535e-06 -1.64493e-06 3.78448e-05
0.00209547 0.000546654 -2.47136e-06
0.000546654 0.000235966 -1.37528e-06
-2.47136e-06 -1.37528e-06 1.42546e-05
0.0013834 0.000515266 5.84882e-06
0.000515266 0.000354599 -3.62124e-07
5.84882e-06 -3.62124e-07 -2.89066e-05
0.00233202 0.000671357 -2.95345e-06
0.000671357 0.000497074 -2.10573e-06
-2.95345e-06 -2.10573e-06 0.000187926
0.00162801 0.000626204 6.53869e-06
0.000626204 0.000283123 -4.36118e-06
6.53869e-06 -4.36118e-06 -9.84812e-05
0.00058314 4.88004e-05 1.96776e-06
4.88004e-05 6.99141e-05 5.34191e-06
1.96776e-06 5.34191e-06 -1.59416e-05
0.000623519 0.000101451 -4.23009e-07
0.000101451 0.000138865 3.0192e-06
-4.23009e-07 3.0192e-06 4.0491e-06
0.000590865 5.96799e-05 1.9484e-06
5.96799e-05 8.45139e-05 4.66229e-06
1.9484e-06 4.66229e-06 7.89805e-06
0.000524334 1.2875e-05 -7.04751e-07
1.2875e-05 3.71445e-05 -5.46657e-08
-7.04751e-07 -5.46657e-08 -4.26241e-05
0.00135375 -3.28898e-05 1.54696e-06
-3.28898e-05 0.000531229 4.43541e-06
1.54696e-06 4.43541e-06 0.000506959
0.000909927 -2.69437e-05 2.80893e-07
-2.69437e-05 0.000251952 -1.80959e-07
2.80893e-07 -1.80959e-07 0.000222806
0.000839288 -4.801e-05 3.59581e-05
-4.801e-05 0.000210497 9.7175e-06
3.59581e-05 9.7175e-06 0.000208029
0.00290086 -0.000126744 7.75185e-06
-0.000126744 0.00153176 -7.40897e-07
7.75185e-06 -7.40897e-07 0.00152925
0.00311655 -0.00015172 -4.77171e-05
-0.00015172 0.00168 -4.25913e-06
-4.77171e-05 -4.25913e-06 0.00167055
0.000425764 -6.95313e-05 9.93823e-06
-6.95313e-05 -3.14845e-05 -1.22388e-05
9.93823e-06 -1.22388e-05 -9.29178e-05
0.00457817 0.000173582 0.00010881
0.000173582 0.00263084 -1.12768e-05
0.00010881 -1.12768e-05 0.0026097
0.000519752 -0.000114737 -1.31728e-06
-0.000114737 1.06646e-05 7.35864e-07
-1.31728e-06 7.35864e-07 -7.18038e-05
0.00541259 0.000140736 -7.20967e-06
0.000140736 0.00315307 -4.551e-07
-7.20967e-06 -4.551e-07 0.00313742
0.000490302 -0.000139681 -2.08605e-05
-0.000139681 -3.57559e-05 1.60766e-05
-2.08605e-05 1.60766e-05 -0.000133253
0.00617942 0.000124059 -0.000221122
0.000124059 0.00362504 2.48982e-05
-0.000221122 2.48982e-05 0.00361095
0.00115372 0.000191922 -1.08806e-05
0.000191922 -4.9909e-05 -2.98836e-06
-1.08806e-05 -2.98836e-06 -0.000226567
0.00110107 0.000115881 -1.15468e-05
0.000115881 -7.83205e-05 -1.03053e-06
-1.15468e-05 -1.03053e-06 -0.00022516
0.00191877 0.000252383 -1.78888e-06
0.000252383 0.000107222 1.09336e-06
-1.78888e-06 1.09336e-06 -3.503e-05
0.00189169 0.000110023 -7.34295e-07
0.000110023 9.41632e-05 1.14388e-06
-7.34295e-07 1.14388e-06 -6.49577e-06
0.00103858 3.9712e-05 -1.12506e-05
3.9712e-05 -8.69863e-05 -2.66701e-07
-1.12506e-05 -2.66701e-07 -0.000216199
0.00038359 2.89417e-05 -1.89103e-05
2.89417e-05 -0.000217477 -6.56198e-07
-1.89103e-05 -6.56198e-07 -0.000294936
0.00103965 8.93457e-08 -5.97987e-08
8.93457e-08 -7.70933e-05 -4.90887e-08
-5.97987e-08 -4.90887e-08 -0.000204194
0.00185505 5.44809e-05 -8.99816e-08
5.44809e-05 6.86266e-05 1.9081e-07
-8.99816e-08 1.9081e-07 -2.37525e-05
0.00192507 0.000181522 -8.74141e-08
0.000181522 0.000106018 -2.3558e-08
-8.74141e-08 -2.3558e-08 -1.21301e-05
0.00204742 0.000137652 -9.34163e-08
0.000137652 5.53915e-05 2.82239e-08
-9.34163e-08 2.82239e-08 1.07684e-05
0.00197414 0.000324376 -4.83396e-07
0.000324376 0.000163535 -2.41446e-08
-4.83396e-07 -2.41446e-08 -8.85711e-06
0.00206075 0.000287277 -4.51782e-07
0.000287277 9.8938e-05 2.64224e-07
-4.51782e-07 2.64224e-07 -4.4631e-06
0.00183898 -6.29182e-07 1.81233e-06
-6.29182e-07 6.55435e-05 1.46344e-07
1.81233e-06 1.46344e-07 -2.54853e-05
0.00202542 6.63098e-05 3.6306e-06
6.63098e-05 4.36753e-05 3.01248e-07
3.6306e-06 3.01248e-07 8.51832e-06
0.00201091 0.000207509 3.49781e-06
0.000207509 4.8836e-05 9.61503e-07
3.49781e-06 9.61503e-07 -1.9104e-05
0.00202203 0.000125696 5.86782e-06
0.000125696 1.57388e-05 7.36167e-07
5.86782e-06 7.36167e-07 -1.85235e-06
0.00214324 0.000378219 1.2802e-06
0.000378219 0.000176465 -8.58173e-07
1.2802e-06 -8.58173e-07 3.18899e-05
0.00207768 0.000301225 2.79931e-06
0.000301225 1.40086e-05 8.31979e-07
2.79931e-06 8.31979e-07 -3.76338e-05
0.00107939 -2.46243e-05 -1.19577e-05
-2.46243e-05 -5.64612e-05 7.09662e-07
-1.19577e-05 7.09662e-07 -0.000178327
0.00191355 -0.00012079 -2.8119e-05
-0.00012079 0.000451783 3.05909e-06
-2.8119e-05 3.05909e-06 0.000320621
0.00194855 -0.000113373 -2.34408e-06
-0.000113373 0.000137901 -3.69207e-07
-2.34408e-06 -3.69207e-07 3.64452e-05
0.00187975 -0.00025523 -3.11286e-06
-0.00025523 0.000134556 7.30494e-07
-3.11286e-06 7.30494e-07 -2.1544e-05
0.000564867 -0.000222965 -2.62354e-05
-0.000222965 -2.14803e-05 2.06323e-05
-2.62354e-05 2.06323e-05 -0.000142201
0.000863605 -0.000272913 -1.25634e-05
-0.000272913 6.96669e-05 8.60312e-06
-1.25634e-05 8.60312e-06 -0.000172514
0.00150901 -0.000504845 -8.15436e-06
-0.000504845 0.000222697 1.91265e-06
-8.15436e-06 1.91265e-06 -0.000121462
0.00193241 -0.000368683 -4.49228e-06
-0.000368683 0.000224068 1.25833e-06
-4.49228e-06 1.25833e-06 1.48239e-05
0.00206393 -0.000361184 -7.43414e-08
-0.000361184 0.000141261 -8.20458e-07
-7.43414e-08 -8.20458e-07 1.42053e-05
0.00204628 -0.000477792 -8.90976e-07
-0.000477792 0.000238044 -1.05967e-06
-8.90976e-07 -1.05967e-06 2.55928e-05
0.00226438 -0.00059529 -3.40496e-06
-0.00059529 0.000482668 -3.68053e-06
-3.40496e-06 -3.68053e-06 0.000176245
0.00193219 -0.000533364 1.13987e-06
-0.000533364 0.000163874 -2.30633e-06
1.13987e-06 -2.30633e-06 -6.00246e-05
0.000932376 -0.000217623 -5.61398e-06
-0.000217623 0.000240772 5.09283e-06
-5.61398e-06 5.09283e-06 -5.08566e-06
0.000360774 -0.000166226 1.81746e-06
-0.000166226 -0.000139101 -1.5851e-06
1.81746e-06 -1.5851e-06 -0.00040641
0.00053087 -0.000176098 -5.52881e-07
-0.000176098 4.82064e-05 7.53996e-07
-5.52881e-07 7.53996e-07 -0.000170737
0.0018595 -5.15981e-05 6.31225e-07
-5.15981e-05 8.54716e-05 -4.73056e-08
6.31225e-07 -4.73056e-08 -1.25566e-05
0.00191914 -0.000190634 -2.44239e-06
-0.000190634 0.000127075 2.15815e-07
-2.44239e-06 2.15815e-07 5.20417e-06
0.00202614 -0.000129809 2.37957e-06
-0.000129809 6.34577e-05 -3.79489e-07
2.37957e-06 -3.79489e-07 9.30996e-06
0.00200067 -0.000286459 -1.14388e-06
-0.000286459 8.50916e-05 5.105e-07
-1.14388e-06 5.105e-07 -1.78631e-05
0.000751785 -0.000249144 8.10668e-07
-0.000249144 8.29537e-05 -3.48109e-07
8.10668e-07 -3.48109e-07 -0.000157317
0.0014254 -0.000478873 -7.96003e-07
-0.000478873 0.000310063 -3.16682e-07
-7.96003e-07 -3.16682e-07 -4.02625e-05
0.00183643 -0.000644081 5.62915e-07
-0.000644081 0.000327878 9.9425e-07
5.62915e-07 9.9425e-07 -5.78436e-05
0.00190827 -0.0004198 -1.2077e-06
-0.0004198 0.000102195 1.00946e-06
-1.2077e-06 1.00946e-06 -7.40399e-05
0.00213006 -0.000385925 6.83017e-07
-0.000385925 0.000121834 -4.0383e-07
6.83017e-07 -4.0383e-07 3.28511e-05
0.00214156 -0.000611377 -2.2929e-07
-0.000611377 0.000353573 4.27285e-07
-2.2929e-07 4.27285e-07 6.17065e-05
0.00199765 -0.000501843 -2.94597e-07
-0.000501843 0.000153202 7.33941e-07
-2.94597e-07 7.33941e-07 -3.16029e-05
0.00222477 -0.000559446 5.19166e-07
-0.000559446 0.00035671 -5.66485e-07
5.19166e-07 -5.66485e-07 0.00014549
0.00105033 -0.000303799 -9.98389e-07
-0.000303799 0.000240914 8.44328e-07
-9.98389e-07 8.44328e-07 -3.41618e-05
0.00116439 -0.00034222 -1.26197e-06
-0.00034222 0.000317984 2.32975e-06
-1.26197e-06 2.32975e-06 8.30468e-06
0.000669088 -0.000130211 -6.29245e-08
-0.000130211 0.000150317 -7.07389e-07
-6.29245e-08 -7.07389e-07 -4.01804e-05
0.000101776 -0.000121958 1.53178e-06
-0.000121958 -0.000210016 -2.40631e-06
1.53178e-06 -2.40631e-06 -0.000510669
0.00203961 -6.84661e-05 5.67653e-06
-6.84661e-05 7.3965e-05 -4.31301e-07
5.67653e-06 -4.31301e-07 2.98241e-05
0.00197284 -0.000212618 4.16807e-06
-0.000212618 3.04666e-05 -1.16585e-06
4.16807e-06 -1.16585e-06 -4.84641e-05
0.0020109 -0.000121752 6.77828e-06
-0.000121752 4.63178e-05 -1.03423e-06
6.77828e-06 -1.03423e-06 3.02699e-05
0.00207007 -0.000310928 1.54727e-06
-0.000310928 3.27557e-05 -7.08597e-07
1.54727e-06 -7.08597e-07 -8.64729e-06
0.00197994 -0.000450697 -3.88046e-07
-0.000450697 9.06556e-05 -3.99438e-07
-3.88046e-07 -3.99438e-07 -5.05355e-05
0.00211932 -0.000400332 4.0493e-06
-0.000400332 7.67929e-05 -1.54624e-06
4.0493e-06 -1.54624e-06 6.52482e-06
0.00134407 -0.000404907 6.14051e-06
-0.000404907 0.000376361 -5.56066e-06
6.14051e-06 -5.56066e-06 5.63257e-05
0.00202884 -0.000534798 -2.62247e-06
-0.000534798 0.00014704 -1.09557e-07
-2.62247e-06 -1.09557e-07 -1.67165e-05
0.00163873 -0.000650094 -5.64813e-06
-0.000650094 0.000370652 3.68981e-06
-5.64813e-06 3.68981e-06 -5.51259e-05
0.00206888 -0.000712938 4.89263e-06
-0.000712938 0.000410217 2.79421e-06
4.89263e-06 2.79421e-06 1.81615e-05
0.00209462 -0.000619532 9.97085e-07
-0.000619532 0.000281818 3.76746e-06
9.97085e-07 3.76746e-06 -1.17854e-06
0.00229741 -0.000595897 -1.10967e-05
-0.000595897 0.000370675 -2.01898e-06
-1.10967e-05 -2.01898e-06 0.000148327
0.000479249 -0.000119529 -1.53726e-06
-0.000119529 2.45955e-05 -6.81198e-06
-1.53726e-06 -6.81198e-06 -0.000120899
-5.9616e-05 -0.000143118 -4.15656e-06
-0.000143118 -0.000214212 -1.4129e-06
-4.15656e-06 -1.4129e-06 -0.000532919
0.0013707 -0.00043595 -1.99323e-06
-0.00043595 0.000423123 -3.13372e-06
-1.99323e-06 -3.13372e-06 7.9048e-05
0.00291659 -0.000473797 -4.86062e-06
-0.000473797 0.00150091 1.19983e-05
-4.86062e-06 1.19983e-05 0.00115538
0.00164957 -0.000448596 -1.38987e-05
-0.000448596 0.000627252 9.64302e-06
-1.38987e-05 9.64302e-06 0.000258066
0.000305785 -3.80827e-05 -9.73196e-07
-3.80827e-05 -0.000106974 -1.00527e-05
-9.73196e-07 -1.00527e-05 -0.000155958
0.00193308 0.000381519 -3.19667e-06
0.000381519 0.000183069 -2.39866e-07
-3.19667e-06 -2.39866e-07 -2.34993e-05
0.000214354 4.32707e-05 -9.21338e-07
4.32707e-05 -0.000161824 -6.55308e-06
-9.21338e-07 -6.55308e-06 -0.000310178
0.000377516 0.000201349 -6.727e-06
0.000201349 -0.000105075 -2.95715e-07
-6.727e-06 -2.95715e-07 -0.000320823
0.00059992 0.000176571 -1.45517e-06
0.000176571 5.74699e-05 2.07232e-06
-1.45517e-06 2.07232e-06 -0.000190793
0.00178994 0.00047393 -4.79265e-06
0.00047393 0.000228138 1.69552e-07
-4.79265e-06 1.69552e-07 -4.88097e-05
0.0020475 0.000495323 1.18817e-06
0.000495323 0.000230326 1.8867e-06
1.18817e-06 1.8867e-06 3.90094e-06
0.00140746 0.000386116 -2.97087e-06
0.000386116 0.000415187 -3.61535e-06
-2.97087e-06 -3.61535e-06 0.000115344
0.00149715 0.000571168 3.14056e-07
0.000571168 0.000261938 3.82049e-06
3.14056e-07 3.82049e-06 -0.000130112
0.00203079 0.000588226 2.08774e-06
0.000588226 0.000377928 3.68406e-06
2.08774e-06 3.68406e-06 7.00281e-05
0.00199566 0.000597027 4.15503e-06
0.000597027 0.000356893 1.04808e-05
4.15503e-06 1.04808e-05 4.61193e-05
0.000456913 -1.67799e-05 -9.03363e-07
-1.67799e-05 -2.8088e-05 2.92216e-07
-9.03363e-07 2.92216e-07 -6.48237e-05
0.000596339 4.9861e-05 7.93893e-08
4.9861e-05 7.78084e-05 4.09496e-07
7.93893e-08 4.09496e-07 -4.04178e-05
0.000919371 0.000274347 1.18933e-06
0.000274347 0.000168824 1.72164e-06
1.18933e-06 1.72164e-06 -7.74086e-05
0.000629288 0.000120612 8.54985e-07
0.000120612 0.000156049 -1.41574e-06
8.54985e-07 -1.41574e-06 -0.000105399
0.000487116 0.000216743 -2.07614e-06
0.000216743 -8.77302e-05 3.48352e-06
-2.07614e-06 3.48352e-06 -0.000308921
0.00211371 0.000444771 -1.78552e-06
0.000444771 0.00019699 -1.91465e-06
-1.78552e-06 -1.91465e-06 1.2264e-05
0.00203479 0.000558916 5.58516e-07
0.000558916 0.00028852 1.27318e-07
5.58516e-07 1.27318e-07 1.65201e-05
0.00202787 0.000542422 1.67004e-06
0.000542422 0.00019578 1.60625e-07
1.67004e-06 1.60625e-07 -2.56176e-05
0.00143892 0.000519725 1.96918e-06
0.000519725 0.00039566 -1.86302e-07
1.96918e-06 -1.86302e-07 8.12691e-06
0.00221974 0.000658508 2.49432e-06
0.000658508 0.000413334 4.22593e-07
2.49432e-06 4.22593e-07 0.000104712
0.00199257 0.000663222 -3.48995e-06
0.000663222 0.000513162 1.46493e-08
-3.48995e-06 1.46493e-08 0.000126265
0.000684222 5.13616e-05 8.26941e-07
5.13616e-05 0.000133134 5.76803e-06
8.26941e-07 5.76803e-06 3.59729e-05
0.00158359 0.000190419 1.22473e-07
0.000190419 0.000762527 2.47429e-06
1.22473e-07 2.47429e-06 0.000545662
0.00100559 0.000373445 -1.14625e-06
0.000373445 0.000207275 5.74585e-06
-1.14625e-06 5.74585e-06 -8.97657e-05
0.00116008 0.000154459 6.54878e-06
0.000154459 0.000429475 -3.22662e-06
6.54878e-06 -3.22662e-06 0.000162047
0.0029595 0.000396684 -4.61037e-06
0.000396684 0.00136414 -9.12587e-08
-4.61037e-06 -9.12587e-08 0.00111228
0.0021023 0.000469196 -3.91299e-06
0.000469196 0.00016183 -2.2188e-06
-3.91299e-06 -2.2188e-06 -9.63197e-06
0.00207216 0.000611672 -2.10951e-06
0.000611672 0.000275686 -1.09515e-06
-2.10951e-06 -1.09515e-06 5.73188e-06
0.00196688 0.00059141 4.75878e-06
0.00059141 0.000116057 -2.40932e-07
4.75878e-06 -2.40932e-07 -0.000115085
0.00117129 0.000570461 9.93112e-06
0.000570461 0.000246811 -4.60467e-06
9.93112e-06 -4.60467e-06 -0.00017981
0.00162449 0.000651682 1.14093e-05
0.000651682 0.000176814 -1.82465e-06
1.14093e-05 -1.82465e-06 -0.000172418
0.000578245 4.24331e-05 -3.86984e-07
4.24331e-05 6.41575e-05 1.97121e-07
-3.86984e-07 1.97121e-07 -1.97742e-05
0.000324468 6.73488e-05 5.04499e-07
6.73488e-05 -7.32231e-05 3.14149e-06
5.04499e-07 3.14149e-06 -0.000198211
0.000323833 6.1678e-05 -4.46489e-07
6.1678e-05 -6.74932e-05 -3.0801e-07
-4.46489e-07 -3.0801e-07 -0.000186504
0.00108792 0.000167342 -2.01456e-06
0.000167342 0.000436665 -1.04436e-06
-2.01456e-06 -1.04436e-06 0.000282571
0.000711311 0.000121821 1.14039e-06
0.000121821 0.000198378 3.06778e-06
1.14039e-06 3.06778e-06 6.82871e-05
0.000542201 6.73726e-05 2.19964e-06
6.73726e-05 5.91699e-05 4.08261e-06
2.19964e-06 4.08261e-06 -1.52779e-05
0.000524589 1.81774e-05 -7.24256e-07
1.81774e-05 4.28781e-05 -5.11905e-08
-7.24256e-07 -5.11905e-08 -3.29836e-05
0.00131659 -1.77262e-05 1.44676e-06
-1.77262e-05 0.00050701 3.96256e-06
1.44676e-06 3.96256e-06 0.000486162
0.000544015 3.05046e-05 -1.19761e-06
3.05046e-05 4.37647e-05 -5.08998e-06
-1.19761e-06 -5.08998e-06 -3.22935e-05
0.00137518 -2.68189e-05 -8.67544e-06
-2.68189e-05 0.000543933 -1.63598e-06
-8.67544e-06 -1.63598e-06 0.000521354
0.000782731 -3.44944e-05 3.49422e-05
-3.44944e-05 0.000167862 9.51442e-06
3.49422e-05 9.51442e-06 0.000169937
0.00140655 -3.36445e-05 -1.58415e-05
-3.36445e-05 0.000567591 -5.91232e-06
-1.58415e-05 -5.91232e-06 0.000541886
0.00176932 -7.5892e-05 3.48737e-05
-7.5892e-05 0.000803217 1.45566e-06
3.48737e-05 1.45566e-06 0.000803193
0.00280699 -0.000122816 -4.07799e-05
-0.000122816 0.0014711 -4.50947e-06
-4.07799e-05 -4.50947e-06 0.00146947
0.000305117 7.56469e-05 -6.22719e-06
7.56469e-05 -7.87211e-05 -9.79775e-06
-6.22719e-06 -9.79775e-06 -0.000138591
0.000410447 -4.92101e-05 -6.40478e-07
-4.92101e-05 -3.67201e-05 6.13864e-07
-6.40478e-07 6.13864e-07 -0.00010463
0.00369584 0.000188903 1.68824e-05
0.000188903 0.00206414 -7.42436e-06
1.68824e-05 -7.42436e-06 0.00203949
0.00474385 0.000135292 -1.63187e-05
0.000135292 0.00272981 -1.56233e-06
-1.63187e-05 -1.56233e-06 0.00271723
0.000531223 -0.000117334 -1.76768e-05
-0.000117334 1.40798e-05 1.39566e-05
-1.76768e-05 1.39566e-05 -7.13774e-05
0.00564478 0.000135736 -0.000190071
0.000135736 0.00330263 2.36281e-05
-0.000190071 2.36281e-05 0.00328541
0.00194663 0.000321814 -1.99527e-06
0.000321814 0.000149241 1.21538e-06
-1.99527e-06 1.21538e-06 -2.29802e-05
0.00188935 0.000180473 -7.78371e-07
0.000180473 8.65566e-05 9.23031e-07
-7.78371e-07 9.23031e-07 -3.18448e-05
0.00208934 0.000290084 -2.30527e-06
0.000290084 0.000118873 5.76473e-07
-2.30527e-06 5.76473e-07 1.45576e-05
0.00203913 0.000134833 -3.93552e-06
0.000134833 4.01392e-05 -5.39328e-07
-3.93552e-06 -5.39328e-07 -1.25248e-06
0.00187307 5.64283e-05 -1.57143e-06
5.64283e-05 8.47813e-05 4.49258e-07
-1.57143e-06 4.49258e-07 -7.61406e-06
0.00104414 4.87736e-06 -1.09319e-05
4.87736e-06 -7.41743e-05 9.5577e-08
-1.09319e-05 9.5577e-08 -0.00020119
0.00184829 2.61187e-06 8.69961e-08
2.61187e-06 7.2308e-05 1.60428e-07
8.69961e-08 1.60428e-07 -1.87801e-05
0.0020201 5.74697e-05 -6.69622e-07
5.74697e-05 4.26812e-05 6.61305e-09
-6.69622e-07 6.61305e-09 7.40189e-06
0.00205274 0.000209171 -1.73901e-07
0.000209171 7.24678e-05 2.91263e-07
-1.73901e-07 2.91263e-07 4.37214e-06
0.00201518 0.000124932 1.82135e-07
0.000124932 5.29935e-06 -1.29024e-08
1.82135e-07 -1.29024e-08 -7.13302e-06
0.00210929 0.000378399 -4.07001e-07
0.000378399 0.000148839 7.03676e-08
-4.07001e-07 7.03676e-08 4.12601e-06
0.00208313 0.000295057 1.72762e-07
0.000295057 1.9455e-05 1.16418e-07
1.72762e-07 1.16418e-07 -3.22297e-05
0.00200964 -5.73654e-06 4.61644e-06
-5.73654e-06 4.35386e-05 7.81996e-08
4.61644e-06 7.81996e-08 6.22364e-06
0.00201982 5.43373e-05 5.18443e-06
5.43373e-05 2.54822e-05 2.0061e-07
5.18443e-06 2.0061e-07 2.09638e-05
0.00206921 0.000201876 2.40443e-06
0.000201876 1.32507e-05 3.8173e-07
2.40443e-06 3.8173e-07 -7.63464e-06
0.00210078 0.00012941 1.84952e-06
0.00012941 -1.14074e-06 2.6478e-07
1.84952e-06 2.6478e-07 1.1825e-05
0.00201977 0.000372387 1.08411e-06
0.000372387 4.09706e-05 3.52985e-07
1.08411e-06 3.52985e-07 -7.20148e-05
0.00225677 0.000301053 2.63727e-06
0.000301053 5.57719e-05 8.01953e-07
2.63727e-06 8.01953e-07 4.0372e-05
0.00189114 -4.8399e-05 -2.03225e-06
-4.8399e-05 0.000103939 -2.44064e-07
-2.03225e-06 -2.44064e-07 9.76644e-06
0.00187083 -0.000195332 -3.3596e-06
-0.000195332 9.44081e-05 -7.02901e-08
-3.3596e-06 -7.02901e-08 -2.87519e-05
0.00202316 -0.000127869 -1.92208e-06
-0.000127869 5.54665e-05 2.47535e-07
-1.92208e-06 2.47535e-07 7.21829e-06
0.0019846 -0.000278081 -3.18687e-06
-0.000278081 8.08258e-05 7.44685e-07
-3.18687e-06 7.44685e-07 -2.42738e-05
0.000731265 -0.000247962 -9.72541e-06
-0.000247962 6.60439e-05 8.77696e-06
-9.72541e-06 8.77696e-06 -0.000176144
0.0013792 -0.000472915 -9.31227e-06
-0.000472915 0.00028017 2.29435e-06
-9.31227e-06 2.29435e-06 -6.75604e-05
0.00164712 -0.000621728 1.93525e-06
-0.000621728 0.000229612 -1.91718e-06
1.93525e-06 -1.91718e-06 -0.000155724
0.0018858 -0.00041562 -1.66562e-06
-0.00041562 9.43645e-05 3.75384e-07
-1.66562e-06 3.75384e-07 -8.75427e-05
0.00208974 -0.000387756 -1.66408e-06
-0.000387756 8.6887e-05 5.69586e-07
-1.66408e-06 5.69586e-07 2.1935e-06
0.00200705 -0.000501533 -6.92685e-07
-0.000501533 0.000157852 3.14994e-07
-6.92685e-07 3.14994e-07 -2.70906e-05
0.00201989 -0.000612663 -4.07347e-06
-0.000612663 0.000265852 -3.27881e-06
-4.07347e-06 -3.27881e-06 -2.91228e-05
0.00210265 -0.000546825 7.43934e-06
-0.000546825 0.000277334 -4.02548e-06
7.43934e-06 -4.02548e-06 7.07388e-05
0.000852482 -0.000282824 -4.51954e-07
-0.000282824 0.000126408 2.85573e-06
-4.51954e-07 2.85573e-06 -0.000152242
0.000913483 -0.000291731 3.5523e-06
-0.000291731 0.000128081 -1.13557e-06
3.5523e-06 -1.13557e-06 -0.000165005
0.000982262 -0.00013915 -2.79039e-07
-0.00013915 0.000341226 5.37781e-06
-2.79039e-07 5.37781e-06 0.000147401
-0.000351544 -7.71508e-05 1.65601e-06
-7.71508e-05 -0.000516612 -7.4662e-06
1.65601e-06 -7.4662e-06 -0.000791855
0.00203984 -6.83273e-05 -2.28267e-07
-6.83273e-05 7.4451e-05 9.29335e-08
-2.28267e-07 9.29335e-08 3.03846e-05
0.00199898 -0.000213299 2.91077e-06
-0.000213299 5.35662e-05 -8.52757e-07
2.91077e-06 -8.52757e-07 -2.64811e-05
0.00198233 -0.000120359 8.74002e-07
-0.000120359 2.32905e-05 -1.6807e-07
8.74002e-07 -1.6807e-07 8.27413e-06
0.00207962 -0.000310591 -7.21691e-07
-0.000310591 4.56541e-05 1.95787e-07
-7.21691e-07 1.95787e-07 -1.22603e-06
0.00119838 -0.00037661 -2.83965e-06
-0.00037661 0.000269124 3.7474e-08
-2.83965e-06 3.7474e-08 -4.02775e-05
0.00154956 -0.000628039 1.5048e-06
-0.000628039 0.000328955 -3.43223e-07
1.5048e-06 -3.43223e-07 -9.0521e-05
0.0019947 -0.000718697 -4.17382e-07
-0.000718697 0.000362585 3.91004e-07
-4.17382e-07 3.91004e-07 -3.59699e-05
0.00196789 -0.000445335 -1.26367e-06
-0.000445335 9.01857e-05 5.3058e-07
-1.26367e-06 5.3058e-07 -5.5093e-05
0.00208817 -0.000399802 1.05642e-06
-0.000399802 5.82816e-05 -2.79235e-07
1.05642e-06 -2.79235e-07 -7.95731e-06
0.00208702 -0.000622065 -3.62475e-07
-0.000622065 0.000302835 3.77271e-07
-3.62475e-07 3.77271e-07 1.78177e-05
0.00198033 -0.00053337 -8.92936e-07
-0.00053337 0.000110388 9.79033e-07
-8.92936e-07 9.79033e-07 -5.40948e-05
0.00218895 -0.000583253 3.61873e-06
-0.000583253 0.000297069 -4.53775e-06
3.61873e-06 -4.53775e-06 8.1526e-05
0.00138842 -0.000436591 -1.12407e-06
-0.000436591 0.000435327 -1.06292e-06
-1.12407e-06 -1.06292e-06 9.221e-05
0.00145374 -0.000425836 -1.48283e-06
-0.000425836 0.000485854 1.41096e-06
-1.48283e-06 1.41096e-06 0.000127102
0.00102595 -0.000295293 1.43108e-06
-0.000295293 0.000298541 -2.24788e-07
1.43108e-06 -2.24788e-07 -1.68304e-05
0.000295741 -9.01918e-05 -2.38977e-06
-9.01918e-05 -9.19508e-05 1.02467e-06
-2.38977e-06 1.02467e-06 -0.000238529
-4.72522e-05 -9.51919e-05 -1.02463e-06
-9.51919e-05 -0.000230268 -1.12366e-06
-1.02463e-06 -1.12366e-06 -0.000527097
0.00196045 -6.72028e-05 4.60749e-06
-6.72028e-05 -9.61905e-06 -1.93724e-07
4.60749e-06 -1.93724e-07 -1.21505e-05
0.00201335 -0.000186095 3.44467e-06
-0.000186095 -2.40348e-06 -8.45938e-07
3.44467e-06 -8.45938e-07 -1.66875e-05
0.00213939 -0.000366313 7.23055e-07
-0.000366313 2.63782e-06 -4.64974e-07
7.23055e-07 -4.64974e-07 -1.87962e-05
0.00210907 -0.000469546 1.74278e-06
-0.000469546 9.30068e-05 -2.06211e-06
1.74278e-06 -2.06211e-06 5.47902e-06
0.00141691 -0.000527486 -2.63576e-06
-0.000527486 0.000388596 -3.32673e-08
-2.63576e-06 -3.32673e-08 -5.02302e-06
0.00225078 -0.000642599 -7.23806e-06
-0.000642599 0.000183497 -5.33311e-06
-7.23806e-06 -5.33311e-06 -6.28158e-06
0.00131486 -0.000691548 -2.018e-05
-0.000691548 0.000170527 7.51166e-06
-2.018e-05 7.51166e-06 -0.000279646
0.00212366 -0.000781889 -5.24706e-09
-0.000781889 0.000403653 7.93821e-07
-5.24706e-09 7.93821e-07 -7.42901e-06
0.00193565 -0.000590302 -1.64032e-05
-0.000590302 0.000207445 7.45468e-07
-1.64032e-05 7.45468e-07 -6.14731e-05
6.90979e-05 -1.5596e-05 -2.87147e-06
-1.5596e-05 -0.000219674 -5.9251e-06
-2.87147e-06 -5.9251e-06 -0.000333812
0.000884222 -0.000167349 -3.02111e-06
-0.000167349 0.000369905 -1.18173e-06
-3.02111e-06 -1.18173e-06 0.00010571
0.0010118 -0.000237167 -1.90108e-06
-0.000237167 0.00041033 -4.39556e-06
-1.90108e-06 -4.39556e-06 0.000106757
0.00175734 -0.000538537 -1.35557e-05
-0.000538537 0.000651224 5.58479e-06
-1.35557e-05 5.58479e-06 0.000252678
0.0021173 -0.000385563 -4.09082e-06
-0.000385563 0.00093317 1.20046e-05
-4.09082e-06 1.20046e-05 0.000595522
0.000696587 -0.000390282 -1.61947e-05
-0.000390282 -2.13279e-05 1.78299e-05
-1.61947e-05 1.78299e-05 -0.000388641
0.000388758 -1.45221e-05 -2.47612e-06
-1.45221e-05 -7.03226e-05 -8.15573e-06
-2.47612e-06 -8.15573e-06 -0.000106398
0.0004482 3.63311e-05 -3.39549e-07
3.63311e-05 -9.68297e-06 -7.38902e-06
-3.39549e-07 -7.38902e-06 -0.000125335
0.00208728 0.00044336 -2.59405e-06
0.00044336 0.000180965 -4.0202e-07
-2.59405e-06 -4.0202e-07 -3.50693e-06
-6.30047e-05 3.697e-05 2.56534e-07
3.697e-05 -0.000284128 -1.42293e-06
2.56534e-07 -1.42293e-06 -0.000537001
0.00125757 0.000298261 -3.47663e-07
0.000298261 0.000379439 -1.59962e-07
-3.47663e-07 -1.59962e-07 0.000138877
6.72698e-05 0.000146408 -5.11696e-06
0.000146408 -0.000378856 2.10987e-06
-5.11696e-06 2.10987e-06 -0.000580438
0.00199358 0.000554189 2.06724e-06
0.000554189 0.000266686 1.7988e-06
2.06724e-06 1.7988e-06 -4.25784e-06
0.00197317 0.000539043 2.60453e-06
0.000539043 0.000163602 1.03842e-06
2.60453e-06 1.03842e-06 -5.75601e-05
0.00157803 0.000530108 -1.60353e-06
0.000530108 0.000493135 1.26776e-07
-1.60353e-06 1.26776e-07 0.000100597
0.00228044 0.000685162 -4.49323e-06
0.000685162 0.000699991 3.91886e-06
-4.49323e-06 3.91886e-06 0.000314368
0.00209996 0.000645955 1.43198e-06
0.000645955 0.000324428 2.99225e-06
1.43198e-06 2.99225e-06 1.60927e-05
0.00058966 4.50788e-05 -3.61284e-07
4.50788e-05 7.62583e-05 5.73633e-07
-3.61284e-07 5.73633e-07 -2.08109e-05
0.000780102 8.98583e-05 -1.33351e-06
8.98583e-05 0.000248847 2.04059e-08
-1.33351e-06 2.04059e-08 4.88568e-05
0.00121154 0.000399478 1.15179e-06
0.000399478 0.000323383 2.12227e-06
1.15179e-06 2.12227e-06 1.95104e-05
0.000822931 0.000120391 2.06014e-06
0.000120391 0.000214855 -1.67816e-06
2.06014e-06 -1.67816e-06 -4.91105e-05
0.000775314 0.000215877 3.78511e-06
0.000215877 -1.90802e-05 -2.02024e-06
3.78511e-06 -2.02024e-06 -0.000233869
0.00204909 0.000467898 -2.31693e-06
0.000467898 0.000135086 -1.49449e-06
-2.31693e-06 -1.49449e-06 -3.72952e-05
0.00210387 0.000614151 1.98505e-06
0.000614151 0.000291727 5.96341e-07
1.98505e-06 5.96341e-07 2.12668e-05
0.00202258 0.000591991 1.13644e-06
0.000591991 0.000146316 2.85879e-07
1.13644e-06 2.85879e-07 -8.37376e-05
0.00137942 0.000605423 2.24575e-06
0.000605423 0.000357235 6.75314e-07
2.24575e-06 6.75314e-07 -7.28162e-05
0.00180481 0.000674391 -2.16623e-06
0.000674391 0.000302338 -2.03569e-06
-2.16623e-06 -2.03569e-06 -5.52102e-05
0.00119734 0.000140971 1.50343e-06
0.000140971 0.000496104 3.36287e-06
1.50343e-06 3.36287e-06 0.00033896
-0.000259878 1.1817e-05 -1.56827e-06
1.1817e-05 -0.000346895 9.49832e-07
-1.56827e-06 9.49832e-07 -0.000611902
0.00140307 0.0004776 -1.72442e-06
0.0004776 0.000440059 -3.82395e-06
-1.72442e-06 -3.82395e-06 8.05242e-05
-0.00045525 0.000137339 5.68965e-06
0.000137339 -0.000710356 -8.58122e-07
5.68965e-06 -8.58122e-07 -0.000934998
0.0026551 0.000545417 -2.99469e-06
0.000545417 0.00111997 -4.52607e-06
-2.99469e-06 -4.52607e-06 0.000816376
0.00203226 0.00051009 3.67746e-07
0.00051009 3.40741e-05 -1.77123e-07
3.67746e-07 -1.77123e-07 -0.000109967
0.00216749 0.000676341 9.09147e-06
0.000676341 0.000293918 -2.12752e-06
9.09147e-06 -2.12752e-06 -5.06306e-06
0.00208028 0.000626269 1.00361e-05
0.000626269 0.00014491 1.61797e-06
1.00361e-05 1.61797e-06 -0.000102998
0.00150061 0.000646094 1.07501e-05
0.000646094 0.000376901 -1.02435e-08
1.07501e-05 -1.02435e-08 -5.06265e-05
0.00209756 0.000774894 3.82721e-06
0.000774894 0.000489797 -4.91456e-07
3.82721e-06 -4.91456e-07 9.54847e-05
0.000531599 3.40961e-05 -1.57579e-06
3.40961e-05 3.29976e-05 -5.2996e-06
-1.57579e-06 -5.2996e-06 -4.93855e-05
0.000518846 8.28809e-05 1.30204e-06
8.28809e-05 5.36563e-05 3.23434e-07
1.30204e-06 3.23434e-07 -7.48672e-05
0.000235547 6.65427e-05 -3.53877e-07
6.65427e-05 -0.00013002 1.52589e-06
-3.53877e-07 1.52589e-06 -0.000248291
4.11164e-05 -2.07654e-05 4.24342e-07
-2.07654e-05 -0.000238509 -3.77823e-06
4.24342e-07 -3.77823e-06 -0.00035831
0.000586451 6.79584e-05 -3.55088e-07
6.79584e-05 0.00011923 6.60155e-08
-3.55088e-07 6.60155e-08 -7.33543e-06
0.000520049 9.80861e-05 -4.54575e-07
9.80861e-05 6.74162e-05 -3.84628e-08
-4.54575e-07 -3.84628e-08 -6.59218e-05
0.000754587 0.000145441 -3.14627e-06
0.000145441 0.000231266 -4.18341e-06
-3.14627e-06 -4.18341e-06 9.70354e-05
0.000241645 2.66674e-05 -1.7088e-06
2.66674e-05 -9.2595e-05 -1.68021e-07
-1.7088e-06 -1.68021e-07 -0.000236412
0.000680986 0.000102305 1.49309e-07
0.000102305 0.000168623 2.90766e-06
1.49309e-07 2.90766e-06 5.36262e-05
0.000556305 7.45292e-05 3.00932e-06
7.45292e-05 7.08385e-05 3.95027e-06
3.00932e-06 3.95027e-06 -5.02675e-06
0.000516907 2.54224e-05 -2.61054e-06
2.54224e-05 4.13522e-05 4.19953e-08
-2.61054e-06 4.19953e-08 -3.15919e-05
0.00126939 -2.15078e-06 1.95523e-06
-2.15078e-06 0.000480269 3.47122e-06
1.95523e-06 3.47122e-06 0.000461456
0.000402284 -6.75009e-05 3.15555e-06
-6.75009e-05 -2.55071e-05 -4.49777e-06
3.15555e-06 -4.49777e-06 -0.0001055
0.00133656 -1.22362e-05 -7.48239e-06
-1.22362e-05 0.000519206 -1.69954e-06
-7.48239e-06 -1.69954e-06 0.000499631
0.000733087 -2.46079e-05 3.02886e-05
-2.46079e-05 0.000134915 9.54067e-06
3.02886e-05 9.54067e-06 0.000139252
0.00139456 -2.27518e-05 -1.38887e-05
-2.27518e-05 0.000555452 -7.66719e-06
-1.38887e-05 -7.66719e-06 0.000533845
0.000760683 -3.97969e-05 1.23962e-05
-3.97969e-05 0.00015384 3.53487e-06
1.23962e-05 3.53487e-06 0.000153483
0.00264306 -0.000116839 -1.38866e-06
-0.000116839 0.00135929 -3.03331e-06
-1.38866e-06 -3.03331e-06 0.00135834
0.000290308 6.39765e-05 -4.40571e-06
6.39765e-05 -0.000101232 -6.19408e-06
-4.40571e-06 -6.19408e-06 -0.000143224
0.000402703 8.51552e-06 -3.59399e-06
8.51552e-06 -3.60605e-05 2.70132e-07
-3.59399e-06 2.70132e-07 -8.76771e-05
0.00308186 0.000160317 4.32152e-08
0.000160317 0.00166862 -6.95105e-06
4.32152e-08 -6.95105e-06 0.00165382
0.000522362 -8.12373e-05 -1.21421e-05
-8.12373e-05 2.52173e-05 1.22007e-05
-1.21421e-05 1.22007e-05 -4.32449e-05
0.00401225 0.000141738 -3.5862e-05
0.000141738 0.00225632 -1.45095e-07
-3.5862e-05 -1.45095e-07 0.00224414
0.0049923 0.000107027 -0.000170579
0.000107027 0.00287927 1.90797e-05
-0.000170579 1.90797e-05 0.00287276
0.00208257 0.000378767 -2.34046e-06
0.000378767 0.000126498 1.09339e-06
-2.34046e-06 1.09339e-06 -1.83673e-05
0.00209123 0.000209314 -3.04556e-06
0.000209314 9.55842e-05 -2.86115e-07
-3.04556e-06 -2.86115e-07 2.7683e-05
0.00208226 0.000288043 -1.18571e-06
0.000288043 2.1578e-05 -1.74134e-07
-1.18571e-06 -1.74134e-07 -3.01364e-05
0.00200813 0.000124303 -2.41583e-06
0.000124303 -5.05982e-06 -3.18963e-07
-2.41583e-06 -3.18963e-07 -1.22844e-05
0.0020133 5.02078e-05 -5.33804e-06
5.02078e-05 4.07418e-05 -1.0027e-07
-5.33804e-06 -1.0027e-07 5.23823e-06
0.00185605 5.20107e-06 -1.753e-06
5.20107e-06 7.69696e-05 2.28973e-07
-1.753e-06 2.28973e-07 -1.41405e-05
0.00202024 -6.60652e-06 -1.52546e-07
-6.60652e-06 5.48721e-05 1.58133e-08
-1.52546e-07 1.58133e-08 1.61711e-05
0.0020218 5.49468e-05 1.26506e-06
5.49468e-05 3.0194e-05 3.23427e-08
1.26506e-06 3.23427e-08 2.20574e-05
0.00207595 0.000199396 -1.50516e-07
0.000199396 2.14284e-05 -3.76838e-08
-1.50516e-07 -3.76838e-08 2.16132e-06
0.00208224 0.000130576 6.2861e-07
0.000130576 -1.79963e-05 1.66178e-07
6.2861e-07 1.66178e-07 1.2692e-06
0.00207352 0.000374661 -5.52734e-07
0.000374661 8.50914e-05 3.13849e-07
-5.52734e-07 3.13849e-07 -3.00334e-05
0.00218897 0.000301295 2.76198e-06
0.000301295 1.19918e-05 3.70378e-07
2.76198e-06 3.70378e-07 3.33548e-06
0.00197377 -1.25627e-05 4.40138e-06
-1.25627e-05 6.03608e-06 2.29159e-07
4.40138e-06 2.29159e-07 -4.00841e-06
0.00209107 6.23264e-05 2.39302e-07
6.23264e-05 -1.69729e-05 -6.33286e-08
2.39302e-07 -6.33286e-08 1.15133e-05
0.0021589 0.000200199 -3.8818e-07
0.000200199 -1.31219e-05 -1.54628e-07
-3.8818e-07 -1.54628e-07 4.16045e-06
0.00220387 0.000409856 -3.97392e-07
0.000409856 2.60648e-05 7.13761e-07
-3.97392e-07 7.13761e-07 -1.04604e-05
0.00204082 -6.82901e-05 -5.94331e-06
-6.82901e-05 7.49537e-05 5.72945e-07
-5.94331e-06 5.72945e-07 3.09371e-05
0.00202501 -0.000214739 -8.69878e-07
-0.000214739 7.69665e-05 1.17013e-08
-8.69878e-07 1.17013e-08 -4.23621e-06
0.0019526 -0.000119193 -4.98449e-06
-0.000119193 -2.85757e-07 9.93687e-07
-4.98449e-06 9.93687e-07 -1.44429e-05
0.00209391 -0.000310607 -5.39271e-06
-0.000310607 5.98847e-05 1.26921e-06
-5.39271e-06 1.26921e-06 7.66292e-06
0.00098071 -0.000361776 -6.69051e-06
-0.000361776 0.00012325 2.99938e-06
-6.69051e-06 2.99938e-06 -0.000184868
0.00153475 -0.000615906 1.15335e-05
-0.000615906 0.000327263 -3.79657e-06
1.15335e-05 -3.79657e-06 -8.79013e-05
0.00200224 -0.000733102 -2.55804e-06
-0.000733102 0.00036424 -2.47743e-06
-2.55804e-06 -2.47743e-06 -4.2874e-05
0.00196861 -0.00044113 -3.3668e-06
-0.00044113 9.71258e-05 1.18362e-06
-3.3668e-06 1.18362e-06 -5.21286e-05
0.00205651 -0.000399752 -6.87069e-07
-0.000399752 3.95048e-05 1.26699e-06
-6.87069e-07 1.26699e-06 -2.24558e-05
0.00194314 -0.000533916 4.05904e-07
-0.000533916 7.74588e-05 2.00791e-06
4.05904e-07 2.00791e-06 -8.8005e-05
0.00203689 -0.000608783 -1.22016e-06
-0.000608783 0.000292623 -2.43907e-06
-1.22016e-06 -2.43907e-06 1.09836e-05
0.00213521 -0.000571076 1.58069e-05
-0.000571076 0.000249253 -5.98547e-06
1.58069e-05 -5.98547e-06 4.07353e-05
0.000926163 -0.000381842 -6.00417e-08
-0.000381842 0.000145358 6.68509e-07
-6.00417e-08 6.68509e-07 -0.000183764
0.00135966 -0.000422259 1.45139e-05
-0.000422259 0.000403835 -7.99283e-06
1.45139e-05 -7.99283e-06 5.16068e-05
-0.000158309 -0.000148773 1.76499e-06
-0.000148773 -0.000432351 -1.2553e-05
1.76499e-06 -1.2553e-05 -0.000736067
9.93736e-05 -7.85428e-05 4.51128e-07
-7.85428e-05 -0.000215815 5.46099e-06
4.51128e-07 5.46099e-06 -0.000364092
0.000265707 -6.1206e-05 4.78175e-06
-6.1206e-05 -4.85224e-05 5.72926e-07
4.78175e-06 5.72926e-07 -0.000333247
0.0019491 -7.56008e-05 7.81822e-08
-7.56008e-05 -1.92085e-05 -1.7402e-07
7.81822e-08 -1.7402e-07 -2.27884e-05
0.00205062 -0.000187688 1.3794e-06
-0.000187688 1.72796e-05 -1.95521e-08
1.3794e-06 -1.95521e-08 2.8682e-06
0.00214296 -0.000360029 -6.38737e-07
-0.000360029 2.13962e-05 6.02295e-08
-6.38737e-07 6.02295e-08 -4.79097e-06
0.00146227 -0.000534018 -1.26931e-06
-0.000534018 0.000415531 -7.07183e-07
-1.26931e-06 -7.07183e-07 2.10945e-05
0.00151904 -0.000697163 3.5873e-06
-0.000697163 0.000292041 -8.5681e-07
3.5873e-06 -8.5681e-07 -0.000156197
0.00214111 -0.000790625 -1.49319e-07
-0.000790625 0.00042078 -2.87809e-07
-1.49319e-07 -2.87809e-07 3.24902e-06
0.00208948 -0.000465916 3.53993e-07
-0.000465916 8.41599e-05 1.59154e-07
3.53993e-07 1.59154e-07 -5.85148e-06
0.00213207 -0.000628791 2.14064e-06
-0.000628791 0.000296272 -3.7782e-06
2.14064e-06 -3.7782e-06 2.32789e-05
0.00218313 -0.000622128 -1.61509e-06
-0.000622128 0.000175884 -3.01762e-07
-1.61509e-06 -3.01762e-07 -8.53817e-06
4.62046e-05 4.35181e-05 -1.96228e-06
4.35181e-05 -0.000245287 -9.09027e-07
-1.96228e-06 -9.09027e-07 -0.000348571
0.00133588 -0.000485374 2.86946e-08
-0.000485374 0.000383705 -1.94491e-06
2.86946e-08 -1.94491e-06 8.57073e-07
0.00144208 -0.000480483 -3.16085e-06
-0.000480483 0.000460328 1.62993e-06
-3.16085e-06 1.62993e-06 6.72465e-05
0.00154017 -0.000362109 -9.60257e-07
-0.000362109 0.000608326 2.74362e-06
-9.60257e-07 2.74362e-06 0.0002522
0.00124522 -0.000259874 1.76758e-06
-0.000259874 0.000553199 -2.57193e-06
1.76758e-06 -2.57193e-06 0.000246136
0.0004041 -8.87348e-05 -9.92362e-07
-8.87348e-05 5.70572e-05 1.453e-06
-9.92362e-07 1.453e-06 -0.000194122
0.00205656 -9.7974e-05 1.44488e-06
-9.7974e-05 -2.09779e-05 1.62377e-07
1.44488e-06 1.62377e-07 -6.60764e-07
0.00221481 -0.000251213 2.05401e-07
-0.000251213 -1.92676e-05 8.35413e-08
2.05401e-07 8.35413e-08 1.55525e-05
0.00222103 -0.000443517 7.64367e-07
-0.000443517 2.07115e-05 -4.76293e-07
7.64367e-07 -4.76293e-07 1.40575e-05
0.0022577 -0.000557415 1.38338e-06
-0.000557415 8.39936e-05 -2.85677e-06
1.38338e-06 -2.85677e-06 1.43524e-05
0.00166859 -0.000635453 -1.32525e-05
-0.000635453 0.000499042 6.09192e-06
-1.32525e-05 6.09192e-06 6.50965e-05
0.00235226 -0.00072527 -8.64433e-06
-0.00072527 0.000325775 -6.71971e-06
-8.64433e-06 -6.71971e-06 7.28977e-05
0.00191605 -0.000819608 -4.30048e-05
-0.000819608 0.000501219 6.39862e-06
-4.30048e-05 6.39862e-06 9.46698e-06
0.00235087 -0.000853262 -2.68534e-05
-0.000853262 0.000561675 5.29971e-07
-2.68534e-05 5.29971e-07 0.000122796
-5.38175e-05 5.25378e-05 -6.1956e-06
5.25378e-05 -0.000311041 -2.79363e-06
-6.1956e-06 -2.79363e-06 -0.000389527
0.000898333 -4.46709e-06 -3.23823e-06
-4.46709e-06 0.000351275 -6.02338e-07
-3.23823e-06 -6.02338e-07 0.000167295
0.00183592 -0.000285592 -6.18315e-06
-0.000285592 0.00097333 -5.78344e-07
-6.18315e-06 -5.78344e-07 0.00067779
0.000666378 -0.000156076 -1.88635e-07
-0.000156076 0.000141089 -6.28348e-06
-1.88635e-07 -6.28348e-06 -0.000174301
0.00268368 -0.000682083 -2.29455e-05
-0.000682083 0.00118983 1.37883e-05
-2.29455e-05 1.37883e-05 0.000747733
0.00158959 -0.000476975 -3.75205e-06
-0.000476975 0.000602089 2.2246e-05
-3.75205e-06 2.2246e-05 0.000162862
0.000538067 3.26175e-05 -1.12445e-06
3.26175e-05 4.50397e-05 -5.76652e-06
-1.12445e-06 -5.76652e-06 -5.08663e-05
-0.000247309 2.33714e-05 1.03665e-06
2.33714e-05 -0.000401177 -1.13301e-06
1.03665e-06 -1.13301e-06 -0.0005843
0.00199406 0.000467015 -1.69982e-06
0.000467015 0.000105608 -8.63959e-07
-1.69982e-06 -8.63959e-07 -6.78362e-05
0.000373885 8.16482e-05 -1.936e-06
8.16482e-05 -7.52161e-05 2.52254e-06
-1.936e-06 2.52254e-06 -0.000330989
0.00138777 0.000422871 -2.50778e-06
0.000422871 0.000419893 -5.37975e-06
-2.50778e-06 -5.37975e-06 0.000110505
-0.00132587 3.16264e-05 -5.14239e-06
3.16264e-05 -0.00133949 -1.2838e-09
-5.14239e-06 -1.2838e-09 -0.00150692
0.00213313 0.000616805 3.05314e-06
0.000616805 0.000304945 1.64931e-06
3.05314e-06 1.64931e-06 3.3883e-05
0.0020542 0.000590231 -6.38981e-06
0.000590231 0.000160914 1.40628e-07
-6.38981e-06 1.40628e-07 -6.77041e-05
0.00168343 0.000651493 -4.45354e-06
0.000651493 0.000526704 4.30759e-06
-4.45354e-06 4.30759e-06 8.97414e-05
0.0020634 0.000705644 -7.02252e-06
0.000705644 0.000477384 9.36115e-07
-7.02252e-06 9.36115e-07 0.000108399
0.00079593 0.000101544 -5.60534e-07
0.000101544 0.000233801 9.27681e-08
-5.60534e-07 9.27681e-08 8.97411e-05
0.000553015 9.27348e-05 1.41393e-06
9.27348e-05 0.000156675 -3.39299e-08
1.41393e-06 -3.39299e-08 -0.000122673
0.00127655 0.000457769 -3.35589e-06
0.000457769 0.000357509 -1.27206e-06
-3.35589e-06 -1.27206e-06 4.03385e-06
0.000486638 0.000172227 5.97577e-07
0.000172227 -0.000141031 -1.0855e-06
5.97577e-07 -1.0855e-06 -0.000366582
0.00194263 0.000435718 3.18561e-06
0.000435718 0.000653221 -1.74429e-06
3.18561e-06 -1.74429e-06 0.000377923
0.00218493 0.000524848 -2.53988e-06
0.000524848 0.00011418 -8.62817e-07
-2.53988e-06 -8.62817e-07 -3.03764e-05
0.00231013 0.000676935 2.78705e-06
0.000676935 0.000385181 -5.70271e-07
2.78705e-06 -5.70271e-07 9.25463e-05
0.00226684 0.000650126 2.11714e-06
0.000650126 0.000250057 2.75688e-06
2.11714e-06 2.75688e-06 -1.57806e-06
0.00150909 0.000651287 3.87936e-06
0.000651287 0.000384734 1.25389e-06
3.87936e-06 1.25389e-06 -4.64827e-05
0.00195605 0.000783689 -4.84568e-06
0.000783689 0.000408059 2.47953e-07
-4.84568e-06 2.47953e-07 1.76764e-06
-0.000907856 6.44671e-06 -3.88797e-06
6.44671e-06 -0.000817468 6.85427e-06
-3.88797e-06 6.85427e-06 -0.000957733
-0.000509311 0.000253016 1.03049e-06
0.000253016 -0.000428857 1.54841e-06
1.03049e-06 1.54841e-06 -0.000763531
0.00145542 0.000513592 3.41098e-06
0.000513592 0.000428277 -3.37196e-06
3.41098e-06 -3.37196e-06 5.9897e-05
0.000147124 0.000228682 1.33442e-06
0.000228682 -0.000461423 -3.79723e-06
1.33442e-06 -3.79723e-06 -0.000682277
0.00241655 0.000529643 5.34885e-06
0.000529643 -4.37096e-05 2.34929e-06
5.34885e-06 2.34929e-06 -2.35023e-05
0.00271547 0.000654063 8.95134e-06
0.000654063 0.000446677 1.56823e-06
8.95134e-06 1.56823e-06 0.000243376
0.00221488 0.000775579 7.37127e-06
0.000775579 0.000346319 -3.36862e-06
7.37127e-06 -3.36862e-06 -1.67154e-05
0.00169154 0.000760297 1.8199e-06
0.000760297 0.000358315 -4.95014e-07
1.8199e-06 -4.95014e-07 -9.897e-05
0.000792014 0.000127397 -6.62336e-07
0.000127397 0.000236105 -2.721e-06
-6.62336e-07 -2.721e-06 9.76536e-05
0.000525019 0.000116642 -1.31562e-06
0.000116642 6.70688e-05 -8.492e-07
-1.31562e-06 -8.492e-07 -6.44789e-05
0.0013351 0.000115477 -8.54611e-06
0.000115477 0.000578386 -4.07786e-06
-8.54611e-06 -4.07786e-06 0.000473255
0.000531391 4.66138e-05 -3.38692e-07
4.66138e-05 5.98751e-05 -3.37624e-06
-3.38692e-07 -3.37624e-06 -4.86332e-05
-9.50936e-05 4.43128e-05 1.84947e-07
4.43128e-05 -0.000313812 -1.39113e-06
1.84947e-07 -1.39113e-06 -0.000436066
0.000602277 5.36666e-05 -7.37202e-07
5.36666e-05 0.000121418 2.31105e-07
-7.37202e-07 2.31105e-07 5.93912e-06
0.000480204 0.000134281 3.31573e-07
0.000134281 7.79238e-05 8.40927e-07
3.31573e-07 8.40927e-07 -5.47624e-05
0.000480504 6.17329e-05 1.00641e-06
6.17329e-05 6.8994e-05 3.37257e-08
1.00641e-06 3.37257e-08 -8.42739e-05
0.000681732 0.000117717 5.42409e-06
0.000117717 0.000144745 -2.96487e-06
5.42409e-06 -2.96487e-06 6.02131e-05
0.000687756 2.11113e-05 3.24432e-06
2.11113e-05 0.000195329 -4.85236e-06
3.24432e-06 -4.85236e-06 4.95752e-05
0.000203238 6.84093e-05 -3.79964e-07
6.84093e-05 -0.000109083 2.37913e-06
-3.79964e-07 2.37913e-06 -0.000254762
0.00067329 0.000114575 2.15563e-06
0.000114575 0.000165783 3.95017e-06
2.15563e-06 3.95017e-06 4.71404e-05
0.000461048 7.97838e-05 3.02288e-06
7.97838e-05 1.73347e-05 3.90228e-06
3.02288e-06 3.90228e-06 -6.47503e-05
0.000452353 1.67433e-05 -1.55466e-06
1.67433e-05 3.40987e-06 -3.2533e-07
-1.55466e-06 -3.2533e-07 -7.0418e-05
0.00123392 8.05913e-06 1.35192e-06
8.05913e-06 0.000463823 3.06893e-06
1.35192e-06 3.06893e-06 0.000445364
0.000439635 -4.24885e-05 5.80023e-07
-4.24885e-05 -9.38994e-06 -3.4581e-06
5.80023e-07 -3.4581e-06 -8.04142e-05
0.00132323 -4.94151e-06 -7.18556e-06
-4.94151e-06 0.000514077 -1.71968e-06
-7.18556e-06 -1.71968e-06 0.000496044
0.000734286 -1.498e-05 2.77352e-05
-1.498e-05 0.000138069 9.34877e-06
2.77352e-05 9.34877e-06 0.000143346
0.00136604 -1.87056e-05 -1.09106e-05
-1.87056e-05 0.000537859 -7.15014e-06
-1.09106e-05 -7.15014e-06 0.00051891
0.000746856 -2.90852e-05 1.07679e-05
-2.90852e-05 0.000142046 3.57085e-06
1.07679e-05 3.57085e-06 0.000144619
0.000734549 -4.14618e-05 4.70256e-07
-4.14618e-05 0.000137 -3.36183e-06
4.70256e-07 -3.36183e-06 0.000135606
0.000379963 4.41642e-05 -1.88534e-06
4.41642e-05 -6.73957e-05 -4.2474e-06
-1.88534e-06 -4.2474e-06 -9.45297e-05
0.00039557 7.17118e-05 -4.19023e-07
7.17118e-05 -3.30139e-05 3.37688e-07
-4.19023e-07 3.37688e-07 -7.76727e-05
0.00260434 0.0001226 5.92782e-06
0.0001226 0.00135534 -5.45727e-06
5.92782e-06 -5.45727e-06 0.00135105
0.000479273 8.88449e-06 -5.86204e-06
8.88449e-06 1.38746e-05 1.04499e-05
-5.86204e-06 1.04499e-05 -4.05634e-05
0.003219 0.000159517 -1.82041e-05
0.000159517 0.0017536 -1.89921e-06
-1.82041e-05 -1.89921e-06 0.00173866
0.00420247 8.50128e-05 -0.000140636
8.50128e-05 0.00237091 1.4092e-05
-0.000140636 1.4092e-05 0.00237219
0.00212573 0.000376648 -9.12528e-07
0.000376648 0.000128968 4.45323e-07
-9.12528e-07 4.45323e-07 1.17262e-05
0.00208902 0.000197728 -4.22787e-06
0.000197728 3.2607e-05 -6.15335e-07
-4.22787e-06 -6.15335e-07 1.49292e-05
0.00212038 0.000301462 2.16325e-07
0.000301462 -3.28538e-05 3.34063e-07
2.16325e-07 3.34063e-07 -3.47988e-05
0.00206254 0.000131932 2.31934e-08
0.000131932 -3.62219e-05 -9.04918e-09
2.31934e-08 -9.04918e-09 -1.05267e-05
0.00202372 5.57668e-05 -4.19264e-06
5.57668e-05 3.46587e-05 -3.22831e-07
-4.19264e-06 -3.22831e-07 2.29571e-05
0.00203526 -9.48586e-06 -6.72492e-06
-9.48586e-06 6.91773e-05 1.08002e-07
-6.72492e-06 1.08002e-07 2.92242e-05
0.00198611 -1.08161e-05 8.7058e-08
-1.08161e-05 1.50217e-05 -3.53677e-08
8.7058e-08 -3.53677e-08 5.80613e-06
0.0020782 6.50749e-05 1.13821e-06
6.50749e-05 -2.05888e-05 1.32824e-07
1.13821e-06 1.32824e-07 5.86535e-06
0.00215734 0.000206971 1.11087e-06
0.000206971 -1.47581e-05 1.99357e-07
1.11087e-06 1.99357e-07 5.57203e-06
0.00221227 0.000399454 5.7722e-07
0.000399454 2.46579e-05 1.82374e-07
5.7722e-07 1.82374e-07 -1.08057e-05
0.00204812 -1.64594e-05 -3.04905e-07
-1.64594e-05 -2.86065e-05 6.49246e-08
-3.04905e-07 6.49246e-08 -8.20834e-06
0.00220905 0.000116378 -1.7178e-06
0.000116378 -5.47339e-05 -5.35584e-07
-1.7178e-06 -5.35584e-07 1.21826e-05
0.00238004 0.000313756 1.7735e-06
0.000313756 1.40921e-06 -3.67663e-08
1.7735e-06 -3.67663e-08 3.93433e-05
0.00193696 -8.39065e-05 -4.24506e-06
-8.39065e-05 -2.94087e-05 2.37613e-07
-4.24506e-06 2.37613e-07 -3.39074e-05
0.00208903 -0.000188775 -3.409e-06
-0.000188775 3.8449e-05 6.75706e-07
-3.409e-06 6.75706e-07 2.3923e-05
0.00214274 -0.000353204 -2.25335e-06
-0.000353204 3.8603e-05 6.41615e-07
-2.25335e-06 6.41615e-07 6.8739e-06
0.001571 -0.000547234 1.17059e-06
-0.000547234 0.000481196 -8.07822e-07
1.17059e-06 -8.07822e-07 8.48961e-05
0.00151364 -0.00067261 2.28887e-05
-0.00067261 0.000294216 -7.53216e-06
2.28887e-05 -7.53216e-06 -0.0001434
0.00194823 -0.000776888 1.08038e-06
-0.000776888 0.000321721 3.46395e-07
1.08038e-06 3.46395e-07 -9.63675e-05
0.00207325 -0.000462238 -1.65769e-06
-0.000462238 7.70637e-05 1.62226e-06
-1.65769e-06 1.62226e-06 -1.55176e-05
0.00212415 -0.000602034 8.66013e-06
-0.000602034 0.000173586 3.27558e-06
8.66013e-06 3.27558e-06 -4.50025e-06
0.00224543 -0.000663743 1.63935e-05
-0.000663743 0.000342556 -6.71865e-06
1.63935e-05 -6.71865e-06 6.5677e-05
0.00109225 -0.000448084 6.58874e-06
-0.000448084 0.000233291 -6.39037e-06
6.58874e-06 -6.39037e-06 -0.00013877
0.00164009 -0.000519963 1.64687e-05
-0.000519963 0.00059603 -1.73778e-05
1.64687e-05 -1.73778e-05 0.000195474
0.000960383 -0.000372823 -3.7725e-07
-0.000372823 0.000271867 -1.2617e-05
-3.7725e-07 -1.2617e-05 -9.80742e-05
0.000226889 3.89264e-05 3.98107e-06
3.89264e-05 -0.000135913 2.02834e-06
3.98107e-06 2.02834e-06 -0.000234684
0.00171173 -0.000284476 3.37907e-06
-0.000284476 0.000813478 4.31417e-06
3.37907e-06 4.31417e-06 0.000518776
-0.000288718 1.74915e-06 6.51307e-06
1.74915e-06 -0.000388543 5.95848e-07
6.51307e-06 5.95848e-07 -0.000625374
0.00207097 -9.56025e-05 -5.60474e-07
-9.56025e-05 -1.24192e-05 1.36223e-07
-5.60474e-07 1.36223e-07 6.00437e-06
0.00218303 -0.000259063 9.71861e-08
-0.000259063 -4.22979e-05 -1.0561e-07
9.71861e-08 -1.0561e-07 -5.87601e-06
0.00220814 -0.000435438 -6.80779e-07
-0.000435438 1.88526e-05 3.4135e-07
-6.80779e-07 3.4135e-07 9.32002e-06
0.00167866 -0.000632268 -6.85791e-07
-0.000632268 0.000525329 8.51528e-07
-6.85791e-07 8.51528e-07 9.21788e-05
0.0013316 -0.000741756 5.49405e-06
-0.000741756 0.000164255 -2.1297e-06
5.49405e-06 -2.1297e-06 -0.000307919
0.00240144 -0.000838971 -4.1174e-06
-0.000838971 0.000590408 -2.28191e-07
-4.1174e-06 -2.28191e-07 0.000167858
0.00222342 -0.000565843 2.26119e-07
-0.000565843 6.57165e-05 -5.50349e-07
2.26119e-07 -5.50349e-07 -1.16404e-05
0.0020196 -0.000682296 2.46765e-06
-0.000682296 0.000149813 -1.15992e-06
2.46765e-06 -1.15992e-06 -8.90764e-05
0.000250603 6.04217e-05 -1.75766e-06
6.04217e-05 -0.000121694 -1.32366e-06
-1.75766e-06 -1.32366e-06 -0.00019653
0.000636286 -3.41963e-05 -7.82314e-07
-3.41963e-05 0.000176798 9.25757e-07
-7.82314e-07 9.25757e-07 1.35229e-06
0.000962038 -0.000488807 -3.24652e-06
-0.000488807 0.000124975 2.20261e-06
-3.24652e-06 2.20261e-06 -0.000263818
0.00148322 -0.000440251 -5.74534e-06
-0.000440251 0.000548509 8.75635e-07
-5.74534e-06 8.75635e-07 0.000116041
0.00165208 -0.000234384 -5.80517e-07
-0.000234384 0.000744209 -1.13279e-06
-5.80517e-07 -1.13279e-06 0.000421286
0.00102075 -0.000208509 -6.81908e-07
-0.000208509 0.000452131 1.5769e-06
-6.81908e-07 1.5769e-06 0.000167612
0.00217572 -0.000133191 -1.80253e-06
-0.000133191 -5.62395e-05 9.59704e-07
-1.80253e-06 9.59704e-07 1.00837e-05
0.0023233 -0.00037202 -2.07821e-06
-0.00037202 -8.10833e-05 1.01245e-06
-2.07821e-06 1.01245e-06 7.06695e-06
0.00230009 -0.000531577 2.61001e-06
-0.000531577 1.92474e-05 -1.05206e-06
2.61001e-06 -1.05206e-06 1.74661e-05
0.00237596 -0.000728568 6.82646e-06
-0.000728568 0.000166319 -4.52156e-06
6.82646e-06 -4.52156e-06 1.25975e-05
0.000938424 -0.000587184 -1.06246e-05
-0.000587184 6.31323e-05 -7.35927e-06
-1.06246e-05 -7.35927e-06 -0.000368828
0.00277801 -0.000927348 -6.84623e-06
-0.000927348 0.00071549 1.04543e-06
-6.84623e-06 1.04543e-06 0.000317
0.0023792 -0.000946397 -4.72824e-05
-0.000946397 0.000702888 -3.2389e-06
-4.72824e-05 -3.2389e-06 0.00016364
0.000543079 4.51739e-05 -2.93845e-07
4.51739e-05 4.50693e-05 9.60002e-09
-2.93845e-07 9.60002e-09 -1.11928e-05
0.000699679 -0.000147524 3.80338e-06
-0.000147524 0.000204939 -9.12149e-07
3.80338e-06 -9.12149e-07 8.93644e-05
0.000346391 8.85745e-05 -8.43419e-06
8.85745e-05 -1.3502e-05 -2.79906e-07
-8.43419e-06 -2.79906e-07 -0.000135825
0.000837536 -7.47042e-05 -4.4102e-06
-7.47042e-05 0.000328172 2.13635e-06
-4.4102e-06 2.13635e-06 0.000100034
-0.000138121 -0.000148918 2.30086e-06
-0.000148918 -0.000320421 -8.4025e-06
2.30086e-06 -8.4025e-06 -0.000594677
0.000140222 -0.000166485 6.66479e-06
-0.000166485 -0.000139355 -8.59039e-07
6.66479e-06 -8.59039e-07 -0.000545539
0.00128586 -0.000558248 -4.01003e-05
-0.000558248 0.000345919 2.66386e-05
-4.01003e-05 2.66386e-05 -4.64808e-05
0.00311926 -0.000572413 -3.22676e-05
-0.000572413 0.00173947 1.90684e-05
-3.22676e-05 1.90684e-05 0.00107352
0.000388499 5.28505e-05 -2.72083e-07
5.28505e-05 -3.73118e-05 -1.94433e-06
-2.72083e-07 -1.94433e-06 -0.000164343
0.00106765 0.000238892 -8.54378e-07
0.000238892 0.00046083 3.42668e-07
-8.54378e-07 3.42668e-07 0.000174697
0.00233821 0.000539905 -2.86564e-06
0.000539905 0.000195207 -1.61765e-06
-2.86564e-06 -1.61765e-06 4.98368e-05
0.000343083 0.000200842 -4.25057e-06
0.000200842 -0.000212294 1.95483e-06
-4.25057e-06 1.95483e-06 -0.000467134
0.00115321 0.000439464 -1.37612e-06
0.000439464 0.000276731 3.94372e-07
-1.37612e-06 3.94372e-07 -7.28167e-05
0.00169977 0.000374647 -2.50527e-06
0.000374647 0.000479716 -1.9216e-06
-2.50527e-06 -1.9216e-06 0.000220867
0.0024347 0.000673588 -7.37584e-06
0.000673588 0.000467657 -3.05784e-07
-7.37584e-06 -3.05784e-07 0.000182764
0.00244588 0.000673038 -1.16005e-05
0.000673038 0.000351899 4.62826e-06
-1.16005e-05 4.62826e-06 9.70111e-05
0.00162502 0.00067332 -4.20095e-06
0.00067332 0.000452544 1.57176e-06
-4.20095e-06 1.57176e-06 1.52607e-05
0.00177217 0.000789166 -6.24427e-06
0.000789166 0.000298428 -3.60692e-07
-6.24427e-06 -3.60692e-07 -0.00011809
-0.000231893 6.92843e-05 1.14189e-06
6.92843e-05 -0.00038785 1.48252e-06
1.14189e-06 1.48252e-06 -0.000552031
-4.76067e-05 0.000279263 -5.18221e-07
0.000279263 -0.000149154 -2.52966e-06
-5.18221e-07 -2.52966e-06 -0.000481174
0.00156702 0.000538379 1.28587e-06
0.000538379 0.000475621 1.8568e-07
1.28587e-06 1.8568e-07 9.6263e-05
0.00168827 0.000374025 -3.85706e-06
0.000374025 0.000521916 1.48161e-06
-3.85706e-06 1.48161e-06 0.000270018
0.00240252 0.000509034 6.79479e-07
0.000509034 -7.25216e-05 -8.30608e-07
6.79479e-07 -8.30608e-07 -4.16296e-05
0.00259335 0.000654649 3.47266e-06
0.000654649 0.000374107 -1.52186e-08
3.47266e-06 -1.52186e-08 0.000163315
0.00214126 0.000753845 -2.37906e-06
0.000753845 0.000320408 -3.54682e-08
-2.37906e-06 -3.54682e-08 -3.4186e-05
0.00188319 0.000776101 1.03017e-06
0.000776101 0.000451128 1.19417e-07
1.03017e-06 1.19417e-07 -2.02596e-06
-0.000506366 3.57817e-05 -3.29864e-06
3.57817e-05 -0.000547897 5.17645e-06
-3.29864e-06 5.17645e-06 -0.000712755
0.00227367 0.00038692 1.28635e-05
0.00038692 -0.000193757 3.48441e-06
1.28635e-05 3.48441e-06 -0.00011039
0.00318099 0.0005922 8.61611e-06
0.0005922 0.00179012 9.86468e-06
8.61611e-06 9.86468e-06 0.00142844
0.00135043 0.000517535 2.83469e-06
0.000517535 0.000263002 -2.74079e-06
2.83469e-06 -2.74079e-06 -8.162e-05
0.00257756 0.000634526 -1.29148e-05
0.000634526 0.000182718 -7.33429e-06
-1.29148e-05 -7.33429e-06 0.00011672
0.00122955 0.000700893 4.32921e-06
0.000700893 -0.000309389 -8.37953e-06
4.32921e-06 -8.37953e-06 -0.000643175
0.00277999 0.000901147 1.31181e-06
0.000901147 0.000908327 4.03639e-06
1.31181e-06 4.03639e-06 0.000424101
0.000780311 0.000127359 -1.22191e-06
0.000127359 0.000228484 -2.92612e-06
-1.22191e-06 -2.92612e-06 9.36982e-05
0.000623542 0.000118438 -3.82848e-06
0.000118438 0.00015561 -1.67996e-06
-3.82848e-06 -1.67996e-06 4.38785e-05
0.00108148 0.00011124 -2.36029e-06
0.00011124 0.000444499 3.68721e-06
-2.36029e-06 3.68721e-06 0.000374036
0.000483919 7.97422e-06 1.03838e-06
7.97422e-06 4.82896e-05 -3.81752e-06
1.03838e-06 -3.81752e-06 -6.75738e-05
0.000680232 8.84747e-05 2.66051e-06
8.84747e-05 0.000200758 -1.18696e-06
2.66051e-06 -1.18696e-06 4.1649e-05
-0.0003644 8.71937e-05 -2.84727e-06
8.71937e-05 -0.000418915 5.372e-06
-2.84727e-06 5.372e-06 -0.0005405
0.000548053 2.4284e-05 -1.5227e-06
2.4284e-05 9.20625e-05 1.91796e-08
-1.5227e-06 1.91796e-08 -2.94957e-05
0.00031327 -1.01426e-05 -1.02097e-06
-1.01426e-05 -2.49256e-05 -1.99151e-07
-1.02097e-06 -1.99151e-07 -0.00018114
7.05586e-05 6.08818e-05 -8.3772e-07
6.08818e-05 -0.000208569 2.08118e-06
-8.3772e-07 2.08118e-06 -0.000280479
0.000799907 0.000108907 1.14788e-06
0.000108907 0.000279111 -1.59449e-06
1.14788e-06 -1.59449e-06 0.000121058
0.00180729 0.000149929 -2.6123e-07
0.000149929 0.000838103 -9.84992e-07
-2.6123e-07 -9.84992e-07 0.000792099
0.00038045 2.97446e-05 1.07537e-05
2.97446e-05 -1.9565e-05 -8.23006e-06
1.07537e-05 -8.23006e-06 -0.000107629
0.000319459 0.000115498 6.63942e-07
0.000115498 -1.07118e-05 2.60301e-06
6.63942e-07 2.60301e-06 -0.000178907
0.000568737 5.22506e-05 1.42035e-06
5.22506e-05 0.000129716 4.23379e-06
1.42035e-06 4.23379e-06 -3.76387e-05
0.000562595 3.19843e-05 2.4257e-06
3.19843e-05 9.12319e-05 3.49982e-06
2.4257e-06 3.49982e-06 -3.1256e-05
0.00048038 -6.11097e-05 -8.503e-07
-6.11097e-05 2.57851e-05 3.15253e-06
-8.503e-07 3.15253e-06 -5.63745e-05
0.000483916 1.23304e-05 3.8392e-07
1.23304e-05 2.26176e-05 -3.92551e-07
3.8392e-07 -3.92551e-07 -5.29987e-05
0.00130654 2.98422e-05 3.4877e-06
2.98422e-05 0.000517839 3.30755e-06
3.4877e-06 3.30755e-06 0.000497053
0.000488189 5.741e-06 3.82969e-07
5.741e-06 1.56004e-05 -3.59843e-06
3.82969e-07 -3.59843e-06 -5.14114e-05
0.00131822 1.33132e-05 -6.86684e-06
1.33132e-05 0.000517321 -1.75258e-06
-6.86684e-06 -1.75258e-06 0.000498618
0.000741075 -7.65835e-06 2.2717e-05
-7.65835e-06 0.000147222 9.05295e-06
2.2717e-05 9.05295e-06 0.000152305
0.00134936 -8.83928e-06 -8.60333e-06
-8.83928e-06 0.000530382 -6.8508e-06
-8.60333e-06 -6.8508e-06 0.000512875
0.000768834 -1.9446e-05 8.46856e-06
-1.9446e-05 0.000156778 3.57687e-06
8.46856e-06 3.57687e-06 0.000160718
0.000763798 -3.11653e-05 3.386e-07
-3.11653e-05 0.000150594 -3.07425e-06
3.386e-07 -3.07425e-06 0.000152433
0.0006256 -1.31768e-05 1.48146e-06
-1.31768e-05 9.08086e-05 -1.27106e-06
1.48146e-06 -1.27106e-06 3.89509e-05
0.000399816 2.79953e-05 -2.67047e-07
2.79953e-05 -6.67859e-05 -3.67112e-06
-2.67047e-07 -3.67112e-06 -8.6064e-05
0.000415844 4.87838e-05 3.30557e-07
4.87838e-05 -4.17208e-05 2.61978e-07
3.30557e-07 2.61978e-07 -7.07171e-05
0.00240327 9.59209e-05 1.0928e-05
9.59209e-05 0.00121709 -4.75441e-06
1.0928e-05 -4.75441e-06 0.00122013
0.000474874 6.27544e-05 5.05957e-06
6.27544e-05 1.03634e-05 7.72629e-06
5.05957e-06 7.72629e-06 -3.20944e-05
0.002796 0.000133162 -4.90695e-06
0.000133162 0.00147831 -5.61509e-07
-4.90695e-06 -5.61509e-07 0.00147155
0.00344958 0.000118214 -5.48168e-05
0.000118214 0.0018881 6.30749e-06
-5.48168e-05 6.30749e-06 0.00188194
0.0022233 0.000389755 4.10522e-07
0.000389755 2.46039e-05 -2.71897e-07
4.10522e-07 -2.71897e-07 -9.60637e-06
0.00215635 0.000213758 -5.76653e-07
0.000213758 -1.48091e-05 2.05699e-07
-5.76653e-07 2.05699e-07 7.9679e-06
0.0020651 6.88687e-05 -2.20573e-07
6.88687e-05 -2.35357e-05 -2.424e-09
-2.20573e-07 -2.424e-09 7.41753e-07
0.00199727 -8.98056e-06 -4.4254e-06
-8.98056e-06 2.35048e-05 -2.74308e-07
-4.4254e-06 -2.74308e-07 1.50533e-05
0.00205399 -1.12824e-05 -9.65976e-07
-1.12824e-05 -2.62448e-05 -3.76241e-08
-9.65976e-07 -3.76241e-08 -3.26767e-06
0.00219435 0.000109757 -4.05975e-08
0.000109757 -5.41115e-05 3.44036e-07
-4.05975e-08 3.44036e-07 1.02463e-05
0.00230802 0.000320766 -1.21692e-06
0.000320766 -2.97703e-05 -9.11994e-08
-1.21692e-06 -9.11994e-08 7.06775e-06
0.0021739 -1.0997e-05 -2.31884e-06
-1.0997e-05 -7.13096e-05 6.78643e-08
-2.31884e-06 6.78643e-08 4.24715e-06
0.0024137 0.000164968 4.10317e-06
0.000164968 -5.18668e-05 -1.38004e-06
4.10317e-06 -1.38004e-06 2.53936e-05
0.00259658 0.000121488 1.32581e-05
0.000121488 0.000135767 1.25281e-05
1.32581e-05 1.25281e-05 0.000221248
0.00208354 -9.37408e-05 -1.27957e-06
-9.37408e-05 -4.73886e-06 -9.34352e-08
-1.27957e-06 -9.34352e-08 1.17276e-05
0.00215513 -0.000268385 -5.36478e-07
-0.000268385 -6.40679e-05 -2.32579e-07
-5.36478e-07 -2.32579e-07 -2.57437e-05
0.00219954 -0.000426934 -2.53991e-07
-0.000426934 1.9573e-05 -1.576e-07
-2.53991e-07 -1.576e-07 8.17042e-06
0.00145391 -0.000613118 9.56726e-06
-0.000613118 0.000388685 -4.12498e-06
9.56726e-06 -4.12498e-06 -4.27575e-05
0.00188644 -0.000804144 3.04425e-05
-0.000804144 0.000484484 -1.76507e-06
3.04425e-05 -1.76507e-06 -1.47369e-06
0.00198201 -0.000767542 1.45956e-05
-0.000767542 0.000358632 -1.4762e-06
1.45956e-05 -1.4762e-06 -3.84068e-05
0.00217842 -0.000571115 1.16963e-06
-0.000571115 4.52401e-05 3.22736e-06
1.16963e-06 3.22736e-06 -4.034e-05
0.00188985 -0.000658124 1.11217e-05
-0.000658124 9.59826e-05 3.75496e-06
1.11217e-05 3.75496e-06 -0.000134557
0.000506524 -0.000427088 1.78142e-05
-0.000427088 -0.00014757 -2.04722e-05
1.78142e-05 -2.04722e-05 -0.00052659
0.00139767 -0.000401945 1.87923e-05
-0.000401945 0.000550876 -2.05105e-05
1.87923e-05 -2.05105e-05 0.000101338
0.00107459 -0.000134448 -1.83777e-06
-0.000134448 0.000352483 2.49157e-06
-1.83777e-06 2.49157e-06 5.52398e-05
0.000428456 1.75789e-05 2.9162e-06
1.75789e-05 -1.17775e-05 8.70259e-07
2.9162e-06 8.70259e-07 -8.22875e-05
0.000536303 2.54555e-05 7.26031e-06
2.54555e-05 0.000106563 1.40499e-06
7.26031e-06 1.40499e-06 -6.32814e-05
0.000382354 -0.000145115 1.43899e-06
-0.000145115 3.49065e-05 7.44398e-06
1.43899e-06 7.44398e-06 -0.000237531
0.00218583 -0.000135972 5.68804e-07
-0.000135972 -5.88546e-05 -9.75843e-08
5.68804e-07 -9.75843e-08 9.92714e-06
0.000482227 8.43607e-06 1.80105e-06
8.43607e-06 6.95382e-06 3.39535e-07
1.80105e-06 3.39535e-07 -4.92105e-05
0.00038853 -7.50808e-05 -2.41805e-06
-7.50808e-05 -2.48571e-05 -5.92417e-07
-2.41805e-06 -5.92417e-07 -0.000119151
0.00229732 -0.000361449 -2.08372e-07
-0.000361449 -7.40905e-05 1.34808e-07
-2.08372e-07 1.34808e-07 3.81009e-06
0.00225376 -0.000518589 -1.84744e-06
-0.000518589 1.36515e-06 3.99445e-07
-1.84744e-06 3.99445e-07 6.9209e-06
0.00182182 -0.000703639 -1.55059e-06
-0.000703639 0.000580942 2.13311e-06
-1.55059e-06 2.13311e-06 0.000116237
0.00191326 -0.00088437 8.84612e-06
-0.00088437 0.000462661 6.8347e-07
8.84612e-06 6.8347e-07 -6.8804e-05
0.00208269 -0.000855388 2.41165e-06
-0.000855388 0.000307769 -5.63567e-06
2.41165e-06 -5.63567e-06 -7.20634e-05
0.00233483 -0.000723582 2.97788e-06
-0.000723582 0.000145413 -9.58836e-07
2.97788e-06 -9.58836e-07 -3.49605e-06
0.000669884 1.24369e-05 -8.12936e-07
1.24369e-05 0.000197356 -1.37132e-06
-8.12936e-07 -1.37132e-06 7.15012e-05
0.000773347 -6.3692e-05 1.15173e-06
-6.3692e-05 0.000287065 2.07717e-06
1.15173e-06 2.07717e-06 5.98328e-05
0.00146084 -0.000553901 4.79985e-06
-0.000553901 0.000473417 6.07244e-06
4.79985e-06 6.07244e-06 6.49357e-05
0.00122798 -0.000403536 1.14419e-05
-0.000403536 0.000557724 -9.77891e-06
1.14419e-05 -9.77891e-06 -8.92905e-06
0.000965621 -0.000166128 -5.3263e-08
-0.000166128 0.000300062 -3.11851e-07
-5.3263e-08 -3.11851e-07 -5.85824e-05
0.000204377 -0.000117132 6.67117e-07
-0.000117132 -0.000101191 -2.40639e-06
6.67117e-07 -2.40639e-06 -0.000382605
0.00218766 -0.000158597 9.15144e-07
-0.000158597 -0.00020936 1.38127e-07
9.15144e-07 1.38127e-07 -0.000113363
0.00229666 -0.000465128 -8.53241e-07
-0.000465128 -0.000230155 2.9711e-06
-8.53241e-07 2.9711e-06 -1.62421e-05
0.00250949 -0.00071894 -3.55212e-06
-0.00071894 8.62112e-05 -2.33234e-06
-3.55212e-06 -2.33234e-06 5.07282e-05
0.00255947 -0.000944246 1.23492e-05
-0.000944246 0.000357673 -6.23281e-06
1.23492e-05 -6.23281e-06 0.000111317
0.00123498 -0.000671715 -4.65994e-06
-0.000671715 0.000278044 -2.05895e-05
-4.65994e-06 -2.05895e-05 -0.000202503
0.0031839 -0.00112123 -1.16861e-05
-0.00112123 0.0010747 7.55861e-06
-1.16861e-05 7.55861e-06 0.000499985
0.000191956 5.53093e-05 -2.74368e-06
5.53093e-05 -0.000143211 -4.40744e-06
-2.74368e-06 -4.40744e-06 -0.000244242
0.000536502 -4.57688e-05 4.01941e-06
-4.57688e-05 7.49679e-05 1.10852e-06
4.01941e-06 1.10852e-06 -1.58806e-05
0.00123906 -0.000168841 -3.4621e-06
-0.000168841 0.000481671 1.53213e-05
-3.4621e-06 1.53213e-05 0.000362724
0.000431175 1.06874e-05 -4.49626e-06
1.06874e-05 3.3925e-05 4.70871e-06
-4.49626e-06 4.70871e-06 -0.000136296
0.000774794 -0.000110355 -4.63689e-06
-0.000110355 0.00026576 7.62929e-06
-4.63689e-06 7.62929e-06 2.40857e-05
0.000937236 -8.62708e-05 1.297e-05
-8.62708e-05 0.000275942 -1.00618e-05
1.297e-05 -1.00618e-05 1.29477e-05
-0.000826453 -0.000339993 -4.70677e-07
-0.000339993 -0.00034836 1.49481e-06
-4.70677e-07 1.49481e-06 -0.00117152
0.000111275 -0.000550122 -6.21105e-05
-0.000550122 -0.000382673 2.65523e-05
-6.21105e-05 2.65523e-05 -0.000746489
0.00049273 8.55607e-05 -1.37375e-06
8.55607e-05 9.0925e-05 -2.15424e-06
-1.37375e-06 -2.15424e-06 -0.000108048
0.000676105 0.00027213 -1.06407e-05
0.00027213 0.000270018 -5.68495e-06
-1.06407e-05 -5.68495e-06 -4.30636e-05
0.00238631 0.000487895 -9.42156e-06
0.000487895 -9.43413e-05 -3.02089e-06
-9.42156e-06 -3.02089e-06 -5.53552e-05
0.00252552 0.000658958 -9.07324e-06
0.000658958 0.000337134 -1.14255e-06
-9.07324e-06 -1.14255e-06 0.000118324
0.00364572 0.000512665 -5.59173e-06
0.000512665 0.00172577 6.76128e-07
-5.59173e-06 6.76128e-07 0.00146028
0.0015357 0.000544158 -3.66727e-06
0.000544158 0.000439697 -1.42407e-06
-3.66727e-06 -1.42407e-06 5.33224e-05
0.00207409 0.000732957 -6.07254e-06
0.000732957 0.000298077 1.76685e-06
-6.07254e-06 1.76685e-06 -4.87757e-05
0.00209627 0.000791101 -4.66599e-06
0.000791101 0.000558357 -1.0561e-06
-4.66599e-06 -1.0561e-06 0.000109098
0.000360358 0.000115031 1.30102e-06
0.000115031 1.82308e-05 -1.39926e-06
1.30102e-06 -1.39926e-06 -0.000187158
0.0024515 0.000372101 -2.47891e-06
0.000372101 -8.01804e-05 -2.01412e-06
-2.47891e-06 -2.01412e-06 7.89598e-06
0.00144417 0.000361816 7.37654e-07
0.000361816 0.00069032 1.14575e-06
7.37654e-07 1.14575e-06 0.000384129
0.00163693 0.00054364 2.49027e-06
0.00054364 0.000472625 1.12663e-06
2.49027e-06 1.12663e-06 0.000116357
0.00261496 0.000629054 1.66865e-06
0.000629054 0.000222858 3.38805e-07
1.66865e-06 3.38805e-07 0.000155327
0.00172389 0.000746713 -1.86041e-06
0.000746713 -1.50031e-05 -4.6706e-06
-1.86041e-06 -4.6706e-06 -0.0003545
0.00224025 0.000825495 -1.41037e-07
0.000825495 0.000614682 5.12764e-07
-1.41037e-07 5.12764e-07 0.000145412
0.00130119 0.000301803 -3.02702e-06
0.000301803 0.000703475 1.19994e-06
-3.02702e-06 1.19994e-06 0.00042724
0.00356711 0.000545359 -7.89992e-05
0.000545359 0.000571127 -1.97482e-05
-7.89992e-05 -1.97482e-05 0.000727716
0.00114482 0.000485996 -7.63689e-06
0.000485996 0.000434479 5.17295e-06
-7.63689e-06 5.17295e-06 8.64399e-05
0.00156358 0.000625481 -3.18463e-06
0.000625481 0.000359269 -6.97088e-06
-3.18463e-06 -6.97088e-06 -6.25107e-05
0.0023825 0.000834728 -3.21407e-05
0.000834728 0.000204754 -1.97526e-05
-3.21407e-05 -1.97526e-05 -2.5964e-05
0.0011175 0.000709878 -2.24834e-05
0.000709878 -5.85493e-05 -2.82268e-06
-2.24834e-05 -2.82268e-06 -0.000486639
0.000413744 0.000866249 3.34422e-05
0.000866249 -0.00184608 -3.60031e-05
3.34422e-05 -3.60031e-05 -0.00144209
-0.000170962 0.000131137 4.37936e-06
0.000131137 -0.000302599 -1.41877e-06
4.37936e-06 -1.41877e-06 -0.000424656
0.000428506 0.000109021 2.18272e-06
0.000109021 9.07723e-05 2.46879e-06
2.18272e-06 2.46879e-06 6.57514e-06
0.00174492 0.000166743 2.46835e-06
0.000166743 0.000865997 3.03955e-06
2.46835e-06 3.03955e-06 0.000791806
0.000397646 -6.45546e-05 9.44927e-07
-6.45546e-05 5.65919e-06 -4.45727e-06
9.44927e-07 -4.45727e-06 -0.000118743
0.000346984 -3.33929e-05 -4.57702e-07
-3.33929e-05 -9.24303e-06 -1.48679e-06
-4.57702e-07 -1.48679e-06 -0.000161124
0.00113661 0.000199486 4.19497e-07
0.000199486 0.000491675 6.43049e-07
4.19497e-07 6.43049e-07 0.000320894
-0.00012178 3.98549e-05 -7.37381e-06
3.98549e-05 -0.000305074 1.40318e-05
-7.37381e-06 1.40318e-05 -0.000374449
0.000515608 -1.43547e-05 -3.0611e-07
-1.43547e-05 7.92976e-05 -1.5091e-07
-3.0611e-07 -1.5091e-07 -5.23038e-05
0.000441317 7.27216e-05 1.89674e-07
7.27216e-05 2.65813e-05 -7.75363e-07
1.89674e-07 -7.75363e-07 -0.000123339
0.00131855 0.00013238 2.2054e-06
0.00013238 0.000527633 4.61284e-06
2.2054e-06 4.61284e-06 0.000482841
0.000482668 7.52505e-05 1.69444e-06
7.52505e-05 6.93256e-05 7.83374e-07
1.69444e-06 7.83374e-07 -8.68814e-05
0.000701622 6.30323e-05 -1.23587e-06
6.30323e-05 0.000175017 -2.06449e-06
-1.23587e-06 -2.06449e-06 7.46657e-05
0.00154617 0.000140913 -2.7977e-06
0.000140913 0.000714455 -1.36846e-05
-2.7977e-06 -1.36846e-05 0.000661869
0.000862913 0.000148379 -2.12488e-06
0.000148379 0.000256656 -2.4849e-06
-2.12488e-06 -2.4849e-06 0.000109166
0.000965926 0.000139348 1.73e-06
0.000139348 0.000364213 1.98355e-06
1.73e-06 1.98355e-06 0.000195677
0.000890857 0.000102802 -1.5487e-07
0.000102802 0.000328514 2.15041e-06
-1.5487e-07 2.15041e-06 0.000149529
0.000231695 -2.33598e-05 -8.33871e-07
-2.33598e-05 -0.000119712 2.2725e-06
-8.33871e-07 2.2725e-06 -0.000246214
0.00116492 -9.39264e-05 6.98799e-07
-9.39264e-05 0.000549188 -1.33347e-06
6.98799e-07 -1.33347e-06 0.000351341
0.000149576 -4.39282e-05 -1.21589e-06
-4.39282e-05 -0.000167426 4.01922e-06
-1.21589e-06 4.01922e-06 -0.000298883
0.000445208 3.9864e-06 -1.96852e-06
3.9864e-06 9.97409e-06 3.12596e-06
-1.96852e-06 3.12596e-06 -7.68611e-05
0.000463461 3.95248e-05 2.50022e-06
3.95248e-05 1.90323e-05 -1.39584e-07
2.50022e-06 -1.39584e-07 -6.57173e-05
0.000373173 2.14698e-05 -2.81686e-07
2.14698e-05 -6.49308e-05 4.62006e-06
-2.81686e-07 4.62006e-06 -8.95742e-05
0.0004174 5.90383e-06 -2.39519e-06
5.90383e-06 -9.6705e-06 -3.96339e-06
-2.39519e-06 -3.96339e-06 -9.11955e-05
0.000880057 1.65071e-05 -3.66176e-06
1.65071e-05 0.000248708 -1.53467e-06
-3.66176e-06 -1.53467e-06 0.000226936
0.00264423 -3.23718e-06 2.09722e-05
-3.23718e-06 0.00134813 5.62764e-06
2.09722e-05 5.62764e-06 0.00136068
0.00140301 2.75851e-05 -1.11713e-05
2.75851e-05 0.000571912 -6.98351e-06
-1.11713e-05 -6.98351e-06 0.000552593
0.000767119 -9.8197e-06 7.52892e-06
-9.8197e-06 0.000160124 3.4787e-06
7.52892e-06 3.4787e-06 0.000164612
0.00080051 -2.1024e-05 6.83396e-07
-2.1024e-05 0.000173179 -2.76588e-06
6.83396e-07 -2.76588e-06 0.00017678
0.000481251 1.37353e-05 -2.09494e-06
1.37353e-05 7.44366e-06 -2.28166e-06
-2.09494e-06 -2.28166e-06 -4.46164e-05
0.000548954 -2.73762e-05 7.92561e-07
-2.73762e-05 4.61921e-05 -3.22099e-07
7.92561e-07 -3.22099e-07 -7.42843e-06
0.000484068 2.30887e-05 1.41557e-07
2.30887e-05 -1.98673e-05 -3.47229e-06
1.41557e-07 -3.47229e-06 -3.50939e-05
0.000800113 3.92547e-05 -6.77426e-08
3.92547e-05 0.000187582 1.6753e-07
-6.77426e-08 1.6753e-07 0.000169389
0.0022436 7.4331e-05 8.50109e-06
7.4331e-05 0.00110775 -4.61986e-06
8.50109e-06 -4.61986e-06 0.00111599
0.000472334 5.72076e-05 5.24234e-06
5.72076e-05 -8.795e-07 5.76964e-06
5.24234e-06 5.76964e-06 -3.31326e-05
0.00248214 0.000102184 -2.84371e-06
0.000102184 0.00126852 -2.86423e-07
-2.84371e-06 -2.86423e-07 0.00127001
0.0028544 0.000139459 9.42969e-06
0.000139459 0.00151638 8.00524e-06
9.42969e-06 8.00524e-06 0.0015082
0.00223468 0.000327417 -1.75184e-06
0.000327417 -6.51915e-05 -7.59242e-08
-1.75184e-06 -7.59242e-08 -2.82887e-05
0.00217607 0.000104741 3.02513e-06
0.000104741 -5.69136e-05 4.29339e-07
3.02513e-06 4.29339e-07 6.0483e-06
0.0020625 -6.80928e-06 1.12283e-07
-6.80928e-06 -2.27801e-05 -3.2794e-07
1.12283e-07 -3.2794e-07 2.79041e-06
0.00215754 -6.9449e-06 9.87344e-08
-6.9449e-06 -8.04716e-05 -2.64585e-07
9.87344e-08 -2.64585e-07 -5.11261e-06
0.00237239 0.000170744 -2.74225e-07
0.000170744 -6.32191e-05 4.38084e-07
-2.74225e-07 4.38084e-07 1.33383e-05
0.00234504 9.69896e-05 8.25951e-06
9.69896e-05 -3.54476e-05 -6.29409e-06
8.25951e-06 -6.29409e-06 4.47296e-05
0.00243712 2.04874e-07 1.56287e-07
2.04874e-07 -0.000101509 -1.54852e-06
1.56287e-07 -1.54852e-06 1.87942e-05
0.00462928 0.000900594 6.74954e-05
0.000900594 -0.000534792 1.49528e-05
6.74954e-05 1.49528e-05 0.000195316
0.00293279 7.76776e-05 -2.27463e-05
7.76776e-05 0.000478362 2.99419e-05
-2.27463e-05 2.99419e-05 0.000700604
0.000481518 0.000111658 -2.85489e-06
0.000111658 4.71952e-05 -9.85025e-07
-2.85489e-06 -9.85025e-07 -5.04502e-05
0.00219143 -0.000136846 1.1314e-06
-0.000136846 -6.40674e-05 -9.68772e-07
1.1314e-06 -9.68772e-07 7.27329e-06
0.00227014 -0.000350577 2.14846e-06
-0.000350577 -6.83331e-05 -7.28268e-07
2.14846e-06 -7.28268e-07 -1.08435e-06
0.00221077 -0.000508468 -2.55859e-07
-0.000508468 -1.76782e-05 6.91001e-07
-2.55859e-07 6.91001e-07 -4.32124e-06
0.00122533 -0.000642395 2.91292e-06
-0.000642395 0.000238529 1.0304e-05
2.91292e-06 1.0304e-05 -0.00020879
0.00218866 -0.00090592 2.9233e-05
-0.00090592 0.000617546 9.59044e-06
2.9233e-05 9.59044e-06 8.89326e-05
0.0013476 -0.000774097 -2.18884e-06
-0.000774097 -0.000107134 -3.14842e-06
-2.18884e-06 -3.14842e-06 -0.0004664
0.00227388 -0.000718979 -5.13091e-06
-0.000718979 0.000111303 2.61358e-06
-5.13091e-06 2.61358e-06 -3.20395e-05
0.00161842 -0.000542061 4.82408e-05
-0.000542061 0.000484212 -3.616e-05
4.82408e-05 -3.616e-05 0.000116745
0.00149248 -0.000455181 3.13609e-05
-0.000455181 0.000667145 -3.40619e-05
3.13609e-05 -3.40619e-05 0.000158737
0.000540722 -6.31733e-05 -7.94986e-08
-6.31733e-05 -3.31451e-06 4.55235e-06
-7.94986e-08 4.55235e-06 -0.000323956
0.000481548 1.01812e-05 2.54459e-06
1.01812e-05 7.38633e-06 7.60462e-07
2.54459e-06 7.60462e-07 -4.94974e-05
0.00143653 -0.000130873 1.20282e-06
-0.000130873 0.000670451 8.50761e-06
1.20282e-06 8.50761e-06 0.000368211
0.00087747 -2.27703e-05 7.85175e-06
-2.27703e-05 0.000340042 -1.50155e-06
7.85175e-06 -1.50155e-06 0.000209452
0.000689514 -5.78542e-05 3.17577e-06
-5.78542e-05 0.000224737 -1.47658e-06
3.17577e-06 -1.47658e-06 2.7429e-06
0.00010091 -4.54527e-05 -3.40792e-06
-4.54527e-05 -0.000214112 -7.26884e-07
-3.40792e-06 -7.26884e-07 -0.000303878
0.00226448 -0.000176785 -3.42895e-07
-0.000176785 -0.000194026 1.09467e-07
-3.42895e-07 1.09467e-07 -7.07952e-05
0.000336163 2.81902e-05 4.96479e-07
2.81902e-05 -4.01919e-05 -2.57849e-06
4.96479e-07 -2.57849e-06 -0.000146412
0.000594735 -6.17943e-05 2.70692e-06
-6.17943e-05 0.000128911 9.87833e-07
2.70692e-06 9.87833e-07 2.74038e-05
0.000976878 -0.000140975 4.43531e-06
-0.000140975 0.000317798 1.24095e-07
4.43531e-06 1.24095e-07 0.000209574
0.00231961 -0.000479214 2.11409e-06
-0.000479214 -0.000196236 -8.63652e-07
2.11409e-06 -8.63652e-07 -2.23189e-05
0.00242214 -0.000713024 5.33114e-07
-0.000713024 3.96459e-05 -5.67248e-07
5.33114e-07 -5.67248e-07 4.11364e-06
0.000542924 -0.000523982 7.23783e-06
-0.000523982 -0.000123497 -2.74571e-07
7.23783e-06 -2.74571e-07 -0.000535346
0.00272388 -0.00107879 1.96747e-05
-0.00107879 0.000792557 2.2236e-07
1.96747e-05 2.2236e-07 0.000242632
0.00242808 -0.000936299 -6.9224e-07
-0.000936299 0.000300721 2.20012e-06
-6.9224e-07 2.20012e-06 4.44369e-05
0.000302271 -2.58116e-05 -4.94313e-07
-2.58116e-05 -4.48815e-05 3.42524e-07
-4.94313e-07 3.42524e-07 -0.000208887
0.00112102 -0.000136235 -5.55529e-07
-0.000136235 0.000505852 4.02991e-06
-5.55529e-07 4.02991e-06 0.00023636
0.0017971 -0.000764561 -3.30253e-07
-0.000764561 0.000604043 1.85761e-06
-3.30253e-07 1.85761e-06 0.000143788
0.000105258 -0.000236829 -1.87373e-06
-0.000236829 -1.20322e-05 2.82938e-06
-1.87373e-06 2.82938e-06 -0.000649997
0.00126871 -0.000135757 1.46317e-06
-0.000135757 0.000486609 5.69973e-06
1.46317e-06 5.69973e-06 0.000217587
0.00271513 -0.000335138 -7.92168e-06
-0.000335138 7.20248e-05 2.29978e-06
-7.92168e-06 2.29978e-06 0.000205599
0.00208336 -0.000533335 -1.56936e-05
-0.000533335 -0.000314676 7.22119e-06
-1.56936e-05 7.22119e-06 -6.55475e-05
0.00219468 -0.00084224 -6.31475e-06
-0.00084224 4.09094e-05 -3.01505e-06
-6.31475e-06 -3.01505e-06 -0.000143629
0.00464495 -0.00127388 -5.82274e-06
-0.00127388 0.00167265 -4.39073e-06
-5.82274e-06 -4.39073e-06 0.00129961
-8.99781e-06 -0.000637378 -1.96002e-05
-0.000637378 -0.000471734 -8.11006e-06
-1.96002e-05 -8.11006e-06 -0.000919104
3.63632e-06 -2.93204e-05 9.68285e-07
-2.93204e-05 -0.000242897 1.81498e-06
9.68285e-07 1.81498e-06 -0.000352772
0.000824979 5.69315e-06 -5.07567e-06
5.69315e-06 0.000194471 1.42621e-05
-5.07567e-06 1.42621e-05 8.5812e-05
-0.00156663 -0.000124538 -7.07298e-06
-0.000124538 -0.00126297 2.17409e-06
-7.07298e-06 2.17409e-06 -0.00134548
0.0021298 -0.000305162 -2.69877e-05
-0.000305162 0.00111595 2.67218e-05
-2.69877e-05 2.67218e-05 0.00088714
0.000927138 -0.000111845 -5.59147e-06
-0.000111845 0.000364901 2.77718e-05
-5.59147e-06 2.77718e-05 0.000116794
-0.00139809 -0.000125793 7.27837e-06
-0.000125793 -0.000472521 1.00112e-06
7.27837e-06 1.00112e-06 -0.00124707
0.000498013 -0.000823727 -2.44955e-05
-0.000823727 0.000141786 1.26357e-05
-2.44955e-05 1.26357e-05 -0.000526497
0.00174603 0.000278678 -5.20483e-06
0.000278678 0.000885751 -7.03087e-06
-5.20483e-06 -7.03087e-06 0.000646497
-0.00069892 9.04992e-05 -5.74023e-06
9.04992e-05 -0.000656901 -2.35694e-06
-5.74023e-06 -2.35694e-06 -0.000896987
0.00260039 0.000347633 7.97579e-07
0.000347633 5.93099e-06 1.20408e-06
7.97579e-07 1.20408e-06 0.000109385
0.00260311 0.000620693 1.13884e-05
0.000620693 0.000226177 5.76096e-06
1.13884e-05 5.76096e-06 0.000161965
0.00216463 0.000787132 5.08873e-06
0.000787132 0.000246813 2.91584e-06
5.08873e-06 2.91584e-06 -9.69019e-05
0.00159764 0.000532652 -2.03038e-06
0.000532652 0.000478862 1.80528e-06
-2.03038e-06 1.80528e-06 0.000120244
0.00174539 0.000757471 2.01515e-06
0.000757471 0.00034611 3.31765e-06
2.01515e-06 3.31765e-06 -0.000108933
0.00205546 0.00034189 8.23274e-07
0.00034189 0.00110014 -8.69615e-07
8.23274e-07 -8.69615e-07 0.000855676
0.00281771 0.00044128 6.1641e-06
0.00044128 0.000176387 3.16698e-06
6.1641e-06 3.16698e-06 0.000367827
0.00119475 0.000426565 -4.15952e-06
0.000426565 0.000430183 4.39552e-06
-4.15952e-06 4.39552e-06 0.000118102
0.00166474 0.000642885 3.36612e-06
0.000642885 0.000458094 -4.47335e-07
3.36612e-06 -4.47335e-07 1.9389e-05
0.00235006 0.000813668 -3.14924e-06
0.000813668 0.00020436 -3.58708e-06
-3.14924e-06 -3.58708e-06 -4.97574e-06
0.00185097 0.00080475 -4.40366e-06
0.00080475 0.000353373 5.44027e-06
-4.40366e-06 5.44027e-06 -9.65534e-05
0.00309317 0.00119013 3.78154e-05
0.00119013 -0.000698972 7.78546e-06
3.78154e-05 7.78546e-06 -0.000474373
0.000217715 0.000271433 -9.89342e-07
0.000271433 6.65258e-05 8.2621e-07
-9.89342e-07 8.2621e-07 -0.00020057
0.00279887 0.000807583 -8.3171e-05
0.000807583 0.000287972 -3.88242e-05
-8.3171e-05 -3.88242e-05 0.00025368
0.000602943 0.000417437 -7.90355e-06
0.000417437 -0.000116484 2.83766e-06
-7.90355e-06 2.83766e-06 -0.000445842
-3.55698e-05 0.000489093 -1.38588e-06
0.000489093 -0.000545996 -1.64174e-05
-1.38588e-06 -1.64174e-05 -0.000954858
0.00146939 0.000881034 -3.96845e-05
0.000881034 -7.40356e-05 -1.39905e-05
-3.96845e-05 -1.39905e-05 -0.000362952
0.0149592 0.000434603 -0.00053336
0.000434603 0.00216207 -9.15266e-05
-0.00053336 -9.15266e-05 0.00180341
0.00345707 0.00182947 -6.56161e-05
0.00182947 -0.00221653 -6.6702e-05
-6.56161e-05 -6.6702e-05 -0.000761137
0.00047278 0.00136355 1.47457e-05
0.00136355 -0.000853826 5.39885e-07
1.47457e-05 5.39885e-07 -0.00109699
0.00325568 -0.00240285 0.00164016
-0.00240285 0.00222375 0.000322569
0.00164016 0.000322569 -0.00139969
0.0231179 -0.00916736 -4.95069e-05
-0.00916736 0.00932559 8.24588e-05
-4.95069e-05 8.24588e-05 0.00613233
-1.95942e-05 0.000108898 7.3686e-06
0.000108898 -0.000149128 1.64992e-06
7.3686e-06 1.64992e-06 -0.000242579
0.000838502 0.000116557 -1.4991e-06
0.000116557 0.000347631 -2.90066e-06
-1.4991e-06 -2.90066e-06 0.00027023
0.00189252 0.000281753 2.11013e-06
0.000281753 0.00102638 -6.33634e-07
2.11013e-06 -6.33634e-07 0.000895485
0.00049292 -5.67338e-05 -2.05167e-07
-5.67338e-05 7.51165e-05 -3.0784e-06
-2.05167e-07 -3.0784e-06 -6.17782e-05
0.000382404 6.82116e-05 -7.50021e-07
6.82116e-05 -8.22679e-06 -3.64335e-06
-7.50021e-07 -3.64335e-06 -0.000158312
0.000735956 -2.45748e-05 -1.95941e-07
-2.45748e-05 0.000226615 -1.55927e-06
-1.95941e-07 -1.55927e-06 6.8179e-05
0.000830951 8.56468e-05 -3.60809e-06
8.56468e-05 0.000248301 1.08512e-05
-3.60809e-06 1.08512e-05 0.000141933
0.000101159 8.73872e-05 2.01864e-06
8.73872e-05 -0.000230058 8.08921e-06
2.01864e-06 8.08921e-06 -0.000269172
0.000796115 0.000156136 -1.30146e-06
0.000156136 0.000290462 -3.40667e-07
-1.30146e-06 -3.40667e-07 0.000101864
0.000402711 -1.27831e-05 3.53114e-07
-1.27831e-05 -2.82072e-06 1.06514e-06
3.53114e-07 1.06514e-06 -0.000135216
0.000718076 5.58792e-05 -7.79989e-07
5.58792e-05 0.000213147 4.98933e-08
-7.79989e-07 4.98933e-08 4.18445e-05
0.000235003 9.3663e-05 -1.02474e-06
9.3663e-05 -0.000104436 -2.27517e-06
-1.02474e-06 -2.27517e-06 -0.000154958
0.000654217 0.000121765 -1.54527e-06
0.000121765 0.000146034 -2.67314e-07
-1.54527e-06 -2.67314e-07 1.66301e-06
0.00212361 0.00025285 -1.38897e-06
0.00025285 0.00110564 -7.30057e-07
-1.38897e-06 -7.30057e-07 0.000906263
0.000214587 0.000105162 -5.20757e-08
0.000105162 -3.60607e-05 -3.75378e-06
-5.20757e-08 -3.75378e-06 -0.000202129
0.000888175 0.000106859 2.88193e-06
0.000106859 0.000331291 1.91386e-07
2.88193e-06 1.91386e-07 0.000154868
0.000274326 -5.67054e-06 6.42638e-07
-5.67054e-06 -8.55419e-05 1.38959e-07
6.42638e-07 1.38959e-07 -0.000249806
0.000341389 -7.29877e-05 -7.80506e-07
-7.29877e-05 -4.07919e-05 1.11376e-06
-7.80506e-07 1.11376e-06 -0.000176499
0.000585622 -2.9473e-05 -7.15857e-07
-2.9473e-05 0.00012809 -8.39462e-07
-7.15857e-07 -8.39462e-07 -3.82654e-05
0.00138629 -1.99461e-05 1.26791e-06
-1.99461e-05 0.000627597 -1.09859e-05
1.26791e-06 -1.09859e-05 0.000465674
0.000722787 -4.96131e-05 -1.06781e-06
-4.96131e-05 0.000258151 -9.92112e-07
-1.06781e-06 -9.92112e-07 9.25876e-05
0.000737676 -7.70547e-05 1.89555e-06
-7.70547e-05 0.00024403 -8.71495e-07
1.89555e-06 -8.71495e-07 7.33338e-05
0.000646361 -0.000127181 -1.96999e-06
-0.000127181 0.000156807 3.86019e-06
-1.96999e-06 3.86019e-06 1.87977e-05
0.000256203 -2.44261e-05 2.5956e-07
-2.44261e-05 -9.55312e-05 9.87937e-07
2.5956e-07 9.87937e-07 -0.000231373
0.000498282 -5.95299e-05 -1.83432e-06
-5.95299e-05 3.36373e-05 4.0955e-06
-1.83432e-06 4.0955e-06 -4.76301e-05
0.000496772 -4.005e-05 1.96613e-06
-4.005e-05 3.98877e-05 1.11784e-07
1.96613e-06 1.11784e-07 -4.57256e-05
0.000427079 2.43655e-06 3.08834e-06
2.43655e-06 -2.75784e-05 6.49355e-06
3.08834e-06 6.49355e-06 -5.37408e-05
0.000503201 5.44532e-05 -1.68159e-06
5.44532e-05 3.77778e-05 -3.44906e-06
-1.68159e-06 -3.44906e-06 -4.27992e-05
0.00039342 3.24444e-05 3.53344e-07
3.24444e-05 -5.01561e-05 7.93254e-08
3.53344e-07 7.93254e-08 -7.5845e-05
0.00256161 6.17437e-06 7.09876e-06
6.17437e-06 0.0012981 5.44229e-06
7.09876e-06 5.44229e-06 0.00131025
0.000449869 4.37267e-05 -3.85577e-06
4.37267e-05 -1.83874e-05 -7.54006e-06
-3.85577e-06 -7.54006e-06 -4.51976e-05
0.00171482 -4.33818e-06 -4.47659e-06
-4.33818e-06 0.000761563 1.85471e-07
-4.47659e-06 1.85471e-07 0.000769183
0.000817785 -1.07164e-05 4.97528e-07
-1.07164e-05 0.000187306 -2.41063e-06
4.97528e-07 -2.41063e-06 0.00019178
0.000427704 8.23167e-06 -2.48631e-07
8.23167e-06 -3.14118e-05 -1.63179e-06
-2.48631e-07 -1.63179e-06 -7.43248e-05
0.000524185 -3.92487e-05 1.27522e-07
-3.92487e-05 3.79309e-05 3.8918e-08
1.27522e-07 3.8918e-08 -1.62734e-05
0.000514047 1.18818e-05 1.12035e-06
1.18818e-05 -3.935e-06 -3.25456e-06
1.12035e-06 -3.25456e-06 -1.57378e-05
0.000481111 -4.05775e-05 -1.38195e-06
-4.05775e-05 4.40225e-06 1.44848e-07
-1.38195e-06 1.44848e-07 -4.97423e-05
0.000794873 2.79819e-05 -1.65089e-07
2.79819e-05 0.00017709 -7.19665e-07
-1.65089e-07 -7.19665e-07 0.000164035
0.00203742 5.43728e-05 5.37011e-06
5.43728e-05 0.00097049 -4.64087e-06
5.37011e-06 -4.64087e-06 0.000983235
0.000457921 3.56172e-05 1.33031e-06
3.56172e-05 -2.84827e-05 3.87696e-06
1.33031e-06 3.87696e-06 -4.94423e-05
0.00239417 8.10275e-05 -5.49982e-06
8.10275e-05 0.0012062 1.20494e-06
-5.49982e-06 1.20494e-06 0.00121271
0.002633 0.000111649 1.96371e-06
0.000111649 0.00136641 6.1522e-06
1.96371e-06 6.1522e-06 0.00136576
0.0023267 0.000178984 -1.99613e-06
0.000178984 -7.52612e-05 -8.08256e-07
-1.99613e-06 -8.08256e-07 9.28096e-07
0.0021472 -5.79161e-06 2.51985e-06
-5.79161e-06 -8.53413e-05 -5.36234e-07
2.51985e-06 -5.36234e-07 -1.06007e-05
0.00210764 6.96831e-05 -8.39071e-06
6.96831e-05 -0.000207601 3.78189e-06
-8.39071e-06 3.78189e-06 -0.000129351
0.00258201 0.000676269 9.86281e-05
0.000676269 -0.00159899 2.15085e-05
9.86281e-05 2.15085e-05 -0.000764147
0.00242332 -2.97051e-05 1.07719e-07
-2.97051e-05 -8.58483e-05 -2.87606e-06
1.07719e-07 -2.87606e-06 3.29661e-05
0.00224481 6.8793e-05 -4.7682e-07
6.8793e-05 6.49739e-05 -9.7746e-06
-4.7682e-07 -9.7746e-06 0.000222937
0.00310145 -4.54683e-05 -2.46158e-05
-4.54683e-05 0.00069523 -2.02418e-06
-2.46158e-05 -2.02418e-06 0.000737921
0.00329721 0.000192338 -2.12171e-05
0.000192338 -0.00200522 -4.32944e-05
-2.12171e-05 -4.32944e-05 -0.000810141
0.00249641 0.000230526 0.000135073
0.000230526 -0.00095582 4.95222e-05
0.000135073 4.95222e-05 -0.000395378
0.000590282 8.96767e-05 9.45879e-08
8.96767e-05 0.000118189 -8.11581e-07
9.45879e-08 -8.11581e-07 2.11522e-05
0.000576183 -3.44821e-06 3.10697e-07
-3.44821e-06 0.000120913 -1.19195e-07
3.10697e-07 -1.19195e-07 1.47191e-05
0.000330261 -9.15992e-05 -6.25618e-06
-9.15992e-05 -2.25517e-05 1.97232e-06
-6.25618e-06 1.97232e-06 -0.000140087
0.000387818 -4.55672e-05 -3.87781e-06
-4.55672e-05 1.7922e-05 2.16592e-06
-3.87781e-06 2.16592e-06 -0.000102351
0.00234649 -0.000197074 -3.4556e-06
-0.000197074 -0.000167316 -1.06738e-06
-3.4556e-06 -1.06738e-06 -2.61143e-05
0.002315 -0.000487181 3.91097e-07
-0.000487181 -0.000171804 -2.08867e-06
3.91097e-07 -2.08867e-06 -3.67171e-05
0.00233605 -0.000704072 -3.50005e-06
-0.000704072 -3.03376e-06 2.16676e-06
-3.50005e-06 2.16676e-06 -3.94911e-05
0.00375044 -0.000887002 2.24246e-05
-0.000887002 0.00172056 1.47693e-05
2.24246e-05 1.47693e-05 0.0012396
0.000278173 -0.000813661 -1.73077e-06
-0.000813661 -0.000588176 3.1171e-06
-1.73077e-06 3.1171e-06 -0.00108448
0.0023608 -0.000935301 -1.00549e-06
-0.000935301 0.000276447 -2.76389e-07
-1.00549e-06 -2.76389e-07 1.04624e-05
0.000812771 -0.000719961 2.64241e-05
-0.000719961 4.00278e-06 -2.34171e-05
2.64241e-05 -2.34171e-05 -0.000490948
0.00357482 -0.000346223 1.17354e-05
-0.000346223 0.00174655 -8.14069e-06
1.17354e-05 -8.14069e-06 0.00133977
-0.000162796 -2.28621e-05 -7.74114e-06
-2.28621e-05 -0.00046952 3.88663e-06
-7.74114e-06 3.88663e-06 -0.000687126
0.00065622 -6.37835e-05 3.90735e-06
-6.37835e-05 0.000167242 -1.05853e-06
3.90735e-06 -1.05853e-06 6.59208e-05
0.000593061 -0.00013979 -4.86472e-06
-0.00013979 0.000194611 -1.31885e-05
-4.86472e-06 -1.31885e-05 -7.79697e-05
0.000446177 -2.38947e-05 5.98994e-06
-2.38947e-05 4.52959e-05 -1.84095e-06
5.98994e-06 -1.84095e-06 -0.000113551
0.00057134 6.83609e-07 5.36856e-07
6.83609e-07 0.000133831 1.55975e-06
5.36856e-07 1.55975e-06 1.50036e-05
0.000716037 -8.43417e-05 -8.22295e-06
-8.43417e-05 0.000154094 -1.27923e-06
-8.22295e-06 -1.27923e-06 5.86846e-05
0.00265305 -0.000316711 2.10877e-06
-0.000316711 4.60624e-05 1.47048e-06
2.10877e-06 1.47048e-06 0.000196379
0.000468985 -2.78059e-05 -8.23077e-07
-2.78059e-05 6.86457e-05 2.2361e-06
-8.23077e-07 2.2361e-06 -6.3112e-05
0.00080878 -5.19768e-05 7.18109e-06
-5.19768e-05 0.000198173 -4.76269e-07
7.18109e-06 -4.76269e-07 7.94413e-05
-0.000900542 -4.71952e-05 5.45269e-06
-4.71952e-05 -0.000779486 -7.26478e-07
5.45269e-06 -7.26478e-07 -0.000841324
0.00207803 -0.000546852 7.98904e-07
-0.000546852 -0.000338564 -1.29295e-06
7.98904e-07 -1.29295e-06 -0.000108186
0.0023122 -0.000854284 2.18647e-06
-0.000854284 9.97721e-05 -1.35969e-06
2.18647e-06 -1.35969e-06 -7.97497e-05
0.00198808 -0.000901958 -5.38284e-06
-0.000901958 0.000637826 8.61305e-07
-5.38284e-06 8.61305e-07 0.000142069
0.00269889 -0.00107602 -6.24182e-06
-0.00107602 0.000610721 1.53998e-06
-6.24182e-06 1.53998e-06 0.000263468
0.00150005 -0.000169154 4.74712e-06
-0.000169154 0.000712577 -3.09116e-06
4.74712e-06 -3.09116e-06 0.000491054
5.43514e-05 -4.13356e-05 7.87812e-06
-4.13356e-05 -0.000204951 9.76676e-06
7.87812e-06 9.76676e-06 -0.000450768
0.00182441 -0.00108782 8.80111e-07
-0.00108782 0.000977673 -2.82831e-06
8.80111e-07 -2.82831e-06 0.000214202
0.00119169 -0.000422283 -8.57698e-06
-0.000422283 0.00054076 -1.62755e-07
-8.57698e-06 -1.62755e-07 2.73072e-05
0.00347225 -0.000466221 -4.62798e-05
-0.000466221 0.000450246 7.39212e-06
-4.62798e-05 7.39212e-06 0.000720734
0.0027211 -0.000713358 -4.15125e-05
-0.000713358 0.000249096 1.26894e-05
-4.15125e-05 1.26894e-05 0.000311155
0.00265735 -0.000996817 3.81213e-06
-0.000996817 0.000491695 -1.20339e-05
3.81213e-06 -1.20339e-05 0.000151496
0.00310025 -0.00108461 8.37737e-06
-0.00108461 0.00105702 6.75366e-06
8.37737e-06 6.75366e-06 0.0006906
9.38343e-06 -7.39908e-05 -2.36433e-06
-7.39908e-05 -0.000135885 -7.31767e-06
-2.36433e-06 -7.31767e-06 -0.000270125
0.000431742 -0.00014086 -1.40593e-05
-0.00014086 5.7827e-05 -8.94558e-07
-1.40593e-05 -8.94558e-07 -0.000144148
0.000105118 -0.000192613 -7.07672e-06
-0.000192613 0.000132853 5.32141e-05
-7.07672e-06 5.32141e-05 -0.000206722
-0.000169238 -0.000947194 -3.00308e-06
-0.000947194 0.000515224 -2.75048e-05
-3.00308e-06 -2.75048e-05 -0.00060871
0.0029115 -0.000456044 6.16242e-05
-0.000456044 -0.00546947 -2.42629e-05
6.16242e-05 -2.42629e-05 -0.00552125
0.00244771 0.000317029 1.73779e-06
0.000317029 0.00131575 -3.4055e-06
1.73779e-06 -3.4055e-06 0.00107386
0.00134676 0.000381444 -2.0007e-06
0.000381444 0.000508495 4.43131e-08
-2.0007e-06 4.43131e-08 0.000220087
0.00190959 0.000357531 5.46281e-05
0.000357531 -0.000330254 1.61827e-05
5.46281e-05 1.61827e-05 -0.000111018
0.00254005 0.000814991 2.42718e-05
0.000814991 0.000323744 1.05168e-05
2.42718e-05 1.05168e-05 0.000127902
0.00227329 0.000857723 9.0246e-06
0.000857723 0.000600594 1.18409e-05
9.0246e-06 1.18409e-05 0.00013575
0.00131472 0.000605151 7.83422e-06
0.000605151 0.000285101 8.03224e-06
7.83422e-06 8.03224e-06 -0.000158473
0.00551231 0.00154104 0.000113048
0.00154104 0.000218848 3.27416e-05
0.000113048 3.27416e-05 0.000243652
0.00126681 0.00032197 5.15154e-06
0.00032197 0.000673993 5.75104e-07
5.15154e-06 5.75104e-07 0.000415544
0.00264238 0.000767735 -2.51326e-05
0.000767735 0.000189385 8.84469e-07
-2.51326e-05 8.84469e-07 0.000191071
0.000911541 0.00045592 -5.52757e-06
0.00045592 0.000114839 4.09734e-06
-5.52757e-06 4.09734e-06 -0.000231878
0.00148508 0.000694931 5.85011e-07
0.000694931 0.000331425 -6.92745e-06
5.85011e-07 -6.92745e-06 -0.000120039
0.00234526 0.000953813 -1.13419e-05
0.000953813 0.000400089 -3.13383e-07
-1.13419e-05 -3.13383e-07 8.44999e-05
0.00487537 -0.000647147 -0.000169496
-0.000647147 -0.0049984 -9.49747e-05
-0.000169496 -9.49747e-05 -0.00577422
0.00691619 0.00191666 -0.000151033
0.00191666 -0.000532334 -6.17791e-05
-0.000151033 -6.17791e-05 0.000687848
0.00132076 0.00137856 -2.45603e-07
0.00137856 -0.000388523 4.83906e-06
-2.45603e-07 4.83906e-06 -0.000748298
0.00150679 -0.00219285 0.000583106
-0.00219285 0.0030793 0.000220853
0.000583106 0.000220853 1.54396e-06
0.0152559 -0.00940133 -0.000509767
-0.00940133 0.00759035 -0.000460494
-0.000509767 -0.000460494 0.00420959
0.000596309 0.0002569 -1.41194e-05
0.0002569 0.000138808 -2.37138e-06
-1.41194e-05 -2.37138e-06 -8.71754e-05
0.00156733 0.000540817 0.00082721
0.000540817 0.00435696 7.21802e-05
0.00082721 7.21802e-05 0.00232261
0.00425568 -0.00348163 -0.000176521
-0.00348163 0.00616768 -0.000228639
-0.000176521 -0.000228639 0.000571803
0.00333057 0.00124506 -6.14735e-05
0.00124506 0.000699313 -1.67038e-05
-6.14735e-05 -1.67038e-05 0.00048762
0.000628336 0.000361352 -2.82427e-05
0.000361352 -5.97951e-05 -5.95812e-06
-2.82427e-05 -5.95812e-06 -0.000363712
0.00090208 0.000711011 -3.52153e-05
0.000711011 6.18125e-05 -2.95707e-05
-3.52153e-05 -2.95707e-05 -0.000321103
-0.000534003 0.00119775 5.62852e-05
0.00119775 -0.00106565 9.85055e-05
5.62852e-05 9.85055e-05 -0.00143186
0.0125642 0.00262501 6.5374e-05
0.00262501 0.001236 -1.45653e-05
6.5374e-05 -1.45653e-05 0.000551822
0.00511024 0.00282955 -5.77095e-05
0.00282955 -0.000303395 -5.18315e-05
-5.77095e-05 -5.18315e-05 0.000518308
0.0167274 -0.00682551 0.00105072
-0.00682551 0.00554696 0.000529134
0.00105072 0.000529134 0.00133066
0.0137478 -0.00309929 -0.000116717
-0.00309929 0.00421386 0.000648155
-0.000116717 0.000648155 0.00226997
0.00032047 8.11231e-05 3.48374e-06
8.11231e-05 7.01959e-05 -5.89771e-06
3.48374e-06 -5.89771e-06 -2.21102e-05
0.00022531 0.000138758 8.04176e-06
0.000138758 9.58785e-06 1.51468e-06
8.04176e-06 1.51468e-06 -0.000105903
0.00190779 0.000310891 2.95842e-06
0.000310891 0.00105275 -2.56187e-06
2.95842e-06 -2.56187e-06 0.000860519
0.000584153 5.85291e-06 1.39283e-06
5.85291e-06 0.00013758 -4.45359e-08
1.39283e-06 -4.45359e-08 -1.19209e-05
0.000593434 7.09107e-05 -3.42595e-07
7.09107e-05 0.000125988 -2.55383e-06
-3.42595e-07 -2.55383e-06 -3.76157e-05
-6.42104e-05 3.70517e-05 -1.54869e-06
3.70517e-05 -0.000269935 8.33264e-07
-1.54869e-06 8.33264e-07 -0.000432717
0.000831496 0.000128136 -7.76784e-06
0.000128136 0.000280059 2.15845e-06
-7.76784e-06 2.15845e-06 0.000130017
-0.000338991 6.95781e-05 -3.52979e-06
6.95781e-05 -0.000480732 -9.70107e-08
-3.52979e-06 -9.70107e-08 -0.000529358
0.000333107 -1.20137e-05 -2.10615e-08
-1.20137e-05 -4.0827e-05 7.48414e-07
-2.10615e-08 7.48414e-07 -0.000180375
0.00135147 0.000156668 2.14358e-06
0.000156668 0.000599088 2.88222e-07
2.14358e-06 2.88222e-07 0.000419156
0.00055009 6.13659e-05 -1.38287e-07
6.13659e-05 0.000131114 -2.01364e-08
-1.38287e-07 -2.01364e-08 -5.25761e-05
0.000787416 4.11434e-05 1.37145e-06
4.11434e-05 0.000269608 -3.83072e-07
1.37145e-06 -3.83072e-07 8.30419e-05
0.000234672 0.000102658 -6.47749e-07
0.000102658 -2.13135e-05 -3.15542e-06
-6.47749e-07 -3.15542e-06 -0.000186153
0.00150087 0.000144849 -2.34588e-06
0.000144849 0.000723247 -3.10059e-06
-2.34588e-06 -3.10059e-06 0.000548834
-0.000377406 6.1765e-05 -6.80093e-06
6.1765e-05 -0.000248226 -5.01231e-06
-6.80093e-06 -5.01231e-06 -0.000494126
0.000366482 -7.27741e-05 4.79339e-08
-7.27741e-05 5.36706e-06 4.14984e-07
4.79339e-08 4.14984e-07 -0.000174503
0.000766767 -8.51176e-05 -1.78307e-06
-8.51176e-05 0.000264015 -9.46271e-07
-1.78307e-06 -9.46271e-07 7.89068e-05
0.000815702 -5.6366e-05 -3.30953e-07
-5.6366e-05 0.00029316 -7.32296e-07
-3.30953e-07 -7.32296e-07 0.000110679
0.000662858 -3.58068e-05 -3.93265e-06
-3.58068e-05 0.000158487 5.25006e-07
-3.93265e-06 5.25006e-07 1.63141e-05
0.0010991 1.14035e-05 -7.01254e-06
1.14035e-05 0.000509286 -5.51546e-06
-7.01254e-06 -5.51546e-06 0.000301896
0.000824926 -7.43109e-05 2.86763e-06
-7.43109e-05 0.000267413 -1.08176e-05
2.86763e-06 -1.08176e-05 0.000131444
-0.00137092 2.46587e-06 -3.87253e-06
2.46587e-06 -0.00107814 -8.0326e-06
-3.87253e-06 -8.0326e-06 -0.00119782
0.000219404 -4.23457e-05 2.14451e-06
-4.23457e-05 -5.20906e-05 -2.00507e-06
2.14451e-06 -2.00507e-06 -0.000240336
0.000292763 -7.83911e-05 1.45514e-06
-7.83911e-05 -5.32543e-05 4.19842e-07
1.45514e-06 4.19842e-07 -0.000193328
0.000782442 -0.000120127 -1.07331e-06
-0.000120127 0.000277683 2.69296e-07
-1.07331e-06 2.69296e-07 0.000118597
0.000516208 -8.73839e-05 -1.13186e-06
-8.73839e-05 5.73783e-05 2.65873e-06
-1.13186e-06 2.65873e-06 -6.42674e-05
0.000445093 -9.28424e-05 3.22499e-06
-9.28424e-05 2.48718e-05 3.77537e-07
3.22499e-06 3.77537e-07 -0.000120024
0.000541648 -0.000117697 -1.87332e-08
-0.000117697 8.82212e-05 1.637e-07
-1.87332e-08 1.637e-07 -4.88284e-05
0.000533587 -5.88225e-05 -2.17021e-06
-5.88225e-05 5.25448e-05 5.09027e-06
-2.17021e-06 5.09027e-06 -2.97087e-05
0.000390464 -9.59933e-06 8.32295e-07
-9.59933e-06 7.40934e-06 -1.22202e-06
8.32295e-07 -1.22202e-06 -0.000141251
0.000485166 4.22876e-07 2.35035e-06
4.22876e-07 3.30203e-05 1.49849e-07
2.35035e-06 1.49849e-07 -5.31924e-05
0.00145069 -3.41698e-05 -1.01328e-05
-3.41698e-05 0.000609043 6.99747e-06
-1.01328e-05 6.99747e-06 0.000587024
0.000468769 6.92103e-05 -2.05257e-06
6.92103e-05 2.22083e-05 -3.2894e-06
-2.05257e-06 -3.2894e-06 -6.27574e-05
0.000863792 -1.84452e-05 -4.15484e-06
-1.84452e-05 0.000246605 7.32269e-07
-4.15484e-06 7.32269e-07 0.000222498
0.000787668 3.49037e-06 -2.72189e-06
3.49037e-06 0.000182607 4.79685e-06
-2.72189e-06 4.79685e-06 0.000186902
0.000377319 -2.18849e-05 3.7603e-06
-2.18849e-05 -6.09993e-05 -5.05049e-06
3.7603e-06 -5.05049e-06 -8.58727e-05
0.00258466 4.21548e-06 7.46077e-06
4.21548e-06 0.00131301 -9.50639e-09
7.46077e-06 -9.50639e-09 0.00132508
0.000877241 3.59494e-06 -1.00166e-05
3.59494e-06 0.00023604 -5.46558e-06
-1.00166e-05 -5.46558e-06 0.000239416
0.000504133 6.81566e-05 2.39904e-06
6.81566e-05 6.52103e-05 8.76623e-07
2.39904e-06 8.76623e-07 -3.77537e-05
0.000450701 5.46278e-05 -2.41005e-06
5.46278e-05 -5.38658e-06 -2.28017e-06
-2.41005e-06 -2.28017e-06 -5.41241e-05
0.000470898 -2.40711e-06 1.59276e-06
-2.40711e-06 8.17298e-06 1.62038e-07
1.59276e-06 1.62038e-07 -4.25529e-05
0.000472874 9.47115e-06 1.05471e-06
9.47115e-06 -2.90565e-05 -3.05754e-06
1.05471e-06 -3.05754e-06 -3.93676e-05
0.000552498 -6.51554e-05 -1.95769e-06
-6.51554e-05 6.44709e-05 1.98453e-06
-1.95769e-06 1.98453e-06 5.39176e-06
0.00046921 1.30494e-05 1.21495e-07
1.30494e-05 -3.2492e-05 -7.19098e-07
1.21495e-07 -7.19098e-07 -4.4107e-05
0.00202399 3.78615e-05 3.58773e-06
3.78615e-05 0.000957493 -4.68802e-06
3.58773e-06 -4.68802e-06 0.000972689
0.00110652 3.64659e-05 -2.58489e-08
3.64659e-05 0.000375546 1.60024e-06
-2.58489e-08 1.60024e-06 0.00036356
0.00148006 4.69451e-05 -4.15679e-07
4.69451e-05 0.000619165 1.42076e-06
-4.15679e-07 1.42076e-06 0.000626931
0.000895997 5.10664e-05 -5.28011e-06
5.10664e-05 0.000256379 8.37448e-06
-5.28011e-06 8.37448e-06 0.000255917
0.000954925 0.000474902 7.54062e-05
0.000474902 -0.00237016 1.52347e-05
7.54062e-05 1.52347e-05 -0.00150629
0.00239526 -5.12779e-05 -3.91272e-06
-5.12779e-05 -6.86296e-05 6.2225e-06
-3.91272e-06 6.2225e-06 4.14202e-05
0.00221169 7.07187e-05 3.1483e-05
7.07187e-05 7.02456e-05 -1.24605e-05
3.1483e-05 -1.24605e-05 0.000200508
0.00284156 0.000426024 -5.79638e-05
0.000426024 -0.00197058 -3.81319e-05
-5.79638e-05 -3.81319e-05 -0.000480751
0.00268568 0.000119263 4.98656e-05
0.000119263 -0.000649075 -1.6198e-06
4.98656e-05 -1.6198e-06 -0.000175617
0.00266246 -5.2538e-05 2.30656e-06
-5.2538e-05 0.000347664 -1.00269e-05
2.30656e-06 -1.00269e-05 0.000424103
0.00490764 -0.000392186 -6.06887e-05
-0.000392186 0.00108147 -2.08965e-05
-6.06887e-05 -2.08965e-05 0.00128647
0.00328576 -0.000307505 2.94506e-05
-0.000307505 -0.000571171 -1.80313e-06
2.94506e-05 -1.80313e-06 0.000211148
0.0170213 -0.000903174 6.13053e-05
-0.000903174 0.0028805 -2.86864e-05
6.13053e-05 -2.86864e-05 0.00193245
0.0154108 0.00603945 0.00155531
0.00603945 0.00602164 -0.000464914
0.00155531 -0.000464914 0.00267952
0.0205368 0.00698319 6.04975e-05
0.00698319 0.0132198 1.74657e-05
6.04975e-05 1.74657e-05 0.00976314
0.000149994 -9.97746e-05 1.03352e-07
-9.97746e-05 -0.000138371 -4.5269e-07
1.03352e-07 -4.5269e-07 -0.000251026
0.000536946 -5.71657e-06 1.6453e-06
-5.71657e-06 8.33485e-05 -7.02213e-08
1.6453e-06 -7.02213e-08 -1.32124e-05
0.000615675 -8.88957e-05 -5.2037e-07
-8.88957e-05 0.000151962 3.17494e-06
-5.2037e-07 3.17494e-06 3.93145e-05
0.00053701 -3.35129e-05 9.71601e-07
-3.35129e-05 9.55905e-05 3.50146e-07
9.71601e-07 3.50146e-07 -2.10708e-05
0.00091549 0.000113557 -4.99913e-06
0.000113557 0.00038456 1.06085e-06
-4.99913e-06 1.06085e-06 0.000247268
0.000503015 0.000135054 5.00964e-07
0.000135054 5.20511e-05 7.51135e-06
5.00964e-07 7.51135e-06 -7.18992e-05
0.000966105 -4.62384e-07 2.29817e-06
-4.62384e-07 0.00038209 4.13633e-06
2.29817e-06 4.13633e-06 0.000240322
0.000523175 -2.6972e-05 -1.5357e-06
-2.6972e-05 8.39254e-05 1.30588e-06
-1.5357e-06 1.30588e-06 -3.32864e-05
0.00261447 -0.000301256 1.22093e-05
-0.000301256 1.59554e-05 -2.61093e-06
1.22093e-05 -2.61093e-06 0.000197884
0.00212771 -0.000572414 1.44784e-05
-0.000572414 -0.000343272 -6.41886e-06
1.44784e-05 -6.41886e-06 -0.000131788
0.0023688 -0.000861493 -3.04913e-07
-0.000861493 0.000124074 5.23575e-06
-3.04913e-07 5.23575e-06 -4.95081e-05
0.00237542 -0.00091924 1.73868e-05
-0.00091924 0.000814822 9.08082e-06
1.73868e-05 9.08082e-06 0.000345147
0.00206061 -0.00102894 -2.01057e-05
-0.00102894 0.000258569 6.1159e-06
-2.01057e-05 6.1159e-06 -9.23968e-05
0.00187242 -0.00114564 3.83443e-05
-0.00114564 0.00110257 -1.39604e-05
3.83443e-05 -1.39604e-05 0.000244809
0.00473104 -0.000781104 5.78016e-06
-0.000781104 0.00238588 2.92237e-06
5.78016e-06 2.92237e-06 0.00196888
0.00115929 -0.000260566 9.6981e-06
-0.000260566 0.000552353 -5.04494e-05
9.6981e-06 -5.04494e-05 0.000218437
0.000635869 -0.000103649 3.0241e-06
-0.000103649 7.07754e-05 -7.47963e-07
3.0241e-06 -7.47963e-07 -3.32386e-05
0.000913476 -8.06012e-05 1.11554e-05
-8.06012e-05 0.000311386 -2.11351e-05
1.11554e-05 -2.11351e-05 0.000106878
0.00102865 -5.14653e-05 3.81843e-06
-5.14653e-05 0.000409476 1.32175e-06
3.81843e-06 1.32175e-06 0.000266944
0.000841236 1.75584e-05 8.54789e-06
1.75584e-05 0.000323915 -7.29606e-06
8.54789e-06 -7.29606e-06 0.000293327
0.00245592 -0.000413703 -6.22101e-07
-0.000413703 -9.13418e-05 3.01184e-06
-6.22101e-07 3.01184e-06 0.000210127
0.00048113 -8.36927e-05 -3.90745e-06
-8.36927e-05 0.00014161 -6.43528e-07
-3.90745e-06 -6.43528e-07 1.96292e-06
0.00121058 -0.00018431 -8.22665e-06
-0.00018431 0.00051283 4.33714e-06
-8.22665e-06 4.33714e-06 0.0003416
0.00172973 -0.000651696 8.29492e-06
-0.000651696 -0.000331509 -3.80504e-06
8.29492e-06 -3.80504e-06 -0.000212187
0.00185781 -0.000874153 1.31245e-06
-0.000874153 4.8819e-05 7.27081e-07
1.31245e-06 7.27081e-07 -0.00021128
0.00095533 -0.000824148 -2.26387e-06
-0.000824148 -0.00017202 -5.75476e-06
-2.26387e-06 -5.75476e-06 -0.00047094
0.00175377 -0.00037208 1.03064e-06
-0.00037208 0.00102056 -2.59251e-05
1.03064e-06 -2.59251e-05 0.000618606
0.00150773 -0.000673869 7.25322e-06
-0.000673869 0.00123467 3.64461e-06
7.25322e-06 3.64461e-06 0.000362706
0.00537474 -0.000878492 -5.56653e-05
-0.000878492 0.0013382 2.54895e-05
-5.56653e-05 2.54895e-05 0.00154802
0.00415136 -0.00101252 -4.77461e-05
-0.00101252 0.00132497 1.15875e-05
-4.77461e-05 1.15875e-05 0.00111705
0.0021948 -0.00101722 1.23694e-05
-0.00101722 0.000344923 -4.5735e-06
1.23694e-05 -4.5735e-06 7.27863e-05
-0.000997287 -0.000450319 -2.1217e-06
-0.000450319 -0.000978093 1.37676e-05
-2.1217e-06 1.37676e-05 -0.00109915
0.000368806 -0.0001495 8.83336e-07
-0.0001495 0.000108515 8.40139e-06
8.83336e-07 8.40139e-06 -0.000130911
0.000332282 -0.000166769 4.13332e-06
-0.000166769 0.000154685 7.00005e-07
4.13332e-06 7.00005e-07 -0.000126039
0.00210331 -0.000256461 -9.04703e-06
-0.000256461 0.00153434 -2.46946e-05
-9.04703e-06 -2.46946e-05 0.000839595
-0.00694286 -0.000416998 0.000606836
-0.000416998 -0.00414859 -3.65953e-05
0.000606836 -3.65953e-05 -0.00406708
0.0118527 -0.000373209 7.18406e-05
-0.000373209 0.000963791 2.60066e-05
7.18406e-05 2.60066e-05 0.0011844
0.00270888 0.000389644 1.1104e-05
0.000389644 0.0014824 -1.08712e-05
1.1104e-05 -1.08712e-05 0.00125614
0.00161674 0.000542552 -3.29591e-06
0.000542552 0.000582856 6.4438e-06
-3.29591e-06 6.4438e-06 0.000207237
0.00292944 0.000731114 0.000103298
0.000731114 0.000363388 4.44477e-05
0.000103298 4.44477e-05 0.000386595
0.00305129 0.00102029 2.61198e-05
0.00102029 0.000780924 1.11696e-05
2.61198e-05 1.11696e-05 0.000445414
0.00296494 0.00089122 1.92615e-05
0.00089122 0.00117794 6.36147e-06
1.92615e-05 6.36147e-06 0.000688723
0.0162326 0.000755986 9.01383e-05
0.000755986 0.00288284 -4.0158e-05
9.01383e-05 -4.0158e-05 0.00223003
0.0085574 0.00245147 -0.000229037
0.00245147 -0.00077776 -3.29996e-05
-0.000229037 -3.29996e-05 0.000770248
0.00170371 0.00133063 9.3407e-06
0.00133063 -1.31547e-05 -3.17372e-05
9.3407e-06 -3.17372e-05 -0.00049032
0.0138518 -0.00464448 -0.000526069
-0.00464448 0.00593688 4.76416e-06
-0.000526069 4.76416e-06 0.00287095
0.00556417 -0.00989491 -0.00255634
-0.00989491 0.00574195 -0.00156584
-0.00255634 -0.00156584 0.00188586
0.00110232 0.000345749 2.41981e-06
0.000345749 0.000513864 -1.85001e-06
2.41981e-06 -1.85001e-06 0.000249638
-0.00143392 -0.00273975 0.000526692
-0.00273975 -0.00257393 8.41023e-05
0.000526692 8.41023e-05 -0.00472997
-0.00207767 -0.00267772 -0.000560704
-0.00267772 0.00611134 -0.000205805
-0.000560704 -0.000205805 0.000397143
0.0035067 0.0011656 -1.63331e-05
0.0011656 0.000751224 2.17935e-06
-1.63331e-05 2.17935e-06 0.000597606
0.000817427 0.000449082 -9.16562e-06
0.000449082 0.000110473 8.36457e-06
-9.16562e-06 8.36457e-06 -0.000244843
0.00139856 0.000829403 5.87023e-06
0.000829403 0.00032635 1.8365e-06
5.87023e-06 1.8365e-06 -0.000102088
0.00110803 0.00122146 5.48755e-05
0.00122146 7.23411e-05 3.93056e-05
5.48755e-05 3.93056e-05 -0.000234654
0.0142993 0.00283451 -0.00015627
0.00283451 0.000989697 -9.4233e-05
-0.00015627 -9.4233e-05 -0.000653746
0.00427752 0.0030591 -3.31963e-05
0.0030591 -0.000644662 -4.07312e-05
-3.31963e-05 -4.07312e-05 0.000402803
0.0179974 -0.00537757 0.000600707
-0.00537757 0.00743696 -1.54562e-05
0.000600707 -1.54562e-05 0.00305816
0.0170639 -0.00450967 0.000124691
-0.00450967 0.00355817 0.000751726
0.000124691 0.000751726 0.0011022
0.00208053 0.000411174 -2.05309e-05
0.000411174 0.00106022 -1.54137e-05
-2.05309e-05 -1.54137e-05 0.000828879
-0.0103726 0.00129766 -0.000142767
0.00129766 0.00396534 -0.000145899
-0.000142767 -0.000145899 -0.00293674
0.00526617 0.000979499 -0.000400587
0.000979499 0.00425516 -0.000515587
-0.000400587 -0.000515587 -0.000619468
0.00264587 0.000868289 -3.19718e-05
0.000868289 0.000663781 -6.20755e-06
-3.19718e-05 -6.20755e-06 0.000606866
0.00252006 0.000860008 -7.58489e-05
0.000860008 0.00107862 -2.89253e-05
-7.58489e-05 -2.89253e-05 0.000675809
0.000867935 0.00086774 -0.00010028
0.00086774 0.000755689 -2.63132e-05
-0.00010028 -2.63132e-05 3.96578e-05
-0.00266792 0.00186673 -1.48046e-05
0.00186673 -0.00119594 -3.60026e-05
-1.48046e-05 -3.60026e-05 -0.00140125
0.00121023 0.00349459 0.000403996
0.00349459 -0.00202239 0.000145862
0.000403996 0.000145862 -0.00416318
0.0189176 -0.00677624 0.000168836
-0.00677624 0.0100509 0.000740784
0.000168836 0.000740784 0.00507148
0.00900917 -0.000746142 -0.000188339
-0.000746142 -0.00200873 -0.000156678
-0.000188339 -0.000156678 -0.0010614
-0.000690735 0.000133537 1.97723e-06
0.000133537 -0.000503502 -5.82365e-06
1.97723e-06 -5.82365e-06 -0.000647881
0.00172591 0.000316124 1.07395e-05
0.000316124 0.000926064 2.50476e-06
1.07395e-05 2.50476e-06 0.000734427
-0.000591587 7.88795e-05 -2.43896e-06
7.88795e-05 -0.000401869 -1.94116e-06
-2.43896e-06 -1.94116e-06 -0.000571682
0.000339753 5.25374e-05 1.94246e-06
5.25374e-05 -3.7977e-05 9.04419e-07
1.94246e-06 9.04419e-07 -0.000177285
0.00103999 9.24429e-05 -4.13417e-07
9.24429e-05 0.000437234 -1.68387e-06
-4.13417e-07 -1.68387e-06 0.000244273
0.000554658 2.09251e-05 -2.00466e-06
2.09251e-05 0.000140006 1.5825e-06
-2.00466e-06 1.5825e-06 -5.30225e-05
0.000456994 0.000101262 5.50511e-06
0.000101262 5.49062e-05 6.11015e-06
5.50511e-06 6.11015e-06 -0.00012816
-0.000578313 4.74252e-05 -4.02402e-06
4.74252e-05 -0.000502875 8.85716e-07
-4.02402e-06 8.85716e-07 -0.000660097
0.000777969 4.35241e-05 2.8578e-07
4.35241e-05 0.00027345 -8.35113e-07
2.8578e-07 -8.35113e-07 8.69209e-05
0.000720959 9.24712e-05 7.23931e-07
9.24712e-05 0.000230299 -1.27249e-07
7.23931e-07 -1.27249e-07 6.40321e-05
0.000843452 -4.1551e-05 -1.20691e-06
-4.1551e-05 0.00031378 2.1436e-06
-1.20691e-06 2.1436e-06 0.000121658
-0.00097616 2.9466e-05 2.3495e-06
2.9466e-05 -0.000600521 5.17646e-07
2.3495e-06 5.17646e-07 -0.000838442
0.0002302 5.75902e-05 -3.38855e-06
5.75902e-05 0.000324864 6.06751e-06
-3.38855e-06 6.06751e-06 -4.41204e-05
0.000633124 -2.86313e-05 -1.50158e-06
-2.86313e-05 0.000269116 -8.10856e-06
-1.50158e-06 -8.10856e-06 6.40626e-05
0.00131991 -1.1126e-05 -1.31429e-06
-1.1126e-05 0.000652749 1.21065e-06
-1.31429e-06 1.21065e-06 0.000429429
0.000803409 -8.0785e-05 -5.51019e-07
-8.0785e-05 0.000287581 -1.67417e-06
-5.51019e-07 -1.67417e-06 0.000100793
0.000248108 -9.49445e-05 3.87911e-06
-9.49445e-05 -0.000108849 9.18596e-06
3.87911e-06 9.18596e-06 -0.000241461
0.000701911 -8.51924e-05 4.79766e-07
-8.51924e-05 0.000238664 -1.12766e-06
4.79766e-07 -1.12766e-06 4.61433e-05
0.00075831 -8.67507e-05 -1.85238e-06
-8.67507e-05 0.000213564 -1.74738e-07
-1.85238e-06 -1.74738e-07 7.90581e-05
-0.000307868 -6.50754e-05 1.91917e-06
-6.50754e-05 -0.000409981 4.71831e-06
1.91917e-06 4.71831e-06 -0.000524052
-1.04909e-05 -5.7312e-05 -2.78763e-07
-5.7312e-05 -0.000202218 -3.17202e-06
-2.78763e-07 -3.17202e-06 -0.000361775
1.22443e-05 -2.71977e-05 -7.83555e-06
-2.71977e-05 -0.000129981 -4.38294e-06
-7.83555e-06 -4.38294e-06 -0.000308941
-9.66113e-05 -8.55536e-05 3.09455e-06
-8.55536e-05 -0.00024763 -6.20168e-06
3.09455e-06 -6.20168e-06 -0.000378274
0.0010276 -0.00011842 1.09503e-05
-0.00011842 0.000316045 -1.69409e-05
1.09503e-05 -1.69409e-05 0.000214411
0.00104547 -0.000246926 -8.19767e-07
-0.000246926 0.000274534 4.05043e-06
-8.19767e-07 4.05043e-06 9.56999e-05
-7.35306e-05 -5.58204e-05 -7.19172e-06
-5.58204e-05 -0.000240805 -2.95714e-06
-7.19172e-06 -2.95714e-06 -0.00042308
0.000633646 -5.61497e-05 1.74261e-06
-5.61497e-05 0.000192437 -9.83172e-07
1.74261e-06 -9.83172e-07 8.15034e-06
-0.000158388 -3.34465e-05 2.13719e-06
-3.34465e-05 -0.000311285 -6.42018e-07
2.13719e-06 -6.42018e-07 -0.000489858
0.000667384 -0.000119922 -4.47238e-07
-0.000119922 0.000206641 -3.47884e-07
-4.47238e-07 -3.47884e-07 4.42255e-05
0.000457685 -2.85196e-05 9.02715e-07
-2.85196e-05 2.41259e-05 1.29857e-06
9.02715e-07 1.29857e-06 -0.000101456
0.000761819 -0.000118141 -9.41319e-07
-0.000118141 0.000252311 7.05695e-07
-9.41319e-07 7.05695e-07 0.000100495
0.000629718 -8.57635e-05 -6.63917e-07
-8.57635e-05 0.000143953 1.8159e-07
-6.63917e-07 1.8159e-07 1.18939e-05
0.000399282 3.21604e-05 1.5402e-07
3.21604e-05 -3.23875e-05 4.45235e-06
1.5402e-07 4.45235e-06 -0.000116448
0.000546116 -0.000112977 9.18343e-07
-0.000112977 8.55327e-05 -2.43587e-06
9.18343e-07 -2.43587e-06 -4.93714e-05
0.000512086 -4.16427e-05 -5.1393e-07
-4.16427e-05 3.55918e-05 1.02677e-07
-5.1393e-07 1.02677e-07 -4.37742e-05
0.00141647 1.44845e-05 -7.61382e-06
1.44845e-05 0.000578856 7.4564e-06
-7.61382e-06 7.4564e-06 0.000557614
0.000483257 -6.40174e-05 1.33031e-06
-6.40174e-05 2.65237e-05 -3.81285e-06
1.33031e-06 -3.81285e-06 -5.61339e-05
0.000862173 -1.90642e-05 -7.56284e-06
-1.90642e-05 0.000238179 8.45706e-07
-7.56284e-06 8.45706e-07 0.000214455
0.000758848 1.20737e-05 1.23668e-06
1.20737e-05 0.000155224 2.30741e-06
1.23668e-06 2.30741e-06 0.000158601
0.000421639 -2.00728e-05 2.77584e-06
-2.00728e-05 -3.63333e-05 -4.72298e-06
2.77584e-06 -4.72298e-06 -6.04758e-05
0.00255915 1.21967e-05 7.12809e-06
1.21967e-05 0.00129624 2.23495e-08
7.12809e-06 2.23495e-08 0.00130873
0.00258513 1.46196e-06 1.73733e-06
1.46196e-06 0.00131329 -5.06831e-06
1.73733e-06 -5.06831e-06 0.00132538
0.00103593 8.22608e-05 -8.45113e-07
8.22608e-05 0.000399635 9.71145e-07
-8.45113e-07 9.71145e-07 0.000291696
0.000506886 6.36893e-05 -1.77613e-06
6.36893e-05 3.35653e-05 -2.50606e-06
-1.77613e-06 -2.50606e-06 -2.05497e-05
0.000535153 -1.35266e-05 -2.80291e-07
-1.35266e-05 8.94295e-05 7.79725e-07
-2.80291e-07 7.79725e-07 -1.40895e-05
0.000472902 7.71383e-06 1.09994e-06
7.71383e-06 -2.93658e-05 -3.35387e-06
1.09994e-06 -3.35387e-06 -3.89804e-05
0.000449674 -1.14645e-05 1.11306e-06
-1.14645e-05 -7.59502e-06 -1.95506e-07
1.11306e-06 -1.95506e-07 -5.52183e-05
0.00052476 -5.99586e-05 -1.7516e-06
-5.99586e-05 4.57172e-05 2.09068e-06
-1.7516e-06 2.09068e-06 -7.50437e-06
0.000476115 7.29737e-06 -4.8446e-07
7.29737e-06 -2.73882e-05 -1.55323e-09
-4.8446e-07 -1.55323e-09 -3.76743e-05
0.00198389 2.35126e-05 -1.75216e-06
2.35126e-05 0.000929294 -4.77371e-06
-1.75216e-06 -4.77371e-06 0.000946074
0.00113285 2.43736e-05 -6.12e-07
2.43736e-05 0.000388814 2.01141e-06
-6.12e-07 2.01141e-06 0.00038001
0.00130833 3.02795e-05 -1.79702e-06
3.02795e-05 0.000503441 -1.44146e-08
-1.79702e-06 -1.44146e-08 0.000515254
0.000815515 3.64563e-05 -7.86835e-06
3.64563e-05 0.000197866 7.45694e-06
-7.86835e-06 7.45694e-06 0.000202641
-0.00834987 0.00137338 0.000586163
0.00137338 -0.00285357 -5.96118e-05
0.000586163 -5.96118e-05 -0.00585284
-0.000473524 0.000419741 0.00127338
0.000419741 0.00676234 -0.000313538
0.00127338 -0.000313538 0.00275398
0.0021949 0.000391264 -0.000165523
0.000391264 -0.00250368 -3.0657e-05
-0.000165523 -3.0657e-05 -0.000725667
0.00187006 1.56772e-07 1.30635e-05
1.56772e-07 -0.00106205 -2.78065e-05
1.30635e-05 -2.78065e-05 -0.000542773
0.00174394 -7.78135e-05 9.46994e-06
-7.78135e-05 -0.000300911 2.17021e-05
9.46994e-06 2.17021e-05 -0.000216356
-0.00151653 2.03497e-05 -0.000104048
2.03497e-05 -0.0019065 -2.82087e-05
-0.000104048 -2.82087e-05 -0.000680377
0.00392042 -0.000444282 3.58354e-06
-0.000444282 0.00036278 5.62052e-06
3.58354e-06 5.62052e-06 0.0005565
0.0123196 -0.000130204 0.000200218
-0.000130204 -0.000925322 -8.54342e-05
0.000200218 -8.54342e-05 -0.00158315
0.0020002 0.00398662 1.71881e-07
0.00398662 0.00102353 -6.85873e-05
1.71881e-07 -6.85873e-05 -0.00261261
0.0146212 0.00806857 -0.000564252
0.00806857 0.00984026 0.000270113
-0.000564252 0.000270113 0.00641482
0.00165925 -0.000850913 1.63186e-05
-0.000850913 -0.00256181 -3.8463e-05
1.63186e-05 -3.8463e-05 -0.00127004
0.0155458 -0.0026182 0.000235564
-0.0026182 0.00163835 -7.40799e-05
0.000235564 -7.40799e-05 0.000265846
0.0183204 0.00653739 0.000389362
0.00653739 0.00592624 -0.000542034
0.000389362 -0.000542034 0.00179978
0.0210159 0.00458357 -0.0003288
0.00458357 0.0065889 0.000289469
-0.0003288 0.000289469 0.00415084
0.00100882 0.000168867 -3.28685e-06
0.000168867 0.0004488 3.33044e-06
-3.28685e-06 3.33044e-06 0.000268089
0.000334779 4.02676e-05 4.34245e-07
4.02676e-05 -3.74829e-05 -1.05317e-06
4.34245e-07 -1.05317e-06 -0.000142675
0.000543289 -9.60657e-05 1.72997e-06
-9.60657e-05 9.93837e-05 1.36795e-06
1.72997e-06 1.36795e-06 -3.45522e-06
0.000675613 9.66819e-06 6.9005e-06
9.66819e-06 0.000190648 -1.21261e-06
6.9005e-06 -1.21261e-06 6.78006e-05
0.000848136 8.81651e-05 2.73717e-06
8.81651e-05 0.000355783 1.32537e-06
2.73717e-06 1.32537e-06 0.000218199
0.000472071 2.25576e-05 -3.28428e-07
2.25576e-05 7.32724e-05 8.16455e-06
-3.28428e-07 8.16455e-06 -9.2596e-05
0.000742499 9.44653e-05 6.91755e-07
9.44653e-05 0.000230655 3.28224e-06
6.91755e-07 3.28224e-06 9.23399e-05
0.00045017 6.66141e-05 4.91749e-06
6.66141e-05 1.64524e-05 2.43575e-06
4.91749e-06 2.43575e-06 -0.000124434
0.000685016 -2.59568e-05 2.61641e-06
-2.59568e-05 0.000204171 -1.18907e-06
2.61641e-06 -1.18907e-06 6.42968e-05
0.000478521 -1.63618e-05 2.22567e-06
-1.63618e-05 4.69027e-05 -2.85307e-06
2.22567e-06 -2.85307e-06 -6.31013e-05
0.00136422 -0.000348478 3.62746e-05
-0.000348478 -0.000661145 -8.09051e-06
3.62746e-05 -8.09051e-06 -0.000339755
0.00105876 -0.000597913 2.9096e-05
-0.000597913 -0.000699385 -9.34825e-06
2.9096e-05 -9.34825e-06 -0.000542238
0.00103294 -0.00075004 1.26808e-06
-0.00075004 -0.000412846 6.08217e-06
1.26808e-06 6.08217e-06 -0.000591589
-4.59545e-05 -0.000704087 -1.70204e-05
-0.000704087 -0.000712208 4.27094e-06
-1.70204e-05 4.27094e-06 -0.000987218
0.00271825 -0.000499861 8.35962e-06
-0.000499861 0.00172645 3.60101e-05
8.35962e-06 3.60101e-05 0.00104683
-0.000362111 -0.000543521 -5.57485e-06
-0.000543521 -0.000251162 -7.99938e-06
-5.57485e-06 -7.99938e-06 -0.000788788
0.00152668 -0.000268461 6.29474e-06
-0.000268461 0.000715054 -4.64127e-06
6.29474e-06 -4.64127e-06 0.000564752
0.000475167 -5.88026e-05 5.76433e-07
-5.88026e-05 0.000123827 2.97202e-06
5.76433e-07 2.97202e-06 -1.26815e-05
0.00245107 -0.000626108 1.22089e-05
-0.000626108 -0.000238647 -8.98737e-06
1.22089e-05 -8.98737e-06 6.30129e-05
0.000417695 -6.74183e-05 4.97486e-07
-6.74183e-05 0.000139973 1.67277e-06
4.97486e-07 1.67277e-06 -0.000110104
-0.000131877 -0.000208444 -1.65009e-06
-0.000208444 -0.000111363 -6.02651e-06
-1.65009e-06 -6.02651e-06 -0.000398443
0.00183149 -0.000797905 1.90993e-05
-0.000797905 1.30828e-05 -1.70648e-06
1.90993e-05 -1.70648e-06 -6.10542e-05
0.00195858 -0.000992769 -8.51512e-07
-0.000992769 0.000146279 2.64599e-06
-8.51512e-07 2.64599e-06 -4.9538e-05
0.000245386 -0.000732346 2.05523e-05
-0.000732346 -0.000248655 -1.56138e-05
2.05523e-05 -1.56138e-05 -0.000504834
0.00104919 -0.000367023 7.63389e-06
-0.000367023 0.000941772 -2.00007e-05
7.63389e-06 -2.00007e-05 0.000227754
0.00214477 -0.000958643 -6.91461e-05
-0.000958643 6.12157e-05 4.26438e-05
-6.91461e-05 4.26438e-05 -0.000185241
0.00103194 -0.000734741 -2.85699e-05
-0.000734741 -0.000185276 2.96212e-06
-2.85699e-05 2.96212e-06 -0.000199696
3.22465e-05 -0.000644371 -6.7216e-05
-0.000644371 4.7304e-05 4.29035e-05
-6.7216e-05 4.29035e-05 -0.00038244
-0.00222951 -0.000205275 -8.09235e-06
-0.000205275 -0.00150304 1.18444e-05
-8.09235e-06 1.18444e-05 -0.00175066
-0.0011337 -3.17915e-05 6.69808e-07
-3.17915e-05 -0.000730408 1.09403e-05
6.69808e-07 1.09403e-05 -0.00102802
0.000764527 -9.01042e-05 8.31155e-06
-9.01042e-05 0.000486126 -1.46734e-05
8.31155e-06 -1.46734e-05 0.000101093
-0.00256046 0.00133632 -0.00044344
0.00133632 0.00725772 2.09309e-05
-0.00044344 2.09309e-05 0.0020976
0.000119764 -0.00163086 -1.40433e-05
-0.00163086 0.00253132 7.68416e-06
-1.40433e-05 7.68416e-06 0.0014696
0.00292632 0.00101193 -0.000133931
0.00101193 -0.00553192 -2.03165e-05
-0.000133931 -2.03165e-05 -0.00572206
0.000325833 0.000277168 1.28936e-05
0.000277168 6.79282e-05 -2.3899e-06
1.28936e-05 -2.3899e-06 -0.000189812
0.00172746 0.000628176 1.33053e-05
0.000628176 0.000694295 2.15421e-05
1.33053e-05 2.15421e-05 0.000270408
0.00344023 0.00102664 7.15776e-05
0.00102664 0.000700315 2.40476e-05
7.15776e-05 2.40476e-05 0.000593607
0.00152233 0.000888492 1.67759e-05
0.000888492 0.000417319 2.29147e-05
1.67759e-05 2.29147e-05 -4.68598e-05
0.0132096 -0.00317414 0.000251239
-0.00317414 0.00509213 8.57341e-05
0.000251239 8.57341e-05 0.0036512
0.00358129 0.00159763 -0.000383427
0.00159763 -0.00467065 -8.53676e-05
-0.000383427 -8.53676e-05 -0.00616502
0.00525423 0.00293849 4.58858e-05
0.00293849 0.000291733 2.71577e-05
4.58858e-05 2.71577e-05 0.000923641
0.00305857 0.00127667 5.77721e-05
0.00127667 0.00126497 -1.02224e-05
5.77721e-05 -1.02224e-05 0.000999416
0.0096817 -0.00331061 -0.000407693
-0.00331061 0.00413497 -0.000374776
-0.000407693 -0.000374776 0.000286777
5.09865e-05 -0.00379715 -0.000776504
-0.00379715 0.00672248 -0.000234495
-0.000776504 -0.000234495 0.000887694
0.0256042 -0.0058782 0.000797083
-0.0058782 0.00735687 0.000397946
0.000797083 0.000397946 0.00453109
0.000345607 0.000259999 1.73806e-05
0.000259999 4.0728e-05 -4.41773e-06
1.73806e-05 -4.41773e-06 -0.000178831
-0.00408831 0.000466851 -0.000189833
0.000466851 0.00593749 -3.50192e-05
-0.000189833 -3.50192e-05 6.06474e-05
0.00596846 0.00134731 -0.00014739
0.00134731 0.00344151 -0.000179001
-0.00014739 -0.000179001 -0.00195684
0.0017658 0.000889816 9.77136e-06
0.000889816 0.000292563 3.02832e-06
9.77136e-06 3.02832e-06 0.000167526
0.000777894 0.000663218 1.42267e-05
0.000663218 0.000237545 5.00062e-06
1.42267e-05 5.00062e-06 -0.000176225
0.000698639 0.0010033 -5.7601e-05
0.0010033 0.000495968 -6.25893e-05
-5.7601e-05 -6.25893e-05 -8.99151e-05
0.0042104 0.00336913 3.40234e-05
0.00336913 0.0012403 3.4069e-05
3.40234e-05 3.4069e-05 0.0010939
0.016426 0.00461812 2.38115e-05
0.00461812 0.00341366 1.04521e-05
2.38115e-05 1.04521e-05 0.00121525
0.00897422 -0.00391302 8.95979e-05
-0.00391302 0.00430857 -9.89969e-05
8.95979e-05 -9.89969e-05 -0.001088
0.0158104 -0.00220494 -1.44147e-05
-0.00220494 0.00223371 -7.10271e-05
-1.44147e-05 -7.10271e-05 0.00333758
0.000637272 0.000488156 -1.38727e-05
0.000488156 0.000218009 -9.29591e-06
-1.38727e-05 -9.29591e-06 -8.43455e-05
0.00181528 0.000237486 -0.000372105
0.000237486 0.0023248 -9.12974e-05
-0.000372105 -9.12974e-05 -0.00265767
0.00113145 0.000895451 -0.000142831
0.000895451 -0.000170082 -0.000176736
-0.000142831 -0.000176736 -0.00177809
-0.000680383 0.000327437 -6.26285e-06
0.000327437 -0.000138396 -2.01287e-05
-6.26285e-06 -2.01287e-05 -0.000412643
-0.000980503 0.000716647 -0.000191927
0.000716647 0.000964776 -1.43289e-05
-0.000191927 -1.43289e-05 0.000175047
0.0128086 0.00517082 0.000124036
0.00517082 0.00414331 -4.27812e-05
0.000124036 -4.27812e-05 -0.000337302
-0.00156853 -0.00559485 -9.25204e-06
-0.00559485 -0.000106854 0.000236533
-9.25204e-06 0.000236533 -0.00532343
0.0122164 0.00010787 7.19053e-05
0.00010787 -0.00164438 -0.000330374
7.19053e-05 -0.000330374 0.000850108
0.000778591 0.000193972 -4.076e-06
0.000193972 0.000300981 1.73936e-05
-4.076e-06 1.73936e-05 0.000151824
0.000939875 0.000243834 -9.29208e-06
0.000243834 0.000540168 -5.47061e-06
-9.29208e-06 -5.47061e-06 0.000328066
-0.000255766 0.00013325 7.98496e-07
0.00013325 7.05422e-06 -1.59896e-06
7.98496e-07 -1.59896e-06 -0.000312083
0.000542964 8.71887e-05 -1.21977e-06
8.71887e-05 0.000105444 -1.16393e-06
-1.21977e-06 -1.16393e-06 -6.56837e-05
0.00123914 -3.09865e-05 -2.25321e-06
-3.09865e-05 0.000579167 4.37367e-06
-2.25321e-06 4.37367e-06 0.000373116
4.78828e-05 7.60066e-05 2.89913e-06
7.60066e-05 -0.000199497 2.44207e-06
2.89913e-06 2.44207e-06 -0.000358099
-0.00117995 3.80438e-05 2.33169e-06
3.80438e-05 -0.000710201 1.54043e-06
2.33169e-06 1.54043e-06 -0.000947369
0.000582721 -2.25592e-05 1.22121e-06
-2.25592e-05 0.000153226 3.68565e-07
1.22121e-06 3.68565e-07 -3.92171e-05
0.000501495 4.13218e-05 6.05715e-07
4.13218e-05 0.000180233 -2.32451e-06
6.05715e-07 -2.32451e-06 -1.9272e-05
7.44655e-05 4.2959e-05 2.36909e-06
4.2959e-05 0.000277515 2.91608e-06
2.36909e-06 2.91608e-06 -0.000124304
-0.000402558 6.65944e-05 -3.35205e-06
6.65944e-05 0.000154613 1.29528e-05
-3.35205e-06 1.29528e-05 -0.000347462
0.000485337 6.17166e-06 -3.11043e-06
6.17166e-06 0.000522104 -3.46943e-06
-3.11043e-06 -3.46943e-06 0.000123448
0.00132184 3.02988e-05 -2.00427e-06
3.02988e-05 0.000670045 -3.18568e-06
-2.00427e-06 -3.18568e-06 0.00048236
0.000784109 -0.000159103 3.0644e-06
-0.000159103 0.000280654 1.87661e-06
3.0644e-06 1.87661e-06 9.23524e-05
0.000256197 -6.45926e-05 1.20363e-06
-6.45926e-05 -0.000119364 4.75141e-06
1.20363e-06 4.75141e-06 -0.00024286
0.000194091 -8.69946e-05 2.75408e-06
-8.69946e-05 -9.42516e-05 1.44889e-05
2.75408e-06 1.44889e-05 -0.000194782
0.000224744 -3.72154e-05 2.38762e-06
-3.72154e-05 -1.55162e-05 2.67854e-06
2.38762e-06 2.67854e-06 -0.000181508
0.0005299 -5.11567e-05 -1.48952e-07
-5.11567e-05 0.000120533 7.23944e-07
-1.48952e-07 7.23944e-07 -3.44823e-05
0.000323863 -5.38392e-05 -1.87791e-07
-5.38392e-05 8.78066e-06 -1.84048e-06
-1.87791e-07 -1.84048e-06 -0.000119662
0.000467229 -6.84826e-05 -8.42282e-06
-6.84826e-05 8.19028e-05 -4.9581e-06
-8.42282e-06 -4.9581e-06 -4.90626e-05
0.000375754 -7.38779e-05 9.15341e-06
-7.38779e-05 0.000216484 -7.88357e-06
9.15341e-06 -7.88357e-06 5.1383e-05
0.00101955 -0.000245416 1.12056e-06
-0.000245416 0.00021781 4.29576e-06
1.12056e-06 4.29576e-06 0.00013143
0.000523885 -0.000134898 -1.34873e-05
-0.000134898 2.85879e-05 -3.74667e-07
-1.34873e-05 -3.74667e-07 -7.98874e-05
0.000418664 -0.000206283 7.68385e-06
-0.000206283 -6.62919e-05 6.65038e-06
7.68385e-06 6.65038e-06 -0.000228255
0.00217335 -0.000574881 -1.85976e-06
-0.000574881 0.00091242 2.17755e-05
-1.85976e-06 2.17755e-05 0.000562418
0.00188708 -0.000267665 4.24991e-06
-0.000267665 0.000870312 -1.04574e-05
4.24991e-06 -1.04574e-05 0.000668182
0.000365683 -0.000179413 -7.03789e-06
-0.000179413 -0.000108681 -6.89081e-06
-7.03789e-06 -6.89081e-06 -0.00024795
0.000529868 -8.29262e-05 -2.62252e-07
-8.29262e-05 0.000103968 -1.02174e-06
-2.62252e-07 -1.02174e-06 -7.65079e-05
-0.000273915 -4.46883e-05 -6.64581e-07
-4.46883e-05 -0.00036146 -2.21139e-06
-6.64581e-07 -2.21139e-06 -0.000579108
0.00109374 -6.67637e-05 3.79286e-07
-6.67637e-05 0.000465483 1.57628e-06
3.79286e-07 1.57628e-06 0.000285191
0.000720761 -0.000134904 -3.01948e-08
-0.000134904 0.000240806 2.70328e-07
-3.01948e-08 2.70328e-07 4.9782e-05
0.000480282 -6.502e-05 7.87971e-07
-6.502e-05 2.34327e-05 1.62101e-06
7.87971e-07 1.62101e-06 -0.000105198
0.00142569 -0.000204848 -2.56985e-06
-0.000204848 0.000701938 -4.79589e-07
-2.56985e-06 -4.79589e-07 0.000512706
0.000687531 -0.000113148 -5.25064e-07
-0.000113148 0.000169917 5.36155e-08
-5.25064e-07 5.36155e-08 3.71861e-05
0.000509804 3.17452e-06 -1.35902e-06
3.17452e-06 3.02772e-05 3.60265e-06
-1.35902e-06 3.60265e-06 -5.42902e-05
0.00072395 -0.000134573 8.40546e-07
-0.000134573 0.000203161 -2.17168e-06
8.40546e-07 -2.17168e-06 6.68354e-05
0.000586743 -5.85128e-05 -1.00084e-07
-5.85128e-05 8.18778e-05 1.38359e-07
-1.00084e-07 1.38359e-07 -1.94167e-06
0.00143692 1.02612e-05 -1.25456e-05
1.02612e-05 0.000587512 7.69765e-06
-1.25456e-05 7.69765e-06 0.000564284
0.000536836 -7.02654e-05 1.6964e-06
-7.02654e-05 6.01901e-05 -4.71295e-06
1.6964e-06 -4.71295e-06 -2.52071e-05
0.000859783 -1.35898e-05 -8.8782e-06
-1.35898e-05 0.000229707 7.05838e-07
-8.8782e-06 7.05838e-07 0.000205083
0.000817318 2.14673e-05 1.23206e-06
2.14673e-05 0.000188773 2.97528e-06
1.23206e-06 2.97528e-06 0.000190327
0.000428538 -3.32595e-05 2.58721e-06
-3.32595e-05 -3.69825e-05 -5.25365e-06
2.58721e-06 -5.25365e-06 -6.28504e-05
0.00166397 2.04832e-05 1.14741e-05
2.04832e-05 0.000729164 -1.47706e-06
1.14741e-05 -1.47706e-06 0.000737214
0.002516 1.10031e-05 1.23244e-05
1.10031e-05 0.00126829 -5.18859e-06
1.23244e-05 -5.18859e-06 0.00128099
0.00048722 5.44407e-05 1.42059e-06
5.44407e-05 3.12374e-05 -7.14058e-07
1.42059e-06 -7.14058e-07 -7.19287e-05
0.000595661 6.51444e-05 -1.25796e-06
6.51444e-05 8.32077e-05 -1.94329e-06
-1.25796e-06 -1.94329e-06 2.60747e-05
0.000584656 4.03386e-06 7.6045e-07
4.03386e-06 0.000107807 8.24622e-07
7.6045e-07 8.24622e-07 5.36085e-06
0.000461835 4.95567e-06 1.80418e-06
4.95567e-06 -3.54208e-05 -3.6802e-06
1.80418e-06 -3.6802e-06 -4.57189e-05
0.00048849 5.46703e-05 1.21297e-08
5.46703e-05 1.71506e-05 -1.82171e-07
1.21297e-08 -1.82171e-07 -3.39914e-05
0.000506771 -0.000113575 -2.86296e-06
-0.000113575 6.09793e-05 7.56769e-07
-2.86296e-06 7.56769e-07 -3.57736e-05
0.00200884 9.653e-06 -6.95088e-06
9.653e-06 0.000942901 -4.8249e-06
-6.95088e-06 -4.8249e-06 0.000960563
0.000450975 6.00683e-06 -2.5414e-07
6.00683e-06 -4.27125e-05 2.88953e-08
-2.5414e-07 2.88953e-08 -5.23104e-05
0.000494526 -8.83062e-06 -1.56561e-06
-8.83062e-06 1.64782e-05 2.1039e-06
-1.56561e-06 2.1039e-06 -2.85772e-05
0.00046389 5.34092e-06 -1.60742e-06
5.34092e-06 -3.57363e-05 3.30958e-06
-1.60742e-06 3.30958e-06 -4.60005e-05
0.00203886 2.5118e-05 -5.44918e-06
2.5118e-05 0.000964315 -1.13361e-07
-5.44918e-06 -1.13361e-07 0.00098073
0.00200374 3.90961e-05 -4.46779e-06
3.90961e-05 0.000944943 4.70611e-06
-4.46779e-06 4.70611e-06 0.000960102
-0.00624393 -0.00186299 -0.000202086
-0.00186299 0.00600612 5.96181e-05
-0.000202086 5.96181e-05 0.00166932
0.00232491 0.00154956 -0.000285968
0.00154956 0.000860029 9.11781e-05
-0.000285968 9.11781e-05 -0.0014893
0.0029316 -0.00104611 -0.000633115
-0.00104611 0.00125694 0.000271314
-0.000633115 0.000271314 -0.00343909
0.0004273 0.000924464 0.00116832
0.000924464 0.00665638 -0.000336549
0.00116832 -0.000336549 0.0021347
0.00300791 0.000649385 -4.98753e-05
0.000649385 -0.000949731 9.80342e-06
-4.98753e-05 9.80342e-06 4.10302e-05
0.00293038 -0.000510407 9.2976e-05
-0.000510407 -0.000260183 8.99056e-06
9.2976e-05 8.99056e-06 -0.000100858
0.000911425 -0.000384275 0.000305239
-0.000384275 -0.00527126 -5.91432e-05
0.000305239 -5.91432e-05 -0.0067632
0.0231783 0.00350704 -0.000938399
0.00350704 0.0102446 6.87425e-05
-0.000938399 6.87425e-05 0.00696898
0.00696881 0.00940803 -0.00245857
0.00940803 0.00562709 0.00155354
-0.00245857 0.00155354 0.00190552
0.00490694 -0.000711521 3.28976e-05
-0.000711521 -0.000492543 5.06434e-06
3.28976e-05 5.06434e-06 0.000334086
0.00873462 -0.00248339 0.000178705
-0.00248339 -0.00208583 -0.000147189
0.000178705 -0.000147189 -0.00423289
0.0206296 0.00588059 -0.000353816
0.00588059 0.00677971 -0.000117363
-0.000353816 -0.000117363 0.00258385
0.0156994 0.0046343 1.41031e-05
0.0046343 0.00354489 0.00041994
1.41031e-05 0.00041994 0.000912889
0.00185856 -0.00188804 -0.000120529
-0.00188804 -0.00329684 2.72084e-05
-0.000120529 2.72084e-05 -0.00193495
0.0064857 -0.00400091 0.000466804
-0.00400091 -0.000195843 -0.000233802
0.000466804 -0.000233802 -0.00388289
0.00831193 0.00356712 7.05787e-05
0.00356712 0.00198904 -0.000859117
7.05787e-05 -0.000859117 -0.00241939
0.00888479 0.000649436 -0.000312424
0.000649436 -0.00205159 1.20097e-05
-0.000312424 1.20097e-05 -0.00136967
0.00248702 -8.70085e-05 9.78519e-07
-8.70085e-05 0.00142734 1.69221e-05
9.78519e-07 1.69221e-05 0.00115362
0.000306128 9.28172e-05 -1.56144e-06
9.28172e-05 -2.39043e-05 -2.20413e-06
-1.56144e-06 -2.20413e-06 -0.00016781
0.000514697 0.000103856 2.96313e-06
0.000103856 6.30278e-05 -9.26062e-07
2.96313e-06 -9.26062e-07 -3.70686e-05
0.000126289 -7.24469e-06 6.108e-06
-7.24469e-06 -0.000122709 -3.03783e-06
6.108e-06 -3.03783e-06 -0.000228545
0.000436581 0.000104509 3.52643e-06
0.000104509 2.69992e-05 5.70893e-06
3.52643e-06 5.70893e-06 -0.000156248
0.000449935 4.60106e-05 -1.39438e-08
4.60106e-05 4.96691e-05 2.02366e-06
-1.39438e-08 2.02366e-06 -0.000103405
0.000202911 2.41667e-05 1.49408e-06
2.41667e-05 -0.000107143 -3.71046e-06
1.49408e-06 -3.71046e-06 -0.000237813
0.000908828 0.000183182 4.737e-06
0.000183182 0.000341904 8.75056e-06
4.737e-06 8.75056e-06 0.000165159
0.000910202 0.000135882 -2.84317e-07
0.000135882 0.000352052 -3.93318e-07
-2.84317e-07 -3.93318e-07 0.000178854
0.000359589 -1.39785e-05 -3.55628e-06
-1.39785e-05 -1.46424e-05 -6.77428e-06
-3.55628e-06 -6.77428e-06 -0.000147929
0.000529088 -0.000495361 8.96424e-05
-0.000495361 -0.00127037 -4.62789e-05
8.96424e-05 -4.62789e-05 -0.000922842
0.000121273 -0.000648982 1.07358e-05
-0.000648982 -0.000954823 -7.41249e-06
1.07358e-05 -7.41249e-06 -0.000944429
0.00127849 -0.000913887 -1.39808e-05
-0.000913887 -0.000281002 1.9937e-05
-1.39808e-05 1.9937e-05 -0.000371875
-0.00101732 -0.000718229 3.13332e-06
-0.000718229 -0.000920277 -3.26386e-06
3.13332e-06 -3.26386e-06 -0.00126444
0.00341914 -0.00046221 -2.84283e-05
-0.00046221 0.0021274 7.07091e-05
-2.84283e-05 7.07091e-05 0.00159824
0.000928103 -0.000214743 -2.57232e-06
-0.000214743 0.000551365 7.01321e-06
-2.57232e-06 7.01321e-06 0.000241379
0.00041585 0.000126623 -2.34535e-06
0.000126623 0.000124729 -1.5907e-05
-2.34535e-06 -1.5907e-05 -0.000121417
0.000724528 -5.44605e-05 -2.89014e-06
-5.44605e-05 0.000316949 9.13381e-06
-2.89014e-06 9.13381e-06 3.63041e-05
0.00184337 -0.000864865 -1.25732e-05
-0.000864865 -0.000198297 -3.15176e-06
-1.25732e-05 -3.15176e-06 -0.000240019
0.00075182 -4.79045e-05 1.17261e-06
-4.79045e-05 0.00037249 4.69367e-06
1.17261e-06 4.69367e-06 9.13001e-05
0.00223071 -0.000313154 2.64081e-06
-0.000313154 0.00135726 -2.00664e-06
2.64081e-06 -2.00664e-06 0.000952164
0.00135162 -0.000768758 9.42888e-06
-0.000768758 -1.67778e-05 2.24755e-06
9.42888e-06 2.24755e-06 -4.67225e-05
0.000518203 -0.000657378 -3.41192e-05
-0.000657378 0.000245399 8.68976e-06
-3.41192e-05 8.68976e-06 -0.000141535
0.00209657 -0.00151255 6.0545e-05
-0.00151255 8.35565e-06 -2.49214e-05
6.0545e-05 -2.49214e-05 -9.02261e-05
-0.000278973 -0.000509425 -5.54009e-06
-0.000509425 -0.00040043 2.31877e-05
-5.54009e-06 2.31877e-05 -0.000470481
-0.00157355 -7.23621e-05 2.24911e-05
-7.23621e-05 -0.000696581 -1.36385e-06
2.24911e-05 -1.36385e-06 -0.0011808
0.00059146 4.76141e-05 -4.31753e-06
4.76141e-05 0.000222051 3.01348e-06
-4.31753e-06 3.01348e-06 3.0435e-06
0.000482936 -4.88099e-05 5.38746e-06
-4.88099e-05 0.000326843 -4.7221e-06
5.38746e-06 -4.7221e-06 -2.1205e-08
0.00132544 0.00015304 -5.10393e-05
0.00015304 0.00193089 -1.98751e-05
-5.10393e-05 -1.98751e-05 -0.00224169
-0.00684791 0.000445934 -0.00039303
0.000445934 0.00665542 -2.03001e-05
-0.00039303 -2.03001e-05 0.00134677
-0.0134712 -0.00269221 -0.000771047
-0.00269221 -0.00517646 -6.69492e-06
-0.000771047 -6.69492e-06 -0.00621792
-0.000542303 0.000216806 1.16227e-05
0.000216806 -0.000428355 -4.46693e-06
1.16227e-05 -4.46693e-06 -0.00067594
-0.000826276 0.000503101 -2.67034e-06
0.000503101 -0.000564335 9.8755e-06
-2.67034e-06 9.8755e-06 -0.000989204
0.00237612 0.00104702 3.54024e-05
0.00104702 0.000632117 2.96534e-05
3.54024e-05 2.96534e-05 0.000457841
-0.00547002 0.00207056 8.86438e-05
0.00207056 0.0065448 5.99124e-05
8.86438e-05 5.99124e-05 0.00172967
0.0068495 0.00393759 -0.000319101
0.00393759 -2.46574e-05 -0.000180868
-0.000319101 -0.000180868 -0.00333528
0.00138579 0.00220821 0.000438166
0.00220821 0.000158467 0.000161371
0.000438166 0.000161371 4.34876e-05
-0.000124506 0.000943074 1.59575e-05
0.000943074 -5.96111e-05 -4.83722e-05
1.59575e-05 -4.83722e-05 -0.000356191
0.0276884 -0.00387578 -0.000148894
-0.00387578 0.00912986 -0.000391744
-0.000148894 -0.000391744 0.00537442
0.00656454 0.00174866 0.000592187
0.00174866 0.00327679 0.00021198
0.000592187 0.00021198 -0.00258683
0.0139483 -0.00180779 0.000176023
-0.00180779 0.00245157 3.41474e-05
0.000176023 3.41474e-05 0.00375561
0.0013026 0.000557623 3.59691e-06
0.000557623 0.000678158 -1.85812e-06
3.59691e-06 -1.85812e-06 0.00036015
0.00382756 0.000650727 -1.5191e-05
0.000650727 0.00327636 1.30399e-05
-1.5191e-05 1.30399e-05 -0.000470291
0.00175759 0.000807681 7.5003e-05
0.000807681 0.000123731 -1.38176e-06
7.5003e-05 -1.38176e-06 -0.00150999
-0.000466895 0.000504513 -2.10178e-06
0.000504513 -0.00012993 -5.48346e-06
-2.10178e-06 -5.48346e-06 -0.000471296
1.43749e-05 0.00134791 -0.000123894
0.00134791 0.000756631 -6.19046e-05
-0.000123894 -6.19046e-05 -0.000493853
0.00134829 0.00490595 0.000230752
0.00490595 0.000743752 0.000114576
0.000230752 0.000114576 -0.00370157
0.00995383 -0.000115049 -7.79578e-07
-0.000115049 -0.00347566 -0.000217253
-7.79578e-07 -0.000217253 -0.000695891
0.0062201 -0.00265759 -8.16796e-05
-0.00265759 0.00371959 -0.00017206
-8.16796e-05 -0.00017206 -0.00140119
0.00106462 0.000450605 -8.0413e-06
0.000450605 0.000841236 -1.51119e-05
-8.0413e-06 -1.51119e-05 0.000474615
-0.00316613 0.00027673 1.64826e-05
0.00027673 0.000102577 3.11152e-05
1.64826e-05 3.11152e-05 -0.000438835
0.0052894 -0.00025546 0.000130125
-0.00025546 -0.000202536 -0.000154672
0.000130125 -0.000154672 -0.0015016
0.00872244 0.000805739 0.000306036
0.000805739 -0.00187414 -1.98999e-05
0.000306036 -1.98999e-05 -0.00118881
-0.00269052 0.00014947 4.12754e-05
0.00014947 -0.000135953 -2.90852e-05
4.12754e-05 -2.90852e-05 -0.000981372
0.0128596 0.0036066 0.000344191
0.0036066 0.00626228 8.4768e-05
0.000344191 8.4768e-05 0.000831456
0.00278477 -0.000617476 2.7474e-05
-0.000617476 0.00300577 0.000401518
2.7474e-05 0.000401518 -0.000788515
0.00318469 0.000477788 2.65856e-05
0.000477788 0.00193109 1.15221e-05
2.65856e-05 1.15221e-05 0.00165984
0.000417113 0.000223211 -5.89255e-06
0.000223211 0.000442754 -1.53965e-06
-5.89255e-06 -1.53965e-06 7.89558e-05
0.000247349 0.000193484 4.53946e-06
0.000193484 0.000504078 -2.20845e-06
4.53946e-06 -2.20845e-06 4.27451e-05
0.000443063 0.000140613 1.26425e-06
0.000140613 7.64027e-05 -1.32799e-06
1.26425e-06 -1.32799e-06 -0.000120936
0.000550643 8.80997e-05 1.10039e-06
8.80997e-05 0.000189615 2.56261e-06
1.10039e-06 2.56261e-06 5.3988e-06
0.00011691 -9.15041e-06 6.90213e-06
-9.15041e-06 0.00032707 -4.1429e-06
6.90213e-06 -4.1429e-06 -8.74036e-05
0.000458992 3.26185e-05 5.01841e-08
3.26185e-05 0.000116184 -7.58784e-07
5.01841e-08 -7.58784e-07 -5.29555e-05
0.000773632 -4.05619e-05 -9.26607e-07
-4.05619e-05 0.00070302 -2.46965e-06
-9.26607e-07 -2.46965e-06 0.00030254
-3.20171e-06 3.44807e-05 -1.63804e-07
3.44807e-05 0.000394454 -1.31468e-06
-1.63804e-07 -1.31468e-06 -0.000106682
-0.000111554 -2.68555e-05 -4.34831e-06
-2.68555e-05 0.000297063 1.12801e-05
-4.34831e-06 1.12801e-05 -0.000132288
0.000301982 -3.08249e-05 -2.02162e-06
-3.08249e-05 0.000359067 -6.28566e-06
-2.02162e-06 -6.28566e-06 4.57528e-05
4.2124e-05 -6.18694e-05 4.71213e-06
-6.18694e-05 -0.000157283 9.58986e-06
4.71213e-06 9.58986e-06 -0.000301506
0.00110152 -5.72276e-05 -1.79185e-07
-5.72276e-05 0.000464077 3.29337e-06
-1.79185e-07 3.29337e-06 0.000312238
0.001364 -7.76131e-05 -1.64299e-05
-7.76131e-05 0.000648238 1.34322e-05
-1.64299e-05 1.34322e-05 0.00051928
0.000717589 -8.77772e-05 5.95153e-06
-8.77772e-05 0.000402047 -1.11176e-06
5.95153e-06 -1.11176e-06 0.000246561
0.000448927 -5.71343e-05 -1.2023e-06
-5.71343e-05 7.06744e-05 -1.12453e-06
-1.2023e-06 -1.12453e-06 -5.88834e-05
0.000595051 -0.000199682 -8.8344e-07
-0.000199682 0.000148542 4.08612e-06
-8.8344e-07 4.08612e-06 1.71647e-05
0.00023773 -0.000172742 -1.31475e-05
-0.000172742 -0.000144548 -9.82478e-07
-1.31475e-05 -9.82478e-07 -0.000194
-0.00092244 -0.000293621 1.17443e-05
-0.000293621 -0.000789926 2.09186e-05
1.17443e-05 2.09186e-05 -0.00108783
-7.59376e-06 -0.000159097 5.56082e-06
-0.000159097 -0.000273792 -2.31755e-07
5.56082e-06 -2.31755e-07 -0.000386591
0.00116367 -0.000296898 -3.97762e-06
-0.000296898 0.000376181 1.18827e-05
-3.97762e-06 1.18827e-05 0.000187287
0.00200921 -0.000581985 -6.33056e-06
-0.000581985 0.000819769 1.42988e-05
-6.33056e-06 1.42988e-05 0.00044127
0.00173354 -0.000565201 -6.72965e-06
-0.000565201 0.000541836 -8.18375e-07
-6.72965e-06 -8.18375e-07 0.000141869
0.00161601 -0.000394686 1.44186e-06
-0.000394686 0.000649483 1.63089e-06
1.44186e-06 1.63089e-06 0.000399722
0.000569557 -0.000367058 9.10977e-06
-0.000367058 -7.31896e-05 -4.12536e-06
9.10977e-06 -4.12536e-06 -0.000364003
0.0012459 -0.000181072 2.99903e-06
-0.000181072 0.000569092 -3.76859e-06
2.99903e-06 -3.76859e-06 0.000301008
0.00113748 -0.00022589 -8.54674e-06
-0.00022589 0.000452128 1.72763e-06
-8.54674e-06 1.72763e-06 0.0002414
-0.000216097 -0.000124824 1.44092e-05
-0.000124824 -0.000439486 -1.69478e-05
1.44092e-05 -1.69478e-05 -0.000541968
0.00123264 -0.000115456 -2.03588e-06
-0.000115456 0.000510473 2.35371e-06
-2.03588e-06 2.35371e-06 0.000329817
0.000274399 -8.63131e-05 8.14033e-07
-8.63131e-05 -2.79432e-05 -1.76678e-07
8.14033e-07 -1.76678e-07 -0.00024324
0.000364357 -5.56824e-05 1.5733e-06
-5.56824e-05 -4.77064e-05 7.92634e-07
1.5733e-06 7.92634e-07 -0.000196177
0.00155205 -0.000238959 -1.86e-06
-0.000238959 0.00076556 6.89793e-08
-1.86e-06 6.89793e-08 0.000559242
0.000663722 -0.000102656 -3.90763e-07
-0.000102656 0.000154272 -1.38297e-07
-3.90763e-07 -1.38297e-07 1.10918e-05
0.000402299 9.29164e-06 2.86084e-06
9.29164e-06 -2.54622e-05 4.62233e-06
2.86084e-06 4.62233e-06 -0.000125182
0.000797161 -0.000142191 -2.59644e-07
-0.000142191 0.000251468 -2.25361e-06
-2.59644e-07 -2.25361e-06 0.000107505
0.000477198 6.24164e-06 -2.16934e-06
6.24164e-06 1.96812e-05 -1.95167e-07
-2.16934e-06 -1.95167e-07 -7.20397e-05
0.00143291 6.40581e-06 -1.74621e-05
6.40581e-06 0.000585112 5.47205e-06
-1.74621e-05 5.47205e-06 0.000560166
0.000585564 -6.70208e-05 2.12514e-06
-6.70208e-05 8.57275e-05 -4.47864e-06
2.12514e-06 -4.47864e-06 -9.83013e-07
0.000880309 -9.40063e-06 -8.75326e-06
-9.40063e-06 0.0002373 5.44303e-07
-8.75326e-06 5.44303e-07 0.000211338
0.000836769 3.15124e-05 5.18714e-07
3.15124e-05 0.000198626 3.12697e-06
5.18714e-07 3.12697e-06 0.000197878
0.000446652 -2.57898e-05 2.66014e-06
-2.57898e-05 -3.25608e-05 -6.15179e-06
2.66014e-06 -6.15179e-06 -5.98608e-05
0.00173001 3.26463e-05 1.44805e-05
3.26463e-05 0.000768168 -1.23077e-06
1.44805e-05 -1.23077e-06 0.000774934
0.00254165 2.49476e-05 1.72902e-05
2.49476e-05 0.00128198 -5.48911e-06
1.72902e-05 -5.48911e-06 0.00129437
0.000315224 1.87515e-05 1.60128e-06
1.87515e-05 -5.93512e-05 2.06006e-06
1.60128e-06 2.06006e-06 -0.000193091
0.00014667 2.05364e-05 2.79366e-08
2.05364e-05 -0.000203427 -3.5913e-06
2.79366e-08 -3.5913e-06 -0.000267714
0.000620239 5.35597e-05 1.41013e-07
5.35597e-05 0.00012596 1.96567e-07
1.41013e-07 1.96567e-07 1.22461e-05
0.000462243 4.96146e-06 1.57593e-06
4.96146e-06 -3.72257e-05 -3.82916e-06
1.57593e-06 -3.82916e-06 -4.90004e-05
0.000323404 7.17598e-06 1.6206e-06
7.17598e-06 -9.39746e-05 4.16903e-08
1.6206e-06 4.16903e-08 -0.000148401
0.000238661 -9.36793e-05 -9.41322e-07
-9.36793e-05 -0.000111676 -7.5651e-07
-9.41322e-07 -7.5651e-07 -0.000213601
0.00206225 -4.36545e-06 -1.16694e-05
-4.36545e-06 0.000975718 -4.84711e-06
-1.16694e-05 -4.84711e-06 0.000993383
0.000457314 3.93731e-06 1.13185e-08
3.93731e-06 -3.91318e-05 -6.72119e-08
1.13185e-08 -6.72119e-08 -4.91353e-05
0.000429278 -1.47432e-05 -2.84516e-06
-1.47432e-05 -2.52957e-05 2.3091e-06
-2.84516e-06 2.3091e-06 -7.30655e-05
0.0020248 1.10289e-05 -4.71593e-06
1.10289e-05 0.000953389 7.52106e-09
-4.71593e-06 7.52106e-09 0.000970832
0.000450178 5.20851e-06 -1.45938e-06
5.20851e-06 -4.25788e-05 3.25715e-06
-1.45938e-06 3.25715e-06 -5.22526e-05
0.00199886 2.60951e-05 1.79749e-06
2.60951e-05 0.000938977 4.85453e-06
1.79749e-06 4.85453e-06 0.000955438
-0.00036759 -0.000850444 -0.000255399
-0.000850444 -0.000131924 9.9463e-05
-0.000255399 9.9463e-05 -0.00344063
0.00197603 0.000716691 -0.000123074
0.000716691 0.00787102 2.53981e-05
-0.000123074 2.53981e-05 0.00348391
0.00250783 2.83968e-05 -0.000923769
2.83968e-05 0.00393822 0.000194904
-0.000923769 0.000194904 0.00201781
0.000727825 0.000123443 5.58118e-06
0.000123443 0.000195941 6.89827e-06
5.58118e-06 6.89827e-06 3.81346e-05
0.00520092 -0.000968459 -0.000102859
-0.000968459 0.00327445 0.000249644
-0.000102859 0.000249644 0.00109089
0.00415405 -0.00132608 -0.000283171
-0.00132608 0.00174875 2.69761e-05
-0.000283171 2.69761e-05 -0.00295059
0.0119115 0.00368854 0.000345926
0.00368854 0.00810472 -0.000362168
0.000345926 -0.000362168 0.0035651
0.00738784 -0.00112455 0.00012732
-0.00112455 0.000736845 -2.25668e-05
0.00012732 -2.25668e-05 0.00111928
0.0131656 -0.00243422 0.000276323
-0.00243422 0.000954281 -0.000147178
0.000276323 -0.000147178 -3.91365e-05
0.00985318 0.00491224 -0.000697704
0.00491224 0.0010832 0.000429947
-0.000697704 0.000429947 -0.00277034
0.0141118 0.00439006 0.000127662
0.00439006 0.0053796 0.000237819
0.000127662 0.000237819 0.00256999
0.00759593 -0.00238341 -0.000120684
-0.00238341 0.000141714 -4.19435e-06
-0.000120684 -4.19435e-06 0.000710941
0.0171766 -0.00438476 3.18653e-05
-0.00438476 0.0038651 -3.5401e-05
3.18653e-05 -3.5401e-05 0.00135739
0.00878693 0.00289438 0.00014341
0.00289438 0.0034274 -0.000365301
0.00014341 -0.000365301 -0.00113577
0.0124731 0.00127367 9.98769e-06
0.00127367 -0.000162686 4.31247e-05
9.98769e-06 4.31247e-05 -0.000124804
0.00285251 -0.00249409 -6.65647e-05
-0.00249409 2.04468e-05 8.32053e-05
-6.65647e-05 8.32053e-05 5.53513e-05
0.0105597 -0.00455072 0.000169333
-0.00455072 0.00448949 -0.000110092
0.000169333 -0.000110092 0.000149896
0.0100303 -0.000294927 0.00012446
-0.000294927 0.00494277 -0.000464931
0.00012446 -0.000464931 0.00185741
0.0122938 0.000308011 -0.00014538
0.000308011 -0.00127964 0.00025985
-0.00014538 0.00025985 0.000793508
0.000355472 7.42811e-05 5.1557e-06
7.42811e-05 6.73429e-05 1.17011e-05
5.1557e-06 1.17011e-05 -0.000146868
0.000701769 -0.000132459 5.71531e-07
-0.000132459 0.000298388 -1.85976e-07
5.71531e-07 -1.85976e-07 5.24087e-05
0.000847239 0.000122404 2.07252e-06
0.000122404 0.000333389 -4.81561e-06
2.07252e-06 -4.81561e-06 0.000176783
0.000500196 0.000135612 2.7811e-06
0.000135612 3.44479e-05 1.23737e-05
2.7811e-06 1.23737e-05 -0.000109625
0.000826435 0.000193637 2.57507e-07
0.000193637 0.000302114 5.44256e-07
2.57507e-07 5.44256e-07 0.000105644
0.00107404 0.000108914 -4.33122e-06
0.000108914 0.000460217 -5.10877e-06
-4.33122e-06 -5.10877e-06 0.000298816
0.00104764 0.0001754 -1.52802e-06
0.0001754 0.000432528 -5.09798e-09
-1.52802e-06 -5.09798e-09 0.000252879
0.00106181 0.0001855 1.42807e-06
0.0001855 0.000465617 1.70899e-06
1.42807e-06 1.70899e-06 0.000282011
0.000671323 -0.000653715 0.000125198
-0.000653715 -0.000890638 -6.86685e-05
0.000125198 -6.86685e-05 -0.000724271
0.000355515 -0.000695908 -2.91066e-05
-0.000695908 -0.000650691 -2.41329e-06
-2.91066e-05 -2.41329e-06 -0.000596087
0.000947944 -0.000229196 3.75413e-06
-0.000229196 0.000474004 -2.9308e-05
3.75413e-06 -2.9308e-05 0.000176606
0.00179301 -0.000705241 1.96572e-05
-0.000705241 0.000913771 -2.36571e-05
1.96572e-05 -2.36571e-05 0.000568125
0.00246582 -0.000481109 -2.17895e-05
-0.000481109 0.00143896 2.20526e-05
-2.17895e-05 2.20526e-05 0.00104054
0.00163895 -0.000166188 5.3398e-06
-0.000166188 0.000907888 -2.2479e-05
5.3398e-06 -2.2479e-05 0.000609832
4.95465e-05 -8.74638e-06 3.42423e-06
-8.74638e-06 -0.000120363 7.47388e-06
3.42423e-06 7.47388e-06 -0.000333393
0.000548029 -0.00124865 -9.15351e-06
-0.00124865 -0.000635309 -4.9614e-06
-9.15351e-06 -4.9614e-06 -0.000730914
0.00133908 -2.28449e-05 -6.75194e-07
-2.28449e-05 0.000853098 -5.6697e-07
-6.75194e-07 -5.6697e-07 0.000518779
0.000255324 -0.000238545 -2.83344e-06
-0.000238545 0.000288202 5.49462e-06
-2.83344e-06 5.49462e-06 -0.000151526
-0.00036978 -0.000406746 2.34407e-05
-0.000406746 -0.000486322 2.31093e-07
2.34407e-05 2.31093e-07 -0.000463811
0.000870069 0.000115569 2.3692e-06
0.000115569 0.000397379 4.78124e-06
2.3692e-06 4.78124e-06 0.000199708
3.45485e-05 -0.00115113 -5.94962e-05
-0.00115113 -0.000296808 -2.36681e-05
-5.94962e-05 -2.36681e-05 -0.000575093
-0.000970201 -0.000428179 -1.91779e-05
-0.000428179 -0.000493704 2.94932e-05
-1.91779e-05 2.94932e-05 -0.000787423
0.000106165 0.000144012 1.76631e-05
0.000144012 0.000412756 -2.48428e-05
1.76631e-05 -2.48428e-05 -0.000107976
0.00171457 0.000278359 -1.91537e-06
0.000278359 0.00111168 -3.66456e-07
-1.91537e-06 -3.66456e-07 0.000802669
-0.00119715 0.000110337 0.00012633
0.000110337 0.00165192 2.63513e-05
0.00012633 2.63513e-05 0.00065501
0.000391021 -1.13012e-05 0.000163508
-1.13012e-05 0.00125579 -3.45232e-05
0.000163508 -3.45232e-05 -0.00295333
-0.0118355 -0.000370648 -0.000284881
-0.000370648 0.00615605 2.77343e-05
-0.000284881 2.77343e-05 0.00049503
0.00174413 0.000588125 2.03682e-05
0.000588125 0.00101922 4.15009e-06
2.03682e-05 4.15009e-06 0.000693277
-0.000692622 0.00070869 1.27708e-05
0.00070869 -0.000284259 1.04756e-05
1.27708e-05 1.04756e-05 -0.000746677
0.0055811 0.000871687 0.000337861
0.000871687 0.00385532 6.77572e-05
0.000337861 6.77572e-05 0.00125486
0.00913615 0.00391444 0.000259916
0.00391444 0.00321658 0.000204961
0.000259916 0.000204961 -0.000915858
0.00454018 0.00260453 -0.000104064
0.00260453 0.00253876 -0.000103055
-0.000104064 -0.000103055 0.00111315
0.00451145 -0.00228235 -0.000179338
-0.00228235 0.00431818 -0.000463735
-0.000179338 -0.000463735 0.000340471
0.00284605 0.000662999 0.000139465
0.000662999 0.000400098 0.000183277
0.000139465 0.000183277 -0.00121977
0.00784029 -0.000264047 -5.48623e-05
-0.000264047 -0.0054345 -0.00024432
-5.48623e-05 -0.00024432 -0.00223394
0.00099617 0.000523063 5.75156e-06
0.000523063 0.000761772 1.55079e-06
5.75156e-06 1.55079e-06 0.000363205
-0.002646 0.00012822 -2.8063e-06
0.00012822 0.000182192 3.11179e-06
-2.8063e-06 3.11179e-06 -0.00049729
0.00459901 -0.00013369 0.000119418
-0.00013369 -0.000244701 2.16954e-05
0.000119418 2.16954e-05 -0.000912934
-0.00177903 0.000453257 -1.43719e-05
0.000453257 -0.00024269 -1.13797e-05
-1.43719e-05 -1.13797e-05 -0.000996252
0.0121776 0.00141199 -3.39372e-06
0.00141199 -0.00013854 -4.59695e-05
-3.39372e-06 -4.59695e-05 -0.000143481
0.00281495 0.00201414 0.000232743
0.00201414 0.00399149 0.000142024
0.000232743 0.000142024 -0.00179288
0.00747076 0.000684569 -0.000177629
0.000684569 0.00325334 5.52388e-06
-0.000177629 5.52388e-06 -0.000570122
0.000339454 0.000447937 7.07029e-06
0.000447937 0.000541867 -2.40281e-05
7.07029e-06 -2.40281e-05 -1.39204e-06
0.001584 -2.15408e-05 2.59932e-06
-2.15408e-05 0.000366828 -1.33048e-05
2.59932e-06 -1.33048e-05 -0.000127912
0.00397305 -0.00125682 8.64694e-05
-0.00125682 0.00325949 -0.000246434
8.64694e-05 -0.000246434 0.00133884
0.0207989 0.00500887 0.000317063
0.00500887 0.00646159 -0.000291133
0.000317063 -0.000291133 0.00397343
0.009234 -0.000166167 -0.000113621
-0.000166167 0.00507778 0.000476313
-0.000113621 0.000476313 0.00169404
9.10504e-05 0.000438567 -2.4999e-05
0.000438567 0.000737522 -0.000136362
-2.4999e-05 -0.000136362 2.64922e-05
0.00448054 0.00142839 0.000269058
0.00142839 0.00630664 2.6226e-05
0.000269058 2.6226e-05 -0.0021098
0.0012397 0.000348173 8.55069e-06
0.000348173 0.000914899 1.13389e-05
8.55069e-06 1.13389e-05 0.000533931
0.000633564 0.000255422 4.08814e-06
0.000255422 0.000728204 2.62172e-06
4.08814e-06 2.62172e-06 0.000285267
0.00050138 -3.43334e-05 -1.57736e-05
-3.43334e-05 0.00080197 3.83636e-06
-1.57736e-05 3.83636e-06 0.00041499
-0.000611597 -3.28436e-05 1.72253e-06
-3.28436e-05 -0.000563087 2.18683e-06
1.72253e-06 2.18683e-06 -0.000715219
0.000255346 -2.0033e-05 4.87747e-06
-2.0033e-05 0.000421529 -5.04026e-07
4.87747e-06 -5.04026e-07 -5.22325e-06
3.5313e-06 4.88332e-05 3.925e-06
4.88332e-05 0.000413035 -5.60366e-06
3.925e-06 -5.60366e-06 -9.38913e-05
0.000159502 -3.02186e-05 3.02052e-07
-3.02186e-05 0.000214371 7.16611e-07
3.02052e-07 7.16611e-07 -4.60693e-05
-4.50135e-05 -4.37504e-05 3.70604e-06
-4.37504e-05 0.000322664 9.72266e-07
3.70604e-06 9.72266e-07 -0.000105263
0.00161935 -0.000388763 4.77283e-06
-0.000388763 0.00108148 -1.07429e-05
4.77283e-06 -1.07429e-05 0.00074458
0.000827913 -9.48557e-05 -6.36923e-06
-9.48557e-05 0.000450509 6.04335e-06
-6.36923e-06 6.04335e-06 0.000304671
0.000197024 -5.37643e-06 -6.53519e-07
-5.37643e-06 -8.14823e-05 1.61805e-06
-6.53519e-07 1.61805e-06 -0.000209515
0.00132936 -0.000289017 7.79969e-07
-0.000289017 0.000595169 5.60824e-06
7.79969e-07 5.60824e-06 0.000426236
-0.00319145 -9.25839e-05 1.88799e-05
-9.25839e-05 -0.00193339 2.18782e-05
1.88799e-05 2.18782e-05 -0.00226704
-0.000433198 -0.00010531 1.27322e-05
-0.00010531 -0.000461533 -1.71586e-06
1.27322e-05 -1.71586e-06 -0.000475792
-8.92467e-05 -0.000344501 -1.02666e-06
-0.000344501 -0.000337346 -5.4865e-06
-1.02666e-06 -5.4865e-06 -0.000598306
0.00131942 -0.000559767 -8.95482e-07
-0.000559767 0.000363958 -3.79688e-07
-8.95482e-07 -3.79688e-07 -0.000110338
0.00171832 -0.000670071 -8.43722e-06
-0.000670071 0.000488055 5.19947e-07
-8.43722e-06 5.19947e-07 3.27956e-05
0.00166659 -0.00036712 5.75709e-06
-0.00036712 0.000668706 -3.89136e-06
5.75709e-06 -3.89136e-06 0.000456952
0.00129054 -0.000497965 6.7119e-07
-0.000497965 0.000368757 5.63687e-07
6.7119e-07 5.63687e-07 -1.31975e-06
0.00163436 -0.000570235 3.8803e-06
-0.000570235 0.000447038 -4.05225e-06
3.8803e-06 -4.05225e-06 5.47012e-05
0.00129876 -0.000413092 -2.38192e-06
-0.000413092 0.000342628 8.13918e-06
-2.38192e-06 8.13918e-06 3.63088e-05
0.00108665 -0.000482653 2.2413e-06
-0.000482653 0.000153936 -4.57017e-06
2.2413e-06 -4.57017e-06 -0.00021959
0.000719116 -0.000176857 8.08481e-07
-0.000176857 0.000187327 -5.95259e-06
8.08481e-07 -5.95259e-06 -7.16658e-05
0.00111952 -0.000361058 -5.70286e-06
-0.000361058 0.000352232 3.14311e-06
-5.70286e-06 3.14311e-06 9.22732e-05
-0.000974518 -0.000164795 6.79802e-07
-0.000164795 -0.00101794 -9.89125e-06
6.79802e-07 -9.89125e-06 -0.00124985
-1.03558e-05 -5.81008e-05 8.95923e-07
-5.81008e-05 -0.000251763 -2.61715e-06
8.95923e-07 -2.61715e-06 -0.000452346
0.00032984 -0.000141818 2.49349e-07
-0.000141818 2.72055e-05 2.68975e-07
2.49349e-07 2.68975e-07 -0.000239081
0.000318151 -0.000191923 1.19516e-05
-0.000191923 -3.57579e-06 3.6292e-07
1.19516e-05 3.6292e-07 -0.000228335
0.000628833 -0.000132131 -1.43451e-08
-0.000132131 0.000184787 2.29914e-06
-1.43451e-08 2.29914e-06 -2.67392e-05
0.000710222 -0.000120766 9.95607e-08
-0.000120766 0.000184505 3.65854e-07
9.95607e-08 3.65854e-07 1.89687e-05
0.000549017 -8.4223e-06 1.71826e-06
-8.4223e-06 5.62503e-05 6.3208e-06
1.71826e-06 6.3208e-06 -5.25235e-05
0.0010471 -0.000153825 -1.7428e-06
-0.000153825 0.000412189 -1.14783e-06
-1.7428e-06 -1.14783e-06 0.000252314
0.000581874 -1.2866e-05 -1.21429e-06
-1.2866e-05 7.52236e-05 -3.39405e-07
-1.21429e-06 -3.39405e-07 -1.88718e-05
0.000393151 4.83105e-05 2.57239e-06
4.83105e-05 -6.14471e-05 7.3121e-06
2.57239e-06 7.3121e-06 -9.93701e-05
0.000696104 -6.80896e-05 1.24332e-06
-6.80896e-05 0.000148344 -3.805e-06
1.24332e-06 -3.805e-06 5.93713e-05
0.000448097 8.1455e-07 -1.4286e-06
8.1455e-07 -3.80336e-05 -4.8142e-08
-1.4286e-06 -4.8142e-08 -6.90664e-05
0.00262935 9.18383e-05 -1.92307e-06
9.18383e-05 0.00133954 2.66551e-06
-1.92307e-06 2.66551e-06 0.00134377
0.000470073 -1.7396e-05 2.70524e-06
-1.7396e-05 -2.26892e-05 -6.29499e-06
2.70524e-06 -6.29499e-06 -5.18432e-05
0.00176513 4.6185e-05 1.74999e-05
4.6185e-05 0.000789642 -1.0432e-06
1.74999e-05 -1.0432e-06 0.0007944
0.00262322 4.09952e-05 2.42671e-05
4.09952e-05 0.0013322 -5.68471e-06
2.42671e-05 -5.68471e-06 0.00134357
0.000263084 2.31772e-05 1.89271e-06
2.31772e-05 -0.00011073 1.52723e-06
1.89271e-06 1.52723e-06 -0.000232825
0.000216037 1.06931e-05 1.58457e-06
1.06931e-05 -0.00016143 -2.52138e-06
1.58457e-06 -2.52138e-06 -0.000236812
0.000457829 3.73913e-05 -5.7776e-07
3.73913e-05 2.48621e-05 -1.2605e-06
-5.7776e-07 -1.2605e-06 -0.000101899
0.000484992 5.5439e-06 1.55349e-06
5.5439e-06 -2.35367e-05 -4.29326e-06
1.55349e-06 -4.29326e-06 -3.82118e-05
0.000189479 1.71557e-05 -6.22083e-07
1.71557e-05 -0.000177261 -1.75553e-06
-6.22083e-07 -1.75553e-06 -0.000243625
0.000666093 5.78086e-05 -7.92699e-08
5.78086e-05 0.000167816 1.23113e-06
-7.92699e-08 1.23113e-06 4.49543e-05
0.00208427 -1.78841e-05 -1.69786e-05
-1.78841e-05 0.000988326 -4.75097e-06
-1.69786e-05 -4.75097e-06 0.00100583
0.000464996 2.85782e-06 -6.86558e-07
2.85782e-06 -3.59829e-05 -7.12794e-08
-6.86558e-07 -7.12794e-08 -4.74148e-05
0.000106375 1.64105e-05 1.51324e-06
1.64105e-05 -0.000227503 1.77233e-06
1.51324e-06 1.77233e-06 -0.000285782
0.00204807 -3.18615e-06 -4.09244e-06
-3.18615e-06 0.000966641 5.01314e-08
-4.09244e-06 5.01314e-08 0.000984418
0.000447079 3.41882e-06 -1.71173e-06
3.41882e-06 -4.62069e-05 3.49037e-06
-1.71173e-06 3.49037e-06 -5.58517e-05
0.00207246 1.2597e-05 7.38845e-06
1.2597e-05 0.000983989 4.92182e-06
7.38845e-06 4.92182e-06 0.00100099
0.000465907 -4.69297e-05 0.000141674
-4.69297e-05 0.0023659 5.91741e-05
0.000141674 5.91741e-05 0.00162918
-0.000294348 -0.000406861 -5.45995e-05
-0.000406861 0.000415064 -9.57187e-06
-5.45995e-05 -9.57187e-06 -0.00354913
0.000193879 0.000701814 -5.16253e-05
0.000701814 0.00750245 -5.00363e-05
-5.16253e-05 -5.00363e-05 0.00294243
0.000771989 0.000135248 7.1739e-07
0.000135248 0.000211228 1.80039e-07
7.1739e-07 1.80039e-07 6.51366e-05
0.000199979 8.82192e-05 6.15952e-06
8.82192e-05 -0.000156638 4.92945e-06
6.15952e-06 4.92945e-06 -0.000290071
0.00110326 0.000198385 9.89074e-06
0.000198385 0.000421032 8.78952e-06
9.89074e-06 8.78952e-06 0.00027202
0.00624251 -0.00042164 -0.000110144
-0.00042164 -0.000373822 0.00022442
-0.000110144 0.00022442 -0.00149808
0.00515693 -0.00116214 0.000100172
-0.00116214 0.00293705 8.6123e-06
0.000100172 8.6123e-06 0.00142659
0.00463116 -0.00190107 0.000208249
-0.00190107 0.00193578 -0.000266366
0.000208249 -0.000266366 -0.00282843
0.00883189 -0.00285963 -7.97534e-06
-0.00285963 0.000140603 -3.46929e-05
-7.97534e-06 -3.46929e-05 0.000899061
0.00121474 -0.00348129 -0.000440817
-0.00348129 -0.00208858 9.38798e-05
-0.000440817 9.38798e-05 -0.00462368
0.0264664 0.00441875 0.000259897
0.00441875 0.0110563 0.000181417
0.000259897 0.000181417 0.00591065
0.00744605 -0.000210269 0.000312742
-0.000210269 -0.00261292 -0.000246102
0.000312742 -0.000246102 -0.00291586
0.00415219 -0.00288675 -2.94995e-05
-0.00288675 -0.00010249 1.77099e-05
-2.94995e-05 1.77099e-05 0.000403896
0.00734808 -0.00448448 -0.000127744
-0.00448448 0.00271156 2.05193e-05
-0.000127744 2.05193e-05 -0.00208786
-0.00163008 0.00384889 -9.19533e-05
0.00384889 0.00415116 -0.000320125
-9.19533e-05 -0.000320125 -0.00093268
0.0103039 3.0183e-05 -8.3937e-05
3.0183e-05 -0.00347595 0.000148669
-8.3937e-05 0.000148669 -0.000681854
0.00173134 -0.00210605 -0.000106937
-0.00210605 0.00118649 4.5623e-05
-0.000106937 4.5623e-05 0.000726337
0.0108993 -0.00323432 -0.000313355
-0.00323432 0.0059188 0.000184599
-0.000313355 0.000184599 0.000744927
0.000253053 -0.0001518 5.80781e-05
-0.0001518 0.00257712 -0.000340505
5.80781e-05 -0.000340505 -0.00133573
0.00919902 -0.000764422 0.000127128
-0.000764422 -0.00195032 7.12291e-05
0.000127128 7.12291e-05 -0.00122918
0.000204863 0.00010049 9.17548e-06
0.00010049 -9.63668e-05 2.14737e-05
9.17548e-06 2.14737e-05 -0.000240419
0.00067644 -1.66529e-06 2.47018e-06
-1.66529e-06 0.000245145 -2.98929e-06
2.47018e-06 -2.98929e-06 2.12713e-05
0.000361081 -0.000164912 2.38802e-06
-0.000164912 7.33971e-06 -1.12489e-05
2.38802e-06 -1.12489e-05 -0.000200038
0.000648026 0.000138422 -1.93218e-06
0.000138422 0.00013119 1.63428e-06
-1.93218e-06 1.63428e-06 -2.03906e-05
0.000762771 0.000146204 2.14724e-06
0.000146204 0.000265643 -6.49342e-06
2.14724e-06 -6.49342e-06 8.0223e-05
0.00116463 0.000199081 -4.28252e-06
0.000199081 0.000508173 -5.26009e-06
-4.28252e-06 -5.26009e-06 0.000326965
-0.000278548 -0.00107907 3.61698e-05
-0.00107907 -0.00097571 -1.64684e-05
3.61698e-05 -1.64684e-05 -0.0010553
0.000965495 -0.000385199 2.22786e-05
-0.000385199 0.000253791 -2.3287e-05
2.22786e-05 -2.3287e-05 0.000299732
7.10993e-05 8.20405e-05 -1.85327e-06
8.20405e-05 -9.7575e-05 -1.75426e-05
-1.85327e-06 -1.75426e-05 -0.000325192
0.00238534 -0.000482438 6.17922e-05
-0.000482438 0.00144625 -2.65911e-05
6.17922e-05 -2.65911e-05 0.00104785
0.00177437 -0.000139274 -7.41982e-07
-0.000139274 0.00106591 3.13161e-06
-7.41982e-07 3.13161e-06 0.00076254
-0.000139431 9.67013e-05 4.05545e-06
9.67013e-05 -0.000160622 4.19686e-06
4.05545e-06 4.19686e-06 -0.000381964
0.000540031 0.000106805 8.1173e-07
0.000106805 0.000370129 -7.35361e-07
8.1173e-07 -7.35361e-07 0.000106264
0.000626273 -0.00124793 -3.69438e-05
-0.00124793 -4.73745e-05 1.43896e-06
-3.69438e-05 1.43896e-06 -0.000424992
0.000230521 -3.89823e-05 -5.8024e-06
-3.89823e-05 0.000522733 4.06239e-06
-5.8024e-06 4.06239e-06 -1.11234e-05
0.00107206 -0.000374404 -4.55492e-06
-0.000374404 0.00070371 -8.1176e-06
-4.55492e-06 -8.1176e-06 0.000323029
0.000581117 0.000161841 3.74544e-06
0.000161841 0.000378758 -1.25472e-05
3.74544e-06 -1.25472e-05 0.000136791
-0.00193396 -0.000298453 -5.25714e-05
-0.000298453 -0.000103113 -1.60367e-05
-5.25714e-05 -1.60367e-05 -0.00102284
0.000807753 -0.000231181 -3.09626e-05
-0.000231181 0.000928919 6.34393e-06
-3.09626e-05 6.34393e-06 0.00050381
-0.00067489 4.22408e-05 -1.29916e-05
4.22408e-05 0.000105514 4.95108e-06
-1.29916e-05 4.95108e-06 -0.000389257
-0.000196651 0.000214553 -1.17469e-05
0.000214553 -0.000601431 3.11694e-06
-1.17469e-05 3.11694e-06 -0.00187775
-0.00186388 0.000223479 6.25605e-05
0.000223479 0.00137999 -1.27242e-05
6.25605e-05 -1.27242e-05 0.000366928
-0.000475321 -0.000155023 0.000344519
-0.000155023 0.000636311 2.99879e-05
0.000344519 2.99879e-05 -0.00356668
0.000149979 0.00050054 3.4872e-06
0.00050054 0.000250665 1.72515e-05
3.4872e-06 1.72515e-05 -0.000172408
0.000294584 0.00082133 -2.24184e-05
0.00082133 0.000429034 -1.03764e-05
-2.24184e-05 -1.03764e-05 -0.000238755
-0.00239494 8.0372e-05 -4.64479e-05
8.0372e-05 0.000253574 -2.36447e-05
-4.64479e-05 -2.36447e-05 -0.000567748
-0.00484211 0.000715258 6.85344e-05
0.000715258 0.00263523 0.000194466
6.85344e-05 0.000194466 -0.00285496
-0.00023579 0.00115361 -0.000183914
0.00115361 -0.00155109 -0.000486128
-0.000183914 -0.000486128 -0.00626689
0.00382774 -6.56374e-06 8.91759e-05
-6.56374e-06 -0.000343776 9.222e-05
8.91759e-05 9.222e-05 -0.00046954
0.00688535 -2.78535e-05 -0.000309387
-2.78535e-05 -0.0024442 0.000246482
-0.000309387 0.000246482 -0.00294849
0.000193519 0.000365098 -6.24493e-07
0.000365098 0.000503365 -6.31628e-07
-6.24493e-07 -6.31628e-07 3.24149e-05
0.00107946 2.27383e-05 3.33335e-05
2.27383e-05 0.000289285 -1.16015e-05
3.33335e-05 -1.16015e-05 -0.00018456
0.00430177 -0.000901933 -9.64741e-05
-0.000901933 0.00291308 -9.72414e-08
-9.64741e-05 -9.72414e-08 0.0013552
-0.000496322 0.000693046 -0.000139898
0.000693046 0.00113856 -6.84461e-06
-0.000139898 -6.84461e-06 -0.000317635
0.0150328 0.00508435 -8.56202e-07
0.00508435 0.00354191 -0.000412504
-8.56202e-07 -0.000412504 0.000903023
0.000486671 0.00322913 8.46309e-05
0.00322913 0.00456212 0.000332342
8.46309e-05 0.000332342 -0.000677819
0.00510458 0.000739001 6.35268e-05
0.000739001 0.0058474 -2.09927e-05
6.35268e-05 -2.09927e-05 -0.00151732
0.000564247 -1.51002e-05 4.09564e-05
-1.51002e-05 0.00142089 -2.67769e-05
4.09564e-05 -2.67769e-05 0.000355459
1.44567e-05 -0.000146881 -0.000126727
-0.000146881 0.002488 3.58609e-06
-0.000126727 3.58609e-06 0.00157258
0.00190463 -0.000928272 0.000728693
-0.000928272 0.000662327 -0.000261834
0.000728693 -0.000261834 -0.00430146
0.0197491 0.00753652 -7.69835e-05
0.00753652 0.0133772 -6.77887e-06
-7.69835e-05 -6.77887e-06 0.00973783
0.00700796 0.00384527 -0.000109902
0.00384527 0.00206219 0.000825329
-0.000109902 0.000825329 -0.00230258
0.01193 -0.00353412 0.000292353
-0.00353412 0.00611635 -0.000239616
0.000292353 -0.000239616 0.00024656
0.00357124 -0.00078018 -6.81487e-05
-0.00078018 0.00329198 3.56174e-05
-6.81487e-05 3.56174e-05 0.00234783
0.000724003 0.000238234 -4.97245e-06
0.000238234 0.000797204 2.658e-06
-4.97245e-06 2.658e-06 0.000362435
-1.66314e-05 -5.80291e-05 -7.0923e-06
-5.80291e-05 0.000432733 -3.6181e-06
-7.0923e-06 -3.6181e-06 9.05091e-06
0.001259 -0.000526349 4.19888e-05
-0.000526349 0.000943662 -1.30746e-05
4.19888e-05 -1.30746e-05 0.000419736
0.000345526 -7.77269e-05 -1.33609e-06
-7.77269e-05 0.000280384 4.44182e-06
-1.33609e-06 4.44182e-06 6.45294e-05
-5.52554e-05 -5.90886e-05 -4.0829e-07
-5.90886e-05 0.000283828 -1.40138e-05
-4.0829e-07 -1.40138e-05 -0.000120484
0.000518748 -0.000307141 -4.47387e-06
-0.000307141 0.000561035 3.82155e-07
-4.47387e-06 3.82155e-07 0.000208672
0.00102149 -0.000612212 2.13955e-05
-0.000612212 0.000410163 -1.79234e-05
2.13955e-05 -1.79234e-05 0.000114571
0.00215776 -0.000385518 -2.21699e-07
-0.000385518 0.00111997 4.78849e-07
-2.21699e-07 4.78849e-07 0.000897906
0.00161998 -0.000640075 1.50603e-05
-0.000640075 0.000720752 -2.80011e-06
1.50603e-05 -2.80011e-06 0.000317011
0.00103592 -0.000569871 7.96919e-06
-0.000569871 0.000383085 1.60024e-06
7.96919e-06 1.60024e-06 -0.000255764
0.000648518 -0.000359237 -5.89108e-06
-0.000359237 6.83742e-05 -6.33374e-06
-5.89108e-06 -6.33374e-06 -0.000141921
0.00203854 -0.000646949 -2.83045e-06
-0.000646949 0.000745767 -1.4287e-06
-2.83045e-06 -1.4287e-06 0.000269435
0.00206 -0.000795533 -9.14504e-06
-0.000795533 0.00065042 -7.48826e-07
-9.14504e-06 -7.48826e-07 7.50411e-05
0.00196976 -0.000856184 -1.24499e-05
-0.000856184 0.000447473 2.19325e-06
-1.24499e-05 2.19325e-06 -5.8641e-05
0.00182777 -0.000724719 -3.55691e-06
-0.000724719 0.000522996 -2.67106e-08
-3.55691e-06 -2.67106e-08 6.81239e-05
0.00167595 -0.000667198 -4.57281e-06
-0.000667198 0.00045237 1.10765e-06
-4.57281e-06 1.10765e-06 -5.00702e-06
0.00124235 -0.000497769 -3.07957e-08
-0.000497769 0.000313084 -6.02939e-06
-3.07957e-08 -6.02939e-06 -6.65278e-05
0.00147451 -0.000516068 8.90862e-06
-0.000516068 0.00042379 -2.22725e-06
8.90862e-06 -2.22725e-06 6.06967e-05
0.00159519 -0.000573777 6.15848e-06
-0.000573777 0.000426055 -1.89387e-06
6.15848e-06 -1.89387e-06 3.31905e-05
0.00086443 -0.000255823 1.16559e-06
-0.000255823 0.000153869 -5.92811e-07
1.16559e-06 -5.92811e-07 -9.52229e-05
0.00107634 -0.00039925 5.10477e-06
-0.00039925 0.000209309 -4.3832e-06
5.10477e-06 -4.3832e-06 -9.37916e-05
0.00034917 -0.000391163 -1.47892e-06
-0.000391163 -0.00029236 -8.47125e-06
-1.47892e-06 -8.47125e-06 -0.000638211
3.62378e-05 -6.80402e-05 3.1243e-07
-6.80402e-05 -0.000201806 -3.18276e-06
3.1243e-07 -3.18276e-06 -0.000456267
0.00104556 -0.000227004 -3.07235e-07
-0.000227004 0.000403851 6.15765e-07
-3.07235e-07 6.15765e-07 0.000136835
0.000458663 -0.000305492 -3.8786e-06
-0.000305492 -4.9561e-05 -1.70564e-06
-3.8786e-06 -1.70564e-06 -0.000313632
0.000595199 -4.98206e-05 5.85218e-08
-4.98206e-05 7.96643e-05 7.36954e-06
5.85218e-08 7.36954e-06 -4.62232e-05
0.0007717 -0.000115681 -4.02705e-07
-0.000115681 0.000230831 -5.65067e-08
-4.02705e-07 -5.65067e-08 2.647e-05
-1.96632e-05 -0.000108842 8.92922e-08
-0.000108842 -0.00018476 4.65182e-06
8.92922e-08 4.65182e-06 -0.00043807
0.0011498 -0.000146284 4.39434e-08
-0.000146284 0.000470539 -6.66258e-07
4.39434e-08 -6.66258e-07 0.000293156
0.000609633 -5.31062e-05 -3.06107e-07
-5.31062e-05 9.25138e-05 -3.45795e-07
-3.06107e-07 -3.45795e-07 -1.86405e-05
0.000343073 2.33955e-05 2.06665e-06
2.33955e-05 -8.7745e-05 9.57574e-06
2.06665e-06 9.57574e-06 -0.000131985
0.000671269 -5.99491e-05 6.77392e-08
-5.99491e-05 0.000128771 -4.78297e-06
6.77392e-08 -4.78297e-06 3.30969e-05
0.000472109 1.34883e-05 -3.02798e-06
1.34883e-05 -1.79806e-05 -2.71051e-07
-3.02798e-06 -2.71051e-07 -5.32451e-05
0.00280099 9.80532e-05 -3.87866e-05
9.80532e-05 0.00145482 4.77688e-06
-3.87866e-05 4.77688e-06 0.0014588
0.000493603 -8.95251e-06 2.59004e-06
-8.95251e-06 -1.19442e-05 -6.45581e-06
2.59004e-06 -6.45581e-06 -4.21615e-05
0.00177479 6.31239e-05 2.05692e-05
6.31239e-05 0.000798058 -7.19122e-07
2.05692e-05 -7.19122e-07 0.000800255
0.0027075 6.03944e-05 2.995e-05
6.03944e-05 0.00138628 -5.33742e-06
2.995e-05 -5.33742e-06 0.00139577
0.000807271 0.000103496 4.94724e-06
0.000103496 0.000243197 9.93863e-07
4.94724e-06 9.93863e-07 0.000103172
0.000510647 4.85725e-05 2.33322e-06
4.85725e-05 2.51301e-05 -2.00973e-06
2.33322e-06 -2.00973e-06 -5.64553e-05
0.000456657 5.01481e-05 -8.28684e-07
5.01481e-05 2.60378e-05 -1.35151e-06
-8.28684e-07 -1.35151e-06 -0.000107947
0.000479565 6.10084e-06 1.02422e-06
6.10084e-06 -2.70555e-05 -5.23912e-06
1.02422e-06 -5.23912e-06 -4.63421e-05
0.00032113 3.97473e-05 -2.32733e-06
3.97473e-05 -9.38155e-05 -1.86519e-06
-2.32733e-06 -1.86519e-06 -0.000168678
0.000659137 8.01554e-05 -1.28558e-06
8.01554e-05 0.000155642 -3.32131e-06
-1.28558e-06 -3.32131e-06 2.80166e-05
0.00217465 -3.33472e-05 -2.07735e-05
-3.33472e-05 0.00104537 -4.82137e-06
-2.07735e-05 -4.82137e-06 0.00106159
0.00045916 -1.99658e-06 9.49591e-08
-1.99658e-06 -4.08061e-05 -1.36297e-07
9.49591e-08 -1.36297e-07 -5.48947e-05
0.00012447 1.49978e-05 -1.63236e-06
1.49978e-05 -0.000218732 1.91824e-07
-1.63236e-06 1.91824e-07 -0.000286267
0.00212164 -1.72929e-05 -5.5142e-06
-1.72929e-05 0.00101214 1.28396e-07
-5.5142e-06 1.28396e-07 0.00102952
0.000457281 -5.91689e-07 -2.64097e-06
-5.91689e-07 -4.12365e-05 3.63545e-06
-2.64097e-06 3.63545e-06 -5.23791e-05
0.0020837 -1.7149e-06 1.22999e-05
-1.7149e-06 0.000989211 4.91104e-06
1.22999e-05 4.91104e-06 0.00100682
0.00153617 -0.000264848 -6.60743e-05
-0.000264848 0.000238561 3.43997e-05
-6.60743e-05 3.43997e-05 -0.000276803
-0.000787974 -0.000207252 6.96899e-05
-0.000207252 0.00198804 -3.89265e-06
6.96899e-05 -3.89265e-06 0.00104568
-0.000910531 -0.000382327 0.000158297
-0.000382327 0.000699697 -0.000156664
0.000158297 -0.000156664 -0.00375284
0.000127558 5.02815e-05 3.5467e-06
5.02815e-05 -0.000185858 6.673e-06
3.5467e-06 6.673e-06 -0.000335072
0.00241114 0.000104141 2.52179e-06
0.000104141 0.00123893 4.73017e-06
2.52179e-06 4.73017e-06 0.00105857
0.000754263 0.000153243 -3.72766e-06
0.000153243 0.000207825 -5.77119e-06
-3.72766e-06 -5.77119e-06 6.29421e-05
0.000338667 7.72099e-05 9.20715e-07
7.72099e-05 -8.03799e-05 1.0489e-06
9.20715e-07 1.0489e-06 -0.000206538
0.000381783 9.18228e-05 5.43555e-07
9.18228e-05 -4.79795e-05 -9.92471e-07
5.43555e-07 -9.92471e-07 -0.000170607
0.000358128 8.78364e-05 7.61691e-06
8.78364e-05 -5.45855e-05 1.6847e-06
7.61691e-06 1.6847e-06 -0.000176831
0.000227177 0.000127683 1.43477e-05
0.000127683 -9.81631e-05 7.02949e-06
1.43477e-05 7.02949e-06 -0.000223061
0.00191516 0.00105405 0.000224422
0.00105405 -0.000445845 0.00024853
0.000224422 0.00024853 -0.0018157
0.00512455 -0.000268569 -5.43673e-05
-0.000268569 -0.000192723 5.51271e-05
-5.43673e-05 5.51271e-05 -0.00116135
0.00412521 -0.000747494 0.000225968
-0.000747494 0.00285306 -0.000112492
0.000225968 -0.000112492 0.00148707
0.00819615 -0.000164586 -9.60476e-08
-0.000164586 -0.00577907 0.00018409
-9.60476e-08 0.00018409 -0.00220723
0.00506689 -0.00305843 -0.000126422
-0.00305843 0.000658526 4.04343e-05
-0.000126422 4.04343e-05 0.000905716
0.00122645 -0.00412998 -0.000282258
-0.00412998 0.00153918 9.16589e-05
-0.000282258 9.16589e-05 -0.004224
0.0158854 0.00434026 0.000135996
0.00434026 0.00730564 -0.000163152
0.000135996 -0.000163152 0.00262929
0.00240426 -0.00246591 -5.82906e-05
-0.00246591 0.000179806 2.32551e-05
-5.82906e-05 2.32551e-05 0.000460021
-0.0012835 -0.000897852 -5.46839e-05
-0.000897852 0.00401163 5.28096e-05
-5.46839e-05 5.28096e-05 -0.00310866
0.00880075 0.000569641 0.00021098
0.000569641 0.00350651 -2.94678e-05
0.00021098 -2.94678e-05 -8.47246e-05
0.0156522 -0.00203059 -7.69197e-05
-0.00203059 0.00202702 -1.62824e-05
-7.69197e-05 -1.62824e-05 0.0032547
-0.000943507 -0.000613791 -0.00018196
-0.000613791 0.000596458 0.000148929
-0.00018196 0.000148929 0.000477156
0.00314012 0.00210785 -0.000196993
0.00210785 0.00536312 -0.000101091
-0.000196993 -0.000101091 -0.00191741
-0.00143326 -0.00532133 1.68265e-06
-0.00532133 -0.000274279 -0.000247762
1.68265e-06 -0.000247762 -0.00541778
0.014056 -0.0029525 0.000138398
-0.0029525 0.00402574 -0.000645995
0.000138398 -0.000645995 0.00231187
0.000670701 2.0694e-05 1.60262e-05
2.0694e-05 0.000367763 1.49711e-06
1.60262e-05 1.49711e-06 0.000128159
0.000808494 0.000183548 -1.30678e-06
0.000183548 0.000306977 -3.9362e-06
-1.30678e-06 -3.9362e-06 0.000146149
0.000923075 -1.80708e-05 -7.45156e-07
-1.80708e-05 0.000418221 -4.92078e-06
-7.45156e-07 -4.92078e-06 0.000168109
0.00101284 0.000158493 -5.08824e-06
0.000158493 0.000385872 -1.11376e-05
-5.08824e-06 -1.11376e-05 0.000213703
0.000482733 -0.00108151 3.65789e-05
-0.00108151 -5.14145e-05 3.13774e-05
3.65789e-05 3.13774e-05 -0.000486349
0.00259091 -0.000354687 5.00517e-06
-0.000354687 0.00161985 -2.78674e-05
5.00517e-06 -2.78674e-05 0.00115597
0.000938528 0.000106832 -1.34976e-05
0.000106832 0.000494046 -1.80074e-05
-1.34976e-05 -1.80074e-05 0.000296077
0.00060728 4.44904e-05 -2.87136e-07
4.44904e-05 0.000394679 -8.47293e-06
-2.87136e-07 -8.47293e-06 0.000149297
0.000407783 -2.60814e-05 -2.99102e-06
-2.60814e-05 0.000615647 1.50751e-05
-2.99102e-06 1.50751e-05 0.000153687
0.000375963 7.55634e-05 2.16249e-06
7.55634e-05 0.000193415 4.24041e-06
2.16249e-06 4.24041e-06 -2.37513e-06
8.91985e-05 2.56038e-05 2.15205e-06
2.56038e-05 0.000517309 1.34042e-06
2.15205e-06 1.34042e-06 2.91279e-05
0.00076386 -0.000444044 -2.63104e-06
-0.000444044 0.00122624 5.40739e-06
-2.63104e-06 5.40739e-06 3.5318e-05
0.000303937 -0.000127035 9.19264e-06
-0.000127035 0.000819929 -6.70503e-07
9.19264e-06 -6.70503e-07 0.000381645
-0.00069218 0.000102099 2.48678e-06
0.000102099 -0.000252993 -1.4393e-05
2.48678e-06 -1.4393e-05 -0.000501154
0.00186824 1.42335e-05 -0.000109885
1.42335e-05 0.00357017 -2.66533e-05
-0.000109885 -2.66533e-05 0.00172203
0.00081035 0.000325042 -2.88295e-05
0.000325042 0.00108918 9.75254e-06
-2.88295e-05 9.75254e-06 0.000540274
-0.0019549 5.84165e-05 -8.22024e-05
5.84165e-05 0.00169942 -1.97685e-05
-8.22024e-05 -1.97685e-05 0.000588399
0.00096802 6.82679e-05 1.63737e-05
6.82679e-05 -3.86487e-05 6.47404e-06
1.63737e-05 6.47404e-06 -0.000590891
-0.00282679 0.000304215 -2.00392e-05
0.000304215 0.000964026 -6.33658e-05
-2.00392e-05 -6.33658e-05 -6.97579e-05
0.000295132 0.000283506 -2.48587e-05
0.000283506 0.000651638 6.7167e-06
-2.48587e-05 6.7167e-06 0.000269832
-0.00137909 0.000825265 0.000144234
0.000825265 8.37387e-06 0.000108866
0.000144234 0.000108866 -0.000773078
0.000717303 3.31421e-05 6.60741e-05
3.31421e-05 0.000216118 -7.12803e-06
6.60741e-05 -7.12803e-06 -3.34341e-05
0.00555938 -0.00218405 0.000246628
-0.00218405 0.00576318 -0.000181033
0.000246628 -0.000181033 -0.00255869
0.0184527 0.00374626 -0.000179374
0.00374626 0.00807427 0.000158768
-0.000179374 0.000158768 0.00343251
0.00330291 -0.000665023 -0.000203303
-0.000665023 0.00222416 0.000114396
-0.000203303 0.000114396 0.000997845
0.0132197 0.00467523 -8.79237e-05
0.00467523 0.00545352 -0.000224137
-8.79237e-05 -0.000224137 0.00247344
0.000461 0.000220003 -5.66664e-05
0.000220003 0.00121263 1.43222e-05
-5.66664e-05 1.43222e-05 0.00019798
1.30352e-05 -0.000217348 -7.93975e-05
-0.000217348 0.00198903 1.12758e-06
-7.93975e-05 1.12758e-06 0.00133063
0.00321456 -0.00145524 0.000276999
-0.00145524 0.00156412 -3.85454e-05
0.000276999 -3.85454e-05 -0.00323142
-0.00276381 -0.000119421 4.75639e-05
-0.000119421 -0.00050609 3.14622e-05
4.75639e-05 3.14622e-05 -0.000961894
0.0137978 0.00853548 0.000615554
0.00853548 0.00987682 -0.000268647
0.000615554 -0.000268647 0.00632982
0.00821719 0.00305058 -0.000160336
0.00305058 0.0035005 0.0003686
-0.000160336 0.0003686 -0.00101605
-0.00294339 -0.0012205 0.000171709
-0.0012205 0.00281372 -0.000141243
0.000171709 -0.000141243 -0.00477698
-0.000921567 -0.000397881 1.59319e-05
-0.000397881 0.000483379 -2.88655e-05
1.59319e-05 -2.88655e-05 -0.000544678
0.000335379 -0.000781237 0.000292474
-0.000781237 -0.000173257 -7.26651e-05
0.000292474 -7.26651e-05 -0.00344176
-0.000639156 0.000636089 -0.00120868
0.000636089 0.00700404 0.000321295
-0.00120868 0.000321295 0.00295512
0.0184124 0.00693287 -0.000566722
0.00693287 0.00585428 0.000538612
-0.000566722 0.000538612 0.00170474
0.00782638 -0.00346499 -0.000168783
-0.00346499 0.00337413 5.56071e-05
-0.000168783 5.56071e-05 -0.000256352
0.00270435 -0.00151618 2.70887e-05
-0.00151618 0.00263731 2.24783e-06
2.70887e-05 2.24783e-06 0.0017673
0.000312462 -5.68269e-05 4.41787e-06
-5.68269e-05 0.000567199 -4.43433e-06
4.41787e-06 -4.43433e-06 0.000124735
3.47392e-05 -0.00037283 2.08566e-06
-0.00037283 0.000361335 -1.36091e-06
2.08566e-06 -1.36091e-06 -0.000184875
-1.4823e-05 -0.000654427 3.85331e-07
-0.000654427 3.12501e-05 -4.32459e-07
3.85331e-07 -4.32459e-07 -0.000272371
-0.000418957 -0.000220729 7.66284e-07
-0.000220729 0.000121277 7.63288e-06
7.66284e-07 7.63288e-06 -0.000241859
-0.000614075 -0.000388656 1.96798e-06
-0.000388656 -0.000356519 1.15881e-07
1.96798e-06 1.15881e-07 -0.00064155
0.00302909 -0.000894884 3.7793e-05
-0.000894884 0.00126881 -1.39381e-05
3.7793e-05 -1.39381e-05 0.000874646
0.00645996 -0.00121644 -1.27775e-05
-0.00121644 0.00338546 -1.52404e-06
-1.27775e-05 -1.52404e-06 0.0029014
0.00278719 -0.000801086 1.00379e-05
-0.000801086 0.00126529 -2.65518e-06
1.00379e-05 -2.65518e-06 0.000631744
0.00170867 -0.000828298 5.56602e-06
-0.000828298 0.000412647 -1.68801e-05
5.56602e-06 -1.68801e-05 -0.000220363
0.00218498 -0.000659449 -1.01297e-05
-0.000659449 0.000802172 -6.83872e-06
-1.01297e-05 -6.83872e-06 0.000337036
0.00224819 -0.000826267 1.81442e-06
-0.000826267 0.000739761 -1.74078e-06
1.81442e-06 -1.74078e-06 0.000152847
0.00260785 -0.000941976 -2.57131e-06
-0.000941976 0.000837979 -1.1216e-05
-2.57131e-06 -1.1216e-05 0.000257949
0.00215712 -0.000756609 -5.84867e-06
-0.000756609 0.000381308 -4.49395e-06
-5.84867e-06 -4.49395e-06 -1.70583e-05
0.00248815 -0.000913096 -8.70004e-06
-0.000913096 0.00071221 1.55875e-06
-8.70004e-06 1.55875e-06 0.000223004
0.00231135 -0.000899232 -2.90262e-06
-0.000899232 0.000633201 -8.11114e-09
-2.90262e-06 -8.11114e-09 0.000114661
0.00173346 -0.000688691 7.88635e-06
-0.000688691 0.000495607 -3.47992e-06
7.88635e-06 -3.47992e-06 6.88828e-05
0.0015467 -0.000679355 2.82674e-06
-0.000679355 0.000362414 -8.93903e-07
2.82674e-06 -8.93903e-07 -7.48526e-05
0.00151652 -0.000648043 5.34437e-06
-0.000648043 0.000346832 -2.04539e-07
5.34437e-06 -2.04539e-07 -0.000108928
0.00166747 -0.00047121 8.57467e-06
-0.00047121 0.000579006 4.64272e-06
8.57467e-06 4.64272e-06 0.000249605
0.00144165 -0.000509563 -1.36363e-06
-0.000509563 0.00040772 -2.17221e-06
-1.36363e-06 -2.17221e-06 4.37943e-05
0.00156396 -0.00057734 6.29144e-06
-0.00057734 0.000409376 2.12996e-06
6.29144e-06 2.12996e-06 1.65833e-05
0.00121041 -0.000220938 1.47417e-06
-0.000220938 0.00046448 -4.89176e-06
1.47417e-06 -4.89176e-06 0.000193281
0.000761771 -0.000257091 -3.40711e-06
-0.000257091 0.000114647 2.37047e-06
-3.40711e-06 2.37047e-06 -0.000131609
0.000891115 -0.000385965 -5.64573e-07
-0.000385965 9.69291e-05 -1.16374e-05
-5.64573e-07 -1.16374e-05 -0.00020203
-2.44687e-06 -6.78841e-05 -1.69943e-06
-6.78841e-05 -0.000284482 4.86354e-06
-1.69943e-06 4.86354e-06 -0.000448147
0.000761649 -0.000129263 2.1391e-07
-0.000129263 0.00024669 9.16248e-07
2.1391e-07 9.16248e-07 -1.09582e-05
0.000873 -0.000274923 3.58203e-06
-0.000274923 0.000325588 1.87896e-06
3.58203e-06 1.87896e-06 4.52396e-05
0.000347054 -1.12938e-05 -5.77561e-06
-1.12938e-05 -9.63331e-05 1.44989e-05
-5.77561e-06 1.44989e-05 -0.000144757
0.000666133 -7.06575e-05 7.89839e-07
-7.06575e-05 0.000117255 1.48712e-07
7.89839e-07 1.48712e-07 -9.28174e-06
0.001378 -0.000193808 -1.5841e-06
-0.000193808 0.000604831 1.95609e-06
-1.5841e-06 1.95609e-06 0.00039556
0.000669574 -6.13961e-05 -2.66613e-07
-6.13961e-05 0.000127683 -5.68311e-06
-2.66613e-07 -5.68311e-06 1.52422e-05
0.000437872 1.12145e-05 -5.34748e-07
1.12145e-05 -3.39467e-05 -4.80595e-07
-5.34748e-07 -4.80595e-07 -7.6259e-05
0.00293779 0.000123885 -3.91982e-05
0.000123885 0.00155086 4.72583e-06
-3.91982e-05 4.72583e-06 0.00154874
0.000516871 2.21802e-06 1.80747e-06
2.21802e-06 5.90114e-06 -7.81193e-06
1.80747e-06 -7.81193e-06 -2.76529e-05
0.00278305 0.000100602 4.86705e-06
0.000100602 0.00144378 5.67715e-07
4.86705e-06 5.67715e-07 0.00144733
0.00268001 7.9422e-05 3.29378e-05
7.9422e-05 0.00137195 -4.88226e-06
3.29378e-05 -4.88226e-06 0.00137946
0.00102612 9.50342e-05 3.84557e-06
9.50342e-05 0.000468699 -3.48395e-06
3.84557e-06 -3.48395e-06 0.000249978
0.00105673 0.000142547 6.8752e-06
0.000142547 0.000439823 6.509e-08
6.8752e-06 6.509e-08 0.000260337
0.000559929 3.98145e-05 3.72006e-06
3.98145e-05 5.23509e-05 -3.65909e-06
3.72006e-06 -3.65909e-06 -3.87926e-05
0.0005924 0.000106878 1.98655e-07
0.000106878 0.000106917 -2.59107e-07
1.98655e-07 -2.59107e-07 -2.96893e-05
0.0004603 5.28448e-07 1.14185e-06
5.28448e-07 -3.64106e-05 -6.44493e-06
1.14185e-06 -6.44493e-06 -6.09395e-05
0.00052563 5.12032e-05 2.46576e-07
5.12032e-05 3.48361e-05 -1.75252e-07
2.46576e-07 -1.75252e-07 -4.67897e-05
0.00056591 5.54166e-05 -4.80101e-06
5.54166e-05 8.04559e-05 -2.50203e-06
-4.80101e-06 -2.50203e-06 -4.43973e-05
0.00231326 -4.94578e-05 -2.68512e-05
-4.94578e-05 0.00113453 -4.99852e-06
-2.68512e-05 -4.99852e-06 0.00114849
0.000468201 1.02976e-06 -7.83117e-07
1.02976e-06 -3.37241e-05 -1.59224e-07
-7.83117e-07 -1.59224e-07 -5.2507e-05
0.000467108 5.67335e-05 -3.69689e-06
5.67335e-05 -4.23283e-07 -7.09035e-08
-3.69689e-06 -7.09035e-08 -7.48729e-05
0.00217835 -3.27199e-05 -4.8008e-06
-3.27199e-05 0.00104768 2.36162e-07
-4.8008e-06 2.36162e-07 0.00106398
0.000467805 -1.12881e-06 -2.68673e-06
-1.12881e-06 -3.60163e-05 3.98396e-06
-2.68673e-06 3.98396e-06 -4.97309e-05
0.00211458 -1.67193e-05 1.62706e-05
-1.67193e-05 0.00100755 4.76897e-06
1.62706e-05 4.76897e-06 0.00102494
-0.0024277 0.000238986 -1.48645e-05
0.000238986 0.00037489 -4.66671e-05
-1.48645e-05 -4.66671e-05 -0.000127554
0.00158706 -0.000213076 -1.54689e-05
-0.000213076 0.000461515 2.82651e-06
-1.54689e-05 2.82651e-06 0.000131049
-4.68535e-05 -0.000221729 9.183e-06
-0.000221729 0.00182978 -3.96077e-05
9.183e-06 -3.96077e-05 0.00107806
0.000803258 0.000103867 1.93841e-07
0.000103867 0.000286071 -7.11613e-08
1.93841e-07 -7.11613e-08 9.88509e-05
0.000144366 8.8484e-05 6.09063e-06
8.8484e-05 -0.000166539 -2.02717e-06
6.09063e-06 -2.02717e-06 -0.000335446
-0.00166561 -1.22078e-05 -1.48618e-06
-1.22078e-05 -0.00130754 -1.00315e-05
-1.48618e-06 -1.00315e-05 -0.00146199
-0.00092879 1.66685e-05 -3.84964e-07
1.66685e-05 -0.000802052 1.6754e-05
-3.84964e-07 1.6754e-05 -0.000960859
0.00286049 0.000399238 -7.47841e-07
0.000399238 0.00154514 -5.99803e-07
-7.47841e-07 -5.99803e-07 0.00127576
0.00105848 4.49902e-05 -6.06479e-06
4.49902e-05 0.000361244 -4.99955e-06
-6.06479e-06 -4.99955e-06 0.000234829
0.000482781 0.000108729 -9.85002e-06
0.000108729 1.54124e-05 -1.03974e-05
-9.85002e-06 -1.03974e-05 -0.000103182
0.000856197 6.06761e-05 6.1891e-07
6.06761e-05 0.000257168 -4.59619e-07
6.1891e-07 -4.59619e-07 0.00013441
0.00103147 0.000171195 -1.06433e-06
0.000171195 0.00038866 -2.83818e-06
-1.06433e-06 -2.83818e-06 0.000261689
0.00104628 0.000133636 8.76462e-06
0.000133636 0.000551185 -1.69547e-05
8.76462e-06 -1.69547e-05 0.00032185
0.00571119 0.00103715 0.000416893
0.00103715 0.00410219 0.000502599
0.000416893 0.000502599 -0.000657752
0.00241196 0.000844847 2.1868e-05
0.000844847 0.00011469 8.99767e-05
2.1868e-05 8.99767e-05 -0.00149349
0.0044933 -0.000202722 4.92888e-05
-0.000202722 -0.000224535 -1.96942e-05
4.92888e-05 -1.96942e-05 -0.000734669
0.0141235 -0.00164744 -0.00028104
-0.00164744 0.00214666 -0.000131857
-0.00028104 -0.000131857 0.00383187
-0.00311756 0.00133265 7.03238e-05
0.00133265 -0.00227999 0.000423032
7.03238e-05 0.000423032 -0.00699409
0.00173378 -0.00240181 -5.74915e-05
-0.00240181 0.000407772 -3.64396e-05
-5.74915e-05 -3.64396e-05 0.000461384
0.00815909 -0.00216502 -0.000146606
-0.00216502 0.00523091 3.89936e-05
-0.000146606 3.89936e-05 -5.55903e-05
0.000821372 -0.00102935 -9.99005e-05
-0.00102935 0.000873996 0.000115037
-9.99005e-05 0.000115037 0.000507918
0.00977291 -6.5057e-05 -0.000168914
-6.5057e-05 0.00662825 1.93562e-06
-0.000168914 1.93562e-06 3.01966e-05
0.00569774 -0.00266614 9.54946e-05
-0.00266614 0.00378003 0.000195237
9.54946e-05 0.000195237 -0.00124678
0.0172372 -0.00432651 -0.000125389
-0.00432651 0.00334741 -0.000746361
-0.000125389 -0.000746361 0.00106346
0.00256496 4.99978e-05 -0.000149371
4.99978e-05 0.00297137 0.000115052
-0.000149371 0.000115052 0.00179644
0.0130144 0.00267598 -0.000216376
0.00267598 0.00742419 7.03729e-07
-0.000216376 7.03729e-07 0.00216223
0.0199825 -0.00684126 -0.000126332
-0.00684126 0.0101358 -0.00074078
-0.000126332 -0.00074078 0.00520484
0.0234039 -0.00881174 8.87665e-05
-0.00881174 0.00954313 -7.34794e-05
8.87665e-05 -7.34794e-05 0.00638234
0.000870697 0.000304569 1.5788e-05
0.000304569 0.000519533 -5.31069e-06
1.5788e-05 -5.31069e-06 0.000196186
-5.50802e-05 4.78473e-05 3.74466e-06
4.78473e-05 5.32841e-07 2.43787e-06
3.74466e-06 2.43787e-06 -0.000288857
0.000978321 0.000188194 -1.50425e-05
0.000188194 0.000430175 -1.66145e-05
-1.50425e-05 -1.66145e-05 0.00025419
0.00247796 -0.000637488 4.59608e-05
-0.000637488 0.00172697 2.14576e-05
4.59608e-05 2.14576e-05 0.000317206
-0.000148284 -0.000111686 2.58192e-05
-0.000111686 0.000744673 -3.48039e-05
2.58192e-05 -3.48039e-05 0.000240694
-2.03639e-05 7.15522e-05 -6.26683e-06
7.15522e-05 -5.03501e-05 4.14324e-09
-6.26683e-06 4.14324e-09 -0.000240592
-0.000476542 -4.6814e-05 1.69246e-05
-4.6814e-05 0.000220276 -5.11692e-06
1.69246e-05 -5.11692e-06 -0.000302684
-2.90107e-05 0.000125515 -8.43841e-07
0.000125515 0.000116618 -5.98476e-07
-8.43841e-07 -5.98476e-07 -0.000141728
0.000258947 0.00031832 1.5289e-05
0.00031832 0.000627497 2.23403e-06
1.5289e-05 2.23403e-06 6.37908e-05
-0.00221975 -5.7054e-05 0.000256372
-5.7054e-05 0.000931594 -2.54982e-05
0.000256372 -2.54982e-05 -0.000979061
-0.000810631 0.000404268 -1.73929e-06
0.000404268 -0.000418632 1.21518e-05
-1.73929e-06 1.21518e-05 -0.000804984
0.0027777 0.000951259 -0.000146391
0.000951259 0.00220556 -8.62104e-05
-0.000146391 -8.62104e-05 0.000758755
0.00120712 0.000186048 0.000190683
0.000186048 0.00172847 6.51912e-05
0.000190683 6.51912e-05 -0.00248068
-0.00227374 0.000207846 -6.77991e-05
0.000207846 0.00143302 1.43881e-05
-6.77991e-05 1.43881e-05 0.000211951
0.00246457 -0.000252453 -3.14204e-05
-0.000252453 0.000753332 -3.26195e-06
-3.14204e-05 -3.26195e-06 0.000837658
-0.000543729 0.000524081 0.000120306
0.000524081 0.000499757 1.31192e-05
0.000120306 1.31192e-05 -0.00058306
0.00126961 0.00030904 -0.000106768
0.00030904 0.00244015 0.000101274
-0.000106768 0.000101274 0.00101545
-0.000327801 -0.000260585 -8.09671e-06
-0.000260585 0.001706 -1.1251e-05
-8.09671e-06 -1.1251e-05 0.000854946
0.0165109 -0.00419855 0.000236531
-0.00419855 0.00844544 -0.000112723
0.000236531 -0.000112723 0.00218679
0.0234522 0.00489232 -0.000178339
0.00489232 0.0107424 -0.000162461
-0.000178339 -0.000162461 0.00557246
0.00506699 -0.00167111 -0.00028306
-0.00167111 0.00258538 0.000261043
-0.00028306 0.000261043 -0.00195928
0.00631539 0.00982037 0.00255556
0.00982037 0.00563976 -0.00158568
0.00255556 -0.00158568 0.00193828
0.00119226 -0.000534831 4.07803e-05
-0.000534831 0.00154573 -1.24235e-05
4.07803e-05 -1.24235e-05 0.000440608
-0.000335316 -0.00056003 4.76305e-05
-0.00056003 0.000435605 1.2914e-05
4.76305e-05 1.2914e-05 -0.00344503
0.000348192 0.00107693 -0.00119603
0.00107693 0.00667497 0.000336256
-0.00119603 0.000336256 0.00225493
0.00056079 -0.000859742 1.48698e-05
-0.000859742 0.00131185 3.11651e-05
1.48698e-05 3.11651e-05 0.000548172
0.0198187 0.0063581 0.000365879
0.0063581 0.00640942 9.91432e-05
0.000365879 9.91432e-05 0.00215276
0.00755868 -0.00510703 0.000210351
-0.00510703 0.00251182 -7.88224e-05
0.000210351 -7.88224e-05 -0.00148912
0.000778325 -0.00126575 -3.22747e-06
-0.00126575 0.000647223 2.88867e-05
-3.22747e-06 2.88867e-05 -0.000215724
-0.0061408 -0.00181455 0.000150888
-0.00181455 0.00580059 -8.30011e-05
0.000150888 -8.30011e-05 0.00168692
0.0159255 0.00622107 -0.00160841
0.00622107 0.00626202 0.000521708
-0.00160841 0.000521708 0.00298124
0.0064033 -0.00379638 -0.000457969
-0.00379638 -0.000470782 0.00019227
-0.000457969 0.00019227 -0.00371455
0.000898518 -0.00200204 0.000190238
-0.00200204 -2.84882e-06 -0.000127378
0.000190238 -0.000127378 0.000907946
0.00116039 -0.000543595 -0.000104385
-0.000543595 0.000861221 3.39741e-05
-0.000104385 3.39741e-05 0.000370954
0.000715782 -0.000601965 -5.54272e-06
-0.000601965 0.000485206 1.15047e-05
-5.54272e-06 1.15047e-05 0.000120072
0.00307887 -0.000924129 1.69477e-05
-0.000924129 0.00139853 -1.47105e-05
1.69477e-05 -1.47105e-05 0.000998361
-0.00138336 -0.000197686 8.26821e-06
-0.000197686 -0.000615317 9.07012e-06
8.26821e-06 9.07012e-06 -0.000898011
0.00131615 -0.000673904 4.18286e-06
-0.000673904 0.000379247 -3.42954e-06
4.18286e-06 -3.42954e-06 2.80219e-06
0.00325857 -0.00103303 8.98165e-06
-0.00103303 0.0010558 -2.53715e-06
8.98165e-06 -2.53715e-06 0.000640406
0.00427243 -0.000992544 -2.8406e-05
-0.000992544 0.00201639 1.97221e-06
-2.8406e-05 1.97221e-06 0.00139119
0.00140172 -0.00076017 -1.22012e-06
-0.00076017 0.000240043 -1.37297e-06
-1.22012e-06 -1.37297e-06 -0.000367486
0.00197897 -0.000952516 7.0468e-07
-0.000952516 0.000304395 -1.1857e-05
7.0468e-07 -1.1857e-05 -0.000180005
0.00285403 -0.000909657 3.08737e-06
-0.000909657 0.00105806 6.18792e-06
3.08737e-06 6.18792e-06 0.000454791
0.00222155 -0.000898518 1.66008e-06
-0.000898518 0.000600067 -4.32639e-06
1.66008e-06 -4.32639e-06 4.17629e-05
0.00257583 -0.000814214 -1.73663e-06
-0.000814214 0.000570648 -9.93215e-06
-1.73663e-06 -9.93215e-06 0.000174436
0.00176408 -0.000524848 -4.89503e-06
-0.000524848 -1.82813e-06 -2.54927e-06
-4.89503e-06 -2.54927e-06 -0.00025202
0.00191476 -0.000756827 -1.35584e-06
-0.000756827 0.000188046 -1.64443e-06
-1.35584e-06 -1.64443e-06 -0.000209231
0.0021771 -0.000761847 3.07025e-06
-0.000761847 0.000382963 -2.76967e-06
3.07025e-06 -2.76967e-06 -1.46399e-05
0.00232452 -0.000803914 -4.16548e-06
-0.000803914 0.000679292 -7.36398e-07
-4.16548e-06 -7.36398e-07 0.000240106
0.00244774 -0.000907897 -3.12632e-06
-0.000907897 0.000698541 2.30142e-08
-3.12632e-06 2.30142e-08 0.000204924
0.00255786 -0.000931841 8.45039e-06
-0.000931841 0.000763075 -4.70059e-06
8.45039e-06 -4.70059e-06 0.000233876
0.00189858 -0.000605374 7.03353e-06
-0.000605374 0.000649453 1.02096e-07
7.03353e-06 1.02096e-07 0.000259364
0.00145625 -0.000647239 2.36052e-06
-0.000647239 0.000343255 -4.54693e-07
2.36052e-06 -4.54693e-07 -7.049e-05
0.00130365 -0.000641573 3.36908e-06
-0.000641573 0.000223147 1.56223e-06
3.36908e-06 1.56223e-06 -0.000198241
0.00137655 -0.000350367 1.43887e-07
-0.000350367 0.000459349 -8.52785e-08
1.43887e-07 -8.52785e-08 0.000186926
0.00119271 -0.000406678 1.10396e-06
-0.000406678 0.000301393 -1.92843e-07
1.10396e-06 -1.92843e-07 -1.20787e-05
0.00150222 -0.000512195 -5.45652e-06
-0.000512195 0.000451652 2.09001e-07
-5.45652e-06 2.09001e-07 8.45543e-05
-0.000313992 -0.000105068 -2.22234e-06
-0.000105068 -0.000480153 1.97742e-06
-2.22234e-06 1.97742e-06 -0.000702902
0.000698839 -0.000232924 -5.6807e-07
-0.000232924 0.000162083 -6.56846e-07
-5.6807e-07 -6.56846e-07 -0.000116945
0.000997327 -0.000288918 -4.36699e-06
-0.000288918 0.000287024 7.95263e-07
-4.36699e-06 7.95263e-07 3.46982e-05
0.00189416 1.78654e-05 -4.87916e-05
1.78654e-05 0.000889098 9.1524e-06
-4.87916e-05 9.1524e-06 0.000838266
0.000707154 -0.00011757 -9.05989e-08
-0.00011757 0.000145862 -4.72448e-07
-9.05989e-08 -4.72448e-07 -2.16252e-05
0.00130214 -0.000192275 -1.0564e-07
-0.000192275 0.000583151 4.33746e-06
-1.0564e-07 4.33746e-06 0.000318352
0.000751119 3.43241e-05 -5.31566e-05
3.43241e-05 0.000165371 6.29306e-06
-5.31566e-05 6.29306e-06 0.000154045
0.00115123 1.03255e-05 -1.76454e-05
1.03255e-05 0.000414719 -6.2154e-07
-1.76454e-05 -6.2154e-07 0.0003677
0.000839043 -8.77497e-05 3.22599e-06
-8.77497e-05 0.000219651 -6.43686e-06
3.22599e-06 -6.43686e-06 9.18614e-05
0.000591789 3.13687e-06 2.64838e-06
3.13687e-06 5.84981e-05 -9.88172e-06
2.64838e-06 -9.88172e-06 1.68671e-05
0.00302005 0.000124133 8.53298e-06
0.000124133 0.00160293 7.54851e-07
8.53298e-06 7.54851e-07 0.00160085
0.00279072 0.000100673 3.74719e-05
0.000100673 0.00144878 -4.7377e-06
3.74719e-05 -4.7377e-06 0.00145249
0.000940417 0.000158581 1.27977e-05
0.000158581 0.000384618 -1.95362e-06
1.27977e-05 -1.95362e-06 0.000146452
0.00143911 0.000182656 4.98131e-06
0.000182656 0.000700141 -1.10991e-06
4.98131e-06 -1.10991e-06 0.000481804
-0.000155152 4.35984e-05 8.60986e-07
4.35984e-05 -0.000301213 2.55127e-07
8.60986e-07 2.55127e-07 -0.000492034
0.000666076 4.66569e-05 3.41004e-06
4.66569e-05 0.000124462 -5.29786e-06
3.41004e-06 -5.29786e-06 1.78089e-05
0.000788853 0.000115755 6.21357e-07
0.000115755 0.000252067 2.41851e-07
6.21357e-07 2.41851e-07 8.71467e-05
0.000450894 9.65205e-06 -1.34052e-06
9.65205e-06 -3.6509e-05 -8.21742e-06
-1.34052e-06 -8.21742e-06 -6.70156e-05
0.000551855 4.5591e-05 -1.26297e-07
4.5591e-05 5.24693e-05 -3.91675e-07
-1.26297e-07 -3.91675e-07 -4.02038e-05
0.000697359 5.73044e-05 -4.34967e-06
5.73044e-05 0.000197474 -1.52413e-07
-4.34967e-06 -1.52413e-07 4.44036e-05
0.00255827 -6.82223e-05 -3.54041e-05
-6.82223e-05 0.00129363 -4.94151e-06
-3.54041e-05 -4.94151e-06 0.00130427
0.000444247 3.21477e-06 -4.95338e-07
3.21477e-06 -4.56316e-05 -1.15833e-07
-4.95338e-07 -1.15833e-07 -7.01303e-05
0.000542184 5.63775e-05 -1.37805e-06
5.63775e-05 4.65629e-05 2.41068e-06
-1.37805e-06 2.41068e-06 -3.56505e-05
0.00233979 -5.01377e-05 -6.149e-06
-5.01377e-05 0.00115141 3.74346e-07
-6.149e-06 3.74346e-07 0.00116521
0.000431435 -1.059e-05 -4.62764e-06
-1.059e-05 -5.65444e-05 4.91206e-06
-4.62764e-06 4.91206e-06 -7.50141e-05
0.00220603 -3.15274e-05 2.18187e-05
-3.15274e-05 0.00106515 4.73107e-06
2.18187e-05 4.73107e-06 0.00108153
0.00660367 0.000711976 0.000350578
0.000711976 0.00390934 7.88338e-05
0.000350578 7.88338e-05 0.00152526
-0.00209809 0.000168815 -3.56535e-06
0.000168815 0.000328541 -8.1277e-06
-3.56535e-06 -8.1277e-06 -0.000432742
0.000564491 0.000157836 -1.14576e-05
0.000157836 0.000552633 -1.01835e-05
-1.14576e-05 -1.01835e-05 0.000111535
-0.000550755 0.000107713 -8.19358e-06
0.000107713 -0.000687513 1.8771e-06
-8.19358e-06 1.8771e-06 -0.000848332
0.000187881 4.43608e-05 -6.39919e-06
4.43608e-05 -0.000131431 -3.5211e-06
-6.39919e-06 -3.5211e-06 -0.000288949
-0.000177992 5.32223e-05 -2.75637e-06
5.32223e-05 -0.000362076 -7.08961e-06
-2.75637e-06 -7.08961e-06 -0.000524579
0.00139414 7.57782e-05 2.12576e-06
7.57782e-05 0.000614357 2.3039e-07
2.12576e-06 2.3039e-07 0.000450157
0.000179245 0.000104287 -2.93899e-06
0.000104287 -0.000189134 -3.41479e-06
-2.93899e-06 -3.41479e-06 -0.000348995
0.0022927 0.000319427 -6.54448e-06
0.000319427 0.0011974 -3.76582e-06
-6.54448e-06 -3.76582e-06 0.000986671
0.00104992 0.000262322 -5.29448e-06
0.000262322 0.000365993 -1.51911e-05
-5.29448e-06 -1.51911e-05 4.76159e-05
-0.00125089 0.000112921 1.00744e-06
0.000112921 -0.000709992 8.39832e-07
1.00744e-06 8.39832e-07 -0.00106763
0.000623245 0.00013381 -6.87495e-06
0.00013381 0.00014111 -3.61583e-06
-6.87495e-06 -3.61583e-06 2.99379e-06
-1.13196e-05 5.60304e-05 -1.23703e-05
5.60304e-05 -0.000313103 -8.04663e-06
-1.23703e-05 -8.04663e-06 -0.000399731
-0.000241257 3.79004e-05 -4.5237e-07
3.79004e-05 -0.000242732 1.58771e-06
-4.5237e-07 1.58771e-06 -0.000464311
0.0010164 0.000325642 1.85202e-05
0.000325642 0.00067133 -1.1214e-06
1.85202e-05 -1.1214e-06 0.000252886
0.00384324 -0.00339074 0.000117154
-0.00339074 0.00622863 0.000250531
0.000117154 0.000250531 0.000407995
0.0065175 0.00144422 0.000150195
0.00144422 0.00330587 0.000176076
0.000150195 0.000176076 -0.00191251
0.00324131 0.00053967 -3.41208e-05
0.00053967 0.000682744 -8.06525e-05
-3.41208e-05 -8.06525e-05 -0.00116417
0.0256422 -0.0055685 -0.000788245
-0.0055685 0.00712374 -0.000391653
-0.000788245 -0.000391653 0.00446192
0.00571792 -0.00168997 0.000286408
-0.00168997 0.00393766 0.000507457
0.000286408 0.000507457 0.000279061
0.00336204 -0.0017214 -0.000261475
-0.0017214 0.00510392 0.000103297
-0.000261475 0.000103297 -0.0022156
-0.00139984 -0.000529052 0.000117126
-0.000529052 0.00109381 2.05727e-05
0.000117126 2.05727e-05 0.000123123
-0.000579985 -0.000163774 0.000107585
-0.000163774 0.00110152 5.34692e-05
0.000107585 5.34692e-05 0.000360726
0.0157752 -0.00924322 0.000478389
-0.00924322 0.00768069 0.000450242
0.000478389 0.000450242 0.0042194
0.00169076 0.00155864 -0.000102804
0.00155864 0.00424153 -8.72145e-05
-0.000102804 -8.72145e-05 -0.0023489
0.00852881 -0.00391625 -0.000132912
-0.00391625 0.00423662 0.000110049
-0.000132912 0.000110049 -0.00126765
0.00043274 0.00074959 -1.53991e-05
0.00074959 0.00113413 6.0974e-05
-1.53991e-05 6.0974e-05 0.000724922
0.0116016 0.00422358 -0.000121938
0.00422358 0.0038646 5.9085e-06
-0.000121938 5.9085e-06 4.47693e-05
0.016179 -0.00689351 -0.000853824
-0.00689351 0.00515355 -0.000507266
-0.000853824 -0.000507266 0.000704296
-1.70831e-06 0.000507619 4.68745e-06
0.000507619 -0.000404373 -7.58496e-06
4.68745e-06 -7.58496e-06 -0.000553248
0.000520415 0.000188108 7.63603e-06
0.000188108 0.000272986 4.78885e-06
7.63603e-06 4.78885e-06 1.2855e-05
-7.00306e-05 5.56567e-05 -1.24417e-05
5.56567e-05 -2.80607e-05 -4.60307e-06
-1.24417e-05 -4.60307e-06 -0.000301333
-0.00395241 -0.000353564 -0.000123352
-0.000353564 -0.000213771 -6.42917e-05
-0.000123352 -6.42917e-05 -0.00203774
-0.000547222 0.000236392 1.31265e-05
0.000236392 -3.71944e-05 -1.64322e-05
1.31265e-05 -1.64322e-05 -0.000565539
0.00134747 0.000222027 -4.46692e-06
0.000222027 0.00089518 1.43162e-05
-4.46692e-06 1.43162e-05 0.000621943
0.00119978 0.000686455 1.36036e-05
0.000686455 0.000625695 3.05901e-06
1.36036e-05 3.05901e-06 0.000210153
-0.000395423 0.000533083 4.09574e-05
0.000533083 0.000721084 -3.07254e-05
4.09574e-05 -3.07254e-05 -0.000515917
0.00087967 0.0013798 6.82892e-05
0.0013798 9.82505e-05 6.33325e-06
6.82892e-05 6.33325e-06 -0.000784434
-0.0061615 0.0011617 0.000371109
0.0011617 0.00554942 3.10316e-06
0.000371109 3.10316e-06 -0.00155063
0.00228521 -0.000191954 -9.90267e-06
-0.000191954 0.00202719 6.87557e-05
-9.90267e-06 6.87557e-05 -0.000841239
-0.00265188 -4.68318e-05 -1.40937e-05
-4.68318e-05 0.000920024 5.65695e-05
-1.40937e-05 5.65695e-05 -5.53847e-05
-0.000603161 -0.000291337 -6.37003e-05
-0.000291337 0.000694777 1.66273e-05
-6.37003e-05 1.66273e-05 -0.000474208
-0.00161935 -0.000464621 -6.87717e-05
-0.000464621 -0.000345791 5.51994e-05
-6.87717e-05 5.51994e-05 -0.000128539
-0.000351264 -0.000481731 -0.000195352
-0.000481731 0.000866373 0.000125101
-0.000195352 0.000125101 -0.003301
-0.000401466 -0.00399355 0.000267205
-0.00399355 0.00208687 -9.63889e-05
0.000267205 -9.63889e-05 -0.00379268
0.0107612 0.00531153 0.000727093
0.00531153 0.00111732 -0.000452199
0.000727093 -0.000452199 -0.00275895
0.0111959 0.00370095 -0.000410541
0.00370095 0.00793815 0.000341048
-0.000410541 0.000341048 0.00334978
0.001205 -0.000869122 -1.15014e-05
-0.000869122 0.00134419 -1.31806e-06
-1.15014e-05 -1.31806e-06 0.00052099
0.00205645 0.000619371 0.000138034
0.000619371 0.00765769 -2.47509e-05
0.000138034 -2.47509e-05 0.00336409
0.00118326 0.00425797 8.59967e-06
0.00425797 0.00086801 7.2842e-05
8.59967e-06 7.2842e-05 -0.00286623
0.00246021 -0.00271627 8.49713e-05
-0.00271627 0.000759017 -4.40457e-05
8.49713e-05 -4.40457e-05 0.000969064
0.0168885 -0.00421712 1.45354e-05
-0.00421712 0.00314401 3.52781e-07
1.45354e-05 3.52781e-07 0.00124169
0.00310201 -0.00167727 3.06398e-06
-0.00167727 0.00124569 1.93884e-05
3.06398e-06 1.93884e-05 0.00085493
-0.00803765 0.0013027 -0.000625876
0.0013027 -0.00234797 0.00010221
-0.000625876 0.00010221 -0.00525978
0.0161009 -0.00271577 -0.000236373
-0.00271577 0.00206426 6.62686e-05
-0.000236373 6.62686e-05 0.000712687
0.00392103 -0.00278934 0.000112729
-0.00278934 -3.54774e-05 -7.53919e-05
0.000112729 -7.53919e-05 0.000580904
0.000931157 -0.00055501 -1.56146e-05
-0.00055501 0.000660933 1.42156e-05
-1.56146e-05 1.42156e-05 0.000229449
0.00123421 -0.000840642 8.53543e-07
-0.000840642 0.000292169 -3.01255e-06
8.53543e-07 -3.01255e-06 1.20611e-05
0.00511099 -0.00108098 2.20113e-05
-0.00108098 0.00210045 -1.50308e-05
2.20113e-05 -1.50308e-05 0.0017182
-0.000696585 -0.000432515 -6.2605e-06
-0.000432515 -0.000665794 8.08604e-06
-6.2605e-06 8.08604e-06 -0.00102724
0.00146425 -0.000825984 -3.00317e-06
-0.000825984 0.000138342 7.35424e-07
-3.00317e-06 7.35424e-07 -0.000270594
0.00322956 -0.00107891 3.26579e-06
-0.00107891 0.000851786 -8.15644e-06
3.26579e-06 -8.15644e-06 0.000429815
0.00149346 -0.000745141 -1.05962e-05
-0.000745141 0.000263192 9.96033e-06
-1.05962e-05 9.96033e-06 -0.000325322
0.00203305 -0.000948718 -8.98095e-07
-0.000948718 0.000339417 1.96737e-06
-8.98095e-07 1.96737e-06 -0.000152451
0.00193716 -0.000766376 -2.02716e-06
-0.000766376 4.85636e-05 -6.39242e-06
-2.02716e-06 -6.39242e-06 -0.000257408
0.00165904 -0.00083376 1.75775e-07
-0.00083376 0.000268091 4.18456e-06
1.75775e-07 4.18456e-06 -0.000267543
0.00206982 -0.000746776 -1.64067e-06
-0.000746776 0.000296312 1.51094e-06
-1.64067e-06 1.51094e-06 -8.43086e-05
0.00207137 -0.00055663 -2.01206e-06
-0.00055663 0.000107466 -4.16136e-06
-2.01206e-06 -4.16136e-06 -0.000109276
0.00189363 -0.000461969 -4.46056e-06
-0.000461969 6.42988e-05 -5.35061e-07
-4.46056e-06 -5.35061e-07 -0.000113837
0.00172727 -0.000541384 -5.32588e-06
-0.000541384 -4.98465e-06 -1.96339e-06
-5.32588e-06 -1.96339e-06 -0.000267425
0.00184049 -0.00052539 1.63454e-06
-0.00052539 4.58383e-05 2.62611e-06
1.63454e-06 2.62611e-06 -0.000200937
0.00171314 -0.000656441 -5.74866e-06
-0.000656441 0.00012879 -2.83514e-06
-5.74866e-06 -2.83514e-06 -0.000228167
0.00209264 -0.000764967 2.85452e-06
-0.000764967 0.000314463 -2.25194e-07
2.85452e-06 -2.25194e-07 -7.93033e-05
0.00218697 -0.000763829 6.21717e-06
-0.000763829 0.000382673 1.0671e-06
6.21717e-06 1.0671e-06 -1.33571e-05
0.00172415 -0.000666339 -1.37088e-06
-0.000666339 0.000360584 -2.16881e-06
-1.37088e-06 -2.16881e-06 -4.50123e-05
0.00215629 -0.000790717 2.08409e-06
-0.000790717 0.000574701 -6.92191e-07
2.08409e-06 -6.92191e-07 0.000135416
0.0023491 -0.000894122 2.42178e-06
-0.000894122 0.000651419 -2.15242e-06
2.42178e-06 -2.15242e-06 0.000155017
0.00127647 -0.000396476 -6.68269e-06
-0.000396476 0.000293048 2.92338e-06
-6.68269e-06 2.92338e-06 -1.25351e-06
0.00156248 -0.000561857 1.81785e-06
-0.000561857 0.000434799 1.05589e-06
1.81785e-06 1.05589e-06 5.77721e-05
0.00111447 -0.000596394 -4.19992e-06
-0.000596394 0.000152785 1.81893e-06
-4.19992e-06 1.81893e-06 -0.000245845
0.000491503 -0.000216987 -7.72525e-06
-0.000216987 -6.14819e-05 -5.00586e-07
-7.72525e-06 -5.00586e-07 -0.000279022
0.00105894 -0.000333988 8.28695e-07
-0.000333988 0.000251111 -8.08349e-07
8.28695e-07 -8.08349e-07 -1.57353e-05
0.00048268 -0.000323866 -8.79472e-06
-0.000323866 -0.000117673 1.5271e-07
-8.79472e-06 1.5271e-07 -0.000412282
0.000335414 -5.80678e-05 -1.26355e-05
-5.80678e-05 -0.000112352 1.35042e-05
-1.26355e-05 1.35042e-05 -0.000188338
0.000854189 -0.000185558 3.11814e-06
-0.000185558 0.000249768 1.30191e-06
3.11814e-06 1.30191e-06 1.82441e-05
0.000610301 -0.000252746 4.46291e-08
-0.000252746 0.000117267 1.91361e-06
4.46291e-08 1.91361e-06 -0.000164046
0.00393056 0.000237747 5.68955e-06
0.000237747 0.00222095 5.59239e-06
5.68955e-06 5.59239e-06 0.00218304
0.000444543 -3.13892e-05 3.45989e-07
-3.13892e-05 -3.58906e-05 -2.39977e-07
3.45989e-07 -2.39977e-07 -9.85613e-05
0.00127054 -0.000115839 -1.57565e-07
-0.000115839 0.000499812 -6.09339e-06
-1.57565e-07 -6.09339e-06 0.000324555
0.0033745 0.000142392 9.21839e-06
0.000142392 0.00183457 7.05501e-07
9.21839e-06 7.05501e-07 0.0018278
0.000534988 -9.9389e-06 4.77208e-06
-9.9389e-06 2.22347e-05 -1.15919e-05
4.77208e-06 -1.15919e-05 -2.95023e-05
0.00305118 0.000117152 5.45316e-05
0.000117152 0.0016211 -5.08804e-06
5.45316e-05 -5.08804e-06 0.00162079
0.00222875 0.000347594 6.44209e-06
0.000347594 0.0010963 2.21075e-06
6.44209e-06 2.21075e-06 0.000849541
0.00073946 0.000167146 5.60627e-07
0.000167146 0.000265455 -4.56533e-06
5.60627e-07 -4.56533e-06 2.23441e-05
0.00138696 0.000193125 3.60716e-07
0.000193125 0.000677385 -5.52305e-06
3.60716e-07 -5.52305e-06 0.000421657
0.000757921 6.96528e-05 2.68787e-06
6.96528e-05 0.000182418 -5.91578e-06
2.68787e-06 -5.91578e-06 5.42974e-05
0.00078513 0.000106823 4.85081e-07
0.000106823 0.000276192 1.48862e-06
4.85081e-07 1.48862e-06 7.23375e-05
0.000276079 0.000114906 -1.95516e-06
0.000114906 2.14179e-06 4.06055e-06
-1.95516e-06 4.06055e-06 -0.0002161
0.000521232 -3.60793e-07 -1.61278e-06
-3.60793e-07 1.50852e-05 -1.02055e-05
-1.61278e-06 -1.02055e-05 -2.36568e-05
0.000577146 4.44701e-05 -8.63655e-08
4.44701e-05 7.22309e-05 -3.97954e-07
-8.63655e-08 -3.97954e-07 -3.52651e-05
0.000268784 8.49025e-05 -5.30945e-06
8.49025e-05 -9.61374e-05 4.02413e-07
-5.30945e-06 4.02413e-07 -0.000241171
0.00269486 -8.51109e-05 -4.39081e-05
-8.51109e-05 0.0013856 -4.84723e-06
-4.39081e-05 -4.84723e-06 0.00139335
0.000412008 -2.0716e-05 2.84144e-06
-2.0716e-05 -5.86366e-05 -1.7021e-07
2.84144e-06 -1.7021e-07 -8.99171e-05
0.000484948 4.62918e-05 -2.88536e-06
4.62918e-05 1.36798e-05 3.53149e-06
-2.88536e-06 3.53149e-06 -7.94892e-05
0.00251241 -6.82436e-05 -6.73675e-06
-6.82436e-05 0.00126442 5.03139e-07
-6.73675e-06 5.03139e-07 0.00127499
0.000430107 -7.83234e-07 -2.30679e-06
-7.83234e-07 -5.45635e-05 6.17493e-06
-2.30679e-06 6.17493e-06 -7.8524e-05
0.00230155 -4.93163e-05 2.38641e-05
-4.93163e-05 0.00112712 4.73798e-06
2.38641e-05 4.73798e-06 0.00114118
-0.00954105 0.00109936 -0.000124703
0.00109936 0.00403203 8.04547e-05
-0.000124703 8.04547e-05 -0.00258704
0.00620941 0.000522596 7.53555e-06
0.000522596 0.00369796 -1.47739e-06
7.53555e-06 -1.47739e-06 0.00142752
-0.00166823 9.41125e-05 5.48101e-05
9.41125e-05 0.000357458 2.69481e-05
5.48101e-05 2.69481e-05 -0.000660145
0.000180998 0.000147786 -3.51343e-08
0.000147786 -0.000188218 2.90593e-06
-3.51343e-08 2.90593e-06 -0.000389991
0.00325388 0.00068547 1.61868e-05
0.00068547 0.00164817 1.07006e-05
1.61868e-05 1.07006e-05 0.00127809
0.00102108 0.000196431 -8.91457e-06
0.000196431 0.000442857 1.76399e-06
-8.91457e-06 1.76399e-06 0.000116015
0.000462956 6.89034e-05 -7.86803e-06
6.89034e-05 4.08962e-05 -1.82638e-05
-7.86803e-06 -1.82638e-05 -0.000129933
0.00281268 0.000310947 3.35419e-06
0.000310947 0.00141677 -7.56992e-07
3.35419e-06 -7.56992e-07 0.00123517
-0.000897386 2.3109e-05 -1.3307e-05
2.3109e-05 -0.000757764 1.09827e-05
-1.3307e-05 1.09827e-05 -0.000910529
-3.23756e-05 0.000121325 -1.07964e-06
0.000121325 -8.21023e-05 6.61666e-06
-1.07964e-06 6.61666e-06 -0.000374598
0.000594787 0.000163648 -3.38495e-06
0.000163648 0.000149673 -5.45572e-06
-3.38495e-06 -5.45572e-06 -0.000170441
0.00175986 0.000556973 8.06837e-06
0.000556973 0.000871631 -2.57371e-05
8.06837e-06 -2.57371e-05 0.000406968
-5.56467e-05 0.000480396 -1.49328e-05
0.000480396 -0.000358186 5.17786e-05
-1.49328e-05 5.17786e-05 -0.00051677
0.00158207 6.13124e-05 -1.56727e-05
6.13124e-05 0.000834983 1.65399e-05
-1.56727e-05 1.65399e-05 0.000631488
0.00154539 0.000298233 5.9153e-06
0.000298233 0.000990506 -1.03018e-05
5.9153e-06 -1.03018e-05 0.00060574
0.000484893 -0.00255662 -0.00167063
-0.00255662 0.00173496 -0.000271606
-0.00167063 -0.000271606 -0.00232596
-0.00202272 -0.00259686 0.000561308
-0.00259686 0.00623917 0.000201005
0.000561308 0.000201005 0.000343776
0.00728472 0.00183069 -0.000596781
0.00183069 0.00307354 -0.000205449
-0.000596781 -0.000205449 -0.00256622
0.00587377 -0.00981918 0.00253525
-0.00981918 0.00567835 0.00155309
0.00253525 0.00155309 0.00163299
0.026943 -0.00400833 6.59775e-05
-0.00400833 0.00924895 0.00038118
6.59775e-05 0.00038118 0.00546379
-0.00340022 0.00142072 -1.70157e-05
0.00142072 0.0023902 -0.000190385
-1.70157e-05 -0.000190385 -0.00340986
-0.00271933 0.000127646 -0.0003747
0.000127646 0.000865841 -6.26327e-05
-0.0003747 -6.26327e-05 -0.000861708
0.000969841 0.000767179 7.85472e-05
0.000767179 0.00167061 5.41559e-05
7.85472e-05 5.41559e-05 0.00130307
0.0201332 -0.00521347 -0.000685479
-0.00521347 0.00833965 8.54409e-06
-0.000685479 8.54409e-06 0.00397606
-0.00256296 0.00318625 -0.000121514
0.00318625 0.00034605 -4.79867e-05
-0.000121514 -4.79867e-05 -0.00442595
0.00321242 0.00228249 1.91702e-05
0.00228249 0.000999508 -7.41013e-05
1.91702e-05 -7.41013e-05 0.00168278
0.00326995 0.00504211 -0.000435622
0.00504211 -0.00200944 -0.000111657
-0.000435622 -0.000111657 -0.00459988
0.00329921 0.00120766 2.51767e-05
0.00120766 0.00125314 -1.26056e-05
2.51767e-05 -1.26056e-05 0.000887871
0.0010057 0.000586699 -4.65581e-06
0.000586699 0.000272277 -2.14717e-06
-4.65581e-06 -2.14717e-06 0.000109282
-0.000177819 0.000171138 -9.89377e-06
0.000171138 -0.000145392 5.88136e-06
-9.89377e-06 5.88136e-06 -0.000407546
-0.00156229 0.000388011 -8.94385e-05
0.000388011 0.00015954 -7.26747e-05
-8.94385e-05 -7.26747e-05 -0.000908925
0.00195814 0.00079487 -3.85861e-05
0.00079487 0.000973173 -2.04917e-05
-3.85861e-05 -2.04917e-05 0.00054989
0.00202198 0.00153365 1.10343e-05
0.00153365 0.000573736 -8.87622e-06
1.10343e-05 -8.87622e-06 -0.000297463
-0.000946226 0.00160876 0.000101389
0.00160876 -0.00179486 4.8412e-05
0.000101389 4.8412e-05 -0.00214271
-0.00636877 -0.000501959 -0.000631992
-0.000501959 -0.00420906 5.08707e-05
-0.000631992 5.08707e-05 -0.00423438
-0.00882911 0.000507426 0.00041617
0.000507426 0.00581565 1.77212e-05
0.00041617 1.77212e-05 -0.0006588
0.00291456 -8.13472e-05 -0.000130524
-8.13472e-05 0.00208439 3.36706e-05
-0.000130524 3.36706e-05 0.000249277
0.00216082 -0.00102285 -5.88236e-05
-0.00102285 0.00141495 -4.60439e-05
-5.88236e-05 -4.60439e-05 0.000622567
-0.000715059 -0.00202462 6.24431e-05
-0.00202462 -0.000627661 4.38367e-05
6.24431e-05 4.38367e-05 -0.000377696
0.000704578 0.000710672 7.85793e-05
0.000710672 0.00735173 4.91138e-05
7.85793e-05 4.91138e-05 0.00289357
0.0027249 -0.00358891 0.000502647
-0.00358891 -0.00172731 -0.000107266
0.000502647 -0.000107266 -0.00378546
0.0232941 0.00367074 0.000933335
0.00367074 0.0102603 -0.000100516
0.000933335 -0.000100516 0.00698266
0.00161576 -0.00176015 -1.88643e-05
-0.00176015 0.000362013 4.15858e-06
-1.88643e-05 4.15858e-06 -0.000288279
0.00236199 0.00158685 0.000279994
0.00158685 0.000896514 -8.65286e-05
0.000279994 -8.65286e-05 -0.00149703
0.00755805 -0.00238277 -0.000179223
-0.00238277 -0.00273833 0.000150523
-0.000179223 0.000150523 -0.00484629
0.00352846 -0.00276154 -9.9185e-06
-0.00276154 -0.000586129 2.63205e-05
-9.9185e-06 2.63205e-05 0.000333967
0.00250315 -0.00147268 7.15673e-05
-0.00147268 0.000195577 -2.00927e-05
7.15673e-05 -2.00927e-05 1.59378e-05
0.0174573 -0.000891583 -8.39763e-05
-0.000891583 0.00341326 5.68594e-05
-8.39763e-05 5.68594e-05 0.00226274
0.00265298 -0.00188574 0.000135034
-0.00188574 -0.00323746 -9.10089e-05
0.000135034 -9.10089e-05 -0.0016776
-0.000552654 -0.00070937 -2.73043e-05
-0.00070937 -0.000757661 3.39288e-05
-2.73043e-05 3.39288e-05 -0.000900468
0.00022279 -0.000611904 -4.00673e-05
-0.000611904 -0.000572134 3.91253e-06
-4.00673e-05 3.91253e-06 -0.000728103
0.0062347 -0.0011896 6.12138e-05
-0.0011896 0.00235195 -2.60454e-05
6.12138e-05 -2.60454e-05 0.00211244
0.000257778 -0.000672642 -1.11345e-05
-0.000672642 -0.000457014 2.20026e-06
-1.11345e-05 2.20026e-06 -0.000864145
0.00217714 -0.00094909 -3.16047e-06
-0.00094909 0.000309721 -3.47281e-06
-3.16047e-06 -3.47281e-06 -7.98755e-05
0.00281414 -0.000861674 4.92695e-07
-0.000861674 0.000346131 -5.30798e-06
4.92695e-07 -5.30798e-06 0.00013085
0.00202736 -0.000938024 3.86719e-06
-0.000938024 0.000344799 1.04346e-05
3.86719e-06 1.04346e-05 -0.000151638
0.00219474 -0.000784306 -1.3589e-06
-0.000784306 0.000197032 3.05082e-07
-1.3589e-06 3.05082e-07 -0.000109932
0.00215862 -0.000580006 -3.58918e-07
-0.000580006 2.58327e-05 -1.40878e-06
-3.58918e-07 -1.40878e-06 -0.000102256
0.00156592 -0.000679784 6.66168e-06
-0.000679784 2.13992e-05 7.6052e-06
6.66168e-06 7.6052e-06 -0.000343785
0.00201729 -0.000544839 -3.90681e-07
-0.000544839 7.67173e-05 2.46766e-06
-3.90681e-07 2.46766e-06 -0.00013289
0.00209709 -0.000516704 -2.76453e-06
-0.000516704 8.64786e-05 1.47232e-06
-2.76453e-06 1.47232e-06 -5.46509e-05
0.00204463 -0.000485601 -4.30583e-06
-0.000485601 0.000148756 1.16979e-06
-4.30583e-06 1.16979e-06 -9.50939e-06
0.00203087 -0.000472641 -3.04558e-06
-0.000472641 0.000141868 3.22011e-06
-3.04558e-06 3.22011e-06 -3.30742e-05
0.00210624 -0.000482693 -2.29559e-06
-0.000482693 0.000239077 -3.6477e-06
-2.29559e-06 -3.6477e-06 4.81541e-05
0.00204196 -0.00057361 -6.71579e-06
-0.00057361 0.000214133 -2.8248e-06
-6.71579e-06 -2.8248e-06 -5.77172e-05
0.00196583 -0.000558991 1.74154e-06
-0.000558991 0.00014832 9.2545e-07
1.74154e-06 9.2545e-07 -0.000114883
0.00192582 -0.00052736 6.19006e-06
-0.00052736 9.59722e-05 7.31725e-06
6.19006e-06 7.31725e-06 -0.000147588
0.00194869 -0.000650709 -7.56181e-06
-0.000650709 0.000335211 -2.69522e-06
-7.56181e-06 -2.69522e-06 -2.478e-05
0.00171924 -0.000664686 -5.33012e-07
-0.000664686 0.00011863 1.22175e-07
-5.33012e-07 1.22175e-07 -0.000241943
0.00224215 -0.00077147 8.25932e-06
-0.00077147 0.000422347 1.4141e-06
8.25932e-06 1.4141e-06 3.22547e-05
0.00142572 -0.000491612 -1.09274e-05
-0.000491612 0.000269116 3.20728e-06
-1.09274e-05 3.20728e-06 -6.79873e-05
0.00182615 -0.000676618 -6.31327e-07
-0.000676618 0.000424503 7.77253e-07
-6.31327e-07 7.77253e-07 1.7416e-05
0.00203817 -0.000785021 3.71269e-06
-0.000785021 0.000498444 6.93421e-07
3.71269e-06 6.93421e-07 5.75029e-05
0.000670508 -0.000221114 -8.13102e-06
-0.000221114 9.3133e-06 4.9923e-06
-8.13102e-06 4.9923e-06 -0.000206467
0.00123754 -0.000400127 1.30253e-06
-0.000400127 0.000259854 1.05855e-07
1.30253e-06 1.05855e-07 -3.77051e-05
0.00113877 -0.000511414 -1.9631e-06
-0.000511414 0.000160977 1.93205e-06
-1.9631e-06 1.93205e-06 -0.000202211
0.00048206 -0.000134564 -2.36216e-05
-0.000134564 -5.2849e-05 1.51296e-05
-2.36216e-05 1.51296e-05 -0.000149845
0.00062486 -0.000213272 -2.31667e-06
-0.000213272 4.78062e-05 9.57315e-07
-2.31667e-06 9.57315e-07 -0.000187451
0.000654434 -0.000339463 1.5997e-06
-0.000339463 -5.47442e-06 -5.21427e-07
1.5997e-06 -5.21427e-07 -0.000278354
0.00437829 0.000213363 -8.93725e-05
0.000213363 0.00250356 7.57465e-06
-8.93725e-05 7.57465e-06 0.00247574
0.000540872 -7.59884e-05 1.64036e-06
-7.59884e-05 1.17018e-05 -2.85992e-07
1.64036e-06 -2.85992e-07 -7.06143e-05
0.00164589 -0.000268638 6.24483e-06
-0.000268638 0.000738124 -2.63964e-06
6.24483e-06 -2.63964e-06 0.000500506
0.00256264 0.00013367 5.36584e-05
0.00013367 0.00133583 1.42931e-06
5.36584e-05 1.42931e-06 0.00131102
0.000597126 -3.94445e-05 1.10527e-05
-3.94445e-05 5.45217e-05 -1.33728e-05
1.10527e-05 -1.33728e-05 -1.12649e-05
0.00361565 0.000133438 8.44173e-05
0.000133438 0.00198691 -5.38028e-06
8.44173e-05 -5.38028e-06 0.00198245
0.00185624 0.000363463 3.73024e-06
0.000363463 0.000742966 -4.44734e-06
3.73024e-06 -4.44734e-06 0.00051611
0.000454862 0.000152451 -4.21625e-06
0.000152451 -4.26971e-05 -1.36087e-07
-4.21625e-06 -1.36087e-07 -0.000241938
0.000490807 0.000168872 1.22079e-06
0.000168872 7.31515e-05 -8.11433e-06
1.22079e-06 -8.11433e-06 -0.000168815
0.000390403 0.000136175 -2.61649e-06
0.000136175 2.43485e-05 1.12707e-05
-2.61649e-06 1.12707e-05 -0.000195547
0.000601467 0.00010301 6.52578e-07
0.00010301 0.000160136 1.4116e-07
6.52578e-07 1.4116e-07 -7.02719e-05
0.00105896 0.000118341 9.13123e-08
0.000118341 0.000361985 -9.13196e-06
9.13123e-08 -9.13196e-06 0.000209473
0.000575854 3.40665e-05 -5.25687e-06
3.40665e-05 5.07697e-05 -1.25644e-05
-5.25687e-06 -1.25644e-05 1.87962e-06
0.000680714 6.39767e-05 3.94645e-07
6.39767e-05 0.000139645 -6.38095e-08
3.94645e-07 -6.38095e-08 1.0867e-05
-0.000255235 3.02724e-05 -6.3029e-06
3.02724e-05 -0.000403376 2.97625e-07
-6.3029e-06 2.97625e-07 -0.000583007
0.00292718 -9.90957e-05 -6.14233e-05
-9.90957e-05 0.00154035 -5.2313e-06
-6.14233e-05 -5.2313e-06 0.00154538
0.000410416 1.56676e-05 1.03314e-06
1.56676e-05 -5.28492e-05 -3.19578e-07
1.03314e-06 -3.19578e-07 -9.1334e-05
0.000534386 4.8365e-05 -3.59134e-06
4.8365e-05 5.10023e-05 5.4161e-06
-3.59134e-06 5.4161e-06 -5.88384e-05
0.00270791 -8.69065e-05 -7.44769e-06
-8.69065e-05 0.00139428 6.17957e-07
-7.44769e-06 6.17957e-07 0.00140127
0.000386167 -1.10898e-05 -1.99851e-07
-1.10898e-05 -7.36086e-05 7.64619e-06
-1.99851e-07 7.64619e-06 -0.000104727
0.00251325 -6.82604e-05 2.99076e-05
-6.82604e-05 0.00126472 4.92614e-06
2.99076e-05 4.92614e-06 0.00127516
0.00140414 4.04489e-05 -0.000913146
4.04489e-05 0.00392206 -6.44826e-05
-0.000913146 -6.44826e-05 0.00173715
-0.00582176 0.000149557 3.44616e-05
0.000149557 0.00507899 -5.96471e-06
3.44616e-05 -5.96471e-06 -0.00179092
0.00592129 0.000247673 -0.000271207
0.000247673 0.00356084 -7.29339e-05
-0.000271207 -7.29339e-05 0.00145279
-0.000300645 5.20148e-05 2.88374e-06
5.20148e-05 -0.000483463 -7.19798e-06
2.88374e-06 -7.19798e-06 -0.000685959
0.000387805 9.52617e-05 6.31654e-06
9.52617e-05 -4.57174e-06 7.63245e-06
6.31654e-06 7.63245e-06 -0.00030887
0.00289728 0.000622735 -3.18739e-06
0.000622735 0.00146287 3.90319e-06
-3.18739e-06 3.90319e-06 0.00110065
0.00230194 0.000723175 1.78648e-05
0.000723175 0.000954503 7.96248e-06
1.78648e-05 7.96248e-06 0.000486028
0.000634605 0.000430587 9.33048e-06
0.000430587 0.000213474 4.43789e-06
9.33048e-06 4.43789e-06 -0.00018693
0.0012032 0.000189653 -8.20248e-06
0.000189653 0.000661312 8.2837e-06
-8.20248e-06 8.2837e-06 0.000366246
0.00124037 0.000198842 1.03864e-05
0.000198842 0.000578722 1.12391e-05
1.03864e-05 1.12391e-05 0.000278689
0.000642706 0.000459177 -4.48502e-06
0.000459177 0.000264024 -5.33019e-07
-4.48502e-06 -5.33019e-07 -0.000198774
-1.58343e-05 0.000617209 1.80758e-05
0.000617209 -0.000520313 -1.0686e-05
1.80758e-05 -1.0686e-05 -0.000869393
0.00254983 0.000865017 -8.77365e-06
0.000865017 0.000955431 2.61516e-05
-8.77365e-06 2.61516e-05 0.000707989
0.00150291 0.00090997 3.23067e-05
0.00090997 7.70074e-05 1.07843e-05
3.23067e-05 1.07843e-05 -7.45177e-05
0.00142517 0.000663486 -6.65186e-06
0.000663486 0.000526512 -2.99494e-06
-6.65186e-06 -2.99494e-06 0.00028379
0.00202826 0.000402485 -7.55039e-06
0.000402485 0.00115437 3.43588e-05
-7.55039e-06 3.43588e-05 0.000803313
0.0139244 0.00269559 -0.000128813
0.00269559 0.00165014 6.31181e-05
-0.000128813 6.31181e-05 0.000453737
0.00301321 -0.002171 -0.000596695
-0.002171 0.00396145 -0.000213506
-0.000596695 -0.000213506 0.000711644
0.000232476 -0.00383934 0.000839985
-0.00383934 0.00687886 0.000220588
0.000839985 0.000220588 0.000887156
0.00872032 -0.00314012 0.000329976
-0.00314012 0.00369373 0.000326768
0.000329976 0.000326768 -0.000287103
0.0143183 0.00513081 -0.000113571
0.00513081 0.00466961 -5.19534e-05
-0.000113571 -5.19534e-05 0.000663172
-0.00306375 0.000266346 -5.26296e-05
0.000266346 -3.56934e-05 -5.06296e-05
-5.26296e-05 -5.06296e-05 -0.000477682
0.00211084 0.00199413 -5.93026e-05
0.00199413 0.000526933 -2.32278e-05
-5.93026e-05 -2.32278e-05 0.00132176
0.0171028 0.00490562 1.81346e-05
0.00490562 0.00356327 3.86049e-05
1.81346e-05 3.86049e-05 0.00111529
0.0066157 0.00377896 -9.14388e-05
0.00377896 -0.000204272 -0.000109965
-9.14388e-05 -0.000109965 0.000303192
0.00170421 0.0012458 9.08864e-06
0.0012458 0.000153414 -2.67229e-06
9.08864e-06 -2.67229e-06 -0.000117122
0.00161346 0.000950865 1.05334e-05
0.000950865 0.00046032 -4.17954e-06
1.05334e-05 -4.17954e-06 0.000147338
0.00203949 0.000639275 -2.8147e-05
0.000639275 0.000966113 2.80285e-06
-2.8147e-05 2.80285e-06 0.00078812
0.00263726 0.0016945 -7.35702e-05
0.0016945 0.000738895 -2.71717e-05
-7.35702e-05 -2.71717e-05 -0.000112964
0.00142586 0.00188459 7.90431e-05
0.00188459 -0.000791165 4.07787e-05
7.90431e-05 4.07787e-05 -0.0012382
0.00264527 -0.00029165 -0.000129755
-0.00029165 -0.00508829 5.81814e-05
-0.000129755 5.81814e-05 -0.00533406
0.000662679 -0.0017719 1.16188e-05
-0.0017719 0.0023467 9.77791e-06
1.16188e-05 9.77791e-06 0.00124156
-0.0120143 -0.000297124 0.000332169
-0.000297124 0.0063354 -2.36953e-05
0.000332169 -2.36953e-05 0.000582847
0.000716941 -0.00196223 -6.0634e-05
-0.00196223 -0.000392392 2.41324e-05
-6.0634e-05 2.41324e-05 -0.00125941
0.00592479 -0.00336451 3.03333e-05
-0.00336451 0.000359377 4.78382e-05
3.03333e-05 4.78382e-05 0.000800942
0.00267205 4.52673e-05 0.000985515
4.52673e-05 0.00408669 -0.0002353
0.000985515 -0.0002353 0.00209787
0.0141834 -0.00259132 -0.000294149
-0.00259132 0.00156651 0.000163518
-0.000294149 0.000163518 0.000675483
0.00173335 -0.00146043 -3.04048e-05
-0.00146043 -0.000137768 1.64824e-06
-3.04048e-05 1.64824e-06 -0.000455353
0.01166 -0.000126356 -0.000203109
-0.000126356 -0.00110999 7.19508e-05
-0.000203109 7.19508e-05 -0.00190345
0.00729415 -0.00219688 0.000100056
-0.00219688 -0.000378122 1.09038e-05
0.000100056 1.09038e-05 0.000512042
0.0035762 -0.00124761 6.46432e-05
-0.00124761 0.000298542 -4.54685e-05
6.46432e-05 -4.54685e-05 0.00011828
0.00245712 -0.00082203 3.13219e-06
-0.00082203 -0.00219529 4.84172e-06
3.13219e-06 4.84172e-06 -0.000938722
-0.00515419 -0.000107504 1.31298e-05
-0.000107504 -0.00348992 1.41363e-05
1.31298e-05 1.41363e-05 -0.00346746
0.00148571 -0.000757971 -1.90446e-05
-0.000757971 -0.000266035 1.8453e-06
-1.90446e-05 1.8453e-06 -0.00028344
0.00379285 -0.000806747 3.79295e-05
-0.000806747 0.000757443 -1.53807e-05
3.79295e-05 -1.53807e-05 0.000805684
0.0010183 -0.000813044 -1.01742e-05
-0.000813044 -0.000290337 7.05906e-06
-1.01742e-05 7.05906e-06 -0.000647868
0.00221533 -0.000804188 -3.6651e-06
-0.000804188 2.85571e-05 3.2591e-06
-3.6651e-06 3.2591e-06 -0.000179961
0.00243512 -0.000653199 5.83062e-06
-0.000653199 -1.19339e-05 -1.46778e-06
5.83062e-06 -1.46778e-06 -4.08236e-05
0.00225436 -0.000778154 -3.93985e-06
-0.000778154 0.000240575 1.02178e-05
-3.93985e-06 1.02178e-05 -6.17003e-05
0.00215306 -0.000577526 4.59418e-07
-0.000577526 2.14234e-05 1.43996e-06
4.59418e-07 1.43996e-06 -0.000102838
0.00229571 -0.000572075 -4.3293e-07
-0.000572075 8.31805e-05 3.36864e-07
-4.3293e-07 3.36864e-07 1.77887e-05
0.00192739 -0.000528963 4.90883e-06
-0.000528963 2.65502e-05 6.55904e-06
4.90883e-06 6.55904e-06 -0.000174873
0.00207194 -0.000515076 1.51594e-08
-0.000515076 6.93789e-05 1.32552e-06
1.51594e-08 1.32552e-06 -6.91001e-05
0.00222253 -0.000551833 -2.32149e-06
-0.000551833 0.00014366 1.56214e-06
-2.32149e-06 1.56214e-06 1.49458e-05
0.00205698 -0.00049326 -4.38101e-06
-0.00049326 0.000147939 2.35855e-06
-4.38101e-06 2.35855e-06 -8.622e-06
0.00219162 -0.000491985 -1.34776e-06
-0.000491985 0.000279399 -8.74018e-07
-1.34776e-06 -8.74018e-07 0.000112028
0.00214705 -0.000482217 2.92522e-06
-0.000482217 0.000207977 5.42351e-06
2.92522e-06 5.42351e-06 3.64181e-05
0.00208293 -0.000481404 6.55344e-07
-0.000481404 0.000223315 -6.46667e-07
6.55344e-07 -6.46667e-07 3.2651e-05
0.00198689 -0.000498743 -2.9867e-06
-0.000498743 0.000167558 -2.72865e-06
-2.9867e-06 -2.72865e-06 -4.39378e-05
0.00207419 -0.000556306 -4.55413e-06
-0.000556306 0.000307802 -4.2278e-06
-4.55413e-06 -4.2278e-06 2.52695e-05
0.00210744 -0.000581751 -4.74605e-07
-0.000581751 0.000257235 4.07484e-08
-4.74605e-07 4.07484e-08 -1.74326e-05
0.00219915 -0.000575827 8.0685e-06
-0.000575827 0.000299722 4.2112e-06
8.0685e-06 4.2112e-06 3.59147e-05
0.00161879 -0.000532471 -1.04572e-05
-0.000532471 0.000239452 2.08865e-06
-1.04572e-05 2.08865e-06 -9.84307e-05
0.0018751 -0.000641399 -1.75883e-06
-0.000641399 0.000291181 -2.72196e-07
-1.75883e-06 -2.72196e-07 -6.91356e-05
0.00173909 -0.000673533 6.12062e-06
-0.000673533 0.000116694 2.30795e-06
6.12062e-06 2.30795e-06 -0.000247535
0.000757408 -0.000255611 -1.11298e-05
-0.000255611 -4.22337e-06 7.47231e-06
-1.11298e-05 7.47231e-06 -0.00023161
0.00137328 -0.000487991 7.64932e-07
-0.000487991 0.000238707 2.93352e-07
7.64932e-07 2.93352e-07 -9.77044e-05
0.00192597 -0.000685238 3.21275e-06
-0.000685238 0.000489375 2.31568e-06
3.21275e-06 2.31568e-06 8.14422e-05
0.000353022 -0.000186132 -2.19967e-05
-0.000186132 -0.000142913 1.89608e-05
-2.19967e-05 1.89608e-05 -0.000264553
0.000627089 -0.00022518 -5.10302e-07
-0.00022518 -1.17958e-05 2.48741e-07
-5.10302e-07 2.48741e-07 -0.000233369
0.000993375 -0.00037366 7.28035e-06
-0.00037366 9.91452e-05 -1.38928e-06
7.28035e-06 -1.38928e-06 -0.000193047
0.00519011 0.000168721 -0.000147808
0.000168721 0.00300195 9.80073e-06
-0.000147808 9.80073e-06 0.00298556
0.000502961 -0.00015441 -3.33951e-06
-0.00015441 -3.74951e-05 -8.61939e-07
-3.33951e-06 -8.61939e-07 -0.000140443
0.00120316 -0.000261079 5.76026e-06
-0.000261079 0.000424858 -2.31013e-06
5.76026e-06 -2.31013e-06 0.000173997
0.00459561 0.00018096 2.25802e-05
0.00018096 0.00263631 7.72675e-07
2.25802e-05 7.72675e-07 0.00261651
0.00067395 -0.000100552 2.05714e-05
-0.000100552 9.11925e-05 -1.45416e-05
2.05714e-05 -1.45416e-05 4.35984e-06
0.00409473 0.000140531 0.000115616
0.000140531 0.00229848 -7.49538e-06
0.000115616 -7.49538e-06 0.00229205
0.00217366 0.000602881 5.44797e-06
0.000602881 0.000897406 -1.49784e-06
5.44797e-06 -1.49784e-06 0.000507413
0.000725965 0.000268377 -1.26218e-06
0.000268377 5.05268e-05 -3.29392e-06
-1.26218e-06 -3.29392e-06 -0.000166432
0.000306486 0.00016939 4.36805e-06
0.00016939 -0.000152187 3.48438e-06
4.36805e-06 3.48438e-06 -0.000362429
-0.000743401 4.32174e-05 -2.64705e-06
4.32174e-05 -0.000771835 1.59624e-06
-2.64705e-06 1.59624e-06 -0.000971553
0.000374609 0.00012002 -2.1533e-07
0.00012002 -2.9837e-05 2.24088e-06
-2.1533e-07 2.24088e-06 -0.000252868
0.00101148 0.000109062 3.49166e-07
0.000109062 0.000342806 -1.15401e-05
3.49166e-07 -1.15401e-05 0.000153758
0.000237199 6.22989e-05 -3.37738e-06
6.22989e-05 -8.51626e-05 3.35668e-06
-3.37738e-06 3.35668e-06 -0.000300801
0.000573824 8.72341e-05 -1.44635e-07
8.72341e-05 7.24124e-05 5.44704e-07
-1.44635e-07 5.44704e-07 -8.06929e-05
0.000561936 4.28351e-05 -7.76522e-06
4.28351e-05 4.05186e-05 -1.55375e-05
-7.76522e-06 -1.55375e-05 -2.10313e-05
0.00327094 -0.000107702 -8.80461e-05
-0.000107702 0.00176727 -6.83421e-06
-8.80461e-05 -6.83421e-06 0.00176997
0.000417877 1.43652e-05 1.3418e-06
1.43652e-05 -4.31099e-05 -4.03592e-07
1.3418e-06 -4.03592e-07 -9.27675e-05
0.000406138 5.1774e-05 -3.87312e-06
5.1774e-05 -2.75227e-05 6.90673e-06
-3.87312e-06 6.90673e-06 -0.000154202
0.00286098 -0.000106009 -8.37703e-06
-0.000106009 0.00149936 7.7394e-07
-8.37703e-06 7.7394e-07 0.00150209
0.000303419 -5.24956e-05 -6.91805e-06
-5.24956e-05 -0.000112149 9.6207e-06
-6.91805e-06 9.6207e-06 -0.000154346
0.00267225 -8.72027e-05 3.71666e-05
-8.72027e-05 0.00137149 4.98494e-06
3.71666e-05 4.98494e-06 0.00137812
0.0151176 0.000622496 0.000506863
0.000622496 0.00186588 0.000124251
0.000506863 0.000124251 0.00163189
-0.000938725 -0.00305707 -0.000548085
-0.00305707 -0.00237679 -8.67773e-05
-0.000548085 -8.67773e-05 -0.00477071
-0.00948234 0.00154537 -0.000218943
0.00154537 0.00454653 -0.000127732
-0.000218943 -0.000127732 -0.00258579
0.000142654 4.527e-05 1.64173e-05
4.527e-05 -0.00014703 -7.24913e-06
1.64173e-05 -7.24913e-06 -0.000467318
0.00160397 0.000461545 -8.90218e-06
0.000461545 0.000687139 1.34958e-07
-8.90218e-06 1.34958e-07 0.000357084
0.00251894 0.000635506 -1.07157e-05
0.000635506 0.00131059 -2.65166e-06
-1.07157e-05 -2.65166e-06 0.000863346
0.00145174 0.000615337 1.08563e-06
0.000615337 0.000442798 -9.33011e-07
1.08563e-06 -9.33011e-07 3.06828e-06
0.00149094 0.000673292 1.21512e-05
0.000673292 0.000271691 1.87113e-05
1.21512e-05 1.87113e-05 -0.000149264
-0.000652092 0.000458497 3.30378e-05
0.000458497 -0.000848778 7.31731e-06
3.30378e-05 7.31731e-06 -0.00120344
-0.000102031 0.000341833 -1.3698e-05
0.000341833 -9.85311e-05 1.08542e-05
-1.3698e-05 1.08542e-05 -0.000586646
-0.000351338 0.000561335 9.64477e-06
0.000561335 -0.000730174 -1.41474e-06
9.64477e-06 -1.41474e-06 -0.00106161
0.00227562 0.000831898 7.01032e-06
0.000831898 0.000850268 7.75802e-06
7.01032e-06 7.75802e-06 0.000560074
-0.000486494 0.000568228 6.35598e-06
0.000568228 -0.000934052 -5.09023e-06
6.35598e-06 -5.09023e-06 -0.0011859
0.00379085 0.00107167 6.0617e-06
0.00107167 0.00131875 1.43545e-05
6.0617e-06 1.43545e-05 0.00111309
0.00130752 0.0008992 2.24727e-05
0.0008992 -1.32738e-05 6.27565e-06
2.24727e-05 6.27565e-06 -0.000311703
0.000533919 0.000789132 3.69448e-06
0.000789132 -0.000486118 3.38645e-08
3.69448e-06 3.38645e-08 -0.000561961
0.000630678 0.000538238 -7.28811e-07
0.000538238 6.41048e-05 -5.48883e-05
-7.28811e-07 -5.48883e-05 -0.000147171
0.00494119 0.00181854 2.09206e-05
0.00181854 -0.00167838 2.85601e-05
2.09206e-05 2.85601e-05 -0.000105868
0.0138595 0.0031978 0.000292139
0.0031978 0.000781964 0.000159166
0.000292139 0.000159166 -0.000747529
0.0119217 -0.00452794 0.000564321
-0.00452794 0.00572799 -4.35607e-05
0.000564321 -4.35607e-05 0.00223372
0.00587863 0.0051856 0.000586851
0.0051856 -0.00104195 0.000329693
0.000586851 0.000329693 -0.00516332
0.000126788 0.00137623 -5.72809e-05
0.00137623 0.000162505 2.67409e-06
-5.72809e-05 2.67409e-06 0.000800245
0.00393376 0.00260863 -0.000107496
0.00260863 -0.000660302 -5.45227e-05
-0.000107496 -5.45227e-05 0.00020848
0.00620544 0.00225806 7.08357e-05
0.00225806 0.00117351 3.24182e-05
7.08357e-05 3.24182e-05 0.000920024
0.00441812 0.00163715 2.00787e-05
0.00163715 0.00136208 9.50832e-06
2.00787e-05 9.50832e-06 0.00100849
-0.000131915 0.000707673 -3.05659e-05
0.000707673 -0.000451291 9.34348e-06
-3.05659e-05 9.34348e-06 -0.000691796
0.00712869 0.00259295 -0.000186344
0.00259295 0.00185662 -1.91115e-05
-0.000186344 -1.91115e-05 0.00122549
0.00306844 -0.000549209 1.55559e-05
-0.000549209 -0.000769825 1.71893e-05
1.55559e-05 1.71893e-05 2.99926e-05
0.0115391 -0.000566835 -4.97806e-05
-0.000566835 0.00103114 -1.39348e-05
-4.97806e-05 -1.39348e-05 0.00109302
-0.0127816 -0.00288868 0.000817126
-0.00288868 -0.00514583 1.39242e-06
0.000817126 1.39242e-06 -0.00628764
0.000897582 -0.00126661 -0.000115589
-0.00126661 -0.000456111 3.53962e-05
-0.000115589 3.53962e-05 -0.000730179
0.00871352 -0.00269961 -2.01502e-05
-0.00269961 -0.000369242 9.24261e-05
-2.01502e-05 9.24261e-05 0.000784236
0.00108428 -0.000289956 -0.000297743
-0.000289956 -0.0050879 3.40636e-05
-0.000297743 3.40636e-05 -0.00669383
0.00290646 -0.00107637 3.52903e-05
-0.00107637 -9.1472e-05 7.03545e-07
3.52903e-05 7.03545e-07 2.13668e-05
0.00516359 -0.00076827 -4.9644e-05
-0.00076827 -0.000564911 -7.5723e-07
-4.9644e-05 -7.5723e-07 0.000309423
0.00596204 -0.000924885 4.87133e-05
-0.000924885 0.00134805 -3.45995e-05
4.87133e-05 -3.45995e-05 0.00170927
0.00582771 -0.000485628 0.000112115
-0.000485628 0.00137018 1.67895e-06
0.000112115 1.67895e-06 0.00162121
-0.00335591 -0.000351461 1.01779e-05
-0.000351461 -0.00301478 1.24002e-05
1.01779e-05 1.24002e-05 -0.00274562
0.00208926 -0.000676891 -7.35888e-06
-0.000676891 -0.000227891 2.14065e-06
-7.35888e-06 2.14065e-06 -6.11946e-05
0.00238891 -0.000516274 2.61696e-05
-0.000516274 -0.000216561 -6.49509e-06
2.61696e-05 -6.49509e-06 5.94417e-05
0.00172301 -0.000761549 1.62707e-06
-0.000761549 -0.000237539 6.28251e-06
1.62707e-06 6.28251e-06 -0.000443443
0.0023708 -0.000648517 1.36687e-06
-0.000648517 -4.1669e-05 1.60758e-06
1.36687e-06 1.60758e-06 -7.21433e-05
0.00241296 -0.000568688 2.23287e-06
-0.000568688 1.45588e-05 -5.61677e-07
2.23287e-06 -5.61677e-07 2.08877e-05
0.00217764 -0.000579567 2.61405e-06
-0.000579567 3.3785e-05 5.59457e-06
2.61405e-06 5.59457e-06 -8.93892e-05
0.00224669 -0.00056411 3.05286e-07
-0.00056411 6.74608e-05 4.57512e-07
3.05286e-07 4.57512e-07 -1.19615e-06
0.00223844 -0.000503439 -1.93492e-06
-0.000503439 5.11354e-05 1.99114e-07
-1.93492e-06 1.99114e-07 -1.07227e-05
0.00206386 -0.000515422 3.83563e-06
-0.000515422 6.16211e-05 1.54968e-06
3.83563e-06 1.54968e-06 -7.53504e-05
0.00218311 -0.000544903 -1.23591e-07
-0.000544903 0.000143422 3.97339e-08
-1.23591e-07 3.97339e-08 1.41937e-05
0.00208238 -0.000487823 3.29443e-08
-0.000487823 0.000123456 4.59742e-07
3.29443e-08 4.59742e-07 -9.40307e-06
0.00209099 -0.000502136 -9.9488e-07
-0.000502136 0.00016052 1.67688e-06
-9.9488e-07 1.67688e-06 5.1581e-06
0.00212822 -0.000482449 -1.72629e-06
-0.000482449 0.000234973 2.78978e-07
-1.72629e-06 2.78978e-07 7.10894e-05
0.00218669 -0.000485004 -1.9821e-06
-0.000485004 0.000283133 -6.70132e-07
-1.9821e-06 -6.70132e-07 0.000101947
0.00207205 -0.000479815 4.45091e-06
-0.000479815 0.000215451 2.71479e-06
4.45091e-06 2.71479e-06 2.52984e-05
0.00203408 -0.000502299 -3.15678e-07
-0.000502299 0.000196487 -1.43285e-07
-3.15678e-07 -1.43285e-07 -1.59037e-05
0.00207909 -0.000496889 -1.07202e-06
-0.000496889 0.000271899 -2.73901e-06
-1.07202e-06 -2.73901e-06 3.8082e-05
0.00175145 -0.000487071 -8.82056e-06
-0.000487071 0.000218337 -8.16783e-07
-8.82056e-06 -8.16783e-07 -7.25589e-05
0.0020121 -0.000556887 -7.34652e-07
-0.000556887 0.000268083 -1.19497e-06
-7.34652e-07 -1.19497e-06 -2.03603e-05
0.00217547 -0.00059048 5.13e-06
-0.00059048 0.000302591 2.75585e-06
5.13e-06 2.75585e-06 2.4909e-05
0.000929007 -0.000289234 -1.55624e-05
-0.000289234 -4.24528e-07 7.94026e-06
-1.55624e-05 7.94026e-06 -0.000234932
0.00166871 -0.000530169 -1.06203e-07
-0.000530169 0.000278387 8.42693e-07
-1.06203e-07 8.42693e-07 -5.65726e-05
0.00180474 -0.00063215 3.25728e-06
-0.00063215 0.000249702 2.11217e-06
3.25728e-06 2.11217e-06 -0.000110892
0.000209993 -0.000191382 -1.89368e-05
-0.000191382 -0.000252266 2.00833e-05
-1.89368e-05 2.00833e-05 -0.000383809
0.000783599 -0.000264341 8.79425e-07
-0.000264341 7.89949e-06 2.04675e-07
8.79425e-07 2.04675e-07 -0.000223921
0.00132499 -0.000484026 1.11788e-05
-0.000484026 0.000212359 -1.96125e-06
1.11788e-05 -1.96125e-06 -0.000123191
0.00626949 9.26215e-05 -0.00022436
9.26215e-05 0.00364701 1.41419e-05
-0.00022436 1.41419e-05 0.00364615
0.000374756 -0.000193773 -1.37635e-06
-0.000193773 -0.000128961 -1.42451e-07
-1.37635e-06 -1.42451e-07 -0.000251581
0.000619992 -0.000229467 9.67668e-06
-0.000229467 -1.1095e-05 -6.21496e-06
9.67668e-06 -6.21496e-06 -0.000237639
0.00565165 0.00011993 -5.30616e-06
0.00011993 0.00328314 -1.64048e-06
-5.30616e-06 -1.64048e-06 0.003275
0.000418513 -0.000152283 1.9894e-05
-0.000152283 -8.25143e-05 -1.70318e-05
1.9894e-05 -1.70318e-05 -0.000192158
0.00499219 0.000115223 0.000179872
0.000115223 0.0028744 -1.64728e-05
0.000179872 -1.64728e-05 0.00286872
0.00176614 0.000625694 -3.83069e-06
0.000625694 0.000490891 3.50094e-06
-3.83069e-06 3.50094e-06 9.61561e-05
0.00177746 0.000556231 -1.35203e-06
0.000556231 0.000629049 -1.40591e-06
-1.35203e-06 -1.40591e-06 0.000256086
0.000818974 0.000328342 -9.28899e-07
0.000328342 5.09829e-05 -3.02869e-06
-9.28899e-07 -3.02869e-06 -0.000224764
0.00107381 0.000326538 -9.14313e-06
0.000326538 0.000308266 -2.75401e-06
-9.14313e-06 -2.75401e-06 6.39655e-05
0.000204606 0.000169438 2.14785e-06
0.000169438 -0.000204988 -2.1102e-07
2.14785e-06 -2.1102e-07 -0.000421809
0.000981014 0.000253797 -2.22622e-06
0.000253797 0.000321759 -6.82813e-06
-2.22622e-06 -6.82813e-06 8.83368e-05
-2.18824e-05 7.07064e-05 -7.02643e-07
7.07064e-05 -0.000293997 3.50742e-06
-7.02643e-07 3.50742e-06 -0.000504767
0.000665506 0.000131346 9.06819e-07
0.000131346 0.000140693 -4.16401e-07
9.06819e-07 -4.16401e-07 -5.54914e-05
0.000734901 7.85943e-05 -1.50642e-05
7.85943e-05 0.000137374 -1.7592e-05
-1.50642e-05 -1.7592e-05 5.90148e-05
0.000330452 5.88262e-05 -3.07739e-06
5.88262e-05 -6.13232e-05 1.01945e-05
-3.07739e-06 1.01945e-05 -0.000221454
0.000525677 5.02411e-05 2.02199e-07
5.02411e-05 2.26361e-05 -2.38982e-07
2.02199e-07 -2.38982e-07 -3.83617e-05
0.00392799 -0.000128604 -0.000114796
-0.000128604 0.00219579 -9.26445e-06
-0.000114796 -9.26445e-06 0.00219197
0.00325174 -0.000127751 -1.09137e-05
-0.000127751 0.00175819 9.63734e-07
-1.09137e-05 9.63734e-07 0.00175534
0.000363801 4.15169e-05 5.57317e-06
4.15169e-05 -7.57973e-05 1.24195e-05
5.57317e-06 1.24195e-05 -0.000124138
0.00283997 -0.000106863 4.54675e-05
-0.000106863 0.00148617 5.01329e-06
4.54675e-05 5.01329e-06 0.00148844
0.00396735 0.000170336 9.13241e-05
0.000170336 -0.00131767 3.03058e-05
9.13241e-05 3.03058e-05 0.000229962
0.00533783 -0.000933062 0.000184501
-0.000933062 -0.00448886 8.645e-05
0.000184501 8.645e-05 -0.00535972
0.0129882 -0.00330342 -0.000235353
-0.00330342 0.00531664 -0.000104383
-0.000235353 -0.000104383 0.00381196
0.00148742 0.000650755 6.5043e-06
0.000650755 7.44529e-05 8.898e-06
6.5043e-06 8.898e-06 -0.000282275
0.00477572 0.000877036 -1.33764e-05
0.000877036 0.00261402 7.85658e-07
-1.33764e-05 7.85658e-07 0.00212714
0.000662605 0.000514339 -9.88725e-06
0.000514339 -3.14111e-05 -5.90967e-06
-9.88725e-06 -5.90967e-06 -0.000443606
0.00149973 0.000718724 1.42174e-06
0.000718724 0.000439791 -2.70076e-06
1.42174e-06 -2.70076e-06 2.70092e-05
0.00170119 0.000697163 -1.76299e-06
0.000697163 0.000423304 3.69572e-06
-1.76299e-06 3.69572e-06 -9.31671e-06
0.00157442 0.00076405 2.39791e-05
0.00076405 0.000281554 1.31424e-05
2.39791e-05 1.31424e-05 -9.15012e-05
0.00264645 0.000887202 -4.46065e-05
0.000887202 0.00106996 -2.06035e-06
-4.46065e-05 -2.06035e-06 0.000653468
0.000486651 0.00064087 1.70376e-05
0.00064087 -0.000143993 -3.60382e-05
1.70376e-05 -3.60382e-05 -0.000422488
0.00200823 0.000886498 1.19961e-06
0.000886498 0.000492005 -1.93811e-06
1.19961e-06 -1.93811e-06 0.000170693
0.00215003 0.000909004 8.96782e-06
0.000909004 0.000315612 -6.88105e-07
8.96782e-06 -6.88105e-07 0.00025184
0.00218183 0.000927226 1.52261e-05
0.000927226 0.000305162 -2.8437e-06
1.52261e-05 -2.8437e-06 -1.90719e-05
0.0018614 0.000793781 2.38832e-05
0.000793781 0.000218124 2.29832e-05
2.38832e-05 2.29832e-05 2.23142e-05
0.000876871 0.000851439 -6.23396e-06
0.000851439 -0.000242739 -6.27688e-06
-6.23396e-06 -6.27688e-06 -0.000520121
0.0004584 0.00077477 -1.93795e-05
0.00077477 -0.00052006 -2.49925e-05
-1.93795e-05 -2.49925e-05 -0.000582323
0.00129202 0.000809151 5.4162e-05
0.000809151 -0.00114555 3.70673e-05
5.4162e-05 3.70673e-05 -0.000753051
0.00610344 0.00188451 -9.36805e-05
0.00188451 -0.00130379 -2.81374e-05
-9.36805e-05 -2.81374e-05 0.000202563
0.00427365 0.00214589 0.000576325
0.00214589 -0.00463445 0.000126295
0.000576325 0.000126295 -0.00628169
0.00222878 0.00208285 -0.000177843
0.00208285 -0.000718811 -7.03991e-05
-0.000177843 -7.03991e-05 4.88359e-05
0.00467753 0.00183973 -3.08728e-05
0.00183973 0.000806341 -9.54691e-06
-3.08728e-05 -9.54691e-06 0.000643852
0.00521266 0.00174952 -0.000152348
0.00174952 0.00167368 -3.87879e-05
-0.000152348 -3.87879e-05 0.00129927
0.00248264 -0.000239045 -6.1847e-05
-0.000239045 -0.000762472 -1.90781e-05
-6.1847e-05 -1.90781e-05 -0.000370547
-0.000645188 -0.000305014 9.16696e-05
-0.000305014 -0.0013885 1.9592e-05
9.16696e-05 1.9592e-05 -0.000406729
0.00355627 0.000797669 0.000227935
0.000797669 -0.00514149 -1.93991e-05
0.000227935 -1.93991e-05 -0.00534485
0.000468466 -0.00081169 -5.20751e-05
-0.00081169 -0.00131912 7.63418e-05
-5.20751e-05 7.63418e-05 -0.00101209
0.00678642 -0.000859047 -0.000171933
-0.000859047 0.000365735 4.83147e-05
-0.000171933 4.83147e-05 0.000774016
0.00260349 -0.000679137 -2.01402e-05
-0.000679137 -0.000480117 1.19154e-05
-2.01402e-05 1.19154e-05 -3.69412e-05
0.00429225 -0.000486006 -9.37471e-06
-0.000486006 0.000488396 -2.92425e-06
-9.37471e-06 -2.92425e-06 0.00067914
0.00285464 -0.000385747 6.58463e-05
-0.000385747 -5.03231e-05 -8.5544e-06
6.58463e-05 -8.5544e-06 0.000304331
0.00377806 -0.00011071 5.03177e-05
-0.00011071 0.00111029 2.5166e-06
5.03177e-05 2.5166e-06 0.0011315
0.000366754 -0.000534381 -2.23732e-05
-0.000534381 -0.00119754 1.39872e-05
-2.23732e-05 1.39872e-05 -0.000918192
0.00220094 -0.000533351 -2.66651e-06
-0.000533351 -0.000352865 1.6108e-06
-2.66651e-06 1.6108e-06 -8.38153e-05
0.00244438 -0.000449589 5.05893e-06
-0.000449589 -0.000190219 -1.37699e-06
5.05893e-06 -1.37699e-06 3.01599e-05
0.00229898 -0.000638348 -2.19817e-06
-0.000638348 -6.99309e-05 3.93789e-06
-2.19817e-06 3.93789e-06 -9.89788e-05
0.00239728 -0.000556136 9.90858e-09
-0.000556136 2.44419e-05 -3.7279e-07
9.90858e-09 -3.7279e-07 3.57571e-05
0.00230936 -0.000439581 -4.88344e-07
-0.000439581 -1.89555e-05 -1.84278e-07
-4.88344e-07 -1.84278e-07 -3.02834e-06
0.00219222 -0.000554298 -2.56696e-07
-0.000554298 4.98648e-05 9.78987e-07
-2.56696e-07 9.78987e-07 -2.04001e-05
0.00223129 -0.000508524 -8.84427e-07
-0.000508524 5.78024e-05 6.50875e-08
-8.84427e-07 6.50875e-08 -4.55269e-06
0.00213233 -0.000431015 -1.34474e-06
-0.000431015 7.00204e-05 9.22214e-07
-1.34474e-06 9.22214e-07 -8.90155e-06
0.00213295 -0.000537052 6.20894e-07
-0.000537052 0.000136687 -1.06005e-06
6.20894e-07 -1.06005e-06 7.6759e-06
0.00206924 -0.000488306 1.00017e-06
-0.000488306 0.00011188 -4.8903e-07
1.00017e-06 -4.8903e-07 -2.15434e-05
0.00204236 -0.00045026 -7.93727e-07
-0.00045026 0.000137994 -1.71352e-07
-7.93727e-07 -1.71352e-07 -1.27925e-05
0.00206119 -0.000472973 -1.41341e-06
-0.000472973 0.000188759 1.59379e-06
-1.41341e-06 1.59379e-06 2.83156e-05
0.00215184 -0.000480768 -1.72043e-06
-0.000480768 0.000254149 6.72636e-07
-1.72043e-06 6.72636e-07 7.67333e-05
0.00217205 -0.000472822 -1.09621e-06
-0.000472822 0.000290761 -2.05988e-06
-1.09621e-06 -2.05988e-06 9.01997e-05
0.00207744 -0.000505901 2.73161e-06
-0.000505901 0.000222512 2.88875e-06
2.73161e-06 2.88875e-06 9.19096e-06
0.00208569 -0.000499327 3.9514e-07
-0.000499327 0.000276085 -4.27529e-07
3.9514e-07 -4.27529e-07 4.26566e-05
0.00185542 -0.000435339 -6.0863e-06
-0.000435339 0.000240872 1.90868e-07
-6.0863e-06 1.90868e-07 -1.14385e-05
0.00108489 -0.000297106 -1.90644e-05
-0.000297106 2.38707e-05 8.18049e-06
-1.90644e-05 8.18049e-06 -0.000206502
0.00173335 -0.000483603 -1.15747e-06
-0.000483603 0.000215504 -5.31557e-07
-1.15747e-06 -5.31557e-07 -7.73248e-05
0.001942 -0.000557095 2.83729e-06
-0.000557095 0.00022268 1.54156e-06
2.83729e-06 1.54156e-06 -7.16744e-05
0.000331287 -0.000232373 -2.21218e-05
-0.000232373 -0.000188408 1.93579e-05
-2.21218e-05 1.93579e-05 -0.000335871
0.000913352 -0.000291722 1.37634e-06
-0.000291722 -1.91009e-05 -5.08955e-08
1.37634e-06 -5.08955e-08 -0.000255386
0.00169899 -0.00052703 9.3278e-06
-0.00052703 0.000302787 -2.94955e-07
9.3278e-06 -2.94955e-07 -2.92118e-05
0.00692887 4.75079e-05 -0.000266987
4.75079e-05 0.00403681 1.88924e-05
-0.000266987 1.88924e-05 0.00404171
0.000443969 -0.000247548 -1.6714e-06
-0.000247548 -9.8993e-05 7.95211e-07
-1.6714e-06 7.95211e-07 -0.000242162
0.000738352 -0.000272848 1.25209e-05
-0.000272848 -2.51177e-05 -7.08928e-06
1.25209e-05 -7.08928e-06 -0.000261938
0.00646156 7.61256e-05 -5.1509e-06
7.61256e-05 0.00376993 -2.48335e-07
-5.1509e-06 -2.48335e-07 0.00376786
0.000598181 -0.000240174 2.63454e-05
-0.000240174 7.78765e-06 -1.96183e-05
2.63454e-05 -1.96183e-05 -0.000117056
0.00592028 0.000137251 0.000207771
0.000137251 0.00347357 -2.53558e-05
0.000207771 -2.53558e-05 0.00345344
0.00159168 0.000595921 -1.55605e-06
0.000595921 0.000201587 5.71501e-06
-1.55605e-06 5.71501e-06 -0.0001541
0.00169727 0.000625291 -1.75588e-06
0.000625291 0.000436661 4.16492e-07
-1.75588e-06 4.16492e-07 3.91832e-05
0.00125037 0.000444052 -7.54476e-06
0.000444052 0.000197585 -4.71672e-07
-7.54476e-06 -4.71672e-07 -0.000114356
0.00141037 0.000515126 -4.1534e-06
0.000515126 0.00037145 -8.93326e-07
-4.1534e-06 -8.93326e-07 1.4402e-05
0.000956591 0.000324369 -3.84888e-06
0.000324369 0.000133029 -1.99764e-06
-3.84888e-06 -1.99764e-06 -0.000136189
0.00126222 0.000260401 -8.91724e-06
0.000260401 0.000425846 -2.40731e-06
-8.91724e-06 -2.40731e-06 0.000192774
-0.000155519 0.000122805 -3.52506e-06
0.000122805 -0.000444007 -1.33586e-06
-3.52506e-06 -1.33586e-06 -0.000652784
0.000869271 0.000168859 -9.90007e-07
0.000168859 0.000232706 -4.72474e-07
-9.90007e-07 -4.72474e-07 1.41024e-05
0.0005496 0.000123579 -2.29217e-05
0.000123579 -1.98647e-06 -1.81666e-05
-2.29217e-05 -1.81666e-05 -9.29892e-05
0.000342637 9.83667e-05 7.71657e-07
9.83667e-05 -7.25507e-05 1.07242e-05
7.71657e-07 1.07242e-05 -0.000254372
0.000431744 7.26965e-05 -6.7727e-07
7.26965e-05 -4.61725e-05 -3.40354e-07
-6.7727e-07 -3.40354e-07 -0.000119696
0.00449212 -0.000151075 -0.000136128
-0.000151075 0.00256679 -1.25993e-05
-0.000136128 -1.25993e-05 0.00255412
0.0002815 5.38262e-05 8.47042e-06
5.38262e-05 -0.0001249 1.52875e-05
8.47042e-06 1.52875e-05 -0.000184459
0.00374713 -0.000147883 -1.07762e-05
-0.000147883 0.00208604 1.1104e-06
-1.07762e-05 1.1104e-06 0.0020769
0.00311251 -0.000132668 5.36851e-05
-0.000132668 0.00167022 5.41491e-06
5.36851e-05 5.41491e-06 0.00166553
0.000617774 0.00016226 -2.54714e-06
0.00016226 -0.00180857 9.54806e-06
-2.54714e-06 9.54806e-06 -0.00107632
0.00506842 5.61516e-05 6.65548e-05
5.61516e-05 -0.000769907 1.95353e-05
6.65548e-05 1.95353e-05 0.000663537
0.0144901 0.000830806 -1.66184e-05
0.000830806 0.00217318 1.55633e-05
-1.66184e-05 1.55633e-05 0.00200666
0.00194452 0.000765686 -2.29033e-07
0.000765686 0.000318456 5.19524e-06
-2.29033e-07 5.19524e-06 -3.19397e-05
0.00217294 0.000735176 -1.17949e-06
0.000735176 0.000293275 3.88268e-06
-1.17949e-06 3.88268e-06 -2.02801e-05
0.00153382 0.000658971 -5.23904e-07
0.000658971 0.000113245 -3.70403e-06
-5.23904e-07 -3.70403e-06 -0.000241431
0.00285588 0.000886559 -1.48101e-05
0.000886559 0.00123902 2.80578e-06
-1.48101e-05 2.80578e-06 0.000794693
0.00197957 0.000727744 -6.75217e-06
0.000727744 0.000618404 -9.74967e-06
-6.75217e-06 -9.74967e-06 0.00017194
0.00204322 0.000838163 7.30962e-06
0.000838163 0.000515567 3.5008e-06
7.30962e-06 3.5008e-06 0.000136186
0.0019947 0.00084115 -1.79924e-06
0.00084115 0.000138651 -3.44415e-06
-1.79924e-06 -3.44415e-06 -0.000174263
0.00238947 0.000952458 -1.93262e-05
0.000952458 0.000656172 5.54124e-06
-1.93262e-05 5.54124e-06 0.000329028
0.00101273 0.000792663 -1.4457e-05
0.000792663 -0.000405957 1.4208e-05
-1.4457e-05 1.4208e-05 -0.000340264
0.00274455 0.000989835 9.24398e-07
0.000989835 0.000633399 3.79134e-06
9.24398e-07 3.79134e-06 0.000297307
0.00269371 0.000848725 -4.34058e-06
0.000848725 0.000401356 3.80202e-06
-4.34058e-06 3.80202e-06 0.000166346
0.00127907 0.00040956 3.88679e-05
0.00040956 -0.000299852 1.75753e-05
3.88679e-05 1.75753e-05 -0.000237236
0.000386091 0.000656827 9.39368e-06
0.000656827 -0.00055558 -4.62472e-06
9.39368e-06 -4.62472e-06 -0.000735194
0.000952802 0.00085715 -3.59616e-05
0.00085715 -0.000198554 -3.6206e-06
-3.59616e-05 -3.6206e-06 -0.000480379
0.00308407 0.000955412 8.09313e-06
0.000955412 -0.000165665 8.35033e-06
8.09313e-06 8.35033e-06 8.53535e-05
0.00723763 0.00151183 -2.82197e-05
0.00151183 -0.000724685 -4.2648e-05
-2.82197e-05 -4.2648e-05 0.000418436
0.00444039 0.00154478 -4.65071e-05
0.00154478 0.00110016 -5.69884e-05
-4.65071e-05 -5.69884e-05 0.00101059
0.00218345 -9.02673e-05 3.9167e-05
-9.02673e-05 -2.88635e-05 3.54573e-06
3.9167e-05 3.54573e-06 0.000152038
0.00292677 -0.000244927 -6.17124e-05
-0.000244927 -0.0004497 3.70792e-06
-6.17124e-05 3.70792e-06 -2.12036e-05
0.00419793 0.000389535 2.28099e-05
0.000389535 -0.000169701 -1.9895e-05
2.28099e-05 -1.9895e-05 0.00053311
0.000923043 -0.00057747 -7.23997e-05
-0.00057747 -0.00135896 5.34182e-05
-7.23997e-05 5.34182e-05 -0.000899002
0.00272514 -0.000533222 -0.000100595
-0.000533222 -0.000389763 -1.82408e-06
-0.000100595 -1.82408e-06 -0.000257382
0.00270064 -0.000382975 8.67104e-06
-0.000382975 -5.44008e-05 -3.26441e-06
8.67104e-06 -3.26441e-06 0.000302621
0.00256102 -0.0001045 -1.67788e-05
-0.0001045 0.000301415 7.09127e-07
-1.67788e-05 7.09127e-07 0.000348426
0.00249951 -0.000248075 1.5377e-05
-0.000248075 -1.73217e-05 -2.32532e-07
1.5377e-05 -2.32532e-07 0.000134073
0.002381 8.50208e-06 1.12139e-05
8.50208e-06 -5.96846e-05 3.20557e-06
1.12139e-05 3.20557e-06 1.19865e-05
0.00215286 -0.000559657 -1.88707e-05
-0.000559657 -0.000408194 5.72614e-06
-1.88707e-05 5.72614e-06 -0.000153455
0.00246295 -0.000465823 -2.70784e-06
-0.000465823 -0.000176465 6.95976e-07
-2.70784e-06 6.95976e-07 6.73468e-06
0.0023798 -0.000323811 3.48065e-07
-0.000323811 -9.743e-05 -9.03596e-07
3.48065e-07 -9.03596e-07 2.35838e-06
0.00237525 -0.000544342 -4.06195e-06
-0.000544342 2.74476e-05 9.34694e-07
-4.06195e-06 9.34694e-07 4.33578e-05
0.00231213 -0.000436659 -4.11174e-08
-0.000436659 -4.33492e-06 -1.77181e-07
-4.11174e-08 -1.77181e-07 6.92977e-06
0.00221307 -0.00036189 -4.60425e-07
-0.00036189 1.30054e-05 4.66324e-07
-4.60425e-07 4.66324e-07 1.87764e-07
0.00222997 -0.000514092 -5.37556e-07
-0.000514092 6.75281e-05 -7.23637e-07
-5.37556e-07 -7.23637e-07 4.28585e-06
0.00213663 -0.000430442 4.88915e-07
-0.000430442 6.84879e-05 -1.51466e-07
4.88915e-07 -1.51466e-07 -1.02577e-05
0.00208873 -0.000392902 -2.03582e-06
-0.000392902 0.000102001 7.36947e-07
-2.03582e-06 7.36947e-07 -3.41317e-06
0.00205966 -0.000488873 2.21262e-06
-0.000488873 0.000102553 -1.34078e-06
2.21262e-06 -1.34078e-06 -3.14323e-05
0.00203037 -0.000449068 6.38325e-07
-0.000449068 0.000126835 -4.72766e-07
6.38325e-07 -4.72766e-07 -2.42068e-05
0.00203924 -0.000423028 -8.60654e-07
-0.000423028 0.000165031 -1.32076e-06
-8.60654e-07 -1.32076e-06 -4.99519e-06
0.00211347 -0.00047639 -7.47326e-07
-0.00047639 0.000222699 2.28682e-06
-7.47326e-07 2.28682e-06 4.90745e-05
0.00213381 -0.000471287 -4.64168e-07
-0.000471287 0.000268113 -2.07395e-07
-4.64168e-07 -2.07395e-07 6.83387e-05
0.00184009 -0.000401045 -4.34064e-06
-0.000401045 0.000184638 9.1427e-08
-4.34064e-06 9.1427e-08 -4.18078e-05
0.00209652 -0.000502033 2.31937e-06
-0.000502033 0.000283042 2.37285e-06
2.31937e-06 2.37285e-06 4.99519e-05
0.00190139 -0.000440565 -8.71111e-07
-0.000440565 0.000269525 1.88407e-08
-8.71111e-07 1.88407e-08 1.80162e-05
0.00110201 -0.000269225 -1.78915e-05
-0.000269225 -2.38728e-06 7.65935e-06
-1.78915e-05 7.65935e-06 -0.000217309
0.000286938 -0.000201958 -1.95966e-05
-0.000201958 -0.00023584 1.75483e-05
-1.95966e-05 1.75483e-05 -0.00037435
0.00105628 -0.000296497 6.99981e-07
-0.000296497 5.02736e-06 -2.25849e-08
6.99981e-07 -2.25849e-08 -0.000225721
0.00174224 -0.000482607 6.69316e-06
-0.000482607 0.000229063 -6.56003e-07
6.69316e-06 -6.56003e-07 -6.61402e-05
0.00732871 -3.74119e-05 -0.000307267
-3.74119e-05 0.00426128 2.32969e-05
-0.000307267 2.32969e-05 0.00427476
0.000349612 -0.000231478 -1.1968e-06
-0.000231478 -0.000186566 1.51775e-06
-1.1968e-06 1.51775e-06 -0.000328959
0.000888725 -0.000292163 1.50611e-05
-0.000292163 -4.23467e-05 -6.71259e-06
1.50611e-05 -6.71259e-06 -0.000280249
0.0071364 1.61132e-05 -9.69762e-07
1.61132e-05 0.0041639 6.51723e-07
-9.69762e-07 6.51723e-07 0.00417013
0.000527057 -0.000250964 2.47792e-05
-0.000250964 -5.31427e-05 -2.05259e-05
2.47792e-05 -2.05259e-05 -0.000196598
0.00678003 3.97576e-05 0.000272435
3.97576e-05 0.00396071 -2.49094e-05
0.000272435 -2.49094e-05 0.00396304
0.00188833 0.00065349 -1.31096e-06
0.00065349 0.00023798 6.09831e-06
-1.31096e-06 6.09831e-06 -8.92286e-05
0.00165656 0.000608068 -1.27734e-07
0.000608068 0.000246178 8.20523e-07
-1.27734e-07 8.20523e-07 -0.000110107
0.00156089 0.000502687 -8.77416e-06
0.000502687 0.000277633 4.10543e-07
-8.77416e-06 4.10543e-07 -4.3051e-05
0.00152024 0.000610341 6.31936e-08
0.000610341 0.000319594 -2.60716e-06
6.31936e-08 -2.60716e-06 -7.66479e-05
0.00129777 0.00044282 -1.28919e-06
0.00044282 0.000234639 -3.12906e-08
-1.28919e-06 -3.12906e-08 -7.55303e-05
0.00100482 0.000251749 -1.23167e-05
0.000251749 0.000174182 -4.07219e-06
-1.23167e-05 -4.07219e-06 -4.58426e-05
0.00124318 0.000330702 8.62742e-07
0.000330702 0.000313385 -1.56402e-06
8.62742e-07 -1.56402e-06 4.84529e-05
0.000520742 0.000202819 6.54015e-07
0.000202819 -3.82276e-05 1.41338e-06
6.54015e-07 1.41338e-06 -0.00026313
0.000425232 0.000194854 -2.81047e-05
0.000194854 -9.54902e-05 -1.92353e-05
-2.81047e-05 -1.92353e-05 -0.000204106
0.000155195 0.000110606 1.04091e-06
0.000110606 -0.000203112 6.31836e-06
1.04091e-06 6.31836e-06 -0.000424767
0.000554292 0.000107703 -8.34154e-07
0.000107703 6.02809e-06 -5.61241e-07
-8.34154e-07 -5.61241e-07 -8.32152e-05
0.00547972 -0.000167192 -0.000179838
-0.000167192 0.00320462 -1.79362e-05
-0.000179838 -1.79362e-05 0.00318312
0.000394664 6.99316e-05 1.30772e-05
6.99316e-05 -6.42016e-05 1.79807e-05
1.30772e-05 1.79807e-05 -0.000136211
0.00438662 -0.000174804 -1.07053e-05
-0.000174804 0.00250646 1.27357e-06
-1.07053e-05 1.27357e-06 0.00248815
0.00358845 -0.000159936 7.39496e-05
-0.000159936 0.00198822 6.6151e-06
7.39496e-05 6.6151e-06 0.0019752
0.00151211 0.000178888 3.17202e-05
0.000178888 -0.000321015 1.77469e-05
3.17202e-05 1.77469e-05 -8.82443e-05
0.00263475 0.000216303 -2.13715e-05
0.000216303 -0.00103866 -2.36113e-06
-2.13715e-05 -2.36113e-06 -0.000240908
0.00422082 0.000315958 0.000223225
0.000315958 -0.00170692 6.47863e-05
0.000223225 6.47863e-05 0.000202019
0.00260277 0.000790391 -8.89534e-06
0.000790391 0.000504321 1.47327e-07
-8.89534e-06 1.47327e-07 0.000203109
0.00181996 0.000774784 -6.28716e-06
0.000774784 0.000224528 -4.9112e-06
-6.28716e-06 -4.9112e-06 -0.000122551
0.00221206 0.000595247 1.10889e-06
0.000595247 0.000189624 4.7038e-06
1.10889e-06 4.7038e-06 -3.91557e-05
0.00218107 0.000725763 1.40342e-06
0.000725763 0.000301026 4.77987e-07
1.40342e-06 4.77987e-07 -9.79409e-06
0.00153655 0.000662633 3.13766e-06
0.000662633 0.000124219 -1.12069e-05
3.13766e-06 -1.12069e-05 -0.000227468
0.00219258 0.000656227 -2.70136e-06
0.000656227 7.05541e-05 8.57278e-07
-2.70136e-06 8.57278e-07 -0.000132468
0.00278279 0.000944839 -9.40653e-06
0.000944839 0.000910285 -3.95043e-06
-9.40653e-06 -3.95043e-06 0.000515843
0.00243308 0.000866918 6.45473e-07
0.000866918 0.000403558 1.26695e-07
6.45473e-07 1.26695e-07 8.07747e-05
0.00208649 0.000434365 -1.34183e-05
0.000434365 -0.000163828 -1.21426e-06
-1.34183e-05 -1.21426e-06 -0.000157875
0.00347168 0.00108199 -6.35439e-06
0.00108199 0.00103363 6.77061e-06
-6.35439e-06 6.77061e-06 0.000685465
0.00252708 0.000835285 4.27468e-07
0.000835285 0.000306986 -7.17416e-07
4.27468e-07 -7.17416e-07 6.95927e-05
0.000674172 0.000400251 -1.01957e-06
0.000400251 -0.000636491 1.5687e-06
-1.01957e-06 1.5687e-06 -0.00056053
-0.00123295 0.000505085 -2.48551e-05
0.000505085 -0.00139334 -1.04868e-05
-2.48551e-05 -1.04868e-05 -0.00154375
0.00380839 0.00106802 -0.000128159
0.00106802 0.000200737 -4.20996e-05
-0.000128159 -4.20996e-05 0.000336382
0.00219577 0.000107297 -1.22155e-06
0.000107297 -0.00018971 -3.39569e-07
-1.22155e-06 -3.39569e-07 -8.51251e-05
0.00273311 -8.38809e-05 5.77903e-06
-8.38809e-05 0.000409524 -7.34973e-07
5.77903e-06 -7.34973e-07 0.000529074
0.00278405 -0.000266953 -9.93188e-05
-0.000266953 -0.000495016 4.2287e-06
-9.93188e-05 4.2287e-06 -4.59273e-05
0.00208069 -0.000367612 -7.4792e-05
-0.000367612 -0.000342163 7.25046e-06
-7.4792e-05 7.25046e-06 1.8184e-05
0.0012757 -0.0001127 -1.4889e-05
-0.0001127 -0.000543313 1.78151e-07
-1.4889e-05 1.78151e-07 -0.000474566
0.00249421 -0.000253043 1.67276e-06
-0.000253043 -4.34872e-05 -1.94271e-06
1.67276e-06 -1.94271e-06 0.00013255
0.00243097 1.2216e-05 -2.9929e-06
1.2216e-05 -5.62894e-05 4.61174e-07
-2.9929e-06 4.61174e-07 1.72687e-05
0.0024117 -7.79893e-05 6.36104e-07
-7.79893e-05 -9.04993e-05 -8.75714e-07
6.36104e-07 -8.75714e-07 1.77527e-05
0.00248132 -0.000478986 -6.1878e-06
-0.000478986 -0.00015569 9.32009e-07
-6.1878e-06 9.32009e-07 -1.02454e-05
0.00233342 -0.000312371 3.79074e-07
-0.000312371 -0.00010753 -2.53641e-07
3.79074e-07 -2.53641e-07 -1.65599e-05
0.0022589 -0.000239666 5.58534e-07
-0.000239666 -2.76918e-05 -2.43562e-07
5.58534e-07 -2.43562e-07 2.45267e-05
0.00231578 -0.000433955 -4.46186e-07
-0.000433955 1.15078e-05 1.33795e-07
-4.46186e-07 1.33795e-07 1.79132e-05
0.00220439 -0.000358439 8.01645e-08
-0.000358439 1.17609e-05 2.04133e-07
8.01645e-08 2.04133e-07 -2.32819e-06
0.00210863 -0.000304899 -2.73455e-06
-0.000304899 5.17739e-05 8.88528e-07
-2.73455e-06 8.88528e-07 5.25606e-06
0.00213934 -0.000429723 1.91809e-06
-0.000429723 6.57579e-05 -1.10682e-06
1.91809e-06 -1.10682e-06 -1.27838e-05
0.00208026 -0.000391457 6.55462e-07
-0.000391457 9.36656e-05 -2.45718e-07
6.55462e-07 -2.45718e-07 -1.17703e-05
0.00207248 -0.000363242 -1.36755e-06
-0.000363242 0.000145032 -5.65179e-07
-1.36755e-06 -5.65179e-07 1.09924e-05
0.00201764 -0.000447911 1.73843e-06
-0.000447911 0.000115107 -6.2246e-07
1.73843e-06 -6.2246e-07 -3.62e-05
0.00207177 -0.000425134 -3.06532e-07
-0.000425134 0.000186447 -1.57576e-07
-3.06532e-07 -1.57576e-07 1.58279e-05
0.00189557 -0.00036386 -2.21569e-06
-0.00036386 0.000172322 -3.10228e-07
-2.21569e-06 -3.10228e-07 -2.72207e-05
0.00209528 -0.000469574 6.77753e-07
-0.000469574 0.000245184 1.67973e-06
6.77753e-07 1.67973e-06 4.62793e-05
0.00186887 -0.000402967 -6.14915e-07
-0.000402967 0.000203692 1.38798e-07
-6.14915e-07 1.38798e-07 -2.26058e-05
0.00110991 -0.000237655 -1.4758e-05
-0.000237655 -1.97706e-05 6.56609e-06
-1.4758e-05 6.56609e-06 -0.000219885
0.00193865 -0.00044511 5.3205e-06
-0.00044511 0.000292581 2.70467e-08
5.3205e-06 2.70467e-08 4.19886e-05
0.00111949 -0.000269352 1.75373e-07
-0.000269352 4.95145e-06 8.8046e-08
1.75373e-07 8.8046e-08 -0.000209165
0.00277383 -0.00018935 -5.07613e-05
-0.00018935 0.00130778 1.27153e-05
-5.07613e-05 1.27153e-05 0.00120048
0.00236113 -0.000109764 -0.000270457
-0.000109764 0.00113458 3.71585e-05
-0.000270457 3.71585e-05 0.00111586
0.00157861 -0.000210664 -1.42379e-05
-0.000210664 0.000569984 -4.6387e-09
-1.42379e-05 -4.6387e-09 0.000442252
0.00104968 -0.000296269 1.81418e-05
-0.000296269 1.99731e-06 -7.22971e-06
1.81418e-05 -7.22971e-06 -0.000228876
0.00734386 -5.62959e-05 -7.5121e-06
-5.62959e-05 0.00427901 1.44605e-06
-7.5121e-06 1.44605e-06 0.00428924
0.000375216 -0.000262313 2.56334e-05
-0.000262313 -0.000169864 -1.90283e-05
2.56334e-05 -1.90283e-05 -0.000315424
0.00729054 -6.66069e-06 0.000301101
-6.66069e-06 0.00426501 -2.94654e-05
0.000301101 -2.94654e-05 0.00426837
0.00215241 0.000456142 -1.44426e-07
0.000456142 0.000149099 7.54923e-07
-1.44426e-07 7.54923e-07 -2.01414e-05
0.00214132 0.000598812 2.89285e-06
0.000598812 0.000287891 5.71775e-06
2.89285e-06 5.71775e-06 2.39405e-05
0.00213745 0.000673078 4.06951e-07
0.000673078 0.000386773 1.91409e-07
4.06951e-07 1.91409e-07 5.99963e-05
0.0017876 0.000535135 -8.7025e-06
0.000535135 0.000304964 1.45908e-06
-8.7025e-06 1.45908e-06 -6.64547e-06
0.001745 0.000624529 4.96402e-06
0.000624529 0.000301859 -3.61661e-06
4.96402e-06 -3.61661e-06 -5.63897e-05
0.00154261 0.000505561 -1.77522e-07
0.000505561 0.000256771 6.17628e-07
-1.77522e-07 6.17628e-07 -6.65628e-05
0.000782399 0.000273948 -1.51536e-05
0.000273948 -6.41366e-05 -5.71135e-06
-1.51536e-05 -5.71135e-06 -0.000286929
0.00128967 0.000437973 7.84342e-06
0.000437973 0.000233475 1.99706e-06
7.84342e-06 1.99706e-06 -7.44679e-05
0.000661928 0.000229953 1.07356e-06
0.000229953 -3.93492e-05 8.89942e-08
1.07356e-06 8.89942e-08 -0.000253475
0.000520548 0.000262599 -2.87291e-05
0.000262599 -4.90571e-05 -2.00394e-05
-2.87291e-05 -2.00394e-05 -0.000179795
0.000322095 0.000179511 5.22463e-06
0.000179511 -0.000174451 2.79128e-06
5.22463e-06 2.79128e-06 -0.000390721
0.000481971 0.000176121 1.62125e-06
0.000176121 -6.49585e-05 -9.69506e-07
1.62125e-06 -9.69506e-07 -0.000169452
0.00643336 -0.000128549 -0.000231673
-0.000128549 0.0037872 -2.37062e-05
-0.000231673 -2.37062e-05 0.00376859
0.000335184 9.89849e-05 1.90255e-05
9.89849e-05 -0.000127775 1.82077e-05
1.90255e-05 1.82077e-05 -0.000211185
0.00504964 -0.00018346 -5.412e-06
-0.00018346 0.00292807 -3.06701e-07
-5.412e-06 -3.06701e-07 0.0029056
0.00418808 -0.000191596 9.70107e-05
-0.000191596 0.00238599 9.08035e-06
9.70107e-05 9.08035e-06 0.00236295
0.00227441 0.00022332 -6.63329e-06
0.00022332 -0.000187616 -1.40568e-06
-6.63329e-06 -1.40568e-06 -5.12039e-05
0.0021349 0.000131088 2.04301e-05
0.000131088 -9.98329e-05 -2.77994e-06
2.04301e-05 -2.77994e-06 0.000180774
0.00554677 0.000323671 -0.00011806
0.000323671 0.000262821 -2.26993e-06
-0.00011806 -2.26993e-06 0.00110689
0.00222803 0.00054643 -3.38921e-06
0.00054643 0.000140117 1.44685e-06
-3.38921e-06 1.44685e-06 -4.17401e-05
0.00225936 0.000744474 -3.79431e-06
0.000744474 0.000340048 -3.71928e-07
-3.79431e-06 -3.71928e-07 4.64525e-05
0.00176733 0.00079066 -4.30646e-06
0.00079066 0.000173331 -1.05854e-05
-4.30646e-06 -1.05854e-05 -0.000171173
0.00231262 0.000588382 2.86948e-06
0.000588382 0.000269371 1.47015e-06
2.86948e-06 1.47015e-06 4.32392e-05
0.00218684 0.000716089 1.66127e-06
0.000716089 0.000307712 -4.95212e-06
1.66127e-06 -4.95212e-06 -3.77117e-07
0.00244873 0.000435645 -1.74256e-07
0.000435645 1.68475e-05 3.16338e-07
-1.74256e-07 3.16338e-07 1.37682e-05
0.00221384 0.000664076 -7.82921e-07
0.000664076 9.86795e-05 2.38767e-07
-7.82921e-07 2.38767e-07 -0.000104021
0.00279631 0.000884318 -6.06963e-06
0.000884318 0.000629881 -2.14653e-06
-6.06963e-06 -2.14653e-06 0.000297365
0.00205747 0.000423001 8.14995e-09
0.000423001 -0.000157348 -2.31005e-07
8.14995e-09 -2.31005e-07 -0.000149606
0.00222873 0.000805095 1.28722e-05
0.000805095 0.000128927 2.96622e-06
1.28722e-05 2.96622e-06 -0.00010719
-5.29977e-05 0.000356228 -3.99922e-05
0.000356228 -0.00105199 -1.96597e-05
-3.99922e-05 -1.96597e-05 -0.000957726
0.00241005 9.14897e-05 8.22651e-07
9.14897e-05 -3.46597e-05 2.79726e-07
8.22651e-07 2.79726e-07 4.68706e-05
0.00223979 0.000114996 -1.42125e-06
0.000114996 -0.000154336 3.17956e-07
-1.42125e-06 3.17956e-07 -5.58537e-05
0.00326664 -7.98833e-05 -5.12801e-05
-7.98833e-05 0.0008237 1.55846e-06
-5.12801e-05 1.55846e-06 0.000893889
0.00246663 -0.000252898 -2.41943e-05
-0.000252898 -8.88768e-05 2.07839e-06
-2.41943e-05 2.07839e-06 0.000111086
0.0024859 2.05768e-05 -7.84917e-06
2.05768e-05 -5.61314e-05 -4.42106e-06
-7.84917e-06 -4.42106e-06 1.9035e-05
0.00237687 -8.67892e-05 -1.72337e-07
-8.67892e-05 -0.000126897 1.50205e-07
-1.72337e-07 1.50205e-07 -1.26458e-05
0.00213583 -7.31089e-05 3.99269e-07
-7.31089e-05 -3.67473e-05 1.08492e-07
3.99269e-07 1.08492e-07 2.65628e-06
0.00228408 -0.000300049 -2.26661e-07
-0.000300049 -0.000118065 6.53785e-08
-2.26661e-07 6.53785e-08 -3.61174e-05
0.00221206 -0.00024506 -1.60615e-07
-0.00024506 -4.97392e-05 3.47617e-08
-1.60615e-07 3.47617e-08 -4.56623e-06
0.00207996 -0.000204084 -1.7978e-06
-0.000204084 1.35607e-05 1.76561e-07
-1.7978e-06 1.76561e-07 -1.73302e-06
0.00219577 -0.000355048 6.16802e-07
-0.000355048 1.04606e-05 1.17314e-08
6.16802e-07 1.17314e-08 -4.90662e-06
0.00211336 -0.000306196 2.94956e-07
-0.000306196 4.95549e-05 3.0623e-08
2.94956e-07 3.0623e-08 2.69009e-06
0.00210657 -0.000294238 -2.69756e-06
-0.000294238 0.000120187 1.19896e-07
-2.69756e-06 1.19896e-07 2.21224e-05
0.00207166 -0.000389877 2.74191e-06
-0.000389877 8.53997e-05 -1.066e-06
2.74191e-06 -1.066e-06 -2.00145e-05
0.00205968 -0.000362724 -2.10774e-07
-0.000362724 0.000134045 -1.48895e-07
-2.10774e-07 -1.48895e-07 -3.27579e-07
0.00190148 -0.000313363 -1.44207e-06
-0.000313363 0.000137828 -4.73863e-07
-1.44207e-06 -4.73863e-07 -3.4191e-05
0.00210815 -0.000427527 1.28266e-06
-0.000427527 0.000210326 6.92865e-07
1.28266e-06 6.92865e-07 3.9068e-05
0.00191823 -0.000365575 -4.82299e-07
-0.000365575 0.00018716 1.98053e-08
-4.82299e-07 1.98053e-08 -1.23235e-05
0.00111287 -0.000211164 -1.22953e-05
-0.000211164 -3.82514e-05 5.08954e-06
-1.22953e-05 5.08954e-06 -0.000226761
0.00189814 -0.000404858 3.36674e-06
-0.000404858 0.00022321 2.46156e-08
3.36674e-06 2.46156e-08 -2.92636e-06
0.00114938 -0.000239281 -1.13051e-08
-0.000239281 -1.9223e-06 2.0966e-07
-1.13051e-08 2.0966e-07 -0.000201247
0.00277256 -0.000182096 -5.86449e-05
-0.000182096 0.00129858 1.23857e-05
-5.86449e-05 1.23857e-05 0.0012002
0.00114605 -0.000270403 1.73778e-05
-0.000270403 1.79536e-05 -7.249e-06
1.73778e-05 -7.249e-06 -0.000195525
0.00292519 -0.000228122 5.02197e-05
-0.000228122 0.00140368 -7.97118e-06
5.02197e-05 -7.97118e-06 0.00130438
0.00230134 -0.000142136 -0.000263458
-0.000142136 0.00110475 4.16746e-05
-0.000263458 4.16746e-05 0.00108332
0.00465863 -0.000124194 -0.00025904
-0.000124194 0.00259735 2.75117e-05
-0.00025904 2.75117e-05 0.00259163
0.00300699 -0.000285196 0.000165259
-0.000285196 0.0014708 -2.70137e-05
0.000165259 -2.70137e-05 0.00136979
0.00736714 -6.86643e-05 0.000310546
-6.86643e-05 0.0043021 -3.35134e-05
0.000310546 -3.35134e-05 0.00430792
0.00231943 0.000451383 -2.35866e-06
0.000451383 0.000234894 -5.46063e-07
-2.35866e-06 -5.46063e-07 9.28972e-05
0.00194625 0.000462764 1.1857e-06
0.000462764 0.000125576 1.62024e-06
1.1857e-06 1.62024e-06 -7.56644e-05
0.00215574 0.000446803 2.12595e-07
0.000446803 0.00015956 -1.51242e-06
2.12595e-07 -1.51242e-06 -2.88504e-06
0.00190993 0.00050131 -6.00524e-06
0.00050131 0.000262867 1.72317e-06
-6.00524e-06 1.72317e-06 -1.06905e-05
0.00222914 0.000608199 8.75833e-07
0.000608199 0.000328232 4.13594e-07
8.75833e-07 4.13594e-07 6.27237e-05
0.00241035 0.000696093 1.17682e-06
0.000696093 0.000550888 -5.21653e-06
1.17682e-06 -5.21653e-06 0.000223719
0.00173405 0.000533894 3.27389e-07
0.000533894 0.000263277 6.85144e-07
3.27389e-07 6.85144e-07 -4.99013e-05
0.00092879 0.000306697 -2.17201e-05
0.000306697 -5.81149e-05 -6.77055e-06
-2.17201e-05 -6.77055e-06 -0.000289714
0.00152545 0.000507696 1.03283e-05
0.000507696 0.00023829 1.44893e-06
1.03283e-05 1.44893e-06 -8.73935e-05
0.000832731 0.000273574 -1.35689e-06
0.000273574 -2.54696e-05 -4.53127e-07
-1.35689e-06 -4.53127e-07 -0.000245627
0.000354367 0.000260866 -2.61641e-05
0.000260866 -0.000164914 -2.00378e-05
-2.61641e-05 -2.00378e-05 -0.000308521
0.000335856 0.000206306 9.6218e-06
0.000206306 -0.000237987 2.09698e-06
9.6218e-06 2.09698e-06 -0.000446432
0.000313501 0.000217823 3.08312e-06
0.000217823 -0.000178809 4.00235e-07
3.08312e-06 4.00235e-07 -0.0003041
0.00712619 -3.84793e-05 -0.000278779
-3.84793e-05 0.0041886 -2.9513e-05
-0.000278779 -2.9513e-05 0.00418062
0.000367506 0.000136025 2.33035e-05
0.000136025 -0.000134725 1.82242e-05
2.33035e-05 1.82242e-05 -0.000234984
0.00605617 -0.0001577 6.40953e-06
-0.0001577 0.00355007 -2.59462e-06
6.40953e-06 -2.59462e-06 0.00353052
0.00487705 -0.00022744 0.000120243
-0.00022744 0.00283863 1.21033e-05
0.000120243 1.21033e-05 0.00280339
0.00240508 0.000261159 3.347e-07
0.000261159 -4.76492e-05 7.20723e-07
3.347e-07 7.20723e-07 2.93734e-05
0.0021929 0.000228724 1.81353e-06
0.000228724 -0.000211108 -1.22029e-07
1.81353e-06 -1.22029e-07 -7.53525e-05
0.00245007 8.88208e-05 -7.51803e-05
8.88208e-05 -4.56395e-05 -8.55376e-06
-7.51803e-05 -8.55376e-06 0.000286276
0.0022075 0.000389454 8.23034e-07
0.000389454 1.17707e-05 4.01995e-07
8.23034e-07 4.01995e-07 -4.12299e-05
0.00220199 0.000541247 -8.069e-07
0.000541247 0.00014698 2.6549e-07
-8.069e-07 2.6549e-07 -3.25209e-05
0.00189857 0.000696096 7.10501e-06
0.000696096 0.000164751 -2.66907e-06
7.10501e-06 -2.66907e-06 -0.000120688
0.00240689 0.000580844 -5.56107e-07
0.000580844 0.000345498 -2.86928e-06
-5.56107e-07 -2.86928e-06 0.000122235
0.0023959 0.000418667 -9.92881e-07
0.000418667 2.34523e-06 -5.7678e-08
-9.92881e-07 -5.7678e-08 4.14159e-07
0.00222967 0.000671821 -2.4736e-06
0.000671821 0.000123306 -1.59254e-07
-2.4736e-06 -1.59254e-07 -7.91231e-05
0.00200571 0.000412934 1.26608e-05
0.000412934 -0.000131998 6.46756e-07
1.26608e-05 6.46756e-07 -0.000124017
0.0022007 7.06524e-05 2.07228e-06
7.06524e-05 -1.92985e-05 3.48835e-07
2.07228e-06 3.48835e-07 1.69034e-05
0.00232826 8.58214e-05 7.50032e-08
8.58214e-05 -7.21426e-05 -1.3488e-08
7.50032e-08 -1.3488e-08 7.83311e-06
0.00226608 0.000128254 -7.86481e-06
0.000128254 -0.000125217 -1.56487e-06
-7.86481e-06 -1.56487e-06 -3.47579e-05
0.00205782 -1.38833e-05 -2.67789e-06
-1.38833e-05 2.07301e-06 3.0839e-07
-2.67789e-06 3.0839e-07 1.16391e-05
0.00233772 -0.00010209 -2.98204e-07
-0.00010209 -0.000165602 -3.89478e-07
-2.98204e-07 -3.89478e-07 -4.39092e-05
0.00214726 -7.62608e-05 -6.28961e-07
-7.62608e-05 -3.41249e-05 2.20671e-07
-6.28961e-07 2.20671e-07 5.38149e-06
0.00200865 -0.000111386 -3.1721e-06
-0.000111386 -1.88093e-05 3.97254e-07
-3.1721e-06 3.97254e-07 -2.65967e-05
0.00216335 -0.000250149 -2.29652e-08
-0.000250149 -7.29338e-05 2.09958e-07
-2.29652e-08 2.09958e-07 -3.49504e-05
0.0020757 -0.000202175 1.00782e-06
-0.000202175 9.99626e-06 -2.91046e-07
1.00782e-06 -2.91046e-07 -4.61569e-06
0.0021131 -0.000207211 -1.66524e-06
-0.000207211 9.64163e-05 3.60142e-07
-1.66524e-06 3.60142e-07 3.05203e-05
0.00212151 -0.00030722 2.90574e-06
-0.00030722 4.95002e-05 -8.37707e-07
2.90574e-06 -8.37707e-07 2.33352e-06
0.00205935 -0.000289014 -5.75371e-09
-0.000289014 9.19552e-05 -3.27153e-07
-5.75371e-09 -3.27153e-07 -5.55143e-06
0.00188925 -0.000246229 -1.58018e-06
-0.000246229 0.000105907 -5.7452e-07
-1.58018e-06 -5.7452e-07 -3.81543e-05
0.00203974 -0.0003616 2.01094e-06
-0.0003616 0.00011918 2.12226e-08
2.01094e-06 2.12226e-08 -1.54371e-05
0.00193507 -0.000314085 -3.11061e-07
-0.000314085 0.000159981 8.22572e-09
-3.11061e-07 8.22572e-09 -1.16389e-05
0.00113277 -0.000183931 -1.13547e-05
-0.000183931 -4.24664e-05 3.66228e-06
-1.13547e-05 3.66228e-06 -0.00021929
0.00193773 -0.000366844 1.29737e-06
-0.000366844 0.000200437 1.77815e-07
1.29737e-06 1.77815e-07 1.10591e-06
0.00116143 -0.000211866 -1.91266e-07
-0.000211866 -1.39464e-05 2.35694e-07
-1.91266e-07 2.35694e-07 -0.000201282
0.00274155 -0.000173759 -6.5923e-05
-0.000173759 0.00128013 1.18816e-05
-6.5923e-05 1.18816e-05 0.00118591
0.00117775 -0.000240441 1.42517e-05
-0.000240441 8.33199e-06 -6.17656e-06
1.42517e-05 -6.17656e-06 -0.000190143
0.00286371 -0.000203853 4.58653e-05
-0.000203853 0.00135624 -6.29556e-06
4.58653e-05 -6.29556e-06 0.00126568
0.00231021 -0.000120799 -0.000256934
-0.000120799 0.00110148 3.65048e-05
-0.000256934 3.65048e-05 0.00108272
0.00304114 -0.000235406 0.00015879
-0.000235406 0.00147123 -2.81957e-05
0.00015879 -2.81957e-05 0.00138247
0.00192873 -7.90949e-05 -0.000106435
-7.90949e-05 0.000872193 1.57725e-05
-0.000106435 1.57725e-05 0.000837326
0.00674799 -3.66773e-06 9.61206e-05
-3.66773e-06 0.00389621 -4.9496e-06
9.61206e-05 -4.9496e-06 0.00387692
0.00220838 0.00038899 -1.00102e-06
0.00038899 0.000127144 -1.17335e-07
-1.00102e-06 -1.17335e-07 2.6134e-05
0.00211755 0.000422691 -2.21444e-06
0.000422691 0.000168989 -7.91991e-07
-2.21444e-06 -7.91991e-07 5.08408e-06
0.0023037 0.000453114 -3.52978e-06
0.000453114 0.000215779 -1.51199e-07
-3.52978e-06 -1.51199e-07 7.23619e-05
0.00192337 0.000427875 -2.65489e-06
0.000427875 0.000204259 3.12343e-07
-2.65489e-06 3.12343e-07 -2.72229e-05
0.00193769 0.00046979 -1.0383e-06
0.00046979 0.000100483 -2.35548e-06
-1.0383e-06 -2.35548e-06 -9.75772e-05
0.00216403 0.000437938 -3.49286e-06
0.000437938 0.00017318 -3.84319e-06
-3.49286e-06 -3.84319e-06 1.74329e-05
0.00116976 0.000306434 -2.2921e-05
0.000306434 2.13353e-05 -7.09353e-06
-2.2921e-05 -7.09353e-06 -0.000200783
0.00183273 0.000495377 1.20162e-06
0.000495377 0.000215416 3.65796e-07
1.20162e-06 3.65796e-07 -5.7942e-05
0.00230522 0.000616142 1.51456e-06
0.000616142 0.000360646 -4.56676e-06
1.51456e-06 -4.56676e-06 9.38592e-05
0.0016927 0.000533595 1.0111e-05
0.000533595 0.000229551 -4.33055e-08
1.0111e-05 -4.33055e-08 -8.53758e-05
0.000996494 0.000307471 -1.97014e-06
0.000307471 -1.15389e-05 6.07171e-08
-1.97014e-06 6.07171e-08 -0.00024165
0.000267534 0.000246271 -2.57899e-05
0.000246271 -0.000234417 -1.83085e-05
-2.57899e-05 -1.83085e-05 -0.000376009
0.000846758 0.00026991 1.58485e-05
0.00026991 -1.09364e-05 6.22236e-06
1.58485e-05 6.22236e-06 -0.000228163
0.000328491 0.000248265 1.59482e-06
0.000248265 -0.000175681 1.16471e-06
1.59482e-06 1.16471e-06 -0.000319369
0.00741948 5.04017e-05 -0.000299148
5.04017e-05 0.00435575 -3.62865e-05
-0.000299148 -3.62865e-05 0.00434946
0.000341134 0.000197109 2.44148e-05
0.000197109 -0.000165583 2.01948e-05
2.44148e-05 2.01948e-05 -0.000288201
0.00688505 -8.39147e-05 4.28566e-06
-8.39147e-05 0.00403483 -7.20827e-07
4.28566e-06 -7.20827e-07 0.00402764
0.00562848 -0.000186827 0.000164283
-0.000186827 0.00328178 1.11412e-05
0.000164283 1.11412e-05 0.00325939
0.00218373 0.000208801 1.90696e-08
0.000208801 -1.53281e-05 -2.72281e-07
1.90696e-08 -2.72281e-07 6.76848e-06
0.00237482 0.000265495 -1.87472e-07
0.000265495 -7.37016e-05 5.29351e-07
-1.87472e-07 5.29351e-07 5.19203e-06
0.00219113 0.000232678 3.65686e-06
0.000232678 -0.000207703 2.14135e-07
3.65686e-06 2.14135e-07 -7.19651e-05
0.00222969 0.000385171 -1.19987e-07
0.000385171 2.97905e-05 9.75423e-08
-1.19987e-07 9.75423e-08 -2.04324e-05
0.00217543 0.000535164 7.12471e-07
0.000535164 0.000156656 -8.36227e-07
7.12471e-07 -8.36227e-07 -2.03167e-05
0.0023641 0.000403628 1.91628e-06
0.000403628 -6.47283e-06 -1.81824e-07
1.91628e-06 -1.81824e-07 -7.60854e-06
0.0020805 6.38319e-05 -5.77118e-07
6.38319e-05 -7.78861e-06 1.71814e-07
-5.77118e-07 1.71814e-07 1.66043e-06
0.00218378 6.57907e-05 3.23327e-07
6.57907e-05 -2.80813e-05 -1.74946e-07
3.23327e-07 -1.74946e-07 8.27956e-06
0.00224907 7.99427e-05 -1.1273e-06
7.99427e-05 -0.000109545 -1.9771e-07
-1.1273e-06 -1.9771e-07 -3.04855e-05
0.00204973 -1.20091e-05 -8.75041e-07
-1.20091e-05 -4.62295e-06 3.57447e-08
-8.75041e-07 3.57447e-08 3.83159e-06
0.0020317 -3.74597e-05 -6.01743e-06
-3.74597e-05 3.6515e-05 5.57132e-07
-6.01743e-06 5.57132e-07 2.50471e-05
0.00216007 -7.92245e-05 -3.5879e-07
-7.92245e-05 -3.10145e-05 3.30681e-07
-3.5879e-07 3.30681e-07 8.76394e-06
0.00202916 -0.000111056 -1.51599e-06
-0.000111056 2.21612e-07 2.43302e-07
-1.51599e-06 2.43302e-07 -1.03607e-05
0.0020329 -0.00012945 -5.93811e-06
-0.00012945 3.60315e-05 7.56193e-07
-5.93811e-06 7.56193e-07 -8.54982e-06
0.00207125 -0.000200634 3.91271e-06
-0.000200634 6.63945e-06 -8.34992e-07
3.91271e-06 -8.34992e-07 -7.39042e-06
0.00207488 -0.000206001 2.82022e-06
-0.000206001 7.51969e-05 -5.53761e-07
2.82022e-06 -5.53761e-07 9.39508e-06
0.00191607 -0.000179282 8.63669e-07
-0.000179282 0.000105355 -1.20672e-06
8.63669e-07 -1.20672e-06 -1.55209e-05
0.00200736 -0.000285057 2.86939e-06
-0.000285057 5.98043e-05 -8.32448e-07
2.86939e-06 -8.32448e-07 -3.74037e-05
0.00193351 -0.000249901 -1.95322e-07
-0.000249901 0.000129195 7.57786e-09
-1.95322e-07 7.57786e-09 -1.51451e-05
0.00115756 -0.000148699 -1.19403e-05
-0.000148699 -3.65942e-05 2.43752e-06
-1.19403e-05 2.43752e-06 -0.000199818
0.00196314 -0.000314868 4.98308e-07
-0.000314868 0.000177401 3.90948e-07
4.98308e-07 3.90948e-07 6.09423e-06
0.0011675 -0.000182388 -3.02858e-07
-0.000182388 -2.42275e-05 2.80509e-07
-3.02858e-07 2.80509e-07 -0.000199618
0.00267315 -0.000173609 -6.81949e-05
-0.000173609 0.00124032 1.00516e-05
-6.81949e-05 1.00516e-05 0.00114916
0.00120146 -0.000212376 1.17966e-05
-0.000212376 4.37812e-06 -4.72922e-06
1.17966e-05 -4.72922e-06 -0.000181794
0.00281473 -0.000174206 4.37745e-05
-0.000174206 0.00132115 -4.83601e-06
4.37745e-05 -4.83601e-06 0.0012364
0.00230674 -0.000100289 -0.000254618
-0.000100289 0.00109243 3.0576e-05
-0.000254618 3.0576e-05 0.00107508
0.00295515 -0.000196214 0.0001548
-0.000196214 0.00140576 -2.40445e-05
0.0001548 -2.40445e-05 0.00132674
0.00191563 -8.07957e-05 -9.64925e-05
-8.07957e-05 0.000858573 1.25617e-05
-9.64925e-05 1.25617e-05 0.000826199
0.00162121 -7.64344e-05 6.31103e-05
-7.64344e-05 0.000691699 -1.01621e-05
6.31103e-05 -1.01621e-05 0.000638992
0.00208952 0.000246858 -1.8085e-06
0.000246858 1.0978e-05 -6.41948e-07
-1.8085e-06 -6.41948e-07 -2.45318e-05
0.00213797 0.000352219 -2.47767e-06
0.000352219 0.000151234 2.19609e-07
-2.47767e-06 2.19609e-07 2.59674e-05
0.00219277 0.00039078 -3.95767e-07
0.00039078 9.58773e-05 -6.83298e-08
-3.95767e-07 -6.83298e-08 3.63043e-06
0.00201172 0.000389056 1.71341e-07
0.000389056 0.000202388 5.45173e-07
1.71341e-07 5.45173e-07 7.29378e-06
0.00212057 0.000419823 -1.49789e-06
0.000419823 0.000180631 -6.16235e-07
-1.49789e-06 -6.16235e-07 1.60753e-05
0.00228219 0.000455096 2.11401e-06
0.000455096 0.000192652 2.08149e-07
2.11401e-06 2.08149e-07 4.76521e-05
0.00122972 0.00026767 -1.85251e-05
0.00026767 1.74352e-05 -6.35666e-06
-1.85251e-05 -6.35666e-06 -0.000184561
0.00188382 0.000430415 1.97051e-06
0.000430415 0.000171502 -1.64876e-07
1.97051e-06 -1.64876e-07 -5.55558e-05
0.00193768 0.000477462 -1.85596e-06
0.000477462 8.10662e-05 -4.87599e-06
-1.85596e-06 -4.87599e-06 -0.000113857
0.000299395 0.000191792 -2.23786e-05
0.000191792 -0.000238504 -1.54162e-05
-2.23786e-05 -1.54162e-05 -0.000367455
0.00112459 0.000301736 -7.17104e-07
0.000301736 -4.80529e-06 1.41586e-08
-7.17104e-07 1.41586e-08 -0.000226538
0.00175214 0.00049009 7.94111e-06
0.00049009 0.000163586 -1.1697e-06
7.94111e-06 -1.1697e-06 -0.000109841
0.00107293 0.000308593 2.29706e-05
0.000308593 4.04379e-05 8.66547e-06
2.29706e-05 8.66547e-06 -0.000187988
0.000348562 0.000237706 5.41568e-07
0.000237706 -0.000181104 1.10576e-06
5.41568e-07 1.10576e-06 -0.000324625
0.00731059 0.0001505 -0.00030553
0.0001505 0.00427153 -4.03904e-05
-0.00030553 -4.03904e-05 0.00426765
0.0003891 0.000238073 2.26913e-05
0.000238073 -0.000136112 1.90809e-05
2.26913e-05 1.90809e-05 -0.000278652
0.00726344 2.25855e-05 7.74966e-06
2.25855e-05 0.00424564 3.6091e-07
7.74966e-06 3.6091e-07 0.00424748
0.00663645 -0.000114658 0.000228298
-0.000114658 0.00387624 1.39649e-05
0.000228298 1.39649e-05 0.00386944
0.00210301 0.000128171 -2.96034e-06
0.000128171 2.37826e-05 -7.60515e-07
-2.96034e-06 -7.60515e-07 2.64599e-05
0.00218203 0.000213341 7.36048e-07
0.000213341 -1.8765e-05 3.43393e-07
7.36048e-07 3.43393e-07 7.17631e-07
0.00233313 0.000270176 -3.65349e-07
0.000270176 -0.000102733 -7.38077e-07
-3.65349e-07 -7.38077e-07 -2.24281e-05
0.0022482 0.000379699 1.78444e-06
0.000379699 4.51952e-05 -1.75248e-07
1.78444e-06 -1.75248e-07 -1.86027e-06
0.00200128 1.96967e-05 -5.94573e-06
1.96967e-05 3.95718e-05 3.34827e-07
-5.94573e-06 3.34827e-07 1.5011e-05
0.00206912 5.44632e-05 -2.84417e-08
5.44632e-05 -1.40547e-05 -3.9885e-09
-2.84417e-08 -3.9885e-09 -4.39521e-06
0.00216755 6.08546e-05 -1.25309e-06
6.08546e-05 -3.57072e-05 -1.32925e-07
-1.25309e-06 -1.32925e-07 2.40211e-07
0.00203872 -9.17212e-06 -1.17463e-07
-9.17212e-06 -1.27763e-05 -4.05574e-07
-1.17463e-07 -4.05574e-07 -5.67176e-06
0.00203116 -3.17422e-05 -6.96527e-07
-3.17422e-05 3.2305e-05 -1.44933e-07
-6.96527e-07 -1.44933e-07 2.21033e-05
0.00189823 -5.60114e-05 -4.88202e-06
-5.60114e-05 -3.26689e-05 4.34857e-07
-4.88202e-06 4.34857e-07 -8.19077e-05
0.00204739 -0.000110811 3.49802e-06
-0.000110811 1.77495e-05 -1.59661e-07
3.49802e-06 -1.59661e-07 4.13197e-06
0.0020301 -0.000130526 -1.99481e-06
-0.000130526 4.27455e-05 3.84105e-07
-1.99481e-06 3.84105e-07 -8.84083e-06
0.00198055 -0.000119453 -1.6436e-06
-0.000119453 0.000131296 -3.27594e-07
-1.6436e-06 -3.27594e-07 3.3941e-05
0.00204148 -0.000203756 7.08298e-06
-0.000203756 5.682e-05 -1.3698e-06
7.08298e-06 -1.3698e-06 -8.6581e-06
0.00193559 -0.000178518 1.71301e-06
-0.000178518 0.000111099 -5.80477e-07
1.71301e-06 -5.80477e-07 -9.35368e-06
0.00114502 -0.000110592 -1.21419e-05
-0.000110592 -4.35755e-05 1.5432e-06
-1.21419e-05 1.5432e-06 -0.00019389
0.00200695 -0.000252287 1.40615e-06
-0.000252287 0.000172993 4.74256e-07
1.40615e-06 4.74256e-07 2.88891e-05
0.00115433 -0.000147515 -9.60391e-08
-0.000147515 -3.72284e-05 1.99174e-07
-9.60391e-08 1.99174e-07 -0.000199606
0.000370031 -8.99039e-05 -1.94651e-05
-8.99039e-05 -0.000223679 5.75265e-06
-1.94651e-05 5.75265e-06 -0.000322891
0.00120351 -0.000180963 1.10533e-05
-0.000180963 -5.06124e-06 -3.215e-06
1.10533e-05 -3.215e-06 -0.000178994
0.00157532 -0.000113376 6.48027e-05
-0.000113376 0.000534691 -5.03466e-06
6.48027e-05 -5.03466e-06 0.000447488
0.0067293 -0.000169745 -0.000339241
-0.000169745 0.0038908 2.56604e-05
-0.000339241 2.56604e-05 0.00391005
0.00290483 -0.000157369 0.00015193
-0.000157369 0.00136721 -1.89489e-05
0.00015193 -1.89489e-05 0.0012944
0.00191957 -7.84516e-05 -8.74223e-05
-7.84516e-05 0.000859575 8.20786e-06
-8.74223e-05 8.20786e-06 0.000827135
0.00154005 -0.000100218 7.51026e-05
-0.000100218 0.000644373 -1.1996e-05
7.51026e-05 -1.1996e-05 0.00059072
0.00202893 0.000170214 -3.77344e-06
0.000170214 1.86561e-05 -1.20257e-06
-3.77344e-06 -1.20257e-06 -1.32318e-05
0.00209681 0.000269783 -1.65019e-06
0.000269783 0.000101856 3.61717e-07
-1.65019e-06 3.61717e-07 1.53797e-05
0.00209185 0.000240483 -7.97204e-08
0.000240483 2.30591e-05 6.65352e-08
-7.97204e-08 6.65352e-08 -1.80676e-05
0.00207482 0.000318826 9.17997e-07
0.000318826 0.000219987 1.28098e-06
9.17997e-07 1.28098e-06 6.06717e-05
0.00204252 0.00034662 9.42104e-07
0.00034662 9.10671e-05 1.89917e-07
9.42104e-07 1.89917e-07 -3.36628e-05
0.00217787 0.000392903 8.55556e-07
0.000392903 6.50578e-05 1.19423e-07
8.55556e-07 1.19423e-07 -1.86676e-05
0.0012472 0.000235226 -1.43614e-05
0.000235226 1.04569e-05 -4.14928e-06
-1.43614e-05 -4.14928e-06 -0.000172025
0.00202138 0.000386616 2.1878e-06
0.000386616 0.000209875 5.57188e-07
2.1878e-06 5.57188e-07 1.57474e-05
0.00211146 0.000415934 4.88554e-07
0.000415934 0.000184966 -1.32661e-06
4.88554e-07 -1.32661e-06 1.99101e-05
0.000316214 0.000136653 -1.94725e-05
0.000136653 -0.000250099 -1.19799e-05
-1.94725e-05 -1.19799e-05 -0.000364196
0.00116435 0.000264599 4.71368e-07
0.000264599 -2.18464e-05 4.85636e-07
4.71368e-07 4.85636e-07 -0.000221847
0.00183303 0.00043133 6.65943e-06
0.00043133 0.000132272 -1.41682e-06
6.65943e-06 -1.41682e-06 -8.99671e-05
0.00710173 0.000224137 -0.000312692
0.000224137 0.0041297 -4.00625e-05
-0.000312692 -4.00625e-05 0.00413017
0.000311028 0.000185117 2.94925e-07
0.000185117 -0.000231813 7.45844e-07
2.94925e-07 7.45844e-07 -0.000361306
0.00112143 0.000299082 2.38736e-05
0.000299082 -9.9505e-07 7.74259e-06
2.38736e-05 7.74259e-06 -0.000222387
0.000315239 0.000220345 2.17814e-05
0.000220345 -0.00019806 1.76724e-05
2.17814e-05 1.76724e-05 -0.000342425
0.00729677 0.000143023 1.02073e-05
0.000143023 0.00425705 1.43999e-06
1.02073e-05 1.43999e-06 0.00425987
0.00714757 -1.46181e-05 0.000280816
-1.46181e-05 0.00416294 1.99322e-05
0.000280816 1.99322e-05 0.00416936
0.00196441 7.17532e-05 -7.70769e-06
7.17532e-05 1.7697e-05 -2.49829e-07
-7.70769e-06 -2.49829e-07 -1.13669e-05
0.00209242 0.000124532 8.89791e-08
0.000124532 1.80356e-05 -3.68228e-08
8.89791e-08 -3.68228e-08 1.94963e-05
0.00218177 0.000217933 4.1314e-07
0.000217933 -2.15804e-05 2.05719e-07
4.1314e-07 2.05719e-07 -4.34902e-06
0.00194284 6.09661e-06 -5.98645e-06
6.09661e-06 1.66138e-05 4.47362e-08
-5.98645e-06 4.47362e-08 -3.87846e-05
0.00198302 2.46387e-05 4.09541e-07
2.46387e-05 2.44483e-05 2.63491e-08
4.09541e-07 2.63491e-08 2.68676e-06
0.00206107 4.40773e-05 -4.93866e-08
4.40773e-05 -1.84814e-05 -1.50485e-07
-4.93866e-08 -1.50485e-07 -8.55345e-06
0.0020322 -2.66743e-05 3.70236e-06
-2.66743e-05 2.85883e-05 -3.80705e-07
3.70236e-06 -3.80705e-07 2.01131e-05
0.00195901 -5.4679e-05 -1.27731e-06
-5.4679e-05 9.79635e-06 2.01498e-07
-1.27731e-06 2.01498e-07 -3.811e-05
0.00187111 -5.71992e-05 -2.00981e-07
-5.71992e-05 7.36486e-05 -3.2918e-07
-2.00981e-07 -3.2918e-07 -2.29983e-05
0.00204625 -0.000131772 1.91341e-06
-0.000131772 6.27105e-05 -1.07469e-07
1.91341e-06 -1.07469e-07 4.43121e-06
0.00193104 -0.00012046 5.01642e-07
-0.00012046 0.000103432 1.29649e-08
5.01642e-07 1.29649e-08 -1.73312e-06
0.00118553 -6.73601e-05 -1.20483e-05
-6.73601e-05 -1.48077e-05 6.47521e-07
-1.20483e-05 6.47521e-07 -0.000146786
0.00193158 -0.000179296 3.15387e-06
-0.000179296 0.000101204 -1.09477e-07
3.15387e-06 -1.09477e-07 -1.93103e-05
0.00112829 -0.000105576 6.09844e-09
-0.000105576 -5.13613e-05 4.03855e-08
6.09844e-09 4.03855e-08 -0.000200573
0.000384695 -2.42352e-05 -1.8234e-05
-2.42352e-05 -0.00021664 3.24828e-06
-1.8234e-05 3.24828e-06 -0.000308744
0.00117062 -0.000145537 1.15023e-05
-0.000145537 -2.68329e-05 -2.05798e-06
1.15023e-05 -2.05798e-06 -0.000188091
0.000394853 -7.56942e-05 -2.72549e-07
-7.56942e-05 -0.000207351 4.72157e-07
-2.72549e-07 4.72157e-07 -0.000306899
0.00660602 -5.97041e-05 -0.000327403
-5.97041e-05 0.00380827 1.5905e-05
-0.000327403 1.5905e-05 0.00383278
0.000456984 -7.85929e-05 1.43739e-05
-7.85929e-05 -0.000173344 -7.92004e-06
1.43739e-05 -7.92004e-06 -0.000278513
0.0042188 -0.000110603 0.000144766
-0.000110603 0.00231346 -7.74095e-06
0.000144766 -7.74095e-06 0.00229722
0.00151469 -9.23217e-05 8.138e-05
-9.23217e-05 0.000627146 -1.16459e-05
8.138e-05 -1.16459e-05 0.000574335
0.00203852 0.000130963 -8.0904e-06
0.000130963 6.6636e-05 -9.9961e-07
-8.0904e-06 -9.9961e-07 2.90099e-05
0.00210851 0.000200043 -2.83435e-06
0.000200043 0.000118448 -3.11595e-09
-2.83435e-06 -3.11595e-09 4.49651e-05
0.00201226 0.00016435 -6.11584e-07
0.00016435 1.0981e-05 -1.31815e-07
-6.11584e-07 -1.31815e-07 -2.05325e-05
0.00196286 0.000246591 -1.89185e-07
0.000246591 0.000135859 1.08552e-06
-1.89185e-07 1.08552e-06 -6.94172e-06
0.00209142 0.000268784 9.07991e-08
0.000268784 9.49752e-05 7.96058e-09
9.07991e-08 7.96058e-09 6.2385e-06
0.00209063 0.000233995 3.02035e-06
0.000233995 3.28333e-05 8.28442e-07
3.02035e-06 8.28442e-07 -1.3757e-05
0.00121216 0.000191946 -1.2261e-05
0.000191946 -1.60796e-05 -2.78118e-06
-1.2261e-05 -2.78118e-06 -0.000183046
0.00199811 0.000313694 2.26687e-06
0.000313694 0.000178312 7.46021e-07
2.26687e-06 7.46021e-07 1.2835e-05
0.00195147 0.000341199 1.39221e-06
0.000341199 3.40646e-05 -3.88601e-07
1.39221e-06 -3.88601e-07 -9.00121e-05
0.000341796 9.69239e-05 -1.80509e-05
9.69239e-05 -0.000246546 -8.73362e-06
-1.80509e-05 -8.73362e-06 -0.000351278
0.00119527 0.000230772 -4.40373e-07
0.000230772 -1.98e-05 4.33455e-07
-4.40373e-07 4.33455e-07 -0.000201397
0.00203552 0.000384879 4.52429e-06
0.000384879 0.000220506 7.05767e-07
4.52429e-06 7.05767e-07 2.71562e-05
0.00692843 0.000276299 -0.00032866
0.000276299 0.00402374 -3.85569e-05
-0.00032866 -3.85569e-05 0.00402551
0.000327876 0.000135922 -6.42929e-08
0.000135922 -0.000246189 3.91874e-07
-6.42929e-08 3.91874e-07 -0.000360902
0.00109453 0.000262538 1.80876e-05
0.000262538 -6.57302e-05 6.05032e-06
1.80876e-05 6.05032e-06 -0.000264075
0.00712403 0.000242346 1.3893e-05
0.000242346 0.00415163 4.0171e-06
1.3893e-05 4.0171e-06 0.00414974
0.000294205 0.000175519 1.99557e-05
0.000175519 -0.000244206 1.52781e-05
1.99557e-05 1.52781e-05 -0.000373898
0.00719607 0.000107816 0.00030921
0.000107816 0.0041799 2.85879e-05
0.00030921 2.85879e-05 0.00419123
0.00190072 5.46014e-05 -6.29671e-06
5.46014e-05 -1.18885e-05 -6.37075e-08
-6.29671e-06 -6.37075e-08 -6.98516e-05
0.00199777 7.77115e-05 -8.76918e-07
7.77115e-05 4.57776e-05 -1.97225e-07
-8.76918e-07 -1.97225e-07 1.61166e-05
0.0020797 0.000121195 2.53472e-06
0.000121195 1.17375e-05 4.49816e-07
2.53472e-06 4.49816e-07 1.18484e-05
0.00186312 -7.2264e-06 4.82557e-07
-7.2264e-06 7.4679e-05 -3.41351e-07
4.82557e-07 -3.41351e-07 -2.03955e-05
0.0019631 7.294e-06 -1.70164e-06
7.294e-06 2.95106e-05 1.41126e-07
-1.70164e-06 1.41126e-07 -2.30729e-05
0.00196374 3.07551e-05 6.55017e-06
3.07551e-05 8.76882e-06 -1.01523e-07
6.55017e-06 -1.01523e-07 -1.02973e-05
0.00201795 -5.33707e-05 2.07951e-06
-5.33707e-05 5.13728e-05 1.66653e-09
2.07951e-06 1.66653e-09 4.52176e-06
0.00191323 -5.7003e-05 1.98192e-06
-5.7003e-05 0.000102093 -4.3806e-08
1.98192e-06 -4.3806e-08 6.53084e-06
0.00115525 -2.93032e-05 -1.17041e-05
-2.93032e-05 -2.48597e-05 -2.0647e-08
-1.17041e-05 -2.0647e-08 -0.000149524
0.00186494 -0.000121405 6.3694e-07
-0.000121405 6.41364e-05 3.77426e-07
6.3694e-07 3.77426e-07 -4.89971e-05
0.00113183 -6.66821e-05 5.12951e-07
-6.66821e-05 -4.73235e-05 -1.35603e-07
5.12951e-07 -1.35603e-07 -0.000182895
0.000395278 -9.10034e-06 -1.85319e-05
-9.10034e-06 -0.000210137 1.98254e-06
-1.85319e-05 1.98254e-06 -0.000298218
0.00111265 -0.000102019 1.11997e-05
-0.000102019 -5.77582e-05 -1.44066e-06
1.11997e-05 -1.44066e-06 -0.000206053
0.000370077 -3.65937e-05 8.1127e-07
-3.65937e-05 -0.000225723 -2.93991e-07
8.1127e-07 -2.93991e-07 -0.000317181
0.00640243 -0.000154312 -0.000328389
-0.000154312 0.00369825 1.72376e-05
-0.000328389 1.72376e-05 0.00371644
0.000364043 -5.90524e-05 1.78699e-05
-5.90524e-05 -0.000226691 -4.33748e-06
1.78699e-05 -4.33748e-06 -0.000325499
0.0065536 -9.62153e-05 7.9022e-06
-9.62153e-05 0.003779 2.56348e-09
7.9022e-06 2.56348e-09 0.00380268
0.00182811 -3.731e-05 0.000254194
-3.731e-05 0.000792379 -1.72229e-05
0.000254194 -1.72229e-05 0.000782672
0.00201184 0.000132086 -5.91101e-06
0.000132086 5.70939e-05 -6.58223e-07
-5.91101e-06 -6.58223e-07 -1.16116e-05
0.00199802 0.000132283 -1.82439e-06
0.000132283 3.21774e-05 -9.82707e-08
-1.82439e-06 -9.82707e-08 -1.18988e-06
0.0019121 0.000177259 2.61015e-08
0.000177259 9.60459e-05 1.07444e-06
2.61015e-08 1.07444e-06 -2.65908e-05
0.00209325 0.000199527 7.83826e-07
0.000199527 0.000103132 -7.18584e-08
7.83826e-07 -7.18584e-08 2.98473e-05
0.00199578 0.000158348 4.68187e-06
0.000158348 2.70186e-06 8.15778e-07
4.68187e-06 8.15778e-07 -2.82961e-05
0.00117586 0.000144931 -1.16758e-05
0.000144931 -2.62853e-05 -1.9282e-06
-1.16758e-05 -1.9282e-06 -0.000184719
0.00195214 0.000244074 1.60273e-07
0.000244074 0.000134623 1.18084e-07
1.60273e-07 1.18084e-07 -7.94682e-06
0.00209161 0.000267887 2.97374e-06
0.000267887 9.19158e-05 -2.38766e-07
2.97374e-06 -2.38766e-07 7.74992e-07
0.000376021 7.13984e-05 -1.78292e-05
7.13984e-05 -0.000229146 -6.07397e-06
-1.78292e-05 -6.07397e-06 -0.000328829
0.00118885 0.000191258 -5.40725e-08
0.000191258 -2.78572e-05 4.55433e-07
-5.40725e-08 4.55433e-07 -0.000197986
0.00192095 0.000308335 1.59935e-06
0.000308335 0.000136906 3.82708e-07
1.59935e-06 3.82708e-07 -3.46833e-05
0.00678998 0.000286175 -0.000345156
0.000286175 0.00394734 -3.57055e-05
-0.000345156 -3.57055e-05 0.00394891
0.000361738 0.000100005 2.89227e-07
0.000100005 -0.000236624 2.1335e-07
2.89227e-07 2.1335e-07 -0.000342107
0.00113529 0.000225573 1.09742e-05
0.000225573 -5.58044e-05 4.55142e-06
1.09742e-05 4.55142e-06 -0.000236315
0.0069613 0.000300979 1.06146e-05
0.000300979 0.00405683 4.99517e-06
1.06146e-05 4.99517e-06 0.0040528
0.000361549 0.000135255 1.86606e-05
0.000135255 -0.000228746 1.23368e-05
1.86606e-05 1.23368e-05 -0.000343862
0.00716386 0.000246967 0.000333486
0.000246967 0.00416868 3.8933e-05
0.000333486 3.8933e-05 0.00417308
0.00183398 5.09139e-05 2.07705e-06
5.09139e-05 5.80064e-05 -1.33975e-07
2.07705e-06 -1.33975e-07 -4.10601e-05
0.00196725 5.58379e-05 -3.34398e-06
5.58379e-05 3.86602e-05 -1.11574e-07
-3.34398e-06 -1.11574e-07 -2.0193e-05
0.0020324 8.31038e-05 7.21547e-06
8.31038e-05 7.46812e-05 3.38746e-07
7.21547e-06 3.38746e-07 4.43923e-05
0.00112491 -1.12088e-05 -1.21326e-05
-1.12088e-05 -3.75695e-05 -2.54315e-07
-1.21326e-05 -2.54315e-07 -0.000160402
0.00190174 -2.97178e-06 2.45815e-06
-2.97178e-06 0.000101878 -5.25045e-08
2.45815e-06 -5.25045e-08 7.38419e-06
0.00198553 7.97736e-06 1.94161e-06
7.97736e-06 4.39407e-05 1.96098e-07
1.94161e-06 1.96098e-07 -5.65922e-06
0.00195969 -5.72747e-05 3.82735e-06
-5.72747e-05 0.000133537 1.99201e-07
3.82735e-06 1.99201e-07 3.90635e-05
0.00113731 -3.06965e-05 4.34808e-07
-3.06965e-05 -3.91079e-05 -7.25889e-08
4.34808e-07 -7.25889e-08 -0.000164074
0.000397445 -3.25144e-05 -1.9019e-05
-3.25144e-05 -0.000206823 7.86319e-07
-1.9019e-05 7.86319e-07 -0.000291069
0.00105833 -6.49846e-05 1.1915e-05
-6.49846e-05 -9.20128e-05 -1.1184e-06
1.1915e-05 -1.1184e-06 -0.0002312
0.000372342 2.43918e-06 4.49974e-07
2.43918e-06 -0.000225462 8.66757e-08
4.49974e-07 8.66757e-08 -0.000312328
0.00630869 -0.0001245 -0.0003281
-0.0001245 0.00363849 1.28717e-05
-0.0003281 1.28717e-05 0.0036598
0.000386828 -4.43337e-05 1.83861e-05
-4.43337e-05 -0.000212732 -2.97251e-06
1.83861e-05 -2.97251e-06 -0.000305347
0.00639289 -4.92203e-05 -3.18165e-06
-4.92203e-05 0.00367961 2.92072e-06
-3.18165e-06 2.92072e-06 0.00370559
0.0064929 -0.000109727 0.000326897
-0.000109727 0.00374266 -1.53557e-05
0.000326897 -1.53557e-05 0.00376636
0.00187291 0.000110945 1.43329e-07
0.000110945 7.63452e-05 3.91333e-07
1.43329e-07 3.91333e-07 -3.29109e-05
0.00201687 0.000130373 -3.38166e-06
0.000130373 5.29479e-05 -4.99286e-07
-3.38166e-06 -4.99286e-07 -9.96781e-06
0.00195787 0.000134122 6.22239e-06
0.000134122 -1.85693e-06 8.62746e-07
6.22239e-06 8.62746e-07 -3.10222e-05
0.00117228 9.68561e-05 -1.20119e-05
9.68561e-05 -2.15012e-05 -1.12153e-06
-1.20119e-05 -1.12153e-06 -0.000166777
0.00193678 0.000176254 3.0359e-07
0.000176254 0.000116072 -9.83952e-08
3.0359e-07 -9.83952e-08 -6.42417e-06
0.00207567 0.000198866 3.10229e-06
0.000198866 8.6295e-05 -3.83682e-07
3.10229e-06 -3.83682e-07 1.3194e-05
0.000388424 4.85225e-05 -1.749e-05
4.85225e-05 -0.000219332 -4.17937e-06
-1.749e-05 -4.17937e-06 -0.000314742
0.00116557 0.000146943 2.81996e-07
0.000146943 -3.40629e-05 2.79417e-07
2.81996e-07 2.79417e-07 -0.000193741
0.00194451 0.00024174 8.47701e-07
0.00024174 0.000134932 -8.67533e-07
8.47701e-07 -8.67533e-07 -7.42498e-06
0.00663588 0.000239382 -0.000353499
0.000239382 0.00384989 -2.91335e-05
-0.000353499 -2.91335e-05 0.0038594
0.000380462 7.69906e-05 7.72004e-07
7.69906e-05 -0.000226343 2.39597e-07
7.72004e-07 2.39597e-07 -0.000327439
0.0011469 0.000189888 9.86774e-06
0.000189888 -5.27874e-05 3.45376e-06
9.86774e-06 3.45376e-06 -0.000226034
0.00685162 0.000303128 5.78772e-06
0.000303128 0.00399112 3.48231e-06
5.78772e-06 3.48231e-06 0.00399044
0.000389163 0.000105378 1.75756e-05
0.000105378 -0.000220711 9.53749e-06
1.75756e-05 9.53749e-06 -0.000327549
0.00701845 0.000335512 0.00034467
0.000335512 0.00410139 4.52452e-05
0.00034467 4.52452e-05 0.00409273
0.00107945 2.72453e-05 -1.21841e-05
2.72453e-05 -6.34425e-05 -6.08351e-07
-1.21841e-05 -6.08351e-07 -0.000194426
0.00188432 4.86805e-05 2.69363e-06
4.86805e-05 8.9546e-05 1.53084e-08
2.69363e-06 1.53084e-08 -5.59977e-06
0.00203323 5.74091e-05 7.28156e-07
5.74091e-05 8.82757e-05 2.73161e-07
7.28156e-07 2.73161e-07 2.86127e-05
0.000436548 3.18503e-05 -1.95576e-05
3.18503e-05 -0.000190083 -9.50149e-07
-1.95576e-05 -9.50149e-07 -0.000265754
0.00109925 -5.76298e-06 2.38394e-07
-5.76298e-06 -5.64241e-05 2.93663e-08
2.38394e-07 2.93663e-08 -0.000179277
0.00193475 2.65062e-06 4.25553e-06
2.65062e-06 0.000125224 5.97782e-08
4.25553e-06 5.97782e-08 3.12121e-05
0.00111625 -3.16501e-05 1.25256e-05
-3.16501e-05 -5.56534e-05 -4.21019e-07
1.25256e-05 -4.21019e-07 -0.000180902
0.000395359 -5.95509e-06 4.64459e-07
-5.95509e-06 -0.000208347 3.75164e-07
4.64459e-07 3.75164e-07 -0.000292532
0.006204 1.18606e-05 -0.0003304
1.18606e-05 0.00356524 1.85296e-06
-0.0003304 1.85296e-06 0.00359412
0.000352159 1.41452e-05 1.79367e-05
1.41452e-05 -0.000239839 -9.13006e-07
1.79367e-05 -9.13006e-07 -0.000325236
0.00627248 -0.00012212 -7.89623e-06
-0.00012212 0.00361756 2.0601e-06
-7.89623e-06 2.0601e-06 0.00363847
0.00632756 -3.13729e-05 0.000314171
-3.13729e-05 0.00363891 -8.23241e-06
0.000314171 -8.23241e-06 0.00366512
0.00113657 5.75055e-05 -1.20804e-05
5.75055e-05 -3.47567e-05 -1.0479e-06
-1.20804e-05 -1.0479e-06 -0.000170397
0.00191215 0.000107929 -2.96646e-07
0.000107929 0.000100831 -4.34632e-07
-2.96646e-07 -4.34632e-07 -3.96896e-06
0.00200096 0.000127904 -6.18933e-07
0.000127904 3.48426e-05 -3.72206e-07
-6.18933e-07 -3.72206e-07 -2.25719e-05
0.00271101 6.55813e-05 -0.000151771
6.55813e-05 0.00124437 -5.43908e-06
-0.000151771 -5.43908e-06 0.00119062
0.00113178 9.85111e-05 2.33469e-07
9.85111e-05 -4.76118e-05 1.87432e-07
2.33469e-07 1.87432e-07 -0.000193927
0.00196272 0.000175198 1.07651e-06
0.000175198 0.000137112 -1.25977e-06
1.07651e-06 -1.25977e-06 1.47496e-05
0.00644914 0.000172923 -0.000350586
0.000172923 0.00372707 -2.07264e-05
-0.000350586 -2.07264e-05 0.0037461
0.000413804 6.78546e-05 1.12165e-06
6.78546e-05 -0.000200814 4.68593e-07
1.12165e-06 4.68593e-07 -0.00029847
0.00116131 0.000148791 1.19551e-05
0.000148791 -3.71885e-05 2.38795e-06
1.19551e-05 2.38795e-06 -0.000198028
0.00671507 0.000254949 9.40559e-07
0.000254949 0.00390078 1.58841e-06
9.40559e-07 1.58841e-06 0.00390888
0.00041344 8.60274e-05 1.78132e-05
8.60274e-05 -0.000204674 7.25228e-06
1.78132e-05 7.25228e-06 -0.00030782
0.00692063 0.00033899 0.000355152
0.00033899 0.00404787 4.46369e-05
0.000355152 4.46369e-05 0.00404013
0.00051943 1.22166e-05 -1.54737e-05
1.22166e-05 -0.000127753 -2.04046e-06
-1.54737e-05 -2.04046e-06 -0.000212722
0.00107932 2.67887e-05 8.95957e-08
2.67887e-05 -6.80663e-05 1.89502e-07
8.95957e-08 1.89502e-07 -0.000196206
0.00193199 4.51531e-05 4.14565e-06
4.51531e-05 0.000119249 -1.13575e-07
4.14565e-06 -1.13575e-07 2.80273e-05
0.0060275 -0.000103158 -0.00031203
-0.000103158 0.00347353 4.28421e-06
-0.00031203 4.28421e-06 0.00349116
0.00039349 9.63804e-06 -5.84164e-07
9.63804e-06 -0.000212694 -1.34415e-07
-5.84164e-07 -1.34415e-07 -0.000291016
0.00108952 -1.57357e-06 1.24645e-05
-1.57357e-06 -6.54014e-05 4.07422e-08
1.24645e-05 4.07422e-08 -0.000188218
0.000351599 2.0758e-05 1.82291e-05
2.0758e-05 -0.000237406 4.8108e-07
1.82291e-05 4.8108e-07 -0.000320309
0.00613988 -2.35516e-05 1.87156e-06
-2.35516e-05 0.00353169 -1.68257e-06
1.87156e-06 -1.68257e-06 0.00355567
0.00625815 -4.49496e-05 0.000319024
-4.49496e-05 0.00359639 -5.82221e-06
0.000319024 -5.82221e-06 0.00362348
0.00278457 1.77726e-05 -0.000145359
1.77726e-05 0.00129057 -3.05863e-06
-0.000145359 -3.05863e-06 0.00124105
0.00111069 6.06648e-05 8.77616e-08
6.06648e-05 -5.30089e-05 -8.03671e-08
8.77616e-08 -8.03671e-08 -0.00018943
0.00197174 0.000105479 1.42482e-06
0.000105479 0.000139159 -8.79065e-07
1.42482e-06 -8.79065e-07 3.90719e-05
0.00591909 -3.0902e-05 -0.00013946
-3.0902e-05 0.00340775 2.07818e-07
-0.00013946 2.07818e-07 0.00339677
0.000411055 5.96357e-05 2.9063e-07
5.96357e-05 -0.000200048 2.98907e-07
2.9063e-07 2.98907e-07 -0.00029144
0.00111231 0.000100939 1.21517e-05
0.000100939 -6.14991e-05 1.47365e-06
1.21517e-05 1.47365e-06 -0.00020879
0.00654407 0.000150068 -1.08651e-05
0.000150068 0.00378075 -1.85144e-06
-1.08651e-05 -1.85144e-06 0.00380097
0.000415122 8.99956e-05 1.92128e-05
8.99956e-05 -0.000198611 5.85974e-06
1.92128e-05 5.85974e-06 -0.000297563
0.00680559 0.000279596 0.000361471
0.000279596 0.00396328 3.76136e-05
0.000361471 3.76136e-05 0.00396887
0.00182427 -5.39506e-05 -0.000246411
-5.39506e-05 0.000795152 1.42349e-06
-0.000246411 1.42349e-06 0.000795662
0.00158368 3.19345e-05 -6.25799e-05
3.19345e-05 0.000534273 5.71685e-08
-6.25799e-05 5.71685e-08 0.000472393
0.00107488 2.89508e-05 1.26247e-05
2.89508e-05 -7.4803e-05 6.50656e-07
1.26247e-05 6.50656e-07 -0.00020017
0.00610391 -4.98762e-05 6.71074e-06
-4.98762e-05 0.0035147 2.77113e-06
6.71074e-06 2.77113e-06 0.003538
0.000411418 -1.13958e-05 1.88751e-05
-1.13958e-05 -0.000194905 9.01302e-07
1.88751e-05 9.01302e-07 -0.000277184
0.00617589 -8.60542e-05 0.000330634
-8.60542e-05 0.00355851 -5.38138e-06
0.000330634 -5.38138e-06 0.00358202
0.0013901 2.31921e-05 -6.5344e-05
2.31921e-05 0.000549952 -1.16564e-06
-6.5344e-05 -1.16564e-06 0.000510276
0.00157757 1.99785e-05 -6.37464e-05
1.99785e-05 0.000532092 -1.53612e-06
-6.37464e-05 -1.53612e-06 0.000465304
0.00107454 6.22699e-05 1.2084e-05
6.22699e-05 -7.74521e-05 8.76717e-07
1.2084e-05 8.76717e-07 -0.000214672
0.00390728 7.11916e-05 0.000124113
7.11916e-05 0.00212205 3.87366e-06
0.000124113 3.87366e-06 0.00211503
0.000419682 6.95674e-05 1.96905e-05
6.95674e-05 -0.000194332 4.43988e-06
1.96905e-05 4.43988e-06 -0.000285683
0.0066207 0.000137321 0.000344044
0.000137321 0.00382052 2.25223e-05
0.000344044 2.25223e-05 0.00384455
0.00605669 -1.98487e-05 -8.77752e-06
-1.98487e-05 0.00348844 -3.32659e-06
-8.77752e-06 -3.32659e-06 0.0035104
0.000404738 5.08321e-05 2.05034e-05
5.08321e-05 -0.000210767 2.59218e-06
2.05034e-05 2.59218e-06 -0.000286042
0.00601555 3.49064e-05 0.000318535
3.49064e-05 0.00345476 1.97919e-07
0.000318535 1.97919e-07 0.00348185
0.00377124 3.34323e-05 0.000135275
3.34323e-05 0.00204237 5.42469e-06
0.000135275 5.42469e-06 0.00203777
0.000438359 9.89701e-06 1.89679e-05
9.89701e-06 -0.000181878 2.60026e-06
1.89679e-05 2.60026e-06 -0.000266467
0.00638582 5.58663e-06 0.000330263
5.58663e-06 0.00367501 1.01054e-05
0.000330263 1.01054e-05 0.00370124
0.00611845 -0.000116933 0.000317447
-0.000116933 0.00353083 -4.35884e-06
0.000317447 -4.35884e-06 0.00354859
0.00616309 1.21993e-05 0.000321448
1.21993e-05 0.0035369 5.88008e-06
0.000321448 5.88008e-06 0.00356609
