# vtk DataFile Version 2.0
Wound Healing Simulation
ASCII
DATASET UNSTRUCTURED_GRID
POINTS 3012 float
69.9759 18.75 4
67.2507 60.3285 4
69.976 18.75 2
73.0099 25.446 4
71.1327 20.9142 4
68.6801 16.6661 4
67.8254 19.9261 3.98244
67.2507 60.3286 2
71.1327 54.0858 4
68.6801 58.3339 4
65.6939 62.2254 4
65.3119 59.001 3.98142
74.6784 42.3946 4
73.7221 47.2057 4
69.9759 18.75 0
73.0099 25.446 2
68.6801 16.6661 2
71.1327 20.9142 2
67.8259 19.9291 2
74.6792 32.6053 4
73.7222 27.7943 4
72.1454 23.1494 4
70.6141 26.2209 3.98197
68.8856 21.958 3.98284
67.2507 14.6715 4
66.6368 17.9721 3.98134
65.7962 21.0258 3.97288
67.2507 60.3285 0
71.1327 54.0858 2
68.6801 58.3339 2
65.694 62.2255 2
65.313 58.9976 2
72.1454 51.8506 4
69.9759 56.25 4
68.8363 53.1129 3.98187
64.0165 64.0165 4
66.6105 57.1336 3.98185
63.8855 60.7659 3.98334
63.4989 57.7695 3.97294
60.3285 67.2507 4
74.6792 42.3947 2
73.7222 47.2057 2
74.9194 39.9526 4
74.2788 44.8158 4
72.1681 42.0855 3.98102
73.0099 49.554 4
71.2492 46.598 3.98094
73.0099 25.446 0
71.1327 20.9142 0
68.6801 16.6661 0
67.8254 19.9261 0.0175556
74.6792 32.6053 2
73.7222 27.7943 2
67.2508 14.6715 2
72.1455 23.1494 2
70.6141 26.2213 2
66.6376 17.9758 2
68.8859 21.96 2
65.7956 21.0264 2
74.9197 35.0474 4
74.2794 30.1841 4
72.1848 32.9432 3.98148
71.2781 28.4313 3.98137
69.8155 24.0595 3.98261
68.3461 26.9516 3.97137
66.7617 22.9335 3.97215
65.694 12.7746 4
65.3232 16.1038 3.98151
64.7122 19.1965 3.97319
63.884 22.0378 3.96867
71.1327 54.0858 0
65.6939 62.2254 0
68.6801 58.3339 0
65.3119 59.001 0.0185768
72.1455 51.8506 2
69.9759 56.25 2
68.8365 53.1111 2
64.0165 64.0165 2
66.6113 57.1302 2
63.8871 60.763 2
63.4984 57.7695 2
62.2254 65.694 4
58.8946 65.4142 3.99089
69.7688 50.9888 3.9817
67.7836 55.1672 3.98187
66.6485 52.2085 3.97117
62.3361 62.4275 3.9866
64.6596 56.0303 3.9731
62.2016 59.4019 3.97404
61.8187 56.6758 3.96846
58.3339 68.6801 4
60.3285 67.2508 2
73.7221 47.2057 0
74.6784 42.3946 0
74.9197 39.9526 2
74.2794 44.8159 2
72.1677 42.0855 2
73.0099 49.554 2
71.2491 46.5978 2
75 37.5 4
72.4054 39.8021 3.98148
71.7824 44.3528 3.98108
69.8032 41.7892 3.97076
70.575 48.8135 3.98126
68.9113 46.0142 3.97048
74.6792 32.6053 0
73.7222 27.7943 0
67.2507 14.6715 0
72.1454 23.1494 0
70.6141 26.2209 0.0180268
68.8856 21.958 0.0171624
66.6368 17.9721 0.0186611
65.7962 21.0258 0.0271184
74.9197 35.0474 2
74.2794 30.1841 2
72.1844 32.9435 2
71.278 28.4316 2
65.694 12.7745 2
65.3246 16.1073 2
69.8156 24.0606 2
68.346 26.9519 2
64.7116 19.1969 2
66.7613 22.9341 2
63.8833 22.038 2
72.4132 35.2241 3.98152
71.8039 30.6762 3.9815
69.8393 33.2682 3.97131
68.9653 29.0382 3.97113
67.6105 24.9122 3.97169
66.192 27.6356 3.96814
64.0165 10.9835 4
64.7538 23.8318 3.96855
63.89 14.3273 3.98439
63.5114 17.4499 3.97314
62.9027 20.3244 3.96847
62.0827 22.9492 3.96736
60.6839 11.098 3.98756
57.6119 11.4499 3.97974
72.1454 51.8506 0
69.9759 56.25 0
68.8363 53.1129 0.0181254
64.0165 64.0165 0
63.8855 60.7659 0.0166647
66.6105 57.1336 0.0181527
63.4989 57.7695 0.0270614
62.2255 65.694 2
58.8957 65.4137 2
69.7688 50.9879 2
67.784 55.1643 2
66.648 52.2079 2
62.3377 62.4256 2
64.6591 56.03 2
62.2012 59.4025 2
61.8181 56.6763 2
60.6687 63.977 3.98877
57.0257 66.7348 3.99173
57.5578 63.6908 3.98234
67.5065 50.176 3.97057
65.7008 54.1724 3.97186
64.5347 51.3828 3.9674
60.7725 60.9361 3.9778
62.8164 55.0638 3.96854
60.6544 58.1528 3.96777
60.3206 55.7754 3.96877
56.25 69.9759 4
58.3339 68.6801 2
60.3285 67.2507 0
58.9212 9.65624 3.98876
62.2254 9.30607 4
73.0099 49.554 0
74.2788 44.8158 0
71.2492 46.598 0.0190568
72.1681 42.0855 0.0189803
74.9194 39.9526 0
75 37.5 2
72.4053 39.8023 2
71.7824 44.3526 2
69.8029 41.7889 2
70.575 48.8132 2
68.9113 46.0137 2
72.4888 37.512 3.98122
70.0405 39.657 3.97094
69.4294 43.9069 3.97055
67.5952 41.4965 3.96826
68.265 48.1065 3.97044
66.7072 45.4382 3.96768
74.9197 35.0474 0
74.2794 30.1841 0
72.1848 32.9432 0.0185187
71.2781 28.4313 0.0186335
65.694 12.7746 0
65.3232 16.1038 0.0184909
69.8155 24.0595 0.017395
68.3461 26.9516 0.0286325
66.7617 22.9335 0.0278518
64.7122 19.1965 0.0268099
63.884 22.0378 0.0313261
72.4132 35.2241 2
71.8038 30.6766 2
69.839 33.2686 2
68.9653 29.0386 2
64.0165 10.9835 2
63.8917 14.3301 2
63.5109 17.45 2
67.6103 24.9126 2
66.192 27.6358 2
62.902 20.3245 2
64.7533 23.832 2
62.082 22.9494 2
60.6856 11.0998 2
57.6125 11.4488 2
70.0572 35.3917 3.97112
69.4663 31.1495 3.97106
67.6535 33.5911 3.96859
66.7697 29.6236 3.9681
65.5214 25.7005 3.96837
64.1237 28.2606 3.96928
62.3416 12.6552 3.98642
62.8435 24.6429 3.96812
62.1981 15.7875 3.97587
61.8075 18.6914 3.96739
61.2088 21.3488 3.96614
60.3953 23.7397 3.96853
59.2458 12.7816 3.97829
55.8742 10.2355 3.98208
56.4041 13.1202 3.97524
69.7688 50.9888 0.0182994
62.2254 65.694 0
58.8946 65.4142 0.00911095
67.7836 55.1672 0.0181334
66.6485 52.2085 0.0288312
62.3361 62.4275 0.0133986
62.2016 59.4019 0.0259633
64.6596 56.0303 0.0268966
61.8187 56.6758 0.031543
60.6701 63.9759 2
57.0264 66.7346 2
57.5579 63.6922 2
67.5063 50.1755 2
65.7002 54.1718 2
64.5342 51.3827 2
60.7725 60.9374 2
62.8158 55.064 2
60.654 58.1536 2
60.3202 55.7756 2
55.0714 67.9317 3.99218
59.2188 62.3646 3.97926
55.8048 64.9095 3.98558
56.3257 62.0866 3.97739
65.329 49.4061 3.96727
63.7025 53.2892 3.96777
62.4216 50.6435 3.9671
59.3311 59.5524 3.97282
61.0699 54.3007 3.96802
59.2814 56.9977 3.96533
59.2317 55.1701 3.96737
48.1027 68.5781 3.98787
50.9491 69.9314 3.99239
54.0858 71.1327 4
56.25 69.976 2
58.3339 68.6801 0
57.0586 8.33613 3.98982
60.3285 7.74928 4
58.9228 9.65734 2
62.2255 9.30602 2
70.575 48.8135 0.0187368
71.7824 44.3528 0.0189235
68.9113 46.0142 0.02952
69.8032 41.7892 0.0292448
72.4054 39.8021 0.0185198
75 37.5 0
72.4884 37.5121 2
70.0405 39.6569 2
69.4294 43.9066 2
67.5948 41.4963 2
68.2649 48.106 2
66.7071 45.438 2
70.1286 37.5212 3.97108
67.8327 39.5116 3.96855
67.2211 43.4685 3.96788
65.5218 41.2059 3.97059
66.066 47.4161 3.96753
64.6201 44.8418 3.96936
72.4132 35.2241 0.0184753
71.8039 30.6762 0.0184987
69.8393 33.2682 0.0286885
68.9653 29.0382 0.0288721
64.0165 10.9835 0
63.89 14.3273 0.0156132
63.5114 17.4499 0.0268571
67.6105 24.9122 0.0283115
66.192 27.6356 0.0318557
64.7538 23.8318 0.0314461
62.9027 20.3244 0.0315318
62.0827 22.9492 0.0326359
60.6839 11.098 0.0124432
57.6119 11.4499 0.0202553
70.0572 35.3919 2
69.4663 31.1498 2
67.6532 33.5912 2
66.7697 29.6237 2
62.3433 12.6576 2
62.1977 15.7872 2
61.8071 18.6912 2
65.5212 25.7007 2
64.1231 28.2608 2
61.2081 21.3488 2
62.843 24.643 2
60.3952 23.74 2
59.2462 12.7812 2
56.4043 13.119 2
55.8746 10.2344 2
67.8687 35.5474 3.96863
67.263 31.6229 3.96834
65.6724 33.9289 3.97091
64.6368 30.1964 3.96958
63.5202 26.4197 3.96882
62.2044 28.788 3.97265
60.775 14.226 3.97815
61.0085 25.3496 3.97016
60.6083 17.1348 3.9708
60.2087 19.8268 3.96534
59.6294 22.2723 3.9657
58.9279 24.3381 3.97063
54.0375 9.1375 3.98366
57.9089 14.3385 3.97665
54.7861 12.0178 3.97737
55.3101 14.6579 3.97467
67.5065 50.176 0.0294339
57.0257 66.7348 0.00826961
60.6687 63.977 0.0112289
57.5578 63.6908 0.0176612
65.7008 54.1724 0.0281421
64.5347 51.3828 0.0326026
60.7725 60.9361 0.0222001
60.6544 58.1528 0.0322329
62.8164 55.0638 0.031458
60.3206 55.7754 0.0312297
55.0719 67.9317 2
59.2189 62.3658 2
55.8047 64.9105 2
56.3256 62.0881 2
65.3287 49.406 2
63.7018 53.2892 2
62.4219 50.6434 2
59.3309 59.554 2
61.0695 54.3007 2
59.2811 56.9976 2
59.2315 55.1699 2
53.0433 68.9995 3.99228
53.9672 66.0125 3.98693
57.8791 60.8661 3.9764
54.6836 63.2055 3.98146
55.2093 60.609 3.97628
63.1671 48.6525 3.96786
61.7291 52.567 3.96687
60.2217 50.002 3.96873
58.0122 58.2529 3.96923
59.3147 53.9336 3.96713
58.1107 55.7948 3.96553
50.1094 67.8562 3.9877
47.4633 66.5794 3.98475
46.0563 69.1572 3.98796
48.1026 68.5786 2
48.8032 70.7227 3.99249
50.9495 69.9314 2
51.8506 72.1454 4
54.0858 71.1327 2
56.25 69.9759 0
55.1033 7.14058 3.99088
58.3339 6.31992 4
57.0599 8.33666 2
60.3286 7.74926 2
58.9212 9.65624 0.0112366
62.2254 9.30607 0
68.265 48.1065 0.0295575
69.4294 43.9069 0.0294499
66.7072 45.4382 0.0323229
67.5952 41.4965 0.031737
70.0405 39.657 0.0290573
72.4888 37.512 0.0187791
70.1283 37.5213 2
67.8327 39.5115 2
67.221 43.4683 2
65.5211 41.2057 2
66.066 47.4159 2
64.6195 44.8416 2
67.929 37.5216 3.96862
65.7553 39.3678 3.97092
65.1446 43.02 3.97008
63.6793 40.9229 3.97383
63.9325 46.7088 3.96859
62.7375 44.2047 3.97312
70.0572 35.3917 0.0288823
69.4663 31.1495 0.0289361
67.6535 33.5911 0.0314055
66.7697 29.6236 0.0319008
62.3416 12.6552 0.0135833
62.1981 15.7875 0.024129
61.8075 18.6914 0.0326129
65.5214 25.7005 0.0316256
64.1237 28.2606 0.030718
62.8435 24.6429 0.0318802
61.2088 21.3488 0.033856
60.3953 23.7397 0.0314738
59.2458 12.7816 0.0217122
56.4041 13.1202 0.0247641
55.8742 10.2355 0.0179209
67.8687 35.5475 2
67.263 31.623 2
65.672 33.929 2
64.6363 30.1966 2
60.7749 14.2257 2
60.6079 17.1339 2
60.2088 19.8266 2
63.5198 26.4198 2
62.2032 28.7883 2
59.6312 22.2724 2
61.0081 25.3499 2
58.927 24.3388 2
57.9085 14.3377 2
55.3099 14.6577 2
54.0378 9.13645 2
54.7863 12.016 2
65.8463 35.6672 3.97082
65.1555 32.1576 3.97016
64.2274 34.2521 3.97411
62.5214 30.645 3.97337
61.6017 27.084 3.97115
60.7692 29.154 3.97622
59.3086 15.6747 3.9752
59.2629 25.8149 3.9737
59.113 18.3679 3.96772
58.7158 20.869 3.96367
58.2333 23.1119 3.9663
57.9005 24.687 3.9727
52.1123 8.15498 3.9852
53.0579 11.0218 3.97954
56.6732 15.7525 3.97608
53.8079 13.6911 3.97575
54.3714 16.0136 3.97608
55.0714 67.9317 0.00782447
65.329 49.4061 0.032726
55.8048 64.9095 0.0144205
59.2188 62.3646 0.0207377
56.3257 62.0866 0.0226096
63.7025 53.2892 0.0322302
62.4216 50.6435 0.0328953
59.3311 59.5524 0.0271778
59.2814 56.9977 0.0346678
61.0699 54.3007 0.0319759
59.2317 55.1701 0.0326268
53.0437 68.9996 2
53.9671 66.0132 2
57.8787 60.8673 2
54.6834 63.2066 2
55.2092 60.6104 2
63.1668 48.6523 2
61.7301 52.5671 2
60.2212 50.0016 2
58.0118 58.2545 2
59.3153 53.9334 2
58.1098 55.7942 2
52.0706 66.9992 3.98746
52.9536 64.2173 3.98348
56.6447 59.4821 3.97467
53.6801 61.6185 3.9782
54.2559 59.3106 3.97493
60.9228 47.8635 3.96938
59.6711 52.0884 3.96787
57.9414 49.592 3.97034
56.7657 56.9693 3.96728
57.0922 54.1021 3.96597
50.1093 67.8567 2
49.3371 65.9199 3.9846
47.4632 66.58 2
46.8926 64.7335 3.9831
45.5583 67.0965 3.98486
43.9732 69.5895 3.98806
46.0562 69.1577 2
46.6097 71.3671 3.99248
48.1027 68.5781 0.012133
48.8036 70.7228 2
49.554 73.0099 4
50.9491 69.9314 0.00760522
51.8506 72.1455 2
54.0858 71.1327 0
53.0647 6.07206 3.99147
55.1042 7.1407 2
56.25 5.02411 4
58.3339 6.3199 2
57.0586 8.33613 0.0101838
60.3285 7.74928 0
66.066 47.4161 0.0324712
67.2211 43.4685 0.0321197
64.6201 44.8418 0.0306369
65.5218 41.2059 0.0294141
67.8327 39.5116 0.0314536
70.1286 37.5212 0.0289202
67.9288 37.5216 2
65.7546 39.3677 2
65.144 43.0198 2
63.6784 40.9227 2
63.9318 46.7085 2
62.7361 44.2044 2
65.8592 37.5008 3.97077
63.8218 39.2624 3.97351
63.25 42.5407 3.97344
62.3234 40.6889 3.97733
61.8976 45.9048 3.97125
61.3469 43.668 3.97657
67.8687 35.5474 0.0313666
67.263 31.6229 0.0316631
65.6724 33.9289 0.0290904
64.6368 30.1964 0.0304228
60.775 14.226 0.0218451
60.6083 17.1348 0.0291991
60.2087 19.8268 0.0346616
63.5202 26.4197 0.0311758
62.2044 28.788 0.0273459
61.0085 25.3496 0.0298379
59.6294 22.2723 0.0343018
58.9279 24.3381 0.0293682
57.9089 14.3385 0.0233508
55.3101 14.6579 0.0253252
54.0375 9.1375 0.0163351
54.7861 12.0178 0.0226326
65.8455 35.6672 2
65.1555 32.1577 2
64.227 34.2521 2
62.5201 30.6452 2
59.3079 15.6742 2
59.1129 18.3671 2
58.717 20.8691 2
61.6009 27.0843 2
60.7684 29.1544 2
58.233 23.1126 2
59.2622 25.8155 2
57.8999 24.6879 2
56.6726 15.7517 2
54.3708 16.0135 2
53.8077 13.6887 2
52.1124 8.15412 2
53.0579 11.0205 2
64.023 35.6328 3.97354
62.8471 33.052 3.97424
60.5131 30.6252 3.97633
59.4822 27.9282 3.97477
57.9335 16.9933 3.97312
57.658 25.7498 3.97523
57.6955 19.4931 3.96462
57.3254 21.8622 3.96286
57.1099 23.9728 3.96816
50.1126 7.28576 3.98694
51.2328 10.1282 3.98136
52.1711 12.8046 3.97762
55.5305 16.9858 3.97527
52.9746 15.2802 3.97387
53.7507 16.9982 3.97933
53.0433 68.9995 0.00771901
53.9672 66.0125 0.0130689
63.1671 48.6525 0.0321417
54.6836 63.2055 0.0185368
57.8791 60.8661 0.0235972
55.2093 60.609 0.0237239
61.7291 52.567 0.0331304
60.2217 50.002 0.0312716
58.0122 58.2529 0.0307668
58.1107 55.7948 0.0344717
59.3147 53.9336 0.0328744
52.0705 66.9997 2
52.9533 64.218 2
56.6443 59.4829 2
53.6799 61.6196 2
54.2557 59.3121 2
60.9216 47.863 2
59.672 52.0882 2
57.9385 49.5911 2
56.7645 56.9738 2
57.0908 54.1015 2
51.1682 65.1268 3.98458
52.0459 62.5359 3.98088
55.4739 58.24 3.97527
52.8313 60.1281 3.97736
53.6325 58.4607 3.97897
58.1923 46.8226 3.97378
57.507 51.7639 3.96757
56.1376 49.5243 3.97061
55.4506 55.7691 3.96312
55.3123 53.3572 3.96402
50.1094 67.8562 0.0123008
49.337 65.9204 2
48.6184 64.1202 3.98333
47.4633 66.5794 0.0152456
45.5583 67.097 2
46.8925 64.734 2
46.3823 63.0495 3.98259
45.1329 65.1945 3.98314
43.6315 67.4671 3.98493
41.8605 69.8768 3.98794
43.9732 69.5899 2
44.377 71.862 3.99241
46.0563 69.1572 0.0120375
46.6101 71.3673 2
47.2057 73.7222 4
48.8032 70.7227 0.00750518
49.554 73.0099 2
51.8506 72.1454 0
50.9547 5.13224 3.99209
53.0653 6.072 2
54.0858 3.86728 4
55.1033 7.14058 0.00911937
56.25 5.02406 2
58.3339 6.31992 0
63.9325 46.7088 0.0314099
65.1446 43.02 0.0299216
62.7375 44.2047 0.0268786
63.6793 40.9229 0.0261716
65.7553 39.3678 0.0290782
67.929 37.5216 0.0313769
65.8584 37.5008 2
63.8207 39.2623 2
63.2488 42.5404 2
62.3219 40.6887 2
61.8962 45.9043 2
61.3455 43.6677 2
63.8845 37.4551 3.97334
62.0444 39.3493 3.97669
61.0951 41.9443 3.97638
60.1448 44.7509 3.97558
65.8463 35.6672 0.0291804
65.1555 32.1576 0.0298419
64.2274 34.2521 0.0258888
62.5214 30.645 0.0266328
59.3086 15.6747 0.0247969
59.113 18.3679 0.0322826
58.7158 20.869 0.0363308
61.6017 27.084 0.028852
60.7692 29.154 0.0237817
59.2629 25.8149 0.0263017
58.2333 23.1119 0.0336965
57.9005 24.687 0.0272992
56.6732 15.7525 0.0239166
54.3714 16.0136 0.0239245
53.8079 13.6911 0.0242497
52.1123 8.15498 0.0148005
53.0579 11.0218 0.0204595
64.0223 35.6328 2
62.846 33.0522 2
60.512 30.6255 2
57.9328 16.9928 2
57.6957 19.4919 2
57.3262 21.8628 2
59.4812 27.9288 2
57.109 23.9739 2
57.6575 25.7507 2
50.1127 7.28478 2
55.5299 16.9852 2
53.7499 16.9977 2
52.9743 15.2795 2
52.1711 12.8037 2
51.2328 10.1273 2
62.0783 35.3624 3.97579
60.1573 32.7572 3.97653
58.4932 30.097 3.97686
57.1785 27.4085 3.97612
56.6244 18.1705 3.97244
56.1992 25.1326 3.97265
56.3256 20.5434 3.96181
56.0364 22.8985 3.96273
48.0567 6.52794 3.98836
49.325 9.33396 3.98272
50.4329 12.0001 3.97896
51.3749 14.5086 3.97463
54.4028 17.9375 3.97648
52.3538 17.0594 3.97214
52.0706 66.9992 0.0125402
52.9536 64.2173 0.0165205
60.9228 47.8635 0.0306212
53.6801 61.6185 0.0217981
56.6447 59.4821 0.0253253
54.2559 59.3106 0.0250745
59.6711 52.0884 0.0321282
57.9414 49.592 0.0296629
56.7657 56.9693 0.0327229
57.0922 54.1021 0.0340338
51.168 65.1273 2
52.0455 62.5367 2
55.4733 58.241 2
52.8312 60.1303 2
53.632 58.4614 2
58.1909 46.8219 2
57.5064 51.7633 2
56.1348 49.5235 2
55.4505 55.7696 2
55.3139 53.3576 2
50.3465 63.3789 3.98304
51.2428 60.9304 3.97821
54.2064 57.2561 3.9752
52.3062 58.6206 3.97612
56.5316 44.148 3.97779
55.3498 47.8603 3.97211
54.995 51.3611 3.96663
53.967 54.5163 3.96304
49.3371 65.9199 0.0153963
48.6183 64.1208 2
47.9623 62.4709 3.98214
45.5583 67.0965 0.0151365
46.8926 64.7335 0.016904
43.6314 67.4676 2
46.3823 63.0499 2
45.1328 65.195 2
45.9879 61.5807 3.98282
44.7676 63.4497 3.98186
43.357 65.5038 3.98297
41.6636 67.6858 3.98474
39.7022 70.0238 3.98815
41.8605 69.8773 2
42.1113 72.2068 3.99236
43.9732 69.5895 0.0119388
44.3773 71.8622 2
44.8159 74.2794 4
46.6097 71.3671 0.00752209
47.2057 73.7222 2
49.554 73.0099 0
48.7853 4.32289 3.99259
50.9551 5.1319 2
51.8506 2.85458 4
53.0647 6.07206 0.00852645
54.0858 3.86728 2
56.25 5.02411 0
61.8976 45.9048 0.0287458
63.25 42.5407 0.0265575
61.3469 43.668 0.0234298
62.3234 40.6889 0.0226737
63.8218 39.2624 0.0264926
65.8592 37.5008 0.0292288
63.8833 37.4551 2
62.043 39.3493 2
61.0935 41.944 2
60.1435 44.7504 2
61.8826 37.4433 3.97691
60.0936 39.8328 3.97738
58.8279 42.8935 3.97744
64.023 35.6328 0.0264604
62.8471 33.052 0.0257647
60.5131 30.6252 0.0236736
57.9335 16.9933 0.0268752
57.6955 19.4931 0.0353801
57.3254 21.8622 0.0371427
59.4822 27.9282 0.0252257
57.658 25.7498 0.0247674
57.1099 23.9728 0.0318365
55.5305 16.9858 0.0247266
53.7507 16.9982 0.020666
52.9746 15.2802 0.0261315
50.1126 7.28576 0.0130609
52.1711 12.8046 0.0223812
51.2328 10.1282 0.018636
62.0773 35.3625 2
60.155 32.7575 2
58.4925 30.0977 2
56.6237 18.1699 2
56.3261 20.541 2
56.0381 22.8994 2
57.1796 27.4093 2
56.2002 25.1335 2
48.0567 6.52697 2
49.325 9.33291 2
54.4024 17.937 2
52.3529 17.0591 2
51.3743 14.507 2
50.4329 11.9993 2
59.7379 35.1279 3.97706
57.813 32.2942 3.97718
56.4007 29.3712 3.97739
55.3086 26.6378 3.97623
55.3216 19.2061 3.97143
54.8357 24.0945 3.96508
54.951 21.5901 3.9591
45.9628 5.88265 3.98898
43.3743 7.47382 3.98595
47.3556 8.62572 3.98438
48.6001 11.2987 3.98017
49.7115 13.7518 3.97828
50.6284 16.1516 3.9775
53.1083 18.6833 3.9721
51.2885 18.0743 3.97988
51.1682 65.1268 0.0154236
52.0459 62.5359 0.0191238
58.1923 46.8226 0.026217
52.8313 60.1281 0.0226426
55.4739 58.24 0.024735
53.6325 58.4607 0.0210325
57.507 51.7639 0.032429
56.1376 49.5243 0.0293856
55.4506 55.7691 0.0368767
55.3123 53.3572 0.0359802
50.3461 63.3791 2
51.2423 60.9308 2
54.2059 57.2572 2
52.3056 58.6211 2
56.5306 44.1471 2
55.349 47.8594 2
54.9957 51.3609 2
53.9676 54.5175 2
49.5919 61.7416 3.9816
55.376 41.6733 3.97603
50.5623 59.321 3.97468
52.1666 56.4748 3.96993
53.9792 45.5166 3.97522
53.2033 49.2921 3.97043
52.6064 52.821 3.96481
48.6184 64.1202 0.016666
47.9622 62.4712 2
47.3287 61.0037 3.9835
43.6315 67.4671 0.0150682
45.1329 65.1945 0.0168636
46.3823 63.0495 0.0174129
41.6636 67.686 2
43.3568 65.5045 2
45.988 61.5813 2
44.7676 63.4503 2
45.7657 60.6243 3.98124
44.4841 61.8292 3.98158
43.1469 63.7217 3.9814
41.5465 65.6414 3.98225
39.6328 67.7654 3.98438
37.526 70.0487 3.98787
39.7023 70.0244 2
39.8179 72.4039 3.99222
41.8605 69.8768 0.0120619
42.1115 72.2071 2
42.3947 74.6792 4
44.377 71.862 0.0075912
44.8159 74.2794 2
47.2057 73.7222 0
43.8521 5.35943 3.98903
46.5712 3.6473 3.99279
48.7855 4.3225 2
49.554 1.99015 4
50.9547 5.13224 0.00791495
51.8506 2.85453 2
54.0858 3.86728 0
60.1448 44.7509 0.0244181
61.0951 41.9443 0.0236163
62.0444 39.3493 0.0233072
63.8845 37.4551 0.026662
61.8811 37.4434 2
60.0925 39.8323 2
58.8268 42.8929 2
59.5929 37.5647 3.97758
57.7885 40.6342 3.97776
54.8142 39.6864 3.9761
62.0783 35.3624 0.0242084
60.1573 32.7572 0.023471
58.4932 30.097 0.023144
56.6244 18.1705 0.027563
56.3256 20.5434 0.0381862
56.0364 22.8985 0.037275
57.1785 27.4085 0.0238773
56.1992 25.1326 0.027348
54.4028 17.9375 0.0235151
52.3538 17.0594 0.0278557
51.3749 14.5086 0.0253745
48.0567 6.52794 0.0116421
49.325 9.33396 0.0172754
50.4329 12.0001 0.0210365
59.7363 35.1281 2
45.9626 5.88211 2
43.3741 7.47335 2
57.8121 32.2951 2
56.4006 29.372 2
55.321 19.2059 2
54.9535 21.5897 2
54.8348 24.0958 2
55.3043 26.6394 2
47.3557 8.62417 2
48.6002 11.2976 2
53.1081 18.6825 2
51.288 18.075 2
50.6279 16.1514 2
49.7111 13.751 2
57.1766 34.774 3.97748
55.5391 31.5509 3.97784
54.3268 28.4537 3.97826
53.6589 25.5442 3.97398
53.9397 20.1606 3.97245
53.511 22.7507 3.95664
41.3994 7.07928 3.98639
45.3604 7.99545 3.98627
42.8663 9.41717 3.98318
46.667 10.6568 3.98169
47.7441 13.1089 3.98041
48.928 15.4131 3.97595
49.996 17.7188 3.97617
51.6269 19.3513 3.97839
50.3465 63.3789 0.0169623
51.2428 60.9304 0.0217903
56.5316 44.148 0.0222097
55.3498 47.8603 0.0278865
52.3062 58.6206 0.0238771
54.2064 57.2561 0.024799
54.995 51.3611 0.0333661
53.967 54.5163 0.0369594
49.5914 61.7413 2
55.3764 41.6732 2
50.5618 59.3217 2
52.166 56.4757 2
53.9841 45.5158 2
53.207 49.292 2
52.6076 52.8207 2
48.8466 60.198 3.97958
52.2395 42.5926 3.98134
49.7789 57.6122 3.97457
50.5519 54.4059 3.96597
51.6275 47.2253 3.97612
51.1159 50.9133 3.96185
47.8887 43.7363 3.99044
47.9623 62.4709 0.0178563
47.3289 61.0041 2
46.6171 59.7892 3.98241
41.6636 67.6858 0.0152632
43.357 65.5038 0.0170327
44.7676 63.4497 0.0181398
45.9879 61.5807 0.0171754
39.633 67.766 2
41.5463 65.6413 2
45.7656 60.625 2
43.1468 63.7224 2
44.4841 61.8298 2
44.6226 60.2858 3.9824
42.9511 62.0768 3.97991
41.6003 63.815 3.98149
39.6478 65.6089 3.98132
37.5635 67.7472 3.98401
31.6968 65.1276 3.98213
33.3923 67.4847 3.98371
35.3336 69.9587 3.9879
37.526 70.0493 2
37.5095 72.4584 3.9921
39.7022 70.0238 0.0118503
39.8181 72.4043 2
39.9526 74.9197 4
42.1113 72.2068 0.00763541
42.3947 74.6792 2
44.8159 74.2794 0
41.7366 4.96864 3.98928
43.852 5.35892 2
44.3265 3.11036 3.99313
46.5714 3.64702 2
47.2057 1.27793 4
48.7853 4.32289 0.00741191
49.554 1.99013 2
51.8506 2.85458 0
58.8279 42.8935 0.0225553
60.0936 39.8328 0.0226209
61.8826 37.4433 0.023094
59.5916 37.5647 2
57.7885 40.6339 2
54.815 39.6862 2
56.578 37.8841 3.97753
49.273 41.3027 3.9905
52.8359 39.3002 3.98449
39.4428 6.80302 3.98631
59.7379 35.1279 0.0229378
57.813 32.2942 0.022819
56.4007 29.3712 0.022613
55.3216 19.2061 0.0285748
54.951 21.5901 0.0409016
54.8357 24.0945 0.0349175
55.3086 26.6378 0.0237738
53.1083 18.6833 0.0278972
51.2885 18.0743 0.0201216
50.6284 16.1516 0.0224972
45.9628 5.88265 0.0110206
49.7115 13.7518 0.0217192
47.3556 8.62572 0.0156152
48.6001 11.2987 0.0198309
43.3743 7.47382 0.0140547
57.1744 34.7734 2
41.3993 7.07862 2
45.3602 7.99497 2
42.866 9.41672 2
55.5412 31.5513 2
54.3253 28.4551 2
53.9397 20.1609 2
53.5111 22.7478 2
53.6563 25.5457 2
46.667 10.6545 2
47.7439 13.1074 2
51.627 19.3518 2
49.9951 17.7178 2
48.9271 15.4129 2
54.6103 33.9728 3.9763
53.2816 30.5409 3.97769
52.4256 27.2603 3.97497
52.0514 24.1513 3.97641
52.3486 21.0869 3.97653
41.014 9.05028 3.98329
44.7251 9.99604 3.98404
42.4689 10.9043 3.9844
46.0047 12.7354 3.97866
47.6781 14.5933 3.97514
48.1034 16.9984 3.97504
49.8029 19.6806 3.97733
49.5919 61.7416 0.018401
50.5623 59.321 0.0253173
55.376 41.6733 0.0239748
53.9792 45.5166 0.0247839
53.2033 49.2921 0.0295745
52.1666 56.4748 0.0300686
52.6064 52.821 0.0351939
48.8463 60.1967 2
52.2475 42.594 2
49.7782 57.6127 2
50.5516 54.4072 2
51.6313 47.2255 2
51.1175 50.9127 2
47.8966 43.7552 2
47.9811 58.7332 3.97921
49.8398 45.2313 3.98081
48.5742 55.9043 3.97682
49.0647 52.5671 3.97343
49.5364 49.0095 3.9708
45.6755 39.8546 3.88456
46.1233 42.6136 3.92163
46.2697 45.7767 3.98793
43.495 41.119 3.80426
41.8717 41.9981 3.67566
47.3287 61.0037 0.0165004
46.6168 59.7899 2
45.4647 58.7856 3.98168
39.6328 67.7654 0.0156155
41.5465 65.6414 0.0177498
43.1469 63.7217 0.018596
44.4841 61.8292 0.0184225
45.7657 60.6243 0.0187618
41.6003 63.815 2
37.5636 67.7479 2
39.6477 65.6095 2
44.6225 60.2864 2
42.9511 62.0773 2
41.754 62.488 3.98048
42.4802 59.9746 3.98195
39.894 63.5484 3.98008
37.6423 65.5076 3.98185
35.4636 67.6564 3.98386
33.5753 65.3402 3.9814
31.9589 63.2978 3.98172
29.8828 64.7193 3.98316
31.6969 65.1284 2
31.3769 67.1949 3.98418
33.3923 67.4854 2
33.1566 69.7523 3.98769
35.3336 69.9595 2
35.1948 72.3727 3.99204
37.526 70.0487 0.0121313
37.5096 72.4588 2
37.5 75 4
39.8179 72.4039 0.00777799
39.9526 74.9197 2
42.3947 74.6792 0
39.6243 4.71602 3.98956
41.7366 4.96802 2
42.0628 2.71789 3.99328
43.8521 5.35943 0.0109702
44.3266 3.11002 2
44.8158 0.721173 4
46.5712 3.6473 0.00721387
47.2057 1.27779 2
49.554 1.99015 0
57.7885 40.6342 0.0222444
59.5929 37.5647 0.0224246
54.8142 39.6864 0.0238993
49.2911 41.3067 2
56.5765 37.8842 2
52.8374 39.2934 2
53.6804 36.6292 3.97695
47.198 40.3714 3.93002
50.2123 38.5099 3.99289
37.5167 6.67437 3.98629
39.4428 6.80222 2
39.2115 8.69333 3.98399
35.9426 8.49386 3.9839
57.1766 34.774 0.022522
55.5391 31.5509 0.0221579
54.3268 28.4537 0.0217423
53.9397 20.1606 0.0275508
53.511 22.7507 0.0433613
53.6589 25.5442 0.0260222
51.6269 19.3513 0.0216095
49.996 17.7188 0.0238337
48.928 15.4131 0.0240484
45.3604 7.99545 0.0137348
47.7441 13.1089 0.0195909
46.667 10.6568 0.0183119
41.3994 7.07928 0.0136084
42.8663 9.41717 0.0168216
54.6071 33.9739 2
41.0138 9.04984 2
44.7245 9.99575 2
42.4684 10.9043 2
53.2786 30.5399 2
52.4315 27.2618 2
52.3497 21.0872 2
52.0525 24.1524 2
46.0044 12.7319 2
47.6775 14.5916 2
49.803 19.6805 2
48.1022 16.9973 2
52.1666 32.8874 3.9807
51.0953 29.2189 3.97604
50.6495 25.791 3.97176
49.8999 22.2639 3.97981
40.5699 11.6099 3.9807
43.8587 11.9182 3.97998
45.7978 15.4302 3.98146
47.4938 19.2935 3.97755
46.0308 37.4827 3.88996
48.8466 60.198 0.0204239
49.7789 57.6122 0.0254278
52.2395 42.5926 0.0186557
51.6275 47.2253 0.0238752
51.1159 50.9133 0.038155
50.5519 54.4059 0.0340348
47.8887 43.7363 0.00956458
47.9802 58.7334 2
49.8496 45.2379 2
48.5727 55.9059 2
49.0642 52.5706 2
49.5395 49.0099 2
45.7074 39.8602 2
46.1463 42.6328 2
46.2703 45.7753 2
43.52 41.143 2
41.8849 42.0109 2
46.828 57.3356 3.98264
44.2438 39.4026 3.80545
42.2231 40.8645 3.72473
47.887 47.1981 3.97652
47.1309 54.2216 3.97387
47.4969 50.72 3.96927
44.6381 47.3685 3.9785
44.7799 41.9327 3.87449
44.741 44.5101 3.93827
42.3664 42.6293 3.81331
40.7902 42.332 3.71024
46.6171 59.7892 0.017586
45.4646 58.7861 2
43.8703 57.7076 3.98413
37.5635 67.7472 0.0159872
39.6478 65.6089 0.0186826
41.6003 63.815 0.0185053
42.9511 62.0768 0.020094
44.6226 60.2858 0.0175984
35.4636 67.6574 2
41.754 62.4882 2
39.8939 63.5487 2
37.6424 65.5082 2
42.4802 59.975 2
40.6238 61.6442 3.98105
40.4423 58.202 3.98095
37.837 63.2098 3.98002
35.5729 65.4291 3.98132
33.5754 65.3407 2
31.9587 63.2984 2
33.6285 63.3365 3.98069
30.3778 62.8572 3.98218
32.1229 62.003 3.98275
26.8688 61.499 3.9808
28.0617 64.1473 3.98269
29.8829 64.7199 2
29.4062 66.759 3.98461
31.6968 65.1276 0.017868
31.3769 67.1956 2
31.014 69.4173 3.98769
33.3923 67.4847 0.0162949
33.1566 69.7529 2
32.8917 72.147 3.99214
35.3336 69.9587 0.0120973
35.1947 72.3732 2
35.0474 74.9194 4
37.5095 72.4584 0.00790269
37.5 75 2
39.9526 74.9197 0
35.6214 6.72552 3.98582
37.5237 4.61559 3.98961
39.6242 4.71527 2
39.7891 2.47437 3.99327
41.7366 4.96864 0.0107157
42.0628 2.71751 2
42.3946 0.32156 4
44.3265 3.11036 0.00686875
44.8159 0.72056 2
47.2057 1.27793 0
49.273 41.3027 0.00949855
56.578 37.8841 0.0224686
52.8359 39.3002 0.0155058
47.2165 40.3857 2
50.224 38.5058 2
53.688 36.6317 2
51.0014 35.5695 3.97757
47.8585 37.7479 3.94155
45.6751 35.1316 3.88539
43.5021 33.8657 3.79968
41.8794 32.9963 3.67188
37.4585 8.53529 3.98444
37.5167 6.67344 2
39.4428 6.80302 0.0136917
39.2115 8.69246 2
38.9769 10.1279 3.98336
35.8993 9.77503 3.98243
34.1513 8.82349 3.98336
35.9422 8.49283 2
54.6103 33.9728 0.0237033
53.2816 30.5409 0.0223117
52.4256 27.2603 0.0250328
52.3486 21.0869 0.0234701
52.0514 24.1513 0.0235883
49.8029 19.6806 0.0226655
48.1034 16.9984 0.0249633
47.6781 14.5933 0.0248621
44.7251 9.99604 0.0159641
46.0047 12.7354 0.0213434
41.014 9.05028 0.0167075
42.4689 10.9043 0.0155987
52.1716 32.8875 2
40.57 11.6103 2
43.8575 11.9183 2
51.1094 29.2198 2
50.6538 25.7927 2
49.8995 22.2622 2
45.7967 15.4253 2
47.4933 19.2984 2
49.7064 31.454 3.98359
49.1017 27.5633 3.97433
49.3092 24.4779 3.98383
47.1626 22.0396 3.97396
38.3031 12.7394 3.97895
42.1016 14.3079 3.97838
44.794 18.4881 3.97653
44.5624 37.4905 3.81153
46.0812 37.4913 2
47.9811 58.7332 0.0207916
48.5742 55.9043 0.0231826
49.8398 45.2313 0.0191945
49.5364 49.0095 0.0291978
49.0647 52.5671 0.0265718
45.6755 39.8546 0.11544
46.1233 42.6136 0.0783682
46.2697 45.7767 0.0120654
43.495 41.119 0.19574
41.8717 41.9981 0.324335
46.8265 57.3356 2
44.2698 39.421 2
42.213 40.8691 2
47.8872 47.2019 2
47.1287 54.2255 2
47.4979 50.724 2
44.6449 47.3456 2
44.8035 41.9494 2
44.7557 44.5268 2
42.4079 42.6569 2
40.7928 42.3298 2
45.3801 55.9264 3.98968
42.5431 39.2672 3.73616
40.6822 40.7718 3.81296
45.9632 48.8852 3.98519
45.4795 52.5108 3.97958
43.3237 48.3861 4.00047
43.2721 46.0563 3.92107
43.4721 43.7171 3.87218
40.9719 43.7649 3.80557
39.2692 42.6597 3.72888
45.4647 58.7856 0.0183196
43.8702 57.7081 2
42.0986 56.3277 3.98629
35.4636 67.6564 0.016142
37.6423 65.5076 0.0181479
39.894 63.5484 0.0199246
41.754 62.488 0.0195188
42.4802 59.9746 0.0180495
35.5731 65.4305 2
40.6237 61.6445 2
37.8369 63.21 2
40.4423 58.2023 2
38.9212 56.4935 3.98838
38.2506 60.3264 3.97973
35.6068 63.202 3.97884
33.5753 65.3402 0.0185974
31.9589 63.2978 0.0182799
33.6284 63.3371 2
30.3778 62.8576 2
32.123 62.0037 2
28.6807 62.2019 3.98168
33.3455 61.514 3.98188
31.0666 61.2203 3.98146
27.5701 59.5937 3.98097
23.7952 59.0808 3.97997
25.0348 60.8719 3.98054
26.869 61.4996 2
26.2285 63.4788 3.98231
28.0619 64.1478 2
27.4628 66.183 3.98475
29.8828 64.7193 0.0168433
29.4063 66.7595 2
28.9063 68.9432 3.98761
31.3769 67.1949 0.0158226
31.014 69.418 2
30.614 71.778 3.99211
33.1566 69.7523 0.0123098
32.8916 72.1474 2
32.6054 74.6784 4
35.1948 72.3727 0.00796335
35.0474 74.9197 2
37.5 75 0
33.7241 6.98031 3.98539
35.4354 4.68583 3.98943
35.6212 6.72475 2
37.5146 2.38695 3.99326
37.5236 4.61493 2
39.6243 4.71602 0.010442
39.7891 2.47394 2
39.9526 0.0806499 4
42.0628 2.71789 0.00672133
42.3947 0.320817 2
44.8158 0.721173 0
44.2595 35.5777 3.80012
42.2337 34.121 3.72102
47.198 40.3714 0.0699766
50.2123 38.5099 0.00711127
53.6804 36.6292 0.0230511
47.8676 37.7501 2
51.014 35.569 2
45.7024 35.1144 2
43.5289 33.842 2
41.8923 32.9832 2
48.0301 34.3065 3.9693
44.7836 33.0467 3.86692
42.3771 32.3662 3.81013
40.7989 32.6665 3.70774
37.3114 10.6324 3.9816
37.4584 8.53393 2
37.5167 6.67437 0.0137098
39.2115 8.69333 0.0160142
38.9771 10.1268 2
34.7545 10.3816 3.98116
35.8991 9.77393 2
32.3781 9.37098 3.98211
34.1508 8.82282 2
35.9426 8.49386 0.0160971
52.1666 32.8874 0.0193005
51.0953 29.2189 0.0239607
50.6495 25.791 0.0282412
49.8999 22.2639 0.0201864
47.4938 19.2935 0.0224541
45.7978 15.4302 0.018545
43.8587 11.9182 0.0200164
40.5699 11.6099 0.0193019
49.7176 31.4512 2
38.3026 12.7374 2
42.1012 14.3102 2
49.1082 27.5632 2
49.3118 24.4739 2
47.1587 22.0359 2
44.7936 18.5 2
47.5439 29.5588 3.98627
47.0018 25.227 3.98479
44.2728 21.4177 3.97552
36.5831 12.9367 3.97788
38.6826 14.8141 3.97728
41.747 17.8596 3.97832
42.6615 37.4842 3.74794
44.5828 37.4903 2
46.0308 37.4827 0.110044
46.828 57.3356 0.0173592
47.1309 54.2216 0.0261334
47.887 47.1981 0.0234759
47.4969 50.72 0.030727
44.2438 39.4026 0.194546
44.7799 41.9327 0.125511
44.741 44.5101 0.0617338
44.6381 47.3685 0.0214999
42.3664 42.6293 0.186685
42.2231 40.8645 0.275274
40.7902 42.332 0.289764
45.3782 55.9252 2
42.533 39.2656 2
40.6702 40.758 2
45.9627 48.8913 2
45.4782 52.5165 2
43.3268 48.4055 2
43.3016 46.083 2
43.499 43.7439 2
41.0006 43.7986 2
39.261 42.6496 2
43.7138 54.4321 3.99641
40.779 39.1572 3.84265
39.1332 40.8437 3.8334
43.6076 50.4435 4.00373
41.8922 47.6 3.95621
41.8164 45.1392 3.88228
39.3394 44.4675 3.81321
37.5013 42.7601 3.75199
43.8703 57.7076 0.0158692
42.0985 56.3282 2
40.4094 54.9283 3.98422
35.5729 65.4291 0.0186824
37.837 63.2098 0.0199829
40.6238 61.6442 0.0189533
40.4423 58.202 0.0190461
35.6067 63.2031 2
38.2507 60.3264 2
38.9215 56.493 2
37.9988 55.2444 3.99483
36.9339 57.6234 3.98218
35.3633 60.9099 3.97951
33.6285 63.3365 0.0193054
30.3778 62.8572 0.0178227
32.1229 62.003 0.0172542
33.3458 61.5148 2
28.6809 62.2022 2
31.0669 61.2207 2
29.4038 60.2887 3.98028
32.3585 59.7461 3.98556
28.0282 58.3742 3.98776
27.5705 59.5943 2
25.3826 58.5935 3.97843
22.7627 58.2359 3.97132
23.4016 60.3503 3.97909
23.7954 59.0817 2
25.0351 60.8728 2
24.4315 62.7709 3.98218
26.8688 61.499 0.0192031
26.2288 63.4795 2
25.5469 65.4927 3.98421
28.0617 64.1473 0.0173067
27.4628 66.1835 2
26.8358 68.3316 3.98762
29.4062 66.759 0.0153949
28.9063 68.9436 2
28.369 71.2632 3.99221
31.014 69.4173 0.0123141
30.6138 71.7783 2
30.1842 74.2788 4
32.8917 72.147 0.00786064
32.6053 74.6792 2
35.0474 74.9194 0
31.7885 7.42058 3.98457
33.3477 4.92513 3.98903
33.7239 6.97962 2
35.2448 2.46301 3.99321
35.4352 4.68529 2
35.6214 6.72552 0.0141821
37.5 0 4
37.5145 2.38658 2
37.5237 4.61559 0.0103861
39.7891 2.47437 0.00672775
39.9526 0.0802889 2
42.3946 0.32156 0
42.5458 35.7083 3.74012
44.2823 35.5607 2
40.6917 34.2225 3.81178
42.2216 34.1184 2
47.8585 37.7479 0.0584508
51.0014 35.5695 0.0224286
45.6751 35.1316 0.114612
43.5021 33.8657 0.200321
41.8794 32.9963 0.328125
48.0465 34.2919 2
44.8082 33.0306 2
42.414 32.3388 2
40.8019 32.6676 2
46.0552 31.5942 3.94278
43.4649 31.28 3.87519
40.9751 31.2305 3.80599
39.2763 32.3475 3.72816
35.6933 11.7788 3.97969
37.3114 10.6305 2
37.4585 8.53529 0.0155579
38.9769 10.1279 0.0166446
33.0987 11.2198 3.97937
34.7544 10.3807 2
35.8993 9.77503 0.0175735
30.4829 10.02 3.98129
32.3777 9.37051 2
34.1513 8.82349 0.0166414
49.7064 31.454 0.0164146
49.1017 27.5633 0.0256749
49.3092 24.4779 0.0161702
47.1626 22.0396 0.0260355
44.794 18.4881 0.0234695
42.1016 14.3079 0.0216185
38.3031 12.7394 0.0210505
36.5828 12.9354 2
47.5516 29.5403 2
38.6816 14.8119 2
41.7457 17.8665 2
47.0068 25.2229 2
44.2697 21.3986 2
45.3788 27.682 4.00026
43.7421 24.1434 4.00526
41.3312 20.7898 3.9798
35.7733 14.7662 3.97711
38.6822 17.6057 3.97856
40.8285 37.4776 3.85246
42.656 37.4857 2
44.5624 37.4905 0.18847
45.3801 55.9264 0.0103156
45.4795 52.5108 0.0204162
45.9632 48.8852 0.0148119
42.5431 39.2672 0.26384
43.4721 43.7171 0.127818
43.2721 46.0563 0.0789348
43.3237 48.3861 -0.000465141
40.9719 43.7649 0.194427
40.6822 40.7718 0.18704
39.2692 42.6597 0.27112
43.7109 54.4307 2
40.7611 39.1477 2
39.1264 40.8289 2
43.6061 50.4599 2
41.8849 47.6207 2
41.8387 45.1651 2
37.5013 42.7525 2
39.3562 44.4919 2
41.8585 52.9926 3.99341
39.1478 39.1645 3.86237
37.4987 40.8843 3.85089
35.7358 42.6647 3.72918
40.8646 49.6536 3.99955
39.8063 46.0123 3.86249
37.4995 44.6912 3.80099
42.0986 56.3277 0.0137057
40.4089 54.9283 2
38.7253 53.8344 3.9936
35.6068 63.202 0.0211582
38.2506 60.3264 0.0202658
38.9212 56.4935 0.0116194
35.3635 60.9107 2
36.9346 57.6232 2
37.9989 55.2421 2
36.3223 55.3426 3.99287
34.4892 58.518 3.9855
33.3455 61.514 0.0181183
28.6807 62.2019 0.0183236
31.0666 61.2203 0.0185393
32.359 59.7468 2
29.4043 60.2887 2
30.3054 57.819 3.98419
28.0285 58.375 2
26.9583 56.8258 3.97698
27.5701 59.5937 0.0190302
25.3829 58.5946 2
23.8527 56.7944 3.96733
21.3433 57.3891 3.97023
21.9963 59.6209 3.97761
22.7628 58.2375 2
22.7359 62.0214 3.98042
23.4019 60.3513 2
23.7952 59.0808 0.0200328
25.0348 60.8719 0.0194641
24.4317 62.7718 2
23.6809 64.7105 3.98387
26.2285 63.4788 0.0176936
25.5469 65.4934 2
24.8079 67.5928 3.98743
27.4628 66.183 0.015254
26.8358 68.3322 2
26.1641 70.6039 3.99226
28.9063 68.9432 0.0123901
28.3687 71.2634 2
27.7943 73.7221 4
30.614 71.778 0.00789133
30.1841 74.2794 2
32.6054 74.6784 0
29.8111 7.99448 3.98369
31.253 5.33232 3.98825
31.7883 7.41987 2
32.9804 2.70124 3.99292
33.3474 4.92455 2
33.7241 6.98031 0.0146107
35.0474 0.080333 4
35.2445 2.46272 2
35.4354 4.68583 0.0105731
37.5 0 2
37.5146 2.38695 0.00674186
39.9526 0.0806499 0
40.781 35.8152 3.8435
42.5346 35.7108 2
44.2595 35.5777 0.199875
28.5436 10.696 3.98046
39.1394 34.1621 3.83258
40.6773 34.2359 2
42.2337 34.121 0.278977
48.0301 34.3065 0.0306956
44.7836 33.0467 0.133076
42.3771 32.3662 0.18987
40.7989 32.6665 0.292258
46.081 31.5827 2
43.4895 31.2546 2
41.0047 31.1993 2
39.2686 32.3575 2
44.2762 29.789 3.93374
41.8197 29.8578 3.882
39.3495 30.5349 3.81223
37.5103 32.2541 3.7513
34.0938 12.9392 3.97796
35.6933 11.7775 2
37.3114 10.6324 0.0183998
31.1868 11.9894 3.97936
33.0987 11.2193 2
34.7545 10.3816 0.0188432
30.4823 10.0189 2
32.3781 9.37098 0.0178946
47.5439 29.5588 0.0137255
47.0018 25.227 0.0152085
36.5831 12.9367 0.0221211
44.2728 21.4177 0.0244789
41.747 17.8596 0.0216792
38.6826 14.8141 0.0227222
35.7731 14.7667 2
45.3843 27.6827 2
38.6804 17.6109 2
41.3279 20.7747 2
43.7439 24.129 2
33.6098 15.8858 3.97663
42.9499 26.5278 3.99656
40.8843 23.3542 4.00992
38.4155 20.3873 3.97805
35.8507 17.5221 3.97843
39.1603 37.4856 3.8801
40.8095 37.4765 2
42.6615 37.4842 0.252058
43.7138 54.4321 0.00358613
43.6076 50.4435 -0.00373176
40.779 39.1572 0.157348
41.8164 45.1392 0.117717
41.8922 47.6 0.0437923
39.3394 44.4675 0.186794
39.1332 40.8437 0.166599
37.5013 42.7601 0.248012
41.8563 52.9901 2
39.1367 39.1549 2
37.4985 40.865 2
40.876 49.6693 2
35.7407 42.6547 2
39.8295 46.0448 2
37.4957 44.7134 2
39.8011 51.8724 4.00056
37.4971 39.1815 3.88237
35.8632 40.8581 3.83232
34.2114 42.3369 3.70865
35.6565 44.4795 3.81025
38.6725 48.6594 3.97242
37.5055 46.3159 3.87191
40.4094 54.9283 0.0157778
38.7249 53.8275 2
36.7389 53.1631 4.00013
35.3633 60.9099 0.0204853
36.9339 57.6234 0.0178222
37.9988 55.2444 0.00517236
34.49 58.519 2
36.3234 55.3484 2
33.241 55.5031 3.99479
32.3585 59.7461 0.014441
29.4038 60.2887 0.019724
30.3062 57.8193 2
28.7143 55.3144 3.97846
28.0282 58.3742 0.0122404
26.9581 56.8267 2
25.3367 55.1331 3.97363
21.8306 55.3353 3.96492
25.3826 58.5935 0.0215672
23.8525 56.7965 2
20.2295 57.0177 3.97536
20.6497 58.7734 3.97458
21.3431 57.3909 2
21.167 61.1699 3.97865
21.9965 59.6219 2
22.7627 58.2359 0.0286849
21.8945 63.8379 3.98288
22.7361 62.0223 2
23.4016 60.3503 0.0209074
24.4315 62.7709 0.0178224
23.681 64.7112 2
22.8362 66.7361 3.98699
25.5469 65.4927 0.015791
24.808 67.5936 2
24.0083 69.805 3.99234
26.8358 68.3316 0.012384
26.1638 70.6042 2
25.446 73.0099 4
28.369 71.2632 0.00778832
27.7943 73.7222 2
30.1842 74.2788 0
27.821 8.65445 3.98321
29.155 5.87827 3.98743
29.8107 7.9934 2
30.7256 3.09842 3.99262
31.2527 5.33171 2
31.7885 7.42058 0.0154321
32.6053 0.320823 4
32.9802 2.70092 2
33.3477 4.92513 0.0109716
35.0474 0.0802903 2
35.2448 2.46301 0.00679053
37.5 0 0
39.1548 35.8176 3.86119
40.7629 35.8244 2
42.5458 35.7083 0.259882
28.5432 10.6954 2
26.6223 11.3919 3.98057
29.2258 12.6466 3.97993
37.5027 34.1318 3.8497
39.1301 34.1778 2
40.6917 34.2225 0.188222
46.0552 31.5942 0.0572195
43.4649 31.28 0.124813
40.9751 31.2305 0.194014
39.2763 32.3475 0.271835
44.2883 29.7754 2
41.8368 29.8407 2
39.367 30.5047 2
37.5109 32.2616 2
42.2872 28.4407 3.91152
39.8331 28.982 3.88199
37.5156 30.3175 3.80156
35.7472 32.3465 3.7282
31.9159 14.4876 3.97782
34.0942 12.9387 2
35.6933 11.7788 0.0203093
31.1867 11.9881 2
33.0987 11.2198 0.0206315
30.4829 10.02 0.0187094
45.3788 27.682 -0.000260548
43.7421 24.1434 -0.00526137
35.7733 14.7662 0.022888
41.3312 20.7898 0.0202041
38.6822 17.6057 0.0214424
33.6085 15.8848 2
35.8485 17.5215 2
42.959 26.5264 2
38.4156 20.3855 2
40.8815 23.3394 2
33.5534 17.397 3.97807
40.3459 25.7011 3.99647
38.0683 22.9796 3.99739
35.5825 20.1028 3.98005
37.4971 37.4968 3.90195
39.1465 37.4859 2
40.8285 37.4776 0.147545
41.8585 52.9926 0.00658571
40.8646 49.6536 0.000454955
39.1478 39.1645 0.137625
39.8063 46.0123 0.13751
37.4995 44.6912 0.199009
37.4987 40.8843 0.149112
35.7358 42.6647 0.270816
39.8008 51.8739 2
37.4978 39.1692 2
35.8725 40.8427 2
38.6811 48.6954 2
34.2075 42.3358 2
35.6402 44.5074 2
37.503 46.3467 2
37.6481 50.9463 4.00745
35.8476 39.1825 3.86217
34.3169 40.7877 3.81208
33.1238 42.0047 3.67469
34.0206 43.7622 3.80515
35.1685 46.0022 3.87431
36.8839 48.294 3.94045
38.7253 53.8344 0.00639689
36.7379 53.1713 2
34.3842 52.4557 3.99749
34.4892 58.518 0.0145013
36.3223 55.3426 0.00712759
33.2413 55.5047 2
30.5458 53.3517 3.97689
30.3054 57.819 0.0158123
28.7139 55.3167 2
26.9221 53.4267 3.97203
26.9583 56.8258 0.0230189
25.3365 55.1364 2
23.6179 53.4677 3.96208
20.5141 53.2054 3.96153
19.9491 55.8199 3.96874
21.8296 55.3369 2
23.8527 56.7944 0.0326685
19.4449 57.8792 3.97334
20.2291 57.0191 2
19.7085 60.1989 3.97711
20.6496 58.7744 2
21.3433 57.3891 0.0297744
20.2073 62.8581 3.98076
21.1673 61.171 2
21.9963 59.6209 0.022393
20.9376 65.7648 3.98641
21.8946 63.8388 2
22.7359 62.0214 0.0195834
23.6809 64.7105 0.016132
22.8363 66.7367 2
21.9109 68.872 3.99211
24.8079 67.5928 0.0125679
24.0079 69.8052 2
23.1494 72.1454 4
26.1641 70.6039 0.00773877
25.446 73.0099 2
27.7943 73.7221 0
25.8602 9.38318 3.98252
27.0698 6.54248 3.98654
27.8206 8.65379 2
28.4878 3.64444 3.99223
29.1546 5.8775 2
29.8111 7.99448 0.0163108
30.1841 0.720592 4
30.7252 3.09812 2
31.253 5.33232 0.0117516
32.6053 0.320817 2
32.9804 2.70124 0.00707926
35.0474 0.080333 0
37.4991 35.8194 3.88204
39.1431 35.827 2
40.781 35.8152 0.156503
24.777 12.0757 3.98082
23.7523 14.3638 3.97976
28.5436 10.696 0.0195377
26.622 11.3915 2
29.2257 12.6458 2
27.292 13.3797 3.98023
29.7816 14.208 3.97974
35.8703 34.1583 3.83194
37.5028 34.1488 2
39.1394 34.1621 0.167418
37.5103 32.2541 0.248701
44.2762 29.789 0.0662605
41.8197 29.8578 0.118003
39.3495 30.5349 0.187766
42.3144 28.4135 2
39.8444 28.9483 2
37.5183 30.2994 2
35.7527 32.3578 2
40.022 27.6165 3.90992
37.5201 28.688 3.87628
35.6764 30.5428 3.81463
34.2274 32.6729 3.70859
30.928 16.8487 3.97731
31.9157 14.4857 2
34.0938 12.9392 0.0220407
31.1868 11.9894 0.0206437
42.9499 26.5278 0.00343969
40.8843 23.3542 -0.0099215
33.6098 15.8858 0.0233721
35.8507 17.5221 0.0215703
38.4155 20.3873 0.021946
33.5508 17.403 2
35.5848 20.1075 2
40.3499 25.6856 2
38.0613 22.9614 2
32.8652 19.8061 3.98235
37.7905 25.2889 4.00442
35.1948 22.7161 3.99132
35.8365 37.5022 3.88025
37.4963 37.4964 2
39.1603 37.4856 0.119896
39.8011 51.8724 -0.000556712
38.6725 48.6594 0.0275841
37.4971 39.1815 0.117635
37.5055 46.3159 0.128092
35.6565 44.4795 0.189751
35.8632 40.8581 0.167685
34.2114 42.3369 0.291353
37.6418 50.9655 2
35.8607 39.1723 2
34.3295 40.7749 2
36.8789 48.3271 2
33.1095 42.0187 2
33.9944 43.7931 2
35.1527 46.0314 2
35.502 50.095 3.99525
34.2255 39.1799 3.84492
32.7643 40.8773 3.72292
32.63 42.6362 3.81258
33.1853 45.1371 3.8798
34.3101 47.3749 3.91626
36.7389 53.1631 -0.000129434
34.3814 52.4627 2
32.0532 51.1611 4.00144
33.241 55.5031 0.00520814
30.5453 53.3569 2
28.4759 51.5672 3.9777
28.7143 55.3144 0.0215358
26.9215 53.4294 2
25.139 51.7244 3.95975
25.3367 55.1331 0.0263713
23.6171 53.4699 2
22.0351 51.783 3.957
19.2727 51.6164 3.964
18.9508 54.2946 3.9613
20.5131 53.2049 2
18.4581 56.7113 3.97183
19.9483 55.8212 2
21.8306 55.3353 0.0350796
18.3725 59.101 3.97267
19.4446 57.8802 2
20.2295 57.0177 0.0246365
18.6194 61.7623 3.9762
19.7087 60.2005 2
20.6497 58.7734 0.0254199
19.1266 64.6751 3.98511
20.2073 62.8592 2
21.167 61.1699 0.02135
19.885 67.8085 3.99199
20.9377 65.7656 2
21.8945 63.8379 0.0171247
22.8362 66.7361 0.0130067
21.9104 68.872 2
20.9142 71.1327 4
24.0083 69.805 0.00766323
23.1494 72.1455 2
25.446 73.0099 0
23.0965 12.7913 3.98038
23.9726 10.1706 3.98206
25.0235 7.31307 3.98573
25.8598 9.3827 2
26.2795 4.32872 3.99178
27.0693 6.54197 2
27.821 8.65445 0.0167878
27.7943 1.27781 4
28.4872 3.64415 2
29.155 5.87827 0.0125691
30.1841 0.720551 2
30.7256 3.09842 0.0073842
32.6053 0.320823 0
35.8471 35.8245 3.86173
37.4984 35.8316 2
39.1548 35.8176 0.138806
24.777 12.0754 2
23.7527 14.3637 2
22.4814 15.0411 3.9795
25.3582 13.9123 3.97961
24.0269 15.6275 3.97958
26.6223 11.3919 0.0194252
29.2258 12.6466 0.0200673
27.2922 13.3794 2
29.7812 14.2071 2
28.3586 15.9834 3.97952
34.3252 34.2289 3.81058
35.8785 34.1747 2
37.5027 34.1318 0.150305
35.7472 32.3465 0.271799
37.5156 30.3175 0.198445
42.2872 28.4407 0.0884796
39.8331 28.982 0.11801
40.0328 27.5926 2
37.5172 28.6631 2
35.6566 30.5119 2
34.2196 32.6745 2
37.5978 27.3233 3.92491
35.1895 28.9949 3.88145
34.0401 31.2464 3.80562
33.1468 33.004 3.67472
30.212 19.3565 3.98224
30.9273 16.8466 2
31.9159 14.4876 0.0221844
40.3459 25.7011 0.00352946
38.0683 22.9796 0.0026097
33.5534 17.397 0.0219326
35.5825 20.1028 0.0199534
32.8658 19.8133 2
35.1919 22.7086 2
37.7812 25.2687 2
32.3124 22.4588 3.99585
35.007 25.2623 4.0027
34.1707 37.5063 3.85351
35.8498 37.5022 2
37.4971 37.4968 0.0980513
37.6481 50.9463 -0.00745397
36.8839 48.294 0.0595511
35.8476 39.1825 0.137827
35.1685 46.0022 0.125686
34.0206 43.7622 0.194854
34.3169 40.7877 0.187921
33.1238 42.0047 0.325312
35.4964 50.1113 2
34.2498 39.1695 2
32.7734 40.8824 2
34.2951 47.4125 2
32.5944 42.6621 2
33.1683 45.1609 2
33.3064 49.0897 3.99207
32.4479 39.2875 3.74174
31.4882 41.1302 3.80325
31.5318 43.7214 3.87451
32.3374 46.3038 3.91445
34.3842 52.4557 0.00251373
32.0517 51.1692 2
29.9364 49.6808 3.98805
30.5458 53.3517 0.0231051
28.4747 51.566 2
26.5879 49.9544 3.97066
26.9221 53.4267 0.0279708
25.1378 51.7228 2
23.4302 50.164 3.96569
23.6179 53.4677 0.037922
22.0343 51.7821 2
20.5531 50.2916 3.96556
18.0691 50.3116 3.96809
17.8901 52.7755 3.96343
19.2713 51.6158 2
17.4541 55.3282 3.96445
18.9485 54.2947 2
20.5141 53.2054 0.0384736
17.1416 57.863 3.97105
18.4575 56.7122 2
19.9491 55.8199 0.0312553
17.1382 60.5414 3.9751
18.3724 59.1021 2
19.4449 57.8792 0.0266605
17.4076 63.4661 3.98183
18.6195 61.7636 2
19.7085 60.1989 0.0228906
17.9415 66.6172 3.99178
19.1265 64.6762 2
20.2073 62.8581 0.019237
18.75 69.9759 4
19.8845 67.8085 2
20.9376 65.7648 0.0135869
21.9109 68.872 0.00789099
20.9142 71.1327 2
23.1494 72.1454 0
21.5877 13.6122 3.97993
22.1907 11.0305 3.98138
23.0968 12.7913 2
23.0413 8.17904 3.9851
23.9724 10.1701 2
24.1171 5.14356 3.99138
25.023 7.31254 2
25.8602 9.38318 0.0174806
25.446 1.99014 4
26.2788 4.32861 2
27.0698 6.54248 0.0134628
27.7943 1.27778 2
28.4878 3.64444 0.00777472
30.1841 0.720592 0
34.2202 35.8307 3.8412
35.8581 35.8344 2
37.4991 35.8194 0.117962
21.3075 15.8375 3.98028
24.777 12.0757 0.0191805
23.7523 14.3638 0.020237
25.3585 13.9121 2
22.482 15.0412 2
24.0273 15.6278 2
23.267 16.2598 3.97781
25.3826 16.0964 3.97947
27.292 13.3797 0.0197669
29.7816 14.208 0.0202581
28.3581 15.9841 2
27.444 18.8103 3.98116
32.7825 34.1319 3.72139
34.3422 34.2423 2
35.8703 34.1583 0.168059
34.2274 32.6729 0.291408
35.6764 30.5428 0.185375
37.5201 28.688 0.123716
40.022 27.6165 0.0900849
37.6001 27.2924 2
33.1315 32.9924 2
35.184 28.9605 2
34.0027 31.2073 2
35.0857 27.4538 3.92501
33.1976 29.8731 3.8758
32.6497 32.3664 3.80011
29.5919 21.9526 3.99541
30.2132 19.3621 2
30.928 16.8487 0.0226947
37.7905 25.2889 -0.00442486
35.1948 22.7161 0.00867591
32.8652 19.8061 0.017645
32.3115 22.4555 2
35.0238 25.2538 2
31.7694 25.6795 4.00792
32.3246 37.5082 3.75058
34.1945 37.5083 2
35.8365 37.5022 0.119749
35.502 50.095 0.00475235
34.3101 47.3749 0.0837411
34.2255 39.1799 0.155075
33.1853 45.1371 0.120201
32.63 42.6362 0.187416
32.7643 40.8773 0.277077
33.3027 49.0831 2
32.4623 39.2852 2
31.4644 41.1516 2
32.304 46.331 2
31.5035 43.7483 2
31.2492 47.9246 3.98911
30.7384 39.4177 3.80236
30.2117 41.9488 3.86735
30.5556 44.8967 3.9346
32.0532 51.1611 -0.00144091
29.9342 49.6798 2
27.992 48.142 3.96668
28.4759 51.5672 0.0223017
26.5868 49.9532 2
24.7674 48.4333 3.97287
25.139 51.7244 0.0402482
23.4295 50.1621 2
21.7851 48.7577 3.96933
22.0351 51.783 0.0430041
20.5517 50.2907 2
19.1392 49.0694 3.97197
16.9732 49.3142 3.97231
16.8327 51.3916 3.96655
18.0703 50.3107 2
16.4146 53.8591 3.96452
17.8874 52.7754 2
19.2727 51.6164 0.0360014
15.9875 56.4644 3.96681
17.4535 55.3285 2
18.9508 54.2946 0.0386995
15.7536 59.2025 3.97246
17.1414 57.8642 2
18.4581 56.7113 0.0281732
15.7893 62.1339 3.97746
17.1384 60.543 2
18.3725 59.101 0.0273325
16.0886 65.2998 3.99063
17.4074 63.4674 2
18.6194 61.7623 0.023795
16.6661 68.6801 4
17.9407 66.617 2
19.1266 64.6751 0.0148944
18.75 69.9759 2
19.885 67.8085 0.0080051
20.9142 71.1327 0
20.2205 14.6019 3.97891
21.5881 13.6122 2
20.5301 12.001 3.98068
21.1441 9.14921 3.9846
22.1907 11.0303 2
23.0965 12.7913 0.019621
22.0161 6.08269 3.99102
23.0409 8.17849 2
23.9726 10.1706 0.0179357
23.1494 2.85457 4
24.1163 5.14356 2
25.0235 7.31307 0.014273
25.446 1.99012 2
26.2795 4.32872 0.00821841
27.7943 1.27781 0
32.4497 35.7254 3.73406
34.2388 35.844 2
35.8471 35.8245 0.138268
21.3083 15.8373 2
20.3063 16.9702 3.98171
22.1002 16.6441 3.97816
25.3582 13.9123 0.0203908
22.4814 15.0411 0.020504
24.0269 15.6275 0.0204178
25.3828 16.0968 2
23.2676 16.2602 2
24.2088 18.4645 3.97534
27.0318 21.4745 3.99119
28.3586 15.9834 0.020482
27.4462 18.8104 2
31.5139 33.8851 3.80286
32.7951 34.1279 2
34.3252 34.2289 0.189418
33.1468 33.004 0.32528
34.0401 31.2464 0.194377
35.1895 28.9949 0.118553
37.5978 27.3233 0.0750941
35.0661 27.4134 2
32.5848 32.3394 2
33.1816 29.8515 2
32.6291 28.1669 3.93613
31.5398 31.2936 3.87607
28.873 24.4315 3.98046
29.5884 21.96 2
30.212 19.3565 0.0177584
35.007 25.2623 -0.00270094
32.3124 22.4588 0.00415371
31.7702 25.6612 2
29.7511 27.3483 3.96446
30.4175 37.5 3.81049
32.3378 37.5054 2
34.1707 37.5063 0.146489
33.3064 49.0897 0.00792732
32.3374 46.3038 0.0855542
32.4479 39.2875 0.258258
31.5318 43.7214 0.125489
31.4882 41.1302 0.196751
31.2476 47.9278 2
30.7092 39.4358 2
30.1876 41.9651 2
30.5467 44.9128 2
29.3387 46.5267 4.00113
29.3083 39.8538 3.88496
28.9235 43.1233 3.93555
29.9364 49.6808 0.0119542
27.9902 48.1385 2
26.1052 46.6134 3.97641
26.5879 49.9544 0.0293369
24.7671 48.4315 2
22.9696 47.0379 3.97355
23.4302 50.164 0.0343093
21.7846 48.7564 2
20.1141 47.5906 3.9769
20.5531 50.2916 0.0344367
19.1405 49.0683 2
17.7655 48.159 3.97594
16.2142 48.6678 3.97534
16.9745 49.3135 2
15.9091 50.1556 3.96975
15.4141 52.4041 3.96627
16.8327 51.3912 2
18.0691 50.3116 0.0319078
14.8812 54.9684 3.9662
16.414 53.8591 2
17.8901 52.7755 0.0365711
14.4657 57.7307 3.96907
15.9873 56.4647 2
17.4541 55.3282 0.0355487
14.268 60.6875 3.97627
15.7537 59.2039 2
17.1416 57.863 0.0289545
14.3336 63.8585 3.9878
15.7891 62.1351 2
17.1382 60.5414 0.0248994
14.6715 67.2507 4
16.0875 65.2993 2
17.4076 63.4661 0.018165
16.6661 68.6801 2
17.9415 66.6172 0.00822339
18.75 69.9759 0
18.935 15.7884 3.97946
20.221 14.6018 2
18.9801 13.1125 3.97959
21.5877 13.6122 0.0200742
20.5303 12.0009 2
19.3432 10.2374 3.98403
19.9907 7.14735 3.99079
21.1438 9.14891 2
22.1907 11.0305 0.0186194
20.9142 3.86727 4
22.0152 6.08287 2
23.0413 8.17904 0.014905
23.1494 2.85451 2
24.1171 5.14356 0.00861737
25.446 1.99014 0
30.7571 35.6015 3.80564
32.4631 35.7256 2
34.2202 35.8307 0.158796
21.3075 15.8375 0.0197162
22.1011 16.6443 2
20.3072 16.9696 2
19.2527 18.4185 3.97645
21.7862 17.861 3.98001
25.3826 16.0964 0.0205267
23.267 16.2598 0.0221948
24.2102 18.4649 2
22.2945 19.9087 3.97182
24.6139 21.3439 3.98895
26.4819 23.7407 3.9698
27.0318 21.4733 2
27.444 18.8103 0.0188356
30.2421 33.0676 3.87837
31.4951 33.8506 2
32.7825 34.1319 0.278609
32.6497 32.3664 0.199887
33.1976 29.8731 0.124197
35.0857 27.4538 0.0749865
32.6049 28.1484 2
31.5076 31.2623 2
30.2516 29.5987 3.95284
27.9946 26.5686 3.98339
28.8687 24.4451 2
29.5919 21.9526 0.00458957
31.7694 25.6795 -0.00791647
29.7486 27.3184 2
28.9479 37.5118 3.89041
30.4051 37.5006 2
32.3246 37.5082 0.249421
31.2492 47.9246 0.0108928
30.5556 44.8967 0.0653988
30.7384 39.4177 0.19764
30.2117 41.9488 0.132646
29.3382 46.5402 2
29.2813 39.8719 2
28.8958 43.1448 2
27.4984 44.8233 3.97755
27.0809 40.5866 3.95844
27.992 48.142 0.0333188
26.1014 46.6163 2
24.2094 45.1632 3.97594
24.7674 48.4333 0.027125
22.9697 47.0364 2
21.0872 45.8602 3.97847
21.7851 48.7577 0.0306651
20.1144 47.5895 2
18.4433 46.7142 3.9781
19.1392 49.0694 0.0280294
17.7667 48.1581 2
16.4176 47.6973 3.9765
16.2153 48.6672 2
15.2538 49.002 3.9729
16.9732 49.3142 0.0276918
15.9104 50.155 2
14.5282 50.9741 3.96801
13.8441 53.4271 3.96641
15.4149 52.4038 2
16.8327 51.3916 0.0334506
13.2626 56.16 3.96754
14.8814 54.9683 2
16.4146 53.8591 0.0354784
12.8517 59.1207 3.97419
14.466 57.7314 2
15.9875 56.4644 0.0331881
12.6795 62.3007 3.9853
14.268 60.6884 2
15.7536 59.2025 0.0275393
12.7746 65.6939 4
14.3322 63.8573 2
15.7893 62.1339 0.0225358
14.6714 67.2507 2
16.0886 65.2998 0.00936836
16.6661 68.6801 0
17.6724 17.1648 3.97488
18.9356 15.7882 2
17.512 14.3772 3.97866
20.2205 14.6019 0.0210859
18.9805 13.1123 2
17.6388 11.4568 3.98295
20.5301 12.001 0.0193151
19.3432 10.2372 2
18.0509 8.34016 3.99061
18.75 5.0241 4
19.9897 7.1479 2
21.1441 9.14921 0.0153969
20.9142 3.86727 2
22.0161 6.08269 0.00897842
23.1494 2.85457 0
29.328 35.1431 3.88752
30.7229 35.5783 2
32.4497 35.7254 0.265938
22.1002 16.6441 0.021839
20.3063 16.9702 0.018294
21.7872 17.8609 2
19.2535 18.4174 2
18.0007 19.9526 3.97175
20.8902 19.3915 3.97648
24.2088 18.4645 0.0246646
22.2951 19.9083 2
24.6141 21.3442 2
22.3908 21.7379 3.9773
24.7512 23.1848 3.97446
25.5797 25.9688 3.97427
26.4833 23.7402 2
27.0318 21.4745 0.00881216
28.6222 32.3744 3.93623
30.2145 33.0498 2
31.5139 33.8851 0.197144
31.5398 31.2936 0.123935
32.6291 28.1669 0.0638687
30.2465 29.5978 2
27.1921 29.1536 4.00508
27.9892 26.5794 2
28.873 24.4315 0.0195351
29.7511 27.3483 0.0355409
27.198 37.3656 3.93906
28.9047 37.5055 2
30.4175 37.5 0.189507
29.3387 46.5267 -0.00113378
28.9235 43.1233 0.0644454
29.3083 39.8538 0.115041
27.4935 44.8448 2
27.0637 40.5997 2
25.5188 43.1368 3.98708
24.3348 39.4485 3.977
26.1052 46.6134 0.0235911
24.2034 45.1626 2
22.0986 43.9124 3.97846
22.9696 47.0379 0.0264502
21.086 45.8592 2
19.1366 44.9447 3.9782
20.1141 47.5906 0.0231048
18.4443 46.7133 2
16.729 46.1956 3.97717
17.7655 48.159 0.0240586
16.4185 47.6968 2
14.9969 47.6569 3.97456
16.2142 48.6678 0.0246612
15.255 49.0015 2
13.8271 49.5361 3.96983
15.9091 50.1556 0.030253
14.5291 50.9737 2
12.9135 51.8677 3.96723
12.1491 54.5218 3.96825
13.844 53.4271 2
15.4141 52.4041 0.0337338
11.5377 57.4534 3.97237
13.263 56.1601 2
14.8812 54.9684 0.0337959
11.1344 60.6264 3.98303
12.852 59.121 2
14.4657 57.7307 0.0309322
10.9835 64.0165 4
12.6779 62.2987 2
14.268 60.6875 0.0237285
12.7745 65.694 2
14.3336 63.8585 0.0121954
14.6715 67.2507 0
16.4114 18.6634 3.96845
17.6728 17.164 2
16.104 15.7871 3.97749
18.935 15.7884 0.0205391
17.5124 14.3767 2
16.0206 12.8109 3.98111
18.9801 13.1125 0.0204093
17.6389 11.4564 2
16.2021 9.66315 3.99028
19.3432 10.2374 0.0159666
18.0498 8.34102 2
16.6661 6.31991 4
18.75 5.02404 2
19.9907 7.14735 0.00920736
20.9142 3.86727 0
27.7246 34.7899 3.93195
29.3003 35.1203 2
30.7571 35.6015 0.194359
16.7151 21.3895 3.96101
21.7862 17.861 0.0199882
19.2527 18.4185 0.0235477
20.8909 19.3908 2
18.0014 19.9513 2
19.7581 21.5891 3.9739
22.2945 19.9087 0.0281808
24.6139 21.3439 0.0110546
22.391 21.7378 2
24.7517 23.1846 2
22.9308 24.6195 3.97171
24.733 28.5482 3.97768
25.5779 25.9677 2
26.4819 23.7407 0.0301996
26.4676 31.733 3.98549
28.5934 32.3526 2
30.2421 33.0676 0.12163
30.2516 29.5987 0.0471594
27.2131 29.1404 2
27.9946 26.5686 0.0166131
25.0264 36.8604 3.98536
27.1759 37.3589 2
28.9479 37.5118 0.109592
27.4984 44.8233 0.0224488
27.0809 40.5866 0.0415641
25.5041 43.1466 2
24.3192 39.4463 2
23.2304 41.8092 3.97983
22.0533 38.5173 3.97795
24.2094 45.1632 0.0240634
22.0965 43.9128 2
19.9466 42.8734 3.97731
21.0872 45.8602 0.021528
19.1362 44.9445 2
17.0921 44.3621 3.97696
18.4433 46.7142 0.0218956
16.7303 46.1951 2
14.9355 46.0777 3.97505
16.4176 47.6973 0.0234987
14.998 47.6565 2
13.3411 47.9992 3.9712
15.2538 49.002 0.0270995
13.8281 49.5358 2
12.1328 50.2473 3.96783
14.5282 50.9741 0.0319914
12.9139 51.8676 2
11.1441 52.833 3.96833
10.3282 55.7078 3.97269
12.1496 54.5218 2
13.8441 53.4271 0.033588
9.7013 58.8484 3.98098
11.538 57.4533 2
13.2626 56.16 0.0324638
9.30605 62.2254 4
11.1328 60.6238 2
12.8517 59.1207 0.0258115
10.9835 64.0165 2
12.6795 62.3007 0.0146983
12.7746 65.6939 0
15.162 20.1974 3.9673
16.4119 18.6627 2
14.7532 17.312 3.97168
17.6724 17.1648 0.0251162
16.1045 15.786 2
14.4835 14.2937 3.97932
17.512 14.3772 0.021336
16.0208 12.8102 2
14.4449 11.1144 3.98945
17.6388 11.4568 0.0170485
16.201 9.66427 2
14.6715 7.74927 4
18.0509 8.34016 0.00938952
16.6661 6.31988 2
18.75 5.0241 0
25.6821 34.2772 3.99167
27.7033 34.7907 2
29.328 35.1431 0.112485
17.9019 22.3403 3.97112
15.5536 22.9303 3.96703
16.7157 21.389 2
20.8902 19.3915 0.023519
18.0007 19.9526 0.0282473
19.7586 21.5885 2
19.7527 24.3996 3.96957
22.3908 21.7379 0.0226951
24.7512 23.1848 0.0255421
22.9305 24.6195 2
22.1014 27.8488 3.9721
24.0246 31.2168 3.97611
24.7475 28.5489 2
25.5797 25.9688 0.0257263
26.4532 31.7117 2
28.6222 32.3744 0.063772
27.1921 29.1536 -0.0050781
22.7782 36.2866 3.982
25.0052 36.8555 2
27.198 37.3656 0.0609355
25.5188 43.1368 0.0129222
24.3348 39.4485 0.0229952
23.2216 41.8072 2
22.0453 38.5152 2
20.9632 40.6395 3.97616
20.3633 37.8013 3.97728
22.0986 43.9124 0.0215405
19.9454 42.8735 2
17.5451 42.0822 3.97714
19.1366 44.9447 0.0218038
17.0933 44.3617 2
14.9629 44.1888 3.97569
16.729 46.1956 0.0228321
14.9365 46.0773 2
13.0258 46.2866 3.97188
14.9969 47.6569 0.0254378
13.3419 47.9989 2
11.5068 48.5447 3.96824
13.8271 49.5361 0.0301709
12.1333 50.2471 2
10.2695 51.0779 3.96821
12.9135 51.8677 0.0327743
11.1446 52.8329 2
9.2368 53.8878 3.97247
8.38476 56.9815 3.98124
10.3286 55.7073 2
12.1491 54.5218 0.0317547
7.74927 60.3285 4
9.70012 58.8452 2
11.5377 57.4534 0.0276284
9.306 62.2255 2
11.1344 60.6264 0.0169651
10.9835 64.0165 0
13.9749 21.7603 3.96644
15.1627 20.197 2
13.4581 18.9114 3.96776
16.4114 18.6634 0.0315484
14.7537 17.3108 2
13.0301 15.8879 3.97686
16.104 15.7871 0.0225101
14.4836 14.2926 2
12.7825 12.688 3.98784
16.0206 12.8109 0.0188926
14.4438 11.1157 2
12.7746 9.30605 4
16.2021 9.66315 0.00972184
14.6715 7.74924 2
16.6661 6.31991 0
23.3586 33.8201 3.98319
25.6618 34.2686 2
27.7246 34.7899 0.0680534
17.6951 24.0587 3.97096
17.9025 22.3399 2
14.3639 24.4623 3.96968
15.5544 22.93 2
16.7151 21.3895 0.0389866
19.194 27.2256 3.97122
19.7581 21.5891 0.0261048
19.7517 24.3992 2
21.4083 30.6892 3.97441
22.9308 24.6195 0.0282898
22.1103 27.85 2
24.009 31.2148 2
24.733 28.5482 0.0223239
26.4676 31.733 0.0145113
20.4852 35.9455 3.97732
22.7745 36.2803 2
25.0264 36.8604 0.0146397
23.2304 41.8092 0.0201734
22.0533 38.5173 0.0220545
20.9687 40.6396 2
20.3673 37.8007 2
18.286 39.0066 3.97756
19.9466 42.8734 0.0226883
17.5468 42.0816 2
14.9413 41.9096 3.97672
17.0921 44.3621 0.0230375
14.9643 44.1884 2
12.7815 44.3838 3.97238
14.9355 46.0777 0.0249538
13.0266 46.2863 2
11.0123 46.7288 3.96861
13.3411 47.9992 0.0287969
11.5073 48.5446 2
9.53254 49.2384 3.9679
12.1328 50.2473 0.0321658
10.2699 51.0777 2
8.26967 52.0016 3.97203
11.1441 52.833 0.0316687
9.23727 53.8872 2
7.19364 55.0323 3.98218
6.31991 58.3339 4
8.38392 56.9782 2
10.3282 55.7078 0.0273112
7.74924 60.3285 2
9.7013 58.8484 0.0190168
9.30605 62.2254 0
13.2663 25.3715 3.97175
12.8488 23.2882 3.96693
13.9756 21.76 2
12.2446 20.5579 3.9684
15.162 20.1974 0.0326994
13.4589 18.9108 2
11.6622 17.5703 3.97329
14.7532 17.312 0.0283177
13.0304 15.8869 2
11.2202 14.3735 3.98518
14.4835 14.2937 0.0206824
12.7811 12.6896 2
10.9835 10.9835 4
14.4449 11.1144 0.0105464
12.7745 9.306 2
14.6715 7.74927 0
20.8419 33.4198 3.9757
23.3642 33.8293 2
25.6821 34.2772 0.00833456
16.011 26.418 3.9717
17.6953 24.0585 2
17.9019 22.3403 0.028878
14.3639 24.4623 2
15.5536 22.9303 0.0329661
18.5616 30.1942 3.97474
19.1945 27.2258 2
19.7527 24.3996 0.0304333
21.415 30.6904 2
22.1014 27.8488 0.0279043
24.0246 31.2168 0.0238885
17.8992 35.9788 3.97806
20.4829 35.9464 2
22.7782 36.2866 0.0180021
20.9632 40.6395 0.023844
20.3633 37.8013 0.0227229
18.2875 39.0068 2
14.4498 39.174 3.97758
17.5451 42.0822 0.0228557
14.9429 41.9093 2
12.4844 42.2702 3.97232
14.9629 44.1888 0.0243052
12.7823 44.3836 2
10.5964 44.7979 3.9691
13.0258 46.2866 0.0281206
11.0127 46.7287 2
8.91469 47.3178 3.96762
11.5068 48.5447 0.0317613
9.53277 49.2383 2
7.43659 50.0351 3.97148
10.2695 51.0779 0.0317923
8.27004 52.0009 2
6.13428 53.0074 3.98258
9.2368 53.8878 0.0275289
7.19312 55.0295 2
5.0241 56.25 4
6.31988 58.3339 2
8.38476 56.9815 0.0187644
7.74927 60.3285 0
13.5287 26.8251 3.97111
11.9552 24.7934 3.96867
13.2659 25.3714 2
11.1464 22.239 3.9683
12.8488 23.288 2
13.9749 21.7603 0.0335579
12.2457 20.5576 2
10.3936 19.3241 3.97226
13.4581 18.9114 0.0322385
11.6629 17.5698 2
9.76167 16.1579 3.98194
13.0301 15.8879 0.023142
11.2187 14.3758 2
9.30607 12.7746 4
12.7825 12.688 0.0121641
10.9835 10.9835 2
12.7746 9.30605 0
18.0717 33.1291 3.97701
20.8471 33.4197 2
23.3586 33.8201 0.0168098
15.6296 29.6529 3.97372
16.0112 26.4181 2
17.6951 24.0587 0.0290445
14.3639 24.4623 0.0303206
18.5598 30.1942 2
19.194 27.2256 0.0287756
21.4083 30.6892 0.0255875
15.0698 36.0247 3.97785
17.9023 35.979 2
20.4852 35.9455 0.0226843
12.704 37.8297 3.97624
18.286 39.0066 0.0224439
14.4509 39.1739 2
11.9985 40.1367 3.97321
14.9413 41.9096 0.0232846
12.485 42.2701 2
10.2055 42.7739 3.96931
12.7815 44.3838 0.027623
10.5967 44.7978 2
8.39256 45.3199 3.96744
11.0123 46.7288 0.031388
8.91478 47.3177 2
6.72787 48.0003 3.97099
9.53254 49.2384 0.0320969
7.43678 50.0346 2
5.21112 50.9108 3.98233
8.26967 52.0016 0.0279686
6.13403 53.0055 2
3.86727 54.0858 4
7.19364 55.0323 0.0178195
5.02404 56.25 2
6.31991 58.3339 0
13.001 29.0433 3.97076
11.3954 26.4933 3.9688
13.5282 26.8251 2
10.2043 23.9702 3.96845
11.9557 24.7934 2
13.2663 25.3715 0.0282522
9.24561 21.1407 3.97234
11.1473 22.2389 2
12.8488 23.2882 0.0330749
12.2446 20.5579 0.0315997
10.3946 19.3242 2
8.41776 18.0294 3.98081
11.6622 17.5703 0.0267063
9.76047 16.1611 2
7.74928 14.6715 4
11.2202 14.3735 0.0148181
9.30602 12.7745 2
10.9835 10.9835 0
14.6285 32.8735 3.97588
18.0726 33.1296 2
20.8419 33.4198 0.0242954
15.6299 29.6531 2
16.011 26.418 0.0283009
18.5616 30.1942 0.0252581
13.0018 36.2121 3.9749
15.0714 36.0251 2
17.8992 35.9788 0.0219361
12.7048 37.8296 2
11.34 38.3087 3.97419
14.4498 39.174 0.0224173
11.9998 40.1366 2
9.79445 40.7516 3.97004
12.4844 42.2702 0.0276765
10.2062 42.7737 2
7.94152 43.2689 3.96758
10.5964 44.7979 0.0309028
8.39264 45.3197 2
6.13416 45.9054 3.97047
8.91469 47.3178 0.0323798
6.72795 47.9999 2
4.42268 48.7515 3.98172
7.43659 50.0351 0.0285231
5.21101 50.9098 2
2.85457 51.8506 4
6.13428 53.0074 0.0174221
3.86727 54.0858 2
5.0241 56.25 0
12.1478 31.265 3.97204
10.8166 28.4209 3.96889
13.0017 29.0434 2
9.41868 25.7997 3.96824
11.3955 26.4933 2
13.5287 26.8251 0.0288904
8.23228 23.0243 3.97205
10.2049 23.9702 2
11.9552 24.7934 0.0313301
7.19974 19.9791 3.98154
9.24653 21.1411 2
11.1464 22.239 0.0316981
10.3936 19.3241 0.0277365
8.41713 18.0328 2
6.31992 16.6661 4
9.76167 16.1579 0.0180556
7.74926 14.6714 2
9.30607 12.7746 0
12.1754 34.2997 3.97525
14.6291 32.8738 2
18.0717 33.1291 0.0229923
15.6296 29.6529 0.0262835
10.9015 36.6122 3.97341
13.0023 36.2122 2
15.0698 36.0247 0.0221521
12.704 37.8297 0.0237589
11.3409 38.3087 2
9.38468 38.8223 3.97039
11.9985 40.1367 0.0267942
9.79498 40.7514 2
7.55254 41.2107 3.96792
10.2055 42.7739 0.0306911
7.94152 43.2688 2
5.64614 43.7683 3.97036
8.39256 45.3199 0.0325578
6.13426 45.905 2
3.76833 46.5371 3.98111
6.72787 48.0003 0.029007
4.42271 48.7511 2
1.99014 49.554 4
5.21112 50.9108 0.0176686
2.85451 51.8506 2
3.86727 54.0858 0
10.9838 32.9245 3.97369
10.1357 30.3874 3.96927
12.1486 31.2651 2
8.72673 27.7331 3.96786
10.8169 28.4209 2
13.001 29.0433 0.0292392
7.3577 24.9829 3.97151
9.41896 25.7997 2
11.3954 26.4933 0.0311965
6.11659 22.0024 3.98243
8.23291 23.0246 2
10.2043 23.9702 0.031548
5.02411 18.75 4
7.19948 19.9819 2
9.24561 21.1407 0.0276559
8.41776 18.0294 0.0191934
6.3199 16.6661 2
7.74928 14.6715 0
10.5052 35.0027 3.97301
12.1762 34.2998 2
14.6285 32.8735 0.0241183
9.05093 36.9851 3.97084
10.9028 36.6122 2
13.0018 36.2121 0.0250986
11.34 38.3087 0.0258125
9.38553 38.8221 2
7.23293 39.182 3.96816
9.79445 40.7516 0.0299626
7.55281 41.2105 2
5.26137 41.614 3.97012
7.94152 43.2689 0.0324203
5.64614 43.768 2
3.24609 44.2819 3.98099
6.13416 45.9054 0.0295263
3.76847 46.5369 2
1.27781 47.2057 4
4.42268 48.7515 0.0182844
1.99012 49.554 2
2.85457 51.8506 0
10.141 33.8849 3.97347
9.42102 32.1582 3.97006
10.9845 32.9245 2
8.07559 29.6965 3.96787
10.1361 30.3875 2
12.1478 31.265 0.0279645
6.60157 27.0088 3.97086
8.72676 27.7332 2
10.8166 28.4209 0.0311052
5.17197 24.0951 3.98244
7.35802 24.9831 2
9.41868 25.7997 0.0317601
3.86728 20.9142 4
6.11652 22.0041 2
8.23228 23.0243 0.0279527
5.02406 18.75 2
7.19974 19.9791 0.0184561
6.31992 16.6661 0
8.87386 35.2808 3.97105
10.5058 35.0027 2
12.1754 34.2997 0.0247457
7.01625 37.2061 3.9683
9.05138 36.985 2
10.9015 36.6122 0.0265934
9.38468 38.8223 0.0296098
7.23324 39.1818 2
4.98913 39.4673 3.97013
7.55254 41.2107 0.0320751
5.26163 41.6137 2
2.85659 42.0022 3.98087
5.64614 43.7683 0.0296401
3.24615 44.2818 2
0.720592 44.8159 4
3.76833 46.5371 0.0188893
1.27778 47.2057 2
1.99014 49.554 0
8.91192 33.7001 3.97089
10.1417 33.8849 2
7.51283 31.61 3.96814
9.42155 32.1583 2
10.9838 32.9245 0.0263149
5.94666 29.0698 3.97081
8.07552 29.6966 2
10.1357 30.3874 0.0307303
4.35974 26.2475 3.98174
6.60165 27.009 2
8.72673 27.7331 0.0321435
2.85458 23.1494 4
5.17198 24.0958 2
7.3577 24.9829 0.0284924
3.86728 20.9142 2
6.11659 22.0024 0.0175722
5.02411 18.75 0
6.96624 35.3064 3.96848
8.87454 35.2808 2
10.5052 35.0027 0.0269873
4.83904 37.3397 3.97081
7.01633 37.206 2
9.05093 36.9851 0.029165
7.23293 39.182 0.0318423
4.98943 39.4671 2
2.6047 39.7139 3.98063
5.26137 41.614 0.0298833
2.85684 42.0023 2
0.320823 42.3947 4
3.24609 44.2819 0.0190105
0.720551 44.8159 2
1.27781 47.2057 0
7.12627 33.4615 3.96849
8.91231 33.7002 2
10.141 33.8849 0.0265324
5.41741 31.1337 3.97093
7.51286 31.61 2
9.42102 32.1582 0.0299367
3.68146 28.4434 3.98126
5.94665 29.07 2
8.07559 29.6965 0.032129
1.99015 25.446 4
4.35979 26.2476 2
6.60157 27.0088 0.0291368
2.85453 23.1494 2
5.17197 24.0951 0.0175567
3.86728 20.9142 0
4.85321 35.2515 3.97116
6.96659 35.3064 2
8.87386 35.2808 0.0289517
2.49604 37.4285 3.98136
4.83908 37.3398 2
7.01625 37.2061 0.0316958
4.98913 39.4673 0.0298709
2.60502 39.7143 2
0.080333 39.9526 4
2.85659 42.0022 0.0191255
0.320817 42.3947 2
0.720592 44.8159 0
5.04662 33.1902 3.97122
7.12639 33.4615 2
8.91192 33.7001 0.0291112
3.14574 30.6661 3.98108
5.41744 31.134 2
7.51283 31.61 0.0318558
1.27793 27.7943 4
3.68157 28.4435 2
5.94666 29.0698 0.0291933
1.99013 25.446 2
4.35974 26.2475 0.0182646
2.85458 23.1494 0
2.54812 35.159 3.98137
4.85357 35.2517 2
6.96624 35.3064 0.0315187
0 37.5 4
2.4961 37.4289 2
4.83904 37.3397 0.0291866
2.6047 39.7139 0.0193699
0.0802903 39.9526 2
0.320823 42.3947 0
2.76573 32.9057 3.98145
5.04673 33.1905 2
7.12627 33.4615 0.0315068
0.721173 30.1842 4
3.14589 30.6665 2
5.41741 31.1337 0.0290701
1.27779 27.7943 2
3.68146 28.4434 0.018742
1.99015 25.446 0
0.0806499 35.0474 4
2.5485 35.1594 2
4.85321 35.2515 0.0288416
0 37.5 2
2.49604 37.4285 0.0186435
0.080333 39.9526 0
0.32156 32.6054 4
2.76582 32.9062 2
5.04662 33.1902 0.0287802
0.72056 30.1841 2
3.14574 30.6661 0.0189198
1.27793 27.7943 0
0.0802889 35.0474 2
2.54812 35.159 0.0186295
0 37.5 0
0.320817 32.6053 2
2.76573 32.9057 0.0185485
0.721173 30.1842 0
0.0806499 35.0474 0
0.32156 32.6054 0
CELLS 1910 17190
8 18 6 25 56 2 0 5 16
8 57 23 6 18 17 4 0 2
8 78 36 9 29 31 11 1 7
8 31 11 1 7 79 37 10 30
8 110 57 18 50 48 17 2 14
8 50 18 56 111 14 2 16 49
8 116 62 22 55 52 20 3 15
8 56 25 67 118 16 5 24 53
8 119 63 23 57 54 21 4 17
8 55 22 63 119 15 3 21 54
8 58 26 68 121 18 6 25 56
8 122 65 26 58 57 23 6 18
8 73 31 7 27 142 79 30 71
8 143 78 29 72 73 31 7 27
8 83 147 76 34 32 74 28 8
8 84 148 78 36 33 75 29 9
8 76 34 8 28 148 84 33 75
8 37 79 150 86 10 30 77 35
8 151 87 36 78 80 38 11 31
8 80 38 11 31 152 88 37 79
8 175 100 42 94 96 44 12 40
8 44 96 176 101 12 40 95 43
8 101 176 98 46 43 95 41 13
8 46 98 178 103 13 41 97 45
8 178 103 45 97 147 83 32 74
8 189 116 55 109 106 52 15 47
8 111 56 118 191 49 16 53 107
8 192 119 57 110 108 54 17 48
8 109 55 119 192 47 15 54 108
8 194 122 58 112 110 57 18 50
8 112 58 121 195 50 18 56 111
8 115 61 19 51 197 124 59 113
8 115 61 125 198 51 19 60 114
8 198 125 62 116 114 60 20 52
8 200 127 64 120 116 62 22 55
8 118 67 132 202 53 24 66 117
8 121 68 133 203 56 25 67 118
8 120 64 128 204 55 22 63 119
8 204 128 65 122 119 63 23 57
8 206 134 68 121 123 69 26 58
8 123 69 26 58 207 131 65 122
8 226 147 74 138 140 76 28 70
8 229 148 75 139 143 78 29 72
8 140 76 28 70 229 148 75 139
8 142 79 30 71 231 150 77 141
8 144 80 31 73 232 152 79 142
8 233 151 78 143 144 80 31 73
8 150 86 35 77 235 154 81 145
8 235 154 81 145 146 82 39 91
8 146 82 39 91 236 155 90 165
8 238 157 83 147 149 85 34 76
8 239 158 84 148 151 87 36 78
8 149 85 34 76 239 158 84 148
8 152 88 37 79 241 160 86 150
8 242 161 87 151 153 89 38 80
8 153 89 38 80 243 162 88 152
8 171 98 41 92 265 178 97 169
8 265 178 97 169 226 147 74 138
8 172 96 40 93 266 176 95 170
8 266 176 95 170 171 98 41 92
8 269 175 94 173 172 96 40 93
8 271 180 99 174 175 100 42 94
8 197 124 59 113 271 180 99 174
8 272 181 100 175 177 102 44 96
8 273 182 101 176 179 104 46 98
8 177 102 44 96 273 182 101 176
8 179 104 46 98 275 184 103 178
8 275 184 103 178 238 157 83 147
8 188 115 51 105 283 197 113 186
8 188 115 198 284 105 51 114 187
8 284 198 116 189 187 114 52 106
8 286 200 120 193 189 116 55 109
8 191 118 202 288 107 53 117 190
8 195 121 203 289 111 56 118 191
8 193 120 204 290 109 55 119 192
8 290 204 122 194 192 119 57 110
8 196 123 58 112 292 207 122 194
8 293 206 121 195 196 123 58 112
8 199 126 61 115 297 211 124 197
8 298 212 127 200 198 125 62 116
8 199 126 212 298 115 61 125 198
8 205 129 64 120 300 214 127 200
8 301 217 130 201 202 132 66 117
8 209 136 168 264 301 217 130 201
8 302 219 132 202 203 133 67 118
8 303 220 133 203 206 134 68 121
8 205 129 215 304 120 64 128 204
8 304 215 131 207 204 128 65 122
8 306 221 134 206 208 135 69 123
8 208 135 69 123 307 218 131 207
8 210 137 167 263 309 223 136 209
8 328 238 147 226 230 149 76 140
8 228 146 91 166 329 236 165 260
8 231 150 77 141 330 235 145 227
8 330 235 145 227 228 146 91 166
8 332 239 148 229 233 151 78 143
8 230 149 76 140 332 239 148 229
8 232 152 79 142 334 241 150 231
8 234 153 80 144 335 243 152 232
8 336 242 151 233 234 153 80 144
8 236 155 90 165 338 245 164 259
8 241 160 86 150 339 246 154 235
8 339 246 154 235 237 156 82 146
8 237 156 82 146 340 247 155 236
8 342 249 157 238 240 159 85 149
8 343 250 158 239 242 161 87 151
8 240 159 85 149 343 250 158 239
8 243 162 88 152 345 252 160 241
8 244 163 253 346 153 89 161 242
8 244 163 89 153 347 254 162 243
8 311 224 261 371 210 137 167 263
8 263 167 262 372 209 136 168 264
8 267 179 98 171 375 275 178 265
8 375 275 178 265 328 238 147 226
8 376 273 176 266 267 179 98 171
8 268 177 96 172 376 273 176 266
8 379 272 175 269 268 177 96 172
8 380 271 174 270 269 175 94 173
8 283 197 113 186 380 271 174 270
8 381 277 180 271 272 181 100 175
8 297 211 124 197 381 277 180 271
8 382 278 181 272 274 183 102 177
8 274 183 102 177 383 279 182 273
8 383 279 182 273 276 185 104 179
8 385 281 184 275 342 249 157 238
8 276 185 104 179 385 281 184 275
8 285 199 115 188 393 297 197 283
8 394 298 200 286 284 198 116 189
8 285 199 298 394 188 115 198 284
8 291 205 120 193 396 300 200 286
8 397 301 201 287 288 202 117 190
8 295 209 264 374 397 301 201 287
8 398 302 202 288 289 203 118 191
8 399 303 203 289 293 206 121 195
8 291 205 304 400 193 120 204 290
8 400 304 207 292 290 204 122 194
8 294 208 123 196 402 307 207 292
8 403 306 206 293 294 208 123 196
8 296 210 263 373 405 309 209 295
8 408 312 213 299 297 211 126 199
8 299 213 313 409 199 126 212 298
8 409 313 214 300 298 212 127 200
8 305 216 129 205 411 315 214 300
8 412 318 217 301 302 219 132 202
8 309 223 136 209 412 318 217 301
8 413 320 219 302 303 220 133 203
8 306 221 321 414 206 134 220 303
8 307 218 131 207 415 316 215 304
8 305 216 316 415 205 129 215 304
8 417 322 221 306 308 222 135 208
8 308 222 135 208 418 319 218 307
8 310 225 137 210 420 325 223 309
8 423 326 224 311 310 225 137 210
8 329 236 165 260 441 338 259 368
8 442 342 238 328 333 240 149 230
8 331 237 146 228 443 340 236 329
8 334 241 150 231 444 339 235 330
8 444 339 235 330 331 237 146 228
8 446 343 239 332 336 242 151 233
8 333 240 149 230 446 343 239 332
8 335 243 152 232 448 345 241 334
8 337 244 153 234 449 347 243 335
8 337 244 346 450 234 153 242 336
8 338 245 164 259 452 349 258 367
8 340 247 155 236 453 350 245 338
8 345 252 160 241 454 351 246 339
8 454 351 246 339 341 248 156 237
8 341 248 156 237 455 352 247 340
8 240 159 251 344 342 249 354 457
8 242 161 253 346 343 250 355 458
8 343 250 355 458 240 159 251 344
8 347 254 162 243 460 357 252 345
8 348 255 358 461 244 163 253 346
8 348 255 163 244 462 359 254 347
8 473 360 257 365 363 256 364 482
8 452 349 258 367 365 257 366 485
8 422 324 369 488 311 224 261 371
8 371 261 370 490 263 167 262 372
8 407 311 371 491 296 210 263 373
8 373 263 372 492 295 209 264 374
8 493 385 275 375 442 342 238 328
8 377 276 179 267 493 385 275 375
8 378 274 177 268 494 383 273 376
8 494 383 273 376 377 276 179 267
8 497 382 272 379 378 274 177 268
8 498 381 271 380 379 272 175 269
8 393 297 197 283 498 381 271 380
8 499 387 277 381 382 278 181 272
8 408 312 211 297 499 387 277 381
8 500 388 278 382 384 280 183 274
8 501 389 279 383 386 282 185 276
8 384 280 183 274 501 389 279 383
8 386 282 185 276 503 391 281 385
8 503 391 281 385 457 354 249 342
8 511 408 299 395 393 297 199 285
8 395 299 409 512 285 199 298 394
8 512 409 300 396 394 298 200 286
8 401 305 205 291 514 411 300 396
8 515 412 301 397 398 302 202 288
8 405 309 209 295 515 412 301 397
8 516 413 302 398 399 303 203 289
8 403 306 414 517 293 206 303 399
8 402 307 207 292 518 415 304 400
8 401 305 415 518 291 205 304 400
8 404 308 208 294 520 418 307 402
8 521 417 306 403 404 308 208 294
8 406 310 210 296 523 420 309 405
8 526 423 311 407 406 310 210 296
8 410 314 213 299 527 424 312 408
8 528 425 315 411 409 313 214 300
8 410 314 425 528 299 213 313 409
8 416 317 216 305 530 427 315 411
8 531 430 318 412 413 320 219 302
8 420 325 223 309 531 430 318 412
8 532 432 320 413 414 321 220 303
8 417 322 433 533 306 221 321 414
8 418 319 218 307 534 428 316 415
8 416 317 428 534 305 216 316 415
8 419 323 434 536 308 222 322 417
8 419 323 222 308 537 431 319 418
8 421 327 225 310 539 438 325 420
8 421 327 439 541 310 225 326 423
8 543 437 324 422 423 326 224 311
8 441 338 259 368 559 452 367 486
8 443 340 236 329 560 453 338 441
8 333 240 344 447 442 342 457 561
8 445 341 237 331 562 455 340 443
8 448 345 241 334 563 454 339 444
8 563 454 339 444 445 341 237 331
8 336 242 346 450 446 343 458 565
8 446 343 458 565 333 240 344 447
8 449 347 243 335 567 460 345 448
8 451 348 244 337 568 462 347 449
8 451 348 461 569 337 244 346 450
8 570 463 349 452 473 360 257 365
8 453 350 245 338 570 463 349 452
8 455 352 247 340 571 464 350 453
8 460 357 252 345 572 465 351 454
8 572 465 351 454 456 353 248 341
8 456 353 248 341 573 466 352 455
8 344 251 356 459 457 354 468 575
8 458 355 469 576 344 251 356 459
8 346 253 358 461 458 355 469 576
8 462 359 254 347 578 471 357 460
8 348 255 359 462 461 358 472 579
8 591 474 360 473 475 361 256 363
8 475 361 256 363 594 477 362 479
8 363 256 364 482 479 362 480 603
8 590 473 365 484 481 363 482 605
8 482 364 257 365 606 483 366 485
8 559 452 367 486 484 365 485 607
8 542 436 487 609 422 324 369 488
8 525 422 488 611 407 311 371 491
8 488 369 489 612 371 261 370 490
8 491 371 490 613 373 263 372 492
8 495 386 276 377 614 503 385 493
8 614 503 385 493 561 457 342 442
8 615 501 383 494 495 386 276 377
8 496 384 274 378 615 501 383 494
8 618 500 382 497 496 384 274 378
8 619 499 381 498 497 382 272 379
8 511 408 297 393 619 499 381 498
8 620 505 387 499 500 388 278 382
8 527 424 312 408 620 505 387 499
8 502 390 506 621 384 280 388 500
8 622 507 389 501 504 392 282 386
8 502 390 280 384 622 507 389 501
8 504 392 282 386 624 509 391 503
8 624 509 391 503 575 468 354 457
8 513 410 299 395 630 527 408 511
8 631 528 411 514 512 409 300 396
8 513 410 528 631 395 299 409 512
8 519 416 305 401 633 530 411 514
8 634 531 412 515 516 413 302 398
8 523 420 309 405 634 531 412 515
8 635 532 413 516 517 414 303 399
8 521 417 533 636 403 306 414 517
8 520 418 307 402 637 534 415 518
8 519 416 534 637 401 305 415 518
8 522 419 308 404 639 537 418 520
8 522 419 536 640 404 308 417 521
8 524 421 310 406 642 539 420 523
8 524 421 541 644 406 310 423 526
8 646 543 422 525 526 423 311 407
8 529 426 314 410 647 544 424 527
8 528 425 545 648 411 315 427 530
8 529 426 545 648 410 314 425 528
8 535 429 317 416 649 546 427 530
8 650 548 430 531 532 432 320 413
8 539 438 325 420 650 548 430 531
8 533 433 550 651 414 321 432 532
8 536 434 551 652 417 322 433 533
8 537 431 319 418 653 547 428 534
8 535 429 547 653 416 317 428 534
8 538 435 552 654 419 323 434 536
8 538 435 323 419 655 549 431 537
8 540 440 327 421 657 556 438 539
8 540 440 557 659 421 327 439 541
8 541 439 555 660 423 326 437 543
8 661 554 436 542 543 437 324 422
8 676 570 452 559 590 473 365 484
8 560 453 338 441 676 570 452 559
8 562 455 340 443 677 571 453 560
8 447 344 459 566 561 457 575 678
8 564 456 341 445 679 573 455 562
8 567 460 345 448 680 572 454 563
8 680 572 454 563 564 456 341 445
8 565 458 576 682 447 344 459 566
8 450 346 461 569 565 458 576 682
8 568 462 347 449 684 578 460 567
8 451 348 462 568 569 461 579 685
8 686 580 463 570 591 474 360 473
8 571 464 350 453 686 580 463 570
8 573 466 352 455 687 581 464 571
8 572 465 582 688 460 357 471 578
8 574 467 582 688 456 353 465 572
8 574 467 353 456 689 583 466 573
8 459 356 470 577 575 468 585 691
8 576 469 586 692 459 356 470 577
8 461 358 472 579 576 469 586 692
8 462 359 471 578 579 472 588 694
8 704 591 473 590 593 475 363 481
8 595 476 592 705 475 361 474 591
8 593 475 363 481 707 594 479 602
8 594 477 362 479 709 598 478 600
8 595 476 361 475 711 597 477 594
8 479 362 480 603 600 478 601 720
8 481 363 482 605 602 479 603 722
8 603 480 364 482 723 604 483 606
8 605 482 365 484 724 606 485 607
8 656 553 608 726 542 436 487 609
8 645 542 609 728 525 422 488 611
8 609 487 610 729 488 369 489 612
8 611 488 612 730 491 371 490 613
8 616 504 386 495 731 624 503 614
8 731 624 503 614 678 575 457 561
8 732 622 501 615 616 504 386 495
8 617 502 384 496 732 622 501 615
8 617 502 621 735 496 384 500 618
8 736 620 499 619 618 500 382 497
8 630 527 408 511 736 620 499 619
8 621 506 626 737 500 388 505 620
8 647 544 424 527 737 626 505 620
8 623 508 627 738 502 390 506 621
8 623 508 390 502 739 628 507 622
8 625 510 628 739 504 392 507 622
8 740 629 509 624 691 585 468 575
8 625 510 392 504 740 629 509 624
8 632 529 410 513 744 647 527 630
8 631 528 648 745 514 411 530 633
8 632 529 648 745 513 410 528 631
8 638 535 416 519 746 649 530 633
8 747 650 531 634 635 532 413 516
8 642 539 420 523 747 650 531 634
8 636 533 651 748 517 414 532 635
8 640 536 652 749 521 417 533 636
8 639 537 418 520 750 653 534 637
8 638 535 653 750 519 416 534 637
8 641 538 419 522 751 655 537 639
8 641 538 654 752 522 419 536 640
8 643 540 421 524 753 657 539 642
8 643 540 659 755 524 421 541 644
8 644 541 660 757 526 423 543 646
8 758 661 542 645 646 543 422 525
8 529 426 544 647 648 545 662 759
8 530 427 545 648 649 546 663 760
8 535 429 546 649 653 547 664 761
8 762 666 548 650 651 550 432 532
8 657 556 438 539 762 666 548 650
8 652 551 668 763 533 433 550 651
8 654 552 669 764 536 434 551 652
8 655 549 431 537 765 665 547 653
8 538 435 549 655 654 552 667 766
8 661 554 671 768 542 436 553 656
8 658 558 440 540 769 674 556 657
8 658 558 675 770 540 440 557 659
8 659 557 673 771 541 439 555 660
8 660 555 672 772 543 437 554 661
8 788 686 570 676 704 591 473 590
8 677 571 453 560 788 686 570 676
8 679 573 455 562 789 687 571 677
8 566 459 577 683 678 575 691 790
8 681 574 456 564 791 689 573 679
8 680 572 688 792 567 460 578 684
8 681 574 688 792 564 456 572 680
8 682 576 692 794 566 459 577 683
8 569 461 579 685 682 576 692 794
8 568 462 578 684 685 579 694 796
8 687 581 464 571 798 696 580 686
8 798 696 580 686 705 592 474 591
8 689 583 466 573 799 697 581 687
8 688 582 698 800 578 471 588 694
8 690 584 698 800 574 467 582 688
8 690 584 467 574 801 699 583 689
8 693 587 701 803 577 470 585 691
8 693 587 470 577 804 702 586 692
8 695 589 702 804 579 472 586 692
8 695 589 472 579 805 703 588 694
8 708 595 705 813 593 475 591 704
8 710 596 706 814 595 476 592 705
8 707 594 479 602 816 709 600 719
8 708 595 475 593 817 711 594 707
8 709 598 478 600 819 715 599 717
8 711 597 477 594 820 714 598 709
8 710 596 476 595 822 713 597 711
8 600 478 601 720 717 599 718 832
8 602 479 603 722 719 600 720 834
8 720 601 480 603 835 721 604 723
8 722 603 482 605 836 723 606 724
8 767 670 725 839 656 553 608 726
8 756 656 726 841 645 542 609 728
8 726 608 727 842 609 487 610 729
8 728 609 729 843 611 488 612 730
8 844 740 624 731 790 691 575 678
8 733 625 504 616 844 740 624 731
8 734 623 502 617 845 739 622 732
8 733 625 739 845 616 504 622 732
8 734 623 738 846 617 502 621 735
8 735 621 737 847 618 500 620 736
8 744 647 527 630 847 737 620 736
8 621 506 627 738 737 626 741 848
8 647 544 626 737 759 662 741 848
8 623 508 628 739 738 627 742 849
8 740 629 585 691 850 743 700 802
8 625 510 629 740 739 628 743 850
8 632 529 647 744 745 648 759 854
8 633 530 648 745 746 649 760 855
8 638 535 649 746 750 653 761 856
8 857 762 650 747 748 651 532 635
8 753 657 539 642 857 762 650 747
8 749 652 763 858 636 533 651 748
8 752 654 764 859 640 536 652 749
8 751 655 537 639 860 765 653 750
8 641 538 655 751 752 654 766 861
8 754 658 540 643 862 769 657 753
8 754 658 770 863 643 540 659 755
8 755 659 771 864 644 541 660 757
8 758 661 768 866 645 542 656 756
8 757 660 772 867 646 543 661 758
8 759 662 773 868 648 545 663 760
8 649 546 663 760 761 664 774 871
8 765 665 547 653 872 775 664 761
8 873 777 666 762 763 668 550 651
8 769 674 556 657 873 777 666 762
8 764 669 779 874 652 551 668 763
8 654 552 667 766 764 669 778 875
8 655 549 665 765 766 667 776 876
8 768 671 782 877 656 553 670 767
8 772 672 783 878 661 554 671 768
8 658 558 674 769 770 675 786 879
8 659 557 675 770 771 673 785 881
8 882 784 672 772 771 673 555 660
8 789 687 571 677 897 798 686 788
8 897 798 686 788 813 705 591 704
8 791 689 573 679 898 799 687 789
8 795 693 803 900 683 577 691 790
8 793 690 574 681 901 801 689 791
8 792 688 800 902 684 578 694 796
8 793 690 800 902 681 574 688 792
8 795 693 577 683 903 804 692 794
8 797 695 804 903 685 579 692 794
8 797 695 579 685 904 805 694 796
8 905 806 697 799 798 696 581 687
8 814 706 806 905 705 592 696 798
8 689 583 697 799 801 699 808 907
8 800 698 809 908 694 588 703 805
8 690 584 699 801 800 698 809 908
8 803 701 810 909 691 585 700 802
8 693 587 702 804 803 701 811 910
8 695 589 703 805 804 702 812 911
8 818 710 814 919 708 595 705 813
8 821 712 815 920 710 596 706 814
8 816 709 600 719 922 819 717 831
8 817 711 594 707 923 820 709 816
8 818 710 595 708 924 822 711 817
8 819 715 599 717 926 827 716 829
8 820 714 598 709 927 826 715 819
8 929 825 713 822 820 714 597 711
8 821 712 596 710 930 824 713 822
8 717 599 718 832 829 716 830 942
8 719 600 720 834 831 717 832 944
8 832 718 601 720 945 833 721 835
8 834 720 603 722 946 835 723 836
8 869 780 838 950 767 670 725 839
8 865 767 839 952 756 656 726 841
8 839 725 840 953 726 608 727 842
8 841 726 842 954 728 609 729 843
8 844 740 691 790 955 850 802 899
8 733 625 740 844 845 739 850 955
8 734 623 739 845 846 738 849 956
8 735 621 738 846 847 737 848 957
8 744 647 737 847 854 759 848 957
8 738 627 742 849 848 741 851 958
8 848 741 851 958 759 662 773 868
8 850 743 700 802 959 852 807 906
8 849 742 628 739 959 852 743 850
8 854 759 868 965 745 648 760 855
8 746 649 760 855 856 761 871 966
8 860 765 653 750 967 872 761 856
8 968 873 762 857 858 763 651 748
8 862 769 657 753 968 873 762 857
8 859 764 874 969 749 652 763 858
8 752 654 766 861 859 764 875 970
8 751 655 765 860 861 766 876 971
8 754 658 769 862 863 770 879 972
8 755 659 770 863 864 771 881 974
8 976 882 772 867 864 771 660 757
8 866 768 877 977 756 656 767 865
8 867 772 878 978 758 661 768 866
8 760 663 773 868 871 774 883 980
8 870 781 837 948 982 890 780 869
8 982 890 780 869 877 782 670 767
8 761 664 774 871 872 775 884 984
8 876 776 665 765 985 885 775 872
8 873 777 668 763 986 887 779 874
8 769 674 777 873 879 786 887 986
8 764 669 778 875 874 779 888 987
8 766 667 776 876 875 778 886 988
8 878 783 892 989 768 671 782 877
8 878 783 672 772 990 893 784 882
8 880 787 675 770 991 896 786 879
8 880 787 895 992 770 675 785 881
8 881 785 894 993 771 673 784 882
8 1006 905 799 898 897 798 687 789
8 919 814 905 1006 813 705 798 897
8 791 689 799 898 901 801 907 1007
8 900 803 909 1009 790 691 802 899
8 795 693 804 903 900 803 910 1010
8 902 800 908 1011 796 694 805 904
8 793 690 801 901 902 800 908 1011
8 797 695 805 904 903 804 911 1012
8 799 697 806 905 907 808 912 1013
8 920 815 912 1013 814 706 806 905
8 802 700 810 909 906 807 913 1014
8 801 699 808 907 908 809 914 1015
8 805 703 809 908 911 812 915 1016
8 803 701 811 910 909 810 916 1017
8 911 812 917 1018 804 702 811 910
8 925 821 920 1030 818 710 814 919
8 928 823 921 1031 821 712 815 920
8 922 819 717 831 1033 926 829 941
8 923 820 709 816 1034 927 819 922
8 1035 929 822 924 923 820 711 817
8 925 821 710 818 1036 930 822 924
8 1038 933 825 929 927 826 714 820
8 926 827 716 829 1039 935 828 939
8 927 826 715 819 1040 934 827 926
8 928 823 712 821 1041 931 824 930
8 1042 932 824 930 929 825 713 822
8 829 716 830 942 939 828 940 1058
8 831 717 832 944 941 829 942 1060
8 942 830 718 832 1061 943 833 945
8 944 832 720 834 1062 945 835 946
8 981 889 947 1064 870 781 837 948
8 948 837 949 1067 869 780 838 950
8 975 869 950 1069 865 767 839 952
8 950 838 951 1070 839 725 840 953
8 952 839 953 1071 841 726 842 954
8 955 850 802 899 1072 959 906 1008
8 956 849 739 845 1072 959 850 955
8 846 738 849 956 957 848 958 1073
8 957 848 958 1073 854 759 868 965
8 849 742 852 959 958 851 961 1076
8 960 853 961 1076 906 807 852 959
8 958 851 961 1076 868 773 883 980
8 960 853 807 906 1077 963 913 1014
8 855 760 868 965 966 871 980 1085
8 856 761 871 966 967 872 984 1086
8 971 876 765 860 1087 985 872 967
8 968 873 763 858 1088 986 874 969
8 862 769 873 968 972 879 986 1088
8 859 764 875 970 969 874 987 1089
8 861 766 876 971 970 875 988 1090
8 973 880 770 863 1091 991 879 972
8 973 880 992 1092 863 770 881 974
8 974 881 993 1093 864 771 882 976
8 979 870 948 1066 1094 982 869 975
8 1094 982 869 975 977 877 767 865
8 978 878 772 867 1095 990 882 976
8 978 878 989 1096 866 768 877 977
8 871 774 883 980 984 884 994 1099
8 983 891 999 1100 870 781 889 981
8 1101 1000 890 982 989 892 782 877
8 983 891 781 870 1101 1000 890 982
8 872 775 884 984 985 885 995 1103
8 876 776 885 985 988 886 996 1104
8 986 887 779 874 1105 998 888 987
8 879 786 887 986 991 896 998 1105
8 875 778 886 988 987 888 997 1106
8 990 893 1002 1107 878 783 892 989
8 1108 1003 893 990 993 894 784 882
8 880 787 896 991 992 895 1005 1109
8 993 894 785 881 1110 1004 895 992
8 898 799 905 1006 1007 907 1013 1120
8 1030 920 1013 1120 919 814 905 1006
8 901 801 907 1007 1011 908 1015 1121
8 899 802 909 1009 1008 906 1014 1122
8 900 803 910 1010 1009 909 1017 1123
8 1012 911 1018 1124 903 804 910 1010
8 904 805 908 1011 1012 911 1016 1125
8 1013 912 1020 1127 907 808 914 1015
8 1031 921 1020 1127 920 815 912 1013
8 1019 918 962 1075 1128 1021 913 1014
8 1128 1021 913 1014 1017 916 810 909
8 1015 914 1022 1129 908 809 915 1016
8 1016 915 1023 1130 911 812 917 1018
8 1018 917 1024 1131 910 811 916 1017
8 1037 928 1031 1148 925 821 920 1030
8 928 823 931 1041 1031 921 1032 1149
8 1033 926 829 941 1151 1039 939 1057
8 1034 927 819 922 1152 1040 926 1033
8 1153 1038 929 1035 1034 927 820 923
8 1154 1042 930 1036 1035 929 822 924
8 1037 928 821 925 1155 1041 930 1036
8 1039 935 828 939 1156 1047 938 1055
8 1157 1043 932 1042 1038 933 825 929
8 1038 933 826 927 1158 1045 934 1040
8 1040 934 827 926 1159 1046 935 1039
8 930 824 932 1042 1041 931 1044 1160
8 1051 936 1048 1165 1175 1052 937 1053
8 1156 1047 938 1055 1053 937 1054 1178
8 939 828 940 1058 1055 938 1056 1181
8 941 829 942 1060 1057 939 1058 1183
8 942 830 943 1061 1058 940 1059 1184
8 1060 942 832 944 1185 1061 945 1062
8 1082 964 1063 1188 981 889 947 1064
8 1097 981 1064 1190 979 870 948 1066
8 1064 947 1065 1191 948 837 949 1067
8 1066 948 1067 1193 975 869 950 1069
8 1067 949 1068 1194 950 838 951 1070
8 1069 950 1070 1195 952 839 953 1071
8 956 849 959 1072 1073 958 1076 1197
8 1074 960 1076 1197 1008 906 959 1072
8 1073 958 1076 1197 965 868 980 1085
8 1074 960 906 1008 1198 1077 1014 1122
8 1133 1026 1079 1199 1019 918 962 1075
8 1077 963 913 1014 1200 1080 962 1075
8 960 853 963 1077 1076 961 1078 1201
8 980 883 961 1076 1099 994 1078 1201
8 1210 1083 964 1082 1100 999 889 981
8 966 871 980 1085 1086 984 1099 1215
8 967 872 984 1086 1087 985 1103 1216
8 971 876 985 1087 1090 988 1104 1217
8 1088 986 874 969 1218 1105 987 1089
8 972 879 986 1088 1091 991 1105 1218
8 970 875 988 1090 1089 987 1106 1219
8 973 880 991 1091 1092 992 1109 1220
8 1093 993 881 974 1221 1110 992 1092
8 1222 1108 990 1095 1093 993 882 976
8 1223 1101 982 1094 1096 989 877 977
8 1098 983 870 979 1223 1101 982 1094
8 1095 990 1107 1224 978 878 989 1096
8 1098 983 1100 1225 979 870 981 1097
8 984 884 994 1099 1103 995 1111 1227
8 1102 1001 1115 1228 983 891 999 1100
8 1101 1000 892 989 1229 1116 1002 1107
8 1102 1001 891 983 1229 1116 1000 1101
8 985 885 995 1103 1104 996 1112 1230
8 988 886 996 1104 1106 997 1113 1231
8 1105 998 888 987 1232 1114 997 1106
8 991 896 998 1105 1109 1005 1114 1232
8 1108 1003 1117 1233 990 893 1002 1107
8 1108 1003 894 993 1233 1117 1004 1110
8 992 895 1005 1109 1110 1004 1118 1234
8 1120 1013 1127 1244 1007 907 1015 1121
8 1148 1031 1127 1244 1030 920 1013 1120
8 1121 1015 1129 1245 1011 908 1016 1125
8 1126 1019 1075 1196 1246 1128 1014 1122
8 1246 1128 1014 1122 1123 1017 909 1009
8 1124 1018 1131 1247 1010 910 1017 1123
8 1125 1016 1130 1248 1012 911 1018 1124
8 1127 1020 1137 1254 1015 914 1022 1129
8 1031 921 1032 1149 1127 1020 1137 1254
8 1134 1027 918 1019 1257 1140 1021 1128
8 1257 1140 1021 1128 1131 1024 916 1017
8 1129 1022 1141 1258 1016 915 1023 1130
8 1130 1023 1142 1259 1018 917 1024 1131
8 1261 1144 1025 1132 1133 1026 1079 1199
8 1255 1138 1025 1132 1135 1028 1144 1261
8 1133 1026 918 1019 1262 1145 1027 1134
8 1136 1029 1139 1256 1263 1146 1028 1135
8 1037 928 1041 1155 1148 1031 1149 1275
8 1041 931 1044 1160 1149 1032 1150 1276
8 1151 1039 939 1057 1278 1156 1055 1180
8 1152 1040 926 1033 1279 1159 1039 1151
8 1153 1038 927 1034 1280 1158 1040 1152
8 1281 1157 1042 1154 1153 1038 929 1035
8 1036 930 1042 1154 1155 1041 1160 1282
8 1283 1164 1046 1159 1156 1047 935 1039
8 1165 1048 1164 1283 1053 937 1047 1156
8 1157 1043 933 1038 1284 1161 1045 1158
8 1157 1043 1161 1284 1042 932 1044 1160
8 1040 934 1046 1159 1158 1045 1163 1285
8 1166 1049 1167 1292 1051 936 1048 1165
8 1166 1049 936 1051 1293 1168 1050 1172
8 1051 936 1052 1175 1172 1050 1173 1306
8 1174 1051 1165 1290 1308 1175 1053 1177
8 1053 937 1054 1178 1175 1052 1176 1309
8 1278 1156 1055 1180 1177 1053 1178 1311
8 1055 938 1056 1181 1178 1054 1179 1312
8 1057 939 1058 1183 1180 1055 1181 1314
8 1058 940 1059 1184 1181 1056 1182 1315
8 1060 942 1061 1185 1183 1058 1184 1316
8 1208 1081 1187 1321 1082 964 1063 1188
8 1209 1082 1188 1322 1097 981 1064 1190
8 1188 1063 1189 1323 1064 947 1065 1191
8 1190 1064 1191 1325 1066 948 1067 1193
8 1191 1065 1192 1326 1067 949 1068 1194
8 1067 1193 1069 950 1194 1327 1195 1070
8 1250 1133 1199 1330 1126 1019 1075 1196
8 1198 1077 1014 1122 1331 1200 1075 1196
8 1074 960 1077 1198 1197 1076 1201 1332
8 1085 980 1076 1197 1215 1099 1201 1332
8 1199 1079 1203 1333 1075 962 1080 1200
8 1132 1025 1119 1243 1199 1079 1203 1333
8 1201 1078 963 1077 1334 1202 1080 1200
8 1099 994 1078 1201 1227 1111 1202 1334
8 1343 1207 1081 1208 1210 1083 964 1082
8 1214 1084 1186 1319 1343 1207 1081 1208
8 1345 1210 1082 1209 1225 1100 981 1097
8 1346 1211 1083 1210 1228 1115 999 1100
8 1086 984 1099 1215 1216 1103 1227 1352
8 1087 985 1103 1216 1217 1104 1230 1353
8 1090 988 1104 1217 1219 1106 1231 1354
8 1218 1105 987 1089 1355 1232 1106 1219
8 1091 991 1105 1218 1220 1109 1232 1355
8 1092 992 1109 1220 1221 1110 1234 1356
8 1222 1108 1233 1357 1095 990 1107 1224
8 1222 1108 993 1093 1357 1233 1110 1221
8 1223 1101 989 1096 1358 1229 1107 1224
8 1226 1102 983 1098 1358 1229 1101 1223
8 1226 1102 1228 1359 1098 983 1100 1225
8 1103 995 1111 1227 1230 1112 1235 1360
8 1107 1002 1117 1233 1229 1116 1240 1362
8 1102 1001 1116 1229 1228 1115 1240 1362
8 1104 996 1112 1230 1231 1113 1236 1363
8 1364 1237 1114 1232 1231 1113 997 1106
8 1109 1005 1114 1232 1234 1118 1238 1365
8 1110 1004 1118 1234 1233 1117 1241 1366
8 1242 1374 1255 1138 1119 1243 1132 1025
8 1244 1127 1254 1376 1121 1015 1129 1245
8 1148 1031 1149 1275 1244 1127 1254 1376
8 1245 1129 1258 1377 1125 1016 1130 1248
8 1251 1134 1019 1126 1378 1257 1128 1246
8 1378 1257 1128 1246 1247 1131 1017 1123
8 1248 1130 1259 1379 1124 1018 1131 1247
8 1261 1381 1250 1133 1132 1249 1330 1199
8 1255 1380 1252 1135 1132 1249 1381 1261
8 1250 1133 1019 1126 1382 1262 1134 1251
8 1253 1136 1256 1385 1384 1263 1135 1252
8 1254 1137 1265 1387 1129 1022 1141 1258
8 1149 1032 1150 1276 1254 1137 1265 1387
8 1028 1135 1255 1138 1139 1256 1388 1266
8 1136 1029 1147 1264 1256 1139 1267 1389
8 1390 1268 1140 1257 1259 1142 1024 1131
8 1260 1143 1027 1134 1390 1268 1140 1257
8 1258 1141 1269 1391 1130 1023 1142 1259
8 1262 1145 1027 1134 1393 1271 1143 1260
8 1261 1144 1026 1133 1394 1272 1145 1262
8 1135 1028 1144 1261 1263 1146 1272 1394
8 1136 1029 1146 1263 1264 1147 1273 1395
8 1155 1041 1160 1282 1275 1149 1276 1405
8 1276 1150 1044 1160 1406 1277 1162 1286
8 1408 1283 1159 1279 1278 1156 1039 1151
8 1290 1165 1283 1408 1177 1053 1156 1278
8 1152 1040 1159 1279 1280 1158 1285 1409
8 1281 1157 1038 1153 1410 1284 1158 1280
8 1281 1157 1284 1410 1154 1042 1160 1282
8 1159 1046 1164 1283 1285 1163 1289 1412
8 1292 1167 1289 1412 1165 1048 1164 1283
8 1158 1045 1163 1285 1284 1161 1288 1413
8 1284 1161 1288 1413 1160 1044 1162 1286
8 1291 1166 1292 1418 1174 1051 1165 1290
8 1291 1166 1051 1174 1419 1293 1172 1305
8 1294 1169 1296 1421 1166 1049 1167 1292
8 1293 1168 1050 1172 1422 1295 1171 1303
8 1294 1169 1049 1166 1423 1297 1168 1293
8 1422 1295 1171 1303 1301 1170 1302 1435
8 1172 1050 1173 1306 1303 1171 1304 1438
8 1174 1051 1175 1308 1305 1172 1306 1440
8 1175 1052 1176 1309 1306 1173 1307 1441
8 1177 1053 1178 1311 1308 1175 1309 1443
8 1178 1054 1179 1312 1309 1176 1310 1444
8 1180 1055 1181 1314 1311 1178 1312 1446
8 1056 1181 1312 1179 1182 1315 1447 1313
8 1183 1058 1184 1316 1314 1181 1315 1448
8 1319 1186 1084 1214 1451 1317 1213 1350
8 1319 1186 1318 1453 1208 1081 1187 1321
8 1321 1187 1320 1456 1188 1063 1189 1323
8 1344 1208 1321 1457 1209 1082 1188 1322
8 1322 1188 1323 1458 1190 1064 1191 1325
8 1323 1189 1324 1459 1191 1065 1192 1326
8 1191 1325 1193 1067 1326 1460 1327 1194
8 1242 1374 1243 1119 1328 1462 1335 1204
8 1330 1199 1333 1465 1196 1075 1200 1331
8 1132 1249 1330 1199 1243 1375 1465 1333
8 1332 1201 1077 1198 1466 1334 1200 1331
8 1215 1099 1201 1332 1352 1227 1334 1466
8 1119 1243 1333 1203 1204 1335 1470 1338
8 1333 1203 1338 1470 1200 1080 1202 1334
8 1227 1111 1202 1334 1360 1235 1338 1470
8 1328 1462 1335 1204 1205 1336 1471 1339
8 1337 1206 1340 1472 1464 1329 1205 1336
8 1346 1211 1342 1479 1210 1083 1207 1343
8 1346 1211 1115 1228 1479 1342 1239 1361
8 1348 1212 1084 1214 1479 1342 1207 1343
8 1480 1343 1208 1344 1345 1210 1082 1209
8 1351 1214 1319 1454 1480 1343 1208 1344
8 1481 1346 1210 1345 1359 1228 1100 1225
8 1348 1212 1347 1483 1214 1084 1213 1350
8 1216 1103 1227 1352 1353 1230 1360 1488
8 1217 1104 1230 1353 1354 1231 1363 1489
8 1490 1364 1232 1355 1354 1231 1106 1219
8 1220 1109 1232 1355 1356 1234 1365 1491
8 1221 1110 1234 1356 1357 1233 1366 1492
8 1224 1107 1233 1357 1358 1229 1362 1493
8 1226 1102 1229 1358 1359 1228 1362 1493
8 1230 1112 1235 1360 1363 1236 1367 1496
8 1361 1239 1115 1228 1497 1371 1240 1362
8 1366 1241 1372 1498 1233 1117 1240 1362
8 1364 1237 1113 1231 1499 1368 1236 1363
8 1364 1237 1368 1499 1232 1114 1238 1365
8 1234 1118 1238 1365 1366 1241 1369 1500
8 1507 1373 1242 1374 1388 1266 1138 1255
8 1508 1374 1243 1375 1380 1255 1132 1249
8 1376 1254 1387 1509 1245 1129 1258 1377
8 1275 1149 1276 1405 1376 1254 1387 1509
8 1377 1258 1391 1510 1248 1130 1259 1379
8 1511 1390 1257 1378 1379 1259 1131 1247
8 1383 1260 1134 1251 1511 1390 1257 1378
8 1252 1135 1256 1385 1380 1255 1388 1512
8 1261 1381 1513 1394 1133 1250 1382 1262
8 1135 1252 1384 1263 1261 1381 1513 1394
8 1382 1262 1134 1251 1514 1393 1260 1383
8 1253 1136 1263 1384 1386 1264 1395 1516
8 1253 1136 1264 1386 1385 1256 1389 1517
8 1387 1265 1397 1519 1258 1141 1269 1391
8 1276 1150 1277 1406 1387 1265 1397 1519
8 1256 1139 1267 1389 1388 1266 1398 1520
8 1264 1147 1274 1396 1389 1267 1399 1521
8 1392 1270 1143 1260 1522 1400 1268 1390
8 1390 1268 1142 1259 1522 1400 1269 1391
8 1392 1270 1401 1523 1260 1143 1271 1393
8 1272 1394 1524 1402 1145 1262 1393 1271
8 1395 1273 1146 1263 1524 1402 1272 1394
8 1273 1395 1264 1147 1403 1526 1396 1274
8 1405 1276 1160 1282 1534 1406 1286 1411
8 1414 1287 1407 1535 1286 1162 1277 1406
8 1279 1159 1283 1408 1409 1285 1412 1537
8 1418 1292 1412 1537 1290 1165 1283 1408
8 1280 1158 1285 1409 1410 1284 1413 1538
8 1410 1284 1413 1538 1282 1160 1286 1411
8 1285 1163 1289 1412 1413 1288 1417 1540
8 1421 1296 1417 1540 1292 1167 1289 1412
8 1414 1287 1162 1286 1541 1416 1288 1413
8 1420 1294 1421 1545 1291 1166 1292 1418
8 1419 1293 1172 1305 1546 1422 1303 1437
8 1420 1294 1166 1291 1547 1423 1293 1419
8 1294 1169 1297 1423 1421 1296 1425 1548
8 1423 1297 1168 1293 1549 1424 1295 1422
8 1301 1170 1298 1427 1422 1295 1424 1549
8 1432 1300 1428 1554 1301 1170 1298 1427
8 1431 1299 1428 1554 1560 1430 1300 1432
8 1563 1433 1300 1432 1435 1302 1170 1301
8 1546 1422 1303 1437 1434 1301 1435 1565
8 1303 1171 1304 1438 1435 1302 1436 1566
8 1305 1172 1306 1440 1437 1303 1438 1568
8 1306 1173 1307 1441 1438 1304 1439 1569
8 1308 1175 1309 1443 1440 1306 1441 1571
8 1309 1176 1310 1444 1441 1307 1442 1572
8 1311 1178 1312 1446 1443 1309 1444 1574
8 1179 1312 1444 1310 1313 1447 1575 1445
8 1314 1181 1315 1448 1446 1312 1447 1576
8 1350 1213 1349 1486 1451 1317 1449 1579
8 1451 1317 1450 1581 1319 1186 1318 1453
8 1454 1319 1214 1351 1582 1451 1350 1487
8 1453 1318 1452 1584 1321 1187 1320 1456
8 1454 1319 1453 1585 1344 1208 1321 1457
8 1456 1320 1455 1586 1323 1189 1324 1459
8 1457 1321 1456 1587 1322 1188 1323 1458
8 1458 1323 1459 1588 1325 1191 1326 1460
8 1205 1336 1464 1329 1328 1462 1590 1461
8 1507 1373 1461 1590 1374 1242 1328 1462
8 1508 1374 1462 1591 1375 1243 1335 1467
8 1337 1206 1329 1464 1473 1341 1463 1594
8 1375 1243 1335 1467 1465 1333 1470 1596
8 1465 1333 1470 1596 1331 1200 1334 1466
8 1352 1227 1334 1466 1488 1360 1470 1596
8 1591 1462 1336 1468 1467 1335 1471 1597
8 1469 1337 1472 1598 1595 1464 1336 1468
8 1471 1339 1474 1600 1335 1204 1338 1470
8 1600 1474 1367 1496 1470 1338 1235 1360
8 1336 1205 1340 1472 1471 1339 1475 1601
8 1337 1206 1341 1473 1472 1340 1476 1602
8 1495 1370 1478 1609 1361 1239 1342 1479
8 1348 1212 1342 1479 1483 1347 1478 1609
8 1481 1346 1479 1610 1345 1210 1343 1480
8 1481 1346 1228 1359 1610 1479 1361 1494
8 1484 1348 1214 1351 1610 1479 1343 1480
8 1483 1347 1482 1612 1350 1213 1349 1486
8 1484 1348 1483 1613 1351 1214 1350 1487
8 1353 1230 1360 1488 1489 1363 1496 1616
8 1490 1364 1231 1354 1617 1499 1363 1489
8 1490 1364 1499 1617 1355 1232 1365 1491
8 1356 1234 1365 1491 1492 1366 1500 1619
8 1492 1366 1498 1620 1357 1233 1362 1493
8 1494 1361 1228 1359 1621 1497 1362 1493
8 1495 1370 1239 1361 1622 1504 1371 1497
8 1363 1236 1367 1496 1499 1368 1501 1623
8 1497 1371 1240 1362 1624 1505 1372 1498
8 1625 1503 1372 1498 1500 1369 1241 1366
8 1365 1238 1368 1499 1500 1369 1502 1626
8 1520 1398 1506 1633 1388 1266 1373 1507
8 1634 1507 1374 1508 1512 1388 1255 1380
8 1509 1387 1519 1635 1377 1258 1391 1510
8 1405 1276 1406 1534 1509 1387 1519 1635
8 1515 1392 1260 1383 1636 1522 1390 1511
8 1511 1390 1259 1379 1636 1522 1391 1510
8 1385 1256 1389 1517 1512 1388 1520 1637
8 1513 1394 1262 1382 1638 1524 1393 1514
8 1395 1516 1638 1524 1263 1384 1513 1394
8 1515 1392 1523 1639 1383 1260 1393 1514
8 1516 1395 1526 1640 1386 1264 1396 1518
8 1386 1264 1396 1518 1517 1389 1521 1641
8 1519 1397 1527 1643 1391 1269 1400 1522
8 1535 1407 1527 1643 1406 1277 1397 1519
8 1389 1267 1399 1521 1520 1398 1528 1644
8 1645 1529 1399 1521 1525 1404 1274 1396
8 1392 1270 1400 1522 1523 1401 1531 1646
8 1524 1402 1271 1393 1648 1532 1401 1523
8 1403 1526 1648 1532 1273 1395 1524 1402
8 1525 1404 1274 1396 1649 1533 1403 1526
8 1539 1414 1535 1657 1411 1286 1406 1534
8 1542 1415 1536 1658 1414 1287 1407 1535
8 1409 1285 1412 1537 1538 1413 1540 1660
8 1545 1421 1540 1660 1418 1292 1412 1537
8 1539 1414 1286 1411 1661 1541 1413 1538
8 1540 1417 1544 1663 1413 1288 1416 1541
8 1421 1296 1425 1548 1540 1417 1544 1663
8 1542 1415 1287 1414 1664 1543 1416 1541
8 1420 1294 1423 1547 1545 1421 1548 1666
8 1547 1423 1293 1419 1667 1549 1422 1546
8 1434 1301 1427 1553 1546 1422 1549 1667
8 1423 1297 1424 1549 1548 1425 1550 1668
8 1551 1426 1550 1668 1427 1298 1424 1549
8 1551 1426 1298 1427 1671 1552 1428 1554
8 1562 1432 1554 1674 1434 1301 1427 1553
8 1431 1299 1429 1558 1554 1428 1555 1675
8 1431 1299 1430 1560 1558 1429 1557 1680
8 1560 1430 1300 1432 1683 1559 1433 1563
8 1561 1431 1554 1674 1684 1560 1432 1562
8 1685 1563 1432 1562 1565 1435 1301 1434
8 1435 1302 1436 1566 1563 1433 1564 1686
8 1437 1303 1438 1568 1565 1435 1566 1688
8 1438 1304 1439 1569 1566 1436 1567 1689
8 1440 1306 1441 1571 1568 1438 1569 1691
8 1441 1307 1442 1572 1569 1439 1570 1692
8 1443 1309 1444 1574 1571 1441 1572 1694
8 1310 1444 1572 1442 1445 1575 1695 1573
8 1446 1312 1447 1576 1574 1444 1575 1696
8 1486 1349 1485 1614 1579 1449 1577 1699
8 1451 1317 1449 1579 1581 1450 1578 1701
8 1487 1350 1486 1615 1582 1451 1579 1702
8 1581 1450 1580 1704 1453 1318 1452 1584
8 1582 1451 1581 1705 1454 1319 1453 1585
8 1584 1452 1583 1706 1456 1320 1455 1586
8 1585 1453 1584 1707 1457 1321 1456 1587
8 1587 1456 1586 1708 1458 1323 1459 1588
8 1633 1506 1589 1710 1507 1373 1461 1590
8 1464 1329 1461 1590 1594 1463 1589 1710
8 1468 1336 1462 1591 1595 1464 1590 1711
8 1634 1507 1590 1711 1508 1374 1462 1591
8 1473 1341 1463 1594 1603 1477 1593 1716
8 1469 1337 1464 1595 1599 1473 1594 1717
8 1471 1597 1467 1335 1600 1718 1596 1470
8 1718 1600 1496 1616 1596 1470 1360 1488
8 1336 1468 1597 1471 1472 1598 1719 1601
8 1469 1337 1473 1599 1598 1472 1602 1720
8 1722 1604 1501 1623 1600 1474 1367 1496
8 1475 1601 1471 1339 1604 1722 1600 1474
8 1602 1476 1605 1723 1472 1340 1475 1601
8 1476 1602 1724 1606 1341 1473 1603 1477
8 1483 1347 1478 1609 1612 1482 1608 1731
8 1495 1370 1504 1622 1609 1478 1608 1731
8 1618 1495 1609 1732 1494 1361 1479 1610
8 1484 1348 1479 1610 1613 1483 1609 1732
8 1486 1349 1482 1612 1614 1485 1611 1733
8 1613 1483 1612 1734 1487 1350 1486 1615
8 1489 1363 1496 1616 1617 1499 1623 1736
8 1491 1365 1499 1617 1619 1500 1626 1737
8 1618 1495 1361 1494 1738 1622 1497 1621
8 1739 1625 1498 1620 1619 1500 1366 1492
8 1621 1497 1362 1493 1740 1624 1498 1620
8 1742 1631 1504 1622 1624 1505 1371 1497
8 1743 1628 1502 1626 1623 1501 1368 1499
8 1744 1630 1505 1624 1625 1503 1372 1498
8 1745 1629 1503 1625 1626 1502 1369 1500
8 1520 1398 1528 1644 1633 1506 1632 1751
8 1637 1520 1633 1752 1512 1388 1507 1634
8 1635 1519 1643 1753 1510 1391 1522 1636
8 1657 1535 1643 1753 1534 1406 1519 1635
8 1515 1392 1522 1636 1639 1523 1646 1754
8 1517 1389 1521 1641 1637 1520 1644 1755
8 1524 1638 1756 1648 1393 1514 1639 1523
8 1640 1526 1395 1516 1756 1648 1524 1638
8 1642 1525 1396 1518 1757 1649 1526 1640
8 1758 1645 1521 1641 1642 1525 1396 1518
8 1646 1531 1400 1522 1760 1650 1527 1643
8 1535 1407 1536 1658 1643 1527 1650 1760
8 1521 1399 1529 1645 1644 1528 1651 1761
8 1647 1530 1652 1762 1525 1404 1529 1645
8 1401 1523 1648 1532 1531 1646 1763 1655
8 1525 1404 1533 1649 1647 1530 1654 1765
8 1533 1649 1766 1656 1403 1526 1648 1532
8 1662 1542 1658 1774 1539 1414 1535 1657
8 1542 1415 1543 1664 1658 1536 1659 1775
8 1660 1540 1663 1777 1538 1413 1541 1661
8 1545 1421 1548 1666 1660 1540 1663 1777
8 1662 1542 1414 1539 1778 1664 1541 1661
8 1664 1543 1416 1541 1779 1665 1544 1663
8 1548 1425 1550 1668 1663 1544 1665 1779
8 1547 1423 1549 1667 1666 1548 1668 1781
8 1670 1551 1668 1781 1553 1427 1549 1667
8 1551 1426 1552 1671 1668 1550 1669 1782
8 1670 1551 1427 1553 1784 1671 1554 1674
8 1675 1555 1672 1785 1554 1428 1552 1671
8 1678 1556 1673 1789 1558 1429 1555 1675
8 1561 1431 1558 1681 1674 1554 1675 1790
8 1794 1677 1556 1678 1680 1557 1429 1558
8 1560 1430 1559 1683 1680 1557 1679 1797
8 1561 1431 1560 1684 1681 1558 1680 1798
8 1563 1433 1564 1686 1683 1559 1682 1800
8 1684 1560 1432 1562 1801 1683 1563 1685
8 1565 1435 1566 1688 1685 1563 1686 1802
8 1566 1436 1567 1689 1686 1564 1687 1803
8 1568 1438 1569 1691 1688 1566 1689 1805
8 1569 1439 1570 1692 1689 1567 1690 1806
8 1571 1441 1572 1694 1691 1569 1692 1808
8 1442 1572 1692 1570 1573 1695 1809 1693
8 1574 1444 1575 1696 1694 1572 1695 1810
8 1614 1485 1592 1712 1699 1577 1697 1813
8 1579 1449 1577 1699 1701 1578 1698 1815
8 1615 1486 1614 1735 1702 1579 1699 1816
8 1701 1578 1700 1818 1581 1450 1580 1704
8 1582 1451 1579 1702 1705 1581 1701 1819
8 1704 1580 1703 1820 1584 1452 1583 1706
8 1705 1581 1704 1821 1585 1453 1584 1707
8 1707 1584 1706 1822 1587 1456 1586 1708
8 1710 1589 1506 1633 1824 1709 1632 1751
8 1594 1463 1589 1710 1716 1593 1709 1824
8 1752 1633 1710 1825 1634 1507 1590 1711
8 1595 1464 1590 1711 1717 1594 1710 1825
8 1830 1714 1592 1712 1733 1611 1485 1614
8 1603 1477 1593 1716 1725 1607 1715 1834
8 1599 1473 1594 1717 1721 1603 1716 1835
8 1837 1722 1623 1736 1718 1600 1496 1616
8 1719 1601 1722 1837 1597 1471 1600 1718
8 1602 1720 1598 1472 1723 1838 1719 1601
8 1720 1602 1473 1599 1839 1724 1603 1721
8 1723 1605 1726 1840 1601 1475 1604 1722
8 1840 1726 1628 1743 1722 1604 1501 1623
8 1724 1606 1727 1841 1602 1476 1605 1723
8 1725 1607 1728 1842 1603 1477 1606 1724
8 1612 1482 1608 1731 1733 1611 1730 1849
8 1741 1627 1730 1849 1622 1504 1608 1731
8 1613 1483 1609 1732 1734 1612 1731 1850
8 1618 1495 1622 1738 1732 1609 1731 1850
8 1615 1486 1612 1734 1735 1614 1733 1851
8 1852 1743 1626 1737 1736 1623 1499 1617
8 1853 1745 1625 1739 1737 1626 1500 1619
8 1855 1742 1622 1738 1740 1624 1497 1621
8 1856 1744 1624 1740 1739 1625 1498 1620
8 1741 1627 1504 1622 1857 1746 1631 1742
8 1742 1631 1505 1624 1858 1749 1630 1744
8 1859 1747 1629 1745 1743 1628 1502 1626
8 1860 1748 1630 1744 1745 1629 1503 1625
8 1644 1528 1651 1761 1751 1632 1750 1865
8 1637 1520 1644 1755 1752 1633 1751 1866
8 1754 1646 1522 1636 1867 1760 1643 1753
8 1657 1535 1658 1774 1753 1643 1760 1867
8 1639 1523 1646 1754 1756 1648 1763 1868
8 1641 1521 1645 1758 1755 1644 1761 1869
8 1757 1649 1526 1640 1870 1766 1648 1756
8 1642 1525 1649 1757 1759 1647 1765 1871
8 1759 1647 1762 1872 1642 1525 1645 1758
8 1760 1650 1767 1874 1646 1531 1655 1763
8 1658 1536 1659 1775 1760 1650 1767 1874
8 1762 1652 1768 1875 1645 1529 1651 1761
8 1764 1653 1769 1876 1647 1530 1652 1762
8 1656 1766 1877 1773 1532 1648 1763 1655
8 1771 1879 1765 1654 1653 1764 1647 1530
8 1533 1649 1765 1654 1656 1766 1880 1772
8 1662 1542 1664 1778 1774 1658 1775 1887
8 1664 1543 1665 1779 1775 1659 1776 1888
8 1778 1664 1541 1661 1890 1779 1663 1777
8 1666 1548 1668 1781 1777 1663 1779 1890
8 1782 1669 1780 1891 1668 1550 1665 1779
8 1670 1551 1671 1784 1781 1668 1782 1893
8 1671 1552 1672 1785 1782 1669 1783 1894
8 1790 1675 1785 1896 1674 1554 1671 1784
8 1675 1555 1673 1789 1785 1672 1786 1897
8 1792 1676 1788 1903 1678 1556 1673 1789
8 1795 1678 1789 1904 1681 1558 1675 1790
8 1792 1676 1556 1678 1906 1791 1677 1794
8 1680 1557 1679 1797 1794 1677 1793 1909
8 1910 1794 1678 1795 1798 1680 1558 1681
8 1683 1559 1682 1800 1797 1679 1796 1912
8 1684 1560 1683 1801 1798 1680 1797 1913
8 1686 1564 1687 1803 1800 1682 1799 1915
8 1685 1563 1686 1802 1801 1683 1800 1916
8 1688 1566 1689 1805 1802 1686 1803 1917
8 1689 1567 1690 1806 1803 1687 1804 1918
8 1691 1569 1692 1808 1805 1689 1806 1920
8 1692 1570 1693 1809 1806 1690 1807 1921
8 1694 1572 1695 1810 1808 1692 1809 1922
8 1829 1713 1811 1926 1712 1592 1697 1813
8 1813 1697 1812 1928 1699 1577 1698 1815
8 1735 1614 1712 1828 1816 1699 1813 1929
8 1815 1698 1814 1931 1701 1578 1700 1818
8 1702 1579 1699 1816 1819 1701 1815 1932
8 1818 1700 1817 1933 1704 1580 1703 1820
8 1819 1701 1818 1934 1705 1581 1704 1821
8 1821 1704 1820 1935 1707 1584 1706 1822
8 1824 1709 1632 1751 1937 1823 1750 1865
8 1716 1593 1709 1824 1834 1715 1823 1937
8 1825 1710 1633 1752 1938 1824 1751 1866
8 1717 1594 1710 1825 1835 1716 1824 1938
8 1945 1830 1712 1828 1851 1733 1614 1735
8 1830 1714 1831 1946 1712 1592 1713 1829
8 1947 1832 1714 1830 1849 1730 1611 1733
8 1843 1729 1607 1725 1950 1833 1715 1834
8 1721 1603 1716 1835 1836 1725 1834 1951
8 1836 1725 1842 1953 1721 1603 1724 1839
8 1723 1838 1719 1601 1840 1954 1837 1722
8 1954 1840 1743 1852 1837 1722 1623 1736
8 1724 1839 1720 1602 1841 1955 1838 1723
8 1841 1727 1844 1956 1723 1605 1726 1840
8 1956 1844 1747 1859 1840 1726 1628 1743
8 1728 1842 1724 1606 1845 1957 1841 1727
8 1725 1607 1729 1843 1842 1728 1846 1958
8 1741 1627 1746 1857 1849 1730 1848 1965
8 1734 1612 1731 1850 1851 1733 1849 1966
8 1854 1741 1849 1966 1738 1622 1731 1850
8 1967 1859 1745 1853 1852 1743 1626 1737
8 1968 1860 1744 1856 1853 1745 1625 1739
8 1854 1741 1622 1738 1969 1857 1742 1855
8 1855 1742 1624 1740 1970 1858 1744 1856
8 1857 1746 1631 1742 1971 1861 1749 1858
8 1858 1749 1630 1744 1972 1863 1748 1860
8 1859 1747 1862 1973 1745 1629 1748 1860
8 1875 1768 1864 1977 1761 1651 1750 1865
8 1755 1644 1761 1869 1866 1751 1865 1978
8 1867 1760 1874 1979 1754 1646 1763 1868
8 1774 1658 1775 1887 1867 1760 1874 1979
8 1870 1766 1648 1756 1980 1877 1763 1868
8 1872 1762 1875 1981 1758 1645 1761 1869
8 1757 1649 1766 1870 1871 1765 1880 1982
8 1983 1879 1764 1873 1871 1765 1647 1759
8 1873 1764 1876 1984 1759 1647 1762 1872
8 1877 1773 1655 1763 1986 1881 1767 1874
8 1775 1659 1776 1888 1874 1767 1881 1986
8 1876 1769 1882 1987 1762 1652 1768 1875
8 1878 1770 1883 1988 1764 1653 1769 1876
8 1880 1772 1656 1766 1989 1886 1773 1877
8 1878 1770 1653 1764 1990 1884 1771 1879
8 1765 1654 1772 1880 1879 1771 1885 1991
8 1778 1664 1779 1890 1887 1775 1888 1997
8 1998 1889 1776 1888 1891 1780 1665 1779
8 1893 1782 1891 2000 1781 1668 1779 1890
8 1894 1783 1892 2001 1782 1669 1780 1891
8 1784 1671 1785 1896 1893 1782 1894 2003
8 1897 1786 1895 2004 1785 1672 1783 1894
8 1790 1675 1789 1904 1896 1785 1897 2006
8 1901 1787 1898 2007 1789 1673 1786 1897
8 1903 1788 1900 2013 1789 1673 1787 1901
8 1792 1676 1791 1906 1903 1788 1902 2016
8 1907 1792 1903 2017 1795 1678 1789 1904
8 1906 1791 1677 1794 2019 1905 1793 1909
8 1907 1792 1678 1795 2020 1906 1794 1910
8 1797 1679 1796 1912 1909 1793 1908 2022
8 1798 1680 1797 1913 1910 1794 1909 2023
8 1800 1682 1799 1915 1912 1796 1911 2025
8 1801 1683 1800 1916 1913 1797 1912 2026
8 1803 1687 1804 1918 1915 1799 1914 2028
8 1802 1686 1803 1917 1916 1800 1915 2029
8 1805 1689 1806 1920 1917 1803 1918 2030
8 1806 1690 1807 1921 1918 1804 1919 2031
8 1808 1692 1809 1922 1920 1806 1921 2032
8 1939 1826 1924 2037 1829 1713 1811 1926
8 1926 1811 1925 2039 1813 1697 1812 1928
8 1944 1829 1926 2040 1828 1712 1813 1929
8 1928 1812 1927 2042 1815 1698 1814 1931
8 1929 1813 1928 2043 1816 1699 1815 1932
8 1931 1814 1930 2044 1818 1700 1817 1933
8 1932 1815 1931 2045 1819 1701 1818 1934
8 1934 1818 1933 2046 1821 1704 1820 1935
8 2048 1936 1823 1937 1977 1864 1750 1865
8 1950 1833 1715 1834 2048 1936 1823 1937
8 1938 1824 1751 1866 2049 1937 1865 1978
8 1835 1716 1824 1938 1951 1834 1937 2049
8 1939 1826 1713 1829 2053 1942 1831 1946
8 1940 1827 1923 2035 2053 1942 1826 1939
8 1945 1830 1946 2058 1828 1712 1829 1944
8 2059 1947 1830 1945 1966 1849 1733 1851
8 1947 1832 1730 1849 2060 1948 1848 1965
8 1947 1832 1948 2060 1830 1714 1831 1946
8 1959 1847 1729 1843 2063 1949 1833 1950
8 1952 1843 1725 1836 2064 1950 1834 1951
8 1836 1725 1843 1952 1953 1842 1958 2066
8 1953 1842 1957 2067 1839 1724 1841 1955
8 1841 1955 1838 1723 1956 2068 1954 1840
8 2068 1956 1859 1967 1954 1840 1743 1852
8 1956 1844 1960 2069 1859 1747 1862 1973
8 1845 1957 1841 1727 1960 2069 1956 1844
8 1728 1842 1957 1845 1846 1958 2071 1961
8 1962 2072 1959 1847 1846 1958 1843 1729
8 1971 1861 1964 2077 1857 1746 1848 1965
8 1854 1741 1857 1969 1966 1849 1965 2078
8 1967 1859 1973 2079 1853 1745 1860 1968
8 1970 1858 1744 1856 2080 1972 1860 1968
8 1969 1857 1742 1855 2081 1971 1858 1970
8 1971 1861 1749 1858 2082 1974 1863 1972
8 1973 1862 1975 2083 1860 1748 1863 1972
8 1987 1882 1976 2086 1875 1768 1864 1977
8 1981 1875 1977 2087 1869 1761 1865 1978
8 1980 1877 1763 1868 2088 1986 1874 1979
8 1887 1775 1888 1997 1979 1874 1986 2088
8 1880 1982 2089 1989 1766 1870 1980 1877
8 1984 1876 1987 2090 1872 1762 1875 1981
8 1765 1871 1983 1879 1880 1982 2091 1991
8 1985 1878 1764 1873 2092 1990 1879 1983
8 1985 1878 1988 2093 1873 1764 1876 1984
8 2094 1992 1881 1986 1998 1889 1776 1888
8 1986 1881 1992 2094 1877 1773 1886 1989
8 1988 1883 1993 2095 1876 1769 1882 1987
8 1878 1770 1884 1990 1988 1883 1994 2096
8 1991 1885 1772 1880 2097 1996 1886 1989
8 1879 1771 1885 1991 1990 1884 1995 2098
8 2103 1998 1888 1997 2000 1891 1779 1890
8 2104 1999 1889 1998 2001 1892 1780 1891
8 2003 1894 2001 2106 1893 1782 1891 2000
8 2004 1895 2002 2107 1894 1783 1892 2001
8 2006 1897 2004 2109 1896 1785 1894 2003
8 2007 1898 2005 2110 1897 1786 1895 2004
8 2014 1901 2007 2112 1904 1789 1897 2006
8 2011 1899 2008 2113 1901 1787 1898 2007
8 2119 2010 1899 2011 2013 1900 1787 1901
8 2016 1902 2012 2122 1903 1788 1900 2013
8 2017 1903 2013 2123 1904 1789 1901 2014
8 1906 1791 1905 2019 2016 1902 2015 2125
8 1907 1792 1906 2020 2017 1903 2016 2126
8 1909 1793 1908 2022 2019 1905 2018 2128
8 2020 1906 1794 1910 2129 2019 1909 2023
8 1912 1796 1911 2025 2022 1908 2021 2131
8 1913 1797 1912 2026 2023 1909 2022 2132
8 1915 1799 1914 2028 2025 1911 2024 2134
8 1916 1800 1915 2029 2026 1912 2025 2135
8 1918 1804 1919 2031 2028 1914 2027 2136
8 1917 1803 1918 2030 2029 1915 2028 2137
8 1920 1806 1921 2032 2030 1918 2031 2138
8 1940 1827 1941 2054 2035 1923 2033 2140
8 2035 1923 2034 2143 1939 1826 1924 2037
8 2037 1924 2036 2146 1926 1811 1925 2039
8 2051 1939 2037 2147 1944 1829 1926 2040
8 2039 1925 2038 2149 1928 1812 1927 2042
8 2040 1926 2039 2150 1929 1813 1928 2043
8 2042 1927 2041 2151 1931 1814 1930 2044
8 2043 1928 2042 2152 1932 1815 1931 2045
8 2045 1931 2044 2153 1934 1818 1933 2046
8 2155 2047 1936 2048 2086 1976 1864 1977
8 2063 1949 1833 1950 2155 2047 1936 2048
8 2156 2048 1937 2049 2087 1977 1865 1978
8 2064 1950 1834 1951 2156 2048 1937 2049
8 2051 1939 1829 1944 2160 2053 1946 2058
8 2052 1940 2035 2144 2160 2053 1939 2051
8 2053 1942 1831 1946 2163 2057 1948 2060
8 2055 1943 1827 1940 2163 2057 1942 2053
8 2055 1943 2056 2164 1940 1827 1941 2054
8 2059 1947 1849 1966 2167 2060 1965 2078
8 2059 1947 2060 2167 1945 1830 1946 2058
8 2077 1964 2061 2168 1965 1848 1948 2060
8 2070 1963 1847 1959 2170 2062 1949 2063
8 2065 1959 1843 1952 2171 2063 1950 2064
8 2173 2072 1958 2066 2065 1959 1843 1952
8 1953 1842 1958 2066 2067 1957 2071 2174
8 2068 1956 2069 2175 1967 1859 1973 2079
8 2067 1957 2069 2175 1955 1841 1956 2068
8 1845 1957 2069 1960 1961 2071 2176 2073
8 2069 1960 2073 2176 1973 1862 1975 2083
8 2070 1963 2075 2177 1959 1847 1962 2072
8 1846 1958 2071 1961 1962 2072 2178 2074
8 2077 1964 1861 1971 2182 2076 1974 2082
8 2081 1971 2077 2183 1969 1857 1965 2078
8 2079 1973 2083 2184 1968 1860 1972 2080
8 2081 1971 1858 1970 2185 2082 1972 2080
8 2083 1975 2084 2186 1972 1863 1974 2082
8 2086 1976 1882 1987 2189 2085 1993 2095
8 2090 1987 2086 2190 1981 1875 1977 2087
8 2191 2094 1986 2088 2103 1998 1888 1997
8 2088 1986 2094 2191 1980 1877 1989 2089
8 1991 2091 2192 2097 1880 1982 2089 1989
8 2093 1988 2095 2193 1984 1876 1987 2090
8 1879 1983 2092 1990 1991 2091 2194 2098
8 1985 1878 1990 2092 2093 1988 2096 2195
8 2097 1996 1886 1989 2196 2099 1992 2094
8 2196 2099 1992 2094 2104 1999 1889 1998
8 1994 2096 1988 1883 2100 2197 2095 1993
8 2096 1994 1884 1990 2198 2101 1995 2098
8 1995 2098 2199 2102 1885 1991 2097 1996
8 2203 2104 1998 2103 2106 2001 1891 2000
8 2107 2002 2105 2204 2001 1892 1999 2104
8 2109 2004 2107 2206 2003 1894 2001 2106
8 2110 2005 2108 2207 2004 1895 2002 2107
8 2112 2007 2110 2209 2006 1897 2004 2109
8 2113 2008 2111 2210 2007 1898 2005 2110
8 2120 2011 2113 2212 2014 1901 2007 2112
8 2117 2009 2114 2213 2011 1899 2008 2113
8 2219 2116 2009 2117 2119 2010 1899 2011
8 2222 2118 2010 2119 2122 2012 1900 2013
8 2223 2119 2011 2120 2123 2013 1901 2014
8 2016 1902 2015 2125 2122 2012 2121 2225
8 2126 2016 2122 2226 2017 1903 2013 2123
8 2019 1905 2018 2128 2125 2015 2124 2228
8 2020 1906 2019 2129 2126 2016 2125 2229
8 2022 1908 2021 2131 2128 2018 2127 2231
8 2023 1909 2022 2132 2129 2019 2128 2232
8 2025 1911 2024 2134 2131 2021 2130 2234
8 2026 1912 2025 2135 2132 2022 2131 2235
8 1914 2028 2134 2024 2027 2136 2236 2133
8 2029 1915 2028 2137 2135 2025 2134 2237
8 2030 1918 2031 2138 2137 2028 2136 2238
8 2157 2050 2139 2240 2054 1941 2033 2140
8 2052 1940 2054 2161 2144 2035 2140 2242
8 2140 2033 2141 2243 2035 1923 2034 2143
8 2143 2034 2142 2246 2037 1924 2036 2146
8 2144 2035 2143 2247 2051 1939 2037 2147
8 2146 2036 2145 2249 2039 1925 2038 2149
8 2147 2037 2146 2250 2040 1926 2039 2150
8 2149 2038 2148 2251 2042 1927 2041 2151
8 2150 2039 2149 2252 2043 1928 2042 2152
8 2152 2042 2151 2253 2045 1931 2044 2153
8 2255 2154 2047 2155 2189 2085 1976 2086
8 2170 2062 1949 2063 2255 2154 2047 2155
8 2256 2155 2048 2156 2190 2086 1977 2087
8 2171 2063 1950 2064 2256 2155 2048 2156
8 2258 2159 2050 2157 2164 2056 1941 2054
8 2160 2053 1946 2058 2262 2163 2060 2167
8 2162 2055 1940 2052 2262 2163 2053 2160
8 2162 2055 2164 2263 2052 1940 2054 2161
8 2163 2057 1948 2060 2264 2165 2061 2168
8 2055 1943 2057 2163 2164 2056 2165 2264
8 2182 2076 2166 2268 2077 1964 2061 2168
8 2183 2077 2168 2269 2078 1965 2060 2167
8 2070 1963 2062 2170 2177 2075 2169 2271
8 2172 2070 1959 2065 2272 2170 2063 2171
8 2172 2070 2177 2273 2065 1959 2072 2173
8 2066 1958 2072 2173 2174 2071 2178 2274
8 2067 1957 2071 2174 2175 2069 2176 2275
8 2175 2069 2176 2275 2079 1973 2083 2184
8 2071 1961 2074 2178 2176 2073 2179 2276
8 2176 2073 2179 2276 2083 1975 2084 2186
8 2072 1962 2075 2177 2178 2074 2180 2277
8 2182 2076 1974 2082 2280 2181 2084 2186
8 2183 2077 1971 2081 2281 2182 2082 2185
8 2184 2083 2186 2282 2080 1972 2082 2185
8 2189 2085 1993 2095 2285 2188 2100 2197
8 2190 2086 1987 2090 2286 2189 2095 2193
8 2192 2097 1989 2089 2287 2196 2094 2191
8 2287 2196 2094 2191 2203 2104 1998 2103
8 2194 2098 1991 2091 2288 2199 2097 2192
8 2195 2096 2197 2289 2093 1988 2095 2193
8 2096 2195 2290 2198 1990 2092 2194 2098
8 2097 1996 2099 2196 2199 2102 2200 2291
8 2196 2099 1999 2104 2291 2200 2105 2204
8 2100 2197 2292 2201 1994 2096 2198 2101
8 1995 2098 2198 2101 2102 2199 2293 2202
8 2206 2107 2204 2296 2106 2001 2104 2203
8 2207 2108 2205 2297 2107 2002 2105 2204
8 2209 2110 2207 2299 2109 2004 2107 2206
8 2210 2111 2208 2300 2110 2005 2108 2207
8 2212 2113 2210 2302 2112 2007 2110 2209
8 2213 2114 2211 2303 2113 2008 2111 2210
8 2220 2117 2213 2305 2120 2011 2113 2212
8 2216 2115 2214 2306 2117 2009 2114 2213
8 2216 2115 2009 2117 2311 2217 2116 2219
8 2219 2116 2010 2119 2314 2218 2118 2222
8 2315 2219 2117 2220 2223 2119 2011 2120
8 2122 2012 2121 2225 2222 2118 2221 2317
8 2318 2222 2119 2223 2226 2122 2013 2123
8 2125 2015 2124 2228 2225 2121 2224 2320
8 2126 2016 2125 2229 2226 2122 2225 2321
8 2128 2018 2127 2231 2228 2124 2227 2323
8 2129 2019 2128 2232 2229 2125 2228 2324
8 2131 2021 2130 2234 2231 2127 2230 2326
8 2132 2022 2131 2235 2232 2128 2231 2327
8 2134 2024 2133 2236 2234 2130 2233 2328
8 2135 2025 2134 2237 2235 2131 2234 2329
8 2137 2028 2136 2238 2237 2134 2236 2330
8 2157 2050 2158 2259 2240 2139 2239 2332
8 2257 2157 2240 2334 2161 2054 2140 2242
8 2240 2139 2241 2335 2140 2033 2141 2243
8 2242 2140 2243 2337 2144 2035 2143 2247
8 2243 2141 2244 2338 2143 2034 2142 2246
8 2246 2142 2245 2341 2146 2036 2145 2249
8 2247 2143 2246 2342 2147 2037 2146 2250
8 2249 2145 2248 2343 2149 2038 2148 2251
8 2250 2146 2249 2344 2150 2039 2149 2252
8 2252 2149 2251 2345 2152 2042 2151 2253
8 2169 2271 2347 2254 2062 2170 2255 2154
8 2189 2085 2188 2285 2255 2154 2254 2347
8 2348 2255 2155 2256 2286 2189 2086 2190
8 2272 2170 2063 2171 2348 2255 2155 2256
8 2349 2258 2157 2257 2263 2164 2054 2161
8 2258 2159 2261 2351 2157 2050 2158 2259
8 2258 2159 2056 2164 2351 2261 2165 2264
8 2262 2163 2060 2167 2355 2264 2168 2269
8 2162 2055 2163 2262 2263 2164 2264 2355
8 2357 2266 2165 2264 2268 2166 2061 2168
8 2268 2166 2076 2182 2361 2267 2181 2280
8 2281 2182 2268 2362 2183 2077 2168 2269
8 2271 2169 2270 2364 2177 2075 2180 2277
8 2172 2070 2170 2272 2273 2177 2271 2365
8 2072 2173 2274 2178 2177 2273 2366 2277
8 2071 2174 2275 2176 2178 2274 2367 2276
8 2275 2176 2276 2367 2184 2083 2186 2282
8 2283 2187 2084 2186 2368 2278 2179 2276
8 2178 2074 2180 2277 2276 2179 2278 2368
8 2283 2187 2279 2370 2186 2084 2181 2280
8 2281 2182 2082 2185 2371 2280 2186 2282
8 2188 2285 2374 2284 2100 2197 2292 2201
8 2286 2189 2095 2193 2375 2285 2197 2289
8 2192 2097 2196 2287 2288 2199 2291 2376
8 2287 2196 2104 2203 2376 2291 2204 2296
8 2194 2098 2199 2288 2290 2198 2293 2377
8 2289 2197 2096 2195 2378 2292 2198 2290
8 2291 2200 2105 2204 2379 2294 2205 2297
8 2199 2102 2200 2291 2293 2202 2294 2379
8 2198 2101 2202 2293 2292 2201 2295 2380
8 2299 2207 2297 2383 2206 2107 2204 2296
8 2300 2208 2298 2384 2207 2108 2205 2297
8 2302 2210 2300 2386 2209 2110 2207 2299
8 2303 2211 2301 2387 2210 2111 2208 2300
8 2305 2213 2303 2389 2212 2113 2210 2302
8 2306 2214 2304 2390 2213 2114 2211 2303
8 2310 2216 2306 2392 2220 2117 2213 2305
8 2308 2215 2307 2393 2216 2115 2214 2306
8 2308 2215 2115 2216 2396 2309 2217 2311
8 2310 2216 2117 2220 2398 2311 2219 2315
8 2311 2217 2116 2219 2399 2312 2218 2314
8 2314 2218 2118 2222 2402 2313 2221 2317
8 2315 2219 2119 2223 2403 2314 2222 2318
8 2225 2121 2224 2320 2317 2221 2316 2405
8 2226 2122 2225 2321 2318 2222 2317 2406
8 2228 2124 2227 2323 2320 2224 2319 2408
8 2229 2125 2228 2324 2321 2225 2320 2409
8 2231 2127 2230 2326 2323 2227 2322 2411
8 2232 2128 2231 2327 2324 2228 2323 2412
8 2234 2130 2233 2328 2326 2230 2325 2413
8 2235 2131 2234 2329 2327 2231 2326 2414
8 2237 2134 2236 2330 2329 2234 2328 2415
8 2259 2158 2260 2352 2332 2239 2331 2417
8 2257 2157 2259 2350 2334 2240 2332 2419
8 2240 2139 2239 2332 2335 2241 2333 2420
8 2334 2240 2335 2422 2242 2140 2243 2337
8 2335 2241 2336 2423 2243 2141 2244 2338
8 2337 2243 2338 2425 2247 2143 2246 2342
8 2338 2244 2339 2426 2246 2142 2245 2341
8 2341 2245 2340 2428 2249 2145 2248 2343
8 2342 2246 2341 2429 2250 2146 2249 2344
8 2344 2249 2343 2430 2252 2149 2251 2345
8 2188 2285 2347 2254 2284 2374 2432 2346
8 2347 2254 2346 2432 2271 2169 2270 2364
8 2365 2271 2170 2272 2433 2347 2255 2348
8 2286 2189 2285 2375 2348 2255 2347 2433
8 2349 2258 2351 2435 2257 2157 2259 2350
8 2349 2258 2164 2263 2435 2351 2264 2355
8 2259 2158 2261 2351 2352 2260 2354 2437
8 2356 2265 2354 2437 2264 2165 2261 2351
8 2441 2357 2264 2355 2362 2268 2168 2269
8 2356 2265 2165 2264 2442 2358 2266 2357
8 2443 2359 2266 2357 2361 2267 2166 2268
8 2370 2279 2360 2446 2280 2181 2267 2361
8 2362 2268 2182 2281 2447 2361 2280 2371
8 2180 2277 2368 2278 2270 2364 2449 2363
8 2271 2365 2273 2177 2364 2450 2366 2277
8 2372 2283 2186 2282 2451 2368 2276 2367
8 2178 2274 2367 2276 2277 2366 2451 2368
8 2283 2187 2278 2368 2370 2279 2369 2452
8 2372 2283 2370 2453 2282 2186 2280 2371
8 2284 2374 2455 2373 2201 2292 2380 2295
8 2375 2285 2197 2289 2456 2374 2292 2378
8 2376 2291 2204 2296 2457 2379 2297 2383
8 2288 2199 2291 2376 2377 2293 2379 2457
8 2198 2290 2378 2292 2293 2377 2458 2380
8 2293 2202 2294 2379 2380 2295 2381 2459
8 2384 2298 2381 2459 2297 2205 2294 2379
8 2386 2300 2384 2463 2299 2207 2297 2383
8 2387 2301 2385 2464 2300 2208 2298 2384
8 2389 2303 2387 2466 2302 2210 2300 2386
8 2390 2304 2388 2467 2303 2211 2301 2387
8 2392 2306 2390 2469 2305 2213 2303 2389
8 2393 2307 2391 2470 2306 2214 2304 2390
8 2395 2308 2393 2472 2310 2216 2306 2392
8 2308 2215 2309 2396 2393 2307 2394 2473
8 2395 2308 2216 2310 2475 2396 2311 2398
8 2396 2309 2217 2311 2476 2397 2312 2399
8 2398 2311 2219 2315 2478 2399 2314 2403
8 2399 2312 2218 2314 2479 2400 2313 2402
8 2317 2221 2316 2405 2402 2313 2401 2482
8 2403 2314 2222 2318 2483 2402 2317 2406
8 2320 2224 2319 2408 2405 2316 2404 2485
8 2321 2225 2320 2409 2406 2317 2405 2486
8 2323 2227 2322 2411 2408 2319 2407 2488
8 2324 2228 2323 2412 2409 2320 2408 2489
8 2326 2230 2325 2413 2411 2322 2410 2490
8 2327 2231 2326 2414 2412 2323 2411 2491
8 2329 2234 2328 2415 2414 2326 2413 2492
8 2417 2331 2260 2352 2494 2416 2353 2438
8 2350 2259 2352 2436 2419 2332 2417 2496
8 2332 2239 2331 2417 2420 2333 2418 2497
8 2334 2240 2332 2419 2422 2335 2420 2499
8 2420 2333 2421 2500 2335 2241 2336 2423
8 2422 2335 2423 2502 2337 2243 2338 2425
8 2423 2336 2424 2503 2338 2244 2339 2426
8 2425 2338 2426 2505 2342 2246 2341 2429
8 2426 2339 2427 2506 2341 2245 2340 2428
8 2429 2341 2428 2507 2344 2249 2343 2430
8 2432 2346 2284 2374 2509 2431 2373 2455
8 2432 2346 2431 2509 2364 2270 2363 2449
8 2375 2285 2374 2456 2433 2347 2432 2510
8 2347 2433 2365 2271 2432 2510 2450 2364
8 2350 2259 2351 2435 2436 2352 2437 2514
8 2440 2356 2437 2514 2355 2264 2351 2435
8 2352 2260 2354 2437 2438 2353 2439 2516
8 2356 2265 2358 2442 2437 2354 2439 2516
8 2440 2356 2264 2355 2518 2442 2357 2441
8 2519 2443 2357 2441 2447 2361 2268 2362
8 2443 2359 2444 2520 2357 2266 2358 2442
8 2443 2359 2267 2361 2520 2444 2360 2446
8 2446 2360 2279 2370 2523 2445 2369 2452
8 2453 2370 2446 2524 2371 2280 2361 2447
8 2449 2363 2448 2525 2368 2278 2369 2452
8 2366 2277 2364 2450 2451 2368 2449 2526
8 2372 2283 2368 2451 2453 2370 2452 2527
8 2455 2373 2295 2380 2529 2454 2382 2460
8 2456 2374 2292 2378 2530 2455 2380 2458
8 2377 2293 2379 2457 2458 2380 2459 2531
8 2463 2384 2459 2531 2383 2297 2379 2457
8 2533 2461 2382 2460 2459 2381 2295 2380
8 2464 2385 2461 2533 2384 2298 2381 2459
8 2466 2387 2464 2537 2386 2300 2384 2463
8 2467 2388 2465 2538 2387 2301 2385 2464
8 2469 2390 2467 2540 2389 2303 2387 2466
8 2470 2391 2468 2541 2390 2304 2388 2467
8 2472 2393 2470 2543 2392 2306 2390 2469
8 2393 2307 2394 2473 2470 2391 2471 2544
8 2395 2308 2396 2475 2472 2393 2473 2546
8 2396 2309 2397 2476 2473 2394 2474 2547
8 2475 2396 2311 2398 2549 2476 2399 2478
8 2476 2397 2312 2399 2550 2477 2400 2479
8 2478 2399 2314 2403 2552 2479 2402 2483
8 2479 2400 2313 2402 2553 2480 2401 2482
8 2405 2316 2404 2485 2482 2401 2481 2556
8 2406 2317 2405 2486 2483 2402 2482 2557
8 2408 2319 2407 2488 2485 2404 2484 2559
8 2409 2320 2408 2489 2486 2405 2485 2560
8 2411 2322 2410 2490 2488 2407 2487 2561
8 2412 2323 2411 2491 2489 2408 2488 2562
8 2414 2326 2413 2492 2491 2411 2490 2563
8 2513 2434 2493 2565 2438 2353 2416 2494
8 2496 2417 2352 2436 2567 2494 2438 2515
8 2494 2416 2495 2568 2417 2331 2418 2497
8 2419 2332 2417 2496 2499 2420 2497 2570
8 2497 2418 2498 2571 2420 2333 2421 2500
8 2499 2420 2500 2573 2422 2335 2423 2502
8 2500 2421 2501 2574 2423 2336 2424 2503
8 2502 2423 2503 2576 2425 2338 2426 2505
8 2503 2424 2504 2577 2426 2339 2427 2506
8 2505 2426 2506 2578 2429 2341 2428 2507
8 2509 2431 2373 2455 2580 2508 2454 2529
8 2509 2431 2508 2580 2449 2363 2448 2525
8 2432 2510 2581 2509 2374 2456 2530 2455
8 2432 2510 2450 2364 2509 2581 2526 2449
8 2583 2511 2434 2513 2516 2439 2353 2438
8 2436 2352 2437 2514 2515 2438 2516 2588
8 2440 2356 2442 2518 2514 2437 2516 2588
8 2442 2358 2444 2520 2516 2439 2517 2589
8 2519 2443 2520 2591 2441 2357 2442 2518
8 2519 2443 2361 2447 2591 2520 2446 2524
8 2446 2360 2445 2523 2520 2444 2521 2592
8 2525 2448 2522 2593 2452 2369 2445 2523
8 2524 2446 2370 2453 2594 2523 2452 2527
8 2526 2449 2525 2595 2451 2368 2452 2527
8 2534 2462 2528 2597 2460 2382 2454 2529
8 2530 2455 2380 2458 2598 2529 2460 2532
8 2599 2533 2460 2532 2531 2459 2380 2458
8 2537 2464 2533 2599 2463 2384 2459 2531
8 2534 2462 2382 2460 2601 2535 2461 2533
8 2538 2465 2535 2601 2464 2385 2461 2533
8 2540 2467 2538 2604 2466 2387 2464 2537
8 2541 2468 2539 2605 2467 2388 2465 2538
8 2543 2470 2541 2607 2469 2390 2467 2540
8 2470 2391 2471 2544 2541 2468 2542 2608
8 2472 2393 2473 2546 2543 2470 2544 2610
8 2473 2394 2474 2547 2544 2471 2545 2611
8 2475 2396 2476 2549 2546 2473 2547 2613
8 2476 2397 2477 2550 2547 2474 2548 2614
8 2549 2476 2399 2478 2616 2550 2479 2552
8 2479 2400 2480 2553 2550 2477 2551 2617
8 2552 2479 2402 2483 2619 2553 2482 2557
8 2482 2401 2481 2556 2553 2480 2554 2620
8 2485 2404 2484 2559 2556 2481 2555 2623
8 2486 2405 2485 2560 2557 2482 2556 2624
8 2488 2407 2487 2561 2559 2484 2558 2625
8 2489 2408 2488 2562 2560 2485 2559 2626
8 2491 2411 2490 2563 2562 2488 2561 2627
8 2513 2434 2512 2585 2565 2493 2564 2630
8 2586 2513 2565 2632 2515 2438 2494 2567
8 2565 2493 2566 2633 2494 2416 2495 2568
8 2567 2494 2568 2635 2496 2417 2497 2570
8 2568 2495 2569 2636 2497 2418 2498 2571
8 2570 2497 2571 2638 2499 2420 2500 2573
8 2571 2498 2572 2639 2500 2421 2501 2574
8 2573 2500 2574 2641 2502 2423 2503 2576
8 2574 2501 2575 2642 2503 2424 2504 2577
8 2576 2503 2577 2643 2505 2426 2506 2578
8 2597 2528 2579 2645 2529 2454 2508 2580
8 2580 2508 2579 2645 2525 2448 2522 2593
8 2581 2509 2455 2530 2646 2580 2529 2598
8 2581 2509 2580 2646 2526 2449 2525 2595
8 2583 2511 2582 2648 2513 2434 2512 2585
8 2583 2511 2439 2516 2648 2582 2517 2589
8 2649 2583 2513 2586 2588 2516 2438 2515
8 2589 2517 2444 2520 2653 2587 2521 2592
8 2518 2442 2520 2591 2588 2516 2589 2654
8 2593 2522 2590 2655 2523 2445 2521 2592
8 2524 2446 2523 2594 2591 2520 2592 2656
8 2595 2525 2593 2657 2527 2452 2523 2594
8 2602 2536 2596 2659 2534 2462 2528 2597
8 2600 2534 2597 2660 2532 2460 2529 2598
8 2600 2534 2460 2532 2661 2601 2533 2599
8 2604 2538 2601 2661 2537 2464 2533 2599
8 2602 2536 2462 2534 2663 2603 2535 2601
8 2601 2535 2465 2538 2663 2603 2539 2605
8 2607 2541 2605 2665 2540 2467 2538 2604
8 2608 2542 2606 2666 2541 2468 2539 2605
8 2543 2470 2544 2610 2607 2541 2608 2668
8 2544 2471 2545 2611 2608 2542 2609 2669
8 2546 2473 2547 2613 2610 2544 2611 2671
8 2547 2474 2548 2614 2611 2545 2612 2672
8 2549 2476 2550 2616 2613 2547 2614 2674
8 2550 2477 2551 2617 2614 2548 2615 2675
8 2552 2479 2553 2619 2616 2550 2617 2677
8 2553 2480 2554 2620 2617 2551 2618 2678
8 2557 2482 2556 2624 2619 2553 2620 2680
8 2556 2481 2555 2623 2620 2554 2621 2681
8 2559 2484 2558 2625 2623 2555 2622 2683
8 2560 2485 2559 2626 2624 2556 2623 2684
8 2562 2488 2561 2627 2626 2559 2625 2685
8 2690 2629 2564 2630 2650 2584 2512 2585
8 2586 2513 2585 2651 2632 2565 2630 2691
8 2630 2564 2631 2692 2565 2493 2566 2633
8 2632 2565 2633 2694 2567 2494 2568 2635
8 2633 2566 2634 2695 2568 2495 2569 2636
8 2635 2568 2636 2697 2570 2497 2571 2638
8 2636 2569 2637 2698 2571 2498 2572 2639
8 2638 2571 2639 2700 2573 2500 2574 2641
8 2639 2572 2640 2701 2574 2501 2575 2642
8 2641 2574 2642 2702 2576 2503 2577 2643
8 2597 2528 2596 2659 2645 2579 2644 2704
8 2645 2579 2644 2704 2593 2522 2590 2655
8 2660 2597 2645 2705 2598 2529 2580 2646
8 2646 2580 2645 2705 2595 2525 2593 2657
8 2650 2584 2512 2585 2707 2647 2582 2648
8 2648 2582 2517 2589 2707 2647 2587 2653
8 2649 2583 2648 2708 2586 2513 2585 2651
8 2649 2583 2516 2588 2708 2648 2589 2654
8 2655 2590 2652 2710 2592 2521 2587 2653
8 2654 2589 2520 2591 2711 2653 2592 2656
8 2657 2593 2655 2712 2594 2523 2592 2656
8 2602 2536 2603 2663 2659 2596 2658 2714
8 2662 2602 2659 2715 2600 2534 2597 2660
8 2662 2602 2534 2600 2717 2663 2601 2661
8 2661 2601 2538 2604 2717 2663 2605 2665
8 2666 2606 2664 2718 2605 2539 2603 2663
8 2668 2608 2666 2720 2607 2541 2605 2665
8 2608 2542 2609 2669 2666 2606 2667 2721
8 2610 2544 2611 2671 2668 2608 2669 2723
8 2611 2545 2612 2672 2669 2609 2670 2724
8 2613 2547 2614 2674 2671 2611 2672 2726
8 2614 2548 2615 2675 2672 2612 2673 2727
8 2616 2550 2617 2677 2674 2614 2675 2729
8 2617 2551 2618 2678 2675 2615 2676 2730
8 2619 2553 2620 2680 2677 2617 2678 2732
8 2620 2554 2621 2681 2678 2618 2679 2733
8 2624 2556 2623 2684 2680 2620 2681 2735
8 2681 2621 2555 2623 2736 2682 2622 2683
8 2626 2559 2625 2685 2684 2623 2683 2737
8 2688 2628 2584 2650 2740 2686 2647 2707
8 2688 2628 2687 2742 2650 2584 2629 2690
8 2690 2629 2689 2745 2630 2564 2631 2692
8 2746 2690 2630 2691 2709 2650 2585 2651
8 2691 2630 2692 2747 2632 2565 2633 2694
8 2692 2631 2693 2748 2633 2566 2634 2695
8 2694 2633 2695 2750 2635 2568 2636 2697
8 2695 2634 2696 2751 2636 2569 2637 2698
8 2697 2636 2698 2753 2638 2571 2639 2700
8 2698 2637 2699 2754 2639 2572 2640 2701
8 2700 2639 2701 2755 2641 2574 2642 2702
8 2659 2596 2658 2714 2704 2644 2703 2757
8 2704 2644 2703 2757 2655 2590 2652 2710
8 2660 2597 2659 2715 2705 2645 2704 2758
8 2705 2645 2704 2758 2657 2593 2655 2712
8 2759 2706 2647 2707 2710 2652 2587 2653
8 2709 2650 2585 2651 2760 2707 2648 2708
8 2708 2648 2589 2654 2760 2707 2653 2711
8 2712 2655 2710 2761 2656 2592 2653 2711
8 2763 2713 2658 2714 2718 2664 2603 2663
8 2662 2602 2663 2717 2715 2659 2714 2764
8 2720 2666 2718 2767 2665 2605 2663 2717
8 2768 2719 2664 2718 2721 2667 2606 2666
8 2668 2608 2669 2723 2720 2666 2721 2770
8 2669 2609 2670 2724 2721 2667 2722 2771
8 2671 2611 2672 2726 2723 2669 2724 2773
8 2672 2612 2673 2727 2724 2670 2725 2774
8 2674 2614 2675 2729 2726 2672 2727 2776
8 2675 2615 2676 2730 2727 2673 2728 2777
8 2677 2617 2678 2732 2729 2675 2730 2779
8 2678 2618 2679 2733 2730 2676 2731 2780
8 2680 2620 2681 2735 2732 2678 2733 2782
8 2733 2679 2621 2681 2783 2734 2682 2736
8 2735 2681 2623 2684 2784 2736 2683 2737
8 2740 2686 2647 2707 2787 2738 2706 2759
8 2688 2628 2686 2740 2742 2687 2739 2789
8 2743 2688 2650 2709 2790 2740 2707 2760
8 2742 2687 2741 2792 2690 2629 2689 2745
8 2743 2688 2742 2793 2709 2650 2690 2746
8 2745 2689 2744 2795 2692 2631 2693 2748
8 2746 2690 2745 2796 2691 2630 2692 2747
8 2747 2692 2748 2797 2694 2633 2695 2750
8 2748 2693 2749 2798 2695 2634 2696 2751
8 2750 2695 2751 2800 2697 2636 2698 2753
8 2751 2696 2752 2801 2698 2637 2699 2754
8 2753 2698 2754 2802 2700 2639 2701 2755
8 2763 2713 2756 2804 2714 2658 2703 2757
8 2759 2706 2652 2710 2804 2756 2703 2757
8 2715 2659 2714 2764 2758 2704 2757 2805
8 2758 2704 2757 2805 2712 2655 2710 2761
8 2806 2759 2707 2760 2761 2710 2653 2711
8 2765 2716 2762 2808 2718 2664 2713 2763
8 2809 2763 2714 2764 2767 2718 2663 2717
8 2765 2716 2664 2718 2811 2766 2719 2768
8 2813 2768 2718 2767 2770 2721 2666 2720
8 2814 2769 2719 2768 2771 2722 2667 2721
8 2723 2669 2724 2773 2770 2721 2771 2816
8 2724 2670 2725 2774 2771 2722 2772 2817
8 2726 2672 2727 2776 2773 2724 2774 2819
8 2727 2673 2728 2777 2774 2725 2775 2820
8 2729 2675 2730 2779 2776 2727 2777 2822
8 2730 2676 2731 2780 2777 2728 2778 2823
8 2732 2678 2733 2782 2779 2730 2780 2825
8 2780 2731 2679 2733 2826 2781 2734 2783
8 2782 2733 2681 2735 2827 2783 2736 2784
8 2830 2785 2738 2787 2804 2756 2706 2759
8 2789 2739 2686 2740 2832 2786 2738 2787
8 2790 2740 2707 2760 2833 2787 2759 2806
8 2742 2687 2739 2789 2792 2741 2788 2835
8 2743 2688 2740 2790 2793 2742 2789 2836
8 2792 2741 2791 2838 2745 2689 2744 2795
8 2793 2742 2792 2839 2746 2690 2745 2796
8 2795 2744 2794 2841 2748 2693 2749 2798
8 2796 2745 2795 2842 2747 2692 2748 2797
8 2797 2748 2798 2843 2750 2695 2751 2800
8 2798 2749 2799 2844 2751 2696 2752 2801
8 2800 2751 2801 2845 2753 2698 2754 2802
8 2808 2762 2803 2847 2763 2713 2756 2804
8 2809 2763 2804 2848 2764 2714 2757 2805
8 2806 2759 2710 2761 2848 2804 2757 2805
8 2765 2716 2766 2811 2808 2762 2807 2850
8 2810 2765 2808 2851 2767 2718 2763 2809
8 2810 2765 2718 2767 2852 2811 2768 2813
8 2811 2766 2719 2768 2853 2812 2769 2814
8 2855 2814 2768 2813 2816 2771 2721 2770
8 2856 2815 2769 2814 2817 2772 2722 2771
8 2773 2724 2774 2819 2816 2771 2817 2858
8 2774 2725 2775 2820 2817 2772 2818 2859
8 2776 2727 2777 2822 2819 2774 2820 2861
8 2777 2728 2778 2823 2820 2775 2821 2862
8 2779 2730 2780 2825 2822 2777 2823 2864
8 2823 2778 2731 2780 2865 2824 2781 2826
8 2825 2780 2733 2782 2866 2826 2783 2827
8 2869 2828 2785 2830 2847 2803 2756 2804
8 2871 2829 2786 2832 2830 2785 2738 2787
8 2872 2830 2787 2833 2848 2804 2759 2806
8 2789 2739 2786 2832 2835 2788 2831 2874
8 2836 2789 2740 2790 2875 2832 2787 2833
8 2792 2741 2788 2835 2838 2791 2834 2877
8 2793 2742 2789 2836 2839 2792 2835 2878
8 2838 2791 2837 2880 2795 2744 2794 2841
8 2839 2792 2838 2881 2796 2745 2795 2842
8 2841 2794 2840 2882 2798 2749 2799 2844
8 2842 2795 2841 2883 2797 2748 2798 2843
8 2843 2798 2844 2884 2800 2751 2801 2845
8 2886 2846 2803 2847 2850 2807 2762 2808
8 2851 2808 2847 2887 2809 2763 2804 2848
8 2850 2807 2766 2811 2889 2849 2812 2853
8 2810 2765 2811 2852 2851 2808 2850 2890
8 2852 2811 2768 2813 2891 2853 2814 2855
8 2853 2812 2769 2814 2892 2854 2815 2856
8 2894 2856 2814 2855 2858 2817 2771 2816
8 2817 2772 2818 2859 2856 2815 2857 2895
8 2819 2774 2820 2861 2858 2817 2859 2897
8 2820 2775 2821 2862 2859 2818 2860 2898
8 2822 2777 2823 2864 2861 2820 2862 2900
8 2823 2778 2824 2865 2862 2821 2863 2901
8 2864 2823 2780 2825 2902 2865 2826 2866
8 2904 2867 2828 2869 2886 2846 2803 2847
8 2869 2828 2868 2906 2830 2785 2829 2871
8 2907 2869 2830 2872 2887 2847 2804 2848
8 2871 2829 2870 2909 2832 2786 2831 2874
8 2910 2871 2832 2875 2872 2830 2787 2833
8 2835 2788 2831 2874 2877 2834 2873 2912
8 2836 2789 2832 2875 2878 2835 2874 2913
8 2877 2834 2876 2915 2838 2791 2837 2880
8 2839 2792 2835 2878 2881 2838 2877 2916
8 2880 2837 2879 2917 2841 2794 2840 2882
8 2881 2838 2880 2918 2842 2795 2841 2883
8 2883 2841 2882 2919 2843 2798 2844 2884
8 2921 2885 2846 2886 2889 2849 2807 2850
8 2922 2886 2847 2887 2890 2850 2808 2851
8 2889 2849 2812 2853 2924 2888 2854 2892
8 2890 2850 2811 2852 2925 2889 2853 2891
8 2891 2853 2814 2855 2926 2892 2856 2894
8 2892 2854 2815 2856 2927 2893 2857 2895
8 2858 2817 2859 2897 2894 2856 2895 2929
8 2859 2818 2860 2898 2895 2857 2896 2930
8 2861 2820 2862 2900 2897 2859 2898 2932
8 2862 2821 2863 2901 2898 2860 2899 2933
8 2864 2823 2865 2902 2900 2862 2901 2934
8 2904 2867 2846 2886 2936 2903 2885 2921
8 2904 2867 2903 2936 2869 2828 2868 2906
8 2937 2904 2869 2907 2922 2886 2847 2887
8 2906 2868 2905 2939 2871 2829 2870 2909
8 2907 2869 2906 2940 2872 2830 2871 2910
8 2909 2870 2908 2942 2874 2831 2873 2912
8 2910 2871 2909 2943 2875 2832 2874 2913
8 2912 2873 2911 2945 2877 2834 2876 2915
8 2878 2835 2874 2913 2916 2877 2912 2946
8 2915 2876 2914 2947 2880 2837 2879 2917
8 2916 2877 2915 2948 2881 2838 2880 2918
8 2918 2880 2917 2949 2883 2841 2882 2919
8 2921 2885 2849 2889 2951 2920 2888 2924
8 2952 2921 2886 2922 2925 2889 2850 2890
8 2924 2888 2854 2892 2954 2923 2893 2927
8 2925 2889 2853 2891 2955 2924 2892 2926
8 2926 2892 2856 2894 2956 2927 2895 2929
8 2895 2857 2896 2930 2927 2893 2928 2957
8 2897 2859 2898 2932 2929 2895 2930 2959
8 2898 2860 2899 2933 2930 2896 2931 2960
8 2900 2862 2901 2934 2932 2898 2933 2961
8 2936 2903 2885 2921 2963 2935 2920 2951
8 2936 2903 2935 2963 2906 2868 2905 2939
8 2937 2904 2886 2922 2964 2936 2921 2952
8 2937 2904 2936 2964 2907 2869 2906 2940
8 2939 2905 2938 2966 2909 2870 2908 2942
8 2940 2906 2939 2967 2910 2871 2909 2943
8 2942 2908 2941 2969 2912 2873 2911 2945
8 2943 2909 2942 2970 2913 2874 2912 2946
8 2945 2911 2944 2971 2915 2876 2914 2947
8 2946 2912 2945 2972 2916 2877 2915 2948
8 2948 2915 2947 2973 2918 2880 2917 2949
8 2951 2920 2888 2924 2975 2950 2923 2954
8 2952 2921 2889 2925 2976 2951 2924 2955
8 2927 2893 2928 2957 2954 2923 2953 2978
8 2955 2924 2892 2926 2979 2954 2927 2956
8 2929 2895 2930 2959 2956 2927 2957 2980
8 2930 2896 2931 2960 2957 2928 2958 2981
8 2932 2898 2933 2961 2959 2930 2960 2982
8 2951 2920 2950 2975 2963 2935 2962 2984
8 2963 2935 2962 2984 2939 2905 2938 2966
8 2964 2936 2921 2952 2985 2963 2951 2976
8 2964 2936 2963 2985 2940 2906 2939 2967
8 2966 2938 2965 2987 2942 2908 2941 2969
8 2967 2939 2966 2988 2943 2909 2942 2970
8 2969 2941 2968 2989 2945 2911 2944 2971
8 2970 2942 2969 2990 2946 2912 2945 2972
8 2972 2945 2971 2991 2948 2915 2947 2973
8 2954 2923 2953 2978 2975 2950 2974 2993
8 2976 2951 2924 2955 2994 2975 2954 2979
8 2957 2928 2958 2981 2978 2953 2977 2995
8 2956 2927 2957 2980 2979 2954 2978 2996
8 2959 2930 2960 2982 2980 2957 2981 2997
8 2984 2962 2983 2999 2966 2938 2965 2987
8 2975 2950 2974 2993 2984 2962 2983 2999
8 2976 2951 2975 2994 2985 2963 2984 3000
8 2985 2963 2984 3000 2967 2939 2966 2988
8 2987 2965 2986 3001 2969 2941 2968 2989
8 2988 2966 2987 3002 2970 2942 2969 2990
8 2990 2969 2989 3003 2972 2945 2971 2991
8 2978 2953 2977 2995 2993 2974 2992 3004
8 2979 2954 2978 2996 2994 2975 2993 3005
8 2980 2957 2981 2997 2996 2978 2995 3006
8 2974 2993 2999 2983 2992 3004 3007 2998
8 2983 2999 2987 2965 2998 3007 3001 2986
8 3000 2984 2999 3008 2988 2966 2987 3002
8 2994 2975 2993 3005 3000 2984 2999 3008
8 3002 2987 3001 3009 2990 2969 2989 3003
8 2996 2978 2995 3006 3005 2993 3004 3010
8 3005 2993 3004 3010 3008 2999 3007 3011
8 3008 2999 3007 3011 3002 2987 3001 3009

CELL_TYPES 1910
12
12
12
12
12
12
12
12
12
12
12
12
12
12
12
12
12
12
12
12
12
12
12
12
12
12
12
12
12
12
12
12
12
12
12
12
12
12
12
12
12
12
12
12
12
12
12
12
12
12
12
12
12
12
12
12
12
12
12
12
12
12
12
12
12
12
12
12
12
12
12
12
12
12
12
12
12
12
12
12
12
12
12
12
12
12
12
12
12
12
12
12
12
12
12
12
12
12
12
12
12
12
12
12
12
12
12
12
12
12
12
12
12
12
12
12
12
12
12
12
12
12
12
12
12
12
12
12
12
12
12
12
12
12
12
12
12
12
12
12
12
12
12
12
12
12
12
12
12
12
12
12
12
12
12
12
12
12
12
12
12
12
12
12
12
12
12
12
12
12
12
12
12
12
12
12
12
12
12
12
12
12
12
12
12
12
12
12
12
12
12
12
12
12
12
12
12
12
12
12
12
12
12
12
12
12
12
12
12
12
12
12
12
12
12
12
12
12
12
12
12
12
12
12
12
12
12
12
12
12
12
12
12
12
12
12
12
12
12
12
12
12
12
12
12
12
12
12
12
12
12
12
12
12
12
12
12
12
12
12
12
12
12
12
12
12
12
12
12
12
12
12
12
12
12
12
12
12
12
12
12
12
12
12
12
12
12
12
12
12
12
12
12
12
12
12
12
12
12
12
12
12
12
12
12
12
12
12
12
12
12
12
12
12
12
12
12
12
12
12
12
12
12
12
12
12
12
12
12
12
12
12
12
12
12
12
12
12
12
12
12
12
12
12
12
12
12
12
12
12
12
12
12
12
12
12
12
12
12
12
12
12
12
12
12
12
12
12
12
12
12
12
12
12
12
12
12
12
12
12
12
12
12
12
12
12
12
12
12
12
12
12
12
12
12
12
12
12
12
12
12
12
12
12
12
12
12
12
12
12
12
12
12
12
12
12
12
12
12
12
12
12
12
12
12
12
12
12
12
12
12
12
12
12
12
12
12
12
12
12
12
12
12
12
12
12
12
12
12
12
12
12
12
12
12
12
12
12
12
12
12
12
12
12
12
12
12
12
12
12
12
12
12
12
12
12
12
12
12
12
12
12
12
12
12
12
12
12
12
12
12
12
12
12
12
12
12
12
12
12
12
12
12
12
12
12
12
12
12
12
12
12
12
12
12
12
12
12
12
12
12
12
12
12
12
12
12
12
12
12
12
12
12
12
12
12
12
12
12
12
12
12
12
12
12
12
12
12
12
12
12
12
12
12
12
12
12
12
12
12
12
12
12
12
12
12
12
12
12
12
12
12
12
12
12
12
12
12
12
12
12
12
12
12
12
12
12
12
12
12
12
12
12
12
12
12
12
12
12
12
12
12
12
12
12
12
12
12
12
12
12
12
12
12
12
12
12
12
12
12
12
12
12
12
12
12
12
12
12
12
12
12
12
12
12
12
12
12
12
12
12
12
12
12
12
12
12
12
12
12
12
12
12
12
12
12
12
12
12
12
12
12
12
12
12
12
12
12
12
12
12
12
12
12
12
12
12
12
12
12
12
12
12
12
12
12
12
12
12
12
12
12
12
12
12
12
12
12
12
12
12
12
12
12
12
12
12
12
12
12
12
12
12
12
12
12
12
12
12
12
12
12
12
12
12
12
12
12
12
12
12
12
12
12
12
12
12
12
12
12
12
12
12
12
12
12
12
12
12
12
12
12
12
12
12
12
12
12
12
12
12
12
12
12
12
12
12
12
12
12
12
12
12
12
12
12
12
12
12
12
12
12
12
12
12
12
12
12
12
12
12
12
12
12
12
12
12
12
12
12
12
12
12
12
12
12
12
12
12
12
12
12
12
12
12
12
12
12
12
12
12
12
12
12
12
12
12
12
12
12
12
12
12
12
12
12
12
12
12
12
12
12
12
12
12
12
12
12
12
12
12
12
12
12
12
12
12
12
12
12
12
12
12
12
12
12
12
12
12
12
12
12
12
12
12
12
12
12
12
12
12
12
12
12
12
12
12
12
12
12
12
12
12
12
12
12
12
12
12
12
12
12
12
12
12
12
12
12
12
12
12
12
12
12
12
12
12
12
12
12
12
12
12
12
12
12
12
12
12
12
12
12
12
12
12
12
12
12
12
12
12
12
12
12
12
12
12
12
12
12
12
12
12
12
12
12
12
12
12
12
12
12
12
12
12
12
12
12
12
12
12
12
12
12
12
12
12
12
12
12
12
12
12
12
12
12
12
12
12
12
12
12
12
12
12
12
12
12
12
12
12
12
12
12
12
12
12
12
12
12
12
12
12
12
12
12
12
12
12
12
12
12
12
12
12
12
12
12
12
12
12
12
12
12
12
12
12
12
12
12
12
12
12
12
12
12
12
12
12
12
12
12
12
12
12
12
12
12
12
12
12
12
12
12
12
12
12
12
12
12
12
12
12
12
12
12
12
12
12
12
12
12
12
12
12
12
12
12
12
12
12
12
12
12
12
12
12
12
12
12
12
12
12
12
12
12
12
12
12
12
12
12
12
12
12
12
12
12
12
12
12
12
12
12
12
12
12
12
12
12
12
12
12
12
12
12
12
12
12
12
12
12
12
12
12
12
12
12
12
12
12
12
12
12
12
12
12
12
12
12
12
12
12
12
12
12
12
12
12
12
12
12
12
12
12
12
12
12
12
12
12
12
12
12
12
12
12
12
12
12
12
12
12
12
12
12
12
12
12
12
12
12
12
12
12
12
12
12
12
12
12
12
12
12
12
12
12
12
12
12
12
12
12
12
12
12
12
12
12
12
12
12
12
12
12
12
12
12
12
12
12
12
12
12
12
12
12
12
12
12
12
12
12
12
12
12
12
12
12
12
12
12
12
12
12
12
12
12
12
12
12
12
12
12
12
12
12
12
12
12
12
12
12
12
12
12
12
12
12
12
12
12
12
12
12
12
12
12
12
12
12
12
12
12
12
12
12
12
12
12
12
12
12
12
12
12
12
12
12
12
12
12
12
12
12
12
12
12
12
12
12
12
12
12
12
12
12
12
12
12
12
12
12
12
12
12
12
12
12
12
12
12
12
12
12
12
12
12
12
12
12
12
12
12
12
12
12
12
12
12
12
12
12
12
12
12
12
12
12
12
12
12
12
12
12
12
12
12
12
12
12
12
12
12
12
12
12
12
12
12
12
12
12
12
12
12
12
12
12
12
12
12
12
12
12
12
12
12
12
12
12
12
12
12
12
12
12
12
12
12
12
12
12
12
12
12
12
12
12
12
12
12
12
12
12
12
12
12
12
12
12
12
12
12
12
12
12
12
12
12
12
12
12
12
12
12
12
12
12
12
12
12
12
12
12
12
12
12
12
12
12
12
12
12
12
12
12
12
12
12
12
12
12
12
12
12
12
12
12
12
12
12
12
12
12
12
12
12
12
12
12
12
12
12
12
12
12
12
12
12
12
12
12
12
12
12
12
12
12
12
12
12
12
12
12
12
12
12
12
12
12
12
12
12
12
12
12
12
12
12
12
12
12
12
12
12
12
12
12
12
12
12
12
12
12
12
12
12
12
12
12
12
12
12
12
12
12
12
12
12
12
12
12
12
12
12
12
12
12
12
12
12
12
12
12
12
12
12
12
12
12
12
12
12
12
12
12
12
12
12
12
12
12
12
12
12
12
12
12
12
12
12
12
12
12
12
12
12
12
12
12
12
12
12
12
12
12
12
12
12
12
12
12
12
12
12
12
12
12
12
12
12
12
12
12
12
12
12
12
12
12
12
12
12
12
12
12
12
12
12
12
12
12
12
12
12
12
12
12
12
12
12
12
12
12
12
12
12
12
12
12
12
12
12
12
12
12
12
12
12
12
12
12
12
12
12
12
12
12
12
12
12
12
12
12
12
12
12
12
12
12
12
12
12
12
12
12
12
12
12
12
12
12
12
12
12
12
12
12
12
12
12
12
12
12
12
12
12
12
12
12
12
12
12
12
12
12
12
12
12
12
12
12
12
12
12
12
12
12
12
12
12
12
12
12
12
12
12
12
12
12
12
12
12
12
12
12
12
12
12
12
12
12
12
12
12
12
12
12
12
12
12
12
12
12
12
12
12
12
12
12
12
12
12
12
12
12
12
12
12
12
12
12
12
12
12
12
12
12
12
12
12
12
12
12
12
12
12
12
12
12
12
12
12
12
12
12
12
12
12
12
12
12
12
12
12
12
12
12
12
12
12
12
12
12
12
12
12
12
12
12
12
12
12
12
12
12
12
12
12
12
12
12
12
12
12
12
12
12
12
12
12
12
12
12
12
12
12
12
12
12
12
12
12
12
12
12
12
12
12

POINT_DATA 3012
SCALARS Jp_lamdaP float 4
LOOKUP_TABLE default
0.999914 1 1 0.999914
1 1 1 1
0.999918 1 1 0.999918
0.999881 1 1 0.999881
0.999912 1 1 0.999912
0.999916 1 1 0.999916
0.99951 1 1 0.99951
1 1 1 1
1 1 1 1
1 1 1 1
0.999979 1 1 0.999979
0.999681 1 1 0.999681
0.99984 1 1 0.99984
0.999872 1 1 0.999872
0.999917 1 1 0.999917
0.999891 1 1 0.999891
0.99992 1 1 0.99992
0.999918 1 1 0.999918
0.999513 1 1 0.999513
1 1 1 1
0.999865 1 1 0.999865
0.999899 1 1 0.999899
0.999388 1 1 0.999388
0.999478 1 1 0.999478
0.99994 1 1 0.99994
0.999551 1 1 0.999551
0.998861 1 1 0.998861
1 1 1 1
0.999947 1 1 0.999947
0.99996 1 1 0.99996
1 1 1 1
0.99969 1 1 0.99969
0.99989 1 1 0.99989
0.999912 1 1 0.999912
0.999572 1 1 0.999572
1 1 1 1
0.999663 1 1 0.999663
0.999766 1 1 0.999766
0.998943 1 1 0.998943
1 1 1 1
1 1 1 1
0.999934 1 1 0.999934
1 1 1 1
0.999861 1 1 0.999861
0.999324 1 1 0.999324
1 1 1 1
0.999489 1 1 0.999489
0.9999 1 1 0.9999
0.999921 1 1 0.999921
0.999923 1 1 0.999923
0.999518 1 1 0.999518
0.999919 1 1 0.999919
0.999876 1 1 0.999876
0.999947 1 1 0.999947
0.999908 1 1 0.999908
0.999389 1 1 0.999389
0.999555 1 1 0.999555
0.999481 1 1 0.999481
0.998847 1 1 0.998847
1 1 1 1
0.99985 1 1 0.99985
0.999447 1 1 0.999447
0.999356 1 1 0.999356
0.999433 1 1 0.999433
0.998573 1 1 0.998573
0.998708 1 1 0.998708
0.999978 1 1 0.999978
0.999665 1 1 0.999665
0.998971 1 1 0.998971
0.999075 1.00084 1 0.998241
1 1 1 1
1 1 1 1
1 1 1 1
0.999698 1 1 0.999698
1 1 1 1
1 1 1 1
0.999525 1 1 0.999525
0.999998 1 1 0.999998
0.999632 1 1 0.999632
0.999795 1 1 0.999795
0.998941 1 1 0.998941
1 1 1 1
0.999985 1 1 0.999985
0.999472 1 1 0.999472
0.999562 1 1 0.999562
0.998543 1 1 0.998543
0.999879 1 1 0.999879
0.998842 1 1 0.998842
0.999064 1 1 0.999064
0.998493 1 1 0.998493
1 1 1 1
1 1 1 1
1 1 1 1
1 1 1 1
1 1 1 1
0.999927 1 1 0.999927
0.999383 1 1 0.999383
0.999938 1 1 0.999938
0.99946 1 1 0.99946
1 1 1 1
0.999301 1 1 0.999301
0.999458 1 1 0.999458
0.998228 1 1 0.998228
0.999519 1 1 0.999519
0.998334 1 1 0.998329
0.999855 1 1 0.999855
0.999885 1 1 0.999885
0.999955 1 1 0.999955
0.999915 1 1 0.999915
0.999391 1 1 0.999391
0.999485 1 1 0.999485
0.999561 1 1 0.999561
0.998833 1 1 0.998833
1 1 1 1
0.999861 1 1 0.999861
0.999326 1 1 0.999326
0.999356 1 1 0.999356
0.999989 1 1 0.999989
0.999707 1 1 0.999707
0.999435 1 1 0.999435
0.998537 1 1 0.998537
0.998952 1 1 0.998952
0.998733 1 1 0.998733
0.999316 1.00107 1 0.998244
0.999321 1 1 0.999321
0.99933 1 1 0.99933
0.99836 1 1 0.99836
0.998465 1 1 0.998465
0.998594 1 1 0.998594
1.00229 1.00429 1 0.998009
1 1 1 1
0.999913 1.00175 1 0.998164
0.999849 1 1 0.999849
0.999037 1 1 0.999037
0.99869 1.00037 1 0.998319
1.00381 1.00581 1 0.998007
0.999944 1 1 0.999944
0.999431 1 1 0.999431
1 1 1 1
1 1 1 1
0.999531 1 1 0.999531
1 1 1 1
0.999805 1 1 0.999805
0.999636 1 1 0.999636
0.998938 1 1 0.998938
1 1 1 1
0.99999 1 1 0.99999
0.999511 1 1 0.999511
0.999599 1 1 0.999599
0.998545 1 1 0.998545
0.999898 1 1 0.999898
0.998845 1 1 0.998845
0.999064 1 1 0.999064
0.998479 1 1 0.998479
0.999947 1 1 0.999947
0.999999 1 1 0.999999
0.999567 1 1 0.999567
0.998433 1 1 0.998433
0.998697 1 1 0.998697
1.00174 1.0037 1 0.998046
0.999226 1 1 0.999226
0.998777 1.0004 1 0.998378
0.999109 1 1.00052 0.998587
0.998358 1.00002 1 0.998336
1 1 1 1
1 1 1 1
1 1 1 1
0.99997 1 1 0.99997
1 1 1 1
1 1 1 1
1 1 1 1
0.999429 1 1 0.999429
0.999346 1 1 0.999346
1 1 1 1
1 1 1 1
0.999303 1 1 0.999303
0.999429 1 1 0.999429
0.998229 1 1 0.998229
0.999455 1 1 0.999455
0.998334 1 1 0.998329
0.999291 1 1 0.999291
0.998172 1 1 0.998172
0.99829 1 1 0.998289
1.00518 1.0074 1 0.997791
0.998368 1 1 0.998368
1.00448 1.00661 1 0.997884
1 1 1 1
0.999873 1 1 0.999873
0.999195 1 1 0.999195
0.999357 1 1 0.999357
1 1 1 1
0.99975 1 1 0.99975
0.999439 1 1 0.999439
0.998502 1 1 0.998502
0.998758 1 1 0.998758
0.998932 1 1 0.998932
0.999564 1.00132 1 0.998247
0.999318 1 1 0.999318
0.99933 1 1 0.99933
0.998285 1 1 0.998285
0.998491 1 1 0.998491
1 1 1 1
0.999837 1 1 0.999837
0.999073 1 1 0.999073
0.998594 1 1 0.998594
1.00231 1.00435 1 0.997971
0.998808 1.0005 1 0.99831
1.00023 1.00204 1 0.998189
1.00354 1.00554 1 0.998012
0.999936 1 1 0.999936
0.999432 1 1 0.999432
0.99819 1 1 0.99819
0.998418 1 1 0.998418
1.00379 1.00592 1 0.997883
1.00269 1.00481 1 0.997886
1.00084 1.00274 1 0.998103
1.01003 1.0122 1 0.997852
0.999906 1 1 0.999906
1.00518 1.00723 1 0.997965
0.999166 1 1 0.999166
0.99877 1.0003 1 0.998467
1.00285 1.00479 1 0.998073
1.00842 1.01047 1 0.99797
0.999318 1 1 0.999318
0.999574 1 1 0.999574
0.998991 1 1.00002 0.998967
0.999488 1 1 0.999488
1 1 1 1
0.999996 1 1 0.999996
0.999586 1 1 0.999586
0.998548 1 1 0.998548
0.999912 1 1 0.999912
0.999064 1 1 0.999064
0.998847 1 1 0.998847
0.998464 1 1 0.998464
0.99996 1 1 0.99996
1 1 1 1
0.99957 1 1 0.99957
0.998433 1 1 0.998433
0.998701 1 1 0.998701
1.00118 1.00315 1 0.998044
0.999228 1 1 0.999228
0.998656 1.00027 1 0.998389
0.998905 1 1.00032 0.998583
0.998471 1.00015 1 0.998324
1 1 1 1
0.999389 1 1 0.999389
0.999738 1 1 0.999738
0.999107 1 1 0.999107
1.00325 1.00531 1 0.997951
1.00008 1.00186 1 0.998219
1.00739 1.00957 1 0.997837
0.999209 1 1.00044 0.998772
1.00051 1.00231 1 0.998211
0.999892 1.00001 1.00158 0.998306
1.00048 1.00229 1 0.998198
0.999918 1 1 0.999918
1 1 1 1
1 1 1 1
1 1 1 1
1 1 1 1
0.999987 1 1 0.999987
1 1 1 1
0.999963 1 1 0.999963
1 1 1 1
0.999456 1 1 0.999456
0.999393 1 1 0.999393
0.998335 1.00001 1 0.998329
0.998235 1.00001 1 0.998229
0.999305 1 1 0.999305
1 1 1 1
0.99929 1 1 0.99929
0.998173 1 1 0.998173
0.998297 1.00001 1 0.998288
1.00511 1.00734 1 0.99779
0.998368 1 1 0.998368
1.00449 1.00662 1 0.997884
0.998161 1 1 0.998161
1.00507 1.00735 1 0.997738
1.00487 1.00704 1 0.997845
1.01667 1.01897 1 0.997743
1.00422 1.00633 1 0.997912
1.01476 1.017 1 0.997798
0.999315 1 1 0.999315
0.999329 1 1 0.999329
0.99821 1 1 0.99821
0.998516 1 1 0.998516
1 1 1 1
0.999825 1 1 0.999825
0.999108 1 1 0.999108
0.998594 1 1 0.998594
1.00233 1.00441 1 0.997933
1.00054 1.00233 1 0.998214
0.998913 1.00061 1 0.998302
1.00333 1.00532 1 0.998016
0.999927 1 1 0.999927
0.999432 1 1 0.999432
0.998167 1 1 0.998167
0.998416 1 1 0.998416
1.00398 1.00612 1 0.997873
1.0029 1.00499 1 0.997925
0.999897 1 1 0.999897
0.999164 1 1 0.999164
0.998758 1.00026 1 0.998499
1.00105 1.00295 1 0.998103
1.01035 1.01253 1 0.997852
1.00248 1.00445 1 0.99804
1.00527 1.00732 1 0.997967
1.0087 1.01076 1 0.997969
0.999321 1 1 0.999321
0.999169 1 1.0002 0.998967
0.999571 1 1 0.999571
1.00435 1.00654 1 0.997822
1.00404 1.00615 1 0.997906
1.01477 1.01707 1 0.99774
1.01217 1.01442 1 0.997786
1.00733 1.00943 1 0.997915
1.0153 1.01741 1 0.997926
0.999254 1 1 0.999254
1.01055 1.01261 1 0.997966
0.998743 1 1 0.998743
0.99914 1.00102 1 0.998118
1.00637 1.00849 1 0.997898
1.01114 1.0131 1 0.99807
0.999689 1 1 0.999689
0.998949 1 1 0.998949
0.99918 1 1.00014 0.999036
0.999031 1 1.00022 0.99881
0.998434 1 1 0.998434
1 1 1 1
0.999972 1 1 0.999972
0.999572 1 1 0.999572
0.998706 1 1 0.998706
1.00062 1.00258 1 0.998043
0.99923 1 1 0.99923
0.998726 1 1.00015 0.99858
0.998476 1.00008 1 0.9984
0.998549 1.00024 1 0.998312
1 1 1 1
0.999389 1 1 0.999389
0.999743 1 1 0.999743
0.999104 1 1 0.999104
1.00282 1.00488 1 0.997948
0.999556 1.00134 1 0.998221
1.00742 1.0096 1 0.997836
0.99911 1 1.00033 0.998776
0.999895 1.00167 1 0.998226
1.00015 1.00013 1.00173 0.998295
1.00004 1.00178 1 0.998268
1 1 1 1
0.999839 1 1 0.999839
0.998953 1 1 0.998953
0.999278 1 1 0.999278
0.999143 1 1.00029 0.998854
1.01003 1.01227 1 0.997788
1.00395 1.00595 1 0.99801
1.01007 1.01228 1 0.997812
1.00044 1 1.00199 0.998445
1.00147 1.00334 1 0.998132
1.00043 1.00154 1.00086 0.998034
0.999906 1 1 0.999906
0.999598 1 1 0.999598
0.999927 1 1 0.999927
0.999921 1 1 0.999921
1 1 1 1
1 1 1 1
1 1 1 1
1 1 1 1
1 1 1 1
0.999997 1 1 0.999997
1 1 1 1
0.999983 1 1 0.999983
1 1 1 1
0.999956 1 1 0.999956
1 1 1 1
0.998368 1 1 0.998368
0.998297 1.00001 1 0.998288
1.00449 1.00662 1 0.997883
1.00502 1.00724 1 0.997789
0.998173 1 1 0.998173
0.999289 1 1 0.999289
0.998161 1 1 0.998161
1.00514 1.00742 1 0.997738
1.00473 1.0069 1 0.997844
1.01688 1.01917 1 0.997747
1.00401 1.00611 1 0.99791
1.01421 1.01645 1 0.997797
1.00487 1.00716 1 0.997726
1.01729 1.01963 1 0.997712
1.01615 1.01841 1 0.997772
1.02166 1.02389 1 0.997829
1.01212 1.01436 1 0.997799
1.0176 1.0197 1 0.997945
0.998145 1 1 0.998145
0.998414 1 1 0.998414
1.00415 1.0063 1 0.997864
1.00311 1.00516 1 0.997963
0.999887 1 1 0.999887
0.999161 1 1 0.999161
0.998755 1.00022 1 0.998531
1.00127 1.00318 1 0.998104
1.01067 1.01284 1 0.997852
1.00537 1.00742 1 0.997969
1.00207 1.00407 1 0.998007
1.00896 1.01101 1 0.997969
0.999323 1 1 0.999323
0.999318 1 1.00035 0.998967
0.999568 1 1 0.999568
1.0045 1.00673 1 0.997788
1.004 1.0061 1 0.997904
1.0146 1.0169 1 0.997741
1.01261 1.01485 1 0.997792
0.999254 1 1 0.999254
0.998736 1 1 0.998736
0.999336 1.00114 1.00003 0.998166
1.00753 1.00963 1 0.997922
1.01459 1.01667 1 0.99795
1.00644 1.00859 1 0.99787
1.01053 1.01259 1 0.997969
1.01052 1.01245 1 0.998088
0.998952 1 1 0.998952
0.99906 1 1.00027 0.998793
0.999685 1 1 0.999685
0.99925 1 1.00019 0.999056
1.01533 1.01768 1 0.997691
1.01496 1.01722 1 0.997775
1.02049 1.02278 1 0.99776
1.01669 1.01882 1 0.997904
1.01311 1.01517 1 0.997973
1.01572 1.0177 1 0.998053
0.998901 1 1 0.998901
1.01151 1.01339 1 0.998147
0.998437 1 1 0.998437
1.00154 1.00348 1.00018 0.997892
1.00916 1.01136 1 0.997819
1.0107 1.01262 1 0.998112
0.999758 1 1 0.999758
0.999176 1 1 0.999176
0.998797 1 1 0.998797
0.999575 1 1.00074 0.998835
0.998912 1 1.00016 0.998753
1 1 1 1
1.00234 1.0044 1 0.997945
0.999749 1 1 0.999749
0.999389 1 1 0.999389
0.999102 1 1 0.999102
0.99913 1.00091 1 0.998223
1.00743 1.00962 1 0.997835
0.998985 1 1.00021 0.998779
1.0005 1.00028 1.00193 0.998284
0.999396 1.00116 1 0.99824
0.999693 1.00136 1 0.998337
1 1 1 1
0.999845 1 1 0.999845
0.998954 1 1 0.998954
0.999279 1 1 0.999279
0.999211 1 1.00038 0.998834
1.01029 1.01253 1 0.997784
1.00359 1.00559 1 0.99801
1.01002 1.01225 1 0.997804
1.00058 1 1.00213 0.99845
1.00237 1.00423 1 0.998147
1.00052 1.00151 1.00096 0.998054
0.999884 1 1 0.999884
0.999428 1 1 0.999428
0.99914 1 1.00048 0.998664
0.99931 1 1.00032 0.998994
0.99942 1 1.00071 0.998708
1.01252 1.01473 1 0.997817
1.00587 1.00794 1 0.997949
1.00997 1.01204 1 0.997959
1.00199 1 1.00379 0.998205
1.0014 1.0035 1 0.997908
0.999909 1 1 0.999909
0.999535 1 1 0.999535
0.999579 1 1 0.999579
0.999396 1 1 0.999396
0.999605 1 1 0.999605
0.999929 1 1 0.999929
0.999928 1 1 0.999928
1 1 1 1
0.999923 1 1 0.999923
1 1 1 1
1 1 1 1
1 1 1 1
1 1 1 1
1 1 1 1
1 1 1 1
0.999995 1 1 0.999995
1 1 1 1
1 1 1 1
0.999978 1 1 0.999978
1 1 1 1
1.00381 1.00591 1 0.997908
1.00461 1.00678 1 0.997844
1.01368 1.01591 1 0.997797
1.01709 1.01939 1 0.997751
1.00522 1.0075 1 0.997738
0.998161 1 1 0.998161
1.00493 1.00722 1 0.997726
1.01726 1.0196 1 0.997705
1.01598 1.01825 1 0.997772
1.02132 1.02352 1 0.997847
1.01235 1.01459 1 0.997795
1.01782 1.0199 1 0.997956
1.01622 1.01859 1 0.99768
1.02079 1.02306 1 0.99778
1.01976 1.02189 1 0.997914
1.02063 1.02293 0.999815 0.997931
1.01555 1.01768 1 0.997901
1.0189 1.02085 1 0.998085
1.00469 1.00695 1 0.997755
1.00395 1.00606 1 0.997903
1.01446 1.01676 1 0.997741
1.01307 1.0153 1 0.997798
0.999255 1 1 0.999255
0.99873 1 1 0.99873
0.999612 1.00122 1.00018 0.998214
1.00774 1.00984 1 0.997928
1.01388 1.01594 1 0.997973
1.0105 1.01255 1 0.997971
1.00651 1.00869 1 0.997843
1.00986 1.01177 1 0.998105
0.998956 1 1 0.998956
0.99902 1 1.00024 0.998775
0.999681 1 1 0.999681
0.9992 1 1.00012 0.999076
1.01528 1.01763 1 0.997692
1.01482 1.01709 1 0.997767
1.02044 1.02271 1 0.997771
1.01604 1.01819 1 0.997895
0.998897 1 1 0.998897
0.998509 1 1.00003 0.998478
1.00183 1.00356 1.00039 0.997886
1.0128 1.01488 1 0.997953
1.01593 1.01787 1 0.998095
1.00887 1.01109 1 0.997808
1.01127 1.01315 1 0.998149
1.01153 1.01341 1 0.998147
0.998797 1 1 0.998797
0.998783 1 1.00003 0.998752
0.999788 1 1.00096 0.99883
0.999729 1 1 0.999729
0.999194 1 1 0.999194
1.02103 1.02333 1 0.997753
1.01998 1.02222 1 0.997813
1.01681 1.0188 1 0.998051
1.01364 1.01554 1 0.998137
0.998721 1 1 0.998721
1.01299 1.01474 1 0.99827
0.998537 1 1.00029 0.998249
1.00496 1.0068 1.00051 0.99766
1.00976 1.01201 1 0.997776
0.999762 1 1 0.999762
0.99935 1 1 0.99935
0.9993 1 1.00032 0.99898
0.99876 1 1 0.99876
1.00048 1 1.0018 0.998678
0.9987 1 1 0.9987
1 1 1 1
0.999851 1 1 0.999851
1.0106 1.01285 1 0.99778
0.99928 1 1 0.99928
0.998955 1 1 0.998955
0.999325 1 1.00051 0.998814
1.0031 1.0051 1 0.998011
1.00989 1.01212 1 0.997796
1.00074 1 1.00229 0.998454
1.00026 1.00142 1.00077 0.998074
1.00318 1.00502 1 0.998163
0.999888 1 1 0.999888
0.99943 1 1 0.99943
0.999084 1 1.00041 0.998671
0.999399 1 1.00041 0.998992
0.999669 1 1.00097 0.998696
1.01267 1.01489 1 0.997813
1.00629 1.00837 1 0.997941
1.00985 1.0119 1 0.997981
1.00142 1 1.00324 0.998185
1.00124 1.00331 1.00006 0.997877
0.999519 1 1 0.999519
0.999121 1 1.00001 0.999109
1.00049 1 1.002 0.998497
1.00015 1 1.00142 0.998741
0.99955 1 1.00096 0.998594
1.01564 1.01753 1 0.998149
1.00609 1.00824 1 0.997867
1.00831 1.01033 1 0.998006
1.00307 1.00071 1.00433 0.998037
0.999791 1.00212 1 0.997672
0.999912 1 1 0.999912
0.999551 1 1 0.999551
0.999308 1 1 0.999308
0.999561 1 1 0.999561
0.999605 1 1 0.999605
0.999369 1 1 0.999369
0.999232 1 1 0.999232
0.999352 1 1 0.999352
0.999609 1 1 0.999609
0.999926 1 1 0.999926
0.999929 1 1 0.999929
1 1 1 1
0.999929 1 1 0.999929
1 1 1 1
1 1 1 1
1 1 1 1
1 1 1 1
1 1 1 1
1 1 1 1
0.999999 1 1 0.999999
1 1 1 1
0.999992 1 1 0.999992
1 1 1 1
1 1 1 1
1.01254 1.01478 1 0.997791
1.01582 1.01808 1 0.997772
1.01802 1.0201 1 0.997967
1.021 1.02319 1 0.997865
1.0172 1.01954 1 0.997698
1.00498 1.00727 1 0.997727
1.01631 1.01869 1 0.99767
1.02084 1.02312 1 0.997774
1.0198 1.02195 1 0.997896
1.02028 1.02252 0.999866 0.99794
1.01498 1.01711 1 0.997901
1.01847 1.02039 1 0.998115
1.02004 1.02235 1 0.997743
1.0215 1.02395 0.999701 0.997907
1.02093 1.02304 0.999889 0.998046
1.01722 1.01907 1 0.998186
1.01518 1.01753 1 0.997693
1.01465 1.01693 1 0.997758
1.02036 1.02263 1 0.997782
1.01541 1.01756 1 0.997885
0.998894 1 1 0.998894
0.998519 1 1 0.998519
1.00215 1.0037 1.00058 0.99788
1.01246 1.01456 1 0.997934
1.01614 1.01804 1 0.998136
1.01112 1.01299 1 0.998151
1.00858 1.01081 1 0.997797
1.01227 1.01411 1 0.998183
0.998796 1 1 0.998796
0.998752 1 1 0.998752
1.00023 1 1.00141 0.998826
0.999699 1 1 0.999699
0.999211 1 1 0.999211
1.02087 1.02317 1 0.997757
1.0201 1.02233 1 0.997818
1.01673 1.01876 0.999963 0.998046
0.998716 1 1 0.998716
0.998735 1.00019 1.00026 0.998287
1.00473 1.00633 1.00076 0.99765
1.01404 1.01595 1 0.998127
1.00958 1.01177 1 0.997833
1.01229 1.01405 1 0.998258
0.999769 1 1 0.999769
0.998755 1 1 0.998755
0.998739 1 1 0.998739
1.00043 1 1.00177 0.998667
0.999245 1 1.00026 0.99899
0.999327 1 1 0.999327
1.02115 1.02341 0.999978 0.997815
1.0206 1.02385 0.998869 0.997958
1.01602 1.01826 0.999661 0.998138
1.01761 1.01947 0.999884 0.998294
0.998606 1 1 0.998606
1.01039 1.01239 1 0.998021
1.00002 1.0005 1.00165 0.997878
1.00446 1.00591 1.00104 0.997524
0.99983 1 1 0.99983
0.999446 1 1 0.999446
0.999106 1 1 0.999106
1.00067 1 1.00193 0.998742
0.998682 1 1 0.998682
0.999087 1 1.0005 0.99859
0.999892 1 1 0.999892
0.999432 1 1 0.999432
1.01291 1.01514 1 0.997808
0.999429 1 1.00044 0.998991
0.998947 1 1.00027 0.998678
0.999967 1 1.00128 0.998684
1.00677 1.00886 1 0.997933
1.00988 1.0119 1 0.998003
1.00089 1 1.00273 0.998165
1.00118 1.00307 1.00027 0.997847
0.999521 1 1 0.999521
0.999119 1 1 0.999119
1.00049 1 1.00198 0.998515
1.00047 1 1.00172 0.998745
0.99911 1 1.00048 0.998635
1.01564 1.0175 1 0.998171
1.00578 1.00793 1 0.997868
1.00903 1.01097 1 0.998081
1.00307 1.00048 1.00458 0.998013
1.00031 1.00265 1.00003 0.997634
0.999249 1 1 0.999249
0.998912 1 1.00007 0.998837
1.00214 1 1.00378 0.998364
0.999872 1 1.00138 0.998498
1.02024 1.02381 0.998185 0.998325
1.01354 1.01544 0.999872 0.998262
1.00448 1.00681 1 0.997688
1.00294 1.00101 1.00426 0.997677
0.999566 1 1 0.999566
0.99932 1 1 0.99932
0.999176 1 1 0.999176
0.999605 1 1 0.999605
0.999341 1 1 0.999341
0.999609 1 1 0.999609
0.999213 1 1 0.999213
0.999362 1 1 0.999362
0.999106 1 1 0.999106
0.999199 1 1 0.999199
0.999346 1 1 0.999346
0.9996 1 1 0.9996
0.999921 1 1 0.999921
0.999925 1 1 0.999925
1 1 1 1
0.999929 1 1 0.999929
1 1 1 1
1 1 1 1
1 1 1 1
1 1 1 1
1 1 1 1
1 1 1 1
1 1 1 1
1 1 1 1
0.999999 1 1 0.999999
1 1 1 1
1 1 1 1
1.01441 1.01655 1 0.997901
1.01982 1.02199 1 0.997877
1.01803 1.01992 1 0.998145
1.01989 1.02207 0.999911 0.99795
1.02088 1.02316 1 0.997768
1.01643 1.01881 1 0.99766
1.01995 1.02225 1 0.997748
1.0205 1.02297 0.99969 0.997901
1.02072 1.02291 0.99981 0.998048
1.01856 1.02042 1 0.998185
1.02133 1.02371 0.999817 0.997855
1.02362 1.02785 0.997801 0.998076
1.02303 1.02549 0.99941 0.998187
1.02073 1.02302 1 0.99776
1.02022 1.02244 1 0.997823
1.01662 1.01868 0.999937 0.998041
0.99871 1 1 0.99871
0.998882 1.00038 1.00018 0.998324
1.00434 1.00587 1.00085 0.997641
1.01437 1.01629 1 0.998116
1.01172 1.0135 1 0.998245
1.00973 1.01186 1 0.99789
0.998751 1 1 0.998751
0.998779 1 1 0.998779
1.00027 1 1.00161 0.998656
0.999776 1 1 0.999776
0.999141 1 1.00014 0.998999
0.999304 1 1 0.999304
1.02186 1.02411 0.999986 0.997819
1.0211 1.02394 0.999264 0.997963
1.01607 1.01823 0.999742 0.998128
0.998597 1 1 0.998597
1.00006 1.00071 1.0014 0.997955
1.00426 1.00582 1.0009 0.997547
1.01758 1.01946 0.999851 0.998307
1.01089 1.0129 1 0.998011
0.99986 1 1 0.99986
0.999446 1 1 0.999446
0.998693 1 1 0.998693
0.999388 1 1.00075 0.998639
1.00066 1 1.00191 0.99875
0.999087 1 1 0.999087
1.02415 1.02779 0.998466 0.997992
1.01683 1.02257 0.996289 0.998092
1.01739 1.0204 0.998726 0.998323
1.01496 1.01665 0.999998 0.99834
0.999304 1 1.00088 0.998421
1.00363 1.00465 1.0014 0.997589
1.00122 1.00089 1.00264 0.997696
0.99993 1 1 0.99993
0.99963 1 1 0.99963
0.999476 1 1 0.999476
0.99916 1 1 0.99916
0.999305 1 1.00043 0.998874
0.999858 1 1.00124 0.998619
0.998715 1 1 0.998715
1.00688 1 1.00814 0.998745
0.999522 1 1 0.999522
0.999129 1 1 0.999129
1.01551 1.01735 1 0.998194
1.00079 1 1.00205 0.998748
1.00068 1 1.00215 0.998532
0.998711 1 1.00004 0.998675
1.00539 1.00753 1 0.997868
1.00973 1.0116 1 0.998154
1.00313 1.00033 1.00482 0.99799
1.00084 1.00326 1 0.997595
0.999236 1 1 0.999236
0.999192 1 1.00035 0.998847
1.00253 1 1.00415 0.998384
0.999611 1 1.00109 0.998521
1.02088 1.02434 0.99829 0.99833
1.01294 1.01478 0.999949 0.998236
1.00533 1.00762 1 0.997726
1.00241 1.001 1.00377 0.997643
0.99907 1 1 0.99907
1.01958 1.02476 0.996624 0.998312
0.999969 1 1.00134 0.99863
1.00083 1 1.00268 0.998162
1.01818 1.02104 0.998775 0.998422
1.0062 1.00843 1 0.99779
1.0041 1.00336 1.00323 0.997513
0.999332 1 1 0.999332
0.999174 1 1 0.999174
0.999051 1 1 0.999051
0.999608 1 1 0.999608
0.999373 1 1 0.999373
0.999194 1 1 0.999194
0.999599 1 1 0.999599
0.999348 1 1 0.999348
0.999089 1 1 0.999089
0.999219 1 1 0.999219
0.999006 1 1 0.999006
0.999076 1 1 0.999076
0.999209 1 1 0.999209
0.999343 1 1 0.999343
0.999581 1 1 0.999581
0.999915 1 1 0.999915
0.99992 1 1 0.99992
1 1 1 1
0.999924 1 1 0.999924
1 1 1 1
1 1 1 1
1 1 1 1
1 1 1 1
1 1 1 1
0.999953 1 1 0.999953
1 1 1 1
1 1 1 1
1 1 1 1
1 1 1 1
1 1 1 1
1 1 1 1
1.01993 1.02178 1 0.998183
1.02056 1.02281 0.999742 0.99805
1.01954 1.02202 0.999683 0.997895
1.01984 1.02214 1 0.997754
1.02138 1.02378 0.999782 0.99787
1.02416 1.02821 0.997993 0.998064
1.02312 1.02573 0.999254 0.998201
1.02384 1.02912 0.996812 0.998046
1.02659 1.03149 0.997051 0.998196
1.01203 1.02233 0.991513 0.998394
1.02255 1.02478 1 0.997824
1.02159 1.02408 0.999599 0.997969
1.01611 1.01824 0.999789 0.998118
0.998644 1 1.00006 0.998587
1.00021 1.00092 1.00126 0.998031
1.00378 1.00545 1.00078 0.99757
1.01768 1.01957 0.99982 0.998319
1.01086 1.01289 1 0.998002
0.998703 1 1 0.998703
0.999742 1 1.00106 0.998687
1.00081 1 1.00205 0.998758
0.999891 1 1 0.999891
0.999446 1 1 0.999446
0.999068 1 1 0.999068
1.02341 1.02732 0.998185 0.998006
0.999926 1 1 0.999926
0.999613 1 1 0.999613
1.01697 1.02199 0.996997 0.998091
1.01817 1.02113 0.998811 0.998291
0.999322 1 1.00084 0.998483
1.00189 1.00093 1.0033 0.997664
1.00375 1.00533 1.00084 0.997594
1.01412 1.01582 1 0.998327
0.999526 1 1 0.999526
0.999157 1 1 0.999157
0.998664 1 1 0.998664
1.00394 1 1.00512 0.998832
1.00014 1 1.00154 0.998603
0.999304 1 1.00042 0.998882
1.02511 1.03031 0.996776 0.998162
1.01148 1.02107 0.992373 0.998228
1.01576 1.0197 0.997611 0.998516
1.00475 1.00685 0.999845 0.998066
1.0008 1 1.00234 0.998457
1.00392 1.00096 1.00547 0.997504
0.999632 1 1 0.999632
0.999582 1 1 0.999582
0.99939 1 1 0.99939
0.999166 1 1 0.999166
0.998987 1 1 0.998987
0.999287 1 1.00062 0.998672
1.01163 1 1.0131 0.998551
0.999994 1 1.00113 0.998862
0.999222 1 1 0.999222
0.999266 1 1.00041 0.998857
1.02161 1.02495 0.998402 0.998336
1.01248 1.0143 1 0.998211
0.999363 1 1.00082 0.998544
1.00281 1 1.00441 0.998403
1.00632 1.00854 1.00004 0.997764
1.00187 1.00091 1.00335 0.997609
0.999064 1 1 0.999064
1.02015 1.02613 0.995832 0.998336
0.999929 1 1.00129 0.998643
1.00082 1 1.00269 0.998137
1.01755 1.02046 0.998746 0.998397
1.00687 1.00907 1 0.997827
1.00372 1.00271 1.00348 0.997524
0.999741 1 1.00091 0.99883
1.01665 1.02524 0.993001 0.99861
0.999867 1 1.00142 0.998451
1.00221 1.00053 1.00379 0.997898
1.00869 1.01352 0.997124 0.998105
1.00174 1.00193 1.00221 0.997601
1.00514 1.00815 0.998314 0.998704
0.999172 1 1 0.999172
0.999051 1 1 0.999049
0.998936 1 1 0.998936
0.999598 1 1 0.999598
0.99935 1 1 0.99935
0.99924 1 1 0.99924
0.999071 1 1 0.999071
0.999581 1 1 0.999581
0.999334 1 1 0.999334
0.998992 1 1 0.998992
0.999209 1 1 0.999209
0.999092 1 1 0.999092
0.998983 1 1 0.998983
0.999097 1 1 0.999097
0.999205 1 1 0.999205
0.999288 1 1 0.999288
0.999526 1 1 0.999526
0.999378 1 1 0.999378
0.999526 1 1 0.999526
0.99991 1 1 0.99991
0.999914 1 1 0.999914
1 1 1 1
0.999919 1 1 0.999919
1 1 1 1
1 1 1 1
1 1 1 1
1 1 1 1
1 1 1 1
0.999967 1 1 0.999967
0.99995 1 1 0.99995
1 1 1 1
1 1 1 1
1 1 1 1
1 1 1 1
1 1 1 1
1 1 1 1
1.02319 1.02595 0.999091 0.998214
1.0247 1.02859 0.998169 0.998052
1.02144 1.02388 0.999739 0.997884
1.02364 1.02886 0.996876 0.998044
1.02522 1.02998 0.997181 0.998193
1.01254 1.02228 0.99207 0.998381
1.02181 1.03048 0.993313 0.998264
1.00452 1.01596 0.990611 0.998109
1.0127 1.02452 0.989671 0.998773
0.999701 1 1 0.999701
1.0227 1.02684 0.997946 0.998021
1.01731 1.02144 0.997858 0.99809
1.01878 1.02174 0.998847 0.99826
0.999364 1 1.00082 0.998544
1.00285 1.00121 1.00402 0.997632
1.00428 1.00624 1.00045 0.997599
1.01328 1.015 1 0.998314
0.998615 1 1 0.998615
1.00097 1 1.00205 0.99892
1.00033 1 1.00175 0.998587
0.999922 1 1 0.999922
0.999294 1 1.0004 0.998891
0.999576 1 1 0.999576
0.999155 1 1 0.999155
0.999595 1 1 0.999595
1.02432 1.03096 0.995377 0.998169
0.999657 1 1 0.999657
0.999581 1 1 0.999581
0.999354 1 1 0.999354
1.01203 1.02094 0.993032 0.998231
1.01535 1.01915 0.997798 0.998469
1.00012 1 1.00164 0.998475
1.00368 1.00062 1.00555 0.997524
1.00432 1.00619 1.00007 0.998067
0.999192 1 1 0.999192
0.99899 1 1.00002 0.998968
1.00192 1 1.00312 0.998803
1.00951 1 1.01094 0.998587
0.99918 1 1.00049 0.998694
1.0154 1.0247 0.992667 0.998246
1.01138 1.02356 0.989736 0.998348
1.00934 1.01269 0.998437 0.998257
1.00468 1.0036 1.00317 0.997919
1.0033 1 1.00484 0.998463
0.999348 1 1 0.999348
0.999251 1 1 0.999251
0.99915 1 1 0.99915
0.998986 1 1 0.998986
0.999063 1 1.00025 0.998818
1.00832 1 1.00974 0.998585
1.01137 1 1.01289 0.998503
0.999058 1 1 0.999058
0.999929 1 1.00127 0.998656
1.02027 1.02736 0.994724 0.99836
1.01674 1.01976 0.998666 0.998372
1.00731 1.00947 1 0.997864
1.00078 1 1.00268 0.998112
1.0031 1.00197 1.0036 0.997535
0.999659 1 1.0008 0.998862
1.01581 1.02502 0.992387 0.998617
0.99965 1 1.00118 0.998474
1.00223 1.00025 1.00408 0.997908
1.00993 1.01407 0.99774 0.998172
1.00224 1.00196 1.00269 0.997588
1.00495 1.00839 0.998252 0.998335
0.999767 1 1.00106 0.998707
1.00494 1.01627 0.990237 0.998601
1.00037 1 1.00194 0.998433
1.00424 1.00003 1.00636 0.997862
1.00354 1.00463 1.00104 0.997877
0.956551 0.978031 0.989223 0.988693
0.981097 0.988375 0.997932 0.994694
0.981243 1.00008 0.982344 0.998801
0.878577 0.915025 0.972308 0.987514
0.848456 0.917432 0.937877 0.986074
0.999047 1 1 0.999047
0.998949 1 1 0.998949
0.998958 1 1 0.998958
0.99958 1 1 0.99958
0.999324 1 1 0.999324
0.999208 1 1 0.999208
0.999108 1 1 0.999108
0.998978 1 1 0.998978
0.999187 1 1 0.999187
0.999546 1 1 0.999546
0.999301 1 1 0.999301
0.998987 1 1 0.998987
0.999097 1 1 0.999097
0.999105 1 1 0.999105
0.999047 1 1 0.999047
0.999137 1 1 0.999137
0.999261 1 1 0.999261
0.999518 1 1 0.999518
0.999322 1 1 0.999322
0.999221 1 1 0.999221
0.999353 1 1 0.999353
0.999351 1 1 0.999351
0.999574 1 1 0.999574
0.999524 1 1 0.999524
0.999906 1 1 0.999906
0.999909 1 1 0.999909
1 1 1 1
0.999914 1 1 0.999914
1 1 1 1
1 1 1 1
1 1 1 1
1 1 1 1
1 1 1 1
0.999973 1 1 0.999973
0.999964 1 1 0.999964
1 1 1 1
0.999947 1 1 0.999947
1 1 1 1
1 1 1 1
1 1 1 1
1 1 1 1
1 1 1 1
1.02389 1.0285 0.997326 0.99819
1.0234 1.02855 0.996946 0.998043
1.01308 1.02211 0.992785 0.998369
1.00454 1.01572 0.990828 0.998145
1.02064 1.02929 0.993323 0.998262
1.01658 1.02623 0.991882 0.998706
1.0224 1.02864 0.995642 0.998287
0.967251 0.984914 0.98808 0.993914
1.01015 1.01935 0.992489 0.998469
0.999711 1 1 0.999711
0.999701 1 1 0.999701
0.999428 1 1 0.999428
0.999456 1 1 0.999456
1.02332 1.03149 0.993892 0.998177
1.01225 1.0205 0.993676 0.998235
1.01509 1.0186 0.998125 0.998422
0.999264 1 1.00077 0.998493
1.00308 1.00019 1.00536 0.997544
1.00394 1.00575 1.00013 0.998068
1.00377 1 1.00504 0.998743
1.00748 1 1.00887 0.998623
0.999053 1 1.00034 0.998715
0.99958 1 1 0.99958
0.998949 1 1 0.998949
0.999219 1 1 0.999219
0.999681 1 1 0.999681
0.999318 1 1 0.999318
1.01353 1.02343 0.992052 0.998261
0.999386 1 1 0.999386
0.999276 1 1 0.999276
0.999164 1 1 0.999164
1.01344 1.02517 0.990182 0.998357
1.00818 1.01186 0.998103 0.998253
1.00314 1 1.0047 0.998455
1.00465 1.00397 1.00277 0.997917
0.999022 1 1.00004 0.998987
0.998885 1 1.00007 0.998812
1.01172 1 1.01324 0.998503
1.00935 1 1.0108 0.998563
1.01123 1.02599 0.987298 0.998295
1.00144 1.01914 0.984276 0.998335
1.005 1.00651 1.00053 0.99797
1.00144 1.00012 1.0029 0.998418
0.999074 1 1 0.999074
0.999105 1 1.00007 0.999035
1.00154 1 1.00276 0.998785
1.02075 1 1.02243 0.998357
0.943156 0.972738 0.98118 0.988187
0.999666 1 1.00077 0.998894
0.999575 1 1.00108 0.998497
1.01483 1.02465 0.991773 0.998625
1.01116 1.01454 0.998432 0.998238
1.00299 1.00212 1.0033 0.997575
1.00238 1 1.00447 0.997919
1.00397 1.00832 0.99772 0.997959
0.999774 1 1.00104 0.998732
1.00408 1.01618 0.98949 0.998587
0.99988 1 1.00144 0.998444
1.00399 1.00003 1.00611 0.997863
1.0037 1.00571 1.0001 0.9979
0.954526 0.97864 0.986716 0.988492
0.976068 0.986494 0.996227 0.993179
0.983096 0.99832 0.985894 0.99884
0.881605 0.91471 0.976203 0.987303
0.832951 0.905601 0.933868 0.984911
0.99951 1 1.00067 0.998845
0.89797 0.929549 0.978377 0.987377
0.88551 0.921988 0.973098 0.986988
0.982223 1.00635 0.977473 0.99852
1.00495 1 1.00645 0.998513
1.01033 1.0021 1.01019 0.998047
0.981005 0.99426 0.98768 0.998976
0.956408 0.972423 0.995388 0.988088
0.964742 0.971316 1.00062 0.99262
0.860114 0.91505 0.95176 0.987606
0.888877 0.948479 0.948672 0.987866
0.998967 1 1 0.998963
0.998952 1 1 0.998952
0.999136 1 1 0.999136
0.999566 1 1 0.999566
0.999314 1 1 0.999314
0.999168 1 1 0.999168
0.999097 1 1 0.999097
0.998991 1 1 0.998991
0.999519 1 1 0.999519
0.999102 1 1 0.999102
0.999155 1 1 0.999155
0.999283 1 1 0.999283
0.999043 1 1 0.999043
0.999059 1 1 0.999059
0.99926 1 1.0002 0.999063
0.999125 1 1 0.999125
0.999295 1 1 0.999295
0.99932 1 1 0.99932
0.999206 1 1 0.999206
0.999171 1 1 0.999171
0.9992 1 1 0.9992
0.999142 1 1 0.999142
0.999083 1 1 0.999083
0.999333 1 1 0.999333
0.999353 1 1 0.999353
0.999579 1 1 0.999579
0.999324 1 1 0.999324
0.999557 1 1 0.999557
0.999905 1 1 0.999905
0.999523 1 1 0.999523
0.999906 1 1 0.999906
1 1 1 1
0.999909 1 1 0.999909
1 1 1 1
1 1 1 1
1 1 1 1
1 1 1 1
1 1 1 1
0.999697 1 1 0.999697
0.999973 1 1 0.999973
0.999972 1 1 0.999972
1 1 1 1
0.999962 1 1 0.999962
1 1 1 1
1 1 1 1
1 1 1 1
1 1 1 1
1 1 1 1
1.00565 1.01579 0.991814 0.998184
1.0198 1.0283 0.993468 0.99826
1.02015 1.02818 0.993548 0.998638
0.967634 0.982493 0.990111 0.994712
1.0105 1.01907 0.993036 0.998541
1.02409 1.03101 0.995015 0.998258
1.01676 1.02345 0.995152 0.9983
0.973274 0.984884 0.992976 0.995203
0.956371 0.977051 0.991283 0.987442
0.859012 0.906544 0.960515 0.98652
0.832397 0.895241 0.943223 0.985772
0.999416 1 1 0.999416
0.99971 1 1 0.99971
0.9997 1 1 0.9997
0.999416 1 1 0.999416
0.999241 1 1 0.999241
0.999278 1 1 0.999278
0.99942 1 1 0.99942
0.999438 1 1 0.999438
1.01203 1.02253 0.991445 0.998275
1.01585 1.02745 0.990331 0.998365
1.00697 1.011 0.997765 0.99825
1.00332 1 1.00488 0.998448
1.00475 1.00412 1.00272 0.997915
1.01182 1 1.01333 0.998504
1.01047 1 1.01195 0.998541
0.998806 1 1 0.998806
0.999301 1 1 0.999301
0.998988 1 1 0.998988
0.999425 1 1 0.999425
0.999178 1 1 0.999178
1.01194 1.02621 0.987801 0.998275
0.999096 1 1 0.999096
0.999045 1 1 0.999045
1.00273 1.01833 0.986342 0.998316
1.00446 1.0066 0.999809 0.998067
1.00331 1.00041 1.00454 0.998364
1.00283 1 1.00408 0.998757
1.0183 1 1.01996 0.998364
1.0108 1.02368 0.989148 0.998256
0.984547 1.00572 0.980575 0.998345
0.999073 1.00019 1.00056 0.998318
1.00744 1 1.00901 0.99844
0.998951 1 1 0.998951
1.00072 1 1.00188 0.998841
1.01588 1 1.01735 0.998551
0.886368 0.932426 0.962399 0.987743
0.952415 0.974753 0.987707 0.989244
0.999607 1 1.00085 0.998756
0.99952 1 1.00107 0.998455
1.0044 1.01656 0.989454 0.998574
1.00392 1.00698 0.999034 0.997923
1.00356 1 1.00571 0.997865
0.954037 0.976573 0.989364 0.987426
0.978247 0.989523 0.994692 0.99388
0.98557 0.997175 0.989474 0.998877
0.875632 0.915451 0.968906 0.987199
0.8185 0.893094 0.931625 0.983739
0.999248 1 1.0004 0.998846
0.891177 0.932432 0.967592 0.987767
0.882251 0.917471 0.974746 0.986525
0.984652 1.00713 0.979143 0.998509
1.0045 1 1.00598 0.998532
1.00943 1.00107 1.01023 0.998147
0.973302 0.990317 0.983768 0.999035
0.960413 0.977743 0.994952 0.987258
0.967433 0.97522 0.997918 0.994085
0.862092 0.909887 0.96048 0.986455
0.888349 0.949233 0.947842 0.987358
1.00108 1 1.00206 0.999023
0.907641 0.927678 0.989923 0.988361
0.96295 0.974002 0.996873 0.991754
0.988939 1.00075 0.989257 0.998934
1.01162 1.00089 1.01181 0.99892
0.991935 0.985026 1.00772 0.999301
0.954691 0.966683 0.99238 0.995178
0.951919 0.961957 1.00241 0.987189
0.881291 0.929683 0.960761 0.986663
0.91632 0.96745 0.956989 0.989719
0.998946 1 1 0.998946
0.999116 1 1 0.999116
0.999726 1 1.00042 0.999305
0.999519 1 1 0.999519
0.999304 1 1 0.999304
0.999173 1 1 0.999173
0.999099 1 1 0.999099
0.999039 1 1 0.999039
0.999294 1 1 0.999294
0.999068 1 1 0.999068
0.999125 1 1 0.999125
0.999325 1 1.00024 0.99908
1.00087 1 1.00164 0.999237
0.999133 1 1.00009 0.999046
0.999126 1 1 0.999126
0.999318 1 1 0.999318
0.999192 1 1 0.999192
0.999171 1 1 0.999171
0.999198 1 1 0.999198
0.999144 1 1 0.999144
0.99916 1 1 0.99916
0.999114 1 1 0.999114
0.999122 1 1 0.999122
0.99893 1 1 0.99893
0.999484 1 1.00081 0.998672
0.998974 1 1 0.998974
0.99908 1 1 0.99908
0.999287 1 1 0.999287
0.999332 1 1 0.999332
0.999572 1 1 0.999572
0.999353 1 1 0.999353
0.999579 1 1 0.999579
0.999905 1 1 0.999905
0.99954 1 1 0.99954
0.999905 1 1 0.999905
1 1 1 1
0.999906 1 1 0.999906
1 1 1 1
1 1 1 1
1 1 1 1
1 1 1 1
1 1 1 1
0.999715 1 1 0.999715
0.999967 1 1 0.999967
0.999697 1 1 0.999697
1 1 1 1
0.999974 1 1 0.999974
0.99997 1 1 0.99997
1 1 1 1
1 1 1 1
1 1 1 1
1 1 1 1
1 1 1 1
0.887309 0.923535 0.972811 0.987628
0.89068 0.923394 0.976724 0.987558
0.969551 0.984697 0.989354 0.995214
1.01189 1.01871 0.994686 0.998613
1.02571 1.03302 0.994686 0.998229
0.96932 0.980503 0.992165 0.996402
1.01678 1.02318 0.995403 0.998334
0.959108 0.979582 0.990285 0.988705
0.873249 0.912556 0.969255 0.987281
0.822894 0.892858 0.93607 0.984584
0.991935 0.999288 0.995222 0.997407
0.956355 0.972409 0.994938 0.988495
0.852723 0.909843 0.949243 0.987334
0.886526 0.94267 0.952997 0.986826
0.999173 1 1 0.999173
0.999433 1 1 0.999433
0.99971 1 1 0.99971
0.999404 1 1 0.999404
0.999264 1 1 0.999264
0.999201 1 1 0.999201
0.999278 1 1 0.999278
0.999313 1 1 0.999313
0.999398 1 1 0.999398
0.999419 1 1 0.999419
1.01223 1.02603 0.988269 0.998257
1.00306 1.01666 0.988301 0.998298
1.00397 1.00683 0.998995 0.998164
1.00486 1.0007 1.00586 0.998311
1.01535 1 1.01701 0.998371
1.00409 1 1.00536 0.99873
0.999056 1 1 0.999056
0.999118 1 1 0.999118
1.00953 1.02385 0.987739 0.998254
0.998941 1 1 0.998941
1.00066 1 1.00185 0.998816
0.985772 1.00481 0.98275 0.998278
0.999338 1.00018 1.00073 0.998434
1.00777 1 1.00944 0.998351
1.01376 1 1.01525 0.998529
1.00074 1.00623 0.996003 0.998536
0.989303 1 0.990403 0.998889
1.01286 1 1.01436 0.998517
0.998959 1 1.00003 0.998927
0.999496 1 1.00071 0.998789
1.00796 1 1.00934 0.998636
0.911932 0.932697 0.987822 0.98979
0.894154 0.932029 0.97165 0.987355
0.948309 0.976264 0.982987 0.988178
0.998847 1 1 0.998847
1.00409 1 1.00554 0.998552
0.987346 1.00765 0.981321 0.998499
1.00866 1 1.01043 0.998246
0.886406 0.928778 0.966727 0.987228
0.958992 0.975447 0.994181 0.988885
0.964368 0.976037 0.995322 0.992687
0.969789 0.987065 0.983386 0.999096
0.864252 0.910592 0.961611 0.987001
0.884109 0.921261 0.972907 0.986397
0.881853 0.945705 0.944539 0.987236
1.00166 1 1.00264 0.999027
0.90851 0.930766 0.98725 0.988694
0.966154 0.976535 0.997645 0.991705
0.991122 1.00037 0.991754 0.99899
1.0111 1.00017 1.01203 0.998905
0.990889 0.985538 1.00636 0.99908
0.95565 0.967066 0.994706 0.993455
0.953346 0.966625 0.998594 0.987651
0.887503 0.937064 0.959035 0.987566
0.907881 0.960215 0.955442 0.989592
1.0023 0.999757 1.00306 0.999481
0.965075 0.976293 0.994833 0.993643
0.958109 0.968673 0.994778 0.994286
1.00739 0.994414 1.01334 0.999715
0.972618 0.97127 1.00426 0.997142
0.959488 0.963794 1.00858 0.987059
0.921818 0.954434 0.977764 0.987791
0.924217 0.978222 0.955135 0.989172
0.999095 1 1 0.999095
0.999661 1 1.00036 0.999306
1.00471 1 1.00527 0.999443
0.999293 1 1 0.999293
0.999124 1 1 0.999124
0.999077 1 1 0.999077
0.999379 1 1.00028 0.999098
0.999125 1 1 0.999125
0.999075 1 1.00003 0.999044
1.00261 1 1.00334 0.999269
1.00555 0.998592 1.00752 0.999446
1.00172 1 1.00254 0.999176
0.999065 1 1 0.999065
0.99917 1 1 0.99917
0.999195 1 1 0.999195
0.999146 1 1 0.999146
0.999118 1 1 0.999118
0.999158 1 1 0.999158
0.999127 1 1 0.999127
0.999064 1 1 0.999064
0.999181 1 1 0.999181
0.998943 1 1 0.998943
0.99895 1 1 0.99895
0.999448 1 1.00069 0.998754
0.999845 1 1.00148 0.998371
0.998948 1 1.00004 0.998905
0.999432 1 1.00069 0.998743
0.999003 1 1 0.999003
0.999177 1 1 0.999177
0.999077 1 1 0.999077
0.999285 1 1 0.999285
0.999545 1 1 0.999545
0.99933 1 1 0.99933
0.999571 1 1 0.999571
0.999903 1 1 0.999903
0.999579 1 1 0.999579
0.999904 1 1 0.999904
1 1 1 1
0.999905 1 1 0.999905
1 1 1 1
1 1 1 1
1 1 1 1
1 1 1 1
1 1 1 1
0.999618 1 1 0.999618
0.999959 1 1 0.999959
0.999673 1 1 0.999673
1 1 1 1
0.999969 1 1 0.999969
0.999697 1 1 0.999697
1 1 1 1
1 1 1 1
0.999974 1 1 0.999974
1 1 1 1
1 1 1 1
1 1 1 1
0.913449 0.932554 0.989976 0.989431
0.889564 0.927715 0.971318 0.987191
0.964909 0.978283 0.994696 0.991588
0.881629 0.916666 0.974395 0.987051
0.966294 0.98125 0.989981 0.994724
1.01572 1.02303 0.994482 0.998367
0.96103 0.980139 0.99046 0.989949
0.87432 0.916203 0.967129 0.986722
0.815602 0.89219 0.929595 0.983393
0.988234 0.997679 0.993735 0.996778
0.957794 0.973694 0.996312 0.987313
0.860997 0.9153 0.953855 0.986179
0.883799 0.942366 0.950859 0.98632
0.978075 0.988866 0.992862 0.996198
0.96414 0.968063 1.00916 0.986908
0.887241 0.938916 0.957184 0.987233
0.913899 0.968349 0.954532 0.988726
0.999041 1 1 0.999041
0.999198 1 1 0.999198
0.99945 1 1 0.99945
0.999287 1 1 0.999287
0.999066 1 1 0.999066
0.999218 1 1 0.999218
0.999277 1 1 0.999277
0.99929 1 1 0.99929
0.999337 1 1 0.999337
0.999377 1 1 0.999377
1.00847 1.0246 0.985985 0.998254
0.988183 1.00443 0.985584 0.998212
0.999555 1 1.00101 0.998549
1.00906 1.00019 1.01062 0.998263
1.01217 1 1.01368 0.998507
1.00045 1 1.00167 0.998791
0.998932 1 1 0.998932
0.998928 1 1 0.998928
0.995604 1.00625 0.99086 0.998551
0.999221 1 1.00042 0.9988
1.0083 1 1.00968 0.998631
0.987979 1 0.989149 0.998818
1.01169 1.0001 1.01311 0.998502
0.970531 0.99387 0.977477 0.999017
1.00589 0.999717 1.0069 0.999279
1.01032 1 1.01163 0.99871
0.998922 1 1.0001 0.998818
1.00553 1 1.00691 0.998636
0.96362 0.972356 0.99638 0.994616
0.915175 0.932609 0.991281 0.989938
0.888711 0.929031 0.968261 0.987956
1.00224 1 1.00321 0.999031
1.01042 0.999403 1.01214 0.998888
0.991418 1 0.992368 0.999043
0.917536 0.93575 0.991138 0.989303
0.96194 0.966464 1.00852 0.986914
0.958561 0.968382 0.995168 0.994664
0.982804 0.983679 1.00028 0.998831
0.888373 0.93602 0.96192 0.986669
0.968819 0.978445 0.998491 0.991658
0.90486 0.958236 0.954159 0.989666
1.00216 0.999562 1.00314 0.999466
0.964026 0.974707 0.994827 0.994184
0.961471 0.971619 0.99523 0.994298
1.00836 0.995709 1.01314 0.999571
0.9733 0.972065 1.00458 0.996701
0.956136 0.964789 1.00467 0.986428
0.925541 0.980607 0.953556 0.989816
0.913006 0.949546 0.973828 0.987359
1.00416 0.996292 1.00818 0.999711
0.954408 0.968301 0.988337 0.997283
0.968376 0.981517 0.991785 0.994784
0.916362 0.96971 0.955737 0.988751
0.994468 0.980619 1.01493 0.999209
0.973005 0.971371 1.01426 0.987596
0.910545 0.93768 0.983112 0.987742
0.999575 1 1.00027 0.999307
1.00382 1 1.00443 0.999397
1.00897 0.998783 1.01064 0.999566
0.999124 1 1 0.999124
0.999042 1 1 0.999042
1.00486 1 1.00557 0.999301
0.999072 1 1 0.999072
1.00194 1 1.00276 0.999179
1.0075 0.999003 1.00908 0.999421
1.00318 0.999509 1.00419 0.999489
1.00149 1 1.00232 0.999174
0.999123 1 1 0.999123
0.999157 1 1 0.999157
0.999131 1 1 0.999131
0.999172 1 1 0.999172
0.999073 1 1 0.999073
0.999453 1 1.00032 0.999134
0.999024 1 1 0.999024
1.00113 1 1.00259 0.998547
0.998969 1 1 0.998969
0.999295 1 1.00056 0.998732
0.999232 1 1.00101 0.99822
0.999577 1 1.00125 0.998324
0.999698 1 1.00094 0.998762
0.999682 1 1.0013 0.998388
0.999086 1 1 0.999086
0.998961 1 1.00008 0.99888
0.999324 1 1.00051 0.998814
0.999031 1 1 0.999031
0.999202 1 1 0.999202
0.999493 1 1 0.999493
0.999284 1 1 0.999284
0.999544 1 1 0.999544
0.999896 1 1 0.999896
0.999571 1 1 0.999571
0.999902 1 1 0.999902
1 1 1 1
0.999904 1 1 0.999904
1 1 1 1
1 1 1 1
1 1 1 1
1 1 1 1
1 1 1 1
0.999494 1 1 0.999494
0.999881 1 1 0.999881
0.999617 1 1 0.999617
1 1 1 1
0.999934 1 1 0.999934
0.999631 1 1 0.999631
1 1 1 1
1 1 1 1
0.999971 1 1 0.999971
1 1 1 1
1 1 1 1
1 1 1 1
0.962075 0.973082 0.994464 0.994193
0.90316 0.930489 0.981297 0.989129
0.890858 0.925334 0.975427 0.986996
0.999216 1 1 0.999216
0.955032 0.966666 0.993102 0.994827
0.96813 0.978827 0.9975 0.99155
0.876032 0.916795 0.968225 0.986896
0.988082 0.998057 0.993937 0.996045
0.962085 0.974837 0.9986 0.988302
0.867108 0.924569 0.950474 0.986719
0.876476 0.937206 0.948268 0.98622
0.979623 0.990311 0.994845 0.994333
0.952077 0.962479 1.00153 0.987682
0.895051 0.941248 0.963437 0.987007
0.912052 0.966215 0.954995 0.988427
0.965275 0.975308 0.996733 0.992957
0.963812 0.960775 1.01741 0.985992
0.913259 0.951886 0.972024 0.987034
0.921593 0.976002 0.954596 0.989165
0.998916 1 1 0.998916
0.999026 1 1 0.999026
0.999223 1 1 0.999223
0.999063 1 1 0.999063
0.999095 1 1 0.999095
0.999235 1 1 0.999235
0.999296 1 1 0.999296
0.99936 1 1 0.99936
0.990095 1.00574 0.985857 0.998564
0.986094 1 0.987331 0.998747
0.998929 1 1 0.998929
1.00994 1 1.01147 0.998486
1.00852 1 1.00991 0.998625
0.999307 1 1.0005 0.998811
0.998973 1 1.00015 0.998825
0.975753 0.995952 0.980667 0.999034
1.00573 1 1.00708 0.998661
1.00899 1 1.01029 0.998712
0.999998 0.999756 1.00094 0.999302
0.999367 1 1.00051 0.998856
0.968043 0.987508 0.980892 0.999386
1.01101 0.998009 1.01358 0.999454
1.01113 1 1.01237 0.998782
1.00123 1 1.00245 0.998782
0.964347 0.970218 0.99621 0.997729
0.963365 0.971699 0.996706 0.9947
0.919237 0.932893 0.995222 0.990091
1.00191 0.999363 1.00309 0.999453
1.01041 0.997002 1.01403 0.999431
0.963742 0.973592 0.995134 0.994723
0.966398 0.964152 1.01506 0.987457
0.969332 0.969323 1.00539 0.994649
0.917124 0.952315 0.976124 0.986602
0.96393 0.973621 0.995712 0.99431
0.927807 0.98438 0.951609 0.990458
1.00476 0.997 1.00811 0.999678
0.954305 0.967834 0.988694 0.997297
0.966954 0.979544 0.991632 0.995478
1.00326 0.987518 1.01607 0.99988
0.913736 0.967952 0.955034 0.988435
0.96557 0.96603 1.01243 0.987256
0.920625 0.951776 0.980239 0.98677
1.00829 0.994363 1.01424 0.999771
0.965239 0.979596 0.987465 0.997852
0.955896 0.96806 0.992542 0.994854
0.887214 0.945222 0.951107 0.986882
0.913465 0.954115 0.970199 0.986803
0.979232 0.975264 1.00521 0.998868
0.974574 0.964003 1.02548 0.985849
1.00242 1 1.00307 0.999352
1.00827 0.998311 1.01043 0.999549
1.00325 0.988817 1.01502 0.999582
0.99908 1 1 0.99908
1.00156 1 1.00238 0.999182
1.00891 0.999848 1.00968 0.999396
1.00019 1 1.00102 0.999167
1.00297 0.999372 1.00411 0.999488
1.00637 0.998596 1.0085 0.999292
0.999163 1 1 0.999163
0.999081 1 1 0.999081
1.00008 1 1.00098 0.999104
1.00655 1 1.00786 0.998696
0.999103 1 1 0.999103
1.0006 1 1.00198 0.998623
1.00223 1 1.00413 0.998111
0.999983 1.00024 1.00188 0.997869
0.999114 1 1.0004 0.99871
0.999257 1 1.00109 0.998165
0.99894 1 1.00053 0.998416
1.0006 1 1.00199 0.998611
0.999564 1 1.0012 0.99837
0.999479 1 1.0005 0.998978
0.999642 1 1.00089 0.998756
0.999584 1 1.00118 0.998405
0.999404 1 1 0.999404
0.999078 1 1 0.999078
0.999019 1 1.00016 0.998855
0.999228 1 1 0.999228
0.999491 1 1 0.999491
0.999878 1 1 0.999878
0.999543 1 1 0.999543
0.999893 1 1 0.999893
1 1 1 1
0.9999 1 1 0.9999
1 1 1 1
1 1 1 1
1 1 1 1
1 1 1 1
1 1 1 1
0.999445 1 1 0.999445
0.999831 1 1 0.999831
0.999518 1 1 0.999518
1 1 1 1
0.999878 1 1 0.999878
0.999615 1 1 0.999615
1 1 1 1
1 1 1 1
0.999908 1 1 0.999908
1 1 1 1
1 1 1 1
1 1 1 1
0.955181 0.967209 0.990244 0.997294
0.96252 0.973608 0.994383 0.994196
0.903237 0.93159 0.980154 0.989196
0.999229 1 1 0.999229
0.999191 1 1 0.999191
0.999095 1 1 0.999095
0.966929 0.98048 0.991374 0.99476
0.956974 0.967016 0.99474 0.994849
0.971266 0.979371 1.00021 0.991512
0.985498 0.990671 0.999033 0.995741
0.953188 0.963499 1.00238 0.986949
0.886716 0.932681 0.963517 0.986716
0.917123 0.97033 0.956321 0.988336
0.964219 0.97262 0.996772 0.994573
0.958689 0.960611 1.01115 0.986989
0.908242 0.94211 0.975596 0.988167
0.92308 0.978969 0.952624 0.989803
0.952299 0.964114 0.994007 0.9937
0.975831 0.969066 1.02001 0.987229
0.910856 0.936134 0.984962 0.987853
0.915258 0.966354 0.957028 0.989653
0.998909 1 1 0.998909
0.998955 1 1.00004 0.998914
0.999012 1 1 0.999012
0.99906 1 1 0.99906
0.999124 1 1 0.999124
0.999302 1 1 0.999302
0.982354 0.998539 0.984729 0.999048
0.994893 0.999801 0.995764 0.999324
0.998866 1 1.00003 0.998832
1.0086 1 1.0099 0.998713
1.00626 1 1.00758 0.998687
0.999329 1 1.00049 0.998835
1.00119 1 1.0024 0.998791
0.979965 0.991287 0.989179 0.999394
1.01194 1 1.01309 0.998866
1.00627 0.994047 1.01282 0.99948
0.99941 1 1.00051 0.998903
0.99562 0.981436 1.01483 0.999632
0.995121 0.989986 1.00565 0.99954
1.00868 1 1.0097 0.998992
0.979097 0.983232 0.997375 0.998415
0.963236 0.969663 0.99544 0.997922
0.963316 0.970904 0.99739 0.994781
1.00604 0.998171 1.00824 0.999644
0.998731 0.989756 1.00953 0.999546
0.954224 0.967387 0.989053 0.99731
0.968571 0.963047 1.0155 0.990387
0.922105 0.948959 0.983506 0.987998
0.966262 0.977674 0.992125 0.996172
0.918511 0.971391 0.956691 0.988367
1.00718 0.994377 1.01309 0.999788
0.964453 0.979493 0.98659 0.998029
0.958248 0.968506 0.994506 0.994875
0.978067 0.971697 1.01009 0.996498
0.883293 0.943547 0.949044 0.986404
0.9065 0.945739 0.970209 0.987941
0.984764 0.970154 1.02833 0.987099
1.00446 0.978544 1.02673 0.999765
0.955963 0.967976 0.990233 0.997331
0.965892 0.979728 0.994159 0.99167
0.831008 0.894563 0.942201 0.98594
0.889491 0.941153 0.957297 0.987267
0.975528 0.970361 1.01853 0.987037
0.953424 0.966135 0.991485 0.995319
1.00794 0.997614 1.01082 0.999531
1.00753 0.992649 1.01541 0.999586
1.01883 0.997839 1.02152 0.999529
0.999159 1 1 0.999159
1.00306 0.99899 1.00459 0.999487
1.00709 0.999167 1.00859 0.999347
1.01725 1 1.01834 0.998928
1.00066 1 1.00159 0.999075
1.00682 1 1.00822 0.998614
1.01413 1 1.01616 0.997999
1.00014 1 1.00145 0.9987
1.00308 1 1.005 0.998085
1.00371 1.00054 1.00559 0.997593
1.00107 1.00167 1.00191 0.997498
0.999227 1 1.00108 0.998152
1.00012 1.0004 1.00189 0.99784
0.999333 1 1.00123 0.998109
0.999671 1 1.0011 0.998575
0.998971 1 1.00048 0.998492
1.00047 1 1.00169 0.998781
1.00065 1 1.00201 0.998642
0.999517 1 1.0011 0.998417
0.999263 1 1 0.999263
0.999399 1 1.00042 0.99898
0.999557 1 1.00081 0.998751
0.999837 1 1 0.999837
0.999403 1 1 0.999403
0.99907 1 1 0.99907
0.999489 1 1 0.999489
0.999873 1 1 0.999873
1 1 1 1
0.99989 1 1 0.99989
1 1 1 1
1 1 1 1
1 1 1 1
1 1 1 1
1 1 1 1
0.999442 1 1 0.999442
0.999846 1 1 0.999846
0.999461 1 1 0.999461
1 1 1 1
0.999858 1 1 0.999858
0.999542 1 1 0.999542
1 1 1 1
1 1 1 1
0.999874 1 1 0.999874
1 1 1 1
1 1 1 1
1 1 1 1
0.96433 0.979076 0.987074 0.997836
0.954569 0.967691 0.989101 0.997309
0.962181 0.974016 0.993608 0.994205
0.999173 1 1 0.999173
0.999069 1 1 0.999069
0.999241 1 1 0.999241
0.999189 1 1 0.999189
0.999078 1 1 0.999078
0.999089 1 1 0.999089
0.998996 1 1 0.998996
0.957237 0.968474 0.994125 0.994238
0.965402 0.978024 0.991598 0.995457
0.958527 0.967278 0.996063 0.99487
0.926186 0.98322 0.951084 0.990441
0.954045 0.963962 0.996575 0.993113
0.964085 0.96332 1.01285 0.988097
0.912949 0.941041 0.982958 0.986967
0.94998 0.963862 0.992496 0.99305
0.965173 0.962707 1.01615 0.986631
0.922809 0.953015 0.980916 0.987145
0.907311 0.959867 0.955252 0.989525
0.948326 0.963316 0.989729 0.994656
0.968293 0.966727 1.01552 0.986316
0.924171 0.956318 0.978242 0.98788
0.886687 0.947018 0.947942 0.987713
0.998975 1 1 0.998975
0.998909 1 1 0.998909
0.998912 1 1 0.998912
0.999056 1 1 0.999056
0.989356 0.994407 0.995515 0.999403
1.00097 0.990756 1.01081 0.999505
0.998814 1 1 0.998814
1.0009 1 1.00211 0.998799
1.01119 1 1.01225 0.99895
0.999135 1 1.00024 0.998899
1.0095 1 1.01053 0.998978
0.991646 0.979758 1.01303 0.99912
0.99673 0.991034 1.00611 0.999642
1.0037 1 1.00464 0.999064
0.996348 0.977014 1.02074 0.999066
1.00955 0.99544 1.01487 0.999319
0.964501 0.970486 0.996065 0.997759
0.975206 0.981318 0.995181 0.998583
0.962492 0.969264 0.994889 0.998115
1.00548 0.993763 1.01199 0.999805
0.980055 0.972316 1.00905 0.998924
0.963498 0.979225 0.985707 0.998207
0.974177 0.965706 1.02299 0.986103
0.911039 0.943519 0.97858 0.98671
0.959968 0.96893 0.995833 0.994896
0.876494 0.937659 0.94775 0.986303
1.00907 0.98091 1.02891 0.999802
0.955003 0.968174 0.98902 0.997347
0.968916 0.980305 0.996725 0.99163
0.956922 0.967422 0.991811 0.997313
0.823294 0.893063 0.936144 0.984759
0.893171 0.940782 0.96194 0.986955
0.973918 0.966305 1.02107 0.987082
0.999195 0.981842 1.01837 0.999315
0.962277 0.973913 0.993737 0.99428
0.891579 0.924359 0.976523 0.987727
0.855052 0.910315 0.951158 0.987525
0.960591 0.959387 1.01415 0.98729
0.941951 0.962383 0.984951 0.993724
1.01131 0.996406 1.01538 0.99959
1.01893 0.996183 1.02332 0.999522
1.01347 1 1.0141 0.999372
1.00767 0.999702 1.00857 0.999402
1.01684 0.999481 1.01839 0.998992
1.01038 1.00037 1.01176 0.998266
1.00725 1 1.00873 0.998531
1.01328 1 1.01536 0.997952
1.00735 1.00017 1.00966 0.997538
1.00389 1 1.00585 0.99806
1.00368 1.00028 1.00586 0.997544
1.00322 1.00205 1.00382 0.99736
1.00232 1.00482 1 0.997509
1.00151 1.00307 1.00077 0.997681
1.00155 1.00193 1.00218 0.997448
0.998489 1 1.00013 0.998363
0.998938 1 1.00074 0.998197
1.00028 1.00058 1.0019 0.997811
0.99972 1 1.00112 0.998606
0.99965 1 1.00108 0.998568
0.998993 1 1.00043 0.998568
0.999421 1 1.00036 0.999064
1.00029 1 1.00148 0.998812
1.00067 1 1.002 0.998672
0.999737 1 1 0.999737
0.999263 1 1 0.999263
0.999313 1 1.00033 0.998983
1 1 1 1
0.999831 1 1 0.999831
0.999402 1 1 0.999402
0.999869 1 1 0.999869
1 1 1 1
1 1 1 1
1 1 1 1
1 1 1 1
1 1 1 1
0.999168 1 1 0.999168
0.999401 1 1 0.999401
0.999811 1 1 0.999811
0.999441 1 1 0.999441
1 1 1 1
0.999849 1 1 0.999849
0.999477 1 1 0.999477
1 1 1 1
1 1 1 1
0.999886 1 1 0.999886
1 1 1 1
1 1 1 1
1 1 1 1
0.954069 0.968352 0.987934 0.997284
0.963873 0.979141 0.986363 0.998016
0.953551 0.968197 0.987514 0.997324
0.999182 1 1 0.999182
0.999055 1 1 0.999055
0.998991 1 1 0.998991
0.999057 1 1 0.999057
0.998974 1 1 0.998974
0.999187 1 1 0.999187
0.999061 1 1 0.999061
0.999089 1 1 0.999089
0.998993 1 1 0.998993
0.999038 1 1 0.999038
0.961578 0.972759 0.996835 0.991645
0.96017 0.970999 0.994561 0.994255
0.963849 0.975574 0.991795 0.996154
0.90475 0.95835 0.953981 0.989611
0.921779 0.9472 0.98484 0.988143
0.942711 0.95947 0.990223 0.992234
0.973065 0.970041 1.01627 0.987057
0.950035 0.964713 0.991888 0.992839
0.979728 0.974853 1.01827 0.986973
0.914506 0.950377 0.974307 0.987631
0.887559 0.948587 0.947821 0.987174
0.969022 0.97214 1.00287 0.993941
0.968786 0.968092 1.01351 0.98738
0.879085 0.929379 0.958794 0.986536
0.848889 0.917375 0.938734 0.985738
0.999722 1 1.00043 0.999291
0.999398 1 1.00042 0.998977
0.999187 1 1.00028 0.998908
0.988852 0.977935 1.01258 0.998603
0.998067 0.991049 1.00734 0.999748
0.999287 1 1.00039 0.998894
1.01089 1 1.01194 0.998964
1.00411 0.999999 1.00505 0.999071
1.01007 0.996687 1.01413 0.99931
0.994034 0.97489 1.02055 0.999101
1.00927 0.999836 1.01009 0.999354
0.998147 0.984333 1.01517 0.99888
0.965189 0.973872 0.996513 0.994552
0.963158 0.969724 0.995271 0.997949
0.970901 0.979195 0.992768 0.998752
1.01398 0.98336 1.03131 0.999835
0.957752 0.969664 0.993129 0.994549
0.95377 0.968393 0.987505 0.997361
0.971777 0.969687 1.01718 0.985233
0.888044 0.933447 0.964185 0.986698
0.971991 0.980833 0.999387 0.991593
0.817748 0.893309 0.930702 0.983574
0.997549 0.980077 1.01844 0.999403
0.963762 0.974894 0.994267 0.994283
0.882518 0.91762 0.974194 0.987222
0.943875 0.964609 0.983719 0.994701
0.863288 0.915988 0.955504 0.986355
0.950935 0.957615 1.0068 0.986317
0.976697 0.981874 0.996047 0.998675
0.913881 0.932883 0.989934 0.989592
0.861751 0.907832 0.962033 0.986702
0.963871 0.969057 1.00775 0.986998
0.949022 0.963252 0.990214 0.994964
1.0187 0.994915 1.02441 0.999515
1.01507 0.999358 1.01638 0.99935
0.993579 1.00046 0.994269 0.998843
1.01617 0.998918 1.01823 0.999056
1.01092 1.00058 1.012 0.998351
1.00236 1.00172 1.00272 0.997928
1.01221 1 1.01434 0.997905
1.00616 1.00031 1.00831 0.997551
0.999343 1.00147 1.00024 0.997637
1.00348 1 1.006 0.997496
1.00346 1.00298 1.00311 0.997377
1.00482 1.00719 1 0.997651
1.00854 1.01079 1 0.997779
1.00457 1.00702 1.00002 0.997548
1.00215 1.00464 1 0.997523
0.999665 1.00171 1 0.997956
1.00063 1.00192 1.00107 0.997636
1.002 1.00217 1.00244 0.997398
0.998513 1 1 0.998513
0.998442 1 1.00002 0.998418
0.998559 1 1.00032 0.998242
0.999255 1 1.00039 0.998868
0.99982 1 1.0012 0.998624
0.999655 1 1.0011 0.998561
0.999552 1 1 0.999552
0.999422 1 1.00036 0.999065
1.00015 1 1.00131 0.998842
1 1 1 1
0.999732 1 1 0.999732
0.999264 1 1 0.999264
1 1 1 1
1 1 1 1
0.999826 1 1 0.999826
1 1 1 1
1 1 1 1
1 1 1 1
0.999091 1 1 0.999091
0.999351 1 1 0.999351
0.999156 1 1 0.999156
0.999784 1 1 0.999784
0.999401 1 1 0.999401
1 1 1 1
0.999814 1 1 0.999814
0.999439 1 1 0.999439
1 1 1 1
1 1 1 1
0.999853 1 1 0.999853
1 1 1 1
1 1 1 1
1 1 1 1
0.964152 0.976105 0.992937 0.994782
0.953887 0.967761 0.988333 0.9973
0.963623 0.979145 0.985925 0.998197
0.998985 1 1 0.998985
0.999191 1 1 0.999191
0.999041 1 1 0.999041
0.99907 1 1 0.99907
0.999005 1 1 0.999005
0.998971 1 1 0.998971
0.998894 1 1 0.998894
0.998952 1 1 0.998952
0.999089 1 1 0.999089
0.998991 1 1 0.998991
0.999032 1 1 0.99903
0.999122 1 1 0.999117
0.88408 0.920968 0.9728 0.986787
0.964396 0.975217 0.997285 0.991595
0.961854 0.97224 0.995016 0.994272
0.882751 0.946089 0.945303 0.98704
0.921667 0.956774 0.975898 0.987098
0.968365 0.965868 1.01644 0.986366
0.95221 0.963863 0.994158 0.993716
0.96897 0.970711 1.00273 0.99549
0.834001 0.906245 0.934665 0.984612
0.968603 0.966181 1.01656 0.986176
0.885072 0.936737 0.956962 0.987339
0.960409 0.970437 0.993793 0.995848
0.960177 0.960254 1.01213 0.987935
0.859477 0.915168 0.951431 0.987089
1.00003 1 1.00041 0.999622
0.999596 1 1.0003 0.999293
0.999673 1 1.00069 0.998979
0.994036 0.975398 1.02 0.999128
1.01167 0.998998 1.01339 0.9993
1.00439 1 1.00531 0.999078
1.00894 1 1.0096 0.999353
0.997842 0.985515 1.0136 0.998925
1.00298 0.994453 1.00939 0.9992
0.912384 0.933559 0.988504 0.988683
0.964464 0.973171 0.995753 0.99528
0.961984 0.968934 0.994677 0.99814
0.996319 0.978159 1.01909 0.99949
0.942683 0.96661 0.979743 0.99541
0.96416 0.975861 0.993684 0.994289
0.958743 0.959551 1.01126 0.988035
0.872023 0.927547 0.952611 0.986907
0.875917 0.91717 0.967535 0.987067
0.976651 0.982431 0.995381 0.998729
0.903187 0.930716 0.980931 0.989286
0.876031 0.913413 0.971235 0.98748
0.94909 0.961643 0.9938 0.993104
0.952677 0.965323 0.999174 0.987716
0.966474 0.988623 0.97836 0.99922
0.888026 0.924499 0.972435 0.987775
0.958797 0.974411 0.995664 0.98826
0.962529 0.975689 0.993567 0.992899
1.01736 0.998548 1.01953 0.999329
0.989816 1.00024 0.990637 0.99893
0.982392 1.00227 0.981634 0.998504
1.01187 1.00084 1.0126 0.998436
1.00312 1.00214 1.00306 0.99792
1.00067 1.00315 0.999428 0.998098
1.00524 1.00049 1.0072 0.997563
0.999457 1.00108 1.00073 0.997651
1.00802 1.00997 1 0.998068
1.00378 1.00395 1.00245 0.997394
1.00467 1.00703 1 0.997656
1.01169 1.01361 1 0.998099
1.01413 1.01607 1 0.998091
1.00879 1.01109 1 0.997731
1.00838 1.0106 1 0.9978
1.00346 1.00571 1 0.997762
1.00414 1.00657 1 0.997587
1.00199 1.00446 1 0.997536
0.998556 1.00027 1 0.998287
1.0002 1.0021 1.00014 0.997971
0.999919 1.00085 1.00148 0.997591
0.998726 1 1 0.998726
0.998508 1 1 0.998508
0.998473 1 1 0.998473
0.999335 1 1 0.999335
0.999208 1 1.00034 0.998871
0.999893 1 1.00125 0.998641
0.999993 1 1 0.999993
0.999549 1 1 0.999549
0.999383 1 1.00032 0.999066
1 1 1 1
0.999999 1 1 0.999999
0.999727 1 1 0.999727
1 1 1 1
1 1 1 1
1 1 1 1
0.999064 1 1 0.999064
0.999092 1 1 0.999092
0.999282 1 1 0.999282
0.999755 1 1 0.999755
0.999351 1 1 0.999351
0.999145 1 1 0.999145
0.999999 1 1 0.999999
0.999787 1 1 0.999787
0.999401 1 1 0.999401
1 1 1 1
1 1 1 1
0.999817 1 1 0.999817
1 1 1 1
1 1 1 1
1 1 1 1
0.906668 0.927234 0.989267 0.988429
0.963931 0.974993 0.993828 0.994794
0.953963 0.967455 0.98871 0.997315
0.998972 1 1 0.998972
0.998922 1 1 0.998922
0.998901 1 1 0.998901
0.999084 1 1 0.999084
0.999019 1 1 0.999019
0.998968 1 1 0.998968
0.998949 1 1 0.998949
0.998893 1 1 0.998893
0.998814 1 1 0.998814
0.999128 1 1 0.999128
0.999022 1 1 0.999022
0.999111 1 1 0.999111
0.873321 0.911408 0.970631 0.987204
0.879842 0.915649 0.974235 0.986306
0.967857 0.97826 0.997797 0.99155
0.818543 0.892748 0.932282 0.98348
0.885814 0.934012 0.96137 0.986506
0.972562 0.969835 1.0145 0.988475
0.96903 0.96773 1.00767 0.993717
0.958246 0.96773 0.995925 0.994251
0.859632 0.908823 0.959192 0.986115
0.952729 0.957786 1.00698 0.987826
0.958143 0.96949 0.993516 0.994746
0.952737 0.967862 0.997018 0.987317
1.00729 1 1.00819 0.999107
0.999841 1 1.00027 0.999575
0.999295 1 1 0.999295
0.994317 0.983471 1.01207 0.998968
1.00849 1 1.00914 0.999352
1.00337 0.995143 1.00918 0.999097
0.995645 0.99889 0.998334 0.998414
0.885871 0.933365 0.960828 0.98781
0.916091 0.933715 0.991668 0.989368
0.964915 0.972914 0.995759 0.996002
0.97501 0.983033 0.993021 0.998808
0.949076 0.961664 0.992883 0.993984
0.903479 0.931785 0.980061 0.989349
0.951804 0.962758 1.00157 0.987069
0.878452 0.91905 0.968514 0.9869
0.970079 0.989507 0.981516 0.998828
0.891166 0.928855 0.971748 0.987318
0.960804 0.976213 0.996906 0.98727
0.966812 0.97521 0.996915 0.994457
0.983876 0.996757 0.988042 0.999023
0.957927 0.979229 0.990807 0.987322
0.975213 0.988147 0.991416 0.995456
0.985975 1 0.986946 0.999016
0.983376 1.00285 0.982068 0.998483
0.983948 1.00567 0.979979 0.998389
1.0035 1.00249 1.0031 0.997912
1.00009 1.00336 0.998648 0.998093
1.00992 1.01425 0.997227 0.998496
0.999431 1.00062 1.00114 0.997666
1.00785 1.00981 1 0.998062
1.01639 1.01802 0.999957 0.99845
1.0044 1.00676 1 0.997662
1.01119 1.01311 1 0.998099
1.0153 1.01695 1 0.998374
1.01302 1.01477 1 0.998276
1.01394 1.01585 1 0.998127
1.01311 1.01514 1 0.998008
1.00881 1.01101 1 0.99782
1.00944 1.01174 1 0.997735
1.00823 1.01043 1 0.997822
0.999709 1.00169 1 0.998018
1.00403 1.00625 1 0.997797
1.00367 1.00606 1 0.997625
0.99856 1 1 0.99856
0.998839 1.00056 1 0.99828
1.00057 1.00242 1.00017 0.997986
0.999171 1 1 0.999171
0.998726 1 1 0.998726
0.998503 1 1 0.998503
0.999956 1 1 0.999956
0.999335 1 1 0.999335
0.9992 1 1.00033 0.998874
1 1 1 1
0.999985 1 1 0.999985
0.999545 1 1 0.999545
1 1 1 1
0.999998 1 1 0.999998
1 1 1 1
0.998993 1 1 0.998993
0.999052 1 1 0.999052
0.999207 1 1 0.999207
0.999094 1 1 0.999094
0.999282 1 1 0.999282
0.999703 1 1 0.999703
0.999998 1 1 0.999998
0.999757 1 1 0.999757
0.999352 1 1 0.999352
1 1 1 1
1 1 1 1
0.999789 1 1 0.999789
1 1 1 1
1 1 1 1
1 1 1 1
0.895929 0.928161 0.977617 0.987374
0.907402 0.930093 0.987341 0.988112
0.963145 0.973364 0.994668 0.994806
0.998959 1 1 0.998959
0.998876 1 1 0.998876
0.99895 1 1 0.99895
0.998763 1 1 0.998763
0.998834 1 1 0.998834
0.998946 1 1 0.998946
0.998893 1 1 0.998893
0.998834 1 1 0.998834
0.998717 1 1 0.998717
0.998957 1 1 0.998957
0.998893 1.00034 1.00026 0.9983
0.999405 1 1.00023 0.999171
0.999104 1 1 0.999104
0.95599 0.976802 0.991674 0.986911
0.877339 0.911517 0.975126 0.987055
0.881491 0.918639 0.973001 0.986188
0.85896 0.909096 0.957678 0.986605
0.957313 0.959866 1.01144 0.986055
0.960852 0.967249 0.9974 0.995976
0.959417 0.970118 0.993173 0.995767
0.956207 0.968912 0.998638 0.988233
0.975199 0.990859 0.989374 0.994766
1.00171 1.00132 1.00208 0.99831
1.00574 1 1.00666 0.999088
0.999527 1 1 0.999527
1.0039 0.996878 1.00804 0.999007
0.998444 1.00073 0.999405 0.998312
0.944945 0.974533 0.981242 0.988175
0.89371 0.933073 0.969971 0.987467
0.920214 0.934147 0.994973 0.990062
0.973223 0.990192 0.984416 0.998423
0.960707 0.969471 0.997967 0.992979
0.892237 0.927117 0.974959 0.987096
0.960405 0.973826 0.998044 0.988152
0.982256 0.996701 0.98647 0.999025
0.959915 0.981105 0.989781 0.988503
0.976585 0.989052 0.993502 0.993853
1.00045 1.00537 0.99659 0.998509
0.986602 0.996726 0.992941 0.996879
0.98427 1.00352 0.982324 0.998464
0.986085 1.00528 0.982532 0.998342
1.00449 1.02224 0.984142 0.998468
0.999782 1.00358 0.998123 0.998088
1.00898 1.0134 0.997156 0.998486
1.01628 1.02226 0.995508 0.998635
1.00772 1.00969 1 0.998055
1.01631 1.01815 0.999755 0.998436
1.01736 1.01925 0.999623 0.998529
1.0108 1.01273 1 0.998098
1.01554 1.01721 1 0.99836
1.01315 1.0148 1 0.998377
1.01365 1.01537 1 0.998313
1.01261 1.01449 1 0.998147
1.01377 1.01563 1 0.998164
1.01287 1.0149 1 0.998002
1.01023 1.01232 1 0.997942
1.0036 1.00567 1 0.997944
1.00855 1.01076 1 0.997812
1.01006 1.01235 1 0.997738
0.998602 1.00024 1 0.998367
1.00008 1.00204 1 0.99804
1.00465 1.00683 1 0.997833
0.999036 1 1 0.999036
0.998555 1 1 0.998555
0.999141 1.00087 1 0.998274
0.999879 1 1 0.999879
0.999172 1 1 0.999172
0.998725 1 1 0.998725
1 1 1 1
0.99994 1 1 0.99994
0.999335 1 1 0.999335
1 1 1 1
0.999977 1 1 0.999977
1 1 1 1
0.998784 1 1 0.998784
0.998993 1 1 0.998993
0.999089 1 1 0.999089
0.999041 1 1 0.999041
0.999188 1 1 0.999188
0.999602 1 1 0.999602
0.999282 1 1 0.999282
0.999705 1 1 0.999705
0.999996 1 1 0.999996
1 1 1 1
0.999999 1 1 0.999999
0.999759 1 1 0.999759
1 1 1 1
1 1 1 1
1 1 1 1
0.960011 0.9803 0.990568 0.988628
0.888788 0.930243 0.967212 0.987825
0.91629 0.935327 0.991472 0.988073
0.998852 1 1 0.998852
0.998978 1 1 0.998978
0.998845 1 1 0.998845
0.998773 1 1 0.998773
0.998551 1.00002 1.00002 0.998512
0.99877 1 1 0.99877
0.998853 1 1 0.998853
0.998648 1 1 0.998648
0.999148 1 1.00023 0.998922
0.998551 1 1 0.998551
1.00055 1.00213 1 0.998422
0.998623 1.00129 0.999476 0.997861
0.999251 1.00081 1.00006 0.998389
0.999666 1 1.00045 0.999213
0.973156 0.989418 0.98857 0.994937
0.957701 0.976937 0.992444 0.987774
0.871855 0.912337 0.968338 0.986875
0.967704 0.974971 1.00556 0.987055
0.957241 0.969756 0.990498 0.996564
0.979792 0.992341 0.990723 0.9966
0.99401 1.00396 0.991642 0.998432
0.999344 1.00067 1.00029 0.998386
1.00469 1 1.00563 0.999068
0.99773 1.00112 0.998415 0.998196
0.973151 0.984316 0.99376 0.994866
0.953564 0.975998 0.987671 0.98921
0.887046 0.929443 0.965934 0.988042
0.98292 0.998396 0.985462 0.999023
0.983089 0.991321 0.99663 0.995049
0.962194 0.981762 0.990258 0.98971
0.994487 1.00474 0.991261 0.998519
0.984602 0.995417 0.992823 0.996285
1.00416 1.02208 0.984168 0.998267
1.00661 1.01464 0.993983 0.998094
0.987879 1.0047 0.98494 0.998294
1.00503 1.02201 0.984905 0.998459
1.00854 1.02622 0.984268 0.998485
1.00815 1.01278 0.996954 0.998476
1.016 1.0219 0.995597 0.998623
1.01344 1.01926 0.995821 0.998465
1.01618 1.01827 0.999528 0.998421
1.01699 1.01907 0.999446 0.998515
1.01471 1.01679 0.999636 0.998321
1.01574 1.01742 1 0.998346
1.01286 1.01451 1 0.998377
1.01286 1.01473 1 0.998154
1.01427 1.01594 1 0.99835
1.01236 1.01421 1 0.998175
1.01097 1.013 1 0.997995
1.01268 1.01471 1 0.997996
1.0102 1.01229 1 0.997935
1.00511 1.00712 1 0.998002
0.998931 1.00072 1 0.998212
1.00344 1.00548 1 0.997964
1.00832 1.01054 1 0.997804
0.998878 1 1 0.998878
0.998686 1.00032 1 0.998367
1.00044 1.00238 1 0.998062
0.999778 1 1 0.999778
0.999034 1 1 0.999034
0.998551 1 1 0.998551
1 1 1 1
0.999864 1 1 0.999864
0.999173 1 1 0.999173
1 1 1 1
0.999923 1 1 0.999923
1 1 1 1
0.999247 1.00069 1 0.998557
0.998796 1 1 0.998796
0.998938 1 1 0.998938
0.998993 1 1 0.998993
0.999073 1 1 0.999073
0.99946 1 1 0.99946
0.999168 1 1 0.999168
0.999603 1 1 0.999603
0.999988 1 1 0.999988
0.999707 1 1 0.999707
0.999997 1 1 0.999997
1 1 1 1
1 1 1 1
0.999999 1 1 0.999999
1 1 1 1
0.972077 0.986202 0.990431 0.995201
0.955432 0.979511 0.987306 0.987958
0.883852 0.927075 0.9657 0.987239
1.00192 1.00364 1.00007 0.99822
0.998856 1 1 0.998856
0.998784 1 1 0.998784
0.998752 1 1 0.998752
0.998774 1.00015 1.00012 0.998501
0.999285 1.00059 1 0.9987
0.998579 1 1 0.998579
0.999355 1 1.00047 0.998887
0.998595 1 1 0.998595
0.999907 1.0015 1 0.998405
1.00114 1.00325 1 0.997898
1.00329 1.0058 0.999744 0.997759
0.999671 1.00195 0.999902 0.99782
0.999813 1.00134 1 0.998478
0.998467 1.00619 0.993438 0.998876
0.973228 0.990124 0.988685 0.994185
0.960844 0.977811 0.993717 0.988861
0.975115 0.988692 0.991022 0.995203
0.998272 1.00596 0.993664 0.998688
0.999551 1.0002 1.00089 0.998461
1.00144 1.00668 0.996566 0.998219
0.971291 0.980754 0.994311 0.996018
0.948914 0.976244 0.983559 0.988253
0.987786 1.00306 0.986228 0.998525
0.985729 0.995994 0.994086 0.99558
1.00492 1.02284 0.984164 0.998285
1.00571 1.01289 0.994694 0.998206
1.01093 1.02735 0.985744 0.99825
1.01632 1.02075 0.997469 0.99818
1.00588 1.02177 0.985971 0.998451
1.01077 1.02726 0.985431 0.998489
1.00664 1.01926 0.989273 0.998332
1.01563 1.02137 0.995769 0.99861
1.01443 1.01981 0.996259 0.998462
1.01455 1.01814 0.99827 0.998206
1.0167 1.01892 0.999316 0.998501
1.01483 1.01681 0.999715 0.998336
1.01422 1.01619 1 0.998056
1.01258 1.01423 1 0.998378
1.01242 1.01429 1 0.998154
1.01291 1.01498 1 0.997963
1.01212 1.01394 1 0.998202
1.01104 1.01305 1 0.99801
1.00618 1.00823 1 0.997964
1.01013 1.01223 1 0.997928
1.00509 1.00712 1 0.997983
1.0001 1.00192 1 0.998187
0.998752 1 1 0.998752
0.999081 1.00085 1 0.998236
1.00325 1.00528 1 0.997984
0.99967 1 1 0.99967
0.998878 1 1 0.998878
0.998791 1.00042 1 0.998367
1 1 1 1
0.999766 1 1 0.999766
0.999033 1 1 0.999033
1 1 1 1
0.999849 1 1 0.999849
1 1 1 1
1.00036 1.00208 1 0.998277
0.998898 1.00034 1 0.998562
0.998757 1 1 0.998757
0.998808 1 1 0.998808
0.998946 1 1 0.998946
0.999315 1 1 0.999315
0.999057 1 1 0.999057
0.99946 1 1 0.99946
0.999965 1 1 0.999965
0.999605 1 1 0.999605
0.999991 1 1 0.999991
1 1 1 1
0.999998 1 1 0.999998
1 1 1 1
1 1 1 1
1.00343 1.01047 0.994167 0.998862
0.96955 0.985749 0.989779 0.993724
0.95794 0.97596 0.992595 0.988858
1.00371 1.00534 1.00001 0.99836
1.00578 1.00782 1 0.99798
1.00178 1.0034 1.00013 0.998255
0.998735 1 1 0.998735
0.999022 1.00029 1.00024 0.998489
0.999728 1.00108 1 0.998649
1.00481 1.0068 1 0.998022
0.998639 1 1 0.998639
0.999155 1.00077 1 0.998387
1.00142 1.00348 1 0.997949
1.00773 1.01015 1 0.997608
1.01199 1.01625 0.997728 0.998078
1.00299 1.00566 0.999603 0.997741
1.0004 1.00262 1 0.997779
1.00168 1.00867 0.994097 0.998965
0.973297 0.989795 0.989982 0.993283
0.99947 1.00736 0.993212 0.998951
1.01361 1.01859 0.996438 0.998676
1.00021 1.00539 0.996553 0.99829
0.970115 0.983126 0.992242 0.994481
1.00563 1.02368 0.984038 0.998304
1.00425 1.01138 0.994621 0.99832
1.00961 1.02723 0.984522 0.9983
1.01863 1.02295 0.997583 0.998192
1.01349 1.02324 0.99225 0.998205
1.02526 1.02968 0.9974 0.998307
1.01276 1.0286 0.986087 0.998493
1.00694 1.01883 0.989978 0.998337
1.01724 1.02344 0.995826 0.998117
1.01533 1.02033 0.996634 0.99846
1.01478 1.01788 0.998747 0.998205
1.01701 1.01911 0.999942 0.997992
1.01488 1.01678 0.999771 0.998351
1.01405 1.01603 1 0.998055
1.01575 1.01791 1 0.997878
1.01196 1.01383 1 0.998155
1.01284 1.01491 1 0.997964
1.00765 1.00977 1 0.997903
1.01109 1.01309 1 0.998024
1.00618 1.00823 1 0.997967
1.00042 1.00229 1 0.998131
1.00509 1.00714 1 0.997965
1.00005 1.00188 1 0.998176
0.998676 1 1 0.998676
0.999591 1 1 0.999591
0.998751 1 1 0.998751
0.999219 1.00096 1 0.998261
1 1 1 1
0.999659 1 1 0.999659
0.998877 1 1 0.998877
1 1 1 1
0.999754 1 1 0.999754
1 1 1 1
1.00025 1.00222 1 0.998028
1.00009 1.00185 1 0.998251
0.998586 1.00008 1 0.998509
0.998567 1 1 0.998567
0.998762 1 1 0.998762
0.999163 1 1 0.999163
0.998953 1 1 0.998953
0.999315 1 1 0.999315
0.999913 1 1 0.999913
0.99946 1 1 0.99946
0.999973 1 1 0.999973
1 1 1 1
0.999994 1 1 0.999994
1 1 1 1
1 1 1 1
1.01259 1.01937 0.994859 0.998483
1.0008 1.0095 0.992768 0.998606
0.967663 0.985471 0.987327 0.994533
1.00962 1.01165 1 0.997996
1.00224 1.00373 1 0.998521
1.01325 1.01545 1 0.99784
1.00556 1.00761 1 0.997964
1.00163 1.00316 1.00018 0.998292
1.01538 1.01776 1 0.997663
1.00018 1.00159 1 0.9986
1.00477 1.00682 1 0.997967
1.02022 1.02255 0.999943 0.997777
1.00155 1.00356 1 0.998
1.00831 1.01075 1 0.997581
1.01156 1.0152 0.998327 0.998088
1.0023 1.00483 0.999767 0.997722
1.00406 1.01054 0.994525 0.999057
1.02409 1.02778 0.998015 0.998387
1.01331 1.01837 0.996348 0.998677
0.9994 1.00409 0.996967 0.998356
1.00837 1.02681 0.983658 0.998352
1.0198 1.02418 0.997513 0.998203
1.01321 1.0235 0.991711 0.998219
1.02573 1.03082 0.996749 0.998313
1.02569 1.03134 0.996304 0.998206
1.00723 1.01827 0.990802 0.998341
1.01726 1.02309 0.996171 0.998124
1.02034 1.02406 0.998379 0.997986
1.01502 1.01764 0.999216 0.998203
1.01666 1.01876 0.999965 0.997977
1.0181 1.02034 1 0.997801
1.01394 1.01592 1 0.998054
1.0156 1.01776 1 0.997877
1.01022 1.01243 1 0.997816
1.01278 1.01485 1 0.997964
1.00784 1.00995 1 0.997904
1.00091 1.00287 1 0.998043
1.00618 1.00822 1 0.99797
1.00053 1.0024 1 0.998133
0.998604 1 1 0.998604
0.999983 1.00182 1 0.998165
0.998675 1 1 0.998675
0.999614 1 1 0.999614
0.999899 1 1 0.999899
0.999609 1 1 0.999609
0.998751 1 1 0.998751
1 1 1 1
0.999648 1 1 0.999648
1 1 1 1
1.01762 1.01977 1 0.997883
1.00522 1.00728 1 0.997954
1.00009 1.00208 1 0.99801
0.999411 1.00109 1 0.99832
0.999791 1.00157 1 0.998226
0.998547 1.00003 1 0.998514
0.998995 1 1 0.998995
0.998766 1 1 0.998766
0.999165 1 1 0.999165
0.999827 1 1 0.999827
0.999315 1 1 0.999315
0.999929 1 1 0.999929
1 1 1 1
0.999981 1 1 0.999981
1 1 1 1
1 1 1 1
1.02498 1.02746 0.999435 0.998147
1.01631 1.02258 0.995294 0.998567
0.999899 1.00962 0.992011 0.998349
1.01767 1.01999 1 0.997731
1.0085 1.01045 1 0.998072
1.00073 1.00205 1 0.99868
1.0135 1.01567 1 0.997862
1.00535 1.00742 1 0.997949
1.0229 1.0252 1 0.997757
1.01415 1.01657 1 0.997627
1.00487 1.00697 1 0.997912
1.0199 1.02218 0.999999 0.99777
1.00996 1.01244 1 0.997554
1.01337 1.01643 0.998892 0.998101
1.02928 1.03227 0.998807 0.998292
1.02571 1.02896 0.998442 0.998393
1.0141 1.01835 0.997143 0.998679
1.01371 1.02457 0.991154 0.998232
1.02673 1.03226 0.99632 0.998319
1.02567 1.03201 0.995626 0.998221
1.02552 1.02818 0.999378 0.998039
1.01722 1.02267 0.99654 0.998131
1.0208 1.02393 0.99896 0.997979
1.02009 1.02235 1 0.997791
1.01632 1.01839 1 0.997961
1.01826 1.0205 1 0.997801
1.01329 1.01558 1 0.99774
1.01543 1.01759 1 0.997875
1.01035 1.01256 1 0.997816
1.00174 1.0038 1 0.997946
1.00801 1.01012 1 0.997905
1.00114 1.0031 1 0.998044
0.998511 1 1 0.998511
1.00065 1.00252 1 0.998135
0.998602 1 1 0.998602
0.999609 1 1 0.999609
0.998673 1 1 0.998673
0.99961 1 1 0.99961
0.999903 1 1 0.999903
0.99995 1 1 0.99995
0.999628 1 1 0.999628
1 1 1 1
1.01937 1.02169 1 0.997737
1.00842 1.01048 1 0.997967
1.01745 1.01951 1 0.997976
1.00031 1.00213 1 0.998187
1.00587 1.00793 1 0.997949
0.999922 1.00193 1 0.997992
0.999051 1.00073 1 0.998319
0.998829 1 1 0.998829
0.998519 1 1 0.998518
0.998997 1 1 0.998997
0.999718 1 1 0.999718
0.999168 1 1 0.999168
0.999844 1 1 0.999844
1 1 1 1
0.999944 1 1 0.999944
1 1 1 1
1 1 1 1
1.0265 1.02854 0.999986 0.998027
1.02465 1.02719 0.999386 0.998145
1.01769 1.02422 0.994973 0.998646
1.02299 1.02533 1 0.997718
1.01714 1.01945 1 0.997734
1.00745 1.00932 1 0.998149
1.01368 1.01583 1 0.997885
1.02279 1.0251 1 0.997742
1.01276 1.0152 1 0.997591
1.01775 1.02003 1 0.997764
1.02835 1.03052 0.99979 0.998099
1.02884 1.03187 0.998805 0.998255
1.02761 1.03065 0.998649 0.998398
1.02421 1.02645 0.999872 0.997941
1.02555 1.03262 0.994906 0.998236
1.02511 1.02811 0.999044 0.998031
1.0217 1.02389 1 0.997857
1.02125 1.02382 0.99951 0.997972
1.02027 1.02252 1 0.997794
1.01589 1.01823 1 0.9977
1.01838 1.02063 1 0.997802
1.01304 1.01533 1 0.997741
1.003 1.00515 1 0.997863
1.01048 1.01269 1 0.997815
1.00208 1.00415 1 0.997946
0.998416 1 1 0.998416
1.00137 1.00333 1 0.998044
0.998509 1 1 0.998509
0.999589 1 1 0.999589
0.9986 1 1 0.9986
0.999603 1 1 0.999603
0.999906 1 1 0.999906
0.999607 1 1 0.999607
0.999905 1 1 0.999905
1 1 1 1
1.01995 1.02236 1 0.997639
1.0112 1.01344 1 0.997789
1.01983 1.02211 1 0.997761
1.00048 1.00233 1 0.998152
1.00828 1.01034 1 0.997966
1.01735 1.01932 1 0.998069
0.998675 1 1 0.998675
1.00015 1.00197 1 0.998183
1.00662 1.00869 1 0.997944
0.998699 1.00038 1 0.998318
0.99883 1 1 0.99883
0.999618 1 1 0.999618
0.998999 1 1 0.998999
0.999731 1 1 0.999731
1 1 1 1
0.999861 1 1 0.999861
1 1 1 1
1 1 1 1
1.02595 1.02812 0.999995 0.997899
1.02676 1.02883 0.999978 0.998011
1.02511 1.02757 0.999463 0.998142
1.02239 1.02472 1 0.997722
1.01661 1.01892 1 0.997737
1.02274 1.02507 1 0.997726
1.02415 1.02626 1 0.997941
1.02826 1.03042 0.99981 0.998091
1.02787 1.03094 0.998808 0.998217
1.0245 1.02665 0.999949 0.997954
1.02127 1.0235 1 0.997818
1.02471 1.02804 0.998739 0.998024
1.02155 1.02377 1 0.997834
1.01742 1.01974 1 0.997723
1.02041 1.02267 1 0.997796
1.01555 1.01789 1 0.997703
1.00473 1.00695 1 0.997795
1.01285 1.01514 1 0.997742
1.00354 1.00569 1 0.997863
0.99834 1 1 0.99834
1.00244 1.0045 1 0.997946
0.998414 1 1 0.998414
0.999551 1 1 0.999551
0.998507 1 1 0.998507
0.99958 1 1 0.99958
0.999896 1 1 0.999896
0.999598 1 1 0.999598
0.999911 1 1 0.999911
0.999904 1 1 0.999904
1.02166 1.02392 1 0.997789
1.01395 1.01633 1 0.997654
1.02022 1.02262 1 0.997647
1.00218 1.00419 1 0.997991
1.01101 1.01324 1 0.997797
1.02019 1.02245 1 0.997785
0.998559 1 1 0.998559
1.00044 1.00234 1 0.998109
1.00804 1.0101 1 0.997966
0.999551 1 1 0.999551
0.998677 1 1 0.998677
0.999939 1.00176 1 0.998179
0.998832 1 1 0.998832
0.999628 1 1 0.999628
1 1 1 1
0.999744 1 1 0.999744
1 1 1 1
1 1 1 1
1.02253 1.02472 1 0.997862
1.02542 1.02759 0.99999 0.997898
1.02725 1.02935 0.999959 0.997995
1.02181 1.02414 1 0.997727
1.02198 1.02424 1 0.997785
1.02469 1.02682 0.999974 0.997949
1.02811 1.03028 0.999807 0.998084
1.02474 1.02683 1 0.997966
1.02109 1.02332 1 0.997825
1.01625 1.01856 1 0.997735
1.02149 1.02373 1 0.99781
1.01717 1.0195 1 0.997715
1.00614 1.0084 1 0.997754
1.0152 1.01754 1 0.997706
1.00521 1.00743 1 0.997797
0.998271 1 1 0.998271
1.00405 1.0062 1 0.997863
0.998339 1 1 0.998339
0.999451 1 1 0.999451
0.998413 1 1 0.998413
0.999517 1 1 0.999517
1 1 1 1
0.999572 1 1 0.999572
0.999904 1 1 0.999904
0.999913 1 1 0.999913
1.02046 1.02268 1 0.997829
1.01522 1.01756 1 0.997706
1.02132 1.02359 1 0.997787
1.00454 1.00674 1 0.99781
1.01406 1.01642 1 0.997676
1.02058 1.02298 1 0.997654
0.998377 1 1 0.998377
1.0022 1.00422 1 0.997989
1.01087 1.01309 1 0.997805
0.999518 1 1 0.999518
0.99852 1 1 0.99852
1.00045 1.00238 1 0.998066
1 1 1 1
0.999561 1 1 0.999561
0.998679 1 1 0.998679
0.999638 1 1 0.999638
1 1 1 1
1 1 1 1
1.02129 1.02355 1 0.997793
1.02296 1.02514 1 0.997871
1.02485 1.02702 0.999992 0.997897
1.01723 1.01959 1 0.997686
1.02114 1.0234 1 0.997789
1.02525 1.02738 0.999966 0.997957
1.02093 1.02314 1 0.997833
1.01635 1.01866 1 0.997735
1.00614 1.00836 1 0.997796
1.01687 1.01921 1 0.997707
1.00628 1.00851 1 0.997786
0.998147 1.00001 1 0.998141
1.0057 1.00791 1 0.997799
0.998271 1 1 0.998271
0.9994 1 1 0.9994
0.998338 1 1 0.998338
0.999448 1 1 0.999448
1 1 1 1
0.999477 1 1 0.999477
0.999944 1 1 0.999944
0.999911 1 1 0.999911
1.01845 1.02069 1 0.997802
1.01555 1.01784 1 0.997746
1.02037 1.02259 1 0.99783
1.00538 1.00758 1 0.997815
1.01562 1.01796 1 0.997701
1.02099 1.02325 1 0.997785
0.998275 1 1 0.998272
1.00443 1.00659 1 0.997854
1.01413 1.01647 1 0.997697
0.99949 1 1 0.99949
0.998363 1 1 0.998363
1.00222 1.00424 1 0.997988
1 1 1 1
0.999526 1 1 0.999526
0.998482 1 1 0.998482
1 1 1 1
0.999572 1 1 0.999572
1 1 1 1
1.01746 1.01979 1 0.997721
1.0208 1.02306 1 0.997788
1.02341 1.02559 1 0.99788
1.00547 1.00771 1 0.997778
1.01723 1.01958 1 0.997698
1.02036 1.02262 1 0.997793
1.01648 1.01878 1 0.997736
1.00616 1.00839 1 0.997796
0.998113 1.00002 1 0.998097
1.00644 1.00864 1 0.997817
0.99818 1.00001 1 0.998175
0.999334 1 1 0.999334
0.998271 1 1 0.998271
0.999396 1 1 0.999396
1 1 1 1
0.999445 1 1 0.999445
1 1 1 1
0.999898 1 1 0.999898
1.01554 1.01782 1 0.997765
1.01871 1.02095 1 0.997809
1.0049 1.00709 1 0.997821
1.01541 1.01771 1 0.997745
1.02028 1.0225 1 0.997832
0.998287 1 1 0.998287
1.00531 1.00752 1 0.997812
1.01601 1.01835 1 0.997696
0.999451 1 1 0.999451
0.998302 1 1 0.998298
1.00432 1.00644 1 0.997897
1 1 1 1
0.999496 1 1 0.999496
0.998349 1 1 0.998349
1 1 1 1
0.999535 1 1 0.999535
1 1 1 1
1.00514 1.00734 1 0.997813
1.01737 1.01969 1 0.997718
1.02023 1.0225 1 0.997783
0.998093 1 1 0.998093
1.00551 1.00775 1 0.997778
1.01718 1.01952 1 0.997711
1.00619 1.00841 1 0.997795
0.998116 1.00002 1 0.9981
0.999282 1 1 0.999282
0.998213 1 1 0.998208
0.99933 1 1 0.99933
1 1 1 1
0.999393 1 1 0.999393
1 1 1 1
1 1 1 1
1.0046 1.0068 1 0.997814
1.01518 1.01745 1 0.997769
1.01897 1.0212 1 0.997815
0.998261 1 1 0.998261
1.00516 1.00735 1 0.997819
1.01525 1.01754 1 0.997745
0.999407 1 1 0.999407
0.998292 1.00001 1 0.998285
1.00526 1.00746 1 0.997809
1 1 1 1
0.999455 1 1 0.999455
0.998329 1 1 0.998325
1 1 1 1
0.999502 1 1 0.999502
1 1 1 1
0.998175 1 1 0.998175
1.00513 1.00736 1 0.997779
1.01731 1.01964 1 0.997715
0.999273 1 1 0.999273
0.998092 1 1 0.998092
1.00554 1.00778 1 0.997778
0.998118 1.00001 1 0.998103
0.999281 1 1 0.999281
1 1 1 1
0.999327 1 1 0.999327
1 1 1 1
1 1 1 1
0.998222 1 1 0.998222
1.00468 1.00689 1 0.997806
1.01484 1.01711 1 0.997773
0.999453 1 1 0.999453
0.998262 1 1 0.998259
1.00542 1.00762 1 0.997817
1 1 1 1
0.999409 1 1 0.999409
0.998294 1.00001 1 0.998284
1 1 1 1
0.999458 1 1 0.999458
1 1 1 1
0.999275 1 1 0.999275
0.998147 1 1 0.998147
1.00512 1.00739 1 0.997744
1 1 1 1
0.999273 1 1 0.999273
0.998091 1 1 0.998091
0.999279 1 1 0.999279
1 1 1 1
1 1 1 1
0.999404 1 1 0.999404
0.998223 1 1 0.998222
1.00476 1.00697 1 0.997799
1 1 1 1
0.999368 1 1 0.999368
0.998266 1.00001 1 0.998257
1 1 1 1
0.99941 1 1 0.99941
1 1 1 1
0.999815 1 1 0.999815
0.999337 1 1 0.999337
0.998119 1 1 0.998119
1 1 1 1
0.999273 1 1 0.999273
1 1 1 1
0.999833 1 1 0.999833
0.999368 1 1 0.999368
0.998226 1 1 0.998222
0.999921 1 1 0.999921
0.999366 1 1 0.999366
1 1 1 1
1 1 1 1
0.999293 1 1 0.999293
1 1 1 1
0.999913 1 1 0.999913
0.999326 1 1 0.999326
1 1 1 1
1 1 1 1
1 1 1 1

VECTORS lamdaE float
0.999977 1.00015 0.995366
0.999881 1.00032 0.997811
0.999715 1.00034 0.995518
1.00026 0.999928 0.995171
1.00007 0.999972 0.99542
0.999988 1.00028 0.995174
1.00119 1.00048 0.992643
0.999872 1.0002 0.997845
0.999793 1.00023 0.998051
0.999463 1.00066 0.998077
0.999857 1.00007 0.995667
1.00096 1.00123 0.991781
1.0002 1.00001 0.995095
0.999928 0.99998 0.995361
0.99948 1.00054 0.995643
1.00006 0.999905 0.995375
0.999705 1.00057 0.99531
0.999844 1.00004 0.995591
1.00134 1.00032 0.992578
1.00017 1 0.997696
1.0003 0.999984 0.995034
1.00019 0.999889 0.995338
1.00157 0.999988 0.992469
1.00137 1.00013 0.992681
0.999939 1.00017 0.995245
1.00101 1.00098 0.992437
1.00372 1.00032 0.988502
0.999823 1.00012 0.997908
0.999926 1.00011 0.996663
0.99967 1.00049 0.996665
0.999806 0.999853 0.998027
1.00086 1.00135 0.991791
1.00019 0.999848 0.995216
0.999927 1.00037 0.995276
1.00166 1.00017 0.992873
0.999469 0.999237 0.99857
1.00133 1.00083 0.992846
1.00061 1.0014 0.992239
1.0027 1.00208 0.987878
0.999558 0.998311 0.998872
1.00021 1.00001 0.997654
1.00007 1 0.996511
1.00017 0.999999 0.997672
0.999894 1.00003 0.995385
1.00177 1.00004 0.991522
0.999972 0.999959 0.997969
1.00188 1.00011 0.992586
0.999852 0.999845 0.995579
0.99963 1.00011 0.995748
0.999431 1.0009 0.995433
1.00148 1.00014 0.992527
1.00006 1.00001 0.996534
1.00009 0.999983 0.995246
0.999682 1.00046 0.995386
0.999985 0.999878 0.995525
1.00166 0.999952 0.992389
1.00118 1.00081 0.992369
1.00148 1.00004 0.992616
1.00371 1.00034 0.988495
1.00014 1 0.997697
1.00027 1.00001 0.995054
1.00159 1 0.993043
1.00162 1.00002 0.992347
1.0015 0.999968 0.992611
1.00403 0.999954 0.988254
1.00386 1.00001 0.988267
0.99977 0.999567 0.995948
1.00044 1.0016 0.992637
1.0035 1.00086 0.988347
1.00479 1.00005 0.986153
1.00008 1.00014 0.997782
0.999716 0.999622 0.998205
0.999871 1.00033 0.997796
1.00077 1.00144 0.9918
1.00021 0.999978 0.997743
0.999981 1.00031 0.997796
1.00155 1.00013 0.991725
0.999563 0.999317 0.997476
1.00113 1.00091 0.991703
1.00047 1.00145 0.992958
1.00273 1.00202 0.987864
0.999655 0.998732 0.998617
0.999672 0.999991 0.995316
1.00176 0.999979 0.991584
1.00146 1.00041 0.991715
1.00401 1.0002 0.987378
1.00015 1.00109 0.994422
1.00335 1.00104 0.987738
1.00167 1.00338 0.988457
1.00379 1.00199 0.985901
0.999526 0.997946 0.999056
0.999502 0.998237 0.998953
1.00024 0.999985 0.997678
1.00022 1.00001 0.997654
1.00019 1 0.99767
1.00006 1.00001 0.996523
1.0018 1.00003 0.992141
1.00009 0.999967 0.996553
1.00182 1.00012 0.99202
1.00018 0.999995 0.997678
1.00169 0.999966 0.991691
1.00187 1.00011 0.992624
1.0042 0.999745 0.987526
1.00183 1.00002 0.992719
1.00423 0.999948 0.987291
1.00015 1.00001 0.99518
0.999865 0.999975 0.995464
0.999393 1.0008 0.995544
0.999785 0.999845 0.995708
1.00174 0.999954 0.992308
1.00159 0.999949 0.992557
1.00134 1.0006 0.992309
1.0037 1.00036 0.988487
1.00018 0.999999 0.997685
1.00005 1.00001 0.995267
1.0017 0.99998 0.99201
1.00171 1.00001 0.992256
0.999651 0.999781 0.997037
1.00069 1.0015 0.992764
1.00159 0.999918 0.992539
1.00404 0.99993 0.988144
1.00346 1.00091 0.988369
1.00386 1.00009 0.988346
1.00477 1.00006 0.986174
1.00167 0.999987 0.991736
1.0016 1 0.992384
1.00409 0.999691 0.988179
1.00409 0.999863 0.988013
1.00397 0.999879 0.988178
1.00503 0.999579 0.986501
0.999617 0.999187 0.998474
1.00488 0.99981 0.986245
1.00001 1.00169 0.992828
1.00254 1.00214 0.988017
1.00468 1.00049 0.985984
1.00516 0.999857 0.985677
0.999827 1.00088 0.994035
1.0002 1.00355 0.990795
1.00019 1.00001 0.997759
0.999939 1.0003 0.997796
1.00156 1.00011 0.991726
0.999617 0.999054 0.99853
1.00025 1.00167 0.992459
1.00108 1.00096 0.991712
1.00277 1.00197 0.987849
0.99958 0.998658 0.998715
0.999669 0.999904 0.99536
1.00176 1.00001 0.992203
1.00145 1.00044 0.992306
1.00401 1.00021 0.987378
0.999981 1.00114 0.993597
1.00336 1.00102 0.987744
1.00166 1.00335 0.988454
1.00385 1.00195 0.985889
0.999782 1.00062 0.994507
0.999722 0.999337 0.995879
1.00023 1.00253 0.991815
1.00414 1.00008 0.98728
1.00373 1.00052 0.987563
1.00496 1.00007 0.985856
1.00095 1.00359 0.989579
1.00444 1.00071 0.985941
1.00268 1.0037 0.986208
1.00458 1.00121 0.98553
0.999567 0.997674 0.999129
0.999503 0.997896 0.999084
0.999457 0.998158 0.999012
0.999785 1.00045 0.994552
0.999596 0.998852 0.998634
1.00024 0.999973 0.997714
1.00022 1 0.997656
1.00174 1.00013 0.991449
1.00172 1.00003 0.991571
1.00017 1 0.997672
1.00016 0.999999 0.997678
1.00168 0.999974 0.991686
1.00181 1.0001 0.992044
1.0042 0.999739 0.987524
1.00174 1.00004 0.991527
1.00422 0.999948 0.987287
1.00166 0.999961 0.99173
1.00416 0.999665 0.987673
1.00423 0.999842 0.987379
1.00512 0.99914 0.986555
1.0042 1.00002 0.987257
1.00513 0.999507 0.986177
1.00016 0.999996 0.997678
0.999834 1.00002 0.99548
1.00171 0.999972 0.991071
1.00179 1 0.992163
0.999381 0.999935 0.99834
1.001 1.00131 0.992885
1.00168 0.999891 0.992469
1.00406 0.99989 0.988035
1.00386 1.00015 0.988425
1.00342 1.00098 0.98839
1.00477 1.00008 0.986195
1.00165 0.999974 0.991737
1.0017 1 0.992283
1.0041 0.999675 0.987874
1.00411 0.999901 0.988073
0.999645 0.999266 0.998405
1.00023 1.00152 0.993305
1.00251 1.00229 0.988286
1.00397 0.999911 0.98816
1.00503 0.999468 0.98646
1.00467 1.00052 0.985891
1.00488 0.999861 0.98636
1.00515 0.999851 0.985706
0.999844 1.0009 0.99403
1.00027 1.00341 0.990806
1.00411 0.999671 0.987745
1.0041 0.999791 0.988062
1.00504 0.99922 0.986832
1.00506 0.999261 0.986496
1.00496 0.999595 0.98654
1.00522 0.998742 0.986813
0.999896 1.00127 0.99348
1.00518 0.999352 0.986161
1.00132 1.00337 0.98892
1.00397 1.00176 0.985758
1.00514 1.00053 0.985323
1.00517 0.999277 0.986361
1.00053 1.0035 0.990299
1.00011 1.00291 0.991567
1.00072 1.00457 0.989073
1.00169 0.999989 0.991645
0.999512 0.998565 0.998816
0.999669 0.999811 0.995403
1.00133 1.00048 0.991756
1.00401 1.00022 0.987378
0.999899 1.00122 0.99353
1.00163 1.00332 0.988451
1.00337 1.00101 0.987751
1.0039 1.00189 0.985876
0.99976 1.00056 0.994531
0.999733 0.999247 0.995914
1.00012 1.00267 0.991829
1.00414 1.0001 0.987274
1.00374 1.00052 0.987568
1.00497 1.00006 0.98584
1.00086 1.00364 0.989604
1.00449 1.00077 0.985946
1.00272 1.0038 0.98618
1.00455 1.00107 0.985491
0.999834 0.99884 0.996165
1.00051 1.00314 0.99071
1.00008 1.00171 0.992903
1.00037 1.00407 0.990114
1.00504 0.999873 0.98592
1.00477 1.00035 0.985879
1.00515 0.999721 0.985853
1.00165 1.00441 0.98751
1.0049 1.00038 0.985612
1.00357 1.00313 0.985356
1.00506 1.00053 0.985308
1.00027 1.00018 0.994084
1.00002 0.998315 0.996339
0.999648 0.997432 0.999161
0.999565 0.997629 0.99914
0.999489 0.997842 0.999107
0.999793 0.999938 0.99507
0.999578 0.998521 0.99878
0.999798 1.0005 0.99453
0.999632 0.998902 0.998579
1.00173 1.00007 0.99152
1.00175 1.00009 0.991472
1.00422 0.999949 0.987283
1.00421 0.999734 0.987522
1.0017 0.999981 0.991683
1.00019 1 0.997672
1.00167 0.999963 0.99173
1.00416 0.999672 0.987672
1.00422 0.99985 0.987376
1.00512 0.999143 0.986553
1.00419 1.00003 0.987248
1.00512 0.99951 0.986167
1.00412 0.999663 0.987742
1.00509 0.999022 0.986728
1.00514 0.999317 0.986346
1.00524 0.997993 0.987524
1.0051 0.999685 0.986036
1.00523 0.998558 0.986953
1.00167 0.999962 0.991738
1.00179 0.999987 0.992183
1.00411 0.999645 0.987571
1.00413 0.999937 0.988133
0.999683 0.999353 0.998328
1.00044 1.00145 0.993686
1.00254 1.00238 0.988552
1.00397 0.99993 0.988143
1.00503 0.999356 0.986419
1.00487 0.999914 0.986476
1.00465 1.00054 0.985798
1.00514 0.999843 0.985735
0.999869 1.00091 0.994024
1.00035 1.0033 0.990817
1.00412 0.999627 0.987683
1.00412 0.999774 0.988048
1.00504 0.999127 0.986919
1.00506 0.999373 0.986513
0.999958 1.00126 0.993472
1.00145 1.00331 0.988898
1.00398 1.00179 0.985774
1.00497 0.999653 0.986514
1.00522 0.998596 0.986968
1.00512 1.00052 0.985267
1.00518 0.999345 0.986181
1.00517 0.999245 0.986353
1.00057 1.00341 0.990314
1.00059 1.00444 0.989145
1.00015 1.00291 0.991552
1.00505 0.999127 0.986893
1.00506 0.999187 0.98682
1.0052 0.998074 0.98753
1.00524 0.998394 0.987082
1.00519 0.998811 0.986689
1.00518 0.997389 0.988162
1.00079 1.00344 0.989854
1.00517 0.998419 0.987056
1.00256 1.00333 0.986898
1.00481 1.00147 0.984614
1.00515 1.00039 0.985314
1.0051 0.998485 0.98722
1.00014 1.00215 0.992307
1.00113 1.00366 0.989098
1.00021 1.00473 0.989546
1.00121 1.00398 0.988883
1.00413 1.00011 0.987267
0.99974 0.999168 0.995948
0.999733 1.00052 0.994556
1.00004 1.00278 0.991842
1.00375 1.00051 0.987572
1.00497 1.00006 0.985824
1.00076 1.0037 0.989628
1.00277 1.00391 0.98615
1.00453 1.00082 0.985951
1.00453 1.00096 0.985452
0.999839 0.998798 0.996179
1.00047 1.00321 0.990713
1.00005 1.00169 0.992934
1.00026 1.00422 0.990095
1.00504 0.999876 0.985906
1.0048 1.00034 0.985869
1.00516 0.999728 0.985839
1.00158 1.00448 0.987537
1.00494 1.00042 0.985635
1.00355 1.00308 0.985332
1.00504 1.00048 0.985286
0.999945 0.998511 0.996284
1.00014 1.0009 0.993603
1.00095 1.0042 0.988993
1.0001 1.00338 0.991274
1.00046 1.00462 0.989478
1.00519 0.999344 0.986197
1.00507 1.00002 0.985662
1.00513 0.999025 0.986558
1.00214 1.00467 0.986445
1.0051 1.00019 0.985502
1.00413 1.00195 0.985016
1.00026 1.00025 0.994022
1.00023 1.00151 0.992861
1.00026 1.00017 0.994126
1.00026 1.00019 0.994083
1.00006 0.998138 0.996929
1.00001 0.998305 0.996619
0.9998 0.99724 0.998082
0.999656 0.997387 0.999166
0.999568 0.997576 0.99915
0.999827 0.999439 0.99552
0.999587 0.998175 0.998919
0.999797 0.999994 0.995044
0.999615 0.99858 0.998729
0.999813 1.00053 0.994507
0.999665 0.998959 0.998523
1.00419 1.00004 0.987239
1.00422 0.999857 0.987373
1.00511 0.999526 0.986157
1.00511 0.999145 0.98655
1.00415 0.999678 0.98767
1.00166 0.999965 0.991728
1.00412 0.999661 0.987742
1.00508 0.999027 0.986728
1.00513 0.999331 0.986339
1.00524 0.997888 0.987644
1.00509 0.999692 0.986026
1.00524 0.998577 0.986939
1.00506 0.999004 0.98679
1.00521 0.997716 0.987885
1.00525 0.998198 0.987284
1.00523 0.996736 0.988781
1.00521 0.99897 0.986579
1.00518 0.997092 0.988385
1.00411 0.999585 0.987622
1.00415 0.999767 0.988033
1.00505 0.999043 0.987005
1.00506 0.999484 0.98653
1.00004 1.00123 0.993461
1.00147 1.0033 0.988877
1.004 1.00182 0.985789
1.00497 0.999712 0.986488
1.00522 0.998448 0.987124
1.00517 0.999338 0.986201
1.00511 1.00053 0.98521
1.00517 0.999213 0.986345
1.00062 1.00332 0.990328
1.00057 1.00432 0.989217
1.00019 1.00288 0.991539
1.00505 0.999085 0.986834
1.00507 0.999185 0.986811
1.00519 0.997889 0.987728
1.00523 0.998452 0.98705
1.00085 1.0034 0.989832
1.00264 1.00325 0.986883
1.00468 1.00152 0.984716
1.00519 0.998958 0.986578
1.00517 0.997201 0.988381
1.00515 1.00042 0.985202
1.00517 0.998424 0.987073
1.0051 0.998382 0.987347
1.0012 1.00365 0.989095
1.00116 1.00399 0.988881
1.00015 1.00216 0.992293
1.00017 1.00459 0.989668
1.00519 0.997905 0.987733
1.00522 0.998165 0.987505
1.00515 0.996861 0.98871
1.00518 0.99656 0.988939
1.00516 0.997689 0.987855
1.00513 0.996367 0.989288
1.00166 1.0034 0.988427
1.0051 0.997126 0.988341
1.00316 1.0032 0.985606
1.00508 1.00157 0.984216
1.00511 1.00005 0.98552
1.00507 0.998081 0.987612
1.00013 1.00159 0.992878
1.00013 1.00401 0.990404
1.00161 1.00318 0.988751
1.00042 1.00492 0.9891
1.00149 1.00333 0.989128
0.999841 0.998767 0.996193
1.00505 0.99988 0.985892
1.00003 1.00166 0.992966
1.0004 1.00333 0.990718
1.00015 1.00435 0.990076
1.00482 1.00033 0.985859
1.00517 0.999736 0.985825
1.0016 1.00446 0.987566
1.00354 1.00302 0.98531
1.00498 1.00046 0.985658
1.00501 1.00043 0.985266
0.999947 0.998499 0.99629
1.00013 1.00088 0.993617
1.00095 1.00416 0.989011
1.00001 1.00347 0.991274
1.00037 1.00463 0.989398
1.00519 0.999351 0.986183
1.00509 1.00002 0.98564
1.00513 0.999003 0.986525
1.00208 1.0047 0.986448
1.00513 1.00018 0.985505
1.00429 1.00183 0.985026
1.00023 1.00045 0.993898
1.00014 1.00234 0.992221
1.00124 1.00438 0.988248
1.00007 1.00454 0.990272
1.00086 1.00418 0.98934
1.00514 0.998444 0.987123
1.00512 0.999571 0.985974
1.00511 0.998334 0.986957
1.00248 1.00405 0.986186
1.00492 1.00082 0.984954
1.00026 1.00026 0.994019
1.00024 1.00149 0.992769
1.00019 1.00154 0.992816
1.00018 1.00226 0.992331
1.0002 1.00154 0.992892
1.00022 1.00021 0.99414
1.00025 1.00017 0.994127
1.0001 0.998049 0.996938
1.00026 1.00019 0.994082
1.00006 0.998148 0.99693
0.9999 0.997013 0.99811
1 0.998303 0.996894
0.999769 0.9972 0.998633
0.999667 0.997342 0.999171
0.999882 0.998984 0.995885
0.999824 0.999491 0.995498
0.999612 0.997865 0.999024
0.999613 0.998245 0.99887
0.999801 1.00005 0.995019
0.999652 0.998628 0.998675
1.00509 0.999698 0.986016
1.00512 0.999333 0.986333
1.00524 0.99859 0.986926
1.00524 0.997782 0.987764
1.00508 0.999031 0.986729
1.00412 0.99966 0.987742
1.00506 0.999003 0.986792
1.00521 0.997723 0.987895
1.00525 0.998209 0.987283
1.00522 0.996514 0.988996
1.00521 0.998973 0.986558
1.00518 0.996975 0.988508
1.00519 0.997757 0.987909
1.00517 0.996548 0.989031
1.00521 0.996523 0.988996
1.00521 0.995587 0.989936
1.00517 0.997737 0.987787
1.00517 0.99603 0.989456
1.00506 0.99904 0.986774
1.00507 0.999192 0.986802
1.00519 0.997698 0.987926
1.00523 0.998507 0.987017
1.00093 1.00337 0.98981
1.00273 1.00318 0.986867
1.00457 1.00148 0.984819
1.00518 0.999108 0.986467
1.00517 0.99701 0.9886
1.00517 0.998428 0.987092
1.00515 1.00045 0.985092
1.0051 0.99828 0.987473
1.00116 1.00369 0.989093
1.00098 1.00409 0.988878
1.00018 1.00217 0.992279
1.00013 1.00452 0.989791
1.00519 0.99791 0.987726
1.00521 0.998236 0.98739
1.00516 0.996754 0.988857
1.00518 0.996656 0.988817
1.00164 1.00355 0.988385
1.00317 1.00318 0.985734
1.00509 1.0015 0.984175
1.00516 0.997858 0.987655
1.00512 0.996123 0.989457
1.00511 1.00007 0.985492
1.0051 0.997149 0.988346
1.00507 0.997855 0.987745
1.00168 1.00316 0.988724
1.00145 1.00323 0.989202
1.00041 1.005 0.989061
1.00014 1.00158 0.992811
1.00009 1.00391 0.990517
1.00513 0.996579 0.989151
1.00518 0.996347 0.989224
1.00514 0.995529 0.989999
1.00511 0.996257 0.989166
1.00198 1.00373 0.987589
1.00511 0.9967 0.988946
1.0036 1.00298 0.984834
1.00511 1.00159 0.984004
1.00507 0.999582 0.985824
1.00009 1.00102 0.993337
1.0001 1.00325 0.991373
1.00033 1.00447 0.989834
1.00192 1.00278 0.988729
1.00066 1.00477 0.988679
1.00178 1.00237 0.989011
0.999947 0.998492 0.996296
1.00012 1.00086 0.99363
1.00519 0.999359 0.986169
0.999907 1.00358 0.991274
1.00086 1.00419 0.98903
1.00027 1.00465 0.989318
1.00512 1.00002 0.985619
1.00513 0.998981 0.986493
1.00199 1.00474 0.986452
1.00442 1.00177 0.985034
1.00515 1.00014 0.98551
1.00022 1.00045 0.993901
1.00009 1.00237 0.992242
1.00124 1.00442 0.988215
0.999943 1.00463 0.990252
1.00076 1.00409 0.989396
1.00515 0.998455 0.9871
1.00512 0.999571 0.985942
1.00511 0.998374 0.98701
1.00254 1.0039 0.986061
1.00492 1.00097 0.984929
1.00022 1.00175 0.99269
0.999847 1.0038 0.991106
1.00174 1.00361 0.988087
1.00008 1.00491 0.989718
1.00129 1.00316 0.989292
1.00511 0.997005 0.988335
1.00511 0.999568 0.985945
1.00509 0.998266 0.986967
1.00366 1.00288 0.985633
1.00504 1.00082 0.984795
1.00025 1.00027 0.994016
1.00024 1.00151 0.992797
1.00006 1.0023 0.992261
1.00017 1.00157 0.992771
1.00018 1.00157 0.992889
1.00011 1.00231 0.992271
1.00002 1.00275 0.992051
1.0001 1.00238 0.992132
1.00015 1.00163 0.992886
1.00017 1.00031 0.994139
1.00022 1.00022 0.99414
1.00012 0.998021 0.996925
1.00025 1.00017 0.994127
1.00011 0.99807 0.996935
0.999971 0.996891 0.998108
1.00007 0.998154 0.996933
0.999888 0.996988 0.998117
0.999733 0.997148 0.999196
0.999937 0.998591 0.996198
0.999874 0.999039 0.995861
0.999656 0.997582 0.999102
0.999818 0.999552 0.995476
0.999629 0.997925 0.998993
0.999643 0.998302 0.99882
1.00522 0.998975 0.986536
1.00525 0.998224 0.987282
1.00519 0.996854 0.988632
1.00522 0.99629 0.989212
1.00521 0.997729 0.987905
1.00506 0.999003 0.986794
1.00519 0.997827 0.98782
1.00518 0.996687 0.988917
1.0052 0.996595 0.988916
1.0052 0.995329 0.990145
1.00517 0.997767 0.987777
1.00516 0.995813 0.989631
1.00513 0.996784 0.988963
1.0052 0.995169 0.990334
1.00517 0.995386 0.990112
1.00514 0.996052 0.989454
1.00519 0.997915 0.987719
1.00521 0.998304 0.987275
1.00516 0.996653 0.989005
1.00518 0.996752 0.988695
1.00169 1.00361 0.988343
1.00316 1.00317 0.985862
1.0051 1.00149 0.984134
1.00516 0.998028 0.987454
1.00512 0.995888 0.989624
1.00511 0.997172 0.98835
1.00511 1.0001 0.985463
1.00508 0.997629 0.987878
1.00176 1.00319 0.988697
1.00149 1.00298 0.989274
1.00037 1.00504 0.989021
1.00014 1.00156 0.992744
1.00007 1.00381 0.990631
1.00513 0.996621 0.989145
1.00519 0.996397 0.989176
1.00514 0.995627 0.989878
1.00201 1.00375 0.987558
1.00374 1.00298 0.98495
1.0051 1.00158 0.983952
1.00512 0.996285 0.989156
1.00507 0.999387 0.986113
1.0051 0.996656 0.988794
1.00009 1.00094 0.993427
1.00202 1.00266 0.988686
1.00161 1.00225 0.989508
1.00077 1.00484 0.988617
1.00032 1.00451 0.989852
1.0001 1.00323 0.991313
1.00516 0.995666 0.989764
1.0052 0.995341 0.990139
1.00513 0.995206 0.990088
1.00516 0.995591 0.9898
1.00247 1.00341 0.987041
1.00511 0.997617 0.987758
1.0046 1.00286 0.983422
1.00504 1.00179 0.983728
1.00014 1.00027 0.994013
1.0001 1.00251 0.992131
1.00023 1.00389 0.990616
1.00047 1.00502 0.988947
1.00222 1.00209 0.988583
1.00173 1.00344 0.98828
1.00021 1.00044 0.993904
1.00004 1.00238 0.992263
1.00515 0.998465 0.987076
0.999822 1.00466 0.990232
1.00125 1.00444 0.988182
1.00055 1.00398 0.989453
1.00514 0.99957 0.985909
1.00511 0.998422 0.987061
1.00264 1.00378 0.985933
1.00493 1.0011 0.984904
1.00019 1.00173 0.992701
0.999916 1.00374 0.991104
1.00178 1.00369 0.988087
0.999952 1.00499 0.989698
1.00111 1.00296 0.989691
1.00511 0.996996 0.988533
1.00511 0.999559 0.986012
1.0051 0.998336 0.986972
1.00355 1.003 0.98544
1.00505 1.00084 0.984698
0.999942 1.0026 0.992087
0.99977 1.00477 0.990117
1.00248 1.00274 0.98775
1.00041 1.00411 0.989036
1.00511 0.995559 0.98973
1.00492 0.997613 0.988251
1.00504 0.999703 0.985739
1.00397 1.00163 0.984949
1.00025 1.00151 0.992825
1.00008 1.00231 0.992282
0.999844 1.00298 0.992162
1.00015 1.00161 0.992887
1.00004 1.00235 0.992212
1.00015 1.00163 0.99288
0.999976 1.00273 0.992053
1.00011 1.00237 0.992167
0.999912 1.00287 0.992069
1.00008 1.00283 0.991807
1.00013 1.00246 0.991988
1.00014 1.00172 0.992802
1.00012 1.00039 0.994125
1.00017 1.00029 0.994138
1.00014 0.998024 0.996904
1.00022 1.0002 0.99414
1.00013 0.998047 0.996921
1.00003 0.996808 0.998096
1.00011 0.998088 0.996935
0.999964 0.996857 0.998116
0.999876 0.996966 0.998119
1.00002 0.998215 0.996437
0.999942 0.998616 0.996174
0.999723 0.997267 0.999167
0.999865 0.999097 0.995835
0.999664 0.997635 0.99908
0.999649 0.997981 0.998953
1.00517 0.997796 0.987767
1.0052 0.99667 0.988835
1.00516 0.995601 0.989806
1.00519 0.995077 0.990354
1.00519 0.99683 0.988804
1.0052 0.9979 0.987732
1.00513 0.99677 0.988993
1.00518 0.995306 0.99023
1.00518 0.995372 0.990084
1.00514 0.996 0.989531
1.00517 0.995513 0.990048
1.00517 0.995016 0.990546
1.00515 0.995135 0.990211
1.00513 0.996664 0.989138
1.0052 0.996448 0.989127
1.00515 0.995727 0.989757
1.00204 1.00377 0.987528
1.00392 1.00296 0.985067
1.00509 1.00159 0.983901
1.00512 0.996308 0.989146
1.00509 0.996608 0.988642
1.00506 0.999189 0.986403
1.00212 1.00254 0.988642
1.0014 1.00217 0.990006
1.00091 1.00492 0.988556
1.0001 1.00086 0.993517
1.00027 1.00451 0.98987
1.0001 1.0032 0.991253
1.00516 0.99574 0.989817
1.0052 0.995277 0.990196
1.00513 0.995239 0.990131
1.00248 1.00346 0.987004
1.0044 1.00279 0.983775
1.00496 1.00164 0.984051
1.00515 0.995644 0.989737
1.00511 0.99756 0.987707
1.00013 1.00024 0.994159
1.0001 1.00252 0.992127
1.00199 1.00208 0.98876
1.00161 1.0035 0.98873
1.00043 1.00493 0.989154
1.00021 1.00392 0.990547
1.00518 0.995015 0.990517
1.00515 0.994929 0.990445
1.00512 0.995133 0.990258
1.00512 0.995709 0.989515
1.00274 1.00276 0.986434
1.00484 1.00042 0.985332
1.00501 1.00323 0.982894
1.00019 0.999861 0.994542
1.0002 1.00103 0.993412
1.0001 1.00171 0.99274
1.00003 1.00347 0.991249
1.00007 1.0046 0.989935
1.00014 1.00485 0.989236
1.00252 1.00104 0.988673
1.0017 1.00345 0.989388
1.00016 1.00175 0.992712
0.999976 1.00376 0.991102
1.00511 0.99699 0.988731
1.00001 1.00502 0.989676
1.00179 1.00382 0.988088
1.0009 1.00282 0.990089
1.00509 0.999529 0.986081
1.00511 0.998395 0.986979
1.00344 1.00308 0.98525
1.00506 1.00085 0.984602
0.999961 1.00268 0.99201
0.999851 1.00464 0.990155
1.00238 1.0028 0.987852
1.00073 1.00418 0.989108
1.00513 0.995438 0.989895
1.00499 0.997618 0.988051
1.00504 0.999677 0.985774
1.00432 1.00179 0.984796
0.9998 1.00342 0.991585
1.00512 0.995146 0.990209
1.00047 1.00501 0.989375
1.00242 1.00313 0.98732
1.00495 0.996057 0.98986
1.00483 0.998708 0.986428
1.0047 1.00123 0.98498
1.00007 1.00235 0.992302
0.99983 1.00294 0.992139
0.999564 1.00342 0.992214
1.00015 1.00161 0.992874
1.00011 1.00237 0.992203
0.999876 1.00276 0.992056
1.00015 1.00171 0.99279
1.00011 1.00246 0.992009
0.999824 1.00293 0.992065
1.00012 1.00277 0.991844
1.00003 1.00271 0.992126
0.999992 1.00291 0.99187
1.00016 1.00298 0.991529
1.00025 1.0025 0.991791
1.00016 1.00182 0.992658
1.00009 1.00049 0.994076
1.00011 1.0004 0.994122
1.00014 0.998064 0.996862
1.00017 1.0003 0.994136
1.00014 0.998055 0.9969
1.00006 0.996747 0.998083
1.00013 0.998074 0.996918
1.00002 0.996772 0.998102
0.999958 0.996826 0.998119
1.00018 0.99979 0.99464
1.00008 0.997968 0.996585
1.00002 0.998236 0.996421
0.999811 0.996986 0.999212
0.999945 0.998651 0.99615
0.999724 0.997343 0.999148
0.999676 0.997696 0.999057
1.00515 0.995948 0.989609
1.00519 0.995362 0.990056
1.00516 0.995441 0.990126
1.00514 0.996752 0.989023
1.00516 0.995431 0.990185
1.00517 0.994992 0.990566
1.00514 0.99518 0.990203
1.00518 0.994931 0.990605
1.00516 0.994949 0.990525
1.0049 0.99504 0.990939
1.00516 0.995808 0.98987
1.0052 0.995207 0.990252
1.00513 0.995275 0.990174
1.00249 1.0035 0.986967
1.00419 1.00273 0.98413
1.00492 1.00149 0.984374
1.00515 0.995703 0.989675
1.00512 0.99751 0.987657
1.00178 1.00212 0.988938
1.00156 1.00354 0.989177
1.00027 1.00488 0.989362
1.00012 1.0002 0.994306
1.00012 1.0025 0.992124
1.00019 1.00398 0.990477
1.00519 0.994993 0.990484
1.00018 0.999879 0.994537
1.00016 1.00106 0.993349
1.00514 0.994942 0.99046
1.00512 0.995137 0.990246
1.00252 1.00294 0.986865
1.0049 1.00304 0.983068
1.00488 1.0003 0.985252
1.00511 0.995852 0.989411
1.00011 1.0017 0.992919
1.00007 1.00344 0.991231
1.00274 1.00141 0.98844
1.00112 1.00343 0.989774
1.00021 1.00477 0.989408
1.00003 1.00466 0.990013
1.00519 0.994947 0.990379
1.00509 0.994862 0.990582
1.00509 0.995067 0.990054
1.00483 0.996506 0.989009
1.00256 1.00246 0.987422
1.00451 1.00315 0.983843
1.00012 1.00111 0.99329
1.00017 1.00116 0.993312
1.00026 1.0018 0.992663
1.00009 1.00291 0.991538
0.999945 1.00415 0.990829
1.00059 1.00446 0.989355
0.999632 1.00502 0.989752
1.00193 1.00094 0.989886
0.999982 1.00272 0.991934
0.999965 1.00457 0.990195
1.00514 0.995308 0.990061
1.00506 0.997654 0.987852
1.00102 1.00426 0.98918
1.00227 1.0028 0.98795
1.00505 0.999653 0.985807
1.00468 1.00196 0.984641
0.999845 1.00343 0.991542
1.00511 0.994988 0.990355
1.00025 1.00492 0.989493
1.00244 1.00299 0.987184
1.00498 0.995956 0.98979
1.00474 0.998813 0.98667
1.00474 1.00136 0.985022
0.999868 1.00449 0.990752
1.00451 0.994963 0.99198
1.00153 1.00409 0.988957
1.0031 1.00309 0.986633
1.00484 0.99665 0.98911
1.00408 1.00067 0.986039
0.999444 0.996747 0.99158
0.999787 1.00294 0.992117
0.999461 1.00351 0.992207
0.999755 1.00351 0.991982
1.00014 1.00172 0.992778
1.0001 1.0025 0.992029
1.00016 1.00271 0.991881
0.999769 1.00293 0.99206
1.00016 1.00181 0.992656
1.00023 1.00255 0.991781
1 1.0028 0.992
1.00013 1.00303 0.991532
1.00006 1.00285 0.991849
1.00009 1.0026 0.992069
1.00026 1.00314 0.991219
1.0002 1.00304 0.991429
1.00035 1.00261 0.991531
1.0002 1.00189 0.992414
1.00027 1.00242 0.991995
1.0002 1.00197 0.992308
1.00008 1.00053 0.994026
1.00008 1.00049 0.994074
1.00016 0.998149 0.996255
1.00012 1.00039 0.994119
1.00015 0.998105 0.996577
1.00003 0.996702 0.999177
1.00014 0.998089 0.996897
1.00006 0.996711 0.998088
1.00002 0.996739 0.998105
1.00015 0.999747 0.994728
1.00019 0.999766 0.994646
1.0001 0.997826 0.996697
1.00007 0.997973 0.996838
0.999887 0.996781 0.999246
1.00003 0.998252 0.996406
0.999803 0.997053 0.9992
0.999727 0.997406 0.999129
1.00513 0.995224 0.990195
1.00517 0.994964 0.990586
1.00515 0.995355 0.990323
1.00518 0.99493 0.990602
1.00515 0.994952 0.990514
1.00491 0.995192 0.990598
1.00519 0.994957 0.990449
1.00096 0.994937 0.988322
1.00409 0.994933 0.993516
1.00006 1.00114 0.993507
1.00519 0.994971 0.990451
1.00514 0.994957 0.990475
1.00512 0.995139 0.990233
1.00228 1.0031 0.987293
1.00466 1.00296 0.98324
1.00496 1.00019 0.985177
1.00509 0.996011 0.989306
1.00306 1.00157 0.98821
1.00052 1.00341 0.990163
1.00032 1.00465 0.989581
1.00016 0.999916 0.994534
1.00001 1.00468 0.990091
1.0001 1.00167 0.993097
1.0001 1.00341 0.991212
1.00015 1.00105 0.993285
1.00519 0.99494 0.990392
1.00012 1.00109 0.993386
1.00016 1.00119 0.993308
1.00025 1.0018 0.992577
1.00508 0.994879 0.990565
1.0051 0.995144 0.990005
1.00272 1.00242 0.987457
1.00428 1.00271 0.984328
1.00474 0.996886 0.988931
1.00004 1.00293 0.991656
1 1.00416 0.990648
1.00181 1.0016 0.989738
0.999977 1.00481 0.989797
1.00051 1.00434 0.989431
1.00514 0.994961 0.990555
1.0051 0.994871 0.990518
1.00504 0.996025 0.989257
1.00455 0.99854 0.988436
1.00167 1.00278 0.989049
1.00011 1.00209 0.992329
1.00028 1.002 0.992117
1.00009 1.00271 0.991797
0.999896 1.00419 0.991064
0.99998 1.0044 0.990301
1.00005 1.00455 0.989718
1.00031 1.00369 0.990274
0.999929 1.00341 0.991497
0.999976 1.00479 0.98961
1.00516 0.99493 0.990499
1.00503 0.995823 0.989719
1.00469 0.998893 0.986912
1.00249 1.00283 0.987051
1.00479 1.00147 0.985064
0.999874 1.00443 0.990877
1.00442 0.994976 0.992096
1.00116 1.00398 0.989107
1.00287 1.00317 0.986614
1.00478 0.996452 0.989451
1.00423 1.00065 0.986007
0.999439 0.996755 0.989565
1.00002 1.00437 0.990629
1.00339 0.99643 0.992153
1.00109 1.00359 0.989336
1.00264 1.00208 0.987422
1.004 0.997822 0.988323
1.00033 0.995577 0.954593
0.996853 0.995181 0.97381
0.997159 1.00256 0.990505
0.999803 0.996908 0.907146
0.994739 0.997802 0.885816
0.99938 1.00356 0.9922
0.999495 1.00372 0.992034
0.99985 1.00288 0.992269
1.00016 1.00181 0.992655
1.00027 1.00248 0.991771
1.00013 1.00304 0.991534
1.00013 1.00279 0.991827
0.999961 1.00293 0.991874
1.00024 1.00298 0.991385
1.0002 1.00187 0.992485
1.00034 1.0026 0.991546
1.00011 1.0026 0.991994
1.0002 1.00316 0.991298
1.00026 1.00317 0.991295
0.999985 1.00289 0.991739
1.00034 1.00306 0.991187
1.00036 1.00258 0.991484
1.00022 1.00197 0.992297
1.00035 1.00261 0.991607
1.00025 1.00263 0.991751
1.00013 1.00244 0.992086
1.00026 1.00245 0.991929
1.00022 1.00176 0.992611
1.00021 1.00199 0.992298
1.00012 1.00052 0.993988
1.00008 1.00055 0.994024
1.00015 0.998217 0.996229
1.00008 1.00051 0.994072
1.00016 0.99816 0.996253
1.00004 0.996709 0.999169
1.00016 0.998143 0.996293
1.00006 0.996704 0.998617
1.00006 0.996675 0.998091
1.0001 0.999751 0.994809
1.00015 0.99974 0.994729
1.00012 0.997726 0.996773
1.00019 0.99974 0.994651
1.0001 0.997791 0.996952
0.999942 0.996613 0.999274
1.00007 0.998013 0.996555
0.999875 0.996866 0.999229
0.999798 0.997109 0.999189
1.00514 0.994955 0.990504
1.00518 0.99493 0.990599
1.00491 0.99528 0.990256
1.00079 0.995185 0.988424
1.00517 0.994954 0.990439
1.00399 0.995452 0.993024
1.0049 0.996408 0.991219
0.997212 0.995293 0.972436
1.00089 0.996475 0.989725
1.00007 1.00119 0.99345
1.00011 1.00109 0.993501
1.00002 1.00214 0.992578
1.00008 1.0021 0.992542
1.00518 0.994929 0.990405
1.00507 0.994888 0.990548
1.00511 0.995207 0.989954
1.0031 1.00215 0.987494
1.00409 1.00204 0.984808
1.00467 0.997293 0.98885
1.00156 1.0024 0.989591
1.00037 1.00463 0.989839
1.00041 1.0042 0.989506
1.00013 1.00125 0.993303
1.00003 1.00418 0.990465
1.00007 1.00293 0.991776
1.00012 1.00108 0.993483
1.00021 1.00184 0.992488
1.00516 0.994952 0.990544
1.00011 1.00213 0.992443
1.00025 1.00203 0.992275
0.99996 1.00259 0.99212
1.00511 0.994871 0.990438
1.00497 0.995861 0.989287
1.00208 1.00218 0.988962
1.00423 0.99839 0.988802
0.999963 1.00404 0.990977
1.00014 1.00452 0.989894
1.00031 1.00399 0.990257
1.00046 1.00442 0.989653
1.00473 0.994861 0.991376
1.00509 0.995585 0.990094
1.00504 0.996531 0.989129
1.00232 0.999951 0.990841
0.999992 1.00324 0.991442
1.0001 1.00327 0.991219
0.999459 1.00453 0.991081
0.999657 1.00511 0.990083
1.00001 0.994907 0.948473
0.999851 1.00439 0.991002
1.00072 1.00393 0.989257
1.00434 0.99494 0.99221
1.0047 0.996323 0.989792
1.00435 1.00059 0.985973
1.00259 1.00326 0.986592
0.999578 0.996525 0.987494
0.999884 1.00456 0.990715
1.00359 0.996126 0.992168
1.00098 1.00367 0.98938
1.00294 1.00175 0.987394
1.00427 0.997899 0.988389
1.00146 0.995836 0.946926
0.996685 0.995333 0.969656
0.997057 1.00232 0.990262
0.99979 0.997543 0.910279
0.994725 0.997737 0.876386
0.999813 1.00363 0.991667
0.999878 0.995266 0.916037
0.995346 0.997178 0.887424
1.0021 1.00042 0.990683
1.0005 1.00348 0.990317
1.00232 1.0006 0.988692
0.996772 1.00363 0.990119
1.0002 0.997238 0.952169
0.994932 0.996795 0.967563
0.998313 0.998808 0.913855
0.994772 0.999085 0.883935
0.999295 1.00391 0.992085
0.999749 1.00307 0.9922
0.999653 1.00227 0.993551
1.00021 1.00183 0.992557
1.00034 1.00263 0.991562
1.00015 1.00305 0.991342
1.00014 1.00318 0.991379
1.00014 1.00258 0.99192
1.00023 1.00193 0.992308
1.0002 1.00323 0.991249
1.00033 1.00304 0.991205
1.00038 1.00255 0.991541
0.999988 1.00284 0.99182
1.00016 1.00325 0.991435
0.999702 1.00305 0.991911
1.00043 1.003 0.991029
1.00042 1.00265 0.99143
1.00038 1.00259 0.991589
1.00025 1.00263 0.991769
1.00046 1.00267 0.991391
1.00009 1.00282 0.991807
1.00007 1.00253 0.991877
0.999742 1.00371 0.991429
0.999979 1.00271 0.992064
1.00014 1.00245 0.992082
1.00017 1.00171 0.992751
1.00025 1.00247 0.991863
1.00024 1.00177 0.992547
1.00018 1.00044 0.993974
1.00021 1.002 0.992288
1.00012 1.00052 0.99399
1.00012 0.998213 0.996812
1.00008 1.00056 0.994022
1.00014 0.998199 0.99652
1.00009 0.996737 0.998016
1.00016 0.998172 0.996251
1.00004 0.996718 0.999167
1.00009 0.99671 0.998056
1.0001 1.00129 0.993297
1.00006 0.999801 0.994817
1.0001 0.999739 0.994811
1.00013 0.99769 0.996794
1.00016 0.999731 0.99473
1.00013 0.997697 0.996773
0.999986 0.996508 0.999287
1.00008 0.997799 0.997185
0.999957 0.996686 0.998764
0.999919 0.996919 0.998196
1.00045 0.995456 0.988551
1.00516 0.994956 0.990431
1.00388 0.996197 0.992531
0.99672 0.995182 0.973867
1.0007 0.996381 0.989986
1.00496 0.995821 0.990999
1.0033 0.997009 0.989363
0.99693 0.996862 0.976458
1.00007 0.995581 0.952578
0.999364 0.998259 0.917113
0.994659 0.997851 0.884535
0.999959 1.00215 0.992502
1.00009 1.00117 0.993449
1.00015 1.00104 0.993495
1.00002 1.00215 0.992542
0.999939 1.00297 0.991917
1.00015 1.00269 0.991866
1.00007 1.00243 0.992254
1.00002 1.00222 0.992471
1.00518 0.994917 0.990529
1.00512 0.994875 0.990353
1.00498 0.995621 0.989319
1.00227 1.00184 0.988878
1.00393 0.998337 0.989171
1.00032 1.00428 0.99024
1.0008 1.00433 0.989589
1.00035 1.00461 0.989488
1.00018 1.00204 0.992433
0.999968 1.00404 0.99089
1.00011 1.00219 0.992558
0.999939 1.00243 0.992443
1.00473 0.99486 0.99144
0.999981 1.00326 0.991517
1.00008 1.0033 0.991378
1.00503 0.995334 0.990018
1.00462 0.996175 0.98951
1.00229 0.999919 0.990639
0.999711 1.00473 0.990624
0.99998 1.00478 0.99015
1.00336 0.99651 0.991871
1.00467 0.995983 0.990733
1.00418 0.995508 0.99116
1.00134 1.00068 0.991113
1.00002 1.00407 0.990595
0.999665 1.00436 0.990863
0.99968 1.00514 0.990396
0.999915 0.994847 0.917147
1.0005 0.995044 0.957072
0.999799 1.00473 0.9908
1.00089 1.00365 0.989424
1.00369 0.995806 0.992185
1.00452 0.998065 0.988456
1.00327 1.00147 0.987371
1.00053 0.995162 0.952967
0.997142 0.995685 0.968919
0.996907 1.00217 0.98999
0.999057 0.997325 0.918665
0.994711 0.997747 0.866754
0.999752 1.00363 0.991685
0.999883 0.995871 0.91501
0.99533 0.997206 0.882698
1.00207 1.00028 0.990733
1.00047 1.00337 0.990379
1.00236 1.00072 0.989182
0.997123 1.00337 0.990748
1.00135 0.997004 0.946359
0.994917 0.996166 0.971419
0.998546 0.999432 0.914393
0.994906 0.998878 0.881768
0.999351 1.00318 0.993232
0.995526 0.996824 0.88745
0.995094 0.99872 0.901969
0.999686 1.00185 0.992894
0.999525 1.00351 0.992302
0.996193 1.00281 0.991331
0.994821 0.999125 0.970835
0.998292 0.999246 0.944353
0.99519 0.999876 0.92
0.994797 0.996136 0.891051
0.999753 1.00317 0.992131
0.999769 1.002 0.993505
0.998986 1.00234 0.993914
1.00024 1.00191 0.992319
1.00038 1.00253 0.991597
1.00032 1.00301 0.991223
1.00016 1.0033 0.991204
0.999952 1.00284 0.9919
1.00042 1.00266 0.991423
1.00017 1.00318 0.991382
1.00044 1.00299 0.991041
0.999508 1.00327 0.992035
0.997869 1.00428 0.993702
1.0002 1.00335 0.991183
1.0006 1.00302 0.990823
1.0004 1.00257 0.991572
1.00028 1.00259 0.991787
1.00044 1.0027 0.991373
1.00011 1.00282 0.991786
1.00011 1.0025 0.991962
0.999867 1.00331 0.991637
1.00012 1.00276 0.991648
0.99995 1.00268 0.992044
1.0002 1.00289 0.991535
0.999822 1.00495 0.989669
0.999541 1.00412 0.991172
0.999786 1.0037 0.991421
0.999867 1.00304 0.99192
1 1.00271 0.992058
1.00009 1.00179 0.992777
1.00014 1.00249 0.992078
1.00018 1.0017 0.992756
1.00023 1.00032 0.993984
1.00025 1.00178 0.992483
1.00018 1.00042 0.99398
1.00012 0.998211 0.996813
1.00012 1.00052 0.993992
1.00014 0.998191 0.996526
1.00006 0.99673 0.998033
1.00016 0.998177 0.996232
1.00003 0.996744 0.999161
1.00004 0.996729 0.999164
1.00013 1.00141 0.993334
1.00007 0.999889 0.994728
1.0001 1.00129 0.993302
1.00014 0.997683 0.996785
1.00007 0.999793 0.99482
1.0001 0.999737 0.994813
1.00013 0.99768 0.996792
1.00002 0.99645 0.999288
1.00011 0.997679 0.997252
1.00001 0.996523 0.998798
0.999985 0.996683 0.998281
0.999832 0.996081 0.909119
0.994912 0.99714 0.886574
0.997834 0.995033 0.974234
1.00058 0.99571 0.990264
1.00502 0.995053 0.99078
0.996532 0.995801 0.977735
1.00346 0.99623 0.989679
1.00111 0.995959 0.951892
0.999809 0.997558 0.908753
0.994684 0.99772 0.874989
0.998572 0.995025 0.981421
0.999966 0.997774 0.952708
0.998335 0.99898 0.912868
0.994771 0.997946 0.883446
1.00004 1.00314 0.991547
0.99997 1.00216 0.992575
1.00012 1.00113 0.99345
1.00004 1.00212 0.992506
0.999918 1.00288 0.992033
1.00019 1.0031 0.991424
1.00014 1.00267 0.991882
1.00019 1.00272 0.991687
1.0001 1.0024 0.992171
0.999969 1.00231 0.992403
1.00473 0.994901 0.991511
1.00511 0.995137 0.989958
1.00407 0.995914 0.989896
1.00217 1.00006 0.990437
1.00031 1.0045 0.990216
0.999931 1.00492 0.990167
1.00005 1.00325 0.991538
0.999919 1.0033 0.991592
1.00341 0.995938 0.9921
0.999973 1.00423 0.990507
0.99965 1.00447 0.99074
1.00475 0.995815 0.990422
1.0037 0.995527 0.991738
1.00179 1.00068 0.990522
0.999912 1.00513 0.990231
1.00055 0.997788 0.992787
1.00231 0.995965 0.99473
0.999958 1.00298 0.991115
0.999788 1.00463 0.990326
0.999777 1.00478 0.990203
0.999519 1.00512 0.990478
0.994771 0.996793 0.902163
0.999897 0.994876 0.920181
1.00002 0.994923 0.948423
0.999566 1.00382 0.991702
1.00046 1.00323 0.990439
1.00208 0.999923 0.990789
1.00245 1.00087 0.989668
0.999853 0.995528 0.921022
1.00006 0.997055 0.946452
0.994903 0.995573 0.967684
0.997462 1.00225 0.991328
0.998444 0.999033 0.905286
0.995332 0.997121 0.88412
0.994938 0.998645 0.887223
0.999057 1.00318 0.993238
0.995439 0.99593 0.893172
0.995286 0.998907 0.901484
0.999987 1.00176 0.99282
0.999256 1.00363 0.992296
0.996016 1.00024 0.994211
0.994848 0.998321 0.969648
0.997439 0.999088 0.952931
0.997295 0.999893 0.910632
0.994796 0.996125 0.896576
0.997894 1.00352 0.995337
0.9952 0.996708 0.91283
0.994735 0.996122 0.912373
0.995944 1.0022 0.999282
0.994793 0.99992 0.977438
0.99527 0.999983 0.953257
0.99482 0.999922 0.908466
0.994886 0.994775 0.894361
0.999865 1.00173 0.993458
0.999126 1.00236 0.99411
0.997432 1.00397 0.995319
1.00041 1.00269 0.991417
1.00046 1.00298 0.991053
1.00019 1.00306 0.991328
0.999325 1.00348 0.992164
1.00054 1.00308 0.990804
1.00015 1.00341 0.991172
0.9979 1.00417 0.994122
0.996034 1.00523 0.996398
0.99842 1.00437 0.993337
1.00036 1.00329 0.991001
1.00044 1.00271 0.991355
1.00011 1.00283 0.991765
1.00012 1.0025 0.992045
1.00013 1.00274 0.991703
0.999888 1.00332 0.991641
0.999967 1.00271 0.992073
1.00007 1.00296 0.991805
0.999333 1.00252 0.993118
1.00109 1.00071 0.991854
1.00025 1.00276 0.991645
1.00005 1.00394 0.990486
1.00129 1.0049 0.987638
0.999805 1.00474 0.990678
0.999687 1.00494 0.990057
0.999642 1.00409 0.991235
0.999724 1.00341 0.991611
0.999833 1.0037 0.991414
0.999932 1.00299 0.991919
1.00004 1.00202 0.992644
1.00006 1.00268 0.992052
1.00012 1.00178 0.992773
1.00024 1.00033 0.993974
1.0002 1.00169 0.99276
1.00023 1.00035 0.993988
1.00011 0.998205 0.996829
1.00018 1.00042 0.993986
1.00014 0.998193 0.996532
1.00002 0.996817 0.998032
1.00016 0.998167 0.996238
1.00004 0.996748 0.998596
1.00003 0.996745 0.999163
1.00015 1.00171 0.992822
1.0001 0.999993 0.994578
1.0001 1.00146 0.993168
1.00015 0.997718 0.996733
1.00007 0.999883 0.99473
1.00007 1.00134 0.993304
1.00003 0.996425 0.999286
1.00014 0.99768 0.996786
1.00007 0.999775 0.994823
1.00013 0.997671 0.996789
1.00001 0.996462 0.999289
0.999984 0.996513 0.999286
0.994768 0.995178 0.894919
0.999859 0.995629 0.914204
0.995171 0.999073 0.901631
0.995101 0.997335 0.883926
0.996737 0.995296 0.975034
1.0035 0.996153 0.990019
1.00031 0.996529 0.950647
0.999791 0.997135 0.9179
0.994714 0.997791 0.865326
0.998408 0.99576 0.98043
1.00127 0.997563 0.943117
0.998515 0.999289 0.913589
0.994782 0.99857 0.87843
0.995526 0.996329 0.975833
0.997837 0.998908 0.945053
0.995813 0.999767 0.906238
0.994827 0.995748 0.885573
1.00002 1.00386 0.990911
1 1.00311 0.991656
0.99994 1.00221 0.992647
0.999878 1.00279 0.992149
1.00033 1.00339 0.990763
1.00016 1.00304 0.991512
1.0001 1.00268 0.991897
1.00034 1.00277 0.99152
1.00022 1.00269 0.99178
1.00012 1.0024 0.992086
1.00356 0.995668 0.992312
1.00464 0.995594 0.990116
1.00353 0.995475 0.992306
1.00216 1.00053 0.989945
1.00006 1.0051 0.990068
0.999729 1.00458 0.990619
0.99994 1.00435 0.99042
0.999957 1.00459 0.990234
1.0008 0.997664 0.993107
0.999887 1.00483 0.990174
0.999743 1.00512 0.990454
1.00252 0.995994 0.99421
1.00049 1.0029 0.990967
0.998589 0.997116 0.994358
0.998445 0.998334 0.999766
0.99883 1.00455 0.991798
0.999964 1.0049 0.989847
0.99947 1.00507 0.99055
0.994801 0.99658 0.918479
0.994763 0.996714 0.900212
0.999886 0.994854 0.911821
0.998774 1.00319 0.993245
0.999068 1.0037 0.992272
1.00024 1.00176 0.992759
0.995423 0.995123 0.894154
0.997782 0.998949 0.945268
0.994851 0.997417 0.970026
0.996161 0.998944 0.997309
0.99585 0.9999 0.920027
0.995604 0.999117 0.901017
0.994825 0.99613 0.896784
0.997762 1.00351 0.995558
0.995297 0.995809 0.915672
0.994723 0.996024 0.912398
0.996169 1.00249 0.998389
0.994826 0.999692 0.978792
0.996142 0.999947 0.945317
0.994872 0.994928 0.895177
0.994857 0.999949 0.914938
0.995829 1.00483 0.997969
0.994621 0.994689 0.932322
0.994779 0.995122 0.916018
0.994821 0.995939 0.885845
0.994986 1.00064 0.993776
0.99508 0.999879 0.956313
0.994935 0.999988 0.913511
0.999324 1.00238 0.994306
0.997822 1.00403 0.99466
0.995528 1.00518 0.998018
1.00052 1.0031 0.990785
1.00008 1.00346 0.991158
0.997899 1.00405 0.99453
1.00027 1.0032 0.991068
0.998456 1.00422 0.993345
0.996118 1.00462 0.996877
0.995783 1.0051 0.997546
0.998662 1.00346 0.99338
1.00012 1.00272 0.991758
0.999904 1.00332 0.991646
1 1.00272 0.992102
0.999484 1.00269 0.992994
1.00004 1.00288 0.991799
0.999819 1.00226 0.992837
1.00044 1.00117 0.992627
1.00094 1.00266 0.990042
1.00032 1.00261 0.991758
1.00044 1.00386 0.990274
1.0017 1.0038 0.987423
1.00176 1.0043 0.987114
1.00011 1.00493 0.98975
1.00105 1.00487 0.987758
0.999882 1.00399 0.991035
0.999728 1.00481 0.990609
0.999538 1.00496 0.990445
0.999743 1.00405 0.991299
0.999776 1.00333 0.991702
1.00001 1.00227 0.992432
0.999988 1.00292 0.991919
1.00007 1.00199 0.992646
1.0002 1.00048 0.993888
1.00015 1.00177 0.992769
1.00024 1.00033 0.993972
1.00008 0.998231 0.996851
1.00024 1.00034 0.993991
1.00012 0.998189 0.996551
0.99996 0.996905 0.998054
1.00016 0.998148 0.996249
0.999997 0.996824 0.998597
1 0.996792 0.999166
1.00025 1.00191 0.99226
1.00015 1.00023 0.99406
1.00016 1.00172 0.992821
1.00016 0.997816 0.996613
1.0001 1 0.994447
1.00009 1.00147 0.993003
1.00003 0.996468 0.99927
1.00014 0.997718 0.996737
1.00006 0.999873 0.994732
1.00003 0.996435 0.999287
1.00013 0.997677 0.996787
1.00001 0.996466 0.999289
0.994894 0.994853 0.915509
0.994791 0.995752 0.899179
0.999842 0.996077 0.915286
1.00045 1.00284 0.991162
0.994758 0.997119 0.916708
0.995186 0.998509 0.901299
0.995258 0.997059 0.887723
0.998532 0.99634 0.979033
0.99956 0.998058 0.952325
0.998367 0.998665 0.903952
0.994757 0.998982 0.881277
0.996384 0.996342 0.971918
0.997501 0.998803 0.952725
0.997201 0.999903 0.90998
0.994815 0.996469 0.887437
0.99488 0.997478 0.968061
0.995401 0.999963 0.951936
0.99487 0.999956 0.914808
0.994885 0.994844 0.894219
1.00022 1.00419 0.990194
1.00004 1.00389 0.990803
1 1.00307 0.991765
1.00032 1.00344 0.990739
1.00031 1.00339 0.990887
1.00015 1.00297 0.991601
1.00036 1.00275 0.991553
1.00024 1.00266 0.991872
1.00091 0.997446 0.993393
1.00265 0.996007 0.993663
1.00004 1.00452 0.990141
1.00116 1.00281 0.990807
0.999999 1.00512 0.990429
0.999926 1.00483 0.990143
0.999966 1.00491 0.989929
0.998216 0.997651 0.994898
0.999666 1.00507 0.990487
0.999427 1.0041 0.991856
0.998516 0.997954 0.999786
0.999948 1.00493 0.989899
0.996772 0.998464 0.994867
0.996268 0.999735 1.00223
0.99883 1.0053 0.99158
0.999837 1.00499 0.990425
0.994629 0.994822 0.937042
0.994789 0.996768 0.91877
0.994753 0.996795 0.898262
0.997582 1.00353 0.995802
0.996123 1.00242 0.997477
0.99529 0.994903 0.918458
0.995354 0.999991 0.953648
0.994834 0.999013 0.975655
0.994847 0.999935 0.914151
0.994701 0.995909 0.912418
0.994874 0.995446 0.895977
0.996114 1.00457 0.997665
0.994628 0.994705 0.93222
0.994771 0.99505 0.920149
0.994886 1.00148 0.997106
0.994808 0.996692 0.887624
0.994988 0.999261 0.951486
0.995083 0.999994 0.918009
0.99508 1.00443 0.998766
0.994666 0.994695 0.936795
0.994755 0.997321 0.916867
0.994756 0.998239 0.883681
0.995894 0.999966 0.914094
0.994924 0.998801 0.985666
0.995423 1.00077 0.943864
0.998261 1.00404 0.994
0.99564 1.00517 0.99769
0.994907 1.00506 0.99999
1.00018 1.00314 0.991136
0.998467 1.00424 0.993352
0.996225 1.00374 0.997354
0.998814 1.00359 0.993302
0.995975 1.00411 0.997535
0.997712 1.00354 0.995808
0.999665 1.00283 0.992868
0.999946 1.00284 0.991793
0.999936 1.00235 0.992924
0.999558 1.00395 0.991048
0.999757 1.0016 0.993392
1.00074 1.0025 0.990453
1.00185 1.00341 0.987938
1.00403 1.00241 0.985034
1.00082 1.00378 0.990058
1.00202 1.00394 0.986928
1.00269 1.00327 0.987304
1.00049 1.00478 0.988631
1.00176 1.00421 0.987356
0.999811 1.00463 0.990347
1.00014 1.00495 0.989708
1.00082 1.00482 0.987878
0.999999 1.00274 0.991978
0.999841 1.00398 0.991055
0.999657 1.00487 0.990539
0.999831 1.00325 0.991791
1.00005 1.00225 0.992428
1.00017 1.00072 0.99371
1.00011 1.00197 0.992648
1.00021 1.00048 0.993885
1.00003 0.998361 0.996285
1.00025 1.00035 0.993969
1.0001 0.998226 0.996295
0.999834 0.996995 0.999182
1.00014 0.998167 0.996269
0.999941 0.99691 0.998607
0.99996 0.996859 0.999167
1.00028 1.0021 0.991994
1.00022 1.00049 0.993663
1.00024 1.00194 0.992348
1.00017 0.997965 0.996446
1.00016 1.00024 0.994012
1.00016 1.00173 0.992819
1.00002 0.996563 0.99924
1.00015 0.997809 0.996622
1.00011 1.00002 0.994317
1.00004 0.996454 0.999276
1.00014 0.997715 0.996742
1.00003 0.996443 0.999288
0.994664 0.994735 0.932905
0.994825 0.995833 0.915316
0.994754 0.996566 0.899412
1.0004 1.00286 0.991245
1.00039 1.00285 0.991152
1.00044 1.00323 0.990878
0.994762 0.995012 0.915632
0.994728 0.996462 0.916729
0.995275 0.998516 0.900963
0.996081 0.996003 0.974203
0.998432 0.999347 0.943931
0.995278 0.999914 0.919811
0.994826 0.997034 0.884007
0.994944 0.997286 0.971174
0.99629 0.999979 0.949104
0.994831 0.999954 0.91544
0.994876 0.99501 0.894919
0.994871 0.997719 0.966924
0.995308 0.999979 0.953256
0.994942 1.00001 0.913996
0.994815 0.996543 0.89075
1.00035 1.00403 0.99008
1.00019 1.00418 0.990175
1.00009 1.00393 0.990696
1.00036 1.0034 0.990716
1.00027 1.00339 0.991012
1.00038 1.00273 0.991587
0.997803 0.99806 0.995425
0.998259 0.997807 0.999827
0.999998 1.00487 0.990012
0.999997 1.00326 0.991919
0.999797 1.00507 0.990425
1.00005 1.00482 0.989794
0.999509 1.005 0.990497
0.996495 0.997997 0.995212
0.998867 1.00473 0.992229
0.996077 1.00059 1.00152
0.999852 1.0046 0.99052
0.995418 0.997601 0.995482
0.996529 1.00223 0.998211
0.99874 1.00522 0.992382
0.994625 0.99483 0.942215
0.994625 0.994822 0.938486
0.994782 0.996813 0.919044
0.996409 1.00441 0.997341
0.995016 1.00143 0.994384
0.994656 0.994722 0.932118
0.994871 0.999166 0.954481
0.99493 0.999961 0.909326
0.994757 0.994796 0.924282
0.994817 0.997205 0.884272
0.995219 1.00421 0.999135
0.994676 0.994704 0.938408
0.994718 0.996617 0.916896
0.994944 0.999054 0.981759
0.994765 0.998774 0.878801
0.994821 0.999961 0.914689
0.995162 1.00055 0.95304
0.994992 1.00412 0.997211
0.99466 0.994734 0.93326
0.995157 0.999282 0.90194
0.99465 0.997903 0.885299
0.996094 0.999157 0.906196
0.995982 0.999992 0.952041
0.995413 1.00027 0.975201
0.995902 1.00521 0.997388
0.995196 1.0038 0.99993
0.996537 1.00344 0.998599
0.998928 1.00368 0.993224
0.996161 1.0034 0.997532
0.996858 1.00392 0.996266
0.999695 1.00284 0.992981
1.00006 1.00251 0.99301
1.00055 1.00368 0.990638
1.00137 1.0047 0.987589
1.00054 1.0024 0.990874
1.00207 1.00354 0.987528
1.00385 1.00386 0.984371
1.00504 1.0018 0.98384
1.0035 1.00214 0.985888
1.00395 1.00265 0.984958
1.00233 1.00407 0.986433
1.00217 1.00345 0.987976
1.00237 1.00298 0.987759
1.00008 1.00492 0.989217
1.00064 1.00477 0.98878
1.00176 1.00411 0.987603
0.99992 1.00386 0.990956
0.999934 1.00459 0.990361
1.00016 1.00498 0.989664
1.00013 1.00108 0.99341
1.00006 1.0027 0.991967
0.999802 1.00396 0.991075
1.00009 1.00223 0.992423
1.00018 1.00072 0.993706
0.999944 0.998574 0.996218
1.00022 1.00048 0.993881
1.00003 0.998358 0.99628
0.999767 0.997157 0.999173
1.0001 0.998215 0.996292
0.999865 0.997023 0.998618
0.999903 0.996955 0.999171
1.00034 1.00225 0.991921
1.00029 1.0007 0.993527
1.00031 1.0021 0.992048
1.00017 0.998149 0.996251
1.00022 1.00049 0.993744
1.00025 1.00196 0.992436
1 0.996696 0.999203
1.00016 0.997953 0.996458
1.00017 1.00024 0.993964
1.00003 0.99654 0.99925
1.00015 0.997806 0.996631
1.00004 0.996448 0.999281
0.994648 0.9947 0.936517
0.994641 0.994713 0.932804
0.994813 0.996553 0.91523
1.00027 1.00309 0.991102
1.00027 1.00353 0.990839
1.00035 1.00288 0.991329
1.00036 1.00291 0.99115
1.00036 1.0033 0.990845
1.00029 1.00329 0.990957
1.0005 1.00337 0.990583
0.994731 0.995925 0.911813
0.99476 0.994993 0.919821
0.994698 0.99574 0.916754
0.994846 0.995248 0.895621
0.994872 0.997205 0.96845
0.995233 0.99997 0.94697
0.994874 0.999921 0.920509
0.994861 0.99814 0.966261
0.994953 1 0.945946
0.995027 1 0.918882
0.994792 0.996261 0.896363
0.995425 0.99669 0.970176
0.994946 1.00044 0.94545
0.9948 0.999909 0.90912
0.994777 0.999106 0.883308
0.999845 1.00454 0.990483
1.0003 1.00408 0.990096
1.00019 1.00425 0.990156
1.00042 1.00335 0.990693
0.996403 0.997757 0.995594
0.99593 1.00145 1.0008
1.00005 1.00486 0.989689
0.999493 1.00504 0.990569
0.99916 1.00453 0.99288
0.999774 1.00469 0.990487
0.998548 1.00522 0.992387
0.995314 0.998802 0.992758
0.995929 1.00341 0.998597
0.997986 1.00498 0.993085
0.995208 0.998644 0.991427
0.997505 1.00443 0.996742
0.994644 0.994823 0.9371
0.994632 0.994782 0.945007
0.994614 0.994818 0.939926
0.995096 1.00396 0.999465
0.99493 0.99783 0.986426
0.994672 0.994679 0.940045
0.996506 1.00077 0.944468
0.994853 0.999934 0.919605
0.994683 0.995952 0.916923
0.994747 0.999097 0.881654
0.994966 1.00262 0.99782
0.994645 0.99471 0.933175
0.995286 0.998633 0.901586
0.994918 1.00063 0.976423
0.994673 0.997765 0.875907
0.99727 0.999896 0.909642
0.994933 0.999997 0.94532
0.995453 1.00466 0.99157
0.994992 0.994847 0.916089
0.995039 0.997127 0.887284
0.998706 0.998049 0.913669
0.995329 0.999962 0.952093
0.99489 1.00001 0.969357
0.995448 1.00276 0.999985
0.995762 1.00417 0.99857
0.99807 1.0012 0.99697
0.996058 1.00428 0.996726
0.99858 1.00308 0.993519
1.00293 1.00039 0.989804
1.00155 1.00333 0.990227
1.00174 1.00462 0.987458
1.00283 1.00423 0.984911
1.00232 1.00367 0.987119
1.004 1.00384 0.984034
1.0045 1.00355 0.983104
1.00505 1.00102 0.984575
1.00511 1.00196 0.983936
1.005 1.00193 0.983779
1.00301 1.00229 0.986538
1.00355 1.00218 0.986111
1.00386 1.0029 0.984881
1.00158 1.00428 0.987851
1.00203 1.0034 0.987971
1.00205 1.00271 0.988209
1.00008 1.00484 0.989648
1.00013 1.00494 0.989402
1.00079 1.00476 0.98893
1.00003 1.00188 0.99274
1.00004 1.00372 0.990965
1.00005 1.00457 0.990375
0.999855 0.998802 0.996131
1.00014 1.00109 0.993395
1.00012 1.00266 0.991956
1.00019 1.00072 0.993703
0.999944 0.998586 0.99621
0.999675 0.997362 0.999159
1.00004 0.998352 0.996276
0.999758 0.997194 0.99917
0.999832 0.997056 0.999175
1.00028 1.00321 0.991067
1.0004 1.00241 0.991698
1.00033 1.00095 0.993198
1.00035 1.00226 0.991909
1.00015 0.998388 0.99604
1.00028 1.00072 0.993526
1.00029 1.00215 0.992101
0.999968 0.996866 0.999157
1.00016 0.998146 0.996264
1.00022 1.00049 0.993825
1.00001 0.996667 0.999214
1.00016 0.997944 0.99647
1.00003 0.996514 0.99926
0.994651 0.9947 0.931969
0.994661 0.994705 0.938159
0.994618 0.994746 0.932686
1.00034 1.00304 0.991127
1.00018 1.0036 0.99081
1.00009 1.0038 0.990685
1.00014 1.00354 0.990817
1.00029 1.00394 0.990498
1.00035 1.00296 0.991148
1.00029 1.00338 0.990812
1.00031 1.00327 0.990952
1.00041 1.00346 0.990664
1.00014 1.0038 0.990881
0.995138 0.998723 0.901124
0.994738 0.996132 0.911866
0.994772 0.995097 0.924001
0.994812 0.995931 0.896562
0.99494 0.999987 0.909757
0.994888 0.998765 0.964834
0.994927 1.00016 0.952954
0.994898 0.997072 0.966998
0.995045 1.0002 0.953331
0.994846 0.999951 0.916068
0.994936 0.998864 0.881003
0.99502 0.995098 0.971932
0.994928 1.00016 0.9538
0.995697 0.999877 0.919058
0.994741 0.99781 0.883947
0.998767 1.00378 0.992868
0.999868 1.00469 0.990432
1.00028 1.00412 0.990111
0.995123 0.999783 0.989962
0.995528 1.00415 0.998972
0.99978 1.00463 0.990454
0.997982 1.00522 0.992391
0.998177 1.00484 0.993119
0.996783 1.00402 0.996748
0.994933 0.998914 0.991621
0.996221 1.00242 0.997997
0.99597 1.00023 0.991613
0.995072 0.996259 0.918025
0.994641 0.994832 0.93852
0.994647 0.994716 0.947804
0.994988 1.00093 0.998216
0.994893 1.00113 0.972564
0.994628 0.994754 0.933072
0.996471 0.999999 0.950537
0.995217 0.999905 0.919381
0.995505 0.998364 0.901245
0.994705 0.997852 0.866391
0.995246 1.00486 0.991984
0.994949 0.995474 0.915913
0.995227 0.997198 0.884681
0.994899 0.999991 0.970372
0.998527 0.999221 0.914174
0.996221 0.999959 0.947892
0.99568 1.00312 0.988997
0.994893 0.99487 0.895658
0.999455 0.997944 0.918019
0.997803 0.998692 0.944921
0.994856 0.997563 0.972027
0.99512 1.00483 0.998521
0.997973 1.00139 0.996868
1.00268 0.999787 0.992078
0.997529 1.00331 0.993986
1.00193 1.00071 0.990165
1.00397 0.999056 0.988196
1.00206 1.0045 0.987325
1.00291 1.00406 0.984991
1.0044 1.00155 0.985031
1.00415 1.00383 0.983698
1.00444 1.00329 0.983168
1.00494 1.00064 0.985037
1.00512 0.99938 0.986021
1.00514 1.00131 0.984117
1.00499 1.00099 0.984636
1.00476 1.00176 0.984577
1.00508 1.0019 0.983863
1.00496 1.00206 0.983718
1.00256 1.00347 0.986783
1.00297 1.00231 0.986803
1.00356 1.00226 0.986337
1.00096 1.0044 0.988599
1.0014 1.00427 0.987975
1.00189 1.00335 0.987963
0.999934 1.00329 0.991458
1.00021 1.00474 0.989662
1.00019 1.00496 0.989585
0.99976 0.999205 0.996466
1.00007 1.00189 0.992705
1.00016 1.0036 0.990975
0.999595 0.997606 0.997975
0.999852 0.998861 0.996389
1.00016 1.0011 0.993379
0.999942 0.998602 0.996202
0.999669 0.997408 0.999152
0.999749 0.997227 0.999166
1.00019 1.00356 0.990818
1.00039 1.00269 0.991451
1.00023 1.00329 0.991033
1.00034 1.00121 0.992923
1.00035 1.00248 0.991691
1.00011 0.998646 0.995842
1.00032 1.00096 0.993199
1.00038 1.00224 0.991896
0.999924 0.997077 0.999108
1.00015 0.998375 0.996053
1.00027 1.00072 0.993525
0.999972 0.996836 0.999171
1.00016 0.998139 0.996277
1.00001 0.996638 0.999225
0.995649 0.994828 0.918998
0.994653 0.994708 0.931882
0.994665 0.994679 0.939818
1.00038 1.00321 0.990864
1.00034 1.00307 0.991152
1.00012 1.00367 0.990781
1.00022 1.00356 0.990846
1.00022 1.00373 0.990727
1.00018 1.00388 0.990593
1.00027 1.00418 0.990101
0.999885 1.00426 0.99041
1.00038 1.0032 0.990947
1.00025 1.00352 0.990745
1.00003 1.00387 0.990842
0.99942 1.00434 0.992074
0.995278 0.997598 0.886425
0.99555 0.998887 0.90063
0.994732 0.996385 0.91191
0.99521 0.998575 0.886523
0.994843 0.999941 0.91578
0.994937 1.00043 0.945448
0.995459 0.997146 0.964886
0.995051 0.99527 0.973605
0.994724 0.99782 0.874902
0.99491 0.999998 0.949526
0.997223 0.99988 0.909819
0.994884 0.99628 0.974289
0.995546 0.999967 0.953871
0.99934 0.998079 0.910386
0.998871 1.00198 0.994966
0.998993 1.00374 0.992813
0.999797 1.00482 0.99038
0.994842 0.999314 0.991852
0.996203 1.00361 0.996752
0.998288 1.00473 0.993152
0.997494 1.00223 0.997801
0.995501 1.00019 0.991712
0.997004 0.999529 0.993979
0.994795 0.998144 0.896038
0.994947 0.995656 0.922014
0.994638 0.994836 0.939939
0.994971 1.00512 0.992334
0.994894 0.999752 0.970687
0.994812 0.996235 0.91582
0.995234 0.999993 0.946261
0.99864 0.997868 0.904858
0.99536 0.996982 0.888565
0.99593 1.00328 0.988969
0.994859 0.995585 0.899941
0.999817 0.996938 0.909882
0.994888 0.997771 0.968063
0.997522 0.99876 0.952467
0.997671 1.00016 0.992346
0.999847 0.995836 0.909821
0.999971 0.99807 0.952349
0.994866 0.996463 0.967677
0.997901 1.00161 0.996858
1.00201 0.998866 0.992566
1.00376 0.999374 0.98958
1.0009 1.00104 0.990529
1.00347 0.999675 0.98816
1.00459 0.99825 0.98781
1.00298 1.00391 0.985069
1.00422 1.00155 0.985011
1.00497 0.998306 0.987084
1.00438 1.00303 0.98323
1.00493 1.00046 0.985067
1.00507 0.997768 0.987593
1.00514 0.997794 0.987558
1.00515 0.999872 0.985469
1.0051 0.999275 0.986112
1.00511 1.00094 0.98448
1.00511 1.00122 0.984247
1.00494 1.00095 0.984697
1.00398 1.00207 0.985589
1.00458 1.00174 0.984713
1.00504 1.00178 0.983788
1.00206 1.00363 0.987513
1.00263 1.00338 0.986767
1.00296 1.00228 0.987067
1.00039 1.00391 0.9901
1.00102 1.00442 0.988591
1.00122 1.00425 0.988101
0.999685 0.999939 0.995231
1.00008 1.00314 0.991449
1.00036 1.00462 0.989674
0.999499 0.997834 0.999119
0.999743 0.999298 0.995848
1.00012 1.00189 0.992669
0.999594 0.99761 0.999132
0.999834 0.998907 0.996091
0.999665 0.997461 0.999145
1.00048 1.00334 0.990662
1.00024 1.00355 0.990801
1.00038 1.003 0.99114
1.00031 1.00151 0.992687
1.00034 1.00273 0.991449
1.00022 1.0033 0.990999
1.00006 0.998896 0.995678
1.00033 1.00122 0.992925
1.00032 1.00252 0.991684
0.999872 0.99729 0.99906
1.00011 0.998627 0.995853
1.00032 1.00097 0.993199
0.999928 0.997034 0.999122
1.00015 0.998365 0.996066
0.999977 0.996796 0.999185
0.995419 0.996525 0.887869
0.995419 0.994844 0.918841
0.994656 0.994717 0.931796
1.00022 1.00341 0.990849
1.00094 1.0029 0.990743
1.00026 1.00357 0.990628
1.00025 1.00361 0.990875
1.00036 1.00364 0.990769
1.00001 1.00392 0.990687
1.00005 1.00417 0.9904
1.00021 1.0042 0.990193
1.00016 1.00456 0.989958
0.999835 1.00121 0.99344
1.00016 1.00369 0.990803
0.999515 1.00396 0.991811
0.999808 0.997388 0.905966
0.995244 0.997536 0.881589
0.995787 0.999098 0.900173
0.994706 0.997886 0.865693
0.996818 0.998798 0.918861
0.994884 0.999983 0.948313
0.995246 0.995113 0.971239
0.994971 0.996448 0.972792
0.998533 0.999285 0.913009
0.996194 0.999966 0.94663
0.994894 0.99795 0.973626
0.998739 0.998763 0.944929
1.00207 0.998243 0.993293
0.999027 1.00193 0.994737
0.999202 1.00376 0.99277
0.99503 1.00037 0.991771
0.998518 1.00206 0.997591
0.997624 0.99974 0.993328
0.999606 0.999088 0.990197
0.999923 0.994836 0.91694
0.994906 0.997217 0.896908
0.994779 0.994861 0.92592
0.996082 1.00357 0.989092
0.994887 0.997816 0.966203
0.994913 0.996135 0.90012
0.998762 0.998485 0.943952
0.999813 0.997439 0.918878
0.997456 0.999712 0.990339
0.99987 0.995505 0.914961
1.00134 0.997435 0.943219
0.994895 0.99621 0.971093
0.998854 0.99646 0.99242
1.00006 0.996163 0.952491
0.996339 0.99611 0.973547
1.00143 0.99778 0.993011
1.00359 0.99839 0.989534
1.00491 0.99741 0.989183
1.0029 1.00026 0.988128
1.00431 0.998454 0.987813
1.00478 0.996913 0.988746
1.0041 1.00157 0.984993
1.00488 0.998476 0.987016
1.00509 0.996012 0.98912
1.00492 1.00029 0.985096
1.00507 0.997735 0.987596
1.00512 0.996193 0.989174
1.00511 0.99687 0.988735
1.00514 0.997625 0.987756
1.00517 0.998544 0.986956
1.00515 1.00018 0.985384
1.00516 0.99991 0.9855
1.00508 0.999173 0.986203
1.00496 1.00079 0.985048
1.00511 1.00095 0.984544
1.0051 1.00112 0.984376
1.00323 1.00271 0.986347
1.00396 1.00214 0.985576
1.00442 1.00178 0.984848
1.00113 1.00356 0.989146
1.00213 1.0036 0.987494
1.0027 1.00332 0.986751
0.999813 1.00077 0.994161
1.0005 1.00375 0.990111
1.00112 1.00438 0.988584
0.999526 0.998112 0.998991
0.999696 1.00004 0.99518
1.00021 1.00304 0.99144
0.999534 0.997859 0.998499
0.999729 0.999384 0.995819
0.999601 0.997665 0.99912
1.00069 1.00295 0.990695
1.0003 1.00344 0.990703
1.00031 1.00336 0.990814
1.0003 1.00354 0.990784
1.00031 1.00307 0.991138
1.00027 1.00185 0.992416
0.999994 0.999151 0.995551
1.0003 1.0015 0.992692
1.00027 1.0028 0.991447
0.999814 0.99749 0.999019
1.00006 0.99888 0.995686
1.00032 1.00123 0.992927
0.999876 0.997252 0.999075
1.00011 0.998612 0.995865
0.999934 0.996997 0.999137
0.999857 0.995255 0.916011
0.99546 0.996795 0.889838
0.995277 0.994862 0.918676
1.00008 1.00361 0.990835
1.00017 1.00382 0.99053
1.00067 1.00292 0.990958
1.00174 1.00303 0.98908
1.00034 1.00383 0.990478
1.00018 1.00415 0.99039
1.00018 1.00416 0.990285
1.00005 1.00439 0.990206
1.00049 1.00342 0.989457
1.00084 1.00032 0.992959
1.00423 0.998256 0.988931
0.999833 1.00116 0.993654
0.99975 1.00354 0.991545
0.999153 0.997636 0.951918
0.999737 0.997814 0.909837
0.995304 0.99719 0.883097
0.999166 0.999525 0.903065
0.995876 0.999955 0.951336
0.994901 0.996379 0.974333
0.994874 0.997944 0.975639
0.997436 0.998615 0.954153
0.995962 0.998399 0.974805
1.00327 0.996178 0.992654
1.00141 0.998867 0.993416
0.999194 1.00197 0.994499
0.998395 0.999728 0.992746
1.00066 0.999347 0.988654
1.00002 0.994904 0.948434
0.999906 0.994868 0.920316
0.995015 0.996504 0.897874
0.997081 0.999545 0.98827
0.994903 0.996162 0.967959
0.999859 0.995833 0.915943
1.00009 0.998267 0.951841
0.998199 0.997792 0.992784
1.00126 0.996238 0.951399
0.996597 0.995733 0.97032
1.00137 0.996427 0.991222
0.999224 0.995826 0.97888
1.00343 0.997507 0.989536
1.00484 0.996665 0.989127
1.00495 0.995895 0.990102
1.00407 0.998681 0.987815
1.00469 0.996972 0.988686
1.00512 0.995283 0.989915
1.00475 0.998634 0.98695
1.00509 0.996094 0.989091
1.00509 0.995068 0.990177
1.00507 0.997708 0.9876
1.00512 0.996191 0.989136
1.00512 0.995892 0.989717
1.00512 0.996646 0.988877
1.00513 0.997533 0.988087
1.00515 0.997451 0.987955
1.00517 0.998567 0.986933
1.00518 0.999329 0.98619
1.00513 1.00025 0.985345
1.00515 1.00023 0.985351
1.00517 0.999949 0.985531
1.00433 1.00121 0.985811
1.0049 1.00085 0.985077
1.0051 1.00097 0.984609
1.00197 1.00291 0.988298
1.00325 1.00269 0.986343
1.00393 1.0022 0.985563
1.00012 1.00126 0.993106
1.0012 1.00349 0.989134
1.00212 1.00362 0.987475
0.999614 0.998578 0.998747
0.999864 1.00078 0.994133
1.00064 1.00357 0.990122
0.999578 0.998204 0.998919
0.999714 1.00013 0.995129
0.999582 0.997891 0.999046
1.00168 1.00334 0.98845
1.00073 1.00282 0.990682
1.0004 1.0034 0.990483
1.00015 1.0035 0.990743
1.00026 1.00342 0.990779
1.00024 1.00229 0.991997
1.00025 1.00312 0.991137
1.00025 1.00185 0.992423
0.999909 0.999436 0.995422
0.999746 0.997687 0.998986
0.999995 0.999127 0.995559
1.00029 1.00149 0.992697
0.999818 0.997466 0.999032
1.00006 0.998868 0.995695
0.999881 0.997209 0.999089
1.0004 0.995211 0.955372
0.999867 0.995524 0.914998
0.995427 0.997316 0.886895
1.00008 1.00407 0.990433
1.00044 1.00287 0.991172
1.00046 1.00375 0.990487
1.00161 1.00297 0.989154
1.00309 1.00276 0.986758
1.00075 1.00341 0.989584
0.999921 1.00426 0.990455
1.00108 1.00349 0.98886
1.00062 1.00067 0.992887
1.00252 1.00043 0.989118
1.00449 0.997386 0.990116
1.00442 0.996883 0.989759
1.00373 0.9981 0.989639
0.999519 1.00142 0.993872
0.996059 0.996396 0.974352
1.00021 0.99708 0.949749
0.998399 0.99776 0.918616
0.998072 0.999286 0.944837
0.994859 0.998256 0.976726
0.996177 0.998265 0.979233
1.00001 0.998211 0.992274
1.00348 0.995887 0.992655
1.00103 0.99938 0.99354
1.00238 0.999631 0.987048
0.996753 0.997474 0.974982
1.00036 0.995252 0.957042
0.99989 0.994849 0.911821
0.997677 0.998804 0.993027
0.996678 0.994859 0.97254
1.00032 0.996664 0.95004
1.00115 0.996624 0.991346
0.998748 0.995729 0.978071
1.00382 0.995914 0.991182
1.00307 0.997968 0.9882
1.00475 0.995999 0.989045
1.00488 0.995749 0.990086
1.00513 0.994862 0.990534
1.00462 0.997031 0.988627
1.00512 0.995243 0.989871
1.00508 0.994955 0.99047
1.00508 0.996165 0.989061
1.00509 0.995199 0.990144
1.00513 0.995329 0.990207
1.00513 0.996186 0.989097
1.00512 0.995861 0.989618
1.00511 0.996603 0.9889
1.00512 0.996435 0.989017
1.00513 0.997391 0.988247
1.00518 0.998706 0.98688
1.00517 0.998591 0.98691
1.00518 0.999393 0.986159
1.00518 0.999792 0.985872
1.00476 1.00027 0.985829
1.00513 1.0003 0.985356
1.00515 1.00028 0.985319
1.00301 1.00166 0.987747
1.00432 1.00124 0.985819
1.00483 1.00091 0.985106
1.00042 1.0016 0.99222
1.00199 1.00293 0.988293
1.00327 1.00267 0.98634
0.999762 0.999096 0.99842
1.0002 1.00123 0.993095
1.00128 1.00342 0.989121
0.999694 0.998694 0.998627
0.999907 1.00082 0.994106
0.999644 0.998286 0.998825
1.00296 1.00304 0.986415
1.00177 1.00344 0.988436
1.00114 1.0036 0.989076
1.00072 1.00276 0.99067
1.00049 1.00337 0.990397
1.00041 1.00264 0.991399
1.00021 1.00348 0.990744
1.00023 1.0023 0.992002
0.999828 0.999808 0.995195
1.00024 1.00185 0.992431
0.999913 0.999397 0.995434
0.999681 0.997893 0.99895
0.999752 0.997663 0.998997
0.999997 0.999104 0.995567
0.99982 0.997431 0.999044
0.996601 0.995666 0.975945
1.00061 0.995351 0.947195
0.999842 0.995131 0.92107
1.00466 1.00159 0.98481
1.00058 1.00366 0.990494
1.0015 1.00293 0.98923
1.00103 1.00343 0.989371
1.00302 1.00267 0.986764
1.00267 1.00123 0.988317
1.00165 1.00357 0.988266
1.00039 1.00095 0.992819
1.00288 1.0003 0.989143
1.0045 0.997109 0.98974
1.00482 0.99721 0.98834
1.00423 0.995814 0.991358
1.00432 0.996559 0.989611
1.00314 0.997861 0.990348
1.00008 0.997217 0.993281
0.995917 0.996425 0.972698
0.999833 0.996626 0.948215
0.996199 0.997641 0.977292
1.00022 0.997181 0.994356
1.00314 0.995573 0.992639
1.001 0.997072 0.988023
0.996559 0.996185 0.976716
1.00003 0.994913 0.948515
1.0006 0.997115 0.991522
0.998535 0.996322 0.976831
1.0035 0.995562 0.991469
1.00299 0.997548 0.988549
1.0046 0.994981 0.991218
1.00446 0.997371 0.99077
1.00482 0.995558 0.990072
1.00513 0.994882 0.990415
1.00512 0.994884 0.99045
1.00511 0.995209 0.989827
1.00507 0.994956 0.99046
1.00514 0.995083 0.990341
1.00509 0.995335 0.990112
1.00512 0.995333 0.990157
1.00512 0.996103 0.989399
1.00512 0.995831 0.989519
1.00512 0.996619 0.988899
1.00518 0.997967 0.987538
1.00513 0.997245 0.988408
1.00518 0.998582 0.98704
1.0052 0.999496 0.986056
1.00518 0.99946 0.986128
1.00517 0.999806 0.985811
1.00485 1.00004 0.986085
1.00361 1.0006 0.987732
1.00476 1.00033 0.985865
1.00512 1.00036 0.985367
1.00092 1.00134 0.991636
1.00296 1.00171 0.987754
1.00433 1.00127 0.985827
0.999854 0.999589 0.998128
1.00059 1.00142 0.9922
1.002 1.00292 0.988289
0.999827 0.99919 0.998311
1.0003 1.00116 0.993081
0.999775 0.998787 0.998508
1.00447 1.00137 0.985295
1.00298 1.00308 0.986455
1.00217 1.00361 0.987399
1.00187 1.00355 0.988422
1.00118 1.00355 0.98912
1.00068 1.0031 0.990529
1.00058 1.00331 0.99031
1.0003 1.00279 0.991395
0.999793 1.00029 0.994771
1.00019 1.00234 0.992007
0.999832 0.999752 0.995215
0.999631 0.998141 0.99888
0.999916 0.99936 0.995446
0.999683 0.997863 0.998963
0.999755 0.997643 0.999007
1.00085 0.995779 0.99178
0.996864 0.995179 0.972286
1.00008 0.995119 0.956132
1.00378 1.00096 0.986204
1.00512 0.999757 0.985857
1.00459 1.00134 0.984925
1.00129 1.00344 0.989157
1.00293 1.00258 0.98676
1.00303 1.00117 0.98809
1.00508 0.997817 0.987737
1.00327 1.00017 0.989163
1.00451 0.996839 0.989355
1.00484 0.997232 0.988583
1.00501 0.996271 0.989142
1.0043 0.995427 0.991384
1.00412 0.995967 0.991128
1.00447 0.996364 0.989457
1.00017 0.997484 0.993426
0.995858 0.996644 0.970741
1.00054 0.996751 0.996498
1.00415 0.995625 0.99215
1.00073 0.997486 0.988188
0.996596 0.995567 0.974326
1.00352 0.995063 0.991725
1.00294 0.997648 0.988923
1.00464 0.995091 0.991468
1.00455 0.996626 0.99069
1.00513 0.994926 0.990394
1.00519 0.99507 0.990545
1.00514 0.994912 0.990295
1.00512 0.994895 0.990439
1.00513 0.994992 0.990376
1.00507 0.994958 0.99045
1.00514 0.995068 0.99031
1.00516 0.995619 0.989843
1.00511 0.995335 0.990107
1.00513 0.996115 0.989395
1.00518 0.997504 0.988015
1.00512 0.996636 0.988897
1.00518 0.99798 0.987548
1.00522 0.999206 0.986295
1.00518 0.998456 0.987199
1.00519 0.999446 0.986112
1.00492 0.999912 0.986088
1.00517 0.999821 0.985751
1.00484 1.00004 0.986057
1.00378 1.00023 0.9878
1.00125 1.00079 0.991553
1.00358 1.00064 0.987729
1.00476 1.0004 0.985901
0.999928 1.00004 0.997882
1.00099 1.00127 0.991627
1.00289 1.00179 0.987761
0.999912 0.999708 0.998028
1.00071 1.00132 0.992185
0.999889 0.999295 0.998205
1.00503 1.00053 0.985307
1.00455 1.00132 0.985177
1.00351 1.00233 0.986121
1.00299 1.00312 0.986494
1.00211 1.00367 0.987407
1.0012 1.00342 0.989299
1.00121 1.00351 0.989164
1.00055 1.00322 0.990552
0.999919 1.00084 0.99405
1.00021 1.00291 0.991394
0.999788 1.00024 0.994791
0.999613 0.998493 0.998737
0.999836 0.9997 0.995234
0.999624 0.998096 0.998908
0.999686 0.997839 0.998975
1.00421 0.994918 0.992309
1.00098 0.995505 0.990282
0.996719 0.994886 0.972344
1.00513 0.998457 0.987041
1.00411 1.00054 0.986297
1.00513 0.998537 0.987083
1.00512 0.999758 0.98588
1.00454 1.00108 0.985051
1.00512 0.997046 0.988229
1.00338 1.00111 0.987869
1.00508 0.997955 0.987581
1.00513 0.995679 0.989507
1.00485 0.997253 0.988829
1.00497 0.996352 0.989052
1.00428 0.995556 0.991491
1.00381 0.995985 0.990886
1.00018 0.997671 0.993519
1.00515 0.99493 0.99034
1.00417 0.996162 0.992184
1.0005 0.997513 0.988328
1.00467 0.9952 0.991719
1.00458 0.995761 0.990618
1.00514 0.99491 0.990436
1.00519 0.994957 0.990468
1.00518 0.994922 0.990522
1.00512 0.994904 0.990429
1.00513 0.994968 0.990399
1.00519 0.995202 0.990229
1.00513 0.995049 0.990279
1.00516 0.995627 0.989785
1.00518 0.997202 0.988303
1.00514 0.996127 0.989391
1.00518 0.997521 0.988018
1.00523 0.998919 0.986579
1.00518 0.997992 0.987558
1.00521 0.999201 0.986314
1.00499 0.999823 0.986074
1.00519 0.999396 0.986168
1.00492 0.999919 0.986102
1.00389 1.00013 0.987714
1.00483 1.00003 0.98603
1.00378 1.00024 0.987791
1.00131 1.00041 0.99311
1.00015 1.00002 0.995148
1.0013 1.00074 0.992225
1.00354 1.00068 0.987727
0.999982 1.00011 0.997815
1.0011 1.00112 0.99162
0.999973 0.999813 0.997923
1.00519 0.998453 0.987104
1.00513 0.999594 0.986018
1.00506 1.00041 0.985389
1.00456 1.00071 0.985918
1.00464 1.00129 0.985063
1.00355 1.00238 0.986099
1.00216 1.00277 0.988142
1.00205 1.00374 0.987415
1.00111 1.00346 0.989327
1.00025 1.00138 0.992985
1.00043 1.00335 0.990573
0.999853 1.00085 0.994069
0.999626 0.998994 0.998485
0.999784 1.00019 0.994811
0.999589 0.998412 0.998796
0.999622 0.998055 0.998932
1.00512 0.995163 0.990075
1.00449 0.994915 0.992399
1.00135 0.994939 0.988815
1.00513 0.997419 0.987926
1.00513 0.998528 0.986909
1.00446 1.00013 0.98638
1.00512 0.998648 0.987015
1.00512 0.999769 0.985902
1.00514 0.995968 0.98961
1.0051 0.997064 0.988144
1.00507 0.998099 0.987426
1.00511 0.99569 0.989516
1.00498 0.996458 0.988962
1.00431 0.995791 0.991626
1.00519 0.994953 0.990556
1.00514 0.994945 0.990484
1.00423 0.996723 0.992222
1.00514 0.994893 0.990473
1.00518 0.994931 0.990391
1.00518 0.994922 0.990481
1.00519 0.99511 0.990472
1.00512 0.994944 0.990421
1.00518 0.995193 0.990187
1.0052 0.996987 0.988507
1.00516 0.995636 0.989727
1.00519 0.997208 0.98831
1.00524 0.998668 0.986831
1.00518 0.99754 0.988022
1.00523 0.998916 0.986592
1.00504 0.999751 0.986061
1.00521 0.999195 0.986333
1.00499 0.999822 0.986087
1.00398 1.0001 0.987575
1.00492 0.999925 0.986116
1.00389 1.00012 0.987712
1.00142 1.00011 0.993235
1.00377 1.00025 0.987782
1.00145 1.00032 0.993054
1.0001 1 0.995316
0.999984 1.00025 0.996467
1.00145 1.00066 0.99278
1 1.00021 0.997768
1.00517 0.997884 0.987723
1.00521 0.999188 0.986284
1.0052 0.998254 0.987252
1.00487 0.99998 0.986131
1.00515 0.999666 0.985939
1.00509 1.00029 0.985469
1.00458 1.00066 0.985914
1.00321 1.00132 0.987654
1.00359 1.00242 0.986075
1.00218 1.00272 0.988133
1.00067 1.0016 0.991953
1.00101 1.00351 0.989356
1.00008 1.0015 0.993017
0.999687 0.9997 0.998128
0.999778 1.00088 0.994087
0.999585 0.998886 0.998588
0.999578 0.998338 0.998845
1.00518 0.995166 0.990135
1.00515 0.995166 0.99006
1.00467 0.994887 0.992455
1.00516 0.996644 0.988894
1.00513 0.997467 0.987907
1.00513 0.998599 0.986774
1.00512 0.998758 0.986948
1.00514 0.995944 0.989489
1.00509 0.997083 0.988059
1.00512 0.995678 0.989525
1.00518 0.995229 0.990388
1.00519 0.994953 0.990534
1.00516 0.994943 0.99063
1.00517 0.995696 0.989813
1.00518 0.994921 0.990442
1.00519 0.995219 0.990304
1.00521 0.996702 0.988993
1.00517 0.995184 0.990144
1.00522 0.996967 0.988512
1.00523 0.998461 0.987057
1.00519 0.997219 0.988318
1.00524 0.998669 0.986833
1.0051 0.999631 0.986097
1.00522 0.998914 0.986604
1.00504 0.999746 0.986075
1.00407 1.0001 0.987423
1.00499 0.999821 0.986101
1.00399 1.00008 0.98758
1.00152 1.00003 0.99318
1.0039 1.0001 0.987709
1.00154 1.00006 0.993148
1.00014 0.999911 0.995362
1.00159 1.00022 0.993006
0.999856 1.00015 0.995464
0.999612 1.00051 0.998021
1.00517 0.997779 0.98771
1.00519 0.998784 0.986805
1.00518 0.997921 0.987598
1.00494 0.999735 0.986474
1.0052 0.999044 0.986385
1.00521 0.998059 0.987399
1.00374 1.00033 0.987693
1.00487 0.999935 0.986116
1.00516 0.999736 0.98586
1.0046 1.00061 0.985911
1.00325 1.00129 0.987647
1.00108 1.00122 0.991519
1.00219 1.00269 0.988125
1.00054 1.00172 0.991975
0.999771 1.00039 0.99783
0.999944 1.00161 0.993045
0.999613 0.999554 0.998271
0.999555 0.998756 0.998678
1.00518 0.995813 0.98961
1.00517 0.995146 0.990148
1.00515 0.9952 0.990044
1.00516 0.996554 0.988953
1.00512 0.997513 0.987888
1.00514 0.995926 0.989367
1.00516 0.995888 0.989817
1.00518 0.995186 0.990398
1.00517 0.994959 0.990513
1.00518 0.995669 0.9899
1.00515 0.99684 0.988822
1.0052 0.995319 0.990136
1.00521 0.99683 0.988757
1.0052 0.998139 0.98749
1.00523 0.996943 0.988517
1.00524 0.998448 0.987056
1.00512 0.999479 0.986217
1.00524 0.99866 0.986836
1.00509 0.999627 0.986107
1.00416 1.00004 0.987306
1.00504 0.99974 0.98609
1.00407 1.00009 0.987431
1.00158 1.0001 0.992988
1.004 1.00006 0.987584
1.00162 0.999994 0.993072
1.00022 0.999896 0.995277
1.00165 1.00002 0.993071
0.999924 0.999963 0.995535
0.999624 1.00033 0.995596
1.00517 0.99709 0.988527
1.0052 0.998685 0.986829
1.00518 0.997608 0.987876
1.00501 0.999464 0.986564
1.00519 0.998858 0.986714
1.00518 0.997958 0.987472
1.00393 0.999958 0.987773
1.00495 0.999638 0.986382
1.0052 0.9989 0.986488
1.0013 1.00064 0.991668
1.00376 1.00032 0.987703
1.00487 0.999893 0.986101
1.00329 1.00126 0.987639
1.00102 1.00131 0.991523
0.999805 1.0007 0.997746
1.00041 1.00184 0.992004
0.999699 1.00022 0.997933
0.999554 0.999374 0.998402
1.00515 0.996068 0.989489
1.00517 0.995841 0.989599
1.00518 0.995121 0.990162
1.00516 0.996465 0.989013
1.00514 0.997008 0.988702
1.00516 0.995852 0.989851
1.00519 0.995136 0.990409
1.00519 0.995663 0.989987
1.00515 0.996752 0.988878
1.00518 0.998115 0.987604
1.00522 0.99696 0.988521
1.0052 0.998295 0.987306
1.00512 0.999202 0.986522
1.00524 0.998445 0.987056
1.00511 0.999477 0.986225
1.00422 0.999961 0.98727
1.00508 0.999629 0.986117
1.00416 1.00004 0.987312
1.00169 1.00015 0.991509
1.00408 1.00007 0.987438
1.00169 1.00006 0.992248
1.00016 0.999941 0.997761
1.00173 0.99997 0.992967
1.00002 0.999884 0.995463
0.999717 1.00002 0.995691
1.00515 0.996867 0.988836
1.0052 0.998377 0.987228
1.00517 0.997174 0.988478
1.00509 0.999262 0.986397
1.0052 0.998679 0.98686
1.00518 0.997433 0.988041
1.00404 0.999755 0.987521
1.00501 0.999467 0.986574
1.00519 0.998931 0.986624
1.00144 1.00015 0.991906
1.00393 0.999915 0.987675
1.00495 0.999535 0.98629
0.99985 1.00059 0.997802
1.00129 1.00066 0.99167
1.00377 1.0003 0.987713
1.00095 1.00137 0.99153
0.999799 1.00057 0.997758
0.999606 1.00008 0.998057
1.00513 0.996945 0.988743
1.00514 0.996107 0.989481
1.00517 0.995871 0.989587
1.00518 0.998123 0.987519
1.00514 0.996923 0.988769
1.00517 0.995816 0.989886
1.00515 0.996656 0.988935
1.00518 0.998101 0.987605
1.00512 0.999123 0.986788
1.0052 0.998452 0.987121
1.00511 0.999317 0.986499
1.00425 0.999794 0.987188
1.00511 0.999469 0.986233
1.00422 0.999956 0.987275
1.00173 1.00013 0.991446
1.00416 1.00004 0.987318
1.0017 1.00014 0.991506
1.00019 0.999976 0.997716
1.00171 1.00005 0.991593
1.00008 0.999933 0.996577
0.999817 0.99985 0.995646
1.00514 0.997209 0.988481
1.00519 0.998237 0.987332
1.00515 0.996852 0.988855
1.00512 0.99929 0.98636
1.0052 0.998431 0.98714
1.00517 0.997262 0.98843
1.00417 0.999664 0.987385
1.0051 0.999356 0.986427
1.0052 0.998674 0.98689
1.00158 0.9999 0.991911
1.00404 0.999757 0.987502
1.00501 0.99947 0.986584
0.999968 1.00029 0.997843
1.00144 1.00013 0.991913
1.00393 0.999874 0.987575
0.999863 1.00054 0.997772
1.00127 1.00066 0.99167
0.999742 1.00051 0.997796
1.00518 0.997983 0.987692
1.00513 0.996994 0.988674
1.00514 0.996143 0.989473
1.00507 0.999012 0.986966
1.00518 0.998048 0.98761
1.00513 0.996846 0.988836
1.00518 0.998086 0.987607
1.00512 0.999127 0.986786
1.00424 0.9997 0.987309
1.0051 0.999433 0.986475
1.00424 0.999843 0.987239
1.00178 1.00006 0.991441
1.00422 0.999947 0.987281
1.00173 1.00013 0.991446
1.0002 1.00001 0.997663
1.0017 1.00014 0.991502
1.00019 0.999988 0.997692
1.00016 0.999887 0.995217
1.00519 0.998188 0.987402
1.00514 0.997052 0.988594
1.00512 0.999209 0.986488
1.0052 0.998244 0.987327
1.00515 0.996834 0.988874
1.00423 0.999704 0.987507
1.00512 0.999297 0.986354
1.00521 0.998482 0.987051
1.0017 0.999864 0.991733
1.00417 0.999713 0.987443
1.0051 0.999455 0.986457
1.00013 1.00005 0.997797
1.00158 0.999892 0.991918
1.00405 0.999752 0.987483
0.999948 1.00031 0.99783
1.00144 1.00013 0.991917
0.999865 1.00052 0.997746
1.00505 0.998986 0.987041
1.00518 0.998041 0.987623
1.00513 0.997046 0.988606
1.00415 0.999643 0.987514
1.00507 0.999023 0.986968
1.00518 0.997969 0.987701
1.00512 0.999134 0.986785
1.00425 0.99969 0.987285
1.00177 1.00002 0.9915
1.00424 0.999891 0.987289
1.00176 1.00007 0.991442
1.00024 1.00001 0.997637
1.00173 1.00012 0.991447
1.00021 1.00001 0.997657
1.00021 0.999997 0.997673
1.00509 0.999131 0.986628
1.00519 0.99802 0.987579
1.00515 0.996893 0.988707
1.00419 0.999692 0.987582
1.0051 0.999213 0.986481
1.0052 0.998251 0.987321
1.00175 0.999943 0.991586
1.00422 0.999711 0.987501
1.00511 0.999304 0.986349
1.00023 0.999945 0.997713
1.0017 0.999879 0.991738
1.00418 0.999754 0.987502
1.00008 1.00009 0.99782
1.00158 0.999899 0.991926
0.999951 1.0003 0.99781
1.0041 0.999695 0.987754
1.00504 0.998949 0.986978
1.00518 0.998095 0.987554
1.00172 0.99997 0.991653
1.00417 0.999625 0.987487
1.00508 0.999033 0.986969
1.00426 0.999677 0.987262
1.00177 1.00001 0.991508
1.00025 1.00001 0.997613
1.00175 1.00008 0.991442
1.00024 1.00002 0.997623
1.00021 1.00002 0.99765
1.00414 0.999675 0.987699
1.00507 0.999035 0.986718
1.00519 0.997855 0.987755
1.00181 1 0.992775
1.00419 0.999689 0.98758
1.00509 0.999218 0.986474
1.00025 0.99995 0.997655
1.00175 0.999963 0.991588
1.00421 0.999719 0.987495
1.0002 0.999977 0.997745
1.00169 0.999905 0.991743
1.00005 1.0001 0.997834
1.00172 0.999973 0.99167
1.00411 0.99965 0.987676
1.00504 0.99891 0.986915
1.00021 0.999999 0.997643
1.0017 0.99997 0.991657
1.00419 0.999609 0.987459
1.00175 0.999999 0.991512
1.00024 1.00001 0.997619
1.00025 1.00002 0.997615
1.00182 0.999987 0.992801
1.00415 0.999671 0.987699
1.00506 0.998936 0.986809
0.999911 0.999987 0.997973
1.00174 1.00001 0.991578
1.0042 0.999683 0.987579
1.00024 0.999962 0.99768
1.00175 0.999984 0.991589
1.00017 0.999997 0.997777
1.00017 0.999997 0.995184
1.00174 0.99997 0.992281
1.00412 0.999607 0.987598
1.00021 0.999998 0.997652
1.0017 0.999969 0.991666
1.00025 1 0.997621
0.999841 1 0.995496
1.00176 0.999986 0.992233
1.00415 0.999669 0.987699
1.00005 0.999987 0.996548
1.00174 1.00001 0.991586
1.00023 0.999973 0.997706
1.00018 0.999993 0.997668
1.00166 0.999971 0.99174
1.00018 0.999996 0.99766
1.00001 0.999993 0.996589
1.0017 0.999988 0.991682
1.00023 0.999975 0.997668
1.00018 0.999989 0.997679
1.00018 0.999985 0.99767

TENSORS stress float
0.00165785 -8.41572e-05 0.000164896
-8.41572e-05 0.000624173 -2.14654e-05
0.000164896 -2.14654e-05 0.000603316
0.00519214 -0.00012618 0.000154647
-0.00012618 0.00272008 1.62467e-05
0.000154647 1.62467e-05 0.00269577
0.00147702 -1.25262e-05 7.82898e-05
-1.25262e-05 0.000527699 -8.09137e-06
7.82898e-05 -8.09137e-06 0.000497386
0.00179145 -5.13859e-05 0.000165384
-5.13859e-05 0.000678596 -1.38487e-05
0.000165384 -1.38487e-05 0.000660386
0.00172045 -7.5927e-05 0.000161378
-7.5927e-05 0.000653057 -1.95116e-05
0.000161378 -1.95116e-05 0.000633315
0.00159423 -7.97156e-05 0.000169425
-7.97156e-05 0.00058324 -2.10391e-05
0.000169425 -2.10391e-05 0.000563896
0.00144837 -5.49459e-05 2.362e-05
-5.49459e-05 0.000432741 -8.68199e-06
2.362e-05 -8.68199e-06 0.000354633
0.00504889 -0.000122336 1.35517e-06
-0.000122336 0.00262194 -3.3692e-07
1.35517e-06 -3.3692e-07 0.0026064
0.00523124 2.55675e-05 6.59838e-05
2.55675e-05 0.00269042 3.46457e-06
6.59838e-05 3.46457e-06 0.00267766
0.00500842 -0.000250572 4.14623e-06
-0.000250572 0.0026194 3.92638e-06
4.14623e-06 3.92638e-06 0.002577
0.0016732 5.63872e-05 0.000157778
5.63872e-05 0.00063142 1.40214e-05
0.000157778 1.40214e-05 0.000621016
0.000682002 0.000164298 2.06317e-05
0.000164298 2.02749e-06 1.30053e-05
2.06317e-05 1.30053e-05 -8.26469e-05
0.00162927 -3.06627e-05 0.000177559
-3.06627e-05 0.000578237 2.1339e-06
0.000177559 2.1339e-06 0.000567015
0.00127202 -1.73043e-05 2.73775e-05
-1.73043e-05 0.000390691 1.08608e-06
2.73775e-05 1.08608e-06 0.00035496
0.00136562 1.7436e-06 -2.37319e-05
1.7436e-06 0.000462869 4.66965e-06
-2.37319e-05 4.66965e-06 0.000428869
0.0015238 -5.38281e-05 6.02957e-05
-5.38281e-05 0.000534383 -3.43254e-06
6.02957e-05 -3.43254e-06 0.000507661
0.00148223 6.66145e-06 8.52781e-05
6.66145e-06 0.000536921 -7.51895e-06
8.52781e-05 -7.51895e-06 0.000501811
0.00149248 -3.10957e-05 6.96865e-05
-3.10957e-05 0.000524472 -7.48739e-06
6.96865e-05 -7.48739e-06 0.000498928
0.00151246 -9.82495e-05 -2.93643e-05
-9.82495e-05 0.000458948 2.68025e-06
-2.93643e-05 2.68025e-06 0.000389652
0.00532441 -0.000106397 0.000204792
-0.000106397 0.00275116 -5.51754e-06
0.000204792 -5.51754e-06 0.002752
0.00177799 -3.48447e-05 0.000168767
-3.48447e-05 0.000667343 -1.04136e-05
0.000168767 -1.04136e-05 0.000649575
0.00178215 -6.57273e-05 0.000162682
-6.57273e-05 0.000679454 -1.69061e-05
0.000162682 -1.69061e-05 0.000660941
0.00148121 -9.30098e-05 4.38072e-05
-9.30098e-05 0.00041909 -6.60986e-06
4.38072e-05 -6.60986e-06 0.000348926
0.0014639 -7.21544e-05 3.24159e-05
-7.21544e-05 0.00042219 -7.79784e-06
3.24159e-05 -7.79784e-06 0.000351508
0.00140864 -4.94788e-05 0.0001553
-4.94788e-05 0.000470638 -1.7464e-05
0.0001553 -1.7464e-05 0.000454631
0.00143051 -3.90326e-05 1.66528e-05
-3.90326e-05 0.00044176 -9.64844e-06
1.66528e-05 -9.64844e-06 0.000354346
0.00200685 -0.000204248 1.27597e-05
-0.000204248 0.000613716 -5.2946e-06
1.27597e-05 -5.2946e-06 0.00048194
0.00489731 -0.000159471 -0.000136164
-0.000159471 0.00253815 -9.08361e-06
-0.000136164 -9.08361e-06 0.00251932
0.00336755 4.66487e-05 -9.54242e-05
4.66487e-05 0.00161234 -6.88556e-06
-9.54242e-05 -6.88556e-06 0.00159412
0.00325569 -6.87993e-05 -8.91008e-05
-6.87993e-05 0.00157595 -3.25435e-06
-8.91008e-05 -3.25435e-06 0.00154782
0.00463005 -0.000158773 9.83769e-06
-0.000158773 0.0023854 -9.84039e-07
9.83769e-06 -9.84039e-07 0.0023671
0.00061629 0.000153471 -1.95573e-06
0.000153471 -3.57827e-05 -5.29321e-07
-1.95573e-06 -5.29321e-07 -0.000117538
0.00155447 5.08273e-05 0.000168912
5.08273e-05 0.000545878 1.23981e-05
0.000168912 1.23981e-05 0.00052847
0.00172686 0.000115824 0.000170762
0.000115824 0.000664429 1.80634e-05
0.000170762 1.80634e-05 0.000644092
0.00256846 0.000161642 0.000104295
0.000161642 0.001056 1.27479e-05
0.000104295 1.27479e-05 0.000995014
0.00364431 -0.000217323 6.98547e-06
-0.000217323 0.00182225 3.04192e-06
6.98547e-06 3.04192e-06 0.00179238
0.00261432 0.000190438 0.000102587
0.000190438 0.00110846 1.41759e-05
0.000102587 1.41759e-05 0.00104354
0.000668768 0.00012033 2.22146e-05
0.00012033 2.10061e-06 1.61857e-05
2.22146e-05 1.61857e-05 -7.17047e-05
0.000926421 0.000165974 9.17612e-06
0.000165974 6.42098e-05 4.54411e-06
9.17612e-06 4.54411e-06 -8.51996e-05
0.00295515 -0.00010346 8.42015e-05
-0.00010346 0.00139406 3.08617e-06
8.42015e-05 3.08617e-06 0.00139727
0.0053851 5.90992e-05 3.81167e-06
5.90992e-05 0.00277584 -1.17759e-06
3.81167e-06 -1.17759e-06 0.002782
0.00336849 4.71078e-05 -7.84076e-05
4.71078e-05 0.00160503 -2.69117e-06
-7.84076e-05 -2.69117e-06 0.00158987
0.00530008 5.73229e-05 0.000202126
5.73229e-05 0.00272927 1.91551e-06
0.000202126 1.91551e-06 0.00273507
0.00129985 5.32898e-05 3.03717e-05
5.32898e-05 0.000404723 1.6761e-06
3.03717e-05 1.6761e-06 0.000371994
0.000698179 6.30312e-06 1.61329e-05
6.30312e-06 -6.48989e-05 1.58296e-06
1.61329e-05 1.58296e-06 -0.000134301
0.00515604 0.000174465 9.7988e-05
0.000174465 0.00266534 8.19672e-06
9.7988e-05 8.19672e-06 0.0026444
0.00265083 4.86612e-05 0.000103559
4.86612e-05 0.00107041 5.91635e-06
0.000103559 5.91635e-06 0.0010202
0.0011919 -7.41708e-05 -4.13453e-05
-7.41708e-05 0.000356873 5.28838e-06
-4.13453e-05 5.28838e-06 0.000319005
0.00127351 -4.66565e-05 -3.53559e-05
-4.66565e-05 0.000405341 5.21617e-06
-3.53559e-05 5.21617e-06 0.000372345
0.00145026 5.89339e-05 -1.19922e-05
5.89339e-05 0.000522514 5.3581e-06
-1.19922e-05 5.3581e-06 0.00048074
0.0015322 -0.000111988 -8.92413e-05
-0.000111988 0.000463244 1.33351e-05
-8.92413e-05 1.33351e-05 0.000399977
0.00337134 1.54148e-05 -8.3475e-05
1.54148e-05 0.0016136 -1.53061e-06
-8.3475e-05 -1.53061e-06 0.0015956
0.00152458 -3.98012e-05 6.75865e-05
-3.98012e-05 0.000530266 -2.85992e-06
6.75865e-05 -2.85992e-06 0.000504367
0.0013751 2.61216e-05 8.31452e-05
2.61216e-05 0.000476366 -5.5763e-06
8.31452e-05 -5.5763e-06 0.000442374
0.00151652 -4.4378e-05 6.36669e-05
-4.4378e-05 0.000530489 -5.62051e-06
6.36669e-05 -5.62051e-06 0.000506055
0.00153087 -8.03523e-05 -2.36163e-05
-8.03523e-05 0.000442299 9.01721e-07
-2.36163e-05 9.01721e-07 0.000377782
0.00150614 -8.71592e-05 -3.41792e-05
-8.71592e-05 0.000469267 2.51997e-06
-3.41792e-05 2.51997e-06 0.000393977
0.00152145 -9.92428e-05 -2.473e-05
-9.92428e-05 0.000452037 1.95831e-06
-2.473e-05 1.95831e-06 0.000386205
0.00200294 -0.000202481 -6.18089e-06
-0.000202481 0.000609979 1.67831e-06
-6.18089e-06 1.67831e-06 0.0004785
0.00525984 4.78257e-05 0.000195266
4.78257e-05 0.00270663 -8.40391e-08
0.000195266 -8.40391e-08 0.00271266
0.00176458 -1.77157e-05 0.000170152
-1.77157e-05 0.0006606 -7.06086e-06
0.000170152 -7.06086e-06 0.000643999
0.0023827 2.96733e-05 2.85584e-05
2.96733e-05 0.00093153 -9.67596e-07
2.85584e-05 -9.67596e-07 0.00087332
0.00148878 -7.53144e-05 3.75925e-05
-7.53144e-05 0.000415033 -4.61016e-06
3.75925e-05 -4.61016e-06 0.000347051
0.00147891 -8.44972e-05 3.94652e-05
-8.44972e-05 0.000420264 -7.16758e-06
3.94652e-05 -7.16758e-06 0.000351652
0.00194151 -0.0001249 1.10324e-05
-0.0001249 0.00052657 -2.64804e-06
1.10324e-05 -2.64804e-06 0.000410282
0.00160734 -0.000161764 1.45677e-05
-0.000161764 0.000360108 -5.05274e-06
1.45677e-05 -5.05274e-06 0.000233932
0.00111175 -7.82255e-09 0.000115454
-7.82255e-09 0.000303188 -1.24899e-05
0.000115454 -1.24899e-05 0.000290036
0.00111622 5.64996e-06 9.1102e-06
5.64996e-06 0.000289022 -9.6737e-06
9.1102e-06 -9.6737e-06 0.000205323
0.00198072 -0.000220324 1.19908e-05
-0.000220324 0.000623965 -5.45629e-06
1.19908e-05 -5.45629e-06 0.000482706
0.00122089 -0.000187064 7.87876e-06
-0.000187064 6.76198e-05 -2.18068e-06
7.87876e-06 -2.18068e-06 -9.32036e-05
0.00544234 0.000104729 -0.000204455
0.000104729 0.00281213 -1.51859e-05
-0.000204455 -1.51859e-05 0.00281386
0.00431606 -0.000177259 -0.000110378
-0.000177259 0.00220579 -6.44913e-06
-0.000110378 -6.44913e-06 0.00218661
0.00518838 -8.46751e-05 -0.000165575
-8.46751e-05 0.00268745 -1.05082e-05
-0.000165575 -1.05082e-05 0.00268039
0.000529178 0.000151458 -2.10871e-05
0.000151458 -8.42306e-05 -1.33134e-05
-2.10871e-05 -1.33134e-05 -0.000164641
0.00548574 0.000136939 -2.90086e-06
0.000136939 0.00283548 -1.68386e-06
-2.90086e-06 -1.68386e-06 0.00283622
0.00546024 3.2142e-05 -8.51206e-06
3.2142e-05 0.00283041 -7.07493e-07
-8.51206e-06 -7.07493e-07 0.0028288
0.000557984 0.000115945 -2.98357e-07
0.000115945 -0.000111095 -2.24252e-07
-2.98357e-07 -2.24252e-07 -0.000190832
0.0024223 -0.000115273 -4.8873e-05
-0.000115273 0.00109481 -7.86235e-07
-4.8873e-05 -7.86235e-07 0.00107406
0.000555129 0.000164699 -8.39831e-07
0.000164699 -8.27688e-05 -2.81973e-07
-8.39831e-07 -2.81973e-07 -0.000166763
0.00142104 9.50151e-05 3.21604e-05
9.50151e-05 0.000451037 5.20934e-07
3.21604e-05 5.20934e-07 0.000386786
0.000903474 0.000161132 4.03407e-07
0.000161132 4.8459e-05 -4.29423e-07
4.03407e-07 -4.29423e-07 -0.000100039
0.00345567 -0.000106162 0.000108501
-0.000106162 0.00168507 4.85592e-06
0.000108501 4.85592e-06 0.00168625
0.000610422 -5.13859e-05 1.54208e-06
-5.13859e-05 1.98165e-05 7.22255e-06
1.54208e-06 7.22255e-06 -1.80106e-05
0.000675548 8.55715e-05 1.71583e-05
8.55715e-05 -6.31116e-05 8.14455e-06
1.71583e-05 8.14455e-06 -0.000139108
0.000705698 0.00013759 2.18145e-05
0.00013759 -1.3237e-05 1.36391e-05
2.18145e-05 1.36391e-05 -9.72907e-05
0.00100005 0.000134945 1.28382e-05
0.000134945 -6.00081e-06 5.04869e-06
1.28382e-05 5.04869e-06 -0.000140995
0.0021925 2.82627e-05 6.69078e-05
2.82627e-05 0.000915588 8.56165e-06
6.69078e-05 8.56165e-06 0.000870551
0.000954434 0.000161911 1.07289e-05
0.000161911 3.01379e-05 5.55334e-06
1.07289e-05 5.55334e-06 -0.000113027
0.000945244 0.000164482 7.96538e-06
0.000164482 0.000144896 5.25909e-06
7.96538e-06 5.25909e-06 -5.79349e-06
0.000921723 0.000196546 4.20185e-06
0.000196546 -9.6634e-07 4.38045e-07
4.20185e-06 4.38045e-07 -0.000184518
0.00260714 -0.000115048 4.533e-05
-0.000115048 0.00119025 2.36506e-06
4.533e-05 2.36506e-06 0.00119069
0.00281867 -0.000127548 8.71434e-06
-0.000127548 0.00131928 -4.40577e-07
8.71434e-06 -4.40577e-07 0.00131627
0.00546591 1.07887e-05 -0.000199286
1.07887e-05 0.00281863 -7.98641e-06
-0.000199286 -7.98641e-06 0.00282333
0.00542421 5.02441e-05 -0.000206448
5.02441e-05 0.00279651 -4.4833e-06
-0.000206448 -4.4833e-06 0.00280331
0.00535763 7.9846e-05 -1.55726e-07
7.9846e-05 0.00276872 -2.15311e-06
-1.55726e-07 -2.15311e-06 0.00277037
0.00335641 5.81424e-06 -9.31458e-05
5.81424e-06 0.00159613 -3.16887e-06
-9.31458e-05 -3.16887e-06 0.00158358
0.00165746 2.79756e-05 4.4177e-05
2.79756e-05 0.000493777 7.36816e-07
4.4177e-05 7.36816e-07 0.000434979
0.00341826 9.20207e-05 -7.95007e-05
9.20207e-05 0.00163627 -3.83401e-06
-7.95007e-05 -3.83401e-06 0.0016186
0.00168377 6.68416e-05 4.28916e-05
6.68416e-05 0.000512841 1.48507e-06
4.28916e-05 1.48507e-06 0.000450374
0.00533099 0.000141569 0.000205324
0.000141569 0.00276346 4.71693e-06
0.000205324 4.71693e-06 0.00275883
0.000629109 7.75819e-06 1.78641e-05
7.75819e-06 -0.000101693 3.92761e-07
1.78641e-05 3.92761e-07 -0.000169639
0.00267438 1.77213e-05 0.000104311
1.77213e-05 0.00108221 3.86158e-06
0.000104311 3.86158e-06 0.00103397
0.00104284 3.14138e-05 1.22004e-05
3.14138e-05 -1.78265e-05 1.06924e-06
1.22004e-05 1.06924e-06 -0.000134891
0.00256718 9.08375e-05 0.000104441
9.08375e-05 0.00103087 7.39612e-06
0.000104441 7.39612e-06 0.000977774
0.00106301 7.46367e-05 1.19327e-05
7.46367e-05 7.6742e-07 2.4775e-06
1.19327e-05 2.4775e-06 -0.000123085
0.00164172 3.73305e-05 -0.000175588
3.73305e-05 0.000588158 1.3579e-06
-0.000175588 1.3579e-06 0.000577191
0.00125233 6.44897e-06 -2.78737e-05
6.44897e-06 0.000382156 1.60048e-06
-2.78737e-05 1.60048e-06 0.000347704
0.00135343 0.000121153 8.55108e-07
0.000121153 0.000493697 7.26425e-06
8.55108e-07 7.26425e-06 0.000438261
0.00121379 -6.52255e-05 -4.22365e-05
-6.52255e-05 0.000368647 5.59398e-06
-4.22365e-05 5.59398e-06 0.000333936
0.0016431 -5.99311e-05 -8.92172e-05
-5.99311e-05 0.000500095 7.34436e-06
-8.92172e-05 7.34436e-06 0.000442305
0.00158144 -9.6303e-05 -8.79468e-05
-9.6303e-05 0.000481062 1.1829e-05
-8.79468e-05 1.1829e-05 0.000420789
0.00151836 -0.000116934 -9.10413e-05
-0.000116934 0.000466622 1.38041e-05
-9.10413e-05 1.38041e-05 0.000399127
0.00199749 -0.00020089 -2.409e-05
-0.00020089 0.000606019 8.16516e-06
-2.409e-05 8.16516e-06 0.000474821
0.0053303 -8.26102e-05 2.04571e-06
-8.26102e-05 0.00275369 -1.32361e-06
2.04571e-06 -1.32361e-06 0.00275503
0.00149142 4.43609e-05 7.6424e-05
4.43609e-05 0.000510394 -2.39289e-06
7.6424e-05 -2.39289e-06 0.000486144
0.0011281 9.37104e-07 -4.6644e-05
9.37104e-07 0.000192048 7.93624e-07
-4.6644e-05 7.93624e-07 0.000132088
0.00155193 -4.49819e-05 -2.78825e-05
-4.49819e-05 0.000447003 1.29652e-06
-2.78825e-05 1.29652e-06 0.000384145
0.00269261 5.5626e-05 0.000119193
5.5626e-05 0.00124251 -1.844e-06
0.000119193 -1.844e-06 0.00123157
0.00180643 -5.17565e-05 -2.99539e-05
-5.17565e-05 0.00067405 -4.5961e-07
-2.99539e-05 -4.5961e-07 0.000598891
0.00153291 -9.17478e-05 -2.28356e-05
-9.17478e-05 0.000449159 1.34953e-06
-2.28356e-05 1.34953e-06 0.000384749
0.00179868 -0.000117106 -8.12048e-06
-0.000117106 0.000442426 1.40185e-06
-8.12048e-06 1.40185e-06 0.00032538
0.00197754 -0.000220329 -5.06844e-06
-0.000220329 0.000623373 1.55926e-06
-5.06844e-06 1.55926e-06 0.000481964
0.00182466 -0.000170637 -3.54686e-06
-0.000170637 0.000485834 8.33605e-07
-3.54686e-06 8.33605e-07 0.000360241
0.00124001 -0.000188103 2.9526e-07
-0.000188103 7.73604e-05 -7.07073e-08
2.9526e-07 -7.07073e-08 -8.33501e-05
0.000663065 1.18304e-05 1.82453e-05
1.18304e-05 -8.30331e-05 -1.23229e-06
1.82453e-05 -1.23229e-06 -0.000148312
0.00146246 1.6839e-05 2.89768e-05
1.6839e-05 0.000395495 -2.4459e-06
2.89768e-05 -2.4459e-06 0.000330913
0.00161595 -2.81305e-05 1.25588e-05
-2.81305e-05 0.000320381 -1.08403e-06
1.25588e-05 -1.08403e-06 0.000212208
0.00162778 -9.19112e-05 1.23522e-05
-9.19112e-05 0.000336567 -2.21257e-06
1.23522e-05 -2.21257e-06 0.000220833
0.00157889 -0.000136319 1.36376e-05
-0.000136319 0.000326711 -3.88907e-06
1.36376e-05 -3.88907e-06 0.00020535
0.00172176 -0.000140237 2.60141e-06
-0.000140237 0.000285968 -7.31819e-07
2.60141e-06 -7.31819e-07 0.000146344
0.00381526 0.000147706 0.000100818
0.000147706 0.00190457 -3.88967e-06
0.000100818 -3.88967e-06 0.00189459
0.00127612 -0.00017158 6.72216e-06
-0.00017158 7.4953e-05 -1.90739e-06
6.72216e-06 -1.90739e-06 -7.85703e-05
0.000397955 -4.66757e-05 1.02603e-05
-4.66757e-05 -0.000130193 -1.14595e-05
1.02603e-05 -1.14595e-05 -0.000191516
0.0008107 -0.000157397 7.79459e-06
-0.000157397 6.5694e-06 -6.45117e-06
7.79459e-06 -6.45117e-06 -0.000140873
0.00130161 -0.000213285 9.01582e-06
-0.000213285 0.000141261 -2.08207e-06
9.01582e-06 -2.08207e-06 -3.13036e-05
0.0014442 -0.000227096 4.34797e-06
-0.000227096 0.000118011 4.02191e-07
4.34797e-06 4.02191e-07 -5.62052e-05
0.000455639 3.86229e-06 5.36364e-06
3.86229e-06 -8.21032e-05 -9.33011e-06
5.36364e-06 -9.33011e-06 -0.00013012
0.000649006 -1.68113e-05 1.18015e-06
-1.68113e-05 2.71187e-05 -4.21427e-06
1.18015e-06 -4.21427e-06 -7.26223e-05
0.00548906 0.000149254 -0.000216061
0.000149254 0.00284069 -1.60503e-05
-0.000216061 -1.60503e-05 0.00284006
0.00532342 1.42882e-05 -0.000185706
1.42882e-05 0.00274997 -1.27169e-05
-0.000185706 -1.27169e-05 0.00275118
0.000550918 0.000107904 -1.75247e-05
0.000107904 -0.000116442 -9.48204e-06
-1.75247e-05 -9.48204e-06 -0.000196026
0.00369774 -0.00015138 -9.54411e-05
-0.00015138 0.00183738 -3.66708e-06
-9.54411e-05 -3.66708e-06 0.00182763
0.000443276 8.16234e-05 -1.35081e-05
8.16234e-05 -0.000116309 -1.23601e-05
-1.35081e-05 -1.23601e-05 -0.000182247
0.000510047 0.000150432 -1.96991e-05
0.000150432 -0.00010432 -1.24881e-05
-1.96991e-05 -1.24881e-05 -0.00018981
0.000895214 0.000158267 -9.73921e-06
0.000158267 4.11899e-05 -5.68269e-06
-9.73921e-06 -5.68269e-06 -0.000106667
0.00329076 -0.00012344 6.12109e-06
-0.00012344 0.00159418 -3.24828e-07
6.12109e-06 -3.24828e-07 0.00159194
0.000536986 -6.04238e-05 2.49047e-07
-6.04238e-05 -1.99046e-05 3.66742e-07
2.49047e-07 3.66742e-07 -5.83738e-05
0.00163469 0.000109277 4.2579e-05
0.000109277 0.000497318 2.47854e-06
4.2579e-05 2.47854e-06 0.000430174
0.0015647 0.000153983 4.06015e-05
0.000153983 0.000488961 2.14578e-06
4.06015e-05 2.14578e-06 0.000414648
0.00101286 0.000137693 1.76266e-07
0.000137693 2.73519e-06 -1.50123e-07
1.76266e-07 -1.50123e-07 -0.000133008
0.000620848 2.74788e-05 -6.3489e-07
2.74788e-05 3.50553e-06 1.41164e-07
-6.3489e-07 1.41164e-07 -5.04273e-05
0.000953757 0.000161958 4.64258e-07
0.000161958 3.0057e-05 2.73867e-07
4.64258e-07 2.73867e-07 -0.000113093
0.000853621 0.000150283 3.91804e-07
0.000150283 8.97605e-05 -6.82038e-07
3.91804e-07 -6.82038e-07 -5.84227e-05
0.00101308 0.000204814 -1.56853e-07
0.000204814 4.94505e-05 2.36001e-07
-1.56853e-07 2.36001e-07 -0.000135425
0.000645919 -8.19079e-06 7.05435e-06
-8.19079e-06 3.10946e-05 8.53213e-06
7.05435e-06 8.53213e-06 -1.39913e-05
0.000601906 -6.72149e-05 -1.04241e-06
-6.72149e-05 1.20145e-05 6.00378e-06
-1.04241e-06 6.00378e-06 -1.94802e-05
0.000717682 3.6188e-05 2.92465e-06
3.6188e-05 7.72483e-05 4.0941e-06
2.92465e-06 4.0941e-06 -1.73981e-05
0.00103249 0.000114754 1.25165e-05
0.000114754 -2.41622e-06 4.08278e-06
1.25165e-05 4.08278e-06 -0.000133537
0.000980665 0.000152727 1.228e-05
0.000152727 1.06953e-05 5.55945e-06
1.228e-05 5.55945e-06 -0.000128569
0.00133555 0.000183902 6.61163e-06
0.000183902 9.14031e-05 1.71038e-06
6.61163e-06 1.71038e-06 -7.15192e-05
0.000918957 0.000141202 6.16927e-06
0.000141202 0.000173792 5.80459e-06
6.16927e-06 5.80459e-06 3.69735e-05
0.00092323 0.000187514 4.80336e-06
0.000187514 -6.36121e-05 1.87224e-06
4.80336e-06 1.87224e-06 -0.000234835
0.000890547 0.000193696 4.06518e-06
0.000193696 6.55926e-05 8.74353e-07
4.06518e-06 8.74353e-07 -0.000130223
0.0015196 0.000259908 1.28564e-07
0.000259908 0.00028699 -4.07862e-07
1.28564e-07 -4.07862e-07 9.17555e-05
0.0024236 -0.000103383 3.38649e-05
-0.000103383 0.00107666 2.87258e-06
3.38649e-05 2.87258e-06 0.00107996
0.00251308 -0.000115592 3.61021e-06
-0.000115592 0.0011363 -3.49344e-07
3.61021e-06 -3.49344e-07 0.00113622
0.00267053 -0.00013047 -4.15945e-05
-0.00013047 0.00123522 -2.41204e-06
-4.15945e-05 -2.41204e-06 0.0012309
0.000466063 1.74637e-05 3.8504e-06
1.74637e-05 -7.2995e-05 -7.9662e-06
3.8504e-06 -7.9662e-06 -0.000115319
0.00350613 0.000133877 8.71032e-05
0.000133877 0.00171974 -3.41014e-06
8.71032e-05 -3.41014e-06 0.00171368
0.00549696 0.000155209 -0.00021917
0.000155209 0.00284703 -1.47037e-05
-0.00021917 -1.47037e-05 0.00284557
0.00540973 4.8131e-05 -0.000202201
4.8131e-05 0.00278639 -6.36536e-06
-0.000202201 -6.36536e-06 0.00279291
0.000654754 7.73249e-05 -1.87398e-05
7.73249e-05 -8.35636e-05 -4.39825e-06
-1.87398e-05 -4.39825e-06 -0.000155841
0.000638503 3.4108e-05 -1.8599e-05
3.4108e-05 -9.47638e-05 -2.06539e-06
-1.8599e-05 -2.06539e-06 -0.000165088
0.00531017 -2.46765e-05 -0.00019723
-2.46765e-05 0.00273256 -9.6441e-07
-0.00019723 -9.6441e-07 0.00273982
0.00528697 1.75734e-05 -6.46561e-07
1.75734e-05 0.00272038 -9.83546e-08
-6.46561e-07 -9.83546e-08 0.00272717
0.000616938 -1.02752e-07 -1.21212e-07
-1.02752e-07 -0.000110155 -1.07699e-07
-1.21212e-07 -1.07699e-07 -0.000177023
0.00164348 2.69146e-05 4.39142e-05
2.69146e-05 0.000485352 1.30105e-06
4.39142e-05 1.30105e-06 0.000426165
0.00104829 3.55349e-05 7.47296e-08
3.55349e-05 -1.46511e-05 -1.42693e-07
7.47296e-08 -1.42693e-07 -0.000131955
0.000628233 6.73057e-05 -3.67255e-07
6.73057e-05 -9.42596e-05 -2.40745e-07
-3.67255e-07 -2.40745e-07 -0.000168215
0.00104553 7.68465e-05 -5.69537e-08
7.68465e-05 -8.6693e-06 -1.53121e-07
-5.69537e-08 -1.53121e-07 -0.000132995
0.000608297 -2.33129e-05 1.82319e-05
-2.33129e-05 -0.000116369 -6.87669e-07
1.82319e-05 -6.87669e-07 -0.000181446
0.00104271 1.38462e-05 1.1994e-05
1.38462e-05 -1.78698e-05 4.27564e-07
1.1994e-05 4.27564e-07 -0.000132768
0.00104667 5.3539e-05 1.21072e-05
5.3539e-05 -1.32563e-05 1.76678e-06
1.21072e-05 1.76678e-06 -0.000133594
0.00142355 5.10188e-05 3.46124e-06
5.10188e-05 6.60799e-05 1.21561e-07
3.46124e-06 1.21561e-07 -6.21321e-05
0.00105168 9.38737e-05 1.20582e-05
9.38737e-05 -7.49381e-08 3.20105e-06
1.20582e-05 3.20105e-06 -0.000127403
0.00141743 0.000104963 3.54162e-06
0.000104963 7.94188e-05 4.51783e-07
3.54162e-06 4.51783e-07 -6.02478e-05
0.00528484 -4.44333e-05 -0.000203753
-4.44333e-05 0.00272163 5.62773e-08
-0.000203753 5.62773e-08 0.00272685
0.0012562 -0.000114064 -2.96865e-05
-0.000114064 0.000389741 3.11089e-06
-2.96865e-05 3.11089e-06 0.000353258
-0.000225803 -1.12745e-06 -1.32242e-05
-1.12745e-06 -0.000593739 2.11782e-06
-1.32242e-05 2.11782e-06 -0.000670339
0.00163344 -4.1121e-05 -9.02312e-05
-4.1121e-05 0.000489887 5.37249e-06
-9.02312e-05 5.37249e-06 0.000432233
0.00409754 0.000267305 -2.01467e-06
0.000267305 0.00210797 4.09661e-06
-2.01467e-06 4.09661e-06 0.00206248
0.00249993 -0.000142078 -8.79392e-05
-0.000142078 0.00105707 1.33978e-05
-8.79392e-05 1.33978e-05 0.000992744
0.00162532 -7.8966e-05 -8.83156e-05
-7.8966e-05 0.000496232 9.61687e-06
-8.83156e-05 9.61687e-06 0.000437944
0.00162848 -0.000108535 -2.52431e-05
-0.000108535 0.00034218 4.8687e-06
-2.52431e-05 4.8687e-06 0.000224562
0.00202894 -0.000178873 -2.27764e-05
-0.000178873 0.000604197 6.88872e-06
-2.27764e-05 6.88872e-06 0.000479362
0.00202105 -0.000223245 -2.18496e-05
-0.000223245 0.000650128 8.10497e-06
-2.18496e-05 8.10497e-06 0.000508155
0.00127407 -0.000190184 -6.75171e-06
-0.000190184 9.55232e-05 1.88682e-06
-6.75171e-06 1.88682e-06 -6.52081e-05
0.000611696 8.24778e-06 -3.56271e-08
8.24778e-06 -0.000111184 -3.92283e-08
-3.56271e-08 -3.92283e-08 -0.000177253
0.00156744 -5.68316e-05 -2.77841e-05
-5.68316e-05 0.000454698 3.11771e-07
-2.77841e-05 3.11771e-07 0.000393226
0.00118182 -2.40702e-05 -6.14862e-06
-2.40702e-05 6.89186e-05 2.89695e-07
-6.14862e-06 2.89695e-07 -4.3349e-05
0.00182493 -9.40726e-05 -4.50892e-06
-9.40726e-05 0.000448785 6.6018e-07
-4.50892e-06 6.6018e-07 0.000334576
0.00390431 0.000138989 -4.06772e-06
0.000138989 0.00195476 -5.97071e-07
-4.06772e-06 -5.97071e-07 0.00194626
0.00140632 -4.772e-05 -4.54582e-07
-4.772e-05 0.000458622 4.20938e-07
-4.54582e-07 4.20938e-07 0.000390053
0.00131504 -0.000185262 6.17371e-07
-0.000185262 0.000304055 -1.34517e-06
6.17371e-07 -1.34517e-06 0.000156651
0.00160558 -0.000135881 -4.84866e-06
-0.000135881 0.000341812 1.03601e-06
-4.84866e-06 1.03601e-06 0.000220483
0.00150676 -0.000133505 -2.55022e-06
-0.000133505 0.000159644 5.54979e-07
-2.55022e-06 5.54979e-07 1.97783e-05
0.00120019 -0.000206575 2.29958e-07
-0.000206575 8.1014e-05 -3.87092e-09
2.29958e-07 -3.87092e-09 -9.2127e-05
0.00150856 -0.000181757 2.9419e-07
-0.000181757 0.000207633 -1.70444e-07
2.9419e-07 -1.70444e-07 5.49263e-05
0.00145206 -0.000226529 5.48312e-07
-0.000226529 0.000125899 -9.24167e-09
5.48312e-07 -9.24167e-09 -4.76867e-05
0.000522844 -1.63428e-06 -7.11766e-07
-1.63428e-06 -4.50445e-05 1.26285e-07
-7.11766e-07 1.26285e-07 -9.33296e-05
0.000662863 -3.35344e-05 -5.39725e-07
-3.35344e-05 3.37796e-05 -4.31424e-08
-5.39725e-07 -4.31424e-08 -6.75519e-05
0.00103786 -1.16873e-05 1.18792e-05
-1.16873e-05 -1.78192e-05 -9.74923e-07
1.18792e-05 -9.74923e-07 -0.000131709
0.00163741 -5.48281e-05 1.20382e-05
-5.48281e-05 0.000335189 -1.51541e-06
1.20382e-05 -1.51541e-06 0.000224156
0.00169015 -4.12684e-05 2.19061e-06
-4.12684e-05 0.000237399 -1.04526e-07
2.19061e-06 -1.04526e-07 0.00011417
0.00135822 -0.000104193 4.25721e-06
-0.000104193 6.00275e-05 -4.9117e-07
4.25721e-06 -4.9117e-07 -7.47245e-05
0.00162944 -0.000168501 4.5385e-06
-0.000168501 0.000255959 -9.84074e-07
4.5385e-06 -9.84074e-07 0.000110817
0.00167561 -0.000162011 -4.95545e-07
-0.000162011 0.000157939 5.34558e-07
-4.95545e-07 5.34558e-07 2.15747e-05
0.000407296 -2.32075e-05 8.11995e-06
-2.32075e-05 -0.00011631 -1.03475e-05
8.11995e-06 -1.03475e-05 -0.000170015
0.00149108 -0.000209385 2.47423e-06
-0.000209385 0.000115514 4.68485e-07
2.47423e-06 4.68485e-07 -4.41062e-05
0.000647081 -0.000126442 4.42521e-06
-0.000126442 -1.23902e-05 -5.56426e-06
4.42521e-06 -5.56426e-06 -0.0001518
0.000900136 -0.000201618 7.70079e-06
-0.000201618 -2.59555e-05 -4.64765e-06
7.70079e-06 -4.64765e-06 -0.000212227
0.00181589 -0.000275022 3.60098e-06
-0.000275022 0.00036746 6.40713e-08
3.60098e-06 6.40713e-08 0.000174458
0.00178934 -0.000262639 -8.48774e-07
-0.000262639 0.000257405 3.22438e-06
-8.48774e-07 3.22438e-06 8.92149e-05
0.000735754 -7.30936e-05 2.96054e-06
-7.30936e-05 7.48306e-05 -4.09325e-06
2.96054e-06 -4.09325e-06 -4.12888e-05
0.000585031 -7.8013e-06 9.44336e-07
-7.8013e-06 -5.2573e-06 -3.46865e-06
9.44336e-07 -3.46865e-06 -9.38268e-05
0.00101625 -0.000124124 4.19509e-07
-0.000124124 0.000250107 -5.66901e-07
4.19509e-07 -5.66901e-07 0.000100115
0.000589037 8.71509e-05 -1.70039e-05
8.71509e-05 -0.000108591 -7.30732e-06
-1.70039e-05 -7.30732e-06 -0.000184927
0.00312826 -0.000144897 -6.3558e-05
-0.000144897 0.00150439 -2.15757e-06
-6.3558e-05 -2.15757e-06 0.00149679
0.000455608 -7.17132e-05 2.23031e-06
-7.17132e-05 -6.1999e-05 -6.94698e-06
2.23031e-06 -6.94698e-06 -0.000102569
0.000515005 0.000132013 -1.84172e-05
0.000132013 -0.000117358 -1.15291e-05
-1.84172e-05 -1.15291e-05 -0.000200695
0.00101709 0.000140204 -1.32911e-05
0.000140204 6.61222e-06 -5.34634e-06
-1.32911e-05 -5.34634e-06 -0.000129869
0.000407598 1.90614e-05 -8.49394e-06
1.90614e-05 -0.00011688 -1.02677e-05
-8.49394e-06 -1.02677e-05 -0.000169643
0.000717138 0.000133736 -6.00384e-06
0.000133736 9.40835e-06 -6.40918e-06
-6.00384e-06 -6.40918e-06 -0.000135935
0.000955236 0.000162082 -1.05425e-05
0.000162082 3.14657e-05 -5.14172e-06
-1.05425e-05 -5.14172e-06 -0.000111704
0.0010515 0.000208716 -6.36946e-06
0.000208716 6.94383e-05 -1.22155e-06
-6.36946e-06 -1.22155e-06 -0.000116059
0.000536865 -1.90138e-05 1.47539e-06
-1.90138e-05 -3.01006e-05 3.75404e-07
1.47539e-06 3.75404e-07 -7.45399e-05
0.000547836 -7.18179e-05 -3.96828e-07
-7.18179e-05 -1.80026e-05 2.59438e-07
-3.96828e-07 2.59438e-07 -5.02032e-05
0.000638641 -2.88784e-06 5.81912e-07
-2.88784e-06 2.64229e-05 3.35803e-07
5.81912e-07 3.35803e-07 -6.09594e-05
0.00103236 0.000117007 7.68962e-08
0.000117007 -1.44288e-06 -2.56991e-07
7.68962e-08 -2.56991e-07 -0.000133279
0.000990396 0.000154667 3.93801e-07
0.000154667 1.74073e-05 -1.85843e-07
3.93801e-07 -1.85843e-07 -0.000122328
0.00131308 0.000181949 2.01672e-07
0.000181949 8.25552e-05 2.94375e-08
2.01672e-07 2.94375e-08 -8.02951e-05
0.000790851 0.000124485 -3.24193e-07
0.000124485 0.000101587 3.1663e-07
-3.24193e-07 3.1663e-07 -3.27266e-05
0.00111834 0.000200903 -2.91911e-07
0.000200903 5.03331e-05 -1.3642e-07
-2.91911e-07 -1.3642e-07 -0.000122622
0.00109732 0.000209302 1.13886e-06
0.000209302 0.000186221 -1.3296e-06
1.13886e-06 -1.3296e-06 -1.117e-05
0.00118461 0.000236732 -5.97931e-07
0.000236732 9.05173e-05 7.45322e-07
-5.97931e-07 7.45322e-07 -0.000101774
0.000589256 -6.48027e-05 -5.94708e-07
-6.48027e-05 -6.26937e-06 4.96586e-06
-5.94708e-07 4.96586e-06 -3.19914e-05
0.000741263 8.42045e-05 4.317e-06
8.42045e-05 8.19752e-05 3.92322e-06
4.317e-06 3.92322e-06 -3.08213e-05
0.000682889 -1.97704e-05 7.09996e-07
-1.97704e-05 4.66934e-05 3.56824e-06
7.09996e-07 3.56824e-06 -2.13424e-05
0.000877992 8.71871e-05 9.47634e-07
8.71871e-05 0.000188129 9.56001e-07
9.47634e-07 9.56001e-07 5.13648e-05
0.00137199 0.000159043 5.71817e-06
0.000159043 8.2746e-05 9.65251e-07
5.71817e-06 9.65251e-07 -7.20875e-05
0.00122904 0.000198072 7.00332e-06
0.000198072 6.96903e-05 2.23999e-06
7.00332e-06 2.23999e-06 -9.93345e-05
0.00157412 0.000234339 1.56585e-06
0.000234339 0.000149286 4.37142e-08
1.56585e-06 4.37142e-08 -2.2987e-05
0.001024 0.000176236 2.61454e-06
0.000176236 0.000208512 4.05125e-06
2.61454e-06 4.05125e-06 2.89486e-05
0.00136148 0.000242079 1.01235e-06
0.000242079 0.000132182 7.62459e-07
1.01235e-06 7.62459e-07 -5.17296e-05
0.00134559 0.00025039 2.26554e-06
0.00025039 0.000276511 -1.65893e-06
2.26554e-06 -1.65893e-06 5.20808e-05
0.00164646 0.000272514 9.2345e-07
0.000272514 0.000288704 2.18807e-07
9.2345e-07 2.18807e-07 9.37164e-05
0.000659803 -7.44286e-06 1.98949e-06
-7.44286e-06 1.24368e-05 2.14119e-06
1.98949e-06 2.14119e-06 -3.29966e-05
0.000583972 -4.46401e-05 7.36985e-07
-4.46401e-05 -3.12579e-05 4.3079e-06
7.36985e-07 4.3079e-06 -4.83852e-05
0.0023267 -9.01003e-05 2.88949e-05
-9.01003e-05 0.00101158 3.29772e-06
2.88949e-05 3.29772e-06 0.00101822
0.00236784 -0.000101334 2.66051e-06
-0.000101334 0.00104358 -2.60281e-07
2.66051e-06 -2.60281e-07 0.0010473
0.00243144 -0.00011322 -3.57294e-05
-0.00011322 0.00108876 -2.66707e-06
-3.57294e-05 -2.66707e-06 0.00108912
0.000491124 2.33106e-05 2.92928e-06
2.33106e-05 -6.09664e-05 -6.70845e-06
2.92928e-06 -6.70845e-06 -9.65008e-05
0.00318355 0.000123855 7.06924e-05
0.000123855 0.00152824 -3.13414e-06
7.06924e-05 -3.13414e-06 0.00152481
0.000540193 1.53992e-05 -2.93028e-07
1.53992e-05 -3.15682e-05 1.55131e-07
-2.93028e-07 1.55131e-07 -7.41355e-05
0.00359266 0.000125011 -3.08758e-06
0.000125011 0.00176769 -4.22711e-07
-3.08758e-06 -4.22711e-07 0.00176367
0.00064694 8.90918e-05 -1.85079e-05
8.90918e-05 -8.1974e-05 -5.7802e-06
-1.85079e-05 -5.7802e-06 -0.000157125
0.000649987 3.13761e-05 -1.80038e-05
3.13761e-05 -9.01671e-05 -3.07991e-06
-1.80038e-05 -3.07991e-06 -0.000160422
0.00103806 7.86172e-05 -1.17733e-05
7.86172e-05 -1.26588e-05 -2.76793e-06
-1.17733e-05 -2.76793e-06 -0.00013735
0.0010451 3.76713e-05 -1.22816e-05
3.76713e-05 -1.64339e-05 -1.33941e-06
-1.22816e-05 -1.33941e-06 -0.000133878
0.000661862 -5.27836e-06 -1.85553e-05
-5.27836e-06 -8.76236e-05 -7.33008e-07
-1.85553e-05 -7.33008e-07 -0.000152645
0.00534257 -9.60587e-05 -0.000211037
-9.60587e-05 0.00276045 3.0125e-06
-0.000211037 3.0125e-06 0.00276265
0.000645799 -5.8226e-07 1.325e-07
-5.8226e-07 -9.58362e-05 -3.68916e-07
1.325e-07 -3.68916e-07 -0.000160624
0.00104681 1.85327e-05 -2.36823e-08
1.85327e-05 -1.52575e-05 -8.27642e-08
-2.36823e-08 -8.27642e-08 -0.000130285
0.00104591 5.50934e-05 -2.69327e-08
5.50934e-05 -1.32654e-05 -1.73102e-07
-2.69327e-08 -1.73102e-07 -0.000133877
0.00140334 5.01146e-05 -6.04835e-08
5.01146e-05 5.52063e-05 3.40435e-09
-6.04835e-08 3.40435e-09 -7.31194e-05
0.00104211 9.64845e-05 -4.72228e-08
9.64845e-05 -4.65958e-06 -1.8874e-07
-4.72228e-08 -1.8874e-07 -0.000132723
0.0014018 0.000106444 -3.59087e-08
0.000106444 7.08313e-05 -5.8413e-08
-3.59087e-08 -5.8413e-08 -6.93739e-05
0.00104798 -1.81754e-07 1.1943e-05
-1.81754e-07 -1.30745e-05 -2.72841e-07
1.1943e-05 -2.72841e-07 -0.000127139
0.00141253 2.88291e-05 3.27269e-06
2.88291e-05 5.97851e-05 1.2823e-07
3.27269e-06 1.2823e-07 -6.5106e-05
0.00142555 7.94069e-05 3.51201e-06
7.94069e-05 7.40735e-05 2.23317e-07
3.51201e-06 2.23317e-07 -5.95783e-05
0.00169924 7.31436e-05 -1.04556e-06
7.31436e-05 9.43783e-05 -3.9332e-07
-1.04556e-06 -3.9332e-07 -1.85249e-05
0.00141447 0.000133538 4.10875e-06
0.000133538 8.7795e-05 6.733e-07
4.10875e-06 6.733e-07 -5.90898e-05
0.00166783 0.000138694 -6.12233e-07
0.000138694 0.000106303 -9.88908e-07
-6.12233e-07 -9.88908e-07 -2.38212e-05
0.000630686 4.0702e-06 -1.76771e-05
4.0702e-06 -9.92411e-05 9.65224e-07
-1.76771e-05 9.65224e-07 -0.000166432
0.00163426 -1.99694e-05 -9.04696e-05
-1.99694e-05 0.000488118 3.47682e-06
-9.04696e-05 3.47682e-06 0.000432009
0.00073154 -1.88022e-05 -1.36008e-05
-1.88022e-05 -0.000191731 1.64702e-06
-1.36008e-05 1.64702e-06 -0.000308212
0.00201451 -9.50692e-05 -2.23208e-05
-9.50692e-05 0.000556309 3.43441e-06
-2.23208e-05 3.43441e-06 0.000443789
0.00401954 0.000120725 -0.000123588
0.000120725 0.002018 5.92993e-06
-0.000123588 5.92993e-06 0.00201263
0.00241969 -7.8798e-05 -7.52513e-05
-7.8798e-05 0.00103756 1.02329e-05
-7.52513e-05 1.02329e-05 0.000980728
0.0019529 -0.000225772 -1.70559e-05
-0.000225772 0.000675804 7.04713e-06
-1.70559e-05 7.04713e-06 0.000526677
0.00161377 -0.000134431 -2.29384e-05
-0.000134431 0.000345931 5.64064e-06
-2.29384e-05 5.64064e-06 0.000224884
0.00128969 -0.000126592 -6.38849e-06
-0.000126592 3.20416e-05 1.35425e-06
-6.38849e-06 1.35425e-06 -0.00010804
0.00174459 -0.00019225 -7.50821e-06
-0.00019225 0.000342412 1.91515e-06
-7.50821e-06 1.91515e-06 0.000190478
0.00105959 -0.000197058 -7.54448e-06
-0.000197058 -1.72278e-06 1.84855e-06
-7.54448e-06 1.84855e-06 -0.000175039
0.00145316 -0.000225694 -2.88811e-06
-0.000225694 0.000129356 -5.51398e-07
-2.88811e-06 -5.51398e-07 -4.35903e-05
0.000604455 -1.06188e-05 -7.58412e-06
-1.06188e-05 1.09112e-06 9.19784e-06
-7.58412e-06 9.19784e-06 -4.80349e-05
0.000705064 -5.13617e-05 -2.60071e-06
-5.13617e-05 5.89944e-05 3.4225e-06
-2.60071e-06 3.4225e-06 -4.51793e-05
0.000886859 -7.27751e-06 -3.84188e-07
-7.27751e-06 -0.000104733 -1.16936e-07
-3.84188e-07 -1.16936e-07 -0.000219623
0.00164324 -5.58221e-05 -5.09945e-06
-5.58221e-05 0.00033732 5.23779e-07
-5.09945e-06 5.23779e-07 0.000226337
0.0016987 -3.76853e-05 -2.32455e-06
-3.76853e-05 0.00023879 3.05489e-07
-2.32455e-06 3.05489e-07 0.000117205
0.00153834 -0.000107398 2.25757e-07
-0.000107398 0.000163871 -8.93904e-09
2.25757e-07 -8.93904e-09 2.93882e-05
0.000542964 -3.42744e-05 4.10049e-08
-3.42744e-05 -4.07612e-05 2.81e-07
4.10049e-08 2.81e-07 -9.56058e-05
0.000852274 -0.000148987 -3.75572e-07
-0.000148987 0.000103445 9.62243e-08
-3.75572e-07 9.62243e-08 -3.93481e-05
0.000988158 -0.000208161 1.62784e-06
-0.000208161 2.57415e-05 -1.40185e-06
1.62784e-06 -1.40185e-06 -0.000160881
0.00168177 -0.000168523 -2.15516e-06
-0.000168523 0.000284767 5.48316e-07
-2.15516e-06 5.48316e-07 0.000139418
0.00170017 -0.000163134 8.7509e-08
-0.000163134 0.0001669 1.41843e-07
8.7509e-08 1.41843e-07 3.31415e-05
0.00169167 -0.000268061 -2.06843e-06
-0.000268061 0.00029734 2.12224e-07
-2.06843e-06 2.12224e-07 0.000103945
0.00149831 -0.000209642 3.97792e-07
-0.000209642 0.000119416 -7.17484e-08
3.97792e-07 -7.17484e-08 -3.99001e-05
0.00174953 -0.000262238 6.32361e-07
-0.000262238 0.000230284 5.25807e-07
6.32361e-07 5.25807e-07 6.184e-05
0.000724752 -8.30304e-05 -1.87519e-07
-8.30304e-05 6.8842e-05 -1.94749e-07
-1.87519e-07 -1.94749e-07 -4.85763e-05
0.000614874 -7.63997e-05 -7.66287e-07
-7.63997e-05 8.80321e-06 -7.26232e-07
-7.66287e-07 -7.26232e-07 -0.000130697
0.000665674 -1.81214e-05 1.73003e-07
-1.81214e-05 3.97174e-05 2.19486e-07
1.73003e-07 2.19486e-07 -4.95083e-05
0.00168757 -1.50767e-05 1.81679e-06
-1.50767e-05 0.000227351 -1.4869e-07
1.81679e-06 -1.4869e-07 0.00010569
0.00169197 -6.98654e-05 2.0708e-06
-6.98654e-05 0.000236356 2.25894e-07
2.0708e-06 2.25894e-07 0.000111138
0.00164808 -5.40081e-05 -1.22937e-06
-5.40081e-05 8.67205e-05 8.45291e-07
-1.22937e-06 8.45291e-07 -2.50572e-05
0.00163339 -0.000133107 -1.7897e-06
-0.000133107 0.000101417 1.03039e-06
-1.7897e-06 1.03039e-06 -2.54826e-05
0.001516 -0.000189421 9.57872e-07
-0.000189421 9.68836e-05 1.25705e-06
9.57872e-07 1.25705e-06 -4.81678e-05
0.00174417 -0.000184602 -2.02693e-06
-0.000184602 0.000123894 1.44398e-06
-2.02693e-06 1.44398e-06 8.64414e-06
0.000676427 -0.000106137 3.78961e-06
-0.000106137 3.60016e-05 -3.84975e-06
3.78961e-06 -3.84975e-06 -9.20168e-05
0.00161906 -0.000243723 -1.36491e-06
-0.000243723 0.000116804 1.99583e-06
-1.36491e-06 1.99583e-06 -3.33161e-05
0.000985478 -0.000198539 2.18679e-06
-0.000198539 0.000131707 -4.31242e-06
2.18679e-06 -4.31242e-06 -5.06878e-05
0.00123913 -0.000257635 5.82014e-06
-0.000257635 0.000104641 -2.95857e-06
5.82014e-06 -2.95857e-06 -0.000107397
0.00183631 -0.000297786 1.23573e-06
-0.000297786 0.000327885 3.09136e-06
1.23573e-06 3.09136e-06 0.000128392
0.00190645 -0.000290277 -3.0475e-06
-0.000290277 0.000277859 3.99017e-06
-3.0475e-06 3.99017e-06 0.000119904
0.000611185 -1.15685e-05 1.08407e-06
-1.15685e-05 7.60171e-06 -3.0485e-06
1.08407e-06 -3.0485e-06 -6.99527e-05
0.000803329 -0.000125648 1.86126e-06
-0.000125648 9.71732e-05 7.53728e-07
1.86126e-06 7.53728e-07 -4.63343e-05
0.000609965 -5.61566e-05 4.92512e-07
-5.61566e-05 2.77573e-05 -1.14462e-06
4.92512e-07 -1.14462e-06 -0.000107252
0.00117672 -0.000185273 -1.11309e-06
-0.000185273 0.000327597 1.78305e-06
-1.11309e-06 1.78305e-06 0.000164145
0.00102703 0.000119299 -1.30224e-05
0.000119299 -3.48767e-06 -4.54361e-06
-1.30224e-05 -4.54361e-06 -0.000136043
0.000499158 -6.99228e-05 4.19692e-07
-6.99228e-05 -4.7553e-05 -5.29969e-06
4.19692e-07 -5.29969e-06 -7.8803e-05
0.000437087 -3.65038e-05 -1.19234e-06
-3.65038e-05 -8.3344e-05 -8.65935e-06
-1.19234e-06 -8.65935e-06 -0.000128433
0.000604638 -3.53312e-05 9.74814e-07
-3.53312e-05 1.06852e-05 -4.13081e-06
9.74814e-07 -4.13081e-06 -7.61197e-05
0.00100431 0.000157204 -1.20751e-05
0.000157204 2.64519e-05 -6.0328e-06
-1.20751e-05 -6.0328e-06 -0.000113857
0.00129633 0.00018028 -6.28461e-06
0.00018028 7.69279e-05 -1.67785e-06
-6.28461e-06 -1.67785e-06 -8.58653e-05
0.000664222 0.000105238 -3.97354e-06
0.000105238 2.98476e-05 -4.21286e-06
-3.97354e-06 -4.21286e-06 -0.000101548
0.00135174 0.000228922 -5.05666e-06
0.000228922 0.000334191 -4.64019e-06
-5.05666e-06 -4.64019e-06 0.000134371
0.00132645 0.000215013 -5.79535e-06
0.000215013 0.000172196 -1.88664e-06
-5.79535e-06 -1.88664e-06 -2.54976e-06
0.000933848 0.000219878 -3.41593e-06
0.000219878 -5.77666e-05 1.90653e-06
-3.41593e-06 1.90653e-06 -0.000247989
0.000562201 -6.08624e-05 -1.33864e-07
-6.08624e-05 -2.39705e-05 9.48491e-08
-1.33864e-07 9.48491e-08 -4.85676e-05
0.000737848 7.33698e-05 3.53082e-07
7.33698e-05 8.53284e-05 -2.06287e-07
3.53082e-07 -2.06287e-07 -2.919e-05
0.000625027 -3.53757e-05 -6.71093e-07
-3.53757e-05 1.66718e-05 6.63126e-07
-6.71093e-07 6.63126e-07 -5.1955e-05
0.000777866 5.58431e-05 9.65141e-07
5.58431e-05 0.00012748 -5.83638e-07
9.65141e-07 -5.83638e-07 -4.1087e-06
0.00135836 0.000158031 4.83772e-07
0.000158031 7.8291e-05 -1.39268e-07
4.83772e-07 -1.39268e-07 -7.66703e-05
0.00126971 0.000200828 2.18041e-07
0.000200828 9.63747e-05 3.65325e-09
2.18041e-07 3.65325e-09 -7.30588e-05
0.0015777 0.000234782 2.42104e-07
0.000234782 0.000150661 1.74267e-07
2.42104e-07 1.74267e-07 -2.19281e-05
0.000987798 0.000174635 7.66464e-07
0.000174635 0.000191099 7.3591e-07
7.66464e-07 7.3591e-07 1.28337e-05
0.00156884 0.000254734 -7.06404e-07
0.000254734 0.000256586 -4.22391e-07
-7.06404e-07 -4.22391e-07 7.17007e-05
0.00118956 0.000239486 3.72429e-07
0.000239486 0.000187715 -2.40836e-06
3.72429e-07 -2.40836e-06 -3.80063e-05
0.00148703 0.000260549 -2.3297e-06
0.000260549 0.000201595 -4.22262e-08
-2.3297e-06 -4.22262e-08 8.90915e-06
0.000577646 -5.31706e-05 6.54853e-07
-5.31706e-05 -2.61351e-05 4.42946e-06
6.54853e-07 4.42946e-06 -4.64188e-05
0.00068436 -2.27716e-05 1.29029e-06
-2.27716e-05 4.03227e-05 2.61638e-06
1.29029e-06 2.61638e-06 -1.54647e-05
0.000974037 0.000131963 2.13052e-06
0.000131963 0.00021308 2.09178e-06
2.13052e-06 2.09178e-06 6.11975e-05
0.000823821 5.36022e-05 -4.86429e-07
5.36022e-05 0.000161852 2.40383e-06
-4.86429e-07 2.40383e-06 4.70223e-05
0.00102892 0.000129761 1.3752e-07
0.000129761 0.000280307 -4.29993e-07
1.3752e-07 -4.29993e-07 0.000122354
0.00162936 0.000204266 1.38456e-06
0.000204266 0.000141044 -1.10144e-06
1.38456e-06 -1.10144e-06 -1.61612e-05
0.00145673 0.000248508 1.27167e-06
0.000248508 0.000132436 1.08181e-06
1.27167e-06 1.08181e-06 -4.94354e-05
0.0017448 0.000272986 1.05978e-07
0.000272986 0.000196983 -4.80424e-07
1.05978e-07 -4.80424e-07 2.89539e-05
0.00127171 0.000228879 3.16928e-06
0.000228879 0.000336655 4.83725e-06
3.16928e-06 4.83725e-06 0.000115895
0.00169962 0.000293206 2.53379e-06
0.000293206 0.000282189 8.11115e-07
2.53379e-06 8.11115e-07 8.78676e-05
0.000803976 0.00022177 2.96022e-06
0.00022177 -0.000114884 -1.89444e-06
2.96022e-06 -1.89444e-06 -0.000332002
0.000655323 -1.12656e-05 2.35834e-06
-1.12656e-05 1.15506e-05 2.13872e-06
2.35834e-06 2.13872e-06 -3.52814e-05
0.000704152 3.48503e-05 2.83985e-07
3.48503e-05 6.46456e-05 9.97e-07
2.83985e-07 9.97e-07 -1.14006e-05
0.00067565 2.2923e-06 1.71273e-06
2.2923e-06 2.1872e-05 2.12026e-06
1.71273e-06 2.12026e-06 -2.30254e-05
0.000654622 -2.31872e-05 -4.27103e-07
-2.31872e-05 1.12039e-05 1.58948e-08
-4.27103e-07 1.58948e-08 -3.51937e-05
0.00126125 -5.11772e-05 1.06642e-06
-5.11772e-05 0.000359824 2.5434e-06
1.06642e-06 2.5434e-06 0.000348297
0.000937859 -5.12423e-05 6.70267e-07
-5.12423e-05 0.000176101 -6.90574e-08
6.70267e-07 -6.90574e-08 0.000160718
0.000908617 -4.681e-05 2.40344e-05
-4.681e-05 0.000169527 7.08136e-06
2.40344e-05 7.08136e-06 0.000173094
0.00229061 -8.81776e-05 2.68322e-06
-8.81776e-05 0.000989483 -2.32889e-07
2.68322e-06 -2.32889e-07 0.00099657
0.00231163 -9.8756e-05 -3.22544e-05
-9.8756e-05 0.00101 -3.05256e-06
-3.22544e-05 -3.05256e-06 0.00101428
0.000507002 4.2474e-05 -3.34195e-07
4.2474e-05 -5.30376e-05 -5.81059e-06
-3.34195e-07 -5.81059e-06 -8.4418e-05
0.00290518 0.000119249 4.89e-05
0.000119249 0.00136147 -3.0885e-06
4.89e-05 -3.0885e-06 0.00135944
0.000550438 2.21239e-05 -2.6661e-07
2.21239e-05 -2.70941e-05 1.84288e-07
-2.6661e-07 1.84288e-07 -6.29926e-05
0.00329422 0.000116327 -3.96481e-06
0.000116327 0.0015903 -3.36417e-07
-3.96481e-06 -3.36417e-07 0.00158879
0.000603691 1.25648e-05 -4.46461e-06
1.25648e-05 3.59495e-06 8.16267e-06
-4.46461e-06 8.16267e-06 -3.92802e-05
0.00367948 0.000114687 -0.000107849
0.000114687 0.00181561 4.77632e-06
-0.000107849 4.77632e-06 0.00181373
0.00104211 9.93034e-05 -1.23099e-05
9.93034e-05 -4.13784e-06 -3.52459e-06
-1.23099e-05 -3.52459e-06 -0.000132867
0.00104909 5.90842e-05 -1.19947e-05
5.90842e-05 -1.08253e-05 -2.08613e-06
-1.19947e-05 -2.08613e-06 -0.000131886
0.00137928 0.000104411 -3.99675e-06
0.000104411 5.8376e-05 -6.12663e-07
-3.99675e-06 -6.12663e-07 -8.20453e-05
0.00138837 4.94786e-05 -3.65607e-06
4.94786e-05 4.74293e-05 -7.28691e-08
-3.65607e-06 -7.28691e-08 -8.09986e-05
0.00104735 2.19732e-05 -1.21641e-05
2.19732e-05 -1.45965e-05 -6.50211e-07
-1.21641e-05 -6.50211e-07 -0.000129777
0.000616558 2.27847e-05 -1.81862e-05
2.27847e-05 -0.000111883 -5.16445e-08
-1.81862e-05 -5.16445e-08 -0.000176845
0.00104342 2.11574e-06 1.55708e-08
2.11574e-06 -1.57088e-05 -1.05125e-07
1.55708e-08 -1.05125e-07 -0.000129808
0.00139904 3.05019e-05 -9.31348e-08
3.05019e-05 5.20619e-05 5.73728e-08
-9.31348e-08 5.73728e-08 -7.29877e-05
0.00140381 7.64483e-05 5.62577e-09
7.64483e-05 6.28967e-05 -7.32775e-08
5.62577e-09 -7.32775e-08 -7.07729e-05
0.00173122 7.36913e-05 -4.38757e-08
7.36913e-05 0.000108997 2.45333e-07
-4.38757e-08 2.45333e-07 -1.89395e-06
0.00138943 0.000132538 -2.00196e-07
0.000132538 7.5398e-05 -4.95461e-08
-2.00196e-07 -4.95461e-08 -7.16905e-05
0.00167324 0.000136956 -2.1642e-07
0.000136956 0.000113909 5.94281e-08
-2.1642e-07 5.94281e-08 -1.6213e-05
0.00139727 7.0447e-06 3.43277e-06
7.0447e-06 5.39762e-05 -1.81018e-08
3.43277e-06 -1.81018e-08 -6.97902e-05
0.00172371 4.28075e-05 -1.77938e-06
4.28075e-05 0.000103885 1.48067e-07
-1.77938e-06 1.48067e-07 -1.67452e-06
0.00168726 0.000111673 -9.92434e-07
0.000111673 9.52792e-05 -7.76265e-07
-9.92434e-07 -7.76265e-07 -2.53417e-05
0.00181305 7.94791e-05 -1.30171e-06
7.94791e-05 9.51658e-05 9.39841e-08
-1.30171e-06 9.39841e-08 4.07741e-06
0.00165739 0.000166194 -1.71152e-07
0.000166194 0.00013048 -1.09721e-06
-1.71152e-07 -1.09721e-06 -1.12546e-05
0.001706 0.0001606 -2.66105e-06
0.0001606 6.73263e-05 -1.17248e-06
-2.66105e-06 -1.17248e-06 -3.89131e-05
0.000731474 -4.3666e-06 -1.17695e-05
-4.3666e-06 -0.000193914 6.44967e-07
-1.17695e-05 6.44967e-07 -0.000309864
0.00167282 -5.82725e-05 -2.20302e-05
-5.82725e-05 0.00035305 2.4936e-06
-2.20302e-05 2.4936e-06 0.000242098
0.00171281 -3.13924e-05 -6.71386e-06
-3.13924e-05 0.000243522 4.0476e-07
-6.71386e-06 4.0476e-07 0.000123747
0.00171647 -0.000110828 -4.96632e-06
-0.000110828 0.000266648 8.44484e-07
-4.96632e-06 8.44484e-07 0.000132413
0.000694502 -4.68371e-05 -1.06114e-05
-4.68371e-05 4.53169e-05 1.07669e-05
-1.06114e-05 1.07669e-05 -1.19927e-05
0.000887688 -0.000160653 -6.90149e-06
-0.000160653 0.000124621 6.43679e-06
-6.90149e-06 6.43679e-06 -2.02753e-05
0.00109048 -0.000215836 -4.58161e-06
-0.000215836 8.57131e-05 1.51475e-06
-4.58161e-06 1.51475e-06 -0.000101466
0.0017332 -0.000168415 -8.14946e-06
-0.000168415 0.000313045 2.09167e-06
-8.14946e-06 2.09167e-06 0.000167515
0.0017215 -0.000164016 -1.56022e-07
-0.000164016 0.000174016 -7.08072e-07
-1.56022e-07 -7.08072e-07 4.28965e-05
0.00150804 -0.000210042 -1.99106e-06
-0.000210042 0.000124631 -5.26479e-07
-1.99106e-06 -5.26479e-07 -3.43885e-05
0.00158608 -0.000261802 -5.56091e-06
-0.000261802 0.000238653 -1.58886e-07
-5.56091e-06 -1.58886e-07 4.47997e-05
0.00171234 -0.000261492 2.52961e-06
-0.000261492 0.000204809 -2.66682e-06
2.52961e-06 -2.66682e-06 3.62342e-05
0.000726266 -8.98748e-05 -3.97157e-06
-8.98748e-05 6.71156e-05 3.60365e-06
-3.97157e-06 3.60365e-06 -4.99115e-05
0.000481557 -6.79467e-05 -1.96095e-06
-6.79467e-05 -6.6678e-05 -6.43821e-07
-1.96095e-06 -6.43821e-07 -0.000205996
0.000701817 -2.53915e-05 -1.26558e-06
-2.53915e-05 5.94607e-05 3.65599e-06
-1.26558e-06 3.65599e-06 -3.06943e-05
0.00154955 -1.30365e-05 -2.37709e-06
-1.30365e-05 0.000146155 1.41188e-07
-2.37709e-06 1.41188e-07 2.34328e-05
0.00170202 -7.692e-05 -2.32815e-06
-7.692e-05 0.000242122 3.98425e-07
-2.32815e-06 3.98425e-07 0.000116316
0.00165914 -5.0502e-05 5.2834e-07
-5.0502e-05 9.23292e-05 4.14368e-07
5.2834e-07 4.14368e-07 -1.58429e-05
0.00165815 -0.000130533 -1.3215e-06
-0.000130533 0.00011319 3.39976e-07
-1.3215e-06 3.39976e-07 -1.39246e-05
0.000758555 -0.000122053 3.83306e-07
-0.000122053 8.31806e-05 2.53061e-07
3.83306e-07 2.53061e-07 -4.70977e-05
0.0010727 -0.000206521 -1.12147e-06
-0.000206521 0.000176954 1.4549e-07
-1.12147e-06 1.4549e-07 -6.15374e-06
0.00111629 -0.000244409 1.47632e-06
-0.000244409 3.90985e-05 -9.84135e-07
1.47632e-06 -9.84135e-07 -0.000169744
0.00155919 -0.000191012 -4.65821e-07
-0.000191012 0.000122823 3.92621e-07
-4.65821e-07 3.92621e-07 -2.4367e-05
0.00178043 -0.000185089 1.39234e-06
-0.000185089 0.000147798 1.7585e-07
1.39234e-06 1.7585e-07 3.65401e-05
0.00172948 -0.000295522 -8.2722e-07
-0.000295522 0.000264767 6.75584e-07
-8.2722e-07 6.75584e-07 6.27959e-05
0.00164911 -0.00024409 1.32866e-07
-0.00024409 0.000134492 2.87422e-07
1.32866e-07 2.87422e-07 -1.52471e-05
0.00195147 -0.000290722 1.49248e-06
-0.000290722 0.000305176 -4.56961e-07
1.49248e-06 -4.56961e-07 0.000149803
0.000951628 -0.000147916 3.03689e-07
-0.000147916 0.000186805 3.94985e-07
3.03689e-07 3.94985e-07 3.82918e-05
0.0010756 -0.000183389 -2.47677e-07
-0.000183389 0.000274672 2.00468e-07
-2.47677e-07 2.00468e-07 0.000109011
0.000653323 -1.81291e-05 1.14239e-07
-1.81291e-05 3.15489e-05 1.93391e-07
1.14239e-07 1.93391e-07 -4.67096e-05
0.000462788 -2.51076e-05 -2.259e-07
-2.51076e-05 -6.47208e-05 -6.47724e-07
-2.259e-07 -6.47724e-07 -0.000191934
0.00168297 -3.01466e-05 -1.11211e-06
-3.01466e-05 0.000100608 -2.34674e-08
-1.11211e-06 -2.34674e-08 -7.43014e-06
0.00183926 -8.87419e-05 -7.10437e-07
-8.87419e-05 0.000197384 1.1123e-06
-7.10437e-07 1.1123e-06 8.25608e-05
0.00162749 -6.35213e-05 5.38029e-07
-6.35213e-05 5.58539e-06 7.31366e-08
5.38029e-07 7.31366e-08 -8.69284e-05
0.00176106 -0.000159186 -3.7402e-06
-0.000159186 9.80664e-05 1.04102e-06
-3.7402e-06 1.04102e-06 1.26355e-06
0.00169785 -0.000216014 -3.23913e-06
-0.000216014 0.000126512 2.83397e-06
-3.23913e-06 2.83397e-06 -1.96877e-06
0.00186102 -0.000185124 1.34688e-06
-0.000185124 0.000166826 -1.04052e-07
1.34688e-06 -1.04052e-07 7.23675e-05
0.000863172 -0.000172693 1.39059e-06
-0.000172693 0.000115322 -1.65006e-06
1.39059e-06 -1.65006e-06 -4.5558e-05
0.00161425 -0.00026049 -4.1146e-06
-0.00026049 7.5316e-05 3.06045e-06
-4.1146e-06 3.06045e-06 -5.3981e-05
0.000660239 -0.000199147 1.22262e-06
-0.000199147 -0.000100097 -5.32326e-06
1.22262e-06 -5.32326e-06 -0.000303312
0.00173602 -0.000324217 3.51603e-06
-0.000324217 0.000344511 -2.16267e-07
3.51603e-06 -2.16267e-07 0.000110849
0.00169508 -0.00030956 4.24306e-07
-0.00030956 0.000201488 5.54134e-06
4.24306e-07 5.54134e-06 1.11365e-06
0.0019114 -0.000283724 -8.55466e-08
-0.000283724 0.000264415 1.4358e-06
-8.55466e-08 1.4358e-06 0.000115368
0.000601735 -1.88752e-05 1.39936e-06
-1.88752e-05 4.64445e-07 -2.90157e-06
1.39936e-06 -2.90157e-06 -6.8679e-05
0.000564839 -2.39693e-05 -3.60851e-07
-2.39693e-05 5.17814e-06 -1.84681e-06
-3.60851e-07 -1.84681e-06 -0.000116294
0.000874832 -0.000183687 -3.21479e-08
-0.000183687 0.000129492 1.52873e-06
-3.21479e-08 1.52873e-06 -3.27182e-05
0.000814998 -0.000129155 1.28041e-06
-0.000129155 0.000154633 1.18643e-06
1.28041e-06 1.18643e-06 -4.70361e-06
0.00132938 -0.000224233 -1.96367e-06
-0.000224233 0.000410332 3.63838e-06
-1.96367e-06 3.63838e-06 0.000241723
0.000543673 -5.73479e-05 -9.41372e-07
-5.73479e-05 -3.63227e-05 -4.52245e-06
-9.41372e-07 -4.52245e-06 -6.00017e-05
0.00134522 0.000156968 -4.75276e-06
0.000156968 7.44798e-05 -1.24962e-06
-4.75276e-06 -1.24962e-06 -8.05979e-05
0.000549517 -5.16171e-05 -1.55402e-07
-5.16171e-05 -2.25084e-05 -2.85412e-06
-1.55402e-07 -2.85412e-06 -9.25556e-05
0.00073113 5.20333e-05 -1.45093e-06
5.20333e-05 7.81179e-05 -4.06674e-06
-1.45093e-06 -4.06674e-06 -3.17777e-05
0.000672344 2.36285e-05 1.56936e-06
2.36285e-05 6.24376e-05 -1.95926e-06
1.56936e-06 -1.95926e-06 -6.32471e-05
0.00130376 0.000203494 -6.59218e-06
0.000203494 0.000118659 -2.18031e-06
-6.59218e-06 -2.18031e-06 -5.12534e-05
0.0015876 0.000235607 -3.22298e-07
0.000235607 0.000155691 4.65932e-07
-3.22298e-07 4.65932e-07 -1.72466e-05
0.00105416 0.000186535 -2.11121e-06
0.000186535 0.000233694 -3.10699e-06
-2.11121e-06 -3.10699e-06 5.38244e-05
0.00106138 0.000231875 -2.6627e-06
0.000231875 0.000113601 -2.44064e-06
-2.6627e-06 -2.44064e-06 -0.000113843
0.00174917 0.0002658 -3.59345e-06
0.0002658 0.000365192 -1.58325e-06
-3.59345e-06 -1.58325e-06 0.000179425
0.00130098 0.000246872 -6.28113e-06
0.000246872 9.94065e-05 -2.38271e-07
-6.28113e-06 -2.38271e-07 -9.08236e-05
0.000575293 -5.10263e-05 5.46138e-08
-5.10263e-05 -2.85414e-05 1.07905e-09
5.46138e-08 1.07905e-09 -4.83472e-05
0.000642009 -3.12263e-05 -6.14911e-07
-3.12263e-05 1.7685e-05 2.77808e-07
-6.14911e-07 2.77808e-07 -3.85868e-05
0.000926614 0.000129378 2.94346e-07
0.000129378 0.000184971 5.26338e-07
2.94346e-07 5.26338e-07 3.43258e-05
0.000714684 3.2969e-06 -4.64323e-07
3.2969e-06 9.35326e-05 3.98133e-07
-4.64323e-07 3.98133e-07 -1.48334e-05
0.000690638 9.01411e-05 8.11614e-07
9.01411e-05 7.72791e-05 -4.76614e-07
8.11614e-07 -4.76614e-07 -7.37145e-05
0.00162411 0.000205357 2.55005e-07
0.000205357 0.000135585 -5.52133e-07
2.55005e-07 -5.52133e-07 -2.21555e-05
0.00147971 0.000249193 7.36084e-07
0.000249193 0.000147068 5.66272e-07
7.36084e-07 5.66272e-07 -3.49642e-05
0.00167596 0.000270847 1.59865e-06
0.000270847 0.000157612 2.4233e-07
1.59865e-06 2.4233e-07 -1.09575e-05
0.00115235 0.000218814 1.08924e-06
0.000218814 0.000275047 1.54565e-06
1.08924e-06 1.54565e-06 5.31261e-05
0.00175116 0.000298009 2.53652e-07
0.000298009 0.000304993 2.67989e-08
2.53652e-07 2.67989e-08 0.000110254
0.00108609 0.00024346 -2.14269e-06
0.00024346 4.07449e-05 -1.35379e-07
-2.14269e-06 -1.35379e-07 -0.000178109
0.000686693 -1.76634e-05 2.2016e-06
-1.76634e-05 3.36552e-05 2.26715e-06
2.2016e-06 2.26715e-06 -1.6058e-05
0.000777261 3.39137e-05 6.45067e-07
3.39137e-05 0.000118012 2.2235e-06
6.45067e-07 2.2235e-06 2.68176e-05
0.000977757 0.000190336 -1.32501e-06
0.000190336 0.000210626 5.71419e-08
-1.32501e-06 5.71419e-08 3.11878e-05
0.00103593 4.647e-05 7.76768e-08
4.647e-05 0.000282158 1.04075e-06
7.76768e-08 1.04075e-06 0.000150083
0.00127169 0.000111762 -3.96469e-06
0.000111762 0.00038204 -4.39992e-06
-3.96469e-06 -4.39992e-06 0.000228441
0.00168837 0.000217265 -2.67685e-06
0.000217265 0.000131922 -2.6845e-06
-2.67685e-06 -2.6845e-06 -1.13395e-05
0.00166994 0.000302081 1.8153e-06
0.000302081 0.000203107 1.40375e-07
1.8153e-06 1.40375e-07 1.51373e-05
0.00150952 0.000290453 2.70269e-06
0.000290453 2.95287e-05 -1.10702e-06
2.70269e-06 -1.10702e-06 -0.000135282
0.00100568 0.000220657 2.49969e-08
0.000220657 0.00015995 2.55611e-06
2.49969e-08 2.55611e-06 -7.96566e-05
0.00143736 0.000296055 5.96696e-06
0.000296055 0.00014622 -2.49041e-07
5.96696e-06 -2.49041e-07 -6.67819e-05
0.000657381 -1.97704e-05 -1.77147e-07
-1.97704e-05 1.33958e-05 6.77593e-09
-1.77147e-07 6.77593e-09 -3.37296e-05
0.000574418 1.28029e-05 1.49634e-06
1.28029e-05 -1.98762e-05 1.40129e-06
1.49634e-06 1.40129e-06 -9.21446e-05
0.000591201 -1.33284e-06 -5.77559e-07
-1.33284e-06 -5.2379e-06 -7.76788e-08
-5.77559e-07 -7.76788e-08 -7.80975e-05
0.000923574 7.11419e-05 6.64059e-07
7.11419e-05 0.000200806 -2.53825e-07
6.64059e-07 -2.53825e-07 0.000110596
0.000709426 5.39716e-05 1.79263e-06
5.39716e-05 6.75282e-05 1.23195e-06
1.79263e-06 1.23195e-06 -7.12453e-06
0.00065897 1.47434e-05 1.6845e-06
1.47434e-05 1.50564e-05 2.16675e-06
1.6845e-06 2.16675e-06 -3.03759e-05
0.000657756 -1.71635e-05 -6.27883e-07
-1.71635e-05 1.31576e-05 2.61472e-08
-6.27883e-07 2.61472e-08 -3.25565e-05
0.00125761 -3.98485e-05 7.74165e-07
-3.98485e-05 0.000352651 2.45338e-06
7.74165e-07 2.45338e-06 0.000342944
0.000654948 -3.18004e-05 -8.9689e-07
-3.18004e-05 1.20965e-05 -2.17429e-06
-8.9689e-07 -2.17429e-06 -3.45854e-05
0.00129195 -4.79905e-05 -5.08246e-06
-4.79905e-05 0.000377299 -1.34275e-06
-5.08246e-06 -1.34275e-06 0.000366252
0.000877737 -3.7756e-05 2.2422e-05
-3.7756e-05 0.000142883 7.26784e-06
2.2422e-05 7.26784e-06 0.0001492
0.00130238 -5.54825e-05 -9.59075e-06
-5.54825e-05 0.00039005 -3.70959e-06
-9.59075e-06 -3.70959e-06 0.000376841
0.00155761 -6.10932e-05 2.04281e-05
-6.10932e-05 0.000550798 1.93379e-06
2.04281e-05 1.93379e-06 0.000557575
0.00225796 -8.62246e-05 -2.85607e-05
-8.62246e-05 0.000969306 -3.51125e-06
-2.85607e-05 -3.51125e-06 0.000976847
0.000517636 5.3887e-05 -5.75848e-07
5.3887e-05 -5.17602e-05 -4.90403e-06
-5.75848e-07 -4.90403e-06 -7.85649e-05
0.000543118 3.36601e-05 1.21537e-07
3.36601e-05 -3.39832e-05 2.05756e-07
1.21537e-07 2.05756e-07 -6.44626e-05
0.00266817 0.000105369 3.75233e-05
0.000105369 0.00121733 -3.38105e-06
3.75233e-05 -3.38105e-06 0.00121884
0.00300232 0.000109875 -5.84927e-06
0.000109875 0.00141625 -3.12034e-07
-5.84927e-06 -3.12034e-07 0.00141662
0.000613492 2.05944e-05 -3.49361e-06
2.05944e-05 8.86591e-06 6.96166e-06
-3.49361e-06 6.96166e-06 -2.74231e-05
0.0033833 0.000106085 -9.40579e-05
0.000106085 0.00163958 4.23711e-06
-9.40579e-05 4.23711e-06 0.00164041
0.00136745 0.000131812 -4.57951e-06
0.000131812 6.45448e-05 -7.95665e-07
-4.57951e-06 -7.95665e-07 -8.27741e-05
0.00137779 7.64951e-05 -3.80107e-06
7.64951e-05 4.93508e-05 -3.58045e-07
-3.80107e-06 -3.58045e-07 -8.46584e-05
0.00167261 0.000136261 1.3451e-07
0.000136261 0.000118117 1.07495e-06
1.3451e-07 1.07495e-06 -1.21372e-05
0.00176098 7.42286e-05 8.93997e-07
7.42286e-05 0.000122246 6.46998e-07
8.93997e-07 6.46998e-07 1.33769e-05
0.00138859 3.36238e-05 -3.28363e-06
3.36238e-05 4.58801e-05 2.02171e-08
-3.28363e-06 2.02171e-08 -7.93691e-05
0.00104856 6.76903e-06 -1.18724e-05
6.76903e-06 -1.30328e-05 -4.10989e-08
-1.18724e-05 -4.10989e-08 -0.000127095
0.00139502 1.04615e-05 6.75981e-08
1.04615e-05 5.24127e-05 -8.92769e-09
6.75981e-08 -8.92769e-09 -7.14586e-05
0.0017309 3.28855e-05 -1.10123e-06
3.28855e-05 0.000109181 -3.51857e-08
-1.10123e-06 -3.51857e-08 3.96587e-06
0.00170198 0.00011046 -1.29597e-07
0.00011046 0.000104905 7.15753e-08
-1.29597e-07 7.15753e-08 -1.55383e-05
0.00180343 7.90825e-05 1.55736e-06
7.90825e-05 8.84874e-05 1.01215e-06
1.55736e-06 1.01215e-06 1.36734e-06
0.00164425 0.000166956 -2.51035e-07
0.000166956 0.000120584 -7.37749e-08
-2.51035e-07 -7.37749e-08 -2.17217e-05
0.0017229 0.000158005 -3.35911e-07
0.000158005 7.42004e-05 9.533e-07
-3.35911e-07 9.533e-07 -2.93785e-05
0.00171431 -3.60111e-08 -1.07758e-06
-3.60111e-08 0.000111885 4.96771e-08
-1.07758e-06 4.96771e-08 7.18098e-06
0.00168069 4.10051e-05 -1.04519e-07
4.10051e-05 3.19953e-05 7.68231e-07
-1.04519e-07 7.68231e-07 -5.37104e-05
0.00184567 0.000124279 -3.66337e-06
0.000124279 0.000120959 -1.00355e-06
-3.66337e-06 -1.00355e-06 2.98667e-05
0.00186893 8.42876e-05 2.1368e-06
8.42876e-05 0.000110789 1.38675e-07
2.1368e-06 1.38675e-07 4.20907e-05
0.00166235 0.000171555 -1.50755e-06
0.000171555 7.80588e-05 -2.66347e-06
-1.50755e-06 -2.66347e-06 -4.19879e-05
0.0018478 0.000169154 2.03015e-06
0.000169154 0.000108018 8.73193e-08
2.03015e-06 8.73193e-08 2.15188e-05
0.00140799 -1.14168e-05 -5.29521e-06
-1.14168e-05 6.26667e-05 2.518e-07
-5.29521e-06 2.518e-07 -6.11232e-05
0.00171945 -8.09015e-05 -6.83519e-06
-8.09015e-05 0.000252039 6.33583e-07
-6.83519e-06 6.33583e-07 0.000125849
0.00166102 -4.82428e-05 1.40306e-06
-4.82428e-05 9.24932e-05 -7.19554e-07
1.40306e-06 -7.19554e-07 -1.2174e-05
0.00167707 -0.000128286 -4.83517e-07
-0.000128286 0.000121556 -2.25382e-07
-4.83517e-07 -2.25382e-07 -5.83018e-06
0.000887541 -0.000142918 -4.95055e-06
-0.000142918 0.000157664 5.22447e-06
-4.95055e-06 5.22447e-06 2.44954e-05
0.00120128 -0.000217692 -3.98822e-06
-0.000217692 0.000246395 4.1691e-06
-3.98822e-06 4.1691e-06 6.20432e-05
0.000902689 -0.000223957 -2.86329e-06
-0.000223957 -8.00577e-05 5.21666e-07
-2.86329e-06 5.21666e-07 -0.000285124
0.00160501 -0.000192733 -1.62441e-06
-0.000192733 0.000150192 7.38833e-08
-1.62441e-06 7.38833e-08 8.43061e-07
0.00181149 -0.000185234 3.36102e-06
-0.000185234 0.000168802 -1.92877e-06
3.36102e-06 -1.92877e-06 6.15734e-05
0.00167976 -0.000244469 2.00658e-06
-0.000244469 0.000152728 -1.45224e-06
2.00658e-06 -1.45224e-06 3.37236e-06
0.00161454 -0.000294027 -1.11062e-06
-0.000294027 0.000196769 -1.69588e-06
-1.11062e-06 -1.69588e-06 -7.97033e-06
0.00199492 -0.000290775 4.73639e-06
-0.000290775 0.000332105 -6.38798e-06
4.73639e-06 -6.38798e-06 0.000179399
0.000902681 -0.0001479 -1.17789e-06
-0.0001479 0.000160093 4.10703e-07
-1.17789e-06 4.10703e-07 1.1583e-05
0.000735885 -0.000136459 -7.34762e-07
-0.000136459 7.09898e-05 -1.19282e-06
-7.34762e-07 -1.19282e-06 -8.38875e-05
0.00071707 -2.29425e-05 -1.50701e-06
-2.29425e-05 6.70427e-05 3.19726e-06
-1.50701e-06 3.19726e-06 -1.15046e-05
0.000437779 -5.16395e-06 3.39052e-07
-5.16395e-06 -8.16141e-05 -3.78664e-07
3.39052e-07 -3.78664e-07 -0.000204116
0.00167623 -2.99354e-05 -1.90484e-08
-2.99354e-05 9.73444e-05 3.19824e-08
-1.90484e-08 3.19824e-08 -1.08074e-05
0.00176225 -8.79586e-05 -7.75305e-08
-8.79586e-05 0.000153338 -2.08894e-07
-7.75305e-08 -2.08894e-07 3.66395e-05
0.00169883 -6.34817e-05 1.55736e-06
-6.34817e-05 4.68579e-05 -4.028e-07
1.55736e-06 -4.028e-07 -4.30445e-05
0.00170291 -0.000155852 -1.37379e-06
-0.000155852 7.24762e-05 5.98051e-07
-1.37379e-06 5.98051e-07 -2.62719e-05
0.000966016 -0.000172671 -4.16664e-07
-0.000172671 0.000173521 9.95373e-07
-4.16664e-07 9.95373e-07 1.29062e-05
0.000819325 -0.000209435 1.37925e-06
-0.000209435 -8.16017e-06 -2.10425e-06
1.37925e-06 -2.10425e-06 -0.000210441
0.00162001 -0.000315653 -1.17313e-07
-0.000315653 0.000274604 7.2453e-07
-1.17313e-07 7.2453e-07 4.00313e-05
0.00164681 -0.000213289 -1.44935e-06
-0.000213289 0.000101948 6.90653e-07
-1.44935e-06 6.90653e-07 -2.98031e-05
0.00175457 -0.000183717 2.08312e-06
-0.000183717 0.000101003 -1.09016e-06
2.08312e-06 -1.09016e-06 1.00456e-05
0.00168686 -0.000310466 -7.58429e-07
-0.000310466 0.000198542 9.604e-07
-7.58429e-07 9.604e-07 -2.79066e-06
0.00166845 -0.000262916 -3.84971e-07
-0.000262916 0.000107214 1.00803e-06
-3.84971e-07 1.00803e-06 -2.23379e-05
0.0018053 -0.000278456 3.11665e-06
-0.000278456 0.000193571 -4.69448e-06
3.11665e-06 -4.69448e-06 4.84489e-05
0.00100139 -0.000195042 3.29751e-07
-0.000195042 0.000200949 1.07739e-06
3.29751e-07 1.07739e-06 3.67195e-05
0.00118841 -0.000205056 2.28185e-06
-0.000205056 0.00032147 9.39099e-07
2.28185e-06 9.39099e-07 0.000160084
0.000823701 -9.99194e-05 -3.35006e-07
-9.99194e-05 0.000155596 8.7185e-08
-3.35006e-07 8.7185e-08 -2.01694e-06
0.000507994 1.11339e-06 -1.00806e-06
1.11339e-06 -5.39988e-05 2.39764e-07
-1.00806e-06 2.39764e-07 -0.000124564
0.000470675 5.47401e-06 -2.33803e-07
5.47401e-06 -5.19514e-05 -7.32057e-07
-2.33803e-07 -7.32057e-07 -0.000168891
0.00178526 -4.07301e-05 2.14131e-07
-4.07301e-05 9.39868e-05 -5.23533e-07
2.14131e-07 -5.23533e-07 9.37366e-06
0.00179803 -9.17391e-05 8.75591e-07
-9.17391e-05 9.42072e-05 4.33101e-07
8.75591e-07 4.33101e-07 9.4474e-06
0.00182561 -0.000181825 -5.53883e-07
-0.000181825 0.000109431 -7.9263e-07
-5.53883e-07 -7.9263e-07 2.99748e-05
0.00156615 -0.000211879 -8.37633e-07
-0.000211879 1.24459e-05 7.44668e-07
-8.37633e-07 7.44668e-07 -8.95715e-05
0.0010194 -0.000205499 -1.14876e-06
-0.000205499 0.000194192 -2.19062e-06
-1.14876e-06 -2.19062e-06 1.2015e-05
0.00217203 -0.000309388 -2.67746e-06
-0.000309388 0.000343091 1.37277e-06
-2.67746e-06 1.37277e-06 0.000218497
0.000535779 -0.000210045 1.79035e-06
-0.000210045 -0.000207553 -5.86654e-06
1.79035e-06 -5.86654e-06 -0.000427661
0.00174629 -0.00035553 3.64447e-06
-0.00035553 0.000298727 1.75421e-06
3.64447e-06 1.75421e-06 4.9285e-05
0.00154491 -0.000303879 1.71881e-06
-0.000303879 8.19289e-05 4.20888e-06
1.71881e-06 4.20888e-06 -0.000111764
0.000313936 1.46045e-05 7.38569e-07
1.46045e-05 -0.000167042 -3.51595e-06
7.38569e-07 -3.51595e-06 -0.000229738
0.000770174 -2.75917e-05 8.95432e-07
-2.75917e-05 0.000128562 -1.20703e-06
8.95432e-07 -1.20703e-06 1.91378e-05
0.000960277 -6.26762e-05 -6.05261e-07
-6.26762e-05 0.000229627 -2.6276e-07
-6.05261e-07 -2.6276e-07 9.19618e-05
0.00110723 -0.000211205 -3.88678e-06
-0.000211205 0.000246645 1.65007e-06
-3.88678e-06 1.65007e-06 8.08372e-05
0.000640119 -0.000118836 2.97461e-06
-0.000118836 4.09156e-05 2.84687e-06
2.97461e-06 2.84687e-06 -0.000131053
0.000553609 -0.000169777 2.17101e-07
-0.000169777 -7.73406e-05 9.78436e-07
2.17101e-07 9.78436e-07 -0.000233065
0.000575568 -4.9602e-05 -1.11046e-06
-4.9602e-05 -2.90175e-05 -4.33678e-06
-1.11046e-06 -4.33678e-06 -4.85236e-05
0.000603141 -3.41758e-05 -1.8834e-06
-3.41758e-05 -4.06687e-06 -2.19668e-06
-1.8834e-06 -2.19668e-06 -6.02552e-05
0.00161941 0.000206588 -9.49642e-07
0.000206588 0.000129963 -2.85532e-10
-9.49642e-07 -2.85532e-10 -2.83446e-05
0.000607028 -6.3994e-05 1.46397e-06
-6.3994e-05 3.0122e-05 -2.0839e-06
1.46397e-06 -2.0839e-06 -7.41248e-05
0.000776979 0.000115979 -9.56385e-07
0.000115979 9.76564e-05 -4.79678e-07
-9.56385e-07 -4.79678e-07 -4.89689e-05
0.000358093 5.45468e-05 1.41711e-06
5.45468e-05 -0.000121824 3.57069e-07
1.41711e-06 3.57069e-07 -0.000266254
0.00152718 0.000251322 -1.00913e-06
0.000251322 0.000176392 -2.77233e-07
-1.00913e-06 -2.77233e-07 -5.91096e-06
0.00160227 0.000268119 6.72599e-07
0.000268119 0.000116289 5.70586e-07
6.72599e-07 5.70586e-07 -5.27214e-05
0.000965538 0.000202746 1.98866e-07
0.000202746 0.000175931 -1.60195e-06
1.98866e-07 -1.60195e-06 -4.68287e-05
0.0013454 0.000262701 -1.95775e-06
0.000262701 0.000182745 -5.49842e-07
-1.95775e-06 -5.49842e-07 -3.56348e-05
0.00176304 0.000300201 -4.06499e-06
0.000300201 0.000305885 -9.08737e-07
-4.06499e-06 -9.08737e-07 0.000111018
0.00065587 -1.85256e-05 -2.58097e-07
-1.85256e-05 1.64587e-05 8.79849e-08
-2.58097e-07 8.79849e-08 -3.32862e-05
0.000713001 -1.49131e-05 -9.23814e-07
-1.49131e-05 7.94034e-05 3.4626e-07
-9.23814e-07 3.4626e-07 -8.75621e-06
0.000998148 0.000192047 -7.35535e-07
0.000192047 0.000224526 -2.10032e-08
-7.35535e-07 -2.10032e-08 4.43949e-05
0.000797276 1.12051e-05 2.63846e-07
1.12051e-05 0.000141265 -1.06198e-07
2.63846e-07 -1.06198e-07 1.52445e-05
0.000940951 0.000125111 6.70888e-07
0.000125111 0.000207116 4.69878e-07
6.70888e-07 4.69878e-07 4.6491e-05
0.0016806 0.000219696 -1.76683e-06
0.000219696 0.000126784 -1.28546e-06
-1.76683e-06 -1.28546e-06 -1.76296e-05
0.00164295 0.000299457 1.31394e-06
0.000299457 0.000184351 3.13071e-07
1.31394e-06 3.13071e-07 -3.59028e-06
0.00164859 0.000295011 5.11419e-07
0.000295011 0.000109865 2.27224e-07
5.11419e-07 2.27224e-07 -5.40618e-05
0.000768193 0.000204667 7.71209e-08
0.000204667 1.65467e-05 3.19138e-06
7.71209e-08 3.19138e-06 -0.000219371
0.00159512 0.000309129 -1.56639e-06
0.000309129 0.000242362 -5.83979e-07
-1.56639e-06 -5.83979e-07 2.53746e-05
0.000775717 2.61265e-05 9.34646e-07
2.61265e-05 0.000105504 1.61233e-06
9.34646e-07 1.61233e-06 2.67423e-05
0.000553034 -1.61424e-05 -1.21406e-06
-1.61424e-05 -7.09252e-06 2.68831e-06
-1.21406e-06 2.68831e-06 -0.000111182
0.00101876 0.000204778 -2.79389e-06
0.000204778 0.000206072 -9.82611e-07
-2.79389e-06 -9.82611e-07 1.22134e-05
0.000806321 8.00677e-05 -3.14397e-06
8.00677e-05 0.000165374 -2.56266e-06
-3.14397e-06 -2.56266e-06 7.19682e-06
0.000862657 0.000182056 -8.47322e-07
0.000182056 0.000136271 -1.98718e-06
-8.47322e-07 -1.98718e-06 -3.04945e-05
0.00157212 0.000234159 6.01875e-08
0.000234159 -9.15461e-06 -2.47693e-06
6.01875e-08 -2.47693e-06 -0.000129283
0.00185896 0.000342369 2.66065e-06
0.000342369 0.000281485 -1.84082e-06
2.66065e-06 -1.84082e-06 8.32805e-05
0.00150731 0.000301975 2.89595e-06
0.000301975 1.71665e-05 2.578e-07
2.89595e-06 2.578e-07 -0.000148527
0.00176685 0.000299098 4.18854e-06
0.000299098 0.000513084 7.14993e-06
4.18854e-06 7.14993e-06 0.000257681
0.00166498 0.000334256 -4.8512e-07
0.000334256 0.000262713 -1.06189e-06
-4.8512e-07 -1.06189e-06 3.72154e-05
0.000645952 -2.75841e-05 -1.405e-06
-2.75841e-05 8.3855e-06 -2.22526e-06
-1.405e-06 -2.22526e-06 -3.96022e-05
0.000645433 1.67523e-05 7.68397e-07
1.67523e-05 2.32135e-05 3.71551e-07
7.68397e-07 3.71551e-07 -4.97658e-05
0.000575311 -8.7906e-06 -1.6114e-07
-8.7906e-06 -1.13784e-05 7.89013e-07
-1.6114e-07 7.89013e-07 -9.33808e-05
0.000492901 -3.44358e-05 -7.66202e-07
-3.44358e-05 -6.4056e-05 -1.13999e-06
-7.66202e-07 -1.13999e-06 -0.000135738
0.000691166 2.40934e-05 -1.7393e-07
2.40934e-05 5.56274e-05 3.51145e-08
-1.7393e-07 3.51145e-08 -1.75733e-05
0.000715461 3.00285e-05 -1.61945e-07
3.00285e-05 7.11566e-05 -3.5788e-07
-1.61945e-07 -3.5788e-07 -1.18331e-05
0.000835605 5.86889e-05 -7.13182e-07
5.86889e-05 0.000149998 -1.02675e-06
-7.13182e-07 -1.02675e-06 5.72826e-05
0.000584278 -2.12651e-05 7.16837e-07
-2.12651e-05 5.61857e-06 4.82811e-07
7.16837e-07 4.82811e-07 -8.55519e-05
0.000712993 4.33016e-05 8.07543e-07
4.33016e-05 6.49164e-05 1.27533e-06
8.07543e-07 1.27533e-06 -5.35944e-06
0.00066234 2.13348e-05 1.65067e-06
2.13348e-05 2.06845e-05 2.18552e-06
1.65067e-06 2.18552e-06 -2.5599e-05
0.000661254 -5.35261e-06 -8.08858e-07
-5.35261e-06 1.67185e-05 1.65149e-08
-8.08858e-07 1.65149e-08 -2.88805e-05
0.00126342 -2.854e-05 8.32407e-07
-2.854e-05 0.000352983 2.39558e-06
8.32407e-07 2.39558e-06 0.000344246
0.000642984 -3.67756e-05 -4.92773e-07
-3.67756e-05 6.1205e-06 -2.14079e-06
-4.92773e-07 -2.14079e-06 -4.03508e-05
0.00129581 -3.69203e-05 -4.36354e-06
-3.69203e-05 0.000374759 -1.40826e-06
-4.36354e-06 -1.40826e-06 0.000365283
0.000886497 -3.11017e-05 1.86612e-05
-3.11017e-05 0.000142174 7.58273e-06
1.86612e-05 7.58273e-06 0.000149774
0.00132241 -4.57186e-05 -8.30401e-06
-4.57186e-05 0.000394665 -5.27625e-06
-8.30401e-06 -5.27625e-06 0.000383837
0.000825815 -3.87391e-05 6.99899e-06
-3.87391e-05 0.000112313 2.83247e-06
6.99899e-06 2.83247e-06 0.000118131
0.00218952 -8.1011e-05 -5.29349e-06
-8.1011e-05 0.000921548 -1.82096e-06
-5.29349e-06 -1.82096e-06 0.0009304
0.000549518 4.2055e-05 3.09407e-08
4.2055e-05 -4.37158e-05 -4.03401e-06
3.09407e-08 -4.03401e-06 -6.35454e-05
0.000543882 4.79089e-05 -3.06734e-08
4.79089e-05 -3.7056e-05 1.04522e-07
-3.06734e-08 1.04522e-07 -6.36088e-05
0.00248374 9.18034e-05 2.85231e-05
9.18034e-05 0.00110311 -3.66693e-06
2.85231e-05 -3.66693e-06 0.00110809
0.000588261 2.60031e-05 -2.85197e-06
2.60031e-05 -9.01518e-06 5.85901e-06
-2.85197e-06 5.85901e-06 -3.89443e-05
0.00275692 0.000105941 -5.71816e-06
0.000105941 0.00126868 -3.75159e-07
-5.71816e-06 -3.75159e-07 0.00127018
0.0030934 0.000100122 -7.73567e-05
0.000100122 0.00146721 3.65762e-06
-7.73567e-05 3.65762e-06 0.0014699
0.0016291 0.000167529 -1.32623e-06
0.000167529 0.000109822 7.30233e-07
-1.32623e-06 7.30233e-07 -3.3033e-05
0.00172152 0.000108393 1.13262e-06
0.000108393 0.000117135 1.00066e-06
1.13262e-06 1.00066e-06 -3.01727e-06
0.00173547 0.000155383 2.32391e-06
0.000155383 7.85469e-05 2.33699e-06
2.32391e-06 2.33699e-06 -2.23578e-05
0.00179118 7.85487e-05 3.09165e-06
7.85487e-05 7.99591e-05 7.25482e-07
3.09165e-06 7.25482e-07 -3.16849e-06
0.00173789 2.54376e-05 -6.86526e-07
2.54376e-05 0.000114674 1.1807e-07
-6.86526e-07 1.1807e-07 9.75133e-06
0.00139163 1.31858e-05 -3.14445e-06
1.31858e-05 5.02491e-05 2.42365e-08
-3.14445e-06 2.42365e-08 -7.36721e-05
0.00169352 2.31788e-06 -1.00008e-06
2.31788e-06 9.97127e-05 -3.34814e-08
-1.00008e-06 -3.34814e-08 -6.59142e-06
0.00173143 3.73977e-05 1.11958e-06
3.73977e-05 6.38962e-05 -1.23403e-08
1.11958e-06 -1.23403e-08 -2.3718e-05
0.00181677 0.000122664 -1.341e-06
0.000122664 0.000104548 -4.21838e-07
-1.341e-06 -4.21838e-07 1.21341e-05
0.00179036 8.23964e-05 2.35018e-06
8.23964e-05 6.50377e-05 4.71846e-07
2.35018e-06 4.71846e-07 -1.24833e-07
0.00167782 0.000170278 -7.30138e-07
0.000170278 9.34542e-05 -2.29868e-07
-7.30138e-07 -2.29868e-07 -2.65665e-05
0.00179944 0.000170762 3.44411e-06
0.000170762 7.89522e-05 1.25309e-06
3.44411e-06 1.25309e-06 -4.34953e-06
0.00173052 -5.5783e-06 -9.81683e-07
-5.5783e-06 7.96359e-05 -6.09675e-08
-9.81683e-07 -6.09675e-08 -7.47598e-06
0.00175495 4.23535e-05 2.41162e-06
4.23535e-05 4.09014e-05 5.12591e-07
2.41162e-06 5.12591e-07 -1.82023e-05
0.00184607 0.000124235 1.73573e-06
0.000124235 8.40233e-05 -3.94751e-07
1.73573e-06 -3.94751e-07 1.51783e-05
0.00185393 0.000208235 2.79448e-07
0.000208235 0.000121045 -1.31768e-06
2.79448e-07 -1.31768e-06 2.92912e-05
0.00166847 -2.97157e-05 5.10167e-07
-2.97157e-05 9.38517e-05 1.14972e-07
5.10167e-07 1.14972e-07 -1.441e-05
0.00168203 -8.90425e-05 1.19138e-06
-8.90425e-05 0.000107652 -1.13424e-06
1.19138e-06 -1.13424e-06 -1.10454e-05
0.00178097 -6.37942e-05 3.35957e-06
-6.37942e-05 9.47383e-05 -8.25468e-07
3.35957e-06 -8.25468e-07 7.41829e-06
0.00164816 -0.000152379 5.60563e-08
-0.000152379 4.83519e-05 -1.89582e-07
5.60563e-08 -1.89582e-07 -5.22805e-05
0.00112468 -0.00018591 -1.51375e-06
-0.00018591 0.000265633 3.40769e-06
-1.51375e-06 3.40769e-06 0.000101989
0.000952311 -0.000218126 2.1596e-08
-0.000218126 6.96919e-05 1.81128e-06
2.1596e-08 1.81128e-06 -0.000131044
0.00155572 -0.000310763 -3.56831e-06
-0.000310763 0.000235677 1.31372e-06
-3.56831e-06 1.31372e-06 -5.33471e-07
0.001595 -0.000210597 2.88679e-07
-0.000210597 7.72643e-05 -6.79803e-07
2.88679e-07 -6.79803e-07 -5.77629e-05
0.00166116 -0.000182968 3.67852e-06
-0.000182968 4.28382e-05 -2.42459e-06
3.67852e-06 -2.42459e-06 -4.47284e-05
0.00172348 -0.000265459 3.11292e-06
-0.000265459 0.000138864 -9.3881e-07
3.11292e-06 -9.3881e-07 9.03448e-06
0.00168696 -0.000311936 -1.58581e-06
-0.000311936 0.00019982 -3.25514e-06
-1.58581e-06 -3.25514e-06 -2.50619e-06
0.00169912 -0.000273241 2.34623e-06
-0.000273241 0.000123737 -1.0694e-05
2.34623e-06 -1.0694e-05 -1.75124e-05
0.00119837 -0.000212502 1.41059e-06
-0.000212502 0.000314635 5.74339e-07
1.41059e-06 5.74339e-07 0.000147105
0.00104163 -0.000192744 1.87674e-06
-0.000192744 0.000228579 -3.15771e-06
1.87674e-06 -3.15771e-06 7.19752e-05
0.000753138 -7.95545e-05 5.42021e-07
-7.95545e-05 0.000111142 -9.47383e-07
5.42021e-07 -9.47383e-07 -4.53519e-05
0.000399905 1.36237e-05 -1.52083e-06
1.36237e-05 -0.000115938 2.78816e-06
-1.52083e-06 2.78816e-06 -0.000188389
0.000445785 3.19342e-05 7.58941e-07
3.19342e-05 -6.79074e-05 4.10667e-07
7.58941e-07 4.10667e-07 -0.000181692
0.00183862 -4.47825e-05 3.55767e-07
-4.47825e-05 0.000126934 -1.20883e-07
3.55767e-07 -1.20883e-07 4.20075e-05
0.00182922 -9.57797e-05 9.76666e-07
-9.57797e-05 0.000110515 -5.79142e-07
9.76666e-07 -5.79142e-07 2.45757e-05
0.00178672 -0.000177111 -1.84165e-06
-0.000177111 9.02065e-05 1.61779e-07
-1.84165e-06 1.61779e-07 9.28014e-06
0.00109783 -0.000210888 -4.30602e-07
-0.000210888 0.000236863 1.04492e-06
-4.30602e-07 1.04492e-06 5.3921e-05
0.00107072 -0.000250378 1.74092e-06
-0.000250378 9.37096e-05 -2.95849e-06
1.74092e-06 -2.95849e-06 -0.000128637
0.00165451 -0.000351026 -2.12325e-07
-0.000351026 0.00025026 8.47585e-07
-2.12325e-07 8.47585e-07 -2.22066e-06
0.00159882 -0.00021297 3.50276e-07
-0.00021297 2.71126e-05 -2.7128e-07
3.50276e-07 -2.7128e-07 -7.53102e-05
0.00164248 -0.000306102 8.4721e-07
-0.000306102 0.000139463 -2.50606e-06
8.4721e-07 -2.50606e-06 -4.84696e-05
0.00183542 -0.000290362 -5.04403e-07
-0.000290362 0.00016084 -1.07829e-06
-5.04403e-07 -1.07829e-06 3.62153e-05
0.000346651 2.6343e-05 3.81386e-08
2.6343e-05 -0.000151004 -8.20432e-07
3.81386e-08 -8.20432e-07 -0.000211099
0.00114252 -0.000212959 -2.34119e-07
-0.000212959 0.000260058 9.05762e-07
-2.34119e-07 9.05762e-07 9.47624e-05
0.000667363 -0.000176683 -4.43081e-07
-0.000176683 -2.48128e-06 3.17983e-07
-4.43081e-07 3.17983e-07 -0.000153214
0.000939664 -0.000143792 -5.19898e-07
-0.000143792 0.000216632 2.76237e-07
-5.19898e-07 2.76237e-07 3.80932e-05
0.00102976 -6.31265e-05 -2.23744e-08
-6.31265e-05 0.000270286 -2.96365e-07
-2.23744e-08 -2.96365e-07 0.000133042
0.00064675 4.97052e-06 -3.70708e-07
4.97052e-06 5.16866e-05 3.85535e-07
-3.70708e-07 3.85535e-07 -5.52288e-05
0.00153415 -4.92911e-05 -1.68924e-07
-4.92911e-05 -7.42772e-05 1.49504e-07
-1.68924e-07 1.49504e-07 -0.000146747
0.0019765 -0.000135006 1.68649e-06
-0.000135006 0.000132083 -2.20934e-07
1.68649e-06 -2.20934e-07 7.16009e-05
0.00156276 -0.000202721 8.09818e-07
-0.000202721 -5.28259e-05 -5.32297e-07
8.09818e-07 -5.32297e-07 -0.000129935
0.0019779 -0.000268211 -1.0529e-06
-0.000268211 0.000166368 -1.06958e-06
-1.0529e-06 -1.06958e-06 7.00141e-05
0.00113531 -0.000228541 -2.7836e-06
-0.000228541 0.000227543 -2.27376e-06
-2.7836e-06 -2.27376e-06 3.52366e-05
0.001824 -0.000323762 2.01893e-06
-0.000323762 0.000174666 4.41867e-06
2.01893e-06 4.41867e-06 1.96029e-05
0.00125115 -0.000306185 -9.58509e-08
-0.000306185 0.000132164 -2.47953e-06
-9.58509e-08 -2.47953e-06 -0.00013622
0.0016375 -0.000364161 -1.9653e-07
-0.000364161 0.000225843 3.66201e-06
-1.9653e-07 3.66201e-06 -3.77391e-05
0.000334662 4.59701e-05 -1.29594e-06
4.59701e-05 -0.000162647 -2.59952e-06
-1.29594e-06 -2.59952e-06 -0.000214288
0.000769496 -5.10827e-06 4.96473e-07
-5.10827e-06 0.000119947 -1.13648e-06
4.96473e-07 -1.13648e-06 2.58489e-05
0.000972456 -8.89401e-05 -7.92777e-07
-8.89401e-05 0.00024292 9.92529e-07
-7.92777e-07 9.92529e-07 0.000117033
0.000889118 -2.06221e-05 -1.41998e-06
-2.06221e-05 0.000191474 1.05865e-06
-1.41998e-06 1.05865e-06 2.60329e-05
0.000725906 -0.000194711 -1.68629e-06
-0.000194711 -4.42216e-06 -8.75965e-07
-1.68629e-06 -8.75965e-07 -0.000167827
0.000949344 -0.000199853 -4.94744e-06
-0.000199853 0.000168525 2.06884e-06
-4.94744e-06 2.06884e-06 -1.00157e-05
0.000629466 -2.68029e-05 -2.07085e-06
-2.68029e-05 2.00554e-06 -2.1506e-06
-2.07085e-06 -2.1506e-06 -4.79393e-05
0.00063082 -5.29891e-05 9.9652e-08
-5.29891e-05 2.93546e-05 -1.46418e-06
9.9652e-08 -1.46418e-06 -5.53555e-05
0.00167501 0.00022245 -1.7243e-06
0.00022245 0.000122146 -5.1593e-08
-1.7243e-06 -5.1593e-08 -2.34796e-05
0.000500861 -2.35564e-05 7.57955e-07
-2.35564e-05 -3.29342e-05 -1.16416e-06
7.57955e-07 -1.16416e-06 -0.000152994
0.000991251 0.000191243 9.96176e-07
0.000191243 0.000221788 -1.09873e-06
9.96176e-07 -1.09873e-06 4.19905e-05
0.000303266 6.7469e-05 2.05217e-06
6.7469e-05 -0.000166705 1.08387e-06
2.05217e-06 1.08387e-06 -0.000316188
0.00163691 0.000298342 -3.07585e-07
0.000298342 0.000176721 3.3919e-07
-3.07585e-07 3.3919e-07 -1.13548e-05
0.0018086 0.000300993 -1.74105e-06
0.000300993 0.000200285 1.23467e-06
-1.74105e-06 1.23467e-06 3.70144e-05
0.000682162 0.000200636 -1.5991e-06
0.000200636 -3.96744e-05 8.65216e-07
-1.5991e-06 8.65216e-07 -0.000273446
0.00176959 0.00032288 -2.55786e-06
0.00032288 0.0003489 9.38194e-07
-2.55786e-06 9.38194e-07 0.00012694
0.000704837 2.13019e-06 -7.69682e-07
2.13019e-06 6.22035e-05 1.70719e-07
-7.69682e-07 1.70719e-07 -1.40147e-05
0.000645785 4.6647e-06 3.93001e-07
4.6647e-06 4.58968e-05 1.19676e-06
3.93001e-07 1.19676e-06 -5.96757e-05
0.00120049 0.000220312 -5.36577e-07
0.000220312 0.000320592 -2.66035e-06
-5.36577e-07 -2.66035e-06 0.000122022
0.00057681 1.23743e-05 -6.54512e-07
1.23743e-05 1.32287e-05 -2.42755e-07
-6.54512e-07 -2.42755e-07 -0.000128496
0.000674453 0.000149666 -1.57975e-06
0.000149666 2.17191e-05 -6.51302e-07
-1.57975e-06 -6.51302e-07 -0.000128009
0.00184886 0.000244752 -2.55053e-06
0.000244752 0.000148893 -1.30867e-06
-2.55053e-06 -1.30867e-06 3.08484e-05
0.00192211 0.000342703 1.39371e-06
0.000342703 0.000319909 -2.38584e-07
1.39371e-06 -2.38584e-07 0.000123427
0.0016652 0.000318426 1.38257e-06
0.000318426 0.000100174 1.87447e-06
1.38257e-06 1.87447e-06 -6.76737e-05
0.0013719 0.000269546 3.06712e-06
0.000269546 0.000297481 4.26037e-06
3.06712e-06 4.26037e-06 3.78528e-05
0.00158917 0.000332325 -2.99145e-06
0.000332325 0.000217549 5.27161e-07
-2.99145e-06 5.27161e-07 -1.04784e-05
0.000445224 -2.56935e-05 -4.45911e-07
-2.56935e-05 -7.66766e-05 2.24592e-06
-4.45911e-07 2.24592e-06 -0.000164662
0.000359342 7.09878e-05 -3.77126e-08
7.09878e-05 -9.3891e-05 1.20758e-06
-3.77126e-08 1.20758e-06 -0.000228596
0.00125126 0.000232656 1.76116e-06
0.000232656 0.000310659 3.26113e-06
1.76116e-06 3.26113e-06 9.5768e-05
-0.000460453 5.4269e-05 2.96962e-06
5.4269e-05 -0.00059962 -1.14573e-07
2.96962e-06 -1.14573e-07 -0.000757291
0.00188004 0.000254646 -2.86103e-06
0.000254646 3.37303e-05 -8.86461e-07
-2.86103e-06 -8.86461e-07 -4.14725e-05
0.00210328 0.000302585 5.21857e-07
0.000302585 0.000288685 -6.56793e-08
5.21857e-07 -6.56793e-08 0.000154153
0.00178199 0.000371548 -1.87681e-06
0.000371548 0.000227055 -3.2031e-06
-1.87681e-06 -3.2031e-06 1.50284e-05
-5.2418e-06 0.000181385 -4.77416e-07
0.000181385 -0.00055309 1.52663e-06
-4.77416e-07 1.52663e-06 -0.00081108
0.00070429 4.16651e-05 -8.96135e-07
4.16651e-05 6.23361e-05 -5.58054e-07
-8.96135e-07 -5.58054e-07 -1.35489e-05
0.000652625 2.09441e-05 -1.16715e-07
2.09441e-05 3.89299e-05 4.34906e-07
-1.16715e-07 4.34906e-07 -4.66349e-05
0.000885956 7.34905e-06 -1.17827e-06
7.34905e-06 0.000175444 -9.37175e-07
-1.17827e-06 -9.37175e-07 9.0213e-05
0.000676494 -9.7255e-06 -1.38072e-06
-9.7255e-06 4.09633e-05 -1.12862e-06
-1.38072e-06 -1.12862e-06 -2.74991e-05
0.000512909 -1.62477e-05 -2.13378e-07
-1.62477e-05 -4.38263e-05 -7.88351e-07
-2.13378e-07 -7.88351e-07 -0.000127189
0.000698156 1.45078e-05 2.31799e-08
1.45078e-05 5.80993e-05 -4.78233e-09
2.31799e-08 -4.78233e-09 -1.32244e-05
0.000682313 5.81479e-05 -5.11552e-07
5.81479e-05 7.00845e-05 -3.48751e-07
-5.11552e-07 -3.48751e-07 -2.68115e-05
0.00065402 9.82537e-06 6.06869e-07
9.82537e-06 4.84614e-05 3.84335e-07
6.06869e-07 3.84335e-07 -4.40173e-05
0.000764225 2.87214e-05 8.8076e-07
2.87214e-05 0.000106495 -1.95299e-07
8.8076e-07 -1.95299e-07 1.57862e-05
0.00073495 -2.9771e-05 1.07441e-06
-2.9771e-05 9.49438e-05 -5.19577e-07
1.07441e-06 -5.19577e-07 -3.99061e-06
0.000572243 3.37376e-05 5.82266e-07
3.37376e-05 -2.10156e-06 1.22586e-06
5.82266e-07 1.22586e-06 -9.51401e-05
0.000684911 5.56796e-05 1.07527e-06
5.56796e-05 5.2902e-05 1.61045e-06
1.07527e-06 1.61045e-06 -2.06028e-05
0.000627755 3.17196e-05 1.16239e-06
3.17196e-05 5.74801e-06 2.039e-06
1.16239e-06 2.039e-06 -4.2329e-05
0.000640308 -4.47266e-06 -6.95703e-07
-4.47266e-06 8.66009e-06 1.62651e-08
-6.95703e-07 1.62651e-08 -3.81418e-05
0.00127185 -1.78585e-05 6.49688e-07
-1.78585e-05 0.000356386 2.33499e-06
6.49688e-07 2.33499e-06 0.000348042
0.000641153 -3.3294e-05 -2.29179e-07
-3.3294e-05 6.2409e-06 -2.18223e-06
-2.29179e-07 -2.18223e-06 -4.0084e-05
0.00130236 -2.58545e-05 -3.63641e-06
-2.58545e-05 0.000375853 -1.47503e-06
-3.63641e-06 -1.47503e-06 0.000367168
0.000890366 -2.37292e-05 1.55883e-05
-2.37292e-05 0.000140004 7.89205e-06
1.55883e-05 7.89205e-06 0.000148508
0.00133028 -3.47446e-05 -6.88869e-06
-3.47446e-05 0.000394835 -5.29507e-06
-6.88869e-06 -5.29507e-06 0.000385394
0.000833549 -3.15022e-05 5.66925e-06
-3.15022e-05 0.000110646 2.94122e-06
5.66925e-06 2.94122e-06 0.00011806
0.000770612 -3.79182e-05 -1.56608e-06
-3.79182e-05 7.97534e-05 -2.03662e-06
-1.56608e-06 -2.03662e-06 8.55894e-05
0.000568079 3.51377e-05 4.29441e-07
3.51377e-05 -4.28965e-05 -3.5564e-06
4.29441e-07 -3.5564e-06 -5.74403e-05
0.000564364 4.59187e-05 -7.07523e-08
4.59187e-05 -3.41218e-05 1.08832e-07
-7.07523e-08 1.08832e-07 -5.47755e-05
0.00229317 7.67323e-05 2.274e-05
7.67323e-05 0.000984002 -3.84021e-06
2.274e-05 -3.84021e-06 0.000992966
0.000570655 3.92923e-05 -1.82052e-06
3.92923e-05 -2.28861e-05 5.11167e-06
-1.82052e-06 5.11167e-06 -4.8558e-05
0.00254981 9.30312e-05 -5.09373e-06
9.30312e-05 0.00114184 -3.39516e-07
-5.09373e-06 -3.39516e-07 0.00114655
0.00283261 9.67512e-05 -5.76157e-05
9.67512e-05 0.00131125 3.32275e-06
-5.76157e-05 3.32275e-06 0.00131503
0.00169167 0.000169019 8.21978e-07
0.000169019 0.00010795 2.28259e-06
8.21978e-07 2.28259e-06 -1.20565e-05
0.00179074 0.000120965 1.97401e-07
0.000120965 8.99889e-05 5.04615e-07
1.97401e-07 5.04615e-07 -3.74645e-06
0.00175578 0.000172388 3.87465e-06
0.000172388 5.27272e-05 1.94102e-06
3.87465e-06 1.94102e-06 -2.73975e-05
0.00172003 8.07907e-05 2.305e-06
8.07907e-05 2.44441e-05 9.87205e-07
2.305e-06 9.87205e-07 -3.71938e-05
0.00178659 3.4587e-05 2.85036e-06
3.4587e-05 9.84819e-05 -9.12169e-08
2.85036e-06 -9.12169e-08 8.91746e-06
0.00167799 1.1308e-06 -7.58809e-07
1.1308e-06 9.02084e-05 -2.92578e-08
-7.58809e-07 -2.92578e-08 -1.76256e-05
0.0017785 -2.15181e-06 -2.30516e-07
-2.15181e-06 0.000107918 -2.19486e-08
-2.30516e-07 -2.19486e-08 2.132e-05
0.00173482 4.1885e-05 1.93889e-06
4.1885e-05 4.01947e-05 -2.16901e-07
1.93889e-06 -2.16901e-07 -2.09438e-05
0.00182464 0.000128027 3.26264e-07
0.000128027 6.97782e-05 -4.86197e-07
3.26264e-07 -4.86197e-07 8.90243e-07
0.00191397 0.000205724 2.29837e-07
0.000205724 0.000143415 2.41368e-07
2.29837e-07 2.41368e-07 5.35841e-05
0.0016619 -5.39374e-06 -1.19169e-06
-5.39374e-06 4.78058e-06 -9.07517e-08
-1.19169e-06 -9.07517e-08 -6.02141e-05
0.00194832 8.70021e-05 3.12508e-06
8.70021e-05 8.52373e-05 2.11332e-07
3.12508e-06 2.11332e-07 4.54061e-05
0.00182069 0.000186978 1.69742e-06
0.000186978 1.67836e-05 -4.17403e-07
1.69742e-06 -4.17403e-07 -5.21567e-05
0.00189187 -4.8732e-05 1.80056e-06
-4.8732e-05 0.000159695 2.82551e-07
1.80056e-06 2.82551e-07 7.44596e-05
0.00185577 -9.95354e-05 6.9767e-07
-9.95354e-05 0.000124312 -7.69019e-07
6.9767e-07 -7.69019e-07 3.7201e-05
0.00174629 -0.000171827 -1.08079e-06
-0.000171827 7.09299e-05 1.71041e-07
-1.08079e-06 1.71041e-07 -1.15039e-05
0.00117843 -0.000216443 1.50809e-08
-0.000216443 0.000280621 4.23024e-06
1.50809e-08 4.23024e-06 9.69116e-05
0.00167535 -0.000296241 -1.73574e-06
-0.000296241 0.000433667 1.85598e-06
-1.73574e-06 1.85598e-06 0.000208869
0.00157125 -0.000347927 -3.41012e-06
-0.000347927 0.000206102 -1.78673e-07
-3.41012e-06 -1.78673e-07 -4.84986e-05
0.00162771 -0.000213861 5.44902e-07
-0.000213861 3.98806e-05 -6.72823e-07
5.44902e-07 -6.72823e-07 -6.28848e-05
0.00150242 -0.000273759 -2.21613e-07
-0.000273759 -2.21951e-05 -3.10675e-06
-2.21613e-07 -3.10675e-06 -0.000147306
0.00172304 -0.000308037 -2.10325e-06
-0.000308037 0.000185159 -8.38136e-06
-2.10325e-06 -8.38136e-06 2.85316e-06
0.00116541 -0.000213791 2.08853e-06
-0.000213791 0.000266528 1.20416e-06
2.08853e-06 1.20416e-06 0.00010184
0.000695147 -0.000175727 -6.75323e-06
-0.000175727 2.33515e-05 -4.9009e-07
-6.75323e-06 -4.9009e-07 -0.000121215
0.00133393 -0.000173556 8.39853e-08
-0.000173556 0.000453816 -4.46556e-08
8.39853e-08 -4.46556e-08 0.000263706
0.000392753 1.8543e-05 -1.75593e-08
1.8543e-05 -0.000124663 1.19853e-06
-1.75593e-08 1.19853e-06 -0.000183887
0.000920436 -6.15885e-05 8.46659e-07
-6.15885e-05 0.000203365 4.0559e-07
8.46659e-07 4.0559e-07 7.08073e-05
0.000529328 3.40648e-05 1.54123e-06
3.40648e-05 -2.26301e-05 1.74412e-06
1.54123e-06 1.74412e-06 -0.00012667
0.00170978 -5.03075e-05 -7.49256e-07
-5.03075e-05 2.44837e-05 1.14805e-07
-7.49256e-07 1.14805e-07 -4.75849e-05
0.00195666 -0.000138745 1.51526e-07
-0.000138745 0.00012309 -7.69627e-08
1.51526e-07 -7.69627e-08 5.97599e-05
0.00166852 -0.000204486 -1.74257e-07
-0.000204486 9.04531e-06 4.70639e-07
-1.74257e-07 4.70639e-07 -6.82645e-05
0.00117656 -0.000229494 -2.24615e-07
-0.000229494 0.000247684 1.66227e-06
-2.24615e-07 1.66227e-06 5.54889e-05
0.00109088 -0.000288583 -1.46569e-06
-0.000288583 4.74058e-05 3.51871e-08
-1.46569e-06 3.51871e-08 -0.000210975
0.00167402 -0.000364203 -3.30595e-06
-0.000364203 0.000248082 -1.21236e-09
-3.30595e-06 -1.21236e-09 -8.83927e-06
0.0019403 -0.000272066 1.03077e-06
-0.000272066 0.000147071 -5.6669e-07
1.03077e-06 -5.6669e-07 4.88508e-05
0.00169261 -0.00031908 1.11447e-06
-0.00031908 9.30306e-05 -2.07158e-06
1.11447e-06 -2.07158e-06 -6.21705e-05
0.000490478 3.5549e-05 -2.01222e-08
3.5549e-05 -7.42864e-05 -8.49856e-07
-2.01222e-08 -8.49856e-07 -0.00012257
0.000777089 -7.55212e-06 -5.17329e-07
-7.55212e-06 0.00012352 3.04028e-07
-5.17329e-07 3.04028e-07 2.98907e-05
0.00037302 -0.000163194 -2.86245e-06
-0.000163194 -0.000203722 2.51872e-06
-2.86245e-06 2.51872e-06 -0.00035992
0.00137047 -0.000221132 1.24847e-07
-0.000221132 0.000422032 -2.43363e-07
1.24847e-07 -2.43363e-07 0.00024525
0.000932838 -5.40851e-05 -1.42312e-07
-5.40851e-05 0.000222914 -2.9496e-07
-1.42312e-07 -2.9496e-07 5.75958e-05
0.000855008 -6.41389e-05 -4.27601e-07
-6.41389e-05 0.000174818 1.31005e-06
-4.27601e-07 1.31005e-06 4.87093e-05
0.00191833 -7.67604e-05 2.96631e-06
-7.67604e-05 7.49001e-05 1.56554e-07
2.96631e-06 1.56554e-07 2.91489e-05
0.00189075 -0.000194657 6.45331e-07
-0.000194657 3.91076e-05 -1.18698e-06
6.45331e-07 -1.18698e-06 1.67476e-06
0.0018367 -0.000227171 4.79062e-07
-0.000227171 6.20248e-05 -8.76689e-07
4.79062e-07 -8.76689e-07 -6.43149e-06
0.00199619 -0.000362959 5.69907e-06
-0.000362959 0.000149294 -1.17836e-06
5.69907e-06 -1.17836e-06 2.67658e-05
0.000146423 -0.000167803 -3.65454e-06
-0.000167803 -0.000368478 -3.46179e-06
-3.65454e-06 -3.46179e-06 -0.000570355
0.00168562 -0.000372086 -1.01411e-06
-0.000372086 0.000220221 1.12289e-05
-1.01411e-06 1.12289e-05 -1.84969e-05
0.00232109 -0.000425068 1.35178e-06
-0.000425068 0.000707199 -3.69371e-06
1.35178e-06 -3.69371e-06 0.000402535
0.000655977 3.60115e-05 4.00917e-07
3.60115e-05 1.46193e-05 -1.64174e-06
4.00917e-07 -1.64174e-06 -2.64998e-05
0.000708005 -9.36727e-05 2.27268e-06
-9.36727e-05 7.96e-05 -1.92865e-06
2.27268e-06 -1.92865e-06 2.2831e-06
0.000489147 3.15851e-05 -1.02785e-06
3.15851e-05 -4.67219e-05 -1.65028e-06
-1.02785e-06 -1.65028e-06 -0.000131135
0.000754168 -3.91317e-05 1.34792e-07
-3.91317e-05 0.000126862 1.34474e-06
1.34792e-07 1.34474e-06 8.93362e-06
0.000632948 -1.24405e-05 1.34817e-06
-1.24405e-05 4.0068e-05 -1.51938e-06
1.34817e-06 -1.51938e-06 -9.10501e-05
0.000185202 -9.94311e-05 8.73777e-07
-9.94311e-05 -0.000194038 8.40411e-07
8.73777e-07 8.40411e-07 -0.000357207
0.000157285 -0.000157096 -8.29061e-07
-0.000157096 -0.000369885 -1.66211e-06
-8.29061e-07 -1.66211e-06 -0.000517651
0.0025158 -0.000320021 -9.08542e-06
-0.000320021 0.00113504 2.55191e-06
-9.08542e-06 2.55191e-06 0.000888874
0.000669476 -1.82213e-05 -1.09497e-06
-1.82213e-05 3.71923e-05 -9.32677e-07
-1.09497e-06 -9.32677e-07 -3.48722e-05
0.00082492 1.05061e-05 2.94543e-07
1.05061e-05 0.000152079 -8.44376e-07
2.94543e-07 -8.44376e-07 4.3076e-05
0.00212589 0.000254468 -1.16675e-06
0.000254468 0.000308664 1.60813e-07
-1.16675e-06 1.60813e-07 0.000192864
0.000726535 4.60372e-05 -6.99669e-07
4.60372e-05 0.000107789 1.09839e-06
-6.99669e-07 1.09839e-06 -4.27301e-05
0.00140206 0.000238383 1.0312e-06
0.000238383 0.000448873 -3.03375e-06
1.0312e-06 -3.03375e-06 0.0002432
0.000459256 0.000116097 1.29848e-07
0.000116097 -0.00010509 8.847e-07
1.29848e-07 8.847e-07 -0.000238671
0.00194473 0.000339433 -1.84091e-06
0.000339433 0.000336455 3.98378e-07
-1.84091e-06 3.98378e-07 0.000142339
0.00180717 0.000333701 -1.66427e-06
0.000333701 0.000174138 3.77913e-06
-1.66427e-06 3.77913e-06 4.43122e-06
0.000951268 0.000239585 -4.10652e-07
0.000239585 6.54831e-05 -5.44854e-07
-4.10652e-07 -5.44854e-07 -0.000198108
0.00150171 0.000329941 -2.85706e-06
0.000329941 0.00016354 2.94887e-06
-2.85706e-06 2.94887e-06 -6.64018e-05
0.00049749 -2.65187e-06 -6.49614e-08
-2.65187e-06 -3.90791e-05 1.0002e-06
-6.49614e-08 1.0002e-06 -0.000133277
0.000426825 7.91017e-05 -6.10307e-07
7.91017e-05 -5.52848e-05 -1.89643e-06
-6.10307e-07 -1.89643e-06 -0.000192443
0.00120651 0.000230628 2.11381e-06
0.000230628 0.000296741 -2.23979e-06
2.11381e-06 -2.23979e-06 7.73214e-05
0.000614255 0.000132647 -1.22154e-06
0.000132647 1.25121e-05 -2.651e-06
-1.22154e-06 -2.651e-06 -0.000152126
0.00197016 0.000252332 8.84624e-07
0.000252332 8.16344e-05 -1.12376e-06
8.84624e-07 -1.12376e-06 9.04084e-06
0.00200959 0.000304739 2.83285e-06
0.000304739 0.000240258 7.68719e-07
2.83285e-06 7.68719e-07 0.000101174
0.00178798 0.000365415 -1.29468e-06
0.000365415 0.000224818 -6.69368e-08
-1.29468e-06 -6.69368e-08 1.546e-05
0.000992256 0.000266947 5.60298e-07
0.000266947 -8.46258e-06 1.38559e-06
5.60298e-07 1.38559e-06 -0.000270439
0.000575338 2.1922e-05 -4.42103e-07
2.1922e-05 -9.7981e-07 2.36511e-06
-4.42103e-07 2.36511e-06 -9.52949e-05
0.00198674 0.000200588 -2.21621e-06
0.000200588 6.88615e-05 1.19743e-06
-2.21621e-06 1.19743e-06 2.49329e-05
0.00149778 0.000223338 6.12363e-07
0.000223338 0.000568468 3.45832e-06
6.12363e-07 3.45832e-06 0.00038446
0.00111508 0.000232018 2.91204e-06
0.000232018 0.000220784 4.44707e-06
2.91204e-06 4.44707e-06 1.88644e-07
0.00234513 0.000299769 -1.4876e-05
0.000299769 0.000329916 -2.81486e-06
-1.4876e-05 -2.81486e-06 0.000240303
0.00111369 0.000338071 -3.00912e-06
0.000338071 -0.000217939 -5.74853e-06
-3.00912e-06 -5.74853e-06 -0.000409432
0.00171172 0.000353689 -2.67414e-06
0.000353689 0.000316802 -4.63848e-07
-2.67414e-06 -4.63848e-07 5.54758e-05
0.000733023 3.30842e-05 -1.37616e-06
3.30842e-05 8.58905e-05 -2.9084e-07
-1.37616e-06 -2.9084e-07 7.25731e-07
0.000753314 2.37675e-05 -8.05409e-07
2.37675e-05 0.000102658 -3.05031e-07
-8.05409e-07 -3.05031e-07 1.53282e-05
0.000884521 1.01662e-05 -5.78931e-07
1.01662e-05 0.000189864 5.75962e-07
-5.78931e-07 5.75962e-07 0.000100617
0.000665674 -1.24038e-05 -2.47427e-07
-1.24038e-05 4.11249e-05 -1.61197e-06
-2.47427e-07 -1.61197e-06 -3.15899e-05
0.000699456 3.13163e-05 5.53014e-07
3.13163e-05 7.63168e-05 -8.33447e-09
5.53014e-07 -8.33447e-09 -1.66521e-05
0.000463527 1.48498e-07 -7.79986e-07
1.48498e-07 -4.70113e-05 3.46688e-07
-7.79986e-07 3.46688e-07 -0.000146858
0.000673648 -2.58047e-06 -3.92129e-07
-2.58047e-06 5.18107e-05 -3.49352e-08
-3.92129e-07 -3.49352e-08 -2.56566e-05
0.000560364 -2.49416e-05 -6.43576e-07
-2.49416e-05 -2.37026e-06 3.69441e-07
-6.43576e-07 3.69441e-07 -9.89167e-05
0.000618528 -1.71343e-05 6.39132e-07
-1.71343e-05 2.53157e-05 -1.71235e-07
6.39132e-07 -1.71235e-07 -6.46121e-05
0.000796335 2.57755e-05 3.7637e-07
2.57755e-05 0.000139955 3.58371e-08
3.7637e-07 3.58371e-08 3.43543e-05
0.000945806 1.6275e-05 4.41043e-07
1.6275e-05 0.000194648 -1.0401e-06
4.41043e-07 -1.0401e-06 0.000109665
0.000744133 -3.85543e-05 1.24408e-06
-3.85543e-05 9.25514e-05 -6.14052e-07
1.24408e-06 -6.14052e-07 -9.98822e-07
0.000781191 2.38248e-05 3.29565e-07
2.38248e-05 0.000127692 3.55056e-07
3.29565e-07 3.55056e-07 1.94658e-05
0.000667715 2.73758e-05 1.93521e-06
2.73758e-05 6.08389e-05 1.36126e-06
1.93521e-06 1.36126e-06 -4.29147e-05
0.000696993 1.69129e-05 1.27428e-06
1.69129e-05 5.92097e-05 1.70148e-06
1.27428e-06 1.70148e-06 -1.64552e-05
0.000623881 -1.66525e-05 -1.5642e-07
-1.66525e-05 3.60358e-06 1.88878e-06
-1.5642e-07 1.88878e-06 -4.40067e-05
0.000636183 -9.52154e-06 -2.70995e-07
-9.52154e-06 9.05677e-06 4.6558e-08
-2.70995e-07 4.6558e-08 -3.79279e-05
0.00127612 -7.55872e-06 5.30351e-07
-7.55872e-06 0.000358729 2.2277e-06
5.30351e-07 2.2277e-06 0.000350101
0.000650637 -2.4328e-05 4.99266e-07
-2.4328e-05 1.41215e-05 -2.30982e-06
4.99266e-07 -2.30982e-06 -3.22853e-05
0.00130724 -1.54327e-05 -2.72351e-06
-1.54327e-05 0.000377627 -1.53535e-06
-2.72351e-06 -1.53535e-06 0.000369184
0.000884174 -1.62275e-05 1.16454e-05
-1.62275e-05 0.000133257 8.08993e-06
1.16454e-05 8.08993e-06 0.000142342
0.00134218 -2.40438e-05 -4.93796e-06
-2.40438e-05 0.000399361 -5.40294e-06
-4.93796e-06 -5.40294e-06 0.000390538
0.000842699 -2.40658e-05 3.82896e-06
-2.40658e-05 0.000111283 3.05129e-06
3.82896e-06 3.05129e-06 0.000119726
0.000784537 -3.05046e-05 -1.07732e-06
-3.05046e-05 8.11994e-05 -2.01381e-06
-1.07732e-06 -2.01381e-06 8.88004e-05
0.00068128 1.05399e-05 8.34555e-07
1.05399e-05 2.60198e-05 -1.85521e-06
8.34555e-07 -1.85521e-06 -1.1858e-05
0.000583927 2.77332e-05 4.87885e-07
2.77332e-05 -4.08486e-05 -3.59705e-06
4.87885e-07 -3.59705e-06 -5.17823e-05
0.000589042 3.60261e-05 7.54527e-09
3.60261e-05 -3.04766e-05 8.64404e-08
7.54527e-09 8.64404e-08 -4.53136e-05
0.00217844 6.25164e-05 1.9275e-05
6.25164e-05 0.000908554 -4.04578e-06
1.9275e-05 -4.04578e-06 0.000921084
0.000588006 5.03319e-05 1.23404e-06
5.03319e-05 -1.90485e-05 4.58873e-06
1.23404e-06 4.58873e-06 -4.08049e-05
0.00238092 7.94137e-05 -3.54132e-06
7.94137e-05 0.00103595 -2.45164e-07
-3.54132e-06 -2.45164e-07 0.00104419
0.00263663 9.40279e-05 -3.57193e-05
9.40279e-05 0.0011924 3.57743e-06
-3.57193e-05 3.57743e-06 0.00119692
0.00197305 0.00020316 5.50322e-07
0.00020316 0.000165219 2.26151e-06
5.50322e-07 2.26151e-06 7.73214e-05
0.00180969 0.000131959 -5.85235e-07
0.000131959 5.92153e-05 7.72501e-08
-5.85235e-07 7.72501e-08 -9.81114e-06
0.00171115 4.38314e-05 9.69619e-07
4.38314e-05 3.72733e-05 -3.6622e-07
9.69619e-07 -3.6622e-07 -2.59154e-05
0.00182135 1.45537e-06 1.20523e-06
1.45537e-06 0.000133229 -2.20546e-07
1.20523e-06 -2.20546e-07 4.71534e-05
0.00172368 -7.93973e-07 -1.25242e-06
-7.93973e-07 3.90806e-05 -1.65518e-08
-1.25242e-06 -1.65518e-08 -2.32913e-05
0.00193185 8.18945e-05 2.47787e-07
8.18945e-05 7.58589e-05 1.15824e-08
2.47787e-07 1.15824e-08 3.501e-05
0.00185319 0.000190638 -8.1832e-07
0.000190638 3.34575e-05 -2.8302e-07
-8.1832e-07 -2.8302e-07 -3.46878e-05
0.00189086 3.14692e-06 3.0332e-06
3.14692e-06 3.87784e-05 1.32944e-07
3.0332e-06 1.32944e-07 1.07565e-05
0.00196659 0.000118904 2.25374e-06
0.000118904 4.23309e-05 1.79002e-07
2.25374e-06 1.79002e-07 7.50574e-06
0.00184491 6.4407e-05 -4.16252e-06
6.4407e-05 2.34228e-05 2.22195e-06
-4.16252e-06 2.22195e-06 4.44776e-05
0.00188476 -5.13856e-05 -1.46882e-06
-5.13856e-05 0.000122692 -1.9779e-07
-1.46882e-06 -1.9779e-07 5.10093e-05
0.0019385 -0.000143601 -2.58151e-06
-0.000143601 0.000113396 6.0096e-07
-2.58151e-06 6.0096e-07 4.76342e-05
0.00177807 -0.000206637 -2.08341e-06
-0.000206637 7.23307e-05 9.88584e-07
-2.08341e-06 9.88584e-07 -5.01441e-06
0.00123506 -0.000232369 -3.52238e-07
-0.000232369 0.000277133 6.12278e-06
-3.52238e-07 6.12278e-06 8.44261e-05
0.000951543 -0.000273158 -1.76345e-08
-0.000273158 -2.44968e-05 5.96306e-06
-1.76345e-08 5.96306e-06 -0.00027455
0.00179105 -0.000368701 -5.0683e-06
-0.000368701 0.000317377 -3.76147e-06
-5.0683e-06 -3.76147e-06 6.69829e-05
0.00190309 -0.000273703 2.697e-06
-0.000273703 0.000128537 -5.31235e-07
2.697e-06 -5.31235e-07 2.88391e-05
0.00155738 -0.000309806 -2.82977e-06
-0.000309806 1.60898e-05 -6.14272e-06
-2.82977e-06 -6.14272e-06 -0.000138279
0.000141015 -0.00014169 -3.32726e-06
-0.00014169 -0.000332163 4.79599e-06
-3.32726e-06 4.79599e-06 -0.000483006
0.00192005 -0.000256679 1.07555e-05
-0.000256679 0.000751233 -3.45681e-06
1.07555e-05 -3.45681e-06 0.000573028
0.000762191 -1.8536e-05 -2.77202e-07
-1.8536e-05 0.000114492 -1.85844e-07
-2.77202e-07 -1.85844e-07 -3.71986e-05
0.00062031 1.49429e-05 -3.09127e-07
1.49429e-05 -5.21221e-07 8.74487e-07
-3.09127e-07 8.74487e-07 -4.58031e-05
0.000816906 1.77847e-05 1.90312e-08
1.77847e-05 0.000144384 1.4572e-06
1.90312e-08 1.4572e-06 5.12584e-05
0.00079745 -3.39227e-05 3.13095e-07
-3.39227e-05 0.000141321 2.1202e-06
3.13095e-07 2.1202e-06 1.47851e-05
0.00186744 -7.73152e-05 2.00531e-07
-7.73152e-05 4.41511e-05 3.80817e-08
2.00531e-07 3.80817e-08 5.31177e-07
0.000636998 1.31488e-05 1.05711e-06
1.31488e-05 3.89627e-06 9.24917e-08
1.05711e-06 9.24917e-08 -3.70684e-05
0.000581969 -2.74748e-05 -1.50249e-06
-2.74748e-05 -8.22606e-06 -3.82559e-08
-1.50249e-06 -3.82559e-08 -7.61604e-05
0.00189682 -0.000188293 -2.74218e-07
-0.000188293 5.74177e-05 2.62405e-07
-2.74218e-07 2.62405e-07 1.44044e-05
0.00179279 -0.000227408 -1.65396e-06
-0.000227408 3.52609e-05 5.11664e-07
-1.65396e-06 5.11664e-07 -3.43946e-05
0.000425682 -0.000188826 1.62673e-06
-0.000188826 -0.000197659 3.64206e-06
1.62673e-06 3.64206e-06 -0.000396776
0.00199276 -0.000396189 -1.90724e-06
-0.000396189 0.000527335 7.2259e-07
-1.90724e-06 7.2259e-07 0.000222565
0.00149497 -0.000358083 2.28664e-06
-0.000358083 9.93389e-05 -1.64699e-06
2.28664e-06 -1.64699e-06 -0.000132724
0.00201562 -0.000362008 2.40996e-06
-0.000362008 0.000173543 -1.01638e-06
2.40996e-06 -1.01638e-06 4.89156e-05
0.000747787 -1.75845e-05 9.87442e-07
-1.75845e-05 0.000105251 -9.90355e-07
9.87442e-07 -9.90355e-07 2.18398e-05
0.000764753 -2.58726e-05 2.10401e-07
-2.58726e-05 0.0001333 1.12427e-06
2.10401e-07 1.12427e-06 1.38465e-05
0.000929112 -0.000202675 -2.6122e-06
-0.000202675 7.28498e-05 -4.98446e-07
-2.6122e-06 -4.98446e-07 -8.38371e-05
0.00151786 -0.000240474 1.18328e-05
-0.000240474 0.000554917 -3.0082e-06
1.18328e-05 -3.0082e-06 0.000350555
0.000513314 -8.16543e-05 -2.19745e-06
-8.16543e-05 -1.69328e-05 1.06466e-08
-2.19745e-06 1.06466e-08 -0.000175793
0.000715708 -1.24258e-05 2.78937e-07
-1.24258e-05 9.55009e-05 -5.2214e-07
2.78937e-07 -5.2214e-07 -3.80476e-05
0.00189397 -8.48228e-05 2.87019e-06
-8.48228e-05 -2.42479e-06 -3.96985e-07
2.87019e-06 -3.96985e-07 -3.40561e-05
0.00181769 -0.000201946 8.12681e-07
-0.000201946 -1.94881e-05 -8.4732e-07
8.12681e-07 -8.4732e-07 -1.84959e-05
0.0019719 -0.000330964 -1.29825e-06
-0.000330964 5.95677e-05 -1.77927e-06
-1.29825e-06 -1.77927e-06 -1.98947e-05
0.00163252 -0.000403725 2.71713e-06
-0.000403725 5.08361e-05 1.35033e-06
2.71713e-06 1.35033e-06 -0.000101906
0.000603806 -0.000165867 -8.67113e-06
-0.000165867 -9.09325e-05 -7.20857e-06
-8.67113e-06 -7.20857e-06 -0.000288088
0.00255508 -0.000477955 -6.70302e-06
-0.000477955 0.000809783 5.82651e-06
-6.70302e-06 5.82651e-06 0.000487074
0.00044669 5.73693e-05 -1.11545e-06
5.73693e-05 -7.83766e-05 -2.56526e-06
-1.11545e-06 -2.56526e-06 -0.000150418
0.000699791 -5.63275e-05 2.64245e-06
-5.63275e-05 6.34132e-05 -1.18879e-06
2.64245e-06 -1.18879e-06 -7.68771e-06
0.000929368 -7.51707e-05 1.64386e-06
-7.51707e-05 0.000209133 3.54701e-07
1.64386e-06 3.54701e-07 0.000116022
0.000481396 1.93756e-05 -8.75881e-07
1.93756e-05 -3.35611e-05 1.54341e-06
-8.75881e-07 1.54341e-06 -0.000148125
0.000942845 -5.09808e-05 -4.55162e-07
-5.09808e-05 0.000225445 4.46878e-07
-4.55162e-07 4.46878e-07 0.000107139
0.00100221 -4.66645e-05 2.67924e-06
-4.66645e-05 0.000228288 7.06319e-08
2.67924e-06 7.06319e-08 8.31179e-05
-0.000192556 -8.90678e-05 6.31993e-06
-8.90678e-05 -0.000296906 5.92845e-07
6.31993e-06 5.92845e-07 -0.000566002
0.00030189 -0.000210891 -1.61409e-05
-0.000210891 -0.000268857 2.13308e-06
-1.61409e-05 2.13308e-06 -0.000425801
0.000509416 3.00557e-05 -2.18113e-07
3.00557e-05 -2.81998e-05 -8.19247e-07
-2.18113e-07 -8.19247e-07 -0.000126611
0.000679617 9.98355e-05 -3.69454e-06
9.98355e-05 8.97317e-05 -3.37664e-06
-3.69454e-06 -3.37664e-06 -5.02557e-05
0.00204112 0.00025042 -2.01266e-06
0.00025042 0.00011765 -1.04029e-06
-2.01266e-06 -1.04029e-06 4.75085e-05
0.00194241 0.000308512 -2.39982e-07
0.000308512 0.000206235 2.10289e-06
-2.39982e-07 2.10289e-06 6.23591e-05
0.00161579 0.000186974 -6.09035e-06
0.000186974 0.000574822 -2.29025e-06
-6.09035e-06 -2.29025e-06 0.000409063
0.00105988 0.000218979 -2.0295e-06
0.000218979 0.000223014 -8.60862e-06
-2.0295e-06 -8.60862e-06 1.3021e-06
0.00181025 0.00036084 1.03165e-06
0.00036084 0.000231179 1.59456e-06
1.03165e-06 1.59456e-06 2.39377e-05
0.00199915 0.00035162 1.04641e-06
0.00035162 0.000544329 2.42814e-07
1.04641e-06 2.42814e-07 0.000277386
0.000641338 4.46064e-05 6.99203e-07
4.46064e-05 4.75115e-05 -8.34256e-07
6.99203e-07 -8.34256e-07 -5.5273e-05
0.00190082 0.000191735 1.92995e-07
0.000191735 6.54406e-06 -1.40804e-07
1.92995e-07 -1.40804e-07 -2.81109e-05
0.000953492 0.000160516 8.51868e-07
0.000160516 0.000252093 1.76852e-06
8.51868e-07 1.76852e-06 8.08073e-05
0.000765509 0.000203901 1.57323e-06
0.000203901 2.26058e-05 -2.14071e-07
1.57323e-06 -2.14071e-07 -0.000197701
0.00218075 0.000292984 2.59912e-06
0.000292984 0.000239985 4.38397e-07
2.59912e-06 4.38397e-07 0.000150346
0.00141798 0.000356569 -7.78441e-07
0.000356569 -4.99958e-05 -2.39834e-06
-7.78441e-07 -2.39834e-06 -0.00024075
0.00207068 0.000383786 -1.705e-07
0.000383786 0.000530449 1.61121e-07
-1.705e-07 1.61121e-07 0.000265614
0.00114035 0.000108313 -2.4067e-06
0.000108313 0.000354615 3.01886e-06
-2.4067e-06 3.01886e-06 0.000217299
0.00235389 0.000207925 -3.44814e-05
0.000207925 0.000310582 -6.83213e-06
-3.44814e-05 -6.83213e-06 0.000309941
0.00243358 0.000341727 -4.00541e-06
0.000341727 0.00105264 5.66919e-07
-4.00541e-06 5.66919e-07 0.000846719
0.00211908 0.00034623 -6.82375e-06
0.00034623 0.000713704 1.48102e-06
-6.82375e-06 1.48102e-06 0.000469074
0.00195299 0.000400899 -1.44926e-05
0.000400899 0.000129675 -1.16991e-05
-1.44926e-05 -1.16991e-05 5.29763e-06
0.00122499 0.000347707 -1.08822e-05
0.000347707 -7.74385e-06 -1.84013e-06
-1.08822e-05 -1.84013e-06 -0.00024837
0.000641784 0.000261198 2.30922e-05
0.000261198 -0.000557196 -1.21272e-05
2.30922e-05 -1.21272e-05 -0.000770737
0.000599099 3.74688e-05 5.0412e-07
3.74688e-05 2.07359e-05 -3.11484e-07
5.0412e-07 -3.11484e-07 -6.98185e-05
0.000725455 1.70732e-05 -1.11462e-08
1.70732e-05 0.000106612 7.84904e-07
-1.11462e-08 7.84904e-07 1.54298e-05
0.00118693 3.84639e-05 2.28038e-07
3.84639e-05 0.000355235 -7.63995e-07
2.28038e-07 -7.63995e-07 0.000261128
0.000657699 -5.64874e-05 -1.15882e-07
-5.64874e-05 4.78708e-05 -2.04831e-06
-1.15882e-07 -2.04831e-06 -3.29829e-05
0.000608506 -4.41761e-05 -1.24892e-06
-4.41761e-05 2.21821e-05 -5.43277e-08
-1.24892e-06 -5.43277e-08 -7.15238e-05
0.000891499 0.000105481 -3.63713e-07
0.000105481 0.000196069 4.38753e-07
-3.63713e-07 4.38753e-07 8.89419e-05
0.00046287 -2.88046e-05 -9.84213e-07
-2.88046e-05 -5.8039e-05 1.49722e-06
-9.84213e-07 1.49722e-06 -0.000150494
0.000670681 -2.37609e-05 -1.87203e-08
-2.37609e-05 5.41573e-05 -2.34499e-08
-1.87203e-08 -2.34499e-08 -2.79714e-05
0.000659314 3.13961e-05 -7.85017e-08
3.13961e-05 4.40345e-05 -3.22008e-07
-7.85017e-08 -3.22008e-07 -5.13438e-05
0.000812605 1.09936e-05 -5.47714e-07
1.09936e-05 0.000120304 -1.89475e-07
-5.47714e-07 -1.89475e-07 3.33368e-05
0.000774678 8.79966e-06 3.37909e-07
8.79966e-06 0.000114002 -2.33377e-08
3.37909e-07 -2.33377e-08 1.30611e-05
0.000805289 -1.70769e-05 -7.68916e-08
-1.70769e-05 0.000126392 -1.51237e-07
-7.68916e-08 -1.51237e-07 3.15114e-05
0.000859291 9.44501e-06 -4.73415e-07
9.44501e-06 0.000141719 -1.81556e-06
-4.73415e-07 -1.81556e-06 5.64649e-05
0.000834599 2.2982e-05 -7.19303e-07
2.2982e-05 0.000136814 -1.43969e-06
-7.19303e-07 -1.43969e-06 3.35554e-05
0.00081978 5.7677e-05 5.30868e-07
5.7677e-05 0.000131555 5.96801e-07
5.30868e-07 5.96801e-07 3.31905e-05
0.00069972 3.57296e-05 3.01971e-07
3.57296e-05 7.83516e-05 1.19185e-06
3.01971e-07 1.19185e-06 -3.07315e-05
0.000540821 -1.75771e-05 -1.76753e-07
-1.75771e-05 -3.44419e-05 1.94645e-06
-1.76753e-07 1.94645e-06 -0.000112487
0.000889775 -1.79664e-05 1.68228e-07
-1.79664e-05 0.000204585 -8.07999e-07
1.68228e-07 -8.07999e-07 9.363e-05
0.000488302 -4.54516e-06 -5.42071e-07
-4.54516e-06 -5.97203e-05 2.00146e-06
-5.42071e-07 2.00146e-06 -0.000142151
0.000601035 8.5631e-06 -8.47153e-07
8.5631e-06 -7.25004e-06 1.83039e-06
-8.47153e-07 1.83039e-06 -5.6748e-05
0.000615544 1.6002e-05 7.89446e-07
1.6002e-05 2.21822e-07 4.47002e-10
7.89446e-07 4.47002e-10 -4.82402e-05
0.000587379 2.30832e-06 1.87663e-07
2.30832e-06 -4.3894e-05 3.67869e-06
1.87663e-07 3.67869e-06 -5.71786e-05
0.000625538 -2.93117e-06 -1.00625e-06
-2.93117e-06 3.87674e-06 -2.10893e-06
-1.00625e-06 -2.10893e-06 -4.38434e-05
0.000958141 -4.79509e-06 -1.81558e-06
-4.79509e-06 0.000173033 -1.6147e-06
-1.81558e-06 -1.6147e-06 0.000162255
0.00229464 -1.23001e-05 7.46312e-06
-1.23001e-05 0.000957866 5.05143e-06
7.46312e-06 5.05143e-06 0.000974835
0.00134855 -1.38814e-05 -2.87437e-06
-1.38814e-05 0.000402323 -5.35007e-06
-2.87437e-06 -5.35007e-06 0.00039364
0.000842479 -1.62313e-05 2.02658e-06
-1.62313e-05 0.000107745 3.12427e-06
2.02658e-06 3.12427e-06 0.000116933
0.000798196 -2.27277e-05 -5.20388e-07
-2.27277e-05 8.41855e-05 -2.04004e-06
-5.20388e-07 -2.04004e-06 9.29113e-05
0.000644523 8.55362e-06 -3.61861e-07
8.55362e-06 7.28769e-06 -1.84989e-06
-3.61861e-07 -1.84989e-06 -3.01156e-05
0.000662306 -2.54881e-06 7.43509e-07
-2.54881e-06 1.60481e-05 -7.97969e-08
7.43509e-07 -7.97969e-08 -2.25661e-05
0.000609311 2.10893e-05 4.03364e-07
2.10893e-05 -2.99219e-05 -3.54142e-06
4.03364e-07 -3.54142e-06 -3.8493e-05
0.0009169 3.30631e-05 -4.05363e-07
3.30631e-05 0.000154944 4.98327e-08
-4.05363e-07 4.98327e-08 0.000145479
0.00212674 4.97701e-05 1.53104e-05
4.97701e-05 0.000871408 -4.2287e-06
1.53104e-05 -4.2287e-06 0.000886581
0.000597548 3.75004e-05 3.62964e-08
3.75004e-05 -2.5046e-05 3.85026e-06
3.62964e-08 3.85026e-06 -4.02619e-05
0.00223833 6.49509e-05 -2.78831e-06
6.49509e-05 0.000944586 -1.66043e-07
-2.78831e-06 -1.66043e-07 0.000956433
0.0024517 8.15785e-05 -2.51302e-05
8.15785e-05 0.00107786 3.93276e-06
-2.51302e-05 3.93276e-06 0.00108548
0.00189195 0.00019445 -3.50681e-06
0.00019445 5.34315e-05 -9.98589e-07
-3.50681e-06 -9.98589e-07 -1.38882e-05
0.00190928 7.71994e-05 -1.77344e-06
7.71994e-05 6.2721e-05 -3.09467e-07
-1.77344e-06 -3.09467e-07 2.09937e-05
0.00179016 1.28151e-06 -2.02517e-06
1.28151e-06 7.61607e-05 -3.53866e-07
-2.02517e-06 -3.53866e-07 1.64476e-05
0.00187144 4.37158e-06 8.97617e-08
4.37158e-06 3.14049e-05 -1.65855e-07
8.97617e-08 -1.65855e-07 2.88513e-06
0.00192078 0.000116809 1.36624e-07
0.000116809 3.04303e-05 -1.17257e-07
1.36624e-07 -1.17257e-07 -5.88235e-06
0.00176532 5.86744e-05 3.14024e-06
5.86744e-05 -3.00452e-05 1.23815e-07
3.14024e-06 1.23815e-07 -1.70827e-05
0.00191217 1.31711e-05 8.82786e-07
1.31711e-05 -8.72621e-06 -2.33044e-07
8.82786e-07 -2.33044e-07 -5.0386e-06
0.00257238 0.000239849 2.66218e-05
0.000239849 -0.00014813 -2.05008e-07
2.66218e-05 -2.05008e-07 -0.00015849
0.00197892 3.019e-05 -2.68517e-05
3.019e-05 0.00023577 6.88889e-06
-2.68517e-05 6.88889e-06 0.000283707
0.000654236 7.09237e-05 -7.38806e-07
7.09237e-05 4.19648e-05 -9.7156e-07
-7.38806e-07 -9.7156e-07 -2.51172e-05
0.00180925 -7.76389e-05 -2.82012e-06
-7.76389e-05 1.01021e-05 -1.36478e-07
-2.82012e-06 -1.36478e-07 -3.17614e-05
0.00190163 -0.000181577 -1.01526e-06
-0.000181577 7.64961e-05 1.13406e-06
-1.01526e-06 1.13406e-06 2.67296e-05
0.00175063 -0.000228772 7.74417e-07
-0.000228772 9.7741e-06 1.47777e-06
7.74417e-07 1.47777e-06 -6.07635e-05
0.000648133 -0.000204298 2.85758e-06
-0.000204298 -6.07561e-05 7.97288e-06
2.85758e-06 7.97288e-06 -0.00025579
0.00145441 -0.000348171 1.61173e-06
-0.000348171 0.000236695 6.37364e-06
1.61173e-06 6.37364e-06 -6.77842e-05
0.00145135 -0.000358607 -6.94274e-07
-0.000358607 5.5307e-05 -9.05069e-06
-6.94274e-07 -9.05069e-06 -0.000173507
0.00204731 -0.000364183 -5.26777e-06
-0.000364183 0.000203091 -3.07855e-06
-5.26777e-06 -3.07855e-06 7.56633e-05
0.00164661 -0.000247596 9.91634e-06
-0.000247596 0.000478565 -2.64007e-06
9.91634e-06 -2.64007e-06 0.000313543
0.000448118 -0.000157104 8.71264e-06
-0.000157104 -6.37111e-05 -5.02636e-06
8.71264e-06 -5.02636e-06 -0.000226712
0.000884848 -9.12669e-05 2.93656e-07
-9.12669e-05 0.000190989 -1.2865e-06
2.93656e-07 -1.2865e-06 3.21316e-05
0.000637816 1.20755e-06 -1.09921e-06
1.20755e-06 4.03884e-06 1.83478e-06
-1.09921e-06 1.83478e-06 -3.62285e-05
0.00080827 -1.61027e-05 1.02393e-06
-1.61027e-05 0.000157623 -2.48398e-08
1.02393e-06 -2.48398e-08 2.02321e-05
0.000956775 -4.4711e-05 1.08235e-06
-4.4711e-05 0.000231764 9.0868e-09
1.08235e-06 9.0868e-09 0.000147655
0.000788493 -1.91622e-05 -2.98362e-08
-1.91622e-05 0.000144518 1.25862e-07
-2.98362e-08 1.25862e-07 2.52662e-05
0.000452312 -2.00573e-05 -1.63398e-06
-2.00573e-05 -8.90103e-05 1.39031e-06
-1.63398e-06 1.39031e-06 -0.000154003
0.00192421 -9.56713e-05 -1.90205e-07
-9.56713e-05 -4.61586e-06 1.26266e-07
-1.90205e-07 1.26266e-07 -2.4309e-05
0.000551819 3.60181e-05 6.01397e-08
3.60181e-05 -1.43922e-05 -1.0833e-06
6.01397e-08 -1.0833e-06 -8.70335e-05
0.000689815 -5.37813e-05 4.11118e-07
-5.37813e-05 6.40717e-05 3.50084e-07
4.11118e-07 3.50084e-07 -1.07755e-05
0.000794778 -4.29289e-05 -3.43561e-07
-4.29289e-05 0.000133336 7.75858e-07
-3.43561e-07 7.75858e-07 3.76272e-05
0.00182784 -0.00020669 1.05721e-06
-0.00020669 -1.08905e-05 -3.2157e-07
1.05721e-06 -3.2157e-07 -1.68095e-05
0.00199504 -0.000329699 -9.69896e-07
-0.000329699 8.5674e-05 -4.52818e-07
-9.69896e-07 -4.52818e-07 2.74572e-06
0.00105385 -0.000221728 3.59064e-06
-0.000221728 0.000151546 1.01652e-07
3.59064e-06 1.01652e-07 -4.5236e-05
0.00191118 -0.000421613 4.38874e-06
-0.000421613 0.000475748 3.63929e-07
4.38874e-06 3.63929e-07 0.000161577
0.00182179 -0.000416834 -1.93197e-07
-0.000416834 0.000167601 1.80901e-06
-1.93197e-07 1.80901e-06 8.0375e-06
0.000561907 -7.68028e-06 -3.33162e-07
-7.68028e-06 1.52725e-05 -1.23833e-07
-3.33162e-07 -1.23833e-07 -9.76632e-05
0.000832711 -6.29589e-05 -1.42442e-06
-6.29589e-05 0.000167941 3.70916e-07
-1.42442e-06 3.70916e-07 4.17988e-05
0.000710651 -0.000243658 -4.02655e-06
-0.000243658 -2.04715e-05 1.15337e-06
-4.02655e-06 1.15337e-06 -0.000201673
0.000517453 -9.19492e-05 -2.98841e-07
-9.19492e-05 5.75337e-05 -1.2142e-06
-2.98841e-07 -1.2142e-06 -0.000177865
0.000718468 -6.33281e-05 -1.08745e-08
-6.33281e-05 6.78694e-05 -3.30146e-07
-1.08745e-08 -3.30146e-07 -7.44904e-05
0.0021619 -0.000190212 -2.33382e-06
-0.000190212 0.000115953 -1.21598e-06
-2.33382e-06 -1.21598e-06 0.000110579
0.00176806 -0.000223057 -7.31683e-06
-0.000223057 -8.27696e-05 1.50549e-06
-7.31683e-06 1.50549e-06 -6.5497e-05
0.00238848 -0.000456493 -5.03036e-06
-0.000456493 0.000322609 -7.69795e-07
-5.03036e-06 -7.69795e-07 0.000190151
0.00285325 -0.000525237 -2.0702e-05
-0.000525237 0.000842758 2.82287e-06
-2.0702e-05 2.82287e-06 0.000619954
0.00112345 -0.00025041 -9.91505e-06
-0.00025041 0.000226285 -3.94499e-06
-9.91505e-06 -3.94499e-06 -1.55663e-06
0.000483423 1.50127e-05 1.40458e-06
1.50127e-05 -4.88087e-05 -1.78079e-06
1.40458e-06 -1.78079e-06 -0.000141282
0.000485881 4.74895e-05 7.69774e-07
4.74895e-05 -5.27842e-05 -1.34251e-07
7.69774e-07 -1.34251e-07 -0.000151274
0.000585948 6.09101e-06 8.16381e-07
6.09101e-06 1.56124e-05 -1.09419e-06
8.16381e-07 -1.09419e-06 -9.07603e-05
0.00120173 -0.000130914 -5.07813e-07
-0.000130914 0.000394043 2.78072e-06
-5.07813e-07 2.78072e-06 0.000266185
0.000653186 -5.27668e-05 4.31055e-07
-5.27668e-05 4.3302e-05 3.00321e-06
4.31055e-07 3.00321e-06 -7.67756e-05
0.000170399 -6.05356e-05 2.38508e-06
-6.05356e-05 -0.000126294 1.31161e-06
2.38508e-06 1.31161e-06 -0.000366377
0.000561422 -0.000272757 3.29166e-06
-0.000272757 8.48414e-05 -1.78156e-06
3.29166e-06 -1.78156e-06 -0.000208526
0.000766751 7.63484e-05 1.02196e-06
7.63484e-05 0.000131718 -4.2018e-06
1.02196e-06 -4.2018e-06 1.81587e-05
0.000218652 7.36355e-05 7.47727e-08
7.36355e-05 -0.000177248 -1.3887e-06
7.47727e-08 -1.3887e-06 -0.000331182
0.00207909 0.000186795 6.94418e-06
0.000186795 9.39469e-05 2.58388e-07
6.94418e-06 2.58388e-07 6.86456e-05
0.00199635 0.000285194 1.08953e-05
0.000285194 0.000139459 2.27607e-06
1.08953e-05 2.27607e-06 5.06474e-05
0.00178012 0.000377821 7.94074e-06
0.000377821 0.000149025 2.89064e-06
7.94074e-06 2.89064e-06 -4.08528e-05
0.000447794 0.00017938 8.01146e-07
0.00017938 -0.000159274 -2.04496e-06
8.01146e-07 -2.04496e-06 -0.000378995
0.00243056 0.000414652 3.4019e-06
0.000414652 0.000742808 1.7244e-06
3.4019e-06 1.7244e-06 0.000475953
0.00124888 9.07052e-05 -1.75655e-07
9.07052e-05 0.000406661 5.78172e-07
-1.75655e-07 5.78172e-07 0.000279202
0.00216183 0.000180593 -2.48587e-06
0.000180593 0.000220563 2.12534e-07
-2.48587e-06 2.12534e-07 0.00022816
0.0015046 0.000243768 -1.63403e-06
0.000243768 0.000520671 -2.19964e-07
-1.63403e-06 -2.19964e-07 0.000334376
0.00155557 0.000298992 -5.98166e-07
0.000298992 0.000419465 1.44792e-06
-5.98166e-07 1.44792e-06 0.00017133
0.00199105 0.000388815 -1.32321e-06
0.000388815 0.000157344 -2.62887e-06
-1.32321e-06 -2.62887e-06 3.82262e-05
0.001565 0.000380174 -1.96792e-06
0.000380174 0.000178591 3.29246e-06
-1.96792e-06 3.29246e-06 -7.02058e-05
0.00174075 0.00033223 2.8709e-05
0.00033223 -0.000219753 1.66551e-06
2.8709e-05 1.66551e-06 -0.000517836
0.00118036 0.000156779 -3.15347e-06
0.000156779 0.000383321 -4.43619e-07
-3.15347e-06 -4.43619e-07 0.000235038
0.00228986 0.00029927 -3.98769e-05
0.00029927 0.000338029 -2.04148e-05
-3.98769e-05 -2.04148e-05 0.000337402
0.00121358 0.000239086 -4.52162e-06
0.000239086 0.000312936 -2.45005e-07
-4.52162e-06 -2.45005e-07 0.000128289
0.00100237 0.000285132 -3.1938e-06
0.000285132 3.55349e-05 -3.2683e-06
-3.1938e-06 -3.2683e-06 -0.000217303
0.000338051 0.000373234 -1.2412e-05
0.000373234 -0.000608629 -8.74798e-06
-1.2412e-05 -8.74798e-06 -0.000805728
0.0093384 0.000307937 -0.000152873
0.000307937 0.00219685 -3.85116e-05
-0.000152873 -3.85116e-05 0.00126448
0.00502729 0.00062998 0.000124273
0.00062998 0.000655855 -1.25599e-05
0.000124273 -1.25599e-05 0.000179238
0.00154344 0.000475601 2.13119e-05
0.000475601 4.9437e-05 1.36719e-05
2.13119e-05 1.36719e-05 -0.000142702
-0.00480525 -0.000575619 0.000264903
-0.000575619 -0.00146495 5.79296e-06
0.000264903 5.79296e-06 -0.00243821
0.00651653 -0.00174119 -1.19712e-05
-0.00174119 0.00117126 8.67618e-06
-1.19712e-05 8.67618e-06 0.00271483
0.000573436 2.63657e-05 1.95663e-06
2.63657e-05 2.53669e-05 4.05207e-07
1.95663e-06 4.05207e-07 -6.70692e-05
0.000880963 1.89333e-05 6.32365e-07
1.89333e-05 0.000192424 -7.25004e-07
6.32365e-07 -7.25004e-07 9.88681e-05
0.000907775 6.69498e-05 -1.85503e-06
6.69498e-05 0.000200389 -1.80845e-06
-1.85503e-06 -1.80845e-06 0.000103987
0.000655351 -5.88924e-05 5.10223e-08
-5.88924e-05 5.20603e-05 -1.68979e-06
5.10223e-08 -1.68979e-06 -3.4449e-05
0.000637557 5.52897e-05 -1.20002e-06
5.52897e-05 3.43187e-05 -1.2658e-06
-1.20002e-06 -1.2658e-06 -6.42854e-05
0.000781642 -3.36988e-05 9.62774e-08
-3.36988e-05 0.000119328 -4.52788e-07
9.62774e-08 -4.52788e-07 1.78638e-05
0.000863721 6.6476e-06 -1.33765e-06
6.6476e-06 0.000157796 1.51049e-06
-1.33765e-06 1.51049e-06 6.21925e-05
0.00071246 1.82929e-06 -5.67044e-07
1.82929e-06 6.52933e-05 3.97076e-07
-5.67044e-07 3.97076e-07 -2.35894e-05
0.000757356 6.72225e-05 -1.23443e-06
6.72225e-05 0.000106099 -4.02245e-07
-1.23443e-06 -4.02245e-07 -8.0168e-07
0.000602083 -7.77063e-06 -5.90182e-08
-7.77063e-06 6.68284e-06 6.98944e-07
-5.90182e-08 6.98944e-07 -7.38846e-05
0.00069788 2.05342e-05 8.27538e-08
2.05342e-05 7.44708e-05 1.57867e-08
8.27538e-08 1.57867e-08 -3.23516e-05
0.000787324 1.16639e-05 6.13045e-07
1.16639e-05 9.92381e-05 4.49825e-07
6.13045e-07 4.49825e-07 1.33552e-05
0.000830232 2.847e-05 -4.87965e-07
2.847e-05 0.000133399 -2.09144e-07
-4.87965e-07 -2.09144e-07 3.35022e-05
0.000979118 7.00123e-05 -7.28451e-07
7.00123e-05 0.000219293 -6.52749e-07
-7.28451e-07 -6.52749e-07 0.00011819
0.000511602 3.17537e-05 4.07522e-07
3.17537e-05 -4.79447e-05 -1.94655e-06
4.07522e-07 -1.94655e-06 -0.000139307
0.000852234 6.64358e-05 1.54071e-06
6.64358e-05 0.000146256 8.87313e-07
1.54071e-06 8.87313e-07 4.33593e-05
0.000626529 -1.59375e-05 9.60498e-07
-1.59375e-05 2.02103e-05 3.57718e-07
9.60498e-07 3.57718e-07 -7.9887e-05
0.00051997 -4.77232e-05 -1.12774e-06
-4.77232e-05 -4.0224e-05 1.6428e-06
-1.12774e-06 1.6428e-06 -0.000124178
0.000806599 7.90848e-06 -7.44425e-07
7.90848e-06 0.000136546 -3.61437e-08
-7.44425e-07 -3.61437e-08 3.13634e-05
0.000811796 4.466e-05 -9.62301e-09
4.466e-05 0.000138332 -1.84416e-06
-9.62301e-09 -1.84416e-06 3.54195e-05
0.00067736 -9.97991e-06 -9.11292e-07
-9.97991e-06 7.10107e-05 -3.08206e-08
-9.11292e-07 -3.08206e-08 -2.8865e-05
0.000810329 -1.07386e-05 1.03621e-06
-1.07386e-05 0.000143659 -5.33596e-07
1.03621e-06 -5.33596e-07 4.14304e-05
0.000691409 -7.02212e-05 -1.98991e-06
-7.02212e-05 5.89011e-05 1.20642e-06
-1.98991e-06 1.20642e-06 -2.09954e-05
0.000523799 -2.89252e-06 1.32875e-07
-2.89252e-06 -3.62751e-05 7.30352e-07
1.32875e-07 7.30352e-07 -0.000121017
0.000631108 -5.30205e-06 -1.10923e-06
-5.30205e-06 5.78313e-06 2.03759e-06
-1.10923e-06 2.03759e-06 -4.2644e-05
0.000621273 -1.08796e-05 6.72028e-07
-1.08796e-05 3.58083e-06 -2.69171e-08
6.72028e-07 -2.69171e-08 -4.5443e-05
0.000614515 7.05507e-06 -3.73412e-07
7.05507e-06 -2.66224e-05 5.30559e-06
-3.73412e-07 5.30559e-06 -4.06421e-05
0.000617461 6.89321e-06 -4.57092e-07
6.89321e-06 6.2654e-07 -1.93746e-06
-4.57092e-07 -1.93746e-06 -4.72205e-05
0.000596111 2.23657e-06 3.17193e-07
2.23657e-06 -3.86311e-05 -1.58122e-08
3.17193e-07 -1.58122e-08 -5.19966e-05
0.00230887 -1.38544e-06 -3.3413e-07
-1.38544e-06 0.000965697 5.14473e-06
-3.3413e-07 5.14473e-06 0.000982548
0.000630311 -3.03618e-06 -5.04673e-07
-3.03618e-06 -1.89454e-05 -5.39342e-06
-5.04673e-07 -5.39342e-06 -3.19326e-05
0.00157146 -9.31889e-06 -1.52062e-07
-9.31889e-06 0.000533265 7.5529e-08
-1.52062e-07 7.5529e-08 0.000546329
0.000797277 -1.45343e-05 -3.72329e-08
-1.45343e-05 8.01875e-05 -2.03573e-06
-3.72329e-08 -2.03573e-06 8.97138e-05
0.000645839 -3.3347e-06 6.36946e-07
-3.3347e-06 9.1776e-06 -1.70778e-06
6.36946e-07 -1.70778e-06 -2.67419e-05
0.000654327 -1.02734e-05 4.40104e-07
-1.02734e-05 1.24358e-05 -7.69633e-09
4.40104e-07 -7.69633e-09 -2.49275e-05
0.000620765 1.41577e-05 3.14529e-07
1.41577e-05 -2.59538e-05 -3.37798e-06
3.14529e-07 -3.37798e-06 -3.28527e-05
0.000640173 -1.45275e-05 -1.71245e-06
-1.45275e-05 2.96232e-06 1.79816e-06
-1.71245e-06 1.79816e-06 -3.55594e-05
0.00090242 2.44269e-05 -9.30769e-08
2.44269e-05 0.000141851 -7.21049e-07
-9.30769e-08 -7.21049e-07 0.000135164
0.00206617 3.6839e-05 1.17537e-05
3.6839e-05 0.000830844 -4.36894e-06
1.17537e-05 -4.36894e-06 0.000848199
0.000596755 2.92386e-05 -4.63155e-07
2.92386e-05 -3.23236e-05 3.58399e-06
-4.63155e-07 3.58399e-06 -4.38844e-05
0.00219289 5.1299e-05 -7.39547e-06
5.1299e-05 0.000912149 1.14753e-06
-7.39547e-06 1.14753e-06 0.000926655
0.00228945 6.70968e-05 -1.9309e-05
6.70968e-05 0.000975404 4.07452e-06
-1.9309e-05 4.07452e-06 0.000986654
0.00186872 0.000114723 -2.67592e-06
0.000114723 1.50894e-05 -6.23956e-07
-2.67592e-06 -6.23956e-07 -2.28192e-05
0.00185181 5.13393e-06 -2.54633e-06
5.13393e-06 2.4149e-05 -4.14769e-07
-2.54633e-06 -4.14769e-07 -4.88993e-06
0.0015726 5.05035e-05 1.19438e-05
5.05035e-05 -0.000148699 4.51216e-07
1.19438e-05 4.51216e-07 -0.00014353
0.0022666 0.00017169 2.97378e-05
0.00017169 -0.000226376 7.25446e-06
2.97378e-05 7.25446e-06 -0.000222963
0.00188301 2.38555e-06 -2.94375e-06
2.38555e-06 -1.97783e-05 -5.10016e-07
-2.94375e-06 -5.10016e-07 -1.60494e-05
0.00179968 4.1005e-05 4.24171e-06
4.1005e-05 0.000144351 -1.87814e-06
4.24171e-06 -1.87814e-06 0.000175102
0.00309778 -4.67271e-06 -2.53111e-05
-4.67271e-06 0.000861941 2.33518e-06
-2.53111e-05 2.33518e-06 0.000840639
0.0025324 -4.83094e-05 0.000108834
-4.83094e-05 -0.000654046 -2.13885e-05
0.000108834 -2.13885e-05 -0.000676131
0.0025626 3.51155e-05 7.28341e-06
3.51155e-05 0.000139767 1.03581e-05
7.28341e-06 1.03581e-05 0.000190224
0.000673927 6.39676e-05 -1.25461e-07
6.39676e-05 5.65141e-05 -1.12391e-06
-1.25461e-07 -1.12391e-06 -1.35406e-05
0.000689904 -7.90573e-06 7.11145e-07
-7.90573e-06 6.75265e-05 -1.50397e-07
7.11145e-07 -1.50397e-07 -4.0978e-06
0.000662993 -8.21833e-05 2.1593e-07
-8.21833e-05 5.39365e-05 -2.88838e-07
2.1593e-07 -2.88838e-07 -3.12628e-05
0.00070676 -3.44479e-05 -9.06616e-07
-3.44479e-05 9.56716e-05 2.86194e-07
-9.06616e-07 2.86194e-07 -1.47781e-06
0.00194455 -0.00010502 -5.0185e-06
-0.00010502 -1.26148e-05 2.89542e-07
-5.0185e-06 2.89542e-07 -1.94952e-05
0.00181835 -0.00020855 -8.38094e-07
-0.00020855 -1.00137e-05 1.03709e-06
-8.38094e-07 1.03709e-06 -2.26832e-05
0.001995 -0.000325648 -4.81886e-06
-0.000325648 9.98081e-05 1.11403e-06
-4.81886e-06 1.11403e-06 1.29431e-05
0.00177762 -0.000308412 4.56023e-06
-0.000308412 0.000542932 6.00811e-06
4.56023e-06 6.00811e-06 0.000342619
0.00101968 -0.000348304 8.26328e-06
-0.000348304 1.04266e-06 -4.93118e-06
8.26328e-06 -4.93118e-06 -0.000301236
0.00209444 -0.000435996 4.84988e-06
-0.000435996 0.000328421 -3.96056e-06
4.84988e-06 -3.96056e-06 0.000162118
0.000996748 -0.000256134 -4.72607e-06
-0.000256134 0.000158189 8.49052e-07
-4.72607e-06 8.49052e-07 -4.20374e-05
0.00141004 -0.000102478 -4.31594e-07
-0.000102478 0.000515655 -5.64191e-07
-4.31594e-07 -5.64191e-07 0.000312349
0.00035453 -7.594e-05 -1.42091e-06
-7.594e-05 -0.000139853 4.30991e-07
-1.42091e-06 4.30991e-07 -0.000277707
0.000707741 -3.04927e-05 -6.40568e-07
-3.04927e-05 7.10149e-05 1.5041e-06
-6.40568e-07 1.5041e-06 -1.03364e-06
0.000659495 -7.50622e-05 -3.72162e-07
-7.50622e-05 7.57818e-05 -8.56815e-07
-3.72162e-07 -8.56815e-07 -5.81593e-05
0.000802927 -7.44329e-06 -3.36144e-07
-7.44329e-06 0.000153962 -2.77254e-07
-3.36144e-07 -2.77254e-07 4.22493e-05
0.000688637 7.07739e-06 1.48525e-07
7.07739e-06 7.01085e-05 6.48329e-07
1.48525e-07 6.48329e-07 -4.59868e-06
0.000597626 1.59286e-05 -2.06584e-06
1.59286e-05 2.20351e-05 2.77079e-06
-2.06584e-06 2.77079e-06 -7.54249e-05
0.00216414 -0.000171693 1.167e-06
-0.000171693 0.00013284 7.18921e-07
1.167e-06 7.18921e-07 0.000134884
0.000682276 -4.54326e-06 9.90095e-07
-4.54326e-06 7.40726e-05 -4.63099e-07
9.90095e-07 -4.63099e-07 -2.14907e-05
0.000688712 9.99535e-06 1.55854e-06
9.99535e-06 7.26463e-05 -2.54679e-07
1.55854e-06 -2.54679e-07 -2.84047e-05
0.000529812 5.7187e-05 -9.47816e-08
5.7187e-05 -1.0845e-05 1.54193e-06
-9.47816e-08 1.54193e-06 -0.000112893
0.00177994 -0.000225919 -1.40275e-06
-0.000225919 -9.68383e-05 -1.18781e-06
-1.40275e-06 -1.18781e-06 -8.43947e-05
0.00193693 -0.000423126 1.53663e-06
-0.000423126 8.80622e-05 -3.61447e-07
1.53663e-06 -3.61447e-07 -3.57543e-05
0.00127226 -0.000297118 -9.52931e-07
-0.000297118 0.000291938 -1.83086e-06
-9.52931e-07 -1.83086e-06 5.95676e-05
0.00227979 -0.000485272 -4.70608e-06
-0.000485272 0.000536595 1.94497e-06
-4.70608e-06 1.94497e-06 0.000318581
0.00104407 -6.03018e-05 -8.10556e-07
-6.03018e-05 0.000289591 5.10394e-07
-8.10556e-07 5.10394e-07 0.000167804
0.000652946 -7.27266e-05 -3.1471e-07
-7.27266e-05 4.28846e-05 1.00038e-06
-3.1471e-07 1.00038e-06 -8.62678e-05
0.000974861 -0.000307915 2.25515e-06
-0.000307915 0.000319148 -4.61815e-07
2.25515e-06 -4.61815e-07 1.84268e-05
0.00101414 -0.000139221 3.15833e-07
-0.000139221 0.000324733 2.70417e-07
3.15833e-07 2.70417e-07 8.82342e-05
0.00214393 -0.00018367 -1.74917e-05
-0.00018367 6.92007e-05 8.42359e-10
-1.74917e-05 8.42359e-10 0.000121794
0.00232185 -0.000353965 -1.8947e-05
-0.000353965 0.000189139 4.8873e-06
-1.8947e-05 4.8873e-06 0.000199796
0.00286749 -0.000565432 -1.19021e-05
-0.000565432 0.000664654 -4.5905e-06
-1.19021e-05 -4.5905e-06 0.000474191
0.00191669 -0.000439152 -2.53879e-06
-0.000439152 0.000533418 4.31753e-06
-2.53879e-06 4.31753e-06 0.000317084
0.000597698 8.63292e-06 -6.71218e-07
8.63292e-06 3.75173e-05 -2.54403e-06
-6.71218e-07 -2.54403e-06 -8.0614e-05
0.000593729 -7.30114e-05 9.47605e-07
-7.30114e-05 3.277e-05 -3.52515e-06
9.47605e-07 -3.52515e-06 -9.14802e-05
0.000578899 -8.94526e-05 -5.6394e-07
-8.94526e-05 7.01987e-05 3.33355e-06
-5.6394e-07 3.33355e-06 -7.96976e-05
0.0004815 -0.000114123 1.90517e-06
-0.000114123 0.000178682 -5.74572e-06
1.90517e-06 -5.74572e-06 -0.000190746
0.000673595 -0.000302239 2.90313e-05
-0.000302239 -0.00253004 -5.11335e-06
2.90313e-05 -5.11335e-06 -0.00300519
0.00131249 8.12641e-05 6.90417e-07
8.12641e-05 0.000436808 -3.52493e-06
6.90417e-07 -3.52493e-06 0.000317233
0.000443337 0.000140263 2.34578e-06
0.000140263 -8.09615e-05 3.74248e-08
2.34578e-06 3.74248e-08 -0.000249046
0.00189199 0.000158459 3.77318e-05
0.000158459 8.72781e-05 5.36726e-06
3.77318e-05 5.36726e-06 0.00010059
0.00209627 0.000380919 1.3336e-05
0.000380919 0.000221303 5.36803e-06
1.3336e-05 5.36803e-06 0.000105995
0.0017548 0.000401049 5.25205e-06
0.000401049 0.00028625 6.40211e-06
5.25205e-06 6.40211e-06 2.86802e-05
0.000876886 0.000241452 4.14423e-06
0.000241452 6.04404e-05 2.42092e-06
4.14423e-06 2.42092e-06 -0.000190805
0.00279158 0.000409927 5.07587e-05
0.000409927 0.000114842 1.6919e-05
5.07587e-05 1.6919e-05 -0.000283335
0.00123751 0.000138072 1.78951e-06
0.000138072 0.00041823 -2.70106e-07
1.78951e-06 -2.70106e-07 0.000273524
0.0023446 0.000300822 -9.87037e-06
0.000300822 0.000351515 -1.14215e-06
-9.87037e-06 -1.14215e-06 0.000364824
0.00105429 0.000225502 1.06028e-06
0.000225502 0.000238035 2.76903e-08
1.06028e-06 2.76903e-08 5.51243e-05
0.00124233 0.000318016 1.08142e-06
0.000318016 0.000176702 -7.54874e-07
1.08142e-06 -7.54874e-07 -8.26359e-05
0.00134267 0.000449349 -4.8551e-06
0.000449349 -0.000105132 -1.19729e-06
-4.8551e-06 -1.19729e-06 -0.000299306
0.00323771 -0.000208167 -9.13765e-05
-0.000208167 -0.00118501 -3.00313e-05
-9.13765e-05 -3.00313e-05 -0.00214552
0.00507004 0.000512948 -1.21005e-05
0.000512948 0.000443281 -2.78853e-05
-1.21005e-05 -2.78853e-05 -0.000138703
0.000348988 0.000340879 -3.20885e-06
0.000340879 -0.000466945 8.14795e-06
-3.20885e-06 8.14795e-06 -0.000684357
-0.00105256 -0.000427272 0.000124362
-0.000427272 0.00086247 4.86735e-05
0.000124362 4.86735e-05 -0.000297795
-0.000138693 -0.00172089 -7.51634e-05
-0.00172089 -0.00121664 -9.34801e-05
-7.51634e-05 -9.34801e-05 0.000516792
0.00108991 0.000164044 -3.73775e-06
0.000164044 0.000323079 -3.04952e-06
-3.73775e-06 -3.04952e-06 0.000191561
0.00034949 0.000336162 0.00011631
0.000336162 0.0013222 -2.35795e-05
0.00011631 -2.35795e-05 0.000350724
0.00121481 -0.000572213 -7.97331e-05
-0.000572213 0.00194166 -0.000134566
-7.97331e-05 -0.000134566 0.000782888
0.00282072 0.000444373 -2.70192e-05
0.000444373 0.000667806 -1.17553e-05
-2.70192e-05 -1.17553e-05 0.000680872
0.00105148 0.000156928 -1.06951e-05
0.000156928 0.000229216 -1.60244e-06
-1.06951e-05 -1.60244e-06 4.26503e-05
4.58122e-05 0.000378102 -1.60905e-05
0.000378102 -0.000488724 -1.42684e-05
-1.60905e-05 -1.42684e-05 -0.000764855
0.000141779 0.000389024 2.93304e-05
0.000389024 -0.000602994 6.06745e-05
2.93304e-05 6.06745e-05 -0.000717407
0.0106625 0.00050651 -2.94475e-05
0.00050651 0.00343084 -2.81837e-05
-2.94475e-05 -2.81837e-05 0.0019679
0.00335381 0.000846138 7.89472e-06
0.000846138 0.000752775 1.10055e-05
7.89472e-06 1.10055e-05 -0.000389553
0.00202857 -0.00149837 0.000186451
-0.00149837 -0.00031663 0.000142842
0.000186451 0.000142842 3.94036e-05
0.00388012 -0.000854347 1.97187e-06
-0.000854347 -0.00118933 0.000191405
1.97187e-06 0.000191405 0.000186964
0.000709684 5.87438e-06 7.92411e-07
5.87438e-06 0.000104945 -8.33953e-07
7.92411e-07 -8.33953e-07 1.12826e-05
0.000833225 6.72674e-05 1.22489e-06
6.72674e-05 0.000162122 8.90628e-07
1.22489e-06 8.90628e-07 6.44714e-05
0.00136778 0.000122398 -2.21131e-06
0.000122398 0.000480819 -2.61814e-06
-2.21131e-06 -2.61814e-06 0.000393469
0.000661908 4.11101e-06 4.83105e-07
4.11101e-06 5.68891e-05 -5.33225e-07
4.83105e-07 -5.33225e-07 -3.27163e-05
0.000756505 2.96695e-05 -3.06898e-08
2.96695e-05 0.000106783 -1.29082e-06
-3.06898e-08 -1.29082e-06 1.41033e-06
0.000576979 -1.25016e-05 -1.09885e-06
-1.25016e-05 -9.72979e-06 -4.71763e-07
-1.09885e-06 -4.71763e-07 -0.000107236
0.000812741 3.49147e-05 -7.07985e-07
3.49147e-05 0.000123187 5.02457e-07
-7.07985e-07 5.02457e-07 2.61809e-05
0.000725904 1.31552e-05 -1.57755e-07
1.31552e-05 6.18923e-05 8.23532e-07
-1.57755e-07 8.23532e-07 -2.45449e-05
0.000511925 -8.82434e-07 3.26347e-07
-8.82434e-07 -4.18696e-05 7.29391e-07
3.26347e-07 7.29391e-07 -0.00012795
0.000841357 2.64721e-05 1.37756e-07
2.64721e-05 0.000140965 2.23387e-07
1.37756e-07 2.23387e-07 4.0515e-05
0.000831163 2.43586e-05 7.22555e-08
2.43586e-05 0.000135584 2.83148e-07
7.22555e-08 2.83148e-07 3.23956e-05
0.000714818 1.81586e-05 5.96721e-07
1.81586e-05 8.49146e-05 -3.61421e-07
5.96721e-07 -3.61421e-07 -2.35181e-05
0.000561915 3.49414e-05 -1.87406e-07
3.49414e-05 -1.85361e-05 -1.36675e-07
-1.87406e-07 -1.36675e-07 -0.000109237
0.00105753 3.71841e-05 -2.95399e-08
3.71841e-05 0.000261687 -1.02919e-06
-2.95399e-08 -1.02919e-06 0.000166723
0.000236756 4.17538e-05 -1.41639e-06
4.17538e-05 -0.000184195 -3.39801e-06
-1.41639e-06 -3.39801e-06 -0.000280034
0.000780394 -7.0889e-05 -1.8653e-07
-7.0889e-05 0.000105834 5.87944e-07
-1.8653e-07 5.87944e-07 -2.22904e-06
0.000798252 -5.53557e-05 -8.72349e-07
-5.53557e-05 0.000137006 -7.83221e-07
-8.72349e-07 -7.83221e-07 2.38612e-05
0.000819393 -2.13111e-05 -5.31088e-07
-2.13111e-05 0.000148888 -3.53819e-07
-5.31088e-07 -3.53819e-07 3.95027e-05
0.000832303 1.99929e-05 -4.88315e-07
1.99929e-05 0.000142331 -2.94543e-07
-4.88315e-07 -2.94543e-07 4.46218e-05
0.000862331 1.10225e-05 -1.62788e-06
1.10225e-05 0.00017677 -1.99139e-06
-1.62788e-06 -1.99139e-06 5.79986e-05
0.000743564 2.85488e-05 6.41383e-07
2.85488e-05 9.98359e-05 -7.01947e-07
6.41383e-07 -7.01947e-07 9.45331e-07
0.000382982 -6.39092e-06 3.76662e-07
-6.39092e-06 -0.000127775 -1.60066e-06
3.76662e-07 -1.60066e-06 -0.000213794
0.000637618 2.0804e-05 8.39502e-07
2.0804e-05 3.91612e-05 3.73048e-07
8.39502e-07 3.73048e-07 -5.80845e-05
0.000680004 -2.89545e-05 -1.28469e-08
-2.89545e-05 5.58489e-05 3.58088e-07
-1.28469e-08 3.58088e-07 -3.01979e-05
0.000724284 -2.79838e-05 -2.30619e-07
-2.79838e-05 9.31805e-05 -2.14027e-08
-2.30619e-07 -2.14027e-08 -4.08376e-06
0.000687454 -3.57237e-05 -1.60708e-06
-3.57237e-05 4.78196e-05 9.82391e-07
-1.60708e-06 9.82391e-07 -2.34643e-05
0.000725801 -2.03058e-05 1.34343e-06
-2.03058e-05 7.84566e-05 -4.47471e-07
1.34343e-06 -4.47471e-07 -1.42402e-05
0.000643796 -6.48498e-05 -1.3537e-08
-6.48498e-05 2.93954e-05 1.51582e-07
-1.3537e-08 1.51582e-07 -5.05855e-05
0.000660227 -3.75578e-06 -1.63041e-06
-3.75578e-06 1.88264e-05 2.17336e-06
-1.63041e-06 2.17336e-06 -2.92658e-05
0.000536579 -3.74146e-06 1.00596e-06
-3.74146e-06 -2.19113e-05 -5.58503e-07
1.00596e-06 -5.58503e-07 -0.000111362
0.000631498 5.9205e-06 8.48951e-07
5.9205e-06 7.84129e-06 -2.21547e-08
8.48951e-07 -2.21547e-08 -4.17066e-05
0.00137033 1.62302e-05 -2.69056e-06
1.62302e-05 0.000417117 5.22343e-06
-2.69056e-06 5.22343e-06 0.000406899
0.000625259 2.39488e-05 -2.06426e-07
2.39488e-05 5.8082e-06 -1.87401e-06
-2.06426e-07 -1.87401e-06 -4.31459e-05
0.000982186 8.39396e-06 -1.56906e-06
8.39396e-06 0.000188738 7.99697e-07
-1.56906e-06 7.99697e-07 0.000176847
0.000852579 3.78851e-06 -3.70473e-06
3.78851e-06 0.000112594 4.99293e-06
-3.70473e-06 4.99293e-06 0.000121381
0.000606232 2.06813e-06 8.9572e-08
2.06813e-06 -3.25326e-05 -3.66777e-06
8.9572e-08 -3.66777e-06 -4.59893e-05
0.0023158 2.21266e-07 3.99555e-06
2.21266e-07 0.000969837 -4.94122e-09
3.99555e-06 -4.94122e-09 0.000986626
0.000867786 -3.46313e-06 -3.8679e-06
-3.46313e-06 0.000121228 -5.0488e-06
-3.8679e-06 -5.0488e-06 0.000130522
0.000683068 6.65697e-05 1.51564e-06
6.65697e-05 6.88848e-05 -4.94968e-07
1.51564e-06 -4.94968e-07 -8.38908e-06
0.000641086 1.62759e-05 -8.09491e-07
1.62759e-05 9.5694e-06 -1.92016e-06
-8.09491e-07 -1.92016e-06 -2.73327e-05
0.000637003 -4.29008e-06 8.31334e-07
-4.29008e-06 5.28504e-06 1.60774e-08
8.31334e-07 1.60774e-08 -3.15341e-05
0.000623128 8.06457e-06 1.4192e-07
8.06457e-06 -2.58638e-05 -3.32941e-06
1.4192e-07 -3.32941e-06 -3.21142e-05
0.000659525 -2.33438e-05 -1.5804e-06
-2.33438e-05 1.62304e-05 1.83138e-06
-1.5804e-06 1.83138e-06 -2.19189e-05
0.000600029 1.40712e-05 1.15223e-08
1.40712e-05 -3.86035e-05 -7.58064e-07
1.15223e-08 -7.58064e-07 -4.52826e-05
0.00204441 2.45088e-05 7.88588e-06
2.45088e-05 0.000814328 -4.5346e-06
7.88588e-06 -4.5346e-06 0.000833052
0.0012101 3.02195e-05 -8.11702e-07
3.02195e-05 0.000322888 2.02777e-06
-8.11702e-07 2.02777e-06 0.000317483
0.00148853 3.16258e-05 1.9341e-07
3.16258e-05 0.000492643 1.44024e-06
1.9341e-07 1.44024e-06 0.000506053
0.000918721 3.49041e-05 -1.48892e-05
3.49041e-05 0.000164145 7.2446e-06
-1.48892e-05 7.2446e-06 0.000171722
0.00161773 0.00010034 5.82229e-05
0.00010034 -0.000483018 1.50939e-05
5.82229e-05 1.50939e-05 -0.000483003
0.00187263 -8.11654e-06 1.75149e-06
-8.11654e-06 -2.0333e-05 3.78798e-07
1.75149e-06 3.78798e-07 -1.81465e-05
0.00191136 5.31113e-05 3.14184e-05
5.31113e-05 0.000224878 -6.74616e-06
3.14184e-05 -6.74616e-06 0.000242406
0.00105153 7.59607e-05 -6.78594e-06
7.59607e-05 -0.0010122 -7.04803e-06
-6.78594e-06 -7.04803e-06 -0.00105731
0.00184388 3.27513e-05 1.54749e-05
3.27513e-05 -0.000163003 1.08092e-06
1.54749e-05 1.08092e-06 -0.000128147
0.00234764 -1.23862e-05 -3.66734e-07
-1.23862e-05 0.000367807 -1.47875e-06
-3.66734e-07 -1.47875e-06 0.000350762
0.00337975 -5.67804e-05 -5.85973e-05
-5.67804e-05 0.000791702 3.90519e-06
-5.85973e-05 3.90519e-06 0.000778183
0.00324448 -7.45484e-05 0.000116799
-7.45484e-05 0.000519914 -6.14287e-06
0.000116799 -6.14287e-06 0.000317261
0.00899115 -0.000339708 6.83903e-06
-0.000339708 0.00221029 2.36529e-05
6.83903e-06 2.36529e-05 0.000896452
0.00774328 0.00139262 0.000262642
0.00139262 0.00377634 -0.000117006
0.000262642 -0.000117006 0.00382111
0.00388032 0.00145136 3.33845e-06
0.00145136 0.00268152 1.41197e-05
3.33845e-06 1.41197e-05 0.00346463
0.000421767 -7.49892e-05 2.44529e-06
-7.49892e-05 -7.87939e-05 -6.66444e-07
2.44529e-06 -6.66444e-07 -0.000167262
0.000688316 -9.72276e-06 1.24016e-06
-9.72276e-06 6.68377e-05 -1.42964e-07
1.24016e-06 -1.42964e-07 -4.85056e-06
0.000713973 -7.23287e-05 -1.57149e-06
-7.23287e-05 8.65378e-05 1.56576e-06
-1.57149e-06 1.56576e-06 1.0387e-05
0.000638856 -3.05718e-05 -3.92855e-07
-3.05718e-05 4.22507e-05 2.24234e-07
-3.92855e-07 2.24234e-07 -4.49928e-05
0.000741106 7.26689e-05 1.08499e-07
7.26689e-05 0.000117652 9.06193e-07
1.08499e-07 9.06193e-07 1.13384e-05
0.000814125 0.000119705 1.46018e-06
0.000119705 0.000151944 1.41374e-06
1.46018e-06 1.41374e-06 4.53394e-05
0.000773146 -7.17196e-06 1.84632e-06
-7.17196e-06 0.000128353 -2.12075e-06
1.84632e-06 -2.12075e-06 3.15562e-05
0.000625374 -2.85832e-05 -6.71377e-07
-2.85832e-05 4.09361e-05 6.57365e-07
-6.71377e-07 6.57365e-07 -5.05446e-05
0.00213548 -0.000156565 4.17292e-06
-0.000156565 0.000128176 1.26922e-06
4.17292e-06 1.26922e-06 0.000137769
0.0018239 -0.000234554 5.49312e-06
-0.000234554 -0.000103464 -1.78543e-06
5.49312e-06 -1.78543e-06 -9.41793e-05
0.00163813 -0.000399444 2.21615e-06
-0.000399444 -6.91901e-05 2.60731e-06
2.21615e-06 2.60731e-06 -0.000185512
0.00119664 -0.00031565 7.08964e-06
-0.00031565 0.000238907 4.09772e-06
7.08964e-06 4.09772e-06 2.91573e-06
0.001893 -0.000459283 4.84136e-06
-0.000459283 0.000334969 -4.03319e-07
4.84136e-06 -4.03319e-07 0.000120196
0.00139928 -0.000342959 2.80234e-07
-0.000342959 0.000557902 3.15203e-07
2.80234e-07 3.15203e-07 0.000250403
0.00171229 -0.000209802 -8.22864e-07
-0.000209802 0.000702799 -9.54308e-07
-8.22864e-07 -9.54308e-07 0.000464548
0.000739476 -0.000106063 5.43368e-07
-0.000106063 9.35023e-05 -2.25358e-07
5.43368e-07 -2.25358e-07 -4.77443e-05
0.000739075 -2.32154e-05 -2.83398e-07
-2.32154e-05 0.000107931 2.30014e-06
-2.83398e-07 2.30014e-06 7.10489e-06
0.000924701 -2.29735e-05 -5.68561e-07
-2.29735e-05 0.000209702 -4.38505e-06
-5.68561e-07 -4.38505e-06 9.4234e-05
0.000949424 -1.72549e-05 9.99886e-07
-1.72549e-05 0.000231483 8.75457e-07
9.99886e-07 8.75457e-07 0.000135547
0.00071462 0.000120085 2.53183e-06
0.000120085 0.000103293 3.3536e-06
2.53183e-06 3.3536e-06 1.14291e-06
0.0018007 -0.000179486 -5.24887e-07
-0.000179486 -7.99303e-05 4.5612e-07
-5.24887e-07 4.5612e-07 -3.31694e-05
0.000710113 2.42319e-05 -1.40396e-06
2.42319e-05 0.000103967 2.42254e-07
-1.40396e-06 2.42254e-07 -1.3581e-05
0.000823619 -7.20986e-05 -1.31748e-06
-7.20986e-05 0.000160188 6.23725e-07
-1.31748e-06 6.23725e-07 4.2123e-05
0.00172777 -0.000337055 1.07369e-06
-0.000337055 -0.000125657 -1.51197e-06
1.07369e-06 -1.51197e-06 -0.000120511
0.00155061 -0.000464298 2.00597e-07
-0.000464298 -1.89166e-05 2.10087e-06
2.00597e-07 2.10087e-06 -0.000183813
0.00154898 -0.000409061 3.41315e-07
-0.000409061 0.000336725 -1.47133e-06
3.41315e-07 -1.47133e-06 0.000107122
0.000881953 -0.000113223 4.82901e-07
-0.000113223 0.00023954 -2.81843e-06
4.82901e-07 -2.81843e-06 7.26864e-05
0.000986579 -0.00015729 -2.66175e-07
-0.00015729 0.000428104 2.26529e-07
-2.66175e-07 2.26529e-07 8.47223e-05
0.00309993 -0.000283689 -2.47726e-05
-0.000283689 0.000657334 4.50623e-06
-2.47726e-05 4.50623e-06 0.000638388
0.00276321 -0.000477221 -2.99771e-05
-0.000477221 0.000509289 4.84804e-06
-2.99771e-05 4.84804e-06 0.00051431
0.00140116 -0.000496062 -8.42889e-06
-0.000496062 1.10716e-05 2.48549e-06
-8.42889e-06 2.48549e-06 -0.000156982
0.000372296 -0.000286839 -4.67824e-06
-0.000286839 -0.000159918 1.78147e-05
-4.67824e-06 1.78147e-05 -0.000399534
0.000657923 -0.000118362 1.86253e-06
-0.000118362 7.17225e-05 -2.54359e-07
1.86253e-06 -2.54359e-07 -5.85883e-05
0.000547995 -8.46083e-05 2.39664e-06
-8.46083e-05 3.35732e-05 -3.96326e-06
2.39664e-06 -3.96326e-06 -0.000107798
0.00105606 -5.57107e-05 5.60827e-07
-5.57107e-05 0.000454259 -5.72361e-06
5.60827e-07 -5.72361e-06 0.000162093
-0.00450739 -5.10925e-05 0.000238307
-5.10925e-05 -0.00281795 2.31264e-06
0.000238307 2.31264e-06 -0.00211453
0.00958553 -0.000118254 -1.13289e-05
-0.000118254 0.00288596 2.2574e-07
-1.13289e-05 2.2574e-07 0.00220709
0.00139571 0.000118682 3.48506e-06
0.000118682 0.000503676 -1.46019e-06
3.48506e-06 -1.46019e-06 0.00036602
0.000820156 0.00020538 2.79829e-06
0.00020538 0.00011878 -2.326e-06
2.79829e-06 -2.326e-06 -6.14932e-05
0.00209956 0.000279016 3.12171e-05
0.000279016 0.000209195 1.93424e-05
3.12171e-05 1.93424e-05 0.000237743
0.00240428 0.000527274 9.03278e-06
0.000527274 0.000432125 8.23209e-06
9.03278e-06 8.23209e-06 0.000242031
0.00166023 0.000365456 7.23277e-06
0.000365456 0.000413204 1.8661e-06
7.23277e-06 1.8661e-06 0.000147718
0.00942841 0.000438931 4.38188e-05
0.000438931 0.00237562 8.22807e-06
4.38188e-05 8.22807e-06 0.00128489
0.00724955 0.000778956 -0.000138175
0.000778956 0.00119382 -3.05938e-05
-0.000138175 -3.05938e-05 0.000693696
-0.000902112 0.000205049 -3.05801e-07
0.000205049 -0.0010122 -1.8209e-05
-3.05801e-07 -1.8209e-05 -0.00126108
0.00674499 -0.0011289 -5.14496e-05
-0.0011289 0.00331539 2.65869e-05
-5.14496e-05 2.65869e-05 0.00282865
-0.00737815 -0.00174679 -0.000429807
-0.00174679 -0.00365792 -0.000331459
-0.000429807 -0.000331459 -0.00186682
0.000938349 0.000158508 -2.61849e-07
0.000158508 0.000247854 -1.76381e-06
-2.61849e-07 -1.76381e-06 0.000115449
-0.00241219 -0.0005102 9.67198e-05
-0.0005102 -0.0018788 1.04602e-05
9.67198e-05 1.04602e-05 -0.00204474
-0.00212325 -0.000442831 -0.000110918
-0.000442831 0.000896554 -5.43731e-05
-0.000110918 -5.43731e-05 -0.000571496
0.00265023 0.000410219 -5.85434e-06
0.000410219 0.000552217 -1.1653e-06
-5.85434e-06 -1.1653e-06 0.000585996
0.000860815 0.000183132 -1.96754e-06
0.000183132 0.000153249 8.60394e-07
-1.96754e-06 8.60394e-07 -4.67987e-05
0.00085288 0.000380763 3.50284e-06
0.000380763 -4.17493e-05 1.78645e-06
3.50284e-06 1.78645e-06 -0.000309484
0.00103937 0.000330967 1.26918e-05
0.000330967 -2.40803e-05 1.17133e-05
1.26918e-05 1.17133e-05 -4.62399e-05
0.00772412 0.000377179 -4.15633e-05
0.000377179 0.00139817 -2.40959e-05
-4.15633e-05 -2.40959e-05 -0.000305978
0.00634122 0.00112168 -4.95608e-05
0.00112168 0.00165902 -1.95739e-05
-4.95608e-05 -1.95739e-05 0.000875264
0.00869038 -0.00133679 9.40243e-05
-0.00133679 0.00409281 -4.19644e-05
9.40243e-05 -4.19644e-05 0.00405992
0.00320488 -0.00103134 0.000112833
-0.00103134 -0.00171805 0.000236626
0.000112833 0.000236626 -0.000330943
0.00146181 0.000141601 -1.26122e-05
0.000141601 0.000564174 -6.58144e-06
-1.26122e-05 -6.58144e-06 0.000448844
-0.00468711 0.000148416 -7.67014e-05
0.000148416 0.000555625 -4.49421e-05
-7.67014e-05 -4.49421e-05 -0.00152456
0.00266289 0.000200347 -0.000124263
0.000200347 0.00115577 -0.000177138
-0.000124263 -0.000177138 -0.000898308
0.000724532 0.000339303 -1.52746e-05
0.000339303 -0.000181193 3.58423e-06
-1.52746e-05 3.58423e-06 -0.000188768
0.00122977 0.00038166 -4.01169e-05
0.00038166 0.000426291 -1.35213e-05
-4.01169e-05 -1.35213e-05 0.000189387
0.00239274 0.000307537 -6.78117e-05
0.000307537 0.00114154 -6.62655e-06
-6.78117e-05 -6.62655e-06 0.000813754
0.00298007 0.000873455 -4.962e-05
0.000873455 0.000357874 -1.57656e-05
-4.962e-05 -1.57656e-05 2.27061e-05
0.0009903 0.00052311 0.000128083
0.00052311 -8.34772e-05 9.68875e-05
0.000128083 9.68875e-05 -0.00253043
0.00920974 -0.00146035 3.6291e-05
-0.00146035 0.00295673 0.000201802
3.6291e-05 0.000201802 0.00262464
0.00343401 -0.00065342 -2.16613e-05
-0.00065342 -0.00205469 -2.60315e-05
-2.16613e-05 -2.60315e-05 -0.000755501
0.000885814 8.49076e-05 2.73929e-06
8.49076e-05 0.000198186 3.22975e-06
2.73929e-06 3.22975e-06 9.46829e-05
0.00120115 0.000111702 4.65384e-06
0.000111702 0.000377006 2.61716e-06
4.65384e-06 2.61716e-06 0.000291129
0.000232354 5.3722e-05 1.65024e-06
5.3722e-05 -0.000144681 -3.54327e-06
1.65024e-06 -3.54327e-06 -0.000223352
0.000512617 4.42977e-05 1.08103e-06
4.42977e-05 -4.24396e-05 -1.78756e-07
1.08103e-06 -1.78756e-07 -0.000127944
0.000755002 4.58722e-05 -6.53043e-07
4.58722e-05 0.000114109 -1.31579e-06
-6.53043e-07 -1.31579e-06 2.87056e-06
0.000787818 -6.41907e-06 -3.65535e-07
-6.41907e-06 0.00011057 5.3229e-07
-3.65535e-07 5.3229e-07 7.96072e-06
0.000786786 -1.85407e-06 1.33576e-06
-1.85407e-06 0.000114647 -2.52154e-07
1.33576e-06 -2.52154e-07 1.14682e-05
0.000580091 2.82546e-05 7.20905e-08
2.82546e-05 -7.02076e-06 2.39101e-06
7.20905e-08 2.39101e-06 -9.62735e-05
0.000795763 4.07393e-05 1.23902e-08
4.07393e-05 0.000136195 -7.34191e-07
1.23902e-08 -7.34191e-07 2.27074e-05
0.000887565 3.19261e-05 -9.5167e-08
3.19261e-05 0.000162781 2.50394e-07
-9.5167e-08 2.50394e-07 6.74229e-05
0.000806509 -3.26261e-05 -2.52883e-07
-3.26261e-05 0.000123424 4.69047e-07
-2.52883e-07 4.69047e-07 1.36284e-05
0.000237022 3.45361e-05 5.83476e-08
3.45361e-05 -0.000174377 3.29299e-07
5.83476e-08 3.29299e-07 -0.000268987
-0.000187413 1.96989e-05 -2.58759e-06
1.96989e-05 -0.00031173 -2.33712e-06
-2.58759e-06 -2.33712e-06 -0.000410074
0.000923589 -3.57266e-06 -2.37651e-06
-3.57266e-06 0.000193019 -2.24399e-06
-2.37651e-06 -2.24399e-06 8.81822e-05
0.000937002 6.6577e-06 -3.82811e-07
6.6577e-06 0.000217444 -1.17841e-06
-3.82811e-07 -1.17841e-06 8.89157e-05
0.000819693 -5.09279e-05 -9.05404e-09
-5.09279e-05 0.000152437 -7.34473e-07
-9.05404e-09 -7.34473e-07 4.00391e-05
0.000879247 -1.66239e-05 -3.59153e-07
-1.66239e-05 0.000163773 9.06849e-07
-3.59153e-07 9.06849e-07 6.89133e-05
0.000840754 -4.07879e-05 3.09177e-07
-4.07879e-05 0.000154903 -5.05304e-07
3.09177e-07 -5.05304e-07 4.23664e-05
0.000774002 2.29457e-05 -2.66138e-07
2.29457e-05 0.000114353 -1.16458e-07
-2.66138e-07 -1.16458e-07 1.64672e-05
0.000563367 -3.29128e-05 -4.67351e-08
-3.29128e-05 -2.19346e-05 6.45455e-07
-4.67351e-08 6.45455e-07 -0.000109145
0.000657465 2.92656e-05 7.97652e-07
2.92656e-05 5.02351e-05 6.91579e-07
7.97652e-07 6.91579e-07 -4.55723e-05
0.000502737 -7.86044e-06 -7.05459e-07
-7.86044e-06 -3.52045e-05 -3.05336e-06
-7.05459e-07 -3.05336e-06 -0.000140014
0.000550898 -2.32274e-05 1.39179e-06
-2.32274e-05 -2.37352e-05 -8.19909e-07
1.39179e-06 -8.19909e-07 -0.000109787
0.000812837 -1.02285e-05 3.02311e-06
-1.02285e-05 0.000110233 -4.05215e-06
3.02311e-06 -4.05215e-06 1.54806e-05
0.000151257 -3.8344e-05 7.89548e-07
-3.8344e-05 -0.000224181 5.36929e-07
7.89548e-07 5.36929e-07 -0.000367771
0.000338413 2.15938e-05 -4.4654e-07
2.15938e-05 -0.000120349 -7.07532e-07
-4.4654e-07 -7.07532e-07 -0.000224617
0.000730704 1.41131e-05 2.84728e-07
1.41131e-05 9.16086e-05 3.93819e-07
2.84728e-07 3.93819e-07 -6.87708e-06
0.000665477 5.46273e-06 -1.32898e-07
5.46273e-06 4.86999e-05 5.38616e-07
-1.32898e-07 5.38616e-07 -3.77623e-05
0.000731454 -1.33228e-05 -6.22168e-08
-1.33228e-05 9.61396e-05 -1.91934e-08
-6.22168e-08 -1.91934e-08 2.38087e-06
0.000629955 8.49716e-06 -6.12173e-07
8.49716e-06 2.09939e-05 8.69814e-07
-6.12173e-07 8.69814e-07 -5.21201e-05
0.000772505 -1.03387e-05 2.6778e-07
-1.03387e-05 0.000119155 -1.31635e-07
2.6778e-07 -1.31635e-07 2.30193e-05
0.000699134 -3.37144e-05 -3.28984e-07
-3.37144e-05 6.11085e-05 5.78569e-08
-3.28984e-07 5.78569e-08 -1.45448e-05
0.000614298 4.13583e-05 -6.662e-07
4.13583e-05 -7.24845e-06 2.14483e-06
-6.662e-07 2.14483e-06 -5.68725e-05
0.000593133 -5.6247e-05 1.33848e-06
-5.6247e-05 -4.42694e-06 -8.88848e-07
1.33848e-06 -8.88848e-07 -8.28481e-05
0.000638329 1.00325e-05 -2.55197e-07
1.00325e-05 6.67412e-06 -2.94797e-08
-2.55197e-07 -2.94797e-08 -4.16529e-05
0.00136953 2.53291e-05 -4.701e-06
2.53291e-05 0.000417221 5.29109e-06
-4.701e-06 5.29109e-06 0.000406627
0.000630338 -1.05888e-05 7.35306e-07
-1.05888e-05 6.38229e-06 -1.89006e-06
7.35306e-07 -1.89006e-06 -4.25905e-05
0.000975177 1.51829e-05 -2.49727e-06
1.51829e-05 0.000185018 7.50088e-07
-2.49727e-06 7.50088e-07 0.000173012
0.000793956 1.45261e-05 -3.03181e-07
1.45261e-05 7.86162e-05 1.96724e-06
-3.03181e-07 1.96724e-06 8.73004e-05
0.000590403 6.31156e-06 4.44177e-07
6.31156e-06 -4.16259e-05 -3.69332e-06
4.44177e-07 -3.69332e-06 -5.53225e-05
0.00232836 1.28751e-05 3.64714e-06
1.28751e-05 0.000977811 4.18192e-08
3.64714e-06 4.18192e-08 0.000994288
0.00232537 1.85575e-06 -4.01627e-07
1.85575e-06 0.000975512 -5.16686e-06
-4.01627e-07 -5.16686e-06 0.000992181
0.00099813 7.05649e-05 -1.29909e-06
7.05649e-05 0.000245808 -1.40886e-06
-1.29909e-06 -1.40886e-06 0.000171778
0.000648261 2.60663e-05 -9.31738e-07
2.60663e-05 1.51771e-05 -2.16069e-06
-9.31738e-07 -2.16069e-06 -2.37581e-05
0.000671765 -5.0663e-06 6.96411e-07
-5.0663e-06 6.04804e-05 8.57051e-07
6.96411e-07 8.57051e-07 -1.54091e-05
0.000624861 2.39226e-06 4.12478e-08
2.39226e-06 -2.56234e-05 -3.44705e-06
4.12478e-08 -3.44705e-06 -3.17847e-05
0.000639215 -6.91733e-06 2.36507e-07
-6.91733e-06 8.43988e-06 -3.20588e-08
2.36507e-07 -3.20588e-08 -2.84678e-05
0.000645843 -2.26027e-05 -1.37016e-06
-2.26027e-05 1.06434e-05 1.65162e-06
-1.37016e-06 1.65162e-06 -2.64731e-05
0.000611969 7.94527e-06 -1.83925e-07
7.94527e-06 -3.2468e-05 -2.17369e-08
-1.83925e-07 -2.17369e-08 -3.8663e-05
0.00203987 1.24977e-05 3.49201e-06
1.24977e-05 0.000809198 -4.67753e-06
3.49201e-06 -4.67753e-06 0.000828665
0.00119513 2.00846e-05 -6.98702e-07
2.00846e-05 0.000310813 2.02767e-06
-6.98702e-07 2.02767e-06 0.000307321
0.00142708 2.11282e-05 1.34788e-06
2.11282e-05 0.000451603 5.13334e-08
1.34788e-06 5.13334e-08 0.000466936
0.000871519 2.50292e-05 -1.35627e-05
2.50292e-05 0.000130116 7.14079e-06
-1.35627e-05 7.14079e-06 0.000140733
-0.00757768 0.000273933 0.000174091
0.000273933 -0.00340552 9.63025e-07
0.000174091 9.63025e-07 -0.00407169
-0.00199569 0.000113685 0.000188226
0.000113685 0.00122024 1.38053e-05
0.000188226 1.38053e-05 3.34454e-05
0.00390115 0.00020307 -0.000193384
0.00020307 0.000296638 -2.89664e-06
-0.000193384 -2.89664e-06 0.0003396
0.000486454 3.27417e-05 3.31972e-05
3.27417e-05 -0.000829313 -6.25234e-06
3.31972e-05 -6.25234e-06 -0.000836945
0.00133904 -2.08894e-05 1.82035e-05
-2.08894e-05 -0.000279776 -5.39097e-07
1.82035e-05 -5.39097e-07 -0.000293771
0.00056348 4.78932e-05 5.99709e-06
4.78932e-05 -0.000703503 -4.72548e-06
5.99709e-06 -4.72548e-06 -0.000716955
0.00246222 -9.21582e-05 5.10293e-07
-9.21582e-05 0.000238535 3.26593e-06
5.10293e-07 3.26593e-06 0.000205931
0.00814631 0.000137168 3.58652e-05
0.000137168 0.00151033 -2.86417e-05
3.58652e-05 -2.86417e-05 0.000507588
-0.00344207 0.000791911 -3.27567e-05
0.000791911 -0.00100824 -7.62769e-06
-3.27567e-05 -7.62769e-06 -0.00188131
-0.00173018 0.00155256 -8.79984e-05
0.00155256 -0.000473084 4.07226e-05
-8.79984e-05 4.07226e-05 0.000895731
0.00128409 -0.00019177 5.46202e-05
-0.00019177 -0.000728744 6.0806e-06
5.46202e-05 6.0806e-06 -0.000932165
0.0110406 -0.00013413 6.93992e-05
-0.00013413 0.00329184 -2.89068e-05
6.93992e-05 -2.89068e-05 0.00190687
0.00177082 0.00147903 0.000113765
0.00147903 -0.000205282 -0.000201455
0.000113765 -0.000201455 0.000361517
0.00535487 0.00111744 -0.000136375
0.00111744 0.000333231 9.55643e-05
-0.000136375 9.55643e-05 0.000782843
0.000726463 6.99602e-05 -9.59164e-07
6.99602e-05 0.000117295 -1.96797e-07
-9.59164e-07 -1.96797e-07 -2.21765e-06
0.0005703 1.20921e-05 -2.6422e-07
1.20921e-05 3.94448e-06 -7.13162e-07
-2.6422e-07 -7.13162e-07 -8.1934e-05
0.000698138 -8.07908e-05 -1.18787e-06
-8.07908e-05 7.6802e-05 1.22711e-06
-1.18787e-06 1.22711e-06 1.54961e-06
0.000579614 -1.06656e-06 5.5111e-09
-1.06656e-06 1.30993e-05 6.34619e-07
5.5111e-09 6.34619e-07 -7.83444e-05
0.00071611 6.59564e-05 9.19233e-07
6.59564e-05 0.000107853 1.47068e-06
9.19233e-07 1.47068e-06 9.6273e-07
0.000860338 7.453e-05 2.64849e-08
7.453e-05 0.000185958 -3.56739e-07
2.64849e-08 -3.56739e-07 6.7127e-05
0.000764918 8.55873e-05 1.65893e-06
8.55873e-05 0.000128481 1.70156e-06
1.65893e-06 1.70156e-06 1.95388e-05
0.000697106 5.62068e-06 1.71166e-06
5.62068e-06 7.59005e-05 -6.19491e-07
1.71166e-06 -6.19491e-07 -2.71356e-05
0.000668911 -1.63427e-05 5.77367e-07
-1.63427e-05 7.03138e-05 -1.00633e-06
5.77367e-07 -1.00633e-06 -2.99492e-05
0.00054765 -8.72217e-06 -6.98285e-07
-8.72217e-06 -1.17765e-05 9.54041e-07
-6.98285e-07 9.54041e-07 -9.79555e-05
0.00150147 -0.000169897 1.45102e-05
-0.000169897 -0.00020175 -8.42163e-07
1.45102e-05 -8.42163e-07 -0.000159858
0.00162256 -0.000339043 1.84312e-05
-0.000339043 -0.000167887 -3.95893e-06
1.84312e-05 -3.95893e-06 -0.000179656
4.10041e-05 -0.000348135 1.4191e-05
-0.000348135 -0.000808927 2.20116e-06
1.4191e-05 2.20116e-06 -0.000944557
0.0011215 -0.000377654 2.06417e-06
-0.000377654 0.000116315 -6.4268e-07
2.06417e-06 -6.4268e-07 -0.000121141
0.001568 -0.000189421 -5.56862e-08
-0.000189421 0.000718397 7.64589e-06
-5.56862e-08 7.64589e-06 0.000403465
0.00107531 -0.000153273 2.24784e-07
-0.000153273 0.000353814 5.36555e-07
2.24784e-07 5.36555e-07 0.000166388
0.000930808 -6.74088e-05 -9.51129e-07
-6.74088e-05 0.000210892 3.38252e-07
-9.51129e-07 3.38252e-07 0.000102753
0.000714179 3.43648e-05 -1.61597e-06
3.43648e-05 0.00010734 2.05988e-06
-1.61597e-06 2.05988e-06 -7.61896e-06
0.00173942 -0.000217459 9.51978e-07
-0.000217459 -4.26137e-05 -1.4208e-06
9.51978e-07 -1.4208e-06 -3.6369e-05
0.00064659 -5.1307e-05 -2.7132e-07
-5.1307e-05 6.87106e-05 -2.06536e-07
-2.7132e-07 -2.06536e-07 -6.35363e-05
0.00048144 -7.02959e-05 8.29987e-07
-7.02959e-05 -9.80224e-07 -1.38635e-06
8.29987e-07 -1.38635e-06 -0.000145988
0.00210412 -0.000442967 4.62257e-06
-0.000442967 0.000174101 -6.02124e-07
4.62257e-06 -6.02124e-07 0.000169253
0.00099815 -0.00046181 9.709e-07
-0.00046181 -0.000188489 3.41437e-06
9.709e-07 3.41437e-06 -0.000345466
0.000873518 -0.000352691 9.02766e-06
-0.000352691 0.000110199 -3.31705e-06
9.02766e-06 -3.31705e-06 -0.00015085
0.00142452 -0.000104403 -4.89268e-07
-0.000104403 0.000634927 -3.2875e-06
-4.89268e-07 -3.2875e-06 0.000359463
0.00108024 -0.000293086 -1.91119e-05
-0.000293086 -5.26626e-05 2.44913e-07
-1.91119e-05 2.44913e-07 -0.000296549
0.00119989 -0.000351337 -2.97361e-05
-0.000351337 1.78769e-06 1.04912e-05
-2.97361e-05 1.04912e-05 -4.00798e-05
-0.000239196 -0.000200593 -1.93121e-05
-0.000200593 -0.000316374 3.80327e-05
-1.93121e-05 3.80327e-05 -0.000605118
0.000497277 3.24615e-05 4.68762e-07
3.24615e-05 -1.61009e-05 1.31523e-06
4.68762e-07 1.31523e-06 -0.000145756
0.000499705 -0.000104081 2.59389e-06
-0.000104081 1.41462e-06 -1.31245e-06
2.59389e-06 -1.31245e-06 -0.000143864
0.000732641 -7.3114e-05 2.44089e-06
-7.3114e-05 0.00019529 -6.814e-06
2.44089e-06 -6.814e-06 -1.01504e-05
0.000432437 0.000151017 -0.000126975
0.000151017 0.00300308 1.70589e-06
-0.000126975 1.70589e-06 0.00166477
0.0019858 -0.00030372 1.83785e-05
-0.00030372 0.00146403 1.80203e-05
1.83785e-05 1.80203e-05 0.00133914
0.000402808 0.000576204 -6.14463e-05
0.000576204 -0.00278261 1.9088e-05
-6.14463e-05 1.9088e-05 -0.00338563
0.000733161 0.000144344 4.50633e-06
0.000144344 0.000143984 9.173e-07
4.50633e-06 9.173e-07 1.35767e-05
0.000643427 0.000207287 4.74261e-06
0.000207287 5.95036e-05 5.19866e-06
4.74261e-06 5.19866e-06 -0.000152455
0.00230729 0.00036372 1.78125e-05
0.00036372 0.0003457 1.18764e-05
1.78125e-05 1.18764e-05 0.000395951
0.00186599 0.000395337 1.56403e-05
0.000395337 0.000505938 1.27042e-05
1.56403e-05 1.27042e-05 0.000241758
0.00619132 -0.000606643 5.13471e-05
-0.000606643 0.00240781 3.18569e-05
5.13471e-05 3.18569e-05 0.00255065
0.00185405 -4.47574e-05 -0.000115597
-4.47574e-05 -0.00150911 -1.0229e-05
-0.000115597 -1.0229e-05 -0.00305863
0.00295781 0.00101047 -8.45798e-05
0.00101047 -0.000335597 -2.03879e-05
-8.45798e-05 -2.03879e-05 -0.00107803
0.000500751 0.000198255 2.58841e-05
0.000198255 -0.000150267 -2.05517e-05
2.58841e-05 -2.05517e-05 -0.000136767
-0.00367065 -0.000688431 -6.76548e-05
-0.000688431 -0.00116784 -9.50799e-05
-6.76548e-05 -9.50799e-05 -0.00147633
-0.000348301 -0.000654481 -5.46651e-05
-0.000654481 0.00100724 7.80637e-06
-5.46651e-05 7.80637e-06 -0.000490214
0.00784805 -0.0013751 0.00016081
-0.0013751 0.00071221 0.000129058
0.00016081 0.000129058 0.00216433
0.000664271 0.000106344 5.06452e-06
0.000106344 0.000131293 -2.54314e-06
5.06452e-06 -2.54314e-06 9.04442e-06
-0.00153338 -8.15606e-06 -6.59876e-05
-8.15606e-06 0.00156255 -2.02405e-05
-6.59876e-05 -2.02405e-05 -0.000184891
0.00306963 0.000226579 -1.27894e-05
0.000226579 0.00131937 -5.34359e-05
-1.27894e-05 -5.34359e-05 -0.000799792
0.0011711 0.000334024 -7.51969e-06
0.000334024 9.91903e-05 4.03698e-06
-7.51969e-06 4.03698e-06 4.3792e-05
0.000608989 0.000240846 -1.99986e-07
0.000240846 0.000118137 1.97571e-06
-1.99986e-07 1.97571e-06 -0.000115038
-0.000192658 0.000225832 3.11398e-05
0.000225832 -0.000281446 -3.25519e-05
3.11398e-05 -3.25519e-05 -0.00051727
0.00546607 0.00122673 -8.29433e-06
0.00122673 0.0017676 3.2314e-06
-8.29433e-06 3.2314e-06 0.00107234
0.0102415 0.000504909 5.06607e-05
0.000504909 0.00365882 1.9102e-05
5.06607e-05 1.9102e-05 0.00181533
0.00284844 -0.000929755 1.48426e-05
-0.000929755 -0.000796879 -2.9799e-05
1.48426e-05 -2.9799e-05 -0.000973745
0.00808292 -0.000903236 8.50546e-06
-0.000903236 0.000989103 -2.66427e-05
8.50546e-06 -2.66427e-05 0.00221072
0.00108394 0.00019023 -1.23807e-05
0.00019023 0.00041856 -8.4057e-06
-1.23807e-05 -8.4057e-06 0.000300514
0.0024655 1.93679e-05 -8.9375e-05
1.93679e-05 0.000794542 -3.44651e-05
-8.9375e-05 -3.44651e-05 -0.000575759
0.000325076 7.3551e-05 -2.04732e-05
7.3551e-05 0.00027877 -8.07318e-05
-2.04732e-05 -8.07318e-05 -0.00115633
-0.000966248 4.321e-05 -1.63474e-05
4.321e-05 -0.000475477 -1.77026e-05
-1.63474e-05 -1.77026e-05 -0.000624447
0.00197015 0.000363817 -2.88571e-05
0.000363817 0.000747548 4.37177e-05
-2.88571e-05 4.37177e-05 8.97469e-05
0.00939501 0.000808229 3.21459e-05
0.000808229 0.00388326 -2.00939e-06
3.21459e-05 -2.00939e-06 0.00114376
-0.00687365 -0.00138384 -3.77844e-05
-0.00138384 -0.00396818 9.65305e-05
-3.77844e-05 9.65305e-05 -0.00569565
0.00631862 0.00032438 5.98913e-06
0.00032438 -0.000777311 -0.000133125
5.98913e-06 -0.000133125 0.000754178
0.000999535 9.31339e-05 2.1501e-06
9.31339e-05 0.000249358 6.31654e-06
2.1501e-06 6.31654e-06 0.000168104
0.000918218 0.000107495 -3.91051e-06
0.000107495 0.000255403 -9.09698e-07
-3.91051e-06 -9.09698e-07 0.000169784
0.00046213 7.05802e-05 -3.91924e-06
7.05802e-05 0.000121269 1.49675e-07
-3.91924e-06 1.49675e-07 5.23992e-06
0.000805048 7.7702e-05 -2.11566e-06
7.7702e-05 0.000132026 -8.48047e-07
-2.11566e-06 -8.48047e-07 2.4904e-05
0.000856017 -3.23343e-05 -5.84946e-07
-3.23343e-05 0.000161526 3.40857e-07
-5.84946e-07 3.40857e-07 4.52691e-05
0.000699768 3.55691e-05 4.18768e-07
3.55691e-05 5.41833e-05 1.10695e-06
4.18768e-07 1.10695e-06 -4.23785e-05
0.000256194 2.86583e-05 1.31825e-06
2.86583e-05 -0.000152883 1.64105e-06
1.31825e-06 1.64105e-06 -0.000246835
0.000847355 -1.58391e-06 9.32769e-07
-1.58391e-06 0.000149908 1.20481e-07
9.32769e-07 1.20481e-07 3.29682e-05
0.000881003 1.64531e-05 4.56061e-08
1.64531e-05 0.000173432 -6.84429e-07
4.56061e-08 -6.84429e-07 6.6972e-05
0.000350092 7.82061e-08 -5.92432e-07
7.82061e-08 7.52321e-06 2.2309e-06
-5.92432e-07 2.2309e-06 -9.9966e-05
0.000209808 1.50182e-05 -5.87096e-06
1.50182e-05 8.16142e-05 -1.15134e-06
-5.87096e-06 -1.15134e-06 -4.76635e-05
0.00087283 -1.37181e-05 -1.95234e-06
-1.37181e-05 0.000271752 -6.86648e-06
-1.95234e-06 -6.86648e-06 0.000166095
0.000975159 4.17386e-05 -1.04995e-06
4.17386e-05 0.000235942 -3.03251e-06
-1.04995e-06 -3.03251e-06 0.000117339
0.00086 -8.93159e-05 1.33807e-06
-8.93159e-05 0.000155374 7.99308e-07
1.33807e-06 7.99308e-07 4.92635e-05
0.000773289 2.50312e-05 -4.99226e-07
2.50312e-05 0.000111065 -1.59837e-07
-4.99226e-07 -1.59837e-07 1.4527e-05
0.000713745 -4.02042e-05 -1.93259e-06
-4.02042e-05 6.57633e-05 2.27089e-06
-1.93259e-06 2.27089e-06 -2.11385e-05
0.000581616 -1.98451e-05 1.12486e-06
-1.98451e-05 6.91411e-07 9.32605e-07
1.12486e-06 9.32605e-07 -9.75571e-05
0.000733852 2.57135e-05 3.32773e-07
2.57135e-05 9.51141e-05 1.54733e-07
3.32773e-07 1.54733e-07 -2.19885e-06
0.000673949 -5.6175e-06 -7.0431e-07
-5.6175e-06 4.69888e-05 8.75853e-08
-7.0431e-07 8.75853e-08 -3.88797e-05
0.000925271 1.15219e-06 -3.19911e-08
1.15219e-06 0.00018592 -2.03825e-06
-3.19911e-08 -2.03825e-06 9.56478e-05
0.000245202 -2.70826e-05 2.6779e-06
-2.70826e-05 -0.000166893 -3.70967e-06
2.6779e-06 -3.70967e-06 -0.00024266
0.000434173 -8.73119e-05 1.26466e-06
-8.73119e-05 -0.000150545 -8.81058e-07
1.26466e-06 -8.81058e-07 -0.000245407
0.000896756 -3.54219e-05 -1.93975e-06
-3.54219e-05 0.000164256 -3.30998e-07
-1.93975e-06 -3.30998e-07 6.50268e-05
0.000456673 -7.47896e-05 3.70602e-06
-7.47896e-05 -6.08555e-05 2.0183e-06
3.70602e-06 2.0183e-06 -0.00019397
0.00107964 -0.000207221 -3.41246e-07
-0.000207221 0.000263393 6.17958e-06
-3.41246e-07 6.17958e-06 5.92538e-05
0.00123887 -8.9508e-05 1.56935e-06
-8.9508e-05 0.000401489 -1.31561e-06
1.56935e-06 -1.31561e-06 0.000276763
0.000331346 -6.01752e-05 -1.80282e-06
-6.01752e-05 -0.000108217 -3.81088e-06
-1.80282e-06 -3.81088e-06 -0.000250635
0.000647292 9.226e-06 -3.21098e-07
9.226e-06 5.03163e-05 -3.01753e-07
-3.21098e-07 -3.01753e-07 -5.20572e-05
0.000389426 1.04477e-05 4.72197e-07
1.04477e-05 -0.000100494 2.38013e-07
4.72197e-07 2.38013e-07 -0.000194482
0.000842355 2.59487e-06 -1.51279e-07
2.59487e-06 0.000154956 6.00685e-07
-1.51279e-07 6.00685e-07 5.50335e-05
0.000751869 -2.1874e-05 -5.83178e-07
-2.1874e-05 0.000106446 5.24322e-07
-5.83178e-07 5.24322e-07 1.2683e-05
0.000655904 -4.08715e-06 -7.12531e-07
-4.08715e-06 3.30387e-05 9.14617e-07
-7.12531e-07 9.14617e-07 -3.87881e-05
0.000821948 -4.08418e-05 3.03476e-07
-4.08418e-05 0.000158959 -5.0147e-07
3.03476e-07 -5.0147e-07 5.64168e-05
0.00069993 -3.80755e-05 -4.97319e-07
-3.80755e-05 6.29377e-05 5.15331e-09
-4.97319e-07 5.15331e-09 -1.21401e-05
0.00063189 3.24902e-05 -1.70933e-06
3.24902e-05 1.58089e-06 1.83242e-06
-1.70933e-06 1.83242e-06 -4.74851e-05
0.000734672 -6.77023e-05 1.53548e-06
-6.77023e-05 8.47753e-05 -1.04932e-06
1.53548e-06 -1.04932e-06 6.71601e-06
0.000669384 1.00526e-06 -2.79827e-07
1.00526e-06 2.08734e-05 1.71465e-08
-2.79827e-07 1.71465e-08 -2.65606e-05
0.00135991 3.46909e-05 -6.99509e-06
3.46909e-05 0.000413082 5.25265e-06
-6.99509e-06 5.25265e-06 0.000402079
0.00064916 -1.86605e-05 1.79359e-06
-1.86605e-05 1.31662e-05 -1.94907e-06
1.79359e-06 -1.94907e-06 -3.53729e-05
0.000978183 2.31546e-05 -3.37974e-06
2.31546e-05 0.000187557 7.10699e-07
-3.37974e-06 7.10699e-07 0.000175204
0.000798696 2.26736e-05 -6.86137e-07
2.26736e-05 8.5213e-05 1.99735e-06
-6.86137e-07 1.99735e-06 9.28313e-05
0.000582967 1.24584e-05 4.53658e-07
1.24584e-05 -4.56525e-05 -3.75757e-06
4.53658e-07 -3.75757e-06 -5.94534e-05
0.00155586 2.18786e-05 5.3464e-06
2.18786e-05 0.000525962 -1.471e-06
5.3464e-06 -1.471e-06 0.000538286
0.00232268 1.52044e-05 4.09414e-06
1.52044e-05 0.00097479 -5.06411e-06
4.09414e-06 -5.06411e-06 0.000991209
0.000745729 -5.78855e-07 9.28806e-07
-5.78855e-07 9.13727e-05 -1.49039e-06
9.28806e-07 -1.49039e-06 1.52716e-05
0.000672374 2.05781e-05 -5.30117e-07
2.05781e-05 2.75388e-05 -2.23239e-06
-5.30117e-07 -2.23239e-06 -1.29895e-05
0.000737665 -2.09409e-06 9.27042e-07
-2.09409e-06 9.27788e-05 1.96476e-07
9.27042e-07 1.96476e-07 1.88255e-05
0.000618232 -3.69263e-06 7.79942e-08
-3.69263e-06 -2.94066e-05 -3.59418e-06
7.79942e-08 -3.59418e-06 -3.62142e-05
0.000640973 1.68557e-05 5.0542e-08
1.68557e-05 1.02686e-05 -1.21586e-08
5.0542e-08 -1.21586e-08 -2.81303e-05
0.00067312 -7.74359e-05 -3.17461e-06
-7.74359e-05 5.61627e-05 1.97477e-06
-3.17461e-06 1.97477e-06 -1.55804e-05
0.00204475 5.13137e-07 -1.10844e-06
5.13137e-07 0.0008108 -4.75081e-06
-1.10844e-06 -4.75081e-06 0.000830551
0.00061544 2.2452e-06 -1.55648e-07
2.2452e-06 -3.09208e-05 -7.06297e-09
-1.55648e-07 -7.06297e-09 -3.7056e-05
0.000625247 -1.57172e-05 -1.22942e-06
-1.57172e-05 -1.80212e-07 1.80609e-06
-1.22942e-06 1.80609e-06 -3.6819e-05
0.000601426 7.8482e-06 -3.36717e-07
7.8482e-06 -3.87034e-05 3.38453e-06
-3.36717e-07 3.38453e-06 -4.48575e-05
0.00205354 1.38236e-05 -3.51604e-06
1.38236e-05 0.000817377 -4.16638e-08
-3.51604e-06 -4.16638e-08 0.000836755
0.00204711 2.51446e-05 -1.02385e-05
2.51446e-05 0.000816002 4.41016e-06
-1.02385e-05 4.41016e-06 0.000834794
-0.0033655 -0.000214079 -3.71704e-05
-0.000214079 0.000936572 1.3315e-05
-3.71704e-05 1.3315e-05 -0.000812122
-0.00105712 0.000398716 -5.53366e-05
0.000398716 -0.000493911 1.30365e-05
-5.53366e-05 1.30365e-05 -0.000918223
0.003398 -0.000247736 -0.000178189
-0.000247736 0.000996585 0.000139419
-0.000178189 0.000139419 -0.000888932
-0.00277992 0.000150125 0.000255568
0.000150125 0.00128704 -0.000112732
0.000255568 -0.000112732 0.00019506
0.00111865 0.000189362 -5.85681e-05
0.000189362 -0.000710698 1.27002e-05
-5.85681e-05 1.27002e-05 -0.000838342
0.00225081 -0.000138915 9.63721e-05
-0.000138915 6.68595e-05 -9.72126e-06
9.63721e-05 -9.72126e-06 4.61438e-05
0.00169652 -0.000406022 -6.24987e-05
-0.000406022 -0.00151743 -5.27154e-05
-6.24987e-05 -5.27154e-05 -0.00269547
0.00862643 0.000829785 -7.21956e-05
0.000829785 0.00423 -1.70417e-05
-7.21956e-05 -1.70417e-05 0.00380783
-0.0074903 0.00171082 -0.000428718
0.00171082 -0.00381168 0.00033597
-0.000428718 0.00033597 -0.0018667
0.00251636 -6.54346e-05 -1.03481e-05
-6.54346e-05 -0.000192688 -4.69687e-06
-1.03481e-05 -4.69687e-06 -0.00037119
0.00425486 -0.000271098 3.72615e-05
-0.000271098 -6.15096e-06 -4.93014e-05
3.72615e-05 -4.93014e-05 -0.00198434
0.00926924 0.00155221 -5.56777e-05
0.00155221 0.00295723 -6.32811e-05
-5.56777e-05 -6.32811e-05 0.00359015
0.00257823 0.00106118 -5.72066e-05
0.00106118 -0.00138754 0.000131737
-5.72066e-05 0.000131737 -0.00082973
0.00231719 -0.000554012 -5.71701e-05
-0.000554012 -0.000639574 1.64169e-05
-5.71701e-05 1.64169e-05 -0.0008798
0.00255751 -0.000659677 0.000164592
-0.000659677 0.000290397 -0.000115666
0.000164592 -0.000115666 -0.00273652
-0.00516079 0.000729128 -5.22779e-05
0.000729128 -0.00447421 -0.000256489
-5.22779e-05 -0.000256489 -0.00442633
0.0024656 0.000658163 -4.68529e-05
0.000658163 -0.00292566 -4.19697e-06
-4.68529e-05 -4.19697e-06 -0.00172917
0.000790898 -1.38343e-05 8.93027e-07
-1.38343e-05 0.000155333 -1.19718e-08
8.93027e-07 -1.19718e-08 2.64156e-05
0.000725363 5.81878e-05 -1.81148e-06
5.81878e-05 0.000112366 -8.80222e-07
-1.81148e-06 -8.80222e-07 -1.58136e-06
0.000678864 5.41427e-05 -1.28189e-08
5.41427e-05 6.42596e-05 -6.93919e-07
-1.28189e-08 -6.93919e-07 -1.82162e-05
0.000638757 6.66379e-05 2.43623e-06
6.66379e-05 6.56113e-05 1.86971e-06
2.43623e-06 1.86971e-06 -3.97356e-05
0.000690222 3.62517e-05 1.08234e-08
3.62517e-05 8.60214e-05 -4.51414e-08
1.08234e-08 -4.51414e-08 -4.55506e-05
0.000840839 7.52952e-05 1.81668e-07
7.52952e-05 0.000176586 1.03601e-06
1.81668e-07 1.03601e-06 5.85374e-05
0.000684825 2.00538e-05 -1.07346e-06
2.00538e-05 7.87107e-05 2.02309e-06
-1.07346e-06 2.02309e-06 -2.64272e-05
0.000893105 0.00011176 1.56859e-07
0.00011176 0.000209489 1.12175e-07
1.56859e-07 1.12175e-07 8.69124e-05
0.000842794 6.30564e-05 -1.70975e-07
6.30564e-05 0.000178499 5.23528e-07
-1.70975e-07 5.23528e-07 6.41918e-05
0.000587969 -5.39486e-06 -1.9861e-06
-5.39486e-06 2.58615e-05 3.5349e-07
-1.9861e-06 3.5349e-07 -7.77415e-05
0.0010656 -0.000200525 3.36793e-05
-0.000200525 -0.000377555 -1.43743e-05
3.36793e-05 -1.43743e-05 -0.000352384
0.000861997 -0.000378781 2.93761e-05
-0.000378781 -0.000464297 -4.77975e-06
2.93761e-05 -4.77975e-06 -0.000478423
0.00138888 -0.000493071 1.64003e-05
-0.000493071 2.66562e-05 -2.51459e-06
1.64003e-05 -2.51459e-06 -0.000129701
0.000991862 -0.000384587 8.98243e-06
-0.000384587 0.000163197 -1.6814e-05
8.98243e-06 -1.6814e-05 -0.000127455
0.00156597 -0.000133669 -1.3483e-06
-0.000133669 0.000682734 1.18875e-05
-1.3483e-06 1.18875e-05 0.000427753
0.000681838 -8.57987e-05 -1.3723e-06
-8.57987e-05 0.000120671 4.33025e-06
-1.3723e-06 4.33025e-06 -3.24109e-05
0.000613108 6.69749e-05 -5.95859e-07
6.69749e-05 5.44254e-05 -1.05834e-06
-5.95859e-07 -1.05834e-06 -8.11e-05
0.000748506 -5.15946e-05 -5.3432e-07
-5.15946e-05 0.000132536 1.4204e-06
-5.3432e-07 1.4204e-06 -6.15692e-06
0.00145897 -0.000275243 -1.79262e-06
-0.000275243 0.000105202 -2.65113e-07
-1.79262e-06 -2.65113e-07 -5.0738e-05
0.000815947 -8.01757e-06 1.8797e-07
-8.01757e-06 0.00018093 5.33951e-07
1.8797e-07 5.33951e-07 3.38993e-05
0.00129471 -0.000112186 -1.63073e-08
-0.000112186 0.000521565 2.02223e-07
-1.63073e-08 2.02223e-07 0.000305007
0.00118497 -0.000355595 -1.97625e-06
-0.000355595 -3.22721e-05 -1.6014e-06
-1.97625e-06 -1.6014e-06 -6.90531e-05
0.000932669 -0.000245539 -1.44624e-05
-0.000245539 0.00029889 4.86117e-06
-1.44624e-05 4.86117e-06 2.59535e-05
1.93354e-05 -0.000371517 -1.44986e-05
-0.000371517 -0.000689838 -2.10016e-05
-1.44986e-05 -2.10016e-05 -0.00066623
0.000849127 -0.000174743 -1.89449e-05
-0.000174743 0.000234142 2.4231e-05
-1.89449e-05 2.4231e-05 0.000139325
-1.39673e-05 -4.83726e-05 -4.25675e-06
-4.83726e-05 -0.000172547 2.80583e-05
-4.25675e-06 2.80583e-05 -0.000394847
0.00066071 8.83105e-07 2.67245e-07
8.83105e-07 6.5978e-05 -4.53228e-07
2.67245e-07 -4.53228e-07 -6.83435e-05
0.000620653 2.52952e-05 1.72814e-06
2.52952e-05 0.000135422 -5.53803e-06
1.72814e-06 -5.53803e-06 -6.2234e-05
0.00169174 -4.11617e-05 -1.48776e-05
-4.11617e-05 0.000812992 -4.06621e-06
-1.48776e-05 -4.06621e-06 -0.000421343
-0.00188204 5.50546e-05 -9.95059e-05
5.50546e-05 0.00209769 -4.97869e-06
-9.95059e-05 -4.97869e-06 0.000454329
-0.00880738 -0.000401165 -0.000268217
-0.000401165 -0.00457447 4.57023e-06
-0.000268217 4.57023e-06 -0.00448463
-8.72244e-05 8.22239e-05 5.22837e-06
8.22239e-05 -0.000270949 -2.42995e-06
5.22837e-06 -2.42995e-06 -0.000404869
0.000144448 0.000124622 2.12078e-06
0.000124622 -0.000117204 4.43658e-06
2.12078e-06 4.43658e-06 -0.000343197
0.00167108 0.000319564 1.53437e-05
0.000319564 0.000369448 4.31251e-06
1.53437e-05 4.31251e-06 0.000309997
-0.00327986 0.000263114 -2.44272e-05
0.000263114 0.000825178 9.5749e-06
-2.44272e-05 9.5749e-06 -0.00107313
0.00185546 0.000489439 -7.31328e-05
0.000489439 0.000212748 -6.82316e-05
-7.31328e-05 -6.82316e-05 -0.00273911
0.00291985 0.000926949 0.000109712
0.000926949 0.000336927 2.13004e-05
0.000109712 2.13004e-05 -0.000196578
0.000499075 0.000283614 6.81919e-06
0.000283614 -2.55187e-05 -1.96295e-05
6.81919e-06 -1.96295e-05 -7.52772e-05
0.0113473 -0.00111168 1.63293e-05
-0.00111168 0.00338959 -8.09073e-05
1.63293e-05 -8.09073e-05 0.00326514
0.0035942 0.000245996 0.000108401
0.000245996 0.00160325 6.83949e-05
0.000108401 6.83949e-05 -0.000579611
0.00810618 -0.000796506 3.87865e-05
-0.000796506 0.00122289 4.0629e-06
3.87865e-05 4.0629e-06 0.00253364
0.00103325 0.000181048 2.81705e-06
0.000181048 0.000428863 -1.67871e-06
2.81705e-06 -1.67871e-06 0.000306057
0.00282807 2.49238e-05 6.29582e-06
2.49238e-05 0.00118338 -5.77241e-06
6.29582e-06 -5.77241e-06 -1.55729e-05
0.000754397 0.000100413 1.04264e-05
0.000100413 0.000230889 1.35015e-05
1.04264e-05 1.35015e-05 -0.00123126
-0.000206168 0.000170777 -7.74342e-06
0.000170777 -0.000127203 -1.39481e-06
-7.74342e-06 -1.39481e-06 -0.000311412
0.00255695 0.000542022 -6.51821e-05
0.000542022 0.00087755 -3.62588e-05
-6.51821e-05 -3.62588e-05 0.00018786
0.00243292 0.00124349 6.04141e-05
0.00124349 0.000678642 4.7527e-05
6.04141e-05 4.7527e-05 -0.00231449
0.00492973 0.000132252 -9.3271e-06
0.000132252 -0.00216722 -9.06244e-05
-9.3271e-06 -9.06244e-05 -0.000175005
0.00156655 -0.000840277 -2.54235e-05
-0.000840277 8.24451e-05 -2.79044e-05
-2.54235e-05 -2.79044e-05 -0.00112567
0.000855265 0.000126198 -6.12095e-06
0.000126198 0.0005099 -1.01115e-05
-6.12095e-06 -1.01115e-05 0.00037485
0.000819289 -5.71724e-05 -5.14085e-06
-5.71724e-05 0.000121259 -1.90754e-05
-5.14085e-06 -1.90754e-05 -3.09426e-05
0.00251668 -6.94972e-06 2.10314e-05
-6.94972e-06 0.000349184 -6.99391e-05
2.10314e-05 -6.99391e-05 -0.00073796
0.00262784 0.000696901 5.40376e-05
0.000696901 -0.00281029 3.01104e-06
5.40376e-05 3.01104e-06 -0.00172819
-0.000890141 6.75576e-05 -3.36164e-06
6.75576e-05 -0.000173018 -1.78003e-05
-3.36164e-06 -1.78003e-05 -0.000617388
0.0100161 0.000939342 0.000111191
0.000939342 0.00473581 4.50994e-05
0.000111191 4.50994e-05 0.00145475
-0.00906213 -0.000287111 6.23377e-05
-0.000287111 -0.000981277 0.000143469
6.23377e-05 0.000143469 -0.00263015
0.00176328 0.000181257 1.49077e-05
0.000181257 0.000747982 6.67305e-06
1.49077e-05 6.67305e-06 0.000652883
0.000639673 0.000103666 -3.45673e-06
0.000103666 0.000206663 7.65063e-08
-3.45673e-06 7.65063e-08 8.30924e-05
0.000420221 8.24142e-05 -7.25629e-06
8.24142e-05 0.00028112 4.33679e-07
-7.25629e-06 4.33679e-07 0.000133861
0.000792697 0.000126019 1.06341e-06
0.000126019 0.000127236 1.16255e-06
1.06341e-06 1.16255e-06 4.97893e-06
0.000736394 4.91243e-05 7.98099e-07
4.91243e-05 8.69327e-05 1.02838e-06
7.98099e-07 1.02838e-06 -1.54565e-05
0.000773592 -3.94243e-07 5.20498e-06
-3.94243e-07 0.00026471 5.75998e-06
5.20498e-06 5.75998e-06 0.000145624
0.000706807 4.04634e-05 -2.19982e-07
4.04634e-05 7.458e-05 -2.99484e-07
-2.19982e-07 -2.99484e-07 -3.63999e-05
0.000755957 -2.70098e-05 -5.34639e-07
-2.70098e-05 0.000209182 -1.36381e-06
-5.34639e-07 -1.36381e-06 9.89604e-05
0.000281399 1.8643e-05 8.20426e-06
1.8643e-05 0.00011887 3.21377e-06
8.20426e-06 3.21377e-06 -1.449e-05
0.00109823 1.99427e-05 -1.15722e-05
1.99427e-05 0.000546381 -1.08892e-05
-1.15722e-05 -1.08892e-05 0.00046631
0.000213728 -3.22025e-05 -2.70361e-06
-3.22025e-05 -0.000121515 -7.01237e-06
-2.70361e-06 -7.01237e-06 -0.000222591
0.000629704 -2.95876e-05 1.03154e-06
-2.95876e-05 1.76732e-05 3.11763e-06
1.03154e-06 3.11763e-06 -7.30011e-05
0.000790343 2.60469e-05 -3.10154e-07
2.60469e-05 0.000128311 -1.72343e-08
-3.10154e-07 -1.72343e-08 2.97723e-05
0.000837853 4.69573e-06 -4.31792e-06
4.69573e-06 0.000140766 2.81534e-06
-4.31792e-06 2.81534e-06 5.47796e-05
0.000717092 -2.98314e-05 2.02988e-06
-2.98314e-05 9.82898e-05 2.4086e-07
2.02988e-06 2.4086e-07 2.09558e-05
0.000704491 9.44841e-06 -2.44114e-07
9.44841e-06 6.29553e-05 1.70085e-07
-2.44114e-07 1.70085e-07 -2.89429e-05
0.000723434 -7.29066e-05 2.58114e-06
-7.29066e-05 9.52891e-05 -9.10299e-08
2.58114e-06 -9.10299e-08 2.98561e-06
0.000516303 -7.17122e-05 -1.75026e-06
-7.17122e-05 -7.3889e-05 -1.02165e-06
-1.75026e-06 -1.02165e-06 -0.000157984
0.000267276 -0.000143562 6.2235e-06
-0.000143562 -0.000188287 -1.05842e-07
6.2235e-06 -1.05842e-07 -0.000353797
0.00102297 -6.06276e-05 -7.54434e-07
-6.06276e-05 0.000241173 8.65073e-07
-7.54434e-07 8.65073e-07 0.000137536
0.00105822 -0.000130459 -6.18306e-07
-0.000130459 0.000273373 2.17088e-06
-6.18306e-07 2.17088e-06 0.00013066
0.000319853 -0.000165335 -7.68671e-07
-0.000165335 -0.000207736 3.94529e-06
-7.68671e-07 3.94529e-06 -0.000403896
0.000720686 -0.000182484 -5.91965e-06
-0.000182484 2.37496e-05 1.60236e-07
-5.91965e-06 1.60236e-07 -0.000178831
0.000974954 -0.000158566 -1.83545e-06
-0.000158566 0.000266731 3.35722e-06
-1.83545e-06 3.35722e-06 0.00010403
0.000580373 -0.000158876 1.19351e-06
-0.000158876 -1.91082e-05 3.1605e-07
1.19351e-06 3.1605e-07 -0.000213182
0.000839629 -5.11897e-05 7.38758e-07
-5.11897e-05 0.000158968 3.27862e-07
7.38758e-07 3.27862e-07 5.04605e-05
0.00102862 -8.41319e-05 -1.25797e-06
-8.41319e-05 0.000289002 -6.61238e-07
-1.25797e-06 -6.61238e-07 0.000159911
0.000528086 -8.25068e-05 1.3233e-06
-8.25068e-05 1.72044e-05 -7.704e-06
1.3233e-06 -7.704e-06 -0.000123385
0.000962345 -3.08218e-06 -8.011e-07
-3.08218e-06 0.000224287 -4.38657e-07
-8.011e-07 -4.38657e-07 0.000123917
0.000536268 3.12508e-06 2.45035e-07
3.12508e-06 -1.43094e-05 -5.20462e-08
2.45035e-07 -5.20462e-08 -0.0001098
0.000648712 8.53914e-06 -3.69591e-07
8.53914e-06 3.12726e-05 7.36282e-07
-3.69591e-07 7.36282e-07 -4.47257e-05
0.000803504 -3.82676e-05 1.27798e-08
-3.82676e-05 0.000144171 1.68114e-07
1.27798e-08 1.68114e-07 4.33876e-05
0.000699111 -2.13087e-05 -2.66425e-07
-2.13087e-05 6.4098e-05 1.79935e-08
-2.66425e-07 1.79935e-08 -1.26494e-05
0.000633748 3.20722e-05 -9.10521e-07
3.20722e-05 6.67308e-06 1.8291e-06
-9.10521e-07 1.8291e-06 -4.48228e-05
0.00074629 -5.49543e-05 7.68845e-07
-5.49543e-05 9.5261e-05 -1.1016e-06
7.68845e-07 -1.1016e-06 1.58029e-05
0.000651927 2.37137e-05 -7.0845e-07
2.37137e-05 1.30359e-05 -3.68852e-08
-7.0845e-07 -3.68852e-08 -3.62657e-05
0.00132976 4.57134e-05 -8.05518e-06
4.57134e-05 0.000399457 3.53565e-06
-8.05518e-06 3.53565e-06 0.000387487
0.000675119 -1.16114e-05 2.06404e-06
-1.16114e-05 2.44524e-05 -2.0056e-06
2.06404e-06 -2.0056e-06 -2.32996e-05
0.000961238 3.17756e-05 -4.26424e-06
3.17756e-05 0.000179514 6.29875e-07
-4.26424e-06 6.29875e-07 0.000166726
0.000811876 3.07517e-05 -1.24308e-06
3.07517e-05 9.74233e-05 2.03869e-06
-1.24308e-06 2.03869e-06 0.000103962
0.000568345 1.91125e-05 7.40108e-07
1.91125e-05 -5.36531e-05 -3.89888e-06
7.40108e-07 -3.89888e-06 -6.76203e-05
0.00155872 3.25443e-05 7.2279e-06
3.25443e-05 0.000531278 -1.35011e-06
7.2279e-06 -1.35011e-06 0.000542572
0.00232588 2.87145e-05 8.05043e-06
2.87145e-05 0.000979062 -4.93255e-06
8.05043e-06 -4.93255e-06 0.000994798
0.000467976 2.7396e-06 3.17331e-07
2.7396e-06 -6.0392e-05 -1.87049e-06
3.17331e-07 -1.87049e-06 -0.000152748
0.000381915 -8.76159e-07 -1.94975e-07
-8.76159e-07 -0.00014184 -3.22497e-06
-1.94975e-07 -3.22497e-06 -0.000189281
0.000772533 1.08466e-05 1.01667e-07
1.08466e-05 0.000112143 8.37742e-08
1.01667e-07 8.37742e-08 3.24618e-05
0.000613345 -9.77259e-06 8.95377e-08
-9.77259e-06 -3.15344e-05 -3.77566e-06
8.95377e-08 -3.77566e-06 -4.00417e-05
0.000500226 5.58441e-06 8.63878e-07
5.58441e-06 -7.27633e-05 -4.5603e-08
8.63878e-07 -4.5603e-08 -0.000114615
0.000467329 -7.1303e-05 -7.58382e-07
-7.1303e-05 -6.24724e-05 1.67441e-06
-7.58382e-07 1.67441e-06 -0.000139216
0.00208778 -1.17942e-05 -5.48591e-06
-1.17942e-05 0.000836243 -4.80276e-06
-5.48591e-06 -4.80276e-06 0.000855515
0.000617145 -3.65997e-06 -1.26809e-07
-3.65997e-06 -2.99338e-05 -2.90086e-08
-1.26809e-07 -2.90086e-08 -3.67108e-05
0.000624213 -5.20679e-06 -1.17439e-06
-5.20679e-06 1.85692e-07 2.03951e-06
-1.17439e-06 2.03951e-06 -3.78305e-05
0.00205682 1.76843e-06 -3.56869e-06
1.76843e-06 0.00081795 6.61482e-09
-3.56869e-06 6.61482e-09 0.000837651
0.000605091 2.15776e-06 -1.73227e-07
2.15776e-06 -3.67584e-05 3.41624e-06
-1.73227e-07 3.41624e-06 -4.28672e-05
0.00205462 1.51055e-05 -3.36389e-06
1.51055e-05 0.000818158 4.58807e-06
-3.36389e-06 4.58807e-06 0.000837474
0.000679735 -0.000115593 -7.71924e-05
-0.000115593 -0.000126385 2.68766e-05
-7.71924e-05 2.68766e-05 -0.00137679
0.00150942 0.000144368 -1.86027e-05
0.000144368 0.00278732 -1.04944e-05
-1.86027e-05 -1.04944e-05 0.00172107
0.00134281 -0.000314043 -0.000192115
-0.000314043 0.00182127 -6.25691e-06
-0.000192115 -6.25691e-06 0.00103114
0.000751947 6.69468e-05 4.52426e-07
6.69468e-05 0.000109144 5.06414e-08
4.52426e-07 5.06414e-08 -9.26591e-06
0.00355724 -0.000186163 -2.51555e-05
-0.000186163 0.0020628 8.43287e-05
-2.51555e-05 8.43287e-05 0.00104931
0.00326248 -0.000286721 -6.30021e-05
-0.000286721 0.00105052 6.88314e-06
-6.30021e-05 6.88314e-06 -0.00105679
0.00162147 0.000540695 0.000128679
0.000540695 0.00258438 -0.000129409
0.000128679 -0.000129409 0.00191405
0.00404302 -0.000196053 1.4216e-05
-0.000196053 0.000374436 -2.989e-05
1.4216e-05 -2.989e-05 0.000128501
0.0105566 -0.000169251 9.0819e-05
-0.000169251 0.00312736 -4.79218e-05
9.0819e-05 -4.79218e-05 0.00144807
-0.00315234 0.00115027 -0.000100885
0.00115027 -0.00373908 0.000116993
-0.000100885 0.000116993 -0.0029004
0.00467945 0.00117739 1.72753e-05
0.00117739 -0.000104839 4.04719e-05
1.72753e-05 4.04719e-05 0.000410264
0.0047512 -0.000683077 -8.30449e-05
-0.000683077 0.000359767 -2.31358e-07
-8.30449e-05 -2.31358e-07 -0.000203495
0.00968905 -0.000486396 5.36782e-05
-0.000486396 0.00375611 -1.44159e-05
5.36782e-05 -1.44159e-05 0.00170051
0.00573031 0.000808494 4.92059e-05
0.000808494 0.000316815 -9.0004e-05
4.92059e-05 -9.0004e-05 0.000176859
0.00462052 0.000621556 -1.41196e-05
0.000621556 -0.00157557 9.81177e-06
-1.41196e-05 9.81177e-06 -0.000501121
0.00466348 -0.00115876 3.1919e-06
-0.00115876 0.000694539 -4.16237e-06
3.1919e-06 -4.16237e-06 -0.000268269
0.0105932 -0.00100098 6.88753e-05
-0.00100098 0.00517254 -4.14942e-05
6.88753e-05 -4.14942e-05 0.00163693
0.00264559 -0.000157599 5.78002e-05
-0.000157599 -6.29834e-05 -0.000141914
5.78002e-05 -0.000141914 -0.000295798
0.00614158 0.000242042 -2.52861e-05
0.000242042 -0.000778278 6.72683e-05
-2.52861e-05 6.72683e-05 0.000789804
0.000769255 -3.31187e-05 1.64003e-07
-3.31187e-05 0.000134127 -2.6729e-07
1.64003e-07 -2.6729e-07 -4.83697e-06
0.000738338 -4.06437e-05 3.20564e-07
-4.06437e-05 0.000127527 1.52667e-07
3.20564e-07 1.52667e-07 -5.11764e-06
0.00082941 8.51272e-05 -1.18119e-06
8.51272e-05 0.000177832 -3.04128e-07
-1.18119e-06 -3.04128e-07 6.20006e-05
0.000727138 2.82529e-05 -7.25863e-08
2.82529e-05 8.45759e-05 -1.41994e-07
-7.25863e-08 -1.41994e-07 -3.20635e-05
0.000828847 8.01523e-05 -7.59799e-07
8.01523e-05 0.000169371 6.9269e-07
-7.59799e-07 6.9269e-07 3.79337e-05
0.000834087 6.07614e-05 1.06682e-07
6.07614e-05 0.000171319 2.22069e-06
1.06682e-07 2.22069e-06 5.58661e-05
0.000961504 0.000105111 -7.80531e-07
0.000105111 0.000246485 5.56566e-09
-7.80531e-07 5.56566e-09 0.000125502
0.000971407 0.000110224 7.83582e-07
0.000110224 0.000261452 2.54693e-06
7.83582e-07 2.54693e-06 0.00014253
0.00121405 -0.000223443 5.1816e-05
-0.000223443 -8.8168e-05 -1.68705e-05
5.1816e-05 -1.68705e-05 -0.000138228
0.000847676 -0.000333896 7.58645e-06
-0.000333896 -0.000240114 -1.6691e-05
7.58645e-06 -1.6691e-05 -0.000262267
0.000712958 -0.000144932 -1.47374e-06
-0.000144932 0.000119522 7.19793e-07
-1.47374e-06 7.19793e-07 -2.74119e-05
0.00243031 -0.000308288 1.03676e-05
-0.000308288 0.00109702 -2.5565e-05
1.03676e-05 -2.5565e-05 0.000839145
0.00195893 -0.000150034 -2.86708e-06
-0.000150034 0.000894707 7.10775e-06
-2.86708e-06 7.10775e-06 0.000674354
0.000894351 -5.40508e-05 -2.13312e-06
-5.40508e-05 0.000216731 -1.62078e-06
-2.13312e-06 -1.62078e-06 7.34647e-05
0.000796034 1.40815e-05 3.14798e-07
1.40815e-05 0.000155271 9.9784e-08
3.14798e-07 9.9784e-08 1.44907e-05
0.000336504 -0.000400329 -1.02621e-05
-0.000400329 -0.000565074 -5.2691e-07
-1.02621e-05 -5.2691e-07 -0.000546923
0.00108196 4.04329e-05 -8.50692e-09
4.04329e-05 0.000401592 2.38118e-06
-8.50692e-09 2.38118e-06 0.000195415
0.00103112 -0.000130424 -6.43624e-06
-0.000130424 0.000381914 1.48264e-06
-6.43624e-06 1.48264e-06 0.000164616
0.000394977 -0.000148653 3.92669e-06
-0.000148653 -4.98001e-05 3.874e-06
3.92669e-06 3.874e-06 -9.78598e-05
0.000727247 3.31804e-05 1.60121e-06
3.31804e-05 9.26205e-05 -1.16566e-06
1.60121e-06 -1.16566e-06 -3.28036e-05
0.00138465 -0.000336457 1.6336e-05
-0.000336457 4.02393e-05 -3.22192e-05
1.6336e-05 -3.22192e-05 0.000212024
0.000245618 -0.000116368 -8.4119e-06
-0.000116368 0.000117456 3.00472e-05
-8.4119e-06 3.00472e-05 1.50794e-05
0.000711797 -5.33814e-06 -1.13608e-06
-5.33814e-06 0.000268691 1.04542e-05
-1.13608e-06 1.04542e-05 2.96335e-05
0.00137098 0.000180914 1.81227e-06
0.000180914 0.000526174 -2.61385e-06
1.81227e-06 -2.61385e-06 0.000356174
0.000934864 -3.60329e-05 -1.01032e-05
-3.60329e-05 0.000576451 -5.58618e-06
-1.01032e-05 -5.58618e-06 5.59939e-05
0.00140459 -5.42115e-05 6.40106e-05
-5.42115e-05 0.000704885 -5.79045e-06
6.40106e-05 -5.79045e-06 -0.000545488
-0.00413909 -5.70883e-05 -0.000110935
-5.70883e-05 0.00126995 5.9319e-06
-0.000110935 5.9319e-06 -0.000713616
0.000901437 0.000156819 1.28585e-05
0.000156819 0.000402611 4.73094e-07
1.28585e-05 4.73094e-07 0.000273983
-0.000818794 0.000224525 1.15393e-05
0.000224525 -0.000479173 1.18746e-05
1.15393e-05 1.18746e-05 -0.000717803
0.00307148 1.32382e-05 7.58159e-05
1.32382e-05 0.00148429 1.68377e-06
7.58159e-05 1.68377e-06 0.000438472
0.00778799 0.00045043 0.000126401
0.00045043 0.00351905 6.71971e-05
0.000126401 6.71971e-05 0.000428069
0.00291428 0.000643037 -8.94733e-05
0.000643037 0.00119317 -8.06994e-05
-8.94733e-05 -8.06994e-05 0.000190892
0.00376552 -0.000510164 -2.68603e-06
-0.000510164 0.000917317 -0.000150992
-2.68603e-06 -0.000150992 -0.000245712
0.00106513 0.00011831 3.67479e-05
0.00011831 0.000180443 0.00010867
3.67479e-05 0.00010867 -0.00131371
0.00393574 -7.48684e-06 -6.6755e-07
-7.48684e-06 -0.00350729 -8.70194e-05
-6.6755e-07 -8.70194e-05 -0.000970831
0.000698772 0.000144843 7.43398e-07
0.000144843 0.000418855 -1.44213e-06
7.43398e-07 -1.44213e-06 0.000268706
0.000824912 -5.71496e-05 2.51767e-07
-5.71496e-05 0.000150588 -6.77023e-06
2.51767e-07 -6.77023e-06 -1.16115e-05
0.00263294 1.51902e-05 3.38721e-05
1.51902e-05 0.000592013 9.31374e-06
3.38721e-05 9.31374e-06 -0.000269848
-0.000905597 0.000118633 -9.8907e-06
0.000118633 -0.000354089 -5.36854e-06
-9.8907e-06 -5.36854e-06 -0.000713084
0.0049118 0.000719206 1.1255e-05
0.000719206 -0.00153569 -9.82566e-06
1.1255e-05 -9.82566e-06 -0.000476488
0.0053215 0.000848077 9.542e-05
0.000848077 0.00280367 4.28499e-05
9.542e-05 4.28499e-05 -0.000590619
0.00320271 0.00022093 -5.3678e-05
0.00022093 0.00216395 7.38e-06
-5.3678e-05 7.38e-06 0.0012061
0.000256614 0.000153543 -1.42424e-05
0.000153543 0.000233862 -1.48758e-05
-1.42424e-05 -1.48758e-05 1.3813e-05
0.00175981 4.25505e-05 2.54411e-07
4.25505e-05 -6.61893e-06 -1.95774e-05
2.54411e-07 -1.95774e-05 -6.26409e-06
0.00361465 -0.000148587 2.77344e-05
-0.000148587 0.00201138 -8.3495e-05
2.77344e-05 -8.3495e-05 0.0010406
0.0057459 0.00120931 0.000134095
0.00120931 0.00014636 -9.62539e-05
0.000134095 -9.62539e-05 0.000783709
0.00575863 -0.000117461 -7.56911e-05
-0.000117461 0.000988445 0.000130991
-7.56911e-05 0.000130991 0.000973951
0.00101304 0.000193171 -1.51869e-05
0.000193171 4.33156e-06 -4.72659e-05
-1.51869e-05 -4.72659e-05 -1.07665e-05
-0.000528986 0.000767586 0.000113003
0.000767586 0.0022478 3.58681e-05
0.000113003 3.58681e-05 -0.00286091
0.000876928 0.000141375 2.60989e-06
0.000141375 0.00031919 5.86996e-06
2.60989e-06 5.86996e-06 0.000192373
0.00033571 8.08952e-05 4.32605e-06
8.08952e-05 0.000233229 1.80859e-06
4.32605e-06 1.80859e-06 8.34393e-05
0.00116665 4.03927e-05 -2.7807e-05
4.03927e-05 0.000764695 -1.88078e-05
-2.7807e-05 -1.88078e-05 0.000661113
0.00048281 -1.80264e-05 9.56184e-07
-1.80264e-05 -6.6552e-05 3.28285e-06
9.56184e-07 3.28285e-06 -0.000166652
0.000817979 -3.74091e-05 2.20477e-06
-3.74091e-05 0.000244112 4.0082e-06
2.20477e-06 4.0082e-06 0.000135301
-4.23178e-06 -2.34086e-06 4.79026e-07
-2.34086e-06 -5.57187e-05 4.37035e-06
4.79026e-07 4.37035e-06 -0.000189007
0.00070495 -5.71345e-05 6.75785e-07
-5.71345e-05 0.000146618 -5.02663e-07
6.75785e-07 -5.02663e-07 5.37899e-05
0.000111033 -9.08422e-06 3.09444e-06
-9.08422e-06 -2.0615e-05 2.06816e-07
3.09444e-06 2.06816e-07 -0.000105155
0.00117147 -0.00017074 7.63149e-06
-0.00017074 0.000576004 -7.67629e-06
7.63149e-06 -7.67629e-06 0.000409511
0.00121019 -4.37889e-05 -1.78589e-06
-4.37889e-05 0.000376419 3.81667e-06
-1.78589e-06 3.81667e-06 0.000296303
0.000398745 2.60518e-05 -8.38171e-07
2.60518e-05 -0.000107038 1.46384e-06
-8.38171e-07 1.46384e-06 -0.000199912
0.00134157 -0.000120044 1.08275e-06
-0.000120044 0.000438279 1.90103e-06
1.08275e-06 1.90103e-06 0.000336993
-7.70806e-05 -0.000128098 4.35736e-06
-0.000128098 -0.000263792 1.51332e-06
4.35736e-06 1.51332e-06 -0.000478783
0.000435329 -4.95051e-05 -4.39409e-06
-4.95051e-05 -8.98048e-05 1.0228e-06
-4.39409e-06 1.0228e-06 -0.000162733
0.000128572 -0.000129183 1.77505e-06
-0.000129183 -0.000268653 -1.1464e-06
1.77505e-06 -1.1464e-06 -0.000420976
0.00101531 -0.000240725 8.71101e-06
-0.000240725 0.000185832 -1.3735e-06
8.71101e-06 -1.3735e-06 -4.06695e-05
0.00130004 -0.000281887 -3.60051e-06
-0.000281887 0.000195736 4.35853e-06
-3.60051e-06 4.35853e-06 -4.58888e-05
0.00165102 -0.000186353 -2.41894e-06
-0.000186353 0.000603224 1.63074e-07
-2.41894e-06 1.63074e-07 0.000450626
0.000679588 -0.000197102 -4.27795e-07
-0.000197102 -1.77924e-05 1.80211e-07
-4.27795e-07 1.80211e-07 -0.000225766
0.00193386 -0.000299356 1.85485e-06
-0.000299356 0.000686759 -1.27828e-06
1.85485e-06 -1.27828e-06 0.000481277
0.000151339 -0.000104605 -2.60469e-06
-0.000104605 -0.000228894 6.24949e-07
-2.60469e-06 6.24949e-07 -0.000408361
0.000903029 -0.000195774 -4.16755e-07
-0.000195774 0.00013284 5.84964e-07
-4.16755e-07 5.84964e-07 -6.7611e-05
0.000586015 -4.71796e-05 4.11517e-08
-4.71796e-05 2.45815e-05 7.39163e-08
4.11517e-08 7.39163e-08 -0.000100826
0.00103923 -0.000171774 -3.40562e-06
-0.000171774 0.000304835 2.33037e-06
-3.40562e-06 2.33037e-06 0.000139342
5.96946e-05 -0.0001089 -1.96264e-06
-0.0001089 -0.000313384 -2.41568e-06
-1.96264e-06 -2.41568e-06 -0.000498106
0.000647543 2.99434e-05 5.2143e-07
2.99434e-05 4.04196e-05 1.07136e-06
5.2143e-07 1.07136e-06 -4.83407e-05
0.000733733 -3.70708e-05 8.59049e-07
-3.70708e-05 0.000103069 -1.27736e-07
8.59049e-07 -1.27736e-07 -7.26017e-06
0.000829794 -7.89798e-05 2.50919e-06
-7.89798e-05 0.000182904 -2.83832e-06
2.50919e-06 -2.83832e-06 4.90615e-05
0.000702112 -6.65918e-06 3.11219e-07
-6.65918e-06 8.27091e-05 -3.2825e-07
3.11219e-07 -3.2825e-07 -1.42992e-05
0.000710339 -6.97448e-06 -5.78426e-07
-6.97448e-06 7.29437e-05 -1.32395e-07
-5.78426e-07 -1.32395e-07 -8.32336e-06
0.000630441 3.60195e-05 -1.09838e-06
3.60195e-05 8.2138e-06 1.99328e-06
-1.09838e-06 1.99328e-06 -4.62427e-05
0.000755077 -3.61713e-05 6.90286e-07
-3.61713e-05 0.000101657 -8.55495e-07
6.90286e-07 -8.55495e-07 2.05194e-05
0.000651093 2.80222e-05 -5.31338e-07
2.80222e-05 1.54373e-05 -6.8311e-08
-5.31338e-07 -6.8311e-08 -3.55271e-05
0.000590575 4.31352e-05 -1.08483e-06
4.31352e-05 -2.79083e-05 3.93046e-06
-1.08483e-06 3.93046e-06 -4.55414e-05
0.000697187 -1.92338e-06 2.01795e-06
-1.92338e-06 3.63737e-05 -1.91659e-06
2.01795e-06 -1.91659e-06 -1.14124e-05
0.000592921 3.51372e-05 1.41214e-07
3.51372e-05 -3.319e-05 1.07987e-08
1.41214e-07 1.07987e-08 -4.87818e-05
0.00221144 6.87479e-05 -4.26777e-06
6.87479e-05 0.000925589 1.82505e-06
-4.26777e-06 1.82505e-06 0.000936899
0.000567562 2.72785e-05 8.67524e-07
2.72785e-05 -5.16851e-05 -3.96061e-06
8.67524e-07 -3.96061e-06 -6.6275e-05
0.0015512 4.28273e-05 8.6911e-06
4.28273e-05 0.000531692 -1.16955e-06
8.6911e-06 -1.16955e-06 0.000541767
0.00231835 4.16102e-05 1.23584e-05
4.16102e-05 0.00097839 -4.70515e-06
1.23584e-05 -4.70515e-06 0.00099311
0.000457194 -3.69556e-06 5.67256e-08
-3.69556e-06 -7.75157e-05 -1.98267e-06
5.67256e-08 -1.98267e-06 -0.000167373
0.000364014 -3.40664e-06 -9.94154e-08
-3.40664e-06 -0.000153233 -3.10063e-06
-9.94154e-08 -3.10063e-06 -0.000206327
0.000624459 1.27666e-05 -4.34276e-07
1.27666e-05 2.95306e-05 -8.92376e-07
-4.34276e-07 -8.92376e-07 -6.08511e-05
0.000609874 -1.59957e-05 7.55474e-08
-1.59957e-05 -3.19609e-05 -3.96483e-06
7.55474e-08 -3.96483e-06 -4.29969e-05
0.000351891 -1.49821e-06 -3.14951e-07
-1.49821e-06 -0.000159208 -1.03754e-06
-3.14951e-07 -1.03754e-06 -0.000207392
0.000789243 2.09315e-05 -1.27564e-07
2.09315e-05 0.000129678 1.76484e-06
-1.27564e-07 1.76484e-06 4.48965e-05
0.00215477 -2.43505e-05 -9.84602e-06
-2.43505e-05 0.00087695 -4.78586e-06
-9.84602e-06 -4.78586e-06 0.000895064
0.000610077 -9.78698e-06 -1.63325e-07
-9.78698e-06 -3.34225e-05 -4.54313e-08
-1.63325e-07 -4.54313e-08 -4.18266e-05
0.000333321 -5.65868e-07 5.09244e-07
-5.65868e-07 -0.000169273 2.18815e-06
5.09244e-07 2.18815e-06 -0.000212902
0.00207971 -1.04866e-05 -3.43561e-06
-1.04866e-05 0.000831309 4.29684e-08
-3.43561e-06 4.29684e-08 0.000850736
0.000612762 -3.63383e-06 -1.01123e-07
-3.63383e-06 -3.23743e-05 3.54208e-06
-1.01123e-07 3.54208e-06 -3.91026e-05
0.00206806 3.04193e-06 1.11623e-06
3.04193e-06 0.000824611 4.70155e-06
1.11623e-06 4.70155e-06 0.000844227
0.00108729 6.39623e-06 -4.15164e-07
6.39623e-06 0.000484842 1.42274e-05
-4.15164e-07 1.42274e-05 0.000217457
0.00122879 -8.93865e-05 7.72702e-06
-8.93865e-05 0.000201455 -6.88737e-06
7.72702e-06 -6.88737e-06 -0.00104186
0.00183448 7.70699e-05 2.62164e-05
7.70699e-05 0.00293498 -3.35056e-05
2.62164e-05 -3.35056e-05 0.00202298
0.00078949 7.35462e-05 -1.82445e-07
7.35462e-05 0.00012495 3.03531e-07
-1.82445e-07 3.03531e-07 1.2798e-05
0.000631519 4.52429e-05 4.0672e-07
4.52429e-05 1.78146e-05 -6.6932e-08
4.0672e-07 -6.6932e-08 -8.54548e-05
0.000928459 0.000101626 5.8304e-07
0.000101626 0.000202336 1.36303e-06
5.8304e-07 1.36303e-06 8.32126e-05
0.00235324 -5.78063e-05 8.6616e-06
-5.78063e-05 0.000243135 0.000136439
8.6616e-06 0.000136439 -0.000811415
0.00319117 -0.000157159 -7.22079e-07
-0.000157159 0.00194927 7.35388e-07
-7.22079e-07 7.35388e-07 0.000853572
0.00349096 -0.000322759 4.92225e-05
-0.000322759 0.00131238 -0.000102645
4.92225e-05 -0.000102645 -0.000989676
0.00533873 -0.000764738 -5.91242e-05
-0.000764738 0.000892162 7.09519e-08
-5.91242e-05 7.09519e-08 0.000286476
0.00209201 -0.000604343 -9.59769e-05
-0.000604343 0.000210131 7.21049e-05
-9.59769e-05 7.21049e-05 -0.00230638
0.00929147 0.00113511 8.08327e-05
0.00113511 0.00303851 4.66689e-05
8.08327e-05 4.66689e-05 0.00266938
0.00214218 0.000206274 3.27015e-05
0.000206274 -0.00304574 -6.34615e-05
3.27015e-05 -6.34615e-05 -0.00197061
0.00532565 -0.00118006 -1.64671e-05
-0.00118006 0.00133021 3.96466e-06
-1.64671e-05 3.96466e-06 0.000568024
0.0067032 -0.000851149 -2.93512e-06
-0.000851149 0.00303664 1.55958e-05
-2.93512e-06 1.55958e-05 -3.0566e-05
-0.00246959 0.000672279 -2.03675e-05
0.000672279 -0.000373743 -8.87386e-05
-2.03675e-05 -8.87386e-05 -0.00177354
0.00487547 1.95893e-05 -1.36847e-05
1.95893e-05 -0.00219601 3.64347e-05
-1.36847e-05 3.64347e-05 -0.000144283
0.00232132 -0.000793398 -4.11765e-05
-0.000793398 0.000308494 -1.64148e-05
-4.11765e-05 -1.64148e-05 -0.000355977
0.0111126 -0.00112096 -2.4177e-05
-0.00112096 0.0051021 4.1619e-05
-2.4177e-05 4.1619e-05 0.0014667
-0.00914569 -9.73066e-05 4.62533e-05
-9.73066e-05 -0.00081398 -0.0001694
4.62533e-05 -0.0001694 -0.00266707
0.00341379 -0.000658208 1.1265e-05
-0.000658208 -0.00194144 -2.9167e-05
1.1265e-05 -2.9167e-05 -0.00065247
0.00074033 3.83809e-05 -4.26558e-07
3.83809e-05 9.35192e-05 1.83277e-06
-4.26558e-07 1.83277e-06 -3.53504e-05
0.000665731 3.63764e-06 1.51006e-07
3.63764e-06 7.33649e-05 -5.32886e-07
1.51006e-07 -5.32886e-07 -6.48146e-05
0.000762794 -6.15655e-05 3.66051e-07
-6.15655e-05 0.000142715 7.92343e-08
3.66051e-07 7.92343e-08 6.25027e-06
0.000750866 5.11633e-05 -4.96074e-07
5.11633e-05 9.98954e-05 -6.63504e-07
-4.96074e-07 -6.63504e-07 -1.94714e-05
0.000894736 0.000118337 1.01247e-06
0.000118337 0.00020878 1.29323e-06
1.01247e-06 1.29323e-06 7.96645e-05
0.00104594 0.000117332 -9.81384e-07
0.000117332 0.000297773 6.67232e-07
-9.81384e-07 6.67232e-07 0.000174982
0.000395493 -0.000404072 1.94142e-05
-0.000404072 -0.000548394 7.87695e-06
1.94142e-05 7.87695e-06 -0.000567837
-0.000600851 -9.80789e-05 1.77287e-05
-9.80789e-05 -0.000607851 -2.21456e-05
1.77287e-05 -2.21456e-05 -0.000615776
0.000926184 6.01473e-05 -1.23253e-06
6.01473e-05 0.000238078 -7.99438e-07
-1.23253e-06 -7.99438e-07 9.24686e-05
0.00146235 -0.000172452 2.34109e-05
-0.000172452 0.000580023 -3.24448e-05
2.34109e-05 -3.24448e-05 0.000370449
0.00136504 1.99421e-05 -2.32666e-06
1.99421e-05 0.000556569 1.02615e-06
-2.32666e-06 1.02615e-06 0.000347656
0.000679402 2.08737e-05 -1.07225e-07
2.08737e-05 6.64409e-05 7.44903e-07
-1.07225e-07 7.44903e-07 -6.43674e-05
0.000603042 9.26909e-05 3.12664e-07
9.26909e-05 8.26357e-05 -9.24655e-08
3.12664e-07 -9.24655e-08 -7.31812e-05
0.00023469 -0.000344171 -4.31128e-06
-0.000344171 -0.000541263 -3.02427e-06
-4.31128e-06 -3.02427e-06 -0.000520431
0.0007962 -2.14674e-05 3.64675e-06
-2.14674e-05 0.000305913 -1.53554e-06
3.64675e-06 -1.53554e-06 8.34698e-05
0.000602213 -6.66294e-05 2.16528e-05
-6.66294e-05 0.000331037 -2.53685e-07
2.16528e-05 -2.53685e-07 0.000221615
0.000942704 6.7307e-05 2.81756e-06
6.7307e-05 0.000227535 -5.59984e-06
2.81756e-06 -5.59984e-06 0.000103705
-0.00256543 0.000141789 -6.83224e-05
0.000141789 -0.00113969 -1.27954e-05
-6.83224e-05 -1.27954e-05 -0.00151332
4.86013e-05 6.91871e-06 7.42489e-06
6.91871e-06 2.01118e-05 3.48061e-05
7.42489e-06 3.48061e-05 -8.97507e-05
0.00128588 3.83343e-06 3.06315e-06
3.83343e-06 0.000573428 2.05543e-06
3.06315e-06 2.05543e-06 0.000391102
0.00102252 -3.16415e-05 3.59133e-07
-3.16415e-05 -3.66035e-05 9.00243e-07
3.59133e-07 9.00243e-07 -0.000496851
0.000762706 -2.85618e-05 -1.52165e-05
-2.85618e-05 0.000443544 -7.52826e-06
-1.52165e-05 -7.52826e-06 6.89217e-07
0.000998247 -3.56261e-05 0.000147428
-3.56261e-05 0.000552734 -5.48124e-06
0.000147428 -5.48124e-06 -0.000734827
0.000680164 0.000170656 1.26097e-05
0.000170656 0.000388525 1.26444e-05
1.26097e-05 1.26444e-05 0.000228398
0.00168492 0.000396584 9.93451e-06
0.000396584 0.000543893 -1.26667e-05
9.93451e-06 -1.26667e-05 0.000309865
0.00086434 -5.75113e-05 5.62248e-06
-5.75113e-05 0.000196246 4.86001e-06
5.62248e-06 4.86001e-06 2.31145e-05
-0.00208729 0.000459831 3.3324e-05
0.000459831 5.46393e-05 4.32938e-05
3.3324e-05 4.32938e-05 -0.00340264
-0.0105399 0.000277821 -6.41944e-05
0.000277821 -0.00371642 -0.000179337
-6.41944e-05 -0.000179337 -0.00556423
0.00258099 3.01802e-05 3.5268e-05
3.01802e-05 0.000803305 5.96328e-05
3.5268e-05 5.96328e-05 0.000116046
0.00230385 0.000337135 -4.01858e-05
0.000337135 -0.00296772 6.39902e-05
-4.01858e-05 6.39902e-05 -0.00193974
0.000487169 0.000149531 6.20796e-06
0.000149531 0.000356254 -2.11135e-06
6.20796e-06 -2.11135e-06 0.000163286
0.00159873 -4.71706e-06 1.00581e-05
-4.71706e-06 -0.000113679 -1.68505e-05
1.00581e-05 -1.68505e-05 -4.77353e-05
0.00323936 -0.000113114 -2.02722e-07
-0.000113114 0.00189708 -1.00846e-06
-2.02722e-07 -1.00846e-06 0.000822511
0.00137216 0.000212445 -2.17835e-05
0.000212445 0.000341422 -3.58734e-06
-2.17835e-05 -3.58734e-06 -0.000105166
0.00278076 0.00111081 5.36632e-05
0.00111081 -0.00153032 -0.000130018
5.36632e-05 -0.000130018 -0.000788502
-0.00225383 0.000635257 1.74262e-05
0.000635257 -0.00105837 8.74476e-05
1.74262e-05 8.74476e-05 -0.00199521
0.00675203 -1.57549e-06 6.24981e-05
-1.57549e-06 0.00497715 -2.35908e-05
6.24981e-05 -2.35908e-05 0.000172712
0.001805 -2.83061e-05 3.76415e-05
-2.83061e-05 0.00133633 -1.85067e-05
3.76415e-05 -1.85067e-05 0.000980284
0.00116584 3.56308e-05 -5.1237e-06
3.56308e-05 0.000479143 -1.26048e-05
-5.1237e-06 -1.26048e-05 0.000219793
0.00341485 -0.000204975 0.000179374
-0.000204975 0.00090189 -0.000141695
0.000179374 -0.000141695 -0.000924391
0.00401548 0.00150733 -3.69495e-06
0.00150733 0.00267426 -1.54276e-05
-3.69495e-06 -1.54276e-05 0.00353791
-0.00481725 0.000719081 4.14909e-05
0.000719081 -0.00452804 0.00024643
4.14909e-05 0.00024643 -0.00445667
0.0123947 -0.00101208 0.000101858
-0.00101208 0.00513465 -9.60461e-05
0.000101858 -9.60461e-05 0.00161777
0.00409932 -0.000398706 -8.52112e-05
-0.000398706 0.00136633 9.17005e-05
-8.52112e-05 9.17005e-05 0.00122132
0.000798817 0.000106073 5.20031e-06
0.000106073 0.000490581 4.75963e-06
5.20031e-06 4.75963e-06 0.000334102
-0.000101917 6.82504e-06 -1.06948e-05
6.82504e-06 5.38064e-05 1.90816e-06
-1.06948e-05 1.90816e-06 -8.22901e-05
0.00126507 -0.00024429 1.35334e-05
-0.00024429 0.000809913 -1.32558e-05
1.35334e-05 -1.32558e-05 0.000554606
0.0010192 -6.95551e-05 1.43688e-06
-6.95551e-05 0.000316906 2.59663e-06
1.43688e-06 2.59663e-06 0.000229937
-0.000458363 -3.0073e-05 4.56466e-06
-3.0073e-05 -0.000344189 1.24473e-05
4.56466e-06 1.24473e-05 -0.000437213
0.000142729 -0.00014951 -1.21715e-06
-0.00014951 2.88849e-05 -3.28758e-07
-1.21715e-06 -3.28758e-07 -0.000128468
0.00129456 -0.000260561 2.39444e-05
-0.000260561 0.000580041 -1.47038e-05
2.39444e-05 -1.47038e-05 0.000300903
0.00209196 -0.000170552 -4.34622e-06
-0.000170552 0.000856939 3.89041e-06
-4.34622e-06 3.89041e-06 0.000745915
0.00170253 -0.000290279 1.85484e-06
-0.000290279 0.000669244 3.9035e-08
1.85484e-06 3.9035e-08 0.000442237
0.00121316 -0.000281158 8.51099e-06
-0.000281158 0.000418884 2.22762e-06
8.51099e-06 2.22762e-06 5.26675e-05
5.85572e-05 -0.000109925 -1.71044e-06
-0.000109925 -0.000311887 -2.56788e-07
-1.71044e-06 -2.56788e-07 -0.000448716
0.00128462 -0.00026198 -2.44366e-07
-0.00026198 0.00030884 1.42678e-06
-2.44366e-07 1.42678e-06 7.16311e-05
0.00229564 -0.000401841 1.69217e-06
-0.000401841 0.000768588 2.60417e-06
1.69217e-06 2.60417e-06 0.00045492
0.00176083 -0.000368097 -2.21951e-06
-0.000368097 0.000345665 2.17443e-06
-2.21951e-06 2.17443e-06 7.50991e-05
0.000562343 -0.000207197 5.18197e-07
-0.000207197 -0.000185389 6.56967e-06
5.18197e-07 6.56967e-06 -0.000396504
0.0013296 -0.00028629 -3.56825e-06
-0.00028629 0.000216461 1.9448e-06
-3.56825e-06 1.9448e-06 -2.85584e-05
0.00100835 -0.00022637 -6.50861e-06
-0.00022637 0.000153652 1.88708e-06
-6.50861e-06 1.88708e-06 -6.56745e-05
0.00173889 -0.000272243 4.89626e-06
-0.000272243 0.00060913 -2.50236e-06
4.89626e-06 -2.50236e-06 0.000411911
0.00131118 -0.000242483 2.86682e-06
-0.000242483 0.000333952 -2.74388e-06
2.86682e-06 -2.74388e-06 0.000144675
0.00010822 -4.88429e-05 1.49883e-06
-4.88429e-05 -0.000250646 5.279e-07
1.49883e-06 5.279e-07 -0.000405597
0.000741649 -0.000159338 1.58099e-06
-0.000159338 0.000114072 -7.37084e-07
1.58099e-06 -7.37084e-07 -7.13336e-05
0.00111485 -0.000211575 6.02518e-06
-0.000211575 0.00025883 -4.63993e-06
6.02518e-06 -4.63993e-06 6.04474e-05
0.000611348 3.34004e-05 1.40762e-06
3.34004e-05 2.78126e-05 1.70279e-06
1.40762e-06 1.70279e-06 -7.83033e-05
0.000882195 -7.73722e-05 -4.13228e-07
-7.73722e-05 0.000200997 3.44936e-07
-4.13228e-07 3.44936e-07 6.79174e-05
0.00106288 -0.000181899 -5.75106e-07
-0.000181899 0.000320017 -6.79351e-07
-5.75106e-07 -6.79351e-07 0.000152288
0.000615246 3.04553e-05 -1.18162e-06
3.04553e-05 3.25897e-06 2.13234e-06
-1.18162e-06 2.13234e-06 -5.59704e-05
0.000727571 -7.86563e-07 -6.91187e-07
-7.86563e-07 8.436e-05 -2.70147e-07
-6.91187e-07 -2.70147e-07 -5.06621e-06
0.000628584 -2.191e-05 6.60068e-08
-2.191e-05 4.79696e-05 -5.44874e-07
6.60068e-08 -5.44874e-07 -6.44917e-05
0.000767339 -2.65078e-05 5.69249e-07
-2.65078e-05 0.000108014 -1.12681e-06
5.69249e-07 -1.12681e-06 2.41419e-05
0.000660522 1.73436e-05 -2.70935e-07
1.73436e-05 2.31633e-05 -9.61104e-08
-2.70935e-07 -9.61104e-08 -3.00786e-05
0.00057429 5.15209e-05 -8.16024e-07
5.15209e-05 -2.83071e-05 4.23145e-06
-8.16024e-07 4.23145e-06 -4.9249e-05
0.000676592 7.42482e-06 1.91419e-06
7.42482e-06 2.75059e-05 -1.84428e-06
1.91419e-06 -1.84428e-06 -2.20211e-05
0.000592342 4.44625e-05 -3.97653e-08
4.44625e-05 -2.67175e-05 -1.61115e-08
-3.97653e-08 -1.61115e-08 -4.45274e-05
0.00225577 7.53126e-05 -2.37196e-05
7.53126e-05 0.000959122 3.79477e-06
-2.37196e-05 3.79477e-06 0.000969074
0.000581142 3.5887e-05 9.39848e-07
3.5887e-05 -4.00296e-05 -3.91365e-06
9.39848e-07 -3.91365e-06 -5.56589e-05
0.00153254 5.33075e-05 1.03875e-05
5.33075e-05 0.000527296 -1.02569e-06
1.03875e-05 -1.02569e-06 0.000535706
0.00231496 5.44237e-05 1.62697e-05
5.44237e-05 0.000981581 -4.38261e-06
1.62697e-05 -4.38261e-06 0.000994869
0.000709188 5.48393e-05 -3.6171e-07
5.48393e-05 7.00065e-05 -1.02389e-06
-3.6171e-07 -1.02389e-06 -2.31768e-05
0.000652865 1.45862e-05 -6.38692e-07
1.45862e-05 1.28697e-05 -2.44169e-06
-6.38692e-07 -2.44169e-06 -4.2166e-05
0.000589378 3.35722e-05 -1.0786e-06
3.35722e-05 8.11047e-06 -8.82848e-07
-1.0786e-06 -8.82848e-07 -8.74444e-05
0.000597774 -2.26996e-05 2.43573e-07
-2.26996e-05 -3.63064e-05 -4.27251e-06
2.43573e-07 -4.27251e-06 -5.04956e-05
0.000486977 8.53226e-06 -1.12988e-06
8.53226e-06 -8.17925e-05 -1.05048e-06
-1.12988e-06 -1.05048e-06 -0.000133695
0.000803343 3.34083e-05 2.45098e-07
3.34083e-05 0.000133644 3.21368e-07
2.45098e-07 3.21368e-07 4.40219e-05
0.00223769 -3.72766e-05 -1.44686e-05
-3.72766e-05 0.000928117 -4.71224e-06
-1.44686e-05 -4.71224e-06 0.000944557
0.000604283 -1.58132e-05 -2.26289e-07
-1.58132e-05 -3.53328e-05 -4.90464e-08
-2.26289e-07 -4.90464e-08 -4.62029e-05
0.000312705 -1.96132e-06 -5.55508e-07
-1.96132e-06 -0.000181958 1.27766e-06
-5.55508e-07 1.27766e-06 -0.000230807
0.00214431 -2.31004e-05 -3.55669e-06
-2.31004e-05 0.000870437 8.41056e-08
-3.55669e-06 8.41056e-08 0.000888806
0.000610018 -9.85722e-06 -1.45632e-07
-9.85722e-06 -3.33916e-05 3.68506e-06
-1.45632e-07 3.68506e-06 -4.17185e-05
0.00208347 -9.16039e-06 5.68849e-06
-9.16039e-06 0.000833352 4.73837e-06
5.68849e-06 4.73837e-06 0.000852839
0.0016806 -3.33743e-05 -4.53471e-06
-3.33743e-05 -4.56009e-05 2.19592e-05
-4.53471e-06 2.19592e-05 -2.65201e-05
0.00112479 -6.70619e-06 -9.08329e-07
-6.70619e-06 0.000420358 -1.77534e-06
-9.08329e-07 -1.77534e-06 0.00021868
0.00172651 -8.19001e-05 9.48915e-05
-8.19001e-05 0.000466298 -2.23723e-05
9.48915e-05 -2.23723e-05 -0.000722663
0.000609789 6.12242e-06 6.52547e-08
6.12242e-06 -2.76445e-06 -5.99549e-07
6.52547e-08 -5.99549e-07 -9.84109e-05
0.000872736 3.08435e-05 -7.5168e-07
3.08435e-05 0.000156849 -4.42332e-07
-7.5168e-07 -4.42332e-07 4.98981e-05
0.000812314 7.52994e-05 9.39554e-07
7.52994e-05 0.000135363 5.85188e-07
9.39554e-07 5.85188e-07 2.76531e-05
0.000648316 2.98698e-05 2.0276e-07
2.98698e-05 2.15632e-05 1.61309e-07
2.0276e-07 1.61309e-07 -7.70556e-05
0.000766514 5.12382e-05 7.19889e-08
5.12382e-05 0.000106834 2.9587e-07
7.19889e-08 2.9587e-07 -9.01816e-06
0.000753595 3.88919e-05 -2.88136e-07
3.88919e-05 9.10454e-05 -1.68338e-07
-2.88136e-07 -1.68338e-07 -1.60021e-05
0.000860367 0.000157409 1.16346e-06
0.000157409 0.000179227 1.4298e-06
1.16346e-06 1.4298e-06 4.23242e-05
0.000136101 2.55881e-05 4.02342e-05
2.55881e-05 0.000132874 0.000130878
4.02342e-05 0.000130878 -0.00128149
0.00244394 -4.31471e-05 -8.3281e-06
-4.31471e-05 0.000574112 4.64667e-05
-8.3281e-06 4.64667e-05 -0.000293187
0.00278713 -0.000124031 1.46531e-05
-0.000124031 0.00179667 -6.55399e-05
1.46531e-05 -6.55399e-05 0.000644516
0.00364216 -0.000133425 -2.37175e-05
-0.000133425 -0.00364773 4.04683e-05
-2.37175e-05 4.04683e-05 -0.0010878
0.0033599 -0.000996739 -5.67079e-05
-0.000996739 0.00114005 5.68979e-05
-5.67079e-05 5.68979e-05 0.000150325
-0.0018161 -0.0010568 1.29695e-05
-0.0010568 -0.000540801 6.72033e-05
1.29695e-05 6.72033e-05 -0.00407266
0.00727345 0.00132583 6.21344e-05
0.00132583 0.00412227 -3.02852e-05
6.21344e-05 -3.02852e-05 0.00235983
0.00392755 -0.000939484 -2.1186e-05
-0.000939484 0.00103735 5.15275e-06
-2.1186e-05 5.15275e-06 0.000320835
5.15394e-05 -0.000430765 3.31229e-05
-0.000430765 0.00107959 1.35424e-05
3.31229e-05 1.35424e-05 -0.00283526
0.00436624 -2.39409e-05 -8.08032e-06
-2.39409e-05 0.00234991 -6.68631e-06
-8.08032e-06 -6.68631e-06 0.00139423
0.00795029 -0.000911757 -2.86751e-05
-0.000911757 0.000971992 -3.40806e-05
-2.86751e-05 -3.40806e-05 0.00221393
0.000264936 1.90512e-05 -0.000108398
1.90512e-05 -0.000876602 6.18973e-05
-0.000108398 6.18973e-05 -0.000749533
0.000721526 0.00091438 -1.64275e-05
0.00091438 0.00128596 -9.62301e-05
-1.64275e-05 -9.62301e-05 -0.00256844
-0.00690658 -0.00137566 5.37828e-05
-0.00137566 -0.00410611 -0.000110177
5.37828e-05 -0.000110177 -0.00581876
0.00358961 -0.000856975 1.49097e-05
-0.000856975 -0.00125482 -0.00018992
1.49097e-05 -0.00018992 0.000192949
0.000741438 1.01923e-05 -4.74019e-07
1.01923e-05 9.76089e-05 -2.96858e-07
-4.74019e-07 -2.96858e-07 -1.27225e-05
0.00069808 3.93246e-05 3.61542e-07
3.93246e-05 7.39441e-05 -8.9691e-08
3.61542e-07 -8.9691e-08 -5.61577e-05
0.000742211 1.75944e-05 -1.1179e-07
1.75944e-05 0.000127161 -8.49175e-07
-1.1179e-07 -8.49175e-07 -1.74324e-05
0.000786124 4.34617e-05 -3.32808e-07
4.34617e-05 0.00012958 -1.64585e-06
-3.32808e-07 -1.64585e-06 2.02884e-06
2.68191e-05 -0.000363778 -2.44053e-08
-0.000363778 -0.000688163 2.29826e-05
-2.44053e-08 2.29826e-05 -0.000747734
0.0011404 -5.35801e-05 -9.39593e-06
-5.35801e-05 0.00064473 -2.8217e-05
-9.39593e-06 -2.8217e-05 0.000545846
0.000591749 2.07185e-05 -1.7391e-06
2.07185e-05 2.7646e-06 -1.00181e-06
-1.7391e-06 -1.00181e-06 -0.000119156
0.000712258 9.67105e-05 -1.55711e-06
9.67105e-05 0.000151051 1.65717e-06
-1.55711e-06 1.65717e-06 -5.32409e-06
0.00210791 -5.34034e-05 8.6478e-06
-5.34034e-05 0.00103557 -2.43509e-05
8.6478e-06 -2.43509e-05 0.000833024
0.0008199 4.98408e-05 -1.68949e-07
4.98408e-05 0.000156688 1.56048e-06
-1.68949e-07 1.56048e-06 3.61514e-05
0.000807086 6.57813e-05 -1.86307e-06
6.57813e-05 0.000318001 -2.22851e-06
-1.86307e-06 -2.22851e-06 0.000122589
-0.000248493 3.04023e-05 3.01089e-05
3.04023e-05 -3.1062e-05 -1.39404e-05
3.01089e-05 -1.39404e-05 -0.000497009
0.000608613 -6.87229e-06 3.25388e-05
-6.87229e-06 0.000342656 1.40639e-07
3.25388e-05 1.40639e-07 0.000261383
0.000222745 0.000114598 -3.81028e-07
0.000114598 -4.89656e-05 -3.49173e-06
-3.81028e-07 -3.49173e-06 -0.000187076
0.000206958 -7.77309e-05 -2.45615e-05
-7.77309e-05 0.000662503 -3.89898e-05
-2.45615e-05 -3.89898e-05 -0.000448497
0.0033732 9.11608e-05 1.60849e-05
9.11608e-05 0.00179781 2.11041e-05
1.60849e-05 2.11041e-05 0.00162516
0.000954912 -1.69198e-05 6.98626e-06
-1.69198e-05 0.000561928 6.27883e-06
6.98626e-06 6.27883e-06 5.18007e-05
0.00136939 -3.34359e-05 2.52887e-07
-3.34359e-05 0.000184886 3.67775e-07
2.52887e-07 3.67775e-07 -0.000114813
0.000582333 -2.93786e-05 -3.20375e-06
-2.93786e-05 0.000312491 -1.15784e-05
-3.20375e-06 -1.15784e-05 -6.48157e-05
-0.000147046 9.31013e-05 2.10687e-06
9.31013e-05 4.34963e-05 6.57794e-06
2.10687e-06 6.57794e-06 -0.000124013
-0.000377893 0.000233256 2.71015e-05
0.000233256 -0.00064903 3.70746e-05
2.71015e-05 3.70746e-05 -0.000786681
0.00141337 -2.77395e-05 1.35982e-05
-2.77395e-05 -0.00022905 -2.21049e-06
1.35982e-05 -2.21049e-06 -9.46689e-05
0.00384359 -0.000844075 0.000125818
-0.000844075 0.00357652 -0.000125059
0.000125818 -0.000125059 -0.00106861
0.00717701 0.00137527 -5.85035e-05
0.00137527 0.0035251 3.62879e-05
-5.85035e-05 3.62879e-05 0.00202356
0.00289148 -8.41766e-05 -1.91566e-05
-8.41766e-05 0.00175961 6.53083e-05
-1.91566e-05 6.53083e-05 0.000627403
0.00469915 0.00119211 -1.96086e-05
0.00119211 -0.000141047 -3.57612e-05
-1.96086e-05 -3.57612e-05 0.000430958
-0.00019197 0.000115316 -2.69509e-06
0.000115316 0.000318961 6.56975e-06
-2.69509e-06 6.56975e-06 -0.000124264
0.00118039 1.9605e-05 6.77491e-07
1.9605e-05 0.000422209 1.84579e-06
6.77491e-07 1.84579e-06 0.000231825
0.00334538 -0.000252355 6.18069e-05
-0.000252355 0.000970321 -6.83645e-06
6.18069e-05 -6.83645e-06 -0.00105864
0.00030577 -0.000133114 1.95255e-06
-0.000133114 -0.000651566 2.42195e-05
1.95255e-06 2.42195e-05 -0.000563455
-0.00157607 0.0016106 9.28677e-05
0.0016106 -0.000435313 -3.97649e-05
9.28677e-05 -3.97649e-05 0.000941832
0.00601518 0.000812266 -4.40632e-05
0.000812266 0.000239635 9.01757e-05
-4.40632e-05 9.01757e-05 0.000259755
-0.002404 -0.000768064 6.50132e-05
-0.000768064 0.000143771 -5.91092e-05
6.50132e-05 -5.91092e-05 -0.00439895
0.00110371 -8.45555e-05 4.18166e-05
-8.45555e-05 0.000571958 -1.23082e-05
4.18166e-05 -1.23082e-05 0.000364686
0.000862751 -9.9811e-05 6.2501e-05
-9.9811e-05 -0.000124966 -2.5543e-05
6.2501e-05 -2.5543e-05 -0.00129496
-0.00179532 0.000162287 -0.000187789
0.000162287 0.00121745 -1.57759e-05
-0.000187789 -1.57759e-05 7.3788e-05
0.00209992 0.00145719 -0.000122851
0.00145719 -3.66903e-05 0.000195166
-0.000122851 0.000195166 0.000401663
0.00786984 -0.000543494 2.1198e-05
-0.000543494 0.00359631 -1.83157e-05
2.1198e-05 -1.83157e-05 0.000502965
0.00342412 -0.000393391 -6.1088e-05
-0.000393391 0.000891911 5.64225e-05
-6.1088e-05 5.64225e-05 0.000588357
-0.000985411 3.03551e-05 1.99965e-05
3.03551e-05 -0.000439227 1.44102e-05
1.99965e-05 1.44102e-05 -0.000601312
0.000136425 -0.000165698 -1.01559e-05
-0.000165698 0.000227365 1.25137e-06
-1.01559e-05 1.25137e-06 -2.80946e-05
0.00051579 -0.000240291 2.1791e-05
-0.000240291 0.00013832 -5.66079e-06
2.1791e-05 -5.66079e-06 -1.40795e-05
-0.000778616 -0.000122331 -3.65972e-06
-0.000122331 -0.00046185 6.64263e-06
-3.65972e-06 6.64263e-06 -0.000606308
-0.000607095 -0.000139778 1.54727e-06
-0.000139778 -0.000412374 -3.98486e-06
1.54727e-06 -3.98486e-06 -0.000694657
0.00283481 -0.000478548 2.61195e-05
-0.000478548 0.00105283 -4.95792e-06
2.61195e-05 -4.95792e-06 0.000777334
0.00339673 -0.000455252 -6.82116e-06
-0.000455252 0.00155041 2.45293e-06
-6.82116e-06 2.45293e-06 0.00131063
0.00196308 -0.000342711 3.86711e-06
-0.000342711 0.000775081 9.60317e-07
3.86711e-06 9.60317e-07 0.000428903
0.0011546 -0.00033321 7.48513e-06
-0.00033321 0.00015793 -4.66741e-06
7.48513e-06 -4.66741e-06 -0.000191422
0.0016283 -0.000290872 -5.83103e-06
-0.000290872 0.00047109 1.07001e-06
-5.83103e-06 1.07001e-06 0.000223148
0.00222757 -0.000400628 2.07098e-06
-0.000400628 0.000705064 3.19243e-08
2.07098e-06 3.19243e-08 0.000390446
0.00200312 -0.000402367 1.44847e-06
-0.000402367 0.000495652 -5.06706e-06
1.44847e-06 -5.06706e-06 0.000183365
0.00179471 -0.000356267 -9.01833e-08
-0.000356267 0.000297976 -3.08227e-06
-9.01833e-08 -3.08227e-06 6.45535e-05
0.00216708 -0.000390882 -4.51091e-06
-0.000390882 0.000579746 4.35618e-06
-4.51091e-06 4.35618e-06 0.000318879
0.00176648 -0.000370162 -1.22923e-06
-0.000370162 0.000350211 -4.82927e-07
-1.22923e-06 -4.82927e-07 7.47034e-05
0.000313037 -0.000172199 5.03936e-06
-0.000172199 -0.000305843 8.7126e-07
5.03936e-06 8.7126e-07 -0.000492265
0.00105946 -0.000245103 2.49848e-06
-0.000245103 9.6108e-05 -9.57974e-08
2.49848e-06 -9.57974e-08 -0.000113048
0.00136573 -0.0002909 -1.21843e-06
-0.0002909 0.000241456 -2.53092e-06
-1.21843e-06 -2.53092e-06 -6.8133e-06
0.00117997 -0.000211069 2.33813e-06
-0.000211069 0.000314703 6.24716e-07
2.33813e-06 6.24716e-07 0.000121994
0.00129632 -0.000231514 -2.12123e-06
-0.000231514 0.000351869 -1.65712e-06
-2.12123e-06 -1.65712e-06 0.000160751
0.000684877 -0.000185347 4.92878e-06
-0.000185347 -2.05875e-05 -3.76501e-06
4.92878e-06 -3.76501e-06 -0.000193731
0.000580387 -4.10556e-05 2.19142e-06
-4.10556e-05 1.87109e-05 1.61171e-06
2.19142e-06 1.61171e-06 -0.000118801
0.00053525 -8.3911e-05 -2.10972e-07
-8.3911e-05 4.03824e-06 9.12251e-07
-2.10972e-07 9.12251e-07 -0.000155488
0.00135035 -0.000215928 2.89272e-06
-0.000215928 0.000467508 -3.12537e-06
2.89272e-06 -3.12537e-06 0.000275915
0.000561645 4.37291e-05 -7.91671e-08
4.37291e-05 -1.62367e-05 2.82298e-06
-7.91671e-08 2.82298e-06 -8.88002e-05
0.000735993 -1.16431e-05 -3.87816e-07
-1.16431e-05 0.000103606 -5.70587e-07
-3.87816e-07 -5.70587e-07 -8.93021e-06
0.00115779 -0.000105316 1.66931e-08
-0.000105316 0.000364515 -6.49504e-07
1.66931e-08 -6.49504e-07 0.000224886
0.000535011 5.99024e-05 -1.36223e-06
5.99024e-05 -4.0587e-05 5.97115e-06
-1.36223e-06 5.97115e-06 -6.54222e-05
0.000648627 2.73751e-05 -2.77711e-07
2.73751e-05 2.12231e-05 -2.65619e-07
-2.77711e-07 -2.65619e-07 -3.7953e-05
0.000797002 -2.23853e-05 -1.682e-07
-2.23853e-05 0.000125798 -1.50387e-06
-1.682e-07 -1.50387e-06 3.34289e-05
0.000669978 1.56433e-05 1.53921e-06
1.56433e-05 2.78344e-05 -2.05631e-06
1.53921e-06 -2.05631e-06 -2.52737e-05
0.000577728 5.35947e-05 3.07735e-08
5.35947e-05 -2.5384e-05 -1.11546e-08
3.07735e-08 -1.11546e-08 -4.67855e-05
0.00229379 8.83225e-05 -2.64138e-05
8.83225e-05 0.000989929 3.43289e-06
-2.64138e-05 3.43289e-06 0.000996898
0.00059068 4.59654e-05 5.58985e-07
4.59654e-05 -2.75447e-05 -4.05982e-06
5.58985e-07 -4.05982e-06 -4.55563e-05
0.00228228 7.74628e-05 2.40581e-06
7.74628e-05 0.000975538 1.95763e-07
2.40581e-06 1.95763e-07 0.000985046
0.00228233 6.64191e-05 1.96855e-05
6.64191e-05 0.000968795 -3.98424e-06
1.96855e-05 -3.98424e-06 0.000980432
0.000728735 4.078e-05 -3.1878e-07
4.078e-05 8.94509e-05 -7.25139e-07
-3.1878e-07 -7.25139e-07 -2.22088e-05
0.000775057 7.15715e-05 -3.45126e-07
7.15715e-05 0.0001178 -1.38479e-06
-3.45126e-07 -1.38479e-06 1.36813e-05
0.000660202 6.40278e-06 -7.93155e-07
6.40278e-06 1.6245e-05 -2.56105e-06
-7.93155e-07 -2.56105e-06 -4.31485e-05
0.000729552 6.53039e-05 -9.3483e-08
6.53039e-05 8.15479e-05 2.21209e-08
-9.3483e-08 2.21209e-08 -1.17994e-05
0.000585126 -2.9738e-05 1.40625e-07
-2.9738e-05 -3.89055e-05 -4.6679e-06
1.40625e-07 -4.6679e-06 -5.69077e-05
0.000654678 1.4319e-05 -1.14961e-07
1.4319e-05 1.43599e-05 -7.47666e-08
-1.14961e-07 -7.47666e-08 -4.06555e-05
0.000685131 3.64549e-05 -1.05393e-06
3.64549e-05 5.34686e-05 6.43648e-07
-1.05393e-06 6.43648e-07 -3.4169e-05
0.00233402 -5.06488e-05 -1.9011e-05
-5.06488e-05 0.00098832 -4.62534e-06
-1.9011e-05 -4.62534e-06 0.00100257
0.000598808 -2.23971e-05 -2.0467e-07
-2.23971e-05 -3.56091e-05 -5.24876e-08
-2.0467e-07 -5.24876e-08 -4.96788e-05
0.000617883 1.79582e-05 -6.74576e-07
1.79582e-05 -5.8705e-06 1.34848e-06
-6.74576e-07 1.34848e-06 -5.65812e-05
0.00222214 -3.6029e-05 -3.69825e-06
-3.6029e-05 0.000918518 1.29793e-07
-3.69825e-06 1.29793e-07 0.000935269
0.000603581 -1.56741e-05 -1.90383e-07
-1.56741e-05 -3.58092e-05 3.831e-06
-1.90383e-07 3.831e-06 -4.65392e-05
0.0021302 -2.18165e-05 9.87092e-06
-2.18165e-05 0.000861778 4.70777e-06
9.87092e-06 4.70777e-06 0.000880391
0.000888421 -7.48082e-05 4.95511e-06
-7.48082e-05 0.000113849 1.91563e-05
4.95511e-06 1.91563e-05 -2.0752e-05
0.00156911 -5.30894e-05 -1.15164e-05
-5.30894e-05 -0.000130235 1.72983e-05
-1.15164e-05 1.72983e-05 -5.69915e-05
0.00119805 -1.83754e-05 3.84673e-06
-1.83754e-05 0.00035112 -1.03735e-05
3.84673e-06 -1.03735e-05 0.000239771
0.000739833 4.1002e-05 -1.62489e-07
4.1002e-05 8.68814e-05 -9.30593e-09
-1.62489e-07 -9.30593e-09 -1.96469e-05
0.000719916 1.83103e-05 3.89717e-07
1.83103e-05 6.89341e-05 4.73555e-08
3.89717e-07 4.73555e-08 -3.6112e-05
0.000594679 2.14965e-05 -2.02671e-06
2.14965e-05 -3.01272e-06 -1.96604e-06
-2.02671e-06 -1.96604e-06 -0.000108559
0.000519891 -4.02164e-06 -4.13117e-07
-4.02164e-06 -4.52726e-05 -8.81605e-07
-4.13117e-07 -8.81605e-07 -0.000149309
0.00104697 0.000106663 -1.11421e-06
0.000106663 0.000273812 -9.89255e-07
-1.11421e-06 -9.89255e-07 0.000148612
0.000679128 1.16942e-05 -3.7109e-07
1.16942e-05 3.49563e-05 3.52593e-07
-3.7109e-07 3.52593e-07 -6.03894e-05
0.000680884 3.54363e-05 1.17519e-07
3.54363e-05 4.90751e-05 -9.06505e-07
1.17519e-07 -9.06505e-07 -6.01497e-05
0.000767782 4.736e-05 -1.01987e-07
4.736e-05 0.000102119 -7.78163e-08
-1.01987e-07 -7.78163e-08 -7.63431e-06
0.00089412 8.05342e-05 5.48886e-07
8.05342e-05 0.000178741 4.2731e-07
5.48886e-07 4.2731e-07 5.84808e-05
0.000984948 5.44033e-05 -5.225e-07
5.44033e-05 0.00024431 -5.85393e-07
-5.225e-07 -5.85393e-07 0.000125934
0.00234647 0.000121707 0.000118857
0.000121707 0.00110195 0.000175018
0.000118857 0.000175018 -0.00098436
0.00071566 6.51769e-05 1.04708e-05
6.51769e-05 0.000208713 4.6627e-05
1.04708e-05 4.6627e-05 -0.00122658
0.00260022 -2.52034e-05 -1.38345e-05
-2.52034e-05 0.000938174 -1.34085e-05
-1.38345e-05 -1.34085e-05 0.000269918
0.00783993 -0.000806844 -6.40288e-05
-0.000806844 0.00104428 -7.37464e-05
-6.40288e-05 -7.37464e-05 0.00235009
-0.010666 0.000567797 -4.14169e-05
0.000567797 -0.00355473 0.000202197
-4.14169e-05 0.000202197 -0.00553118
0.00545666 -0.000948569 -0.0001066
-0.000948569 0.00196835 5.32633e-05
-0.0001066 5.32633e-05 0.00126099
0.00994988 -0.000618233 -5.19658e-05
-0.000618233 0.0041173 -1.9146e-05
-5.19658e-05 -1.9146e-05 0.000947276
0.00246189 -0.000115062 -1.61898e-05
-0.000115062 0.000324607 5.29206e-05
-1.61898e-05 5.29206e-05 -5.94663e-06
0.0111908 -0.000150672 2.16643e-05
-0.000150672 0.00537879 -1.60424e-05
2.16643e-05 -1.60424e-05 0.00157684
0.0017634 -0.000817232 4.76249e-05
-0.000817232 9.93566e-05 4.85939e-05
4.76249e-05 4.85939e-05 -0.000999455
0.00290027 -0.00101563 -0.000103717
-0.00101563 -0.00179026 -0.000227746
-0.000103717 -0.000227746 -0.000399529
0.00343308 0.000165288 -9.26403e-05
0.000165288 0.000669475 2.26929e-05
-9.26403e-05 2.26929e-05 0.000182769
0.00916054 0.000655375 -7.77887e-06
0.000655375 0.00414236 2.15054e-05
-7.77887e-06 2.15054e-05 0.00114078
0.0100979 -0.00159943 -1.44186e-05
-0.00159943 0.00318929 -0.000180325
-1.44186e-05 -0.000180325 0.00313871
0.00580013 -0.00159193 5.2405e-05
-0.00159193 0.000981961 4.73892e-06
5.2405e-05 4.73892e-06 0.00247844
0.000241945 4.96171e-05 -2.64743e-07
4.96171e-05 -0.000117278 -1.33817e-06
-2.64743e-07 -1.33817e-06 -0.000218133
0.000954375 7.22594e-06 1.69749e-07
7.22594e-06 0.00022936 1.56841e-06
1.69749e-07 1.56841e-06 0.000110121
0.000697947 4.08649e-05 -4.04685e-08
4.08649e-05 7.59626e-05 -1.29302e-06
-4.04685e-08 -1.29302e-06 -5.52605e-05
0.00114014 3.78029e-06 -3.72771e-05
3.78029e-06 0.000641367 1.70656e-05
-3.72771e-05 1.70656e-05 5.875e-05
0.00101261 -4.38875e-05 -7.19393e-05
-4.38875e-05 0.000595643 -3.08145e-05
-7.19393e-05 -3.08145e-05 0.000529903
0.000688676 -3.38233e-06 -1.48468e-06
-3.38233e-06 8.24117e-05 3.41368e-06
-1.48468e-06 3.41368e-06 -3.96702e-05
-0.000679311 5.72818e-05 -1.50239e-06
5.72818e-05 -0.000495342 -4.61368e-06
-1.50239e-06 -4.61368e-06 -0.00070829
0.000588457 7.77421e-05 5.82777e-08
7.77421e-05 0.000164626 -2.94017e-06
5.82777e-08 -2.94017e-06 1.44607e-05
0.000606587 7.77874e-05 -4.0087e-06
7.77874e-05 0.000319585 4.0183e-06
-4.0087e-06 4.0183e-06 0.000126892
-0.000286491 -2.15577e-05 0.000104704
-2.15577e-05 0.000610041 -3.87344e-05
0.000104704 -3.87344e-05 -0.000517883
-0.00241469 -4.83622e-06 -2.17862e-05
-4.83622e-06 -0.00134204 1.16762e-05
-2.17862e-05 1.16762e-05 -0.00149086
0.00215247 0.000234741 -2.18017e-05
0.000234741 0.00123839 -3.72641e-05
-2.18017e-05 -3.72641e-05 0.000510505
0.0018709 -2.14843e-06 6.46273e-05
-2.14843e-06 0.000804785 8.78533e-06
6.46273e-05 8.78533e-06 -0.000470793
0.000771342 -1.94888e-05 1.60873e-05
-1.94888e-05 0.000434693 8.21195e-06
1.60873e-05 8.21195e-06 3.80596e-06
0.00173083 -4.35468e-05 -1.1315e-06
-4.35468e-05 0.000411681 -7.43903e-07
-1.1315e-06 -7.43903e-07 0.000267093
-0.00269193 0.000143234 4.64928e-05
0.000143234 -0.000963658 8.71373e-06
4.64928e-05 8.71373e-06 -0.00153591
0.00333957 9.4595e-05 -1.71517e-05
9.4595e-05 0.000966523 -7.38484e-06
-1.71517e-05 -7.38484e-06 0.000512824
0.00124365 3.39355e-07 1.86887e-06
3.39355e-07 0.000371769 7.8176e-06
1.86887e-06 7.8176e-06 0.000268307
0.0155413 -0.00110259 0.00010989
-0.00110259 0.00684636 -1.92008e-05
0.00010989 -1.92008e-05 0.00323995
0.00896614 0.00117985 -6.67244e-05
0.00117985 0.00284981 -3.6372e-05
-6.67244e-05 -3.6372e-05 0.00239328
0.00356439 -0.000288574 -5.38547e-05
-0.000288574 0.00121834 0.000105624
-5.38547e-05 0.000105624 -0.00100957
-0.00722933 0.00178616 0.000435038
0.00178616 -0.00370053 -0.000333885
0.000435038 -0.000333885 -0.00182681
0.000811464 -9.56849e-05 -2.63218e-06
-9.56849e-05 0.000563324 -1.36945e-06
-2.63218e-06 -1.36945e-06 0.000289227
0.00126965 -8.32232e-05 -8.03569e-06
-8.32232e-05 0.000126248 6.92265e-06
-8.03569e-06 6.92265e-06 -0.00109458
-0.00262838 0.000211788 -0.000255383
0.000211788 0.00124992 0.000113638
-0.000255383 0.000113638 0.000198538
0.0019545 -0.000298537 -2.44496e-05
-0.000298537 0.000207825 3.25447e-05
-2.44496e-05 3.25447e-05 -7.15637e-05
0.0094714 0.00163154 5.82135e-05
0.00163154 0.00304817 5.95674e-05
5.82135e-05 5.95674e-05 0.00356726
0.00750655 -0.00105015 6.98819e-05
-0.00105015 0.00313511 -4.57908e-05
6.98819e-05 -4.57908e-05 0.000302065
0.00143583 -0.000244026 1.27162e-05
-0.000244026 0.000387084 2.49511e-05
1.27162e-05 2.49511e-05 0.000476079
-0.00336467 -0.000194528 2.44634e-05
-0.000194528 0.000904702 -1.35024e-05
2.44634e-05 -1.35024e-05 -0.000807015
0.00777568 0.00146124 -0.000262642
0.00146124 0.00377499 0.000121867
-0.000262642 0.000121867 0.00374752
0.00241466 -0.000547776 -0.000154067
-0.000547776 -5.33484e-05 0.000106003
-0.000154067 0.000106003 -0.00293971
0.00235327 -0.000806984 6.83602e-05
-0.000806984 0.000333862 -2.42532e-05
6.83602e-05 -2.42532e-05 -2.83029e-05
-0.000843333 -0.000116132 -1.73695e-05
-0.000116132 -0.000291289 1.24334e-05
-1.73695e-05 1.24334e-05 -0.000540683
0.000410067 -0.000231718 -3.79651e-06
-0.000231718 0.000115835 3.85087e-06
-3.79651e-06 3.85087e-06 -9.83633e-05
0.00395792 -0.000536102 3.04846e-05
-0.000536102 0.00154762 3.39998e-06
3.04846e-05 3.39998e-06 0.0014508
-0.00244295 -3.34371e-05 -6.39334e-06
-3.34371e-05 -0.00137034 8.06236e-06
-6.39334e-06 8.06236e-06 -0.00165333
0.000743802 -0.000292321 2.91623e-06
-0.000292321 -2.92423e-06 5.34559e-07
2.91623e-06 5.34559e-07 -0.00028495
0.00196875 -0.000467059 4.9801e-06
-0.000467059 0.000345867 -4.28583e-07
4.9801e-06 -4.28583e-07 0.000119005
0.00255448 -0.000388048 -9.26117e-06
-0.000388048 0.00104596 2.34415e-06
-9.26117e-06 2.34415e-06 0.000722204
0.00126835 -0.000337362 -2.34608e-06
-0.000337362 0.000197223 -3.03994e-06
-2.34608e-06 -3.03994e-06 -0.000131996
0.0020961 -0.000458065 4.90947e-06
-0.000458065 0.00041978 -4.12364e-06
4.90947e-06 -4.12364e-06 0.000165554
0.00216489 -0.000398907 -3.62076e-06
-0.000398907 0.000646216 -1.68296e-06
-3.62076e-06 -1.68296e-06 0.000330816
0.00155074 -0.000365343 -9.62521e-08
-0.000365343 0.000227592 -3.15618e-06
-9.62521e-08 -3.15618e-06 -7.25841e-05
0.00188649 -0.000380766 -9.46076e-08
-0.000380766 0.000282225 -6.10756e-06
-9.46076e-08 -6.10756e-06 5.63683e-05
0.00168344 -0.000303426 -1.55214e-06
-0.000303426 0.000156805 -3.16954e-06
-1.55214e-06 -3.16954e-06 -2.94585e-05
0.00160623 -0.000342119 2.17452e-06
-0.000342119 0.000196638 -1.5907e-06
2.17452e-06 -1.5907e-06 -4.33374e-05
0.00166811 -0.000346686 1.6952e-06
-0.000346686 0.000229844 -1.45091e-06
1.6952e-06 -1.45091e-06 -1.36152e-06
0.00162639 -0.000306623 -1.83369e-06
-0.000306623 0.000316928 4.71977e-06
-1.83369e-06 4.71977e-06 9.10327e-05
0.00190083 -0.000369995 -1.85761e-06
-0.000369995 0.000438439 1.98704e-07
-1.85761e-06 1.98704e-07 0.000176054
0.00175995 -0.000371624 -2.76932e-08
-0.000371624 0.000348514 -2.54581e-06
-2.76932e-08 -2.54581e-06 6.81266e-05
0.00109356 -0.000220644 2.9093e-06
-0.000220644 0.000192721 3.54986e-08
2.9093e-06 3.54986e-08 -3.78309e-07
0.000612068 -0.000194052 -8.17246e-07
-0.000194052 -0.000130254 -1.63797e-06
-8.17246e-07 -1.63797e-06 -0.000314989
0.00153139 -0.000281457 6.40848e-06
-0.000281457 0.000364632 -6.02573e-06
6.40848e-06 -6.02573e-06 0.000157932
0.000760645 -0.000140819 -1.52789e-07
-0.000140819 9.09942e-05 -2.30776e-07
-1.52789e-07 -2.30776e-07 -7.16112e-05
0.000877249 -0.000179162 2.32982e-07
-0.000179162 0.000142693 -4.94485e-08
2.32982e-07 -4.94485e-08 -4.37549e-05
0.000843139 -0.000189726 -1.80709e-06
-0.000189726 8.83186e-05 7.87918e-08
-1.80709e-06 7.87918e-08 -9.66049e-05
0.000531411 4.37947e-05 1.14345e-06
4.37947e-05 -2.41284e-05 4.27103e-06
1.14345e-06 4.27103e-06 -0.000117559
0.000784545 -6.38997e-05 9.39439e-07
-6.38997e-05 0.000142691 5.62785e-07
9.39439e-07 5.62785e-07 -3.08827e-06
0.000981372 -0.000123793 -1.98731e-06
-0.000123793 0.000270562 8.26175e-07
-1.98731e-06 8.26175e-07 0.000105526
0.00134524 9.83057e-05 -1.35584e-05
9.83057e-05 0.000450274 4.06985e-06
-1.35584e-05 4.06985e-06 0.000420408
0.00064995 2.11628e-05 -5.23975e-07
2.11628e-05 3.05096e-05 -6.18279e-07
-5.23975e-07 -6.18279e-07 -4.14749e-05
0.000870887 -4.92192e-05 -1.49052e-06
-4.92192e-05 0.000185918 -1.88628e-06
-1.49052e-06 -1.88628e-06 6.68746e-05
0.000751781 4.70733e-05 -2.67327e-05
4.70733e-05 9.37869e-05 3.4464e-06
-2.67327e-05 3.4464e-06 9.36054e-05
0.000983002 7.69935e-05 -7.89545e-06
7.69935e-05 0.00022454 1.10342e-07
-7.89545e-06 1.10342e-07 0.000199641
0.000680655 2.32835e-05 8.31502e-07
2.32835e-05 3.8201e-05 -2.52552e-06
8.31502e-07 -2.52552e-06 -2.08526e-05
0.000584107 5.69668e-05 -1.90305e-08
5.69668e-05 -2.02161e-05 -4.40609e-06
-1.90305e-08 -4.40609e-06 -4.23753e-05
0.00233527 9.03979e-05 2.67637e-06
9.03979e-05 0.00101505 2.36478e-07
2.67637e-06 2.36478e-07 0.00102155
0.00230086 7.91664e-05 2.30198e-05
7.91664e-05 0.000987375 -3.6765e-06
2.30198e-05 -3.6765e-06 0.000996515
0.000680648 3.58502e-05 -1.48694e-07
3.58502e-05 5.08478e-05 -6.77863e-07
-1.48694e-07 -6.77863e-07 -5.61882e-05
0.000790942 5.66511e-05 -2.00416e-07
5.66511e-05 0.000124446 -1.72283e-06
-2.00416e-07 -1.72283e-06 1.83773e-05
0.000684199 2.70784e-05 5.12483e-08
2.70784e-05 5.23748e-05 5.00198e-08
5.12483e-08 5.00198e-08 -5.11298e-05
0.00066446 -4.97436e-06 -1.00443e-06
-4.97436e-06 1.98396e-05 -2.73574e-06
-1.00443e-06 -2.73574e-06 -4.35797e-05
0.000737311 4.62475e-05 6.5778e-07
4.62475e-05 8.51076e-05 1.70556e-08
6.5778e-07 1.70556e-08 -1.07563e-05
0.000573428 -3.38237e-05 -3.66687e-07
-3.38237e-05 -4.0181e-05 -4.99982e-06
-3.66687e-07 -4.99982e-06 -6.1877e-05
0.00064936 9.73305e-06 -1.12723e-07
9.73305e-06 1.12291e-05 -6.92995e-08
-1.12723e-07 -6.92995e-08 -4.85881e-05
0.000754639 5.8862e-05 3.4812e-07
5.8862e-05 0.000110158 1.62349e-06
3.4812e-07 1.62349e-06 6.86705e-06
0.00245583 -6.42229e-05 -2.48136e-05
-6.42229e-05 0.00106456 -4.44203e-06
-2.48136e-05 -4.44203e-06 0.00107622
0.000582874 -2.89645e-05 -3.62911e-07
-2.89645e-05 -4.05192e-05 -3.57292e-08
-3.62911e-07 -3.57292e-08 -5.83005e-05
0.000643818 1.52126e-05 5.46539e-07
1.52126e-05 8.59498e-06 2.58034e-06
5.46539e-07 2.58034e-06 -4.64221e-05
0.00232217 -4.95677e-05 -3.61699e-06
-4.95677e-05 0.000980814 1.78491e-07
-3.61699e-06 1.78491e-07 0.000995373
0.000593611 -2.21189e-05 -1.87689e-07
-2.21189e-05 -3.85335e-05 4.13272e-06
-1.87689e-07 4.13272e-06 -5.24777e-05
0.00220944 -3.47549e-05 1.41939e-05
-3.47549e-05 0.000910544 4.65948e-06
1.41939e-05 4.65948e-06 0.000927575
0.00349184 5.27386e-06 7.31877e-05
5.27386e-06 0.00133091 2.82872e-05
7.31877e-05 2.82872e-05 0.000416881
0.000873562 -7.22503e-05 -1.6207e-08
-7.22503e-05 0.000143794 7.03941e-06
-1.6207e-08 7.03941e-06 -3.02067e-06
0.00142832 -6.37647e-05 -1.34968e-05
-6.37647e-05 -0.000215847 3.30452e-07
-1.34968e-05 3.30452e-07 -9.98988e-05
0.000747969 9.53283e-05 -3.28317e-06
9.53283e-05 8.89222e-05 -3.0052e-08
-3.28317e-06 -3.0052e-08 -2.73426e-05
0.000818069 4.40171e-05 1.79101e-07
4.40171e-05 0.000128514 5.36497e-07
1.79101e-07 5.36497e-07 2.47789e-05
0.000601834 1.17548e-05 4.95168e-07
1.17548e-05 9.61691e-07 7.50082e-07
4.95168e-07 7.50082e-07 -0.000102452
0.000804016 1.66736e-05 -4.26959e-08
1.66736e-05 0.000113754 -9.98206e-08
-4.26959e-08 -9.98206e-08 1.10364e-05
0.000898381 5.8386e-05 -3.50739e-07
5.8386e-05 0.000175169 -9.14563e-08
-3.50739e-07 -9.14563e-08 6.4342e-05
0.000824003 8.17644e-05 5.02338e-07
8.17644e-05 0.000143581 7.7669e-07
5.02338e-07 7.7669e-07 2.41284e-05
0.000779447 6.9521e-05 -2.2353e-06
6.9521e-05 0.000110963 -2.96914e-06
-2.2353e-06 -2.96914e-06 -1.41595e-05
0.000331448 8.99139e-06 -6.56389e-07
8.99139e-06 -0.000141826 -1.14995e-06
-6.56389e-07 -1.14995e-06 -0.000253059
0.000820915 0.000100654 -2.62917e-07
0.000100654 0.000140207 1.37169e-07
-2.62917e-07 1.37169e-07 2.35383e-05
0.000669107 3.10758e-06 8.79802e-07
3.10758e-06 3.09131e-05 -7.30402e-07
8.79802e-07 -7.30402e-07 -7.14727e-05
0.000771993 4.95731e-05 -4.39474e-07
4.95731e-05 0.000119128 1.94607e-07
-4.39474e-07 1.94607e-07 5.01829e-06
0.00166481 0.000115695 4.87587e-06
0.000115695 0.00067227 5.30563e-06
4.87587e-06 5.30563e-06 0.000558017
0.0010236 -0.000610184 6.76675e-05
-0.000610184 0.00194114 0.000142854
6.76675e-05 0.000142854 0.000779297
0.00300893 0.000171736 1.47565e-05
0.000171736 0.00138211 5.25568e-05
1.47565e-05 5.25568e-05 -0.000742337
0.00118443 8.76795e-05 -1.26962e-05
8.76795e-05 0.000341369 -3.76048e-05
-1.26962e-05 -3.76048e-05 -0.00110748
0.00781893 -0.00133451 -0.000180466
-0.00133451 0.000811666 -0.000139782
-0.000180466 -0.000139782 0.00219114
0.00484723 -0.000413152 3.26173e-05
-0.000413152 0.000846852 0.00017552
3.26173e-05 0.00017552 -5.60311e-05
0.000509298 -0.000601443 -9.75293e-05
-0.000601443 0.0011949 9.75826e-05
-9.75293e-05 9.75826e-05 -0.00273954
0.00203397 -0.000211951 -4.03013e-05
-0.000211951 0.000393625 7.57414e-05
-4.03013e-05 7.57414e-05 -0.000140694
0.00336033 -0.00011698 1.49596e-05
-0.00011698 0.000685322 4.72754e-05
1.49596e-05 4.72754e-05 0.000391228
-0.000495251 -0.00163047 6.65961e-05
-0.00163047 -0.00132524 8.36663e-05
6.65961e-05 8.36663e-05 0.000364043
0.0052013 0.000659668 6.17826e-06
0.000659668 0.00321699 -9.18991e-06
6.17826e-06 -9.18991e-06 -0.000498175
0.00202956 -0.000871182 -2.53765e-05
-0.000871182 -0.00124535 3.38017e-05
-2.53765e-05 3.38017e-05 -0.00123706
0.0012183 0.000321274 1.31975e-06
0.000321274 -0.000278671 3.1648e-05
1.31975e-06 3.1648e-05 -0.000358461
0.00797372 0.000444854 -2.5901e-05
0.000444854 0.00394365 4.22879e-06
-2.5901e-05 4.22879e-06 0.00108148
0.00152016 -0.0013931 -9.36954e-05
-0.0013931 -0.000626144 -0.000122346
-9.36954e-05 -0.000122346 -0.000229035
0.000701265 0.00024324 3.71766e-06
0.00024324 0.000100037 -7.99297e-06
3.71766e-06 -7.99297e-06 -1.3841e-05
0.00071419 7.22942e-05 4.4393e-06
7.22942e-05 0.000144277 -4.43374e-07
4.4393e-06 -4.43374e-07 4.35892e-05
0.000884211 3.21579e-05 -2.31396e-07
3.21579e-05 0.000194298 2.23779e-07
-2.31396e-07 2.23779e-07 7.16861e-05
0.000273358 -1.33137e-05 -0.000152486
-1.33137e-05 0.000912022 -4.43518e-05
-0.000152486 -4.43518e-05 -0.000184928
-0.0017855 8.99292e-05 7.98843e-06
8.99292e-05 -0.000986264 -1.25744e-05
7.98843e-06 -1.25744e-05 -0.00118935
0.000787671 0.000118444 2.02439e-07
0.000118444 0.000280268 -4.75105e-07
2.02439e-07 -4.75105e-07 0.000121932
0.000600155 0.000247507 8.88384e-06
0.000247507 0.000225181 3.47377e-06
8.88384e-06 3.47377e-06 6.62158e-05
0.000635045 0.000216201 -3.93173e-06
0.000216201 0.000369826 -3.01596e-05
-3.93173e-06 -3.01596e-05 -0.000241957
-0.000151418 0.00037935 2.20624e-05
0.00037935 -0.000490304 -4.27812e-07
2.20624e-05 -4.27812e-07 -0.000750599
-0.000201763 0.000152984 0.000118919
0.000152984 0.00258246 1.1828e-05
0.000118919 1.1828e-05 0.000878497
0.00190828 -2.63449e-05 -4.41843e-06
-2.63449e-05 0.000850476 1.47691e-05
-4.41843e-06 1.47691e-05 -0.000180962
0.000573337 -2.28544e-05 3.61522e-06
-2.28544e-05 0.000315457 1.11337e-05
3.61522e-06 1.11337e-05 -4.77824e-05
0.00035521 -7.71529e-05 -2.93413e-05
-7.71529e-05 0.000439841 8.6429e-06
-2.93413e-05 8.6429e-06 0.000152571
0.000588502 -0.000123182 -4.32565e-05
-0.000123182 -0.000998709 6.09171e-07
-4.32565e-05 6.09171e-07 -0.000832514
0.00171296 -7.81062e-05 -7.81739e-05
-7.81062e-05 0.000333549 2.20615e-05
-7.81739e-05 2.20615e-05 -0.000846591
-0.0013571 -0.00105139 4.68235e-05
-0.00105139 -0.000294394 -7.20565e-05
4.68235e-05 -7.20565e-05 -0.00373126
-0.00268355 0.00118219 0.000103666
0.00118219 -0.00368144 -0.000116181
0.000103666 -0.000116181 -0.00298545
0.00175675 0.000605624 -0.000129857
0.000605624 0.00255731 0.000130675
-0.000129857 0.000130675 0.00196636
0.00208192 -0.000119306 -1.01521e-05
-0.000119306 0.000526607 6.65678e-07
-1.01521e-05 6.65678e-07 0.000758343
0.00157625 0.000156508 1.85225e-05
0.000156508 0.00277322 9.1931e-06
1.85225e-05 9.1931e-06 0.00176718
-0.00369187 0.000858689 3.05486e-05
0.000858689 -0.00105966 8.97946e-06
3.05486e-05 8.97946e-06 -0.00206468
0.00375155 -0.000918322 1.79177e-05
-0.000918322 0.00130432 -4.02462e-06
1.79177e-05 -4.02462e-06 0.000515475
0.0100355 -0.000394287 8.31864e-06
-0.000394287 0.00352548 -8.48788e-06
8.31864e-06 -8.48788e-06 0.00166711
0.00213407 -0.000461079 -2.60992e-06
-0.000461079 0.000493162 2.25992e-05
-2.60992e-06 2.25992e-05 0.000576394
-0.00748933 0.0003288 -0.000171705
0.0003288 -0.00352706 -4.57749e-08
-0.000171705 -4.57749e-08 -0.00415128
0.0109407 -0.000163469 -6.25146e-05
-0.000163469 0.00333254 2.23519e-05
-6.25146e-05 2.23519e-05 0.00185035
0.00431052 -0.00104288 1.98627e-06
-0.00104288 0.000294304 -9.35991e-06
1.98627e-06 -9.35991e-06 -0.000373456
0.000590821 -0.000230159 -2.30419e-05
-0.000230159 0.000248794 1.45691e-05
-2.30419e-05 1.45691e-05 -3.02479e-05
0.00175603 -0.000391982 -3.06343e-06
-0.000391982 0.000310541 1.14713e-06
-3.06343e-06 1.14713e-06 0.000293421
0.00282066 -0.000443898 1.32198e-05
-0.000443898 0.000685609 -3.19288e-06
1.32198e-05 -3.19288e-06 0.000663727
-0.0013914 -0.000102939 -3.75271e-06
-0.000102939 -0.0010815 2.69424e-07
-3.75271e-06 2.69424e-07 -0.00137392
0.00135597 -0.000410626 -3.89157e-06
-0.000410626 5.57143e-05 -1.50683e-06
-3.89157e-06 -1.50683e-06 -0.000178383
0.0021878 -0.000487768 2.77693e-06
-0.000487768 0.000332649 -5.75337e-07
2.77693e-06 -5.75337e-07 0.000143861
0.00135336 -0.000340608 -1.04221e-05
-0.000340608 0.000225071 -2.4062e-06
-1.04221e-05 -2.4062e-06 -8.67502e-05
0.0015508 -0.000410318 2.1873e-07
-0.000410318 0.000141339 3.97124e-07
2.1873e-07 3.97124e-07 -0.000113186
0.00189434 -0.000391927 -1.38128e-06
-0.000391927 0.000177773 -4.98649e-06
-1.38128e-06 -4.98649e-06 -4.31001e-06
0.0010971 -0.000329125 -5.16737e-06
-0.000329125 -4.04568e-05 5.26006e-08
-5.16737e-06 5.26006e-08 -0.000329063
0.00163258 -0.000358987 -4.19704e-07
-0.000358987 0.000138451 3.95224e-07
-4.19704e-07 3.95224e-07 -8.31664e-05
0.00175604 -0.000309338 -1.40593e-06
-0.000309338 0.00011421 -5.39107e-06
-1.40593e-06 -5.39107e-06 -3.88433e-05
0.00160118 -0.000245867 -3.27977e-06
-0.000245867 4.86465e-05 -3.44207e-06
-3.27977e-06 -3.44207e-06 -9.16347e-05
0.00149096 -0.000283454 -1.33697e-06
-0.000283454 7.54148e-05 -2.43038e-06
-1.33697e-06 -2.43038e-06 -0.000118889
0.0015755 -0.00028968 7.30629e-07
-0.00028968 9.921e-05 1.21943e-06
7.30629e-07 1.21943e-06 -8.28739e-05
0.00130468 -0.000287838 -3.34604e-06
-0.000287838 5.66084e-05 1.82829e-07
-3.34604e-06 1.82829e-07 -0.000162921
0.00157767 -0.000335917 1.96372e-06
-0.000335917 0.000186795 -8.62332e-08
1.96372e-06 -8.62332e-08 -4.91851e-05
0.00154505 -0.00033725 1.18758e-06
-0.00033725 0.000163494 1.78448e-06
1.18758e-06 1.78448e-06 -6.54189e-05
0.00123164 -0.000245704 9.43147e-08
-0.000245704 0.000168327 3.15997e-06
9.43147e-08 3.15997e-06 -3.38274e-05
0.00131075 -0.000283012 2.62133e-06
-0.000283012 0.000140722 -1.1208e-06
2.62133e-06 -1.1208e-06 -8.20245e-05
0.00148987 -0.000336852 -1.20574e-06
-0.000336852 0.000214117 -2.58538e-06
-1.20574e-06 -2.58538e-06 -4.84982e-05
0.000980985 -0.000186954 -1.13294e-06
-0.000186954 0.000157201 1.51666e-06
-1.13294e-06 1.51666e-06 -1.75035e-05
0.00113122 -0.000222389 2.46938e-07
-0.000222389 0.000208015 -8.105e-07
2.46938e-07 -8.105e-07 1.56387e-05
0.000920176 -0.000216369 -9.08662e-07
-0.000216369 4.95085e-05 -5.33457e-06
-9.08662e-07 -5.33457e-06 -0.000134081
0.00067192 -5.46294e-05 -8.69779e-07
-5.46294e-05 4.27531e-05 4.61602e-06
-8.69779e-07 4.61602e-06 -7.51168e-05
0.000928957 -0.000142141 2.82439e-07
-0.000142141 0.000187731 1.37118e-07
2.82439e-07 1.37118e-07 2.32127e-05
0.000551499 -0.000144251 -2.56202e-06
-0.000144251 -4.33903e-05 7.00784e-07
-2.56202e-06 7.00784e-07 -0.000222833
0.000436706 6.62072e-05 2.20046e-06
6.62072e-05 -7.52172e-05 7.03523e-06
2.20046e-06 7.03523e-06 -0.00011669
0.000689243 -2.30698e-05 -3.71231e-07
-2.30698e-05 6.49676e-05 -4.06018e-07
-3.71231e-07 -4.06018e-07 -3.24002e-05
0.00103611 -9.38812e-05 5.96257e-07
-9.38812e-05 0.000292201 -1.34837e-06
5.96257e-07 -1.34837e-06 0.000138508
0.00246792 0.000125097 -8.11649e-06
0.000125097 0.0011093 1.5048e-06
-8.11649e-06 1.5048e-06 0.00110658
0.000555007 6.98291e-05 -2.75146e-07
6.98291e-05 -1.48115e-05 -2.29263e-07
-2.75146e-07 -2.29263e-07 -4.72978e-05
0.000726057 5.18396e-07 1.69507e-06
5.18396e-07 7.21881e-05 -3.79523e-06
1.69507e-06 -3.79523e-06 -5.219e-07
0.00240377 0.000101847 2.81312e-06
0.000101847 0.00106272 2.42528e-07
2.81312e-06 2.42528e-07 0.00106648
0.000580535 6.69261e-05 -1.17107e-06
6.69261e-05 -9.784e-06 -4.98246e-06
-1.17107e-06 -4.98246e-06 -3.69536e-05
0.00239141 9.25485e-05 2.78919e-05
9.25485e-05 0.00104868 -3.23727e-06
2.78919e-05 -3.23727e-06 0.00105471
0.000889604 9.92939e-05 -5.4142e-07
9.92939e-05 0.000170963 7.23709e-07
-5.4142e-07 7.23709e-07 5.19739e-05
0.000765855 4.87944e-05 -1.43527e-07
4.87944e-05 0.000101921 -2.67082e-07
-1.43527e-07 -2.67082e-07 -7.80712e-06
0.000797136 3.7872e-05 -1.85805e-07
3.7872e-05 0.00013365 -2.13392e-06
-1.85805e-07 -2.13392e-06 1.85874e-05
0.00067065 -9.32795e-06 -1.19004e-06
-9.32795e-06 2.71662e-05 -3.14853e-06
-1.19004e-06 -3.14853e-06 -4.06805e-05
0.000729613 2.77775e-05 4.34251e-07
2.77775e-05 8.44508e-05 1.17441e-07
4.34251e-07 1.17441e-07 -1.73165e-05
0.000646552 3.7037e-05 8.78317e-07
3.7037e-05 3.63584e-05 9.88029e-07
8.78317e-07 9.88029e-07 -7.11763e-05
0.00057152 -4.05031e-05 -5.70916e-07
-4.05031e-05 -3.49322e-05 -5.38073e-06
-5.70916e-07 -5.38073e-06 -6.03735e-05
0.000650119 1.59223e-06 -3.68412e-08
1.59223e-06 1.30371e-05 -6.64988e-08
-3.68412e-08 -6.64988e-08 -5.09084e-05
0.000723709 4.39554e-05 1.19566e-06
4.39554e-05 7.36174e-05 1.40677e-06
1.19566e-06 1.40677e-06 -1.90944e-05
0.0025646 -7.73278e-05 -3.13443e-05
-7.73278e-05 0.00113394 -4.14783e-06
-3.13443e-05 -4.14783e-06 0.00114298
0.000567671 -3.48485e-05 -4.16151e-07
-3.48485e-05 -4.36692e-05 -2.78934e-08
-4.16151e-07 -2.78934e-08 -6.53123e-05
0.000650592 1.23565e-05 8.86239e-07
1.23565e-05 1.26853e-05 2.70853e-06
8.86239e-07 2.70853e-06 -4.72785e-05
0.00242606 -6.31253e-05 -4.07682e-06
-6.31253e-05 0.00104652 2.32944e-07
-4.07682e-06 2.32944e-07 0.00105852
0.000582083 -2.82803e-05 -2.52056e-07
-2.82803e-05 -4.11562e-05 4.54277e-06
-2.52056e-07 4.54277e-06 -5.87425e-05
0.00229465 -4.81154e-05 1.85334e-05
-4.81154e-05 0.000964124 4.55369e-06
1.85334e-05 4.55369e-06 0.000979077
-0.00471531 7.05449e-05 -8.67532e-06
7.05449e-05 0.000492649 4.70237e-05
-8.67532e-06 4.70237e-05 -0.00150845
0.00321802 -3.88181e-05 4.70154e-07
-3.88181e-05 0.00133439 1.09118e-05
4.70154e-07 1.09118e-05 0.000374479
0.000891307 -7.31643e-05 -4.30952e-06
-7.31643e-05 0.000170549 -4.47679e-06
-4.30952e-06 -4.47679e-06 1.22344e-05
0.000602446 5.84246e-05 -4.67437e-07
5.84246e-05 2.05126e-06 2.68198e-07
-4.67437e-07 2.68198e-07 -0.000107435
0.0016207 0.000232059 -7.6122e-07
0.000232059 0.000598835 1.24379e-06
-7.6122e-07 1.24379e-06 0.000451578
0.000631492 5.93626e-05 -2.86832e-06
5.93626e-05 2.10107e-05 -1.86134e-07
-2.86832e-06 -1.86134e-07 -9.55765e-05
0.000993243 1.68923e-05 2.41833e-07
1.68923e-05 0.000219119 4.30679e-08
2.41833e-07 4.30679e-08 0.000118419
0.00118267 9.75691e-05 1.85309e-06
9.75691e-05 0.000338718 6.33836e-07
1.85309e-06 6.33836e-07 0.0002248
0.000565358 2.96499e-05 -4.11293e-07
2.96499e-05 -1.47359e-05 2.87246e-06
-4.11293e-07 2.87246e-06 -0.000121569
0.000629744 4.54818e-05 -1.09438e-06
4.54818e-05 3.67569e-05 4.60998e-07
-1.09438e-06 4.60998e-07 -8.44814e-05
0.000781427 5.56082e-05 -3.07928e-07
5.56082e-05 0.000110426 -2.11898e-07
-3.07928e-07 -2.11898e-07 -1.0532e-05
0.000885195 0.00010105 -6.94729e-07
0.00010105 0.000192275 -2.6453e-06
-6.94729e-07 -2.6453e-06 4.61537e-05
0.000437708 0.000152018 2.36005e-06
0.000152018 -0.000112778 -6.0477e-06
2.36005e-06 -6.0477e-06 -0.000212361
0.00078925 6.81381e-05 1.09184e-07
6.81381e-05 0.00013241 -2.75557e-07
1.09184e-07 -2.75557e-07 1.15018e-05
0.000945614 0.000103243 3.89331e-07
0.000103243 0.000259688 2.29467e-06
3.89331e-07 2.29467e-06 0.000141682
-0.00527367 -0.000697415 -0.000283316
-0.000697415 -0.00152477 1.70468e-05
-0.000283316 1.70468e-05 -0.00242779
-0.00245536 -0.000483356 0.000117456
-0.000483356 0.000878619 5.61191e-05
0.000117456 5.61191e-05 -0.000576436
0.00358025 0.000192981 -0.000103055
0.000192981 0.00156057 -6.84129e-05
-0.000103055 -6.84129e-05 -0.000608758
-0.00760935 -0.001686 0.000342693
-0.001686 -0.00362445 0.000289533
0.000342693 0.000289533 -0.00186908
0.0109009 -0.00111804 -7.66265e-05
-0.00111804 0.00332908 8.50625e-05
-7.66265e-05 8.50625e-05 0.00327599
-0.000642836 0.000838155 4.51026e-07
0.000838155 7.3636e-05 -4.67351e-05
4.51026e-07 -4.67351e-05 -0.00357094
0.00322291 -4.34443e-05 -0.000150174
-4.34443e-05 0.00095116 4.97441e-05
-0.000150174 4.97441e-05 0.000165657
0.00283545 0.000323659 -1.30194e-05
0.000323659 0.000715357 1.78676e-05
-1.30194e-05 1.78676e-05 0.000449119
0.00797464 -0.0012583 -0.000122811
-0.0012583 0.00387922 4.6568e-05
-0.000122811 4.6568e-05 0.00395177
0.000284509 0.000694112 -4.68574e-06
0.000694112 0.000508973 -1.74853e-05
-4.68574e-06 -1.74853e-05 -0.00239328
0.00127153 0.000555316 -6.51611e-05
0.000555316 0.000174569 -6.97925e-05
-6.51611e-05 -6.97925e-05 -0.000258173
0.00387745 0.00112751 -0.0001372
0.00112751 0.000384896 -8.50199e-05
-0.0001372 -8.50199e-05 -0.00175404
0.00205888 0.000528684 1.56509e-05
0.000528684 0.000502203 -2.07224e-05
1.56509e-05 -2.07224e-05 0.000297992
0.000779262 0.000235697 -4.75413e-06
0.000235697 0.00013791 1.12411e-06
-4.75413e-06 1.12411e-06 2.73388e-05
0.0012505 7.85646e-05 -1.23522e-06
7.85646e-05 0.000439803 -2.63982e-07
-1.23522e-06 -2.63982e-07 0.000342398
-0.000694411 0.000177881 -3.89797e-05
0.000177881 -0.000279333 -3.87729e-05
-3.89797e-05 -3.87729e-05 -0.000786852
0.00289386 0.000365498 -1.56989e-05
0.000365498 0.00142533 -1.08273e-05
-1.56989e-05 -1.08273e-05 0.00125413
0.00114293 0.000487266 1.42264e-05
0.000487266 0.000106267 -3.87948e-06
1.42264e-05 -3.87948e-06 -0.000164687
0.00320879 0.000792928 8.59925e-05
0.000792928 0.000523055 2.71192e-05
8.59925e-05 2.71192e-05 0.000453942
-0.00433997 -4.35308e-05 -0.000256788
-4.35308e-05 -0.00301014 -1.03779e-07
-0.000256788 -1.03779e-07 -0.0021787
-0.00204571 9.11982e-05 9.79185e-05
9.11982e-05 0.00187125 1.53713e-06
9.79185e-05 1.53713e-06 2.39446e-05
0.00177425 -5.0688e-05 -5.76082e-05
-5.0688e-05 0.000797119 2.12322e-05
-5.76082e-05 2.12322e-05 -3.98589e-05
0.00305776 -0.000241495 -5.70894e-05
-0.000241495 0.000957462 -3.40652e-05
-5.70894e-05 -3.40652e-05 0.00115815
0.00212239 -0.000834263 -4.16797e-05
-0.000834263 0.000227744 4.8976e-06
-4.16797e-05 4.8976e-06 -0.00038618
0.00189924 0.000104193 -1.70582e-05
0.000104193 0.00289916 3.2547e-05
-1.70582e-05 3.2547e-05 0.00200422
0.00188311 -0.00058507 0.000125245
-0.00058507 7.19841e-05 -0.000102254
0.000125245 -0.000102254 -0.00231953
0.00953813 0.000864051 5.64794e-05
0.000864051 0.00459575 1.31017e-05
5.64794e-05 1.31017e-05 0.00407265
0.00254189 -0.000608202 -1.74841e-05
-0.000608202 0.00055677 6.34398e-06
-1.74841e-05 6.34398e-06 0.000502065
-0.00100124 0.000452621 4.40186e-05
0.000452621 -0.000519138 -1.33076e-05
4.40186e-05 -1.33076e-05 -0.000960855
0.00390138 -0.000176425 -3.77762e-05
-0.000176425 -0.00021361 4.80572e-05
-3.77762e-05 4.80572e-05 -0.00223217
0.00583661 -0.00108209 -3.12485e-05
-0.00108209 0.0013562 1.29536e-05
-3.12485e-05 1.29536e-05 0.000667777
0.000133075 -0.000336498 3.22111e-05
-0.000336498 -0.000569758 -8.24582e-06
3.22111e-05 -8.24582e-06 -0.000792454
0.00919685 -0.000346977 2.39616e-05
-0.000346977 0.0022411 -3.02252e-05
2.39616e-05 -3.02252e-05 0.000952451
0.00398094 -0.000523879 5.25724e-05
-0.000523879 -1.41771e-05 -3.13449e-05
5.25724e-05 -3.13449e-05 -0.000187892
-0.000432903 -0.000252086 -1.88531e-05
-0.000252086 -0.000921362 6.28279e-06
-1.88531e-05 6.28279e-06 -0.000857182
0.000760832 -0.000326616 -6.69704e-06
-0.000326616 -0.000424918 -9.86378e-07
-6.69704e-06 -9.86378e-07 -0.000405877
0.0029881 -0.000464673 2.13577e-05
-0.000464673 0.000618515 -1.62423e-05
2.13577e-05 -1.62423e-05 0.000604285
0.000487806 -0.000332585 -9.9658e-06
-0.000332585 -0.000366422 -3.2912e-06
-9.9658e-06 -3.2912e-06 -0.000601924
0.00169155 -0.00044524 -1.2903e-07
-0.00044524 8.3462e-05 -2.33289e-07
-1.2903e-07 -2.33289e-07 -9.4961e-05
0.00210668 -0.000405348 -4.07995e-06
-0.000405348 0.00017508 -1.18652e-06
-4.07995e-06 -1.18652e-06 5.40175e-05
0.0011841 -0.000376065 -2.03802e-06
-0.000376065 -4.4058e-05 2.7487e-06
-2.03802e-06 2.7487e-06 -0.000299273
0.00179222 -0.000382706 -2.57369e-06
-0.000382706 0.000124939 9.30075e-08
-2.57369e-06 9.30075e-08 -5.75977e-05
0.00178717 -0.000306055 -2.17992e-06
-0.000306055 3.16347e-05 -1.5985e-06
-2.17992e-06 -1.5985e-06 -8.36124e-05
0.0014102 -0.000339158 2.96821e-06
-0.000339158 1.29768e-05 4.29754e-06
2.96821e-06 4.29754e-06 -0.000204616
0.00169139 -0.000300471 9.8889e-09
-0.000300471 8.41025e-05 6.33193e-07
9.8889e-09 6.33193e-07 -6.69497e-05
0.00179164 -0.000252989 -2.36617e-06
-0.000252989 9.82069e-05 -2.21432e-06
-2.36617e-06 -2.21432e-06 -8.74315e-06
0.00183199 -0.000229422 -1.83519e-06
-0.000229422 0.000180514 -1.07049e-06
-1.83519e-06 -1.07049e-06 6.76347e-05
0.00163902 -0.000245484 -2.41599e-06
-0.000245484 7.01652e-05 2.84427e-06
-2.41599e-06 2.84427e-06 -6.58366e-05
0.00172011 -0.000251912 -8.73094e-07
-0.000251912 0.000153684 -5.50159e-06
-8.73094e-07 -5.50159e-06 8.94249e-08
0.00162786 -0.000281666 -3.58662e-06
-0.000281666 0.000179013 -1.6784e-06
-3.58662e-06 -1.6784e-06 -1.57502e-05
0.0015992 -0.000288964 1.13075e-06
-0.000288964 0.000134285 5.49436e-07
1.13075e-06 5.49436e-07 -6.00827e-05
0.00147675 -0.000276276 1.34511e-06
-0.000276276 4.64301e-05 5.82797e-06
1.34511e-06 5.82797e-06 -0.000131473
0.00128125 -0.000252492 -6.48703e-06
-0.000252492 0.000102891 1.88494e-06
-6.48703e-06 1.88494e-06 -9.73551e-05
0.00142006 -0.000296516 1.3296e-08
-0.000296516 0.00012031 -9.58434e-08
1.3296e-08 -9.58434e-08 -9.9294e-05
0.00157819 -0.000332377 2.99145e-06
-0.000332377 0.000192726 9.70839e-07
2.99145e-06 9.70839e-07 -3.96619e-05
0.00111516 -0.000211489 -2.49927e-06
-0.000211489 0.000159435 3.12482e-06
-2.49927e-06 3.12482e-06 -2.72087e-05
0.00123738 -0.000245092 8.00152e-07
-0.000245092 0.000169519 9.3378e-07
8.00152e-07 9.3378e-07 -3.2662e-05
0.00114513 -0.000271412 2.82684e-06
-0.000271412 5.08785e-05 -5.11709e-06
2.82684e-06 -5.11709e-06 -0.000169842
0.000724925 -0.000116724 -4.50764e-06
-0.000116724 4.33568e-05 3.95163e-06
-4.50764e-06 3.95163e-06 -9.2596e-05
0.00107408 -0.000195949 4.73816e-07
-0.000195949 0.000208552 -5.26578e-07
4.73816e-07 -5.26578e-07 3.24016e-05
0.00120935 -0.000227641 -4.34246e-07
-0.000227641 0.000247254 -2.52486e-06
-4.34246e-07 -2.52486e-06 5.49118e-05
0.000436315 1.91821e-05 -1.72006e-06
1.91821e-05 -9.09943e-05 9.05763e-06
-1.72006e-06 9.05763e-06 -0.000138861
0.000745071 -7.97538e-05 2.07854e-07
-7.97538e-05 8.84363e-05 4.51406e-07
2.07854e-07 4.51406e-07 -3.52312e-05
0.00112286 -0.000152025 5.12304e-07
-0.000152025 0.000300237 -4.32357e-07
5.12304e-07 -4.32357e-07 0.000131582
0.00275665 0.000132008 -4.25925e-05
0.000132008 0.00128101 2.2767e-06
-4.25925e-05 2.2767e-06 0.00127697
0.000547998 5.08081e-05 -3.65961e-07
5.08081e-05 -1.6933e-05 -5.71512e-07
-3.65961e-07 -5.71512e-07 -5.62299e-05
0.000844208 -6.84357e-05 3.04735e-06
-6.84357e-05 0.000154667 -4.50756e-06
3.04735e-06 -4.50756e-06 5.29051e-05
0.00170865 9.22304e-05 1.90839e-05
9.22304e-05 0.000661826 1.33582e-08
1.90839e-05 1.33582e-08 0.000658881
0.000604489 6.46426e-05 -3.42738e-07
6.46426e-05 1.26994e-05 -5.84232e-06
-3.42738e-07 -5.84232e-06 -1.90565e-05
0.00248694 0.000104467 3.47509e-05
0.000104467 0.00111159 -2.66498e-06
3.47509e-05 -2.66498e-06 0.00111494
0.000925343 0.00011062 1.61413e-06
0.00011062 0.000178002 9.2423e-07
1.61413e-06 9.2423e-07 5.9019e-05
0.000642392 5.36218e-05 -2.81697e-07
5.36218e-05 2.15439e-05 5.31443e-07
-2.81697e-07 5.31443e-07 -8.72586e-05
0.000699388 2.03844e-05 -3.82807e-07
2.03844e-05 6.20541e-05 -1.53307e-06
-3.82807e-07 -1.53307e-06 -4.73384e-05
0.000892742 7.00986e-05 7.11287e-07
7.00986e-05 0.000177609 6.56688e-07
7.11287e-07 6.56688e-07 6.42331e-05
0.000723535 1.58408e-05 1.95253e-07
1.58408e-05 7.56449e-05 4.64427e-08
1.95253e-07 4.64427e-08 -2.72893e-05
0.000672256 -8.8692e-06 -1.34866e-06
-8.8692e-06 3.19365e-05 -3.59731e-06
-1.34866e-06 -3.59731e-06 -4.14501e-05
0.000573166 -4.44997e-05 -8.02435e-07
-4.44997e-05 -2.68091e-05 -5.88101e-06
-8.02435e-07 -5.88101e-06 -5.55457e-05
0.000646724 -6.893e-06 2.20351e-07
-6.893e-06 1.44476e-05 -8.19399e-08
2.20351e-07 -8.19399e-08 -5.37344e-05
0.000660116 -1.12006e-06 1.35192e-07
-1.12006e-06 2.9316e-05 1.51867e-06
1.35192e-07 1.51867e-06 -6.0863e-05
0.00264212 -8.96311e-05 -3.81917e-05
-8.96311e-05 0.00118566 -3.74711e-06
-3.81917e-05 -3.74711e-06 0.00119222
0.000556276 -3.66005e-05 -3.62862e-07
-3.66005e-05 -4.43605e-05 -1.95275e-10
-3.62862e-07 -1.95275e-10 -6.92443e-05
0.000639711 8.23738e-06 1.5502e-06
8.23738e-06 8.78773e-06 2.85867e-06
1.5502e-06 2.85867e-06 -5.59094e-05
0.00253904 -7.65564e-05 -4.19751e-06
-7.65564e-05 0.00111846 2.72227e-07
-4.19751e-06 2.72227e-07 0.0011277
0.000563463 -3.41682e-05 1.07572e-08
-3.41682e-05 -4.6431e-05 4.94395e-06
1.07572e-08 4.94395e-06 -6.78647e-05
0.002408 -6.21146e-05 2.28566e-05
-6.21146e-05 0.00103527 4.43234e-06
2.28566e-05 4.43234e-06 0.00104757
0.00042811 0.000297618 -0.000134654
0.000297618 0.0013423 5.25365e-05
-0.000134654 5.25365e-05 0.000408746
-0.00185723 -7.60985e-05 7.52181e-06
-7.60985e-05 0.00138158 1.3008e-05
7.52181e-06 1.3008e-05 -0.000543906
0.00298089 -6.87064e-05 -5.92911e-05
-6.87064e-05 0.00140051 -3.99226e-06
-5.92911e-05 -3.99226e-06 0.000401223
0.000511381 2.71413e-05 2.13414e-06
2.71413e-05 -5.20956e-05 -9.49852e-07
2.13414e-06 -9.49852e-07 -0.000156229
0.000611034 3.794e-05 1.72387e-06
3.794e-05 7.72814e-06 2.21272e-07
1.72387e-06 2.21272e-07 -0.00010635
0.00122352 0.000192157 -1.08894e-06
0.000192157 0.00037747 6.27107e-07
-1.08894e-06 6.27107e-07 0.000238475
0.00157893 0.000260475 1.45896e-06
0.000260475 0.000527947 -6.14666e-07
1.45896e-06 -6.14666e-07 0.000353822
0.00102218 0.000150445 -6.18149e-06
0.000150445 0.000272667 -2.26503e-06
-6.18149e-06 -2.26503e-06 0.000127793
0.000925398 9.55152e-05 1.59921e-06
9.55152e-05 0.000206974 2.54309e-06
1.59921e-06 2.54309e-06 8.14407e-05
0.000794536 6.43999e-05 3.29989e-06
6.43999e-05 0.000119364 1.94764e-06
3.29989e-06 1.94764e-06 -3.46265e-07
0.000691207 0.000115968 -3.13549e-06
0.000115968 8.51296e-05 -2.92372e-06
-3.13549e-06 -2.92372e-06 -5.52759e-05
-0.0006281 7.66109e-05 -1.19627e-06
7.66109e-05 -0.000702765 -2.61721e-07
-1.19627e-06 -2.61721e-07 -0.000848745
0.0011568 0.000233567 9.94262e-07
0.000233567 0.000236342 -3.72306e-06
9.94262e-07 -3.72306e-06 0.000122937
0.00223408 0.000475691 3.74813e-06
0.000475691 0.000530744 -1.24568e-05
3.74813e-06 -1.24568e-05 0.000337765
0.000570289 0.000170532 -5.04072e-06
0.000170532 -2.04472e-05 -2.61751e-07
-5.04072e-06 -2.61751e-07 -0.000123842
0.000568309 5.41047e-05 1.86684e-06
5.41047e-05 1.37205e-05 -1.36314e-06
1.86684e-06 -1.36314e-06 -9.41496e-05
0.0108744 0.000579424 -6.70221e-05
0.000579424 0.00300273 3.63797e-05
-6.70221e-05 3.63797e-05 0.00166345
-0.000867255 -0.000551481 -0.000140719
-0.000551481 0.00115301 -4.13311e-05
-0.000140719 -4.13311e-05 7.22843e-05
-0.000759929 -0.000729478 6.57968e-05
-0.000729478 0.00103322 -2.42451e-05
6.57968e-05 -2.42451e-05 -0.000490815
-0.00262998 -0.000631676 -1.41538e-05
-0.000631676 -0.00093996 0.000105501
-1.41538e-05 0.000105501 -0.000954868
0.0106229 0.000592312 4.67346e-06
0.000592312 0.00500644 -6.05384e-06
4.67346e-06 -6.05384e-06 0.0019457
0.000975664 0.000316547 -5.3153e-05
0.000316547 -0.000258409 -1.90252e-05
-5.3153e-05 -1.90252e-05 -0.000369651
0.00143601 0.000584104 -2.04607e-05
0.000584104 0.000185333 -1.07885e-05
-2.04607e-05 -1.07885e-05 -0.000145556
0.00923388 0.000557682 3.3157e-05
0.000557682 0.00313634 1.94483e-05
3.3157e-05 1.94483e-05 0.00133221
0.00540612 0.00115684 -2.85093e-05
0.00115684 0.000925165 -3.8647e-05
-2.85093e-05 -3.8647e-05 0.000439327
0.00191527 0.000579173 5.12795e-07
0.000579173 0.000246063 -3.12369e-06
5.12795e-07 -3.12369e-06 8.39848e-05
0.00098071 0.000396013 5.53905e-06
0.000396013 6.04524e-05 -2.09676e-06
5.53905e-06 -2.09676e-06 -0.000135875
0.000951275 0.000226663 -1.62209e-05
0.000226663 0.000242778 1.30377e-05
-1.62209e-05 1.30377e-05 0.000136751
0.00262874 0.000633214 -3.93138e-05
0.000633214 0.00073935 -1.28006e-05
-3.93138e-05 -1.28006e-05 0.000479213
0.00229272 0.000723951 -2.8251e-06
0.000723951 1.55267e-05 1.67199e-05
-2.8251e-06 1.67199e-05 -8.69253e-05
0.000539297 -0.000294763 -2.79489e-05
-0.000294763 -0.00271948 1.62642e-06
-2.79489e-05 1.62642e-06 -0.00316533
0.00239831 -0.000318071 -1.10809e-06
-0.000318071 0.00137033 -1.77008e-05
-1.10809e-06 -1.77008e-05 0.00139271
-0.00386633 1.40513e-05 0.000122406
1.40513e-05 0.00125713 -9.64109e-06
0.000122406 -9.64109e-06 -0.000732823
0.00235971 -0.000663384 -3.62067e-05
-0.000663384 0.000397513 5.08743e-06
-3.62067e-05 5.08743e-06 0.000266325
0.00345989 -0.000967377 3.41081e-05
-0.000967377 0.000776448 -1.3207e-05
3.41081e-05 -1.3207e-05 -0.000202123
0.0012151 -0.000261488 0.000166734
-0.000261488 0.00159367 9.14298e-06
0.000166734 9.14298e-06 0.000881516
0.0113785 -0.000191932 -0.000107213
-0.000191932 0.00377169 5.74379e-05
-0.000107213 5.74379e-05 0.00213617
0.00070686 -0.000376147 -2.19481e-05
-0.000376147 -0.000352137 -2.41775e-06
-2.19481e-05 -2.41775e-06 -0.000483304
0.00799089 6.86317e-05 -3.28133e-05
6.86317e-05 0.00140575 2.5684e-05
-3.28133e-05 2.5684e-05 0.000423767
0.00450454 -0.000599139 6.56415e-05
-0.000599139 9.42997e-05 1.07552e-06
6.56415e-05 1.07552e-06 -0.000404821
0.00228137 -0.000372039 3.38796e-05
-0.000372039 0.00043127 -1.01436e-05
3.38796e-05 -1.01436e-05 0.000130736
0.00327387 -0.000199208 -8.10523e-05
-0.000199208 0.000191129 -4.03955e-06
-8.10523e-05 -4.03955e-06 4.44192e-05
-0.00101453 -0.000228677 -1.5213e-05
-0.000228677 -0.00139441 4.43782e-06
-1.5213e-05 4.43782e-06 -0.00133499
0.00152564 -0.000389975 5.4839e-07
-0.000389975 -0.000147741 -8.18916e-07
5.4839e-07 -8.18916e-07 -0.000154168
0.00219925 -0.000321145 1.12587e-05
-0.000321145 0.000102582 -7.95027e-06
1.12587e-05 -7.95027e-06 0.000127447
0.00130486 -0.000413056 -1.76287e-06
-0.000413056 -0.000107831 2.70627e-06
-1.76287e-06 2.70627e-06 -0.00027957
0.00180467 -0.000377589 -2.10154e-06
-0.000377589 3.18816e-05 -1.05545e-07
-2.10154e-06 -1.05545e-07 -8.65832e-05
0.00206357 -0.000291278 -5.45818e-07
-0.000291278 8.79092e-05 1.16853e-06
-5.45818e-07 1.16853e-06 3.50969e-05
0.0016003 -0.000366375 -2.31579e-06
-0.000366375 2.49555e-05 4.57828e-06
-2.31579e-06 4.57828e-06 -0.000157201
0.00183485 -0.00030663 5.42682e-07
-0.00030663 5.95049e-05 1.5023e-06
5.42682e-07 1.5023e-06 -5.51146e-05
0.00172502 -0.000256465 -6.66784e-07
-0.000256465 -2.88556e-06 8.68062e-07
-6.66784e-07 8.68062e-07 -8.51704e-05
0.00164057 -0.000293151 3.51561e-06
-0.000293151 6.04474e-05 5.34554e-06
3.51561e-06 5.34554e-06 -8.8847e-05
0.00174552 -0.000252801 -1.87989e-07
-0.000252801 7.09724e-05 1.15719e-06
-1.87989e-07 1.15719e-06 -3.69018e-05
0.00203708 -0.000249635 2.86675e-08
-0.000249635 0.000260151 -3.57123e-07
2.86675e-08 -3.57123e-07 0.000164082
0.00175215 -0.00022797 -3.68802e-06
-0.00022797 0.00012579 3.51391e-06
-3.68802e-06 3.51391e-06 1.60582e-05
0.00180178 -0.000236482 2.04547e-06
-0.000236482 0.000187135 -3.42995e-06
2.04547e-06 -3.42995e-06 5.98185e-05
0.0016698 -0.000245314 1.74628e-06
-0.000245314 8.75509e-05 7.64788e-06
1.74628e-06 7.64788e-06 -4.42623e-05
0.00172341 -0.000253858 4.94876e-07
-0.000253858 0.000156405 -7.92005e-07
4.94876e-07 -7.92005e-07 2.0271e-06
0.00164585 -0.000244305 -1.6253e-06
-0.000244305 0.000156733 -3.03279e-06
-1.6253e-06 -3.03279e-06 -1.01597e-05
0.00143623 -0.000245069 -5.72169e-06
-0.000245069 0.000130117 2.98329e-07
-5.72169e-06 2.98329e-07 -5.70542e-05
0.00166482 -0.000285478 3.88394e-07
-0.000285478 0.000202764 -5.80022e-07
3.88394e-07 -5.80022e-07 6.56268e-06
0.00170808 -0.000294712 2.72601e-06
-0.000294712 0.000194109 3.24777e-06
2.72601e-06 3.24777e-06 -3.98153e-07
0.00112591 -0.00021391 -6.15889e-06
-0.00021391 7.81117e-05 2.98296e-06
-6.15889e-06 2.98296e-06 -0.000104637
0.00125836 -0.000249772 -1.60606e-06
-0.000249772 9.09332e-05 7.02321e-07
-1.60606e-06 7.02321e-07 -0.000108837
0.00150641 -0.000303024 3.86992e-06
-0.000303024 0.000167845 -8.45143e-07
3.86992e-06 -8.45143e-07 -5.16824e-05
0.000779247 -0.000140038 -5.71114e-06
-0.000140038 2.45113e-05 5.4516e-06
-5.71114e-06 5.4516e-06 -0.000120476
0.00112039 -0.000211718 8.39983e-07
-0.000211718 0.000159991 2.80127e-07
8.39983e-07 2.80127e-07 -2.62922e-05
0.00125561 -0.00024577 3.09195e-06
-0.00024577 0.000177525 -1.89437e-06
3.09195e-06 -1.89437e-06 -2.48881e-05
0.000435028 -4.46771e-05 -9.86998e-06
-4.46771e-05 -0.000114179 1.05546e-05
-9.86998e-06 1.05546e-05 -0.000170702
0.000794255 -0.000131697 -3.77308e-07
-0.000131697 8.23433e-05 8.26995e-08
-3.77308e-07 8.26995e-08 -5.56915e-05
0.00106556 -0.000192883 1.25793e-06
-0.000192883 0.000201287 -1.95108e-06
1.25793e-06 -1.95108e-06 2.61004e-05
0.00331273 0.000154299 -6.05973e-05
0.000154299 0.00160681 2.22122e-06
-6.05973e-05 2.22122e-06 0.00159721
0.00056074 1.48125e-07 7.02593e-07
1.48125e-07 -2.36456e-05 -3.7336e-07
7.02593e-07 -3.7336e-07 -7.15809e-05
0.000860885 -0.000126372 4.3849e-06
-0.000126372 0.000155371 -3.7805e-06
4.3849e-06 -3.7805e-06 2.70747e-05
0.00292095 0.000130928 5.81223e-06
0.000130928 0.00137434 3.97528e-07
5.81223e-06 3.97528e-07 0.00137093
0.000664416 3.45196e-05 3.40675e-06
3.45196e-05 4.57264e-05 -7.43188e-06
3.40675e-06 -7.43188e-06 7.58907e-06
0.00266029 0.00011455 4.74247e-05
0.00011455 0.0012174 -2.21846e-06
4.74247e-05 -2.21846e-06 0.00121854
0.000883429 0.000182042 2.67249e-06
0.000182042 0.000124242 -2.75096e-06
2.67249e-06 -2.75096e-06 -4.04738e-05
0.000822469 0.000135522 9.78482e-07
0.000135522 0.000127163 -1.0252e-07
9.78482e-07 -1.0252e-07 1.36572e-06
0.00051493 3.17789e-05 -7.61898e-07
3.17789e-05 -5.10113e-05 -6.34158e-07
-7.61898e-07 -6.34158e-07 -0.000165286
0.000383233 1.80486e-05 6.43468e-07
1.80486e-05 -0.000128964 2.71053e-07
6.43468e-07 2.71053e-07 -0.000232017
0.00059578 1.01593e-06 -2.20249e-07
1.01593e-06 -1.2414e-06 4.39499e-07
-2.20249e-07 4.39499e-07 -0.000107484
0.000660288 -5.77821e-06 -1.51281e-06
-5.77821e-06 2.74856e-05 -3.72233e-06
-1.51281e-06 -3.72233e-06 -5.38459e-05
0.000647166 -2.86923e-06 3.36346e-07
-2.86923e-06 2.45169e-05 1.76265e-06
3.36346e-07 1.76265e-06 -7.21205e-05
0.000634489 -1.40238e-05 3.24924e-07
-1.40238e-05 1.16532e-05 -1.83393e-07
3.24924e-07 -1.83393e-07 -6.18852e-05
0.00057561 -4.85927e-05 -9.76682e-07
-4.85927e-05 -1.74799e-05 -6.46588e-06
-9.76682e-07 -6.46588e-06 -4.97556e-05
0.00270637 -0.000101715 -4.45377e-05
-0.000101715 0.00123034 -3.25017e-06
-4.45377e-05 -3.25017e-06 0.00123437
0.000550167 -4.26196e-05 7.02135e-08
-4.26196e-05 -4.05998e-05 -6.53962e-10
7.02135e-08 -6.53962e-10 -6.89249e-05
0.000612952 -5.57267e-06 1.75752e-06
-5.57267e-06 -3.89444e-06 3.15141e-06
1.75752e-06 3.15141e-06 -7.23524e-05
0.0026366 -8.9386e-05 -4.15296e-06
-8.9386e-05 0.00118201 3.14082e-07
-4.15296e-06 3.14082e-07 0.00118855
0.000544447 -3.84042e-05 4.48342e-07
-3.84042e-05 -5.08434e-05 5.35606e-06
4.48342e-07 5.35606e-06 -7.58604e-05
0.00251016 -7.55789e-05 2.84359e-05
-7.55789e-05 0.00110089 4.23419e-06
2.84359e-05 4.23419e-06 0.0011104
0.0104657 0.000434618 0.000162223
0.000434618 0.00263165 7.11181e-05
0.000162223 7.11181e-05 0.00167161
-0.00261758 -0.000600861 -9.5578e-05
-0.000600861 -0.0018877 -1.064e-05
-9.5578e-05 -1.064e-05 -0.00205156
-0.00388868 0.000195115 -4.22721e-05
0.000195115 0.000441525 -3.31164e-05
-4.22721e-05 -3.31164e-05 -0.00184561
0.000629535 1.10717e-05 5.85272e-06
1.10717e-05 1.37808e-05 4.93896e-07
5.85272e-06 4.93896e-07 -9.62341e-05
0.000843137 0.000163754 -1.39955e-06
0.000163754 0.00016483 1.22736e-06
-1.39955e-06 1.22736e-06 3.3353e-05
0.00123562 0.000171881 -2.77865e-07
0.000171881 0.000390621 -3.19068e-07
-2.77865e-07 -3.19068e-07 0.000244084
0.00125015 0.00023036 -2.60583e-06
0.00023036 0.000342491 1.2631e-07
-2.60583e-06 1.2631e-07 0.000174445
0.00152994 0.000282204 2.02271e-05
0.000282204 0.000403048 -5.72398e-07
2.02271e-05 -5.72398e-07 0.000200513
0.000247953 0.000149834 -2.3196e-06
0.000149834 -0.000201958 -2.2069e-06
-2.3196e-06 -2.2069e-06 -0.00035761
0.000503153 0.00011745 -1.43948e-06
0.00011745 -1.1964e-05 -2.33084e-06
-1.43948e-06 -2.33084e-06 -0.000150513
0.000205402 0.00015533 5.92482e-07
0.00015533 -0.000245135 1.38383e-06
5.92482e-07 1.38383e-06 -0.000411421
0.000991624 0.000223611 -3.90732e-07
0.000223611 0.000155264 5.65741e-07
-3.90732e-07 5.65741e-07 3.77008e-05
0.000379233 0.000225574 3.70489e-06
0.000225574 -0.000294166 9.92228e-08
3.70489e-06 9.92228e-08 -0.000451818
0.00335996 0.000522717 -3.30881e-06
0.000522717 0.00113934 -4.63739e-06
-3.30881e-06 -4.63739e-06 0.000965355
0.00205349 0.000487434 -5.21294e-06
0.000487434 0.000331084 2.61808e-06
-5.21294e-06 2.61808e-06 0.00016004
0.00159152 0.000421914 3.52928e-06
0.000421914 0.000203718 -3.46961e-06
3.52928e-06 -3.46961e-06 2.74161e-05
0.00037366 0.000173591 -1.5574e-06
0.000173591 -0.000115572 4.80998e-06
-1.5574e-06 4.80998e-06 -0.000220618
0.00514628 0.0004847 -2.17374e-05
0.0004847 0.000392189 1.08102e-05
-2.17374e-05 1.08102e-05 0.000431975
0.0081546 0.000398828 6.29875e-05
0.000398828 0.00166896 3.81595e-05
6.29875e-05 3.81595e-05 0.000243049
0.00545672 -0.00106203 6.38808e-05
-0.00106203 0.00306677 -6.04299e-05
6.38808e-05 -6.04299e-05 0.00256504
0.00409417 0.000983964 0.000291311
0.000983964 0.0003159 0.000119141
0.000291311 0.000119141 -0.00258267
0.00161644 0.000549127 -1.46139e-05
0.000549127 0.000185744 1.38933e-05
-1.46139e-05 1.38933e-05 0.000182336
0.00332369 0.000901552 -7.30339e-05
0.000901552 1.43675e-05 -2.39389e-05
-7.30339e-05 -2.39389e-05 -0.000240642
0.00343305 0.000735249 4.08693e-05
0.000735249 0.00056773 2.14299e-05
4.08693e-05 2.14299e-05 0.000564137
0.00285741 0.000650934 4.84703e-06
0.000650934 0.000656959 8.16616e-06
4.84703e-06 8.16616e-06 0.000501302
0.000710775 0.000348502 -7.93639e-06
0.000348502 -2.50237e-05 1.62003e-05
-7.93639e-06 1.62003e-05 -0.000210805
0.00356783 0.000827733 -0.00011358
0.000827733 0.000629019 -3.05771e-05
-0.00011358 -3.05771e-05 0.000441931
0.00294241 -0.000201108 -8.57588e-05
-0.000201108 0.000416562 8.34832e-06
-8.57588e-05 8.34832e-06 0.000108158
0.0099306 -0.000232557 1.93444e-06
-0.000232557 0.00293244 -1.72663e-06
1.93444e-06 -1.72663e-06 0.0022553
-0.00848188 -0.000427233 0.000279602
-0.000427233 -0.00470505 -8.22745e-06
0.000279602 -8.22745e-06 -0.00443227
0.0010753 -0.000417048 -3.94428e-05
-0.000417048 -0.000284144 9.29628e-06
-3.94428e-05 9.29628e-06 -0.000350562
0.00604745 -0.000733456 0.000114648
-0.000733456 0.000892116 1.66666e-05
0.000114648 1.66666e-05 0.00040549
0.00129625 -0.000392369 3.01406e-05
-0.000392369 -0.00188782 5.73882e-05
3.01406e-05 5.73882e-05 -0.0030714
0.00149306 -0.000304286 2.10368e-05
-0.000304286 -3.43122e-05 -1.451e-07
2.10368e-05 -1.451e-07 -0.000204503
0.00245113 -8.42914e-05 -2.67603e-06
-8.42914e-05 -0.000346541 6.51845e-06
-2.67603e-06 6.51845e-06 -0.000519788
0.00407219 -0.000322591 1.7009e-05
-0.000322591 0.00103525 -7.3191e-06
1.7009e-05 -7.3191e-06 0.00106289
0.00342697 -7.49179e-05 7.09981e-05
-7.49179e-05 0.000792792 4.79889e-07
7.09981e-05 4.79889e-07 0.000762755
5.84799e-05 -0.000320122 -7.51382e-06
-0.000320122 -0.000914254 7.27433e-06
-7.51382e-06 7.27433e-06 -0.00091033
0.00175842 -0.000308023 -2.4132e-07
-0.000308023 -0.00013285 5.68897e-07
-2.4132e-07 5.68897e-07 -0.000107769
0.00175072 -0.000199029 1.1627e-05
-0.000199029 -0.000163135 -1.32267e-06
1.1627e-05 -1.32267e-06 -8.94357e-05
0.00155639 -0.000355045 1.53836e-06
-0.000355045 -8.87268e-05 8.81232e-07
1.53836e-06 8.81232e-07 -0.000204077
0.00193055 -0.000286438 2.14841e-06
-0.000286438 2.01993e-05 1.05477e-06
2.14841e-06 1.05477e-06 -3.35561e-05
0.00183651 -0.000222274 1.34748e-06
-0.000222274 2.97261e-05 1.42736e-06
1.34748e-06 1.42736e-06 -5.00167e-06
0.00186193 -0.000305914 6.0731e-06
-0.000305914 7.50682e-05 3.90864e-06
6.0731e-06 3.90864e-06 -3.85238e-05
0.00183371 -0.000259374 8.93616e-07
-0.000259374 6.44527e-05 4.74153e-07
8.93616e-07 4.74153e-07 -1.76492e-05
0.00196297 -0.000227765 -1.11648e-06
-0.000227765 0.000183578 9.54176e-07
-1.11648e-06 9.54176e-07 0.00010533
0.00169551 -0.000251946 3.00484e-06
-0.000251946 4.20086e-05 4.10275e-06
3.00484e-06 4.10275e-06 -6.66444e-05
0.00183603 -0.000241732 7.65655e-08
-0.000241732 0.000150676 6.41697e-07
7.65655e-08 6.41697e-07 5.38301e-05
0.00166686 -0.000227247 3.76918e-06
-0.000227247 8.57809e-05 -2.00983e-06
3.76918e-06 -2.00983e-06 -2.43687e-05
0.00168525 -0.000227137 -2.56862e-06
-0.000227137 7.90092e-05 7.68497e-06
-2.56862e-06 7.68497e-06 -2.76926e-05
0.00183695 -0.000235603 -2.06073e-06
-0.000235603 0.000206206 1.05106e-07
-2.06073e-06 1.05106e-07 8.22844e-05
0.00173456 -0.000224029 7.51319e-07
-0.000224029 0.000188602 -1.98836e-06
7.51319e-07 -1.98836e-06 4.08848e-05
0.00172738 -0.000255396 1.98994e-06
-0.000255396 0.000159291 3.53257e-06
1.98994e-06 3.53257e-06 4.23444e-06
0.00169198 -0.000246574 7.21974e-07
-0.000246574 0.000184326 -6.92292e-07
7.21974e-07 -6.92292e-07 1.65257e-05
0.00166243 -0.000227329 -2.95261e-06
-0.000227329 0.000229627 -8.76305e-07
-2.95261e-06 -8.76305e-07 6.08169e-05
0.000965099 -0.000187319 -8.90964e-06
-0.000187319 -6.70264e-05 2.02817e-06
-8.90964e-06 2.02817e-06 -0.000236893
0.00151447 -0.000251417 -1.0542e-06
-0.000251417 0.000178466 -1.46476e-07
-1.0542e-06 -1.46476e-07 -9.75192e-06
0.00169352 -0.000288381 3.8081e-06
-0.000288381 0.000221403 5.63776e-07
3.8081e-06 5.63776e-07 2.3969e-05
0.000961276 -0.000164107 -8.90488e-06
-0.000164107 6.18217e-05 6.04416e-06
-8.90488e-06 6.04416e-06 -8.62268e-05
0.00117876 -0.000216131 2.06489e-07
-0.000216131 0.000107596 6.17804e-07
2.06489e-07 6.17804e-07 -7.50189e-05
0.00119731 -0.000243432 2.74013e-06
-0.000243432 5.70883e-05 -7.06939e-07
2.74013e-06 -7.06939e-07 -0.000141551
0.000443592 -7.9284e-05 -1.39961e-05
-7.9284e-05 -0.000126907 1.18231e-05
-1.39961e-05 1.18231e-05 -0.000193831
0.000866268 -0.000151221 3.72308e-07
-0.000151221 7.5263e-05 1.43484e-07
3.72308e-07 1.43484e-07 -7.16283e-05
0.00113589 -0.000212801 4.39748e-06
-0.000212801 0.000166893 -2.49509e-06
4.39748e-06 -2.49509e-06 -1.92292e-05
0.0039851 0.000162089 -9.68636e-05
0.000162089 0.00199705 3.32784e-06
-9.68636e-05 3.32784e-06 0.00198507
0.000585385 -5.23849e-05 5.90721e-07
-5.23849e-05 -2.94566e-05 -2.70607e-07
5.90721e-07 -2.70607e-07 -8.80778e-05
0.000892485 -0.000146695 5.72461e-06
-0.000146695 0.000136846 -4.73008e-06
5.72461e-06 -4.73008e-06 -2.95349e-06
0.00351775 0.000133684 6.74992e-06
0.000133684 0.0017206 3.05348e-07
6.74992e-06 3.05348e-07 0.00171606
0.00068929 -9.63667e-06 7.90485e-06
-9.63667e-06 4.70327e-05 -8.88702e-06
7.90485e-06 -8.88702e-06 -1.17899e-06
0.00307761 0.000110161 8.16392e-05
0.000110161 0.00146047 -2.90681e-06
8.16392e-05 -2.90681e-06 0.00146231
0.00101149 0.000216144 -2.03986e-06
0.000216144 0.000112461 -4.08705e-06
-2.03986e-06 -4.08705e-06 -8.00291e-05
0.00127277 0.000215131 1.34961e-07
0.000215131 0.000354047 -1.92647e-07
1.34961e-07 -1.92647e-07 0.000183107
0.000724905 0.000124322 -7.70271e-07
0.000124322 4.90515e-05 -4.68131e-06
-7.70271e-07 -4.68131e-06 -9.62793e-05
0.000675417 0.000147696 -6.15691e-07
0.000147696 5.17458e-05 3.65911e-07
-6.15691e-07 3.65911e-07 -7.95752e-05
0.000560669 4.83577e-05 -1.91776e-07
4.83577e-05 -2.42882e-05 -2.9994e-07
-1.91776e-07 -2.9994e-07 -0.000142797
0.000751912 5.85068e-05 -2.50129e-06
5.85068e-05 9.02916e-05 -3.48842e-06
-2.50129e-06 -3.48842e-06 -1.18853e-05
0.000496285 -1.47881e-05 5.42247e-07
-1.47881e-05 -6.15777e-05 1.53833e-06
5.42247e-07 1.53833e-06 -0.000165016
0.000644467 -8.01559e-06 2.74066e-07
-8.01559e-06 2.10193e-05 -2.66844e-07
2.74066e-07 -2.66844e-07 -6.12594e-05
0.000578348 -4.59521e-05 -1.44861e-06
-4.59521e-05 -1.0104e-05 -7.12845e-06
-1.44861e-06 -7.12845e-06 -4.62228e-05
0.0006001 -1.75417e-05 1.35618e-06
-1.75417e-05 -7.03833e-06 3.51182e-06
1.35618e-06 3.51182e-06 -8.05693e-05
0.000544878 -4.66954e-05 2.28145e-07
-4.66954e-05 -3.59069e-05 -4.22248e-08
2.28145e-07 -4.22248e-08 -6.76891e-05
0.00278054 -0.000112975 -5.19038e-05
-0.000112975 0.00128088 -2.66743e-06
-5.19038e-05 -2.66743e-06 0.00128242
0.00270059 -0.000101574 -3.14296e-06
-0.000101574 0.00122649 3.09623e-07
-3.14296e-06 3.09623e-07 0.00123042
0.000533915 -3.69569e-05 1.76895e-06
-3.69569e-05 -5.12011e-05 5.78057e-06
1.76895e-06 5.78057e-06 -7.86954e-05
0.00260921 -8.86338e-05 3.4692e-05
-8.86338e-05 0.00116557 3.92206e-06
3.4692e-05 3.92206e-06 0.0011722
0.00307544 -1.02813e-05 4.0623e-06
-1.02813e-05 -0.000185155 1.99887e-05
4.0623e-06 1.99887e-05 -0.000157424
0.00231185 -0.000515049 4.73737e-05
-0.000515049 -0.00170907 2.26271e-05
4.73737e-05 2.26271e-05 -0.00277827
0.00604399 -0.000688208 -4.64823e-05
-0.000688208 0.00233244 -5.86387e-05
-4.64823e-05 -5.86387e-05 0.00257066
0.00137159 0.000281638 9.18515e-06
0.000281638 0.000162437 5.49671e-06
9.18515e-06 5.49671e-06 -5.38144e-05
0.00145686 0.000198863 2.91557e-06
0.000198863 0.000514712 1.3519e-06
2.91557e-06 1.3519e-06 0.000364899
0.000977986 0.000205658 -3.49817e-06
0.000205658 0.000190305 1.91214e-06
-3.49817e-06 1.91214e-06 2.72225e-05
0.000715049 0.000194296 1.08217e-06
0.000194296 5.80656e-05 1.73523e-06
1.08217e-06 1.73523e-06 -0.000107797
0.00122164 0.000258702 -4.41339e-07
0.000258702 0.000229158 -3.85652e-06
-4.41339e-07 -3.85652e-06 2.84735e-05
0.000690674 0.000236846 1.93638e-06
0.000236846 -0.00011454 1.55499e-07
1.93638e-06 1.55499e-07 -0.000284383
0.000996141 0.000231196 -1.85258e-06
0.000231196 0.000189544 -1.73896e-06
-1.85258e-06 -1.73896e-06 3.18072e-06
0.000698519 0.000211212 2.24216e-06
0.000211212 4.45408e-06 4.67244e-06
2.24216e-06 4.67244e-06 -0.000116682
0.0012318 0.000298361 2.02787e-06
0.000298361 0.000173446 -4.09701e-07
2.02787e-06 -4.09701e-07 6.36998e-06
0.00234614 0.000444994 2.74177e-06
0.000444994 0.000587627 6.73037e-06
2.74177e-06 6.73037e-06 0.000422702
0.00166564 0.000422438 -2.67802e-07
0.000422438 0.000117688 -6.22948e-07
-2.67802e-07 -6.22948e-07 -6.07567e-05
0.00155288 0.000388876 3.43315e-06
0.000388876 6.66827e-05 8.03803e-06
3.43315e-06 8.03803e-06 -5.08544e-05
0.00113325 0.000421497 -2.12339e-06
0.000421497 -0.000158346 -2.95814e-06
-2.12339e-06 -2.95814e-06 -0.00032381
0.000557481 0.000333267 3.42744e-07
0.000333267 -0.000327883 3.1479e-06
3.42744e-07 3.1479e-06 -0.000481926
0.00102775 0.000283329 2.09058e-05
0.000283329 -0.000308034 2.29001e-05
2.09058e-05 2.29001e-05 -0.00029047
0.00508248 0.000611781 -4.07989e-05
0.000611781 0.000199409 -8.75184e-06
-4.07989e-05 -8.75184e-06 0.000140123
0.00201727 0.00020103 0.000211986
0.00020103 -0.00143633 2.20951e-05
0.000211986 2.20951e-05 -0.00294798
0.000897819 0.000694235 5.31276e-06
0.000694235 -0.000989492 -1.21784e-05
5.31276e-06 -1.21784e-05 -0.00129192
0.00225069 0.000585361 -2.52369e-05
0.000585361 0.000227081 -2.09505e-06
-2.52369e-05 -2.09505e-06 0.000195708
0.00191435 0.000557368 -4.8969e-05
0.000557368 0.000203722 -2.07062e-05
-4.8969e-05 -2.07062e-05 4.7771e-05
0.00235407 -0.0001658 8.11191e-06
-0.0001658 0.000154636 1.53353e-06
8.11191e-06 1.53353e-06 0.000105911
0.0012324 -1.44558e-05 -3.61738e-06
-1.44558e-05 -0.000268624 4.55423e-06
-3.61738e-06 4.55423e-06 -0.000460448
0.000770345 0.00057585 8.06319e-05
0.00057585 -0.00261637 -2.67761e-05
8.06319e-05 -2.67761e-05 -0.00325065
0.000271963 -0.000200521 -1.0781e-05
-0.000200521 -0.000695256 2.52649e-05
-1.0781e-05 2.52649e-05 -0.000727576
0.0030475 -9.04962e-05 -2.27084e-05
-9.04962e-05 -0.000173133 3.30453e-05
-2.27084e-05 3.30453e-05 -0.000485712
0.00195433 -0.000220552 -1.07945e-05
-0.000220552 -4.65306e-05 3.87157e-06
-1.07945e-05 3.87157e-06 5.4076e-06
0.00279961 -0.000108056 -6.06247e-06
-0.000108056 0.000435693 -2.84517e-06
-6.06247e-06 -2.84517e-06 0.000388089
0.00157995 -0.000128393 2.6276e-05
-0.000128393 -0.000244593 -4.55554e-07
2.6276e-05 -4.55554e-07 -0.000171372
0.00295825 -6.12735e-05 2.34522e-05
-6.12735e-05 0.000811731 2.26302e-06
2.34522e-05 2.26302e-06 0.000769504
0.00129589 -0.000293499 -1.32377e-05
-0.000293499 -0.000377985 6.56897e-06
-1.32377e-05 6.56897e-06 -0.000354534
0.00174623 -0.000209073 1.15561e-06
-0.000209073 -0.000179835 2.03207e-06
1.15561e-06 2.03207e-06 -0.000118072
0.0019037 -0.000213853 1.68344e-06
-0.000213853 -1.24365e-05 4.91285e-07
1.68344e-06 4.91285e-07 1.48521e-05
0.00176982 -0.000279766 2.60147e-06
-0.000279766 -5.97054e-05 1.60294e-06
2.60147e-06 1.60294e-06 -0.000114927
0.00183018 -0.000232056 4.57816e-07
-0.000232056 2.18224e-05 8.32759e-08
4.57816e-07 8.32759e-08 -1.86498e-05
0.00188676 -0.000216771 -1.67212e-07
-0.000216771 9.91379e-05 8.96159e-07
-1.67212e-07 8.96159e-07 3.94832e-05
0.00195037 -0.000263391 1.06404e-06
-0.000263391 0.000136576 1.09928e-06
1.06404e-06 1.09928e-06 5.40343e-05
0.00187184 -0.000231894 -7.33471e-07
-0.000231894 0.000133306 5.77316e-08
-7.33471e-07 5.77316e-08 5.24625e-05
0.00167952 -0.000205387 1.4116e-06
-0.000205387 6.85155e-05 -5.70861e-09
1.4116e-06 -5.70861e-09 -2.78117e-05
0.0016383 -0.000233957 -1.09284e-06
-0.000233957 4.29019e-05 2.02899e-06
-1.09284e-06 2.02899e-06 -5.47423e-05
0.00168743 -0.000228197 5.38246e-07
-0.000228197 0.00010046 -7.22824e-07
5.38246e-07 -7.22824e-07 -9.89237e-06
0.00166451 -0.000212625 2.05117e-06
-0.000212625 0.000115411 -1.93283e-06
2.05117e-06 -1.93283e-06 -1.78204e-05
0.00186981 -0.000234481 -4.85678e-06
-0.000234481 0.000223848 5.13554e-06
-4.85678e-06 5.13554e-06 0.000103372
0.00178711 -0.000225116 -9.96568e-07
-0.000225116 0.000216156 1.30931e-07
-9.96568e-07 1.30931e-07 7.13654e-05
0.0015575 -0.000197415 -2.13002e-06
-0.000197415 0.000147116 -4.85933e-07
-2.13002e-06 -4.85933e-07 -1.07744e-05
0.00173909 -0.000249138 2.87018e-06
-0.000249138 0.000212591 1.37162e-06
2.87018e-06 1.37162e-06 4.38088e-05
0.00159426 -0.000224578 9.98182e-07
-0.000224578 0.000190018 -6.13199e-07
9.98182e-07 -6.13199e-07 2.02824e-05
0.00127213 -0.000182115 -7.34999e-06
-0.000182115 8.30412e-05 2.11455e-06
-7.34999e-06 2.11455e-06 -7.66473e-05
0.000993796 -0.000161363 -1.12244e-05
-0.000161363 3.27357e-05 5.2275e-06
-1.12244e-05 5.2275e-06 -0.000107764
0.00112517 -0.000197265 -2.18176e-06
-0.000197265 2.57224e-05 4.16141e-07
-2.18176e-06 4.16141e-07 -0.000144857
0.0016008 -0.000258703 3.7681e-06
-0.000258703 0.000231768 -5.69236e-07
3.7681e-06 -5.69236e-07 4.2284e-05
0.00053924 -0.000153355 -1.97512e-05
-0.000153355 -8.85217e-05 1.2891e-05
-1.97512e-05 1.2891e-05 -0.000169419
0.000906447 -0.000162259 7.09155e-07
-0.000162259 3.25458e-05 5.30992e-07
7.09155e-07 5.30992e-07 -0.00011553
0.00125172 -0.000220104 6.91808e-06
-0.000220104 0.000148079 -1.77289e-06
6.91808e-06 -1.77289e-06 -3.4618e-05
0.0045196 0.000180781 -0.000115441
0.000180781 0.00231531 5.90209e-06
-0.000115441 5.90209e-06 0.00229601
0.000602181 -0.00011624 2.40507e-07
-0.00011624 -3.43524e-05 -1.88026e-08
2.40507e-07 -1.88026e-08 -0.000107887
0.000891053 -0.000159296 7.45115e-06
-0.000159296 9.02892e-05 -5.61628e-06
7.45115e-06 -5.61628e-06 -5.81822e-05
0.00413249 0.000140865 5.99223e-06
0.000140865 0.00207844 6.60005e-07
5.99223e-06 6.60005e-07 0.00207003
0.000728287 -7.08922e-05 1.30337e-05
-7.08922e-05 5.14371e-05 -1.0911e-05
1.30337e-05 -1.0911e-05 -1.02061e-05
0.00369266 0.000108143 0.000112264
0.000108143 0.00181635 -5.17143e-06
0.000112264 -5.17143e-06 0.00181639
0.00109249 0.000237346 -5.60122e-06
0.000237346 3.51701e-05 -1.56498e-06
-5.60122e-06 -1.56498e-06 -0.000163639
0.00117099 0.00022888 -2.41236e-07
0.00022888 0.000210515 -2.04335e-07
-2.41236e-07 -2.04335e-07 1.6104e-05
0.00109382 0.000194985 -2.01016e-06
0.000194985 0.000214502 -2.93216e-06
-2.01016e-06 -2.93216e-06 3.85813e-05
0.00165177 0.000247191 -1.79223e-06
0.000247191 0.000577634 1.68273e-06
-1.79223e-06 1.68273e-06 0.00040071
0.000831106 0.000133543 -1.08164e-06
0.000133543 0.000109975 -1.8414e-06
-1.08164e-06 -1.8414e-06 -3.54954e-05
0.000868109 0.000102512 -3.71537e-06
0.000102512 0.000152035 -3.96694e-06
-3.71537e-06 -3.96694e-06 3.2621e-05
0.000617742 6.89623e-05 1.87219e-07
6.89623e-05 6.35358e-06 3.30431e-07
1.87219e-07 3.30431e-07 -0.000115086
0.000660261 1.56837e-05 -5.72405e-07
1.56837e-05 3.15864e-05 -1.05691e-07
-5.72405e-07 -1.05691e-07 -6.31726e-05
0.000583411 -3.20454e-05 -3.45777e-06
-3.20454e-05 -6.20992e-06 -7.74422e-06
-3.45777e-06 -7.74422e-06 -4.7474e-05
0.000585564 -2.30672e-05 1.19784e-06
-2.30672e-05 -1.16904e-05 3.79272e-06
1.19784e-06 3.79272e-06 -9.31439e-05
0.000531038 -4.95828e-05 3.92851e-07
-4.95828e-05 -3.64083e-05 -1.57316e-07
3.92851e-07 -1.57316e-07 -7.27784e-05
0.00291194 -0.000122228 -6.31377e-05
-0.000122228 0.0013639 -2.14354e-06
-6.31377e-05 -2.14354e-06 0.00136321
0.00051663 -4.48354e-05 1.60617e-06
-4.48354e-05 -5.2909e-05 6.28977e-06
1.60617e-06 6.28977e-06 -8.41632e-05
0.00276359 -0.000113646 -2.39494e-06
-0.000113646 0.00127072 2.87305e-07
-2.39494e-06 2.87305e-07 0.00127192
0.00269577 -0.000101086 4.16497e-05
-0.000101086 0.00122327 3.50772e-06
4.16497e-05 3.50772e-06 0.00122717
0.000326483 3.81627e-05 1.13016e-05
3.81627e-05 -0.000791894 7.66386e-06
1.13016e-05 7.66386e-06 -0.000771288
0.00418705 1.77739e-05 4.46004e-05
1.77739e-05 0.000243146 6.07776e-06
4.46004e-05 6.07776e-06 0.000103526
0.00969681 0.000517205 -8.24955e-05
0.000517205 0.00285422 -4.05952e-05
-8.24955e-05 -4.05952e-05 0.00171376
0.000297944 0.000193111 1.48985e-06
0.000193111 -0.000458396 2.32949e-06
1.48985e-06 2.32949e-06 -0.00064011
0.00170283 0.000308829 1.70547e-06
0.000308829 0.000239039 3.06666e-06
1.70547e-06 3.06666e-06 4.68289e-05
0.00103653 0.000260708 -3.71386e-06
0.000260708 -3.02147e-05 7.42577e-07
-3.71386e-06 7.42577e-07 -0.000242476
0.0011185 0.000232789 2.97086e-07
0.000232789 0.000281442 1.65081e-06
2.97086e-07 1.65081e-06 0.000106478
0.000854507 0.000229205 -1.42456e-06
0.000229205 2.06785e-05 8.87703e-08
-1.42456e-06 8.87703e-08 -0.000177192
0.00128833 0.000291455 7.10701e-06
0.000291455 0.000203661 1.2222e-06
7.10701e-06 1.2222e-06 2.32725e-05
0.0021935 0.000426924 -6.94035e-06
0.000426924 0.000409771 -3.44504e-06
-6.94035e-06 -3.44504e-06 0.000226451
0.00210335 0.000372746 -2.37531e-06
0.000372746 0.000651038 1.49797e-06
-2.37531e-06 1.49797e-06 0.000474288
0.0013629 0.000370183 1.03726e-05
0.000370183 4.86077e-05 1.86785e-05
1.03726e-05 1.86785e-05 -0.000107809
0.00207988 0.000447788 -2.45437e-06
0.000447788 0.000347203 8.3283e-07
-2.45437e-06 8.3283e-07 0.000169025
0.00201503 0.00040681 -1.35231e-05
0.00040681 0.000214126 1.15699e-06
-1.35231e-05 1.15699e-06 6.29929e-05
0.000716252 0.000189752 1.25294e-05
0.000189752 -0.000456415 5.75869e-06
1.25294e-05 5.75869e-06 -0.000506496
0.00118501 0.000360512 9.06471e-06
0.000360512 -0.000119479 3.01028e-07
9.06471e-06 3.01028e-07 -0.000236997
0.00111639 0.000414686 -6.52663e-06
0.000414686 -0.000176728 -6.89622e-06
-6.52663e-06 -6.89622e-06 -0.000342433
0.00153198 0.000287299 2.41513e-06
0.000287299 -5.39006e-05 4.82123e-06
2.41513e-06 4.82123e-06 -5.64058e-05
0.00506021 0.000394732 2.94654e-05
0.000394732 0.000130853 -1.42312e-05
2.94654e-05 -1.42312e-05 -7.55334e-05
0.00236013 0.000516452 1.16043e-05
0.000516452 0.000518738 -2.18037e-05
1.16043e-05 -2.18037e-05 0.000485916
0.00142595 -3.95602e-05 2.35097e-05
-3.95602e-05 -1.76894e-05 1.98693e-06
2.35097e-05 1.98693e-06 -3.59139e-05
0.00210551 -9.88875e-05 -2.02495e-05
-9.88875e-05 7.52885e-05 -8.79232e-07
-2.02495e-05 -8.79232e-07 2.34625e-05
0.00122053 0.000154904 2.47356e-05
0.000154904 -0.000717152 -7.59337e-06
2.47356e-05 -7.59337e-06 -0.000966548
0.000545219 -0.000173597 -2.67962e-05
-0.000173597 -0.000759795 2.01281e-05
-2.67962e-05 2.01281e-05 -0.000695319
0.00303173 -0.000160969 -8.82599e-05
-0.000160969 0.000522705 -8.66862e-08
-8.82599e-05 -8.66862e-08 0.000489118
0.00186092 -0.000158484 1.99145e-06
-0.000158484 -6.75158e-05 -1.75153e-06
1.99145e-06 -1.75153e-06 4.56251e-06
0.00227816 -6.39683e-05 -7.82226e-06
-6.39683e-05 0.000376751 2.45134e-07
-7.82226e-06 2.45134e-07 0.000334512
0.00195358 -0.00016733 2.34794e-06
-0.00016733 1.7416e-06 1.14715e-06
2.34794e-06 1.14715e-06 5.8103e-06
0.00220538 -2.86644e-05 4.42023e-06
-2.86644e-05 0.000197232 1.01854e-06
4.42023e-06 1.01854e-06 0.000165828
0.00177084 -0.000221241 -5.26989e-06
-0.000221241 -0.000187606 2.03899e-06
-5.26989e-06 2.03899e-06 -0.000133705
0.00190676 -0.000209113 -1.82473e-06
-0.000209113 -3.19312e-06 -7.90002e-08
-1.82473e-06 -7.90002e-08 1.83965e-05
0.00195407 -0.000176662 -1.95172e-06
-0.000176662 5.28235e-05 4.57174e-07
-1.95172e-06 4.57174e-07 2.17338e-05
0.00185211 -0.000241843 -1.70588e-06
-0.000241843 2.92109e-05 -8.11878e-07
-1.70588e-06 -8.11878e-07 -1.63236e-05
0.00179824 -0.000211934 9.86834e-08
-0.000211934 5.59102e-05 -2.68386e-07
9.86834e-08 -2.68386e-07 -7.9914e-06
0.00182824 -0.000186867 1.63258e-07
-0.000186867 0.000100272 1.58412e-07
1.63258e-07 1.58412e-07 1.82555e-05
0.00177665 -0.000235402 -2.53843e-06
-0.000235402 8.0994e-05 -4.77128e-07
-2.53843e-06 -4.77128e-07 -2.13889e-06
0.0017184 -0.000206553 3.00727e-07
-0.000206553 9.00404e-05 -1.01844e-07
3.00727e-07 -1.01844e-07 -6.33835e-06
0.00170813 -0.000191928 1.95615e-06
-0.000191928 0.000102936 -8.22307e-07
1.95615e-06 -8.22307e-07 -1.73808e-05
0.00170377 -0.000228933 -2.22996e-06
-0.000228933 0.000112957 5.03376e-07
-2.22996e-06 5.03376e-07 2.4187e-06
0.00169136 -0.000212976 -7.37498e-08
-0.000212976 0.000131734 -3.70801e-07
-7.37498e-08 -3.70801e-07 -1.3336e-06
0.0015476 -0.000183031 -1.08524e-06
-0.000183031 0.000118952 -4.47019e-07
-1.08524e-06 -4.47019e-07 -3.14284e-05
0.00183635 -0.000226136 -1.55126e-06
-0.000226136 0.000241784 3.14079e-06
-1.55126e-06 3.14079e-06 9.99194e-05
0.00155938 -0.000198089 -5.36103e-07
-0.000198089 0.000147722 -1.28131e-07
-5.36103e-07 -1.28131e-07 -9.35097e-06
0.00127305 -0.000162298 -6.68403e-06
-0.000162298 6.76015e-05 1.94552e-06
-6.68403e-06 1.94552e-06 -8.61409e-05
0.00152894 -0.00022205 4.87881e-06
-0.00022205 0.000151898 -3.29965e-07
4.87881e-06 -3.29965e-07 -1.87926e-05
0.0012089 -0.000179322 -5.93661e-08
-0.000179322 4.66671e-05 -4.39711e-08
-5.93661e-08 -4.39711e-08 -0.000113345
0.00100405 -0.000145158 -1.20041e-05
-0.000145158 1.80971e-05 5.44878e-06
-1.20041e-05 5.44878e-06 -0.000114812
0.000477173 -0.000153479 -1.96371e-05
-0.000153479 -0.000137107 1.23115e-05
-1.96371e-05 1.23115e-05 -0.000221699
0.000958372 -0.000158531 1.71305e-07
-0.000158531 1.36305e-05 -2.6102e-08
1.71305e-07 -2.6102e-08 -0.00012667
0.0012737 -0.000206361 5.41043e-06
-0.000206361 0.000112061 -1.56014e-06
5.41043e-06 -1.56014e-06 -5.91275e-05
0.00501446 0.000165744 -0.00013402
0.000165744 0.0025979 7.67132e-06
-0.00013402 7.67132e-06 0.00257922
0.000592868 -0.000143904 -1.76094e-06
-0.000143904 -6.02797e-05 4.82122e-07
-1.76094e-06 4.82122e-07 -0.000141318
0.000864839 -0.000162363 9.47186e-06
-0.000162363 1.20303e-05 -4.89103e-06
9.47186e-06 -4.89103e-06 -0.000136398
0.00470115 0.000161152 1.12164e-05
0.000161152 0.00241694 1.3098e-06
1.12164e-05 1.3098e-06 0.0024
0.000751272 -0.000120727 1.79256e-05
-0.000120727 4.57297e-05 -1.24133e-05
1.79256e-05 -1.24133e-05 -2.85499e-05
0.00429633 0.000119391 0.000132347
0.000119391 0.00216799 -6.88515e-06
0.000132347 -6.88515e-06 0.00216279
0.00151483 0.000261771 -5.37173e-06
0.000261771 0.000219929 1.42523e-06
-5.37173e-06 1.42523e-06 2.55955e-05
0.00108216 0.000236454 -5.75232e-07
0.000236454 2.5953e-05 1.57863e-06
-5.75232e-07 1.57863e-06 -0.000174186
0.000993382 0.000197899 -5.76862e-06
0.000197899 6.00741e-05 -1.21818e-06
-5.76862e-06 -1.21818e-06 -0.000122979
0.00131323 0.000240387 -6.23896e-07
0.000240387 0.000298451 1.81062e-06
-6.23896e-07 1.81062e-06 0.00010229
0.0010267 0.000188359 -1.29458e-06
0.000188359 0.000179003 -5.32139e-08
-1.29458e-06 -5.32139e-08 3.85392e-06
0.000939447 0.00014599 -5.46603e-06
0.00014599 0.000169593 -5.16139e-06
-5.46603e-06 -5.16139e-06 3.01695e-05
0.000909829 0.00013984 9.0614e-09
0.00013984 0.000155207 2.14055e-07
9.0614e-09 2.14055e-07 9.95525e-06
0.000741867 7.92319e-05 -3.14389e-07
7.92319e-05 8.13359e-05 -1.43308e-07
-3.14389e-07 -1.43308e-07 -3.52403e-05
0.000668275 1.08912e-05 -7.95168e-06
1.08912e-05 3.6055e-05 -9.10808e-06
-7.95168e-06 -9.10808e-06 -1.44279e-05
0.00060613 -1.3942e-05 1.09024e-06
-1.3942e-05 1.75904e-07 3.67761e-06
1.09024e-06 3.67761e-06 -9.17091e-05
0.000521206 -4.02296e-05 -5.04252e-08
-4.02296e-05 -3.99855e-05 -2.481e-07
-5.04252e-08 -2.481e-07 -8.16253e-05
0.00317134 -0.000126213 -8.23903e-05
-0.000126213 0.00151984 -2.13293e-06
-8.23903e-05 -2.13293e-06 0.00151769
0.00049376 -5.07837e-05 1.25918e-06
-5.07837e-05 -5.76892e-05 6.89517e-06
1.25918e-06 6.89517e-06 -9.39133e-05
0.00287055 -0.000125751 -2.26217e-06
-0.000125751 0.00134027 2.81511e-07
-2.26217e-06 2.81511e-07 0.00133848
0.00275358 -0.000113324 4.73421e-05
-0.000113324 0.00126453 3.00087e-06
4.73421e-05 3.00087e-06 0.00126566
0.00077759 4.8931e-05 1.24325e-05
4.8931e-05 -0.000426093 -4.09013e-06
1.24325e-05 -4.09013e-06 -0.00042098
0.00190112 2.55094e-06 -7.25204e-06
2.55094e-06 -0.000117493 4.60619e-07
-7.25204e-06 4.60619e-07 -9.69663e-05
0.00416688 7.22049e-06 0.000124562
7.22049e-06 2.59916e-05 1.62778e-05
0.000124562 1.62778e-05 0.000151979
0.00184807 0.000349441 -2.05134e-06
0.000349441 0.000234848 1.4201e-06
-2.05134e-06 1.4201e-06 5.746e-05
0.000752799 0.000246311 1.043e-06
0.000246311 -0.00020562 -1.33314e-06
1.043e-06 -1.33314e-06 -0.000391805
0.00190677 0.000309871 -8.68539e-07
0.000309871 0.000252526 3.58768e-06
-8.68539e-07 3.58768e-06 8.46904e-05
0.00173669 0.000310539 1.29682e-06
0.000310539 0.000260181 5.75025e-07
1.29682e-06 5.75025e-07 6.78605e-05
0.000744425 0.000244846 -8.13548e-07
0.000244846 -0.000199881 3.97574e-06
-8.13548e-07 3.97574e-06 -0.000408952
0.00185721 0.000338088 -5.11455e-06
0.000338088 0.0001189 1.54472e-06
-5.11455e-06 1.54472e-06 -3.29011e-05
0.00186188 0.000344333 -1.88782e-06
0.000344333 0.000509431 -3.27768e-07
-1.88782e-06 -3.27768e-07 0.000318705
0.00213503 0.000418392 -6.24634e-08
0.000418392 0.000382249 -1.25766e-06
-6.24634e-08 -1.25766e-06 0.000197864
0.00179561 0.000237543 -1.05855e-05
0.000237543 1.34953e-05 -3.18959e-07
-1.05855e-05 -3.18959e-07 -8.70322e-05
0.00247402 0.000472734 5.28569e-06
0.000472734 0.000566834 3.89166e-06
5.28569e-06 3.89166e-06 0.000388881
0.00195916 0.000405229 -1.36181e-06
0.000405229 0.000178814 3.53201e-07
-1.36181e-06 3.53201e-07 2.57684e-05
0.000905572 0.000204552 2.413e-06
0.000204552 -0.000322237 2.45251e-06
2.413e-06 2.45251e-06 -0.000380225
1.49458e-05 0.000285816 1.21503e-06
0.000285816 -0.000719669 -3.12926e-06
1.21503e-06 -3.12926e-06 -0.000834012
0.00159012 0.00028556 -3.79449e-05
0.00028556 -3.60126e-05 -1.68322e-05
-3.79449e-05 -1.68322e-05 -5.00398e-05
0.00177351 3.28408e-05 1.58125e-06
3.28408e-05 -4.77658e-05 3.32953e-07
1.58125e-06 3.32953e-07 -8.6554e-05
0.00207529 -2.47561e-05 5.27167e-07
-2.47561e-05 0.000366904 2.66628e-06
5.27167e-07 2.66628e-06 0.000352728
0.00138063 -8.41603e-06 -5.98811e-05
-8.41603e-06 -0.00024676 -9.19616e-06
-5.98811e-05 -9.19616e-06 -0.000347645
0.00213392 -0.000186323 -2.65371e-05
-0.000186323 0.000102441 4.92997e-07
-2.65371e-05 4.92997e-07 0.000171227
0.00126318 -7.0247e-05 -8.02829e-06
-7.0247e-05 -0.000245068 -6.85975e-07
-8.02829e-06 -6.85975e-07 -0.000285431
0.0018984 -0.000159764 2.91203e-07
-0.000159764 -2.55524e-05 -3.73675e-07
2.91203e-07 -3.73675e-07 -1.70906e-05
0.00200279 -2.87516e-05 -3.17985e-06
-2.87516e-05 5.93475e-05 7.04958e-07
-3.17985e-06 7.04958e-07 3.35901e-05
0.00200584 -6.00622e-05 -5.90789e-06
-6.00622e-05 5.42533e-05 -6.41576e-07
-5.90789e-06 -6.41576e-07 2.99504e-05
0.00190305 -0.000203601 -3.34054e-06
-0.000203601 5.16269e-06 -8.20808e-07
-3.34054e-06 -8.20808e-07 2.00898e-05
0.00190319 -0.000169543 5.19929e-07
-0.000169543 3.36574e-05 -1.53159e-07
5.19929e-07 -1.53159e-07 4.8584e-07
0.00197552 -0.000136163 -3.7782e-07
-0.000136163 0.00011036 -3.64584e-07
-3.7782e-07 -3.64584e-07 5.64845e-05
0.00170926 -0.000207559 -5.34995e-07
-0.000207559 1.19492e-05 -9.51806e-07
-5.34995e-07 -9.51806e-07 -5.62172e-05
0.00175798 -0.000183639 -3.96464e-09
-0.000183639 6.2966e-05 -6.29747e-08
-3.96464e-09 -6.29747e-08 -1.99832e-05
0.00174496 -0.000156453 1.47593e-06
-0.000156453 8.58876e-05 -4.31541e-07
1.47593e-06 -4.31541e-07 -2.26499e-05
0.00176321 -0.000207893 -7.93101e-07
-0.000207893 0.000114359 -1.32428e-07
-7.93101e-07 -1.32428e-07 1.79346e-05
0.00173587 -0.000191681 4.1737e-08
-0.000191681 0.000120264 -1.19406e-07
4.1737e-08 -1.19406e-07 9.2061e-08
0.00161018 -0.000164793 -1.50415e-07
-0.000164793 0.000121501 -4.71993e-07
-1.50415e-07 -4.71993e-07 -2.00135e-05
0.001719 -0.000213429 -1.73652e-06
-0.000213429 0.000148371 1.0715e-06
-1.73652e-06 1.0715e-06 1.54539e-05
0.0015621 -0.000183331 -1.95481e-07
-0.000183331 0.000126076 -1.902e-08
-1.95481e-07 -1.902e-08 -2.39779e-05
0.00130894 -0.000145842 -5.62261e-06
-0.000145842 7.29789e-05 1.64002e-06
-5.62261e-06 1.64002e-06 -7.6777e-05
0.00156175 -0.000198705 1.74502e-06
-0.000198705 0.00014848 4.95396e-07
1.74502e-06 4.95396e-07 -7.75475e-06
0.00130158 -0.000163324 -1.88788e-07
-0.000163324 8.31444e-05 5.76574e-08
-1.88788e-07 5.76574e-08 -7.0428e-05
0.00103365 -0.000129369 -1.26893e-05
-0.000129369 2.12365e-05 5.16074e-06
-1.26893e-05 5.16074e-06 -0.000107908
0.00114934 -0.000176768 6.64575e-06
-0.000176768 1.24416e-05 -1.84059e-06
6.64575e-06 -1.84059e-06 -0.000147919
0.00100506 -0.00014386 2.02302e-07
-0.00014386 1.81991e-05 -9.25993e-10
2.02302e-07 -9.25993e-10 -0.000114473
0.00233794 -8.8772e-05 -2.3241e-05
-8.8772e-05 0.000941411 7.60206e-06
-2.3241e-05 7.60206e-06 0.00086944
0.00159936 -3.4274e-05 -0.000160073
-3.4274e-05 0.000572934 1.6291e-05
-0.000160073 1.6291e-05 0.000554581
0.00150692 -0.000126815 -2.99859e-06
-0.000126815 0.000460259 -2.22531e-07
-2.99859e-06 -2.22531e-07 0.000379694
0.000935031 -0.000156652 1.09151e-05
-0.000156652 1.42114e-06 -5.10396e-06
1.09151e-05 -5.10396e-06 -0.000138811
0.00516389 0.000127986 1.59e-06
0.000127986 0.00267903 -3.30761e-08
1.59e-06 -3.30761e-08 0.00266427
0.000666258 -0.000163177 2.05153e-05
-0.000163177 -1.7962e-05 -1.2654e-05
2.05153e-05 -1.2654e-05 -0.000102584
0.00486413 0.000120694 0.000152347
0.000120694 0.00250389 -1.02193e-05
0.000152347 -1.02193e-05 0.00249196
0.00188008 0.000251127 7.75223e-07
0.000251127 0.000206303 8.61157e-07
7.75223e-07 8.61157e-07 5.62204e-05
0.00157103 0.000257727 8.37763e-08
0.000257727 0.000175377 2.73165e-06
8.37763e-08 2.73165e-06 -2.07942e-06
0.0015456 0.000267768 -4.85906e-07
0.000267768 0.0002355 -3.97777e-07
-4.85906e-07 -3.97777e-07 4.13978e-05
0.00119598 0.00021193 -7.16261e-06
0.00021193 8.63856e-05 -1.30053e-06
-7.16261e-06 -1.30053e-06 -8.96194e-05
0.00111661 0.000239131 3.43315e-06
0.000239131 4.30838e-05 9.5187e-07
3.43315e-06 9.5187e-07 -0.000158921
0.00112398 0.000207871 -8.84714e-07
0.000207871 0.000136843 9.02644e-07
-8.84714e-07 9.02644e-07 -4.81474e-05
0.000895463 0.000160138 -7.97362e-06
0.000160138 8.04585e-05 -4.58834e-06
-7.97362e-06 -4.58834e-06 -6.88777e-05
0.00097597 0.000182871 1.40283e-06
0.000182871 0.000153003 3.98705e-06
1.40283e-06 3.98705e-06 -2.15381e-05
0.000805365 0.000130541 -8.8934e-08
0.000130541 9.36753e-05 -1.62062e-07
-8.8934e-08 -1.62062e-07 -4.3056e-05
0.000787725 8.25689e-05 -1.33325e-05
8.25689e-05 9.22042e-05 -1.14714e-05
-1.33325e-05 -1.14714e-05 2.58935e-05
0.000642179 5.62455e-05 1.83023e-06
5.62455e-05 2.19765e-05 3.04883e-06
1.83023e-06 3.04883e-06 -8.93901e-05
0.000537559 -1.09083e-06 -6.74064e-07
-1.09083e-06 -3.68872e-05 -4.09581e-07
-6.74064e-07 -4.09581e-07 -8.58044e-05
0.00357252 -0.000122168 -0.000107952
-0.000122168 0.00175743 -3.75371e-06
-0.000107952 -3.75371e-06 0.00175364
0.00045184 -4.855e-05 1.05506e-06
-4.855e-05 -7.68205e-05 7.75094e-06
1.05506e-06 7.75094e-06 -0.000119394
0.00307688 -0.000137968 -3.05649e-06
-0.000137968 0.001467 3.20035e-07
-3.05649e-06 3.20035e-07 0.00146186
0.00283859 -0.000126213 5.29517e-05
-0.000126213 0.0013216 2.41745e-06
5.29517e-05 2.41745e-06 0.00131958
0.00177867 0.000131577 -3.65397e-06
0.000131577 -4.25473e-05 2.20262e-07
-3.65397e-06 2.20262e-07 -0.000106534
0.00190468 4.1254e-05 1.30902e-05
4.1254e-05 0.000164255 2.04232e-06
1.30902e-05 2.04232e-06 0.000161715
0.00378375 -2.48572e-05 -7.91828e-05
-2.48572e-05 0.000702995 -1.41925e-05
-7.91828e-05 -1.41925e-05 0.000718423
0.00171158 0.000291584 -3.50856e-06
0.000291584 5.50101e-05 1.20925e-06
-3.50856e-06 1.20925e-06 -9.13958e-05
0.00171323 0.000336459 -1.17515e-06
0.000336459 0.000176599 -1.39939e-07
-1.17515e-06 -1.39939e-07 -4.92158e-07
0.00123428 0.000301066 -1.73162e-05
0.000301066 6.30882e-05 -6.8879e-06
-1.73162e-05 -6.8879e-06 -0.000127603
0.00192123 0.000300006 2.38713e-06
0.000300006 0.000264537 7.58047e-07
2.38713e-06 7.58047e-07 9.83584e-05
0.00178079 0.000312511 -5.4292e-07
0.000312511 0.000288281 -2.7399e-06
-5.4292e-07 -2.7399e-06 9.58226e-05
0.00215601 0.000234775 -1.66107e-06
0.000234775 0.000232566 1.27433e-06
-1.66107e-06 1.27433e-06 0.000134452
0.00171858 0.000332525 -1.50342e-06
0.000332525 5.03947e-05 8.40364e-07
-1.50342e-06 8.40364e-07 -0.000102821
0.00208396 0.000410636 2.28839e-06
0.000410636 0.000357723 -1.53563e-07
2.28839e-06 -1.53563e-07 0.000172121
0.00180629 0.000240756 -9.35507e-07
0.000240756 2.40935e-05 1.67658e-07
-9.35507e-07 1.67658e-07 -7.74901e-05
0.00207655 0.00041459 1.85547e-05
0.00041459 0.000226448 1.82391e-06
1.85547e-05 1.82391e-06 7.05908e-05
0.00144575 0.000226328 -1.88658e-05
0.000226328 -1.34397e-05 -3.38061e-06
-1.88658e-05 -3.38061e-06 -7.8983e-05
0.00197902 4.29447e-05 -5.87619e-06
4.29447e-05 6.85555e-05 -1.52234e-07
-5.87619e-06 -1.52234e-07 2.46168e-05
0.00186254 4.37408e-05 -2.26461e-06
4.37408e-05 6.50593e-06 1.45784e-07
-2.26461e-06 1.45784e-07 -3.45058e-05
0.00286814 -9.63802e-06 -3.93779e-05
-9.63802e-06 0.000838979 -5.25264e-06
-3.93779e-05 -5.25264e-06 0.000819612
0.0018381 -0.000151082 -7.69378e-06
-0.000151082 -6.16218e-05 -1.67784e-06
-7.69378e-06 -1.67784e-06 -4.86992e-05
0.00191567 -2.86233e-05 3.89474e-06
-2.86233e-05 -1.15208e-05 -8.94267e-07
3.89474e-06 -8.94267e-07 -3.3773e-05
0.00198196 -6.46663e-05 -4.71268e-08
-6.46663e-05 2.58921e-05 1.45341e-07
-4.71268e-08 1.45341e-07 7.15314e-06
0.00195398 -4.5159e-05 -1.73666e-06
-4.5159e-05 0.000109101 -7.98655e-08
-1.73666e-06 -7.98655e-08 5.61271e-05
0.00184947 -0.000161687 2.70361e-06
-0.000161687 1.40879e-05 -8.77473e-07
2.70361e-06 -8.77473e-07 -2.1368e-05
0.00185172 -0.000135452 6.49779e-07
-0.000135452 4.77059e-05 -1.06327e-07
6.49779e-07 -1.06327e-07 -1.21663e-05
0.00181683 -0.000111665 3.47749e-06
-0.000111665 0.000100256 -1.23591e-06
3.47749e-06 -1.23591e-06 1.54259e-06
0.00168416 -0.000180371 7.46153e-08
-0.000180371 2.39469e-05 4.16623e-08
7.46153e-08 4.16623e-08 -6.00571e-05
0.00178092 -0.000157284 -1.65258e-08
-0.000157284 0.000105401 -1.47498e-07
-1.65258e-08 -1.47498e-07 -3.04997e-06
0.00168121 -0.000139534 1.59953e-07
-0.000139534 0.000122053 -4.54068e-07
1.59953e-07 -4.54068e-07 -1.03855e-05
0.00176338 -0.000191316 -1.46216e-06
-0.000191316 0.000137622 5.36764e-07
-1.46216e-06 5.36764e-07 1.76151e-05
0.00161326 -0.000164468 -2.3865e-07
-0.000164468 0.000122639 3.8217e-08
-2.3865e-07 3.8217e-08 -1.86314e-05
0.00134703 -0.000126424 -4.874e-06
-0.000126424 7.7159e-05 1.28365e-06
-4.874e-06 1.28365e-06 -6.88119e-05
0.00157519 -0.000183583 7.3005e-07
-0.000183583 0.000132539 3.98107e-07
7.3005e-07 3.98107e-07 -1.71877e-05
0.00132864 -0.000146425 -1.2298e-07
-0.000146425 8.22956e-05 8.59154e-08
-1.2298e-07 8.59154e-08 -6.72365e-05
0.00103828 -0.000113693 -1.26075e-05
-0.000113693 1.32856e-05 4.46363e-06
-1.26075e-05 4.46363e-06 -0.000114193
0.00133078 -0.000164431 6.11142e-06
-0.000164431 9.90234e-05 -1.7484e-06
6.11142e-06 -1.7484e-06 -5.43905e-05
0.00102534 -0.000127118 2.23747e-07
-0.000127118 1.55924e-05 8.74911e-08
2.23747e-07 8.74911e-08 -0.000113025
0.00238719 -9.88833e-05 -3.05075e-05
-9.88833e-05 0.000956081 6.74586e-06
-3.05075e-05 6.74586e-06 0.000891485
0.000996559 -0.000142218 1.20046e-05
-0.000142218 1.30169e-05 -5.33375e-06
1.20046e-05 -5.33375e-06 -0.000119418
0.00250054 -0.000136169 3.46833e-05
-0.000136169 0.0010285 -4.00534e-06
3.46833e-05 -4.00534e-06 0.000963059
0.00169502 -7.47778e-05 -0.00016535
-7.47778e-05 0.000635778 2.01891e-05
-0.00016535 2.01891e-05 0.000616581
0.00341988 7.85488e-06 -0.000163852
7.85488e-06 0.00165558 8.15133e-06
-0.000163852 8.15133e-06 0.00163869
0.00259681 -0.000183907 0.000102076
-0.000183907 0.00108787 -1.32115e-05
0.000102076 -1.32115e-05 0.0010244
0.00529676 0.000128528 0.000155489
0.000128528 0.00277235 -1.54479e-05
0.000155489 -1.54479e-05 0.00274834
0.00198538 0.000249859 -1.69177e-06
0.000249859 0.000230707 -3.50501e-07
-1.69177e-06 -3.50501e-07 9.25456e-05
0.0015659 0.000219694 2.52649e-06
0.000219694 0.00012727 1.19673e-06
2.52649e-06 1.19673e-06 -3.21385e-05
0.00183952 0.000251505 3.32503e-07
0.000251505 0.000179957 -9.45319e-07
3.32503e-07 -9.45319e-07 3.32643e-05
0.00134333 0.000207182 -6.77951e-06
0.000207182 0.000125687 -1.05119e-06
-6.77951e-06 -1.05119e-06 -4.00094e-05
0.00159048 0.00025652 5.97297e-07
0.00025652 0.000181781 3.59082e-07
5.97297e-07 3.59082e-07 3.68783e-06
0.00156908 0.00027321 3.84266e-06
0.00027321 0.000247022 -6.45529e-07
3.84266e-06 -6.45529e-07 5.32339e-05
0.0011848 0.00021128 -2.72228e-08
0.00021128 8.17767e-05 4.02762e-08
-2.72228e-08 4.02762e-08 -9.40592e-05
0.000878224 0.000158313 -1.04114e-05
0.000158313 -5.61115e-06 -4.36753e-06
-1.04114e-05 -4.36753e-06 -0.000151481
0.00125378 0.000217872 4.69295e-06
0.000217872 0.00021303 3.21732e-06
4.69295e-06 3.21732e-06 2.60711e-05
0.000857917 0.000153119 -8.00768e-07
0.000153119 5.72471e-05 5.22693e-07
-8.00768e-07 5.22693e-07 -9.09555e-05
0.000737014 0.000144125 -1.94397e-05
0.000144125 4.33253e-05 -1.23676e-05
-1.94397e-05 -1.23676e-05 -3.68301e-05
0.000655343 0.0001128 3.12891e-06
0.0001128 9.02136e-06 4.09911e-06
3.12891e-06 4.09911e-06 -0.000124856
0.000569232 5.77059e-05 -3.06387e-07
5.77059e-05 -2.91898e-05 -2.92413e-07
-3.06387e-07 -2.92413e-07 -9.19499e-05
0.0042475 -0.00011244 -0.000138892
-0.00011244 0.00215638 -7.9514e-06
-0.000138892 -7.9514e-06 0.00214756
0.0004012 -2.54192e-05 2.84687e-06
-2.54192e-05 -0.000109132 8.79766e-06
2.84687e-06 8.79766e-06 -0.000158701
0.00345486 -0.000148944 -5.3967e-06
-0.000148944 0.00169364 4.04712e-07
-5.3967e-06 4.04712e-07 0.0016847
0.0030105 -0.000141167 5.99939e-05
-0.000141167 0.00142887 1.90155e-06
5.99939e-05 1.90155e-06 0.00142288
0.00184109 0.000137034 -2.82269e-06
0.000137034 4.59087e-06 9.61427e-07
-2.82269e-06 9.61427e-07 -6.51207e-05
0.00183285 0.000129881 6.77742e-07
0.000129881 -1.03603e-05 -3.33129e-07
6.77742e-07 -3.33129e-07 -7.36843e-05
0.00264316 3.5761e-05 -5.09668e-05
3.5761e-05 0.000553851 -6.38251e-06
-5.09668e-05 -6.38251e-06 0.000553354
0.00199242 0.000208538 1.10578e-06
0.000208538 0.000165002 1.34248e-06
1.10578e-06 1.34248e-06 5.66663e-05
0.00170911 0.000286477 -6.2949e-07
0.000286477 6.52609e-05 1.79204e-07
-6.2949e-07 1.79204e-07 -8.05164e-05
0.00158242 0.000324149 -5.72453e-07
0.000324149 0.0001192 -3.74493e-06
-5.72453e-07 -3.74493e-06 -5.77429e-05
0.00193031 0.000289411 4.21798e-08
0.000289411 0.00027377 -2.61513e-06
4.21798e-08 -2.61513e-06 0.000109396
0.00196391 0.000224874 -8.35717e-07
0.000224874 0.000121785 -2.77509e-07
-8.35717e-07 -2.77509e-07 2.2988e-05
0.00159159 0.000327204 1.82212e-06
0.000327204 -1.12966e-05 -3.51228e-07
1.82212e-06 -3.51228e-07 -0.000165851
0.00180724 0.000239533 1.24277e-05
0.000239533 4.37283e-05 -7.10741e-08
1.24277e-05 -7.10741e-08 -5.76494e-05
0.00195007 3.30991e-05 -3.89708e-07
3.30991e-05 9.61894e-05 6.03062e-07
-3.89708e-07 6.03062e-07 3.8321e-05
0.00193698 4.23882e-05 2.82767e-07
4.23882e-05 4.81347e-05 1.47366e-08
2.82767e-07 1.47366e-08 3.43569e-06
0.00199252 5.45962e-05 -5.67433e-06
5.45962e-05 7.85351e-05 -1.73352e-06
-5.67433e-06 -1.73352e-06 3.72612e-05
0.001611 -1.49484e-05 -1.53258e-06
-1.49484e-05 -4.93065e-05 1.03051e-07
-1.53258e-06 1.03051e-07 -0.000117907
0.0019609 -7.24809e-05 5.49614e-06
-7.24809e-05 -1.22138e-06 -2.7643e-08
5.49614e-06 -2.7643e-08 -1.40814e-05
0.00188495 -4.68183e-05 -1.12985e-06
-4.68183e-05 6.49634e-05 5.5606e-07
-1.12985e-06 5.5606e-07 1.18834e-05
0.00202676 -5.57929e-05 4.30384e-07
-5.57929e-05 0.000219939 -9.56911e-07
4.30384e-07 -9.56911e-07 0.000133448
0.00173021 -0.000134778 1.8492e-06
-0.000134778 -1.42619e-05 -1.17212e-07
1.8492e-06 -1.17212e-07 -7.98526e-05
0.00183308 -0.000111896 2.1508e-06
-0.000111896 0.00010752 -5.99504e-07
2.1508e-06 -5.99504e-07 9.03808e-06
0.00172676 -0.000101177 1.01411e-06
-0.000101177 0.00011587 -9.90176e-07
1.01411e-06 -9.90176e-07 -7.78794e-06
0.00182394 -0.000157715 -1.40464e-06
-0.000157715 0.000129079 1.75043e-07
-1.40464e-06 1.75043e-07 2.07976e-05
0.00167814 -0.00013773 -1.44562e-07
-0.00013773 0.000122427 -5.78965e-08
-1.44562e-07 -5.78965e-08 -9.70747e-06
0.00138379 -0.000102487 -4.26569e-06
-0.000102487 7.61167e-05 9.12205e-07
-4.26569e-06 9.12205e-07 -6.51538e-05
0.0016179 -0.000164122 1.97774e-07
-0.000164122 0.000124681 4.51629e-07
1.97774e-07 4.51629e-07 -1.63291e-05
0.0013534 -0.000126389 -1.43665e-07
-0.000126389 7.79954e-05 9.59267e-08
-1.43665e-07 9.59267e-08 -6.77241e-05
0.00104437 -9.65155e-05 -1.22868e-05
-9.65155e-05 6.99967e-06 3.68665e-06
-1.22868e-05 3.68665e-06 -0.000119392
0.00134869 -0.000146975 5.30308e-06
-0.000146975 9.17339e-05 -1.43544e-06
5.30308e-06 -1.43544e-06 -5.75626e-05
0.00103763 -0.000111184 9.84495e-08
-0.000111184 1.18161e-05 1.69854e-07
9.84495e-08 1.69854e-07 -0.00011497
0.00243293 -0.000111923 -3.80287e-05
-0.000111923 0.000974569 6.32979e-06
-3.80287e-05 6.32979e-06 0.000912407
0.00101183 -0.000124664 1.25605e-05
-0.000124664 6.87851e-06 -4.99313e-06
1.25605e-05 -4.99313e-06 -0.000121169
0.00249514 -0.000132775 3.13642e-05
-0.000132775 0.00101578 -3.4616e-06
3.13642e-05 -3.4616e-06 0.000955148
0.00173689 -6.54535e-05 -0.000161367
-6.54535e-05 0.000656524 1.82024e-05
-0.000161367 1.82024e-05 0.000637837
0.00263658 -0.000156669 0.000102126
-0.000156669 0.00110315 -1.52346e-05
0.000102126 -1.52346e-05 0.00104206
0.00149495 -9.12075e-06 -7.64619e-05
-9.12075e-06 0.00052844 7.6095e-06
-7.64619e-05 7.6095e-06 0.000499675
0.00511178 0.000227864 1.25651e-05
0.000227864 0.00266386 -3.11303e-06
1.25651e-05 -3.11303e-06 0.00262693
0.00179061 0.000198777 1.26171e-06
0.000198777 0.000103251 8.04659e-07
1.26171e-06 8.04659e-07 -2.5418e-05
0.00177459 0.000216607 -2.3999e-07
0.000216607 0.000203047 -4.2209e-07
-2.3999e-07 -4.2209e-07 5.45943e-05
0.0018625 0.000245138 -2.94592e-06
0.000245138 0.000157867 4.34207e-08
-2.94592e-06 4.34207e-08 1.81458e-05
0.00170716 0.000201513 -4.14808e-06
0.000201513 0.000314956 -6.7469e-07
-4.14808e-06 -6.7469e-07 0.000160606
0.00152759 0.000222941 8.67068e-07
0.000222941 0.000101386 -9.73482e-07
8.67068e-07 -9.73482e-07 -5.70685e-05
0.00180403 0.000252195 -1.67198e-06
0.000252195 0.000156327 -2.88079e-06
-1.67198e-06 -2.88079e-06 1.30382e-05
0.000940083 0.000153811 -1.2057e-05
0.000153811 -1.55861e-05 -4.61442e-06
-1.2057e-05 -4.61442e-06 -0.000153403
0.00124973 0.000201104 8.24227e-08
0.000201104 7.21678e-05 1.81734e-07
8.24227e-08 1.81734e-07 -9.28685e-05
0.00160499 0.00025541 2.83164e-06
0.00025541 0.000184472 -1.15882e-06
2.83164e-06 -1.15882e-06 5.63468e-06
0.00116115 0.00020986 6.89023e-06
0.00020986 7.00268e-05 1.08655e-06
6.89023e-06 1.08655e-06 -0.000105556
0.000919097 0.000160421 -6.89706e-07
0.000160421 1.68464e-05 2.34364e-07
-6.89706e-07 2.34364e-07 -0.000129193
0.000624963 0.000183069 -2.27315e-05
0.000183069 -3.85096e-05 -1.21607e-05
-2.27315e-05 -1.21607e-05 -0.000126011
0.000814634 0.000146417 6.4503e-06
0.000146417 3.10442e-05 5.7886e-06
6.4503e-06 5.7886e-06 -0.000116016
0.000602293 0.000134085 8.69748e-08
0.000134085 -2.77536e-05 3.31682e-07
8.69748e-08 3.31682e-07 -0.0001074
0.00503418 -0.000111805 -0.000156216
-0.000111805 0.00262849 -1.41891e-05
-0.000156216 -1.41891e-05 0.00260634
0.000406485 4.372e-05 8.7378e-06
4.372e-05 -0.000120235 1.05067e-05
8.7378e-06 1.05067e-05 -0.000179556
0.00404365 -0.000161648 -9.99851e-06
-0.000161648 0.00204624 8.09157e-07
-9.99851e-06 8.09157e-07 0.00203056
0.00331769 -0.000159603 7.10412e-05
-0.000159603 0.0016155 1.66064e-06
7.10412e-05 1.66064e-06 0.00160412
0.00178615 0.000111905 2.94213e-07
0.000111905 1.18618e-05 1.6135e-06
2.94213e-07 1.6135e-06 -6.71406e-05
0.00180521 0.000138385 -1.77895e-07
0.000138385 -1.80899e-05 2.16008e-07
-1.77895e-07 2.16008e-07 -8.79759e-05
0.00185956 0.000133333 4.53915e-06
0.000133333 1.44998e-06 -7.81665e-08
4.53915e-06 -7.81665e-08 -6.30183e-05
0.00194598 0.000204647 8.50947e-07
0.000204647 0.0001419 -1.06912e-07
8.50947e-07 -1.06912e-07 3.54568e-05
0.00169885 0.000280841 1.72134e-08
0.000280841 7.15047e-05 -1.39529e-06
1.72134e-08 -1.39529e-06 -7.3603e-05
0.00175396 0.000214803 2.10245e-06
0.000214803 1.39562e-06 -1.2432e-06
2.10245e-06 -1.2432e-06 -9.82037e-05
0.00192858 3.32777e-05 8.2624e-08
3.32777e-05 0.000136434 2.6777e-07
8.2624e-08 2.6777e-07 6.50455e-05
0.00190145 3.34274e-05 9.91856e-07
3.34274e-05 6.93098e-05 -3.00135e-07
9.91856e-07 -3.00135e-07 1.14753e-05
0.00186982 4.22716e-05 5.48406e-06
4.22716e-05 1.79138e-05 2.9819e-07
5.48406e-06 2.9819e-07 -2.76525e-05
0.00172078 -2.14862e-05 -2.01144e-06
-2.14862e-05 1.48534e-05 7.50283e-08
-2.01144e-06 7.50283e-08 -5.30848e-05
0.00170746 -2.9779e-05 7.43351e-07
-2.9779e-05 5.23261e-05 -7.02901e-07
7.43351e-07 -7.02901e-07 -3.65423e-05
0.00180534 -4.83109e-05 6.56833e-07
-4.83109e-05 1.48249e-05 1.07397e-06
6.56833e-07 1.07397e-06 -3.85707e-05
0.00187634 -5.52706e-05 -9.78066e-07
-5.52706e-05 0.000133679 4.36573e-07
-9.78066e-07 4.36573e-07 4.3293e-05
0.00176729 -5.4911e-05 2.02576e-07
-5.4911e-05 0.000129101 -7.0358e-07
2.02576e-07 -7.0358e-07 1.59862e-05
0.00184055 -0.000112447 1.01032e-06
-0.000112447 0.000110163 5.90012e-08
1.01032e-06 5.90012e-08 1.18348e-05
0.00170752 -0.000102234 9.13504e-07
-0.000102234 0.000107979 -4.84959e-07
9.13504e-07 -4.84959e-07 -1.58029e-05
0.00141859 -7.00621e-05 -4.10927e-06
-7.00621e-05 7.18299e-05 3.00154e-07
-4.10927e-06 3.00154e-07 -6.39346e-05
0.00166113 -0.000137312 -1.94979e-07
-0.000137312 0.000114585 2.64103e-07
-1.94979e-07 2.64103e-07 -1.74648e-05
0.00138159 -0.000102036 -2.99876e-08
-0.000102036 7.06863e-05 1.24487e-07
-2.99876e-08 1.24487e-07 -7.04224e-05
0.00104206 -7.53312e-05 -1.20361e-05
-7.53312e-05 -5.30439e-06 2.99397e-06
-1.20361e-05 2.99397e-06 -0.000129813
0.00135831 -0.000126245 4.43824e-06
-0.000126245 7.79866e-05 -1.06907e-06
4.43824e-06 -1.06907e-06 -6.74728e-05
0.00104195 -9.37281e-05 -2.99536e-08
-9.37281e-05 4.8685e-06 1.56512e-07
-2.99536e-08 1.56512e-07 -0.000120879
0.00242282 -0.000127887 -4.17412e-05
-0.000127887 0.000965134 5.79928e-06
-4.17412e-05 5.79928e-06 0.000901271
0.00103456 -0.000108652 1.25437e-05
-0.000108652 8.84971e-06 -4.20642e-06
1.25437e-05 -4.20642e-06 -0.000117222
0.00249827 -0.000122898 3.02818e-05
-0.000122898 0.00100961 -2.65067e-06
3.02818e-05 -2.65067e-06 0.000950681
0.00177855 -5.66219e-05 -0.000161599
-5.66219e-05 0.000674659 1.57074e-05
-0.000161599 1.57074e-05 0.000656248
0.00260148 -0.000136236 0.000101053
-0.000136236 0.00107324 -1.33927e-05
0.000101053 -1.33927e-05 0.0010169
0.00149909 -2.38212e-05 -6.93808e-05
-2.38212e-05 0.000523523 7.01119e-06
-6.93808e-05 7.01119e-06 0.000498317
0.00135461 4.37649e-06 2.53977e-05
4.37649e-06 0.000449074 -4.46716e-06
2.53977e-05 -4.46716e-06 0.000415589
0.00191218 0.000117801 6.28654e-07
0.000117801 0.000148062 2.12559e-06
6.28654e-07 2.12559e-06 4.77931e-05
0.0017052 0.000179514 -9.91622e-07
0.000179514 0.00012824 3.73775e-07
-9.91622e-07 3.73775e-07 -1.24806e-05
0.00180834 0.000199453 -7.77176e-07
0.000199453 0.000107447 -8.14194e-08
-7.77176e-07 -8.14194e-08 -1.83418e-05
0.00167745 0.000179288 -3.83805e-06
0.000179288 0.000261573 -6.98939e-07
-3.83805e-06 -6.98939e-07 0.00011445
0.00172834 0.000212486 8.37354e-07
0.000212486 0.00018034 1.63262e-07
8.37354e-07 1.63262e-07 3.10387e-05
0.00173436 0.000240301 6.13624e-07
0.000240301 8.28297e-05 -2.16742e-07
6.13624e-07 -2.16742e-07 -5.8508e-05
0.00102963 0.000143198 -1.28367e-05
0.000143198 1.45001e-05 -4.53737e-06
-1.28367e-05 -4.53737e-06 -0.00011685
0.00146075 0.000192809 3.28223e-06
0.000192809 0.000170137 7.99636e-07
3.28223e-06 7.99636e-07 1.48872e-05
0.00149077 0.000226238 1.30774e-06
0.000226238 7.66896e-05 -1.92314e-06
1.30774e-06 -1.92314e-06 -8.07905e-05
0.000565094 0.000166557 -2.20573e-05
0.000166557 -8.72463e-05 -1.08295e-05
-2.20573e-05 -1.08295e-05 -0.000171547
0.00097601 0.000156265 -5.11274e-07
0.000156265 5.06369e-06 -2.62749e-08
-5.11274e-07 -2.62749e-08 -0.000132932
0.00117082 0.000195901 7.58869e-06
0.000195901 2.74607e-05 1.72975e-06
7.58869e-06 1.72975e-06 -0.000137007
0.000971042 0.000163478 1.03784e-05
0.000163478 4.5688e-05 5.10044e-06
1.03784e-05 5.10044e-06 -0.000100695
0.000583074 0.00017035 1.70141e-06
0.00017035 -6.10434e-05 5.00558e-07
1.70141e-06 5.00558e-07 -0.000147884
0.00546409 -7.62095e-05 -0.000162118
-7.62095e-05 0.00287783 -1.81302e-05
-0.000162118 -1.81302e-05 0.00285165
0.000454546 0.000123153 1.53821e-05
0.000123153 -0.000112251 1.22744e-05
1.53821e-05 1.22744e-05 -0.000187725
0.00476264 -0.000143833 -8.31579e-06
-0.000143833 0.00246578 4.65126e-07
-8.31579e-06 4.65126e-07 0.00244716
0.00381746 -0.000182298 8.84175e-05
-0.000182298 0.00191771 2.58085e-06
8.84175e-05 2.58085e-06 0.0018987
0.00175658 8.16542e-05 -1.51666e-07
8.16542e-05 4.09997e-05 5.56242e-07
-1.51666e-07 5.56242e-07 -3.81946e-05
0.00179092 0.000111139 8.23904e-07
0.000111139 2.03654e-05 6.28874e-07
8.23904e-07 6.28874e-07 -5.88259e-05
0.00180176 0.000139968 3.8967e-06
0.000139968 -2.46915e-05 -1.10861e-07
3.8967e-06 -1.10861e-07 -9.45027e-05
0.00190009 0.000200438 2.47657e-07
0.000200438 0.000118641 -1.15697e-06
2.47657e-07 -1.15697e-06 1.41691e-05
0.00174513 -7.10889e-06 1.82218e-06
-7.10889e-06 7.20219e-05 7.5009e-08
1.82218e-06 7.5009e-08 -1.94867e-05
0.00193204 2.73631e-05 -1.71584e-07
2.73631e-05 0.000134598 -2.70503e-07
-1.71584e-07 -2.70503e-07 6.42094e-05
0.00183659 3.30811e-05 2.34124e-06
3.30811e-05 3.32224e-05 1.40911e-07
2.34124e-06 1.40911e-07 -2.43079e-05
0.00185839 -2.58646e-05 -3.88274e-06
-2.58646e-05 9.53709e-05 -8.53794e-07
-3.88274e-06 -8.53794e-07 2.8284e-05
0.00166631 -2.1967e-05 -1.68738e-06
-2.1967e-05 2.81896e-05 -1.46811e-07
-1.68738e-06 -1.46811e-07 -5.92868e-05
0.00177839 -2.24837e-05 2.154e-06
-2.24837e-05 0.000152568 -5.35332e-07
2.154e-06 -5.35332e-07 4.27803e-05
0.00173036 -5.47386e-05 -2.22341e-06
-5.47386e-05 4.93172e-05 1.59208e-06
-2.22341e-06 1.59208e-06 -4.49763e-05
0.00171894 -5.59869e-05 7.86579e-08
-5.59869e-05 0.000104613 3.08575e-07
7.86579e-08 3.08575e-07 -1.16874e-05
0.00146101 -3.75818e-05 -3.7751e-06
-3.75818e-05 7.78817e-05 1.6776e-07
-3.7751e-06 1.6776e-07 -5.05616e-05
0.00170394 -0.000101989 9.26256e-07
-0.000101989 0.000108872 -1.69632e-08
9.26256e-07 -1.69632e-08 -1.48227e-05
0.00140887 -6.82838e-05 8.83931e-08
-6.82838e-05 6.25444e-05 -9.74649e-08
8.83931e-08 -9.74649e-08 -7.29393e-05
0.00103885 -5.03016e-05 -1.20392e-05
-5.03016e-05 -1.61166e-05 2.19084e-06
-1.20392e-05 2.19084e-06 -0.00013834
0.00137783 -9.95433e-05 3.97226e-06
-9.95433e-05 6.43943e-05 -6.61355e-07
3.97226e-06 -6.61355e-07 -7.63358e-05
0.00104185 -7.4182e-05 1.68107e-08
-7.4182e-05 -5.61881e-06 2.27597e-07
1.68107e-08 2.27597e-07 -0.000129852
0.0006252 -7.03459e-05 -1.85704e-05
-7.03459e-05 -9.80952e-05 4.45439e-06
-1.85704e-05 4.45439e-06 -0.000168753
0.00104802 -9.12764e-05 1.2146e-05
-9.12764e-05 7.38511e-06 -3.4134e-06
1.2146e-05 -3.4134e-06 -0.000117703
0.00157041 -8.05112e-05 4.10563e-05
-8.05112e-05 0.000459603 -2.58073e-06
4.10563e-05 -2.58073e-06 0.000396959
0.00533705 -0.000110423 -0.000201237
-0.000110423 0.00274989 1.19654e-05
-0.000201237 1.19654e-05 0.00275241
0.00258441 -0.000111574 0.000100644
-0.000111574 0.00105265 -1.08997e-05
0.000100644 -1.08997e-05 0.000999114
0.00151462 -3.88078e-05 -6.25639e-05
-3.88078e-05 0.00052754 5.10956e-06
-6.25639e-05 5.10956e-06 0.000502861
0.00127215 -4.24707e-05 3.61805e-05
-4.24707e-05 0.000399298 -4.96134e-06
3.61805e-05 -4.96134e-06 0.00036696
0.00190785 8.506e-05 1.16144e-06
8.506e-05 0.000161534 1.42809e-06
1.16144e-06 1.42809e-06 7.02675e-05
0.00179949 0.000121995 5.11075e-07
0.000121995 0.000164335 1.61333e-06
5.11075e-07 1.61333e-06 4.02541e-05
0.00193909 0.000115148 3.93171e-07
0.000115148 0.000170023 2.81905e-09
3.93171e-07 2.81905e-09 6.88797e-05
0.00138261 0.00013982 -4.60203e-06
0.00013982 5.43086e-05 -6.25436e-07
-4.60203e-06 -6.25436e-07 -8.8491e-05
0.00173877 0.000178021 1.9893e-07
0.000178021 0.000147016 2.06533e-09
1.9893e-07 2.06533e-09 7.37627e-06
0.00182577 0.000200461 -8.10265e-07
0.000200461 0.000110642 -8.42611e-07
-8.10265e-07 -8.42611e-07 -1.23309e-05
0.000671382 0.000106068 -1.45997e-05
0.000106068 -0.000209737 -4.45625e-06
-1.45997e-05 -4.45625e-06 -0.000338055
0.00169605 0.000181137 2.03416e-06
0.000181137 0.000272534 5.79092e-07
2.03416e-06 5.79092e-07 0.000125321
0.00168255 0.000208408 1.24427e-06
0.000208408 0.000157839 -1.3364e-07
1.24427e-06 -1.3364e-07 7.66356e-06
0.000545859 0.00012502 -1.90849e-05
0.00012502 -0.000111604 -8.75901e-06
-1.90849e-05 -8.75901e-06 -0.00019002
0.000818663 0.000133264 4.87154e-07
0.000133264 -0.000107765 2.03339e-07
4.87154e-07 2.03339e-07 -0.000239877
0.00120604 0.000183606 9.24742e-06
0.000183606 2.01749e-05 1.90518e-06
9.24742e-06 1.90518e-06 -0.000135901
0.0055244 9.48787e-06 -0.000174736
9.48787e-06 0.00288404 -1.6897e-05
-0.000174736 -1.6897e-05 0.00287274
0.000547196 0.000153343 1.43652e-06
0.000153343 -9.59925e-05 5.23356e-07
1.43652e-06 5.23356e-07 -0.000181414
0.000999495 0.000158165 1.22132e-05
0.000158165 1.8708e-05 4.64191e-06
1.22132e-05 4.64191e-06 -0.00011944
0.000494253 0.000157402 1.96852e-05
0.000157402 -0.000108347 1.23979e-05
1.96852e-05 1.23979e-05 -0.000195687
0.0052861 -8.22287e-05 6.677e-06
-8.22287e-05 0.00276306 -1.21108e-06
6.677e-06 -1.21108e-06 0.00274527
0.00447739 -0.000207238 0.000105943
-0.000207238 0.00231719 6.21609e-06
0.000105943 6.21609e-06 0.0022872
0.001804 5.29965e-05 -8.79853e-07
5.29965e-05 9.87618e-05 -5.98894e-07
-8.79853e-07 -5.98894e-07 6.8972e-06
0.00179932 8.1139e-05 -7.40258e-08
8.1139e-05 6.26515e-05 5.31326e-07
-7.40258e-08 5.31326e-07 -1.66847e-05
0.00180067 0.000110559 1.25184e-06
0.000110559 3.21297e-05 -3.20745e-07
1.25184e-06 -3.20745e-07 -4.73506e-05
0.00166297 1.59108e-06 2.14704e-06
1.59108e-06 7.71808e-05 -4.37936e-07
2.14704e-06 -4.37936e-07 -3.42565e-05
0.00171375 -5.2415e-06 3.5843e-07
-5.2415e-06 5.86411e-05 1.51517e-07
3.5843e-07 1.51517e-07 -3.15048e-05
0.00193584 2.02167e-05 -1.1977e-06
2.02167e-05 0.000133106 1.01186e-07
-1.1977e-06 1.01186e-07 6.35219e-05
0.00161403 -1.53637e-05 -2.8523e-06
-1.53637e-05 -2.5963e-06 8.67268e-07
-2.8523e-06 8.67268e-07 -8.86848e-05
0.00175711 -1.75183e-05 1.09336e-06
-1.75183e-05 0.000139239 -2.9517e-07
1.09336e-06 -2.9517e-07 2.95816e-05
0.00172761 -1.40376e-05 -1.50944e-06
-1.40376e-05 0.000229793 -2.08386e-07
-1.50944e-06 -2.08386e-07 0.000106881
0.00167119 -5.71609e-05 -4.69789e-07
-5.71609e-05 8.09944e-05 8.87628e-07
-4.69789e-07 8.87628e-07 -3.84997e-05
0.00157072 -3.77689e-05 3.67236e-09
-3.77689e-05 0.000141352 7.2985e-08
3.67236e-09 7.2985e-08 1.26029e-05
0.000764467 -2.31576e-05 -1.37322e-05
-2.31576e-05 -0.000180563 1.63886e-06
-1.37322e-05 1.63886e-06 -0.000302745
0.00140303 -6.87127e-05 3.98844e-06
-6.87127e-05 5.55236e-05 -5.10543e-07
3.98844e-06 -5.10543e-07 -7.98918e-05
0.00103325 -4.71021e-05 -1.26907e-08
-4.71021e-05 -1.98345e-05 1.13821e-07
-1.26907e-08 1.13821e-07 -0.000141669
0.000630645 -2.0345e-05 -1.78853e-05
-2.0345e-05 -0.000100451 2.8958e-06
-1.78853e-05 2.8958e-06 -0.000170701
0.00104222 -7.20186e-05 1.20422e-05
-7.20186e-05 -5.69587e-06 -2.53276e-06
1.20422e-05 -2.53276e-06 -0.000129533
0.000634738 -5.50668e-05 -1.71038e-07
-5.50668e-05 -9.13792e-05 3.38339e-07
-1.71038e-07 3.38339e-07 -0.000163085
0.00538355 -4.96971e-06 -0.000192689
-4.96971e-06 0.00277294 7.41387e-06
-0.000192689 7.41387e-06 0.00277742
0.000668341 -6.24155e-05 1.62145e-05
-6.24155e-05 -6.87591e-05 -6.30838e-06
1.62145e-05 -6.30838e-06 -0.000141328
0.00338971 -7.28941e-05 9.24267e-05
-7.28941e-05 0.00161891 -2.85817e-06
9.24267e-05 -2.85817e-06 0.00160238
0.00121386 -6.54296e-05 4.17745e-05
-6.54296e-05 0.000367321 -5.49129e-06
4.17745e-05 -5.49129e-06 0.000331991
0.00181169 7.93514e-05 4.37334e-08
7.93514e-05 0.000127146 1.41382e-07
4.37334e-08 1.41382e-07 2.99746e-05
0.00165494 7.1624e-05 1.89083e-06
7.1624e-05 8.05443e-05 1.88999e-06
1.89083e-06 1.88999e-06 -3.58535e-05
0.0019046 8.23312e-05 -2.4104e-07
8.23312e-05 0.000160103 -3.13147e-07
-2.4104e-07 -3.13147e-07 6.93348e-05
0.00142602 9.98283e-05 -3.49174e-06
9.98283e-05 6.56749e-05 -1.54025e-07
-3.49174e-06 -1.54025e-07 -7.08016e-05
0.00175281 0.000120393 5.11129e-07
0.000120393 0.000134339 1.68143e-07
5.11129e-07 1.68143e-07 8.92904e-06
0.00197287 0.000112398 -1.13238e-06
0.000112398 0.000196122 -1.94798e-06
-1.13238e-06 -1.94798e-06 9.41214e-05
0.000695782 8.53857e-05 -1.41409e-05
8.53857e-05 -0.000210516 -3.3879e-06
-1.41409e-05 -3.3879e-06 -0.000336136
0.00155929 0.000144603 -6.43457e-07
0.000144603 0.000158997 3.37736e-08
-6.43457e-07 3.37736e-08 1.66301e-05
0.00177043 0.000176363 1.00365e-06
0.000176363 0.000164941 -5.47044e-07
1.00365e-06 -5.47044e-07 2.64041e-05
0.00056246 8.93258e-05 -1.75915e-05
8.93258e-05 -0.000118813 -6.69235e-06
-1.75915e-05 -6.69235e-06 -0.000192134
0.000648961 0.000105705 -2.81904e-06
0.000105705 -0.000222288 -5.72353e-07
-2.81904e-06 -5.72353e-07 -0.000351087
0.00171596 0.000183198 8.05023e-06
0.000183198 0.000284286 1.90346e-06
8.05023e-06 1.90346e-06 0.000136947
0.00546798 9.19464e-05 -0.000192432
9.19464e-05 0.00283163 -1.56503e-05
-0.000192432 -1.56503e-05 0.0028307
0.000543767 0.00011826 5.59761e-07
0.00011826 -0.000112777 3.34783e-07
5.59761e-07 3.34783e-07 -0.000191719
0.000610691 0.000123722 1.26014e-05
0.000123722 -0.000228388 4.43812e-06
1.26014e-05 4.43812e-06 -0.000361314
0.00543893 2.29982e-05 1.23072e-05
2.29982e-05 0.00283331 3.98543e-07
1.23072e-05 3.98543e-07 0.00282399
0.000512776 0.000139895 1.88374e-05
0.000139895 -0.000114125 1.07598e-05
1.88374e-05 1.07598e-05 -0.000200578
0.00511059 -0.00011879 0.000147632
-0.00011879 0.00265503 8.54169e-06
0.000147632 8.54169e-06 0.00264122
0.00177672 3.73913e-05 4.12046e-07
3.73913e-05 0.00013398 -4.85211e-07
4.12046e-07 -4.85211e-07 2.49556e-05
0.00175924 5.0843e-05 -1.0061e-06
5.0843e-05 7.86782e-05 2.44747e-07
-1.0061e-06 2.44747e-07 -1.427e-05
0.0018379 8.0233e-05 6.79101e-08
8.0233e-05 8.17882e-05 5.47269e-10
6.79101e-08 5.47269e-10 2.3419e-06
0.00170404 -3.75707e-06 -9.05702e-07
-3.75707e-06 0.00022273 -3.48278e-07
-9.05702e-07 -3.48278e-07 0.000102233
0.00169097 -2.02921e-07 3.8419e-07
-2.02921e-07 9.26565e-05 6.60294e-08
3.8419e-07 6.60294e-08 -1.71909e-05
0.001692 -1.79364e-06 5.66167e-07
-1.79364e-06 5.04842e-05 -1.31025e-09
5.66167e-07 -1.31025e-09 -3.82778e-05
0.0017345 -1.28597e-05 -1.61998e-07
-1.28597e-05 0.000125135 5.34324e-07
-1.61998e-07 5.34324e-07 1.55849e-05
0.00173239 -1.35474e-05 2.40978e-06
-1.35474e-05 0.000232228 -2.28648e-07
2.40978e-06 -2.28648e-07 0.000109306
0.000781789 -8.45607e-06 -1.31154e-05
-8.45607e-06 -0.000172516 7.11705e-07
-1.31154e-05 7.11705e-07 -0.000292702
0.0016804 -3.80485e-05 4.46355e-06
-3.80485e-05 0.000204726 -2.19993e-07
4.46355e-06 -2.19993e-07 7.56694e-05
0.000898612 -2.22225e-05 -2.4453e-06
-2.22225e-05 -0.000103118 2.7461e-07
-2.4453e-06 2.7461e-07 -0.000224249
0.00063636 -5.74757e-06 -1.81444e-05
-5.74757e-06 -0.000102678 1.94531e-06
-1.81444e-05 1.94531e-06 -0.000172099
0.00103728 -4.52411e-05 1.17042e-05
-4.52411e-05 -1.80771e-05 -1.94322e-06
1.17042e-05 -1.94322e-06 -0.000139615
0.000620251 -2.71116e-05 6.41546e-07
-2.71116e-05 -0.00010787 -1.91148e-08
6.41546e-07 -1.91148e-08 -0.000177176
0.00538488 -0.000100943 -0.000203493
-0.000100943 0.00277942 7.2724e-06
-0.000203493 7.2724e-06 0.00278133
0.000621935 -3.95243e-05 1.71343e-05
-3.95243e-05 -9.95311e-05 -3.45582e-06
1.71343e-05 -3.45582e-06 -0.000170824
0.00537719 -4.01761e-05 8.01389e-06
-4.01761e-05 0.00277001 2.8636e-08
8.01389e-06 2.8636e-08 0.00277451
0.00154055 -1.4767e-05 0.000168364
-1.4767e-05 0.0005351 -8.58015e-06
0.000168364 -8.58015e-06 0.000520569
0.00165831 5.60581e-05 1.66744e-06
5.60581e-05 8.33503e-05 3.50325e-07
1.66744e-06 3.50325e-07 -3.05524e-05
0.00178953 8.3645e-05 -2.55161e-06
8.3645e-05 0.000107109 -3.55322e-07
-2.55161e-06 -3.55322e-07 1.18313e-05
0.00144301 5.95823e-05 -2.85186e-06
5.95823e-05 7.64296e-05 1.69048e-07
-2.85186e-06 1.69048e-07 -5.32015e-05
0.00165822 7.0481e-05 5.28663e-07
7.0481e-05 8.34309e-05 3.14945e-08
5.28663e-07 3.14945e-08 -3.29856e-05
0.00189711 7.97105e-05 -1.61157e-06
7.97105e-05 0.000155934 -2.41665e-06
-1.61157e-06 -2.41665e-06 6.56646e-05
0.00106064 6.95643e-05 -1.20711e-05
6.95643e-05 -7.98275e-06 -2.1417e-06
-1.20711e-05 -2.1417e-06 -0.000128019
0.00141041 9.92767e-05 6.27739e-08
9.92767e-05 5.7731e-05 1.30399e-07
6.27739e-08 1.30399e-07 -7.89111e-05
0.00170448 0.000118775 -1.21998e-07
0.000118775 0.000103372 -1.00157e-06
-1.21998e-07 -1.00157e-06 -2.33714e-05
0.000588374 6.29428e-05 -1.71283e-05
6.29428e-05 -0.000118546 -4.82935e-06
-1.71283e-05 -4.82935e-06 -0.00018944
0.000845366 9.18927e-05 -3.22186e-06
9.18927e-05 -0.000123501 -3.94578e-07
-3.22186e-06 -3.94578e-07 -0.000248751
0.00173747 0.000149386 5.07152e-06
0.000149386 0.000264715 1.1402e-06
5.07152e-06 1.1402e-06 0.000122767
0.00545304 0.000145031 -0.000211821
0.000145031 0.00281912 -1.51559e-05
-0.000211821 -1.51559e-05 0.00281924
0.000571431 8.73475e-05 8.08628e-08
8.73475e-05 -0.000114003 1.05826e-07
8.08628e-08 1.05826e-07 -0.000187428
0.000624249 0.000105353 8.81629e-06
0.000105353 -0.000236353 3.16954e-06
8.81629e-06 3.16954e-06 -0.000365597
0.00540849 0.000110951 1.03631e-05
0.000110951 0.00280443 2.07382e-06
1.03631e-05 2.07382e-06 0.00280034
0.00054642 0.000110092 1.75673e-05
0.000110092 -0.000111795 8.62941e-06
1.75673e-05 8.62941e-06 -0.000190826
0.00537902 1.89086e-05 0.000182492
1.89086e-05 0.00278678 1.27335e-05
0.000182492 1.27335e-05 0.0027856
0.00171226 2.60258e-05 -8.55378e-07
2.60258e-05 0.000230842 -2.12202e-07
-8.55378e-07 -2.12202e-07 0.000111335
0.00174193 3.29299e-05 -8.24442e-07
3.29299e-05 0.000116817 1.24351e-07
-8.24442e-07 1.24351e-07 6.77109e-06
0.00171887 4.84918e-05 -1.46868e-06
4.84918e-05 6.17732e-05 3.38907e-07
-1.46868e-06 3.38907e-07 -3.22194e-05
0.000764036 -9.03449e-06 -1.36108e-05
-9.03449e-06 -0.000177871 -3.56531e-07
-1.36108e-05 -3.56531e-07 -0.000295792
0.00172529 2.46671e-06 2.69556e-06
2.46671e-06 0.000234908 -1.11762e-07
2.69556e-06 -1.11762e-07 0.00011444
0.00171188 -2.09234e-06 -3.9142e-07
-2.09234e-06 0.000104237 3.84837e-07
-3.9142e-07 3.84837e-07 -4.01509e-06
0.0017411 -1.34273e-05 6.16767e-06
-1.34273e-05 0.000236965 -6.57825e-08
6.16767e-06 -6.57825e-08 0.000114031
0.000768102 -8.24987e-06 -1.88818e-06
-8.24987e-06 -0.000181136 1.61807e-07
-1.88818e-06 1.61807e-07 -0.000301541
0.000643196 -2.38439e-05 -1.83483e-05
-2.38439e-05 -0.000100868 7.69934e-07
-1.83483e-05 7.69934e-07 -0.000169243
0.00102223 -2.05388e-05 9.59038e-06
-2.05388e-05 -3.16832e-05 -1.29224e-06
9.59038e-06 -1.29224e-06 -0.000151758
0.00062073 4.15418e-06 2.1604e-07
4.15418e-06 -0.000111882 5.74506e-08
2.1604e-07 5.74506e-08 -0.000180973
0.00543946 -7.93858e-05 -0.000211431
-7.93858e-05 0.00280852 4.97043e-06
-0.000211431 4.97043e-06 0.00281226
0.000624854 -2.62171e-05 1.78308e-05
-2.62171e-05 -0.000104345 -2.31598e-06
1.78308e-05 -2.31598e-06 -0.000174356
0.00542094 5.7171e-06 -2.99718e-06
5.7171e-06 0.0027927 1.18719e-06
-2.99718e-06 1.18719e-06 0.00279904
0.00539933 -6.09015e-05 0.000203956
-6.09015e-05 0.00278063 -6.61371e-06
0.000203956 -6.61371e-06 0.00278659
0.0014358 3.84388e-05 -2.855e-06
3.84388e-05 7.64767e-05 -1.08962e-07
-2.855e-06 -1.08962e-07 -4.97035e-05
0.00168665 5.89616e-05 -6.98117e-07
5.89616e-05 9.86443e-05 -9.03477e-07
-6.98117e-07 -9.03477e-07 -1.23337e-05
0.00176373 8.81477e-05 -4.00662e-06
8.81477e-05 8.50575e-05 -3.7267e-07
-4.00662e-06 -3.7267e-07 -8.34087e-06
0.00105495 3.85094e-05 -1.1881e-05
3.85094e-05 -1.2398e-05 -1.46258e-06
-1.1881e-05 -1.46258e-06 -0.000128721
0.00140816 5.96338e-05 1.99236e-07
5.96338e-05 5.51224e-05 6.72064e-08
1.99236e-07 6.72064e-08 -7.48992e-05
0.00166004 6.92579e-05 -1.02103e-06
6.92579e-05 8.5791e-05 -1.74269e-06
-1.02103e-06 -1.74269e-06 -3.06449e-05
0.000611211 3.79213e-05 -1.67032e-05
3.79213e-05 -0.000112883 -3.5327e-06
-1.67032e-05 -3.5327e-06 -0.000182429
0.00104082 7.10407e-05 1.52301e-07
7.10407e-05 -1.87657e-05 2.2772e-07
1.52301e-07 2.2772e-07 -0.000139245
0.00139505 9.88258e-05 3.98862e-06
9.88258e-05 4.98376e-05 4.99147e-07
3.98862e-06 4.99147e-07 -8.69878e-05
0.00543688 0.000149457 -0.000224528
0.000149457 0.0028109 -1.33374e-05
-0.000224528 -1.33374e-05 0.00281066
0.000605813 6.44074e-05 2.87227e-07
6.44074e-05 -0.000108258 1.87323e-07
2.87227e-07 1.87323e-07 -0.000179399
0.000995396 9.84349e-05 8.94358e-06
9.84349e-05 -3.64237e-05 2.76007e-06
8.94358e-06 2.76007e-06 -0.000161252
0.00541205 0.000158371 5.69131e-06
0.000158371 0.0028024 2.20736e-06
5.69131e-06 2.20736e-06 0.0027997
0.000582738 8.60405e-05 1.68924e-05
8.60405e-05 -0.000107503 6.81577e-06
1.68924e-05 6.81577e-06 -0.000180996
0.00537978 0.000131571 0.000199661
0.000131571 0.00278566 1.66059e-05
0.000199661 1.66059e-05 0.00278357
0.00106487 1.18354e-05 -1.25201e-05
1.18354e-05 -2.38971e-06 -8.2521e-07
-1.25201e-05 -8.2521e-07 -0.000116537
0.00156167 2.10817e-05 3.03018e-06
2.10817e-05 0.000144379 1.04686e-07
3.03018e-06 1.04686e-07 2.37391e-05
0.00170466 2.75634e-05 -1.81975e-06
2.75634e-05 9.7757e-05 2.41102e-07
-1.81975e-06 2.41102e-07 -1.33174e-05
0.000666345 2.74696e-05 -1.88544e-05
2.74696e-05 -9.30732e-05 -4.97311e-07
-1.88544e-05 -4.97311e-07 -0.000154872
0.00075319 -3.65064e-06 -2.15548e-06
-3.65064e-06 -0.000185536 1.26543e-08
-2.15548e-06 1.26543e-08 -0.000303683
0.00174729 8.73646e-06 6.36446e-06
8.73646e-06 0.000247513 2.07284e-07
6.36446e-06 2.07284e-07 0.000127059
0.000749091 -7.63052e-06 9.34173e-06
-7.63052e-06 -0.000192866 -3.78553e-07
9.34173e-06 -3.78553e-07 -0.000313479
0.000631335 -3.11875e-06 2.20987e-07
-3.11875e-06 -0.000107763 3.43329e-07
2.20987e-07 3.43329e-07 -0.00017598
0.0054536 4.74679e-05 -0.000218502
4.74679e-05 0.0028129 -8.02606e-07
-0.000218502 -8.02606e-07 0.00281935
0.000602169 1.38927e-05 1.74621e-05
1.38927e-05 -0.000123036 -1.22779e-06
1.74621e-05 -1.22779e-06 -0.000191617
0.00543883 -7.89196e-05 -7.88243e-06
-7.89196e-05 0.00280836 1.3874e-06
-7.88243e-06 1.3874e-06 0.00281179
0.00540484 2.68777e-05 0.000196161
2.68777e-05 0.00278385 -2.87862e-06
0.000196161 -2.87862e-06 0.00278964
0.00105093 2.04585e-05 -1.23376e-05
2.04585e-05 -1.2499e-05 -1.23098e-06
-1.23376e-05 -1.23098e-06 -0.000126765
0.00139302 3.78184e-05 -2.89417e-08
3.78184e-05 5.02106e-05 -1.12749e-07
-2.89417e-08 -1.12749e-07 -7.46645e-05
0.00172028 6.17046e-05 -2.89286e-06
6.17046e-05 0.000116897 -1.50552e-06
-2.89286e-06 -1.50552e-06 8.84653e-06
0.00259393 4.17513e-05 -0.000106998
4.17513e-05 0.00103782 -3.15381e-06
-0.000106998 -3.15381e-06 0.00099041
0.00105102 4.06771e-05 1.9796e-07
4.06771e-05 -1.48871e-05 2.11122e-07
1.9796e-07 2.11122e-07 -0.000131427
0.00137451 5.96179e-05 3.57888e-06
5.96179e-05 3.43846e-05 5.64483e-08
3.57888e-06 5.64483e-08 -9.60259e-05
0.00540303 0.000127172 -0.000227719
0.000127172 0.00279167 -1.02128e-05
-0.000227719 -1.02128e-05 0.0027926
0.00064324 5.18628e-05 7.00825e-07
5.18628e-05 -9.27712e-05 2.93901e-07
7.00825e-07 2.93901e-07 -0.000163523
0.00103226 7.278e-05 1.19944e-05
7.278e-05 -2.33094e-05 2.56889e-06
1.19944e-05 2.56889e-06 -0.000144197
0.0054513 0.000161875 1.37329e-06
0.000161875 0.00282248 1.64192e-06
1.37329e-06 1.64192e-06 0.00282089
0.000632795 6.76235e-05 1.72618e-05
6.76235e-05 -9.16697e-05 5.5391e-06
1.72618e-05 5.5391e-06 -0.000163458
0.00537776 0.000181039 0.000210237
0.000181039 0.00278859 1.80262e-05
0.000210237 1.80262e-05 0.00278305
0.000702816 8.34183e-06 -1.63417e-05
8.34183e-06 -6.09226e-05 -1.79354e-06
-1.63417e-05 -1.79354e-06 -0.000129027
0.000900398 9.56561e-06 6.31197e-07
9.56561e-06 -9.72474e-05 1.92353e-07
6.31197e-07 1.92353e-07 -0.0002127
0.00140529 1.59106e-05 6.10139e-06
1.59106e-05 5.46186e-05 2.6052e-07
6.10139e-06 2.6052e-07 -6.71321e-05
0.00534513 -9.25688e-05 -0.000202984
-9.25688e-05 0.00276596 4.05578e-08
-0.000202984 4.05578e-08 0.00276307
0.000628141 7.67938e-06 -3.78706e-07
7.67938e-06 -0.000110052 1.94415e-07
-3.78706e-07 1.94415e-07 -0.000174547
0.000748227 1.418e-06 9.25452e-06
1.418e-06 -0.000189827 2.1979e-07
9.25452e-06 2.1979e-07 -0.000308188
0.000598814 2.00122e-05 1.77626e-05
2.00122e-05 -0.000126535 1.87649e-07
1.77626e-05 1.87649e-07 -0.000194401
0.0054192 1.20025e-05 2.6899e-06
1.20025e-05 0.00279672 -5.02499e-07
2.6899e-06 -5.02499e-07 0.00280033
0.00546013 1.10187e-05 0.000207409
1.10187e-05 0.00281233 -1.07327e-06
0.000207409 -1.07327e-06 0.0028198
0.00263777 3.7168e-06 -0.000104193
3.7168e-06 0.00106085 -2.05726e-06
-0.000104193 -2.05726e-06 0.00101455
0.00106471 2.31477e-05 3.89337e-08
2.31477e-05 -5.04407e-06 3.02606e-08
3.89337e-08 3.02606e-08 -0.00011941
0.0013522 3.7441e-05 3.34597e-06
3.7441e-05 2.5016e-05 -1.51589e-07
3.34597e-06 -1.51589e-07 -9.85392e-05
0.00504959 -6.40662e-05 -5.90406e-05
-6.40662e-05 0.00259726 1.97082e-07
-5.90406e-05 1.97082e-07 0.00258254
0.000654552 4.31261e-05 -4.00928e-08
4.31261e-05 -8.80631e-05 2.51016e-07
-4.00928e-08 2.51016e-07 -0.000157166
0.00105745 4.32291e-05 1.18954e-05
4.32291e-05 -1.16855e-05 1.92249e-06
1.18954e-05 1.92249e-06 -0.000128404
0.00544446 9.39494e-05 -1.11543e-05
9.39494e-05 0.00281106 -8.12616e-07
-1.11543e-05 -8.12616e-07 0.00281415
0.000672805 7.17827e-05 1.87915e-05
7.17827e-05 -7.47965e-05 4.5895e-06
1.87915e-05 4.5895e-06 -0.000146228
0.00544166 0.000185407 0.000221056
0.000185407 0.0028241 1.72175e-05
0.000221056 1.72175e-05 0.00281906
0.0016625 -4.44747e-05 -0.000176948
-4.44747e-05 0.000600195 5.17219e-07
-0.000176948 5.17219e-07 0.000588159
0.0016442 2.2452e-05 -4.29761e-05
2.2452e-05 0.00048099 1.9359e-07
-4.29761e-05 1.9359e-07 0.00042751
0.000743047 9.65649e-06 1.21766e-05
9.65649e-06 -0.000188047 9.43e-07
1.21766e-05 9.43e-07 -0.000304827
0.00537002 -3.82487e-05 8.16329e-06
-3.82487e-05 0.00277576 7.05621e-07
8.16329e-06 7.05621e-07 0.00277667
0.000632189 -1.10005e-05 1.82083e-05
-1.10005e-05 -0.000103632 9.64952e-07
1.82083e-05 9.64952e-07 -0.00017041
0.00544112 -5.79104e-05 0.0002222
-5.79104e-05 0.00280984 -1.27578e-06
0.0002222 -1.27578e-06 0.00281418
0.00127399 -3.31429e-06 -2.86668e-05
-3.31429e-06 0.000396265 -6.57825e-07
-2.86668e-05 -6.57825e-07 0.000362402
0.00163837 1.1161e-05 -4.34008e-05
1.1161e-05 0.000481249 -4.38463e-07
-4.34008e-05 -4.38463e-07 0.000424965
0.00106166 2.43298e-05 1.20899e-05
2.43298e-05 -6.82315e-06 1.32313e-06
1.20899e-05 1.32313e-06 -0.000121331
0.00334619 4.14972e-05 8.15515e-05
4.14972e-05 0.00159127 1.76081e-06
8.15515e-05 1.76081e-06 0.00157819
0.000665284 5.17125e-05 1.88314e-05
5.17125e-05 -8.15571e-05 3.62999e-06
1.88314e-05 3.62999e-06 -0.000150942
0.00547597 8.72004e-05 0.000211824
8.72004e-05 0.00282546 1.07548e-05
0.000211824 1.07548e-05 0.00283079
0.00529359 -2.44875e-05 -8.83657e-06
-2.44875e-05 0.00273447 -1.34894e-06
-8.83657e-06 -1.34894e-06 0.00273469
0.000640603 3.78665e-05 1.93097e-05
3.78665e-05 -0.00010303 1.81596e-06
1.93097e-05 1.81596e-06 -0.000164629
0.005293 5.4122e-05 0.000206986
5.4122e-05 0.00272858 -2.57121e-07
0.000206986 -2.57121e-07 0.00273201
0.00329847 2.69258e-05 9.53376e-05
2.69258e-05 0.00156863 2.49337e-06
9.53376e-05 2.49337e-06 0.00155506
0.000672883 4.96727e-06 1.82789e-05
4.96727e-06 -7.81222e-05 2.4912e-06
1.82789e-05 2.4912e-06 -0.000144841
0.00540796 -3.43487e-05 0.000204387
-3.43487e-05 0.00278891 4.98676e-06
0.000204387 4.98676e-06 0.00279294
0.00531024 -0.00013104 0.000201965
-0.00013104 0.00275051 -2.20719e-06
0.000201965 -2.20719e-06 0.00274568
0.00531674 -1.89331e-05 0.000201632
-1.89331e-05 0.00273376 2.43687e-06
0.000201632 2.43687e-06 0.00274103
