# vtk DataFile Version 2.0
Wound Healing Simulation
ASCII
DATASET UNSTRUCTURED_GRID
POINTS 3012 float
69.9759 18.75 4
67.2507 60.3285 4
69.976 18.75 2
73.0099 25.446 4
71.1327 20.9142 4
68.6801 16.6661 4
67.8203 19.9254 3.9713
67.2507 60.3286 2
71.1327 54.0858 4
68.6801 58.3339 4
65.6939 62.2254 4
65.3072 58.9988 3.97033
74.6784 42.3946 4
73.7221 47.2057 4
69.9759 18.75 0
73.0099 25.446 2
68.6801 16.6661 2
71.1327 20.9142 2
67.8209 19.9297 2
74.6792 32.6053 4
73.7222 27.7943 4
72.1454 23.1494 4
70.6107 26.2218 3.9717
68.881 21.9573 3.97174
67.2507 14.6715 4
66.6313 17.9725 3.9702
65.722 21.0518 3.96119
67.2507 60.3285 0
71.1327 54.0858 2
68.6801 58.3339 2
65.694 62.2255 2
65.3085 58.9938 2
72.1454 51.8506 4
69.9759 56.25 4
68.8315 53.1145 3.97162
64.0165 64.0165 4
66.6051 57.1332 3.97126
63.8799 60.761 3.96741
63.4489 57.7471 3.95881
60.3285 67.2507 4
74.6792 42.3947 2
73.7222 47.2057 2
74.9194 39.9526 4
74.2788 44.8158 4
72.1656 42.086 3.97389
73.0099 49.554 4
71.246 46.5984 3.97232
73.0099 25.446 0
71.1327 20.9142 0
68.6801 16.6661 0
67.8203 19.9254 0.0287003
74.6792 32.6053 2
73.7222 27.7943 2
67.2508 14.6715 2
72.1455 23.1494 2
70.61 26.2231 2
66.6326 17.9773 2
68.8811 21.9604 2
65.7218 21.0531 2
74.9197 35.0474 4
74.2794 30.1841 4
72.1823 32.945 3.97398
71.2753 28.4329 3.97227
69.8116 24.0595 3.97183
68.3027 26.9664 3.96417
66.6942 22.9562 3.96241
65.694 12.7746 4
65.3181 16.1058 3.9693
64.6366 19.2244 3.95945
63.681 22.1172 3.96523
71.1327 54.0858 0
65.6939 62.2254 0
68.6801 58.3339 0
65.3072 58.9988 0.0296683
72.1455 51.8506 2
69.9759 56.25 2
68.8316 53.1113 2
64.0165 64.0165 2
66.6063 57.1282 2
63.8808 60.7554 2
63.4394 57.746 2
62.2254 65.694 4
58.8896 65.4095 3.9755
69.7646 50.9901 3.97162
67.7783 55.1683 3.97153
66.5691 52.1862 3.96265
62.331 62.4222 3.96952
64.5867 56.0057 3.9604
62.1857 59.3816 3.95625
61.6516 56.5997 3.96062
58.3339 68.6801 4
60.3285 67.2508 2
73.7221 47.2057 0
74.6784 42.3946 0
74.9197 39.9526 2
74.2794 44.8159 2
72.1645 42.0851 2
73.0099 49.554 2
71.2452 46.5969 2
75 37.5 4
72.4029 39.8029 3.97478
71.7795 44.3531 3.97328
69.7818 41.7868 3.96662
70.5713 48.8142 3.97172
68.8672 46.0045 3.96554
74.6792 32.6053 0
73.7222 27.7943 0
67.2507 14.6715 0
72.1454 23.1494 0
70.6107 26.2218 0.0282983
68.881 21.9573 0.0282592
66.6313 17.9725 0.0297966
65.722 21.0518 0.0388073
74.9197 35.0474 2
74.2794 30.1841 2
72.181 32.9452 2
71.2743 28.4338 2
65.694 12.7745 2
65.319 16.1114 2
69.8112 24.0616 2
68.3062 26.9672 2
64.63 19.2265 2
66.6959 22.9573 2
63.6813 22.1177 2
72.4107 35.2256 3.97477
71.8012 30.6781 3.97345
69.8212 33.2754 3.96598
68.9312 29.0503 3.96451
67.5545 24.9309 3.96356
65.9877 27.6931 3.97373
64.0165 10.9835 4
64.5405 23.9066 3.96787
63.883 14.3321 3.966
63.4513 17.4768 3.95659
62.7065 20.4085 3.96232
61.7482 23.0824 3.97165
60.679 11.1034 3.97232
57.6032 11.4905 3.96295
72.1454 51.8506 0
69.9759 56.25 0
68.8315 53.1145 0.0283785
64.0165 64.0165 0
63.8799 60.761 0.0325874
66.6051 57.1332 0.0287388
63.4489 57.7471 0.0411861
62.2255 65.694 2
58.8929 65.4035 2
69.7643 50.9877 2
67.779 55.164 2
66.5706 52.1853 2
62.3326 62.4141 2
64.5812 56.0045 2
62.1782 59.3816 2
61.6507 56.6005 2
60.6639 63.9721 3.97448
57.0207 66.7322 3.98018
57.5447 63.6468 3.96844
67.4354 50.1573 3.96404
65.6227 54.1486 3.96153
64.294 51.3073 3.96866
60.7639 60.9053 3.96432
62.6221 54.9869 3.96398
60.5155 58.0764 3.95548
60.0577 55.6565 3.96662
56.25 69.9759 4
58.3339 68.6801 2
60.3285 67.2507 0
58.9164 9.66097 3.97512
62.2254 9.30607 4
73.0099 49.554 0
74.2788 44.8158 0
71.246 46.5984 0.0276814
72.1656 42.086 0.026106
74.9194 39.9526 0
75 37.5 2
72.4022 39.8023 2
71.7789 44.3518 2
69.7847 41.7865 2
70.5708 48.8125 2
68.8719 46.0041 2
72.4864 37.5131 3.97461
70.0252 39.6573 3.96672
69.4014 43.9015 3.96634
67.4014 41.4786 3.97691
68.2063 48.0923 3.96492
66.4883 45.395 3.97578
74.9197 35.0474 0
74.2794 30.1841 0
72.1823 32.945 0.0260205
71.2753 28.4329 0.0277314
65.694 12.7746 0
65.3181 16.1058 0.0306965
69.8116 24.0595 0.028166
68.3027 26.9664 0.0358317
66.6942 22.9562 0.0375914
64.6366 19.2244 0.0405469
63.681 22.1172 0.0347691
72.4101 35.2253 2
71.8005 30.6788 2
69.8244 33.2757 2
68.9361 29.0507 2
64.0165 10.9835 2
63.8847 14.3394 2
63.4513 17.4759 2
67.5571 24.9319 2
65.9854 27.6944 2
62.711 20.4078 2
64.5393 23.9076 2
61.7468 23.0837 2
60.6821 11.109 2
57.6028 11.4832 2
70.043 35.3967 3.96635
69.4418 31.1589 3.96513
67.4741 33.6148 3.97629
66.5762 29.6699 3.97507
65.306 25.768 3.97058
63.7582 28.3614 3.97523
62.3351 12.6614 3.96824
62.4929 24.7689 3.97422
62.1768 15.811 3.95581
61.6189 18.78 3.95937
60.8905 21.4889 3.96784
59.9592 23.9212 3.97398
59.2356 12.8245 3.96194
55.8645 10.2826 3.97206
56.3867 13.1977 3.96352
69.7646 50.9901 0.028383
62.2254 65.694 0
58.8896 65.4095 0.0244971
67.7783 55.1683 0.028466
66.5691 52.1862 0.0373531
62.331 62.4222 0.0304791
62.1857 59.3816 0.0437506
64.5867 56.0057 0.0396026
61.6516 56.5997 0.0393751
60.6673 63.9663 2
57.0246 66.7272 2
57.5471 63.6543 2
67.4373 50.1564 2
65.6215 54.1475 2
64.292 51.3066 2
60.7582 60.9071 2
62.6227 54.9877 2
60.5059 58.0757 2
60.0576 55.6573 2
55.0662 67.9294 3.98309
59.2122 62.3206 3.96773
55.7919 64.8699 3.9703
56.3118 62.0167 3.98039
65.0824 49.3382 3.97125
63.478 53.2106 3.9663
62.0278 50.5166 3.9734
59.2542 59.4848 3.95472
60.7533 54.1754 3.9702
59.0092 56.8691 3.96065
58.8836 55.019 3.97092
48.0979 68.5684 3.9797
50.9443 69.9305 3.98669
54.0858 71.1327 4
56.25 69.976 2
58.3339 68.6801 0
57.0536 8.34131 3.97468
60.3285 7.74928 4
58.9196 9.6667 2
62.2255 9.30602 2
70.5713 48.8142 0.0282789
71.7795 44.3531 0.026723
68.8672 46.0045 0.0344609
69.7818 41.7868 0.0333812
72.4029 39.8029 0.0252183
75 37.5 0
72.4852 37.5126 2
70.0283 39.6571 2
69.4038 43.901 2
67.3982 41.4778 2
68.2079 48.0914 2
66.4845 45.3938 2
70.1139 37.5239 3.96664
67.6493 39.5049 3.97668
67.014 43.4383 3.97659
65.1843 41.1788 3.97681
65.8325 47.3599 3.97426
64.2412 44.7728 3.9762
72.4107 35.2256 0.0252282
71.8012 30.6781 0.026546
69.8212 33.2754 0.0340194
68.9312 29.0503 0.0354917
64.0165 10.9835 0
63.883 14.3321 0.0340016
63.4513 17.4768 0.0434057
67.5545 24.9309 0.0364378
65.9877 27.6931 0.0262719
64.5405 23.9066 0.0321291
62.7065 20.4085 0.0376806
61.7482 23.0824 0.028355
60.679 11.1034 0.0276842
57.6032 11.4905 0.0370468
70.0457 35.3968 2
69.4453 31.1593 2
67.4715 33.6154 2
66.5735 29.671 2
62.3381 12.6686 2
62.1746 15.8114 2
61.6278 18.7781 2
65.3041 25.7692 2
63.7563 28.362 2
60.8889 21.4901 2
62.4916 24.7701 2
59.9579 23.9225 2
59.2352 12.8235 2
56.3875 13.1934 2
55.866 10.2852 2
67.6945 35.5608 3.9765
67.0786 31.6576 3.97588
65.3447 33.9652 3.97692
64.2738 30.2775 3.97586
63.1627 26.5364 3.97505
61.7215 28.9207 3.97527
60.7623 14.258 3.96148
60.5476 25.5265 3.97486
60.4722 17.2181 3.9556
59.8945 19.976 3.96293
59.2072 22.462 3.97065
58.4115 24.5632 3.97419
54.0287 9.17649 3.96805
57.875 14.4076 3.95365
54.7727 12.0938 3.96495
55.2667 14.7624 3.9542
67.4354 50.1573 0.0359641
57.0207 66.7322 0.019821
60.6639 63.9721 0.0255193
57.5447 63.6468 0.0315632
65.6227 54.1486 0.0384724
64.294 51.3073 0.0313446
60.7639 60.9053 0.0356835
60.5155 58.0764 0.0445205
62.6221 54.9869 0.0360186
60.0577 55.6565 0.0333801
55.0706 67.9251 2
59.2097 62.326 2
55.7949 64.8658 2
56.3098 62.0183 2
65.0798 49.3372 2
63.4767 53.2105 2
62.0266 50.5165 2
59.2727 59.4937 2
60.7529 54.1759 2
59.0188 56.8724 2
58.8931 55.0216 2
53.0381 68.9971 3.98343
53.9583 65.9965 3.9711
57.8489 60.805 3.95797
54.6609 63.1231 3.96379
55.1779 60.5303 3.97753
62.7694 48.536 3.97445
61.3675 52.4381 3.97193
59.6991 49.8233 3.97335
57.8261 58.1386 3.95729
58.9092 53.771 3.97279
57.707 55.62 3.96352
50.1035 67.8464 3.97632
47.4551 66.5628 3.97504
46.0525 69.1498 3.98204
48.1013 68.569 2
48.7984 70.7214 3.98814
50.9482 69.9277 2
51.8506 72.1454 4
54.0858 71.1327 2
56.25 69.9759 0
55.0985 7.14414 3.98075
58.3339 6.31992 4
57.0574 8.34711 2
60.3286 7.74926 2
58.9164 9.66097 0.0248781
62.2254 9.30607 0
68.2063 48.0923 0.0350844
69.4014 43.9015 0.0336647
66.4883 45.395 0.0242164
67.4014 41.4786 0.0230856
70.0252 39.6573 0.0332783
72.4864 37.5131 0.0253936
70.1173 37.5239 2
67.6464 39.5047 2
67.0115 43.4373 2
65.183 41.1785 2
65.8299 47.3587 2
64.2396 44.7724 2
67.7536 37.5251 3.97656
65.4267 39.356 3.97691
64.7887 42.9716 3.9766
63.2476 40.8847 3.9766
63.5379 46.6127 3.97488
62.2412 44.1172 3.97586
70.043 35.3967 0.0336462
69.4418 31.1589 0.0348687
67.4741 33.6148 0.0237142
66.5762 29.6699 0.0249349
62.3351 12.6614 0.0317609
62.1768 15.811 0.044194
61.6189 18.78 0.0406323
65.306 25.768 0.0294167
63.7582 28.3614 0.0247709
62.4929 24.7689 0.025779
60.8905 21.4889 0.0321615
59.9592 23.9212 0.0260158
59.2356 12.8245 0.0380607
56.3867 13.1977 0.0364774
55.8645 10.2826 0.0279412
67.6919 35.5612 2
67.0766 31.6585 2
65.3428 33.9657 2
64.2724 30.2779 2
60.7602 14.2586 2
60.4682 17.2193 2
59.8908 19.9776 2
63.1613 26.5376 2
61.7211 28.9207 2
59.2086 22.4627 2
60.5467 25.527 2
58.4087 24.5658 2
57.8788 14.4047 2
55.2628 14.7535 2
54.0322 9.16959 2
54.7681 12.0958 2
65.5265 35.6882 3.97694
64.8071 32.2123 3.97626
63.827 34.2954 3.97643
62.0419 30.7481 3.97567
61.1288 27.2373 3.97493
60.2024 29.3109 3.97585
59.2262 15.7515 3.95467
58.7113 26.0329 3.97517
58.85 18.5121 3.95917
58.2986 21.0683 3.96499
57.7383 23.3422 3.97136
57.3464 24.9378 3.97592
52.1063 8.16795 3.96795
53.0391 11.0968 3.96652
56.5909 15.8639 3.95535
53.7849 13.7885 3.96849
54.2728 16.148 3.95622
55.0662 67.9294 0.0169118
65.0824 49.3382 0.0287457
55.7919 64.8699 0.0297004
59.2122 62.3206 0.0322675
56.3118 62.0167 0.0196095
63.478 53.2106 0.0336985
62.0278 50.5166 0.0266008
59.2542 59.4848 0.045278
59.0092 56.8691 0.0393491
60.7533 54.1754 0.0298035
58.8836 55.019 0.0290807
53.0423 68.9944 2
53.9613 65.9951 2
57.8511 60.8089 2
54.6593 63.1239 2
55.1761 60.5295 2
62.7684 48.5358 2
61.367 52.4383 2
59.6998 49.8232 2
57.8345 58.1432 2
58.9144 53.7722 2
57.7047 55.619 2
52.0631 66.9842 3.97341
52.9353 64.1632 3.96945
56.554 59.389 3.95356
53.6315 61.4992 3.96596
54.1887 59.206 3.96467
60.3815 47.7052 3.97413
59.2037 51.915 3.97305
57.3227 49.3671 3.97414
56.5066 56.8238 3.96129
56.5731 53.8873 3.96795
50.1068 67.8431 2
49.3258 65.8883 3.97452
47.4583 66.5546 2
46.8805 64.6861 3.97699
45.5541 67.0806 3.97835
43.9707 69.5826 3.98332
46.0559 69.1496 2
46.6056 71.3661 3.98958
48.0979 68.5684 0.0202985
48.8022 70.7207 2
49.554 73.0099 4
50.9443 69.9305 0.0133118
51.8506 72.1455 2
54.0858 71.1327 0
53.0612 6.07496 3.986
55.1026 7.14618 2
56.25 5.02411 4
58.3339 6.3199 2
57.0536 8.34131 0.0253222
60.3285 7.74928 0
65.8325 47.3599 0.0257372
67.014 43.4383 0.023414
64.2412 44.7728 0.0238047
65.1843 41.1788 0.0231889
67.6493 39.5049 0.0233187
70.1139 37.5239 0.0333622
67.751 37.5253 2
65.4255 39.3559 2
64.787 42.9709 2
63.2478 40.8845 2
63.5368 46.612 2
62.2411 44.1172 2
65.537 37.5057 3.9769
63.3977 39.2484 3.97644
62.7929 42.4832 3.97629
61.8112 40.6453 3.97658
61.3704 45.7809 3.97519
60.7613 43.5701 3.97601
67.6945 35.5608 0.0234972
67.0786 31.6576 0.0241182
65.3447 33.9652 0.0230838
64.2738 30.2775 0.0241442
60.7623 14.258 0.0385221
60.4722 17.2181 0.0443964
59.8945 19.976 0.0370662
63.1627 26.5364 0.0249489
61.7215 28.9207 0.0247296
60.5476 25.5265 0.0251404
59.2072 22.462 0.0293473
58.4115 24.5632 0.0258138
57.875 14.4076 0.0463466
55.2667 14.7624 0.0457952
54.0287 9.17649 0.0319487
54.7727 12.0938 0.0350475
65.5251 35.6883 2
64.8056 32.213 2
63.8274 34.2955 2
62.0417 30.7482 2
59.245 15.7469 2
58.8481 18.513 2
58.2951 21.0705 2
61.128 27.2376 2
60.2032 29.3108 2
57.7354 23.3453 2
58.7087 26.0341 2
57.3449 24.9417 2
56.5674 15.8683 2
54.2767 16.1385 2
53.7734 13.7817 2
52.1082 8.17301 2
53.0426 11.0878 2
63.6096 35.6615 3.97633
62.3741 33.1235 3.97608
59.9074 30.7675 3.9755
58.8754 28.1248 3.97525
57.7582 17.123 3.95603
57.0308 26.0149 3.97538
57.3237 19.6891 3.9597
56.8188 22.1069 3.96536
56.545 24.2382 3.97339
50.1075 7.29705 3.97898
51.2169 10.1837 3.96683
52.1365 12.9103 3.96842
55.3692 17.1375 3.95626
52.9102 15.3965 3.95772
53.6098 17.1575 3.95503
53.0381 68.9971 0.0165741
53.9583 65.9965 0.0289038
62.7694 48.536 0.0255537
54.6609 63.1231 0.0362099
57.8489 60.805 0.0420307
55.1779 60.5303 0.0224651
61.3675 52.4381 0.0280706
59.6991 49.8233 0.0266454
57.8261 58.1386 0.0427062
57.707 55.62 0.0364809
58.9092 53.771 0.027213
52.0662 66.9818 2
52.9354 64.1629 2
56.5511 59.3899 2
53.6302 61.4993 2
54.183 59.2078 2
60.3816 47.705 2
59.2063 51.9154 2
57.3237 49.3677 2
56.5038 56.8276 2
56.5712 53.8866 2
51.1539 65.0934 3.97046
52.0088 62.4479 3.96383
55.321 58.1137 3.96128
52.7353 59.9848 3.9635
53.5273 58.3343 3.96288
57.4605 46.6065 3.97498
56.9343 51.5402 3.97241
55.4524 49.2611 3.97427
55.1273 55.5942 3.96289
54.7428 53.1226 3.96277
50.1035 67.8464 0.0236759
49.3273 65.8902 2
48.6005 64.0745 3.97878
47.4551 66.5628 0.0249615
45.5557 67.0839 2
46.8815 64.6868 2
46.3624 62.9897 3.98197
45.1233 65.1682 3.9796
43.6291 67.4547 3.98002
41.8586 69.8696 3.98346
43.9728 69.5827 2
44.3734 71.8608 3.99017
46.0525 69.1498 0.0179583
46.6082 71.3655 2
47.2057 73.7222 4
48.7984 70.7214 0.0118613
49.554 73.0099 2
51.8506 72.1454 0
50.9528 5.13514 3.98838
53.0639 6.07566 2
54.0858 3.86728 4
55.0985 7.14414 0.0192518
56.25 5.02406 2
58.3339 6.31992 0
63.5379 46.6127 0.0251165
64.7887 42.9716 0.0234043
62.2412 44.1172 0.0241389
63.2476 40.8847 0.0234011
65.4267 39.356 0.0230914
67.7536 37.5251 0.02344
65.5358 37.5058 2
63.3981 39.2487 2
62.7935 42.4828 2
61.8113 40.6451 2
61.3703 45.7807 2
60.7616 43.5701 2
63.4623 37.4617 3.97645
61.5103 39.3256 3.97677
60.5054 41.8678 3.97679
59.4798 44.6066 3.97561
65.5265 35.6882 0.0230593
64.8071 32.2123 0.0237424
63.827 34.2954 0.0235731
62.0419 30.7481 0.0243311
59.2262 15.7515 0.0453344
58.85 18.5121 0.0408269
58.2986 21.0683 0.0350052
61.1288 27.2373 0.0250679
60.2024 29.3109 0.0241544
58.7113 26.0329 0.0248346
57.7383 23.3422 0.0286422
57.3464 24.9378 0.0240773
56.5909 15.8639 0.0446475
54.2728 16.148 0.0437796
53.7849 13.7885 0.0315073
52.1063 8.16795 0.032047
53.0391 11.0968 0.0334845
63.6101 35.6613 2
62.3755 33.124 2
59.9085 30.7679 2
57.7655 17.1207 2
57.3297 19.6876 2
56.817 22.1104 2
58.876 28.1238 2
56.5554 24.2408 2
57.03 26.0139 2
50.1107 7.29288 2
55.3655 17.1407 2
53.6134 17.149 2
52.9072 15.3998 2
52.1487 12.8993 2
51.2183 10.1798 2
61.5531 35.4026 3.97648
59.5176 32.862 3.97593
57.7708 30.2853 3.97518
56.4786 27.6639 3.97551
56.3739 18.3434 3.95764
55.542 25.4338 3.97477
55.8821 20.7802 3.95779
55.4694 23.1785 3.96627
48.0545 6.53625 3.98217
49.314 9.36815 3.97178
50.4044 12.0907 3.96513
51.3139 14.6334 3.96559
54.1989 18.1247 3.96151
52.2368 17.2292 3.95495
52.0631 66.9842 0.0265898
52.9353 64.1632 0.0305547
60.3815 47.7052 0.0258674
53.6315 61.4992 0.0340437
56.554 59.389 0.0464431
54.1887 59.206 0.0353345
59.2037 51.915 0.0269518
57.3227 49.3671 0.02586
56.5066 56.8238 0.0387138
56.5731 53.8873 0.0320517
51.1548 65.0902 2
52.0087 62.4536 2
55.3149 58.114 2
52.7369 59.9881 2
53.5223 58.3373 2
57.4607 46.6055 2
56.9333 51.5396 2
55.4515 49.2605 2
55.1265 55.5953 2
54.7416 53.1227 2
50.3207 63.3314 3.97167
51.1704 60.8161 3.97251
54.0151 57.107 3.96773
52.1328 58.4648 3.96972
55.6389 43.955 3.9756
54.5459 47.5744 3.97553
54.2653 51.0836 3.96608
53.5622 54.3161 3.96488
49.3258 65.8883 0.0254767
48.5984 64.0834 2
47.9311 62.4231 3.98924
45.5541 67.0806 0.0216513
46.8805 64.6861 0.02301
43.6299 67.4552 2
46.3618 62.9919 2
45.1258 65.1629 2
45.9561 61.5168 3.99387
44.7534 63.3979 3.97463
43.3531 65.4833 3.97826
41.6626 67.6728 3.97887
39.7011 70.0167 3.98317
41.8601 69.871 2
42.1085 72.2047 3.99067
43.9707 69.5826 0.0166799
44.3755 71.8601 2
44.8159 74.2794 4
46.6056 71.3661 0.0104201
47.2057 73.7222 2
49.554 73.0099 0
48.7844 4.32493 3.98909
50.9544 5.13471 2
51.8506 2.85458 4
53.0612 6.07496 0.0139971
54.0858 3.86728 2
56.25 5.02411 0
61.3704 45.7809 0.0248074
62.7929 42.4832 0.0237102
60.7613 43.5701 0.0239944
61.8112 40.6453 0.0234174
63.3977 39.2484 0.0235557
65.537 37.5057 0.023096
63.4634 37.4618 2
61.5099 39.3259 2
60.5059 41.8675 2
59.4808 44.6065 2
61.33 37.4501 3.97662
59.4294 39.7954 3.97679
58.077 42.778 3.97586
63.6096 35.6615 0.0236651
62.3741 33.1235 0.0239202
59.9074 30.7675 0.0244968
57.7582 17.123 0.0439722
57.3237 19.6891 0.0403035
56.8188 22.1069 0.0346412
58.8754 28.1248 0.0247481
57.0308 26.0149 0.0246202
56.545 24.2382 0.0266071
55.3692 17.1375 0.043736
53.6098 17.1575 0.0449739
52.9102 15.3965 0.0422817
50.1075 7.29705 0.0210162
52.1365 12.9103 0.0315809
51.2169 10.1837 0.0331673
61.5531 35.4027 2
59.5166 32.8621 2
57.7727 30.2856 2
56.3742 18.3431 2
55.9071 20.7748 2
55.4787 23.1827 2
56.4803 27.6637 2
55.5459 25.4365 2
48.0543 6.53704 2
49.3141 9.36441 2
54.2 18.1278 2
52.2275 17.2296 2
51.3184 14.6167 2
50.407 12.0875 2
59.0517 35.1811 3.97653
57.0196 32.4339 3.97522
55.581 29.6118 3.97533
54.5587 26.9634 3.97465
55.03 19.411 3.9629
54.2325 24.4019 3.97176
54.4552 21.8637 3.96229
45.9616 5.89044 3.98448
43.3729 7.48283 3.98181
47.3495 8.64345 3.97356
48.5777 11.3644 3.96741
49.6614 13.849 3.96809
50.5247 16.2927 3.95207
52.8904 18.9062 3.96248
51.1484 18.314 3.95709
51.1539 65.0934 0.029541
52.0088 62.4479 0.0361688
57.4605 46.6065 0.0250248
52.7353 59.9848 0.0365049
55.321 58.1137 0.0387185
53.5273 58.3343 0.0371239
56.9343 51.5402 0.0275871
55.4524 49.2611 0.0257333
55.1273 55.5942 0.0371084
54.7428 53.1226 0.0372312
50.3177 63.3295 2
51.1706 60.8167 2
54.0081 57.1081 2
52.1244 58.4673 2
55.6414 43.9557 2
54.546 47.5751 2
54.2605 51.0822 2
53.5574 54.3174 2
49.5418 61.688 3.97398
54.3205 41.578 3.97408
50.4364 59.1909 3.96512
51.8728 56.2956 3.9668
52.9817 45.2134 3.9728
52.3521 48.9755 3.9697
52.031 52.5764 3.95921
48.6005 64.0745 0.0212161
47.93 62.4239 2
47.2826 60.9463 3.99
43.6291 67.4547 0.019977
45.1233 65.1682 0.020397
46.3624 62.9897 0.0180329
41.6637 67.6738 2
43.3578 65.4845 2
45.9583 61.5189 2
44.754 63.393 2
45.721 60.5606 4.00099
44.4609 61.7627 3.97931
43.1377 63.6815 3.97816
41.5451 65.623 3.97374
39.6324 67.7524 3.9783
37.5257 70.0412 3.98325
39.702 70.0169 2
39.8162 72.402 3.99105
41.8586 69.8696 0.0165368
42.1099 72.2053 2
42.3947 74.6792 4
44.3734 71.8608 0.00982623
44.8159 74.2794 2
47.2057 73.7222 0
43.8513 5.36418 3.98507
46.5706 3.64979 3.98985
48.7846 4.32559 2
49.554 1.99015 4
50.9528 5.13514 0.01162
51.8506 2.85453 2
54.0858 3.86728 0
59.4798 44.6066 0.0243935
60.5054 41.8678 0.0232113
61.5103 39.3256 0.0232314
63.4623 37.4617 0.0235517
61.3302 37.4502 2
59.4276 39.7941 2
58.0771 42.7776 2
58.9011 37.569 3.9769
56.9833 40.5584 3.97753
53.7184 39.6153 3.97623
61.5531 35.4026 0.0235207
59.5176 32.862 0.0240735
57.7708 30.2853 0.0248188
56.3739 18.3434 0.042357
55.8821 20.7802 0.042207
55.4694 23.1785 0.0337312
56.4786 27.6639 0.0244854
55.542 25.4338 0.0252287
54.1989 18.1247 0.0384938
52.2368 17.2292 0.0450528
51.3139 14.6334 0.0344135
48.0545 6.53625 0.0178258
49.314 9.36815 0.0282162
50.4044 12.0907 0.0348734
59.0505 35.1815 2
45.961 5.8895 2
43.3715 7.48372 2
57.0179 32.4347 2
55.5831 29.6094 2
55.0178 19.4155 2
54.492 21.8619 2
54.2278 24.4086 2
54.5612 26.9639 2
47.3485 8.6408 2
48.5798 11.354 2
52.8817 18.8723 2
51.1428 18.3155 2
50.5379 16.291 2
49.6556 13.8612 2
56.3277 34.8519 3.97712
54.5974 31.7555 3.97452
53.464 28.7473 3.97609
52.9383 25.8876 3.97399
53.6115 20.399 3.96429
52.9749 23.0587 3.96512
41.3988 7.08373 3.98323
45.3571 8.00638 3.98519
42.8646 9.43049 3.9732
46.6534 10.7016 3.97425
47.6996 13.1821 3.96806
48.8389 15.5146 3.97022
49.8596 17.9044 3.97088
51.4054 19.6122 3.98657
50.3207 63.3314 0.0283298
51.1704 60.8161 0.0274939
55.6389 43.955 0.0243995
54.5459 47.5744 0.0244719
52.1328 58.4648 0.0302849
54.0151 57.107 0.0322659
54.2653 51.0836 0.0339191
53.5622 54.3161 0.0351233
49.5423 61.6816 2
54.3189 41.5749 2
50.4338 59.1983 2
51.8775 56.3001 2
52.9753 45.2107 2
52.3479 48.9735 2
52.0348 52.5772 2
48.7612 60.1359 3.99736
50.962 42.4241 3.98353
49.5816 57.475 3.96505
50.1411 54.2036 3.95977
50.6427 46.8746 3.97676
50.4166 50.6328 3.95273
46.7061 43.3805 3.96096
47.9311 62.4231 0.0107566
47.286 60.9465 2
46.5537 59.7283 3.99359
41.6626 67.6728 0.0211266
43.3531 65.4833 0.0217393
44.7534 63.3979 0.0253723
45.9561 61.5168 0.00612996
39.6336 67.753 2
41.5484 65.6198 2
45.7206 60.5638 2
43.1365 63.6784 2
44.461 61.7631 2
44.5819 60.2132 3.99318
42.9324 62.0202 3.97756
41.5924 63.7902 3.9784
39.6463 65.5918 3.97563
37.5633 67.7342 3.97688
31.6989 65.1068 3.9734
33.3929 67.4715 3.97735
35.334 69.9522 3.98335
37.5256 70.0432 2
37.5092 72.456 3.99161
39.7011 70.0167 0.0168285
39.8171 72.402 2
39.9526 74.9197 4
42.1085 72.2047 0.00932647
42.3947 74.6792 2
44.8159 74.2794 0
41.736 4.97148 3.98775
43.8505 5.36405 2
44.3264 3.11192 3.99156
46.5708 3.64961 2
47.2057 1.27793 4
48.7844 4.32493 0.010909
49.554 1.99013 2
51.8506 2.85458 0
58.077 42.778 0.024138
59.4294 39.7954 0.0232064
61.33 37.4501 0.0233808
58.899 37.5703 2
56.9863 40.5577 2
53.7214 39.6158 2
55.6791 37.8811 3.97741
47.9804 41.1416 3.96688
51.5174 39.2318 3.97917
39.4417 6.80932 3.98104
59.0517 35.1811 0.0234653
57.0196 32.4339 0.0247847
55.581 29.6118 0.0246698
55.03 19.411 0.0371024
54.4552 21.8637 0.0377119
54.2325 24.4019 0.0282435
54.5587 26.9634 0.0253547
52.8904 18.9062 0.0375244
51.1484 18.314 0.0429138
50.5247 16.2927 0.0479295
45.9616 5.89044 0.0155178
49.6614 13.849 0.0319148
47.3495 8.64345 0.0264368
48.5777 11.3644 0.0325933
43.3729 7.48283 0.0181893
56.3289 34.8554 2
41.3985 7.08574 2
45.355 8.0056 2
42.8608 9.43359 2
54.5984 31.7579 2
53.4613 28.7462 2
53.6141 20.4063 2
52.9548 23.0625 2
52.9437 25.8875 2
46.6524 10.6912 2
47.7021 13.178 2
51.4076 19.6139 2
49.859 17.9097 2
48.846 15.5487 2
53.5184 34.0826 3.97528
52.2417 30.8286 3.9748
51.5948 27.6116 3.97507
51.4381 24.5046 3.97229
51.9895 21.3668 3.98393
41.012 9.05485 3.97848
44.7235 10.0131 3.97748
42.4541 10.9155 4.00473
45.9632 12.7798 3.96641
47.6135 14.7069 3.96699
47.9855 17.1163 3.97505
49.6421 20.0172 3.9875
49.5418 61.688 0.0260201
50.4364 59.1909 0.0348835
54.3205 41.578 0.0259164
52.9817 45.2134 0.0271993
52.3521 48.9755 0.0303011
51.8728 56.2956 0.033204
52.031 52.5764 0.0407887
48.7596 60.1323 2
50.9815 42.442 2
49.5798 57.4741 2
50.1417 54.206 2
50.6436 46.8739 2
50.4201 50.6327 2
46.7148 43.4257 2
47.8644 58.6193 3.99013
48.708 44.9329 3.98133
48.2979 55.7454 3.95425
48.5598 52.3437 3.9809
48.7327 48.6958 3.97056
44.3862 39.6907 3.8197
44.9349 42.3129 3.86694
45.2724 45.3246 3.9789
42.2774 40.9452 3.59035
41.2653 41.5284 3.38914
47.2826 60.9463 0.010002
46.5492 59.7338 2
45.3935 58.7146 3.99488
39.6324 67.7524 0.021702
41.5451 65.623 0.0262564
43.1377 63.6815 0.021843
44.4609 61.7627 0.0206887
45.721 60.5606 -0.000985481
41.5949 63.7827 2
37.564 67.7368 2
39.6495 65.593 2
44.5825 60.2147 2
42.9316 62.0185 2
41.7406 62.435 3.98252
42.4495 59.9114 3.98865
39.8882 63.5266 3.97785
37.641 65.4887 3.97423
35.4635 67.6439 3.97613
33.576 65.3195 3.97383
31.9646 63.2626 3.98167
29.8891 64.6935 3.97917
31.6965 65.1079 2
31.3789 67.1819 3.97808
33.3924 67.4732 2
33.1579 69.7452 3.98311
35.3333 69.9535 2
35.1963 72.3711 3.99177
37.5257 70.0412 0.0167542
37.5096 72.4567 2
37.5 75 4
39.8162 72.402 0.0089457
39.9526 74.9197 2
42.3947 74.6792 0
39.6242 4.71914 3.98792
41.7355 4.97187 2
42.0629 2.71894 3.99223
43.8513 5.36418 0.0149322
44.3262 3.11175 2
44.8158 0.721173 4
46.5706 3.64979 0.0101454
47.2057 1.27779 2
49.554 1.99015 0
56.9833 40.5584 0.0224717
58.9011 37.569 0.0230953
53.7184 39.6153 0.0237719
48.0151 41.1598 2
55.6725 37.8768 2
51.5291 39.2237 2
52.4276 36.6255 3.97678
45.9087 40.2291 3.88319
48.8787 38.4839 3.97032
37.5156 6.67837 3.98442
39.442 6.80985 2
39.2093 8.70404 3.98003
35.9425 8.50112 3.98104
56.3277 34.8519 0.0228815
54.5974 31.7555 0.0254796
53.464 28.7473 0.0239141
53.6115 20.399 0.0357141
52.9749 23.0587 0.0348832
52.9383 25.8876 0.0260085
51.4054 19.6122 0.0134323
49.8596 17.9044 0.0291231
48.8389 15.5146 0.0297828
45.3571 8.00638 0.0148136
47.6996 13.1821 0.0319445
46.6534 10.7016 0.0257538
41.3988 7.08373 0.0167674
42.8646 9.43049 0.0267963
53.516 34.0831 2
41.01 9.05961 2
44.7195 10.0126 2
42.453 10.9264 2
52.2428 30.8239 2
51.6017 27.6106 2
51.9932 21.3706 2
51.4258 24.5092 2
45.967 12.7715 2
47.6073 14.6889 2
49.6535 20.0378 2
47.9862 17.1209 2
50.938 33.0638 3.97636
50.0648 29.5926 3.97656
49.9003 26.1137 3.97083
49.5429 22.5914 3.97881
40.5574 11.6119 3.98462
43.8225 11.9365 3.9618
45.7366 15.5908 3.98905
47.3563 19.6161 3.97919
44.7567 37.4911 3.82766
48.7612 60.1359 0.00264094
49.5816 57.475 0.0349473
50.962 42.4241 0.0164716
50.6427 46.8746 0.0232402
50.4166 50.6328 0.047268
50.1411 54.2036 0.0402325
46.7061 43.3805 0.0390376
47.8573 58.6242 2
48.7215 44.9488 2
48.2938 55.7486 2
48.5598 52.3482 2
48.7373 48.6969 2
44.514 39.7129 2
44.969 42.3428 2
45.2802 45.3473 2
42.3437 41.0082 2
41.307 41.5546 2
46.6639 57.2175 3.99153
42.9182 39.3612 3.58184
41.6476 40.5154 3.37043
46.9586 46.9339 3.98958
46.7813 54.0321 3.96011
46.8925 50.4777 3.97447
43.921 46.9511 3.98576
43.5994 41.6873 3.82376
43.8081 44.0893 3.85375
41.5306 42.1984 3.6347
40.3905 41.8052 3.31945
46.5537 59.7283 0.00641162
45.3877 58.7126 2
43.8006 57.5831 3.99066
37.5633 67.7342 0.0231151
39.6463 65.5918 0.0243666
41.5924 63.7902 0.0215973
42.9324 62.0202 0.0224443
44.5819 60.2132 0.00681692
35.4634 67.6456 2
41.7386 62.4333 2
39.8887 63.5297 2
37.6431 65.4925 2
42.4503 59.911 2
40.6118 61.5817 3.98425
40.422 58.0917 3.99118
37.8345 63.1821 3.97398
35.5725 65.4107 3.97463
33.5751 65.3168 2
31.9677 63.2603 2
33.6311 63.3118 3.98185
30.3897 62.8152 3.97973
32.1384 61.9661 3.99078
26.9032 61.4001 3.98884
28.0753 64.1145 3.98428
29.8883 64.69 2
29.4097 66.7432 3.97793
31.6989 65.1068 0.0265958
31.3784 67.1829 2
31.0159 69.4105 3.98275
33.3929 67.4715 0.0226492
33.1567 69.7466 2
32.8946 72.1452 3.991
35.334 69.9522 0.01665
35.1957 72.3717 2
35.0474 74.9194 4
37.5092 72.456 0.00838541
37.5 75 2
39.9526 74.9197 0
35.62 6.73055 3.98218
37.524 4.61857 3.98865
39.6237 4.71904 2
39.7894 2.47534 3.99248
41.736 4.97148 0.0122493
42.0626 2.71889 2
42.3946 0.32156 4
44.3264 3.11192 0.00844477
44.8159 0.72056 2
47.2057 1.27793 0
47.9804 41.1416 0.0331221
55.6791 37.8811 0.0225944
51.5174 39.2318 0.0208321
45.9495 40.228 2
48.9004 38.4531 2
52.4396 36.6245 2
49.7062 35.5665 3.9779
46.518 37.7093 3.85922
44.4127 35.2528 3.82293
42.3297 33.9845 3.59186
41.3069 33.4004 3.39076
37.4576 8.5391 3.98364
37.5162 6.67879 2
39.4417 6.80932 0.0189583
39.2095 8.70579 2
38.9705 10.1392 3.99148
35.898 9.7845 3.98185
34.1526 8.83346 3.97834
35.943 8.50175 2
53.5184 34.0826 0.0247214
52.2417 30.8286 0.0252038
51.5948 27.6116 0.0249289
51.9895 21.3668 0.0160729
51.4381 24.5046 0.0277094
49.6421 20.0172 0.0124993
47.9855 17.1163 0.0249488
47.6135 14.7069 0.0330082
44.7235 10.0131 0.0225213
45.9632 12.7798 0.0335905
41.012 9.05485 0.021521
42.4541 10.9155 -0.00473185
50.9556 33.0467 2
40.563 11.6258 2
43.8241 11.9272 2
50.0786 29.5923 2
49.9039 26.1282 2
49.531 22.5607 2
45.7208 15.5285 2
47.3632 19.6527 2
48.5341 31.6261 3.98114
48.2246 27.8901 3.9749
48.7302 24.7291 3.97272
46.9195 22.4147 3.99283
38.2979 12.7634 3.97846
42.063 14.4058 3.98537
44.6916 18.7053 3.9926
43.25 37.4747 3.59164
44.8666 37.4783 2
47.8644 58.6193 0.00987486
48.2979 55.7454 0.0457537
48.708 44.9329 0.0186726
48.7327 48.6958 0.0294408
48.5598 52.3437 0.019099
44.3862 39.6907 0.180301
44.9349 42.3129 0.133055
45.2724 45.3246 0.0210954
42.2774 40.9452 0.409654
41.2653 41.5284 0.610855
46.6598 57.2221 2
43.0101 39.381 2
41.6685 40.5265 2
46.9646 46.9365 2
46.7755 54.036 2
46.8925 50.4898 2
43.9638 46.9628 2
43.6708 41.7428 2
43.8659 44.1246 2
41.588 42.2907 2
40.451 41.825 2
45.1762 55.7754 4.00212
41.9748 39.0826 3.3795
40.258 40.4368 3.44036
45.2748 48.574 4.00327
45.0188 52.2666 3.99384
42.7376 47.9281 3.98963
42.5916 45.5796 3.86108
42.6515 43.4057 3.80663
40.6374 43.1104 3.59791
39.123 42.0859 3.40348
45.3935 58.7146 0.00512281
43.7931 57.5975 2
42.0266 56.1248 3.99639
35.4635 67.6439 0.0238677
37.641 65.4887 0.0257741
39.8882 63.5266 0.0221514
41.7406 62.435 0.0174844
42.4495 59.9114 0.011349
35.5736 65.4137 2
40.6101 61.5753 2
37.8356 63.1821 2
40.4196 58.1009 2
38.914 56.273 3.99629
38.2428 60.2688 3.98537
35.6065 63.1776 3.9731
33.576 65.3195 0.0261704
31.9646 63.2626 0.0183254
33.6334 63.3133 2
30.392 62.8128 2
32.1433 61.964 2
28.7003 62.1471 3.97744
33.3568 61.475 3.98526
31.0954 61.1805 3.99357
27.6391 59.498 3.97889
23.8866 58.9529 3.98279
25.0838 60.7587 3.98002
26.9039 61.4014 2
26.2503 63.4371 3.97404
28.0753 64.11 2
27.4693 66.1582 3.97708
29.8891 64.6935 0.0208292
29.4085 66.7455 2
28.9093 68.9346 3.98183
31.3789 67.1819 0.0219237
31.0143 69.4109 2
30.6179 71.7769 3.9904
33.1579 69.7452 0.0168904
32.8932 72.1458 2
32.6054 74.6784 4
35.1963 72.3711 0.00822506
35.0474 74.9197 2
37.5 75 0
33.7229 6.98717 3.98034
35.4362 4.68859 3.98797
35.621 6.7311 2
37.5153 2.388 3.99264
37.5235 4.61817 2
39.6242 4.71914 0.0120834
39.7889 2.47517 2
39.9526 0.0806499 4
42.0629 2.71894 0.00776534
42.3947 0.320817 2
44.8158 0.721173 0
42.9503 35.5803 3.58969
41.6853 34.4036 3.35463
45.9087 40.2291 0.116814
48.8787 38.4839 0.0296788
52.4276 36.6255 0.0232227
46.5308 37.7085 2
49.7362 35.6075 2
44.5257 35.239 2
42.387 33.9196 2
41.3299 33.3736 2
46.7972 34.4627 3.92807
43.6574 33.2489 3.81626
41.5756 32.734 3.63795
40.4133 33.1315 3.31817
37.3078 10.638 3.98113
37.4585 8.54048 2
37.5156 6.67837 0.0155838
39.2093 8.70404 0.0199693
38.976 10.1438 2
34.7565 10.3965 3.97631
35.9029 9.78371 2
32.3808 9.38401 3.97309
34.1523 8.83387 2
35.9425 8.50112 0.0189604
50.938 33.0638 0.0236381
50.0648 29.5926 0.0234388
49.9003 26.1137 0.0291717
49.5429 22.5914 0.0211933
47.3563 19.6161 0.0208109
45.7366 15.5908 0.0109511
43.8225 11.9365 0.0382011
40.5574 11.6119 0.0153841
48.5543 31.6092 2
38.2998 12.7656 2
42.0738 14.4047 2
48.2235 27.8894 2
48.7319 24.7359 2
46.91 22.4038 2
44.6972 18.7653 2
46.509 29.911 3.97866
46.4212 25.4352 3.97848
44.1211 21.7062 3.98487
36.5893 12.9797 3.97876
38.6624 14.907 3.97879
41.6792 18.0318 3.9893
42.1402 37.4455 3.40292
43.3323 37.4756 2
44.7567 37.4911 0.17234
46.6639 57.2175 0.00847243
46.7813 54.0321 0.0398867
46.9586 46.9339 0.0104191
46.8925 50.4777 0.0255308
42.9182 39.3612 0.418164
43.5994 41.6873 0.176244
43.8081 44.0893 0.146246
43.921 46.9511 0.0142387
41.5306 42.1984 0.365303
41.6476 40.5154 0.629567
40.3905 41.8052 0.680553
45.172 55.7779 2
41.9964 39.0904 2
40.3378 40.4286 2
45.2738 48.5988 2
45.0126 52.2702 2
42.788 47.9524 2
42.6631 45.6481 2
42.6973 43.439 2
40.7059 43.1993 2
39.0942 42.1224 2
43.4949 54.2045 4.00648
40.3255 38.9427 3.47195
39.0231 40.533 3.42596
43.0729 50.0354 4.00328
41.4264 47.0598 3.91346
41.3416 44.6573 3.80447
39.3683 43.7661 3.58378
37.5102 42.2361 3.4684
43.8006 57.5831 0.00933789
42.0281 56.1153 2
40.3272 54.6876 3.99661
35.5725 65.4107 0.0253699
37.8345 63.1821 0.0260182
40.6118 61.5817 0.0157458
40.422 58.0917 0.00881911
35.6091 63.1733 2
38.2395 60.2637 2
38.9156 56.261 2
37.9868 54.951 3.99543
36.9347 57.5032 3.9927
35.3671 60.8708 3.98683
33.6311 63.3118 0.018152
30.3897 62.8152 0.0202727
32.1384 61.9661 0.00921752
33.3622 61.472 2
28.6997 62.1552 2
31.1004 61.181 2
29.4543 60.2359 3.9853
32.3778 59.6356 3.99596
28.1279 58.2886 4.0151
27.6414 59.497 2
25.4784 58.4821 3.97701
22.8938 58.102 3.9719
23.4608 60.2232 3.97314
23.8886 58.9538 2
25.0854 60.7589 2
24.4622 62.7027 3.97439
26.9032 61.4001 0.0111557
26.2504 63.4381 2
25.5575 65.4639 3.97421
28.0753 64.1145 0.0157205
27.4674 66.1571 2
26.8405 68.3226 3.98051
29.4097 66.7432 0.0220708
28.9068 68.9347 2
28.3736 71.2621 3.98898
31.0159 69.4105 0.0172468
30.6159 71.7764 2
30.1842 74.2788 4
32.8946 72.1452 0.00900394
32.6053 74.6792 2
35.0474 74.9194 0
31.7876 7.42919 3.97761
33.3485 4.92841 3.98643
33.7239 6.98729 2
35.2458 2.46389 3.99252
35.4354 4.68895 2
35.62 6.73055 0.0178228
37.5 0 4
37.5144 2.38784 2
37.524 4.61857 0.0113497
39.7894 2.47534 0.00752254
39.9526 0.0802889 2
42.3946 0.32156 0
41.9731 35.8062 3.33668
43.0538 35.5598 2
40.3159 34.4709 3.45222
41.698 34.3873 2
46.518 37.7093 0.140781
49.7062 35.5665 0.0220972
44.4127 35.2528 0.177071
42.3297 33.9845 0.408138
41.3069 33.4004 0.609236
46.8375 34.4651 2
43.7173 33.1899 2
41.6251 32.6457 2
40.4601 33.1119 2
44.9654 31.9303 3.8814
42.697 31.5243 3.79674
40.6822 31.8237 3.6022
39.1264 32.8608 3.40151
35.6976 11.7987 3.97518
37.3162 10.6395 2
37.4576 8.5391 0.0163613
38.9705 10.1392 0.0085168
33.1049 11.2404 3.97319
34.7595 10.393 2
35.898 9.7845 0.0181546
30.4884 10.0378 3.9744
32.3802 9.38407 2
34.1526 8.83346 0.0216588
48.5341 31.6261 0.0188561
48.2246 27.8901 0.0251008
48.7302 24.7291 0.0272792
46.9195 22.4147 0.00717091
44.6916 18.7053 0.00739609
42.063 14.4058 0.0146307
38.2979 12.7634 0.0215428
36.5862 12.9695 2
46.4971 29.8527 2
38.6686 14.8827 2
41.6698 18.0237 2
46.4274 25.4221 2
44.1082 21.6929 2
44.5964 28.0667 3.99435
43.3622 24.3557 4.01373
41.2235 21.0543 3.99529
35.7753 14.8142 3.99135
38.6278 17.7752 3.98984
40.3815 37.4062 3.50055
42.1674 37.4518 2
43.25 37.4747 0.408362
45.1762 55.7754 -0.00211549
45.0188 52.2666 0.00615651
45.2748 48.574 -0.00327409
41.9748 39.0826 0.620497
42.6515 43.4057 0.193366
42.5916 45.5796 0.138917
42.7376 47.9281 0.0103709
40.6374 43.1104 0.402089
40.258 40.4368 0.559642
39.123 42.0859 0.596515
43.489 54.2023 2
40.37 38.9465 2
39.0039 40.5374 2
43.0616 50.0572 2
41.4185 47.086 2
41.3646 44.6995 2
37.5036 42.2623 2
39.3872 43.8526 2
41.6483 52.6529 4.00249
39.0358 39.0058 3.41479
37.5065 40.5736 3.49177
35.8962 42.1055 3.39971
40.649 49.1819 3.99001
39.6004 45.339 3.77088
37.5082 44.067 3.63301
42.0266 56.1248 0.0036065
40.3243 54.6941 2
38.6967 53.4223 3.99766
35.6065 63.1776 0.0269029
38.2428 60.2688 0.0146257
38.914 56.273 0.00370811
35.3684 60.8516 2
36.9348 57.5057 2
37.98 54.9441 2
36.3419 55.0591 3.99743
34.5051 58.4188 3.99682
33.3568 61.475 0.0147366
28.7003 62.1471 0.0225604
31.0954 61.1805 0.00643483
32.3769 59.6385 2
29.4573 60.2429 2
30.3856 57.7156 3.98632
28.1296 58.2864 2
27.1322 56.7175 3.96533
27.6391 59.498 0.0211094
25.4813 58.4824 2
24.0647 56.6525 3.95966
21.5662 57.2319 3.95903
22.0715 59.5005 3.97216
22.8949 58.1037 2
22.7747 61.9217 3.97221
23.4627 60.2235 2
23.8866 58.9529 0.0172121
25.0838 60.7587 0.0199774
24.4627 62.7042 2
23.6954 64.6739 3.96929
26.2503 63.4371 0.025964
25.5562 65.4664 2
24.8132 67.5834 3.97604
27.4693 66.1582 0.0229153
26.8377 68.3242 2
26.1692 70.603 3.98845
28.9093 68.9346 0.0181749
28.3711 71.2616 2
27.7943 73.7221 4
30.6179 71.7769 0.00960442
30.1841 74.2794 2
32.6054 74.6784 0
29.8109 8.00779 3.97507
31.2538 5.33667 3.9848
31.7882 7.42839 2
32.9818 2.70202 3.99193
33.3476 4.9287 2
33.7229 6.98717 0.0196601
35.0474 0.080333 4
35.2447 2.46415 2
35.4362 4.68859 0.0120303
37.5 0 2
37.5153 2.388 0.00736459
39.9526 0.0806499 0
40.4406 35.9214 3.50057
42.0082 35.8054 2
42.9503 35.5803 0.410314
28.5508 10.715 3.9742
39.0256 34.427 3.41247
40.3274 34.4672 2
41.6853 34.4036 0.64537
46.7972 34.4627 0.0719348
43.6574 33.2489 0.18374
41.5756 32.734 0.362046
40.4133 33.1315 0.681833
44.996 31.9081 2
42.7473 31.4817 2
40.745 31.7362 2
39.1103 32.8212 2
43.4567 30.2096 3.86454
41.3687 30.2655 3.80571
39.3796 31.1745 3.58848
37.5218 32.7303 3.46643
34.104 12.9635 3.97985
35.7017 11.7885 2
37.3078 10.638 0.0188734
31.1963 12.0124 3.97559
33.1068 11.2372 2
34.7565 10.3965 0.0236927
30.4847 10.0335 2
32.3808 9.38401 0.0269131
46.509 29.911 0.021336
46.4212 25.4352 0.0215192
36.5893 12.9797 0.0212393
44.1211 21.7062 0.0151309
41.6792 18.0318 0.0107029
38.6624 14.907 0.0212088
35.7697 14.8273 2
44.5954 28.066 2
38.6367 17.756 2
41.2149 21.0326 2
43.3587 24.3325 2
33.6338 15.9221 3.98876
42.5043 26.8516 3.96974
40.7462 23.7248 3.99747
38.3648 20.5838 3.9926
35.8305 17.6616 3.98351
39.0525 37.4793 3.40714
40.409 37.4147 2
42.1402 37.4455 0.597077
43.4949 54.2045 -0.00648438
43.0729 50.0354 -0.00327594
40.3255 38.9427 0.528047
41.3416 44.6573 0.195531
41.4264 47.0598 0.0865428
39.3683 43.7661 0.41622
39.0231 40.533 0.574042
37.5102 42.2361 0.531596
41.6372 52.648 2
39.0133 38.9994 2
37.4972 40.5769 2
40.6297 49.1875 2
35.9193 42.1377 2
39.6346 45.4115 2
37.4997 44.148 2
39.6829 51.4004 3.99888
37.5102 39.0026 3.47285
36.0168 40.555 3.42316
34.6293 41.8338 3.31888
35.6476 43.7835 3.58314
38.5981 48.0071 3.92133
37.5025 45.631 3.80425
40.3272 54.6876 0.00338956
38.6904 53.4363 2
36.7682 52.7879 3.99791
35.3671 60.8708 0.0131712
36.9347 57.5032 0.00730449
37.9868 54.951 0.00457262
34.504 58.4348 2
36.3459 55.052 2
33.3388 55.2575 4.00148
32.3778 59.6356 0.00404048
29.4543 60.2359 0.0146962
30.3869 57.705 2
28.953 55.2267 3.9942
28.1279 58.2886 -0.0151038
27.1354 56.7146 2
25.6398 54.9784 3.95542
22.1915 55.1402 3.95877
25.4784 58.4821 0.0229859
24.0668 56.654 2
20.4574 56.8618 3.96148
20.7593 58.6495 3.95912
21.5691 57.2333 2
21.2135 61.0569 3.96793
22.0716 59.5001 2
22.8938 58.102 0.0281019
21.916 63.7722 3.97201
22.7757 61.923 2
23.4608 60.2232 0.0268611
24.4622 62.7027 0.0256093
23.6944 64.6746 2
22.8416 66.7229 3.97299
25.5575 65.4639 0.0257936
24.8105 67.5804 2
24.0134 69.8045 3.98732
26.8405 68.3226 0.0194917
26.1655 70.6024 2
25.446 73.0099 4
28.3736 71.2621 0.011023
27.7943 73.7222 2
30.1842 74.2788 0
27.8215 8.67001 3.97495
29.1561 5.88473 3.98175
29.8102 8.00428 2
30.7274 3.09948 3.99126
31.2528 5.3357 2
31.7876 7.42919 0.0223883
32.6053 0.320823 4
32.9804 2.70232 2
33.3485 4.92841 0.013572
35.0474 0.0802903 2
35.2458 2.46389 0.00747968
37.5 0 0
38.9602 35.958 3.42289
40.4193 35.9171 2
41.9731 35.8062 0.663316
28.5466 10.7122 2
26.634 11.415 3.9735
29.2386 12.6666 3.97755
37.5297 34.397 3.49212
39.0483 34.4375 2
40.3159 34.4709 0.547781
44.9654 31.9303 0.118603
42.697 31.5243 0.203256
40.6822 31.8237 0.397796
39.1264 32.8608 0.598494
43.4888 30.1807 2
41.4075 30.2183 2
39.3965 31.0879 2
37.5309 32.7017 2
41.7845 28.9329 3.85269
39.6159 29.5911 3.79383
37.5175 30.8857 3.63402
35.9089 32.8721 3.40679
31.9421 14.5106 3.98438
34.1071 12.9658 2
35.6976 11.7987 0.0248227
31.1962 12.0024 2
33.1049 11.2404 0.0268134
30.4884 10.0378 0.025601
44.5964 28.0667 0.00565228
43.3622 24.3557 -0.0137301
35.7753 14.8142 0.00864776
41.2235 21.0543 0.00471192
38.6278 17.7752 0.0101589
33.617 15.9153 2
35.8415 17.5876 2
42.5721 26.8209 2
38.3409 20.6207 2
40.7331 23.7326 2
33.5724 17.4626 3.99091
40.1972 26.2251 3.96449
38.0134 23.4942 3.99708
35.5217 20.3926 3.99596
37.5312 37.4721 3.49141
39.0186 37.4707 2
40.3815 37.4062 0.499454
41.6483 52.6529 -0.0024878
40.649 49.1819 0.00998839
39.0358 39.0058 0.585205
39.6004 45.339 0.229122
37.5082 44.067 0.366989
37.5065 40.5736 0.508227
35.8962 42.1055 0.600287
39.6663 51.3942 2
37.5019 39.0047 2
36.0042 40.5348 2
38.6203 48.0738 2
34.5769 41.8539 2
35.6241 43.8691 2
37.5014 45.6943 2
37.6745 50.358 3.98994
36.062 39.025 3.42745
34.739 40.4742 3.45352
33.7388 41.5641 3.3923
34.3841 43.1395 3.59372
35.3633 45.403 3.79935
36.9295 47.6304 3.87714
38.6967 53.4223 0.00234171
36.7815 52.7325 2
34.5181 52.1179 4.00065
34.5051 58.4188 0.00317792
36.3419 55.0591 0.00257353
33.3453 55.2671 2
30.8178 53.208 3.99742
30.3856 57.7156 0.013682
28.957 55.2285 2
27.309 53.2381 3.95469
27.1322 56.7175 0.034669
25.6439 54.9799 2
24.0832 53.2325 3.95322
21.0882 52.9546 3.95842
20.2975 55.6318 3.96055
22.1919 55.1403 2
24.0647 56.6525 0.0403367
19.6118 57.7453 3.96156
20.4517 56.8658 2
19.7516 60.1042 3.97107
20.7484 58.6548 2
21.5662 57.2319 0.0409675
20.237 62.7674 3.97109
21.2182 61.0581 2
22.0715 59.5005 0.0278413
20.9454 65.7412 3.97009
21.9152 63.7745 2
22.7747 61.9217 0.0277899
23.6954 64.6739 0.0307088
22.8397 66.7206 2
21.9163 68.8703 3.98475
24.8132 67.5834 0.0239621
24.0096 69.8019 2
23.1494 72.1454 4
26.1692 70.603 0.0115461
25.446 73.0099 2
27.7943 73.7221 0
25.8618 9.40145 3.9734
27.0711 6.55053 3.97956
27.8193 8.66667 2
28.49 3.64546 3.98997
29.1544 5.88324 2
29.8109 8.00779 0.0249265
30.1841 0.720592 4
30.7252 3.09937 2
31.2538 5.33667 0.015196
32.6053 0.320817 2
32.9818 2.70202 0.00806568
35.0474 0.080333 0
37.522 35.9477 3.46195
38.9384 35.9268 2
40.4406 35.9214 0.499429
24.7956 12.0909 3.96954
23.7895 14.4841 3.98049
28.5508 10.715 0.025798
26.6283 11.4136 2
29.238 12.6642 2
27.3044 13.429 3.97265
29.8136 14.2217 3.99385
36.0045 34.4256 3.43284
37.5463 34.3897 2
39.0256 34.427 0.58753
37.5218 32.7303 0.533573
43.4567 30.2096 0.135465
41.3687 30.2655 0.194293
39.3796 31.1745 0.411523
41.8143 28.8575 2
39.6393 29.522 2
37.5205 30.8101 2
35.9332 32.8387 2
39.7998 28.2152 3.85165
37.484 29.3099 3.79161
35.6645 31.197 3.58601
34.628 33.1511 3.32412
30.9791 16.8706 3.99644
31.9374 14.4949 2
34.104 12.9635 0.0201509
31.1963 12.0124 0.0244074
42.5043 26.8516 0.0302581
40.7462 23.7248 0.0025281
33.6338 15.9221 0.0112364
35.8305 17.6616 0.0164911
38.3648 20.5838 0.00739674
33.5449 17.4999 2
35.5036 20.4483 2
40.2093 26.2012 2
38.0366 23.4863 2
32.981 19.9685 3.99806
37.7493 25.8889 3.95846
35.373 23.1464 4.01054
36.0277 37.4693 3.41327
37.5095 37.4718 2
39.0525 37.4793 0.592858
39.6829 51.4004 0.00111734
38.5981 48.0071 0.0786667
37.5102 39.0026 0.527152
37.5025 45.631 0.195752
35.6476 43.7835 0.416861
36.0168 40.555 0.576844
34.6293 41.8338 0.681116
37.6476 50.3944 2
36.1063 39.0105 2
34.6826 40.4872 2
36.9307 47.6963 2
33.6983 41.5927 2
34.3177 43.2218 2
35.3298 45.4627 2
35.5801 49.5618 3.98103
34.6356 39.007 3.49519
33.3587 40.5603 3.35723
33.4777 42.2313 3.6368
33.707 44.68 3.79562
34.6545 46.8016 3.85382
36.7682 52.7879 0.00208675
34.5003 52.1502 2
32.3749 50.9264 4.00199
33.3388 55.2575 -0.00148399
30.8212 53.2035 2
28.9342 51.2885 3.98817
28.953 55.2267 0.00580371
27.3143 53.2403 2
25.6988 51.4552 3.95327
25.6398 54.9784 0.0445799
24.0879 53.2365 2
22.677 51.5065 3.95604
19.9997 51.3319 3.96409
19.4559 54.0696 3.96124
21.0928 52.9528 2
18.7443 56.5504 3.96237
20.2956 55.6343 2
22.1915 55.1402 0.0412347
18.4635 59.0002 3.95786
19.6095 57.7489 2
20.4574 56.8618 0.0385208
18.6398 61.6905 3.97716
19.7534 60.1087 2
20.7593 58.6495 0.0408774
19.1396 64.6278 3.96971
20.2377 62.7691 2
21.2135 61.0569 0.0320726
19.8901 67.8074 3.98294
20.9431 65.7393 2
21.916 63.7722 0.0279939
22.8416 66.7229 0.0270088
21.9121 68.8675 2
20.9142 71.1327 4
24.0134 69.8045 0.0126766
23.1494 72.1455 2
25.446 73.0099 0
23.1161 12.8912 3.97743
23.9765 10.1848 3.9742
25.0247 7.32239 3.97647
25.8596 9.40135 2
26.2822 4.33021 3.98865
27.0681 6.54966 2
27.8215 8.67001 0.0250515
27.7943 1.27781 4
28.4867 3.64624 2
29.1561 5.88473 0.0182481
30.1841 0.720551 2
30.7274 3.09948 0.00873885
32.6053 0.320823 0
36.0039 35.943 3.41947
37.5609 35.9601 2
38.9602 35.958 0.577105
24.7835 12.1278 2
23.7868 14.4953 2
22.5342 15.1645 3.98468
25.3817 14.028 3.97375
24.1012 15.739 4.00867
26.634 11.415 0.0264995
29.2386 12.6666 0.0224455
27.3142 13.4045 2
29.8069 14.2218 2
28.4214 15.9879 3.99212
34.7628 34.5118 3.44274
36.0272 34.4237 2
37.5297 34.397 0.507879
35.9089 32.8721 0.593208
37.5175 30.8857 0.365983
41.7845 28.9329 0.147312
39.6159 29.5911 0.206166
39.8516 28.1572 2
37.4933 29.2607 2
35.6455 31.1097 2
34.5744 33.132 2
37.6334 27.9348 3.85055
35.423 29.61 3.79099
34.3736 31.8442 3.59972
33.7451 33.4249 3.39197
30.3234 19.6093 3.98199
30.9484 16.872 2
31.9421 14.5106 0.015622
40.1972 26.2251 0.0355123
38.0134 23.4942 0.00291515
33.5724 17.4626 0.00909033
35.5217 20.3926 0.00403797
32.9913 19.9936 2
35.3251 23.1306 2
37.7318 25.8671 2
32.6117 22.7232 4.00269
35.2385 25.7581 3.98407
34.6236 37.5065 3.5166
36.0221 37.4903 2
37.5312 37.4721 0.508586
37.6745 50.358 0.0100556
36.9295 47.6304 0.122861
36.062 39.025 0.572551
35.3633 45.403 0.200648
34.3841 43.1395 0.406275
34.739 40.4742 0.546478
33.7388 41.5641 0.607703
35.5584 49.5754 2
34.6124 39.0153 2
33.3411 40.5688 2
34.5868 46.8783 2
33.4213 42.3231 2
33.6653 44.7261 2
33.5756 48.6969 3.9719
33.049 39.1425 3.34175
32.707 40.9787 3.59041
32.352 43.44 3.80266
32.9366 45.8058 3.8501
34.5181 52.1179 -0.000645184
32.3909 50.9239 2
30.5351 49.4347 4.004
30.8178 53.208 0.00257729
28.942 51.2941 2
27.2609 49.6577 3.9769
27.309 53.2381 0.0453113
25.703 51.4531 2
24.162 49.8528 3.96844
24.0832 53.2325 0.046782
22.6828 51.5038 2
21.3671 49.9795 3.96718
18.7313 50.0522 3.97284
18.5047 52.5289 3.96638
19.9938 51.3321 2
17.8911 55.1338 3.96219
19.4529 54.0703 2
21.0882 52.9546 0.0415753
17.3383 57.7393 3.95797
18.7454 56.5511 2
20.2975 55.6318 0.0394466
17.1715 60.4733 3.95536
18.4612 59.0048 2
19.6118 57.7453 0.0384439
17.4157 63.4176 3.97191
18.6396 61.6933 2
19.7516 60.1042 0.0289279
17.9464 66.612 3.97747
19.1364 64.6256 2
20.237 62.7674 0.0289147
18.75 69.9759 4
19.8864 67.8031 2
20.9454 65.7412 0.0299097
21.9163 68.8703 0.0152505
20.9142 71.1327 2
23.1494 72.1454 0
21.6189 13.7184 3.96571
22.2008 11.0742 3.96745
23.1163 12.8824 2
23.0417 8.19004 3.97353
23.9747 10.2013 2
24.1202 5.1447 3.98823
25.0207 7.32223 2
25.8618 9.40145 0.0266037
25.446 1.99014 4
26.2777 4.33129 2
27.0711 6.55053 0.0204412
27.7943 1.27778 2
28.49 3.64546 0.0100303
30.1841 0.720592 0
34.7036 35.9876 3.47628
36.0316 35.9528 2
37.522 35.9477 0.538051
21.3873 15.9663 3.96086
24.7956 12.0909 0.0304564
23.7895 14.4841 0.0195092
25.3806 14.004 2
22.535 15.1544 2
24.1027 15.7488 2
23.3747 16.3733 3.96456
25.4559 16.2241 3.98565
27.3044 13.429 0.0273451
29.8136 14.2217 0.0061523
28.4137 16.0095 2
27.5638 19.022 3.98223
33.3645 34.4344 3.37534
34.6846 34.5204 2
36.0045 34.4256 0.567162
34.628 33.1511 0.675885
35.6645 31.197 0.413987
37.484 29.3099 0.208389
39.7998 28.2152 0.148348
37.5885 27.901 2
33.7091 33.4015 2
35.411 29.5436 2
34.3179 31.7603 2
35.3042 28.027 3.86642
33.6905 30.2927 3.79929
33.4721 32.7484 3.64161
29.9348 22.2199 4.0082
30.3216 19.6041 2
30.9791 16.8706 0.00356206
37.7493 25.8889 0.0415392
35.373 23.1464 -0.0105377
32.981 19.9685 0.0019439
32.5955 22.6851 2
35.2536 25.7503 2
32.2419 26.031 4.01174
32.8772 37.4975 3.39492
34.6183 37.4976 2
36.0277 37.4693 0.586732
35.5801 49.5618 0.0189677
34.6545 46.8016 0.14618
34.6356 39.007 0.504811
33.707 44.68 0.204382
33.4777 42.2313 0.363202
33.3587 40.5603 0.64277
33.5611 48.6842 2
33.0456 39.1503 2
32.6496 41.0424 2
32.9269 45.8667 2
32.3079 43.4711 2
31.9087 47.5066 3.98631
32.0878 39.3862 3.59138
31.3839 41.7222 3.81879
31.4672 44.4615 3.85525
32.3749 50.9264 -0.00198743
30.5429 49.4598 2
28.7925 47.8519 3.97391
28.9342 51.2885 0.0118308
27.2622 49.6593 2
25.6329 48.0973 3.97472
25.6988 51.4552 0.0467318
24.1653 49.8504 2
22.6891 48.4111 3.97164
22.677 51.5065 0.043961
21.3674 49.9775 2
19.887 48.7809 3.97527
17.598 49.08 3.97626
17.4113 51.1648 3.97209
18.7325 50.0509 2
16.9119 53.6564 3.96715
18.5023 52.5289 2
19.9997 51.3319 0.0359074
16.3068 56.3157 3.96126
17.8878 55.135 2
19.4559 54.0696 0.038765
15.8305 59.1278 3.95529
17.3377 57.7412 2
18.7443 56.5504 0.0376303
15.7942 62.0823 3.9695
17.1705 60.476 2
18.4635 59.0002 0.0421427
16.0931 65.2955 3.97858
17.4131 63.4272 2
18.6398 61.6905 0.0228392
16.6661 68.6801 4
17.9431 66.6074 2
19.1396 64.6278 0.0302903
18.75 69.9759 2
19.8901 67.8074 0.0170612
20.9142 71.1327 0
20.2609 14.7121 3.96994
21.6224 13.7181 2
20.5482 12.0861 3.97204
21.1459 9.166 3.97358
22.1948 11.0868 2
23.1161 12.8912 0.0225664
22.0199 6.08391 3.98656
23.0385 8.19398 2
23.9765 10.1848 0.0258007
23.1494 2.85457 4
24.1146 5.1473 2
25.0247 7.32239 0.0235276
25.446 1.99012 2
26.2822 4.33021 0.0113502
27.7943 1.27781 0
33.0311 35.8638 3.38011
34.6514 35.9879 2
36.0039 35.943 0.580528
21.3941 15.9559 2
20.4551 17.1076 3.95827
22.2136 16.7701 3.95464
25.3817 14.028 0.0262503
22.5342 15.1645 0.0153151
24.1012 15.739 -0.00866643
25.4549 16.2273 2
23.3779 16.3706 2
24.349 18.689 3.98337
27.3793 21.8172 3.99398
28.4214 15.9879 0.00788092
27.5531 19.0411 2
32.7264 33.9981 3.58792
33.3449 34.4273 2
34.7628 34.5118 0.557255
33.7451 33.4249 0.608033
34.3736 31.8442 0.400282
35.423 29.61 0.209013
37.6334 27.9348 0.149445
35.2885 27.9781 2
33.4266 32.6649 2
33.6465 30.2391 2
33.1603 28.6577 3.87625
32.3534 31.5296 3.79931
29.401 24.6842 4.01584
29.9111 22.209 2
30.3234 19.6093 0.018006
35.2385 25.7581 0.0159302
32.6117 22.7232 -0.00268553
32.2319 25.996 2
30.4969 27.7108 3.98493
31.7731 37.4815 3.58566
32.8676 37.4977 2
34.6236 37.5065 0.483401
33.5756 48.6969 0.028096
32.9366 45.8058 0.149902
33.049 39.1425 0.658251
32.352 43.44 0.197336
32.707 40.9787 0.409595
31.858 47.5364 2
31.9914 39.3971 2
31.3191 41.7811 2
31.4046 44.5145 2
30.2491 46.1243 3.98197
30.62 39.7231 3.82606
30.0735 42.7963 3.87499
30.5351 49.4347 -0.00399951
28.7938 47.8566 2
27.095 46.2653 3.98028
27.2609 49.6577 0.023101
25.6362 48.0946 2
23.9836 46.6718 3.97615
24.162 49.8528 0.0315593
22.6879 48.41 2
20.9534 47.2842 3.97589
21.3671 49.9795 0.03282
19.8853 48.7798 2
18.4826 47.9056 3.97636
16.8398 48.4485 3.97605
17.5972 49.08 2
16.4579 49.9476 3.97504
15.8918 52.2169 3.97214
17.4128 51.1639 2
18.7313 50.0522 0.0271564
15.2495 54.8142 3.96512
16.9124 53.656 2
18.5047 52.5289 0.0336209
14.6242 57.6435 3.95862
16.3062 56.3167 2
17.8911 55.1338 0.0378128
14.2767 60.6544 3.9651
15.8286 59.1306 2
17.3383 57.7393 0.0420265
14.3378 63.8527 3.97201
15.7977 62.0826 2
17.1715 60.4733 0.0446359
14.6715 67.2507 4
16.0893 65.2914 2
17.4157 63.4176 0.0280921
16.6661 68.6801 2
17.9464 66.612 0.0225333
18.75 69.9759 0
19.0068 15.9009 3.9583
20.2659 14.7017 2
19.0049 13.207 3.96986
21.6189 13.7184 0.0342856
20.5434 12.0884 2
19.3501 10.2641 3.97112
19.9949 7.14819 3.98475
21.1418 9.16382 2
22.2008 11.0742 0.0325471
20.9142 3.86727 4
22.0137 6.08739 2
23.0417 8.19004 0.0264741
23.1494 2.85451 2
24.1202 5.1447 0.0117729
25.446 1.99014 0
32.1086 35.5901 3.57981
33.0234 35.8569 2
34.7036 35.9876 0.523718
21.3873 15.9663 0.0391364
22.2193 16.7658 2
20.4603 17.1055 2
19.5176 18.598 3.95721
21.9318 18.0743 3.98891
25.4559 16.2241 0.014345
23.3747 16.3733 0.0354417
24.3437 18.7027 2
22.6199 20.1399 3.97175
24.9719 21.667 3.99274
27.0389 23.9699 3.9839
27.3776 21.7288 2
27.5638 19.022 0.0177704
31.4139 33.2599 3.81794
32.6669 33.947 2
33.3645 34.4344 0.624665
33.4721 32.7484 0.358386
33.6905 30.2927 0.200712
35.3042 28.027 0.133581
33.1189 28.6165 2
32.2887 31.4721 2
31.1602 30.0221 3.89436
28.7861 26.8765 4.01078
29.3895 24.6955 2
29.9348 22.2199 -0.00820345
32.2419 26.031 -0.0117351
30.4854 27.6875 2
30.2617 37.4691 3.82694
31.6789 37.4802 2
32.8772 37.4975 0.605083
31.9087 47.5066 0.0136947
31.4672 44.4615 0.144752
32.0878 39.3862 0.408623
31.3839 41.7222 0.181205
30.2576 46.133 2
30.5179 39.7308 2
30.0425 42.8273 2
28.6034 44.4656 3.96472
28.3649 40.4021 3.92004
28.7925 47.8519 0.0260893
27.0966 46.2647 2
25.3281 44.7905 3.98034
25.6329 48.0973 0.025279
23.9837 46.6702 2
22.0327 45.5982 3.97723
22.6891 48.4111 0.0283579
20.9538 47.283 2
19.258 46.4678 3.97575
19.887 48.7809 0.0247323
18.4828 47.9055 2
17.1036 47.4794 3.97554
16.8411 48.4488 2
15.8233 48.8035 3.97523
17.598 49.08 0.0237417
16.4594 49.9469 2
14.9945 50.8015 3.9744
14.2038 53.2857 3.96981
15.8925 52.2164 2
17.4113 51.1648 0.0279107
13.4806 56.0665 3.96115
15.2498 54.8143 2
16.9119 53.6564 0.0328495
12.8768 59.0958 3.95519
14.6232 57.6456 2
16.3068 56.3157 0.0387447
12.6843 62.2927 3.96763
14.2799 60.6558 2
15.8305 59.1278 0.0447141
12.7746 65.6939 4
14.3346 63.846 2
15.7942 62.0823 0.0305012
14.6714 67.2507 2
16.0931 65.2955 0.0214235
16.6661 68.6801 0
17.8621 17.3038 3.95829
19.0138 15.8932 2
17.5457 14.4577 3.96483
20.2609 14.7121 0.0300616
19.0019 13.1995 2
17.6535 11.5131 3.97108
20.5482 12.0861 0.0279623
19.3457 10.2803 2
18.0545 8.34166 3.98171
18.75 5.0241 4
19.9882 7.1545 2
21.1459 9.166 0.026422
20.9142 3.86727 2
22.0199 6.08391 0.0134448
23.1494 2.85457 0
30.6273 35.272 3.82051
32.0104 35.5707 2
33.0311 35.8638 0.619886
22.2136 16.7701 0.0453615
20.4551 17.1076 0.041735
21.9358 18.0691 2
19.5126 18.5949 2
18.4232 20.1684 3.96383
21.1839 19.6155 3.97575
24.349 18.689 0.0166292
22.6189 20.1355 2
24.9842 21.6313 2
22.8728 22.0063 3.97895
25.3561 23.3127 3.98215
26.4127 26.2562 3.98212
27.0402 23.9714 2
27.3793 21.8172 0.00601633
29.8338 32.632 3.87473
31.3329 33.2109 2
32.7264 33.9981 0.412083
32.3534 31.5296 0.200692
33.1603 28.6577 0.123755
31.1399 29.9983 2
28.2278 29.4927 4.00834
28.7656 26.8915 2
29.401 24.6842 -0.0158445
30.4969 27.7108 0.0150697
28.5908 37.398 3.85862
30.1667 37.482 2
31.7731 37.4815 0.414341
30.2491 46.1243 0.0180339
30.0735 42.7963 0.12501
30.62 39.7231 0.173945
28.6067 44.5242 2
28.3217 40.4142 2
26.7513 42.9444 3.97921
25.6821 39.3993 3.9778
27.095 46.2653 0.019725
25.3195 44.7977 2
23.2733 43.6353 3.97535
23.9836 46.6718 0.0238486
22.0309 45.5992 2
20.0845 44.7124 3.97501
20.9534 47.2842 0.024108
19.2578 46.4686 2
17.4852 45.986 3.9754
18.4826 47.9056 0.0236436
17.104 47.4797 2
15.6049 47.4735 3.9752
16.8398 48.4485 0.0239538
15.8251 48.8034 2
14.3123 49.3715 3.97489
16.4579 49.9476 0.0249636
14.9954 50.8009 2
13.2703 51.7385 3.97296
12.3726 54.4345 3.96402
14.2043 53.2854 2
15.8918 52.2169 0.0278627
11.6135 57.4228 3.95857
13.4804 56.0671 2
15.2495 54.8142 0.0348834
11.1403 60.6203 3.9672
12.8791 59.0948 2
14.6242 57.6435 0.0413828
10.9835 64.0165 4
12.6827 62.2861 2
14.2767 60.6544 0.0348954
12.7745 65.694 2
14.3378 63.8527 0.027993
14.6715 67.2507 0
16.706 18.8196 3.96052
17.8607 17.2975 2
16.1805 15.8698 3.95601
19.0068 15.9009 0.0417014
17.5492 14.4542 2
16.0317 12.8634 3.96537
19.0049 13.207 0.0301375
17.6469 11.5162 2
16.2066 9.66891 3.97516
19.3501 10.2641 0.0288808
18.049 8.34901 2
16.6661 6.31991 4
18.75 5.02404 2
19.9949 7.14819 0.0152548
20.9142 3.86727 0
29.0255 34.902 3.88465
30.51 35.2338 2
32.1086 35.5901 0.420193
17.1617 21.598 3.97009
21.9318 18.0743 0.0110915
19.5176 18.598 0.0427876
21.1779 19.6104 2
18.4135 20.1641 2
20.299 21.8574 3.97401
22.6199 20.1399 0.0282516
24.9719 21.667 0.0072577
22.8725 22.0019 2
25.3359 23.3719 2
23.7207 24.9157 3.97143
25.7982 28.8583 3.98428
26.3996 26.2659 2
27.0389 23.9699 0.0160974
27.7029 31.9891 3.97747
29.7863 32.6121 2
31.4139 33.2599 0.182058
31.1602 30.0221 0.105644
28.2437 29.4495 2
28.7861 26.8765 -0.0107803
26.3962 36.8793 3.95795
28.5524 37.3873 2
30.2617 37.4691 0.173061
28.6034 44.4656 0.0352818
28.3649 40.4021 0.0799632
26.7269 42.9739 2
25.6399 39.393 2
24.5223 41.6369 3.97737
23.3723 38.5132 3.97576
25.3281 44.7905 0.0196615
23.272 43.6396 2
20.9876 42.6796 3.97467
22.0327 45.5982 0.0227678
20.0861 44.7133 2
17.9107 44.1796 3.97506
19.258 46.4678 0.0242526
17.4854 45.9867 2
15.5777 45.9102 3.97532
17.1036 47.4794 0.0244609
15.6053 47.4737 2
13.8488 47.8496 3.97504
15.8233 48.8035 0.0247687
14.3135 49.3711 2
12.5082 50.1257 3.97487
14.9945 50.8015 0.025599
13.2712 51.738 2
11.3637 52.7543 3.96659
10.4164 55.678 3.96045
12.3725 54.4346 2
14.2038 53.2857 0.0301898
9.70646 58.8457 3.96977
11.6177 57.4218 2
13.4806 56.0665 0.0388495
9.30605 62.2254 4
11.1387 60.6141 2
12.8768 59.0958 0.0448077
10.9835 64.0165 2
12.6843 62.2927 0.0323703
12.7746 65.6939 0
15.5095 20.3562 3.96526
16.7195 18.8187 2
14.912 17.4075 3.95765
17.8621 17.3038 0.041715
16.1786 15.8645 2
14.4943 14.3362 3.9658
17.5457 14.4577 0.0351745
16.0339 12.8588 2
14.4505 11.1206 3.97372
17.6535 11.5131 0.0289226
16.2017 9.67724 2
14.6715 7.74927 4
18.0545 8.34166 0.0182876
16.6661 6.31988 2
18.75 5.0241 0
26.9813 34.4165 3.97306
28.9977 34.9092 2
30.6273 35.272 0.179486
18.4564 22.5874 3.97477
16.0627 23.1358 3.9726
17.1598 21.5958 2
21.1839 19.6155 0.0242486
18.4232 20.1684 0.0361703
20.2995 21.8553 2
20.4644 24.709 3.97228
22.8728 22.0063 0.0210531
25.3561 23.3127 0.017851
23.7134 24.91 2
23.167 28.2066 3.97119
25.2722 31.5108 3.98325
25.8087 28.8137 2
26.4127 26.2562 0.0178831
27.6698 31.958 2
29.8338 32.632 0.125274
28.2278 29.4927 -0.00834279
24.122 36.3344 3.97831
26.3611 36.8736 2
28.5908 37.398 0.141375
26.7513 42.9444 0.0207931
25.6821 39.3993 0.0222004
24.4936 41.6416 2
23.3717 38.5098 2
22.1498 40.5214 3.97548
21.4478 37.7845 3.97791
23.2733 43.6353 0.0246546
20.9887 42.6787 2
18.3978 41.9568 3.97568
20.0845 44.7124 0.0249942
17.9109 44.1799 2
15.6261 44.0467 3.97524
17.4852 45.986 0.0246032
15.5773 45.9106 2
13.5501 46.1564 3.97518
15.6049 47.4735 0.0248034
13.8493 47.8494 2
11.8977 48.4312 3.97511
14.3123 49.3715 0.0251064
12.5095 50.125 2
10.499 51.0051 3.96895
13.2703 51.7385 0.0270439
11.3645 52.7537 2
9.32083 53.8616 3.96182
8.39056 56.9812 3.97061
10.4181 55.6768 2
12.3726 54.4345 0.0359814
7.74927 60.3285 4
9.70545 58.8406 2
11.6135 57.4228 0.0414338
9.306 62.2255 2
11.1403 60.6203 0.0328037
10.9835 64.0165 0
14.3377 21.9099 3.97046
15.5114 20.3532 2
13.6542 19.0042 3.96135
16.706 18.8196 0.0394754
14.9114 17.404 2
13.0476 15.9192 3.95958
16.1805 15.8698 0.0439887
14.5015 14.333 2
12.7878 12.695 3.96946
16.0317 12.8634 0.0346251
14.4464 11.13 2
12.7746 9.30605 4
16.2066 9.66891 0.0248377
14.6715 7.74924 2
16.6661 6.31991 0
24.6533 33.9215 3.9821
26.9549 34.4026 2
29.0255 34.902 0.115346
18.3415 24.3279 3.97316
18.4646 22.5878 2
14.8757 24.6453 3.97412
16.0617 23.1335 2
17.1617 21.598 0.0299067
20.0319 27.5139 3.97316
20.299 21.8574 0.0259895
20.4676 24.7083 2
22.5521 30.9428 3.97391
23.7207 24.9157 0.0285707
23.163 28.2138 2
25.2253 31.5427 2
25.7982 28.8583 0.0157177
27.7029 31.9891 0.0225325
21.5427 35.981 3.97785
24.1139 36.333 2
26.3962 36.8793 0.0420471
24.5223 41.6369 0.0226326
23.3723 38.5132 0.0242434
22.1539 40.5211 2
21.4515 37.7853 2
19.1795 38.9601 3.97709
20.9876 42.6796 0.0253313
18.3975 41.9566 2
15.609 41.8203 3.97586
17.9107 44.1796 0.0249402
15.6251 44.0469 2
13.3093 44.2794 3.97542
15.5777 45.9102 0.0246848
13.5498 46.1565 2
11.4121 46.6301 3.97525
13.8488 47.8496 0.024961
11.8994 48.4304 2
9.7674 49.173 3.97158
12.5082 50.1257 0.025134
10.5002 51.0043 2
8.34618 51.9795 3.96297
11.3637 52.7543 0.0334067
9.31922 53.8607 2
7.19922 55.0336 3.97143
6.31991 58.3339 4
8.38935 56.9765 2
10.4164 55.678 0.0395467
7.74924 60.3285 2
9.70646 58.8457 0.0302311
9.30605 62.2254 0
13.7202 25.528 3.97602
13.227 23.4263 3.97382
14.3393 21.9074 2
12.4689 20.6476 3.96432
15.5095 20.3562 0.034741
13.6482 18.9998 2
11.7105 17.5976 3.95814
14.912 17.4075 0.0423519
13.0573 15.9166 2
11.2265 14.3815 3.96561
14.4943 14.3362 0.0342049
12.7867 12.7042 2
10.9835 10.9835 4
14.4505 11.1206 0.0262788
12.7745 9.306 2
14.6715 7.74927 0
21.9152 33.5712 3.97654
24.654 33.8999 2
26.9813 34.4165 0.0269414
16.6555 26.6327 3.97423
18.3455 24.3273 2
18.4564 22.5874 0.0252256
14.8722 24.6444 2
16.0627 23.1358 0.027399
19.4306 30.409 3.97471
20.0341 27.5123 2
20.4644 24.709 0.0277217
22.5682 30.9394 2
23.167 28.2066 0.0288147
25.2722 31.5108 0.0167548
18.7541 36.0191 3.97768
21.5437 35.982 2
24.122 36.3344 0.0216885
22.1498 40.5214 0.0245212
21.4478 37.7845 0.0220918
19.1799 38.959 2
15.0903 39.1427 3.97685
18.3978 41.9568 0.0243182
15.6083 41.82 2
12.9955 42.2021 3.97594
15.6261 44.0467 0.0247576
13.3085 44.2793 2
10.9953 44.7213 3.97597
13.5501 46.1564 0.0248198
11.4137 46.6296 2
9.14275 47.2621 3.97425
11.8977 48.4312 0.0248924
9.76923 49.172 2
7.50189 50.0173 3.96407
10.499 51.0051 0.0310505
8.344 51.9785 2
6.13943 53.009 3.97168
9.32083 53.8616 0.0381763
7.19866 55.0294 2
5.0241 56.25 4
6.31988 58.3339 2
8.39056 56.9812 0.0293944
7.74927 60.3285 0
14.0235 26.9761 3.97497
12.333 24.9175 3.97517
13.7177 25.5267 2
11.3912 22.3243 3.96758
13.2278 23.4247 2
14.3377 21.9099 0.0295426
12.4654 20.6446 2
10.4859 19.3556 3.96015
13.6542 19.0042 0.038653
11.7277 17.5982 2
9.767 16.1623 3.96915
13.0476 15.9192 0.0404208
11.2263 14.3875 2
9.30607 12.7746 4
12.7878 12.695 0.0305372
10.9835 10.9835 2
12.7746 9.30605 0
18.9234 33.2344 3.97559
21.9123 33.5744 2
24.6533 33.9215 0.0179015
16.2856 29.8192 3.97509
16.6539 26.6325 2
18.3415 24.3279 0.0268393
14.8757 24.6453 0.0258795
19.4242 30.4086 2
20.0319 27.5139 0.0268397
22.5521 30.9428 0.0260879
15.7388 36.0518 3.97712
18.7542 36.0195 2
21.5427 35.981 0.022152
13.2288 37.8267 3.97699
19.1795 38.9601 0.0229061
15.0899 39.1425 2
12.4825 40.1016 3.97644
15.609 41.8203 0.0241433
12.9945 42.2018 2
10.5873 42.7224 3.97611
13.3093 44.2794 0.0245787
10.9965 44.7209 2
8.61366 45.2753 3.97548
11.4121 46.6301 0.0247519
9.14499 47.261 2
6.78106 47.9866 3.96452
9.7674 49.173 0.0284231
7.49939 50.0164 2
5.21559 50.9121 3.97166
8.34618 51.9795 0.0370255
6.13932 53.0059 2
3.86727 54.0858 4
7.19922 55.0336 0.0285668
5.02404 56.25 2
6.31991 58.3339 0
13.4986 29.1612 3.9744
11.7801 26.6011 3.97463
14.022 26.9765 2
10.4333 24.0425 3.97107
12.3348 24.9166 2
13.7202 25.528 0.0239848
9.34052 21.1693 3.96224
11.3899 22.3228 2
13.227 23.4263 0.026182
12.4689 20.6476 0.0356823
10.4954 19.3562 2
8.42303 18.0306 3.97056
11.7105 17.5976 0.0418597
9.76616 16.167 2
7.74928 14.6715 4
11.2265 14.3815 0.0343924
9.30602 12.7745 2
10.9835 10.9835 0
15.2584 32.9531 3.97619
18.9241 33.2358 2
21.9152 33.5712 0.0234572
16.2852 29.819 2
16.6555 26.6327 0.0257738
19.4306 30.409 0.0252946
13.5404 36.2288 3.97659
15.7394 36.0517 2
18.7541 36.0191 0.0223236
13.2278 37.8265 2
11.792 38.3004 3.97657
15.0903 39.1427 0.0231489
12.4814 40.1017 2
10.1545 40.7218 3.97657
12.9955 42.2021 0.0240619
10.5885 42.7219 2
8.15726 43.2365 3.97613
10.9953 44.7213 0.0240343
8.61708 45.2743 2
6.1777 45.8951 3.96483
9.14275 47.2621 0.0257497
6.77871 47.9858 2
4.42653 48.7521 3.97157
7.50189 50.0173 0.0359336
5.21583 50.9098 2
2.85457 51.8506 4
6.13943 53.009 0.0283245
3.86727 54.0858 2
5.0241 56.25 0
12.618 31.3398 3.97569
11.1879 28.509 3.97516
13.4986 29.161 2
9.63752 25.8611 3.97377
11.7806 26.6013 2
14.0235 26.9761 0.0250302
8.30736 23.0458 3.96405
10.4354 24.0424 2
12.333 24.9175 0.0248259
7.20506 19.9781 3.9717
9.34611 21.1704 2
11.3912 22.3243 0.0324152
10.4859 19.3556 0.0398509
8.42233 18.0351 2
6.31992 16.6661 4
9.767 16.1623 0.0308456
7.74926 14.6714 2
9.30607 12.7746 0
12.6575 34.3427 3.97661
15.2578 32.9538 2
18.9234 33.2344 0.0244121
16.2856 29.8192 0.0249146
11.3157 36.6242 3.97652
13.5401 36.2288 2
15.7388 36.0518 0.0228847
13.2288 37.8267 0.0230091
11.7912 38.3001 2
9.72519 38.8113 3.97686
12.4825 40.1016 0.023564
10.1553 40.7214 2
7.75769 41.1906 3.9763
10.5873 42.7224 0.0238877
8.15974 43.2356 2
5.67873 43.7612 3.96548
8.61366 45.2753 0.0245221
6.17382 45.8946 2
3.7716 46.5371 3.97205
6.78106 47.9866 0.0354842
4.42713 48.7504 2
1.99014 49.554 4
5.21559 50.9121 0.0283358
2.85451 51.8506 2
3.86727 54.0858 0
11.3972 32.9769 3.97644
10.4844 30.4496 3.97567
12.6167 31.34 2
8.93592 27.7834 3.97438
11.1891 28.5094 2
13.4986 29.1612 0.0255999
7.41743 24.999 3.96456
9.64031 25.8615 2
11.7801 26.6011 0.0253729
6.12156 22.0004 3.97221
8.3084 23.0467 2
10.4333 24.0425 0.0289317
5.02411 18.75 4
7.20468 19.9818 2
9.34052 21.1693 0.0377573
8.42303 18.0306 0.0294409
6.3199 16.6661 2
7.74928 14.6715 0
10.8903 35.0273 3.97637
12.6562 34.3427 2
15.2584 32.9531 0.0238094
9.37302 36.9897 3.97691
11.315 36.6242 2
13.5404 36.2288 0.0234088
11.792 38.3004 0.0234316
9.72624 38.811 2
7.42157 39.1732 3.9763
10.1545 40.7218 0.0234341
7.76119 41.1899 2
5.28671 41.6098 3.9659
8.15726 43.2365 0.0238657
5.67598 43.7607 2
3.249 44.2817 3.97291
6.1777 45.8951 0.0351664
3.77246 46.5359 2
1.27781 47.2057 4
4.42653 48.7521 0.0284317
1.99012 49.554 2
2.85457 51.8506 0
10.5101 33.9184 3.97617
9.74408 32.2012 3.97633
11.3968 32.9772 2
8.26769 29.7345 3.97484
10.4855 30.45 2
12.618 31.3398 0.0243053
6.64718 27.0207 3.96454
8.93899 27.784 2
11.1879 28.509 0.024836
5.17627 24.0934 3.97201
7.41556 24.9995 2
9.63752 25.8611 0.0262331
3.86728 20.9142 4
6.12159 22.0031 2
8.30736 23.0458 0.0359469
5.02406 18.75 2
7.20506 19.9781 0.028304
6.31992 16.6661 0
9.17979 35.2983 3.97694
10.8897 35.0273 2
12.6575 34.3427 0.0233864
7.1887 37.2071 3.97596
9.3744 36.9896 2
11.3157 36.6242 0.0234825
9.72519 38.8113 0.0231367
7.42484 39.1727 2
5.00815 39.4658 3.96621
7.75769 41.1906 0.0237023
5.28449 41.6094 2
2.85921 42.002 3.97347
5.67873 43.7612 0.034523
3.24969 44.2808 2
0.720592 44.8159 4
3.7716 46.5371 0.0279544
1.27778 47.2057 2
1.99014 49.554 0
9.21489 33.7285 3.97691
10.5102 33.9186 2
7.69193 31.637 3.97521
9.74624 32.2018 2
11.3972 32.9769 0.0235632
5.9812 29.0787 3.96476
8.27053 29.7353 2
10.4844 30.4496 0.0243325
4.36314 26.2467 3.9721
6.64398 27.0211 2
8.93592 27.7834 0.0256211
2.85458 23.1494 4
5.17665 24.0952 2
7.41743 24.999 0.0354407
3.86728 20.9142 2
6.12156 22.0004 0.0277901
5.02411 18.75 0
7.13026 35.3159 3.97565
9.18178 35.2985 2
10.8903 35.0273 0.0236326
4.85273 37.3406 3.96626
7.19174 37.2069 2
9.37302 36.9897 0.02309
7.42157 39.1732 0.0236986
5.00578 39.4656 2
2.60707 39.7137 3.97387
5.28671 41.6098 0.0341018
2.86018 42.0015 2
0.320823 42.3947 4
3.249 44.2817 0.0270876
0.720551 44.8159 2
1.27781 47.2057 0
7.29322 33.4791 3.97549
9.21712 33.7289 2
10.5101 33.9184 0.0238328
5.44039 31.1401 3.96526
7.69456 31.6376 2
9.74408 32.2012 0.0236677
3.68426 28.4435 3.97246
5.977 29.0791 2
8.26769 29.7345 0.0251609
1.99015 25.446 4
4.36376 26.248 2
6.64718 27.0207 0.0354649
2.85453 23.1494 2
5.17627 24.0934 0.027988
3.86728 20.9142 0
4.86502 35.2543 3.966
7.13226 35.316 2
9.17979 35.2983 0.0230557
2.49851 37.4286 3.97468
4.84995 37.3406 2
7.1887 37.2071 0.0240436
5.00815 39.4658 0.0337865
2.60819 39.7138 2
0.080333 39.9526 4
2.85921 42.002 0.0265311
0.320817 42.3947 2
0.720592 44.8159 0
5.06108 33.1947 3.9657
7.29517 33.4795 2
9.21489 33.7285 0.0230905
3.14824 30.6668 3.97315
5.43593 31.1404 2
7.69193 31.637 0.0247855
1.27793 27.7943 4
3.68518 28.4446 2
5.9812 29.0787 0.0352355
1.99013 25.446 2
4.36314 26.2467 0.0278994
2.85458 23.1494 0
2.5505 35.1595 3.97449
4.86323 35.2546 2
7.13026 35.3159 0.0243456
0 37.5 4
2.49917 37.4289 2
4.85273 37.3406 0.0337443
2.60707 39.7137 0.0261285
0.0802903 39.9526 2
0.320823 42.3947 0
2.76823 32.9064 3.9742
5.05851 33.1951 2
7.29322 33.4791 0.0245109
0.721173 30.1842 4
3.14933 30.6677 2
5.44039 31.1401 0.0347375
1.27779 27.7943 2
3.68426 28.4435 0.0275392
1.99015 25.446 0
0.0806499 35.0474 4
2.55175 35.1599 2
4.86502 35.2543 0.034003
0 37.5 2
2.49851 37.4286 0.0253211
0.080333 39.9526 0
0.32156 32.6054 4
2.76898 32.9072 2
5.06108 33.1947 0.034303
0.72056 30.1841 2
3.14824 30.6668 0.0268524
1.27793 27.7943 0
0.0802889 35.0474 2
2.5505 35.1595 0.0255053
0 37.5 0
0.320817 32.6053 2
2.76823 32.9064 0.0257959
0.721173 30.1842 0
0.0806499 35.0474 0
0.32156 32.6054 0
CELLS 1910 17190
8 18 6 25 56 2 0 5 16
8 57 23 6 18 17 4 0 2
8 78 36 9 29 31 11 1 7
8 31 11 1 7 79 37 10 30
8 110 57 18 50 48 17 2 14
8 50 18 56 111 14 2 16 49
8 116 62 22 55 52 20 3 15
8 56 25 67 118 16 5 24 53
8 119 63 23 57 54 21 4 17
8 55 22 63 119 15 3 21 54
8 58 26 68 121 18 6 25 56
8 122 65 26 58 57 23 6 18
8 73 31 7 27 142 79 30 71
8 143 78 29 72 73 31 7 27
8 83 147 76 34 32 74 28 8
8 84 148 78 36 33 75 29 9
8 76 34 8 28 148 84 33 75
8 37 79 150 86 10 30 77 35
8 151 87 36 78 80 38 11 31
8 80 38 11 31 152 88 37 79
8 175 100 42 94 96 44 12 40
8 44 96 176 101 12 40 95 43
8 101 176 98 46 43 95 41 13
8 46 98 178 103 13 41 97 45
8 178 103 45 97 147 83 32 74
8 189 116 55 109 106 52 15 47
8 111 56 118 191 49 16 53 107
8 192 119 57 110 108 54 17 48
8 109 55 119 192 47 15 54 108
8 194 122 58 112 110 57 18 50
8 112 58 121 195 50 18 56 111
8 115 61 19 51 197 124 59 113
8 115 61 125 198 51 19 60 114
8 198 125 62 116 114 60 20 52
8 200 127 64 120 116 62 22 55
8 118 67 132 202 53 24 66 117
8 121 68 133 203 56 25 67 118
8 120 64 128 204 55 22 63 119
8 204 128 65 122 119 63 23 57
8 206 134 68 121 123 69 26 58
8 123 69 26 58 207 131 65 122
8 226 147 74 138 140 76 28 70
8 229 148 75 139 143 78 29 72
8 140 76 28 70 229 148 75 139
8 142 79 30 71 231 150 77 141
8 144 80 31 73 232 152 79 142
8 233 151 78 143 144 80 31 73
8 150 86 35 77 235 154 81 145
8 235 154 81 145 146 82 39 91
8 146 82 39 91 236 155 90 165
8 238 157 83 147 149 85 34 76
8 239 158 84 148 151 87 36 78
8 149 85 34 76 239 158 84 148
8 152 88 37 79 241 160 86 150
8 242 161 87 151 153 89 38 80
8 153 89 38 80 243 162 88 152
8 171 98 41 92 265 178 97 169
8 265 178 97 169 226 147 74 138
8 172 96 40 93 266 176 95 170
8 266 176 95 170 171 98 41 92
8 269 175 94 173 172 96 40 93
8 271 180 99 174 175 100 42 94
8 197 124 59 113 271 180 99 174
8 272 181 100 175 177 102 44 96
8 273 182 101 176 179 104 46 98
8 177 102 44 96 273 182 101 176
8 179 104 46 98 275 184 103 178
8 275 184 103 178 238 157 83 147
8 188 115 51 105 283 197 113 186
8 188 115 198 284 105 51 114 187
8 284 198 116 189 187 114 52 106
8 286 200 120 193 189 116 55 109
8 191 118 202 288 107 53 117 190
8 195 121 203 289 111 56 118 191
8 193 120 204 290 109 55 119 192
8 290 204 122 194 192 119 57 110
8 196 123 58 112 292 207 122 194
8 293 206 121 195 196 123 58 112
8 199 126 61 115 297 211 124 197
8 298 212 127 200 198 125 62 116
8 199 126 212 298 115 61 125 198
8 205 129 64 120 300 214 127 200
8 301 217 130 201 202 132 66 117
8 209 136 168 264 301 217 130 201
8 302 219 132 202 203 133 67 118
8 303 220 133 203 206 134 68 121
8 205 129 215 304 120 64 128 204
8 304 215 131 207 204 128 65 122
8 306 221 134 206 208 135 69 123
8 208 135 69 123 307 218 131 207
8 210 137 167 263 309 223 136 209
8 328 238 147 226 230 149 76 140
8 228 146 91 166 329 236 165 260
8 231 150 77 141 330 235 145 227
8 330 235 145 227 228 146 91 166
8 332 239 148 229 233 151 78 143
8 230 149 76 140 332 239 148 229
8 232 152 79 142 334 241 150 231
8 234 153 80 144 335 243 152 232
8 336 242 151 233 234 153 80 144
8 236 155 90 165 338 245 164 259
8 241 160 86 150 339 246 154 235
8 339 246 154 235 237 156 82 146
8 237 156 82 146 340 247 155 236
8 342 249 157 238 240 159 85 149
8 343 250 158 239 242 161 87 151
8 240 159 85 149 343 250 158 239
8 243 162 88 152 345 252 160 241
8 244 163 253 346 153 89 161 242
8 244 163 89 153 347 254 162 243
8 311 224 261 371 210 137 167 263
8 263 167 262 372 209 136 168 264
8 267 179 98 171 375 275 178 265
8 375 275 178 265 328 238 147 226
8 376 273 176 266 267 179 98 171
8 268 177 96 172 376 273 176 266
8 379 272 175 269 268 177 96 172
8 380 271 174 270 269 175 94 173
8 283 197 113 186 380 271 174 270
8 381 277 180 271 272 181 100 175
8 297 211 124 197 381 277 180 271
8 382 278 181 272 274 183 102 177
8 274 183 102 177 383 279 182 273
8 383 279 182 273 276 185 104 179
8 385 281 184 275 342 249 157 238
8 276 185 104 179 385 281 184 275
8 285 199 115 188 393 297 197 283
8 394 298 200 286 284 198 116 189
8 285 199 298 394 188 115 198 284
8 291 205 120 193 396 300 200 286
8 397 301 201 287 288 202 117 190
8 295 209 264 374 397 301 201 287
8 398 302 202 288 289 203 118 191
8 399 303 203 289 293 206 121 195
8 291 205 304 400 193 120 204 290
8 400 304 207 292 290 204 122 194
8 294 208 123 196 402 307 207 292
8 403 306 206 293 294 208 123 196
8 296 210 263 373 405 309 209 295
8 408 312 213 299 297 211 126 199
8 299 213 313 409 199 126 212 298
8 409 313 214 300 298 212 127 200
8 305 216 129 205 411 315 214 300
8 412 318 217 301 302 219 132 202
8 309 223 136 209 412 318 217 301
8 413 320 219 302 303 220 133 203
8 306 221 321 414 206 134 220 303
8 307 218 131 207 415 316 215 304
8 305 216 316 415 205 129 215 304
8 417 322 221 306 308 222 135 208
8 308 222 135 208 418 319 218 307
8 310 225 137 210 420 325 223 309
8 423 326 224 311 310 225 137 210
8 329 236 165 260 441 338 259 368
8 442 342 238 328 333 240 149 230
8 331 237 146 228 443 340 236 329
8 334 241 150 231 444 339 235 330
8 444 339 235 330 331 237 146 228
8 446 343 239 332 336 242 151 233
8 333 240 149 230 446 343 239 332
8 335 243 152 232 448 345 241 334
8 337 244 153 234 449 347 243 335
8 337 244 346 450 234 153 242 336
8 338 245 164 259 452 349 258 367
8 340 247 155 236 453 350 245 338
8 345 252 160 241 454 351 246 339
8 454 351 246 339 341 248 156 237
8 341 248 156 237 455 352 247 340
8 240 159 251 344 342 249 354 457
8 242 161 253 346 343 250 355 458
8 343 250 355 458 240 159 251 344
8 347 254 162 243 460 357 252 345
8 348 255 358 461 244 163 253 346
8 348 255 163 244 462 359 254 347
8 473 360 257 365 363 256 364 482
8 452 349 258 367 365 257 366 485
8 422 324 369 488 311 224 261 371
8 371 261 370 490 263 167 262 372
8 407 311 371 491 296 210 263 373
8 373 263 372 492 295 209 264 374
8 493 385 275 375 442 342 238 328
8 377 276 179 267 493 385 275 375
8 378 274 177 268 494 383 273 376
8 494 383 273 376 377 276 179 267
8 497 382 272 379 378 274 177 268
8 498 381 271 380 379 272 175 269
8 393 297 197 283 498 381 271 380
8 499 387 277 381 382 278 181 272
8 408 312 211 297 499 387 277 381
8 500 388 278 382 384 280 183 274
8 501 389 279 383 386 282 185 276
8 384 280 183 274 501 389 279 383
8 386 282 185 276 503 391 281 385
8 503 391 281 385 457 354 249 342
8 511 408 299 395 393 297 199 285
8 395 299 409 512 285 199 298 394
8 512 409 300 396 394 298 200 286
8 401 305 205 291 514 411 300 396
8 515 412 301 397 398 302 202 288
8 405 309 209 295 515 412 301 397
8 516 413 302 398 399 303 203 289
8 403 306 414 517 293 206 303 399
8 402 307 207 292 518 415 304 400
8 401 305 415 518 291 205 304 400
8 404 308 208 294 520 418 307 402
8 521 417 306 403 404 308 208 294
8 406 310 210 296 523 420 309 405
8 526 423 311 407 406 310 210 296
8 410 314 213 299 527 424 312 408
8 528 425 315 411 409 313 214 300
8 410 314 425 528 299 213 313 409
8 416 317 216 305 530 427 315 411
8 531 430 318 412 413 320 219 302
8 420 325 223 309 531 430 318 412
8 532 432 320 413 414 321 220 303
8 417 322 433 533 306 221 321 414
8 418 319 218 307 534 428 316 415
8 416 317 428 534 305 216 316 415
8 419 323 434 536 308 222 322 417
8 419 323 222 308 537 431 319 418
8 421 327 225 310 539 438 325 420
8 421 327 439 541 310 225 326 423
8 543 437 324 422 423 326 224 311
8 441 338 259 368 559 452 367 486
8 443 340 236 329 560 453 338 441
8 333 240 344 447 442 342 457 561
8 445 341 237 331 562 455 340 443
8 448 345 241 334 563 454 339 444
8 563 454 339 444 445 341 237 331
8 336 242 346 450 446 343 458 565
8 446 343 458 565 333 240 344 447
8 449 347 243 335 567 460 345 448
8 451 348 244 337 568 462 347 449
8 451 348 461 569 337 244 346 450
8 570 463 349 452 473 360 257 365
8 453 350 245 338 570 463 349 452
8 455 352 247 340 571 464 350 453
8 460 357 252 345 572 465 351 454
8 572 465 351 454 456 353 248 341
8 456 353 248 341 573 466 352 455
8 344 251 356 459 457 354 468 575
8 458 355 469 576 344 251 356 459
8 346 253 358 461 458 355 469 576
8 462 359 254 347 578 471 357 460
8 348 255 359 462 461 358 472 579
8 591 474 360 473 475 361 256 363
8 475 361 256 363 594 477 362 479
8 363 256 364 482 479 362 480 603
8 590 473 365 484 481 363 482 605
8 482 364 257 365 606 483 366 485
8 559 452 367 486 484 365 485 607
8 542 436 487 609 422 324 369 488
8 525 422 488 611 407 311 371 491
8 488 369 489 612 371 261 370 490
8 491 371 490 613 373 263 372 492
8 495 386 276 377 614 503 385 493
8 614 503 385 493 561 457 342 442
8 615 501 383 494 495 386 276 377
8 496 384 274 378 615 501 383 494
8 618 500 382 497 496 384 274 378
8 619 499 381 498 497 382 272 379
8 511 408 297 393 619 499 381 498
8 620 505 387 499 500 388 278 382
8 527 424 312 408 620 505 387 499
8 502 390 506 621 384 280 388 500
8 622 507 389 501 504 392 282 386
8 502 390 280 384 622 507 389 501
8 504 392 282 386 624 509 391 503
8 624 509 391 503 575 468 354 457
8 513 410 299 395 630 527 408 511
8 631 528 411 514 512 409 300 396
8 513 410 528 631 395 299 409 512
8 519 416 305 401 633 530 411 514
8 634 531 412 515 516 413 302 398
8 523 420 309 405 634 531 412 515
8 635 532 413 516 517 414 303 399
8 521 417 533 636 403 306 414 517
8 520 418 307 402 637 534 415 518
8 519 416 534 637 401 305 415 518
8 522 419 308 404 639 537 418 520
8 522 419 536 640 404 308 417 521
8 524 421 310 406 642 539 420 523
8 524 421 541 644 406 310 423 526
8 646 543 422 525 526 423 311 407
8 529 426 314 410 647 544 424 527
8 528 425 545 648 411 315 427 530
8 529 426 545 648 410 314 425 528
8 535 429 317 416 649 546 427 530
8 650 548 430 531 532 432 320 413
8 539 438 325 420 650 548 430 531
8 533 433 550 651 414 321 432 532
8 536 434 551 652 417 322 433 533
8 537 431 319 418 653 547 428 534
8 535 429 547 653 416 317 428 534
8 538 435 552 654 419 323 434 536
8 538 435 323 419 655 549 431 537
8 540 440 327 421 657 556 438 539
8 540 440 557 659 421 327 439 541
8 541 439 555 660 423 326 437 543
8 661 554 436 542 543 437 324 422
8 676 570 452 559 590 473 365 484
8 560 453 338 441 676 570 452 559
8 562 455 340 443 677 571 453 560
8 447 344 459 566 561 457 575 678
8 564 456 341 445 679 573 455 562
8 567 460 345 448 680 572 454 563
8 680 572 454 563 564 456 341 445
8 565 458 576 682 447 344 459 566
8 450 346 461 569 565 458 576 682
8 568 462 347 449 684 578 460 567
8 451 348 462 568 569 461 579 685
8 686 580 463 570 591 474 360 473
8 571 464 350 453 686 580 463 570
8 573 466 352 455 687 581 464 571
8 572 465 582 688 460 357 471 578
8 574 467 582 688 456 353 465 572
8 574 467 353 456 689 583 466 573
8 459 356 470 577 575 468 585 691
8 576 469 586 692 459 356 470 577
8 461 358 472 579 576 469 586 692
8 462 359 471 578 579 472 588 694
8 704 591 473 590 593 475 363 481
8 595 476 592 705 475 361 474 591
8 593 475 363 481 707 594 479 602
8 594 477 362 479 709 598 478 600
8 595 476 361 475 711 597 477 594
8 479 362 480 603 600 478 601 720
8 481 363 482 605 602 479 603 722
8 603 480 364 482 723 604 483 606
8 605 482 365 484 724 606 485 607
8 656 553 608 726 542 436 487 609
8 645 542 609 728 525 422 488 611
8 609 487 610 729 488 369 489 612
8 611 488 612 730 491 371 490 613
8 616 504 386 495 731 624 503 614
8 731 624 503 614 678 575 457 561
8 732 622 501 615 616 504 386 495
8 617 502 384 496 732 622 501 615
8 617 502 621 735 496 384 500 618
8 736 620 499 619 618 500 382 497
8 630 527 408 511 736 620 499 619
8 621 506 626 737 500 388 505 620
8 647 544 424 527 737 626 505 620
8 623 508 627 738 502 390 506 621
8 623 508 390 502 739 628 507 622
8 625 510 628 739 504 392 507 622
8 740 629 509 624 691 585 468 575
8 625 510 392 504 740 629 509 624
8 632 529 410 513 744 647 527 630
8 631 528 648 745 514 411 530 633
8 632 529 648 745 513 410 528 631
8 638 535 416 519 746 649 530 633
8 747 650 531 634 635 532 413 516
8 642 539 420 523 747 650 531 634
8 636 533 651 748 517 414 532 635
8 640 536 652 749 521 417 533 636
8 639 537 418 520 750 653 534 637
8 638 535 653 750 519 416 534 637
8 641 538 419 522 751 655 537 639
8 641 538 654 752 522 419 536 640
8 643 540 421 524 753 657 539 642
8 643 540 659 755 524 421 541 644
8 644 541 660 757 526 423 543 646
8 758 661 542 645 646 543 422 525
8 529 426 544 647 648 545 662 759
8 530 427 545 648 649 546 663 760
8 535 429 546 649 653 547 664 761
8 762 666 548 650 651 550 432 532
8 657 556 438 539 762 666 548 650
8 652 551 668 763 533 433 550 651
8 654 552 669 764 536 434 551 652
8 655 549 431 537 765 665 547 653
8 538 435 549 655 654 552 667 766
8 661 554 671 768 542 436 553 656
8 658 558 440 540 769 674 556 657
8 658 558 675 770 540 440 557 659
8 659 557 673 771 541 439 555 660
8 660 555 672 772 543 437 554 661
8 788 686 570 676 704 591 473 590
8 677 571 453 560 788 686 570 676
8 679 573 455 562 789 687 571 677
8 566 459 577 683 678 575 691 790
8 681 574 456 564 791 689 573 679
8 680 572 688 792 567 460 578 684
8 681 574 688 792 564 456 572 680
8 682 576 692 794 566 459 577 683
8 569 461 579 685 682 576 692 794
8 568 462 578 684 685 579 694 796
8 687 581 464 571 798 696 580 686
8 798 696 580 686 705 592 474 591
8 689 583 466 573 799 697 581 687
8 688 582 698 800 578 471 588 694
8 690 584 698 800 574 467 582 688
8 690 584 467 574 801 699 583 689
8 693 587 701 803 577 470 585 691
8 693 587 470 577 804 702 586 692
8 695 589 702 804 579 472 586 692
8 695 589 472 579 805 703 588 694
8 708 595 705 813 593 475 591 704
8 710 596 706 814 595 476 592 705
8 707 594 479 602 816 709 600 719
8 708 595 475 593 817 711 594 707
8 709 598 478 600 819 715 599 717
8 711 597 477 594 820 714 598 709
8 710 596 476 595 822 713 597 711
8 600 478 601 720 717 599 718 832
8 602 479 603 722 719 600 720 834
8 720 601 480 603 835 721 604 723
8 722 603 482 605 836 723 606 724
8 767 670 725 839 656 553 608 726
8 756 656 726 841 645 542 609 728
8 726 608 727 842 609 487 610 729
8 728 609 729 843 611 488 612 730
8 844 740 624 731 790 691 575 678
8 733 625 504 616 844 740 624 731
8 734 623 502 617 845 739 622 732
8 733 625 739 845 616 504 622 732
8 734 623 738 846 617 502 621 735
8 735 621 737 847 618 500 620 736
8 744 647 527 630 847 737 620 736
8 621 506 627 738 737 626 741 848
8 647 544 626 737 759 662 741 848
8 623 508 628 739 738 627 742 849
8 740 629 585 691 850 743 700 802
8 625 510 629 740 739 628 743 850
8 632 529 647 744 745 648 759 854
8 633 530 648 745 746 649 760 855
8 638 535 649 746 750 653 761 856
8 857 762 650 747 748 651 532 635
8 753 657 539 642 857 762 650 747
8 749 652 763 858 636 533 651 748
8 752 654 764 859 640 536 652 749
8 751 655 537 639 860 765 653 750
8 641 538 655 751 752 654 766 861
8 754 658 540 643 862 769 657 753
8 754 658 770 863 643 540 659 755
8 755 659 771 864 644 541 660 757
8 758 661 768 866 645 542 656 756
8 757 660 772 867 646 543 661 758
8 759 662 773 868 648 545 663 760
8 649 546 663 760 761 664 774 871
8 765 665 547 653 872 775 664 761
8 873 777 666 762 763 668 550 651
8 769 674 556 657 873 777 666 762
8 764 669 779 874 652 551 668 763
8 654 552 667 766 764 669 778 875
8 655 549 665 765 766 667 776 876
8 768 671 782 877 656 553 670 767
8 772 672 783 878 661 554 671 768
8 658 558 674 769 770 675 786 879
8 659 557 675 770 771 673 785 881
8 882 784 672 772 771 673 555 660
8 789 687 571 677 897 798 686 788
8 897 798 686 788 813 705 591 704
8 791 689 573 679 898 799 687 789
8 795 693 803 900 683 577 691 790
8 793 690 574 681 901 801 689 791
8 792 688 800 902 684 578 694 796
8 793 690 800 902 681 574 688 792
8 795 693 577 683 903 804 692 794
8 797 695 804 903 685 579 692 794
8 797 695 579 685 904 805 694 796
8 905 806 697 799 798 696 581 687
8 814 706 806 905 705 592 696 798
8 689 583 697 799 801 699 808 907
8 800 698 809 908 694 588 703 805
8 690 584 699 801 800 698 809 908
8 803 701 810 909 691 585 700 802
8 693 587 702 804 803 701 811 910
8 695 589 703 805 804 702 812 911
8 818 710 814 919 708 595 705 813
8 821 712 815 920 710 596 706 814
8 816 709 600 719 922 819 717 831
8 817 711 594 707 923 820 709 816
8 818 710 595 708 924 822 711 817
8 819 715 599 717 926 827 716 829
8 820 714 598 709 927 826 715 819
8 929 825 713 822 820 714 597 711
8 821 712 596 710 930 824 713 822
8 717 599 718 832 829 716 830 942
8 719 600 720 834 831 717 832 944
8 832 718 601 720 945 833 721 835
8 834 720 603 722 946 835 723 836
8 869 780 838 950 767 670 725 839
8 865 767 839 952 756 656 726 841
8 839 725 840 953 726 608 727 842
8 841 726 842 954 728 609 729 843
8 844 740 691 790 955 850 802 899
8 733 625 740 844 845 739 850 955
8 734 623 739 845 846 738 849 956
8 735 621 738 846 847 737 848 957
8 744 647 737 847 854 759 848 957
8 738 627 742 849 848 741 851 958
8 848 741 851 958 759 662 773 868
8 850 743 700 802 959 852 807 906
8 849 742 628 739 959 852 743 850
8 854 759 868 965 745 648 760 855
8 746 649 760 855 856 761 871 966
8 860 765 653 750 967 872 761 856
8 968 873 762 857 858 763 651 748
8 862 769 657 753 968 873 762 857
8 859 764 874 969 749 652 763 858
8 752 654 766 861 859 764 875 970
8 751 655 765 860 861 766 876 971
8 754 658 769 862 863 770 879 972
8 755 659 770 863 864 771 881 974
8 976 882 772 867 864 771 660 757
8 866 768 877 977 756 656 767 865
8 867 772 878 978 758 661 768 866
8 760 663 773 868 871 774 883 980
8 870 781 837 948 982 890 780 869
8 982 890 780 869 877 782 670 767
8 761 664 774 871 872 775 884 984
8 876 776 665 765 985 885 775 872
8 873 777 668 763 986 887 779 874
8 769 674 777 873 879 786 887 986
8 764 669 778 875 874 779 888 987
8 766 667 776 876 875 778 886 988
8 878 783 892 989 768 671 782 877
8 878 783 672 772 990 893 784 882
8 880 787 675 770 991 896 786 879
8 880 787 895 992 770 675 785 881
8 881 785 894 993 771 673 784 882
8 1006 905 799 898 897 798 687 789
8 919 814 905 1006 813 705 798 897
8 791 689 799 898 901 801 907 1007
8 900 803 909 1009 790 691 802 899
8 795 693 804 903 900 803 910 1010
8 902 800 908 1011 796 694 805 904
8 793 690 801 901 902 800 908 1011
8 797 695 805 904 903 804 911 1012
8 799 697 806 905 907 808 912 1013
8 920 815 912 1013 814 706 806 905
8 802 700 810 909 906 807 913 1014
8 801 699 808 907 908 809 914 1015
8 805 703 809 908 911 812 915 1016
8 803 701 811 910 909 810 916 1017
8 911 812 917 1018 804 702 811 910
8 925 821 920 1030 818 710 814 919
8 928 823 921 1031 821 712 815 920
8 922 819 717 831 1033 926 829 941
8 923 820 709 816 1034 927 819 922
8 1035 929 822 924 923 820 711 817
8 925 821 710 818 1036 930 822 924
8 1038 933 825 929 927 826 714 820
8 926 827 716 829 1039 935 828 939
8 927 826 715 819 1040 934 827 926
8 928 823 712 821 1041 931 824 930
8 1042 932 824 930 929 825 713 822
8 829 716 830 942 939 828 940 1058
8 831 717 832 944 941 829 942 1060
8 942 830 718 832 1061 943 833 945
8 944 832 720 834 1062 945 835 946
8 981 889 947 1064 870 781 837 948
8 948 837 949 1067 869 780 838 950
8 975 869 950 1069 865 767 839 952
8 950 838 951 1070 839 725 840 953
8 952 839 953 1071 841 726 842 954
8 955 850 802 899 1072 959 906 1008
8 956 849 739 845 1072 959 850 955
8 846 738 849 956 957 848 958 1073
8 957 848 958 1073 854 759 868 965
8 849 742 852 959 958 851 961 1076
8 960 853 961 1076 906 807 852 959
8 958 851 961 1076 868 773 883 980
8 960 853 807 906 1077 963 913 1014
8 855 760 868 965 966 871 980 1085
8 856 761 871 966 967 872 984 1086
8 971 876 765 860 1087 985 872 967
8 968 873 763 858 1088 986 874 969
8 862 769 873 968 972 879 986 1088
8 859 764 875 970 969 874 987 1089
8 861 766 876 971 970 875 988 1090
8 973 880 770 863 1091 991 879 972
8 973 880 992 1092 863 770 881 974
8 974 881 993 1093 864 771 882 976
8 979 870 948 1066 1094 982 869 975
8 1094 982 869 975 977 877 767 865
8 978 878 772 867 1095 990 882 976
8 978 878 989 1096 866 768 877 977
8 871 774 883 980 984 884 994 1099
8 983 891 999 1100 870 781 889 981
8 1101 1000 890 982 989 892 782 877
8 983 891 781 870 1101 1000 890 982
8 872 775 884 984 985 885 995 1103
8 876 776 885 985 988 886 996 1104
8 986 887 779 874 1105 998 888 987
8 879 786 887 986 991 896 998 1105
8 875 778 886 988 987 888 997 1106
8 990 893 1002 1107 878 783 892 989
8 1108 1003 893 990 993 894 784 882
8 880 787 896 991 992 895 1005 1109
8 993 894 785 881 1110 1004 895 992
8 898 799 905 1006 1007 907 1013 1120
8 1030 920 1013 1120 919 814 905 1006
8 901 801 907 1007 1011 908 1015 1121
8 899 802 909 1009 1008 906 1014 1122
8 900 803 910 1010 1009 909 1017 1123
8 1012 911 1018 1124 903 804 910 1010
8 904 805 908 1011 1012 911 1016 1125
8 1013 912 1020 1127 907 808 914 1015
8 1031 921 1020 1127 920 815 912 1013
8 1019 918 962 1075 1128 1021 913 1014
8 1128 1021 913 1014 1017 916 810 909
8 1015 914 1022 1129 908 809 915 1016
8 1016 915 1023 1130 911 812 917 1018
8 1018 917 1024 1131 910 811 916 1017
8 1037 928 1031 1148 925 821 920 1030
8 928 823 931 1041 1031 921 1032 1149
8 1033 926 829 941 1151 1039 939 1057
8 1034 927 819 922 1152 1040 926 1033
8 1153 1038 929 1035 1034 927 820 923
8 1154 1042 930 1036 1035 929 822 924
8 1037 928 821 925 1155 1041 930 1036
8 1039 935 828 939 1156 1047 938 1055
8 1157 1043 932 1042 1038 933 825 929
8 1038 933 826 927 1158 1045 934 1040
8 1040 934 827 926 1159 1046 935 1039
8 930 824 932 1042 1041 931 1044 1160
8 1051 936 1048 1165 1175 1052 937 1053
8 1156 1047 938 1055 1053 937 1054 1178
8 939 828 940 1058 1055 938 1056 1181
8 941 829 942 1060 1057 939 1058 1183
8 942 830 943 1061 1058 940 1059 1184
8 1060 942 832 944 1185 1061 945 1062
8 1082 964 1063 1188 981 889 947 1064
8 1097 981 1064 1190 979 870 948 1066
8 1064 947 1065 1191 948 837 949 1067
8 1066 948 1067 1193 975 869 950 1069
8 1067 949 1068 1194 950 838 951 1070
8 1069 950 1070 1195 952 839 953 1071
8 956 849 959 1072 1073 958 1076 1197
8 1074 960 1076 1197 1008 906 959 1072
8 1073 958 1076 1197 965 868 980 1085
8 1074 960 906 1008 1198 1077 1014 1122
8 1133 1026 1079 1199 1019 918 962 1075
8 1077 963 913 1014 1200 1080 962 1075
8 960 853 963 1077 1076 961 1078 1201
8 980 883 961 1076 1099 994 1078 1201
8 1210 1083 964 1082 1100 999 889 981
8 966 871 980 1085 1086 984 1099 1215
8 967 872 984 1086 1087 985 1103 1216
8 971 876 985 1087 1090 988 1104 1217
8 1088 986 874 969 1218 1105 987 1089
8 972 879 986 1088 1091 991 1105 1218
8 970 875 988 1090 1089 987 1106 1219
8 973 880 991 1091 1092 992 1109 1220
8 1093 993 881 974 1221 1110 992 1092
8 1222 1108 990 1095 1093 993 882 976
8 1223 1101 982 1094 1096 989 877 977
8 1098 983 870 979 1223 1101 982 1094
8 1095 990 1107 1224 978 878 989 1096
8 1098 983 1100 1225 979 870 981 1097
8 984 884 994 1099 1103 995 1111 1227
8 1102 1001 1115 1228 983 891 999 1100
8 1101 1000 892 989 1229 1116 1002 1107
8 1102 1001 891 983 1229 1116 1000 1101
8 985 885 995 1103 1104 996 1112 1230
8 988 886 996 1104 1106 997 1113 1231
8 1105 998 888 987 1232 1114 997 1106
8 991 896 998 1105 1109 1005 1114 1232
8 1108 1003 1117 1233 990 893 1002 1107
8 1108 1003 894 993 1233 1117 1004 1110
8 992 895 1005 1109 1110 1004 1118 1234
8 1120 1013 1127 1244 1007 907 1015 1121
8 1148 1031 1127 1244 1030 920 1013 1120
8 1121 1015 1129 1245 1011 908 1016 1125
8 1126 1019 1075 1196 1246 1128 1014 1122
8 1246 1128 1014 1122 1123 1017 909 1009
8 1124 1018 1131 1247 1010 910 1017 1123
8 1125 1016 1130 1248 1012 911 1018 1124
8 1127 1020 1137 1254 1015 914 1022 1129
8 1031 921 1032 1149 1127 1020 1137 1254
8 1134 1027 918 1019 1257 1140 1021 1128
8 1257 1140 1021 1128 1131 1024 916 1017
8 1129 1022 1141 1258 1016 915 1023 1130
8 1130 1023 1142 1259 1018 917 1024 1131
8 1261 1144 1025 1132 1133 1026 1079 1199
8 1255 1138 1025 1132 1135 1028 1144 1261
8 1133 1026 918 1019 1262 1145 1027 1134
8 1136 1029 1139 1256 1263 1146 1028 1135
8 1037 928 1041 1155 1148 1031 1149 1275
8 1041 931 1044 1160 1149 1032 1150 1276
8 1151 1039 939 1057 1278 1156 1055 1180
8 1152 1040 926 1033 1279 1159 1039 1151
8 1153 1038 927 1034 1280 1158 1040 1152
8 1281 1157 1042 1154 1153 1038 929 1035
8 1036 930 1042 1154 1155 1041 1160 1282
8 1283 1164 1046 1159 1156 1047 935 1039
8 1165 1048 1164 1283 1053 937 1047 1156
8 1157 1043 933 1038 1284 1161 1045 1158
8 1157 1043 1161 1284 1042 932 1044 1160
8 1040 934 1046 1159 1158 1045 1163 1285
8 1166 1049 1167 1292 1051 936 1048 1165
8 1166 1049 936 1051 1293 1168 1050 1172
8 1051 936 1052 1175 1172 1050 1173 1306
8 1174 1051 1165 1290 1308 1175 1053 1177
8 1053 937 1054 1178 1175 1052 1176 1309
8 1278 1156 1055 1180 1177 1053 1178 1311
8 1055 938 1056 1181 1178 1054 1179 1312
8 1057 939 1058 1183 1180 1055 1181 1314
8 1058 940 1059 1184 1181 1056 1182 1315
8 1060 942 1061 1185 1183 1058 1184 1316
8 1208 1081 1187 1321 1082 964 1063 1188
8 1209 1082 1188 1322 1097 981 1064 1190
8 1188 1063 1189 1323 1064 947 1065 1191
8 1190 1064 1191 1325 1066 948 1067 1193
8 1191 1065 1192 1326 1067 949 1068 1194
8 1067 1193 1069 950 1194 1327 1195 1070
8 1250 1133 1199 1330 1126 1019 1075 1196
8 1198 1077 1014 1122 1331 1200 1075 1196
8 1074 960 1077 1198 1197 1076 1201 1332
8 1085 980 1076 1197 1215 1099 1201 1332
8 1199 1079 1203 1333 1075 962 1080 1200
8 1132 1025 1119 1243 1199 1079 1203 1333
8 1201 1078 963 1077 1334 1202 1080 1200
8 1099 994 1078 1201 1227 1111 1202 1334
8 1343 1207 1081 1208 1210 1083 964 1082
8 1214 1084 1186 1319 1343 1207 1081 1208
8 1345 1210 1082 1209 1225 1100 981 1097
8 1346 1211 1083 1210 1228 1115 999 1100
8 1086 984 1099 1215 1216 1103 1227 1352
8 1087 985 1103 1216 1217 1104 1230 1353
8 1090 988 1104 1217 1219 1106 1231 1354
8 1218 1105 987 1089 1355 1232 1106 1219
8 1091 991 1105 1218 1220 1109 1232 1355
8 1092 992 1109 1220 1221 1110 1234 1356
8 1222 1108 1233 1357 1095 990 1107 1224
8 1222 1108 993 1093 1357 1233 1110 1221
8 1223 1101 989 1096 1358 1229 1107 1224
8 1226 1102 983 1098 1358 1229 1101 1223
8 1226 1102 1228 1359 1098 983 1100 1225
8 1103 995 1111 1227 1230 1112 1235 1360
8 1107 1002 1117 1233 1229 1116 1240 1362
8 1102 1001 1116 1229 1228 1115 1240 1362
8 1104 996 1112 1230 1231 1113 1236 1363
8 1364 1237 1114 1232 1231 1113 997 1106
8 1109 1005 1114 1232 1234 1118 1238 1365
8 1110 1004 1118 1234 1233 1117 1241 1366
8 1242 1374 1255 1138 1119 1243 1132 1025
8 1244 1127 1254 1376 1121 1015 1129 1245
8 1148 1031 1149 1275 1244 1127 1254 1376
8 1245 1129 1258 1377 1125 1016 1130 1248
8 1251 1134 1019 1126 1378 1257 1128 1246
8 1378 1257 1128 1246 1247 1131 1017 1123
8 1248 1130 1259 1379 1124 1018 1131 1247
8 1261 1381 1250 1133 1132 1249 1330 1199
8 1255 1380 1252 1135 1132 1249 1381 1261
8 1250 1133 1019 1126 1382 1262 1134 1251
8 1253 1136 1256 1385 1384 1263 1135 1252
8 1254 1137 1265 1387 1129 1022 1141 1258
8 1149 1032 1150 1276 1254 1137 1265 1387
8 1028 1135 1255 1138 1139 1256 1388 1266
8 1136 1029 1147 1264 1256 1139 1267 1389
8 1390 1268 1140 1257 1259 1142 1024 1131
8 1260 1143 1027 1134 1390 1268 1140 1257
8 1258 1141 1269 1391 1130 1023 1142 1259
8 1262 1145 1027 1134 1393 1271 1143 1260
8 1261 1144 1026 1133 1394 1272 1145 1262
8 1135 1028 1144 1261 1263 1146 1272 1394
8 1136 1029 1146 1263 1264 1147 1273 1395
8 1155 1041 1160 1282 1275 1149 1276 1405
8 1276 1150 1044 1160 1406 1277 1162 1286
8 1408 1283 1159 1279 1278 1156 1039 1151
8 1290 1165 1283 1408 1177 1053 1156 1278
8 1152 1040 1159 1279 1280 1158 1285 1409
8 1281 1157 1038 1153 1410 1284 1158 1280
8 1281 1157 1284 1410 1154 1042 1160 1282
8 1159 1046 1164 1283 1285 1163 1289 1412
8 1292 1167 1289 1412 1165 1048 1164 1283
8 1158 1045 1163 1285 1284 1161 1288 1413
8 1284 1161 1288 1413 1160 1044 1162 1286
8 1291 1166 1292 1418 1174 1051 1165 1290
8 1291 1166 1051 1174 1419 1293 1172 1305
8 1294 1169 1296 1421 1166 1049 1167 1292
8 1293 1168 1050 1172 1422 1295 1171 1303
8 1294 1169 1049 1166 1423 1297 1168 1293
8 1422 1295 1171 1303 1301 1170 1302 1435
8 1172 1050 1173 1306 1303 1171 1304 1438
8 1174 1051 1175 1308 1305 1172 1306 1440
8 1175 1052 1176 1309 1306 1173 1307 1441
8 1177 1053 1178 1311 1308 1175 1309 1443
8 1178 1054 1179 1312 1309 1176 1310 1444
8 1180 1055 1181 1314 1311 1178 1312 1446
8 1056 1181 1312 1179 1182 1315 1447 1313
8 1183 1058 1184 1316 1314 1181 1315 1448
8 1319 1186 1084 1214 1451 1317 1213 1350
8 1319 1186 1318 1453 1208 1081 1187 1321
8 1321 1187 1320 1456 1188 1063 1189 1323
8 1344 1208 1321 1457 1209 1082 1188 1322
8 1322 1188 1323 1458 1190 1064 1191 1325
8 1323 1189 1324 1459 1191 1065 1192 1326
8 1191 1325 1193 1067 1326 1460 1327 1194
8 1242 1374 1243 1119 1328 1462 1335 1204
8 1330 1199 1333 1465 1196 1075 1200 1331
8 1132 1249 1330 1199 1243 1375 1465 1333
8 1332 1201 1077 1198 1466 1334 1200 1331
8 1215 1099 1201 1332 1352 1227 1334 1466
8 1119 1243 1333 1203 1204 1335 1470 1338
8 1333 1203 1338 1470 1200 1080 1202 1334
8 1227 1111 1202 1334 1360 1235 1338 1470
8 1328 1462 1335 1204 1205 1336 1471 1339
8 1337 1206 1340 1472 1464 1329 1205 1336
8 1346 1211 1342 1479 1210 1083 1207 1343
8 1346 1211 1115 1228 1479 1342 1239 1361
8 1348 1212 1084 1214 1479 1342 1207 1343
8 1480 1343 1208 1344 1345 1210 1082 1209
8 1351 1214 1319 1454 1480 1343 1208 1344
8 1481 1346 1210 1345 1359 1228 1100 1225
8 1348 1212 1347 1483 1214 1084 1213 1350
8 1216 1103 1227 1352 1353 1230 1360 1488
8 1217 1104 1230 1353 1354 1231 1363 1489
8 1490 1364 1232 1355 1354 1231 1106 1219
8 1220 1109 1232 1355 1356 1234 1365 1491
8 1221 1110 1234 1356 1357 1233 1366 1492
8 1224 1107 1233 1357 1358 1229 1362 1493
8 1226 1102 1229 1358 1359 1228 1362 1493
8 1230 1112 1235 1360 1363 1236 1367 1496
8 1361 1239 1115 1228 1497 1371 1240 1362
8 1366 1241 1372 1498 1233 1117 1240 1362
8 1364 1237 1113 1231 1499 1368 1236 1363
8 1364 1237 1368 1499 1232 1114 1238 1365
8 1234 1118 1238 1365 1366 1241 1369 1500
8 1507 1373 1242 1374 1388 1266 1138 1255
8 1508 1374 1243 1375 1380 1255 1132 1249
8 1376 1254 1387 1509 1245 1129 1258 1377
8 1275 1149 1276 1405 1376 1254 1387 1509
8 1377 1258 1391 1510 1248 1130 1259 1379
8 1511 1390 1257 1378 1379 1259 1131 1247
8 1383 1260 1134 1251 1511 1390 1257 1378
8 1252 1135 1256 1385 1380 1255 1388 1512
8 1261 1381 1513 1394 1133 1250 1382 1262
8 1135 1252 1384 1263 1261 1381 1513 1394
8 1382 1262 1134 1251 1514 1393 1260 1383
8 1253 1136 1263 1384 1386 1264 1395 1516
8 1253 1136 1264 1386 1385 1256 1389 1517
8 1387 1265 1397 1519 1258 1141 1269 1391
8 1276 1150 1277 1406 1387 1265 1397 1519
8 1256 1139 1267 1389 1388 1266 1398 1520
8 1264 1147 1274 1396 1389 1267 1399 1521
8 1392 1270 1143 1260 1522 1400 1268 1390
8 1390 1268 1142 1259 1522 1400 1269 1391
8 1392 1270 1401 1523 1260 1143 1271 1393
8 1272 1394 1524 1402 1145 1262 1393 1271
8 1395 1273 1146 1263 1524 1402 1272 1394
8 1273 1395 1264 1147 1403 1526 1396 1274
8 1405 1276 1160 1282 1534 1406 1286 1411
8 1414 1287 1407 1535 1286 1162 1277 1406
8 1279 1159 1283 1408 1409 1285 1412 1537
8 1418 1292 1412 1537 1290 1165 1283 1408
8 1280 1158 1285 1409 1410 1284 1413 1538
8 1410 1284 1413 1538 1282 1160 1286 1411
8 1285 1163 1289 1412 1413 1288 1417 1540
8 1421 1296 1417 1540 1292 1167 1289 1412
8 1414 1287 1162 1286 1541 1416 1288 1413
8 1420 1294 1421 1545 1291 1166 1292 1418
8 1419 1293 1172 1305 1546 1422 1303 1437
8 1420 1294 1166 1291 1547 1423 1293 1419
8 1294 1169 1297 1423 1421 1296 1425 1548
8 1423 1297 1168 1293 1549 1424 1295 1422
8 1301 1170 1298 1427 1422 1295 1424 1549
8 1432 1300 1428 1554 1301 1170 1298 1427
8 1431 1299 1428 1554 1560 1430 1300 1432
8 1563 1433 1300 1432 1435 1302 1170 1301
8 1546 1422 1303 1437 1434 1301 1435 1565
8 1303 1171 1304 1438 1435 1302 1436 1566
8 1305 1172 1306 1440 1437 1303 1438 1568
8 1306 1173 1307 1441 1438 1304 1439 1569
8 1308 1175 1309 1443 1440 1306 1441 1571
8 1309 1176 1310 1444 1441 1307 1442 1572
8 1311 1178 1312 1446 1443 1309 1444 1574
8 1179 1312 1444 1310 1313 1447 1575 1445
8 1314 1181 1315 1448 1446 1312 1447 1576
8 1350 1213 1349 1486 1451 1317 1449 1579
8 1451 1317 1450 1581 1319 1186 1318 1453
8 1454 1319 1214 1351 1582 1451 1350 1487
8 1453 1318 1452 1584 1321 1187 1320 1456
8 1454 1319 1453 1585 1344 1208 1321 1457
8 1456 1320 1455 1586 1323 1189 1324 1459
8 1457 1321 1456 1587 1322 1188 1323 1458
8 1458 1323 1459 1588 1325 1191 1326 1460
8 1205 1336 1464 1329 1328 1462 1590 1461
8 1507 1373 1461 1590 1374 1242 1328 1462
8 1508 1374 1462 1591 1375 1243 1335 1467
8 1337 1206 1329 1464 1473 1341 1463 1594
8 1375 1243 1335 1467 1465 1333 1470 1596
8 1465 1333 1470 1596 1331 1200 1334 1466
8 1352 1227 1334 1466 1488 1360 1470 1596
8 1591 1462 1336 1468 1467 1335 1471 1597
8 1469 1337 1472 1598 1595 1464 1336 1468
8 1471 1339 1474 1600 1335 1204 1338 1470
8 1600 1474 1367 1496 1470 1338 1235 1360
8 1336 1205 1340 1472 1471 1339 1475 1601
8 1337 1206 1341 1473 1472 1340 1476 1602
8 1495 1370 1478 1609 1361 1239 1342 1479
8 1348 1212 1342 1479 1483 1347 1478 1609
8 1481 1346 1479 1610 1345 1210 1343 1480
8 1481 1346 1228 1359 1610 1479 1361 1494
8 1484 1348 1214 1351 1610 1479 1343 1480
8 1483 1347 1482 1612 1350 1213 1349 1486
8 1484 1348 1483 1613 1351 1214 1350 1487
8 1353 1230 1360 1488 1489 1363 1496 1616
8 1490 1364 1231 1354 1617 1499 1363 1489
8 1490 1364 1499 1617 1355 1232 1365 1491
8 1356 1234 1365 1491 1492 1366 1500 1619
8 1492 1366 1498 1620 1357 1233 1362 1493
8 1494 1361 1228 1359 1621 1497 1362 1493
8 1495 1370 1239 1361 1622 1504 1371 1497
8 1363 1236 1367 1496 1499 1368 1501 1623
8 1497 1371 1240 1362 1624 1505 1372 1498
8 1625 1503 1372 1498 1500 1369 1241 1366
8 1365 1238 1368 1499 1500 1369 1502 1626
8 1520 1398 1506 1633 1388 1266 1373 1507
8 1634 1507 1374 1508 1512 1388 1255 1380
8 1509 1387 1519 1635 1377 1258 1391 1510
8 1405 1276 1406 1534 1509 1387 1519 1635
8 1515 1392 1260 1383 1636 1522 1390 1511
8 1511 1390 1259 1379 1636 1522 1391 1510
8 1385 1256 1389 1517 1512 1388 1520 1637
8 1513 1394 1262 1382 1638 1524 1393 1514
8 1395 1516 1638 1524 1263 1384 1513 1394
8 1515 1392 1523 1639 1383 1260 1393 1514
8 1516 1395 1526 1640 1386 1264 1396 1518
8 1386 1264 1396 1518 1517 1389 1521 1641
8 1519 1397 1527 1643 1391 1269 1400 1522
8 1535 1407 1527 1643 1406 1277 1397 1519
8 1389 1267 1399 1521 1520 1398 1528 1644
8 1645 1529 1399 1521 1525 1404 1274 1396
8 1392 1270 1400 1522 1523 1401 1531 1646
8 1524 1402 1271 1393 1648 1532 1401 1523
8 1403 1526 1648 1532 1273 1395 1524 1402
8 1525 1404 1274 1396 1649 1533 1403 1526
8 1539 1414 1535 1657 1411 1286 1406 1534
8 1542 1415 1536 1658 1414 1287 1407 1535
8 1409 1285 1412 1537 1538 1413 1540 1660
8 1545 1421 1540 1660 1418 1292 1412 1537
8 1539 1414 1286 1411 1661 1541 1413 1538
8 1540 1417 1544 1663 1413 1288 1416 1541
8 1421 1296 1425 1548 1540 1417 1544 1663
8 1542 1415 1287 1414 1664 1543 1416 1541
8 1420 1294 1423 1547 1545 1421 1548 1666
8 1547 1423 1293 1419 1667 1549 1422 1546
8 1434 1301 1427 1553 1546 1422 1549 1667
8 1423 1297 1424 1549 1548 1425 1550 1668
8 1551 1426 1550 1668 1427 1298 1424 1549
8 1551 1426 1298 1427 1671 1552 1428 1554
8 1562 1432 1554 1674 1434 1301 1427 1553
8 1431 1299 1429 1558 1554 1428 1555 1675
8 1431 1299 1430 1560 1558 1429 1557 1680
8 1560 1430 1300 1432 1683 1559 1433 1563
8 1561 1431 1554 1674 1684 1560 1432 1562
8 1685 1563 1432 1562 1565 1435 1301 1434
8 1435 1302 1436 1566 1563 1433 1564 1686
8 1437 1303 1438 1568 1565 1435 1566 1688
8 1438 1304 1439 1569 1566 1436 1567 1689
8 1440 1306 1441 1571 1568 1438 1569 1691
8 1441 1307 1442 1572 1569 1439 1570 1692
8 1443 1309 1444 1574 1571 1441 1572 1694
8 1310 1444 1572 1442 1445 1575 1695 1573
8 1446 1312 1447 1576 1574 1444 1575 1696
8 1486 1349 1485 1614 1579 1449 1577 1699
8 1451 1317 1449 1579 1581 1450 1578 1701
8 1487 1350 1486 1615 1582 1451 1579 1702
8 1581 1450 1580 1704 1453 1318 1452 1584
8 1582 1451 1581 1705 1454 1319 1453 1585
8 1584 1452 1583 1706 1456 1320 1455 1586
8 1585 1453 1584 1707 1457 1321 1456 1587
8 1587 1456 1586 1708 1458 1323 1459 1588
8 1633 1506 1589 1710 1507 1373 1461 1590
8 1464 1329 1461 1590 1594 1463 1589 1710
8 1468 1336 1462 1591 1595 1464 1590 1711
8 1634 1507 1590 1711 1508 1374 1462 1591
8 1473 1341 1463 1594 1603 1477 1593 1716
8 1469 1337 1464 1595 1599 1473 1594 1717
8 1471 1597 1467 1335 1600 1718 1596 1470
8 1718 1600 1496 1616 1596 1470 1360 1488
8 1336 1468 1597 1471 1472 1598 1719 1601
8 1469 1337 1473 1599 1598 1472 1602 1720
8 1722 1604 1501 1623 1600 1474 1367 1496
8 1475 1601 1471 1339 1604 1722 1600 1474
8 1602 1476 1605 1723 1472 1340 1475 1601
8 1476 1602 1724 1606 1341 1473 1603 1477
8 1483 1347 1478 1609 1612 1482 1608 1731
8 1495 1370 1504 1622 1609 1478 1608 1731
8 1618 1495 1609 1732 1494 1361 1479 1610
8 1484 1348 1479 1610 1613 1483 1609 1732
8 1486 1349 1482 1612 1614 1485 1611 1733
8 1613 1483 1612 1734 1487 1350 1486 1615
8 1489 1363 1496 1616 1617 1499 1623 1736
8 1491 1365 1499 1617 1619 1500 1626 1737
8 1618 1495 1361 1494 1738 1622 1497 1621
8 1739 1625 1498 1620 1619 1500 1366 1492
8 1621 1497 1362 1493 1740 1624 1498 1620
8 1742 1631 1504 1622 1624 1505 1371 1497
8 1743 1628 1502 1626 1623 1501 1368 1499
8 1744 1630 1505 1624 1625 1503 1372 1498
8 1745 1629 1503 1625 1626 1502 1369 1500
8 1520 1398 1528 1644 1633 1506 1632 1751
8 1637 1520 1633 1752 1512 1388 1507 1634
8 1635 1519 1643 1753 1510 1391 1522 1636
8 1657 1535 1643 1753 1534 1406 1519 1635
8 1515 1392 1522 1636 1639 1523 1646 1754
8 1517 1389 1521 1641 1637 1520 1644 1755
8 1524 1638 1756 1648 1393 1514 1639 1523
8 1640 1526 1395 1516 1756 1648 1524 1638
8 1642 1525 1396 1518 1757 1649 1526 1640
8 1758 1645 1521 1641 1642 1525 1396 1518
8 1646 1531 1400 1522 1760 1650 1527 1643
8 1535 1407 1536 1658 1643 1527 1650 1760
8 1521 1399 1529 1645 1644 1528 1651 1761
8 1647 1530 1652 1762 1525 1404 1529 1645
8 1401 1523 1648 1532 1531 1646 1763 1655
8 1525 1404 1533 1649 1647 1530 1654 1765
8 1533 1649 1766 1656 1403 1526 1648 1532
8 1662 1542 1658 1774 1539 1414 1535 1657
8 1542 1415 1543 1664 1658 1536 1659 1775
8 1660 1540 1663 1777 1538 1413 1541 1661
8 1545 1421 1548 1666 1660 1540 1663 1777
8 1662 1542 1414 1539 1778 1664 1541 1661
8 1664 1543 1416 1541 1779 1665 1544 1663
8 1548 1425 1550 1668 1663 1544 1665 1779
8 1547 1423 1549 1667 1666 1548 1668 1781
8 1670 1551 1668 1781 1553 1427 1549 1667
8 1551 1426 1552 1671 1668 1550 1669 1782
8 1670 1551 1427 1553 1784 1671 1554 1674
8 1675 1555 1672 1785 1554 1428 1552 1671
8 1678 1556 1673 1789 1558 1429 1555 1675
8 1561 1431 1558 1681 1674 1554 1675 1790
8 1794 1677 1556 1678 1680 1557 1429 1558
8 1560 1430 1559 1683 1680 1557 1679 1797
8 1561 1431 1560 1684 1681 1558 1680 1798
8 1563 1433 1564 1686 1683 1559 1682 1800
8 1684 1560 1432 1562 1801 1683 1563 1685
8 1565 1435 1566 1688 1685 1563 1686 1802
8 1566 1436 1567 1689 1686 1564 1687 1803
8 1568 1438 1569 1691 1688 1566 1689 1805
8 1569 1439 1570 1692 1689 1567 1690 1806
8 1571 1441 1572 1694 1691 1569 1692 1808
8 1442 1572 1692 1570 1573 1695 1809 1693
8 1574 1444 1575 1696 1694 1572 1695 1810
8 1614 1485 1592 1712 1699 1577 1697 1813
8 1579 1449 1577 1699 1701 1578 1698 1815
8 1615 1486 1614 1735 1702 1579 1699 1816
8 1701 1578 1700 1818 1581 1450 1580 1704
8 1582 1451 1579 1702 1705 1581 1701 1819
8 1704 1580 1703 1820 1584 1452 1583 1706
8 1705 1581 1704 1821 1585 1453 1584 1707
8 1707 1584 1706 1822 1587 1456 1586 1708
8 1710 1589 1506 1633 1824 1709 1632 1751
8 1594 1463 1589 1710 1716 1593 1709 1824
8 1752 1633 1710 1825 1634 1507 1590 1711
8 1595 1464 1590 1711 1717 1594 1710 1825
8 1830 1714 1592 1712 1733 1611 1485 1614
8 1603 1477 1593 1716 1725 1607 1715 1834
8 1599 1473 1594 1717 1721 1603 1716 1835
8 1837 1722 1623 1736 1718 1600 1496 1616
8 1719 1601 1722 1837 1597 1471 1600 1718
8 1602 1720 1598 1472 1723 1838 1719 1601
8 1720 1602 1473 1599 1839 1724 1603 1721
8 1723 1605 1726 1840 1601 1475 1604 1722
8 1840 1726 1628 1743 1722 1604 1501 1623
8 1724 1606 1727 1841 1602 1476 1605 1723
8 1725 1607 1728 1842 1603 1477 1606 1724
8 1612 1482 1608 1731 1733 1611 1730 1849
8 1741 1627 1730 1849 1622 1504 1608 1731
8 1613 1483 1609 1732 1734 1612 1731 1850
8 1618 1495 1622 1738 1732 1609 1731 1850
8 1615 1486 1612 1734 1735 1614 1733 1851
8 1852 1743 1626 1737 1736 1623 1499 1617
8 1853 1745 1625 1739 1737 1626 1500 1619
8 1855 1742 1622 1738 1740 1624 1497 1621
8 1856 1744 1624 1740 1739 1625 1498 1620
8 1741 1627 1504 1622 1857 1746 1631 1742
8 1742 1631 1505 1624 1858 1749 1630 1744
8 1859 1747 1629 1745 1743 1628 1502 1626
8 1860 1748 1630 1744 1745 1629 1503 1625
8 1644 1528 1651 1761 1751 1632 1750 1865
8 1637 1520 1644 1755 1752 1633 1751 1866
8 1754 1646 1522 1636 1867 1760 1643 1753
8 1657 1535 1658 1774 1753 1643 1760 1867
8 1639 1523 1646 1754 1756 1648 1763 1868
8 1641 1521 1645 1758 1755 1644 1761 1869
8 1757 1649 1526 1640 1870 1766 1648 1756
8 1642 1525 1649 1757 1759 1647 1765 1871
8 1759 1647 1762 1872 1642 1525 1645 1758
8 1760 1650 1767 1874 1646 1531 1655 1763
8 1658 1536 1659 1775 1760 1650 1767 1874
8 1762 1652 1768 1875 1645 1529 1651 1761
8 1764 1653 1769 1876 1647 1530 1652 1762
8 1656 1766 1877 1773 1532 1648 1763 1655
8 1771 1879 1765 1654 1653 1764 1647 1530
8 1533 1649 1765 1654 1656 1766 1880 1772
8 1662 1542 1664 1778 1774 1658 1775 1887
8 1664 1543 1665 1779 1775 1659 1776 1888
8 1778 1664 1541 1661 1890 1779 1663 1777
8 1666 1548 1668 1781 1777 1663 1779 1890
8 1782 1669 1780 1891 1668 1550 1665 1779
8 1670 1551 1671 1784 1781 1668 1782 1893
8 1671 1552 1672 1785 1782 1669 1783 1894
8 1790 1675 1785 1896 1674 1554 1671 1784
8 1675 1555 1673 1789 1785 1672 1786 1897
8 1792 1676 1788 1903 1678 1556 1673 1789
8 1795 1678 1789 1904 1681 1558 1675 1790
8 1792 1676 1556 1678 1906 1791 1677 1794
8 1680 1557 1679 1797 1794 1677 1793 1909
8 1910 1794 1678 1795 1798 1680 1558 1681
8 1683 1559 1682 1800 1797 1679 1796 1912
8 1684 1560 1683 1801 1798 1680 1797 1913
8 1686 1564 1687 1803 1800 1682 1799 1915
8 1685 1563 1686 1802 1801 1683 1800 1916
8 1688 1566 1689 1805 1802 1686 1803 1917
8 1689 1567 1690 1806 1803 1687 1804 1918
8 1691 1569 1692 1808 1805 1689 1806 1920
8 1692 1570 1693 1809 1806 1690 1807 1921
8 1694 1572 1695 1810 1808 1692 1809 1922
8 1829 1713 1811 1926 1712 1592 1697 1813
8 1813 1697 1812 1928 1699 1577 1698 1815
8 1735 1614 1712 1828 1816 1699 1813 1929
8 1815 1698 1814 1931 1701 1578 1700 1818
8 1702 1579 1699 1816 1819 1701 1815 1932
8 1818 1700 1817 1933 1704 1580 1703 1820
8 1819 1701 1818 1934 1705 1581 1704 1821
8 1821 1704 1820 1935 1707 1584 1706 1822
8 1824 1709 1632 1751 1937 1823 1750 1865
8 1716 1593 1709 1824 1834 1715 1823 1937
8 1825 1710 1633 1752 1938 1824 1751 1866
8 1717 1594 1710 1825 1835 1716 1824 1938
8 1945 1830 1712 1828 1851 1733 1614 1735
8 1830 1714 1831 1946 1712 1592 1713 1829
8 1947 1832 1714 1830 1849 1730 1611 1733
8 1843 1729 1607 1725 1950 1833 1715 1834
8 1721 1603 1716 1835 1836 1725 1834 1951
8 1836 1725 1842 1953 1721 1603 1724 1839
8 1723 1838 1719 1601 1840 1954 1837 1722
8 1954 1840 1743 1852 1837 1722 1623 1736
8 1724 1839 1720 1602 1841 1955 1838 1723
8 1841 1727 1844 1956 1723 1605 1726 1840
8 1956 1844 1747 1859 1840 1726 1628 1743
8 1728 1842 1724 1606 1845 1957 1841 1727
8 1725 1607 1729 1843 1842 1728 1846 1958
8 1741 1627 1746 1857 1849 1730 1848 1965
8 1734 1612 1731 1850 1851 1733 1849 1966
8 1854 1741 1849 1966 1738 1622 1731 1850
8 1967 1859 1745 1853 1852 1743 1626 1737
8 1968 1860 1744 1856 1853 1745 1625 1739
8 1854 1741 1622 1738 1969 1857 1742 1855
8 1855 1742 1624 1740 1970 1858 1744 1856
8 1857 1746 1631 1742 1971 1861 1749 1858
8 1858 1749 1630 1744 1972 1863 1748 1860
8 1859 1747 1862 1973 1745 1629 1748 1860
8 1875 1768 1864 1977 1761 1651 1750 1865
8 1755 1644 1761 1869 1866 1751 1865 1978
8 1867 1760 1874 1979 1754 1646 1763 1868
8 1774 1658 1775 1887 1867 1760 1874 1979
8 1870 1766 1648 1756 1980 1877 1763 1868
8 1872 1762 1875 1981 1758 1645 1761 1869
8 1757 1649 1766 1870 1871 1765 1880 1982
8 1983 1879 1764 1873 1871 1765 1647 1759
8 1873 1764 1876 1984 1759 1647 1762 1872
8 1877 1773 1655 1763 1986 1881 1767 1874
8 1775 1659 1776 1888 1874 1767 1881 1986
8 1876 1769 1882 1987 1762 1652 1768 1875
8 1878 1770 1883 1988 1764 1653 1769 1876
8 1880 1772 1656 1766 1989 1886 1773 1877
8 1878 1770 1653 1764 1990 1884 1771 1879
8 1765 1654 1772 1880 1879 1771 1885 1991
8 1778 1664 1779 1890 1887 1775 1888 1997
8 1998 1889 1776 1888 1891 1780 1665 1779
8 1893 1782 1891 2000 1781 1668 1779 1890
8 1894 1783 1892 2001 1782 1669 1780 1891
8 1784 1671 1785 1896 1893 1782 1894 2003
8 1897 1786 1895 2004 1785 1672 1783 1894
8 1790 1675 1789 1904 1896 1785 1897 2006
8 1901 1787 1898 2007 1789 1673 1786 1897
8 1903 1788 1900 2013 1789 1673 1787 1901
8 1792 1676 1791 1906 1903 1788 1902 2016
8 1907 1792 1903 2017 1795 1678 1789 1904
8 1906 1791 1677 1794 2019 1905 1793 1909
8 1907 1792 1678 1795 2020 1906 1794 1910
8 1797 1679 1796 1912 1909 1793 1908 2022
8 1798 1680 1797 1913 1910 1794 1909 2023
8 1800 1682 1799 1915 1912 1796 1911 2025
8 1801 1683 1800 1916 1913 1797 1912 2026
8 1803 1687 1804 1918 1915 1799 1914 2028
8 1802 1686 1803 1917 1916 1800 1915 2029
8 1805 1689 1806 1920 1917 1803 1918 2030
8 1806 1690 1807 1921 1918 1804 1919 2031
8 1808 1692 1809 1922 1920 1806 1921 2032
8 1939 1826 1924 2037 1829 1713 1811 1926
8 1926 1811 1925 2039 1813 1697 1812 1928
8 1944 1829 1926 2040 1828 1712 1813 1929
8 1928 1812 1927 2042 1815 1698 1814 1931
8 1929 1813 1928 2043 1816 1699 1815 1932
8 1931 1814 1930 2044 1818 1700 1817 1933
8 1932 1815 1931 2045 1819 1701 1818 1934
8 1934 1818 1933 2046 1821 1704 1820 1935
8 2048 1936 1823 1937 1977 1864 1750 1865
8 1950 1833 1715 1834 2048 1936 1823 1937
8 1938 1824 1751 1866 2049 1937 1865 1978
8 1835 1716 1824 1938 1951 1834 1937 2049
8 1939 1826 1713 1829 2053 1942 1831 1946
8 1940 1827 1923 2035 2053 1942 1826 1939
8 1945 1830 1946 2058 1828 1712 1829 1944
8 2059 1947 1830 1945 1966 1849 1733 1851
8 1947 1832 1730 1849 2060 1948 1848 1965
8 1947 1832 1948 2060 1830 1714 1831 1946
8 1959 1847 1729 1843 2063 1949 1833 1950
8 1952 1843 1725 1836 2064 1950 1834 1951
8 1836 1725 1843 1952 1953 1842 1958 2066
8 1953 1842 1957 2067 1839 1724 1841 1955
8 1841 1955 1838 1723 1956 2068 1954 1840
8 2068 1956 1859 1967 1954 1840 1743 1852
8 1956 1844 1960 2069 1859 1747 1862 1973
8 1845 1957 1841 1727 1960 2069 1956 1844
8 1728 1842 1957 1845 1846 1958 2071 1961
8 1962 2072 1959 1847 1846 1958 1843 1729
8 1971 1861 1964 2077 1857 1746 1848 1965
8 1854 1741 1857 1969 1966 1849 1965 2078
8 1967 1859 1973 2079 1853 1745 1860 1968
8 1970 1858 1744 1856 2080 1972 1860 1968
8 1969 1857 1742 1855 2081 1971 1858 1970
8 1971 1861 1749 1858 2082 1974 1863 1972
8 1973 1862 1975 2083 1860 1748 1863 1972
8 1987 1882 1976 2086 1875 1768 1864 1977
8 1981 1875 1977 2087 1869 1761 1865 1978
8 1980 1877 1763 1868 2088 1986 1874 1979
8 1887 1775 1888 1997 1979 1874 1986 2088
8 1880 1982 2089 1989 1766 1870 1980 1877
8 1984 1876 1987 2090 1872 1762 1875 1981
8 1765 1871 1983 1879 1880 1982 2091 1991
8 1985 1878 1764 1873 2092 1990 1879 1983
8 1985 1878 1988 2093 1873 1764 1876 1984
8 2094 1992 1881 1986 1998 1889 1776 1888
8 1986 1881 1992 2094 1877 1773 1886 1989
8 1988 1883 1993 2095 1876 1769 1882 1987
8 1878 1770 1884 1990 1988 1883 1994 2096
8 1991 1885 1772 1880 2097 1996 1886 1989
8 1879 1771 1885 1991 1990 1884 1995 2098
8 2103 1998 1888 1997 2000 1891 1779 1890
8 2104 1999 1889 1998 2001 1892 1780 1891
8 2003 1894 2001 2106 1893 1782 1891 2000
8 2004 1895 2002 2107 1894 1783 1892 2001
8 2006 1897 2004 2109 1896 1785 1894 2003
8 2007 1898 2005 2110 1897 1786 1895 2004
8 2014 1901 2007 2112 1904 1789 1897 2006
8 2011 1899 2008 2113 1901 1787 1898 2007
8 2119 2010 1899 2011 2013 1900 1787 1901
8 2016 1902 2012 2122 1903 1788 1900 2013
8 2017 1903 2013 2123 1904 1789 1901 2014
8 1906 1791 1905 2019 2016 1902 2015 2125
8 1907 1792 1906 2020 2017 1903 2016 2126
8 1909 1793 1908 2022 2019 1905 2018 2128
8 2020 1906 1794 1910 2129 2019 1909 2023
8 1912 1796 1911 2025 2022 1908 2021 2131
8 1913 1797 1912 2026 2023 1909 2022 2132
8 1915 1799 1914 2028 2025 1911 2024 2134
8 1916 1800 1915 2029 2026 1912 2025 2135
8 1918 1804 1919 2031 2028 1914 2027 2136
8 1917 1803 1918 2030 2029 1915 2028 2137
8 1920 1806 1921 2032 2030 1918 2031 2138
8 1940 1827 1941 2054 2035 1923 2033 2140
8 2035 1923 2034 2143 1939 1826 1924 2037
8 2037 1924 2036 2146 1926 1811 1925 2039
8 2051 1939 2037 2147 1944 1829 1926 2040
8 2039 1925 2038 2149 1928 1812 1927 2042
8 2040 1926 2039 2150 1929 1813 1928 2043
8 2042 1927 2041 2151 1931 1814 1930 2044
8 2043 1928 2042 2152 1932 1815 1931 2045
8 2045 1931 2044 2153 1934 1818 1933 2046
8 2155 2047 1936 2048 2086 1976 1864 1977
8 2063 1949 1833 1950 2155 2047 1936 2048
8 2156 2048 1937 2049 2087 1977 1865 1978
8 2064 1950 1834 1951 2156 2048 1937 2049
8 2051 1939 1829 1944 2160 2053 1946 2058
8 2052 1940 2035 2144 2160 2053 1939 2051
8 2053 1942 1831 1946 2163 2057 1948 2060
8 2055 1943 1827 1940 2163 2057 1942 2053
8 2055 1943 2056 2164 1940 1827 1941 2054
8 2059 1947 1849 1966 2167 2060 1965 2078
8 2059 1947 2060 2167 1945 1830 1946 2058
8 2077 1964 2061 2168 1965 1848 1948 2060
8 2070 1963 1847 1959 2170 2062 1949 2063
8 2065 1959 1843 1952 2171 2063 1950 2064
8 2173 2072 1958 2066 2065 1959 1843 1952
8 1953 1842 1958 2066 2067 1957 2071 2174
8 2068 1956 2069 2175 1967 1859 1973 2079
8 2067 1957 2069 2175 1955 1841 1956 2068
8 1845 1957 2069 1960 1961 2071 2176 2073
8 2069 1960 2073 2176 1973 1862 1975 2083
8 2070 1963 2075 2177 1959 1847 1962 2072
8 1846 1958 2071 1961 1962 2072 2178 2074
8 2077 1964 1861 1971 2182 2076 1974 2082
8 2081 1971 2077 2183 1969 1857 1965 2078
8 2079 1973 2083 2184 1968 1860 1972 2080
8 2081 1971 1858 1970 2185 2082 1972 2080
8 2083 1975 2084 2186 1972 1863 1974 2082
8 2086 1976 1882 1987 2189 2085 1993 2095
8 2090 1987 2086 2190 1981 1875 1977 2087
8 2191 2094 1986 2088 2103 1998 1888 1997
8 2088 1986 2094 2191 1980 1877 1989 2089
8 1991 2091 2192 2097 1880 1982 2089 1989
8 2093 1988 2095 2193 1984 1876 1987 2090
8 1879 1983 2092 1990 1991 2091 2194 2098
8 1985 1878 1990 2092 2093 1988 2096 2195
8 2097 1996 1886 1989 2196 2099 1992 2094
8 2196 2099 1992 2094 2104 1999 1889 1998
8 1994 2096 1988 1883 2100 2197 2095 1993
8 2096 1994 1884 1990 2198 2101 1995 2098
8 1995 2098 2199 2102 1885 1991 2097 1996
8 2203 2104 1998 2103 2106 2001 1891 2000
8 2107 2002 2105 2204 2001 1892 1999 2104
8 2109 2004 2107 2206 2003 1894 2001 2106
8 2110 2005 2108 2207 2004 1895 2002 2107
8 2112 2007 2110 2209 2006 1897 2004 2109
8 2113 2008 2111 2210 2007 1898 2005 2110
8 2120 2011 2113 2212 2014 1901 2007 2112
8 2117 2009 2114 2213 2011 1899 2008 2113
8 2219 2116 2009 2117 2119 2010 1899 2011
8 2222 2118 2010 2119 2122 2012 1900 2013
8 2223 2119 2011 2120 2123 2013 1901 2014
8 2016 1902 2015 2125 2122 2012 2121 2225
8 2126 2016 2122 2226 2017 1903 2013 2123
8 2019 1905 2018 2128 2125 2015 2124 2228
8 2020 1906 2019 2129 2126 2016 2125 2229
8 2022 1908 2021 2131 2128 2018 2127 2231
8 2023 1909 2022 2132 2129 2019 2128 2232
8 2025 1911 2024 2134 2131 2021 2130 2234
8 2026 1912 2025 2135 2132 2022 2131 2235
8 1914 2028 2134 2024 2027 2136 2236 2133
8 2029 1915 2028 2137 2135 2025 2134 2237
8 2030 1918 2031 2138 2137 2028 2136 2238
8 2157 2050 2139 2240 2054 1941 2033 2140
8 2052 1940 2054 2161 2144 2035 2140 2242
8 2140 2033 2141 2243 2035 1923 2034 2143
8 2143 2034 2142 2246 2037 1924 2036 2146
8 2144 2035 2143 2247 2051 1939 2037 2147
8 2146 2036 2145 2249 2039 1925 2038 2149
8 2147 2037 2146 2250 2040 1926 2039 2150
8 2149 2038 2148 2251 2042 1927 2041 2151
8 2150 2039 2149 2252 2043 1928 2042 2152
8 2152 2042 2151 2253 2045 1931 2044 2153
8 2255 2154 2047 2155 2189 2085 1976 2086
8 2170 2062 1949 2063 2255 2154 2047 2155
8 2256 2155 2048 2156 2190 2086 1977 2087
8 2171 2063 1950 2064 2256 2155 2048 2156
8 2258 2159 2050 2157 2164 2056 1941 2054
8 2160 2053 1946 2058 2262 2163 2060 2167
8 2162 2055 1940 2052 2262 2163 2053 2160
8 2162 2055 2164 2263 2052 1940 2054 2161
8 2163 2057 1948 2060 2264 2165 2061 2168
8 2055 1943 2057 2163 2164 2056 2165 2264
8 2182 2076 2166 2268 2077 1964 2061 2168
8 2183 2077 2168 2269 2078 1965 2060 2167
8 2070 1963 2062 2170 2177 2075 2169 2271
8 2172 2070 1959 2065 2272 2170 2063 2171
8 2172 2070 2177 2273 2065 1959 2072 2173
8 2066 1958 2072 2173 2174 2071 2178 2274
8 2067 1957 2071 2174 2175 2069 2176 2275
8 2175 2069 2176 2275 2079 1973 2083 2184
8 2071 1961 2074 2178 2176 2073 2179 2276
8 2176 2073 2179 2276 2083 1975 2084 2186
8 2072 1962 2075 2177 2178 2074 2180 2277
8 2182 2076 1974 2082 2280 2181 2084 2186
8 2183 2077 1971 2081 2281 2182 2082 2185
8 2184 2083 2186 2282 2080 1972 2082 2185
8 2189 2085 1993 2095 2285 2188 2100 2197
8 2190 2086 1987 2090 2286 2189 2095 2193
8 2192 2097 1989 2089 2287 2196 2094 2191
8 2287 2196 2094 2191 2203 2104 1998 2103
8 2194 2098 1991 2091 2288 2199 2097 2192
8 2195 2096 2197 2289 2093 1988 2095 2193
8 2096 2195 2290 2198 1990 2092 2194 2098
8 2097 1996 2099 2196 2199 2102 2200 2291
8 2196 2099 1999 2104 2291 2200 2105 2204
8 2100 2197 2292 2201 1994 2096 2198 2101
8 1995 2098 2198 2101 2102 2199 2293 2202
8 2206 2107 2204 2296 2106 2001 2104 2203
8 2207 2108 2205 2297 2107 2002 2105 2204
8 2209 2110 2207 2299 2109 2004 2107 2206
8 2210 2111 2208 2300 2110 2005 2108 2207
8 2212 2113 2210 2302 2112 2007 2110 2209
8 2213 2114 2211 2303 2113 2008 2111 2210
8 2220 2117 2213 2305 2120 2011 2113 2212
8 2216 2115 2214 2306 2117 2009 2114 2213
8 2216 2115 2009 2117 2311 2217 2116 2219
8 2219 2116 2010 2119 2314 2218 2118 2222
8 2315 2219 2117 2220 2223 2119 2011 2120
8 2122 2012 2121 2225 2222 2118 2221 2317
8 2318 2222 2119 2223 2226 2122 2013 2123
8 2125 2015 2124 2228 2225 2121 2224 2320
8 2126 2016 2125 2229 2226 2122 2225 2321
8 2128 2018 2127 2231 2228 2124 2227 2323
8 2129 2019 2128 2232 2229 2125 2228 2324
8 2131 2021 2130 2234 2231 2127 2230 2326
8 2132 2022 2131 2235 2232 2128 2231 2327
8 2134 2024 2133 2236 2234 2130 2233 2328
8 2135 2025 2134 2237 2235 2131 2234 2329
8 2137 2028 2136 2238 2237 2134 2236 2330
8 2157 2050 2158 2259 2240 2139 2239 2332
8 2257 2157 2240 2334 2161 2054 2140 2242
8 2240 2139 2241 2335 2140 2033 2141 2243
8 2242 2140 2243 2337 2144 2035 2143 2247
8 2243 2141 2244 2338 2143 2034 2142 2246
8 2246 2142 2245 2341 2146 2036 2145 2249
8 2247 2143 2246 2342 2147 2037 2146 2250
8 2249 2145 2248 2343 2149 2038 2148 2251
8 2250 2146 2249 2344 2150 2039 2149 2252
8 2252 2149 2251 2345 2152 2042 2151 2253
8 2169 2271 2347 2254 2062 2170 2255 2154
8 2189 2085 2188 2285 2255 2154 2254 2347
8 2348 2255 2155 2256 2286 2189 2086 2190
8 2272 2170 2063 2171 2348 2255 2155 2256
8 2349 2258 2157 2257 2263 2164 2054 2161
8 2258 2159 2261 2351 2157 2050 2158 2259
8 2258 2159 2056 2164 2351 2261 2165 2264
8 2262 2163 2060 2167 2355 2264 2168 2269
8 2162 2055 2163 2262 2263 2164 2264 2355
8 2357 2266 2165 2264 2268 2166 2061 2168
8 2268 2166 2076 2182 2361 2267 2181 2280
8 2281 2182 2268 2362 2183 2077 2168 2269
8 2271 2169 2270 2364 2177 2075 2180 2277
8 2172 2070 2170 2272 2273 2177 2271 2365
8 2072 2173 2274 2178 2177 2273 2366 2277
8 2071 2174 2275 2176 2178 2274 2367 2276
8 2275 2176 2276 2367 2184 2083 2186 2282
8 2283 2187 2084 2186 2368 2278 2179 2276
8 2178 2074 2180 2277 2276 2179 2278 2368
8 2283 2187 2279 2370 2186 2084 2181 2280
8 2281 2182 2082 2185 2371 2280 2186 2282
8 2188 2285 2374 2284 2100 2197 2292 2201
8 2286 2189 2095 2193 2375 2285 2197 2289
8 2192 2097 2196 2287 2288 2199 2291 2376
8 2287 2196 2104 2203 2376 2291 2204 2296
8 2194 2098 2199 2288 2290 2198 2293 2377
8 2289 2197 2096 2195 2378 2292 2198 2290
8 2291 2200 2105 2204 2379 2294 2205 2297
8 2199 2102 2200 2291 2293 2202 2294 2379
8 2198 2101 2202 2293 2292 2201 2295 2380
8 2299 2207 2297 2383 2206 2107 2204 2296
8 2300 2208 2298 2384 2207 2108 2205 2297
8 2302 2210 2300 2386 2209 2110 2207 2299
8 2303 2211 2301 2387 2210 2111 2208 2300
8 2305 2213 2303 2389 2212 2113 2210 2302
8 2306 2214 2304 2390 2213 2114 2211 2303
8 2310 2216 2306 2392 2220 2117 2213 2305
8 2308 2215 2307 2393 2216 2115 2214 2306
8 2308 2215 2115 2216 2396 2309 2217 2311
8 2310 2216 2117 2220 2398 2311 2219 2315
8 2311 2217 2116 2219 2399 2312 2218 2314
8 2314 2218 2118 2222 2402 2313 2221 2317
8 2315 2219 2119 2223 2403 2314 2222 2318
8 2225 2121 2224 2320 2317 2221 2316 2405
8 2226 2122 2225 2321 2318 2222 2317 2406
8 2228 2124 2227 2323 2320 2224 2319 2408
8 2229 2125 2228 2324 2321 2225 2320 2409
8 2231 2127 2230 2326 2323 2227 2322 2411
8 2232 2128 2231 2327 2324 2228 2323 2412
8 2234 2130 2233 2328 2326 2230 2325 2413
8 2235 2131 2234 2329 2327 2231 2326 2414
8 2237 2134 2236 2330 2329 2234 2328 2415
8 2259 2158 2260 2352 2332 2239 2331 2417
8 2257 2157 2259 2350 2334 2240 2332 2419
8 2240 2139 2239 2332 2335 2241 2333 2420
8 2334 2240 2335 2422 2242 2140 2243 2337
8 2335 2241 2336 2423 2243 2141 2244 2338
8 2337 2243 2338 2425 2247 2143 2246 2342
8 2338 2244 2339 2426 2246 2142 2245 2341
8 2341 2245 2340 2428 2249 2145 2248 2343
8 2342 2246 2341 2429 2250 2146 2249 2344
8 2344 2249 2343 2430 2252 2149 2251 2345
8 2188 2285 2347 2254 2284 2374 2432 2346
8 2347 2254 2346 2432 2271 2169 2270 2364
8 2365 2271 2170 2272 2433 2347 2255 2348
8 2286 2189 2285 2375 2348 2255 2347 2433
8 2349 2258 2351 2435 2257 2157 2259 2350
8 2349 2258 2164 2263 2435 2351 2264 2355
8 2259 2158 2261 2351 2352 2260 2354 2437
8 2356 2265 2354 2437 2264 2165 2261 2351
8 2441 2357 2264 2355 2362 2268 2168 2269
8 2356 2265 2165 2264 2442 2358 2266 2357
8 2443 2359 2266 2357 2361 2267 2166 2268
8 2370 2279 2360 2446 2280 2181 2267 2361
8 2362 2268 2182 2281 2447 2361 2280 2371
8 2180 2277 2368 2278 2270 2364 2449 2363
8 2271 2365 2273 2177 2364 2450 2366 2277
8 2372 2283 2186 2282 2451 2368 2276 2367
8 2178 2274 2367 2276 2277 2366 2451 2368
8 2283 2187 2278 2368 2370 2279 2369 2452
8 2372 2283 2370 2453 2282 2186 2280 2371
8 2284 2374 2455 2373 2201 2292 2380 2295
8 2375 2285 2197 2289 2456 2374 2292 2378
8 2376 2291 2204 2296 2457 2379 2297 2383
8 2288 2199 2291 2376 2377 2293 2379 2457
8 2198 2290 2378 2292 2293 2377 2458 2380
8 2293 2202 2294 2379 2380 2295 2381 2459
8 2384 2298 2381 2459 2297 2205 2294 2379
8 2386 2300 2384 2463 2299 2207 2297 2383
8 2387 2301 2385 2464 2300 2208 2298 2384
8 2389 2303 2387 2466 2302 2210 2300 2386
8 2390 2304 2388 2467 2303 2211 2301 2387
8 2392 2306 2390 2469 2305 2213 2303 2389
8 2393 2307 2391 2470 2306 2214 2304 2390
8 2395 2308 2393 2472 2310 2216 2306 2392
8 2308 2215 2309 2396 2393 2307 2394 2473
8 2395 2308 2216 2310 2475 2396 2311 2398
8 2396 2309 2217 2311 2476 2397 2312 2399
8 2398 2311 2219 2315 2478 2399 2314 2403
8 2399 2312 2218 2314 2479 2400 2313 2402
8 2317 2221 2316 2405 2402 2313 2401 2482
8 2403 2314 2222 2318 2483 2402 2317 2406
8 2320 2224 2319 2408 2405 2316 2404 2485
8 2321 2225 2320 2409 2406 2317 2405 2486
8 2323 2227 2322 2411 2408 2319 2407 2488
8 2324 2228 2323 2412 2409 2320 2408 2489
8 2326 2230 2325 2413 2411 2322 2410 2490
8 2327 2231 2326 2414 2412 2323 2411 2491
8 2329 2234 2328 2415 2414 2326 2413 2492
8 2417 2331 2260 2352 2494 2416 2353 2438
8 2350 2259 2352 2436 2419 2332 2417 2496
8 2332 2239 2331 2417 2420 2333 2418 2497
8 2334 2240 2332 2419 2422 2335 2420 2499
8 2420 2333 2421 2500 2335 2241 2336 2423
8 2422 2335 2423 2502 2337 2243 2338 2425
8 2423 2336 2424 2503 2338 2244 2339 2426
8 2425 2338 2426 2505 2342 2246 2341 2429
8 2426 2339 2427 2506 2341 2245 2340 2428
8 2429 2341 2428 2507 2344 2249 2343 2430
8 2432 2346 2284 2374 2509 2431 2373 2455
8 2432 2346 2431 2509 2364 2270 2363 2449
8 2375 2285 2374 2456 2433 2347 2432 2510
8 2347 2433 2365 2271 2432 2510 2450 2364
8 2350 2259 2351 2435 2436 2352 2437 2514
8 2440 2356 2437 2514 2355 2264 2351 2435
8 2352 2260 2354 2437 2438 2353 2439 2516
8 2356 2265 2358 2442 2437 2354 2439 2516
8 2440 2356 2264 2355 2518 2442 2357 2441
8 2519 2443 2357 2441 2447 2361 2268 2362
8 2443 2359 2444 2520 2357 2266 2358 2442
8 2443 2359 2267 2361 2520 2444 2360 2446
8 2446 2360 2279 2370 2523 2445 2369 2452
8 2453 2370 2446 2524 2371 2280 2361 2447
8 2449 2363 2448 2525 2368 2278 2369 2452
8 2366 2277 2364 2450 2451 2368 2449 2526
8 2372 2283 2368 2451 2453 2370 2452 2527
8 2455 2373 2295 2380 2529 2454 2382 2460
8 2456 2374 2292 2378 2530 2455 2380 2458
8 2377 2293 2379 2457 2458 2380 2459 2531
8 2463 2384 2459 2531 2383 2297 2379 2457
8 2533 2461 2382 2460 2459 2381 2295 2380
8 2464 2385 2461 2533 2384 2298 2381 2459
8 2466 2387 2464 2537 2386 2300 2384 2463
8 2467 2388 2465 2538 2387 2301 2385 2464
8 2469 2390 2467 2540 2389 2303 2387 2466
8 2470 2391 2468 2541 2390 2304 2388 2467
8 2472 2393 2470 2543 2392 2306 2390 2469
8 2393 2307 2394 2473 2470 2391 2471 2544
8 2395 2308 2396 2475 2472 2393 2473 2546
8 2396 2309 2397 2476 2473 2394 2474 2547
8 2475 2396 2311 2398 2549 2476 2399 2478
8 2476 2397 2312 2399 2550 2477 2400 2479
8 2478 2399 2314 2403 2552 2479 2402 2483
8 2479 2400 2313 2402 2553 2480 2401 2482
8 2405 2316 2404 2485 2482 2401 2481 2556
8 2406 2317 2405 2486 2483 2402 2482 2557
8 2408 2319 2407 2488 2485 2404 2484 2559
8 2409 2320 2408 2489 2486 2405 2485 2560
8 2411 2322 2410 2490 2488 2407 2487 2561
8 2412 2323 2411 2491 2489 2408 2488 2562
8 2414 2326 2413 2492 2491 2411 2490 2563
8 2513 2434 2493 2565 2438 2353 2416 2494
8 2496 2417 2352 2436 2567 2494 2438 2515
8 2494 2416 2495 2568 2417 2331 2418 2497
8 2419 2332 2417 2496 2499 2420 2497 2570
8 2497 2418 2498 2571 2420 2333 2421 2500
8 2499 2420 2500 2573 2422 2335 2423 2502
8 2500 2421 2501 2574 2423 2336 2424 2503
8 2502 2423 2503 2576 2425 2338 2426 2505
8 2503 2424 2504 2577 2426 2339 2427 2506
8 2505 2426 2506 2578 2429 2341 2428 2507
8 2509 2431 2373 2455 2580 2508 2454 2529
8 2509 2431 2508 2580 2449 2363 2448 2525
8 2432 2510 2581 2509 2374 2456 2530 2455
8 2432 2510 2450 2364 2509 2581 2526 2449
8 2583 2511 2434 2513 2516 2439 2353 2438
8 2436 2352 2437 2514 2515 2438 2516 2588
8 2440 2356 2442 2518 2514 2437 2516 2588
8 2442 2358 2444 2520 2516 2439 2517 2589
8 2519 2443 2520 2591 2441 2357 2442 2518
8 2519 2443 2361 2447 2591 2520 2446 2524
8 2446 2360 2445 2523 2520 2444 2521 2592
8 2525 2448 2522 2593 2452 2369 2445 2523
8 2524 2446 2370 2453 2594 2523 2452 2527
8 2526 2449 2525 2595 2451 2368 2452 2527
8 2534 2462 2528 2597 2460 2382 2454 2529
8 2530 2455 2380 2458 2598 2529 2460 2532
8 2599 2533 2460 2532 2531 2459 2380 2458
8 2537 2464 2533 2599 2463 2384 2459 2531
8 2534 2462 2382 2460 2601 2535 2461 2533
8 2538 2465 2535 2601 2464 2385 2461 2533
8 2540 2467 2538 2604 2466 2387 2464 2537
8 2541 2468 2539 2605 2467 2388 2465 2538
8 2543 2470 2541 2607 2469 2390 2467 2540
8 2470 2391 2471 2544 2541 2468 2542 2608
8 2472 2393 2473 2546 2543 2470 2544 2610
8 2473 2394 2474 2547 2544 2471 2545 2611
8 2475 2396 2476 2549 2546 2473 2547 2613
8 2476 2397 2477 2550 2547 2474 2548 2614
8 2549 2476 2399 2478 2616 2550 2479 2552
8 2479 2400 2480 2553 2550 2477 2551 2617
8 2552 2479 2402 2483 2619 2553 2482 2557
8 2482 2401 2481 2556 2553 2480 2554 2620
8 2485 2404 2484 2559 2556 2481 2555 2623
8 2486 2405 2485 2560 2557 2482 2556 2624
8 2488 2407 2487 2561 2559 2484 2558 2625
8 2489 2408 2488 2562 2560 2485 2559 2626
8 2491 2411 2490 2563 2562 2488 2561 2627
8 2513 2434 2512 2585 2565 2493 2564 2630
8 2586 2513 2565 2632 2515 2438 2494 2567
8 2565 2493 2566 2633 2494 2416 2495 2568
8 2567 2494 2568 2635 2496 2417 2497 2570
8 2568 2495 2569 2636 2497 2418 2498 2571
8 2570 2497 2571 2638 2499 2420 2500 2573
8 2571 2498 2572 2639 2500 2421 2501 2574
8 2573 2500 2574 2641 2502 2423 2503 2576
8 2574 2501 2575 2642 2503 2424 2504 2577
8 2576 2503 2577 2643 2505 2426 2506 2578
8 2597 2528 2579 2645 2529 2454 2508 2580
8 2580 2508 2579 2645 2525 2448 2522 2593
8 2581 2509 2455 2530 2646 2580 2529 2598
8 2581 2509 2580 2646 2526 2449 2525 2595
8 2583 2511 2582 2648 2513 2434 2512 2585
8 2583 2511 2439 2516 2648 2582 2517 2589
8 2649 2583 2513 2586 2588 2516 2438 2515
8 2589 2517 2444 2520 2653 2587 2521 2592
8 2518 2442 2520 2591 2588 2516 2589 2654
8 2593 2522 2590 2655 2523 2445 2521 2592
8 2524 2446 2523 2594 2591 2520 2592 2656
8 2595 2525 2593 2657 2527 2452 2523 2594
8 2602 2536 2596 2659 2534 2462 2528 2597
8 2600 2534 2597 2660 2532 2460 2529 2598
8 2600 2534 2460 2532 2661 2601 2533 2599
8 2604 2538 2601 2661 2537 2464 2533 2599
8 2602 2536 2462 2534 2663 2603 2535 2601
8 2601 2535 2465 2538 2663 2603 2539 2605
8 2607 2541 2605 2665 2540 2467 2538 2604
8 2608 2542 2606 2666 2541 2468 2539 2605
8 2543 2470 2544 2610 2607 2541 2608 2668
8 2544 2471 2545 2611 2608 2542 2609 2669
8 2546 2473 2547 2613 2610 2544 2611 2671
8 2547 2474 2548 2614 2611 2545 2612 2672
8 2549 2476 2550 2616 2613 2547 2614 2674
8 2550 2477 2551 2617 2614 2548 2615 2675
8 2552 2479 2553 2619 2616 2550 2617 2677
8 2553 2480 2554 2620 2617 2551 2618 2678
8 2557 2482 2556 2624 2619 2553 2620 2680
8 2556 2481 2555 2623 2620 2554 2621 2681
8 2559 2484 2558 2625 2623 2555 2622 2683
8 2560 2485 2559 2626 2624 2556 2623 2684
8 2562 2488 2561 2627 2626 2559 2625 2685
8 2690 2629 2564 2630 2650 2584 2512 2585
8 2586 2513 2585 2651 2632 2565 2630 2691
8 2630 2564 2631 2692 2565 2493 2566 2633
8 2632 2565 2633 2694 2567 2494 2568 2635
8 2633 2566 2634 2695 2568 2495 2569 2636
8 2635 2568 2636 2697 2570 2497 2571 2638
8 2636 2569 2637 2698 2571 2498 2572 2639
8 2638 2571 2639 2700 2573 2500 2574 2641
8 2639 2572 2640 2701 2574 2501 2575 2642
8 2641 2574 2642 2702 2576 2503 2577 2643
8 2597 2528 2596 2659 2645 2579 2644 2704
8 2645 2579 2644 2704 2593 2522 2590 2655
8 2660 2597 2645 2705 2598 2529 2580 2646
8 2646 2580 2645 2705 2595 2525 2593 2657
8 2650 2584 2512 2585 2707 2647 2582 2648
8 2648 2582 2517 2589 2707 2647 2587 2653
8 2649 2583 2648 2708 2586 2513 2585 2651
8 2649 2583 2516 2588 2708 2648 2589 2654
8 2655 2590 2652 2710 2592 2521 2587 2653
8 2654 2589 2520 2591 2711 2653 2592 2656
8 2657 2593 2655 2712 2594 2523 2592 2656
8 2602 2536 2603 2663 2659 2596 2658 2714
8 2662 2602 2659 2715 2600 2534 2597 2660
8 2662 2602 2534 2600 2717 2663 2601 2661
8 2661 2601 2538 2604 2717 2663 2605 2665
8 2666 2606 2664 2718 2605 2539 2603 2663
8 2668 2608 2666 2720 2607 2541 2605 2665
8 2608 2542 2609 2669 2666 2606 2667 2721
8 2610 2544 2611 2671 2668 2608 2669 2723
8 2611 2545 2612 2672 2669 2609 2670 2724
8 2613 2547 2614 2674 2671 2611 2672 2726
8 2614 2548 2615 2675 2672 2612 2673 2727
8 2616 2550 2617 2677 2674 2614 2675 2729
8 2617 2551 2618 2678 2675 2615 2676 2730
8 2619 2553 2620 2680 2677 2617 2678 2732
8 2620 2554 2621 2681 2678 2618 2679 2733
8 2624 2556 2623 2684 2680 2620 2681 2735
8 2681 2621 2555 2623 2736 2682 2622 2683
8 2626 2559 2625 2685 2684 2623 2683 2737
8 2688 2628 2584 2650 2740 2686 2647 2707
8 2688 2628 2687 2742 2650 2584 2629 2690
8 2690 2629 2689 2745 2630 2564 2631 2692
8 2746 2690 2630 2691 2709 2650 2585 2651
8 2691 2630 2692 2747 2632 2565 2633 2694
8 2692 2631 2693 2748 2633 2566 2634 2695
8 2694 2633 2695 2750 2635 2568 2636 2697
8 2695 2634 2696 2751 2636 2569 2637 2698
8 2697 2636 2698 2753 2638 2571 2639 2700
8 2698 2637 2699 2754 2639 2572 2640 2701
8 2700 2639 2701 2755 2641 2574 2642 2702
8 2659 2596 2658 2714 2704 2644 2703 2757
8 2704 2644 2703 2757 2655 2590 2652 2710
8 2660 2597 2659 2715 2705 2645 2704 2758
8 2705 2645 2704 2758 2657 2593 2655 2712
8 2759 2706 2647 2707 2710 2652 2587 2653
8 2709 2650 2585 2651 2760 2707 2648 2708
8 2708 2648 2589 2654 2760 2707 2653 2711
8 2712 2655 2710 2761 2656 2592 2653 2711
8 2763 2713 2658 2714 2718 2664 2603 2663
8 2662 2602 2663 2717 2715 2659 2714 2764
8 2720 2666 2718 2767 2665 2605 2663 2717
8 2768 2719 2664 2718 2721 2667 2606 2666
8 2668 2608 2669 2723 2720 2666 2721 2770
8 2669 2609 2670 2724 2721 2667 2722 2771
8 2671 2611 2672 2726 2723 2669 2724 2773
8 2672 2612 2673 2727 2724 2670 2725 2774
8 2674 2614 2675 2729 2726 2672 2727 2776
8 2675 2615 2676 2730 2727 2673 2728 2777
8 2677 2617 2678 2732 2729 2675 2730 2779
8 2678 2618 2679 2733 2730 2676 2731 2780
8 2680 2620 2681 2735 2732 2678 2733 2782
8 2733 2679 2621 2681 2783 2734 2682 2736
8 2735 2681 2623 2684 2784 2736 2683 2737
8 2740 2686 2647 2707 2787 2738 2706 2759
8 2688 2628 2686 2740 2742 2687 2739 2789
8 2743 2688 2650 2709 2790 2740 2707 2760
8 2742 2687 2741 2792 2690 2629 2689 2745
8 2743 2688 2742 2793 2709 2650 2690 2746
8 2745 2689 2744 2795 2692 2631 2693 2748
8 2746 2690 2745 2796 2691 2630 2692 2747
8 2747 2692 2748 2797 2694 2633 2695 2750
8 2748 2693 2749 2798 2695 2634 2696 2751
8 2750 2695 2751 2800 2697 2636 2698 2753
8 2751 2696 2752 2801 2698 2637 2699 2754
8 2753 2698 2754 2802 2700 2639 2701 2755
8 2763 2713 2756 2804 2714 2658 2703 2757
8 2759 2706 2652 2710 2804 2756 2703 2757
8 2715 2659 2714 2764 2758 2704 2757 2805
8 2758 2704 2757 2805 2712 2655 2710 2761
8 2806 2759 2707 2760 2761 2710 2653 2711
8 2765 2716 2762 2808 2718 2664 2713 2763
8 2809 2763 2714 2764 2767 2718 2663 2717
8 2765 2716 2664 2718 2811 2766 2719 2768
8 2813 2768 2718 2767 2770 2721 2666 2720
8 2814 2769 2719 2768 2771 2722 2667 2721
8 2723 2669 2724 2773 2770 2721 2771 2816
8 2724 2670 2725 2774 2771 2722 2772 2817
8 2726 2672 2727 2776 2773 2724 2774 2819
8 2727 2673 2728 2777 2774 2725 2775 2820
8 2729 2675 2730 2779 2776 2727 2777 2822
8 2730 2676 2731 2780 2777 2728 2778 2823
8 2732 2678 2733 2782 2779 2730 2780 2825
8 2780 2731 2679 2733 2826 2781 2734 2783
8 2782 2733 2681 2735 2827 2783 2736 2784
8 2830 2785 2738 2787 2804 2756 2706 2759
8 2789 2739 2686 2740 2832 2786 2738 2787
8 2790 2740 2707 2760 2833 2787 2759 2806
8 2742 2687 2739 2789 2792 2741 2788 2835
8 2743 2688 2740 2790 2793 2742 2789 2836
8 2792 2741 2791 2838 2745 2689 2744 2795
8 2793 2742 2792 2839 2746 2690 2745 2796
8 2795 2744 2794 2841 2748 2693 2749 2798
8 2796 2745 2795 2842 2747 2692 2748 2797
8 2797 2748 2798 2843 2750 2695 2751 2800
8 2798 2749 2799 2844 2751 2696 2752 2801
8 2800 2751 2801 2845 2753 2698 2754 2802
8 2808 2762 2803 2847 2763 2713 2756 2804
8 2809 2763 2804 2848 2764 2714 2757 2805
8 2806 2759 2710 2761 2848 2804 2757 2805
8 2765 2716 2766 2811 2808 2762 2807 2850
8 2810 2765 2808 2851 2767 2718 2763 2809
8 2810 2765 2718 2767 2852 2811 2768 2813
8 2811 2766 2719 2768 2853 2812 2769 2814
8 2855 2814 2768 2813 2816 2771 2721 2770
8 2856 2815 2769 2814 2817 2772 2722 2771
8 2773 2724 2774 2819 2816 2771 2817 2858
8 2774 2725 2775 2820 2817 2772 2818 2859
8 2776 2727 2777 2822 2819 2774 2820 2861
8 2777 2728 2778 2823 2820 2775 2821 2862
8 2779 2730 2780 2825 2822 2777 2823 2864
8 2823 2778 2731 2780 2865 2824 2781 2826
8 2825 2780 2733 2782 2866 2826 2783 2827
8 2869 2828 2785 2830 2847 2803 2756 2804
8 2871 2829 2786 2832 2830 2785 2738 2787
8 2872 2830 2787 2833 2848 2804 2759 2806
8 2789 2739 2786 2832 2835 2788 2831 2874
8 2836 2789 2740 2790 2875 2832 2787 2833
8 2792 2741 2788 2835 2838 2791 2834 2877
8 2793 2742 2789 2836 2839 2792 2835 2878
8 2838 2791 2837 2880 2795 2744 2794 2841
8 2839 2792 2838 2881 2796 2745 2795 2842
8 2841 2794 2840 2882 2798 2749 2799 2844
8 2842 2795 2841 2883 2797 2748 2798 2843
8 2843 2798 2844 2884 2800 2751 2801 2845
8 2886 2846 2803 2847 2850 2807 2762 2808
8 2851 2808 2847 2887 2809 2763 2804 2848
8 2850 2807 2766 2811 2889 2849 2812 2853
8 2810 2765 2811 2852 2851 2808 2850 2890
8 2852 2811 2768 2813 2891 2853 2814 2855
8 2853 2812 2769 2814 2892 2854 2815 2856
8 2894 2856 2814 2855 2858 2817 2771 2816
8 2817 2772 2818 2859 2856 2815 2857 2895
8 2819 2774 2820 2861 2858 2817 2859 2897
8 2820 2775 2821 2862 2859 2818 2860 2898
8 2822 2777 2823 2864 2861 2820 2862 2900
8 2823 2778 2824 2865 2862 2821 2863 2901
8 2864 2823 2780 2825 2902 2865 2826 2866
8 2904 2867 2828 2869 2886 2846 2803 2847
8 2869 2828 2868 2906 2830 2785 2829 2871
8 2907 2869 2830 2872 2887 2847 2804 2848
8 2871 2829 2870 2909 2832 2786 2831 2874
8 2910 2871 2832 2875 2872 2830 2787 2833
8 2835 2788 2831 2874 2877 2834 2873 2912
8 2836 2789 2832 2875 2878 2835 2874 2913
8 2877 2834 2876 2915 2838 2791 2837 2880
8 2839 2792 2835 2878 2881 2838 2877 2916
8 2880 2837 2879 2917 2841 2794 2840 2882
8 2881 2838 2880 2918 2842 2795 2841 2883
8 2883 2841 2882 2919 2843 2798 2844 2884
8 2921 2885 2846 2886 2889 2849 2807 2850
8 2922 2886 2847 2887 2890 2850 2808 2851
8 2889 2849 2812 2853 2924 2888 2854 2892
8 2890 2850 2811 2852 2925 2889 2853 2891
8 2891 2853 2814 2855 2926 2892 2856 2894
8 2892 2854 2815 2856 2927 2893 2857 2895
8 2858 2817 2859 2897 2894 2856 2895 2929
8 2859 2818 2860 2898 2895 2857 2896 2930
8 2861 2820 2862 2900 2897 2859 2898 2932
8 2862 2821 2863 2901 2898 2860 2899 2933
8 2864 2823 2865 2902 2900 2862 2901 2934
8 2904 2867 2846 2886 2936 2903 2885 2921
8 2904 2867 2903 2936 2869 2828 2868 2906
8 2937 2904 2869 2907 2922 2886 2847 2887
8 2906 2868 2905 2939 2871 2829 2870 2909
8 2907 2869 2906 2940 2872 2830 2871 2910
8 2909 2870 2908 2942 2874 2831 2873 2912
8 2910 2871 2909 2943 2875 2832 2874 2913
8 2912 2873 2911 2945 2877 2834 2876 2915
8 2878 2835 2874 2913 2916 2877 2912 2946
8 2915 2876 2914 2947 2880 2837 2879 2917
8 2916 2877 2915 2948 2881 2838 2880 2918
8 2918 2880 2917 2949 2883 2841 2882 2919
8 2921 2885 2849 2889 2951 2920 2888 2924
8 2952 2921 2886 2922 2925 2889 2850 2890
8 2924 2888 2854 2892 2954 2923 2893 2927
8 2925 2889 2853 2891 2955 2924 2892 2926
8 2926 2892 2856 2894 2956 2927 2895 2929
8 2895 2857 2896 2930 2927 2893 2928 2957
8 2897 2859 2898 2932 2929 2895 2930 2959
8 2898 2860 2899 2933 2930 2896 2931 2960
8 2900 2862 2901 2934 2932 2898 2933 2961
8 2936 2903 2885 2921 2963 2935 2920 2951
8 2936 2903 2935 2963 2906 2868 2905 2939
8 2937 2904 2886 2922 2964 2936 2921 2952
8 2937 2904 2936 2964 2907 2869 2906 2940
8 2939 2905 2938 2966 2909 2870 2908 2942
8 2940 2906 2939 2967 2910 2871 2909 2943
8 2942 2908 2941 2969 2912 2873 2911 2945
8 2943 2909 2942 2970 2913 2874 2912 2946
8 2945 2911 2944 2971 2915 2876 2914 2947
8 2946 2912 2945 2972 2916 2877 2915 2948
8 2948 2915 2947 2973 2918 2880 2917 2949
8 2951 2920 2888 2924 2975 2950 2923 2954
8 2952 2921 2889 2925 2976 2951 2924 2955
8 2927 2893 2928 2957 2954 2923 2953 2978
8 2955 2924 2892 2926 2979 2954 2927 2956
8 2929 2895 2930 2959 2956 2927 2957 2980
8 2930 2896 2931 2960 2957 2928 2958 2981
8 2932 2898 2933 2961 2959 2930 2960 2982
8 2951 2920 2950 2975 2963 2935 2962 2984
8 2963 2935 2962 2984 2939 2905 2938 2966
8 2964 2936 2921 2952 2985 2963 2951 2976
8 2964 2936 2963 2985 2940 2906 2939 2967
8 2966 2938 2965 2987 2942 2908 2941 2969
8 2967 2939 2966 2988 2943 2909 2942 2970
8 2969 2941 2968 2989 2945 2911 2944 2971
8 2970 2942 2969 2990 2946 2912 2945 2972
8 2972 2945 2971 2991 2948 2915 2947 2973
8 2954 2923 2953 2978 2975 2950 2974 2993
8 2976 2951 2924 2955 2994 2975 2954 2979
8 2957 2928 2958 2981 2978 2953 2977 2995
8 2956 2927 2957 2980 2979 2954 2978 2996
8 2959 2930 2960 2982 2980 2957 2981 2997
8 2984 2962 2983 2999 2966 2938 2965 2987
8 2975 2950 2974 2993 2984 2962 2983 2999
8 2976 2951 2975 2994 2985 2963 2984 3000
8 2985 2963 2984 3000 2967 2939 2966 2988
8 2987 2965 2986 3001 2969 2941 2968 2989
8 2988 2966 2987 3002 2970 2942 2969 2990
8 2990 2969 2989 3003 2972 2945 2971 2991
8 2978 2953 2977 2995 2993 2974 2992 3004
8 2979 2954 2978 2996 2994 2975 2993 3005
8 2980 2957 2981 2997 2996 2978 2995 3006
8 2974 2993 2999 2983 2992 3004 3007 2998
8 2983 2999 2987 2965 2998 3007 3001 2986
8 3000 2984 2999 3008 2988 2966 2987 3002
8 2994 2975 2993 3005 3000 2984 2999 3008
8 3002 2987 3001 3009 2990 2969 2989 3003
8 2996 2978 2995 3006 3005 2993 3004 3010
8 3005 2993 3004 3010 3008 2999 3007 3011
8 3008 2999 3007 3011 3002 2987 3001 3009

CELL_TYPES 1910
12
12
12
12
12
12
12
12
12
12
12
12
12
12
12
12
12
12
12
12
12
12
12
12
12
12
12
12
12
12
12
12
12
12
12
12
12
12
12
12
12
12
12
12
12
12
12
12
12
12
12
12
12
12
12
12
12
12
12
12
12
12
12
12
12
12
12
12
12
12
12
12
12
12
12
12
12
12
12
12
12
12
12
12
12
12
12
12
12
12
12
12
12
12
12
12
12
12
12
12
12
12
12
12
12
12
12
12
12
12
12
12
12
12
12
12
12
12
12
12
12
12
12
12
12
12
12
12
12
12
12
12
12
12
12
12
12
12
12
12
12
12
12
12
12
12
12
12
12
12
12
12
12
12
12
12
12
12
12
12
12
12
12
12
12
12
12
12
12
12
12
12
12
12
12
12
12
12
12
12
12
12
12
12
12
12
12
12
12
12
12
12
12
12
12
12
12
12
12
12
12
12
12
12
12
12
12
12
12
12
12
12
12
12
12
12
12
12
12
12
12
12
12
12
12
12
12
12
12
12
12
12
12
12
12
12
12
12
12
12
12
12
12
12
12
12
12
12
12
12
12
12
12
12
12
12
12
12
12
12
12
12
12
12
12
12
12
12
12
12
12
12
12
12
12
12
12
12
12
12
12
12
12
12
12
12
12
12
12
12
12
12
12
12
12
12
12
12
12
12
12
12
12
12
12
12
12
12
12
12
12
12
12
12
12
12
12
12
12
12
12
12
12
12
12
12
12
12
12
12
12
12
12
12
12
12
12
12
12
12
12
12
12
12
12
12
12
12
12
12
12
12
12
12
12
12
12
12
12
12
12
12
12
12
12
12
12
12
12
12
12
12
12
12
12
12
12
12
12
12
12
12
12
12
12
12
12
12
12
12
12
12
12
12
12
12
12
12
12
12
12
12
12
12
12
12
12
12
12
12
12
12
12
12
12
12
12
12
12
12
12
12
12
12
12
12
12
12
12
12
12
12
12
12
12
12
12
12
12
12
12
12
12
12
12
12
12
12
12
12
12
12
12
12
12
12
12
12
12
12
12
12
12
12
12
12
12
12
12
12
12
12
12
12
12
12
12
12
12
12
12
12
12
12
12
12
12
12
12
12
12
12
12
12
12
12
12
12
12
12
12
12
12
12
12
12
12
12
12
12
12
12
12
12
12
12
12
12
12
12
12
12
12
12
12
12
12
12
12
12
12
12
12
12
12
12
12
12
12
12
12
12
12
12
12
12
12
12
12
12
12
12
12
12
12
12
12
12
12
12
12
12
12
12
12
12
12
12
12
12
12
12
12
12
12
12
12
12
12
12
12
12
12
12
12
12
12
12
12
12
12
12
12
12
12
12
12
12
12
12
12
12
12
12
12
12
12
12
12
12
12
12
12
12
12
12
12
12
12
12
12
12
12
12
12
12
12
12
12
12
12
12
12
12
12
12
12
12
12
12
12
12
12
12
12
12
12
12
12
12
12
12
12
12
12
12
12
12
12
12
12
12
12
12
12
12
12
12
12
12
12
12
12
12
12
12
12
12
12
12
12
12
12
12
12
12
12
12
12
12
12
12
12
12
12
12
12
12
12
12
12
12
12
12
12
12
12
12
12
12
12
12
12
12
12
12
12
12
12
12
12
12
12
12
12
12
12
12
12
12
12
12
12
12
12
12
12
12
12
12
12
12
12
12
12
12
12
12
12
12
12
12
12
12
12
12
12
12
12
12
12
12
12
12
12
12
12
12
12
12
12
12
12
12
12
12
12
12
12
12
12
12
12
12
12
12
12
12
12
12
12
12
12
12
12
12
12
12
12
12
12
12
12
12
12
12
12
12
12
12
12
12
12
12
12
12
12
12
12
12
12
12
12
12
12
12
12
12
12
12
12
12
12
12
12
12
12
12
12
12
12
12
12
12
12
12
12
12
12
12
12
12
12
12
12
12
12
12
12
12
12
12
12
12
12
12
12
12
12
12
12
12
12
12
12
12
12
12
12
12
12
12
12
12
12
12
12
12
12
12
12
12
12
12
12
12
12
12
12
12
12
12
12
12
12
12
12
12
12
12
12
12
12
12
12
12
12
12
12
12
12
12
12
12
12
12
12
12
12
12
12
12
12
12
12
12
12
12
12
12
12
12
12
12
12
12
12
12
12
12
12
12
12
12
12
12
12
12
12
12
12
12
12
12
12
12
12
12
12
12
12
12
12
12
12
12
12
12
12
12
12
12
12
12
12
12
12
12
12
12
12
12
12
12
12
12
12
12
12
12
12
12
12
12
12
12
12
12
12
12
12
12
12
12
12
12
12
12
12
12
12
12
12
12
12
12
12
12
12
12
12
12
12
12
12
12
12
12
12
12
12
12
12
12
12
12
12
12
12
12
12
12
12
12
12
12
12
12
12
12
12
12
12
12
12
12
12
12
12
12
12
12
12
12
12
12
12
12
12
12
12
12
12
12
12
12
12
12
12
12
12
12
12
12
12
12
12
12
12
12
12
12
12
12
12
12
12
12
12
12
12
12
12
12
12
12
12
12
12
12
12
12
12
12
12
12
12
12
12
12
12
12
12
12
12
12
12
12
12
12
12
12
12
12
12
12
12
12
12
12
12
12
12
12
12
12
12
12
12
12
12
12
12
12
12
12
12
12
12
12
12
12
12
12
12
12
12
12
12
12
12
12
12
12
12
12
12
12
12
12
12
12
12
12
12
12
12
12
12
12
12
12
12
12
12
12
12
12
12
12
12
12
12
12
12
12
12
12
12
12
12
12
12
12
12
12
12
12
12
12
12
12
12
12
12
12
12
12
12
12
12
12
12
12
12
12
12
12
12
12
12
12
12
12
12
12
12
12
12
12
12
12
12
12
12
12
12
12
12
12
12
12
12
12
12
12
12
12
12
12
12
12
12
12
12
12
12
12
12
12
12
12
12
12
12
12
12
12
12
12
12
12
12
12
12
12
12
12
12
12
12
12
12
12
12
12
12
12
12
12
12
12
12
12
12
12
12
12
12
12
12
12
12
12
12
12
12
12
12
12
12
12
12
12
12
12
12
12
12
12
12
12
12
12
12
12
12
12
12
12
12
12
12
12
12
12
12
12
12
12
12
12
12
12
12
12
12
12
12
12
12
12
12
12
12
12
12
12
12
12
12
12
12
12
12
12
12
12
12
12
12
12
12
12
12
12
12
12
12
12
12
12
12
12
12
12
12
12
12
12
12
12
12
12
12
12
12
12
12
12
12
12
12
12
12
12
12
12
12
12
12
12
12
12
12
12
12
12
12
12
12
12
12
12
12
12
12
12
12
12
12
12
12
12
12
12
12
12
12
12
12
12
12
12
12
12
12
12
12
12
12
12
12
12
12
12
12
12
12
12
12
12
12
12
12
12
12
12
12
12
12
12
12
12
12
12
12
12
12
12
12
12
12
12
12
12
12
12
12
12
12
12
12
12
12
12
12
12
12
12
12
12
12
12
12
12
12
12
12
12
12
12
12
12
12
12
12
12
12
12
12
12
12
12
12
12
12
12
12
12
12
12
12
12
12
12
12
12
12
12
12
12
12
12
12
12
12
12
12
12
12
12
12
12
12
12
12
12
12
12
12
12
12
12
12
12
12
12
12
12
12
12
12
12
12
12
12
12
12
12
12
12
12
12
12
12
12
12
12
12
12
12
12
12
12
12
12
12
12
12
12
12
12
12
12
12
12
12
12
12
12
12
12
12
12
12
12
12
12
12
12
12
12
12
12
12
12
12
12
12
12
12
12
12
12
12
12
12
12
12
12
12
12
12
12
12
12
12
12
12
12
12
12
12
12
12
12
12
12
12
12
12
12
12
12
12
12
12
12
12
12
12
12
12
12
12
12
12
12
12
12
12
12
12
12
12
12
12
12
12
12
12
12
12
12
12
12
12
12
12
12
12
12
12
12
12
12
12
12
12
12
12
12
12
12
12
12
12
12
12
12
12
12
12
12
12
12
12
12
12
12
12
12
12
12
12
12
12
12
12
12
12
12
12
12
12
12
12
12
12
12
12
12
12
12
12
12
12
12
12
12
12
12
12
12
12
12
12
12
12
12
12
12
12
12
12
12
12
12
12
12
12
12
12
12
12
12
12
12
12
12
12
12
12
12
12
12
12
12
12
12
12
12
12
12
12
12
12
12
12
12
12
12
12
12
12
12
12
12
12
12
12
12
12
12
12
12
12
12
12
12
12
12
12
12
12
12
12
12
12
12
12
12
12
12
12
12
12
12
12
12
12
12
12
12
12
12
12
12
12
12
12
12
12
12
12
12
12
12
12
12
12
12
12
12
12
12
12
12
12

POINT_DATA 3012
SCALARS Jp_lamdaP float 4
LOOKUP_TABLE default
0.999427 1 1 0.999427
1 1 1 1
0.999445 1 1 0.999445
0.999369 1 1 0.999369
0.999429 1 1 0.999429
0.999396 1 1 0.999396
1.01242 1.01414 1 0.998301
1 1 1 1
1 1 1 1
1 1 1 1
0.999472 1 1 0.999472
1.00854 1.01027 1 0.998289
0.99942 1 1 0.99942
0.9994 1 1 0.9994
0.999453 1 1 0.999453
0.999408 1 1 0.999408
0.999407 1 1 0.999407
0.999457 1 1 0.999457
1.01237 1.01409 1 0.998298
1 1 1 1
0.999359 1 1 0.999359
0.999403 1 1 0.999403
1.00588 1.00768 1 0.998213
1.01102 1.01275 1 0.998296
0.999381 1 1 0.999381
1.0123 1.01404 1 0.998282
1.04106 1.04457 1 0.996641
1 1 1 1
0.999715 1 1 0.999715
0.999727 1 1 0.999727
1 1 1 1
1.00664 1.00835 1 0.998298
0.999421 1 1 0.999421
0.99945 1 1 0.99945
1.01256 1.01406 1 0.998519
1 1 1 1
1.01249 1.01394 1 0.998578
1.00245 1.00411 1 0.998351
1.02784 1.03142 1 0.996532
1 1 1 1
1 1 1 1
0.999703 1 1 0.999703
1 1 1 1
0.999422 1 1 0.999422
1.00047 1.00234 1 0.998133
1 1 1 1
1.00469 1.00627 1 0.998435
0.999441 1 1 0.999441
0.999478 1 1 0.999478
0.99941 1 1 0.99941
1.01237 1.01409 1 0.9983
0.999688 1 1 0.999688
0.999394 1 1 0.999394
0.999394 1 1 0.999394
0.999439 1 1 0.999439
1.00563 1.00744 1 0.998203
1.01233 1.01408 1 0.998281
1.01083 1.01256 1 0.998292
1.04152 1.04504 1 0.996634
1 1 1 1
0.999379 1 1 0.999379
1.00057 1.00205 1 0.998527
1.00382 1.00563 1 0.998199
1.00863 1.01039 1 0.998257
1.04071 1.04437 1 0.996492
1.04211 1.0457 1 0.996564
0.999409 1 1 0.999409
1.00494 1.00663 1 0.998329
1.03979 1.04326 1 0.996673
1.06131 1.06577 1 0.995807
1 1 1 1
1 1 1 1
1 1 1 1
1.00504 1.00675 1 0.998306
1 1 1 1
1 1 1 1
1.01257 1.01438 1 0.99822
0.999789 1 1 0.999789
1.01141 1.01313 1 0.998298
1.00147 1.00282 1.0001 0.998562
1.03023 1.03382 1 0.996527
1 1 1 1
1.00358 1 1.0042 0.999385
1.01026 1.01215 1 0.998132
1.01301 1.01479 1 0.998243
1.04839 1.05237 1 0.996215
1.0002 1.00041 1.00085 0.998945
1.03846 1.04215 1 0.996465
1.02164 1.02495 1.00007 0.996697
1.05074 1.0552 1 0.995776
1 1 1 1
1 1 1 1
1 1 1 1
1 1 1 1
1 1 1 1
0.999712 1 1 0.999712
1.00107 1.00276 1 0.998318
0.9997 1 1 0.9997
1.00558 1.0073 1 0.998283
1 1 1 1
0.99969 1.00151 1 0.998181
1.00232 1.00388 1 0.998453
1.03826 1.04221 1 0.996206
1.00795 1.0095 1 0.998464
1.04468 1.04868 1 0.996186
0.999445 1 1 0.999445
0.999425 1 1 0.999425
0.999403 1 1 0.999403
0.999469 1 1 0.999469
1.00538 1.00719 1 0.998196
1.01065 1.01238 1 0.998291
1.01216 1.0139 1 0.998284
1.04219 1.04572 1 0.996626
1 1 1 1
0.999411 1 1 0.999411
1.00018 1.00196 1 0.998225
1.00346 1.00528 1 0.998187
0.99971 1 1 0.99971
1.00634 1.00792 1 0.998433
1.0084 1.01017 1 0.998251
1.04084 1.04452 1 0.99648
1.03911 1.04259 1 0.996664
1.04287 1.04645 1 0.996576
1.06094 1.06539 1 0.995818
0.999759 1.00156 1 0.998205
1.00194 1.00372 1 0.998222
1.0345 1.0381 1 0.996538
1.03761 1.04127 1 0.996484
1.04313 1.04678 1 0.996513
1.07566 1.08019 0.999824 0.995982
1 1 1 1
1.06588 1.0703 1 0.995869
1.00006 1.00115 1.00048 0.998429
1.02993 1.0335 1 0.996547
1.05756 1.06209 1 0.995743
1.06473 1.06909 1 0.995915
1.00245 1 1.00352 0.998937
1.00733 1.00021 1.00958 0.997551
1 1 1 1
1 1 1 1
1.01281 1.01461 1 0.998223
1 1 1 1
1.00044 1.00151 1.00048 0.998451
1.01064 1.01235 1 0.998305
1.03184 1.03544 1 0.996522
1 1 1 1
1.00381 1 1.00441 0.99941
1.01111 1.01282 1 0.998311
1.01309 1.0147 1 0.998407
1.04736 1.05134 1 0.996213
1.00053 1.00028 1.00147 0.998783
1.03844 1.04212 1 0.996465
1.02034 1.0236 1.00012 0.996693
1.05071 1.05516 1 0.995786
1.00197 1 1.00289 0.999089
1.00429 1 1.00469 0.999611
1.00915 1.00164 1.00955 0.997966
1.04876 1.05281 1 0.996156
1.04543 1.04928 1 0.996337
1.07016 1.0747 1 0.995776
1.0146 1.01619 1.00139 0.997056
1.05636 1.06073 1 0.99588
1.03846 1.04225 1.00057 0.9958
1.05792 1.06244 1 0.995751
1 1 1 1
1 1 1 1
1 1 1 1
1.00302 1 1.00387 0.999155
1 1 1 1
1 1 1 1
1 1 1 1
1.00624 1.00812 1 0.998137
1.0013 1.00313 1 0.998175
1 1 1 1
1 1 1 1
0.999873 1.0017 1 0.998181
1.00281 1.00451 1 0.998304
1.03816 1.04211 1 0.996207
1.00836 1.01025 1 0.998134
1.04336 1.04735 1 0.996184
0.99943 1.00125 1 0.998187
1.0358 1.03976 1 0.99619
1.04126 1.04522 1 0.996212
1.07677 1.0823 0.998766 0.996124
1.0468 1.05084 1 0.996155
1.07787 1.08334 0.998893 0.996049
1 1 1 1
0.999443 1 1 0.999443
0.999732 1.00185 1 0.997887
1.00312 1.00495 1 0.998176
1 1 1 1
1.00802 1.00949 1 0.998542
1.00818 1.00995 1 0.998247
1.04091 1.0446 1 0.996467
1.04376 1.04733 1 0.996589
1.03818 1.04166 1 0.996655
1.06019 1.06463 1 0.995828
0.999615 1.00141 1 0.998202
1.00166 1.00346 1 0.99821
1.03506 1.03881 1 0.996388
1.03825 1.04192 1 0.996481
1 1 1 1
1.00179 1.00299 1.00024 0.998554
1.0294 1.03284 1.00001 0.996659
1.04354 1.0472 1 0.996504
1.07504 1.08002 0.999382 0.996007
1.05759 1.06211 1 0.995743
1.06586 1.07025 1 0.995897
1.06427 1.06862 1 0.995925
1.00211 1 1.00319 0.998923
1.00728 1.00096 1.00878 0.997549
1.03415 1.03808 1 0.99621
1.03545 1.03907 1 0.996521
1.0755 1.08077 0.999013 0.996107
1.07457 1.08077 0.998202 0.996062
1.07042 1.07552 0.999258 0.995996
1.07239 1.08128 0.995492 0.996276
1.00064 1 1.00196 0.99868
1.06679 1.07158 0.999412 0.996112
1.0188 1.02201 1.00011 0.996754
1.05306 1.0576 1 0.995707
1.06382 1.06841 1 0.995706
1.06241 1.06728 0.999171 0.996265
1.00563 1.00277 1.00567 0.997208
1.00814 1.00012 1.01009 0.997946
1.0073 1.00455 1.00598 0.99677
1.01162 1.01348 1 0.99817
1 1 1 1
1.00361 1 1.00418 0.999434
1.0128 1.01455 1 0.99828
1.04649 1.05048 1 0.99621
1.00055 1 1.00177 0.998777
1.02046 1.0238 1.00004 0.996689
1.03825 1.04193 1 0.996465
1.05197 1.05641 1 0.995795
1.00234 1 1.00323 0.999113
1.00335 1 1.00372 0.999629
1.00839 1.00061 1.00983 0.997965
1.04782 1.05187 1 0.996151
1.04435 1.04819 1 0.996338
1.07041 1.07496 1 0.995769
1.01142 1.01332 1.00107 0.997059
1.05717 1.06155 1 0.995874
1.04343 1.04735 1.00047 0.995787
1.05918 1.06368 1 0.99577
1.00205 1 1.0023 0.999753
1.00914 1.00634 1.00531 0.997478
1.01006 1 1.01165 0.998427
1.01096 1.00673 1.00691 0.997308
1.07507 1.07963 0.99995 0.995831
1.06383 1.06831 1 0.995809
1.07044 1.07542 0.999451 0.995912
1.02556 1.02854 1.00097 0.996143
1.05821 1.06248 1 0.995981
1.05314 1.05614 1.00158 0.995587
1.07149 1.076 1 0.995802
1.00069 1 1.00136 0.999338
0.999896 1 1 0.999896
1 1 1 1
1 1 1 1
1 1 1 1
1.00365 1 1.00428 0.999368
1 1 1 1
1.00311 1 1.00398 0.999135
1 1 1 1
1.00926 1.01115 1 0.998135
1.00342 1.00527 1 0.998159
1.04251 1.04651 1 0.996182
1.03815 1.0421 1 0.996208
1.0001 1.00192 1 0.998183
1 1 1 1
0.999496 1.00131 1 0.998186
1.03595 1.03991 1 0.996191
1.04087 1.04483 1 0.996211
1.07654 1.08206 0.998776 0.996122
1.04615 1.05019 1 0.99615
1.07857 1.08393 0.999003 0.996046
1.03433 1.03828 1 0.996193
1.07601 1.0814 0.9989 0.996105
1.07753 1.08309 0.998753 0.996109
1.07017 1.08068 0.993761 0.996495
1.07815 1.08317 0.999415 0.995944
1.07271 1.08436 0.992864 0.996368
0.999549 1.00135 1 0.998201
1.00137 1.00318 1 0.998198
1.03565 1.03956 1 0.99624
1.03892 1.0426 1 0.996477
1 1 1 1
1.00326 1.00455 1.00004 0.998682
1.02892 1.03225 1 0.996769
1.04395 1.04762 1 0.996495
1.07448 1.07995 0.998899 0.996032
1.06566 1.07002 1 0.995924
1.05834 1.06287 1 0.995744
1.06408 1.06842 1 0.995934
1.00193 1 1.00302 0.99891
1.00779 1.00181 1.00845 0.997547
1.03431 1.03824 1 0.996218
1.03611 1.03974 1 0.996515
1.07477 1.08039 0.99865 0.996137
1.07542 1.08107 0.998737 0.996034
1.00044 1.00024 1.00153 0.998668
1.01941 1.02254 1.00019 0.996754
1.05396 1.05849 1 0.995723
1.07066 1.07542 0.99961 0.995967
1.07148 1.08113 0.994727 0.996331
1.06313 1.06771 1 0.995711
1.06688 1.07175 0.999337 0.996115
1.06268 1.06755 0.999185 0.996251
1.0072 1.00448 1.00552 0.997206
1.00852 1.0051 1.00666 0.996766
1.00926 1.0002 1.01113 0.997948
1.07529 1.08052 0.999062 0.996094
1.07556 1.08159 0.998294 0.996128
1.07056 1.07998 0.99484 0.99642
1.07173 1.08324 0.992988 0.996362
1.06744 1.07508 0.996613 0.996269
1.06227 1.07772 0.988991 0.996638
1.00711 1.00925 1.00089 0.996989
1.06075 1.0709 0.994052 0.996452
1.04201 1.0463 1 0.995899
1.05684 1.06168 1 0.995433
1.05899 1.06344 1 0.995816
1.05434 1.06252 0.99575 0.996541
1.01181 1 1.01358 0.998251
1.01055 1.01179 1.00227 0.996505
1.00937 1.00111 1.0112 0.997084
1.0121 1.01115 1.00458 0.996379
1.04694 1.05099 1 0.996146
1.00275 1 1.00311 0.999647
1.00284 1 1.0037 0.999138
1.00955 1.00011 1.01149 0.997964
1.04344 1.04728 1 0.996338
1.07054 1.07509 1 0.995763
1.00655 1.0087 1.00081 0.997063
1.04487 1.04895 1.00033 0.995775
1.05806 1.06245 1 0.995868
1.05848 1.06295 1 0.995789
1.00134 1 1.00158 0.999767
1.00731 1.00405 1.00578 0.997487
1.0111 1.00009 1.0126 0.99843
1.0097 1.00515 1.00724 0.997306
1.0747 1.07923 0.999977 0.995825
1.06429 1.06878 1 0.995805
1.06993 1.07486 0.999509 0.99591
1.02331 1.02636 1.00089 0.996145
1.05762 1.06192 1 0.995957
1.04962 1.05247 1.00173 0.995573
1.07085 1.07525 1 0.995903
0.999869 1 1.00003 0.999839
1.00745 1 1.00868 0.998775
1.01281 1.01367 1.00241 0.996757
1.01534 1.00328 1.01437 0.997675
1.0088 1.00876 1.00297 0.997081
1.07215 1.07959 0.997045 0.996045
1.06432 1.0687 1 0.995904
1.06258 1.07065 0.99634 0.996107
1.0247 1.02701 1.00199 0.995763
1.06091 1.06512 0.999995 0.99606
1.04225 1.04608 1.00086 0.995481
1.00111 1 1.0019 0.999214
1.00355 1 1.00493 0.998623
0.999443 1 1 0.999443
0.999932 1 1.00059 0.999341
0.999936 1 1 0.999936
0.999905 1 1 0.999905
1 1 1 1
1 1 1 1
1 1 1 1
1.00237 1 1.00276 0.999609
1 1 1 1
1.00365 1 1.0043 0.999351
1 1 1 1
1.00272 1 1.00361 0.999115
1 1 1 1
1.0452 1.04925 1 0.996145
1.04019 1.04415 1 0.996211
1.07888 1.08412 0.999117 0.996044
1.07622 1.08172 0.998793 0.996121
1.03606 1.04002 1 0.996192
0.999487 1.0013 1 0.998185
1.03448 1.03843 1 0.996193
1.07562 1.081 0.998917 0.996105
1.07763 1.08313 0.998812 0.996108
1.06971 1.08086 0.993148 0.996512
1.07753 1.08246 0.999504 0.995939
1.07273 1.08433 0.992912 0.996367
1.07525 1.08058 0.998971 0.996093
1.0692 1.08023 0.993254 0.996519
1.07162 1.08258 0.993393 0.996456
1.06684 1.08092 0.990223 0.996718
1.07121 1.08216 0.993628 0.996223
1.06685 1.08499 0.986538 0.996698
1.03437 1.03829 1 0.996225
1.03679 1.04043 1 0.996508
1.07405 1.08002 0.998295 0.996167
1.07617 1.08129 0.999259 0.996006
1.00035 1.00059 1.0011 0.998658
1.02072 1.02383 1.0002 0.996756
1.05571 1.06023 1 0.995739
1.07093 1.0753 1 0.995937
1.07059 1.08094 0.994023 0.996386
1.06699 1.07194 0.999264 0.996118
1.06209 1.06666 1 0.995715
1.06282 1.06769 0.999199 0.996237
1.00909 1.0066 1.00529 0.997204
1.00824 1.005 1.00648 0.996762
1.00968 1.00037 1.01138 0.99795
1.07486 1.0801 0.999046 0.996098
1.07486 1.08119 0.998011 0.996127
1.0701 1.08026 0.994108 0.996467
1.07184 1.08276 0.993554 0.996335
1.01138 1.01322 1.0012 0.996989
1.04117 1.04546 1 0.995901
1.05655 1.06135 1.00003 0.995452
1.06817 1.07522 0.997223 0.996217
1.06185 1.07804 0.988259 0.996684
1.05974 1.06423 1 0.995777
1.06115 1.07126 0.994084 0.996452
1.05524 1.06318 0.995938 0.996579
1.01112 1.01244 1.0022 0.996505
1.01002 1.00936 1.00434 0.996326
1.00986 1 1.01163 0.998252
1.00857 1.00073 1.01074 0.997129
1.06988 1.07981 0.994317 0.996471
1.07279 1.08345 0.993754 0.996391
1.06165 1.07628 0.989742 0.996635
1.06005 1.0794 0.985311 0.996716
1.06029 1.07505 0.989627 0.996607
1.06241 1.08168 0.985291 0.996851
1.02295 1.02663 1.00023 0.99619
1.05241 1.06873 0.987877 0.996817
1.04131 1.04597 1 0.995538
1.05227 1.05704 1.00018 0.995311
1.05736 1.06178 0.999994 0.995847
1.0588 1.06743 0.995291 0.996607
1.00686 1 1.00833 0.99854
1.01314 1.00151 1.01431 0.997335
1.01586 1.01919 1.00063 0.996108
1.0087 1.00508 1.00686 0.99677
1.01221 1.00905 1.007 0.996152
1.00056 1 1.00078 0.999781
1.07429 1.0788 1 0.995818
1.0107 1.00021 1.01208 0.998433
1.00572 1.00196 1.00628 0.997497
1.00799 1.00346 1.00723 0.997304
1.06471 1.0692 1 0.995802
1.06943 1.07429 0.999567 0.995909
1.02479 1.02823 1.00051 0.996147
1.04939 1.05203 1.00193 0.995559
1.05723 1.06155 1 0.995933
1.07104 1.07533 1 0.996004
0.999849 1 1 0.999849
1.00762 1 1.00885 0.998786
1.0106 1.01218 1.00168 0.996768
1.0156 1.00288 1.01505 0.997666
1.00902 1.00877 1.00325 0.997001
1.07229 1.07966 0.997121 0.996041
1.06388 1.06825 1 0.995903
1.06202 1.07021 0.996241 0.996096
1.02572 1.02787 1.00216 0.995759
1.06473 1.06899 0.999983 0.996035
1.04242 1.0461 1.00096 0.995525
1.0027 1 1.00366 0.999039
1.01331 1.00086 1.01444 0.998041
1.00588 1.00893 1.00062 0.996355
1.01852 1.00902 1.01214 0.997311
1.01477 1.01584 1.00211 0.996837
1.06606 1.0797 0.991047 0.996285
1.05966 1.06409 0.999782 0.996052
1.05517 1.0659 0.99358 0.996327
1.00635 1.0069 1.00379 0.99568
1.03891 1.04355 1 0.995548
1.0012 1 1.00198 0.999216
1.00196 1 1.00346 0.998509
1.00387 1 1.00528 0.9986
1.00339 1 1.00503 0.998372
1.00164 1 1.00293 0.998716
0.999507 1 1 0.999507
0.99964 1 1.00019 0.999447
0.999965 1 1 0.999965
1.00001 1 1.00066 0.999343
0.999945 1 1 0.999945
1 1 1 1
0.999913 1 1 0.999913
1 1 1 1
1 1 1 1
1.0006 1 1.00078 0.999828
1.00348 1 1.00389 0.999591
1 1 1 1
1 1 1 1
1.00412 1 1.00479 0.999333
1 1 1 1
1.07712 1.08196 0.999597 0.995934
1.07801 1.08347 0.998855 0.996106
1.07286 1.08441 0.992956 0.996367
1.06932 1.08112 0.992528 0.996528
1.07522 1.08059 0.998925 0.996106
1.03472 1.03868 1 0.996193
1.07495 1.08026 0.998982 0.996093
1.06938 1.08014 0.993502 0.996514
1.07181 1.08282 0.993353 0.996457
1.06596 1.08077 0.989523 0.996746
1.07199 1.08301 0.993579 0.996219
1.06694 1.08506 0.986537 0.996721
1.06954 1.08015 0.99366 0.99649
1.06487 1.08031 0.988971 0.9967
1.06759 1.0829 0.989044 0.996777
1.06805 1.08765 0.985062 0.996863
1.06622 1.08378 0.987231 0.996527
1.07041 1.09145 0.983761 0.996917
1.07444 1.07969 0.99903 0.996102
1.07415 1.08076 0.997747 0.996125
1.06958 1.08051 0.993349 0.996514
1.07196 1.08228 0.994133 0.996308
1.01427 1.01572 1.00159 0.99699
1.03794 1.04221 1 0.995902
1.05569 1.06031 1.00018 0.995471
1.06887 1.07537 0.997775 0.996166
1.06145 1.07834 0.987567 0.996731
1.06169 1.07177 0.994119 0.996453
1.06048 1.06502 1 0.995737
1.05598 1.0637 0.996107 0.996618
1.01314 1.0135 1.00314 0.996506
1.00896 1.00828 1.00442 0.996274
1.00908 1 1.01085 0.998253
1.00813 1.00068 1.0103 0.997174
1.07009 1.08003 0.994308 0.99647
1.07242 1.08306 0.99378 0.996374
1.06143 1.07625 0.989527 0.996665
1.0612 1.0796 0.986208 0.996699
1.02313 1.02594 1.00108 0.996186
1.04002 1.04462 1.00003 0.995567
1.05165 1.05621 1.00039 0.995299
1.06121 1.07526 0.990348 0.996557
1.06053 1.08053 0.984533 0.996907
1.05533 1.05975 0.999996 0.995833
1.05349 1.06986 0.987845 0.996817
1.05794 1.06668 0.995112 0.996679
1.01437 1.01725 1.00107 0.996114
1.0099 1.00871 1.00507 0.996135
1.0087 1.00395 1.00799 0.996768
1.00758 1 1.00907 0.998519
1.01272 1.0006 1.01478 0.997373
1.06355 1.0791 0.988877 0.996681
1.06386 1.08161 0.986856 0.996692
1.06009 1.08585 0.979324 0.996891
1.05532 1.07689 0.983014 0.996907
1.02364 1.0279 1 0.99585
1.05602 1.07398 0.986245 0.996987
1.02566 1.03018 1.00029 0.995321
1.0436 1.04814 1.00051 0.995164
1.05396 1.05903 0.999357 0.995854
1.00283 1 1.00392 0.998911
1.01255 1 1.01481 0.997773
1.00868 1.00053 1.01113 0.997048
1.01086 1.01326 1.00165 0.995988
1.01091 1.00533 1.00929 0.996298
1.01047 1.00836 1.00613 0.995989
0.999859 1 1 0.999859
1.00793 1 1.00915 0.998797
1.0724 1.07969 0.9972 0.996036
1.01662 1.00227 1.0167 0.997658
1.00721 1.00911 1.00134 0.996779
1.00971 1.00922 1.00358 0.996922
1.06326 1.06764 1 0.995902
1.06167 1.06997 0.996146 0.996085
1.02493 1.0269 1.00233 0.995757
1.04146 1.04528 1.00077 0.995569
1.06887 1.07317 0.999973 0.996011
1.0021 1 1.00306 0.999045
1.01391 1.00037 1.01553 0.998045
1.00917 1.01226 1.00064 0.996302
1.01877 1.00796 1.01345 0.997312
1.01534 1.01661 1.00195 0.996817
1.06472 1.07832 0.991069 0.99628
1.06211 1.06658 0.999776 0.996038
1.05792 1.06841 0.993812 0.996348
1.00887 1.01 1.00324 0.995656
1.03682 1.04144 1.00006 0.995512
1.00586 1 1.00751 0.99837
1.01664 1.00112 1.01792 0.997619
1.00548 1.00718 1.00214 0.99618
1.02382 1.01702 1.00974 0.996975
1.03088 1.03326 1.00107 0.996629
1.05566 1.0781 0.982348 0.996772
1.06326 1.06882 0.99891 0.995888
1.06407 1.07335 0.995059 0.996281
1.01139 1.01144 1.00433 0.99564
1.01765 1.02246 1 0.995295
1.00055 1 1.00133 0.999219
1.00154 1 1.00303 0.998518
0.999298 1 1.00093 0.998368
1.00207 1 1.0035 0.998576
1.0009 1 1.00219 0.998713
1.00455 1 1.0062 0.99836
1.00074 1 1.00234 0.9984
1.00467 1 1.00638 0.998302
0.999491 1 1.00071 0.998785
0.999506 1 1 0.999506
0.999507 1 1 0.999507
0.999984 1 1 0.999984
0.99945 1 1 0.99945
0.999971 1 1 0.999971
1 1 1 1
0.999954 1 1 0.999954
1 1 1 1
1 1 1 1
0.999945 1 1 0.999945
1.00088 1 1.00108 0.999801
1 1 1 1
1.0039 1 1.00433 0.999573
1 1 1 1
1 1 1 1
1.07275 1.08385 0.993527 0.996214
1.07183 1.08288 0.993317 0.996458
1.06703 1.08513 0.986531 0.996743
1.06504 1.08057 0.988817 0.996774
1.06959 1.08006 0.993772 0.996509
1.07464 1.07993 0.999008 0.996094
1.06982 1.08018 0.993916 0.996472
1.06541 1.08029 0.989496 0.996693
1.06697 1.0822 0.989123 0.996763
1.06622 1.08674 0.984196 0.996873
1.06626 1.08362 0.987407 0.99653
1.06749 1.08957 0.982733 0.996952
1.0661 1.08059 0.98989 0.996673
1.0681 1.08921 0.983703 0.996866
1.06872 1.09082 0.98274 0.996949
1.06189 1.08918 0.977924 0.99696
1.07034 1.08029 0.994299 0.99647
1.07209 1.08272 0.993801 0.996358
1.06131 1.07631 0.989335 0.996695
1.06236 1.07987 0.987057 0.996682
1.02456 1.02734 1.00111 0.996181
1.03926 1.04386 1 0.995597
1.05101 1.05537 1.00058 0.995286
1.06198 1.07533 0.991042 0.996507
1.05859 1.07939 0.983718 0.996962
1.05439 1.07077 0.987853 0.996816
1.05377 1.05819 1 0.995818
1.05848 1.06693 0.995314 0.99675
1.00947 1.01198 1.00141 0.996119
1.00851 1.0087 1.00371 0.996118
1.01053 1.00339 1.01039 0.996766
1.00703 1 1.00855 0.998499
1.01233 1.00011 1.01485 0.997412
1.0634 1.07892 0.988899 0.996682
1.06456 1.08227 0.986907 0.996688
1.06081 1.08523 0.980552 0.996884
1.02336 1.02761 1.00002 0.995849
1.02563 1.03015 1.00026 0.995355
1.04233 1.04661 1.00076 0.995153
1.05557 1.0767 0.983428 0.996894
1.05676 1.06225 0.99884 0.995982
1.0527 1.07083 0.986067 0.996953
1.00296 1 1.004 0.998971
1.00947 1.01059 1.00292 0.995985
1.01032 1.00627 1.00796 0.996088
1.01465 1.00767 1.01068 0.996289
1.01176 1.00339 1.01131 0.997071
1.01312 1 1.01542 0.997741
1.06681 1.08719 0.984457 0.99675
1.06484 1.09255 0.977721 0.996839
1.05392 1.08428 0.974962 0.996962
1.04763 1.07778 0.974854 0.997098
1.01303 1.01713 1.00027 0.995702
1.04926 1.06078 0.992571 0.996541
1.01303 1.01647 1.00165 0.99498
1.03075 1.03482 1.00104 0.995032
0.999926 1 1.00056 0.999366
1.00846 1 1.01022 0.99826
1.01197 1.00165 1.01293 0.997409
1.01344 1.00394 1.01299 0.996526
1.00728 1.00562 1.00572 0.995953
1.01668 1.00655 1.01433 0.995797
1.00177 1 1.00272 0.99905
1.01387 1 1.01585 0.998049
1.06342 1.07699 0.991089 0.996276
1.01813 1.00656 1.01423 0.997312
1.01242 1.01576 1.00047 0.996249
1.01466 1.01624 1.00166 0.996796
1.06465 1.06915 0.999767 0.996024
1.06034 1.07068 0.993952 0.996369
1.0119 1.01357 1.00273 0.995631
1.03456 1.03898 1.00027 0.995477
1.00584 1 1.00748 0.998375
1.01669 1.0006 1.01854 0.997585
1.00586 1.00758 1.00212 0.996181
1.02289 1.01707 1.00878 0.996978
1.03431 1.03727 1.00048 0.996671
1.05821 1.08048 0.982512 0.996819
1.06312 1.06862 0.998913 0.995934
1.06509 1.07373 0.99557 0.996365
1.01302 1.01285 1.00458 0.995604
1.01705 1.02193 1.00003 0.9952
1.00516 1 1.00707 0.998105
1.01508 1.00193 1.01591 0.997267
1.0193 1.01935 1.00378 0.996182
1.02894 1.02978 1.00266 0.996532
1.05741 1.10203 0.962342 0.997058
1.05741 1.07528 0.986527 0.996816
1.04612 1.05113 0.999787 0.995451
1.02205 1.0226 1.00426 0.995231
1.0016 1 1.00307 0.998528
1 1 1.00164 0.998362
0.999752 1 1.00123 0.998522
1.00161 1 1.0029 0.998711
1.00659 1 1.00826 0.998349
0.999566 1 1.00079 0.99878
1.00043 1 1.002 0.99843
1.00605 1 1.00775 0.998311
0.999173 1 1.00054 0.998636
1.0053 1 1.00711 0.9982
1.00274 1 1.00448 0.998264
0.99898 1 1.00023 0.998754
0.999461 1 1 0.999461
0.999503 1 1 0.999503
0.999992 1 1 0.999992
0.999508 1 1 0.999508
0.999986 1 1 0.999986
1 1 1 1
0.999977 1 1 0.999977
1 1 1 1
1 1 1 1
0.999982 1 1 0.999982
1 1 1.00008 0.999924
1 1 1 1
1.00182 1 1.00204 0.999774
1 1 1 1
1 1 1 1
1.06622 1.08339 0.987579 0.996532
1.06643 1.08158 0.989204 0.996749
1.06464 1.08774 0.981727 0.996988
1.06445 1.0859 0.983317 0.996882
1.06593 1.08027 0.99001 0.996686
1.07008 1.0802 0.994155 0.996455
1.0657 1.08036 0.989721 0.996674
1.0677 1.0887 0.983805 0.996856
1.06741 1.08996 0.982313 0.996944
1.06203 1.08917 0.978047 0.996971
1.06929 1.08932 0.984756 0.996812
1.0672 1.09533 0.977234 0.997012
1.06971 1.10074 0.974692 0.997042
1.06318 1.07869 0.988906 0.996683
1.06518 1.08283 0.986971 0.996684
1.06157 1.0846 0.981833 0.996877
1.02511 1.0293 1.00008 0.995849
1.0249 1.02946 1.00018 0.995387
1.04102 1.04522 1.00085 0.995141
1.05591 1.07667 0.983786 0.996881
1.04865 1.06752 0.985359 0.996919
1.05875 1.06474 0.998258 0.99611
1.00849 1.00849 1.00403 0.995982
1.00575 1.00304 1.00654 0.996188
1.01637 1.00956 1.0105 0.99628
1.00305 1 1.00402 0.999032
1.01211 1.00475 1.01026 0.997094
1.01425 1 1.01658 0.997707
1.06768 1.08769 0.9848 0.996759
1.06387 1.09248 0.9769 0.996842
1.05437 1.08422 0.975434 0.996954
1.01172 1.016 1.00009 0.995693
1.01241 1.01602 1.0014 0.995058
1.03184 1.03597 1.00088 0.995142
1.04845 1.0779 0.975508 0.997099
1.0447 1.05698 0.99184 0.996516
0.99991 1 1.00046 0.999448
1.00812 1 1.00988 0.998256
1.00388 1.00412 1.0038 0.995983
1.01901 1.00591 1.01711 0.995987
1.01428 1.00545 1.01226 0.996568
1.01105 1.00113 1.01257 0.997363
1.06599 1.09489 0.976601 0.996929
1.05497 1.0974 0.964308 0.996919
1.04954 1.08452 0.970514 0.997142
1.03468 1.06159 0.9775 0.997086
1.00223 1.00538 1.00133 0.995533
1.03081 1.03533 1.00005 0.995582
1.01193 1.0145 1.00264 0.99484
0.999688 1 1 0.999688
0.999085 1 1 0.999085
1.0023 1 1.00359 0.998708
1.00722 1 1.00955 0.997692
1.01034 1 1.01338 0.996995
1.02647 1.00665 1.02356 0.996216
1.00374 1.00194 1.00556 0.996255
1.04371 1.00369 1.04353 0.9965
1.00589 1 1.00753 0.99838
1.01769 1.00033 1.01986 0.99755
1.06107 1.08305 0.982786 0.996866
1.02356 1.01895 1.00757 0.99698
1.00623 1.00765 1.00242 0.996183
1.03716 1.04054 1.00004 0.996714
1.063 1.06845 0.998916 0.99598
1.06627 1.07422 0.996138 0.996449
1.01408 1.01371 1.00482 0.995569
1.01618 1.02118 1 0.995106
1.00621 1 1.00818 0.998048
1.01402 1.00118 1.01562 0.997242
1.02437 1.02404 1.00415 0.99619
1.02737 1.02885 1.002 0.996569
1.05885 1.10441 0.961562 0.997077
1.06182 1.07861 0.98763 0.996761
1.0428 1.0479 0.999618 0.995512
1.02366 1.02475 1.00377 0.995182
1.00566 0.999909 1.00779 0.997981
1.0696 1.11291 0.963891 0.99709
1.00884 1.00204 1.00996 0.996863
1.02457 1.02597 1.00268 0.995969
1.03856 1.08552 0.959421 0.997212
1.03666 1.04356 0.99779 0.995591
1.01554 1.01741 1.00323 0.994945
1.00132 1 1.00297 0.998356
0.998674 0.999117 1.00105 0.998513
0.999567 0.998378 1.00247 0.998723
0.999235 1 1.00046 0.998776
1.00646 1 1.00815 0.998321
1.00047 0.999719 1.00229 0.99846
0.998813 1 1.00006 0.99875
1.0029 1 1.00464 0.998274
0.999189 0.999859 1.00065 0.998678
1.00448 1 1.00628 0.998205
0.998815 1 1 0.998815
1.00082 1 1.00236 0.998467
1.00656 1 1.00853 0.998044
0.999038 1 1.00091 0.998133
0.99865 1 1 0.99865
0.999413 1 1 0.999413
0.999456 1 1 0.999456
0.999995 1 1 0.999995
0.9995 1 1 0.9995
0.999993 1 1 0.999993
1 1 1 1
0.999989 1 1 0.999989
1 1 1 1
1 1 1 1
0.99974 1 1 0.99974
0.999996 1 1 0.999996
0.999974 1 1 0.999974
1 1 1 1
0.999903 1 1 0.999903
1 1 1 1
1 1 1 1
1.06215 1.08911 0.978199 0.996983
1.06612 1.0891 0.981904 0.99694
1.06731 1.08818 0.983929 0.996846
1.06533 1.08013 0.989584 0.996675
1.06918 1.08957 0.984402 0.99683
1.06708 1.09501 0.977419 0.997003
1.0663 1.09739 0.974547 0.997046
1.06715 1.096 0.976609 0.996995
1.07971 1.11342 0.972549 0.997093
1.09087 1.1282 0.96948 0.997352
1.06866 1.08827 0.985163 0.996769
1.06294 1.0924 0.976103 0.996845
1.05499 1.08411 0.976124 0.996946
1.01102 1.01535 1.00006 0.995686
1.01321 1.01688 1.00126 0.995139
1.03443 1.03873 1.00061 0.995251
1.04928 1.07769 0.97647 0.997101
1.04004 1.05274 0.991414 0.996492
1.00485 1.0038 1.00505 0.996014
1.02365 1.00644 1.021 0.996171
1.01626 1.00614 1.0135 0.99661
0.999867 1 1.00034 0.99953
1.00806 1 1.00982 0.998252
1.01059 1.00085 1.01245 0.997316
1.06544 1.095 0.975998 0.996938
0.999682 1 1 0.999682
0.999038 1 1 0.999038
1.05663 1.09659 0.966535 0.996921
1.04779 1.08284 0.970429 0.997112
1.00351 1.00599 1.00192 0.995615
1.01187 1.01373 1.00332 0.994863
1.02898 1.03485 0.998757 0.995567
1.03384 1.06128 0.977016 0.997056
1.00258 1 1.00378 0.998804
1.00755 1 1.00989 0.997679
1.00419 1.00213 1.00595 0.996132
1.0374 1.00449 1.03633 0.996564
1.02364 1.00413 1.02329 0.996226
1.01084 1.00044 1.01342 0.997015
1.07608 1.11564 0.967409 0.997035
1.03856 1.09577 0.950606 0.997039
1.03363 1.07286 0.966058 0.997287
1.01919 1.03934 0.983796 0.996763
1.0052 1.00283 1.00649 0.9959
1.01268 1.01238 1.0053 0.995025
0.99898 1 1 0.99898
0.999637 1 1.00058 0.999058
0.998899 1.00021 1 0.998693
1.0027 1 1.00472 0.997993
1.01181 1 1.01446 0.99738
1.00986 1.0004 1.0128 0.996694
1.06704 1.00124 1.06958 0.99639
0.992304 1.00049 0.9945 0.9973
1.00665 1 1.00868 0.997991
1.0121 1.00005 1.01488 0.997217
1.05947 1.10564 0.961038 0.997096
1.0657 1.08147 0.988677 0.996705
1.0267 1.02827 1.00188 0.996605
1.03065 1.03004 1.00441 0.996197
1.03984 1.04496 0.999521 0.995572
1.02613 1.0277 1.00335 0.995133
1.00539 0.999697 1.00775 0.997961
1.07167 1.11663 0.962465 0.997166
1.00973 1.00112 1.0117 0.996935
1.02107 1.02252 1.00269 0.9959
1.03954 1.08564 0.960243 0.99719
1.0338 1.04115 0.997238 0.995691
1.01701 1.01862 1.00348 0.994957
1.01169 0.998435 1.01556 0.99775
1.00637 1.06553 0.946788 0.99756
1.00537 1.00096 1.0078 0.99664
1.00705 1.00792 1.00379 0.995366
1.01531 1.04019 0.979303 0.996711
1.00341 1.00598 1.00221 0.995241
0.946044 1.00206 0.947732 0.996169
0.997199 0.997686 1.00101 0.998505
0.999175 0.9966 1.00386 0.998728
1.00224 0.998786 1.0048 0.998668
0.998908 1 1.00016 0.998746
1.00448 1 1.00621 0.998283
1.00302 1 1.00482 0.998212
0.999246 1 1.00052 0.998723
0.998734 1 1.00008 0.99865
0.999455 1 1.00132 0.998142
0.998781 1 1 0.998781
1.00676 1 1.00874 0.998043
1.00049 1 1.00206 0.99843
1.00032 0.999969 1.00158 0.99877
1.00217 1 1.00429 0.997888
1.00654 1 1.00855 0.998004
0.99835 1 1.00034 0.998006
0.998469 1 1 0.998469
1.00113 1 1.00293 0.998212
0.998869 1 1.00043 0.998436
0.999393 1 1 0.999393
0.999409 1 1 0.999409
0.999998 1 1 0.999998
0.999451 1 1 0.999451
0.999996 1 1 0.999996
1 1 1 1
0.999994 1 1 0.999994
1 1 1 1
1 1 1 1
0.999797 1 1 0.999797
0.999743 1 1 0.999743
1 1 1 1
0.999993 1 1 0.999993
1 1 1 1
0.999966 1 1 0.999966
1 1 1 1
1 1 1 1
1.06304 1.09428 0.974326 0.99705
1.06703 1.09488 0.9775 0.996994
1.06895 1.08974 0.984024 0.996849
1.06694 1.09592 0.976489 0.996993
1.07631 1.11015 0.972352 0.997086
1.09106 1.12783 0.97005 0.997264
1.08557 1.12613 0.966735 0.99716
0.946754 1.01605 0.937522 0.993891
1.03749 1.07968 0.962804 0.998043
0.999184 1 1 0.999184
1.06497 1.09523 0.975346 0.996946
1.05805 1.09594 0.968404 0.996923
1.04563 1.08125 0.969885 0.997082
1.00061 1.00411 1.00082 0.995692
1.01087 1.012 1.00402 0.994883
1.02669 1.0336 0.997761 0.995552
1.03343 1.0615 0.976456 0.997026
0.99876 1.00216 1.0006 0.996017
1.03041 1.00478 1.02897 0.996638
1.02146 1.00255 1.02272 0.996235
0.999676 1 1 0.999676
1.01151 1.0009 1.01361 0.997035
1.0026 1 1.00371 0.998897
1.00785 1 1.01021 0.997665
0.999128 1 1.00014 0.998991
1.07416 1.11617 0.965213 0.997041
0.999042 1 1 0.999042
1.00001 1 1.00095 0.999062
0.998767 1.00057 0.999539 0.998654
1.04252 1.09637 0.953709 0.997037
1.03165 1.07108 0.965853 0.997236
1.00157 1.0022 1.00344 0.995937
1.01713 1.01686 1.00511 0.995175
1.0183 1.03781 0.984405 0.996744
1.00232 1 1.00427 0.998059
1.0108 1 1.0135 0.997331
1.00364 1.00031 1.00625 0.997094
1.05684 1.0019 1.05866 0.99639
1.00943 1.00106 1.01165 0.996747
1.04959 1.10733 0.950573 0.997141
1.01221 1.08039 0.939514 0.997204
1.02378 1.05059 0.977508 0.996911
0.999828 1.01899 0.984622 0.99652
1.00031 1 1.00347 0.996852
0.998565 1 1 0.998565
1.00033 1.00038 1.00157 0.998383
1.00273 1 1.00428 0.998451
1.01395 1 1.01621 0.997778
1.01263 1 1.01531 0.997362
1.0461 0.999932 1.04936 0.996955
1.02692 1.00182 1.02778 0.997345
1.00555 1 1.00763 0.997939
1.01002 1.00017 1.01288 0.997007
1.07313 1.12062 0.960274 0.997239
1.04109 1.08665 0.960795 0.997166
1.03116 1.03908 0.996573 0.99579
1.01616 1.01769 1.00268 0.995831
1.01783 1.0193 1.0036 0.994971
1.01251 0.99941 1.01529 0.997844
1.00887 1.06711 0.94768 0.997617
1.00238 1.00098 1.00477 0.996647
1.00528 1.00583 1.00411 0.995363
1.01261 1.03843 0.978218 0.996852
1.00428 1.00633 1.00273 0.995241
0.945803 1.00087 0.949834 0.994888
1.01228 0.997244 1.0174 0.997719
0.984602 1.02718 0.960898 0.997552
1.00084 1.00137 1.00312 0.996352
1.00425 1.00228 1.00614 0.995853
0.990965 1.00738 0.98704 0.996624
0.884559 0.971806 0.941491 0.966787
0.863939 0.955314 0.92038 0.982584
0.948437 0.976765 0.974324 0.996586
0.645647 0.793277 0.879123 0.925808
0.556799 0.728853 0.847765 0.901121
0.99907 0.995264 1.0051 0.998733
1.00319 0.996571 1.00793 0.998721
1.00444 0.999439 1.0063 0.998703
0.99865 1 1 0.99865
0.999265 1 1.00112 0.998151
1.00588 1 1.00785 0.998043
1.00032 1 1.00194 0.998391
0.998747 1 1 0.998747
1.0069 1 1.00892 0.997991
0.998509 1 1 0.998509
0.998388 1 1.00036 0.998024
0.999811 1 1.00111 0.998699
1.00275 1 1.00479 0.997964
1.00864 1 1.01067 0.997994
1.00612 0.999089 1.00877 0.998283
1.0062 1 1.00825 0.997964
0.999042 1 1.00115 0.997892
0.998486 1 1.00005 0.998435
0.999385 1 1.00135 0.99804
1.00119 1 1.00303 0.998166
1.00146 1 1.00315 0.998313
1.00089 1 1.00272 0.998178
0.998946 1 1.00037 0.998572
0.999123 1 1.00069 0.998433
0.999385 1 1 0.999385
0.999393 1 1 0.999393
1 1 1 1
0.999405 1 1 0.999405
0.999999 1 1 0.999999
1 1 1 1
0.999997 1 1 0.999997
1 1 1 1
1 1 1 1
0.999859 1 1 0.999859
0.999795 1 1 0.999795
1 1 1 1
0.999746 1 1 0.999746
0.999999 1 1 0.999999
1 1 1 1
0.999989 1 1 0.999989
1 1 1 1
1 1 1 1
1.07298 1.10691 0.972192 0.997079
1.06642 1.09548 0.976407 0.996992
1.09225 1.12799 0.97106 0.997177
0.949555 1.01578 0.94046 0.993982
1.08395 1.12475 0.966474 0.997157
1.0436 1.08205 0.966481 0.997912
1.06044 1.10014 0.96653 0.997287
0.901168 0.972453 0.943844 0.981831
0.977863 1.02228 0.961516 0.994839
0.999233 1 1 0.999233
0.999176 1 1 0.999176
0.998668 1 1 0.998668
0.998802 1 1 0.998802
1.07217 1.11622 0.963381 0.997048
1.04638 1.09663 0.95702 0.997034
1.03008 1.06935 0.965997 0.997186
1.00055 1.00152 1.00306 0.995974
1.02118 1.02148 1.0044 0.995327
1.01665 1.03552 0.985002 0.996725
1.01615 1 1.01933 0.996881
1.04799 1.0025 1.04916 0.99639
1.00929 1.00071 1.01181 0.9968
1.00064 1 1.00158 0.999065
1.00971 1.00061 1.01184 0.997285
1.00206 1 1.00394 0.998126
0.999103 1 1 0.999103
0.999016 1.00097 0.999428 0.998614
1.04811 1.10809 0.948571 0.997156
0.998578 1 1 0.998578
0.999919 1.0006 1.00084 0.998477
1.00294 0.999515 1.0047 0.998725
1.02 1.08415 0.943487 0.997191
1.02416 1.05034 0.978096 0.99691
0.998367 1.00091 1.00063 0.996839
1.00166 1.01774 0.987556 0.996593
1.01287 1 1.01524 0.997664
1.01256 1.00003 1.01539 0.997185
1.03318 1.00256 1.0333 0.997325
1.04602 1.0019 1.04735 0.996834
1.0003 1.06509 0.941685 0.997322
0.997865 1.05214 0.951075 0.997206
1.01045 1.02149 0.992609 0.996554
0.972894 1.00149 0.973652 0.997734
1.00739 1 1.00894 0.99846
1.00766 1 1.00974 0.997941
1.02099 0.999516 1.0234 0.998128
1.06465 1.00106 1.06637 0.997331
0.870542 0.968455 0.934971 0.961418
1.01345 0.999451 1.0161 0.99794
1.00059 1.00091 1.00304 0.996651
1.01047 1.06846 0.947929 0.99768
1.00997 1.03631 0.977528 0.996993
1.00523 1.00673 1.0033 0.995236
1.00417 1.00426 1.00457 0.995357
0.945975 1.00119 0.950978 0.993558
1.00997 0.997031 1.01523 0.997778
0.983715 1.02764 0.95963 0.997526
1.00078 1.00148 1.00296 0.996364
1.00534 1.00363 1.00585 0.995869
0.99415 1.00849 0.98914 0.996602
0.87497 0.974408 0.933912 0.961493
0.860792 0.951255 0.924121 0.979202
0.951138 0.976994 0.976808 0.99665
0.640221 0.78824 0.875463 0.927756
0.547573 0.726514 0.841839 0.8953
1.00368 0.997306 1.00855 0.997856
0.677027 0.809432 0.898009 0.931418
0.592613 0.746761 0.880754 0.901021
0.984613 1.00558 0.981387 0.99772
1.00927 1.00164 1.01049 0.997157
1.01476 1.00598 1.01162 0.997145
0.938117 0.963563 0.976392 0.997132
0.83834 0.943136 0.921405 0.964707
0.826028 0.919362 0.919774 0.976848
0.623774 0.774413 0.862359 0.934042
0.606555 0.795884 0.851385 0.895147
1.00358 0.994263 1.01061 0.998773
1.00301 0.997457 1.0069 0.998676
1.01435 0.998284 1.01728 0.998837
0.998549 1 1 0.998549
0.998518 1 1.00048 0.998042
1.00714 1 1.00918 0.997978
1.00367 1 1.00564 0.998041
0.999031 1 1.0004 0.998628
0.998515 1 1.00008 0.998436
1.0092 1 1.01126 0.997966
1.00636 1 1.00842 0.997949
0.998595 1 1.00065 0.997943
1.00722 0.998926 1.00999 0.998334
1.00831 1 1.01012 0.998209
1.02562 0.998472 1.02873 0.998495
1.0032 1 1.00539 0.997818
0.99891 1 1.00093 0.997984
0.998832 1 1.0008 0.998033
1.00118 1 1.00298 0.998209
1.00039 1 1.00244 0.997959
1.00081 1 1.00253 0.998281
1.00782 1 1.00944 0.998395
1.01192 1 1.01386 0.998079
1.00306 1 1.00477 0.998298
1.0015 1 1.00319 0.998316
1.00083 1 1.00223 0.998603
1.00084 1 1.0027 0.998144
0.999051 1 1.00052 0.998537
0.999359 1 1 0.999359
0.999352 1 1.00092 0.998429
0.999388 1 1 0.999388
0.999995 1 1 0.999995
0.999393 1 1 0.999393
0.999999 1 1 0.999999
1 1 1 1
0.999999 1 1 0.999999
1 1 1 1
1 1 1 1
0.999168 1 1 0.999168
0.999878 1 1 0.999878
0.999855 1 1 0.999855
1 1 1 1
0.999792 1 1 0.999792
1 1 1 1
1 1 1 1
0.999998 1 1 0.999998
1 1 1 1
1 1 1 1
0.952315 1.01527 0.943586 0.994074
1.08281 1.12373 0.966339 0.997154
1.0519 1.08458 0.972031 0.997779
0.888532 0.969596 0.932159 0.983088
0.975938 1.02211 0.959551 0.995077
1.06244 1.10315 0.965756 0.997244
0.987073 1.0385 0.954479 0.995808
0.905869 0.975426 0.943065 0.984758
0.882214 0.976115 0.937186 0.964378
0.651715 0.795548 0.876623 0.934498
0.515514 0.684861 0.83633 0.900037
0.998763 1 1 0.998763
0.99923 1 1 0.99923
0.999169 1 1 0.999169
0.998686 1 1 0.998686
0.999036 1 1.00051 0.998524
0.998436 1 1 0.998436
0.998725 1 1.00013 0.998593
0.998753 1 1 0.998753
1.04884 1.10972 0.947829 0.997169
1.02813 1.08841 0.947285 0.997178
1.02415 1.05055 0.977894 0.996909
0.997699 1.00189 0.998988 0.996828
1.00391 1.0171 0.990328 0.996666
1.04152 1.00309 1.04112 0.997302
1.04595 1.00377 1.04546 0.996714
1.01148 1.00036 1.01415 0.99701
0.998978 1.00077 0.999636 0.99857
1.0135 1 1.016 0.997545
0.998594 1 1 0.998594
1.00213 0.999308 1.00383 0.999002
0.998248 1.0655 0.93935 0.99737
1.00658 0.999793 1.00837 0.998437
1.00957 1 1.01149 0.998103
0.995799 1.04999 0.951071 0.997179
1.00874 1.02298 0.989324 0.996718
0.976473 1.00156 0.977309 0.997586
1.03187 1.0011 1.03304 0.997775
1.05772 1.00222 1.05815 0.997379
0.965387 1.03252 0.937643 0.997159
0.99535 1.01777 0.980717 0.997197
0.974253 1.00249 0.974464 0.997304
0.973391 0.998131 0.977202 0.997966
1.00913 1 1.01128 0.997874
1.02265 1 1.02466 0.998035
1.0544 0.999529 1.05732 0.997706
0.695853 0.818023 0.910411 0.934361
0.884111 0.975518 0.936289 0.967969
1.0075 0.997733 1.01197 0.997838
1.00049 1.00132 1.0028 0.996378
0.983993 1.0282 0.959404 0.997499
0.99722 1.0099 0.990825 0.996583
1.00671 1.00513 1.00571 0.995891
0.877352 0.973202 0.934572 0.964625
0.865845 0.962378 0.918224 0.979819
0.95148 0.975672 0.978412 0.996722
0.654083 0.789719 0.885862 0.934963
0.538701 0.725223 0.835303 0.889266
1.00364 0.998508 1.00729 0.997862
0.688419 0.820063 0.900332 0.932402
0.567621 0.723559 0.874454 0.897115
0.983888 1.00669 0.979605 0.997701
1.0092 1.00229 1.00976 0.99716
1.0125 1.00391 1.0113 0.997289
0.933467 0.958155 0.976771 0.997402
0.847255 0.955307 0.923005 0.960875
0.82353 0.915206 0.918643 0.979521
0.636547 0.778188 0.877822 0.931836
0.611149 0.807423 0.846784 0.893867
1.00566 0.998305 1.00887 0.998508
0.609587 0.75858 0.892885 0.899993
0.670896 0.835487 0.885163 0.907177
0.983543 0.989625 0.995225 0.998622
1.01623 1.00241 1.01527 0.998541
0.945245 0.950172 0.998235 0.996572
0.842803 0.907844 0.946053 0.981296
0.786248 0.895374 0.916217 0.958421
0.655249 0.775588 0.905436 0.933077
0.67877 0.871625 0.865419 0.899842
1.00287 0.997425 1.00682 0.99865
1.01222 0.999306 1.01415 0.998787
1.01172 0.997628 1.01507 0.999074
0.998436 1 1 0.998436
0.998224 1 1.00023 0.997993
1.0072 1 1.00929 0.997934
1.01024 1 1.01232 0.997938
1.00789 0.998712 1.01082 0.998386
0.998621 1 1.00064 0.99798
1.00784 1 1.0097 0.998151
1.00284 1 1.00503 0.997821
1.02279 0.996784 1.02757 0.998559
1.04281 0.994797 1.04921 0.999094
1.01541 1 1.01723 0.99821
1.00127 1 1.00349 0.997784
0.998445 1 1.00042 0.998026
1.00097 1 1.00273 0.998251
1.00094 1 1.003 0.997948
1.0016 1 1.00334 0.998261
1.00557 1 1.00706 0.99852
1.00797 0.999984 1.00978 0.998226
1.01184 1 1.01362 0.998242
1.0073 0.998089 1.01068 0.998567
1.00065 1 1.00247 0.998189
1.00094 1.00263 1.00093 0.997388
1.00925 1 1.01134 0.997925
1.01043 0.999992 1.01238 0.998081
1.01147 1 1.01339 0.998103
1.00461 1 1.00632 0.9983
1.0007 1 1.00214 0.998559
1.00155 1 1.00324 0.998318
1.00009 1 1.00149 0.99861
0.999317 1 1 0.999317
0.998971 1 1.00047 0.998501
0.999362 1 1 0.999362
0.99998 1 1 0.99998
0.99939 1 1 0.99939
0.999992 1 1 0.999992
1 1 1 1
0.999998 1 1 0.999998
1 1 1 1
1 1 1 1
0.999152 1 1 0.999152
0.999838 1 1 0.999838
0.99917 1 1 0.99917
1 1 1 1
0.999878 1 1 0.999878
0.999851 1 1 0.999851
1 1 1 1
1 1 1 1
1 1 1 1
1 1 1 1
1 1 1 1
0.677043 0.810716 0.901435 0.92643
0.575662 0.73893 0.86795 0.897572
0.887785 0.96867 0.931651 0.983736
0.975391 1.02212 0.95876 0.995334
1.06052 1.10562 0.961905 0.997201
0.896296 0.95837 0.948491 0.986018
0.985554 1.03701 0.95415 0.99605
0.892317 0.984842 0.93908 0.964828
0.638085 0.793139 0.867023 0.927894
0.526394 0.705432 0.834461 0.89423
0.916342 0.993604 0.93178 0.989762
0.862997 0.958854 0.932302 0.965384
0.630783 0.780844 0.865446 0.933418
0.60785 0.797577 0.85054 0.896044
1.00082 1 1.00254 0.998288
0.998807 1 1 0.998807
0.999228 1 1 0.999228
0.998747 1 1.00004 0.998705
0.998998 1 1.00036 0.998641
0.999436 1 1.00132 0.998116
0.998575 1 1.00016 0.998418
0.998551 1 1.0004 0.998153
0.998609 1 1.00007 0.998541
0.998704 1 1 0.998704
0.992857 1.06521 0.934495 0.997416
0.993187 1.04736 0.950985 0.997154
1.00835 1.02458 0.987241 0.996884
0.979052 1.00177 0.979829 0.997437
1.04808 1.00364 1.04697 0.997426
1.04362 1.00242 1.04378 0.997426
1.0104 1 1.01216 0.998266
1.00582 0.999433 1.00799 0.998413
0.964973 1.03332 0.936392 0.997291
1.01171 1 1.01393 0.997818
1.02209 0.999793 1.02435 0.998
0.986674 1.01426 0.975602 0.997135
0.972091 1.00204 0.972638 0.997404
0.974754 0.999368 0.9774 0.997924
1.04742 0.999589 1.05033 0.997646
0.95333 1.00251 0.953483 0.997336
0.965052 0.997121 0.969575 0.998209
1.01145 0.994639 1.01877 0.998168
1.01038 1 1.01267 0.99774
1.02086 0.999747 1.02342 0.997745
1.02977 1 1.032 0.997838
0.637248 0.771581 0.904715 0.912883
0.695185 0.816169 0.910856 0.935128
0.874554 0.974709 0.93307 0.961606
1.00256 0.997775 1.00695 0.997866
1.00886 1.00246 1.00925 0.997158
0.985098 1.00792 0.979634 0.99768
1.01037 1.00234 1.01062 0.997427
0.693471 0.814965 0.908861 0.936249
0.847723 0.953817 0.924401 0.961455
0.820395 0.91234 0.920425 0.976963
0.934357 0.955584 0.98009 0.99765
0.634193 0.784824 0.872625 0.926022
0.559894 0.716764 0.868614 0.899295
0.616338 0.809201 0.846438 0.899844
1.00513 0.997972 1.00872 0.998466
0.612258 0.757995 0.892795 0.904725
0.686964 0.852005 0.889198 0.906762
0.981401 0.987023 0.995565 0.998733
1.0156 1.00126 1.01586 0.998488
0.942708 0.948527 0.99651 0.997346
0.831157 0.91286 0.930505 0.978498
0.818299 0.910116 0.933111 0.963567
0.661564 0.786204 0.907928 0.926798
0.672569 0.863947 0.86093 0.904236
1.00689 0.996104 1.0114 0.999431
0.711961 0.8583 0.905889 0.915676
0.692333 0.860576 0.883301 0.910788
0.974441 0.955785 1.01981 0.999715
0.879339 0.909954 0.979175 0.986907
0.817079 0.881052 0.964604 0.96142
0.746765 0.864947 0.935084 0.923302
0.724402 0.914909 0.873543 0.906395
1.01012 0.999686 1.01171 0.998736
1.01378 0.997298 1.01748 0.999059
1.02703 0.987812 1.04038 0.999354
0.99881 1 1.00084 0.997976
1.00267 1 1.00485 0.997824
1.00667 1 1.0086 0.998092
1.02067 0.995448 1.02675 0.998624
1.00184 1 1.00406 0.997785
1.01476 0.999884 1.0167 0.9982
1.04743 0.994658 1.05393 0.999173
1.04353 0.985134 1.05987 0.999446
1.04659 0.998256 1.0494 0.999068
1.00981 1 1.01172 0.998104
1.00093 1 1.003 0.997936
1.002 1 1.00377 0.998241
1.0033 1 1.00466 0.998643
1.01149 1 1.01324 0.998265
1.0058 1 1.00759 0.998223
1.00948 0.998789 1.01212 0.998599
1.00655 0.999213 1.00902 0.998338
1.01798 0.996656 1.02246 0.998962
0.996777 1.00143 0.996989 0.998362
1.0011 1.00069 1.00222 0.99819
0.998718 1.00036 1.00069 0.997664
1.00661 1.00881 1.00153 0.996307
1.00535 1.00166 1.00599 0.997699
0.999989 1.00151 1.00075 0.997735
1.00934 1 1.01144 0.99792
1.01774 1 1.01989 0.997892
1.00808 1 1.01001 0.998084
1.01045 1 1.01237 0.998104
1.00244 1 1.00406 0.998391
1.00503 1 1.00674 0.998301
1.00107 1 1.00252 0.998556
1.00024 1 1.00099 0.999253
0.999876 1 1.00126 0.998618
0.999583 1 1.00026 0.999318
0.999955 1 1 0.999955
0.999366 1 1 0.999366
0.999973 1 1 0.999973
1 1 1 1
0.999988 1 1 0.999988
1 1 1 1
1 1 1 1
0.998817 1 1 0.998817
0.999765 1 1 0.999765
0.999061 1 1 0.999061
1 1 1 1
0.999844 1 1 0.999844
0.999173 1 1 0.999173
1 1 1 1
1 1 1 1
0.999879 1 1 0.999879
1 1 1 1
1 1 1 1
1 1 1 1
0.595692 0.749983 0.879705 0.902886
0.685284 0.817449 0.900616 0.930831
0.682285 0.851578 0.884162 0.906171
0.57281 0.739233 0.864669 0.896146
0.894928 0.964377 0.943786 0.983258
0.986652 1.03573 0.956143 0.996306
0.891679 0.985093 0.938123 0.964877
0.654257 0.793367 0.882525 0.934431
0.538765 0.729607 0.831248 0.88834
0.921015 0.988335 0.942555 0.98868
0.844299 0.951836 0.925609 0.958311
0.643853 0.787389 0.878126 0.931194
0.597096 0.789861 0.847265 0.892225
0.878183 0.961605 0.927282 0.984866
0.788605 0.886504 0.929139 0.95741
0.690502 0.824424 0.907153 0.923281
0.672037 0.86472 0.866139 0.897285
1.00336 1 1.0055 0.997877
1.00013 1 1.00179 0.998346
0.998849 1 1 0.998849
0.998759 1 1 0.998759
0.998504 1 1.00081 0.997692
0.998679 1 1.0005 0.99818
0.998617 1 1.00022 0.998401
0.99813 1 1 0.99813
0.998388 1 1.0002 0.998193
0.998489 1 1 0.998489
0.966064 1.03459 0.936182 0.997418
0.979906 1.01116 0.971935 0.997077
0.96798 1.00129 0.969154 0.997503
0.976636 1.00088 0.977842 0.997884
1.03896 1 1.04148 0.997584
1.02146 1 1.02354 0.997967
1.01347 1 1.01575 0.997761
1.00984 1 1.01219 0.997678
0.954216 1.00277 0.954036 0.997422
1.01777 1 1.02012 0.997706
1.02991 1 1.03216 0.997816
0.964587 0.998506 0.96776 0.998212
1.00534 0.997022 1.01024 0.998124
0.94303 0.972405 0.972082 0.997643
0.960908 0.966028 0.995461 0.999235
1.04365 0.993939 1.05172 0.998377
1.0075 1 1.0097 0.997827
1.03157 0.999853 1.03378 0.998004
0.726375 0.871273 0.905277 0.920927
0.632341 0.770122 0.901042 0.91127
0.68697 0.812573 0.90987 0.929172
1.00515 0.998376 1.00837 0.998428
1.01535 0.999774 1.01717 0.998435
0.97672 0.984553 0.993187 0.998849
0.606903 0.753953 0.889464 0.904996
0.793459 0.892358 0.928249 0.957902
0.836262 0.910033 0.937577 0.980118
0.932013 0.942412 0.990794 0.998155
0.673236 0.799768 0.901794 0.933461
0.697474 0.861382 0.893106 0.906628
0.672308 0.861921 0.862139 0.90474
1.00498 0.996222 1.00942 0.999376
0.712895 0.860018 0.903341 0.917627
0.689938 0.857194 0.883444 0.911071
0.976208 0.96016 1.01721 0.999507
0.892127 0.922285 0.980223 0.986817
0.788509 0.877646 0.940013 0.95577
0.719183 0.910637 0.871678 0.90602
0.763844 0.868984 0.948911 0.926334
0.995078 0.963275 1.03331 0.999711
0.702492 0.850205 0.89645 0.921705
0.73215 0.897617 0.891299 0.915135
0.669849 0.863071 0.864757 0.897504
0.934693 0.92566 1.01327 0.996535
0.874888 0.911811 0.996267 0.963101
0.822205 0.928595 0.951541 0.930522
1.0165 0.997111 1.02042 0.999043
1.02904 0.991183 1.03895 0.99927
1.03704 0.98042 1.0582 0.999566
1.00238 1 1.0046 0.997786
1.01267 0.999691 1.01482 0.998189
1.05188 0.993331 1.05973 0.999251
1.01054 1 1.01246 0.998112
1.04635 0.997995 1.04941 0.999079
1.04964 0.985384 1.06582 0.999421
1.03856 0.980897 1.05932 0.999489
1.02999 0.996901 1.03417 0.999058
1.01065 1 1.01238 0.998291
1.00502 1 1.00681 0.998221
1.01209 0.99937 1.01411 0.998633
1.01728 0.997528 1.02089 0.998933
1.007 0.99946 1.00921 0.99835
1.00366 0.999388 1.00546 0.998827
0.997036 0.999947 0.998392 0.998695
1.00479 1.00045 1.00723 0.997126
1.00104 1.00149 1.00135 0.9982
1.00017 1.00212 1.00051 0.997543
1.00189 1.00372 1.00227 0.995919
1.0203 1.02337 1.00129 0.995723
1.00763 1.00764 1.00276 0.997238
1.00391 1.00617 1.00138 0.996372
1.01348 1.00026 1.01565 0.997607
1.00677 1.00252 1.00653 0.997722
0.999179 1.00052 1.00059 0.998078
1.00962 1 1.01173 0.997915
1.01626 1 1.01837 0.99792
1.00923 1 1.01106 0.998185
1.01011 1 1.01203 0.998105
1.00264 1 1.00426 0.99839
1.00074 1 1.00162 0.999122
1.00071 1 1.00216 0.998552
1.00024 1 1.00099 0.999249
0.999933 1 1 0.999933
0.999789 1 1.00047 0.999319
0.999949 1 1 0.999949
1 1 1 1
0.999966 1 1 0.999966
1 1 1 1
1 1 1 1
0.998493 1 1 0.998493
0.999497 1 1 0.999497
0.998815 1 1 0.998815
1 1 1 1
0.9997 1 1 0.9997
0.998971 1 1 0.998971
1 1 1 1
1 1 1 1
0.99985 1 1 0.99985
1 1 1 1
1 1 1 1
1 1 1 1
0.720391 0.875558 0.898492 0.915733
0.604661 0.75167 0.885882 0.908048
0.674155 0.810444 0.894584 0.929856
0.998242 1 1.00022 0.998024
0.693382 0.855029 0.886826 0.914437
0.682178 0.851147 0.884651 0.905985
0.58702 0.755945 0.861641 0.901231
0.930379 0.992693 0.949162 0.987427
0.84083 0.941009 0.926339 0.964593
0.642953 0.799793 0.869008 0.925076
0.586198 0.76996 0.849811 0.895889
0.875188 0.957358 0.931499 0.981396
0.812545 0.902082 0.935316 0.963037
0.678346 0.80403 0.912836 0.924244
0.67224 0.863581 0.866194 0.898682
0.817659 0.902881 0.926738 0.977203
0.793653 0.86974 0.951174 0.959359
0.775622 0.876263 0.954472 0.927369
0.723866 0.911535 0.876145 0.906377
1.00155 1 1.00381 0.99775
1.00437 1 1.00654 0.997841
0.999843 1 1.00144 0.998405
0.998286 1 1.00042 0.997866
0.998831 1 1.00106 0.997772
0.998568 1 1.00033 0.998242
0.998166 1 1.00004 0.99813
0.99833 1 1.0001 0.998232
0.955118 1.00349 0.954197 0.997486
0.96517 1.00113 0.965791 0.998224
1.00927 1 1.01168 0.997616
0.998865 0.999193 1.0016 0.998079
1.03017 0.999483 1.03298 0.997793
1.01735 1 1.01973 0.997666
1.01009 1 1.0123 0.997814
0.943123 0.970197 0.974234 0.997803
1.02785 0.999799 1.03011 0.998006
1.03321 0.996367 1.03862 0.998422
0.963421 0.970505 0.993413 0.999282
1.01158 1 1.01354 0.998065
0.927719 0.941516 0.988166 0.997146
0.993276 0.968097 1.02655 0.999476
1.06548 0.996102 1.07121 0.998536
1.04657 0.99808 1.05047 0.998211
0.705387 0.848157 0.898259 0.925869
0.725809 0.871104 0.905473 0.920188
0.628537 0.767713 0.900073 0.909607
1.00204 0.996399 1.00634 0.999322
0.978911 0.963522 1.01668 0.999302
0.7171 0.864895 0.90171 0.919495
0.808604 0.867001 0.968873 0.962608
0.880444 0.920376 0.973385 0.98277
0.754897 0.860843 0.948722 0.924325
0.690118 0.857195 0.883462 0.911288
0.717612 0.909345 0.871377 0.905639
1.00266 0.973956 1.02982 0.999669
0.703904 0.852029 0.896319 0.921715
0.7355 0.896723 0.894111 0.917346
0.949902 0.936243 1.01566 0.998941
0.670215 0.862042 0.865005 0.898809
0.842124 0.889892 0.986368 0.959401
0.820478 0.922875 0.955899 0.930062
0.994267 0.962095 1.03379 0.999665
0.740337 0.88575 0.902454 0.926174
0.693435 0.852398 0.889033 0.915052
0.605319 0.795507 0.849075 0.896177
0.770147 0.872729 0.952251 0.926707
0.929813 0.93132 1.00673 0.991711
0.88558 0.914811 1.01456 0.954156
1.0298 0.995321 1.03548 0.999188
1.03444 0.976759 1.05954 0.999534
1.02076 0.958972 1.06487 0.999582
1.01269 1 1.0146 0.998119
1.04887 0.997235 1.05273 0.999091
1.05782 0.986496 1.07295 0.999396
1.02543 0.997345 1.02915 0.999045
1.03669 0.98324 1.05491 0.999488
1.0042 0.982442 1.02293 0.999235
1.01723 0.998433 1.01995 0.998903
1.00735 0.999404 1.00961 0.998363
1.00697 0.999447 1.00874 0.998803
1.01255 0.99781 1.01676 0.998045
0.997755 0.998726 1 0.999028
1.00008 1.00037 1.00236 0.997362
1.00689 1.00218 1.00945 0.995284
1.00624 1.0084 1.00283 0.995039
1.00161 1.00395 1.00026 0.997412
1.00211 1.0044 1.00205 0.995688
1.02103 1.02483 1.00053 0.995769
1.01727 1.01823 1.00261 0.996449
1.01786 1.02084 1.00125 0.995837
1.01128 1.00427 1.00962 0.997391
1.01042 1.00988 1.00335 0.997197
1.00016 1.00245 1.00128 0.99644
1.01545 1 1.01753 0.99796
1.01314 1.00039 1.01514 0.997639
1.00821 1.00335 1.00711 0.997745
1.01479 1 1.01688 0.997948
1.00895 1 1.01079 0.998187
1.00312 1 1.00422 0.998913
1.0033 1 1.00492 0.99839
1.00114 1 1.00202 0.999117
0.999907 1 1 0.999907
1.00052 1 1.00128 0.999246
0.999928 1 1 0.999928
1 1 1 1
0.999942 1 1 0.999942
1 1 1 1
1 1 1 1
0.998434 1 1.00003 0.9984
0.999277 1 1 0.999277
0.998555 1 1 0.998555
0.999995 1 1 0.999995
0.999473 1 1 0.999473
0.998813 1 1 0.998813
1 1 1 1
1 1 1 1
0.999635 1 1 0.999635
1 1 1 1
1 1 1 1
1 1 1 1
0.708984 0.85382 0.898051 0.924633
0.721205 0.873731 0.901353 0.915771
0.60595 0.750229 0.889394 0.908131
0.998585 1 1.00052 0.998065
1.00291 1 1.00497 0.997952
0.998034 1 1 0.998034
0.735314 0.90066 0.892606 0.914644
0.691547 0.855937 0.883282 0.914705
0.6801 0.851603 0.881624 0.905842
0.881913 0.965359 0.928834 0.983555
0.779644 0.888688 0.916361 0.957372
0.684172 0.793464 0.924285 0.932894
0.676431 0.870534 0.86718 0.896042
0.823387 0.909206 0.923779 0.980333
0.811143 0.880331 0.960734 0.959067
0.763729 0.86631 0.949822 0.928162
0.719886 0.909855 0.873405 0.905891
0.839884 0.903269 0.951144 0.977589
0.846578 0.894965 0.984625 0.960705
0.822193 0.924889 0.954926 0.930924
0.68285 0.874138 0.867858 0.900111
0.999424 1 1.00145 0.997977
1.00164 1 1.00395 0.997703
1.00365 1 1.00586 0.997805
0.998082 1 1.00023 0.997849
0.9986 1 1.00075 0.997852
0.99813 1 1 0.99813
0.940049 0.963681 0.977456 0.997975
0.964416 0.970726 0.994191 0.999305
1.01021 1 1.01244 0.997801
1.02637 0.999057 1.02892 0.998466
1.02471 1 1.02676 0.998007
1.01123 0.999502 1.01367 0.998083
1.03364 0.993454 1.04227 0.998248
0.933487 0.94008 0.995723 0.997252
1.06023 0.992988 1.06913 0.998678
0.995693 0.959636 1.03833 0.999273
1.02017 0.990867 1.03121 0.998418
0.957908 0.941533 1.02069 0.996769
1.01135 0.964482 1.04949 0.999145
1.03071 0.96674 1.06746 0.998792
0.757412 0.896825 0.91018 0.927891
0.71029 0.850903 0.901227 0.926236
0.724513 0.871024 0.904658 0.919458
1.01059 0.984163 1.02724 0.999627
0.93882 0.934761 1.00727 0.997091
0.704264 0.852297 0.896483 0.921727
0.839107 0.876277 0.993631 0.963719
0.814423 0.925864 0.950638 0.925312
0.737312 0.8971 0.893792 0.919546
0.676435 0.869632 0.867809 0.896326
0.988517 0.95719 1.033 0.99974
0.738706 0.882136 0.903333 0.927018
0.696387 0.859078 0.885591 0.915345
0.92513 0.927253 1.01075 0.987096
0.594633 0.786388 0.847182 0.892555
0.762391 0.865296 0.950341 0.927115
0.881712 0.913919 1.00324 0.961647
1.00761 0.949836 1.06292 0.998037
0.710185 0.852049 0.901066 0.925018
0.694074 0.859155 0.89086 0.906827
0.518067 0.684109 0.840659 0.900827
0.677847 0.813585 0.902722 0.922943
0.853788 0.893099 0.995801 0.960015
0.89623 0.91529 0.99571 0.983394
1.02953 0.974707 1.05677 0.999501
1.03015 0.971992 1.06028 0.999579
1.00938 0.971921 1.0391 0.999456
1.01836 0.997955 1.02144 0.999032
1.03425 0.986105 1.04936 0.999487
1.00845 0.978064 1.03177 0.999319
1.00958 0.994035 1.0169 0.998761
1.011 0.999748 1.01249 0.998777
1.01002 0.999022 1.01329 0.997747
1.02619 1.0007 1.0298 0.995796
0.995515 0.999866 0.998043 0.997601
1.00805 1.00186 1.01087 0.995361
1.00757 1.00333 1.00985 0.994431
1.01094 1.01441 1.00191 0.994683
1.01262 1.01618 1.00108 0.995425
1.00627 1.0082 1.00312 0.99498
1.00206 1.00493 1.00169 0.99546
1.01624 1.0191 1.0011 0.996101
1.02279 1.02655 1.00048 0.995865
1.01041 1.00895 1.00464 0.996825
1.01934 1.02009 1.00274 0.996536
1.01726 1.0202 1.00117 0.995952
1.01531 1.00196 1.01571 0.997657
1.01217 1.00518 1.0096 0.997379
1.01354 1.01255 1.00383 0.997154
1.00953 1 1.01086 0.998682
1.01397 1 1.01605 0.997959
1.01321 1.00069 1.01488 0.99767
1.00847 1 1.0103 0.998189
1.00322 1 1.00431 0.99891
0.999901 1 1.00006 0.999845
1.001 1 1.00189 0.999111
0.999898 1 1 0.999898
1 1 1 1
0.999923 1 1 0.999923
1 1 1 1
1 1 1 1
0.998325 1 1 0.998325
0.999279 1 1.00006 0.999222
0.998505 1 1.00008 0.998428
0.999976 1 1 0.999976
0.999327 1 1 0.999327
0.998616 1 1 0.998616
1 1 1 1
0.999997 1 1 0.999997
0.999449 1 1 0.999449
1 1 1 1
1 1 1 1
1 1 1 1
0.737693 0.883751 0.901794 0.925632
0.714537 0.855162 0.903641 0.924657
0.723481 0.872685 0.905202 0.91585
1.01898 1 1.0212 0.99782
1.00708 1.00055 1.00874 0.997816
0.99829 1 1.00018 0.998107
1.00314 1 1.00522 0.99793
0.998257 1 1.0002 0.998056
1.00426 1 1.00628 0.997998
0.997572 0.999394 1 0.998177
0.698097 0.867808 0.883195 0.910826
0.738673 0.899279 0.895863 0.916888
0.695463 0.854142 0.889886 0.914976
0.718359 0.909511 0.872342 0.905413
0.82625 0.91381 0.924926 0.977572
0.815806 0.877865 0.96959 0.958454
0.770544 0.880397 0.93919 0.931892
0.824528 0.904264 0.933771 0.976494
0.849028 0.888737 1.00064 0.954704
0.818906 0.920992 0.955307 0.930754
0.67532 0.86711 0.861078 0.904467
0.875284 0.914408 0.976924 0.979824
0.866642 0.900091 1.00868 0.954549
0.750599 0.868201 0.935794 0.923863
0.610246 0.801109 0.850976 0.89515
1.03749 0.998683 1.04055 0.998375
1.00082 0.999764 1.00306 0.99801
1.0025 1 1.00486 0.997655
0.997833 1 1 0.997833
0.943042 0.943187 1.00247 0.997381
0.995933 0.954421 1.04447 0.999064
1.00972 0.998898 1.01276 0.998101
1.02475 0.992809 1.03394 0.998285
1.04725 0.983868 1.06568 0.998821
1.02196 0.995889 1.0278 0.99842
1.03859 0.966949 1.07541 0.998779
0.956372 0.939819 1.02278 0.994946
1.01117 0.956373 1.05803 0.999309
1.0116 0.973741 1.04002 0.998906
0.943619 0.919323 1.03269 0.993939
0.991895 0.940418 1.05552 0.999258
0.709652 0.848317 0.903098 0.926302
0.753568 0.892709 0.907645 0.930029
0.716728 0.853828 0.905929 0.926596
0.982086 0.949452 1.03457 0.999805
0.931611 0.931128 1.00838 0.992208
0.73552 0.877874 0.902967 0.927877
0.891282 0.921755 1.01236 0.955133
0.764744 0.874977 0.93882 0.930974
0.702408 0.860878 0.89113 0.915602
0.58495 0.766254 0.851877 0.896125
1.00765 0.951322 1.06101 0.998303
0.715018 0.857846 0.901032 0.925054
0.686942 0.851545 0.889751 0.906659
0.898129 0.915345 0.994903 0.986217
0.529636 0.7066 0.837402 0.895097
0.668656 0.794743 0.910988 0.923557
0.850089 0.891851 0.997747 0.955326
0.991105 0.952066 1.04537 0.995824
0.725126 0.880891 0.898588 0.916074
0.57366 0.733564 0.870398 0.89846
0.630924 0.780584 0.865246 0.934152
0.793062 0.856735 0.963439 0.960808
0.848315 0.888855 0.97529 0.978572
1.03869 0.977518 1.06301 0.99959
1.01267 0.968847 1.04579 0.999466
0.980828 0.969985 1.01197 0.999222
1.01281 0.97376 1.04072 0.999402
1.0084 0.983634 1.02633 0.998872
1.01076 1.0008 1.01238 0.9976
1.00654 1.00015 1.00896 0.997451
1.02587 1.00089 1.02946 0.995621
1.01396 1.00239 1.01695 0.994683
1.00969 1.00188 1.01242 0.995438
1.00858 1.0033 1.01099 0.994336
1.00319 1.00449 1.00448 0.994247
1.04289 1.04813 1 0.995002
1.02382 1.02813 1.00077 0.995039
1.01112 1.01438 1.00218 0.994626
1.01423 1.01845 1.00013 0.995733
1.01057 1.0144 1.00074 0.995488
1.00632 1.00786 1.00357 0.994921
1.01603 1.01882 1.00112 0.996152
1.01584 1.01874 1.00108 0.996073
1.02364 1.02736 1.00043 0.995961
1.00926 1.00372 1.00833 0.997213
1.0111 1.00905 1.00511 0.996931
1.01999 1.02051 1.00288 0.996624
1.01347 1.00084 1.01429 0.998353
1.01482 1.00246 1.0147 0.997665
1.01299 1.00646 1.00915 0.997368
1.00127 1 1.00152 0.999748
1.00907 1 1.0104 0.998679
1.01269 1 1.01476 0.997957
1.00358 1 1.00468 0.998907
1.00017 1 1.00033 0.999833
1 1 1 1
0.999889 1 1 0.999889
1 1 1 1
1 1 1 1
1.01436 1 1.01656 0.997837
1.00656 1 1.00847 0.998109
0.999096 1 1.00007 0.999027
0.999311 1 1.00099 0.99832
0.999944 1 1 0.999944
0.999259 1 1.00003 0.999225
0.998619 1 1.00016 0.998457
1 1 1 1
0.999983 1 1 0.999983
0.999376 1 1 0.999376
1 1 1 1
0.999999 1 1 0.999999
1 1 1 1
0.706363 0.852596 0.898736 0.921834
0.733211 0.879484 0.899815 0.926505
0.714786 0.858794 0.900118 0.924672
1.02104 1 1.02327 0.997823
1.00868 1.00058 1.01027 0.997843
1.0008 1.00115 1.002 0.997652
1.02126 1 1.02347 0.997837
1.0067 1.00155 1.00732 0.997844
1.00494 1 1.00704 0.997908
0.999117 1 1.00104 0.998078
1.00456 0.999802 1.00677 0.998003
0.998339 1 1.00012 0.998222
1.02264 1 1.02442 0.998259
0.674195 0.840761 0.88406 0.907049
0.695635 0.862223 0.885448 0.911169
0.738191 0.898863 0.893517 0.919121
0.674119 0.866304 0.859874 0.904964
0.815184 0.923085 0.953923 0.925764
0.820055 0.898211 0.936558 0.974833
0.85347 0.890155 0.99867 0.960066
0.865343 0.916732 0.967288 0.975866
0.870224 0.912574 0.992972 0.960342
0.767435 0.868968 0.952186 0.927506
0.614504 0.811701 0.847021 0.893789
0.886026 0.909654 0.995278 0.978647
0.854918 0.883964 1.00626 0.961123
0.664376 0.781112 0.911751 0.932878
0.559201 0.731104 0.84924 0.900654
1.03138 0.999318 1.03319 0.998929
1.03849 0.998443 1.04179 0.998382
1.00438 1 1.00634 0.998044
0.955292 0.938444 1.02511 0.993021
1.01298 0.951506 1.06518 0.999457
1.02326 0.998549 1.02636 0.998422
1.04946 0.965873 1.08788 0.998767
1.01598 0.978594 1.03933 0.998912
0.998242 0.94973 1.05185 0.999264
0.943755 0.922246 1.02958 0.993924
1.00989 0.984713 1.02624 0.999345
0.959826 0.945442 1.02021 0.995099
0.731217 0.874827 0.908085 0.920444
0.718634 0.855362 0.906654 0.926651
0.748525 0.888384 0.90385 0.9322
1.01039 0.961384 1.05254 0.998512
0.893324 0.914496 0.995521 0.981243
0.723013 0.864784 0.903772 0.92508
0.854649 0.894303 0.998205 0.957378
0.670973 0.78213 0.920503 0.931967
0.676795 0.846436 0.881981 0.906575
0.540296 0.729659 0.832684 0.889266
0.988484 0.951166 1.04325 0.996149
0.723267 0.874639 0.902698 0.916067
0.573191 0.736556 0.86751 0.897054
0.862261 0.90336 0.973653 0.980333
0.643263 0.787314 0.876889 0.931743
0.791443 0.869349 0.950979 0.957314
0.938901 0.936938 1.00816 0.993986
0.597894 0.750738 0.881437 0.903535
0.653777 0.796873 0.877267 0.935209
0.78875 0.888827 0.926801 0.957493
0.822832 0.893021 0.939004 0.981256
1.01427 0.967493 1.0489 0.999479
0.9843 0.963696 1.02221 0.999193
0.993151 0.987195 1.00764 0.9984
1.007 0.97162 1.03747 0.998979
1.00644 0.999129 1.00965 0.997696
0.995029 1.00361 0.994945 0.996483
1.02537 1.00084 1.0292 0.995442
1.01245 1.0031 1.01472 0.994677
1.00159 1.0051 1.00137 0.995141
1.00888 1.00308 1.01161 0.994242
1.00302 1.00507 1.0037 0.994287
1.03805 1.04337 0.99963 0.995269
1.06976 1.07636 0.998063 0.9958
1.05547 1.06064 1.00002 0.995104
1.04331 1.04852 1 0.995035
1.03161 1.03645 1 0.995335
1.02268 1.02674 1.00107 0.99498
1.01208 1.01513 1.00244 0.994568
1.02501 1.0293 1 0.995835
1.0126 1.01684 1.00002 0.995804
1.00836 1.01254 1.00032 0.995552
1.00891 1.01002 1.00229 0.996625
1.01293 1.01508 1.00167 0.996215
1.01629 1.01921 1.0011 0.996045
1.01314 1.00099 1.01431 0.997865
1.012 1.00556 1.00922 0.997211
1.01161 1.00903 1.00555 0.997036
1.00347 1 1.00385 0.99962
1.01312 1.00099 1.01379 0.99835
1.01472 1.00292 1.01412 0.997673
0.999944 1 1 0.999944
1.00218 1 1.00245 0.999734
1.00869 1 1.01003 0.998675
1.00051 1 1.00069 0.99982
1 1 1 1
1 1 1 1
1.00965 1.00247 1.00953 0.997651
1.01308 1 1.01522 0.997896
1.01683 1 1.01906 0.997809
1.00153 1 1.00272 0.998814
1.0053 1 1.00721 0.998104
0.9999 1 1 0.9999
0.999391 1 1.00036 0.999031
0.99973 1 1.00142 0.998314
1 1 1 1
0.999954 1 1 0.999954
0.999227 1 1 0.999227
1 1 1 1
0.999989 1 1 0.999989
1 1 1 1
0.713965 0.862564 0.899374 0.920333
0.710346 0.856395 0.899766 0.921863
0.734169 0.873829 0.90598 0.927366
1.00273 1.00418 1.00106 0.997502
1.0187 1 1.02092 0.997825
1.00468 1 1.00682 0.997873
1.01453 1 1.01678 0.997789
1.00154 1.00236 1.0015 0.997681
1.00335 1.00036 1.00495 0.998048
1.01537 1.00174 1.0165 0.997159
1.01867 0.997131 1.02357 0.998076
1.00502 0.999667 1.00736 0.998009
0.998267 1 1 0.998267
1.02415 0.999262 1.02671 0.998244
1.04123 1.00171 1.04104 0.998475
0.592546 0.747448 0.880211 0.900646
0.689125 0.856074 0.887867 0.906649
0.695906 0.860383 0.887428 0.911434
0.61884 0.813426 0.845623 0.89967
0.759779 0.863963 0.949669 0.926019
0.870781 0.904551 1.00839 0.954652
0.868362 0.914299 0.972506 0.976608
0.883808 0.90897 0.991259 0.980892
0.550149 0.728981 0.843325 0.894888
0.845134 0.887801 0.995432 0.956309
0.669744 0.790797 0.914169 0.926439
0.882731 0.915984 0.980405 0.982958
0.817947 0.878093 0.967311 0.962982
0.631712 0.778716 0.86964 0.932826
0.98982 1.00137 0.988933 0.99953
1.03337 1.00027 1.0342 0.998935
1.03807 0.999017 1.04077 0.998387
0.946505 0.926022 1.02833 0.993962
1.00589 0.96091 1.04757 0.999273
1.02203 0.986643 1.03698 0.998919
1.00678 0.982442 1.02544 0.999345
0.955448 0.944376 1.01665 0.995154
0.982037 0.978327 1.00694 0.996874
0.634616 0.769166 0.908012 0.908656
0.727022 0.872543 0.903233 0.922488
0.722238 0.860328 0.905644 0.926955
0.989232 0.951095 1.04391 0.996345
0.856545 0.901776 0.968023 0.981218
0.719826 0.86789 0.905292 0.916166
0.807399 0.867596 0.971946 0.957477
0.644077 0.801397 0.868093 0.925814
0.59051 0.755639 0.866367 0.902009
0.936605 0.92949 1.01371 0.99403
0.607058 0.752411 0.887982 0.908598
0.640581 0.793521 0.869325 0.92861
0.819673 0.897429 0.934767 0.977096
0.814336 0.907227 0.93199 0.963111
0.929972 0.948155 0.983538 0.997239
0.676514 0.808207 0.903174 0.926794
0.865618 0.96186 0.932243 0.965351
0.818904 0.909816 0.921504 0.976747
0.987991 0.958794 1.03131 0.999169
0.981605 0.986596 0.996452 0.998485
0.992569 1.00046 0.994746 0.997349
1.00235 0.997844 1.00674 0.997792
0.997053 1.00359 0.997029 0.996444
1.00037 1.0077 0.996378 0.996337
1.01169 1.00432 1.01273 0.994672
1.00151 1.00472 1.00167 0.995141
1.03464 1.04565 0.993194 0.996254
1.00303 1.00554 1.00319 0.994328
1.03642 1.04211 0.999261 0.995277
1.06734 1.07827 0.993369 0.996468
1.06452 1.07468 0.993939 0.996588
1.07195 1.07731 0.999304 0.995712
1.07132 1.07791 0.998023 0.995851
1.06042 1.06539 1 0.995336
1.05336 1.05846 1 0.99518
1.04251 1.04767 1 0.995069
1.04548 1.05011 1 0.995594
1.03235 1.03702 1.00014 0.995356
1.02129 1.02499 1.00148 0.994919
1.02474 1.02872 1 0.996134
1.02272 1.027 1 0.995832
1.01084 1.01503 1 0.995874
1.00715 1.00305 1.00673 0.997373
1.01151 1.01225 1.00266 0.996616
1.00977 1.0111 1.00241 0.996279
1.00439 1 1.00505 0.999346
1.01174 1.00188 1.01201 0.997861
1.014 1.00765 1.00912 0.997208
1 1 1 1
1.00403 1 1.00448 0.999552
1.01215 1.00103 1.01278 0.998347
1 1 1 1
1.003 1 1.0033 0.999708
1 1 1 1
1.00511 1.00587 1.00185 0.997403
1.00768 1.00156 1.00852 0.997612
1.01334 1.0003 1.01534 0.997728
1.0072 1 1.0086 0.998604
1.01517 1 1.01731 0.997893
1.02226 1 1.02453 0.997781
0.99999 1 1.00016 0.999832
1.00084 1 1.00202 0.998819
1.00543 1 1.00735 0.998098
1 1 1 1
0.999912 1 1 0.999912
0.99942 1 1.00038 0.999036
1 1 1 1
0.999964 1 1 0.999964
1 1 1 1
0.608563 0.757576 0.89158 0.900989
0.718521 0.867725 0.899653 0.920411
0.714565 0.860969 0.90026 0.921905
1.00825 1.0027 1.00809 0.99747
1.01632 1.00805 1.01118 0.997052
1.02167 1.00233 1.02202 0.997327
1.01397 1 1.01626 0.997741
1.00244 1.00419 1.00055 0.997711
1.00423 0.999749 1.00625 0.998246
1.0191 0.998935 1.02224 0.997989
1.01702 1.00246 1.01724 0.997325
1.01861 1.00125 1.01993 0.997463
0.975378 1.00183 0.97461 0.998965
1.02378 0.999684 1.02592 0.998227
1.03593 1.00052 1.03701 0.998439
0.649809 0.794958 0.883768 0.924918
0.568875 0.725172 0.874742 0.896801
0.699265 0.865053 0.891701 0.906525
0.542587 0.728234 0.838177 0.88892
0.681868 0.802289 0.91088 0.933059
0.833216 0.881496 0.986898 0.957778
0.882919 0.907278 0.995193 0.977852
0.868823 0.906981 0.977363 0.980115
0.643439 0.781472 0.884527 0.930857
0.798607 0.872194 0.955974 0.957798
0.846799 0.911502 0.945897 0.982152
0.786432 0.903681 0.908131 0.958291
0.995924 1 0.996878 0.999043
0.989325 1.00071 0.989139 0.999476
1.03431 0.999545 1.03588 0.998941
0.945199 0.937598 1.01294 0.995226
1.00148 0.978108 1.02457 0.999344
0.983653 0.980829 1.00607 0.996832
0.964984 0.986393 0.982584 0.995636
0.698514 0.819864 0.912156 0.934038
0.629625 0.766577 0.90397 0.908599
0.729708 0.874806 0.902318 0.924437
0.938265 0.935849 1.00838 0.994255
0.823213 0.89526 0.940735 0.977454
0.608279 0.751901 0.890361 0.908607
0.781218 0.893013 0.913288 0.95787
0.655631 0.793078 0.883992 0.935179
0.930241 0.952127 0.981236 0.995697
0.687646 0.817995 0.90272 0.93124
0.846842 0.953999 0.925954 0.95866
0.820212 0.910056 0.92002 0.979626
0.939698 0.975025 0.966722 0.996944
0.885227 0.976403 0.939958 0.964532
0.876065 0.960901 0.927283 0.983207
0.969462 0.984713 0.985943 0.998549
0.98651 1.00036 0.988805 0.997315
0.982059 1.00912 0.976009 0.997104
0.998362 1.00327 0.998696 0.996407
0.999934 1.0074 0.99625 0.996327
1.02282 1.05056 0.976496 0.997026
1.00106 1.00408 1.00186 0.995142
1.03179 1.04414 0.991916 0.996228
1.0488 1.07772 0.976015 0.997087
1.0355 1.04155 0.998897 0.995284
1.06571 1.07768 0.992409 0.996457
1.05413 1.07532 0.983152 0.997094
1.05893 1.07407 0.988886 0.996978
1.06493 1.07577 0.993234 0.996665
1.06483 1.0717 0.99714 0.996437
1.07353 1.07812 0.999969 0.995774
1.07228 1.07741 0.999485 0.995743
1.07359 1.08023 0.99794 0.995902
1.0643 1.06908 1 0.99553
1.06189 1.06684 1 0.995361
1.05164 1.05666 1 0.995257
1.04648 1.05085 1 0.995841
1.04618 1.05082 1 0.995593
1.03325 1.03787 1.00017 0.995376
1.00756 1.01011 1.00052 0.996957
1.02484 1.02881 1 0.996137
1.02059 1.02486 1 0.99583
1.00349 1 1.00449 0.999014
1.0092 1.00508 1.00674 0.997368
1.01463 1.01451 1.00352 0.996607
1 1 1 1
1.00461 1 1.0053 0.999321
1.01171 1.00302 1.01083 0.997857
0.999957 1 1 0.999957
1.00494 1 1.0054 0.999541
1 1 1 1
1.00702 1.00904 1.00086 0.997138
1.00353 1.00288 1.00324 0.997413
1.00672 1.00119 1.00798 0.997561
1.00428 1.00032 1.0064 0.997572
1.01317 1.00042 1.01504 0.997731
1.01209 1 1.01373 0.998387
1.00102 1 1.00129 0.999731
1.00603 1 1.00744 0.998605
1.01498 1 1.01712 0.997891
1 1 1 1
0.999849 1 1 0.999849
1.00001 1 1.00119 0.998824
1 1 1 1
0.999927 1 1 0.999927
1 1 1 1
0.676527 0.809714 0.897394 0.931044
0.610701 0.757231 0.893281 0.902844
0.719868 0.870035 0.898857 0.920504
1.01173 1.00135 1.01296 0.997439
1.02685 1.00185 1.02796 0.997077
1.01338 1.00787 1.00839 0.997105
1.00986 1.01138 1.00242 0.996087
1.02402 1.00369 1.02293 0.997384
1.01739 1 1.01952 0.997908
1.01745 1.00285 1.01711 0.997491
1.01964 1.00162 1.02047 0.997581
0.997406 1.00675 0.99351 0.997187
0.96493 1.0016 0.964876 0.998455
0.969062 1.00035 0.970986 0.997668
0.980653 1.00186 0.979824 0.998985
1.03127 1.00073 1.03216 0.998405
0.843333 0.945794 0.926192 0.962724
0.641969 0.789041 0.877594 0.927089
0.560621 0.717414 0.869341 0.898896
0.642283 0.790728 0.878035 0.925097
0.803641 0.877961 0.953832 0.959655
0.876581 0.906195 0.984065 0.982985
0.845244 0.909401 0.94433 0.984243
0.82282 0.912671 0.934829 0.964403
0.863998 0.953812 0.921233 0.983287
0.991204 1.00132 0.991664 0.99822
0.996696 0.999927 0.997749 0.999017
0.989483 1.00037 0.989683 0.999424
0.98731 0.985352 1.00515 0.996852
0.973991 0.989129 0.988421 0.996231
0.872105 0.966094 0.938967 0.961389
0.698598 0.818399 0.912964 0.934994
0.623196 0.761648 0.900523 0.908605
0.933326 0.959496 0.978548 0.99405
0.827283 0.921556 0.918817 0.97702
0.678601 0.812535 0.897736 0.9303
0.845234 0.945236 0.927004 0.964617
0.948052 0.976498 0.973742 0.997049
0.894406 0.985151 0.941112 0.964696
0.873217 0.957634 0.930264 0.980204
0.946854 1.00143 0.948966 0.996346
0.914029 0.989793 0.934293 0.9884
0.984357 1.00215 0.984898 0.99731
0.976607 1.00901 0.970736 0.997059
0.9843 1.04275 0.946398 0.997412
0.999189 1.00701 0.995904 0.996314
1.02569 1.05224 0.977716 0.996992
1.04102 1.08308 0.963674 0.997399
1.02862 1.04237 0.990572 0.996202
1.04897 1.07772 0.976196 0.99706
1.04214 1.07627 0.970893 0.997323
1.0633 1.07632 0.991431 0.996446
1.05384 1.07472 0.983444 0.997071
1.05437 1.07814 0.980726 0.99717
1.05722 1.07333 0.987914 0.997036
1.05962 1.07305 0.99067 0.996788
1.06499 1.07645 0.992579 0.996742
1.06486 1.07164 0.997231 0.996429
1.06599 1.07114 0.998994 0.996195
1.071 1.07559 1 0.995731
1.0735 1.07809 0.999979 0.995761
1.07251 1.0774 0.999687 0.995773
1.06062 1.0652 1 0.995703
1.06569 1.07049 1 0.995523
1.06346 1.06839 1 0.995386
1.02016 1.02361 1 0.996633
1.04517 1.04953 1 0.995845
1.04656 1.0512 1 0.995591
1.00074 1.00003 1.00208 0.998637
1.01141 1.01363 1.00085 0.99696
1.02478 1.02875 1 0.99614
1 1 1 1
1.00293 1 1.00395 0.998987
1.01051 1.007 1.00614 0.997363
1 1 1 1
1.00431 1 1.00502 0.999297
1 1 1 1
1.02112 1.02427 1.00073 0.996199
1.00846 1.01085 1.00052 0.997127
1.00421 1.00335 1.00364 0.99723
1.00337 1.00023 1.00573 0.997425
1.00612 1.00058 1.00803 0.997518
1.01138 1.00115 1.01216 0.998085
1.01582 1.00028 1.01783 0.997734
1.01316 1 1.0148 0.998383
1.00468 1 1.0051 0.999582
1 1 1 1
1.00097 1 1.00123 0.999746
1.00667 1 1.00808 0.998605
1 1 1 1
0.999863 1 1 0.999863
1 1 1 1
0.88531 0.974294 0.94003 0.966638
0.687974 0.819618 0.900494 0.932136
0.607435 0.755946 0.892642 0.900184
1.03289 1.00131 1.03482 0.996827
1.01132 1.0087 1.00546 0.997158
1.01966 1.00318 1.01924 0.997246
1.00934 1.01093 1.00224 0.996191
1.03096 1.03509 1.00016 0.99585
1.00155 1.00734 0.997376 0.996875
1.02259 1.00247 1.02243 0.997695
0.998806 1.00836 0.993524 0.996984
0.973602 1.00277 0.972433 0.998439
0.99599 1.00398 0.994797 0.997229
0.971131 1.00345 0.97011 0.99761
0.993233 1.00156 0.994516 0.997155
0.96874 1.00082 0.970114 0.997767
0.985999 1.00053 0.986456 0.999005
0.878061 0.966421 0.924132 0.983161
0.851532 0.956459 0.925457 0.962008
0.656612 0.789771 0.890139 0.934007
0.796727 0.901079 0.923316 0.957627
0.858003 0.91191 0.954887 0.985337
0.867734 0.94345 0.931183 0.987718
0.961738 1.00377 0.961434 0.996562
0.988209 1.00031 0.989768 0.998119
0.996699 0.999275 0.998428 0.998993
0.976931 0.990044 0.989913 0.99681
0.904504 0.973076 0.944821 0.983818
0.884199 0.972485 0.939419 0.96785
0.688465 0.813902 0.910563 0.928966
0.945633 0.971846 0.97579 0.997168
0.875642 0.961637 0.927278 0.981986
0.892824 0.984668 0.939959 0.964645
0.942641 0.999263 0.946682 0.996467
0.91736 0.986841 0.941429 0.987427
0.949225 1.02546 0.928698 0.996723
0.963828 1.02331 0.946484 0.995132
0.969891 1.00887 0.964252 0.997007
0.981587 1.03983 0.946435 0.997412
1.00756 1.0804 0.935041 0.997368
1.0296 1.05463 0.979252 0.996958
1.04039 1.08244 0.963682 0.997374
1.04978 1.08489 0.970284 0.997272
1.04974 1.07817 0.976526 0.997032
1.04346 1.07601 0.972379 0.997303
1.05955 1.08605 0.978408 0.997128
1.05387 1.07446 0.983748 0.997049
1.05291 1.07594 0.981376 0.997164
1.05948 1.07906 0.984907 0.996895
1.05574 1.07284 0.986928 0.997092
1.05904 1.07284 0.990275 0.996834
1.06442 1.07317 0.99537 0.996456
1.06495 1.07168 0.997287 0.996421
1.06675 1.07165 0.999239 0.996185
1.06943 1.07393 0.9998 0.996003
1.06435 1.06891 1 0.99574
1.07138 1.076 1 0.995706
1.07339 1.07798 0.999999 0.995749
1.03612 1.03983 1 0.996433
1.05962 1.06418 1 0.99571
1.06721 1.07202 1 0.995516
1.0005 1.00189 1.00027 0.998342
1.02105 1.02449 1.00001 0.996632
1.04376 1.04811 1 0.995848
1 1 1 1
1.00057 1.00045 1.0015 0.998614
1.01527 1.01718 1.00117 0.996962
1 1 1 1
1.0027 1 1.00374 0.998962
1 1 1 1
1.0389 1.04322 1 0.99586
1.02242 1.02579 1.00049 0.996229
1.01905 1.02121 1.00133 0.996558
1.0096 1.01193 1.00059 0.997115
1.00473 1.00437 1.00321 0.99716
1.01007 1.00628 1.0061 0.997684
1.0045 1 1.00704 0.997477
1.01108 1.0008 1.0122 0.998087
1.00515 1 1.00577 0.999384
1.01204 1 1.01369 0.99838
1.00321 1 1.00362 0.999594
1 1 1 1
1 1 1 1
1.00028 1 1.00052 0.999761
1 1 1 1
0.898491 0.966814 0.9441 0.984358
0.874732 0.970917 0.937873 0.960615
0.690911 0.812627 0.908439 0.935911
1.0545 1.05885 1.00007 0.995832
1.01457 1.0022 1.01528 0.99711
1.00999 1.01164 1.00208 0.996296
1.00208 1.00755 0.99768 0.996888
1.02951 1.03339 1.00042 0.995831
1.01519 1.0191 0.999311 0.996853
1.00119 1.00942 0.995052 0.996781
0.979617 1.00285 0.97838 0.998421
0.994694 1.00529 0.992193 0.997242
0.963856 1.00246 0.963936 0.997464
1.01901 1.02076 1.00179 0.996504
0.98537 1.00761 0.980632 0.997241
0.991781 1.00218 0.992466 0.997138
0.97042 1.00134 0.971197 0.997866
0.95101 1.00571 0.948317 0.997147
0.867838 0.959238 0.921733 0.981538
0.849476 0.95891 0.921279 0.961573
0.867347 0.93696 0.939537 0.985276
0.964673 1.00408 0.963005 0.997663
0.988197 1.00005 0.990118 0.998006
0.968015 1.00973 0.96448 0.993993
0.895948 0.957293 0.950005 0.985172
0.872864 0.971735 0.934179 0.961544
0.9438 0.997501 0.949409 0.996582
0.924906 0.989148 0.948079 0.986261
0.952511 1.02737 0.930009 0.99691
0.970089 1.02398 0.951651 0.995503
0.990752 1.05461 0.942141 0.997142
1.05744 1.10055 0.963671 0.997049
0.977729 1.03623 0.94599 0.997412
1.01405 1.08205 0.939647 0.997349
1.04264 1.10035 0.95029 0.997123
1.03918 1.0813 0.963596 0.99735
1.04583 1.08257 0.968703 0.997269
1.06121 1.09518 0.971891 0.997009
1.04447 1.07551 0.973781 0.997284
1.05705 1.08407 0.977862 0.997142
1.06334 1.08425 0.983819 0.996845
1.05138 1.07365 0.982042 0.997158
1.05986 1.07941 0.984947 0.996892
1.06397 1.07785 0.990509 0.996584
1.05837 1.07253 0.989892 0.99688
1.06447 1.07346 0.995109 0.996502
1.0715 1.07626 0.999404 0.996168
1.06752 1.07216 0.999488 0.996175
1.06937 1.07378 0.999894 0.995998
1.06601 1.07047 1 0.99584
1.04358 1.0474 1 0.996357
1.06413 1.06869 1 0.995735
1.07178 1.07643 1 0.995682
1.00762 1.00942 1 0.998217
1.03417 1.03787 1 0.996433
1.05874 1.06329 1 0.995717
1 1 1 1
1.00264 1.00422 1.0001 0.998326
1.02203 1.02548 1 0.996632
1 1 1 1
1.0003 1.00094 1.00077 0.998593
1 1 1 1
1.05479 1.05936 1 0.995685
1.03901 1.04334 1 0.995852
1.04084 1.04489 1 0.996127
1.02347 1.02706 1.00024 0.996261
1.02263 1.02489 1.00127 0.99653
1.0163 1.01622 1.0028 0.997295
1.00481 1.00504 1.00269 0.99709
1.0082 1.00379 1.00672 0.997689
1.00275 1 1.00361 0.999147
1.01167 1.00017 1.01344 0.998086
1.00472 1 1.00532 0.999398
1 1 1 1
1.0026 1 1.003 0.999605
1 1 1 1
1 1 1 1
0.958465 1.01057 0.95165 0.99663
0.890944 0.966094 0.940025 0.981051
0.874103 0.968018 0.933809 0.966988
1.04962 1.05339 1.00001 0.996413
1.06456 1.07069 0.998176 0.996089
1.05314 1.05738 1.00006 0.995926
1.0023 1.00774 0.997693 0.9969
1.02742 1.03098 1.00073 0.995812
1.01821 1.02291 0.998557 0.996843
1.04294 1.05674 0.990478 0.996427
0.994187 1.00695 0.990037 0.997257
0.958981 1.00189 0.959747 0.997317
1.02137 1.02406 1.00073 0.996643
1.0257 1.05321 0.97739 0.996409
0.98623 1.02989 0.960122 0.997383
0.993959 1.01066 0.986265 0.997173
0.992933 1.00271 0.993107 0.997119
0.952033 1.00712 0.947672 0.997497
0.874844 0.963532 0.9266 0.979878
0.964963 1.00344 0.962806 0.998805
1.03796 1.07495 0.967935 0.997585
0.964996 1.00849 0.962499 0.994153
0.89903 0.965375 0.947656 0.982715
0.95563 1.0297 0.930785 0.997084
0.975017 1.02425 0.955858 0.995896
0.984804 1.05482 0.936119 0.997337
1.0542 1.0994 0.961691 0.997078
1.05416 1.11238 0.950445 0.997072
1.09978 1.13851 0.96866 0.997232
1.02075 1.08473 0.943531 0.997331
1.04893 1.1033 0.953463 0.997123
1.06295 1.10474 0.965131 0.996931
1.04186 1.08036 0.967013 0.997266
1.06116 1.09455 0.972405 0.997011
1.06247 1.08933 0.978461 0.996815
1.05455 1.08212 0.977304 0.997156
1.0643 1.08515 0.983889 0.996841
1.0657 1.08174 0.988536 0.996596
1.06027 1.07979 0.984983 0.99689
1.0646 1.07845 0.990549 0.996581
1.0736 1.08074 0.997128 0.996248
1.06449 1.07372 0.994831 0.996548
1.07095 1.07584 0.999269 0.99618
1.07047 1.07488 1 0.995894
1.06932 1.07363 1 0.995993
1.06574 1.07018 1 0.99585
1.04397 1.04781 1 0.996335
1.01356 1.01538 1 0.998209
1.04323 1.04705 1 0.996358
1.06395 1.06851 1 0.99573
1 1 1 1
1.00927 1.01108 1 0.998206
1.0319 1.03559 1 0.996433
1 1 1 1
1.00446 1.00616 1 0.99831
1 1 1 1
1.06501 1.06955 0.99995 0.995814
1.05402 1.05857 1 0.995699
1.05541 1.05975 1 0.995897
1.03841 1.04274 1 0.995843
1.04176 1.04581 1 0.996128
1.02261 1.02527 1.00046 0.996951
1.02589 1.02818 1.00128 0.996502
1.01267 1.01247 1.00291 0.997297
1.00073 1.00031 1.0016 0.998825
1.00697 1.00191 1.00737 0.997695
1.00331 1 1.00414 0.999166
1 1 1 1
1.00411 1 1.0047 0.999412
1 1 1 1
1 1 1 1
0.993508 1.05373 0.944988 0.997735
0.955721 1.0092 0.951323 0.995465
0.89353 0.96874 0.939373 0.981892
1.0579 1.06792 0.994263 0.996334
1.04924 1.05304 0.999759 0.996633
1.07443 1.08498 0.993996 0.996256
1.06425 1.0714 0.997249 0.996068
1.05141 1.05562 0.999991 0.99602
1.06532 1.09003 0.981016 0.996239
1.02148 1.02699 0.997794 0.996834
1.04165 1.0545 0.991417 0.996364
1.04898 1.09486 0.961409 0.996555
1.01928 1.02704 0.995649 0.996783
1.02674 1.05419 0.977565 0.996319
0.985082 1.03471 0.954489 0.997427
0.999138 1.01195 0.990211 0.997102
0.953017 1.00791 0.947629 0.997798
1.08628 1.1293 0.964538 0.997269
1.04417 1.07774 0.971169 0.997612
0.964076 1.00711 0.962739 0.994319
0.979498 1.05458 0.931103 0.997528
1.05136 1.09857 0.959808 0.997107
1.04797 1.10928 0.947481 0.997094
1.10589 1.14373 0.969602 0.997229
1.08077 1.11975 0.967978 0.997114
1.05495 1.10572 0.956832 0.997124
1.06385 1.10376 0.966798 0.996942
1.06295 1.09357 0.975063 0.996863
1.06116 1.09389 0.972986 0.997012
1.0631 1.08951 0.978896 0.996795
1.06486 1.08316 0.986464 0.996591
1.06528 1.08607 0.983969 0.996838
1.06604 1.08208 0.988551 0.996592
1.07425 1.08456 0.994163 0.996302
1.06522 1.07903 0.990592 0.996578
1.07334 1.0805 0.997114 0.996248
1.07576 1.08015 1 0.995936
1.07044 1.07547 0.999122 0.996192
1.07012 1.07452 1 0.995901
1.04463 1.04851 1 0.9963
1.06536 1.06979 1 0.99586
1.04482 1.04866 1 0.996335
1.01432 1.01579 1 0.998558
0.999386 1 1 0.999386
1.01387 1.01554 1 0.998355
1.04278 1.04659 1 0.996359
1 1 1 1
1.0113 1.01313 1 0.998195
1 1 1 1
1.07717 1.08691 0.994643 0.996375
1.06971 1.07516 0.99885 0.996073
1.06497 1.0699 0.99955 0.995839
1.0575 1.06191 1 0.995851
1.05412 1.05866 1 0.995712
1.05447 1.05882 1 0.995888
1.02616 1.0296 1 0.99666
1.043 1.04705 1 0.996129
1.02069 1.02318 1.00062 0.99695
1.00223 1.00364 1.00012 0.998467
1.00855 1.0084 1.00286 0.997299
1.00123 1.00027 1.00212 0.998844
1 1 1 1
1.00359 1 1.00441 0.999185
1 1 1 1
1 1 1 1
1.07261 1.12159 0.959195 0.997007
1.00306 1.06425 0.944638 0.997739
0.95248 1.00944 0.948954 0.994325
1.06713 1.08564 0.986607 0.996297
1.05341 1.06394 0.993695 0.996377
1.04894 1.0527 0.999579 0.996852
1.0732 1.08285 0.994799 0.996269
1.0639 1.072 0.996379 0.996048
1.07114 1.10835 0.969791 0.996534
1.06013 1.08549 0.980362 0.996197
1.04075 1.05269 0.992334 0.996301
1.04426 1.08968 0.961634 0.996555
1.03252 1.05797 0.979635 0.996229
0.987015 1.04403 0.947775 0.997481
1.07668 1.11004 0.972648 0.997223
1.0876 1.13031 0.964814 0.997307
1.04987 1.081 0.973507 0.997639
1.0422 1.10666 0.944477 0.997113
1.11215 1.14897 0.97064 0.997226
1.08222 1.12177 0.967534 0.997118
1.07012 1.09463 0.980561 0.996986
1.06468 1.10274 0.968442 0.996952
1.0636 1.09342 0.975802 0.996846
1.06585 1.08428 0.986318 0.996641
1.06376 1.08973 0.979324 0.996776
1.06552 1.0838 0.986496 0.99659
1.07348 1.08558 0.992494 0.996333
1.06643 1.08246 0.988566 0.996587
1.07403 1.08433 0.994173 0.9963
1.07869 1.08341 0.999675 0.995966
1.07305 1.08022 0.997098 0.996248
1.07603 1.08041 1 0.995941
1.04548 1.04943 1 0.996241
1.06976 1.07416 1 0.995908
1.0461 1.04998 1 0.996303
1.01298 1.01442 1 0.998579
1.04589 1.04974 1 0.996336
1.01397 1.01544 1 0.998551
0.999418 1 1 0.999418
0.999708 1 1 0.999708
1.01426 1.01576 1 0.998515
1 1 1 1
1.06805 1.08391 0.988935 0.996391
1.07243 1.07846 0.998224 0.99618
1.07504 1.08541 0.993916 0.996506
1.06613 1.07052 1 0.995897
1.07213 1.07731 0.999123 0.996065
1.06487 1.07024 0.999119 0.995865
1.05814 1.06256 1 0.99584
1.03837 1.04204 1 0.996478
1.05417 1.05854 1 0.99588
1.0295 1.03295 1 0.996661
1.0092 1.01095 1 0.998266
1.01929 1.02188 1.00052 0.99695
1.00151 1.00248 1.00054 0.99849
1 1 1 1
1.00159 1 1.00273 0.998865
1 1 1 1
1 1 1 1
1.07058 1.10592 0.971072 0.996891
1.06441 1.11236 0.959768 0.997009
1.01103 1.07169 0.945546 0.997735
1.06798 1.0935 0.980125 0.996467
1.06445 1.08317 0.986373 0.996292
1.04871 1.0598 0.993088 0.996422
1.07177 1.08065 0.995484 0.996283
1.07061 1.10691 0.97059 0.996508
1.05425 1.08013 0.979808 0.996155
1.03498 1.0791 0.962432 0.996556
1.07347 1.0969 0.981529 0.997052
1.07551 1.10839 0.973075 0.99718
1.08874 1.13096 0.965231 0.997345
1.06902 1.0878 0.985798 0.996893
1.08349 1.12375 0.966962 0.997122
1.06975 1.09437 0.980473 0.996972
1.06791 1.08475 0.987684 0.996755
1.06425 1.09325 0.976571 0.99683
1.06611 1.08456 0.986298 0.996643
1.07302 1.08466 0.992873 0.996364
1.06613 1.08438 0.98653 0.996589
1.07345 1.08552 0.992522 0.996333
1.0795 1.08475 0.999159 0.995998
1.07373 1.08402 0.994185 0.996298
1.07914 1.08389 0.999647 0.995969
1.04431 1.04831 1 0.996184
1.07629 1.08067 1 0.995945
1.0466 1.05055 1 0.996244
1.01091 1.01237 1 0.998554
1.04759 1.05147 1 0.996305
1.01235 1.01381 1 0.998564
0.999419 1 1 0.999419
1.01351 1.01498 1 0.998548
0.999434 1 1 0.999434
1 1 1 1
1.06642 1.08349 0.987907 0.996302
1.07318 1.08303 0.994696 0.996196
1.06999 1.08521 0.989543 0.996389
1.07433 1.07866 1 0.995978
1.0731 1.0802 0.997183 0.996234
1.07311 1.08405 0.993255 0.996636
1.04877 1.05258 1 0.996376
1.06627 1.07067 1 0.995885
1.07469 1.07956 0.999436 0.996057
1.05866 1.0631 1 0.995828
1.03912 1.0428 1 0.996478
1.01497 1.01677 1 0.998225
1.03145 1.03491 1 0.996662
1.00677 1.0085 1 0.998283
1 1 1 1
1.00077 1.00131 1.00095 0.99851
1 1 1 1
1 1 1 1
1.06924 1.09296 0.981457 0.996779
1.07138 1.10736 0.970541 0.996868
1.0589 1.10646 0.959887 0.997011
1.06764 1.09304 0.980205 0.996485
1.06168 1.0806 0.986146 0.996288
1.07121 1.10677 0.971283 0.996483
1.0711 1.0892 0.986452 0.996891
1.07343 1.09672 0.981661 0.997047
1.07432 1.10672 0.973507 0.997137
1.0693 1.08781 0.986036 0.996914
1.06663 1.08107 0.989896 0.996718
1.06935 1.09411 0.980359 0.996957
1.06839 1.08468 0.98823 0.996718
1.07203 1.08327 0.993149 0.996457
1.06639 1.08487 0.98628 0.996646
1.07293 1.08459 0.992853 0.996366
1.07906 1.08451 0.998945 0.99602
1.07353 1.08558 0.992543 0.996332
1.07948 1.0848 0.999084 0.995999
1.04211 1.04613 1 0.996154
1.07973 1.08451 0.999618 0.995972
1.04499 1.04899 1 0.996187
1.00839 1.00991 1 0.998502
1.04776 1.0517 1 0.996248
1.01014 1.01162 1 0.998533
0.999393 1 1 0.999393
1.01172 1.01318 1 0.998554
0.999448 1 1 0.999448
0.999443 1 1 0.999443
1.068 1.08471 0.987987 0.996571
1.07397 1.08471 0.993918 0.996156
1.06599 1.08435 0.986697 0.996327
1.07761 1.08315 0.99887 0.996017
1.07352 1.08271 0.995313 0.996181
1.07185 1.08646 0.990122 0.996388
1.04947 1.05335 1 0.996315
1.0737 1.07853 0.999535 0.995985
1.07369 1.08194 0.996071 0.996287
1.01502 1.01681 1 0.998243
1.04745 1.05126 1 0.996376
1.06649 1.07091 1 0.995874
1.04014 1.04382 1 0.996477
1.01363 1.01543 1 0.998235
1 1 1 1
1.00481 1.00652 1 0.9983
1 1 1 1
1 1 1 1
1.06799 1.08565 0.986906 0.996781
1.0695 1.09311 0.981579 0.996767
1.07155 1.10816 0.970024 0.996845
1.06757 1.09277 0.980369 0.996502
1.06767 1.07977 0.992099 0.996676
1.07115 1.0894 0.9863 0.996902
1.07344 1.09658 0.98181 0.997042
1.06963 1.08782 0.986302 0.996935
1.06674 1.08153 0.989561 0.996728
1.07282 1.08275 0.994371 0.99644
1.0689 1.08461 0.988802 0.99668
1.07298 1.08349 0.993868 0.996405
1.07722 1.08327 0.99831 0.9961
1.07286 1.08454 0.992836 0.996369
1.0785 1.08403 0.998875 0.996022
1.0402 1.04423 1 0.996137
1.07918 1.08459 0.999012 0.996001
1.0426 1.04662 1 0.996156
1.00571 1.00757 1 0.998149
1.04553 1.04953 1 0.99619
1.00751 1.00919 1 0.998336
1 1 1 1
1.00936 1.01086 1 0.998514
0.999428 1 1 0.999428
0.999468 1 1 0.999468
1.0675 1.08099 0.990815 0.996674
1.07332 1.08451 0.993365 0.996298
1.06841 1.08418 0.988851 0.996564
1.07738 1.08323 0.998619 0.995977
1.07345 1.08429 0.993828 0.996156
1.06563 1.08527 0.985498 0.996353
1.04584 1.04981 1 0.996222
1.07747 1.08283 0.999032 0.996018
1.07394 1.08244 0.995963 0.996166
1.01172 1.01348 1 0.998264
1.04789 1.05179 1 0.996294
1.07281 1.07805 0.999146 0.995992
1 1 1 1
1.01554 1.01731 1 0.998253
1.04601 1.04981 1 0.996375
1.01218 1.01396 1 0.998247
1 1 1 1
1 1 1 1
1.06636 1.07801 0.992485 0.99668
1.0687 1.08595 0.987292 0.996787
1.06961 1.09312 0.981675 0.996756
1.07386 1.08258 0.995546 0.99638
1.06689 1.07947 0.991624 0.996687
1.0712 1.08962 0.986131 0.996913
1.06678 1.08198 0.989183 0.996738
1.07271 1.08275 0.994268 0.996441
1.07662 1.08249 0.998461 0.996108
1.07384 1.08364 0.994577 0.996352
1.07735 1.08309 0.998628 0.996061
1.03825 1.04227 1 0.996136
1.07803 1.08363 0.998802 0.996024
1.04071 1.04475 1 0.996138
1.00375 1.00562 1 0.998137
1.04335 1.04738 1 0.996158
1.00514 1.00701 1 0.998148
1 1 1 1
1.00667 1.00854 1 0.998143
0.999687 1 1 0.999687
0.999458 1 1 0.999458
1.06411 1.07583 0.992447 0.99664
1.07423 1.08308 0.995426 0.996383
1.06703 1.08037 0.99094 0.996682
1.07712 1.08235 0.999197 0.995972
1.07397 1.08488 0.993632 0.996285
1.06873 1.08357 0.989711 0.996556
1.04218 1.0462 1 0.99616
1.07747 1.08284 0.999076 0.99596
1.07289 1.08383 0.993723 0.996156
1.00829 1.01006 1 0.998241
1.04503 1.04901 1 0.996212
1.07724 1.08248 0.99914 0.996019
1 1 1 1
1.01283 1.01458 1 0.998273
1.04663 1.05055 1 0.996272
1 1 1 1
1.01608 1.01785 1 0.998263
1 1 1 1
1.07452 1.08284 0.99588 0.996416
1.0657 1.07742 0.992428 0.996667
1.06938 1.08617 0.987705 0.996793
1.07643 1.08214 0.998616 0.996101
1.0734 1.08248 0.995195 0.996399
1.0661 1.07918 0.991148 0.996697
1.07261 1.08274 0.994179 0.996441
1.07608 1.082 0.998411 0.996108
1.03567 1.03968 1 0.996146
1.0775 1.08296 0.998939 0.996022
1.03886 1.0429 1 0.996128
1.00207 1.00396 1 0.998117
1.04111 1.04514 1 0.996139
1.00319 1.00507 1 0.998135
1 1 1 1
1.00447 1.00634 1 0.998146
1 1 1 1
0.99943 1 1 0.99943
1.07461 1.08271 0.996113 0.99639
1.06325 1.07576 0.991688 0.996656
1.07688 1.0819 0.999333 0.996031
1.07462 1.08351 0.995398 0.996382
1.06657 1.07978 0.991048 0.99669
1.03953 1.04354 1 0.996154
1.07728 1.08239 0.999308 0.995969
1.07472 1.08534 0.993919 0.996272
1.00545 1.00728 1 0.998187
1.04195 1.04597 1 0.996158
1.07757 1.08246 0.999535 0.995943
1 1 1 1
1.00921 1.01099 1 0.998247
1.04429 1.04827 1 0.996203
1 1 1 1
1.0139 1.01564 1 0.998281
1 1 1 1
1.07655 1.08199 0.998854 0.996117
1.07457 1.08273 0.99604 0.996405
1.06504 1.07683 0.992381 0.996653
1.03362 1.0376 1 0.996166
1.07593 1.08167 0.998588 0.996102
1.07291 1.08235 0.994846 0.996418
1.07554 1.08151 0.998368 0.996109
1.03638 1.04039 1 0.996143
1.00078 1.00267 1 0.998118
1.03947 1.04352 1 0.996119
1.00167 1.00356 1 0.998116
1 1 1 1
1.00267 1.00455 1 0.998133
1 1 1 1
1 1 1 1
1.07736 1.08219 0.999464 0.996064
1.07416 1.08273 0.995637 0.996439
1.06244 1.07576 0.990923 0.996672
1.03712 1.0411 1 0.996176
1.07709 1.08203 0.999404 0.996028
1.07497 1.0839 0.995369 0.996382
1.00295 1.00481 1 0.99815
1.03892 1.04293 1 0.996152
1.07737 1.08236 0.999416 0.995965
1 1 1 1
1.0062 1.00803 1 0.998191
1.04171 1.04573 1 0.996156
1 1 1 1
1.0101 1.01186 1 0.998252
1 1 1 1
1.03333 1.0373 1 0.996176
1.07608 1.08159 0.998779 0.996116
1.07465 1.08266 0.99619 0.996395
0.999723 1.00157 1 0.998156
1.03421 1.0382 1 0.996162
1.07544 1.08121 0.998556 0.996102
1.0371 1.04112 1 0.996139
1.00044 1.00233 1 0.998119
1 1 1 1
1.00129 1.00318 1 0.998114
1 1 1 1
1 1 1 1
1.03461 1.03857 1 0.996188
1.07676 1.08185 0.999196 0.996096
1.07368 1.0827 0.995166 0.996489
1.00108 1.00261 1 0.998482
1.03644 1.04042 1 0.996175
1.07721 1.08208 0.999475 0.996025
1 1 1 1
1.00364 1.0055 1 0.998151
1.03836 1.04238 1 0.996149
1 1 1 1
1.00695 1.00877 1 0.998194
1 1 1 1
0.999145 1.00101 1 0.998136
1.03343 1.03739 1 0.996178
1.07563 1.08122 0.998708 0.996115
1 1 1 1
0.999511 1.00136 1 0.998154
1.03481 1.0388 1 0.996159
1.00009 1.00197 1 0.998118
1 1 1 1
1 1 1 1
0.999767 1.00131 1 0.998463
1.03454 1.0385 1 0.996189
1.07627 1.08161 0.998927 0.996127
1 1 1 1
1.00143 1.00328 1 0.998152
1.03596 1.03994 1 0.996175
1 1 1 1
1.0043 1.00616 1 0.998152
1 1 1 1
0.99943 1 1 0.99943
0.999349 1.00103 1 0.99832
1.03347 1.03743 1 0.996181
1 1 1 1
0.999286 1.00113 1 0.998156
1 1 1 1
0.999436 1 1 0.999436
0.999956 1.00164 1 0.998318
1.03433 1.03829 1 0.99619
0.99971 1 1 0.99971
1.00201 1.00386 1 0.998155
1 1 1 1
1 1 1 1
0.999251 1.00108 1 0.998178
1 1 1 1
0.999719 1 1 0.999719
1.00021 1.00203 1 0.998176
1 1 1 1
1 1 1 1
1 1 1 1

VECTORS lamdaE float
1.00258 0.999916 0.992455
1.00211 1.00074 0.996188
1.00202 1.00011 0.992871
1.00234 1.00015 0.992503
1.00254 0.999922 0.99251
1.00262 1.00007 0.992303
1.00342 1.00078 0.989588
1.00217 1.00081 0.996118
1.00175 1.00005 0.996881
1.00139 1.0008 0.996883
1.00179 1.00128 0.991923
1.00345 1.00152 0.987506
1.00173 0.999955 0.993346
1.00141 1.00007 0.993576
1.00149 1.00033 0.993259
1.00191 1.00015 0.992944
1.00195 1.00044 0.992691
1.00205 0.999979 0.992935
1.00368 1.00068 0.989359
1.00179 1.00002 0.996484
1.00217 1.00017 0.992655
1.00243 1.00004 0.992514
1.00339 1.0003 0.990173
1.00344 1.00049 0.989867
1.00253 1.00034 0.992108
1.00337 1.00129 0.989128
1.00531 1.00144 0.98522
1.00223 1.00084 0.996038
1.00203 0.999944 0.994829
1.00178 1.00048 0.994773
1.00214 1.00123 0.995975
1.00341 1.00161 0.98747
1.00223 0.999825 0.992767
1.00222 0.999927 0.992741
1.00379 1.00039 0.990006
1.00057 1.00254 0.996785
1.0037 1.00103 0.989646
1.00348 1.00218 0.98677
1.00528 1.0028 0.983359
1.00074 1.00094 0.997035
1.00177 0.999979 0.996497
1.0017 1.00003 0.994983
1.00169 0.999958 0.996562
1.00125 1.00007 0.99378
1.00341 0.999855 0.989472
1.00164 0.999992 0.99687
1.00376 1.00018 0.990336
1.00152 1.00011 0.993383
1.00159 1.00002 0.993347
1.00135 1.0008 0.993062
1.00393 1.00056 0.989147
1.00157 1.00004 0.995092
1.00175 1.00021 0.993094
1.00193 1.00081 0.992437
1.002 1.00003 0.992946
1.0036 1.00025 0.989936
1.00368 1.00111 0.988906
1.00367 1.00042 0.989634
1.00532 1.0014 0.985333
1.00169 0.999993 0.996538
1.00201 1.0001 0.992919
1.00315 0.999935 0.991279
1.00329 1.00021 0.990381
1.00341 1.00036 0.990064
1.00526 0.999836 0.986994
1.00532 1.00023 0.986374
1.0026 1.00077 0.991601
1.00328 1.00225 0.988278
1.00532 1.00228 0.984269
1.00531 0.999147 0.986808
1.00242 0.99992 0.996265
1.00203 1.00126 0.996059
1.00222 1.00043 0.996224
1.00338 1.00166 0.987434
1.0023 0.999899 0.996254
1.00236 1.00003 0.996278
1.00363 1.00038 0.988422
1.0009 1.00188 0.994566
1.00348 1.00096 0.988041
1.00344 1.00247 0.987807
1.00531 1.00272 0.983327
1.00112 1.0013 0.996599
1.00134 1.003 0.989658
1.00374 1.00028 0.988438
1.00376 1.00042 0.988226
1.00534 1.00025 0.985911
1.00277 1.00334 0.989189
1.00536 1.00165 0.984373
1.0046 1.00385 0.983083
1.00542 1.00141 0.984265
1.00044 1.00021 0.997491
1.00055 1.00075 0.997207
1.00209 0.999991 0.996301
1.00184 0.999977 0.996463
1.00173 0.999963 0.996554
1.00158 0.999993 0.995125
1.00344 0.999855 0.990204
1.00189 0.999988 0.994865
1.00362 1.0002 0.989608
1.0017 0.999969 0.996572
1.00325 0.999714 0.989784
1.00366 1.00005 0.990615
1.0054 0.998313 0.987951
1.00374 1.00023 0.990229
1.00537 0.99883 0.987458
1.00175 0.999952 0.993341
1.00132 1.00024 0.993538
1.00129 1.00125 0.992755
1.00158 0.999998 0.993377
1.0038 1.00023 0.989702
1.00389 1.00037 0.989409
1.00395 1.001 0.988693
1.00533 1.00136 0.985442
1.00174 0.999971 0.996554
1.00161 1.00009 0.993355
1.00337 0.99982 0.990114
1.0035 1.00017 0.990143
1.0022 1.0014 0.99374
1.0036 1.00201 0.988507
1.00363 1.00031 0.989829
1.00528 0.999548 0.987342
1.00533 1.00229 0.984409
1.00532 1.0005 0.986181
1.0053 0.999172 0.986824
1.00326 0.999751 0.989741
1.00321 0.99997 0.990699
1.00538 0.998092 0.988722
1.0053 0.998867 0.987997
1.00528 0.99966 0.987178
1.00532 0.996487 0.989772
1.00141 1.00165 0.996317
1.00534 0.99801 0.98787
1.00327 1.00316 0.986233
1.00534 1.00335 0.982453
1.0053 1.00035 0.985686
1.00528 0.996277 0.989502
1.00186 1.00362 0.988006
1.00354 1.00432 0.985276
1.00236 0.999898 0.996256
1.00239 1.00009 0.996264
1.00363 1.00039 0.988397
1.00128 1.00149 0.996514
1.00297 1.00272 0.986983
1.00354 1.00088 0.988021
1.00537 1.00265 0.983287
1.00095 1.00132 0.996784
1.00139 1.00313 0.989645
1.00376 1.00033 0.989258
1.0038 1.00051 0.989013
1.00533 1.00027 0.985876
1.00219 1.00342 0.987549
1.00535 1.00168 0.984336
1.00494 1.00349 0.983058
1.0054 1.00117 0.984553
1.00177 1.00324 0.988659
1.00104 1.00259 0.990799
1.00243 1.00364 0.986884
1.00528 0.999694 0.986593
1.00537 1.0009 0.985168
1.00536 0.997528 0.988462
1.00364 1.00398 0.984477
1.00531 0.999481 0.986529
1.00543 1.00314 0.982895
1.00546 0.998895 0.986412
1.00027 0.999475 0.997961
1.00028 1.00008 0.997698
1.00034 1.00066 0.997407
1.00165 1.00326 0.988939
1.0009 1.00135 0.996775
1.00226 0.999937 0.996255
1.00193 0.999988 0.996377
1.00342 1.00024 0.988939
1.00328 0.999861 0.989564
1.00171 0.99996 0.996541
1.00167 0.999958 0.996572
1.00323 0.999726 0.989781
1.00352 1.00003 0.989903
1.00539 0.998322 0.987962
1.00356 1.0003 0.988674
1.00535 0.998846 0.987452
1.00322 0.999687 0.989836
1.00539 0.998244 0.988035
1.0054 0.998492 0.987753
1.00527 0.994982 0.991693
1.00531 0.99924 0.987099
1.00521 0.995376 0.991212
1.00169 0.999969 0.996561
1.00116 1.00018 0.99379
1.0034 0.999772 0.989122
1.00371 1.00015 0.989903
1.00124 1.00223 0.996429
1.00395 1.00146 0.988743
1.00384 1.00028 0.989596
1.00529 0.999253 0.987691
1.00533 1.00076 0.985985
1.00532 1.00223 0.984555
1.00528 0.999196 0.986839
1.00324 0.999745 0.989744
1.0034 0.999998 0.990463
1.00539 0.998012 0.988554
1.00532 0.999171 0.987635
1.00168 1.00165 0.996143
1.00326 1.00292 0.987348
1.0052 1.00364 0.9829
1.00528 0.999701 0.987131
1.00529 0.996208 0.990156
1.00529 1.00024 0.985779
1.00534 0.998278 0.987728
1.00528 0.996326 0.989483
1.00199 1.00347 0.987999
1.00325 1.00423 0.985204
1.00539 0.998381 0.987902
1.00537 0.998448 0.988381
1.00529 0.995805 0.990726
1.00532 0.995567 0.990865
1.00533 0.997317 0.988755
1.00528 0.994957 0.99114
1.00261 1.00356 0.986871
1.00529 0.995342 0.990512
1.0052 1.00425 0.982332
1.00536 1.00147 0.984174
1.0053 0.998016 0.987853
1.00528 0.9953 0.990551
1.00381 1.00453 0.98402
1.00297 1.00401 0.986598
1.00472 1.00391 0.983619
1.00359 1.00036 0.98852
1.00071 1.00121 0.996934
1.00125 1.00323 0.989638
1.00362 1.0005 0.988255
1.00533 1.00028 0.985841
1.00229 1.00343 0.987586
1.00522 1.00322 0.983031
1.00534 1.00171 0.984296
1.00538 1.0009 0.984844
1.00165 1.00338 0.988684
1.00081 1.00273 0.990798
1.00251 1.00415 0.986887
1.00529 0.999713 0.986556
1.00535 1.00093 0.985132
1.00536 0.997495 0.988468
1.00402 1.00361 0.984437
1.00533 0.999594 0.986414
1.00543 1.00312 0.982807
1.00544 0.9985 0.986737
1.00065 1.00211 0.991795
1.0031 1.00378 0.985971
1.00192 1.00469 0.987184
1.0028 1.00135 0.987697
1.00535 0.996519 0.989562
1.00533 0.998601 0.987344
1.00532 0.995291 0.990433
1.00497 1.00432 0.982278
1.00535 0.996693 0.989104
1.00532 1.00115 0.98496
1.00551 0.997092 0.988127
1.00039 1.00383 0.990645
1.00028 1.00122 0.993306
1.00023 0.998969 0.998189
1.00021 0.999384 0.998052
1.00019 0.999886 0.997871
1.0013 1.00319 0.989688
1.00072 1.00108 0.996996
1.00168 1.00323 0.988872
1.00109 1.00147 0.996607
1.00352 1.00033 0.988684
1.00337 1.00002 0.989256
1.00532 0.998862 0.987452
1.00537 0.998335 0.987972
1.00324 0.999743 0.989785
1.00173 0.999943 0.99657
1.00324 0.999682 0.989842
1.00538 0.998252 0.988043
1.00538 0.998513 0.987759
1.00527 0.994971 0.991695
1.00529 0.999254 0.987077
1.00526 0.995306 0.991212
1.00539 0.998274 0.988008
1.00529 0.994975 0.991698
1.00525 0.995105 0.991551
1.00507 0.994972 0.991848
1.00525 0.995793 0.990553
1.00518 0.994933 0.991547
1.00325 0.999746 0.989754
1.00361 0.999961 0.990227
1.00539 0.997902 0.988395
1.00534 0.999464 0.987272
1.00186 1.00174 0.995975
1.00355 1.00285 0.988201
1.00499 1.00367 0.983337
1.00528 0.999727 0.987084
1.00526 0.995935 0.990539
1.00534 0.998548 0.987587
1.00529 1.00014 0.985871
1.00529 0.996382 0.989464
1.0021 1.00336 0.987993
1.00309 1.00411 0.985136
1.00539 0.99805 0.988249
1.00538 0.998419 0.988379
1.00529 0.995797 0.990729
1.00528 0.995932 0.990486
1.0026 1.00355 0.986829
1.00482 1.00418 0.982354
1.0054 1.00172 0.983929
1.00534 0.997391 0.988702
1.0053 0.99494 0.991155
1.00531 0.997771 0.988133
1.00528 0.995377 0.990475
1.00528 0.995284 0.990439
1.00378 1.00465 0.984004
1.00432 1.00402 0.983513
1.00252 1.00406 0.986615
1.0053 0.9957 0.990862
1.0053 0.995966 0.990473
1.00507 0.994972 0.991882
1.0052 0.994932 0.991429
1.00532 0.994961 0.990903
1.00528 0.99491 0.991027
1.00458 1.00406 0.983134
1.00528 0.99487 0.990832
1.00544 1.00341 0.982328
1.00538 0.99938 0.986095
1.00527 0.996537 0.989333
1.00534 0.995105 0.990543
1.00201 1.00504 0.986631
1.00515 1.00477 0.981842
1.00327 1.00307 0.985607
1.00516 1.00405 0.982268
1.0053 0.999728 0.986521
1.00065 1.00289 0.990796
1.00153 1.00359 0.988711
1.00237 1.0043 0.986879
1.00534 1.00094 0.985097
1.00535 0.997463 0.988474
1.00441 1.00311 0.984401
1.00542 1.0031 0.98271
1.00534 0.999717 0.9863
1.00542 0.998126 0.987064
1.00049 1.00227 0.991802
1.00322 1.00345 0.986118
1.00174 1.00484 0.987041
1.00334 1.00155 0.987777
1.00534 0.996499 0.989574
1.00534 0.998564 0.98734
1.00533 0.995267 0.990465
1.00518 1.00442 0.982134
1.00535 0.99697 0.988814
1.00531 1.00096 0.984953
1.00551 0.996918 0.988441
1.00042 1.00186 0.992478
1.00182 1.00511 0.987332
1.00364 1.00376 0.984574
1.00338 1.00258 0.987086
1.00304 1.00166 0.988493
1.00533 0.994926 0.990877
1.00533 0.995913 0.989725
1.00534 0.994857 0.990607
1.00517 1.0034 0.982986
1.00542 0.995518 0.989907
1.00522 0.999219 0.986627
1.00077 1.00438 0.989373
1.00029 1.00511 0.989589
1.00017 1.00307 0.991626
1.00021 1.00389 0.990651
1.00021 1.0003 0.995057
1.00025 1.00104 0.993857
1.00039 0.998182 0.99655
1.0002 0.9989 0.998263
1.00017 0.999339 0.998114
1.00047 1.00291 0.991042
1.00033 1.00075 0.997419
1.00133 1.0031 0.989659
1.00077 1.00113 0.996936
1.00171 1.0032 0.988809
1.00131 1.0015 0.99643
1.00528 0.999271 0.987053
1.00537 0.998529 0.987762
1.00531 0.995256 0.991213
1.00528 0.994949 0.991697
1.00538 0.998262 0.98805
1.00323 0.999669 0.989844
1.00539 0.99828 0.988008
1.00529 0.994963 0.991697
1.00526 0.995065 0.991557
1.00507 0.994969 0.991823
1.00529 0.995755 0.990556
1.00516 0.994931 0.991557
1.0053 0.994999 0.991657
1.00508 0.994959 0.991835
1.00509 0.994973 0.991766
1.00523 0.994949 0.991545
1.00529 0.994865 0.991209
1.00526 0.994937 0.991158
1.0054 0.997716 0.988594
1.00538 0.998411 0.988379
1.00529 0.995801 0.990732
1.00524 0.9963 0.990106
1.0026 1.00348 0.986784
1.00454 1.00454 0.982381
1.00542 1.00194 0.983689
1.00535 0.997462 0.988648
1.00531 0.994913 0.991171
1.00527 0.995405 0.990438
1.00531 0.997505 0.988413
1.00529 0.995256 0.990326
1.00364 1.00473 0.983991
1.00403 1.00444 0.983407
1.00223 1.00438 0.986628
1.0053 0.995377 0.991231
1.00529 0.995976 0.990478
1.00508 0.994967 0.991839
1.00521 0.994932 0.991438
1.00434 1.00434 0.983198
1.00543 1.00342 0.982416
1.0054 0.999563 0.98578
1.00531 0.99504 0.990798
1.00528 0.994916 0.990993
1.00526 0.996389 0.989345
1.00529 0.994867 0.990814
1.00532 0.995075 0.99057
1.00486 1.00487 0.98187
1.00513 1.00443 0.98213
1.00219 1.00491 0.986704
1.00348 1.00354 0.985777
1.00507 0.99497 0.991911
1.00512 0.99495 0.991606
1.00521 0.99496 0.991567
1.00526 0.994917 0.991095
1.00529 0.994877 0.990884
1.00531 0.994922 0.990827
1.00535 1.00469 0.981403
1.00535 0.994817 0.990655
1.00534 1.00163 0.984
1.00535 0.998391 0.986953
1.00526 0.995865 0.989783
1.00533 0.99493 0.990609
1.00208 1.00511 0.986703
1.00321 1.00375 0.98616
1.00517 1.00483 0.981502
1.00419 1.00286 0.985301
1.0051 1.00442 0.981977
1.00033 1.00233 0.991813
1.00533 0.996481 0.989587
1.00193 1.00513 0.986897
1.00319 1.00336 0.986277
1.00365 1.00159 0.987858
1.00535 0.998528 0.987336
1.00533 0.99524 0.990497
1.0053 1.00424 0.981995
1.00531 1.00082 0.984942
1.00534 0.997234 0.988524
1.00551 0.996752 0.988752
1.00037 1.00178 0.992511
1.00156 1.0051 0.987347
1.00404 1.00347 0.98468
1.00313 1.0028 0.986964
1.00347 1.00122 0.987519
1.00533 0.994919 0.99091
1.00533 0.995878 0.989757
1.00534 0.99487 0.990617
1.00517 1.00348 0.982941
1.00544 0.99567 0.989717
1.00522 0.999276 0.98693
1.0013 1.00491 0.988159
1.00313 1.0051 0.986115
1.00362 1.00392 0.984449
1.00393 1.00227 0.986599
1.00456 1.00233 0.986094
1.00533 0.994828 0.990826
1.00535 0.994961 0.990329
1.00531 0.99484 0.990497
1.00503 1.00127 0.984862
1.00522 0.997695 0.987949
1.00065 1.00455 0.989375
1.00057 1.0051 0.988875
0.999681 1.00508 0.989675
1.00045 1.00455 0.990489
1.00026 1.00462 0.99051
1.00003 1.0027 0.992199
1 1.0033 0.991644
1.00009 0.9999 0.995599
1.00007 1.00411 0.990656
1.00019 1.00026 0.995147
1.0003 0.997675 0.997053
1.00023 1.00095 0.994394
1.00022 0.99833 0.997549
1.00017 0.998713 0.998341
0.999906 1.00191 0.992895
1.0007 1.00262 0.991101
1.00005 0.999717 0.998074
1.00058 1.00069 0.99722
1.0014 1.00289 0.989632
1.00088 1.00118 0.996851
1.00532 0.995713 0.990559
1.00528 0.995021 0.991562
1.00515 0.99493 0.991567
1.00507 0.994967 0.991798
1.00529 0.99496 0.991696
1.00539 0.998283 0.988009
1.0053 0.995003 0.991653
1.00508 0.994962 0.991838
1.00509 0.994975 0.991768
1.00523 0.994946 0.991512
1.00527 0.994859 0.991235
1.00526 0.994935 0.991166
1.00508 0.994961 0.991862
1.00525 0.99495 0.99159
1.00522 0.994953 0.991386
1.00529 0.994925 0.991441
1.0053 0.994896 0.991008
1.0053 0.99493 0.991067
1.00529 0.995056 0.991602
1.00529 0.995987 0.990483
1.00508 0.994965 0.991796
1.00522 0.994932 0.991446
1.00404 1.00457 0.983265
1.00543 1.00345 0.982498
1.00543 0.999706 0.985469
1.0053 0.995125 0.990692
1.00529 0.99492 0.990958
1.0053 0.994865 0.990796
1.00526 0.996244 0.989356
1.00531 0.995039 0.9906
1.00452 1.00503 0.981897
1.00486 1.00497 0.98199
1.00216 1.00452 0.986771
1.00299 1.00317 0.985945
1.00507 0.994972 0.99191
1.00512 0.994951 0.991648
1.00521 0.994958 0.991532
1.00527 0.994917 0.991095
1.00529 1.00465 0.981483
1.00535 1.00178 0.983813
1.00535 0.998402 0.986929
1.00529 0.994874 0.990917
1.0053 0.994917 0.990832
1.00526 0.995833 0.989795
1.00534 0.994818 0.990644
1.00532 0.99487 0.990739
1.00509 1.00479 0.981578
1.00496 1.00478 0.981953
1.00362 1.00362 0.985358
1.00165 1.00495 0.987003
1.0026 1.00373 0.986101
1.00524 0.994954 0.991522
1.00526 0.994935 0.991335
1.00532 0.994892 0.990828
1.00532 0.994894 0.990698
1.00526 1.00378 0.982349
1.00532 0.994761 0.99061
1.00526 1.00069 0.984401
1.00531 0.997786 0.987533
1.00531 0.995236 0.989961
1.0005 1.00467 0.989232
1.00241 1.00498 0.985963
1.00373 1.00354 0.986148
1.005 1.00452 0.982314
1.00414 1.0046 0.983988
1.00507 1.00428 0.982618
1.00032 1.0018 0.992541
1.00132 1.00514 0.987363
1.00533 0.994912 0.990943
1.00261 1.00318 0.986841
1.00484 1.00351 0.984789
1.00402 1.00065 0.986555
1.00533 0.995846 0.989789
1.00533 0.994885 0.990628
1.00516 1.00351 0.982911
1.00521 0.999357 0.987236
1.00547 0.995802 0.989526
1.0012 1.00499 0.988164
1.00239 1.00512 0.986132
1.00418 1.00426 0.98351
1.00393 1.00168 0.986749
1.00433 1.00176 0.985947
1.00533 0.99483 0.99083
1.00537 0.995013 0.99032
1.00534 0.994832 0.990453
1.00502 1.00124 0.985122
1.00521 0.997807 0.987831
1.0021 1.0051 0.987282
1.00168 1.00515 0.986344
1.00452 1.0027 0.984851
1.00244 1.00169 0.986293
1.00522 1.00111 0.986353
1.00534 0.994813 0.990654
1.00541 0.995577 0.989411
1.00538 0.994919 0.989872
1.00505 0.999791 0.986562
1.00512 0.998611 0.987381
1.00055 1.00463 0.989379
1.00086 1.00509 0.988721
0.999426 1.0038 0.991491
0.999491 1.00509 0.989744
0.999812 1.00473 0.990489
0.99954 1.0047 0.990733
0.999803 1.00319 0.992036
0.999396 1.00508 0.990669
0.999765 1.00441 0.991022
1.00005 1.00251 0.99235
1.00004 1.00263 0.992191
1.00004 0.999608 0.995918
0.999898 1.00327 0.991656
1.00012 0.999773 0.995656
1.00021 0.997445 0.99739
1.0002 1.00011 0.99524
1.00026 0.997746 0.997025
1.00002 0.998453 0.998572
0.999821 1.00081 0.9942
1.00007 1.00186 0.992843
0.999886 0.998888 0.998563
1.00097 1.0024 0.991158
1.00025 0.999957 0.997823
1.0007 1.00093 0.997081
1.00526 0.994853 0.99126
1.00508 0.994976 0.991771
1.00525 0.994933 0.991174
1.00523 0.994941 0.99148
1.00508 0.994966 0.991842
1.0053 0.994994 0.99165
1.00508 0.994962 0.991895
1.00525 0.994951 0.991587
1.00523 0.994954 0.991403
1.00528 0.994921 0.991422
1.0053 0.9949 0.991011
1.00531 0.994923 0.991032
1.00525 0.994954 0.991553
1.00531 0.994929 0.991457
1.00529 0.994913 0.991332
1.00535 0.994869 0.990771
1.00507 0.994974 0.991909
1.00512 0.994951 0.991689
1.00521 0.994954 0.991497
1.00527 0.994919 0.991096
1.00524 1.00458 0.981566
1.00536 1.00194 0.983624
1.00533 0.998445 0.986903
1.0053 0.994871 0.99095
1.00529 0.994914 0.990837
1.00533 0.994819 0.990633
1.00526 0.995821 0.989805
1.0053 0.994823 0.990869
1.00521 1.00484 0.981649
1.00475 1.00476 0.981929
1.00426 1.00351 0.985411
1.00151 1.00473 0.987324
1.00252 1.00413 0.986049
1.00523 0.994954 0.991517
1.00526 0.994936 0.991349
1.00532 0.994901 0.990848
1.00525 1.00392 0.98236
1.00527 1.00091 0.984319
1.0053 0.997686 0.987544
1.00532 0.994897 0.990713
1.00531 0.995245 0.99013
1.00533 0.994763 0.990632
1.00027 1.00429 0.989541
1.00492 1.00435 0.982365
1.00495 1.00445 0.982185
1.00448 1.00381 0.98384
1.00376 1.00314 0.986339
1.0026 1.00481 0.985869
1.0053 0.994932 0.991411
1.00533 0.994903 0.991106
1.00534 0.994886 0.990663
1.00531 0.994851 0.990556
1.0051 1.00323 0.98331
1.00531 0.994758 0.990501
1.00514 1.00066 0.985047
1.00532 0.996858 0.98794
1.00002 1.00305 0.991159
1.00145 1.00516 0.987879
1.00369 1.00427 0.985772
1.00293 1.00421 0.985543
1.00458 1.00317 0.984466
1.00502 1.0045 0.982234
1.00104 1.00508 0.988169
1.00176 1.0051 0.98615
1.00533 0.994831 0.990835
1.00394 1.00115 0.986889
1.00488 1.00462 0.982557
1.00371 1.00217 0.985795
1.00539 0.995068 0.990311
1.00537 0.994822 0.990409
1.00502 1.00128 0.985381
1.00521 0.997924 0.987714
1.00161 1.00509 0.987351
1.00243 1.00516 0.985904
1.00446 1.00291 0.98462
1.00341 1.00269 0.986062
1.00511 1.00138 0.985904
1.00534 0.994816 0.99065
1.00542 0.995447 0.989655
1.00537 0.995055 0.990044
1.00507 0.999689 0.986565
1.00504 0.998947 0.987113
0.999797 1.00498 0.988599
0.9996 1.0051 0.987985
1.0049 1.00034 0.986562
1.00407 1.00059 0.987209
1.00543 0.994751 0.990462
1.00535 0.994781 0.990396
1.00527 0.997418 0.987825
1.0052 0.999198 0.986585
1.00121 1.00509 0.988571
0.99958 1.00438 0.991107
0.997868 1.00421 0.994217
0.999474 1.00493 0.990476
0.998454 1.00506 0.990972
0.99983 1.00438 0.990969
0.999303 1.00377 0.992431
0.999482 1.00511 0.990747
0.999069 1.00078 0.995556
0.999341 1.00511 0.991014
0.999285 1.00503 0.990562
0.999981 1.0043 0.990798
0.999976 1.0026 0.992332
1 1.00254 0.99233
0.999959 0.999475 0.996101
0.999979 1.00272 0.992186
1.00005 0.999546 0.995943
1.00011 0.997384 0.997548
1.00012 0.999688 0.995713
1.00018 0.997501 0.997367
1.00016 0.997855 0.996984
1.00005 0.999962 0.99481
0.999862 1.00101 0.994113
0.999837 0.998271 0.99878
1.00015 1.00199 0.992793
0.999973 0.999015 0.998417
1.00049 0.999982 0.997539
1.00531 0.994903 0.991014
1.00523 0.994955 0.991421
1.00531 0.994916 0.990997
1.00527 0.99492 0.991403
1.00525 0.994955 0.991584
1.00508 0.994963 0.991929
1.00525 0.994952 0.991572
1.00531 0.994927 0.991451
1.0053 0.994918 0.991286
1.00533 0.994869 0.990804
1.00533 0.99493 0.991457
1.0053 0.9949 0.991419
1.00534 0.994874 0.991027
1.00523 0.994954 0.991511
1.00526 0.994938 0.991363
1.00532 0.994905 0.990868
1.00521 1.00398 0.982378
1.00526 1.00116 0.984238
1.0053 0.997554 0.987554
1.00532 0.994898 0.990728
1.00534 0.994778 0.990655
1.00531 0.995152 0.9903
1.00483 1.00421 0.982415
1.0051 1.00476 0.98177
1.00433 1.0045 0.983698
1.00036 1.00414 0.989846
1.00327 1.00313 0.986504
1.00248 1.00451 0.985761
1.00531 0.994936 0.991421
1.00533 0.994894 0.99107
1.00534 0.994886 0.990669
1.0051 1.0031 0.983263
1.0051 1.00055 0.985151
1.00534 0.996676 0.988249
1.00532 0.994845 0.990533
1.00532 0.994787 0.990464
0.999948 1.00335 0.991389
1.00128 1.00516 0.987842
1.00462 1.00253 0.98419
1.00471 1.00448 0.982609
1.00346 1.00419 0.985136
1.00326 1.00401 0.98594
1.00532 0.994901 0.991343
1.00538 0.994875 0.990727
1.00534 0.994849 0.990524
1.00529 0.994766 0.990366
1.00439 1.0017 0.985246
1.00533 0.995152 0.989832
1.00489 0.999708 0.986365
1.00008 1.00223 0.992561
1.00006 1.00303 0.991972
0.999797 1.00503 0.989611
1.00179 1.00514 0.986734
1.00288 1.00469 0.986333
1.00427 1.00406 0.984136
1.00367 1.00207 0.986467
1.00446 1.00199 0.987425
1.00125 1.0051 0.987426
1.00326 1.00519 0.985464
1.00535 0.994818 0.990646
1.00435 1.00282 0.985838
1.00441 1.00302 0.984392
1.00524 1.00157 0.985467
1.00542 0.995299 0.9899
1.00535 0.995179 0.990215
1.00508 0.999561 0.986566
1.00496 0.999246 0.986845
1.00078 1.00468 0.988166
1.00102 1.00521 0.987386
1.00492 1.00041 0.986286
1.00443 1.0012 0.986906
1.00542 0.994764 0.990468
1.00538 0.994799 0.990388
1.0052 0.997339 0.987925
1.00519 0.999351 0.986595
0.99838 1.00483 0.991535
1.00547 0.99475 0.990725
1.00232 1.00502 0.988046
1.00477 0.999537 0.987093
1.00536 0.994753 0.990705
1.00506 0.996958 0.98758
1.00507 1.00044 0.98603
0.999604 1.00447 0.990726
0.998154 1.00358 0.994322
0.996392 1.00372 0.996694
0.999697 1.00423 0.990916
0.999351 1.00513 0.990823
0.997896 1.00499 0.992854
0.999997 1.00412 0.990784
0.999419 1.00502 0.99064
0.997585 1.00231 0.996091
0.999476 1.00497 0.990887
0.997608 1.00129 0.998123
0.997559 1.00406 0.994194
0.9993 1.00508 0.990985
1.00029 1.00487 0.989601
1.0003 1.00396 0.990479
1.00001 1.00253 0.99234
0.999967 1.00262 0.992313
0.999837 0.99954 0.996267
0.999935 1.00266 0.992312
0.999965 0.999512 0.996116
0.99999 0.997542 0.997674
1.00006 0.999479 0.995974
1.00012 0.997453 0.997538
1.0002 0.997558 0.997337
1.00011 1.00158 0.993187
1.00001 0.999472 0.995276
0.999996 1.00006 0.994777
0.999917 0.997983 0.998871
0.999896 1.00097 0.994027
0.999877 0.99848 0.998734
1.00012 0.999102 0.998248
1.00531 0.994868 0.990836
1.0053 0.994924 0.991241
1.0053 0.994924 0.991446
1.00525 0.99495 0.991591
1.00533 0.99493 0.99145
1.0053 0.994894 0.991415
1.00533 0.994877 0.990968
1.00532 0.994901 0.991393
1.00532 0.994859 0.991397
1.0056 0.99473 0.991233
1.00531 0.994939 0.991431
1.00533 0.994892 0.991033
1.00534 0.994891 0.990676
1.00518 1.00294 0.98322
1.00501 1.00057 0.98527
1.00535 0.996566 0.988549
1.00533 0.994831 0.990508
1.00531 0.994804 0.990425
1.00461 1.00284 0.983908
1.00435 1.00416 0.982957
1.00388 1.00414 0.984735
1.00007 1.00319 0.991623
1.00084 1.00515 0.987806
1.00314 1.00421 0.986112
1.00532 0.994903 0.991326
1.00015 1.00213 0.992521
0.999914 1.00319 0.991834
1.00538 0.994872 0.990733
1.00535 0.994854 0.990542
1.00462 1.00186 0.98523
1.005 0.999318 0.986743
1.00529 0.995126 0.989787
1.00528 0.994778 0.99031
1.00024 1.00471 0.989832
1.00198 1.00514 0.986681
1.00344 1.00285 0.986116
1.0044 1.00202 0.985883
1.0039 1.00468 0.983777
1.00259 1.00397 0.986548
1.00539 0.994832 0.991193
1.00538 0.995048 0.990407
1.00534 0.994846 0.990489
1.00525 0.994958 0.989977
1.00351 1.00093 0.987948
1.00501 0.997386 0.988906
1.00029 1.0026 0.991799
0.99963 1.00376 0.991435
1.00113 1.0028 0.990937
1.00101 1.00514 0.988113
1.0022 1.00503 0.986698
1.00168 1.00223 0.988249
1.00239 1.00281 0.987544
1.00171 0.999286 0.993076
1.00099 1.00506 0.987744
1.00299 1.00518 0.986774
1.00539 0.994779 0.990476
1.00541 0.994817 0.99038
1.0048 1.00167 0.986592
1.0049 1.00052 0.986002
1.00514 0.997277 0.988025
1.00519 0.999507 0.986608
0.999138 1.00461 0.991487
1.00547 0.994726 0.990922
1.0014 1.00457 0.988903
1.00472 0.999864 0.986846
1.00538 0.99474 0.990791
1.00511 0.997138 0.987779
1.0051 1.00011 0.985995
0.998277 1.00482 0.993821
1.00507 0.994659 0.990411
1.00177 1.00365 0.988984
1.00435 1.0017 0.985065
1.00507 0.995438 0.990618
1.00352 1.00079 0.986957
0.999025 0.994763 0.982612
0.998358 1.00323 0.994395
0.997156 1.00275 0.996657
0.996218 1.00279 0.997863
1.00002 1.00401 0.990767
0.999138 1.00506 0.990724
1.00001 1.00502 0.990763
0.996689 1.00253 0.996633
1.00028 1.00396 0.990482
1.00005 1.00484 0.989866
0.99671 1.0008 0.999199
0.999161 1.00509 0.990917
0.998144 1.0042 0.993635
0.995709 1.00411 0.997531
0.998945 1.00501 0.991707
0.999595 1.00503 0.990874
1.00061 1.00417 0.989812
1.00033 1.00406 0.990078
1.00022 1.00503 0.990044
1.00006 1.00443 0.990085
0.999936 1.00262 0.992314
0.999973 1.00258 0.992323
0.999715 0.999505 0.995768
0.999981 1.00253 0.992296
0.999821 0.999534 0.995946
0.999981 0.997525 0.999055
0.999967 0.999516 0.996134
1.00002 0.997497 0.997664
1.00012 0.997508 0.997522
0.999978 1.00113 0.993761
1.00014 1.00151 0.993217
1.00008 0.99889 0.995833
1.00003 0.999531 0.99561
0.999925 0.997633 0.99899
0.999931 1.00028 0.994742
0.9999 0.99801 0.998854
0.999937 0.998549 0.998668
1.00533 0.994879 0.990908
1.0053 0.994887 0.991412
1.00533 0.99493 0.991444
1.00532 0.9949 0.991396
1.00534 0.994849 0.99134
1.00563 0.994745 0.991149
1.00541 0.994838 0.99142
1.00084 0.99466 0.980034
1.00544 0.994765 0.990196
1.0001 1.00249 0.992249
1.00531 0.994902 0.991309
1.00538 0.994869 0.990739
1.00535 0.994861 0.990561
1.00474 1.0015 0.985199
1.00506 0.998981 0.987107
1.00525 0.995184 0.989725
1.00529 0.994795 0.990255
1.00384 1.00266 0.985834
1.00458 1.00293 0.9844
1.00372 1.00465 0.983386
1.00011 1.00229 0.992483
1.00283 1.00354 0.986738
1.00051 1.00452 0.990044
1.00196 1.00515 0.986633
0.999718 1.0033 0.991695
1.00539 0.994858 0.991185
1.00026 1.00244 0.991993
0.999896 1.0037 0.99147
1.00036 1.00329 0.991257
1.00539 0.994906 0.990421
1.0053 0.994836 0.990458
1.00284 1.0017 0.988033
1.00494 0.997076 0.989084
1.00527 0.9949 0.989966
1.00092 1.00515 0.988119
1.00245 1.00486 0.986831
1.00265 0.999338 0.991809
1.00282 1.0038 0.987076
1.00326 1.00176 0.988162
1.00545 0.994831 0.990826
1.00535 0.994873 0.990509
1.00527 0.994834 0.990259
1.00462 0.99802 0.98994
1.00195 0.999638 0.991426
1.00033 1.0019 0.992237
1.00122 1.00366 0.988791
0.999786 1.0037 0.99137
1.00152 1.0051 0.988361
1.0017 1.00297 0.989371
1.00086 1.00106 0.991354
1.00152 0.998633 0.994217
1.00062 1.0039 0.991373
0.999862 1.0044 0.989782
1.00547 0.994691 0.991109
1.0054 0.994726 0.990864
1.00516 0.997324 0.987977
1.00464 1.00017 0.986604
1.00513 0.99978 0.985969
0.997887 1.00488 0.994925
1.00465 0.994657 0.990586
1.00163 1.00358 0.988912
1.00463 1.00175 0.984917
1.00488 0.995368 0.990914
1.00393 1.00072 0.987024
0.998863 0.994751 0.980947
0.997434 1.00481 0.994482
1.00366 0.994733 0.990511
1.0024 1.00268 0.987023
1.00319 1.00021 0.988174
1.00337 0.99737 0.991511
0.999972 0.994862 0.93677
0.994894 0.994716 0.959203
0.996462 0.996042 0.986319
0.996011 0.994762 0.844964
0.994698 0.995955 0.804433
0.998087 1.00213 0.996647
0.996325 1.00307 0.998022
0.995131 1.00448 0.998313
1.00034 1.0039 0.990489
0.99991 1.00494 0.990131
0.999384 1.00506 0.990845
0.99857 1.0045 0.993038
0.996045 1.00097 1.00026
0.999345 1.00501 0.991127
1.00045 1.00396 0.990136
1.00047 1.00451 0.989786
0.996268 1.00363 0.997344
0.998556 1.005 0.992174
0.999057 1.00484 0.992355
0.996703 1.00503 0.994987
0.999317 1.00472 0.99155
1.0004 1.00458 0.989388
1.00026 1.00437 0.989917
0.999859 1.0047 0.990234
0.999407 1.00405 0.992048
0.999328 1.00508 0.991169
0.999923 1.00501 0.990203
1.00006 1.00432 0.990426
1.00007 1.00444 0.990063
0.999881 1.00281 0.992239
0.999922 1.00268 0.992321
0.999676 0.999527 0.995826
0.999931 1.00269 0.992303
0.999703 0.99954 0.995771
0.999938 0.997511 0.999093
0.999798 0.999552 0.995631
0.999936 0.997529 0.998415
1.00005 0.997463 0.99765
0.999912 1.00088 0.99411
1.00004 1.00106 0.993774
1.0001 0.998526 0.996236
1.00015 1.00145 0.993247
1.00007 0.998898 0.996157
0.999959 0.997218 0.999117
1.00006 0.99965 0.995141
0.999929 0.99782 0.99893
0.999903 0.998178 0.998837
1.00535 0.994839 0.991282
1.00532 0.994897 0.991398
1.00571 0.994774 0.991083
0.999912 0.994705 0.979993
1.00545 0.994823 0.991361
1.00544 0.994836 0.990253
1.00551 0.994772 0.991204
0.995509 0.994824 0.961126
1.0038 0.994806 0.977851
1.00029 1.00199 0.992504
1.00031 1.00227 0.992229
0.999801 1.00314 0.991957
0.999962 1.00296 0.991958
1.0054 0.994868 0.991177
1.00541 0.994866 0.990436
1.00527 0.994821 0.990428
1.0038 1.00179 0.98811
1.00511 0.995925 0.989301
1.00528 0.994814 0.989972
1.00271 0.998726 0.990463
1.00308 1.00422 0.986638
1.00344 1.00128 0.988125
1.00003 1.00364 0.991503
1.0022 1.00393 0.986987
1.0011 1.00516 0.98812
1.00034 1.00223 0.992185
0.999738 1.00379 0.991645
1.00548 0.994812 0.990809
1.00014 1.00263 0.991941
1.00126 1.00382 0.989066
0.997462 1.00381 0.994456
1.00536 0.994923 0.99048
1.00526 0.994823 0.99024
1.00337 0.997824 0.991551
1.00447 0.997559 0.989818
1.00179 1.00514 0.987894
1.0014 1.00279 0.988639
1.00129 0.998427 0.994308
1.00189 1.00151 0.990934
1.00403 0.9966 0.990081
1.00522 0.994784 0.990752
1.00421 0.997945 0.989723
1.00357 0.997106 0.992363
0.997477 1.00472 0.994149
1.00213 1.00469 0.986951
0.99928 1.00214 0.994216
0.998031 1.00312 0.994623
0.999948 0.995734 0.921169
0.997514 1.00472 0.996083
1.00115 1.00366 0.988827
1.00412 0.994685 0.9908
1.00463 0.9953 0.991202
1.00422 1.00056 0.987061
1.00479 1.00191 0.984754
0.998685 0.994751 0.979019
0.997576 1.00456 0.994761
1.00325 0.994744 0.990407
1.00257 1.00317 0.986982
1.00368 1.00007 0.98835
1.0035 0.997869 0.991334
0.999364 0.994865 0.922295
0.99534 0.994762 0.955979
0.996448 0.996228 0.986802
0.996783 0.994764 0.8503
0.994761 0.995491 0.799832
0.997828 1.00386 0.994019
0.998257 0.994834 0.854949
0.99479 0.994916 0.796309
1.00104 0.995892 0.993638
1.00152 1.00115 0.990969
1.00119 1.00073 0.992925
0.994964 0.996168 0.99028
0.997427 0.994713 0.935911
0.994908 0.994785 0.951717
0.99472 0.995472 0.868019
0.994769 0.994913 0.781214
0.996253 1.00306 0.998174
0.995307 1.00456 0.998144
0.995225 1.00505 0.99845
1.00063 1.00378 0.990192
1.00033 1.00459 0.989757
0.998775 1.00501 0.991385
0.998393 1.00509 0.992638
0.996748 1.00281 0.997179
1.00039 1.00422 0.989912
0.998538 1.00503 0.992614
0.999196 1.00483 0.991231
1.00066 1.00453 0.989503
0.996787 1.00475 0.995355
0.997713 1.0047 0.994051
0.995569 1.00513 0.996543
0.999224 1.00504 0.990742
1.00059 1.0046 0.989477
1.00016 1.00459 0.99019
0.999001 1.00385 0.992563
0.999021 1.00432 0.992275
0.999681 1.00325 0.992202
0.997619 1.00345 0.995277
0.99759 1.00481 0.993215
0.998488 1.00511 0.991629
0.999308 1.00512 0.991142
0.999573 1.0049 0.990439
0.999681 1.00509 0.990364
1.00015 1.00443 0.990335
0.999973 1.00293 0.992074
1.00015 1.00444 0.99004
0.999938 1.00273 0.992261
0.99986 0.999556 0.996257
0.999922 1.00269 0.992329
0.999738 0.999508 0.996084
0.999901 0.997473 0.997903
0.999686 0.999537 0.995771
0.999929 0.997531 0.999103
0.999937 0.997573 0.997771
1.00032 1.00233 0.992164
0.999881 1.00082 0.994226
0.999953 1.00087 0.994109
1.00005 0.99842 0.996401
1.00007 1.00107 0.993792
1.0001 0.998501 0.996233
0.999992 0.996991 0.999182
1.00006 0.999031 0.996382
0.999948 0.997395 0.998437
0.999923 0.997825 0.997509
0.999322 0.994711 0.979924
1.00546 0.994821 0.991304
1.00539 0.99477 0.990304
0.996318 0.994783 0.961242
1.00395 0.994731 0.978159
1.00549 0.994824 0.991247
1.00373 0.994668 0.985298
0.998893 0.994763 0.960922
0.999028 0.994869 0.936328
0.99664 0.994762 0.872752
0.994804 0.995419 0.804128
0.999445 1.00311 0.992365
1.00024 1.00208 0.992495
1.00042 1.00216 0.992201
0.999825 1.00291 0.992299
0.998225 1.00497 0.993084
1.0001 1.00341 0.991469
1.00017 1.00411 0.990728
1.00004 1.00294 0.991898
1.00548 0.994836 0.990786
1.00534 0.994873 0.990451
1.00526 0.994818 0.990222
1.00349 0.997571 0.991687
1.00423 0.99783 0.989678
1.00117 0.998056 0.994402
1.0036 1.00128 0.990505
1.00291 1.00283 0.987898
1.00111 1.00386 0.989305
1.00167 1.00515 0.987383
0.999942 1.00348 0.991642
0.996219 1.00384 0.997256
1.00422 0.995657 0.990435
0.997507 1.00467 0.994166
1.00113 1.00439 0.989066
1.005 0.994807 0.990722
1.00391 0.998346 0.98982
1.00309 0.997211 0.992335
1.00015 1.0019 0.993034
0.99922 1.00193 0.994669
1.00293 0.99635 0.988869
1.00297 0.999085 0.990828
1.00343 0.999401 0.990768
1.00119 0.997847 0.994862
0.998867 1.0047 0.992421
0.997612 1.00458 0.993569
0.997594 1.00281 0.995991
0.999833 0.996825 0.853359
1.00068 0.994884 0.937021
0.998076 1.00414 0.995047
1.00293 1.00346 0.986961
1.00286 0.994753 0.990289
1.00371 0.998254 0.991177
1.00408 0.999906 0.98857
0.999988 0.994826 0.934536
0.995814 0.994774 0.955471
0.99642 0.996705 0.987469
0.995715 0.99479 0.869972
0.994828 0.99489 0.794863
0.998269 1.0039 0.994036
0.999845 0.994885 0.852229
0.994736 0.994878 0.790049
1.00093 0.996594 0.993444
1.00152 1.00119 0.991009
1.00118 1.00042 0.9936
0.9951 0.997317 0.991239
0.996627 0.994691 0.928943
0.994923 0.994793 0.952128
0.994787 0.995063 0.869435
0.994802 0.995231 0.778775
0.9968 1.0046 0.996513
0.994771 0.994802 0.783015
0.994739 0.994749 0.778772
0.996734 1.00139 0.997272
0.998985 1.00173 0.997338
0.994839 0.99869 0.987781
0.994914 0.994812 0.956429
0.994883 0.994657 0.922619
0.994813 0.994869 0.872675
0.994885 0.994895 0.793722
0.995676 1.00474 0.997988
0.995494 1.0049 0.998298
0.994902 1.00427 0.999222
1.00052 1.0041 0.989903
1.00076 1.00457 0.989618
0.99928 1.00504 0.990912
0.997914 1.00509 0.992872
0.996648 1.00449 0.995725
1.00065 1.00464 0.989432
0.997778 1.0048 0.993709
0.999702 1.00491 0.99071
0.995502 1.00514 0.996749
0.995182 1.0051 0.998032
0.997422 1.00496 0.994275
1.00017 1.00473 0.99086
1.00065 1.0041 0.990148
0.998889 1.00356 0.993069
0.999172 1.00406 0.992255
0.999911 1.00306 0.992098
0.997221 1.00357 0.995646
0.997924 1.00459 0.992499
0.996648 1.00505 0.994722
0.997419 1.00238 0.99668
0.99973 1.00262 0.993038
1.00432 0.999819 0.990039
0.998043 1.00469 0.992231
0.99809 1.00465 0.993223
0.998739 1.00517 0.990358
0.998851 1.00512 0.991726
0.999965 1.00506 0.990082
0.99929 1.0051 0.991113
0.999788 1.00476 0.990532
0.999786 1.00334 0.991722
1.00023 1.00445 0.990243
0.999936 1.00289 0.99209
0.999984 0.999591 0.996004
0.999908 1.00274 0.992284
0.999846 0.999549 0.995889
1.00001 0.9974 0.997731
0.999727 0.999527 0.995784
0.999955 0.997431 0.999117
0.999926 0.997501 0.999114
1.00047 1.00279 0.99176
0.999922 1.00109 0.993969
1.00033 1.00225 0.992184
1.00004 0.998365 0.996451
0.999938 1.00077 0.994215
1 1.0008 0.994103
1.00006 0.9984 0.996394
1 0.996915 0.99921
1.00009 0.998535 0.996763
1 0.997035 0.998598
0.999974 0.997331 0.997899
0.999223 0.995697 0.838704
0.994787 0.994871 0.78147
0.995923 0.994782 0.962005
1.00363 0.994689 0.978654
1.00552 0.994948 0.991285
1.00045 0.994797 0.958312
1.00335 0.994741 0.985984
0.999819 0.994867 0.931714
0.995705 0.994739 0.851073
0.994816 0.995193 0.799872
0.998075 0.994793 0.969674
0.996182 0.994733 0.937422
0.994738 0.994702 0.869968
0.994812 0.995732 0.792639
0.999591 1.00401 0.99213
0.999738 1.00281 0.992414
1.00022 1.00214 0.992494
0.999852 1.00258 0.99266
0.997933 1.0041 0.9941
1.0004 1.00411 0.990219
0.999531 1.00396 0.991763
1.00081 1.00425 0.989271
1.00019 1.00406 0.99059
0.999615 1.00353 0.991841
1.0042 0.994861 0.990766
1.00488 0.994819 0.990688
1.00333 0.998664 0.989915
1.0024 0.997049 0.992306
0.999829 1.00192 0.994715
0.999935 1.00194 0.991891
0.999945 1.00419 0.99141
0.997395 1.0046 0.994137
1.00218 0.995664 0.989487
0.998662 1.00497 0.992283
0.997462 1.0046 0.99393
1.0028 0.998915 0.990786
1.00306 0.999799 0.990156
1.00073 0.997742 0.995512
0.997839 1.00282 0.996387
0.999525 0.995486 0.988114
1.00064 1.00054 0.994088
0.996889 1.00255 0.997199
0.998524 1.00394 0.99269
0.996772 1.00518 0.994086
0.996328 1.00456 0.996587
0.994739 0.994795 0.801606
0.999833 0.99489 0.861217
0.999981 0.995768 0.921441
0.998569 1.00409 0.994034
1.00176 1.00128 0.990998
1.00078 0.99705 0.993236
1.00107 1.00002 0.994278
0.99981 0.995742 0.867482
0.996167 0.994733 0.922255
0.994933 0.99475 0.951785
0.995208 0.998285 0.991976
0.994789 0.994764 0.852985
0.994683 0.994858 0.796567
0.994829 0.995645 0.794871
0.996821 1.00463 0.996227
0.994764 0.994815 0.791574
0.994767 0.994759 0.778212
0.996919 0.999791 0.997954
0.998652 1.00166 0.997257
0.994834 0.997375 0.989632
0.995005 0.994795 0.953917
0.994895 0.994673 0.934855
0.994783 0.995254 0.852237
0.995192 0.994891 0.803091
0.995764 1.00412 1.00047
0.994744 0.994793 0.786493
0.994818 0.994833 0.780431
0.994763 1.0023 1.00022
0.994875 0.996578 0.964571
0.994807 0.994796 0.932009
0.994906 0.994906 0.850669
0.995818 0.994906 0.821373
0.995863 1.00473 0.998135
0.995196 1.00463 0.999363
0.994836 1.0044 0.999721
1.00045 1.00472 0.989383
1.00003 1.00474 0.990678
0.997825 1.00494 0.993365
0.995496 1.00496 0.996953
0.999579 1.00487 0.990853
0.997198 1.00499 0.994304
0.995027 1.0051 0.998143
0.994788 1.0052 0.998858
0.995222 1.00507 0.997953
0.997827 1.00516 0.993911
0.999282 1.00422 0.992224
0.999943 1.00285 0.991997
0.996627 1.00378 0.996008
0.996857 1.00497 0.994809
0.999055 1.00403 0.992433
0.996505 1.00338 0.996787
0.997534 1.00399 0.994766
0.99509 1.00506 0.998228
1.00147 0.999469 0.993952
0.999306 1.00195 0.993928
1.00238 1.00008 0.990875
1.00505 0.999207 0.988007
1.00322 1.00169 0.989181
1.00333 0.999422 0.990792
0.998952 1.00441 0.992058
0.999121 1.00523 0.989622
0.998782 1.0045 0.993237
0.999615 1.00518 0.990433
1.00055 1.00512 0.988762
0.999376 1.00515 0.991813
0.999825 1.00509 0.990092
0.999847 1.00405 0.990913
0.999932 1.00472 0.990626
0.999934 1.00336 0.991732
1.00014 0.999777 0.995638
0.999985 1.00282 0.992108
0.999961 0.999666 0.99558
1.0001 0.997516 0.997544
0.999841 0.999533 0.995584
1.00001 0.997405 0.998422
0.999971 0.997418 0.999097
1.00041 1.00386 0.990373
1.00002 1.00143 0.993505
1.00031 1.00294 0.991538
1.00006 0.998456 0.996339
0.999924 1.00102 0.993989
1.00029 1.00219 0.992202
1.00002 0.996885 0.999216
1.00003 0.998384 0.99645
0.999928 1.00083 0.994208
1.00008 0.998382 0.996386
1.00001 0.996925 0.999204
0.99999 0.997009 0.999175
0.994737 0.994798 0.77951
0.999133 0.994876 0.852674
0.994787 0.994772 0.779488
0.994812 0.994849 0.783019
0.999062 0.994851 0.958594
1.00272 0.994806 0.986682
0.999391 0.994791 0.926311
0.996273 0.99477 0.87221
0.99484 0.994876 0.795721
0.998205 0.994819 0.968436
0.996431 0.994702 0.92225
0.994747 0.994937 0.870136
0.994804 0.995208 0.785073
0.994923 0.994812 0.960822
0.994759 0.99469 0.920904
0.994806 0.994907 0.846055
0.994853 0.994892 0.798206
1.00037 1.00445 0.990888
0.998949 1.00408 0.992301
0.999823 1.00277 0.992456
0.997337 1.00345 0.995104
1.00092 1.00361 0.989694
1.00003 1.00445 0.990415
0.998897 1.00412 0.992055
1.00138 1.00388 0.989157
1.00097 1.00447 0.989201
1.00027 1.00392 0.99045
1.00212 0.994813 0.990052
1.00247 0.998757 0.990773
1.00305 1.00023 0.989549
1.00014 0.997614 0.996168
0.998627 1.00295 0.996765
0.99771 1.00452 0.994292
0.998586 1.00509 0.992163
0.999374 1.00351 0.992473
0.999362 0.996402 0.988801
0.997709 1.00515 0.993575
0.997542 1.00353 0.996695
1.00041 1.0003 0.994217
0.997951 1.00135 0.997163
0.996204 1.00074 0.987692
0.996705 1.0021 0.998929
0.994795 1.00504 0.997958
0.996519 1.00429 0.996109
0.995625 1.00524 0.996368
0.994761 0.994782 0.793048
0.994746 0.994757 0.796668
0.999825 0.996798 0.840785
0.996803 1.00467 0.995988
0.998662 1.00134 0.997192
0.997229 0.999001 0.998625
0.994739 0.994801 0.788098
0.994787 0.994666 0.921412
0.994923 0.99479 0.954087
0.994823 0.995796 0.991992
0.994772 0.995503 0.871653
0.994799 0.994771 0.77867
0.995578 0.994881 0.805173
0.995974 1.00371 1.00066
0.994759 0.994805 0.788055
0.9948 0.994832 0.781688
0.994789 1.00254 0.999078
0.994867 0.995718 0.966401
0.994989 0.994795 0.918748
0.995489 0.994902 0.815983
0.995229 0.997004 0.859898
0.9947 1.00504 1.00114
0.994778 0.994834 0.774502
0.994863 0.994848 0.797491
0.994856 0.994894 0.797703
0.994751 0.999705 0.988014
0.994831 0.995333 0.936347
0.997212 0.994882 0.87314
0.995595 1.00497 0.999511
0.995128 1.00467 0.999525
0.995266 1.00517 0.999153
0.999196 1.00486 0.990854
0.997135 1.00517 0.994334
0.994857 1.00516 0.998258
0.997211 1.00514 0.993991
0.995402 1.0049 0.998021
0.994785 1.00522 0.998717
0.994735 1.00499 0.999477
0.995322 1.00481 0.998378
0.996731 1.00485 0.994929
0.999969 1.00349 0.992362
0.995869 1.00413 0.996897
0.995081 1.00497 0.998111
0.997039 1.00428 0.994804
0.999082 1.00079 0.996222
0.998514 0.999884 0.997649
1.00238 1.00004 0.989773
0.998985 1.00158 0.994724
1.00257 1.00007 0.990605
1.00466 1.00112 0.986344
1.00516 1.00126 0.985204
1.00493 0.999382 0.987642
1.00432 0.99937 0.987926
1.00198 1.00405 0.988175
1.00207 1.00215 0.989436
1.00212 0.999036 0.991519
0.999828 1.00412 0.991883
0.999809 1.00522 0.989437
1.00095 1.00513 0.987595
1.00034 1.00519 0.990515
1.00082 1.0051 0.988741
1.00044 1.00451 0.989502
1 1.00509 0.990096
1.0001 1.00381 0.990891
1.00016 1.00015 0.995247
1.00002 1.00323 0.991739
1.00011 0.999829 0.995189
1.00026 0.997579 0.997235
0.999947 0.999717 0.995244
1.0001 0.997477 0.998297
1.00005 0.997398 0.999029
1.0008 1.00404 0.989335
1.00013 1.00196 0.992399
1.00049 1.00375 0.990387
1.00009 0.998673 0.996068
1.00008 1.00137 0.993298
1.00028 1.00295 0.991316
1.00003 0.99693 0.999186
1.00006 0.998436 0.996355
0.999999 1.00086 0.994006
1.00001 0.996912 0.999215
1.00003 0.998391 0.996449
1.00001 0.996927 0.999198
0.994808 0.994814 0.784295
0.994748 0.994833 0.794727
0.999226 0.99484 0.851528
1.00101 1.00427 0.989196
0.994783 0.994804 0.784852
0.994784 0.994793 0.779391
0.994856 0.994853 0.797579
0.998223 0.994765 0.968146
0.996154 0.994737 0.936989
0.99467 0.995163 0.852893
0.994778 0.994878 0.796768
0.995543 0.994796 0.958288
0.994819 0.99469 0.934168
0.994774 0.995251 0.850301
0.99487 0.994896 0.799842
0.994924 0.994779 0.952641
0.994795 0.994817 0.930305
0.996273 0.99508 0.863383
0.995465 0.994906 0.821653
0.998825 1.00363 0.993033
0.999533 1.00436 0.991172
0.999089 1.00356 0.992481
1.00133 1.00235 0.990399
1.00103 1.00383 0.989657
0.999909 1.00475 0.990607
1.00149 1.00384 0.989123
1.0011 1.00446 0.989131
0.998528 0.997308 0.989309
0.999778 1.00005 0.994262
0.999015 1.00377 0.992229
0.999062 1.00018 0.997116
0.998294 1.00298 0.996791
0.998543 1.00513 0.993012
0.997085 1.0042 0.995087
0.995806 1.00037 0.987915
0.996713 1.00505 0.996145
0.99596 1.00347 0.99805
0.995968 1.00185 0.999022
0.995815 1.00528 0.996175
0.994927 1.0032 0.984903
0.995085 1.00365 0.99881
0.995627 1.00458 0.998043
0.996139 1.00559 0.996508
0.994746 0.994812 0.777574
0.994754 0.994786 0.78952
0.99475 0.994721 0.791502
0.995818 1.00373 1.00082
0.994813 1.00192 0.997881
0.994775 0.994818 0.789435
0.994759 0.994846 0.933551
0.994859 0.995611 0.963158
0.995492 0.99533 0.858534
0.994784 0.994832 0.78269
0.994892 0.994904 0.81047
0.994751 1.00496 1.0011
0.994778 0.994832 0.774913
0.994874 0.994859 0.796076
0.99479 1.00027 0.991742
0.994872 0.994931 0.799433
0.994835 0.996805 0.929171
0.996645 0.99736 0.87469
0.995114 1.00407 0.997186
0.994837 0.994846 0.788145
0.994795 0.994814 0.78687
0.994805 0.995759 0.791782
0.996447 0.996177 0.86319
0.994891 1.00123 0.97054
0.994923 0.995687 0.92196
0.995423 1.00494 0.999357
0.995077 1.00517 0.999204
0.994762 1.00521 0.998172
0.996694 1.00523 0.994066
0.994938 1.00452 0.998087
0.994797 1.00516 0.99862
0.995013 1.00445 0.998305
0.99471 1.00497 0.99936
0.99702 1.0024 0.999689
0.994976 1.00495 0.997983
0.996215 1.00483 0.994882
0.998178 1.00129 0.99706
0.998909 1.00001 0.994304
0.995585 1.00018 1.00099
1.00198 0.999944 0.990916
1.00432 1.00392 0.983164
1.00453 1.00284 0.984333
1.00288 1.00002 0.990252
1.0045 1.00129 0.985891
1.00503 1.00197 0.984421
1.00517 1.00143 0.985268
1.00482 1.00135 0.985283
1.00419 1.00048 0.987746
1.00432 1.00003 0.987515
1.00396 0.999473 0.98787
1.00097 1.00515 0.987599
1.00133 1.00429 0.988253
1.0008 1.00269 0.989689
1.00056 1.00521 0.989255
1.0014 1.00515 0.987619
1.00081 1.00508 0.988098
1.001 1.00508 0.988718
1.00065 1.00441 0.989487
1.0002 1.00075 0.993755
1.00043 1.00379 0.990884
1.00024 1.00014 0.994376
1.00012 0.997687 0.998773
1.00011 0.999928 0.994823
1.00019 0.997553 0.998083
1.00013 0.997475 0.998926
1.00077 1.00442 0.989085
1.00034 1.00281 0.991299
1.00073 1.00418 0.989526
1.00016 0.999014 0.995639
1.00024 1.00199 0.992269
1.00057 1.00371 0.990394
1.00005 0.997049 0.999124
1.00012 0.998607 0.99609
1.00008 1.00134 0.993093
1.00003 0.996922 0.999197
1.00005 0.998422 0.996372
1.00001 0.99691 0.999215
0.994767 0.99482 0.783956
0.994801 0.994806 0.784681
0.994743 0.994846 0.79364
1.00106 1.00409 0.989225
1.00029 1.00507 0.988709
1.00185 1.00213 0.990737
0.994873 0.994862 0.796277
0.994794 0.994803 0.786031
0.994799 0.994778 0.779465
0.996287 0.994782 0.958619
0.994858 0.994665 0.921434
0.994771 0.995509 0.871523
0.994876 0.994872 0.794057
0.994908 0.994821 0.954034
0.994818 0.994795 0.925956
0.99606 0.996204 0.862195
0.995352 0.994904 0.816132
0.994896 0.994868 0.95304
0.994826 0.994865 0.931671
0.997137 0.994896 0.872769
0.994879 0.994905 0.79557
0.998085 1.00309 0.994357
0.999181 1.00346 0.992891
0.999394 1.00461 0.991461
1.00129 1.00249 0.99032
1.00069 1.00431 0.989626
1.00154 1.00385 0.989085
0.995569 1.00001 0.988487
0.995742 1.00202 0.999191
0.998347 1.0033 0.994106
0.997657 1.00247 0.998008
0.997869 1.00446 0.995943
0.995899 1.00487 0.996138
0.995794 1.00544 0.996247
0.994852 1.00312 0.984921
0.995285 1.00523 0.998256
0.994624 1.00423 0.997762
0.995426 1.00525 0.997809
0.994713 1.00101 0.983473
0.994936 1.00517 0.994609
0.994724 1.00263 0.999266
0.994867 0.994855 0.778305
0.994758 0.994821 0.776751
0.99475 0.994786 0.786006
0.994804 1.00474 1.00102
0.994815 1.00063 0.987225
0.994776 0.99483 0.775339
0.994803 0.996429 0.929222
0.996072 0.994881 0.860256
0.994887 0.994857 0.794635
0.994873 0.994873 0.793816
0.995005 1.00392 0.9977
0.99482 0.994847 0.787213
0.994812 0.994804 0.788208
0.994895 1.00158 0.967468
0.99479 0.995405 0.784423
0.996005 0.997282 0.861271
0.994864 0.996811 0.935887
0.994875 1.00511 0.988303
0.994772 0.994822 0.785909
0.994781 0.99479 0.780327
0.994794 0.995606 0.803668
0.99479 0.995088 0.844133
0.994816 0.995151 0.933048
0.994826 1.00139 0.961116
0.995035 1.00518 0.999192
0.994799 1.00519 0.998215
0.99489 1.00511 0.998103
0.995401 1.00418 0.998234
0.994688 1.0052 0.999168
0.996008 1.00293 0.999847
0.99786 1.00172 0.998929
0.997116 1.00179 0.997872
1.00131 0.999663 0.993378
1.00179 1.005 0.986768
1.00148 0.999641 0.992522
1.00439 1.00382 0.983792
1.00425 1.00333 0.983366
1.00511 1.00051 0.985358
1.00508 1.00165 0.984702
1.00459 1.00263 0.984349
1.00452 1.00149 0.985448
1.00469 1.00289 0.984423
1.00513 1.00185 0.98446
1.00498 1.00102 0.985925
1.00487 1.00172 0.985384
1.0042 1.00148 0.98537
1.0024 1.00207 0.988463
1.00373 1.00112 0.98761
1.00371 1.00075 0.987362
1.00124 1.00523 0.987206
1.00145 1.00516 0.987576
1.00049 1.00436 0.988333
1.00179 1.00515 0.987652
1.00125 1.00494 0.988121
1.00024 1.00162 0.992825
1.00108 1.00418 0.98946
1.00026 1.00075 0.993711
1.00021 0.997991 0.998656
1.00034 1.00005 0.994356
1.00025 0.997722 0.997925
1.0002 0.997544 0.998815
1.0015 1.00411 0.988734
1.00059 1.0033 0.99069
1.00098 1.00424 0.989044
1.00021 0.999485 0.995075
1.00034 1.00281 0.991388
1.00062 1.00426 0.989725
1.00007 0.997196 0.999026
1.00018 0.99892 0.995668
1.00033 1.00198 0.992142
1.00005 0.996995 0.999143
1.00014 0.998551 0.996113
1.00003 0.99694 0.999209
0.994831 0.994847 0.785897
0.99477 0.994835 0.784406
0.994806 0.9948 0.784938
1.00002 1.00525 0.988891
1.00237 1.00155 0.99216
1.00085 1.00417 0.989266
1.00054 1.00487 0.988613
1.00076 1.00208 0.991345
1.00093 1.0026 0.990932
0.999036 1.00132 0.994657
0.994831 0.994836 0.78261
0.994874 0.994863 0.794803
0.994796 0.994831 0.787171
0.994889 0.994913 0.810485
0.995271 0.99482 0.95258
0.994834 0.994828 0.920502
0.995947 0.994927 0.874438
0.994968 0.995082 0.95201
0.994836 0.997805 0.917824
0.996442 0.996984 0.873865
0.995089 0.994928 0.804762
0.994816 0.99577 0.956199
0.994918 0.997763 0.91919
0.994902 0.995002 0.851209
0.994784 0.995239 0.783256
0.99578 1.00524 0.996567
0.997953 1.00345 0.994875
0.998846 1.00401 0.992747
1.00119 1.003 0.990244
0.994848 1.00256 0.984789
0.994548 1.00442 0.996769
0.996097 1.00508 0.996109
0.996656 1.00535 0.995977
0.99477 1.00534 0.998668
0.995128 1.00534 0.997695
0.995922 1.00351 0.999432
0.995054 1.00177 0.980528
0.995207 1.00518 0.994703
0.996037 1.00268 0.999688
0.995812 1.00119 0.976181
0.994659 1.00289 0.999809
0.99475 0.994833 0.780326
0.994846 0.994854 0.783479
0.994768 0.994839 0.775914
0.994755 1.00399 0.998208
0.994872 1.00125 0.971444
0.994802 0.994848 0.786291
0.994909 0.996522 0.923205
0.995838 0.994974 0.874123
0.994803 0.994832 0.78931
0.994765 0.995037 0.795735
0.994889 1.00509 0.989346
0.994777 0.994834 0.786433
0.99477 0.994802 0.780286
0.99481 1.0012 0.961191
0.994813 0.995144 0.799535
0.994757 0.995348 0.848409
0.99485 0.995999 0.919613
0.994973 1.00402 0.982995
0.994826 0.994818 0.784788
0.994757 0.994874 0.781724
0.994734 0.994702 0.868815
0.994812 0.994881 0.931134
0.994793 0.999685 0.956578
0.994819 1.00516 0.998772
0.99479 1.00512 0.998135
0.995156 1.00449 0.997901
0.99529 1.0031 1
0.996458 1.00293 0.999309
1.00037 1.00086 0.994793
1.00364 0.999426 0.992469
1.00273 1.00503 0.985887
1.00431 1.00213 0.98505
1.00421 1.00367 0.984416
1.0045 1.00331 0.983318
1.00473 1.00145 0.985115
1.00526 0.997899 0.987473
1.00516 1.00004 0.986111
1.00508 1.00069 0.985376
1.00507 1.00169 0.984932
1.00506 1.00147 0.984719
1.00467 1.00247 0.984362
1.00455 1.00411 0.983459
1.0047 1.00275 0.984454
1.00516 1.00178 0.984509
1.00385 1.00165 0.987788
1.00402 1.00171 0.98653
1.0048 1.00183 0.985502
1.00263 1.00298 0.987322
1.00263 1.00207 0.988436
1.00316 1.00202 0.987475
1.00047 1.00208 0.991958
1.00159 1.00523 0.987278
1.00187 1.00517 0.987552
1.00144 1.00484 0.988141
1.00028 1.00161 0.992804
1.0002 0.998452 0.998443
1.00024 1.00084 0.99367
1.00022 0.998023 0.998595
1.00025 0.997624 0.998716
1.00157 1.00465 0.989394
1.00178 1.00516 0.988198
1.00092 1.00383 0.989692
1.00123 1.00439 0.988728
1.0002 1.00005 0.994527
1.00054 1.00344 0.990685
1.00098 1.00447 0.988998
1.00008 0.99755 0.998889
1.00021 0.999462 0.9951
1.00041 1.00284 0.991473
1.00006 0.997195 0.999056
1.00019 0.998885 0.995701
1.00006 0.996974 0.999164
0.994786 0.994849 0.776758
0.994823 0.994838 0.785008
0.994773 0.994828 0.784846
1.00069 1.00527 0.988572
1.00019 1.00144 0.992823
1.00212 0.999716 0.989511
0.998474 1.00363 0.991596
1.00178 0.999177 0.993568
1.00086 1.00504 0.988503
0.999984 1.00263 0.99197
1.00063 1.00349 0.990908
0.999112 1.00088 0.995728
0.99906 1.00311 0.994938
0.994764 0.994753 0.780944
0.99481 0.994842 0.784018
0.994871 0.99485 0.793364
0.99535 0.994884 0.806754
0.996016 0.994888 0.860092
0.994904 0.994887 0.950866
0.994817 0.995574 0.930672
0.994869 0.996429 0.951652
0.994904 0.997552 0.931712
0.995103 0.997055 0.860738
0.99481 0.995242 0.780962
0.99498 0.998091 0.953327
0.994773 0.996165 0.931435
0.9948 0.995006 0.874111
0.994719 0.995873 0.807058
0.998388 1.0002 0.997256
0.995487 1.00516 0.996858
0.998116 1.00284 0.995407
0.994668 1.00289 0.977129
0.994817 1.00516 0.994168
0.995043 1.00533 0.997518
0.994725 1.00442 0.999637
0.995387 1.0034 0.999501
0.994707 1.00148 1.00033
0.99479 1.00188 0.97688
0.995868 1.00149 1.00195
0.994908 1.00009 0.984392
0.994786 0.994805 0.794083
0.994775 0.994843 0.779348
0.99483 0.994844 0.788865
0.994932 1.00506 0.989698
0.994839 0.99994 0.959066
0.994795 0.994842 0.78696
0.994845 0.995162 0.931945
0.994764 0.995631 0.868889
0.994782 0.994777 0.780605
0.994842 0.994883 0.795533
0.995205 1.00459 0.983816
0.994815 0.994812 0.78491
0.994787 0.994862 0.783092
0.994832 0.998508 0.957711
0.994739 0.994998 0.869294
0.994853 0.994828 0.923302
0.994791 1.00256 0.981546
0.994731 0.994805 0.779791
0.996445 0.994764 0.872565
0.994793 0.9947 0.920366
0.994896 0.994854 0.957339
0.995289 1.00513 0.998214
0.995008 1.00468 0.997757
0.997675 1.00034 0.997534
0.995097 1.00402 0.99969
0.999248 1.00151 0.995549
1.00431 0.995537 0.992418
1.00379 1.00509 0.984979
1.00426 1.00196 0.984937
1.00488 0.998338 0.987787
1.00484 1.00336 0.983268
1.00472 1.0013 0.985169
1.00491 0.997919 0.988148
1.00531 0.995452 0.989769
1.00529 0.997435 0.987607
1.00528 0.9978 0.987503
1.00524 1.00001 0.986181
1.00516 1.00008 0.98604
1.00496 1.00079 0.985396
1.0053 1.0028 0.983536
1.00498 1.00172 0.984895
1.00508 1.00122 0.984737
1.00472 1.00419 0.984222
1.00411 1.00402 0.983951
1.00483 1.00265 0.984484
1.00219 1.00343 0.987857
1.00319 1.00181 0.987713
1.00343 1.00232 0.987131
1.00093 1.0027 0.992036
1.00243 1.00337 0.987405
1.00285 1.00212 0.988408
1.00031 0.999309 0.995561
1.00057 1.00226 0.992265
1.00183 1.00521 0.987355
1.00039 1.00159 0.992772
1.00024 0.998584 0.998356
1.00024 0.998183 0.998528
1.00183 1.00234 0.988586
1.00223 1.00514 0.987476
0.99989 1.00496 0.989253
1.00101 1.00464 0.988835
1.0012 1.00485 0.988166
1.00008 1.00067 0.994047
1.00076 1.00405 0.989677
1.00107 1.00468 0.988716
1.00006 0.997857 0.998778
1.00021 0.999969 0.994562
1.00044 1.00347 0.990682
1.00006 0.997459 0.998931
1.00022 0.99935 0.995125
1.00006 0.997108 0.999086
0.994768 0.99482 0.793231
0.994791 0.994845 0.777255
0.994804 0.994857 0.784013
1.00314 1.00333 0.985898
1.00053 1.00495 0.988271
0.999298 1.00213 0.99368
1.00001 1.00479 0.990951
1.00351 0.999958 0.989364
1.00055 0.998276 0.9969
1.0037 1.00073 0.988509
0.99574 1.00521 0.994889
0.999535 1.00386 0.990878
0.998954 0.999129 0.996791
0.997461 1.00328 0.994945
0.99817 1.0022 0.99563
0.9948 0.994956 0.797806
0.994785 0.994764 0.780375
0.994796 0.994847 0.785116
0.994835 0.996646 0.796891
0.995262 0.995419 0.859215
0.994954 0.997425 0.919452
0.995618 0.995042 0.95156
0.995386 0.998449 0.953953
0.994776 0.996311 0.802339
0.994815 0.996597 0.922983
0.994785 0.995518 0.853835
0.994881 0.996453 0.959786
0.994799 0.994833 0.933226
0.994728 0.995684 0.871052
0.999837 0.995193 1.00158
0.998748 1.00024 0.99711
0.995056 1.00551 0.997133
0.994804 1.00235 0.97701
0.996041 1 1.00077
0.99597 1.00269 0.999404
0.99658 0.999772 1.00232
0.994889 0.999202 0.984503
0.995721 0.998401 0.993086
0.994727 0.994781 0.796708
0.994777 0.994809 0.794122
0.994798 0.994841 0.778147
0.99482 1.00463 0.983952
0.994843 0.999792 0.956783
0.994796 0.994814 0.785323
0.994831 0.994844 0.918463
0.994661 0.995077 0.852095
0.994839 0.994874 0.797318
0.994812 1.00482 0.981188
0.994745 0.99484 0.794796
0.995828 0.994745 0.850571
0.994957 0.995127 0.952449
0.994835 0.994695 0.933812
0.995269 0.999877 0.989177
0.999286 0.995687 0.83811
0.996144 0.994751 0.937581
0.994936 0.994758 0.950694
0.994763 1.00535 0.997619
0.997302 1.00168 0.997212
1.00067 0.998258 0.993745
0.998302 1.00206 0.99631
1.00373 0.996393 0.992152
1.00498 0.995135 0.991158
1.00411 1.00187 0.984828
1.00482 0.998306 0.987673
1.00502 0.996147 0.989718
1.00468 1.00106 0.985229
1.00487 0.997845 0.988085
1.00533 0.994857 0.990279
1.00528 0.994856 0.990982
1.0053 0.995447 0.989788
1.00532 0.99541 0.989812
1.00538 0.997351 0.987636
1.00528 0.997405 0.987788
1.00529 0.997697 0.987532
1.00539 1.0007 0.985
1.00523 0.999892 0.986108
1.00515 1.00016 0.985966
1.00555 1.00351 0.982269
1.00524 1.00292 0.983519
1.00485 1.00174 0.984856
1.00301 1.00276 0.986935
1.00396 1.0043 0.984173
1.00346 1.00399 0.984453
1.00106 1.0032 0.989917
1.00274 1.00271 0.987779
1.00242 1.00201 0.987625
0.999919 1.00088 0.997699
1.001 1.00274 0.990498
1.0027 1.00339 0.987482
1.00027 0.99908 0.998092
1.00069 1.00225 0.991634
1.00028 0.998625 0.998263
1.005 1.00136 0.986392
1.00296 1.00165 0.987927
1.00226 1.00435 0.987409
1.00133 1.005 0.988337
1.00164 1.00517 0.987494
0.999865 1.00518 0.989107
0.999976 1.00156 0.993464
1.00088 1.0047 0.988847
1.00116 1.00419 0.988124
1.00005 0.998228 0.998658
1.00007 1.00071 0.994059
1.00059 1.00436 0.98966
1.00004 0.997846 0.998808
1.00019 0.999985 0.994589
1.00005 0.997412 0.998973
0.994757 0.994801 0.784414
0.994781 0.994815 0.793522
0.994798 0.99484 0.777833
1.00338 1.00311 0.985839
1.00474 1.0048 0.984912
1.0017 1.00481 0.987298
0.999855 1.00527 0.990284
1.00512 0.999481 0.989245
0.997243 0.997827 0.999949
0.99773 1.00321 0.994918
1.00189 1.00131 0.990289
1.00084 1.00014 0.993275
0.99875 0.998986 0.997163
0.997829 1.00353 0.994916
0.999249 1.00231 0.995184
0.996362 0.994746 0.84586
0.994755 0.994874 0.791891
0.994808 0.994776 0.780751
0.99483 0.994913 0.797176
0.994776 0.995455 0.87331
0.994824 0.995379 0.9193
0.994787 0.998014 0.953263
0.994881 0.997273 0.956902
0.994797 0.995108 0.870804
0.994845 0.994815 0.920242
0.994916 0.997056 0.961225
0.994969 0.994648 0.922976
0.999009 0.995179 1.00535
0.999825 0.99504 1.00155
0.998417 1.00021 0.997106
0.994829 0.999122 0.984798
0.996284 0.999404 1.00267
0.995889 0.998547 0.992752
0.995188 0.995935 0.99086
0.99972 0.997921 0.851362
0.994736 0.994757 0.7932
0.994775 0.99482 0.793848
0.99484 1.00444 0.981723
0.994968 0.994848 0.950982
0.994741 0.994851 0.793492
0.994888 0.99467 0.921673
0.996305 0.994779 0.871768
0.995263 0.998335 0.985551
0.999191 0.994878 0.852675
0.996385 0.994706 0.922461
0.994933 0.994801 0.951861
0.996156 0.997435 0.9856
0.99906 0.994853 0.936605
0.994922 0.994807 0.95915
0.996731 1.00214 0.996908
1.00003 0.998851 0.993716
1.00324 0.997681 0.991768
1.00301 0.997273 0.991901
1.00486 0.995082 0.991078
1.00516 0.994696 0.991013
1.00479 0.998233 0.987562
1.00492 0.9963 0.989615
1.00533 0.994725 0.990378
1.00486 0.99781 0.98802
1.00534 0.994883 0.99023
1.00528 0.994784 0.99081
1.00532 0.994842 0.990851
1.00527 0.994845 0.990999
1.0053 0.994898 0.990982
1.00533 0.995777 0.989831
1.0053 0.995495 0.989946
1.00534 0.99536 0.989856
1.00545 0.998222 0.987072
1.00537 0.997399 0.987568
1.00528 0.99736 0.98797
1.0055 1.00224 0.983362
1.00545 1.00071 0.984994
1.00521 0.999792 0.986038
1.00468 1.00252 0.984643
1.00554 1.00323 0.982404
1.00517 1.00299 0.983502
1.00137 1.00388 0.988592
1.00292 1.00329 0.986845
1.00338 1.0039 0.984136
1.00037 1.00059 0.997398
1.00128 1.00294 0.989939
1.00283 1.00247 0.987695
1.0002 1.00044 0.996181
1.0011 1.00242 0.990679
1.00033 0.999584 0.997844
1.00533 1.0038 0.982986
1.00383 1.00243 0.986245
1.00312 1.00204 0.987299
1.00382 1.00219 0.987275
1.00222 1.00429 0.987457
1.00138 1.00517 0.98795
1.00033 1.00185 0.99269
1.001 1.00507 0.988316
1.00032 1.00521 0.987524
1.00006 0.998559 0.998459
0.999966 1.00133 0.993473
1.00088 1.00473 0.988858
1.00001 0.998169 0.998698
1.00006 1.00055 0.994099
1.00002 0.997757 0.998839
0.998453 0.994834 0.854035
0.994758 0.9948 0.790439
0.994787 0.994809 0.793972
1.00338 1.00367 0.985795
1.00257 1.00522 0.985511
1.00442 1.00444 0.984243
1.005 1.00281 0.984233
1.00127 1.00127 0.992093
0.999041 1.00305 0.994986
1.00167 1.00091 0.992057
1.001 1.00046 0.99345
1.00456 0.994763 0.992325
1.00204 0.997003 0.995722
1.0014 0.997971 0.995933
1.00039 0.997981 0.99685
0.999779 1.00138 0.994745
0.997417 0.994706 0.934015
0.996897 0.994781 0.850567
0.99471 0.994855 0.798017
0.994781 0.995061 0.855365
0.994794 0.99484 0.93132
0.994918 0.99678 0.959067
0.994934 0.996287 0.963073
0.994825 0.994688 0.936243
0.995792 0.994795 0.960454
0.997253 0.996033 1.0044
0.997709 0.995834 1.00542
1.00011 0.994826 1.00139
0.995753 0.997947 0.992571
0.996338 0.995593 0.992007
0.999959 0.996206 0.920668
0.999798 0.9949 0.859599
0.994744 0.994732 0.789749
0.995348 0.997755 0.981476
0.994919 0.99478 0.951234
0.999276 0.994839 0.851663
0.996138 0.994735 0.937081
0.996183 0.997045 0.985833
0.999737 0.994862 0.93174
0.995376 0.994802 0.956773
0.99965 0.994652 0.98469
0.997627 0.994831 0.968636
0.999603 0.999237 0.993676
1.00236 0.996944 0.991791
1.00503 0.994583 0.991633
1.00472 0.995141 0.99099
1.0051 0.994696 0.990953
1.00529 0.994616 0.99077
1.00479 0.99642 0.989511
1.00532 0.994725 0.990327
1.00534 0.99477 0.990522
1.00534 0.994907 0.99018
1.00527 0.994796 0.990805
1.00533 0.994842 0.990656
1.00531 0.994843 0.990842
1.00536 0.994857 0.990783
1.00526 0.994835 0.991016
1.0053 0.994891 0.990987
1.00527 0.995134 0.990755
1.00536 0.996731 0.989017
1.00534 0.995783 0.989838
1.00531 0.99555 0.990104
1.00542 1.00065 0.984883
1.00547 0.998342 0.986865
1.00535 0.997435 0.987499
1.0053 1.00326 0.983019
1.00552 1.00219 0.98346
1.00551 1.00071 0.984987
1.00241 1.00365 0.987142
1.00422 1.0029 0.984704
1.00552 1.00332 0.982535
1.00054 1.00134 0.996995
1.00152 1.00371 0.988542
1.00287 1.00363 0.986766
1.00045 1.00077 0.997287
1.0014 1.00274 0.989965
1.00045 1.00033 0.997496
1.00534 1.00381 0.98307
1.00536 1.00321 0.983074
1.00333 1.00415 0.984778
1.00291 1.00261 0.986081
1.00266 1.00303 0.987067
1.00184 1.00415 0.987038
1.00201 1.00345 0.987495
1.0012 1.00516 0.987858
1.00076 1.00255 0.991356
1.00009 0.999132 0.998157
1.00009 1.00209 0.992686
1.00058 1.00517 0.9883
1.00001 0.998603 0.998533
0.999954 1.00146 0.993444
0.99997 0.998149 0.998732
0.99997 0.994836 0.936648
0.999839 0.994894 0.851302
0.994743 0.994776 0.78421
1.00306 1.00591 0.983684
1.00411 1.00407 0.983567
1.00267 1.00089 0.990324
1.00465 1.00298 0.984323
1.00521 0.99946 0.986327
1.00405 0.996127 0.991173
1.00117 1.00007 0.993597
1.00483 0.995109 0.991457
1.00188 0.996739 0.995758
1.0042 0.997359 0.991088
1.00207 0.998218 0.993877
1.0016 0.998762 0.994653
1.00122 0.99822 0.996012
1.00139 0.997421 0.996546
0.994972 0.994794 0.959398
0.996997 0.99468 0.928944
0.995942 0.994787 0.869544
0.994798 0.994656 0.922271
0.994912 0.996228 0.963636
0.995769 0.995354 0.966388
0.998797 0.994835 0.99054
0.9988 0.995599 1.00302
0.99721 0.99655 1.00551
0.998135 0.996896 0.993261
0.998942 0.994773 0.960019
1.00057 0.99488 0.936592
0.999719 0.997906 0.83896
0.996008 0.997154 0.986286
0.995968 0.994795 0.956793
0.999089 0.994807 0.926474
0.999171 0.996086 0.985281
0.997571 0.994838 0.96749
1.00231 0.996942 0.987386
1.00335 0.994766 0.984727
1.00139 0.996956 0.991812
1.00443 0.994607 0.991708
1.00522 0.994803 0.990861
1.00504 0.994669 0.990893
1.00529 0.994641 0.99072
1.00539 0.99482 0.990464
1.00532 0.994726 0.990276
1.00534 0.994777 0.990523
1.00536 0.994847 0.990546
1.00526 0.994806 0.990798
1.00533 0.994841 0.990679
1.00535 0.994873 0.990713
1.0053 0.994842 0.990833
1.00535 0.994851 0.990779
1.00531 0.994898 0.990939
1.00529 0.994884 0.990991
1.00528 0.995086 0.99078
1.00527 0.996138 0.989889
1.00535 0.999136 0.986669
1.00537 0.996964 0.988676
1.00534 0.995794 0.989844
1.00536 1.00257 0.983309
1.00543 1.0008 0.984902
1.00549 0.998479 0.986659
1.00318 1.00282 0.986786
1.00482 1.00363 0.983047
1.00553 1.00222 0.983565
1.00131 1.00185 0.996295
1.00243 1.00359 0.987037
1.0037 1.00343 0.984777
1.00089 1.00147 0.996698
1.00175 1.00347 0.988499
1.00066 1.00069 0.997104
1.00538 1.0012 0.984686
1.00531 1.00339 0.983013
1.00465 1.00397 0.98309
1.00534 1.0025 0.983162
1.00423 1.00362 0.984425
1.00316 1.0032 0.985836
1.00264 1.00481 0.986847
1.00241 1.00419 0.98706
1.00124 1.00312 0.98969
1.00115 1.0051 0.987786
1.00048 1.00272 0.991363
1.0002 1.00023 0.99761
1.00005 0.999024 0.998279
0.999884 1.00209 0.992694
0.999958 0.998524 0.998598
0.995501 0.994835 0.963142
0.999381 0.994886 0.9205
0.999832 0.996229 0.86664
1.00529 0.997057 0.988252
1.00417 1.00049 0.9886
1.00436 1.00308 0.984407
1.00449 0.996186 0.99115
1.00522 0.999548 0.986407
1.00518 0.995992 0.990005
1.00513 0.995379 0.990593
1.00135 0.996817 0.995814
1.00462 0.995842 0.991121
1.00174 0.998172 0.993973
1.0036 0.998201 0.990393
1.00318 0.994794 0.994563
1.00121 0.998422 0.994935
1.00103 0.998386 0.996094
0.998338 0.994663 0.988917
0.995537 0.994774 0.95786
0.996578 0.994713 0.922495
0.995385 0.995146 0.967939
0.998772 0.994853 0.992958
0.9993 0.995239 1.00159
1.00388 0.99529 0.976568
0.999668 0.994849 0.957939
1.00017 0.995734 0.920798
0.998342 0.996946 0.985838
0.997195 0.994841 0.967086
1.00158 0.995861 0.988062
1.00265 0.99477 0.985211
1.00336 0.997064 0.990084
1.00543 0.994697 0.990696
1.00388 0.994624 0.991791
1.0052 0.994783 0.990865
1.00539 0.994887 0.99047
1.00529 0.994664 0.99067
1.00539 0.994817 0.990474
1.0054 0.994851 0.990527
1.00534 0.994786 0.990524
1.00536 0.994847 0.990552
1.00533 0.994889 0.990768
1.00533 0.994842 0.990701
1.00535 0.994875 0.990707
1.00531 0.994882 0.99092
1.00535 0.994846 0.990776
1.00531 0.994884 0.990918
1.00529 0.995139 0.990903
1.00528 0.995042 0.990804
1.00528 0.995903 0.990065
1.00532 0.998454 0.987628
1.00533 1.00156 0.984435
1.00533 0.999422 0.986397
1.00537 0.997178 0.988335
1.00349 1.00152 0.98731
1.00531 1.00262 0.983327
1.00544 1.0009 0.984919
1.00202 1.00157 0.995973
1.00319 1.00257 0.986731
1.00454 1.00377 0.983062
1.00153 1.0019 0.996122
1.00245 1.00347 0.986918
1.00111 1.00179 0.99642
1.00537 0.998775 0.986606
1.00533 1.00126 0.984642
1.00544 1.00262 0.983301
1.00521 1.00325 0.982964
1.00497 1.00404 0.982792
1.00364 1.00373 0.984725
1.00527 1.00281 0.984076
1.00319 1.00353 0.985884
1.00167 1.00355 0.988423
1.00237 1.00428 0.987033
1.00117 1.00336 0.989724
1.00047 1.00134 0.997069
1.00029 1.00293 0.991373
1.00004 0.999989 0.997833
0.999973 0.999019 0.998377
0.999245 0.994653 0.985516
0.996495 0.994805 0.958184
0.999989 0.994826 0.936365
1.00538 0.995421 0.989719
1.00532 0.995212 0.99003
1.00531 0.996751 0.988484
1.00494 0.996281 0.991129
1.00522 0.999519 0.986493
1.00522 0.995813 0.990059
1.00539 0.994813 0.990041
1.00495 0.99491 0.991161
1.00188 0.99815 0.994093
1.00356 0.997972 0.991084
1.0052 0.99477 0.991124
1.00367 0.994656 0.993292
1.00258 0.994818 0.994421
1.00132 0.998139 0.995217
0.998952 0.994617 0.988804
0.996352 0.994787 0.956914
0.999093 0.994845 0.995515
1.0048 0.995873 0.989465
1.00372 0.995311 0.976671
0.998954 0.994849 0.958192
1.0015 0.994809 0.988629
1.00208 0.99477 0.98572
1.00362 0.995989 0.990438
1.00542 0.994699 0.990855
1.00546 0.994744 0.990929
1.00549 0.994827 0.991306
1.00522 0.994767 0.990865
1.00541 0.994872 0.990485
1.0054 0.994848 0.990809
1.00538 0.99481 0.990482
1.0054 0.994847 0.990553
1.00534 0.994866 0.990852
1.00535 0.994846 0.990559
1.00534 0.994889 0.990765
1.00529 0.994911 0.990996
1.00536 0.994876 0.990702
1.00531 0.994883 0.99092
1.00532 0.994909 0.991112
1.0053 0.994869 0.990896
1.00529 0.995149 0.990811
1.00532 0.997506 0.988539
1.00528 0.995676 0.990241
1.00531 0.998329 0.987765
1.00532 1.00089 0.985218
1.00361 1.00089 0.98789
1.00534 1.00153 0.984466
1.00533 0.999724 0.986125
1.00238 1.00087 0.996049
1.00347 1.00163 0.987362
1.00519 1.00286 0.983343
1.00212 1.00145 0.995979
1.00321 1.00259 0.986688
1.00174 1.00199 0.996001
1.00535 0.996379 0.988931
1.00536 0.998582 0.986897
1.00546 1.00105 0.98481
1.00529 1.00136 0.984591
1.00547 1.00268 0.983186
1.00437 1.00369 0.98361
1.00543 1.00397 0.982489
1.00392 1.0035 0.984714
1.00224 1.00379 0.987203
1.00365 1.0036 0.985956
1.00158 1.00366 0.98845
1.00081 1.00192 0.996625
1.00087 1.00358 0.989755
1.00027 1.00111 0.997255
1.00001 0.999684 0.998032
1.0037 0.995023 0.9923
0.998869 0.994893 0.982946
0.996307 0.994809 0.959153
1.00535 0.994881 0.990293
1.00534 0.995341 0.989854
1.00531 0.994846 0.990776
1.00533 0.995403 0.98998
1.00532 0.996537 0.988703
1.00543 0.994758 0.990429
1.00525 0.995679 0.9901
1.00536 0.99492 0.990036
1.00534 0.994712 0.990841
1.00357 0.997257 0.991769
1.00521 0.994751 0.990769
1.003 0.99459 0.993528
1.00163 0.994828 0.99431
0.999448 0.994574 0.988431
1.00544 0.994793 0.991482
1.00519 0.995199 0.989464
1.00351 0.995092 0.976867
1.00372 0.994893 0.990774
1.00539 0.994672 0.991008
1.00543 0.994744 0.99089
1.00553 0.99482 0.991415
1.00541 0.994827 0.991347
1.00542 0.994856 0.990501
1.0054 0.994845 0.990807
1.00535 0.994873 0.991111
1.00541 0.994844 0.990579
1.00534 0.994869 0.990852
1.00528 0.994912 0.99114
1.00534 0.99489 0.990761
1.00529 0.994912 0.990994
1.00526 0.994901 0.991299
1.0053 0.994883 0.99092
1.00532 0.994909 0.991073
1.00533 0.996566 0.989607
1.00528 0.995162 0.99072
1.00534 0.99755 0.988531
1.00532 1.00032 0.985874
1.0053 0.998195 0.987903
1.00533 1.00086 0.985248
1.00353 1.00072 0.990081
1.00274 0.999885 0.992408
1.00361 1.00093 0.98884
1.00535 1.00149 0.984497
1.0023 1.0008 0.996111
1.00344 1.00148 0.987412
1.00211 1.00141 0.99601
1.0053 0.994873 0.991031
1.0053 0.995429 0.99032
1.00533 0.996425 0.989164
1.00529 0.999522 0.9864
1.00534 0.998331 0.987188
1.00541 1.00104 0.984745
1.00507 1.00293 0.983361
1.00547 1.00271 0.983073
1.00475 1.00331 0.983569
1.003 1.00307 0.986463
1.00431 1.00333 0.98471
1.00219 1.0038 0.987237
1.00148 1.00224 0.996079
1.00163 1.00375 0.98849
1.00068 1.00177 0.996804
0.999995 1.0009 0.997476
1.00537 0.994822 0.991265
1.00351 0.994951 0.991725
0.998883 0.995218 0.98044
1.00532 0.99481 0.990764
1.00535 0.99498 0.990236
1.0053 0.995185 0.990006
1.00531 0.994857 0.990791
1.00533 0.995578 0.989931
1.00537 0.99484 0.990829
1.0054 0.994751 0.990383
1.00533 0.995046 0.990034
1.00529 0.994725 0.99088
1.0052 0.994752 0.990413
1.00268 0.994521 0.993727
1.00534 0.994857 0.991414
1.00542 0.994812 0.991481
1.00538 0.994838 0.989461
1.00539 0.994734 0.990843
1.00558 0.994824 0.991522
1.00542 0.994843 0.991323
1.00534 0.994898 0.99138
1.00539 0.994846 0.990806
1.00534 0.994877 0.991071
1.00528 0.994921 0.991304
1.00534 0.994874 0.990852
1.00528 0.994912 0.991139
1.00517 0.99493 0.991512
1.0053 0.994912 0.990992
1.00528 0.994903 0.991274
1.00533 0.995833 0.990524
1.00531 0.994909 0.991034
1.00534 0.996583 0.989593
1.0053 0.999854 0.986441
1.00535 0.997593 0.988524
1.00532 1.0003 0.985908
1.00353 1.00055 0.990235
1.00535 1.00082 0.985279
1.00378 1.00057 0.98992
1.00275 0.999621 0.99253
1.00239 1.00022 0.994404
1.00381 1.00094 0.989577
1.00228 1.00068 0.99616
1.00529 0.994868 0.991016
1.00529 0.995175 0.990722
1.0053 0.994876 0.991061
1.0053 0.998104 0.987893
1.0053 0.995357 0.990435
1.00532 0.996504 0.989396
1.0053 0.999474 0.986379
1.00535 1.00162 0.984299
1.00538 1.00104 0.984681
1.00518 1.00283 0.983354
1.0034 1.00193 0.98707
1.00497 1.0032 0.983534
1.00298 1.00319 0.986536
1.00197 1.00181 0.99592
1.00217 1.00374 0.987276
1.00125 1.002 0.996299
1.00045 1.00171 0.996938
1.00534 0.99488 0.991097
1.00534 0.994823 0.991325
1.0029 0.994763 0.991175
1.0053 0.994888 0.990956
1.00532 0.99481 0.990718
1.00535 0.995068 0.99018
1.00532 0.994867 0.990803
1.00539 0.99485 0.990797
1.00537 0.994748 0.990337
1.00527 0.994742 0.990916
1.00536 0.994894 0.991392
1.00534 0.994859 0.991373
1.00539 0.994821 0.991479
1.00532 0.994917 0.991445
1.00542 0.994857 0.991299
1.00534 0.994897 0.991371
1.00528 0.994931 0.99143
1.00534 0.994878 0.99103
1.00528 0.994921 0.991309
1.00513 0.994959 0.991675
1.00528 0.994913 0.991138
1.00519 0.99493 0.991504
1.00532 0.995376 0.991112
1.0053 0.994904 0.991249
1.0053 0.995853 0.990522
1.00529 0.99948 0.986866
1.00535 0.996602 0.98958
1.00529 0.99984 0.986478
1.00348 1.00049 0.990323
1.00532 1.00027 0.985942
1.00375 1.00044 0.990052
1.00269 0.999691 0.99253
1.00401 1.00041 0.989765
1.00222 0.999774 0.992928
1.00164 1.00058 0.996819
1.00527 0.994918 0.991088
1.00531 0.994884 0.991085
1.00529 0.994874 0.991028
1.00532 0.99749 0.988541
1.0053 0.995043 0.990831
1.00529 0.994878 0.991094
1.00536 1.00055 0.985448
1.0053 0.998028 0.987899
1.0053 0.995283 0.990551
1.0053 0.999424 0.986357
1.00535 1.00167 0.984266
1.00342 1.00115 0.987924
1.00537 1.00269 0.983334
1.00334 1.00201 0.987051
1.00207 1.00112 0.996115
1.0029 1.00324 0.986587
1.0019 1.00181 0.995939
1.00109 1.00191 0.996529
1.00532 0.994909 0.991243
1.00537 0.994875 0.991026
1.00529 0.99482 0.991389
1.0053 0.994891 0.990963
1.00533 0.994808 0.990673
1.0054 0.994857 0.990764
1.00533 0.994919 0.991435
1.00536 0.994897 0.991399
1.00535 0.994862 0.991332
1.00532 0.994917 0.991459
1.00526 0.994944 0.991583
1.00534 0.994896 0.991362
1.00528 0.994934 0.991462
1.00512 0.994957 0.99172
1.00528 0.994922 0.991314
1.00514 0.994958 0.991675
1.0053 0.995123 0.991406
1.00521 0.99493 0.991496
1.00528 0.995418 0.99111
1.00533 0.999131 0.987188
1.00526 0.995872 0.99052
1.0053 0.999466 0.986889
1.00341 1.00045 0.99044
1.00528 0.999825 0.986517
1.0037 1.00041 0.990127
1.00256 0.999862 0.992514
1.00397 1.00033 0.989876
1.00221 0.999747 0.992949
1.00171 0.999956 0.993312
1.00525 0.994928 0.991284
1.00523 0.99493 0.991319
1.00526 0.994916 0.991062
1.00528 0.996507 0.989738
1.00531 0.994898 0.991048
1.00528 0.994883 0.991039
1.00529 0.999941 0.986278
1.00531 0.997101 0.988935
1.00532 0.994938 0.990941
1.00351 1.00056 0.988399
1.00534 1.00061 0.985409
1.0053 0.997959 0.987905
1.00535 1.00169 0.984233
1.00345 1.00111 0.987882
1.00212 1.00063 0.99626
1.0033 1.0022 0.987046
1.00213 1.00123 0.996037
1.00179 1.00176 0.996031
1.00529 0.994929 0.991444
1.00532 0.994906 0.991204
1.00539 0.994869 0.990955
1.00529 0.994896 0.99097
1.00524 0.994948 0.991606
1.00533 0.994917 0.991438
1.00535 0.994898 0.991407
1.00532 0.994917 0.991474
1.00526 0.994941 0.991586
1.00511 0.994954 0.991844
1.00528 0.994937 0.991495
1.00512 0.994959 0.991769
1.00529 0.995097 0.991481
1.00514 0.994957 0.991674
1.00528 0.995187 0.991401
1.00538 0.998806 0.987482
1.00524 0.995474 0.991108
1.00536 0.99911 0.987188
1.00343 1.00038 0.98879
1.00531 0.999453 0.986911
1.00362 1.00041 0.989355
1.00219 0.999955 0.996251
1.00392 1.00033 0.989931
1.00213 0.999873 0.992935
1.00176 0.999791 0.993351
1.00524 0.994945 0.991439
1.00519 0.99494 0.991469
1.00525 0.994931 0.991319
1.00526 0.995675 0.990786
1.00522 0.994931 0.991275
1.00526 0.994914 0.991036
1.00524 0.998991 0.987468
1.00528 0.996479 0.989737
1.00532 0.994908 0.991011
1.00357 1.00028 0.988613
1.00529 0.999662 0.986558
1.00531 0.996688 0.989327
1.0022 1.00019 0.996334
1.00354 1.00052 0.988364
1.00533 1.00066 0.985367
1.00348 1.00107 0.987843
1.00217 1.00065 0.996218
1.00215 1.00129 0.995944
1.00523 0.99495 0.991525
1.00529 0.99493 0.991429
1.00531 0.994906 0.991165
1.00511 0.994953 0.991909
1.00524 0.994946 0.991578
1.00533 0.994916 0.991441
1.00526 0.994938 0.991589
1.00511 0.994953 0.991841
1.0053 0.99578 0.990801
1.00512 0.99496 0.991819
1.00529 0.995452 0.991134
1.00539 0.997926 0.988453
1.00527 0.995237 0.991394
1.00539 0.998786 0.987477
1.00338 1.00016 0.989099
1.00538 0.999092 0.987191
1.00347 1.00035 0.988797
1.00208 1.00002 0.996279
1.00369 1.00039 0.98845
1.002 1.00001 0.994685
1.0017 0.999866 0.993355
1.0052 0.994947 0.991588
1.00515 0.994953 0.991674
1.00523 0.994943 0.991452
1.00526 0.99563 0.990925
1.00518 0.994942 0.991502
1.00525 0.994934 0.991354
1.00531 0.998646 0.987718
1.00527 0.995942 0.99042
1.00522 0.994931 0.991231
1.00358 1.00025 0.988658
1.00523 0.998914 0.987508
1.00528 0.996449 0.989736
1.00224 0.99996 0.996326
1.00357 1.00029 0.988595
1.00529 0.999375 0.98684
1.00225 1.00022 0.996309
1.00357 1.00048 0.988328
1.00218 1.00071 0.996185
1.00513 0.994954 0.991793
1.00523 0.994948 0.991553
1.0053 0.994931 0.991413
1.00533 0.995804 0.990748
1.00511 0.994953 0.991872
1.00524 0.994945 0.991549
1.00512 0.994952 0.991838
1.0053 0.995763 0.990801
1.00538 0.997813 0.988576
1.00529 0.995802 0.990786
1.00539 0.998239 0.988071
1.00333 0.999957 0.989374
1.0054 0.998764 0.98747
1.00338 1.00017 0.989106
1.00195 1.00002 0.996344
1.00348 1.00032 0.988801
1.00203 1.00003 0.996298
1.0021 1.00001 0.992759
1.00512 0.994953 0.991761
1.0052 0.994945 0.991525
1.00527 0.995527 0.991066
1.00515 0.994954 0.991677
1.00523 0.994941 0.991464
1.00533 0.999097 0.98715
1.00528 0.995549 0.990925
1.00517 0.994944 0.991534
1.00353 1.00028 0.988736
1.0053 0.998955 0.987366
1.00528 0.996217 0.990055
1.0022 0.99993 0.996285
1.00356 1.00028 0.988656
1.00523 0.998838 0.98755
1.00227 0.999982 0.996333
1.00357 1.0003 0.988573
1.00232 1.00023 0.996281
1.00533 0.995888 0.990623
1.00513 0.994954 0.991823
1.00522 0.994947 0.991581
1.00537 0.997864 0.988535
1.00532 0.995802 0.990746
1.00512 0.994952 0.991835
1.00529 0.995748 0.9908
1.00539 0.997785 0.988565
1.00327 0.99984 0.9896
1.0054 0.998559 0.987689
1.00334 0.999958 0.989379
1.00186 1 0.996419
1.00339 1.00018 0.989117
1.0019 1.00005 0.996379
1.00198 1.00005 0.996325
1.00529 0.995437 0.991175
1.00513 0.994954 0.991742
1.00519 0.994943 0.991461
1.00535 0.99892 0.987341
1.00528 0.995461 0.991067
1.00515 0.994955 0.991679
1.00344 1.00025 0.988924
1.00533 0.999127 0.987154
1.00529 0.995467 0.990925
1.00208 0.999989 0.996272
1.00351 1.00032 0.988737
1.00529 0.999259 0.987013
1.00224 0.999934 0.9963
1.00354 1.00032 0.98865
1.00233 0.999976 0.996331
1.00537 0.998574 0.987703
1.00532 0.995593 0.990977
1.00513 0.994953 0.991852
1.00324 0.999769 0.989754
1.00538 0.997824 0.988541
1.00531 0.995797 0.990743
1.0054 0.997751 0.988553
1.0033 0.999812 0.989602
1.00179 0.999994 0.996464
1.00334 0.99996 0.989384
1.00183 1.00001 0.996431
1.00184 1.00007 0.996405
1.00536 0.998744 0.987543
1.0053 0.995402 0.9912
1.00513 0.994954 0.991723
1.00353 1.00012 0.990645
1.00534 0.998938 0.987349
1.00529 0.995396 0.991068
1.00196 1.00004 0.996308
1.00342 1.00028 0.988925
1.00531 0.999158 0.98716
1.00214 0.999979 0.996277
1.00349 1.00035 0.988738
1.00228 0.999926 0.996315
1.00337 0.999772 0.989605
1.00536 0.998271 0.988063
1.00532 0.995304 0.991332
1.00171 0.999976 0.996527
1.00324 0.999752 0.989744
1.00539 0.997788 0.988549
1.00331 0.999783 0.9896
1.00176 0.999986 0.996485
1.0018 1.00003 0.996448
1.00357 0.999943 0.990814
1.00535 0.99875 0.98755
1.00531 0.995366 0.991225
1.0013 1.00008 0.997032
1.00335 1.00014 0.989188
1.00533 0.998954 0.98736
1.002 1.00003 0.996302
1.0034 1.00032 0.988925
1.00219 0.999965 0.996281
1.0017 0.999894 0.993459
1.00339 0.999796 0.990331
1.00536 0.997958 0.988418
1.00173 0.999975 0.996534
1.00326 0.99974 0.989742
1.00178 0.999977 0.996502
1.00111 1.00003 0.993984
1.00344 0.999907 0.990136
1.00534 0.99876 0.987555
1.00155 1.00006 0.995095
1.00332 1.00015 0.989211
1.00204 1.00002 0.996297
1.00173 0.999969 0.996526
1.00323 0.999795 0.989714
1.0017 0.999968 0.996532
1.00147 0.999959 0.995251
1.0033 0.999901 0.989517
1.00189 1.00005 0.996351
1.00174 0.999985 0.996518
1.00178 1 0.996441

TENSORS stress float
0.0026839 -0.000191045 0.000312262
-0.000191045 0.00141257 -5.86264e-05
0.000312262 -5.86264e-05 0.00138392
0.00817956 0.000174589 0.000384498
0.000174589 0.00498349 4.98149e-05
0.000384498 4.98149e-05 0.00500062
0.00227513 -0.000120621 0.000123451
-0.000120621 0.00114139 -2.22101e-05
0.000123451 -2.22101e-05 0.00109748
0.00248767 -0.000106386 0.000292307
-0.000106386 0.00126844 -3.30355e-05
0.000292307 -3.30355e-05 0.00125221
0.00265221 -0.000166047 0.000302677
-0.000166047 0.00138481 -5.0903e-05
0.000302677 -5.0903e-05 0.00136028
0.00277569 -0.000200623 0.00032674
-0.000200623 0.00147074 -6.19065e-05
0.00032674 -6.19065e-05 0.00144243
0.00217532 -0.00022916 6.2396e-05
-0.00022916 0.000914729 -1.62958e-05
6.2396e-05 -1.62958e-05 0.000761472
0.00833646 0.000167537 -9.94106e-06
0.000167537 0.00507559 -3.44036e-06
-9.94106e-06 -3.44036e-06 0.00509684
0.0073006 0.000282198 0.000188342
0.000282198 0.00443455 2.18922e-05
0.000188342 2.18922e-05 0.00439974
0.00764944 9.42436e-05 0.000130119
9.42436e-05 0.00461427 9.36184e-06
0.000130119 9.36184e-06 0.0045932
0.00205634 0.000265342 0.000347724
0.000265342 0.00103071 5.4904e-05
0.000347724 5.4904e-05 0.00100798
0.000259881 0.000300208 2.58465e-05
0.000300208 -0.000256251 2.34733e-05
2.58465e-05 2.34733e-05 -0.000449985
0.00200912 -2.87759e-05 0.000281413
-2.87759e-05 0.000955369 5.69049e-06
0.000281413 5.69049e-06 0.000961703
0.00176734 8.64525e-06 8.03055e-05
8.64525e-06 0.000825156 3.45469e-06
8.03055e-05 3.45469e-06 0.000772337
0.00194128 -0.000118342 -7.73494e-05
-0.000118342 0.000940122 1.49359e-05
-7.73494e-05 1.49359e-05 0.000871277
0.00213798 -0.000103862 9.37471e-05
-0.000103862 0.00106199 -6.4267e-06
9.37471e-05 -6.4267e-06 0.00102222
0.00234569 -0.000113641 0.000136132
-0.000113641 0.00118905 -2.52979e-05
0.000136132 -2.52979e-05 0.00114263
0.00223897 -0.000121758 0.000110397
-0.000121758 0.00111895 -1.64625e-05
0.000110397 -1.64625e-05 0.00107708
0.00230051 -0.000265628 -4.8329e-05
-0.000265628 0.000996978 8.42019e-06
-4.8329e-05 8.42019e-06 0.000853866
0.00675883 -0.000174002 0.00037512
-0.000174002 0.00408797 -1.97711e-05
0.00037512 -1.97711e-05 0.00411575
0.00235265 -8.03909e-05 0.000285356
-8.03909e-05 0.00118226 -2.48274e-05
0.000285356 -2.48274e-05 0.0011701
0.00257737 -0.000135485 0.000296156
-0.000135485 0.00133039 -4.19563e-05
0.000296156 -4.19563e-05 0.00131035
0.00208753 -0.000177379 7.74321e-05
-0.000177379 0.000893925 -1.29804e-05
7.74321e-05 -1.29804e-05 0.000777808
0.00215839 -0.000219464 6.96306e-05
-0.000219464 0.00090778 -1.58362e-05
6.96306e-05 -1.58362e-05 0.000769901
0.00268562 -0.000182904 0.000333408
-0.000182904 0.00140688 -5.95464e-05
0.000333408 -5.95464e-05 0.00138241
0.00220662 -0.000238451 5.91745e-05
-0.000238451 0.00094419 -1.72326e-05
5.91745e-05 -1.72326e-05 0.000771039
0.00217084 -0.000468859 1.72236e-05
-0.000468859 0.00058591 -6.51492e-06
1.72236e-05 -6.51492e-06 0.000294518
0.00839774 0.000166606 -0.000414149
0.000166606 0.0051034 -4.2723e-05
-0.000414149 -4.2723e-05 0.00513237
0.00485762 0.000206584 -0.000168615
0.000206584 0.00283035 -2.12523e-05
-0.000168615 -2.12523e-05 0.00280463
0.00501916 0.000148529 -0.000178145
0.000148529 0.00293063 -2.22477e-05
-0.000178145 -2.22477e-05 0.00290823
0.00865256 0.000107956 -3.29068e-06
0.000107956 0.00528194 -2.10903e-06
-3.29068e-06 -2.10903e-06 0.00530433
0.000247865 0.000286386 -1.41092e-06
0.000286386 -0.000256288 -1.19666e-06
-1.41092e-06 -1.19666e-06 -0.000447732
0.00216505 8.27964e-05 0.000294806
8.27964e-05 0.00105458 3.05949e-05
0.000294806 3.05949e-05 0.00104481
0.0022814 0.000175184 0.000307699
0.000175184 0.00115841 4.81101e-05
0.000307699 4.81101e-05 0.00113462
0.00302774 0.000271864 0.000178952
0.000271864 0.00147052 2.82401e-05
0.000178952 2.82401e-05 0.00136137
0.0081269 -0.000204923 6.34518e-05
-0.000204923 0.00499438 4.04991e-06
6.34518e-05 4.04991e-06 0.00494919
0.00319841 0.00037502 0.000195529
0.00037502 0.00163171 3.7502e-05
0.000195529 3.7502e-05 0.00149124
0.000206952 0.000274901 2.60763e-05
0.000274901 -0.000271324 3.2691e-05
2.60763e-05 3.2691e-05 -0.000466445
0.0013657 0.000488758 3.01472e-05
0.000488758 0.000195845 5.67122e-06
3.01472e-05 5.67122e-06 -0.000160928
0.00644218 -9.60004e-05 0.000246991
-9.60004e-05 0.00396573 3.24741e-05
0.000246991 3.24741e-05 0.00395772
0.00668142 9.23223e-05 2.96743e-06
9.23223e-05 0.00402109 -2.20784e-06
2.96743e-06 -2.20784e-06 0.00405859
0.00440845 0.000106842 -0.000141615
0.000106842 0.00253949 -7.03369e-06
-0.000141615 -7.03369e-06 0.00252977
0.00654914 5.72707e-05 0.00036336
5.72707e-05 0.00393742 5.29054e-06
0.00036336 5.29054e-06 0.00397624
0.00166025 9.32469e-05 8.23133e-05
9.32469e-05 0.000760303 6.59599e-06
8.23133e-05 6.59599e-06 0.000711425
0.000424822 1.65989e-05 1.23768e-05
1.65989e-05 -0.000190448 2.8124e-06
1.23768e-05 2.8124e-06 -0.000288254
0.00691912 0.000254611 0.000211328
0.000254611 0.0042104 2.18519e-05
0.000211328 2.18519e-05 0.00418365
0.00298443 0.00010243 0.00016369
0.00010243 0.00144815 1.2389e-05
0.00016369 1.2389e-05 0.00138222
0.00177302 -0.000104747 -9.6038e-05
-0.000104747 0.000846317 1.34848e-05
-9.6038e-05 1.34848e-05 0.000782457
0.00182294 -0.000136953 -8.95461e-05
-0.000136953 0.000877171 1.71382e-05
-8.95461e-05 1.71382e-05 0.000806213
0.00202641 -8.30097e-05 -6.5455e-05
-8.30097e-05 0.000984467 1.25768e-05
-6.5455e-05 1.25768e-05 0.000917464
0.00238449 -0.000267009 -0.000166179
-0.000267009 0.00104 3.30508e-05
-0.000166179 3.30508e-05 0.00091213
0.00427475 -4.40236e-05 -0.000144475
-4.40236e-05 0.00246123 -8.22309e-07
-0.000144475 -8.22309e-07 0.00245215
0.00206441 -8.26127e-05 9.66359e-05
-8.26127e-05 0.00101198 -4.9825e-06
9.66359e-05 -4.9825e-06 0.000977504
0.00248751 -8.90191e-05 0.000140542
-8.90191e-05 0.00127699 -2.40091e-05
0.000140542 -2.40091e-05 0.0012293
0.00218668 -0.000112463 0.000100324
-0.000112463 0.00108907 -1.06632e-05
0.000100324 -1.06632e-05 0.00104853
0.00217066 -0.000154685 -3.94663e-05
-0.000154685 0.000933242 3.51901e-06
-3.94663e-05 3.51901e-06 0.000832531
0.00232631 -0.000286041 -5.57722e-05
-0.000286041 0.00102102 9.8451e-06
-5.57722e-05 9.8451e-06 0.000859789
0.00224765 -0.000233602 -4.29515e-05
-0.000233602 0.000963142 6.24963e-06
-4.29515e-05 6.24963e-06 0.000836379
0.00231049 -0.000479953 -1.03351e-05
-0.000479953 0.000676176 2.78007e-06
-1.03351e-05 2.78007e-06 0.000385156
0.00656676 -1.98198e-05 0.000361401
-1.98198e-05 0.00394551 -5.28614e-06
0.000361401 -5.28614e-06 0.00398561
0.0022669 -5.36993e-05 0.000279215
-5.36993e-05 0.00112941 -1.75275e-05
0.000279215 -1.75275e-05 0.00112251
0.0025325 -3.07896e-05 6.06031e-05
-3.07896e-05 0.00119811 -1.30952e-06
6.06031e-05 -1.30952e-06 0.0011216
0.00200687 -0.000140185 6.96568e-05
-0.000140185 0.000846099 -8.66592e-06
6.96568e-05 -8.66592e-06 0.000742908
0.00211327 -0.00019807 7.46619e-05
-0.00019807 0.00089349 -1.48726e-05
7.46619e-05 -1.48726e-05 0.000767836
0.00202095 -0.00028877 2.03431e-06
-0.00028877 0.000415632 -1.77146e-06
2.03431e-06 -1.77146e-06 0.000225209
0.00208614 -0.000414741 1.23663e-05
-0.000414741 0.000479024 -3.72955e-06
1.23663e-05 -3.72955e-06 0.000232401
0.00274889 -0.000151697 0.000336392
-0.000151697 0.00144025 -5.42476e-05
0.000336392 -5.42476e-05 0.00141572
0.00220524 -0.000196654 5.09867e-05
-0.000196654 0.000980816 -1.57256e-05
5.09867e-05 -1.57256e-05 0.000801284
0.00211903 -0.000524778 2.06814e-05
-0.000524778 0.000587236 -6.49822e-06
2.06814e-05 -6.49822e-06 0.00024881
0.00212186 -0.000629169 1.54683e-06
-0.000629169 0.000297636 2.55462e-06
1.54683e-06 2.55462e-06 -3.22822e-05
0.00778884 0.000337228 -0.000421946
0.000337228 0.00474454 -5.43236e-05
-0.000421946 -5.43236e-05 0.00475485
0.00854157 6.90539e-05 -0.000374595
6.90539e-05 0.00521299 -3.5755e-05
-0.000374595 -3.5755e-05 0.0052353
0.00802404 0.000226567 -0.000401415
0.000226567 0.00486768 -4.63134e-05
-0.000401415 -4.63134e-05 0.00489182
0.000184532 0.000268558 -2.54933e-05
0.000268558 -0.000289325 -2.32114e-05
-2.54933e-05 -2.32114e-05 -0.00047993
0.00745234 0.000279622 -2.07186e-06
0.000279622 0.0045214 -2.79398e-06
-2.07186e-06 -2.79398e-06 0.00453946
0.00784086 0.000306491 -8.02761e-06
0.000306491 0.00476619 -3.98253e-06
-8.02761e-06 -3.98253e-06 0.00477906
0.00036266 0.000181613 1.85534e-07
0.000181613 -0.000267734 -3.03263e-07
1.85534e-07 -3.03263e-07 -0.000418649
0.00469029 -8.55139e-06 -0.000165054
-8.55139e-06 0.0027646 -1.18591e-05
-0.000165054 -1.18591e-05 0.00273192
0.000313602 0.000265525 1.85269e-06
0.000265525 -0.000246058 -4.00476e-07
1.85269e-06 -4.00476e-07 -0.000428442
0.00203703 0.00031527 8.34568e-05
0.00031527 0.000916505 5.59549e-06
8.34568e-05 5.59549e-06 0.000752804
0.00128471 0.00049455 9.81535e-07
0.00049455 0.000125721 3.23744e-07
9.81535e-07 3.23744e-07 -0.000235808
0.00724574 -5.37855e-05 0.000303063
-5.37855e-05 0.00446178 3.8982e-05
0.000303063 3.8982e-05 0.00446076
0.000462109 0.000186794 3.19693e-05
0.000186794 -6.29472e-05 1.72318e-05
3.19693e-05 1.72318e-05 -0.000176161
0.000454838 0.000142942 1.37763e-05
0.000142942 -0.000214782 1.22086e-05
1.37763e-05 1.22086e-05 -0.000351805
0.000452392 0.000216042 1.81929e-05
0.000216042 -0.000200267 2.06677e-05
1.81929e-05 2.06677e-05 -0.000364275
0.0015604 0.000397892 1.27509e-05
0.000397892 7.48853e-05 4.10973e-06
1.27509e-05 4.10973e-06 -0.000181353
0.00370202 0.000332279 0.000195766
0.000332279 0.00202456 3.50669e-05
0.000195766 3.50669e-05 0.00189913
0.00147776 0.00048289 2.57331e-05
0.00048289 0.000155211 6.39454e-06
2.57331e-05 6.39454e-06 -0.000172539
0.000728169 0.000429416 2.68729e-05
0.000429416 -0.000110925 5.02958e-06
2.68729e-05 5.02958e-06 -0.000471788
0.00189231 0.000725592 8.56491e-06
0.000725592 0.000323111 -6.21323e-06
8.56491e-06 -6.21323e-06 -0.000124605
0.00533888 -0.000147177 0.0001739
-0.000147177 0.00324694 2.00212e-05
0.0001739 2.00212e-05 0.00323253
0.00597443 -0.000152831 1.10725e-05
-0.000152831 0.00366272 3.53575e-06
1.10725e-05 3.53575e-06 0.00364598
0.00717283 8.64456e-05 -0.000384951
8.64456e-05 0.00432187 -2.2008e-05
-0.000384951 -2.2008e-05 0.00435759
0.0067872 8.45247e-05 -0.000375637
8.45247e-05 0.00408468 -1.3528e-05
-0.000375637 -1.3528e-05 0.00412365
0.0066388 8.37707e-05 -2.48968e-07
8.37707e-05 0.0039996 -4.56624e-06
-2.48968e-07 -4.56624e-06 0.00403609
0.00426961 4.85097e-05 -0.000152591
4.85097e-05 0.00244824 -8.98172e-06
-0.000152591 -8.98172e-06 0.00244468
0.00155084 4.59797e-05 7.23964e-05
4.59797e-05 0.0005411 2.35597e-06
7.23964e-05 2.35597e-06 0.000464996
0.00461469 0.000170913 -0.000146125
0.000170913 0.00267886 -9.5632e-06
-0.000146125 -9.5632e-06 0.00265985
0.00164909 0.000115355 7.36952e-05
0.000115355 0.000581834 4.2408e-06
7.36952e-05 4.2408e-06 0.000489096
0.00660447 0.000107308 0.000367745
0.000107308 0.00398469 7.32443e-06
0.000367745 7.32443e-06 0.00401714
0.000291145 1.04164e-05 1.59289e-05
1.04164e-05 -0.000268751 1.64969e-06
1.59289e-05 1.64969e-06 -0.000362152
0.00293438 5.72672e-05 0.000162143
5.72672e-05 0.00142774 8.62156e-06
0.000162143 8.62156e-06 0.001371
0.00133702 9.49452e-05 3.23101e-06
9.49452e-05 -6.35549e-05 9.19719e-07
3.23101e-06 9.19719e-07 -0.000195672
0.00290588 0.00015863 0.000169951
0.00015863 0.00138833 1.6158e-05
0.000169951 1.6158e-05 0.00130987
0.00145748 0.000200588 1.84725e-06
0.000200588 -1.81048e-05 1.03788e-06
1.84725e-06 1.03788e-06 -0.000180109
0.00203921 3.49406e-05 -0.000282261
3.49406e-05 0.000969687 5.03342e-06
-0.000282261 5.03342e-06 0.000979247
0.00173638 -3.38481e-05 -8.2038e-05
-3.38481e-05 0.000811886 4.9488e-06
-8.2038e-05 4.9488e-06 0.00075694
0.00211161 -5.14509e-05 -5.95502e-05
-5.14509e-05 0.00103354 1.13975e-05
-5.95502e-05 1.13975e-05 0.000966316
0.00176887 -0.000122474 -9.71535e-05
-0.000122474 0.000844738 1.63002e-05
-9.71535e-05 1.63002e-05 0.000777872
0.00227925 -0.000131537 -0.000151337
-0.000131537 0.000989821 1.59893e-05
-0.000151337 1.59893e-05 0.000904526
0.00236222 -0.000219355 -0.000159196
-0.000219355 0.00102267 2.73425e-05
-0.000159196 2.73425e-05 0.000912592
0.00246709 -0.000312771 -0.000176057
-0.000312771 0.00111301 3.64235e-05
-0.000176057 3.64235e-05 0.000963123
0.00245855 -0.000493324 -3.48057e-05
-0.000493324 0.000772032 1.10271e-05
-3.48057e-05 1.10271e-05 0.000480719
0.00666456 -0.000126088 2.67795e-06
-0.000126088 0.00402462 -2.17264e-06
2.67795e-06 -2.17264e-06 0.00405563
0.00195618 1.14421e-05 0.000103317
1.14421e-05 0.00093027 -5.97794e-06
0.000103317 -5.97794e-06 0.000908053
0.00121609 -2.25575e-05 -7.60886e-05
-2.25575e-05 0.000328315 3.14115e-06
-7.60886e-05 3.14115e-06 0.000252483
0.00209295 -0.000104764 -4.14485e-05
-0.000104764 0.000891221 3.98729e-06
-4.14485e-05 3.98729e-06 0.000801779
0.00582242 -0.000136161 0.000335422
-0.000136161 0.00344422 -3.34997e-05
0.000335422 -3.34997e-05 0.00344142
0.00287028 -0.000288653 -5.26975e-05
-0.000288653 0.00141358 6.31499e-06
-5.26975e-05 6.31499e-06 0.0012504
0.00220645 -0.000193347 -3.96504e-05
-0.000193347 0.000944638 4.60729e-06
-3.96504e-05 4.60729e-06 0.000832645
0.0021447 -0.000292576 -8.81109e-06
-0.000292576 0.000495656 2.05807e-06
-8.81109e-06 2.05807e-06 0.000312023
0.00236764 -0.000550426 -8.65079e-06
-0.000550426 0.000762759 2.67245e-06
-8.65079e-06 2.67245e-06 0.000420661
0.00220007 -0.000421761 -1.04688e-05
-0.000421761 0.000557245 3.0442e-06
-1.04688e-05 3.0442e-06 0.000306566
0.00215037 -0.000631351 1.01915e-06
-0.000631351 0.000320403 -8.80412e-08
1.01915e-06 -8.80412e-08 -9.8356e-06
0.000305573 3.03537e-06 1.68143e-05
3.03537e-06 -0.000264364 -6.33688e-08
1.68143e-05 -6.33688e-08 -0.000354915
0.00191729 -2.88938e-05 6.13584e-05
-2.88938e-05 0.000782778 -3.23829e-06
6.13584e-05 -3.23829e-06 0.000698256
0.00206697 -0.00010672 1.2308e-06
-0.00010672 0.000444812 2.85205e-07
1.2308e-06 2.85205e-07 0.000328522
0.00206502 -0.000234132 1.24979e-07
-0.000234132 0.000451624 -4.63638e-07
1.24979e-07 -4.63638e-07 0.000295704
0.00220169 -0.000357519 7.42733e-06
-0.000357519 0.000531861 -1.84593e-06
7.42733e-06 -1.84593e-06 0.000323442
0.00213221 -0.000408543 5.90672e-07
-0.000408543 0.000124298 -1.7724e-07
5.90672e-07 -1.7724e-07 -4.87733e-05
0.00804622 -1.43084e-05 0.000320996
-1.43084e-05 0.00491901 -3.20045e-05
0.000320996 -3.20045e-05 0.00492952
0.00202284 -0.00056867 2.30137e-06
-0.00056867 0.000159681 1.67935e-06
2.30137e-06 1.67935e-06 -0.000118635
0.000460051 -0.000260248 2.29178e-05
-0.000260248 -0.000141931 -2.8814e-05
2.29178e-05 -2.8814e-05 -0.000322254
0.00114877 -0.000509301 1.87412e-05
-0.000509301 3.82355e-05 -5.64165e-06
1.87412e-05 -5.64165e-06 -0.000350735
0.00229778 -0.000699716 -3.08474e-07
-0.000699716 0.000485044 3.5769e-06
-3.08474e-07 3.5769e-06 9.51585e-05
0.0021964 -0.000696736 1.48102e-06
-0.000696736 0.000252804 3.08252e-06
1.48102e-06 3.08252e-06 -4.93523e-05
0.000284752 -0.000201868 2.12755e-05
-0.000201868 -0.000185784 -2.46959e-05
2.12755e-05 -2.46959e-05 -0.000343046
0.00156106 -0.00023837 -1.14155e-06
-0.00023837 0.000653228 -4.32126e-06
-1.14155e-06 -4.32126e-06 0.000356765
0.00759314 0.000307535 -0.000420414
0.000307535 0.00461787 -4.86116e-05
-0.000420414 -4.86116e-05 0.00463275
0.00798275 0.000305287 -0.000418915
0.000305287 0.004856 -5.33506e-05
-0.000418915 -5.33506e-05 0.00487293
0.00033228 0.000181984 -1.73886e-05
0.000181984 -0.000288361 -1.49482e-05
-1.73886e-05 -1.49482e-05 -0.000440836
0.00779174 -2.11028e-05 -0.000310357
-2.11028e-05 0.00477146 -2.85396e-05
-0.000310357 -2.85396e-05 0.00478319
0.000116532 0.000244859 -2.38904e-05
0.000244859 -0.000327264 -2.61866e-05
-2.38904e-05 -2.61866e-05 -0.000503889
0.000283435 0.000255477 -2.13802e-05
0.000255477 -0.000264422 -2.203e-05
-2.13802e-05 -2.203e-05 -0.000447304
0.00125433 0.000499918 -3.34223e-05
0.000499918 9.27989e-05 -6.35382e-06
-3.34223e-05 -6.35382e-06 -0.000272536
0.0071347 -5.67557e-05 -1.11564e-05
-5.67557e-05 0.00438363 1.55031e-06
-1.11564e-05 1.55031e-06 0.00438525
0.00073454 0.000161661 2.24729e-06
0.000161661 0.000111274 3.60657e-07
2.24729e-06 3.60657e-07 1.57026e-06
0.00174801 0.000192729 7.7696e-05
0.000192729 0.000628471 7.66727e-06
7.7696e-05 7.66727e-06 0.000509921
0.00178999 0.00027357 8.24377e-05
0.00027357 0.000678857 9.73792e-06
8.24377e-05 9.73792e-06 0.000532036
0.00152409 0.000395229 -1.48164e-07
0.000395229 5.8688e-05 -4.03409e-07
-1.48164e-07 -4.03409e-07 -0.000198551
9.4033e-05 0.000237036 -4.2646e-07
0.000237036 -0.000314904 -2.63322e-07
-4.2646e-07 -2.63322e-07 -0.000479395
0.00143052 0.000478709 5.82439e-07
0.000478709 0.000124702 -5.75092e-09
5.82439e-07 -5.75092e-09 -0.000203459
0.000949205 0.000432248 4.06851e-06
0.000432248 2.36303e-05 -1.76285e-06
4.06851e-06 -1.76285e-06 -0.000331877
0.00193295 0.000736559 -2.03816e-06
0.000736559 0.000345667 1.14509e-07
-2.03816e-06 1.14509e-07 -0.000100941
0.000442779 0.000221363 2.29054e-05
0.000221363 -8.98981e-05 2.30365e-05
2.29054e-05 2.30365e-05 -0.000227014
0.000760278 0.000101309 1.61905e-05
0.000101309 0.000168723 1.81263e-05
1.61905e-05 1.81263e-05 6.49044e-05
0.000122631 0.000330977 2.70663e-06
0.000330977 -0.000215207 -6.69539e-07
2.70663e-06 -6.69539e-07 -0.000492158
0.00150893 0.000332141 8.48611e-06
0.000332141 1.43117e-05 2.88538e-06
8.48611e-06 2.88538e-06 -0.000204813
0.00155213 0.000449676 1.88459e-05
0.000449676 0.000121571 5.65892e-06
1.88459e-05 5.65892e-06 -0.000172049
0.0022974 0.000601851 4.11518e-06
0.000601851 0.000313786 -1.78689e-06
4.11518e-06 -1.78689e-06 3.55497e-05
0.00040297 0.000338436 1.09206e-05
0.000338436 -0.000184963 6.09525e-06
1.09206e-05 6.09525e-06 -0.000510778
0.00227762 0.000742151 2.84922e-06
0.000742151 0.000471577 -5.19812e-06
2.84922e-06 -5.19812e-06 7.8926e-05
0.00209258 0.000819943 5.158e-06
0.000819943 0.000629225 -9.22645e-06
5.158e-06 -9.22645e-06 8.87378e-05
0.00191049 0.000769223 -1.09705e-05
0.000769223 0.000223136 -1.01398e-05
-1.09705e-05 -1.01398e-05 -0.000200101
0.00457599 -0.000151043 0.000111814
-0.000151043 0.00272971 1.12274e-05
0.000111814 1.12274e-05 0.00271672
0.00508552 -0.000182497 1.60211e-05
-0.000182497 0.00307781 4.84814e-08
1.60211e-05 4.84814e-08 0.00305555
0.00564886 -0.000198362 -0.000144183
-0.000198362 0.00344875 -1.3207e-05
-0.000144183 -1.3207e-05 0.0034225
0.000514546 -0.00021748 2.52524e-05
-0.00021748 -2.46975e-05 -2.04625e-05
2.52524e-05 -2.04625e-05 -0.000159496
0.00706239 4.19506e-05 0.000269835
4.19506e-05 0.00432255 -2.92804e-05
0.000269835 -2.92804e-05 0.00432489
0.0074074 0.000248925 -0.000412756
0.000248925 0.00449062 -3.91723e-05
-0.000412756 -3.91723e-05 0.00451429
0.00689627 0.000115174 -0.000377398
0.000115174 0.00415203 -1.90098e-05
-0.000377398 -1.90098e-05 0.00418813
0.000292108 0.00011717 -1.58203e-05
0.00011717 -0.000300602 -7.33988e-06
-1.58203e-05 -7.33988e-06 -0.000416002
0.000255997 4.86396e-05 -1.58479e-05
4.86396e-05 -0.000297763 -3.70638e-06
-1.58479e-05 -3.70638e-06 -0.000396798
0.00658328 -1.37195e-06 -0.000361322
-1.37195e-06 0.00395521 -3.92462e-06
-0.000361322 -3.92462e-06 0.00399523
0.00653243 -5.01755e-06 1.79678e-07
-5.01755e-06 0.00392343 -1.3558e-06
1.79678e-07 -1.3558e-06 0.00396384
0.000263555 2.26925e-06 -2.04334e-07
2.26925e-06 -0.00029005 1.91029e-07
-2.04334e-07 1.91029e-07 -0.000381841
0.00157749 5.56659e-05 7.33092e-05
5.56659e-05 0.000545558 3.65162e-06
7.33092e-05 3.65162e-06 0.000464848
0.00133781 9.83809e-05 4.94728e-08
9.83809e-05 -5.88925e-05 -6.76024e-09
4.94728e-08 -6.76024e-09 -0.000191821
0.000352388 0.000116257 -8.90672e-07
0.000116257 -0.000270905 -4.29747e-07
-8.90672e-07 -4.29747e-07 -0.000397183
0.0014048 0.000200252 -2.2251e-07
0.000200252 -4.0206e-05 -1.41534e-07
-2.2251e-07 -1.41534e-07 -0.000203535
0.000253175 -3.38803e-05 1.66832e-05
-3.38803e-05 -0.000296832 -1.9167e-07
1.66832e-05 -1.9167e-07 -0.000385869
0.00129252 4.21574e-05 2.92675e-06
4.21574e-05 -7.55318e-05 6.77011e-07
2.92675e-06 6.77011e-07 -0.000201084
0.00137735 0.000149586 2.30624e-06
0.000149586 -5.3893e-05 1.04821e-06
2.30624e-06 1.04821e-06 -0.000198493
0.00218511 0.000151756 1.45495e-06
0.000151756 9.28025e-05 7.94326e-07
1.45495e-06 7.94326e-07 2.76348e-05
0.0014897 0.000264572 4.83782e-06
0.000264572 -1.00404e-07 1.94763e-06
4.83782e-06 1.94763e-06 -0.000187209
0.00218905 0.000331754 2.50941e-06
0.000331754 0.000112455 2.50665e-07
2.50941e-06 2.50665e-07 -1.92527e-06
0.00657194 -8.8424e-05 -0.000365752
-8.8424e-05 0.00395894 5.97388e-06
-0.000365752 5.97388e-06 0.00399366
0.00162684 -0.000169757 -8.18635e-05
-0.000169757 0.000765171 1.11228e-05
-8.18635e-05 1.11228e-05 0.00070177
-0.000215253 -1.21135e-05 -8.07567e-06
-1.21135e-05 -0.00059761 1.24692e-06
-8.07567e-06 1.24692e-06 -0.000703413
0.00220784 -9.48111e-05 -0.000146909
-9.48111e-05 0.000957356 1.12492e-05
-0.000146909 1.12492e-05 0.000880721
0.00874722 0.000150075 -8.45126e-05
0.000150075 0.00533225 4.03859e-06
-8.45126e-05 4.03859e-06 0.00529436
0.00313225 -0.000346667 -0.000178595
-0.000346667 0.00159131 3.73361e-05
-0.000178595 3.73361e-05 0.00143963
0.0023304 -0.000173391 -0.000154543
-0.000173391 0.00100939 2.13287e-05
-0.000154543 2.13287e-05 0.000913638
0.00225516 -0.000295383 -2.21697e-05
-0.000295383 0.000567195 4.53295e-06
-2.21697e-05 4.53295e-06 0.000390553
0.00228461 -0.000426987 -2.99965e-05
-0.000426987 0.000614425 9.64187e-06
-2.99965e-05 9.64187e-06 0.000360089
0.00250635 -0.000564343 -3.96751e-05
-0.000564343 0.000864308 1.21485e-05
-3.96751e-05 1.21485e-05 0.000521566
0.00215477 -0.000630034 -1.32203e-07
-0.000630034 0.000330231 -2.57663e-06
-1.32203e-07 -2.57663e-06 5.59317e-07
0.000257465 -5.11089e-07 4.23311e-08
-5.11089e-07 -0.000293227 3.84886e-07
4.23311e-08 3.84886e-07 -0.000384581
0.00204087 -0.000107305 -3.98804e-05
-0.000107305 0.000873116 8.61567e-07
-3.98804e-05 8.61567e-07 0.000790489
0.00174961 -0.000102898 -1.43462e-05
-0.000102898 0.000231152 9.6875e-07
-1.43462e-05 9.6875e-07 0.00011165
0.00203005 -0.000230639 -1.30216e-05
-0.000230639 0.000421458 2.13273e-06
-1.30216e-05 2.13273e-06 0.000260485
0.00841862 -2.56689e-05 5.74627e-06
-2.56689e-05 0.00515663 -5.28165e-07
5.74627e-06 -5.28165e-07 0.00516878
0.00168688 -0.000250215 9.80443e-06
-0.000250215 0.000675775 3.74149e-07
9.80443e-06 3.74149e-07 0.000491201
0.00183089 -0.000535428 1.10195e-06
-0.000535428 0.00049203 -1.80369e-06
1.10195e-06 -1.80369e-06 0.000113581
0.00220945 -0.000362246 -1.06396e-05
-0.000362246 0.000532793 3.02406e-06
-1.06396e-05 3.02406e-06 0.000322511
0.00223128 -0.000418791 2.48386e-06
-0.000418791 0.000186701 -1.01403e-06
2.48386e-06 -1.01403e-06 2.21899e-05
0.00223516 -0.00069513 1.6764e-06
-0.00069513 0.00044335 -8.26533e-08
1.6764e-06 -8.26533e-08 5.55741e-05
0.00217301 -0.000573849 2.29115e-07
-0.000573849 0.000268056 -1.50209e-07
2.29115e-07 -1.50209e-07 -1.27613e-05
0.00223207 -0.00069922 6.04454e-07
-0.00069922 0.000280611 4.45346e-07
6.04454e-07 4.45346e-07 -2.25926e-05
0.000370979 -0.000226523 1.98271e-06
-0.000226523 -0.000143123 5.34556e-07
1.98271e-06 5.34556e-07 -0.000297403
0.000635755 -0.000253677 -9.89061e-07
-0.000253677 9.18007e-05 3.11966e-07
-9.89061e-07 3.11966e-07 -0.000220373
0.001286 -5.11017e-05 3.50341e-06
-5.11017e-05 -6.29878e-05 2.65099e-08
3.50341e-06 2.65099e-08 -0.000190841
0.00213276 -0.000168983 -4.17855e-07
-0.000168983 0.000490769 1.48238e-07
-4.17855e-07 1.48238e-07 0.000358858
0.00206508 -0.000167614 1.36956e-06
-0.000167614 2.52816e-05 -5.89705e-07
1.36956e-06 -5.89705e-07 -6.10729e-05
0.00225485 -0.000347452 -4.69032e-07
-0.000347452 0.000167572 5.05326e-07
-4.69032e-07 5.05326e-07 5.17634e-05
0.00212872 -0.000501575 -1.23456e-06
-0.000501575 0.000168937 7.98033e-07
-1.23456e-06 7.98033e-07 -5.25018e-05
0.00223118 -0.000454697 5.21931e-06
-0.000454697 8.49533e-05 -1.16514e-06
5.21931e-06 -1.16514e-06 -3.14894e-05
0.00040184 -0.000238515 1.94576e-05
-0.000238515 -0.000151774 -2.87915e-05
1.94576e-05 -2.87915e-05 -0.000325779
0.00224837 -0.000632039 9.1898e-07
-0.000632039 0.000230123 1.19158e-06
9.1898e-07 1.19158e-06 -1.0182e-05
0.00173039 -0.000471304 1.53609e-05
-0.000471304 0.000507954 -1.05241e-05
1.53609e-05 -1.05241e-05 0.000141784
0.00191187 -0.000776228 6.62197e-06
-0.000776228 0.000308059 4.33879e-06
6.62197e-06 4.33879e-06 -0.000170195
0.00247613 -0.000775128 4.14281e-07
-0.000775128 0.000498324 2.8232e-06
4.14281e-07 2.8232e-06 0.000121907
0.00241354 -0.000730561 -7.77945e-08
-0.000730561 0.000364821 2.19512e-06
-7.77945e-08 2.19512e-06 8.66452e-05
0.000810857 -0.00026959 2.75167e-06
-0.00026959 0.00016821 -2.81912e-06
2.75167e-06 -2.81912e-06 -0.000155897
0.00156889 -0.000301248 6.80759e-06
-0.000301248 0.000680373 -1.25222e-07
6.80759e-06 -1.25222e-07 0.000413049
0.00162617 -0.000390426 -1.85596e-06
-0.000390426 0.00068858 1.31908e-06
-1.85596e-06 1.31908e-06 0.000305027
0.00033417 0.000152033 -1.59772e-05
0.000152033 -0.00029129 -1.16544e-05
-1.59772e-05 -1.16544e-05 -0.000431976
0.00664109 -9.7156e-05 -0.000241012
-9.7156e-05 0.00406499 -2.05591e-05
-0.000241012 -2.05591e-05 0.00406425
0.000526666 0.000136682 -2.0028e-05
0.000136682 -1.38359e-05 -1.87826e-05
-2.0028e-05 -1.87826e-05 -0.000120659
0.00028159 0.00021605 -1.88694e-05
0.00021605 -0.000302429 -1.87749e-05
-1.88694e-05 -1.87749e-05 -0.000468806
0.00148274 0.000392807 -1.44144e-05
0.000392807 3.78225e-05 -4.69672e-06
-1.44144e-05 -4.69672e-06 -0.000220518
0.000412582 0.000236357 -2.16943e-05
0.000236357 -0.000128533 -2.7272e-05
-2.16943e-05 -2.7272e-05 -0.00028801
0.00117772 0.000447141 -2.57864e-05
0.000447141 0.000156496 -1.12618e-05
-2.57864e-05 -1.12618e-05 -0.000197224
0.00136673 0.000472693 -2.71072e-05
0.000472693 8.41238e-05 -6.60914e-06
-2.71072e-05 -6.60914e-06 -0.000244049
0.00195616 0.000752432 -1.08151e-05
0.000752432 0.000345484 6.75767e-06
-1.08151e-05 6.75767e-06 -0.000102431
0.000376741 0.000217175 -7.33186e-06
0.000217175 -0.000134459 1.91224e-06
-7.33186e-06 1.91224e-06 -0.000266376
0.000377564 7.45852e-05 -4.19571e-07
7.45852e-05 -6.84728e-05 1.31789e-06
-4.19571e-07 1.31789e-06 -0.00016823
0.00104372 0.000290422 -2.17666e-07
0.000290422 0.000339778 6.25669e-08
-2.17666e-07 6.25669e-08 9.08427e-05
0.00150072 0.00033199 -3.12976e-07
0.00033199 1.68487e-05 -2.00418e-07
-3.12976e-07 -2.00418e-07 -0.0002036
0.00149577 0.000443131 6.01668e-08
0.000443131 9.23672e-05 -3.1075e-07
6.01668e-08 -3.1075e-07 -0.000201073
0.00224706 0.000597855 -7.2076e-07
0.000597855 0.0002776 -3.16456e-07
-7.2076e-07 -3.16456e-07 3.30237e-07
0.000694297 0.000335733 1.00696e-06
0.000335733 -3.10714e-06 1.02551e-06
1.00696e-06 1.02551e-06 -0.000315929
0.0022982 0.000738652 -1.1389e-06
0.000738652 0.000484421 -4.42181e-07
-1.1389e-06 -4.42181e-07 9.1686e-05
0.00199061 0.000819385 -1.49261e-06
0.000819385 0.000526987 -2.96146e-06
-1.49261e-06 -2.96146e-06 -1.64696e-05
0.00184205 0.00077411 -1.24412e-06
0.00077411 0.000153881 3.86435e-06
-1.24412e-06 3.86435e-06 -0.000265625
0.000536845 5.20613e-05 9.8222e-06
5.20613e-05 4.66114e-05 1.59331e-05
9.8222e-06 1.59331e-05 -3.61765e-05
0.000698308 0.000336843 5.53552e-06
0.000336843 0.000111794 4.28356e-07
5.53552e-06 4.28356e-07 -0.000181317
0.000753556 0.00017388 2.46986e-06
0.00017388 0.0002288 2.21933e-06
2.46986e-06 2.21933e-06 -3.54521e-05
-0.00106769 0.000171776 -7.87068e-06
0.000171776 -0.000984015 5.34908e-06
-7.87068e-06 5.34908e-06 -0.00127981
0.00228332 0.000516704 2.92607e-06
0.000516704 0.0002315 -2.41038e-06
2.92607e-06 -2.41038e-06 1.3879e-05
0.0022264 0.000671841 3.66004e-06
0.000671841 0.000352058 -2.79246e-06
3.66004e-06 -2.79246e-06 1.31476e-05
0.00225504 0.000653937 9.2253e-07
0.000653937 0.000205633 -1.91013e-06
9.2253e-07 -1.91013e-06 -4.89288e-05
0.00141423 0.000665828 -7.61528e-06
0.000665828 0.000338456 -7.65596e-06
-7.61528e-06 -7.65596e-06 -0.000166902
0.00260432 0.000845161 -6.64484e-06
0.000845161 0.000586755 -5.1848e-06
-6.64484e-06 -5.1848e-06 0.000207707
0.00237803 0.000962258 -1.82771e-05
0.000962258 0.000669281 -1.82489e-05
-1.82771e-05 -1.82489e-05 9.07176e-05
0.00216655 0.000810356 -6.42084e-06
0.000810356 0.000234315 -5.81024e-06
-6.42084e-06 -5.81024e-06 -0.00015775
0.00077795 0.000111608 -1.68003e-06
0.000111608 0.000261795 7.58161e-06
-1.68003e-06 7.58161e-06 0.000132051
0.000564919 3.21636e-05 4.04726e-06
3.21636e-05 7.58002e-05 1.35252e-05
4.04726e-06 1.35252e-05 2.08913e-05
0.00409241 -0.000132559 8.60927e-05
-0.000132559 0.00240057 7.96844e-06
8.60927e-05 7.96844e-06 0.00239231
0.00443707 -0.000176859 1.53239e-05
-0.000176859 0.00264663 -1.66396e-06
1.53239e-05 -1.66396e-06 0.00262609
0.00484047 -0.000231382 -8.87224e-05
-0.000231382 0.00293847 -1.18398e-05
-8.87224e-05 -1.18398e-05 0.00290047
0.000644935 -0.000235028 3.36411e-05
-0.000235028 7.63011e-05 -1.89048e-05
3.36411e-05 -1.89048e-05 -4.51421e-05
0.00655755 8.11145e-05 0.000233006
8.11145e-05 0.0040134 -2.65814e-05
0.000233006 -2.65814e-05 0.00400921
0.000479858 -0.000222592 3.51748e-06
-0.000222592 -5.40992e-05 7.3199e-07
3.51748e-06 7.3199e-07 -0.000191416
0.00746129 2.10864e-05 4.90598e-06
2.10864e-05 0.00457325 -7.94351e-08
4.90598e-06 -7.94351e-08 0.00457673
0.0003221 0.000139975 -1.62818e-05
0.000139975 -0.000290703 -9.51257e-06
-1.62818e-05 -9.51257e-06 -0.000420343
0.000273504 4.63531e-05 -1.44817e-05
4.63531e-05 -0.000301961 -4.61065e-06
-1.44817e-05 -4.61065e-06 -0.00040603
0.00137119 0.000200157 -2.59075e-06
0.000200157 -5.42884e-05 -1.22218e-06
-2.59075e-06 -1.22218e-06 -0.000218874
0.0013374 0.000101181 -3.28696e-06
0.000101181 -5.61166e-05 -8.11843e-07
-3.28696e-06 -8.11843e-07 -0.000189756
0.000305769 -4.87714e-06 -1.63617e-05
-4.87714e-06 -0.000266176 -1.5907e-06
-1.63617e-05 -1.5907e-06 -0.000356558
0.00663189 -0.000106479 -0.000373046
-0.000106479 0.00400158 6.96184e-06
-0.000373046 6.96184e-06 0.00403542
0.000299972 -4.14832e-06 -1.74964e-08
-4.14832e-06 -0.000267779 -6.80023e-07
-1.74964e-08 -6.80023e-07 -0.000356543
0.00129806 4.74723e-05 1.7282e-08
4.74723e-05 -7.01865e-05 7.0963e-08
1.7282e-08 7.0963e-08 -0.000196151
0.00137603 0.000149949 -5.08462e-09
0.000149949 -4.93717e-05 8.8692e-08
-5.08462e-09 8.8692e-08 -0.000194745
0.00217757 0.00014992 -8.53047e-08
0.00014992 8.85513e-05 2.50546e-07
-8.53047e-08 2.50546e-07 2.35997e-05
0.0014525 0.000263527 -3.32896e-07
0.000263527 -1.83535e-05 -1.14161e-07
-3.32896e-07 -1.14161e-07 -0.000206793
0.00219846 0.000333466 -4.43006e-07
0.000333466 0.000114076 1.77073e-07
-4.43006e-07 1.77073e-07 -1.12804e-06
0.00126902 -7.05904e-06 2.89389e-06
-7.05904e-06 -7.81081e-05 2.78748e-07
2.89389e-06 2.78748e-07 -0.000203054
0.00217655 6.98312e-05 1.67648e-06
6.98312e-05 8.83348e-05 3.65517e-07
1.67648e-06 3.65517e-07 3.04789e-05
0.00219422 0.000240035 1.42842e-06
0.000240035 0.000105965 6.03311e-07
1.42842e-06 6.03311e-07 2.23893e-05
0.0021649 0.000163214 5.72248e-06
0.000163214 2.02952e-05 9.53364e-07
5.72248e-06 9.53364e-07 5.25514e-06
0.00218614 0.00042039 3.29146e-06
0.00042039 0.000121759 -4.36127e-07
3.29146e-06 -4.36127e-07 -3.7363e-05
0.0022989 0.000347582 5.33661e-06
0.000347582 8.28235e-05 8.10251e-07
5.33661e-06 8.10251e-07 3.07998e-05
0.000299412 -6.99889e-06 -1.58533e-05
-6.99889e-06 -0.000262378 2.31386e-07
-1.58533e-05 2.31386e-07 -0.00035591
0.00214424 -6.28334e-05 -0.000144813
-6.28334e-05 0.000927294 7.67006e-06
-0.000144813 7.67006e-06 0.000859325
0.00139997 -9.86783e-05 -1.41859e-05
-9.86783e-05 -5.24704e-06 1.27161e-06
-1.41859e-05 1.27161e-06 -0.000128364
0.00198928 -0.000227896 -1.96839e-05
-0.000227896 0.000386399 3.65922e-06
-1.96839e-05 3.65922e-06 0.000220252
0.0087513 -5.07572e-05 -0.000376033
-5.07572e-05 0.00536355 4.31194e-05
-0.000376033 4.31194e-05 0.00537659
0.00346653 -0.000363653 -0.000206403
-0.000363653 0.00183592 3.68209e-05
-0.000206403 3.68209e-05 0.00168681
0.00196447 -0.000552783 -2.98523e-05
-0.000552783 0.000621516 9.6384e-06
-2.98523e-05 9.6384e-06 0.000244574
0.00219636 -0.000365733 -2.77958e-05
-0.000365733 0.000518915 7.45347e-06
-2.77958e-05 7.45347e-06 0.000307046
0.00234571 -0.00043 -6.01516e-07
-0.00043 0.000258566 -1.36227e-06
-6.01516e-07 -1.36227e-06 0.000102853
0.00232209 -0.000578904 -8.65142e-07
-0.000578904 0.00037734 -9.62067e-07
-8.65142e-07 -9.62067e-07 9.40096e-05
0.00224582 -0.00069821 1.58446e-06
-0.00069821 0.000445228 -3.93257e-06
1.58446e-06 -3.93257e-06 5.79945e-05
0.00229113 -0.000704779 -2.11167e-07
-0.000704779 0.000321646 -2.15407e-06
-2.11167e-07 -2.15407e-06 1.65929e-05
0.000471712 -0.000238514 -2.05302e-05
-0.000238514 -8.0416e-05 2.50061e-05
-2.05302e-05 2.50061e-05 -0.00023795
-3.22201e-05 -0.000224824 -9.16686e-07
-0.000224824 -0.000308044 3.0407e-06
-9.16686e-07 3.0407e-06 -0.000633555
0.00133072 -4.74593e-05 8.6302e-07
-4.74593e-05 -3.64851e-05 -7.01219e-08
8.6302e-07 -7.01219e-08 -0.000157731
0.00209301 -0.000169328 -1.2215e-05
-0.000169328 0.000459104 1.54147e-06
-1.2215e-05 1.54147e-06 0.000327367
0.00206752 -0.000163376 2.49641e-06
-0.000163376 2.36866e-05 -3.61732e-07
2.49641e-06 -3.61732e-07 -5.80258e-05
0.00212553 -0.000341958 -1.89333e-06
-0.000341958 8.71825e-05 5.41245e-07
-1.89333e-06 5.41245e-07 -4.06288e-05
0.000287154 -0.000258245 -1.92278e-06
-0.000258245 -0.000214282 1.38445e-07
-1.92278e-06 1.38445e-07 -0.000392657
0.00075266 -0.000429879 -5.39108e-06
-0.000429879 -8.96415e-05 -4.09807e-07
-5.39108e-06 -4.09807e-07 -0.000461871
0.00201064 -0.00078719 -1.83553e-07
-0.00078719 0.000368873 1.38115e-06
-1.83553e-07 1.38115e-06 -0.000115971
0.0021575 -0.000500905 -1.30999e-06
-0.000500905 0.000193158 3.42904e-07
-1.30999e-06 3.42904e-07 -3.23186e-05
0.00229592 -0.00046303 9.11692e-07
-0.00046303 0.000119549 -7.28742e-07
9.11692e-07 -7.28742e-07 9.30219e-06
0.00255382 -0.00078286 1.19124e-06
-0.00078286 0.000548575 -1.55883e-06
1.19124e-06 -1.55883e-06 0.000175409
0.00222127 -0.000629157 1.80113e-07
-0.000629157 0.000210025 6.42912e-07
1.80113e-07 6.42912e-07 -2.97608e-05
0.00228291 -0.000726161 1.6554e-07
-0.000726161 0.00027113 8.92722e-07
1.6554e-07 8.92722e-07 -9.15353e-06
0.000845144 -0.000289104 4.65776e-07
-0.000289104 0.000196895 -1.02689e-06
4.65776e-07 -1.02689e-06 -0.000136714
0.000663793 -0.000295321 1.17517e-06
-0.000295321 6.12031e-05 -4.30121e-08
1.17517e-06 -4.30121e-08 -0.000308332
0.000580364 -0.000250995 4.89893e-06
-0.000250995 9.06224e-05 1.85185e-06
4.89893e-06 1.85185e-06 -0.000196079
0.00204823 -8.21002e-05 1.66922e-06
-8.21002e-05 1.26515e-05 -4.46586e-07
1.66922e-06 -4.46586e-07 -6.21451e-05
0.00208734 -0.000248588 -8.6664e-07
-0.000248588 3.05307e-05 -3.08179e-07
-8.6664e-07 -3.08179e-07 -6.73584e-05
0.00220801 -0.000162593 7.31318e-06
-0.000162593 6.58799e-05 -8.66982e-07
7.31318e-06 -8.66982e-07 4.04557e-05
0.00228373 -0.000373962 3.8855e-06
-0.000373962 7.28498e-05 -3.81526e-07
3.8855e-06 -3.81526e-07 1.21937e-05
0.00223969 -0.000564082 6.50579e-07
-0.000564082 0.000151761 -8.48117e-08
6.50579e-07 -8.48117e-08 -2.07923e-05
0.00232545 -0.00048282 2.06991e-06
-0.00048282 7.52934e-05 -1.43255e-07
2.06991e-06 -1.43255e-07 1.5572e-05
0.000854074 -0.000321701 8.5569e-06
-0.000321701 9.13761e-05 -8.20705e-06
8.5569e-06 -8.20705e-06 -0.000228498
0.00227764 -0.000673051 1.14586e-06
-0.000673051 0.00016958 -2.53063e-07
1.14586e-06 -2.53063e-07 -2.39714e-05
0.00191241 -0.000829445 -1.05619e-06
-0.000829445 0.000475477 9.37668e-07
-1.05619e-06 9.37668e-07 -8.05111e-05
0.00236783 -0.000906899 1.14075e-05
-0.000906899 0.000491183 3.77404e-06
1.14075e-05 3.77404e-06 -2.15475e-06
0.00260112 -0.000798187 3.99836e-06
-0.000798187 0.000560905 2.43114e-06
3.99836e-06 2.43114e-06 0.000208263
0.00249366 -0.000778387 8.6934e-07
-0.000778387 0.000379859 -6.83204e-07
8.6934e-07 -6.83204e-07 0.000120837
0.000645857 -0.000183945 -1.30835e-06
-0.000183945 0.00021658 -2.26731e-06
-1.30835e-06 -2.26731e-06 -9.68454e-05
0.00165801 -0.000499542 -8.53212e-06
-0.000499542 0.00059793 -2.19178e-06
-8.53212e-06 -2.19178e-06 0.000171543
-0.000521904 -0.000123873 3.44088e-06
-0.000123873 -0.000579157 1.50853e-06
3.44088e-06 1.50853e-06 -0.000925285
0.00120789 -0.000529484 7.4342e-06
-0.000529484 0.000396018 6.35813e-06
7.4342e-06 6.35813e-06 -9.53317e-05
0.00149099 0.000332086 -1.07001e-05
0.000332086 1.78889e-05 -3.29646e-06
-1.07001e-05 -3.29646e-06 -0.000203905
0.000240575 6.0759e-05 -9.70977e-06
6.0759e-05 -0.000151689 -1.80668e-05
-9.70977e-06 -1.80668e-05 -0.000248311
0.000432175 0.000176432 -2.75171e-05
0.000176432 -8.98415e-05 -2.01287e-05
-2.75171e-05 -2.01287e-05 -0.000220625
0.000901507 0.00023231 -7.37911e-06
0.00023231 0.000249472 4.4403e-06
-7.37911e-06 4.4403e-06 2.1763e-06
0.0014313 0.000437094 -2.01402e-05
0.000437094 5.62499e-05 -6.02263e-06
-2.01402e-05 -6.02263e-06 -0.000237288
0.0021989 0.000593759 -4.06677e-06
0.000593759 0.000243537 1.74734e-06
-4.06677e-06 1.74734e-06 -3.26987e-05
0.000784141 0.000303194 -1.29054e-05
0.000303194 5.5549e-05 -5.61824e-06
-1.29054e-05 -5.61824e-06 -0.000235114
0.00184413 0.000796357 -8.48976e-06
0.000796357 0.000418492 4.31602e-06
-8.48976e-06 4.31602e-06 -0.000117947
0.00233298 0.000736059 -2.51827e-06
0.000736059 0.000506745 4.71493e-06
-2.51827e-06 4.71493e-06 0.00011384
0.00176543 0.00077126 1.15142e-05
0.00077126 9.37861e-05 1.60459e-05
1.15142e-05 1.60459e-05 -0.000318933
0.000399452 3.79446e-05 -3.20802e-06
3.79446e-05 -3.53647e-05 3.86929e-07
-3.20802e-06 3.86929e-07 -0.000115916
0.000685621 0.000257329 -1.21616e-06
0.000257329 0.000112745 2.70806e-07
-1.21616e-06 2.70806e-07 -0.00017254
0.000325309 0.000172135 5.08545e-06
0.000172135 -4.44914e-05 -1.87883e-06
5.08545e-06 -1.87883e-06 -0.000312637
0.00065366 0.000264402 -5.56888e-06
0.000264402 0.000100134 6.36336e-06
-5.56888e-06 6.36336e-06 -0.000203853
0.00224204 0.000512069 -1.86841e-06
0.000512069 0.000207302 -1.40075e-06
-1.86841e-06 -1.40075e-06 -9.479e-06
0.00220526 0.000671262 -7.79958e-07
0.000671262 0.00033506 -3.21769e-07
-7.79958e-07 -3.21769e-07 -3.94557e-06
0.00227975 0.000655055 1.34779e-07
0.000655055 0.000227622 -6.01352e-08
1.34779e-07 -6.01352e-08 -2.69445e-05
0.00182016 0.000703484 2.40503e-06
0.000703484 0.000610817 -5.56663e-07
2.40503e-06 -5.56663e-07 9.71417e-05
0.00252412 0.000830282 1.55078e-06
0.000830282 0.000546942 1.01802e-06
1.55078e-06 1.01802e-06 0.000166894
0.00213853 0.000920006 -9.20635e-07
0.000920006 0.000532671 -2.04916e-06
-9.20635e-07 -2.04916e-06 -3.31134e-05
0.00230765 0.000799252 -7.64934e-06
0.000799252 0.000342127 3.23672e-06
-7.64934e-06 3.23672e-06 -3.48819e-05
0.000627317 3.59563e-05 6.95438e-06
3.59563e-05 0.00011008 1.46291e-05
6.95438e-06 1.46291e-05 4.59974e-05
0.00125512 0.000124704 -2.08678e-06
0.000124704 0.000566565 1.16794e-05
-2.08678e-06 1.16794e-05 0.000331426
0.00025482 0.000404516 -9.71224e-06
0.000404516 -0.000233504 -2.28285e-06
-9.71224e-06 -2.28285e-06 -0.000613436
0.00111305 0.000250091 1.04085e-05
0.000250091 0.000460232 -5.49489e-06
1.04085e-05 -5.49489e-06 0.000116835
0.00124181 0.000179369 -3.61221e-06
0.000179369 0.000370759 1.46098e-05
-3.61221e-06 1.46098e-05 9.95511e-05
0.00227962 0.000562629 4.1001e-07
0.000562629 0.000138781 -1.69974e-06
4.1001e-07 -1.69974e-06 -3.94224e-05
0.0023084 0.000754629 -1.47831e-06
0.000754629 0.000319385 -3.47314e-06
-1.47831e-06 -3.47314e-06 -4.75093e-06
0.00229811 0.000717288 -3.14385e-06
0.000717288 0.00019676 -9.75706e-07
-3.14385e-06 -9.75706e-07 -4.63233e-05
0.00202255 0.000965715 -7.11691e-06
0.000965715 0.000715555 -1.34506e-05
-7.11691e-06 -1.34506e-05 5.9846e-05
0.0026493 0.00088586 -7.37989e-06
0.00088586 0.000535425 -4.72954e-06
-7.37989e-06 -4.72954e-06 0.00016184
0.00196587 0.000971423 3.02027e-06
0.000971423 0.000319599 -9.79518e-06
3.02027e-06 -9.79518e-06 -0.000228689
0.000633405 0.000108404 -1.98906e-06
0.000108404 0.000159705 1.01431e-05
-1.98906e-06 1.01431e-05 1.00123e-05
0.00087004 0.000146447 -6.35136e-06
0.000146447 0.000428898 7.01855e-06
-6.35136e-06 7.01855e-06 0.000197084
0.000572983 8.21157e-05 -1.7814e-06
8.21157e-05 0.000121998 6.1195e-06
-1.7814e-06 6.1195e-06 1.81268e-05
0.000443367 3.5958e-05 -1.77576e-06
3.5958e-05 4.22091e-05 1.98861e-07
-1.77576e-06 1.98861e-07 -7.94752e-05
0.00157176 -2.38222e-06 1.91748e-06
-2.38222e-06 0.000735521 7.22245e-06
1.91748e-06 7.22245e-06 0.000695504
0.000994077 1.5431e-05 -4.21675e-07
1.5431e-05 0.000358513 -1.73146e-07
-4.21675e-07 -1.73146e-07 0.000307192
0.000975756 -2.30359e-05 6.89529e-05
-2.30359e-05 0.000341816 1.49754e-05
6.89529e-05 1.49754e-05 0.000334689
0.00402719 -0.00014635 1.41258e-05
-0.00014635 0.00236242 -1.37726e-06
1.41258e-05 -1.37726e-06 0.00235022
0.00436911 -0.000190006 -7.68792e-05
-0.000190006 0.0026067 -9.09677e-06
-7.68792e-05 -9.09677e-06 0.00258229
0.000215277 -0.000145403 2.13256e-05
-0.000145403 -0.000150903 -1.59083e-05
2.13256e-05 -1.59083e-05 -0.000252347
0.00577932 0.000147243 0.00015952
0.000147243 0.00353212 -1.99652e-05
0.00015952 -1.99652e-05 0.0035116
0.000537418 -0.000205087 2.56969e-06
-0.000205087 1.83635e-05 1.09523e-06
2.56969e-06 1.09523e-06 -0.000111363
0.00667217 7.1098e-05 3.36971e-09
7.1098e-05 0.00409314 9.30141e-07
3.36971e-09 9.30141e-07 0.00408728
0.000440399 -0.000227859 -2.56798e-05
-0.000227859 -8.25713e-05 2.21673e-05
-2.56798e-05 2.21673e-05 -0.000221182
0.00774361 8.7053e-06 -0.00032483
8.7053e-06 0.00475519 3.97971e-05
-0.00032483 3.97971e-05 0.0047604
0.00140677 0.000261483 -6.30825e-06
0.000261483 -3.98275e-05 -2.23466e-06
-6.30825e-06 -2.23466e-06 -0.000229381
0.00136096 0.000151181 -2.59303e-06
0.000151181 -5.07487e-05 -6.8603e-07
-2.59303e-06 -6.8603e-07 -0.000197135
0.00223645 0.000332685 -2.75738e-06
0.000332685 0.000136441 3.42478e-07
-2.75738e-06 3.42478e-07 2.12908e-05
0.0021681 0.000147938 -1.68176e-06
0.000147938 8.35075e-05 -2.91088e-07
-1.68176e-06 -2.91088e-07 1.87631e-05
0.00131303 5.2849e-05 -2.89338e-06
5.2849e-05 -5.82175e-05 -5.52226e-07
-2.89338e-06 -5.52226e-07 -0.000184528
0.000266524 2.78625e-05 -1.65917e-05
2.78625e-05 -0.000292384 -1.37953e-06
-1.65917e-05 -1.37953e-06 -0.000379151
0.00127729 -2.21986e-06 -4.97531e-08
-2.21986e-06 -7.1812e-05 1.55533e-08
-4.97531e-08 1.55533e-08 -0.000196731
0.00216361 6.89417e-05 -2.84409e-09
6.89417e-05 8.2217e-05 9.42719e-08
-2.84409e-09 9.42719e-08 2.42811e-05
0.00219646 0.000238749 -1.21029e-07
0.000238749 0.000103523 2.10369e-07
-1.21029e-07 2.10369e-07 2.02006e-05
0.00214479 0.000158551 -4.12269e-07
0.000158551 -2.95706e-06 4.26597e-08
-4.12269e-07 4.26597e-08 -1.13929e-05
0.00221726 0.00042095 -1.07605e-06
0.00042095 0.000148507 1.15279e-07
-1.07605e-06 1.15279e-07 -1.09402e-05
0.00227177 0.000346395 -5.09257e-08
0.000346395 6.46062e-05 2.91888e-07
-5.09257e-08 2.91888e-07 1.27228e-05
0.00216333 -8.19645e-06 1.32007e-06
-8.19645e-06 8.39996e-05 -1.03459e-07
1.32007e-06 -1.03459e-07 2.722e-05
0.00207587 7.27193e-05 4.36454e-06
7.27193e-05 -4.6812e-05 2.53612e-07
4.36454e-06 2.53612e-07 -4.63069e-05
0.00221619 0.000240924 5.95309e-06
0.000240924 4.46718e-05 1.13144e-06
5.95309e-06 1.13144e-06 1.77574e-05
0.00221496 0.000147432 3.42848e-06
0.000147432 -3.7912e-06 6.67386e-07
3.42848e-06 6.67386e-07 1.73144e-05
0.00236769 0.000473141 3.47858e-06
0.000473141 0.000139588 -1.06905e-07
3.47858e-06 -1.06905e-07 3.66545e-05
0.00230566 0.000355801 1.49284e-06
0.000355801 -2.54861e-05 -1.57936e-07
1.49284e-06 -1.57936e-07 -1.90987e-05
0.0013665 -4.41453e-05 -5.27358e-06
-4.41453e-05 -1.49436e-05 2.26729e-07
-5.27358e-06 2.26729e-07 -0.000129624
0.00207721 -0.000169601 -2.31928e-05
-0.000169601 0.000443849 2.75276e-06
-2.31928e-05 2.75276e-06 0.00031233
0.00209379 -0.000157832 3.17357e-06
-0.000157832 3.69922e-05 -3.92091e-07
3.17357e-06 -3.92091e-07 -3.97272e-05
0.001988 -0.000335217 7.11711e-07
-0.000335217 2.03712e-06 6.06292e-07
7.11711e-07 6.06292e-07 -0.000137467
0.000122461 -0.00027517 -2.35685e-05
-0.00027517 -0.000311981 2.89241e-05
-2.35685e-05 2.89241e-05 -0.0004924
0.000673025 -0.000432143 -1.34435e-05
-0.000432143 -0.00014236 6.08833e-06
-1.34435e-05 6.08833e-06 -0.000518194
0.00205219 -0.000797618 3.28061e-06
-0.000797618 0.000386424 -3.06939e-06
3.28061e-06 -3.06939e-06 -0.000106111
0.00218229 -0.000499569 -1.60213e-06
-0.000499569 0.000215141 -6.11265e-07
-1.60213e-06 -6.11265e-07 -1.44953e-05
0.00234174 -0.000469961 -2.39269e-06
-0.000469961 0.00014151 -1.35268e-07
-2.39269e-06 -1.35268e-07 3.71746e-05
0.00218837 -0.000625845 -9.12115e-07
-0.000625845 0.000185755 6.14596e-08
-9.12115e-07 6.14596e-08 -5.34265e-05
0.00258721 -0.000785463 -4.04985e-07
-0.000785463 0.000572513 -6.08302e-06
-4.04985e-07 -6.08302e-06 0.000203875
0.00212922 -0.000717967 5.40702e-07
-0.000717967 0.000164174 -1.34015e-08
5.40702e-07 -1.34015e-08 -0.000116967
0.000618324 -0.000311234 -6.96503e-06
-0.000311234 5.90494e-05 4.39743e-06
-6.96503e-06 4.39743e-06 -0.000286526
0.000410788 -0.000267328 1.6426e-06
-0.000267328 -8.93941e-05 4.04023e-08
1.6426e-06 4.04023e-08 -0.000452746
0.000368593 -0.000294391 2.25478e-06
-0.000294391 -2.30163e-05 2.61947e-06
2.25478e-06 2.61947e-06 -0.000322122
0.00210868 -7.85378e-05 3.66903e-06
-7.85378e-05 5.43229e-05 -2.21273e-07
3.66903e-06 -2.21273e-07 -1.33122e-05
0.00208054 -0.000254633 1.35232e-06
-0.000254633 3.14294e-05 -4.51897e-07
1.35232e-06 -4.51897e-07 -6.53277e-05
0.00219068 -0.000157629 5.94194e-07
-0.000157629 3.89041e-05 -6.83175e-08
5.94194e-07 -6.83175e-08 2.16201e-05
0.00228101 -0.000366487 -8.47029e-07
-0.000366487 8.1298e-05 2.37801e-07
-8.47029e-07 2.37801e-07 1.67902e-05
0.000838634 -0.000351666 -4.93623e-07
-0.000351666 7.5844e-05 7.16851e-07
-4.93623e-07 7.16851e-07 -0.000261541
0.00201379 -0.000851163 2.89139e-07
-0.000851163 0.000545485 -1.72281e-06
2.89139e-07 -1.72281e-06 -1.66781e-05
0.00222609 -0.000891105 4.24902e-07
-0.000891105 0.000404731 1.85591e-06
4.24902e-07 1.85591e-06 -9.14599e-05
0.00215248 -0.000551011 -8.02473e-07
-0.000551011 0.000100626 4.60458e-07
-8.02473e-07 4.60458e-07 -7.72576e-05
0.0023336 -0.000487418 1.30667e-07
-0.000487418 6.77093e-05 9.28971e-08
1.30667e-07 9.28971e-08 1.37458e-05
0.00244572 -0.000787837 -6.10965e-07
-0.000787837 0.000447575 2.63148e-07
-6.10965e-07 2.63148e-07 9.65355e-05
0.00227739 -0.00067268 -6.94897e-07
-0.00067268 0.000165927 6.93722e-07
-6.94897e-07 6.93722e-07 -2.76292e-05
0.00241518 -0.000767741 1.19514e-06
-0.000767741 0.000327312 -4.80044e-07
1.19514e-06 -4.80044e-07 7.17822e-05
0.00114334 -0.000482727 -4.35663e-06
-0.000482727 0.000302223 -6.3649e-07
-4.35663e-06 -6.3649e-07 -0.000137735
0.00148899 -0.00054504 -2.06237e-06
-0.00054504 0.000589421 7.52988e-07
-2.06237e-06 7.52988e-07 9.96357e-05
0.00102214 -0.000252381 -3.08702e-06
-0.000252381 0.000422719 -2.5386e-06
-3.08702e-06 -2.5386e-06 0.000133328
0.000906664 -0.000224157 1.32995e-07
-0.000224157 0.000302916 5.2146e-07
1.32995e-07 5.2146e-07 -2.66807e-05
0.00217041 -8.80295e-05 6.24113e-06
-8.80295e-05 3.49416e-05 -4.5822e-07
6.24113e-06 -4.5822e-07 2.38376e-05
0.00212033 -0.000255606 4.42732e-06
-0.000255606 -3.97056e-05 -1.21696e-06
4.42732e-06 -1.21696e-06 -7.51219e-05
0.0021952 -0.000152586 3.88424e-06
-0.000152586 1.73908e-05 -6.42731e-07
3.88424e-06 -6.42731e-07 4.1611e-05
0.00228463 -0.000385018 -5.29022e-07
-0.000385018 -1.49449e-05 6.68646e-08
-5.29022e-07 6.68646e-08 -6.25288e-06
0.00230861 -0.000593776 -3.76831e-07
-0.000593776 0.000102432 4.53393e-07
-3.76831e-07 4.53393e-07 -9.34055e-06
0.00238192 -0.000521128 1.19602e-06
-0.000521128 2.1422e-05 -9.1401e-08
1.19602e-06 -9.1401e-08 -1.29777e-05
0.00168748 -0.000735576 -8.26222e-06
-0.000735576 0.000540536 2.13172e-06
-8.26222e-06 2.13172e-06 -6.52062e-06
0.00240417 -0.000739853 -6.76017e-07
-0.000739853 0.000167972 -2.90281e-07
-6.76017e-07 -2.90281e-07 1.25551e-05
0.00213756 -0.00100991 1.18877e-06
-0.00100991 0.000554456 6.03546e-06
1.18877e-06 6.03546e-06 -6.37864e-05
0.00249461 -0.000940866 1.04197e-05
-0.000940866 0.000533323 1.97828e-06
1.04197e-05 1.97828e-06 4.52964e-05
0.00243945 -0.000796967 -2.03394e-06
-0.000796967 0.000425689 2.13546e-06
-2.03394e-06 2.13546e-06 8.28519e-05
0.00240312 -0.000834461 -4.42825e-06
-0.000834461 0.000248301 -3.04348e-06
-4.42825e-06 -3.04348e-06 -2.02296e-05
0.000957114 -0.000258857 1.82973e-06
-0.000258857 0.000380361 -1.0906e-05
1.82973e-06 -1.0906e-05 0.000123794
0.00103543 -0.000261288 -5.58593e-06
-0.000261288 0.000474287 1.18358e-05
-5.58593e-06 1.18358e-05 8.76374e-05
0.00163301 -0.00073736 1.69064e-05
-0.00073736 0.00059112 3.38738e-06
1.69064e-05 3.38738e-06 2.26258e-05
0.00116104 -0.000376647 9.01728e-06
-0.000376647 0.000434627 -4.8102e-07
9.01728e-06 -4.8102e-07 5.52567e-05
0.00142624 -0.000658636 -6.29123e-06
-0.000658636 0.000567688 1.24392e-05
-6.29123e-06 1.24392e-05 -2.09221e-05
0.000119373 2.68325e-05 -7.84063e-06
2.68325e-05 -0.000212467 -1.55969e-05
-7.84063e-06 -1.55969e-05 -0.000288106
0.00220394 0.000507356 -4.69814e-06
0.000507356 0.000185763 4.36127e-07
-4.69814e-06 4.36127e-07 -3.01008e-05
0.000979554 7.24142e-05 3.1993e-06
7.24142e-05 0.000378431 -7.00558e-06
3.1993e-06 -7.00558e-06 0.000107279
0.000716116 0.000308116 -6.62499e-06
0.000308116 0.000101136 6.69876e-06
-6.62499e-06 6.69876e-06 -0.000157421
0.00153443 0.000326626 -3.68843e-06
0.000326626 0.000670711 1.06293e-05
-3.68843e-06 1.06293e-05 0.000356842
0.00218332 0.000670589 -3.5435e-06
0.000670589 0.000317939 2.70857e-06
-3.5435e-06 2.70857e-06 -2.11755e-05
0.0022987 0.000655656 -1.75985e-07
0.000655656 0.000245842 1.74513e-06
-1.75985e-07 1.74513e-06 -8.6318e-06
0.00157452 0.000728482 7.0422e-06
0.000728482 0.000469494 4.04457e-06
7.0422e-06 4.04457e-06 -6.96538e-05
0.00201622 0.000908142 1.01747e-05
0.000908142 0.000453094 1.28851e-05
1.01747e-05 1.28851e-05 -0.000111582
0.00243809 0.000813505 5.30808e-06
0.000813505 0.000501658 7.46077e-06
5.30808e-06 7.46077e-06 0.00012141
0.00248722 0.000799267 1.56106e-05
0.000799267 0.000470789 1.92525e-05
1.56106e-05 1.92525e-05 0.000104382
0.000425351 4.04691e-05 -2.91667e-07
4.04691e-05 -1.75146e-05 7.79699e-08
-2.91667e-07 7.79699e-08 -8.07588e-05
0.000631378 0.000102954 -2.40154e-06
0.000102954 0.000178505 1.93963e-08
-2.40154e-06 1.93963e-08 -6.07271e-05
0.000905894 0.000467901 7.76855e-06
0.000467901 0.0002068 -5.92872e-07
7.76855e-06 -5.92872e-07 -0.000183744
0.00063424 0.000166243 2.04989e-06
0.000166243 0.000148783 -5.47247e-06
2.04989e-06 -5.47247e-06 -0.000185791
0.00027544 0.000166958 -1.80227e-06
0.000166958 -0.000249421 4.63466e-06
-1.80227e-06 4.63466e-06 -0.000537787
0.00232911 0.000567721 -1.3641e-06
0.000567721 0.00017264 -9.45752e-07
-1.3641e-06 -9.45752e-07 -6.9468e-06
0.0022982 0.000751391 1.98019e-07
0.000751391 0.000317724 -7.34707e-08
1.98019e-07 -7.34707e-08 -4.76618e-06
0.00231776 0.000720085 1.44137e-06
0.000720085 0.000213746 3.70499e-07
1.44137e-06 3.70499e-07 -2.96868e-05
0.00204027 0.000969251 1.05484e-06
0.000969251 0.000744069 -2.82342e-06
1.05484e-06 -2.82342e-06 8.21153e-05
0.00262904 0.000883743 3.59965e-06
0.000883743 0.000499827 2.05209e-07
3.59965e-06 2.05209e-07 0.000124278
0.00244912 0.00102129 -4.90766e-06
0.00102129 0.000652221 4.35112e-07
-4.90766e-06 4.35112e-07 9.79385e-05
0.000904934 0.000155659 1.1117e-06
0.000155659 0.00031499 1.04952e-05
1.1117e-06 1.04952e-05 0.000142786
0.00268344 0.000435396 -1.14686e-06
0.000435396 0.00155191 5.23281e-06
-1.14686e-06 5.23281e-06 0.00117687
0.000521932 0.000579649 -2.5515e-06
0.000579649 -2.81293e-05 -5.92787e-07
-2.5515e-06 -5.92787e-07 -0.0005117
0.00156571 0.000260856 8.56873e-06
0.000260856 0.00053503 -3.04329e-06
8.56873e-06 -3.04329e-06 0.000245479
0.0028916 0.000691242 -1.29667e-06
0.000691242 0.00129253 -3.03019e-06
-1.29667e-06 -3.03019e-06 0.000870281
0.00235353 0.000606193 -3.31043e-06
0.000606193 9.931e-05 -1.57287e-06
-3.31043e-06 -1.57287e-06 -3.32159e-05
0.00227313 0.000812063 -4.91573e-06
0.000812063 0.000262296 -1.81863e-06
-4.91573e-06 -1.81863e-06 -6.88649e-05
0.00236 0.000793993 6.90811e-08
0.000793993 0.000204891 -1.22797e-06
6.90811e-08 -1.22797e-06 -4.0778e-05
0.00154137 0.00100653 6.9195e-06
0.00100653 0.000481805 -1.04973e-05
6.9195e-06 -1.04973e-05 -0.000193994
0.00217227 0.000990796 1.27955e-05
0.000990796 0.000347569 -4.78605e-06
1.27955e-05 -4.78605e-06 -0.000145832
0.000596318 9.49421e-05 -4.13307e-07
9.49421e-05 0.000136701 2.60051e-07
-4.13307e-07 2.60051e-07 -1.14106e-05
0.00050879 0.000222774 -1.63662e-06
0.000222774 0.000132138 7.16959e-07
-1.63662e-06 7.16959e-07 -7.73238e-05
-0.000456574 0.000100138 5.98968e-07
0.000100138 -0.000441378 -2.98695e-06
5.98968e-07 -2.98695e-06 -0.000655747
0.0017595 0.000297317 -6.24803e-06
0.000297317 0.00103239 -1.83329e-06
-6.24803e-06 -1.83329e-06 0.000769912
0.00143976 0.000238788 -3.03117e-06
0.000238788 0.000782926 3.20728e-06
-3.03117e-06 3.20728e-06 0.000578719
0.000539538 9.3295e-05 1.25317e-07
9.3295e-05 0.00010892 4.35975e-06
1.25317e-07 4.35975e-06 9.60955e-06
0.000552146 3.90448e-05 -1.27359e-06
3.90448e-05 0.000115775 -2.5798e-07
-1.27359e-06 -2.5798e-07 1.00128e-05
0.00147879 1.0901e-05 2.0635e-06
1.0901e-05 0.000677416 5.57671e-06
2.0635e-06 5.57671e-06 0.000644387
0.000455506 5.97909e-05 3.6351e-06
5.97909e-05 4.51377e-05 -7.45143e-06
3.6351e-06 -7.45143e-06 -7.11336e-05
0.00157747 -3.25105e-06 -1.46319e-05
-3.25105e-06 0.000740059 -2.14125e-06
-1.46319e-05 -2.14125e-06 0.000703545
0.000756025 -1.83065e-05 5.30755e-05
-1.83065e-05 0.000196356 1.18613e-05
5.30755e-05 1.18613e-05 0.000194742
0.00158338 1.6211e-05 -2.89776e-05
1.6211e-05 0.000746755 -1.00187e-05
-2.89776e-05 -1.00187e-05 0.000702434
0.00224226 -7.44541e-05 6.12662e-05
-7.44541e-05 0.00118059 1.32636e-06
6.12662e-05 1.32636e-06 0.00117286
0.00377944 -0.000146526 -6.12862e-05
-0.000146526 0.00220102 -7.85354e-06
-6.12862e-05 -7.85354e-06 0.00218823
8.75711e-05 1.59035e-05 2.0272e-06
1.59035e-05 -0.000211227 -1.05958e-05
2.0272e-06 -1.05958e-05 -0.000280538
0.000407984 -0.000132954 -3.31794e-06
-0.000132954 -2.95106e-05 5.86303e-07
-3.31794e-06 5.86303e-07 -0.000138581
0.00459082 0.00022099 3.70856e-05
0.00022099 0.00276785 -1.1766e-05
3.70856e-05 -1.1766e-05 0.00272754
0.00597937 0.000111368 -5.88521e-06
0.000111368 0.00366587 5.47474e-07
-5.88521e-06 5.47474e-07 0.0036505
0.000373528 -0.000202035 -2.4671e-05
-0.000202035 -8.84276e-05 1.97365e-05
-2.4671e-05 1.97365e-05 -0.000223517
0.00686172 7.313e-05 -0.000258338
7.313e-05 0.00422423 3.71272e-05
-0.000258338 3.71272e-05 0.00421417
0.0022482 0.00042218 -3.19743e-06
0.00042218 0.000173524 1.38088e-06
-3.19743e-06 1.38088e-06 1.35426e-05
0.00217848 0.000239463 -1.85979e-06
0.000239463 8.71183e-05 -1.03612e-07
-1.85979e-06 -1.03612e-07 3.41294e-06
0.00224758 0.000346191 -5.051e-06
0.000346191 4.8315e-05 -1.1921e-07
-5.051e-06 -1.1921e-07 -3.64021e-06
0.002122 0.00015381 -4.98618e-06
0.00015381 -2.88871e-05 -6.1475e-07
-4.98618e-06 -6.1475e-07 -3.0648e-05
0.00215924 6.89281e-05 -1.87951e-06
6.89281e-05 8.24256e-05 -1.75975e-07
-1.87951e-06 -1.75975e-07 2.44393e-05
0.00128798 2.82829e-06 -2.65012e-06
2.82829e-06 -6.50105e-05 -3.06201e-07
-2.65012e-06 -3.06201e-07 -0.000189865
0.00216358 -6.40074e-06 6.86626e-08
-6.40074e-06 8.71096e-05 1.01237e-07
6.86626e-08 1.01237e-07 3.01281e-05
0.00208582 6.51216e-05 -5.27123e-07
6.51216e-05 -3.69752e-05 -7.29004e-08
-5.27123e-07 -7.29004e-08 -3.8451e-05
0.00220995 0.000239526 -5.69939e-08
0.000239526 3.7473e-05 7.92835e-08
-5.69939e-08 7.92835e-08 1.1386e-05
0.00217794 0.000148427 -2.53963e-08
0.000148427 -3.71257e-05 4.87299e-08
-2.53963e-08 4.87299e-08 -9.33914e-06
0.00236416 0.000475377 2.35339e-07
0.000475377 0.000130636 -2.56401e-08
2.35339e-07 -2.56401e-08 2.793e-05
0.00228163 0.000345603 1.70488e-07
0.000345603 -4.38087e-05 1.99468e-07
1.70488e-07 1.99468e-07 -3.42153e-05
0.00208254 -1.09915e-05 4.58264e-06
-1.09915e-05 -3.71081e-05 -1.3406e-07
4.58264e-06 -1.3406e-07 -3.81673e-05
0.0022356 6.23569e-05 2.97911e-06
6.23569e-05 7.53109e-06 -2.5633e-07
2.97911e-06 -2.5633e-07 4.84328e-05
0.00219136 0.000218094 5.42826e-07
0.000218094 -5.82728e-05 3.12099e-08
5.42826e-07 3.12099e-08 -3.91113e-05
0.00231354 0.000156943 1.11436e-06
0.000156943 -4.95145e-05 3.3132e-07
1.11436e-06 3.3132e-07 1.92676e-05
0.00236915 0.00047791 1.84766e-07
0.00047791 3.91974e-05 -4.67681e-07
1.84766e-07 -4.67681e-07 -1.90825e-06
0.0024251 0.000341344 3.72381e-07
0.000341344 -4.39789e-05 1.66116e-07
3.72381e-07 1.66116e-07 -5.85006e-06
0.00217397 -7.52531e-05 1.32372e-06
-7.52531e-05 9.93761e-05 1.22749e-07
1.32372e-06 1.22749e-07 3.88981e-05
0.00208918 -0.000259988 3.56874e-06
-0.000259988 4.07809e-05 -5.19973e-07
3.56874e-06 -5.19973e-07 -5.47338e-05
0.00217412 -0.000153216 -3.85084e-06
-0.000153216 1.36336e-05 4.37065e-07
-3.85084e-06 4.37065e-07 4.48526e-06
0.00228259 -0.00035985 -5.53876e-06
-0.00035985 9.3272e-05 1.18079e-06
-5.53876e-06 1.18079e-06 2.46337e-05
0.000534985 -0.000362801 -5.13832e-06
-0.000362801 -0.000101032 8.78123e-06
-5.13832e-06 8.78123e-06 -0.000455089
0.00212201 -0.000863077 -7.97579e-07
-0.000863077 0.000637149 -2.60993e-06
-7.97579e-07 -2.60993e-06 7.32917e-05
0.0020396 -0.000868654 -8.45879e-07
-0.000868654 0.000293264 -2.53539e-06
-8.45879e-07 -2.53539e-06 -0.00020436
0.00206719 -0.000538271 -3.08209e-06
-0.000538271 5.05324e-05 6.48362e-07
-3.08209e-06 6.48362e-07 -0.000132258
0.00233823 -0.000491601 -1.77508e-07
-0.000491601 5.82756e-05 -5.11098e-07
-1.77508e-07 -5.11098e-07 9.82983e-06
0.00227392 -0.000672414 -1.14636e-06
-0.000672414 0.000159286 8.48008e-07
-1.14636e-06 8.48008e-07 -3.42764e-05
0.00230986 -0.0007837 -1.38352e-06
-0.0007837 0.000345013 -3.26767e-06
-1.38352e-06 -3.26767e-06 -6.82239e-06
0.0023475 -0.000765677 2.44206e-06
-0.000765677 0.000279638 4.38363e-08
2.44206e-06 4.38363e-08 2.46968e-05
0.000617747 -0.000455442 6.54393e-06
-0.000455442 -2.09386e-05 -3.71899e-06
6.54393e-06 -3.71899e-06 -0.000471864
0.00143133 -0.0004998 -1.21578e-05
-0.0004998 0.000523154 -2.60134e-06
-1.21578e-05 -2.60134e-06 6.3603e-05
0.000489828 -0.000257786 -8.12852e-06
-0.000257786 6.15764e-05 1.7297e-06
-8.12852e-06 1.7297e-06 -0.000213969
-0.000577831 -0.000184719 -2.44088e-06
-0.000184719 -0.000663545 -4.1055e-06
-2.44088e-06 -4.1055e-06 -0.000967066
0.00217802 -8.80219e-05 -1.34219e-07
-8.80219e-05 3.84124e-05 3.9995e-08
-1.34219e-07 3.9995e-08 2.73294e-05
0.00219206 -0.000259843 1.7995e-06
-0.000259843 1.40836e-05 -4.27614e-07
1.7995e-06 -4.27614e-07 -2.22099e-05
0.00214582 -0.000150693 2.34308e-08
-0.000150693 -2.08616e-05 -1.73178e-07
2.34308e-08 -1.73178e-07 5.96388e-06
0.00227834 -0.000383519 -3.93451e-07
-0.000383519 -1.04743e-05 2.90139e-07
-3.93451e-07 2.90139e-07 -1.00635e-05
0.00162993 -0.000692756 -1.84994e-06
-0.000692756 0.000482929 3.44907e-09
-1.84994e-06 3.44907e-09 -4.24911e-05
0.00205618 -0.00100249 3.33244e-06
-0.00100249 0.000507423 2.81931e-08
3.33244e-06 2.81931e-08 -0.000112717
0.00247438 -0.000956456 -2.52474e-07
-0.000956456 0.000518291 7.67414e-07
-2.52474e-07 7.67414e-07 1.96989e-05
0.0023232 -0.000593223 -1.03299e-06
-0.000593223 0.000121115 1.17596e-07
-1.03299e-06 1.17596e-07 2.58521e-06
0.00236967 -0.000519396 8.17579e-07
-0.000519396 1.46004e-05 -3.57316e-07
8.17579e-07 -3.57316e-07 -1.18305e-05
0.00243956 -0.000802246 -1.43772e-06
-0.000802246 0.000434085 9.35295e-07
-1.43772e-06 9.35295e-07 8.85072e-05
0.00237458 -0.000742608 -1.08387e-06
-0.000742608 0.00014065 7.24858e-07
-1.08387e-06 7.24858e-07 -1.54408e-05
0.00243072 -0.00083229 6.73006e-06
-0.00083229 0.000265935 -4.387e-06
6.73006e-06 -4.387e-06 3.47011e-06
0.00147894 -0.000730093 7.11761e-07
-0.000730093 0.000503911 -1.58609e-06
7.11761e-07 -1.58609e-06 -6.90566e-05
0.00161811 -0.000683433 -1.00881e-06
-0.000683433 0.00067465 9.40052e-07
-1.00881e-06 9.40052e-07 9.96868e-05
0.000951535 -0.00033794 4.79204e-07
-0.00033794 0.000337908 -3.34223e-06
4.79204e-07 -3.34223e-06 -4.2918e-05
0.000153315 -0.000132549 -3.35383e-06
-0.000132549 -0.000117719 2.07479e-06
-3.35383e-06 2.07479e-06 -0.000380228
-0.000541355 -0.000192907 -5.44485e-07
-0.000192907 -0.000558504 1.43452e-06
-5.44485e-07 1.43452e-06 -0.000913695
0.00213608 -9.43898e-05 1.83303e-06
-9.43898e-05 -5.53075e-05 -1.79063e-08
1.83303e-06 -1.79063e-08 -1.59351e-05
0.00221943 -0.000227691 3.71052e-07
-0.000227691 -5.24042e-05 -6.89456e-07
3.71052e-07 -6.89456e-07 -1.51985e-05
0.00241489 -0.000466032 -1.16325e-06
-0.000466032 -5.88316e-05 -7.36161e-07
-1.16325e-06 -7.36161e-07 -1.60022e-05
0.00239716 -0.00063097 3.38183e-07
-0.00063097 4.75884e-05 8.63418e-07
3.38183e-07 8.63418e-07 -9.04661e-06
0.00187565 -0.000960122 3.91691e-06
-0.000960122 0.000622517 2.09103e-06
3.91691e-06 2.09103e-06 -2.96012e-05
0.00259442 -0.000883447 -3.1782e-06
-0.000883447 0.000169716 -1.1891e-06
-3.1782e-06 -1.1891e-06 -1.78737e-05
0.00156099 -0.00102569 -9.41951e-06
-0.00102569 0.000205183 8.0338e-06
-9.41951e-06 8.0338e-06 -0.000431889
0.00271351 -0.00102055 -4.53174e-07
-0.00102055 0.000643082 2.32584e-06
-4.53174e-07 2.32584e-06 0.00013361
0.00207993 -0.000779446 -1.31855e-05
-0.000779446 0.000169222 -2.77223e-06
-1.31855e-05 -2.77223e-06 -0.000156061
0.000226939 -9.58707e-05 1.12022e-06
-9.58707e-05 -6.10921e-05 -8.22281e-06
1.12022e-06 -8.22281e-06 -0.000249386
0.000545743 -0.000364506 -2.05506e-06
-0.000364506 0.000216757 4.86926e-06
-2.05506e-06 4.86926e-06 -0.000166451
0.00205156 -0.000330249 -1.00529e-05
-0.000330249 0.00109848 1.39567e-05
-1.00529e-05 1.39567e-05 0.000729555
0.00215196 -0.000895099 -2.79862e-06
-0.000895099 0.000921804 5.91847e-06
-2.79862e-06 5.91847e-06 0.000289785
0.00202233 -0.000531628 2.18737e-06
-0.000531628 0.000987079 5.46335e-06
2.18737e-06 5.46335e-06 0.000512916
0.00236532 -0.000869272 -4.75501e-06
-0.000869272 0.00110537 1.50458e-05
-4.75501e-06 1.50458e-05 0.000469156
0.000384414 3.99669e-05 -5.95978e-06
3.99669e-05 -4.1711e-05 -1.50041e-05
-5.95978e-06 -1.50041e-05 -0.000105078
0.000126382 8.96427e-05 -8.747e-07
8.96427e-05 -0.000135432 -1.07631e-05
-8.747e-07 -1.07631e-05 -0.000377395
0.00237965 0.000572984 -3.91285e-06
0.000572984 0.000207505 -5.90325e-07
-3.91285e-06 -5.90325e-07 2.64426e-05
-0.000275575 2.16799e-05 -1.95948e-06
2.16799e-05 -0.000402537 -6.20145e-07
-1.95948e-06 -6.20145e-07 -0.000749808
0.00302703 0.000593008 1.57236e-05
0.000593008 0.0015447 -5.72014e-06
1.57236e-05 -5.72014e-06 0.00115579
-0.000583383 0.000184724 -1.22003e-05
0.000184724 -0.000818725 1.0275e-06
-1.22003e-05 1.0275e-06 -0.00113192
0.00228492 0.000747199 2.04021e-06
0.000747199 0.000315536 3.22909e-06
2.04021e-06 3.22909e-06 -4.99582e-06
0.0023411 0.00072374 3.11124e-06
0.00072374 0.000231808 1.07278e-06
3.11124e-06 1.07278e-06 -1.22198e-05
0.00199355 0.000957147 1.02029e-05
0.000957147 0.000734835 1.09546e-05
1.02029e-05 1.09546e-05 7.30413e-05
0.00292296 0.00106226 -2.16789e-06
0.00106226 0.000979304 1.00093e-05
-2.16789e-06 1.00093e-05 0.000424238
0.00258797 0.000882339 5.80914e-06
0.000882339 0.000446962 5.50165e-06
5.80914e-06 5.50165e-06 6.88481e-05
0.000801434 0.000150359 1.31286e-06
0.000150359 0.000249754 -1.16317e-07
1.31286e-06 -1.16317e-07 8.13121e-05
0.00093085 0.000233091 -2.89801e-06
0.000233091 0.000424669 6.60542e-07
-2.89801e-06 6.60542e-07 6.79884e-05
0.00106586 0.000663625 3.27091e-07
0.000663625 0.000298906 3.2631e-07
3.27091e-07 3.2631e-07 -0.000224409
0.000913832 0.000210409 -4.07646e-08
0.000210409 0.000114753 -1.85635e-06
-4.07646e-08 -1.85635e-06 -0.000170818
0.00134857 0.000453701 3.52363e-06
0.000453701 0.000235866 -5.14247e-06
3.52363e-06 -5.14247e-06 -0.000123568
0.00236127 0.000606547 -2.17475e-06
0.000606547 0.000117555 -1.00058e-06
-2.17475e-06 -1.00058e-06 -1.63808e-05
0.00238847 0.000826332 2.56836e-06
0.000826332 0.000319612 5.00357e-07
2.56836e-06 5.00357e-07 -1.47847e-05
0.00238899 0.000800781 1.15377e-06
0.000800781 0.000200677 6.35423e-07
1.15377e-06 6.35423e-07 -4.7635e-05
0.00187017 0.00106789 2.42013e-06
0.00106789 0.000652744 1.12577e-06
2.42013e-06 1.12577e-06 -3.23672e-05
0.00215751 0.00100111 -2.38455e-06
0.00100111 0.000370726 -3.04309e-06
-2.38455e-06 -3.04309e-06 -0.000133872
0.00182679 0.000380427 2.74311e-06
0.000380427 0.000977427 5.97472e-06
2.74311e-06 5.97472e-06 0.000701036
-0.000281886 0.000182776 8.49157e-07
0.000182776 -0.000339984 -3.68775e-06
8.49157e-07 -3.68775e-06 -0.000725664
0.0018265 0.000855264 3.82065e-06
0.000855264 0.000773086 -8.04549e-06
3.82065e-06 -8.04549e-06 0.000186624
-0.00295854 0.000291614 6.37735e-06
0.000291614 -0.0024148 -4.46309e-06
6.37735e-06 -4.46309e-06 -0.00274899
0.00349135 0.000897319 5.43073e-06
0.000897319 0.0015277 -7.69424e-06
5.43073e-06 -7.69424e-06 0.00104866
0.00254257 0.000713599 -2.90212e-06
0.000713599 9.4642e-05 -6.98425e-07
-2.90212e-06 -6.98425e-07 1.26748e-05
0.00241524 0.000879672 8.96894e-06
0.000879672 0.000276031 -3.37332e-06
8.96894e-06 -3.37332e-06 -9.15122e-05
0.00224042 0.000791748 7.40612e-06
0.000791748 2.68082e-05 -1.45095e-07
7.40612e-06 -1.45095e-07 -0.000237272
0.00209233 0.00112249 1.70826e-05
0.00112249 0.000703447 -2.69989e-07
1.70826e-05 -2.69989e-07 3.32814e-05
0.00258155 0.00119373 7.82333e-06
0.00119373 0.000684084 -1.09415e-06
7.82333e-06 -1.09415e-06 8.92865e-05
0.000482491 8.06649e-05 4.12993e-06
8.06649e-05 5.8787e-05 -1.06297e-05
4.12993e-06 -1.06297e-05 -8.23613e-05
0.000940352 0.000183112 2.7119e-08
0.000183112 0.000405567 -8.66324e-07
2.7119e-08 -8.66324e-07 0.000197275
-0.000241544 0.000111623 -3.70636e-06
0.000111623 -0.000364877 -1.5518e-05
-3.70636e-06 -1.5518e-05 -0.000508078
-0.000780166 -1.51731e-05 6.33637e-06
-1.51731e-05 -0.000686698 -3.79835e-06
6.33637e-06 -3.79835e-06 -0.00086561
0.000526762 0.000111744 -1.71967e-06
0.000111744 0.000166091 2.70828e-07
-1.71967e-06 2.70828e-07 -9.09898e-06
0.000216513 0.000117198 3.33938e-06
0.000117198 6.41474e-07 -3.61545e-07
3.33938e-06 -3.61545e-07 -0.000214046
0.000511203 0.000208852 -6.26674e-07
0.000208852 0.000188415 -8.25111e-06
-6.26674e-07 -8.25111e-06 -1.07934e-05
0.000342951 9.37171e-06 -7.16553e-06
9.37171e-06 9.29551e-05 3.91554e-06
-7.16553e-06 3.91554e-06 -0.000126146
0.000730287 0.000131165 -1.33726e-06
0.000131165 0.000271657 3.28672e-07
-1.33726e-06 3.28672e-07 0.000125375
0.000529681 9.5542e-05 1.75555e-06
9.5542e-05 0.000102014 3.87067e-06
1.75555e-06 3.87067e-06 4.13211e-06
0.000438573 3.69763e-05 -2.95128e-06
3.69763e-05 3.62083e-05 1.14525e-07
-2.95128e-06 1.14525e-07 -5.86526e-05
0.00140719 6.98342e-06 2.2241e-06
6.98342e-06 0.000629494 5.02558e-06
2.2241e-06 5.02558e-06 0.000601841
0.000262305 -8.60365e-05 7.98127e-06
-8.60365e-05 -6.20866e-05 -5.02509e-06
7.98127e-06 -5.02509e-06 -0.000170694
0.00145291 4.00606e-06 -1.28257e-05
4.00606e-06 0.000657468 -1.98279e-06
-1.28257e-05 -1.98279e-06 0.00062807
0.000720459 -1.383e-05 4.2707e-05
-1.383e-05 0.000172272 1.11017e-05
4.2707e-05 1.11017e-05 0.000173836
0.0015171 3.12215e-07 -1.9861e-05
3.12215e-07 0.000698167 -1.01553e-05
-1.9861e-05 -1.01553e-05 0.000665017
0.000747533 -3.20124e-05 2.12031e-05
-3.20124e-05 0.000190319 4.38102e-06
2.12031e-05 4.38102e-06 0.00018337
0.00342086 -0.000148352 5.98171e-06
-0.000148352 0.00195887 -5.14183e-06
5.98171e-06 -5.14183e-06 0.00194472
0.000165066 7.72876e-05 -3.94848e-06
7.72876e-05 -0.000135619 -8.18869e-06
-3.94848e-06 -8.18869e-06 -0.000199649
0.000332239 -4.31196e-05 -4.60194e-06
-4.31196e-05 -5.48581e-05 7.71191e-07
-4.60194e-06 7.71191e-07 -0.000130543
0.00370962 0.000206037 -2.04743e-05
0.000206037 0.0021823 -1.10102e-05
-2.04743e-05 -1.10102e-05 0.00215286
0.000824536 -0.000168183 -2.06963e-05
-0.000168183 0.000232811 1.43555e-05
-2.06963e-05 1.43555e-05 0.000118946
0.00501958 0.000165522 -4.85095e-05
0.000165522 0.00304318 -7.62886e-08
-4.85095e-05 -7.62886e-08 0.00301646
0.00637556 0.000142453 -0.000208399
0.000142453 0.00394932 3.72826e-05
-0.000208399 3.72826e-05 0.00391961
0.00235744 0.000477269 -4.24371e-06
0.000477269 0.000119628 -3.25384e-07
-4.24371e-06 -3.25384e-07 1.72896e-05
0.00220687 0.000237343 -5.58943e-06
0.000237343 3.32999e-05 -8.76444e-07
-5.58943e-06 -8.76444e-07 8.19017e-06
0.00225901 0.000335552 2.44818e-07
0.000335552 -6.12472e-05 4.99688e-07
2.44818e-07 4.99688e-07 -4.84993e-05
0.00214073 0.000149847 -7.63995e-07
0.000149847 -7.04249e-05 -2.39747e-07
-7.63995e-07 -2.39747e-07 -3.59319e-05
0.00209373 5.83995e-05 -5.1585e-06
5.83995e-05 -2.82252e-05 4.05881e-09
-5.1585e-06 4.05881e-09 -3.19315e-05
0.00214675 -5.11695e-06 -1.30501e-06
-5.11695e-06 7.79436e-05 3.64113e-07
-1.30501e-06 3.64113e-07 2.06816e-05
0.00212165 -1.25726e-05 2.24765e-07
-1.25726e-05 -6.13594e-06 -8.30259e-09
2.24765e-07 -8.30259e-09 -9.61124e-06
0.00222115 6.52175e-05 6.18967e-07
6.52175e-05 3.32138e-06 -1.38999e-08
6.18967e-07 -1.38999e-08 3.91629e-05
0.00221867 0.000219396 -5.00237e-07
0.000219396 -3.306e-05 -7.43159e-08
-5.00237e-07 -7.43159e-08 -1.50153e-05
0.00228098 0.000157205 6.26973e-07
0.000157205 -7.54186e-05 1.09171e-07
6.26973e-07 1.09171e-07 2.09585e-06
0.00237516 0.000478542 -3.52219e-07
0.000478542 4.72474e-05 3.99866e-08
-3.52219e-07 3.99866e-08 4.38128e-06
0.00240441 0.000344304 2.07471e-06
0.000344304 -5.70241e-05 6.59926e-07
2.07471e-06 6.59926e-07 -1.02543e-05
0.00214848 -1.67367e-05 8.49973e-07
-1.67367e-05 -4.55102e-05 -8.16286e-08
8.49973e-07 -8.16286e-08 -1.18203e-05
0.00231126 7.94614e-05 1.19937e-06
7.94614e-05 -7.21995e-05 -4.54761e-07
1.19937e-06 -4.54761e-07 1.77013e-05
0.00238768 0.000227916 -1.12493e-06
0.000227916 -5.91568e-05 3.06242e-07
-1.12493e-06 3.06242e-07 2.0251e-05
0.0025162 0.000499828 -1.97193e-06
0.000499828 -3.14694e-05 5.04054e-08
-1.97193e-06 5.04054e-08 1.14549e-05
0.00218356 -8.79962e-05 -6.39977e-06
-8.79962e-05 4.0047e-05 5.68815e-07
-6.39977e-06 5.68815e-07 2.8977e-05
0.00225206 -0.000264486 -3.86568e-06
-0.000264486 6.03944e-05 8.30596e-07
-3.86568e-06 8.30596e-07 2.31865e-05
0.00209381 -0.000149516 -2.05911e-06
-0.000149516 -6.1181e-05 4.17983e-07
-2.05911e-06 4.17983e-07 -3.20493e-05
0.0022777 -0.000382774 -2.79601e-06
-0.000382774 -3.71623e-06 4.3138e-07
-2.79601e-06 4.3138e-07 -1.13955e-05
0.00154375 -0.000675492 9.90061e-06
-0.000675492 0.000418673 -2.60036e-06
9.90061e-06 -2.60036e-06 -9.93338e-05
0.00200644 -0.000998044 4.08612e-06
-0.000998044 0.00047624 -4.47249e-06
4.08612e-06 -4.47249e-06 -0.000145395
0.00247581 -0.000977038 -6.78406e-06
-0.000977038 0.00051674 -2.51907e-06
-6.78406e-06 -2.51907e-06 5.56378e-06
0.00234603 -0.000592901 -3.24002e-06
-0.000592901 0.000145891 9.82912e-07
-3.24002e-06 9.82912e-07 2.07731e-05
0.00236082 -0.000518369 2.29738e-06
-0.000518369 9.88658e-06 -6.32586e-07
2.29738e-06 -6.32586e-07 -8.31044e-06
0.00235195 -0.000743724 -2.32068e-06
-0.000743724 0.000119889 1.4551e-06
-2.32068e-06 1.4551e-06 -3.66959e-05
0.00243164 -0.000798246 6.05024e-07
-0.000798246 0.000438204 -7.5777e-07
6.05024e-07 -7.5777e-07 9.35418e-05
0.00246783 -0.000827967 8.81347e-06
-0.000827967 0.000288174 7.32292e-07
8.81347e-06 7.32292e-07 2.97472e-05
0.00190988 -0.000780746 -1.98832e-05
-0.000780746 0.000814751 -2.57715e-06
-1.98832e-05 -2.57715e-06 0.000226801
0.00105217 -0.000623911 9.44191e-06
-0.000623911 0.000308427 -1.42838e-05
9.44191e-06 -1.42838e-05 -0.000246132
0.00236872 -0.000402701 -3.72846e-06
-0.000402701 0.00120718 -6.59584e-06
-3.72846e-06 -6.59584e-06 0.000829605
-2.20715e-05 -4.30705e-05 2.72705e-06
-4.30705e-05 -0.000224239 4.6409e-06
2.72705e-06 4.6409e-06 -0.000483286
-0.000226342 -0.000122845 9.26397e-06
-0.000122845 -0.000357813 -1.26782e-05
9.26397e-06 -1.26782e-05 -0.000704877
0.00212491 -0.000101791 1.16509e-07
-0.000101791 -6.1391e-05 -6.26552e-08
1.16509e-07 -6.26552e-08 -2.29813e-05
0.00224191 -0.000229494 1.81329e-06
-0.000229494 -4.04411e-05 -1.09421e-08
1.81329e-06 -1.09421e-08 -4.52347e-06
0.00241262 -0.000459682 -9.50708e-07
-0.000459682 -4.10076e-05 2.98226e-07
-9.50708e-07 2.98226e-07 -8.57038e-06
0.00213142 -0.000970143 -2.11487e-06
-0.000970143 0.000781745 -1.03115e-07
-2.11487e-06 -1.03115e-07 0.000133364
0.00170781 -0.00102874 6.72362e-06
-0.00102874 0.000296479 -1.30926e-06
6.72362e-06 -1.30926e-06 -0.000338365
0.00255002 -0.00102289 -1.60592e-06
-0.00102289 0.000542442 1.68068e-07
-1.60592e-06 1.68068e-07 2.53845e-05
0.00240408 -0.000623666 3.98193e-07
-0.000623666 5.84163e-05 -4.68781e-07
3.98193e-07 -4.68781e-07 2.5187e-07
0.00234296 -0.00082983 3.64094e-06
-0.00082983 0.00029856 -4.25824e-06
3.64094e-06 -4.25824e-06 -3.2356e-05
0.002597 -0.000871587 -1.26226e-06
-0.000871587 0.000203089 -7.10471e-07
-1.26226e-06 -7.10471e-07 1.97208e-05
-0.000407717 1.06205e-05 -1.86106e-06
1.06205e-05 -0.000493749 -4.38528e-07
-1.86106e-06 -4.38528e-07 -0.00065829
0.00174812 -0.000829977 1.08044e-06
-0.000829977 0.000690593 -2.11525e-07
1.08044e-06 -2.11525e-07 6.86642e-05
0.00171924 -0.000793633 -4.99046e-06
-0.000793633 0.000731942 -5.23796e-07
-4.99046e-06 -5.23796e-07 7.88309e-05
0.00146772 -0.000471332 -1.64881e-06
-0.000471332 0.000613996 2.3843e-06
-1.64881e-06 2.3843e-06 0.000134111
0.00178439 -0.000429397 1.30515e-06
-0.000429397 0.000930456 -9.70887e-07
1.30515e-06 -9.70887e-07 0.000542809
0.000633555 -0.000213725 -5.25838e-07
-0.000213725 0.000250843 1.04252e-06
-5.25838e-07 1.04252e-06 -0.00012687
0.00226182 -0.000130293 -1.18685e-08
-0.000130293 -8.4627e-05 -1.29905e-07
-1.18685e-08 -1.29905e-07 -7.656e-06
0.00243835 -0.000305659 1.32184e-06
-0.000305659 -0.0001008 -5.78341e-07
1.32184e-06 -5.78341e-07 6.33016e-06
0.00251028 -0.00057613 -1.58535e-06
-0.00057613 -3.74193e-05 2.63084e-07
-1.58535e-06 2.63084e-07 8.26808e-06
0.00252982 -0.000755974 -2.09042e-06
-0.000755974 1.74257e-05 1.27058e-06
-2.09042e-06 1.27058e-06 -6.60916e-06
0.0024046 -0.00108949 -6.30502e-06
-0.00108949 0.000949002 4.1631e-06
-6.30502e-06 4.1631e-06 0.000263812
0.00256165 -0.000991916 -2.28114e-06
-0.000991916 0.000269408 -5.01956e-06
-2.28114e-06 -5.01956e-06 -3.75943e-05
0.00242285 -0.00122716 -5.89179e-05
-0.00122716 0.00072359 9.6733e-06
-5.89179e-05 9.6733e-06 1.44945e-05
0.00221053 -0.00103081 -2.98567e-05
-0.00103081 0.000357923 2.21287e-06
-2.98567e-05 2.21287e-06 -0.000164289
-0.000484135 3.04059e-05 -2.87691e-06
3.04059e-05 -0.000558861 -4.53866e-06
-2.87691e-06 -4.53866e-06 -0.000669905
0.00125289 -5.80734e-05 -4.60719e-07
-5.80734e-05 0.000678516 3.71731e-06
-4.60719e-07 3.71731e-06 0.000367723
0.00233797 -0.000428404 -8.51283e-06
-0.000428404 0.00134712 7.76836e-06
-8.51283e-06 7.76836e-06 0.00093813
0.000338841 -0.000324819 -9.77276e-06
-0.000324819 -1.46716e-05 8.23679e-06
-9.77276e-06 8.23679e-06 -0.000406281
0.00252008 -0.000956097 -1.41107e-06
-0.000956097 0.00114496 2.03768e-05
-1.41107e-06 2.03768e-05 0.000505448
0.00198998 -0.000802673 3.14519e-06
-0.000802673 0.000930625 1.58698e-05
3.14519e-06 1.58698e-05 0.000228934
0.000553571 0.000124387 1.81164e-06
0.000124387 9.28306e-05 -1.05928e-05
1.81164e-06 -1.05928e-05 -7.27666e-05
-0.000582468 9.75097e-05 3.0609e-07
9.75097e-05 -0.000560574 -3.53378e-06
3.0609e-07 -3.53378e-06 -0.000893184
0.00236731 0.000606893 -1.04487e-06
0.000606893 0.000134126 -3.30293e-07
-1.04487e-06 -3.30293e-07 -1.217e-06
0.000354531 0.000169513 -4.75418e-06
0.000169513 -0.000231451 6.68465e-06
-4.75418e-06 6.68465e-06 -0.000517098
0.0019201 0.000785972 9.42389e-06
0.000785972 0.000832643 -1.94117e-06
9.42389e-06 -1.94117e-06 0.00026026
0.000175714 0.000234985 -9.26907e-06
0.000234985 -0.000494071 -1.09674e-06
-9.26907e-06 -1.09674e-06 -0.000783476
0.0025121 0.000841393 5.03231e-06
0.000841393 0.000381595 1.60083e-06
5.03231e-06 1.60083e-06 4.38098e-05
0.00241052 0.000805693 -3.25655e-06
0.000805693 0.000193073 5.71626e-07
-3.25655e-06 5.71626e-07 -5.65395e-05
0.00227655 0.00113815 -4.38433e-06
0.00113815 0.000874187 7.67551e-06
-4.38433e-06 7.67551e-06 0.000177198
0.00215708 0.00101154 -7.68958e-06
0.00101154 0.000410203 3.39036e-06
-7.68958e-06 3.39036e-06 -0.000106701
0.000750976 0.00027128 -3.38147e-07
0.00027128 0.000283037 -4.45415e-07
-3.38147e-07 -4.45415e-07 1.75634e-05
0.000914522 0.000323728 1.73437e-06
0.000323728 0.000402654 -3.32542e-06
1.73437e-06 -3.32542e-06 6.0928e-06
0.00157756 0.000808977 -2.86222e-06
0.000808977 0.00062308 -9.16221e-08
-2.86222e-06 -9.16221e-08 4.81514e-05
0.000551863 0.000372397 -4.03559e-06
0.000372397 -0.000218615 1.99935e-06
-4.03559e-06 1.99935e-06 -0.00053361
0.00297799 0.000806991 1.21028e-06
0.000806991 0.00119414 7.52349e-07
1.21028e-06 7.52349e-07 0.000738567
0.00258019 0.000721461 -2.48415e-06
0.000721461 0.000100357 -4.69406e-07
-2.48415e-06 -4.69406e-07 1.49673e-05
0.00255855 0.000866261 2.80018e-06
0.000866261 0.000373699 -7.33794e-07
2.80018e-06 -7.33794e-07 2.02786e-05
0.00261383 0.000827258 5.65112e-07
0.000827258 0.00026973 2.76467e-06
5.65112e-07 2.76467e-06 -4.22644e-06
0.0020487 0.00112984 4.8188e-06
0.00112984 0.00066754 1.36528e-06
4.8188e-06 1.36528e-06 -9.41089e-06
0.00246653 0.00123352 -5.33074e-06
0.00123352 0.000620429 8.16446e-07
-5.33074e-06 8.16446e-07 -2.56683e-06
-0.00183269 3.2669e-06 -1.12264e-05
3.2669e-06 -0.00134377 1.79508e-06
-1.12264e-05 1.79508e-06 -0.00158027
-0.00305483 0.000347727 -2.0163e-06
0.000347727 -0.00185613 -4.82156e-06
-2.0163e-06 -4.82156e-06 -0.00235676
0.00207406 0.000926549 1.22178e-05
0.000926549 0.00079994 -5.13401e-06
1.22178e-05 -5.13401e-06 0.00021811
0.001117 0.000472056 5.99357e-06
0.000472056 2.90903e-05 -9.17178e-06
5.99357e-06 -9.17178e-06 -0.000300323
0.00272071 0.000671666 4.38857e-07
0.000671666 -0.000156821 8.83289e-07
4.38857e-07 8.83289e-07 -2.78842e-05
0.00265416 0.00086776 7.22076e-06
0.00086776 0.000155435 2.88472e-08
7.22076e-06 2.88472e-08 -2.38553e-05
0.00271186 0.00107857 1.14152e-05
0.00107857 0.000472981 -4.25132e-06
1.14152e-05 -4.25132e-06 -2.29935e-05
0.00223736 0.00126708 6.25005e-06
0.00126708 0.000586146 -9.20211e-07
6.25005e-06 -9.20211e-07 -0.000127106
0.00151595 0.000241805 4.21323e-06
0.000241805 0.000815481 -3.45514e-07
4.21323e-06 -3.45514e-07 0.000574687
0.000390357 0.000213119 -5.01009e-06
0.000213119 8.52936e-05 1.26058e-06
-5.01009e-06 1.26058e-06 -9.47248e-05
0.000581871 0.000133792 -8.19059e-06
0.000133792 0.000227002 -6.35014e-06
-8.19059e-06 -6.35014e-06 0.000101699
3.00609e-05 4.51275e-05 2.99022e-06
4.51275e-05 -0.000179056 -3.32056e-06
2.99022e-06 -3.32056e-06 -0.000335638
-0.00149203 5.61409e-05 3.81144e-07
5.61409e-05 -0.00105318 -2.05743e-07
3.81144e-07 -2.05743e-07 -0.00127793
0.00075425 8.45414e-05 -1.0387e-06
8.45414e-05 0.00029011 -6.78848e-08
-1.0387e-06 -6.78848e-08 0.000140333
0.000729493 0.000245726 4.33993e-06
0.000245726 0.000371673 2.5865e-06
4.33993e-06 2.5865e-06 0.000162568
0.00068567 0.00010121 1.25766e-06
0.00010121 0.000345797 2.41114e-06
1.25766e-06 2.41114e-06 9.9024e-05
0.00042584 0.000134243 -3.52051e-06
0.000134243 4.46349e-05 -9.6633e-06
-3.52051e-06 -9.6633e-06 -4.67848e-05
0.000738074 7.15679e-05 -4.7267e-06
7.15679e-05 0.000386824 -3.85387e-06
-4.7267e-06 -3.85387e-06 0.000132726
-0.000137228 7.74727e-05 -2.471e-06
7.74727e-05 -0.000243593 3.40721e-06
-2.471e-06 3.40721e-06 -0.000436649
0.000742303 0.000143838 2.05799e-06
0.000143838 0.000278337 2.69573e-06
2.05799e-06 2.69573e-06 0.000128134
0.000443579 9.71406e-05 2.41436e-06
9.71406e-05 5.28987e-05 4.05029e-06
2.41436e-06 4.05029e-06 -4.85435e-05
0.000424316 2.13756e-05 -1.93783e-06
2.13756e-05 2.95372e-05 -4.14491e-07
-1.93783e-06 -4.14491e-07 -6.49075e-05
0.00128697 1.98942e-05 5.64996e-07
1.98942e-05 0.000556189 3.74335e-06
5.64996e-07 3.74335e-06 0.000529379
0.000424715 -5.00169e-05 3.37788e-06
-5.00169e-05 2.40953e-05 -3.97958e-06
3.37788e-06 -3.97958e-06 -6.7577e-05
0.00136093 5.07007e-06 -1.13181e-05
5.07007e-06 0.000601367 -1.93123e-06
-1.13181e-05 -1.93123e-06 0.000574426
0.000638286 -4.67814e-06 3.86722e-05
-4.67814e-06 0.000120952 1.09229e-05
3.86722e-05 1.09229e-05 0.000124023
0.00139492 -3.47633e-05 -1.24469e-05
-3.47633e-05 0.000622212 -9.15259e-06
-1.24469e-05 -9.15259e-06 0.000593431
0.000708397 -2.21515e-05 1.746e-05
-2.21515e-05 0.000163428 4.0547e-06
1.746e-05 4.0547e-06 0.000161586
0.000634254 -3.66331e-05 3.45854e-06
-3.66331e-05 0.000118956 -4.58321e-06
3.45854e-06 -4.58321e-06 0.000109283
0.000346576 3.76043e-05 -2.8423e-07
3.76043e-05 -5.48331e-05 -6.54065e-06
-2.8423e-07 -6.54065e-06 -9.46968e-05
0.000438011 4.49491e-05 -1.71977e-06
4.49491e-05 1.8586e-05 2.04189e-08
-1.71977e-06 2.04189e-08 -3.52582e-05
0.00301679 0.000158482 -1.60802e-05
0.000158482 0.00171454 -9.2764e-06
-1.60802e-05 -9.2764e-06 0.0016991
0.000635429 -5.05942e-05 -1.50801e-05
-5.05942e-05 0.000140327 1.25247e-05
-1.50801e-05 1.25247e-05 5.85047e-05
0.00388941 0.000166848 -2.77353e-05
0.000166848 0.00228642 -2.07048e-06
-2.77353e-05 -2.07048e-06 0.00226478
0.00519616 6.98242e-05 -0.000192613
6.98242e-05 0.00314767 2.88379e-05
-0.000192613 2.88379e-05 0.00314319
0.00237987 0.000478815 2.24226e-07
0.000478815 5.51904e-05 6.44505e-07
2.24226e-07 6.44505e-07 1.07047e-05
0.00224478 0.000220748 -1.60169e-06
0.000220748 -9.33276e-06 -5.94962e-07
-1.60169e-06 -5.94962e-07 7.62795e-06
0.00238263 0.000346523 1.97667e-06
0.000346523 -7.10056e-05 1.4538e-06
1.97667e-06 1.4538e-06 -1.55139e-05
0.00225017 0.000157544 4.00597e-07
0.000157544 -0.000100517 -2.16603e-07
4.00597e-07 -2.16603e-07 -1.41606e-05
0.00220594 6.80922e-05 -2.25435e-06
6.80922e-05 -1.41325e-06 2.44629e-07
-2.25435e-06 2.44629e-07 2.94877e-05
0.00216138 -1.53334e-05 -6.26871e-06
-1.53334e-05 2.48838e-05 2.25675e-07
-6.26871e-06 2.25675e-07 1.9178e-05
0.00216454 -1.60909e-05 7.42035e-07
-1.60909e-05 -3.31944e-05 1.07057e-08
7.42035e-07 1.07057e-08 2.00871e-06
0.00228363 8.40363e-05 4.39974e-07
8.40363e-05 -8.60229e-05 1.3755e-07
4.39974e-07 1.3755e-07 2.69065e-06
0.00238064 0.000233618 9.00237e-07
0.000233618 -6.52013e-05 1.59556e-07
9.00237e-07 1.59556e-07 1.61401e-05
0.00249312 0.000483607 5.31209e-07
0.000483607 -4.88459e-05 2.20015e-07
5.31209e-07 2.20015e-07 -9.92969e-07
0.0022797 -1.64467e-05 -3.46034e-07
-1.64467e-05 -8.1411e-05 -2.23864e-07
-3.46034e-07 -2.23864e-07 6.10097e-07
0.00242317 0.000135488 -9.01666e-08
0.000135488 -0.000118438 8.72419e-07
-9.01666e-08 8.72419e-07 2.78811e-05
0.00264419 0.000343256 -1.44028e-06
0.000343256 -6.86826e-05 2.50423e-07
-1.44028e-06 2.50423e-07 5.18032e-05
0.00211248 -0.000109036 -1.41971e-06
-0.000109036 -6.80854e-05 -1.06233e-07
-1.41971e-06 -1.06233e-07 -3.04699e-05
0.0022651 -0.000230466 -1.95823e-06
-0.000230466 -2.70265e-05 1.99337e-07
-1.95823e-06 1.99337e-07 7.6185e-06
0.00240073 -0.00045238 1.78361e-07
-0.00045238 -2.94235e-05 4.12196e-07
1.78361e-07 4.12196e-07 -7.34754e-06
0.00217022 -0.000963211 -5.18488e-06
-0.000963211 0.00078811 -3.27663e-06
-5.18488e-06 -3.27663e-06 0.000145739
0.00185567 -0.00102301 1.30553e-05
-0.00102301 0.000393773 -6.43324e-06
1.30553e-05 -6.43324e-06 -0.00023434
0.00238731 -0.00102144 1.92567e-06
-0.00102144 0.000445121 -1.05163e-06
1.92567e-06 -1.05163e-06 -7.63449e-05
0.00241529 -0.000617705 -2.96275e-07
-0.000617705 7.01033e-05 -1.11465e-07
-2.96275e-07 -1.11465e-07 1.04796e-05
0.00261914 -0.000861311 2.8186e-06
-0.000861311 0.000245956 1.15773e-06
2.8186e-06 1.15773e-06 7.05495e-05
0.00249814 -0.000871016 1.24605e-05
-0.000871016 0.000363433 -4.62042e-06
1.24605e-05 -4.62042e-06 2.95216e-05
0.0013737 -0.000770476 -2.31599e-06
-0.000770476 0.000474675 -5.75669e-06
-2.31599e-06 -5.75669e-06 -0.000136771
0.00206364 -0.000853481 2.63158e-06
-0.000853481 0.000942746 -2.45944e-05
2.63158e-06 -2.45944e-05 0.000279846
0.00185877 -0.000551934 -4.11057e-06
-0.000551934 0.000916522 9.35026e-06
-4.11057e-06 9.35026e-06 0.000393324
1.15369e-05 2.07187e-05 5.73073e-06
2.07187e-05 -0.000220484 3.07856e-06
5.73073e-06 3.07856e-06 -0.000383041
0.000888342 -0.000374503 1.33204e-05
-0.000374503 0.000300825 -1.95088e-05
1.33204e-05 -1.95088e-05 -4.69155e-05
-0.000232067 -0.000149581 6.36371e-06
-0.000149581 -0.00032233 -5.95632e-06
6.36371e-06 -5.95632e-06 -0.000697527
0.0022845 -0.000123421 -3.18472e-07
-0.000123421 -6.85975e-05 5.14594e-08
-3.18472e-07 5.14594e-08 5.67695e-06
0.00241584 -0.000318307 4.1172e-07
-0.000318307 -0.000124355 -3.51943e-08
4.1172e-07 -3.51943e-08 -1.23262e-05
0.00250475 -0.000564246 -5.1118e-07
-0.000564246 -3.67766e-05 -6.8347e-08
-5.1118e-07 -6.8347e-08 8.20685e-06
0.00215622 -0.00105806 -2.47311e-06
-0.00105806 0.000785613 9.59253e-07
-2.47311e-06 9.59253e-07 0.000110591
0.00223816 -0.00118929 1.05891e-05
-0.00118929 0.000626082 -1.95864e-06
1.05891e-05 -1.95864e-06 -6.70372e-05
0.00241562 -0.00104014 -1.4893e-06
-0.00104014 0.000471361 -2.59443e-06
-1.4893e-06 -2.59443e-06 -3.9475e-05
0.00255476 -0.000770251 6.41519e-07
-0.000770251 3.38803e-05 -3.4117e-07
6.41519e-07 -3.4117e-07 -2.46426e-06
0.002551 -0.000969735 2.26663e-06
-0.000969735 0.000286713 -1.67907e-06
2.26663e-06 -1.67907e-06 -7.28222e-06
0.000123263 6.27261e-05 -2.48165e-06
6.27261e-05 -0.000156997 -2.93541e-06
-2.48165e-06 -2.93541e-06 -0.000267913
0.000809883 -0.000106793 -2.11758e-06
-0.000106793 0.000373586 1.16978e-06
-2.11758e-06 1.16978e-06 7.90746e-05
0.00129568 -0.000805815 -3.56524e-06
-0.000805815 0.000395631 3.62959e-07
-3.56524e-06 3.62959e-07 -0.000194796
0.00159765 -0.000708167 -7.487e-06
-0.000708167 0.000712573 3.0574e-06
-7.487e-06 3.0574e-06 2.95476e-05
0.00106579 -0.000251762 4.90933e-07
-0.000251762 0.000395726 -1.10834e-05
4.90933e-07 -1.10834e-05 3.42633e-06
0.00119486 -0.000417663 -4.24413e-06
-0.000417663 0.00060614 6.99523e-07
-4.24413e-06 6.99523e-07 0.000212574
0.00238784 -0.000160153 9.63762e-07
-0.000160153 -0.000143528 -1.21899e-06
9.63762e-07 -1.21899e-06 5.00125e-06
0.00262528 -0.00047143 7.39931e-07
-0.00047143 -0.000161288 -1.30037e-06
7.39931e-07 -1.30037e-06 2.2482e-05
0.00257227 -0.000715461 -3.59811e-07
-0.000715461 -7.20773e-05 2.15028e-06
-3.59811e-07 2.15028e-06 -2.79619e-05
0.0027151 -0.000978082 1.0652e-07
-0.000978082 0.000165784 -4.91265e-07
1.0652e-07 -4.91265e-07 1.7847e-05
0.00129837 -0.000970873 -8.53916e-06
-0.000970873 0.000306753 -3.09804e-06
-8.53916e-06 -3.09804e-06 -0.000328715
0.00267451 -0.0011624 4.99104e-06
-0.0011624 0.000532788 -2.7091e-06
4.99104e-06 -2.7091e-06 3.49633e-05
0.00245248 -0.00132456 -6.97417e-05
-0.00132456 0.000685423 5.18132e-06
-6.97417e-05 5.18132e-06 -4.89559e-05
0.000483497 5.05931e-05 8.97616e-07
5.05931e-05 5.72995e-05 -2.76497e-06
8.97616e-07 -2.76497e-06 -2.46377e-05
0.000734057 -0.000161746 6.54681e-06
-0.000161746 0.000296857 -7.22976e-06
6.54681e-06 -7.22976e-06 0.000151903
-0.000322028 7.46828e-05 -5.85411e-06
7.46828e-05 -0.000380209 -1.11495e-06
-5.85411e-06 -1.11495e-06 -0.000574067
0.000437021 -0.00017869 -6.12401e-06
-0.00017869 0.000148683 1.03273e-05
-6.12401e-06 1.03273e-05 -0.000191095
0.00191228 -0.00024676 -8.03846e-06
-0.00024676 0.00099195 -7.7396e-06
-8.03846e-06 -7.7396e-06 0.00065177
0.00137794 -0.000357834 -1.36617e-05
-0.000357834 0.000709547 1.51336e-06
-1.36617e-05 1.51336e-06 0.000159348
0.00130861 -0.000887345 -1.06471e-05
-0.000887345 0.000375112 3.89113e-05
-1.06471e-05 3.89113e-05 -0.000221631
0.00464084 -0.00117589 -3.00388e-05
-0.00117589 0.00254144 1.53504e-05
-3.00388e-05 1.53504e-05 0.00168497
2.55139e-05 0.000143114 4.27555e-06
0.000143114 -0.000212586 -3.01536e-06
4.27555e-06 -3.01536e-06 -0.000449599
0.00235766 0.000494017 2.87697e-06
0.000494017 0.00128247 4.03357e-06
2.87697e-06 4.03357e-06 0.000880402
0.00261969 0.000731019 -3.77851e-07
0.000731019 0.000105959 -6.13565e-07
-3.77851e-07 -6.13565e-07 1.59116e-05
0.00272283 0.000334313 8.12684e-07
0.000334313 0.00109067 3.6822e-06
8.12684e-07 3.6822e-06 0.00078845
0.00126366 0.000754944 1.01387e-06
0.000754944 0.00043191 9.10023e-07
1.01387e-06 9.10023e-07 -0.000132178
0.00298254 0.000789354 -3.4443e-06
0.000789354 0.00118378 9.7642e-06
-3.4443e-06 9.7642e-06 0.000731507
0.00267463 0.000848427 -4.95386e-06
0.000848427 0.000454309 2.76984e-07
-4.95386e-06 2.76984e-07 0.000116633
0.00298126 0.000862882 -4.74188e-06
0.000862882 0.00050854 6.98217e-06
-4.74188e-06 6.98217e-06 0.000224066
0.00198536 0.00113553 -5.81998e-06
0.00113553 0.000617218 3.49904e-06
-5.81998e-06 3.49904e-06 -6.48648e-05
0.00227769 0.00126774 -1.54557e-05
0.00126774 0.000510422 -6.0001e-08
-1.54557e-05 -6.0001e-08 -0.000138855
-0.000592578 0.000107864 1.84673e-06
0.000107864 -0.000512092 1.85245e-06
1.84673e-06 1.85245e-06 -0.000804978
-0.000331456 0.000446035 5.24047e-06
0.000446035 -0.000155791 -2.72424e-06
5.24047e-06 -2.72424e-06 -0.000650967
0.00187221 0.000927517 -3.53475e-08
0.000927517 0.000630103 -6.27663e-07
-3.53475e-08 -6.27663e-07 3.70152e-05
0.00238552 0.000618699 -6.10572e-06
0.000618699 0.000887992 -1.19911e-07
-6.10572e-06 -1.19911e-07 0.000515026
0.0026718 0.000642189 9.11809e-08
0.000642189 -0.000223579 -6.50495e-07
9.11809e-08 -6.50495e-07 -7.00507e-05
0.00281475 0.000881073 3.24448e-06
0.000881073 0.0002475 -7.11519e-07
3.24448e-06 -7.11519e-07 5.18102e-05
0.00249912 0.00103137 -4.03395e-06
0.00103137 0.000394943 -4.11987e-07
-4.03395e-06 -4.11987e-07 -8.36641e-05
0.0024924 0.00127788 1.72665e-06
0.00127788 0.000723549 7.41203e-07
1.72665e-06 7.41203e-07 1.95165e-05
-0.00123577 -4.54233e-06 -5.14797e-06
-4.54233e-06 -0.000890102 -2.31307e-06
-5.14797e-06 -2.31307e-06 -0.00110625
0.00264072 0.000444078 -2.08974e-06
0.000444078 -0.000262442 3.90736e-07
-2.08974e-06 3.90736e-07 -7.72444e-05
0.00372647 0.000858014 -7.72695e-06
0.000858014 0.00236236 8.61637e-06
-7.72695e-06 8.61637e-06 0.00178543
0.00173476 0.000844504 2.41431e-06
0.000844504 0.000437317 -3.46556e-06
2.41431e-06 -3.46556e-06 -8.24495e-05
0.00278429 0.000859322 -1.75427e-05
0.000859322 -3.89675e-06 -1.08248e-05
-1.75427e-05 -1.08248e-05 4.72516e-05
0.00153902 0.000953724 8.32148e-06
0.000953724 -0.000275524 -1.11436e-05
8.32148e-06 -1.11436e-05 -0.000709999
0.00332033 0.00140515 4.84349e-06
0.00140515 0.00115196 3.87714e-06
4.84349e-06 3.87714e-06 0.000414079
-8.77591e-06 0.000144638 1.30093e-06
0.000144638 -0.000149134 5.79435e-06
1.30093e-06 5.79435e-06 -0.000346385
0.000477728 0.000156788 -1.60052e-06
0.000156788 0.000171931 -4.82652e-07
-1.60052e-06 -4.82652e-07 3.92883e-05
-0.000144631 7.74362e-05 -6.05111e-06
7.74362e-05 -0.000166045 -3.90398e-06
-6.05111e-06 -3.90398e-06 -0.000271612
0.000151636 -1.74153e-06 2.76541e-06
-1.74153e-06 -0.00011157 -2.11226e-06
2.76541e-06 -2.11226e-06 -0.000249216
0.000527143 0.000132054 4.00361e-06
0.000132054 0.000238935 -5.61047e-06
4.00361e-06 -5.61047e-06 -2.6366e-06
-0.000207033 0.000187361 -6.1315e-06
0.000187361 -0.000194613 1.01213e-05
-6.1315e-06 1.01213e-05 -0.000384293
0.000488546 2.81334e-05 -1.72244e-06
2.81334e-05 0.000112026 -1.92524e-07
-1.72244e-06 -1.92524e-07 -3.58033e-05
0.000265446 7.1685e-06 -7.64418e-08
7.1685e-06 4.02474e-05 -4.21811e-07
-7.64418e-08 -4.21811e-07 -0.000171353
-0.000107341 9.38405e-05 -9.07072e-06
9.38405e-05 -0.00024056 4.12603e-06
-9.07072e-06 4.12603e-06 -0.000323202
0.000665983 0.000167064 2.62089e-06
0.000167064 0.000350927 -2.73091e-06
2.62089e-06 -2.73091e-06 9.10541e-05
0.00136068 0.000189859 -1.21134e-06
0.000189859 0.000683952 -6.66865e-06
-1.21134e-06 -6.66865e-06 0.000616071
-0.000377886 4.22618e-05 1.19954e-05
4.22618e-05 -0.000387981 -1.21868e-05
1.19954e-05 -1.21868e-05 -0.000510813
0.000555298 0.000134199 -3.46017e-06
0.000134199 0.000293258 4.17397e-06
-3.46017e-06 4.17397e-06 2.47249e-05
0.00057887 4.47689e-05 -2.45024e-06
4.47689e-05 0.000213855 3.72353e-06
-2.45024e-06 3.72353e-06 5.20269e-06
0.000520172 3.25475e-05 1.67268e-06
3.25475e-05 0.000110584 2.61782e-06
1.67268e-06 2.61782e-06 -3.3837e-05
0.000446514 -7.58108e-05 -1.81833e-06
-7.58108e-05 4.41132e-05 3.35329e-06
-1.81833e-06 3.35329e-06 -5.26351e-05
0.00044604 1.74724e-05 4.97904e-07
1.74724e-05 3.70995e-05 -4.37059e-07
4.97904e-07 -4.37059e-07 -5.42961e-05
0.00134311 2.78163e-05 3.90561e-06
2.78163e-05 0.000597009 4.05502e-06
3.90561e-06 4.05502e-06 0.000570916
0.000434187 1.61407e-05 2.24781e-06
1.61407e-05 1.89491e-05 -3.57062e-06
2.24781e-06 -3.57062e-06 -6.45888e-05
0.00137229 2.06614e-05 -1.13947e-05
2.06614e-05 0.000614423 -2.09946e-06
-1.13947e-05 -2.09946e-06 0.000586967
0.000764489 1.10789e-06 3.46439e-05
1.10789e-06 0.000208134 9.9725e-06
3.46439e-05 9.9725e-06 0.000210505
0.00132571 -1.6394e-05 -1.11205e-05
-1.6394e-05 0.000577177 -8.49806e-06
-1.11205e-05 -8.49806e-06 0.000552226
0.000748608 -1.32535e-05 1.45506e-05
-1.32535e-05 0.000189659 4.06732e-06
1.45506e-05 4.06732e-06 0.00018988
0.000815344 -2.97676e-05 2.58159e-06
-2.97676e-05 0.000228774 -3.76219e-06
2.58159e-06 -3.76219e-06 0.000225048
0.000508555 -1.47858e-05 9.4249e-07
-1.47858e-05 5.68361e-05 -4.16843e-06
9.4249e-07 -4.16843e-06 -8.53924e-06
0.000234951 3.07728e-05 -2.53226e-07
3.07728e-05 -0.00013139 -6.16788e-06
-2.53226e-07 -6.16788e-06 -0.000163653
0.000319963 3.67594e-05 1.68194e-06
3.67594e-05 -6.77976e-05 5.9016e-07
1.68194e-06 5.9016e-07 -0.000109899
0.00292024 0.00012797 -4.65722e-06
0.00012797 0.00163707 -7.46109e-06
-4.65722e-06 -7.46109e-06 0.00163029
0.00033779 1.74041e-05 -1.56945e-06
1.74041e-05 -5.90318e-05 9.7214e-06
-1.56945e-06 9.7214e-06 -0.000108127
0.0033479 0.000170415 -1.15946e-05
0.000170415 0.00193334 -1.48796e-06
-1.15946e-05 -1.48796e-06 0.00191517
0.00411994 0.000109691 -8.38345e-05
0.000109691 0.00242313 1.14311e-05
-8.38345e-05 1.14311e-05 0.00241384
0.0024659 0.000467917 1.99116e-06
0.000467917 -6.85652e-05 5.3647e-07
1.99116e-06 5.3647e-07 -1.612e-05
0.00237375 0.000240318 3.37405e-07
0.000240318 -7.07789e-05 -1.74056e-07
3.37405e-07 -1.74056e-07 1.20847e-05
0.00224814 8.86036e-05 -1.72125e-07
8.86036e-05 -0.00010495 -3.61906e-08
-1.72125e-07 -3.61906e-08 -1.74741e-05
0.00218305 -1.53144e-05 -2.26446e-06
-1.53144e-05 -1.89029e-05 6.74498e-08
-2.26446e-06 6.74498e-08 1.75148e-05
0.00227044 -1.2537e-05 -4.5609e-07
-1.2537e-05 -9.33379e-05 8.93581e-08
-4.5609e-07 8.93581e-08 -7.57336e-06
0.00238728 0.000131731 9.92527e-07
0.000131731 -0.000137727 2.72697e-07
9.92527e-07 2.72697e-07 7.84262e-06
0.00254145 0.000356773 -6.5681e-07
0.000356773 -0.000116268 -2.85698e-07
-6.5681e-07 -2.85698e-07 4.10488e-06
0.00235616 -1.48811e-05 2.56645e-06
-1.48811e-05 -0.000174577 -5.20376e-07
2.56645e-06 -5.20376e-07 -1.38438e-05
0.00269097 0.000170044 2.12953e-07
0.000170044 -0.000137333 1.89735e-06
2.12953e-07 1.89735e-06 5.21496e-05
0.00238733 0.000160822 -2.39855e-06
0.000160822 -0.000388817 6.04161e-06
-2.39855e-06 6.04161e-06 -0.000187816
0.00230292 -0.000116785 -3.49674e-07
-0.000116785 -5.61836e-05 4.69752e-08
-3.49674e-07 4.69752e-08 1.53238e-05
0.00240542 -0.000331629 -2.45437e-06
-0.000331629 -0.000139169 2.41878e-07
-2.45437e-06 2.41878e-07 -2.31468e-05
0.00249941 -0.000551288 1.94383e-06
-0.000551288 -3.25248e-05 2.84912e-07
1.94383e-06 2.84912e-07 9.77074e-06
0.00211981 -0.00105923 -1.4008e-06
-0.00105923 0.000747378 -1.04611e-06
-1.4008e-06 -1.04611e-06 7.24115e-05
0.00214292 -0.00117585 3.78124e-05
-0.00117585 0.000566148 -5.10612e-06
3.78124e-05 -5.10612e-06 -0.000120584
0.00264792 -0.00105552 1.78181e-05
-0.00105552 0.000593833 -2.75084e-06
1.78181e-05 -2.75084e-06 9.21973e-05
0.0025385 -0.000779302 3.40606e-06
-0.000779302 2.82e-05 -1.42288e-06
3.40606e-06 -1.42288e-06 -2.05018e-05
0.00247617 -0.00093707 4.98365e-06
-0.00093707 0.000272121 1.00759e-06
4.98365e-06 1.00759e-06 -7.94094e-06
0.00125628 -0.000802342 -5.6378e-06
-0.000802342 0.000388246 -2.30912e-05
-5.6378e-06 -2.30912e-05 -0.000226633
0.000539479 -0.000529068 1.09896e-05
-0.000529068 0.000107662 -1.98987e-05
1.09896e-05 -1.98987e-05 -0.000555854
0.00144832 -0.000246783 8.17067e-06
-0.000246783 0.000595334 1.57046e-06
8.17067e-06 1.57046e-06 0.000205873
0.000494242 -5.55748e-07 -1.0335e-06
-5.55748e-07 8.24731e-05 3.32749e-06
-1.0335e-06 3.32749e-06 -2.52103e-05
-0.000293341 -1.31253e-05 5.23495e-06
-1.31253e-05 -0.000353535 -3.17303e-06
5.23495e-06 -3.17303e-06 -0.000629176
0.00144959 -0.000380183 -1.27911e-06
-0.000380183 0.000778617 -3.40982e-06
-1.27911e-06 -3.40982e-06 0.000384418
0.00238234 -0.00016328 2.17775e-07
-0.00016328 -0.000156903 -2.3722e-07
2.17775e-07 -2.3722e-07 -3.74028e-06
0.000418834 -1.28446e-05 1.64532e-06
-1.28446e-05 1.34526e-05 4.83946e-07
1.64532e-06 4.83946e-07 -6.89145e-05
0.00044355 -8.5403e-05 -3.70669e-06
-8.5403e-05 7.16134e-05 -9.92726e-07
-3.70669e-06 -9.92726e-07 -4.97851e-05
0.00258233 -0.000458901 -2.18078e-07
-0.000458901 -0.00016381 6.94644e-08
-2.18078e-07 6.94644e-08 3.86604e-06
0.00256718 -0.000700417 -1.71075e-06
-0.000700417 -5.65605e-05 1.08812e-07
-1.71075e-06 1.08812e-07 -8.07558e-06
0.00213414 -0.00111905 1.5867e-06
-0.00111905 0.000785693 3.01087e-06
1.5867e-06 3.01087e-06 0.000101272
0.00270572 -0.00136703 1.28734e-05
-0.00136703 0.000830029 -1.80288e-06
1.28734e-05 -1.80288e-06 8.63267e-05
0.0024631 -0.00112553 1.61689e-06
-0.00112553 0.000405564 -2.25954e-06
1.61689e-06 -2.25954e-06 -7.08648e-05
0.00263834 -0.000976266 2.32259e-06
-0.000976266 0.000119146 -1.62037e-06
2.32259e-06 -1.62037e-06 -2.45368e-05
0.000550574 -1.17188e-05 -2.56274e-06
-1.17188e-05 0.000195226 -1.52191e-06
-2.56274e-06 -1.52191e-06 -1.21155e-05
0.000805143 -0.000163026 -4.11241e-07
-0.000163026 0.000395139 2.24549e-06
-4.11241e-07 2.24549e-06 4.44581e-05
0.00128574 -0.000839196 9.53298e-06
-0.000839196 0.000405873 1.16639e-05
9.53298e-06 1.16639e-05 -0.00018262
0.00210461 -0.000793726 3.2649e-05
-0.000793726 0.0011061 -1.74765e-05
3.2649e-05 -1.74765e-05 0.000306342
0.000759454 -0.000329704 -3.03628e-06
-0.000329704 0.000393438 1.23897e-06
-3.03628e-06 1.23897e-06 -0.000187249
0.000474513 -0.000287567 6.47252e-06
-0.000287567 9.45101e-05 -6.87878e-06
6.47252e-06 -6.87878e-06 -0.000250499
0.00243735 -0.000186559 1.75664e-06
-0.000186559 -0.000367486 -4.85418e-07
1.75664e-06 -4.85418e-07 -0.000126506
0.00273154 -0.000611012 -2.36074e-06
-0.000611012 -0.000200982 1.86872e-06
-2.36074e-06 1.86872e-06 5.81849e-05
0.00302366 -0.00102541 -4.41636e-06
-0.00102541 0.00014657 3.15846e-06
-4.41636e-06 3.15846e-06 0.000104452
0.00275398 -0.00120566 3.32e-06
-0.00120566 0.000317035 -4.28124e-06
3.32e-06 -4.28124e-06 -7.71777e-06
0.00153677 -0.00111466 -3.60108e-07
-0.00111466 0.000496837 -9.4851e-06
-3.60108e-07 -9.4851e-06 -0.000199105
0.00352582 -0.00159601 -5.90007e-06
-0.00159601 0.00113796 1.34553e-07
-5.90007e-06 1.34553e-07 0.000365221
0.000385428 5.74278e-05 -7.87157e-07
5.74278e-05 1.72505e-05 -9.51688e-06
-7.87157e-07 -9.51688e-06 -0.000101296
3.38618e-05 -4.86607e-05 7.82629e-06
-4.86607e-05 -0.000192673 -3.41072e-06
7.82629e-06 -3.41072e-06 -0.000315535
0.00148867 -0.00022285 -5.15084e-06
-0.00022285 0.0007345 9.1784e-06
-5.15084e-06 9.1784e-06 0.000566483
0.000545118 1.79034e-05 -2.6741e-06
1.79034e-05 0.000203727 1.23836e-05
-2.6741e-06 1.23836e-05 -6.6342e-05
0.00125635 -0.000289767 -1.04533e-05
-0.000289767 0.000671603 1.46858e-05
-1.04533e-05 1.46858e-05 0.000296436
-0.00178706 -0.000177191 -4.75354e-06
-0.000177191 -0.00136018 -3.16901e-05
-4.75354e-06 -3.16901e-05 -0.00166209
4.97003e-05 -0.000338825 -2.45503e-05
-0.000338825 0.000343882 -5.21898e-07
-2.45503e-05 -5.21898e-07 -0.000646735
0.00125996 -0.00112148 -6.01766e-05
-0.00112148 0.000218592 2.77146e-05
-6.01766e-05 2.77146e-05 -0.00025219
-0.000216567 0.000302836 5.7703e-07
0.000302836 -0.000186835 -1.92501e-06
5.7703e-07 -1.92501e-06 -0.000551743
0.00353197 0.000646141 -1.32612e-05
0.000646141 0.00221485 -3.37164e-06
-1.32612e-05 -3.37164e-06 0.0017568
0.00259801 0.000609928 -2.72143e-06
0.000609928 -0.000299403 -8.02601e-07
-2.72143e-06 -8.02601e-07 -0.000122064
0.00296575 0.000892119 -5.95257e-06
0.000892119 0.000337373 -3.85776e-07
-5.95257e-06 -3.85776e-07 0.000126086
0.00350162 0.000703947 -9.22843e-06
0.000703947 0.00160326 3.45629e-06
-9.22843e-06 3.45629e-06 0.00121882
0.00164293 0.000926845 -1.34083e-05
0.000926845 0.000441046 2.35645e-07
-1.34083e-05 2.35645e-07 -0.000163087
0.00230662 0.00098514 -6.79563e-06
0.00098514 0.000330342 3.05028e-06
-6.79563e-06 3.05028e-06 -0.000131795
0.00275881 0.00128508 -1.05037e-05
0.00128508 0.000866533 -9.20158e-07
-1.05037e-05 -9.20158e-07 0.000172565
0.000160293 0.000236522 3.62603e-06
0.000236522 6.70782e-05 2.81353e-07
3.62603e-06 2.81353e-07 -0.000225416
0.00261113 0.000431924 -2.20446e-06
0.000431924 -0.000286794 -2.59226e-06
-2.20446e-06 -2.59226e-06 -8.35382e-05
0.00199426 0.000608043 3.71398e-06
0.000608043 0.00129484 7.94018e-06
3.71398e-06 7.94018e-06 0.000798081
0.00165652 0.000814212 4.28335e-06
0.000814212 0.000447261 1.70695e-06
4.28335e-06 1.70695e-06 -7.02398e-05
0.00292367 0.000831527 2.01907e-07
0.000831527 0.000127442 1.48137e-07
2.01907e-07 1.48137e-07 0.000171155
0.00216655 0.00104238 -2.60975e-06
0.00104238 9.49191e-05 -6.02104e-06
-2.60975e-06 -6.02104e-06 -0.000355379
0.0029137 0.00131909 -2.43178e-06
0.00131909 0.000934244 -5.48101e-07
-2.43178e-06 -5.48101e-07 0.0002231
0.0017951 0.000470803 -7.03062e-06
0.000470803 0.00120723 -4.02258e-06
-7.03062e-06 -4.02258e-06 0.000818332
0.00437618 0.00084054 -0.000118599
0.00084054 0.000641233 -4.22914e-05
-0.000118599 -4.22914e-05 0.00100336
0.00200153 0.000741641 -5.64337e-06
0.000741641 0.0011574 9.43063e-06
-5.64337e-06 9.43063e-06 0.000616199
0.00131667 0.00087645 -4.22035e-06
0.00087645 0.000240849 -1.03254e-05
-4.22035e-06 -1.03254e-05 -0.000358588
0.0035081 0.00118338 -4.51726e-05
0.00118338 0.000700242 -2.53949e-05
-4.51726e-05 -2.53949e-05 0.000420588
0.00113876 0.00105924 -3.04096e-05
0.00105924 -6.75446e-05 -3.58728e-06
-3.04096e-05 -3.58728e-06 -0.00068419
0.00142961 0.00170821 7.72377e-06
0.00170821 -0.00268695 -7.3698e-05
7.72377e-06 -7.3698e-05 -0.00128953
0.000509274 0.000214835 8.969e-06
0.000214835 0.000236895 1.01764e-05
8.969e-06 1.01764e-05 8.47843e-05
0.000189908 0.000146534 1.14257e-06
0.000146534 7.4134e-05 -7.10392e-07
1.14257e-06 -7.10392e-07 -5.85603e-05
-0.000318951 8.07499e-05 1.84759e-06
8.07499e-05 -0.000248004 -3.41784e-06
1.84759e-06 -3.41784e-06 -0.000371423
0.000368749 -6.81004e-05 2.54353e-06
-6.81004e-05 3.73195e-05 -3.17936e-06
2.54353e-06 -3.17936e-06 -0.000113183
-0.000224616 4.80463e-06 1.91641e-06
4.80463e-06 -0.00027601 -3.34472e-06
1.91641e-06 -3.34472e-06 -0.000485389
0.00181443 0.000329707 -3.08763e-08
0.000329707 0.00110572 -4.11276e-06
-3.08763e-08 -4.11276e-06 0.000825837
-0.00115673 4.84285e-05 -8.38614e-06
4.84285e-05 -0.000870752 1.89375e-05
-8.38614e-06 1.89375e-05 -0.00094262
0.000471847 -1.03267e-05 -2.59451e-07
-1.03267e-05 9.59679e-05 -3.67732e-07
-2.59451e-07 -3.67732e-07 -5.85213e-05
0.000373788 9.33726e-05 5.89737e-07
9.33726e-05 4.28712e-05 -4.59475e-07
5.89737e-07 -4.59475e-07 -0.000134069
4.36577e-05 0.000117954 3.8628e-06
0.000117954 -0.000122461 3.32826e-06
3.8628e-06 3.32826e-06 -0.000170861
0.00016239 0.000100183 1.03213e-06
0.000100183 1.40678e-06 -8.4753e-08
1.03213e-06 -8.4753e-08 -0.000239516
0.000418968 0.000100142 7.0594e-07
0.000100142 0.000101269 -1.7326e-06
7.0594e-07 -1.7326e-06 -3.03832e-05
-2.60275e-05 9.827e-05 6.33937e-06
9.827e-05 -9.50056e-05 -1.29542e-05
6.33937e-06 -1.29542e-05 -0.00018896
0.0007107 0.000175799 -5.9853e-06
0.000175799 0.000315881 -6.4451e-07
-5.9853e-06 -6.4451e-07 0.000119825
0.00104516 0.000150938 -1.27607e-06
0.000150938 0.000540346 3.25353e-06
-1.27607e-06 3.25353e-06 0.000307652
0.000600278 0.000123826 -4.62348e-06
0.000123826 0.000196132 -1.41049e-06
-4.62348e-06 -1.41049e-06 5.31601e-06
0.000171688 -1.31408e-05 -1.55559e-06
-1.31408e-05 -0.000128729 7.64304e-07
-1.55559e-06 7.64304e-07 -0.000271004
0.00126301 -0.000139743 2.67264e-06
-0.000139743 0.000720711 -3.6671e-06
2.67264e-06 -3.6671e-06 0.000467417
0.000110299 -5.55824e-05 -9.87341e-07
-5.55824e-05 -0.000153653 3.90563e-06
-9.87341e-07 3.90563e-06 -0.000303023
0.000371045 6.64972e-06 -1.89686e-06
6.64972e-06 3.98584e-06 3.55684e-06
-1.89686e-06 3.55684e-06 -9.76332e-05
0.000407239 4.83747e-05 2.29876e-06
4.83747e-05 2.42796e-05 -8.95608e-08
2.29876e-06 -8.95608e-08 -7.54801e-05
0.000309053 2.04356e-05 -2.3642e-06
2.04356e-05 -6.86564e-05 5.32825e-06
-2.3642e-06 5.32825e-06 -0.00010022
0.000318518 -2.53619e-06 -7.93188e-07
-2.53619e-06 -3.32923e-05 -4.17895e-06
-7.93188e-07 -4.17895e-06 -0.000132655
0.00083976 1.79338e-05 -4.70422e-06
1.79338e-05 0.000272632 -1.52741e-06
-4.70422e-06 -1.52741e-06 0.000243897
0.00267517 6.43217e-06 3.13786e-05
6.43217e-06 0.00145312 6.34022e-06
3.13786e-05 6.34022e-06 0.00146501
0.0014021 5.80471e-05 -1.91465e-05
5.80471e-05 0.000637957 -8.43161e-06
-1.91465e-05 -8.43161e-06 0.000609069
0.000762883 -4.10228e-06 1.39213e-05
-4.10228e-06 0.000202801 3.97839e-06
1.39213e-05 3.97839e-06 0.000203885
0.000833532 -1.86749e-05 2.06288e-06
-1.86749e-05 0.000241622 -3.53516e-06
2.06288e-06 -3.53516e-06 0.000240575
0.000371269 1.03632e-05 -1.14671e-06
1.03632e-05 -1.86199e-05 -5.42024e-06
-1.14671e-06 -5.42024e-06 -8.34046e-05
0.000509625 -4.03919e-05 5.74305e-07
-4.03919e-05 6.94467e-05 -1.84114e-07
5.74305e-07 -1.84114e-07 -3.0396e-06
0.000359307 2.68141e-05 1.13435e-07
2.68141e-05 -5.94043e-05 -5.10418e-06
1.13435e-07 -5.10418e-06 -8.28254e-05
0.000818932 4.76287e-05 -2.93777e-08
4.76287e-05 0.000250904 2.00481e-07
-2.93777e-08 2.00481e-07 0.000219295
0.00260201 9.52808e-05 -1.5381e-06
9.52808e-05 0.00141874 -6.28541e-06
-1.5381e-06 -6.28541e-06 0.00142017
0.000440888 4.98872e-05 3.14857e-06
4.98872e-05 1.73691e-05 7.71226e-06
3.14857e-06 7.71226e-06 -2.82816e-05
0.00289351 0.000132852 -4.28744e-06
0.000132852 0.0016225 -4.23706e-07
-4.28744e-06 -4.23706e-07 0.00161452
0.00349745 0.000140988 -1.06388e-05
0.000140988 0.0020182 7.66152e-06
-1.06388e-05 7.66152e-06 0.00200571
0.002452 0.000369364 8.46957e-07
0.000369364 -0.000157305 -2.60325e-07
8.46957e-07 -2.60325e-07 -3.65007e-05
0.00236333 0.000128969 -4.32664e-07
0.000128969 -0.000150599 -1.07438e-06
-4.32664e-07 -1.07438e-06 -4.93754e-06
0.00226797 -8.59687e-06 -4.67314e-07
-8.59687e-06 -0.000100202 1.60769e-07
-4.67314e-07 1.60769e-07 -1.06175e-05
0.00235296 -5.52062e-06 -2.78735e-08
-5.52062e-06 -0.000176783 7.41358e-08
-2.78735e-08 7.41358e-08 -1.45838e-05
0.00265504 0.000182424 1.78245e-06
0.000182424 -0.000138325 -4.03063e-07
1.78245e-06 -4.03063e-07 4.78232e-05
0.00254361 0.000139327 3.01155e-06
0.000139327 -0.000299568 -1.38889e-06
3.01155e-06 -1.38889e-06 -0.000104621
0.00278785 3.45447e-05 1.71555e-06
3.45447e-05 -0.00018836 5.23634e-06
1.71555e-06 5.23634e-06 6.25017e-05
0.00593132 0.00180819 6.20287e-05
0.00180819 -0.00127442 2.14324e-05
6.20287e-05 2.14324e-05 0.000473857
0.002763 0.000152624 -5.44903e-05
0.000152624 -0.000115711 1.91321e-05
-5.44903e-05 1.91321e-05 0.000257897
0.000436599 0.000122058 -3.28167e-06
0.000122058 6.84769e-05 -5.07564e-06
-3.28167e-06 -5.07564e-06 -5.0375e-05
0.0023837 -0.00016504 -1.05074e-06
-0.00016504 -0.000166489 9.86933e-07
-1.05074e-06 9.86933e-07 -8.27288e-06
0.00252793 -0.000447121 -8.03101e-07
-0.000447121 -0.000179004 1.38373e-06
-8.03101e-07 1.38373e-06 -2.4069e-05
0.00256797 -0.00068523 2.64248e-06
-0.00068523 -4.13181e-05 -1.60693e-06
2.64248e-06 -1.60693e-06 1.53642e-05
0.00185568 -0.00110968 -8.76504e-06
-0.00110968 0.000620412 8.7113e-06
-8.76504e-06 8.7113e-06 -6.35554e-05
0.00291454 -0.00137037 3.88727e-05
-0.00137037 0.000962369 3.6244e-06
3.88727e-05 3.6244e-06 0.000228479
0.00235525 -0.00110077 -5.77496e-06
-0.00110077 0.000346847 1.23759e-06
-5.77496e-06 1.23759e-06 -0.000114146
0.00262249 -0.000983922 4.30176e-06
-0.000983922 0.000105336 -9.49318e-07
4.30176e-06 -9.49318e-07 -3.78611e-05
0.00173938 -0.000862479 3.03271e-05
-0.000862479 0.000587419 -5.41466e-05
3.03271e-05 -5.41466e-05 5.52026e-05
0.00166731 -0.000756148 2.88163e-05
-0.000756148 0.000813318 -4.83889e-05
2.88163e-05 -4.83889e-05 6.88334e-05
-0.000245742 -0.000219248 2.44214e-05
-0.000219248 -0.000282874 2.76792e-06
2.44214e-05 2.76792e-06 -0.000840134
0.000520869 8.1662e-06 1.98493e-06
8.1662e-06 8.57371e-05 4.29588e-06
1.98493e-06 4.29588e-06 -5.20962e-07
0.000745511 -0.000380891 -5.4444e-06
-0.000380891 0.000293448 1.5819e-05
-5.4444e-06 1.5819e-05 -8.91008e-05
0.00116662 -8.8952e-05 5.14232e-06
-8.8952e-05 0.000627785 -1.71921e-06
5.14232e-06 -1.71921e-06 0.000399646
0.000697158 -0.000167462 3.62227e-06
-0.000167462 0.000311358 -1.01564e-05
3.62227e-06 -1.01564e-05 -3.22975e-05
-5.25208e-05 -3.73219e-05 -7.51179e-06
-3.73219e-05 -0.00025806 6.52109e-06
-7.51179e-06 6.52109e-06 -0.000372422
0.00255856 -0.000212328 -1.51564e-06
-0.000212328 -0.00030055 -1.60077e-06
-1.51564e-06 -1.60077e-06 -4.96249e-05
0.000368804 5.2975e-05 9.94726e-07
5.2975e-05 2.21518e-05 -2.41002e-06
9.94726e-07 -2.41002e-06 -0.000103221
0.000600689 -9.97479e-05 3.08849e-06
-9.97479e-05 0.00022279 2.26614e-06
3.08849e-06 2.26614e-06 6.38006e-05
0.000882162 -0.000114954 9.24656e-06
-0.000114954 0.000334371 7.79327e-07
9.24656e-06 7.79327e-07 0.000190394
0.00262261 -0.000620329 2.28099e-06
-0.000620329 -0.00027655 -6.98833e-07
2.28099e-06 -6.98833e-07 -3.70823e-05
0.00287925 -0.000997193 -5.90286e-07
-0.000997193 7.93902e-05 -7.18029e-07
-5.90286e-07 -7.18029e-07 4.94008e-05
0.000870678 -0.000920601 7.75097e-06
-0.000920601 8.44457e-05 -1.04144e-06
7.75097e-06 -1.04144e-06 -0.000498279
0.00305627 -0.00152025 1.56791e-05
-0.00152025 0.00087896 7.51832e-07
1.56791e-05 7.51832e-07 0.000132606
0.00271641 -0.00121226 -8.24803e-08
-0.00121226 0.000304816 8.20681e-07
-8.24803e-08 8.20681e-07 -3.34805e-05
0.000331721 -4.60691e-05 -1.15101e-06
-4.60691e-05 5.48692e-05 -2.04114e-06
-1.15101e-06 -2.04114e-06 -0.000202222
0.00179946 -0.000351665 4.78638e-06
-0.000351665 0.00103786 1.13581e-06
4.78638e-06 1.13581e-06 0.000640015
0.00213696 -0.00125127 -2.15312e-06
-0.00125127 0.00075767 5.63551e-06
-2.15312e-06 5.63551e-06 0.000112956
0.00206226 -0.000499464 -4.44474e-07
-0.000499464 0.00123192 1.03221e-05
-4.44474e-07 1.03221e-05 0.000478642
0.00119524 -0.000301646 9.64178e-06
-0.000301646 0.000552268 9.80905e-06
9.64178e-06 9.80905e-06 0.000205628
0.00291001 -0.000427308 -1.69779e-05
-0.000427308 -0.000180441 4.41393e-06
-1.69779e-05 4.41393e-06 0.000125883
0.00245957 -0.000721109 -2.22507e-05
-0.000721109 -0.000367177 9.39245e-06
-2.22507e-05 9.39245e-06 -3.68317e-05
0.00289772 -0.00120685 -1.29155e-05
-0.00120685 0.000249624 -2.95447e-06
-1.29155e-05 -2.95447e-06 3.18148e-06
0.00471029 -0.00166374 -7.0562e-08
-0.00166374 0.00167777 1.44755e-06
-7.0562e-08 1.44755e-06 0.00107403
0.00047917 -0.00106651 -1.80708e-05
-0.00106651 -0.000255451 1.31667e-05
-1.80708e-05 1.31667e-05 -0.00084878
0.000129706 -3.61921e-05 1.84524e-06
-3.61921e-05 -0.000145909 -3.46705e-06
1.84524e-06 -3.46705e-06 -0.000271158
-0.000125001 -1.81598e-05 -2.82291e-06
-1.81598e-05 -0.000359478 1.12054e-05
-2.82291e-06 1.12054e-05 -0.00052559
0.000296672 -0.000168721 -9.50287e-06
-0.000168721 3.46918e-05 -5.15927e-06
-9.50287e-06 -5.15927e-06 -0.00016174
0.00219631 -0.000402307 -4.85976e-05
-0.000402307 0.00124934 4.27152e-05
-4.85976e-05 4.27152e-05 0.000894186
0.000898891 -0.000217924 -1.20663e-06
-0.000217924 0.000418108 2.03762e-05
-1.20663e-06 2.03762e-05 9.28907e-05
-0.00122123 -5.62608e-05 -1.03743e-06
-5.62608e-05 -0.000505314 1.40104e-06
-1.03743e-06 1.40104e-06 -0.00120955
0.00175209 -0.00133736 -3.7491e-06
-0.00133736 0.000847693 -1.57833e-05
-3.7491e-06 -1.57833e-05 2.36716e-05
0.00255224 0.000569371 6.21888e-06
0.000569371 0.00158522 -1.75907e-06
6.21888e-06 -1.75907e-06 0.00123443
-0.000880776 0.000226058 -3.26196e-06
0.000226058 -0.000462384 6.83711e-07
-3.26196e-06 6.83711e-07 -0.000863015
0.00256237 0.00041405 1.52963e-05
0.00041405 -0.000327093 3.77506e-06
1.52963e-05 3.77506e-06 -9.94885e-05
0.00306713 0.000805831 1.77159e-05
0.000805831 0.000251725 1.05797e-05
1.77159e-05 1.05797e-05 0.000293294
0.00277575 0.0011279 4.35103e-06
0.0011279 0.000453529 4.3127e-06
4.35103e-06 4.3127e-06 -1.06578e-05
0.00147732 0.000769709 -5.03393e-06
0.000769709 0.000404489 2.33745e-06
-5.03393e-06 2.33745e-06 -0.000106637
0.00251214 0.00123798 2.5882e-06
0.00123798 0.00072119 5.44523e-06
2.5882e-06 5.44523e-06 3.56841e-05
0.00248352 0.000501199 -5.09504e-07
0.000501199 0.00160812 1.22479e-06
-5.09504e-07 1.22479e-06 0.00125873
0.00314967 0.000661859 1.39818e-05
0.000661859 -4.59361e-05 6.75884e-06
1.39818e-05 6.75884e-06 0.000398448
0.00140136 0.000603037 -7.04633e-06
0.000603037 0.000731523 4.10377e-06
-7.04633e-06 4.10377e-06 0.000268577
0.0019563 0.000984354 2.84589e-06
0.000984354 0.00064816 -1.91309e-06
2.84589e-06 -1.91309e-06 4.90208e-06
0.00302102 0.00111044 -2.22507e-06
0.00111044 0.000468451 -3.85077e-06
-2.22507e-06 -3.85077e-06 0.000234366
0.00235497 0.00124113 -6.14911e-06
0.00124113 0.000600009 8.09092e-06
-6.14911e-06 8.09092e-06 -6.46526e-05
0.00313984 0.00209619 6.02948e-05
0.00209619 -0.00208714 1.15828e-05
6.02948e-05 1.15828e-05 -0.0008659
0.00057264 0.000377103 2.98661e-06
0.000377103 0.00053071 -4.78095e-07
2.98661e-06 -4.78095e-07 9.07388e-05
0.00461872 0.00138435 -0.000129352
0.00138435 0.000838874 -5.81357e-05
-0.000129352 -5.81357e-05 0.000901892
-1.20383e-05 0.000554146 -2.04405e-05
0.000554146 -0.000383153 6.21219e-06
-2.04405e-05 6.21219e-06 -0.000846959
0.000575725 0.000896041 -4.965e-06
0.000896041 -0.000193367 -2.14232e-05
-4.965e-06 -2.14232e-05 -0.000794661
0.00235191 0.0013789 -5.09675e-05
0.0013789 0.000317636 -2.56651e-05
-5.09675e-05 -2.56651e-05 -0.000148155
0.0157856 0.00103692 -0.000864827
0.00103692 0.000384759 -9.61284e-05
-0.000864827 -9.61284e-05 0.0013077
0.00261447 0.00314855 -0.000144865
0.00314855 -0.00475782 -0.000138235
-0.000144865 -0.000138235 -0.000940315
0.000671853 0.00243098 2.99558e-05
0.00243098 -0.00143133 -8.96906e-06
2.99558e-05 -8.96906e-06 -0.0014238
0.0048893 -0.0056237 0.00328961
-0.0056237 0.00345495 9.59859e-05
0.00328961 9.59859e-05 -0.00342486
0.0333458 -0.0162539 -0.000132824
-0.0162539 0.0203699 1.68786e-05
-0.000132824 1.68786e-05 0.00872192
0.00150333 0.000250821 7.28417e-06
0.000250821 0.000908184 9.16265e-06
7.28417e-06 9.16265e-06 0.000750684
0.000577796 0.000131493 -5.8574e-07
0.000131493 0.000361767 2.12967e-06
-5.8574e-07 2.12967e-06 0.000208591
-0.00016218 0.00015669 1.36395e-05
0.00015669 -7.05588e-05 -9.00803e-07
1.36395e-05 -9.00803e-07 -0.000252891
0.000533892 -6.20633e-05 8.5602e-07
-6.20633e-05 0.000147712 -1.68773e-06
8.5602e-07 -1.68773e-06 -1.48063e-05
0.0005534 7.0846e-05 3.64344e-06
7.0846e-05 0.000179017 -4.18197e-06
3.64344e-06 -4.18197e-06 -3.15479e-06
0.000537491 -1.50151e-05 1.43043e-06
-1.50151e-05 0.000230516 -4.18039e-06
1.43043e-06 -4.18039e-06 -4.32325e-06
0.00102187 0.000129803 6.21478e-06
0.000129803 0.000468697 1.02408e-05
6.21478e-06 1.02408e-05 0.000329415
0.000237554 0.000115263 3.92461e-06
0.000115263 1.81357e-05 1.08623e-05
3.92461e-06 1.08623e-05 -2.09146e-05
0.000763539 0.000170643 -2.57348e-06
0.000170643 0.000408451 7.75912e-07
-2.57348e-06 7.75912e-07 0.000150958
0.000381266 -1.46813e-05 4.05569e-07
-1.46813e-05 1.84273e-05 8.32501e-07
4.05569e-07 8.32501e-07 -0.000132683
0.000733015 6.52319e-05 -1.13536e-06
6.52319e-05 0.000294479 3.10566e-07
-1.13536e-06 3.10566e-07 9.9256e-05
0.000373464 0.000119328 -3.30337e-06
0.000119328 0.000126577 -5.47823e-06
-3.30337e-06 -5.47823e-06 3.87955e-05
0.000441581 0.00012515 7.3834e-07
0.00012515 0.000148286 1.37051e-06
7.3834e-07 1.37051e-06 -3.726e-05
0.0016396 0.000225681 -1.1999e-06
0.000225681 0.000968626 4.2969e-06
-1.1999e-06 4.2969e-06 0.000714341
-9.03825e-05 6.68313e-05 1.07073e-06
6.68313e-05 -6.24699e-05 -5.96738e-06
1.07073e-06 -5.96738e-06 -0.000262208
0.000893641 0.000107625 1.87031e-06
0.000107625 0.000461525 -1.08827e-06
1.87031e-06 -1.08827e-06 0.000233021
0.000125096 2.98441e-05 -1.26576e-06
2.98441e-05 -0.000140934 -2.76229e-06
-1.26576e-06 -2.76229e-06 -0.000316837
0.000243696 -6.8667e-05 -6.89158e-08
-6.8667e-05 -6.82176e-05 9.93854e-07
-6.89158e-08 9.93854e-07 -0.000220706
0.000251056 -2.97387e-05 1.26752e-07
-2.97387e-05 -3.25056e-05 -3.95178e-06
1.26752e-07 -3.95178e-06 -0.000205064
0.000890988 -7.65273e-05 3.58072e-06
-7.65273e-05 0.000403651 -4.8765e-06
3.58072e-06 -4.8765e-06 0.000228986
0.000898688 -7.94829e-05 -9.58465e-07
-7.94829e-05 0.000469303 3.15572e-08
-9.58465e-07 3.15572e-08 0.0002549
0.00079643 -0.000121725 1.97208e-06
-0.000121725 0.000367883 -1.75899e-07
1.97208e-06 -1.75899e-07 0.000156751
0.000432159 -0.000129067 -1.93554e-06
-0.000129067 7.96706e-05 2.33294e-06
-1.93554e-06 2.33294e-06 -8.04941e-05
0.000112721 -3.40074e-05 -2.18086e-07
-3.40074e-05 -0.000143065 1.40228e-06
-2.18086e-07 1.40228e-06 -0.000299418
0.000422011 -7.37325e-05 -1.15586e-06
-7.37325e-05 2.67319e-05 4.2128e-06
-1.15586e-06 4.2128e-06 -6.86507e-05
0.000434884 -4.70396e-05 2.24901e-06
-4.70396e-05 4.35038e-05 1.16451e-07
2.24901e-06 1.16451e-07 -5.67546e-05
0.000328099 6.13072e-06 5.07547e-06
6.13072e-06 -5.24686e-05 7.39375e-06
5.07547e-06 7.39375e-06 -8.51832e-05
0.000456681 6.98969e-05 -1.72971e-06
6.98969e-05 4.68864e-05 -3.90428e-06
-1.72971e-06 -3.90428e-06 -4.67902e-05
0.00033747 2.93721e-05 5.80576e-07
2.93721e-05 -5.0138e-05 1.52529e-07
5.80576e-07 1.52529e-07 -8.15933e-05
0.00261208 1.38892e-05 1.76027e-05
1.38892e-05 0.00141344 5.94162e-06
1.76027e-05 5.94162e-06 0.00142447
0.000358953 6.95094e-05 -5.74072e-06
6.95094e-05 -3.31824e-05 -8.63968e-06
-5.74072e-06 -8.63968e-06 -6.95333e-05
0.00167817 4.33186e-07 -1.07261e-05
4.33186e-07 0.000802168 7.73248e-08
-1.07261e-05 7.73248e-08 0.00080805
0.000794544 -8.26677e-06 1.4014e-06
-8.26677e-06 0.000217769 -2.51752e-06
1.4014e-06 -2.51752e-06 0.000218475
0.000376078 2.14778e-05 -3.24371e-07
2.14778e-05 -2.9016e-05 -4.03109e-06
-3.24371e-07 -4.03109e-06 -8.0111e-05
0.000448494 -4.07414e-05 1.48312e-06
-4.07414e-05 3.05977e-05 3.50291e-08
1.48312e-06 3.50291e-08 -3.48254e-05
0.000448167 3.77365e-06 2.42946e-06
3.77365e-06 -8.58723e-06 -4.65636e-06
2.42946e-06 -4.65636e-06 -2.48135e-05
0.0004831 -5.98672e-05 -1.71521e-06
-5.98672e-05 5.72039e-05 2.56027e-06
-1.71521e-06 2.56027e-06 -1.79137e-05
0.000791303 3.10451e-05 5.57725e-07
3.10451e-05 0.000222991 -8.15727e-07
5.57725e-07 -8.15727e-07 0.000201652
0.00226254 6.70285e-05 -6.64366e-07
6.70285e-05 0.0011881 -5.6137e-06
-6.64366e-07 -5.6137e-06 0.00119674
0.000406328 2.96536e-05 -9.08391e-07
2.96536e-05 -2.16714e-05 6.19712e-06
-9.08391e-07 6.19712e-06 -5.56257e-05
0.00279121 0.000108467 -2.58693e-07
0.000108467 0.0015491 1.88692e-06
-2.58693e-07 1.88692e-06 0.00154732
0.0031185 0.000144385 2.39029e-05
0.000144385 0.00177419 1.01827e-05
2.39029e-05 1.01827e-05 0.00176367
0.00260947 0.000196454 -1.42459e-06
0.000196454 -0.00014569 -3.05094e-06
-1.42459e-06 -3.05094e-06 3.69688e-05
0.00232581 2.1628e-07 -2.27055e-06
2.1628e-07 -0.00019346 3.40197e-08
-2.27055e-06 3.40197e-08 -2.96043e-05
0.00283835 0.000112016 1.1404e-05
0.000112016 -9.69459e-05 -6.4142e-07
1.1404e-05 -6.4142e-07 7.9029e-05
0.00287503 0.00138056 0.000146726
0.00138056 -0.00282418 4.81446e-05
0.000146726 4.81446e-05 -0.00102093
0.00273181 -2.1245e-06 -4.36241e-06
-2.1245e-06 -0.000211638 -1.48949e-06
-4.36241e-06 -1.48949e-06 3.69143e-05
0.00289565 0.000124098 -1.15455e-06
0.000124098 1.24587e-06 -2.45243e-06
-1.15455e-06 -2.45243e-06 0.000320332
0.00293122 -6.99005e-05 -4.57842e-05
-6.99005e-05 9.85127e-05 -1.02493e-05
-4.57842e-05 -1.02493e-05 0.000335277
0.00331548 0.00108494 -0.000173789
0.00108494 -0.00301213 -1.49741e-05
-0.000173789 -1.49741e-05 -0.00070148
0.00319864 0.000406922 0.000146183
0.000406922 -0.00150398 8.28889e-05
0.000146183 8.28889e-05 -0.00046195
0.000488703 9.21324e-05 9.16239e-07
9.21324e-05 0.000102523 -4.25523e-06
9.16239e-07 -4.25523e-06 -1.56345e-05
0.000569596 -1.91316e-05 -8.31133e-07
-1.91316e-05 0.000163094 -3.64263e-07
-8.31133e-07 -3.64263e-07 3.47318e-05
0.000322712 -0.000115228 -4.54795e-06
-0.000115228 -3.05186e-06 -4.87782e-07
-4.54795e-06 -4.87782e-07 -0.000133481
0.000387693 -7.67142e-05 -2.27851e-06
-7.67142e-05 6.91869e-05 -9.27163e-07
-2.27851e-06 -9.27163e-07 -7.6835e-05
0.00267568 -0.00023456 -1.95696e-06
-0.00023456 -0.000231158 2.98283e-06
-1.95696e-06 2.98283e-06 2.66999e-05
0.0026637 -0.000630411 1.58904e-06
-0.000630411 -0.000229141 -3.11904e-09
1.58904e-06 -3.11904e-09 -2.68769e-05
0.00272552 -0.000970662 9.30582e-07
-0.000970662 5.31491e-06 -2.3385e-06
9.30582e-07 -2.3385e-06 -1.47383e-05
0.00389425 -0.00132735 2.81164e-05
-0.00132735 0.00180055 2.49558e-06
2.81164e-05 2.49558e-06 0.00112271
0.00216775 -0.00144982 -9.10913e-06
-0.00144982 0.000336754 5.26904e-06
-9.10913e-06 5.26904e-06 -0.000386052
0.00265101 -0.00121511 2.5114e-06
-0.00121511 0.000277859 -2.11139e-06
2.5114e-06 -2.11139e-06 -6.88961e-05
-0.000475281 -0.000891601 2.35574e-06
-0.000891601 -0.000647863 -1.30956e-05
2.35574e-06 -1.30956e-05 -0.00136725
0.00280013 -0.000574342 2.39761e-05
-0.000574342 0.00147468 -1.06005e-05
2.39761e-05 -1.06005e-05 0.000875948
0.000895139 -0.000317575 5.55859e-06
-0.000317575 0.00037607 1.42586e-05
5.55859e-06 1.42586e-05 2.10242e-05
0.000893729 -0.000103971 2.69973e-06
-0.000103971 0.000407981 2.40308e-06
2.69973e-06 2.40308e-06 0.00024454
4.07969e-05 -0.000130471 -1.06325e-05
-0.000130471 -4.93011e-05 -1.11442e-05
-1.06325e-05 -1.11442e-05 -0.000455785
0.000762969 -4.59962e-05 -9.65661e-08
-4.59962e-05 0.000329491 -7.6002e-06
-9.65661e-08 -7.6002e-06 7.3435e-05
0.000510334 -1.5266e-05 -5.91206e-07
-1.5266e-05 0.000132018 6.24611e-06
-5.91206e-07 6.24611e-06 -4.16573e-06
0.000728731 -8.67266e-05 -9.72997e-06
-8.67266e-05 0.000236647 1.27546e-05
-9.72997e-06 1.27546e-05 0.000101728
0.00280427 -0.000407806 3.41741e-06
-0.000407806 -0.00025155 1.54405e-06
3.41741e-06 1.54405e-06 8.42473e-05
0.000328198 -5.25751e-05 1.2039e-07
-5.25751e-05 6.71954e-06 3.63416e-06
1.2039e-07 3.63416e-06 -0.00013311
0.000613108 -9.83965e-05 5.31751e-06
-9.83965e-05 0.000147381 -4.32874e-06
5.31751e-06 -4.32874e-06 -4.10293e-05
-0.000609451 -7.306e-05 1.30402e-05
-7.306e-05 -0.000488903 -3.14435e-06
1.30402e-05 -3.14435e-06 -0.000632452
0.00251182 -0.000757136 9.25614e-07
-0.000757136 -0.000338656 -8.46825e-07
9.25614e-07 -8.46825e-07 -5.61382e-05
0.0028255 -0.00119906 2.08475e-06
-0.00119906 0.000203715 -1.57003e-06
2.08475e-06 -1.57003e-06 -3.99899e-05
0.00211759 -0.00140181 -1.65606e-05
-0.00140181 0.000627654 2.22358e-06
-1.65606e-05 2.22358e-06 -4.63106e-05
0.00351056 -0.00155281 -5.20199e-06
-0.00155281 0.00098387 -3.26719e-07
-5.20199e-06 -3.26719e-07 0.000409517
0.00216072 -0.000280248 1.77184e-05
-0.000280248 0.00126472 -8.1176e-06
1.77184e-05 -8.1176e-06 0.000892103
-0.00112494 -0.000101008 9.03038e-06
-0.000101008 -0.000826573 4.20129e-06
9.03038e-06 4.20129e-06 -0.00120063
0.000810633 -0.00129955 4.23232e-07
-0.00129955 0.000460012 -8.47608e-07
4.23232e-07 -8.47608e-07 -0.00045535
0.00185941 -0.000532635 -1.09125e-05
-0.000532635 0.00104231 -2.4109e-06
-1.09125e-05 -2.4109e-06 0.000455651
0.00404194 -0.000622956 -7.02307e-05
-0.000622956 0.000531105 2.15611e-05
-7.02307e-05 2.15611e-05 0.000882428
0.00279492 -0.00101324 -4.51328e-05
-0.00101324 2.08656e-05 1.79095e-05
-4.51328e-05 1.79095e-05 0.000124994
0.00305779 -0.00135279 -5.23337e-06
-0.00135279 0.000697931 -1.7763e-05
-5.23337e-06 -1.7763e-05 0.000190245
0.00294904 -0.00159017 7.95032e-06
-0.00159017 0.000874962 2.90377e-05
7.95032e-06 2.90377e-05 0.000343023
0.000255951 -0.000222349 -3.81148e-06
-0.000222349 0.000163828 -1.94037e-05
-3.81148e-06 -1.94037e-05 -7.29317e-05
0.00100855 -0.000351711 -1.8136e-05
-0.000351711 0.000482214 5.05059e-06
-1.8136e-05 5.05059e-06 0.000124487
0.000788741 -0.000350131 -2.04772e-05
-0.000350131 0.000597343 7.86918e-05
-2.04772e-05 7.86918e-05 0.000172158
-0.000616016 -0.000945162 1.54703e-05
-0.000945162 0.000298326 -4.25634e-05
1.54703e-05 -4.25634e-05 -0.000801053
0.00625803 -0.000550086 4.94316e-05
-0.000550086 -0.00668184 2.22984e-05
4.94316e-05 2.22984e-05 -0.00716257
0.00299046 0.000440758 1.4487e-05
0.000440758 0.00192687 -5.31611e-06
1.4487e-05 -5.31611e-06 0.00158512
0.00013326 0.000420659 -2.05972e-06
0.000420659 -5.21573e-05 -1.68038e-06
-2.05972e-06 -1.68038e-06 -0.000466804
0.00177825 0.000512052 7.15105e-05
0.000512052 -0.000867339 2.69985e-05
7.15105e-05 2.69985e-05 -0.000323633
0.0023889 0.00102201 2.68693e-05
0.00102201 0.00015781 1.39626e-05
2.68693e-05 1.39626e-05 -2.45138e-05
0.00304572 0.00134232 1.24059e-05
0.00134232 0.000983194 1.53325e-05
1.24059e-05 1.53325e-05 0.000289789
0.00240722 0.00106511 1.57494e-05
0.00106511 0.000934504 1.34246e-05
1.57494e-05 1.34246e-05 0.000254605
0.00462293 0.00250787 0.000109643
0.00250787 -0.00168698 5.32512e-05
0.000109643 5.32512e-05 -0.000677891
0.000916365 0.000364881 2.82143e-06
0.000364881 0.000697287 -5.99512e-06
2.82143e-06 -5.99512e-06 0.000307272
0.00309167 0.00119 -5.54074e-06
0.00119 -2.82187e-05 4.34063e-06
-5.54074e-06 4.34063e-06 0.000166182
0.0010359 0.000705857 -9.14183e-06
0.000705857 0.000284003 8.18194e-06
-9.14183e-06 8.18194e-06 -0.000231174
0.00197878 0.00112355 1.59237e-06
0.00112355 0.000602798 -9.99647e-06
1.59237e-06 -9.99647e-06 -5.43809e-05
0.0031975 0.00142795 -1.49538e-05
0.00142795 0.000813308 -9.86748e-07
-1.49538e-05 -9.86748e-07 0.00031288
0.00501222 -4.3371e-06 -0.000241519
-4.3371e-06 -0.00765644 -0.00017349
-0.000241519 -0.00017349 -0.0073902
0.00672266 0.00348178 -0.000207719
0.00348178 -0.00209744 -9.63469e-05
-0.000207719 -9.63469e-05 0.000865316
0.00134688 0.00238662 -1.68559e-05
0.00238662 -0.0010136 -3.53081e-06
-1.68559e-05 -3.53081e-06 -0.00109673
0.00969723 -0.00432144 0.00094096
-0.00432144 0.00627025 0.000259832
0.00094096 0.000259832 0.00119374
0.0296532 -0.0184199 -0.000556618
-0.0184199 0.019251 -0.000563353
-0.000556618 -0.000563353 0.0070439
-0.000335048 0.000289864 -1.07714e-06
0.000289864 -0.000286969 -2.84194e-06
-1.07714e-06 -2.84194e-06 -0.000605559
0.00215555 -0.000749012 0.00183291
-0.000749012 0.00453175 3.95377e-05
0.00183291 3.95377e-05 0.00180199
0.010155 -0.00869046 8.28669e-05
-0.00869046 0.0122331 -0.000215005
8.28669e-05 -0.000215005 0.000771475
0.00344259 0.00198436 -8.3294e-05
0.00198436 0.000455488 -3.05097e-05
-8.3294e-05 -3.05097e-05 5.00553e-05
0.00108378 0.000733841 -3.54914e-05
0.000733841 0.000226543 -6.70367e-06
-3.54914e-05 -6.70367e-06 -0.000256445
0.00188568 0.00118573 -5.62779e-05
0.00118573 0.000543676 -4.48789e-05
-5.62779e-05 -4.48789e-05 -5.78378e-05
-9.28629e-05 0.0022494 0.000161248
0.0022494 -0.00116572 0.000133717
0.000161248 0.000133717 -0.00138923
0.0158521 0.00513374 0.000237679
0.00513374 -0.000980998 -2.70183e-06
0.000237679 -2.70183e-06 0.00112269
0.00694936 0.00530503 -0.000135959
0.00530503 -0.000892651 -0.000140053
-0.000135959 -0.000140053 0.0011287
0.0249843 -0.00957545 0.0013424
-0.00957545 0.0113086 0.000261156
0.0013424 0.000261156 0.0022451
0.0199588 -0.00311424 -0.000532416
-0.00311424 0.00985764 0.000786868
-0.000532416 0.000786868 0.0047518
0.000616484 0.000128505 2.78364e-06
0.000128505 0.000427952 4.75426e-06
2.78364e-06 4.75426e-06 0.000258674
0.000186614 0.00019381 1.47528e-06
0.00019381 0.000177727 4.26369e-07
1.47528e-06 4.26369e-07 -1.77781e-05
0.000558883 0.000276596 7.3031e-06
0.000276596 0.000483866 -7.60861e-06
7.3031e-06 -7.60861e-06 0.000155458
0.000599331 4.5457e-06 2.00973e-06
4.5457e-06 0.000189689 1.27765e-06
2.00973e-06 1.27765e-06 1.75142e-05
0.000493922 0.000111036 2.46861e-06
0.000111036 0.000119668 -1.96728e-07
2.46861e-06 -1.96728e-07 -6.05514e-05
-0.000169572 3.03211e-05 1.81969e-06
3.03211e-05 -0.000229036 -5.44494e-07
1.81969e-06 -5.44494e-07 -0.000447283
0.000856397 0.000142127 -3.34219e-06
0.000142127 0.00042724 8.22234e-07
-3.34219e-06 8.22234e-07 0.000237377
0.00013195 0.00010284 -5.71636e-06
0.00010284 -5.06391e-05 4.54738e-06
-5.71636e-06 4.54738e-06 -0.0001264
0.000301404 -1.57363e-06 -2.64679e-07
-1.57363e-06 -2.34933e-05 7.24322e-07
-2.64679e-07 7.24322e-07 -0.000183208
0.00106615 0.000136446 2.18351e-06
0.000136446 0.000588593 2.3362e-06
2.18351e-06 2.3362e-06 0.000351949
0.000324568 6.1289e-05 -6.54447e-07
6.1289e-05 9.0208e-05 -1.48563e-06
-6.54447e-07 -1.48563e-06 -0.000137031
0.000793855 7.4542e-05 1.38478e-06
7.4542e-05 0.00034613 1.96188e-07
1.38478e-06 1.96188e-07 0.000133104
0.000266624 9.03063e-05 -8.92021e-07
9.03063e-05 0.000158596 -3.72959e-06
-8.92021e-07 -3.72959e-06 -4.69565e-05
0.000668671 7.92533e-05 2.34174e-06
7.92533e-05 0.000341894 4.43379e-07
2.34174e-06 4.43379e-07 0.000140304
-0.000675879 1.16521e-06 4.20921e-06
1.16521e-06 -0.000191789 -6.17616e-06
4.20921e-06 -6.17616e-06 -0.000570765
-2.35491e-05 -6.3884e-05 -4.71711e-07
-6.3884e-05 -0.000152517 6.744e-07
-4.71711e-07 6.744e-07 -0.00036266
0.000694522 -6.44278e-05 -4.84699e-06
-6.44278e-05 0.000277866 -1.93503e-06
-4.84699e-06 -1.93503e-06 6.85957e-05
0.000725707 -6.38775e-05 -3.6926e-07
-6.38775e-05 0.000305246 -2.81393e-06
-3.6926e-07 -2.81393e-06 0.000107873
0.00038731 -7.42603e-05 -4.66438e-06
-7.42603e-05 7.70557e-05 1.87589e-06
-4.66438e-06 1.87589e-06 -7.89285e-05
0.000652746 -1.694e-05 -8.95763e-06
-1.694e-05 0.000306028 -3.61009e-06
-8.95763e-06 -3.61009e-06 0.000111875
0.000614685 -0.000171739 7.66636e-06
-0.000171739 0.000171916 -7.05947e-06
7.66636e-06 -7.05947e-06 2.95414e-05
0.000407475 -6.24773e-05 -4.74731e-06
-6.24773e-05 0.000180009 -1.81343e-06
-4.74731e-06 -1.81343e-06 -6.88768e-07
-0.000703831 -9.20386e-06 -1.15746e-06
-9.20386e-06 -0.000440867 -7.13824e-06
-1.15746e-06 -7.13824e-06 -0.000735459
-0.000352389 -4.51175e-05 -3.72384e-07
-4.51175e-05 -0.000360881 1.48691e-06
-3.72384e-07 1.48691e-06 -0.000541089
0.000874658 -0.000180561 -7.14756e-07
-0.000180561 0.000443172 1.11987e-06
-7.14756e-07 1.11987e-06 0.000233929
0.000159396 -6.85177e-05 5.28336e-08
-6.85177e-05 -9.56563e-05 1.38757e-06
5.28336e-08 1.38757e-06 -0.000253175
0.000604376 -0.000142304 2.21686e-06
-0.000142304 0.000205313 -1.58988e-06
2.21686e-06 -1.58988e-06 2.56113e-05
0.000645788 -0.000148445 3.14474e-07
-0.000148445 0.000222241 3.91779e-07
3.14474e-07 3.91779e-07 5.56602e-05
0.000565101 -7.31487e-05 -1.02359e-06
-7.31487e-05 0.000118833 4.71415e-06
-1.02359e-06 4.71415e-06 2.02326e-05
0.000250194 -1.60123e-06 2.52243e-07
-1.60123e-06 -2.95407e-05 -1.31987e-06
2.52243e-07 -1.31987e-06 -0.000204065
0.000448532 3.14678e-06 2.89953e-06
3.14678e-06 5.4907e-05 1.11195e-07
2.89953e-06 1.11195e-07 -4.78957e-05
0.0013942 -4.13301e-05 -1.62587e-05
-4.13301e-05 0.000633404 7.87001e-06
-1.62587e-05 7.87001e-06 0.00060667
0.000459041 9.36229e-05 -3.06269e-06
9.36229e-05 5.97091e-05 -3.57242e-06
-3.06269e-06 -3.57242e-06 -4.08254e-05
0.000806232 -2.80662e-05 -6.22442e-06
-2.80662e-05 0.000259363 7.43099e-07
-6.22442e-06 7.43099e-07 0.000228086
0.000809847 -1.71434e-06 -1.14152e-05
-1.71434e-06 0.000239457 5.07181e-06
-1.14152e-05 5.07181e-06 0.000242328
0.000292259 -4.62787e-05 5.87517e-06
-4.62787e-05 -7.87991e-05 -5.87814e-06
5.87517e-06 -5.87814e-06 -0.000110076
0.00263581 3.83475e-06 1.53498e-05
3.83475e-06 0.00142917 5.34708e-08
1.53498e-05 5.34708e-08 0.00143997
0.000845161 8.00472e-06 -1.62556e-05
8.00472e-06 0.00026212 -5.83229e-06
-1.62556e-05 -5.83229e-06 0.000263402
0.000563544 8.27771e-05 2.71905e-06
8.27771e-05 0.000165839 -3.08327e-06
2.71905e-06 -3.08327e-06 3.35853e-05
0.000373523 6.66942e-05 -2.22736e-06
6.66942e-05 -1.06363e-05 -4.61597e-06
-2.22736e-06 -4.61597e-06 -7.18891e-05
0.000437101 5.78097e-07 1.76405e-06
5.78097e-07 2.72784e-05 1.52475e-07
1.76405e-06 1.52475e-07 -3.48133e-05
0.000417882 7.52231e-06 1.8675e-06
7.52231e-06 -2.73887e-05 -4.29705e-06
1.8675e-06 -4.29705e-06 -4.15183e-05
0.000531628 -8.22118e-05 -2.70201e-06
-8.22118e-05 9.82809e-05 4.82776e-06
-2.70201e-06 4.82776e-06 2.41517e-05
0.000428006 7.26343e-06 6.83555e-07
7.26343e-06 -2.21541e-05 -8.23689e-07
6.83555e-07 -8.23689e-07 -3.82996e-05
0.00210282 4.5022e-05 -5.99401e-07
4.5022e-05 0.00107816 -5.35928e-06
-5.99401e-07 -5.35928e-06 0.00109105
0.00128705 4.6485e-05 1.68776e-06
4.6485e-05 0.000549547 3.43367e-06
1.68776e-06 3.43367e-06 0.000527195
0.0015351 5.52802e-05 -1.5336e-06
5.52802e-05 0.000714786 1.8142e-06
-1.5336e-06 1.8142e-06 0.000717994
0.000776762 6.00447e-05 1.16609e-05
6.00447e-05 0.000230003 1.27436e-05
1.16609e-05 1.27436e-05 0.000221192
0.000674065 0.00103488 0.00012914
0.00103488 -0.00392499 2.88039e-05
0.00012914 2.88039e-05 -0.00204192
0.00261525 -3.44317e-05 3.47133e-06
-3.44317e-05 -0.000281875 -2.64986e-06
3.47133e-06 -2.64986e-06 -3.27426e-05
0.00265587 9.55081e-05 5.58813e-05
9.55081e-05 -9.50179e-05 -1.5812e-05
5.58813e-05 -1.5812e-05 0.000137888
0.00502893 0.00106438 -0.000112593
0.00106438 -0.0029006 -4.86068e-05
-0.000112593 -4.86068e-05 0.000385846
0.00359822 0.000154655 0.0001099
0.000154655 -0.00130525 -8.32663e-06
0.0001099 -8.32663e-06 -0.000136918
0.00289489 -9.22915e-05 -5.40519e-06
-9.22915e-05 5.35567e-05 5.5182e-07
-5.40519e-06 5.5182e-07 0.000276432
0.0052211 -0.00078929 -8.11345e-05
-0.00078929 0.000112104 -5.01962e-05
-8.11345e-05 -5.01962e-05 0.00106318
0.00504114 -0.000928558 -3.54678e-05
-0.000928558 -0.00218933 -1.58555e-05
-3.54678e-05 -1.58555e-05 0.000446203
0.0203215 -0.00130797 0.000101963
-0.00130797 0.00131578 -0.00011233
0.000101963 -0.00011233 0.00177078
0.022683 0.0105282 0.0024916
0.0105282 0.010066 -0.000268659
0.0024916 -0.000268659 0.0023068
0.0375707 0.0133853 0.00020207
0.0133853 0.0242603 0.000155176
0.00020207 0.000155176 0.0137362
1.69769e-05 -0.000113318 2.93357e-06
-0.000113318 -0.000169841 -2.99189e-06
2.93357e-06 -2.99189e-06 -0.000303003
0.000508591 -1.66072e-05 2.49982e-06
-1.66072e-05 0.000120419 3.43689e-08
2.49982e-06 3.43689e-08 -3.49351e-08
0.000609313 -0.000107663 -2.96775e-06
-0.000107663 0.000198661 6.83104e-06
-2.96775e-06 6.83104e-06 6.20546e-05
0.000541419 -7.06827e-05 2.60351e-06
-7.06827e-05 0.000131287 -3.93453e-07
2.60351e-06 -3.93453e-07 7.50436e-06
0.000933628 0.000153317 -6.9458e-06
0.000153317 0.000484101 -7.53749e-06
-6.9458e-06 -7.53749e-06 0.000325143
0.000666137 0.000164173 -1.51835e-06
0.000164173 0.000245988 1.95115e-06
-1.51835e-06 1.95115e-06 8.88787e-05
0.000789915 3.07073e-05 3.46265e-06
3.07073e-05 0.000333532 -2.55966e-06
3.46265e-06 -2.55966e-06 0.000161062
0.000464245 -1.90732e-05 -1.44207e-06
-1.90732e-05 0.000102059 8.8869e-07
-1.44207e-06 8.8869e-07 -3.80148e-05
0.00270144 -0.000401444 1.59919e-05
-0.000401444 -0.00031944 -7.34727e-06
1.59919e-05 -7.34727e-06 3.35134e-05
0.0024261 -0.000794329 2.08495e-05
-0.000794329 -0.0004233 -8.00897e-06
2.08495e-05 -8.00897e-06 -0.000174461
0.00280177 -0.00119362 5.70641e-06
-0.00119362 0.000181336 3.27998e-06
5.70641e-06 3.27998e-06 -5.38952e-05
0.00236658 -0.00144621 1.16375e-05
-0.00144621 0.000691473 2.62324e-06
1.16375e-05 2.62324e-06 4.7766e-05
0.00302065 -0.00149156 -2.39699e-05
-0.00149156 0.000730985 3.48376e-06
-2.39699e-05 3.48376e-06 0.000144581
-5.62313e-05 -0.00127187 1.30942e-05
-0.00127187 5.00331e-05 2.13003e-05
1.30942e-05 2.13003e-05 -0.000959363
0.00538868 -0.00101016 1.11748e-05
-0.00101016 0.00300256 1.18976e-05
1.11748e-05 1.18976e-05 0.00244149
0.00161074 -0.000458452 2.45692e-05
-0.000458452 0.000943898 -4.74929e-05
2.45692e-05 -4.74929e-05 0.000466463
0.000682731 -5.29226e-05 -5.69964e-06
-5.29226e-05 0.000185755 7.06831e-06
-5.69964e-06 7.06831e-06 1.20249e-05
0.00110332 -0.00013708 1.55882e-05
-0.00013708 0.000568222 -3.13658e-05
1.55882e-05 -3.13658e-05 0.000213233
0.000683502 -9.88332e-05 1.73282e-06
-9.88332e-05 0.000249084 8.52037e-06
1.73282e-06 8.52037e-06 9.87798e-05
0.000551987 2.87988e-05 1.61055e-06
2.87988e-05 0.000260717 6.76297e-06
1.61055e-06 6.76297e-06 0.000171101
0.00274794 -0.000544499 2.01019e-06
-0.000544499 -0.000263571 4.79526e-06
2.01019e-06 4.79526e-06 0.000191763
0.000286565 -9.56431e-05 -7.76008e-06
-9.56431e-05 0.00014639 2.83501e-06
-7.76008e-06 2.83501e-06 -6.48427e-05
0.00119574 -0.000280248 -3.95545e-06
-0.000280248 0.000612534 4.19347e-06
-3.95545e-06 4.19347e-06 0.000302663
0.00204925 -0.000952133 9.19977e-06
-0.000952133 -0.000412554 -5.4099e-06
9.19977e-06 -5.4099e-06 -0.000253744
0.00269432 -0.00128131 1.9688e-06
-0.00128131 0.000495114 5.4083e-06
1.9688e-06 5.4083e-06 4.52721e-05
0.0017531 -0.00140796 -1.16738e-06
-0.00140796 0.000169511 -1.6939e-05
-1.16738e-06 -1.6939e-05 -0.000310859
0.00109032 -0.000444136 1.14038e-06
-0.000444136 0.000699427 -2.94596e-05
1.14038e-06 -2.94596e-05 0.000167447
0.000862667 -0.000915603 1.6905e-05
-0.000915603 0.00103851 7.83297e-07
1.6905e-05 7.83297e-07 6.2236e-05
0.00646232 -0.00134682 -6.16472e-05
-0.00134682 0.00152405 3.96845e-05
-6.16472e-05 3.96845e-05 0.00193369
0.0030293 -0.00135151 -4.812e-05
-0.00135151 0.000606993 1.84293e-05
-4.812e-05 1.84293e-05 0.000250721
0.00322592 -0.00163245 -1.78432e-06
-0.00163245 0.00090398 1.6038e-05
-1.78432e-06 1.6038e-05 0.000365545
0.000685808 -0.000962968 -2.42255e-05
-0.000962968 -5.94473e-05 2.47828e-05
-2.42255e-05 2.47828e-05 -0.00027342
0.000993173 -0.000252848 2.00795e-06
-0.000252848 0.000670831 -1.28078e-06
2.00795e-06 -1.28078e-06 0.000333799
-0.000675881 -0.000157892 3.22598e-06
-0.000157892 -0.000288751 1.42486e-05
3.22598e-06 1.42486e-05 -0.000694981
-0.000216156 -0.000359985 -8.87481e-06
-0.000359985 0.000385283 -1.43272e-05
-8.87481e-06 -1.43272e-05 -0.000407
-0.00796064 -0.000752755 0.00121025
-0.000752755 -0.00178786 -4.2083e-05
0.00121025 -4.2083e-05 -0.00554095
0.0133835 -0.000571407 5.4559e-05
-0.000571407 -0.00134372 5.54353e-05
5.4559e-05 5.54353e-05 0.000317074
0.00197299 0.000417015 5.25491e-06
0.000417015 0.0012454 -8.9884e-06
5.25491e-06 -8.9884e-06 0.000918402
0.00230084 0.000888242 -5.5795e-07
0.000888242 0.00108617 7.21914e-06
-5.5795e-07 7.21914e-06 0.000510351
0.00159772 0.000958384 0.000119837
0.000958384 -0.000843551 6.47004e-05
0.000119837 6.47004e-05 -0.000545886
0.00415039 0.00150047 3.63078e-05
0.00150047 0.00136179 1.98051e-05
3.63078e-05 1.98051e-05 0.000817287
0.00315535 0.00131677 2.53132e-05
0.00131677 0.00125616 6.23032e-06
2.53132e-05 6.23032e-06 0.000552539
0.019583 0.000970421 0.000103984
0.000970421 0.00112242 -0.000196809
0.000103984 -0.000196809 0.0020549
0.00877729 0.00422897 -0.000326161
0.00422897 -0.00290011 -1.41454e-05
-0.000326161 -1.41454e-05 0.000751828
0.00253845 0.00246344 -1.3854e-05
0.00246344 -0.00026379 -3.97522e-05
-1.3854e-05 -3.97522e-05 -0.000497425
0.0180567 -0.00818065 -0.00121507
-0.00818065 0.00900465 0.000219311
-0.00121507 0.000219311 0.00191274
0.0239487 -0.0208988 -0.00316256
-0.0208988 0.0183769 -0.00179355
-0.00316256 -0.00179355 0.00568121
0.000643988 0.000437542 7.66812e-06
0.000437542 0.000376233 -5.63907e-06
7.66812e-06 -5.63907e-06 6.57436e-06
0.00218651 -0.00556894 0.0010998
-0.00556894 -0.000267266 7.05334e-05
0.0010998 7.05334e-05 -0.00601314
0.00342816 -0.00675833 -0.00108467
-0.00675833 0.0130144 -8.06154e-05
-0.00108467 -8.06154e-05 0.00272949
0.00401411 0.00190721 -2.24494e-05
0.00190721 0.000696241 4.90287e-06
-2.24494e-05 4.90287e-06 0.000360063
0.00106598 0.000785443 -1.3335e-05
0.000785443 0.000282515 8.84005e-06
-1.3335e-05 8.84005e-06 -0.000246196
0.00247358 0.00135779 -4.43253e-07
0.00135779 0.00084331 -1.63577e-07
-4.43253e-07 -1.63577e-07 0.000182913
0.00220189 0.00233961 9.05693e-05
0.00233961 0.000364168 6.17254e-05
9.05693e-05 6.17254e-05 9.17775e-05
0.0144719 0.00557255 -0.000244938
0.00557255 -0.00273265 -0.000135384
-0.000244938 -0.000135384 -0.00175022
0.00294989 0.00487915 -3.26495e-05
0.00487915 -0.00168111 -6.60442e-05
-3.26495e-05 -6.60442e-05 0.000354229
0.0281902 -0.00841498 0.000951044
-0.00841498 0.0132506 -0.000157486
0.000951044 -0.000157486 0.0042413
0.0279388 -0.00651458 -0.000226364
-0.00651458 0.0102761 0.00098728
-0.000226364 0.00098728 0.00269722
0.000857091 0.000500483 -9.80278e-06
0.000500483 0.000424234 -1.58834e-05
-9.80278e-06 -1.58834e-05 8.22487e-05
-0.0048878 0.000596725 0.000103598
0.000596725 0.00691584 -0.000182018
0.000103598 -0.000182018 -0.0027241
0.00863632 0.0027507 -0.000842197
0.0027507 0.00672514 -0.000639729
-0.000842197 -0.000639729 0.00104744
0.00291482 0.0014988 -5.63827e-05
0.0014988 0.000605247 -3.20814e-05
-5.63827e-05 -3.20814e-05 0.00040318
0.00259771 0.00136163 -9.19973e-05
0.00136163 0.00114214 -3.92327e-05
-9.19973e-05 -3.92327e-05 0.000496473
0.00218501 0.00183339 -0.000120408
0.00183339 0.00136738 -4.78354e-05
-0.000120408 -4.78354e-05 0.000439367
-0.00246096 0.0036818 7.68516e-05
0.0036818 -0.000752166 -3.16992e-05
7.68516e-05 -3.16992e-05 -0.000831156
0.00586953 0.0082568 0.00104227
0.0082568 -0.00290691 0.000120994
0.00104227 0.000120994 -0.0029899
0.0296636 -0.0105339 -0.000639372
-0.0105339 0.0172467 0.00110691
-0.000639372 0.00110691 0.00691983
0.00978017 0.000928455 -0.000178287
0.000928455 -0.00154225 -0.00025977
-0.000178287 -0.00025977 -0.00233296
0.00110829 0.000292692 -6.30513e-06
0.000292692 0.000777846 2.02712e-06
-6.30513e-06 2.02712e-06 0.000550438
0.000791083 0.000317436 4.05497e-06
0.000317436 0.000587956 2.69533e-07
4.05497e-06 2.69533e-07 0.000279078
-0.000603582 0.000207332 3.98061e-06
0.000207332 -0.000193793 -2.41385e-07
3.98061e-06 -2.41385e-07 -0.000506437
0.000411141 7.94122e-05 2.88004e-06
7.94122e-05 5.15008e-05 1.40646e-06
2.88004e-06 1.40646e-06 -0.000113082
0.00123875 0.000126405 3.23582e-07
0.000126405 0.000657859 1.75786e-06
3.23582e-07 1.75786e-06 0.000430961
0.000370284 2.07025e-05 -6.69293e-07
2.07025e-05 0.000121162 2.04029e-06
-6.69293e-07 2.04029e-06 -0.00011442
2.04452e-05 7.72766e-05 6.58749e-06
7.72766e-05 -3.88956e-05 1.56336e-06
6.58749e-06 1.56336e-06 -0.000287902
7.43504e-05 7.0072e-05 -4.90663e-06
7.0072e-05 4.0426e-05 4.58281e-06
-4.90663e-06 4.58281e-06 -0.000161034
0.000834134 4.37131e-05 -3.24382e-07
4.37131e-05 0.00037579 -9.76521e-07
-3.24382e-07 -9.76521e-07 0.000159966
0.000469819 4.83385e-05 3.74858e-07
4.83385e-05 0.000216697 -1.51553e-06
3.74858e-07 -1.51553e-06 1.34559e-05
0.00085427 -3.29365e-05 -4.9179e-07
-3.29365e-05 0.000429719 2.29849e-06
-4.9179e-07 2.29849e-06 0.000198067
-0.000530347 6.12765e-05 -1.11397e-06
6.12765e-05 -8.47991e-05 2.58347e-08
-1.11397e-06 2.58347e-08 -0.000460186
0.000207411 1.78608e-05 2.72568e-06
1.78608e-05 0.000518868 4.75674e-06
2.72568e-06 4.75674e-06 6.63988e-06
0.00063509 -4.66584e-05 2.14231e-06
-4.66584e-05 0.000451704 -3.94234e-06
2.14231e-06 -3.94234e-06 0.000157847
0.00188323 -6.10301e-05 -5.11333e-06
-6.10301e-05 0.00115669 4.28111e-06
-5.11333e-06 4.28111e-06 0.000879397
0.00107051 -0.000135002 -5.98197e-07
-0.000135002 0.000535353 -1.94575e-06
-5.98197e-07 -1.94575e-06 0.000323497
0.000433005 -0.000104549 -8.06057e-07
-0.000104549 0.000102336 9.10068e-06
-8.06057e-07 9.10068e-06 -4.46008e-05
0.000606239 -0.000153307 6.30332e-07
-0.000153307 0.000259401 7.19151e-07
6.30332e-07 7.19151e-07 6.97397e-05
0.000748471 -0.000167064 -4.6373e-07
-0.000167064 0.000254763 -2.43411e-06
-4.6373e-07 -2.43411e-06 0.000101763
0.000140185 -7.45925e-05 -3.55904e-06
-7.45925e-05 2.27818e-05 6.17794e-06
-3.55904e-06 6.17794e-06 -0.000143139
-0.00124128 -3.3469e-05 6.13613e-07
-3.3469e-05 -0.000840234 -1.11401e-05
6.13613e-07 -1.11401e-05 -0.00108215
-0.000409335 -0.000102077 -9.89304e-06
-0.000102077 -0.000216351 2.77784e-06
-9.89304e-06 2.77784e-06 -0.00047912
0.000219771 -0.000120304 3.01069e-06
-0.000120304 7.94301e-05 -9.14941e-06
3.01069e-06 -9.14941e-06 -9.74428e-05
0.00116885 -0.000173901 2.92927e-05
-0.000173901 0.000486551 -1.57034e-05
2.92927e-05 -1.57034e-05 0.000345849
0.0043298 -0.000733784 -3.57204e-06
-0.000733784 0.00238064 2.77628e-06
-3.57204e-06 2.77628e-06 0.00202693
-0.00119767 -0.000175918 -1.73367e-06
-0.000175918 -0.000834727 -8.33263e-07
-1.73367e-06 -8.33263e-07 -0.00108761
0.000296529 -3.34802e-05 2.55919e-06
-3.34802e-05 0.00016816 1.0175e-06
2.55919e-06 1.0175e-06 -0.000114156
-0.00156565 3.57255e-05 7.25402e-06
3.57255e-05 -0.00105807 -3.00486e-06
7.25402e-06 -3.00486e-06 -0.00134707
0.000684823 -0.000232255 -2.88497e-06
-0.000232255 0.000322114 -1.21483e-06
-2.88497e-06 -1.21483e-06 0.000107716
0.000802624 -6.25602e-05 4.17062e-06
-6.25602e-05 0.00032836 1.11792e-07
4.17062e-06 1.11792e-07 0.000148728
0.000772041 -0.000199782 2.71407e-06
-0.000199782 0.000348737 -3.02528e-06
2.71407e-06 -3.02528e-06 0.000156002
0.000578477 -9.23695e-05 -7.79116e-07
-9.23695e-05 0.000190787 3.15103e-07
-7.79116e-07 3.15103e-07 2.1945e-05
0.000216335 4.19398e-05 2.82206e-06
4.19398e-05 -9.92516e-05 3.84813e-06
2.82206e-06 3.84813e-06 -0.000203135
0.000748483 -0.000153981 4.01397e-08
-0.000153981 0.000281346 -6.77244e-07
4.01397e-08 -6.77244e-07 0.000115743
0.000443894 -5.6176e-05 -6.97192e-07
-5.6176e-05 3.409e-05 1.91565e-07
-6.97192e-07 1.91565e-07 -5.9608e-05
0.0013686 3.50169e-05 -9.37765e-06
3.50169e-05 0.000609897 8.39968e-06
-9.37765e-06 8.39968e-06 0.000582814
0.000443205 -8.36098e-05 9.39699e-07
-8.36098e-05 4.49377e-05 -3.4316e-06
9.39699e-07 -3.4316e-06 -5.30343e-05
0.000833013 -2.82953e-05 -1.22947e-05
-2.82953e-05 0.000269099 9.86134e-07
-1.22947e-05 9.86134e-07 0.000238858
0.000720136 9.542e-06 2.1462e-06
9.542e-06 0.000170929 2.2817e-06
2.1462e-06 2.2817e-06 0.000172627
0.000392922 -4.53263e-05 4.49517e-06
-4.53263e-05 -1.66283e-05 -5.51716e-06
4.49517e-06 -5.51716e-06 -4.7081e-05
0.00257026 4.7075e-06 6.69447e-06
4.7075e-06 0.00138459 -1.01365e-08
6.69447e-06 -1.01365e-08 0.00139638
0.00260092 -5.35914e-06 1.25535e-05
-5.35914e-06 0.00140583 -5.31597e-06
1.25535e-05 -5.31597e-06 0.00141684
0.0010242 7.83728e-05 -8.64681e-07
7.83728e-05 0.000460119 -3.91818e-06
-8.64681e-07 -3.91818e-06 0.000321576
0.000481678 7.82854e-05 -1.34955e-06
7.82854e-05 6.67505e-05 -5.58757e-06
-1.34955e-06 -5.58757e-06 -3.23771e-06
0.000505433 -2.37287e-05 -9.14143e-07
-2.37287e-05 0.00012391 9.29865e-07
-9.14143e-07 9.29865e-07 -5.94679e-06
0.000388924 1.3216e-05 1.5248e-06
1.3216e-05 -4.58892e-05 -4.47151e-06
1.5248e-06 -4.47151e-06 -5.95424e-05
0.000407937 -1.18783e-05 2.17661e-06
-1.18783e-05 7.95675e-06 -2.72828e-07
2.17661e-06 -2.72828e-07 -5.20874e-05
0.000445121 -7.50582e-05 -3.96395e-06
-7.50582e-05 3.62338e-05 4.72425e-06
-3.96395e-06 4.72425e-06 -2.91266e-05
0.000415314 1.91064e-06 -6.28587e-07
1.91064e-06 -2.98495e-05 7.67346e-09
-6.28587e-07 7.67346e-09 -4.3883e-05
0.00205918 2.92938e-05 -5.91596e-06
2.92938e-05 0.00104712 -5.36053e-06
-5.91596e-06 -5.36053e-06 0.001062
0.00117776 1.95925e-05 -1.43427e-06
1.95925e-05 0.00046921 3.27462e-06
-1.43427e-06 3.27462e-06 0.000455998
0.0013772 3.48962e-05 -4.5453e-06
3.48962e-05 0.000601931 4.29176e-09
-4.5453e-06 4.29176e-09 0.000610919
0.000749036 4.16911e-05 -1.6167e-08
4.16911e-05 0.000199003 9.62376e-06
-1.6167e-08 9.62376e-06 0.000199576
-0.00440006 0.00374237 0.00127654
0.00374237 -0.00040549 -0.000114647
0.00127654 -0.000114647 -0.0067677
0.00443978 0.00383291 0.00267387
0.00383291 0.0119622 -0.000279457
0.00267387 -0.000279457 0.003557
0.00197087 0.00124129 -0.000118498
0.00124129 -0.00417302 -6.50965e-05
-0.000118498 -6.50965e-05 -0.000521275
0.00300521 -4.6218e-05 5.70939e-05
-4.6218e-05 -0.00174872 -3.16093e-05
5.70939e-05 -3.16093e-05 -0.000423228
0.00314043 -0.000103925 4.92326e-05
-0.000103925 0.000182822 1.04309e-05
4.92326e-05 1.04309e-05 0.000412347
0.00070994 -0.000178356 -0.000124124
-0.000178356 -0.00262807 -3.93398e-05
-0.000124124 -3.93398e-05 -0.000123186
0.00465161 -0.000781642 1.00613e-05
-0.000781642 -0.00011457 1.74778e-06
1.00613e-05 1.74778e-06 0.000686752
0.0129722 -0.000849839 0.000366827
-0.000849839 -0.0034721 -0.000145544
0.000366827 -0.000145544 -0.00300516
0.0083571 0.00699674 -2.48717e-05
0.00699674 0.00320697 -0.000103601
-2.48717e-05 -0.000103601 -0.00276699
0.0326991 0.0168206 -0.000871353
0.0168206 0.0217736 0.000315605
-0.000871353 0.000315605 0.0103598
0.00303306 -0.00181391 -3.65493e-05
-0.00181391 -0.00375211 -3.83669e-05
-3.65493e-05 -3.83669e-05 -0.00068449
0.0156261 -0.00507341 0.000415356
-0.00507341 -0.00144068 -8.09936e-05
0.000415356 -8.09936e-05 -0.00116424
0.0266795 0.00928142 0.000525674
0.00928142 0.0114605 -0.000475557
0.000525674 -0.000475557 0.00209218
0.0323455 0.00647169 -0.00043783
0.00647169 0.01365 0.000425652
-0.00043783 0.000425652 0.00699047
0.00133147 0.000206017 -8.06274e-06
0.000206017 0.000768264 -1.9501e-06
-8.06274e-06 -1.9501e-06 0.000538309
0.000341709 3.11581e-05 1.27357e-06
3.11581e-05 1.30001e-05 -5.85471e-07
1.27357e-06 -5.85471e-07 -0.000109773
0.000531082 -0.000115485 2.53861e-06
-0.000115485 0.000147098 4.44731e-06
2.53861e-06 4.44731e-06 1.96333e-05
0.000626176 -2.78512e-05 4.02125e-06
-2.78512e-05 0.00019284 3.33782e-06
4.02125e-06 3.33782e-06 6.7615e-05
0.000469996 6.87631e-05 4.3529e-06
6.87631e-05 0.000161208 1.76248e-07
4.3529e-06 1.76248e-07 3.85704e-05
0.000635355 9.95153e-05 -8.95081e-08
9.95153e-05 0.000239531 3.19754e-06
-8.95081e-08 3.19754e-06 3.84907e-05
0.000585535 8.22327e-05 -1.32971e-06
8.22327e-05 0.000214349 2.17157e-06
-1.32971e-06 2.17157e-06 5.61834e-05
0.000401168 0.000126832 4.93786e-06
0.000126832 3.0404e-05 3.54265e-06
4.93786e-06 3.54265e-06 -0.000143715
0.000554205 2.11322e-05 1.42429e-06
2.11322e-05 0.000178087 -1.17603e-06
1.42429e-06 -1.17603e-06 6.24092e-06
0.000278634 -3.1479e-05 1.38639e-06
-3.1479e-05 -3.17567e-05 2.18118e-06
1.38639e-06 2.18118e-06 -0.000155858
0.00116815 -0.000447125 5.24786e-05
-0.000447125 -0.00130899 -2.08794e-05
5.24786e-05 -2.08794e-05 -0.000669029
0.00150314 -0.000891084 3.14897e-05
-0.000891084 -0.000695971 -1.29484e-05
3.14897e-05 -1.29484e-05 -0.000502218
0.00142407 -0.00109681 1.26365e-05
-0.00109681 -0.000218633 6.62308e-06
1.26365e-05 6.62308e-06 -0.000571645
-0.000499599 -0.00106165 -9.10279e-06
-0.00106165 -0.00107689 -9.94637e-06
-9.10279e-06 -9.94637e-06 -0.0014739
0.00262919 -0.000948924 -9.54194e-06
-0.000948924 0.00193005 5.12052e-05
-9.54194e-06 5.12052e-05 0.0010774
-0.000978377 -0.000726025 -5.65359e-06
-0.000726025 -0.000448855 -2.04392e-05
-5.65359e-06 -2.04392e-05 -0.00120294
0.001444 -0.000323788 1.56308e-05
-0.000323788 0.000803982 -9.87571e-06
1.56308e-05 -9.87571e-06 0.000537039
-0.000130218 -2.73623e-05 3.98634e-06
-2.73623e-05 -0.00014526 7.68216e-06
3.98634e-06 7.68216e-06 -0.000330368
0.00307677 -0.00102202 1.29815e-05
-0.00102202 -0.000493529 -1.16267e-05
1.29815e-05 -1.16267e-05 0.000165879
0.000704414 -0.000151757 -2.06694e-07
-0.000151757 0.000477078 2.24306e-06
-2.06694e-07 2.24306e-06 0.000141738
-0.000451501 -0.00026917 -1.36432e-05
-0.00026917 -0.000130585 6.77765e-07
-1.36432e-05 6.77765e-07 -0.000545536
0.00203393 -0.00118397 2.07841e-05
-0.00118397 3.96678e-05 -2.1379e-06
2.07841e-05 -2.1379e-06 -0.000174443
0.00210081 -0.00144204 -9.97282e-07
-0.00144204 0.000260851 -5.68071e-06
-9.97282e-07 -5.68071e-06 -0.000176162
0.000107698 -0.000952635 1.82608e-05
-0.000952635 -0.000343786 -1.55997e-05
1.82608e-05 -1.55997e-05 -0.000630518
0.00117119 -0.000603189 2.98406e-05
-0.000603189 0.00116981 -2.87785e-05
2.98406e-05 -2.87785e-05 0.000436869
0.00197495 -0.00167438 -4.27547e-05
-0.00167438 -0.00071443 4.75255e-05
-4.27547e-05 4.75255e-05 -0.000588834
0.00236832 -0.00132585 -5.44008e-05
-0.00132585 0.000548032 2.94457e-05
-5.44008e-05 2.94457e-05 0.000288558
-0.000673799 -0.000595316 -4.93098e-05
-0.000595316 -0.000202633 3.02164e-05
-4.93098e-05 3.02164e-05 -0.000641864
-0.000517937 -1.80371e-05 -7.37603e-06
-1.80371e-05 -0.00035492 4.67587e-06
-7.37603e-06 4.67587e-06 -0.000637607
-0.00099905 -1.97688e-06 -5.22466e-06
-1.97688e-06 -0.000452853 2.01125e-05
-5.22466e-06 2.01125e-05 -0.000859147
0.000518114 -8.73393e-05 5.70116e-06
-8.73393e-05 0.000503373 6.47307e-06
5.70116e-06 6.47307e-06 0.000110621
-0.00267571 0.00154469 -0.000737226
0.00154469 0.00861266 1.32448e-05
-0.000737226 1.32448e-05 0.00122572
-1.92378e-05 -0.0025049 -1.96801e-05
-0.0025049 0.0047797 -6.38542e-05
-1.96801e-05 -6.38542e-05 0.00180898
0.00640264 0.000551329 -0.000143778
0.000551329 -0.00739874 -4.22887e-05
-0.000143778 -4.22887e-05 -0.00743747
0.00152497 0.000551415 1.83553e-05
0.000551415 0.000976117 -9.40439e-06
1.83553e-05 -9.40439e-06 0.000571434
0.0017754 0.000949962 2.16533e-05
0.000949962 0.000750369 3.06099e-05
2.16533e-05 3.06099e-05 0.000145972
0.0041438 0.00172171 0.000100588
0.00172171 0.000718262 4.84778e-05
0.000100588 4.84778e-05 0.000479976
0.00253813 0.00143636 3.52987e-05
0.00143636 0.000897528 3.3704e-05
3.52987e-05 3.3704e-05 0.000200135
0.0168398 -0.00657307 0.000372371
-0.00657307 0.00948078 0.000118099
0.000372371 0.000118099 0.00305184
0.00311445 0.00405083 -0.000724072
0.00405083 -0.00898087 -0.000153817
-0.000724072 -0.000153817 -0.0083093
0.0065111 0.00523037 9.40197e-06
0.00523037 0.000175961 1.9087e-05
9.40197e-06 1.9087e-05 0.00164312
0.00393126 0.00229291 0.000110113
0.00229291 0.0015658 2.03324e-05
0.000110113 2.03324e-05 0.00125067
0.0189235 -0.00519749 -0.000781972
-0.00519749 0.00833216 -0.000205535
-0.000781972 -0.000205535 0.00041736
0.0045196 -0.00818974 -0.00166972
-0.00818974 0.0142156 -0.00020808
-0.00166972 -0.00020808 0.00420303
0.0397388 -0.0100971 0.00154283
-0.0100971 0.0143845 0.000514938
0.00154283 0.000514938 0.00544136
0.000523102 0.00048547 1.29768e-05
0.00048547 0.0002912 -5.51101e-06
1.29768e-05 -5.51101e-06 -7.87303e-05
-0.000754955 -0.000658292 -0.000141942
-0.000658292 0.0094476 -1.03365e-05
-0.000141942 -1.03365e-05 0.00058796
0.00890192 0.00331424 -0.000305777
0.00331424 0.00485956 -0.000212157
-0.000305777 -0.000212157 -0.00174375
0.00240016 0.00156607 1.33984e-05
0.00156607 0.000480564 4.63208e-06
1.33984e-05 4.63208e-06 0.000162968
0.0011858 0.00111272 1.12443e-05
0.00111272 0.000481103 8.33704e-06
1.12443e-05 8.33704e-06 -0.000136666
0.00104233 0.00183025 -0.000144274
0.00183025 0.000695667 -0.000100602
-0.000144274 -0.000100602 -3.46302e-05
0.00346051 0.00562578 9.26768e-05
0.00562578 0.000613499 5.63046e-05
9.26768e-05 5.63046e-05 0.000777
0.0123901 0.00885961 -3.44267e-05
0.00885961 -0.000218121 -1.08396e-05
-3.44267e-05 -1.08396e-05 -0.00166715
0.013288 -0.00599063 0.000123896
-0.00599063 0.0108297 -0.000171021
0.000123896 -0.000171021 0.000702017
0.0195366 -0.00221417 -8.76657e-05
-0.00221417 0.00348369 -5.20791e-05
-8.76657e-05 -5.20791e-05 0.00279107
0.0016679 0.00100025 -2.10431e-05
0.00100025 0.000956406 -1.4742e-05
-2.10431e-05 -1.4742e-05 0.000419307
0.00154048 0.000728064 -0.000641255
0.000728064 0.00390346 -0.000178228
-0.000641255 -0.000178228 -0.00327593
0.0030646 0.00171216 -0.00017095
0.00171216 0.000872318 -0.000221118
-0.00017095 -0.000221118 -0.00211765
-0.00100188 0.000641713 -8.05619e-06
0.000641713 -0.000131077 -3.18469e-05
-8.05619e-06 -3.18469e-05 -0.000606148
-0.0024144 0.00149986 -0.000150215
0.00149986 0.00067841 2.26515e-05
-0.000150215 2.26515e-05 -0.000197551
0.00868328 0.00821068 0.000353094
0.00821068 0.00397046 3.0123e-05
0.000353094 3.0123e-05 -0.0014278
0.00934294 -0.00682091 -1.22697e-05
-0.00682091 0.00329171 0.000232572
-1.22697e-05 0.000232572 -0.0049616
0.0173063 -0.000773581 9.6053e-05
-0.000773581 -0.000346342 -0.000352804
9.6053e-05 -0.000352804 0.000559377
0.00128219 0.000363002 2.44373e-06
0.000363002 0.000852503 2.35212e-05
2.44373e-06 2.35212e-05 0.00056631
0.000959853 0.000369113 -4.86656e-06
0.000369113 0.000761991 -4.86028e-06
-4.86656e-06 -4.86028e-06 0.000415994
-0.000360311 0.00024452 7.4988e-06
0.00024452 0.000147251 -2.67434e-06
7.4988e-06 -2.67434e-06 -0.000340742
0.000418234 8.98089e-05 2.38305e-07
8.98089e-05 7.43389e-05 -4.45922e-07
2.38305e-07 -4.45922e-07 -0.000117021
0.00133355 -1.21938e-05 -2.99831e-06
-1.21938e-05 0.000760592 4.96642e-06
-2.99831e-06 4.96642e-06 0.000509234
0.000303893 7.69092e-05 2.47018e-06
7.69092e-05 0.000108451 1.98804e-06
2.47018e-06 1.98804e-06 -9.82151e-05
-0.000550517 0.00010716 -2.87645e-07
0.00010716 -8.86316e-05 3.57325e-06
-2.87645e-07 3.57325e-06 -0.000465806
0.000719629 -6.44296e-05 2.74228e-06
-6.44296e-05 0.000340479 6.38612e-07
2.74228e-06 6.38612e-07 0.000116761
0.000193198 3.70574e-05 2.24502e-07
3.70574e-05 0.000164663 -2.03429e-06
2.24502e-07 -2.03429e-06 -0.000119944
-2.96723e-05 2.68703e-05 -1.29909e-06
2.68703e-05 0.000441758 1.56145e-06
-1.29909e-06 1.56145e-06 -0.00012196
-0.000382377 7.19456e-05 1.63017e-06
7.19456e-05 0.00036425 7.62734e-06
1.63017e-06 7.62734e-06 -0.000255413
0.000536509 -4.40768e-05 2.55071e-06
-4.40768e-05 0.00071178 -4.93952e-06
2.55071e-06 -4.93952e-06 0.000204649
0.00138565 -3.68884e-05 -7.52048e-06
-3.68884e-05 0.000931251 6.63399e-06
-7.52048e-06 6.63399e-06 0.000641892
0.00104668 -0.000203165 5.29229e-06
-0.000203165 0.000557301 3.30767e-06
5.29229e-06 3.30767e-06 0.000355956
0.000379774 -0.000138819 -2.71016e-06
-0.000138819 1.40343e-05 5.00079e-06
-2.71016e-06 5.00079e-06 -0.00013937
-0.000442195 -4.56629e-05 1.42623e-05
-4.56629e-05 -0.000353708 9.20027e-06
1.42623e-05 9.20027e-06 -0.000484932
9.12214e-05 -4.21128e-05 1.58517e-06
-4.21128e-05 9.30186e-05 1.40568e-06
1.58517e-06 1.40568e-06 -0.000161554
0.000575129 -6.32503e-05 1.17547e-06
-6.32503e-05 0.000243855 1.59473e-06
1.17547e-06 1.59473e-06 3.0523e-05
-0.000304605 -8.80114e-05 -5.24909e-06
-8.80114e-05 -0.00021146 3.63945e-07
-5.24909e-06 3.63945e-07 -0.000395922
0.000213795 -0.000124869 -5.72829e-06
-0.000124869 5.03493e-05 -6.70349e-06
-5.72829e-06 -6.70349e-06 -0.000133989
0.00073042 -9.7197e-05 4.57148e-06
-9.7197e-05 0.000613478 -8.40838e-06
4.57148e-06 -8.40838e-06 0.000343784
0.00234016 -0.000493121 2.43844e-06
-0.000493121 0.00114305 7.57164e-06
2.43844e-06 7.57164e-06 0.000964955
0.000531737 -0.000166326 -2.43388e-05
-0.000166326 9.71011e-05 7.78763e-07
-2.43388e-05 7.78763e-07 -4.30129e-05
0.00114993 -0.000434705 8.13921e-06
-0.000434705 0.000387703 6.81811e-06
8.13921e-06 6.81811e-06 0.000126936
0.00269466 -0.000906834 -8.22983e-06
-0.000906834 0.0012902 1.75766e-05
-8.22983e-06 1.75766e-05 0.000769291
0.00278746 -0.000367397 1.48719e-05
-0.000367397 0.0014115 -6.91487e-06
1.48719e-05 -6.91487e-06 0.00116842
0.00232156 -0.000526564 1.25384e-06
-0.000526564 0.00114617 -7.64159e-06
1.25384e-06 -7.64159e-06 0.000858804
0.00035102 -0.000193478 -3.58872e-07
-0.000193478 0.000117926 -5.59388e-07
-3.58872e-07 -5.59388e-07 -0.000140879
-0.0016449 -0.000120737 2.55505e-06
-0.000120737 -0.00107695 -5.41433e-06
2.55505e-06 -5.41433e-06 -0.00143346
0.00176685 -6.60997e-05 3.77086e-06
-6.60997e-05 0.0010696 3.61303e-06
3.77086e-06 3.61303e-06 0.000802784
0.000702253 -0.000230064 3.52124e-06
-0.000230064 0.00034301 -1.75259e-06
3.52124e-06 -1.75259e-06 6.26879e-05
0.000360631 -8.9874e-05 5.90537e-06
-8.9874e-05 1.14865e-05 -8.46891e-07
5.90537e-06 -8.46891e-07 -0.000184565
0.00210103 -0.000406308 -7.25928e-06
-0.000406308 0.00124997 5.74302e-07
-7.25928e-06 5.74302e-07 0.00100428
0.000530818 -0.000167271 -3.73779e-07
-0.000167271 0.000170272 -3.37107e-07
-3.73779e-07 -3.37107e-07 -1.97611e-05
0.000235497 -2.54816e-05 2.62131e-06
-2.54816e-05 -9.07541e-05 5.3794e-06
2.62131e-06 5.3794e-06 -0.00020691
0.000992653 -0.00018551 -2.13014e-06
-0.00018551 0.000476832 1.11171e-06
-2.13014e-06 1.11171e-06 0.000295524
0.000615039 -8.76507e-05 -1.70964e-07
-8.76507e-05 0.000159468 9.67514e-08
-1.70964e-07 9.67514e-08 5.13285e-05
0.00146457 1.17726e-07 -1.55168e-05
1.17726e-07 0.000669343 9.14081e-06
-1.55168e-05 9.14081e-06 0.000637607
0.000470983 -8.51723e-05 5.15899e-07
-8.51723e-05 6.57313e-05 -4.19845e-06
5.15899e-07 -4.19845e-06 -3.71276e-05
0.000822753 -1.9123e-05 -1.45287e-05
-1.9123e-05 0.000256237 8.92395e-07
-1.45287e-05 8.92395e-07 0.000224709
0.000816718 1.8397e-05 2.64033e-06
1.8397e-05 0.000231722 3.26371e-06
2.64033e-06 3.26371e-06 0.000230787
0.000378667 -5.01521e-05 3.88104e-06
-5.01521e-05 -2.94488e-05 -6.01077e-06
3.88104e-06 -6.01077e-06 -6.18446e-05
0.0016877 1.43768e-05 1.70458e-05
1.43768e-05 0.000805281 -1.70345e-06
1.70458e-05 -1.70345e-06 0.000812452
0.00255659 1.16816e-06 2.27353e-05
1.16816e-06 0.00137504 -5.55531e-06
2.27353e-05 -5.55531e-06 0.00138717
0.000469897 8.72173e-05 1.14073e-06
8.72173e-05 6.96963e-05 -3.50996e-06
1.14073e-06 -3.50996e-06 -6.82464e-05
0.000530784 8.0196e-05 -6.65592e-07
8.0196e-05 9.66173e-05 -5.85796e-06
-6.65592e-07 -5.85796e-06 2.03926e-05
0.000543142 2.08313e-05 6.48697e-07
2.08313e-05 0.000138099 6.48689e-07
6.48697e-07 6.48689e-07 5.79854e-06
0.000405056 7.84982e-06 3.26437e-06
7.84982e-06 -3.55176e-05 -5.17726e-06
3.26437e-06 -5.17726e-06 -5.0375e-05
0.000423875 6.53581e-05 2.31973e-07
6.53581e-05 2.10622e-05 -1.48966e-07
2.31973e-07 -1.48966e-07 -4.34526e-05
0.000377685 -0.000120174 -3.75284e-06
-0.000120174 2.25399e-05 5.08592e-06
-3.75284e-06 5.08592e-06 -9.5197e-05
0.00205815 1.44689e-05 -1.09551e-05
1.44689e-05 0.00104481 -5.42458e-06
-1.09551e-05 -5.42458e-06 0.0010608
0.000401705 8.18453e-06 -4.27988e-07
8.18453e-06 -3.75831e-05 -2.45347e-09
-4.27988e-07 -2.45347e-09 -5.11252e-05
0.000475584 1.36733e-06 -1.74791e-06
1.36733e-06 4.05997e-05 4.31785e-06
-1.74791e-06 4.31785e-06 -1.26363e-05
0.000413441 -7.13013e-07 -3.01735e-06
-7.13013e-07 -3.20211e-05 4.46227e-06
-3.01735e-06 4.46227e-06 -4.59834e-05
0.00206858 3.02617e-05 -6.05354e-06
3.02617e-05 0.00105346 -1.67894e-07
-6.05354e-06 -1.67894e-07 0.00106814
0.00211127 4.67216e-05 7.337e-07
4.67216e-05 0.00108424 5.50257e-06
7.337e-07 5.50257e-06 0.00109678
-0.000711529 -0.00190649 -0.000412243
-0.00190649 0.0100107 7.48918e-05
-0.000412243 7.48918e-05 0.0041363
0.0062564 0.00409705 -0.000497858
0.00409705 0.0037641 0.000162223
-0.000497858 0.000162223 -0.00198111
0.00379242 -0.00156211 -0.000611591
-0.00156211 0.00168912 0.00032845
-0.000611591 0.00032845 -0.00366352
0.00819778 0.00461568 0.00167178
0.00461568 0.0118179 -0.000211026
0.00167178 -0.000211026 0.00291211
0.00526396 0.00108775 1.8844e-06
0.00108775 -0.00099298 -1.23001e-05
1.8844e-06 -1.23001e-05 0.000974463
0.00341741 -0.000832026 0.000116698
-0.000832026 -0.000776851 2.78647e-05
0.000116698 2.78647e-05 -6.60687e-05
0.00275874 -0.000703045 0.000537878
-0.000703045 -0.0089488 -3.17273e-05
0.000537878 -3.17273e-05 -0.00814033
0.0250542 0.00681469 -0.0020967
0.00681469 0.0131738 -9.34254e-05
-0.0020967 -9.34254e-05 0.00605503
0.0252169 0.0203471 -0.0031793
0.0203471 0.0176474 0.0018595
-0.0031793 0.0018595 0.00544541
0.00545405 -0.00140851 7.54271e-05
-0.00140851 -0.00198862 6.02699e-07
7.54271e-05 6.02699e-07 0.000237892
0.00796556 -0.00504931 0.000291299
-0.00504931 -0.00609611 -0.000226447
0.000291299 -0.000226447 -0.00597213
0.0286442 0.00910085 -0.000526369
0.00910085 0.0125506 -0.000238309
-0.000526369 -0.000238309 0.00310286
0.0236446 0.00596669 0.000334356
0.00596669 0.0101323 0.00054914
0.000334356 0.00054914 0.00363807
0.00245829 -0.00325659 -0.000111401
-0.00325659 -0.00452149 8.46666e-05
-0.000111401 8.46666e-05 -0.00140714
0.00402805 -0.00786534 0.000915187
-0.00786534 -0.00261773 -0.000295369
0.000915187 -0.000295369 -0.00419994
0.0163181 0.00438807 -0.000412013
0.00438807 0.00741186 -0.00121743
-0.000412013 -0.00121743 -0.00186446
0.0110944 -0.000866615 -0.00043434
-0.000866615 0.000524337 5.99154e-05
-0.00043434 5.99154e-05 -0.000810386
0.00206233 -5.51175e-05 -2.7436e-06
-5.51175e-05 0.00126708 1.5729e-05
-2.7436e-06 1.5729e-05 0.00096031
0.000196498 4.86933e-05 -1.10802e-06
4.86933e-05 -1.68173e-05 -2.13309e-06
-1.10802e-06 -2.13309e-06 -0.00018345
0.000534377 0.000120801 3.48701e-06
0.000120801 0.00013247 2.87169e-06
3.48701e-06 2.87169e-06 1.20223e-05
-0.000385143 -7.77597e-05 6.17477e-07
-7.77597e-05 -0.000455774 2.94656e-06
6.17477e-07 2.94656e-06 -0.000505335
0.000413344 0.000170713 3.30286e-06
0.000170713 6.50414e-05 1.19256e-05
3.30286e-06 1.19256e-05 -0.000139475
0.000540273 9.06151e-05 -7.91559e-07
9.06151e-05 0.000187045 -1.17355e-07
-7.91559e-07 -1.17355e-07 -5.45446e-06
-0.00020293 -4.37567e-06 2.44764e-06
-4.37567e-06 -0.000310229 2.50067e-06
2.44764e-06 2.50067e-06 -0.000443903
0.000977561 0.000202286 8.50249e-06
0.000202286 0.000461924 1.01786e-05
8.50249e-06 1.01786e-05 0.000238682
0.000986753 0.000192461 -2.12989e-07
0.000192461 0.00047432 -4.66504e-07
-2.12989e-07 -4.66504e-07 0.000253008
0.000335774 1.93136e-05 -2.67909e-06
1.93136e-05 2.74145e-05 -2.15205e-08
-2.67909e-06 -2.15205e-08 -0.000141495
0.00114982 -0.000874273 0.000126544
-0.000874273 -0.00160169 -7.13067e-05
0.000126544 -7.13067e-05 -0.000862211
0.000646553 -0.0010064 1.1443e-05
-0.0010064 -0.000772435 -1.10886e-05
1.1443e-05 -1.10886e-05 -0.000841002
0.00196848 -0.00139945 1.21874e-05
-0.00139945 0.000189448 1.0659e-05
1.21874e-05 1.0659e-05 -0.000204805
-0.00082991 -0.000927193 6.58946e-06
-0.000927193 -0.00088403 -1.29723e-05
6.58946e-06 -1.29723e-05 -0.00120481
0.00409057 -0.000767385 -7.38094e-05
-0.000767385 0.00272058 6.83266e-05
-7.38094e-05 6.83266e-05 0.00218815
0.0005888 -0.000316752 6.12525e-08
-0.000316752 0.000515223 -1.17805e-05
6.12525e-08 -1.17805e-05 9.01667e-05
0.000539547 4.07921e-05 4.99547e-06
4.07921e-05 0.000349287 -1.05577e-05
4.99547e-06 -1.05577e-05 2.33957e-05
0.000627521 2.03618e-05 -5.62552e-06
2.03618e-05 0.000355246 3.55973e-06
-5.62552e-06 3.55973e-06 5.2878e-05
0.00308126 -0.00169064 -2.97318e-05
-0.00169064 -0.000133965 2.51882e-06
-2.97318e-05 2.51882e-06 0.000129553
0.000514153 -3.79453e-05 9.34671e-07
-3.79453e-05 0.000415161 3.89134e-06
9.34671e-07 3.89134e-06 4.63976e-05
0.00218724 -0.000497565 1.05258e-05
-0.000497565 0.00148063 -6.50201e-06
1.05258e-05 -6.50201e-06 0.00107264
0.00166025 -0.00125355 2.2127e-05
-0.00125355 0.000143437 -3.7726e-06
2.2127e-05 -3.7726e-06 -0.000110662
0.000294156 -0.000712619 -2.60194e-05
-0.000712619 0.000252943 8.24691e-06
-2.60194e-05 8.24691e-06 -0.000134854
0.00284726 -0.00277174 5.96602e-05
-0.00277174 0.000470772 -2.29777e-05
5.96602e-05 -2.29777e-05 -0.000178725
0.0015518 -0.000902378 -2.37158e-05
-0.000902378 0.000895134 2.67913e-05
-2.37158e-05 2.67913e-05 0.000555069
-0.00156256 -0.000176701 6.60477e-06
-0.000176701 -0.00047133 1.93371e-06
6.60477e-06 1.93371e-06 -0.00105815
0.000125259 0.000137712 5.52259e-06
0.000137712 8.06025e-05 3.21262e-06
5.52259e-06 3.21262e-06 -0.000126314
-0.000520796 -0.000257533 -5.94972e-06
-0.000257533 -0.000116863 3.1288e-05
-5.94972e-06 3.1288e-05 -0.000536047
0.00242028 0.000381485 -0.000158996
0.000381485 0.00260905 -5.46328e-05
-0.000158996 -5.46328e-05 -0.00278128
-0.00768011 0.000340772 -0.000807577
0.000340772 0.007724 -4.01544e-06
-0.000807577 -4.01544e-06 0.00138998
-0.012316 -0.00436602 -0.00149644
-0.00436602 -0.00249018 1.8375e-05
-0.00149644 1.8375e-05 -0.0068968
0.000108728 0.000471833 1.7508e-05
0.000471833 0.000119233 -3.09167e-06
1.7508e-05 -3.09167e-06 -0.000289767
0.000519275 0.0010017 4.83074e-06
0.0010017 0.000194502 1.20896e-05
4.83074e-06 1.20896e-05 -0.00042073
0.00348263 0.0018788 6.61343e-05
0.0018788 0.00107904 6.23998e-05
6.61343e-05 6.23998e-05 0.000622645
-0.00192321 0.00180335 0.000199048
0.00180335 0.010557 8.14982e-05
0.000199048 8.14982e-05 0.00390176
0.00408905 0.00795769 -0.000834368
0.00795769 -0.00312431 -0.000232804
-0.000834368 -0.000232804 -0.00433774
0.000347267 0.00390373 0.00054966
0.00390373 -0.000656128 0.000244963
0.00054966 0.000244963 -0.000283128
0.000167852 0.00169515 -5.92609e-06
0.00169515 0.00021095 -4.70629e-05
-5.92609e-06 -4.70629e-05 -0.000126882
0.0331608 -0.00571423 0.000147387
-0.00571423 0.0140852 -0.00062336
0.000147387 -0.00062336 0.00568271
0.00956905 0.0041108 0.00120367
0.0041108 0.0043399 0.000377404
0.00120367 0.000377404 -0.00305304
0.0140902 -0.00103259 0.000130358
-0.00103259 0.00309045 8.36203e-05
0.000130358 8.36203e-05 0.00372062
0.00189154 0.00101106 1.18567e-05
0.00101106 0.00111501 -4.68734e-07
1.18567e-05 -4.68734e-07 0.000586199
0.00407033 0.00175769 -0.000104899
0.00175769 0.0049535 -1.60759e-05
-0.000104899 -1.60759e-05 -0.000962245
0.00306942 0.00130498 0.000158446
0.00130498 0.0013791 -2.09202e-05
0.000158446 -2.09202e-05 -0.00137172
1.42087e-05 0.00105126 -1.55399e-05
0.00105126 0.000302071 -7.99058e-06
-1.55399e-05 -7.99058e-06 -0.000323146
-0.00106264 0.00256779 -0.000159054
0.00256779 0.000376508 -0.000104818
-0.000159054 -0.000104818 -0.00108899
0.00275991 0.00862301 0.000486661
0.00862301 0.00180831 0.00016316
0.000486661 0.00016316 -0.00310419
0.0136039 -0.000649702 1.83769e-05
-0.000649702 -0.00248458 -0.000227155
1.83769e-05 -0.000227155 -0.00121178
0.0101991 -0.00335957 -0.000155454
-0.00335957 0.00609177 -0.000254111
-0.000155454 -0.000254111 -0.00185008
0.00138065 0.000866613 -5.51857e-06
0.000866613 0.00121607 -1.4697e-05
-5.51857e-06 -1.4697e-05 0.000564052
-0.00412857 0.00104635 7.68031e-05
0.00104635 0.0018148 8.38732e-05
7.68031e-05 8.38732e-05 -0.00108005
0.00838745 -0.00132986 0.000360764
-0.00132986 0.000577936 -9.18605e-05
0.000360764 -9.18605e-05 -0.00171548
0.0109495 -0.000761821 0.000397557
-0.000761821 0.000433152 -2.23981e-05
0.000397557 -2.23981e-05 -0.000665311
-0.00298683 0.00056778 7.16731e-05
0.00056778 0.000513777 -1.26737e-05
7.16731e-05 -1.26737e-05 -0.000740223
0.00765963 0.00454922 0.000467022
0.00454922 0.0059514 0.000240225
0.000467022 0.000240225 -0.00146566
0.0087739 -0.000509338 -1.6373e-05
-0.000509338 0.00340553 0.000425317
-1.6373e-05 0.000425317 -0.00137804
0.00274865 0.000562021 2.07645e-05
0.000562021 0.00185622 1.39079e-05
2.07645e-05 1.39079e-05 0.00146881
0.000312654 0.000371104 -9.48428e-06
0.000371104 0.000531872 -2.80236e-06
-9.48428e-06 -2.80236e-06 -2.43861e-06
0.000663119 0.000426212 2.12325e-06
0.000426212 0.000874244 -1.39867e-05
2.12325e-06 -1.39867e-05 0.000136436
-0.000189019 6.56299e-05 4.46446e-06
6.56299e-05 -0.000254251 -4.53395e-06
4.46446e-06 -4.53395e-06 -0.000462244
0.000348952 9.70046e-05 -1.26677e-07
9.70046e-05 0.00024838 -1.43184e-06
-1.26677e-07 -1.43184e-06 -1.66674e-05
-9.75217e-05 2.88064e-05 4.56945e-07
2.88064e-05 0.000478942 -3.04296e-06
4.56945e-07 -3.04296e-06 -0.000126772
3.22814e-05 -3.15367e-06 -1.07432e-06
-3.15367e-06 4.30626e-05 -6.20313e-07
-1.07432e-06 -6.20313e-07 -0.000217211
0.000765696 -0.000112061 2.29623e-07
-0.000112061 0.000888295 -2.77768e-06
2.29623e-07 -2.77768e-06 0.000361821
-0.000147443 3.94351e-05 2.97616e-06
3.94351e-05 0.000544728 1.01266e-06
2.97616e-06 1.01266e-06 -8.82111e-05
0.000349869 -0.000116126 -6.33121e-06
-0.000116126 0.000746821 1.53369e-05
-6.33121e-06 1.53369e-05 0.000227912
0.00116148 -9.99661e-05 1.79951e-06
-9.99661e-05 0.00100582 -1.50138e-05
1.79951e-06 -1.50138e-05 0.000624242
-0.000200146 -2.55319e-05 8.93741e-06
-2.55319e-05 -0.000126635 2.39713e-06
8.93741e-06 2.39713e-06 -0.000351703
0.00189553 -0.000103692 9.43292e-07
-0.000103692 0.00102152 6.04013e-06
9.43292e-07 6.04013e-06 0.000828185
-0.000525254 -6.94197e-05 -2.64111e-06
-6.94197e-05 -0.00031163 7.3763e-06
-2.64111e-06 7.3763e-06 -0.00051102
0.000444416 -7.18633e-05 6.77741e-07
-7.18633e-05 0.000418519 1.41938e-06
6.77741e-07 1.41938e-06 0.000162717
-0.000538145 -4.15644e-05 -4.0236e-06
-4.15644e-05 -0.000382049 -1.86644e-06
-4.0236e-06 -1.86644e-06 -0.000577136
0.00146672 -0.000441366 9.18413e-07
-0.000441366 0.000747616 6.65335e-06
9.18413e-07 6.65335e-06 0.000531894
0.000853527 -0.000302572 -2.34473e-05
-0.000302572 0.000332284 -6.32695e-07
-2.34473e-05 -6.32695e-07 0.000225581
-0.000572121 -0.000375652 1.17863e-05
-0.000375652 -0.000503337 2.04608e-05
1.17863e-05 2.04608e-05 -0.000898377
0.000372013 -0.00014646 1.17227e-06
-0.00014646 1.99035e-05 1.60966e-06
1.17227e-06 1.60966e-06 -0.000118369
0.00121032 -0.000435686 -5.21865e-06
-0.000435686 0.000419784 8.33096e-06
-5.21865e-06 8.33096e-06 0.000155346
0.00245215 -0.000892332 -9.95107e-06
-0.000892332 0.00110018 1.24398e-05
-9.95107e-06 1.24398e-05 0.000546518
0.00209793 -0.00095291 -2.91287e-06
-0.00095291 0.000791675 -1.71716e-06
-2.91287e-06 -1.71716e-06 0.000185067
0.001586 -0.000516783 8.98083e-06
-0.000516783 0.000594021 2.14056e-08
8.98083e-06 2.14056e-08 0.000250389
0.000892929 -0.00063967 9.43986e-06
-0.00063967 0.000173732 -3.13652e-06
9.43986e-06 -3.13652e-06 -0.000268481
0.00155923 -0.000285433 3.50729e-06
-0.000285433 0.000827128 -3.30808e-06
3.50729e-06 -3.30808e-06 0.000469663
0.00101511 -0.000264833 -8.15155e-06
-0.000264833 0.000358595 1.56329e-06
-8.15155e-06 1.56329e-06 9.74547e-05
-0.000259301 -0.000261995 1.89511e-05
-0.000261995 -0.000462037 -1.12196e-05
1.89511e-05 -1.12196e-05 -0.000669201
0.00179629 -0.00021135 -6.04964e-06
-0.00021135 0.00100383 3.93001e-06
-6.04964e-06 3.93001e-06 0.000739133
-0.000253438 -0.000199301 9.47058e-07
-0.000199301 -0.000229538 6.37416e-07
9.47058e-07 6.37416e-07 -0.000574015
-0.00036403 -4.00352e-05 4.52277e-06
-4.00352e-05 -0.000406084 -9.60869e-07
4.52277e-06 -9.60869e-07 -0.000687677
0.00262627 -0.000554215 -5.40917e-06
-0.000554215 0.0015361 2.80139e-06
-5.40917e-06 2.80139e-06 0.00125249
0.000951013 -0.000236792 -5.01835e-07
-0.000236792 0.000411657 -4.2021e-07
-5.01835e-07 -4.2021e-07 0.000191251
0.000251763 -4.44261e-05 6.30282e-06
-4.44261e-05 -7.75902e-05 9.22631e-06
6.30282e-06 9.22631e-06 -0.000226959
0.000937888 -0.000248344 -3.20762e-06
-0.000248344 0.000446224 -6.20952e-07
-3.20762e-06 -6.20952e-07 0.000244522
0.000428141 -2.08599e-05 -2.77155e-06
-2.08599e-05 4.97892e-05 -6.14456e-07
-2.77155e-06 -6.14456e-07 -8.1048e-05
0.00150493 -2.66792e-05 -2.46919e-05
-2.66792e-05 0.000694816 7.46444e-06
-2.46919e-05 7.46444e-06 0.000659862
0.00062062 -9.78739e-05 -5.1533e-08
-9.78739e-05 0.000169081 -4.37826e-06
-5.1533e-08 -4.37826e-06 5.52446e-05
0.000843521 -2.62375e-05 -1.32577e-05
-2.62375e-05 0.000263996 7.10394e-07
-1.32577e-05 7.10394e-07 0.000229678
0.000842619 2.89075e-05 2.2839e-06
2.89075e-05 0.000243628 3.65734e-06
2.2839e-06 3.65734e-06 0.000239115
0.000401111 -4.87799e-05 3.82e-06
-4.87799e-05 -1.89844e-05 -7.09121e-06
3.82e-06 -7.09121e-06 -5.45258e-05
0.00180907 2.6532e-05 2.0404e-05
2.6532e-05 0.000881992 -1.38421e-06
2.0404e-05 -1.38421e-06 0.000887561
0.00261274 1.35539e-05 2.80416e-05
1.35539e-05 0.00140856 -5.88987e-06
2.80416e-05 -5.88987e-06 0.00142072
0.000116128 4.235e-05 1.81805e-06
4.235e-05 -0.000148268 2.42279e-06
1.81805e-06 2.42279e-06 -0.000316338
-4.25981e-05 2.75328e-05 4.29506e-07
2.75328e-05 -0.000288259 -7.35134e-06
4.29506e-07 -7.35134e-06 -0.000374188
0.000508798 9.16598e-05 -5.04601e-07
9.16598e-05 0.000106583 8.08973e-07
-5.04601e-07 8.08973e-07 -4.00996e-05
0.00041095 1.44057e-05 2.37752e-06
1.44057e-05 -3.07745e-05 -5.66328e-06
2.37752e-06 -5.66328e-06 -4.9365e-05
0.000281373 6.45259e-06 1.72329e-06
6.45259e-06 -8.04815e-05 7.06236e-08
1.72329e-06 7.06236e-08 -0.000151283
0.000169245 -0.000106293 -2.12111e-07
-0.000106293 -0.000109885 5.15044e-06
-2.12111e-07 5.15044e-06 -0.000241472
0.00211597 -1.55841e-07 -1.50038e-05
-1.55841e-07 0.00108202 -5.60663e-06
-1.50038e-05 -5.60663e-06 0.00109789
0.000396299 8.38871e-06 5.76527e-07
8.38871e-06 -4.12105e-05 -7.89592e-08
5.76527e-07 -7.89592e-08 -5.59344e-05
0.000386675 -1.4184e-05 -4.64808e-06
-1.4184e-05 -1.12681e-05 4.98781e-06
-4.64808e-06 4.98781e-06 -7.14172e-05
0.0020863 1.55646e-05 -5.24729e-06
1.55646e-05 0.00106373 -2.43534e-08
-5.24729e-06 -2.43534e-08 0.0010794
0.000398138 3.61171e-06 -2.86406e-06
3.61171e-06 -3.97104e-05 4.43489e-06
-2.86406e-06 4.43489e-06 -5.32718e-05
0.00206597 3.14491e-05 6.19519e-06
3.14491e-05 0.00105195 5.61186e-06
6.19519e-06 5.61186e-06 0.00106639
-0.00107979 -0.00197614 -0.000385105
-0.00197614 -0.000168327 0.000161796
-0.000385105 0.000161796 -0.00496109
0.0055052 0.00281452 -0.000324778
0.00281452 0.0124681 7.87978e-05
-0.000324778 7.87978e-05 0.00465548
0.00688017 0.00152109 -0.00181162
0.00152109 0.00601832 0.000361769
-0.00181162 0.000361769 0.00289742
0.000748086 0.000145749 1.21452e-05
0.000145749 0.000307351 8.37835e-06
1.21452e-05 8.37835e-06 9.57814e-05
0.00718817 -0.00166894 -0.000237673
-0.00166894 0.0048973 0.000363041
-0.000237673 0.000363041 0.00151715
0.00470395 -0.001788 -0.000333839
-0.001788 0.00258165 3.96999e-05
-0.000333839 3.96999e-05 -0.00290955
0.0230136 0.0100585 0.000173975
0.0100585 0.0141361 -0.000617082
0.000173975 -0.000617082 0.00368019
0.00748386 -0.00214072 0.000182495
-0.00214072 -0.00118063 -2.30181e-05
0.000182495 -2.30181e-05 0.000584253
0.014502 -0.00461687 0.000408155
-0.00461687 -0.00146506 -0.000297341
0.000408155 -0.000297341 -8.95961e-05
0.020021 0.00706752 -0.00112778
0.00706752 0.00711113 0.000329342
-0.00112778 0.000329342 -0.00171731
0.0176309 0.00521823 0.000381655
0.00521823 0.0114525 0.000321248
0.000381655 0.000321248 0.00645838
0.00764056 -0.00403443 -9.47907e-05
-0.00403443 -0.00134264 -3.92039e-06
-9.47907e-05 -3.92039e-06 0.000661021
0.0117927 -0.00822901 7.64339e-06
-0.00822901 0.00013179 -6.16431e-05
7.64339e-06 -6.16431e-05 -0.00158454
0.0136039 0.00251209 0.000117444
0.00251209 0.00924981 -0.000512044
0.000117444 -0.000512044 0.000900019
0.0168918 0.0013916 -2.45707e-05
0.0013916 0.00292188 8.25567e-05
-2.45707e-05 8.25567e-05 0.000132011
0.00436929 -0.00478153 -6.94826e-06
-0.00478153 0.000635382 4.89819e-05
-6.94826e-06 4.89819e-05 0.00159
0.010419 -0.00790485 0.000370043
-0.00790485 0.00479106 -0.000219974
0.000370043 -0.000219974 0.000810837
0.00711476 0.000452133 -5.94944e-05
0.000452133 0.00651776 -0.000524268
-5.94944e-05 -0.000524268 0.000751713
0.0165561 -0.00065036 -0.000265998
-0.00065036 0.000332827 0.00033407
-0.000265998 0.00033407 0.000660668
0.000300572 0.000188303 1.27188e-05
0.000188303 9.30487e-05 1.74793e-05
1.27188e-05 1.74793e-05 -0.00011966
0.000340407 -7.97825e-05 3.74878e-07
-7.97825e-05 0.000129542 -9.89317e-07
3.74878e-07 -9.89317e-07 -0.000125276
2.52596e-05 3.80729e-05 6.60146e-06
3.80729e-05 -0.000150765 1.78287e-06
6.60146e-06 1.78287e-06 -0.0002969
0.000555013 0.000211313 9.96573e-06
0.000211313 9.72079e-05 2.41771e-05
9.96573e-06 2.41771e-05 -6.92324e-05
0.000922244 0.000275571 -1.5025e-06
0.000275571 0.000426506 -2.28119e-06
-1.5025e-06 -2.28119e-06 0.000194909
0.000962781 0.000166175 2.42308e-07
0.000166175 0.000479953 -9.0393e-07
2.42308e-07 -9.0393e-07 0.000279676
0.0011526 0.000227713 -2.16188e-06
0.000227713 0.000575575 -1.6513e-07
-2.16188e-06 -1.6513e-07 0.000348547
0.00114981 0.000274203 2.45065e-06
0.000274203 0.000598142 2.3041e-06
2.45065e-06 2.3041e-06 0.000361027
0.00200813 -0.00144745 0.000167975
-0.00144745 -0.000779463 -0.000102779
0.000167975 -0.000102779 -0.000243922
-0.000381488 -0.00101023 -1.65425e-05
-0.00101023 -0.00103211 -1.62184e-05
-1.65425e-05 -1.62184e-05 -0.00117091
-0.000222243 -6.72254e-05 2.54482e-06
-6.72254e-05 -0.000211041 -2.30329e-05
2.54482e-06 -2.30329e-05 -0.000479002
0.00134796 -0.000829328 2.9991e-05
-0.000829328 0.00079276 -2.32282e-05
2.9991e-05 -2.32282e-05 0.00042652
0.00349963 -0.000742458 -3.54245e-05
-0.000742458 0.00219351 1.00376e-05
-3.54245e-05 1.00376e-05 0.00179403
0.00170683 -0.000194668 1.74325e-05
-0.000194668 0.00115561 -2.94441e-05
1.74325e-05 -2.94441e-05 0.000755466
-0.000130088 0.00011807 2.00287e-06
0.00011807 -8.38078e-05 1.26372e-05
2.00287e-06 1.26372e-05 -0.000325024
0.00136853 -0.0024013 -1.78698e-05
-0.0024013 -0.000178422 -4.21044e-06
-1.78698e-05 -4.21044e-06 -0.000670503
0.0014824 -0.000183721 -4.25667e-06
-0.000183721 0.0011266 -1.89234e-06
-4.25667e-06 -1.89234e-06 0.000693425
-0.000667026 -0.000246885 -8.18763e-06
-0.000246885 -7.46661e-05 9.85869e-06
-8.18763e-06 9.85869e-06 -0.000602222
-0.000818021 -0.000690466 2.391e-05
-0.000690466 -0.000553557 -2.75252e-06
2.391e-05 -2.75252e-06 -0.000697959
-1.40551e-05 5.69997e-05 1.15429e-05
5.69997e-05 3.74173e-05 -3.92398e-06
1.15429e-05 -3.92398e-06 -0.000187759
0.00149882 -0.00245724 -9.85975e-05
-0.00245724 0.00125156 -2.28518e-05
-9.85975e-05 -2.28518e-05 0.000210736
-0.000167655 -0.000701622 -2.94042e-05
-0.000701622 0.000244249 1.01789e-05
-2.94042e-05 1.01789e-05 -0.000287304
0.00022118 0.000172151 1.77998e-06
0.000172151 0.000561704 -7.99742e-06
1.77998e-06 -7.99742e-06 -2.43614e-05
0.00116454 0.000182332 2.93085e-06
0.000182332 0.00119502 1.53489e-05
2.93085e-06 1.53489e-05 0.000563402
-1.85773e-05 -4.23331e-06 0.000314888
-4.23331e-06 0.00463055 8.06895e-05
0.000314888 8.06895e-05 0.00150337
-0.000178807 8.5276e-05 0.000226873
8.5276e-05 0.00138804 -3.01872e-05
0.000226873 -3.01872e-05 -0.00430857
-0.0145416 -0.000638751 -0.000739366
-0.000638751 0.00658768 2.53201e-05
-0.000739366 2.53201e-05 0.000945804
0.0016751 0.000931585 2.06496e-05
0.000931585 0.00104792 4.32137e-06
2.06496e-05 4.32137e-06 0.000560693
-0.000429626 0.00131589 2.45277e-05
0.00131589 7.57882e-05 1.575e-05
2.45277e-05 1.575e-05 -0.000720808
0.00596102 0.00232595 0.000706418
0.00232595 0.00517584 0.000181282
0.000706418 0.000181282 0.000308688
0.00550303 0.00590272 0.000243012
0.00590272 0.0034933 0.000233267
0.000243012 0.000233267 -0.00050522
0.00180576 0.00400913 -0.000197411
0.00400913 0.00159043 -0.000193127
-0.000197411 -0.000193127 -0.000352654
0.00580915 -0.00208347 -0.000141827
-0.00208347 0.00620151 -0.000541775
-0.000141827 -0.000541775 0.000222955
0.00398228 0.000645015 0.000121404
0.000645015 0.0018204 0.000145689
0.000121404 0.000145689 -0.000874049
0.0105777 -0.000179131 -4.29466e-05
-0.000179131 -0.00446682 -0.000279278
-4.29466e-05 -0.000279278 -0.00321178
0.000703692 0.000918399 5.37433e-06
0.000918399 0.000752884 -1.04028e-06
5.37433e-06 -1.04028e-06 5.18249e-05
-0.00291373 0.000611253 6.04554e-06
0.000611253 0.0021412 8.39636e-06
6.04554e-06 8.39636e-06 -0.000970609
0.00698324 -0.000573011 0.000243409
-0.000573011 0.000473167 1.0343e-05
0.000243409 1.0343e-05 -0.00177451
-0.00196987 0.00106229 -2.82624e-05
0.00106229 0.000177335 -1.56038e-05
-2.82624e-05 -1.56038e-05 -0.00103197
0.0175117 0.00175185 2.95927e-05
0.00175185 0.00283697 -8.92244e-05
2.95927e-05 -8.92244e-05 4.17715e-05
0.00435702 0.00314833 0.000383609
0.00314833 0.0059827 0.000244189
0.000383609 0.000244189 -0.00103597
0.0146174 0.000645282 -0.000218155
0.000645282 0.00551837 -1.02384e-05
-0.000218155 -1.02384e-05 0.000225415
0.000936407 0.000949505 -5.06414e-06
0.000949505 0.00106072 -2.38736e-05
-5.06414e-06 -2.38736e-05 0.000163815
0.00377396 -3.21995e-05 4.99936e-05
-3.21995e-05 0.00242375 4.198e-05
4.99936e-05 4.198e-05 4.44894e-05
0.00394865 -0.00311592 0.000320474
-0.00311592 0.00439727 -0.000286323
0.000320474 -0.000286323 0.00150876
0.0337064 0.00762979 0.000520811
0.00762979 0.0139599 -0.000402226
0.000520811 -0.000402226 0.00660813
0.0100303 -0.000345233 -9.61064e-05
-0.000345233 0.00790671 0.00063565
-9.61064e-05 0.00063565 0.00213515
-0.00180989 0.0009942 -0.000184352
0.0009942 0.0010187 -0.00013089
-0.000184352 -0.00013089 -0.000285684
0.00141599 0.000556928 0.000201362
0.000556928 0.00591051 8.54665e-06
0.000201362 8.54665e-06 -0.00422886
0.00101811 0.000522429 5.42781e-06
0.000522429 0.000920083 1.25862e-05
5.42781e-06 1.25862e-05 0.000342627
0.000417191 0.000358106 8.56844e-06
0.000358106 0.000815751 7.75425e-06
8.56844e-06 7.75425e-06 0.000118256
0.000519184 -0.00011958 -1.11658e-05
-0.00011958 0.00125783 2.06351e-05
-1.11658e-05 2.06351e-05 0.00058701
-0.000970589 -3.09405e-05 7.65329e-06
-3.09405e-05 -0.000588206 -7.14821e-06
7.65329e-06 -7.14821e-06 -0.000852249
-0.000891095 8.69073e-06 4.77321e-06
8.69073e-06 -7.1476e-05 3.98523e-06
4.77321e-06 3.98523e-06 -0.000647631
-0.000106433 3.03359e-05 -6.45039e-06
3.03359e-05 0.000621898 -7.23641e-06
-6.45039e-06 -7.23641e-06 -5.05759e-05
-0.000239537 -1.20741e-06 -1.01342e-06
-1.20741e-06 0.000100791 4.72189e-07
-1.01342e-06 4.72189e-07 -0.000247158
8.33528e-06 -9.38426e-05 3.14754e-06
-9.38426e-05 0.000549162 2.89398e-06
3.14754e-06 2.89398e-06 1.32651e-05
0.0027098 -0.00060904 1.15236e-05
-0.00060904 0.00177971 -1.41777e-05
1.15236e-05 -1.41777e-05 0.00140352
2.39954e-05 -5.38397e-05 -2.64246e-06
-5.38397e-05 0.000152975 7.57713e-06
-2.64246e-06 7.57713e-06 -9.87537e-05
-0.00161115 1.03328e-05 5.06294e-06
1.03328e-05 -0.00101351 2.17254e-06
5.06294e-06 2.17254e-06 -0.00121296
0.00116047 -0.000437777 -3.63971e-06
-0.000437777 0.000597186 4.24013e-06
-3.63971e-06 4.24013e-06 0.000333917
-0.00383387 -2.97742e-06 2.42156e-05
-2.97742e-06 -0.00218647 2.08771e-05
2.42156e-05 2.08771e-05 -0.0026082
-0.00124612 -0.000114095 4.16688e-05
-0.000114095 -0.000875172 -1.1128e-05
4.16688e-05 -1.1128e-05 -0.000925164
7.91513e-05 -0.000466289 -1.46719e-05
-0.000466289 -0.000158582 -3.35831e-06
-1.46719e-05 -3.35831e-06 -0.000528572
0.00162888 -0.00087025 -2.88307e-06
-0.00087025 0.00060288 -2.22935e-07
-2.88307e-06 -2.22935e-07 -9.57185e-05
0.00219571 -0.00109263 -1.37735e-05
-0.00109263 0.000785083 2.7711e-06
-1.37735e-05 2.7711e-06 9.35513e-05
0.0014488 -0.0004522 3.96969e-06
-0.0004522 0.000550224 -6.90996e-06
3.96969e-06 -6.90996e-06 0.00028156
0.00167031 -0.000789365 4.07333e-07
-0.000789365 0.000616409 1.3607e-06
4.07333e-07 1.3607e-06 8.2431e-05
0.0016564 -0.000947542 6.36746e-06
-0.000947542 0.000453137 -7.83816e-06
6.36746e-06 -7.83816e-06 -0.000158605
0.00197225 -0.00074853 5.63305e-06
-0.00074853 0.000820246 1.55903e-06
5.63305e-06 1.55903e-06 0.000309574
0.00142929 -0.000855966 3.16195e-06
-0.000855966 0.000389625 -5.48894e-06
3.16195e-06 -5.48894e-06 -0.000188387
0.0011509 -0.000277128 -7.87376e-07
-0.000277128 0.000358038 -2.66722e-06
-7.87376e-07 -2.66722e-06 6.65288e-05
0.000918728 -0.000454439 2.77719e-07
-0.000454439 0.000171081 8.82149e-08
2.77719e-07 8.82149e-08 -0.000174698
1.14973e-05 -0.00049487 1.28717e-06
-0.00049487 -0.000350927 -8.06526e-06
1.28717e-06 -8.06526e-06 -0.000748301
-0.000274411 -0.000115713 2.22463e-06
-0.000115713 -0.000304261 -4.66998e-06
2.22463e-06 -4.66998e-06 -0.0006496
0.000400822 -0.000240424 -7.25802e-07
-0.000240424 0.000140504 -9.26413e-07
-7.25802e-07 -9.26413e-07 -0.000228852
-0.000922674 -0.000153515 3.09876e-06
-0.000153515 -0.000785494 5.57665e-07
3.09876e-06 5.57665e-07 -0.0010677
0.00131015 -0.000278382 -3.30416e-06
-0.000278382 0.000719312 6.1256e-06
-3.30416e-06 6.1256e-06 0.000392755
0.000779616 -0.000204556 1.14342e-06
-0.000204556 0.00032109 8.32703e-07
1.14342e-06 8.32703e-07 3.24561e-05
-8.00726e-05 -6.18206e-05 3.20986e-06
-6.18206e-05 -0.000302826 9.99814e-06
3.20986e-06 9.99814e-06 -0.000483185
0.00132049 -0.000380751 -5.90286e-06
-0.000380751 0.00067599 1.21667e-06
-5.90286e-06 1.21667e-06 0.000425969
0.000575524 -6.7607e-05 -1.4375e-06
-6.7607e-05 0.000115001 -1.72741e-07
-1.4375e-06 -1.72741e-07 -3.02055e-05
0.000333308 3.99744e-05 3.34425e-06
3.99744e-05 -6.23576e-05 1.14533e-05
3.34425e-06 1.14533e-05 -0.000117612
0.00116279 -0.000135149 -2.55545e-06
-0.000135149 0.000517188 -5.46007e-06
-2.55545e-06 -5.46007e-06 0.000383133
0.000438073 -3.45182e-05 -1.99239e-06
-3.45182e-05 -5.85214e-06 8.16742e-08
-1.99239e-06 8.16742e-08 -4.86275e-05
0.00282221 9.68624e-05 1.94391e-06
9.68624e-05 0.00154807 3.48783e-06
1.94391e-06 3.48783e-06 0.00154794
0.000479848 -4.96054e-05 3.56894e-06
-4.96054e-05 2.62045e-05 -7.79078e-06
3.56894e-06 -7.79078e-06 -1.35143e-05
0.00182374 3.93268e-05 2.44604e-05
3.93268e-05 0.000891211 -1.21874e-06
2.44604e-05 -1.21874e-06 0.000894216
0.00276125 2.92975e-05 3.56241e-05
2.92975e-05 0.00150371 -6.40459e-06
3.56241e-05 -6.40459e-06 0.00151482
0.00026019 6.32881e-05 4.42495e-06
6.32881e-05 -6.69471e-05 1.71777e-06
4.42495e-06 1.71777e-06 -0.000231428
9.64131e-05 1.91031e-05 2.51757e-06
1.91031e-05 -0.000194722 -5.3464e-06
2.51757e-06 -5.3464e-06 -0.000301199
0.000429427 5.86738e-05 1.48971e-08
5.86738e-05 6.12387e-05 -8.83849e-07
1.48971e-08 -8.83849e-07 -0.000106243
0.000448451 1.29471e-05 3.09259e-06
1.29471e-05 -6.37883e-06 -6.34758e-06
3.09259e-06 -6.34758e-06 -3.03167e-05
5.35364e-05 2.9757e-05 -1.05459e-06
2.9757e-05 -0.000224592 -2.36252e-06
-1.05459e-06 -2.36252e-06 -0.000314545
0.000624866 8.73289e-05 9.34303e-07
8.73289e-05 0.000205629 4.51222e-06
9.34303e-07 4.51222e-06 4.27375e-05
0.00224071 -1.48169e-05 -2.09602e-05
-1.48169e-05 0.00116371 -5.66979e-06
-2.09602e-05 -5.66979e-06 0.00117852
0.000411169 8.95455e-06 -1.25694e-06
8.95455e-06 -3.24557e-05 -1.7488e-07
-1.25694e-06 -1.7488e-07 -5.01987e-05
-5.27449e-05 1.48067e-05 1.02094e-06
1.48067e-05 -0.000297275 5.42824e-06
1.02094e-06 5.42824e-06 -0.000371037
0.00211151 4.46034e-07 -4.14412e-06
4.46034e-07 0.00107921 9.20199e-08
-4.14412e-06 9.20199e-08 0.00109511
0.000391109 8.85607e-06 -2.75202e-06
8.85607e-06 -4.46632e-05 4.80314e-06
-2.75202e-06 4.80314e-06 -5.90314e-05
0.00207409 1.64728e-05 1.11785e-05
1.64728e-05 0.00105606 5.58847e-06
1.11785e-05 5.58847e-06 0.00107158
0.00102536 -0.000171259 0.000299978
-0.000171259 0.00515818 0.00017771
0.000299978 0.00017771 0.00279683
-0.00087287 -0.000715964 -7.66147e-05
-0.000715964 0.000505745 7.1291e-06
-7.66147e-05 7.1291e-06 -0.00499323
0.00187605 0.00280365 -0.000458001
0.00280365 0.0116556 -0.000131337
-0.000458001 -0.000131337 0.00345343
0.000679262 0.000159988 2.14625e-08
0.000159988 0.000226657 5.93504e-07
2.14625e-08 5.93504e-07 3.57914e-05
-0.000436059 0.000112449 9.00569e-06
0.000112449 -0.000447377 5.1033e-06
9.00569e-06 5.1033e-06 -0.000674682
0.00185774 0.000303093 2.09361e-05
0.000303093 0.000986226 1.99639e-05
2.09361e-05 1.99639e-05 0.00078881
0.00939178 -0.00119995 -0.000362591
-0.00119995 0.00051798 0.000130467
-0.000362591 0.000130467 -0.0023107
0.00786489 -0.00284517 0.000188231
-0.00284517 0.00443718 4.44096e-05
0.000188231 4.44096e-05 0.00202082
0.00478822 -0.00414498 0.000361601
-0.00414498 0.00209111 -0.000361182
0.000361601 -0.000361182 -0.00309639
0.00897143 -0.0047145 -7.67472e-06
-0.0047145 -0.00148677 -6.61265e-05
-7.67472e-06 -6.61265e-05 0.000731098
0.00425853 -0.00783008 -0.0010197
-0.00783008 -0.00294092 4.46829e-05
-0.0010197 4.46829e-05 -0.00320989
0.0310205 0.00723572 0.000766815
0.00723572 0.0165438 0.000333568
0.000766815 0.000333568 0.00608171
0.00910215 -0.00135289 0.000484898
-0.00135289 -0.00112546 -0.000338266
0.000484898 -0.000338266 -0.00343102
0.00271354 -0.00463717 5.84318e-06
-0.00463717 -0.000888833 1.33897e-05
5.84318e-06 1.33897e-05 0.000683527
0.00498918 -0.00801914 -0.000304479
-0.00801914 0.00261494 6.04856e-06
-0.000304479 6.04856e-06 -0.00272338
0.00811407 0.00468426 -0.000145692
0.00468426 0.0077947 -0.000420167
-0.000145692 -0.000420167 0.000577039
0.0137241 -0.000435687 -0.000167523
-0.000435687 -0.00189192 0.000185589
-0.000167523 0.000185589 -0.00110677
-0.000412553 -0.00365949 -0.000182375
-0.00365949 0.00101867 9.75772e-05
-0.000182375 9.75772e-05 9.16425e-05
0.00815804 -0.00421957 -0.000470123
-0.00421957 0.00608965 0.000291031
-0.000470123 0.000291031 -0.000238739
0.00810567 -0.000212201 5.11558e-05
-0.000212201 0.00394352 -0.000403151
5.11558e-05 -0.000403151 -0.0011284
0.0100842 0.000810591 3.76664e-05
0.000810591 -0.00108498 0.000197402
3.76664e-05 0.000197402 -0.00232841
-0.000348013 9.23301e-05 8.60637e-06
9.23301e-05 -0.00033541 2.45373e-05
8.60637e-06 2.45373e-05 -0.000484617
0.000684069 1.39052e-05 -7.59275e-07
1.39052e-05 0.000335338 1.23555e-07
-7.59275e-07 1.23555e-07 0.000114768
0.000821075 -0.000262475 1.28288e-05
-0.000262475 0.000412776 -1.09321e-05
1.28288e-05 -1.09321e-05 0.000168659
0.00054395 0.000194828 -9.81646e-07
0.000194828 0.000101084 2.63267e-06
-9.81646e-07 2.63267e-06 -7.01118e-05
0.000774108 0.000242079 -2.12023e-07
0.000242079 0.00034007 -9.93865e-06
-2.12023e-07 -9.93865e-06 0.000113761
0.00123297 0.000256989 -7.71972e-06
0.000256989 0.000626007 -6.76996e-06
-7.71972e-06 -6.76996e-06 0.000397951
0.000876408 -0.00204473 8.13217e-05
-0.00204473 -0.000176297 -3.17998e-05
8.13217e-05 -3.17998e-05 -0.000540975
-0.000782792 -0.000610152 1.16997e-05
-0.000610152 -0.000616783 -2.72191e-05
1.16997e-05 -2.72191e-05 -0.000682996
0.00017697 0.000253344 -7.80066e-06
0.000253344 0.000107974 -2.70933e-05
-7.80066e-06 -2.70933e-05 -0.000175581
0.00230887 -0.000578674 6.48873e-05
-0.000578674 0.00151607 -3.50762e-05
6.48873e-05 -3.50762e-05 0.0010585
0.00317308 -0.000153936 8.94182e-06
-0.000153936 0.00210503 -2.6917e-05
8.94182e-06 -2.6917e-05 0.00170611
-0.000512305 7.88624e-05 9.76449e-06
7.88624e-05 -0.000244528 2.03266e-06
9.76449e-06 2.03266e-06 -0.000490018
-0.000291634 2.5373e-05 3.51647e-06
2.5373e-05 0.000253546 1.04367e-05
3.51647e-06 1.04367e-05 -0.00030563
0.00170314 -0.0022933 -6.75975e-05
-0.0022933 0.00135101 6.32173e-07
-6.75975e-05 6.32173e-07 0.000269625
0.00044011 -8.17028e-05 -6.5768e-06
-8.17028e-05 0.000805327 -1.3075e-06
-6.5768e-06 -1.3075e-06 0.000137919
-5.79647e-05 -0.000507107 -4.7639e-06
-0.000507107 0.000589909 2.51376e-06
-4.7639e-06 2.51376e-06 -0.000125009
0.000647175 0.000252623 2.08202e-05
0.000252623 0.000732144 -3.678e-05
2.08202e-05 -3.678e-05 0.000288203
-0.00408445 -0.00024151 -0.000159534
-0.00024151 -0.000532974 1.14271e-05
-0.000159534 1.14271e-05 -0.00169455
-0.000294119 -0.000231127 -1.96567e-05
-0.000231127 0.00100886 -1.84985e-05
-1.96567e-05 -1.84985e-05 0.000182002
-0.00388555 -0.000130093 -2.92715e-05
-0.000130093 -0.00131303 -1.17367e-05
-2.92715e-05 -1.17367e-05 -0.00208978
0.00129773 0.000681575 -1.51427e-06
0.000681575 -3.86575e-05 -5.23862e-06
-1.51427e-06 -5.23862e-06 -0.00437065
-0.00167428 0.000964817 0.000196254
0.000964817 0.00430424 1.02631e-05
0.000196254 1.02631e-05 0.00122847
-0.00196837 0.000102559 0.000493285
0.000102559 0.000494579 5.0015e-05
0.000493285 5.0015e-05 -0.00504876
-0.000261992 0.000919541 1.02467e-05
0.000919541 0.000128928 2.42588e-05
1.02467e-05 2.42588e-05 -0.000615109
0.000740674 0.00159779 -1.40422e-05
0.00159779 0.0011025 -3.65368e-05
-1.40422e-05 -3.65368e-05 -7.91807e-05
-0.0022814 0.000630537 -0.000230395
0.000630537 0.00254185 -6.95189e-05
-0.000230395 -6.95189e-05 -0.000704446
-0.00413698 0.00120141 0.000235058
0.00120141 0.00432036 0.000260867
0.000235058 0.000260867 -0.00221408
0.00499669 0.000674361 -0.000223412
0.000674361 -0.00110319 -0.000523704
-0.000223412 -0.000523704 -0.00730088
0.0066281 0.000136671 0.000122092
0.000136671 7.37881e-05 2.20981e-05
0.000122092 2.20981e-05 -0.00150824
0.00820895 -0.00113653 -0.000475637
-0.00113653 -0.00142917 0.000315853
-0.000475637 0.000315853 -0.00359785
0.000699137 0.000781886 -9.40511e-06
0.000781886 0.000994538 -6.73846e-07
-9.40511e-06 -6.73846e-07 0.000207103
0.00209083 0.000485848 7.35844e-05
0.000485848 0.00237466 4.39028e-05
7.35844e-05 4.39028e-05 5.46194e-05
0.00688057 -0.00201918 -0.000177629
-0.00201918 0.00414252 -3.0161e-05
-0.000177629 -3.0161e-05 0.0018961
-4.91637e-05 0.00110726 -0.000163401
0.00110726 0.00275526 -2.42146e-05
-0.000163401 -2.42146e-05 0.000367853
0.0236985 0.00728062 -0.000348323
0.00728062 0.0106783 -0.000545335
-0.000348323 -0.000545335 0.00369373
0.0112423 0.00388839 0.00010805
0.00388839 0.00870163 0.000460797
0.00010805 0.000460797 0.000632379
0.00711759 0.00211765 9.62329e-05
0.00211765 0.00780107 -5.51694e-07
9.62329e-05 -5.51694e-07 2.10343e-05
-0.000131206 6.7095e-05 2.72968e-05
6.7095e-05 0.00163123 -1.2952e-05
2.72968e-05 -1.2952e-05 -2.59996e-05
0.00105523 8.45249e-05 -0.000298202
8.45249e-05 0.00622629 -7.09705e-06
-0.000298202 -7.09705e-06 0.00356734
0.000587894 -0.000991196 0.000864372
-0.000991196 0.000621511 -0.000284205
0.000864372 -0.000284205 -0.00545221
0.0357424 0.0143065 -9.60667e-05
0.0143065 0.0246281 -0.000139282
-9.60667e-05 -0.000139282 0.0134196
0.0163916 0.00577834 0.000547557
0.00577834 0.00785624 0.00123451
0.000547557 0.00123451 -0.00154561
0.0117042 -0.00590699 0.000623379
-0.00590699 0.00772568 -0.000384705
0.000623379 -0.000384705 -0.000496069
0.000578489 -0.000803393 -9.22355e-05
-0.000803393 0.00353777 5.59501e-05
-9.22355e-05 5.59501e-05 0.00192551
0.000620947 0.00032135 -9.02137e-06
0.00032135 0.000952182 1.91538e-06
-9.02137e-06 1.91538e-06 0.000325917
-0.000195281 -0.000106957 -1.06777e-06
-0.000106957 0.000670642 -7.14245e-06
-1.06777e-06 -7.14245e-06 -8.31735e-05
0.000612162 -0.00070475 6.22967e-05
-0.00070475 0.000818295 -2.24242e-05
6.22967e-05 -2.24242e-05 -1.27636e-05
0.000187397 -7.51609e-05 -2.49671e-06
-7.51609e-05 0.000303142 1.29417e-05
-2.49671e-06 1.29417e-05 1.45304e-05
-2.43206e-05 -9.44818e-05 5.55604e-06
-9.44818e-05 0.000480131 -1.96308e-05
5.55604e-06 -1.96308e-05 -3.27412e-05
0.00107533 -0.000413514 -4.35239e-06
-0.000413514 0.00094537 -3.98852e-07
-4.35239e-06 -3.98852e-07 0.00056471
0.00148955 -0.000936905 2.97665e-05
-0.000936905 0.000866118 -1.71347e-05
2.97665e-05 -1.71347e-05 0.000286556
0.000421773 -0.000404763 6.86282e-06
-0.000404763 0.000207835 -5.94402e-07
6.86282e-06 -5.94402e-07 -0.000132819
0.00119311 -0.000757703 1.98079e-05
-0.000757703 0.000546935 -6.60462e-06
1.98079e-05 -6.60462e-06 7.00138e-06
0.00108716 -0.000869893 8.77705e-06
-0.000869893 0.000485379 -5.0733e-06
8.77705e-06 -5.0733e-06 -0.00041959
0.000817376 -0.00051745 -6.8194e-06
-0.00051745 0.000244529 -2.83404e-06
-6.8194e-06 -2.83404e-06 -7.44806e-05
0.00263168 -0.00102059 -2.7138e-06
-0.00102059 0.00114603 -8.08241e-07
-2.7138e-06 -8.08241e-07 0.00043637
0.00160199 -0.00111441 -1.99639e-05
-0.00111441 0.0003798 -9.12474e-07
-1.99639e-05 -9.12474e-07 -0.000430782
0.00273995 -0.00135581 -1.58756e-05
-0.00135581 0.000820587 -3.87062e-07
-1.58756e-05 -3.87062e-07 8.28303e-05
0.00229931 -0.00121618 -5.53571e-06
-0.00121618 0.00076819 -1.26509e-06
-5.53571e-06 -1.26509e-06 5.39637e-05
0.00213698 -0.00108093 -5.52689e-06
-0.00108093 0.000743024 3.30341e-07
-5.52689e-06 3.30341e-07 5.50436e-05
0.00143298 -0.000768159 1.98622e-06
-0.000768159 0.00044799 -7.25391e-06
1.98622e-06 -7.25391e-06 -8.55698e-05
0.00188996 -0.000939869 1.0435e-05
-0.000939869 0.000685365 -9.94692e-06
1.0435e-05 -9.94692e-06 7.24327e-05
0.00180891 -0.000982084 1.01261e-05
-0.000982084 0.000544492 -2.4053e-06
1.01261e-05 -2.4053e-06 -7.74478e-05
0.00144845 -0.00044294 -8.18913e-07
-0.00044294 0.000485729 -1.94739e-06
-8.18913e-07 -1.94739e-06 0.000121095
0.00182592 -0.0007302 5.15889e-06
-0.0007302 0.000711823 -4.1767e-06
5.15889e-06 -4.1767e-06 0.000207951
9.87373e-05 -0.000670073 -1.17455e-05
-0.000670073 -0.00043335 -2.39984e-07
-1.17455e-05 -2.39984e-07 -0.000959541
-3.41942e-05 -2.56831e-05 -1.49717e-06
-2.56831e-05 -0.000248218 -5.14921e-06
-1.49717e-06 -5.14921e-06 -0.000565463
0.000784314 -0.000273246 5.74272e-07
-0.000273246 0.000140357 -3.03007e-07
5.74272e-07 -3.03007e-07 -0.000161015
0.000299563 -0.000405858 -9.88236e-06
-0.000405858 -0.000226208 -2.53003e-07
-9.88236e-06 -2.53003e-07 -0.000577183
-0.000134048 -0.000140388 -2.07176e-07
-0.000140388 -0.000303166 8.95033e-06
-2.07176e-07 8.95033e-06 -0.000558123
0.000879945 -0.000243639 1.09105e-07
-0.000243639 0.000414656 3.9361e-07
1.09105e-07 3.9361e-07 7.38219e-05
-0.00143033 -0.000288594 -1.68427e-06
-0.000288594 -0.0010037 2.89398e-06
-1.68427e-06 2.89398e-06 -0.00136711
0.00178509 -0.000328617 -2.34169e-06
-0.000328617 0.000962404 2.05038e-06
-2.34169e-06 2.05038e-06 0.000669569
0.000802239 -0.000141036 2.6731e-08
-0.000141036 0.000256891 2.80914e-07
2.6731e-08 2.80914e-07 7.40918e-05
0.000325605 -1.5119e-06 2.05341e-06
-1.5119e-06 -6.32971e-05 1.53916e-05
2.05341e-06 1.53916e-05 -0.000133066
0.00120316 -0.000131469 -8.57365e-07
-0.000131469 0.000515783 -9.21936e-06
-8.57365e-07 -9.21936e-06 0.000365412
0.000396367 -1.19142e-05 -5.69837e-06
-1.19142e-05 -2.5741e-05 -6.52306e-07
-5.69837e-06 -6.52306e-07 -8.08631e-05
0.00330211 0.000103102 -5.02143e-05
0.000103102 0.0018697 6.62301e-06
-5.02143e-05 6.62301e-06 0.00186921
0.000498542 -4.33558e-05 2.8677e-06
-4.33558e-05 2.83965e-05 -9.8e-06
2.8677e-06 -9.8e-06 -1.43873e-05
0.00198172 6.18889e-05 2.98131e-05
6.18889e-05 0.000996172 -5.88419e-07
2.98131e-05 -5.88419e-07 0.000994762
0.00286687 4.87285e-05 4.28846e-05
4.87285e-05 0.00157233 -6.22364e-06
4.28846e-05 -6.22364e-06 0.00158173
0.00100047 0.000164264 3.50542e-06
0.000164264 0.000426697 -9.78333e-06
3.50542e-06 -9.78333e-06 0.000230888
0.000511174 8.07992e-05 4.39509e-06
8.07992e-05 7.88798e-05 -4.68921e-06
4.39509e-06 -4.68921e-06 -4.21951e-05
0.000417086 8.03075e-05 -4.67565e-07
8.03075e-05 5.9409e-05 -5.06073e-07
-4.67565e-07 -5.06073e-07 -0.000124192
0.000426875 2.90133e-05 3.27725e-07
2.90133e-05 -1.44727e-05 -8.11948e-06
3.27725e-07 -8.11948e-06 -4.7798e-05
0.000232119 5.23683e-05 -2.56257e-06
5.23683e-05 -0.000103452 -2.6958e-06
-2.56257e-06 -2.6958e-06 -0.000210219
0.000584521 0.000101136 -2.39937e-06
0.000101136 0.000169853 -2.66742e-06
-2.39937e-06 -2.66742e-06 2.25058e-06
0.0023588 -3.16864e-05 -2.42783e-05
-3.16864e-05 0.0012421 -5.99938e-06
-2.42783e-05 -5.99938e-06 0.00125482
0.000390738 2.20502e-06 1.14479e-06
2.20502e-06 -4.37063e-05 -3.38043e-07
1.14479e-06 -3.38043e-07 -6.71698e-05
8.40643e-05 2.3676e-05 -2.08275e-06
2.3676e-05 -0.000203485 2.36707e-06
-2.08275e-06 2.36707e-06 -0.000297355
0.00218855 -1.45159e-05 -6.20229e-06
-1.45159e-05 0.00112941 1.26547e-07
-6.20229e-06 1.26547e-07 0.00114456
0.000408733 2.41381e-06 -4.86733e-06
2.41381e-06 -3.504e-05 5.3375e-06
-4.86733e-06 5.3375e-06 -5.21228e-05
0.00214849 1.86089e-06 1.60649e-05
1.86089e-06 0.00110376 5.57766e-06
1.60649e-05 5.57766e-06 0.00111947
0.00289197 -0.000296112 -0.000195195
-0.000296112 0.00202473 1.02532e-05
-0.000195195 1.02532e-05 -0.000415462
-0.00189814 3.07959e-05 0.000176238
3.07959e-05 0.00466538 -4.70574e-06
0.000176238 -4.70574e-06 0.00154932
-0.000460161 -0.00043575 0.00014135
-0.00043575 0.00151269 -0.000290881
0.00014135 -0.000290881 -0.00481517
-0.000570863 -4.21468e-05 4.31934e-06
-4.21468e-05 -0.000422411 -6.77059e-06
4.31934e-06 -6.77059e-06 -0.000788134
0.00447395 0.000481293 1.49342e-05
0.000481293 0.00266338 1.23902e-05
1.49342e-05 1.23902e-05 0.00238685
0.000358785 0.000158128 -6.71832e-06
0.000158128 2.65685e-05 -8.40698e-06
-6.71832e-06 -8.40698e-06 -0.000161998
-0.000275667 7.27786e-05 8.31183e-07
7.27786e-05 -0.000362382 -3.74553e-06
8.31183e-07 -3.74553e-06 -0.000591394
0.000185727 0.000111987 3.94247e-09
0.000111987 -0.000130194 -2.61921e-06
3.94247e-09 -2.61921e-06 -0.000272563
0.000738012 0.000151487 7.05716e-06
0.000151487 0.000274058 1.49534e-05
7.05716e-06 1.49534e-05 6.75971e-05
-0.00022436 8.23179e-05 1.73989e-05
8.23179e-05 -0.000327426 9.0468e-06
1.73989e-05 9.0468e-06 -0.000434843
0.00488035 0.00203403 0.000279924
0.00203403 0.000392786 0.000246024
0.000279924 0.000246024 -0.00226954
0.00784442 -0.00044878 -0.00013556
-0.00044878 0.000610777 4.05315e-05
-0.00013556 4.05315e-05 -0.00231328
0.00578517 -0.0010318 0.000502135
-0.0010318 0.00506631 -0.000133395
0.000502135 -0.000133395 0.00191688
0.010999 9.29813e-05 -3.55791e-05
9.29813e-05 -0.00412066 0.000211497
-3.55791e-05 0.000211497 -0.00313192
0.00687801 -0.00590547 -0.000172198
-0.00590547 0.000715002 3.85416e-05
-0.000172198 3.85416e-05 0.00151666
-0.000138346 -0.00668534 -0.000479636
-0.00668534 0.00219895 0.000186849
-0.000479636 0.000186849 -0.00486808
0.0252283 0.00468613 0.000312716
0.00468613 0.00998133 -0.000293985
0.000312716 -0.000293985 0.00295586
0.0028902 -0.00496569 -9.61117e-05
-0.00496569 0.000884596 5.79959e-05
-9.61117e-05 5.79959e-05 0.000920758
0.000194869 -0.00187453 -0.000113471
-0.00187453 0.00608351 7.12814e-05
-0.000113471 7.12814e-05 -0.00274322
0.0150722 0.000205953 0.000377825
0.000205953 0.00577908 -4.30838e-05
0.000377825 -4.30838e-05 0.000184955
0.0196812 -0.00199969 -7.88936e-05
-0.00199969 0.0032193 -4.58932e-07
-7.88936e-05 -4.58932e-07 0.00274997
-0.00577161 -0.000675947 -0.000236807
-0.000675947 -0.000652474 0.00024122
-0.000236807 0.00024122 -0.00147365
0.00111298 0.000928639 -0.000256292
0.000928639 0.0060606 -0.000211609
-0.000256292 -0.000211609 -0.00277421
0.00964066 -0.00646578 -5.19728e-05
-0.00646578 0.00327287 -0.000274079
-5.19728e-05 -0.000274079 -0.00491509
0.0208426 -0.00281196 0.000505414
-0.00281196 0.00957293 -0.000794965
0.000505414 -0.000794965 0.00473762
0.000264183 6.01509e-05 3.53773e-05
6.01509e-05 0.000455714 -8.19921e-06
3.53773e-05 -8.19921e-06 -6.31814e-06
0.000620557 0.000205909 -1.16046e-06
0.000205909 0.000308301 -3.25154e-06
-1.16046e-06 -3.25154e-06 0.000136015
0.000484842 -2.65372e-05 9.14453e-07
-2.65372e-05 0.000226845 -9.68987e-06
9.14453e-07 -9.68987e-06 -6.57102e-06
0.00094915 0.000194847 -5.83814e-06
0.000194847 0.000390662 -1.52127e-05
-5.83814e-06 -1.52127e-05 0.000200797
0.00101214 -0.00203857 8.10401e-05
-0.00203857 0.000910559 2.7106e-05
8.10401e-05 2.7106e-05 -0.000168013
0.000628497 -0.00052048 -4.40056e-06
-0.00052048 0.00115248 -1.06415e-05
-4.40056e-06 -1.06415e-05 0.000308322
0.000239722 8.90645e-05 -3.80773e-05
8.90645e-05 0.000205379 -8.24232e-06
-3.80773e-05 -8.24232e-06 -2.36911e-05
0.00129854 -0.000239 1.17368e-05
-0.000239 0.00102246 -4.48966e-05
1.17368e-05 -4.48966e-05 0.00061978
-4.73557e-05 -7.81422e-05 -1.62664e-05
-7.81422e-05 0.000568877 9.2199e-06
-1.62664e-05 9.2199e-06 -1.94469e-05
0.000138678 0.000142073 2.93052e-07
0.000142073 0.000326295 9.15408e-06
2.93052e-07 9.15408e-06 -5.73005e-05
0.00101524 -0.00014467 1.24335e-06
-0.00014467 0.00124439 3.91736e-07
1.24335e-06 3.91736e-07 0.000626231
0.000711853 -0.00128964 3.49308e-05
-0.00128964 0.00182644 -1.48249e-05
3.49308e-05 -1.48249e-05 4.30029e-05
0.000728179 -0.000181165 -3.59164e-06
-0.000181165 0.00160555 -1.85455e-05
-3.59164e-06 -1.85455e-05 0.000845001
0.000612028 0.000143384 9.29502e-06
0.000143384 0.000631441 -1.87619e-05
9.29502e-06 -1.87619e-05 0.000254539
-0.00145034 0.000146044 -0.000242384
0.000146044 0.00241783 -5.26484e-07
-0.000242384 -5.26484e-07 -5.9341e-05
0.000922028 0.000516067 1.71684e-05
0.000516067 0.00142524 -6.02334e-06
1.71684e-05 -6.02334e-06 0.000733588
-0.00382301 -0.000170511 -7.7258e-05
-0.000170511 0.00433036 -0.000111738
-7.7258e-05 -0.000111738 0.00150744
0.00250522 0.000209011 4.05243e-05
0.000209011 0.00133252 2.15215e-05
4.05243e-05 2.15215e-05 -0.00150865
-0.00445169 0.00158698 -0.000120236
0.00158698 0.00366698 -0.000106983
-0.000120236 -0.000106983 9.42047e-05
0.000299175 0.000564534 -1.50414e-05
0.000564534 0.000933875 2.13103e-06
-1.50414e-05 2.13103e-06 0.000261583
-0.00128253 0.00138264 0.000293504
0.00138264 0.00127857 0.000120202
0.000293504 0.000120202 -0.000117584
0.00110859 7.24328e-05 0.000105849
7.24328e-05 0.00265238 -1.17071e-05
0.000105849 -1.17071e-05 0.000552479
0.00656509 -0.00211742 0.000405342
-0.00211742 0.00677003 -0.000240784
0.000405342 -0.000240784 -0.00318119
0.0266444 0.00438978 -0.000396781
0.00438978 0.0103083 0.000281877
-0.000396781 0.000281877 0.00260049
0.00327329 -0.000995471 -0.000482556
-0.000995471 0.00345039 6.90877e-05
-0.000482556 6.90877e-05 0.000562939
0.0169219 0.00603544 -0.000403614
0.00603544 0.0122321 -0.000329176
-0.000403614 -0.000329176 0.00646784
0.000694379 0.000245274 -5.52327e-05
0.000245274 0.00185813 5.74304e-06
-5.52327e-05 5.74304e-06 0.000265607
-0.000697761 -0.000679421 -0.00016366
-0.000679421 0.0045731 3.69458e-06
-0.00016366 3.69458e-06 0.00218197
0.00206475 -0.00231458 0.00030595
-0.00231458 0.00236583 -6.70572e-05
0.00030595 -6.70572e-05 -0.00358147
-0.00404857 6.49956e-05 9.19631e-05
6.49956e-05 0.00070578 4.51834e-05
9.19631e-05 4.51834e-05 -0.00031596
0.0314371 0.0173766 0.000930493
0.0173766 0.021999 -0.000290776
0.000930493 -0.000290776 0.00989829
0.0138859 0.00363325 -0.000127921
0.00363325 0.00976305 0.000504026
-0.000127921 0.000504026 0.00102247
-0.00108631 -0.00201839 0.000330705
-0.00201839 0.00456166 -0.000221968
0.000330705 -0.000221968 -0.00468667
-0.00257952 -0.000810369 -4.78166e-05
-0.000810369 0.000476806 -4.74916e-05
-4.78166e-05 -4.74916e-05 -0.00124522
0.00174155 -0.00143634 0.000457297
-0.00143634 0.000201226 -0.000117185
0.000457297 -0.000117185 -0.00481971
0.00402437 0.00421402 -0.0025706
0.00421402 0.0130697 0.000284315
-0.0025706 0.000284315 0.00437784
0.0260327 0.00991727 -0.000582036
0.00991727 0.011474 0.000451064
-0.000582036 0.000451064 0.00204802
0.00658407 -0.00597499 -0.000330556
-0.00597499 0.00411814 0.000167356
-0.000330556 0.000167356 0.00021316
0.00370707 -0.00312088 9.90455e-05
-0.00312088 0.00473162 3.95267e-05
9.90455e-05 3.95267e-05 0.00277333
-4.74633e-05 -0.000116774 8.28592e-06
-0.000116774 0.000686193 -2.20355e-05
8.28592e-06 -2.20355e-05 -0.000133758
0.000228401 -0.000537245 -1.02174e-06
-0.000537245 0.000740937 -1.1335e-06
-1.02174e-06 -1.1335e-06 -0.000153623
0.000185959 -0.00130203 -4.14129e-06
-0.00130203 0.000370932 1.23954e-05
-4.14129e-06 1.23954e-05 -0.000438922
-0.000320694 -0.00024017 -3.98614e-07
-0.00024017 0.000269721 1.1228e-05
-3.98614e-07 1.1228e-05 -0.00012372
0.000134898 -0.000648512 -5.15099e-06
-0.000648512 0.00028779 3.75112e-06
-5.15099e-06 3.75112e-06 -0.000233696
0.0020573 -0.00110865 3.54833e-05
-0.00110865 0.000835614 -2.43671e-05
3.54833e-05 -2.43671e-05 0.00021258
0.00620903 -0.00151672 -9.69215e-06
-0.00151672 0.0032861 5.39366e-06
-9.69215e-06 5.39366e-06 0.00262682
0.00271972 -0.0011354 1.24417e-05
-0.0011354 0.0012963 -4.74915e-06
1.24417e-05 -4.74915e-06 0.000388191
0.00274049 -0.00144224 2.91041e-06
-0.00144224 0.000897602 -2.10125e-05
2.91041e-06 -2.10125e-05 -2.24417e-05
0.00284393 -0.00105193 -7.06099e-06
-0.00105193 0.00123357 -8.0458e-06
-7.06099e-06 -8.0458e-06 0.000536878
0.00228026 -0.00122488 6.78798e-07
-0.00122488 0.000739691 -2.56653e-06
6.78798e-07 -2.56653e-06 -9.9253e-05
0.00302815 -0.00145773 -9.00321e-06
-0.00145773 0.000978892 -1.03097e-05
-9.00321e-06 -1.03097e-05 0.000168852
0.0026008 -0.00103547 -2.57809e-06
-0.00103547 0.000493349 -6.63518e-06
-2.57809e-06 -6.63518e-06 -1.23312e-05
0.00316584 -0.00137374 -1.02428e-05
-0.00137374 0.00103024 -1.74863e-06
-1.02428e-05 -1.74863e-06 0.000322744
0.00300086 -0.00139121 -4.69041e-06
-0.00139121 0.000961282 -4.46041e-07
-4.69041e-06 -4.46041e-07 0.000212351
0.00242262 -0.00121611 8.86427e-06
-0.00121611 0.000860279 -8.06167e-06
8.86427e-06 -8.06167e-06 0.000162515
0.00195746 -0.00114216 3.59939e-06
-0.00114216 0.000578338 -1.16081e-06
3.59939e-06 -1.16081e-06 -0.000105195
0.00216158 -0.00107854 9.98558e-06
-0.00107854 0.000739074 -3.57757e-06
9.98558e-06 -3.57757e-06 5.32843e-05
0.00175333 -0.000803893 1.50217e-05
-0.000803893 0.000671074 -1.79322e-06
1.50217e-05 -1.79322e-06 9.80256e-05
0.00178351 -0.000928642 -1.57309e-06
-0.000928642 0.000624628 -1.59696e-06
-1.57309e-06 -1.59696e-06 1.46175e-05
0.00185814 -0.0010034 7.0523e-07
-0.0010034 0.000577616 6.82334e-06
7.0523e-07 6.82334e-06 -5.12493e-05
0.00199241 -0.000290127 2.66792e-06
-0.000290127 0.000991347 -4.29761e-06
2.66792e-06 -4.29761e-06 0.000654516
0.00091098 -0.000343082 -6.8371e-06
-0.000343082 0.000200849 3.73148e-06
-6.8371e-06 3.73148e-06 -0.00015572
0.0019939 -0.000732823 -9.86982e-06
-0.000732823 0.000798126 -5.02861e-06
-9.86982e-06 -5.02861e-06 0.000300647
0.000119758 -0.0001218 5.75745e-07
-0.0001218 -0.000193056 9.09896e-07
5.75745e-07 9.09896e-07 -0.000474404
0.000514144 -0.000142348 -1.09979e-06
-0.000142348 8.66649e-05 9.21885e-07
-1.09979e-06 9.21885e-07 -0.000230158
0.00048262 -0.000206016 4.86878e-06
-0.000206016 1.15676e-05 3.92015e-07
4.86878e-06 3.92015e-07 -0.000324841
0.000290191 -7.15892e-05 -1.46518e-05
-7.15892e-05 -0.000108144 2.04167e-05
-1.46518e-05 2.04167e-05 -0.000187278
0.000835725 -0.000148111 3.98758e-07
-0.000148111 0.000293019 8.17256e-07
3.98758e-07 8.17256e-07 5.28059e-05
0.00187175 -0.000377563 -1.31153e-06
-0.000377563 0.00103401 2.58736e-06
-1.31153e-06 2.58736e-06 0.000694331
0.00113705 -0.000154125 -2.35707e-07
-0.000154125 0.000464435 -9.19125e-06
-2.35707e-07 -9.19125e-06 0.000281828
0.000401432 -3.03435e-05 -2.27299e-07
-3.03435e-05 -2.62329e-05 -4.58078e-07
-2.27299e-07 -4.58078e-07 -9.17323e-05
0.00362645 0.000139361 -5.34351e-05
0.000139361 0.00209468 7.35298e-06
-5.34351e-05 7.35298e-06 0.00208468
0.000442211 -4.04377e-05 4.0725e-06
-4.04377e-05 -3.50862e-06 -1.25744e-05
4.0725e-06 -1.25744e-05 -5.47127e-05
0.00327001 0.000102974 8.33982e-06
0.000102974 0.00184858 9.38055e-07
8.33982e-06 9.38055e-07 0.00184803
0.00293175 7.06571e-05 4.79094e-05
7.06571e-05 0.00161715 -6.31913e-06
4.79094e-05 -6.31913e-06 0.00162396
0.00297756 9.44527e-05 1.29195e-05
9.44527e-05 0.00189787 -7.9885e-06
1.29195e-05 -7.9885e-06 0.00148256
0.00241483 0.000240806 1.12488e-05
0.000240806 0.00149653 -2.17297e-05
1.12488e-05 -2.17297e-05 0.00115584
0.000597444 8.10796e-05 5.91089e-06
8.10796e-05 0.000127514 -8.45116e-06
5.91089e-06 -8.45116e-06 -8.89857e-06
0.000763397 0.000173479 -9.00481e-08
0.000173479 0.000299668 1.56526e-06
-9.00481e-08 1.56526e-06 8.98825e-05
0.000440273 -1.88777e-05 6.1372e-06
-1.88777e-05 -3.12539e-06 -9.79148e-06
6.1372e-06 -9.79148e-06 -4.31289e-05
0.000576986 8.88832e-05 -3.582e-08
8.88832e-05 0.000125599 -3.75538e-07
-3.582e-08 -3.75538e-07 3.32718e-06
0.000686278 8.26952e-05 -6.98236e-06
8.26952e-05 0.000226121 -3.00201e-06
-6.98236e-06 -3.00201e-06 4.72901e-05
0.0026875 -5.05449e-05 -3.34576e-05
-5.05449e-05 0.00146104 -6.47743e-06
-3.34576e-05 -6.47743e-06 0.00147014
0.000426497 4.45196e-06 -2.26556e-06
4.45196e-06 -1.55814e-05 -2.99817e-07
-2.26556e-06 -2.99817e-07 -4.758e-05
0.000533223 8.22168e-05 -5.81308e-06
8.22168e-05 9.70683e-05 2.04311e-06
-5.81308e-06 2.04311e-06 -1.18445e-05
0.00238499 -3.27918e-05 -5.8093e-06
-3.27918e-05 0.00125934 3.37529e-07
-5.8093e-06 3.37529e-07 0.00127195
0.00041856 3.30886e-06 -4.26843e-06
3.30886e-06 -2.70815e-05 5.9196e-06
-4.26843e-06 5.9196e-06 -4.96447e-05
0.00219671 -1.45378e-05 1.89691e-05
-1.45378e-05 0.00113443 5.59006e-06
1.89691e-05 5.59006e-06 0.00114957
-0.00231182 0.00112464 -4.43416e-05
0.00112464 0.00293161 -0.000148209
-4.43416e-05 -0.000148209 -0.000232609
0.00447112 -0.000397271 -3.6613e-05
-0.000397271 0.00310816 -7.1268e-05
-3.6613e-05 -7.1268e-05 0.000889389
0.000307737 -0.000503528 7.04197e-05
-0.000503528 0.00461848 -7.71668e-05
7.04197e-05 -7.71668e-05 0.0019626
0.000554803 8.43911e-06 2.72952e-06
8.43911e-06 0.000392523 -8.08835e-06
2.72952e-06 -8.08835e-06 -6.1896e-05
3.2185e-05 0.000291096 1.259e-05
0.000291096 -0.000112862 -8.00208e-06
1.259e-05 -8.00208e-06 -0.000377745
-0.00260138 5.46956e-05 3.20047e-05
5.46956e-05 -0.00199221 -2.13094e-05
3.20047e-05 -2.13094e-05 -0.00216778
-0.00277044 -2.65392e-05 -3.94874e-06
-2.65392e-05 -0.00167275 2.34938e-05
-3.94874e-06 2.34938e-05 -0.002123
0.00188905 0.000438558 1.04244e-05
0.000438558 0.000982222 -5.03225e-06
1.04244e-05 -5.03225e-06 0.000677487
0.00057011 6.72037e-05 -8.74978e-06
6.72037e-05 0.000179917 6.62002e-07
-8.74978e-06 6.62002e-07 -6.70096e-05
6.95563e-05 0.000113439 -1.19176e-05
0.000113439 -0.000174647 -1.59908e-05
-1.19176e-05 -1.59908e-05 -0.000317805
0.00129297 -2.44726e-06 8.3628e-06
-2.44726e-06 0.000622361 2.41631e-06
8.3628e-06 2.41631e-06 0.000419996
0.000882566 0.000193078 -3.99117e-06
0.000193078 0.000394162 -7.44561e-06
-3.99117e-06 -7.44561e-06 0.00027932
0.00273668 0.000217194 -3.74365e-06
0.000217194 0.00179136 -1.34354e-05
-3.74365e-06 -1.34354e-05 0.00142722
0.00985007 0.00304777 0.000862061
0.00304777 0.00638998 0.000627745
0.000862061 0.000627745 0.00101026
0.00434745 0.00164243 2.64761e-05
0.00164243 0.00160934 7.86347e-05
2.64761e-05 7.86347e-05 -0.00137289
0.0078997 -0.000358321 0.000180761
-0.000358321 0.000310534 -8.37757e-07
0.000180761 -8.37757e-07 -0.00169055
0.015125 -0.000707353 -0.00029234
-0.000707353 0.00241899 -0.000133483
-0.00029234 -0.000133483 0.00373848
0.00420309 0.000779651 0.000158658
0.000779651 -0.000810923 0.0004813
0.000158658 0.0004813 -0.00710747
0.00315058 -0.00500618 -0.000109664
-0.00500618 0.00165775 2.28148e-05
-0.000109664 2.28148e-05 0.00130669
0.00405475 -0.00235524 -0.000412847
-0.00235524 0.00589222 0.000131893
-0.000412847 0.000131893 -0.000800685
-0.000846116 -0.00186112 -0.000110807
-0.00186112 0.00114149 0.000144455
-0.000110807 0.000144455 2.98388e-05
0.0121983 -0.000362252 -0.000371379
-0.000362252 0.00901219 -1.9952e-06
-0.000371379 -1.9952e-06 0.00100745
0.00978872 -0.00333898 0.000174832
-0.00333898 0.00620074 0.000280645
0.000174832 0.000280645 -0.00141887
0.0283552 -0.00617149 0.000214708
-0.00617149 0.0100601 -0.000994247
0.000214708 -0.000994247 0.00273322
-0.00092084 0.000471603 -0.000223384
0.000471603 0.00273046 0.00013097
-0.000223384 0.00013097 0.000540635
0.00503697 0.00224257 -0.000330878
0.00224257 0.00691103 -0.000119914
-0.000330878 -0.000119914 -0.000100204
0.0296703 -0.0106054 0.000670082
-0.0106054 0.0170562 -0.00112366
0.000670082 -0.00112366 0.00651244
0.0338975 -0.0160391 8.77554e-05
-0.0160391 0.0204434 -7.64052e-05
8.77554e-05 -7.64052e-05 0.00893684
0.000108347 0.000413934 3.80715e-05
0.000413934 0.000235613 2.04769e-05
3.80715e-05 2.04769e-05 -0.000283453
-0.000249745 7.4787e-05 1.32235e-05
7.4787e-05 0.000216827 2.66261e-06
1.32235e-05 2.66261e-06 -0.000307878
0.000886267 0.000187078 -2.90107e-05
0.000187078 0.000477754 -1.4971e-05
-2.90107e-05 -1.4971e-05 0.000298842
0.00300118 -0.0016992 9.6438e-05
-0.0016992 0.00275844 -3.46697e-07
9.6438e-05 -3.46697e-07 0.000570359
-0.00153035 -0.000187071 0.000121109
-0.000187071 0.000597059 1.55215e-05
0.000121109 1.55215e-05 -0.000300387
-0.000179732 0.000124496 -1.87834e-05
0.000124496 0.000104438 1.40098e-05
-1.87834e-05 1.40098e-05 -0.000266062
-0.000237633 -0.000278413 1.1263e-05
-0.000278413 0.000648918 -2.65933e-06
1.1263e-05 -2.65933e-06 -0.0001412
-0.000326514 0.00017132 -9.81453e-06
0.00017132 0.000110872 2.29479e-06
-9.81453e-06 2.29479e-06 -0.00027822
-0.000453709 0.000361619 2.94203e-05
0.000361619 0.000464638 8.07375e-06
2.94203e-05 8.07375e-06 -0.000264716
-0.00274973 0.000120536 0.000184638
0.000120536 0.00153587 -9.00692e-05
0.000184638 -9.00692e-05 -0.000762094
0.00193478 0.000990459 6.01875e-05
0.000990459 0.00105483 5.68319e-05
6.01875e-05 5.68319e-05 0.000506296
0.00154354 0.00123841 -0.000120215
0.00123841 0.00204182 -0.000136297
-0.000120215 -0.000136297 4.42915e-05
3.25832e-05 -0.000516497 0.00032858
-0.000516497 0.0017107 0.00012603
0.00032858 0.00012603 -0.00400189
-0.00335936 0.000682806 -0.000208513
0.000682806 0.00414393 -6.78139e-06
-0.000208513 -6.78139e-06 0.00057965
0.0051597 -0.000536222 -0.000140243
-0.000536222 0.00325628 5.67969e-06
-0.000140243 5.67969e-06 0.00192736
0.000530223 0.000706812 7.52733e-05
0.000706812 0.0014168 2.21162e-05
7.52733e-05 2.21162e-05 -0.000259753
0.000241621 0.000370767 -9.89657e-05
0.000370767 0.00325469 0.000115288
-9.89657e-05 0.000115288 0.0010595
-0.00136227 -0.000218595 -4.29074e-05
-0.000218595 0.00353939 -7.51625e-05
-4.29074e-05 -7.51625e-05 0.000692558
0.014329 -0.00635691 0.000432811
-0.00635691 0.00960621 -0.000274935
0.000432811 -0.000274935 0.00065471
0.0299269 0.00869314 -0.000765572
0.00869314 0.0167652 -0.000361856
-0.000765572 -0.000361856 0.00609901
0.0069481 -0.00302112 -0.000564072
-0.00302112 0.00392809 0.000360378
-0.000564072 0.000360378 -0.000998586
0.0243806 0.0208815 0.00304846
0.0208815 0.0178167 -0.0018505
0.00304846 -0.0018505 0.0052101
-5.72149e-06 -0.000863445 4.20387e-05
-0.000863445 0.00164306 -1.01167e-05
4.20387e-05 -1.01167e-05 -0.000122891
0.000177311 -0.000957736 9.90202e-05
-0.000957736 0.00121596 6.06149e-06
9.90202e-05 6.06149e-06 -0.00446825
0.00754236 0.00487695 -0.00168377
0.00487695 0.0123596 0.000189292
-0.00168377 0.000189292 0.00319117
0.000229815 -0.00180419 5.54814e-05
-0.00180419 0.00225681 3.08961e-05
5.54814e-05 3.08961e-05 0.000794026
0.0287935 0.00981533 0.000540458
0.00981533 0.0126223 0.000238136
0.000540458 0.000238136 0.00318961
0.00546582 -0.00868711 0.000436967
-0.00868711 0.00299095 -0.000122118
0.000436967 -0.000122118 -0.00198908
-0.000555496 -0.00226196 2.09135e-05
-0.00226196 0.000551045 5.15341e-05
2.09135e-05 5.15341e-05 -0.00106274
-0.000832731 -0.00156026 0.000212464
-0.00156026 0.0101741 -0.00013325
0.000212464 -0.00013325 0.00418301
0.0223802 0.0106571 -0.00243047
0.0106571 0.0100502 0.000319544
-0.00243047 0.000319544 0.00220254
0.00433961 -0.00755232 -0.000879975
-0.00755232 -0.00293754 0.000272899
-0.000879975 0.000272899 -0.00408389
-0.000771098 -0.00314985 0.000213447
-0.00314985 -0.000141205 -0.000176377
0.000213447 -0.000176377 0.000690565
0.00165946 -0.000716117 -0.000128782
-0.000716117 0.00137346 4.92143e-05
-0.000128782 4.92143e-05 0.000509543
0.000122742 -0.00106291 -1.42938e-05
-0.00106291 0.000422083 1.23124e-05
-1.42938e-05 1.23124e-05 -0.000376645
0.000169745 -0.00111098 7.83678e-06
-0.00111098 -9.29041e-05 -2.43422e-05
7.83678e-06 -2.43422e-05 -0.000723238
-0.00127132 -0.000350326 1.26997e-05
-0.000350326 -0.000304646 4.67391e-06
1.26997e-05 4.67391e-06 -0.00077598
0.000695922 -0.00092984 6.05272e-06
-0.00092984 0.000135459 -2.1572e-06
6.05272e-06 -2.1572e-06 -0.000437101
0.00328594 -0.00156037 5.30858e-06
-0.00156037 0.000935412 -1.19903e-05
5.30858e-06 -1.19903e-05 0.000340507
0.00472239 -0.00145945 -3.27027e-05
-0.00145945 0.00231074 8.74815e-06
-3.27027e-05 8.74815e-06 0.00139063
0.00222128 -0.00132967 -4.53966e-06
-0.00132967 0.000600352 -1.24069e-06
-4.53966e-06 -1.24069e-06 -0.000276078
0.00317273 -0.0015869 4.05721e-06
-0.0015869 0.000809717 -8.90708e-06
4.05721e-06 -8.90708e-06 8.31448e-05
0.00328125 -0.00137885 9.79025e-06
-0.00137885 0.00128144 4.06742e-06
9.79025e-06 4.06742e-06 0.000411393
0.00280387 -0.00141233 3.8607e-06
-0.00141233 0.000850875 -3.61583e-06
3.8607e-06 -3.61583e-06 6.50143e-05
0.00283856 -0.00111333 -2.50314e-06
-0.00111333 0.000585038 -6.74638e-06
-2.50314e-06 -6.74638e-06 7.6245e-05
0.00211735 -0.000669402 -8.99346e-07
-0.000669402 4.15296e-05 -2.45406e-06
-8.99346e-07 -2.45406e-06 -0.00021875
0.00217887 -0.000994785 6.41057e-07
-0.000994785 0.000177378 -3.90239e-06
6.41057e-07 -3.90239e-06 -0.000316631
0.0025712 -0.00104393 4.05845e-06
-0.00104393 0.000457912 -2.02511e-06
4.05845e-06 -2.02511e-06 -4.97472e-05
0.00303484 -0.00123272 -2.2233e-06
-0.00123272 0.00100743 -3.67048e-06
-2.2233e-06 -3.67048e-06 0.000366126
0.00313389 -0.00137069 -4.52916e-06
-0.00137069 0.0010162 -4.43542e-07
-4.52916e-06 -4.43542e-07 0.000303311
0.00286709 -0.00137325 1.15518e-05
-0.00137325 0.000879091 -3.50332e-06
1.15518e-05 -3.50332e-06 0.00013048
0.00230719 -0.00109234 7.04316e-06
-0.00109234 0.000834716 -9.79719e-06
7.04316e-06 -9.79719e-06 0.000163574
0.00212379 -0.00117161 1.61233e-06
-0.00117161 0.000696816 -8.82991e-07
1.61233e-06 -8.82991e-07 1.12301e-05
0.00163695 -0.00107669 4.59831e-06
-0.00107669 0.000400249 2.30506e-06
4.59831e-06 2.30506e-06 -0.000255441
0.00303682 -0.000603129 7.92973e-06
-0.000603129 0.00156529 8.40557e-06
7.92973e-06 8.40557e-06 0.00114342
0.00124794 -0.000732643 5.51781e-07
-0.000732643 0.000388709 2.78309e-06
5.51781e-07 2.78309e-06 -0.000160654
0.00202474 -0.000952421 -8.60351e-06
-0.000952421 0.000780812 9.71957e-06
-8.60351e-06 9.71957e-06 0.000167332
0.000630673 -0.00025798 -2.01549e-06
-0.00025798 7.19112e-05 -6.7246e-06
-2.01549e-06 -6.7246e-06 -0.00017704
0.000553333 -0.000247863 -1.42406e-06
-0.000247863 6.78688e-05 -5.67962e-06
-1.42406e-06 -5.67962e-06 -0.000261039
0.00119511 -0.000229387 -2.2314e-06
-0.000229387 0.000408724 1.85546e-07
-2.2314e-06 1.85546e-07 6.85116e-05
0.00239284 -7.11e-05 -8.26555e-05
-7.11e-05 0.00124733 1.33199e-05
-8.26555e-05 1.33199e-05 0.00116665
0.000402769 -0.000181117 1.4943e-06
-0.000181117 -2.20699e-05 1.68178e-06
1.4943e-06 1.68178e-06 -0.000292832
0.00112209 -0.00026321 -7.03366e-07
-0.00026321 0.000466827 4.34522e-06
-7.03366e-07 4.34522e-06 0.000143051
0.00101724 8.70853e-06 -8.71955e-05
8.70853e-06 0.000378222 9.57481e-06
-8.71955e-05 9.57481e-06 0.000360024
0.00124582 -5.67255e-05 -2.62276e-05
-5.67255e-05 0.000520364 -8.02988e-07
-2.62276e-05 -8.02988e-07 0.000438101
0.00150979 -0.000174616 1.01722e-06
-0.000174616 0.000705247 -7.6631e-06
1.01722e-06 -7.6631e-06 0.00047651
0.00059027 -5.03224e-05 9.27893e-06
-5.03224e-05 8.80469e-05 -1.47311e-05
9.27893e-06 -1.47311e-05 2.23895e-05
0.00379746 0.000134082 1.34475e-05
0.000134082 0.00220573 1.0955e-06
1.34475e-05 1.0955e-06 0.00219757
0.00345137 0.00010036 6.10396e-05
0.00010036 0.0019668 -6.92779e-06
6.10396e-05 -6.92779e-06 0.00196689
-0.000810652 0.000119604 1.09715e-06
0.000119604 -0.000741388 1.37757e-05
1.09715e-06 1.37757e-05 -0.00103415
0.00245655 0.000279427 6.80931e-06
0.000279427 0.00153772 -1.98086e-05
6.80931e-06 -1.98086e-05 0.00113269
-0.00077361 7.04035e-05 5.34164e-06
7.04035e-05 -0.000499474 -1.41069e-06
5.34164e-06 -1.41069e-06 -0.000898065
0.000790544 0.000112645 6.39305e-07
0.000112645 0.000260598 -1.21253e-05
6.39305e-07 -1.21253e-05 9.21993e-05
0.000553984 0.000164511 4.53085e-06
0.000164511 0.000229914 -8.9756e-07
4.53085e-06 -8.9756e-07 -6.0975e-05
0.000350685 1.62222e-05 -1.88627e-06
1.62222e-05 -4.81718e-05 -1.34283e-05
-1.88627e-06 -1.34283e-05 -9.92229e-05
0.00052448 8.76755e-05 -1.94554e-07
8.76755e-05 9.00735e-05 1.01579e-08
-1.94554e-07 1.01579e-08 -5.09702e-05
0.000770122 0.000100864 -5.74994e-06
0.000100864 0.000328223 7.40576e-06
-5.74994e-06 7.40576e-06 0.000106244
0.00294341 -7.00551e-05 -4.43286e-05
-7.00551e-05 0.00163411 -6.66076e-06
-4.43286e-05 -6.66076e-06 0.00164
0.000368218 1.16779e-05 -7.40961e-07
1.16779e-05 -4.64216e-05 1.40768e-08
-7.40961e-07 1.40768e-08 -8.72672e-05
0.000396347 8.57045e-05 -3.40769e-06
8.57045e-05 8.84743e-06 5.26099e-06
-3.40769e-06 5.26099e-06 -0.000111931
0.00258212 -5.25718e-05 -8.17711e-06
-5.25718e-05 0.00139208 5.37222e-07
-8.17711e-06 5.37222e-07 0.00140105
0.000315021 -1.89872e-05 -8.28769e-06
-1.89872e-05 -8.82073e-05 7.41833e-06
-8.28769e-06 7.41833e-06 -0.000119064
0.00229722 -3.09957e-05 2.37848e-05
-3.09957e-05 0.00120161 5.7635e-06
2.37848e-05 5.7635e-06 0.00121499
0.00686166 0.00162488 0.000651914
0.00162488 0.00559196 0.000160857
0.000651914 0.000160857 0.00163415
-0.00216261 0.0010212 -2.43907e-05
0.0010212 0.00251233 -1.42067e-05
-2.43907e-05 -1.42067e-05 -0.000949263
0.000551804 0.00126079 -5.53747e-06
0.00126079 0.0032102 -2.39534e-05
-5.53747e-06 -2.39534e-05 0.000271955
6.26436e-05 0.000384938 -1.47583e-05
0.000384938 -0.000236174 1.2792e-05
-1.47583e-05 1.2792e-05 -0.000579498
-0.000691935 4.17065e-05 -1.55027e-05
4.17065e-05 -0.000493717 3.01706e-05
-1.55027e-05 3.01706e-05 -0.000886656
0.000169128 0.000147018 -2.20976e-05
0.000147018 -4.95987e-05 -1.1118e-05
-2.20976e-05 -1.1118e-05 -0.000245578
0.00177651 0.000161041 1.06637e-05
0.000161041 0.0010386 1.627e-07
1.06637e-05 1.627e-07 0.000730059
0.000988358 0.000315785 -3.39401e-07
0.000315785 0.00025382 -1.20294e-05
-3.39401e-07 -1.20294e-05 4.98744e-05
0.00224778 0.000503392 -2.13393e-05
0.000503392 0.00121523 -8.73958e-06
-2.13393e-05 -8.73958e-06 0.00099904
0.00146008 0.000441922 1.83162e-05
0.000441922 0.000618527 -2.73799e-05
1.83162e-05 -2.73799e-05 0.000238571
-0.00238541 0.000160777 -1.65342e-05
0.000160777 -0.00120826 1.83578e-06
-1.65342e-05 1.83578e-06 -0.00164037
-0.000830647 -2.73586e-06 -4.5456e-06
-2.73586e-06 -0.000670405 -1.92548e-05
-4.5456e-06 -1.92548e-05 -0.000893299
-0.000478438 6.00262e-05 -1.26267e-05
6.00262e-05 -0.00055591 -1.52288e-05
-1.26267e-05 -1.52288e-05 -0.000604882
-0.000897622 5.73182e-05 -8.0516e-06
5.73182e-05 -0.000440159 2.41032e-06
-8.0516e-06 2.41032e-06 -0.000814508
0.000146926 0.000386447 -1.83611e-06
0.000386447 0.000333501 1.67596e-05
-1.83611e-06 1.67596e-05 -0.000302931
0.0110183 -0.00879129 -0.000171123
-0.00879129 0.0122727 0.000199916
-0.000171123 0.000199916 0.000877061
0.0100087 0.00359932 0.000299024
0.00359932 0.00461286 0.000208511
0.000299024 0.000208511 -0.0016181
0.00474766 0.000950181 8.39712e-05
0.000950181 0.00251104 -6.92104e-05
8.39712e-05 -6.92104e-05 -0.00083686
0.0405313 -0.00991713 -0.00146502
-0.00991713 0.0143009 -0.000499874
-0.00146502 -0.000499874 0.00562437
0.00629401 -0.00133492 0.000348895
-0.00133492 0.0055273 0.000639471
0.000348895 0.000639471 -4.38705e-05
0.00130099 -0.000895152 -0.0002279
-0.000895152 0.00594093 0.000187914
-0.0002279 0.000187914 -0.0029699
7.00633e-05 -0.00241269 1.83093e-05
-0.00241269 0.00223964 9.1119e-05
1.83093e-05 9.1119e-05 0.000270956
-0.00113543 -0.000179466 0.000205206
-0.000179466 0.00220406 4.09175e-05
0.000205206 4.09175e-05 0.000653442
0.0312287 -0.0183972 0.000504636
-0.0183972 0.0196112 0.000561419
0.000504636 0.000561419 0.00731906
0.00400371 0.00269438 -0.000233614
0.00269438 0.0062003 -0.000143966
-0.000233614 -0.000143966 -0.00180157
0.0133324 -0.00577794 -0.000162648
-0.00577794 0.0108963 0.000193378
-0.000162648 0.000193378 0.000413873
-0.000500462 0.00121927 8.32044e-06
0.00121927 0.00176245 4.25323e-06
8.32044e-06 4.25323e-06 0.00052119
0.00606463 0.0065662 -0.000253206
0.0065662 0.00305937 4.15087e-06
-0.000253206 4.15087e-06 -0.00128285
0.0270525 -0.00933402 -0.00122007
-0.00933402 0.0119162 -0.000327968
-0.00122007 -0.000327968 0.00202999
0.00154821 0.000940461 2.08692e-05
0.000940461 0.000602386 2.80389e-05
2.08692e-05 2.80389e-05 0.000332547
0.000786838 0.000431982 6.64602e-06
0.000431982 0.000671096 3.62931e-06
6.64602e-06 3.62931e-06 0.000106014
-0.000480154 5.02978e-05 -4.49645e-05
5.02978e-05 8.46643e-05 3.85376e-06
-4.49645e-05 3.85376e-06 -0.000452256
-0.002047 -0.000283567 -0.00013815
-0.000283567 0.0017903 -2.78759e-05
-0.00013815 -2.78759e-05 -0.000348862
0.00164629 0.000477413 -4.84663e-05
0.000477413 0.00111119 -4.90987e-06
-4.84663e-05 -4.90987e-06 0.000562312
-0.00010299 0.000250476 -8.61e-06
0.000250476 0.000241319 8.67967e-06
-8.61e-06 8.67967e-06 -0.000199804
0.00151422 0.000924428 6.26223e-06
0.000924428 0.000804813 -4.05133e-07
6.26223e-06 -4.05133e-07 0.000271009
-4.46987e-05 0.00105204 -1.15378e-05
0.00105204 0.0012976 -5.52373e-05
-1.15378e-05 -5.52373e-05 -0.000440221
0.00270081 0.00269908 0.000122303
0.00269908 0.00118974 3.45563e-05
0.000122303 3.45563e-05 -0.000324886
-0.0068795 0.00118037 0.000622227
0.00118037 0.0066041 -4.80133e-05
0.000622227 -4.80133e-05 -0.00293626
0.00182008 -0.000848137 -3.83054e-05
-0.000848137 0.00267323 0.000102187
-3.83054e-05 0.000102187 -0.00127672
-0.00301394 0.000143217 -5.01649e-05
0.000143217 0.00327394 0.000117637
-5.01649e-05 0.000117637 -0.000105848
-0.00152014 -0.00050951 -5.90655e-05
-0.00050951 0.000853237 1.03683e-05
-5.90655e-05 1.03683e-05 -0.000936428
-0.00173027 -0.00120257 -5.27549e-05
-0.00120257 0.000652516 3.42734e-05
-5.27549e-05 3.42734e-05 0.0002875
-0.0019941 -0.00137413 -0.000298944
-0.00137413 0.00152811 0.000205471
-0.000298944 0.000205471 -0.00454911
-0.00175312 -0.00660712 0.000356928
-0.00660712 0.00284935 -0.000212643
0.000356928 -0.000212643 -0.00483706
0.0204256 0.00789702 0.0010095
0.00789702 0.00708214 -0.000374672
0.0010095 -0.000374672 -0.00180084
0.0220969 0.00985417 -0.00040569
0.00985417 0.0145257 0.000598508
-0.00040569 0.000598508 0.00335085
0.000602883 -0.00169609 -4.78232e-05
-0.00169609 0.00176559 1.28901e-05
-4.78232e-05 1.28901e-05 0.000232074
0.00592324 0.00255386 0.00039011
0.00255386 0.0125883 -7.50827e-05
0.00039011 -7.50827e-05 0.00447646
0.00814472 0.00728065 4.08145e-05
0.00728065 0.00358602 0.000115084
4.08145e-05 0.000115084 -0.00272266
0.00239323 -0.00509949 7.69971e-05
-0.00509949 0.00100281 -6.13783e-05
7.69971e-05 -6.13783e-05 0.000874879
0.0124326 -0.00814351 4.30646e-07
-0.00814351 -0.000469477 1.85757e-05
4.30646e-07 1.85757e-05 -0.00155401
0.00322497 -0.00288618 2.63988e-05
-0.00288618 0.00151635 1.88354e-05
2.63988e-05 1.88354e-05 0.000714643
-0.00415803 0.00343276 -0.00139527
0.00343276 0.000484343 0.000173628
-0.00139527 0.000173628 -0.0060684
0.0158136 -0.00525329 -0.000385254
-0.00525329 -0.00129395 7.89226e-05
-0.000385254 7.89226e-05 -0.00101622
0.00471194 -0.00494904 0.000123867
-0.00494904 -0.000365871 -9.99234e-05
0.000123867 -9.99234e-05 0.00117658
0.000507832 -0.000870896 -8.88818e-07
-0.000870896 0.000755818 -4.45099e-06
-8.88818e-07 -4.45099e-06 -6.26909e-05
0.00222937 -0.00160667 3.50499e-05
-0.00160667 0.000816649 -1.3927e-05
3.50499e-05 -1.3927e-05 0.000191587
0.00177235 -0.00131347 4.54641e-06
-0.00131347 0.00014225 -1.27803e-05
4.54641e-06 -1.27803e-05 -0.000343486
-0.000243935 -0.000822053 -4.09654e-06
-0.000822053 -0.000352593 1.44099e-05
-4.09654e-06 1.44099e-05 -0.000890045
0.00227209 -0.00145381 -7.59263e-06
-0.00145381 0.000410649 3.00225e-08
-7.59263e-06 3.00225e-08 -0.000181983
0.0035909 -0.00158779 2.14997e-06
-0.00158779 0.000865082 -3.6422e-06
2.14997e-06 -3.6422e-06 0.000304638
0.00150994 -0.00119072 -7.7034e-06
-0.00119072 0.000193401 1.03813e-05
-7.7034e-06 1.03813e-05 -0.00064077
0.00281873 -0.00153105 -4.6612e-07
-0.00153105 0.000624916 4.00263e-06
-4.6612e-07 4.00263e-06 -9.45459e-05
0.00288855 -0.0011841 -5.69912e-08
-0.0011841 0.000403667 -2.73241e-06
-5.69912e-08 -2.73241e-06 -7.26443e-07
0.0023833 -0.00134284 1.07321e-05
-0.00134284 0.000611042 4.35109e-06
1.07321e-05 4.35109e-06 -0.000146947
0.0024925 -0.00105849 -2.35535e-06
-0.00105849 0.000388915 2.40763e-06
-2.35535e-06 2.40763e-06 -0.000101173
0.00237453 -0.000746354 1.16032e-06
-0.000746354 8.17509e-05 -1.00096e-06
1.16032e-06 -1.00096e-06 -0.000133046
0.00239814 -0.000695708 -2.26957e-06
-0.000695708 0.000210148 3.07249e-07
-2.26957e-06 3.07249e-07 2.02366e-05
0.00197665 -0.000669268 -3.75531e-06
-0.000669268 -1.40703e-05 -1.79829e-06
-3.75531e-06 -1.79829e-06 -0.000294814
0.00212314 -0.000665099 1.18955e-06
-0.000665099 3.44532e-05 2.94603e-06
1.18955e-06 2.94603e-06 -0.000221915
0.00203062 -0.000861713 -3.73578e-06
-0.000861713 0.00015219 -5.50182e-06
-3.73578e-06 -5.50182e-06 -0.00028363
0.00232702 -0.000999174 3.67332e-06
-0.000999174 0.000296698 6.20218e-07
3.67332e-06 6.20218e-07 -0.000192918
0.00251287 -0.00104165 3.55647e-06
-0.00104165 0.000415509 4.59705e-06
3.55647e-06 4.59705e-06 -9.03123e-05
0.00234065 -0.00107248 -1.72345e-06
-0.00107248 0.00060908 -7.15469e-06
-1.72345e-06 -7.15469e-06 8.06584e-07
0.00273988 -0.00120459 1.71413e-06
-0.00120459 0.00081995 -1.09144e-06
1.71413e-06 -1.09144e-06 0.000181213
0.00312729 -0.00136744 3.21024e-06
-0.00136744 0.00102086 -4.00986e-07
3.21024e-06 -4.00986e-07 0.000302892
0.00179531 -0.000764533 -5.03435e-06
-0.000764533 0.000545236 -2.12925e-06
-5.03435e-06 -2.12925e-06 1.77329e-05
0.00230056 -0.00107842 1.90366e-06
-0.00107842 0.000836301 5.22416e-07
1.90366e-06 5.22416e-07 0.000172387
0.00169882 -0.0011104 2.63907e-07
-0.0011104 0.000459681 4.87431e-06
2.63907e-07 4.87431e-06 -0.000209884
0.000485789 -0.00030325 -8.45496e-06
-0.00030325 -8.05902e-05 -1.49052e-06
-8.45496e-06 -1.49052e-06 -0.000322696
0.00134469 -0.000601727 3.91557e-06
-0.000601727 0.000478725 8.19851e-07
3.91557e-06 8.19851e-07 6.12425e-05
0.000271086 -0.000623139 -8.59663e-06
-0.000623139 -0.000181433 9.47919e-06
-8.59663e-06 9.47919e-06 -0.000705049
0.000437407 -0.000142146 -2.41146e-05
-0.000142146 -5.78013e-05 1.43052e-05
-2.41146e-05 1.43052e-05 -0.000171753
0.000758933 -0.000322625 4.61498e-07
-0.000322625 0.000198221 -1.45497e-07
4.61498e-07 -1.45497e-07 -8.82761e-05
-0.00110014 -0.000225306 -4.61792e-06
-0.000225306 -0.00100573 -1.77647e-06
-4.61792e-06 -1.77647e-06 -0.00131427
0.00542039 0.00036903 3.63256e-05
0.00036903 0.00335945 1.30407e-05
3.63256e-05 1.30407e-05 0.00327641
0.000427461 -0.000121555 2.75973e-06
-0.000121555 -4.54936e-05 7.8568e-07
2.75973e-06 7.8568e-07 -0.000151855
0.00121148 -0.00020288 4.80528e-07
-0.00020288 0.000479719 7.53249e-07
4.80528e-07 7.53249e-07 0.000219645
0.00419101 0.000153316 1.4434e-05
0.000153316 0.00247419 8.17752e-07
1.4434e-05 8.17752e-07 0.00246056
0.000611557 -7.85867e-05 1.11436e-05
-7.85867e-05 0.000103198 -1.64969e-05
1.11436e-05 -1.64969e-05 7.42808e-06
0.00379647 0.000116371 8.07152e-05
0.000116371 0.00220009 -8.65597e-06
8.07152e-05 -8.65597e-06 0.00219627
0.00239758 0.000473108 -8.23322e-08
0.000473108 0.00113587 8.87062e-06
-8.23322e-08 8.87062e-06 0.000825176
-6.81749e-05 0.000204286 2.90236e-06
0.000204286 -0.000287189 2.53022e-06
2.90236e-06 2.53022e-06 -0.000592966
0.00139686 0.000691971 -7.33769e-06
0.000691971 0.000768854 -3.49534e-06
-7.33769e-06 -3.49534e-06 0.000375676
0.00143268 0.000247071 -2.23177e-06
0.000247071 0.000662093 -1.34241e-05
-2.23177e-06 -1.34241e-05 0.000459252
0.00109699 0.000180153 -1.09626e-07
0.000180153 0.000686466 4.78254e-07
-1.09626e-07 4.78254e-07 0.000261246
-0.000754591 8.82681e-05 -2.57738e-06
8.82681e-05 -0.000448503 6.56152e-06
-2.57738e-06 6.56152e-06 -0.000875254
0.000575483 1.2764e-05 -4.44275e-06
1.2764e-05 0.000106318 -1.56934e-05
-4.44275e-06 -1.56934e-05 4.24922e-05
0.000581186 9.34139e-05 7.17491e-07
9.34139e-05 0.000124964 6.24424e-07
7.17491e-07 6.24424e-07 -3.74567e-05
-0.00056432 6.27968e-05 -6.74747e-06
6.27968e-05 -0.000529815 2.26649e-05
-6.74747e-06 2.26649e-05 -0.000797883
0.00326542 -8.951e-05 -5.88915e-05
-8.951e-05 0.00185266 -7.53376e-06
-5.88915e-05 -7.53376e-06 0.00185525
0.000402917 -3.07407e-05 1.73787e-06
-3.07407e-05 -1.15091e-05 -4.60584e-07
1.73787e-06 -4.60584e-07 -6.33146e-05
0.000571458 6.77437e-05 -4.88765e-06
6.77437e-05 0.000131896 8.77808e-06
-4.88765e-06 8.77808e-06 -1.31056e-05
0.00292324 -7.42015e-05 -9.80231e-06
-7.42015e-05 0.00162189 7.70022e-07
-9.80231e-06 7.70022e-07 0.00162643
0.000398729 2.52007e-05 -9.04432e-07
2.52007e-05 -2.76833e-05 9.35089e-06
-9.04432e-07 9.35089e-06 -6.73144e-05
0.00254931 -5.32725e-05 2.47889e-05
-5.32725e-05 0.00137056 6.09472e-06
2.47889e-05 6.09472e-06 0.00137957
-0.00490864 0.000140358 -0.000487641
0.000140358 0.00634598 7.83965e-05
-0.000487641 7.83965e-05 -0.00273056
0.00668895 0.00140178 8.11295e-05
0.00140178 0.00468652 3.24941e-06
8.11295e-05 3.24941e-06 0.000943041
-0.00112433 0.00107743 0.000228112
0.00107743 0.00251297 0.000105403
0.000228112 0.000105403 -0.00109463
0.000189201 0.000328558 -1.31949e-05
0.000328558 -0.000117837 1.26296e-05
-1.31949e-05 1.26296e-05 -0.000522124
0.0051861 0.00128689 2.82893e-05
0.00128689 0.00292263 3.45658e-05
2.82893e-05 3.45658e-05 0.00227559
0.000393904 0.000308664 -1.51995e-05
0.000308664 0.000383147 9.97326e-06
-1.51995e-05 9.97326e-06 -0.000243332
0.00110754 0.000239122 -1.59246e-05
0.000239122 0.000652935 -1.17128e-05
-1.59246e-05 -1.17128e-05 0.000326482
0.00405993 0.000599613 -6.31745e-06
0.000599613 0.00215676 -9.24929e-06
-6.31745e-06 -9.24929e-06 0.00190596
-0.00215794 5.69045e-05 -1.12999e-05
5.69045e-05 -0.00152932 1.95814e-05
-1.12999e-05 1.95814e-05 -0.00160967
-0.000340361 0.000347986 2.46935e-07
0.000347986 -0.000110823 9.61867e-06
2.46935e-07 9.61867e-06 -0.000489386
0.000243373 0.000234988 -1.38653e-05
0.000234988 1.01939e-05 -6.54891e-06
-1.38653e-05 -6.54891e-06 -0.000385629
0.000833338 0.000949777 -1.57065e-05
0.000949777 0.000457964 -1.41575e-05
-1.57065e-05 -1.41575e-05 -0.00018865
-0.00138971 0.000698546 -4.13304e-05
0.000698546 -0.00113083 7.18034e-05
-4.13304e-05 7.18034e-05 -0.00138346
0.000325124 3.66085e-05 -1.69455e-05
3.66085e-05 0.000227681 7.75333e-06
-1.69455e-05 7.75333e-06 -9.01118e-05
0.0022896 0.000649879 2.24017e-05
0.000649879 0.0015133 -4.60033e-06
2.24017e-05 -4.60033e-06 0.000944091
0.00661472 -0.00543623 -0.00325378
-0.00543623 0.00431984 -8.06886e-05
-0.00325378 -8.06886e-05 -0.00341814
0.0047335 -0.00692236 0.00104784
-0.00692236 0.0129915 7.62682e-05
0.00104784 7.62682e-05 0.00264255
0.0104715 0.00427771 -0.00119757
0.00427771 0.00399868 -0.000360875
-0.00119757 -0.000360875 -0.00295593
0.0253506 -0.0206211 0.00311221
-0.0206211 0.0185879 0.00179617
0.00311221 0.00179617 0.00567508
0.0322719 -0.00546323 -0.000188074
-0.00546323 0.0141788 0.000574609
-0.000188074 0.000574609 0.0055981
-0.00203002 0.00178137 -0.000160499
0.00178137 0.00417735 -0.000234889
-0.000160499 -0.000234889 -0.00286208
-0.000872279 7.15554e-05 -0.00018573
7.15554e-05 0.00329111 1.19168e-05
-0.00018573 1.19168e-05 0.000974821
0.000473658 0.00135839 7.99611e-05
0.00135839 0.00253553 6.07844e-05
7.99611e-05 6.07844e-05 0.00136023
0.0285945 -0.00822727 -0.000978309
-0.00822727 0.0133913 0.00016059
-0.000978309 0.00016059 0.00382601
-0.00126011 0.00633821 -0.000334562
0.00633821 0.00112089 -4.37534e-05
-0.000334562 -4.37534e-05 -0.00390039
0.0032408 0.00405805 6.7893e-05
0.00405805 0.00141272 -0.000101179
6.7893e-05 -0.000101179 0.00182043
0.00782392 0.01076 -0.00104233
0.01076 -0.00228341 -9.84288e-05
-0.00104233 -9.84288e-05 -0.00357667
0.00465061 0.00194488 4.2105e-05
0.00194488 0.0020162 -4.41651e-06
4.2105e-05 -4.41651e-06 0.00139814
0.00141726 0.00089411 -6.83437e-06
0.00089411 0.000470309 -5.02146e-06
-6.83437e-06 -5.02146e-06 0.000243219
-0.000118955 0.000328679 -4.21794e-05
0.000328679 0.000147286 -1.59686e-05
-4.21794e-05 -1.59686e-05 -0.000424588
-0.00053367 0.00101742 -0.000161683
0.00101742 0.00120227 -8.02183e-05
-0.000161683 -8.02183e-05 -0.000312451
0.000473504 0.000873837 -7.36254e-05
0.000873837 0.000202678 -5.9407e-05
-7.36254e-05 -5.9407e-05 -0.000276029
0.00301551 0.00275098 3.63056e-06
0.00275098 0.00119569 -1.44154e-05
3.63056e-06 -1.44154e-05 -0.000240217
-0.00148581 0.00268882 0.000144233
0.00268882 -0.00220143 8.62379e-05
0.000144233 8.62379e-05 -0.00275557
-0.00699033 -0.000813658 -0.00121037
-0.000813658 -0.00119745 7.53133e-05
-0.00121037 7.53133e-05 -0.00544082
-0.0105852 0.000524857 0.000850092
0.000524857 0.00707474 -3.05807e-06
0.000850092 -3.05807e-06 -0.000709426
0.00211305 0.000317169 -0.000250921
0.000317169 0.00253995 3.91045e-05
-0.000250921 3.91045e-05 -0.000115154
0.00122302 -0.00188 -9.48707e-05
-0.00188 0.0015056 -6.71335e-05
-9.48707e-05 -6.71335e-05 3.99983e-06
-0.000314769 -0.00392588 0.000231143
-0.00392588 0.000288377 2.07442e-05
0.000231143 2.07442e-05 3.48206e-05
0.00293321 0.00273101 0.000547901
0.00273101 0.0119103 0.000141795
0.000547901 0.000141795 0.0035873
0.00595129 -0.00804249 0.00105264
-0.00804249 -0.00302977 -0.000107097
0.00105264 -0.000107097 -0.0029254
0.0246018 0.00697371 0.00201411
0.00697371 0.0133542 5.50326e-05
0.00201411 5.50326e-05 0.00615484
0.00270498 -0.00339078 -2.34523e-05
-0.00339078 0.000933974 -1.90357e-06
-2.34523e-05 -1.90357e-06 -0.000183985
0.00649752 0.00422117 0.000515363
0.00422117 0.00398525 -0.00015529
0.000515363 -0.00015529 -0.00210627
0.00807798 -0.00500672 -0.000295289
-0.00500672 -0.00604387 0.000222085
-0.000295289 0.000222085 -0.00588209
0.00263221 -0.00444039 -3.18949e-05
-0.00444039 -0.00151668 4.57132e-05
-3.18949e-05 4.57132e-05 0.000649381
0.00237625 -0.00254583 4.73614e-05
-0.00254583 -0.000250976 -1.42611e-05
4.73614e-05 -1.42611e-05 -0.00035643
0.0196882 -0.00140542 -0.000140426
-0.00140542 0.0015093 0.000128104
-0.000140426 0.000128104 0.00179403
0.0030705 -0.00324839 0.000138592
-0.00324839 -0.00458417 -0.000145272
0.000138592 -0.000145272 -0.00132054
0.00243796 -0.00179553 -7.25944e-05
-0.00179553 0.000820628 4.8601e-05
-7.25944e-05 4.8601e-05 0.000292277
0.000629694 -0.0011314 -1.54975e-05
-0.0011314 -0.000467402 1.32993e-06
-1.54975e-05 1.32993e-06 -0.000792947
0.00540626 -0.00158378 4.87698e-05
-0.00158378 0.00172948 -2.53461e-05
4.87698e-05 -2.53461e-05 0.00139087
0.000898882 -0.00128434 -1.43197e-05
-0.00128434 -0.000292499 9.85513e-06
-1.43197e-05 9.85513e-06 -0.000863725
0.00294943 -0.00150024 4.97005e-07
-0.00150024 0.000543531 -1.10091e-06
4.97005e-07 -1.10091e-06 7.1994e-06
0.00320238 -0.001198 1.10837e-06
-0.001198 0.000389082 -1.40899e-06
1.10837e-06 -1.40899e-06 0.000181348
0.00249773 -0.00147634 8.45315e-06
-0.00147634 0.000457628 1.01122e-05
8.45315e-06 1.01122e-05 -0.00025262
0.00273029 -0.00115184 -4.32096e-06
-0.00115184 0.00031788 1.50457e-06
-4.32096e-06 1.50457e-06 -6.9446e-05
0.0025581 -0.000802455 8.46713e-07
-0.000802455 7.24302e-06 1.70042e-07
8.46713e-07 1.70042e-07 -5.14578e-05
0.00226546 -0.0010235 7.50482e-06
-0.0010235 0.000254751 6.30468e-06
7.50482e-06 6.30468e-06 -0.000222309
0.00232608 -0.000734463 2.03385e-08
-0.000734463 5.02775e-05 2.46065e-06
2.03385e-08 2.46065e-06 -0.000153524
0.00248567 -0.00077248 -9.41846e-07
-0.00077248 9.10988e-05 1.48703e-06
-9.41846e-07 1.48703e-06 -1.46909e-05
0.00241432 -0.00074198 -3.50386e-06
-0.00074198 0.000136913 3.81253e-07
-3.50386e-06 3.81253e-07 -1.25662e-05
0.00238525 -0.000696867 -3.55587e-06
-0.000696867 0.000187941 2.3149e-06
-3.55587e-06 2.3149e-06 6.03062e-06
0.00239832 -0.00067558 -5.83232e-07
-0.00067558 0.000288693 -1.96398e-06
-5.83232e-07 -1.96398e-06 6.94413e-05
0.00240841 -0.000724693 -6.13333e-06
-0.000724693 0.000306713 -3.05314e-06
-6.13333e-06 -3.05314e-06 1.11187e-06
0.00223241 -0.000686653 1.30203e-06
-0.000686653 0.000161743 1.45503e-06
1.30203e-06 1.45503e-06 -0.000121095
0.00212333 -0.00066372 2.32915e-06
-0.00066372 1.64161e-05 7.9065e-06
2.32915e-06 7.9065e-06 -0.000236813
0.0023247 -0.000864419 -6.11802e-06
-0.000864419 0.000390066 -6.92174e-06
-6.11802e-06 -6.92174e-06 -5.40567e-05
0.00198085 -0.000870032 -5.7609e-07
-0.000870032 0.000103303 1.20494e-07
-5.7609e-07 1.20494e-07 -0.000338106
0.00249892 -0.00101076 7.95035e-06
-0.00101076 0.000423573 5.17394e-06
7.95035e-06 5.17394e-06 -6.39886e-05
0.00192193 -0.000893192 -7.20993e-06
-0.000893192 0.000396903 -4.73592e-06
-7.20993e-06 -4.73592e-06 -0.000158408
0.00250128 -0.00109633 -7.53726e-07
-0.00109633 0.000692169 5.53708e-07
-7.53726e-07 5.53708e-07 7.77729e-05
0.00247689 -0.00118143 4.38325e-06
-0.00118143 0.000649132 3.29903e-06
4.38325e-06 3.29903e-06 1.18457e-05
0.00106177 -0.000351325 -1.18507e-05
-0.000351325 0.000196811 9.66499e-06
-1.18507e-05 9.66499e-06 -9.71111e-05
0.00157392 -0.000744256 4.19664e-07
-0.000744256 0.000395834 2.02813e-06
4.19664e-07 2.02813e-06 -0.000124667
0.00218742 -0.00105311 -1.33336e-06
-0.00105311 0.000767108 9.424e-06
-1.33336e-06 9.424e-06 0.000113199
0.000329122 -0.000209619 -2.49136e-05
-0.000209619 -0.000152569 2.10847e-05
-2.49136e-05 2.10847e-05 -0.000297409
0.000906104 -0.000320721 -4.29074e-06
-0.000320721 0.000221213 3.99761e-07
-4.29074e-06 3.99761e-07 -5.35562e-05
-0.000626366 -0.000546965 -5.07693e-07
-0.000546965 -0.000785115 2.35364e-07
-5.07693e-07 2.35364e-07 -0.0011964
0.00560941 0.000182392 -0.00015129
0.000182392 0.00341495 1.25618e-05
-0.00015129 1.25618e-05 0.00339239
0.000627042 -0.000176651 -1.47662e-06
-0.000176651 4.77157e-05 -1.16734e-06
-1.47662e-06 -1.16734e-06 -6.75976e-05
0.000545577 -0.000305907 7.06149e-06
-0.000305907 8.52374e-05 -3.88246e-07
7.06149e-06 -3.88246e-07 -0.0002189
0.00327703 0.00014981 8.23191e-05
0.00014981 0.00189766 1.13091e-07
8.23191e-05 1.13091e-07 0.00185435
0.000467482 -0.000133187 2.35272e-05
-0.000133187 -2.33127e-05 -1.46782e-05
2.35272e-05 -1.46782e-05 -0.000134257
0.00470969 0.000133184 0.000130895
0.000133184 0.00281183 -1.19273e-05
0.000130895 -1.19273e-05 0.00280314
0.00218078 0.000584583 -4.1538e-06
0.000584583 0.000897895 8.88146e-06
-4.1538e-06 8.88146e-06 0.000490548
0.000872952 0.00031207 -4.3018e-06
0.00031207 0.000206331 9.69777e-07
-4.3018e-06 9.69777e-07 -7.54201e-05
4.37872e-05 0.00021341 5.91472e-06
0.00021341 -0.000267587 3.59022e-06
5.91472e-06 3.59022e-06 -0.000546593
0.00179964 0.000380275 8.46194e-07
0.000380275 0.000922146 -6.15945e-06
8.46194e-07 -6.15945e-06 0.000587765
0.00126399 0.0001612 -8.55346e-07
0.0001612 0.000661869 4.24263e-07
-8.55346e-07 4.24263e-07 0.000303779
0.00127397 0.000159911 5.17978e-07
0.000159911 0.000615431 -1.73973e-05
5.17978e-07 -1.73973e-05 0.000338245
0.000708973 9.56632e-05 -1.47044e-05
9.56632e-05 0.000176289 -1.97581e-05
-1.47044e-05 -1.97581e-05 9.89505e-05
0.000683908 0.000143834 -1.52127e-06
0.000143834 0.000221428 4.12979e-07
-1.52127e-06 4.12979e-07 2.83789e-06
-0.00190932 -3.27748e-05 -1.36598e-05
-3.27748e-05 -0.0012872 2.2777e-05
-1.36598e-05 2.2777e-05 -0.00166738
0.00348698 -9.90128e-05 -8.07874e-05
-9.90128e-05 0.00200621 -9.94165e-06
-8.07874e-05 -9.94165e-06 0.00200739
0.00021546 4.74178e-05 1.13913e-06
4.74178e-05 -0.000127051 -3.14261e-07
1.13913e-06 -3.14261e-07 -0.000188775
0.000662273 0.000133228 -2.80714e-06
0.000133228 0.000183606 1.15673e-05
-2.80714e-06 1.15673e-05 2.09251e-05
0.00314485 -9.47732e-05 -1.06368e-05
-9.47732e-05 0.00177559 9.63696e-07
-1.06368e-05 9.63696e-07 0.00177605
0.000189698 -4.27158e-06 6.06728e-08
-4.27158e-06 -0.000146413 1.19302e-05
6.06728e-08 1.19302e-05 -0.000198149
0.00279332 -7.49056e-05 3.12287e-05
-7.49056e-05 0.00153681 6.72686e-06
3.12287e-05 6.72686e-06 0.00154094
0.00293553 -0.00135208 -0.00196551
-0.00135208 0.00456838 -4.70196e-05
-0.00196551 -4.70196e-05 0.0015903
-0.00283084 -0.00113925 -6.84206e-05
-0.00113925 0.00800018 -5.92557e-05
-6.84206e-05 -5.92557e-05 -0.00158227
0.00700852 0.000892365 -0.000613871
0.000892365 0.00438083 -0.000160979
-0.000613871 -0.000160979 0.000820434
0.000899304 0.000246053 2.80693e-06
0.000246053 0.000322172 5.40596e-06
2.80693e-06 5.40596e-06 -6.70537e-05
0.000696491 0.000273434 1.4432e-05
0.000273434 0.000411576 3.51506e-06
1.4432e-05 3.51506e-06 -0.000174244
0.00285684 0.000956059 -6.42385e-06
0.000956059 0.00144704 7.62131e-07
-6.42385e-06 7.62131e-07 0.000846534
0.00266905 0.00118018 2.7292e-05
0.00118018 0.00117536 1.61727e-05
2.7292e-05 1.61727e-05 0.000444177
0.00159069 0.000924196 -1.46229e-06
0.000924196 0.00100668 2.06347e-05
-1.46229e-06 2.06347e-05 0.000349744
0.00268699 0.000434741 6.73991e-08
0.000434741 0.00167782 3.29686e-06
6.73991e-08 3.29686e-06 0.00136577
0.00158883 0.000404142 1.55098e-05
0.000404142 0.000937855 1.11215e-05
1.55098e-05 1.11215e-05 0.000515628
0.00189103 0.000896522 -5.83428e-06
0.000896522 0.00109154 1.3817e-06
-5.83428e-06 1.3817e-06 0.000473177
0.00153913 0.00122886 3.42423e-06
0.00122886 0.000367274 3.35951e-06
3.42423e-06 3.35951e-06 -0.000174752
0.00298767 0.00133814 5.1534e-06
0.00133814 0.00116274 4.75806e-05
5.1534e-06 4.75806e-05 0.000823568
0.00202653 0.0015663 4.62325e-05
0.0015663 0.000267896 -6.08426e-06
4.62325e-05 -6.08426e-06 -8.00906e-05
0.00131222 0.000995721 1.45192e-05
0.000995721 0.000433643 5.6214e-06
1.45192e-05 5.6214e-06 5.65554e-05
0.0018963 0.000862614 1.88244e-06
0.000862614 0.00126202 9.14047e-06
1.88244e-06 9.14047e-06 0.000576385
0.0176585 0.00563689 -0.000159046
0.00563689 0.000708873 7.30659e-05
-0.000159046 7.30659e-05 0.00102919
0.0106828 -0.00453346 -0.000923347
-0.00453346 0.00656484 -0.000256709
-0.000923347 -0.000256709 0.000968298
0.0055384 -0.00836579 0.00173976
-0.00836579 0.01433 0.0002296
0.00173976 0.0002296 0.0041119
0.020744 -0.00459852 0.000793961
-0.00459852 0.00870766 0.000188391
0.000793961 0.000188391 0.000213321
0.0110509 0.00853965 -0.000233529
0.00853965 0.00458009 -8.93513e-05
-0.000233529 -8.93513e-05 0.000107492
-0.00181915 0.00106497 -1.3957e-05
0.00106497 0.0016914 1.15139e-05
-1.3957e-05 1.15139e-05 0.000402738
0.00177803 0.00356812 -0.000129501
0.00356812 0.00064535 -6.34848e-05
-0.000129501 -6.34848e-05 0.00148303
0.0115255 0.00899443 3.33735e-05
0.00899443 -0.000351065 6.10334e-05
3.33735e-05 6.10334e-05 -0.00227387
0.00792288 0.00645063 -0.000205154
0.00645063 -0.00078449 -0.000152915
-0.000205154 -0.000152915 0.000507961
0.00131954 0.00176424 2.06245e-05
0.00176424 -2.64463e-05 -2.35562e-05
2.06245e-05 -2.35562e-05 -0.000461288
0.00153884 0.00139535 1.70711e-05
0.00139535 0.000436662 1.1505e-06
1.70711e-05 1.1505e-06 -1.22489e-05
0.00157384 0.000850468 -3.39991e-05
0.000850468 0.000644604 -3.13961e-05
-3.39991e-05 -3.13961e-05 0.000450392
0.00175317 0.00263216 -9.81615e-05
0.00263216 0.000362563 -4.98513e-05
-9.81615e-05 -4.98513e-05 -0.000978456
0.00183082 0.00309366 0.000124714
0.00309366 -0.000663213 6.67945e-05
0.000124714 6.67945e-05 -0.001508
0.00645711 -0.000422421 -0.000108706
-0.000422421 -0.00593844 2.31101e-05
-0.000108706 2.31101e-05 -0.00662264
-0.000262017 -0.00273852 -3.4222e-06
-0.00273852 0.00447033 9.45428e-05
-3.4222e-06 9.45428e-05 0.00102103
-0.0144321 -0.000361458 0.000879449
-0.000361458 0.00822733 3.78902e-06
0.000879449 3.78902e-06 0.00231056
0.00267963 -0.00406847 -0.000131387
-0.00406847 0.000464776 6.82548e-05
-0.000131387 6.82548e-05 -0.000946328
0.00678285 -0.00595956 1.72363e-05
-0.00595956 -0.000503808 9.77148e-05
1.72363e-05 9.77148e-05 0.00106225
0.00715513 0.00162 0.00200773
0.00162 0.00627919 -0.000397974
0.00200773 -0.000397974 0.0027889
0.0146844 -0.00485181 -0.000446186
-0.00485181 -0.00164971 0.000303375
-0.000446186 0.000303375 -0.000273468
0.00222939 -0.00255689 -2.40692e-05
-0.00255689 -0.000335878 1.12344e-05
-2.40692e-05 1.12344e-05 -0.00059773
0.0130747 -0.000779347 -0.000374169
-0.000779347 -0.00322923 0.000121561
-0.000374169 0.000121561 -0.00296854
0.00746935 -0.00379271 0.000107952
-0.00379271 -0.00186201 5.3465e-06
0.000107952 5.3465e-06 0.00051046
0.00289996 -0.00197331 4.48842e-05
-0.00197331 -0.000928495 -5.91049e-05
4.48842e-05 -5.91049e-05 -0.000537317
0.00317682 -0.00150736 8.75611e-05
-0.00150736 -0.00379916 -1.97307e-05
8.75611e-05 -1.97307e-05 -0.000662837
-0.000182765 -0.00104159 -1.28231e-05
-0.00104159 -0.000946931 2.1659e-05
-1.28231e-05 2.1659e-05 -0.00115758
0.00159294 -0.00114916 -2.28195e-05
-0.00114916 -0.000444051 5.56382e-06
-2.28195e-05 5.56382e-06 -0.000462528
0.00411361 -0.00114418 4.4555e-05
-0.00114418 0.000701509 -2.14312e-05
4.4555e-05 -2.14312e-05 0.000811924
0.00240841 -0.00142225 -9.99276e-06
-0.00142225 0.000275704 8.60653e-06
-9.99276e-06 8.60653e-06 -0.000236637
0.00289728 -0.00118032 -4.22561e-06
-0.00118032 0.000213721 1.80967e-06
-4.22561e-06 1.80967e-06 4.72274e-06
0.00290711 -0.000902675 5.0483e-06
-0.000902675 1.35341e-05 -1.14057e-06
5.0483e-06 -1.14057e-06 5.88454e-05
0.00240176 -0.00109398 -9.80647e-06
-0.00109398 0.000143414 7.90562e-06
-9.80647e-06 7.90562e-06 -0.000219366
0.00244591 -0.000793243 8.13439e-08
-0.000793243 -6.58855e-05 1.7359e-06
8.13439e-08 1.7359e-06 -0.000122509
0.0026509 -0.000791227 -4.82455e-07
-0.000791227 2.91368e-05 -8.20452e-08
-4.82455e-07 -8.20452e-08 3.31649e-05
0.00226177 -0.000716992 1.43537e-06
-0.000716992 1.4717e-05 5.03663e-06
1.43537e-06 5.03663e-06 -0.000176042
0.00245735 -0.000763699 -1.05067e-07
-0.000763699 8.58652e-05 7.23916e-07
-1.05067e-07 7.23916e-07 -2.07793e-05
0.00259371 -0.000772459 -1.58528e-06
-0.000772459 0.000102662 2.45658e-07
-1.58528e-06 2.45658e-07 2.07811e-05
0.00239355 -0.000746468 -5.138e-06
-0.000746468 0.00011719 6.64861e-07
-5.138e-06 6.64861e-07 -2.4747e-05
0.00237798 -0.000701457 -9.70855e-07
-0.000701457 0.000163574 -4.96934e-07
-9.70855e-07 -4.96934e-07 3.06481e-06
0.00237166 -0.000697692 4.28662e-08
-0.000697692 0.00016907 3.83191e-06
4.28662e-08 3.83191e-06 -5.37264e-06
0.00240139 -0.000671845 8.51478e-07
-0.000671845 0.000290862 -5.66138e-07
8.51478e-07 -5.66138e-07 7.19255e-05
0.00234407 -0.00067956 -2.50627e-06
-0.00067956 0.000290205 -9.45093e-07
-2.50627e-06 -9.45093e-07 4.07311e-05
0.00242559 -0.000728974 -2.27879e-06
-0.000728974 0.000385298 -6.68188e-06
-2.27879e-06 -6.68188e-06 5.79314e-05
0.00245712 -0.000732087 -5.1955e-07
-0.000732087 0.000339136 2.0825e-07
-5.1955e-07 2.0825e-07 3.11043e-05
0.00249203 -0.000702615 7.58252e-06
-0.000702615 0.000343792 4.52124e-06
7.58252e-06 4.52124e-06 5.92355e-05
0.0019941 -0.0008054 -7.66049e-06
-0.0008054 0.000271754 -3.78312e-06
-7.66049e-06 -3.78312e-06 -0.000195584
0.00223357 -0.000865463 -2.34992e-06
-0.000865463 0.000316649 -1.08825e-06
-2.34992e-06 -1.08825e-06 -0.000133767
0.00190313 -0.000874312 4.67616e-06
-0.000874312 3.62788e-05 5.20613e-06
4.67616e-06 5.20613e-06 -0.000409563
0.00153685 -0.000510312 -1.849e-05
-0.000510312 0.000363343 1.24555e-05
-1.849e-05 1.24555e-05 -7.38714e-06
0.00204137 -0.000902174 -8.25197e-07
-0.000902174 0.000483373 1.27433e-06
-8.25197e-07 1.27433e-06 -7.13295e-05
0.00267806 -0.00112062 2.02759e-06
-0.00112062 0.000786497 7.29294e-06
2.02759e-06 7.29294e-06 0.000166428
0.000421277 -0.000248907 -1.86392e-05
-0.000248907 -0.000113257 2.60277e-05
-1.86392e-05 2.60277e-05 -0.000294284
0.000634549 -0.000335204 2.71894e-06
-0.000335204 -8.64809e-05 -1.9094e-06
2.71894e-06 -1.9094e-06 -0.000388325
0.00185002 -0.000764506 5.81197e-06
-0.000764506 0.000561394 3.59943e-06
5.81197e-06 3.59943e-06 4.39138e-05
0.00653965 8.09643e-05 -0.000223288
8.09643e-05 0.00398761 1.74879e-05
-0.000223288 1.74879e-05 0.00398568
0.000374015 -0.000219449 -6.81107e-06
-0.000219449 -0.000114884 -7.79929e-07
-6.81107e-06 -7.79929e-07 -0.000268859
0.00116021 -0.000433614 7.44033e-06
-0.000433614 0.000443249 -3.90179e-06
7.44033e-06 -3.90179e-06 0.000119715
0.00590949 0.000153587 7.57977e-06
0.000153587 0.00361172 -3.18458e-06
7.57977e-06 -3.18458e-06 0.00359344
0.000688343 -0.000202272 2.71214e-05
-0.000202272 8.6656e-05 -1.71787e-05
2.71214e-05 -1.71787e-05 -3.47998e-05
0.00554675 0.000169741 0.00015528
0.000169741 0.00338137 -1.75126e-05
0.00015528 -1.75126e-05 0.00336071
0.00300828 0.00109499 -4.19745e-06
0.00109499 0.0013773 1.12896e-05
-4.19745e-06 1.12896e-05 0.000699847
0.00152644 0.000614947 -2.62017e-06
0.000614947 0.000523765 5.69749e-07
-2.62017e-06 5.69749e-07 7.10238e-05
0.000147336 0.00032339 3.59763e-06
0.00032339 -0.000238821 4.56372e-07
3.59763e-06 4.56372e-07 -0.000563212
-0.00136934 0.000114876 2.96283e-06
0.000114876 -0.00117169 -1.61863e-05
2.96283e-06 -1.61863e-05 -0.0014432
7.69636e-05 0.000348648 5.70427e-06
0.000348648 -0.000265605 -2.79739e-06
5.70427e-06 -2.79739e-06 -0.000530383
-0.000329474 0.000400423 -9.84937e-06
0.000400423 -0.000520919 -8.65878e-06
-9.84937e-06 -8.65878e-06 -0.000780326
-0.000436188 9.18317e-05 -7.15529e-06
9.18317e-05 -0.000416756 2.60094e-06
-7.15529e-06 2.60094e-06 -0.000794221
0.000699944 0.000242977 2.87723e-06
0.000242977 0.000236621 5.26941e-07
2.87723e-06 5.26941e-07 -3.99679e-05
0.000839089 0.000139372 -2.05373e-05
0.000139372 0.000246288 -2.24547e-05
-2.05373e-05 -2.24547e-05 0.000137102
0.00394846 -0.000117387 -0.000103459
-0.000117387 0.00232175 -1.47632e-05
-0.000103459 -1.47632e-05 0.00231751
0.000495413 5.96484e-05 4.43285e-06
5.96484e-05 5.37754e-05 -2.6039e-07
4.43285e-06 -2.6039e-07 -2.64939e-05
-0.000194913 3.4971e-05 -5.08996e-06
3.4971e-05 -0.000307586 1.51253e-05
-5.08996e-06 1.51253e-05 -0.000545091
0.0035343 -0.000121315 -1.27938e-05
-0.000121315 0.00204175 1.38186e-06
-1.27938e-05 1.38186e-06 0.00203638
0.000334806 -7.72876e-05 -1.22915e-05
-7.72876e-05 -3.26827e-05 1.63309e-05
-1.22915e-05 1.63309e-05 -0.000103997
0.0030845 -9.73904e-05 4.18153e-05
-9.73904e-05 0.00173724 7.33169e-06
4.18153e-05 7.33169e-06 0.00173638
0.0162459 0.00100028 0.00077385
0.00100028 9.47778e-05 0.000172428
0.00077385 0.000172428 0.00123248
0.00269691 -0.00588108 -0.00113886
-0.00588108 5.47731e-05 -6.77545e-05
-0.00113886 -6.77545e-05 -0.0060545
-0.00639808 0.00119582 -0.000294272
0.00119582 0.00756249 -9.86768e-05
-0.000294272 -9.86768e-05 -0.00134131
0.000291769 0.000146207 7.27872e-06
0.000146207 8.00699e-05 -3.36511e-05
7.27872e-06 -3.36511e-05 -0.000516021
0.000467894 0.000666873 -8.53949e-06
0.000666873 -2.09056e-05 -1.32541e-05
-8.53949e-06 -1.32541e-05 -0.00061118
0.00212594 0.000908069 -1.61167e-05
0.000908069 0.00117912 -9.0441e-06
-1.61167e-05 -9.0441e-06 0.000544846
0.00203203 0.00109235 1.96269e-06
0.00109235 0.00081272 3.94687e-07
1.96269e-06 3.94687e-07 0.000100505
0.00194155 0.001058 2.63932e-05
0.001058 0.000458513 2.71568e-05
2.63932e-05 2.71568e-05 -0.000148303
0.000415845 0.00102551 3.35385e-05
0.00102551 -0.000276089 1.37967e-05
3.35385e-05 1.37967e-05 -0.0008104
0.00178684 0.000803819 -1.41718e-05
0.000803819 0.00101369 -6.81294e-06
-1.41718e-05 -6.81294e-06 0.000424377
0.0015569 0.00123206 3.16792e-06
0.00123206 0.000344518 5.67401e-06
3.16792e-06 5.67401e-06 -0.00019985
0.00219158 0.00120901 2.98226e-05
0.00120901 0.000799836 4.4407e-06
2.98226e-05 4.4407e-06 0.000380369
0.00312072 0.00130548 1.71031e-05
0.00130548 0.00118606 9.36313e-06
1.71031e-05 9.36313e-06 0.000632142
0.00195196 0.0013256 1.34935e-05
0.0013256 0.000306236 5.74135e-06
1.34935e-05 5.74135e-06 -2.02977e-06
0.00235972 0.00156558 2.90963e-05
0.00156558 0.000498076 1.08713e-05
2.90963e-05 1.08713e-05 -7.03815e-05
0.00186869 0.00152118 1.36069e-05
0.00152118 0.000216355 9.47568e-07
1.36069e-05 9.47568e-07 -0.000107015
0.00280431 0.00111884 -4.08889e-05
0.00111884 0.00126293 -9.62285e-05
-4.08889e-05 -9.62285e-05 0.00084768
0.00387093 0.00308946 3.29952e-05
0.00308946 -0.00444784 6.03508e-05
3.29952e-05 6.03508e-05 -0.000754414
0.0135193 0.00648814 0.000466677
0.00648814 -0.00254696 0.000268579
0.000466677 0.000268579 -0.00240295
0.0181118 -0.00818412 0.00122986
-0.00818412 0.00934944 -0.000218589
0.00122986 -0.000218589 0.00162876
0.00654988 0.0104139 0.00117611
0.0104139 -0.00208144 0.000479081
0.00117611 0.000479081 -0.00481861
-0.000951023 0.00252258 -3.13119e-05
0.00252258 0.000118069 3.45009e-05
-3.13119e-05 3.45009e-05 0.000591101
0.00359961 0.0038574 -9.97763e-05
0.0038574 -0.00144451 -7.54031e-05
-9.97763e-05 -7.54031e-05 0.000500894
0.00735694 0.00345635 5.21812e-05
0.00345635 0.00101917 3.04679e-05
5.21812e-05 3.04679e-05 0.000846607
0.00626769 0.0026769 2.57132e-05
0.0026769 0.00220943 1.33092e-05
2.57132e-05 1.33092e-05 0.00152957
0.00113967 0.00128453 -4.5754e-05
0.00128453 0.000200387 2.76479e-06
-4.5754e-05 2.76479e-06 -0.000197145
0.0100614 0.00434805 -0.000221408
0.00434805 0.00319343 5.04694e-07
-0.000221408 5.04694e-07 0.00188348
0.00624251 -0.00120038 4.69242e-05
-0.00120038 -0.00185591 4.96045e-05
4.69242e-05 4.96045e-05 0.000674214
0.0129981 -0.000554622 -5.5065e-05
-0.000554622 -0.00111282 -5.12147e-05
-5.5065e-05 -5.12147e-05 0.0002326
-0.011382 -0.00465254 0.00154309
-0.00465254 -0.00183425 -4.2918e-05
0.00154309 -4.2918e-05 -0.00677602
0.00238409 -0.0024095 -0.000145682
-0.0024095 -0.000148354 5.89061e-05
-0.000145682 5.89061e-05 -0.000312319
0.00808803 -0.00433146 -9.68151e-05
-0.00433146 -0.00219351 0.000153038
-9.68151e-05 0.000153038 0.00045387
0.00272366 -0.000568291 -0.000503657
-0.000568291 -0.00859904 1.55242e-05
-0.000503657 1.55242e-05 -0.00805196
0.00370612 -0.001895 5.36385e-05
-0.001895 -0.000480791 -1.48312e-06
5.36385e-05 -1.48312e-06 0.000165423
0.0050837 -0.00158099 -9.88336e-05
-0.00158099 -0.00242034 9.70324e-07
-9.88336e-05 9.70324e-07 1.89614e-05
0.00734662 -0.00149392 7.28042e-05
-0.00149392 0.00154926 -5.31839e-05
7.28042e-05 -5.31839e-05 0.00223943
0.00738535 -0.000988117 0.000164355
-0.000988117 0.000997664 1.08346e-05
0.000164355 1.08346e-05 0.00216366
-0.00127897 -0.000858516 2.05602e-05
-0.000858516 -0.0022119 1.25361e-05
2.05602e-05 1.25361e-05 -0.00188525
0.00235243 -0.000978575 -1.19301e-05
-0.000978575 -0.000355332 3.99139e-06
-1.19301e-05 3.99139e-06 -6.23564e-05
0.00271392 -0.000716736 2.88156e-05
-0.000716736 -0.000315517 -1.23207e-05
2.88156e-05 -1.23207e-05 7.36884e-05
0.00254946 -0.00116466 -3.09954e-06
-0.00116466 1.2824e-05 3.7067e-06
-3.09954e-06 3.7067e-06 -0.00020205
0.00288235 -0.000898742 7.81978e-07
-0.000898742 1.10626e-05 1.23655e-06
7.81978e-07 1.23655e-06 5.49182e-05
0.00280486 -0.000751586 -1.732e-07
-0.000751586 -2.77708e-05 -1.39299e-06
-1.732e-07 -1.39299e-06 1.84596e-05
0.00236108 -0.000790424 1.11255e-06
-0.000790424 -0.000126054 3.15986e-06
1.11255e-06 3.15986e-06 -0.000183742
0.00261696 -0.000787749 8.74354e-08
-0.000787749 2.22124e-05 3.61461e-07
8.74354e-08 3.61461e-07 1.54216e-05
0.00256232 -0.000667403 -1.63844e-06
-0.000667403 -8.36864e-06 -9.02333e-07
-1.63844e-06 -9.02333e-07 -2.50676e-05
0.00243697 -0.000757898 8.40462e-07
-0.000757898 8.16547e-05 7.67274e-07
8.40462e-07 7.67274e-07 -2.65693e-05
0.00258977 -0.000770338 -1.19398e-07
-0.000770338 0.000127726 -1.59306e-07
-1.19398e-07 -1.59306e-07 3.95444e-05
0.00248072 -0.000668442 1.16578e-06
-0.000668442 0.00011256 -7.08512e-07
1.16578e-06 -7.08512e-07 2.27198e-05
0.00237338 -0.000751308 -3.03414e-06
-0.000751308 9.60233e-05 6.07472e-07
-3.03414e-06 6.07472e-07 -3.82535e-05
0.00234329 -0.000702486 -1.53704e-06
-0.000702486 0.00013577 1.85782e-07
-1.53704e-06 1.85782e-07 -1.98248e-05
0.00237083 -0.00065833 -2.24429e-06
-0.00065833 0.000233092 3.18592e-07
-2.24429e-06 3.18592e-07 3.93896e-05
0.00239637 -0.000666106 2.95369e-06
-0.000666106 0.00028764 1.32889e-06
2.95369e-06 1.32889e-06 6.99623e-05
0.00232993 -0.000672108 1.22751e-07
-0.000672108 0.000277758 3.9777e-08
1.22751e-07 3.9777e-08 2.89228e-05
0.00241039 -0.000678149 -1.12219e-06
-0.000678149 0.000358788 -2.19905e-06
-1.12219e-06 -2.19905e-06 8.21887e-05
0.00211911 -0.000674067 -4.82285e-06
-0.000674067 0.000288423 -4.94421e-06
-4.82285e-06 -4.94421e-06 -6.91379e-05
0.00232521 -0.000726663 -6.81748e-07
-0.000726663 0.000314808 -1.74593e-06
-6.81748e-07 -1.74593e-06 -2.01839e-05
0.00251264 -0.000740902 4.46327e-06
-0.000740902 0.000376761 3.83457e-06
4.46327e-06 3.83457e-06 6.56877e-05
0.00134775 -0.000542107 -2.32921e-05
-0.000542107 9.49778e-05 5.44343e-06
-2.32921e-05 5.44343e-06 -0.000284773
0.00222411 -0.000822834 -1.16261e-06
-0.000822834 0.000434424 4.18945e-07
-1.16261e-06 4.18945e-07 -3.54105e-05
0.00217446 -0.00087023 1.24988e-06
-0.00087023 0.000264069 5.09501e-06
1.24988e-06 5.09501e-06 -0.000193689
0.000523128 -0.000278273 -2.18114e-05
-0.000278273 -8.36083e-05 2.58142e-05
-2.18114e-05 2.58142e-05 -0.000269113
0.000979626 -0.00047547 7.00698e-06
-0.00047547 2.40947e-05 1.08272e-06
7.00698e-06 1.08272e-06 -0.000347345
0.00223225 -0.000917833 6.68776e-06
-0.000917833 0.000619306 5.3648e-06
6.68776e-06 5.3648e-06 6.34067e-05
0.00806984 -1.67119e-05 -0.000317919
-1.67119e-05 0.00493789 2.78898e-05
-0.000317919 2.78898e-05 0.00494793
0.000221872 -0.000264493 2.35829e-06
-0.000264493 -0.000238382 1.67276e-07
2.35829e-06 1.67276e-07 -0.000421289
0.000294369 -0.00031753 3.69021e-06
-0.00031753 -0.00031189 -7.63606e-06
3.69021e-06 -7.63606e-06 -0.000622262
0.00709244 4.01142e-05 -1.08108e-05
4.01142e-05 0.00434564 -1.91185e-06
-1.08108e-05 -1.91185e-06 0.00434494
0.000532469 -0.00021433 1.65058e-05
-0.00021433 -1.63265e-05 -2.30884e-05
1.65058e-05 -2.30884e-05 -0.000173999
0.0059928 0.000105876 0.000225518
0.000105876 0.00367482 -3.15535e-05
0.000225518 -3.15535e-05 0.00365946
0.00227598 0.0010078 -1.53018e-05
0.0010078 0.000677586 1.41877e-05
-1.53018e-05 1.41877e-05 7.88624e-05
0.00220184 0.000983171 -1.85922e-06
0.000983171 0.000850445 -4.5956e-07
-1.85922e-06 -4.5956e-07 0.000210255
0.00111815 0.000656531 -8.41315e-06
0.000656531 0.000216218 7.02876e-06
-8.41315e-06 7.02876e-06 -0.000279201
0.000590297 0.000568171 8.08392e-06
0.000568171 -6.51112e-05 -6.52335e-06
8.08392e-06 -6.52335e-06 -0.000528407
0.00111625 0.000358807 -3.61267e-06
0.000358807 0.000305126 -3.01995e-06
-3.61267e-06 -3.01995e-06 -2.11898e-05
-0.000236089 0.000233813 -5.55691e-06
0.000233813 -0.000484142 -2.87257e-06
-5.55691e-06 -2.87257e-06 -0.000781556
0.00232002 0.000242433 1.41368e-06
0.000242433 0.00116157 -4.12637e-06
1.41368e-06 -4.12637e-06 0.000910261
0.00109522 0.000208898 2.98211e-06
0.000208898 0.000424971 -1.22829e-06
2.98211e-06 -1.22829e-06 0.000143802
0.000444705 0.000195054 -3.09194e-05
0.000195054 -5.86129e-05 -2.21842e-05
-3.09194e-05 -2.21842e-05 -0.000183252
0.000357013 0.000191562 -5.84666e-07
0.000191562 3.18903e-05 1.94848e-05
-5.84666e-07 1.94848e-05 -0.000248959
0.00043919 0.000128682 -7.43964e-07
0.000128682 -3.09818e-06 -4.83473e-07
-7.43964e-07 -4.83473e-07 -0.000106894
0.00498921 -0.000132104 -0.000159867
-0.000132104 0.00302084 -2.16889e-05
-0.000159867 -2.16889e-05 0.00300804
0.0038587 -0.00014096 -1.41265e-05
-0.00014096 0.00226809 1.50912e-06
-1.41265e-05 1.50912e-06 0.00225722
2.0608e-05 0.000104731 1.56189e-05
0.000104731 -0.000252985 1.89808e-05
1.56189e-05 1.89808e-05 -0.000325521
0.00340416 -0.000125563 5.07736e-05
-0.000125563 0.00195765 8.36458e-06
5.07736e-05 8.36458e-06 0.00195036
0.00141334 0.000679221 0.000143364
0.000679221 -0.00341863 3.34694e-05
0.000143364 3.34694e-05 -0.000647902
0.00535936 -0.000269958 0.000291618
-0.000269958 -0.00698331 0.000173022
0.000291618 0.000173022 -0.00732679
0.0178445 -0.00668687 -0.000368516
-0.00668687 0.0104121 -0.000142767
-0.000368516 -0.000142767 0.00374815
0.00188247 0.000902198 1.43711e-05
0.000902198 0.000181816 1.35253e-05
1.43711e-05 1.35253e-05 -0.000276583
0.00303717 0.000978631 -2.21336e-05
0.000978631 0.00155786 -1.88755e-05
-2.21336e-05 -1.88755e-05 0.000943853
0.00143595 0.00101716 -1.36777e-05
0.00101716 0.000464937 -2.03353e-05
-1.36777e-05 -2.03353e-05 -0.000232794
0.00170291 0.00118492 1.71673e-06
0.00118492 0.000505571 2.14834e-06
1.71673e-06 2.14834e-06 -8.01832e-05
0.00220015 0.00109227 6.70931e-07
0.00109227 0.000642076 6.01694e-06
6.70931e-07 6.01694e-06 2.14333e-05
0.00259202 0.00123969 2.72903e-05
0.00123969 0.000780638 1.98244e-05
2.72903e-05 1.98244e-05 0.000214149
0.00160112 0.00122046 -2.75774e-05
0.00122046 0.000354515 -7.66575e-06
-2.75774e-05 -7.66575e-06 -0.000205528
0.00094791 0.000980266 2.39124e-06
0.000980266 0.000140186 -4.63148e-05
2.39124e-06 -4.63148e-05 -0.000239504
0.00211429 0.00130228 2.62923e-06
0.00130228 0.000500595 -9.14964e-07
2.62923e-06 -9.14964e-07 -1.30209e-05
0.000997757 0.00123515 1.56232e-05
0.00123515 -0.000294993 -3.62281e-05
1.56232e-05 -3.62281e-05 -0.000472109
0.00250199 0.00125637 2.88553e-05
0.00125637 0.000554811 -5.20003e-07
2.88553e-05 -5.20003e-07 -2.06243e-05
0.00253255 0.00111763 4.03513e-05
0.00111763 0.000463201 4.84623e-05
4.03513e-05 4.84623e-05 0.000249373
0.0011452 0.00132598 -1.14754e-05
0.00132598 -0.000130173 -1.16915e-05
-1.14754e-05 -1.16915e-05 -0.000571912
0.00173957 0.00144797 -4.69731e-05
0.00144797 0.000172074 -6.43691e-06
-4.69731e-05 -6.43691e-06 -9.87012e-05
0.00291378 0.00148808 2.5718e-05
0.00148808 -0.00149804 4.65957e-05
2.5718e-05 4.65957e-05 -0.000205674
0.00638037 0.00340952 -0.000136826
0.00340952 -0.00303433 -5.69681e-05
-0.000136826 -5.69681e-05 0.000482304
0.00406228 0.00465541 0.000917917
0.00465541 -0.00867203 0.000273434
0.000917917 0.000273434 -0.00825143
0.0032261 0.00348028 -0.000299184
0.00348028 -0.000464228 -0.000142983
-0.000299184 -0.000142983 0.000872124
0.00609987 0.00288402 -3.57059e-05
0.00288402 0.000892491 -1.00053e-05
-3.57059e-05 -1.00053e-05 0.000861642
0.00782324 0.00299824 -0.00023386
0.00299824 0.00282266 -6.43453e-05
-0.00023386 -6.43453e-05 0.00206608
0.00451562 -0.00023265 -3.83723e-05
-0.00023265 -0.000516763 -2.46321e-05
-3.83723e-05 -2.46321e-05 0.00031985
0.000613174 -0.00075085 0.000139474
-0.00075085 -0.00259622 3.52528e-05
0.000139474 3.52528e-05 -0.000272417
0.00791153 3.54382e-05 0.000297307
3.54382e-05 -0.00637159 -2.30218e-05
0.000297307 -2.30218e-05 -0.00663141
0.00268256 -0.00164932 -8.6692e-05
-0.00164932 -0.000933551 0.000109647
-8.6692e-05 0.000109647 -0.000126235
0.00607761 -0.00158597 -0.000236741
-0.00158597 -0.00220523 6.93342e-05
-0.000236741 6.93342e-05 -0.000147613
0.00353678 -0.00117997 -2.70937e-05
-0.00117997 -0.000698915 1.23617e-05
-2.70937e-05 1.23617e-05 0.00022411
0.00474022 -0.00085399 -4.15848e-05
-0.00085399 -0.000314333 1.2127e-06
-4.15848e-05 1.2127e-06 0.000660815
0.00484462 -0.000611216 0.000113487
-0.000611216 0.000910226 -2.12311e-05
0.000113487 -2.12311e-05 0.00130551
0.0029004 -0.000124103 5.09883e-05
-0.000124103 -3.1468e-05 4.56e-06
5.09883e-05 4.56e-06 0.000229218
0.000659803 -0.000787691 -1.62602e-05
-0.000787691 -0.00130574 1.57406e-05
-1.62602e-05 1.57406e-05 -0.000850832
0.00267505 -0.000746139 -4.14611e-06
-0.000746139 -0.000323488 5.58188e-07
-4.14611e-06 5.58188e-07 2.29692e-05
0.00273297 -0.000551713 3.70625e-06
-0.000551713 -0.000274162 -2.37845e-06
3.70625e-06 -2.37845e-06 1.89965e-05
0.00283391 -0.000887926 -3.52008e-06
-0.000887926 5.53145e-07 2.91482e-06
-3.52008e-06 2.91482e-06 4.56616e-05
0.00280277 -0.000725867 -2.47201e-07
-0.000725867 5.4092e-06 -4.4505e-07
-2.47201e-07 -4.4505e-07 6.48651e-05
0.00258371 -0.000539738 -1.47561e-06
-0.000539738 -0.000121505 -8.50889e-07
-1.47561e-06 -8.50889e-07 -3.07547e-05
0.00257906 -0.000781688 -6.53802e-07
-0.000781688 1.62517e-05 5.10679e-07
-6.53802e-07 5.10679e-07 -3.61476e-07
0.00255481 -0.000669361 -6.20922e-07
-0.000669361 3.16646e-06 -5.4596e-08
-6.20922e-07 -5.4596e-08 -1.1416e-05
0.00243792 -0.000550993 4.46606e-07
-0.000550993 2.69897e-05 -6.38254e-07
4.46606e-07 -6.38254e-07 -6.46085e-06
0.00258363 -0.000766839 -2.09522e-07
-0.000766839 0.000152778 -2.23032e-07
-2.09522e-07 -2.23032e-07 5.84292e-05
0.00248703 -0.000669729 1.0171e-06
-0.000669729 0.0001146 -1.60876e-07
1.0171e-06 -1.60876e-07 2.40249e-05
0.00235722 -0.000593964 -6.27758e-07
-0.000593964 0.000131604 5.04712e-08
-6.27758e-07 5.04712e-08 1.21474e-05
0.00230858 -0.00070398 -1.73917e-06
-0.00070398 0.000108376 1.07819e-06
-1.73917e-06 1.07819e-06 -4.2573e-05
0.00230739 -0.000656975 -1.03443e-06
-0.000656975 0.000182984 4.80114e-07
-1.03443e-06 4.80114e-07 -7.12849e-06
0.00243212 -0.000640507 -1.41726e-06
-0.000640507 0.000318028 -1.39465e-06
-1.41726e-06 -1.39465e-06 8.81087e-05
0.00232385 -0.000665421 3.0294e-06
-0.000665421 0.000270337 1.5264e-06
3.0294e-06 1.5264e-06 2.19324e-05
0.0023496 -0.000673999 -4.79078e-07
-0.000673999 0.000316565 4.39107e-07
-4.79078e-07 4.39107e-07 4.30029e-05
0.00224592 -0.000616899 -3.4325e-06
-0.000616899 0.000337326 -2.53421e-06
-3.4325e-06 -2.53421e-06 3.41728e-05
0.00145685 -0.000478521 -1.9894e-05
-0.000478521 7.94773e-05 6.148e-06
-1.9894e-05 6.148e-06 -0.000244534
0.00209315 -0.000671646 -2.92315e-07
-0.000671646 0.000277454 -1.51609e-06
-2.92315e-07 -1.51609e-06 -8.52219e-05
0.00219367 -0.000721791 1.05224e-06
-0.000721791 0.000222378 3.48782e-06
1.05224e-06 3.48782e-06 -0.000119696
0.00012111 -0.000276649 -2.14263e-05
-0.000276649 -0.000358456 2.28967e-05
-2.14263e-05 2.28967e-05 -0.000553295
0.00134753 -0.00053223 1.2723e-07
-0.00053223 0.000106802 -9.72025e-08
1.2723e-07 -9.72025e-08 -0.000267504
0.00239429 -0.000834992 4.98035e-06
-0.000834992 0.000555374 4.76164e-06
4.98035e-06 4.76164e-06 8.42845e-05
0.00888444 -7.98406e-05 -0.000382886
-7.98406e-05 0.0054278 3.58112e-05
-0.000382886 3.58112e-05 0.00544708
7.772e-05 -0.000292444 1.34267e-06
-0.000292444 -0.000355618 2.10665e-06
1.34267e-06 2.10665e-06 -0.000553461
0.000570447 -0.000455416 1.78931e-05
-0.000455416 -0.000231616 -5.35397e-06
1.78931e-05 -5.35397e-06 -0.000604695
0.00840635 -4.77723e-05 -1.00385e-05
-4.77723e-05 0.00515618 1.17117e-06
-1.00385e-05 1.17117e-06 0.00516821
-7.6948e-05 -0.00030065 2.18426e-05
-0.00030065 -0.000423354 -2.79188e-05
2.18426e-05 -2.79188e-05 -0.000609614
0.0076793 2.43422e-05 0.000318938
2.43422e-05 0.00473589 -4.07497e-05
0.000318938 -4.07497e-05 0.00473364
0.00188455 0.000839463 -7.41118e-06
0.000839463 0.000231799 1.34285e-05
-7.41118e-06 1.34285e-05 -0.000232853
0.00216756 0.000985901 -1.91278e-06
0.000985901 0.000615741 1.53688e-06
-1.91278e-06 1.53688e-06 2.33352e-05
0.00193495 0.000826604 -6.59946e-06
0.000826604 0.000509024 1.03657e-05
-6.59946e-06 1.03657e-05 -2.30288e-05
0.00163941 0.00089373 2.85752e-06
0.00089373 0.00048636 -1.04043e-05
2.85752e-06 -1.04043e-05 -0.000122081
0.00158272 0.000686652 -2.65034e-06
0.000686652 0.000474262 -1.15795e-06
-2.65034e-06 -1.15795e-06 -2.27981e-05
0.000286544 0.000335848 -1.30381e-05
0.000335848 -0.000242267 -1.97374e-06
-1.30381e-05 -1.97374e-06 -0.000568553
0.00198515 0.000406309 1.97048e-06
0.000406309 0.000793167 -7.40185e-06
1.97048e-06 -7.40185e-06 0.00046104
0.00041543 0.000286259 3.24838e-06
0.000286259 -0.000104778 -1.09843e-06
3.24838e-06 -1.09843e-06 -0.000371467
0.000338538 0.000234972 -3.34963e-05
0.000234972 -0.000171994 -2.33905e-05
-3.34963e-05 -2.33905e-05 -0.000300367
0.00109273 0.000241512 2.49849e-06
0.000241512 0.000407982 9.26691e-06
2.49849e-06 9.26691e-06 0.000131345
0.000663089 0.000190872 -1.19584e-06
0.000190872 8.40068e-05 -1.10135e-06
-1.19584e-06 -1.10135e-06 -3.39552e-05
0.00643819 -0.000192883 -0.000198095
-0.000192883 0.00399283 -2.90442e-05
-0.000198095 -2.90442e-05 0.00395776
0.000299696 0.000129762 2.00633e-05
0.000129762 -8.53092e-05 2.26274e-05
2.00633e-05 2.26274e-05 -0.000186024
0.00460482 -0.000183708 -1.86492e-05
-0.000183708 0.00278408 2.05666e-06
-1.86492e-05 2.05666e-06 0.00275708
0.00382976 -0.000159077 6.61295e-05
-0.000159077 0.0022525 1.0419e-05
6.61295e-05 1.0419e-05 0.00223611
0.000532612 0.000546244 2.62685e-05
0.000546244 -0.00299706 1.74472e-05
2.62685e-05 1.74472e-05 -0.00139294
0.00545409 0.000526131 7.41767e-05
0.000526131 -0.00207764 3.45739e-05
7.41767e-05 3.45739e-05 0.000748393
0.0174239 0.000953559 3.56099e-05
0.000953559 0.000290123 0.000130718
3.56099e-05 0.000130718 0.00181551
0.00232522 0.00104302 2.63462e-06
0.00104302 0.00037432 7.2484e-06
2.63462e-06 7.2484e-06 -9.10964e-05
0.00235439 0.000945996 1.40427e-06
0.000945996 0.000244321 7.15843e-06
1.40427e-06 7.15843e-06 -0.000136079
0.00188122 0.000907131 -7.6227e-07
0.000907131 0.000183294 -4.99238e-06
-7.6227e-07 -4.99238e-06 -0.000272173
0.00307929 0.0013505 -1.21827e-05
0.0013505 0.00133595 -3.68449e-06
-1.21827e-05 -3.68449e-06 0.000701505
0.00230006 0.0011001 -1.81649e-05
0.0011001 0.000728595 -1.44881e-05
-1.81649e-05 -1.44881e-05 0.000102862
0.00254053 0.00127693 6.8282e-06
0.00127693 0.000696796 2.06318e-06
6.8282e-06 2.06318e-06 0.000127087
0.00272832 0.00120453 -8.18046e-06
0.00120453 0.000334242 -6.49059e-08
-8.18046e-06 -6.49059e-08 -6.42588e-05
0.0017153 0.00135102 -1.04601e-05
0.00135102 0.000187492 -9.37702e-06
-1.04601e-05 -9.37702e-06 -0.000318315
0.00117002 0.00129996 -3.53248e-05
0.00129996 -0.000197934 0.000103577
-3.53248e-05 0.000103577 -0.000407958
0.00284619 0.0013523 3.35277e-06
0.0013523 0.000713405 -5.6528e-06
3.35277e-06 -5.6528e-06 0.000125116
0.00331006 0.00117454 1.8967e-06
0.00117454 0.000536406 1.54365e-05
1.8967e-06 1.54365e-05 0.000300525
0.00236435 0.000568253 7.13746e-05
0.000568253 0.000146717 8.30372e-06
7.13746e-05 8.30372e-06 0.000356489
0.000348411 0.000872258 5.117e-06
0.000872258 -0.000677797 -1.57911e-05
5.117e-06 -1.57911e-05 -0.000849101
0.00137297 0.00130293 -5.4159e-05
0.00130293 3.31512e-05 -1.39393e-06
-5.4159e-05 -1.39393e-06 -0.000404308
0.00425748 0.00163331 3.54795e-05
0.00163331 -0.000737771 1.57969e-05
3.54795e-05 1.57969e-05 0.000428518
0.010609 0.00352491 -9.4998e-05
0.00352491 -0.000602963 -6.03554e-05
-9.4998e-05 -6.03554e-05 0.00206615
0.00597518 0.00243858 -8.75236e-05
0.00243858 0.00136366 -0.000107994
-8.75236e-05 -0.000107994 0.0014352
0.00360051 -4.17222e-05 8.14029e-05
-4.17222e-05 0.000424361 6.59735e-06
8.14029e-05 6.59735e-06 0.000750378
0.00389869 -0.000271474 -0.000119426
-0.000271474 -0.00110602 1.04803e-05
-0.000119426 1.04803e-05 4.95209e-05
0.00527615 0.000575696 -4.58512e-05
0.000575696 -0.000778984 -2.39668e-05
-4.58512e-05 -2.39668e-05 0.00099573
0.00130672 -0.0010497 -0.00011032
-0.0010497 -0.00202503 8.24971e-05
-0.00011032 8.24971e-05 -0.00100535
0.00243647 -0.000820632 -0.000110441
-0.000820632 -0.00147045 8.5366e-06
-0.000110441 8.5366e-06 -0.000642887
0.00342585 -0.000551451 5.13042e-07
-0.000551451 -1.83802e-05 -6.23039e-06
5.13042e-07 -6.23039e-06 0.00054142
0.00257629 -0.000122129 -1.65885e-05
-0.000122129 -0.000227925 -2.70919e-06
-1.65885e-05 -2.70919e-06 5.73713e-05
0.00268503 -0.000329024 8.6151e-06
-0.000329024 -0.000333758 2.18577e-07
8.6151e-06 2.18577e-07 -1.89392e-06
0.00250548 9.83753e-05 2.96075e-06
9.83753e-05 -0.000412803 1.30008e-06
2.96075e-06 1.30008e-06 -0.00018384
0.0027239 -0.000785901 -2.05992e-05
-0.000785901 -0.000288361 9.37471e-06
-2.05992e-05 9.37471e-06 1.33266e-05
0.00279222 -0.000581624 -3.14715e-06
-0.000581624 -0.000252799 6.53223e-07
-3.14715e-06 6.53223e-07 1.85339e-06
0.00266201 -0.00039586 -6.78143e-07
-0.00039586 -0.000188058 -4.47118e-07
-6.78143e-07 -4.47118e-07 1.42329e-05
0.00279869 -0.000700634 -2.86193e-06
-0.000700634 3.21923e-05 1.21734e-06
-2.86193e-06 1.21734e-06 0.000106823
0.00260017 -0.000543391 2.88476e-07
-0.000543391 -0.000101079 -2.10138e-07
2.88476e-07 -2.10138e-07 -1.68722e-05
0.00246861 -0.000440259 8.76906e-07
-0.000440259 -6.17938e-05 -3.50213e-07
8.76906e-07 -3.50213e-07 -3.67971e-06
0.00254704 -0.000671828 -7.87687e-07
-0.000671828 1.31538e-05 7.01803e-07
-7.87687e-07 7.01803e-07 8.58533e-07
0.00245058 -0.00055003 3.97277e-07
-0.00055003 2.86472e-05 -1.46944e-07
3.97277e-07 -1.46944e-07 -4.80358e-06
0.00233612 -0.000489815 -4.92119e-07
-0.000489815 5.60773e-05 -6.23564e-08
-4.92119e-07 -6.23564e-08 -3.31232e-06
0.00249475 -0.000671382 1.59575e-06
-0.000671382 0.000117187 3.06255e-07
1.59575e-06 3.06255e-07 2.58294e-05
0.00234681 -0.000594472 5.5355e-07
-0.000594472 0.000120437 -1.24979e-07
5.5355e-07 -1.24979e-07 6.77929e-07
0.00237262 -0.000562127 -2.52144e-06
-0.000562127 0.000214577 4.4944e-07
-2.52144e-06 4.4944e-07 4.28649e-05
0.00223994 -0.000655455 6.73499e-07
-0.000655455 0.000129901 2.9648e-07
6.73499e-07 2.9648e-07 -5.64285e-05
0.00231185 -0.000632713 1.35263e-07
-0.000632713 0.00023701 -5.38025e-07
1.35263e-07 -5.38025e-07 8.17269e-06
0.00217247 -0.000569419 -2.5821e-06
-0.000569419 0.000222167 -1.96104e-06
-2.5821e-06 -1.96104e-06 -3.91532e-05
0.00230017 -0.000670708 1.76987e-07
-0.000670708 0.00028265 3.65953e-06
1.76987e-07 3.65953e-06 1.18243e-05
0.00225417 -0.000620278 -6.54825e-07
-0.000620278 0.000344078 -1.31935e-07
-6.54825e-07 -1.31935e-07 4.20028e-05
0.00145585 -0.000414972 -1.45648e-05
-0.000414972 5.47592e-05 5.42422e-06
-1.45648e-05 5.42422e-06 -0.000224454
0.000339821 -0.000266808 -1.87956e-05
-0.000266808 -0.00025642 2.12639e-05
-1.87956e-05 2.12639e-05 -0.000442364
0.0014928 -0.000480292 -3.54144e-09
-0.000480292 0.000105077 1.86838e-07
-3.54144e-09 1.86838e-07 -0.000217851
0.0021156 -0.000673571 3.70885e-06
-0.000673571 0.000299263 2.20261e-06
3.70885e-06 2.20261e-06 -6.93809e-05
0.00880936 -0.000165866 -0.000414736
-0.000165866 0.00535751 4.05486e-05
-0.000414736 4.05486e-05 0.00538444
0.000323558 -0.000291568 -1.2632e-06
-0.000291568 -0.000240393 9.83445e-07
-1.2632e-06 9.83445e-07 -0.000433625
0.00141088 -0.00052151 2.16487e-05
-0.00052151 0.000164409 -5.84367e-06
2.16487e-05 -5.84367e-06 -0.000203503
0.00894416 -0.000113444 -1.03531e-06
-0.000113444 0.00546439 1.99761e-06
-1.03531e-06 1.99761e-06 0.00548471
0.000100052 -0.000304054 2.52695e-05
-0.000304054 -0.000344031 -2.58849e-05
2.52695e-05 -2.58849e-05 -0.000545248
0.00886986 -8.68455e-05 0.000386394
-8.68455e-05 0.00544463 -4.25466e-05
0.000386394 -4.25466e-05 0.0054588
0.00206079 0.000857705 1.5204e-06
0.000857705 0.00017876 1.22374e-05
1.5204e-06 1.22374e-05 -0.000222656
0.00201328 0.000859814 2.31962e-06
0.000859814 0.000327531 -6.39739e-08
2.31962e-06 -6.39739e-08 -0.000138991
0.00230324 0.000826772 -7.3139e-07
0.000826772 0.000568829 1.1497e-05
-7.3139e-07 1.1497e-05 9.13403e-05
0.00212456 0.000968062 1.24589e-05
0.000968062 0.000608165 -1.02045e-05
1.24589e-05 -1.02045e-05 2.08795e-05
0.00191875 0.000823785 -2.02652e-07
0.000823785 0.00049455 1.58436e-06
-2.02652e-07 1.58436e-06 -3.83e-05
0.0006904 0.000408619 -2.53649e-05
0.000408619 -0.000137379 -1.03353e-06
-2.53649e-05 -1.03353e-06 -0.000483873
0.00218236 0.000705306 7.43151e-07
0.000705306 0.000799793 -6.23903e-06
7.43151e-07 -6.23903e-06 0.000310342
0.000594591 0.000310468 4.33961e-07
0.000310468 -5.79476e-05 -6.14819e-07
4.33961e-07 -6.14819e-07 -0.000363486
0.000334357 0.00028886 -3.39059e-05
0.00028886 -0.000179931 -2.78639e-05
-3.39059e-05 -2.78639e-05 -0.000340714
0.00169921 0.000216472 2.79889e-06
0.000216472 0.000696117 2.55974e-06
2.79889e-06 2.55974e-06 0.000443893
0.000298815 0.000221221 4.13935e-06
0.000221221 -0.000192039 -1.30929e-06
4.13935e-06 -1.30929e-06 -0.000320941
0.00746525 -0.000154057 -0.000257499
-0.000154057 0.00463257 -3.35724e-05
-0.000257499 -3.35724e-05 0.00460644
0.000314083 0.000179119 2.72359e-05
0.000179119 -0.000124781 2.4097e-05
2.72359e-05 2.4097e-05 -0.00024246
0.00591867 -0.000189073 -8.33027e-06
-0.000189073 0.00364195 -2.33747e-07
-8.33027e-06 -2.33747e-07 0.00361221
0.00436942 -0.000198696 8.70795e-05
-0.000198696 0.00263096 1.50478e-05
8.70795e-05 1.50478e-05 0.00260099
0.00156584 0.000368033 5.22736e-05
0.000368033 -0.000657655 1.66782e-05
5.22736e-05 1.66782e-05 -0.000169153
0.00166013 0.000636965 8.0098e-06
0.000636965 -0.0027426 -7.20333e-06
8.0098e-06 -7.20333e-06 -0.00110092
0.00561084 0.00118434 0.00029262
0.00118434 -0.00219899 0.000114246
0.00029262 0.000114246 0.00098172
0.00271254 0.00100565 -8.6995e-06
0.00100565 0.000375559 9.96263e-07
-8.6995e-06 9.96263e-07 2.93166e-05
0.00236109 0.00106575 -9.91175e-06
0.00106575 0.000386756 -5.39345e-06
-9.91175e-06 -5.39345e-06 -8.05081e-05
0.00248247 0.000761144 5.66852e-06
0.000761144 0.000199982 4.69641e-06
5.66852e-06 4.69641e-06 -3.56338e-05
0.00253592 0.000953128 1.52854e-06
0.000953128 0.00036177 4.01843e-07
1.52854e-06 4.01843e-07 -1.12387e-05
0.00197152 0.000916041 -7.04471e-06
0.000916041 0.000251025 -1.66348e-05
-7.04471e-06 -1.66348e-05 -0.000201858
0.00289315 0.000913289 -5.7461e-06
0.000913289 0.000202295 1.73308e-06
-5.7461e-06 1.73308e-06 3.73408e-05
0.00248063 0.00131425 -6.4398e-06
0.00131425 0.000608346 -8.74048e-06
-6.4398e-06 -8.74048e-06 3.44698e-05
0.00280012 0.00116716 -1.52412e-06
0.00116716 0.000408093 -1.30212e-06
-1.52412e-06 -1.30212e-06 1.56876e-05
0.00236655 0.000560272 -1.06858e-05
0.000560272 -0.000324511 -1.11603e-06
-1.06858e-05 -1.11603e-06 -0.000165681
0.00267067 0.00140137 -1.724e-05
0.00140137 0.000529971 1.98628e-05
-1.724e-05 1.98628e-05 -6.39353e-06
0.00290014 0.00112659 1.83288e-06
0.00112659 0.000306453 -4.51208e-06
1.83288e-06 -4.51208e-06 7.67885e-05
0.000562026 0.000533167 -2.2156e-05
0.000533167 -0.00105005 4.02192e-07
-2.2156e-05 4.02192e-07 -0.000686304
-0.00283898 0.000543807 -2.69895e-05
0.000543807 -0.00237568 -1.59438e-05
-2.69895e-05 -1.59438e-05 -0.00246659
0.00502548 0.00177135 -0.000189534
0.00177135 -0.000314148 -7.417e-05
-0.000189534 -7.417e-05 0.000734922
0.00274747 0.000200536 7.87986e-07
0.000200536 -0.000202523 -1.87404e-06
7.87986e-07 -1.87404e-06 4.30833e-05
0.00326221 -1.22219e-05 -7.35807e-06
-1.22219e-05 0.000229429 2.17781e-06
-7.35807e-06 2.17781e-06 0.000498021
0.00289972 -0.000348774 -0.000144616
-0.000348774 -0.00176459 -1.22929e-05
-0.000144616 -1.22929e-05 -0.000433839
0.00162389 -0.000465469 -9.98781e-05
-0.000465469 -0.00118039 2.31374e-05
-9.98781e-05 2.31374e-05 -0.000444688
0.00220688 -0.000131278 -1.65333e-05
-0.000131278 -0.000455683 -3.69057e-06
-1.65333e-05 -3.69057e-06 -0.000149423
0.00258068 -0.000342778 5.39188e-06
-0.000342778 -0.000424568 -7.16738e-07
5.39188e-06 -7.16738e-07 -4.82206e-05
0.00277498 0.000114851 -3.05714e-06
0.000114851 -0.000239847 -1.31297e-07
-3.05714e-06 -1.31297e-07 -2.61783e-05
0.00265792 -6.7091e-05 -2.38428e-06
-6.7091e-05 -0.000232605 -3.61057e-07
-2.38428e-06 -3.61057e-07 6.72143e-06
0.00283142 -0.000606301 -3.25087e-06
-0.000606301 -0.000236041 1.83689e-06
-3.25087e-06 1.83689e-06 -1.99503e-05
0.00259085 -0.000379382 3.08546e-07
-0.000379382 -0.000215711 -3.38007e-07
3.08546e-07 -3.38007e-07 -2.34797e-05
0.00249737 -0.000284119 1.35681e-06
-0.000284119 -0.000102363 -2.08369e-07
1.35681e-06 -2.08369e-07 3.36023e-05
0.00261798 -0.000547377 2.31064e-07
-0.000547377 -7.83067e-05 9.84286e-07
2.31064e-07 9.84286e-07 -1.56527e-06
0.00246632 -0.000438856 2.88945e-07
-0.000438856 -6.00424e-05 1.24013e-07
2.88945e-07 1.24013e-07 -5.54375e-06
0.00231016 -0.000369977 -5.38271e-08
-0.000369977 -8.87126e-06 -6.64272e-09
-5.38271e-08 -6.64272e-09 -7.0602e-06
0.00246437 -0.000548852 3.73701e-07
-0.000548852 3.10324e-05 3.90037e-07
3.73701e-07 3.90037e-07 -2.43637e-06
0.0023468 -0.000490866 3.94624e-07
-0.000490866 5.98414e-05 -3.6467e-08
3.94624e-07 -3.6467e-08 9.79819e-08
0.00233271 -0.000463841 -4.03572e-06
-0.000463841 0.000124513 6.8571e-07
-4.03572e-06 6.8571e-07 2.07975e-05
0.00233938 -0.000595282 1.64824e-06
-0.000595282 0.000111362 -3.28819e-07
1.64824e-06 -3.28819e-07 -8.80295e-06
0.0023184 -0.000556891 6.52085e-07
-0.000556891 0.000178372 -3.06033e-07
6.52085e-07 -3.06033e-07 7.44467e-06
0.00220916 -0.000496126 -1.76311e-06
-0.000496126 0.00019113 -1.70688e-06
-1.76311e-06 -1.70688e-06 -1.87569e-05
0.00219719 -0.000625351 7.33114e-07
-0.000625351 0.000159184 3.51584e-07
7.33114e-07 3.51584e-07 -6.85111e-05
0.00224258 -0.000573863 -7.55246e-07
-0.000573863 0.00027356 1.24712e-07
-7.55246e-07 1.24712e-07 1.14417e-05
0.0014542 -0.000362744 -1.09839e-05
-0.000362744 3.05284e-05 4.36202e-06
-1.09839e-05 4.36202e-06 -0.000214284
0.00224094 -0.0006215 2.39238e-06
-0.0006215 0.000336697 2.54879e-06
2.39238e-06 2.54879e-06 3.62133e-05
0.00148619 -0.000417922 -9.95541e-09
-0.000417922 6.74663e-05 2.18929e-07
-9.95541e-09 2.18929e-07 -0.000211128
0.00303988 -0.000273195 -6.11032e-05
-0.000273195 0.00148006 1.56559e-05
-6.11032e-05 1.56559e-05 0.0013334
0.00295249 -0.000153323 -0.000326607
-0.000153323 0.00155898 5.14252e-05
-0.000326607 5.14252e-05 0.00154201
0.00174553 -0.000290203 -1.88356e-05
-0.000290203 0.00065232 4.44327e-07
-1.88356e-05 4.44327e-07 0.000478879
0.00149572 -0.000478979 1.80835e-05
-0.000478979 0.000109218 -5.75443e-06
1.80835e-05 -5.75443e-06 -0.000212046
0.00859898 -0.00016798 -9.80677e-06
-0.00016798 0.00523286 2.99266e-06
-9.80677e-06 2.99266e-06 0.00525352
0.00011129 -0.00030965 2.30799e-05
-0.00030965 -0.00037794 -2.31993e-05
2.30799e-05 -2.31993e-05 -0.000576551
0.00891846 -0.000122764 0.000389131
-0.000122764 0.00545307 -4.44864e-05
0.000389131 -4.44864e-05 0.0054683
0.00233444 0.000593833 3.15232e-06
0.000593833 0.000123016 1.72727e-06
3.15232e-06 1.72727e-06 -3.90808e-05
0.00240619 0.000770556 5.84455e-06
0.000770556 0.000326525 8.42409e-06
5.84455e-06 8.42409e-06 1.93788e-05
0.00240865 0.000883108 8.20183e-07
0.000883108 0.000405879 8.36763e-08
8.20183e-07 8.36763e-08 8.00671e-06
0.00222234 0.000765031 1.57004e-06
0.000765031 0.000426793 1.05247e-05
1.57004e-06 1.05247e-05 1.76687e-05
0.00204637 0.000876169 7.75587e-06
0.000876169 0.000349222 -1.22514e-05
7.75587e-06 -1.22514e-05 -0.000119122
0.00208254 0.000802686 6.02021e-07
0.000802686 0.000424247 4.39846e-07
6.02021e-07 4.39846e-07 -4.85983e-05
0.00114273 0.000493486 -3.65067e-05
0.000493486 5.80709e-05 -2.66751e-06
-3.65067e-05 -2.66751e-06 -0.000305461
0.00183312 0.0008163 7.85486e-06
0.0008163 0.000427336 -8.45207e-06
7.85486e-06 -8.45207e-06 -0.000105484
0.000926763 0.000422565 -3.88309e-06
0.000422565 1.92759e-05 3.96291e-07
-3.88309e-06 3.96291e-07 -0.000325979
1.00402e-05 0.000321527 -3.17084e-05
0.000321527 -0.00039574 -2.51992e-05
-3.17084e-05 -2.51992e-05 -0.000586136
0.00125584 0.000300373 1.43225e-05
0.000300373 0.000358393 -8.05108e-07
1.43225e-05 -8.05108e-07 7.227e-05
0.000252849 0.000248563 2.9843e-06
0.000248563 -0.000233483 -1.05812e-06
2.9843e-06 -1.05812e-06 -0.000390572
0.00874947 -2.32593e-05 -0.000347014
-2.32593e-05 0.00539401 -3.97616e-05
-0.000347014 -3.97616e-05 0.00539237
0.000593322 0.000208312 3.29969e-05
0.000208312 -4.62424e-06 2.3514e-05
3.29969e-05 2.3514e-05 -0.00012908
0.00719097 -0.000155429 8.42045e-06
-0.000155429 0.00444144 -3.72315e-06
8.42045e-06 -3.72315e-06 0.0044202
0.00529668 -0.000235046 0.000117275
-0.000235046 0.00325931 1.99842e-05
0.000117275 1.99842e-05 0.0032141
0.00251764 0.000253613 -4.72674e-06
0.000253613 -0.000377533 1.00257e-06
-4.72674e-06 1.00257e-06 -8.91895e-05
0.00176743 0.000301757 9.99254e-06
0.000301757 -0.000828609 -3.73955e-06
9.99254e-06 -3.73955e-06 -0.000207982
0.00387385 0.000763632 -0.000177308
0.000763632 -0.00185548 -2.02872e-05
-0.000177308 -2.02872e-05 -0.000139479
0.0025588 0.000710079 -3.26547e-07
0.000710079 0.000134935 1.45988e-06
-3.26547e-07 1.45988e-06 -2.90175e-07
0.00266116 0.000990828 -4.47066e-06
0.000990828 0.000382933 -7.95425e-07
-4.47066e-06 -7.95425e-07 4.44143e-05
0.00231361 0.00108031 -2.7858e-06
0.00108031 0.000345187 -9.40794e-06
-2.7858e-06 -9.40794e-06 -0.000121239
0.00247556 0.000743049 1.3783e-06
0.000743049 0.000215702 1.28224e-06
1.3783e-06 1.28224e-06 -1.90827e-05
0.00267063 0.000958078 -1.64015e-06
0.000958078 0.000449193 -8.76824e-06
-1.64015e-06 -8.76824e-06 8.31474e-05
0.0027771 0.00055774 5.2025e-06
0.00055774 -4.47031e-05 1.09354e-06
5.2025e-06 1.09354e-06 5.38873e-05
0.00279566 0.000905285 -1.99446e-06
0.000905285 0.000161019 6.57618e-07
-1.99446e-06 6.57618e-07 3.2486e-06
0.00291667 0.00114024 4.28077e-06
0.00114024 0.000504183 -3.52617e-06
4.28077e-06 -3.52617e-06 0.000114971
0.00227766 0.000522852 2.43596e-09
0.000522852 -0.000312468 6.2313e-07
2.43596e-09 6.2313e-07 -0.000145341
0.00250855 0.001061 8.43309e-06
0.001061 7.51285e-05 -3.58131e-07
8.43309e-06 -3.58131e-07 -0.000145039
-0.000420124 0.000488102 -4.30409e-05
0.000488102 -0.00174048 -9.84735e-06
-4.30409e-05 -9.84735e-06 -0.00122721
0.00258941 0.00011282 -5.9818e-07
0.00011282 -0.000165644 3.95464e-08
-5.9818e-07 3.95464e-08 2.91504e-05
0.00264179 0.000190604 -2.86687e-07
0.000190604 -0.0002781 9.99135e-07
-2.86687e-07 9.99135e-07 -2.9098e-05
0.00288368 1.24183e-05 -5.76397e-05
1.24183e-05 5.61096e-06 -5.85732e-06
-5.76397e-05 -5.85732e-06 0.000229257
0.00245428 -0.000358693 -2.39103e-05
-0.000358693 -0.000537333 2.30609e-06
-2.39103e-05 2.30609e-06 -0.000114013
0.00307076 0.000136917 4.62963e-06
0.000136917 -4.46902e-05 2.04054e-06
4.62963e-06 2.04054e-06 0.000152123
0.00267466 -7.35547e-05 -1.01622e-06
-7.35547e-05 -0.000230227 -6.51181e-07
-1.01622e-06 -6.51181e-07 8.53396e-06
0.00235692 -8.20356e-05 8.20922e-07
-8.20356e-05 -0.000124806 3.15e-07
8.20922e-07 3.15e-07 -5.26038e-06
0.00251838 -0.000362139 9.5906e-07
-0.000362139 -0.000243684 -3.85208e-07
9.5906e-07 -3.85208e-07 -6.10463e-05
0.00245561 -0.000292701 -2.1084e-08
-0.000292701 -0.000123809 -2.32799e-08
-2.1084e-08 -2.32799e-08 3.0498e-06
0.00225482 -0.00024293 1.19813e-06
-0.00024293 -5.67935e-05 -4.42463e-07
1.19813e-06 -4.42463e-07 -1.87881e-05
0.00246181 -0.000437311 -1.14497e-06
-0.000437311 -5.9905e-05 8.26826e-07
-1.14497e-06 8.26826e-07 -8.89209e-06
0.00231738 -0.000369553 9.80394e-08
-0.000369553 -8.42405e-06 4.59751e-08
9.80394e-08 4.59751e-08 -6.7237e-06
0.00228662 -0.000355572 -4.71978e-06
-0.000355572 5.59194e-05 6.01571e-07
-4.71978e-06 6.01571e-07 5.42568e-06
0.00235749 -0.000491908 1.20535e-06
-0.000491908 6.32627e-05 -5.22768e-08
1.20535e-06 -5.22768e-08 3.18177e-06
0.00234171 -0.000464233 4.80575e-07
-0.000464233 0.00013191 -4.18395e-08
4.80575e-07 -4.18395e-08 2.76837e-05
0.00226352 -0.000415454 -1.96444e-06
-0.000415454 0.00019048 -1.15196e-06
-1.96444e-06 -1.15196e-06 3.11302e-05
0.00225766 -0.000551106 2.60701e-06
-0.000551106 0.000138099 -6.35943e-07
2.60701e-06 -6.35943e-07 -3.19179e-05
0.00224194 -0.000499556 -7.93663e-07
-0.000499556 0.000210553 1.0698e-07
-7.93663e-07 1.0698e-07 -9.11894e-08
0.00144325 -0.000310003 -8.57164e-06
-0.000310003 3.81501e-06 3.27e-06
-8.57164e-06 3.27e-06 -0.000211499
0.00231235 -0.000578319 2.29436e-06
-0.000578319 0.000324798 1.61682e-06
2.29436e-06 1.61682e-06 6.18734e-05
0.00148881 -0.000367208 -9.20537e-08
-0.000367208 4.15431e-05 2.64503e-07
-9.20537e-08 2.64503e-07 -0.000203049
0.00296751 -0.000249545 -6.74686e-05
-0.000249545 0.00143498 1.4827e-05
-6.74686e-05 1.4827e-05 0.00130315
0.00152272 -0.000422462 1.329e-05
-0.000422462 8.28049e-05 -5.09416e-06
1.329e-05 -5.09416e-06 -0.000195627
0.00313931 -0.000304948 5.82355e-05
-0.000304948 0.00154819 -1.01953e-05
5.82355e-05 -1.01953e-05 0.00141284
0.00275298 -0.000174023 -0.000313581
-0.000174023 0.00144106 5.43637e-05
-0.000313581 5.43637e-05 0.00141994
0.00548967 -0.000193695 -0.00030586
-0.000193695 0.00322531 3.91842e-05
-0.00030586 3.91842e-05 0.00322539
0.0032783 -0.000369584 0.000193915
-0.000369584 0.00165544 -3.52489e-05
0.000193915 -3.52489e-05 0.00151566
0.0084598 -0.000178721 0.00038718
-0.000178721 0.00515136 -4.82584e-05
0.00038718 -4.82584e-05 0.00516839
0.00242521 0.000568442 5.38214e-07
0.000568442 0.00012346 -8.39464e-07
5.38214e-07 -8.39464e-07 2.86961e-05
0.00218614 0.000608558 1.03943e-06
0.000608558 0.000148975 3.3403e-06
1.03943e-06 3.3403e-06 -6.9308e-05
0.00233518 0.00058388 6.48283e-07
0.00058388 0.000129997 3.99882e-08
6.48283e-07 3.99882e-08 -2.0435e-05
0.00224644 0.000670927 6.39885e-08
0.000670927 0.000344757 7.90573e-06
6.39885e-08 7.90573e-06 1.65279e-05
0.00245566 0.000775796 1.29319e-08
0.000775796 0.000345505 -3.36119e-07
1.29319e-08 -3.36119e-07 3.81392e-05
0.00282545 0.000915455 -1.24839e-06
0.000915455 0.000678785 -1.13666e-05
-1.24839e-06 -1.13666e-05 0.000282968
0.0021473 0.000760565 1.04533e-06
0.000760565 0.000370902 3.34293e-07
1.04533e-06 3.34293e-07 -3.81935e-05
0.00149234 0.000522904 -3.35317e-05
0.000522904 0.000148707 -4.06866e-06
-3.35317e-05 -4.06866e-06 -0.000196791
0.00192905 0.000787443 4.17283e-06
0.000787443 0.000322374 -1.03115e-05
4.17283e-06 -1.03115e-05 -0.00014829
0.00124398 0.000514345 -3.40459e-06
0.000514345 9.81533e-05 -1.19834e-07
-3.40459e-06 -1.19834e-07 -0.000271303
0.000190941 0.000313565 -2.8042e-05
0.000313565 -0.000311669 -2.25248e-05
-2.8042e-05 -2.25248e-05 -0.00051207
0.00121641 0.000434431 2.65583e-05
0.000434431 0.000209703 5.03216e-06
2.65583e-05 5.03216e-06 -0.000132374
0.000250006 0.000287902 2.22141e-06
0.000287902 -0.000254409 2.30567e-06
2.22141e-06 2.30567e-06 -0.000436275
0.00902774 7.74842e-05 -0.000373976
7.74842e-05 0.00553349 -4.49672e-05
-0.000373976 -4.49672e-05 0.00553944
0.000171283 0.000210948 2.67736e-05
0.000210948 -0.000297835 2.62015e-05
2.67736e-05 2.62015e-05 -0.000446226
0.0081638 -6.75682e-05 1.11935e-05
-6.75682e-05 0.00501787 -2.09307e-06
1.11935e-05 -2.09307e-06 0.0050146
0.00678031 -0.000178303 0.000200196
-0.000178303 0.00417362 1.89216e-05
0.000200196 1.89216e-05 0.00415093
0.0026177 0.000321065 2.51395e-06
0.000321065 -0.000146328 -1.08967e-07
2.51395e-06 -1.08967e-07 1.82454e-05
0.0024361 0.000256286 2.40765e-06
0.000256286 -0.000350042 -1.3752e-06
2.40765e-06 -1.3752e-06 -6.66901e-05
0.000804929 0.000243276 -6.05691e-05
0.000243276 -0.00174375 -1.99763e-06
-6.05691e-05 -1.99763e-06 -0.000938336
0.0024872 0.000491144 4.01454e-06
0.000491144 -2.593e-05 9.5047e-07
4.01454e-06 9.5047e-07 -4.83582e-06
0.00251685 0.000703613 -1.39352e-06
0.000703613 0.000121859 2.71599e-07
-1.39352e-06 2.71599e-07 -9.39938e-06
0.00259539 0.000972036 7.27962e-06
0.000972036 0.000381578 -3.24025e-06
7.27962e-06 -3.24025e-06 5.26997e-05
0.00247587 0.000725657 -3.99581e-06
0.000725657 0.000234251 -4.07356e-06
-3.99581e-06 -4.07356e-06 1.29323e-06
0.00272644 0.00054262 -2.46435e-06
0.00054262 -6.27469e-05 -2.87786e-07
-2.46435e-06 -2.87786e-07 3.32182e-05
0.00268675 0.000891694 2.04534e-06
0.000891694 0.000122264 -2.6961e-06
2.04534e-06 -2.6961e-06 -2.79346e-05
0.00217987 0.000507668 8.74115e-06
0.000507668 -0.000261789 -1.1627e-06
8.74115e-06 -1.1627e-06 -9.8673e-05
0.00241956 8.74949e-05 1.35544e-06
8.74949e-05 -9.10738e-05 4.36958e-07
1.35544e-06 4.36958e-07 1.88453e-05
0.00251959 0.000113707 2.17837e-07
0.000113707 -0.000199108 -2.5123e-07
2.17837e-07 -2.5123e-07 -8.7602e-06
0.0025289 0.000185956 -8.57933e-06
0.000185956 -0.000354002 -9.23285e-07
-8.57933e-06 -9.23285e-07 -0.000104327
0.00224385 -1.55266e-05 -2.55664e-08
-1.55266e-05 -8.98179e-05 3.75754e-07
-2.55664e-08 3.75754e-07 -1.55955e-05
0.00268612 -8.47396e-05 3.54596e-06
-8.47396e-05 -0.000233997 -3.8338e-07
3.54596e-06 -3.8338e-07 5.78386e-06
0.00236531 -8.63824e-05 -4.21066e-07
-8.63824e-05 -0.000119747 2.94069e-07
-4.21066e-07 2.94069e-07 -1.08388e-06
0.00220288 -0.000127611 2.47656e-07
-0.000127611 -7.52849e-05 5.06792e-08
2.47656e-07 5.06792e-08 -2.87586e-05
0.00241269 -0.000301284 -1.18501e-06
-0.000301284 -0.000145848 3.85217e-07
-1.18501e-06 3.85217e-07 -2.83015e-05
0.00225963 -0.000239399 6.70875e-07
-0.000239399 -5.49541e-05 -3.52648e-07
6.70875e-07 -3.52648e-07 -1.61306e-05
0.00225116 -0.00024355 -3.77269e-06
-0.00024355 3.32794e-05 6.52131e-07
-3.77269e-06 6.52131e-07 9.4144e-06
0.00232718 -0.000368833 4.06683e-07
-0.000368833 -6.35317e-06 -3.50175e-09
4.06683e-07 -3.50175e-09 -4.71917e-06
0.00231811 -0.0003563 1.8112e-07
-0.0003563 7.80838e-05 -2.06367e-07
1.8112e-07 -2.06367e-07 2.69999e-05
0.0022362 -0.000331058 -1.87738e-06
-0.000331058 0.000142067 -4.02818e-08
-1.87738e-06 -4.02818e-08 2.4859e-05
0.00235266 -0.000464642 4.36181e-06
-0.000464642 0.000141255 -6.27888e-07
4.36181e-06 -6.27888e-07 3.65078e-05
0.00220672 -0.000412453 -8.76284e-07
-0.000412453 0.000147368 -2.33378e-07
-8.76284e-07 -2.33378e-07 -1.16298e-05
0.00137955 -0.00025394 -5.50393e-06
-0.00025394 -4.32214e-05 2.48479e-06
-5.50393e-06 2.48479e-06 -0.00023336
0.00228178 -0.000503265 2.41272e-06
-0.000503265 0.000235073 1.12528e-06
2.41272e-06 1.12528e-06 2.3672e-05
0.0014614 -0.000311054 -3.08381e-07
-0.000311054 6.02073e-06 9.32742e-08
-3.08381e-07 9.32742e-08 -0.000208195
0.00283759 -0.000222351 -7.23909e-05
-0.000222351 0.00136007 1.38195e-05
-7.23909e-05 1.38195e-05 0.00123975
0.00151603 -0.000371308 9.738e-06
-0.000371308 4.74474e-05 -3.97365e-06
9.738e-06 -3.97365e-06 -0.000196841
0.003041 -0.000265213 5.29952e-05
-0.000265213 0.00148308 -7.90889e-06
5.29952e-05 -7.90889e-06 0.00136331
0.00269522 -0.000145824 -0.000303346
-0.000145824 0.00139833 4.66152e-05
-0.000303346 4.66152e-05 0.00138011
0.00322058 -0.000306827 0.000181652
-0.000306827 0.00159574 -3.46094e-05
0.000181652 -3.46094e-05 0.00147571
0.00233157 -0.000109272 -0.000119994
-0.000109272 0.00116678 1.97102e-05
-0.000119994 1.97102e-05 0.00112845
0.00781196 -0.000114164 0.000140175
-0.000114164 0.00471548 -1.03478e-05
0.000140175 -1.03478e-05 0.00469476
0.0024036 0.000474968 9.56431e-08
0.000474968 8.35335e-05 -8.73058e-08
9.56431e-08 -8.73058e-08 3.34076e-05
0.00233535 0.000546231 -2.78038e-06
0.000546231 0.000146258 -1.02663e-06
-2.78038e-06 -1.02663e-06 1.0474e-06
0.00241589 0.000564317 -2.90705e-06
0.000564317 0.000116999 1.73762e-07
-2.90705e-06 1.73762e-07 1.81362e-05
0.00212288 0.000564406 -2.14639e-06
0.000564406 0.000182119 3.08819e-06
-2.14639e-06 3.08819e-06 -8.09978e-05
0.00224052 0.00062612 -1.09149e-06
0.00062612 0.000160319 -2.17402e-06
-1.09149e-06 -2.17402e-06 -5.08496e-05
0.00232791 0.000571869 -6.40178e-06
0.000571869 0.000132539 -3.6422e-06
-6.40178e-06 -3.6422e-06 -5.8949e-06
0.00155936 0.000458434 -2.44689e-05
0.000458434 8.38185e-05 -3.85883e-06
-2.44689e-05 -3.85883e-06 -0.00020728
0.00217181 0.000665937 1.45989e-06
0.000665937 0.00029149 3.67002e-07
1.45989e-06 3.67002e-07 -3.57526e-05
0.00251989 0.000782241 3.82427e-07
0.000782241 0.000374614 -8.27829e-06
3.82427e-07 -8.27829e-06 6.64098e-05
0.00206069 0.000754175 -1.53099e-09
0.000754175 0.000308695 -9.78539e-06
-1.53099e-09 -9.78539e-06 -9.98245e-05
0.0014832 0.000525144 -7.454e-07
0.000525144 0.000139862 1.46959e-07
-7.454e-07 1.46959e-07 -0.000207984
0.00034876 0.000306288 -2.5607e-05
0.000306288 -0.000238092 -2.02783e-05
-2.5607e-05 -2.02783e-05 -0.000432302
0.00146544 0.000538341 3.88735e-05
0.000538341 0.000221549 5.01124e-06
3.88735e-05 5.01124e-06 -0.000152448
0.000138377 0.000298096 9.88909e-07
0.000298096 -0.000334529 1.25996e-06
9.88909e-07 1.25996e-06 -0.000532212
0.00855318 0.00016682 -0.00037275
0.00016682 0.00522153 -5.12979e-05
-0.00037275 -5.12979e-05 0.00522648
0.000206273 0.00024913 2.57943e-05
0.00024913 -0.000283092 2.53267e-05
2.57943e-05 2.53267e-05 -0.000459433
0.00889586 3.84949e-05 7.00117e-06
3.84949e-05 0.00544465 9.51163e-07
7.00117e-06 9.51163e-07 0.00545525
0.00799605 -0.000101317 0.000276266
-0.000101317 0.00490745 2.08615e-05
0.000276266 2.08615e-05 0.00490511
0.00240607 0.000261846 1.42546e-06
0.000261846 -7.34513e-05 -1.23536e-07
1.42546e-06 -1.23536e-07 5.48952e-06
0.00258961 0.000328057 -9.26115e-07
0.000328057 -0.000185458 2.82078e-07
-9.26115e-07 2.82078e-07 -1.4986e-05
0.00235913 0.000248135 -9.45905e-07
0.000248135 -0.000357068 2.09721e-07
-9.45905e-07 2.09721e-07 -7.15167e-05
0.0024756 0.000485904 -1.16325e-07
0.000485904 -3.12017e-05 6.9133e-08
-1.16325e-07 6.9133e-08 -8.11849e-06
0.00247988 0.000698918 -9.36524e-07
0.000698918 0.000112397 -2.11403e-06
-9.36524e-07 -2.11403e-06 -1.56968e-05
0.00265484 0.000526429 -2.36574e-07
0.000526429 -0.000106821 -6.50587e-07
-2.36574e-07 -6.50587e-07 -1.08091e-05
0.0023005 8.31711e-05 1.042e-06
8.31711e-05 -5.69474e-05 2.89507e-07
1.042e-06 2.89507e-07 6.18236e-06
0.00240463 8.73631e-05 1.64006e-07
8.73631e-05 -9.58215e-05 -2.07822e-07
1.64006e-07 -2.07822e-07 1.34924e-05
0.00246592 0.000114858 1.23044e-07
0.000114858 -0.000220104 2.00307e-07
1.23044e-07 2.00307e-07 -3.47347e-05
0.00225989 -1.20608e-05 -5.6675e-07
-1.20608e-05 -7.66461e-05 5.90264e-08
-5.6675e-07 5.90264e-08 -4.49519e-06
0.00223008 -3.38187e-05 -1.64836e-06
-3.38187e-05 4.0236e-06 4.15139e-07
-1.64836e-06 4.15139e-07 3.77107e-05
0.00237659 -9.04442e-05 -1.02342e-06
-9.04442e-05 -0.000112795 8.20913e-08
-1.02342e-06 8.20913e-08 5.09534e-06
0.00222996 -0.000129282 -1.07641e-06
-0.000129282 -4.81091e-05 1.95344e-07
-1.07641e-06 1.95344e-07 -6.98209e-06
0.00212277 -0.00014967 -4.43316e-06
-0.00014967 -4.49605e-05 7.84681e-07
-4.43316e-06 7.84681e-07 -5.3053e-05
0.00226059 -0.000236171 4.39303e-07
-0.000236171 -5.54227e-05 -3.42464e-07
4.39303e-07 -3.42464e-07 -1.58308e-05
0.00225574 -0.000243851 1.36186e-06
-0.000243851 3.82716e-05 -3.43243e-07
1.36186e-06 -3.43243e-07 1.42264e-05
0.00217623 -0.000243474 -1.01786e-06
-0.000243474 7.68106e-05 2.13554e-07
-1.01786e-06 2.13554e-07 -1.14668e-05
0.0023461 -0.000357938 4.83442e-06
-0.000357938 9.81298e-05 -1.03231e-06
4.83442e-06 -1.03231e-06 4.62559e-05
0.00219857 -0.000328983 -3.77723e-07
-0.000328983 0.000115547 -1.3245e-07
-3.77723e-07 -1.3245e-07 -1.20485e-06
0.00137063 -0.000202252 -3.30597e-06
-0.000202252 -4.76636e-05 1.65339e-06
-3.30597e-06 1.65339e-06 -0.000216772
0.00214798 -0.000409563 2.0396e-06
-0.000409563 0.000101661 1.50758e-07
2.0396e-06 1.50758e-07 -5.70078e-05
0.00142302 -0.000254685 -3.08346e-07
-0.000254685 -2.08635e-05 1.00053e-07
-3.08346e-07 1.00053e-07 -0.000209704
0.00272575 -0.00020463 -7.33315e-05
-0.00020463 0.00129879 1.18368e-05
-7.33315e-05 1.18368e-05 0.00118858
0.00147907 -0.000312238 6.87236e-06
-0.000312238 7.49394e-06 -3.07582e-06
6.87236e-06 -3.07582e-06 -0.0002056
0.00293629 -0.000219819 4.99423e-05
-0.000219819 0.00141883 -6.08606e-06
4.99423e-05 -6.08606e-06 0.00131227
0.00261649 -0.000118355 -0.000296053
-0.000118355 0.00134477 3.8435e-05
-0.000296053 3.8435e-05 0.00132864
0.00312314 -0.000253861 0.000175626
-0.000253861 0.00152712 -2.87788e-05
0.000175626 -2.87788e-05 0.00142352
0.00227917 -0.00010318 -0.000109196
-0.00010318 0.0011339 1.51923e-05
-0.000109196 1.51923e-05 0.00109735
0.0019581 -0.000102505 8.18524e-05
-0.000102505 0.00094103 -1.41986e-05
8.18524e-05 -1.41986e-05 0.000878277
0.00227635 0.00029538 8.62898e-07
0.00029538 -2.85546e-05 1.18777e-07
8.62898e-07 1.18777e-07 -2.10333e-05
0.00234878 0.000440239 -4.40363e-06
0.000440239 0.000121233 -6.03264e-07
-4.40363e-06 -6.03264e-07 2.69356e-05
0.00238096 0.000475647 -4.4489e-07
0.000475647 4.85323e-05 -2.04611e-07
-4.4489e-07 -2.04611e-07 9.86682e-06
0.00228047 0.000513544 -1.2838e-06
0.000513544 0.000209228 5.94684e-07
-1.2838e-06 5.94684e-07 6.62989e-06
0.00230376 0.000541039 -7.29942e-07
0.000541039 0.000132115 -2.69114e-07
-7.29942e-07 -2.69114e-07 -1.78303e-05
0.00241584 0.000562456 -4.68465e-07
0.000562456 0.000116983 4.11111e-07
-4.68465e-07 4.11111e-07 1.33959e-05
0.00150535 0.00038036 -1.70412e-05
0.00038036 2.91729e-05 -3.78801e-06
-1.70412e-05 -3.78801e-06 -0.00021482
0.0021583 0.00057258 4.92916e-07
0.00057258 0.000196624 -1.33454e-06
4.92916e-07 -1.33454e-06 -5.74763e-05
0.00233218 0.000647846 -3.58946e-06
0.000647846 0.000196286 -5.53452e-06
-3.58946e-06 -5.53452e-06 -8.47245e-06
0.000378778 0.000242338 -2.21488e-05
0.000242338 -0.000243832 -1.67433e-05
-2.21488e-05 -1.67433e-05 -0.000413722
0.001526 0.000450691 -9.19295e-08
0.000450691 7.40802e-05 2.71394e-07
-9.19295e-08 2.71394e-07 -0.000216115
0.00208869 0.000660129 1.49952e-06
0.000660129 0.000232466 -7.82459e-06
1.49952e-06 -7.82459e-06 -9.36402e-05
0.00145011 0.000527422 3.55589e-05
0.000527422 0.000112249 4.59827e-06
3.55589e-05 4.59827e-06 -0.000238432
0.000299014 0.000291943 -3.43865e-08
0.000291943 -0.000266827 9.65848e-07
-3.43865e-08 9.65848e-07 -0.000460419
0.00816486 0.000256958 -0.000371742
0.000256958 0.00496949 -5.5326e-05
-0.000371742 -5.5326e-05 0.00497161
0.000297876 0.00028721 2.62872e-05
0.00028721 -0.00022869 2.08481e-05
2.62872e-05 2.08481e-05 -0.000423005
0.00873034 0.000144526 1.00401e-05
0.000144526 0.00532154 2.04901e-06
1.00401e-05 2.04901e-06 0.00533521
0.00870254 -9.67316e-08 0.0003376
-9.67316e-08 0.00531459 2.79056e-05
0.0003376 2.79056e-05 0.00532548
0.0023042 0.000160007 7.9103e-07
0.000160007 -2.39582e-05 -2.26523e-07
7.9103e-07 -2.26523e-07 2.64729e-05
0.00237108 0.000265923 5.63729e-07
0.000265923 -0.000102803 3.3702e-07
5.63729e-07 3.3702e-07 -2.5228e-05
0.00256115 0.000336092 -7.67654e-07
0.000336092 -0.000219794 9.4651e-07
-7.67654e-07 9.4651e-07 -4.42035e-05
0.00246898 0.000479656 -1.37603e-06
0.000479656 -3.35769e-05 -7.82241e-07
-1.37603e-06 -7.82241e-07 -8.87118e-06
0.00219646 3.66554e-05 -2.00557e-06
3.66554e-05 1.29572e-05 3.23644e-07
-2.00557e-06 3.23644e-07 2.55336e-05
0.00229878 7.34784e-05 6.06964e-09
7.34784e-05 -6.06891e-05 -3.53246e-08
6.06964e-09 -3.53246e-08 4.96163e-06
0.00238248 8.68366e-05 -5.84574e-07
8.68366e-05 -0.000106021 -2.87833e-07
-5.84574e-07 -2.87833e-07 2.73395e-06
0.00227683 -8.07387e-06 -2.77346e-06
-8.07387e-06 -6.24835e-05 -5.27271e-07
-2.77346e-06 -5.27271e-07 7.31549e-06
0.00223577 -2.76173e-05 -6.3577e-07
-2.76173e-05 9.18681e-07 -1.4665e-07
-6.3577e-07 -1.4665e-07 3.8082e-05
0.00214579 -6.00223e-05 -4.82039e-06
-6.00223e-05 -6.70523e-06 7.43778e-07
-4.82039e-06 7.43778e-07 -1.67889e-05
0.00225877 -0.00013094 1.68947e-07
-0.00013094 -1.94897e-05 2.04963e-07
1.68947e-07 2.04963e-07 1.59487e-05
0.00218198 -0.000151227 -1.72838e-06
-0.000151227 4.6866e-06 3.27128e-07
-1.72838e-06 3.27128e-07 -1.07815e-05
0.00218666 -0.000159695 -1.57959e-06
-0.000159695 7.06188e-05 4.30752e-07
-1.57959e-06 4.30752e-07 6.08991e-06
0.00226593 -0.000243438 6.33625e-06
-0.000243438 4.57053e-05 -1.30404e-06
6.33625e-06 -1.30404e-06 2.1652e-05
0.00221272 -0.000241415 7.25461e-07
-0.000241415 0.000106507 -2.82188e-07
7.25461e-07 -2.82188e-07 1.92755e-05
0.00138653 -0.000152289 -3.41811e-06
-0.000152289 -3.56521e-05 9.75545e-07
-3.41811e-06 9.75545e-07 -0.000187067
0.00217913 -0.000325535 2.01566e-06
-0.000325535 0.000102568 -4.77574e-07
2.01566e-06 -4.77574e-07 -1.32293e-05
0.00139282 -0.000202114 -1.53011e-07
-0.000202114 -3.71981e-05 1.50581e-07
-1.53011e-07 1.50581e-07 -0.000205323
0.000287689 -0.000108218 -1.67918e-05
-0.000108218 -0.000298453 6.91177e-06
-1.67918e-05 6.91177e-06 -0.000415196
0.00146221 -0.000255075 4.44356e-06
-0.000255075 -9.22346e-08 -2.28629e-06
4.44356e-06 -2.28629e-06 -0.000187556
0.00160454 -0.000145007 7.45288e-05
-0.000145007 0.000553833 -6.27181e-06
7.45288e-05 -6.27181e-06 0.000449408
0.00727308 -0.00019309 -0.000393219
-0.00019309 0.00439593 3.2736e-05
-0.000393219 3.2736e-05 0.00442456
0.00304318 -0.000201265 0.00017046
-0.000201265 0.00147734 -2.25565e-05
0.00017046 -2.25565e-05 0.00138684
0.00222531 -9.37089e-05 -9.94288e-05
-9.37089e-05 0.00110361 9.8612e-06
-9.94288e-05 9.8612e-06 0.00106738
0.00185896 -0.000115221 9.25263e-05
-0.000115221 0.000886502 -1.5569e-05
9.25263e-05 -1.5569e-05 0.00082308
0.00221785 0.000195034 -2.22803e-07
0.000195034 -8.43424e-06 -6.30169e-07
-2.22803e-07 -6.30169e-07 -2.14538e-06
0.00231047 0.00033484 -2.96128e-06
0.00033484 7.24926e-05 -2.14149e-07
-2.96128e-06 -2.14149e-07 1.90548e-05
0.00229466 0.000287645 -4.77874e-07
0.000287645 -2.32664e-06 -1.13312e-07
-4.77874e-07 -1.13312e-07 -1.14878e-06
0.00231754 0.00041355 -9.00764e-07
0.00041355 0.000208755 7.85298e-07
-9.00764e-07 7.85298e-07 6.5057e-05
0.00228381 0.000436849 6.51099e-07
0.000436849 7.76151e-05 1.31896e-07
6.51099e-07 1.31896e-07 -1.56506e-05
0.00235624 0.000475796 -8.36915e-07
0.000475796 1.17617e-05 -2.69399e-07
-8.36915e-07 -2.69399e-07 -1.54061e-05
0.00163382 0.000332605 -9.92351e-06
0.000332605 0.000119916 -1.3866e-06
-9.92351e-06 -1.3866e-06 -8.3188e-05
0.00222681 0.000504676 -3.99508e-07
0.000504676 0.000175533 -3.64313e-07
-3.99508e-07 -3.64313e-07 -2.58963e-05
0.00226215 0.000533564 1.99472e-06
0.000533564 0.000111895 -1.11195e-06
1.99472e-06 -1.11195e-06 -4.236e-05
0.000359067 0.000176031 -1.86918e-05
0.000176031 -0.000264163 -1.28066e-05
-1.86918e-05 -1.28066e-05 -0.000410369
0.00150972 0.000377446 5.18487e-07
0.000377446 4.09123e-05 4.67869e-07
5.18487e-07 4.67869e-07 -0.000197596
0.00215355 0.000575805 2.25914e-06
0.000575805 0.000185677 -6.83508e-06
2.25914e-06 -6.83508e-06 -5.86462e-05
0.00781188 0.000310442 -0.000373995
0.000310442 0.00474231 -5.37531e-05
-0.000373995 -5.37531e-05 0.00474516
0.000334115 0.000239529 3.67184e-07
0.000239529 -0.000277146 7.3094e-07
3.67184e-07 7.3094e-07 -0.000448809
0.00147225 0.00044147 2.63343e-05
0.00044147 5.13567e-05 4.26886e-06
2.63343e-05 4.26886e-06 -0.000237694
0.000241535 0.000278684 2.31775e-05
0.000278684 -0.000300234 2.05202e-05
2.31775e-05 2.05202e-05 -0.000493301
0.00823918 0.000254511 9.77728e-06
0.000254511 0.00501361 2.8778e-06
9.77728e-06 2.8778e-06 0.00502177
0.00875108 0.000120052 0.000392626
0.000120052 0.00531978 3.65598e-05
0.000392626 3.65598e-05 0.00534207
0.002148 0.000100252 -2.96333e-06
0.000100252 -1.21358e-05 -7.65699e-08
-2.96333e-06 -7.65699e-08 -7.86895e-06
0.00229687 0.000154416 -1.46367e-07
0.000154416 -2.86799e-05 7.40211e-08
-1.46367e-07 7.40211e-08 1.89192e-05
0.00233826 0.000269593 -1.00463e-06
0.000269593 -0.000129766 3.63719e-07
-1.00463e-06 3.63719e-07 -5.34122e-05
0.00218952 1.80322e-05 -6.47259e-06
1.80322e-05 3.94093e-05 2.91912e-07
-6.47259e-06 2.91912e-07 1.96556e-05
0.00216381 4.30842e-05 7.45218e-07
4.30842e-05 -1.34794e-05 1.19342e-08
7.45218e-07 1.19342e-08 3.24365e-06
0.00229929 6.28945e-05 -1.42619e-06
6.28945e-05 -6.31792e-05 -2.6024e-07
-1.42619e-06 -2.6024e-07 5.1529e-06
0.00224086 -2.16508e-05 5.94753e-07
-2.16508e-05 -3.07319e-06 -3.89113e-07
5.94753e-07 -3.89113e-07 3.79834e-05
0.00214578 -5.86605e-05 -5.46572e-07
-5.86605e-05 -7.65129e-06 2.39945e-08
-5.46572e-07 2.39945e-08 -1.66475e-05
0.00210899 -7.45091e-05 -1.28874e-06
-7.45091e-05 3.10305e-05 5.27303e-07
-1.28874e-06 5.27303e-07 -3.80899e-05
0.00224065 -0.000152932 4.35136e-06
-0.000152932 5.46355e-05 -6.36032e-07
4.35136e-06 -6.36032e-07 3.19181e-05
0.00216848 -0.000161544 8.189e-07
-0.000161544 6.86101e-05 -3.34754e-08
8.189e-07 -3.34754e-08 -5.96732e-06
0.00151128 -9.61354e-05 -3.98401e-06
-9.61354e-05 5.14581e-05 3.33743e-07
-3.98401e-06 3.33743e-07 -7.27063e-05
0.00222655 -0.000240458 2.49943e-06
-0.000240458 0.000121027 -8.58368e-07
2.49943e-06 -8.58368e-07 3.43733e-05
0.00137703 -0.000148502 6.04179e-08
-0.000148502 -4.79111e-05 2.69401e-08
6.04179e-08 2.69401e-08 -0.000198279
0.000276377 -3.77356e-05 -1.54354e-05
-3.77356e-05 -0.000303487 3.87768e-06
-1.54354e-05 3.87768e-06 -0.000408701
0.00143173 -0.000201272 2.59722e-06
-0.000201272 -1.86004e-05 -1.41899e-06
2.59722e-06 -1.41899e-06 -0.000185484
0.000317632 -9.31182e-05 -4.88305e-07
-9.31182e-05 -0.000276328 5.13534e-07
-4.88305e-07 5.13534e-07 -0.000392439
0.00716183 -8.38881e-05 -0.000381495
-8.38881e-05 0.00431632 2.10197e-05
-0.000381495 2.10197e-05 0.00435181
0.000419161 -0.000104105 1.25971e-05
-0.000104105 -0.000219569 -9.2177e-06
1.25971e-05 -9.2177e-06 -0.000345439
0.00464462 -0.000127147 0.000162659
-0.000127147 0.00268916 -9.77367e-06
0.000162659 -9.77367e-06 0.00267364
0.00181283 -0.000101281 9.7084e-05
-0.000101281 0.000860157 -1.4447e-05
9.7084e-05 -1.4447e-05 0.000798922
0.0022308 0.000163062 -5.09398e-06
0.000163062 6.39597e-05 -7.45204e-07
-5.09398e-06 -7.45204e-07 6.07595e-05
0.00228602 0.000239472 -5.16808e-06
0.000239472 8.55652e-05 -5.77059e-07
-5.16808e-06 -5.77059e-07 3.93499e-05
0.00221073 0.000187762 -6.85427e-07
0.000187762 -7.49709e-06 -2.85947e-07
-6.85427e-07 -2.85947e-07 -7.3445e-07
0.00229878 0.000328441 -7.86164e-07
0.000328441 0.000188058 3.41951e-07
-7.86164e-07 3.41951e-07 6.8436e-05
0.00232739 0.000331933 -8.61623e-08
0.000331933 8.43119e-05 -8.30493e-08
-8.61623e-08 -8.30493e-08 2.96591e-05
0.00231385 0.00028034 6.44341e-07
0.00028034 2.50884e-05 9.77536e-08
6.44341e-07 9.77536e-08 1.98797e-05
0.00153341 0.000263006 -4.50943e-06
0.000263006 5.96634e-05 -1.00503e-06
-4.50943e-06 -1.00503e-06 -0.00011555
0.00217891 0.000405064 1.83092e-06
0.000405064 0.000122558 3.46638e-07
1.83092e-06 3.46638e-07 -3.08161e-05
0.0022122 0.00043349 3.68241e-06
0.00043349 2.94247e-05 8.21338e-08
3.68241e-06 8.21338e-08 -6.26485e-05
0.000333014 0.000127826 -1.65577e-05
0.000127826 -0.00027852 -9.46778e-06
-1.65577e-05 -9.46778e-06 -0.000409488
0.00154827 0.000322417 1.66556e-06
0.000322417 6.93909e-05 1.05758e-06
1.66556e-06 1.05758e-06 -0.000130925
0.0021758 0.000497007 1.09602e-06
0.000497007 0.000143642 -1.70186e-06
1.09602e-06 -1.70186e-06 -5.65868e-05
0.00752873 0.00033733 -0.000386376
0.00033733 0.00457264 -5.06589e-05
-0.000386376 -5.06589e-05 0.00457589
0.000347679 0.000180044 5.61225e-07
0.000180044 -0.000276655 4.08157e-07
5.61225e-07 4.08157e-07 -0.000425438
0.00151298 0.000376569 1.77479e-05
0.000376569 4.95729e-05 2.93136e-06
1.77479e-05 2.93136e-06 -0.000184119
0.00791962 0.000332862 1.14678e-05
0.000332862 0.00482203 5.26714e-06
1.14678e-05 5.26714e-06 0.00482176
0.000306189 0.000236989 1.97875e-05
0.000236989 -0.000300099 1.72047e-05
1.97875e-05 1.72047e-05 -0.000473619
0.00831245 0.000229046 0.000392733
0.000229046 0.00504405 4.53805e-05
0.000392733 4.53805e-05 0.0050622
0.00213429 8.15238e-05 -6.18197e-06
8.15238e-05 -5.74069e-06 -1.39988e-08
-6.18197e-06 -1.39988e-08 -3.20127e-05
0.002158 0.000107818 -8.78286e-07
0.000107818 1.76652e-06 -2.34152e-07
-8.78286e-07 -2.34152e-07 5.8886e-06
0.00228889 0.000149281 -4.61096e-07
0.000149281 -3.30173e-05 2.32425e-07
-4.61096e-07 2.32425e-07 1.14664e-05
0.00209004 -2.43059e-06 -3.3129e-07
-2.43059e-06 2.13653e-05 2.66207e-07
-3.3129e-07 2.66207e-07 -4.71872e-05
0.00215445 1.96519e-05 -6.4608e-07
1.96519e-05 1.06257e-05 -1.69532e-08
-6.4608e-07 -1.69532e-08 -5.93062e-06
0.00213042 5.02467e-05 1.97008e-06
5.02467e-05 -4.04295e-05 -9.40533e-08
1.97008e-06 -9.40533e-08 -1.9581e-05
0.00214603 -5.74251e-05 3.44082e-06
-5.74251e-05 -8.17134e-06 -6.43443e-07
3.44082e-06 -6.43443e-07 -1.62432e-05
0.00206756 -7.31404e-05 -1.30929e-06
-7.31404e-05 4.96178e-06 2.55278e-07
-1.30929e-06 2.55278e-07 -6.34895e-05
0.00145013 -3.90802e-05 -3.52364e-06
-3.90802e-05 3.08701e-05 1.52063e-08
-3.52364e-06 1.52063e-08 -8.52925e-05
0.00214237 -0.000163234 2.59384e-07
-0.000163234 6.05825e-05 -5.63609e-07
2.59384e-07 -5.63609e-07 -2.39873e-05
0.00142481 -9.69849e-05 3.49048e-06
-9.69849e-05 -1.17819e-05 -3.81766e-07
3.49048e-06 -3.81766e-07 -0.000142699
0.000264641 -1.61895e-05 -1.58376e-05
-1.61895e-05 -0.000303583 2.33179e-06
-1.58376e-05 2.33179e-06 -0.000402791
0.0013582 -0.000146148 2.80174e-06
-0.000146148 -6.47347e-05 -1.02146e-06
2.80174e-06 -1.02146e-06 -0.000214325
0.000287751 -4.8782e-05 3.83702e-07
-4.8782e-05 -0.000293034 -3.46145e-07
3.83702e-07 -3.46145e-07 -0.000397471
0.00692289 -0.000175496 -0.000379428
-0.000175496 0.00418296 2.27041e-05
-0.000379428 2.27041e-05 0.00421061
0.000325181 -7.76285e-05 1.53885e-05
-7.76285e-05 -0.000269289 -5.45161e-06
1.53885e-05 -5.45161e-06 -0.000383875
0.00707391 -0.000119473 6.85506e-06
-0.000119473 0.00426502 2.17059e-07
6.85506e-06 2.17059e-07 0.00429885
0.00210377 -5.15762e-05 0.000289637
-5.15762e-05 0.00101634 -2.23942e-05
0.000289637 -2.23942e-05 0.00100863
0.00216503 0.000164046 -7.46178e-06
0.000164046 1.78883e-05 -8.66477e-07
-7.46178e-06 -8.66477e-07 -2.11186e-05
0.00215471 0.000164136 -1.0133e-06
0.000164136 4.53092e-07 -1.07884e-07
-1.0133e-06 -1.07884e-07 4.20791e-06
0.0022897 0.000242466 8.84538e-07
0.000242466 0.00016662 2.84016e-07
8.84538e-07 2.84016e-07 7.018e-05
0.0022928 0.000239049 7.65657e-07
0.000239049 8.6294e-05 3.59811e-08
7.65657e-07 3.59811e-08 4.07069e-05
0.00220111 0.0001803 9.60982e-07
0.0001803 -8.85968e-06 1.3013e-07
9.60982e-07 1.3013e-07 -1.43099e-06
0.0013282 0.000191728 -1.45615e-06
0.000191728 -6.87873e-05 -9.92504e-07
-1.45615e-06 -9.92504e-07 -0.000235164
0.00222816 0.000325719 3.3831e-07
0.000325719 0.00013649 1.57107e-08
3.3831e-07 1.57107e-08 1.62735e-05
0.00234485 0.00032904 4.3376e-06
0.00032904 9.6077e-05 5.13296e-07
4.3376e-06 5.13296e-07 4.00177e-05
0.000329154 9.42694e-05 -1.55839e-05
9.42694e-05 -0.000272283 -7.10548e-06
-1.55839e-05 -7.10548e-06 -0.000393133
0.00144803 0.000257345 3.05735e-06
0.000257345 9.03413e-06 1.0276e-06
3.05735e-06 1.0276e-06 -0.000171971
0.00205808 0.000397513 9.18895e-07
0.000397513 4.88969e-05 -9.26928e-08
9.18895e-07 -9.26928e-08 -0.000114283
0.00730287 0.00032318 -0.00039741
0.00032318 0.00444003 -4.53851e-05
-0.00039741 -4.53851e-05 0.00444575
0.000345399 0.000134699 6.82296e-07
0.000134699 -0.000273433 3.09962e-07
6.82296e-07 3.09962e-07 -0.000406853
0.00147219 0.000312482 9.88094e-06
0.000312482 2.46253e-05 3.2919e-06
9.88094e-06 3.2919e-06 -0.000172713
0.00763658 0.000364983 8.22798e-06
0.000364983 0.00465402 5.6097e-06
8.22798e-06 5.6097e-06 0.00465153
0.000346999 0.000183486 1.73162e-05
0.000183486 -0.000282156 1.34617e-05
1.73162e-05 1.34617e-05 -0.000433436
0.00805168 0.0003475 0.000405903
0.0003475 0.00490285 5.64174e-05
0.000405903 5.64174e-05 0.00490677
0.00204285 7.77921e-05 1.16061e-06
7.77921e-05 -6.75364e-06 -1.0907e-07
1.16061e-06 -1.0907e-07 -8.25367e-05
0.0021616 8.20522e-05 -2.53628e-06
8.20522e-05 1.82135e-05 -1.69803e-07
-2.53628e-06 -1.69803e-07 -9.50244e-06
0.00216857 0.000115094 3.68623e-06
0.000115094 1.6189e-05 1.69048e-07
3.68623e-06 1.69048e-07 2.01147e-05
0.00141417 -6.34916e-06 -3.89621e-06
-6.34916e-06 2.63512e-05 -4.56001e-08
-3.89621e-06 -4.56001e-08 -8.885e-05
0.00205595 4.05037e-07 -9.67832e-07
4.05037e-07 1.69284e-06 1.0626e-07
-9.67832e-07 1.0626e-07 -6.67073e-05
0.00211899 2.07263e-05 3.57754e-06
2.07263e-05 -1.81487e-05 -1.91121e-07
3.57754e-06 -1.91121e-07 -3.15085e-05
0.00202878 -7.2104e-05 -1.75316e-06
-7.2104e-05 -1.8861e-05 -3.96108e-08
-1.75316e-06 -3.96108e-08 -8.67306e-05
0.00142289 -4.17372e-05 2.71636e-06
-4.17372e-05 2.62875e-06 -1.58463e-07
2.71636e-06 -1.58463e-07 -0.000113673
0.000275444 -3.4329e-05 -1.65898e-05
-3.4329e-05 -0.000289771 1.31258e-06
-1.65898e-05 1.31258e-06 -0.00038445
0.00134681 -9.72215e-05 6.64032e-06
-9.72215e-05 -6.91114e-05 -1.16422e-06
6.64032e-06 -1.16422e-06 -0.000206701
0.000280727 -5.03806e-06 -3.07421e-08
-5.03806e-06 -0.0002932 5.55695e-08
-3.07421e-08 5.55695e-08 -0.00039073
0.0068136 -0.000142103 -0.000378843
-0.000142103 0.00411089 1.7342e-05
-0.000378843 1.7342e-05 0.00414266
0.000335429 -5.60789e-05 1.64501e-05
-5.60789e-05 -0.00025742 -3.79883e-06
1.64501e-05 -3.79883e-06 -0.000362378
0.00691263 -7.26734e-05 -2.79642e-06
-7.26734e-05 0.00416171 3.65581e-06
-2.79642e-06 3.65581e-06 0.00419852
0.00703548 -0.000133133 0.000378607
-0.000133133 0.00424306 -2.06466e-05
0.000378607 -2.06466e-05 0.00427651
0.00219936 0.00015618 1.39392e-06
0.00015618 0.000102689 -9.01163e-08
1.39392e-06 -9.01163e-08 2.19974e-05
0.00218388 0.000164309 -1.52646e-06
0.000164309 2.26183e-05 -1.79284e-07
-1.52646e-06 -1.79284e-07 -1.11533e-05
0.00208021 0.000165435 3.29338e-06
0.000165435 -6.24223e-05 6.18169e-07
3.29338e-06 6.18169e-07 -5.17e-05
0.00129949 0.000129825 -1.47592e-06
0.000129825 -7.75282e-05 -5.87417e-07
-1.47592e-06 -5.87417e-07 -0.000226845
0.00222784 0.000239523 2.21054e-07
0.000239523 0.000120659 -1.08516e-07
2.21054e-07 -1.08516e-07 2.3937e-05
0.00230239 0.000238555 4.90508e-06
0.000238555 8.9262e-05 3.20173e-07
4.90508e-06 3.20173e-07 4.43326e-05
0.000322093 6.456e-05 -1.48834e-05
6.456e-05 -0.000265753 -5.21971e-06
-1.48834e-05 -5.21971e-06 -0.000377824
0.0013591 0.000193816 1.19898e-07
0.000193816 -3.85785e-05 2.43184e-07
1.19898e-07 2.43184e-07 -0.000206026
0.00215922 0.000322766 1.01935e-06
0.000322766 8.63849e-05 -4.33312e-07
1.01935e-06 -4.33312e-07 -3.43375e-05
0.00708943 0.00026209 -0.000402181
0.00026209 0.00430017 -3.64615e-05
-0.000402181 -3.64615e-05 0.00431725
0.000334188 0.000102581 8.29816e-07
0.000102581 -0.000270607 2.13311e-07
8.29816e-07 2.13311e-07 -0.00039394
0.00134849 0.000250431 4.72539e-06
0.000250431 -5.16045e-05 2.70381e-06
4.72539e-06 2.70381e-06 -0.000238154
0.0074177 0.000343275 4.51406e-06
0.000343275 0.00451843 3.6148e-06
4.51406e-06 3.6148e-06 0.00452202
0.000354432 0.00014283 1.58014e-05
0.00014283 -0.000269247 1.0471e-05
1.58014e-05 1.0471e-05 -0.00040572
0.00775947 0.00040588 0.000411494
0.00040588 0.00474659 6.12722e-05
0.000411494 6.12722e-05 0.00473772
0.00122476 4.186e-05 -5.35249e-06
4.186e-05 -9.47906e-05 -3.42955e-07
-5.35249e-06 -3.42955e-07 -0.000226225
0.00212322 7.50534e-05 -1.50253e-06
7.50534e-05 4.85133e-05 -4.90937e-08
-1.50253e-06 -4.90937e-08 -1.99174e-05
0.00218945 8.29664e-05 3.77631e-06
8.29664e-05 4.19888e-05 1.65247e-07
3.77631e-06 1.65247e-07 1.2899e-05
0.000315661 3.2713e-05 -1.72875e-05
3.2713e-05 -0.000266082 -8.6155e-07
-1.72875e-05 -8.6155e-07 -0.000352132
0.00139927 -2.50982e-06 2.62931e-06
-2.50982e-06 7.92909e-06 3.27768e-08
2.62931e-06 3.27768e-08 -0.000107081
0.00202004 4.7659e-06 -1.80389e-06
4.7659e-06 -1.94385e-05 -1.25591e-07
-1.80389e-06 -1.25591e-07 -8.76847e-05
0.0013879 -4.3862e-05 9.0202e-06
-4.3862e-05 -3.11181e-05 -7.32818e-07
9.0202e-06 -7.32818e-07 -0.000147558
0.000284678 -7.77532e-06 2.2903e-07
-7.77532e-06 -0.000282638 4.25075e-07
2.2903e-07 4.25075e-07 -0.000377027
0.00671559 -1.58317e-06 -0.000380617
-1.58317e-06 0.00403749 3.98623e-06
-0.000380617 3.98623e-06 0.00407846
0.000288305 6.3224e-06 1.60198e-05
6.3224e-06 -0.000288718 -1.35762e-06
1.60198e-05 -1.35762e-06 -0.00038449
0.0067749 -0.000139505 -7.53509e-06
-0.000139505 0.00408807 2.36349e-06
-7.53509e-06 2.36349e-06 0.00411927
0.00684443 -5.57181e-05 0.000364607
-5.57181e-05 0.00411774 -1.20739e-05
0.000364607 -1.20739e-05 0.00415486
0.00128147 8.20455e-05 -3.89503e-06
8.20455e-05 -6.76088e-05 -6.91136e-07
-3.89503e-06 -6.91136e-07 -0.000205357
0.00222244 0.000152113 -2.85343e-07
0.000152113 0.000116138 -2.60374e-07
-2.85343e-07 -2.60374e-07 3.93426e-05
0.00220178 0.000164338 2.16861e-06
0.000164338 2.71192e-05 1.30905e-08
2.16861e-06 1.30905e-08 -1.47025e-06
0.00277674 7.9245e-05 -0.000167676
7.9245e-05 0.00133837 -7.31279e-06
-0.000167676 -7.31279e-06 0.00128011
0.00131411 0.000131201 5.43152e-08
0.000131201 -5.88139e-05 9.56334e-08
5.43152e-08 9.56334e-08 -0.00020888
0.00216251 0.000236255 2.84325e-07
0.000236255 7.29879e-05 -4.64841e-07
2.84325e-07 -4.64841e-07 -2.40077e-05
0.00693642 0.000192478 -0.000400127
0.000192478 0.00419425 -2.64152e-05
-0.000400127 -2.64152e-05 0.00422262
0.000327882 8.43999e-05 1.10866e-06
8.43999e-05 -0.000261915 5.06767e-07
1.10866e-06 5.06767e-07 -0.000376844
0.00138561 0.000195381 1.92719e-06
0.000195381 -1.17234e-05 1.27688e-06
1.92719e-06 1.27688e-06 -0.000180241
0.00721036 0.000279878 1.55951e-06
0.000279878 0.00437898 1.81233e-06
1.55951e-06 1.81233e-06 0.00439433
0.000347168 0.000113072 1.5541e-05
0.000113072 -0.000262754 8.21057e-06
1.5541e-05 8.21057e-06 -0.000389142
0.00752109 0.00037906 0.000414124
0.00037906 0.00459849 5.70307e-05
0.000414124 5.70307e-05 0.00459549
0.000402562 1.64219e-05 -1.28718e-05
1.64219e-05 -0.000195636 -2.00438e-06
-1.28718e-05 -2.00438e-06 -0.000291385
0.00129831 4.17416e-05 -5.16972e-07
4.17416e-05 -4.87366e-05 9.48451e-08
-5.16972e-07 9.48451e-08 -0.000174045
0.0022086 7.09825e-05 -1.04657e-06
7.09825e-05 0.000107206 -1.44631e-07
-1.04657e-06 -1.44631e-07 4.61299e-05
0.00657386 -0.000106799 -0.000364345
-0.000106799 0.00396456 6.38209e-06
-0.000364345 6.38209e-06 0.00399458
0.000271322 1.19087e-05 -7.15446e-07
1.19087e-05 -0.000289518 -2.31115e-07
-7.15446e-07 -2.31115e-07 -0.000378213
0.00139233 8.13416e-08 9.1206e-06
8.13416e-08 -5.35026e-06 -2.30248e-07
9.1206e-06 -2.30248e-07 -0.000120144
0.000264678 1.84645e-05 1.6253e-05
1.84645e-05 -0.000296155 1.46692e-07
1.6253e-05 1.46692e-07 -0.00038905
0.00666051 -3.5634e-05 1.60427e-06
-3.5634e-05 0.00400917 -2.02281e-06
1.60427e-06 -2.02281e-06 0.0040448
0.00675269 -6.56785e-05 0.00036921
-6.56785e-05 0.00406014 -9.06719e-06
0.00036921 -9.06719e-06 0.00409815
0.00286758 2.77624e-05 -0.00016233
2.77624e-05 0.00140019 -3.90291e-06
-0.00016233 -3.90291e-06 0.00134784
0.00126991 8.46001e-05 -9.3654e-08
8.46001e-05 -7.38194e-05 -7.77286e-08
-9.3654e-08 -7.77286e-08 -0.000212341
0.00224237 0.000148204 7.97132e-08
0.000148204 0.000126907 -4.05473e-07
7.97132e-08 -4.05473e-07 5.39744e-05
0.00649657 -8.91388e-06 -0.000174111
-8.91388e-06 0.00392204 -1.02378e-06
-0.000174111 -1.02378e-06 0.00391306
0.000301539 6.87549e-05 7.27384e-07
6.87549e-05 -0.000269943 2.3797e-07
7.27384e-07 2.3797e-07 -0.000375321
0.00133248 0.000133641 1.96032e-06
0.000133641 -3.95546e-05 6.22417e-07
1.96032e-06 6.22417e-07 -0.00019047
0.00700701 0.000169928 -8.7647e-06
0.000169928 0.00423293 -1.80238e-06
-8.7647e-06 -1.80238e-06 0.00426253
0.000328298 0.000106387 1.66472e-05
0.000106387 -0.000262656 6.99923e-06
1.66472e-05 6.99923e-06 -0.000379631
0.00730694 0.000302418 0.000414829
0.000302418 0.00444552 4.65799e-05
0.000414829 4.65799e-05 0.0044594
0.00201362 -5.20229e-05 -0.000281115
-5.20229e-05 0.000961041 1.82185e-06
-0.000281115 1.82185e-06 0.000966894
0.00153529 3.79225e-05 -7.17391e-05
3.79225e-05 0.000533637 -2.28809e-07
-7.17391e-05 -2.28809e-07 0.000465238
0.00136229 4.42153e-05 6.85973e-06
4.42153e-05 -8.7288e-06 3.19135e-07
6.85973e-06 3.19135e-07 -0.000127953
0.00663865 -5.23202e-05 6.54384e-06
-5.23202e-05 0.00399964 3.56043e-06
6.54384e-06 3.56043e-06 0.00403583
0.000284597 -7.41253e-06 1.68507e-05
-7.41253e-06 -0.00027321 7.41289e-07
1.68507e-05 7.41289e-07 -0.000365788
0.00669298 -9.62722e-05 0.000381845
-9.62722e-05 0.00403569 -7.65951e-06
0.000381845 -7.65951e-06 0.00407067
0.00159204 2.95838e-05 -8.15553e-05
2.95838e-05 0.00072089 -1.96649e-06
-8.15553e-05 -1.96649e-06 0.000675399
0.00152866 2.90389e-05 -7.25171e-05
2.90389e-05 0.000529796 -2.0827e-06
-7.25171e-05 -2.0827e-06 0.000455375
0.00126416 8.55109e-05 4.07649e-06
8.55109e-05 -7.50851e-05 4.37055e-07
4.07649e-06 4.37055e-07 -0.000214252
0.00426054 8.45258e-05 0.000142412
8.45258e-05 0.00244643 5.12614e-06
0.000142412 5.12614e-06 0.0024413
0.000280812 7.98269e-05 1.68906e-05
7.98269e-05 -0.000285427 5.2818e-06
1.68906e-05 5.2818e-06 -0.000391231
0.00709057 0.000157847 0.000394376
0.000157847 0.00427789 2.85603e-05
0.000394376 2.85603e-05 0.00431129
0.0065962 -1.44001e-05 -8.36707e-06
-1.44001e-05 0.00397697 -4.0327e-06
-8.36707e-06 -4.0327e-06 0.00401124
0.000268353 5.56756e-05 1.8563e-05
5.56756e-05 -0.000293017 2.71957e-06
1.8563e-05 2.71957e-06 -0.000379315
0.00655494 3.19484e-05 0.000370248
3.19484e-05 0.00394088 3.50294e-07
0.000370248 3.50294e-07 0.00398068
0.00415508 4.42602e-05 0.000153647
4.42602e-05 0.002381 6.94585e-06
0.000153647 6.94585e-06 0.00237963
0.000291684 1.7824e-05 1.64718e-05
1.7824e-05 -0.000273013 2.89136e-06
1.64718e-05 2.89136e-06 -0.000369726
0.0068673 2.61156e-05 0.000380067
2.61156e-05 0.00413272 1.37355e-05
0.000380067 1.37355e-05 0.00417013
0.0066399 -0.000107262 0.000369915
-0.000107262 0.00400759 -4.40309e-06
0.000369915 -4.40309e-06 0.00403833
0.00666851 2.85822e-05 0.000372497
2.85822e-05 0.00400547 8.59719e-06
0.000372497 8.59719e-06 0.00404606
