# vtk DataFile Version 2.0
Wound Healing Simulation
ASCII
DATASET UNSTRUCTURED_GRID
POINTS 3012 float
69.9759 18.75 4
67.2507 60.3285 4
69.976 18.75 2
73.0099 25.446 4
71.1327 20.9142 4
68.6801 16.6661 4
67.8189 19.9234 3.96951
67.2507 60.3286 2
71.1327 54.0858 4
68.6801 58.3339 4
65.6939 62.2254 4
65.3055 58.9998 3.96863
74.6784 42.3946 4
73.7221 47.2057 4
69.9759 18.75 0
73.0099 25.446 2
68.6801 16.6661 2
71.1327 20.9142 2
67.8193 19.9276 2
74.6792 32.6053 4
73.7222 27.7943 4
72.1454 23.1494 4
70.6102 26.2211 3.97065
68.88 21.9558 3.96996
67.2507 14.6715 4
66.6295 17.9703 3.96858
65.6886 21.0608 3.96033
67.2507 60.3285 0
71.1327 54.0858 2
68.6801 58.3339 2
65.694 62.2255 2
65.3073 58.9935 2
72.1454 51.8506 4
69.9759 56.25 4
68.8306 53.1152 3.96993
64.0165 64.0165 4
66.6036 57.1345 3.9693
63.8783 60.7615 3.96485
63.4136 57.7335 3.95695
60.3285 67.2507 4
74.6792 42.3947 2
73.7222 47.2057 2
74.9194 39.9526 4
74.2788 44.8158 4
72.1653 42.086 3.97326
73.0099 49.554 4
71.2458 46.5985 3.97161
73.0099 25.446 0
71.1327 20.9142 0
68.6801 16.6661 0
67.8189 19.9234 0.0304938
74.6792 32.6053 2
73.7222 27.7943 2
67.2508 14.6715 2
72.1455 23.1494 2
70.6094 26.2224 2
66.6307 17.975 2
68.8799 21.9588 2
65.69 21.0614 2
74.9197 35.0474 4
74.2794 30.1841 4
72.182 32.9448 3.97332
71.2749 28.4324 3.97134
69.8108 24.0586 3.97015
68.2746 26.9723 3.96402
66.6673 22.9632 3.9623
65.694 12.7746 4
65.3163 16.1038 3.96812
64.5979 19.235 3.95808
63.6229 22.137 3.96637
71.1327 54.0858 0
65.6939 62.2254 0
68.6801 58.3339 0
65.3055 58.9998 0.0313743
72.1455 51.8506 2
69.9759 56.25 2
68.8308 53.1115 2
64.0165 64.0165 2
66.6051 57.1285 2
63.8798 60.7543 2
63.4053 57.7331 2
62.2254 65.694 4
58.8882 65.4082 3.97294
69.7639 50.9904 3.97022
67.7772 55.1694 3.96976
66.5459 52.1779 3.96303
62.3287 62.4223 3.96613
64.5546 55.9936 3.95924
62.1679 59.3707 3.95255
61.5994 56.5735 3.96141
58.3339 68.6801 4
60.3285 67.2508 2
73.7221 47.2057 0
74.6784 42.3946 0
74.9197 39.9526 2
74.2794 44.8159 2
72.1642 42.0848 2
73.0099 49.554 2
71.2449 46.5968 2
75 37.5 4
72.4026 39.8028 3.97413
71.7793 44.3532 3.97264
69.7709 41.7855 3.96784
70.571 48.8145 3.97095
68.8469 46.0003 3.96657
74.6792 32.6053 0
73.7222 27.7943 0
67.2507 14.6715 0
72.1454 23.1494 0
70.6102 26.2211 0.0293489
68.88 21.9558 0.0300434
66.6295 17.9703 0.0314197
65.6886 21.0608 0.0396685
74.9197 35.0474 2
74.2794 30.1841 2
72.1807 32.9449 2
71.2738 28.4333 2
65.694 12.7745 2
65.3169 16.1097 2
69.8102 24.0606 2
68.2774 26.9729 2
64.5911 19.2368 2
66.6694 22.9641 2
63.6237 22.1373 2
72.4105 35.2254 3.97413
71.8009 30.6777 3.97271
69.8063 33.2769 3.96705
68.9076 29.0545 3.96508
67.5283 24.9371 3.96339
65.9339 27.7057 3.97478
64.0165 10.9835 4
64.485 23.9236 3.96957
63.8812 14.3311 3.96442
63.4064 17.4889 3.955
62.6504 20.43 3.96329
61.6699 23.1134 3.97314
60.6778 11.106 3.97035
57.6008 11.5041 3.96305
72.1454 51.8506 0
69.9759 56.25 0
68.8306 53.1152 0.0300736
64.0165 64.0165 0
63.8783 60.7615 0.035154
66.6036 57.1345 0.0307
63.4136 57.7335 0.043052
62.2255 65.694 2
58.8919 65.4022 2
69.7637 50.9877 2
67.778 55.1644 2
66.5469 52.1769 2
62.3313 62.4129 2
64.5479 55.9922 2
62.1584 59.3706 2
61.6044 56.575 2
60.6619 63.9709 3.97019
57.0197 66.7298 3.97557
57.5412 63.6378 3.96724
67.4107 50.1501 3.96417
65.5947 54.1383 3.96113
64.2445 51.2888 3.97075
60.7566 60.897 3.9577
62.5679 54.9627 3.96541
60.4444 58.0422 3.95648
59.9849 55.6194 3.96754
56.25 69.9759 4
58.3339 68.6801 2
60.3285 67.2507 0
58.9172 9.6643 3.97087
62.2254 9.30607 4
73.0099 49.554 0
74.2788 44.8158 0
71.2458 46.5985 0.0283913
72.1653 42.086 0.0267442
74.9194 39.9526 0
75 37.5 2
72.4019 39.802 2
71.7786 44.3517 2
69.7727 41.785 2
70.5705 48.8123 2
68.8502 45.9997 2
72.4862 37.513 3.97399
70.0161 39.6567 3.96782
69.3859 43.899 3.96763
67.346 41.4724 3.97661
68.1812 48.0861 3.96512
66.4282 45.3822 3.97644
74.9197 35.0474 0
74.2794 30.1841 0
72.182 32.9448 0.0266775
71.2749 28.4324 0.0286598
65.694 12.7746 0
65.3163 16.1038 0.0318812
69.8108 24.0586 0.0298453
68.2746 26.9723 0.0359799
66.6673 22.9632 0.0376959
64.5979 19.235 0.0419195
63.6229 22.137 0.033631
72.4097 35.2251 2
71.8001 30.6785 2
69.8091 33.2772 2
68.9117 29.0549 2
64.0165 10.9835 2
63.883 14.3383 2
63.4161 17.4853 2
67.531 24.9379 2
65.9314 27.7069 2
62.657 20.4286 2
64.4841 23.9244 2
61.6703 23.1145 2
60.6803 11.1114 2
57.598 11.4931 2
70.0302 35.3972 3.96734
69.4232 31.1615 3.96602
67.413 33.621 3.97655
66.5139 29.6815 3.97597
65.2583 25.7819 3.97293
63.6823 28.376 3.97542
62.3333 12.661 3.96652
62.4168 24.7977 3.97453
62.162 15.8169 3.9532
61.559 18.8047 3.95962
60.812 21.5222 3.96948
59.8644 23.9644 3.97417
59.233 12.829 3.96229
55.8679 10.2792 3.96948
56.3721 13.2085 3.96146
69.7639 50.9904 0.0297822
62.2254 65.694 0
58.8882 65.4082 0.0270646
67.7772 55.1694 0.030243
66.5459 52.1779 0.0369739
62.3287 62.4223 0.0338708
62.1679 59.3707 0.0474499
64.5546 55.9936 0.0407624
61.5994 56.5735 0.0385928
60.6661 63.964 2
57.0236 66.7243 2
57.5457 63.6471 2
67.4119 50.149 2
65.5935 54.1373 2
64.2431 51.2881 2
60.7484 60.8979 2
62.5716 54.9639 2
60.4406 58.0415 2
59.9826 55.6185 2
55.0654 67.9293 3.9813
59.2093 62.312 3.96921
55.7858 64.853 3.969
56.3055 62.0044 3.9807
65.0359 49.3219 3.97353
63.4221 53.1883 3.96783
61.9532 50.4839 3.97358
59.2092 59.4563 3.9536
60.6808 54.1397 3.97176
58.9113 56.8227 3.9602
58.7926 54.9726 3.97104
48.0967 68.5665 3.9781
50.9438 69.9297 3.98499
54.0858 71.1327 4
56.25 69.976 2
58.3339 68.6801 0
57.0554 8.33715 3.97924
60.3285 7.74928 4
58.9193 9.6695 2
62.2255 9.30602 2
70.571 48.8145 0.0290495
71.7793 44.3532 0.0273646
68.8469 46.0003 0.0334252
69.7709 41.7855 0.032157
72.4026 39.8028 0.0258691
75 37.5 0
72.4848 37.5124 2
70.0185 39.6564 2
69.3871 43.8983 2
67.343 41.4719 2
68.1815 48.0849 2
66.4243 45.3809 2
70.104 37.5239 3.96765
67.5936 39.5024 3.97655
66.957 43.4291 3.97652
65.1248 41.1727 3.97626
65.7758 47.345 3.97538
64.1788 44.7639 3.97571
72.4105 35.2254 0.0258672
71.8009 30.6777 0.0272858
69.8063 33.2769 0.0329538
68.9076 29.0545 0.0349219
64.0165 10.9835 0
63.8812 14.3311 0.0355795
63.4064 17.4889 0.0449996
67.5283 24.9371 0.0366055
65.9339 27.7057 0.0252204
64.485 23.9236 0.0304329
62.6504 20.43 0.0367146
61.6699 23.1134 0.0268648
60.6778 11.106 0.0296512
57.6008 11.5041 0.0369497
70.0327 35.3974 2
69.4262 31.1618 2
67.4107 33.6215 2
66.5106 29.6827 2
62.336 12.6681 2
62.1649 15.8168 2
61.5684 18.8028 2
65.2565 25.783 2
63.6813 28.3764 2
60.8127 21.5234 2
62.4165 24.7988 2
59.8627 23.9666 2
59.2319 12.8259 2
56.3674 13.1993 2
55.8677 10.2839 2
67.6355 35.5645 3.97665
67.0141 31.6675 3.97659
65.2827 33.971 3.97641
64.2036 30.288 3.97563
63.0847 26.5594 3.97463
61.6287 28.9425 3.9751
60.7539 14.2636 3.95488
60.4513 25.5595 3.97436
60.3976 17.2486 3.95589
59.8118 20.0134 3.96451
59.1136 22.5064 3.97206
58.297 24.615 3.97402
54.0374 9.15599 3.98853
57.8392 14.43 3.95187
54.772 12.1096 3.97599
55.2229 14.7888 3.95183
67.4107 50.1501 0.035827
57.0197 66.7298 0.0244269
60.6619 63.9709 0.0298097
57.5412 63.6378 0.0327572
65.5947 54.1383 0.038873
64.2445 51.2888 0.0292487
60.7566 60.897 0.042305
60.4444 58.0422 0.0435157
62.5679 54.9627 0.0345923
59.9849 55.6194 0.0324601
55.0701 67.9239 2
59.2064 62.3172 2
55.7901 64.8481 2
56.302 62.0073 2
65.0336 49.3208 2
63.4222 53.1882 2
61.9523 50.4835 2
59.2347 59.465 2
60.6797 54.1391 2
58.9192 56.8247 2
58.8012 54.9742 2
53.0373 68.9959 3.98195
53.9532 65.9805 3.9699
57.8331 60.7919 3.95226
54.6542 63.1039 3.96555
55.1605 60.515 3.97507
62.6938 48.5117 3.97395
61.2922 52.4026 3.97322
59.6001 49.7805 3.97282
57.7615 58.1013 3.95627
58.8178 53.7228 3.97253
57.5946 55.5649 3.96293
50.1019 67.8442 3.97412
47.4517 66.5565 3.97421
46.0517 69.1475 3.9807
48.101 68.5675 2
48.7978 70.7209 3.98721
50.9489 69.9263 2
51.8506 72.1454 4
54.0858 71.1327 2
56.25 69.9759 0
55.1012 7.14079 3.99266
58.3339 6.31992 4
57.0586 8.34239 2
60.3286 7.74926 2
58.9172 9.6643 0.0291284
62.2254 9.30607 0
68.1812 48.0861 0.034876
69.3859 43.899 0.0323723
66.4282 45.3822 0.0235568
67.346 41.4724 0.0233911
70.0161 39.6567 0.0321836
72.4862 37.513 0.0260055
70.1073 37.5238 2
67.5906 39.5021 2
66.9548 43.4278 2
65.1246 41.1726 2
65.773 47.3438 2
64.1782 44.7637 2
67.6967 37.526 3.9765
65.3668 39.3535 3.97642
64.7293 42.963 3.9761
63.171 40.878 3.97629
63.4669 46.5993 3.97487
62.1645 44.1045 3.97567
70.0302 35.3972 0.0326574
69.4232 31.1615 0.0339763
67.413 33.621 0.0234473
66.5139 29.6815 0.0240323
62.3333 12.661 0.0334761
62.162 15.8169 0.0467984
61.559 18.8047 0.0403778
65.2583 25.7819 0.0270721
63.6823 28.376 0.0245831
62.4168 24.7977 0.0254741
60.812 21.5222 0.0305168
59.8644 23.9644 0.0258259
59.233 12.829 0.0377147
56.3721 13.2085 0.0385385
55.8679 10.2792 0.0305218
67.633 35.5649 2
67.0117 31.6686 2
65.2815 33.9712 2
64.2031 30.2882 2
60.7519 14.2641 2
60.392 17.2498 2
59.8105 20.0151 2
63.0836 26.5603 2
61.6287 28.9424 2
59.1141 22.5082 2
60.4509 25.5599 2
58.2925 24.6175 2
57.8385 14.4188 2
55.2115 14.7711 2
54.0404 9.14956 2
54.7618 12.1036 2
65.4655 35.692 3.97644
64.7413 32.2205 3.97581
63.7537 34.3019 3.97609
61.9548 30.7647 3.97541
61.032 27.2619 3.97461
60.0947 29.3375 3.97551
59.1664 15.7795 3.95417
58.5923 26.0714 3.9747
58.746 18.5575 3.96027
58.1976 21.1173 3.96668
57.6298 23.3962 3.97223
57.2159 24.9917 3.97488
52.1028 8.18512 3.96815
53.058 11.0638 3.97292
56.519 15.9031 3.95631
53.7606 13.7989 3.96111
54.2061 16.1772 3.95617
55.0654 67.9293 0.0186981
65.0359 49.3219 0.0264688
55.7858 64.853 0.030995
59.2093 62.312 0.0307894
56.3055 62.0044 0.0192982
63.4221 53.1883 0.0321708
61.9532 50.4839 0.0264151
59.2092 59.4563 0.0464001
58.9113 56.8227 0.0398031
60.6808 54.1397 0.0282378
58.7926 54.9726 0.0289604
53.0426 68.9925 2
53.9575 65.9794 2
57.8336 60.8006 2
54.6514 63.1017 2
55.1578 60.5137 2
62.6932 48.5112 2
61.2919 52.4022 2
59.6003 49.7802 2
57.7669 58.1039 2
58.8219 53.7229 2
57.5914 55.5629 2
52.0601 66.9789 3.97306
52.9279 64.1397 3.96777
56.5046 59.3567 3.95196
53.6185 61.4746 3.96596
54.156 59.1759 3.9636
60.2834 47.6783 3.97376
59.1077 51.8693 3.97269
57.1962 49.3168 3.97343
56.4283 56.7786 3.9601
56.4385 53.8211 3.96752
50.1059 67.841 2
49.321 65.8778 3.97321
47.4556 66.5489 2
46.8748 64.673 3.97818
45.5522 67.0761 3.97806
43.9705 69.5807 3.98279
46.0556 69.1484 2
46.6052 71.3654 3.98882
48.0967 68.5665 0.0218987
48.8028 70.72 2
49.554 73.0099 4
50.9438 69.9297 0.0150149
51.8506 72.1455 2
54.0858 71.1327 0
53.0626 6.08142 3.97929
55.105 7.14321 2
56.25 5.02411 4
58.3339 6.3199 2
57.0554 8.33715 0.0207569
60.3285 7.74928 0
65.7758 47.345 0.0246207
66.957 43.4291 0.0234831
64.1788 44.7639 0.024285
65.1248 41.1727 0.0237377
67.5936 39.5024 0.0234492
70.104 37.5239 0.032347
67.6937 37.526 2
65.3667 39.3536 2
64.7283 42.9627 2
63.1719 40.8782 2
63.4665 46.5986 2
62.1649 44.1048 2
65.4765 37.5067 3.97636
63.3193 39.2455 3.97627
62.7173 42.4728 3.97607
61.7194 40.6384 3.97648
61.2823 45.7608 3.97492
60.6709 43.5548 3.97604
67.6355 35.5645 0.0233504
67.0141 31.6675 0.0234084
65.2827 33.971 0.0235897
64.2036 30.288 0.0243709
60.7539 14.2636 0.0451216
60.3976 17.2486 0.0441134
59.8118 20.0134 0.0354879
63.0847 26.5594 0.0253687
61.6287 28.9425 0.0249016
60.4513 25.5595 0.0256387
59.1136 22.5064 0.02794
58.297 24.615 0.0259848
57.8392 14.43 0.0481268
55.2229 14.7888 0.0481699
54.0374 9.15599 0.0114739
54.772 12.1096 0.0240082
65.465 35.6921 2
64.7407 32.2209 2
63.7547 34.3019 2
61.955 30.7644 2
59.1853 15.7749 2
58.7482 18.5578 2
58.1943 21.1204 2
61.0317 27.2625 2
60.0954 29.3375 2
57.6254 23.4001 2
58.59 26.0723 2
57.2114 24.9941 2
56.5039 15.9064 2
54.2107 16.1762 2
53.7424 13.7803 2
52.1029 8.19275 2
53.0553 11.0595 2
63.5323 35.6662 3.97606
62.2878 33.1343 3.97589
59.7981 30.7909 3.97534
58.7546 28.159 3.97495
57.6679 17.1659 3.95661
56.8929 26.0626 3.97467
57.2086 19.7438 3.95961
56.7066 22.1647 3.96842
56.4175 24.3005 3.97366
50.1047 7.30992 3.97361
51.1961 10.212 3.96295
52.1293 12.8772 3.96912
55.2784 17.1863 3.9555
52.8697 15.4232 3.9621
53.5278 17.1998 3.9548
53.0373 68.9959 0.0180477
53.9532 65.9805 0.0300988
62.6938 48.5117 0.0260452
54.6542 63.1039 0.0344469
57.8331 60.7919 0.0477407
55.1605 60.515 0.0249273
61.2922 52.4026 0.0267789
59.6001 49.7805 0.0271844
57.7615 58.1013 0.0437311
57.5946 55.5649 0.0370692
58.8178 53.7228 0.0274678
52.0642 66.9735 2
52.9291 64.1392 2
56.4988 59.3567 2
53.6152 61.4716 2
54.1488 59.1755 2
60.2837 47.678 2
59.1096 51.8689 2
57.1969 49.3173 2
56.4244 56.7812 2
56.4358 53.8197 2
51.148 65.0776 3.96655
51.9971 62.424 3.96449
55.2563 58.0736 3.95965
52.7006 59.9501 3.95806
53.4832 58.2973 3.9615
57.3265 46.5632 3.97459
56.8151 51.4761 3.97251
55.317 49.1898 3.97496
55.0383 55.5421 3.96051
54.6088 53.0539 3.96189
50.1019 67.8442 0.025875
49.3237 65.8778 2
48.5924 64.0533 3.97757
47.4517 66.5565 0.0257927
45.5541 67.0812 2
46.8776 64.671 2
46.3548 62.9752 3.9841
45.1186 65.1623 3.98095
43.6279 67.4522 3.97982
41.8587 69.8682 3.98289
43.9728 69.5819 2
44.3732 71.8602 3.98965
46.0517 69.1475 0.0193017
46.6088 71.3649 2
47.2057 73.7222 4
48.7978 70.7209 0.0127882
49.554 73.0099 2
51.8506 72.1454 0
50.9541 5.13714 3.98461
53.0652 6.08156 2
54.0858 3.86728 4
55.1012 7.14079 0.00733711
56.25 5.02406 2
58.3339 6.31992 0
63.4669 46.5993 0.0251285
64.7293 42.963 0.0239024
62.1645 44.1045 0.0243331
63.171 40.878 0.0237088
65.3668 39.3535 0.0235761
67.6967 37.526 0.0234957
65.4759 37.5068 2
63.3207 39.2458 2
62.7183 42.4725 2
61.7199 40.6386 2
61.2825 45.7604 2
60.671 43.5548 2
63.3847 37.463 3.97637
61.4117 39.3219 3.97664
60.4076 41.8555 3.97681
59.3731 44.5842 3.97526
65.4655 35.692 0.0235647
64.7413 32.2205 0.0241925
63.7537 34.3019 0.023911
61.9548 30.7647 0.0245884
59.1664 15.7795 0.0458302
58.746 18.5575 0.0397323
58.1976 21.1173 0.0333189
61.032 27.2619 0.025391
60.0947 29.3375 0.0244899
58.5923 26.0714 0.0252976
57.6298 23.3962 0.0277687
57.2159 24.9917 0.0251183
56.519 15.9031 0.0436911
54.2061 16.1772 0.0438334
53.7606 13.7989 0.0388898
52.1028 8.18512 0.0318535
53.058 11.0638 0.0270787
63.5336 35.6659 2
62.2896 33.1346 2
59.7986 30.7909 2
57.6768 17.1645 2
57.2096 19.7442 2
56.7026 22.1689 2
58.7546 28.1583 2
56.4232 24.3023 2
56.8923 26.0625 2
50.1102 7.29458 2
55.2757 17.1852 2
53.5341 17.1918 2
52.8601 15.4194 2
52.1369 12.8796 2
51.2017 10.2123 2
61.4539 35.4102 3.97636
59.4018 32.8794 3.97588
57.6372 30.319 3.97496
56.3346 27.7095 3.97507
56.2559 18.3988 3.95656
55.3909 25.4893 3.97373
55.7569 20.8453 3.96156
55.3423 23.2467 3.96848
48.0559 6.53606 3.98004
49.2988 9.38659 3.97308
50.3769 12.1433 3.97266
51.2886 14.625 3.97648
54.1027 18.1807 3.95952
52.1577 17.2594 3.95724
52.0601 66.9789 0.026935
52.9279 64.1397 0.0322288
60.2834 47.6783 0.0262408
53.6185 61.4746 0.0340401
56.5046 59.3567 0.0480356
54.156 59.1759 0.0363961
59.1077 51.8693 0.0273123
57.1962 49.3168 0.0265703
56.4283 56.7786 0.0399006
56.4385 53.8211 0.0324826
51.1497 65.0732 2
51.9981 62.4336 2
55.248 58.0723 2
52.7023 59.952 2
53.4761 58.2993 2
57.3265 46.5627 2
56.8141 51.4751 2
55.3164 49.1891 2
55.0365 55.5422 2
54.6077 53.0539 2
50.3106 63.3056 3.97
51.1425 60.7814 3.96979
53.9423 57.0614 3.96728
52.0642 58.422 3.96543
55.4865 43.9216 3.97511
54.3943 47.5098 3.97519
54.1031 51.004 3.96563
53.4611 54.2558 3.96422
49.321 65.8778 0.02679
48.5906 64.0678 2
47.9192 62.401 3.98984
45.5522 67.0761 0.0219445
46.8748 64.673 0.0218207
43.6293 67.454 2
46.3551 62.9718 2
45.1227 65.1558 2
45.9483 61.4941 3.99104
44.7468 63.3906 3.97606
43.3502 65.4798 3.97903
41.6618 67.6705 3.97856
39.7014 70.0155 3.98242
41.8602 69.8706 2
42.1085 72.2042 3.99039
43.9705 69.5807 0.0172095
44.3759 71.8598 2
44.8159 74.2794 4
46.6052 71.3654 0.0111787
47.2057 73.7222 2
49.554 73.0099 0
48.785 4.32498 3.98597
50.9548 5.1355 2
51.8506 2.85458 4
53.0626 6.08142 0.0207107
54.0858 3.86728 2
56.25 5.02411 0
61.2823 45.7608 0.0250808
62.7173 42.4728 0.0239291
60.6709 43.5548 0.0239551
61.7194 40.6384 0.0235177
63.3193 39.2455 0.0237277
65.4765 37.5067 0.023644
63.3862 37.463 2
61.4121 39.3227 2
60.4077 41.8555 2
59.3741 44.5839 2
61.229 37.4518 3.97672
59.3109 39.7897 3.97662
57.9593 42.7617 3.9759
63.5323 35.6662 0.023939
62.2878 33.1343 0.0241074
59.7981 30.7909 0.0246565
57.6679 17.1659 0.0433922
57.2086 19.7438 0.0403905
56.7066 22.1647 0.0315766
58.7546 28.159 0.0250507
56.8929 26.0626 0.0253323
56.4175 24.3005 0.0263379
55.2784 17.1863 0.0445027
53.5278 17.1998 0.0452047
52.8697 15.4232 0.0379037
50.1047 7.30992 0.0263929
52.1293 12.8772 0.0308818
51.1961 10.212 0.0370453
61.4542 35.4099 2
59.4014 32.8798 2
57.638 30.3198 2
56.2573 18.3991 2
55.7738 20.8412 2
55.3596 23.2473 2
56.3346 27.7092 2
55.3941 25.4939 2
48.0517 6.54556 2
49.3019 9.38841 2
54.1052 18.1828 2
52.1524 17.2547 2
51.2823 14.6204 2
50.3813 12.1378 2
58.9262 35.1922 3.97637
56.8747 32.4613 3.9751
55.4249 29.656 3.97503
54.3993 27.0202 3.97417
54.9073 19.4769 3.96059
54.0739 24.4743 3.97125
54.3215 21.9353 3.96519
45.9616 5.8962 3.98043
43.3683 7.49397 3.97899
47.3377 8.658 3.97302
48.5602 11.3996 3.9691
49.6207 13.9122 3.97877
50.4834 16.322 3.96097
52.7931 18.9667 3.96046
51.0671 18.3632 3.95238
51.148 65.0776 0.0334461
51.9971 62.424 0.0355068
57.3265 46.5632 0.0254119
52.7006 59.9501 0.0419414
55.2563 58.0736 0.0403469
53.4832 58.2973 0.038501
56.8151 51.4761 0.0274851
55.317 49.1898 0.0250387
55.0383 55.5421 0.039489
54.6088 53.0539 0.0381055
50.3078 63.3032 2
51.1431 60.7816 2
53.932 57.0612 2
52.0561 58.425 2
55.4903 43.9211 2
54.3951 47.5104 2
54.0985 51.0025 2
53.455 54.2571 2
49.5237 61.6648 3.97775
54.1581 41.5621 3.97429
50.3901 59.1482 3.96933
51.7774 56.2385 3.96487
52.794 45.1561 3.97246
52.1771 48.888 3.96958
51.9022 52.5042 3.95819
48.5924 64.0533 0.0224294
47.9176 62.4039 2
47.2682 60.9219 3.99277
43.6279 67.4522 0.0201767
45.1186 65.1623 0.0190549
46.3548 62.9752 0.0159012
41.6636 67.6729 2
43.357 65.4801 2
45.949 61.4958 2
44.7487 63.3824 2
45.7028 60.5378 4.00523
44.4531 61.7515 3.98382
43.1332 63.6759 3.98023
41.5432 65.6193 3.97332
39.6322 67.7504 3.97783
37.526 70.0401 3.98252
39.7022 70.0159 2
39.8164 72.4016 3.99072
41.8587 69.8682 0.0171099
42.1103 72.2051 2
42.3947 74.6792 4
44.3732 71.8602 0.0103532
44.8159 74.2794 2
47.2057 73.7222 0
43.8503 5.36981 3.97912
46.5694 3.65117 3.98727
48.7839 4.32898 2
49.554 1.99015 4
50.9541 5.13714 0.0153866
51.8506 2.85453 2
54.0858 3.86728 0
59.3731 44.5842 0.0247372
60.4076 41.8555 0.0231935
61.4117 39.3219 0.023359
63.3847 37.463 0.0236302
61.2303 37.4517 2
59.3092 39.7899 2
57.958 42.7606 2
58.7684 37.5721 3.97671
56.85 40.5443 3.97751
53.5464 39.6096 3.97689
61.4539 35.4102 0.0236449
59.4018 32.8794 0.0241182
57.6372 30.319 0.0250408
56.2559 18.3988 0.0434364
55.7569 20.8453 0.0384362
55.3423 23.2467 0.031524
56.3346 27.7095 0.0249347
55.3909 25.4893 0.0262671
54.1027 18.1807 0.0404814
52.1577 17.2594 0.0427553
51.2886 14.625 0.0235194
48.0559 6.53606 0.0199566
49.2988 9.38659 0.026918
50.3769 12.1433 0.0273432
58.9239 35.1911 2
45.9611 5.89482 2
43.3696 7.49779 2
56.8735 32.4612 2
55.4274 29.6537 2
54.8972 19.4822 2
54.3494 21.9333 2
54.0706 24.481 2
54.3997 27.0203 2
47.3403 8.6514 2
48.5636 11.3886 2
52.7874 18.9377 2
51.0682 18.3647 2
50.4907 16.3193 2
49.6167 13.9139 2
56.176 34.8699 3.97732
54.4253 31.7992 3.97429
53.2862 28.8057 3.97577
52.7724 25.9555 3.97326
53.4884 20.4714 3.9675
52.8464 23.1399 3.96952
41.3959 7.09296 3.97867
45.3485 8.01164 3.98435
42.8575 9.44831 3.97323
46.6415 10.728 3.97363
47.6728 13.2213 3.97355
48.7866 15.5689 3.97749
49.7838 17.9552 3.95981
51.3076 19.6765 3.9771
50.3106 63.3056 0.0299963
51.1425 60.7814 0.0302068
55.4865 43.9216 0.0248869
54.3943 47.5098 0.0248131
52.0642 58.422 0.0345655
53.9423 57.0614 0.0327242
54.1031 51.004 0.0343745
53.4611 54.2558 0.0357787
49.5249 61.661 2
54.1521 41.5537 2
50.3889 59.1536 2
51.7805 56.2434 2
52.7879 45.154 2
52.1726 48.886 2
51.9075 52.5054 2
48.7314 60.1106 3.99649
50.7367 42.3657 3.98297
49.5132 57.4306 3.96382
50.0308 54.1364 3.95908
50.4574 46.7795 3.97708
50.2655 50.55 3.95265
46.5043 43.3028 3.9564
47.9192 62.401 0.0101646
47.2736 60.9183 2
46.5243 59.7069 3.99351
41.6618 67.6705 0.0214441
43.3502 65.4798 0.02097
44.7468 63.3906 0.0239443
45.9483 61.4941 0.00896314
39.6341 67.7511 2
41.5484 65.6157 2
45.7082 60.5392 2
43.1332 63.6719 2
44.4534 61.7467 2
44.5772 60.1934 3.99332
42.9269 62.0106 3.98032
41.5895 63.7858 3.98156
39.645 65.5892 3.97597
37.5632 67.7325 3.97659
31.7032 65.0944 3.97182
33.3945 67.4708 3.97869
35.3344 69.9513 3.98259
37.526 70.0419 2
37.5095 72.4556 3.99121
39.7014 70.0155 0.0175819
39.8174 72.4017 2
39.9526 74.9197 4
42.1085 72.2042 0.00961275
42.3947 74.6792 2
44.8159 74.2794 0
41.7354 4.97646 3.98415
43.8503 5.37077 2
44.3256 3.11335 3.98915
46.5707 3.65063 2
47.2057 1.27793 4
48.785 4.32498 0.0140309
49.554 1.99013 2
51.8506 2.85458 0
57.9593 42.7617 0.0240965
59.3109 39.7897 0.023377
61.229 37.4518 0.0232769
58.7695 37.5724 2
56.8505 40.5458 2
53.5431 39.6105 2
55.5089 37.8845 3.97704
47.7502 41.102 3.96667
51.2725 39.2491 3.97913
39.4397 6.81592 3.97785
58.9262 35.1922 0.0236332
56.8747 32.4613 0.0249009
55.4249 29.656 0.0249707
54.9073 19.4769 0.0394083
54.3215 21.9353 0.0348067
54.0739 24.4743 0.0287501
54.3993 27.0202 0.025827
52.7931 18.9667 0.0395382
51.0671 18.3632 0.0476223
50.4834 16.322 0.0390294
45.9616 5.8962 0.0195728
49.6207 13.9122 0.0212343
47.3377 8.658 0.0269801
48.5602 11.3996 0.0308969
43.3683 7.49397 0.0210099
56.1745 34.8726 2
41.3975 7.09413 2
45.3493 8.01357 2
42.8545 9.44873 2
54.4217 31.7989 2
53.2815 28.8063 2
53.4912 20.4779 2
52.822 23.1514 2
52.7791 25.9557 2
46.6411 10.7181 2
47.6751 13.2094 2
51.3119 19.6764 2
49.7844 17.9478 2
48.7961 15.5944 2
53.325 34.1199 3.9756
52.0472 30.8737 3.97463
51.42 27.6741 3.97489
51.2615 24.571 3.97077
51.8653 21.453 3.97408
41.0075 9.06847 3.97531
44.7129 10.0392 3.97851
42.4454 10.9362 4.00422
45.9429 12.8087 3.97147
47.5727 14.7469 3.9752
47.9191 17.1627 3.98086
49.5521 20.0757 3.98809
49.5237 61.6648 0.02225
50.3901 59.1482 0.0306734
54.1581 41.5621 0.0257111
52.794 45.1561 0.0275363
52.1771 48.888 0.0304182
51.7774 56.2385 0.0351334
51.9022 52.5042 0.0418068
48.731 60.1089 2
50.7635 42.391 2
49.5121 57.4255 2
50.0308 54.1388 2
50.4581 46.7791 2
50.2684 50.55 2
46.5153 43.3455 2
47.8229 58.5811 3.99049
48.5035 44.8788 3.98215
48.2176 55.6885 3.95106
48.4394 52.2677 3.97749
48.5723 48.6038 3.97214
44.1614 39.674 3.8089
44.7298 42.2486 3.85778
45.0999 45.2259 3.97378
42.0792 40.9487 3.56775
41.1481 41.4441 3.36574
47.2682 60.9219 0.00723129
46.5296 59.7073 2
45.3678 58.6849 3.99378
39.6322 67.7504 0.022166
41.5432 65.6193 0.0266849
43.1332 63.6759 0.0197676
44.4531 61.7515 0.0161768
45.7028 60.5378 -0.00523192
41.5934 63.7791 2
37.5649 67.7347 2
39.6495 65.5909 2
44.5738 60.1962 2
42.9269 62.0027 2
41.7366 62.432 3.98594
42.4461 59.8814 3.98792
39.8864 63.5246 3.98029
37.6407 65.4871 3.9757
35.4639 67.6419 3.97575
33.5786 65.3118 3.97347
31.9696 63.2464 3.9868
29.895 64.6857 3.97889
31.6968 65.104 2
31.3822 67.1844 3.97875
33.396 67.4756 2
33.1585 69.7452 3.98331
35.3339 69.9529 2
35.1966 72.3708 3.99157
37.526 70.0401 0.0174755
37.51 72.4563 2
37.5 75 4
39.8164 72.4016 0.009282
39.9526 74.9197 2
42.3947 74.6792 0
39.624 4.72254 3.9854
41.7352 4.97702 2
42.0622 2.72024 3.99007
43.8503 5.36981 0.020883
44.3258 3.11357 2
44.8158 0.721173 4
46.5694 3.65117 0.0127265
47.2057 1.27779 2
49.554 1.99015 0
56.85 40.5443 0.0224886
58.7684 37.5721 0.0232857
53.5464 39.6096 0.0231144
47.7938 41.1277 2
55.5058 37.8832 2
51.2878 39.2333 2
52.2115 36.6353 3.97692
45.6722 40.2084 3.87934
48.6062 38.4656 3.96486
37.5143 6.68397 3.98209
39.4408 6.81484 2
39.2072 8.71608 3.98212
35.9418 8.50922 3.97788
56.176 34.8699 0.0226842
54.4253 31.7992 0.0257132
53.2862 28.8057 0.0242321
53.4884 20.4714 0.0325
52.8464 23.1399 0.0304829
52.7724 25.9555 0.02674
51.3076 19.6765 0.0228956
49.7838 17.9552 0.0401884
48.7866 15.5689 0.0225149
45.3485 8.01164 0.0156489
47.6728 13.2213 0.0264508
46.6415 10.728 0.0263725
41.3959 7.09296 0.0213277
42.8575 9.44831 0.0267666
53.3272 34.1249 2
41.004 9.07008 2
44.7115 10.035 2
42.4423 10.9422 2
52.0521 30.8698 2
51.4227 27.6761 2
51.8639 21.457 2
51.2501 24.581 2
45.9448 12.7977 2
47.5669 14.7293 2
49.5672 20.0911 2
47.9187 17.1594 2
50.7058 33.1204 3.97496
49.8575 29.6671 3.97646
49.7168 26.1905 3.97058
49.3999 22.6406 3.97205
40.5522 11.6288 3.98936
43.8079 11.9637 3.96681
45.6951 15.612 4.00096
47.2682 19.6577 3.97821
44.4501 37.5066 3.82048
48.7314 60.1106 0.00350781
49.5132 57.4306 0.0361762
50.7367 42.3657 0.0170345
50.4574 46.7795 0.0229189
50.2655 50.55 0.0473471
50.0308 54.1364 0.0409209
46.5043 43.3028 0.0435977
47.8146 58.5834 2
48.5182 44.8917 2
48.2113 55.6922 2
48.4395 52.2729 2
48.5762 48.6048 2
44.2837 39.6909 2
44.7658 42.2917 2
45.1067 45.2494 2
42.144 41.0137 2
41.1897 41.4665 2
46.6126 57.1696 3.99223
42.6772 39.3946 3.56003
41.5243 40.443 3.34681
46.7887 46.8423 3.99233
46.6887 53.97 3.95581
46.7596 50.3963 3.97261
43.7761 46.8426 3.98099
43.406 41.6455 3.81524
43.6551 44.0164 3.84394
41.4539 42.1315 3.59337
40.3136 41.7143 3.28624
46.5243 59.7069 0.00648912
45.3598 58.6836 2
43.7784 57.5464 3.99684
37.5632 67.7325 0.023407
39.645 65.5892 0.0240308
41.5895 63.7858 0.0184361
42.9269 62.0106 0.0196795
44.5772 60.1934 0.00668442
35.4653 67.6433 2
41.7358 62.4271 2
39.8888 63.5271 2
37.6439 65.4898 2
42.4439 59.8832 2
40.608 61.5801 3.98783
40.415 58.0576 3.99204
37.8342 63.1763 3.97368
35.5734 65.4045 3.97462
33.5747 65.304 2
31.9703 63.2303 2
33.6348 63.3022 3.98653
30.4013 62.7898 3.98302
32.1477 61.9469 3.99665
26.9268 61.3692 3.99044
28.0853 64.0866 3.98858
29.8927 64.6792 2
29.4139 66.7369 3.97984
31.7032 65.0944 0.0281821
31.3834 67.1857 2
31.0168 69.4116 3.98382
33.3945 67.4708 0.0213141
33.1574 69.7479 2
32.8951 72.1452 3.9914
35.3344 69.9513 0.017411
35.1962 72.3717 2
35.0474 74.9194 4
37.5095 72.4556 0.00879272
37.5 75 2
39.9526 74.9197 0
35.6192 6.73601 3.97924
37.524 4.62148 3.98628
39.6234 4.72173 2
39.789 2.47624 3.99139
41.7354 4.97646 0.015852
42.0622 2.72052 2
42.3946 0.32156 4
44.3256 3.11335 0.0108471
44.8159 0.72056 2
47.2057 1.27793 0
47.7502 41.102 0.0333337
55.5089 37.8845 0.0229578
51.2725 39.2491 0.0208716
45.7335 40.1948 2
48.6491 38.4601 2
52.2086 36.6309 2
49.454 35.6255 3.97854
46.2332 37.7008 3.84094
44.1895 35.3013 3.812
42.1304 34.0075 3.56895
41.1932 33.5113 3.36911
37.4569 8.54719 3.98023
37.5153 6.68415 2
39.4397 6.81592 0.0221526
39.2067 8.7169 2
38.9688 10.1534 3.9934
35.8972 9.79323 3.98155
34.1521 8.8403 3.97648
35.9408 8.51009 2
53.325 34.1199 0.024401
52.0472 30.8737 0.0253741
51.42 27.6741 0.0251127
51.8653 21.453 0.0259211
51.2615 24.571 0.0292255
49.5521 20.0757 0.0119116
47.9191 17.1627 0.0191354
47.5727 14.7469 0.0248015
44.7129 10.0392 0.0214865
45.9429 12.8087 0.0285325
41.0075 9.06847 0.0246894
42.4454 10.9362 -0.00421983
50.7292 33.1029 2
40.5544 11.644 2
43.808 11.9434 2
49.8678 29.6631 2
49.7162 26.2058 2
49.393 22.6205 2
45.6787 15.5561 2
47.2804 19.6991 2
48.3099 31.6816 3.97959
48.0375 27.9772 3.97513
48.5676 24.798 3.96778
46.8003 22.466 3.99174
38.2957 12.7772 3.98065
42.0417 14.428 3.99293
44.6186 18.7166 3.99689
42.9439 37.4878 3.5546
44.5701 37.4933 2
47.8229 58.5811 0.00951028
48.2176 55.6885 0.0489417
48.5035 44.8788 0.0178527
48.5723 48.6038 0.0278627
48.4394 52.2677 0.0225057
44.1614 39.674 0.191103
44.7298 42.2486 0.142218
45.0999 45.2259 0.0262174
42.0792 40.9487 0.432245
41.1481 41.4441 0.634261
46.6057 57.1763 2
42.7702 39.4105 2
41.5516 40.4489 2
46.794 46.8458 2
46.6811 53.9731 2
46.7591 50.4091 2
43.8189 46.8591 2
43.4785 41.7071 2
43.719 44.0547 2
41.5117 42.2285 2
40.396 41.7312 2
45.1119 55.7303 4.00279
41.8349 39.0363 3.35729
40.1574 40.3942 3.38497
45.1353 48.4828 4.00312
44.9109 52.1956 3.99488
42.6136 47.8186 3.98779
42.4571 45.4774 3.85467
42.5111 43.3148 3.78486
40.6141 43.0088 3.56166
39.0923 42.0129 3.37613
45.3678 58.6849 0.00621656
43.7698 57.5595 2
42.0028 56.0847 3.99547
35.4639 67.6419 0.0242496
37.6407 65.4871 0.0242962
39.8864 63.5246 0.0197119
41.7366 62.432 0.0140572
42.4461 59.8814 0.0120832
35.5756 65.4107 2
40.6087 61.5662 2
37.8376 63.1792 2
40.4126 58.0687 2
38.9044 56.2323 3.99562
38.2415 60.26 3.98952
35.6083 63.1706 3.97483
33.5786 65.3118 0.0265281
31.9696 63.2464 0.0132039
33.6352 63.3048 2
30.4004 62.7765 2
32.1563 61.9342 2
28.7195 62.1211 3.98707
33.364 61.4664 3.98916
31.132 61.156 4.0117
27.6778 59.4703 3.96308
23.9283 58.9106 3.9776
25.1119 60.7128 3.98035
26.925 61.3774 2
26.2661 63.4105 3.97666
28.0871 64.0921 2
27.4772 66.1546 3.97802
29.895 64.6857 0.0211147
29.4141 66.7499 2
28.9123 68.9312 3.98165
31.3822 67.1844 0.0212482
31.0151 69.4124 2
30.6185 71.7774 3.99105
33.1585 69.7452 0.0166915
32.8936 72.1463 2
32.6054 74.6784 4
35.1966 72.3708 0.00843281
35.0474 74.9197 2
37.5 75 0
33.722 6.99205 3.97766
35.4364 4.69139 3.98589
35.6202 6.73657 2
37.5152 2.38876 3.99163
37.5229 4.62088 2
39.624 4.72254 0.0145975
39.7887 2.47601 2
39.9526 0.0806499 4
42.0622 2.72024 0.00993487
42.3947 0.320817 2
44.8158 0.721173 0
42.7164 35.5712 3.56631
41.5665 34.4989 3.33276
45.6722 40.2084 0.120661
48.6062 38.4656 0.0351428
52.2115 36.6353 0.0230845
46.2665 37.7143 2
49.4965 35.6436 2
44.3085 35.2862 2
42.1925 33.9401 2
41.2072 33.4835 2
46.5683 34.531 3.92167
43.4619 33.3116 3.80746
41.4937 32.8277 3.59649
40.3307 33.2481 3.28411
37.3066 10.6486 3.98036
37.4567 8.5475 2
37.5143 6.68397 0.0179117
39.2072 8.71608 0.0178826
38.9714 10.1577 2
34.7554 10.4058 3.97485
35.9012 9.79395 2
32.3808 9.38969 3.97168
34.1506 8.84217 2
35.9418 8.50922 0.0221245
50.7058 33.1204 0.0250373
49.8575 29.6671 0.0235433
49.7168 26.1905 0.0294165
49.3999 22.6406 0.0279503
47.2682 19.6577 0.0217862
45.6951 15.612 -0.000958794
43.8079 11.9637 0.0331854
40.5522 11.6288 0.0106418
48.3299 31.6595 2
38.2939 12.7816 2
42.056 14.4221 2
48.0303 27.9751 2
48.5669 24.8078 2
46.7928 22.4556 2
44.629 18.7844 2
46.3121 30.0154 3.97648
46.266 25.5046 3.97717
44.0268 21.7376 3.98194
36.5897 12.9918 3.98145
38.6517 14.9416 3.98039
41.6419 18.0579 3.98989
41.976 37.4553 3.36771
43.0307 37.4889 2
44.4501 37.5066 0.17952
46.6126 57.1696 0.00776947
46.6887 53.97 0.0441898
46.7887 46.8423 0.00767195
46.7596 50.3963 0.0273908
42.6772 39.3946 0.439974
43.406 41.6455 0.18476
43.6551 44.0164 0.156062
43.7761 46.8426 0.0190144
41.4539 42.1315 0.406627
41.5243 40.443 0.653193
40.3136 41.7143 0.713757
45.1071 55.7319 2
41.8644 39.0432 2
40.2538 40.3833 2
45.1329 48.5094 2
44.9021 52.1976 2
42.6649 47.8428 2
42.5288 45.5569 2
42.5646 43.3499 2
40.6876 43.1009 2
39.0466 42.0576 2
43.4282 54.1448 4.00514
40.1936 38.9272 3.42095
39.0003 40.4979 3.38472
42.9617 49.9326 4.00382
41.3295 46.951 3.91013
41.232 44.5364 3.78379
39.3646 43.6735 3.56347
37.5033 42.1746 3.44838
43.7784 57.5464 0.00315766
42.0036 56.0749 2
40.3027 54.6409 3.99702
35.5734 65.4045 0.0253809
37.8342 63.1763 0.026323
40.608 61.5801 0.0121689
40.415 58.0576 0.00795704
35.6106 63.1722 2
38.2417 60.2421 2
38.903 56.2239 2
37.9695 54.913 3.99512
36.9334 57.4642 3.99425
35.3694 60.8509 3.9864
33.6348 63.3022 0.0134736
30.4013 62.7898 0.0169758
32.1477 61.9469 0.00335469
33.3761 61.4596 2
28.7146 62.1322 2
31.128 61.1494 2
29.5035 60.2787 3.97981
32.391 59.5983 3.99377
28.1704 58.24 4.00695
27.6789 59.4766 2
25.5248 58.437 3.97133
22.9403 58.0554 3.96722
23.4908 60.1817 3.9706
23.9293 58.9097 2
25.1111 60.7081 2
24.4827 62.6759 3.97045
26.9268 61.3692 0.00955528
26.2666 63.4205 2
25.5687 65.4468 3.97376
28.0853 64.0866 0.0114245
27.4719 66.1379 2
26.8445 68.3229 3.98095
29.4139 66.7369 0.0201575
28.9079 68.934 2
28.3747 71.2608 3.98775
31.0168 69.4116 0.0161762
30.6163 71.7767 2
30.1842 74.2788 4
32.8951 72.1452 0.00860356
32.6053 74.6792 2
35.0474 74.9194 0
31.7864 7.43448 3.97525
33.3489 4.93099 3.98423
33.7233 6.99321 2
35.2459 2.4647 3.99128
35.4346 4.692 2
35.6192 6.73601 0.0207594
37.5 0 4
37.5142 2.38867 2
37.524 4.62148 0.0137221
39.789 2.47624 0.00861334
39.9526 0.0802889 2
42.3946 0.32156 0
41.8359 35.875 3.30285
42.825 35.5552 2
40.2177 34.5393 3.40603
41.5904 34.4844 2
46.2332 37.7008 0.159057
49.454 35.6255 0.0214572
44.1895 35.3013 0.187997
42.1304 34.0075 0.431048
41.1932 33.5113 0.630887
46.6173 34.5311 2
43.5241 33.2499 2
41.5384 32.7331 2
40.3902 33.2328 2
44.7631 32.0203 3.87455
42.5437 31.641 3.77304
40.6487 31.9516 3.56726
39.0871 32.9553 3.37615
35.6964 11.8122 3.97384
37.3131 10.6492 2
37.4569 8.54719 0.0197728
38.9688 10.1534 0.00659887
33.1044 11.2552 3.97168
34.7592 10.4036 2
35.8972 9.79323 0.0184543
30.4894 10.0499 3.97248
32.3793 9.39558 2
34.1521 8.8403 0.0235178
48.3099 31.6816 0.0204059
48.0375 27.9772 0.0248732
48.5676 24.798 0.03222
46.8003 22.466 0.00826288
44.6186 18.7166 0.00311305
42.0417 14.428 0.00706995
38.2957 12.7772 0.0193529
36.5839 12.9917 2
46.2928 29.9591 2
38.6632 14.912 2
41.6217 18.0439 2
46.2656 25.4906 2
44.0243 21.7327 2
44.4319 28.1864 3.9903
43.236 24.4056 4.00581
41.1408 21.0956 3.99604
35.7764 14.821 3.99391
38.6036 17.8189 3.99269
40.2517 37.4099 3.45247
42.0149 37.4634 2
42.9439 37.4878 0.445401
45.1119 55.7303 -0.00279261
44.9109 52.1956 0.00512204
45.1353 48.4828 -0.00312301
41.8349 39.0363 0.642713
42.5111 43.3148 0.215135
42.4571 45.4774 0.145333
42.6136 47.8186 0.0122074
40.6141 43.0088 0.438339
40.1574 40.3942 0.615026
39.0923 42.0129 0.623868
43.4216 54.1415 2
40.2537 38.9318 2
38.9655 40.5017 2
42.9443 49.9532 2
41.3248 46.9766 2
41.2571 44.5868 2
37.4915 42.1979 2
39.3819 43.7695 2
41.5855 52.5951 4.00448
39.014 38.9929 3.36784
37.496 40.5337 3.4639
35.9025 42.0355 3.37461
40.5893 49.0982 3.98766
39.5483 45.2324 3.75383
37.4967 43.9911 3.61469
42.0028 56.0847 0.00452923
40.2985 54.6485 2
38.6691 53.3792 3.99831
35.6083 63.1706 0.0251669
38.2415 60.26 0.0104769
38.9044 56.2323 0.00438331
35.3797 60.8419 2
36.9367 57.4789 2
37.9627 54.9086 2
36.3271 55.0246 3.99542
34.5173 58.3897 3.99534
33.364 61.4664 0.0108425
28.7195 62.1211 0.0129292
31.132 61.156 -0.0117014
32.3953 59.5944 2
29.504 60.2855 2
30.4154 57.606 3.98033
28.1672 58.2359 2
27.1863 56.6677 3.96333
27.6778 59.4703 0.0369173
25.5267 58.4346 2
24.1244 56.5985 3.95877
21.6347 57.1796 3.9602
22.1058 59.459 3.97354
22.9453 58.0547 2
22.7984 61.8834 3.97059
23.4895 60.1823 2
23.9283 58.9106 0.0223994
25.1119 60.7128 0.0196514
24.4825 62.6835 2
23.7087 64.6544 3.9647
26.2661 63.4105 0.0233373
25.5647 65.4457 2
24.8181 67.5832 3.97193
27.4772 66.1546 0.0219777
26.8406 68.3255 2
26.1705 70.6031 3.98826
28.9123 68.9312 0.0183495
28.3714 71.2616 2
27.7943 73.7221 4
30.6185 71.7774 0.00895244
30.1841 74.2794 2
32.6054 74.6784 0
29.8097 8.01439 3.97051
31.2541 5.33974 3.98242
31.7882 7.43385 2
32.982 2.70279 3.99071
33.3468 4.93175 2
33.722 6.99205 0.0223428
35.0474 0.080333 4
35.2444 2.46511 2
35.4364 4.69139 0.0141145
37.5 0 2
37.5152 2.38876 0.00837088
39.9526 0.0806499 0
40.3419 35.9561 3.46243
41.8853 35.8745 2
42.7164 35.5712 0.433687
28.5528 10.7317 3.97168
38.9904 34.4899 3.36562
40.2245 34.5316 2
41.5665 34.4989 0.667244
46.5683 34.531 0.0783262
43.4619 33.3116 0.192536
41.4937 32.8277 0.403511
40.3307 33.2481 0.715885
44.7891 31.9889 2
42.6039 31.5981 2
40.7188 31.862 2
39.0573 32.9106 2
43.2881 30.3231 3.85798
41.2497 30.4038 3.78488
39.3649 31.291 3.56977
37.5027 32.8185 3.4457
34.1032 12.9789 3.98241
35.7002 11.805 2
37.3066 10.6486 0.0196394
31.1978 12.0324 3.97456
33.1073 11.2497 2
34.7554 10.4058 0.0251487
30.4855 10.0475 2
32.3808 9.38969 0.0283173
46.3121 30.0154 0.0235165
46.266 25.5046 0.0228259
36.5897 12.9918 0.0185496
44.0268 21.7376 0.0180581
41.6419 18.0579 0.0101112
38.6517 14.9416 0.0196089
35.7646 14.8464 2
44.427 28.1952 2
38.619 17.8064 2
41.158 21.0775 2
43.2253 24.3841 2
33.6401 15.951 3.9916
42.3764 26.9633 3.96624
40.7153 23.827 4.00377
38.3518 20.6474 3.99562
35.8183 17.7272 3.98443
39.0193 37.4909 3.3487
40.2886 37.42 2
41.976 37.4553 0.632294
43.4282 54.1448 -0.00514158
42.9617 49.9326 -0.00381548
40.1936 38.9272 0.57905
41.232 44.5364 0.216214
41.3295 46.951 0.0898685
39.3646 43.6735 0.436531
39.0003 40.4979 0.615283
37.5033 42.1746 0.551616
41.5727 52.5914 2
38.9809 38.9883 2
37.4816 40.5398 2
40.5748 49.1023 2
35.941 42.0757 2
39.5832 45.3075 2
37.4874 44.0723 2
39.6657 51.3327 3.99944
37.4953 38.9882 3.43392
36.0337 40.5219 3.37659
34.6895 41.7457 3.28284
35.6324 43.6938 3.56292
38.5678 47.9106 3.91771
37.4845 45.5199 3.78696
40.3027 54.6409 0.00297702
38.6631 53.3906 2
36.7703 52.7324 3.99846
35.3694 60.8509 0.0136008
36.9334 57.4642 0.005751
37.9695 54.913 0.00488395
34.5117 58.3953 2
36.3332 55.0244 2
33.407 55.2191 4.00911
32.391 59.5983 0.00622911
29.5035 60.2787 0.0201902
30.4153 57.5933 2
29.029 55.1851 3.98815
28.1704 58.24 -0.00695232
27.1907 56.666 2
25.7161 54.9231 3.95839
22.2851 55.0776 3.95963
25.5248 58.437 0.0286677
24.1288 56.5965 2
20.5289 56.8112 3.96188
20.8009 58.6076 3.96113
21.6398 57.18 2
21.2412 61.0152 3.96735
22.1032 59.4598 2
22.9403 58.0554 0.0327777
21.9311 63.7467 3.96872
22.7986 61.8891 2
23.4908 60.1817 0.0294019
24.4827 62.6759 0.0295466
23.7043 64.652 2
22.8475 66.7173 3.96959
25.5687 65.4468 0.0262386
24.8141 67.5773 2
24.0146 69.8047 3.98601
26.8445 68.3229 0.0190516
26.1652 70.6025 2
25.446 73.0099 4
28.3747 71.2608 0.0122517
27.7943 73.7222 2
30.1842 74.2788 0
27.821 8.68611 3.97219
29.1559 5.88615 3.97988
29.8104 8.01157 2
30.7278 3.10035 3.98987
31.2519 5.33899 2
31.7864 7.43448 0.0247548
32.6053 0.320823 4
32.9801 2.70331 2
33.3489 4.93099 0.0157662
35.0474 0.0802903 2
35.2459 2.4647 0.00871858
37.5 0 0
38.9019 35.9984 3.36534
40.3149 35.9548 2
41.8359 35.875 0.697147
28.5497 10.7334 2
26.6375 11.4337 3.97249
29.2432 12.6815 3.97857
37.5126 34.4659 3.46414
39.0081 34.4991 2
40.2177 34.5393 0.593974
44.7631 32.0203 0.125455
42.5437 31.641 0.22696
40.6487 31.9516 0.432743
39.0871 32.9553 0.62385
43.3415 30.2795 2
41.2942 30.3473 2
39.3813 31.1916 2
37.5136 32.7926 2
41.6635 29.059 3.84883
39.5671 29.7312 3.77636
37.4957 30.9888 3.61738
35.9112 32.9732 3.38114
31.9491 14.5344 3.98595
34.1065 12.9793 2
35.6964 11.8122 0.0261579
31.197 12.0194 2
33.1044 11.2552 0.0283162
30.4894 10.0499 0.0275181
44.4319 28.1864 0.00970204
43.236 24.4056 -0.00580527
35.7764 14.821 0.0060938
41.1408 21.0956 0.00395712
38.6036 17.8189 0.00731191
33.6196 15.9307 2
35.8421 17.607 2
42.4346 26.9204 2
38.2921 20.683 2
40.6918 23.8436 2
33.5801 17.4937 3.99074
40.149 26.3336 3.96028
37.9898 23.6074 3.99517
35.5134 20.4822 3.99505
37.5262 37.4843 3.45441
38.977 37.4863 2
40.2517 37.4099 0.547535
41.5855 52.5951 -0.00447782
40.5893 49.0982 0.0123401
39.014 38.9929 0.632157
39.5483 45.2324 0.246171
37.4967 43.9911 0.385313
37.496 40.5337 0.536099
35.9025 42.0355 0.625392
39.6533 51.323 2
37.4801 38.9943 2
36.0166 40.4971 2
38.5926 47.9806 2
34.6186 41.7628 2
35.6066 43.7933 2
37.4915 45.5925 2
37.671 50.2951 3.98967
36.1027 39.0203 3.373
34.804 40.4313 3.40633
33.8312 41.4841 3.36895
34.3892 43.0418 3.55848
35.3965 45.3104 3.78517
36.9422 47.5416 3.86882
38.6691 53.3792 0.00168681
36.7971 52.678 2
34.5338 52.0811 3.99966
34.5173 58.3897 0.00465507
36.3271 55.0246 0.00458302
33.4115 55.2181 2
30.9144 53.2027 3.99458
30.4154 57.606 0.0196691
29.0342 55.1919 2
27.4044 53.1875 3.95257
27.1863 56.6677 0.0366695
25.7241 54.9223 2
24.1959 53.1681 3.95375
21.2117 52.8847 3.95878
20.3885 55.5751 3.96025
22.2873 55.0774 2
24.1244 56.5985 0.0412269
19.677 57.7005 3.9612
20.5211 56.8152 2
19.7802 60.0712 3.97343
20.7895 58.6136 2
21.6347 57.1796 0.039796
20.2574 62.7253 3.97131
21.2477 61.0218 2
22.1058 59.459 0.0264578
20.9535 65.7191 3.96573
21.9278 63.7412 2
22.7984 61.8834 0.029413
23.7087 64.6544 0.0353003
22.8447 66.7139 2
21.9183 68.8683 3.98187
24.8181 67.5832 0.0280677
24.0102 69.8005 2
23.1494 72.1454 4
26.1705 70.6031 0.0117408
25.446 73.0099 2
27.7943 73.7221 0
25.862 9.42129 3.97195
27.0704 6.55274 3.97653
27.8204 8.6768 2
28.4902 3.64581 3.98873
29.1538 5.8872 2
29.8097 8.01439 0.029491
30.1841 0.720592 4
30.7247 3.1004 2
31.2541 5.33974 0.0175787
32.6053 0.320817 2
32.982 2.70279 0.00928656
35.0474 0.080333 0
37.5166 35.9852 3.42091
38.8766 35.9577 2
40.3419 35.9561 0.537575
24.8017 12.1157 3.96789
23.8039 14.5306 3.97947
28.5528 10.7317 0.0283201
26.632 11.4385 2
29.2403 12.6971 2
27.3085 13.4623 3.97479
29.8237 14.2361 3.99877
36.0021 34.4888 3.39227
37.5382 34.4513 2
38.9904 34.4899 0.634378
37.5027 32.8185 0.554297
43.2881 30.3231 0.142022
41.2497 30.4038 0.215117
39.3649 31.291 0.430227
41.6933 28.9809 2
39.581 29.6573 2
37.5014 30.9082 2
35.9503 32.9293 2
39.7505 28.3485 3.84626
37.4627 29.4351 3.77211
35.6391 31.314 3.56649
34.674 33.2703 3.29131
30.9968 16.8942 3.99695
31.9394 14.5107 2
34.1032 12.9789 0.0175917
31.1978 12.0324 0.0254413
42.3764 26.9633 0.0337641
40.7153 23.827 -0.00376647
33.6401 15.951 0.00839512
35.8183 17.7272 0.015575
38.3518 20.6474 0.00438478
33.5346 17.5467 2
35.4608 20.556 2
40.1548 26.3227 2
38.0567 23.5998 2
33.0168 20.0502 3.99766
37.7663 26.0114 3.95402
35.4072 23.2383 4.0073
36.0566 37.4842 3.35675
37.4976 37.4847 2
39.0193 37.4909 0.651304
39.6657 51.3327 0.000562533
38.5678 47.9106 0.082291
37.4953 38.9882 0.566077
37.4845 45.5199 0.21304
35.6324 43.6938 0.437077
36.0337 40.5219 0.623409
34.6895 41.7457 0.717161
37.6329 50.3309 2
36.1566 39.0028 2
34.7536 40.4484 2
36.9272 47.6112 2
33.7942 41.5131 2
34.3159 43.1274 2
35.3679 45.3705 2
35.5902 49.4908 3.98083
34.7147 38.9941 3.45718
33.454 40.4948 3.33155
33.5349 42.1687 3.59426
33.7988 44.5697 3.7743
34.7078 46.7137 3.8483
36.7703 52.7324 0.00153844
34.5246 52.1076 2
32.4551 50.8571 4.00417
33.407 55.2191 -0.00911497
30.9168 53.202 2
29.029 51.2091 3.98323
29.029 55.1851 0.0118529
27.411 53.1877 2
25.8182 51.3814 3.9548
25.7161 54.9231 0.0416148
24.2022 53.1707 2
22.8076 51.4333 3.95481
20.1282 51.2607 3.96567
19.567 54.0067 3.96149
21.2123 52.8831 2
18.8331 56.4978 3.96136
20.3871 55.5768 2
22.2851 55.0776 0.0403735
18.5134 58.962 3.95421
19.6719 57.7031 2
20.5289 56.8112 0.0381192
18.66 61.6776 3.97731
19.7844 60.0738 2
20.8009 58.6076 0.0388694
19.1481 64.6057 3.96676
20.2557 62.7275 2
21.2412 61.0152 0.0326517
19.8917 67.8081 3.98045
20.9486 65.7181 2
21.9311 63.7467 0.0312794
22.8475 66.7173 0.0304116
21.9135 68.8657 2
20.9142 71.1327 4
24.0146 69.8047 0.013991
23.1494 72.1455 2
25.446 73.0099 0
23.1226 12.926 3.97317
23.9808 10.1991 3.97039
25.024 7.32555 3.97276
25.8622 9.41956 2
26.2821 4.33068 3.98746
27.0677 6.55336 2
27.821 8.68611 0.0278065
27.7943 1.27781 4
28.4862 3.64771 2
29.1559 5.88615 0.0201166
30.1841 0.720551 2
30.7278 3.10035 0.0101262
32.6053 0.320823 0
36.0124 35.9871 3.37318
37.5624 35.9997 2
38.9019 35.9984 0.634663
24.7871 12.1576 2
23.8011 14.5392 2
22.5588 15.197 3.98373
25.3905 14.066 3.97583
24.126 15.7843 4.01219
26.6375 11.4337 0.0275101
29.2432 12.6815 0.0214267
27.3213 13.4339 2
29.8109 14.2524 2
28.4411 15.9954 3.98882
34.8299 34.5828 3.39147
36.0439 34.488 2
37.5126 34.4659 0.535865
35.9112 32.9732 0.618858
37.4957 30.9888 0.382622
41.6635 29.059 0.151174
39.5671 29.7312 0.223642
39.7972 28.2893 2
37.4698 29.3888 2
35.6211 31.2195 2
34.6024 33.253 2
37.6121 28.0533 3.84023
35.4497 29.745 3.7706
34.3689 31.9731 3.56293
33.829 33.5366 3.36935
30.3611 19.7013 3.98291
30.957 16.898 2
31.9491 14.5344 0.0140489
40.149 26.3336 0.0397195
37.9898 23.6074 0.00482836
33.5801 17.4937 0.00925952
35.5134 20.4822 0.00495295
33.0081 20.0682 2
35.3555 23.2236 2
37.7361 25.9813 2
32.6651 22.8184 4.00591
35.261 25.8658 3.98166
34.7172 37.5227 3.47585
36.0482 37.5078 2
37.5262 37.4843 0.545591
37.671 50.2951 0.0103266
36.9422 47.5416 0.131184
36.1027 39.0203 0.626996
35.3965 45.3104 0.214834
34.3892 43.0418 0.441516
34.804 40.4313 0.593666
33.8312 41.4841 0.63105
35.5807 49.5008 2
34.6864 39.007 2
33.4293 40.4976 2
34.6528 46.7895 2
33.4794 42.2667 2
33.7502 44.6244 2
33.661 48.6135 3.96946
33.1637 39.1028 3.30518
32.8834 40.9848 3.56741
32.4746 43.3547 3.78109
33.0435 45.7092 3.84368
34.5338 52.0811 0.000340165
32.4705 50.8515 2
30.6452 49.3548 4.00275
30.9144 53.2027 0.00542012
29.035 51.1974 2
27.3857 49.5712 3.97949
27.4044 53.1875 0.0474324
25.8261 51.3799 2
24.297 49.7765 3.96926
24.1959 53.1681 0.046253
22.81 51.4307 2
21.5104 49.902 3.96786
18.8334 49.991 3.97372
18.6182 52.4652 3.96698
20.1235 51.2597 2
17.9899 55.0777 3.96265
19.5603 54.0076 2
21.2117 52.8847 0.0412178
17.4113 57.6942 3.9579
18.8335 56.4983 2
20.3885 55.5751 0.0397539
17.2131 60.4499 3.94928
18.5109 58.9651 2
19.677 57.7005 0.0388002
17.4142 63.4139 3.97263
18.6586 61.6716 2
19.7802 60.0712 0.0265714
17.9492 66.6076 3.97123
19.1403 64.6031 2
20.2574 62.7253 0.0286934
18.75 69.9759 4
19.8876 67.8029 2
20.9535 65.7191 0.0342705
21.9183 68.8683 0.0181271
20.9142 71.1327 2
23.1494 72.1454 0
21.6279 13.7452 3.96793
22.2052 11.0974 3.96429
23.1221 12.9177 2
23.0427 8.19841 3.97174
23.9763 10.2255 2
24.1198 5.14569 3.98653
25.0199 7.327 2
25.862 9.42129 0.0280544
25.446 1.99014 4
26.2771 4.33234 2
27.0704 6.55274 0.0234673
27.7943 1.27778 2
28.4902 3.64581 0.0112686
30.1841 0.720592 0
34.7979 36.0299 3.42833
36.0512 35.9918 2
37.5166 35.9852 0.579087
21.4263 16.0001 3.96055
24.8017 12.1157 0.0321059
23.8039 14.5306 0.0205349
25.3905 14.0312 2
22.5608 15.1923 2
24.1268 15.7975 2
23.4125 16.4058 3.96701
25.474 16.2929 3.98998
27.3085 13.4623 0.0252082
29.8237 14.2361 0.00123072
28.4238 16.0524 2
27.6135 19.106 3.98987
33.4545 34.5323 3.3517
34.7383 34.5931 2
36.0021 34.4888 0.607728
34.674 33.2703 0.708688
35.6391 31.314 0.433513
37.4627 29.4351 0.227886
39.7505 28.3485 0.153741
37.5663 28.0236 2
33.7924 33.5168 2
35.4375 29.6771 2
34.3068 31.884 2
35.33 28.1476 3.85992
33.7716 30.4333 3.78212
33.5198 32.8416 3.59922
30.0028 22.3195 4.01088
30.3394 19.7138 2
30.9968 16.8942 0.00304704
37.7663 26.0114 0.0459802
35.4072 23.2383 -0.0072977
33.0168 20.0502 0.00234133
32.6602 22.7795 2
35.2706 25.8568 2
32.3393 26.147 4.01755
33.0113 37.5132 3.35548
34.7051 37.5157 2
36.0566 37.4842 0.643245
35.5902 49.4908 0.0191702
34.7078 46.7137 0.151703
34.7147 38.9941 0.542821
33.7988 44.5697 0.225703
33.5349 42.1687 0.405745
33.454 40.4948 0.668446
33.6167 48.607 2
33.1522 39.1085 2
32.8221 41.0537 2
33.0274 45.777 2
32.4264 43.3818 2
32.0167 47.4008 3.98421
32.2981 39.4219 3.56963
31.5555 41.6861 3.81017
31.5979 44.3902 3.84492
32.4551 50.8571 -0.00416505
30.6585 49.3741 2
28.9311 47.7743 3.97152
29.029 51.2091 0.0167708
27.3919 49.57 2
25.783 48.0118 3.97662
25.8182 51.3814 0.0451958
24.299 49.7743 2
22.8367 48.3341 3.97288
22.8076 51.4333 0.0451937
21.5104 49.8994 2
20.0095 48.7227 3.97522
17.7078 49.0331 3.97604
17.5027 51.1092 3.97245
18.8349 49.9892 2
17.0096 53.6015 3.9682
18.6172 52.4642 2
20.1282 51.2607 0.0343314
16.388 56.2682 3.96214
17.9848 55.0789 2
19.567 54.0067 0.0385123
15.863 59.0965 3.95524
17.4165 57.6948 2
18.8331 56.4978 0.0386395
15.7984 62.0659 3.9693
17.2043 60.4542 2
18.5134 58.962 0.0457915
16.0957 65.2987 3.97813
17.4131 63.4231 2
18.66 61.6776 0.0226948
16.6661 68.6801 4
17.9447 66.6038 2
19.1481 64.6057 0.03324
18.75 69.9759 2
19.8917 67.8081 0.0195503
20.9142 71.1327 0
20.2837 14.7461 3.96402
21.6337 13.7479 2
20.5543 12.1129 3.97076
21.1482 9.17951 3.97246
22.196 11.1104 2
23.1226 12.926 0.0268274
22.0206 6.08563 3.98568
23.0386 8.20397 2
23.9808 10.1991 0.0296075
23.1494 2.85457 4
24.1145 5.14973 2
25.024 7.32555 0.0272415
25.446 1.99012 2
26.2821 4.33068 0.0125401
27.7943 1.27781 0
33.1415 35.935 3.3561
34.7346 36.0302 2
36.0124 35.9871 0.626825
21.4369 15.9998 2
20.509 17.1782 3.96226
22.2594 16.8094 3.96467
25.3905 14.066 0.0241748
22.5588 15.197 0.0162671
24.126 15.7843 -0.0121949
25.4709 16.2906 2
23.4168 16.4137 2
24.4086 18.7532 3.98208
27.4591 21.9068 3.9908
28.4411 15.9954 0.0111842
27.5978 19.1007 2
32.8829 34.0204 3.56534
33.4283 34.5314 2
34.8299 34.5828 0.608527
33.829 33.5366 0.630653
34.3689 31.9731 0.437068
35.4497 29.745 0.229397
37.6121 28.0533 0.159765
35.3105 28.0976 2
33.4756 32.753 2
33.7244 30.3697 2
33.2416 28.7831 3.87141
32.4782 31.6483 3.77766
29.5078 24.7999 4.01543
29.9926 22.2922 2
30.3611 19.7013 0.0170863
35.261 25.8658 0.0183442
32.6651 22.8184 -0.00591166
32.3178 26.106 2
30.6162 27.8115 3.99113
32.0622 37.4957 3.55258
32.9903 37.5141 2
34.7172 37.5227 0.524147
33.661 48.6135 0.0305372
33.0435 45.7092 0.156315
33.1637 39.1028 0.694818
32.4746 43.3547 0.218911
32.8834 40.9848 0.432592
31.9739 47.4302 2
32.2015 39.4278 2
31.4863 41.75 2
31.5261 44.4515 2
30.3954 46.022 3.97835
30.8207 39.6982 3.8156
30.2493 42.7352 3.868
30.6452 49.3548 -0.00274524
28.9359 47.7789 2
27.255 46.1961 3.98647
27.3857 49.5712 0.020508
25.7886 48.0097 2
24.1522 46.5964 3.97607
24.297 49.7765 0.0307399
22.8373 48.3323 2
21.1014 47.2292 3.97535
21.5104 49.902 0.0321356
20.009 48.7218 2
18.6087 47.8575 3.97571
16.9527 48.4061 3.97561
17.7077 49.0332 2
16.5509 49.9034 3.97489
15.9717 52.1691 3.97296
17.5043 51.1078 2
18.8334 49.991 0.0262792
15.32 54.772 3.96764
17.01 53.6008 2
18.6182 52.4652 0.0330222
14.6675 57.6136 3.96106
16.3858 56.2693 2
17.9899 55.0777 0.0373547
14.2838 60.646 3.96112
15.8638 59.0978 2
17.4113 57.6942 0.0421018
14.3393 63.8514 3.96652
15.8022 62.0686 2
17.2131 60.4499 0.0507177
14.6715 67.2507 4
16.0906 65.2918 2
17.4142 63.4139 0.0273684
16.6661 68.6801 2
17.9492 66.6076 0.028773
18.75 69.9759 0
19.0508 15.9537 3.95686
20.2923 14.7365 2
19.013 13.2389 3.96742
21.6279 13.7452 0.0320682
20.5459 12.1162 2
19.354 10.2812 3.97003
19.9956 7.14845 3.9825
21.1426 9.17377 2
22.2052 11.0974 0.0357072
20.9142 3.86727 4
22.0129 6.08745 2
23.0427 8.19841 0.0282585
23.1494 2.85451 2
24.1198 5.14569 0.0134675
25.446 1.99014 0
32.3145 35.578 3.55518
33.1226 35.9286 2
34.7979 36.0299 0.571666
21.4263 16.0001 0.0394488
22.2709 16.811 2
20.5216 17.1764 2
19.5826 18.6657 3.96726
21.9836 18.1547 3.98236
25.474 16.2929 0.0100153
23.4125 16.4058 0.0329945
24.4163 18.7614 2
22.712 20.2084 3.97011
25.0706 21.7434 3.98813
27.1564 24.0643 3.97755
27.4718 21.8106 2
27.6135 19.106 0.0101295
31.5621 33.3242 3.80786
32.8272 33.9665 2
33.4545 34.5323 0.648301
33.5198 32.8416 0.400783
33.7716 30.4333 0.217879
35.33 28.1476 0.140085
33.1963 28.7362 2
32.3999 31.5856 2
31.2979 30.1348 3.88851
28.914 26.9904 4.01432
29.4986 24.7956 2
30.0028 22.3195 -0.0108793
32.3393 26.147 -0.0175481
30.6139 27.8094 2
30.5491 37.4839 3.8192
31.9555 37.4953 2
33.0113 37.5132 0.644521
32.0167 47.4008 0.0157866
31.5979 44.3902 0.155081
32.2981 39.4219 0.430367
31.5555 41.6861 0.189834
30.4098 46.0378 2
30.7183 39.7071 2
30.2183 42.7687 2
28.7729 44.4013 3.95797
28.5713 40.3617 3.91362
28.9311 47.7743 0.028475
27.2577 46.1943 2
25.5104 44.7394 3.97957
25.783 48.0118 0.023384
24.1532 46.5957 2
22.2025 45.5518 3.9766
22.8367 48.3341 0.0271222
21.1025 47.2289 2
19.3985 46.4238 3.97526
20.0095 48.7227 0.0247775
18.6095 47.8579 2
17.2209 47.4395 3.97502
16.9544 48.4067 2
15.9251 48.7643 3.97498
17.7078 49.0331 0.023958
16.5526 49.9026 2
15.0717 50.7602 3.97433
14.267 53.2493 3.97204
15.9722 52.1686 2
17.5027 51.1092 0.0275503
13.5248 56.0391 3.9623
15.3197 54.7723 2
17.0096 53.6015 0.0317999
12.9026 59.0806 3.95092
14.6673 57.6145 2
16.388 56.2682 0.0378609
12.6871 62.2928 3.96441
14.2859 60.6488 2
15.863 59.0965 0.0447613
12.7746 65.6939 4
14.3356 63.8437 2
15.7984 62.0659 0.0307046
14.6714 67.2507 2
16.0957 65.2987 0.0218679
16.6661 68.6801 0
17.9255 17.3591 3.95953
19.0697 15.9463 2
17.5608 14.4875 3.95774
20.2837 14.7461 0.0359823
19.0067 13.2235 2
17.6587 11.5366 3.96894
20.5543 12.1129 0.0292388
19.3471 10.3001 2
18.0554 8.34303 3.97866
18.75 5.0241 4
19.988 7.15741 2
21.1482 9.17951 0.0275391
20.9142 3.86727 2
22.0206 6.08563 0.0143165
23.1494 2.85457 0
30.8221 35.3179 3.80985
32.2128 35.5663 2
33.1415 35.935 0.643903
22.2594 16.8094 0.0353289
20.509 17.1782 0.0377411
21.9988 18.1436 2
19.5828 18.6611 2
18.5118 20.2352 3.96911
21.2763 19.6835 3.97436
24.4086 18.7532 0.0179156
22.7213 20.2057 2
25.0895 21.7047 2
22.9924 22.0864 3.97498
25.48 23.3884 3.97552
26.5536 26.3587 3.9844
27.1574 24.0691 2
27.4591 21.9068 0.00919664
29.9951 32.7224 3.86637
31.4866 33.2728 2
32.8829 34.0204 0.434656
32.4782 31.6483 0.222339
33.2416 28.7831 0.128586
31.277 30.0961 2
28.39 29.6034 4.00514
28.9041 27.0035 2
29.5078 24.7999 -0.0154322
30.6162 27.8115 0.00886736
28.8541 37.4303 3.84138
30.4364 37.497 2
32.0622 37.4957 0.447415
30.3954 46.022 0.0216454
30.2493 42.7352 0.132002
30.8207 39.6982 0.184396
28.7787 44.4607 2
28.5239 40.3857 2
26.9484 42.9088 3.98191
25.9112 39.3718 3.97768
27.255 46.1961 0.0135273
25.5022 44.7494 2
23.469 43.6037 3.97477
24.1522 46.5964 0.0239282
22.2008 45.5523 2
20.2413 44.6747 3.97477
21.1014 47.2292 0.0246502
19.3984 46.4245 2
17.6087 45.9505 3.97503
18.6087 47.8575 0.0242872
17.2215 47.44 2
15.7081 47.441 3.97497
16.9527 48.4061 0.0243852
15.927 48.7644 2
14.3963 49.3384 3.9745
16.5509 49.9034 0.0251075
15.0727 50.7595 2
13.3348 51.7051 3.97433
12.4162 54.4107 3.96573
14.2672 53.2493 2
15.9717 52.1691 0.0270375
11.64 57.4087 3.95673
13.5242 56.0395 2
15.32 54.772 0.0323605
11.1412 60.6208 3.96419
12.8969 59.0827 2
14.6675 57.6136 0.0389412
10.9835 64.0165 4
12.6843 62.2842 2
14.2838 60.646 0.0388786
12.7745 65.694 2
14.3393 63.8514 0.0334765
14.6715 67.2507 0
16.7842 18.8766 3.96228
17.9317 17.3541 2
16.2265 15.9117 3.95559
19.0508 15.9537 0.0431433
17.5652 14.4857 2
16.0328 12.8802 3.96207
19.013 13.2389 0.0325784
17.6489 11.536 2
16.2081 9.67112 3.97032
19.354 10.2812 0.0299743
18.0488 8.35104 2
16.6661 6.31991 4
18.75 5.02404 2
19.9956 7.14845 0.0175006
20.9142 3.86727 0
29.2204 34.9535 3.88033
30.6986 35.2869 2
32.3145 35.578 0.444819
17.2523 21.6606 3.97143
21.9836 18.1547 0.0176382
19.5826 18.6657 0.0327376
21.2835 19.68 2
18.5026 20.2283 2
20.4156 21.9345 3.97376
22.712 20.2084 0.0298863
25.0706 21.7434 0.0118679
22.9955 22.0841 2
25.4669 23.4349 2
23.8647 25.013 3.97129
25.9641 28.9788 3.98385
26.5476 26.3799 2
27.1564 24.0643 0.0224546
27.8755 32.075 3.97455
29.9441 32.7013 2
31.5621 33.3242 0.192143
31.2979 30.1348 0.111493
28.3996 29.5629 2
28.914 26.9904 -0.0143237
26.6444 36.892 3.9549
28.8022 37.3946 2
30.5491 37.4839 0.1808
28.7729 44.4013 0.0420329
28.5713 40.3617 0.0863829
26.9225 42.9431 2
25.8605 39.3588 2
24.7308 41.5989 3.97659
23.6049 38.5158 3.97575
25.5104 44.7394 0.0204323
23.4663 43.6103 2
21.1594 42.6506 3.97448
22.2025 45.5518 0.0234014
20.2426 44.6757 2
18.0396 44.1508 3.97505
19.3985 46.4238 0.0247368
17.609 45.9512 2
15.68 45.8824 3.97504
17.2209 47.4395 0.0249809
15.7084 47.4412 2
13.9355 47.8233 3.97486
15.9251 48.7643 0.0250193
14.3972 49.3381 2
12.5757 50.0954 3.9744
15.0717 50.7602 0.0256735
13.3355 51.7048 2
11.411 52.733 3.96845
10.4416 55.6653 3.95967
12.414 54.4111 2
14.267 53.2493 0.0279629
9.70791 58.8458 3.96744
11.6452 57.4081 2
13.5248 56.0391 0.037702
9.30605 62.2254 4
11.1399 60.613 2
12.9026 59.0806 0.0490815
10.9835 64.0165 2
12.6871 62.2928 0.0355932
12.7746 65.6939 0
15.5737 20.405 3.96753
16.7949 18.8741 2
14.9675 17.4484 3.95813
17.9255 17.3591 0.0404749
16.2145 15.9019 2
14.4962 14.3525 3.96131
17.5608 14.4875 0.0422614
16.0371 12.8758 2
14.4522 11.1218 3.96991
17.6587 11.5366 0.0310602
16.2018 9.68146 2
14.6715 7.74927 4
18.0554 8.34303 0.0213365
16.6661 6.31988 2
18.75 5.0241 0
27.1749 34.4722 3.97512
29.1807 34.9642 2
30.8221 35.3179 0.190152
18.5599 22.6591 3.97441
16.1462 23.1944 3.97289
17.2507 21.6562 2
21.2763 19.6835 0.0256401
18.5118 20.2352 0.0308947
20.4207 21.9329 2
20.597 24.7933 3.97196
22.9924 22.0864 0.0250222
25.48 23.3884 0.0244767
23.8646 25.0092 2
23.3424 28.3023 3.97092
25.4523 31.5592 3.98301
25.9768 28.9036 2
26.5536 26.3587 0.0155955
27.8399 32.0484 2
29.9951 32.7224 0.133627
28.39 29.6034 -0.00514346
24.3357 36.3502 3.97858
26.5935 36.8957 2
28.8541 37.4303 0.158621
26.9484 42.9088 0.0180911
25.9112 39.3718 0.0223234
24.6976 41.6084 2
23.5986 38.5176 2
22.3468 40.4948 3.97536
21.6336 37.7917 3.97818
23.469 43.6037 0.0252296
21.16 42.6491 2
18.5382 41.9385 3.97569
20.2413 44.6747 0.0252295
18.0397 44.1509 2
15.7304 44.0269 3.97516
17.6087 45.9505 0.0249658
15.6795 45.8825 2
13.6327 46.1357 3.97498
15.7081 47.441 0.0250277
13.9354 47.8231 2
11.9669 48.4098 3.97486
14.3963 49.3384 0.0254968
12.5767 50.0949 2
10.5435 50.9875 3.97165
13.3348 51.7051 0.0256664
11.4115 52.7324 2
9.34204 53.8513 3.9618
8.39139 56.9815 3.96862
10.4442 55.6641 2
12.4162 54.4107 0.0342697
7.74927 60.3285 4
9.70668 58.84 2
11.64 57.4087 0.0432687
9.306 62.2255 2
11.1412 60.6208 0.0358144
10.9835 64.0165 0
14.408 21.9558 3.97215
15.5766 20.4015 2
13.7012 19.0378 3.96269
16.7842 18.8766 0.0377209
14.9655 17.4424 2
13.052 15.9295 3.95534
16.2265 15.9117 0.044409
14.5068 14.3449 2
12.7886 12.6952 3.96613
16.0328 12.8802 0.037934
14.4471 11.1342 2
12.7746 9.30605 4
16.2081 9.67112 0.0296779
14.6715 7.74924 2
16.6661 6.31991 0
24.8489 33.9794 3.9808
27.148 34.4264 2
29.2204 34.9535 0.119668
18.4498 24.3991 3.97232
18.5682 22.6584 2
14.9589 24.6833 3.97386
16.1455 23.1905 2
17.2523 21.6606 0.0285719
20.1636 27.5781 3.97294
20.4156 21.9345 0.0262393
20.6015 24.793 2
22.7196 31.0062 3.9738
23.8647 25.013 0.0287109
23.3343 28.3104 2
25.3987 31.6247 2
25.9641 28.9788 0.0161507
27.8755 32.075 0.0254466
21.7168 36.0063 3.97781
24.3335 36.3652 2
26.6444 36.892 0.0451046
24.7308 41.5989 0.0234096
23.6049 38.5158 0.0242547
22.3516 40.4961 2
21.6333 37.7893 2
19.3362 38.9597 3.97709
21.1594 42.6506 0.0255204
18.5385 41.9387 2
15.7196 41.8093 3.97586
18.0396 44.1508 0.0249528
15.7297 44.0268 2
13.3909 44.2651 3.97517
15.68 45.8824 0.0249621
13.632 46.1358 2
11.4801 46.6156 3.9754
13.9355 47.8233 0.0251416
11.9681 48.4092 2
9.81109 49.1574 3.97409
12.5757 50.0954 0.0255963
10.5444 50.9866 2
8.36652 51.9708 3.96353
11.411 52.733 0.0315514
9.3403 53.8505 2
7.19984 55.0335 3.96975
6.31991 58.3339 4
8.39011 56.9762 2
10.4416 55.6653 0.040326
7.74924 60.3285 2
9.70791 58.8458 0.0325607
9.30605 62.2254 0
13.7943 25.5634 3.97584
13.2972 23.4669 3.97402
14.4081 21.9522 2
12.5182 20.6774 3.96568
15.5737 20.405 0.03247
13.6923 19.0317 2
11.7419 17.6133 3.95502
14.9675 17.4484 0.0418653
13.0649 15.9273 2
11.227 14.3821 3.96411
14.4962 14.3525 0.0386871
12.7877 12.707 2
10.9835 10.9835 4
14.4522 11.1218 0.0300903
12.7745 9.306 2
14.6715 7.74927 0
22.0907 33.6097 3.97686
24.8447 33.9281 2
27.1749 34.4722 0.0248845
16.7566 26.6741 3.97389
18.4519 24.3981 2
18.5599 22.6591 0.0255861
14.9553 24.6825 2
16.1462 23.1944 0.0271112
19.5557 30.454 3.97479
20.1633 27.5748 2
20.597 24.7933 0.0280404
22.7344 30.9942 2
23.3424 28.3023 0.029081
25.4523 31.5592 0.0169907
18.9049 36.0367 3.97742
21.7222 36.0041 2
24.3357 36.3502 0.0214193
22.3468 40.4948 0.0246358
21.6336 37.7917 0.0218189
19.3348 38.959 2
15.1998 39.142 3.97684
18.5382 41.9385 0.024312
15.7194 41.8093 2
13.0785 42.194 3.97583
15.7304 44.0269 0.0248407
13.3901 44.265 2
11.0598 44.7122 3.97562
13.6327 46.1357 0.025023
11.4809 46.6152 2
9.19961 47.2474 3.97565
11.9669 48.4098 0.0251436
9.81301 49.1563 2
7.52608 50.0095 3.9644
10.5435 50.9875 0.0283471
8.36457 51.9699 2
6.1399 53.0087 3.97019
9.34204 53.8513 0.0381986
7.19928 55.0289 2
5.0241 56.25 4
6.31988 58.3339 2
8.39139 56.9815 0.0313786
7.74927 60.3285 0
14.103 27.0068 3.97469
12.3954 24.9477 3.97469
13.7918 25.5623 2
11.4387 22.3498 3.96931
13.2957 23.4642 2
14.408 21.9558 0.027851
12.5126 20.6729 2
10.5184 19.3714 3.95834
13.7012 19.0378 0.0373074
11.7571 17.6126 2
9.76762 16.163 3.96701
13.052 15.9295 0.0446634
11.2267 14.3894 2
9.30607 12.7746 4
12.7886 12.6952 0.0338685
10.9835 10.9835 2
12.7746 9.30605 0
19.0601 33.268 3.97575
22.084 33.619 2
24.8489 33.9794 0.0192042
16.3848 29.8555 3.97501
16.7548 26.6754 2
18.4498 24.3991 0.0276814
14.9589 24.6833 0.0261363
19.5509 30.4558 2
20.1636 27.5781 0.0270579
22.7196 31.0062 0.0262021
15.8543 36.0656 3.97707
18.9045 36.037 2
21.7168 36.0063 0.022193
13.3181 37.8311 3.97703
19.3362 38.9597 0.0229057
15.1995 39.1422 2
12.5636 40.0996 3.97638
15.7196 41.8093 0.0241388
13.0775 42.1937 2
10.6504 42.7163 3.97579
13.3909 44.2651 0.0248298
11.0603 44.7121 2
8.67633 45.2625 3.97648
11.4801 46.6156 0.0245956
9.20241 47.2463 2
6.80615 47.9802 3.96525
9.81109 49.1574 0.0259141
7.52405 50.0087 2
5.21599 50.9116 3.97054
8.36652 51.9708 0.0364711
6.13985 53.0053 2
3.86727 54.0858 4
7.19984 55.0335 0.0302525
5.02404 56.25 2
6.31991 58.3339 0
13.5756 29.1862 3.97423
11.8438 26.6224 3.9749
14.102 27.0071 2
10.4749 24.0638 3.97363
12.3961 24.9467 2
13.7943 25.5634 0.024164
9.36421 21.1821 3.96192
11.4373 22.3474 2
13.2972 23.4669 0.0259754
12.5182 20.6774 0.0343153
10.529 19.3717 2
8.42356 18.0312 3.96872
11.7419 17.6133 0.044975
9.76761 16.1681 2
7.74928 14.6715 4
11.227 14.3821 0.0358923
9.30602 12.7745 2
10.9835 10.9835 0
15.3562 32.9757 3.97628
19.0607 33.2681 2
22.0907 33.6097 0.0231382
16.3857 29.8553 2
16.7566 26.6741 0.0261138
19.5557 30.454 0.0252118
13.6312 36.2383 3.97669
15.8542 36.0653 2
18.9049 36.0367 0.0225782
13.3173 37.8312 2
11.8674 38.3035 3.97644
15.1998 39.142 0.0231553
12.5627 40.0998 2
10.2163 40.7193 3.97625
13.0785 42.194 0.0241742
10.6509 42.7157 2
8.21823 43.2279 3.97633
11.0598 44.7122 0.0243818
8.67969 45.2615 2
6.19905 45.8909 3.96646
9.19961 47.2474 0.0243502
6.80461 47.9793 2
4.42674 48.7519 3.97111
7.52608 50.0095 0.0355966
5.21626 50.9091 2
2.85457 51.8506 4
6.1399 53.0087 0.0298122
3.86727 54.0858 2
5.0241 56.25 0
12.6909 31.3583 3.97557
11.2496 28.5275 3.9751
13.5756 29.186 2
9.68615 25.8804 3.97485
11.844 26.6227 2
14.103 27.0068 0.0253115
8.32885 23.0565 3.96385
10.4766 24.0627 2
12.3954 24.9477 0.0253083
7.20548 19.9789 3.96978
9.36977 21.1827 2
11.4387 22.3498 0.0306856
10.5184 19.3714 0.0416615
8.42321 18.0354 2
6.31992 16.6661 4
9.76762 16.163 0.0329924
7.74926 14.6714 2
9.30607 12.7746 0
12.7365 34.3564 3.97659
15.356 32.9758 2
19.0601 33.268 0.0242509
16.3848 29.8555 0.0249872
11.3852 36.6313 3.97641
13.6305 36.2384 2
15.8543 36.0656 0.0229267
13.3181 37.8311 0.0229674
11.8664 38.3035 2
9.7844 38.8136 3.9765
12.5636 40.0996 0.0236242
10.2164 40.7191 2
7.81672 41.1875 3.97628
10.6504 42.7163 0.0242081
8.22045 43.2265 2
5.69445 43.7594 3.96752
8.67633 45.2625 0.0235211
6.19648 45.8903 2
3.77182 46.5371 3.97167
6.80615 47.9802 0.0347545
4.42735 48.75 2
1.99014 49.554 4
5.21599 50.9116 0.0294592
2.85451 51.8506 2
3.86727 54.0858 0
11.4622 32.9906 3.97635
10.543 30.4639 3.97565
12.6897 31.3585 2
8.98897 27.8005 3.97548
11.2497 28.5274 2
13.5756 29.1862 0.0257683
7.43981 25.0084 3.96452
9.68742 25.8799 2
11.8438 26.6224 0.025097
6.12182 22.0015 3.97041
8.32963 23.057 2
10.4749 24.0638 0.0263697
5.02411 18.75 4
7.20547 19.9822 2
9.36421 21.1821 0.0380753
8.42356 18.0312 0.0312835
6.3199 16.6661 2
7.74928 14.6715 0
10.9556 35.0367 3.97611
12.7355 34.3562 2
15.3562 32.9757 0.0237219
9.43049 36.9948 3.9766
11.384 36.6315 2
13.6312 36.2383 0.0233097
11.8674 38.3035 0.0235571
9.7849 38.8137 2
7.47927 39.1741 3.97654
10.2163 40.7193 0.0237534
7.82006 41.1868 2
5.29908 41.6097 3.96793
8.21823 43.2279 0.0236744
5.69288 43.7589 2
3.24925 44.2819 3.97262
6.19905 45.8909 0.0335442
3.7727 46.5357 2
1.27781 47.2057 4
4.42674 48.7519 0.0288919
1.99012 49.554 2
2.85457 51.8506 0
10.5705 33.9285 3.97589
9.79978 32.2122 3.97633
11.4614 32.9907 2
8.32344 29.7491 3.9762
10.5434 30.4644 2
12.6909 31.3583 0.0244335
6.66745 27.0283 3.96506
8.99119 27.8006 2
11.2496 28.5275 0.0249011
5.17627 24.0946 3.97083
7.43831 25.0088 2
9.68615 25.8804 0.0251546
3.86728 20.9142 4
6.12216 22.0038 2
8.32885 23.0565 0.0361459
5.02406 18.75 2
7.20548 19.9789 0.0302185
6.31992 16.6661 0
9.2357 35.306 3.97681
10.9548 35.0364 2
12.7365 34.3564 0.0234136
7.24592 37.211 3.97661
9.43142 36.9949 2
11.3852 36.6313 0.0235879
9.7844 38.8136 0.0234988
7.48245 39.1738 2
5.02146 39.4669 3.96785
7.81672 41.1875 0.0237195
5.2974 41.6092 2
2.85945 42.0024 3.97321
5.69445 43.7594 0.0324782
3.24995 44.2808 2
0.720592 44.8159 4
3.77182 46.5371 0.0283334
1.27778 47.2057 2
1.99014 49.554 0
9.26971 33.7376 3.97696
10.5701 33.9283 2
7.74712 31.6483 3.97647
9.80147 32.2122 2
11.4622 32.9906 0.0236464
5.99969 29.0847 3.96529
8.32616 29.7495 2
10.543 30.4639 0.024353
4.36317 26.248 3.97108
6.66503 27.0286 2
8.98897 27.8005 0.0245152
2.85458 23.1494 4
5.17692 24.0961 2
7.43981 25.0084 0.0354775
3.86728 20.9142 2
6.12182 22.0015 0.0295877
5.02411 18.75 0
7.1859 35.3226 3.97677
9.2374 35.306 2
10.9556 35.0367 0.0238928
4.86578 37.3427 3.96744
7.24885 37.211 2
9.43049 36.9948 0.0234041
7.47927 39.1741 0.0234559
5.01942 39.4666 2
2.60723 39.7143 3.97367
5.29908 41.6097 0.0320683
2.86045 42.0016 2
0.320823 42.3947 4
3.24925 44.2819 0.0273764
0.720551 44.8159 2
1.27781 47.2057 0
7.34771 33.4878 3.97691
9.27158 33.7378 2
10.5705 33.9285 0.0241107
5.45777 31.1448 3.96579
7.74975 31.6488 2
9.79978 32.2122 0.0236722
3.68429 28.4448 3.97178
5.9963 29.0849 2
8.32344 29.7491 0.0238048
1.99015 25.446 4
4.36396 26.2491 2
6.66745 27.0283 0.0349367
2.85453 23.1494 2
5.17627 24.0946 0.0291742
3.86728 20.9142 0
4.87869 35.2571 3.96675
7.18782 35.3228 2
9.2357 35.306 0.0231947
2.49867 37.4293 3.97434
4.8623 37.3426 2
7.24592 37.211 0.0233897
5.02146 39.4669 0.0321487
2.60838 39.7141 2
0.080333 39.9526 4
2.85945 42.0024 0.0267935
0.320817 42.3947 2
0.720592 44.8159 0
5.07749 33.1984 3.96623
7.34956 33.4883 2
9.26971 33.7376 0.0230444
3.14832 30.6679 3.97262
5.4533 31.145 2
7.74712 31.6483 0.0235267
1.27793 27.7943 4
3.68531 28.4457 2
5.99969 29.0847 0.0347068
1.99013 25.446 2
4.36317 26.248 0.0289196
2.85458 23.1494 0
2.55066 35.1603 3.97405
4.8755 35.2573 2
7.1859 35.3226 0.0232335
0 37.5 4
2.49949 37.4294 2
4.86578 37.3427 0.0325559
2.60723 39.7143 0.0263302
0.0802903 39.9526 2
0.320823 42.3947 0
2.76836 32.9074 3.9737
5.07422 33.1986 2
7.34771 33.4878 0.0230892
0.721173 30.1842 4
3.14956 30.6688 2
5.45777 31.1448 0.0342142
1.27779 27.7943 2
3.68429 28.4448 0.0282233
1.99015 25.446 0
0.0806499 35.0474 4
2.55205 35.1606 2
4.87869 35.2571 0.0332478
0 37.5 2
2.49867 37.4293 0.02566
0.080333 39.9526 0
0.32156 32.6054 4
2.76925 32.9081 2
5.07749 33.1984 0.0337656
0.72056 30.1841 2
3.14832 30.6679 0.0273811
1.27793 27.7943 0
0.0802889 35.0474 2
2.55066 35.1603 0.0259468
0 37.5 0
0.320817 32.6053 2
2.76836 32.9074 0.0262953
0.721173 30.1842 0
0.0806499 35.0474 0
0.32156 32.6054 0
CELLS 1910 17190
8 18 6 25 56 2 0 5 16
8 57 23 6 18 17 4 0 2
8 78 36 9 29 31 11 1 7
8 31 11 1 7 79 37 10 30
8 110 57 18 50 48 17 2 14
8 50 18 56 111 14 2 16 49
8 116 62 22 55 52 20 3 15
8 56 25 67 118 16 5 24 53
8 119 63 23 57 54 21 4 17
8 55 22 63 119 15 3 21 54
8 58 26 68 121 18 6 25 56
8 122 65 26 58 57 23 6 18
8 73 31 7 27 142 79 30 71
8 143 78 29 72 73 31 7 27
8 83 147 76 34 32 74 28 8
8 84 148 78 36 33 75 29 9
8 76 34 8 28 148 84 33 75
8 37 79 150 86 10 30 77 35
8 151 87 36 78 80 38 11 31
8 80 38 11 31 152 88 37 79
8 175 100 42 94 96 44 12 40
8 44 96 176 101 12 40 95 43
8 101 176 98 46 43 95 41 13
8 46 98 178 103 13 41 97 45
8 178 103 45 97 147 83 32 74
8 189 116 55 109 106 52 15 47
8 111 56 118 191 49 16 53 107
8 192 119 57 110 108 54 17 48
8 109 55 119 192 47 15 54 108
8 194 122 58 112 110 57 18 50
8 112 58 121 195 50 18 56 111
8 115 61 19 51 197 124 59 113
8 115 61 125 198 51 19 60 114
8 198 125 62 116 114 60 20 52
8 200 127 64 120 116 62 22 55
8 118 67 132 202 53 24 66 117
8 121 68 133 203 56 25 67 118
8 120 64 128 204 55 22 63 119
8 204 128 65 122 119 63 23 57
8 206 134 68 121 123 69 26 58
8 123 69 26 58 207 131 65 122
8 226 147 74 138 140 76 28 70
8 229 148 75 139 143 78 29 72
8 140 76 28 70 229 148 75 139
8 142 79 30 71 231 150 77 141
8 144 80 31 73 232 152 79 142
8 233 151 78 143 144 80 31 73
8 150 86 35 77 235 154 81 145
8 235 154 81 145 146 82 39 91
8 146 82 39 91 236 155 90 165
8 238 157 83 147 149 85 34 76
8 239 158 84 148 151 87 36 78
8 149 85 34 76 239 158 84 148
8 152 88 37 79 241 160 86 150
8 242 161 87 151 153 89 38 80
8 153 89 38 80 243 162 88 152
8 171 98 41 92 265 178 97 169
8 265 178 97 169 226 147 74 138
8 172 96 40 93 266 176 95 170
8 266 176 95 170 171 98 41 92
8 269 175 94 173 172 96 40 93
8 271 180 99 174 175 100 42 94
8 197 124 59 113 271 180 99 174
8 272 181 100 175 177 102 44 96
8 273 182 101 176 179 104 46 98
8 177 102 44 96 273 182 101 176
8 179 104 46 98 275 184 103 178
8 275 184 103 178 238 157 83 147
8 188 115 51 105 283 197 113 186
8 188 115 198 284 105 51 114 187
8 284 198 116 189 187 114 52 106
8 286 200 120 193 189 116 55 109
8 191 118 202 288 107 53 117 190
8 195 121 203 289 111 56 118 191
8 193 120 204 290 109 55 119 192
8 290 204 122 194 192 119 57 110
8 196 123 58 112 292 207 122 194
8 293 206 121 195 196 123 58 112
8 199 126 61 115 297 211 124 197
8 298 212 127 200 198 125 62 116
8 199 126 212 298 115 61 125 198
8 205 129 64 120 300 214 127 200
8 301 217 130 201 202 132 66 117
8 209 136 168 264 301 217 130 201
8 302 219 132 202 203 133 67 118
8 303 220 133 203 206 134 68 121
8 205 129 215 304 120 64 128 204
8 304 215 131 207 204 128 65 122
8 306 221 134 206 208 135 69 123
8 208 135 69 123 307 218 131 207
8 210 137 167 263 309 223 136 209
8 328 238 147 226 230 149 76 140
8 228 146 91 166 329 236 165 260
8 231 150 77 141 330 235 145 227
8 330 235 145 227 228 146 91 166
8 332 239 148 229 233 151 78 143
8 230 149 76 140 332 239 148 229
8 232 152 79 142 334 241 150 231
8 234 153 80 144 335 243 152 232
8 336 242 151 233 234 153 80 144
8 236 155 90 165 338 245 164 259
8 241 160 86 150 339 246 154 235
8 339 246 154 235 237 156 82 146
8 237 156 82 146 340 247 155 236
8 342 249 157 238 240 159 85 149
8 343 250 158 239 242 161 87 151
8 240 159 85 149 343 250 158 239
8 243 162 88 152 345 252 160 241
8 244 163 253 346 153 89 161 242
8 244 163 89 153 347 254 162 243
8 311 224 261 371 210 137 167 263
8 263 167 262 372 209 136 168 264
8 267 179 98 171 375 275 178 265
8 375 275 178 265 328 238 147 226
8 376 273 176 266 267 179 98 171
8 268 177 96 172 376 273 176 266
8 379 272 175 269 268 177 96 172
8 380 271 174 270 269 175 94 173
8 283 197 113 186 380 271 174 270
8 381 277 180 271 272 181 100 175
8 297 211 124 197 381 277 180 271
8 382 278 181 272 274 183 102 177
8 274 183 102 177 383 279 182 273
8 383 279 182 273 276 185 104 179
8 385 281 184 275 342 249 157 238
8 276 185 104 179 385 281 184 275
8 285 199 115 188 393 297 197 283
8 394 298 200 286 284 198 116 189
8 285 199 298 394 188 115 198 284
8 291 205 120 193 396 300 200 286
8 397 301 201 287 288 202 117 190
8 295 209 264 374 397 301 201 287
8 398 302 202 288 289 203 118 191
8 399 303 203 289 293 206 121 195
8 291 205 304 400 193 120 204 290
8 400 304 207 292 290 204 122 194
8 294 208 123 196 402 307 207 292
8 403 306 206 293 294 208 123 196
8 296 210 263 373 405 309 209 295
8 408 312 213 299 297 211 126 199
8 299 213 313 409 199 126 212 298
8 409 313 214 300 298 212 127 200
8 305 216 129 205 411 315 214 300
8 412 318 217 301 302 219 132 202
8 309 223 136 209 412 318 217 301
8 413 320 219 302 303 220 133 203
8 306 221 321 414 206 134 220 303
8 307 218 131 207 415 316 215 304
8 305 216 316 415 205 129 215 304
8 417 322 221 306 308 222 135 208
8 308 222 135 208 418 319 218 307
8 310 225 137 210 420 325 223 309
8 423 326 224 311 310 225 137 210
8 329 236 165 260 441 338 259 368
8 442 342 238 328 333 240 149 230
8 331 237 146 228 443 340 236 329
8 334 241 150 231 444 339 235 330
8 444 339 235 330 331 237 146 228
8 446 343 239 332 336 242 151 233
8 333 240 149 230 446 343 239 332
8 335 243 152 232 448 345 241 334
8 337 244 153 234 449 347 243 335
8 337 244 346 450 234 153 242 336
8 338 245 164 259 452 349 258 367
8 340 247 155 236 453 350 245 338
8 345 252 160 241 454 351 246 339
8 454 351 246 339 341 248 156 237
8 341 248 156 237 455 352 247 340
8 240 159 251 344 342 249 354 457
8 242 161 253 346 343 250 355 458
8 343 250 355 458 240 159 251 344
8 347 254 162 243 460 357 252 345
8 348 255 358 461 244 163 253 346
8 348 255 163 244 462 359 254 347
8 473 360 257 365 363 256 364 482
8 452 349 258 367 365 257 366 485
8 422 324 369 488 311 224 261 371
8 371 261 370 490 263 167 262 372
8 407 311 371 491 296 210 263 373
8 373 263 372 492 295 209 264 374
8 493 385 275 375 442 342 238 328
8 377 276 179 267 493 385 275 375
8 378 274 177 268 494 383 273 376
8 494 383 273 376 377 276 179 267
8 497 382 272 379 378 274 177 268
8 498 381 271 380 379 272 175 269
8 393 297 197 283 498 381 271 380
8 499 387 277 381 382 278 181 272
8 408 312 211 297 499 387 277 381
8 500 388 278 382 384 280 183 274
8 501 389 279 383 386 282 185 276
8 384 280 183 274 501 389 279 383
8 386 282 185 276 503 391 281 385
8 503 391 281 385 457 354 249 342
8 511 408 299 395 393 297 199 285
8 395 299 409 512 285 199 298 394
8 512 409 300 396 394 298 200 286
8 401 305 205 291 514 411 300 396
8 515 412 301 397 398 302 202 288
8 405 309 209 295 515 412 301 397
8 516 413 302 398 399 303 203 289
8 403 306 414 517 293 206 303 399
8 402 307 207 292 518 415 304 400
8 401 305 415 518 291 205 304 400
8 404 308 208 294 520 418 307 402
8 521 417 306 403 404 308 208 294
8 406 310 210 296 523 420 309 405
8 526 423 311 407 406 310 210 296
8 410 314 213 299 527 424 312 408
8 528 425 315 411 409 313 214 300
8 410 314 425 528 299 213 313 409
8 416 317 216 305 530 427 315 411
8 531 430 318 412 413 320 219 302
8 420 325 223 309 531 430 318 412
8 532 432 320 413 414 321 220 303
8 417 322 433 533 306 221 321 414
8 418 319 218 307 534 428 316 415
8 416 317 428 534 305 216 316 415
8 419 323 434 536 308 222 322 417
8 419 323 222 308 537 431 319 418
8 421 327 225 310 539 438 325 420
8 421 327 439 541 310 225 326 423
8 543 437 324 422 423 326 224 311
8 441 338 259 368 559 452 367 486
8 443 340 236 329 560 453 338 441
8 333 240 344 447 442 342 457 561
8 445 341 237 331 562 455 340 443
8 448 345 241 334 563 454 339 444
8 563 454 339 444 445 341 237 331
8 336 242 346 450 446 343 458 565
8 446 343 458 565 333 240 344 447
8 449 347 243 335 567 460 345 448
8 451 348 244 337 568 462 347 449
8 451 348 461 569 337 244 346 450
8 570 463 349 452 473 360 257 365
8 453 350 245 338 570 463 349 452
8 455 352 247 340 571 464 350 453
8 460 357 252 345 572 465 351 454
8 572 465 351 454 456 353 248 341
8 456 353 248 341 573 466 352 455
8 344 251 356 459 457 354 468 575
8 458 355 469 576 344 251 356 459
8 346 253 358 461 458 355 469 576
8 462 359 254 347 578 471 357 460
8 348 255 359 462 461 358 472 579
8 591 474 360 473 475 361 256 363
8 475 361 256 363 594 477 362 479
8 363 256 364 482 479 362 480 603
8 590 473 365 484 481 363 482 605
8 482 364 257 365 606 483 366 485
8 559 452 367 486 484 365 485 607
8 542 436 487 609 422 324 369 488
8 525 422 488 611 407 311 371 491
8 488 369 489 612 371 261 370 490
8 491 371 490 613 373 263 372 492
8 495 386 276 377 614 503 385 493
8 614 503 385 493 561 457 342 442
8 615 501 383 494 495 386 276 377
8 496 384 274 378 615 501 383 494
8 618 500 382 497 496 384 274 378
8 619 499 381 498 497 382 272 379
8 511 408 297 393 619 499 381 498
8 620 505 387 499 500 388 278 382
8 527 424 312 408 620 505 387 499
8 502 390 506 621 384 280 388 500
8 622 507 389 501 504 392 282 386
8 502 390 280 384 622 507 389 501
8 504 392 282 386 624 509 391 503
8 624 509 391 503 575 468 354 457
8 513 410 299 395 630 527 408 511
8 631 528 411 514 512 409 300 396
8 513 410 528 631 395 299 409 512
8 519 416 305 401 633 530 411 514
8 634 531 412 515 516 413 302 398
8 523 420 309 405 634 531 412 515
8 635 532 413 516 517 414 303 399
8 521 417 533 636 403 306 414 517
8 520 418 307 402 637 534 415 518
8 519 416 534 637 401 305 415 518
8 522 419 308 404 639 537 418 520
8 522 419 536 640 404 308 417 521
8 524 421 310 406 642 539 420 523
8 524 421 541 644 406 310 423 526
8 646 543 422 525 526 423 311 407
8 529 426 314 410 647 544 424 527
8 528 425 545 648 411 315 427 530
8 529 426 545 648 410 314 425 528
8 535 429 317 416 649 546 427 530
8 650 548 430 531 532 432 320 413
8 539 438 325 420 650 548 430 531
8 533 433 550 651 414 321 432 532
8 536 434 551 652 417 322 433 533
8 537 431 319 418 653 547 428 534
8 535 429 547 653 416 317 428 534
8 538 435 552 654 419 323 434 536
8 538 435 323 419 655 549 431 537
8 540 440 327 421 657 556 438 539
8 540 440 557 659 421 327 439 541
8 541 439 555 660 423 326 437 543
8 661 554 436 542 543 437 324 422
8 676 570 452 559 590 473 365 484
8 560 453 338 441 676 570 452 559
8 562 455 340 443 677 571 453 560
8 447 344 459 566 561 457 575 678
8 564 456 341 445 679 573 455 562
8 567 460 345 448 680 572 454 563
8 680 572 454 563 564 456 341 445
8 565 458 576 682 447 344 459 566
8 450 346 461 569 565 458 576 682
8 568 462 347 449 684 578 460 567
8 451 348 462 568 569 461 579 685
8 686 580 463 570 591 474 360 473
8 571 464 350 453 686 580 463 570
8 573 466 352 455 687 581 464 571
8 572 465 582 688 460 357 471 578
8 574 467 582 688 456 353 465 572
8 574 467 353 456 689 583 466 573
8 459 356 470 577 575 468 585 691
8 576 469 586 692 459 356 470 577
8 461 358 472 579 576 469 586 692
8 462 359 471 578 579 472 588 694
8 704 591 473 590 593 475 363 481
8 595 476 592 705 475 361 474 591
8 593 475 363 481 707 594 479 602
8 594 477 362 479 709 598 478 600
8 595 476 361 475 711 597 477 594
8 479 362 480 603 600 478 601 720
8 481 363 482 605 602 479 603 722
8 603 480 364 482 723 604 483 606
8 605 482 365 484 724 606 485 607
8 656 553 608 726 542 436 487 609
8 645 542 609 728 525 422 488 611
8 609 487 610 729 488 369 489 612
8 611 488 612 730 491 371 490 613
8 616 504 386 495 731 624 503 614
8 731 624 503 614 678 575 457 561
8 732 622 501 615 616 504 386 495
8 617 502 384 496 732 622 501 615
8 617 502 621 735 496 384 500 618
8 736 620 499 619 618 500 382 497
8 630 527 408 511 736 620 499 619
8 621 506 626 737 500 388 505 620
8 647 544 424 527 737 626 505 620
8 623 508 627 738 502 390 506 621
8 623 508 390 502 739 628 507 622
8 625 510 628 739 504 392 507 622
8 740 629 509 624 691 585 468 575
8 625 510 392 504 740 629 509 624
8 632 529 410 513 744 647 527 630
8 631 528 648 745 514 411 530 633
8 632 529 648 745 513 410 528 631
8 638 535 416 519 746 649 530 633
8 747 650 531 634 635 532 413 516
8 642 539 420 523 747 650 531 634
8 636 533 651 748 517 414 532 635
8 640 536 652 749 521 417 533 636
8 639 537 418 520 750 653 534 637
8 638 535 653 750 519 416 534 637
8 641 538 419 522 751 655 537 639
8 641 538 654 752 522 419 536 640
8 643 540 421 524 753 657 539 642
8 643 540 659 755 524 421 541 644
8 644 541 660 757 526 423 543 646
8 758 661 542 645 646 543 422 525
8 529 426 544 647 648 545 662 759
8 530 427 545 648 649 546 663 760
8 535 429 546 649 653 547 664 761
8 762 666 548 650 651 550 432 532
8 657 556 438 539 762 666 548 650
8 652 551 668 763 533 433 550 651
8 654 552 669 764 536 434 551 652
8 655 549 431 537 765 665 547 653
8 538 435 549 655 654 552 667 766
8 661 554 671 768 542 436 553 656
8 658 558 440 540 769 674 556 657
8 658 558 675 770 540 440 557 659
8 659 557 673 771 541 439 555 660
8 660 555 672 772 543 437 554 661
8 788 686 570 676 704 591 473 590
8 677 571 453 560 788 686 570 676
8 679 573 455 562 789 687 571 677
8 566 459 577 683 678 575 691 790
8 681 574 456 564 791 689 573 679
8 680 572 688 792 567 460 578 684
8 681 574 688 792 564 456 572 680
8 682 576 692 794 566 459 577 683
8 569 461 579 685 682 576 692 794
8 568 462 578 684 685 579 694 796
8 687 581 464 571 798 696 580 686
8 798 696 580 686 705 592 474 591
8 689 583 466 573 799 697 581 687
8 688 582 698 800 578 471 588 694
8 690 584 698 800 574 467 582 688
8 690 584 467 574 801 699 583 689
8 693 587 701 803 577 470 585 691
8 693 587 470 577 804 702 586 692
8 695 589 702 804 579 472 586 692
8 695 589 472 579 805 703 588 694
8 708 595 705 813 593 475 591 704
8 710 596 706 814 595 476 592 705
8 707 594 479 602 816 709 600 719
8 708 595 475 593 817 711 594 707
8 709 598 478 600 819 715 599 717
8 711 597 477 594 820 714 598 709
8 710 596 476 595 822 713 597 711
8 600 478 601 720 717 599 718 832
8 602 479 603 722 719 600 720 834
8 720 601 480 603 835 721 604 723
8 722 603 482 605 836 723 606 724
8 767 670 725 839 656 553 608 726
8 756 656 726 841 645 542 609 728
8 726 608 727 842 609 487 610 729
8 728 609 729 843 611 488 612 730
8 844 740 624 731 790 691 575 678
8 733 625 504 616 844 740 624 731
8 734 623 502 617 845 739 622 732
8 733 625 739 845 616 504 622 732
8 734 623 738 846 617 502 621 735
8 735 621 737 847 618 500 620 736
8 744 647 527 630 847 737 620 736
8 621 506 627 738 737 626 741 848
8 647 544 626 737 759 662 741 848
8 623 508 628 739 738 627 742 849
8 740 629 585 691 850 743 700 802
8 625 510 629 740 739 628 743 850
8 632 529 647 744 745 648 759 854
8 633 530 648 745 746 649 760 855
8 638 535 649 746 750 653 761 856
8 857 762 650 747 748 651 532 635
8 753 657 539 642 857 762 650 747
8 749 652 763 858 636 533 651 748
8 752 654 764 859 640 536 652 749
8 751 655 537 639 860 765 653 750
8 641 538 655 751 752 654 766 861
8 754 658 540 643 862 769 657 753
8 754 658 770 863 643 540 659 755
8 755 659 771 864 644 541 660 757
8 758 661 768 866 645 542 656 756
8 757 660 772 867 646 543 661 758
8 759 662 773 868 648 545 663 760
8 649 546 663 760 761 664 774 871
8 765 665 547 653 872 775 664 761
8 873 777 666 762 763 668 550 651
8 769 674 556 657 873 777 666 762
8 764 669 779 874 652 551 668 763
8 654 552 667 766 764 669 778 875
8 655 549 665 765 766 667 776 876
8 768 671 782 877 656 553 670 767
8 772 672 783 878 661 554 671 768
8 658 558 674 769 770 675 786 879
8 659 557 675 770 771 673 785 881
8 882 784 672 772 771 673 555 660
8 789 687 571 677 897 798 686 788
8 897 798 686 788 813 705 591 704
8 791 689 573 679 898 799 687 789
8 795 693 803 900 683 577 691 790
8 793 690 574 681 901 801 689 791
8 792 688 800 902 684 578 694 796
8 793 690 800 902 681 574 688 792
8 795 693 577 683 903 804 692 794
8 797 695 804 903 685 579 692 794
8 797 695 579 685 904 805 694 796
8 905 806 697 799 798 696 581 687
8 814 706 806 905 705 592 696 798
8 689 583 697 799 801 699 808 907
8 800 698 809 908 694 588 703 805
8 690 584 699 801 800 698 809 908
8 803 701 810 909 691 585 700 802
8 693 587 702 804 803 701 811 910
8 695 589 703 805 804 702 812 911
8 818 710 814 919 708 595 705 813
8 821 712 815 920 710 596 706 814
8 816 709 600 719 922 819 717 831
8 817 711 594 707 923 820 709 816
8 818 710 595 708 924 822 711 817
8 819 715 599 717 926 827 716 829
8 820 714 598 709 927 826 715 819
8 929 825 713 822 820 714 597 711
8 821 712 596 710 930 824 713 822
8 717 599 718 832 829 716 830 942
8 719 600 720 834 831 717 832 944
8 832 718 601 720 945 833 721 835
8 834 720 603 722 946 835 723 836
8 869 780 838 950 767 670 725 839
8 865 767 839 952 756 656 726 841
8 839 725 840 953 726 608 727 842
8 841 726 842 954 728 609 729 843
8 844 740 691 790 955 850 802 899
8 733 625 740 844 845 739 850 955
8 734 623 739 845 846 738 849 956
8 735 621 738 846 847 737 848 957
8 744 647 737 847 854 759 848 957
8 738 627 742 849 848 741 851 958
8 848 741 851 958 759 662 773 868
8 850 743 700 802 959 852 807 906
8 849 742 628 739 959 852 743 850
8 854 759 868 965 745 648 760 855
8 746 649 760 855 856 761 871 966
8 860 765 653 750 967 872 761 856
8 968 873 762 857 858 763 651 748
8 862 769 657 753 968 873 762 857
8 859 764 874 969 749 652 763 858
8 752 654 766 861 859 764 875 970
8 751 655 765 860 861 766 876 971
8 754 658 769 862 863 770 879 972
8 755 659 770 863 864 771 881 974
8 976 882 772 867 864 771 660 757
8 866 768 877 977 756 656 767 865
8 867 772 878 978 758 661 768 866
8 760 663 773 868 871 774 883 980
8 870 781 837 948 982 890 780 869
8 982 890 780 869 877 782 670 767
8 761 664 774 871 872 775 884 984
8 876 776 665 765 985 885 775 872
8 873 777 668 763 986 887 779 874
8 769 674 777 873 879 786 887 986
8 764 669 778 875 874 779 888 987
8 766 667 776 876 875 778 886 988
8 878 783 892 989 768 671 782 877
8 878 783 672 772 990 893 784 882
8 880 787 675 770 991 896 786 879
8 880 787 895 992 770 675 785 881
8 881 785 894 993 771 673 784 882
8 1006 905 799 898 897 798 687 789
8 919 814 905 1006 813 705 798 897
8 791 689 799 898 901 801 907 1007
8 900 803 909 1009 790 691 802 899
8 795 693 804 903 900 803 910 1010
8 902 800 908 1011 796 694 805 904
8 793 690 801 901 902 800 908 1011
8 797 695 805 904 903 804 911 1012
8 799 697 806 905 907 808 912 1013
8 920 815 912 1013 814 706 806 905
8 802 700 810 909 906 807 913 1014
8 801 699 808 907 908 809 914 1015
8 805 703 809 908 911 812 915 1016
8 803 701 811 910 909 810 916 1017
8 911 812 917 1018 804 702 811 910
8 925 821 920 1030 818 710 814 919
8 928 823 921 1031 821 712 815 920
8 922 819 717 831 1033 926 829 941
8 923 820 709 816 1034 927 819 922
8 1035 929 822 924 923 820 711 817
8 925 821 710 818 1036 930 822 924
8 1038 933 825 929 927 826 714 820
8 926 827 716 829 1039 935 828 939
8 927 826 715 819 1040 934 827 926
8 928 823 712 821 1041 931 824 930
8 1042 932 824 930 929 825 713 822
8 829 716 830 942 939 828 940 1058
8 831 717 832 944 941 829 942 1060
8 942 830 718 832 1061 943 833 945
8 944 832 720 834 1062 945 835 946
8 981 889 947 1064 870 781 837 948
8 948 837 949 1067 869 780 838 950
8 975 869 950 1069 865 767 839 952
8 950 838 951 1070 839 725 840 953
8 952 839 953 1071 841 726 842 954
8 955 850 802 899 1072 959 906 1008
8 956 849 739 845 1072 959 850 955
8 846 738 849 956 957 848 958 1073
8 957 848 958 1073 854 759 868 965
8 849 742 852 959 958 851 961 1076
8 960 853 961 1076 906 807 852 959
8 958 851 961 1076 868 773 883 980
8 960 853 807 906 1077 963 913 1014
8 855 760 868 965 966 871 980 1085
8 856 761 871 966 967 872 984 1086
8 971 876 765 860 1087 985 872 967
8 968 873 763 858 1088 986 874 969
8 862 769 873 968 972 879 986 1088
8 859 764 875 970 969 874 987 1089
8 861 766 876 971 970 875 988 1090
8 973 880 770 863 1091 991 879 972
8 973 880 992 1092 863 770 881 974
8 974 881 993 1093 864 771 882 976
8 979 870 948 1066 1094 982 869 975
8 1094 982 869 975 977 877 767 865
8 978 878 772 867 1095 990 882 976
8 978 878 989 1096 866 768 877 977
8 871 774 883 980 984 884 994 1099
8 983 891 999 1100 870 781 889 981
8 1101 1000 890 982 989 892 782 877
8 983 891 781 870 1101 1000 890 982
8 872 775 884 984 985 885 995 1103
8 876 776 885 985 988 886 996 1104
8 986 887 779 874 1105 998 888 987
8 879 786 887 986 991 896 998 1105
8 875 778 886 988 987 888 997 1106
8 990 893 1002 1107 878 783 892 989
8 1108 1003 893 990 993 894 784 882
8 880 787 896 991 992 895 1005 1109
8 993 894 785 881 1110 1004 895 992
8 898 799 905 1006 1007 907 1013 1120
8 1030 920 1013 1120 919 814 905 1006
8 901 801 907 1007 1011 908 1015 1121
8 899 802 909 1009 1008 906 1014 1122
8 900 803 910 1010 1009 909 1017 1123
8 1012 911 1018 1124 903 804 910 1010
8 904 805 908 1011 1012 911 1016 1125
8 1013 912 1020 1127 907 808 914 1015
8 1031 921 1020 1127 920 815 912 1013
8 1019 918 962 1075 1128 1021 913 1014
8 1128 1021 913 1014 1017 916 810 909
8 1015 914 1022 1129 908 809 915 1016
8 1016 915 1023 1130 911 812 917 1018
8 1018 917 1024 1131 910 811 916 1017
8 1037 928 1031 1148 925 821 920 1030
8 928 823 931 1041 1031 921 1032 1149
8 1033 926 829 941 1151 1039 939 1057
8 1034 927 819 922 1152 1040 926 1033
8 1153 1038 929 1035 1034 927 820 923
8 1154 1042 930 1036 1035 929 822 924
8 1037 928 821 925 1155 1041 930 1036
8 1039 935 828 939 1156 1047 938 1055
8 1157 1043 932 1042 1038 933 825 929
8 1038 933 826 927 1158 1045 934 1040
8 1040 934 827 926 1159 1046 935 1039
8 930 824 932 1042 1041 931 1044 1160
8 1051 936 1048 1165 1175 1052 937 1053
8 1156 1047 938 1055 1053 937 1054 1178
8 939 828 940 1058 1055 938 1056 1181
8 941 829 942 1060 1057 939 1058 1183
8 942 830 943 1061 1058 940 1059 1184
8 1060 942 832 944 1185 1061 945 1062
8 1082 964 1063 1188 981 889 947 1064
8 1097 981 1064 1190 979 870 948 1066
8 1064 947 1065 1191 948 837 949 1067
8 1066 948 1067 1193 975 869 950 1069
8 1067 949 1068 1194 950 838 951 1070
8 1069 950 1070 1195 952 839 953 1071
8 956 849 959 1072 1073 958 1076 1197
8 1074 960 1076 1197 1008 906 959 1072
8 1073 958 1076 1197 965 868 980 1085
8 1074 960 906 1008 1198 1077 1014 1122
8 1133 1026 1079 1199 1019 918 962 1075
8 1077 963 913 1014 1200 1080 962 1075
8 960 853 963 1077 1076 961 1078 1201
8 980 883 961 1076 1099 994 1078 1201
8 1210 1083 964 1082 1100 999 889 981
8 966 871 980 1085 1086 984 1099 1215
8 967 872 984 1086 1087 985 1103 1216
8 971 876 985 1087 1090 988 1104 1217
8 1088 986 874 969 1218 1105 987 1089
8 972 879 986 1088 1091 991 1105 1218
8 970 875 988 1090 1089 987 1106 1219
8 973 880 991 1091 1092 992 1109 1220
8 1093 993 881 974 1221 1110 992 1092
8 1222 1108 990 1095 1093 993 882 976
8 1223 1101 982 1094 1096 989 877 977
8 1098 983 870 979 1223 1101 982 1094
8 1095 990 1107 1224 978 878 989 1096
8 1098 983 1100 1225 979 870 981 1097
8 984 884 994 1099 1103 995 1111 1227
8 1102 1001 1115 1228 983 891 999 1100
8 1101 1000 892 989 1229 1116 1002 1107
8 1102 1001 891 983 1229 1116 1000 1101
8 985 885 995 1103 1104 996 1112 1230
8 988 886 996 1104 1106 997 1113 1231
8 1105 998 888 987 1232 1114 997 1106
8 991 896 998 1105 1109 1005 1114 1232
8 1108 1003 1117 1233 990 893 1002 1107
8 1108 1003 894 993 1233 1117 1004 1110
8 992 895 1005 1109 1110 1004 1118 1234
8 1120 1013 1127 1244 1007 907 1015 1121
8 1148 1031 1127 1244 1030 920 1013 1120
8 1121 1015 1129 1245 1011 908 1016 1125
8 1126 1019 1075 1196 1246 1128 1014 1122
8 1246 1128 1014 1122 1123 1017 909 1009
8 1124 1018 1131 1247 1010 910 1017 1123
8 1125 1016 1130 1248 1012 911 1018 1124
8 1127 1020 1137 1254 1015 914 1022 1129
8 1031 921 1032 1149 1127 1020 1137 1254
8 1134 1027 918 1019 1257 1140 1021 1128
8 1257 1140 1021 1128 1131 1024 916 1017
8 1129 1022 1141 1258 1016 915 1023 1130
8 1130 1023 1142 1259 1018 917 1024 1131
8 1261 1144 1025 1132 1133 1026 1079 1199
8 1255 1138 1025 1132 1135 1028 1144 1261
8 1133 1026 918 1019 1262 1145 1027 1134
8 1136 1029 1139 1256 1263 1146 1028 1135
8 1037 928 1041 1155 1148 1031 1149 1275
8 1041 931 1044 1160 1149 1032 1150 1276
8 1151 1039 939 1057 1278 1156 1055 1180
8 1152 1040 926 1033 1279 1159 1039 1151
8 1153 1038 927 1034 1280 1158 1040 1152
8 1281 1157 1042 1154 1153 1038 929 1035
8 1036 930 1042 1154 1155 1041 1160 1282
8 1283 1164 1046 1159 1156 1047 935 1039
8 1165 1048 1164 1283 1053 937 1047 1156
8 1157 1043 933 1038 1284 1161 1045 1158
8 1157 1043 1161 1284 1042 932 1044 1160
8 1040 934 1046 1159 1158 1045 1163 1285
8 1166 1049 1167 1292 1051 936 1048 1165
8 1166 1049 936 1051 1293 1168 1050 1172
8 1051 936 1052 1175 1172 1050 1173 1306
8 1174 1051 1165 1290 1308 1175 1053 1177
8 1053 937 1054 1178 1175 1052 1176 1309
8 1278 1156 1055 1180 1177 1053 1178 1311
8 1055 938 1056 1181 1178 1054 1179 1312
8 1057 939 1058 1183 1180 1055 1181 1314
8 1058 940 1059 1184 1181 1056 1182 1315
8 1060 942 1061 1185 1183 1058 1184 1316
8 1208 1081 1187 1321 1082 964 1063 1188
8 1209 1082 1188 1322 1097 981 1064 1190
8 1188 1063 1189 1323 1064 947 1065 1191
8 1190 1064 1191 1325 1066 948 1067 1193
8 1191 1065 1192 1326 1067 949 1068 1194
8 1067 1193 1069 950 1194 1327 1195 1070
8 1250 1133 1199 1330 1126 1019 1075 1196
8 1198 1077 1014 1122 1331 1200 1075 1196
8 1074 960 1077 1198 1197 1076 1201 1332
8 1085 980 1076 1197 1215 1099 1201 1332
8 1199 1079 1203 1333 1075 962 1080 1200
8 1132 1025 1119 1243 1199 1079 1203 1333
8 1201 1078 963 1077 1334 1202 1080 1200
8 1099 994 1078 1201 1227 1111 1202 1334
8 1343 1207 1081 1208 1210 1083 964 1082
8 1214 1084 1186 1319 1343 1207 1081 1208
8 1345 1210 1082 1209 1225 1100 981 1097
8 1346 1211 1083 1210 1228 1115 999 1100
8 1086 984 1099 1215 1216 1103 1227 1352
8 1087 985 1103 1216 1217 1104 1230 1353
8 1090 988 1104 1217 1219 1106 1231 1354
8 1218 1105 987 1089 1355 1232 1106 1219
8 1091 991 1105 1218 1220 1109 1232 1355
8 1092 992 1109 1220 1221 1110 1234 1356
8 1222 1108 1233 1357 1095 990 1107 1224
8 1222 1108 993 1093 1357 1233 1110 1221
8 1223 1101 989 1096 1358 1229 1107 1224
8 1226 1102 983 1098 1358 1229 1101 1223
8 1226 1102 1228 1359 1098 983 1100 1225
8 1103 995 1111 1227 1230 1112 1235 1360
8 1107 1002 1117 1233 1229 1116 1240 1362
8 1102 1001 1116 1229 1228 1115 1240 1362
8 1104 996 1112 1230 1231 1113 1236 1363
8 1364 1237 1114 1232 1231 1113 997 1106
8 1109 1005 1114 1232 1234 1118 1238 1365
8 1110 1004 1118 1234 1233 1117 1241 1366
8 1242 1374 1255 1138 1119 1243 1132 1025
8 1244 1127 1254 1376 1121 1015 1129 1245
8 1148 1031 1149 1275 1244 1127 1254 1376
8 1245 1129 1258 1377 1125 1016 1130 1248
8 1251 1134 1019 1126 1378 1257 1128 1246
8 1378 1257 1128 1246 1247 1131 1017 1123
8 1248 1130 1259 1379 1124 1018 1131 1247
8 1261 1381 1250 1133 1132 1249 1330 1199
8 1255 1380 1252 1135 1132 1249 1381 1261
8 1250 1133 1019 1126 1382 1262 1134 1251
8 1253 1136 1256 1385 1384 1263 1135 1252
8 1254 1137 1265 1387 1129 1022 1141 1258
8 1149 1032 1150 1276 1254 1137 1265 1387
8 1028 1135 1255 1138 1139 1256 1388 1266
8 1136 1029 1147 1264 1256 1139 1267 1389
8 1390 1268 1140 1257 1259 1142 1024 1131
8 1260 1143 1027 1134 1390 1268 1140 1257
8 1258 1141 1269 1391 1130 1023 1142 1259
8 1262 1145 1027 1134 1393 1271 1143 1260
8 1261 1144 1026 1133 1394 1272 1145 1262
8 1135 1028 1144 1261 1263 1146 1272 1394
8 1136 1029 1146 1263 1264 1147 1273 1395
8 1155 1041 1160 1282 1275 1149 1276 1405
8 1276 1150 1044 1160 1406 1277 1162 1286
8 1408 1283 1159 1279 1278 1156 1039 1151
8 1290 1165 1283 1408 1177 1053 1156 1278
8 1152 1040 1159 1279 1280 1158 1285 1409
8 1281 1157 1038 1153 1410 1284 1158 1280
8 1281 1157 1284 1410 1154 1042 1160 1282
8 1159 1046 1164 1283 1285 1163 1289 1412
8 1292 1167 1289 1412 1165 1048 1164 1283
8 1158 1045 1163 1285 1284 1161 1288 1413
8 1284 1161 1288 1413 1160 1044 1162 1286
8 1291 1166 1292 1418 1174 1051 1165 1290
8 1291 1166 1051 1174 1419 1293 1172 1305
8 1294 1169 1296 1421 1166 1049 1167 1292
8 1293 1168 1050 1172 1422 1295 1171 1303
8 1294 1169 1049 1166 1423 1297 1168 1293
8 1422 1295 1171 1303 1301 1170 1302 1435
8 1172 1050 1173 1306 1303 1171 1304 1438
8 1174 1051 1175 1308 1305 1172 1306 1440
8 1175 1052 1176 1309 1306 1173 1307 1441
8 1177 1053 1178 1311 1308 1175 1309 1443
8 1178 1054 1179 1312 1309 1176 1310 1444
8 1180 1055 1181 1314 1311 1178 1312 1446
8 1056 1181 1312 1179 1182 1315 1447 1313
8 1183 1058 1184 1316 1314 1181 1315 1448
8 1319 1186 1084 1214 1451 1317 1213 1350
8 1319 1186 1318 1453 1208 1081 1187 1321
8 1321 1187 1320 1456 1188 1063 1189 1323
8 1344 1208 1321 1457 1209 1082 1188 1322
8 1322 1188 1323 1458 1190 1064 1191 1325
8 1323 1189 1324 1459 1191 1065 1192 1326
8 1191 1325 1193 1067 1326 1460 1327 1194
8 1242 1374 1243 1119 1328 1462 1335 1204
8 1330 1199 1333 1465 1196 1075 1200 1331
8 1132 1249 1330 1199 1243 1375 1465 1333
8 1332 1201 1077 1198 1466 1334 1200 1331
8 1215 1099 1201 1332 1352 1227 1334 1466
8 1119 1243 1333 1203 1204 1335 1470 1338
8 1333 1203 1338 1470 1200 1080 1202 1334
8 1227 1111 1202 1334 1360 1235 1338 1470
8 1328 1462 1335 1204 1205 1336 1471 1339
8 1337 1206 1340 1472 1464 1329 1205 1336
8 1346 1211 1342 1479 1210 1083 1207 1343
8 1346 1211 1115 1228 1479 1342 1239 1361
8 1348 1212 1084 1214 1479 1342 1207 1343
8 1480 1343 1208 1344 1345 1210 1082 1209
8 1351 1214 1319 1454 1480 1343 1208 1344
8 1481 1346 1210 1345 1359 1228 1100 1225
8 1348 1212 1347 1483 1214 1084 1213 1350
8 1216 1103 1227 1352 1353 1230 1360 1488
8 1217 1104 1230 1353 1354 1231 1363 1489
8 1490 1364 1232 1355 1354 1231 1106 1219
8 1220 1109 1232 1355 1356 1234 1365 1491
8 1221 1110 1234 1356 1357 1233 1366 1492
8 1224 1107 1233 1357 1358 1229 1362 1493
8 1226 1102 1229 1358 1359 1228 1362 1493
8 1230 1112 1235 1360 1363 1236 1367 1496
8 1361 1239 1115 1228 1497 1371 1240 1362
8 1366 1241 1372 1498 1233 1117 1240 1362
8 1364 1237 1113 1231 1499 1368 1236 1363
8 1364 1237 1368 1499 1232 1114 1238 1365
8 1234 1118 1238 1365 1366 1241 1369 1500
8 1507 1373 1242 1374 1388 1266 1138 1255
8 1508 1374 1243 1375 1380 1255 1132 1249
8 1376 1254 1387 1509 1245 1129 1258 1377
8 1275 1149 1276 1405 1376 1254 1387 1509
8 1377 1258 1391 1510 1248 1130 1259 1379
8 1511 1390 1257 1378 1379 1259 1131 1247
8 1383 1260 1134 1251 1511 1390 1257 1378
8 1252 1135 1256 1385 1380 1255 1388 1512
8 1261 1381 1513 1394 1133 1250 1382 1262
8 1135 1252 1384 1263 1261 1381 1513 1394
8 1382 1262 1134 1251 1514 1393 1260 1383
8 1253 1136 1263 1384 1386 1264 1395 1516
8 1253 1136 1264 1386 1385 1256 1389 1517
8 1387 1265 1397 1519 1258 1141 1269 1391
8 1276 1150 1277 1406 1387 1265 1397 1519
8 1256 1139 1267 1389 1388 1266 1398 1520
8 1264 1147 1274 1396 1389 1267 1399 1521
8 1392 1270 1143 1260 1522 1400 1268 1390
8 1390 1268 1142 1259 1522 1400 1269 1391
8 1392 1270 1401 1523 1260 1143 1271 1393
8 1272 1394 1524 1402 1145 1262 1393 1271
8 1395 1273 1146 1263 1524 1402 1272 1394
8 1273 1395 1264 1147 1403 1526 1396 1274
8 1405 1276 1160 1282 1534 1406 1286 1411
8 1414 1287 1407 1535 1286 1162 1277 1406
8 1279 1159 1283 1408 1409 1285 1412 1537
8 1418 1292 1412 1537 1290 1165 1283 1408
8 1280 1158 1285 1409 1410 1284 1413 1538
8 1410 1284 1413 1538 1282 1160 1286 1411
8 1285 1163 1289 1412 1413 1288 1417 1540
8 1421 1296 1417 1540 1292 1167 1289 1412
8 1414 1287 1162 1286 1541 1416 1288 1413
8 1420 1294 1421 1545 1291 1166 1292 1418
8 1419 1293 1172 1305 1546 1422 1303 1437
8 1420 1294 1166 1291 1547 1423 1293 1419
8 1294 1169 1297 1423 1421 1296 1425 1548
8 1423 1297 1168 1293 1549 1424 1295 1422
8 1301 1170 1298 1427 1422 1295 1424 1549
8 1432 1300 1428 1554 1301 1170 1298 1427
8 1431 1299 1428 1554 1560 1430 1300 1432
8 1563 1433 1300 1432 1435 1302 1170 1301
8 1546 1422 1303 1437 1434 1301 1435 1565
8 1303 1171 1304 1438 1435 1302 1436 1566
8 1305 1172 1306 1440 1437 1303 1438 1568
8 1306 1173 1307 1441 1438 1304 1439 1569
8 1308 1175 1309 1443 1440 1306 1441 1571
8 1309 1176 1310 1444 1441 1307 1442 1572
8 1311 1178 1312 1446 1443 1309 1444 1574
8 1179 1312 1444 1310 1313 1447 1575 1445
8 1314 1181 1315 1448 1446 1312 1447 1576
8 1350 1213 1349 1486 1451 1317 1449 1579
8 1451 1317 1450 1581 1319 1186 1318 1453
8 1454 1319 1214 1351 1582 1451 1350 1487
8 1453 1318 1452 1584 1321 1187 1320 1456
8 1454 1319 1453 1585 1344 1208 1321 1457
8 1456 1320 1455 1586 1323 1189 1324 1459
8 1457 1321 1456 1587 1322 1188 1323 1458
8 1458 1323 1459 1588 1325 1191 1326 1460
8 1205 1336 1464 1329 1328 1462 1590 1461
8 1507 1373 1461 1590 1374 1242 1328 1462
8 1508 1374 1462 1591 1375 1243 1335 1467
8 1337 1206 1329 1464 1473 1341 1463 1594
8 1375 1243 1335 1467 1465 1333 1470 1596
8 1465 1333 1470 1596 1331 1200 1334 1466
8 1352 1227 1334 1466 1488 1360 1470 1596
8 1591 1462 1336 1468 1467 1335 1471 1597
8 1469 1337 1472 1598 1595 1464 1336 1468
8 1471 1339 1474 1600 1335 1204 1338 1470
8 1600 1474 1367 1496 1470 1338 1235 1360
8 1336 1205 1340 1472 1471 1339 1475 1601
8 1337 1206 1341 1473 1472 1340 1476 1602
8 1495 1370 1478 1609 1361 1239 1342 1479
8 1348 1212 1342 1479 1483 1347 1478 1609
8 1481 1346 1479 1610 1345 1210 1343 1480
8 1481 1346 1228 1359 1610 1479 1361 1494
8 1484 1348 1214 1351 1610 1479 1343 1480
8 1483 1347 1482 1612 1350 1213 1349 1486
8 1484 1348 1483 1613 1351 1214 1350 1487
8 1353 1230 1360 1488 1489 1363 1496 1616
8 1490 1364 1231 1354 1617 1499 1363 1489
8 1490 1364 1499 1617 1355 1232 1365 1491
8 1356 1234 1365 1491 1492 1366 1500 1619
8 1492 1366 1498 1620 1357 1233 1362 1493
8 1494 1361 1228 1359 1621 1497 1362 1493
8 1495 1370 1239 1361 1622 1504 1371 1497
8 1363 1236 1367 1496 1499 1368 1501 1623
8 1497 1371 1240 1362 1624 1505 1372 1498
8 1625 1503 1372 1498 1500 1369 1241 1366
8 1365 1238 1368 1499 1500 1369 1502 1626
8 1520 1398 1506 1633 1388 1266 1373 1507
8 1634 1507 1374 1508 1512 1388 1255 1380
8 1509 1387 1519 1635 1377 1258 1391 1510
8 1405 1276 1406 1534 1509 1387 1519 1635
8 1515 1392 1260 1383 1636 1522 1390 1511
8 1511 1390 1259 1379 1636 1522 1391 1510
8 1385 1256 1389 1517 1512 1388 1520 1637
8 1513 1394 1262 1382 1638 1524 1393 1514
8 1395 1516 1638 1524 1263 1384 1513 1394
8 1515 1392 1523 1639 1383 1260 1393 1514
8 1516 1395 1526 1640 1386 1264 1396 1518
8 1386 1264 1396 1518 1517 1389 1521 1641
8 1519 1397 1527 1643 1391 1269 1400 1522
8 1535 1407 1527 1643 1406 1277 1397 1519
8 1389 1267 1399 1521 1520 1398 1528 1644
8 1645 1529 1399 1521 1525 1404 1274 1396
8 1392 1270 1400 1522 1523 1401 1531 1646
8 1524 1402 1271 1393 1648 1532 1401 1523
8 1403 1526 1648 1532 1273 1395 1524 1402
8 1525 1404 1274 1396 1649 1533 1403 1526
8 1539 1414 1535 1657 1411 1286 1406 1534
8 1542 1415 1536 1658 1414 1287 1407 1535
8 1409 1285 1412 1537 1538 1413 1540 1660
8 1545 1421 1540 1660 1418 1292 1412 1537
8 1539 1414 1286 1411 1661 1541 1413 1538
8 1540 1417 1544 1663 1413 1288 1416 1541
8 1421 1296 1425 1548 1540 1417 1544 1663
8 1542 1415 1287 1414 1664 1543 1416 1541
8 1420 1294 1423 1547 1545 1421 1548 1666
8 1547 1423 1293 1419 1667 1549 1422 1546
8 1434 1301 1427 1553 1546 1422 1549 1667
8 1423 1297 1424 1549 1548 1425 1550 1668
8 1551 1426 1550 1668 1427 1298 1424 1549
8 1551 1426 1298 1427 1671 1552 1428 1554
8 1562 1432 1554 1674 1434 1301 1427 1553
8 1431 1299 1429 1558 1554 1428 1555 1675
8 1431 1299 1430 1560 1558 1429 1557 1680
8 1560 1430 1300 1432 1683 1559 1433 1563
8 1561 1431 1554 1674 1684 1560 1432 1562
8 1685 1563 1432 1562 1565 1435 1301 1434
8 1435 1302 1436 1566 1563 1433 1564 1686
8 1437 1303 1438 1568 1565 1435 1566 1688
8 1438 1304 1439 1569 1566 1436 1567 1689
8 1440 1306 1441 1571 1568 1438 1569 1691
8 1441 1307 1442 1572 1569 1439 1570 1692
8 1443 1309 1444 1574 1571 1441 1572 1694
8 1310 1444 1572 1442 1445 1575 1695 1573
8 1446 1312 1447 1576 1574 1444 1575 1696
8 1486 1349 1485 1614 1579 1449 1577 1699
8 1451 1317 1449 1579 1581 1450 1578 1701
8 1487 1350 1486 1615 1582 1451 1579 1702
8 1581 1450 1580 1704 1453 1318 1452 1584
8 1582 1451 1581 1705 1454 1319 1453 1585
8 1584 1452 1583 1706 1456 1320 1455 1586
8 1585 1453 1584 1707 1457 1321 1456 1587
8 1587 1456 1586 1708 1458 1323 1459 1588
8 1633 1506 1589 1710 1507 1373 1461 1590
8 1464 1329 1461 1590 1594 1463 1589 1710
8 1468 1336 1462 1591 1595 1464 1590 1711
8 1634 1507 1590 1711 1508 1374 1462 1591
8 1473 1341 1463 1594 1603 1477 1593 1716
8 1469 1337 1464 1595 1599 1473 1594 1717
8 1471 1597 1467 1335 1600 1718 1596 1470
8 1718 1600 1496 1616 1596 1470 1360 1488
8 1336 1468 1597 1471 1472 1598 1719 1601
8 1469 1337 1473 1599 1598 1472 1602 1720
8 1722 1604 1501 1623 1600 1474 1367 1496
8 1475 1601 1471 1339 1604 1722 1600 1474
8 1602 1476 1605 1723 1472 1340 1475 1601
8 1476 1602 1724 1606 1341 1473 1603 1477
8 1483 1347 1478 1609 1612 1482 1608 1731
8 1495 1370 1504 1622 1609 1478 1608 1731
8 1618 1495 1609 1732 1494 1361 1479 1610
8 1484 1348 1479 1610 1613 1483 1609 1732
8 1486 1349 1482 1612 1614 1485 1611 1733
8 1613 1483 1612 1734 1487 1350 1486 1615
8 1489 1363 1496 1616 1617 1499 1623 1736
8 1491 1365 1499 1617 1619 1500 1626 1737
8 1618 1495 1361 1494 1738 1622 1497 1621
8 1739 1625 1498 1620 1619 1500 1366 1492
8 1621 1497 1362 1493 1740 1624 1498 1620
8 1742 1631 1504 1622 1624 1505 1371 1497
8 1743 1628 1502 1626 1623 1501 1368 1499
8 1744 1630 1505 1624 1625 1503 1372 1498
8 1745 1629 1503 1625 1626 1502 1369 1500
8 1520 1398 1528 1644 1633 1506 1632 1751
8 1637 1520 1633 1752 1512 1388 1507 1634
8 1635 1519 1643 1753 1510 1391 1522 1636
8 1657 1535 1643 1753 1534 1406 1519 1635
8 1515 1392 1522 1636 1639 1523 1646 1754
8 1517 1389 1521 1641 1637 1520 1644 1755
8 1524 1638 1756 1648 1393 1514 1639 1523
8 1640 1526 1395 1516 1756 1648 1524 1638
8 1642 1525 1396 1518 1757 1649 1526 1640
8 1758 1645 1521 1641 1642 1525 1396 1518
8 1646 1531 1400 1522 1760 1650 1527 1643
8 1535 1407 1536 1658 1643 1527 1650 1760
8 1521 1399 1529 1645 1644 1528 1651 1761
8 1647 1530 1652 1762 1525 1404 1529 1645
8 1401 1523 1648 1532 1531 1646 1763 1655
8 1525 1404 1533 1649 1647 1530 1654 1765
8 1533 1649 1766 1656 1403 1526 1648 1532
8 1662 1542 1658 1774 1539 1414 1535 1657
8 1542 1415 1543 1664 1658 1536 1659 1775
8 1660 1540 1663 1777 1538 1413 1541 1661
8 1545 1421 1548 1666 1660 1540 1663 1777
8 1662 1542 1414 1539 1778 1664 1541 1661
8 1664 1543 1416 1541 1779 1665 1544 1663
8 1548 1425 1550 1668 1663 1544 1665 1779
8 1547 1423 1549 1667 1666 1548 1668 1781
8 1670 1551 1668 1781 1553 1427 1549 1667
8 1551 1426 1552 1671 1668 1550 1669 1782
8 1670 1551 1427 1553 1784 1671 1554 1674
8 1675 1555 1672 1785 1554 1428 1552 1671
8 1678 1556 1673 1789 1558 1429 1555 1675
8 1561 1431 1558 1681 1674 1554 1675 1790
8 1794 1677 1556 1678 1680 1557 1429 1558
8 1560 1430 1559 1683 1680 1557 1679 1797
8 1561 1431 1560 1684 1681 1558 1680 1798
8 1563 1433 1564 1686 1683 1559 1682 1800
8 1684 1560 1432 1562 1801 1683 1563 1685
8 1565 1435 1566 1688 1685 1563 1686 1802
8 1566 1436 1567 1689 1686 1564 1687 1803
8 1568 1438 1569 1691 1688 1566 1689 1805
8 1569 1439 1570 1692 1689 1567 1690 1806
8 1571 1441 1572 1694 1691 1569 1692 1808
8 1442 1572 1692 1570 1573 1695 1809 1693
8 1574 1444 1575 1696 1694 1572 1695 1810
8 1614 1485 1592 1712 1699 1577 1697 1813
8 1579 1449 1577 1699 1701 1578 1698 1815
8 1615 1486 1614 1735 1702 1579 1699 1816
8 1701 1578 1700 1818 1581 1450 1580 1704
8 1582 1451 1579 1702 1705 1581 1701 1819
8 1704 1580 1703 1820 1584 1452 1583 1706
8 1705 1581 1704 1821 1585 1453 1584 1707
8 1707 1584 1706 1822 1587 1456 1586 1708
8 1710 1589 1506 1633 1824 1709 1632 1751
8 1594 1463 1589 1710 1716 1593 1709 1824
8 1752 1633 1710 1825 1634 1507 1590 1711
8 1595 1464 1590 1711 1717 1594 1710 1825
8 1830 1714 1592 1712 1733 1611 1485 1614
8 1603 1477 1593 1716 1725 1607 1715 1834
8 1599 1473 1594 1717 1721 1603 1716 1835
8 1837 1722 1623 1736 1718 1600 1496 1616
8 1719 1601 1722 1837 1597 1471 1600 1718
8 1602 1720 1598 1472 1723 1838 1719 1601
8 1720 1602 1473 1599 1839 1724 1603 1721
8 1723 1605 1726 1840 1601 1475 1604 1722
8 1840 1726 1628 1743 1722 1604 1501 1623
8 1724 1606 1727 1841 1602 1476 1605 1723
8 1725 1607 1728 1842 1603 1477 1606 1724
8 1612 1482 1608 1731 1733 1611 1730 1849
8 1741 1627 1730 1849 1622 1504 1608 1731
8 1613 1483 1609 1732 1734 1612 1731 1850
8 1618 1495 1622 1738 1732 1609 1731 1850
8 1615 1486 1612 1734 1735 1614 1733 1851
8 1852 1743 1626 1737 1736 1623 1499 1617
8 1853 1745 1625 1739 1737 1626 1500 1619
8 1855 1742 1622 1738 1740 1624 1497 1621
8 1856 1744 1624 1740 1739 1625 1498 1620
8 1741 1627 1504 1622 1857 1746 1631 1742
8 1742 1631 1505 1624 1858 1749 1630 1744
8 1859 1747 1629 1745 1743 1628 1502 1626
8 1860 1748 1630 1744 1745 1629 1503 1625
8 1644 1528 1651 1761 1751 1632 1750 1865
8 1637 1520 1644 1755 1752 1633 1751 1866
8 1754 1646 1522 1636 1867 1760 1643 1753
8 1657 1535 1658 1774 1753 1643 1760 1867
8 1639 1523 1646 1754 1756 1648 1763 1868
8 1641 1521 1645 1758 1755 1644 1761 1869
8 1757 1649 1526 1640 1870 1766 1648 1756
8 1642 1525 1649 1757 1759 1647 1765 1871
8 1759 1647 1762 1872 1642 1525 1645 1758
8 1760 1650 1767 1874 1646 1531 1655 1763
8 1658 1536 1659 1775 1760 1650 1767 1874
8 1762 1652 1768 1875 1645 1529 1651 1761
8 1764 1653 1769 1876 1647 1530 1652 1762
8 1656 1766 1877 1773 1532 1648 1763 1655
8 1771 1879 1765 1654 1653 1764 1647 1530
8 1533 1649 1765 1654 1656 1766 1880 1772
8 1662 1542 1664 1778 1774 1658 1775 1887
8 1664 1543 1665 1779 1775 1659 1776 1888
8 1778 1664 1541 1661 1890 1779 1663 1777
8 1666 1548 1668 1781 1777 1663 1779 1890
8 1782 1669 1780 1891 1668 1550 1665 1779
8 1670 1551 1671 1784 1781 1668 1782 1893
8 1671 1552 1672 1785 1782 1669 1783 1894
8 1790 1675 1785 1896 1674 1554 1671 1784
8 1675 1555 1673 1789 1785 1672 1786 1897
8 1792 1676 1788 1903 1678 1556 1673 1789
8 1795 1678 1789 1904 1681 1558 1675 1790
8 1792 1676 1556 1678 1906 1791 1677 1794
8 1680 1557 1679 1797 1794 1677 1793 1909
8 1910 1794 1678 1795 1798 1680 1558 1681
8 1683 1559 1682 1800 1797 1679 1796 1912
8 1684 1560 1683 1801 1798 1680 1797 1913
8 1686 1564 1687 1803 1800 1682 1799 1915
8 1685 1563 1686 1802 1801 1683 1800 1916
8 1688 1566 1689 1805 1802 1686 1803 1917
8 1689 1567 1690 1806 1803 1687 1804 1918
8 1691 1569 1692 1808 1805 1689 1806 1920
8 1692 1570 1693 1809 1806 1690 1807 1921
8 1694 1572 1695 1810 1808 1692 1809 1922
8 1829 1713 1811 1926 1712 1592 1697 1813
8 1813 1697 1812 1928 1699 1577 1698 1815
8 1735 1614 1712 1828 1816 1699 1813 1929
8 1815 1698 1814 1931 1701 1578 1700 1818
8 1702 1579 1699 1816 1819 1701 1815 1932
8 1818 1700 1817 1933 1704 1580 1703 1820
8 1819 1701 1818 1934 1705 1581 1704 1821
8 1821 1704 1820 1935 1707 1584 1706 1822
8 1824 1709 1632 1751 1937 1823 1750 1865
8 1716 1593 1709 1824 1834 1715 1823 1937
8 1825 1710 1633 1752 1938 1824 1751 1866
8 1717 1594 1710 1825 1835 1716 1824 1938
8 1945 1830 1712 1828 1851 1733 1614 1735
8 1830 1714 1831 1946 1712 1592 1713 1829
8 1947 1832 1714 1830 1849 1730 1611 1733
8 1843 1729 1607 1725 1950 1833 1715 1834
8 1721 1603 1716 1835 1836 1725 1834 1951
8 1836 1725 1842 1953 1721 1603 1724 1839
8 1723 1838 1719 1601 1840 1954 1837 1722
8 1954 1840 1743 1852 1837 1722 1623 1736
8 1724 1839 1720 1602 1841 1955 1838 1723
8 1841 1727 1844 1956 1723 1605 1726 1840
8 1956 1844 1747 1859 1840 1726 1628 1743
8 1728 1842 1724 1606 1845 1957 1841 1727
8 1725 1607 1729 1843 1842 1728 1846 1958
8 1741 1627 1746 1857 1849 1730 1848 1965
8 1734 1612 1731 1850 1851 1733 1849 1966
8 1854 1741 1849 1966 1738 1622 1731 1850
8 1967 1859 1745 1853 1852 1743 1626 1737
8 1968 1860 1744 1856 1853 1745 1625 1739
8 1854 1741 1622 1738 1969 1857 1742 1855
8 1855 1742 1624 1740 1970 1858 1744 1856
8 1857 1746 1631 1742 1971 1861 1749 1858
8 1858 1749 1630 1744 1972 1863 1748 1860
8 1859 1747 1862 1973 1745 1629 1748 1860
8 1875 1768 1864 1977 1761 1651 1750 1865
8 1755 1644 1761 1869 1866 1751 1865 1978
8 1867 1760 1874 1979 1754 1646 1763 1868
8 1774 1658 1775 1887 1867 1760 1874 1979
8 1870 1766 1648 1756 1980 1877 1763 1868
8 1872 1762 1875 1981 1758 1645 1761 1869
8 1757 1649 1766 1870 1871 1765 1880 1982
8 1983 1879 1764 1873 1871 1765 1647 1759
8 1873 1764 1876 1984 1759 1647 1762 1872
8 1877 1773 1655 1763 1986 1881 1767 1874
8 1775 1659 1776 1888 1874 1767 1881 1986
8 1876 1769 1882 1987 1762 1652 1768 1875
8 1878 1770 1883 1988 1764 1653 1769 1876
8 1880 1772 1656 1766 1989 1886 1773 1877
8 1878 1770 1653 1764 1990 1884 1771 1879
8 1765 1654 1772 1880 1879 1771 1885 1991
8 1778 1664 1779 1890 1887 1775 1888 1997
8 1998 1889 1776 1888 1891 1780 1665 1779
8 1893 1782 1891 2000 1781 1668 1779 1890
8 1894 1783 1892 2001 1782 1669 1780 1891
8 1784 1671 1785 1896 1893 1782 1894 2003
8 1897 1786 1895 2004 1785 1672 1783 1894
8 1790 1675 1789 1904 1896 1785 1897 2006
8 1901 1787 1898 2007 1789 1673 1786 1897
8 1903 1788 1900 2013 1789 1673 1787 1901
8 1792 1676 1791 1906 1903 1788 1902 2016
8 1907 1792 1903 2017 1795 1678 1789 1904
8 1906 1791 1677 1794 2019 1905 1793 1909
8 1907 1792 1678 1795 2020 1906 1794 1910
8 1797 1679 1796 1912 1909 1793 1908 2022
8 1798 1680 1797 1913 1910 1794 1909 2023
8 1800 1682 1799 1915 1912 1796 1911 2025
8 1801 1683 1800 1916 1913 1797 1912 2026
8 1803 1687 1804 1918 1915 1799 1914 2028
8 1802 1686 1803 1917 1916 1800 1915 2029
8 1805 1689 1806 1920 1917 1803 1918 2030
8 1806 1690 1807 1921 1918 1804 1919 2031
8 1808 1692 1809 1922 1920 1806 1921 2032
8 1939 1826 1924 2037 1829 1713 1811 1926
8 1926 1811 1925 2039 1813 1697 1812 1928
8 1944 1829 1926 2040 1828 1712 1813 1929
8 1928 1812 1927 2042 1815 1698 1814 1931
8 1929 1813 1928 2043 1816 1699 1815 1932
8 1931 1814 1930 2044 1818 1700 1817 1933
8 1932 1815 1931 2045 1819 1701 1818 1934
8 1934 1818 1933 2046 1821 1704 1820 1935
8 2048 1936 1823 1937 1977 1864 1750 1865
8 1950 1833 1715 1834 2048 1936 1823 1937
8 1938 1824 1751 1866 2049 1937 1865 1978
8 1835 1716 1824 1938 1951 1834 1937 2049
8 1939 1826 1713 1829 2053 1942 1831 1946
8 1940 1827 1923 2035 2053 1942 1826 1939
8 1945 1830 1946 2058 1828 1712 1829 1944
8 2059 1947 1830 1945 1966 1849 1733 1851
8 1947 1832 1730 1849 2060 1948 1848 1965
8 1947 1832 1948 2060 1830 1714 1831 1946
8 1959 1847 1729 1843 2063 1949 1833 1950
8 1952 1843 1725 1836 2064 1950 1834 1951
8 1836 1725 1843 1952 1953 1842 1958 2066
8 1953 1842 1957 2067 1839 1724 1841 1955
8 1841 1955 1838 1723 1956 2068 1954 1840
8 2068 1956 1859 1967 1954 1840 1743 1852
8 1956 1844 1960 2069 1859 1747 1862 1973
8 1845 1957 1841 1727 1960 2069 1956 1844
8 1728 1842 1957 1845 1846 1958 2071 1961
8 1962 2072 1959 1847 1846 1958 1843 1729
8 1971 1861 1964 2077 1857 1746 1848 1965
8 1854 1741 1857 1969 1966 1849 1965 2078
8 1967 1859 1973 2079 1853 1745 1860 1968
8 1970 1858 1744 1856 2080 1972 1860 1968
8 1969 1857 1742 1855 2081 1971 1858 1970
8 1971 1861 1749 1858 2082 1974 1863 1972
8 1973 1862 1975 2083 1860 1748 1863 1972
8 1987 1882 1976 2086 1875 1768 1864 1977
8 1981 1875 1977 2087 1869 1761 1865 1978
8 1980 1877 1763 1868 2088 1986 1874 1979
8 1887 1775 1888 1997 1979 1874 1986 2088
8 1880 1982 2089 1989 1766 1870 1980 1877
8 1984 1876 1987 2090 1872 1762 1875 1981
8 1765 1871 1983 1879 1880 1982 2091 1991
8 1985 1878 1764 1873 2092 1990 1879 1983
8 1985 1878 1988 2093 1873 1764 1876 1984
8 2094 1992 1881 1986 1998 1889 1776 1888
8 1986 1881 1992 2094 1877 1773 1886 1989
8 1988 1883 1993 2095 1876 1769 1882 1987
8 1878 1770 1884 1990 1988 1883 1994 2096
8 1991 1885 1772 1880 2097 1996 1886 1989
8 1879 1771 1885 1991 1990 1884 1995 2098
8 2103 1998 1888 1997 2000 1891 1779 1890
8 2104 1999 1889 1998 2001 1892 1780 1891
8 2003 1894 2001 2106 1893 1782 1891 2000
8 2004 1895 2002 2107 1894 1783 1892 2001
8 2006 1897 2004 2109 1896 1785 1894 2003
8 2007 1898 2005 2110 1897 1786 1895 2004
8 2014 1901 2007 2112 1904 1789 1897 2006
8 2011 1899 2008 2113 1901 1787 1898 2007
8 2119 2010 1899 2011 2013 1900 1787 1901
8 2016 1902 2012 2122 1903 1788 1900 2013
8 2017 1903 2013 2123 1904 1789 1901 2014
8 1906 1791 1905 2019 2016 1902 2015 2125
8 1907 1792 1906 2020 2017 1903 2016 2126
8 1909 1793 1908 2022 2019 1905 2018 2128
8 2020 1906 1794 1910 2129 2019 1909 2023
8 1912 1796 1911 2025 2022 1908 2021 2131
8 1913 1797 1912 2026 2023 1909 2022 2132
8 1915 1799 1914 2028 2025 1911 2024 2134
8 1916 1800 1915 2029 2026 1912 2025 2135
8 1918 1804 1919 2031 2028 1914 2027 2136
8 1917 1803 1918 2030 2029 1915 2028 2137
8 1920 1806 1921 2032 2030 1918 2031 2138
8 1940 1827 1941 2054 2035 1923 2033 2140
8 2035 1923 2034 2143 1939 1826 1924 2037
8 2037 1924 2036 2146 1926 1811 1925 2039
8 2051 1939 2037 2147 1944 1829 1926 2040
8 2039 1925 2038 2149 1928 1812 1927 2042
8 2040 1926 2039 2150 1929 1813 1928 2043
8 2042 1927 2041 2151 1931 1814 1930 2044
8 2043 1928 2042 2152 1932 1815 1931 2045
8 2045 1931 2044 2153 1934 1818 1933 2046
8 2155 2047 1936 2048 2086 1976 1864 1977
8 2063 1949 1833 1950 2155 2047 1936 2048
8 2156 2048 1937 2049 2087 1977 1865 1978
8 2064 1950 1834 1951 2156 2048 1937 2049
8 2051 1939 1829 1944 2160 2053 1946 2058
8 2052 1940 2035 2144 2160 2053 1939 2051
8 2053 1942 1831 1946 2163 2057 1948 2060
8 2055 1943 1827 1940 2163 2057 1942 2053
8 2055 1943 2056 2164 1940 1827 1941 2054
8 2059 1947 1849 1966 2167 2060 1965 2078
8 2059 1947 2060 2167 1945 1830 1946 2058
8 2077 1964 2061 2168 1965 1848 1948 2060
8 2070 1963 1847 1959 2170 2062 1949 2063
8 2065 1959 1843 1952 2171 2063 1950 2064
8 2173 2072 1958 2066 2065 1959 1843 1952
8 1953 1842 1958 2066 2067 1957 2071 2174
8 2068 1956 2069 2175 1967 1859 1973 2079
8 2067 1957 2069 2175 1955 1841 1956 2068
8 1845 1957 2069 1960 1961 2071 2176 2073
8 2069 1960 2073 2176 1973 1862 1975 2083
8 2070 1963 2075 2177 1959 1847 1962 2072
8 1846 1958 2071 1961 1962 2072 2178 2074
8 2077 1964 1861 1971 2182 2076 1974 2082
8 2081 1971 2077 2183 1969 1857 1965 2078
8 2079 1973 2083 2184 1968 1860 1972 2080
8 2081 1971 1858 1970 2185 2082 1972 2080
8 2083 1975 2084 2186 1972 1863 1974 2082
8 2086 1976 1882 1987 2189 2085 1993 2095
8 2090 1987 2086 2190 1981 1875 1977 2087
8 2191 2094 1986 2088 2103 1998 1888 1997
8 2088 1986 2094 2191 1980 1877 1989 2089
8 1991 2091 2192 2097 1880 1982 2089 1989
8 2093 1988 2095 2193 1984 1876 1987 2090
8 1879 1983 2092 1990 1991 2091 2194 2098
8 1985 1878 1990 2092 2093 1988 2096 2195
8 2097 1996 1886 1989 2196 2099 1992 2094
8 2196 2099 1992 2094 2104 1999 1889 1998
8 1994 2096 1988 1883 2100 2197 2095 1993
8 2096 1994 1884 1990 2198 2101 1995 2098
8 1995 2098 2199 2102 1885 1991 2097 1996
8 2203 2104 1998 2103 2106 2001 1891 2000
8 2107 2002 2105 2204 2001 1892 1999 2104
8 2109 2004 2107 2206 2003 1894 2001 2106
8 2110 2005 2108 2207 2004 1895 2002 2107
8 2112 2007 2110 2209 2006 1897 2004 2109
8 2113 2008 2111 2210 2007 1898 2005 2110
8 2120 2011 2113 2212 2014 1901 2007 2112
8 2117 2009 2114 2213 2011 1899 2008 2113
8 2219 2116 2009 2117 2119 2010 1899 2011
8 2222 2118 2010 2119 2122 2012 1900 2013
8 2223 2119 2011 2120 2123 2013 1901 2014
8 2016 1902 2015 2125 2122 2012 2121 2225
8 2126 2016 2122 2226 2017 1903 2013 2123
8 2019 1905 2018 2128 2125 2015 2124 2228
8 2020 1906 2019 2129 2126 2016 2125 2229
8 2022 1908 2021 2131 2128 2018 2127 2231
8 2023 1909 2022 2132 2129 2019 2128 2232
8 2025 1911 2024 2134 2131 2021 2130 2234
8 2026 1912 2025 2135 2132 2022 2131 2235
8 1914 2028 2134 2024 2027 2136 2236 2133
8 2029 1915 2028 2137 2135 2025 2134 2237
8 2030 1918 2031 2138 2137 2028 2136 2238
8 2157 2050 2139 2240 2054 1941 2033 2140
8 2052 1940 2054 2161 2144 2035 2140 2242
8 2140 2033 2141 2243 2035 1923 2034 2143
8 2143 2034 2142 2246 2037 1924 2036 2146
8 2144 2035 2143 2247 2051 1939 2037 2147
8 2146 2036 2145 2249 2039 1925 2038 2149
8 2147 2037 2146 2250 2040 1926 2039 2150
8 2149 2038 2148 2251 2042 1927 2041 2151
8 2150 2039 2149 2252 2043 1928 2042 2152
8 2152 2042 2151 2253 2045 1931 2044 2153
8 2255 2154 2047 2155 2189 2085 1976 2086
8 2170 2062 1949 2063 2255 2154 2047 2155
8 2256 2155 2048 2156 2190 2086 1977 2087
8 2171 2063 1950 2064 2256 2155 2048 2156
8 2258 2159 2050 2157 2164 2056 1941 2054
8 2160 2053 1946 2058 2262 2163 2060 2167
8 2162 2055 1940 2052 2262 2163 2053 2160
8 2162 2055 2164 2263 2052 1940 2054 2161
8 2163 2057 1948 2060 2264 2165 2061 2168
8 2055 1943 2057 2163 2164 2056 2165 2264
8 2182 2076 2166 2268 2077 1964 2061 2168
8 2183 2077 2168 2269 2078 1965 2060 2167
8 2070 1963 2062 2170 2177 2075 2169 2271
8 2172 2070 1959 2065 2272 2170 2063 2171
8 2172 2070 2177 2273 2065 1959 2072 2173
8 2066 1958 2072 2173 2174 2071 2178 2274
8 2067 1957 2071 2174 2175 2069 2176 2275
8 2175 2069 2176 2275 2079 1973 2083 2184
8 2071 1961 2074 2178 2176 2073 2179 2276
8 2176 2073 2179 2276 2083 1975 2084 2186
8 2072 1962 2075 2177 2178 2074 2180 2277
8 2182 2076 1974 2082 2280 2181 2084 2186
8 2183 2077 1971 2081 2281 2182 2082 2185
8 2184 2083 2186 2282 2080 1972 2082 2185
8 2189 2085 1993 2095 2285 2188 2100 2197
8 2190 2086 1987 2090 2286 2189 2095 2193
8 2192 2097 1989 2089 2287 2196 2094 2191
8 2287 2196 2094 2191 2203 2104 1998 2103
8 2194 2098 1991 2091 2288 2199 2097 2192
8 2195 2096 2197 2289 2093 1988 2095 2193
8 2096 2195 2290 2198 1990 2092 2194 2098
8 2097 1996 2099 2196 2199 2102 2200 2291
8 2196 2099 1999 2104 2291 2200 2105 2204
8 2100 2197 2292 2201 1994 2096 2198 2101
8 1995 2098 2198 2101 2102 2199 2293 2202
8 2206 2107 2204 2296 2106 2001 2104 2203
8 2207 2108 2205 2297 2107 2002 2105 2204
8 2209 2110 2207 2299 2109 2004 2107 2206
8 2210 2111 2208 2300 2110 2005 2108 2207
8 2212 2113 2210 2302 2112 2007 2110 2209
8 2213 2114 2211 2303 2113 2008 2111 2210
8 2220 2117 2213 2305 2120 2011 2113 2212
8 2216 2115 2214 2306 2117 2009 2114 2213
8 2216 2115 2009 2117 2311 2217 2116 2219
8 2219 2116 2010 2119 2314 2218 2118 2222
8 2315 2219 2117 2220 2223 2119 2011 2120
8 2122 2012 2121 2225 2222 2118 2221 2317
8 2318 2222 2119 2223 2226 2122 2013 2123
8 2125 2015 2124 2228 2225 2121 2224 2320
8 2126 2016 2125 2229 2226 2122 2225 2321
8 2128 2018 2127 2231 2228 2124 2227 2323
8 2129 2019 2128 2232 2229 2125 2228 2324
8 2131 2021 2130 2234 2231 2127 2230 2326
8 2132 2022 2131 2235 2232 2128 2231 2327
8 2134 2024 2133 2236 2234 2130 2233 2328
8 2135 2025 2134 2237 2235 2131 2234 2329
8 2137 2028 2136 2238 2237 2134 2236 2330
8 2157 2050 2158 2259 2240 2139 2239 2332
8 2257 2157 2240 2334 2161 2054 2140 2242
8 2240 2139 2241 2335 2140 2033 2141 2243
8 2242 2140 2243 2337 2144 2035 2143 2247
8 2243 2141 2244 2338 2143 2034 2142 2246
8 2246 2142 2245 2341 2146 2036 2145 2249
8 2247 2143 2246 2342 2147 2037 2146 2250
8 2249 2145 2248 2343 2149 2038 2148 2251
8 2250 2146 2249 2344 2150 2039 2149 2252
8 2252 2149 2251 2345 2152 2042 2151 2253
8 2169 2271 2347 2254 2062 2170 2255 2154
8 2189 2085 2188 2285 2255 2154 2254 2347
8 2348 2255 2155 2256 2286 2189 2086 2190
8 2272 2170 2063 2171 2348 2255 2155 2256
8 2349 2258 2157 2257 2263 2164 2054 2161
8 2258 2159 2261 2351 2157 2050 2158 2259
8 2258 2159 2056 2164 2351 2261 2165 2264
8 2262 2163 2060 2167 2355 2264 2168 2269
8 2162 2055 2163 2262 2263 2164 2264 2355
8 2357 2266 2165 2264 2268 2166 2061 2168
8 2268 2166 2076 2182 2361 2267 2181 2280
8 2281 2182 2268 2362 2183 2077 2168 2269
8 2271 2169 2270 2364 2177 2075 2180 2277
8 2172 2070 2170 2272 2273 2177 2271 2365
8 2072 2173 2274 2178 2177 2273 2366 2277
8 2071 2174 2275 2176 2178 2274 2367 2276
8 2275 2176 2276 2367 2184 2083 2186 2282
8 2283 2187 2084 2186 2368 2278 2179 2276
8 2178 2074 2180 2277 2276 2179 2278 2368
8 2283 2187 2279 2370 2186 2084 2181 2280
8 2281 2182 2082 2185 2371 2280 2186 2282
8 2188 2285 2374 2284 2100 2197 2292 2201
8 2286 2189 2095 2193 2375 2285 2197 2289
8 2192 2097 2196 2287 2288 2199 2291 2376
8 2287 2196 2104 2203 2376 2291 2204 2296
8 2194 2098 2199 2288 2290 2198 2293 2377
8 2289 2197 2096 2195 2378 2292 2198 2290
8 2291 2200 2105 2204 2379 2294 2205 2297
8 2199 2102 2200 2291 2293 2202 2294 2379
8 2198 2101 2202 2293 2292 2201 2295 2380
8 2299 2207 2297 2383 2206 2107 2204 2296
8 2300 2208 2298 2384 2207 2108 2205 2297
8 2302 2210 2300 2386 2209 2110 2207 2299
8 2303 2211 2301 2387 2210 2111 2208 2300
8 2305 2213 2303 2389 2212 2113 2210 2302
8 2306 2214 2304 2390 2213 2114 2211 2303
8 2310 2216 2306 2392 2220 2117 2213 2305
8 2308 2215 2307 2393 2216 2115 2214 2306
8 2308 2215 2115 2216 2396 2309 2217 2311
8 2310 2216 2117 2220 2398 2311 2219 2315
8 2311 2217 2116 2219 2399 2312 2218 2314
8 2314 2218 2118 2222 2402 2313 2221 2317
8 2315 2219 2119 2223 2403 2314 2222 2318
8 2225 2121 2224 2320 2317 2221 2316 2405
8 2226 2122 2225 2321 2318 2222 2317 2406
8 2228 2124 2227 2323 2320 2224 2319 2408
8 2229 2125 2228 2324 2321 2225 2320 2409
8 2231 2127 2230 2326 2323 2227 2322 2411
8 2232 2128 2231 2327 2324 2228 2323 2412
8 2234 2130 2233 2328 2326 2230 2325 2413
8 2235 2131 2234 2329 2327 2231 2326 2414
8 2237 2134 2236 2330 2329 2234 2328 2415
8 2259 2158 2260 2352 2332 2239 2331 2417
8 2257 2157 2259 2350 2334 2240 2332 2419
8 2240 2139 2239 2332 2335 2241 2333 2420
8 2334 2240 2335 2422 2242 2140 2243 2337
8 2335 2241 2336 2423 2243 2141 2244 2338
8 2337 2243 2338 2425 2247 2143 2246 2342
8 2338 2244 2339 2426 2246 2142 2245 2341
8 2341 2245 2340 2428 2249 2145 2248 2343
8 2342 2246 2341 2429 2250 2146 2249 2344
8 2344 2249 2343 2430 2252 2149 2251 2345
8 2188 2285 2347 2254 2284 2374 2432 2346
8 2347 2254 2346 2432 2271 2169 2270 2364
8 2365 2271 2170 2272 2433 2347 2255 2348
8 2286 2189 2285 2375 2348 2255 2347 2433
8 2349 2258 2351 2435 2257 2157 2259 2350
8 2349 2258 2164 2263 2435 2351 2264 2355
8 2259 2158 2261 2351 2352 2260 2354 2437
8 2356 2265 2354 2437 2264 2165 2261 2351
8 2441 2357 2264 2355 2362 2268 2168 2269
8 2356 2265 2165 2264 2442 2358 2266 2357
8 2443 2359 2266 2357 2361 2267 2166 2268
8 2370 2279 2360 2446 2280 2181 2267 2361
8 2362 2268 2182 2281 2447 2361 2280 2371
8 2180 2277 2368 2278 2270 2364 2449 2363
8 2271 2365 2273 2177 2364 2450 2366 2277
8 2372 2283 2186 2282 2451 2368 2276 2367
8 2178 2274 2367 2276 2277 2366 2451 2368
8 2283 2187 2278 2368 2370 2279 2369 2452
8 2372 2283 2370 2453 2282 2186 2280 2371
8 2284 2374 2455 2373 2201 2292 2380 2295
8 2375 2285 2197 2289 2456 2374 2292 2378
8 2376 2291 2204 2296 2457 2379 2297 2383
8 2288 2199 2291 2376 2377 2293 2379 2457
8 2198 2290 2378 2292 2293 2377 2458 2380
8 2293 2202 2294 2379 2380 2295 2381 2459
8 2384 2298 2381 2459 2297 2205 2294 2379
8 2386 2300 2384 2463 2299 2207 2297 2383
8 2387 2301 2385 2464 2300 2208 2298 2384
8 2389 2303 2387 2466 2302 2210 2300 2386
8 2390 2304 2388 2467 2303 2211 2301 2387
8 2392 2306 2390 2469 2305 2213 2303 2389
8 2393 2307 2391 2470 2306 2214 2304 2390
8 2395 2308 2393 2472 2310 2216 2306 2392
8 2308 2215 2309 2396 2393 2307 2394 2473
8 2395 2308 2216 2310 2475 2396 2311 2398
8 2396 2309 2217 2311 2476 2397 2312 2399
8 2398 2311 2219 2315 2478 2399 2314 2403
8 2399 2312 2218 2314 2479 2400 2313 2402
8 2317 2221 2316 2405 2402 2313 2401 2482
8 2403 2314 2222 2318 2483 2402 2317 2406
8 2320 2224 2319 2408 2405 2316 2404 2485
8 2321 2225 2320 2409 2406 2317 2405 2486
8 2323 2227 2322 2411 2408 2319 2407 2488
8 2324 2228 2323 2412 2409 2320 2408 2489
8 2326 2230 2325 2413 2411 2322 2410 2490
8 2327 2231 2326 2414 2412 2323 2411 2491
8 2329 2234 2328 2415 2414 2326 2413 2492
8 2417 2331 2260 2352 2494 2416 2353 2438
8 2350 2259 2352 2436 2419 2332 2417 2496
8 2332 2239 2331 2417 2420 2333 2418 2497
8 2334 2240 2332 2419 2422 2335 2420 2499
8 2420 2333 2421 2500 2335 2241 2336 2423
8 2422 2335 2423 2502 2337 2243 2338 2425
8 2423 2336 2424 2503 2338 2244 2339 2426
8 2425 2338 2426 2505 2342 2246 2341 2429
8 2426 2339 2427 2506 2341 2245 2340 2428
8 2429 2341 2428 2507 2344 2249 2343 2430
8 2432 2346 2284 2374 2509 2431 2373 2455
8 2432 2346 2431 2509 2364 2270 2363 2449
8 2375 2285 2374 2456 2433 2347 2432 2510
8 2347 2433 2365 2271 2432 2510 2450 2364
8 2350 2259 2351 2435 2436 2352 2437 2514
8 2440 2356 2437 2514 2355 2264 2351 2435
8 2352 2260 2354 2437 2438 2353 2439 2516
8 2356 2265 2358 2442 2437 2354 2439 2516
8 2440 2356 2264 2355 2518 2442 2357 2441
8 2519 2443 2357 2441 2447 2361 2268 2362
8 2443 2359 2444 2520 2357 2266 2358 2442
8 2443 2359 2267 2361 2520 2444 2360 2446
8 2446 2360 2279 2370 2523 2445 2369 2452
8 2453 2370 2446 2524 2371 2280 2361 2447
8 2449 2363 2448 2525 2368 2278 2369 2452
8 2366 2277 2364 2450 2451 2368 2449 2526
8 2372 2283 2368 2451 2453 2370 2452 2527
8 2455 2373 2295 2380 2529 2454 2382 2460
8 2456 2374 2292 2378 2530 2455 2380 2458
8 2377 2293 2379 2457 2458 2380 2459 2531
8 2463 2384 2459 2531 2383 2297 2379 2457
8 2533 2461 2382 2460 2459 2381 2295 2380
8 2464 2385 2461 2533 2384 2298 2381 2459
8 2466 2387 2464 2537 2386 2300 2384 2463
8 2467 2388 2465 2538 2387 2301 2385 2464
8 2469 2390 2467 2540 2389 2303 2387 2466
8 2470 2391 2468 2541 2390 2304 2388 2467
8 2472 2393 2470 2543 2392 2306 2390 2469
8 2393 2307 2394 2473 2470 2391 2471 2544
8 2395 2308 2396 2475 2472 2393 2473 2546
8 2396 2309 2397 2476 2473 2394 2474 2547
8 2475 2396 2311 2398 2549 2476 2399 2478
8 2476 2397 2312 2399 2550 2477 2400 2479
8 2478 2399 2314 2403 2552 2479 2402 2483
8 2479 2400 2313 2402 2553 2480 2401 2482
8 2405 2316 2404 2485 2482 2401 2481 2556
8 2406 2317 2405 2486 2483 2402 2482 2557
8 2408 2319 2407 2488 2485 2404 2484 2559
8 2409 2320 2408 2489 2486 2405 2485 2560
8 2411 2322 2410 2490 2488 2407 2487 2561
8 2412 2323 2411 2491 2489 2408 2488 2562
8 2414 2326 2413 2492 2491 2411 2490 2563
8 2513 2434 2493 2565 2438 2353 2416 2494
8 2496 2417 2352 2436 2567 2494 2438 2515
8 2494 2416 2495 2568 2417 2331 2418 2497
8 2419 2332 2417 2496 2499 2420 2497 2570
8 2497 2418 2498 2571 2420 2333 2421 2500
8 2499 2420 2500 2573 2422 2335 2423 2502
8 2500 2421 2501 2574 2423 2336 2424 2503
8 2502 2423 2503 2576 2425 2338 2426 2505
8 2503 2424 2504 2577 2426 2339 2427 2506
8 2505 2426 2506 2578 2429 2341 2428 2507
8 2509 2431 2373 2455 2580 2508 2454 2529
8 2509 2431 2508 2580 2449 2363 2448 2525
8 2432 2510 2581 2509 2374 2456 2530 2455
8 2432 2510 2450 2364 2509 2581 2526 2449
8 2583 2511 2434 2513 2516 2439 2353 2438
8 2436 2352 2437 2514 2515 2438 2516 2588
8 2440 2356 2442 2518 2514 2437 2516 2588
8 2442 2358 2444 2520 2516 2439 2517 2589
8 2519 2443 2520 2591 2441 2357 2442 2518
8 2519 2443 2361 2447 2591 2520 2446 2524
8 2446 2360 2445 2523 2520 2444 2521 2592
8 2525 2448 2522 2593 2452 2369 2445 2523
8 2524 2446 2370 2453 2594 2523 2452 2527
8 2526 2449 2525 2595 2451 2368 2452 2527
8 2534 2462 2528 2597 2460 2382 2454 2529
8 2530 2455 2380 2458 2598 2529 2460 2532
8 2599 2533 2460 2532 2531 2459 2380 2458
8 2537 2464 2533 2599 2463 2384 2459 2531
8 2534 2462 2382 2460 2601 2535 2461 2533
8 2538 2465 2535 2601 2464 2385 2461 2533
8 2540 2467 2538 2604 2466 2387 2464 2537
8 2541 2468 2539 2605 2467 2388 2465 2538
8 2543 2470 2541 2607 2469 2390 2467 2540
8 2470 2391 2471 2544 2541 2468 2542 2608
8 2472 2393 2473 2546 2543 2470 2544 2610
8 2473 2394 2474 2547 2544 2471 2545 2611
8 2475 2396 2476 2549 2546 2473 2547 2613
8 2476 2397 2477 2550 2547 2474 2548 2614
8 2549 2476 2399 2478 2616 2550 2479 2552
8 2479 2400 2480 2553 2550 2477 2551 2617
8 2552 2479 2402 2483 2619 2553 2482 2557
8 2482 2401 2481 2556 2553 2480 2554 2620
8 2485 2404 2484 2559 2556 2481 2555 2623
8 2486 2405 2485 2560 2557 2482 2556 2624
8 2488 2407 2487 2561 2559 2484 2558 2625
8 2489 2408 2488 2562 2560 2485 2559 2626
8 2491 2411 2490 2563 2562 2488 2561 2627
8 2513 2434 2512 2585 2565 2493 2564 2630
8 2586 2513 2565 2632 2515 2438 2494 2567
8 2565 2493 2566 2633 2494 2416 2495 2568
8 2567 2494 2568 2635 2496 2417 2497 2570
8 2568 2495 2569 2636 2497 2418 2498 2571
8 2570 2497 2571 2638 2499 2420 2500 2573
8 2571 2498 2572 2639 2500 2421 2501 2574
8 2573 2500 2574 2641 2502 2423 2503 2576
8 2574 2501 2575 2642 2503 2424 2504 2577
8 2576 2503 2577 2643 2505 2426 2506 2578
8 2597 2528 2579 2645 2529 2454 2508 2580
8 2580 2508 2579 2645 2525 2448 2522 2593
8 2581 2509 2455 2530 2646 2580 2529 2598
8 2581 2509 2580 2646 2526 2449 2525 2595
8 2583 2511 2582 2648 2513 2434 2512 2585
8 2583 2511 2439 2516 2648 2582 2517 2589
8 2649 2583 2513 2586 2588 2516 2438 2515
8 2589 2517 2444 2520 2653 2587 2521 2592
8 2518 2442 2520 2591 2588 2516 2589 2654
8 2593 2522 2590 2655 2523 2445 2521 2592
8 2524 2446 2523 2594 2591 2520 2592 2656
8 2595 2525 2593 2657 2527 2452 2523 2594
8 2602 2536 2596 2659 2534 2462 2528 2597
8 2600 2534 2597 2660 2532 2460 2529 2598
8 2600 2534 2460 2532 2661 2601 2533 2599
8 2604 2538 2601 2661 2537 2464 2533 2599
8 2602 2536 2462 2534 2663 2603 2535 2601
8 2601 2535 2465 2538 2663 2603 2539 2605
8 2607 2541 2605 2665 2540 2467 2538 2604
8 2608 2542 2606 2666 2541 2468 2539 2605
8 2543 2470 2544 2610 2607 2541 2608 2668
8 2544 2471 2545 2611 2608 2542 2609 2669
8 2546 2473 2547 2613 2610 2544 2611 2671
8 2547 2474 2548 2614 2611 2545 2612 2672
8 2549 2476 2550 2616 2613 2547 2614 2674
8 2550 2477 2551 2617 2614 2548 2615 2675
8 2552 2479 2553 2619 2616 2550 2617 2677
8 2553 2480 2554 2620 2617 2551 2618 2678
8 2557 2482 2556 2624 2619 2553 2620 2680
8 2556 2481 2555 2623 2620 2554 2621 2681
8 2559 2484 2558 2625 2623 2555 2622 2683
8 2560 2485 2559 2626 2624 2556 2623 2684
8 2562 2488 2561 2627 2626 2559 2625 2685
8 2690 2629 2564 2630 2650 2584 2512 2585
8 2586 2513 2585 2651 2632 2565 2630 2691
8 2630 2564 2631 2692 2565 2493 2566 2633
8 2632 2565 2633 2694 2567 2494 2568 2635
8 2633 2566 2634 2695 2568 2495 2569 2636
8 2635 2568 2636 2697 2570 2497 2571 2638
8 2636 2569 2637 2698 2571 2498 2572 2639
8 2638 2571 2639 2700 2573 2500 2574 2641
8 2639 2572 2640 2701 2574 2501 2575 2642
8 2641 2574 2642 2702 2576 2503 2577 2643
8 2597 2528 2596 2659 2645 2579 2644 2704
8 2645 2579 2644 2704 2593 2522 2590 2655
8 2660 2597 2645 2705 2598 2529 2580 2646
8 2646 2580 2645 2705 2595 2525 2593 2657
8 2650 2584 2512 2585 2707 2647 2582 2648
8 2648 2582 2517 2589 2707 2647 2587 2653
8 2649 2583 2648 2708 2586 2513 2585 2651
8 2649 2583 2516 2588 2708 2648 2589 2654
8 2655 2590 2652 2710 2592 2521 2587 2653
8 2654 2589 2520 2591 2711 2653 2592 2656
8 2657 2593 2655 2712 2594 2523 2592 2656
8 2602 2536 2603 2663 2659 2596 2658 2714
8 2662 2602 2659 2715 2600 2534 2597 2660
8 2662 2602 2534 2600 2717 2663 2601 2661
8 2661 2601 2538 2604 2717 2663 2605 2665
8 2666 2606 2664 2718 2605 2539 2603 2663
8 2668 2608 2666 2720 2607 2541 2605 2665
8 2608 2542 2609 2669 2666 2606 2667 2721
8 2610 2544 2611 2671 2668 2608 2669 2723
8 2611 2545 2612 2672 2669 2609 2670 2724
8 2613 2547 2614 2674 2671 2611 2672 2726
8 2614 2548 2615 2675 2672 2612 2673 2727
8 2616 2550 2617 2677 2674 2614 2675 2729
8 2617 2551 2618 2678 2675 2615 2676 2730
8 2619 2553 2620 2680 2677 2617 2678 2732
8 2620 2554 2621 2681 2678 2618 2679 2733
8 2624 2556 2623 2684 2680 2620 2681 2735
8 2681 2621 2555 2623 2736 2682 2622 2683
8 2626 2559 2625 2685 2684 2623 2683 2737
8 2688 2628 2584 2650 2740 2686 2647 2707
8 2688 2628 2687 2742 2650 2584 2629 2690
8 2690 2629 2689 2745 2630 2564 2631 2692
8 2746 2690 2630 2691 2709 2650 2585 2651
8 2691 2630 2692 2747 2632 2565 2633 2694
8 2692 2631 2693 2748 2633 2566 2634 2695
8 2694 2633 2695 2750 2635 2568 2636 2697
8 2695 2634 2696 2751 2636 2569 2637 2698
8 2697 2636 2698 2753 2638 2571 2639 2700
8 2698 2637 2699 2754 2639 2572 2640 2701
8 2700 2639 2701 2755 2641 2574 2642 2702
8 2659 2596 2658 2714 2704 2644 2703 2757
8 2704 2644 2703 2757 2655 2590 2652 2710
8 2660 2597 2659 2715 2705 2645 2704 2758
8 2705 2645 2704 2758 2657 2593 2655 2712
8 2759 2706 2647 2707 2710 2652 2587 2653
8 2709 2650 2585 2651 2760 2707 2648 2708
8 2708 2648 2589 2654 2760 2707 2653 2711
8 2712 2655 2710 2761 2656 2592 2653 2711
8 2763 2713 2658 2714 2718 2664 2603 2663
8 2662 2602 2663 2717 2715 2659 2714 2764
8 2720 2666 2718 2767 2665 2605 2663 2717
8 2768 2719 2664 2718 2721 2667 2606 2666
8 2668 2608 2669 2723 2720 2666 2721 2770
8 2669 2609 2670 2724 2721 2667 2722 2771
8 2671 2611 2672 2726 2723 2669 2724 2773
8 2672 2612 2673 2727 2724 2670 2725 2774
8 2674 2614 2675 2729 2726 2672 2727 2776
8 2675 2615 2676 2730 2727 2673 2728 2777
8 2677 2617 2678 2732 2729 2675 2730 2779
8 2678 2618 2679 2733 2730 2676 2731 2780
8 2680 2620 2681 2735 2732 2678 2733 2782
8 2733 2679 2621 2681 2783 2734 2682 2736
8 2735 2681 2623 2684 2784 2736 2683 2737
8 2740 2686 2647 2707 2787 2738 2706 2759
8 2688 2628 2686 2740 2742 2687 2739 2789
8 2743 2688 2650 2709 2790 2740 2707 2760
8 2742 2687 2741 2792 2690 2629 2689 2745
8 2743 2688 2742 2793 2709 2650 2690 2746
8 2745 2689 2744 2795 2692 2631 2693 2748
8 2746 2690 2745 2796 2691 2630 2692 2747
8 2747 2692 2748 2797 2694 2633 2695 2750
8 2748 2693 2749 2798 2695 2634 2696 2751
8 2750 2695 2751 2800 2697 2636 2698 2753
8 2751 2696 2752 2801 2698 2637 2699 2754
8 2753 2698 2754 2802 2700 2639 2701 2755
8 2763 2713 2756 2804 2714 2658 2703 2757
8 2759 2706 2652 2710 2804 2756 2703 2757
8 2715 2659 2714 2764 2758 2704 2757 2805
8 2758 2704 2757 2805 2712 2655 2710 2761
8 2806 2759 2707 2760 2761 2710 2653 2711
8 2765 2716 2762 2808 2718 2664 2713 2763
8 2809 2763 2714 2764 2767 2718 2663 2717
8 2765 2716 2664 2718 2811 2766 2719 2768
8 2813 2768 2718 2767 2770 2721 2666 2720
8 2814 2769 2719 2768 2771 2722 2667 2721
8 2723 2669 2724 2773 2770 2721 2771 2816
8 2724 2670 2725 2774 2771 2722 2772 2817
8 2726 2672 2727 2776 2773 2724 2774 2819
8 2727 2673 2728 2777 2774 2725 2775 2820
8 2729 2675 2730 2779 2776 2727 2777 2822
8 2730 2676 2731 2780 2777 2728 2778 2823
8 2732 2678 2733 2782 2779 2730 2780 2825
8 2780 2731 2679 2733 2826 2781 2734 2783
8 2782 2733 2681 2735 2827 2783 2736 2784
8 2830 2785 2738 2787 2804 2756 2706 2759
8 2789 2739 2686 2740 2832 2786 2738 2787
8 2790 2740 2707 2760 2833 2787 2759 2806
8 2742 2687 2739 2789 2792 2741 2788 2835
8 2743 2688 2740 2790 2793 2742 2789 2836
8 2792 2741 2791 2838 2745 2689 2744 2795
8 2793 2742 2792 2839 2746 2690 2745 2796
8 2795 2744 2794 2841 2748 2693 2749 2798
8 2796 2745 2795 2842 2747 2692 2748 2797
8 2797 2748 2798 2843 2750 2695 2751 2800
8 2798 2749 2799 2844 2751 2696 2752 2801
8 2800 2751 2801 2845 2753 2698 2754 2802
8 2808 2762 2803 2847 2763 2713 2756 2804
8 2809 2763 2804 2848 2764 2714 2757 2805
8 2806 2759 2710 2761 2848 2804 2757 2805
8 2765 2716 2766 2811 2808 2762 2807 2850
8 2810 2765 2808 2851 2767 2718 2763 2809
8 2810 2765 2718 2767 2852 2811 2768 2813
8 2811 2766 2719 2768 2853 2812 2769 2814
8 2855 2814 2768 2813 2816 2771 2721 2770
8 2856 2815 2769 2814 2817 2772 2722 2771
8 2773 2724 2774 2819 2816 2771 2817 2858
8 2774 2725 2775 2820 2817 2772 2818 2859
8 2776 2727 2777 2822 2819 2774 2820 2861
8 2777 2728 2778 2823 2820 2775 2821 2862
8 2779 2730 2780 2825 2822 2777 2823 2864
8 2823 2778 2731 2780 2865 2824 2781 2826
8 2825 2780 2733 2782 2866 2826 2783 2827
8 2869 2828 2785 2830 2847 2803 2756 2804
8 2871 2829 2786 2832 2830 2785 2738 2787
8 2872 2830 2787 2833 2848 2804 2759 2806
8 2789 2739 2786 2832 2835 2788 2831 2874
8 2836 2789 2740 2790 2875 2832 2787 2833
8 2792 2741 2788 2835 2838 2791 2834 2877
8 2793 2742 2789 2836 2839 2792 2835 2878
8 2838 2791 2837 2880 2795 2744 2794 2841
8 2839 2792 2838 2881 2796 2745 2795 2842
8 2841 2794 2840 2882 2798 2749 2799 2844
8 2842 2795 2841 2883 2797 2748 2798 2843
8 2843 2798 2844 2884 2800 2751 2801 2845
8 2886 2846 2803 2847 2850 2807 2762 2808
8 2851 2808 2847 2887 2809 2763 2804 2848
8 2850 2807 2766 2811 2889 2849 2812 2853
8 2810 2765 2811 2852 2851 2808 2850 2890
8 2852 2811 2768 2813 2891 2853 2814 2855
8 2853 2812 2769 2814 2892 2854 2815 2856
8 2894 2856 2814 2855 2858 2817 2771 2816
8 2817 2772 2818 2859 2856 2815 2857 2895
8 2819 2774 2820 2861 2858 2817 2859 2897
8 2820 2775 2821 2862 2859 2818 2860 2898
8 2822 2777 2823 2864 2861 2820 2862 2900
8 2823 2778 2824 2865 2862 2821 2863 2901
8 2864 2823 2780 2825 2902 2865 2826 2866
8 2904 2867 2828 2869 2886 2846 2803 2847
8 2869 2828 2868 2906 2830 2785 2829 2871
8 2907 2869 2830 2872 2887 2847 2804 2848
8 2871 2829 2870 2909 2832 2786 2831 2874
8 2910 2871 2832 2875 2872 2830 2787 2833
8 2835 2788 2831 2874 2877 2834 2873 2912
8 2836 2789 2832 2875 2878 2835 2874 2913
8 2877 2834 2876 2915 2838 2791 2837 2880
8 2839 2792 2835 2878 2881 2838 2877 2916
8 2880 2837 2879 2917 2841 2794 2840 2882
8 2881 2838 2880 2918 2842 2795 2841 2883
8 2883 2841 2882 2919 2843 2798 2844 2884
8 2921 2885 2846 2886 2889 2849 2807 2850
8 2922 2886 2847 2887 2890 2850 2808 2851
8 2889 2849 2812 2853 2924 2888 2854 2892
8 2890 2850 2811 2852 2925 2889 2853 2891
8 2891 2853 2814 2855 2926 2892 2856 2894
8 2892 2854 2815 2856 2927 2893 2857 2895
8 2858 2817 2859 2897 2894 2856 2895 2929
8 2859 2818 2860 2898 2895 2857 2896 2930
8 2861 2820 2862 2900 2897 2859 2898 2932
8 2862 2821 2863 2901 2898 2860 2899 2933
8 2864 2823 2865 2902 2900 2862 2901 2934
8 2904 2867 2846 2886 2936 2903 2885 2921
8 2904 2867 2903 2936 2869 2828 2868 2906
8 2937 2904 2869 2907 2922 2886 2847 2887
8 2906 2868 2905 2939 2871 2829 2870 2909
8 2907 2869 2906 2940 2872 2830 2871 2910
8 2909 2870 2908 2942 2874 2831 2873 2912
8 2910 2871 2909 2943 2875 2832 2874 2913
8 2912 2873 2911 2945 2877 2834 2876 2915
8 2878 2835 2874 2913 2916 2877 2912 2946
8 2915 2876 2914 2947 2880 2837 2879 2917
8 2916 2877 2915 2948 2881 2838 2880 2918
8 2918 2880 2917 2949 2883 2841 2882 2919
8 2921 2885 2849 2889 2951 2920 2888 2924
8 2952 2921 2886 2922 2925 2889 2850 2890
8 2924 2888 2854 2892 2954 2923 2893 2927
8 2925 2889 2853 2891 2955 2924 2892 2926
8 2926 2892 2856 2894 2956 2927 2895 2929
8 2895 2857 2896 2930 2927 2893 2928 2957
8 2897 2859 2898 2932 2929 2895 2930 2959
8 2898 2860 2899 2933 2930 2896 2931 2960
8 2900 2862 2901 2934 2932 2898 2933 2961
8 2936 2903 2885 2921 2963 2935 2920 2951
8 2936 2903 2935 2963 2906 2868 2905 2939
8 2937 2904 2886 2922 2964 2936 2921 2952
8 2937 2904 2936 2964 2907 2869 2906 2940
8 2939 2905 2938 2966 2909 2870 2908 2942
8 2940 2906 2939 2967 2910 2871 2909 2943
8 2942 2908 2941 2969 2912 2873 2911 2945
8 2943 2909 2942 2970 2913 2874 2912 2946
8 2945 2911 2944 2971 2915 2876 2914 2947
8 2946 2912 2945 2972 2916 2877 2915 2948
8 2948 2915 2947 2973 2918 2880 2917 2949
8 2951 2920 2888 2924 2975 2950 2923 2954
8 2952 2921 2889 2925 2976 2951 2924 2955
8 2927 2893 2928 2957 2954 2923 2953 2978
8 2955 2924 2892 2926 2979 2954 2927 2956
8 2929 2895 2930 2959 2956 2927 2957 2980
8 2930 2896 2931 2960 2957 2928 2958 2981
8 2932 2898 2933 2961 2959 2930 2960 2982
8 2951 2920 2950 2975 2963 2935 2962 2984
8 2963 2935 2962 2984 2939 2905 2938 2966
8 2964 2936 2921 2952 2985 2963 2951 2976
8 2964 2936 2963 2985 2940 2906 2939 2967
8 2966 2938 2965 2987 2942 2908 2941 2969
8 2967 2939 2966 2988 2943 2909 2942 2970
8 2969 2941 2968 2989 2945 2911 2944 2971
8 2970 2942 2969 2990 2946 2912 2945 2972
8 2972 2945 2971 2991 2948 2915 2947 2973
8 2954 2923 2953 2978 2975 2950 2974 2993
8 2976 2951 2924 2955 2994 2975 2954 2979
8 2957 2928 2958 2981 2978 2953 2977 2995
8 2956 2927 2957 2980 2979 2954 2978 2996
8 2959 2930 2960 2982 2980 2957 2981 2997
8 2984 2962 2983 2999 2966 2938 2965 2987
8 2975 2950 2974 2993 2984 2962 2983 2999
8 2976 2951 2975 2994 2985 2963 2984 3000
8 2985 2963 2984 3000 2967 2939 2966 2988
8 2987 2965 2986 3001 2969 2941 2968 2989
8 2988 2966 2987 3002 2970 2942 2969 2990
8 2990 2969 2989 3003 2972 2945 2971 2991
8 2978 2953 2977 2995 2993 2974 2992 3004
8 2979 2954 2978 2996 2994 2975 2993 3005
8 2980 2957 2981 2997 2996 2978 2995 3006
8 2974 2993 2999 2983 2992 3004 3007 2998
8 2983 2999 2987 2965 2998 3007 3001 2986
8 3000 2984 2999 3008 2988 2966 2987 3002
8 2994 2975 2993 3005 3000 2984 2999 3008
8 3002 2987 3001 3009 2990 2969 2989 3003
8 2996 2978 2995 3006 3005 2993 3004 3010
8 3005 2993 3004 3010 3008 2999 3007 3011
8 3008 2999 3007 3011 3002 2987 3001 3009

CELL_TYPES 1910
12
12
12
12
12
12
12
12
12
12
12
12
12
12
12
12
12
12
12
12
12
12
12
12
12
12
12
12
12
12
12
12
12
12
12
12
12
12
12
12
12
12
12
12
12
12
12
12
12
12
12
12
12
12
12
12
12
12
12
12
12
12
12
12
12
12
12
12
12
12
12
12
12
12
12
12
12
12
12
12
12
12
12
12
12
12
12
12
12
12
12
12
12
12
12
12
12
12
12
12
12
12
12
12
12
12
12
12
12
12
12
12
12
12
12
12
12
12
12
12
12
12
12
12
12
12
12
12
12
12
12
12
12
12
12
12
12
12
12
12
12
12
12
12
12
12
12
12
12
12
12
12
12
12
12
12
12
12
12
12
12
12
12
12
12
12
12
12
12
12
12
12
12
12
12
12
12
12
12
12
12
12
12
12
12
12
12
12
12
12
12
12
12
12
12
12
12
12
12
12
12
12
12
12
12
12
12
12
12
12
12
12
12
12
12
12
12
12
12
12
12
12
12
12
12
12
12
12
12
12
12
12
12
12
12
12
12
12
12
12
12
12
12
12
12
12
12
12
12
12
12
12
12
12
12
12
12
12
12
12
12
12
12
12
12
12
12
12
12
12
12
12
12
12
12
12
12
12
12
12
12
12
12
12
12
12
12
12
12
12
12
12
12
12
12
12
12
12
12
12
12
12
12
12
12
12
12
12
12
12
12
12
12
12
12
12
12
12
12
12
12
12
12
12
12
12
12
12
12
12
12
12
12
12
12
12
12
12
12
12
12
12
12
12
12
12
12
12
12
12
12
12
12
12
12
12
12
12
12
12
12
12
12
12
12
12
12
12
12
12
12
12
12
12
12
12
12
12
12
12
12
12
12
12
12
12
12
12
12
12
12
12
12
12
12
12
12
12
12
12
12
12
12
12
12
12
12
12
12
12
12
12
12
12
12
12
12
12
12
12
12
12
12
12
12
12
12
12
12
12
12
12
12
12
12
12
12
12
12
12
12
12
12
12
12
12
12
12
12
12
12
12
12
12
12
12
12
12
12
12
12
12
12
12
12
12
12
12
12
12
12
12
12
12
12
12
12
12
12
12
12
12
12
12
12
12
12
12
12
12
12
12
12
12
12
12
12
12
12
12
12
12
12
12
12
12
12
12
12
12
12
12
12
12
12
12
12
12
12
12
12
12
12
12
12
12
12
12
12
12
12
12
12
12
12
12
12
12
12
12
12
12
12
12
12
12
12
12
12
12
12
12
12
12
12
12
12
12
12
12
12
12
12
12
12
12
12
12
12
12
12
12
12
12
12
12
12
12
12
12
12
12
12
12
12
12
12
12
12
12
12
12
12
12
12
12
12
12
12
12
12
12
12
12
12
12
12
12
12
12
12
12
12
12
12
12
12
12
12
12
12
12
12
12
12
12
12
12
12
12
12
12
12
12
12
12
12
12
12
12
12
12
12
12
12
12
12
12
12
12
12
12
12
12
12
12
12
12
12
12
12
12
12
12
12
12
12
12
12
12
12
12
12
12
12
12
12
12
12
12
12
12
12
12
12
12
12
12
12
12
12
12
12
12
12
12
12
12
12
12
12
12
12
12
12
12
12
12
12
12
12
12
12
12
12
12
12
12
12
12
12
12
12
12
12
12
12
12
12
12
12
12
12
12
12
12
12
12
12
12
12
12
12
12
12
12
12
12
12
12
12
12
12
12
12
12
12
12
12
12
12
12
12
12
12
12
12
12
12
12
12
12
12
12
12
12
12
12
12
12
12
12
12
12
12
12
12
12
12
12
12
12
12
12
12
12
12
12
12
12
12
12
12
12
12
12
12
12
12
12
12
12
12
12
12
12
12
12
12
12
12
12
12
12
12
12
12
12
12
12
12
12
12
12
12
12
12
12
12
12
12
12
12
12
12
12
12
12
12
12
12
12
12
12
12
12
12
12
12
12
12
12
12
12
12
12
12
12
12
12
12
12
12
12
12
12
12
12
12
12
12
12
12
12
12
12
12
12
12
12
12
12
12
12
12
12
12
12
12
12
12
12
12
12
12
12
12
12
12
12
12
12
12
12
12
12
12
12
12
12
12
12
12
12
12
12
12
12
12
12
12
12
12
12
12
12
12
12
12
12
12
12
12
12
12
12
12
12
12
12
12
12
12
12
12
12
12
12
12
12
12
12
12
12
12
12
12
12
12
12
12
12
12
12
12
12
12
12
12
12
12
12
12
12
12
12
12
12
12
12
12
12
12
12
12
12
12
12
12
12
12
12
12
12
12
12
12
12
12
12
12
12
12
12
12
12
12
12
12
12
12
12
12
12
12
12
12
12
12
12
12
12
12
12
12
12
12
12
12
12
12
12
12
12
12
12
12
12
12
12
12
12
12
12
12
12
12
12
12
12
12
12
12
12
12
12
12
12
12
12
12
12
12
12
12
12
12
12
12
12
12
12
12
12
12
12
12
12
12
12
12
12
12
12
12
12
12
12
12
12
12
12
12
12
12
12
12
12
12
12
12
12
12
12
12
12
12
12
12
12
12
12
12
12
12
12
12
12
12
12
12
12
12
12
12
12
12
12
12
12
12
12
12
12
12
12
12
12
12
12
12
12
12
12
12
12
12
12
12
12
12
12
12
12
12
12
12
12
12
12
12
12
12
12
12
12
12
12
12
12
12
12
12
12
12
12
12
12
12
12
12
12
12
12
12
12
12
12
12
12
12
12
12
12
12
12
12
12
12
12
12
12
12
12
12
12
12
12
12
12
12
12
12
12
12
12
12
12
12
12
12
12
12
12
12
12
12
12
12
12
12
12
12
12
12
12
12
12
12
12
12
12
12
12
12
12
12
12
12
12
12
12
12
12
12
12
12
12
12
12
12
12
12
12
12
12
12
12
12
12
12
12
12
12
12
12
12
12
12
12
12
12
12
12
12
12
12
12
12
12
12
12
12
12
12
12
12
12
12
12
12
12
12
12
12
12
12
12
12
12
12
12
12
12
12
12
12
12
12
12
12
12
12
12
12
12
12
12
12
12
12
12
12
12
12
12
12
12
12
12
12
12
12
12
12
12
12
12
12
12
12
12
12
12
12
12
12
12
12
12
12
12
12
12
12
12
12
12
12
12
12
12
12
12
12
12
12
12
12
12
12
12
12
12
12
12
12
12
12
12
12
12
12
12
12
12
12
12
12
12
12
12
12
12
12
12
12
12
12
12
12
12
12
12
12
12
12
12
12
12
12
12
12
12
12
12
12
12
12
12
12
12
12
12
12
12
12
12
12
12
12
12
12
12
12
12
12
12
12
12
12
12
12
12
12
12
12
12
12
12
12
12
12
12
12
12
12
12
12
12
12
12
12
12
12
12
12
12
12
12
12
12
12
12
12
12
12
12
12
12
12
12
12
12
12
12
12
12
12
12
12
12
12
12
12
12
12
12
12
12
12
12
12
12
12
12
12
12
12
12
12
12
12
12
12
12
12
12
12
12
12
12
12
12
12
12
12
12
12
12
12
12
12
12
12
12
12
12
12
12
12
12
12
12
12
12
12
12
12
12
12
12
12
12
12
12
12
12
12
12
12
12
12
12
12
12
12
12
12
12
12
12
12
12
12
12
12
12
12
12
12
12
12
12
12
12
12
12
12
12
12
12
12
12
12
12
12
12
12
12
12
12
12
12
12
12
12
12
12
12
12
12
12
12
12
12
12
12
12
12
12
12
12
12
12
12
12
12
12
12
12
12
12
12
12
12
12
12
12
12
12
12
12
12
12
12
12
12
12
12
12
12
12
12
12
12
12
12
12
12
12
12
12
12
12
12
12
12
12
12
12
12
12
12
12
12
12
12
12
12
12
12
12
12
12
12
12
12
12
12
12
12
12
12
12
12
12
12
12
12
12
12
12
12
12
12
12
12
12
12
12
12
12
12
12
12
12
12
12
12
12
12
12
12
12
12
12
12
12
12
12
12
12
12
12
12
12
12
12
12
12
12
12
12
12
12
12
12
12
12
12
12
12
12
12
12
12
12
12
12
12
12
12
12
12
12
12
12
12
12
12
12
12
12
12
12
12
12
12
12
12
12
12
12
12
12
12
12
12
12
12
12
12
12
12
12
12
12
12
12
12
12
12
12
12
12
12
12
12
12
12
12
12
12
12
12
12
12
12
12
12
12
12
12
12
12
12
12
12
12
12
12
12
12
12
12
12
12
12
12
12
12
12
12
12
12
12
12
12
12
12
12
12
12
12
12
12
12
12
12
12
12
12
12
12
12
12
12
12
12
12
12
12
12
12
12
12
12
12
12
12
12
12
12
12
12
12
12
12
12

POINT_DATA 3012
SCALARS Jp_lamdaP float 4
LOOKUP_TABLE default
0.99933 1 1 0.99933
1 1 1 1
0.999351 1 1 0.999351
0.999275 1 1 0.999275
0.999333 1 1 0.999333
0.999296 1 1 0.999296
1.01934 1.02128 1 0.998105
1 1 1 1
1 1 1 1
1 1 1 1
0.999357 1 1 0.999357
1.01511 1.01711 1 0.998036
0.99935 1 1 0.99935
0.99932 1 1 0.99932
0.999361 1 1 0.999361
0.999318 1 1 0.999318
0.99931 1 1 0.99931
0.999365 1 1 0.999365
1.01918 1.02112 1 0.998099
1 1 1 1
0.999271 1 1 0.999271
0.999307 1 1 0.999307
1.01147 1.01346 1 0.998038
1.01662 1.01855 1 0.998109
0.999278 1 1 0.999278
1.02036 1.02233 1 0.998072
1.0536 1.05749 1 0.996319
1 1 1 1
0.999672 1 1 0.999672
0.999682 1 1 0.999682
1 1 1 1
1.01285 1.01484 1 0.998043
0.999335 1 1 0.999335
0.999362 1 1 0.999362
1.01754 1.01922 1 0.998347
1 1 1 1
1.01909 1.02073 1 0.998392
1.0072 1.00902 1.00013 0.998069
1.03852 1.04254 1 0.996142
1 1 1 1
1 1 1 1
0.999664 1 1 0.999664
1 1 1 1
0.999348 1 1 0.999348
1.00261 1.00467 1 0.997953
1 1 1 1
1.0086 1.01034 1 0.998277
0.999355 1 1 0.999355
0.999389 1 1 0.999389
0.999315 1 1 0.999315
1.01911 1.02105 1 0.998099
0.999648 1 1 0.999648
0.999309 1 1 0.999309
0.999292 1 1 0.999292
0.999347 1 1 0.999347
1.0112 1.0132 1 0.998026
1.02029 1.02227 1 0.998069
1.01642 1.01835 1 0.998102
1.05439 1.05829 1 0.996315
1 1 1 1
0.999297 1 1 0.999297
1.00361 1.00523 1 0.998388
1.00862 1.01061 1 0.998033
1.01386 1.01582 1 0.998076
1.05215 1.05613 1 0.996232
1.05423 1.05816 1 0.996284
0.999289 1 1 0.999289
1.01092 1.01285 1 0.998093
1.05257 1.05646 1 0.996319
1.07325 1.07805 1 0.995551
1 1 1 1
1 1 1 1
1 1 1 1
1.01071 1.01268 1 0.99805
1 1 1 1
1 1 1 1
1.01765 1.01969 1 0.997999
0.999732 1 1 0.999732
1.01817 1.02015 1 0.998063
1.0055 1.00675 1.00045 0.998311
1.04224 1.04629 1 0.996136
1 1 1 1
1.00435 1 1.00517 0.999191
1.01521 1.01733 1 0.997914
1.01855 1.02058 1 0.998014
1.05937 1.0637 1 0.995925
1.00252 1.00228 1.00151 0.998733
1.05129 1.05539 1 0.996115
1.03137 1.03458 1.00062 0.996286
1.06715 1.07204 1 0.995435
1 1 1 1
1 1 1 1
1 1 1 1
1 1 1 1
1 1 1 1
0.999676 1 1 0.999676
1.00342 1.00527 1 0.998159
0.999659 1 1 0.999659
1.00975 1.01167 1 0.998104
1 1 1 1
1.00157 1.00356 1 0.99801
1.00524 1.00695 1 0.998304
1.05081 1.05504 1 0.995987
1.0127 1.01443 1 0.998302
1.05787 1.06218 1 0.995949
0.999374 1 1 0.999374
0.999343 1 1 0.999343
0.9993 1 1 0.9993
0.999382 1 1 0.999382
1.01092 1.01293 1 0.998016
1.01622 1.01816 1 0.998099
1.01987 1.02184 1 0.99807
1.05553 1.05944 1 0.996311
1 1 1 1
0.999332 1 1 0.999332
1.00313 1.00508 1 0.998063
1.00829 1.0103 1 0.998018
0.999652 1 1 0.999652
1.01268 1.01441 1.00009 0.99821
1.01364 1.0156 1 0.998068
1.05262 1.0566 1 0.996232
1.05233 1.05622 1 0.996314
1.05513 1.05906 1 0.996289
1.07251 1.07729 1 0.995561
1.00237 1.00435 1 0.998032
1.00572 1.00767 1 0.998066
1.04763 1.05165 0.999834 0.996339
1.05005 1.05399 1 0.99626
1.05355 1.0575 1 0.996261
1.08611 1.09174 0.999022 0.995819
1 1 1 1
1.07847 1.08318 1 0.995649
1.00208 1.00316 1.00079 0.998135
1.04438 1.04843 1 0.996132
1.069 1.07388 1 0.995447
1.0754 1.08041 0.999612 0.995746
1.00256 1 1.00386 0.998702
1.01131 1.00184 1.01223 0.99725
1 1 1 1
1 1 1 1
1.01804 1.02007 1 0.998002
1 1 1 1
1.00342 1.00439 1.00087 0.998173
1.01775 1.01972 1 0.998069
1.04548 1.04954 1 0.99613
1 1 1 1
1.00489 1 1.00568 0.999215
1.01606 1.01798 1 0.998118
1.019 1.02084 1 0.998203
1.05846 1.0628 1 0.995921
1.00211 1.00153 1.00207 0.998516
1.05093 1.05503 1 0.996114
1.03174 1.03512 1.00045 0.996281
1.06637 1.07124 1 0.995454
1.00278 1.00021 1.00372 0.998861
1.00614 1 1.00669 0.999454
1.01247 1.00341 1.01137 0.997696
1.05929 1.06366 1 0.995888
1.05822 1.06245 1 0.996018
1.08282 1.08766 0.99997 0.995578
1.02353 1.02451 1.00236 0.996691
1.06722 1.07192 1 0.995616
1.0553 1.05944 1.00069 0.995408
1.07567 1.08055 1 0.99548
1 1 1 1
1 1 1 1
1 1 1 1
1.00388 1 1.00493 0.998962
1 1 1 1
1 1 1 1
1 1 1 1
1.0107 1.01279 1 0.997939
1.00383 1.00585 1 0.997998
1 1 1 1
1 1 1 1
1.00178 1.00377 1 0.998011
1.006 1.00788 1 0.998135
1.05035 1.05458 1 0.995988
1.01319 1.0153 1 0.997925
1.05594 1.06024 1 0.995947
1.00154 1.00353 1 0.998018
1.04817 1.0524 1 0.995973
1.05419 1.05844 1 0.995986
1.08542 1.09277 0.997245 0.996017
1.05904 1.0634 1 0.995904
1.08537 1.09207 0.997927 0.995932
1 1 1 1
0.999368 1 1 0.999368
1.0026 1.00492 1 0.997696
1.00799 1.01 1 0.998004
1 1 1 1
1.0146 1.0163 1 0.998331
1.01342 1.01539 1 0.998062
1.05303 1.05701 1 0.996232
1.05613 1.06006 1 0.996294
1.05144 1.05533 1 0.996311
1.07113 1.07589 1 0.995572
1.00207 1.00405 1 0.99803
1.00547 1.00743 1 0.998051
1.04817 1.05241 0.999782 0.996185
1.05105 1.05502 1 0.996244
1 1 1 1
1.00488 1.00621 1.00039 0.998291
1.04146 1.04513 1.00023 0.996259
1.05407 1.05803 1 0.996251
1.08435 1.09069 0.998321 0.995856
1.06866 1.07354 1 0.995451
1.07856 1.08325 1 0.995671
1.07502 1.08007 0.999571 0.995755
1.00219 1.00013 1.00338 0.998688
1.01082 1.00338 1.01019 0.997245
1.04692 1.05113 1 0.995988
1.04916 1.05326 0.9998 0.996311
1.085 1.09142 0.998137 0.995974
1.08498 1.09208 0.997553 0.995933
1.0812 1.08755 0.99836 0.995802
1.07854 1.09005 0.99326 0.996153
1.00131 1.0007 1.00221 0.998407
1.07638 1.08351 0.99744 0.995972
1.03357 1.03694 1.00042 0.996325
1.06705 1.07203 1 0.995361
1.07545 1.08032 1 0.995484
1.07114 1.07971 0.995921 0.996121
1.01109 1.00818 1.00606 0.996852
1.01057 1.00018 1.01268 0.997741
1.01397 1.01066 1.0069 0.996405
1.01651 1.01859 1 0.997954
1 1 1 1
1.00493 1 1.00569 0.999239
1.01898 1.02097 1 0.998053
1.05773 1.06207 1 0.995917
1.00191 1.00088 1.00252 0.998514
1.03331 1.0369 1.00026 0.996277
1.05018 1.05427 1 0.996113
1.06691 1.07176 1 0.995473
1.00312 1.00015 1.00408 0.998887
1.00541 1 1.00594 0.999472
1.0108 1.00173 1.01138 0.997697
1.05828 1.06266 1 0.995882
1.05665 1.06088 1 0.996018
1.08267 1.08751 0.999983 0.995573
1.0194 1.02082 1.00193 0.996692
1.06857 1.07329 1 0.995607
1.05977 1.06403 1.00061 0.995393
1.07612 1.08097 1 0.995509
1.00457 1 1.00493 0.999635
1.01434 1.01066 1.00649 0.997174
1.01335 1.00033 1.01488 0.998168
1.0142 1.01103 1.00608 0.997068
1.08492 1.09045 0.99926 0.99567
1.07578 1.08056 1 0.995573
1.07934 1.08717 0.99702 0.995771
1.03655 1.03748 1.0034 0.995717
1.07095 1.07557 0.999903 0.995801
1.06507 1.06846 1.00158 0.995264
1.08899 1.09383 1 0.995583
1.00165 1 1.00247 0.999187
1.00021 1 1.00038 0.999832
1 1 1 1
1 1 1 1
1 1 1 1
1.00438 1 1.00513 0.999254
1 1 1 1
1.00412 1 1.00518 0.99894
1 1 1 1
1.01424 1.01635 1 0.997926
1.00688 1.00893 1 0.997972
1.05447 1.05877 1 0.995945
1.04994 1.05417 1 0.99599
1.00203 1.00403 1 0.998013
1 1 1 1
1.00151 1.0035 1 0.998018
1.04817 1.05241 1 0.995974
1.05334 1.05759 1 0.995986
1.08533 1.09265 0.997279 0.996016
1.05774 1.0621 1 0.995898
1.08677 1.0934 0.997993 0.99593
1.0468 1.05103 1 0.995974
1.08516 1.09241 0.997357 0.995998
1.08586 1.09285 0.997596 0.996001
1.07346 1.08597 0.992064 0.99639
1.08525 1.09164 0.998329 0.99581
1.07712 1.09026 0.991666 0.996255
1.00185 1.00383 1 0.998029
1.00522 1.00719 1 0.998036
1.0487 1.0532 0.999699 0.996032
1.0521 1.05609 1 0.996229
1 1 1 1
1.00762 1.00896 1.00022 0.998453
1.03913 1.0426 1.00028 0.996383
1.05457 1.05855 1 0.996241
1.0827 1.08978 0.997599 0.995893
1.07852 1.08318 1 0.995693
1.06965 1.07453 1 0.995455
1.07506 1.08013 0.999539 0.995763
1.00213 1.00037 1.0031 0.998674
1.01193 1.0052 1.00948 0.99724
1.04719 1.05149 0.999902 0.996006
1.04986 1.05387 0.999888 0.996304
1.0843 1.09111 0.997744 0.996003
1.08481 1.09137 0.998088 0.995893
1.0014 1.00129 1.00172 0.998394
1.03193 1.03525 1.00047 0.996326
1.06956 1.07454 1 0.995367
1.08203 1.0877 0.999011 0.995772
1.07817 1.09048 0.992474 0.996208
1.07499 1.07985 1 0.995498
1.07607 1.08331 0.997331 0.995973
1.07134 1.07998 0.995881 0.996104
1.01403 1.01127 1.0059 0.99685
1.01459 1.00948 1.0087 0.996401
1.01269 1.00038 1.01459 0.997744
1.085 1.09145 0.998117 0.995964
1.08503 1.09219 0.997449 0.995986
1.07338 1.0843 0.993586 0.996318
1.07646 1.08972 0.991555 0.996246
1.07616 1.08733 0.993564 0.996136
1.06967 1.08813 0.986478 0.996508
1.01789 1.0201 1.00126 0.996585
1.06692 1.08302 0.98878 0.996314
1.0604 1.06521 1 0.995486
1.07112 1.07633 1 0.995156
1.06992 1.07497 0.999661 0.99564
1.06237 1.07702 0.989969 0.996395
1.01585 1.00288 1.01486 0.998096
1.02404 1.02217 1.00578 0.996068
1.01388 1.00111 1.01597 0.996835
1.02247 1.01723 1.00923 0.995959
1.05736 1.06174 1 0.995876
1.00516 1 1.00567 0.99949
1.00351 1 1.0046 0.998913
1.01124 1.00064 1.01293 0.997696
1.05542 1.05964 1 0.996017
1.08243 1.08725 1 0.995567
1.0132 1.01512 1.00142 0.996695
1.06053 1.06497 1.00046 0.995377
1.06995 1.07468 1 0.995598
1.07446 1.07927 1 0.995538
1.00378 1 1.00413 0.999649
1.01107 1.00694 1.00693 0.997189
1.01436 1.00049 1.01572 0.998166
1.01236 1.00836 1.00691 0.997069
1.08515 1.09056 0.999368 0.995663
1.07643 1.08122 1 0.99557
1.07913 1.08694 0.997035 0.99577
1.03553 1.03634 1.00353 0.995714
1.06993 1.0746 0.999883 0.995768
1.06124 1.06447 1.00173 0.99525
1.08869 1.0934 1 0.995695
1.00158 1 1.00183 0.999748
1.01145 1 1.01295 0.998523
1.01917 1.01856 1.00422 0.9964
1.01736 1.00522 1.01469 0.997424
1.01193 1.01134 1.00373 0.99686
1.07867 1.0908 0.992931 0.995914
1.07542 1.08064 0.999426 0.995744
1.06993 1.0833 0.991666 0.995964
1.03183 1.03371 1.00283 0.995366
1.07506 1.08083 0.998761 0.995896
1.05161 1.05576 1.00086 0.99521
1.00304 1 1.00402 0.99902
1.00639 1 1.00796 0.998446
0.999623 1 1.0003 0.999327
1.00076 1 1.00158 0.999189
0.999899 1 1 0.999899
1.00009 1 1.00024 0.999845
0.999993 1 1 0.999993
1 1 1 1
1 1 1 1
1.00251 1 1.00297 0.999542
1 1 1 1
1.0045 1 1.00527 0.99923
1 1 1 1
1.00364 1 1.00473 0.998918
1 1 1 1
1.05613 1.06049 1 0.995892
1.05221 1.05645 1 0.995986
1.08777 1.09431 0.998093 0.995927
1.08518 1.09245 0.997318 0.996014
1.04813 1.05236 1 0.995976
1.00138 1.00337 1 0.998017
1.04699 1.05122 1 0.995974
1.0849 1.09216 0.997344 0.995998
1.08593 1.09297 0.997555 0.995999
1.07295 1.08612 0.991437 0.996406
1.08615 1.09239 0.998476 0.995805
1.0768 1.08982 0.991764 0.996255
1.08473 1.09174 0.997584 0.995986
1.07249 1.08578 0.991317 0.996414
1.07526 1.08742 0.992435 0.996349
1.07419 1.09097 0.987974 0.996604
1.07662 1.09116 0.990538 0.996101
1.07406 1.09457 0.984634 0.996573
1.04731 1.05171 0.999793 0.996024
1.0506 1.05451 1 0.996298
1.08365 1.09081 0.997398 0.996033
1.08453 1.09056 0.998617 0.995854
1.00162 1.002 1.00124 0.998381
1.03117 1.03425 1.0007 0.996329
1.07254 1.07752 1 0.995374
1.08287 1.08784 0.999684 0.995742
1.07774 1.09083 0.991707 0.996263
1.07569 1.08306 0.997209 0.995975
1.07418 1.07902 1 0.995512
1.07134 1.08011 0.995778 0.996087
1.01705 1.01472 1.00547 0.996847
1.01366 1.00859 1.00866 0.996396
1.01287 1.0006 1.01455 0.997748
1.08454 1.09108 0.99802 0.99598
1.08434 1.09171 0.997258 0.995985
1.07301 1.08472 0.992817 0.996363
1.07703 1.08972 0.992102 0.99622
1.02293 1.02477 1.00162 0.996588
1.06032 1.0651 1.00002 0.995491
1.07121 1.07638 1.00003 0.995163
1.07657 1.08703 0.99427 0.996083
1.06945 1.08853 0.985864 0.996553
1.07062 1.07564 0.999739 0.995601
1.06734 1.08346 0.988767 0.996314
1.06229 1.07747 0.989437 0.996434
1.02281 1.02236 1.00439 0.996071
1.01915 1.01483 1.00839 0.995901
1.01316 1.00228 1.01278 0.998099
1.01162 1.00121 1.01353 0.996897
1.07302 1.08454 0.992984 0.996368
1.07595 1.08815 0.992474 0.996281
1.06937 1.08586 0.988247 0.996521
1.06722 1.08958 0.982836 0.996588
1.06761 1.08633 0.986255 0.99647
1.07114 1.09358 0.982705 0.996714
1.04092 1.04443 1.0009 0.995742
1.05909 1.0826 0.981555 0.996672
1.05519 1.06029 1 0.995187
1.06483 1.06993 1.00018 0.995063
1.06741 1.0743 0.997885 0.995684
1.06428 1.08134 0.987719 0.996463
1.01271 1.00347 1.0109 0.99832
1.02243 1.00914 1.01607 0.997153
1.02596 1.02732 1.00302 0.995666
1.01305 1.00508 1.01148 0.996492
1.0191 1.01202 1.01132 0.99573
1.00264 1 1.00298 0.999663
1.08537 1.09068 0.999469 0.995657
1.0136 1.0006 1.01485 0.998163
1.00851 1.00378 1.00753 0.997204
1.0097 1.00539 1.00723 0.99707
1.07702 1.08181 1 0.995567
1.07887 1.08666 0.997051 0.995769
1.0384 1.04036 1.00242 0.99571
1.06093 1.06396 1.00193 0.995236
1.06927 1.074 0.999864 0.995736
1.08927 1.09385 1 0.995806
1.00087 1 1.00111 0.999759
1.01212 1 1.01361 0.998533
1.01808 1.01796 1.00372 0.996414
1.01717 1.00436 1.01538 0.997412
1.01311 1.01194 1.00442 0.996747
1.07852 1.09068 0.99291 0.99591
1.07513 1.08038 0.999393 0.995744
1.06913 1.08266 0.991518 0.995953
1.03269 1.03473 1.00268 0.995362
1.07955 1.08531 0.998822 0.995867
1.052 1.05599 1.00096 0.995264
1.00617 1 1.00737 0.998811
1.01617 1.00182 1.01662 0.997747
1.01086 1.01335 1.00155 0.996001
1.0232 1.01311 1.01297 0.997033
1.02051 1.02057 1.00343 0.996529
1.07249 1.09166 0.986238 0.996148
1.06978 1.0773 0.997112 0.995901
1.06028 1.0776 0.987701 0.99618
1.0089 1.00979 1.00379 0.995346
1.04764 1.05268 0.999896 0.99532
1.00316 1 1.00414 0.999023
1.00613 1 1.00785 0.9983
1.00679 1 1.00838 0.998426
1.00625 1 1.00803 0.998235
1.00284 1 1.00428 0.998571
0.999413 1 1 0.999413
0.999793 1 1.00046 0.999331
0.999942 1 1 0.999942
1.00063 1 1.00144 0.999191
0.999912 1 1 0.999912
1 1 1 1
0.999857 1 1 0.999857
0.999997 1 1 0.999997
1 1 1 1
1.00171 1 1.00197 0.999748
1.00364 1 1.00411 0.999526
1 1 1 1
1 1 1 1
1.00523 1 1.00603 0.999205
1 1 1 1
1.08723 1.09333 0.998614 0.995801
1.08631 1.09342 0.997487 0.995997
1.07661 1.08954 0.991855 0.996255
1.07253 1.08637 0.99081 0.996422
1.08463 1.0919 0.997329 0.995999
1.04737 1.05161 1 0.995974
1.08454 1.09155 0.997584 0.995987
1.07267 1.08568 0.991577 0.996409
1.07546 1.08763 0.992432 0.99635
1.07323 1.09077 0.987242 0.996631
1.07653 1.09122 0.990404 0.996097
1.07404 1.09466 0.984508 0.996596
1.07265 1.08531 0.991919 0.996385
1.07283 1.09092 0.986779 0.996588
1.07457 1.09216 0.987189 0.996659
1.07565 1.09863 0.982281 0.996747
1.07351 1.09448 0.98438 0.996397
1.07844 1.10242 0.981393 0.996789
1.08414 1.09075 0.997933 0.995995
1.0836 1.0912 0.997039 0.995984
1.07256 1.08509 0.992017 0.996408
1.07762 1.08974 0.992654 0.996194
1.02628 1.02756 1.00217 0.996591
1.05736 1.06215 1 0.995494
1.07067 1.07567 1.00018 0.995171
1.07695 1.08672 0.99496 0.99603
1.0693 1.08894 0.985319 0.996598
1.06789 1.08401 0.988769 0.996314
1.07137 1.07629 0.99987 0.995562
1.06213 1.07787 0.988891 0.996474
1.02302 1.02161 1.00533 0.996074
1.01777 1.01187 1.01003 0.995844
1.01225 1.0019 1.01226 0.998102
1.0099 1.0016 1.01136 0.996959
1.07325 1.08475 0.992998 0.996368
1.07569 1.08788 0.992494 0.996266
1.06889 1.08566 0.987966 0.99655
1.06853 1.0899 0.983766 0.996571
1.04002 1.04165 1.00271 0.99574
1.0541 1.05914 1.00003 0.995211
1.06424 1.06911 1.00039 0.99505
1.06848 1.08655 0.986898 0.996422
1.06883 1.09216 0.981814 0.996769
1.06566 1.07225 0.99818 0.995671
1.06015 1.08367 0.98157 0.996672
1.06253 1.08024 0.987017 0.996537
1.0257 1.02566 1.00438 0.995673
1.01727 1.01056 1.01097 0.995714
1.01522 1.00455 1.01418 0.996492
1.01248 1.00239 1.01178 0.998303
1.01833 1.00444 1.01669 0.997185
1.07152 1.08936 0.987013 0.996566
1.07186 1.09219 0.984763 0.996572
1.0679 1.09808 0.975688 0.996754
1.06411 1.08932 0.980028 0.996765
1.03527 1.03999 1.00002 0.995443
1.0613 1.08653 0.979873 0.996838
1.03666 1.04159 1.00029 0.99498
1.05449 1.05966 1.00018 0.994938
1.06156 1.07328 0.99335 0.995697
1.0072 1 1.00851 0.998697
1.01778 1.00029 1.02001 0.997525
1.0205 1.01281 1.01078 0.996852
1.01801 1.01728 1.00517 0.995574
1.0206 1.00599 1.01862 0.995977
1.01945 1.00906 1.01476 0.995591
1.00048 1 1.00072 0.999769
1.01317 1 1.01465 0.998544
1.07831 1.09049 0.992892 0.995907
1.01779 1.00312 1.01727 0.9974
1.01609 1.01511 1.00456 0.996428
1.01505 1.01327 1.00515 0.996635
1.07458 1.07986 0.999358 0.995745
1.06853 1.08222 0.991372 0.995942
1.03155 1.03357 1.0027 0.995359
1.05119 1.05532 1.00077 0.995318
1.08434 1.0901 0.998879 0.995838
1.00612 1 1.00731 0.998817
1.01658 1.00072 1.01814 0.997751
1.01576 1.01755 1.00233 0.995916
1.02392 1.01175 1.01504 0.997038
1.02186 1.02199 1.00338 0.996504
1.0712 1.09022 0.986361 0.996143
1.07289 1.08036 0.997193 0.995886
1.06329 1.08095 0.987414 0.9962
1.01138 1.01284 1.00324 0.995331
1.04514 1.05016 0.999945 0.99528
1.00964 1.00006 1.0115 0.998104
1.02156 1.00291 1.02132 0.997334
1.00829 1.00993 1.00255 0.995845
1.03142 1.02242 1.01217 0.996671
1.04162 1.04429 1.00111 0.996342
1.06075 1.09044 0.976061 0.99663
1.07429 1.08369 0.995599 0.995707
1.07184 1.08669 0.990187 0.996114
1.01408 1.01441 1.00433 0.995363
1.02019 1.02526 1 0.995048
1.00281 1 1.00378 0.999026
1.00544 1 1.00714 0.998305
1.00117 1 1.00293 0.998252
1.00487 1 1.00648 0.998406
1.00209 1 1.00353 0.998567
1.00741 1 1.0092 0.998231
1.00248 1 1.00417 0.998312
1.00634 1 1.00818 0.998172
0.999855 1 1.0012 0.998658
0.999417 1 1 0.999417
0.999412 1 1 0.999412
0.99997 1 1 0.99997
0.999545 1 1.00021 0.999335
0.999951 1 1 0.999951
1 1 1 1
0.999925 1 1 0.999925
1 1 1 1
1 1 1 1
1.00017 1 1.00029 0.999879
1.0017 1 1.00197 0.999727
1 1 1 1
1.0039 1 1.00439 0.99951
1 1 1 1
1 1 1 1
1.07643 1.09127 0.990265 0.996093
1.07547 1.08763 0.992442 0.996351
1.07401 1.09478 0.98436 0.996618
1.07219 1.09053 0.986481 0.996659
1.07289 1.08561 0.991851 0.996404
1.08426 1.09126 0.997587 0.995987
1.0729 1.08527 0.992207 0.996369
1.07338 1.09092 0.9873 0.996581
1.07412 1.09157 0.987325 0.996645
1.07347 1.09753 0.981255 0.996756
1.07376 1.09447 0.984622 0.996399
1.07554 1.10076 0.980199 0.996824
1.07387 1.09088 0.987802 0.99656
1.07671 1.10107 0.981063 0.996751
1.07553 1.10141 0.979612 0.99683
1.06943 1.10175 0.973756 0.996822
1.07353 1.08502 0.993013 0.996367
1.07549 1.08766 0.992525 0.99625
1.06853 1.08556 0.987691 0.996579
1.06988 1.09029 0.984673 0.996553
1.04082 1.04216 1.00299 0.995739
1.05411 1.05916 1 0.995235
1.06349 1.06817 1.00058 0.995037
1.0692 1.08669 0.987482 0.996373
1.06649 1.09073 0.980889 0.996824
1.06097 1.08447 0.981601 0.996671
1.06398 1.07029 0.998432 0.995657
1.06183 1.07993 0.986583 0.996612
1.02229 1.0221 1.00452 0.995681
1.01447 1.00968 1.00909 0.995697
1.01859 1.00459 1.0175 0.99649
1.0102 1.00161 1.01031 0.99829
1.0148 1.00063 1.017 0.997218
1.0713 1.08909 0.98705 0.996567
1.07249 1.09278 0.984818 0.996568
1.06897 1.0975 0.977183 0.996748
1.03526 1.0398 1.0002 0.995442
1.03734 1.04227 1.00026 0.99501
1.05249 1.05727 1.00055 0.994928
1.06436 1.08906 0.98051 0.996752
1.06338 1.07518 0.993172 0.995829
1.0584 1.08385 0.979651 0.996806
1.00728 1 1.00853 0.998767
1.01509 1.01408 1.00545 0.995572
1.01856 1.0074 1.01547 0.995676
1.02364 1.0084 1.01923 0.995961
1.02181 1.01274 1.01211 0.996885
1.02067 1.00392 1.01925 0.997477
1.07548 1.09897 0.981935 0.996633
1.07295 1.10488 0.9743 0.996712
1.06188 1.09705 0.971029 0.99682
1.05452 1.08943 0.970914 0.99695
1.01978 1.02426 1.00031 0.995315
1.05195 1.07224 0.984632 0.996392
1.02162 1.0254 1.00165 0.994676
1.0387 1.04497 0.999174 0.994822
1.00138 1 1.00217 0.999213
1.016 1 1.01801 0.998029
1.01751 1.00689 1.01342 0.997169
1.02831 1.00956 1.02235 0.996307
1.01165 1.00586 1.0102 0.995597
1.02455 1.00731 1.02183 0.995394
1.00595 1 1.00713 0.998822
1.01641 1 1.0187 0.997756
1.06993 1.0888 0.986481 0.996139
1.02314 1.00982 1.0162 0.997043
1.02052 1.02202 1.00271 0.99583
1.02152 1.02198 1.00308 0.996479
1.07615 1.08356 0.997276 0.995872
1.06597 1.08405 0.987049 0.99622
1.01437 1.01637 1.00273 0.995315
1.04244 1.04727 1.00015 0.99524
1.00962 1.0001 1.01143 0.998111
1.02162 1.00273 1.0216 0.997288
1.00877 1.01018 1.00278 0.995838
1.03114 1.02342 1.01092 0.996658
1.04663 1.04986 1.00055 0.996369
1.06359 1.093 0.976343 0.996676
1.0741 1.08344 0.995602 0.995761
1.07248 1.08654 0.990824 0.996206
1.01631 1.01642 1.00458 0.995327
1.01925 1.0244 1.00003 0.994944
1.00703 1 1.00915 0.997899
1.02134 1.0031 1.0212 0.997038
1.02555 1.02588 1.00378 0.995906
1.0392 1.03996 1.00301 0.996273
1.06342 1.11737 0.954662 0.99691
1.05959 1.0873 0.977775 0.996667
1.05483 1.0609 0.999055 0.995218
1.02756 1.02839 1.00426 0.994957
1.00506 1 1.00676 0.998309
1.00235 1 1.00412 0.998233
1.00051 0.999651 1.00238 0.998486
1.00291 1 1.00436 0.998564
1.00965 1 1.01145 0.998228
0.99998 1 1.00133 0.998651
1.00246 0.999759 1.00436 0.998348
1.00819 1 1.01002 0.998185
1.0002 1 1.00159 0.998613
1.0082 1 1.01013 0.998085
1.00342 1 1.0053 0.99813
0.999159 1 1.00054 0.998619
0.999371 1 1 0.999371
0.999413 1 1 0.999413
0.999983 1 1 0.999983
0.999412 1 1 0.999412
0.999974 1 1 0.999974
1 1 1 1
0.99996 1 1 0.99996
1 1 1 1
0.999999 1 1 0.999999
0.999945 1 1 0.999945
1.00121 1 1.00135 0.999855
1 1 1 1
1.00319 1 1.00349 0.999705
1 1 1 1
1 1 1 1
1.07392 1.09436 0.984863 0.996402
1.07377 1.09107 0.987474 0.996631
1.07272 1.09914 0.97904 0.996858
1.07138 1.09652 0.98025 0.996765
1.0739 1.09087 0.987833 0.996574
1.07314 1.08523 0.992479 0.996352
1.07342 1.09064 0.987601 0.996561
1.07599 1.1003 0.981103 0.996741
1.07472 1.10088 0.97935 0.996824
1.06903 1.10126 0.973817 0.996835
1.07832 1.10158 0.982128 0.996697
1.0741 1.10648 0.973759 0.996895
1.07668 1.11298 0.970373 0.996913
1.07101 1.08875 0.987092 0.996568
1.0731 1.09331 0.984898 0.996565
1.06994 1.09691 0.978605 0.996742
1.03633 1.04045 1.0006 0.995441
1.03717 1.04215 1.00018 0.99504
1.05095 1.05547 1.0008 0.994917
1.06477 1.08902 0.980937 0.99674
1.05504 1.08111 0.979043 0.996773
1.06516 1.07721 0.992824 0.995962
1.01301 1.01105 1.0064 0.995569
1.0157 1.00544 1.0145 0.995764
1.02525 1.01048 1.01874 0.995946
1.00823 1 1.00941 0.998838
1.01967 1.01088 1.01182 0.996916
1.02361 1.0067 1.01942 0.997427
1.07675 1.09972 0.982411 0.996643
1.07178 1.10484 0.973274 0.996714
1.06236 1.09692 0.971586 0.996812
1.01901 1.02346 1.00035 0.995306
1.02073 1.02468 1.0014 0.994753
1.04147 1.0481 0.998728 0.99494
1.05557 1.08992 0.971452 0.99695
1.04864 1.06958 0.983999 0.996366
1.00191 1 1.00261 0.999304
1.01495 1 1.01696 0.998022
1.00893 1.00487 1.00846 0.995619
1.02752 1.00704 1.02485 0.995593
1.02616 1.01005 1.01969 0.996332
1.01958 1.00999 1.01239 0.997134
1.07386 1.10719 0.973001 0.99681
1.06321 1.11117 0.959927 0.99678
1.05602 1.09696 0.965584 0.996994
1.03862 1.07166 0.972154 0.996933
1.00388 1.00736 1.00133 0.995218
1.03217 1.04775 0.989651 0.995428
1.01697 1.01982 1.00264 0.99458
0.999574 1 1 0.999574
0.999375 1 1.00041 0.998962
1.00816 1 1.00965 0.998526
1.01143 1 1.01401 0.997459
1.01382 1 1.01707 0.996801
1.03563 1.01432 1.02522 0.995888
1.00905 1.00206 1.01108 0.995947
1.04885 1.00546 1.04712 0.996203
1.01005 1 1.01195 0.998119
1.02327 1.003 1.02303 0.997241
1.06678 1.09582 0.976698 0.996723
1.03351 1.0269 1.00982 0.996645
1.00925 1.01012 1.00331 0.995831
1.05103 1.05472 1.00011 0.996396
1.07393 1.0832 0.995604 0.995816
1.07333 1.08656 0.99149 0.996298
1.01786 1.01778 1.00482 0.995292
1.018 1.02328 1 0.994841
1.00827 1.00005 1.01041 0.997828
1.01971 1.00302 1.0197 0.996992
1.03224 1.0322 1.00415 0.995904
1.03721 1.03877 1.00222 0.996296
1.06459 1.11923 0.95411 0.996929
1.06602 1.09171 0.979788 0.996611
1.05044 1.0567 0.998788 0.995283
1.02908 1.03046 1.00377 0.994909
1.00631 0.999398 1.00907 0.997859
1.0755 1.1294 0.955188 0.996953
1.01238 1.00336 1.01237 0.996655
1.03224 1.03362 1.00297 0.995712
1.04206 1.09849 0.951417 0.997071
1.04132 1.05079 0.995617 0.995351
1.0193 1.02148 1.00323 0.994652
1.00385 1 1.00565 0.998215
0.998889 0.99848 1.00193 0.998479
1.00082 0.997985 1.00413 0.998723
0.999654 1 1.00101 0.998644
1.00903 1 1.01085 0.998197
1.00278 0.999251 1.00516 0.998385
0.998927 1 1.00031 0.998614
1.00361 1 1.00548 0.998142
1.00049 0.999625 1.0022 0.998666
1.00708 1 1.00901 0.998086
0.998049 0.999233 1 0.998815
1.0035 1 1.00508 0.998425
1.00814 1 1.01023 0.997932
0.999045 1 1.00108 0.997967
0.998545 1 1.00004 0.998505
0.999322 1 1 0.999322
0.999366 1 1 0.999366
0.999989 1 1 0.999989
0.99941 1 1 0.99941
0.999984 1 1 0.999984
1 1 1 1
0.999978 1 1 0.999978
1 1 1 1
1 1 1 1
0.999649 1 1.00001 0.99964
0.999973 1 1 0.999973
0.999935 1 1 0.999935
1 1 1 1
1.00109 1 1.00126 0.999832
1 1 1 1
1 1 1 1
1.06851 1.10064 0.973875 0.996848
1.07391 1.1003 0.979131 0.996818
1.07518 1.09945 0.981133 0.996731
1.07304 1.09045 0.987422 0.996563
1.07799 1.10165 0.981744 0.996715
1.07372 1.10619 0.973678 0.996886
1.07312 1.10935 0.970337 0.996915
1.07502 1.1083 0.973008 0.996878
1.08527 1.12473 0.967843 0.996976
1.09937 1.14875 0.959668 0.997232
1.07792 1.1004 0.982864 0.996652
1.07077 1.10478 0.97241 0.996716
1.06309 1.09678 0.972389 0.996804
1.01911 1.0235 1.00041 0.995297
1.02087 1.02488 1.00126 0.994833
1.04446 1.05134 0.998394 0.995057
1.0565 1.0899 0.972315 0.996951
1.04491 1.06601 0.983804 0.996341
1.00936 1.00438 1.00936 0.995642
1.03281 1.0078 1.02915 0.995785
1.02546 1.00934 1.01968 0.996358
1.00076 1 1.00137 0.999394
1.01392 1 1.01594 0.998016
1.02244 1.0135 1.01175 0.997098
1.07315 1.10704 0.972481 0.996818
0.999571 1 1 0.999567
0.999836 1 1.00092 0.998912
1.06476 1.11045 0.96195 0.996783
1.05474 1.09553 0.965694 0.996965
1.00522 1.00803 1.00192 0.995296
1.01811 1.02041 1.00315 0.994616
1.02941 1.04467 0.989925 0.995412
1.03769 1.07116 0.971765 0.996901
1.00716 1 1.00854 0.998626
1.01205 1 1.01464 0.997443
1.01009 1.00217 1.01213 0.995817
1.04381 1.0066 1.0409 0.996215
1.03348 1.01102 1.02644 0.995889
1.01416 1.00241 1.01493 0.996841
1.08266 1.12999 0.961076 0.996912
1.04728 1.10942 0.946938 0.996889
1.03911 1.08435 0.961025 0.997139
1.02181 1.04752 0.978782 0.996597
1.00744 1.00456 1.00724 0.99566
1.01569 1.02127 0.999687 0.99485
0.999473 1 1.00063 0.998847
1.002 1 1.00308 0.998926
1.00038 1.00021 1.00162 0.99856
1.00639 1 1.00863 0.997784
1.01422 1 1.0171 0.997173
1.01007 1.0004 1.01315 0.996556
1.0753 1.00628 1.07274 0.99613
0.993311 1.00049 0.995637 0.997172
1.00821 1 1.01048 0.997758
1.01709 1.00256 1.01761 0.996946
1.06475 1.11944 0.954052 0.996948
1.07196 1.09559 0.981809 0.996556
1.03586 1.03759 1.00202 0.996319
1.04023 1.03993 1.00441 0.9959
1.04648 1.05285 0.998597 0.995347
1.0316 1.03346 1.00335 0.99486
1.00621 0.999091 1.0093 0.997845
1.07655 1.13269 0.953266 0.997035
1.0133 1.00188 1.0147 0.996743
1.02743 1.02895 1.0029 0.995636
1.04296 1.09913 0.951705 0.997052
1.03704 1.04765 0.994389 0.995458
1.02113 1.02305 1.00348 0.994663
1.01508 0.998024 1.01945 0.99768
1.0028 1.07488 0.935377 0.997396
1.00591 0.999957 1.00954 0.996451
1.00961 1.01081 1.00379 0.99504
1.00885 1.04451 0.969179 0.996575
1.0041 1.00694 1.00221 0.994976
0.933118 1.00091 0.936411 0.995581
0.996291 0.996367 1.00146 0.99847
0.998902 0.995233 1.00497 0.998728
1.00139 0.99654 1.0062 0.998668
0.999055 1 1.00045 0.998609
1.00542 1 1.00728 0.998155
1.00589 1 1.00782 0.998088
1.00105 0.999423 1.00291 0.998721
0.998692 1 1.00019 0.998504
0.999658 1 1.00168 0.997986
0.99635 0.997247 1.00032 0.998781
1.00892 1 1.01101 0.997929
1.00368 1 1.0053 0.998383
0.999826 0.996467 1.00461 0.99877
1.00759 1 1.0098 0.997804
1.00699 1 1.00912 0.997894
0.998193 1 1.00034 0.99785
0.998386 1 1.00008 0.998311
1.00616 1 1.00813 0.998047
1.00042 1 1.00214 0.998281
0.999303 1 1 0.999303
0.999318 1 1 0.999318
0.999994 1 1 0.999994
0.99936 1 1 0.99936
0.99999 1 1 0.99999
1 1 1 1
0.999986 1 1 0.999986
1 1 1 1
1 1 1 1
0.999723 1 1 0.999723
0.999644 1 1 0.999644
0.999989 1 1 0.999989
0.999968 1 1 0.999968
1 1 1 1
1.00026 1 1.00033 0.999925
1 1 1 1
1 1 1 1
1.06982 1.10619 0.970113 0.996917
1.07345 1.10613 0.973493 0.996877
1.07775 1.10182 0.981357 0.996734
1.07477 1.10812 0.972946 0.996876
1.08239 1.1225 0.967201 0.996967
1.10085 1.14883 0.960978 0.997143
1.09357 1.14095 0.961316 0.997044
0.929831 1.0162 0.921322 0.993145
1.04351 1.0967 0.953534 0.997867
0.999494 1 1.00043 0.999067
1.07257 1.10714 0.971858 0.996827
1.06598 1.1096 0.963792 0.996785
1.05302 1.09402 0.965486 0.996936
1.00271 1.00655 1.00082 0.995371
1.01898 1.0208 1.00359 0.994648
1.02659 1.04152 0.990226 0.995395
1.03724 1.07144 0.971121 0.996868
1.00582 1.00221 1.00794 0.995695
1.03714 1.00738 1.03342 0.996239
1.03151 1.00769 1.02786 0.995889
1.00068 1 1.00112 0.99956
1.01392 1.00386 1.01319 0.996879
1.00715 1 1.00844 0.998723
1.01283 1 1.01544 0.997427
1.00032 1 1.00146 0.998862
1.08152 1.13034 0.959761 0.996919
0.999172 1 1.00026 0.998914
1.00285 1 1.00392 0.99893
1.00028 1.00055 1.00122 0.998521
1.05102 1.10987 0.949927 0.996888
1.03619 1.0817 0.960722 0.997088
1.00303 1.00298 1.00437 0.995698
1.01819 1.02368 0.999636 0.995003
1.02137 1.04694 0.978922 0.996578
1.00623 1 1.0084 0.99785
1.01295 1 1.01587 0.997134
1.00434 1.00031 1.00711 0.996933
1.06297 1.00474 1.06208 0.996106
1.01026 1.00351 1.01016 0.996611
1.05711 1.12348 0.94375 0.997005
1.01753 1.09263 0.934015 0.997057
1.02774 1.05945 0.973225 0.996756
1.00533 1.02678 0.982694 0.996348
1.00029 1.0003 1.00332 0.996685
0.998467 1 1 0.998467
1.00386 1.00038 1.0053 0.998196
1.00283 0.99967 1.00482 0.998346
1.01504 1 1.01747 0.997606
1.01386 1 1.01666 0.997246
1.04606 0.999932 1.04941 0.996879
1.02741 1.00275 1.02737 0.997293
1.00673 0.999368 1.00956 0.997829
1.01376 1.00032 1.01665 0.996832
1.07699 1.13698 0.949979 0.997114
1.04457 1.10087 0.951685 0.99703
1.033 1.04484 0.993074 0.995564
1.02102 1.02283 1.00268 0.99556
1.02209 1.02387 1.0036 0.994676
1.01568 0.998474 1.01947 0.997803
1.00525 1.07683 0.935908 0.997458
1.00306 1.00058 1.00605 0.996456
1.00723 1.0081 1.00412 0.995032
1.00691 1.0421 0.969412 0.996726
1.00515 1.00748 1.00273 0.994977
0.930571 0.998716 0.93723 0.994172
1.01617 0.995612 1.02304 0.997661
0.974895 1.02844 0.950425 0.99738
1.00057 1.00137 1.00312 0.996088
1.00424 1.00251 1.00614 0.995616
0.988524 1.00756 0.984545 0.996506
0.868569 0.96973 0.930316 0.96277
0.83682 0.946509 0.901815 0.98037
0.934113 0.973078 0.963672 0.996145
0.604213 0.768658 0.860509 0.913485
0.516801 0.693825 0.842506 0.884099
0.997766 0.99275 1.00633 0.998733
1.00318 0.994156 1.01037 0.998721
1.00327 0.995651 1.00896 0.998703
0.998504 1 1 0.998504
0.999464 1 1.00146 0.998004
1.00841 1 1.0105 0.997926
1.00322 1 1.00489 0.99834
0.994079 0.995326 1 0.998747
1.0074 1 1.00953 0.997892
0.998353 1 1 0.998353
0.998301 1 1.00044 0.997866
0.999398 0.997173 1.00354 0.998693
1.00766 1 1.00979 0.997894
1.01232 1 1.01441 0.997938
1.01176 0.998635 1.0149 0.998268
1.00713 1 1.00928 0.997878
0.99899 1 1.00127 0.997718
0.999017 1 1.00075 0.998272
1.00233 1 1.00445 0.997894
1.00628 1 1.0082 0.998092
1.00578 1 1.0076 0.9982
1.00579 1 1.00779 0.99802
1.00092 1 1.00249 0.99843
1.00118 1 1.00291 0.998277
0.999299 1 1 0.999299
0.999304 1 1 0.999304
0.999997 1 1 0.999997
0.999313 1 1 0.999313
0.999995 1 1 0.999995
1 1 1 1
0.999992 1 1 0.999992
1 1 1 1
1 1 1 1
0.999805 1 1 0.999805
0.999769 1 1.00005 0.999721
0.999997 1 1 0.999997
0.999746 1 1.0001 0.999648
0.999985 1 1 0.999985
1 1 1 1
0.999962 1 1 0.999962
1 1 1 1
1 1 1 1
1.07933 1.12 0.966631 0.996958
1.07406 1.10745 0.972891 0.996874
1.10472 1.1501 0.963382 0.997056
0.935129 1.01578 0.926876 0.993229
1.09238 1.14084 0.960369 0.99704
1.05053 1.09912 0.957954 0.99774
1.06726 1.11717 0.958044 0.997161
0.884274 0.968375 0.932024 0.979752
0.970531 1.0272 0.950571 0.993958
0.999128 1 1 0.999128
0.999346 1 1.00029 0.99906
0.999421 1 1.00086 0.998562
0.99868 1 1 0.99868
1.08018 1.13065 0.958312 0.996926
1.0545 1.11056 0.952481 0.996886
1.03354 1.07918 0.960563 0.997036
1.00247 1.00276 1.00399 0.995736
1.01995 1.02614 0.998801 0.99516
1.02019 1.04555 0.979112 0.996561
1.01683 1 1.02021 0.996685
1.05267 1.00439 1.05219 0.996083
1.01268 1.00679 1.00921 0.996668
1.00276 1 1.00383 0.998934
1.01217 1.00061 1.01449 0.997097
1.00573 1 1.00783 0.997916
0.998979 1 1 0.998979
1.00022 1.00054 1.0012 0.998481
1.05679 1.12529 0.941941 0.997019
0.998943 0.999999 1.00048 0.998468
1.00276 1.0006 1.00387 0.998296
1.00255 0.998605 1.00529 0.998672
1.02568 1.09669 0.938026 0.997044
1.02735 1.05901 0.973263 0.996755
0.99877 1.00275 0.999348 0.996678
1.00635 1.02611 0.984266 0.996418
1.01419 1 1.01676 0.997477
1.01405 1.00003 1.01702 0.997053
1.03427 1.00369 1.03328 0.997276
1.04767 1.00304 1.0479 0.996747
1.00727 1.07571 0.93906 0.997144
0.997004 1.05985 0.943474 0.997067
1.01167 1.02534 0.99025 0.996379
0.971594 1.00241 0.971598 0.997596
1.00796 0.999648 1.00988 0.998454
1.0082 1 1.0105 0.997723
1.02155 0.999174 1.02432 0.998121
1.06747 1.00131 1.06895 0.997312
0.860601 0.967574 0.930165 0.956219
1.01634 0.99822 1.02026 0.997926
1.00127 1.00091 1.00391 0.996458
1.00771 1.07829 0.93686 0.997529
1.00481 1.0394 0.969753 0.996876
1.00639 1.00815 1.0033 0.994973
1.00571 1.00604 1.00467 0.995021
0.929775 0.998521 0.937998 0.992702
1.01253 0.995597 1.01933 0.997723
0.973731 1.02872 0.949061 0.997351
1.0006 1.00151 1.00301 0.996099
1.00604 1.00457 1.00585 0.995637
0.991404 1.00864 0.98638 0.996485
0.85771 0.971357 0.923274 0.956381
0.837861 0.945176 0.907592 0.976716
0.93659 0.973198 0.966034 0.996222
0.601066 0.766162 0.85652 0.915935
0.51225 0.698276 0.835543 0.877982
1.00438 0.995658 1.01102 0.997768
0.645443 0.792405 0.885328 0.92004
0.556093 0.721985 0.871683 0.88361
0.978855 1.00558 0.975706 0.997659
1.01045 1.00196 1.01151 0.996996
1.01597 1.00631 1.01257 0.997069
0.926651 0.959333 0.969021 0.996813
0.80805 0.93714 0.897689 0.960523
0.803872 0.912529 0.90444 0.974003
0.576312 0.744648 0.838244 0.923287
0.562849 0.771055 0.833544 0.875744
1.00443 0.991713 1.01407 0.998773
1.00341 0.994129 1.01067 0.998676
1.01369 0.996269 1.01867 0.998837
0.998394 1 1 0.998394
0.998655 1 1.00078 0.997881
1.0076 1 1.00973 0.99789
1.00866 1 1.01069 0.997984
0.999131 0.997834 1.00269 0.998616
0.998911 1 1.00064 0.998272
1.01262 1 1.01473 0.997923
1.00711 1 1.00928 0.997851
0.998754 1 1.00099 0.997771
1.01205 0.998505 1.01527 0.998326
1.01206 1 1.01389 0.998193
1.0286 0.99787 1.03235 0.998495
1.00542 1 1.00775 0.997691
0.999446 1 1.00164 0.99781
1.00135 1 1.00348 0.997885
1.00545 0.999849 1.00747 0.998149
1.00139 0.999955 1.00356 0.997891
1.00081 0.999821 1.00276 0.998239
1.01 0.998617 1.01303 0.99839
1.0124 0.999713 1.01468 0.998038
1.00777 1 1.00956 0.998222
1.0076 1 1.00942 0.998203
1.00601 1 1.00755 0.998465
1.00747 1 1.0095 0.997994
1.0013 1 1.00291 0.998391
0.999271 1 1 0.999271
1.00187 1 1.00361 0.998273
0.999302 1 1 0.999302
0.999992 1 1 0.999992
0.999304 1 1 0.999304
0.999997 1 1 0.999997
1 1 1 1
0.999997 1 1 0.999997
1 1 1 1
1 1 1 1
0.999054 1 1 0.999054
0.999832 1 1 0.999832
0.999801 1 1 0.999801
1 1 1 1
0.999719 1 1 0.999719
0.999995 1 1 0.999995
1 1 1 1
0.999981 1 1 0.999981
1 1 1 1
1 1 1 1
0.937877 1.01507 0.930176 0.993313
1.0914 1.14034 0.959928 0.997035
1.0557 1.10082 0.961311 0.99761
0.870498 0.966712 0.917871 0.981046
0.965654 1.0267 0.946015 0.994215
1.06951 1.11986 0.957803 0.99712
0.977157 1.04564 0.938864 0.995361
0.890195 0.975217 0.928876 0.982712
0.867865 0.974595 0.92733 0.96027
0.615109 0.775213 0.858308 0.92446
0.481374 0.661797 0.823731 0.883023
0.999359 1 1.0007 0.998662
0.999253 1 1.00013 0.999126
0.999307 1 1.00026 0.999051
0.999526 1 1.00094 0.99859
1.00043 1 1.00196 0.998474
0.998705 1 1.0004 0.998309
0.999165 1 1.00073 0.998437
0.998631 1 1 0.998631
1.05842 1.127 0.941947 0.997031
1.0343 1.10082 0.942371 0.997031
1.02724 1.05927 0.972915 0.996753
0.997207 1.0041 0.99645 0.996672
1.00797 1.02567 0.986207 0.996486
1.04176 1.00438 1.04007 0.997257
1.04845 1.00572 1.04603 0.996615
1.0115 1.00036 1.01432 0.996858
1.00179 1.00077 1.00263 0.998395
1.01476 1 1.01746 0.997342
0.999498 1 1.00103 0.998471
1.00196 0.998483 1.00448 0.999002
1.0031 1.07552 0.935276 0.997207
1.00721 0.999469 1.00935 0.998415
1.01018 1 1.01226 0.997946
0.995874 1.05791 0.944155 0.997039
1.01127 1.02772 0.987403 0.996545
0.974485 1.00228 0.974751 0.997452
1.03117 1.00009 1.03342 0.997738
1.05963 1.00316 1.05909 0.99736
0.958898 1.0347 0.929613 0.996908
0.997385 1.02046 0.980279 0.997055
0.974271 1.00266 0.974464 0.997146
0.971025 0.996346 0.976619 0.997918
1.01135 1 1.01356 0.997818
1.02126 0.998266 1.02508 0.998001
1.05533 0.999189 1.05862 0.9977
0.669141 0.801154 0.904851 0.923049
0.87037 0.973057 0.927869 0.964004
1.00923 0.996903 1.01461 0.997786
1.00025 1.00132 1.00283 0.996113
0.973923 1.02899 0.949023 0.997321
0.994359 1.01003 0.987972 0.996468
1.00805 1.00669 1.00571 0.995667
0.860422 0.972075 0.921632 0.960404
0.843974 0.956985 0.902356 0.977341
0.936978 0.971403 0.968127 0.996318
0.616368 0.766431 0.869656 0.92474
0.50782 0.703858 0.82774 0.871627
1.00461 0.997569 1.0093 0.997778
0.660125 0.802975 0.89259 0.921026
0.526815 0.692788 0.864959 0.879148
0.978441 1.00671 0.97423 0.997629
1.01042 1.00269 1.01075 0.996993
1.01372 1.00408 1.01243 0.997213
0.922477 0.95361 0.970135 0.997131
0.810437 0.944859 0.897103 0.956115
0.802722 0.909261 0.903811 0.976786
0.595218 0.754727 0.85611 0.921206
0.571164 0.786036 0.831119 0.874289
1.00524 0.996838 1.00998 0.998465
0.56433 0.731762 0.874837 0.881527
0.613988 0.806288 0.858222 0.887299
0.983921 0.989201 0.996057 0.9986
1.01819 1.00262 1.01703 0.998527
0.933286 0.942442 0.994149 0.996113
0.823991 0.901514 0.933708 0.978901
0.747543 0.88442 0.886924 0.952996
0.625004 0.756588 0.895375 0.92261
0.647663 0.860017 0.854385 0.881431
1.00537 0.995681 1.01109 0.99865
1.01161 0.997652 1.01522 0.998787
1.01015 0.9954 1.01576 0.999074
0.99858 1 1.00031 0.998271
0.998533 1 1.00071 0.997825
1.00801 1 1.01021 0.997824
1.01287 1 1.01499 0.997909
1.01164 0.998152 1.01515 0.998385
0.998946 1 1.00115 0.997804
1.01276 1 1.01466 0.998127
1.0047 1 1.00703 0.997693
1.02557 0.995733 1.03145 0.998559
1.04273 0.993334 1.05068 0.999094
1.02017 1 1.02203 0.998179
1.00279 1 1.00513 0.997663
1.00016 1 1.00229 0.997877
1.00342 0.999855 1.00537 0.998205
1.00152 1 1.00365 0.99788
1.00089 1.00001 1.00266 0.998214
1.00557 0.997329 1.00976 0.998518
1.00472 0.999371 1.00717 0.9982
1.01563 0.997927 1.01954 0.998232
1.00145 0.994146 1.00879 0.998564
1.01275 1.0002 1.01454 0.998027
1.00487 1.00676 1.00093 0.997197
1.01575 1 1.01797 0.99782
1.01222 0.999761 1.01445 0.998041
1.01342 1 1.01548 0.997971
1.00785 1 1.00964 0.998226
1.00403 1 1.00563 0.998409
1.00638 1 1.00819 0.998205
1.00275 1 1.00428 0.998477
0.999367 1 1.00015 0.999216
1.0004 1 1.00205 0.998351
0.999275 1 1 0.999275
0.999973 1 1 0.999973
0.999306 1 1 0.999306
0.999988 1 1 0.999988
1 1 1 1
0.999996 1 1 0.999996
1 1 1 1
1 1 1 1
0.999027 1 1 0.999027
0.999787 1 1 0.999787
0.999057 1 1 0.999057
1 1 1 1
0.999832 1 1 0.999832
0.999796 1 1 0.999796
0.999999 1 1 0.999999
1 1 1 1
0.999993 1 1 0.999993
1 1 1 1
1 1 1 1
0.644067 0.79191 0.890061 0.913768
0.538934 0.714869 0.857912 0.878752
0.869818 0.964936 0.918169 0.981764
0.963546 1.02606 0.944269 0.9945
1.07087 1.12355 0.955908 0.99708
0.883969 0.959647 0.936266 0.983844
0.979217 1.0429 0.943043 0.995649
0.875124 0.981055 0.928788 0.960417
0.597125 0.769483 0.847043 0.916139
0.4946 0.683578 0.825069 0.876952
0.901184 0.991897 0.919265 0.988341
0.834156 0.953063 0.91042 0.961355
0.584566 0.752569 0.841724 0.92282
0.572368 0.777593 0.838587 0.87776
1.00107 1 1.00288 0.998194
0.998969 1 1.00027 0.998703
0.99936 1 1.00024 0.999124
0.999546 1 1.00093 0.998619
0.99985 1 1.00124 0.998616
1.00014 1 1.00219 0.997952
0.998962 1 1.00066 0.998305
0.999856 1 1.00191 0.997952
0.998899 1 1.00052 0.998381
0.998583 1 1 0.998583
0.996682 1.0752 0.929512 0.997268
0.994153 1.05562 0.944592 0.997013
1.01158 1.03004 0.985322 0.996711
0.977 1.00234 0.977345 0.997308
1.05021 1.00501 1.04769 0.997409
1.04196 1.00076 1.04392 0.99736
1.01108 1 1.01293 0.998168
1.00628 0.999041 1.00888 0.998375
0.95854 1.03534 0.928544 0.997069
1.01447 1 1.01675 0.997756
1.02105 0.997691 1.02549 0.997979
0.986773 1.01613 0.974034 0.996992
0.972031 1.00206 0.972736 0.997224
0.973637 0.998017 0.977624 0.9979
1.04769 0.998324 1.05192 0.997643
0.940905 1.00197 0.941857 0.997023
0.969783 0.997055 0.97447 0.99813
1.01276 0.989418 1.02547 0.998168
1.01105 1 1.01341 0.997669
1.02583 0.998589 1.02964 0.997713
1.02875 0.997632 1.03342 0.997838
0.588327 0.742613 0.884357 0.895835
0.66568 0.798434 0.902 0.924316
0.864354 0.973756 0.928086 0.95643
1.00345 0.996564 1.00914 0.997785
1.01003 1.00288 1.01018 0.996984
0.979594 1.00796 0.974201 0.997597
1.01169 1.00242 1.01194 0.99735
0.667004 0.796756 0.904081 0.925968
0.817382 0.947634 0.901986 0.956279
0.796834 0.907153 0.901718 0.97413
0.923696 0.950812 0.973998 0.997416
0.591214 0.761911 0.848956 0.91402
0.514863 0.68074 0.857605 0.881908
0.580134 0.790501 0.832326 0.881724
1.00473 0.996503 1.00986 0.998409
0.567694 0.730882 0.875795 0.886879
0.633017 0.826322 0.863813 0.886842
0.980669 0.986448 0.995418 0.998718
1.01715 1.00113 1.01756 0.998469
0.930596 0.940305 0.992635 0.997018
0.811421 0.907041 0.916757 0.975809
0.776366 0.893927 0.905487 0.959141
0.625711 0.764391 0.89496 0.91465
0.641196 0.851329 0.849393 0.886716
1.00604 0.994154 1.01253 0.999431
0.657153 0.829321 0.883754 0.896629
0.648066 0.8405 0.865422 0.89095
0.96909 0.947331 1.02326 0.999715
0.863486 0.900712 0.973147 0.985125
0.782392 0.862583 0.948132 0.956653
0.722014 0.855063 0.926898 0.910994
0.696794 0.906223 0.863376 0.890573
1.0097 0.998483 1.01252 0.998736
1.01275 0.995295 1.0185 0.999059
1.02334 0.982811 1.04192 0.999354
0.999109 1 1.00132 0.997797
1.0035 1 1.00582 0.997695
1.01284 1 1.01481 0.998061
1.02354 0.99414 1.03099 0.998624
1.00316 1 1.00551 0.997663
1.01898 0.999407 1.02146 0.998167
1.04793 0.993125 1.05606 0.999173
1.04067 0.980692 1.06175 0.999446
1.04572 0.994207 1.0528 0.999068
1.01349 0.999499 1.01596 0.998068
1.00119 1 1.00332 0.997868
1.00099 1.00012 1.00269 0.998189
0.999534 0.99427 1.00666 0.998643
1.01402 0.997942 1.01788 0.998258
1.00221 0.999825 1.0042 0.998192
1.00441 0.99319 1.01271 0.998598
1.01728 0.999038 1.02002 0.998278
1.02039 0.988464 1.03337 0.998962
1.00445 1.00241 1.0038 0.99824
1.00927 1.00109 1.01015 0.998048
1.00051 1.00155 1.00148 0.997476
1.0103 1.01275 1.00153 0.996061
1.0084 1.00342 1.00747 0.9975
1.00286 1.00455 1.00075 0.997561
1.01407 0.999962 1.01633 0.997814
1.02265 1 1.025 0.997712
1.01079 0.999925 1.01284 0.998045
1.01364 1 1.0157 0.997973
1.00756 1 1.00939 0.998184
1.00911 1 1.0109 0.99823
1.00666 1 1.00826 0.998407
1.00219 1 1.00308 0.999118
1.00292 1 1.00444 0.998489
1.00018 1 1.00097 0.999218
0.99994 1 1 0.99994
0.999279 1 1 0.999279
0.999964 1 1 0.999964
1 1 1 1
0.999984 1 1 0.999984
1 1 1 1
1 1 1 1
0.998905 1 1.00026 0.998649
0.9997 1 1 0.9997
0.998929 1 1 0.998929
1 1 1 1
0.999793 1 1 0.999793
0.999059 1 1 0.999059
1 1 1 1
1 1 1 1
0.999832 1 1 0.999832
0.999999 1 1 0.999999
1 1 1 1
1 1 1 1
0.548632 0.720063 0.862014 0.883886
0.655137 0.799126 0.891759 0.919325
0.632434 0.829212 0.86029 0.886553
0.536693 0.717649 0.852297 0.877452
0.88299 0.963439 0.934195 0.981057
0.981866 1.03996 0.947974 0.995954
0.87065 0.983684 0.921876 0.960098
0.611196 0.764529 0.864941 0.924272
0.508979 0.710529 0.822601 0.870822
0.907499 0.986441 0.931942 0.987156
0.806982 0.940671 0.900141 0.953049
0.599101 0.759605 0.856656 0.920673
0.559999 0.768833 0.834042 0.873308
0.859095 0.95574 0.914587 0.982825
0.74314 0.865199 0.902426 0.951794
0.654119 0.803776 0.893709 0.910596
0.638436 0.849235 0.854927 0.879347
1.00499 1 1.00726 0.997745
1.00102 1 1.00277 0.998255
0.998744 1 1 0.998744
0.999406 1 1.00065 0.998759
0.999402 1 1.00189 0.997513
0.999677 1 1.00166 0.998021
0.999138 1 1.00084 0.998301
0.999706 1 1.00179 0.997921
0.999492 1 1.0015 0.99799
0.99862 1 1.0003 0.998326
0.959204 1.03635 0.928133 0.997223
0.978127 1.01223 0.96928 0.996936
0.968206 1.00129 0.969577 0.997301
0.976014 0.999736 0.978343 0.997883
1.03754 0.997915 1.04223 0.997583
1.02102 0.998173 1.02498 0.997958
1.01641 1 1.01876 0.997696
1.01049 1 1.01291 0.997613
0.942487 1.00157 0.943704 0.997142
1.02066 0.998826 1.02424 0.99767
1.0285 0.998003 1.03281 0.997816
0.968796 0.998485 0.972082 0.998131
1.00567 0.992564 1.0151 0.998124
0.938056 0.968994 0.970714 0.997277
0.95534 0.955569 1.00053 0.999227
1.0427 0.98282 1.06265 0.998377
1.00938 0.999155 1.01244 0.997827
1.03347 0.996741 1.03893 0.998004
0.672016 0.844185 0.88203 0.902523
0.581196 0.742097 0.876257 0.893779
0.655333 0.792902 0.90155 0.916753
1.00475 0.997014 1.00941 0.998359
1.01628 0.999194 1.01872 0.998408
0.975159 0.983873 0.99229 0.998843
0.560063 0.725089 0.871059 0.886744
0.748156 0.873223 0.899671 0.952321
0.816158 0.904344 0.923208 0.977555
0.919892 0.933834 0.987066 0.997978
0.636661 0.777182 0.887685 0.92284
0.647556 0.839962 0.869388 0.886755
0.638395 0.846913 0.849446 0.88739
1.00347 0.993884 1.01028 0.999376
0.660616 0.832817 0.882723 0.898619
0.644022 0.834834 0.865482 0.891338
0.971473 0.952635 1.0203 0.999487
0.875238 0.913133 0.973018 0.98508
0.756041 0.861988 0.923354 0.949896
0.689142 0.899867 0.860798 0.889672
0.738523 0.856075 0.942994 0.914837
0.9889 0.95318 1.03778 0.999711
0.653088 0.824667 0.878709 0.901255
0.692733 0.882843 0.874883 0.896875
0.636306 0.847886 0.853253 0.879531
0.922814 0.913897 1.01377 0.996043
0.850717 0.896715 0.989663 0.958614
0.8008 0.925288 0.940464 0.920248
1.01602 0.995435 1.02165 0.999043
1.02666 0.987712 1.0402 0.99927
1.03906 0.977378 1.06357 0.999566
1.00371 1 1.00606 0.997663
1.01785 0.999023 1.02073 0.998155
1.05245 0.991536 1.06223 0.999251
1.01606 0.999416 1.01861 0.998077
1.04552 0.994092 1.05271 0.999079
1.0484 0.981753 1.0685 0.999421
1.03328 0.972355 1.0632 0.999489
1.0298 0.992304 1.03876 0.999058
1.01294 0.998209 1.01649 0.998287
1.00127 1.00018 1.00291 0.998184
1.00988 0.994719 1.01663 0.998633
1.02128 0.991933 1.03068 0.998933
1.023 1.00009 1.02467 0.998289
1.01049 0.99964 1.01206 0.998807
1.00504 0.999993 1.00642 0.998632
1.00378 1.00187 1.00499 0.996928
1.00691 1.00296 1.00587 0.998081
1.00217 1.00352 1.0013 0.997351
1.00313 1.00525 1.00227 0.99563
1.02675 1.03015 1.00129 0.995416
1.0105 1.01092 1.00258 0.997009
1.00685 1.00937 1.00138 0.996125
1.01599 1.00026 1.0184 0.99738
1.00933 1.0042 1.00759 0.997528
1.00129 1.00279 1.00059 0.997921
1.01328 1.00003 1.01547 0.997807
1.02183 1 1.02415 0.997732
1.01319 1 1.0153 0.997925
1.01448 1 1.01654 0.997976
1.00654 1.00002 1.00835 0.998182
1.00373 1 1.00481 0.998927
1.00488 1 1.00649 0.998404
1.00189 1 1.00278 0.999113
0.999907 1 1 0.999907
1.00024 1 1.00102 0.999219
0.999931 1 1 0.999931
1 1 1 1
0.999955 1 1 0.999955
1 1 1 1
1 1 1 1
0.999702 1 1.00142 0.998282
0.999396 1 1 0.999396
0.999111 1 1.00046 0.998648
0.999997 1 1 0.999997
0.999627 1 1 0.999627
0.998832 1 1 0.998832
1 1 1 1
1 1 1 1
0.999799 1 1 0.999799
1 1 1 1
1 1 1 1
1 1 1 1
0.673466 0.854309 0.879271 0.896558
0.561116 0.723349 0.8712 0.890404
0.642112 0.791415 0.883666 0.91816
1.00015 1 1.00234 0.997821
0.643634 0.830709 0.865768 0.894929
0.633523 0.828042 0.863178 0.886359
0.55463 0.738677 0.849588 0.883772
0.914552 0.99172 0.935415 0.98586
0.811041 0.9337 0.904364 0.960488
0.589433 0.76469 0.844128 0.913148
0.548045 0.746331 0.836313 0.878042
0.854988 0.951857 0.917393 0.979113
0.771002 0.884355 0.909515 0.958559
0.641232 0.781553 0.899728 0.911897
0.640336 0.850081 0.855086 0.880923
0.796939 0.897528 0.911212 0.974445
0.761816 0.851353 0.937572 0.954411
0.748011 0.862131 0.947099 0.916092
0.695238 0.901141 0.866303 0.890575
1.00231 1 1.00463 0.997689
1.00538 1 1.00767 0.997723
1.00088 1 1.00256 0.998316
0.999216 1 1.00151 0.997714
1.00005 1 1.00247 0.99759
0.999844 1 1.00176 0.99809
0.999772 1 1.00186 0.99792
0.999485 1 1.00146 0.998027
0.944959 1.00263 0.945095 0.99723
0.969255 1.00115 0.969946 0.998143
1.00927 1 1.01174 0.997555
0.998212 0.995492 1.00466 0.998079
1.0285 0.996729 1.03416 0.997793
1.02112 1 1.02355 0.997626
1.01435 0.999851 1.01673 0.997803
0.939856 0.967795 0.973616 0.997448
1.03066 0.997496 1.03531 0.998003
1.0339 0.988496 1.04758 0.998422
0.95952 0.960078 1.00015 0.999271
1.01743 0.999402 1.02001 0.998065
0.922478 0.931117 0.994069 0.996633
0.985621 0.955814 1.03173 0.999476
1.07109 0.992575 1.08068 0.998536
1.0615 0.995823 1.06786 0.998211
0.651848 0.819116 0.878627 0.905726
0.670714 0.843196 0.882408 0.901446
0.574774 0.740293 0.87076 0.891652
0.999976 0.993721 1.00698 0.999322
0.974861 0.956716 1.01972 0.99926
0.667289 0.839422 0.882766 0.900508
0.774867 0.845706 0.956397 0.958008
0.86405 0.91092 0.967239 0.980675
0.727437 0.846902 0.941213 0.912587
0.642727 0.832852 0.865504 0.891641
0.686552 0.897706 0.860517 0.888749
0.998205 0.965474 1.03424 0.999669
0.654388 0.826664 0.878282 0.901306
0.69761 0.883023 0.878839 0.898942
0.939874 0.926034 1.01625 0.99872
0.638504 0.848636 0.854004 0.881013
0.818383 0.874996 0.980023 0.954365
0.797747 0.91552 0.947371 0.919766
0.991948 0.955818 1.0382 0.999616
0.697443 0.867867 0.885985 0.907045
0.645859 0.829494 0.869258 0.895726
0.569298 0.774451 0.83744 0.877793
0.742605 0.857171 0.94642 0.915391
0.923252 0.924602 1.00826 0.990357
0.86561 0.904721 1.0088 0.948422
1.0284 0.993526 1.03594 0.999188
1.03392 0.971236 1.06504 0.999534
1.01619 0.949892 1.07024 0.999581
1.01764 0.998778 1.02084 0.998087
1.04649 0.992791 1.05505 0.999091
1.05745 0.98396 1.07534 0.999396
1.02502 0.992155 1.03411 0.999045
1.02874 0.972911 1.05792 0.999488
0.988203 0.96959 1.01998 0.999234
1.0214 0.994287 1.0284 0.998903
1.02742 0.998405 1.03081 0.998303
1.01664 0.99914 1.01876 0.998779
1.00411 0.99836 1.00779 0.997978
1.0053 0.998481 1.00781 0.999022
0.9979 1.00182 0.998902 0.997186
1.00771 1.00337 1.00945 0.994923
1.00871 1.01122 1.00283 0.994701
1.00291 1.00543 1.00028 0.997214
1.00342 1.00601 1.00205 0.995386
1.02462 1.02878 1.00053 0.995438
1.02219 1.02345 1.00261 0.99616
1.0231 1.02641 1.00125 0.995532
1.01306 1.00599 1.00989 0.997168
1.01418 1.01394 1.00328 0.996964
1.00252 1.00507 1.00128 0.996193
1.02038 1 1.02273 0.997701
1.0155 1.00046 1.01767 0.997413
1.0101 1.00469 1.00785 0.997555
1.02046 1 1.02275 0.997752
1.01303 1 1.01513 0.997927
1.00941 1 1.01076 0.998664
1.00743 1.00001 1.00925 0.99818
1.00456 1 1.00564 0.998921
0.999857 1 1 0.999857
1.00312 1 1.00401 0.99911
0.999899 1 1 0.999899
1 1 1 1
0.999922 1 1 0.999922
1 1 1 1
1 1 1 1
1.00026 1 1.00208 0.998186
1.00029 1 1.00116 0.999136
1.00005 1 1.00171 0.998351
0.999984 1 1 0.999984
0.999367 1 1 0.999367
0.999165 1 1.00052 0.998645
1 1 1 1
0.999998 1 1 0.999998
0.999555 1 1 0.999555
1 1 1 1
1 1 1 1
1 1 1 1
0.657777 0.827141 0.878677 0.905045
0.67273 0.851689 0.880949 0.896621
0.56265 0.721666 0.875633 0.89039
1.00034 1 1.00248 0.997865
1.00631 1 1.00858 0.997747
0.999176 1 1.00128 0.997899
0.697929 0.88719 0.877735 0.896255
0.643014 0.833155 0.862035 0.895302
0.631293 0.829488 0.858772 0.886223
0.858633 0.957343 0.913927 0.98136
0.741084 0.876151 0.888629 0.951848
0.65238 0.771483 0.916837 0.92232
0.642891 0.857609 0.854037 0.877752
0.803382 0.902019 0.910899 0.977768
0.776746 0.862033 0.944685 0.953823
0.740631 0.856417 0.943005 0.917072
0.689545 0.898195 0.863022 0.889549
0.822025 0.895452 0.941636 0.974898
0.818349 0.87869 0.97431 0.955885
0.802689 0.921754 0.945873 0.92066
0.651713 0.861686 0.857626 0.881879
0.999573 0.999746 1.00187 0.997956
1.00186 1 1.00423 0.997644
1.00464 1 1.00695 0.9977
0.9989 1 1.00121 0.997694
1.00013 1 1.00247 0.997669
0.999306 1 1.00139 0.997918
0.935936 0.960553 0.976669 0.997647
0.96152 0.959907 1.00239 0.999289
1.01324 1 1.0155 0.997781
1.03019 0.996253 1.03565 0.998466
1.02636 0.999031 1.02942 0.998
1.016 0.998505 1.01947 0.998083
1.04233 0.990104 1.05459 0.998248
0.924554 0.928849 0.998623 0.996749
1.06456 0.987722 1.07922 0.998678
0.986056 0.943906 1.04546 0.999233
1.02803 0.987018 1.0432 0.998418
0.942688 0.926449 1.02143 0.996184
1.00877 0.955018 1.05731 0.999029
1.02782 0.958502 1.07362 0.998792
0.716788 0.8824 0.894763 0.907856
0.658073 0.823245 0.882274 0.906027
0.668619 0.842425 0.881501 0.900377
1.00801 0.977451 1.03165 0.999627
0.928227 0.925212 1.00667 0.996614
0.654473 0.82679 0.878211 0.901359
0.814702 0.86049 0.987438 0.958833
0.789264 0.919277 0.939504 0.913855
0.700127 0.884872 0.878162 0.900994
0.642658 0.856628 0.854447 0.878016
0.984638 0.949137 1.0377 0.999717
0.694342 0.862297 0.886991 0.907814
0.649302 0.838232 0.864382 0.896142
0.918356 0.920229 1.01281 0.985344
0.556664 0.763765 0.834343 0.873551
0.740612 0.855169 0.945555 0.915908
0.856128 0.901547 0.992191 0.957096
1.00492 0.943673 1.06739 0.997671
0.660051 0.826304 0.882017 0.90565
0.64395 0.835662 0.868525 0.887235
0.483541 0.660014 0.829018 0.883723
0.640929 0.791771 0.889471 0.910078
0.826654 0.875099 0.988824 0.955317
0.884036 0.903854 0.996801 0.981213
1.02822 0.967513 1.06327 0.999501
1.02656 0.964425 1.06488 0.999573
0.9982 0.958215 1.04232 0.999429
1.02062 0.993322 1.02848 0.999032
1.02419 0.973957 1.05211 0.999487
0.993503 0.966825 1.02829 0.999318
1.01126 0.992929 1.01974 0.998746
1.02429 0.999311 1.02629 0.998748
1.0012 1.00008 1.00348 0.997646
1.03063 1.00139 1.03383 0.995523
0.991729 1.00107 0.993196 0.997453
1.00893 1.00301 1.01095 0.995008
1.00826 1.00439 1.00985 0.994065
1.01627 1.02007 1.00191 0.994379
1.01598 1.01989 1.00108 0.995095
1.00866 1.01094 1.00312 0.994641
1.00357 1.00677 1.00169 0.995144
1.01704 1.02025 1.0011 0.995762
1.02696 1.03107 1.00048 0.995535
1.01306 1.01154 1.00497 0.996548
1.02371 1.02476 1.00274 0.996251
1.02126 1.02452 1.00117 0.995649
1.01973 1.00328 1.01901 0.997443
1.01435 1.00694 1.01023 0.997153
1.01785 1.01703 1.0039 0.996916
1.01675 1.00014 1.01824 0.998399
1.01915 1 1.0215 0.9977
1.01598 1.00074 1.01783 0.997446
1.01308 1.00005 1.01513 0.997929
1.00831 1 1.00966 0.998661
1.0006 1 1.00084 0.999758
1.00401 1 1.0051 0.998914
0.999939 1 1.00009 0.999844
1 1 1 1
0.999891 1 1 0.999891
1 1 1 1
1 1 1 1
1.00061 1 1.00252 0.998104
1.00098 1 1.00192 0.999062
1.00097 1 1.00277 0.998214
0.999954 1 1 0.999954
0.999827 1 1.00064 0.99919
1.00018 1 1.00176 0.998421
1 1 1 1
0.999989 1 1 0.999989
0.999339 1 1 0.999339
1 1 1 1
0.999999 1 1 0.999999
1 1 1 1
0.69429 0.865311 0.885356 0.906256
0.664766 0.828923 0.886039 0.905111
0.674932 0.851511 0.883923 0.896717
1.02347 1 1.02592 0.997614
1.00717 1.00099 1.00846 0.997731
1.00025 1 1.00235 0.997911
1.00596 1 1.00826 0.997722
0.999548 1 1.00162 0.997935
1.00634 1 1.00849 0.99787
0.997038 0.998893 1 0.998143
0.655028 0.849215 0.865508 0.891191
0.700754 0.885507 0.880909 0.898345
0.649777 0.832271 0.871666 0.895673
0.68741 0.897667 0.861861 0.888512
0.807817 0.909276 0.91137 0.974816
0.784723 0.861578 0.955863 0.952853
0.746249 0.870926 0.929718 0.921619
0.809508 0.898561 0.92523 0.973697
0.822441 0.872071 0.994033 0.94875
0.797159 0.913335 0.948258 0.920425
0.644913 0.855262 0.850015 0.887106
0.859821 0.90235 0.974979 0.977322
0.84401 0.886653 1.00349 0.948596
0.725463 0.857654 0.927857 0.911637
0.5683 0.778099 0.833814 0.87594
1.04919 0.997508 1.05352 0.998375
1.00191 0.999501 1.00443 0.997992
1.00293 1 1.00534 0.9976
0.999135 1 1.00146 0.997676
0.933285 0.932036 1.00447 0.99688
0.985579 0.936011 1.05403 0.998984
1.01425 0.997714 1.01851 0.998101
1.03191 0.990275 1.04384 0.998285
1.0467 0.971465 1.07872 0.998821
1.0301 0.993019 1.03899 0.99842
1.03873 0.958671 1.08484 0.998779
0.943146 0.926307 1.02415 0.994172
1.01012 0.94807 1.06631 0.999201
1.01281 0.967278 1.04822 0.998906
0.934938 0.913418 1.03091 0.992869
0.983436 0.930674 1.0575 0.999232
0.658437 0.820351 0.885453 0.906461
0.71159 0.875903 0.892234 0.910532
0.666576 0.827513 0.88878 0.906318
0.97461 0.937792 1.03946 0.999805
0.926085 0.924385 1.01102 0.990921
0.689596 0.8559 0.886748 0.908598
0.872786 0.912491 1.00733 0.949528
0.742353 0.865857 0.931271 0.920636
0.656445 0.838947 0.8728 0.896498
0.545755 0.740755 0.838978 0.878157
1.00495 0.945336 1.06521 0.997978
0.665974 0.832542 0.88318 0.905737
0.637812 0.82703 0.869394 0.887065
0.886755 0.903869 0.996832 0.984182
0.49774 0.684129 0.828895 0.877738
0.631549 0.771013 0.899109 0.911031
0.825386 0.8773 0.990792 0.949568
0.987079 0.944816 1.04982 0.995155
0.680151 0.861968 0.879735 0.896938
0.535257 0.706852 0.860904 0.879587
0.583843 0.751342 0.841491 0.923441
0.766283 0.83976 0.954492 0.95601
0.83379 0.877318 0.973721 0.976035
1.03378 0.969942 1.06626 0.99959
1.00329 0.956702 1.04928 0.999443
0.98239 0.965458 1.01837 0.999185
0.998699 0.963839 1.03679 0.999402
1.01238 0.980517 1.03367 0.998865
1.0208 1.0008 1.02249 0.997556
0.997876 1.00182 0.998748 0.997316
1.03041 1.00166 1.03354 0.995322
1.01756 1.00339 1.01987 0.994369
1.01034 1.00283 1.01245 0.995093
1.00962 1.00469 1.01101 0.993968
1.00577 1.0074 1.00448 0.993932
1.05266 1.05866 0.999552 0.99477
1.03097 1.03561 1.00077 0.994757
1.01624 1.01982 1.00218 0.994322
1.01798 1.02255 1.00013 0.99541
1.01381 1.01798 1.00074 0.99516
1.00861 1.0105 1.00357 0.994582
1.02054 1.02299 1.00184 0.995771
1.0174 1.02065 1.00108 0.995736
1.02803 1.0321 1.00043 0.995632
1.01161 1.00619 1.00844 0.99698
1.01342 1.0107 1.00604 0.996678
1.02427 1.02506 1.00289 0.996344
1.01813 1.00282 1.01721 0.998084
1.01831 1.00419 1.01665 0.99745
1.01476 1.00807 1.00953 0.997137
1.00394 1 1.00431 0.999629
1.01599 1.00037 1.01725 0.998398
1.01724 1 1.01959 0.997698
1.0075 1 1.00885 0.998658
1.00141 1 1.00167 0.999745
1 1 1 1
1.00004 1 1.00021 0.999833
1 1 1 1
1 1 1 1
1.01703 1.00043 1.019 0.997635
1.01103 1 1.01319 0.997868
1.00098 1 1.00215 0.998834
1.00228 1 1.00419 0.998099
0.999911 1 1 0.999911
1.00089 1 1.00183 0.999064
1.00243 1 1.0042 0.998241
1 1 1 1
0.999964 1 1 0.999964
0.999503 1 1.00026 0.999243
1 1 1 1
0.999993 1 1 0.999993
1 1 1 1
0.659402 0.828558 0.882693 0.901607
0.68838 0.86006 0.882395 0.907061
0.664421 0.832527 0.881692 0.905166
1.02509 1 1.02755 0.997602
1.01059 1.00081 1.01204 0.997763
0.998001 1.00131 0.999192 0.9975
1.0273 0.99993 1.02969 0.997747
1.00835 1.00242 1.00813 0.99781
1.008 1 1.01032 0.997697
0.999947 1 1.00198 0.997969
1.00741 0.999584 1.00997 0.997877
0.998416 0.99989 1.00032 0.998205
1.02698 0.999443 1.02937 0.998233
0.620255 0.814851 0.85777 0.887403
0.651561 0.841317 0.868556 0.891656
0.698499 0.884743 0.876794 0.900433
0.641779 0.853248 0.847243 0.887774
0.791744 0.916752 0.944566 0.914325
0.804346 0.891732 0.928086 0.971897
0.823928 0.871582 0.989738 0.955126
0.850292 0.906596 0.963991 0.97293
0.847382 0.900676 0.984748 0.9554
0.742089 0.855522 0.94682 0.916131
0.575644 0.791375 0.831871 0.874412
0.876696 0.903973 0.993873 0.975805
0.826896 0.864088 1.00075 0.956242
0.634042 0.761398 0.902634 0.92256
0.520902 0.698385 0.843885 0.883849
1.03876 0.99867 1.04126 0.998928
1.05044 0.996656 1.05567 0.998382
1.00703 1 1.00902 0.99803
0.940635 0.924678 1.02542 0.992035
1.01273 0.945027 1.07236 0.999334
1.03097 0.99632 1.03642 0.998422
1.05302 0.957141 1.10153 0.998767
1.01817 0.973014 1.04754 0.998912
0.989193 0.940055 1.05306 0.999251
0.932152 0.912336 1.02902 0.992907
1.006 0.980337 1.02685 0.999345
0.952207 0.938394 1.02045 0.994386
0.680849 0.850994 0.886815 0.902177
0.669813 0.829856 0.890174 0.906726
0.704914 0.869696 0.887505 0.913268
1.00887 0.956648 1.05648 0.998208
0.882097 0.905085 0.995635 0.978873
0.675782 0.841368 0.886711 0.905813
0.829443 0.877505 0.992411 0.952457
0.638314 0.759085 0.91287 0.921159
0.628063 0.824256 0.859037 0.887011
0.510566 0.710287 0.824633 0.87168
0.983915 0.943381 1.04765 0.99553
0.676874 0.854777 0.882871 0.896928
0.535428 0.712252 0.855916 0.878286
0.847902 0.892722 0.971224 0.977935
0.597771 0.758596 0.855459 0.921138
0.760182 0.852454 0.936901 0.951816
0.927672 0.925379 1.00934 0.993205
0.549958 0.71983 0.863774 0.884504
0.617932 0.777162 0.859445 0.925148
0.745763 0.869846 0.900742 0.951826
0.805092 0.884848 0.929536 0.978839
1.00775 0.957857 1.05265 0.999461
0.985075 0.955648 1.03167 0.999153
0.997378 0.986714 1.01244 0.998384
1.01332 0.966471 1.04955 0.998979
1.01297 0.998937 1.01644 0.997655
0.991432 1.00443 0.990624 0.996405
1.02963 1.0016 1.03303 0.995115
1.01616 1.00472 1.01711 0.994362
1.0038 1.00803 1.00088 0.994922
1.01046 1.00487 1.01176 0.993871
1.00509 1.00746 1.0037 0.993974
1.04215 1.05166 0.995888 0.995054
1.07516 1.08763 0.992857 0.995641
1.06665 1.07213 1.00002 0.994873
1.05346 1.05974 0.999261 0.994804
1.04113 1.04631 1 0.995058
1.02954 1.03392 1.00107 0.994695
1.01679 1.02017 1.00244 0.994265
1.036 1.04069 1.00003 0.995467
1.01572 1.02031 1.00002 0.995478
1.01148 1.01601 1.00032 0.995224
1.01965 1.01686 1.00651 0.996264
1.0174 1.01883 1.00276 0.995855
1.01862 1.02189 1.0011 0.995709
1.01927 1.00416 1.01745 0.997633
1.01617 1.00804 1.01113 0.996974
1.01441 1.01061 1.00698 0.996807
1.00624 1 1.00676 0.99949
1.01957 1.00377 1.01769 0.998083
1.01823 1.00513 1.01562 0.997457
0.9999 1 1 0.9999
1.00534 1 1.00573 0.999612
1.01579 1.00046 1.01695 0.998398
1.00237 1 1.00264 0.999731
1 1 1 1
1 1 1 1
1.01085 1.00325 1.01017 0.997439
1.01692 1.00037 1.01896 0.997635
1.01986 1.00018 1.02212 0.997608
1.00475 1 1.00616 0.998597
1.00935 1.00018 1.01133 0.997863
1.00021 1 1.00035 0.999856
1.00192 1 1.00309 0.998838
1.00325 1 1.00516 0.998093
1 1 1 1
0.999924 1 1 0.999924
1.00044 1 1.00137 0.999065
1 1 1 1
0.999974 1 1 0.999974
1 1 1 1
0.664863 0.836895 0.880982 0.901767
0.663344 0.832924 0.88324 0.901685
0.689063 0.852172 0.890683 0.907838
1.00971 1.00439 1.0081 0.997219
1.02261 1 1.02508 0.997591
1.00782 1 1.01004 0.997799
1.02129 1 1.02367 0.997676
1.00078 1.00349 0.999778 0.99752
1.00288 1.00112 1.00374 0.998032
1.01702 1.00309 1.01695 0.996988
1.02048 0.99188 1.03082 0.998072
1.00751 0.999219 1.01043 0.997885
0.998267 1 1 0.998267
1.02871 0.997642 1.03299 0.998218
1.04637 1.00092 1.047 0.998474
0.556443 0.723584 0.870565 0.883346
0.637519 0.832792 0.863085 0.886958
0.651197 0.837854 0.87131 0.892014
0.584247 0.795626 0.832816 0.881735
0.731397 0.84862 0.942545 0.914404
0.849016 0.892956 1.00218 0.948728
0.855584 0.906107 0.969702 0.973745
0.872296 0.900231 0.990557 0.978205
0.516368 0.702503 0.837387 0.877779
0.819347 0.870887 0.989607 0.9507
0.63515 0.769463 0.902694 0.914425
0.871655 0.907672 0.979236 0.980683
0.78587 0.859434 0.954109 0.958386
0.583986 0.74876 0.845649 0.922294
0.985621 1.00097 0.98511 0.999548
1.0412 0.999156 1.04319 0.998934
1.04935 0.995811 1.05547 0.998386
0.936728 0.916263 1.02958 0.992959
0.996887 0.952282 1.0476 0.999273
1.02635 0.98295 1.04528 0.998919
1.00228 0.977103 1.02643 0.999352
0.948414 0.938248 1.01647 0.994451
0.973266 0.972665 1.00413 0.9965
0.58273 0.738291 0.885556 0.8913
0.676868 0.847843 0.882986 0.904138
0.674985 0.837579 0.888587 0.90692
0.982547 0.940981 1.04864 0.99574
0.842552 0.890189 0.966955 0.978833
0.672048 0.84601 0.885527 0.897063
0.77729 0.851569 0.9591 0.951699
0.590246 0.765678 0.843597 0.913802
0.556574 0.736068 0.854917 0.884466
0.927087 0.919145 1.01551 0.993233
0.562952 0.723132 0.873807 0.89092
0.600082 0.770229 0.849799 0.9168
0.803855 0.892038 0.924961 0.974251
0.774061 0.8909 0.906382 0.958595
0.92121 0.942741 0.980217 0.996883
0.644391 0.790089 0.892255 0.91408
0.838182 0.956069 0.911961 0.961331
0.797688 0.905267 0.904846 0.973826
0.988945 0.948574 1.04347 0.999128
0.983351 0.98576 0.999093 0.998461
0.987885 1.00029 0.990292 0.997281
1.00507 0.997559 1.0098 0.997754
0.993902 1.00434 0.993223 0.99636
0.995959 1.01017 0.989665 0.99623
1.0157 1.00662 1.01476 0.994354
1.00371 1.0078 1.00103 0.994917
1.03505 1.05248 0.987293 0.996092
1.00466 1.0075 1.00319 0.994016
1.04086 1.05071 0.99555 0.995059
1.07039 1.09006 0.985586 0.996319
1.06615 1.08447 0.986597 0.99646
1.07836 1.08771 0.99583 0.995553
1.07738 1.08976 0.992923 0.995692
1.07387 1.07914 1 0.995108
1.06428 1.06967 1 0.994955
1.05319 1.05976 0.99896 0.994839
1.05992 1.06494 1 0.995286
1.04143 1.04644 1.00014 0.995075
1.02772 1.03174 1.00148 0.994633
1.04092 1.04338 1.00194 0.995716
1.03312 1.03767 1.00015 0.995464
1.0138 1.01833 1 0.995546
1.01432 1.00789 1.0093 0.997111
1.02262 1.0199 1.00644 0.996253
1.01344 1.01368 1.00383 0.995941
1.00569 1 1.00653 0.99917
1.0182 1.00621 1.01433 0.997625
1.01887 1.00975 1.01211 0.996967
1 1 1 1
1.00613 1 1.00675 0.999381
1.02031 1.00476 1.01743 0.998083
1 1 1 1
1.00646 1 1.00689 0.999574
1 1 1 1
1.00928 1.0087 1.00348 0.997105
1.00908 1.00297 1.00873 0.997382
1.01734 1.00183 1.01806 0.997467
1.01143 1 1.01307 0.998377
1.01923 1.00025 1.0214 0.997632
1.02547 1 1.02795 0.997581
1.00144 1 1.00167 0.999771
1.00416 1 1.00556 0.998603
1.00772 1 1.00989 0.997856
1 1 1 1
1.00015 1 1.00029 0.999869
1.00253 1 1.00369 0.998842
1 1 1 1
0.999937 1 1 0.999937
1 1 1 1
0.561882 0.728798 0.873542 0.88258
0.669439 0.843235 0.880278 0.901866
0.667485 0.838208 0.883053 0.901785
1.01622 1.00309 1.01594 0.997191
1.03059 1.01231 1.02139 0.996745
1.03352 1.00233 1.03412 0.997101
1.02183 1 1.02429 0.997602
1.00329 1.00654 0.999224 0.997542
1.0002 0.999015 1.00294 0.998246
1.02234 0.996665 1.02785 0.997969
1.01902 1.00298 1.01887 0.997182
1.01926 0.998874 1.02306 0.997408
0.971327 1.00022 0.972123 0.998965
1.03007 0.998843 1.03312 0.998202
1.04124 0.999537 1.04336 0.998437
0.60833 0.771129 0.864398 0.912638
0.528892 0.69583 0.864741 0.878979
0.65036 0.844388 0.868462 0.886872
0.512211 0.70771 0.830497 0.871475
0.645545 0.779823 0.897278 0.922579
0.807497 0.865452 0.980033 0.952044
0.86693 0.893867 0.994744 0.974989
0.857081 0.89848 0.975841 0.977539
0.602463 0.758314 0.863251 0.92033
0.766968 0.855967 0.941078 0.952127
0.835409 0.906054 0.940908 0.979936
0.74712 0.893403 0.877594 0.952905
0.993948 1 0.994862 0.999081
0.985852 1.00075 0.985623 0.999486
1.04204 0.998259 1.04496 0.998939
0.93635 0.930118 1.01223 0.994542
0.995732 0.970916 1.02622 0.999359
0.975734 0.975979 1.0033 0.996462
0.954751 0.983487 0.975542 0.995121
0.672125 0.801721 0.90868 0.922605
0.576985 0.73715 0.878612 0.890863
0.680266 0.849699 0.883686 0.905974
0.929507 0.927011 1.00927 0.993487
0.808214 0.891651 0.930024 0.974625
0.564317 0.722448 0.876866 0.890808
0.743831 0.882177 0.885353 0.952364
0.612378 0.763493 0.867134 0.924972
0.918968 0.946301 0.97586 0.995139
0.657977 0.800281 0.893934 0.919734
0.81011 0.943435 0.900637 0.953417
0.801003 0.904186 0.906868 0.97686
0.924179 0.970522 0.955613 0.996479
0.869698 0.974455 0.929249 0.96045
0.856245 0.955062 0.913869 0.981031
0.968674 0.98302 0.98687 0.998517
0.98285 1.00036 0.985218 0.997242
0.97358 1.00912 0.967675 0.997009
0.995907 1.0039 0.995702 0.996317
0.995277 1.00945 0.989707 0.996217
1.01489 1.05555 0.964473 0.996903
1.00305 1.00711 1.00106 0.994914
1.03137 1.05028 0.985885 0.996062
1.049 1.08855 0.966631 0.996939
1.04002 1.0502 0.995225 0.995064
1.06892 1.08958 0.984681 0.996306
1.05615 1.08523 0.976176 0.996957
1.06354 1.08483 0.983476 0.996844
1.06597 1.08491 0.985949 0.996538
1.06867 1.08193 0.991405 0.99631
1.0824 1.08915 0.998177 0.995618
1.07928 1.08793 0.996444 0.995588
1.0802 1.09251 0.992961 0.995744
1.07955 1.08465 1 0.995291
1.07515 1.0804 1 0.995132
1.06249 1.06779 1 0.995038
1.06085 1.06567 1 0.995475
1.06161 1.06664 1 0.995284
1.04174 1.0467 1.00017 0.995092
1.01561 1.01803 1.00102 0.996613
1.04095 1.04402 1.00134 0.995725
1.02991 1.03433 1.00026 0.99546
1.00489 1.00006 1.00605 0.99879
1.01687 1.01067 1.00905 0.997104
1.02716 1.02397 1.0069 0.996243
1 1 1 1
1.00595 1 1.00681 0.999146
1.01873 1.00833 1.01273 0.997617
0.999921 1 1 0.999921
1.00665 1 1.00728 0.999379
1 1 1 1
1.02043 1.01584 1.0078 0.996739
1.00834 1.00436 1.00686 0.997114
1.01009 1.0041 1.0087 0.997287
1.00629 1.00258 1.0064 0.997325
1.01635 1.00127 1.01763 0.997472
1.01718 1 1.01907 0.998148
1.00293 1 1.00328 0.999644
1.01044 1 1.01208 0.998376
1.01967 1 1.02209 0.99763
1 1 1 1
1.00058 1 1.00079 0.999788
1.00348 1 1.00488 0.998609
1 1 1 1
0.999885 1 1 0.999885
1 1 1 1
0.644723 0.792029 0.885206 0.919577
0.564367 0.729275 0.874493 0.88494
0.67089 0.846338 0.87883 0.901993
1.02114 1.00176 1.02224 0.997163
1.04167 1.00195 1.04297 0.996807
1.02467 1.01099 1.01681 0.996775
1.01659 1.01843 1.00242 0.995795
1.0314 1.00405 1.03003 0.997285
1.02031 0.999899 1.02258 0.997872
1.02016 1.00327 1.01951 0.997376
1.02016 1.00072 1.02194 0.997532
0.996481 1.00877 0.990709 0.997086
0.961586 1.00122 0.961909 0.998441
0.969061 1.00078 0.970596 0.997643
0.977526 1.00087 0.977674 0.998984
1.03542 0.998491 1.03865 0.998402
0.812337 0.940093 0.901651 0.958357
0.603292 0.767959 0.858312 0.915259
0.517126 0.68369 0.857943 0.881614
0.598107 0.766615 0.854289 0.913265
0.77182 0.859041 0.940971 0.95483
0.866753 0.89951 0.982548 0.9807
0.832212 0.902337 0.938978 0.982221
0.780254 0.894678 0.908332 0.960117
0.847629 0.950702 0.908707 0.981154
0.987736 1.00058 0.988906 0.99824
0.995355 0.999507 0.996791 0.999052
0.98627 1.00037 0.986468 0.999425
0.980815 0.981251 1.00307 0.996498
0.964327 0.986786 0.98124 0.995924
0.86075 0.964466 0.933371 0.956171
0.668102 0.79954 0.904285 0.924054
0.569819 0.733572 0.872292 0.890496
0.922806 0.955145 0.97269 0.993268
0.805548 0.915002 0.903752 0.974138
0.646398 0.794017 0.886219 0.918606
0.815823 0.939354 0.90419 0.960521
0.933626 0.972383 0.963425 0.996593
0.876549 0.981477 0.930022 0.960291
0.853114 0.951788 0.916682 0.977795
0.929397 0.999342 0.93387 0.995865
0.899786 0.987602 0.923176 0.9869
0.980727 1.00215 0.981342 0.997233
0.967644 1.00902 0.961915 0.996966
0.972506 1.04418 0.933874 0.997309
0.994317 1.00883 0.989374 0.996202
1.01851 1.05764 0.966032 0.996866
1.0377 1.09275 0.952226 0.99726
1.02777 1.04808 0.984527 0.996033
1.04908 1.08813 0.967099 0.99691
1.04617 1.08796 0.96431 0.997176
1.06694 1.08857 0.983781 0.996293
1.05586 1.08452 0.976573 0.996934
1.05948 1.08953 0.975324 0.997028
1.06134 1.08359 0.982512 0.996901
1.06507 1.08479 0.985118 0.996652
1.06552 1.08501 0.985372 0.996615
1.06797 1.08174 0.990942 0.996302
1.07073 1.0802 0.995152 0.996064
1.08224 1.08755 0.999561 0.995555
1.08301 1.08935 0.998565 0.995606
1.08008 1.08803 0.997061 0.995623
1.07365 1.07862 1 0.995391
1.0817 1.08683 1 0.995279
1.07633 1.08157 1 0.995156
1.02925 1.03261 1.00052 0.996229
1.0601 1.06491 1 0.995483
1.06354 1.06858 1 0.995282
1.00188 1.00073 1.0028 0.998361
1.01859 1.02051 1.00151 0.996619
1.04091 1.04423 1.0011 0.995733
1 1 1 1
1.0043 1.00013 1.00542 0.998761
1.01792 1.01309 1.0077 0.997097
1 1 1 1
1.00552 1 1.0064 0.999123
1 1 1 1
1.02933 1.03275 1.00086 0.995833
1.01926 1.01815 1.00437 0.996731
1.01212 1.00737 1.00787 0.99687
1.00833 1.00045 1.01079 0.997124
1.00953 1.00251 1.00979 0.997237
1.01626 1.00251 1.01594 0.997811
1.01825 1.00096 1.01985 0.997477
1.01849 1 1.02039 0.998141
1.00753 1 1.00808 0.999447
1 1 1 1
1.00302 1 1.00336 0.999659
1.0119 1 1.01355 0.998376
1 1 1 1
1.00064 1 1.00083 0.999801
1 1 1 1
0.867306 0.971737 0.927211 0.962598
0.659393 0.802062 0.892981 0.920649
0.558305 0.727086 0.870858 0.881736
1.05184 1.00153 1.05391 0.996512
1.01938 1.01124 1.01129 0.996805
1.02738 1.00518 1.02505 0.997099
1.01557 1.01748 1.00224 0.995893
1.03888 1.04329 1.00016 0.995609
1.00145 1.01239 0.992413 0.996748
1.02399 1.00302 1.02332 0.997652
0.997839 1.01027 0.990809 0.996854
0.970235 1.00211 0.969721 0.998422
0.998957 1.00674 0.995165 0.997086
0.972511 1.00345 0.97155 0.997548
0.991469 1.00169 0.99267 0.997104
0.967768 1.00102 0.96897 0.997744
0.984095 0.999835 0.985239 0.999004
0.859535 0.962996 0.909839 0.981012
0.816325 0.948442 0.899133 0.957257
0.619938 0.768252 0.873582 0.923721
0.751013 0.882395 0.893886 0.952144
0.844121 0.904647 0.948858 0.983386
0.854196 0.93933 0.922254 0.986028
0.952114 1.00348 0.952463 0.99617
0.984654 0.999998 0.986499 0.998132
0.996249 0.998793 0.998428 0.999024
0.971459 0.989404 0.985101 0.996712
0.889321 0.973411 0.930623 0.981722
0.870007 0.970375 0.930182 0.963863
0.65766 0.794077 0.903761 0.916401
0.931851 0.967714 0.966099 0.996732
0.852722 0.953033 0.913345 0.979636
0.872047 0.982627 0.924562 0.959876
0.928423 0.997532 0.934439 0.99602
0.903977 0.985017 0.930916 0.985832
0.942215 1.02551 0.922083 0.996411
0.952581 1.02538 0.933999 0.994649
0.961107 1.00894 0.955537 0.996916
0.970055 1.04091 0.934438 0.997313
1.00657 1.08772 0.927965 0.997233
1.02287 1.06025 0.967818 0.99683
1.03762 1.09228 0.952594 0.997235
1.0551 1.09812 0.963602 0.997125
1.04942 1.08805 0.967513 0.99688
1.04754 1.08782 0.965717 0.997156
1.0659 1.09857 0.973193 0.996983
1.05578 1.08409 0.976898 0.996912
1.05809 1.08737 0.975979 0.997023
1.0658 1.0907 0.980359 0.996756
1.05932 1.08258 0.981498 0.996957
1.06451 1.0846 0.984734 0.996697
1.06992 1.08398 0.990672 0.996325
1.06734 1.08162 0.990465 0.996294
1.07133 1.08078 0.995188 0.996054
1.07705 1.08349 0.998196 0.995849
1.0756 1.08048 1 0.995486
1.08309 1.08828 0.999713 0.995519
1.08359 1.08949 0.998991 0.995594
1.04632 1.05048 1 0.996042
1.07222 1.07718 1 0.995399
1.08401 1.08917 1 0.995266
1.00351 1.00469 1.00076 0.99806
1.02908 1.03225 1.0007 0.99623
1.0584 1.0632 1 0.99549
1 1 1 1
1.00219 1.00172 1.00213 0.998335
1.02168 1.02306 1.00204 0.996625
1 1 1 1
1.00405 1.00019 1.00514 0.998734
1 1 1 1
1.05071 1.05542 1 0.99554
1.02961 1.03339 1.00049 0.995857
1.02966 1.03094 1.0026 0.996164
1.01846 1.0196 1.00217 0.996723
1.01425 1.01107 1.00637 0.996791
1.01682 1.01128 1.00813 0.997366
1.00809 1.00003 1.0109 0.997187
1.0152 1.00177 1.01563 0.997814
1.00738 1 1.00819 0.999189
1.01674 1 1.01863 0.998136
1.00564 1 1.00618 0.999459
1 1 1 1
1 1 1 1
1.00169 1 1.00202 0.999675
1 1 1 1
0.884018 0.963768 0.933624 0.982465
0.858861 0.967934 0.928794 0.95534
0.665633 0.794683 0.904986 0.925549
1.06557 1.07036 0.999886 0.995634
1.02218 1.00562 1.01961 0.996917
1.01502 1.01699 1.00208 0.995991
1.0024 1.01346 0.992295 0.99676
1.03893 1.0431 1.00041 0.995593
1.02511 1.02947 0.999073 0.996691
1.00085 1.01193 0.992396 0.996623
0.976811 1.00207 0.976356 0.998401
0.997427 1.00844 0.991953 0.997101
0.964384 1.00274 0.964252 0.9974
1.02327 1.0247 1.00227 0.996347
0.973673 1.00779 0.968844 0.997212
0.990727 1.00227 0.991359 0.997101
0.967917 1.00134 0.968715 0.997843
0.937895 1.00516 0.936066 0.996814
0.847018 0.95472 0.905995 0.979245
0.819055 0.953724 0.897946 0.956401
0.8521 0.932757 0.92882 0.983537
0.954605 1.00339 0.953839 0.997422
0.982525 0.999948 0.984536 0.99801
0.960394 1.01422 0.95354 0.993064
0.886568 0.959084 0.940408 0.982968
0.862176 0.97049 0.928945 0.956346
0.932724 0.996618 0.939492 0.996166
0.911455 0.987649 0.937269 0.98462
0.944691 1.02745 0.922563 0.996633
0.959811 1.0258 0.94031 0.995061
0.990631 1.05871 0.938543 0.996969
1.05598 1.11463 0.950323 0.996906
0.966402 1.03695 0.934475 0.997316
1.01294 1.08937 0.932432 0.997214
1.05069 1.11366 0.946322 0.996977
1.03738 1.09141 0.953158 0.997209
1.05144 1.0958 0.962293 0.997122
1.06822 1.10857 0.966635 0.996865
1.04877 1.08746 0.967187 0.997137
1.06327 1.09648 0.972635 0.996997
1.06998 1.09577 0.97969 0.996708
1.05669 1.08513 0.976706 0.997018
1.06641 1.09125 0.980416 0.996753
1.06975 1.08833 0.986432 0.996452
1.06388 1.08432 0.984357 0.996743
1.06944 1.08401 0.99015 0.99637
1.0785 1.08705 0.996081 0.996039
1.07192 1.08138 0.995187 0.996045
1.0771 1.08328 0.998437 0.99585
1.07685 1.08159 1 0.995618
1.0535 1.05772 1 0.996011
1.07485 1.07973 1 0.995472
1.08388 1.08894 0.999866 0.995484
1.0129 1.01498 1 0.997954
1.04412 1.04826 1 0.996042
1.07121 1.07615 1 0.995406
1 1 1 1
1.0065 1.00814 1.00033 0.998042
1.02988 1.03324 1.00052 0.99623
1 1 1 1
1.00262 1.00312 1.00119 0.998309
1 1 1 1
1.0674 1.0723 1 0.995431
1.04909 1.05379 1 0.995532
1.05568 1.06019 1 0.99575
1.02917 1.03316 1.00026 0.995881
1.03475 1.03586 1.00281 0.996127
1.02585 1.02506 1.00385 0.996938
1.01566 1.0148 1.00415 0.996711
1.01327 1.00718 1.00871 0.997371
1.00427 1.00004 1.00533 0.998909
1.01579 1.00061 1.0174 0.997813
1.00715 1.00002 1.00794 0.999204
1 1 1 1
1.00506 1 1.00559 0.999471
1 1 1 1
1 1 1 1
0.940977 1.01035 0.934867 0.996221
0.873939 0.963339 0.926883 0.978762
0.858018 0.967264 0.921192 0.962945
1.06255 1.06724 0.999351 0.996247
1.0715 1.08169 0.994624 0.995933
1.06476 1.06961 0.999729 0.995733
1.00342 1.01483 0.991959 0.99677
1.03874 1.04261 1.00071 0.995576
1.02823 1.03343 0.998281 0.996682
1.05073 1.06949 0.986147 0.996263
0.99675 1.01017 0.989573 0.997117
0.959019 1.00242 0.959338 0.997252
1.02694 1.02842 1.00206 0.996508
1.02536 1.06099 0.970025 0.996284
0.980277 1.03128 0.95309 0.997323
0.985391 1.01125 0.97723 0.997136
0.993815 1.00275 0.993975 0.997097
0.935813 1.00609 0.932775 0.997189
0.856231 0.959245 0.913167 0.977488
0.95539 1.0021 0.954608 0.998721
1.03832 1.08288 0.961366 0.997385
0.955786 1.01309 0.949865 0.993233
0.887423 0.965014 0.937898 0.980486
0.947408 1.02978 0.922931 0.996837
0.965074 1.02627 0.944619 0.995499
0.984531 1.05881 0.93248 0.99718
1.05236 1.11313 0.948306 0.996942
1.05872 1.12776 0.941662 0.996941
1.10546 1.15557 0.959411 0.997116
1.01939 1.09212 0.936027 0.997196
1.05659 1.11704 0.94875 0.996977
1.07021 1.11855 0.959859 0.996797
1.04747 1.09354 0.960643 0.997119
1.06829 1.10812 0.967085 0.996867
1.06862 1.10119 0.973657 0.996682
1.06061 1.09441 0.972027 0.997011
1.07103 1.09675 0.979776 0.996704
1.07151 1.09142 0.985233 0.996467
1.06704 1.09184 0.980468 0.996751
1.07036 1.0889 0.986479 0.996449
1.07861 1.0904 0.993037 0.996124
1.06894 1.08403 0.989622 0.996415
1.07755 1.08647 0.995723 0.996048
1.08154 1.08625 0.99996 0.995704
1.07715 1.08304 0.998701 0.995851
1.0766 1.08132 1 0.995632
1.05412 1.05833 1 0.99602
1.019 1.02108 1 0.997968
1.05368 1.0579 1 0.996013
1.07439 1.07929 1 0.995458
1 1 1 1
1.01435 1.01637 1.00007 0.997946
1.04111 1.04497 1.00027 0.996042
1 1 1 1
1.00862 1.01043 1.00019 0.998024
1 1 1 1
1.07481 1.08055 0.999049 0.995631
1.06664 1.07151 1 0.995453
1.0687 1.07346 1 0.995574
1.04755 1.05226 1 0.995523
1.0568 1.06131 1 0.995747
1.03035 1.03278 1.00109 0.99656
1.04059 1.04159 1.00296 0.996091
1.02102 1.02026 1.00381 0.99694
1.00206 1.00107 1.00244 0.998551
1.01029 1.00421 1.0087 0.997379
1.00486 1.00006 1.00588 0.998929
1 1 1 1
1.00644 1 1.00723 0.99922
1 1 1 1
1 1 1 1
0.985351 1.05747 0.934 0.997642
0.941791 1.00876 0.938404 0.994893
0.876759 0.96698 0.925453 0.979733
1.06421 1.0803 0.988884 0.99618
1.06096 1.066 0.998795 0.996469
1.07773 1.09446 0.988554 0.99612
1.07082 1.08238 0.993379 0.995912
1.06367 1.06863 0.999527 0.995833
1.0718 1.10405 0.9746 0.99609
1.03146 1.03748 0.997517 0.996673
1.04871 1.06637 0.987185 0.996201
1.04875 1.10569 0.951908 0.996422
1.02522 1.03194 0.996805 0.996668
1.02573 1.06242 0.969167 0.996183
0.97451 1.03699 0.942226 0.997371
0.992807 1.01317 0.98279 0.997056
0.934048 1.00668 0.930176 0.997502
1.09099 1.14405 0.956344 0.997158
1.04432 1.08811 0.962243 0.997413
0.956885 1.01144 0.952335 0.993411
0.978652 1.05823 0.927227 0.997386
1.04928 1.11141 0.946962 0.996979
1.05116 1.12337 0.938575 0.996962
1.11332 1.1619 0.960962 0.997116
1.08685 1.13414 0.961191 0.996997
1.06232 1.11989 0.951464 0.996978
1.07086 1.1174 0.961416 0.996807
1.06931 1.10539 0.970521 0.996738
1.06847 1.10764 0.967662 0.996869
1.06934 1.10132 0.974214 0.996662
1.07086 1.09295 0.983258 0.996466
1.07211 1.09776 0.979871 0.996701
1.07199 1.0919 0.985255 0.996463
1.07725 1.09108 0.991105 0.996186
1.07099 1.08949 0.986526 0.996446
1.07886 1.09061 0.993078 0.996123
1.08628 1.09145 0.999486 0.99578
1.07661 1.08593 0.995343 0.996058
1.08158 1.08634 0.999912 0.99571
1.05477 1.059 1 0.996011
1.07615 1.08086 1 0.995646
1.05525 1.05947 1 0.996022
1.01917 1.02083 1 0.998378
0.999287 1 1 0.999287
1.01914 1.02104 1 0.998139
1.05354 1.05776 1 0.996015
1 1 1 1
1.0165 1.0186 1 0.997937
1 1 1 1
1.08228 1.09664 0.99062 0.996246
1.07653 1.08632 0.995037 0.995928
1.07403 1.08072 0.998145 0.995663
1.06788 1.07262 1 0.995582
1.06624 1.07109 1 0.995476
1.06662 1.07137 1 0.995563
1.03384 1.03746 1.00025 0.996266
1.05722 1.06174 1 0.995744
1.02998 1.03255 1.00095 0.996558
1.00537 1.00682 1.00038 0.998176
1.01557 1.01484 1.00379 0.996942
1.00267 1.00081 1.00329 0.998572
1 1 1 1
1.0053 1.00004 1.00632 0.998951
1 1 1 1
1 1 1 1
1.07705 1.13391 0.952822 0.996889
0.997774 1.06869 0.935864 0.997623
0.939582 1.00868 0.937499 0.993593
1.072 1.09621 0.981687 0.996158
1.06027 1.07657 0.988595 0.996222
1.05958 1.06485 0.998352 0.99669
1.07718 1.09244 0.989853 0.996135
1.07016 1.08293 0.992285 0.99589
1.07692 1.12081 0.964317 0.9964
1.06531 1.09848 0.973649 0.996047
1.04704 1.06368 0.988169 0.996139
1.04297 1.09919 0.952253 0.996424
1.03159 1.06616 0.97138 0.996081
0.970827 1.04668 0.929923 0.997428
1.0824 1.12277 0.966838 0.997107
1.09207 1.14453 0.956851 0.997196
1.04919 1.09391 0.961577 0.997443
1.0438 1.1197 0.935045 0.996978
1.12115 1.16893 0.961897 0.997118
1.08905 1.13656 0.96108 0.997001
1.07724 1.10652 0.976598 0.99687
1.07145 1.11619 0.962983 0.996817
1.07007 1.10525 0.971352 0.99672
1.07241 1.09426 0.983455 0.996522
1.07009 1.10148 0.974771 0.996642
1.07149 1.09354 0.983307 0.996465
1.07578 1.09027 0.990451 0.996222
1.0725 1.09239 0.985278 0.996458
1.07779 1.09157 0.991164 0.996183
1.08834 1.09427 0.99874 0.995836
1.07905 1.09075 0.993118 0.996123
1.08579 1.09104 0.999403 0.995784
1.05534 1.05961 1 0.995971
1.08166 1.08647 0.999863 0.995716
1.05594 1.06017 1 0.996015
1.01737 1.019 1 0.998405
1.05677 1.06099 1 0.996024
1.01866 1.02032 1 0.998371
0.999322 1 1 0.999322
0.999662 1 1 0.999662
1.01938 1.02109 1 0.998327
1 1 1 1
1.07331 1.09329 0.985408 0.996262
1.07943 1.08919 0.994966 0.996048
1.08045 1.0951 0.990205 0.996378
1.07743 1.0821 1 0.99568
1.0789 1.08813 0.995579 0.995924
1.07326 1.08093 0.997191 0.995695
1.06844 1.0732 1 0.99557
1.0497 1.05379 1 0.996123
1.06531 1.07007 1 0.995553
1.03866 1.04243 1.00012 0.996267
1.01467 1.0167 1 0.997999
1.0298 1.03279 1.00055 0.996557
1.00382 1.00459 1.00103 0.998201
1 1 1 1
1.00306 1.00039 1.00407 0.998594
1 1 1 1
1 1 1 1
1.07647 1.11769 0.966251 0.996766
1.06775 1.1236 0.953255 0.996892
1.00975 1.07733 0.939525 0.997598
1.07407 1.10358 0.976835 0.996337
1.06915 1.09381 0.981233 0.996153
1.05589 1.0725 0.988206 0.996266
1.07631 1.09033 0.990959 0.996149
1.0773 1.11981 0.965542 0.996374
1.05834 1.09215 0.972931 0.996003
1.03366 1.08782 0.953619 0.996425
1.08097 1.10931 0.977447 0.996936
1.08109 1.12074 0.967465 0.997063
1.09294 1.14416 0.95788 0.997234
1.07615 1.09886 0.982503 0.996779
1.091 1.13864 0.961038 0.997004
1.07685 1.10624 0.976505 0.996855
1.07486 1.09502 0.9849 0.996641
1.07084 1.10509 0.972212 0.996702
1.0727 1.09458 0.98343 0.996524
1.07568 1.0894 0.991118 0.996257
1.07207 1.09409 0.983357 0.996464
1.07609 1.09061 0.990429 0.996222
1.0882 1.09486 0.998025 0.995883
1.07833 1.09205 0.991222 0.996181
1.08733 1.09332 0.99868 0.995839
1.05517 1.05949 1 0.995929
1.08529 1.09062 0.999321 0.995789
1.0565 1.06077 1 0.995976
1.01556 1.0172 1 0.998385
1.0571 1.06133 1 0.996018
1.01678 1.01842 1 0.998389
0.999324 1 1 0.999324
1.01799 1.01966 1 0.998367
0.999342 1 1 0.999342
1 1 1 1
1.07256 1.09224 0.985751 0.996175
1.07766 1.09129 0.991407 0.996073
1.0753 1.09444 0.986195 0.996261
1.08483 1.08995 0.999519 0.995782
1.0794 1.09096 0.993274 0.996103
1.07884 1.09371 0.989864 0.99651
1.06042 1.06461 1 0.996065
1.07793 1.08262 1 0.995668
1.08166 1.09024 0.996199 0.99592
1.06905 1.07382 1 0.995559
1.05039 1.05448 1 0.996121
1.02105 1.02311 1 0.997986
1.04252 1.04643 1 0.996267
1.01162 1.0136 1.00003 0.998014
1 1 1 1
1.0024 1.00257 1.00161 0.998223
1 1 1 1
1 1 1 1
1.07591 1.10355 0.978222 0.996659
1.07767 1.11988 0.965455 0.996741
1.06039 1.11652 0.952681 0.996896
1.07362 1.10296 0.976963 0.996354
1.06625 1.09145 0.980696 0.996147
1.0785 1.11996 0.966509 0.996347
1.07862 1.10033 0.98344 0.996777
1.08103 1.10913 0.977665 0.996932
1.08034 1.11929 0.968086 0.997019
1.07652 1.09889 0.982789 0.996801
1.07335 1.09074 0.98741 0.996608
1.07645 1.10598 0.976384 0.99684
1.0753 1.09484 0.985495 0.996604
1.07441 1.08821 0.990936 0.996351
1.07301 1.09491 0.983407 0.996527
1.0756 1.08935 0.991089 0.996259
1.08696 1.09466 0.997049 0.995912
1.0765 1.09105 0.990406 0.996221
1.08745 1.0942 0.997941 0.995884
1.0543 1.05863 1 0.995914
1.08635 1.0924 0.998613 0.995842
1.05654 1.06086 1 0.995933
1.01337 1.01506 1 0.998338
1.0577 1.06197 1 0.99598
1.01489 1.01656 1 0.998362
0.999299 1 1 0.999299
1.01619 1.01784 1 0.998378
0.999357 1 1 0.999357
0.999354 1 1 0.999354
1.07385 1.09321 0.985789 0.996451
1.0782 1.09086 0.992334 0.996038
1.07196 1.09312 0.984384 0.9962
1.08535 1.09278 0.99733 0.995854
1.07831 1.09096 0.992315 0.996057
1.07728 1.09561 0.986962 0.99626
1.0593 1.06352 1 0.996034
1.08391 1.08981 0.998777 0.995801
1.07921 1.09264 0.991511 0.996159
1.02008 1.02211 1 0.99802
1.05855 1.06274 1 0.996063
1.0782 1.0829 1 0.995657
1.05098 1.05507 1 0.99612
1.01987 1.02192 1 0.997994
1 1 1 1
1.00882 1.01062 1.00018 0.998031
1 1 1 1
1 1 1 1
1.0747 1.09531 0.984457 0.996667
1.07597 1.10361 0.978229 0.996646
1.07804 1.12118 0.964694 0.996716
1.07358 1.10253 0.977288 0.996372
1.07391 1.08831 0.99017 0.996567
1.07873 1.10064 0.98325 0.996788
1.08113 1.10893 0.977932 0.996927
1.07692 1.09892 0.983098 0.996822
1.07339 1.09115 0.987062 0.996618
1.0749 1.08721 0.992307 0.996339
1.07578 1.09469 0.986111 0.996567
1.0754 1.08842 0.991703 0.9963
1.08521 1.09367 0.996255 0.995991
1.07554 1.08931 0.99106 0.996262
1.08635 1.09399 0.997092 0.995913
1.05259 1.05691 1 0.995909
1.08651 1.09332 0.997881 0.995885
1.05548 1.05981 1 0.995915
1.01022 1.0123 1 0.997949
1.05782 1.06213 1 0.995937
1.01236 1.01424 1 0.99815
1 1 1 1
1.01422 1.01591 1 0.998342
0.999338 1 1 0.999338
0.99938 1 1 0.99938
1.07338 1.08908 0.988994 0.99656
1.07613 1.08935 0.991648 0.996185
1.07435 1.0926 0.986805 0.996445
1.08529 1.09214 0.99787 0.995848
1.07745 1.09025 0.99219 0.996038
1.07138 1.09401 0.983029 0.996224
1.05622 1.06048 1 0.995981
1.08566 1.09261 0.997772 0.995854
1.07906 1.09067 0.99329 0.996041
1.0163 1.01828 1 0.998049
1.05776 1.06198 1 0.996023
1.08273 1.08938 0.998072 0.995821
1 1 1 1
1.02097 1.02298 1 0.998028
1.05672 1.0609 1 0.996061
1.01873 1.02077 1 0.998004
1 1 1 1
1 1 1 1
1.07251 1.08594 0.991029 0.996568
1.07573 1.0959 0.984874 0.996673
1.07589 1.10356 0.978217 0.996634
1.07547 1.08603 0.993967 0.996283
1.07302 1.08798 0.989638 0.996576
1.07881 1.10096 0.983027 0.9968
1.07338 1.09156 0.986678 0.996628
1.07482 1.08725 0.992203 0.99634
1.08534 1.09263 0.99734 0.995978
1.0763 1.08855 0.992461 0.99625
1.08556 1.09347 0.996816 0.995942
1.05031 1.05492 0.999693 0.995937
1.08584 1.09345 0.997118 0.995915
1.05356 1.05789 1 0.995909
1.00728 1.00935 1 0.997947
1.05687 1.0612 1 0.995917
1.00935 1.01143 1 0.997948
1 1 1 1
1.01138 1.01348 1 0.997931
0.99964 1 1 0.99964
0.999372 1 1 0.999372
1.06912 1.08255 0.991033 0.996531
1.07588 1.08641 0.994007 0.996279
1.07278 1.08828 0.989152 0.996568
1.08465 1.09092 0.998399 0.99585
1.07656 1.08949 0.991929 0.996174
1.07477 1.09191 0.987821 0.996439
1.0541 1.05841 1 0.99593
1.08568 1.09209 0.998307 0.995819
1.0766 1.08959 0.992013 0.996038
1.01272 1.01472 1 0.99803
1.05527 1.05954 1 0.995973
1.0859 1.09245 0.998148 0.995855
1 1 1 1
1.01749 1.01947 1 0.998056
1.05656 1.06079 1 0.996012
1 1 1 1
1.02185 1.02386 1 0.998036
1 1 1 1
1.07631 1.0861 0.994643 0.996316
1.07163 1.08523 0.990882 0.996556
1.07676 1.09645 0.985323 0.996678
1.08554 1.09245 0.997687 0.995972
1.07496 1.08595 0.993562 0.996301
1.07213 1.08765 0.989109 0.996586
1.07477 1.08728 0.992127 0.99634
1.08465 1.09213 0.997164 0.995979
1.04773 1.05219 0.999803 0.995949
1.08589 1.09327 0.997343 0.995893
1.05114 1.05562 0.999833 0.995917
1.00478 1.00685 1 0.997937
1.05436 1.05869 1 0.99591
1.00644 1.00851 1 0.997946
1 1 1 1
1.00839 1.01046 1 0.997946
1 1 1 1
0.999346 1 1 0.999346
1.07594 1.08533 0.995044 0.996291
1.06785 1.08222 0.990141 0.996545
1.08483 1.09083 0.998576 0.995915
1.07642 1.08691 0.99405 0.996278
1.07216 1.08751 0.98927 0.996576
1.05183 1.05616 1 0.995906
1.08529 1.09149 0.998466 0.995847
1.0771 1.08975 0.9922 0.996162
1.00955 1.0116 1 0.997981
1.05354 1.05786 1 0.995916
1.08617 1.09209 0.998776 0.995791
1 1 1 1
1.01372 1.01571 1 0.998035
1.05437 1.05864 1 0.995965
1 1 1 1
1.01861 1.02058 1 0.998063
1 1 1 1
1.08564 1.09198 0.998202 0.995985
1.0763 1.08595 0.994789 0.996307
1.07075 1.08449 0.99075 0.996543
1.04601 1.05039 0.999863 0.995966
1.08494 1.09191 0.99763 0.995972
1.07444 1.08583 0.993166 0.996319
1.08398 1.09163 0.997002 0.995979
1.04835 1.05293 0.999706 0.995946
1.00329 1.00536 1 0.997945
1.05202 1.05636 1 0.995898
1.00432 1.00639 1 0.997936
1 1 1 1
1.00566 1.00773 1 0.997945
1 1 1 1
1 1 1 1
1.08585 1.09151 0.998856 0.995953
1.07561 1.08546 0.994566 0.996338
1.06667 1.08198 0.989257 0.996559
1.04961 1.05389 1 0.995934
1.08524 1.09121 0.99861 0.995912
1.07694 1.08737 0.994114 0.996277
1.00672 1.00879 1 0.997951
1.05095 1.05527 1 0.995903
1.08587 1.09199 0.99854 0.995843
1 1 1 1
1.01044 1.01248 1 0.997984
1.05292 1.05725 1 0.995903
1 1 1 1
1.01466 1.01665 1 0.99804
1 1 1 1
1.04613 1.05039 1 0.995947
1.08511 1.09164 0.998017 0.995995
1.07627 1.08582 0.994886 0.996298
1.00225 1.00427 1 0.997987
1.0466 1.05106 0.999794 0.995963
1.08433 1.09138 0.997555 0.995972
1.04895 1.05365 0.999596 0.995942
1.00296 1.00503 1 0.997946
1 1 1 1
1.00386 1.00594 1 0.997934
1 1 1 1
1 1 1 1
1.04736 1.05162 1 0.995953
1.08544 1.09138 0.998565 0.995984
1.07522 1.08552 0.994105 0.996386
1.0046 1.00628 1 0.998335
1.04872 1.053 1 0.995933
1.08554 1.09148 0.998639 0.995909
1 1 1 1
1.00749 1.00956 1 0.997952
1.05007 1.05439 1 0.995901
1 1 1 1
1.01134 1.01338 1 0.997987
1 1 1 1
1.00175 1.0038 1 0.997961
1.04586 1.0502 0.999913 0.995962
1.08462 1.09129 0.997881 0.996006
1 1 1 1
1.00206 1.00409 1 0.997985
1.04721 1.05175 0.999726 0.995961
1.00266 1.00472 1 0.997945
1 1 1 1
1 1 1 1
1.00284 1.00453 1 0.99832
1.04697 1.05123 1 0.995954
1.08513 1.09136 0.998266 0.996016
1 1 1 1
1.00497 1.00702 1 0.997962
1.04806 1.05233 1 0.995933
1 1 1 1
1.00827 1.01033 1 0.997953
1 1 1 1
0.999364 1 1 0.999364
1.00211 1.00396 1 0.998165
1.04561 1.05004 0.999807 0.995976
1 1 1 1
1.00185 1.00388 1 0.997986
1 1 1 1
0.999368 1 1 0.999368
1.00314 1.00499 1 0.998156
1.04644 1.05069 1 0.995955
0.999674 1 1 0.999674
1.00562 1.00767 1 0.997966
1 1 1 1
1 1 1 1
1.00209 1.00409 1 0.998006
1 1 1 1
0.999685 1 1 0.999685
1.0035 1.00551 1 0.997997
1 1 1 1
1 1 1 1
1 1 1 1

VECTORS lamdaE float
1.00317 0.999649 0.992011
1.00266 1.00058 0.995927
1.0026 0.999797 0.992468
1.00261 1.00012 0.992247
1.003 0.999813 0.992062
1.00331 0.999614 0.991915
1.00372 1.00075 0.989256
1.00275 1.00066 0.995849
1.00206 1.00001 0.996692
1.00188 1.00064 0.996671
1.00237 1.00125 0.991338
1.00373 1.00168 0.986874
1.00189 0.999965 0.993212
1.00154 1.0001 0.993468
1.00206 0.99998 0.992898
1.00216 1.00013 0.992709
1.00262 0.999938 0.992344
1.00251 0.999858 0.992527
1.00399 1.00068 0.988992
1.00196 1.00001 0.996367
1.0024 1.00016 0.992439
1.00283 0.999987 0.992111
1.00352 1.00029 0.990069
1.00366 1.00054 0.9896
1.00323 0.999795 0.991817
1.00376 1.00114 0.988781
1.00535 1.00153 0.985095
1.00284 1.0007 0.995747
1.00238 0.999915 0.994543
1.0023 1.00031 0.99445
1.00274 1.00119 0.995645
1.00372 1.00178 0.986815
1.00248 0.999857 0.992469
1.00266 0.999806 0.992318
1.00402 1.00051 0.989634
1.00105 1.00281 0.996417
1.004 1.00115 0.989167
1.00387 1.00245 0.985885
1.0054 1.00315 0.982844
1.00116 1.00142 0.996604
1.00193 0.999986 0.996384
1.00184 1.00004 0.99487
1.00185 0.999964 0.99645
1.00137 1.00008 0.993683
1.00346 0.999846 0.989441
1.00179 0.999999 0.996772
1.00383 1.00019 0.990295
1.00174 1.00011 0.993171
1.00203 0.999891 0.992978
1.00202 1.00022 0.992759
1.00425 1.00058 0.988743
1.00173 1.00004 0.994974
1.00196 1.0002 0.992905
1.00263 1.00023 0.992178
1.00237 0.999998 0.992575
1.00375 1.00026 0.989807
1.00406 1.00099 0.988535
1.00391 1.00048 0.989335
1.00536 1.00147 0.985241
1.00185 0.999991 0.996423
1.00221 1.00009 0.992745
1.00321 0.999913 0.991262
1.0034 1.00014 0.990394
1.00362 1.00041 0.989823
1.00538 0.999585 0.987149
1.00533 1.00013 0.986556
1.00331 1.00035 0.991257
1.00369 1.00208 0.987976
1.00536 1.0025 0.984035
1.00534 0.998322 0.987596
1.00282 0.999847 0.99602
1.00269 1.00126 0.995684
1.0028 1.00023 0.995973
1.00373 1.0018 0.986755
1.00257 0.999891 0.99606
1.0028 0.999903 0.996025
1.00383 1.00055 0.987982
1.00146 1.00211 0.993988
1.00379 1.00109 0.987471
1.00389 1.00258 0.986899
1.00545 1.00305 0.982812
1.00168 1.00165 0.996124
1.00184 1.00333 0.988465
1.00392 1.00037 0.988135
1.00402 1.00057 0.98772
1.00532 0.999972 0.986275
1.00345 1.00348 0.987999
1.00543 1.00169 0.984245
1.00525 1.00434 0.981801
1.00557 1.00055 0.984877
1.0007 1.00095 0.997064
1.00088 1.00138 0.996784
1.00226 0.999993 0.996178
1.00199 0.999983 0.996351
1.00189 0.999967 0.996442
1.00172 1 0.99502
1.00349 0.999844 0.990179
1.00207 0.999995 0.994725
1.00369 1.0002 0.989559
1.00186 0.999969 0.99646
1.0033 0.999706 0.98975
1.00372 1.00004 0.990592
1.00535 0.997887 0.988601
1.00385 1.00026 0.990096
1.00539 0.998364 0.988029
1.0019 0.999961 0.9932
1.00151 1.00023 0.993374
1.00195 1.00067 0.992531
1.00192 0.999985 0.993035
1.00397 1.00026 0.989547
1.00415 1.00045 0.989077
1.00433 1.00094 0.988294
1.00537 1.0014 0.985383
1.00189 0.999974 0.996441
1.00179 1.00009 0.993205
1.00344 0.999776 0.990142
1.00362 1.00012 0.990128
1.00286 1.00101 0.993472
1.00399 1.00182 0.988194
1.00385 1.00036 0.989562
1.00539 0.999247 0.987563
1.00538 1.00248 0.984186
1.00533 1.00042 0.986326
1.00534 0.998377 0.987591
1.00331 0.999745 0.989707
1.00328 0.999905 0.990785
1.00537 0.997775 0.989121
1.0054 0.998478 0.988302
1.00531 0.999419 0.987443
1.0053 0.99608 0.990294
1.00206 1.00166 0.996067
1.00535 0.997119 0.988759
1.00362 1.003 0.985666
1.00542 1.00358 0.982136
1.00531 0.999652 0.986374
1.00531 0.9955 0.990261
1.00243 1.00353 0.987221
1.0036 1.00379 0.985415
1.00268 0.999872 0.996037
1.00289 0.999935 0.996004
1.00381 1.00059 0.987962
1.00195 1.0017 0.996038
1.00353 1.00287 0.98598
1.00383 1.00101 0.987445
1.00548 1.00297 0.982776
1.00149 1.00168 0.996322
1.00197 1.00345 0.988429
1.00393 1.00042 0.988971
1.00406 1.00067 0.988527
1.00533 0.999978 0.986237
1.00293 1.0036 0.986224
1.00542 1.00174 0.984205
1.00525 1.00422 0.981775
1.00555 1.00024 0.985189
1.0025 1.00348 0.987336
1.00161 1.00295 0.989556
1.00279 1.00292 0.986637
1.00535 0.999348 0.986964
1.0054 1.00073 0.985327
1.00538 0.996508 0.989454
1.00405 1.0048 0.983067
1.00538 0.998605 0.987317
1.00562 1.00271 0.98321
1.0056 0.997994 0.986978
1.0004 1.00012 0.997621
1.0005 1.00077 0.997285
1.00064 1.00131 0.996958
1.00163 1.00396 0.988503
1.00119 1.002 0.996365
1.00248 0.999929 0.99609
1.00209 0.999992 0.99626
1.00349 1.00026 0.988886
1.00332 0.999856 0.989545
1.00187 0.999965 0.996428
1.00183 0.999962 0.996461
1.00329 0.999715 0.989749
1.00358 1.00002 0.989882
1.00534 0.9979 0.988612
1.00367 1.00034 0.988529
1.00538 0.998375 0.988032
1.00328 0.999671 0.989801
1.00535 0.997853 0.988648
1.00536 0.998035 0.988416
1.00532 0.99496 0.991756
1.0054 0.998822 0.987505
1.00529 0.995011 0.991576
1.00185 0.999971 0.996449
1.00133 1.00017 0.993664
1.00347 0.999702 0.989207
1.00385 1.00011 0.989862
1.00187 1.00185 0.996256
1.00433 1.00125 0.988422
1.00407 1.00034 0.989304
1.00539 0.998897 0.987975
1.00532 1.0007 0.986096
1.00538 1.00237 0.984349
1.00532 0.998434 0.987586
1.0033 0.999735 0.989709
1.00349 0.999919 0.990527
1.00537 0.99768 0.989034
1.0054 0.99882 0.987962
1.0023 1.00154 0.995906
1.00367 1.00277 0.986861
1.00535 1.00376 0.98258
1.00531 0.999458 0.987414
1.00529 0.995778 0.990663
1.00531 0.999534 0.986467
1.00536 0.997414 0.98855
1.00531 0.995552 0.990223
1.00247 1.00351 0.987167
1.00334 1.00413 0.985297
1.00535 0.998005 0.988495
1.0054 0.998102 0.98879
1.00532 0.995559 0.991053
1.0053 0.995154 0.991297
1.00532 0.996718 0.989404
1.00519 0.994936 0.991411
1.0032 1.00314 0.986258
1.00533 0.99495 0.990907
1.00542 1.00447 0.981368
1.00539 1.00079 0.984772
1.00532 0.997087 0.988767
1.00535 0.994888 0.990803
1.00438 1.00367 0.983593
1.00107 1.00508 0.9888
1.00465 1.00361 0.983613
1.00374 1.00048 0.988217
1.00115 1.00168 0.996512
1.00181 1.00357 0.988398
1.00386 1.0007 0.987728
1.00534 0.999976 0.986203
1.00297 1.00344 0.986335
1.00545 1.00409 0.981744
1.00541 1.00179 0.984161
1.00554 0.99992 0.985506
1.00227 1.00363 0.987413
1.00136 1.00312 0.989551
1.00297 1.00351 0.9867
1.00534 0.999357 0.986943
1.00539 1.00076 0.985289
1.00537 0.996489 0.989478
1.00453 1.00429 0.982998
1.0054 0.998671 0.987232
1.00559 1.00259 0.983148
1.00559 0.997674 0.987253
1.00106 1.00256 0.9909
1.00301 1.00398 0.985444
1.00256 1.00422 0.986812
1.00271 1.00175 0.987457
1.00527 0.995719 0.990492
1.00541 0.997629 0.988245
1.00538 0.994895 0.990766
1.00532 1.00457 0.981812
1.00541 0.995815 0.989792
1.00549 1.00074 0.985168
1.00557 0.996603 0.988383
1.00072 1.0041 0.990034
1.0004 1.00162 0.99268
1.00028 0.999387 0.998001
1.0003 0.999945 0.997781
1.00032 1.00057 0.997509
1.00036 1.00216 0.991813
1.00038 1.00131 0.996993
1.00174 1.00358 0.988452
1.00148 1.00192 0.996276
1.00362 1.00038 0.988535
1.00342 1.00001 0.989236
1.00537 0.998385 0.988042
1.00533 0.997913 0.988623
1.00329 0.999727 0.989754
1.00189 0.999951 0.996458
1.00329 0.999671 0.989808
1.00535 0.997864 0.988655
1.00535 0.998051 0.988429
1.00533 0.99496 0.991756
1.00538 0.998834 0.987504
1.00529 0.994991 0.991588
1.00535 0.997908 0.988601
1.00533 0.994957 0.991774
1.0053 0.994959 0.991715
1.00521 0.994935 0.991718
1.00525 0.995268 0.991198
1.00518 0.994976 0.991543
1.00331 0.999731 0.989718
1.00371 0.999873 0.99027
1.00537 0.997567 0.988953
1.0054 0.999146 0.987622
1.00249 1.00148 0.995746
1.00394 1.00268 0.987783
1.00529 1.00371 0.983009
1.00531 0.999484 0.987385
1.00528 0.995473 0.991033
1.00536 0.99771 0.988342
1.00532 0.999439 0.986557
1.00531 0.995604 0.990184
1.00245 1.00341 0.987107
1.00313 1.00407 0.985182
1.00536 0.997711 0.988803
1.0054 0.998034 0.988803
1.00532 0.995564 0.991026
1.00529 0.995544 0.990953
1.00309 1.0033 0.986188
1.00535 1.0044 0.981398
1.00543 1.00114 0.984464
1.00532 0.996707 0.989453
1.0052 0.994936 0.991372
1.00532 0.996821 0.989052
1.00533 0.994965 0.990859
1.00535 0.994869 0.990722
1.00432 1.00408 0.983572
1.0043 1.00421 0.983738
1.00105 1.00424 0.988892
1.00533 0.99554 0.991127
1.00531 0.995695 0.990834
1.00518 0.994932 0.991845
1.00516 0.994959 0.991523
1.00532 0.994891 0.991059
1.0053 0.994917 0.991074
1.005 1.00462 0.981871
1.00534 0.994827 0.990848
1.00547 1.00312 0.982679
1.00541 0.998313 0.987078
1.00531 0.995711 0.99007
1.00543 0.994795 0.990623
1.0011 1.00075 0.991126
1.00521 1.00526 0.981522
1.00109 1.00429 0.987429
1.0052 1.00396 0.982167
1.00532 0.999364 0.986924
1.00118 1.00331 0.989546
1.00216 1.00382 0.987479
1.0029 1.00393 0.986752
1.00539 1.00078 0.985253
1.00536 0.996467 0.989502
1.00477 1.00387 0.982923
1.00556 1.00249 0.983077
1.0054 0.998753 0.987147
1.00556 0.997386 0.987529
1.0008 1.0027 0.990914
1.00345 1.0038 0.985576
1.00228 1.00423 0.986654
1.00351 1.00146 0.987567
1.00531 0.995677 0.990504
1.0054 0.997566 0.988264
1.00538 0.994893 0.990803
1.00541 1.00458 0.981619
1.0054 0.996098 0.989564
1.00546 1.0006 0.985162
1.00558 0.996559 0.98869
1.00061 1.00218 0.991891
1.00198 1.00517 0.987048
1.00385 1.00431 0.983616
1.00329 1.00226 0.987428
1.00306 1.00233 0.987946
1.00534 0.994895 0.991019
1.00538 0.995107 0.990372
1.00539 0.994869 0.990573
1.00526 1.00365 0.982768
1.00548 0.995319 0.990039
1.00521 0.99937 0.986564
1.00108 1.00472 0.988746
1.00042 1.00509 0.989434
1.00026 1.00349 0.991205
1.0004 1.00421 0.99004
1.00028 1.00066 0.994646
1.00031 1.00156 0.993297
1.00046 0.998625 0.99616
1.00022 0.999372 0.998082
1.00026 0.999855 0.997895
1.00029 1.0005 0.993772
0.999791 0.999684 0.998251
1.00061 1.00233 0.991626
1.00077 1.00157 0.996714
1.00181 1.00328 0.988401
1.00174 1.00182 0.996155
1.00536 0.998851 0.987497
1.00534 0.998067 0.988439
1.00529 0.994962 0.991601
1.00533 0.994961 0.991756
1.00534 0.997877 0.98866
1.00328 0.999663 0.98981
1.00535 0.997913 0.988599
1.00534 0.994957 0.991772
1.0053 0.994957 0.991722
1.00521 0.994934 0.991705
1.00529 0.995197 0.991208
1.00518 0.994979 0.991544
1.00534 0.994955 0.99178
1.00521 0.994939 0.991742
1.00519 0.99496 0.991669
1.00533 0.994921 0.991501
1.00524 0.994935 0.991299
1.0053 0.994949 0.99118
1.00536 0.99743 0.989107
1.00539 0.997986 0.988816
1.00533 0.99557 0.990999
1.00527 0.995941 0.990608
1.0031 1.00346 0.986128
1.00536 1.00463 0.981428
1.00545 1.00141 0.984162
1.00532 0.996695 0.989502
1.00522 0.994936 0.991333
1.00532 0.994982 0.99081
1.00533 0.996533 0.989336
1.00534 0.994846 0.990641
1.0041 1.00456 0.983562
1.00366 1.00516 0.983862
1.00117 1.00387 0.988982
1.00533 0.995252 0.99145
1.00531 0.995667 0.990843
1.00519 0.994932 0.991782
1.00517 0.994959 0.991566
1.00487 1.00478 0.981949
1.00554 1.00304 0.982735
1.00541 0.998576 0.986709
1.00532 0.99489 0.991038
1.0053 0.994919 0.991031
1.00531 0.995543 0.990124
1.00533 0.994827 0.990844
1.00543 0.994772 0.990614
1.00496 1.00517 0.981626
1.00518 1.00433 0.982032
1.00158 1.00098 0.991206
1.00173 1.00401 0.987942
1.0052 0.994933 0.9918
1.00516 0.994953 0.991682
1.00533 0.994938 0.991514
1.00531 0.99491 0.991117
1.00531 0.994917 0.990845
1.00536 0.994897 0.990842
1.00547 1.00456 0.981414
1.00538 0.994831 0.9906
1.00538 1.00079 0.984708
1.00536 0.997279 0.9881
1.00541 0.995072 0.99039
1.0054 0.994796 0.990579
1.00309 1.00065 0.988705
1.00184 1.00074 0.988824
1.00514 1.00433 0.981853
1.00354 1.00479 0.985821
1.0052 1.00411 0.982086
1.00056 1.00277 0.990935
1.00536 0.995639 0.990517
1.00272 1.0044 0.986494
1.00349 1.00355 0.985731
1.00409 1.00099 0.98768
1.00539 0.997504 0.988282
1.00538 0.994891 0.990839
1.00547 1.00455 0.981437
1.00544 1.0005 0.985153
1.00539 0.996358 0.989336
1.00559 0.996502 0.988997
1.00049 1.00225 0.991914
1.00178 1.0052 0.986995
1.00439 1.00392 0.983672
1.0032 1.00234 0.98734
1.00356 1.00172 0.986977
1.00532 0.994893 0.991042
1.00539 0.995124 0.990411
1.00539 0.994868 0.990574
1.00527 1.00368 0.98277
1.0055 0.995396 0.989915
1.00521 0.999516 0.986916
1.00144 1.00514 0.987753
1.00324 1.0049 0.985826
1.00368 1.00483 0.983934
1.00387 1.00233 0.986524
1.0046 1.0034 0.985287
1.00537 0.994872 0.990777
1.00541 0.994894 0.990383
1.00538 0.994808 0.990457
1.00505 1.00171 0.984534
1.00517 0.998019 0.987892
1.0009 1.0048 0.98877
1.00088 1.00512 0.988237
0.999649 1.00509 0.989562
1.00001 1.00493 0.990957
1.00024 1.00478 0.990508
0.99997 1.0031 0.991964
1.00004 1.0037 0.991225
1.00011 1.00023 0.995304
1.00021 1.00442 0.990044
1.00026 1.00063 0.994757
1.00032 0.997906 0.996818
1.00027 1.0016 0.993898
1.00023 0.998797 0.997268
1.00015 0.999213 0.998164
1.00038 1.00217 0.992467
1.00032 1.00046 0.993811
0.999842 0.999586 0.998401
1.00013 1.00004 0.997735
1.00095 1.00248 0.991463
1.00104 1.00192 0.996517
1.00532 0.995134 0.991217
1.0053 0.994955 0.991729
1.00517 0.994984 0.991544
1.00521 0.994932 0.991692
1.00534 0.994957 0.991769
1.00536 0.997915 0.988599
1.00534 0.994955 0.991776
1.00521 0.994938 0.991749
1.00519 0.994963 0.991665
1.00533 0.994919 0.991485
1.00522 0.994935 0.991311
1.0053 0.994944 0.991189
1.0052 0.99494 0.991779
1.00534 0.994923 0.99159
1.00531 0.994932 0.9914
1.00534 0.994906 0.991485
1.00533 0.994921 0.991004
1.00533 0.994927 0.991126
1.00533 0.994951 0.991773
1.00531 0.995642 0.990853
1.00519 0.994931 0.991718
1.00519 0.994959 0.99161
1.00466 1.00488 0.982018
1.00558 1.00305 0.982784
1.0054 0.998809 0.986343
1.00531 0.994891 0.991017
1.0053 0.994922 0.990988
1.00532 0.994828 0.990839
1.00531 0.995377 0.990178
1.00543 0.994759 0.990606
1.00485 1.00506 0.981722
1.00507 1.00493 0.981888
1.00206 1.00121 0.991277
1.00176 1.00302 0.988441
1.00519 0.994934 0.991803
1.00517 0.994951 0.991705
1.00533 0.994933 0.99148
1.00531 0.994911 0.991119
1.0054 1.0046 0.981513
1.00539 1.00091 0.984548
1.00536 0.997182 0.988103
1.00531 0.994913 0.990884
1.00535 0.994893 0.990834
1.00541 0.995043 0.990412
1.00539 0.994831 0.990596
1.0054 0.994793 0.990615
1.00518 1.00451 0.981906
1.00507 1.00464 0.982151
1.00294 1.00415 0.985886
1.0026 1.00158 0.988738
1.00203 1.00291 0.988587
1.00534 0.994924 0.991523
1.00534 0.994918 0.99135
1.00537 0.994864 0.990869
1.00535 0.994904 0.990666
1.00531 1.00315 0.983004
1.00536 0.994847 0.990405
1.00532 0.999864 0.985042
1.0053 0.996412 0.988901
1.00548 0.994781 0.990421
1.00104 1.00509 0.988096
1.0041 1.00344 0.987329
1.00262 1.00042 0.988711
1.00494 1.00504 0.982409
1.00403 1.00374 0.98549
1.0049 1.00402 0.98306
1.00037 1.00236 0.991936
1.00155 1.0052 0.986947
1.0053 0.994892 0.991064
1.00263 1.00275 0.987249
1.00521 1.00381 0.983723
1.00424 1.00101 0.986018
1.00539 0.995142 0.990449
1.00539 0.994867 0.990574
1.00527 1.00366 0.982785
1.00519 0.999672 0.987268
1.00551 0.995468 0.98979
1.00137 1.00516 0.987761
1.00268 1.00508 0.985826
1.00427 1.00489 0.983025
1.00397 1.00164 0.986673
1.00444 1.00239 0.985144
1.00537 0.994874 0.990777
1.00543 0.994893 0.990366
1.0054 0.99479 0.990455
1.00504 1.00174 0.984795
1.00516 0.998141 0.987739
1.0027 1.00515 0.986381
1.00186 1.005 0.986203
1.00456 1.003 0.984518
1.003 1.00207 0.9852
1.00525 1.00161 0.985629
1.00538 0.994811 0.9906
1.00546 0.995494 0.989438
1.0054 0.994828 0.989916
1.00499 1.00057 0.986225
1.00507 0.998969 0.987289
1.00077 1.00478 0.988798
1.00128 1.00512 0.988069
0.999075 1.0045 0.991296
0.999382 1.00509 0.989668
0.999745 1.00489 0.990475
0.99902 1.00478 0.991284
0.998864 1.00453 0.992731
0.99894 1.00505 0.991357
0.999675 1.0046 0.991064
1.00005 1.00273 0.992167
0.99997 1.00299 0.991952
1.00003 0.999895 0.99571
0.999833 1.0037 0.991238
1.00013 1.00012 0.995373
1.0002 0.997707 0.997208
1.00027 1.0005 0.99487
1.00027 0.998003 0.996774
0.999955 0.998937 0.998402
1.00018 1.00227 0.992373
1.00067 1.00118 0.992603
0.999674 1.00006 0.998194
1.00067 1.00014 0.993827
0.999804 0.999295 0.998458
1.0005 1.00048 0.997251
1.0052 0.994935 0.991322
1.00519 0.994963 0.991661
1.00531 0.994938 0.991198
1.00533 0.994918 0.991469
1.00521 0.994936 0.991756
1.00534 0.994954 0.991771
1.0052 0.994942 0.991798
1.00534 0.994922 0.991582
1.00531 0.994936 0.991408
1.00533 0.9949 0.991473
1.00533 0.994922 0.991004
1.00533 0.994921 0.991116
1.00532 0.994921 0.991596
1.00536 0.994906 0.991527
1.00532 0.994894 0.991437
1.00538 0.994884 0.990788
1.00519 0.994934 0.991806
1.00517 0.994949 0.991728
1.00532 0.994929 0.991445
1.00531 0.994913 0.99112
1.00537 1.00456 0.981619
1.00542 1.00105 0.984383
1.00536 0.997112 0.988104
1.00531 0.994909 0.990924
1.00535 0.994889 0.990827
1.00538 0.994832 0.990593
1.00541 0.99501 0.990434
1.00539 0.994785 0.990652
1.00522 1.00464 0.981961
1.00471 1.00455 0.982218
1.00313 1.00371 0.985955
1.00223 1.0024 0.988803
1.00256 1.00508 0.988368
1.00534 0.994926 0.99151
1.00533 0.99492 0.991357
1.00537 0.994871 0.990881
1.00528 1.00337 0.983006
1.00535 1.00008 0.984921
1.00531 0.996234 0.988944
1.00535 0.994907 0.990685
1.00542 0.994796 0.990489
1.00538 0.99485 0.990422
1.00064 1.00467 0.988406
1.00482 1.00452 0.982421
1.00502 1.00401 0.982591
1.00392 1.00361 0.985236
1.00274 1.00177 0.988538
1.00363 1.0031 0.98679
1.00536 0.994907 0.991451
1.00538 0.994868 0.991175
1.00538 0.994851 0.990682
1.00535 0.99485 0.990486
1.00516 1.00322 0.983356
1.00534 0.99486 0.990291
1.0053 0.998785 0.986625
1.00531 0.995514 0.989296
1.00003 1.00397 0.989956
1.00146 1.00511 0.987999
1.00348 1.00268 0.988216
1.00151 1.00193 0.990232
1.00441 1.00396 0.98405
1.00501 1.00344 0.983509
1.00119 1.00519 0.987767
1.00227 1.00485 0.985821
1.00536 0.994875 0.990777
1.00405 1.00096 0.986814
1.00495 1.00498 0.982105
1.00386 1.0027 0.984991
1.00545 0.994893 0.990349
1.00542 0.994771 0.990452
1.00503 1.00182 0.985054
1.00515 0.998286 0.987586
1.00215 1.00515 0.98644
1.00268 1.00482 0.985961
1.00449 1.00324 0.984271
1.00414 1.00307 0.984772
1.00516 1.00207 0.985289
1.00538 0.994816 0.990599
1.00546 0.995346 0.989698
1.00538 0.994868 0.990206
1.00503 1.00047 0.986135
1.00499 0.999349 0.987005
1.00021 1.00437 0.988631
0.999994 1.00473 0.987783
1.00484 1.00084 0.986256
1.00502 1.00109 0.985963
1.00545 0.994795 0.990474
1.00536 0.994716 0.990426
1.00528 0.997466 0.987862
1.00511 0.999779 0.986333
1.00169 1.00513 0.987907
0.999405 1.0048 0.99091
0.996914 1.00487 0.994594
0.99932 1.00509 0.990452
0.997704 1.00505 0.991605
0.999725 1.00455 0.990994
0.998414 1.00453 0.993095
0.999104 1.00506 0.991429
0.998665 1.00144 0.995926
0.99865 1.00503 0.992121
0.998882 1.00507 0.991135
0.999987 1.00442 0.99078
0.999957 1.00289 0.992106
0.99996 1.00281 0.992144
0.999933 0.999682 0.995966
0.999873 1.0031 0.991944
1.00002 0.999833 0.995747
1.00008 0.99762 0.997425
1.00012 1.00005 0.995441
1.00017 0.997748 0.997177
1.00016 0.998139 0.996717
1.00041 1.00082 0.993438
1.00025 1.00214 0.992304
0.999847 0.998887 0.998386
1.00056 1.00048 0.992743
0.999834 0.999876 0.998237
0.999967 0.998863 0.998379
1.00534 0.994923 0.991004
1.00531 0.99494 0.991416
1.00534 0.994915 0.991105
1.00533 0.994895 0.991461
1.00534 0.994923 0.991573
1.00519 0.994944 0.991817
1.00533 0.994921 0.991596
1.00535 0.994906 0.991522
1.00533 0.994898 0.991378
1.00537 0.994881 0.990833
1.00537 0.994905 0.991537
1.00535 0.994879 0.99148
1.00536 0.994863 0.991113
1.00534 0.994928 0.991497
1.00533 0.994923 0.991363
1.00537 0.994876 0.990893
1.0052 1.00359 0.983012
1.00536 1.00029 0.984804
1.00534 0.996016 0.988984
1.00535 0.99491 0.990702
1.0054 0.994841 0.990439
1.00537 0.994819 0.990562
1.00498 1.00425 0.982432
1.00514 1.00439 0.982138
1.00394 1.0039 0.984986
1.00072 1.00474 0.988714
1.00303 1.00285 0.988347
1.00296 1.00293 0.986231
1.00537 0.994909 0.991467
1.00538 0.994866 0.991144
1.00538 0.994857 0.990695
1.00504 1.00321 0.983351
1.00529 0.998654 0.98648
1.00535 0.995404 0.98948
1.00536 0.994846 0.990452
1.00538 0.994856 0.990282
0.99993 1.00444 0.990184
1.00124 1.00512 0.987917
1.0044 1.00376 0.983827
1.00465 1.00347 0.983652
1.00245 1.00256 0.989193
1.00286 1.00184 0.988348
1.00538 0.994871 0.991401
1.00542 0.994842 0.990814
1.00537 0.994812 0.990508
1.00532 0.99482 0.990258
1.00461 1.00144 0.985665
1.00537 0.994834 0.990246
1.00492 0.99793 0.987981
0.99997 1.0041 0.990849
1.00038 1.00372 0.990835
0.999422 1.00512 0.989494
1.00096 1.00512 0.98837
1.00147 1.00463 0.990426
1.00452 1.0006 0.986168
1.00372 1.00382 0.985455
1.00395 1.00412 0.985489
1.00196 1.00515 0.986506
1.00313 1.005 0.985718
1.00539 0.994821 0.990597
1.00527 1.00251 0.984354
1.00448 1.00335 0.984027
1.00534 1.00243 0.984963
1.00545 0.99518 0.989959
1.00537 0.994904 0.990495
1.00505 1.00034 0.986046
1.00491 0.999671 0.986723
1.00085 1.00417 0.988218
1.00146 1.00478 0.987228
1.00483 1.00095 0.985908
1.00507 1.00155 0.985751
1.00544 0.994798 0.990477
1.00538 0.994748 0.990432
1.00522 0.997366 0.987977
1.00511 0.999879 0.986369
0.99864 1.0037 0.99218
1.00549 0.994752 0.990863
1.00274 1.00366 0.98876
1.0047 1.00049 0.986363
1.00539 0.994744 0.990679
1.0051 0.996854 0.987753
1.00511 1.00068 0.985934
0.999657 1.0048 0.990529
0.997343 1.00451 0.994721
0.996015 1.00275 0.997365
0.999502 1.00446 0.990921
0.998986 1.00505 0.991495
0.997261 1.00502 0.993471
0.999906 1.0043 0.990765
0.999031 1.00507 0.991232
0.996905 1.00318 0.996475
0.998835 1.00498 0.991946
0.9965 1.00256 0.998344
0.996742 1.0046 0.99509
0.998814 1.00499 0.992101
1.00016 1.00487 0.989864
1.00017 1.00422 0.990445
0.999977 1.00281 0.992101
0.999935 1.00291 0.992088
0.999802 0.999764 0.996127
0.999881 1.00295 0.992123
0.999943 0.999736 0.995981
0.999959 0.997739 0.997599
1.00003 0.999765 0.995791
1.0001 0.997653 0.997406
1.00018 0.997791 0.99714
1.00021 1.00354 0.991053
0.99997 1.00081 0.994001
1.00025 1.00101 0.993396
1.00003 0.998672 0.998553
1.00034 1.00182 0.992237
0.999837 0.999613 0.998284
0.999918 0.999664 0.998332
1.00535 0.994879 0.990878
1.00534 0.994902 0.991319
1.00534 0.994905 0.991517
1.00533 0.994921 0.991596
1.00536 0.994902 0.991544
1.00535 0.994875 0.991471
1.00536 0.994864 0.991055
1.00538 0.994874 0.991432
1.00535 0.994842 0.991483
1.0056 0.994722 0.991365
1.00537 0.994911 0.991483
1.00538 0.994863 0.991114
1.00538 0.994859 0.990709
1.00503 1.00315 0.983348
1.00528 0.998653 0.986345
1.00538 0.99529 0.989657
1.00536 0.994852 0.990417
1.00542 0.994847 0.990271
1.0046 1.00382 0.983599
1.00415 1.00345 0.983759
1.00255 1.004 0.988158
1.00017 1.00436 0.990415
1.00089 1.00498 0.987831
1.00238 1.00126 0.98848
1.00538 0.994868 0.991392
1.0004 1.00355 0.990834
0.999885 1.00427 0.99075
1.00542 0.994833 0.990816
1.00538 0.994823 0.99053
1.00467 1.00166 0.985488
1.00523 0.99735 0.988286
1.00532 0.994814 0.990234
1.00531 0.994816 0.9902
0.999986 1.00511 0.989592
1.00111 1.00505 0.988252
1.00333 1.00424 0.98525
1.00421 1.00375 0.983894
1.00428 1.00192 0.986002
1.00072 1.00302 0.991041
1.00544 0.99476 0.991322
1.0054 0.99509 0.990447
1.00536 0.994757 0.99049
1.00526 0.994836 0.989779
1.00348 1.00085 0.987666
1.0053 0.99583 0.989889
1.0001 1.00439 0.990294
0.99949 1.00402 0.990913
1.00067 1.00389 0.990774
1.00072 1.00476 0.988872
1.00097 1.00443 0.989528
1.00082 1.00093 0.991754
1.00262 1.00213 0.986863
1.00184 1.00222 0.990168
1.00112 1.00471 0.987823
1.00335 1.00485 0.986664
1.00542 0.994805 0.990481
1.00541 0.994781 0.990439
1.00511 1.00222 0.985532
1.00479 1.00117 0.98555
1.00516 0.997281 0.988092
1.00512 0.999982 0.986406
0.999225 1.004 0.99212
1.00548 0.994741 0.991034
1.00164 1.00376 0.98938
1.00461 1.00065 0.986208
1.0054 0.994734 0.990759
1.00514 0.997018 0.987973
1.00511 1.00039 0.985862
0.998125 1.00438 0.994508
1.005 0.994694 0.990307
1.0016 1.00348 0.989025
1.00418 1.00263 0.984574
1.00501 0.995213 0.991028
1.00385 1.00069 0.986851
0.998773 0.994771 0.981413
0.997616 1.00446 0.994829
0.996869 1.00264 0.997297
0.995918 1.00257 0.998281
0.999914 1.00418 0.990744
0.998691 1.00507 0.99134
0.999481 1.00498 0.991778
0.995671 1.00355 0.997048
1.00018 1.00415 0.990461
0.999788 1.00488 0.990263
0.995767 1.00145 0.999909
0.998487 1.005 0.992033
0.997262 1.00469 0.994568
0.994927 1.00518 0.997962
0.998194 1.00508 0.993003
0.998852 1.00489 0.992073
1.00036 1.00419 0.990341
1.00002 1.0044 0.990207
1.00039 1.00487 0.990238
1.00004 1.0041 0.990489
0.999851 1.00285 0.992192
0.999926 1.00291 0.992085
0.999693 0.999724 0.995599
0.999968 1.00278 0.992074
0.999797 0.999748 0.99579
0.999967 0.997671 0.999019
0.99994 0.999738 0.996003
0.99999 0.997652 0.997585
1.00011 0.997674 0.997381
0.999934 1.00292 0.991973
1.00043 1.00323 0.991116
1.00009 1.00006 0.994646
1.00011 1.00066 0.994459
0.999953 0.998238 0.998721
1.00007 1.00152 0.993355
0.999939 0.998456 0.998529
0.999866 0.99988 0.998141
1.00536 0.994863 0.990996
1.00535 0.994872 0.991462
1.00536 0.9949 0.991551
1.00538 0.994876 0.991433
1.00538 0.994837 0.991415
1.00561 0.994736 0.99137
1.00547 0.994824 0.991464
1.00054 0.994621 0.979876
1.00547 0.994747 0.989797
1.00017 1.00373 0.990863
1.00537 0.994867 0.991382
1.00541 0.994835 0.990817
1.00539 0.994837 0.990551
1.00457 1.00182 0.985298
1.00529 0.996526 0.988569
1.00527 0.994824 0.990199
1.0053 0.994816 0.990139
1.00361 1.0043 0.985102
1.00475 1.005 0.982363
1.0038 1.00238 0.985817
1.00055 1.00324 0.99082
1.00089 1.00215 0.991629
1.0006 1.00504 0.989668
1.00078 1.00511 0.988142
0.999878 1.00434 0.990667
1.00543 0.99479 0.991337
1.00031 1.00412 0.990355
1.00002 1.00419 0.990905
0.9998 1.00415 0.991243
1.00539 0.994909 0.990472
1.00534 0.994761 0.990452
1.00342 1.00175 0.987689
1.00508 0.995563 0.989873
1.0053 0.99489 0.989807
1.0006 1.00483 0.988923
1.00075 1.00446 0.989934
1.00289 1.00221 0.989315
1.00315 1.00411 0.986108
1.00255 0.999734 0.991944
1.00546 0.994753 0.9909
1.00536 0.994886 0.990507
1.00529 0.994781 0.990284
1.00462 0.997577 0.989306
1.00325 0.999933 0.989104
0.999664 1.00345 0.992118
1.00028 1.00422 0.989538
0.999211 1.0034 0.992671
1.00068 1.00373 0.991074
1.00034 1.00145 0.993501
0.999567 1.00095 0.99409
1.00199 0.999744 0.992733
1.00061 1.00357 0.991995
1.00006 1.00398 0.990007
1.00549 0.994717 0.991195
1.00542 0.994726 0.990824
1.00518 0.99719 0.988192
1.00455 1.00081 0.986056
1.0051 1.00009 0.985799
0.997927 1.00455 0.995478
1.00457 0.994679 0.990439
1.00169 1.0034 0.988884
1.00457 1.00245 0.984436
1.00478 0.99516 0.991283
1.00416 1.00058 0.9869
0.998655 0.994743 0.979756
0.997348 1.00494 0.994455
1.00343 0.994682 0.990372
1.0023 1.00359 0.986442
1.0036 1.00087 0.987202
1.00351 0.99737 0.991994
0.99993 0.994848 0.934936
0.994856 0.994684 0.957402
0.996992 0.994679 0.984937
0.995068 0.99555 0.842484
0.994726 0.997971 0.80186
0.997876 1.00274 0.997236
0.99634 1.00257 0.998494
0.994919 1.00513 0.998452
1.00026 1.00406 0.990483
0.999614 1.00494 0.990664
0.998622 1.00499 0.991954
0.997592 1.00498 0.994015
0.995247 1.00081 1.00143
0.998658 1.00478 0.992435
1.00027 1.00418 0.990223
1.00027 1.00446 0.990235
0.995248 1.00463 0.997892
0.997738 1.00507 0.993399
0.997927 1.00508 0.993865
0.996341 1.00515 0.995694
0.998557 1.00451 0.992902
1.00011 1.0046 0.989956
1.00008 1.00437 0.990084
0.999217 1.00465 0.99097
0.998581 1.00396 0.993824
0.998996 1.00506 0.991812
0.999965 1.0049 0.990522
1.00014 1.0037 0.990939
0.999874 1.00407 0.990451
0.999956 1.00255 0.992445
0.999988 1.00274 0.992205
0.999674 0.999659 0.995719
0.999885 1.00302 0.992066
0.999682 0.999748 0.995602
0.999935 0.997652 0.999056
0.999785 0.999762 0.995461
0.999916 0.997675 0.998355
1.00004 0.997579 0.997567
0.999905 1.00219 0.992841
1.00009 1.00278 0.992
1.00003 0.999556 0.995286
1.0006 1.00288 0.991174
1.00007 1.00011 0.99506
0.999988 0.997835 0.998872
1.00029 1.00046 0.993919
0.999987 0.998467 0.998646
0.999898 0.998947 0.998498
1.0054 0.994831 0.991347
1.00537 0.994878 0.991434
1.00563 0.994762 0.991399
0.999348 0.994686 0.979662
1.0055 0.9948 0.991454
1.00548 0.994746 0.989883
1.00547 0.994694 0.991253
0.994974 0.994789 0.960366
1.00459 0.994724 0.975943
1.00027 1.0032 0.991272
1.00035 1.0036 0.990858
0.99923 1.00402 0.992052
1.0003 1.00373 0.990697
1.00543 0.99481 0.991351
1.00539 0.994841 0.990499
1.00533 0.994755 0.990413
1.00381 1.0016 0.987717
1.00513 0.995606 0.989905
1.00533 0.994856 0.989859
1.00287 1.00104 0.9884
1.00399 1.00463 0.985366
1.00265 0.997474 0.992187
0.999997 1.00483 0.990905
0.999943 1.00374 0.990372
1.00059 1.00492 0.988972
1.00053 1.00375 0.990413
0.999047 1.00468 0.991817
1.00549 0.994764 0.990877
0.99955 1.00386 0.991581
1.00064 1.0041 0.989726
0.996753 1.00427 0.995311
1.00537 0.994905 0.990494
1.00529 0.99477 0.990256
1.00391 0.998704 0.989282
1.00458 0.997512 0.989264
1.00109 1.00355 0.99046
0.999304 1.00186 0.992804
1.00158 0.999455 0.992829
1.00146 0.999865 0.993183
1.00387 0.99689 0.989702
1.00524 0.994686 0.990793
1.00396 0.998839 0.989515
1.00456 0.9982 0.989506
0.996231 1.00487 0.995924
1.00127 1.00359 0.989375
0.997906 0.999827 0.998995
0.997812 1.00332 0.994713
0.999657 0.997199 0.917949
0.997923 1.00441 0.996499
1.0013 1.00359 0.988733
1.00402 0.994669 0.990616
1.0045 0.995096 0.991527
1.00436 1.00038 0.98692
1.00481 1.00246 0.984283
0.998339 0.994728 0.977781
0.997623 1.00466 0.994764
1.00304 0.994673 0.990308
1.00249 1.00397 0.986416
1.00395 1.00074 0.987385
1.0035 0.997682 0.991894
0.998629 0.994873 0.920347
0.995134 0.994726 0.954153
0.996805 0.995266 0.985391
0.996309 0.995409 0.849238
0.994775 0.997379 0.798957
0.997869 1.00418 0.993788
0.997379 0.994844 0.853054
0.994821 0.996871 0.797312
1.00144 0.994787 0.993803
1.00174 1.00202 0.989912
1.00141 1.00096 0.992522
0.995258 0.995774 0.988719
0.997413 0.994668 0.932816
0.994922 0.994748 0.948841
0.994735 0.997237 0.859068
0.994788 0.995526 0.778277
0.996599 1.00228 0.998714
0.995051 1.00517 0.998232
0.995335 1.00493 0.999214
1.00045 1.00398 0.990233
1.00003 1.00463 0.990123
0.998042 1.00494 0.992801
0.997556 1.0051 0.993796
0.995623 1.00401 0.997839
1.00019 1.00443 0.990051
0.997555 1.00497 0.994197
0.99842 1.00482 0.992476
1.0003 1.00457 0.989982
0.996105 1.00515 0.996109
0.996663 1.00511 0.995316
0.995208 1.00508 0.99723
0.998772 1.0051 0.991494
1.00016 1.00462 0.98991
0.999836 1.00443 0.990909
0.997729 1.00393 0.994654
0.997694 1.00403 0.99391
0.998562 1.00224 0.995004
0.996149 1.00284 0.998957
0.998801 1.00203 0.99399
0.997597 1.00482 0.993146
0.998887 1.00516 0.99182
0.998959 1.00506 0.991111
0.999523 1.00498 0.99081
1.00008 1.0042 0.990809
1.00004 1.00266 0.992424
1.0001 1.00419 0.990406
0.999919 1.00258 0.992471
0.999867 0.999491 0.996342
0.999764 1.00305 0.992221
0.999741 0.999599 0.996019
0.999913 0.997539 0.997867
0.999667 0.999752 0.995599
0.999925 0.997657 0.999067
0.999921 0.997716 0.997686
1.00035 1.00354 0.990944
0.999867 1.00191 0.993156
0.999954 1.00216 0.992832
0.999983 0.999166 0.995737
1.00019 1.00272 0.992032
1.00005 0.999572 0.995266
0.999993 0.997532 0.998996
1.00004 1.00031 0.995357
0.999961 0.997978 0.998007
0.999958 0.998268 0.996852
0.998665 0.994715 0.979419
1.00551 0.994783 0.991445
1.00548 0.994794 0.989956
0.996112 0.99475 0.960282
1.00448 0.994676 0.976083
1.00547 0.994773 0.99135
1.00407 0.994595 0.984636
0.999365 0.994732 0.958352
0.998278 0.995048 0.934198
0.996533 0.994787 0.869611
0.994843 0.998456 0.802046
0.999322 1.00389 0.991673
1.00025 1.00331 0.991304
1.00047 1.00361 0.990848
0.999302 1.0038 0.992276
0.997662 1.00497 0.99384
0.999906 1.00455 0.990783
1.00015 1.00485 0.989828
1.00008 1.00404 0.990746
1.0055 0.99478 0.990849
1.00538 0.994807 0.990479
1.00528 0.994776 0.990225
1.00417 0.998487 0.989454
1.00466 0.997394 0.989203
1.00125 0.999794 0.992919
1.00382 0.998451 0.992278
1.00054 1.00303 0.992098
1.00094 1.00351 0.989869
1.00121 1.00362 0.989795
0.99943 1.00465 0.991044
0.995104 1.00485 0.997617
1.00422 0.995742 0.990104
0.996493 1.00489 0.995587
1.00052 1.0031 0.991251
1.00502 0.994707 0.990763
1.00384 0.999207 0.989474
1.00383 0.998274 0.989886
0.99859 1.00022 0.997117
0.998856 1.00223 0.994925
1.00273 0.996509 0.988146
1.00275 0.999433 0.990643
1.00364 1.00077 0.989509
1.00162 0.99887 0.993508
0.997971 1.0048 0.993735
0.996504 1.00346 0.996297
0.996791 1.00223 0.997657
0.999799 0.999968 0.846657
1.00064 0.994877 0.934435
0.998142 1.00409 0.995074
1.00296 1.00412 0.986408
1.00263 0.994676 0.990229
1.00356 0.997822 0.991816
1.00418 1.00055 0.987611
0.999979 0.994835 0.932414
0.99564 0.994743 0.953649
0.996574 0.995912 0.986098
0.994812 0.995924 0.868307
0.994826 0.995962 0.795681
0.998299 1.00413 0.993876
0.999682 0.99513 0.850108
0.994772 0.995559 0.791255
1.00111 0.995468 0.993593
1.00161 1.00229 0.989957
1.00142 1.00063 0.993395
0.995651 0.996496 0.989794
0.995934 0.994643 0.925952
0.995091 0.994751 0.949778
0.994785 0.996308 0.863138
0.994824 0.995993 0.775469
0.996784 1.00488 0.996832
0.994793 0.994815 0.784436
0.994733 0.994735 0.7708
0.99719 1.00081 0.996769
0.999055 1.00222 0.997153
0.994864 0.998291 0.986979
0.994936 0.994793 0.954999
0.994884 0.99459 0.916255
0.99482 0.995771 0.866636
0.994898 0.994901 0.793536
0.995245 1.00519 0.998039
0.995136 1.00465 0.999461
0.994925 1.00479 0.999255
1.0003 1.00435 0.990011
1.00052 1.00459 0.990011
0.998488 1.00503 0.992051
0.997147 1.00472 0.994525
0.995803 1.00514 0.996523
1.00037 1.0047 0.98984
0.996825 1.00507 0.994933
0.999062 1.00508 0.991495
0.995296 1.00505 0.997375
0.995049 1.00495 0.99818
0.996473 1.0049 0.995391
0.999581 1.00496 0.991525
1.00039 1.00401 0.990855
0.997702 1.00371 0.995459
0.998068 1.00413 0.993831
0.999397 1.0015 0.994764
0.995218 1.00288 0.999182
0.999453 0.999744 0.995207
0.99538 1.00509 0.99625
0.996894 1.0011 1.00004
1.00174 1.00488 0.988023
1.00517 0.999833 0.988378
0.998064 1.00465 0.991419
0.998636 1.00278 0.994067
0.998663 1.00463 0.991181
0.998281 1.00472 0.993244
0.999831 1.00497 0.990619
0.999124 1.00513 0.991825
0.999397 1.00454 0.991251
0.999471 1.00343 0.991975
1.00008 1.00439 0.990673
0.999865 1.00258 0.992457
0.999958 0.999471 0.996152
1.00008 1.00231 0.992494
0.999852 0.999431 0.996024
1.00003 0.997252 0.997835
0.999719 0.999615 0.995723
0.999963 0.997501 0.999096
0.999922 0.997626 0.99908
1.00064 1.00375 0.990623
0.999915 1.00211 0.992953
1.00048 1.00328 0.990953
1 0.99898 0.995904
0.999969 1.00181 0.99314
1.00006 1.00202 0.992821
1 0.999179 0.995721
0.999993 0.997293 0.999086
1.00006 0.999634 0.995925
1 0.997598 0.998231
0.999985 0.997946 0.997308
0.999107 0.997357 0.835765
0.994826 0.99499 0.781365
0.995527 0.994764 0.961201
1.00432 0.99465 0.976441
1.00549 0.994794 0.991437
1.00195 0.994772 0.955297
1.00331 0.99468 0.98539
0.999628 0.994926 0.929449
0.99485 0.994873 0.848558
0.994839 0.996976 0.799541
0.998655 0.994747 0.967996
0.995057 0.994703 0.935252
0.994733 0.99538 0.860871
0.994923 0.996997 0.790983
0.999707 1.00448 0.991956
0.999829 1.00367 0.991493
1.00024 1.00327 0.991348
0.999316 1.00331 0.992517
0.997165 1.00438 0.994937
1.00031 1.00475 0.989741
0.999332 1.0047 0.99125
1.00085 1.00508 0.988543
1.00028 1.00478 0.989742
0.999481 1.00474 0.990809
1.00439 0.994819 0.990477
1.00489 0.994725 0.990729
1.00349 0.999503 0.98943
1.00297 0.998482 0.99027
0.99944 1.00221 0.995135
0.998953 1.00051 0.9953
0.999415 1.0028 0.993364
0.996673 1.00492 0.995235
1.0022 0.995737 0.988826
0.997865 1.00503 0.993522
0.996586 1.00342 0.996757
1.00259 0.999269 0.990709
1.00325 1.00159 0.988614
1.00073 0.999179 0.99439
0.997183 1.0024 0.997966
0.999497 0.995265 0.987095
1.00079 1.00164 0.992851
0.996709 1.00404 0.996442
0.998757 1.0039 0.993469
0.996139 1.00515 0.995313
0.995232 1.00443 0.998038
0.994774 0.99478 0.797106
0.999739 0.995103 0.857355
0.999827 0.997385 0.91821
0.998547 1.00415 0.993942
1.00178 1.00265 0.989946
1.00078 0.996117 0.993368
1.00127 1.00009 0.994273
0.999518 0.998063 0.865066
0.995179 0.994681 0.919703
0.994944 0.994698 0.948989
0.995923 0.997191 0.990626
0.994763 0.995787 0.846218
0.994727 0.994975 0.797526
0.99489 0.997384 0.790979
0.996891 1.00459 0.99653
0.994796 0.994867 0.790905
0.994769 0.994758 0.770499
0.997499 0.99903 0.997413
0.998752 1.00216 0.997057
0.994846 0.997141 0.988773
0.995208 0.994779 0.951566
0.995108 0.994606 0.929208
0.9948 0.996428 0.845863
0.995305 0.994894 0.802191
0.995798 1.00425 1.00063
0.994731 0.994776 0.7785
0.994819 0.994832 0.775986
0.994811 1.00214 1.00038
0.994847 0.99668 0.963431
0.9948 0.994772 0.927098
0.99493 0.994905 0.848812
0.9958 0.994908 0.823422
0.994934 1.00434 0.999703
0.994961 1.00497 0.999576
0.99491 1.00484 0.999875
1.00016 1.00499 0.989771
0.999412 1.00502 0.991496
0.996933 1.00503 0.994552
0.995384 1.00502 0.997521
0.999069 1.00495 0.991502
0.996686 1.00494 0.995306
0.995225 1.00481 0.998234
0.995211 1.0049 0.998672
0.995573 1.00446 0.998132
0.997405 1.00493 0.994545
0.998378 1.00465 0.993738
0.999256 1.00092 0.994544
0.994789 1.00339 0.999445
0.995837 1.00462 0.996641
0.999561 1.00055 0.99488
0.995936 1.00083 1.00046
1.00128 1.00262 0.992682
0.994548 1.0052 0.999667
1.00298 0.999819 0.990256
1.0014 1.00366 0.989562
1.00281 1.00205 0.987904
1.00504 0.999854 0.986928
1.00382 1.00106 0.98851
1.00446 0.999475 0.988862
0.999481 1.00417 0.991449
0.999038 1.00519 0.989183
0.998586 1.00377 0.99415
0.99946 1.00464 0.99123
1.00098 1.00497 0.988486
0.998667 1.00461 0.993331
0.999371 1.00504 0.990681
0.999832 1.00408 0.990742
0.999906 1.00443 0.991392
0.999852 1.00334 0.991996
1.00019 0.999918 0.995476
0.999791 1.00276 0.992495
0.999943 0.999628 0.995662
1.00012 0.997409 0.997624
0.999866 0.999374 0.995734
1.00003 0.997304 0.998471
0.999979 0.997437 0.999097
1.00039 1.00467 0.989405
1.00002 1.00246 0.992501
1.00026 1.0041 0.990415
1.00004 0.99907 0.995761
0.999896 1.0021 0.992974
1.00033 1.00337 0.990959
1.00001 0.997231 0.9991
0.999986 0.999022 0.995899
0.999927 1.00195 0.99313
1.00002 0.999176 0.995706
0.999997 0.997356 0.999062
1 0.997597 0.998956
0.994764 0.99483 0.777429
0.99866 0.995266 0.850258
0.994806 0.994776 0.77475
0.99485 0.995021 0.783489
0.999321 0.994969 0.956439
1.00238 0.994744 0.986181
0.99915 0.994754 0.924133
0.99558 0.994926 0.86867
0.994851 0.995464 0.797323
0.998402 0.994782 0.966655
0.996101 0.994657 0.91932
0.994751 0.996193 0.864348
0.99482 0.996235 0.783669
0.994907 0.994774 0.959444
0.994766 0.994641 0.913653
0.994797 0.995665 0.840026
0.994865 0.994898 0.799738
1.00033 1.00428 0.990787
0.998766 1.0045 0.992147
0.999822 1.00398 0.991308
0.996478 1.00382 0.996003
1.00079 1.00399 0.989334
1.00006 1.00491 0.989915
0.998878 1.00454 0.991708
1.00133 1.00488 0.988182
1.00105 1.00506 0.988499
1.00037 1.00467 0.989648
1.00236 0.994744 0.989427
1.00231 0.9992 0.990797
1.00299 1.00256 0.987729
0.999996 0.999192 0.995278
0.997156 1.00368 0.998257
0.997051 1.00302 0.997209
0.998201 1.00509 0.993313
0.999102 1.00319 0.993439
0.999486 0.99627 0.98778
0.997225 1.00508 0.994802
0.996631 1.00304 0.998217
1.00054 1.00125 0.992926
0.997508 1.0029 0.996483
0.996633 0.999805 0.986348
0.996706 1.0029 0.997608
0.994648 1.00546 0.998301
0.99611 1.00413 0.99729
0.995352 1.00461 0.997581
0.994741 0.994764 0.784121
0.994785 0.994731 0.79208
0.999766 1.00022 0.835923
0.996928 1.00437 0.996276
0.99888 1.00199 0.996987
0.998027 0.997999 0.998034
0.994781 0.994813 0.786114
0.994788 0.994606 0.91425
0.994937 0.99477 0.952342
0.994897 0.995655 0.991065
0.994789 0.996338 0.864197
0.994809 0.994777 0.771127
0.995962 0.994883 0.804373
0.996118 1.00408 1.00063
0.994745 0.994796 0.779049
0.994798 0.994831 0.777206
0.994887 1.00262 0.999071
0.994847 0.995718 0.965154
0.995267 0.994777 0.912632
0.995684 0.994901 0.817835
0.995409 0.996132 0.858282
0.994738 1.00488 1.00165
0.994764 0.994831 0.765716
0.994866 0.994847 0.795658
0.994867 0.994892 0.799223
0.994721 1.00001 0.987503
0.994831 0.995555 0.932663
0.997356 0.994884 0.872739
0.995072 1.00511 0.999897
0.995202 1.00466 0.999662
0.994956 1.00516 0.99938
0.998948 1.00473 0.991496
0.996826 1.00495 0.995222
0.995343 1.00456 0.998291
0.996869 1.005 0.994634
0.995413 1.00424 0.998269
0.995265 1.00453 0.99853
0.995146 1.0044 0.999715
0.995145 1.00495 0.998235
0.996002 1.00369 0.997095
0.99966 1.00128 0.994538
0.994681 1.00051 1.00079
0.994674 1.00473 0.999378
0.999619 1.00161 0.99346
1.00088 1.00114 0.99414
1.00012 1.0013 0.993757
1.00343 1.00012 0.988551
1.00102 1.00208 0.990994
1.00308 1.00169 0.987975
1.00487 1.00121 0.985891
1.00512 1.00094 0.985453
1.00492 0.998863 0.987885
1.00488 0.999812 0.986936
1.00245 1.00422 0.987561
1.00289 1.00157 0.988648
1.00365 0.99906 0.989351
1.00087 1.00349 0.991473
1.00008 1.00518 0.988837
1.00188 1.00518 0.986317
1.00001 1.00471 0.991283
1.00122 1.00511 0.988426
1.0008 1.00478 0.988466
0.999667 1.00514 0.990723
1.00027 1.00376 0.990692
1.00027 1.00031 0.995
1.00015 1.00277 0.992011
1.00019 0.999955 0.995011
1.00036 0.997642 0.99699
0.999892 0.999759 0.995334
1.00012 0.997362 0.998383
1.00007 0.997242 0.999076
1.00111 1.00509 0.987865
1.00022 1.00285 0.991385
1.00069 1.0045 0.989417
1.00008 0.999313 0.995451
1.00009 1.00238 0.992278
1.00041 1.00398 0.990207
1.00003 0.997289 0.999059
1.00004 0.999061 0.995776
0.999998 1.00189 0.99299
1 0.997262 0.999101
0.999969 0.999048 0.995894
1 0.997372 0.999039
0.994794 0.994816 0.777387
0.994784 0.994926 0.79245
0.999268 0.995013 0.849526
1.00093 1.00508 0.988392
0.994779 0.9948 0.778871
0.994792 0.994796 0.774672
0.994876 0.994999 0.797119
0.997936 0.994732 0.966543
0.995047 0.994698 0.934235
0.994684 0.997168 0.847144
0.994799 0.995552 0.795499
0.995306 0.994764 0.956743
0.994919 0.994646 0.928653
0.994794 0.996225 0.845666
0.994887 0.994897 0.800407
0.994941 0.994752 0.950645
0.994814 0.994837 0.924581
0.996496 0.994921 0.861333
0.995304 0.994909 0.823766
0.998464 1.00354 0.993727
0.99947 1.00447 0.991283
0.998774 1.0039 0.992339
1.00121 1.00275 0.99035
1.00098 1.00445 0.989276
0.999943 1.00497 0.990087
1.00148 1.0051 0.988154
1.00131 1.00482 0.988454
0.998757 0.99722 0.988322
0.999842 1.00091 0.992934
0.998013 1.00376 0.993395
0.998122 1.00178 0.996465
0.997441 1.00238 0.998365
0.99785 1.00472 0.994186
0.99634 1.00394 0.996203
0.996319 1.00005 0.98644
0.996075 1.00482 0.997346
0.995567 1.0042 0.998285
0.996171 1.00311 0.997748
0.995057 1.00515 0.99699
0.995423 1.00424 0.983379
0.994678 1.00378 0.999332
0.994817 1.00505 0.999003
0.99532 1.0053 0.99732
0.99473 0.994806 0.766658
0.994734 0.994763 0.780523
0.994792 0.994679 0.786807
0.996051 1.00441 1.0006
0.994899 1.0019 0.997714
0.994764 0.994817 0.779459
0.994755 0.994826 0.92825
0.994842 0.99548 0.961492
0.995679 0.994907 0.857392
0.99478 0.994833 0.778187
0.994892 0.994895 0.812064
0.994785 1.00497 1.0015
0.994767 0.994826 0.766224
0.994876 0.994858 0.793535
0.994729 1.00075 0.991133
0.994884 0.994916 0.799804
0.994834 0.996766 0.926064
0.996699 0.996773 0.87416
0.99477 1.00426 0.997122
0.994834 0.994843 0.782002
0.994791 0.994815 0.780813
0.994823 0.99709 0.789587
0.996571 0.994915 0.861161
0.994858 1.00146 0.96951
0.994866 0.995201 0.918915
0.995408 1.00485 0.999478
0.995013 1.00521 0.999392
0.994704 1.00529 0.997997
0.996444 1.00511 0.994702
0.995337 1.00408 0.998408
0.995415 1.0045 0.998427
0.995188 1.00464 0.998135
0.994995 1.00469 0.999497
0.997268 1.00271 1.00015
0.994759 1.00424 0.999095
0.997791 1.00059 0.994352
0.999375 1.00127 0.995047
1.00095 0.99928 0.992294
0.996599 1.00325 0.996857
1.00284 0.999999 0.989255
1.00459 1.00253 0.984214
1.00478 1.00187 0.984895
1.00359 1.00168 0.987955
1.00477 1.00128 0.98553
1.00513 1.00151 0.984889
1.0049 1.00075 0.986161
1.00503 1.00093 0.98552
1.00413 1.001 0.987913
1.00413 0.99987 0.987777
1.00489 0.999661 0.986956
1.00167 1.00513 0.986448
1.00166 1.00453 0.98757
1.00172 1.0023 0.988764
1.00114 1.0052 0.988498
1.00241 1.00501 0.986303
1.00155 1.00513 0.986552
1.00106 1.00501 0.988366
1.00109 1.00474 0.988445
1.0003 1.00127 0.993127
1.00082 1.00376 0.990674
1.0004 1.0002 0.994102
1.00013 0.997735 0.998728
1.00021 0.999965 0.994661
1.00025 0.997641 0.997951
1.00016 0.997538 0.998917
1.00097 1.00506 0.987971
1.00053 1.00359 0.990119
1.00096 1.00509 0.988162
1.00021 0.999575 0.995017
1.00025 1.00293 0.99125
1.00066 1.00467 0.989423
1.00005 0.997424 0.998988
1.00012 0.999237 0.995474
1.00003 1.00239 0.992057
1.00002 0.997279 0.999073
1.00003 0.999066 0.995792
0.999996 0.997268 0.999103
0.994744 0.994811 0.774124
0.994786 0.994801 0.777752
0.99478 0.995252 0.791022
1.001 1.00498 0.988569
1.00031 1.00508 0.988567
1.00131 1.00329 0.990945
0.994879 0.994861 0.794364
0.994797 0.994798 0.780055
0.99479 0.994784 0.774771
0.996052 0.994748 0.957301
0.994871 0.994627 0.914854
0.994793 0.996777 0.86506
0.994889 0.994881 0.794884
0.994928 0.994782 0.952854
0.994979 0.994795 0.920203
0.99604 0.994916 0.861722
0.995371 0.994906 0.818026
0.994923 0.994841 0.952299
0.994801 0.995293 0.928115
0.996846 0.994902 0.872919
0.994892 0.994906 0.795882
0.997524 1.00315 0.995185
0.998477 1.00375 0.993671
0.999193 1.00505 0.991781
1.00084 1.00322 0.990252
1.00065 1.00494 0.989223
1.00137 1.00509 0.988123
0.995972 0.99989 0.986887
0.996304 1.0033 0.997922
0.997761 1.0029 0.995186
0.996664 1.00325 0.998142
0.997359 1.00425 0.997153
0.995304 1.005 0.997059
0.99554 1.00526 0.996932
0.995218 1.00328 0.983453
0.99478 1.00519 0.999144
0.994659 1.00461 0.997748
0.995186 1.00536 0.99812
0.994716 1.00226 0.982515
0.994801 1.00493 0.99478
0.994919 1.00297 0.999035
0.994862 0.994854 0.76944
0.994739 0.994814 0.766207
0.994725 0.994762 0.776897
0.994854 1.00489 1.00131
0.994753 1.00157 0.986522
0.994763 0.994821 0.766747
0.994825 0.996682 0.926784
0.996244 0.994887 0.860415
0.994889 0.994854 0.7914
0.994886 0.994875 0.794465
0.994734 1.00438 0.997648
0.994813 0.994845 0.780715
0.994812 0.994797 0.7822
0.994876 1.0021 0.965915
0.994806 0.996622 0.782331
0.995964 0.996424 0.860453
0.994863 0.99732 0.93274
0.994817 1.00514 0.988016
0.994759 0.994814 0.777021
0.994786 0.994785 0.774829
0.994838 0.999508 0.800614
0.994779 0.996153 0.837826
0.994803 0.994908 0.930419
0.994799 1.0017 0.959345
0.99524 1.00492 0.999345
0.994769 1.00526 0.998171
0.994984 1.00486 0.998659
0.995146 1.00432 0.998036
0.994834 1.00475 0.999135
0.996162 1.00196 1.00065
0.998386 1.00238 0.998191
0.998101 1.00097 0.995897
1.00288 0.999021 0.991472
1.00186 1.00404 0.986436
1.00223 1.00018 0.990484
1.0045 1.00261 0.984328
1.00449 1.00262 0.983995
1.00521 0.999654 0.985951
1.00511 1.00132 0.985032
1.00484 1.00188 0.984832
1.00474 1.00149 0.985178
1.00501 1.00257 0.984403
1.00515 1.00135 0.98494
1.00497 1.00067 0.986237
1.00486 1.00109 0.986295
1.00476 1.00092 0.985584
1.00229 1.00268 0.988284
1.00361 1.00092 0.987788
1.00374 1.00066 0.987652
1.00242 1.00521 0.9856
1.00222 1.00514 0.986448
1.00085 1.00435 0.987583
1.00283 1.00495 0.986308
1.00222 1.00514 0.986561
1.00058 1.00209 0.991763
1.00186 1.00452 0.988396
1.00041 1.00123 0.993053
1.00029 0.998248 0.998552
1.00064 0.999975 0.99403
1.00034 0.997825 0.997819
1.00027 0.997592 0.99875
1.00175 1.00509 0.987784
1.001 1.00399 0.989503
1.00118 1.00511 0.987935
1.00024 1.00007 0.994472
1.00049 1.00368 0.990284
1.00092 1.00509 0.988467
1.00008 0.997522 0.998886
1.00019 0.999546 0.99504
1.0004 1.00296 0.991119
1.00005 0.997361 0.999009
1.00014 0.999181 0.995497
1.00002 0.997298 0.999088
0.994832 0.994844 0.779115
0.99475 0.994829 0.774661
0.994798 0.994786 0.777833
1.00046 1.0048 0.988417
1.00272 1.00227 0.992043
1.00052 1.00512 0.988755
1.00052 1.00508 0.988496
1.00023 1.00216 0.991686
1.00083 1.00255 0.991217
0.998265 1.00229 0.995113
0.994832 0.994837 0.778607
0.994875 0.994859 0.792104
0.994813 0.994824 0.781165
0.994892 0.994903 0.812062
0.995064 0.994765 0.9505
0.994835 0.994828 0.915471
0.995955 0.994891 0.872376
0.995129 0.994859 0.950813
0.994811 0.997412 0.914211
0.996415 0.995722 0.873366
0.995126 0.994898 0.804312
0.994857 0.995572 0.955198
0.994844 0.99837 0.91535
0.994935 0.994902 0.849529
0.994808 0.996033 0.780916
0.995419 1.00518 0.996969
0.997164 1.00368 0.995726
0.99814 1.00413 0.993618
1.00054 1.00417 0.990153
0.995257 1.00238 0.983371
0.994645 1.00522 0.996309
0.995348 1.00521 0.997154
0.996585 1.00525 0.996593
0.99459 1.00535 0.99962
0.995076 1.00534 0.998062
0.995945 1.00374 0.999372
0.994957 1.00224 0.979603
0.994875 1.00522 0.994651
0.995727 1.00294 1.00002
0.996273 1.00056 0.97456
0.994767 1.00379 0.998965
0.994736 0.99483 0.770447
0.994839 0.994855 0.77579
0.99475 0.994834 0.765748
0.994625 1.00486 0.99817
0.99488 1.0015 0.970461
0.994792 0.994845 0.779415
0.994874 0.995194 0.920101
0.995854 0.994906 0.871962
0.9948 0.994823 0.783297
0.99478 0.996043 0.793843
0.994785 1.00503 0.989108
0.994757 0.994827 0.777669
0.994779 0.99481 0.77481
0.994815 1.00201 0.959489
0.994835 0.996955 0.798195
0.994771 0.996524 0.843535
0.994843 0.995413 0.916576
0.995289 1.00405 0.982401
0.994818 0.99482 0.778073
0.994812 0.995024 0.780253
0.99472 0.995526 0.859435
0.994812 0.994871 0.92648
0.994843 0.999137 0.955107
0.994744 1.00511 0.998938
0.994894 1.00465 0.998721
0.994954 1.00502 0.997892
0.995005 1.00127 1.00116
0.996877 1.00254 0.998825
1.00079 1.00149 0.993614
1.00481 0.998643 0.990663
1.00303 1.00445 0.985575
1.00428 1.00182 0.985521
1.00441 1.00255 0.984436
1.00463 1.00264 0.983923
1.00498 1.00103 0.985409
1.00538 0.996966 0.988156
1.00526 0.99949 0.986563
1.00521 0.999837 0.985964
1.0051 1.00173 0.985096
1.00512 1.00112 0.98506
1.00493 1.00179 0.984765
1.0052 1.00396 0.98283
1.00503 1.00251 0.984505
1.00524 1.00135 0.985003
1.00417 1.00228 0.987493
1.00399 1.00134 0.987028
1.00467 1.00163 0.986433
1.00353 1.00284 0.986386
1.00244 1.00265 0.988249
1.00313 1.00156 0.987662
1.00117 1.0022 0.990697
1.00263 1.00515 0.985729
1.00263 1.00513 0.986447
1.00231 1.00511 0.986568
1.00067 1.00203 0.991749
1.00036 0.998873 0.998205
1.00037 1.00129 0.992989
1.0003 0.99831 0.998442
1.00034 0.997657 0.998638
1.00299 1.00441 0.988223
1.00284 1.00515 0.986967
1.00126 1.00466 0.98847
1.00159 1.00473 0.987776
1.00022 1.00073 0.993862
1.00092 1.00413 0.989472
1.0013 1.00516 0.987892
1.00007 0.997897 0.998755
1.00024 1.00003 0.994497
1.00052 1.00376 0.990446
1.00007 0.997582 0.998917
1.00018 0.999551 0.995068
1.00005 0.997341 0.999032
0.994779 0.994846 0.768412
0.994821 0.994834 0.777893
0.994747 0.994822 0.775201
1.00123 1.00499 0.987971
0.999722 1.00202 0.992878
1.00199 1.00081 0.989944
0.997884 1.00433 0.992307
1.00164 0.998587 0.994529
1.00072 1.00508 0.988399
0.99948 1.0029 0.992503
1.00051 1.00335 0.991213
0.998647 1.00084 0.996727
0.999065 1.00292 0.995458
0.994768 0.994747 0.774132
0.994813 0.994843 0.779982
0.99487 0.994843 0.789953
0.995361 0.994882 0.806585
0.996293 0.994903 0.860629
0.994985 0.994874 0.949416
0.994769 0.995947 0.927257
0.994869 0.996453 0.949884
0.994857 0.998216 0.927752
0.995098 0.995974 0.859169
0.994835 0.996168 0.778177
0.994887 0.998898 0.950743
0.994799 0.996454 0.927232
0.994822 0.995957 0.868141
0.994738 0.998371 0.804406
0.998395 1.00025 0.997883
0.995431 1.00497 0.997283
0.997443 1.00317 0.996296
0.99479 1.00228 0.976182
0.994859 1.00519 0.993567
0.995156 1.00529 0.997916
0.994757 1.00444 0.999622
0.995372 1.00367 0.999851
0.99478 1.0022 0.999538
0.994809 1.00211 0.975449
0.995187 1.00208 1.00306
0.994774 1.00016 0.983438
0.994767 0.994782 0.786616
0.994756 0.994841 0.769716
0.994821 0.994846 0.782484
0.994823 1.00501 0.989453
0.994842 0.999796 0.95721
0.994772 0.994833 0.778308
0.994828 0.99491 0.928551
0.994776 0.997019 0.862381
0.994813 0.994785 0.775157
0.994845 0.995534 0.796119
0.995093 1.00434 0.983306
0.994814 0.994806 0.778066
0.994831 0.995413 0.782189
0.994855 0.998353 0.956446
0.994738 0.996434 0.863349
0.995068 0.994806 0.917085
0.994745 1.00255 0.981208
0.994753 0.994827 0.77671
0.996042 0.994897 0.869393
0.994791 0.994647 0.913184
0.994951 0.99486 0.95575
0.994976 1.00449 0.998813
0.994856 1.00519 0.997635
0.997944 1.00022 0.996598
0.995472 1.00271 0.999432
0.999672 1.00184 0.994503
1.00429 0.995723 0.992704
1.00416 1.00493 0.984693
1.00418 1.00172 0.985496
1.00501 0.99747 0.988532
1.00466 1.00278 0.983853
1.00489 1.00074 0.985456
1.00515 0.997293 0.988479
1.0054 0.994849 0.990325
1.00539 0.996741 0.988135
1.00537 0.996901 0.988193
1.00534 0.999379 0.986724
1.00525 0.99951 0.986511
1.00519 0.999967 0.985979
1.00533 1.00281 0.983594
1.00506 1.0016 0.984961
1.00508 1.00091 0.985087
1.00518 1.00504 0.983254
1.00425 1.00398 0.983554
1.00503 1.00229 0.984606
1.00242 1.00374 0.98774
1.00298 1.00246 0.987378
1.00297 1.00174 0.987813
1.00181 1.00293 0.990864
1.00311 1.00322 0.98649
1.00254 1.00258 0.988211
1.00064 0.999924 0.994783
1.00131 1.00258 0.990916
1.0029 1.00516 0.985868
1.00087 1.00205 0.991716
1.00044 0.999031 0.998089
1.00035 0.998686 0.998327
1.00194 1.00169 0.987946
1.0029 1.00501 0.986464
1.00068 1.00442 0.988387
1.00127 1.00514 0.987974
1.00173 1.00512 0.986987
0.999956 1.00146 0.993399
1.00112 1.00472 0.988463
1.00144 1.00511 0.987761
1.00004 0.998267 0.998622
1.00021 1.00062 0.993913
1.00073 1.00419 0.989441
1.00006 0.997774 0.998796
1.00025 0.999924 0.99452
1.00005 0.997487 0.998948
0.994762 0.994826 0.784767
0.994784 0.994841 0.769029
0.994798 0.994856 0.776461
1.00261 1.00416 0.986048
1.00076 1.00497 0.987566
0.998182 1.00247 0.993986
0.999729 1.005 0.991539
1.00323 0.999946 0.989614
0.999717 0.997626 0.998072
1.00329 1.0001 0.989881
0.995138 1.00516 0.996204
0.999537 1.00387 0.991158
0.998566 0.997791 0.998248
0.99722 1.00332 0.995571
0.997676 1.00226 0.996239
0.994825 0.997069 0.798698
0.994792 0.994767 0.773776
0.994799 0.994851 0.781023
0.994909 0.997388 0.793454
0.995301 0.994902 0.85788
0.994844 0.998369 0.915762
0.995259 0.995173 0.950634
0.995568 0.998878 0.951631
0.994792 0.997722 0.801488
0.994828 0.996475 0.918623
0.994814 0.99668 0.847431
0.99488 0.996651 0.958371
0.994788 0.994812 0.928979
0.994727 0.997215 0.8616
0.99923 0.996215 1.0024
0.998268 1.00028 0.99779
0.994893 1.00538 0.997569
0.995011 1.0025 0.975824
0.995854 1.00069 1.0001
0.995758 1.00291 0.999802
0.995835 1.00012 1.00344
0.994952 0.999436 0.983587
0.995481 0.997434 0.994636
0.994748 0.994751 0.79308
0.994763 0.994798 0.785934
0.994783 0.994833 0.768688
0.994743 1.00481 0.983367
0.994826 0.999802 0.955903
0.994795 0.994806 0.778361
0.994829 0.994827 0.913684
0.994677 0.99692 0.845976
0.994857 0.995812 0.795878
0.99478 1.00454 0.980919
0.994771 0.994892 0.791899
0.994928 0.994891 0.847787
0.995092 0.994838 0.950146
0.994999 0.994644 0.928194
0.99573 0.998447 0.98819
0.998995 0.99776 0.835204
0.995079 0.99472 0.93548
0.994943 0.994742 0.948096
0.994784 1.00531 0.997439
0.997628 1.00189 0.9963
1.0011 0.997772 0.99376
0.998562 1.00264 0.995394
1.00345 0.996838 0.992485
1.00487 0.994784 0.992055
1.00412 1.00157 0.985475
1.005 0.997311 0.9884
1.00518 0.995423 0.990196
1.00481 1.00031 0.985503
1.0051 0.997142 0.988404
1.00536 0.994717 0.99046
1.00533 0.994745 0.991092
1.00538 0.994959 0.990249
1.0054 0.994869 0.990314
1.00546 0.996538 0.988323
1.0054 0.99665 0.98832
1.00538 0.996839 0.98823
1.00548 0.999796 0.985808
1.00533 0.999238 0.986593
1.00524 0.999532 0.986455
1.00536 1.00368 0.982042
1.00534 1.00282 0.983522
1.00505 1.00148 0.984823
1.00333 1.00289 0.98645
1.00411 1.00492 0.98322
1.00343 1.00404 0.984295
1.00174 1.00317 0.988807
1.00286 1.00275 0.987597
1.00184 1.00258 0.987247
1.00012 1.00203 0.997146
1.00181 1.00316 0.98892
1.00331 1.00267 0.986567
1.00054 0.999422 0.997757
1.00145 1.00253 0.990187
1.0005 0.998948 0.99797
1.00465 1.00315 0.985332
1.00334 1.00161 0.987554
1.00242 1.00446 0.986702
1.00163 1.00517 0.987828
1.00245 1.00509 0.986463
1.00038 1.00478 0.98854
1.00008 1.00202 0.992874
1.00115 1.00517 0.987995
1.00175 1.00436 0.987003
1.00002 0.998846 0.998512
0.99998 1.00153 0.993398
1.00104 1.00486 0.988454
1.00002 0.998271 0.998663
1.00019 1.00068 0.993953
1.00005 0.997795 0.998835
0.994771 0.994818 0.784156
0.99477 0.994814 0.784962
0.994788 0.994834 0.769754
1.00275 1.00408 0.986288
1.00458 1.00296 0.986141
1.00146 1.00488 0.987928
0.999458 1.00499 0.99074
1.00462 0.999842 0.989312
0.99616 0.997783 1.00125
0.997619 1.00197 0.996083
1.00164 1.00106 0.991573
1.00079 1.00028 0.993514
0.998515 1.00111 0.995943
0.997265 1.00314 0.995654
0.99867 1.00227 0.996232
0.99552 0.995504 0.843089
0.994775 0.995607 0.793045
0.994815 0.994784 0.774307
0.994838 0.995978 0.798131
0.99479 0.996654 0.865832
0.994836 0.99578 0.915882
0.994824 0.999454 0.950754
0.994891 0.997584 0.954806
0.994786 0.99654 0.86433
0.994944 0.994796 0.914854
0.99493 0.995661 0.960348
0.994893 0.994579 0.916613
0.998451 0.995607 1.00591
0.999222 0.996039 1.00218
0.998033 1.00031 0.997773
0.994825 0.999649 0.983898
0.996009 0.999528 1.00376
0.995478 0.997599 0.994256
0.994947 0.9953 0.992023
0.999445 0.999981 0.846064
0.994771 0.99472 0.789359
0.99476 0.994819 0.784983
0.99482 1.00433 0.981439
0.995021 0.994829 0.949745
0.994769 0.994996 0.790195
0.994885 0.994617 0.915267
0.995551 0.995384 0.868034
0.995574 0.998372 0.984546
0.998741 0.994976 0.850372
0.995874 0.994657 0.919644
0.995023 0.994784 0.949603
0.996958 0.996651 0.984065
0.998253 0.994862 0.934565
0.994908 0.994766 0.95765
0.997209 1.00259 0.996024
1.00059 0.997294 0.993662
1.00341 0.996655 0.992637
1.00266 0.997469 0.992276
1.00461 0.994771 0.991994
1.00507 0.994612 0.991376
1.00501 0.997216 0.988271
1.00514 0.995515 0.990068
1.00533 0.994719 0.990462
1.00503 0.997012 0.988328
1.00537 0.994721 0.990413
1.00533 0.994817 0.990727
1.00535 0.99486 0.99081
1.00531 0.994746 0.991074
1.00534 0.994794 0.991066
1.00535 0.995117 0.990492
1.00539 0.995032 0.990373
1.0054 0.994882 0.990304
1.00547 0.997049 0.988133
1.00545 0.996497 0.988316
1.0054 0.996547 0.988505
1.00546 1.00129 0.98418
1.00551 0.999797 0.985809
1.00532 0.999138 0.986469
1.005 1.0029 0.983467
1.00541 1.00371 0.982238
1.00536 1.00285 0.983445
1.00189 1.00417 0.987367
1.00319 1.0035 0.98639
1.00314 1.00476 0.983201
1.00097 1.00094 0.996971
1.00187 1.00307 0.98885
1.00273 1.00261 0.987464
1.00059 1.00111 0.995371
1.00173 1.00272 0.989234
1.00068 1.00034 0.997384
1.00489 1.00418 0.982713
1.00364 1.00362 0.985316
1.00315 1.00281 0.986191
1.00409 1.00222 0.987168
1.00277 1.0042 0.986766
1.00187 1.00516 0.987379
1.00065 1.00229 0.99189
1.00134 1.00517 0.98777
1.00098 1.00509 0.986474
1.00009 0.998821 0.99829
0.999976 1.00198 0.992861
1.00117 1.00517 0.988015
0.999963 0.998574 0.998542
1.00003 1.00128 0.993427
1 0.998101 0.998703
0.997432 0.994848 0.852178
0.994784 0.994878 0.789689
0.994779 0.994808 0.785306
1.00273 1.00353 0.986533
1.00183 1.00482 0.987437
1.00439 1.00261 0.985511
1.00502 0.998938 0.987755
1.0026 0.999916 0.991007
0.999391 1.002 0.995994
1.00163 1.00015 0.993243
1.00135 1.00017 0.993598
1.00481 0.996045 0.991234
1.00181 0.998719 0.99423
1.00197 0.998774 0.994209
1.00024 0.999431 0.995962
0.999247 1.00183 0.996295
0.997438 0.994666 0.930847
0.996487 0.99549 0.84912
0.994741 0.994989 0.798825
0.994755 0.996284 0.848301
0.994791 0.994819 0.926131
0.995083 0.997312 0.957724
0.994985 0.995417 0.962438
0.994899 0.994625 0.931128
0.995608 0.994775 0.958721
0.997109 0.995736 1.00528
0.997448 0.996417 1.00601
0.999441 0.995759 1.00192
0.995197 0.99719 0.994069
0.996193 0.994846 0.993697
0.999686 0.997458 0.917798
0.999734 0.995338 0.855982
0.994791 0.994688 0.785576
0.995467 0.997393 0.980395
0.994909 0.994754 0.948598
0.999088 0.994867 0.849486
0.995078 0.994678 0.934466
0.99711 0.995438 0.984231
0.999529 0.994843 0.929679
0.995322 0.994777 0.954938
0.999776 0.994654 0.983443
0.997975 0.994777 0.967108
1.00023 0.997386 0.993531
1.00248 0.995662 0.992701
1.00484 0.994669 0.992056
1.00428 0.994788 0.991926
1.00501 0.994632 0.991278
1.0053 0.994688 0.990701
1.00508 0.995592 0.989938
1.00532 0.994725 0.990422
1.00536 0.994815 0.990435
1.00538 0.994722 0.990365
1.00533 0.994808 0.990733
1.00537 0.994844 0.990558
1.00533 0.994861 0.99079
1.00536 0.994843 0.990783
1.00529 0.994747 0.991055
1.00534 0.994775 0.991071
1.0053 0.994846 0.991046
1.00535 0.995727 0.990077
1.00535 0.995164 0.990495
1.00539 0.995115 0.990497
1.00544 0.99971 0.985843
1.0055 0.997116 0.988003
1.00544 0.996437 0.988307
1.0053 1.00454 0.981941
1.00545 1.00149 0.984277
1.00555 0.99979 0.98581
1.00317 1.00371 0.985803
1.00452 1.0035 0.983579
1.00542 1.00383 0.982429
1.001 1.00145 0.996653
1.00224 1.00384 0.987274
1.00296 1.0041 0.986342
1.00092 1.0009 0.996935
1.00214 1.00292 0.988899
1.0009 1.00063 0.997079
1.00509 1.00261 0.984795
1.00492 1.0045 0.982864
1.0032 1.00514 0.983104
1.00316 1.00366 0.985283
1.00267 1.00411 0.98582
1.00208 1.00442 0.986004
1.00243 1.00362 0.986809
1.00155 1.00516 0.987266
1.00135 1.00296 0.990117
1.00017 0.999763 0.997873
1.00035 1.00253 0.991876
1.00092 1.00519 0.987718
0.999999 0.99918 0.998378
0.999775 1.00234 0.992803
0.999946 0.9986 0.998578
0.999959 0.994829 0.934822
0.999831 0.995742 0.848676
0.994776 0.994775 0.78372
1.00175 1.00504 0.986943
1.00428 1.00291 0.984878
1.00324 1.00006 0.990065
1.00499 0.999367 0.987342
1.00516 0.997158 0.988809
1.0049 0.995667 0.990588
1.00221 0.99836 0.993641
1.00499 0.996244 0.990517
1.00191 0.999023 0.994026
1.00441 0.998343 0.990072
1.00228 0.999565 0.992023
1.0023 0.998679 0.994275
1.00189 0.999459 0.994409
1.00107 0.998891 0.995972
0.994943 0.994769 0.95811
0.996432 0.994644 0.925669
0.994885 0.995959 0.867593
0.994799 0.994597 0.915636
0.994862 0.995762 0.963221
0.995722 0.994817 0.965254
0.998581 0.994754 0.989971
0.998433 0.995236 1.00381
0.996735 0.997219 1.00612
0.997418 0.994805 0.995418
0.999203 0.994719 0.957764
1.00082 0.994865 0.934204
0.999421 1.0009 0.834496
0.997079 0.995222 0.984658
0.995856 0.99477 0.95516
0.998648 0.994771 0.924454
0.99962 0.99493 0.984063
0.997687 0.994783 0.965799
1.00183 0.996472 0.987152
1.00375 0.994669 0.984019
1.00138 0.995098 0.99278
1.00413 0.994677 0.992193
1.00523 0.994834 0.990796
1.00495 0.994646 0.991179
1.00531 0.994687 0.99067
1.00541 0.994782 0.99046
1.00531 0.994726 0.990381
1.00537 0.994811 0.990444
1.00539 0.994831 0.990529
1.00533 0.9948 0.990738
1.00537 0.994845 0.990581
1.00537 0.994865 0.990718
1.00532 0.994861 0.990771
1.00537 0.994846 0.990775
1.00534 0.994856 0.990945
1.00534 0.994757 0.991076
1.0053 0.994832 0.991054
1.00532 0.995438 0.990494
1.00538 0.998085 0.98767
1.00536 0.995964 0.989739
1.00536 0.995216 0.990498
1.00535 1.00295 0.982815
1.00542 0.999877 0.985846
1.00553 0.997192 0.987874
1.00361 1.0031 0.985704
1.00491 1.00452 0.98197
1.00541 1.00174 0.984386
1.00197 1.00208 0.99575
1.00311 1.00378 0.985664
1.00396 1.00417 0.983698
1.00144 1.00173 0.996229
1.00258 1.00351 0.98718
1.00112 1.00084 0.996729
1.00541 0.999792 0.985937
1.00499 1.00267 0.984406
1.00515 1.00388 0.982786
1.00484 1.00369 0.983009
1.00459 1.00451 0.982837
1.0035 1.00404 0.984415
1.00362 1.00513 0.985469
1.00301 1.00447 0.986078
1.00185 1.00361 0.988124
1.00166 1.00511 0.98718
1.00098 1.00317 0.990134
1.00037 1.00098 0.997172
1.00008 0.999451 0.998041
1.00011 1.00249 0.991881
0.9999 0.998932 0.99844
0.994946 0.994813 0.962432
0.998675 0.994957 0.918168
0.999588 0.99874 0.864239
1.00536 0.995833 0.989488
1.00405 1.00006 0.989143
1.005 0.999497 0.986931
1.00512 0.995927 0.990582
1.00529 0.997015 0.988885
1.00535 0.995638 0.989971
1.00497 0.996321 0.989817
1.00138 0.998904 0.99386
1.00449 0.997314 0.990112
1.00204 0.999684 0.991672
1.00342 0.999077 0.990151
1.00345 0.994582 0.99452
1.00145 0.998362 0.994738
1.00143 0.999661 0.994621
0.997893 0.994738 0.988153
0.995317 0.994752 0.956316
0.995645 0.994682 0.919894
0.99512 0.994797 0.966524
0.998586 0.994731 0.9921
0.999268 0.994783 1.00231
1.00434 0.994673 0.975178
1.00076 0.994811 0.955046
0.999883 0.997044 0.918143
0.999134 0.995101 0.984631
0.996724 0.994778 0.965549
1.00134 0.995636 0.987916
1.00262 0.994679 0.984611
1.00316 0.996533 0.990185
1.00544 0.99457 0.990699
1.00352 0.994686 0.992331
1.00523 0.994804 0.990778
1.00541 0.994939 0.990492
1.00532 0.994693 0.99064
1.0054 0.994796 0.990472
1.0054 0.994839 0.990617
1.00537 0.99481 0.990454
1.00539 0.994833 0.99052
1.00537 0.994873 0.990786
1.00538 0.994848 0.990604
1.00537 0.994866 0.990712
1.00532 0.994889 0.990938
1.00537 0.994849 0.990767
1.00534 0.994854 0.990917
1.00534 0.994864 0.991063
1.0053 0.994816 0.991062
1.00532 0.99522 0.990689
1.00537 0.997284 0.988736
1.00533 1.00161 0.98442
1.00537 0.998405 0.987375
1.00537 0.996185 0.989402
1.00373 1.00204 0.986459
1.00536 1.00305 0.982816
1.00541 1.00003 0.985844
1.00273 1.00159 0.995583
1.00358 1.003 0.98567
1.00468 1.00459 0.981984
1.00219 1.00205 0.99565
1.00308 1.00378 0.985525
1.0017 1.00209 0.99591
1.00545 0.99741 0.987823
1.00535 0.999889 0.98597
1.00552 1.00223 0.983745
1.00485 1.00317 0.984026
1.00505 1.00417 0.982582
1.00409 1.00414 0.983226
1.00528 1.00454 0.982578
1.00353 1.0043 0.98445
1.00237 1.004 0.986901
1.00281 1.00453 0.986079
1.00182 1.00391 0.988177
1.00073 1.00225 0.996554
1.00075 1.00349 0.99015
1.00013 1.0008 0.997453
0.99998 0.999636 0.998186
0.998664 0.994622 0.98554
0.996394 0.994776 0.956826
0.999988 0.994843 0.934456
1.00541 0.994944 0.990032
1.00536 0.994948 0.990362
1.00539 0.995572 0.989624
1.00525 0.99629 0.990568
1.00538 0.996761 0.988966
1.00534 0.995746 0.989975
1.00538 0.995102 0.989979
1.00473 0.996427 0.990147
1.00278 1.00025 0.991332
1.00362 0.998326 0.990607
1.00523 0.994786 0.991213
1.00351 0.994833 0.993116
1.00255 0.994688 0.994471
1.00141 0.998084 0.995209
0.998777 0.994676 0.987991
0.996009 0.994786 0.955473
0.999368 0.994736 0.994361
1.00528 0.994894 0.989304
1.00432 0.994744 0.975171
0.999199 0.994799 0.956141
1.00151 0.994796 0.988563
1.00151 0.994669 0.985236
1.00357 0.995698 0.990532
1.00537 0.994571 0.990908
1.00548 0.994731 0.990994
1.00553 0.994658 0.991429
1.00525 0.994772 0.990758
1.00543 0.994885 0.990507
1.00542 0.994845 0.99092
1.0054 0.994805 0.990484
1.00541 0.994838 0.990629
1.00537 0.99486 0.990927
1.00539 0.994834 0.990512
1.00537 0.994874 0.990788
1.00532 0.994906 0.991024
1.00538 0.994867 0.990706
1.00532 0.994889 0.990933
1.00525 0.994894 0.991251
1.00533 0.994853 0.990889
1.00534 0.994866 0.991014
1.00536 0.996284 0.989733
1.00531 0.995011 0.990883
1.00538 0.997174 0.988831
1.00533 1.00063 0.985522
1.00378 1.00125 0.987251
1.00533 1.00158 0.984451
1.00537 0.998738 0.987081
1.00289 1.00085 0.995691
1.0037 1.00207 0.986536
1.00537 1.00308 0.982815
1.0027 1.00149 0.99559
1.00354 1.0031 0.98564
1.00233 1.00214 0.995565
1.00535 0.995577 0.989776
1.00546 0.997248 0.988088
1.00541 1.00045 0.985508
1.00532 1.00001 0.986001
1.00553 1.00219 0.983641
1.00479 1.00431 0.98232
1.00541 1.00422 0.982372
1.00449 1.00424 0.983177
1.00262 1.00411 0.986046
1.00422 1.0044 0.984523
1.00221 1.00406 0.986952
1.00112 1.00262 0.996155
1.00146 1.00421 0.988231
1.00049 1.00201 0.996756
1.00007 1.00031 0.997703
1.00372 0.994699 0.992171
0.998107 0.994729 0.98289
0.995869 0.994777 0.958468
1.00541 0.994812 0.990253
1.00538 0.995035 0.990069
1.0053 0.994834 0.990808
1.00535 0.995006 0.99033
1.00542 0.99536 0.989748
1.00541 0.994799 0.990464
1.00532 0.995786 0.989975
1.00535 0.995033 0.990002
1.00531 0.994732 0.990924
1.00365 0.997494 0.991061
1.00523 0.994709 0.990843
1.00295 0.994766 0.993318
1.00138 0.994722 0.994454
0.999489 0.994618 0.987612
1.00545 0.994722 0.991627
1.00531 0.994655 0.989331
1.0041 0.994709 0.975252
1.00379 0.994867 0.990846
1.00537 0.994591 0.991107
1.00544 0.994733 0.99093
1.00558 0.994674 0.99157
1.00546 0.994781 0.991447
1.00543 0.994833 0.990525
1.00542 0.99484 0.990918
1.00536 0.994859 0.991227
1.00541 0.994838 0.990641
1.00537 0.994863 0.990924
1.00533 0.994907 0.99116
1.00537 0.994874 0.990789
1.00532 0.994906 0.991024
1.00517 0.994937 0.991449
1.00533 0.994889 0.990928
1.00528 0.994895 0.991225
1.00535 0.99556 0.990676
1.00534 0.994867 0.990965
1.00536 0.996344 0.98971
1.00532 0.999908 0.986359
1.00539 0.99706 0.988927
1.00533 1.00061 0.985553
1.00364 1.00104 0.989687
1.00326 0.999881 0.99191
1.00379 1.00127 0.988268
1.00533 1.00153 0.98448
1.0028 1.0008 0.995783
1.00367 1.0019 0.986614
1.00266 1.00147 0.995643
1.00531 0.994888 0.991033
1.00537 0.994922 0.990655
1.00534 0.995611 0.989949
1.00536 0.998677 0.987191
1.00544 0.997059 0.988354
1.0054 1.00034 0.985464
1.00525 1.00354 0.982503
1.00548 1.00225 0.983535
1.00505 1.00411 0.982276
1.00315 1.00353 0.985693
1.00466 1.00454 0.983131
1.00276 1.00405 0.986093
1.00181 1.00266 0.995732
1.00241 1.00406 0.987015
1.00103 1.00247 0.996318
1.00008 1.00188 0.997015
1.00538 0.994792 0.991411
1.00327 0.994773 0.991655
0.998107 0.994791 0.98024
1.00532 0.994871 0.990744
1.00542 0.994829 0.990207
1.00536 0.995035 0.990117
1.0053 0.994851 0.99085
1.00535 0.995058 0.990298
1.00537 0.994814 0.990987
1.00538 0.994786 0.99042
1.00532 0.995054 0.990024
1.00529 0.994721 0.990971
1.0052 0.994706 0.99047
1.00246 0.994506 0.993452
1.00541 0.994805 0.991476
1.00544 0.994722 0.991631
1.00535 0.994585 0.989362
1.00541 0.994729 0.990857
1.00563 0.99466 0.99171
1.00547 0.994782 0.991424
1.00537 0.99487 0.991489
1.00541 0.994835 0.990916
1.00536 0.994864 0.991184
1.00533 0.994909 0.99135
1.00537 0.994866 0.990922
1.00533 0.994907 0.991165
1.00517 0.994951 0.991564
1.00531 0.994907 0.991024
1.00519 0.994938 0.991435
1.00531 0.995141 0.99133
1.0053 0.994896 0.991199
1.0053 0.995616 0.990667
1.00533 0.999333 0.986989
1.00537 0.996403 0.989689
1.00531 0.999897 0.986392
1.00363 1.00075 0.989946
1.00533 1.00058 0.985587
1.00391 1.00086 0.989527
1.0031 0.99968 0.992115
1.00282 1.00023 0.994028
1.00401 1.00126 0.989057
1.00275 1.00068 0.995852
1.00528 0.994907 0.991044
1.00533 0.994891 0.991048
1.00531 0.994903 0.991069
1.00537 0.99704 0.988798
1.00536 0.994875 0.990758
1.00534 0.995617 0.990123
1.00535 0.998558 0.987207
1.00535 1.00199 0.983927
1.00538 1.00019 0.985424
1.00519 1.00367 0.982486
1.00349 1.00244 0.986415
1.00539 1.00397 0.982237
1.00317 1.00353 0.985748
1.00231 1.00206 0.995644
1.00275 1.00388 0.986143
1.00162 1.00241 0.995902
1.00079 1.00254 0.996423
1.00537 0.994829 0.991242
1.00534 0.994793 0.991459
1.00235 0.995031 0.991175
1.00531 0.994884 0.991041
1.00532 0.994855 0.990703
1.00542 0.994841 0.990165
1.0053 0.994866 0.990891
1.00538 0.994825 0.990939
1.00535 0.994775 0.990376
1.00526 0.994718 0.991014
1.00538 0.994865 0.991495
1.0054 0.994813 0.991454
1.00542 0.994741 0.991632
1.00534 0.994889 0.991552
1.00548 0.994788 0.991402
1.00537 0.99487 0.991478
1.00533 0.994907 0.991501
1.00536 0.994868 0.991142
1.00533 0.994909 0.991356
1.0052 0.994933 0.991655
1.00532 0.994907 0.991169
1.00517 0.99495 0.991566
1.00529 0.994953 0.991663
1.00521 0.994938 0.991421
1.00528 0.99518 0.991317
1.00537 0.99884 0.987525
1.00526 0.995673 0.990657
1.00534 0.999329 0.987006
1.0036 1.00054 0.990154
1.00529 0.99988 0.986425
1.00389 1.00061 0.989758
1.00298 0.999757 0.992174
1.00417 1.00067 0.989374
1.00253 0.999849 0.992545
1.00198 1.0006 0.996597
1.00526 0.994934 0.991145
1.00518 0.994914 0.991342
1.00528 0.994912 0.991069
1.00532 0.996668 0.989401
1.00533 0.994881 0.991072
1.0053 0.994924 0.991107
1.00535 1.00056 0.985508
1.00538 0.996987 0.988832
1.00536 0.994869 0.990859
1.00535 0.998436 0.987223
1.00535 1.00208 0.983897
1.00361 1.00152 0.987309
1.00534 1.00377 0.982457
1.00349 1.00248 0.986379
1.00246 1.00125 0.995836
1.0032 1.00359 0.985787
1.00225 1.00207 0.995652
1.00157 1.00234 0.996106
1.00532 0.994887 0.99137
1.00538 0.994824 0.991186
1.00531 0.994783 0.991512
1.0053 0.994888 0.991051
1.00533 0.994839 0.990664
1.0054 0.994834 0.990891
1.00534 0.994898 0.991556
1.00538 0.994867 0.991504
1.00539 0.994818 0.991432
1.00534 0.994892 0.991574
1.00532 0.994914 0.991613
1.00537 0.994872 0.991467
1.00533 0.994907 0.99152
1.0052 0.994917 0.991713
1.00533 0.994909 0.991361
1.00519 0.994933 0.991663
1.00531 0.994934 0.991736
1.00517 0.99495 0.991568
1.00529 0.99497 0.991647
1.00537 0.998379 0.98806
1.00525 0.995226 0.991304
1.00539 0.998831 0.987531
1.00348 1.00041 0.990444
1.00535 0.999325 0.987024
1.00383 1.00045 0.989964
1.00281 0.999876 0.99227
1.00412 1.00049 0.989578
1.00247 0.999834 0.992622
1.00198 1.00005 0.99296
1.00527 0.994925 0.991368
1.00514 0.994955 0.991477
1.00527 0.994927 0.991116
1.00528 0.996055 0.990235
1.00518 0.99492 0.991342
1.00528 0.994914 0.991092
1.00531 0.999758 0.986508
1.00533 0.996285 0.989784
1.00532 0.994868 0.991097
1.00367 1.00091 0.987844
1.00533 1.00063 0.98546
1.00539 0.99693 0.988867
1.00533 1.00215 0.983865
1.00361 1.00149 0.987242
1.0025 1.00068 0.995985
1.00346 1.00253 0.986352
1.00249 1.00135 0.995761
1.00215 1.00198 0.995703
1.00531 0.994917 0.991536
1.00532 0.994884 0.99133
1.00539 0.994822 0.99113
1.00529 0.994893 0.99106
1.00529 0.99493 0.99163
1.00534 0.994897 0.991561
1.00538 0.994872 0.991512
1.00534 0.994893 0.991596
1.00532 0.994915 0.991623
1.00518 0.994931 0.991869
1.00533 0.994907 0.99154
1.0052 0.99492 0.991766
1.00533 0.994942 0.991675
1.00519 0.994932 0.991672
1.00531 0.994935 0.991728
1.00534 0.998024 0.988486
1.00529 0.99498 0.991631
1.00538 0.998369 0.988049
1.00347 1.00028 0.988904
1.00541 0.998825 0.987534
1.00369 1.00035 0.989376
1.00233 0.999964 0.996153
1.00406 1.00037 0.989774
1.00235 0.99991 0.992708
1.00199 0.999893 0.993053
1.00527 0.994937 0.991512
1.00511 0.994948 0.991622
1.00526 0.99493 0.991407
1.00526 0.995161 0.99132
1.00514 0.994953 0.991481
1.00527 0.99492 0.991086
1.00538 0.99849 0.987798
1.00529 0.996033 0.99023
1.00518 0.994929 0.991342
1.00372 1.00056 0.98814
1.00531 0.999391 0.986869
1.00534 0.995903 0.990164
1.00252 1.00029 0.996061
1.00368 1.0009 0.987798
1.00533 1.00069 0.985412
1.00363 1.00149 0.987181
1.00256 1.00073 0.99594
1.00256 1.0014 0.995689
1.00528 0.994949 0.991541
1.00531 0.994917 0.991526
1.00532 0.994879 0.99129
1.00514 0.994943 0.99198
1.00529 0.994928 0.991609
1.00535 0.994897 0.991566
1.00532 0.994915 0.991632
1.00519 0.994929 0.991871
1.00532 0.995425 0.991161
1.0052 0.994923 0.99182
1.00533 0.995206 0.99142
1.00534 0.997319 0.989273
1.00531 0.994936 0.991719
1.00536 0.998002 0.988472
1.0034 1.00003 0.989261
1.0054 0.99836 0.988042
1.0035 1.00024 0.988922
1.00221 1.00001 0.996199
1.00376 1.00031 0.988498
1.00214 0.999999 0.9946
1.00189 0.999923 0.993144
1.00524 0.994956 0.991636
1.00506 0.99496 0.991841
1.00526 0.994938 0.991518
1.00525 0.995078 0.991575
1.00511 0.994949 0.991659
1.00526 0.994935 0.991445
1.0054 0.998112 0.988157
1.00527 0.995469 0.990979
1.00513 0.99495 0.991486
1.00369 1.00044 0.98835
1.00538 0.998431 0.987848
1.00529 0.996015 0.990226
1.00248 1.00008 0.996093
1.00371 1.00059 0.988123
1.00531 0.999027 0.987233
1.00258 1.00031 0.996036
1.0037 1.00088 0.987749
1.00258 1.00078 0.995898
1.0051 0.99496 0.99195
1.00528 0.994947 0.991571
1.00532 0.994917 0.991516
1.00531 0.995467 0.991162
1.00515 0.99494 0.99196
1.00529 0.994928 0.991588
1.00519 0.994927 0.991873
1.00532 0.99547 0.991153
1.00534 0.997232 0.989307
1.00533 0.995483 0.991164
1.00534 0.997578 0.988981
1.00333 0.999831 0.989555
1.00537 0.997983 0.988458
1.00339 1.00004 0.989272
1.00208 0.999999 0.996274
1.00351 1.00021 0.988935
1.00215 1.00002 0.996222
1.00224 0.999989 0.992667
1.00503 0.994971 0.99202
1.00524 0.994951 0.991553
1.00525 0.995001 0.991733
1.00507 0.994961 0.991845
1.00526 0.994939 0.991525
1.00541 0.998659 0.987629
1.00526 0.995027 0.991574
1.00511 0.99495 0.991697
1.0036 1.00039 0.988567
1.00539 0.998468 0.98781
1.00528 0.995793 0.990638
1.00237 1.00006 0.9961
1.00366 1.00049 0.988341
1.00537 0.998366 0.9879
1.00255 1.00009 0.99608
1.00369 1.00062 0.988099
1.00266 1.00031 0.996009
1.00526 0.995548 0.991131
1.0051 0.994961 0.991991
1.00528 0.994945 0.991601
1.00536 0.997344 0.989175
1.00531 0.995514 0.991149
1.00515 0.994937 0.991941
1.00532 0.995516 0.991145
1.00534 0.997288 0.98931
1.00329 0.999715 0.989762
1.00534 0.997824 0.98869
1.00334 0.999827 0.989556
1.00199 0.999982 0.996357
1.0034 1.00004 0.989286
1.00203 1.00002 0.996313
1.00211 1.00004 0.996254
1.00522 0.995009 0.991848
1.00504 0.99497 0.991946
1.00523 0.994946 0.991469
1.00538 0.99853 0.987829
1.00524 0.994982 0.991733
1.00508 0.994961 0.991848
1.0035 1.00029 0.988851
1.0054 0.998691 0.987637
1.00527 0.994974 0.991573
1.00222 1.0001 0.996124
1.00358 1.00044 0.988564
1.00538 0.998811 0.987463
1.00243 1.00005 0.996098
1.00364 1.00054 0.988331
1.00263 1.00008 0.996066
1.00537 0.998183 0.988267
1.00526 0.995265 0.991474
1.0051 0.994962 0.992032
1.00326 0.999691 0.989856
1.00535 0.997377 0.989195
1.0053 0.99556 0.991137
1.00533 0.99734 0.989312
1.0033 0.999694 0.989756
1.00191 0.999968 0.996406
1.00334 0.999823 0.989558
1.00195 0.999988 0.996371
1.00197 1.00004 0.996341
1.00537 0.99839 0.988054
1.00521 0.994997 0.991817
1.00505 0.994969 0.991872
1.00357 1.00014 0.99062
1.00538 0.998553 0.987838
1.00523 0.994964 0.991733
1.00209 1.00012 0.996192
1.00348 1.00033 0.988851
1.00539 0.998725 0.987645
1.00228 1.00009 0.996116
1.00356 1.00048 0.98856
1.0025 1.00004 0.996092
1.00343 0.999709 0.989642
1.00536 0.997878 0.988636
1.00526 0.994967 0.991818
1.00183 0.999973 0.996462
1.00327 0.999662 0.98984
1.00535 0.997412 0.989217
1.00332 0.99967 0.989748
1.00188 0.999962 0.996426
1.00192 0.999998 0.99639
1.00364 0.999925 0.990806
1.00537 0.998396 0.988063
1.00521 0.994984 0.991785
1.00139 1.00015 0.996964
1.00339 1.00015 0.989172
1.00538 0.998574 0.98785
1.00212 1.00012 0.996174
1.00345 1.00038 0.988852
1.00234 1.00007 0.996108
1.00185 0.999855 0.993378
1.00344 0.999744 0.990359
1.00535 0.997585 0.989002
1.00185 0.999968 0.996462
1.00329 0.999642 0.98983
1.00189 0.999958 0.996438
1.0012 1.00006 0.993918
1.00351 0.999867 0.990132
1.00536 0.998407 0.98807
1.00165 1.00011 0.995006
1.00337 1.00015 0.989195
1.00216 1.00011 0.996156
1.00186 0.999975 0.99644
1.00328 0.999744 0.989745
1.00184 0.999955 0.996453
1.00161 0.999954 0.995171
1.00337 0.999846 0.98952
1.00201 1.00011 0.99624
1.00186 1 0.996426
1.00191 1.00003 0.996342

TENSORS stress float
0.00288114 -0.000201876 0.000331835
-0.000201876 0.00155243 -6.36435e-05
0.000331835 -6.36435e-05 0.00152439
0.00872387 0.000217201 0.000418886
0.000217201 0.00539157 5.7079e-05
0.000418886 5.7079e-05 0.00541291
0.00246197 -0.000130784 0.000129041
-0.000130784 0.00127029 -2.39521e-05
0.000129041 -2.39521e-05 0.00122564
0.00259319 -0.000111598 0.000305395
-0.000111598 0.00135826 -3.53418e-05
0.000305395 -3.53418e-05 0.00134308
0.00280697 -0.000174606 0.000320579
-0.000174606 0.00150141 -5.50151e-05
0.000320579 -5.50151e-05 0.0014768
0.00302282 -0.000214057 0.000348281
-0.000214057 0.00163955 -6.77648e-05
0.000348281 -6.77648e-05 0.00161306
0.00231986 -0.000265032 6.58623e-05
-0.000265032 0.000976929 -1.65702e-05
6.58623e-05 -1.65702e-05 0.000806536
0.00892456 0.000214568 -8.83107e-06
0.000214568 0.00551333 -3.85749e-06
-8.83107e-06 -3.85749e-06 0.00553929
0.00759027 0.000303109 0.000202094
0.000303109 0.00468451 2.46407e-05
0.000202094 2.46407e-05 0.00464674
0.00811426 0.000134978 0.000147897
0.000134978 0.00496923 1.20946e-05
0.000147897 1.20946e-05 0.00494649
0.00241917 0.000276637 0.000375737
0.000276637 0.00128219 6.38699e-05
0.000375737 6.38699e-05 0.00125432
0.000216344 0.000338561 2.61664e-05
0.000338561 -0.000316681 2.65223e-05
2.61664e-05 2.65223e-05 -0.000539211
0.00209047 -2.50607e-05 0.000290376
-2.50607e-05 0.00102924 6.30885e-06
0.000290376 6.30885e-06 0.00103735
0.0018448 1.17173e-05 8.45956e-05
1.17173e-05 0.000895714 4.08373e-06
8.45956e-05 4.08373e-06 0.000841303
0.00211253 -0.0001263 -8.50424e-05
-0.0001263 0.00105717 1.63773e-05
-8.50424e-05 1.63773e-05 0.000985192
0.00224314 -0.000107612 9.76723e-05
-0.000107612 0.00114972 -6.84048e-06
9.76723e-05 -6.84048e-06 0.00110911
0.00256747 -0.000125762 0.000142433
-0.000125762 0.00133602 -2.76576e-05
0.000142433 -2.76576e-05 0.00129044
0.00240395 -0.000130058 0.00011597
-0.000130058 0.00123933 -1.76824e-05
0.00011597 -1.76824e-05 0.00119563
0.00245202 -0.000301614 -5.12822e-05
-0.000301614 0.00106589 9.34346e-06
-5.12822e-05 9.34346e-06 0.000906277
0.00686133 -0.000179394 0.000388476
-0.000179394 0.00421241 -2.15847e-05
0.000388476 -2.15847e-05 0.00424364
0.00244486 -8.4879e-05 0.000296831
-8.4879e-05 0.0012637 -2.66509e-05
0.000296831 -2.66509e-05 0.00125279
0.00272582 -0.000142943 0.000313863
-0.000142943 0.00144482 -4.50979e-05
0.000313863 -4.50979e-05 0.00142517
0.00215425 -0.000194967 7.93105e-05
-0.000194967 0.000918477 -1.29961e-05
7.93105e-05 -1.29961e-05 0.00079502
0.00228788 -0.00024916 7.24809e-05
-0.00024916 0.000974122 -1.62003e-05
7.24809e-05 -1.62003e-05 0.000822386
0.00298447 -0.00019746 0.000356754
-0.00019746 0.00160703 -6.59262e-05
0.000356754 -6.59262e-05 0.0015859
0.0023833 -0.000283808 6.41151e-05
-0.000283808 0.00101566 -1.80065e-05
6.41151e-05 -1.80065e-05 0.000821368
0.00227986 -0.000531099 1.51732e-05
-0.000531099 0.000591009 -5.15521e-06
1.51732e-05 -5.15521e-06 0.000268942
0.0090612 0.000215619 -0.000456998
0.000215619 0.00558885 -5.11893e-05
-0.000456998 -5.11893e-05 0.00562245
0.00508791 0.000222319 -0.000176673
0.000222319 0.00301952 -2.28858e-05
-0.000176673 -2.28858e-05 0.00299235
0.00538924 0.000175666 -0.000189649
0.000175666 0.00320398 -2.5084e-05
-0.000189649 -2.5084e-05 0.00318087
0.00938997 0.000160384 -6.50622e-06
0.000160384 0.00581464 -3.04374e-06
-6.50622e-06 -3.04374e-06 0.00584275
0.000241683 0.000323676 -9.89125e-07
0.000323676 -0.000290468 -1.08497e-06
-9.89125e-07 -1.08497e-06 -0.0005107
0.00225065 8.71239e-05 0.000305442
8.71239e-05 0.00112898 3.28994e-05
0.000305442 3.28994e-05 0.00111913
0.0023925 0.000180842 0.000324643
0.000180842 0.00124437 5.27752e-05
0.000324643 5.27752e-05 0.0012206
0.00310805 0.000297771 0.000186893
0.000297771 0.0015185 3.05482e-05
0.000186893 3.05482e-05 0.00139712
0.00901485 -0.00016178 8.36912e-05
-0.00016178 0.00560982 4.88477e-06
8.36912e-05 4.88477e-06 0.00556809
0.00335466 0.000414394 0.000207471
0.000414394 0.00172286 4.18538e-05
0.000207471 4.18538e-05 0.00156219
0.000191769 0.000306444 2.55179e-05
0.000306444 -0.000303425 3.6438e-05
2.55179e-05 3.6438e-05 -0.000529855
0.00159931 0.00059287 3.07745e-05
0.00059287 0.000268414 4.50702e-06
3.07745e-05 4.50702e-06 -0.000144612
0.00740617 -5.31913e-05 0.000301695
-5.31913e-05 0.0046422 4.00293e-05
0.000301695 4.00293e-05 0.00464259
0.00678359 9.583e-05 2.7406e-06
9.583e-05 0.00414472 -2.3056e-06
2.7406e-06 -2.3056e-06 0.00418601
0.0044902 0.000111606 -0.000146461
0.000111606 0.00263304 -7.57008e-06
-0.000146461 -7.57008e-06 0.00262396
0.00665709 5.80907e-05 0.000376745
5.80907e-05 0.00406362 5.64409e-06
0.000376745 5.64409e-06 0.00410639
0.00173249 9.28914e-05 8.63486e-05
9.28914e-05 0.000827864 7.29576e-06
8.63486e-05 7.29576e-06 0.000776873
0.000377436 1.98534e-05 1.19798e-05
1.98534e-05 -0.000224005 3.1702e-06
1.19798e-05 3.1702e-06 -0.000324451
0.007013 0.000259874 0.000218901
0.000259874 0.00433242 2.33057e-05
0.000218901 2.33057e-05 0.00430519
0.00300055 0.000115554 0.000167691
0.000115554 0.00146482 1.32927e-05
0.000167691 1.32927e-05 0.00139659
0.00187629 -0.000108306 -0.00010084
-0.000108306 0.000931369 1.42294e-05
-0.00010084 1.42294e-05 0.000864707
0.0019899 -0.000143235 -9.67592e-05
-0.000143235 0.000996638 1.84787e-05
-9.67592e-05 1.84787e-05 0.000921773
0.00220757 -9.34529e-05 -7.33788e-05
-9.34529e-05 0.0011025 1.39762e-05
-7.33788e-05 1.39762e-05 0.00103395
0.00254039 -0.00030299 -0.000175626
-0.00030299 0.00111194 3.5227e-05
-0.000175626 3.5227e-05 0.000969041
0.00437515 -4.99526e-05 -0.000148707
-4.99526e-05 0.00256486 -4.45046e-07
-0.000148707 -4.45046e-07 0.00255711
0.00215196 -8.55585e-05 0.000100255
-8.55585e-05 0.00108924 -5.38379e-06
0.000100255 -5.38379e-06 0.00105414
0.00278768 -0.000103043 0.000147291
-0.000103043 0.0014734 -2.65595e-05
0.000147291 -2.65595e-05 0.00142809
0.00233997 -0.00011931 0.000105653
-0.00011931 0.00120504 -1.15319e-05
0.000105653 -1.15319e-05 0.00116262
0.00225678 -0.000174872 -4.17662e-05
-0.000174872 0.000970879 3.92864e-06
-4.17662e-05 3.92864e-06 0.0008635
0.00249935 -0.000332459 -5.91657e-05
-0.000332459 0.00109259 1.09011e-05
-5.91657e-05 1.09011e-05 0.000910445
0.00238661 -0.000262555 -4.59128e-05
-0.000262555 0.00103475 7.11105e-06
-4.59128e-05 7.11105e-06 0.000895506
0.00242958 -0.000543428 -1.0215e-05
-0.000543428 0.000688562 2.66194e-06
-1.0215e-05 2.66194e-06 0.000367118
0.00667981 -2.59707e-05 0.000375245
-2.59707e-05 0.00407452 -6.27878e-06
0.000375245 -6.27878e-06 0.00411866
0.00235262 -5.79661e-05 0.000289757
-5.79661e-05 0.00120695 -1.89945e-05
0.000289757 -1.89945e-05 0.00120171
0.00251017 -3.8965e-05 6.16231e-05
-3.8965e-05 0.00119056 -1.38062e-06
6.16231e-05 -1.38062e-06 0.00111213
0.00208722 -0.000152527 7.12287e-05
-0.000152527 0.000884849 -8.76793e-06
7.12287e-05 -8.76793e-06 0.000777813
0.00225 -0.0002249 7.75516e-05
-0.0002249 0.000967183 -1.52281e-05
7.75516e-05 -1.52281e-05 0.000830047
0.00213481 -0.00033165 1.37176e-06
-0.00033165 0.000425427 -1.31045e-06
1.37176e-06 -1.31045e-06 0.000223553
0.0022494 -0.000471175 1.00022e-05
-0.000471175 0.000522958 -2.19157e-06
1.00022e-05 -2.19157e-06 0.000256526
0.00315229 -0.000175771 0.000371314
-0.000175771 0.00171099 -6.18002e-05
0.000371314 -6.18002e-05 0.00168988
0.00247676 -0.000246398 5.39115e-05
-0.000246398 0.00111857 -1.60507e-05
5.39115e-05 -1.60507e-05 0.000917177
0.00229576 -0.000604139 1.68722e-05
-0.000604139 0.000636728 -4.84039e-06
1.68722e-05 -4.84039e-06 0.000256645
0.00225819 -0.000708362 -2.06911e-06
-0.000708362 0.000317546 4.06896e-06
-2.06911e-06 4.06896e-06 -3.51248e-05
0.00811514 0.000358681 -0.000448767
0.000358681 0.00501839 -6.00385e-05
-0.000448767 -6.00385e-05 0.00503101
0.00942028 0.000127167 -0.000433101
0.000127167 0.00583619 -4.52284e-05
-0.000433101 -4.52284e-05 0.00586641
0.00858688 0.000269748 -0.000441762
0.000269748 0.0052902 -5.44677e-05
-0.000441762 -5.44677e-05 0.00531827
0.000207557 0.000308873 -2.62564e-05
0.000308873 -0.000303419 -2.64277e-05
-2.62564e-05 -2.64277e-05 -0.000523106
0.00766701 0.000291905 -2.01544e-06
0.000291905 0.00472214 -2.97156e-06
-2.01544e-06 -2.97156e-06 0.00474304
0.0081781 0.00033353 -7.49022e-06
0.00033353 0.0050456 -4.26344e-06
-7.49022e-06 -4.26344e-06 0.00506042
0.000373942 0.000204117 -7.31435e-08
0.000204117 -0.000285259 -3.28076e-07
-7.31435e-08 -3.28076e-07 -0.000452725
0.00539587 2.01549e-05 -0.000189469
2.01549e-05 0.00324917 -1.56857e-05
-0.000189469 -1.56857e-05 0.00321558
0.00035175 0.000297345 1.66521e-06
0.000297345 -0.000255974 -4.0784e-07
1.66521e-06 -4.0784e-07 -0.00046269
0.00188129 0.00034212 9.53036e-05
0.00034212 0.000810125 7.5286e-06
9.53036e-05 7.5286e-06 0.000619293
0.00152791 0.000610315 2.90682e-07
0.000610315 0.000197366 4.15168e-07
2.90682e-07 4.15168e-07 -0.000226288
0.00827786 -1.41239e-05 0.000354069
-1.41239e-05 0.00518075 4.73462e-05
0.000354069 4.73462e-05 0.0051866
0.000368741 0.000240663 3.37686e-05
0.000240663 -0.000148798 1.83024e-05
3.37686e-05 1.83024e-05 -0.000278358
0.000486616 0.000163929 1.45316e-05
0.000163929 -0.000216163 1.28426e-05
1.45316e-05 1.28426e-05 -0.000365634
0.000477178 0.000241624 1.8368e-05
0.000241624 -0.000212377 2.21771e-05
1.8368e-05 2.21771e-05 -0.000395554
0.00167792 0.000452446 1.21172e-05
0.000452446 8.54954e-05 3.94654e-06
1.21172e-05 3.94654e-06 -0.000188152
0.00374622 0.000381494 0.00021984
0.000381494 0.00205497 4.19131e-05
0.00021984 4.19131e-05 0.00190866
0.00165541 0.000567348 2.61491e-05
0.000567348 0.000186728 5.64801e-06
2.61491e-05 5.64801e-06 -0.000181963
0.00130056 0.000568356 3.19172e-05
0.000568356 0.000174453 3.93997e-06
3.19172e-05 3.93997e-06 -0.000269659
0.00213218 0.0008368 -1.74255e-06
0.0008368 0.000376372 -8.16653e-06
-1.74255e-06 -8.16653e-06 -0.000113543
0.00632249 -0.000168621 0.000200632
-0.000168621 0.00396054 2.72135e-05
0.000200632 2.72135e-05 0.00393578
0.00695934 -0.000140357 8.56631e-06
-0.000140357 0.0043607 5.15471e-06
8.56631e-06 5.15471e-06 0.00434461
0.00726706 9.50054e-05 -0.000398626
9.50054e-05 0.00444288 -2.38906e-05
-0.000398626 -2.38906e-05 0.00448225
0.00688333 8.84784e-05 -0.000388964
8.84784e-05 0.00420493 -1.47178e-05
-0.000388964 -1.47178e-05 0.00424773
0.00674233 8.41067e-05 -4.00067e-07
8.41067e-05 0.00412315 -4.71981e-06
-4.00067e-07 -4.71981e-06 0.00416389
0.00435787 5.50569e-05 -0.000156951
5.50569e-05 0.00254505 -9.52836e-06
-0.000156951 -9.52836e-06 0.00254235
0.00150769 4.92953e-05 7.46364e-05
4.92953e-05 0.000517311 2.52855e-06
7.46364e-05 2.52855e-06 0.000439749
0.00472778 0.000176933 -0.000150977
0.000176933 0.00279378 -1.02162e-05
-0.000150977 -1.02162e-05 0.00277505
0.00164895 0.000127227 7.59173e-05
0.000127227 0.000575932 4.56066e-06
7.59173e-05 4.56066e-06 0.000478929
0.00670508 0.000102697 0.000380814
0.000102697 0.00410552 7.19754e-06
0.000380814 7.19754e-06 0.00414242
0.000232296 1.08127e-05 1.48787e-05
1.08127e-05 -0.000309359 1.92332e-06
1.48787e-05 1.92332e-06 -0.000405207
0.0029151 6.56082e-05 0.000165893
6.56082e-05 0.00142668 9.33477e-06
0.000165893 9.33477e-06 0.00136934
0.00149022 0.000107738 4.70941e-06
0.000107738 -6.18896e-05 1.288e-06
4.70941e-06 1.288e-06 -0.000188733
0.00291974 0.000176145 0.00017367
0.000176145 0.00139649 1.72192e-05
0.00017367 1.72192e-05 0.00131232
0.00157646 0.000229892 3.22878e-06
0.000229892 -3.23966e-05 1.16876e-06
3.22878e-06 1.16876e-06 -0.000194524
0.0021079 3.05223e-05 -0.000290683
3.05223e-05 0.00103514 5.6989e-06
-0.000290683 5.6989e-06 0.00104645
0.00183072 -3.76649e-05 -8.67948e-05
-3.76649e-05 0.000891257 5.50172e-06
-8.67948e-05 5.50172e-06 0.000834237
0.00240494 -6.41745e-05 -6.86724e-05
-6.41745e-05 0.00122415 1.27441e-05
-6.86724e-05 1.27441e-05 0.00115623
0.00192657 -0.000128112 -0.000103754
-0.000128112 0.000961892 1.74046e-05
-0.000103754 1.74046e-05 0.000890949
0.00238676 -0.000153751 -0.000157784
-0.000153751 0.00104213 1.67753e-05
-0.000157784 1.67753e-05 0.000950882
0.00251584 -0.000248529 -0.000168248
-0.000248529 0.00110329 2.90033e-05
-0.000168248 2.90033e-05 0.000982225
0.00267826 -0.00036458 -0.000186693
-0.00036458 0.00121528 3.92373e-05
-0.000186693 3.92373e-05 0.00104412
0.00258846 -0.000559069 -3.2684e-05
-0.000559069 0.000791791 9.62088e-06
-3.2684e-05 9.62088e-06 0.000469833
0.00676035 -0.000128776 2.52946e-06
-0.000128776 0.00414382 -2.21557e-06
2.52946e-06 -2.21557e-06 0.00417862
0.00204398 4.98248e-06 0.000106256
4.98248e-06 0.00100736 -6.34573e-06
0.000106256 -6.34573e-06 0.000985181
0.00123529 -2.82868e-05 -7.79568e-05
-2.82868e-05 0.000335848 3.50121e-06
-7.79568e-05 3.50121e-06 0.000259362
0.00218095 -0.00011868 -4.34759e-05
-0.00011868 0.000933783 4.45554e-06
-4.34759e-05 4.45554e-06 0.000841546
0.00629382 -0.000169059 0.000360359
-0.000169059 0.00377829 -3.97114e-05
0.000360359 -3.97114e-05 0.0037803
0.00300315 -0.000334122 -5.54605e-05
-0.000334122 0.00147522 7.04267e-06
-5.54605e-05 7.04267e-06 0.00129123
0.0023397 -0.000219385 -4.28447e-05
-0.000219385 0.00101523 5.23367e-06
-4.28447e-05 5.23367e-06 0.000893165
0.00224869 -0.000336752 -8.67347e-06
-0.000336752 0.000497784 1.62589e-06
-8.67347e-06 1.62589e-06 0.000303538
0.00256054 -0.000635637 -7.83805e-06
-0.000635637 0.00082435 2.56065e-06
-7.83805e-06 2.56065e-06 0.000438476
0.0023191 -0.000476301 -1.07823e-05
-0.000476301 0.000572252 3.34332e-06
-1.07823e-05 3.34332e-06 0.000300858
0.00230336 -0.00071132 1.1216e-06
-0.00071132 0.000355199 -1.21265e-07
1.1216e-06 -1.21265e-07 1.64576e-06
0.000262263 -8.62426e-07 1.58707e-05
-8.62426e-07 -0.000299668 1.16944e-07
1.58707e-05 1.16944e-07 -0.000393064
0.00201739 -4.10823e-05 6.3122e-05
-4.10823e-05 0.000841194 -3.23544e-06
6.3122e-05 -3.23544e-06 0.000755437
0.00210877 -0.000122189 3.06963e-07
-0.000122189 0.000379953 3.57453e-07
3.06963e-07 3.57453e-07 0.000266669
0.00214038 -0.000268106 -6.38452e-07
-0.000268106 0.000420352 1.19224e-08
-6.38452e-07 1.19224e-08 0.000259669
0.00228268 -0.000405726 4.83989e-06
-0.000405726 0.000531881 -1.26407e-06
4.83989e-06 -1.26407e-06 0.000309514
0.00222361 -0.00045971 1.34761e-06
-0.00045971 0.000118633 -6.57348e-07
1.34761e-06 -6.57348e-07 -5.6323e-05
0.00910591 -7.34826e-05 0.000382411
-7.34826e-05 0.00565686 -4.01244e-05
0.000382411 -4.01244e-05 0.00567697
0.00213713 -0.000629572 4.38968e-07
-0.000629572 0.000156236 2.79873e-06
4.38968e-07 2.79873e-06 -0.000132881
0.00017106 -0.000261916 2.022e-05
-0.000261916 -0.000340542 -3.00527e-05
2.022e-05 -3.00527e-05 -0.000539778
0.00137847 -0.000652999 7.11797e-06
-0.000652999 8.73676e-05 -1.80128e-06
7.11797e-06 -1.80128e-06 -0.000377017
0.00244 -0.0007851 -5.85029e-06
-0.0007851 0.000519865 6.04624e-06
-5.85029e-06 6.04624e-06 9.90504e-05
0.00231265 -0.000775137 -1.82747e-06
-0.000775137 0.000267293 2.59484e-06
-1.82747e-06 2.59484e-06 -5.40923e-05
0.000345866 -0.000250534 2.44959e-05
-0.000250534 -0.000174005 -2.43242e-05
2.44959e-05 -2.43242e-05 -0.000347554
0.00108118 -0.000251322 2.8264e-06
-0.000251322 0.000375605 3.43196e-06
2.8264e-06 3.43196e-06 3.76347e-05
0.00784547 0.000321203 -0.000443336
0.000321203 0.00484306 -5.29202e-05
-0.000443336 -5.29202e-05 0.00486104
0.00840421 0.000337524 -0.00045191
0.000337524 0.00519051 -6.05492e-05
-0.00045191 -6.05492e-05 0.0052099
0.000343736 0.000205664 -1.72255e-05
0.000205664 -0.000305383 -1.59984e-05
-1.72255e-05 -1.59984e-05 -0.000475085
0.00885134 3.10991e-05 -0.000369478
3.10991e-05 0.00550732 -3.70356e-05
-0.000369478 -3.70356e-05 0.00552733
0.000174174 0.000277806 -2.55447e-05
0.000277806 -0.000313542 -3.03576e-05
-2.55447e-05 -3.03576e-05 -0.000520001
0.000279031 0.000288245 -2.06608e-05
0.000288245 -0.000302557 -2.45073e-05
-2.06608e-05 -2.45073e-05 -0.000510451
0.00145357 0.000622783 -3.47754e-05
0.000622783 0.000125395 -4.36265e-06
-3.47754e-05 -4.36265e-06 -0.000307167
0.0081606 -9.81328e-06 -1.33797e-05
-9.81328e-06 0.00509986 8.63318e-07
-1.33797e-05 8.63318e-07 0.00510943
0.000777111 0.000211764 1.6106e-06
0.000211764 0.000109098 5.03356e-07
1.6106e-06 5.03356e-07 -1.61027e-05
0.00178739 0.000215107 8.16065e-05
0.000215107 0.000641758 8.2172e-06
8.16065e-05 8.2172e-06 0.000512053
0.00187113 0.000304944 8.73203e-05
0.000304944 0.000713547 1.08131e-05
8.73203e-05 1.08131e-05 0.000548122
0.00165047 0.00045072 -3.36701e-07
0.00045072 7.34794e-05 -1.99344e-07
-3.36701e-07 -1.99344e-07 -0.000201361
0.000174502 0.000276354 -4.01933e-08
0.000276354 -0.000290811 -1.04534e-06
-4.01933e-08 -1.04534e-06 -0.000485872
0.00163444 0.000563152 3.91512e-07
0.000563152 0.000176516 -8.68792e-08
3.91512e-07 -8.68792e-08 -0.000192358
0.0010715 0.000551379 3.2829e-06
0.000551379 1.68849e-05 -1.86371e-06
3.2829e-06 -1.86371e-06 -0.000421492
0.00213196 0.000841533 -4.27044e-07
0.000841533 0.000371425 5.35722e-07
-4.27044e-07 5.35722e-07 -0.00011448
0.000564473 0.0002649 2.2864e-05
0.0002649 -3.28447e-05 2.7852e-05
2.2864e-05 2.7852e-05 -0.000200157
0.000773773 0.000152498 2.19346e-05
0.000152498 0.00015491 1.95253e-05
2.19346e-05 1.95253e-05 3.24899e-05
-0.000479657 0.000343427 3.11305e-06
0.000343427 -0.000600142 -2.73039e-06
3.11305e-06 -2.73039e-06 -0.000913649
0.00169122 0.000387446 8.80844e-06
0.000387446 7.10194e-05 3.0315e-06
8.80844e-06 3.0315e-06 -0.000161603
0.00170676 0.000516522 1.89994e-05
0.000516522 0.000141245 4.99912e-06
1.89994e-05 4.99912e-06 -0.000179271
0.00237145 0.000661168 2.68434e-06
0.000661168 0.000287503 -1.80656e-06
2.68434e-06 -1.80656e-06 8.41798e-07
0.000615906 0.000456593 1.36119e-05
0.000456593 -7.71046e-05 5.57501e-06
1.36119e-05 5.57501e-06 -0.000493161
0.0024627 0.000840233 -2.804e-06
0.000840233 0.000534564 -6.36849e-06
-2.804e-06 -6.36849e-06 0.00010812
0.00258618 0.0010303 -7.06373e-06
0.0010303 0.000851687 -1.10709e-05
-7.06373e-06 -1.10709e-05 0.000211862
0.00200915 0.000849745 -1.09767e-05
0.000849745 0.000167879 -8.67604e-06
-1.09767e-05 -8.67604e-06 -0.000283925
0.00525501 -0.000157898 0.000137517
-0.000157898 0.00323157 1.59707e-05
0.000137517 1.59707e-05 0.00321366
0.00593249 -0.000178394 1.04399e-05
-0.000178394 0.00368325 1.7089e-06
1.04399e-05 1.7089e-06 0.00365979
0.00659498 -0.000176376 -0.000185061
-0.000176376 0.00410821 -1.60389e-05
-0.000185061 -1.60389e-05 0.00408747
0.000845368 -0.000242997 2.60582e-05
-0.000242997 0.000201942 -2.36126e-05
2.60582e-05 -2.36126e-05 4.76231e-05
0.00800785 4.73857e-06 0.000306814
4.73857e-06 0.00499278 -3.53144e-05
0.000306814 -3.53144e-05 0.00499763
0.00755567 0.000256651 -0.00043046
0.000256651 0.00464796 -4.21355e-05
-0.00043046 -4.21355e-05 0.0046752
0.00699081 0.000121294 -0.000390711
0.000121294 0.0042721 -2.06452e-05
-0.000390711 -2.06452e-05 0.00431169
0.000294509 0.000127768 -1.54791e-05
0.000127768 -0.000316631 -7.83003e-06
-1.54791e-05 -7.83003e-06 -0.000438255
0.000214829 5.12404e-05 -1.48781e-05
5.12404e-05 -0.00033125 -4.03372e-06
-1.48781e-05 -4.03372e-06 -0.000433162
0.00668966 1.74282e-06 -0.000374928
1.74282e-06 0.00408029 -4.47117e-06
-0.000374928 -4.47117e-06 0.00412436
0.00663777 -6.65103e-06 5.72988e-08
-6.65103e-06 0.00404744 -1.41999e-06
5.72988e-08 -1.41999e-06 0.00409189
0.00020873 3.99328e-06 -1.23333e-07
3.99328e-06 -0.000328333 2.19752e-07
-1.23333e-07 2.19752e-07 -0.000422721
0.00155459 6.3962e-05 7.5603e-05
6.3962e-05 0.000530156 3.92564e-06
7.5603e-05 3.92564e-06 0.000447046
0.00149181 0.000110718 7.27822e-08
0.000110718 -5.09779e-05 -1.3456e-08
7.27822e-08 -1.3456e-08 -0.000178676
0.00036711 0.000133011 -8.71821e-07
0.000133011 -0.000281798 -3.64833e-07
-8.71821e-07 -3.64833e-07 -0.000416814
0.00157151 0.000230293 -1.40888e-07
0.000230293 -1.65177e-05 -5.06727e-08
-1.40888e-07 -5.06727e-08 -0.000179679
0.000204841 -3.27889e-05 1.56942e-05
-3.27889e-05 -0.0003325 2.33399e-08
1.56942e-05 2.33399e-08 -0.000424182
0.0014503 4.97319e-05 3.66273e-06
4.97319e-05 -7.14619e-05 9.62542e-07
3.66273e-06 9.62542e-07 -0.00019148
0.00152012 0.000169309 3.87289e-06
0.000169309 -5.66827e-05 1.44288e-06
3.87289e-06 1.44288e-06 -0.000197375
0.00230374 0.000167839 2.14291e-06
0.000167839 9.78577e-05 8.9566e-07
2.14291e-06 8.9566e-07 4.43814e-05
0.00166766 0.00031143 5.75162e-06
0.00031143 3.7806e-05 1.76638e-06
5.75162e-06 1.76638e-06 -0.000157062
0.00233597 0.000361907 3.19819e-06
0.000361907 0.000155409 1.21944e-06
3.19819e-06 1.21944e-06 4.75513e-05
0.00667129 -9.19211e-05 -0.000378718
-9.19211e-05 0.00407995 6.77485e-06
-0.000378718 6.77485e-06 0.00411836
0.00172506 -0.000168502 -8.61942e-05
-0.000168502 0.000849003 1.19092e-05
-8.61942e-05 1.19092e-05 0.000782728
-0.000137604 -1.58926e-05 -8.29725e-06
-1.58926e-05 -0.000564683 1.12972e-06
-8.29725e-06 1.12972e-06 -0.000671301
0.00229608 -0.000108985 -0.000152768
-0.000108985 0.000999756 1.1913e-05
-0.000152768 1.1913e-05 0.000921179
0.00929721 0.000102704 -0.000102818
0.000102704 0.00572638 4.87583e-06
-0.000102818 4.87583e-06 0.00569427
0.00322829 -0.000393328 -0.00018896
-0.000393328 0.00163512 4.05133e-05
-0.00018896 4.05133e-05 0.00146368
0.00245903 -0.000198859 -0.000163122
-0.000198859 0.00107657 2.26186e-05
-0.000163122 2.26186e-05 0.00097211
0.00234911 -0.000340805 -2.13674e-05
-0.000340805 0.000561008 4.04545e-06
-2.13674e-05 4.04545e-06 0.000374635
0.00236105 -0.000479675 -2.82678e-05
-0.000479675 0.000601156 8.6354e-06
-2.82678e-05 8.6354e-06 0.000325261
0.00266784 -0.000647789 -3.7754e-05
-0.000647789 0.000905127 1.10254e-05
-3.7754e-05 1.10254e-05 0.000518994
0.00232873 -0.000710295 2.79176e-06
-0.000710295 0.000384449 -3.94839e-06
2.79176e-06 -3.94839e-06 3.11736e-05
0.000216367 -3.41171e-06 6.34901e-08
-3.41171e-06 -0.000326544 4.00481e-07
6.34901e-08 4.00481e-07 -0.000420581
0.00212584 -0.000115225 -4.19369e-05
-0.000115225 0.000921498 1.13159e-06
-4.19369e-05 1.13159e-06 0.000838195
0.00186442 -0.000118863 -1.39548e-05
-0.000118863 0.00021011 8.48751e-07
-1.39548e-05 8.48751e-07 9.51751e-05
0.00214152 -0.000265321 -1.31498e-05
-0.000265321 0.000414956 2.27938e-06
-1.31498e-05 2.27938e-06 0.000249214
0.00925869 -7.36106e-05 4.7534e-06
-7.36106e-05 0.00574989 -1.10226e-06
4.7534e-06 -1.10226e-06 0.00576977
0.00166788 -0.000271276 1.19121e-05
-0.000271276 0.000652779 4.90562e-07
1.19121e-05 4.90562e-07 0.000447911
0.00207704 -0.000659908 4.71496e-06
-0.000659908 0.000566079 -2.51515e-06
4.71496e-06 -2.51515e-06 0.000123356
0.0023145 -0.000410789 -1.12206e-05
-0.000410789 0.000549957 3.33647e-06
-1.12206e-05 3.33647e-06 0.000325983
0.00231812 -0.000467634 3.06757e-06
-0.000467634 0.000182539 -1.05048e-06
3.06757e-06 -1.05048e-06 1.92492e-05
0.00237224 -0.000778439 1.66926e-06
-0.000778439 0.000476874 -1.11822e-07
1.66926e-06 -1.11822e-07 5.89447e-05
0.00223856 -0.000633081 1.76777e-07
-0.000633081 0.000231949 -1.3385e-07
1.76777e-07 -1.3385e-07 -6.09511e-05
0.00232577 -0.000774886 3.42269e-07
-0.000774886 0.00027914 8.5748e-07
3.42269e-07 8.5748e-07 -4.26476e-05
0.000347545 -0.000277877 1.33602e-06
-0.000277877 -0.000181278 4.21465e-07
1.33602e-06 4.21465e-07 -0.000353806
0.000829582 -0.000326435 8.92899e-07
-0.000326435 0.000214043 -1.22249e-06
8.92899e-07 -1.22249e-06 -0.000131872
0.00144726 -5.70232e-05 3.13463e-06
-5.70232e-05 -5.63185e-05 5.26011e-08
3.13463e-06 5.26011e-08 -0.000179074
0.00224328 -0.000195587 -1.1763e-06
-0.000195587 0.000471925 1.86488e-07
-1.1763e-06 1.86488e-07 0.000341425
0.00218983 -0.00018113 1.71228e-06
-0.00018113 3.54601e-05 -6.89004e-07
1.71228e-06 -6.89004e-07 -4.15027e-05
0.00222806 -0.000382067 -7.76717e-08
-0.000382067 7.38477e-05 2.59568e-07
-7.76717e-08 2.59568e-07 -3.98804e-05
0.00218681 -0.000554171 -1.0395e-06
-0.000554171 0.000133495 9.51423e-07
-1.0395e-06 9.51423e-07 -9.04867e-05
0.00232477 -0.000489047 4.8452e-06
-0.000489047 9.4862e-05 -1.02794e-06
4.8452e-06 -1.02794e-06 -1.08277e-05
0.000245462 -0.000255828 1.74272e-05
-0.000255828 -0.000274695 -3.03684e-05
1.74272e-05 -3.03684e-05 -0.000465891
0.00239927 -0.000702481 -3.5634e-07
-0.000702481 0.000254168 -3.6355e-08
-3.5634e-07 -3.6355e-08 9.32202e-06
0.00137793 -0.000570682 7.29105e-06
-0.000570682 0.000151492 -5.92375e-06
7.29105e-06 -5.92375e-06 -0.000290708
0.00209861 -0.000871861 1.57662e-06
-0.000871861 0.000345433 6.46331e-06
1.57662e-06 6.46331e-06 -0.000172667
0.00258514 -0.000857449 -3.77063e-06
-0.000857449 0.000514899 3.01277e-06
-3.77063e-06 3.01277e-06 0.000112948
0.00247883 -0.000809748 7.77968e-07
-0.000809748 0.000318729 -6.15756e-07
7.77968e-07 -6.15756e-07 3.83124e-05
0.000301311 -0.000297153 4.46761e-06
-0.000297153 -0.000167729 1.57393e-06
4.46761e-06 1.57393e-06 -0.000539185
0.00170848 -0.000205713 -7.46039e-06
-0.000205713 0.000893683 -8.76033e-06
-7.46039e-06 -8.76033e-06 0.000599208
0.00103944 -0.000442501 2.03173e-06
-0.000442501 0.000306901 8.7322e-06
2.03173e-06 8.7322e-06 -0.000139961
0.000340945 0.00017238 -1.58215e-05
0.00017238 -0.000309581 -1.22786e-05
-1.58215e-05 -1.22786e-05 -0.000463481
0.00764766 -5.8035e-05 -0.000291252
-5.8035e-05 0.00476716 -2.6351e-05
-0.000291252 -2.6351e-05 0.00477384
0.000489927 0.000166022 -2.04628e-05
0.000166022 -5.65681e-05 -2.00642e-05
-2.04628e-05 -2.00642e-05 -0.000184552
0.0003082 0.000245061 -1.88613e-05
0.000245061 -0.00031531 -2.03606e-05
-1.88613e-05 -2.03606e-05 -0.000502932
0.00161882 0.000449506 -1.42367e-05
0.000449506 5.71649e-05 -4.11306e-06
-1.42367e-05 -4.11306e-06 -0.000219018
0.000184048 0.000256757 -1.87348e-05
0.000256757 -0.000298362 -3.12386e-05
-1.87348e-05 -3.12386e-05 -0.000486631
0.00131384 0.00056824 -2.99466e-05
0.00056824 0.000143595 -9.13677e-06
-2.99466e-05 -9.13677e-06 -0.000292364
0.00158355 0.000555376 -2.76135e-05
0.000555376 0.00014865 -5.74874e-06
-2.76135e-05 -5.74874e-06 -0.000219526
0.00214261 0.000852231 -3.70553e-06
0.000852231 0.000364792 7.3805e-06
-3.70553e-06 7.3805e-06 -0.000119468
0.000338171 0.000259864 -8.43063e-06
0.000259864 -0.000180641 1.76938e-06
-8.43063e-06 1.76938e-06 -0.000339521
0.000407635 0.000119213 -1.4183e-06
0.000119213 -6.90922e-05 1.45194e-06
-1.4183e-06 1.45194e-06 -0.000188417
0.000899619 0.00032919 -4.02464e-07
0.00032919 0.000240181 8.31992e-08
-4.02464e-07 8.31992e-08 -3.53813e-05
0.00163191 0.000384225 -3.44651e-07
0.000384225 3.85423e-05 -2.04776e-07
-3.44651e-07 -2.04776e-07 -0.000195088
0.00166745 0.000509962 -1.11019e-07
0.000509962 0.00012685 -3.98167e-07
-1.11019e-07 -3.98167e-07 -0.000193284
0.0023568 0.000658686 -1.14858e-06
0.000658686 0.00027936 -3.80181e-07
-1.14858e-06 -3.80181e-07 -6.33753e-06
0.000891058 0.000428358 3.84011e-06
0.000428358 7.38769e-05 -2.03909e-07
3.84011e-06 -2.03909e-07 -0.000314269
0.00245405 0.000835132 -1.61668e-06
0.000835132 0.000523906 -6.70777e-07
-1.61668e-06 -6.70777e-07 9.82373e-05
0.00229554 0.00100331 -2.78216e-06
0.00100331 0.000628463 -2.54126e-06
-2.78216e-06 -2.54126e-06 -6.20097e-06
0.00197587 0.00085029 -3.31641e-07
0.00085029 0.00012669 4.58832e-06
-3.31641e-07 4.58832e-06 -0.000319396
0.000793699 8.91728e-05 1.2812e-05
8.91728e-05 0.000214656 1.77808e-05
1.2812e-05 1.77808e-05 0.000110817
1.53439e-05 0.000399789 1.63582e-06
0.000399789 -0.000328826 1.26542e-06
1.63582e-06 1.26542e-06 -0.000668336
0.00102927 0.000242011 -1.86049e-06
0.000242011 0.000406934 7.14385e-07
-1.86049e-06 7.14385e-07 0.000107749
-0.00103405 0.000229768 -8.44636e-06
0.000229768 -0.00097551 5.71231e-06
-8.44636e-06 5.71231e-06 -0.00130179
0.00227475 0.000566461 2.60418e-06
0.000566461 0.000165346 -1.28358e-06
2.60418e-06 -1.28358e-06 -5.19752e-05
0.00241868 0.000754163 -1.38714e-08
0.000754163 0.000411755 -3.50036e-06
-1.38714e-08 -3.50036e-06 5.16929e-05
0.00236655 0.000719512 5.27949e-07
0.000719512 0.000203675 -1.70203e-07
5.27949e-07 -1.70203e-07 -5.08737e-05
0.0020448 0.000891295 -1.45505e-05
0.000891295 0.000720637 -1.19955e-05
-1.45505e-05 -1.19955e-05 7.47205e-05
0.00260711 0.000923965 -5.77855e-06
0.000923965 0.000520733 -3.33856e-06
-5.77855e-06 -3.33856e-06 0.000113041
0.00264722 0.00113833 -1.6951e-05
0.00113833 0.000765515 -1.6893e-05
-1.6951e-05 -1.6893e-05 9.62991e-05
0.00217937 0.000868624 -3.91027e-06
0.000868624 0.000132816 -3.44226e-06
-3.91027e-06 -3.44226e-06 -0.00028468
0.000987004 0.000145052 -2.67496e-06
0.000145052 0.000416394 7.39479e-06
-2.67496e-06 7.39479e-06 0.000264118
0.000450658 5.37375e-05 5.63517e-06
5.37375e-05 1.29765e-05 1.50352e-05
5.63517e-06 1.50352e-05 -5.27814e-05
0.00446528 -0.000138326 9.36102e-05
-0.000138326 0.00269306 1.06725e-05
9.36102e-05 1.06725e-05 0.00268114
0.00498875 -0.000196658 2.0438e-05
-0.000196658 0.0030665 -2.177e-06
2.0438e-05 -2.177e-06 0.00303738
0.00553477 -0.000248375 -0.000103955
-0.000248375 0.0034516 -1.54746e-05
-0.000103955 -1.54746e-05 0.00340568
-2.08045e-05 -0.000189954 1.99446e-05
-0.000189954 -0.000306987 -1.76383e-05
1.99446e-05 -1.76383e-05 -0.000418785
0.00605106 6.78206e-05 0.000194124
6.78206e-05 0.00373685 -2.60456e-05
0.000194124 -2.60456e-05 0.00372956
0.00051455 -0.000243924 1.92277e-06
-0.000243924 -2.30649e-05 9.80028e-07
1.92277e-06 9.80028e-07 -0.000180581
0.00843591 -3.71515e-05 5.11564e-06
-3.71515e-05 0.00526287 -4.86361e-07
5.11564e-06 -4.86361e-07 0.00527406
0.000333372 0.000155781 -1.60338e-05
0.000155781 -0.000305195 -9.86656e-06
-1.60338e-05 -9.86656e-06 -0.000444082
0.000245425 5.39952e-05 -1.37238e-05
5.39952e-05 -0.000332463 -4.9148e-06
-1.37238e-05 -4.9148e-06 -0.000440539
0.00157017 0.000230419 -3.52069e-06
0.000230419 -3.17078e-06 -8.97078e-07
-3.52069e-06 -8.97078e-07 -0.000167313
0.00149944 0.000113217 -4.41861e-06
0.000113217 -3.66911e-05 -1.14947e-06
-4.41861e-06 -1.14947e-06 -0.000165076
0.000253629 -1.87379e-06 -1.53247e-05
-1.87379e-06 -0.000302486 -1.86878e-06
-1.53247e-05 -1.86878e-06 -0.000395612
0.00673135 -0.000105112 -0.000386253
-0.000105112 0.00412268 7.19291e-06
-0.000386253 7.19291e-06 0.0041607
0.000247022 -4.07418e-06 -3.85594e-08
-4.07418e-06 -0.000305248 -6.70458e-07
-3.85594e-08 -6.70458e-07 -0.000396661
0.00146108 5.5017e-05 -6.42491e-09
5.5017e-05 -5.98083e-05 4.49054e-08
-6.42491e-09 4.49054e-08 -0.000180282
0.00153131 0.000169193 -5.69368e-09
0.000169193 -3.77839e-05 1.41926e-07
-5.69368e-09 1.41926e-07 -0.000179062
0.00231767 0.000165684 -8.77315e-08
0.000165684 0.000108424 1.33564e-07
-8.77315e-08 1.33564e-07 5.50412e-05
0.00161844 0.000307906 -4.27553e-07
0.000307906 1.56614e-05 -3.11009e-07
-4.27553e-07 -3.11009e-07 -0.000179938
0.00231473 0.000362566 -2.22786e-07
0.000362566 0.000131617 3.3918e-07
-2.22786e-07 3.3918e-07 2.32266e-05
0.00143875 -5.48171e-06 2.77141e-06
-5.48171e-06 -6.57459e-05 4.22317e-07
2.77141e-06 4.22317e-07 -0.000185243
0.00230647 7.99135e-05 2.51483e-06
7.99135e-05 9.70127e-05 4.85266e-07
2.51483e-06 4.85266e-07 5.23274e-05
0.00229923 0.000259289 2.11256e-06
0.000259289 0.000108992 1.30083e-06
2.11256e-06 1.30083e-06 3.41079e-05
0.00218286 0.000171705 4.16432e-06
0.000171705 -1.05759e-05 5.2414e-07
4.16432e-06 5.2414e-07 -1.21285e-05
0.00230814 0.000467039 3.46107e-06
0.000467039 0.000157474 3.41094e-07
3.46107e-06 3.41094e-07 2.45614e-06
0.00226382 0.000351159 4.47955e-06
0.000351159 2.25275e-05 8.03739e-07
4.47955e-06 8.03739e-07 -2.07415e-05
0.000255675 -8.822e-06 -1.4886e-05
-8.822e-06 -0.000296225 4.15974e-08
-1.4886e-05 4.15974e-08 -0.000392208
0.00220822 -7.13762e-05 -0.000150028
-7.13762e-05 0.000960388 8.1648e-06
-0.000150028 8.1648e-06 0.00089293
0.00160056 -0.000115449 -1.44498e-05
-0.000115449 2.65936e-05 1.19355e-06
-1.44498e-05 1.19355e-06 -9.01e-05
0.00212714 -0.000263009 -1.91753e-05
-0.000263009 0.000397268 3.1188e-06
-1.91753e-05 3.1188e-06 0.000226321
0.00940334 -0.000101788 -0.00041512
-0.000101788 0.00583307 5.01057e-05
-0.00041512 5.01057e-05 0.00585421
0.00347282 -0.000386012 -0.000218227
-0.000386012 0.00183882 4.01575e-05
-0.000218227 4.01575e-05 0.00167105
0.00241507 -0.000668368 -2.24665e-05
-0.000668368 0.00084255 7.63951e-06
-2.24665e-05 7.63951e-06 0.000409217
0.00232907 -0.000414767 -2.63744e-05
-0.000414767 0.000555406 6.80173e-06
-2.63744e-05 6.80173e-06 0.000330083
0.00240888 -0.000475464 5.2236e-07
-0.000475464 0.000242472 -1.24136e-06
5.2236e-07 -1.24136e-06 9.10651e-05
0.00234732 -0.000637191 2.42455e-07
-0.000637191 0.000313854 -1.66028e-06
2.42455e-07 -1.66028e-06 1.70311e-05
0.00239308 -0.000783661 7.28049e-06
-0.000783661 0.000484919 -5.79892e-06
7.28049e-06 -5.79892e-06 6.67746e-05
0.00235284 -0.000777474 3.14584e-06
-0.000777474 0.000297349 -1.18463e-06
3.14584e-06 -1.18463e-06 -2.5749e-05
7.61754e-05 -0.000293145 -2.4843e-05
-0.000293145 -0.00035267 2.6408e-05
-2.4843e-05 2.6408e-05 -0.000528146
7.63728e-05 -0.000324571 -6.0181e-06
-0.000324571 -0.0002445 -1.70174e-06
-6.0181e-06 -1.70174e-06 -0.000608097
0.00149612 -5.39739e-05 8.60706e-07
-5.39739e-05 -2.86346e-05 -9.04758e-08
8.60706e-07 -9.04758e-08 -0.000144364
0.00215336 -0.000195085 -1.23269e-05
-0.000195085 0.000404989 1.50506e-06
-1.23269e-05 1.50506e-06 0.0002739
0.00217625 -0.000176361 2.63124e-06
-0.000176361 2.14406e-05 -3.88666e-07
2.63124e-06 -3.88666e-07 -5.07107e-05
0.00221635 -0.000379205 -1.45266e-06
-0.000379205 8.53804e-05 4.52632e-07
-1.45266e-06 4.52632e-07 -4.03511e-05
0.00011692 -0.000268479 -1.44516e-06
-0.000268479 -0.000340473 -4.19997e-07
-1.44516e-06 -4.19997e-07 -0.00053678
0.00115554 -0.00056727 -1.93339e-06
-0.00056727 4.67246e-05 -4.38081e-07
-1.93339e-06 -4.38081e-07 -0.000403495
0.0022463 -0.000893286 -1.51465e-07
-0.000893286 0.000433141 1.68111e-06
-1.51465e-07 1.68111e-06 -9.68075e-05
0.00222729 -0.000553161 2.92386e-07
-0.000553161 0.00016637 -1.14264e-07
2.92386e-07 -1.14264e-07 -6.21583e-05
0.00234891 -0.000494633 4.89146e-07
-0.000494633 9.64566e-05 -2.83606e-07
4.89146e-07 -2.83606e-07 -2.94483e-06
0.0026357 -0.000862586 1.9069e-06
-0.000862586 0.00054678 -2.03895e-06
1.9069e-06 -2.03895e-06 0.000148962
0.0023491 -0.000696166 -3.83488e-07
-0.000696166 0.000219877 6.7716e-07
-3.83488e-07 6.7716e-07 -2.30612e-05
0.00234978 -0.000808408 1.39637e-07
-0.000808408 0.000224776 8.94133e-07
1.39637e-07 8.94133e-07 -5.76516e-05
0.000729798 -0.000332249 3.82052e-07
-0.000332249 8.65878e-05 9.88708e-07
3.82052e-07 9.88708e-07 -0.000289042
0.00125576 -0.000424526 -1.21995e-06
-0.000424526 0.000434391 1.49575e-06
-1.21995e-06 1.49575e-06 -3.80932e-07
0.000551298 -0.000182248 -4.61134e-06
-0.000182248 0.000206172 -2.43261e-07
-4.61134e-06 -2.43261e-07 -0.00012321
0.00219131 -8.87462e-05 2.14387e-06
-8.87462e-05 3.3706e-05 -3.88072e-07
2.14387e-06 -3.88072e-07 -3.09147e-05
0.00219791 -0.000271149 8.21118e-08
-0.000271149 3.51058e-05 -7.26423e-07
8.21118e-08 -7.26423e-07 -5.53672e-05
0.00227181 -0.000167559 6.41259e-06
-0.000167559 8.12514e-05 -5.9428e-07
6.41259e-06 -5.9428e-07 6.6273e-05
0.00228778 -0.000389113 3.20489e-06
-0.000389113 3.73153e-05 -5.57008e-07
3.20489e-06 -5.57008e-07 -1.49739e-05
0.00240939 -0.000623026 9.52943e-07
-0.000623026 0.000181304 -7.33947e-07
9.52943e-07 -7.33947e-07 1.62564e-05
0.00246089 -0.000520235 1.30331e-06
-0.000520235 9.53211e-05 2.11686e-07
1.30331e-06 2.11686e-07 4.58199e-05
0.000966302 -0.000438452 6.11484e-06
-0.000438452 0.000113643 -9.98316e-06
6.11484e-06 -9.98316e-06 -0.000288342
0.00247 -0.000747253 1.07108e-06
-0.000747253 0.00019797 -1.52317e-06
1.07108e-06 -1.52317e-06 2.2039e-05
0.00229315 -0.0010055 -2.61393e-06
-0.0010055 0.000626953 3.26196e-06
-2.61393e-06 3.26196e-06 -1.56269e-05
0.00254629 -0.000984734 7.05028e-06
-0.000984734 0.000531961 4.04716e-06
7.05028e-06 4.04716e-06 1.48282e-05
0.00266281 -0.000879753 4.32023e-06
-0.000879753 0.000546071 -2.76979e-07
4.32023e-06 -2.76979e-07 0.000168882
0.0025432 -0.000861441 4.244e-06
-0.000861441 0.000290677 -2.05868e-06
4.244e-06 -2.05868e-06 4.71814e-05
-0.00134289 2.32048e-05 7.48577e-06
2.32048e-05 -0.00106257 -3.22068e-07
7.48577e-06 -3.22068e-07 -0.00134471
0.00209971 -0.000690587 -2.0598e-06
-0.000690587 0.000865268 8.91609e-06
-2.0598e-06 8.91609e-06 0.000308006
-0.00141891 -0.00017451 1.84285e-05
-0.00017451 -0.000902764 6.21001e-06
1.84285e-05 6.21001e-06 -0.0013737
0.0010898 -0.000638537 1.53506e-05
-0.000638537 0.000343985 2.08546e-05
1.53506e-05 2.08546e-05 -0.000274431
0.0015721 0.000381348 -1.05025e-05
0.000381348 4.98153e-06 -3.36995e-06
-1.05025e-05 -3.36995e-06 -0.000229685
0.00025632 0.000115097 -1.52567e-05
0.000115097 -0.000165033 -1.93191e-05
-1.52567e-05 -1.93191e-05 -0.00028068
0.000440017 0.000219863 -2.68418e-05
0.000219863 -0.0001125 -2.3621e-05
-2.68418e-05 -2.3621e-05 -0.000264671
0.00143357 0.00028539 -3.99468e-06
0.00028539 0.000576019 7.20584e-06
-3.99468e-06 7.20584e-06 0.000308892
0.00161645 0.000504078 -2.02783e-05
0.000504078 0.000101651 -5.24128e-06
-2.02783e-05 -5.24128e-06 -0.000218502
0.00233922 0.000655757 -2.5867e-06
0.000655757 0.00026975 1.88958e-06
-2.5867e-06 1.88958e-06 -1.48934e-05
0.000689665 0.000375417 -1.41577e-05
0.000375417 -3.836e-05 -1.07667e-05
-1.41577e-05 -1.07667e-05 -0.000398359
0.00201949 0.000958432 1.42574e-06
0.000958432 0.000437613 6.74788e-06
1.42574e-06 6.74788e-06 -0.000181912
0.00246303 0.000832328 3.82496e-06
0.000832328 0.000525647 6.18114e-06
3.82496e-06 6.18114e-06 0.000100036
0.00194848 0.000846354 1.00276e-05
0.000846354 0.000103009 1.52928e-05
1.00276e-05 1.52928e-05 -0.000335489
0.000398236 7.22319e-05 -2.05306e-06
7.22319e-05 -3.06799e-05 4.88083e-07
-2.05306e-06 4.88083e-07 -0.000134335
0.000945215 0.000323142 -3.12426e-06
0.000323142 0.000282184 2.48397e-06
-3.12426e-06 2.48397e-06 -4.5268e-05
0.000135493 0.000229906 4.69743e-06
0.000229906 -0.000162166 -1.82899e-06
4.69743e-06 -1.82899e-06 -0.000469215
0.000633586 0.00030727 -5.70541e-06
0.00030727 6.49072e-05 8.39334e-06
-5.70541e-06 8.39334e-06 -0.00026267
0.00233549 0.000571577 -1.54641e-06
0.000571577 0.000206914 -9.493e-07
-1.54641e-06 -9.493e-07 -1.16982e-05
0.00234809 0.000749822 -1.0683e-06
0.000749822 0.000359095 -3.94794e-07
-1.0683e-06 -3.94794e-07 -4.85738e-08
0.00242096 0.000724125 3.46415e-07
0.000724125 0.000243274 1.34603e-07
3.46415e-07 1.34603e-07 -1.19914e-05
0.00194936 0.000900468 1.73516e-06
0.000900468 0.000664159 -1.64364e-06
1.73516e-06 -1.64364e-06 6.31023e-06
0.00261319 0.00091972 1.17392e-06
0.00091972 0.000540175 8.35633e-07
1.17392e-06 8.35633e-07 0.00012933
0.00239389 0.00108971 -1.2733e-06
0.00108971 0.000624333 -2.38528e-06
-1.2733e-06 -2.38528e-06 -2.922e-05
0.00246431 0.000868351 -8.62771e-06
0.000868351 0.000345989 3.2894e-06
-8.62771e-06 3.2894e-06 -5.88422e-05
0.000615062 6.46518e-05 8.58273e-06
6.46518e-05 0.000115262 1.65601e-05
8.58273e-06 1.65601e-05 3.44545e-05
0.00127663 0.000183145 -2.4851e-06
0.000183145 0.000610514 1.22183e-05
-2.4851e-06 1.22183e-05 0.000334768
0.000240623 0.0005224 -8.59951e-06
0.0005224 -0.000239898 -7.26999e-06
-8.59951e-06 -7.26999e-06 -0.000721084
0.000886809 0.000363319 1.1834e-05
0.000363319 0.000311947 -2.85577e-06
1.1834e-05 -2.85577e-06 -4.18822e-05
0.00144196 0.000275152 3.20772e-07
0.000275152 0.000472715 1.84176e-05
3.20772e-07 1.84176e-05 0.000139576
0.00247281 0.000622649 9.70777e-07
0.000622649 0.000188299 -4.76634e-07
9.70777e-07 -4.76634e-07 2.70644e-05
0.00230053 0.00082276 -1.53268e-06
0.00082276 0.000246645 -1.71262e-06
-1.53268e-06 -1.71262e-06 -9.54509e-05
0.00247926 0.000794099 -2.13444e-06
0.000794099 0.000222575 -2.48995e-08
-2.13444e-06 -2.48995e-08 -1.19954e-05
0.00233752 0.00121146 -3.04876e-06
0.00121146 0.000891891 -1.26004e-05
-3.04876e-06 -1.26004e-05 8.2494e-05
0.00283184 0.000975099 -5.91389e-06
0.000975099 0.000572893 -2.54947e-06
-5.91389e-06 -2.54947e-06 0.000169266
0.00206574 0.001142 5.98207e-06
0.001142 0.000303505 -8.22179e-06
5.98207e-06 -8.22179e-06 -0.000342909
0.000887248 0.000148222 -1.00503e-06
0.000148222 0.000349035 1.22771e-05
-1.00503e-06 1.22771e-05 0.000168469
0.000876025 0.000180126 -8.4656e-06
0.000180126 0.000485492 5.54462e-06
-8.4656e-06 5.54462e-06 0.000208319
0.000731394 0.000105561 -2.26285e-06
0.000105561 0.000247967 4.70283e-06
-2.26285e-06 4.70283e-06 0.000128359
0.000441801 5.55045e-05 -2.63919e-06
5.55045e-05 5.84308e-05 1.78311e-08
-2.63919e-06 1.78311e-08 -8.39516e-05
0.00161393 1.0606e-05 1.24394e-06
1.0606e-05 0.000785296 8.16066e-06
1.24394e-06 8.16066e-06 0.000738161
0.00103296 3.41058e-05 -6.43557e-07
3.41058e-05 0.000401661 -4.45312e-07
-6.43557e-07 -4.45312e-07 0.000340222
0.00114851 -1.026e-05 8.64225e-05
-1.026e-05 0.000472994 1.73959e-05
8.64225e-05 1.73959e-05 0.000463497
0.00443486 -0.000151358 1.55173e-05
-0.000151358 0.00267965 -1.70772e-06
1.55173e-05 -1.70772e-06 0.00266351
0.00493159 -0.00021123 -8.61623e-05
-0.00021123 0.00303402 -1.24263e-05
-8.61623e-05 -1.24263e-05 0.003001
0.000183652 -0.000128387 2.93218e-05
-0.000128387 -0.000166922 -7.78212e-06
2.93218e-05 -7.78212e-06 -0.000237139
0.00415287 0.000138941 9.39336e-05
0.000138941 0.00251602 -1.41309e-05
9.39336e-05 -1.41309e-05 0.0024982
0.000540213 -0.000161799 -2.28209e-06
-0.000161799 6.6921e-05 1.53268e-06
-2.28209e-06 1.53268e-06 -5.74418e-05
0.00691357 3.11511e-05 -1.00647e-06
3.11511e-05 0.00431143 1.46881e-06
-1.00647e-06 1.46881e-06 0.00430827
0.000179677 -0.000236136 -2.23667e-05
-0.000236136 -0.000241574 2.2219e-05
-2.23667e-05 2.2219e-05 -0.000402963
0.00872091 -3.15712e-05 -0.000365538
-3.15712e-05 0.005443 4.64687e-05
-0.000365538 4.64687e-05 0.00545378
0.0015728 0.000303663 -6.921e-06
0.000303663 -1.15377e-06 -2.22074e-06
-6.921e-06 -2.22074e-06 -0.000197207
0.0015353 0.000170078 -3.69439e-06
0.000170078 -2.02977e-05 -8.37646e-07
-3.69439e-06 -8.37646e-07 -0.000162412
0.00230014 0.000360371 -3.38242e-06
0.000360371 0.00011256 -5.35631e-07
-3.38242e-06 -5.35631e-07 4.33037e-06
0.00233117 0.000163747 -2.37713e-06
0.000163747 0.000119523 -6.12518e-07
-2.37713e-06 -6.12518e-07 6.61492e-05
0.00147064 6.04307e-05 -3.61132e-06
6.04307e-05 -4.85674e-05 -7.89518e-07
-3.61132e-06 -7.89518e-07 -0.000169502
0.000212813 2.67721e-05 -1.55162e-05
2.67721e-05 -0.00032959 -1.64354e-06
-1.55162e-05 -1.64354e-06 -0.000419026
0.00144528 -5.30534e-08 -4.16839e-08
-5.30534e-08 -6.05458e-05 -9.09177e-09
-4.16839e-08 -9.09177e-09 -0.000180045
0.00231218 7.85219e-05 -1.13209e-07
7.85219e-05 0.000102797 1.01425e-07
-1.13209e-07 1.01425e-07 5.83791e-05
0.00232258 0.000258211 6.70084e-08
0.000258211 0.00012156 1.38992e-07
6.70084e-08 1.38992e-07 4.77971e-05
0.00216982 0.000167587 -3.98407e-07
0.000167587 -2.88469e-05 -4.67244e-08
-3.98407e-07 -4.67244e-08 -2.3642e-05
0.0023234 0.000471375 -7.56238e-07
0.000471375 0.000161118 7.6273e-08
-7.56238e-07 7.6273e-08 4.54673e-06
0.00226557 0.000351646 -2.60277e-08
0.000351646 2.81964e-05 1.94364e-07
-2.60277e-08 1.94364e-07 -1.59361e-05
0.00230378 -5.96318e-06 2.0563e-06
-5.96318e-06 0.000100176 1.07794e-08
2.0563e-06 1.07794e-08 5.62924e-05
0.00213236 7.84906e-05 2.5585e-06
7.84906e-05 -5.55752e-05 1.83214e-08
2.5585e-06 1.83214e-08 -3.85421e-05
0.00219565 0.000245523 4.7952e-06
0.000245523 -1.07756e-06 7.92817e-07
4.7952e-06 7.92817e-07 -2.10492e-05
0.00227811 0.000164962 1.40834e-06
0.000164962 -4.24392e-05 2.94823e-08
1.40834e-06 2.94823e-08 -2.64661e-06
0.00243492 0.000501376 2.99933e-06
0.000501376 0.00012241 5.67647e-07
2.99933e-06 5.67647e-07 3.73084e-05
0.00235492 0.000374132 2.53323e-07
0.000374132 -5.71983e-05 -4.78661e-07
2.53323e-07 -4.78661e-07 -3.72912e-05
0.00155304 -5.12288e-05 -5.28411e-06
-5.12288e-05 7.03627e-06 1.80911e-07
-5.28411e-06 1.80911e-07 -0.000101595
0.00208362 -0.000194418 -2.22091e-05
-0.000194418 0.000352172 2.57489e-06
-2.22091e-05 2.57489e-06 0.000220317
0.00217461 -0.000170253 3.67359e-06
-0.000170253 1.41343e-05 -3.03163e-07
3.67359e-06 -3.03163e-07 -5.32581e-05
0.00221061 -0.000375512 1.67084e-07
-0.000375512 0.000102415 5.9539e-07
1.67084e-07 5.9539e-07 -3.50293e-05
0.000264955 -0.000297591 -2.44073e-05
-0.000297591 -0.000239507 3.02881e-05
-2.44073e-05 3.02881e-05 -0.000438991
0.00157718 -0.000593841 -1.03897e-05
-0.000593841 0.000323779 4.0009e-06
-1.03897e-05 4.0009e-06 -0.000130666
0.00227852 -0.000906486 7.29479e-06
-0.000906486 0.000438523 -4.83813e-06
7.29479e-06 -4.83813e-06 -0.000102071
0.00226186 -0.000551474 2.29375e-07
-0.000551474 0.000195401 -1.32226e-06
2.29375e-07 -1.32226e-06 -3.7698e-05
0.00236981 -0.000499898 -2.16272e-06
-0.000499898 9.64172e-05 5.06469e-08
-2.16272e-06 5.06469e-08 3.19801e-06
0.0022872 -0.000688489 5.1664e-07
-0.000688489 0.000177969 8.01849e-07
5.1664e-07 8.01849e-07 -6.26429e-05
0.00264888 -0.000863061 3.45877e-06
-0.000863061 0.00055589 -5.83096e-06
3.45877e-06 -5.83096e-06 0.000163513
0.00220135 -0.000803523 -6.40452e-07
-0.000803523 0.000119096 2.20712e-06
-6.40452e-07 2.20712e-06 -0.000163505
0.000886162 -0.000352117 -3.65962e-06
-0.000352117 0.000175371 1.55284e-06
-3.65962e-06 1.55284e-06 -0.00020429
0.00125685 -0.000369656 -7.76216e-06
-0.000369656 0.000448382 -1.40845e-05
-7.76216e-06 -1.40845e-05 3.72e-05
0.000435532 -0.000264517 -5.72011e-08
-0.000264517 0.000145023 4.15869e-06
-5.72011e-08 4.15869e-06 -0.000205163
0.00225273 -8.53888e-05 3.89065e-06
-8.53888e-05 7.61311e-05 -1.91859e-07
3.89065e-06 -1.91859e-07 1.8991e-05
0.00215232 -0.000274876 2.07867e-06
-0.000274876 7.86652e-06 -6.55264e-07
2.07867e-06 -6.55264e-07 -8.17069e-05
0.00222453 -0.000161276 4.59275e-08
-0.000161276 3.06461e-05 7.55053e-08
4.59275e-08 7.55053e-08 2.4094e-05
0.00234556 -0.000384958 -5.83473e-07
-0.000384958 8.60256e-05 1.00121e-07
-5.83473e-07 1.00121e-07 2.98752e-05
0.00105388 -0.000467428 -1.92793e-06
-0.000467428 0.000143091 -1.15477e-06
-1.92793e-06 -1.15477e-06 -0.000274348
0.00241311 -0.00103873 9.84633e-07
-0.00103873 0.000698158 -1.28493e-06
9.84633e-07 -1.28493e-06 4.44617e-05
0.00235594 -0.000966379 7.8445e-07
-0.000966379 0.000410036 2.30559e-06
7.8445e-07 2.30559e-06 -0.000111395
0.00232595 -0.00061105 -8.97788e-07
-0.00061105 0.000135396 3.81705e-07
-8.97788e-07 3.81705e-07 -3.42423e-05
0.00243597 -0.000522812 8.31334e-08
-0.000522812 6.48041e-05 1.81816e-08
8.31334e-08 1.81816e-08 2.06496e-05
0.0025454 -0.000869451 -5.6598e-07
-0.000869451 0.000458478 -3.12593e-07
-5.6598e-07 -3.12593e-07 8.35579e-05
0.00243607 -0.000745006 -7.49692e-07
-0.000745006 0.00017184 3.4152e-07
-7.49692e-07 3.4152e-07 -2.97367e-06
0.00245439 -0.000857632 1.46334e-06
-0.000857632 0.0002245 -4.08093e-07
1.46334e-06 -4.08093e-07 -1.12284e-05
0.00155787 -0.000657463 -3.768e-06
-0.000657463 0.000535907 -1.64506e-06
-3.768e-06 -1.64506e-06 -1.65005e-05
0.00139099 -0.00065872 -3.02581e-06
-0.00065872 0.000542034 -2.55888e-07
-3.02581e-06 -2.55888e-07 -6.67251e-05
0.000273048 -2.707e-05 6.66245e-06
-2.707e-05 -3.31747e-05 3.06506e-06
6.66245e-06 3.06506e-06 -0.000290565
0.000431187 -0.000190546 1.8168e-06
-0.000190546 0.000163342 -7.64445e-06
1.8168e-06 -7.64445e-06 -0.000229256
0.00217143 -9.12905e-05 5.20285e-06
-9.12905e-05 -1.18781e-06 -2.95217e-07
5.20285e-06 -2.95217e-07 -1.48537e-06
0.00223951 -0.000267043 3.71995e-06
-0.000267043 1.70666e-05 -1.03659e-06
3.71995e-06 -1.03659e-06 -8.6917e-06
0.00229647 -0.00016667 2.06285e-06
-0.00016667 1.47074e-05 -1.84459e-07
2.06285e-06 -1.84459e-07 5.03386e-05
0.00239045 -0.000411276 -1.19387e-06
-0.000411276 -1.74105e-05 5.77367e-07
-1.19387e-06 5.77367e-07 7.27551e-06
0.00240791 -0.000643102 -6.80663e-07
-0.000643102 8.74592e-05 2.7157e-07
-6.80663e-07 2.7157e-07 -1.40245e-05
0.00251707 -0.000562794 1.31108e-06
-0.000562794 2.86341e-05 1.00589e-07
1.31108e-06 1.00589e-07 3.53704e-06
0.00194437 -0.000959721 -9.46299e-06
-0.000959721 0.000623655 9.00376e-06
-9.46299e-06 9.00376e-06 -5.5205e-05
0.00256256 -0.000814793 1.17268e-06
-0.000814793 0.000155901 -4.0252e-07
1.17268e-06 -4.0252e-07 2.42613e-05
0.00232604 -0.0011451 -5.89973e-08
-0.0011451 0.000595879 5.98916e-06
-5.89973e-08 5.98916e-06 -8.79303e-05
0.00272467 -0.00102032 9.76138e-06
-0.00102032 0.000623715 8.56378e-07
9.76138e-06 8.56378e-07 0.00011441
0.00262385 -0.000904153 1.11391e-06
-0.000904153 0.000468266 -1.0255e-06
1.11391e-06 -1.0255e-06 0.00010793
0.00251512 -0.000929359 3.80171e-07
-0.000929359 0.00019256 -3.30488e-06
3.80171e-07 -3.30488e-06 -5.06344e-05
-0.000268482 -0.000211367 1.17035e-05
-0.000211367 -0.000492788 -9.85963e-06
1.17035e-05 -9.85963e-06 -0.000744108
-0.00273169 5.9188e-05 1.05811e-05
5.9188e-05 -0.00199126 1.9478e-06
1.05811e-05 1.9478e-06 -0.00236972
0.00138623 -0.000879312 1.52917e-05
-0.000879312 0.000424156 1.18017e-05
1.52917e-05 1.18017e-05 -0.000267421
0.00302872 -0.000648421 1.51344e-05
-0.000648421 0.00180145 1.58669e-05
1.51344e-05 1.58669e-05 0.00130091
0.00139594 -0.000807639 -7.1526e-06
-0.000807639 0.000594027 1.15303e-05
-7.1526e-06 1.15303e-05 -0.000139603
-1.68186e-05 5.71883e-05 -8.62874e-06
5.71883e-05 -0.000293877 -1.7856e-05
-8.62874e-06 -1.7856e-05 -0.000391994
0.00240489 0.000577082 -4.00131e-06
0.000577082 0.000254773 7.97587e-08
-4.00131e-06 7.97587e-08 3.48625e-05
0.00116469 0.000132295 3.51196e-06
0.000132295 0.00047728 -5.54194e-06
3.51196e-06 -5.54194e-06 0.000182108
0.000909766 0.000355705 -5.08501e-06
0.000355705 0.000234018 7.83675e-06
-5.08501e-06 7.83675e-06 -6.68145e-05
0.00148574 0.000325928 -4.46711e-06
0.000325928 0.000600156 9.86866e-06
-4.46711e-06 9.86866e-06 0.000278449
0.00227795 0.000745437 2.43034e-07
0.000745437 0.00030738 3.36223e-06
2.43034e-07 3.36223e-06 -5.08676e-05
0.00247182 0.000728424 -6.72161e-07
0.000728424 0.000280743 -7.24214e-08
-6.72161e-07 -7.24214e-08 2.4807e-05
0.00175542 0.000946934 1.43266e-05
0.000946934 0.000543844 1.02484e-05
1.43266e-05 1.02484e-05 -0.000149007
0.00227493 0.00107681 7.21293e-06
0.00107681 0.000550061 1.0855e-05
7.21293e-06 1.0855e-05 -0.000101857
0.00259536 0.000910445 6.00743e-06
0.000910445 0.000540937 6.21719e-06
6.00743e-06 6.21719e-06 0.000128966
0.00279622 0.000879636 1.39238e-05
0.000879636 0.00058716 1.75399e-05
1.39238e-05 1.75399e-05 0.000190515
0.000464196 7.16379e-05 -1.71111e-06
7.16379e-05 1.90534e-05 3.25303e-07
-1.71111e-06 3.25303e-07 -5.76609e-05
0.00072331 0.000160278 -1.14695e-06
0.000160278 0.000270812 -5.84769e-07
-1.14695e-06 -5.84769e-07 -1.54977e-05
0.00103615 0.000576128 9.93159e-06
0.000576128 0.000274729 -2.3914e-06
9.93159e-06 -2.3914e-06 -0.000212549
0.000661456 0.000213997 -1.10159e-07
0.000213997 0.000157003 -4.86076e-06
-1.10159e-07 -4.86076e-06 -0.000182126
0.000389627 0.000279577 -1.56429e-06
0.000279577 -0.00019991 4.52599e-06
-1.56429e-06 4.52599e-06 -0.000565007
0.00245902 0.000621771 -8.15349e-07
0.000621771 0.000179405 -6.98343e-07
-8.15349e-07 -6.98343e-07 1.87882e-05
0.00238709 0.000829076 4.85601e-07
0.000829076 0.000308661 -1.61864e-07
4.85601e-07 -1.61864e-07 -3.37954e-05
0.00247051 0.0007944 1.32195e-06
0.0007944 0.000220921 5.16354e-07
1.32195e-06 5.16354e-07 -1.31861e-05
0.0023902 0.0012173 1.6521e-06
0.0012173 0.000943522 -2.09807e-06
1.6521e-06 -2.09807e-06 0.000132377
0.00279727 0.000971718 3.41268e-06
0.000971718 0.000524845 1.37918e-07
3.41268e-06 1.37918e-07 0.000120355
0.00271739 0.00121383 -5.71286e-06
0.00121383 0.000757181 7.68552e-07
-5.71286e-06 7.68552e-07 9.88145e-05
0.000924791 0.000173906 -8.8947e-07
0.000173906 0.000370207 1.33153e-05
-8.8947e-07 1.33153e-05 0.000153217
0.00218602 0.000490009 1.68945e-06
0.000490009 0.00125624 5.84754e-06
1.68945e-06 5.84754e-06 0.000844169
0.00123755 0.000823127 1.29733e-06
0.000823127 0.000446212 -2.86534e-07
1.29733e-06 -2.86534e-07 -0.000185724
0.00145414 0.00027608 9.75486e-06
0.00027608 0.00041437 3.27669e-07
9.75486e-06 3.27669e-07 0.000107833
0.00340235 0.000831044 2.65548e-06
0.000831044 0.00155333 1.96713e-07
2.65548e-06 1.96713e-07 0.00103882
0.00250152 0.000661162 -3.11664e-06
0.000661162 0.000103958 -1.48926e-06
-3.11664e-06 -1.48926e-06 -7.43538e-06
0.0025208 0.000906952 -3.2956e-06
0.000906952 0.00034233 -1.30563e-07
-3.2956e-06 -1.30563e-07 -7.27423e-06
0.00254166 0.000892797 -3.73031e-07
0.000892797 0.000226283 -7.66821e-07
-3.73031e-07 -7.66821e-07 -1.06908e-05
0.00177646 0.00124112 1.17133e-05
0.00124112 0.000612848 -7.86306e-06
1.17133e-05 -7.86306e-06 -0.000206782
0.00243164 0.00115772 1.61641e-05
0.00115772 0.000438614 -3.89936e-06
1.61641e-05 -3.89936e-06 -0.000142033
0.000624005 0.000124714 -2.6278e-07
0.000124714 0.000178322 -2.9032e-07
-2.6278e-07 -2.9032e-07 -3.67558e-07
0.000272654 0.000262036 -5.3069e-06
0.000262036 3.2055e-05 6.60671e-07
-5.3069e-06 6.60671e-07 -0.000243843
-0.000720368 0.000105614 3.85219e-07
0.000105614 -0.000560018 -2.55744e-06
3.85219e-07 -2.55744e-06 -0.000824078
0.00191704 0.000328145 -1.09993e-05
0.000328145 0.00121975 -2.49351e-07
-1.09993e-05 -2.49351e-07 0.000908911
0.00157773 0.000276357 -4.71749e-06
0.000276357 0.000917941 4.90013e-07
-4.71749e-06 4.90013e-07 0.000686328
0.000585806 0.000106886 -3.29485e-07
0.000106886 0.000162325 2.45389e-06
-3.29485e-07 2.45389e-06 5.27608e-05
0.000555949 5.3447e-05 -1.60977e-06
5.3447e-05 0.000138254 -2.94105e-07
-1.60977e-06 -2.94105e-07 1.89621e-05
0.00152797 2.26958e-05 1.68169e-06
2.26958e-05 0.000732886 5.9475e-06
1.68169e-06 5.9475e-06 0.000693757
0.000321157 7.00893e-05 5.64176e-06
7.00893e-05 -2.69611e-05 -6.79059e-06
5.64176e-06 -6.79059e-06 -0.000161489
0.00164689 7.45012e-06 -1.7698e-05
7.45012e-06 0.000807233 -2.42073e-06
-1.7698e-05 -2.42073e-06 0.000764561
0.000743962 -9.3214e-06 6.19827e-05
-9.3214e-06 0.000204982 1.32383e-05
6.19827e-05 1.32383e-05 0.000201896
0.00184256 3.90124e-05 -3.60137e-05
3.90124e-05 0.000939413 -1.15076e-05
-3.60137e-05 -1.15076e-05 0.000887569
0.00248234 -7.42488e-05 7.61443e-05
-7.42488e-05 0.0013714 1.59433e-06
7.61443e-05 1.59433e-06 0.00135946
0.00415816 -0.000157676 -6.8732e-05
-0.000157676 0.00250078 -1.01878e-05
-6.8732e-05 -1.01878e-05 0.00248223
0.000923384 3.18394e-05 2.03035e-06
3.18394e-05 0.000327055 -9.32053e-06
2.03035e-06 -9.32053e-06 0.00024576
0.000257657 -0.000101775 5.10499e-06
-0.000101775 -0.000113779 1.55116e-06
5.10499e-06 1.55116e-06 -0.000194
0.0043418 0.000175935 6.01482e-05
0.000175935 0.00264713 -1.09494e-05
6.01482e-05 -1.09494e-05 0.00261758
0.00469232 9.76903e-05 -1.8667e-05
9.76903e-05 0.00286977 2.401e-06
-1.8667e-05 2.401e-06 0.00285761
0.00133488 -0.000168995 -1.61268e-05
-0.000168995 0.000575722 2.11567e-05
-1.61268e-05 2.11567e-05 0.000440726
0.00775582 1.93527e-05 -0.00031448
1.93527e-05 0.00486634 4.45153e-05
-0.00031448 4.45153e-05 0.00486342
0.00234143 0.000476413 -3.35104e-06
0.000476413 0.000165637 1.94967e-07
-3.35104e-06 1.94967e-07 7.35043e-06
0.00233025 0.000258871 -2.66006e-06
0.000258871 0.00012299 -1.08889e-06
-2.66006e-06 -1.08889e-06 4.98747e-05
0.00226607 0.00035285 -4.1936e-06
0.00035285 3.25984e-05 -4.07199e-07
-4.1936e-06 -4.07199e-07 -1.25502e-05
0.00215677 0.000163223 -3.49802e-06
0.000163223 -4.78874e-05 -2.57997e-07
-3.49802e-06 -2.57997e-07 -3.5894e-05
0.00231939 7.77891e-05 -2.57395e-06
7.77891e-05 0.000109837 -2.42911e-07
-2.57395e-06 -2.42911e-07 6.56885e-05
0.00145863 5.32516e-06 -2.73142e-06
5.32516e-06 -5.26918e-05 -4.58089e-07
-2.73142e-06 -4.58089e-07 -0.000172155
0.00230232 -5.28272e-06 -1.73103e-08
-5.28272e-06 0.000100689 5.04627e-08
-1.73103e-08 5.04627e-08 5.67437e-05
0.00213363 7.05356e-05 -4.54562e-07
7.05356e-05 -5.17465e-05 -4.5079e-08
-4.54562e-07 -4.5079e-08 -3.66919e-05
0.00219786 0.000245137 -1.53995e-07
0.000245137 -1.70122e-06 3.14312e-08
-1.53995e-07 3.14312e-08 -2.15194e-05
0.00226779 0.000167046 9.29258e-08
0.000167046 -5.6643e-05 4.09134e-08
9.29258e-08 4.09134e-08 -1.00716e-05
0.00240323 0.000498797 1.08099e-07
0.000498797 9.88847e-05 1.33778e-07
1.08099e-07 1.33778e-07 1.6014e-05
0.00235454 0.000364471 2.2748e-07
0.000364471 -6.11173e-05 2.53816e-07
2.2748e-07 2.53816e-07 -3.69419e-05
0.00213367 -1.07142e-05 3.20606e-06
-1.07142e-05 -4.50035e-05 -1.45844e-07
3.20606e-06 -1.45844e-07 -3.10355e-05
0.00231507 7.0358e-05 5.81372e-07
7.0358e-05 -2.37739e-05 -5.48698e-07
5.81372e-07 -5.48698e-07 3.68666e-05
0.00228186 0.000238415 -6.81209e-07
0.000238415 -6.32377e-05 -5.17898e-07
-6.81209e-07 -5.17898e-07 -2.99726e-05
0.00239692 0.000177562 2.93465e-08
0.000177562 -7.98795e-05 -5.50249e-07
2.93465e-08 -5.50249e-07 1.30804e-05
0.00245419 0.000504935 -4.50258e-07
0.000504935 1.84143e-05 -4.52066e-07
-4.50258e-07 -4.52066e-07 -5.73587e-06
0.00246871 0.000358174 1.62801e-07
0.000358174 -9.22363e-05 -4.65698e-08
1.62801e-07 -4.65698e-08 -3.4348e-05
0.00229983 -8.19713e-05 1.37832e-06
-8.19713e-05 0.000107495 1.63354e-07
1.37832e-06 1.63354e-07 5.77273e-05
0.00212612 -0.000278217 4.16786e-06
-0.000278217 -8.20024e-06 -4.23864e-07
4.16786e-06 -4.23864e-07 -9.64134e-05
0.00217095 -0.000155094 -3.26982e-06
-0.000155094 -2.33672e-05 2.22501e-07
-3.26982e-06 2.22501e-07 -2.13367e-05
0.00240343 -0.000381499 -5.20186e-06
-0.000381499 0.000135286 1.2123e-06
-5.20186e-06 1.2123e-06 7.50671e-05
0.00082944 -0.000470183 -8.70274e-06
-0.000470183 -9.7827e-06 6.55846e-06
-8.70274e-06 6.55846e-06 -0.000438609
0.00259448 -0.00106452 1.41412e-06
-0.00106452 0.000831482 -4.58228e-06
1.41412e-06 -4.58228e-06 0.0001714
0.00212856 -0.000939887 2.74738e-06
-0.000939887 0.00026798 -3.00088e-06
2.74738e-06 -3.00088e-06 -0.000255361
0.00225027 -0.000599712 -3.16985e-06
-0.000599712 9.48182e-05 1.2581e-06
-3.16985e-06 1.2581e-06 -7.94213e-05
0.00241066 -0.000524981 1.31052e-07
-0.000524981 3.46801e-05 -7.47079e-07
1.31052e-07 -7.47079e-07 -4.66513e-06
0.00240663 -0.000743968 -1.07571e-06
-0.000743968 0.00014794 1.57759e-06
-1.07571e-06 1.57759e-06 -2.61973e-05
0.00245506 -0.000865583 -2.39959e-06
-0.000865583 0.000387246 -3.18912e-07
-2.39959e-06 -3.18912e-07 1.16353e-05
0.00241786 -0.000864952 -1.66983e-06
-0.000864952 0.000190375 9.94349e-07
-1.66983e-06 9.94349e-07 -4.16176e-05
0.00129072 -0.00062576 1.78478e-06
-0.00062576 0.000341864 -1.50664e-05
1.78478e-06 -1.50664e-05 -0.000204255
0.00176449 -0.000664014 -2.25212e-05
-0.000664014 0.000774612 -1.1847e-05
-2.25212e-05 -1.1847e-05 0.000175728
0.00184084 -7.68014e-05 9.07546e-06
-7.68014e-05 0.000987002 6.95562e-06
9.07546e-06 6.95562e-06 0.000731344
-0.000195109 -4.85226e-05 -1.23932e-05
-4.85226e-05 -0.000315038 -1.00367e-05
-1.23932e-05 -1.00367e-05 -0.000633887
0.00216999 -9.07054e-05 -1.135e-07
-9.07054e-05 -3.71942e-06 3.17308e-08
-1.135e-07 3.17308e-08 -4.07073e-06
0.00228739 -0.000269853 1.34791e-06
-0.000269853 5.30104e-05 -2.59476e-07
1.34791e-06 -2.59476e-07 2.65869e-05
0.00224382 -0.000164141 -4.53516e-08
-0.000164141 -2.64067e-05 -1.58853e-07
-4.53516e-08 -1.58853e-07 1.26956e-05
0.00236385 -0.000409746 -2.96771e-07
-0.000409746 -2.78739e-05 2.79168e-07
-2.96771e-07 2.79168e-07 -1.16056e-05
0.00200272 -0.00091063 -1.51551e-06
-0.00091063 0.000647236 -5.83664e-07
-1.51551e-06 -5.83664e-07 -6.46672e-06
0.00223966 -0.00113657 2.77541e-06
-0.00113657 0.000538264 3.08422e-07
2.77541e-06 3.08422e-07 -0.000146098
0.00264279 -0.0010277 -6.58394e-07
-0.0010277 0.000566969 9.13211e-07
-6.58394e-07 9.13211e-07 5.01671e-05
0.00243041 -0.000644655 -9.79501e-07
-0.000644655 0.000111334 1.42668e-07
-9.79501e-07 1.42668e-07 3.0434e-06
0.00249032 -0.00055913 7.29632e-07
-0.00055913 1.20571e-05 -4.44534e-07
7.29632e-07 -4.44534e-07 -3.19143e-06
0.00265069 -0.000911853 -1.95344e-06
-0.000911853 0.000496397 6.3741e-07
-1.95344e-06 6.3741e-07 0.000129487
0.0025735 -0.000819467 -1.15761e-06
-0.000819467 0.000156066 4.97622e-07
-1.15761e-06 4.97622e-07 2.28119e-05
0.00254402 -0.000927793 7.6622e-06
-0.000927793 0.000208388 -2.68142e-06
7.6622e-06 -2.68142e-06 -2.58057e-05
0.00179847 -0.000943659 1.9412e-06
-0.000943659 0.000707536 -7.81483e-07
1.9412e-06 -7.81483e-07 -1.69149e-05
0.001994 -0.00088129 -3.12836e-06
-0.00088129 0.000959181 -1.3401e-06
-3.12836e-06 -1.3401e-06 0.000223188
0.00075094 -0.000468591 -3.46527e-06
-0.000468591 0.000354298 2.29312e-06
-3.46527e-06 2.29312e-06 -0.000140684
-4.17833e-05 -0.00015789 -6.92589e-06
-0.00015789 -0.00028939 -5.70801e-07
-6.92589e-06 -5.70801e-07 -0.000558454
0.00046262 0.000149812 -4.4125e-06
0.000149812 0.000129212 -3.80338e-06
-4.4125e-06 -3.80338e-06 -0.000244504
0.00225472 -0.000103806 -5.7126e-08
-0.000103806 -5.51584e-05 3.84257e-07
-5.7126e-08 3.84257e-07 5.22925e-07
0.00231575 -0.000247574 -1.26194e-06
-0.000247574 -6.65697e-05 -1.96465e-07
-1.26194e-06 -1.96465e-07 -1.29027e-05
0.00252416 -0.000500448 -6.18056e-07
-0.000500448 -7.94737e-05 -8.75628e-08
-6.18056e-07 -8.75628e-08 -1.21954e-05
0.00251479 -0.000684698 1.07713e-06
-0.000684698 3.92316e-05 7.52777e-07
1.07713e-06 7.52777e-07 -1.24086e-05
0.00218544 -0.00118998 -3.27179e-06
-0.00118998 0.000758952 2.22683e-06
-3.27179e-06 2.22683e-06 -1.28771e-05
0.00273074 -0.000952667 -1.21675e-06
-0.000952667 0.00015528 -2.04735e-06
-1.21675e-06 -2.04735e-06 -1.22369e-05
0.00176876 -0.00113749 -2.28166e-06
-0.00113749 0.000257327 7.23544e-06
-2.28166e-06 7.23544e-06 -0.00043373
0.00281997 -0.00109345 -9.63945e-07
-0.00109345 0.000665455 1.00932e-06
-9.63945e-07 1.00932e-06 0.000140849
0.00258863 -0.000944102 -1.19695e-05
-0.000944102 0.000372936 -2.68238e-06
-1.19695e-05 -2.68238e-06 4.46771e-05
0.000389169 -0.000191846 -3.3412e-07
-0.000191846 8.35594e-05 -2.53478e-06
-3.3412e-07 -2.53478e-06 -0.000171831
0.00424397 -0.000370121 -5.79551e-06
-0.000370121 0.00258579 3.28548e-06
-5.79551e-06 3.28548e-06 0.00217278
-0.00138066 -8.15763e-05 -7.17811e-06
-8.15763e-05 -0.00127023 6.82184e-06
-7.17811e-06 6.82184e-06 -0.0015659
0.00281913 -0.00116944 -8.45805e-06
-0.00116944 0.00137328 6.081e-06
-8.45805e-06 6.081e-06 0.000565699
0.00260868 -0.000691889 5.94648e-06
-0.000691889 0.00145205 1.03026e-05
5.94648e-06 1.03026e-05 0.000861778
0.00222301 -0.0009698 -1.07983e-05
-0.0009698 0.00107884 1.34158e-05
-1.07983e-05 1.34158e-05 0.000293004
0.000399509 7.32121e-05 -1.02826e-05
7.32121e-05 -2.10327e-05 -1.66034e-05
-1.02826e-05 -1.66034e-05 -9.55156e-05
9.27836e-05 0.000146651 8.46933e-07
0.000146651 -0.000114365 -1.30142e-05
8.46933e-07 -1.30142e-05 -0.000416411
0.00244373 0.000620772 -3.6244e-06
0.000620772 0.000169957 -1.30289e-06
-3.6244e-06 -1.30289e-06 9.96019e-06
-0.000291269 4.92244e-06 -3.3796e-06
4.92244e-06 -0.000415371 -6.34589e-07
-3.3796e-06 -6.34589e-07 -0.000767073
0.00289774 0.00066191 1.79037e-05
0.00066191 0.00143565 -4.61035e-06
1.79037e-05 -4.61035e-06 0.000954602
-0.000317807 0.000341443 -1.61174e-05
0.000341443 -0.000673905 -4.82324e-06
-1.61174e-05 -4.82324e-06 -0.0010858
0.00247155 0.000834231 1.51667e-06
0.000834231 0.000371434 8.34446e-07
1.51667e-06 8.34446e-07 2.90361e-05
0.00246039 0.000794913 2.50561e-06
0.000794913 0.000217069 4.611e-07
2.50561e-06 4.611e-07 -1.66199e-05
0.00236177 0.00120346 7.45963e-06
0.00120346 0.000950374 9.62912e-06
7.45963e-06 9.62912e-06 0.000143471
0.00329401 0.00126788 -5.47568e-06
0.00126788 0.00116285 8.44387e-06
-5.47568e-06 8.44387e-06 0.000500075
0.0027539 0.000971019 3.26649e-06
0.000971019 0.000466648 3.31305e-06
3.26649e-06 3.31305e-06 6.00238e-05
0.000790868 0.000174617 1.19353e-07
0.000174617 0.000290098 -1.62767e-08
1.19353e-07 -1.62767e-08 6.98784e-05
0.00104276 0.0002941 -3.75856e-06
0.0002941 0.000521187 -4.37622e-07
-3.75856e-06 -4.37622e-07 0.000126552
0.00151414 0.000880892 -5.10128e-08
0.000880892 0.000597059 -1.24385e-07
-5.10128e-08 -1.24385e-07 -7.43745e-05
0.000898824 0.000236671 2.45453e-07
0.000236671 5.95037e-05 -8.3392e-07
2.45453e-07 -8.3392e-07 -0.000248887
0.00141728 0.000603781 2.07887e-06
0.000603781 0.000190312 -5.89945e-06
2.07887e-06 -5.89945e-06 -0.000268017
0.00249206 0.000659813 -2.06096e-06
0.000659813 0.00011141 -1.08571e-06
-2.06096e-06 -1.08571e-06 -1.77109e-06
0.00255736 0.000914669 2.63318e-06
0.000914669 0.000345486 4.36844e-07
2.63318e-06 4.36844e-07 -6.5441e-06
0.00258594 0.000899534 1.04253e-06
0.000899534 0.000223568 1.011e-06
1.04253e-06 1.011e-06 -1.03586e-05
0.00216231 0.00131218 2.61773e-06
0.00131218 0.000820833 1.11024e-06
2.61773e-06 1.11024e-06 -1.1399e-05
0.0023752 0.00117074 -3.02095e-06
0.00117074 0.000444833 -3.33166e-06
-3.02095e-06 -3.33166e-06 -0.000151373
0.00194029 0.000476792 2.77944e-06
0.000476792 0.00109049 7.50308e-06
2.77944e-06 7.50308e-06 0.000751127
-0.000293104 0.000284348 3.11418e-08
0.000284348 -0.000362426 -1.3995e-06
3.11418e-08 -1.3995e-06 -0.000774001
0.00188275 0.00103241 8.88977e-06
0.00103241 0.000813232 -5.70504e-06
8.88977e-06 -5.70504e-06 0.000103519
-0.00248982 0.000462585 1.09107e-05
0.000462585 -0.00221798 -2.62986e-06
1.09107e-05 -2.62986e-06 -0.00266069
0.00328598 0.00108904 1.02965e-05
0.00108904 0.00131467 -6.77668e-06
1.02965e-05 -6.77668e-06 0.000713665
0.00265495 0.000777263 -3.18245e-06
0.000777263 5.94799e-05 -7.17392e-07
-3.18245e-06 -7.17392e-07 7.18972e-06
0.00259992 0.000976838 9.43783e-06
0.000976838 0.000300802 -2.88605e-06
9.43783e-06 -2.88605e-06 -8.34366e-05
0.00232183 0.000861227 7.0451e-06
0.000861227 -2.52504e-05 7.40874e-08
7.0451e-06 7.40874e-08 -0.000276107
0.00254866 0.00138761 2.28503e-05
0.00138761 0.000964121 2.72947e-06
2.28503e-05 2.72947e-06 0.000145019
0.00280297 0.0014067 9.27628e-06
0.0014067 0.000788421 -7.61619e-07
9.27628e-06 -7.61619e-07 7.66254e-05
0.000318808 9.11198e-05 6.73267e-06
9.11198e-05 -2.05116e-05 -1.19294e-05
6.73267e-06 -1.19294e-05 -0.000195632
0.00095976 0.000237047 -8.9344e-07
0.000237047 0.000465005 6.73369e-07
-8.9344e-07 6.73369e-07 0.000197761
-0.000358217 0.00012288 -6.85478e-06
0.00012288 -0.000385421 -2.17958e-05
-6.85478e-06 -2.17958e-05 -0.000571436
-0.00118598 -3.45892e-05 9.43044e-06
-3.45892e-05 -0.000904653 -2.91656e-06
9.43044e-06 -2.91656e-06 -0.00112524
0.000557222 0.000128644 -2.22824e-06
0.000128644 0.00022259 1.11483e-07
-2.22824e-06 1.11483e-07 2.38322e-05
-0.000133927 0.000108216 4.87685e-06
0.000108216 -0.000153532 8.19125e-07
4.87685e-06 8.19125e-07 -0.000407539
0.00121844 0.000275699 -5.07879e-06
0.000275699 0.000741521 -1.37497e-06
-5.07879e-06 -1.37497e-06 0.000496438
0.000213696 -6.62078e-06 -1.04906e-05
-6.62078e-06 4.96502e-05 6.02522e-06
-1.04906e-05 6.02522e-06 -0.000183263
0.000821502 0.000147123 -2.9112e-06
0.000147123 0.000360122 -2.47333e-06
-2.9112e-06 -2.47333e-06 0.000200744
0.000514175 0.000102669 1.56389e-06
0.000102669 0.000110765 2.39374e-06
1.56389e-06 2.39374e-06 5.12646e-06
0.000411809 4.37666e-05 -3.26266e-06
4.37666e-05 3.84873e-05 1.65424e-07
-3.26266e-06 1.65424e-07 -6.47223e-05
0.00144126 7.94635e-06 1.71103e-06
7.94635e-06 0.00067468 4.94258e-06
1.71103e-06 4.94258e-06 0.000642643
0.000100801 -8.32524e-05 9.6743e-06
-8.32524e-05 -0.000151374 -3.4866e-06
9.6743e-06 -3.4866e-06 -0.000270476
0.00152515 9.2117e-06 -1.56639e-05
9.2117e-06 0.000727649 -2.31908e-06
-1.56639e-05 -2.31908e-06 0.000693251
0.000759095 -8.30448e-06 4.95925e-05
-8.30448e-06 0.000215364 1.19285e-05
4.95925e-05 1.19285e-05 0.000214883
0.00164273 1.01962e-05 -2.26859e-05
1.01962e-05 0.000800893 -1.11687e-05
-2.26859e-05 -1.11687e-05 0.000762578
0.000733779 -2.85133e-05 2.57334e-05
-2.85133e-05 0.000198393 4.87757e-06
2.57334e-05 4.87757e-06 0.000188237
0.00367569 -0.000164602 1.31862e-05
-0.000164602 0.00217185 -6.50147e-06
1.31862e-05 -6.50147e-06 0.00215062
0.000409872 0.000109365 -3.69292e-06
0.000109365 4.61313e-05 -9.99317e-06
-3.69292e-06 -9.99317e-06 -5.39355e-05
0.000343149 -4.57948e-05 -6.76611e-06
-4.57948e-05 -5.27258e-05 -1.96427e-06
-6.76611e-06 -1.96427e-06 -0.000139239
0.00435238 0.000250973 -3.14654e-05
0.000250973 0.00267337 -1.49427e-05
-3.14654e-05 -1.49427e-05 0.00262497
0.000634698 -0.000144874 -1.27658e-05
-0.000144874 0.000128756 1.43568e-05
-1.27658e-05 1.43568e-05 4.23929e-05
0.00390908 0.000150391 -1.42472e-05
0.000150391 0.00236436 7.74596e-08
-1.42472e-05 7.74596e-08 0.00234222
0.00544869 5.75802e-05 -0.000233125
5.75802e-05 0.00339124 4.20102e-05
-0.000233125 4.20102e-05 0.00337726
0.00237468 0.000496255 -3.84846e-06
0.000496255 7.75387e-05 -6.1034e-07
-3.84846e-06 -6.1034e-07 -3.04579e-06
0.00220054 0.000244191 -4.48997e-06
0.000244191 -8.85123e-07 -5.49255e-07
-4.48997e-06 -5.49255e-07 -2.05135e-05
0.00235611 0.000355134 9.90543e-07
0.000355134 -6.40716e-05 8.00569e-07
9.90543e-07 8.00569e-07 -3.55386e-05
0.0022571 0.000169628 9.77678e-07
0.000169628 -7.10305e-05 4.21722e-07
9.77678e-07 4.21722e-07 -1.74581e-05
0.00213392 6.34279e-05 -3.44998e-06
6.34279e-05 -4.85464e-05 1.43851e-07
-3.44998e-06 1.43851e-07 -3.56179e-05
0.00229826 -5.00101e-06 -1.95074e-06
-5.00101e-06 9.97843e-05 1.62901e-07
-1.95074e-06 1.62901e-07 5.58011e-05
0.00214728 -1.21583e-05 2.72268e-07
-1.21583e-05 -3.10694e-05 -2.53637e-08
2.72268e-07 -2.53637e-08 -1.98855e-05
0.00229586 7.26875e-05 4.84676e-07
7.26875e-05 -3.21498e-05 1.68826e-08
4.84676e-07 1.68826e-08 2.3588e-05
0.00230417 0.000239219 -6.37233e-07
0.000239219 -4.20596e-05 -5.01108e-08
-6.37233e-07 -5.01108e-08 -1.04354e-05
0.00237067 0.000179571 6.33815e-07
0.000179571 -0.000101456 1.56579e-07
6.33815e-07 1.56579e-07 1.74411e-06
0.00245705 0.00050715 -2.90157e-07
0.00050715 2.3802e-05 3.33006e-08
-2.90157e-07 3.33006e-08 -3.27732e-06
0.00248088 0.000362349 1.89918e-06
0.000362349 -8.41222e-05 7.46076e-07
1.89918e-06 7.46076e-07 -1.63692e-05
0.00225032 -1.6825e-05 -1.36422e-06
-1.6825e-05 -5.90372e-05 7.82965e-08
-1.36422e-06 7.82965e-08 -5.52578e-06
0.00241537 9.00791e-05 -7.56367e-07
9.00791e-05 -9.4833e-05 -1.03534e-06
-7.56367e-07 -1.03534e-06 1.9742e-05
0.00247596 0.000250449 -4.59605e-07
0.000250449 -8.01407e-05 -4.11105e-07
-4.59605e-07 -4.11105e-07 2.6578e-05
0.00258561 0.000522644 -1.47514e-06
0.000522644 -8.52377e-05 1.59113e-07
-1.47514e-06 1.59113e-07 -9.71591e-06
0.00216712 -9.01216e-05 -5.15827e-06
-9.01216e-05 -7.73577e-06 4.15706e-07
-5.15827e-06 4.15706e-07 -8.1297e-06
0.00232941 -0.000273119 -3.7883e-06
-0.000273119 8.57155e-05 1.01168e-06
-3.7883e-06 1.01168e-06 5.8452e-05
0.00218762 -0.000162498 -1.10202e-07
-0.000162498 -7.04408e-05 -1.05157e-07
-1.10202e-07 -1.05157e-07 -2.79996e-05
0.00234408 -0.000408922 -1.83836e-06
-0.000408922 -3.49034e-05 -2.64729e-07
-1.83836e-06 -2.64729e-07 -2.71297e-05
0.00204993 -0.000894432 9.57471e-06
-0.000894432 0.000674864 -9.10426e-06
9.57471e-06 -9.10426e-06 3.10344e-05
0.00225016 -0.00114456 9.97455e-06
-0.00114456 0.000536998 -5.04385e-06
9.97455e-06 -5.04385e-06 -0.000152489
0.00257177 -0.00104024 -8.05281e-06
-0.00104024 0.000518846 -1.56294e-06
-8.05281e-06 -1.56294e-06 -8.08859e-06
0.00245407 -0.00064608 -2.73699e-06
-0.00064608 0.000136012 9.88921e-07
-2.73699e-06 9.88921e-07 2.14968e-05
0.00246492 -0.000556154 2.01276e-06
-0.000556154 -3.56539e-06 -9.01396e-07
2.01276e-06 -9.01396e-07 -8.89365e-06
0.00257096 -0.000821902 -3.85159e-06
-0.000821902 0.00014958 1.38449e-06
-3.85159e-06 1.38449e-06 1.54152e-05
0.00262411 -0.000909847 -2.24276e-06
-0.000909847 0.000492715 1.9323e-06
-2.24276e-06 1.9323e-06 0.000122916
0.00252079 -0.000921045 1.99391e-06
-0.000921045 0.000188342 3.51483e-07
1.99391e-06 3.51483e-07 -3.69091e-05
0.00217291 -0.000985717 -1.76014e-05
-0.000985717 0.000963759 -9.03741e-06
-1.76014e-05 -9.03741e-06 0.000231757
0.00106804 -0.000748607 1.42899e-05
-0.000748607 0.000382302 -1.3131e-05
1.42899e-05 -1.3131e-05 -0.000309759
0.000611814 -0.000400568 -1.68493e-05
-0.000400568 0.000259211 -9.13262e-06
-1.68493e-05 -9.13262e-06 -0.000250551
0.000348903 -0.000105012 -5.80085e-06
-0.000105012 -9.85381e-06 2.18179e-06
-5.80085e-06 2.18179e-06 -0.000271175
0.00453194 0.000195636 2.3573e-06
0.000195636 0.00274865 -3.12365e-07
2.3573e-06 -3.12365e-07 0.00239537
0.00224651 -0.00011176 2.31008e-07
-0.00011176 -5.84155e-05 -9.40732e-08
2.31008e-07 -9.40732e-08 -4.08279e-06
0.00232796 -0.000249389 1.92687e-06
-0.000249389 -6.0831e-05 2.13754e-08
1.92687e-06 2.13754e-08 -8.6262e-06
0.0025063 -0.000493996 -1.00542e-06
-0.000493996 -7.11315e-05 1.73438e-07
-1.00542e-06 1.73438e-07 -1.66142e-05
0.002428 -0.00119907 -2.30114e-06
-0.00119907 0.000914182 -7.30273e-08
-2.30114e-06 -7.30273e-08 0.000144001
0.00191363 -0.00114732 5.05135e-06
-0.00114732 0.000341732 -7.2286e-08
5.05135e-06 -7.2286e-08 -0.000350789
0.00268955 -0.00109738 -1.29103e-06
-0.00109738 0.00058431 -6.68731e-07
-1.29103e-06 -6.68731e-07 5.16919e-05
0.00252053 -0.000676272 2.38711e-07
-0.000676272 5.05142e-05 -3.727e-07
2.38711e-07 -3.727e-07 -2.73423e-06
0.00260261 -0.000961664 5.55869e-06
-0.000961664 0.000360864 -3.28539e-06
5.55869e-06 -3.28539e-06 3.02222e-05
0.00273046 -0.000941656 -6.43881e-07
-0.000941656 0.000182442 -6.68933e-07
-6.43881e-07 -6.68933e-07 1.90928e-05
-0.000703271 -3.0418e-05 -1.30653e-06
-3.0418e-05 -0.000660109 -1.65036e-07
-1.30653e-06 -1.65036e-07 -0.000881489
0.00179711 -0.00101556 1.07881e-06
-0.00101556 0.000743024 5.21223e-07
1.07881e-06 5.21223e-07 -2.64576e-05
0.00194308 -0.000953472 -6.04492e-06
-0.000953472 0.000907843 2.51619e-06
-6.04492e-06 2.51619e-06 0.000102875
0.00176587 -0.000647278 1.38737e-06
-0.000647278 0.00094852 3.80713e-06
1.38737e-06 3.80713e-06 0.000327774
0.000594099 -0.00019169 -5.40394e-06
-0.00019169 3.07507e-05 1.33001e-07
-5.40394e-06 1.33001e-07 -0.000299241
0.0019003 -0.00013552 -4.33545e-06
-0.00013552 0.00101689 5.28682e-06
-4.33545e-06 5.28682e-06 0.000607106
0.00235143 -0.000144495 -1.36416e-06
-0.000144495 -0.000117893 6.79147e-07
-1.36416e-06 6.79147e-07 -1.79144e-05
0.00252292 -0.000329053 1.49426e-06
-0.000329053 -0.000140114 4.84809e-07
1.49426e-06 4.84809e-07 -3.08103e-06
0.00262213 -0.000623736 -5.17562e-07
-0.000623736 -5.88419e-05 7.48518e-07
-5.17562e-07 7.48518e-07 6.96255e-06
0.00265796 -0.000814674 -2.8378e-07
-0.000814674 1.83843e-05 1.48756e-06
-2.8378e-07 1.48756e-06 2.25648e-06
0.00272192 -0.00131408 -5.66171e-06
-0.00131408 0.00111301 3.88157e-06
-5.66171e-06 3.88157e-06 0.000297954
0.00271161 -0.00108359 -1.44036e-06
-0.00108359 0.00025858 -6.84984e-06
-1.44036e-06 -6.84984e-06 -2.86735e-05
0.00269862 -0.00137413 -4.55146e-05
-0.00137413 0.000822973 1.23563e-05
-4.55146e-05 1.23563e-05 6.31099e-05
0.0023932 -0.00113095 -3.22872e-05
-0.00113095 0.000413961 2.79919e-06
-3.22872e-05 2.79919e-06 -0.000120998
-0.000890641 -8.6217e-06 -1.37479e-06
-8.6217e-06 -0.000811093 -2.74738e-06
-1.37479e-06 -2.74738e-06 -0.000951321
0.00129003 -0.000208963 -2.80384e-06
-0.000208963 0.000796396 5.42588e-06
-2.80384e-06 5.42588e-06 0.000401488
0.00310683 -0.000404313 -1.45769e-05
-0.000404313 0.00175148 9.87217e-06
-1.45769e-05 9.87217e-06 0.00138786
0.00033898 -0.000198058 -1.11783e-06
-0.000198058 -1.15422e-05 -5.91191e-06
-1.11783e-06 -5.91191e-06 -0.000414978
0.00252437 -0.00111796 -6.26159e-06
-0.00111796 0.00120321 1.93576e-05
-6.26159e-06 1.93576e-05 0.000400938
0.00225903 -0.000993958 -4.871e-06
-0.000993958 0.00113017 1.67572e-05
-4.871e-06 1.67572e-05 0.000277817
0.000420078 0.000158216 2.04871e-06
0.000158216 5.24733e-05 -1.28183e-05
2.04871e-06 -1.28183e-05 -0.000166114
-0.00030195 0.000111817 5.34747e-07
0.000111817 -0.000364946 -3.66397e-06
5.34747e-07 -3.66397e-06 -0.000735261
0.00248285 0.000658548 -8.77266e-07
0.000658548 0.000118739 -4.9834e-07
-8.77266e-07 -4.9834e-07 3.765e-06
0.000271786 0.000193129 -6.70508e-06
0.000193129 -0.000324529 2.14091e-06
-6.70508e-06 2.14091e-06 -0.000634819
0.00201699 0.000965503 5.65874e-06
0.000965503 0.000899918 -3.00974e-06
5.65874e-06 -3.00974e-06 0.000184659
0.0001488 0.000384285 -1.66385e-05
0.000384285 -0.000577348 -1.25127e-06
-1.66385e-05 -1.25127e-06 -0.000967232
0.00259876 0.000922857 3.75972e-06
0.000922857 0.000351062 -2.14499e-07
3.75972e-06 -2.14499e-07 -3.50636e-06
0.00263089 0.0009052 -3.49792e-06
0.0009052 0.000222963 1.11045e-07
-3.49792e-06 1.11045e-07 -6.95681e-06
0.00261814 0.0013921 -9.43654e-06
0.0013921 0.00107186 5.29462e-06
-9.43654e-06 5.29462e-06 0.000224724
0.00234508 0.00118442 -9.8016e-06
0.00118442 0.000476643 2.88172e-06
-9.8016e-06 2.88172e-06 -0.000136393
0.000700776 0.000299439 -3.19596e-07
0.000299439 0.000293488 -7.8105e-07
-3.19596e-07 -7.8105e-07 -3.80602e-05
0.00106123 0.000390222 -5.25747e-08
0.000390222 0.000495132 -3.06067e-06
-5.25747e-08 -3.06067e-06 7.12363e-05
0.00163569 0.000978473 -3.42387e-06
0.000978473 0.000667321 -3.59265e-07
-3.42387e-06 -3.59265e-07 -3.0084e-05
0.001161 0.000531426 -3.00081e-06
0.000531426 5.56651e-05 3.49138e-08
-3.00081e-06 3.49138e-08 -0.000339411
0.00324793 0.00101048 6.4552e-07
0.00101048 0.00131092 1.79398e-06
6.4552e-07 1.79398e-06 0.000738449
0.00269327 0.000787006 -2.57369e-06
0.000787006 6.61798e-05 -3.8901e-07
-2.57369e-06 -3.8901e-07 8.77786e-06
0.00270514 0.000947451 2.8569e-06
0.000947451 0.000377749 -8.96e-07
2.8569e-06 -8.96e-07 1.51091e-05
0.00271041 0.000894681 5.68938e-07
0.000894681 0.00023967 2.89022e-06
5.68938e-07 2.89022e-06 -2.05237e-05
0.00242724 0.00138622 5.94573e-06
0.00138622 0.000878891 1.75796e-06
5.94573e-06 1.75796e-06 5.31161e-05
0.00270371 0.00146737 -5.82553e-06
0.00146737 0.000734739 1.259e-06
-5.82553e-06 1.259e-06 -1.61438e-05
-0.00173019 0.000113794 -9.16948e-06
0.000113794 -0.00128948 -5.91432e-06
-9.16948e-06 -5.91432e-06 -0.00154108
-0.0030064 0.000464829 -1.52483e-06
0.000464829 -0.00172829 -3.06119e-06
-1.52483e-06 -3.06119e-06 -0.00236363
0.00221435 0.00111025 1.93358e-05
0.00111025 0.00087236 -3.29009e-06
1.93358e-05 -3.29009e-06 0.000174372
0.00252962 0.000754836 5.42751e-06
0.000754836 0.000799466 -1.06044e-05
5.42751e-06 -1.06044e-05 0.000364204
0.00284348 0.00071567 7.49278e-07
0.00071567 -0.000196818 2.92398e-06
7.49278e-07 2.92398e-06 -1.52524e-05
0.00273931 0.000957825 6.51796e-06
0.000957825 9.20136e-05 2.32036e-07
6.51796e-06 2.32036e-07 -4.73309e-05
0.00294843 0.00122811 1.1758e-05
0.00122811 0.000543013 -4.84863e-06
1.1758e-05 -4.84863e-06 -2.00341e-05
0.00246909 0.00151678 8.25812e-06
0.00151678 0.000681697 -1.47876e-06
8.25812e-06 -1.47876e-06 -0.000175493
0.0016556 0.000283086 7.48151e-06
0.000283086 0.000963508 -1.9998e-06
7.48151e-06 -1.9998e-06 0.000660637
0.000258842 0.000231134 -4.99764e-06
0.000231134 5.95414e-05 1.52915e-06
-4.99764e-06 1.52915e-06 -0.000165687
-0.000213836 9.84907e-05 -1.28098e-06
9.84907e-05 -0.000211904 -9.05018e-06
-1.28098e-06 -9.05018e-06 -0.000351852
-0.000154034 3.8855e-05 4.68973e-06
3.8855e-05 -0.000268228 -5.86229e-07
4.68973e-06 -5.86229e-07 -0.000445934
-0.00239076 2.21506e-05 2.74379e-06
2.21506e-05 -0.001553 -2.66852e-06
2.74379e-06 -2.66852e-06 -0.00182146
0.000769753 9.71734e-05 -1.26647e-06
9.71734e-05 0.000329259 -2.21287e-07
-1.26647e-06 -2.21287e-07 0.0001665
0.000658383 0.000253193 7.91098e-06
0.000253193 0.000414266 2.94467e-06
7.91098e-06 2.94467e-06 0.000171972
0.000690976 9.94888e-05 1.72444e-06
9.94888e-05 0.000399833 2.16787e-06
1.72444e-06 2.16787e-06 0.000130033
0.000931824 0.000181183 -7.98306e-06
0.000181183 0.000419499 -9.36287e-06
-7.98306e-06 -9.36287e-06 0.000300373
0.000579303 4.41638e-05 -7.09635e-06
4.41638e-05 0.000344679 2.51513e-06
-7.09635e-06 2.51513e-06 7.233e-05
-0.000206141 8.02703e-05 -5.35102e-06
8.02703e-05 -0.000261586 2.90101e-06
-5.35102e-06 2.90101e-06 -0.000459959
0.000854684 0.000163589 1.25039e-06
0.000163589 0.000380101 1.03779e-06
1.25039e-06 1.03779e-06 0.000215965
0.00045416 0.000105059 2.7095e-06
0.000105059 7.93878e-05 3.622e-06
2.7095e-06 3.622e-06 -3.09654e-05
0.000409713 2.31953e-05 -2.00544e-06
2.31953e-05 3.79143e-05 -4.74486e-07
-2.00544e-06 -4.74486e-07 -6.37027e-05
0.00128736 2.84678e-05 7.19065e-07
2.84678e-05 0.000578713 3.33688e-06
7.19065e-07 3.33688e-06 0.000548269
0.00034454 -5.29763e-05 3.9509e-06
-5.29763e-05 -9.92418e-06 -2.06955e-06
3.9509e-06 -2.06955e-06 -0.000108641
0.00139183 1.11097e-05 -1.39039e-05
1.11097e-05 0.000645516 -2.0623e-06
-1.39039e-05 -2.0623e-06 0.000613989
0.000679301 -6.60228e-07 4.44646e-05
-6.60228e-07 0.000165344 1.13791e-05
4.44646e-05 1.13791e-05 0.000166624
0.00146267 -4.06136e-05 -1.3802e-05
-4.06136e-05 0.000690382 -9.54471e-06
-1.3802e-05 -9.54471e-06 0.00065639
0.000714884 -1.92199e-05 2.15439e-05
-1.92199e-05 0.000184893 4.417e-06
2.15439e-05 4.417e-06 0.000180292
0.000605339 -3.60032e-05 5.61347e-06
-3.60032e-05 0.000116154 -5.20203e-06
5.61347e-06 -5.20203e-06 0.000102375
0.000383567 2.00342e-05 3.32066e-06
2.00342e-05 -3.02887e-05 -1.01731e-05
3.32066e-06 -1.01731e-05 -8.31687e-05
0.000333376 2.77034e-05 -2.09417e-06
2.77034e-05 -4.1358e-05 4.70216e-07
-2.09417e-06 4.70216e-07 -0.000124513
0.00331308 0.000184423 -2.54409e-05
0.000184423 0.00195404 -1.32305e-05
-2.54409e-05 -1.32305e-05 0.00192682
-0.000726497 -7.71831e-05 -2.31933e-05
-7.71831e-05 -0.000753732 5.05005e-06
-2.31933e-05 5.05005e-06 -0.000840646
0.00452199 0.000166416 -2.81584e-05
0.000166416 0.00275302 -1.75953e-06
-2.81584e-05 -1.75953e-06 0.00272622
0.00352799 7.45781e-05 -0.000116712
7.45781e-05 0.0021006 2.37716e-05
-0.000116712 2.37716e-05 0.0020981
0.00245659 0.000508856 9.08217e-07
0.000508856 2.77242e-05 7.18265e-07
9.08217e-07 7.18265e-07 -2.11312e-06
0.00232783 0.000240008 -2.74298e-07
0.000240008 -2.04352e-05 -2.84103e-08
-2.74298e-07 -2.84103e-08 9.43834e-06
0.00249156 0.000365627 1.76123e-06
0.000365627 -7.71689e-05 1.91719e-06
1.76123e-06 1.91719e-06 4.62714e-07
0.0023436 0.000181534 1.66723e-06
0.000181534 -0.000123952 5.65327e-07
1.66723e-06 5.65327e-07 -1.06678e-05
0.00227712 7.50533e-05 3.83392e-07
7.50533e-05 -3.97541e-05 6.25759e-07
3.83392e-07 6.25759e-07 1.09785e-05
0.00216289 -1.4562e-05 -5.02914e-06
-1.4562e-05 -1.60137e-05 1.49999e-07
-5.02914e-06 1.49999e-07 -7.43142e-06
0.00225768 -1.63912e-05 7.22797e-07
-1.63912e-05 -5.30691e-05 -3.4978e-08
7.22797e-07 -3.4978e-08 2.00766e-06
0.00237944 9.52882e-05 4.45477e-07
9.52882e-05 -0.00011365 2.16893e-07
4.45477e-07 2.16893e-07 4.57846e-07
0.00246865 0.000255691 7.20338e-07
0.000255691 -8.7937e-05 3.95417e-08
7.20338e-07 3.95417e-08 1.91034e-05
0.0025868 0.000505153 5.44505e-07
0.000505153 -8.32765e-05 2.79834e-07
5.44505e-07 2.79834e-07 -2.11765e-06
0.00238488 -1.58396e-05 -2.17579e-06
-1.58396e-05 -0.000107869 -2.19865e-08
-2.17579e-06 -2.19865e-08 -5.18402e-07
0.00252223 0.000156188 -2.47334e-07
0.000156188 -0.000142596 -8.13094e-07
-2.47334e-07 -8.13094e-07 3.54451e-05
0.00270664 0.000355236 6.64819e-07
0.000355236 -0.000127114 -6.35147e-08
6.64819e-07 -6.35147e-08 3.39242e-05
0.00224182 -0.000119425 5.11614e-07
-0.000119425 -5.85681e-05 -6.52809e-07
5.11614e-07 -6.52809e-07 -5.63216e-06
0.00234093 -0.000250156 -7.48411e-07
-0.000250156 -5.37353e-05 -3.85288e-07
-7.48411e-07 -3.85288e-07 -3.10707e-06
0.0024821 -0.000486677 -1.30343e-07
-0.000486677 -6.77538e-05 -2.04706e-09
-1.30343e-07 -2.04706e-09 -2.48691e-05
0.00256286 -0.00120172 8.30236e-07
-0.00120172 0.000995259 -4.25038e-06
8.30236e-07 -4.25038e-06 0.00022435
0.00200395 -0.00113796 9.52532e-06
-0.00113796 0.000397298 -5.28476e-06
9.52532e-06 -5.28476e-06 -0.000288241
0.00254849 -0.00108942 3.33906e-06
-0.00108942 0.000495449 -1.49154e-06
3.33906e-06 -1.49154e-06 -3.85201e-05
0.00253515 -0.000669001 -7.95256e-07
-0.000669001 6.53946e-05 -3.76026e-08
-7.95256e-07 -3.76026e-08 1.05851e-05
0.00275047 -0.000930079 -1.87522e-07
-0.000930079 0.000219733 2.12376e-06
-1.87522e-07 2.12376e-06 6.38384e-05
0.00265234 -0.000983444 8.94898e-06
-0.000983444 0.000370041 -2.96293e-06
8.94898e-06 -2.96293e-06 3.70059e-05
0.00180966 -0.00101735 1.36051e-07
-0.00101735 0.000759997 -5.80016e-06
1.36051e-07 -5.80016e-06 -9.52366e-06
0.00222364 -0.00101188 1.87056e-05
-0.00101188 0.0010915 -2.1497e-05
1.87056e-05 -2.1497e-05 0.000264205
0.00184613 -0.000819447 -6.71312e-06
-0.000819447 0.00107247 -5.75458e-06
-6.71312e-06 -5.75458e-06 0.000384768
6.27236e-06 2.08296e-05 5.88458e-06
2.08296e-05 -0.000168336 -1.81165e-06
5.88458e-06 -1.81165e-06 -0.000405791
0.00257941 -0.000314834 7.97761e-06
-0.000314834 0.00129742 -1.4792e-06
7.97761e-06 -1.4792e-06 0.000977236
-0.000703525 0.000141705 8.19018e-06
0.000141705 -0.000708439 2.6969e-07
8.19018e-06 2.6969e-07 -0.00111215
0.00238279 -0.000135689 -4.04937e-07
-0.000135689 -9.57488e-05 1.46894e-07
-4.04937e-07 1.46894e-07 3.13314e-07
0.0025147 -0.000344085 1.38444e-07
-0.000344085 -0.000154678 -4.00334e-07
1.38444e-07 -4.00334e-07 -1.18925e-05
0.002617 -0.000609651 -4.29888e-07
-0.000609651 -5.63684e-05 -2.46361e-07
-4.29888e-07 -2.46361e-07 8.74775e-06
0.00241226 -0.00126423 -2.93491e-06
-0.00126423 0.000916133 3.06872e-07
-2.93491e-06 3.06872e-07 0.000116388
0.00223471 -0.00129563 9.40986e-06
-0.00129563 0.000556148 -3.07119e-06
9.40986e-06 -3.07119e-06 -0.000178712
0.00256105 -0.00114326 -1.35724e-06
-0.00114326 0.000491366 -2.06832e-06
-1.35724e-06 -2.06832e-06 -3.38885e-05
0.00266046 -0.000828344 5.29218e-07
-0.000828344 1.67723e-05 -5.78171e-07
5.29218e-07 -5.78171e-07 -1.01298e-05
0.00276533 -0.00107601 2.25645e-06
-0.00107601 0.000305189 -1.52617e-06
2.25645e-06 -1.52617e-06 2.61359e-05
-0.000108807 2.96043e-05 -1.44383e-08
2.96043e-05 -0.000286056 -4.99935e-06
-1.44383e-08 -4.99935e-06 -0.00043039
0.000676699 -0.000171024 -2.7959e-06
-0.000171024 0.000375026 1.19233e-06
-2.7959e-06 1.19233e-06 1.38121e-06
0.00187091 -0.00103733 -5.99432e-06
-0.00103733 0.000807209 3.80952e-08
-5.99432e-06 3.80952e-08 3.24647e-05
0.00143789 -0.000821932 7.04629e-07
-0.000821932 0.000682575 5.52025e-08
7.04629e-07 5.52025e-08 -0.000149126
0.00210826 -0.000309011 -3.01102e-06
-0.000309011 0.00108144 -6.15806e-06
-3.01102e-06 -6.15806e-06 0.000668481
0.000623578 -0.000262294 3.76158e-06
-0.000262294 0.000129651 -2.44299e-06
3.76158e-06 -2.44299e-06 -0.00023262
0.00247883 -0.000180981 1.66106e-06
-0.000180981 -0.000185138 9.06126e-07
1.66106e-06 9.06126e-07 -2.98599e-06
0.00274557 -0.000508551 2.6417e-06
-0.000508551 -0.000181657 5.41466e-07
2.6417e-06 5.41466e-07 3.35908e-05
0.00267702 -0.000770962 6.84787e-07
-0.000770962 -9.89402e-05 2.0277e-06
6.84787e-07 2.0277e-06 -3.30831e-05
0.00287706 -0.00106626 2.20287e-06
-0.00106626 0.000187511 -1.30338e-06
2.20287e-06 -1.30338e-06 4.05247e-05
0.00221864 -0.00129538 -5.68747e-06
-0.00129538 0.000823631 -3.45456e-06
-5.68747e-06 -3.45456e-06 4.15562e-05
0.00307727 -0.00135755 5.41838e-06
-0.00135755 0.000641436 -1.02864e-05
5.41838e-06 -1.02864e-05 0.000145065
0.00247911 -0.00145011 -5.64849e-05
-0.00145011 0.000667899 6.93911e-06
-5.64849e-05 6.93911e-06 -0.000115997
0.00043348 3.27437e-05 2.29282e-06
3.27437e-05 4.38778e-05 -5.61403e-06
2.29282e-06 -5.61403e-06 -6.15076e-05
0.000763479 -0.000189294 4.41414e-06
-0.000189294 0.000350265 -8.23043e-06
4.41414e-06 -8.23043e-06 0.000168741
-0.0012889 1.46481e-05 -7.39577e-06
1.46481e-05 -0.000928002 1.31151e-06
-7.39577e-06 1.31151e-06 -0.0011944
0.000703972 -0.000312862 -1.03154e-05
-0.000312862 0.000441407 1.58456e-05
-1.03154e-05 1.58456e-05 4.65224e-05
0.0042944 -5.76166e-05 -1.32256e-05
-5.76166e-05 0.00258598 -2.71538e-06
-1.32256e-05 -2.71538e-06 0.00226952
-3.14942e-05 -0.000312422 -6.69109e-06
-0.000312422 -0.000306704 -3.58297e-06
-6.69109e-06 -3.58297e-06 -0.000867005
0.00244145 -0.00119712 -2.4856e-05
-0.00119712 0.0010646 4.12993e-05
-2.4856e-05 4.12993e-05 0.000259683
0.00345223 -0.00117043 -3.11645e-05
-0.00117043 0.00192489 2.36804e-05
-3.11645e-05 2.36804e-05 0.000908043
0.000337163 0.00016979 7.38066e-06
0.00016979 2.15552e-05 -5.53478e-06
7.38066e-06 -5.53478e-06 -0.000278026
0.00211634 0.000527877 3.16726e-06
0.000527877 0.00115183 7.24176e-06
3.16726e-06 7.24176e-06 0.000716333
0.00273683 0.000798583 1.06138e-07
0.000798583 7.40538e-05 -6.53518e-07
1.06138e-07 -6.53518e-07 1.04416e-05
0.00258822 0.000425949 2.6325e-06
0.000425949 0.000837728 1.94726e-07
2.6325e-06 1.94726e-07 0.0004874
0.00141497 0.000930239 -3.79835e-06
0.000930239 0.000538351 -2.00973e-06
-3.79835e-06 -2.00973e-06 -0.00015045
0.00376409 0.00102642 -1.09766e-05
0.00102642 0.00164536 1.12889e-05
-1.09766e-05 1.12889e-05 0.00107231
0.00277955 0.000913062 -5.48903e-06
0.000913062 0.000434862 -7.66281e-07
-5.48903e-06 -7.66281e-07 9.57422e-05
0.00309433 0.000928287 -3.64507e-06
0.000928287 0.000500911 6.83881e-06
-3.64507e-06 6.83881e-06 0.000230942
0.00227535 0.00138101 -1.02994e-05
0.00138101 0.000773708 1.12334e-06
-1.02994e-05 1.12334e-06 -5.61768e-05
0.00250179 0.00151959 -1.76982e-05
0.00151959 0.000617953 -3.82753e-07
-1.76982e-05 -3.82753e-07 -0.000169225
-0.00114034 0.000192559 5.60573e-07
0.000192559 -0.000850037 2.53536e-07
5.60573e-07 2.53536e-07 -0.00116472
-0.0001646 0.00054657 4.84476e-06
0.00054657 -9.2898e-07 -1.37892e-06
4.84476e-06 -1.37892e-06 -0.00058675
0.00194206 0.00110652 6.68042e-07
0.00110652 0.000645971 -7.75416e-07
6.68042e-07 -7.75416e-07 -6.46339e-05
0.00291825 0.000798361 -8.09246e-06
0.000798361 0.0011483 -3.76979e-07
-8.09246e-06 -3.76979e-07 0.000683529
0.00277598 0.000678289 8.04736e-08
0.000678289 -0.000277823 1.52359e-07
8.04736e-08 1.52359e-07 -6.86752e-05
0.00291758 0.000966008 3.5049e-06
0.000966008 0.000201864 -9.50363e-07
3.5049e-06 -9.50363e-07 3.82041e-05
0.00269432 0.00117324 -4.52828e-06
0.00117324 0.000450966 -6.84636e-07
-4.52828e-06 -6.84636e-07 -9.12561e-05
0.0027199 0.00151716 1.45199e-06
0.00151716 0.000822836 5.86203e-07
1.45199e-06 5.86203e-07 -1.84023e-05
-0.00140356 1.60265e-06 -6.62093e-06
1.60265e-06 -0.000981391 -4.02493e-06
-6.62093e-06 -4.02493e-06 -0.00120553
0.00275439 0.000466738 1.19119e-06
0.000466738 -0.000322235 4.83072e-06
1.19119e-06 4.83072e-06 -6.36236e-05
0.00379369 0.000989536 -9.14046e-06
0.000989536 0.00246295 9.32473e-06
-9.14046e-06 9.32473e-06 0.00178766
0.00197031 0.000992838 6.56629e-06
0.000992838 0.00057262 -4.20173e-06
6.56629e-06 -4.20173e-06 -5.12631e-05
0.0029045 0.000950911 -2.31831e-05
0.000950911 -4.43795e-05 -1.4492e-05
-2.31831e-05 -1.4492e-05 4.12528e-05
0.00182293 0.0010966 8.36629e-06
0.0010966 -0.000181759 -1.25468e-05
8.36629e-06 -1.25468e-05 -0.000660959
0.00368334 0.00167456 4.9921e-06
0.00167456 0.00132392 3.67541e-06
4.9921e-06 3.67541e-06 0.00044252
0.000262272 0.000192967 3.60404e-06
0.000192967 8.58341e-05 8.99145e-06
3.60404e-06 8.99145e-06 -0.000163864
0.000442726 0.000165369 -3.87847e-06
0.000165369 0.000217694 -3.2122e-07
-3.87847e-06 -3.2122e-07 6.34464e-05
-0.00154193 1.36756e-05 -1.12334e-05
1.36756e-05 -0.00101753 1.67303e-06
-1.12334e-05 1.67303e-06 -0.00113095
1.92154e-05 3.25294e-06 3.4812e-06
3.25294e-06 -0.000178601 3.80344e-07
3.4812e-06 3.80344e-07 -0.000323553
0.000500267 0.000136045 6.0067e-06
0.000136045 0.00027251 -7.51593e-06
6.0067e-06 -7.51593e-06 4.87201e-06
-0.000781215 0.000131236 -6.50615e-06
0.000131236 -0.000503724 4.69647e-06
-6.50615e-06 4.69647e-06 -0.000711477
0.000471254 4.0416e-05 -1.6055e-06
4.0416e-05 0.00012346 -3.81469e-07
-1.6055e-06 -3.81469e-07 -3.34318e-05
0.000261843 7.7904e-06 1.57982e-07
7.7904e-06 7.13887e-05 -8.79136e-07
1.57982e-07 -8.79136e-07 -0.00014898
8.15149e-05 0.000117226 -6.43346e-06
0.000117226 -6.01946e-05 4.07354e-06
-6.43346e-06 4.07354e-06 -0.000168921
0.000685943 0.000166462 2.59398e-06
0.000166462 0.000422899 -3.84057e-06
2.59398e-06 -3.84057e-06 0.000142114
0.000856814 0.000168735 -2.68748e-06
0.000168735 0.000432364 -3.80689e-06
-2.68748e-06 -3.80689e-06 0.000356124
-0.000212504 7.23346e-05 5.69392e-06
7.23346e-05 -0.000219759 -9.70504e-06
5.69392e-06 -9.70504e-06 -0.000370909
0.000869135 0.000108771 -6.36296e-06
0.000108771 0.000543078 6.98708e-06
-6.36296e-06 6.98708e-06 0.000262149
0.000599739 5.56777e-05 -5.28738e-06
5.56777e-05 0.000257953 2.18415e-06
-5.28738e-06 2.18415e-06 3.91024e-05
0.000503901 5.09773e-05 5.25987e-07
5.09773e-05 0.000124356 2.17499e-06
5.25987e-07 2.17499e-06 -2.81153e-05
0.000394153 -8.53238e-05 -2.20687e-06
-8.53238e-05 2.80615e-05 3.35197e-06
-2.20687e-06 3.35197e-06 -7.66966e-05
0.000419189 1.79967e-05 6.02723e-07
1.79967e-05 3.68052e-05 -4.355e-07
6.02723e-07 -4.355e-07 -6.18539e-05
0.00134386 3.36658e-05 4.29298e-06
3.36658e-05 0.000620467 4.1249e-06
4.29298e-06 4.1249e-06 0.000590586
0.000420902 1.68319e-05 2.48431e-06
1.68319e-05 2.63876e-05 -2.11787e-06
2.48431e-06 -2.11787e-06 -6.3065e-05
0.00140502 2.20275e-05 -1.34106e-05
2.20275e-05 0.000659824 -2.20472e-06
-1.34106e-05 -2.20472e-06 0.000628311
0.000819812 5.04621e-06 4.03478e-05
5.04621e-06 0.000262268 1.02341e-05
4.03478e-05 1.02341e-05 0.000263309
0.00135541 -2.33999e-05 -1.24278e-05
-2.33999e-05 0.00061995 -8.52073e-06
-1.24278e-05 -8.52073e-06 0.00059115
0.000745179 -1.07204e-05 1.78668e-05
-1.07204e-05 0.000204849 4.37935e-06
1.78668e-05 4.37935e-06 0.000202945
0.000772186 -2.83107e-05 4.111e-06
-2.83107e-05 0.000218593 -3.96241e-06
4.111e-06 -3.96241e-06 0.000211799
0.000475358 -3.40447e-05 -1.63595e-07
-3.40447e-05 5.57018e-05 -6.18052e-06
-1.63595e-07 -6.18052e-06 -4.14139e-05
0.000188869 3.46876e-05 -2.06412e-07
3.46876e-05 -0.000139646 -9.47649e-06
-2.06412e-07 -9.47649e-06 -0.000191436
0.000245073 3.1609e-05 1.80798e-06
3.1609e-05 -0.000109095 1.09218e-06
1.80798e-06 1.09218e-06 -0.000169035
0.00366825 0.000147835 5.82804e-07
0.000147835 0.00216626 -9.27224e-06
5.82804e-07 -9.27224e-06 0.00215083
-3.07545e-05 -6.86292e-06 -3.20471e-06
-6.86292e-06 -0.000293265 9.86983e-06
-3.20471e-06 9.86983e-06 -0.000372599
0.00420415 0.000219941 -1.58247e-05
0.000219941 0.00255423 -2.14273e-06
-1.58247e-05 -2.14273e-06 0.00251775
0.00453684 0.000153156 -6.77835e-05
0.000153156 0.00276194 9.69657e-06
-6.77835e-05 9.69657e-06 0.00274125
0.00258779 0.000488954 1.53783e-06
0.000488954 -8.03827e-05 5.17136e-07
1.53783e-06 5.17136e-07 5.93255e-06
0.00245988 0.000261895 -2.66127e-08
0.000261895 -9.58178e-05 5.53327e-07
-2.66127e-08 5.53327e-07 1.08865e-05
0.00233609 0.000100681 1.66298e-06
0.000100681 -0.000137122 7.42027e-07
1.66298e-06 7.42027e-07 -2.32227e-05
0.00226309 -1.61198e-05 5.39716e-08
-1.61198e-05 -4.87043e-05 -1.10832e-07
5.39716e-08 -1.10832e-07 7.74919e-06
0.00237569 -1.26481e-05 -6.07608e-07
-1.26481e-05 -0.00011838 -8.20513e-08
-6.07608e-07 -8.20513e-08 -6.79839e-06
0.00248232 0.00015529 8.61616e-07
0.00015529 -0.000168517 2.35021e-07
8.61616e-07 2.35021e-07 1.14018e-05
0.00262212 0.000371113 -6.59978e-07
0.000371113 -0.000160239 -6.67507e-08
-6.59978e-07 -6.67507e-08 -1.31996e-06
0.00244419 -1.23176e-05 9.86501e-07
-1.23176e-05 -0.000222162 -2.27957e-08
9.86501e-07 -2.27957e-08 -2.61144e-05
0.00275987 0.000191547 2.69795e-06
0.000191547 -0.000188276 -1.40433e-06
2.69795e-06 -1.40433e-06 4.6027e-05
0.00253874 0.000196168 -1.37755e-06
0.000196168 -0.000471784 1.00376e-05
-1.37755e-06 1.00376e-05 -0.000183734
0.00240283 -0.000127624 1.12621e-06
-0.000127624 -8.16927e-05 -6.94826e-07
1.12621e-06 -6.94826e-07 1.08724e-05
0.0025066 -0.000359879 -2.22192e-06
-0.000359879 -0.000167886 -2.11779e-07
-2.22192e-06 -2.11779e-07 -2.11022e-05
0.00260411 -0.000595547 8.07333e-07
-0.000595547 -5.62813e-05 3.50225e-07
8.07333e-07 3.50225e-07 6.01462e-06
0.00233361 -0.00125402 -2.67095e-06
-0.00125402 0.000848341 -2.71399e-06
-2.67095e-06 -2.71399e-06 5.243e-05
0.00196668 -0.00126182 2.85032e-05
-0.00126182 0.000397403 -6.27391e-06
2.85032e-05 -6.27391e-06 -0.000329938
0.0026664 -0.001155 2.21411e-05
-0.001155 0.000532123 -2.6415e-06
2.21411e-05 -2.6415e-06 1.36871e-05
0.00264399 -0.000838902 1.88877e-06
-0.000838902 9.19528e-06 -1.52157e-06
1.88877e-06 -1.52157e-06 -3.01767e-05
0.00279907 -0.00106103 5.17279e-06
-0.00106103 0.000348606 3.78672e-06
5.17279e-06 3.78672e-06 7.72972e-05
0.00215149 -0.00108192 3.49966e-06
-0.00108192 0.000979916 -2.13655e-05
3.49966e-06 -2.13655e-05 0.000186425
0.000141091 -0.000581242 1.07796e-05
-0.000581242 -4.04279e-05 -1.57876e-05
1.07796e-05 -1.57876e-05 -0.000859623
0.00296836 -0.000452589 3.78541e-06
-0.000452589 0.00160587 -3.09763e-07
3.78541e-06 -3.09763e-07 0.0011978
0.000653415 -8.15834e-05 -3.75012e-06
-8.15834e-05 0.000215466 9.03814e-06
-3.75012e-06 9.03814e-06 7.63599e-05
-0.000451283 -2.17369e-05 8.72764e-06
-2.17369e-05 -0.00038998 -7.22207e-06
8.72764e-06 -7.22207e-06 -0.000736344
-0.00115842 -0.000118214 5.33137e-06
-0.000118214 -0.00104131 -1.47379e-05
5.33137e-06 -1.47379e-05 -0.00140638
0.00248795 -0.000182451 4.17133e-08
-0.000182451 -0.00018454 -5.9755e-07
4.17133e-08 -5.9755e-07 1.0471e-06
0.000596202 -5.36457e-05 1.8568e-06
-5.36457e-05 0.00014831 3.906e-07
1.8568e-06 3.906e-07 3.69223e-05
0.00033553 -0.00011873 -3.45998e-06
-0.00011873 4.09501e-05 -1.2296e-07
-3.45998e-06 -1.2296e-07 -0.000117128
0.00268417 -0.000498227 -2.24111e-08
-0.000498227 -0.000202033 1.77209e-07
-2.24111e-08 1.77209e-07 -1.05577e-07
0.0026883 -0.000758275 -1.66703e-06
-0.000758275 -7.35792e-05 3.36919e-07
-1.66703e-06 3.36919e-07 -5.72327e-06
0.00244931 -0.00134844 8.94779e-07
-0.00134844 0.000957963 1.21682e-06
8.94779e-07 1.21682e-06 0.000147166
0.0029993 -0.00155031 1.06849e-05
-0.00155031 0.000939847 -2.74925e-06
1.06849e-05 -2.74925e-06 0.000132757
0.00283749 -0.00131531 3.67563e-06
-0.00131531 0.000523176 -8.29962e-07
3.67563e-06 -8.29962e-07 3.9046e-05
0.00277296 -0.00105909 2.40102e-06
-0.00105909 0.000126557 -1.37299e-06
2.40102e-06 -1.37299e-06 -1.45438e-05
0.000142933 -4.71111e-05 -3.11627e-06
-4.71111e-05 -2.95898e-07 -2.13987e-06
-3.11627e-06 -2.13987e-06 -0.00026583
0.000790867 -0.000235475 -6.89356e-07
-0.000235475 0.000492862 5.14858e-07
-6.89356e-07 5.14858e-07 9.37319e-05
0.00166271 -0.00102851 1.55329e-05
-0.00102851 0.000672428 6.65353e-06
1.55329e-05 6.65353e-06 -9.81157e-05
0.00118142 -0.000812063 1.54884e-05
-0.000812063 0.000637728 -1.71019e-05
1.54884e-05 -1.71019e-05 -0.000362469
0.000905527 -0.00038604 -1.97601e-06
-0.00038604 0.000391229 5.29164e-07
-1.97601e-06 5.29164e-07 -0.000200471
0.00103032 -0.000202271 8.10697e-06
-0.000202271 0.000478268 -2.68247e-06
8.10697e-06 -2.68247e-06 0.000187027
0.00254305 -0.000218133 2.29151e-06
-0.000218133 -0.000427042 -2.24208e-06
2.29151e-06 -2.24208e-06 -0.000123579
0.00290697 -0.00067249 -1.43326e-06
-0.00067249 -0.000166044 4.30366e-06
-1.43326e-06 4.30366e-06 0.000100867
0.00310787 -0.00111863 -3.40371e-07
-0.00111863 0.00011182 2.71102e-07
-3.40371e-07 2.71102e-07 7.07393e-05
0.002595 -0.00125571 3.39262e-06
-0.00125571 0.000162178 -7.8129e-06
3.39262e-06 -7.8129e-06 -0.000158585
0.000987213 -0.00120441 3.1352e-06
-0.00120441 0.000142373 -7.49144e-06
3.1352e-06 -7.49144e-06 -0.00064335
0.00374568 -0.00181308 2.5498e-06
-0.00181308 0.00118673 -1.24256e-05
2.5498e-06 -1.24256e-05 0.000358164
0.000343106 6.6863e-05 -3.56522e-06
6.6863e-05 2.73677e-05 -6.21592e-06
-3.56522e-06 -6.21592e-06 -0.000125785
-0.000713083 -8.98899e-05 4.79831e-06
-8.98899e-05 -0.000623379 -3.02484e-06
4.79831e-06 -3.02484e-06 -0.000795554
0.00170759 -0.000258438 -9.1361e-06
-0.000258438 0.00094535 1.43522e-05
-9.1361e-06 1.43522e-05 0.000740465
0.000322542 -7.9999e-05 -6.63583e-06
-7.9999e-05 0.000124634 1.74471e-05
-6.63583e-06 1.74471e-05 -0.00018452
0.00146045 -0.000361531 -1.36898e-05
-0.000361531 0.000893991 2.87069e-05
-1.36898e-05 2.87069e-05 0.000512152
-0.000748 -9.98972e-05 -9.73284e-06
-9.98972e-05 -0.000676738 -1.86299e-05
-9.73284e-06 -1.86299e-05 -0.000917683
-0.00144959 -0.00034942 -2.46916e-05
-0.00034942 -0.00052074 1.08999e-05
-2.46916e-05 1.08999e-05 -0.0016428
0.0015236 -0.00135597 -6.10533e-05
-0.00135597 0.000348563 2.68042e-05
-6.10533e-05 2.68042e-05 -0.000301179
-0.000372339 0.000397157 2.22123e-06
0.000397157 -0.000255618 2.28464e-06
2.22123e-06 2.28464e-06 -0.000647917
0.0037356 0.00072285 -3.82918e-06
0.00072285 0.00236046 -2.31411e-06
-3.82918e-06 -2.31411e-06 0.00185767
0.00268394 0.000638025 -2.60641e-06
0.000638025 -0.00036308 -3.86785e-06
-2.60641e-06 -3.86785e-06 -0.000129977
0.00308506 0.000972329 -5.1735e-06
0.000972329 0.0003086 -3.47726e-07
-5.1735e-06 -3.47726e-07 0.00012117
0.00358961 0.000813303 -7.81554e-06
0.000813303 0.00163384 4.1481e-06
-7.81554e-06 4.1481e-06 0.00117374
0.00167622 0.00110448 -1.92546e-05
0.00110448 0.000424397 -4.0596e-06
-1.92546e-05 -4.0596e-06 -0.000299854
0.00248158 0.00112208 -6.33432e-06
0.00112208 0.00038377 3.39502e-06
-6.33432e-06 3.39502e-06 -0.000139191
0.00297823 0.00151156 -1.30536e-05
0.00151156 0.000965779 -8.55561e-07
-1.30536e-05 -8.55561e-07 0.000142123
0.000350591 0.000329231 2.77543e-06
0.000329231 0.000231124 6.04159e-07
2.77543e-06 6.04159e-07 -8.86399e-05
0.00271941 0.000457885 -4.01938e-06
0.000457885 -0.000345258 -4.64004e-06
-4.01938e-06 -4.64004e-06 -6.83463e-05
0.0020408 0.00070876 2.52697e-06
0.00070876 0.00138477 6.2745e-06
2.52697e-06 6.2745e-06 0.000806688
0.00166012 0.000932346 3.03193e-06
0.000932346 0.000441907 2.25932e-06
3.03193e-06 2.25932e-06 -0.000168703
0.00300506 0.000914467 2.93941e-07
0.000914467 6.67964e-05 6.10148e-07
2.93941e-07 6.10148e-07 0.000150604
0.00240929 0.00119092 -3.21672e-06
0.00119092 0.00016984 -6.63141e-06
-3.21672e-06 -6.63141e-06 -0.000323892
0.00320308 0.00156032 -1.94819e-06
0.00156032 0.0010688 -4.5365e-07
-1.94819e-06 -4.5365e-07 0.000224796
0.00172183 0.000549342 -1.03755e-05
0.000549342 0.00122058 -1.86861e-06
-1.03755e-05 -1.86861e-06 0.00077131
0.00461904 0.000966295 -0.000139406
0.000966295 0.000578741 -5.49777e-05
-0.000139406 -5.49777e-05 0.00106718
0.00123171 0.000749762 -8.58558e-06
0.000749762 0.000731112 1.69229e-05
-8.58558e-06 1.69229e-05 0.000122598
0.0014986 0.00102865 4.75346e-07
0.00102865 0.000368787 -1.11512e-05
4.75346e-07 -1.11512e-05 -0.000338751
0.00375183 0.00132384 -5.14845e-05
0.00132384 0.000772623 -2.6233e-05
-5.14845e-05 -2.6233e-05 0.000504407
0.00177764 0.00133449 -3.30942e-05
0.00133449 0.000261646 -7.07892e-06
-3.30942e-05 -7.07892e-06 -0.000485659
0.00126489 0.00207553 -4.36041e-06
0.00207553 -0.00342496 -7.75837e-05
-4.36041e-06 -7.75837e-05 -0.00148057
0.00113816 0.000283411 1.19924e-05
0.000283411 0.000714941 1.37466e-05
1.19924e-05 1.37466e-05 0.000532358
0.000228916 0.000174782 -2.93266e-06
0.000174782 0.000148246 -7.66325e-07
-2.93266e-06 -7.66325e-07 -1.9015e-06
-0.000856124 7.71837e-05 -6.96618e-06
7.71837e-05 -0.000534063 4.25837e-06
-6.96618e-06 4.25837e-06 -0.000678212
0.000287963 -6.36143e-05 3.76799e-06
-6.36143e-05 4.51077e-06 -1.25734e-06
3.76799e-06 -1.25734e-06 -0.000153489
-0.000378742 1.17699e-05 4.49934e-06
1.17699e-05 -0.000341152 -4.05738e-06
4.49934e-06 -4.05738e-06 -0.000560984
0.00194196 0.00034806 5.58131e-07
0.00034806 0.00126137 -9.69977e-06
5.58131e-07 -9.69977e-06 0.000951939
-0.00149064 1.51887e-05 -6.67367e-06
1.51887e-05 -0.00100779 1.10257e-05
-6.67367e-06 1.10257e-05 -0.001107
0.000452708 -3.86428e-06 -2.4102e-07
-3.86428e-06 0.000105975 -4.14458e-07
-2.4102e-07 -4.14458e-07 -5.6207e-05
0.000361753 9.63246e-05 5.70217e-07
9.63246e-05 6.41893e-05 -5.34796e-07
5.70217e-07 -5.34796e-07 -0.000119403
-0.000259344 0.000108946 1.20973e-06
0.000108946 -0.000242148 3.44794e-06
1.20973e-06 3.44794e-06 -0.00029621
3.77137e-05 8.88432e-05 7.21258e-07
8.88432e-05 -2.57184e-05 3.42713e-08
7.21258e-07 3.42713e-08 -0.000282156
0.000394184 9.71603e-05 2.8772e-07
9.71603e-05 0.000163782 5.16975e-07
2.8772e-07 5.16975e-07 1.61355e-06
0.00023839 0.000117478 1.27621e-05
0.000117478 0.000169623 -1.00145e-05
1.27621e-05 -1.00145e-05 3.63472e-05
0.000869788 0.000165785 -5.57679e-06
0.000165785 0.000511082 7.29465e-06
-5.57679e-06 7.29465e-06 0.000270889
0.000800301 0.000130699 -4.43089e-06
0.000130699 0.000427888 3.08326e-06
-4.43089e-06 3.08326e-06 0.000197607
0.000764914 0.000145938 -7.52566e-06
0.000145938 0.000343362 -3.0459e-06
-7.52566e-06 -3.0459e-06 0.000143441
8.6706e-05 3.93477e-06 -2.72508e-06
3.93477e-06 -0.000161186 2.23905e-07
-2.72508e-06 2.23905e-07 -0.000307067
0.00164795 -0.000211113 7.21338e-06
-0.000211113 0.00106112 -1.00814e-05
7.21338e-06 -1.00814e-05 0.000734371
0.000106442 -7.69198e-05 -2.81069e-06
-7.69198e-05 -0.000125179 3.34829e-06
-2.81069e-06 3.34829e-06 -0.00029335
0.000287912 2.1948e-06 -2.6255e-06
2.1948e-06 -3.41237e-05 2.84374e-06
-2.6255e-06 2.84374e-06 -0.000140712
0.000393881 5.13537e-05 2.34234e-06
5.13537e-05 3.44363e-05 -9.75923e-08
2.34234e-06 -9.75923e-08 -7.36849e-05
0.000293371 1.98434e-05 -3.32104e-06
1.98434e-05 -6.34812e-05 5.53764e-06
-3.32104e-06 5.53764e-06 -9.98336e-05
0.000280002 -1.98945e-06 -8.44381e-07
-1.98945e-06 -4.24187e-05 -3.74193e-06
-8.44381e-07 -3.74193e-06 -0.000149163
0.000828981 1.81321e-05 -5.27285e-06
1.81321e-05 0.000285355 -1.58078e-06
-5.27285e-06 -1.58078e-06 0.000252311
0.0027509 1.00525e-05 3.61141e-05
1.00525e-05 0.00153494 6.78776e-06
3.61141e-05 6.78776e-06 0.00154607
0.00142393 6.90031e-05 -2.25759e-05
6.90031e-05 0.000677943 -8.62772e-06
-2.25759e-05 -8.62772e-06 0.000644513
0.000759997 -1.93477e-06 1.69847e-05
-1.93477e-06 0.000218193 4.222e-06
1.69847e-05 4.222e-06 0.000217797
0.000791526 -1.79156e-05 3.25466e-06
-1.79156e-05 0.000231231 -3.451e-06
3.25466e-06 -3.451e-06 0.000227965
0.000257615 9.88553e-06 -3.39436e-06
9.88553e-06 -6.50215e-05 -6.92776e-06
-3.39436e-06 -6.92776e-06 -0.000159988
0.000594447 -6.58256e-05 3.43942e-07
-6.58256e-05 0.000147483 -6.05451e-07
3.43942e-07 -6.05451e-07 3.97572e-05
0.000315681 2.74183e-05 -8.70896e-07
2.74183e-05 -6.73236e-05 -7.21992e-06
-8.70896e-07 -7.21992e-06 -0.000107389
0.000941036 4.55301e-05 -5.2875e-09
4.55301e-05 0.000349911 1.13668e-07
-5.2875e-09 1.13668e-07 0.000302527
0.00310502 0.000115244 -1.02052e-05
0.000115244 0.00178678 -8.68006e-06
-1.02052e-05 -8.68006e-06 0.00178011
0.000529776 3.90467e-05 7.45051e-07
3.90467e-05 8.71297e-05 1.09085e-05
7.45051e-07 1.09085e-05 2.34197e-05
0.00310653 0.000146419 -3.04191e-06
0.000146419 0.00179986 -2.10556e-07
-3.04191e-06 -2.10556e-07 0.0017845
0.00446634 0.000151418 -2.84361e-05
0.000151418 0.00270342 9.74809e-06
-2.84361e-05 9.74809e-06 0.00267971
0.00254723 0.000385757 -1.11022e-06
0.000385757 -0.000191925 -6.47729e-07
-1.11022e-06 -6.47729e-07 -3.29174e-05
0.00243677 0.000154517 -5.76014e-08
0.000154517 -0.000201462 6.88402e-07
-5.76014e-08 6.88402e-07 -1.81817e-05
0.00238167 -9.22107e-06 1.63015e-06
-9.22107e-06 -0.000118715 5.4537e-08
1.63015e-06 5.4537e-08 -3.16545e-06
0.00242714 -3.92404e-06 -2.6672e-08
-3.92404e-06 -0.000233932 5.40247e-09
-2.6672e-08 5.40247e-09 -3.64798e-05
0.00274166 0.000205731 1.19422e-06
0.000205731 -0.00018666 1.79028e-07
1.19422e-06 1.79028e-07 4.7729e-05
0.00271525 0.000165498 5.23881e-06
0.000165498 -0.00035688 -2.61547e-06
5.23881e-06 -2.61547e-06 -7.96836e-05
0.00287115 5.44665e-05 3.25549e-06
5.44665e-05 -0.000255437 1.68412e-06
3.25549e-06 1.68412e-06 4.70405e-05
0.00674748 0.00229326 2.24551e-05
0.00229326 -0.00150291 2.27929e-05
2.24551e-05 2.27929e-05 0.000787623
0.00285565 0.000203496 -7.24061e-05
0.000203496 -0.000363447 1.54305e-05
-7.24061e-05 1.54305e-05 0.00015946
0.000358688 0.000121859 -4.67177e-06
0.000121859 4.27836e-05 -3.02202e-06
-4.67177e-06 -3.02202e-06 -0.000104679
0.00249723 -0.000182401 -1.23208e-06
-0.000182401 -0.000186759 -4.40567e-07
-1.23208e-06 -4.40567e-07 3.48872e-06
0.00262551 -0.000486365 -3.01863e-06
-0.000486365 -0.000221601 -8.67507e-07
-3.01863e-06 -8.67507e-07 -3.13558e-05
0.00271272 -0.000742795 1.57818e-06
-0.000742795 -4.04005e-05 -1.69952e-06
1.57818e-06 -1.69952e-06 3.22825e-05
0.00208601 -0.00130854 -9.54043e-06
-0.00130854 0.000756716 9.48029e-07
-9.54043e-06 9.48029e-07 -4.76255e-05
0.0024005 -0.00143918 2.76661e-05
-0.00143918 0.000596825 1.80574e-06
2.76661e-05 1.80574e-06 -0.000170167
0.00263949 -0.00127968 -5.19189e-06
-0.00127968 0.000431106 9.60155e-06
-5.19189e-06 9.60155e-06 -4.36696e-05
0.00268819 -0.00105869 2.19579e-06
-0.00105869 6.95397e-05 -1.03954e-06
2.19579e-06 -1.03954e-06 -6.60357e-05
0.00236211 -0.00108623 4.28528e-05
-0.00108623 0.00104265 -5.462e-05
4.28528e-05 -5.462e-05 0.0003007
0.00218455 -0.000993311 3.7465e-05
-0.000993311 0.00114853 -4.54948e-05
3.7465e-05 -4.54948e-05 0.000182692
7.80047e-05 -0.000379615 1.84845e-05
-0.000379615 -4.03908e-05 7.87811e-06
1.84845e-05 7.87811e-06 -0.000686068
0.000456241 -2.76798e-05 -1.32916e-07
-2.76798e-05 5.35456e-05 6.72379e-06
-1.32916e-07 6.72379e-06 -6.30765e-05
0.00110076 -0.000244271 -2.63894e-06
-0.000244271 0.000527071 1.67293e-06
-2.63894e-06 1.67293e-06 0.00021916
0.00153782 -0.000188056 9.67881e-06
-0.000188056 0.00096825 -3.36101e-06
9.67881e-06 -3.36101e-06 0.000659655
-4.43664e-05 -0.000126453 6.68945e-06
-0.000126453 -9.08321e-05 -1.51789e-05
6.68945e-06 -1.51789e-05 -0.000460585
0.000304869 -9.58126e-05 -7.00695e-06
-9.58126e-05 2.78121e-05 5.74778e-06
-7.00695e-06 5.74778e-06 -0.000135744
0.00265737 -0.000240339 -1.01976e-06
-0.000240339 -0.000352075 -1.32203e-06
-1.01976e-06 -1.32203e-06 -4.83878e-05
0.000500702 6.09477e-05 1.10099e-06
6.09477e-05 0.000147937 -2.40488e-06
1.10099e-06 -2.40488e-06 -1.67357e-05
0.000722893 -0.000191573 2.16319e-06
-0.000191573 0.000394845 2.79968e-06
2.16319e-06 2.79968e-06 0.000161663
0.00076946 -0.000158379 1.00794e-05
-0.000158379 0.00032899 9.06767e-07
1.00794e-05 9.06767e-07 0.000149542
0.00274637 -0.000671482 2.61524e-06
-0.000671482 -0.000281519 -6.10196e-07
2.61524e-06 -6.10196e-07 -2.63929e-05
0.00300688 -0.00108673 -9.00105e-07
-0.00108673 7.71776e-05 -2.52994e-07
-9.00105e-07 -2.52994e-07 4.91658e-05
0.00212587 -0.00128908 -3.18779e-06
-0.00128908 0.000755062 1.9867e-06
-3.18779e-06 1.9867e-06 1.17791e-05
0.00260523 -0.00163958 1.17613e-05
-0.00163958 0.000556519 -7.89465e-07
1.17613e-05 -7.89465e-07 -0.000220431
0.00283748 -0.00130104 4.04879e-07
-0.00130104 0.000305807 3.07274e-07
4.04879e-07 3.07274e-07 -3.82973e-05
0.000221795 -8.81682e-05 -1.35398e-06
-8.81682e-05 5.22364e-05 -9.85125e-07
-1.35398e-06 -9.85125e-07 -0.00024732
0.00153328 -0.000334962 8.35735e-06
-0.000334962 0.000957385 -6.79232e-07
8.35735e-06 -6.79232e-07 0.000574982
0.00331935 -0.0016373 -3.75367e-06
-0.0016373 0.00140243 1.00947e-05
-3.75367e-06 1.00947e-05 0.000557079
0.00191559 -0.000660409 -3.06371e-06
-0.000660409 0.00114184 8.96121e-06
-3.06371e-06 8.96121e-06 0.000280553
0.00195742 -0.000227379 1.20706e-05
-0.000227379 0.00102063 1.12445e-05
1.20706e-05 1.12445e-05 0.000736256
0.00296554 -0.000468671 -2.3253e-05
-0.000468671 -0.000298228 4.54904e-06
-2.3253e-05 4.54904e-06 7.84716e-05
0.00263295 -0.000789855 -2.42493e-05
-0.000789855 -0.000358274 1.19849e-05
-2.42493e-05 1.19849e-05 -6.77822e-08
0.00306932 -0.00132769 -5.30305e-06
-0.00132769 0.000287723 -6.47546e-06
-5.30305e-06 -6.47546e-06 1.6688e-05
0.00344769 -0.00160585 1.08443e-05
-0.00160585 0.000913779 -6.18492e-06
1.08443e-05 -6.18492e-06 0.000314707
0.0016085 -0.00145487 4.37962e-06
-0.00145487 0.000271584 6.90472e-06
4.37962e-06 6.90472e-06 -0.00049577
0.000621493 -7.77415e-06 -2.2852e-06
-7.77415e-06 0.000241844 2.08572e-06
-2.2852e-06 2.08572e-06 8.76143e-05
-0.000501564 -7.31196e-05 -6.39607e-06
-7.31196e-05 -0.000528945 1.96661e-05
-6.39607e-06 1.96661e-05 -0.000732917
0.000339065 -0.000243916 -6.82404e-06
-0.000243916 0.000114181 5.18502e-06
-6.82404e-06 5.18502e-06 -8.33035e-05
0.00198926 -0.000443247 -5.09089e-05
-0.000443247 0.00120235 5.00469e-05
-5.09089e-05 5.00469e-05 0.000838882
0.00135624 -0.000280975 4.60648e-06
-0.000280975 0.000781676 2.50415e-05
4.60648e-06 2.50415e-05 0.000491959
-0.000784706 -0.000137809 -9.86372e-06
-0.000137809 -0.000121463 1.39698e-06
-9.86372e-06 1.39698e-06 -0.000812758
0.00253067 -0.00175478 -2.16252e-05
-0.00175478 0.00127567 -1.61199e-05
-2.16252e-05 -1.61199e-05 0.000259504
0.00289246 0.000756632 7.38586e-06
0.000756632 0.00186431 3.63947e-06
7.38586e-06 3.63947e-06 0.00146193
-0.00077116 0.000305133 -6.44575e-07
0.000305133 -0.00033034 -3.02352e-06
-6.44575e-07 -3.02352e-06 -0.0008029
0.002678 0.000442787 1.43975e-05
0.000442787 -0.000383933 2.95169e-06
1.43975e-05 2.95169e-06 -7.61821e-05
0.00311706 0.000879681 2.19331e-05
0.000879681 0.000174391 1.35722e-05
2.19331e-05 1.35722e-05 0.000262873
0.00298117 0.00128179 4.38173e-06
0.00128179 0.000512081 4.95665e-06
4.38173e-06 4.95665e-06 5.75524e-06
0.00142841 0.000881796 -6.30853e-06
0.000881796 0.000367506 1.98368e-06
-6.30853e-06 1.98368e-06 -0.000231057
0.00270964 0.00144954 3.14107e-06
0.00144954 0.000809614 6.7587e-06
3.14107e-06 6.7587e-06 2.02084e-06
0.00280192 0.000614843 -5.5303e-07
0.000614843 0.00189069 -5.7002e-07
-5.5303e-07 -5.7002e-07 0.00145956
0.00326811 0.000763171 2.04606e-05
0.000763171 -0.000193129 6.40599e-06
2.04606e-05 6.40599e-06 0.000401083
0.00114065 0.000678167 -6.83392e-06
0.000678167 0.000612671 7.08834e-06
-6.83392e-06 7.08834e-06 6.93485e-05
0.00216891 0.00115234 3.73723e-06
0.00115234 0.000784967 -2.40607e-06
3.73723e-06 -2.40607e-06 2.81742e-05
0.00312543 0.00121936 -3.53341e-06
0.00121936 0.000476879 -4.08385e-06
-3.53341e-06 -4.08385e-06 0.000260904
0.00261649 0.00146842 -4.62649e-06
0.00146842 0.000720068 8.36212e-06
-4.62649e-06 8.36212e-06 -6.62788e-05
0.00303583 0.00252379 5.76404e-05
0.00252379 -0.00276459 6.88315e-06
5.76404e-05 6.88315e-06 -0.000986136
0.00033031 0.000414077 2.69712e-06
0.000414077 0.000473545 3.94834e-06
2.69712e-06 3.94834e-06 -6.77281e-05
0.00463401 0.00160922 -0.000141463
0.00160922 0.00066209 -5.92002e-05
-0.000141463 -5.92002e-05 0.000790333
0.00013401 0.000685026 -1.89484e-05
0.000685026 -0.000241007 8.34842e-06
-1.89484e-05 8.34842e-06 -0.000808856
0.00126328 0.00116511 -6.29517e-06
0.00116511 0.000193176 -2.50628e-05
-6.29517e-06 -2.50628e-05 -0.000556018
0.00353839 0.00172392 -5.95324e-05
0.00172392 0.000925165 -3.29256e-05
-5.95324e-05 -3.29256e-05 0.000331561
0.0158446 0.00113901 -0.000944597
0.00113901 -0.000873205 -7.62827e-05
-0.000944597 -7.62827e-05 0.0011624
0.0027103 0.00386862 -0.000203262
0.00386862 -0.00558624 -0.000190166
-0.000203262 -0.000190166 -0.000542641
0.000618406 0.00288671 3.22278e-05
0.00288671 -0.00181776 -1.0327e-05
3.22278e-05 -1.0327e-05 -0.00153837
0.00630931 -0.00756747 0.00398783
-0.00756747 0.00504541 -0.000258861
0.00398783 -0.000258861 -0.00388032
0.0369258 -0.0193732 -0.000196893
-0.0193732 0.0259377 -1.32888e-05
-0.000196893 -1.32888e-05 0.0100226
0.00269797 0.000346619 1.64684e-05
0.000346619 0.00173445 6.07253e-06
1.64684e-05 6.07253e-06 0.00154714
0.000495855 0.00015755 1.78747e-06
0.00015755 0.000363588 2.29092e-06
1.78747e-06 2.29092e-06 0.00018053
0.00027764 0.000231156 1.09887e-05
0.000231156 0.000298998 -2.29324e-06
1.09887e-05 -2.29324e-06 5.22297e-05
0.000540076 -5.81422e-05 2.15894e-06
-5.81422e-05 0.000175186 -6.7986e-07
2.15894e-06 -6.7986e-07 4.87829e-06
0.000599202 9.02199e-05 6.05479e-06
9.02199e-05 0.000244151 -2.97862e-06
6.05479e-06 -2.97862e-06 5.48677e-05
0.000220861 -3.33605e-05 3.68504e-06
-3.33605e-05 8.65704e-05 -6.69076e-06
3.68504e-06 -6.69076e-06 -0.000166411
0.000793914 0.000132612 6.5834e-06
0.000132612 0.000404412 3.60664e-06
6.5834e-06 3.60664e-06 0.000237605
-0.000243305 0.000107649 7.86884e-06
0.000107649 -0.000209635 1.01023e-05
7.86884e-06 1.01023e-05 -0.000244129
0.000690546 0.00014924 -2.92633e-06
0.00014924 0.000401299 1.968e-06
-2.92633e-06 1.968e-06 0.000149064
0.000364187 -3.92031e-06 4.94362e-07
-3.92031e-06 3.16302e-05 6.0752e-07
4.94362e-07 6.0752e-07 -0.000125542
0.000776596 8.76985e-05 -9.97508e-07
8.76985e-05 0.000355414 2.47285e-07
-9.97508e-07 2.47285e-07 0.000154153
0.000126969 0.000115889 -1.88467e-06
0.000115889 7.22705e-05 -5.26013e-06
-1.88467e-06 -5.26013e-06 -4.67849e-05
0.000348034 9.81132e-05 1.28066e-06
9.81132e-05 0.000172702 4.09861e-07
1.28066e-06 4.09861e-07 -5.11594e-05
0.00146025 0.000201503 -2.12335e-06
0.000201503 0.000935503 1.02602e-05
-2.12335e-06 1.02602e-05 0.00066276
0.0002088 9.29481e-05 1.88453e-06
9.29481e-05 0.000199564 -2.246e-06
1.88453e-06 -2.246e-06 -5.58371e-05
0.000735022 0.000111855 -8.50322e-07
0.000111855 0.000417759 3.23984e-07
-8.50322e-07 3.23984e-07 0.000183113
0.000258328 1.27953e-05 -3.97257e-06
1.27953e-05 -1.91929e-05 -4.10612e-06
-3.97257e-06 -4.10612e-06 -0.000202434
5.83044e-07 -4.63496e-05 -1.70418e-06
-4.63496e-05 -0.000208908 -1.00519e-06
-1.70418e-06 -1.00519e-06 -0.000366552
-0.000280088 -2.49455e-05 2.13554e-06
-2.49455e-05 -0.000330525 -4.93143e-06
2.13554e-06 -4.93143e-06 -0.000522917
0.00135151 -0.000151653 1.29344e-05
-0.000151653 0.000797307 4.93828e-06
1.29344e-05 4.93828e-06 0.000576983
0.000975196 -0.000124376 9.27902e-07
-0.000124376 0.000602545 -4.85142e-06
9.27902e-07 -4.85142e-06 0.000333276
0.00113572 -0.000227392 3.15083e-06
-0.000227392 0.00066214 9.63835e-07
3.15083e-06 9.63835e-07 0.000390937
0.000368128 -0.000145052 -3.95385e-06
-0.000145052 7.92981e-05 -2.66004e-06
-3.95385e-06 -2.66004e-06 -0.000106867
-0.000370962 -5.33704e-05 -1.01053e-06
-5.33704e-05 -0.000431753 1.88447e-06
-1.01053e-06 1.88447e-06 -0.000603475
0.000463828 -8.72941e-05 -2.60308e-06
-8.72941e-05 6.68981e-05 2.57538e-06
-2.60308e-06 2.57538e-06 -3.07342e-05
0.000467481 -5.66739e-05 2.8352e-06
-5.66739e-05 8.13134e-05 6.3662e-08
2.8352e-06 6.3662e-08 -2.66511e-05
0.000320947 4.08725e-06 5.16561e-06
4.08725e-06 -4.23166e-05 7.43482e-06
5.16561e-06 7.43482e-06 -7.92666e-05
0.000448854 7.64259e-05 -1.6824e-06
7.64259e-05 6.07134e-05 -3.97368e-06
-1.6824e-06 -3.97368e-06 -4.11988e-05
0.000307764 3.14387e-05 5.40135e-07
3.14387e-05 -5.46394e-05 1.87108e-07
5.40135e-07 1.87108e-07 -9.05308e-05
0.00270347 1.71224e-05 2.27861e-05
1.71224e-05 0.00150465 6.37643e-06
2.27861e-05 6.37643e-06 0.00151473
0.000345366 7.90999e-05 -6.52437e-06
7.90999e-05 -2.51998e-05 -9.02779e-06
-6.52437e-06 -9.02779e-06 -6.7189e-05
0.00170738 2.13572e-06 -1.37027e-05
2.13572e-06 0.000845205 -8.69737e-08
-1.37027e-05 -8.69737e-08 0.000849753
0.000767391 -7.84304e-06 2.13792e-06
-7.84304e-06 0.000216083 -2.2852e-06
2.13792e-06 -2.2852e-06 0.000215349
0.000383663 2.34691e-05 -3.59164e-07
2.34691e-05 -4.66842e-06 -4.03738e-06
-3.59164e-07 -4.03738e-06 -7.52942e-05
0.00043557 -5.53307e-05 1.47932e-06
-5.53307e-05 4.98941e-05 1.17736e-07
1.47932e-06 1.17736e-07 -4.64802e-05
0.000370281 -4.64571e-07 2.24232e-06
-4.64571e-07 -3.67526e-05 -6.46607e-06
2.24232e-06 -6.46607e-06 -6.70192e-05
0.000549617 -8.72421e-05 -1.26918e-06
-8.72421e-05 0.000118574 3.49261e-06
-1.26918e-06 3.49261e-06 8.08255e-06
0.000923783 3.88195e-05 7.92241e-07
3.88195e-05 0.000334861 -1.0395e-06
7.92241e-07 -1.0395e-06 0.000296386
0.00281959 8.14484e-05 -5.03476e-06
8.14484e-05 0.00158734 -7.42753e-06
-5.03476e-06 -7.42753e-06 0.00158889
0.000285567 2.69295e-05 -1.61397e-06
2.69295e-05 -9.09402e-05 8.82246e-06
-1.61397e-06 8.82246e-06 -0.000140271
0.00340212 0.000130223 -4.08324e-06
0.000130223 0.00199014 1.83169e-06
-4.08324e-06 1.83169e-06 0.00198014
0.00368296 0.000172602 3.26685e-05
0.000172602 0.00219182 1.42144e-05
3.26685e-05 1.42144e-05 0.00217
0.0027099 0.000222084 -2.90077e-06
0.000222084 -0.000193199 -8.46278e-07
-2.90077e-06 -8.46278e-07 4.09245e-05
0.00241877 1.71334e-06 -6.71542e-07
1.71334e-06 -0.000235034 -2.71226e-07
-6.71542e-07 -2.71226e-07 -3.69189e-05
0.00295211 0.00013222 4.16024e-06
0.00013222 -0.000183158 -2.55889e-06
4.16024e-06 -2.55889e-06 6.593e-05
0.00273431 0.00172466 0.000162056
0.00172466 -0.00363302 6.29886e-05
0.000162056 6.29886e-05 -0.00123541
0.00285284 1.52611e-05 -2.11273e-06
1.52611e-05 -0.000262304 2.93101e-07
-2.11273e-06 2.93101e-07 4.35078e-05
0.00290362 0.00016388 8.65577e-07
0.00016388 -0.000302791 -3.59863e-06
8.65577e-07 -3.59863e-06 0.000154957
0.00313161 -0.000105075 -5.00239e-05
-0.000105075 4.57133e-06 3.15364e-07
-5.00239e-05 3.15364e-07 0.000338576
0.00332105 0.00145558 -0.000232641
0.00145558 -0.00378598 9.16951e-06
-0.000232641 9.16951e-06 -0.000574676
0.00414477 0.000562938 0.000139356
0.000562938 -0.00166779 6.60388e-05
0.000139356 6.60388e-05 -0.000181638
0.000374689 8.48582e-05 8.70834e-07
8.48582e-05 5.18635e-05 -3.75838e-06
8.70834e-07 -3.75838e-06 -8.86419e-05
0.00055128 -3.93883e-05 2.18433e-07
-3.93883e-05 0.000184641 -2.48711e-07
2.18433e-07 -2.48711e-07 2.43869e-05
0.000384934 -0.000123669 -1.22399e-06
-0.000123669 8.77752e-05 4.42781e-06
-1.22399e-06 4.42781e-06 -6.46012e-05
0.00041085 -9.67476e-05 -2.32044e-07
-9.67476e-05 0.000100227 3.46343e-07
-2.32044e-07 3.46343e-07 -7.09195e-05
0.00278435 -0.000263348 -3.50845e-06
-0.000263348 -0.000268183 3.94577e-06
-3.50845e-06 3.94577e-06 3.64685e-05
0.00271464 -0.0006742 -2.09034e-07
-0.0006742 -0.000293654 -2.27787e-06
-2.09034e-07 -2.27787e-06 -6.24191e-05
0.0028935 -0.00105686 -2.03426e-06
-0.00105686 3.13742e-05 -4.51988e-07
-2.03426e-06 -4.51988e-07 1.62062e-05
0.00311801 -0.00142959 1.54924e-05
-0.00142959 0.00133662 4.2599e-06
1.54924e-05 4.2599e-06 0.000552583
0.00274321 -0.00171595 -2.08855e-05
-0.00171595 0.000605633 1.65573e-05
-2.08855e-05 1.65573e-05 -0.000184028
0.00297342 -0.00132913 1.52374e-06
-0.00132913 0.000390544 3.57449e-06
1.52374e-06 3.57449e-06 3.08501e-05
0.000300692 -0.00118821 2.46138e-05
-0.00118821 -0.000199974 -2.14458e-05
2.46138e-05 -2.14458e-05 -0.00109957
0.0038456 -0.000733923 3.30941e-05
-0.000733923 0.00208419 -1.55297e-05
3.30941e-05 -1.55297e-05 0.00141213
-0.000723913 -0.000226888 1.45919e-05
-0.000226888 -0.000727242 7.97281e-06
1.45919e-05 7.97281e-06 -0.00101913
0.00162872 -0.000115482 9.2131e-06
-0.000115482 0.000967249 2.85019e-06
9.2131e-06 2.85019e-06 0.000745622
-0.000832482 -2.08556e-05 -1.51792e-05
-2.08556e-05 -0.000515282 -2.05862e-05
-1.51792e-05 -2.05862e-05 -0.000898976
0.00040991 -6.57895e-05 2.31617e-06
-6.57895e-05 0.000156255 -1.38763e-05
2.31617e-06 -1.38763e-05 -0.000127675
0.00053864 -3.414e-05 1.01603e-06
-3.414e-05 0.000184669 4.63987e-06
1.01603e-06 4.63987e-06 9.79842e-06
0.000630695 -0.00013058 -1.01276e-05
-0.00013058 0.000247012 4.58534e-06
-1.01276e-05 4.58534e-06 7.31473e-05
0.00287358 -0.000460335 4.11909e-06
-0.000460335 -0.000362974 1.08547e-07
4.11909e-06 1.08547e-07 3.75944e-05
0.000184036 -6.12521e-05 -1.76372e-06
-6.12521e-05 -4.07546e-05 5.2596e-06
-1.76372e-06 5.2596e-06 -0.000199975
0.000452979 -0.000151844 4.74225e-06
-0.000151844 0.000116345 -4.86352e-06
4.74225e-06 -4.86352e-06 -0.000111521
-0.000360211 -9.2275e-05 1.7064e-05
-9.2275e-05 -0.000280324 -5.94972e-06
1.7064e-05 -5.94972e-06 -0.000427274
0.00266397 -0.000836817 1.50161e-06
-0.000836817 -0.000342823 -9.99279e-07
1.50161e-06 -9.99279e-07 -3.89499e-05
0.0029896 -0.00131301 1.53663e-06
-0.00131301 0.000237137 -2.0057e-06
1.53663e-06 -2.0057e-06 -2.53029e-05
0.00205542 -0.00158577 -1.08212e-05
-0.00158577 0.000498079 3.08571e-07
-1.08212e-05 3.08571e-07 -0.000290736
0.00323443 -0.00163539 -3.89843e-06
-0.00163539 0.000770058 -6.67953e-07
-3.89843e-06 -6.67953e-07 0.000151394
0.00182379 -0.000314189 2.28504e-05
-0.000314189 0.00110394 -9.19474e-06
2.28504e-05 -9.19474e-06 0.000735207
-0.00159095 -5.33689e-05 1.32302e-05
-5.33689e-05 -0.00102143 1.4602e-06
1.32302e-05 1.4602e-06 -0.00137049
0.000932293 -0.00147455 1.55308e-07
-0.00147455 0.000512001 1.4443e-06
1.55308e-07 1.4443e-06 -0.000513528
0.00152514 -0.000579427 -1.94858e-05
-0.000579427 0.000859064 1.35448e-06
-1.94858e-05 1.35448e-06 0.000263368
0.00400301 -0.000699012 -8.50191e-05
-0.000699012 0.000385749 2.84665e-05
-8.50191e-05 2.84665e-05 0.000765899
0.0030287 -0.00116869 -4.31983e-05
-0.00116869 4.0329e-05 2.25861e-05
-4.31983e-05 2.25861e-05 0.000160581
0.00320936 -0.00148822 8.45316e-06
-0.00148822 0.000800074 -2.01568e-05
8.45316e-06 -2.01568e-05 0.000211495
0.00354996 -0.0019255 -4.9221e-06
-0.0019255 0.00111168 1.75861e-05
-4.9221e-06 1.75861e-05 0.00041809
0.000104854 -0.000220928 2.28115e-06
-0.000220928 0.000143456 -1.63637e-05
2.28115e-06 -1.63637e-05 -9.73378e-05
0.00084702 -0.000393763 -1.64689e-05
-0.000393763 0.000414079 2.67621e-05
-1.64689e-05 2.67621e-05 6.46449e-05
0.000853707 -0.000354433 -2.44945e-05
-0.000354433 0.000711804 6.9257e-05
-2.44945e-05 6.9257e-05 0.000325968
-0.000785242 -0.000906556 9.11803e-06
-0.000906556 0.000187101 -4.3686e-05
9.11803e-06 -4.3686e-05 -0.000903507
0.00748154 -0.000593279 2.01454e-05
-0.000593279 -0.00705793 3.5616e-05
2.01454e-05 3.5616e-05 -0.00765107
0.00404452 0.00059899 1.60662e-05
0.00059899 0.00264597 -3.98759e-06
1.60662e-05 -3.98759e-06 0.00222449
0.000165498 0.000521001 -2.39862e-06
0.000521001 4.72773e-06 -8.73405e-06
-2.39862e-06 -8.73405e-06 -0.000489434
0.0017298 0.000593487 8.79714e-05
0.000593487 -0.00112398 3.87901e-05
8.79714e-05 3.87901e-05 -0.000415369
0.00234225 0.0010991 3.05832e-05
0.0010991 9.2667e-05 1.44611e-05
3.05832e-05 1.44611e-05 -6.19891e-05
0.00299149 0.00152716 1.35316e-05
0.00152716 0.000926621 1.81134e-05
1.35316e-05 1.81134e-05 0.000120487
0.00265666 0.00124848 1.45689e-05
0.00124848 0.00108695 1.47553e-05
1.45689e-05 1.47553e-05 0.000287224
0.00397526 0.00289439 0.000129881
0.00289439 -0.00260453 6.78059e-05
0.000129881 6.78059e-05 -0.00103458
0.00101673 0.000438268 2.63492e-06
0.000438268 0.000824241 -6.50132e-06
2.63492e-06 -6.50132e-06 0.000354565
0.00319872 0.00140317 -7.01161e-06
0.00140317 -0.000168183 4.15939e-06
-7.01161e-06 4.15939e-06 0.00012886
0.00108582 0.000832759 -1.16707e-05
0.000832759 0.000352697 9.09327e-06
-1.16707e-05 9.09327e-06 -0.00026503
0.00231717 0.00135281 1.92068e-06
0.00135281 0.000791819 -1.00227e-05
1.92068e-06 -1.00227e-05 -7.04548e-06
0.00380451 0.00168717 -1.31928e-05
0.00168717 0.00112185 -1.04706e-06
-1.31928e-05 -1.04706e-06 0.00051753
0.00418696 0.000479687 -0.000267208
0.000479687 -0.00967098 -0.000188596
-0.000267208 -0.000188596 -0.00852866
0.00670374 0.00425026 -0.000220777
0.00425026 -0.0030242 -0.000115741
-0.000220777 -0.000115741 0.000919622
0.00120489 0.00281035 -2.07004e-05
0.00281035 -0.00143825 -8.34977e-06
-2.07004e-05 -8.34977e-06 -0.00123566
0.0136563 -0.00520779 0.00107679
-0.00520779 0.00829829 0.00021089
0.00107679 0.00021089 0.00171948
0.0367509 -0.0226103 -0.000449913
-0.0226103 0.0256652 -0.000545721
-0.000449913 -0.000545721 0.0085464
-0.000292361 0.000366249 6.27526e-07
0.000366249 -0.000198883 -4.3341e-06
6.27526e-07 -4.3341e-06 -0.000598836
0.00210495 -0.00229007 0.00245621
-0.00229007 0.0044548 -7.37982e-05
0.00245621 -7.37982e-05 0.000821576
0.014707 -0.0122076 0.000272091
-0.0122076 0.0168971 -0.0002547
0.000272091 -0.0002547 0.00119689
0.00426597 0.00246838 -9.1887e-05
0.00246838 0.000718927 -3.3947e-05
-9.1887e-05 -3.3947e-05 0.000216576
0.00132901 0.000922355 -3.75739e-05
0.000922355 0.000395806 -5.81652e-06
-3.75739e-05 -5.81652e-06 -0.000217546
0.00220239 0.001423 -5.97981e-05
0.001423 0.000698623 -5.1711e-05
-5.97981e-05 -5.1711e-05 -3.59073e-05
-0.000284985 0.0026186 0.00017322
0.0026186 -0.00142124 0.000141314
0.00017322 0.000141314 -0.00150534
0.0162065 0.00654471 0.000328084
0.00654471 -0.00301731 -1.49507e-05
0.000328084 -1.49507e-05 0.000876062
0.00694167 0.00645215 -0.000179635
0.00645215 -0.0014627 -0.000202457
-0.000179635 -0.000202457 0.000899619
0.0284478 -0.0107184 0.00134173
-0.0107184 0.0145123 4.64434e-05
0.00134173 4.64434e-05 0.00308269
0.0235584 -0.00256769 -0.000903026
-0.00256769 0.0124097 0.000847103
-0.000903026 0.000847103 0.00592579
0.00105588 0.000174043 9.86881e-06
0.000174043 0.000749778 -1.00965e-06
9.86881e-06 -1.00965e-06 0.000548482
0.000405339 0.000240707 2.2984e-06
0.000240707 0.000394441 8.73279e-07
2.2984e-06 8.73279e-07 0.000140377
0.00144358 0.000466558 8.14423e-06
0.000466558 0.00105074 -9.19688e-06
8.14423e-06 -9.19688e-06 0.000657112
0.00048021 4.88062e-06 3.54958e-06
4.88062e-06 0.000132825 1.17802e-06
3.54958e-06 1.17802e-06 -4.26008e-05
0.000337842 0.000108908 5.61688e-06
0.000108908 3.95406e-05 1.15094e-06
5.61688e-06 1.15094e-06 -0.0001406
4.39634e-05 3.5214e-05 4.54132e-06
3.5214e-05 -5.27617e-05 4.71161e-07
4.54132e-06 4.71161e-07 -0.000265992
0.000521336 0.000115421 -3.15673e-06
0.000115421 0.000301876 -4.29278e-06
-3.15673e-06 -4.29278e-06 7.10354e-05
0.000101669 0.000113605 -6.04881e-06
0.000113605 2.92418e-05 2.62425e-06
-6.04881e-06 2.62425e-06 -7.71475e-05
0.000292441 1.73171e-05 -9.37185e-08
1.73171e-05 -1.47049e-06 9.22102e-07
-9.37185e-08 9.22102e-07 -0.000171584
0.000902643 0.000112091 2.83307e-06
0.000112091 0.000561878 2.1993e-06
2.83307e-06 2.1993e-06 0.000308484
0.000271283 7.07514e-05 -3.7612e-07
7.07514e-05 0.000101858 -2.91993e-06
-3.7612e-07 -2.91993e-06 -0.000125969
0.000639385 8.52952e-05 1.20904e-06
8.52952e-05 0.000276356 6.5789e-08
1.20904e-06 6.5789e-08 6.11044e-05
0.000240196 9.20378e-05 -2.15894e-06
9.20378e-05 0.000227026 -2.18959e-06
-2.15894e-06 -2.18959e-06 -2.73724e-05
0.000571284 7.40151e-05 1.28706e-07
7.40151e-05 0.000368167 7.05682e-06
1.28706e-07 7.05682e-06 0.000138542
-0.000684559 2.08765e-05 3.15247e-06
2.08765e-05 -0.00014075 -4.36596e-06
3.15247e-06 -4.36596e-06 -0.000564226
5.83934e-05 -8.34455e-05 -4.79201e-06
-8.34455e-05 -4.18564e-05 2.18596e-06
-4.79201e-06 2.18596e-06 -0.000280663
0.000318873 -5.38494e-05 -6.24659e-06
-5.38494e-05 4.89213e-05 -6.74037e-06
-6.24659e-06 -6.74037e-06 -0.000154451
0.000716815 -1.68789e-05 7.27734e-07
-1.68789e-05 0.000355111 -5.20137e-06
7.27734e-07 -5.20137e-06 0.000132255
0.000519029 -0.000156628 -2.27425e-06
-0.000156628 0.000265195 4.01253e-06
-2.27425e-06 4.01253e-06 6.97049e-05
-0.000493554 0.000169178 -1.29122e-05
0.000169178 -0.000431261 3.96596e-07
-1.29122e-05 3.96596e-07 -0.000580825
0.000541291 -0.000255721 1.19945e-05
-0.000255721 0.000170581 1.37294e-06
1.19945e-05 1.37294e-06 4.22783e-05
0.00139949 -0.000113349 -4.09473e-06
-0.000113349 0.000904599 9.71879e-06
-4.09473e-06 9.71879e-06 0.000732241
-0.000786466 -2.13049e-05 2.381e-06
-2.13049e-05 -0.000533891 -7.98488e-06
2.381e-06 -7.98488e-06 -0.000829533
-0.000694705 -1.6848e-05 -1.8392e-06
-1.6848e-05 -0.000501917 -8.79399e-06
-1.8392e-06 -8.79399e-06 -0.000720404
0.000875971 -0.000260982 -6.68689e-07
-0.000260982 0.000539003 1.01395e-06
-6.68689e-07 1.01395e-06 0.000262447
-9.81135e-05 -2.6743e-05 -1.61617e-06
-2.6743e-05 -0.000186316 -1.29401e-06
-1.61617e-06 -1.29401e-06 -0.000392101
0.000682044 -0.00025584 -1.9009e-06
-0.00025584 0.000319043 1.73634e-08
-1.9009e-06 1.73634e-08 8.26485e-05
0.000804918 -0.000169828 2.2206e-06
-0.000169828 0.00037264 -1.6833e-07
2.2206e-06 -1.6833e-07 0.000179292
0.000788468 -8.72539e-05 -1.28648e-06
-8.72539e-05 0.000281313 2.19041e-06
-1.28648e-06 2.19041e-06 0.000180728
0.000234538 2.24713e-05 1.39879e-06
2.24713e-05 1.86665e-06 -3.3825e-07
1.39879e-06 -3.3825e-07 -0.000200393
0.000456211 -9.5331e-06 3.12949e-06
-9.5331e-06 7.62757e-05 1.26448e-07
3.12949e-06 1.26448e-07 -2.90373e-05
0.00139299 -4.28397e-05 -1.90168e-05
-4.28397e-05 0.000652694 7.46006e-06
-1.90168e-05 7.46006e-06 0.000625855
0.000434915 9.82204e-05 -1.98461e-06
9.82204e-05 6.59319e-05 -2.48993e-06
-1.98461e-06 -2.48993e-06 -4.14628e-05
0.00080914 -3.35576e-05 -7.10519e-06
-3.35576e-05 0.000279958 8.81286e-07
-7.10519e-06 8.81286e-07 0.000245076
0.000836613 -6.41423e-06 -1.79938e-05
-6.41423e-06 0.000272749 5.09645e-06
-1.79938e-05 5.09645e-06 0.000275209
0.000273809 -5.62233e-05 6.97902e-06
-5.62233e-05 -7.56867e-05 -6.21955e-06
6.97902e-06 -6.21955e-06 -0.000111782
0.00270479 2.89141e-06 2.10404e-05
2.89141e-06 0.00150553 7.03896e-08
2.10404e-05 7.03896e-08 0.00151546
0.000845039 1.10986e-05 -2.10723e-05
1.10986e-05 0.0002801 -6.088e-06
-2.10723e-05 -6.088e-06 0.00027995
0.000581632 8.30442e-05 2.67859e-06
8.30442e-05 0.000205379 -3.84988e-06
2.67859e-06 -3.84988e-06 4.83394e-05
0.000338005 7.50579e-05 -1.93768e-06
7.50579e-05 -1.10824e-05 -5.1838e-06
-1.93768e-06 -5.1838e-06 -9.14717e-05
0.000422533 2.58944e-06 2.76477e-06
2.58944e-06 4.25054e-05 2.35229e-07
2.76477e-06 2.35229e-07 -4.21909e-05
0.000344806 1.26557e-05 1.09416e-06
1.26557e-05 -5.46679e-05 -5.35941e-06
1.09416e-06 -5.35941e-06 -7.89502e-05
0.000604664 -0.000107975 -1.9802e-06
-0.000107975 0.000177514 5.91862e-06
-1.9802e-06 5.91862e-06 6.98888e-05
0.000417789 5.17512e-06 1.4773e-06
5.17512e-06 -6.31116e-06 -1.01554e-06
1.4773e-06 -1.01554e-06 -3.69675e-05
0.00256837 5.33674e-05 -2.48011e-06
5.33674e-05 0.00141504 -6.47714e-06
-2.48011e-06 -6.47714e-06 0.00142237
0.00156664 5.28222e-05 2.81246e-06
5.28222e-05 0.000763656 4.96201e-06
2.81246e-06 4.96201e-06 0.000723884
0.00173619 6.22021e-05 -2.39248e-06
6.22021e-05 0.000874825 2.4443e-06
-2.39248e-06 2.4443e-06 0.000870292
0.000494973 5.29169e-05 1.46944e-05
5.29169e-05 6.36622e-05 1.66581e-05
1.46944e-05 1.66581e-05 4.70747e-05
0.000116446 0.00134655 0.000177631
0.00134655 -0.00512707 3.78234e-05
0.000177631 3.78234e-05 -0.00249872
0.00278231 -2.10794e-05 -2.18962e-06
-2.10794e-05 -0.000301767 -2.02337e-06
-2.18962e-06 -2.02337e-06 6.14338e-06
0.00289819 0.000125461 6.43967e-05
0.000125461 -0.000243928 -1.12349e-05
6.43967e-05 -1.12349e-05 0.000140485
0.00571531 0.0016501 -0.000120238
0.0016501 -0.00355515 -4.68481e-05
-0.000120238 -4.68481e-05 0.000776717
0.00372997 0.000297143 0.000135032
0.000297143 -0.00219667 -1.21886e-05
0.000135032 -1.21886e-05 -0.000425119
0.0031859 -0.000126935 -3.51097e-07
-0.000126935 5.18603e-05 2.71123e-06
-3.51097e-07 2.71123e-06 0.000358366
0.00639905 -0.0010409 -9.69825e-05
-0.0010409 0.000243465 -3.44521e-05
-9.69825e-05 -3.44521e-05 0.00159128
0.00495038 -0.000797795 -0.000143608
-0.000797795 -0.00353892 -5.57517e-05
-0.000143608 -5.57517e-05 0.000227599
0.0191077 -0.0016038 6.50466e-05
-0.0016038 -0.0005631 -0.000151821
6.50466e-05 -0.000151821 0.000801789
0.0254848 0.011752 0.00270335
0.011752 0.0123859 2.41632e-05
0.00270335 2.41632e-05 0.00242448
0.0473553 0.0175553 0.000200568
0.0175553 0.0302939 0.000274624
0.000200568 0.000274624 0.0146531
-0.000152933 -9.63856e-05 6.14333e-06
-9.63856e-05 -0.000261961 4.55431e-07
6.14333e-06 4.55431e-07 -0.000412043
0.000555038 -3.47079e-05 2.27154e-06
-3.47079e-05 0.000185816 6.40861e-09
2.27154e-06 6.40861e-09 3.59845e-05
0.00082737 -0.00015464 -1.02609e-06
-0.00015464 0.000393247 4.30369e-06
-1.02609e-06 4.30369e-06 0.000214074
0.000563533 -0.000100008 6.03908e-06
-0.000100008 0.000189774 -8.85697e-07
6.03908e-06 -8.85697e-07 4.72e-05
0.000715724 0.00014138 -2.58878e-06
0.00014138 0.000383747 -6.20068e-06
-2.58878e-06 -6.20068e-06 0.000215913
0.000856009 0.000190593 5.99943e-07
0.000190593 0.000420803 1.82967e-06
5.99943e-07 1.82967e-06 0.00023229
0.00048067 2.22154e-05 4.28233e-06
2.22154e-05 0.000147907 -4.2347e-06
4.28233e-06 -4.2347e-06 -4.03958e-05
0.000463762 -1.18428e-05 -6.64459e-07
-1.18428e-05 0.000125907 5.83483e-07
-6.64459e-07 5.83483e-07 -3.78691e-05
0.00277749 -0.000457105 2.02833e-05
-0.000457105 -0.000419671 -5.44135e-06
2.02833e-05 -5.44135e-06 -1.32044e-05
0.00257822 -0.000885149 2.24458e-05
-0.000885149 -0.000426255 -9.85444e-06
2.24458e-05 -9.85444e-06 -0.000166138
0.00292717 -0.00130141 -7.14517e-07
-0.00130141 0.000193327 7.17234e-06
-7.14517e-07 7.17234e-06 -5.90737e-05
0.00275385 -0.00164749 8.55907e-06
-0.00164749 0.000849113 5.84968e-06
8.55907e-06 5.84968e-06 0.000104106
0.00327957 -0.00167471 -2.6631e-05
-0.00167471 0.000792899 1.62866e-05
-2.6631e-05 1.62866e-05 0.000134995
0.000486325 -0.00139478 2.33338e-05
-0.00139478 0.000308304 1.89972e-05
2.33338e-05 1.89972e-05 -0.000746685
0.00441214 -0.000993371 2.13416e-05
-0.000993371 0.00228409 2.55935e-06
2.13416e-05 2.55935e-06 0.0017407
0.00212803 -0.000497427 2.94779e-05
-0.000497427 0.00137888 -5.08785e-05
2.94779e-05 -5.08785e-05 0.000931389
0.000512177 -5.2925e-05 -5.08588e-07
-5.2925e-05 0.000132929 -8.30564e-07
-5.08588e-07 -8.30564e-07 -7.80722e-05
0.00124707 -0.000150692 1.8542e-05
-0.000150692 0.000690247 -4.09525e-05
1.8542e-05 -4.09525e-05 0.000346952
0.00031755 -0.000147957 5.20472e-07
-0.000147957 4.12749e-05 3.84665e-06
5.20472e-07 3.84665e-06 -0.000125413
-3.65952e-05 5.28201e-06 -2.00405e-05
5.28201e-06 -5.19595e-05 -5.67262e-06
-2.00405e-05 -5.67262e-06 -0.000147483
0.0029108 -0.000628566 1.54439e-06
-0.000628566 -0.000321743 5.43553e-06
1.54439e-06 5.43553e-06 0.000183954
0.000276184 -0.000105891 -7.87099e-06
-0.000105891 0.000193219 4.57214e-06
-7.87099e-06 4.57214e-06 -1.73994e-05
0.000992379 -0.000303945 -2.80384e-06
-0.000303945 0.000515338 1.15625e-06
-2.80384e-06 1.15625e-06 0.000216708
0.00227522 -0.00110376 9.82525e-06
-0.00110376 -0.000400284 -5.67734e-06
9.82525e-06 -5.67734e-06 -0.000224035
0.00316009 -0.00147434 5.00516e-07
-0.00147434 0.00074072 5.77033e-06
5.00516e-07 5.77033e-06 0.000192215
0.00209062 -0.00166116 4.4597e-06
-0.00166116 0.000305475 -1.48834e-05
4.4597e-06 -1.48834e-05 -0.000306257
0.000565973 -0.000409238 -4.73194e-06
-0.000409238 0.00046513 -2.50752e-05
-4.73194e-06 -2.50752e-05 -4.21717e-05
0.000663107 -0.000972571 1.69884e-05
-0.000972571 0.0009361 -9.73006e-07
1.69884e-05 -9.73006e-07 -5.90922e-05
0.00639915 -0.00158799 -6.06268e-05
-0.00158799 0.0012021 4.76955e-05
-6.06268e-05 4.76955e-05 0.00178125
0.00269213 -0.0015135 -3.76696e-05
-0.0015135 0.000385751 2.30849e-05
-3.76696e-05 2.30849e-05 -5.87135e-05
0.00399269 -0.00197307 2.23772e-06
-0.00197307 0.00127068 9.67459e-06
2.23772e-06 9.67459e-06 0.000581738
0.00130546 -0.00124597 -3.98731e-05
-0.00124597 0.000315275 1.68258e-05
-3.98731e-05 1.68258e-05 -3.16744e-05
0.000844824 -0.000240677 1.06866e-05
-0.000240677 0.000654111 -2.81489e-06
1.06866e-05 -2.81489e-06 0.000292022
-0.00111477 -3.09334e-05 1.15104e-05
-3.09334e-05 -0.000501814 1.89213e-05
1.15104e-05 1.89213e-05 -0.000889301
-0.000850199 -0.000327799 -1.20973e-05
-0.000327799 4.14686e-05 -2.10166e-05
-1.20973e-05 -2.10166e-05 -0.000747761
-0.0070598 -0.000903336 0.0016413
-0.000903336 0.000944331 -1.99643e-05
0.0016413 -1.99643e-05 -0.00567302
0.0143039 -0.000513043 -3.04897e-05
-0.000513043 -0.00246135 4.90623e-05
-3.04897e-05 4.90623e-05 -7.76088e-05
0.00194591 0.000496444 8.02578e-06
0.000496444 0.00127649 -1.61136e-05
8.02578e-06 -1.61136e-05 0.000880146
0.00249635 0.00105008 -5.69897e-06
0.00105008 0.00123073 8.21964e-06
-5.69897e-06 8.21964e-06 0.000542091
0.00164833 0.00113891 0.000139235
0.00113891 -0.00103362 6.82581e-05
0.000139235 6.82581e-05 -0.000584442
0.00403154 0.00165155 3.85516e-05
0.00165155 0.00129411 2.23732e-05
3.85516e-05 2.23732e-05 0.000671852
0.00297717 0.00147639 2.44855e-05
0.00147639 0.0011531 9.30905e-06
2.44855e-05 9.30905e-06 0.000323098
0.0203577 0.00112559 5.76613e-05
0.00112559 1.2665e-05 -0.000271832
5.76613e-05 -0.000271832 0.00212691
0.00851743 0.00507748 -0.000357809
0.00507748 -0.0040064 2.02203e-05
-0.000357809 2.02203e-05 0.000633795
0.00192045 0.00282705 -2.79864e-05
0.00282705 -0.000878936 -4.22319e-05
-2.79864e-05 -4.22319e-05 -0.000833615
0.0191634 -0.00949001 -0.00161919
-0.00949001 0.0108023 0.000451891
-0.00161919 0.000451891 0.00141583
0.0335233 -0.0263865 -0.00258653
-0.0263865 0.0252555 -0.0017362
-0.00258653 -0.0017362 0.00734358
0.000639462 0.000520764 8.54552e-06
0.000520764 0.000420057 -7.43476e-06
8.54552e-06 -7.43476e-06 -3.05351e-05
0.00375806 -0.00761958 0.00141439
-0.00761958 0.00169459 1.06796e-05
0.00141439 1.06796e-05 -0.00665798
0.00658207 -0.00920565 -0.00132235
-0.00920565 0.0171512 7.09047e-05
-0.00132235 7.09047e-05 0.00386657
0.00408464 0.00226058 -1.68672e-05
0.00226058 0.000569668 8.43804e-06
-1.68672e-05 8.43804e-06 0.000181464
0.00124529 0.00095836 -1.51129e-05
0.00095836 0.000416538 1.06178e-05
-1.51129e-05 1.06178e-05 -0.000242057
0.00312154 0.00163795 -3.53616e-06
0.00163795 0.00116556 -1.29061e-06
-3.53616e-06 -1.29061e-06 0.000360807
0.00229826 0.00280266 0.000103573
0.00280266 0.000270315 6.89629e-05
0.000103573 6.89629e-05 6.36311e-05
0.0138637 0.00722597 -0.000340101
0.00722597 -0.00507533 -0.0001341
-0.000340101 -0.0001341 -0.00207924
0.00348717 0.00614889 -8.11237e-05
0.00614889 -0.00174571 -0.000100934
-8.11237e-05 -0.000100934 0.000394279
0.0331785 -0.00993262 0.00110276
-0.00993262 0.0163936 -0.000333671
0.00110276 -0.000333671 0.0048818
0.0325035 -0.00710047 -0.000435588
-0.00710047 0.0132549 0.00107322
-0.000435588 0.00107322 0.00315261
0.00126764 0.000699891 -1.56184e-05
0.000699891 0.000730084 -1.52852e-05
-1.56184e-05 -1.52852e-05 0.000277685
-0.000784773 -0.000435343 0.000332498
-0.000435343 0.00862198 -0.000237898
0.000332498 -0.000237898 -0.00226579
0.0106197 0.00440095 -0.00117654
0.00440095 0.00788941 -0.000637274
-0.00117654 -0.000637274 0.00211539
0.00324755 0.00182449 -6.35672e-05
0.00182449 0.000628339 -3.73339e-05
-6.35672e-05 -3.73339e-05 0.000327641
0.00274007 0.00161275 -9.64335e-05
0.00161275 0.00122447 -4.23535e-05
-9.64335e-05 -4.23535e-05 0.000427153
0.00145054 0.00211251 -0.000128097
0.00211251 0.00114383 -5.83342e-05
-0.000128097 -5.83342e-05 0.000162583
-0.00211391 0.00470712 9.89397e-05
0.00470712 -0.000532336 -6.02285e-05
9.89397e-05 -6.02285e-05 -0.000704202
0.00594012 0.0104797 0.00132339
0.0104797 -0.00471021 0.000185689
0.00132339 0.000185689 -0.00335416
0.0337797 -0.0122544 -0.00128443
-0.0122544 0.0205457 0.00130519
-0.00128443 0.00130519 0.00725004
0.0101899 0.00126551 -0.000107335
0.00126551 -0.00135546 -0.000285619
-0.000107335 -0.000285619 -0.00347448
0.000616158 0.000288096 -8.80221e-06
0.000288096 0.000531198 4.51166e-06
-8.80221e-06 4.51166e-06 0.000252946
0.000900779 0.000416485 7.99091e-06
0.000416485 0.000703059 2.49787e-07
7.99091e-06 2.49787e-07 0.00034355
-9.14444e-05 0.000346725 2.0039e-06
0.000346725 0.00015451 -1.30705e-06
2.0039e-06 -1.30705e-06 -0.00022483
0.00035797 9.06076e-05 5.59409e-06
9.06076e-05 4.61321e-05 2.94119e-06
5.59409e-06 2.94119e-06 -0.00012785
0.00121641 0.000176076 1.6236e-06
0.000176076 0.000681829 2.54077e-06
1.6236e-06 2.54077e-06 0.000445456
0.000128154 3.90182e-05 1.81269e-06
3.90182e-05 8.26728e-06 1.57603e-06
1.81269e-06 1.57603e-06 -0.000227371
4.22664e-05 4.05741e-05 8.3231e-06
4.05741e-05 2.7359e-05 -4.91769e-06
8.3231e-06 -4.91769e-06 -0.000225873
9.06816e-05 7.8685e-05 -5.26642e-06
7.8685e-05 0.000136168 3.64028e-06
-5.26642e-06 3.64028e-06 -0.000108443
0.000800023 8.4318e-05 -9.74125e-07
8.4318e-05 0.000388439 -1.30994e-06
-9.74125e-07 -1.30994e-06 0.000164909
0.000352836 5.23881e-05 1.60243e-06
5.23881e-05 0.000232318 -3.06944e-06
1.60243e-06 -3.06944e-06 -1.07686e-05
0.000705818 -1.93615e-06 2.88968e-08
-1.93615e-06 0.000387716 3.25698e-06
2.88968e-08 3.25698e-06 0.000140264
-0.000294768 7.90883e-05 -2.29277e-06
7.90883e-05 0.000103832 -8.49965e-07
-2.29277e-06 -8.49965e-07 -0.000304716
-0.000246006 4.69589e-05 2.89165e-06
4.69589e-05 0.000305402 -1.64448e-06
2.89165e-06 -1.64448e-06 -0.000252739
-0.000105381 -5.15431e-05 9.33642e-07
-5.15431e-05 6.74866e-05 2.9282e-06
9.33642e-07 2.9282e-06 -0.000272203
0.00173887 -9.69579e-05 -1.01472e-05
-9.69579e-05 0.00111869 -3.43168e-06
-1.01472e-05 -3.43168e-06 0.000827293
0.00129129 -0.000196354 -3.10615e-06
-0.000196354 0.000747891 -2.62652e-06
-3.10615e-06 -2.62652e-06 0.000504746
0.00131299 -0.000242658 -1.1743e-05
-0.000242658 0.000747848 3.28328e-06
-1.1743e-05 3.28328e-06 0.000583377
0.000390989 -0.000115434 1.35198e-06
-0.000115434 0.000163232 1.02904e-06
1.35198e-06 1.02904e-06 -1.08333e-05
0.00111054 -0.000376024 1.24411e-06
-0.000376024 0.000501682 -2.60004e-06
1.24411e-06 -2.60004e-06 0.000365497
-0.000497268 -3.35814e-05 -7.39713e-06
-3.35814e-05 -0.000245877 9.79821e-06
-7.39713e-06 9.79821e-06 -0.000404602
-0.000762977 -0.000118982 1.27097e-05
-0.000118982 -0.000639376 -1.298e-05
1.27097e-05 -1.298e-05 -0.000812223
-0.00109331 -6.62951e-06 -1.84029e-05
-6.62951e-06 -0.000604993 7.56625e-06
-1.84029e-05 7.56625e-06 -0.000863311
0.00190052 -0.000293321 5.27255e-06
-0.000293321 0.00116226 -2.38287e-06
5.27255e-06 -2.38287e-06 0.00102582
0.00196631 -4.42626e-05 1.18693e-05
-4.42626e-05 0.00101008 -1.80591e-05
1.18693e-05 -1.80591e-05 0.000719668
0.00407826 -0.000793778 -3.19692e-06
-0.000793778 0.00218863 7.13683e-06
-3.19692e-06 7.13683e-06 0.00177501
-0.00244009 -0.000318746 2.65657e-06
-0.000318746 -0.00153758 2.92632e-06
2.65657e-06 2.92632e-06 -0.001911
3.41469e-05 1.59976e-05 1.38949e-06
1.59976e-05 1.9751e-05 -7.38061e-07
1.38949e-06 -7.38061e-07 -0.000290048
-0.00135549 1.30408e-05 1.27624e-05
1.30408e-05 -0.000904471 -1.61112e-05
1.27624e-05 -1.61112e-05 -0.0012106
0.000939414 -0.000228894 -4.02868e-06
-0.000228894 0.000559961 -1.79755e-06
-4.02868e-06 -1.79755e-06 0.000311981
0.00107971 -9.07256e-05 8.64497e-06
-9.07256e-05 0.000574147 7.22849e-06
8.64497e-06 7.22849e-06 0.000347555
0.00139718 -0.000170974 2.27172e-06
-0.000170974 0.000852465 2.83308e-06
2.27172e-06 2.83308e-06 0.000592403
0.000357521 -6.34519e-05 -1.9225e-06
-6.34519e-05 9.13383e-05 4.56243e-07
-1.9225e-06 4.56243e-07 -9.66475e-05
-3.77733e-05 5.07862e-05 5.43794e-06
5.07862e-05 -0.00024338 6.83371e-08
5.43794e-06 6.83371e-08 -0.000349646
0.000889762 -0.000175582 8.46235e-07
-0.000175582 0.000416732 5.72018e-06
8.46235e-07 5.72018e-06 0.000230993
0.000325954 -5.18972e-05 -1.13746e-06
-5.18972e-05 -3.07113e-05 6.04676e-08
-1.13746e-06 6.04676e-08 -0.000121699
0.00129695 4.15473e-05 -8.85361e-06
4.15473e-05 0.000583903 8.10704e-06
-8.85361e-06 8.10704e-06 0.000557351
0.00046236 -9.83843e-05 2.00436e-06
-9.83843e-05 6.77722e-05 -1.81512e-06
2.00436e-06 -1.81512e-06 -3.24475e-05
0.000828932 -2.98027e-05 -1.35039e-05
-2.98027e-05 0.000281673 1.05208e-06
-1.35039e-05 1.05208e-06 0.00025203
0.000645167 7.82753e-06 2.27211e-06
7.82753e-06 0.000133472 1.761e-06
2.27211e-06 1.761e-06 0.000137078
0.00037698 -5.55746e-05 5.83879e-06
-5.55746e-05 -1.23596e-05 -5.31964e-06
5.83879e-06 -5.31964e-06 -4.59123e-05
0.00260708 5.44118e-07 6.46092e-06
5.44118e-07 0.00143818 -2.06726e-09
6.46092e-06 -2.06726e-09 0.00144962
0.00267068 -9.25532e-06 1.80605e-05
-9.25532e-06 0.00148218 -5.54573e-06
1.80605e-05 -5.54573e-06 0.00149229
0.00111167 8.37219e-05 -9.09731e-07
8.37219e-05 0.000547562 -4.94351e-06
-9.09731e-07 -4.94351e-06 0.000383012
0.00043739 8.6191e-05 -5.9127e-07
8.6191e-05 6.16626e-05 -6.80759e-06
-5.9127e-07 -6.80759e-06 -2.72797e-05
0.000509344 -2.26904e-05 -8.34752e-07
-2.26904e-05 0.000151302 9.41533e-07
-8.34752e-07 9.41533e-07 -4.16058e-06
0.000361641 1.68981e-05 1.26176e-06
1.68981e-05 -4.54173e-05 -5.40474e-06
1.26176e-06 -5.40474e-06 -6.75722e-05
0.000400552 -1.76564e-05 2.47773e-06
-1.76564e-05 2.5152e-05 -2.50798e-07
2.47773e-06 -2.50798e-07 -5.41348e-05
0.000448405 -8.84672e-05 -3.90476e-06
-8.84672e-05 6.37561e-05 5.22616e-06
-3.90476e-06 5.22616e-06 -2.54429e-05
0.000384824 -5.85634e-06 -4.83678e-07
-5.85634e-06 -2.9585e-05 1.51151e-07
-4.83678e-07 1.51151e-07 -5.38384e-05
0.00235334 3.33342e-05 -7.38972e-06
3.33342e-05 0.00126941 -6.14338e-06
-7.38972e-06 -6.14338e-06 0.00128062
0.00144278 1.98288e-05 -7.88685e-07
1.98288e-05 0.000670166 4.91662e-06
-7.88685e-07 4.91662e-06 0.000643354
0.00161222 3.87279e-05 -6.92713e-06
3.87279e-05 0.000781616 7.52449e-08
-6.92713e-06 7.52449e-08 0.00078374
0.000760326 4.66426e-05 7.49944e-06
4.66426e-05 0.00022909 1.32593e-05
7.49944e-06 1.32593e-05 0.000220125
-0.000561704 0.00525592 0.00165443
0.00525592 0.00240394 -6.03512e-05
0.00165443 -6.03512e-05 -0.00622154
0.00792723 0.0062816 0.00316764
0.0062816 0.014906 -3.59794e-05
0.00316764 -3.59794e-05 0.00335529
0.00171732 0.00173944 -6.34804e-05
0.00173944 -0.00524048 -8.97134e-05
-6.34804e-05 -8.97134e-05 -0.000432518
0.00336502 2.28577e-05 0.000102711
2.28577e-05 -0.00261146 5.56029e-06
0.000102711 5.56029e-06 -0.000653949
0.00328497 -0.000144948 4.54444e-05
-0.000144948 8.78836e-05 -3.75812e-06
4.54444e-05 -3.75812e-06 0.00038501
0.00275545 8.86934e-05 -7.04229e-05
8.86934e-05 -0.00274404 -3.93939e-05
-7.04229e-05 -3.93939e-05 0.000480628
0.00491408 -0.00096278 2.44825e-05
-0.00096278 -0.000406422 1.17233e-06
2.44825e-05 1.17233e-06 0.000723366
0.0130275 -0.00134321 0.000446149
-0.00134321 -0.00459561 -0.000172266
0.000446149 -0.000172266 -0.00350072
0.0107473 0.00769727 -6.87684e-05
0.00769727 0.00462445 -0.000114548
-6.87684e-05 -0.000114548 -0.00270403
0.0417066 0.0217304 -0.000782261
0.0217304 0.028082 0.000290925
-0.000782261 0.000290925 0.0115219
0.00397461 -0.0023668 -9.81476e-05
-0.0023668 -0.00400282 -2.12601e-05
-9.81476e-05 -2.12601e-05 -0.000123857
0.0141041 -0.00624271 0.000590246
-0.00624271 -0.00402328 -9.4536e-05
0.000590246 -9.4536e-05 -0.0023563
0.0293295 0.0104388 0.000363468
0.0104388 0.0143933 -0.000496023
0.000363468 -0.000496023 0.00277495
0.0357522 0.00688852 -0.000525566
0.00688852 0.01661 0.000464267
-0.000525566 0.000464267 0.00795035
0.00199371 0.000209394 -4.84545e-06
0.000209394 0.00127685 -1.58041e-07
-4.84545e-06 -1.58041e-07 0.000995442
0.000427389 4.45405e-05 1.38889e-06
4.45405e-05 9.91241e-05 -7.87e-07
1.38889e-06 -7.87e-07 -5.18968e-05
0.000528859 -0.000135355 2.04735e-06
-0.000135355 0.000178675 2.43437e-06
2.04735e-06 2.43437e-06 2.28556e-05
0.00020372 -6.26136e-06 4.80848e-06
-6.26136e-06 -4.09707e-05 -2.05017e-06
4.80848e-06 -2.05017e-06 -0.000180345
0.000308232 8.21984e-05 4.59659e-06
8.21984e-05 0.000103717 -7.39937e-07
4.59659e-06 -7.39937e-07 -2.54651e-05
0.000620374 0.000133608 1.02426e-06
0.000133608 0.000264922 1.59482e-06
1.02426e-06 1.59482e-06 3.92561e-05
0.000442617 7.58473e-05 -2.20149e-06
7.58473e-05 0.000156752 6.7345e-07
-2.20149e-06 6.7345e-07 -2.30709e-05
0.000592425 0.000132919 6.3915e-06
0.000132919 0.000208662 8.60062e-07
6.3915e-06 8.60062e-07 -1.09135e-05
0.000560251 1.6454e-05 1.03485e-06
1.6454e-05 0.000212303 -8.20806e-07
1.03485e-06 -8.20806e-07 1.32839e-05
0.000217961 -2.94775e-05 5.36197e-08
-2.94775e-05 -4.57633e-05 1.52982e-06
5.36197e-08 1.52982e-06 -0.000190733
0.00164663 -0.000545539 6.59608e-05
-0.000545539 -0.00118075 -2.72418e-05
6.59608e-05 -2.72418e-05 -0.000502028
0.00171069 -0.00103437 2.798e-05
-0.00103437 -0.000691558 -1.73538e-05
2.798e-05 -1.73538e-05 -0.000479056
0.00231185 -0.00134724 4.15358e-06
-0.00134724 0.00024965 9.00784e-06
4.15358e-06 9.00784e-06 -0.000223574
0.00040645 -0.00135978 -7.43524e-06
-0.00135978 -0.000617982 -3.7838e-07
-7.43524e-06 -3.7838e-07 -0.00115324
0.00255728 -0.0010241 -3.63412e-06
-0.0010241 0.00193786 5.92316e-05
-3.63412e-06 5.92316e-05 0.00103607
-0.00061168 -0.00068471 -1.38939e-05
-0.00068471 -0.000189833 -2.27096e-05
-1.38939e-05 -2.27096e-05 -0.000898065
0.000939251 -0.000323036 1.59999e-05
-0.000323036 0.000520179 -2.03389e-05
1.59999e-05 -2.03389e-05 0.000259858
0.000242265 -6.00396e-05 -3.28767e-06
-6.00396e-05 0.000125895 2.64212e-06
-3.28767e-06 2.64212e-06 -5.8801e-05
0.00350897 -0.00127441 9.94269e-06
-0.00127441 -0.000517493 -1.08704e-05
9.94269e-06 -1.08704e-05 0.000293226
0.000606776 -0.000113097 -5.04871e-07
-0.000113097 0.000497823 2.11894e-06
-5.04871e-07 2.11894e-06 0.000131572
-0.000258876 -0.000220525 -1.38879e-05
-0.000220525 4.47618e-05 1.64238e-06
-1.38879e-05 1.64238e-06 -0.000343295
0.00194437 -0.0013447 2.18527e-05
-0.0013447 -4.88631e-05 -1.41213e-06
2.18527e-05 -1.41213e-06 -0.000327838
0.00287917 -0.00174399 -9.46396e-07
-0.00174399 0.000707979 -6.89169e-06
-9.46396e-07 -6.89169e-06 7.39755e-05
0.000473703 -0.00111976 2.16987e-05
-0.00111976 -0.000117014 -1.62772e-05
2.16987e-05 -1.62772e-05 -0.00049176
0.00107819 -0.000595235 3.15395e-05
-0.000595235 0.00116262 -3.39637e-05
3.15395e-05 -3.39637e-05 0.000432504
0.00193124 -0.0020513 -3.67422e-05
-0.0020513 -0.00113038 5.07911e-05
-3.67422e-05 5.07911e-05 -0.000741261
0.00246701 -0.00152893 -4.38767e-05
-0.00152893 0.000711961 3.38938e-05
-4.38767e-05 3.38938e-05 0.000199208
-0.000245241 -0.000612919 -6.29847e-05
-0.000612919 0.000180827 2.20189e-05
-6.29847e-05 2.20189e-05 -0.000343171
0.00108564 0.000129755 -5.78542e-07
0.000129755 0.000743259 -1.77156e-06
-5.78542e-07 -1.77156e-06 0.000407321
-0.000889063 5.93129e-06 -4.81304e-06
5.93129e-06 -0.000296612 1.84702e-05
-4.81304e-06 1.84702e-05 -0.000754385
-0.0003673 -4.79256e-05 8.05539e-06
-4.79256e-05 5.44782e-05 8.31968e-06
8.05539e-06 8.31968e-06 -0.000360175
-0.0026628 0.0016977 -0.000828709
0.0016977 0.00889915 -2.52272e-05
-0.000828709 -2.52272e-05 0.000766302
0.000394373 -0.00262961 -1.04834e-05
-0.00262961 0.00610309 -8.03142e-05
-1.04834e-05 -8.03142e-05 0.00133947
0.0081063 0.000231562 -0.000104008
0.000231562 -0.0075266 -2.82361e-05
-0.000104008 -2.82361e-05 -0.00760622
0.00123728 0.000599783 1.68142e-05
0.000599783 0.000839315 -1.10728e-05
1.68142e-05 -1.10728e-05 0.000365044
0.00209229 0.00114422 2.38579e-05
0.00114422 0.000966447 3.26154e-05
2.38579e-05 3.26154e-05 0.000222351
0.00384865 0.00197385 0.000109064
0.00197385 0.000398114 5.55642e-05
0.000109064 5.55642e-05 0.000147111
0.00318362 0.00172842 4.35865e-05
0.00172842 0.001215 3.9996e-05
4.35865e-05 3.9996e-05 0.00036262
0.0188757 -0.00903189 0.000343107
-0.00903189 0.0128055 0.000143795
0.000343107 0.000143795 0.00300722
0.00252602 0.00546403 -0.000939268
0.00546403 -0.0118454 -0.000165588
-0.000939268 -0.000165588 -0.00938203
0.0065811 0.00662188 -2.76353e-05
0.00662188 -0.000644719 2.87652e-05
-2.76353e-05 2.87652e-05 0.00131333
0.00424759 0.00278469 0.000121512
0.00278469 0.00157734 3.08383e-05
0.000121512 3.08383e-05 0.00130356
0.0239341 -0.00677107 -0.000733997
-0.00677107 0.0110413 -0.000186258
-0.000733997 -0.000186258 0.00102531
0.00687916 -0.0101188 -0.00208259
-0.0101188 0.01853 -4.93434e-05
-0.00208259 -4.93434e-05 0.00595337
0.045041 -0.0120507 0.00189167
-0.0120507 0.0177574 0.000489714
0.00189167 0.000489714 0.00558173
0.000697072 0.000647523 1.62716e-05
0.000647523 0.000431292 -4.4477e-06
1.62716e-05 -4.4477e-06 -3.52993e-05
0.00169419 -0.0021808 -4.84903e-05
-0.0021808 0.0112939 8.15371e-06
-4.84903e-05 8.15371e-06 0.000612553
0.0103546 0.00481799 -0.000347312
0.00481799 0.0053775 -0.000211399
-0.000347312 -0.000211399 -0.00152742
0.00293723 0.00196741 1.33482e-05
0.00196741 0.000621808 5.18464e-06
1.33482e-05 5.18464e-06 0.000171415
0.00141046 0.00135325 6.67071e-06
0.00135325 0.000620978 7.74806e-06
6.67071e-06 7.74806e-06 -0.00014361
0.000504718 0.00210848 -0.000164342
0.00210848 0.000581049 -0.000111296
-0.000164342 -0.000111296 -0.000196065
0.00409399 0.00703038 0.000110044
0.00703038 0.000889576 5.90976e-05
0.000110044 5.90976e-05 0.000740451
0.0119098 0.0109774 -3.83116e-05
0.0109774 -0.00104585 -1.58488e-05
-3.83116e-05 -1.58488e-05 -0.00167144
0.0166565 -0.00719266 8.14665e-05
-0.00719266 0.0137927 -0.000190755
8.14665e-05 -0.000190755 0.00130095
0.02076 -0.00240181 -0.00015628
-0.00240181 0.00426311 -3.4861e-05
-0.00015628 -3.4861e-05 0.00237741
0.00145999 0.00119946 -1.61068e-05
0.00119946 0.000867437 -1.41395e-05
-1.61068e-05 -1.41395e-05 0.000194602
0.00177344 0.00126153 -0.000757803
0.00126153 0.00452057 -0.000204435
-0.000757803 -0.000204435 -0.00296292
0.00443548 0.0016335 -9.79878e-05
0.0016335 0.00148504 -0.000213522
-9.79878e-05 -0.000213522 -0.0024389
-0.00106892 0.000797341 -4.14127e-06
0.000797341 -3.72301e-05 -3.34117e-05
-4.14127e-06 -3.34117e-05 -0.000625809
-0.0026874 0.00208659 -9.91558e-05
0.00208659 0.000823254 4.41855e-05
-9.91558e-05 4.41855e-05 -0.000248791
0.00739333 0.00948168 0.000465554
0.00948168 0.00420223 5.45382e-05
0.000465554 5.45382e-05 -0.00150535
0.0132752 -0.00663941 3.54561e-05
-0.00663941 0.00487655 0.000224835
3.54561e-05 0.000224835 -0.00490434
0.0197325 -0.00112372 0.000124093
-0.00112372 0.00067142 -0.000343621
0.000124093 -0.000343621 0.000537945
0.000366627 0.0003447 -4.68058e-06
0.0003447 0.000358083 2.05431e-05
-4.68058e-06 2.05431e-05 4.36839e-05
0.000822366 0.000436747 -2.40091e-06
0.000436747 0.000722308 -5.18767e-06
-2.40091e-06 -5.18767e-06 0.000313387
0.000353374 0.000400195 6.57272e-06
0.000400195 0.000595103 -4.39895e-06
6.57272e-06 -4.39895e-06 5.32526e-05
0.0006438 0.000127306 2.01636e-06
0.000127306 0.000262235 4.37653e-06
2.01636e-06 4.37653e-06 5.75779e-05
0.00144382 -2.84664e-05 6.09327e-08
-2.84664e-05 0.000883238 4.47291e-06
6.09327e-08 4.47291e-06 0.000623861
-2.7297e-06 5.37159e-05 3.95008e-06
5.37159e-05 1.14303e-05 -5.06775e-06
3.95008e-06 -5.06775e-06 -0.000245608
7.10169e-05 0.000133337 -7.14675e-08
0.000133337 0.000329817 1.89552e-06
-7.14675e-08 1.89552e-06 -7.1885e-05
0.000540378 -2.36855e-05 3.66351e-06
-2.36855e-05 0.000268761 1.2206e-06
3.66351e-06 1.2206e-06 3.22771e-05
0.00034374 -5.85158e-06 5.54714e-08
-5.85158e-06 0.000332375 -4.22591e-06
5.54714e-08 -4.22591e-06 1.05125e-05
0.00011307 6.82456e-05 -6.5325e-07
6.82456e-05 0.00054102 7.74693e-07
-6.5325e-07 7.74693e-07 -3.9817e-05
-0.000224313 0.000115836 -5.01574e-07
0.000115836 0.000460703 2.66408e-06
-5.01574e-07 2.66408e-06 -0.000175219
0.000724843 -8.02627e-05 7.21842e-06
-8.02627e-05 0.000896015 -1.07165e-05
7.21842e-06 -1.07165e-05 0.000357149
0.00093087 -4.02784e-05 -1.77125e-05
-4.02784e-05 0.000716992 3.98734e-06
-1.77125e-05 3.98734e-06 0.000383339
0.00172221 -0.000253388 4.56508e-06
-0.000253388 0.00105788 4.82304e-06
4.56508e-06 4.82304e-06 0.000851618
-0.000376286 -0.00041063 -7.75841e-06
-0.00041063 -0.000479002 -5.52437e-06
-7.75841e-06 -5.52437e-06 -0.000605028
-0.000441798 -5.19617e-05 2.45876e-05
-5.19617e-05 -0.000167497 -1.51804e-07
2.45876e-05 -1.51804e-07 -0.000311295
-0.000163977 -4.3029e-06 2.92137e-06
-4.3029e-06 8.34125e-06 1.25998e-06
2.92137e-06 1.25998e-06 -0.000258808
0.000233611 -0.000158961 -1.9568e-06
-0.000158961 -4.74421e-05 4.97539e-06
-1.9568e-06 4.97539e-06 -0.000192639
-0.000149023 -0.000223449 -1.08086e-05
-0.000223449 -9.51384e-05 -1.96386e-06
-1.08086e-05 -1.96386e-06 -0.000223918
0.00393707 -0.000321552 1.3867e-05
-0.000321552 0.00232157 5.85585e-06
1.3867e-05 5.85585e-06 0.00200252
0.00161988 -0.000173433 3.14059e-06
-0.000173433 0.00130629 7.3193e-06
3.14059e-06 7.3193e-06 0.000968052
0.00110467 -0.000574816 -1.1058e-05
-0.000574816 0.000481604 7.84965e-06
-1.1058e-05 7.84965e-06 2.94395e-05
0.00163902 -0.000200431 -2.2827e-05
-0.000200431 0.000792787 2.25182e-06
-2.2827e-05 2.25182e-06 0.000513377
0.000824102 -0.000452587 2.28628e-05
-0.000452587 0.000174106 1.99277e-06
2.28628e-05 1.99277e-06 -0.000149379
0.00207454 -0.000960905 -1.77411e-05
-0.000960905 0.000901 2.04317e-05
-1.77411e-05 2.04317e-05 0.000297043
0.00237824 -0.00037255 1.9671e-05
-0.00037255 0.00112362 -7.82946e-06
1.9671e-05 -7.82946e-06 0.000856699
0.00239763 -0.00060965 8.91268e-07
-0.00060965 0.00115957 -8.42054e-06
8.91268e-07 -8.42054e-06 0.00080721
0.000358973 -0.000313353 8.02176e-07
-0.000313353 0.000168665 -2.19377e-06
8.02176e-07 -2.19377e-06 -0.000175377
-0.00258058 -0.000248498 8.39448e-06
-0.000248498 -0.00163219 -1.19868e-05
8.39448e-06 -1.19868e-05 -0.00205882
0.0014926 -3.99948e-05 1.03075e-06
-3.99948e-05 0.000961362 2.82017e-06
1.03075e-06 2.82017e-06 0.000652035
0.000719625 -0.000363569 5.95614e-06
-0.000363569 0.000369076 -2.23558e-06
5.95614e-06 -2.23558e-06 6.70784e-05
0.000686714 -0.000127196 1.38899e-05
-0.000127196 0.000274823 5.55898e-06
1.38899e-05 5.55898e-06 1.34736e-05
0.00183978 -0.000518133 -9.58832e-06
-0.000518133 0.00114785 1.10758e-05
-9.58832e-06 1.10758e-05 0.000868522
0.000195933 -0.000193944 -5.23424e-08
-0.000193944 5.20801e-05 -7.34542e-07
-5.23424e-08 -7.34542e-07 -0.000209105
-4.04512e-05 -4.33802e-05 5.90763e-06
-4.33802e-05 -0.000239156 5.15772e-06
5.90763e-06 5.15772e-06 -0.000382343
0.00155217 -0.00026853 -3.42929e-06
-0.00026853 0.0009187 5.55807e-06
-3.42929e-06 5.55807e-06 0.00069326
0.000737852 -0.000112559 7.58222e-08
-0.000112559 0.000266355 5.89567e-07
7.58222e-08 5.89567e-07 0.000148923
0.00150486 -6.32116e-06 -1.74542e-05
-6.32116e-06 0.000718316 8.57752e-06
-1.74542e-05 8.57752e-06 0.000682604
0.000459289 -0.00010482 -1.88478e-07
-0.00010482 8.3609e-05 -1.1677e-06
-1.88478e-07 -1.1677e-06 -2.25059e-05
0.000800024 -1.99267e-05 -1.62358e-05
-1.99267e-05 0.000258007 7.7911e-07
-1.62358e-05 7.7911e-07 0.00022587
0.000771758 1.70479e-05 3.46891e-06
1.70479e-05 0.000214984 3.1431e-06
3.46891e-06 3.1431e-06 0.000215457
0.000378942 -5.84835e-05 4.86258e-06
-5.84835e-05 -1.74168e-05 -5.3957e-06
4.86258e-06 -5.3957e-06 -4.9646e-05
0.00161036 1.07538e-05 1.86432e-05
1.07538e-05 0.000774635 -1.89971e-06
1.86432e-05 -1.89971e-06 0.000783137
0.00254924 -3.30877e-06 2.66638e-05
-3.30877e-06 0.00139902 -5.4562e-06
2.66638e-05 -5.4562e-06 0.00141131
0.000154568 0.000108494 1.34992e-06
0.000108494 -0.000129256 -5.6435e-06
1.34992e-06 -5.6435e-06 -0.000278503
0.000531254 8.91901e-05 5.34012e-07
8.91901e-05 0.000121874 -7.35468e-06
5.34012e-07 -7.35468e-06 2.60398e-05
0.00045773 2.50871e-05 1.05631e-06
2.50871e-05 0.000105103 7.29274e-07
1.05631e-06 7.29274e-07 -4.73726e-05
0.000372356 1.40718e-05 3.10189e-06
1.40718e-05 -3.94159e-05 -6.2606e-06
3.10189e-06 -6.2606e-06 -6.28923e-05
0.000408033 7.26047e-05 4.04937e-07
7.26047e-05 3.31904e-05 2.38798e-08
4.04937e-07 2.38798e-08 -4.93785e-05
0.000340318 -0.000121533 -4.16417e-06
-0.000121533 2.00126e-05 6.12233e-06
-4.16417e-06 6.12233e-06 -0.000120325
0.00232119 1.68852e-05 -1.26558e-05
1.68852e-05 0.00124615 -6.28245e-06
-1.26558e-05 -6.28245e-06 0.00125893
0.000374929 1.09762e-05 -4.77404e-07
1.09762e-05 -3.63154e-05 -1.78061e-08
-4.77404e-07 -1.78061e-08 -5.84181e-05
0.000499106 -1.85957e-06 -3.00805e-06
-1.85957e-06 7.75861e-05 4.72232e-06
-3.00805e-06 4.72232e-06 6.17187e-06
0.000409937 -9.71481e-06 -3.23805e-06
-9.71481e-06 -1.43518e-05 5.64813e-06
-3.23805e-06 5.64813e-06 -3.8746e-05
0.00241958 3.49456e-05 -6.73703e-06
3.49456e-05 0.00131373 -2.04687e-07
-6.73703e-06 -2.04687e-07 0.00132422
0.00262175 5.69482e-05 4.89369e-06
5.69482e-05 0.00145146 7.24829e-06
4.89369e-06 7.24829e-06 0.00145772
0.00277256 -0.00123834 -0.000499281
-0.00123834 0.0122176 7.31411e-05
-0.000499281 7.31411e-05 0.0049101
0.00753192 0.00593876 -0.000550698
0.00593876 0.00556744 0.00018886
-0.000550698 0.00018886 -0.00265521
0.00661286 -0.00244277 -0.000545265
-0.00244277 0.00252782 0.000357249
-0.000545265 0.000357249 -0.00308776
0.0131209 0.00712595 0.00171997
0.00712595 0.0149266 -6.72721e-05
0.00171997 -6.72721e-05 0.00295014
0.00537766 0.000969987 5.7126e-05
0.000969987 -0.00190691 8.51558e-06
5.7126e-05 8.51558e-06 0.000878744
0.00298359 -0.000955462 0.000126009
-0.000955462 -0.00138599 3.66001e-06
0.000126009 3.66001e-06 -0.000397518
0.00321024 -0.00102238 0.000653781
-0.00102238 -0.0112877 -2.45263e-05
0.000653781 -2.45263e-05 -0.00882207
0.0237183 0.00820624 -0.00260846
0.00820624 0.0151218 -0.00030158
-0.00260846 -0.00030158 0.00590744
0.0338467 0.025779 -0.00273284
0.025779 0.0238636 0.0017519
-0.00273284 0.0017519 0.00659957
0.00576709 -0.00171699 8.9269e-05
-0.00171699 -0.00256617 -4.29576e-06
8.9269e-05 -4.29576e-06 0.000280475
0.00863932 -0.00657826 0.000392873
-0.00657826 -0.00770583 -0.000238644
0.000392873 -0.000238644 -0.00573854
0.0322606 0.0103646 -0.000651913
0.0103646 0.01597 -0.000369635
-0.000651913 -0.000369635 0.00395138
0.0268046 0.00636874 0.000501822
0.00636874 0.0128687 0.000604224
0.000501822 0.000604224 0.0044141
0.00281587 -0.00397929 -0.000106807
-0.00397929 -0.00485734 0.000128836
-0.000106807 0.000128836 -0.00116159
0.00116862 -0.00965311 0.00119476
-0.00965311 -0.00421601 -0.000303302
0.00119476 -0.000303302 -0.00444533
0.0183569 0.0045519 -0.000728304
0.0045519 0.00963193 -0.00139592
-0.000728304 -0.00139592 -0.00124475
0.0122448 -0.00140885 -0.00041056
-0.00140885 0.00194843 5.09369e-05
-0.00041056 5.09369e-05 -0.000673109
0.00154549 -2.88605e-05 9.69278e-07
-2.88605e-05 0.000949373 1.27319e-05
9.69278e-07 1.27319e-05 0.000636933
0.00014121 1.58435e-05 -3.00813e-07
1.58435e-05 -2.07108e-05 -7.34825e-07
-3.00813e-07 -7.34825e-07 -0.000206818
0.000610089 0.000139421 -1.6442e-07
0.000139421 0.000214937 1.13889e-06
-1.6442e-07 1.13889e-06 6.63229e-05
-0.000512803 -0.000111594 -1.12186e-05
-0.000111594 -0.000523135 -1.38341e-07
-1.12186e-05 -1.38341e-07 -0.000559287
8.74224e-05 0.000156573 4.3622e-06
0.000156573 -0.000129454 1.6566e-05
4.3622e-06 1.6566e-05 -0.000346
0.000507776 9.84124e-05 -1.00697e-06
9.84124e-05 0.000205991 -1.11161e-06
-1.00697e-06 -1.11161e-06 -1.7289e-05
-0.000162154 -4.48921e-05 6.74206e-07
-4.48921e-05 -0.000249846 2.10468e-06
6.74206e-07 2.10468e-06 -0.000409662
0.000854466 0.000211902 9.81304e-06
0.000211902 0.000423997 7.52283e-06
9.81304e-06 7.52283e-06 0.00016466
0.000952758 0.000227702 -3.71649e-07
0.000227702 0.000492556 -2.24556e-06
-3.71649e-07 -2.24556e-06 0.000238055
0.000473775 5.73465e-05 -4.03097e-06
5.73465e-05 0.000153513 1.54351e-06
-4.03097e-06 1.54351e-06 -4.62025e-05
0.00199271 -0.0011516 0.000149237
-0.0011516 -0.00139186 -8.95388e-05
0.000149237 -8.95388e-05 -0.000522811
0.00103367 -0.00120468 -2.1017e-06
-0.00120468 -0.000614747 -1.49453e-05
-2.1017e-06 -1.49453e-05 -0.000735806
0.00229669 -0.00160666 9.45377e-06
-0.00160666 0.00044162 1.2635e-05
9.45377e-06 1.2635e-05 -0.000158942
-0.00036086 -0.00104398 1.05454e-05
-0.00104398 -0.000593425 -5.81816e-06
1.05454e-05 -5.81816e-06 -0.000975594
0.00345379 -0.000782531 -7.63277e-05
-0.000782531 0.00244307 7.77717e-05
-7.63277e-05 7.77717e-05 0.00190401
0.000944855 -0.000334552 -4.41766e-07
-0.000334552 0.000818353 -1.68175e-05
-4.41766e-07 -1.68175e-05 0.000394843
0.00121486 5.86542e-05 -6.68167e-07
5.86542e-05 0.000871263 -9.52128e-06
-6.68167e-07 -9.52128e-06 0.000492421
0.00085603 5.24867e-05 -7.14679e-06
5.24867e-05 0.000551573 -3.57696e-07
-7.14679e-06 -3.57696e-07 0.000231875
0.0034836 -0.00211634 -3.57331e-05
-0.00211634 -0.000262748 5.24329e-06
-3.57331e-05 5.24329e-06 0.000215554
0.000948352 -8.9117e-05 -2.25294e-06
-8.9117e-05 0.000781627 6.86474e-06
-2.25294e-06 6.86474e-06 0.000361165
0.00122445 -0.000350436 1.21478e-05
-0.000350436 0.000984721 -7.2065e-06
1.21478e-05 -7.2065e-06 0.000547136
0.00142705 -0.0014064 1.7063e-05
-0.0014064 0.00010249 -3.4111e-06
1.7063e-05 -3.4111e-06 -0.000340984
0.000221821 -0.000668928 -1.17574e-05
-0.000668928 0.000293827 6.02574e-06
-1.17574e-05 6.02574e-06 -0.000131922
0.00235975 -0.00314768 2.33417e-05
-0.00314768 0.000284712 -4.6241e-06
2.33417e-05 -4.6241e-06 -0.000481622
0.000233392 -0.000982414 -8.88028e-06
-0.000982414 0.000394377 1.57772e-05
-8.88028e-06 1.57772e-05 -0.000112617
-0.00113601 -0.000198909 1.05285e-07
-0.000198909 -5.53463e-05 -3.66237e-06
1.05285e-07 -3.66237e-06 -0.000720691
0.000613128 0.000148952 1.15248e-05
0.000148952 0.000469562 -3.53712e-06
1.15248e-05 -3.53712e-06 0.000224621
-0.000489447 -0.000193239 -9.44244e-06
-0.000193239 -2.66457e-06 3.18965e-05
-9.44244e-06 3.18965e-05 -0.000465837
0.00309779 0.0003893 -0.000215894
0.0003893 0.00269788 -8.20629e-05
-0.000215894 -8.20629e-05 -0.00269677
-0.0068572 0.00037975 -0.00105171
0.00037975 0.00771473 2.698e-05
-0.00105171 2.698e-05 0.00124841
-0.00879249 -0.00463791 -0.00196893
-0.00463791 0.000639378 7.33827e-05
-0.00196893 7.33827e-05 -0.00630924
2.3324e-05 0.000595108 1.75413e-05
0.000595108 8.9102e-05 -7.92835e-06
1.75413e-05 -7.92835e-06 -0.000406483
0.00130713 0.00128759 7.42257e-06
0.00128759 0.000649808 1.31498e-05
7.42257e-06 1.31498e-05 -0.000116512
0.00443971 0.00243343 7.89913e-05
0.00243343 0.001444 7.74026e-05
7.89913e-05 7.74026e-05 0.00077588
0.000451617 0.000196304 0.00023886
0.000196304 0.0123496 9.12414e-05
0.00023886 9.12414e-05 0.0040735
0.00187125 0.0100655 -0.00113572
0.0100655 -0.00501516 -0.000226869
-0.00113572 -0.000226869 -0.0046519
0.000799179 0.00505559 0.000610343
0.00505559 -0.00070227 0.000312562
0.000610343 0.000312562 -0.00029483
-9.10359e-05 0.0019701 -7.03644e-06
0.0019701 0.000256015 -5.72038e-05
-7.03644e-06 -5.72038e-05 -0.000106899
0.0347044 -0.00713454 0.000316757
-0.00713454 0.0163298 -0.00075581
0.000316757 -0.00075581 0.00577116
0.0108086 0.00561155 0.0015168
0.00561155 0.00443423 0.000427002
0.0015168 0.000427002 -0.00351779
0.0148706 -0.000884604 5.75821e-05
-0.000884604 0.00386465 8.80801e-05
5.75821e-05 8.80801e-05 0.00375036
0.00209922 0.00125431 9.11572e-06
0.00125431 0.00125818 -7.59007e-07
9.11572e-06 -7.59007e-07 0.000586754
0.00420505 0.00245685 -0.000167302
0.00245685 0.00559088 -4.2704e-05
-0.000167302 -4.2704e-05 -0.000993771
0.00410232 0.00121811 0.000200012
0.00121811 0.00226309 -2.57935e-05
0.000200012 -2.57935e-05 -0.00130534
0.000320413 0.00134148 -2.87748e-05
0.00134148 0.000558943 -1.11301e-05
-2.87748e-05 -1.11301e-05 -0.000237092
-0.00139492 0.00326001 -0.000182719
0.00326001 0.000455724 -0.000134467
-0.000182719 -0.000134467 -0.00119841
0.00311974 0.0104316 0.000628279
0.0104316 0.00238833 0.000226331
0.000628279 0.000226331 -0.00312269
0.0150009 -0.000917038 2.85628e-05
-0.000917038 -0.00159852 -0.00021443
2.85628e-05 -0.00021443 -0.0013272
0.0109565 -0.00400365 -0.000148012
-0.00400365 0.00710382 -0.000277748
-0.000148012 -0.000277748 -0.00206372
0.001483 0.00103688 -1.4655e-06
0.00103688 0.0013743 -1.6682e-05
-1.4655e-06 -1.6682e-05 0.000590314
-0.0034969 0.00136262 0.000130609
0.00136262 0.00299018 0.000108168
0.000130609 0.000108168 -0.00135259
0.00943022 -0.00179655 0.000526691
-0.00179655 0.001031 -2.84513e-05
0.000526691 -2.84513e-05 -0.00187817
0.0124515 -0.00151512 0.000404401
-0.00151512 0.00185366 -3.3286e-05
0.000404401 -3.3286e-05 -0.000506913
-0.0032345 0.000838197 7.48583e-05
0.000838197 0.000714491 -6.10993e-06
7.48583e-05 -6.10993e-06 -0.000799229
0.00682495 0.00497823 0.000536125
0.00497823 0.00656257 0.000296657
0.000536125 0.000296657 -0.00149214
0.0127034 -0.000871241 -4.89102e-05
-0.000871241 0.00398789 0.000457801
-4.89102e-05 0.000457801 -0.000970768
0.0018428 0.000543026 1.66071e-05
0.000543026 0.00135749 1.35636e-05
1.66071e-05 1.35636e-05 0.000912228
0.000359719 0.000456241 -8.35929e-06
0.000456241 0.00058738 -3.11313e-06
-8.35929e-06 -3.11313e-06 -9.30444e-06
-4.73413e-05 0.000315919 7.65231e-06
0.000315919 0.000600818 -9.68841e-06
7.65231e-06 -9.68841e-06 -0.000210466
-6.12376e-05 8.48437e-05 7.6968e-06
8.48437e-05 -0.00012412 3.79302e-06
7.6968e-06 3.79302e-06 -0.000354725
0.000573403 9.07476e-05 4.97522e-06
9.07476e-05 0.000460832 -5.10456e-06
4.97522e-06 -5.10456e-06 0.000153751
0.000246353 5.84569e-05 2.38353e-06
5.84569e-05 0.000679939 3.0196e-06
2.38353e-06 3.0196e-06 6.67346e-05
-7.50731e-05 -3.77831e-05 -1.36044e-06
-3.77831e-05 6.59408e-05 -4.67414e-07
-1.36044e-06 -4.67414e-07 -0.00025984
0.000124371 -4.53361e-05 -1.62654e-06
-4.53361e-05 0.000558806 -1.48451e-06
-1.62654e-06 -1.48451e-06 9.13741e-07
-0.000335331 3.4288e-05 3.31496e-06
3.4288e-05 0.000469534 1.56548e-06
3.31496e-06 1.56548e-06 -0.000201272
0.000744606 -0.000151567 -1.52448e-05
-0.000151567 0.000997124 1.33436e-05
-1.52448e-05 1.33436e-05 0.000468572
0.000689182 -7.77321e-05 2.17752e-06
-7.77321e-05 0.000801698 -1.05053e-05
2.17752e-06 -1.05053e-05 0.000371537
-0.000482061 -2.06802e-06 1.55834e-05
-2.06802e-06 -0.000203669 -5.4094e-06
1.55834e-05 -5.4094e-06 -0.000456833
0.00107921 -0.000154167 -5.91943e-06
-0.000154167 0.000467787 6.17147e-06
-5.91943e-06 6.17147e-06 0.00032737
-0.00312331 -9.66505e-05 1.32237e-06
-9.66505e-05 -0.00193451 -1.48687e-05
1.32237e-06 -1.48687e-05 -0.00207064
0.000863761 -0.000126408 -3.4552e-07
-0.000126408 0.000812045 6.016e-06
-3.4552e-07 6.016e-06 0.00047777
-0.000506023 -7.90147e-05 -1.51735e-05
-7.90147e-05 -0.000292992 1.55191e-06
-1.51735e-05 1.55191e-06 -0.00071169
0.00339073 -0.000832813 4.51354e-06
-0.000832813 0.00198361 1.55173e-05
4.51354e-06 1.55173e-05 0.00153825
0.00109406 -0.000456019 8.23311e-06
-0.000456019 0.000531998 -2.65306e-06
8.23311e-06 -2.65306e-06 0.000225339
0.000634572 -0.000533551 7.41413e-06
-0.000533551 6.48686e-05 1.4757e-05
7.41413e-06 1.4757e-05 -0.000326033
0.000489189 -0.000223458 -4.37421e-06
-0.000223458 5.81823e-05 1.40109e-06
-4.37421e-06 1.40109e-06 -0.000178717
0.00104222 -0.000491055 -6.42619e-06
-0.000491055 0.000327461 5.42973e-06
-6.42619e-06 5.42973e-06 -1.38062e-05
0.0025481 -0.00103784 -1.65923e-05
-0.00103784 0.00114363 1.51059e-05
-1.65923e-05 1.51059e-05 0.000496829
0.00192942 -0.00110563 -8.16408e-06
-0.00110563 0.000671848 8.58841e-07
-8.16408e-06 8.58841e-07 -3.68317e-05
0.00122747 -0.000532396 6.38375e-06
-0.000532396 0.000334742 3.25288e-07
6.38375e-06 3.25288e-07 -2.33846e-05
0.00154767 -0.000862067 5.71917e-06
-0.000862067 0.000590082 -1.35689e-06
5.71917e-06 -1.35689e-06 2.16123e-05
0.00200128 -0.000360754 4.52682e-06
-0.000360754 0.00113819 -1.11831e-05
4.52682e-06 -1.11831e-05 0.000729026
0.00104847 -0.00030382 -5.48734e-06
-0.00030382 0.000340555 3.21525e-06
-5.48734e-06 3.21525e-06 5.22448e-05
0.000410412 -0.000413417 1.42489e-05
-0.000413417 -6.52742e-05 -1.62003e-05
1.42489e-05 -1.62003e-05 -0.000357582
0.00278059 -0.000317353 -6.51711e-06
-0.000317353 0.0016469 3.66403e-06
-6.51711e-06 3.66403e-06 0.00131432
-0.000545219 -0.000382405 1.09725e-06
-0.000382405 -0.000400738 -1.67311e-06
1.09725e-06 -1.67311e-06 -0.000804173
-3.75624e-05 -7.27619e-05 1.21178e-05
-7.27619e-05 -0.000172112 4.61457e-06
1.21178e-05 4.61457e-06 -0.00052319
0.00234163 -0.000835551 -1.09805e-05
-0.000835551 0.00133603 1.46949e-05
-1.09805e-05 1.46949e-05 0.00104864
0.00138366 -0.000325652 -2.34854e-07
-0.000325652 0.000739212 -6.87514e-07
-2.34854e-07 -6.87514e-07 0.000458948
-6.81714e-05 -0.00012491 9.04032e-06
-0.00012491 -0.000275743 1.39941e-05
9.04032e-06 1.39941e-05 -0.000460637
0.00109343 -0.000243786 -8.02036e-06
-0.000243786 0.000614358 -6.10869e-06
-8.02036e-06 -6.10869e-06 0.00037276
0.000400664 -5.37102e-05 -3.31906e-06
-5.37102e-05 5.15823e-05 -9.00045e-07
-3.31906e-06 -9.00045e-07 -9.96162e-05
0.00157742 -4.74822e-05 -2.83456e-05
-4.74822e-05 0.000762642 7.567e-06
-2.83456e-05 7.567e-06 0.00072345
0.000611885 -0.000105907 -1.68806e-06
-0.000105907 0.000175638 -1.27845e-06
-1.68806e-06 -1.27845e-06 5.7843e-05
0.000891703 -3.77155e-05 -1.51617e-05
-3.77155e-05 0.000311975 9.97149e-07
-1.51617e-05 9.97149e-07 0.000273775
0.000758094 2.55933e-05 3.20991e-06
2.55933e-05 0.000200272 3.02924e-06
3.20991e-06 3.02924e-06 0.000193702
0.000425736 -4.94245e-05 3.15319e-06
-4.94245e-05 1.01903e-05 -6.31596e-06
3.15319e-06 -6.31596e-06 -2.5296e-05
0.00176098 2.33259e-05 2.1672e-05
2.33259e-05 0.000870988 -1.39683e-06
2.1672e-05 -1.39683e-06 0.000878292
0.00244833 8.14825e-06 2.99852e-05
8.14825e-06 0.00132743 -5.63998e-06
2.99852e-05 -5.63998e-06 0.00134137
0.000179543 2.67002e-05 6.93295e-07
2.67002e-05 -7.44113e-05 1.7686e-06
6.93295e-07 1.7686e-06 -0.000288219
-4.2912e-05 3.53172e-05 3.58673e-07
3.53172e-05 -0.000274095 -9.00995e-06
3.58673e-07 -9.00995e-06 -0.00037839
0.00059896 8.11573e-05 1.65869e-07
8.11573e-05 0.000197358 1.08641e-06
1.65869e-07 1.08641e-06 1.97885e-05
0.000375802 1.62777e-05 3.68967e-06
1.62777e-05 -3.65263e-05 -6.81174e-06
3.68967e-06 -6.81174e-06 -6.41052e-05
0.00026936 5.24949e-06 1.5992e-06
5.24949e-06 -6.93385e-05 1.14175e-07
1.5992e-06 1.14175e-07 -0.000157888
0.000321984 -0.000134083 -2.75105e-07
-0.000134083 2.34384e-05 7.05225e-06
-2.75105e-07 7.05225e-06 -0.000139676
0.00239366 1.13826e-06 -1.71213e-05
1.13826e-06 0.00129336 -6.51396e-06
-1.71213e-05 -6.51396e-06 0.00130598
0.000367552 1.29402e-05 1.01236e-06
1.29402e-05 -4.20878e-05 -6.81787e-08
1.01236e-06 -6.81787e-08 -6.56148e-05
0.000361037 -1.71725e-05 -6.34606e-06
-1.71725e-05 -6.61004e-06 5.99546e-06
-6.34606e-06 5.99546e-06 -8.46803e-05
0.00235034 1.7751e-05 -6.02472e-06
1.7751e-05 0.00126609 -2.59444e-08
-6.02472e-06 -2.59444e-08 0.00127851
0.000367575 -1.87031e-06 -3.90172e-06
-1.87031e-06 -4.0634e-05 5.43218e-06
-3.90172e-06 5.43218e-06 -6.27419e-05
0.00242092 3.70155e-05 9.91773e-06
3.70155e-05 0.00131515 7.01688e-06
9.91773e-06 7.01688e-06 0.00132512
-0.00156067 -0.00258831 -0.000372599
-0.00258831 1.16121e-05 0.000150708
-0.000372599 0.000150708 -0.0053559
0.00729386 0.00441743 -0.000444482
0.00441743 0.0149046 8.39802e-05
-0.000444482 8.39802e-05 0.00502963
0.00960081 0.00263973 -0.00222015
0.00263973 0.007577 0.000340613
-0.00222015 0.000340613 0.00332666
0.000517177 0.000131069 1.02571e-05
0.000131069 0.000196617 2.24788e-06
1.02571e-05 2.24788e-06 -5.01792e-05
0.00861206 -0.00214079 -0.000272065
-0.00214079 0.00615914 0.000385562
-0.000272065 0.000385562 0.00208585
0.00530416 -0.00202584 -0.000296301
-0.00202584 0.00308478 3.46852e-05
-0.000296301 3.46852e-05 -0.00276806
0.0272095 0.0139039 8.7511e-06
0.0139039 0.0176959 -0.000749273
8.7511e-06 -0.000749273 0.00307145
0.00692074 -0.00265686 0.000213467
-0.00265686 -0.00243506 -4.03753e-05
0.000213467 -4.03753e-05 0.000153975
0.0120186 -0.00565955 0.000429902
-0.00565955 -0.00449683 -0.000360738
0.000429902 -0.000360738 -0.00159085
0.0232397 0.00819215 -0.00129915
0.00819215 0.0106896 0.000161783
-0.00129915 0.000161783 -0.000299499
0.0198948 0.00583542 0.000619925
0.00583542 0.0141544 0.000396897
0.000619925 0.000396897 0.00786475
0.00750174 -0.00487986 -9.78144e-05
-0.00487986 -0.00198842 9.46295e-07
-9.78144e-05 9.46295e-07 0.000612314
0.0109514 -0.00999525 3.45032e-05
-0.00999525 -0.00058279 -9.09128e-05
3.45032e-05 -9.09128e-05 -0.00151746
0.0159137 0.0022376 6.851e-05
0.0022376 0.0116848 -0.000588268
6.851e-05 -0.000588268 0.00165229
0.0183941 0.00140499 -3.83307e-05
0.00140499 0.00448049 9.9606e-05
-3.83307e-05 9.9606e-05 0.000141597
0.00484156 -0.00634572 1.03749e-05
-0.00634572 0.000481044 5.09784e-05
1.03749e-05 5.09784e-05 0.0014641
0.00820963 -0.00903428 0.000441262
-0.00903428 0.00458548 -0.000263678
0.000441262 -0.000263678 0.000210581
0.0083754 0.000815434 -0.00015526
0.000815434 0.00775125 -0.000518408
-0.00015526 -0.000518408 0.00115787
0.018302 -0.000957042 -0.000314042
-0.000957042 0.00147919 0.000346357
-0.000314042 0.000346357 0.000685077
0.000292745 0.000276206 2.21437e-05
0.000276206 0.000124338 2.05121e-05
2.21437e-05 2.05121e-05 -0.000104036
0.000488848 -0.000114345 -1.04566e-06
-0.000114345 0.00025881 -3.0302e-06
-1.04566e-06 -3.0302e-06 -1.62206e-05
-0.000426384 -3.51235e-05 3.22021e-06
-3.51235e-05 -0.00043434 2.00128e-06
3.22021e-06 2.00128e-06 -0.000582203
0.0007413 0.000252879 1.53599e-05
0.000252879 0.0002769 2.36775e-05
1.53599e-05 2.36775e-05 7.36772e-05
0.00108177 0.000285988 -3.44861e-06
0.000285988 0.00058588 -4.27215e-06
-3.44861e-06 -4.27215e-06 0.000315233
0.000575474 0.000111322 1.42313e-06
0.000111322 0.000256251 3.21101e-07
1.42313e-06 3.21101e-07 3.18003e-05
0.00146783 0.000255366 -1.91997e-06
0.000255366 0.000857396 -1.99348e-07
-1.91997e-06 -1.99348e-07 0.000573579
0.00112349 0.000229243 8.48041e-07
0.000229243 0.000620705 7.48982e-06
8.48041e-07 7.48982e-06 0.000350406
0.00278928 -0.00192346 0.000181194
-0.00192346 -0.000712041 -0.000115419
0.000181194 -0.000115419 1.68362e-05
-0.000900018 -0.00110228 -1.05336e-05
-0.00110228 -0.00123736 -1.80723e-05
-1.05336e-05 -1.80723e-05 -0.0015358
-0.00098777 5.91197e-05 -1.01081e-05
5.91197e-05 -0.000700025 -9.16784e-06
-1.01081e-05 -9.16784e-06 -0.000922968
9.07213e-05 -0.000651939 2.10867e-05
-0.000651939 7.59327e-05 -1.26881e-05
2.10867e-05 -1.26881e-05 -0.0002516
0.00255376 -0.000570567 -3.64928e-05
-0.000570567 0.00171701 1.14022e-05
-3.64928e-05 1.14022e-05 0.00129089
0.00106049 -0.000125154 1.5734e-05
-0.000125154 0.00083869 -3.13253e-05
1.5734e-05 -3.13253e-05 0.000386465
-0.000742665 0.000200283 3.09552e-06
0.000200283 -0.000399316 1.86911e-05
3.09552e-06 1.86911e-05 -0.000673014
0.00194608 -0.00297979 -1.98775e-05
-0.00297979 4.71556e-05 -4.31217e-06
-1.98775e-05 -4.31217e-06 -0.000626434
0.00116172 -0.000251793 -6.44169e-06
-0.000251793 0.00100942 4.40395e-06
-6.44169e-06 4.40395e-06 0.000533943
-0.000520019 -0.000199058 -2.43967e-06
-0.000199058 0.000123721 8.43285e-06
-2.43967e-06 8.43285e-06 -0.000433733
-0.000738926 -0.000849944 8.98353e-06
-0.000849944 -0.000324163 1.69536e-06
8.98353e-06 1.69536e-06 -0.00067859
-0.00084981 -3.27712e-05 2.11338e-05
-3.27712e-05 -0.000395036 -4.1135e-06
2.11338e-05 -4.1135e-06 -0.000678613
0.00291845 -0.00307462 -0.000104264
-0.00307462 0.00237407 -1.12738e-05
-0.000104264 -1.12738e-05 0.000853884
-0.000757324 -0.000769816 9.06146e-06
-0.000769816 5.00537e-05 -1.30401e-05
9.06146e-06 -1.30401e-05 -0.000579643
5.22387e-05 -6.86853e-06 2.12685e-05
-6.86853e-06 0.000636712 -8.11983e-06
2.12685e-05 -8.11983e-06 -7.75483e-05
-0.000325429 -6.87769e-05 1.39644e-05
-6.87769e-05 0.000429282 2.73563e-05
1.39644e-05 2.73563e-05 -0.000340763
0.00111857 -0.000229811 0.000407406
-0.000229811 0.00644775 9.87699e-05
0.000407406 9.87699e-05 0.0017757
-0.000330798 0.000100325 0.000215125
0.000100325 0.00135253 -1.14381e-05
0.000215125 -1.14381e-05 -0.00429432
-0.013343 -0.000733713 -0.0011117
-0.000733713 0.00593921 2.35591e-05
-0.0011117 2.35591e-05 0.000845535
0.0023022 0.00121207 2.65519e-05
0.00121207 0.00142061 6.68516e-06
2.65519e-05 6.68516e-06 0.000789942
-0.000515027 0.00158608 2.928e-05
0.00158608 0.000149669 1.70146e-05
2.928e-05 1.70146e-05 -0.000832838
0.00561007 0.00303758 0.000875981
0.00303758 0.00555445 0.000217868
0.000875981 0.000217868 -0.000419719
0.00334397 0.00643152 0.000241454
0.00643152 0.00349963 0.000272175
0.000241454 0.000272175 -0.000540382
0.00103091 0.00480861 -0.000275746
0.00480861 0.00169984 -0.000243557
-0.000275746 -0.000243557 -0.000761041
0.00818554 -0.00177636 -0.000132607
-0.00177636 0.00738151 -0.000544584
-0.000132607 -0.000544584 0.000596084
0.0047951 0.000459438 5.30455e-05
0.000459438 0.00292543 0.000100804
5.30455e-05 0.000100804 -0.000486952
0.0114554 -0.000132452 -4.04472e-05
-0.000132452 -0.00353497 -0.000301729
-4.04472e-05 -0.000301729 -0.00358478
0.000724616 0.00111462 5.06711e-06
0.00111462 0.000871109 -8.62537e-07
5.06711e-06 -8.62537e-07 1.17167e-05
-0.00209749 0.000895655 1.76804e-05
0.000895655 0.00335542 2.88671e-06
1.76804e-05 2.88671e-06 -0.001172
0.00816323 -0.00065685 0.00031515
-0.00065685 0.000940271 7.28066e-06
0.00031515 7.28066e-06 -0.00224212
-0.00219323 0.00134431 -3.8332e-05
0.00134431 0.000358617 -1.97522e-05
-3.8332e-05 -1.97522e-05 -0.00110117
0.0194647 0.00179544 4.19915e-05
0.00179544 0.00443251 -0.000110538
4.19915e-05 -0.000110538 2.36543e-06
0.00394066 0.00349575 0.000442999
0.00349575 0.00665813 0.000290967
0.000442999 0.000290967 -0.00104101
0.0163532 0.000701438 -0.000235163
0.000701438 0.00610513 -3.19578e-05
-0.000235163 -3.19578e-05 7.29038e-05
0.000140792 0.000980378 -1.32303e-06
0.000980378 0.000810908 -1.63895e-05
-1.32303e-06 -1.63895e-05 -0.000245028
0.00508008 2.73233e-05 0.000147575
2.73233e-05 0.00358044 7.5296e-05
0.000147575 7.5296e-05 9.48517e-05
0.00383573 -0.0041465 0.000421822
-0.0041465 0.00502949 -0.00026603
0.000421822 -0.00026603 0.00160567
0.0378875 0.00834559 0.00067867
0.00834559 0.0173415 -0.000444048
0.00067867 -0.000444048 0.00756795
0.0102566 -3.67298e-05 1.14388e-05
-3.67298e-05 0.0088629 0.000653763
1.14388e-05 0.000653763 0.00205829
-0.00200574 0.00124077 -0.00021548
0.00124077 0.00140482 -0.000134606
-0.00021548 -0.000134606 -0.00024086
0.00108768 -0.000122916 0.00017468
-0.000122916 0.00594664 -3.93136e-05
0.00017468 -3.93136e-05 -0.00464534
0.000684336 0.000574223 3.29747e-06
0.000574223 0.000741456 1.56106e-05
3.29747e-06 1.56106e-05 0.000100723
0.00046474 0.000368595 5.04911e-06
0.000368595 0.000938893 5.37558e-06
5.04911e-06 5.37558e-06 0.000179322
0.000371092 -0.000169161 -9.16527e-06
-0.000169161 0.00134592 2.225e-05
-9.16527e-06 2.225e-05 0.000588242
-0.000815985 2.96622e-05 1.57682e-05
2.96622e-05 -0.000418506 -3.28192e-06
1.57682e-05 -3.28192e-06 -0.000733291
-0.000131214 1.35322e-05 5.55791e-06
1.35322e-05 0.00041687 9.66958e-06
5.55791e-06 9.66958e-06 -0.000143632
0.00017799 4.71812e-05 -7.05486e-06
4.71812e-05 0.000781427 -2.3665e-06
-7.05486e-06 -2.3665e-06 0.000101514
0.000167012 -2.8076e-05 -4.41762e-06
-2.8076e-05 0.000440129 1.14917e-06
-4.41762e-06 1.14917e-06 4.83521e-05
0.000287624 -0.000103265 9.39892e-07
-0.000103265 0.000771233 2.77597e-06
9.39892e-07 2.77597e-06 0.000217547
0.00448588 -0.000848039 2.14065e-05
-0.000848039 0.00289319 -1.01591e-05
2.14065e-05 -1.01591e-05 0.00246259
-1.76012e-05 -6.20166e-05 -1.80772e-06
-6.20166e-05 0.00023415 -5.79333e-06
-1.80772e-06 -5.79333e-06 -8.93706e-05
-0.0052107 9.57081e-05 1.36651e-06
9.57081e-05 -0.00303748 -5.90586e-06
1.36651e-06 -5.90586e-06 -0.00355656
0.00102411 -0.000592532 -3.66197e-06
-0.000592532 0.000685284 4.74641e-06
-3.66197e-06 4.74641e-06 0.000117674
-0.00227811 -0.000172912 2.36243e-05
-0.000172912 -0.00142057 1.75881e-05
2.36243e-05 1.75881e-05 -0.00182898
-0.000421785 -0.000247568 6.1513e-06
-0.000247568 -0.000331152 -4.5024e-06
6.1513e-06 -4.5024e-06 -0.000519781
9.87475e-05 -0.000541482 -1.55534e-05
-0.000541482 -0.00026815 -5.17209e-06
-1.55534e-05 -5.17209e-06 -0.000639428
0.00198032 -0.001061 -1.08797e-05
-0.001061 0.000788332 4.68871e-06
-1.08797e-05 4.68871e-06 6.54799e-06
0.00234225 -0.00130179 -1.6099e-05
-0.00130179 0.000841949 5.19884e-06
-1.6099e-05 5.19884e-06 4.15455e-05
0.00225771 -0.000622597 6.2856e-06
-0.000622597 0.00108325 -1.25328e-05
6.2856e-06 -1.25328e-05 0.000716935
0.00192482 -0.000955177 -3.05836e-06
-0.000955177 0.000765236 2.40495e-06
-3.05836e-06 2.40495e-06 0.000133059
0.00196437 -0.00117095 9.71356e-06
-0.00117095 0.000621478 -6.57885e-06
9.71356e-06 -6.57885e-06 -0.000106636
0.00163409 -0.000831155 6.25995e-06
-0.000831155 0.00060152 2.57732e-06
6.25995e-06 2.57732e-06 3.27344e-05
0.00173054 -0.00107603 5.03157e-06
-0.00107603 0.000564846 -4.61304e-06
5.03157e-06 -4.61304e-06 -0.000133393
0.00204101 -0.000359261 -2.59806e-06
-0.000359261 0.000923995 -8.49356e-06
-2.59806e-06 -8.49356e-06 0.000618641
0.000629048 -0.000489362 -6.49118e-07
-0.000489362 -3.01285e-05 2.8923e-07
-6.49118e-07 2.8923e-07 -0.000404331
0.00133012 -0.000806518 9.70774e-06
-0.000806518 0.000474513 -1.13905e-05
9.70774e-06 -1.13905e-05 -7.04034e-05
-0.000405257 -0.000158472 6.21393e-06
-0.000158472 -0.000358949 -3.35919e-07
6.21393e-06 -3.35919e-07 -0.000780876
0.000509622 -0.000298393 -6.97556e-08
-0.000298393 0.000239553 -4.01445e-07
-6.97556e-08 -4.01445e-07 -0.000182074
-0.000605063 -0.000201892 7.61708e-07
-0.000201892 -0.000631746 -6.82625e-07
7.61708e-07 -6.82625e-07 -0.000941618
0.00158209 -0.000470104 -9.57128e-06
-0.000470104 0.000899625 1.62331e-05
-9.57128e-06 1.62331e-05 0.000516201
0.000994522 -0.000323661 2.14324e-06
-0.000323661 0.000474313 8.79029e-07
2.14324e-06 8.79029e-07 0.000116342
-0.000608173 -8.33563e-05 5.35136e-06
-8.33563e-05 -0.000601082 1.21588e-05
5.35136e-06 1.21588e-05 -0.000871952
0.000805447 -0.000548552 -1.43314e-05
-0.000548552 0.000408573 -6.04843e-06
-1.43314e-05 -6.04843e-06 7.96306e-05
0.000507558 -0.000112364 -8.77804e-07
-0.000112364 9.78348e-05 -1.46617e-07
-8.77804e-07 -1.46617e-07 -9.50453e-05
0.000352625 2.69376e-05 2.91619e-06
2.69376e-05 -4.26834e-05 1.35161e-05
2.91619e-06 1.35161e-05 -0.000104635
0.00165138 -0.000194704 -7.06948e-06
-0.000194704 0.000865396 -6.17624e-06
-7.06948e-06 -6.17624e-06 0.000702119
0.000449292 -5.25774e-05 -2.74752e-06
-5.25774e-05 9.5114e-06 1.82039e-07
-2.74752e-06 1.82039e-07 -3.7151e-05
0.0028029 9.63177e-05 4.90282e-06
9.63177e-05 0.00156553 3.82151e-06
4.90282e-06 3.82151e-06 0.00156464
0.000480162 -6.28646e-05 3.35583e-06
-6.28646e-05 3.80127e-05 -6.81691e-06
3.35583e-06 -6.81691e-06 -5.62331e-06
0.00183101 3.45009e-05 2.90629e-05
3.45009e-05 0.000918708 -1.70403e-06
2.90629e-05 -1.70403e-06 0.000920922
0.00284941 2.29495e-05 4.26001e-05
2.29495e-05 0.00159218 -6.78291e-06
4.26001e-05 -6.78291e-06 0.00160375
-1.55491e-05 9.33929e-05 1.39126e-06
9.33929e-05 -0.000213516 3.82316e-06
1.39126e-06 3.82316e-06 -0.000422231
-8.82972e-05 3.48033e-05 2.46246e-06
3.48033e-05 -0.000297951 -8.66898e-06
2.46246e-06 -8.66898e-06 -0.000433028
0.000268229 9.56012e-05 -3.0348e-07
9.56012e-05 -7.60644e-06 4.23321e-07
-3.0348e-07 4.23321e-07 -0.000220731
0.000405793 1.68297e-05 4.18424e-06
1.68297e-05 -1.94577e-05 -7.85072e-06
4.18424e-06 -7.85072e-06 -5.20102e-05
-6.38052e-05 3.54776e-05 -8.85095e-07
3.54776e-05 -0.000285867 -2.70281e-06
-8.85095e-07 -2.70281e-06 -0.00039326
0.000770433 0.0001163 -7.25938e-08
0.0001163 0.0003433 7.62392e-06
-7.25938e-08 7.62392e-06 0.000144798
0.00253465 -1.48113e-05 -2.34933e-05
-1.48113e-05 0.00138685 -6.62897e-06
-2.34933e-05 -6.62897e-06 0.00139835
0.000378486 1.41645e-05 -6.79126e-07
1.41645e-05 -3.66198e-05 -1.89686e-07
-6.79126e-07 -1.89686e-07 -6.33671e-05
-0.000175762 2.15542e-05 -1.34185e-07
2.15542e-05 -0.000364831 6.89755e-06
-1.34185e-07 6.89755e-06 -0.000453728
0.00238703 1.47868e-06 -4.83647e-06
1.47868e-06 0.00128917 1.11659e-07
-4.83647e-06 1.11659e-07 0.0013018
0.000376407 1.79202e-05 -2.42866e-06
1.79202e-05 -3.57767e-05 5.96353e-06
-2.42866e-06 5.96353e-06 -5.92051e-05
0.00234825 1.86624e-05 1.30514e-05
1.86624e-05 0.00126525 6.41145e-06
1.30514e-05 6.41145e-06 0.00127744
0.00106082 -0.000325307 0.000386238
-0.000325307 0.00651384 0.000221607
0.000386238 0.000221607 0.00334254
-0.00173604 -0.000878253 -6.77437e-05
-0.000878253 0.000392035 9.89663e-06
-6.77437e-05 9.89663e-06 -0.00544704
0.00334222 0.00435712 -0.000802948
0.00435712 0.0137014 -0.000205666
-0.000802948 -0.000205666 0.00370092
0.000803854 0.000204783 -4.62579e-07
0.000204783 0.000372799 8.38492e-07
-4.62579e-07 8.38492e-07 0.000132747
-0.000654057 0.000155628 9.26211e-06
0.000155628 -0.000514947 6.63916e-07
9.26211e-06 6.63916e-07 -0.00080393
0.00250916 0.000379466 2.94858e-05
0.000379466 0.00152004 7.49021e-06
2.94858e-05 7.49021e-06 0.00127379
0.0104823 -0.00139982 -0.000514108
-0.00139982 0.000857985 7.57221e-05
-0.000514108 7.57221e-05 -0.00291593
0.00959181 -0.00385471 0.000231579
-0.00385471 0.00545116 5.6739e-05
0.000231579 5.6739e-05 0.00250776
0.00482976 -0.00529437 0.000386401
-0.00529437 0.00217338 -0.000365335
0.000386401 -0.000365335 -0.00306976
0.00878853 -0.00555026 4.00837e-05
-0.00555026 -0.00204458 -0.000116245
4.00837e-05 -0.000116245 0.000811173
0.00370464 -0.00967726 -0.00126924
-0.00967726 -0.00453451 9.75083e-05
-0.00126924 9.75083e-05 -0.00350869
0.0328846 0.00868676 0.00105055
0.00868676 0.0192277 0.000394646
0.00105055 0.000394646 0.00623111
0.0101532 -0.00193116 0.000531043
-0.00193116 -0.000392152 -0.000334561
0.000531043 -0.000334561 -0.00397875
0.00363766 -0.0059167 8.29718e-06
-0.0059167 -0.000489586 1.29015e-05
8.29718e-06 1.29015e-05 0.0010077
0.00408808 -0.00959314 -0.000349386
-0.00959314 0.0029804 1.46973e-05
-0.000349386 1.46973e-05 -0.00279255
0.0102367 0.00515676 -0.000217901
0.00515676 0.00866276 -0.000443244
-0.000217901 -0.000443244 0.000616465
0.0149449 -0.000604244 -0.000209688
-0.000604244 -0.000756715 0.00019231
-0.000209688 0.00019231 -0.00115853
0.000694405 -0.00503296 -0.000222861
-0.00503296 0.00190467 0.0001296
-0.000222861 0.0001296 0.00045239
0.00826663 -0.00480668 -0.000438111
-0.00480668 0.00681057 0.000336119
-0.000438111 0.000336119 0.000207597
0.0120846 -0.000281088 4.52572e-05
-0.000281088 0.00470041 -0.000400236
4.52572e-05 -0.000400236 -0.000800887
0.0104302 0.00125571 -6.96767e-05
0.00125571 -0.000453127 0.000260339
-6.96767e-05 0.000260339 -0.00327234
-0.000410632 0.000124766 1.73148e-05
0.000124766 -0.000322362 3.30856e-05
1.73148e-05 3.30856e-05 -0.000487067
0.000544087 9.58558e-06 -5.57436e-06
9.58558e-06 0.000291038 1.91265e-06
-5.57436e-06 1.91265e-06 6.88057e-05
0.00138133 -0.000392901 1.28696e-05
-0.000392901 0.000852925 -1.02758e-05
1.28696e-05 -1.02758e-05 0.000565151
0.000386976 0.000198057 3.68939e-07
0.000198057 4.39653e-05 4.77282e-06
3.68939e-07 4.77282e-06 -0.000147134
0.000935864 0.00029676 -2.01137e-06
0.00029676 0.000509359 -1.15309e-05
-2.01137e-06 -1.15309e-05 0.000236232
0.00116232 0.00030641 -7.7622e-06
0.00030641 0.000653643 -4.5211e-06
-7.7622e-06 -4.5211e-06 0.000374146
0.00123459 -0.00248116 8.14228e-05
-0.00248116 -7.14629e-05 -3.92826e-05
8.14228e-05 -3.92826e-05 -0.000523448
0.000437411 -0.00089891 1.42231e-05
-0.00089891 0.000170204 -3.23995e-05
1.42231e-05 -3.23995e-05 -9.84045e-05
-0.000323463 0.000272403 -1.03316e-05
0.000272403 -0.000184158 -3.5053e-05
-1.03316e-05 -3.5053e-05 -0.000477829
0.00079717 -0.000346657 3.9059e-05
-0.000346657 0.000708017 -2.34398e-05
3.9059e-05 -2.34398e-05 0.00020311
0.00319466 -0.000179105 4.19533e-06
-0.000179105 0.00221215 -4.3177e-05
4.19533e-06 -4.3177e-05 0.00175168
-0.000431728 5.71451e-05 9.8238e-06
5.71451e-05 -0.000121198 8.01866e-06
9.8238e-06 8.01866e-06 -0.000409143
-0.000480139 2.16004e-05 4.66439e-06
2.16004e-05 0.000315459 2.00554e-05
4.66439e-06 2.00554e-05 -0.000385644
0.00154159 -0.00267998 -2.53565e-05
-0.00267998 0.001694 -1.11748e-05
-2.53565e-05 -1.11748e-05 0.000312993
0.000112356 -1.76338e-05 -6.31169e-06
-1.76338e-05 0.000725329 -1.50841e-06
-6.31169e-06 -1.50841e-06 -3.20406e-05
0.000252558 -0.000736205 -1.84631e-06
-0.000736205 0.000937437 5.87893e-06
-1.84631e-06 5.87893e-06 8.98584e-05
0.000287438 0.000259184 5.09159e-05
0.000259184 0.000641171 -4.77683e-05
5.09159e-05 -4.77683e-05 6.53485e-05
-0.00338139 -0.000448838 -0.000242771
-0.000448838 0.00024543 2.16736e-05
-0.000242771 2.16736e-05 -0.00104933
-0.000732622 -0.000311786 -7.0191e-05
-0.000311786 0.00115556 -2.22577e-05
-7.0191e-05 -2.22577e-05 0.000154961
-0.00352664 -0.000117168 3.47603e-06
-0.000117168 -0.00110758 -8.08072e-06
3.47603e-06 -8.08072e-06 -0.00192287
0.00196732 0.000849536 1.09357e-05
0.000849536 0.0001846 -1.72534e-05
1.09357e-05 -1.72534e-05 -0.00604818
-0.00104704 0.00149381 0.000270513
0.00149381 0.00598089 2.9954e-05
0.000270513 2.9954e-05 0.00167487
-0.00249751 0.000423486 0.000528818
0.000423486 0.000597762 4.91321e-05
0.000528818 4.91321e-05 -0.00466381
-0.000263785 0.00115272 1.47013e-05
0.00115272 0.000238009 2.99464e-05
1.47013e-05 2.99464e-05 -0.000695292
0.00154347 0.00207478 5.88323e-06
0.00207478 0.00174304 -4.70826e-05
5.88323e-06 -4.70826e-05 0.000269426
-0.00143912 0.000968586 -0.000363895
0.000968586 0.00387354 -0.000108655
-0.000363895 -0.000108655 -0.000777711
-0.00280427 0.00177917 0.000308513
0.00177917 0.0054253 0.000310504
0.000308513 0.000310504 -0.00149674
0.00895729 0.000299608 -0.00022673
0.000299608 -2.35269e-05 -0.000540186
-0.00022673 -0.000540186 -0.00665756
0.00831631 0.000160322 0.000109479
0.000160322 0.000307489 -2.33256e-05
0.000109479 -2.33256e-05 -0.00216313
0.00912149 -0.0018165 -0.000544608
-0.0018165 -0.000964308 0.000321584
-0.000544608 0.000321584 -0.00419948
0.000604511 0.000887215 -2.00591e-05
0.000887215 0.00110219 -4.42004e-06
-2.00591e-05 -4.42004e-06 0.000169388
0.00269661 0.000828235 0.000107791
0.000828235 0.00354864 6.38326e-05
0.000107791 6.38326e-05 0.00017188
0.00876468 -0.00273174 -0.000225627
-0.00273174 0.00496817 -4.50355e-05
-0.000225627 -4.50355e-05 0.00230328
-0.000175145 0.0013418 -0.000186144
0.0013418 0.00326066 -3.07636e-05
-0.000186144 -3.07636e-05 0.000347482
0.0274726 0.00799994 -0.000555696
0.00799994 0.0138684 -0.000604225
-0.000555696 -0.000604225 0.00467096
0.0145597 0.00401627 0.000138264
0.00401627 0.010113 0.000504829
0.000138264 0.000504829 0.000828242
0.00788978 0.00303854 0.000123704
0.00303854 0.00848632 -6.95426e-07
0.000123704 -6.95426e-07 0.000536992
6.27119e-05 4.71523e-05 5.18194e-05
4.71523e-05 0.00197655 -1.72576e-05
5.18194e-05 -1.72576e-05 7.94693e-05
0.00233918 0.000391568 -0.00040573
0.000391568 0.00830303 -1.04896e-05
-0.00040573 -1.04896e-05 0.00480381
0.00124247 -0.00139835 0.000792926
-0.00139835 0.00116132 -0.000279748
0.000792926 -0.000279748 -0.0052892
0.0456149 0.0186879 -5.34309e-05
0.0186879 0.0309617 -0.000242097
-5.34309e-05 -0.000242097 0.0143918
0.0193561 0.00652791 0.000961182
0.00652791 0.0104682 0.00144084
0.000961182 0.00144084 -0.000838788
0.0121151 -0.00689546 0.000690696
-0.00689546 0.00899247 -0.000461358
0.000690696 -0.000461358 -8.3114e-05
9.08908e-05 -0.000916676 -9.54009e-05
-0.000916676 0.00405686 6.68835e-05
-9.54009e-05 6.68835e-05 0.00201189
0.000985447 0.000384769 -6.50591e-06
0.000384769 0.00124473 2.37788e-06
-6.50591e-06 2.37788e-06 0.000551651
-0.000192875 -0.000125454 -1.1518e-05
-0.000125454 0.000779259 -8.00474e-06
-1.1518e-05 -8.00474e-06 -5.81803e-05
0.00118823 -0.000934408 6.72582e-05
-0.000934408 0.00130897 -1.74494e-05
6.72582e-05 -1.74494e-05 0.000319114
-0.000608695 1.50101e-05 -5.73219e-07
1.50101e-05 -5.96727e-05 6.73227e-06
-5.73219e-07 6.73227e-06 -0.000431609
-0.000743482 -7.91881e-05 1.91462e-05
-7.91881e-05 0.000216089 -1.54899e-05
1.91462e-05 -1.54899e-05 -0.000365706
0.00113801 -0.000496977 -1.10806e-05
-0.000496977 0.00105549 1.12658e-06
-1.10806e-05 1.12658e-06 0.000669518
0.00255873 -0.00124828 4.98461e-05
-0.00124828 0.00154626 -1.4854e-05
4.98461e-05 -1.4854e-05 0.000741122
-0.00145848 -0.000333687 6.55134e-06
-0.000333687 -0.000705076 -5.13662e-06
6.55134e-06 -5.13662e-06 -0.0013964
0.00188307 -0.000945085 2.11203e-05
-0.000945085 0.00079169 -7.6575e-06
2.11203e-05 -7.6575e-06 0.000243901
-0.000678611 -0.000693429 -5.82029e-06
-0.000693429 -0.000471736 -3.19392e-06
-5.82029e-06 -3.19392e-06 -0.00147453
0.000721468 -0.000615468 -9.51977e-06
-0.000615468 0.000120944 2.01316e-06
-9.51977e-06 2.01316e-06 -0.000223556
0.00197977 -0.0010601 -2.81752e-07
-0.0010601 0.000768736 -1.12946e-06
-2.81752e-07 -1.12946e-06 -6.89593e-06
0.0022479 -0.0013759 -2.25199e-05
-0.0013759 0.000716506 3.02336e-06
-2.25199e-05 3.02336e-06 -0.00021009
0.00284584 -0.00152672 -1.44639e-05
-0.00152672 0.000843102 -1.08941e-07
-1.44639e-05 -1.08941e-07 1.54461e-05
0.0024446 -0.00143479 -4.33912e-06
-0.00143479 0.000827358 4.24227e-08
-4.33912e-06 4.24227e-08 -8.4937e-06
0.00251091 -0.00131813 -5.05948e-06
-0.00131813 0.000929448 1.34253e-06
-5.05948e-06 1.34253e-06 0.000124888
0.00170758 -0.000934235 8.22791e-06
-0.000934235 0.000622388 -1.02264e-05
8.22791e-06 -1.02264e-05 -1.03826e-05
0.00222443 -0.0011753 1.7833e-05
-0.0011753 0.000890122 -8.31541e-06
1.7833e-05 -8.31541e-06 0.000147137
0.00185255 -0.00117029 1.1197e-05
-0.00117029 0.000552028 -3.93357e-06
1.1197e-05 -3.93357e-06 -0.000176775
0.00141542 -0.000521943 1.728e-07
-0.000521943 0.000448907 -3.50248e-06
1.728e-07 -3.50248e-06 3.83948e-05
0.00221562 -0.000901116 5.45676e-06
-0.000901116 0.000954365 -5.39641e-06
5.45676e-06 -5.39641e-06 0.000372754
0.00104572 -0.000982292 2.09946e-06
-0.000982292 0.000146796 -5.66292e-06
2.09946e-06 -5.66292e-06 -0.000523988
0.000320367 4.63707e-06 7.35106e-07
4.63707e-06 -1.5525e-05 -2.33843e-06
7.35106e-07 -2.33843e-06 -0.000361161
0.000489902 -0.000379134 6.39269e-07
-0.000379134 -6.0092e-05 3.60086e-08
6.39269e-07 3.60086e-08 -0.00038267
0.000679173 -0.000513824 -1.20577e-05
-0.000513824 -4.75944e-06 2.17873e-06
-1.20577e-05 2.17873e-06 -0.000402439
0.000237301 -0.000234512 4.53489e-06
-0.000234512 -4.9823e-05 1.03433e-05
4.53489e-06 1.03433e-05 -0.000392469
0.000973807 -0.000347547 -1.8924e-07
-0.000347547 0.000511736 1.10287e-06
-1.8924e-07 1.10287e-06 8.85829e-05
-0.00169879 -0.000435267 -3.58045e-06
-0.000435267 -0.00117102 1.01794e-05
-3.58045e-06 1.01794e-05 -0.00159066
0.00195993 -0.000513455 -7.01817e-06
-0.000513455 0.0010853 -3.05225e-06
-7.01817e-06 -3.05225e-06 0.000722622
0.00101869 -0.000183632 -6.77237e-07
-0.000183632 0.000423555 6.76611e-07
-6.77237e-07 6.76611e-07 0.00017013
0.000221939 -1.94034e-05 1.27055e-06
-1.94034e-05 -0.000124655 1.85643e-05
1.27055e-06 1.85643e-05 -0.000212981
0.00190609 -0.000188087 -1.93081e-06
-0.000188087 0.000990201 -1.35613e-05
-1.93081e-06 -1.35613e-05 0.000799506
0.000426484 -2.43911e-05 -7.34688e-06
-2.43911e-05 6.52429e-06 -9.25762e-07
-7.34688e-06 -9.25762e-07 -6.01916e-05
0.0036373 0.000107825 -5.39224e-05
0.000107825 0.00212643 7.68951e-06
-5.39224e-05 7.68951e-06 0.00212361
0.000550909 -5.98953e-05 2.69017e-06
-5.98953e-05 6.68764e-05 -1.11602e-05
2.69017e-06 -1.11602e-05 1.97107e-05
0.00212187 6.19029e-05 3.38253e-05
6.19029e-05 0.00111057 -6.21036e-07
3.38253e-05 -6.21036e-07 0.00110807
0.00292771 4.24098e-05 4.80215e-05
4.24098e-05 0.00164172 -6.48171e-06
4.80215e-05 -6.48171e-06 0.00165144
0.0015454 0.000238326 5.96917e-07
0.000238326 0.000857273 -1.10865e-05
5.96917e-07 -1.10865e-05 0.000592137
0.000683989 0.000120032 3.27098e-06
0.000120032 0.000221833 -7.14841e-06
3.27098e-06 -7.14841e-06 6.03509e-05
0.000467927 0.000110194 -1.28271e-06
0.000110194 0.00014994 2.20936e-06
-1.28271e-06 2.20936e-06 -9.30471e-05
0.00042309 3.92023e-05 -9.08205e-07
3.92023e-05 -3.40543e-07 -1.06816e-05
-9.08205e-07 -1.06816e-05 -4.31728e-05
0.000185559 6.04727e-05 -2.63457e-06
6.04727e-05 -0.000113987 -4.05806e-06
-2.63457e-06 -4.05806e-06 -0.000246251
0.000598068 0.000103757 -1.11872e-06
0.000103757 0.000226277 -2.0437e-06
-1.11872e-06 -2.0437e-06 6.90262e-06
0.00258749 -3.18667e-05 -2.71904e-05
-3.18667e-05 0.00142266 -7.08836e-06
-2.71904e-05 -7.08836e-06 0.00143256
0.000367639 3.22991e-06 8.67251e-07
3.22991e-06 -4.20178e-05 -3.50335e-07
8.67251e-07 -3.50335e-07 -7.46612e-05
0.000139555 2.39615e-05 -2.84503e-06
2.39615e-05 -0.000146882 4.12011e-06
-2.84503e-06 4.12011e-06 -0.000261651
0.00246864 -1.48414e-05 -7.00201e-06
-1.48414e-05 0.00134301 1.5279e-07
-7.00201e-06 1.5279e-07 0.00135484
0.000386994 8.56293e-06 -5.31334e-06
8.56293e-06 -3.18725e-05 6.46889e-06
-5.31334e-06 6.46889e-06 -5.79722e-05
0.00242322 2.73148e-06 1.78576e-05
2.73148e-06 0.00131362 6.44825e-06
1.78576e-05 6.44825e-06 0.00132603
0.00390951 -0.000153314 -0.000309674
-0.000153314 0.00303201 -1.32199e-05
-0.000309674 -1.32199e-05 -0.000493362
-0.00226123 0.000232708 0.000257871
0.000232708 0.00619665 -1.33816e-06
0.000257871 -1.33816e-06 0.00200782
-9.48235e-05 -0.000590175 3.39224e-05
-0.000590175 0.00161878 -0.000302927
3.39224e-05 -0.000302927 -0.00491985
-0.000936969 -4.96078e-05 7.5105e-06
-4.96078e-05 -0.000610513 -7.29893e-06
7.5105e-06 -7.29893e-06 -0.00104684
0.00616835 0.000596402 1.92969e-05
0.000596402 0.00378195 2.08825e-05
1.92969e-05 2.08825e-05 0.00345466
0.000156782 0.000175163 -6.03979e-06
0.000175163 -2.18839e-05 -2.94304e-06
-6.03979e-06 -2.94304e-06 -0.000266149
-0.000250403 9.31801e-05 1.62557e-06
9.31801e-05 -0.000296576 -3.16649e-06
1.62557e-06 -3.16649e-06 -0.000571156
-0.000493895 5.84616e-05 9.30723e-07
5.84616e-05 -0.000539768 -5.86707e-06
9.30723e-07 -5.86707e-06 -0.000688596
0.00078064 0.000183038 1.10277e-05
0.000183038 0.000349262 -9.51257e-07
1.10277e-05 -9.51257e-07 0.000112135
1.08715e-05 0.000104443 2.37427e-05
0.000104443 -0.000120481 -1.34062e-05
2.37427e-05 -1.34062e-05 -0.000241906
0.00647173 0.00224815 0.000212917
0.00224815 0.00091619 0.000226733
0.000212917 0.000226733 -0.002563
0.00914543 -0.000444525 -0.000191185
-0.000444525 0.00112415 3.07118e-05
-0.000191185 3.07118e-05 -0.00287991
0.00729242 -0.00120578 0.000616138
-0.00120578 0.0063188 -0.000123211
0.000616138 -0.000123211 0.00225345
0.0120023 0.000276772 -6.13108e-05
0.000276772 -0.00303451 0.000237848
-6.13108e-05 0.000237848 -0.00343196
0.00648242 -0.00715659 -0.000133265
-0.00715659 0.000283111 2.11766e-05
-0.000133265 2.11766e-05 0.00109353
-1.01032e-05 -0.00800628 -0.000515051
-0.00800628 0.00274841 0.000226946
-0.000515051 0.000226946 -0.00489775
0.0277223 0.00440371 0.000383014
0.00440371 0.0111265 -0.000387662
0.000383014 -0.000387662 0.00305138
0.00380493 -0.00665471 -0.000135798
-0.00665471 0.00166939 8.78987e-05
-0.000135798 8.78987e-05 0.000874783
-0.000244902 -0.00227227 -0.000162175
-0.00227227 0.00645615 8.41867e-05
-0.000162175 8.41867e-05 -0.00289139
0.0155685 0.000262857 0.000505077
0.000262857 0.00616023 -4.85502e-05
0.000505077 -4.85502e-05 -0.000401577
0.020841 -0.00198682 -5.19448e-05
-0.00198682 0.00396119 3.35893e-06
-5.19448e-05 3.35893e-06 0.00225184
-0.00582003 -0.000887752 -0.000230371
-0.000887752 8.15362e-05 0.000257026
-0.000230371 0.000257026 -0.00107141
0.00104184 0.000147732 -0.000228401
0.000147732 0.00655937 -0.000226204
-0.000228401 -0.000226204 -0.00262126
0.0138777 -0.00604704 -0.000105958
-0.00604704 0.00513081 -0.000251846
-0.000105958 -0.000251846 -0.00457034
0.0245013 -0.00212895 0.00084225
-0.00212895 0.0120854 -0.000831177
0.00084225 -0.000831177 0.00583359
-0.000263894 0.000129684 5.02641e-05
0.000129684 0.000311633 -1.95179e-05
5.02641e-05 -1.95179e-05 -0.00031732
0.000304963 0.000205232 -3.41033e-06
0.000205232 0.000171007 -6.94138e-06
-3.41033e-06 -6.94138e-06 -1.85319e-05
0.000207067 -2.18816e-05 1.05926e-06
-2.18816e-05 9.59876e-05 -1.43288e-05
1.05926e-06 -1.43288e-05 -0.000140899
0.000913095 0.000171479 -7.59611e-06
0.000171479 0.000424292 -1.25086e-05
-7.59611e-06 -1.25086e-05 0.000211897
0.000581213 -0.00257714 5.65664e-05
-0.00257714 0.00109361 2.23471e-05
5.65664e-05 2.23471e-05 -0.000320966
0.00128963 -0.000707614 -5.75018e-06
-0.000707614 0.0017249 -2.08119e-07
-5.75018e-06 -2.08119e-07 0.00072712
0.000139598 6.42574e-05 -4.28684e-05
6.42574e-05 0.000216489 -1.62896e-05
-4.28684e-05 -1.62896e-05 -4.55923e-05
0.00155193 -0.000339775 1.32977e-05
-0.000339775 0.00126018 -7.52638e-05
1.32977e-05 -7.52638e-05 0.000762301
0.000789757 2.27182e-05 -1.65385e-05
2.27182e-05 0.00121862 1.32007e-05
-1.65385e-05 1.32007e-05 0.000572388
0.000313884 0.000178415 -4.85421e-06
0.000178415 0.00054353 1.39232e-05
-4.85421e-06 1.39232e-05 4.9558e-05
0.00101059 -0.000219551 2.69742e-06
-0.000219551 0.00131135 -1.44013e-06
2.69742e-06 -1.44013e-06 0.000606646
0.00012431 -0.00149092 5.31121e-05
-0.00149092 0.00200992 -1.64023e-05
5.31121e-05 -1.64023e-05 -2.98694e-05
0.000232751 -0.000134803 -1.72879e-05
-0.000134803 0.00159034 -1.78582e-05
-1.72879e-05 -1.78582e-05 0.000679662
0.00026437 0.000142835 3.89667e-05
0.000142835 0.000486513 -2.33118e-05
3.89667e-05 -2.33118e-05 2.46131e-05
-0.00170049 -0.000128687 -0.000306876
-0.000128687 0.00244874 1.93418e-05
-0.000306876 1.93418e-05 -0.000328896
0.00143757 0.000607234 3.62533e-05
0.000607234 0.00179906 -7.67063e-06
3.62533e-05 -7.67063e-06 0.00102135
-0.00477644 -0.00041663 -3.11783e-05
-0.00041663 0.00582607 -0.00014772
-3.11783e-05 -0.00014772 0.00197975
0.00317515 0.000146382 5.2818e-05
0.000146382 0.0022173 3.00302e-05
5.2818e-05 3.00302e-05 -0.00213405
-0.00477083 0.00256078 -0.000177145
0.00256078 0.00533072 -0.000118183
-0.000177145 -0.000118183 0.000402335
0.00125926 0.000778355 -1.4089e-06
0.000778355 0.0015941 -7.76728e-07
-1.4089e-06 -7.76728e-07 0.000798479
-0.00121063 0.00171845 0.000350631
0.00171845 0.0018118 0.000125347
0.000350631 0.000125347 3.72544e-05
0.00103582 -4.95677e-05 9.51155e-05
-4.95677e-05 0.00410957 -6.5442e-06
9.51155e-05 -6.5442e-06 0.000886665
0.00541668 -0.00164967 0.000444393
-0.00164967 0.00647242 -0.000244852
0.000444393 -0.000244852 -0.00421812
0.0298193 0.00410342 -0.000501927
0.00410342 0.0118239 0.000368312
-0.000501927 0.000368312 0.00260689
0.00381656 -0.00109519 -0.000611181
-0.00109519 0.00445311 1.51411e-05
-0.000611181 1.51411e-05 0.000807902
0.0198561 0.00684253 -0.00071474
0.00684253 0.015493 -0.000394149
-0.00071474 -0.000394149 0.00813229
0.000633098 0.000281463 -7.65459e-05
0.000281463 0.00207519 3.53132e-06
-7.65459e-05 3.53132e-06 0.000214939
-0.0013729 -0.00108359 -0.000220056
-0.00108359 0.00593372 8.10256e-06
-0.000220056 8.10256e-06 0.00267725
0.0013592 -0.00261524 0.000270691
-0.00261524 0.0028299 -6.95246e-05
0.000270691 -6.95246e-05 -0.00355667
-0.00405031 9.27618e-05 0.000100862
9.27618e-05 0.00154481 5.28637e-05
0.000100862 5.28637e-05 0.000121895
0.0404112 0.0222217 0.000875254
0.0222217 0.0285377 -0.000255693
0.000875254 -0.000255693 0.0110256
0.0168601 0.00381871 -7.49569e-05
0.00381871 0.0125948 0.000579429
-7.49569e-05 0.000579429 0.00185856
-0.000212393 -0.00226251 0.000417042
-0.00226251 0.00543288 -0.000263549
0.000417042 -0.000263549 -0.00451463
-0.00185331 -0.00113166 -3.88329e-05
-0.00113166 0.0012704 -5.44755e-05
-3.88329e-05 -5.44755e-05 -0.00072883
0.00216969 -0.00164504 0.000485765
-0.00164504 0.000412405 -0.00012019
0.000485765 -0.00012019 -0.00540202
0.00637196 0.00688588 -0.00318178
0.00688588 0.0162817 7.09444e-05
-0.00318178 7.09444e-05 0.00430924
0.028689 0.0110634 -0.000399104
0.0110634 0.0144909 0.000472414
-0.000399104 0.000472414 0.00278921
0.00558022 -0.00706673 -0.000395991
-0.00706673 0.00444658 0.000205776
-0.000395991 0.000205776 -0.0001005
0.00290838 -0.00373075 6.92413e-05
-0.00373075 0.00513747 7.59464e-05
6.92413e-05 7.59464e-05 0.00243868
-0.000226185 -0.000138117 2.37732e-05
-0.000138117 0.000691038 -2.17746e-05
2.37732e-05 -2.17746e-05 -0.000229801
0.000650417 -0.000744284 -1.70729e-05
-0.000744284 0.001129 2.78635e-06
-1.70729e-05 2.78635e-06 8.07608e-05
-2.44502e-06 -0.00158216 1.99158e-05
-0.00158216 0.000409018 1.62074e-05
1.99158e-05 1.62074e-05 -0.000666628
-0.00226101 -0.000177311 8.70152e-06
-0.000177311 -0.000759289 1.79101e-06
8.70152e-06 1.79101e-06 -0.00111389
-0.000241701 -0.000736686 -1.34736e-05
-0.000736686 0.000150502 4.64066e-06
-1.34736e-05 4.64066e-06 -0.000510033
0.00234755 -0.00126035 3.94016e-05
-0.00126035 0.00105068 -9.96275e-06
3.94016e-05 -9.96275e-06 0.000238379
0.00588027 -0.00172363 -1.16011e-05
-0.00172363 0.00289943 9.20087e-06
-1.16011e-05 9.20087e-06 0.00221785
0.00230807 -0.00123243 1.13694e-05
-0.00123243 0.0010493 -3.90884e-06
1.13694e-05 -3.90884e-06 1.44388e-05
0.00282141 -0.00165487 3.89328e-07
-0.00165487 0.000950707 -2.00852e-05
3.89328e-07 -2.00852e-05 -0.000125089
0.00180082 -0.00103616 1.37265e-06
-0.00103616 0.000629957 -9.75606e-06
1.37265e-06 -9.75606e-06 -0.000136444
0.00258963 -0.00143576 1.77118e-06
-0.00143576 0.00090128 -2.87754e-06
1.77118e-06 -2.87754e-06 -4.63229e-05
0.00377319 -0.00172851 -5.3615e-06
-0.00172851 0.00135221 -1.14085e-05
-5.3615e-06 -1.14085e-05 0.000420011
0.00265797 -0.00112374 -1.16644e-06
-0.00112374 0.000449165 -4.85267e-06
-1.16644e-06 -4.85267e-06 -8.76425e-05
0.00347294 -0.00156546 -6.28578e-06
-0.00156546 0.00116769 -2.2545e-06
-6.28578e-06 -2.2545e-06 0.000364125
0.00315749 -0.00157889 -4.43375e-06
-0.00157889 0.00100882 -7.87216e-07
-4.43375e-06 -7.87216e-07 0.000163707
0.00286938 -0.00145828 1.38471e-05
-0.00145828 0.00111236 -8.05271e-06
1.38471e-05 -8.05271e-06 0.000284811
0.00217512 -0.00135953 4.30775e-06
-0.00135953 0.000683491 -1.86252e-06
4.30775e-06 -1.86252e-06 -0.000118149
0.00258845 -0.00131784 1.20567e-05
-0.00131784 0.000958458 -5.68375e-06
1.20567e-05 -5.68375e-06 0.000155543
0.00229907 -0.00105488 2.00438e-05
-0.00105488 0.00101752 2.30033e-06
2.00438e-05 2.30033e-06 0.000297768
0.00236144 -0.00119064 -2.23108e-06
-0.00119064 0.000979871 -2.46826e-06
-2.23108e-06 -2.46826e-06 0.000234271
0.00217556 -0.00122743 -6.39975e-06
-0.00122743 0.000759593 4.80112e-06
-6.39975e-06 4.80112e-06 1.37157e-05
0.00327974 -0.000302755 1.11464e-05
-0.000302755 0.00177415 2.7792e-06
1.11464e-05 2.7792e-06 0.00141501
0.00102206 -0.00040114 -9.92087e-06
-0.00040114 0.000270543 4.2325e-06
-9.92087e-06 4.2325e-06 -0.000131755
0.00273129 -0.000968872 -9.93406e-06
-0.000968872 0.00128968 -7.34357e-06
-9.93406e-06 -7.34357e-06 0.000688825
0.00066503 -0.000259373 -3.16924e-07
-0.000259373 9.23311e-05 -1.54175e-06
-3.16924e-07 -1.54175e-06 -0.000212762
0.000626743 -0.00017069 -3.54527e-06
-0.00017069 0.000160245 2.32109e-07
-3.54527e-06 2.32109e-07 -0.00018312
5.49199e-05 -0.000169134 7.30443e-06
-0.000169134 -0.000294797 7.08262e-06
7.30443e-06 7.08262e-06 -0.000640215
0.000210233 -0.000112601 -1.83372e-05
-0.000112601 -0.000166829 2.39505e-05
-1.83372e-05 2.39505e-05 -0.000273556
0.000861473 -0.000238347 3.89847e-06
-0.000238347 0.000316983 2.12139e-06
3.89847e-06 2.12139e-06 6.64917e-07
0.00196328 -0.000498263 -3.72975e-06
-0.000498263 0.00112384 -1.47434e-06
-3.72975e-06 -1.47434e-06 0.000712473
0.00122798 -0.000165259 -4.84955e-06
-0.000165259 0.000548968 -1.28171e-05
-4.84955e-06 -1.28171e-05 0.000303019
0.000325989 -6.36986e-05 -1.67242e-07
-6.36986e-05 -7.48571e-05 -6.01996e-07
-1.67242e-07 -6.01996e-07 -0.000157762
0.00419228 0.000145623 -6.4999e-05
0.000145623 0.00250503 8.78471e-06
-6.4999e-05 8.78471e-06 0.00249186
0.00035497 -6.4842e-05 5.77447e-06
-6.4842e-05 -4.86627e-05 -1.53471e-05
5.77447e-06 -1.53471e-05 -0.000110923
0.00359252 0.000104398 1.11917e-05
0.000104398 0.00209651 1.05783e-06
1.11917e-05 1.05783e-06 0.00209407
0.00300928 6.44271e-05 5.41323e-05
6.44271e-05 0.00169711 -7.30328e-06
5.41323e-05 -7.30328e-06 0.00170466
0.00432415 0.000281615 1.52661e-05
0.000281615 0.00279164 -9.36106e-06
1.52661e-05 -9.36106e-06 0.00229194
0.00304241 0.000299108 1.33222e-05
0.000299108 0.00196429 -3.21425e-05
1.33222e-05 -3.21425e-05 0.00153997
0.000759136 0.000106026 4.76558e-06
0.000106026 0.000268172 -1.20304e-05
4.76558e-06 -1.20304e-05 8.82783e-05
0.000642522 0.000183544 1.2586e-06
0.000183544 0.000265393 1.27271e-06
1.2586e-06 1.27271e-06 4.08628e-07
0.000436732 -2.81141e-05 7.49613e-06
-2.81141e-05 1.14272e-05 -1.27228e-05
7.49613e-06 -1.27228e-05 -3.9189e-05
0.000646858 0.000118678 -8.34156e-07
0.000118678 0.000198371 -5.02472e-07
-8.34156e-07 -5.02472e-07 3.80796e-05
0.000751786 0.000106097 -4.36903e-06
0.000106097 0.000329397 -8.57458e-06
-4.36903e-06 -8.57458e-06 8.34536e-05
0.00292588 -4.91831e-05 -3.97e-05
-4.91831e-05 0.00165158 -7.88633e-06
-3.97e-05 -7.88633e-06 0.00165851
0.000396401 1.57002e-06 -3.2334e-06
1.57002e-06 -1.9263e-05 -3.26119e-07
-3.2334e-06 -3.26119e-07 -6.0433e-05
0.000601682 0.000111621 -5.52052e-06
0.000111621 0.000168267 5.71296e-06
-5.52052e-06 5.71296e-06 3.43858e-05
0.00269421 -3.52987e-05 -6.99011e-06
-3.52987e-05 0.00149397 4.64663e-07
-6.99011e-06 4.64663e-07 0.00150305
0.000381197 -5.02559e-06 -6.227e-06
-5.02559e-06 -3.39738e-05 7.52292e-06
-6.227e-06 7.52292e-06 -6.57319e-05
0.00247992 -1.50276e-05 2.11977e-05
-1.50276e-05 0.00135018 6.56581e-06
2.11977e-05 6.56581e-06 0.00136194
-0.00146787 0.00160743 -9.39707e-05
0.00160743 0.00448941 -0.000184611
-9.39707e-05 -0.000184611 -0.000261605
0.00640122 -0.000593986 -6.1637e-05
-0.000593986 0.00458432 -0.000100939
-6.1637e-05 -0.000100939 0.00122225
0.000174887 -0.000655517 0.000132058
-0.000655517 0.0062893 -9.41821e-05
0.000132058 -9.41821e-05 0.00259342
0.000513207 7.16892e-05 2.82739e-06
7.16892e-05 0.000433575 -9.68062e-06
2.82739e-06 -9.68062e-06 -0.000108417
-0.000247699 0.00037126 1.74511e-06
0.00037126 -0.000225534 -1.11316e-05
1.74511e-06 -1.11316e-05 -0.000546323
-0.000774177 0.000239378 2.77469e-05
0.000239378 -0.000834686 -2.79068e-05
2.77469e-05 -2.79068e-05 -0.00102528
-0.00218402 5.26804e-06 4.25942e-06
5.26804e-06 -0.00118084 3.38648e-05
4.25942e-06 3.38648e-05 -0.00173599
0.00204943 0.000646033 6.04991e-06
0.000646033 0.0011284 -8.66159e-06
6.04991e-06 -8.66159e-06 0.000718934
7.1032e-05 0.000104019 -9.11364e-06
0.000104019 -7.50121e-05 4.33233e-06
-9.11364e-06 4.33233e-06 -0.000374433
3.71204e-05 0.000112725 -1.75258e-05
0.000112725 -0.00015516 -1.21894e-06
-1.75258e-05 -1.21894e-06 -0.000312121
0.00117899 2.00466e-05 1.03395e-05
2.00466e-05 0.000622229 1.65487e-06
1.03395e-05 1.65487e-06 0.000373298
0.0011651 0.000219295 -7.98805e-06
0.000219295 0.000619045 -9.33593e-06
-7.98805e-06 -9.33593e-06 0.000500722
0.0031366 0.000298565 -4.53667e-06
0.000298565 0.0021083 -3.69488e-05
-4.53667e-06 -3.69488e-05 0.00169002
0.0121708 0.00480043 0.00115359
0.00480043 0.00737146 0.000649442
0.00115359 0.000649442 0.00190983
0.00554256 0.00185092 2.83203e-05
0.00185092 0.00261628 6.6101e-05
2.83203e-05 6.6101e-05 -0.00132609
0.00972797 -0.000453325 0.000261008
-0.000453325 0.000861554 7.01375e-06
0.000261008 7.01375e-06 -0.00200764
0.0161167 -0.00040625 -0.000245743
-0.00040625 0.00283139 -0.000128224
-0.000245743 -0.000128224 0.00351925
0.00855838 0.000663838 0.000194718
0.000663838 0.000663824 0.000472255
0.000194718 0.000472255 -0.00628939
0.00381277 -0.00662921 -0.000162552
-0.00662921 0.00228442 6.70269e-05
-0.000162552 6.70269e-05 0.00117022
0.0036191 -0.00251408 -0.00057575
-0.00251408 0.00655886 0.000175619
-0.00057575 0.000175619 -0.000300134
-0.00150722 -0.00239146 -0.000136299
-0.00239146 0.00153678 0.000172897
-0.000136299 0.000172897 -0.000164421
0.012393 -0.00037359 -0.000459344
-0.00037359 0.00966678 -8.14027e-06
-0.000459344 -8.14027e-06 0.000902259
0.0100087 -0.00397949 0.000165194
-0.00397949 0.00706564 0.000291125
0.000165194 0.000291125 -0.00165491
0.032945 -0.00671147 0.000421851
-0.00671147 0.013039 -0.00108753
0.000421851 -0.00108753 0.00319834
-0.00138048 0.000596114 -0.000276819
0.000596114 0.00295598 0.0001315
-0.000276819 0.0001315 0.000193559
0.00384035 0.0020769 -0.00041787
0.0020769 0.00751332 -0.000165552
-0.00041787 -0.000165552 0.000165071
0.0335441 -0.0121486 0.00132518
-0.0121486 0.0203862 -0.00131736
0.00132518 -0.00131736 0.00697034
0.037639 -0.0192439 0.000160416
-0.0192439 0.0258223 -5.2918e-05
0.000160416 -5.2918e-05 0.0100521
0.000867866 0.000594384 5.70857e-05
0.000594384 0.000801872 1.63562e-05
5.70857e-05 1.63562e-05 0.000133229
-0.000186842 9.67621e-05 1.58582e-05
9.67621e-05 0.000404292 3.8426e-06
1.58582e-05 3.8426e-06 -0.000256946
0.00105209 0.000193562 -4.24128e-05
0.000193562 0.000654093 -1.4997e-05
-4.24128e-05 -1.4997e-05 0.000448968
0.00169288 -0.00199743 9.03331e-05
-0.00199743 0.00260188 8.76518e-06
9.03331e-05 8.76518e-06 7.95336e-05
-0.00189213 -0.000202238 0.000173874
-0.000202238 0.000600323 2.37856e-05
0.000173874 2.37856e-05 -0.000434834
0.000439715 0.000196912 -4.08512e-05
0.000196912 0.000576714 1.55248e-05
-4.08512e-05 1.55248e-05 0.000110287
-0.000482217 -0.0002242 -2.97078e-05
-0.0002242 0.00067165 -1.23451e-06
-2.97078e-05 -1.23451e-06 -0.000233929
0.000126246 0.000283521 -1.40511e-05
0.000283521 0.000457408 3.6585e-06
-1.40511e-05 3.6585e-06 -2.45636e-05
-0.000260045 0.000478931 3.11686e-05
0.000478931 0.000662886 7.46731e-06
3.11686e-05 7.46731e-06 -0.000113421
-0.0032525 4.91967e-05 0.000188874
4.91967e-05 0.00165668 -0.000117521
0.000188874 -0.000117521 -0.000782699
0.00231081 0.00117887 7.98799e-05
0.00117887 0.00132692 7.43848e-05
7.98799e-05 7.43848e-05 0.000701453
0.000763758 0.00132236 -0.000105794
0.00132236 0.00194599 -0.000146078
-0.000105794 -0.000146078 -0.00027988
-0.000235862 -0.00119561 0.000374963
-0.00119561 0.00140581 0.000143889
0.000374963 0.000143889 -0.00417123
-0.00387265 0.00104907 -0.000277572
0.00104907 0.00574191 -2.05352e-05
-0.000277572 -2.05352e-05 0.000816208
0.00658108 -0.00074614 -0.000212068
-0.00074614 0.00485735 1.82686e-05
-0.000212068 1.82686e-05 0.00252033
0.000367549 0.000901377 9.89611e-05
0.000901377 0.00157211 2.15437e-05
9.89611e-05 2.15437e-05 -0.00039433
-0.000539134 0.000510155 -5.89228e-05
0.000510155 0.00338193 0.000116818
-5.89228e-05 0.000116818 0.000725241
-0.00184126 -9.71823e-05 -0.000104683
-9.71823e-05 0.00466072 -0.000106414
-0.000104683 -0.000106414 0.00079842
0.0139547 -0.00735859 0.000592677
-0.00735859 0.0104949 -0.000347877
0.000592677 -0.000347877 0.000475394
0.032544 0.0106482 -0.00108901
0.0106482 0.0197708 -0.000442465
-0.00108901 -0.000442465 0.0063749
0.00825798 -0.00369826 -0.000612737
-0.00369826 0.00447353 0.000364723
-0.000612737 0.000364723 -0.000664722
0.0332327 0.0263686 0.00251466
0.0263686 0.024315 -0.00177409
0.00251466 -0.00177409 0.00641539
-0.000961803 -0.000954156 2.38392e-05
-0.000954156 0.00153968 -2.25852e-06
2.38392e-05 -2.25852e-06 -0.000534401
0.000713463 -0.00114448 0.000132449
-0.00114448 0.00147743 4.12438e-06
0.000132449 4.12438e-06 -0.00472224
0.0117808 0.00743917 -0.00171437
0.00743917 0.0158054 4.3448e-05
-0.00171437 4.3448e-05 0.00336176
2.7916e-06 -0.00233927 4.87551e-05
-0.00233927 0.0027298 3.88119e-05
4.87551e-05 3.88119e-05 0.000756812
0.0327518 0.0111326 0.000670865
0.0111326 0.0162287 0.000371788
0.000670865 0.000371788 0.00418597
0.00464984 -0.0102402 0.000551888
-0.0102402 0.00345598 -0.000182469
0.000551888 -0.000182469 -0.0022456
-0.00074941 -0.00270912 4.08384e-05
-0.00270912 0.000935745 5.66488e-05
4.08384e-05 5.66488e-05 -0.00105137
0.00240708 -0.00063893 0.000199967
-0.00063893 0.0126009 -0.000165103
0.000199967 -0.000165103 0.00517827
0.0248356 0.011966 -0.00268514
0.011966 0.0122131 3.38167e-05
-0.00268514 3.38167e-05 0.00201111
0.00207453 -0.00947346 -0.00118598
-0.00947346 -0.00459049 0.000286755
-0.00118598 0.000286755 -0.00441255
-0.00019438 -0.00408863 0.00026391
-0.00408863 0.000269713 -0.00021595
0.00026391 -0.00021595 0.000821001
0.000562035 -0.000641907 -9.52822e-05
-0.000641907 0.000998725 3.46354e-05
-9.52822e-05 3.46354e-05 -3.8053e-05
-5.60877e-05 -0.00124816 -2.39117e-05
-0.00124816 0.000520832 1.69842e-05
-2.39117e-05 1.69842e-05 -0.000507527
-0.000438969 -0.00122655 -4.74688e-06
-0.00122655 -0.000360402 -1.1439e-05
-4.74688e-06 -1.1439e-05 -0.00114188
-0.00273708 -0.000247755 1.68202e-05
-0.000247755 -0.00105742 -3.71727e-07
1.68202e-05 -3.71727e-07 -0.00159032
0.000755653 -0.00105423 5.00622e-06
-0.00105423 0.000201721 -7.029e-06
5.00622e-06 -7.029e-06 -0.000519304
0.00381641 -0.00185326 -1.90881e-06
-0.00185326 0.00118629 -1.59536e-06
-1.90881e-06 -1.59536e-06 0.000481135
0.0052224 -0.0017354 -3.04858e-05
-0.0017354 0.00255965 7.20276e-06
-3.04858e-05 7.20276e-06 0.00149423
0.00238317 -0.00152877 -2.3537e-06
-0.00152877 0.000703313 -1.92189e-06
-2.3537e-06 -1.92189e-06 -0.000307239
0.0035145 -0.00181391 3.51196e-06
-0.00181391 0.000950311 -1.04688e-05
3.51196e-06 -1.04688e-05 0.000126822
0.0028057 -0.00146451 1.05533e-05
-0.00146451 0.00103066 1.30738e-06
1.05533e-05 1.30738e-06 6.86241e-05
0.00310906 -0.00161278 3.08429e-06
-0.00161278 0.000989065 -4.65728e-06
3.08429e-06 -4.65728e-06 9.98932e-05
0.00324589 -0.00127623 -9.63366e-07
-0.00127623 0.000731769 -6.00853e-06
-9.63366e-07 -6.00853e-06 0.000189436
0.00229147 -0.000742284 -1.52639e-06
-0.000742284 5.63261e-05 -2.50985e-07
-1.52639e-06 -2.50985e-07 -0.000172198
0.00234299 -0.00108805 2.05904e-06
-0.00108805 0.000205156 -2.7977e-06
2.05904e-06 -2.7977e-06 -0.000328091
0.0026455 -0.00113206 4.69805e-06
-0.00113206 0.000420891 -1.59852e-06
4.69805e-06 -1.59852e-06 -0.000115663
0.00336663 -0.00140437 1.90549e-07
-0.00140437 0.00115869 -4.3985e-06
1.90549e-07 -4.3985e-06 0.000435428
0.00340101 -0.00156455 -4.65974e-06
-0.00156455 0.00113033 -5.74793e-07
-4.65974e-06 -5.74793e-07 0.000319268
0.0033315 -0.00161425 8.16625e-06
-0.00161425 0.00109365 -5.21652e-06
8.16625e-06 -5.21652e-06 0.000234762
0.00263562 -0.00129896 8.38712e-07
-0.00129896 0.00100042 -1.1976e-05
8.38712e-07 -1.1976e-05 0.000211696
0.00236024 -0.00138596 2.22259e-06
-0.00138596 0.000817312 -8.71232e-07
2.22259e-06 -8.71232e-07 9.39834e-06
0.00175402 -0.00127073 2.60539e-06
-0.00127073 0.000449497 1.36268e-06
2.60539e-06 1.36268e-06 -0.000315691
0.00407014 -0.000807125 1.44816e-05
-0.000807125 0.00222647 1.36673e-05
1.44816e-05 1.36673e-05 0.00168028
0.00100151 -0.00088683 3.78884e-06
-0.00088683 0.000254662 4.80337e-06
3.78884e-06 4.80337e-06 -0.000427976
0.00223568 -0.00116152 -1.7847e-05
-0.00116152 0.00089596 9.42305e-06
-1.7847e-05 9.42305e-06 0.000163661
0.00148075 -0.000346191 6.64237e-06
-0.000346191 0.00057654 -7.33376e-06
6.64237e-06 -7.33376e-06 0.000306318
0.000534692 -0.000380121 -1.29158e-06
-0.000380121 5.84635e-05 -7.44945e-06
-1.29158e-06 -7.44945e-06 -0.000325169
0.000162709 -0.00025275 -4.11157e-06
-0.00025275 -0.000195232 -1.88604e-06
-4.11157e-06 -1.88604e-06 -0.000589773
0.00304271 -0.000133626 -0.000115126
-0.000133626 0.0016597 1.64335e-05
-0.000115126 1.64335e-05 0.00156314
0.000446391 -0.000238965 -4.65911e-06
-0.000238965 -2.73113e-05 9.41806e-07
-4.65911e-06 9.41806e-07 -0.000342094
0.000746916 -0.000431836 -4.19859e-06
-0.000431836 0.00021573 6.96988e-07
-4.19859e-06 6.96988e-07 -0.000136825
0.00147896 1.36957e-06 -0.000111844
1.36957e-06 0.000692394 1.17003e-05
-0.000111844 1.17003e-05 0.000667977
0.00141151 -9.22313e-05 -3.18959e-05
-9.22313e-05 0.000635178 -8.88434e-07
-3.18959e-05 -8.88434e-07 0.000519406
0.00177884 -0.000294948 2.39981e-06
-0.000294948 0.000867675 -6.423e-06
2.39981e-06 -6.423e-06 0.000578227
0.000790694 -8.79313e-05 1.44513e-05
-8.79313e-05 0.000219637 -1.73483e-05
1.44513e-05 -1.73483e-05 0.000133888
0.00445044 0.000133923 1.36164e-05
0.000133923 0.00267323 9.63987e-07
1.36164e-05 9.63987e-07 0.00266366
0.00408668 9.96853e-05 8.13598e-05
9.96853e-05 0.00242262 -8.49823e-06
8.13598e-05 -8.49823e-06 0.00242101
-0.00242468 7.24826e-05 4.12896e-06
7.24826e-05 -0.00176851 7.81167e-06
4.12896e-06 7.81167e-06 -0.0021011
0.00234612 0.000406759 5.96895e-06
0.000406759 0.00150893 -2.41887e-05
5.96895e-06 -2.41887e-05 0.00103413
-0.000997668 9.63441e-05 4.0274e-06
9.63441e-05 -0.00062294 -1.18758e-07
4.0274e-06 -1.18758e-07 -0.00109234
0.000833426 0.000140589 -7.4845e-07
0.000140589 0.000325403 -1.42015e-05
-7.4845e-07 -1.42015e-05 0.000110849
0.000414202 0.00021635 6.5957e-06
0.00021635 0.000203029 -1.05979e-06
6.5957e-06 -1.05979e-06 -0.0001744
0.000238246 3.19789e-05 -6.71334e-06
3.19789e-05 -9.72996e-05 -1.54573e-05
-6.71334e-06 -1.54573e-05 -0.00016308
0.000518729 0.000102272 5.08191e-08
0.000102272 0.00012138 1.01969e-06
5.08191e-08 1.01969e-06 -6.72772e-05
0.000795835 0.000195717 -3.51761e-06
0.000195717 0.000410466 8.58144e-06
-3.51761e-06 8.58144e-06 0.000118838
0.00320369 -6.83101e-05 -5.41966e-05
-6.83101e-05 0.00184277 -8.46951e-06
-5.41966e-05 -8.46951e-06 0.00184654
0.00032523 1.73776e-05 -8.87131e-07
1.73776e-05 -5.71353e-05 -1.91678e-08
-8.87131e-07 -1.91678e-08 -0.000108618
0.000252352 0.000100834 -3.01479e-06
0.000100834 -6.49756e-05 8.84607e-06
-3.01479e-06 8.84607e-06 -0.000218025
0.00278063 -5.43584e-05 -9.42681e-06
-5.43584e-05 0.0015552 6.22379e-07
-9.42681e-06 6.22379e-07 0.00156136
0.000290473 -2.1767e-05 -9.10301e-06
-2.1767e-05 -8.86725e-05 9.62984e-06
-9.10301e-06 9.62984e-06 -0.000128376
0.00257476 -3.34106e-05 2.5887e-05
-3.34106e-05 0.00141493 6.82215e-06
2.5887e-05 6.82215e-06 0.00142477
0.00629489 0.00200953 0.000749638
0.00200953 0.00601243 0.000184702
0.000749638 0.000184702 0.00128458
-0.00148875 0.00155269 -4.20477e-05
0.00155269 0.00382673 -9.92447e-06
-4.20477e-05 -9.92447e-06 -0.00111768
0.000603424 0.00204287 2.12018e-06
0.00204287 0.00467137 -3.0753e-05
2.12018e-06 -3.0753e-05 0.000330808
0.000200393 0.00048147 -2.13898e-05
0.00048147 -6.10888e-05 3.96283e-06
-2.13898e-05 3.96283e-06 -0.000509368
-0.00118108 5.44696e-06 -2.06307e-05
5.44696e-06 -0.000763064 3.38833e-05
-2.06307e-05 3.38833e-05 -0.00123268
-0.00171003 6.87998e-05 -2.4354e-05
6.87998e-05 -0.00117429 -1.74017e-05
-2.4354e-05 -1.74017e-05 -0.00139418
0.00222909 0.000159004 1.21531e-05
0.000159004 0.00141304 -6.03109e-09
1.21531e-05 -6.03109e-09 0.00103768
0.000582106 0.000357041 3.95676e-06
0.000357041 -1.87461e-05 -8.50008e-06
3.95676e-06 -8.50008e-06 -0.000235309
0.000860906 0.000525897 -2.52153e-05
0.000525897 0.000374574 -1.01868e-05
-2.52153e-05 -1.01868e-05 0.00013021
0.00149642 0.000540329 1.68618e-05
0.000540329 0.000651591 -4.15824e-05
1.68618e-05 -4.15824e-05 0.000226794
-0.00208236 0.000152465 -2.33525e-05
0.000152465 -0.000936854 8.95776e-06
-2.33525e-05 8.95776e-06 -0.00138462
-0.00047801 4.63147e-05 -6.29837e-06
4.63147e-05 -0.000359031 -7.05354e-06
-6.29837e-06 -7.05354e-06 -0.00064195
-0.00125606 3.63772e-05 -1.75675e-05
3.63772e-05 -0.00104747 1.40241e-05
-1.75675e-05 1.40241e-05 -0.00107731
-0.000623379 6.34215e-05 -8.21182e-06
6.34215e-05 -0.000155185 4.11815e-06
-8.21182e-06 4.11815e-06 -0.000604637
-0.000399661 0.000423452 -2.12414e-06
0.000423452 0.000127816 2.20409e-05
-2.12414e-06 2.20409e-05 -0.000642434
0.0161749 -0.0123465 -0.000340291
-0.0123465 0.0168417 0.000244923
-0.000340291 0.000244923 0.00130792
0.0116816 0.00514454 0.000340754
0.00514454 0.00501926 0.000212245
0.000340754 0.000212245 -0.00144738
0.00559367 0.00111517 0.000214143
0.00111517 0.00382597 -5.68672e-05
0.000214143 -5.68672e-05 -0.000591075
0.045148 -0.0116473 -0.0017865
-0.0116473 0.0174517 -0.000501602
-0.0017865 -0.000501602 0.00565046
0.0080684 -0.000988157 0.000356591
-0.000988157 0.00662982 0.000644239
0.000356591 0.000644239 0.000259737
0.00192239 -0.000388592 -0.000277307
-0.000388592 0.00651797 0.000200711
-0.000277307 0.000200711 -0.00273515
-0.000530028 -0.00284951 -5.07276e-05
-0.00284951 0.00265445 0.000131281
-5.07276e-05 0.000131281 8.32333e-05
-0.00126761 -0.000438723 0.000237942
-0.000438723 0.0027601 4.35502e-05
0.000237942 4.35502e-05 0.000696504
0.0381034 -0.0224659 0.000377412
-0.0224659 0.0257822 0.000551508
0.000377412 0.000551508 0.00867558
0.00309412 0.0028543 -0.000256497
0.0028543 0.00669997 -0.000156805
-0.000256497 -0.000156805 -0.00203401
0.0161884 -0.00677735 -0.000122555
-0.00677735 0.0137536 0.000218035
-0.000122555 0.000218035 0.000906582
-0.00044778 0.0016531 2.08184e-05
0.0016531 0.00227939 -2.01377e-05
2.08184e-05 -2.01377e-05 0.00047195
0.00512352 0.00770714 -0.00030648
0.00770714 0.00345636 9.11536e-06
-0.00030648 9.11536e-06 -0.00120012
0.0297775 -0.0105879 -0.00117791
-0.0105879 0.0149411 -0.000141062
-0.00117791 -0.000141062 0.00278692
0.00212656 0.00117877 1.79174e-05
0.00117877 0.00097387 4.58142e-05
1.79174e-05 4.58142e-05 0.000601067
0.00028638 0.000515522 7.14991e-06
0.000515522 0.000532571 2.69929e-06
7.14991e-06 2.69929e-06 -0.00020435
-0.000659123 4.37966e-05 -6.86055e-05
4.37966e-05 0.000161284 1.39883e-05
-6.86055e-05 1.39883e-05 -0.000536837
-0.00176161 -0.000363129 -0.000186973
-0.000363129 0.00242111 -3.83778e-05
-0.000186973 -3.83778e-05 0.000115106
0.00134004 0.000568082 -7.6464e-05
0.000568082 0.00104298 7.77887e-07
-7.6464e-05 7.77887e-07 0.000422074
-0.000116575 0.000294926 -2.47005e-05
0.000294926 0.000303575 7.66347e-06
-2.47005e-05 7.66347e-06 -0.000213151
0.00133825 0.0010214 -4.9851e-06
0.0010214 0.000750107 -2.0824e-06
-4.9851e-06 -2.0824e-06 0.000154653
0.000168554 0.00138945 -6.68947e-05
0.00138945 0.00162748 -7.96551e-05
-6.68947e-05 -7.96551e-05 -0.000384001
0.00332791 0.00326606 0.000143298
0.00326606 0.00169383 4.89807e-05
0.000143298 4.89807e-05 -6.02952e-05
-0.00686827 0.0013321 0.000740683
0.0013321 0.00672531 -6.75174e-05
0.000740683 -6.75174e-05 -0.00298086
0.00119417 -0.00128352 -6.35718e-05
-0.00128352 0.00269452 0.000101665
-6.35718e-05 0.000101665 -0.00142426
-0.00250139 0.00039963 -7.78833e-05
0.00039963 0.00472189 0.000138918
-7.78833e-05 0.000138918 -5.06393e-05
-0.00190764 -0.000602416 -6.59669e-05
-0.000602416 0.00101979 3.10253e-06
-6.59669e-05 3.10253e-06 -0.00105206
-0.00147504 -0.00152692 -1.95567e-05
-0.00152692 0.00144346 8.70193e-06
-1.95567e-05 8.70193e-06 0.000632405
-0.00325951 -0.00212057 -0.000297264
-0.00212057 0.00131094 0.000207987
-0.000297264 0.000207987 -0.00499705
-0.00110388 -0.00795488 0.000453213
-0.00795488 0.00369086 -0.000288604
0.000453213 -0.000288604 -0.00476092
0.0235681 0.0090823 0.00115965
0.0090823 0.010741 -0.000233637
0.00115965 -0.000233637 -0.000384423
0.0270507 0.0138648 -0.000279687
0.0138648 0.0188142 0.000717135
-0.000279687 0.000717135 0.00308663
0.00024777 -0.00196708 -4.89381e-05
-0.00196708 0.00195255 1.59952e-05
-4.89381e-05 1.59952e-05 0.000129976
0.00789834 0.00408345 0.000550695
0.00408345 0.0153336 -7.37615e-05
0.000550695 -7.37615e-05 0.00501154
0.0104591 0.0080082 7.16268e-05
0.0080082 0.00509359 0.0001256
7.16268e-05 0.0001256 -0.00267324
0.00258172 -0.00635091 8.24519e-05
-0.00635091 0.00120603 -5.67833e-05
8.24519e-05 -5.67833e-05 0.000534345
0.011871 -0.0100433 2.42832e-06
-0.0100433 -0.00123879 2.2959e-05
2.42832e-06 2.2959e-05 -0.00156629
0.00248177 -0.00325058 4.28639e-05
-0.00325058 0.00117665 3.22105e-06
4.28639e-05 3.22105e-06 0.000330772
-0.000535117 0.0052402 -0.00187754
0.0052402 0.00307701 0.000114109
-0.00187754 0.000114109 -0.00591323
0.0147358 -0.00647724 -0.000553708
-0.00647724 -0.00350328 8.39644e-05
-0.000553708 8.39644e-05 -0.0020229
0.00502843 -0.00642113 0.000121149
-0.00642113 -0.000922473 -0.000101862
0.000121149 -0.000101862 0.000873999
0.00012902 -0.000929607 -1.65936e-05
-0.000929607 0.000755177 -9.38762e-06
-1.65936e-05 -9.38762e-06 -0.000258974
0.00245423 -0.0019123 3.69781e-05
-0.0019123 0.000971867 -1.79495e-05
3.69781e-05 -1.79495e-05 0.000137956
0.00291919 -0.00167342 5.09158e-06
-0.00167342 0.000652189 -1.48471e-05
5.09158e-06 -1.48471e-05 5.42364e-05
-0.000158381 -0.000982696 -2.88799e-06
-0.000982696 -0.00030587 1.98716e-06
-2.88799e-06 1.98716e-06 -0.000962074
0.00242889 -0.0016964 -6.76744e-06
-0.0016964 0.000469447 1.58335e-06
-6.76744e-06 1.58335e-06 -0.000202772
0.00407514 -0.00182926 -2.09856e-06
-0.00182926 0.00107414 -2.50404e-06
-2.09856e-06 -2.50404e-06 0.000457813
0.00203603 -0.00143598 3.59024e-06
-0.00143598 0.000493566 9.29049e-06
3.59024e-06 9.29049e-06 -0.000461183
0.00309297 -0.00175361 -1.02972e-06
-0.00175361 0.000721432 3.93042e-06
-1.02972e-06 3.93042e-06 -9.10342e-05
0.00310587 -0.00135925 -1.12372e-06
-0.00135925 0.000436993 -1.71007e-06
-1.12372e-06 -1.71007e-06 1.59294e-05
0.00228221 -0.0014753 7.07939e-06
-0.0014753 0.000531403 3.02504e-06
7.07939e-06 3.02504e-06 -0.000311225
0.00273587 -0.00119566 -2.93487e-06
-0.00119566 0.000440588 3.80371e-06
-2.93487e-06 3.80371e-06 -7.49528e-05
0.00253923 -0.000836043 8.75969e-08
-0.000836043 7.80676e-05 -3.26103e-07
8.75969e-08 -3.26103e-07 -9.86581e-05
0.00255588 -0.000808325 -3.22998e-06
-0.000808325 0.000214841 9.29487e-07
-3.22998e-06 9.29487e-07 4.87742e-05
0.00215014 -0.000734406 -3.92472e-06
-0.000734406 2.25098e-05 -2.27175e-07
-3.92472e-06 -2.27175e-07 -0.000243629
0.00226013 -0.000734726 8.60404e-07
-0.000734726 2.19744e-05 2.71847e-06
8.60404e-07 2.71847e-06 -0.000204034
0.00219953 -0.000943348 -3.16434e-06
-0.000943348 0.000183213 -4.7301e-06
-3.16434e-06 -4.7301e-06 -0.000281421
0.00245836 -0.00108624 4.23451e-06
-0.00108624 0.000305169 4.85674e-07
4.23451e-06 4.85674e-07 -0.000221088
0.00267938 -0.00114131 3.21054e-06
-0.00114131 0.000425864 3.97981e-06
3.21054e-06 3.97981e-06 -0.00010976
0.00265654 -0.0012327 -4.41374e-06
-0.0012327 0.000731378 -7.43191e-06
-4.41374e-06 -7.43191e-06 5.28247e-05
0.00297981 -0.00136504 1.48423e-06
-0.00136504 0.000912515 -1.0123e-06
1.48423e-06 -1.0123e-06 0.000193942
0.00332598 -0.00155807 -2.08667e-06
-0.00155807 0.00109488 -8.12286e-07
-2.08667e-06 -8.12286e-07 0.000278597
0.00150549 -0.00085833 -6.81142e-06
-0.00085833 0.000277783 -6.11971e-06
-6.81142e-06 -6.11971e-06 -0.000341873
0.00256209 -0.00128955 2.07474e-06
-0.00128955 0.000947754 -6.34349e-07
2.07474e-06 -6.34349e-07 0.000161747
0.00192037 -0.00132402 -2.18911e-06
-0.00132402 0.000563553 5.60315e-06
-2.18911e-06 5.60315e-06 -0.000228161
0.00082729 -0.000456628 -1.20948e-05
-0.000456628 4.64193e-05 -4.77624e-06
-1.20948e-05 -4.77624e-06 -0.000212543
0.00131505 -0.000779674 3.32642e-06
-0.000779674 0.000468941 3.5728e-06
3.32642e-06 3.5728e-06 -7.0912e-05
7.0754e-05 -0.000763336 -7.48767e-06
-0.000763336 -0.000279694 9.88671e-06
-7.48767e-06 9.88671e-06 -0.000927497
0.000356805 -0.000196278 -3.16172e-05
-0.000196278 -0.000151677 1.54094e-05
-3.16172e-05 1.54094e-05 -0.000275156
0.000849757 -0.000458441 3.44906e-06
-0.000458441 0.000241649 2.26444e-07
3.44906e-06 2.26444e-07 -8.46855e-05
-0.00219248 -0.000439923 -8.4303e-06
-0.000439923 -0.00165341 -1.06588e-05
-8.4303e-06 -1.06588e-05 -0.00205032
0.00670284 0.000414415 3.81942e-05
0.000414415 0.00425717 1.39248e-05
3.81942e-05 1.39248e-05 0.00416057
0.000608045 -0.000185969 7.14593e-06
-0.000185969 3.56142e-05 1.96912e-06
7.14593e-06 1.96912e-06 -9.23201e-05
0.000253464 -0.000200244 -5.4223e-06
-0.000200244 -0.000174036 2.63845e-06
-5.4223e-06 2.63845e-06 -0.000481106
0.00475284 0.000163506 2.395e-05
0.000163506 0.00288711 1.26208e-06
2.395e-05 1.26208e-06 0.002869
0.000616434 -0.000117133 1.18328e-05
-0.000117133 0.000106735 -1.84667e-05
1.18328e-05 -1.84667e-05 -2.68129e-05
0.00428265 0.000121568 8.90183e-05
0.000121568 0.00255666 -1.12538e-05
8.90183e-05 -1.12538e-05 0.0025499
0.00268363 0.000561695 -1.56382e-06
0.000561695 0.00133759 1.02705e-05
-1.56382e-06 1.02705e-05 0.000956823
0.00025281 0.000249704 4.34655e-06
0.000249704 -0.000119422 8.25331e-07
4.34655e-06 8.25331e-07 -0.000440951
0.000889128 0.000812287 -3.90085e-06
0.000812287 0.000456154 -1.6593e-06
-3.90085e-06 -1.6593e-06 1.13063e-05
0.00164116 0.000347271 -3.09621e-06
0.000347271 0.000812139 -1.23387e-05
-3.09621e-06 -1.23387e-05 0.000570119
0.00135875 0.000236192 -1.8557e-07
0.000236192 0.00089483 1.41922e-06
-1.8557e-07 1.41922e-06 0.000397169
-0.00102359 0.000160137 -3.48611e-06
0.000160137 -0.00056092 8.21191e-06
-3.48611e-06 8.21191e-06 -0.00106281
0.000585143 2.28031e-05 -5.45633e-06
2.28031e-05 0.000134268 -1.68017e-05
-5.45633e-06 -1.68017e-05 5.02876e-05
0.000607011 0.000142877 1.30744e-07
0.000142877 0.000175629 1.06984e-06
1.30744e-07 1.06984e-06 -3.41099e-05
-0.000617748 6.13726e-05 -1.12826e-05
6.13726e-05 -0.0005563 3.15633e-05
-1.12826e-05 3.15633e-05 -0.000868757
0.00383657 -9.67072e-05 -6.96519e-05
-9.67072e-05 0.00227257 -9.30438e-06
-6.96519e-05 -9.30438e-06 0.00227124
0.000392683 -3.12949e-05 8.55816e-07
-3.12949e-05 3.38999e-06 -2.83684e-07
8.55816e-07 -2.83684e-07 -6.20278e-05
0.000516529 9.88839e-05 -3.40317e-06
9.88839e-05 0.000130727 1.11516e-05
-3.40317e-06 1.11516e-05 -6.54807e-05
0.00322943 -7.85586e-05 -1.14919e-05
-7.85586e-05 0.00186129 9.6108e-07
-1.14919e-05 9.6108e-07 0.0018624
0.00042988 3.73394e-05 8.62548e-07
3.73394e-05 1.00306e-05 1.20337e-05
8.62548e-07 1.20337e-05 -4.01572e-05
0.00284977 -5.81103e-05 2.65648e-05
-5.81103e-05 0.00160122 7.35057e-06
2.65648e-05 7.35057e-06 0.00160651
-0.00196062 -0.00119508 -0.000683454
-0.00119508 0.00767917 0.0001294
-0.000683454 0.0001294 -0.00256018
0.0067514 0.00184067 0.000123571
0.00184067 0.00500113 7.7731e-06
0.000123571 7.7731e-06 0.000677804
-0.000367244 0.00179359 0.00034996
0.00179359 0.00376316 0.000141663
0.00034996 0.000141663 -0.00115435
0.000680181 0.000419213 -9.50841e-06
0.000419213 0.000306993 6.02724e-06
-9.50841e-06 6.02724e-06 -0.00022043
0.00403715 0.00126763 5.52e-06
0.00126763 0.00222232 3.22525e-05
5.52e-06 3.22525e-05 0.00147552
0.000850177 0.000410409 -2.57425e-05
0.000410409 0.000768949 1.44559e-06
-2.57425e-05 1.44559e-06 7.40184e-07
0.000324521 0.000244808 -1.04022e-05
0.000244808 0.000266488 -1.81035e-05
-1.04022e-05 -1.81035e-05 -0.000151775
0.00344974 0.000624652 -3.50852e-06
0.000624652 0.00176036 -1.46934e-06
-3.50852e-06 -1.46934e-06 0.00147744
-0.00313184 0.000103827 1.06768e-06
0.000103827 -0.00218265 2.74642e-05
1.06768e-06 2.74642e-05 -0.00221428
-0.000780375 0.000305111 -1.25024e-06
0.000305111 -0.000328153 8.87668e-06
-1.25024e-06 8.87668e-06 -0.000756219
0.00105532 0.000421181 -1.32972e-05
0.000421181 0.00056603 1.46712e-07
-1.32972e-05 1.46712e-07 9.23103e-05
0.00116873 0.00105373 -3.37394e-05
0.00105373 0.000723752 -8.76159e-06
-3.37394e-05 -8.76159e-06 -1.3217e-05
-0.00118451 0.000845753 -5.39869e-05
0.000845753 -0.000982296 8.59498e-05
-5.39869e-05 8.59498e-05 -0.00132585
-0.000715498 0.000119557 -1.43552e-05
0.000119557 -0.00029961 2.29517e-05
-1.43552e-05 2.29517e-05 -0.000714115
0.00196425 0.000837347 2.85168e-05
0.000837347 0.00141189 -3.45057e-07
2.85168e-05 -3.45057e-07 0.000734899
0.00875813 -0.00738157 -0.00389595
-0.00738157 0.00607815 0.000270972
-0.00389595 0.000270972 -0.00369399
0.00837527 -0.00949331 0.00124493
-0.00949331 0.0169152 -6.35323e-05
0.00124493 -6.35323e-05 0.00361648
0.0116309 0.00569463 -0.001453
0.00569463 0.00406797 -0.000410228
-0.001453 -0.000410228 -0.00330336
0.0349045 -0.0260537 0.00249741
-0.0260537 0.0253272 0.00173865
0.00249741 0.00173865 0.00728258
0.0336503 -0.00677446 -0.000335281
-0.00677446 0.0163376 0.000674506
-0.000335281 0.000674506 0.00572283
-4.74429e-06 0.00244594 -0.000219989
0.00244594 0.00545245 -0.000269421
-0.000219989 -0.000269421 -0.00209281
2.64631e-05 -0.000267313 -0.000177123
-0.000267313 0.00453417 6.72127e-05
-0.000177123 6.72127e-05 0.00180647
0.000162749 0.00172996 5.89395e-05
0.00172996 0.00293368 5.36906e-05
5.89395e-05 5.36906e-05 0.00115937
0.0334337 -0.00979179 -0.00112076
-0.00979179 0.0165123 0.00034043
-0.00112076 0.00034043 0.00446028
-0.00109599 0.00780365 -0.000426889
0.00780365 0.00157331 -5.29283e-05
-0.000426889 -5.29283e-05 -0.00383845
0.00213108 0.00493495 2.24823e-05
0.00493495 0.00115864 -0.000137318
2.24823e-05 -0.000137318 0.00101534
0.0073259 0.0129957 -0.00125867
0.0129957 -0.00378737 -0.000147413
-0.00125867 -0.000147413 -0.00393662
0.00403805 0.00205841 3.93103e-05
0.00205841 0.00176847 2.14715e-05
3.93103e-05 2.14715e-05 0.00107654
0.00169073 0.00107373 -1.20411e-05
0.00107373 0.000685161 -5.51426e-06
-1.20411e-05 -5.51426e-06 0.000394943
-0.00026022 0.000392724 -6.14925e-05
0.000392724 0.000183528 -1.45112e-05
-6.14925e-05 -1.45112e-05 -0.000509728
-0.000176162 0.00144431 -0.000175091
0.00144431 0.00160644 -9.38724e-05
-0.000175091 -9.38724e-05 -0.000200936
0.00116924 0.00109897 -8.90045e-05
0.00109897 0.000663666 -7.41313e-05
-8.90045e-05 -7.41313e-05 9.91437e-05
0.00306569 0.00326811 9.5679e-07
0.00326811 0.00134953 -1.70764e-05
9.5679e-07 -1.70764e-05 -0.000285283
-0.000403489 0.00344779 0.000185197
0.00344779 -0.00176026 0.000124004
0.000185197 0.000124004 -0.00235588
-0.00735067 -0.000751195 -0.00160648
-0.000751195 0.00120073 4.97839e-05
-0.00160648 4.97839e-05 -0.00614414
-0.0100828 0.000730484 0.0011009
0.000730484 0.00718228 -3.36088e-05
0.0011009 -3.36088e-05 -0.000466378
0.00115737 0.000681812 -0.000288412
0.000681812 0.00279729 4.70859e-05
-0.000288412 4.70859e-05 -0.000292691
0.00102361 -0.00227816 -0.000120454
-0.00227816 0.00174084 -7.7493e-05
-0.000120454 -7.7493e-05 -9.35177e-05
0.00107086 -0.00544923 0.000190788
-0.00544923 0.000878129 5.40427e-05
0.000190788 5.40427e-05 7.50886e-05
0.004399 0.00417702 0.000950505
0.00417702 0.0143233 0.000249466
0.000950505 0.000249466 0.00405329
0.00593089 -0.0101323 0.0013289
-0.0101323 -0.00468981 -0.000193487
0.0013289 -0.000193487 -0.00329518
0.0233479 0.00849578 0.0025622
0.00849578 0.0154229 0.000256511
0.0025622 0.000256511 0.00603244
0.00371339 -0.00422289 -2.14365e-05
-0.00422289 0.00147061 -7.04521e-06
-2.14365e-05 -7.04521e-06 0.000142526
0.0080166 0.00618504 0.000586188
0.00618504 0.0059577 -0.000182586
0.000586188 -0.000182586 -0.00268573
0.00863649 -0.00664755 -0.000402371
-0.00664755 -0.00774826 0.000228898
-0.000402371 0.000228898 -0.00578685
0.00294717 -0.00557344 -6.86769e-05
-0.00557344 -0.00165461 7.38942e-05
-6.86769e-05 7.38942e-05 0.000574025
0.00359494 -0.00320688 5.84766e-05
-0.00320688 7.9084e-05 -3.25675e-05
5.84766e-05 -3.25675e-05 0.00015684
0.0183042 -0.00167529 -0.000126371
-0.00167529 -0.000516855 0.000159933
-0.000126371 0.000159933 0.000787695
0.00343208 -0.00399771 0.00014696
-0.00399771 -0.00510616 -0.000189896
0.00014696 -0.000189896 -0.00110188
0.00350085 -0.00230218 -8.91582e-05
-0.00230218 0.00145055 4.96437e-05
-8.91582e-05 4.96437e-05 0.000622732
0.000541409 -0.00135215 -1.90254e-05
-0.00135215 -0.000624423 2.9066e-06
-1.90254e-05 2.9066e-06 -0.00100625
0.00630805 -0.00187602 5.7851e-05
-0.00187602 0.00213208 -2.80164e-05
5.7851e-05 -2.80164e-05 0.00173564
0.000489357 -0.00142562 -5.74929e-06
-0.00142562 -0.000525413 1.01949e-06
-5.74929e-06 1.01949e-06 -0.00114735
0.00308481 -0.00168449 1.94414e-06
-0.00168449 0.000574012 -1.36043e-06
1.94414e-06 -1.36043e-06 8.91723e-06
0.00337931 -0.00133948 -5.51576e-07
-0.00133948 0.000415054 -2.01106e-06
-5.51576e-07 -2.01106e-06 0.000238606
0.00283605 -0.00171353 9.4263e-06
-0.00171353 0.000583104 1.10924e-05
9.4263e-06 1.10924e-05 -0.000221909
0.00299902 -0.00132899 -4.05483e-06
-0.00132899 0.000378647 2.35175e-06
-4.05483e-06 2.35175e-06 -2.18634e-05
0.00270907 -0.000903555 -7.39296e-07
-0.000903555 -1.74695e-06 -1.32521e-07
-7.39296e-07 -1.32521e-07 -1.7812e-05
0.00219587 -0.00111205 7.74474e-06
-0.00111205 0.000133473 7.00379e-06
7.74474e-06 7.00379e-06 -0.000355211
0.002475 -0.000822951 6.69553e-09
-0.000822951 3.41545e-05 2.53719e-06
6.69553e-09 2.53719e-06 -0.00013119
0.00263687 -0.000872807 -2.31131e-06
-0.000872807 9.00477e-05 8.9219e-07
-2.31131e-06 8.9219e-07 5.15507e-06
0.00255755 -0.000838582 -4.33502e-06
-0.000838582 0.000132504 1.37222e-07
-4.33502e-06 1.37222e-07 -7.52569e-06
0.00249321 -0.000806118 -3.68959e-06
-0.000806118 0.000163284 1.89225e-06
-3.68959e-06 1.89225e-06 5.55635e-06
0.00251506 -0.000770788 -8.71319e-07
-0.000770788 0.00027658 -1.30504e-06
-8.71319e-07 -1.30504e-06 7.14387e-05
0.0024796 -0.000783437 -5.92025e-06
-0.000783437 0.000293835 -1.88088e-06
-5.92025e-06 -1.88088e-06 -1.09824e-05
0.00239579 -0.000745666 1.3832e-06
-0.000745666 0.00019843 1.32156e-06
1.3832e-06 1.32156e-06 -7.22362e-05
0.00222994 -0.000730463 2.7069e-06
-0.000730463 -1.77678e-05 6.10382e-06
2.7069e-06 6.10382e-06 -0.000242106
0.00237868 -0.000939543 -4.75621e-06
-0.000939543 0.000341448 -7.88545e-06
-4.75621e-06 -7.88545e-06 -0.000124635
0.0021375 -0.000954472 -4.12547e-07
-0.000954472 0.000122971 -1.20426e-07
-4.12547e-07 -1.20426e-07 -0.000347626
0.00255906 -0.00108707 6.6616e-06
-0.00108707 0.000389438 4.53636e-06
6.6616e-06 4.53636e-06 -0.000131201
0.00186282 -0.00102851 -8.12537e-06
-0.00102851 0.000255202 -6.32772e-06
-8.12537e-06 -6.32772e-06 -0.000365238
0.00275952 -0.0012502 -1.49815e-06
-0.0012502 0.000768233 7.91791e-07
-1.49815e-06 7.91791e-07 8.54138e-05
0.00265245 -0.00133498 2.83365e-06
-0.00133498 0.000700816 3.51885e-06
2.83365e-06 3.51885e-06 -1.56166e-05
0.000803637 -0.000377828 -6.57509e-06
-0.000377828 -7.26569e-05 8.36971e-06
-6.57509e-06 8.36971e-06 -0.000406328
0.0019092 -0.000915597 -2.18648e-06
-0.000915597 0.000540221 2.85259e-06
-2.18648e-06 2.85259e-06 -8.75875e-05
0.00253222 -0.00128588 3.77848e-06
-0.00128588 0.000922801 9.80464e-06
3.77848e-06 9.80464e-06 0.00013792
0.000201558 -0.000221994 -1.82272e-05
-0.000221994 -0.000234399 2.61232e-05
-1.82272e-05 2.61232e-05 -0.000418409
0.00130296 -0.000481522 -1.17691e-05
-0.000481522 0.000403051 9.48248e-09
-1.17691e-05 9.48248e-09 9.8914e-05
-0.00121076 -0.000739573 -1.93493e-06
-0.000739573 -0.00113089 -1.64479e-06
-1.93493e-06 -1.64479e-06 -0.00168106
0.00679227 0.000187551 -0.000198966
0.000187551 0.00423525 1.70912e-05
-0.000198966 1.70912e-05 0.00421324
0.000594475 -0.000205915 -6.34723e-06
-0.000205915 9.33587e-06 -1.7784e-06
-6.34723e-06 -1.7784e-06 -0.000128299
0.000137335 -0.000454386 1.76564e-05
-0.000454386 -0.000142405 -1.2413e-06
1.76564e-05 -1.2413e-06 -0.000513437
0.00392276 0.00014708 0.00010151
0.00014708 0.00234847 -2.69334e-06
0.00010151 -2.69334e-06 0.00229875
0.000258168 -0.000195801 3.05417e-05
-0.000195801 -0.000185264 -1.57735e-05
3.05417e-05 -1.57735e-05 -0.00032143
0.00587348 0.000117401 0.000189199
0.000117401 0.00361962 -1.61165e-05
0.000189199 -1.61165e-05 0.00361358
0.00130986 0.000654576 -2.09918e-05
0.000654576 0.000370432 1.57616e-05
-2.09918e-05 1.57616e-05 -0.000169793
0.000830905 0.000382231 -8.07272e-06
0.000382231 0.000237227 1.62422e-06
-8.07272e-06 1.62422e-06 -0.000145696
-0.000328884 0.000216707 1.23468e-05
0.000216707 -0.000523369 8.33741e-06
1.23468e-05 8.33741e-06 -0.00084096
0.0023647 0.000453171 4.09568e-06
0.000453171 0.00124978 -3.84672e-06
4.09568e-06 -3.84672e-06 0.000894632
0.00140859 0.000240283 1.0655e-06
0.000240283 0.000765604 -3.91813e-07
1.0655e-06 -3.91813e-07 0.000359601
0.00155516 0.000208002 2.73936e-06
0.000208002 0.000828541 -1.6208e-05
2.73936e-06 -1.6208e-05 0.000493524
0.000897986 0.000138705 -2.04989e-05
0.000138705 0.000310652 -2.2202e-05
-2.04989e-05 -2.2202e-05 0.000211232
0.000800791 0.000199725 -2.26402e-06
0.000199725 0.000335152 8.05998e-07
-2.26402e-06 8.05998e-07 6.28283e-05
-0.00211107 -1.99718e-05 -1.88989e-05
-1.99718e-05 -0.0013726 2.82572e-05
-1.88989e-05 2.82572e-05 -0.00184729
0.003633 -9.42634e-05 -9.06778e-05
-9.42634e-05 0.0021429 -1.28039e-05
-9.06778e-05 -1.28039e-05 0.00214312
0.00025686 7.51813e-05 1.20839e-06
7.51813e-05 -7.91863e-05 -6.27819e-07
1.20839e-06 -6.27819e-07 -0.000158059
0.000698937 0.000177003 -2.84946e-06
0.000177003 0.000245599 1.2497e-05
-2.84946e-06 1.2497e-05 3.32042e-05
0.00335471 -9.36549e-05 -1.07404e-05
-9.36549e-05 0.00195421 9.21403e-07
-1.07404e-05 9.21403e-07 0.00195222
0.000189327 -2.30523e-06 2.36802e-06
-2.30523e-06 -0.000127588 1.41576e-05
2.36802e-06 1.41576e-05 -0.000191702
0.00299498 -7.95644e-05 3.37173e-05
-7.95644e-05 0.00170538 8.22976e-06
3.37173e-05 8.22976e-06 0.00170607
0.00255088 -0.00291781 -0.00259013
-0.00291781 0.00463552 7.34699e-05
-0.00259013 7.34699e-05 0.000642395
-0.000551902 -0.00255036 -0.000186425
-0.00255036 0.00955457 -8.41535e-05
-0.000186425 -8.41535e-05 -0.00132895
0.00724839 0.00138942 -0.000741401
0.00138942 0.0044993 -0.000195171
-0.000741401 -0.000195171 0.000427678
0.000157253 0.000233746 2.74308e-07
0.000233746 -3.01177e-05 1.22845e-05
2.74308e-07 1.22845e-05 -0.000532696
0.00108017 0.000334529 1.54157e-05
0.000334529 0.000787129 2.09447e-06
1.54157e-05 2.09447e-06 7.28151e-05
0.00212112 0.00100477 -4.23991e-06
0.00100477 0.00102105 -1.98525e-06
-4.23991e-06 -1.98525e-06 0.000300121
0.00230837 0.00130725 1.11011e-05
0.00130725 0.000897727 2.0933e-05
1.11011e-05 2.0933e-05 0.000138699
0.00148682 0.00107906 -2.91951e-05
0.00107906 0.000930161 2.01333e-05
-2.91951e-05 2.01333e-05 8.90693e-05
0.0034172 0.000591401 4.75325e-06
0.000591401 0.00216122 4.21512e-06
4.75325e-06 4.21512e-06 0.00180412
0.00198831 0.000529845 2.62929e-05
0.000529845 0.0012516 1.88829e-05
2.62929e-05 1.88829e-05 0.000740867
0.00242155 0.00107563 -5.3605e-06
0.00107563 0.00143655 3.34523e-07
-5.3605e-06 3.34523e-07 0.000721132
0.00249418 0.00153761 -2.22724e-05
0.00153761 0.000948074 4.88032e-06
-2.22724e-05 4.88032e-06 0.000235253
0.00242794 0.00146405 -1.86166e-05
0.00146405 0.000844701 6.14069e-05
-1.86166e-05 6.14069e-05 0.000425321
0.00202687 0.00193221 4.41631e-05
0.00193221 0.000166836 -8.08665e-06
4.41631e-05 -8.08665e-06 -0.000341745
0.0013059 0.00119937 2.03909e-05
0.00119937 0.000463584 9.50403e-06
2.03909e-05 9.50403e-06 -2.28127e-05
0.00311846 0.00103752 -1.39398e-05
0.00103752 0.00210767 -4.99987e-06
-1.39398e-05 -4.99987e-06 0.00129102
0.0185055 0.00716986 -0.000204286
0.00716986 -0.000786548 8.7079e-05
-0.000204286 8.7079e-05 0.00108125
0.0152826 -0.00553156 -0.00102106
-0.00553156 0.00869232 -0.00021785
-0.00102106 -0.00021785 0.00153447
0.00845797 -0.0103612 0.00206822
-0.0103612 0.0184738 7.91019e-05
0.00206822 7.91019e-05 0.00570062
0.0251924 -0.00619934 0.000747022
-0.00619934 0.0113765 0.000161298
0.000747022 0.000161298 0.000871218
0.00937756 0.00964323 -0.000303199
0.00964323 0.00474382 -0.000122979
-0.000303199 -0.000122979 -0.000155448
-0.000466152 0.00176592 3.04071e-05
0.00176592 0.00277552 4.31692e-05
3.04071e-05 4.31692e-05 0.000869431
0.00165902 0.00457426 -0.000166988
0.00457426 0.000891166 -9.52186e-05
-0.000166988 -9.52186e-05 0.00119189
0.0107808 0.0107691 8.53958e-05
0.0107691 -0.000900363 9.98577e-05
8.53958e-05 9.98577e-05 -0.00200729
0.00815819 0.00764589 -0.000221202
0.00764589 -0.000956754 -0.000164132
-0.000221202 -0.000164132 0.000334256
0.00185156 0.00210404 7.71993e-06
0.00210404 0.000207824 -2.228e-05
7.71993e-06 -2.228e-05 -0.000320753
0.00216941 0.00170773 1.92834e-05
0.00170773 0.000781932 3.8954e-06
1.92834e-05 3.8954e-06 0.00020317
0.0014841 0.000975707 -2.42993e-05
0.000975707 0.000615495 -4.52529e-05
-2.42993e-05 -4.52529e-05 0.000355577
0.00166467 0.00314711 -0.000106314
0.00314711 0.000407329 -5.82786e-05
-0.000106314 -5.82786e-05 -0.00113434
0.00402803 0.00400811 0.000128754
0.00400811 0.000363582 4.96342e-05
0.000128754 4.96342e-05 -0.000668178
0.0075782 -0.000369083 -5.67372e-05
-0.000369083 -0.00633765 2.03838e-05
-5.67372e-05 2.03838e-05 -0.00708334
0.000240762 -0.00290445 -3.31665e-05
-0.00290445 0.00617004 0.000106813
-3.31665e-05 0.000106813 0.000895924
-0.0136104 -0.000101803 0.00139723
-0.000101803 0.00836186 2.73096e-05
0.00139723 2.73096e-05 0.00277078
0.00277544 -0.00487243 -0.000163033
-0.00487243 0.000493854 0.000102026
-0.000163033 0.000102026 -0.0010935
0.00681539 -0.00719659 -1.54327e-05
-0.00719659 -0.000837056 0.00013163
-1.54327e-05 0.00013163 0.000878719
0.00942003 0.00284054 0.00254593
0.00284054 0.00754848 -0.000371305
0.00254593 -0.000371305 0.00294561
0.0129038 -0.00608079 -0.000480738
-0.00608079 -0.00465637 0.000370441
-0.000480738 0.000370441 -0.00166154
0.00262869 -0.00315521 -4.57606e-05
-0.00315521 -0.000514811 1.52362e-05
-4.57606e-05 1.52362e-05 -0.000540219
0.0133983 -0.0012959 -0.000443229
-0.0012959 -0.00425926 0.00015215
-0.000443229 0.00015215 -0.00327222
0.0078049 -0.00471588 0.000119457
-0.00471588 -0.00233493 -5.47987e-06
0.000119457 -5.47987e-06 0.000611803
0.00378384 -0.0024745 6.48631e-05
-0.0024745 -0.000981551 -7.85543e-05
6.48631e-05 -7.85543e-05 -0.000173908
0.00393158 -0.00193564 0.000144263
-0.00193564 -0.00417707 -3.9874e-05
0.000144263 -3.9874e-05 -0.000260115
-0.000526461 -0.00124867 5.3217e-06
-0.00124867 -0.0013015 1.74314e-05
5.3217e-06 1.74314e-05 -0.00152731
0.00211002 -0.00138798 -3.43796e-05
-0.00138798 -0.000337007 1.08666e-05
-3.43796e-05 1.08666e-05 -0.000311672
0.00467422 -0.00132188 5.22829e-05
-0.00132188 0.00095156 -2.6985e-05
5.22829e-05 -2.6985e-05 0.00108343
0.00188265 -0.001507 -5.31034e-06
-0.001507 -3.7132e-05 9.83497e-06
-5.31034e-06 9.83497e-06 -0.000536257
0.00302797 -0.00132197 -5.27883e-06
-0.00132197 0.000206514 2.00984e-06
-5.27883e-06 2.00984e-06 3.26197e-05
0.00305163 -0.000991178 4.7111e-06
-0.000991178 1.14985e-06 -2.03498e-06
4.7111e-06 -2.03498e-06 0.000101639
0.00278859 -0.00128265 -1.12457e-05
-0.00128265 0.000268258 9.25738e-06
-1.12457e-05 9.25738e-06 -0.000107904
0.00262056 -0.000894548 -1.64196e-07
-0.000894548 -5.7715e-05 1.33369e-06
-1.64196e-07 1.33369e-06 -7.19578e-05
0.00277562 -0.000866154 -1.058e-06
-0.000866154 9.5685e-06 -7.02696e-07
-1.058e-06 -7.02696e-07 3.90901e-05
0.0023974 -0.0008056 2.46206e-06
-0.0008056 -1.40336e-05 4.21843e-06
2.46206e-06 4.21843e-06 -0.000166681
0.00261357 -0.000863212 -2.31132e-07
-0.000863212 8.94738e-05 5.5992e-07
-2.31132e-07 5.5992e-07 3.57961e-06
0.00269708 -0.000840411 -2.23808e-06
-0.000840411 7.50324e-05 -1.85021e-07
-2.23808e-06 -1.85021e-07 1.09944e-05
0.0025171 -0.000839277 -5.03885e-06
-0.000839277 0.000103026 4.17662e-07
-5.03885e-06 4.17662e-07 -2.8318e-05
0.00246634 -0.000785494 -1.14791e-06
-0.000785494 0.000120246 -5.97167e-07
-1.14791e-06 -5.97167e-07 -2.4277e-05
0.00242813 -0.00080353 3.64249e-07
-0.00080353 0.000113522 2.95846e-06
3.64249e-07 2.95846e-06 -3.66027e-05
0.00250004 -0.00076826 9.50545e-07
-0.00076826 0.000264635 -5.53987e-07
9.50545e-07 -5.53987e-07 6.43104e-05
0.00244815 -0.000760534 -2.59116e-06
-0.000760534 0.000292067 -2.65422e-08
-2.59116e-06 -2.65422e-08 4.69704e-05
0.00253627 -0.000804397 -7.95869e-07
-0.000804397 0.000403283 -6.13033e-06
-7.95869e-07 -6.13033e-06 6.24972e-05
0.0025829 -0.000791663 -3.9141e-07
-0.000791663 0.000365798 9.48244e-08
-3.9141e-07 9.48244e-08 5.52453e-05
0.00265053 -0.000755993 7.66697e-06
-0.000755993 0.000384359 2.77597e-06
7.66697e-06 2.77597e-06 0.000109586
0.00223213 -0.00092404 -5.28433e-06
-0.00092404 0.000351326 -3.60579e-06
-5.28433e-06 -3.60579e-06 -0.000158581
0.00235117 -0.000954412 -3.32546e-06
-0.000954412 0.000303758 -9.90729e-07
-3.32546e-06 -9.90729e-07 -0.000172267
0.00202435 -0.000957659 3.95848e-06
-0.000957659 3.15877e-05 4.59115e-06
3.95848e-06 4.59115e-06 -0.000442582
0.00197215 -0.000652646 -1.38276e-05
-0.000652646 0.000605901 9.10074e-06
-1.38276e-05 9.10074e-06 0.000146779
0.00221331 -0.00106248 -1.37982e-06
-0.00106248 0.000501301 4.07285e-07
-1.37982e-06 4.07285e-07 -0.000126363
0.00288391 -0.00127147 4.49666e-06
-0.00127147 0.000816042 7.55254e-06
4.49666e-06 7.55254e-06 0.00012804
0.00035849 -0.000289583 -1.71567e-05
-0.000289583 -0.000188295 2.96062e-05
-1.71567e-05 2.96062e-05 -0.000399141
0.000699674 -0.000390711 4.46508e-06
-0.000390711 -0.000120095 -2.50142e-06
4.46508e-06 -2.50142e-06 -0.000474035
0.0023589 -0.000963573 7.94799e-06
-0.000963573 0.00082778 5.52696e-06
7.94799e-06 5.52696e-06 0.000198263
0.00718834 4.10095e-05 -0.000258929
4.10095e-05 0.0044511 2.27768e-05
-0.000258929 2.27768e-05 0.00445629
0.000411501 -0.000248264 -4.57679e-06
-0.000248264 -0.000105842 -3.22999e-07
-4.57679e-06 -3.22999e-07 -0.000295446
0.00151517 -0.000601658 6.28828e-06
-0.000601658 0.00064553 -2.07046e-06
6.28828e-06 -2.07046e-06 0.000269321
0.00658155 0.000133164 1.46256e-05
0.000133164 0.00408604 -3.99541e-06
1.46256e-05 -3.99541e-06 0.00407349
0.00112826 -0.000235103 2.34555e-05
-0.000235103 0.000347583 -2.07445e-05
2.34555e-05 -2.07445e-05 0.000205963
0.00634072 0.000198028 0.000160295
0.000198028 0.00395336 -2.18546e-05
0.000160295 -2.18546e-05 0.00392445
0.00319526 0.00127965 -1.02683e-05
0.00127965 0.00146256 1.88021e-05
-1.02683e-05 1.88021e-05 0.00070215
0.00203546 0.000814654 -1.41916e-06
0.000814654 0.000893827 1.99757e-06
-1.41916e-06 1.99757e-06 0.000292428
-0.00113295 0.000390242 -3.36017e-06
0.000390242 -0.000986229 8.59859e-06
-3.36017e-06 8.59859e-06 -0.00144591
-0.000406093 0.000218801 6.04254e-06
0.000218801 -0.00048135 -7.84426e-06
6.04254e-06 -7.84426e-06 -0.000858001
-0.000120865 0.000424458 3.52499e-06
0.000424458 -0.000375845 -5.30528e-06
3.52499e-06 -5.30528e-06 -0.000699207
-0.000879096 0.000546081 -1.22713e-05
0.000546081 -0.000869172 -6.36239e-06
-1.22713e-05 -6.36239e-06 -0.00119742
-0.000189421 0.000113675 -1.19711e-05
0.000113675 -0.000259271 3.82084e-07
-1.19711e-05 3.82084e-07 -0.000674358
0.00065214 0.000358019 4.2425e-06
0.000358019 0.000223031 4.3162e-07
4.2425e-06 4.3162e-07 -0.000111702
0.000985567 0.000198386 -2.67952e-05
0.000198386 0.000327818 -2.55638e-05
-2.67952e-05 -2.55638e-05 0.000194406
0.0045727 -0.000131315 -0.000117601
-0.000131315 0.00278593 -2.01522e-05
-0.000117601 -2.01522e-05 0.00277522
0.000505483 9.00195e-05 4.63472e-06
9.00195e-05 7.39295e-05 -3.1393e-07
4.63472e-06 -3.1393e-07 -3.07242e-05
-0.000286831 5.97214e-05 -5.98241e-06
5.97214e-05 -0.000317964 1.52943e-05
-5.98241e-06 1.52943e-05 -0.000623518
0.00407533 -0.000133314 -1.49214e-05
-0.000133314 0.00244618 1.78257e-06
-1.49214e-05 1.78257e-06 0.00243556
0.000225361 -7.69599e-05 -1.27974e-05
-7.69599e-05 -7.58895e-05 1.77857e-05
-1.27974e-05 1.77857e-05 -0.000166404
0.00340792 -0.000105447 4.59393e-05
-0.000105447 0.0019911 9.40149e-06
4.59393e-05 9.40149e-06 0.00198586
0.0162299 0.00109961 0.000862842
0.00109961 -0.00118867 0.000170376
0.000862842 0.000170376 0.00117223
0.00475621 -0.00790515 -0.00145925
-0.00790515 0.00245711 5.46784e-06
-0.00145925 5.46784e-06 -0.00644127
-0.00338823 -7.49914e-05 -0.000313822
-7.49914e-05 0.00897254 -7.60248e-05
-0.000313822 -7.60248e-05 -0.000576408
0.000482877 0.000164432 8.46668e-06
0.000164432 0.000380107 -1.79608e-05
8.46668e-06 -1.79608e-05 -0.00034879
0.00127312 0.000905851 1.79765e-05
0.000905851 0.000526463 -2.05489e-05
1.79765e-05 -2.05489e-05 -0.00021558
0.0020122 0.00105326 -1.13644e-05
0.00105326 0.00109233 -1.07735e-05
-1.13644e-05 -1.07735e-05 0.00033242
0.00218706 0.00131066 -3.60032e-06
0.00131066 0.0008381 -6.86573e-07
-3.60032e-06 -6.86573e-07 6.33826e-05
0.00213048 0.00122762 2.75265e-05
0.00122762 0.000535238 2.77611e-05
2.75265e-05 2.77611e-05 -0.000120256
0.00126398 0.00138703 -5.20763e-06
0.00138703 0.000159065 1.58677e-05
-5.20763e-06 1.58677e-05 -0.000499379
0.00189432 0.000961414 -8.26568e-06
0.000961414 0.00101871 -1.45143e-05
-8.26568e-06 -1.45143e-05 0.000315728
0.00228243 0.00152796 6.73613e-07
0.00152796 0.000780946 3.20719e-06
6.73613e-07 3.20719e-06 7.83866e-05
0.00283877 0.00144212 3.27156e-05
0.00144212 0.00121561 7.63273e-06
3.27156e-05 7.63273e-06 0.000652048
0.00368611 0.00156013 8.05678e-06
0.00156013 0.00151636 1.01217e-05
8.05678e-06 1.01217e-05 0.000811847
0.00159073 0.00150678 1.43491e-06
0.00150678 0.000120945 1.03333e-05
1.43491e-06 1.03333e-05 -0.000356145
0.00375971 0.00204619 1.97544e-05
0.00204619 0.00115002 2.0234e-05
1.97544e-05 2.0234e-05 0.000404107
0.00296954 0.00198472 1.52215e-05
0.00198472 0.00077639 4.01624e-06
1.52215e-05 4.01624e-06 0.000213268
0.0029161 0.00128914 -4.18261e-05
0.00128914 0.001351 -0.000118484
-4.18261e-05 -0.000118484 0.000821958
0.00506192 0.0038412 3.39954e-05
0.0038412 -0.00479676 8.01695e-05
3.39954e-05 8.01695e-05 -0.000205399
0.0134941 0.00819527 0.00060505
0.00819527 -0.00462379 0.000288512
0.00060505 0.000288512 -0.00266903
0.0196814 -0.00965034 0.00161184
-0.00965034 0.0110723 -0.000454721
0.00161184 -0.000454721 0.00105106
0.00461151 0.0127277 0.00147612
0.0127277 -0.00337746 0.000512981
0.00147612 0.000512981 -0.00489676
-0.000748219 0.00348325 -3.19736e-05
0.00348325 0.000400165 4.13413e-05
-3.19736e-05 4.13413e-05 0.000465218
0.00359612 0.00460405 -0.00012768
0.00460405 -0.00161397 -0.000108105
-0.00012768 -0.000108105 0.000395466
0.00751082 0.00394422 5.403e-05
0.00394422 0.000889141 2.63614e-05
5.403e-05 2.63614e-05 0.00072431
0.00596506 0.00293904 2.52874e-05
0.00293904 0.00204749 6.76207e-06
2.52874e-05 6.76207e-06 0.00128976
0.00121921 0.00149105 -3.26908e-05
0.00149105 0.000276719 -2.05177e-05
-3.26908e-05 -2.05177e-05 -0.00022881
0.00903853 0.00470006 -0.0001776
0.00470006 0.00266231 6.07232e-05
-0.0001776 6.07232e-05 0.0012882
0.00619914 -0.00112914 0.000166331
-0.00112914 -0.00319023 7.68345e-05
0.000166331 7.68345e-05 0.000479836
0.0148484 -0.000406072 -5.24364e-06
-0.000406072 -0.00181398 -5.14068e-05
-5.24364e-06 -5.14068e-05 0.000320534
-0.00886137 -0.00501984 0.00198066
-0.00501984 0.000954041 -0.000104979
0.00198066 -0.000104979 -0.00688462
0.0027219 -0.0030792 -0.00014831
-0.0030792 -0.000425951 8.25942e-05
-0.00014831 8.25942e-05 -0.000372535
0.00800206 -0.00508693 -0.00014629
-0.00508693 -0.00269907 0.000198088
-0.00014629 0.000198088 0.000623693
0.00302178 -0.000831532 -0.000570479
-0.000831532 -0.0108331 2.04917e-05
-0.000570479 2.04917e-05 -0.00876925
0.0038265 -0.00233411 5.00874e-05
-0.00233411 -0.000921853 5.57983e-07
5.00874e-05 5.57983e-07 9.02665e-05
0.00529451 -0.00196051 -0.000112112
-0.00196051 -0.00309413 1.36365e-05
-0.000112112 1.36365e-05 1.39764e-05
0.00655452 -0.00170507 7.30018e-05
-0.00170507 0.000752229 -6.75361e-05
7.30018e-05 -6.75361e-05 0.00168458
0.00884424 -0.00128808 0.000195233
-0.00128808 0.00137922 1.13021e-05
0.000195233 1.13021e-05 0.00286953
-0.00176576 -0.000995417 4.20137e-05
-0.000995417 -0.00276818 1.14263e-05
4.20137e-05 1.14263e-05 -0.00225224
0.00267134 -0.00113412 -1.66714e-05
-0.00113412 -0.000304542 2.68439e-06
-1.66714e-05 2.68439e-06 7.85433e-05
0.00288029 -0.000793073 3.34477e-05
-0.000793073 -0.000308743 -1.77277e-05
3.34477e-05 -1.77277e-05 0.000125995
0.00269913 -0.00131355 -3.72076e-06
-0.00131355 6.41766e-06 4.43203e-06
-3.72076e-06 4.43203e-06 -0.000170781
0.00301733 -0.00099019 4.29242e-07
-0.00099019 -9.24373e-06 1.1631e-06
4.29242e-07 1.1631e-06 8.88628e-05
0.00289999 -0.000808374 2.48373e-08
-0.000808374 -7.95907e-05 -1.6886e-06
2.48373e-08 -1.6886e-06 3.61369e-06
0.00253177 -0.000888527 1.43608e-06
-0.000888527 -0.000119289 2.89637e-06
1.43608e-06 2.89637e-06 -0.000131516
0.00274727 -0.000864467 -3.33295e-08
-0.000864467 2.81457e-06 2.65153e-07
-3.33295e-08 2.65153e-07 2.22182e-05
0.0026678 -0.000720002 -1.57072e-06
-0.000720002 -3.93021e-05 -9.37628e-07
-1.57072e-06 -9.37628e-07 -2.92712e-05
0.00259655 -0.00085625 1.69745e-06
-0.00085625 8.85693e-05 7.34551e-07
1.69745e-06 7.34551e-07 1.84712e-06
0.00269983 -0.000840364 -1.75246e-07
-0.000840364 0.000103666 -1.66543e-07
-1.75246e-07 -1.66543e-07 3.23347e-05
0.00259722 -0.00072299 1.10681e-06
-0.00072299 0.000101206 -8.58762e-07
1.10681e-06 -8.58762e-07 2.95704e-05
0.00247216 -0.000839927 -2.01359e-06
-0.000839927 6.86448e-05 6.25774e-07
-2.01359e-06 6.25774e-07 -5.34157e-05
0.00245494 -0.000791141 -1.50892e-06
-0.000791141 0.000105656 2.1233e-07
-1.50892e-06 2.1233e-07 -3.51775e-05
0.00245059 -0.000732349 -1.75722e-06
-0.000732349 0.000199019 3.77983e-07
-1.75722e-06 3.77983e-07 1.71432e-05
0.00247903 -0.000764006 3.31056e-06
-0.000764006 0.000248864 5.61785e-07
3.31056e-06 5.61785e-07 5.41464e-05
0.00244988 -0.000752226 4.01526e-07
-0.000752226 0.000290091 -1.5844e-07
4.01526e-07 -1.5844e-07 4.77419e-05
0.002446 -0.000756119 -1.22524e-06
-0.000756119 0.000324458 -8.86137e-07
-1.22524e-06 -8.86137e-07 3.76506e-05
0.00220721 -0.000758704 -1.11846e-06
-0.000758704 0.00028412 -6.40045e-06
-1.11846e-06 -6.40045e-06 -9.73704e-05
0.00244765 -0.000803306 -5.78134e-07
-0.000803306 0.000338608 -1.5425e-06
-5.78134e-07 -1.5425e-06 -1.16313e-05
0.00269602 -0.000801479 4.68012e-06
-0.000801479 0.000445119 2.23433e-06
4.68012e-06 2.23433e-06 0.000127929
0.00136502 -0.000621035 -2.08378e-05
-0.000621035 3.3127e-05 1.21217e-06
-2.08378e-05 1.21217e-06 -0.000399632
0.00239317 -0.000933353 -2.53164e-07
-0.000933353 0.00047491 2.77763e-07
-2.53164e-07 2.77763e-07 -3.61146e-05
0.00232892 -0.000970532 -7.43975e-07
-0.000970532 0.00026878 5.59369e-06
-7.43975e-07 5.59369e-06 -0.000217723
0.000343166 -0.000291091 -1.8848e-05
-0.000291091 -0.000216803 2.8791e-05
-1.8848e-05 2.8791e-05 -0.000431526
0.00107094 -0.000575811 8.38678e-06
-0.000575811 4.72449e-05 1.56875e-06
8.38678e-06 1.56875e-06 -0.000403554
0.00260515 -0.00109692 4.76764e-06
-0.00109692 0.000781638 5.76936e-06
4.76764e-06 5.76936e-06 0.000147161
0.00905698 -6.89064e-05 -0.000364326
-6.89064e-05 0.00562504 3.623e-05
-0.000364326 3.623e-05 0.00563895
0.000104858 -0.000299037 3.29513e-06
-0.000299037 -0.000342102 9.70631e-07
3.29513e-06 9.70631e-07 -0.000557049
0.000512868 -0.000378634 -3.64706e-06
-0.000378634 -0.000219223 -3.33613e-06
-3.64706e-06 -3.33613e-06 -0.000590193
0.00798766 8.79372e-06 -2.31506e-05
8.79372e-06 0.00498134 -1.63978e-06
-2.31506e-05 -1.63978e-06 0.00498214
0.000607466 -0.0002375 9.6584e-06
-0.0002375 1.54192e-05 -2.83806e-05
9.6584e-06 -2.83806e-05 -0.000180997
0.00663972 5.73304e-05 0.000276425
5.73304e-05 0.00413602 -3.89784e-05
0.000276425 -3.89784e-05 0.00413111
0.00233465 0.00113762 -1.34038e-05
0.00113762 0.000642751 1.89185e-05
-1.34038e-05 1.89185e-05 -1.09822e-05
0.00243252 0.00116221 4.28148e-07
0.00116221 0.000980735 3.39244e-07
4.28148e-07 3.39244e-07 0.00025488
0.00188057 0.000879142 -7.27344e-06
0.000879142 0.000637987 1.49033e-05
-7.27344e-06 1.49033e-05 2.71958e-05
0.00090052 0.000740934 2.25781e-05
0.000740934 0.000155344 -1.11528e-05
2.25781e-05 -1.11528e-05 -0.000438459
0.00107077 0.000470419 -2.79162e-06
0.000470419 0.000230004 -1.27542e-06
-2.79162e-06 -1.27542e-06 -0.000200999
-0.000232666 0.000323016 -6.20413e-06
0.000323016 -0.000463907 1.45096e-07
-6.20413e-06 1.45096e-07 -0.000849065
0.00315481 0.000350437 1.77388e-07
0.000350437 0.00169052 -6.63406e-06
1.77388e-07 -6.63406e-06 0.00136929
0.00150742 0.000276132 4.34114e-06
0.000276132 0.000685127 -1.89101e-06
4.34114e-06 -1.89101e-06 0.000356031
0.00030495 0.000249949 -3.38504e-05
0.000249949 -0.000172579 -2.68178e-05
-3.38504e-05 -2.68178e-05 -0.000328691
0.000679 0.000269515 -7.26429e-07
0.000269515 0.000257253 1.83537e-05
-7.26429e-07 1.83537e-05 -7.94271e-05
0.000424554 0.000182076 -2.12684e-06
0.000182076 -1.85673e-05 -4.45131e-07
-2.12684e-06 -4.45131e-07 -0.000148939
0.00577906 -0.000132857 -0.000193176
-0.000132857 0.00360121 -2.9934e-05
-0.000193176 -2.9934e-05 0.00358213
0.0041627 -0.000147567 -1.72916e-05
-0.000147567 0.00251806 2.04165e-06
-1.72916e-05 2.04165e-06 0.00250193
-9.75921e-05 0.000154075 2.36285e-05
0.000154075 -0.000321884 2.14665e-05
2.36285e-05 2.14665e-05 -0.000414384
0.0035828 -0.000126902 5.87064e-05
-0.000126902 0.00212024 1.04761e-05
5.87064e-05 1.04761e-05 0.00210946
0.00126893 0.00103856 0.000177825
0.00103856 -0.00437125 5.00337e-05
0.000177825 5.00337e-05 -0.000726654
0.00419896 0.000345759 0.000314175
0.000345759 -0.00896921 0.00019893
0.000314175 0.00019893 -0.00867925
0.0200572 -0.00910094 -0.000386079
-0.00910094 0.0139033 -0.00016848
-0.000386079 -0.00016848 0.00360633
0.0022184 0.00102912 1.51911e-05
0.00102912 0.000339821 1.68281e-05
1.51911e-05 1.68281e-05 -0.000157067
0.00288211 0.00112163 9.95248e-06
0.00112163 0.00147201 -1.6803e-05
9.95248e-06 -1.6803e-05 0.000744271
0.00176983 0.0012774 -1.11324e-06
0.0012774 0.000581942 -2.39031e-05
-1.11324e-06 -2.39031e-05 -0.000196959
0.00226336 0.00149659 3.43962e-06
0.00149659 0.000769735 1.97012e-06
3.43962e-06 1.97012e-06 6.81354e-05
0.00241707 0.00127278 9.31274e-07
0.00127278 0.000715264 3.09998e-06
9.31274e-07 3.09998e-06 4.38369e-05
0.00269264 0.00139748 9.64324e-06
0.00139748 0.000778426 1.58691e-05
9.64324e-06 1.58691e-05 0.000125197
0.00137383 0.00139033 2.01355e-06
0.00139033 0.000215135 -4.06154e-06
2.01355e-06 -4.06154e-06 -0.000449484
0.00101178 0.00114713 1.99059e-05
0.00114713 0.000205963 -6.11759e-05
1.99059e-05 -6.11759e-05 -0.000293089
0.00242452 0.00150488 1.29721e-06
0.00150488 0.000684019 -1.18229e-06
1.29721e-06 -1.18229e-06 3.9233e-05
0.000418624 0.00139528 1.27947e-05
0.00139528 -0.000595376 -3.23316e-05
1.27947e-05 -3.23316e-05 -0.000942701
0.00287523 0.00142473 1.63319e-05
0.00142473 0.000797686 -1.93469e-07
1.63319e-05 -1.93469e-07 9.51475e-05
0.00325262 0.00134637 5.9274e-05
0.00134637 0.000752584 7.13108e-05
5.9274e-05 7.13108e-05 0.000540301
0.00132143 0.0015779 -1.48924e-05
0.0015779 -8.7923e-05 -1.81053e-05
-1.48924e-05 -1.81053e-05 -0.000633462
0.00225793 0.00179145 -3.5244e-05
0.00179145 0.000432449 -1.46765e-05
-3.5244e-05 -1.46765e-05 -1.64725e-05
0.00279709 0.00179116 1.89705e-05
0.00179116 -0.00212997 6.31465e-05
1.89705e-05 6.31465e-05 -0.000360748
0.00650516 0.00419535 -0.000171334
0.00419535 -0.0039556 -7.67338e-05
-0.000171334 -7.67338e-05 0.000592517
0.00366168 0.00596656 0.00114907
0.00596656 -0.0112276 0.000327318
0.00114907 0.000327318 -0.00904259
0.00264219 0.00426763 -0.000293324
0.00426763 -0.0010431 -0.000146985
-0.000293324 -0.000146985 0.000454167
0.00584338 0.00321368 -2.83716e-05
0.00321368 0.000517882 -1.58391e-05
-2.83716e-05 -1.58391e-05 0.000616444
0.00873801 0.00352203 -0.000250719
0.00352203 0.00319875 -7.87097e-05
-0.000250719 -7.87097e-05 0.00230735
0.00483387 -7.49623e-05 -4.45098e-05
-7.49623e-05 -0.00116388 -2.60478e-05
-4.45098e-05 -2.60478e-05 0.000145198
0.00198351 -0.000511046 0.000117644
-0.000511046 -0.00306206 3.23282e-05
0.000117644 3.23282e-05 -0.00010875
0.00912877 -0.000204178 0.00021542
-0.000204178 -0.0066906 -4.27003e-05
0.00021542 -4.27003e-05 -0.00695212
0.00278449 -0.00209628 -8.34641e-05
-0.00209628 -0.00138289 0.000134285
-8.34641e-05 0.000134285 -0.000274259
0.00532143 -0.00197282 -0.000262706
-0.00197282 -0.00356726 9.30839e-05
-0.000262706 9.30839e-05 -0.000768527
0.0037704 -0.00142546 -1.59032e-05
-0.00142546 -0.00084375 1.30991e-05
-1.59032e-05 1.30991e-05 0.000269246
0.00508345 -0.00104013 -6.87805e-05
-0.00104013 -0.000531319 1.82956e-07
-6.87805e-05 1.82956e-07 0.000766284
0.00446489 -0.000698236 0.000127432
-0.000698236 0.000529918 -2.9076e-05
0.000127432 -2.9076e-05 0.00101049
0.00318941 -0.000143935 6.66134e-05
-0.000143935 -0.000109762 -1.77166e-06
6.66134e-05 -1.77166e-06 0.000309363
0.000858482 -0.000918148 -1.911e-05
-0.000918148 -0.00134327 1.88538e-05
-1.911e-05 1.88538e-05 -0.00075849
0.00283771 -0.000822016 -5.49094e-06
-0.000822016 -0.000309973 1.04658e-06
-5.49094e-06 1.04658e-06 7.3911e-05
0.00286326 -0.000591077 5.18047e-06
-0.000591077 -0.000273663 -3.86191e-06
5.18047e-06 -3.86191e-06 4.24762e-05
0.00296993 -0.000985019 -3.45992e-06
-0.000985019 -2.04889e-05 2.74433e-06
-3.45992e-06 2.74433e-06 7.46887e-05
0.00290246 -0.000782404 -3.42694e-07
-0.000782404 -3.89573e-05 -3.64254e-07
-3.42694e-07 -3.64254e-07 5.5029e-05
0.00267427 -0.000578769 -1.20014e-06
-0.000578769 -0.000166491 -8.32981e-07
-1.20014e-06 -8.32981e-07 -3.68297e-05
0.00271751 -0.00086074 -8.17452e-08
-0.00086074 -4.74049e-07 9.25906e-07
-8.17452e-08 9.25906e-07 8.31551e-06
0.00265505 -0.000721904 -6.65868e-07
-0.000721904 -3.0743e-05 -9.99023e-09
-6.65868e-07 -9.99023e-09 -1.86892e-05
0.00255156 -0.000591808 6.17128e-07
-0.000591808 1.44153e-05 -4.51767e-07
6.17128e-07 -4.51767e-07 4.52812e-06
0.00270256 -0.000839018 6.79869e-07
-0.000839018 0.000134204 3.29491e-07
6.79869e-07 3.29491e-07 5.521e-05
0.00260251 -0.000724292 1.04775e-06
-0.000724292 0.000101237 -1.89537e-07
1.04775e-06 -1.89537e-07 2.8745e-05
0.00244335 -0.000644239 1.45842e-07
-0.000644239 0.000109172 -2.57311e-07
1.45842e-07 -2.57311e-07 6.90333e-06
0.00244641 -0.000797403 -1.27029e-06
-0.000797403 9.32019e-05 1.3447e-06
-1.27029e-06 1.3447e-06 -4.42281e-05
0.00240726 -0.000734713 -1.12636e-06
-0.000734713 0.000160164 2.72069e-07
-1.12636e-06 2.72069e-07 -1.65605e-05
0.00245702 -0.000704968 -1.46703e-06
-0.000704968 0.000254707 3.29551e-08
-1.46703e-06 3.29551e-08 2.9972e-05
0.00245257 -0.000744108 3.40372e-06
-0.000744108 0.000288108 -3.63986e-07
3.40372e-06 -3.63986e-07 4.87878e-05
0.00241083 -0.00075033 -4.87502e-07
-0.00075033 0.000301352 7.09469e-07
-4.87502e-07 7.09469e-07 1.74613e-05
0.00236889 -0.000695485 -1.34525e-06
-0.000695485 0.000356128 -3.1945e-06
-1.34525e-06 -3.1945e-06 3.77506e-05
0.0016312 -0.000552137 -2.09918e-05
-0.000552137 0.000135104 4.69835e-06
-2.09918e-05 4.69835e-06 -0.000224185
0.00222416 -0.000758582 3.22683e-07
-0.000758582 0.000306578 -1.87439e-06
3.22683e-07 -1.87439e-06 -8.0879e-05
0.00235455 -0.000801485 -8.20419e-07
-0.000801485 0.000270267 3.62207e-06
-8.20419e-07 3.62207e-06 -8.90801e-05
0.000189226 -0.000319494 -2.23758e-05
-0.000319494 -0.000338861 2.53201e-05
-2.23758e-05 2.53201e-05 -0.000567328
0.00155079 -0.000629338 -7.75249e-07
-0.000629338 0.000166265 -5.90843e-08
-7.75249e-07 -5.90843e-08 -0.000264044
0.00256402 -0.000945604 1.48342e-06
-0.000945604 0.00060169 5.986e-06
1.48342e-06 5.986e-06 8.8647e-05
0.00987639 -0.000145228 -0.000448908
-0.000145228 0.00612353 4.62852e-05
-0.000448908 4.62852e-05 0.00615091
7.79954e-05 -0.000320157 9.08339e-08
-0.000320157 -0.000373981 2.13773e-06
9.08339e-08 2.13773e-06 -0.000606301
0.000691518 -0.000552936 1.26967e-05
-0.000552936 -0.000195917 -8.35145e-07
1.26967e-05 -8.35145e-07 -0.000644868
0.00937455 -0.00011051 -5.31982e-06
-0.00011051 0.00583376 1.42723e-06
-5.31982e-06 1.42723e-06 0.00585266
-0.000189542 -0.000343655 2.49531e-05
-0.000343655 -0.00052082 -3.19153e-05
2.49531e-05 -3.19153e-05 -0.000740825
0.00865852 -2.48606e-05 0.000370459
-2.48606e-05 0.00541985 -4.99713e-05
0.000370459 -4.99713e-05 0.00542374
0.00205246 0.000949879 -5.81613e-06
0.000949879 0.000270418 1.61297e-05
-5.81613e-06 1.61297e-05 -0.00022944
0.00233627 0.00111985 -7.07652e-07
0.00111985 0.000666345 2.33075e-06
-7.07652e-07 2.33075e-06 2.03705e-05
0.00240408 0.00102313 1.95888e-06
0.00102313 0.000732979 1.90782e-05
1.95888e-06 1.90782e-05 0.000109469
0.00219802 0.00110085 5.76574e-06
0.00110085 0.000855013 -1.80665e-05
5.76574e-06 -1.80665e-05 0.000147057
0.00176634 0.000885118 1.34486e-06
0.000885118 0.000564279 1.55755e-06
1.34486e-06 1.55755e-06 -5.78454e-05
-8.63972e-05 0.00040456 -1.58986e-05
0.00040456 -0.000551722 3.17346e-06
-1.58986e-05 3.17346e-06 -0.000954506
0.00247169 0.000596579 3.8571e-06
0.000596579 0.00108071 -9.39743e-06
3.8571e-06 -9.39743e-06 0.00062629
0.000291387 0.000366631 3.70715e-06
0.000366631 -0.000178477 -1.55299e-06
3.70715e-06 -1.55299e-06 -0.000518528
0.000443283 0.000308218 -4.07723e-05
0.000308218 -0.000147571 -2.87737e-05
-4.07723e-05 -2.87737e-05 -0.000299393
0.00113617 0.000345174 3.37753e-06
0.000345174 0.000432445 5.81933e-06
3.37753e-06 5.81933e-06 0.000105785
0.000773719 0.000259422 1.14262e-06
0.000259422 0.000120383 -1.93273e-06
1.14262e-06 -1.93273e-06 -2.08337e-05
0.00753694 -0.000221084 -0.000230037
-0.000221084 0.0047957 -3.95276e-05
-0.000230037 -3.95276e-05 0.00474406
0.000371 0.000174921 2.52824e-05
0.000174921 -3.92897e-05 2.57675e-05
2.52824e-05 2.57675e-05 -0.000169469
0.00536589 -0.000211476 -2.29708e-05
-0.000211476 0.00335213 2.39974e-06
-2.29708e-05 2.39974e-06 0.00331183
0.00440983 -0.00017912 7.48844e-05
-0.00017912 0.00268942 1.38648e-05
7.48844e-05 1.38648e-05 0.00266477
0.000874418 0.000835914 3.9064e-05
0.000835914 -0.00363617 6.1489e-05
3.9064e-05 6.1489e-05 -0.00126733
0.00596604 0.000985887 8.23653e-05
0.000985887 -0.0030429 2.76189e-05
8.23653e-05 2.76189e-05 0.000900561
0.0180566 0.00111696 4.28889e-05
0.00111696 -0.000847317 0.000194478
4.28889e-05 0.000194478 0.00183484
0.00237146 0.00113217 3.86279e-07
0.00113217 0.000333887 8.50593e-06
3.86279e-07 8.50593e-06 -0.000171612
0.00266175 0.0010591 2.92544e-06
0.0010591 0.00037638 8.57281e-06
2.92544e-06 8.57281e-06 -2.11772e-05
0.00218421 0.00103289 -1.545e-06
0.00103289 0.00031317 -4.11353e-06
-1.545e-06 -4.11353e-06 -0.000181022
0.00317718 0.00158751 1.48959e-05
0.00158751 0.00132386 -7.3565e-06
1.48959e-05 -7.3565e-06 0.000591722
0.00246246 0.00128067 -1.49334e-05
0.00128067 0.00074379 -1.78876e-05
-1.49334e-05 -1.78876e-05 6.85898e-05
0.00283297 0.00145939 7.94003e-06
0.00145939 0.000813399 2.4331e-06
7.94003e-06 2.4331e-06 0.000146533
0.00318624 0.00135873 -1.34426e-05
0.00135873 0.000535934 1.89813e-07
-1.34426e-05 1.89813e-07 9.48178e-05
0.00185967 0.00153539 7.99535e-06
0.00153539 0.000280489 -8.98933e-06
7.99535e-06 -8.98933e-06 -0.000352866
0.00248941 0.00172434 2.70808e-08
0.00172434 0.000618117 9.27118e-05
2.70808e-08 9.27118e-05 7.58435e-05
0.00281837 0.00151239 6.34396e-06
0.00151239 0.000688188 -4.49095e-06
6.34396e-06 -4.49095e-06 -2.05538e-05
0.00362592 0.00132721 3.56507e-06
0.00132721 0.000630563 2.66241e-05
3.56507e-06 2.66241e-05 0.000387376
0.00246852 0.000655928 8.69994e-05
0.000655928 0.000109622 9.28602e-06
8.69994e-05 9.28602e-06 0.000386555
0.000431161 0.00100396 -2.08517e-06
0.00100396 -0.000739132 -2.69574e-05
-2.08517e-06 -2.69574e-05 -0.000858851
0.00133644 0.00151627 -4.77171e-05
0.00151627 -1.50845e-05 4.207e-06
-4.77171e-05 4.207e-06 -0.00055931
0.00481144 0.00199018 4.68383e-05
0.00199018 -0.000984652 1.75416e-05
4.68383e-05 1.75416e-05 0.000670982
0.0105252 0.00424211 -0.000108934
0.00424211 -0.00139062 -7.65437e-05
-0.000108934 -7.65437e-05 0.00208807
0.006729 0.0028274 -0.000124256
0.0028274 0.00157937 -0.000116323
-0.000124256 -0.000116323 0.00169836
0.00390474 4.90096e-06 0.000100402
4.90096e-06 0.000368022 6.83428e-06
0.000100402 6.83428e-06 0.000797754
0.00442725 -0.000230153 -0.000156025
-0.000230153 -0.00183376 1.27358e-05
-0.000156025 1.27358e-05 -3.49159e-05
0.00525082 0.000417548 -7.3034e-05
0.000417548 -0.00193056 -4.80728e-05
-7.3034e-05 -4.80728e-05 0.00076622
0.00256808 -0.00134375 -0.000142049
-0.00134375 -0.00150513 0.000101914
-0.000142049 0.000101914 -0.000371465
0.00146431 -0.000924742 -0.000114766
-0.000924742 -0.00251596 1.81958e-05
-0.000114766 1.81958e-05 -0.00127958
0.0037022 -0.000653872 7.56469e-06
-0.000653872 2.73245e-05 -9.32536e-06
7.56469e-06 -9.32536e-06 0.000628466
0.00268567 -0.000147789 -2.12723e-05
-0.000147789 -0.000404218 -2.30628e-06
-2.12723e-05 -2.30628e-06 3.30877e-05
0.0028316 -0.00037153 1.19956e-05
-0.00037153 -0.000390837 -4.75689e-06
1.19956e-05 -4.75689e-06 1.6352e-05
0.00255206 0.000136804 4.32467e-06
0.000136804 -0.00058205 -1.30387e-06
4.32467e-06 -1.30387e-06 -0.000258962
0.00285121 -0.000860307 -2.3988e-05
-0.000860307 -0.000291489 1.4064e-05
-2.3988e-05 1.4064e-05 4.54161e-05
0.00289425 -0.000621974 -3.31085e-06
-0.000621974 -0.000280305 8.70406e-07
-3.31085e-06 8.70406e-07 4.0932e-06
0.00275676 -0.000430252 -1.08469e-06
-0.000430252 -0.000230695 -8.23432e-07
-1.08469e-06 -8.23432e-07 1.56452e-05
0.00290917 -0.000756455 -2.84572e-06
-0.000756455 -1.50474e-06 1.37691e-06
-2.84572e-06 1.37691e-06 0.000107077
0.00268385 -0.000583497 2.76916e-07
-0.000583497 -0.000152314 -2.44917e-07
2.76916e-07 -2.44917e-07 -2.93435e-05
0.00257577 -0.000476183 9.54318e-07
-0.000476183 -8.51111e-05 -3.87464e-07
9.54318e-07 -3.87464e-07 8.90818e-06
0.00264619 -0.000724521 -5.88383e-07
-0.000724521 -2.10451e-05 1.14732e-06
-5.88383e-07 1.14732e-06 -6.67685e-06
0.00254931 -0.000589837 3.93266e-07
-0.000589837 5.62107e-06 -6.26641e-08
3.93266e-07 -6.26641e-08 -3.75545e-06
0.00240718 -0.000522612 3.14773e-07
-0.000522612 3.15033e-05 -2.49706e-08
3.14773e-07 -2.49706e-08 -8.34612e-06
0.00260774 -0.000725908 1.56723e-06
-0.000725908 0.000100805 3.65257e-07
1.56723e-06 3.65257e-07 2.74473e-05
0.00244884 -0.000645114 6.06262e-07
-0.000645114 0.000108661 -2.16031e-07
6.06262e-07 -2.16031e-07 5.90159e-06
0.00240909 -0.000608054 -2.91263e-06
-0.000608054 0.000166909 4.41599e-07
-2.91263e-06 4.41599e-07 1.49508e-05
0.00236673 -0.000737454 4.90105e-07
-0.000737454 0.000123092 3.13782e-07
4.90105e-07 3.13782e-07 -4.85532e-05
0.00240127 -0.000703877 6.14534e-07
-0.000703877 0.000216484 -2.72466e-07
6.14534e-07 -2.72466e-07 -5.83806e-06
0.00229037 -0.000635414 -1.62595e-06
-0.000635414 0.000232093 -2.48501e-06
-1.62595e-06 -2.48501e-06 -3.48851e-05
0.00238061 -0.000745178 -5.75774e-07
-0.000745178 0.000282535 2.48861e-06
-5.75774e-07 2.48861e-06 1.08257e-06
0.00237137 -0.000698664 -4.08728e-07
-0.000698664 0.000358428 -2.37067e-09
-4.08728e-07 -2.37067e-09 4.0577e-05
0.00160752 -0.000477027 -1.39908e-05
-0.000477027 9.24055e-05 4.20548e-06
-1.39908e-05 4.20548e-06 -0.000209037
0.000302377 -0.000293607 -1.81721e-05
-0.000293607 -0.000305782 2.25702e-05
-1.81721e-05 2.25702e-05 -0.000517078
0.00163368 -0.000552754 5.56243e-08
-0.000552754 0.000134949 1.25434e-07
5.56243e-08 1.25434e-07 -0.00022332
0.00224835 -0.000760325 -3.59327e-08
-0.000760325 0.000332632 3.36362e-06
-3.59327e-08 3.36362e-06 -6.14975e-05
0.00932908 -0.00021089 -0.000446922
-0.00021089 0.00575408 4.81028e-05
-0.000446922 4.81028e-05 0.00578255
0.000296747 -0.000327334 -7.68003e-07
-0.000327334 -0.000282464 1.26047e-06
-7.68003e-07 1.26047e-06 -0.000506743
0.00160914 -0.000617446 1.97184e-05
-0.000617446 0.000222241 -2.9775e-06
1.97184e-05 -2.9775e-06 -0.000201362
0.00967403 -0.000163335 -5.16392e-06
-0.000163335 0.00599231 2.93355e-06
-5.16392e-06 2.93355e-06 0.00601588
7.84809e-05 -0.00033351 2.23881e-05
-0.00033351 -0.000375476 -2.923e-05
2.23881e-05 -2.923e-05 -0.000612668
0.00972574 -0.000142483 0.00043006
-0.000142483 0.00605214 -5.14563e-05
0.00043006 -5.14563e-05 0.00607033
0.00221526 0.000961022 4.53741e-06
0.000961022 0.000224154 1.41597e-05
4.53741e-06 1.41597e-05 -0.00020705
0.00222053 0.000970087 2.88781e-06
0.000970087 0.00039125 -1.30014e-07
2.88781e-06 -1.30014e-07 -0.000109787
0.00250269 0.00094902 6.26272e-06
0.00094902 0.000634256 1.7305e-05
6.26272e-06 1.7305e-05 0.000103902
0.00245748 0.00111738 1.26623e-05
0.00111738 0.000772372 -1.4158e-05
1.26623e-05 -1.4158e-05 0.000129344
0.00221687 0.000996804 4.63548e-07
0.000996804 0.000603467 1.71845e-06
4.63548e-07 1.71845e-06 -1.31459e-05
0.000833969 0.000504761 -2.98303e-05
0.000504761 -0.000110638 2.62178e-06
-2.98303e-05 2.62178e-06 -0.000532741
0.00243068 0.000915727 -8.97192e-06
0.000915727 0.000906345 -1.64806e-05
-8.97192e-06 -1.64806e-05 0.000294497
0.000909038 0.000405706 -9.08174e-07
0.000405706 8.0794e-05 -7.65543e-07
-9.08174e-07 -7.65543e-07 -0.00029721
7.43921e-06 0.000301348 -3.27032e-05
0.000301348 -0.000399262 -3.26426e-05
-3.27032e-05 -3.26426e-05 -0.000587832
0.00217959 0.000265879 3.38217e-06
0.000265879 0.000977213 3.92538e-07
3.38217e-06 3.92538e-07 0.000682984
0.000212927 0.000271166 5.70492e-06
0.000271166 -0.000275884 -1.17411e-06
5.70492e-06 -1.17411e-06 -0.000434858
0.00843445 -0.000129485 -0.000292161
-0.000129485 0.00531402 -4.01121e-05
-0.000292161 -4.01121e-05 0.0052916
0.000391622 0.000237078 3.28968e-05
0.000237078 -9.57169e-05 2.84635e-05
3.28968e-05 2.84635e-05 -0.000243059
0.0069667 -0.000183322 -3.32104e-06
-0.000183322 0.00438544 -1.8115e-06
-3.32104e-06 -1.8115e-06 0.00435305
0.00486378 -0.000221668 9.57474e-05
-0.000221668 0.00301893 2.05854e-05
9.57474e-05 2.05854e-05 0.002977
0.00153321 0.000466335 6.40385e-05
0.000466335 -0.000871645 4.24509e-05
6.40385e-05 4.24509e-05 -0.000277514
0.00140675 0.000946222 4.41547e-05
0.000946222 -0.00367763 -1.1903e-05
4.41547e-05 -1.1903e-05 -0.00138333
0.00593164 0.00180755 0.000307182
0.00180755 -0.00328363 0.000138247
0.000307182 0.000138247 0.00111462
0.00285815 0.0011058 -6.94745e-06
0.0011058 0.000382878 1.44539e-06
-6.94745e-06 1.44539e-06 3.12546e-05
0.00253991 0.00117118 -1.01833e-05
0.00117118 0.000433905 -3.9847e-06
-1.01833e-05 -3.9847e-06 -7.83816e-05
0.00253869 0.000817583 7.13957e-06
0.000817583 0.000165054 3.94974e-06
7.13957e-06 3.94974e-06 -5.01585e-05
0.00265545 0.00105035 1.13411e-06
0.00105035 0.00036754 2.15401e-07
1.13411e-06 2.15401e-07 -1.50469e-05
0.00220627 0.00103653 -8.25736e-06
0.00103653 0.000329525 -1.71816e-05
-8.25736e-06 -1.71816e-05 -0.000161056
0.00304141 0.000996663 -4.36037e-06
0.000996663 0.000202149 2.40159e-06
-4.36037e-06 2.40159e-06 5.38644e-05
0.00285048 0.00150683 3.15802e-06
0.00150683 0.000777974 -7.94786e-06
3.15802e-06 -7.94786e-06 0.000101963
0.00307456 0.00129473 -9.10978e-07
0.00129473 0.000504567 -1.32026e-06
-9.10978e-07 -1.32026e-06 7.99541e-05
0.00241619 0.000617599 -5.0969e-06
0.000617599 -0.000403765 3.08144e-06
-5.0969e-06 3.08144e-06 -0.00017667
0.00214616 0.00151941 -1.04686e-05
0.00151941 0.000231817 1.93327e-05
-1.04686e-05 1.93327e-05 -0.000435647
0.00308263 0.00126112 3.94192e-06
0.00126112 0.000324375 -6.19634e-06
3.94192e-06 -6.19634e-06 0.000101072
0.000890817 0.000659404 -4.009e-05
0.000659404 -0.00101513 -3.81168e-06
-4.009e-05 -3.81168e-06 -0.000548251
-0.00330693 0.000592228 -1.99751e-05
0.000592228 -0.00273894 -1.58406e-05
-1.99751e-05 -1.58406e-05 -0.00273773
0.00609841 0.00214668 -0.000242757
0.00214668 -0.000241689 -9.76244e-05
-0.000242757 -9.76244e-05 0.00128765
0.00280197 0.000246317 -2.74258e-06
0.000246317 -0.000307216 -2.80171e-06
-2.74258e-06 -2.80171e-06 1.2568e-05
0.00340779 3.77359e-05 -4.0076e-06
3.77359e-05 -1.28178e-05 -6.59746e-06
-4.0076e-06 -6.59746e-06 0.000427366
0.00342887 -0.000430145 -0.000204142
-0.000430145 -0.00247593 -2.21949e-05
-0.000204142 -2.21949e-05 -0.000582839
0.0024993 -0.00057749 -0.000128502
-0.00057749 -0.000750803 3.38341e-05
-0.000128502 3.38341e-05 -5.74615e-06
0.0023844 -0.000162623 -2.35024e-05
-0.000162623 -0.00054763 1.46253e-06
-2.35024e-05 1.46253e-06 -0.00011147
0.00272125 -0.000394696 6.78985e-06
-0.000394696 -0.0004955 -1.21395e-06
6.78985e-06 -1.21395e-06 -3.62607e-05
0.00289505 0.000155998 -1.39152e-06
0.000155998 -0.0003303 2.93897e-06
-1.39152e-06 2.93897e-06 -3.69676e-05
0.00276251 -7.24984e-05 -2.91851e-07
-7.24984e-05 -0.000294613 -7.24927e-07
-2.91851e-07 -7.24927e-07 1.11647e-05
0.00289623 -0.000647216 -3.84087e-06
-0.000647216 -0.000297947 3.15686e-06
-3.84087e-06 3.15686e-06 -4.50837e-05
0.00268457 -0.000411557 3.35028e-07
-0.000411557 -0.000262539 -3.10875e-07
3.35028e-07 -3.10875e-07 -2.38983e-05
0.00258675 -0.000307589 1.12235e-06
-0.000307589 -0.000139061 -8.46332e-07
1.12235e-06 -8.46332e-07 3.7272e-05
0.00269319 -0.000588336 2.66277e-07
-0.000588336 -0.000136423 1.07903e-06
2.66277e-07 1.07903e-06 -2.15714e-05
0.00256181 -0.000475177 3.01985e-07
-0.000475177 -9.04556e-05 1.76768e-07
3.01985e-07 1.76768e-07 -1.09318e-06
0.00239554 -0.000399291 6.66373e-07
-0.000399291 -2.6495e-05 3.29195e-08
6.66373e-07 3.29195e-08 -2.22083e-06
0.00254733 -0.000587616 3.9954e-08
-0.000587616 -3.11651e-06 3.13757e-07
3.9954e-08 3.13757e-07 -1.19613e-05
0.00241257 -0.000523226 3.80686e-07
-0.000523226 3.07865e-05 -5.13352e-08
3.80686e-07 -5.13352e-08 -9.30595e-06
0.00232706 -0.000486562 -3.73771e-06
-0.000486562 7.57083e-05 6.25977e-07
-3.73771e-06 6.25977e-07 -8.11909e-06
0.00245511 -0.000646076 9.54774e-07
-0.000646076 0.000108597 -2.07342e-07
9.54774e-07 -2.07342e-07 5.31073e-06
0.00243342 -0.000610326 5.20545e-07
-0.000610326 0.000182182 -2.04224e-07
5.20545e-07 -2.04224e-07 2.89858e-05
0.00235986 -0.000564115 -2.03745e-06
-0.000564115 0.000228102 -1.14561e-06
-2.03745e-06 -1.14561e-06 1.69804e-05
0.00234383 -0.000702714 1.27476e-06
-0.000702714 0.000176517 1.23008e-07
1.27476e-06 1.23008e-07 -4.31263e-05
0.00234159 -0.000639268 -8.82004e-07
-0.000639268 0.000267484 -5.22511e-08
-8.82004e-07 -5.22511e-08 -2.38801e-07
0.00158769 -0.000420969 -1.03853e-05
-0.000420969 5.54904e-05 3.47755e-06
-1.03853e-05 3.47755e-06 -0.000204887
0.00236763 -0.000700206 9.64931e-07
-0.000700206 0.000357602 3.16107e-06
9.64931e-07 3.16107e-06 4.08658e-05
0.00162298 -0.00047997 -1.45617e-08
-0.00047997 9.3868e-05 2.20303e-07
-1.45617e-08 2.20303e-07 -0.000207174
0.00313248 -0.00030785 -6.4563e-05
-0.00030785 0.00154324 1.68652e-05
-6.4563e-05 1.68652e-05 0.00137708
0.00329452 -0.000175874 -0.00035944
-0.000175874 0.00180104 5.89053e-05
-0.00035944 5.89053e-05 0.00178389
0.00180822 -0.00032301 -2.15523e-05
-0.00032301 0.000680344 6.29804e-07
-2.15523e-05 6.29804e-07 0.000482727
0.00161613 -0.000551108 1.86033e-05
-0.000551108 0.000123014 -4.50826e-06
1.86033e-05 -4.50826e-06 -0.000233663
0.00918367 -0.00021578 -7.69999e-06
-0.00021578 0.00567194 3.31254e-06
-7.69999e-06 3.31254e-06 0.00569591
9.3806e-05 -0.000346002 2.39504e-05
-0.000346002 -0.000415682 -2.52366e-05
2.39504e-05 -2.52366e-05 -0.000645643
0.00962231 -0.000174842 0.000429466
-0.000174842 0.00596588 -5.24829e-05
0.000429466 -5.24829e-05 0.00598487
0.00239818 0.000638523 4.2936e-06
0.000638523 9.27869e-05 1.77724e-06
4.2936e-06 1.77724e-06 -5.08054e-05
0.00241525 0.000837709 8.91873e-06
0.000837709 0.000253605 9.28519e-06
8.91873e-06 9.28519e-06 -4.70221e-05
0.00248623 0.000983257 7.87221e-07
0.000983257 0.00040131 -8.76007e-08
7.87221e-07 -8.76007e-08 -2.26304e-05
0.00244381 0.000876081 7.27775e-06
0.000876081 0.000517889 1.4759e-05
7.27775e-06 1.4759e-05 6.85799e-05
0.00232161 0.000987026 4.2253e-06
0.000987026 0.000461134 -1.67206e-05
4.2253e-06 -1.67206e-05 -4.09995e-05
0.00226628 0.000919981 9.82306e-07
0.000919981 0.000479276 1.76181e-07
9.82306e-07 1.76181e-07 -4.31787e-05
0.00139052 0.000602981 -3.84049e-05
0.000602981 0.000158108 -6.36107e-08
-3.84049e-05 -6.36107e-08 -0.000273218
0.00203162 0.000966838 4.65319e-08
0.000966838 0.000480378 -1.6722e-05
4.65319e-08 -1.6722e-05 -0.000128024
0.00106989 0.000533142 -4.94118e-06
0.000533142 3.19218e-05 3.78725e-07
-4.94118e-06 3.78725e-07 -0.000391438
-0.000125363 0.000332745 -3.08362e-05
0.000332745 -0.000486157 -2.89731e-05
-3.08362e-05 -2.89731e-05 -0.00070816
0.00164324 0.000404871 1.99051e-05
0.000404871 0.000581534 -3.53457e-06
1.99051e-05 -3.53457e-06 0.000222317
0.000294811 0.000274373 3.10458e-06
0.000274373 -0.000225383 -2.37046e-07
3.10458e-06 -2.37046e-07 -0.000410878
0.00952742 2.43658e-05 -0.000384058
2.43658e-05 0.00595435 -4.68697e-05
-0.000384058 -4.68697e-05 0.00595757
0.000754006 0.000268293 3.63868e-05
0.000268293 5.28749e-05 2.94185e-05
3.63868e-05 2.94185e-05 -9.3448e-05
0.00825486 -0.000120494 1.1744e-05
-0.000120494 0.0051826 -3.55235e-06
1.1744e-05 -3.55235e-06 0.00516754
0.00620779 -0.000223257 0.000148337
-0.000223257 0.00390049 2.36112e-05
0.000148337 2.36112e-05 0.00385751
0.00257011 0.000280413 -2.68595e-06
0.000280413 -0.000445859 1.80493e-06
-2.68595e-06 1.80493e-06 -9.98674e-05
0.00150309 0.000384327 -4.44649e-06
0.000384327 -0.00125445 -9.98285e-06
-4.44649e-06 -9.98285e-06 -0.000433449
0.00318712 0.00114599 -0.000193535
0.00114599 -0.00314886 -6.72105e-05
-0.000193535 -6.72105e-05 -0.000723204
0.00264922 0.00077204 7.8103e-07
0.00077204 0.000119848 1.99783e-07
7.8103e-07 1.99783e-07 -2.99205e-07
0.00274989 0.0010846 -5.06584e-06
0.0010846 0.000348102 -6.71351e-07
-5.06584e-06 -6.71351e-07 5.70562e-06
0.00261502 0.00120149 -1.05815e-06
0.00120149 0.000471427 -9.19217e-06
-1.05815e-06 -9.19217e-06 -4.49848e-05
0.00255454 0.000802516 1.66253e-06
0.000802516 0.000199274 1.14236e-06
1.66253e-06 1.14236e-06 -2.00072e-05
0.00263159 0.00104274 -2.54663e-06
0.00104274 0.000348452 -1.05276e-05
-2.54663e-06 -1.05276e-05 -2.14307e-05
0.00288725 0.000607288 5.10239e-06
0.000607288 -5.66066e-05 2.119e-07
5.10239e-06 2.119e-07 7.85567e-05
0.00291434 0.000983042 -1.63998e-06
0.000983042 0.000144645 1.13527e-06
-1.63998e-06 1.13527e-06 9.06691e-06
0.00305798 0.00124656 6.73393e-06
0.00124656 0.000526389 -3.53566e-06
6.73393e-06 -3.53566e-06 0.000113986
0.00233339 0.00056237 -2.30667e-07
0.00056237 -0.00037361 6.4933e-07
-2.30667e-07 6.4933e-07 -0.000135114
0.00256659 0.00115973 4.25529e-06
0.00115973 3.33713e-05 -7.74381e-06
4.25529e-06 -7.74381e-06 -0.00016657
-0.000793642 0.000563847 -4.03454e-05
0.000563847 -0.00229876 -6.44814e-06
-4.03454e-05 -6.44814e-06 -0.00146779
0.0026748 0.000134694 4.67786e-07
0.000134694 -0.000224958 6.93081e-07
4.67786e-07 6.93081e-07 2.5058e-05
0.00274845 0.000225866 1.43784e-06
0.000225866 -0.000346553 -3.79898e-07
1.43784e-06 -3.79898e-07 -2.45598e-05
0.00316708 4.93686e-05 -6.59197e-05
4.93686e-05 -0.000196978 1.13627e-05
-6.59197e-05 1.13627e-05 0.000219161
0.00261128 -0.000425753 -3.0206e-05
-0.000425753 -0.000616978 8.13886e-06
-3.0206e-05 8.13886e-06 -0.000100599
0.00320696 0.000180695 5.80824e-08
0.000180695 -0.000115866 -1.34775e-06
5.80824e-08 -1.34775e-06 0.000156423
0.00276651 -7.45214e-05 -1.08553e-06
-7.45214e-05 -0.000300633 -5.91025e-07
-1.08553e-06 -5.91025e-07 8.00972e-07
0.00245279 -8.56572e-05 1.17465e-06
-8.56572e-05 -0.000163322 -3.89421e-07
1.17465e-06 -3.89421e-07 -4.87075e-06
0.00260536 -0.000391942 1.28237e-06
-0.000391942 -0.00029888 -1.06142e-07
1.28237e-06 -1.06142e-07 -6.73141e-05
0.00254881 -0.000317758 -4.08241e-08
-0.000317758 -0.000157609 5.98535e-08
-4.08241e-08 5.98535e-08 8.16201e-06
0.00234258 -0.000262919 1.79336e-06
-0.000262919 -7.56252e-05 -7.48479e-07
1.79336e-06 -7.48479e-07 -1.38435e-05
0.00254399 -0.000473967 -1.32885e-06
-0.000473967 -9.85704e-05 5.92733e-07
-1.32885e-06 5.92733e-07 -1.36817e-05
0.00238822 -0.000397898 2.35219e-08
-0.000397898 -3.5409e-05 1.04338e-07
2.35219e-08 1.04338e-07 -1.09606e-05
0.00229928 -0.000367931 -4.20604e-06
-0.000367931 3.48139e-05 9.11398e-07
-4.20604e-06 9.11398e-07 -7.95239e-07
0.00241828 -0.000523942 3.50923e-07
-0.000523942 3.0072e-05 -1.84475e-07
3.50923e-07 -1.84475e-07 -1.02849e-05
0.00236004 -0.000490275 3.14712e-07
-0.000490275 9.54385e-05 -2.00442e-07
3.14712e-07 -2.00442e-07 9.88372e-06
0.00234542 -0.000470272 -2.5112e-06
-0.000470272 0.000181362 -2.3198e-07
-2.5112e-06 -2.3198e-07 2.52867e-05
0.00245725 -0.000612492 3.11951e-06
-0.000612492 0.000197691 -6.10917e-07
3.11951e-06 -6.10917e-07 4.32885e-05
0.00231935 -0.000559968 -8.3911e-07
-0.000559968 0.000203038 -9.80163e-08
-8.3911e-07 -9.80163e-08 -7.10681e-06
0.00152831 -0.000359518 -7.84782e-06
-0.000359518 -4.98825e-06 2.90001e-06
-7.84782e-06 2.90001e-06 -0.00023004
0.00239262 -0.000643145 1.97889e-06
-0.000643145 0.000302615 1.39869e-06
1.97889e-06 1.39869e-06 3.41455e-05
0.00159907 -0.000423251 -1.03713e-07
-0.000423251 5.39204e-05 2.33929e-08
-1.03713e-07 2.33929e-08 -0.000205922
0.00300079 -0.00027587 -6.98207e-05
-0.00027587 0.00145946 1.56436e-05
-6.98207e-05 1.56436e-05 0.00131288
0.00163252 -0.00048403 1.25404e-05
-0.00048403 8.84259e-05 -3.99623e-06
1.25404e-05 -3.99623e-06 -0.000212711
0.0032312 -0.000337085 6.10821e-05
-0.000337085 0.00161179 -1.10571e-05
6.10821e-05 -1.10571e-05 0.00145891
0.00291714 -0.000185681 -0.000332158
-0.000185681 0.00157113 5.93546e-05
-0.000332158 5.93546e-05 0.0015486
0.005832 -0.000219171 -0.0003219
-0.000219171 0.00348779 4.34836e-05
-0.0003219 4.34836e-05 0.00348797
0.00342524 -0.000405306 0.000203318
-0.000405306 0.00175116 -3.83728e-05
0.000203318 -3.83728e-05 0.00159056
0.00898921 -0.000220567 0.000419144
-0.000220567 0.00555391 -5.4919e-05
0.000419144 -5.4919e-05 0.00557339
0.00246956 0.000611226 2.9142e-07
0.000611226 8.97437e-05 -9.91119e-07
2.9142e-07 -9.91119e-07 1.04382e-05
0.0023727 0.000677145 3.08242e-06
0.000677145 0.000203463 4.38033e-06
3.08242e-06 4.38033e-06 -6.77055e-06
0.00241252 0.000627259 7.46597e-07
0.000627259 0.00011145 -4.27608e-08
7.46597e-07 -4.27608e-08 -2.29689e-05
0.00229072 0.000743891 2.02581e-06
0.000743891 0.000303848 1.08731e-05
2.02581e-06 1.08731e-05 -4.33632e-05
0.00247756 0.000840547 -1.76298e-07
0.000840547 0.00028566 -3.98594e-07
-1.76298e-07 -3.98594e-07 -1.67228e-05
0.00273329 0.00100382 -4.34459e-06
0.00100382 0.000560146 -1.34593e-05
-4.34459e-06 -1.34593e-05 0.000144484
0.0022861 0.000862898 7.51864e-07
0.000862898 0.000405018 2.13611e-07
7.51864e-07 2.13611e-07 -4.13213e-05
0.00162622 0.000606861 -3.43486e-05
0.000606861 0.00016284 -1.2945e-06
-3.43486e-05 -1.2945e-06 -0.000230833
0.00196788 0.000886895 -2.64178e-06
0.000886895 0.000279043 -1.67975e-05
-2.64178e-06 -1.67975e-05 -0.000235002
0.00139541 0.000629387 -3.88852e-06
0.000629387 0.000139047 5.5749e-08
-3.88852e-06 5.5749e-08 -0.000304343
0.000182713 0.000355389 -2.888e-05
0.000355389 -0.000335972 -2.41897e-05
-2.888e-05 -2.41897e-05 -0.000568624
0.00161935 0.000550796 3.30323e-05
0.000550796 0.000351534 1.45303e-06
3.30323e-05 1.45303e-06 -6.05005e-05
7.609e-06 0.000296854 1.458e-06
0.000296854 -0.00041312 2.21874e-06
1.458e-06 2.21874e-06 -0.00062372
0.00968891 0.00012908 -0.00040962
0.00012908 0.00602308 -5.23132e-05
-0.00040962 -5.23132e-05 0.00603262
6.62203e-05 0.00022843 2.66791e-05
0.00022843 -0.00038212 3.15205e-05
2.66791e-05 3.15205e-05 -0.0005601
0.00897023 -2.45324e-05 1.34536e-05
-2.45324e-05 0.00559278 -1.54693e-06
1.34536e-05 -1.54693e-06 0.00559459
0.00794793 -0.000147267 0.000249771
-0.000147267 0.0049798 2.44093e-05
0.000249771 2.44093e-05 0.00496328
0.00271399 0.00036536 2.20441e-06
0.00036536 -0.000171255 -3.39167e-07
2.20441e-06 -3.39167e-07 3.12432e-05
0.00245479 0.000293657 2.73328e-06
0.000293657 -0.000436869 -2.07852e-06
2.73328e-06 -2.07852e-06 -9.41309e-05
0.000599536 0.000338384 -6.23077e-05
0.000338384 -0.00215289 -1.12917e-05
-6.23077e-05 -1.12917e-05 -0.00113012
0.00256836 0.000531495 3.61693e-06
0.000531495 -3.90529e-05 3.23476e-07
3.61693e-06 3.23476e-07 7.73691e-07
0.00258165 0.000764876 -1.33219e-06
0.000764876 8.61905e-05 8.35559e-07
-1.33219e-06 8.35559e-07 -2.66141e-05
0.00263086 0.00105868 6.93553e-06
0.00105868 0.000307941 -4.20207e-06
6.93553e-06 -4.20207e-06 -2.24997e-05
0.00257447 0.000788222 -5.95509e-06
0.000788222 0.000233677 -3.85457e-06
-5.95509e-06 -3.85457e-06 1.21079e-05
0.00280846 0.000595192 -2.10584e-06
0.000595192 -9.70985e-05 5.6452e-07
-2.10584e-06 5.6452e-07 3.2031e-05
0.0028051 0.000968958 -1.5661e-09
0.000968958 0.000106264 -3.95146e-06
-1.5661e-09 -3.95146e-06 -1.90436e-05
0.00218949 0.000556137 3.31982e-06
0.000556137 -0.000343484 -5.56668e-06
3.31982e-06 -5.56668e-06 -0.00011331
0.00250751 0.000106881 1.8856e-06
0.000106881 -0.000138376 3.93174e-07
1.8856e-06 3.93174e-07 1.03629e-05
0.0026216 0.000136953 2.09013e-07
0.000136953 -0.000242853 -4.21838e-07
2.09013e-07 -4.21838e-07 2.72638e-07
0.0026916 0.000219382 -7.52658e-06
0.000219382 -0.000373697 3.10998e-06
-7.52658e-06 3.10998e-06 -5.74482e-05
0.00231004 -1.20888e-05 7.97958e-07
-1.20888e-05 -0.000141482 -2.17423e-07
7.97958e-07 -2.17423e-07 -3.42246e-05
0.00278045 -8.08548e-05 1.31682e-06
-8.08548e-05 -0.000297728 -4.33572e-07
1.31682e-06 -4.33572e-07 -1.58578e-06
0.0024613 -9.03726e-05 -2.43782e-07
-9.03726e-05 -0.000157202 4.16678e-07
-2.43782e-07 4.16678e-07 3.58368e-08
0.0023116 -0.000136361 7.95312e-07
-0.000136361 -8.52623e-05 -4.10424e-07
7.95312e-07 -4.10424e-07 -1.29593e-05
0.00251113 -0.000327788 -8.47581e-07
-0.000327788 -0.000175816 8.17691e-07
-8.47581e-07 8.17691e-07 -2.08429e-05
0.00234521 -0.000259292 6.13017e-07
-0.000259292 -7.56278e-05 -4.35936e-07
6.13017e-07 -4.35936e-07 -1.28957e-05
0.00224821 -0.000251687 -3.22458e-06
-0.000251687 -2.81864e-06 5.99774e-07
-3.22458e-06 5.99774e-07 -1.23873e-05
0.0023827 -0.000396178 -3.33394e-07
-0.000396178 -4.31787e-05 1.16257e-07
-3.33394e-07 1.16257e-07 -1.85031e-05
0.00230326 -0.00036772 1.3703e-07
-0.00036772 3.44581e-05 -8.17628e-08
1.3703e-07 -8.17628e-08 -9.43683e-07
0.00230255 -0.000361137 -2.653e-06
-0.000361137 0.000121009 6.77726e-07
-2.653e-06 6.77726e-07 1.34877e-05
0.00239545 -0.000493938 4.04348e-06
-0.000493938 0.000116826 -9.98174e-07
4.04348e-06 -9.98174e-07 2.95872e-05
0.00230568 -0.000464538 -5.2379e-07
-0.000464538 0.00016071 -1.73153e-07
-5.2379e-07 -1.73153e-07 5.84962e-06
0.00154192 -0.000296447 -5.65266e-06
-0.000296447 -9.85746e-06 1.90787e-06
-5.65266e-06 1.90787e-06 -0.000202669
0.00227778 -0.000555604 1.95338e-06
-0.000555604 0.000177278 3.40873e-07
1.95338e-06 3.40873e-07 -3.18284e-05
0.00158373 -0.000362927 -2.39222e-07
-0.000362927 2.36139e-05 1.52331e-07
-2.39222e-07 1.52331e-07 -0.000200684
0.00286069 -0.000244759 -7.41616e-05
-0.000244759 0.00137437 1.43679e-05
-7.41616e-05 1.43679e-05 0.00124339
0.00160522 -0.000425438 8.47485e-06
-0.000425438 4.87481e-05 -3.44738e-06
8.47485e-06 -3.44738e-06 -0.000210506
0.00310274 -0.000291669 5.55503e-05
-0.000291669 0.00152617 -8.53025e-06
5.55503e-05 -8.53025e-06 0.00139324
0.00284294 -0.00015556 -0.000320779
-0.00015556 0.00151841 5.04451e-05
-0.000320779 5.04451e-05 0.00149968
0.00332149 -0.000337504 0.000189917
-0.000337504 0.00166584 -3.70174e-05
0.000189917 -3.70174e-05 0.00153048
0.00248754 -0.000119955 -0.000125315
-0.000119955 0.00128862 2.11006e-05
-0.000125315 2.11006e-05 0.00124697
0.00819029 -0.000150941 0.000156014
-0.000150941 0.00502186 -1.28872e-05
0.000156014 -1.28872e-05 0.0049982
0.00245171 0.000510947 3.84187e-08
0.000510947 6.39369e-05 1.26059e-07
3.84187e-08 1.26059e-07 2.16622e-05
0.00240783 0.000590279 -1.98043e-06
0.000590279 0.000147639 -5.2618e-07
-1.98043e-06 -5.2618e-07 1.70345e-05
0.00248633 0.000607244 -2.34979e-06
0.000607244 0.000103757 1.64003e-07
-2.34979e-06 1.64003e-07 1.88205e-05
0.00218974 0.000624208 -1.60692e-06
0.000624208 0.000165802 4.18102e-06
-1.60692e-06 4.18102e-06 -0.000104403
0.00243506 0.000692537 -9.15085e-07
0.000692537 0.000217506 -1.79421e-06
-9.15085e-07 -1.79421e-06 1.8986e-05
0.00242969 0.000615062 -7.61965e-06
0.000615062 0.000133847 -3.68221e-06
-7.61965e-06 -3.68221e-06 8.2993e-06
0.00166882 0.000520496 -2.4093e-05
0.000520496 8.76877e-05 -1.82528e-06
-2.4093e-05 -1.82528e-06 -0.000231792
0.00230137 0.000745217 1.56863e-06
0.000745217 0.000309815 4.75001e-07
1.56863e-06 4.75001e-07 -3.72581e-05
0.00259452 0.000849035 -3.83976e-06
0.000849035 0.000354765 -8.74258e-06
-3.83976e-06 -8.74258e-06 4.81766e-05
0.00214801 0.000851365 -5.92848e-06
0.000851365 0.000305949 -1.42636e-05
-5.92848e-06 -1.42636e-05 -0.00013768
0.00170102 0.000614557 -7.02439e-07
0.000614557 0.000213511 3.07999e-07
-7.02439e-07 3.07999e-07 -0.000183691
0.000428199 0.000337997 -2.60763e-05
0.000337997 -0.000213012 -2.04143e-05
-2.60763e-05 -2.04143e-05 -0.000435218
0.00184718 0.000685938 4.2314e-05
0.000685938 0.000406576 2.4275e-06
4.2314e-05 2.4275e-06 -5.11319e-05
0.000171159 0.000334305 8.40928e-07
0.000334305 -0.00033215 1.45207e-06
8.40928e-07 1.45207e-06 -0.000560567
0.00911912 0.00021334 -0.000404695
0.00021334 0.00565072 -5.82141e-05
-0.000404695 -5.82141e-05 0.00565732
0.000249961 0.000275751 2.77384e-05
0.000275751 -0.000261165 2.81361e-05
2.77384e-05 2.81361e-05 -0.000465862
0.00957799 8.77055e-05 9.22676e-06
8.77055e-05 0.00594537 1.64996e-06
9.22676e-06 1.64996e-06 0.0059599
0.00903051 -5.40625e-05 0.000328327
-5.40625e-05 0.00562741 2.76026e-05
0.000328327 2.76026e-05 0.00563308
0.00247665 0.00029418 1.18659e-06
0.00029418 -0.000105828 8.82441e-07
1.18659e-06 8.82441e-07 -9.23702e-07
0.0026747 0.000373077 -7.1913e-07
0.000373077 -0.000227109 6.33281e-07
-7.1913e-07 6.33281e-07 -1.46539e-05
0.00238655 0.000274364 -4.10578e-06
0.000274364 -0.000436278 3.86344e-07
-4.10578e-06 3.86344e-07 -8.37754e-05
0.00255609 0.000526474 -7.18517e-07
0.000526474 -4.36871e-05 2.37979e-07
-7.18517e-07 2.37979e-07 -2.19201e-06
0.00252267 0.00076013 -2.12329e-06
0.00076013 5.76189e-05 -2.02794e-06
-2.12329e-06 -2.02794e-06 -4.81084e-05
0.00273582 0.000579446 -7.08343e-07
0.000579446 -0.000145032 -1.4322e-06
-7.08343e-07 -1.4322e-06 -1.77599e-05
0.00239579 9.941e-05 1.95035e-06
9.941e-05 -8.19191e-05 2.82022e-07
1.95035e-06 2.82022e-07 9.37753e-06
0.00249864 0.00010621 1.40188e-07
0.00010621 -0.000138597 -9.07968e-08
1.40188e-07 -9.07968e-08 8.68283e-06
0.0025664 0.000137926 -8.91717e-07
0.000137926 -0.00026666 -3.21475e-08
-8.91717e-07 -3.21475e-08 -2.97379e-05
0.00235023 -7.97147e-06 -6.65669e-07
-7.97147e-06 -0.000109521 3.75449e-08
-6.65669e-07 3.75449e-08 -5.40713e-06
0.00228619 -3.10111e-05 -4.34568e-07
-3.10111e-05 -3.91375e-05 -3.05336e-07
-4.34568e-07 -3.05336e-07 1.81737e-05
0.00246879 -9.49576e-05 -1.73758e-06
-9.49576e-05 -0.000152272 5.78185e-07
-1.73758e-06 5.78185e-07 3.94976e-06
0.00231737 -0.000138605 -9.20388e-07
-0.000138605 -7.19834e-05 2.50446e-07
-9.20388e-07 2.50446e-07 -5.59726e-06
0.00215917 -0.000153546 -3.41526e-06
-0.000153546 -6.24513e-05 5.05727e-07
-3.41526e-06 5.05727e-07 -5.03787e-05
0.00234418 -0.000255938 -2.28564e-07
-0.000255938 -7.77088e-05 -9.95437e-08
-2.28564e-07 -9.95437e-08 -1.40583e-05
0.00223784 -0.000249915 9.75419e-07
-0.000249915 -8.65084e-06 -2.74741e-07
9.75419e-07 -2.74741e-07 -1.77173e-05
0.00235037 -0.000263799 -2.14115e-06
-0.000263799 0.000123651 1.42711e-06
-2.14115e-06 1.42711e-06 5.3172e-05
0.00230251 -0.000368329 4.30238e-06
-0.000368329 3.12046e-05 -1.01851e-06
4.30238e-06 -1.01851e-06 -4.2039e-06
0.002305 -0.000359747 -1.09228e-07
-0.000359747 0.00012651 -2.95423e-07
-1.09228e-07 -2.95423e-07 1.97671e-05
0.00155845 -0.000232811 -4.01254e-06
-0.000232811 -8.58982e-06 9.91649e-07
-4.01254e-06 9.91649e-07 -0.000172676
0.00226705 -0.000458953 2.57165e-06
-0.000458953 0.000140749 -3.6947e-07
2.57165e-06 -3.6947e-07 -1.29142e-05
0.00158915 -0.00029928 -3.45338e-07
-0.00029928 1.14936e-05 2.2944e-07
-3.45338e-07 2.2944e-07 -0.000180645
0.00273997 -0.000221268 -7.41992e-05
-0.000221268 0.00130583 1.2172e-05
-7.41992e-05 1.2172e-05 0.00118925
0.00164236 -0.000366722 6.63491e-06
-0.000366722 5.40657e-05 -2.66624e-06
6.63491e-06 -2.66624e-06 -0.000169486
0.00298465 -0.000242766 5.2394e-05
-0.000242766 0.00144991 -6.46546e-06
5.2394e-05 -6.46546e-06 0.00133425
0.00275436 -0.000126275 -0.000311853
-0.000126275 0.0014582 4.11172e-05
-0.000311853 4.11172e-05 0.00144309
0.00321339 -0.000280873 0.000183263
-0.000280873 0.00158855 -3.05905e-05
0.000183263 -3.05905e-05 0.00147342
0.00242862 -0.000111803 -0.000114185
-0.000111803 0.00125273 1.61721e-05
-0.000114185 1.61721e-05 0.00121353
0.00210115 -0.000111156 8.84911e-05
-0.000111156 0.00105347 -1.59121e-05
8.84911e-05 -1.59121e-05 0.000984876
0.00234298 0.000321695 9.60971e-07
0.000321695 -4.12535e-05 4.80873e-07
9.60971e-07 4.80873e-07 -1.90962e-05
0.00234198 0.000463121 -3.38737e-06
0.000463121 8.64654e-05 -1.3567e-07
-3.38737e-06 -1.3567e-07 -1.0277e-06
0.00243864 0.000512156 -7.17292e-07
0.000512156 3.3448e-05 -2.71155e-07
-7.17292e-07 -2.71155e-07 4.17292e-06
0.00232049 0.000562795 -1.78893e-07
0.000562795 0.000181722 1.49396e-06
-1.78893e-07 1.49396e-06 -1.85782e-05
0.0023942 0.00058587 -4.72821e-07
0.00058587 0.000147925 -2.1629e-07
-4.72821e-07 -2.1629e-07 1.00592e-05
0.00250247 0.000604441 -5.97691e-07
0.000604441 0.000116641 2.69769e-07
-5.97691e-07 2.69769e-07 2.57481e-05
0.00160274 0.000434776 -1.56118e-05
0.000434776 3.99422e-05 -2.21348e-06
-1.56118e-05 -2.21348e-06 -0.000223665
0.00225744 0.000636154 3.50837e-09
0.000636154 0.000200739 -1.65622e-06
3.50837e-09 -1.65622e-06 -5.89315e-05
0.00250135 0.000709148 -4.41976e-06
0.000709148 0.000232833 -5.21303e-06
-4.41976e-06 -5.21303e-06 4.61402e-05
0.00040841 0.000268604 -2.19233e-05
0.000268604 -0.00024345 -1.63509e-05
-2.19233e-05 -1.63509e-05 -0.000435537
0.00164521 0.000511157 1.75898e-07
0.000511157 8.88491e-05 6.62407e-08
1.75898e-07 6.62407e-08 -0.000229102
0.00229325 0.000744252 -1.80349e-06
0.000744252 0.000303667 -1.12442e-05
-1.80349e-06 -1.12442e-05 -4.25821e-05
0.00168666 0.000615763 3.68669e-05
0.000615763 0.000203345 1.71155e-06
3.68669e-05 1.71155e-06 -0.00019654
0.000297194 0.00032375 3.21394e-07
0.00032375 -0.000295084 1.0198e-06
3.21394e-07 1.0198e-06 -0.000516844
0.00860396 0.000297978 -0.000400642
0.000297978 0.00531839 -6.17965e-05
-0.000400642 -6.17965e-05 0.00532059
0.000145127 0.000309494 2.61048e-05
0.000309494 -0.000344064 2.3032e-05
2.61048e-05 2.3032e-05 -0.0005664
0.00926109 0.000195319 9.64265e-06
0.000195319 0.00572911 2.48088e-06
9.64265e-06 2.48088e-06 0.00574504
0.00927065 5.32143e-05 0.000375262
5.32143e-05 0.00573978 3.50177e-05
0.000375262 3.50177e-05 0.00575556
0.00238408 0.000182748 1.42526e-06
0.000182748 -4.18074e-05 3.63838e-07
1.42526e-06 3.63838e-07 2.94116e-05
0.00244464 0.00029904 4.58678e-07
0.00029904 -0.000134365 3.21139e-07
4.58678e-07 3.21139e-07 -2.95822e-05
0.00264247 0.000385042 -6.57362e-07
0.000385042 -0.000269509 1.60886e-07
-6.57362e-07 1.60886e-07 -4.92994e-05
0.00253783 0.000519565 1.18452e-07
0.000519565 -5.26955e-05 -5.2573e-07
1.18452e-07 -5.2573e-07 -1.04792e-05
0.00224326 4.54049e-05 -7.3482e-07
4.54049e-05 -2.29548e-05 5.8942e-08
-7.3482e-07 5.8942e-08 7.29885e-06
0.00239661 8.8015e-05 1.24583e-07
8.8015e-05 -8.512e-05 -1.17847e-07
1.24583e-07 -1.17847e-07 9.34629e-06
0.00249854 0.000105239 -1.21037e-06
0.000105239 -0.000131401 -4.01772e-07
-1.21037e-06 -4.01772e-07 1.36615e-05
0.00238382 -3.49178e-06 -3.29269e-06
-3.49178e-06 -8.2133e-05 2.50536e-07
-3.29269e-06 2.50536e-07 1.87687e-05
0.0022988 -2.49105e-05 -6.33638e-07
-2.49105e-05 -3.63752e-05 -1.48662e-07
-6.33638e-07 -1.48662e-07 2.44713e-05
0.00221774 -5.73589e-05 -4.28213e-06
-5.73589e-05 6.98115e-06 2.23817e-08
-4.28213e-06 2.23817e-08 1.61694e-05
0.00232356 -0.000140733 -6.22818e-07
-0.000140733 -5.851e-05 6.09073e-07
-6.22818e-07 6.09073e-07 1.76727e-06
0.00221795 -0.000154694 -1.60812e-06
-0.000154694 -1.1606e-05 3.2305e-07
-1.60812e-06 3.2305e-07 -7.29789e-06
0.00227274 -0.000173114 -2.07686e-06
-0.000173114 4.75501e-05 7.16485e-07
-2.07686e-06 7.16485e-07 2.47306e-06
0.00223325 -0.000247489 5.19704e-06
-0.000247489 -1.17995e-05 -1.14155e-06
5.19704e-06 -1.14155e-06 -2.0193e-05
0.00233958 -0.000261474 7.32742e-07
-0.000261474 0.000120051 -1.18493e-07
7.32742e-07 -1.18493e-07 4.9662e-05
0.00155259 -0.000172197 -4.21459e-06
-0.000172197 -1.73635e-05 8.0002e-07
-4.21459e-06 8.0002e-07 -0.000159235
0.00231241 -0.000356963 2.772e-06
-0.000356963 0.000135276 -1.35989e-06
2.772e-06 -1.35989e-06 2.96441e-05
0.00156552 -0.000233198 -9.64096e-08
-0.000233198 -1.34333e-05 7.84817e-08
-9.64096e-08 7.84817e-08 -0.00017688
0.000300453 -0.000118841 -1.61164e-05
-0.000118841 -0.000308325 7.12734e-06
-1.61164e-05 7.12734e-06 -0.000428842
0.00164238 -0.000302111 4.82059e-06
-0.000302111 3.80237e-05 -1.65556e-06
4.82059e-06 -1.65556e-06 -0.000153333
0.00162571 -0.000162472 7.71195e-05
-0.000162472 0.000557279 -6.72329e-06
7.71195e-05 -6.72329e-06 0.00044768
0.00735892 -0.000199865 -0.00040647
-0.000199865 0.00451405 3.49387e-05
-0.00040647 3.49387e-05 0.00454585
0.00311753 -0.000225079 0.000176845
-0.000225079 0.00152567 -2.36733e-05
0.000176845 -2.36733e-05 0.00142746
0.00235557 -0.000100493 -0.000103518
-0.000100493 0.00121029 1.04294e-05
-0.000103518 1.04294e-05 0.00117267
0.00200375 -0.000121609 9.87474e-05
-0.000121609 0.00100065 -1.69676e-05
9.87474e-05 -1.69676e-05 0.000932357
0.00228338 0.00021609 4.38031e-07
0.00021609 -1.94118e-05 -2.43475e-07
4.38031e-07 -2.43475e-07 8.20111e-07
0.00226132 0.000349356 -2.71032e-06
0.000349356 1.26937e-05 8.977e-08
-2.71032e-06 8.977e-08 -2.86882e-05
0.00236867 0.000313669 -4.45797e-07
0.000313669 -7.45504e-06 -8.5717e-08
-4.45797e-07 -8.5717e-08 7.07453e-06
0.0022991 0.000448908 8.34691e-08
0.000448908 0.000144026 1.63792e-06
8.34691e-08 1.63792e-06 3.02932e-06
0.0023288 0.000463751 2.21397e-07
0.000463751 8.10532e-05 -6.39692e-08
2.21397e-07 -6.39692e-08 -5.20065e-06
0.00242339 0.000513152 -5.81275e-07
0.000513152 1.68384e-06 -3.90223e-07
-5.81275e-07 -3.90223e-07 -1.46864e-05
0.00169474 0.000383363 -7.291e-06
0.000383363 9.28746e-05 5.77877e-08
-7.291e-06 5.77877e-08 -0.000122868
0.00228599 0.000555971 -1.31979e-06
0.000555971 0.000161233 -8.02047e-07
-1.31979e-06 -8.02047e-07 -4.09478e-05
0.00237447 0.000580106 1.48653e-06
0.000580106 0.000145501 -5.88643e-07
1.48653e-06 -5.88643e-07 1.93431e-07
0.000378062 0.000199087 -1.83508e-05
0.000199087 -0.000268722 -1.21012e-05
-1.83508e-05 -1.21012e-05 -0.000432503
0.00159023 0.000431542 5.55805e-07
0.000431542 3.88973e-05 2.392e-07
5.55805e-07 2.392e-07 -0.000217674
0.00231449 0.000645961 -8.65148e-07
0.000645961 0.000230958 -9.14877e-06
-8.65148e-07 -9.14877e-06 -1.78104e-05
0.00818434 0.000343861 -0.000400915
0.000343861 0.00505062 -5.95783e-05
-0.000400915 -5.95783e-05 0.00505258
0.000359333 0.000267765 3.81834e-07
0.000267765 -0.000281336 7.55001e-07
3.81834e-07 7.55001e-07 -0.000476167
0.00162958 0.000503158 2.68177e-05
0.000503158 9.54457e-05 1.75724e-06
2.68177e-05 1.75724e-06 -0.000221328
0.000237411 0.000312133 2.37354e-05
0.000312133 -0.000330533 2.08587e-05
2.37354e-05 2.08587e-05 -0.000552423
0.00875264 0.000297004 9.29196e-06
0.000297004 0.00541139 3.4501e-06
9.29196e-06 3.4501e-06 0.00541943
0.00938901 0.000169662 0.000426841
0.000169662 0.00579374 4.367e-05
0.000426841 4.367e-05 0.00581833
0.00219475 0.000115374 -1.66284e-06
0.000115374 -3.78567e-05 1.86158e-07
-1.66284e-06 1.86158e-07 -2.17686e-05
0.00238045 0.000176905 -9.78083e-08
0.000176905 -4.60654e-05 -8.57093e-09
-9.78083e-08 -8.57093e-09 2.22116e-05
0.00241304 0.000303857 -5.62794e-07
0.000303857 -0.000162014 -3.60479e-07
-5.62794e-07 -3.60479e-07 -5.72763e-05
0.00224262 2.47181e-05 -6.18447e-06
2.47181e-05 5.48367e-05 -2.7709e-07
-6.18447e-06 -2.7709e-07 4.98352e-05
0.00222374 5.31993e-05 8.8348e-07
5.31993e-05 -4.06469e-05 4.53128e-08
8.8348e-07 4.53128e-08 -5.73081e-06
0.00239838 7.58541e-05 -2.15656e-06
7.58541e-05 -8.81616e-05 -8.25135e-08
-2.15656e-06 -8.25135e-08 9.80536e-06
0.00231547 -1.89652e-05 -4.91961e-07
-1.89652e-05 -3.11121e-05 3.65685e-07
-4.91961e-07 3.65685e-07 3.3552e-05
0.00222164 -5.65506e-05 -3.02757e-07
-5.65506e-05 8.6884e-06 2.16018e-08
-3.02757e-07 2.16018e-08 1.90934e-05
0.00207826 -7.90714e-05 -1.96077e-06
-7.90714e-05 -7.17176e-05 8.27662e-08
-1.96077e-06 8.27662e-08 -0.000126965
0.00227541 -0.000156078 4.03042e-06
-0.000156078 3.90828e-05 -3.94264e-07
4.03042e-06 -3.94264e-07 3.57249e-05
0.00225757 -0.000175778 6.52583e-07
-0.000175778 4.90497e-05 -8.02552e-09
6.52583e-07 -8.02552e-09 -7.2951e-06
0.00163598 -0.000110907 -4.71318e-06
-0.000110907 3.81282e-05 4.55572e-07
-4.71318e-06 4.55572e-07 -7.50538e-05
0.00232023 -0.000260311 3.06443e-06
-0.000260311 0.000111297 -1.61883e-06
3.06443e-06 -1.61883e-06 4.06891e-05
0.00153255 -0.000168548 6.89368e-08
-0.000168548 -4.28054e-05 -4.05865e-08
6.89368e-08 -4.05865e-08 -0.000183688
0.000262276 -4.64191e-05 -1.4568e-05
-4.64191e-05 -0.000325283 4.07324e-06
-1.4568e-05 4.07324e-06 -0.000431991
0.00157173 -0.000232162 3.71297e-06
-0.000232162 -2.1851e-05 -1.17047e-06
3.71297e-06 -1.17047e-06 -0.000184375
0.00031418 -0.000103511 -3.94619e-07
-0.000103511 -0.000294606 4.92643e-07
-3.94619e-07 4.92643e-07 -0.000413882
0.00722119 -9.20922e-05 -0.00039328
-9.20922e-05 0.00441569 2.26789e-05
-0.00039328 2.26789e-05 0.00445478
0.000446971 -0.00012067 1.25701e-05
-0.00012067 -0.000219516 -9.2659e-06
1.25701e-05 -9.2659e-06 -0.000351075
0.00472318 -0.000132357 0.000166101
-0.000132357 0.00278282 -1.0527e-05
0.000166101 -1.0527e-05 0.00276808
0.00193202 -0.000105998 0.00010226
-0.000105998 0.000957682 -1.54354e-05
0.00010226 -1.54354e-05 0.000893054
0.00231143 0.000181682 -4.26841e-06
0.000181682 7.64061e-05 -2.91592e-07
-4.26841e-06 -2.91592e-07 8.34129e-05
0.00221634 0.000247982 -5.61325e-06
0.000247982 2.36088e-05 -1.98714e-07
-5.61325e-06 -1.98714e-07 -1.09654e-05
0.00227071 0.000206783 -7.59035e-07
0.000206783 -2.12125e-05 -3.30387e-07
-7.59035e-07 -3.30387e-07 -4.49908e-07
0.00236676 0.000361995 -4.39233e-07
0.000361995 0.000184931 9.16721e-07
-4.39233e-07 9.16721e-07 7.27145e-05
0.00229733 0.000346484 -1.38374e-07
0.000346484 4.04246e-05 -1.78328e-07
-1.38374e-07 -1.78328e-07 -2.18776e-06
0.00239367 0.000305977 6.61045e-08
0.000305977 2.6354e-05 -4.66277e-07
6.61045e-08 -4.66277e-07 3.32043e-05
0.0015949 0.000305995 -3.07619e-06
0.000305995 1.6056e-05 1.78902e-07
-3.07619e-06 1.78902e-07 -0.000165566
0.00225666 0.000446321 1.32338e-06
0.000446321 0.000123556 2.91339e-07
1.32338e-06 2.91339e-07 -2.79015e-05
0.00231711 0.000464552 3.24098e-06
0.000464552 7.66974e-05 -1.03982e-07
3.24098e-06 -1.03982e-07 -8.01108e-06
0.000343067 0.000148118 -1.59438e-05
0.000148118 -0.000287348 -8.81846e-06
-1.59438e-05 -8.81846e-06 -0.000431422
0.00165898 0.000375119 2.28851e-06
0.000375119 7.6604e-05 1.27533e-06
2.28851e-06 1.27533e-06 -0.000136163
0.00226249 0.000550091 -1.9734e-06
0.000550091 0.000147747 -2.98003e-06
-1.9734e-06 -2.98003e-06 -5.59181e-05
0.00780998 0.000360424 -0.000407485
0.000360424 0.00482274 -5.51464e-05
-0.000407485 -5.51464e-05 0.00482502
0.00035463 0.000203681 5.3593e-07
0.000203681 -0.000289288 5.43262e-07
5.3593e-07 5.43262e-07 -0.000456246
0.00159813 0.000431444 1.62819e-05
0.000431444 4.94876e-05 1.12627e-06
1.62819e-05 1.12627e-06 -0.000200864
0.00830418 0.000367423 1.13896e-05
0.000367423 0.00513921 5.79372e-06
1.13896e-05 5.79372e-06 0.00513789
0.000304631 0.00026574 1.97679e-05
0.00026574 -0.000323705 1.70236e-05
1.97679e-05 1.70236e-05 -0.000521215
0.00880604 0.000275749 0.000428122
0.000275749 0.00542952 5.30428e-05
0.000428122 5.30428e-05 0.00544809
0.00218568 9.2547e-05 -6.14933e-06
9.2547e-05 1.60607e-05 -6.07933e-08
-6.14933e-06 -6.07933e-08 1.3242e-06
0.00222282 0.00012374 -7.45904e-07
0.00012374 -1.07271e-05 -3.00547e-07
-7.45904e-07 -3.00547e-07 5.86245e-06
0.0023791 0.000171442 -1.15168e-06
0.000171442 -4.79338e-05 -2.67794e-07
-1.15168e-06 -2.67794e-07 1.69995e-05
0.00207723 2.35375e-06 -6.46113e-07
2.35375e-06 -6.64766e-05 -1.89056e-07
-6.46113e-07 -1.89056e-07 -0.000122195
0.00222701 2.75331e-05 -3.09934e-07
2.75331e-05 3.91242e-05 6.24626e-08
-3.09934e-07 6.24626e-08 3.80428e-05
0.00220395 6.15345e-05 4.85594e-07
6.15345e-05 -5.83692e-05 2.33848e-07
4.85594e-07 2.33848e-07 -1.88369e-05
0.00222491 -5.59177e-05 3.47061e-06
-5.59177e-05 1.0271e-05 1.14697e-07
3.47061e-06 1.14697e-07 2.1649e-05
0.00212354 -7.79461e-05 -1.65232e-06
-7.79461e-05 -3.43125e-05 2.0555e-07
-1.65232e-06 2.0555e-07 -8.76017e-05
0.00150461 -4.57693e-05 -3.12292e-06
-4.57693e-05 -3.39554e-05 1.68552e-07
-3.12292e-06 1.68552e-07 -0.000140557
0.00225649 -0.000178668 1.12423e-06
-0.000178668 6.07964e-05 -9.97157e-07
1.12423e-06 -9.97157e-07 -6.52193e-06
0.0015854 -0.000112624 3.24422e-06
-0.000112624 -2.22294e-06 -3.09327e-07
3.24422e-06 -3.09327e-07 -0.000122179
0.000223607 -2.11553e-05 -1.45439e-05
-2.11553e-05 -0.000337114 2.61982e-06
-1.45439e-05 2.61982e-06 -0.000436822
0.00151148 -0.000166761 4.30372e-06
-0.000166761 -6.64321e-05 -1.12947e-06
4.30372e-06 -1.12947e-06 -0.000206637
0.000255787 -5.52206e-05 4.43052e-07
-5.52206e-05 -0.00032422 -3.82528e-07
4.43052e-07 -3.82528e-07 -0.000429994
0.00697976 -0.000179171 -0.000390439
-0.000179171 0.00427946 2.4322e-05
-0.000390439 2.4322e-05 0.00431063
0.000311606 -8.78209e-05 1.42692e-05
-8.78209e-05 -0.000292115 -5.60345e-06
1.42692e-05 -5.60345e-06 -0.000409366
0.00713189 -0.000126332 6.58106e-06
-0.000126332 0.00436335 3.02453e-07
6.58106e-06 3.02453e-07 0.00440056
0.00216244 -5.60694e-05 0.000297119
-5.60694e-05 0.00107618 -2.38469e-05
0.000297119 -2.38469e-05 0.0010701
0.00223374 0.00017392 -7.86013e-06
0.00017392 6.38016e-05 -6.50062e-07
-7.86013e-06 -6.50062e-07 3.49636e-05
0.00220786 0.000182459 -6.44283e-07
0.000182459 -7.08276e-06 7.39575e-08
-6.44283e-07 7.39575e-08 8.33553e-06
0.00236788 0.000267677 8.72938e-07
0.000267677 0.000165905 6.43409e-07
8.72938e-07 6.43409e-07 8.01849e-05
0.00225084 0.000248886 6.48735e-07
0.000248886 4.4054e-05 2.28115e-08
6.48735e-07 2.28115e-08 9.28295e-06
0.0022598 0.000197319 1.63815e-07
0.000197319 -2.24384e-05 -3.6851e-07
1.63815e-07 -3.6851e-07 -7.64201e-07
0.00150113 0.000230137 -9.1581e-07
0.000230137 -4.11563e-05 -3.54049e-07
-9.1581e-07 -3.54049e-07 -0.000210406
0.00232663 0.000361019 4.40256e-07
0.000361019 0.000149549 -7.14819e-08
4.40256e-07 -7.14819e-08 3.70377e-05
0.00233429 0.000343492 4.00437e-06
0.000343492 6.77499e-05 2.75628e-07
4.00437e-06 2.75628e-07 2.4032e-05
0.000330267 0.00011068 -1.47949e-05
0.00011068 -0.000284894 -6.47778e-06
-1.47949e-05 -6.47778e-06 -0.000414863
0.00156289 0.00030094 3.19287e-06
0.00030094 6.33368e-06 1.09622e-06
3.19287e-06 1.09622e-06 -0.000181163
0.00223695 0.000445293 -7.8502e-08
0.000445293 0.000119429 -1.2586e-06
-7.8502e-08 -1.2586e-06 -4.30905e-05
0.00750331 0.000338262 -0.000415348
0.000338262 0.00463675 -4.89692e-05
-0.000415348 -4.89692e-05 0.00464292
0.000353975 0.000155568 5.28883e-07
0.000155568 -0.000283372 2.5161e-07
5.28883e-07 2.5161e-07 -0.000430456
0.00161214 0.000366018 9.28253e-06
0.000366018 5.2104e-05 2.13833e-06
9.28253e-06 2.13833e-06 -0.000157392
0.00795025 0.000389944 8.40695e-06
0.000389944 0.00492538 5.99061e-06
8.40695e-06 5.99061e-06 0.00492228
0.000340929 0.000207369 1.68159e-05
0.000207369 -0.00030344 1.28901e-05
1.68159e-05 1.28901e-05 -0.000473491
0.0084538 0.000384477 0.000435382
0.000384477 0.00523344 6.35334e-05
0.000435382 6.35334e-05 0.00523566
0.0020496 9.002e-05 1.03454e-06
9.002e-05 -7.31904e-05 -4.04411e-07
1.03454e-06 -4.04411e-07 -0.000138579
0.00223241 9.3196e-05 -2.16678e-06
9.3196e-05 5.469e-05 -2.59665e-08
-2.16678e-06 -2.59665e-08 3.87559e-05
0.00224986 0.000131975 2.66623e-06
0.000131975 1.58834e-05 -7.75277e-08
2.66623e-06 -7.75277e-08 3.28581e-05
0.00148809 -3.2112e-06 -1.82401e-06
-3.2112e-06 -2.78588e-05 1.2728e-07
-1.82401e-06 1.2728e-07 -0.000134899
0.0021104 4.39791e-06 -1.64094e-06
4.39791e-06 -3.57264e-05 3.6685e-08
-1.64094e-06 3.6685e-08 -9.10202e-05
0.0022123 2.98735e-05 4.01695e-06
2.98735e-05 2.4302e-05 3.246e-07
4.01695e-06 3.246e-07 2.70559e-05
0.00216881 -7.70751e-05 -1.89505e-06
-7.70751e-05 3.22795e-06 2.60607e-07
-1.89505e-06 2.60607e-07 -4.82483e-05
0.00158689 -4.92827e-05 2.55551e-06
-4.92827e-05 1.62492e-05 -1.12195e-07
2.55551e-06 -1.12195e-07 -8.93716e-05
0.000239663 -3.39411e-05 -1.52692e-05
-3.39411e-05 -0.000318768 1.73447e-06
-1.52692e-05 1.73447e-06 -0.000413698
0.00152306 -0.0001133 7.57494e-06
-0.0001133 -5.23546e-05 -1.35552e-06
7.57494e-06 -1.35552e-06 -0.000179213
0.000237465 -1.01692e-05 -5.51487e-08
-1.01692e-05 -0.000327661 5.477e-08
-5.51487e-08 5.477e-08 -0.000425625
0.00687232 -0.000144156 -0.000389807
-0.000144156 0.0042075 1.86239e-05
-0.000389807 1.86239e-05 0.00424322
0.000286362 -6.0882e-05 1.51055e-05
-6.0882e-05 -0.000297579 -4.04595e-06
1.51055e-05 -4.04595e-06 -0.000403502
0.00697064 -7.9392e-05 -2.64656e-06
-7.9392e-05 0.00425853 3.82358e-06
-2.64656e-06 3.82358e-06 0.00429911
0.0070936 -0.000139507 0.000389704
-0.000139507 0.00434156 -2.23013e-05
0.000389704 -2.23013e-05 0.00437832
0.002298 0.000175236 1.67863e-06
0.000175236 0.000115888 -2.97699e-07
1.67863e-06 -2.97699e-07 4.65734e-05
0.00218696 0.000175298 -8.0247e-07
0.000175298 1.90636e-05 5.40571e-08
-8.0247e-07 5.40571e-08 -5.30887e-06
0.00210246 0.00018339 2.74234e-06
0.00018339 -9.24066e-05 2.92762e-07
2.74234e-06 2.92762e-07 -6.86542e-05
0.00145841 0.0001577 4.64894e-08
0.0001577 -6.42493e-05 -4.94353e-08
4.64894e-08 -4.94353e-08 -0.0002132
0.0023263 0.000265255 2.7112e-07
0.000265255 0.000132268 -5.11675e-08
2.7112e-07 -5.11675e-08 4.65935e-05
0.00228515 0.000249916 5.11327e-06
0.000249916 6.48883e-05 -1.12385e-08
5.11327e-06 -1.12385e-08 2.97173e-05
0.000306445 7.6993e-05 -1.39272e-05
7.6993e-05 -0.000287979 -4.74869e-06
-1.39272e-05 -4.74869e-06 -0.000406001
0.0015354 0.000231503 7.77323e-08
0.000231503 -4.5157e-06 2.20836e-07
7.77323e-08 2.20836e-07 -0.000174745
0.00228493 0.000359856 5.70267e-07
0.000359856 0.000113566 -1.19841e-06
5.70267e-07 -1.19841e-06 7.33312e-07
0.00724512 0.000273793 -0.000417597
0.000273793 0.00446591 -3.92594e-05
-0.000417597 -3.92594e-05 0.00448451
0.00033979 0.000119593 5.54329e-07
0.000119593 -0.000280797 2.24497e-07
5.54329e-07 2.24497e-07 -0.000413694
0.00151001 0.000294149 4.9359e-06
0.000294149 -1.81023e-05 1.79948e-06
4.9359e-06 1.79948e-06 -0.000211066
0.00762101 0.000358827 4.8865e-06
0.000358827 0.00471744 3.76038e-06
4.8865e-06 3.76038e-06 0.00472125
0.000362089 0.000164266 1.5456e-05
0.000164266 -0.00027985 9.69837e-06
1.5456e-05 9.69837e-06 -0.000430548
0.00809404 0.000432429 0.000438367
0.000432429 0.00503316 6.75598e-05
0.000438367 6.75598e-05 0.00502331
0.00139043 5.07808e-05 -2.479e-06
5.07808e-05 -8.43814e-05 1.29939e-07
-2.479e-06 1.29939e-07 -0.000211054
0.00214791 8.75278e-05 -2.84073e-06
8.75278e-05 -3.83077e-06 -2.61665e-07
-2.84073e-06 -2.61665e-07 -6.05352e-05
0.00228096 9.4295e-05 4.96599e-06
9.4295e-05 9.3777e-05 3.3974e-07
4.96599e-06 3.3974e-07 7.70735e-05
0.000277297 3.26973e-05 -1.60085e-05
3.26973e-05 -0.000295988 -4.04362e-07
-1.60085e-05 -4.04362e-07 -0.000383255
0.0015603 -1.41341e-07 2.7402e-06
-1.41341e-07 1.60151e-05 4.26023e-08
2.7402e-06 4.26023e-08 -9.00551e-05
0.00214484 8.16515e-06 -3.01742e-06
8.16515e-06 -4.6148e-06 1.97187e-07
-3.01742e-06 1.97187e-07 -5.93111e-05
0.00166253 -5.22889e-05 9.30465e-06
-5.22889e-05 6.22128e-05 -8.91746e-07
9.30465e-06 -8.91746e-07 -4.23191e-05
0.000242453 -8.62829e-06 1.69266e-07
-8.62829e-06 -0.000315697 3.9137e-07
1.69266e-07 3.9137e-07 -0.000410381
0.00675987 -4.27927e-06 -0.000390827
-4.27927e-06 0.00412381 4.63726e-06
-0.000390827 4.63726e-06 0.00416889
0.000237022 1.29005e-06 1.49008e-05
1.29005e-06 -0.000327761 -1.6965e-06
1.49008e-05 -1.6965e-06 -0.000423903
0.00681869 -0.000140973 -6.99034e-06
-0.000140973 0.00417484 2.39254e-06
-6.99034e-06 2.39254e-06 0.00420991
0.0068984 -6.29292e-05 0.000375556
-6.29292e-05 0.00421143 -1.33317e-05
0.000375556 -1.33317e-05 0.00425231
0.00145188 9.94498e-05 -1.39898e-06
9.94498e-05 -4.8943e-05 -2.31113e-07
-1.39898e-06 -2.31113e-07 -0.000183942
0.00224817 0.000170039 -2.62278e-07
0.000170039 7.44797e-05 -3.20331e-07
-2.62278e-07 -3.20331e-07 8.62924e-06
0.00213906 0.000176329 3.3652e-06
0.000176329 -2.57286e-05 -1.90651e-07
3.3652e-06 -1.90651e-07 -4.5822e-05
0.00276594 8.94492e-05 -0.000170605
8.94492e-05 0.00133935 -7.63449e-06
-0.000170605 -7.63449e-06 0.00127968
0.00149983 0.000159613 -3.32983e-08
0.000159613 -2.3804e-05 1.10283e-07
-3.32983e-08 1.10283e-07 -0.000173489
0.00228243 0.00026243 6.41575e-08
0.00026243 9.77885e-05 -6.93519e-07
6.41575e-08 -6.93519e-07 1.22624e-05
0.0070588 0.000203352 -0.0004139
0.000203352 0.00433658 -2.87076e-05
-0.0004139 -2.87076e-05 0.0043672
0.00032083 9.6854e-05 7.07155e-07
9.6854e-05 -0.000278907 4.76403e-07
7.07155e-07 4.76403e-07 -0.000400096
0.00156989 0.000232358 1.28015e-06
0.000232358 3.22654e-05 5.65476e-07
1.28015e-06 5.65476e-07 -0.000138913
0.00735937 0.000291336 2.20443e-06
0.000291336 0.00454091 2.01419e-06
2.20443e-06 2.01419e-06 0.00455774
0.000359014 0.000130703 1.52243e-05
0.000130703 -0.000269438 7.65992e-06
1.52243e-05 7.65992e-06 -0.000405881
0.0077441 0.00039455 0.000435505
0.00039455 0.00481027 6.16055e-05
0.000435505 6.16055e-05 0.0048081
0.000376448 1.97706e-05 -1.21787e-05
1.97706e-05 -0.00021893 -1.52674e-06
-1.21787e-05 -1.52674e-06 -0.00031617
0.00147459 5.10345e-05 -9.25579e-07
5.10345e-05 -2.8567e-05 -2.5664e-08
-9.25579e-07 -2.5664e-08 -0.000147913
0.00222294 8.36278e-05 -2.69117e-06
8.36278e-05 4.83827e-05 2.40547e-07
-2.69117e-06 2.40547e-07 -8.23255e-08
0.00663621 -0.000102393 -0.000374871
-0.000102393 0.00406074 6.7863e-06
-0.000374871 6.7863e-06 0.0040954
0.000237817 1.3479e-05 -7.27079e-07
1.3479e-05 -0.00031731 -2.73391e-07
-7.27079e-07 -2.73391e-07 -0.000407167
0.00163595 1.47485e-06 8.27392e-06
1.47485e-06 6.20298e-05 -4.37156e-07
8.27392e-06 -4.37156e-07 -4.30891e-05
0.000226576 1.61687e-05 1.5208e-05
1.61687e-05 -0.000326767 -3.44748e-07
1.5208e-05 -3.44748e-07 -0.000420083
0.00670548 -3.67256e-05 1.608e-06
-3.67256e-05 0.0040957 -2.11223e-06
1.608e-06 -2.11223e-06 0.00413519
0.00678786 -6.98646e-05 0.000378641
-6.98646e-05 0.00414123 -1.00096e-05
0.000378641 -1.00096e-05 0.00418283
0.00286758 3.58831e-05 -0.00016542
3.58831e-05 0.00141006 -4.02012e-06
-0.00016542 -4.02012e-06 0.00135778
0.00145973 0.000102191 -1.59409e-07
0.000102191 -3.92966e-05 -4.43347e-08
-1.59409e-07 -4.43347e-08 -0.000174995
0.00220023 0.000165108 -5.59938e-07
0.000165108 3.36811e-05 -5.32546e-07
-5.59938e-07 -5.32546e-07 -2.86369e-05
0.00661454 7.56001e-06 -0.000183505
7.56001e-06 0.00405677 -2.00732e-06
-0.000183505 -2.00732e-06 0.00404844
0.000288255 7.6868e-05 5.70649e-07
7.6868e-05 -0.000289824 2.21525e-07
5.70649e-07 2.21525e-07 -0.000399312
0.00154406 0.000162634 5.12478e-07
0.000162634 1.64232e-05 3.87948e-08
5.12478e-07 3.87948e-08 -0.000134125
0.00712546 0.000181443 -7.52776e-06
0.000181443 0.0043725 -1.70147e-06
-7.52776e-06 -1.70147e-06 0.00440448
0.000332582 0.00011813 1.61044e-05
0.00011813 -0.0002727 6.47735e-06
1.61044e-05 6.47735e-06 -0.000396335
0.00743893 0.00031258 0.000430068
0.00031258 0.00459666 4.97018e-05
0.000430068 4.97018e-05 0.00461198
0.00207888 -4.77133e-05 -0.000288396
-4.77133e-05 0.0010242 1.87646e-06
-0.000288396 1.87646e-06 0.0010324
0.00150575 4.16253e-05 -7.39715e-05
4.16253e-05 0.000516033 -3.90779e-07
-7.39715e-05 -3.90779e-07 0.000446904
0.0015751 5.3961e-05 4.50815e-06
5.3961e-05 3.98771e-05 1.62317e-08
4.50815e-06 1.62317e-08 -7.19922e-05
0.00669127 -4.88709e-05 6.45396e-06
-4.88709e-05 0.00409015 3.71596e-06
6.45396e-06 3.71596e-06 0.00413085
0.000243439 -3.84431e-06 1.58113e-05
-3.84431e-06 -0.000306707 2.31771e-07
1.58113e-05 2.31771e-07 -0.000400212
0.00671768 -9.47438e-05 0.00039101
-9.47438e-05 0.00410928 -8.11596e-06
0.00039101 -8.11596e-06 0.00414829
0.00165255 3.30665e-05 -8.55543e-05
3.30665e-05 0.000780438 -2.26028e-06
-8.55543e-05 -2.26028e-06 0.000733575
0.00151167 3.69013e-05 -7.47048e-05
3.69013e-05 0.000517386 -2.37849e-06
-7.47048e-05 -2.37849e-06 0.000441537
0.00147087 0.000103187 1.64717e-06
0.000103187 -2.63448e-05 -6.98764e-08
1.64717e-06 -6.98764e-08 -0.000162627
0.00434372 9.25712e-05 0.000147552
9.25712e-05 0.00254188 5.80973e-06
0.000147552 5.80973e-06 0.00253728
0.000264865 8.80478e-05 1.61783e-05
8.80478e-05 -0.000308144 4.9914e-06
1.61783e-05 4.9914e-06 -0.00041824
0.00719194 0.000169599 0.000408636
0.000169599 0.00440663 3.0925e-05
0.000408636 3.0925e-05 0.00444243
0.00668499 -7.71954e-06 -7.85586e-06
-7.71954e-06 0.00409112 -4.18265e-06
-7.85586e-06 -4.18265e-06 0.00412967
0.000244728 5.76872e-05 1.76346e-05
5.76872e-05 -0.000316354 2.37505e-06
1.76346e-05 2.37505e-06 -0.000405057
0.00662396 3.35311e-05 0.000381521
3.35311e-05 0.0040418 6.24443e-07
0.000381521 6.24443e-07 0.00408576
0.00425303 5.26475e-05 0.000157818
5.26475e-05 0.00248354 7.54557e-06
0.000157818 7.54557e-06 0.00248337
0.000270894 2.55399e-05 1.56471e-05
2.55399e-05 -0.000298601 2.61674e-06
1.56471e-05 2.61674e-06 -0.000398009
0.00695432 3.94469e-05 0.000392913
3.94469e-05 0.00424852 1.54432e-05
0.000392913 1.54432e-05 0.00428963
0.00671234 -9.72611e-05 0.000381847
-9.72611e-05 0.0041103 -3.84147e-06
0.000381847 -3.84147e-06 0.00414596
0.00675094 3.93042e-05 0.000384954
3.93042e-05 0.00411658 9.98448e-06
0.000384954 9.98448e-06 0.00416087
