# vtk DataFile Version 2.0
Wound Healing Simulation
ASCII
DATASET UNSTRUCTURED_GRID
POINTS 3012 float
69.9759 18.75 4
67.2507 60.3285 4
69.976 18.75 2
73.0099 25.446 4
71.1327 20.9142 4
68.6801 16.6661 4
67.8225 19.9264 3.97571
67.2507 60.3286 2
71.1327 54.0858 4
68.6801 58.3339 4
65.6939 62.2254 4
65.3095 58.9996 3.97484
74.6784 42.3946 4
73.7221 47.2057 4
69.9759 18.75 0
73.0099 25.446 2
68.6801 16.6661 2
71.1327 20.9142 2
67.8232 19.93 2
74.6792 32.6053 4
73.7222 27.7943 4
72.1454 23.1494 4
70.6119 26.2216 3.97554
68.8829 21.9581 3.97608
67.2507 14.6715 4
66.6339 17.9731 3.97447
65.7884 21.0289 3.9643
67.2507 60.3285 0
71.1327 54.0858 2
68.6801 58.3339 2
65.694 62.2255 2
65.3106 58.9948 2
72.1454 51.8506 4
69.9759 56.25 4
68.8335 53.1134 3.9755
64.0165 64.0165 4
66.6078 57.1327 3.97528
63.8826 60.7636 3.97447
63.4932 57.7643 3.96592
60.3285 67.2507 4
74.6792 42.3947 2
73.7222 47.2057 2
74.9194 39.9526 4
74.2788 44.8158 4
72.1666 42.0857 3.97685
73.0099 49.554 4
71.2471 46.598 3.97538
73.0099 25.446 0
71.1327 20.9142 0
68.6801 16.6661 0
67.8225 19.9264 0.0242931
74.6792 32.6053 2
73.7222 27.7943 2
67.2508 14.6715 2
72.1455 23.1494 2
70.6116 26.2222 2
66.6349 17.9776 2
68.8831 21.9605 2
65.7859 21.0306 2
74.9197 35.0474 4
74.2794 30.1841 4
72.1833 32.9442 3.97709
71.2763 28.4322 3.97576
69.813 24.0598 3.97592
68.3404 26.9544 3.96459
66.7541 22.9362 3.96418
65.694 12.7746 4
65.3202 16.1056 3.97327
64.7052 19.2005 3.96455
63.8068 22.0668 3.96439
71.1327 54.0858 0
65.6939 62.2254 0
68.6801 58.3339 0
65.3095 58.9996 0.0251611
72.1455 51.8506 2
69.9759 56.25 2
68.8336 53.1109 2
64.0165 64.0165 2
66.6086 57.1284 2
63.8842 60.7583 2
63.4916 57.764 2
62.2254 65.694 4
58.8919 65.413 3.98388
69.7662 50.9892 3.97523
67.7807 55.1671 3.97564
66.6391 52.2069 3.9643
62.3327 62.4244 3.97752
64.6527 56.0271 3.96536
62.1961 59.3918 3.96591
61.7783 56.6553 3.96195
58.3339 68.6801 4
60.3285 67.2508 2
73.7221 47.2057 0
74.6784 42.3946 0
74.9197 39.9526 2
74.2794 44.8159 2
72.1659 42.0854 2
73.0099 49.554 2
71.2467 46.5976 2
75 37.5 4
72.404 39.8025 3.97779
71.7807 44.3529 3.97648
69.7991 41.7899 3.96709
70.5727 48.8136 3.97496
68.906 46.0141 3.96553
74.6792 32.6053 0
73.7222 27.7943 0
67.2507 14.6715 0
72.1454 23.1494 0
70.6119 26.2216 0.0244645
68.8829 21.9581 0.0239196
66.6339 17.9731 0.0255268
65.7884 21.0289 0.0357037
74.9197 35.0474 2
74.2794 30.1841 2
72.1826 32.9446 2
71.2759 28.4327 2
65.694 12.7745 2
65.3216 16.1109 2
69.8129 24.0611 2
68.3401 26.9555 2
64.7032 19.2016 2
66.7538 22.9376 2
63.806 22.0675 2
72.4118 35.2249 3.97784
71.8022 30.6772 3.97674
69.8353 33.271 3.967
68.9604 29.0412 3.96541
67.6044 24.9147 3.96429
66.0993 27.6593 3.96809
64.0165 10.9835 4
64.6675 23.8599 3.96573
63.8861 14.3303 3.97395
63.5044 17.4566 3.96524
62.8324 20.3542 3.96251
61.926 23.0063 3.96823
60.6811 11.1015 3.97882
57.6061 11.4723 3.96975
72.1454 51.8506 0
69.9759 56.25 0
68.8335 53.1134 0.0244986
64.0165 64.0165 0
63.8826 60.7636 0.0255328
66.6078 57.1327 0.0247196
63.4932 57.7643 0.0340766
62.2255 65.694 2
58.8941 65.4095 2
69.7659 50.9878 2
67.7812 55.1637 2
66.6382 52.2057 2
62.3352 62.4199 2
64.6514 56.0265 2
62.1937 59.3915 2
61.7786 56.6556 2
60.6661 63.9737 3.98014
57.023 66.7339 3.98719
57.553 63.6765 3.9714
67.4972 50.1747 3.96438
65.6937 54.1706 3.96458
64.4346 51.3553 3.96586
60.7676 60.9184 3.96866
62.7547 55.0407 3.9635
60.6292 58.1318 3.96081
60.2305 55.7366 3.96461
56.25 69.9759 4
58.3339 68.6801 2
60.3285 67.2507 0
58.9184 9.65922 3.98023
62.2254 9.30607 4
73.0099 49.554 0
74.2788 44.8158 0
71.2471 46.598 0.02462
72.1666 42.0857 0.0231453
74.9194 39.9526 0
75 37.5 2
72.4038 39.8024 2
71.7805 44.3523 2
69.7984 41.7896 2
70.5722 48.813 2
68.9056 46.0134 2
72.4874 37.5126 3.97742
70.0367 39.6582 3.96747
69.4249 43.9072 3.96647
67.5041 41.4895 3.97181
68.2575 48.1057 3.96481
66.5997 45.4204 3.97005
74.9197 35.0474 0
74.2794 30.1841 0
72.1833 32.9442 0.0229121
71.2763 28.4322 0.0242445
65.694 12.7746 0
65.3202 16.1056 0.026725
69.813 24.0598 0.024083
68.3404 26.9544 0.0354076
66.7541 22.9362 0.0358162
64.7052 19.2005 0.0354483
63.8068 22.0668 0.0356063
72.4117 35.2249 2
71.8021 30.6778 2
69.8345 33.2716 2
68.9601 29.0421 2
64.0165 10.9835 2
63.8882 14.3356 2
63.503 17.4577 2
67.604 24.916 2
66.0985 27.6601 2
62.8318 20.3548 2
64.6671 23.8607 2
61.9249 23.0073 2
60.6837 11.1056 2
57.6071 11.4649 2
70.0535 35.394 3.96747
69.462 31.1524 3.96616
67.5703 33.6024 3.97107
66.6756 29.6439 3.96887
65.4299 25.7269 3.96686
63.9382 28.3052 3.97462
62.3381 12.6588 3.97675
62.6727 24.6974 3.97047
62.1909 15.8005 3.96631
61.7538 18.7201 3.96112
61.0618 21.4087 3.96537
60.1755 23.8203 3.97226
59.2398 12.8092 3.96758
55.869 10.2542 3.97308
56.3941 13.1696 3.96876
69.7662 50.9892 0.0247721
62.2254 65.694 0
58.8919 65.413 0.0161162
67.7807 55.1671 0.0243618
66.6391 52.2069 0.035695
62.3327 62.4244 0.0224777
62.1961 59.3918 0.0340928
64.6527 56.0271 0.0346355
61.7783 56.6553 0.0380528
60.6684 63.9707 2
57.0254 66.7322 2
57.5541 63.6802 2
67.4977 50.1738 2
65.6917 54.1695 2
64.4346 51.3548 2
60.7665 60.9201 2
62.7549 55.0409 2
60.6331 58.1335 2
60.2296 55.7366 2
55.0688 67.9312 3.9883
59.2132 62.3377 3.96927
55.8014 64.9019 3.9758
56.3164 62.0455 3.97012
65.2185 49.3798 3.96718
63.6179 53.2628 3.96449
62.2283 50.5919 3.96952
59.3182 59.5273 3.96275
60.9362 54.2547 3.96688
59.2031 56.9594 3.96185
59.0976 55.1176 3.9676
48.0999 68.5747 3.98453
50.9466 69.9313 3.99003
54.0858 71.1327 4
56.25 69.976 2
58.3339 68.6801 0
57.0557 8.33858 3.98227
60.3285 7.74928 4
58.9212 9.66342 2
62.2255 9.30602 2
70.5727 48.8136 0.0250396
71.7807 44.3529 0.0235167
68.906 46.0141 0.0344691
69.7991 41.7899 0.0329136
72.404 39.8025 0.022211
75 37.5 0
72.4867 37.5125 2
70.0364 39.6582 2
69.4246 43.9068 2
67.5025 41.4893 2
68.2585 48.105 2
66.5972 45.4199 2
70.1248 37.523 3.96751
67.7499 39.5096 3.97221
67.1188 43.4561 3.97073
65.3367 41.1896 3.97685
65.9535 47.3933 3.96882
64.4106 44.807 3.97543
72.4118 35.2249 0.0221592
71.8022 30.6772 0.0232624
69.8353 33.271 0.0329999
68.9604 29.0412 0.0345884
64.0165 10.9835 0
63.8861 14.3303 0.0260455
63.5044 17.4566 0.0347634
67.6044 24.9147 0.0357057
66.0993 27.6593 0.0319101
64.6675 23.8599 0.0342744
62.8324 20.3542 0.0374898
61.926 23.0063 0.031767
60.6811 11.1015 0.0211811
57.6061 11.4723 0.0302538
70.0533 35.3944 2
69.4617 31.1531 2
67.5688 33.6027 2
66.6741 29.6446 2
62.3406 12.6637 2
62.1892 15.8014 2
61.7537 18.7201 2
65.4292 25.7278 2
63.936 28.3064 2
61.0606 21.4096 2
62.6715 24.6984 2
60.1743 23.8214 2
59.2404 12.8091 2
56.3956 13.1668 2
55.871 10.2522 2
67.7888 35.5543 3.97176
67.1766 31.6387 3.96997
65.4929 33.9495 3.97701
64.4517 30.2343 3.97588
63.3398 26.4701 3.97261
61.945 28.8554 3.97621
60.7684 14.2461 3.9675
60.7719 25.4269 3.97476
60.5761 17.1637 3.96075
60.0778 19.8877 3.9621
59.4214 22.3571 3.96802
58.6603 24.4399 3.97451
54.0342 9.14715 3.97355
57.8974 14.3765 3.96619
54.7763 12.0646 3.96896
55.2941 14.715 3.9664
67.4972 50.1747 0.0356168
57.023 66.7339 0.0128144
60.6661 63.9737 0.019857
57.553 63.6765 0.0286006
65.6937 54.1706 0.0354183
64.4346 51.3553 0.034142
60.7676 60.9184 0.0313402
60.6292 58.1318 0.0391856
62.7547 55.0407 0.0364988
60.2305 55.7366 0.0353872
55.0708 67.9297 2
59.2133 62.3398 2
55.8018 64.901 2
56.3151 62.0457 2
65.218 49.3792 2
63.6176 53.2625 2
62.228 50.5914 2
59.3182 59.5297 2
60.9366 54.2547 2
59.2082 56.9607 2
59.1011 55.118 2
53.0409 68.9993 3.98976
53.9636 66.0054 3.97883
57.868 60.8335 3.96892
54.6751 63.1803 3.97102
55.1935 60.5636 3.9719
62.9649 48.6047 3.97168
61.5613 52.5165 3.96819
59.9572 49.9306 3.97202
57.974 58.2175 3.96146
59.1296 53.872 3.969
57.9585 55.7355 3.96301
50.1065 67.8527 3.98367
47.4608 66.5716 3.9796
46.0538 69.1539 3.98532
48.1005 68.5749 2
48.8005 70.7226 3.99047
50.9481 69.9306 2
51.8506 72.1454 4
54.0858 71.1327 2
56.25 69.9759 0
55.1008 7.14292 3.98588
58.3339 6.31992 4
57.0589 8.342 2
60.3286 7.74926 2
58.9184 9.65922 0.0197651
62.2254 9.30607 0
68.2575 48.1057 0.0351865
69.4249 43.9072 0.0335341
66.5997 45.4204 0.0299529
67.5041 41.4895 0.0281941
70.0367 39.6582 0.0325345
72.4874 37.5126 0.0225831
70.1241 37.5232 2
67.7479 39.5095 2
67.1179 43.4558 2
65.3337 41.1889 2
65.9535 47.3929 2
64.4085 44.8061 2
67.8506 37.5241 3.97217
65.5758 39.3617 3.97674
64.9512 42.9943 3.97677
63.4366 40.9019 3.97669
63.7212 46.6663 3.97365
62.4575 44.1525 3.9765
70.0535 35.394 0.0325341
69.462 31.1524 0.0338392
67.5703 33.6024 0.0289318
66.6756 29.6439 0.0311315
62.3381 12.6588 0.0232549
62.1909 15.8005 0.0336906
61.7538 18.7201 0.0388829
65.4299 25.7269 0.0331369
63.9382 28.3052 0.0253793
62.6727 24.6974 0.0295308
61.0618 21.4087 0.0346299
60.1755 23.8203 0.0277371
59.2398 12.8092 0.0324162
56.3941 13.1696 0.0312443
55.869 10.2542 0.0269161
67.7866 35.5545 2
67.176 31.6392 2
65.4893 33.9504 2
64.4491 30.2354 2
60.7681 14.2468 2
60.5751 17.1634 2
60.0763 19.8885 2
63.3379 26.4712 2
61.9426 28.8563 2
59.4232 22.3577 2
60.7701 25.4281 2
58.6596 24.4411 2
57.8963 14.3767 2
55.2949 14.7124 2
54.0363 9.14724 2
54.7771 12.0601 2
65.6743 35.6796 3.97684
64.9712 32.187 3.97676
64.0012 34.278 3.97674
62.2618 30.6995 3.97628
61.3552 27.1568 3.97581
60.4677 29.2344 3.97639
59.2929 15.7066 3.96144
58.9762 25.9172 3.9762
59.0244 18.4235 3.96064
58.5247 20.9562 3.96353
57.9794 23.2179 3.96954
57.6173 24.8021 3.97518
52.1095 8.16249 3.97722
53.0495 11.0525 3.97038
56.6512 15.8037 3.96165
53.7902 13.7534 3.96529
54.3379 16.0817 3.96103
55.0688 67.9312 0.0117006
65.2185 49.3798 0.0328225
55.8014 64.9019 0.0242035
59.2132 62.3377 0.0307346
56.3164 62.0455 0.0298819
63.6179 53.2628 0.0355105
62.2283 50.5919 0.0304755
59.3182 59.5273 0.037253
59.2031 56.9594 0.0381534
60.9362 54.2547 0.0331242
59.0976 55.1176 0.0323979
53.0427 68.9986 2
53.9645 66.0054 2
57.8666 60.8345 2
54.6747 63.182 2
55.1907 60.5638 2
62.9636 48.6039 2
61.5613 52.5162 2
59.9583 49.9301 2
57.9709 58.2184 2
59.1334 53.8722 2
57.9552 55.7339 2
52.0676 66.9949 3.98222
52.9482 64.2037 3.97576
56.6245 59.4454 3.96718
53.664 61.5705 3.97006
54.2298 59.2684 3.97392
60.6331 47.7936 3.97336
59.4426 52.0198 3.97005
57.6256 49.5008 3.9736
56.6879 56.9229 3.96391
56.8734 54.024 3.96673
50.107 67.8525 2
49.3344 65.912 3.97951
47.461 66.5717 2
46.8889 64.7214 3.97848
45.5562 67.0889 3.98001
43.9714 69.586 3.98626
46.0545 69.1541 2
46.6069 71.367 3.99085
48.0999 68.5747 0.0154728
48.8019 70.7223 2
49.554 73.0099 4
50.9466 69.9313 0.0099749
51.8506 72.1455 2
54.0858 71.1327 0
53.063 6.07316 3.98885
55.1039 7.14429 2
56.25 5.02411 4
58.3339 6.3199 2
57.0557 8.33858 0.0177302
60.3285 7.74928 0
65.9535 47.3933 0.0311811
67.1188 43.4561 0.0292693
64.4106 44.807 0.0245661
65.3367 41.1896 0.023147
67.7499 39.5096 0.0277851
70.1248 37.523 0.0324862
67.849 37.5242 2
65.5724 39.3614 2
64.9479 42.9933 2
63.4354 40.9017 2
63.7197 46.6655 2
62.4557 44.1517 2
65.6845 37.5044 3.97673
63.586 39.2546 3.97674
62.9908 42.5072 3.97651
62.036 40.6627 3.9766
61.6017 45.8427 3.97548
61.0149 43.611 3.97624
67.7888 35.5543 0.0282376
67.1766 31.6387 0.0300256
65.4929 33.9495 0.0229915
64.4517 30.2343 0.0241178
60.7684 14.2461 0.0324995
60.5761 17.1637 0.0392516
60.0778 19.8877 0.0378992
63.3398 26.4701 0.0273894
61.945 28.8554 0.0237875
60.7719 25.4269 0.0252355
59.4214 22.3571 0.0319833
58.6603 24.4399 0.0254873
57.8974 14.3765 0.0338098
55.2941 14.715 0.0335985
54.0342 9.14715 0.0264468
54.7763 12.0646 0.0310415
65.6709 35.6799 2
64.9678 32.188 2
63.9993 34.2786 2
62.26 30.6999 2
59.2913 15.7057 2
59.0321 18.4214 2
58.5248 20.957 2
61.3534 27.1579 2
60.4669 29.2349 2
57.9728 23.2206 2
58.9753 25.9185 2
57.6231 24.804 2
56.6492 15.8032 2
54.3418 16.0773 2
53.7898 13.7428 2
52.1114 8.16235 2
53.0505 11.0509 2
63.7952 35.6491 3.97661
62.585 33.0917 3.97641
60.1834 30.7011 3.97611
59.1688 28.0267 3.97615
57.8895 17.0452 3.95975
57.3345 25.8752 3.97611
57.5479 19.5751 3.96007
57.0816 21.9732 3.96382
56.809 24.0987 3.97048
50.1106 7.29173 3.98239
51.2267 10.1457 3.97384
52.1554 12.8536 3.9712
55.486 17.0536 3.95914
52.9452 15.3515 3.96351
53.703 17.0788 3.95899
53.0409 68.9993 0.0102365
53.9636 66.0054 0.02117
62.9649 48.6047 0.0283248
54.6751 63.1803 0.028977
57.868 60.8335 0.0310837
55.1935 60.5636 0.0281025
61.5613 52.5165 0.0318074
59.9572 49.9306 0.027977
57.974 58.2175 0.0385413
57.9585 55.7355 0.036987
59.1296 53.872 0.030999
52.0684 66.9953 2
52.9477 64.2044 2
56.6223 59.446 2
53.6625 61.573 2
54.2272 59.269 2
60.6327 47.7927 2
59.4434 52.0193 2
57.6238 49.4997 2
56.6845 56.926 2
56.8703 54.0225 2
51.1648 65.117 3.97805
52.0341 62.5148 3.9722
55.4313 58.1961 3.96251
52.8017 60.0642 3.969
53.5959 58.4127 3.96725
57.8098 46.7234 3.97588
57.2304 51.677 3.97034
55.7751 49.4174 3.97289
55.3352 55.7101 3.96477
55.0619 53.2719 3.96323
50.1065 67.8527 0.0163349
49.3345 65.9116 2
48.6133 64.1087 3.97865
47.4608 66.5716 0.0203959
45.5565 67.0893 2
46.8894 64.721 2
46.3755 63.0343 3.98233
45.1303 65.182 3.97774
43.6298 67.4606 3.98181
41.8592 69.873 3.98593
43.9719 69.5865 2
44.3743 71.8615 3.99117
46.0538 69.1539 0.0146776
46.6081 71.3668 2
47.2057 73.7222 4
48.8005 70.7226 0.00952713
49.554 73.0099 2
51.8506 72.1454 0
50.9538 5.13381 3.99051
53.0655 6.07417 2
54.0858 3.86728 4
55.1008 7.14292 0.0141172
56.25 5.02406 2
58.3339 6.31992 0
63.7212 46.6663 0.0263503
64.9512 42.9943 0.0232339
62.4575 44.1525 0.0235
63.4366 40.9019 0.0233135
65.5758 39.3617 0.0232572
67.8506 37.5241 0.0278341
65.6809 37.5044 2
63.585 39.2545 2
62.9897 42.5069 2
62.0365 40.6626 2
61.6003 45.8416 2
61.0139 43.6109 2
63.65 37.4585 3.97665
61.7451 39.3352 3.97677
60.7603 41.8999 3.97661
59.7773 44.6692 3.97635
65.6743 35.6796 0.0231581
64.9712 32.187 0.0232362
64.0012 34.278 0.023264
62.2618 30.6995 0.0237208
59.2929 15.7066 0.0385552
59.0244 18.4235 0.0393648
58.5247 20.9562 0.0364746
61.3552 27.1568 0.0241891
60.4677 29.2344 0.023612
58.9762 25.9172 0.0237995
57.9794 23.2179 0.0304612
57.6173 24.8021 0.0248239
56.6512 15.8037 0.0383485
54.3379 16.0817 0.0389746
53.7902 13.7534 0.0347088
52.1095 8.16249 0.0227762
53.0495 11.0525 0.0296156
63.794 35.6491 2
62.5848 33.0922 2
60.1838 30.7013 2
57.8875 17.0452 2
57.5624 19.5709 2
57.0772 21.9757 2
59.1676 28.0276 2
56.8263 24.0998 2
57.3362 25.8786 2
50.1125 7.2899 2
55.4872 17.0515 2
53.7094 17.0696 2
52.9457 15.342 2
52.1564 12.8579 2
51.2282 10.1434 2
61.7878 35.3827 3.97646
59.8052 32.8141 3.97618
58.1086 30.1921 3.97594
56.8174 27.5394 3.97657
56.5438 18.2432 3.96062
55.8616 25.2751 3.97522
56.1418 20.6475 3.96086
55.7567 23.029 3.96396
48.0558 6.53141 3.98657
49.3215 9.345 3.97649
50.421 12.0347 3.97327
51.3486 14.5677 3.96494
54.3289 18.0236 3.95954
52.3134 17.1498 3.95898
52.0676 66.9949 0.0177833
52.9482 64.2037 0.0242444
60.6331 47.7936 0.0266381
53.664 61.5705 0.0299399
56.6245 59.4454 0.0328231
54.2298 59.2684 0.0260775
59.4426 52.0198 0.029953
57.6256 49.5008 0.0264028
56.6879 56.9229 0.0360893
56.8734 54.024 0.0332689
51.1647 65.1175 2
52.0328 62.5161 2
55.4303 58.1965 2
52.8004 60.0682 2
53.5942 58.4149 2
57.8089 46.7224 2
57.2269 51.6756 2
55.7688 49.4154 2
55.3329 55.7099 2
55.0628 53.272 2
50.3392 63.3659 3.97962
51.2204 60.8846 3.97526
54.1456 57.2034 3.96817
52.2495 58.5614 3.97089
56.0433 44.04 3.97659
54.9293 47.7417 3.97471
54.6517 51.2557 3.96585
53.8032 54.4481 3.96575
49.3344 65.912 0.020492
48.6135 64.1076 2
47.9519 62.4567 3.98074
45.5562 67.0889 0.0199905
46.8889 64.7214 0.0215163
43.6299 67.4615 2
46.3758 63.034 2
45.1308 65.1821 2
45.9776 61.564 3.98934
44.7629 63.4321 3.97724
43.3558 65.4935 3.97843
41.6623 67.6791 3.98147
39.7016 70.0188 3.98538
41.8595 69.8735 2
42.1089 72.2059 3.99159
43.9714 69.586 0.0137414
44.3752 71.8615 2
44.8159 74.2794 4
46.6069 71.367 0.00914636
47.2057 73.7222 2
49.554 73.0099 0
48.7851 4.32406 3.99155
50.9556 5.13357 2
51.8506 2.85458 4
53.063 6.07316 0.0111499
54.0858 3.86728 2
56.25 5.02411 0
61.6017 45.8427 0.0245158
62.9908 42.5072 0.0234927
61.0149 43.611 0.0237617
62.036 40.6627 0.0234034
63.586 39.2546 0.0232588
65.6845 37.5044 0.0232707
63.6489 37.4584 2
61.746 39.3354 2
60.7613 41.8999 2
59.7772 44.6686 2
61.5747 37.4447 3.9769
59.7188 39.8098 3.97681
58.406 42.8277 3.97613
63.7952 35.6491 0.0233918
62.585 33.0917 0.0235947
60.1834 30.7011 0.0238889
57.8895 17.0452 0.0402478
57.5479 19.5751 0.0399322
57.0816 21.9732 0.0361843
59.1688 28.0267 0.0238482
57.3345 25.8752 0.0238947
56.809 24.0987 0.0295193
55.486 17.0536 0.0408622
53.703 17.0788 0.0410127
52.9452 15.3515 0.036494
50.1106 7.29173 0.0176075
52.1554 12.8536 0.0288014
51.2267 10.1457 0.0261583
61.7886 35.3828 2
59.8055 32.814 2
58.1097 30.1915 2
56.5464 18.2419 2
56.1596 20.6416 2
55.7639 23.0342 2
56.817 27.5407 2
55.8665 25.2803 2
48.057 6.53038 2
49.3231 9.34341 2
54.3422 18.0213 2
52.3058 17.1401 2
51.346 14.5677 2
50.4227 12.0348 2
59.3551 35.1538 3.97659
57.3835 32.3642 3.97565
55.9752 29.4933 3.97624
54.9197 26.804 3.97567
55.2141 19.298 3.96218
54.5346 24.2453 3.97091
54.7333 21.7141 3.96016
45.9625 5.8855 3.9883
43.3743 7.47888 3.98424
47.3541 8.63224 3.98126
48.5919 11.319 3.97404
49.688 13.7911 3.96961
50.5889 16.2192 3.96314
53.0216 18.789 3.96223
51.2331 18.1991 3.9636
51.1648 65.117 0.0219525
52.0341 62.5148 0.0278025
57.8098 46.7234 0.0241216
52.8017 60.0642 0.0309988
55.4313 58.1961 0.0374927
53.5959 58.4127 0.0327545
57.2304 51.677 0.029664
55.7751 49.4174 0.0271143
55.3352 55.7101 0.0352319
55.0619 53.2719 0.0367711
50.3387 63.3649 2
51.2183 60.8834 2
54.1444 57.2048 2
52.2476 58.5633 2
56.0437 44.0394 2
54.9258 47.7401 2
54.649 51.2544 2
53.8032 54.4497 2
49.5768 61.7275 3.97564
54.7933 41.6347 3.97407
50.5186 59.274 3.96988
52.0673 56.415 3.9682
53.4554 45.3799 3.97413
52.7959 49.1709 3.96969
52.3484 52.7343 3.96043
48.6133 64.1087 0.0213499
47.9512 62.4543 2
47.312 60.988 3.99174
43.6298 67.4606 0.0181942
45.1303 65.182 0.0222575
46.3755 63.0343 0.0176672
41.6627 67.6788 2
43.3564 65.4946 2
45.9763 61.5643 2
44.7635 63.4321 2
45.7467 60.6096 3.98896
44.4769 61.8071 3.97941
43.1441 63.7075 3.9781
41.5455 65.6318 3.97713
39.6319 67.7562 3.9807
37.5259 70.043 3.98427
39.7017 70.019 2
39.8162 72.4025 3.99145
41.8592 69.873 0.0140716
42.1096 72.2062 2
42.3947 74.6792 4
44.3743 71.8615 0.0088273
44.8159 74.2794 2
47.2057 73.7222 0
43.8519 5.36223 3.98759
46.5713 3.64849 3.99201
48.7861 4.32383 2
49.554 1.99015 4
50.9538 5.13381 0.00949041
51.8506 2.85453 2
54.0858 3.86728 0
59.7773 44.6692 0.0236462
60.7603 41.8999 0.0233946
61.7451 39.3352 0.0232333
63.65 37.4585 0.0233512
61.5753 37.4446 2
59.7199 39.8096 2
58.4063 42.8276 2
59.2095 37.5656 3.97726
57.3345 40.5946 3.97718
54.1936 39.6479 3.97528
61.7878 35.3827 0.0235375
59.8052 32.8141 0.0238237
58.1086 30.1921 0.0240561
56.5438 18.2432 0.0393832
56.1418 20.6475 0.0391356
55.7567 23.029 0.0360366
56.8174 27.5394 0.0234344
55.8616 25.2751 0.0247794
54.3289 18.0236 0.0404551
52.3134 17.1498 0.0410166
51.3486 14.5677 0.0350592
48.0558 6.53141 0.013429
49.3215 9.345 0.0235129
50.421 12.0347 0.026734
59.356 35.1534 2
45.9631 5.88398 2
43.3746 7.4769 2
57.3846 32.3646 2
55.9751 29.4927 2
55.205 19.3028 2
54.7626 21.7162 2
54.5327 24.2504 2
54.9173 26.8064 2
47.3555 8.62971 2
48.5937 11.3183 2
53.0325 18.7653 2
51.2397 18.1967 2
50.5862 16.2188 2
49.6873 13.7938 2
56.7101 34.8084 3.97713
55.0388 31.6455 3.97568
53.8936 28.6021 3.977
53.2969 25.7215 3.97488
53.8053 20.267 3.96089
53.2739 22.9035 3.95654
41.4 7.08351 3.98365
45.3601 7.99898 3.98675
42.8665 9.42474 3.97842
46.6639 10.6672 3.97898
47.7246 13.1322 3.97464
48.8934 15.4658 3.9694
49.9378 17.784 3.9593
51.5349 19.4836 3.97156
50.3392 63.3659 0.0203787
51.2204 60.8846 0.0247389
56.0433 44.04 0.0234113
54.9293 47.7417 0.0252914
52.2495 58.5614 0.0291056
54.1456 57.2034 0.0318308
54.6517 51.2557 0.0341522
53.8032 54.4481 0.0342455
49.575 61.7261 2
54.7829 41.6303 2
50.5167 59.2751 2
52.0697 56.4179 2
53.4509 45.3773 2
52.7943 49.1689 2
52.3499 52.7342 2
48.8165 60.1789 3.97706
51.5556 42.502 3.9833
49.7063 57.5706 3.96544
50.3834 54.3431 3.96199
51.1289 47.0863 3.97521
50.7908 50.8097 3.95496
47.2398 43.5674 3.97456
47.9519 62.4567 0.019263
47.3097 60.9857 2
46.5894 59.7796 3.99475
41.6623 67.6791 0.0185322
43.3558 65.4935 0.0215726
44.7629 63.4321 0.0227616
45.9776 61.564 0.0106602
39.6325 67.7569 2
41.5461 65.63 2
45.746 60.6097 2
43.1443 63.7065 2
44.475 61.8087 2
44.6034 60.2652 3.9957
42.9451 62.0591 3.97482
41.5994 63.8012 3.97713
39.6468 65.5957 3.97623
37.5632 67.7366 3.97875
31.698 65.1132 3.97612
33.3929 67.4748 3.97862
35.334 69.9534 3.98447
37.5257 70.0444 2
37.509 72.4567 3.99198
39.7016 70.0188 0.0146175
39.8167 72.4025 2
39.9526 74.9197 4
42.1089 72.2059 0.0084122
42.3947 74.6792 2
44.8159 74.2794 0
41.7366 4.9704 3.98816
43.8522 5.36068 2
44.3268 3.11149 3.99252
46.5719 3.64797 2
47.2057 1.27793 4
48.7851 4.32406 0.00844637
49.554 1.99013 2
51.8506 2.85458 0
58.406 42.8277 0.0238734
59.7188 39.8098 0.0231867
61.5747 37.4447 0.0231021
59.2107 37.5664 2
57.3343 40.5962 2
54.1836 39.6551 2
56.0673 37.8765 3.97678
48.5824 41.2242 3.9722
52.1465 39.2865 3.98268
39.4437 6.80663 3.98463
59.3551 35.1538 0.0234136
57.3835 32.3642 0.024348
55.9752 29.4933 0.0237601
55.2141 19.298 0.0378225
54.7333 21.7141 0.0398369
54.5346 24.2453 0.0290914
54.9197 26.804 0.0243335
53.0216 18.789 0.0377717
51.2331 18.1991 0.0363954
50.5889 16.2192 0.0368589
45.9625 5.8855 0.0117006
49.688 13.7911 0.0303857
47.3541 8.63224 0.0187431
48.5919 11.319 0.0259621
43.3743 7.47888 0.0157627
56.7098 34.8092 2
41.4002 7.08346 2
45.3607 7.99667 2
42.8672 9.42283 2
55.0412 31.6438 2
53.8923 28.6034 2
53.8098 20.2837 2
53.2619 22.9046 2
53.2937 25.7215 2
46.6655 10.663 2
47.7249 13.1294 2
51.5553 19.4844 2
49.9369 17.7855 2
48.8873 15.4766 2
54.0148 34.0078 3.97488
52.7456 30.6977 3.97558
52.0019 27.4526 3.97476
51.7815 24.344 3.97868
52.2002 21.2278 3.97397
41.0134 9.05755 3.97758
44.7261 10.0002 3.98536
42.4617 10.9089 4.00111
45.9871 12.7435 3.9705
47.6491 14.641 3.96709
48.0457 17.0417 3.96575
49.7398 19.8742 3.97666
49.5768 61.7275 0.0243574
50.5186 59.274 0.0301182
54.7933 41.6347 0.0259328
53.4554 45.3799 0.0258652
52.7959 49.1709 0.0303128
52.0673 56.415 0.0317991
52.3484 52.7343 0.0395713
48.8134 60.1767 2
51.5689 42.5144 2
49.7044 57.5707 2
50.3836 54.3447 2
51.1308 47.0844 2
50.7934 50.8094 2
47.2517 43.6006 2
47.9317 58.6986 3.98361
49.2266 45.1068 3.98086
48.4625 55.8578 3.95956
48.8409 52.4959 3.97619
49.1513 48.8884 3.9704
44.9805 39.7853 3.85271
45.4731 42.487 3.89202
45.7422 45.5666 3.98322
42.8104 41.0056 3.67183
41.5488 41.7925 3.473
47.312 60.988 0.00825904
46.5873 59.775 2
45.4273 58.7774 3.99448
39.6319 67.7562 0.0192964
41.5455 65.6318 0.0228673
43.1441 63.7075 0.0218987
44.4769 61.8071 0.0205891
45.7467 60.6096 0.0110428
41.5994 63.7996 2
37.5635 67.7382 2
39.6476 65.5966 2
44.6036 60.2663 2
42.9431 62.0591 2
41.7484 62.466 3.97681
42.4656 59.9524 3.98137
39.8942 63.5323 3.97592
37.6418 65.4914 3.97557
35.4637 67.6462 3.97855
33.576 65.3249 3.97475
31.9604 63.2754 3.97651
29.8859 64.7037 3.98006
31.6976 65.1135 2
31.3779 67.1856 3.97915
33.3925 67.4756 2
33.1577 69.7471 3.9845
35.3335 69.9547 2
35.1958 72.3713 3.992
37.5259 70.043 0.0157258
37.5091 72.4573 2
37.5 75 4
39.8162 72.4025 0.00854827
39.9526 74.9197 2
42.3947 74.6792 0
39.6246 4.71813 3.98927
41.7369 4.9701 2
42.0633 2.71851 3.99293
43.8519 5.36223 0.0124061
44.327 3.11068 2
44.8158 0.721173 4
46.5713 3.64849 0.00799405
47.2057 1.27779 2
49.554 1.99015 0
57.3345 40.5946 0.022819
59.2095 37.5656 0.0227391
54.1936 39.6479 0.0247178
48.606 41.2331 2
56.0677 37.8736 2
52.1412 39.2512 2
53.0061 36.6154 3.97793
46.5125 40.3026 3.89614
49.526 38.5063 3.98427
37.5177 6.67643 3.98543
39.4444 6.80501 2
39.2113 8.6986 3.98199
35.9437 8.49704 3.98375
56.7101 34.8084 0.0228656
55.0388 31.6455 0.0243245
53.8936 28.6021 0.0229951
53.8053 20.267 0.0391147
53.2739 22.9035 0.0434584
53.2969 25.7215 0.0251201
51.5349 19.4836 0.0284353
49.9378 17.784 0.0407013
48.8934 15.4658 0.0306002
45.3601 7.99898 0.0132527
47.7246 13.1322 0.0253589
46.6639 10.6672 0.0210217
41.4 7.08351 0.0163496
42.8665 9.42474 0.0215761
54.0141 34.0059 2
41.0148 9.05943 2
44.7269 9.99773 2
42.4631 10.9093 2
52.7399 30.6953 2
52.009 27.4539 2
52.199 21.2359 2
51.7709 24.3491 2
45.9876 12.737 2
47.6421 14.6108 2
49.7577 19.8601 2
48.0419 17.0489 2
51.5184 32.9219 3.98234
50.576 29.4134 3.97749
50.3016 25.9532 3.97043
49.7625 22.4703 3.98532
40.5642 11.6197 3.98329
43.8434 11.9141 3.97897
45.7657 15.4818 3.98842
47.4435 19.4854 3.9787
45.4415 37.4827 3.85005
48.8165 60.1789 0.0229422
49.7063 57.5706 0.0345561
51.5556 42.502 0.0167037
51.1289 47.0863 0.02479
50.7908 50.8097 0.0450358
50.3834 54.3431 0.0380094
47.2398 43.5674 0.0254389
47.9294 58.7027 2
49.2429 45.1218 2
48.4584 55.8602 2
48.8404 52.499 2
49.1538 48.8899 2
45.0706 39.8088 2
45.5018 42.509 2
45.7488 45.583 2
42.8605 41.0563 2
41.5859 41.8176 2
46.758 57.3046 3.97906
43.533 39.3495 3.67136
41.9235 40.7246 3.48684
47.4136 47.137 3.98394
46.9797 54.1653 3.96015
47.2191 50.64 3.97827
44.2768 47.1933 3.98257
44.1221 41.8249 3.8512
44.2351 44.3007 3.8894
41.8461 42.423 3.71392
40.574 42.0858 3.45606
46.5894 59.7796 0.00525332
45.4277 58.7754 2
43.835 57.6625 3.9825
37.5632 67.7366 0.0212503
39.6468 65.5957 0.0237667
41.5994 63.8012 0.0228723
42.9451 62.0591 0.025176
44.6034 60.2652 0.00430253
35.4636 67.6479 2
41.747 62.4691 2
39.8935 63.5326 2
37.6422 65.4931 2
42.4678 59.9496 2
40.6189 61.608 3.98097
40.4295 58.1296 3.98326
37.8372 63.1877 3.97288
35.573 65.4139 3.97627
33.576 65.3254 2
31.9613 63.2778 2
33.6293 63.3159 3.97466
30.3803 62.8375 3.98065
32.1288 61.9783 3.98738
26.8813 61.4592 3.97926
28.0668 64.1332 3.97899
29.8849 64.7051 2
29.408 66.7488 3.97972
31.698 65.1132 0.0238771
31.3776 67.186 2
31.0155 69.4128 3.98448
33.3929 67.4748 0.021382
33.1569 69.7479 2
32.8938 72.1457 3.99139
35.334 69.9534 0.0155346
35.1953 72.372 2
35.0474 74.9194 4
37.509 72.4567 0.00802418
37.5 75 2
39.9526 74.9197 0
35.6222 6.72797 3.98471
37.5244 4.61716 3.98959
39.6248 4.71664 2
39.7899 2.47523 3.99302
41.7366 4.9704 0.0118372
42.0633 2.71822 2
42.3946 0.32156 4
44.3268 3.11149 0.00748223
44.8159 0.72056 2
47.2057 1.27793 0
48.5824 41.2242 0.0278033
56.0673 37.8765 0.0232171
52.1465 39.2865 0.0173172
46.5332 40.3079 2
49.5247 38.5057 2
53.0055 36.6414 2
50.3307 35.5641 3.97396
47.1756 37.7608 3.90466
45.0044 35.1857 3.8518
42.8547 33.95 3.6698
41.5841 33.1685 3.47162
37.459 8.537 3.98474
37.5183 6.67586 2
39.4437 6.80663 0.0153682
39.2133 8.69645 2
38.9761 10.135 3.98453
35.9 9.77972 3.97988
34.1536 8.82913 3.98178
35.9447 8.49442 2
54.0148 34.0078 0.0251197
52.7456 30.6977 0.0244161
52.0019 27.4526 0.0252411
52.2002 21.2278 0.0260334
51.7815 24.344 0.0213199
49.7398 19.8742 0.0233393
48.0457 17.0417 0.0342517
47.6491 14.641 0.0329125
44.7261 10.0002 0.0146411
45.9871 12.7435 0.0294984
41.0134 9.05755 0.0224158
42.4617 10.9089 -0.00110832
51.5298 32.9185 2
40.5668 11.6242 2
43.8425 11.9104 2
50.5942 29.4126 2
50.2968 25.9575 2
49.751 22.4633 2
45.7549 15.4302 2
47.4459 19.5149 2
49.1036 31.5485 3.98641
48.6751 27.7225 3.97665
49.0473 24.6009 3.97979
47.076 22.2517 3.98994
38.2995 12.7504 3.97687
42.0829 14.3195 3.97905
44.7558 18.6088 3.97531
43.9567 37.4858 3.68386
45.5383 37.4873 2
47.9317 58.6986 0.0163932
48.4625 55.8578 0.0404423
49.2266 45.1068 0.0191425
49.1513 48.8884 0.0296022
48.8409 52.4959 0.0238132
44.9805 39.7853 0.147289
45.4731 42.487 0.107982
45.7422 45.5666 0.016779
42.8104 41.0056 0.32817
41.5488 41.7925 0.527001
46.7551 57.3095 2
43.6014 39.376 2
41.9303 40.7384 2
47.4208 47.1322 2
46.9748 54.169 2
47.2194 50.6466 2
44.3121 47.188 2
44.178 41.8577 2
44.288 44.3309 2
41.9036 42.4779 2
40.6062 42.1002 2
45.2904 55.8855 3.99961
42.268 39.2026 3.49723
40.4626 40.6035 3.60154
45.6305 48.7791 4.00224
45.2692 52.4285 3.98438
43.0263 48.1882 3.99429
42.9215 45.8315 3.88242
43.0111 43.5884 3.83247
40.6858 43.4237 3.69218
39.1692 42.3434 3.50335
45.4273 58.7774 0.00551619
43.8331 57.6699 2
42.0584 56.247 3.98712
35.4637 67.6462 0.0214472
37.6418 65.4914 0.0244349
39.8942 63.5323 0.0240752
41.7484 62.466 0.0231909
42.4656 59.9524 0.0186263
35.5734 65.4161 2
40.6191 61.6071 2
37.8375 63.1879 2
40.4297 58.1336 2
38.9071 56.392 3.99347
38.247 60.2907 3.98045
35.6071 63.1819 3.97277
33.576 65.3249 0.0252456
31.9604 63.2754 0.0234914
33.6303 63.3168 2
30.3807 62.8395 2
32.1301 61.9803 2
28.6881 62.1753 3.98012
33.348 61.4838 3.97868
31.0782 61.2025 3.98182
27.5941 59.5517 3.98017
23.8293 59.0319 3.99278
25.0511 60.8283 3.97692
26.882 61.4596 2
26.2361 63.4624 3.97627
28.0659 64.1316 2
27.4651 66.1729 3.97943
29.8859 64.7037 0.0199382
29.4072 66.7489 2
28.9082 68.9381 3.98372
31.3779 67.1856 0.020849
31.0146 69.4129 2
30.6168 71.7773 3.99089
33.1577 69.7471 0.0155032
32.8929 72.1461 2
32.6054 74.6784 4
35.1958 72.3713 0.00799966
35.0474 74.9197 2
37.5 75 0
33.7253 6.9842 3.98342
35.4366 4.68735 3.98922
35.6228 6.72661 2
37.5156 2.38759 3.99314
37.5246 4.61652 2
39.6246 4.71813 0.0107287
39.7896 2.47443 2
39.9526 0.0806499 4
42.0633 2.71851 0.00706783
42.3947 0.320817 2
44.8158 0.721173 0
43.5501 35.6214 3.67531
41.946 34.2319 3.47509
46.5125 40.3026 0.103857
49.526 38.5063 0.0157323
53.0061 36.6154 0.0220729
47.1703 37.7375 2
50.3409 35.56 2
45.082 35.1651 2
42.8972 33.9034 2
41.6121 33.1429 2
47.3752 34.3495 3.94293
44.176 33.1401 3.83573
41.8974 32.5406 3.7127
40.6038 32.8854 3.4551
37.3119 10.6341 3.98144
37.4607 8.5367 2
37.5177 6.67643 0.0145682
39.2113 8.6986 0.0180078
38.9797 10.133 2
34.7567 10.3894 3.98025
35.9021 9.77448 2
32.3805 9.37527 3.97806
34.153 8.82469 2
35.9437 8.49704 0.0162497
51.5184 32.9219 0.0176555
50.576 29.4134 0.0225132
50.3016 25.9532 0.0295681
49.7625 22.4703 0.014681
47.4435 19.4854 0.021297
45.7657 15.4818 0.0115767
43.8434 11.9141 0.0210272
40.5642 11.6197 0.0167077
49.1238 31.5356 2
38.3008 12.7454 2
42.0885 14.3312 2
48.6772 27.7248 2
49.04 24.6033 2
47.061 22.2506 2
44.7587 18.6738 2
47.0189 29.7141 3.98391
46.7298 25.3233 3.9714
44.2097 21.6141 3.97979
36.5861 12.9637 3.97414
38.6784 14.866 3.97433
41.7249 17.948 3.97906
42.4311 37.4674 3.53396
44.0159 37.4871 2
45.4415 37.4827 0.14995
46.758 57.3046 0.0209441
46.9797 54.1653 0.0398516
47.4136 47.137 0.0160638
47.2191 50.64 0.0217277
43.533 39.3495 0.328636
44.1221 41.8249 0.148799
44.2351 44.3007 0.110599
44.2768 47.1933 0.0174303
41.8461 42.423 0.28608
41.9235 40.7246 0.513158
40.574 42.0858 0.543937
45.2871 55.8879 2
42.2711 39.2094 2
40.4971 40.5893 2
45.6296 48.7964 2
45.2642 52.4309 2
43.0629 48.2044 2
42.9792 45.8797 2
43.0645 43.62 2
40.7308 43.4907 2
39.1671 42.3592 2
43.6141 54.3454 3.99436
40.5656 39.0493 3.62095
39.0648 40.6786 3.57053
43.3528 50.2752 4.00388
41.6656 47.3376 3.92574
41.5782 44.925 3.84417
39.3423 44.0758 3.65814
37.4993 42.4581 3.54535
43.835 57.6625 0.017503
42.062 56.2388 2
40.3721 54.8062 3.995
35.573 65.4139 0.0237328
37.8372 63.1877 0.0271156
40.6189 61.608 0.0190255
40.4295 58.1296 0.0167388
35.6077 63.1808 2
38.2461 60.2923 2
38.909 56.3772 2
37.9819 55.0707 3.99498
36.9298 57.5784 3.9916
35.3643 60.8838 3.97902
33.6293 63.3159 0.0253375
30.3803 62.8375 0.0193453
32.1288 61.9783 0.0126193
33.3489 61.4839 2
28.6886 62.1785 2
31.0794 61.2065 2
29.4219 60.2569 3.97634
32.3692 59.7019 3.99396
28.0654 58.3376 4.01187
27.5959 59.5514 2
25.4175 58.5511 3.98034
22.8156 58.1867 3.96775
23.4212 60.2966 3.97785
23.8311 59.032 2
25.0522 60.8274 2
24.4419 62.7444 3.97687
26.8813 61.4592 0.0207424
26.2363 63.4626 2
25.5502 65.4812 3.97812
28.0668 64.1332 0.021014
27.4644 66.1731 2
26.838 68.3264 3.98371
29.408 66.7488 0.0202776
28.9072 68.9379 2
28.3721 71.2626 3.99017
31.0155 69.4128 0.015517
30.6156 71.7771 2
30.1842 74.2788 4
32.8938 72.1457 0.00860713
32.6053 74.6792 2
35.0474 74.9194 0
31.7897 7.42343 3.98201
33.3491 4.9272 3.98819
33.7252 6.98153 2
35.246 2.46351 3.99318
35.4366 4.68665 2
35.6222 6.72797 0.0152864
37.5 0 4
37.5151 2.3872 2
37.5244 4.61716 0.0104115
39.7899 2.47523 0.0069759
39.9526 0.0802889 2
42.3946 0.32156 0
42.2625 35.7302 3.48374
43.629 35.5907 2
40.5031 34.3571 3.60171
41.9451 34.2145 2
47.1756 37.7608 0.0953402
50.3307 35.5641 0.026045
45.0044 35.1857 0.148203
42.8547 33.95 0.3302
41.5841 33.1685 0.528378
47.4034 34.3685 2
44.218 33.1078 2
41.9499 32.4834 2
40.6329 32.8705 2
45.4873 31.7637 3.90321
43.0588 31.3758 3.82621
40.7286 31.5444 3.69181
39.1903 32.6445 3.49859
35.696 11.7871 3.9761
37.316 10.6325 2
37.459 8.537 0.0152605
38.9761 10.135 0.0154721
33.1016 11.2275 3.97285
34.756 10.3816 2
35.9 9.77972 0.020118
30.4861 10.0273 3.9773
32.3801 9.37421 2
34.1536 8.82913 0.0182199
49.1036 31.5485 0.0135896
48.6751 27.7225 0.0233456
49.0473 24.6009 0.0202144
47.076 22.2517 0.0100645
44.7558 18.6088 0.0246903
42.0829 14.3195 0.0209534
38.2995 12.7504 0.0231273
36.583 12.9424 2
47.0271 29.6603 2
38.6768 14.8439 2
41.7167 17.9491 2
46.7304 25.3235 2
44.1945 21.5886 2
44.9912 27.8549 3.99936
43.5746 24.2545 4.0274
41.2848 20.9624 3.98833
35.7714 14.8042 3.97744
38.665 17.6775 3.98319
40.6223 37.4513 3.63699
42.4424 37.4718 2
43.9567 37.4858 0.316139
45.2904 55.8855 0.000391597
45.2692 52.4285 0.0156189
45.6305 48.7791 -0.00223878
42.268 39.2026 0.50277
43.0111 43.5884 0.167526
42.9215 45.8315 0.117579
43.0263 48.1882 0.00570984
40.6858 43.4237 0.307822
40.4626 40.6035 0.398459
39.1692 42.3434 0.496653
43.6117 54.3422 2
40.5747 39.0492 2
39.065 40.6733 2
43.3444 50.288 2
41.6705 47.3736 2
41.5984 44.9701 2
37.4949 42.4795 2
39.3578 44.1414 2
41.7656 52.8156 3.9995
39.0746 39.0861 3.57956
37.503 40.7339 3.60296
35.8369 42.3529 3.50151
40.8021 49.4176 3.99428
39.7179 45.6628 3.81345
37.4987 44.3411 3.69154
42.0584 56.247 0.0128849
40.3707 54.8148 2
38.7224 53.617 3.99655
35.6071 63.1819 0.0272289
38.247 60.2907 0.0195535
38.9071 56.392 0.00653229
35.3644 60.878 2
36.9308 57.5823 2
37.9827 55.07 2
36.3189 55.1483 3.99749
34.496 58.4865 3.99413
33.348 61.4838 0.0213246
28.6881 62.1753 0.0198829
31.0782 61.2025 0.018176
32.3696 59.7051 2
29.4232 60.2559 2
30.3371 57.7794 3.985
28.0684 58.3365 2
27.0322 56.7867 3.96816
27.5941 59.5517 0.0198311
25.4202 58.5507 2
23.9415 56.7436 3.95918
21.4298 57.3296 3.95875
22.0231 59.5684 3.97828
22.8171 58.1884 2
22.7486 61.9899 3.97318
23.4222 60.2962 2
23.8293 59.0319 0.00722079
25.0511 60.8283 0.0230815
24.4425 62.7476 2
23.686 64.6969 3.97553
26.2361 63.4624 0.023733
25.5494 65.4826 2
24.8105 67.5875 3.9825
27.4651 66.1729 0.020569
26.8368 68.3272 2
26.1673 70.6035 3.99002
28.9082 68.9381 0.0162764
28.3708 71.2623 2
27.7943 73.7221 4
30.6168 71.7773 0.00910607
30.1841 74.2794 2
32.6054 74.6784 0
29.8126 7.99951 3.98008
31.2545 5.33381 3.98725
31.7894 7.42204 2
32.9821 2.70176 3.99276
33.3488 4.92561 2
33.7253 6.9842 0.0165846
35.0474 0.080333 4
35.2455 2.46326 2
35.4366 4.68735 0.010785
37.5 0 2
37.5156 2.38759 0.00686045
39.9526 0.0806499 0
40.6126 35.878 3.62447
42.2681 35.7311 2
43.5501 35.6214 0.324693
28.5466 10.7022 3.97724
39.0772 34.308 3.56788
40.5131 34.3659 2
41.946 34.2319 0.524912
47.3752 34.3495 0.0570705
44.176 33.1401 0.164267
41.8974 32.5406 0.287296
40.6038 32.8854 0.544905
45.5219 31.7467 2
43.1044 31.3407 2
40.772 31.4774 2
39.1937 32.6288 2
43.8621 29.9854 3.89613
41.598 30.0352 3.84534
39.3718 30.901 3.65673
37.5308 32.5382 3.54331
34.0987 12.9518 3.97413
35.696 11.7737 2
37.3119 10.6341 0.0185581
31.1918 11.9996 3.97748
33.1021 11.227 2
34.7567 10.3894 0.0197453
30.4845 10.0228 2
32.3805 9.37527 0.0219377
47.0189 29.7141 0.01609
46.7298 25.3233 0.0286048
36.5861 12.9637 0.0258618
44.2097 21.6141 0.020213
41.7249 17.948 0.0209448
38.6784 14.866 0.0256725
35.7745 14.8125 2
44.9868 27.8522 2
38.6636 17.6828 2
41.2674 20.9522 2
43.5621 24.2373 2
33.615 15.9091 3.98524
42.7344 26.6907 3.98541
40.7798 23.5612 3.99501
38.3915 20.4525 3.99331
35.8449 17.5722 3.9812
39.0941 37.4876 3.59247
40.6242 37.455 2
42.4311 37.4674 0.466039
43.6141 54.3454 0.00563843
43.3528 50.2752 -0.0038765
40.5656 39.0493 0.37905
41.5782 44.925 0.155828
41.6656 47.3376 0.074265
39.3423 44.0758 0.34186
39.0648 40.6786 0.429468
37.4993 42.4581 0.45465
41.7573 52.8162 2
39.0677 39.0731 2
37.4997 40.7238 2
40.785 49.4357 2
35.8349 42.3675 2
39.7354 45.7211 2
37.4919 44.4038 2
39.7218 51.6115 4.00298
37.5076 39.0893 3.61757
35.9488 40.6934 3.5714
34.4266 42.1024 3.45746
35.6553 44.0933 3.64725
38.6609 48.312 3.93745
37.5288 45.9538 3.84538
40.3721 54.8062 0.00500302
38.7223 53.6088 2
36.7591 52.9283 3.9965
35.3643 60.8838 0.0209809
36.9298 57.5784 0.00839738
37.9819 55.0707 0.00502414
34.4946 58.4832 2
36.3219 55.1369 2
33.2692 55.3478 3.99305
32.3692 59.7019 0.00604122
29.4219 60.2569 0.0236557
30.3395 57.7752 2
28.8254 55.2844 3.98785
28.0654 58.3376 -0.0118705
27.0356 56.7857 2
25.4692 55.0729 3.95701
21.9803 55.2611 3.95984
25.4175 58.5511 0.0196563
23.9435 56.7452 2
20.3017 56.9616 3.9628
20.6835 58.7243 3.96649
21.4318 57.3313 2
21.1838 61.1197 3.97357
22.024 59.5696 2
22.8156 58.1867 0.0322519
21.9016 63.8179 3.97505
22.7497 61.9917 2
23.4212 60.2966 0.0221466
24.4419 62.7444 0.023126
23.6854 64.6964 2
22.839 66.7297 3.97966
25.5502 65.4812 0.021882
24.8091 67.5879 2
24.0116 69.805 3.9899
26.838 68.3264 0.0162864
26.1656 70.6034 2
25.446 73.0099 4
28.3721 71.2626 0.00983475
27.7943 73.7222 2
30.1842 74.2788 0
27.8225 8.65949 3.98022
29.1567 5.88068 3.98542
29.8115 7.9961 2
30.7276 3.09853 3.9925
31.254 5.33244 2
31.7897 7.42343 0.0179856
32.6053 0.320823 4
32.9812 2.70117 2
33.3491 4.9272 0.0118118
35.0474 0.0802903 2
35.246 2.46351 0.00682441
37.5 0 0
39.0608 35.8983 3.58912
40.5947 35.8775 2
42.2625 35.7302 0.516264
28.545 10.6993 2
26.6252 11.3988 3.97781
29.2327 12.6517 3.98123
37.5241 34.2683 3.60205
39.093 34.3245 2
40.5031 34.3571 0.398287
45.4873 31.7637 0.0967852
43.0588 31.3758 0.173787
40.7286 31.5444 0.308186
39.1903 32.6445 0.501411
43.8934 29.9518 2
41.6266 29.993 2
39.3805 30.8366 2
37.5323 32.5164 2
42.0235 28.6753 3.86586
39.7189 29.3041 3.83608
37.5255 30.6569 3.69387
35.8576 32.6462 3.50545
31.9271 14.4993 3.98007
34.0997 12.9578 2
35.696 11.7871 0.0239024
31.1903 11.9926 2
33.1016 11.2275 0.0271486
30.4861 10.0273 0.0227008
44.9912 27.8549 0.000638822
43.5746 24.2545 -0.0274031
35.7714 14.8042 0.0225565
41.2848 20.9624 0.0116659
38.665 17.6775 0.0168145
33.61 15.897 2
35.8399 17.5709 2
42.7702 26.6704 2
38.3747 20.5141 2
40.7738 23.539 2
33.551 17.4507 3.98103
40.2088 25.9786 3.95526
38.0319 23.3035 3.99814
35.5641 20.2098 3.99735
37.5139 37.4895 3.63312
39.0824 37.4799 2
40.6223 37.4513 0.363015
41.7656 52.8156 0.000498977
40.8021 49.4176 0.00571714
39.0746 39.0861 0.420441
39.7179 45.6628 0.186546
37.4987 44.3411 0.308463
37.503 40.7339 0.397039
35.8369 42.3529 0.498485
39.7039 51.6172 2
37.5093 39.0853 2
35.9464 40.6826 2
38.6785 48.3707 2
34.3991 42.117 2
35.6342 44.1557 2
37.5231 46.0128 2
37.681 50.6147 3.99522
35.9578 39.0976 3.58834
34.5457 40.6289 3.60444
33.446 41.8117 3.47573
34.3175 43.4365 3.68696
35.2463 45.6836 3.83171
36.9231 47.9199 3.90239
38.7224 53.617 0.00345376
36.7614 52.9062 2
34.4541 52.256 3.99863
34.496 58.4865 0.00586949
36.3189 55.1483 0.00251198
33.275 55.3571 2
30.6654 53.256 3.99316
30.3371 57.7794 0.0150019
28.8276 55.2796 2
27.1053 53.3619 3.95716
27.0322 56.7867 0.0318429
25.4728 55.075 2
23.8302 53.3763 3.95486
20.7807 53.1024 3.95827
20.0752 55.7504 3.96179
21.979 55.2633 2
23.9415 56.7436 0.0408204
19.4919 57.8303 3.96325
20.2985 56.964 2
19.7259 60.1481 3.97414
20.682 58.7262 2
21.4298 57.3296 0.0412454
20.2164 62.829 3.97153
21.1845 61.1213 2
22.0231 59.5684 0.0217177
20.9411 65.7555 3.97685
21.9014 63.8214 2
22.7486 61.9899 0.0268242
23.686 64.6969 0.0244717
22.8377 66.7293 2
21.9143 68.8721 3.98913
24.8105 67.5875 0.0174973
24.0093 69.8042 2
23.1494 72.1454 4
26.1673 70.6035 0.00998172
25.446 73.0099 2
27.7943 73.7221 0
25.8618 9.38871 3.97933
27.0715 6.54513 3.984
27.8208 8.65733 2
28.4901 3.6445 3.99162
29.1558 5.87855 2
29.8126 7.99951 0.0199233
30.1841 0.720592 4
30.7263 3.09817 2
31.2545 5.33381 0.0127526
32.6053 0.320817 2
32.9821 2.70176 0.00724426
35.0474 0.080333 0
37.5107 35.8956 3.6131
39.0453 35.8933 2
40.6126 35.878 0.375532
24.7825 12.0878 3.97598
23.7651 14.3892 3.97587
28.5466 10.7022 0.0227617
26.6237 11.396 2
29.2303 12.6495 2
27.3004 13.3845 3.97855
29.7941 14.2119 3.98181
35.9572 34.3097 3.57169
37.5315 34.2769 2
39.0772 34.308 0.432116
37.5308 32.5382 0.456689
43.8621 29.9854 0.103868
41.598 30.0352 0.15466
39.3718 30.901 0.34327
42.0553 28.6154 2
39.7434 29.2488 2
37.5282 30.5945 2
35.8578 32.6324 2
39.8827 27.9396 3.87989
37.4873 29.0356 3.83687
35.6847 30.9174 3.65973
34.4478 32.8977 3.45951
30.9421 16.8561 3.98847
31.9232 14.4872 2
34.0987 12.9518 0.0258682
31.1918 11.9996 0.022517
42.7344 26.6907 0.0145922
40.7798 23.5612 0.00499491
33.615 15.9091 0.01476
35.8449 17.5722 0.0187999
38.3915 20.4525 0.00668837
33.5456 17.4658 2
35.5756 20.2018 2
40.2816 25.9624 2
38.0169 23.262 2
32.8845 19.8474 3.99763
37.6578 25.6177 3.96753
35.2407 22.9551 4.00388
35.9372 37.4871 3.59483
37.5065 37.4891 2
39.0941 37.4876 0.407527
39.7218 51.6115 -0.0029804
38.6609 48.312 0.0625461
37.5076 39.0893 0.382432
37.5288 45.9538 0.154621
35.6553 44.0933 0.352751
35.9488 40.6934 0.428604
34.4266 42.1024 0.54254
37.6632 50.6507 2
35.9756 39.0855 2
34.5119 40.6218 2
36.9078 47.9812 2
33.4111 41.8383 2
34.2745 43.5006 2
35.2254 45.7368 2
35.566 49.8041 3.98613
34.4399 39.0913 3.6229
33.081 40.7496 3.48063
33.1444 42.4384 3.71785
33.4512 44.9322 3.83481
34.4747 47.0677 3.87456
36.7591 52.9283 0.00349571
34.4467 52.267 2
32.2357 51.0551 4.01074
33.2692 55.3478 0.00695007
30.6698 53.2589 2
28.7023 51.47 3.98453
28.8254 55.2844 0.0121511
27.1074 53.3606 2
25.405 51.6123 3.95325
25.4692 55.0729 0.0429901
23.831 53.3811 2
22.3465 51.6662 3.95152
19.6324 51.4938 3.96116
19.1685 54.2052 3.96119
20.7825 53.1014 2
18.5502 56.6527 3.96325
20.0727 55.7523 2
21.9803 55.2611 0.0401624
18.3952 59.0605 3.96588
19.4893 57.8322 2
20.3017 56.9616 0.0372033
18.6311 61.7185 3.97178
19.7259 60.1508 2
20.6835 58.7243 0.0335056
19.1303 64.666 3.97595
20.2166 62.8325 2
21.1838 61.1197 0.0264255
19.8885 67.8084 3.98687
20.9397 65.7543 2
21.9016 63.8179 0.0249527
22.839 66.7297 0.0203357
21.9116 68.8707 2
20.9142 71.1327 4
24.0116 69.805 0.0100994
23.1494 72.1455 2
25.446 73.0099 0
23.105 12.8073 3.97727
23.975 10.1782 3.97695
25.025 7.31612 3.98267
25.8597 9.38686 2
26.282 4.32861 3.99071
27.0701 6.54379 2
27.8225 8.65949 0.0197849
27.7943 1.27781 4
28.4881 3.64423 2
29.1567 5.88068 0.014578
30.1841 0.720551 2
30.7276 3.09853 0.00750478
32.6053 0.320823 0
35.9439 35.8859 3.57885
37.529 35.9042 2
39.0608 35.8983 0.410878
24.7793 12.0828 2
23.7655 14.394 2
22.4983 15.0789 3.979
25.3688 13.9322 3.97181
24.0521 15.6492 3.98576
26.6252 11.3988 0.022195
29.2327 12.6517 0.018769
27.3001 13.383 2
29.7887 14.209 2
28.3784 15.9808 3.98427
34.5637 34.3768 3.60034
35.9547 34.3144 2
37.5241 34.2683 0.397947
35.8576 32.6462 0.49455
37.5255 30.6569 0.306133
42.0235 28.6753 0.134142
39.7189 29.3041 0.163917
39.9138 27.8974 2
37.4835 28.9779 2
35.6704 30.8479 2
34.4153 32.8858 2
37.6257 27.6689 3.87423
35.2985 29.3197 3.8338
34.3249 31.5611 3.68812
33.4656 33.1854 3.47326
30.2312 19.4357 3.98312
30.9365 16.8438 2
31.9271 14.4993 0.019927
40.2088 25.9786 0.0447407
38.0319 23.3035 0.00186284
33.551 17.4507 0.018972
35.5641 20.2098 0.00264913
32.8846 19.8732 2
35.2418 22.9416 2
37.715 25.5953 2
32.4269 22.5815 3.99743
35.1207 25.5322 3.99059
34.3961 37.507 3.64028
35.9381 37.4956 2
37.5139 37.4895 0.366884
37.681 50.6147 0.00477756
36.9231 47.9199 0.0976059
35.9578 39.0976 0.411658
35.2463 45.6836 0.168293
34.3175 43.4365 0.313039
34.5457 40.6289 0.395556
33.446 41.8117 0.524266
35.5455 49.817 2
34.4368 39.0887 2
33.0759 40.763 2
34.4546 47.1201 2
33.1018 42.495 2
33.4249 44.9771 2
33.4133 48.8913 3.97424
32.7527 39.2425 3.48775
32.1711 41.0295 3.67204
31.978 43.6032 3.83147
32.647 46.0539 3.87665
34.4541 52.256 0.00136815
32.2415 51.0641 2
30.2371 49.6247 4.00095
30.6654 53.256 0.00683516
28.7042 51.4647 2
26.9174 49.8366 3.97343
27.1053 53.3619 0.0428426
25.4055 51.6147 2
23.794 50.023 3.96365
23.8302 53.3763 0.0451438
22.3475 51.6641 2
20.9574 50.1539 3.9642
18.4183 50.1955 3.96967
18.1866 52.6715 3.96377
19.6317 51.4928 2
17.6303 55.2526 3.96233
19.1664 54.2052 2
20.7807 53.1024 0.0417339
17.193 57.8185 3.96094
18.5458 56.6543 2
20.0752 55.7504 0.0382066
17.1478 60.5045 3.967
18.3945 59.0617 2
19.4919 57.8303 0.0367504
17.4131 63.4458 3.96975
18.6317 61.72 2
19.7259 60.1481 0.0258602
17.9446 66.6156 3.98523
19.1295 64.6632 2
20.2164 62.829 0.0284674
18.75 69.9759 4
19.8858 67.8058 2
20.9411 65.7555 0.02315
21.9143 68.8721 0.0108668
20.9142 71.1327 2
23.1494 72.1454 0
21.6002 13.6368 3.97485
22.1949 11.0431 3.97353
23.1028 12.8125 2
23.0427 8.18294 3.98043
23.9721 10.1767 2
24.1196 5.14346 3.99003
25.0232 7.3151 2
25.8618 9.38871 0.0206669
25.446 1.99014 4
26.2794 4.32902 2
27.0715 6.54513 0.0160027
27.7943 1.27778 2
28.4901 3.6445 0.00838033
30.1841 0.720592 0
34.4623 35.917 3.61971
35.9546 35.9016 2
37.5107 35.8956 0.3869
21.3332 15.8856 3.98089
24.7825 12.0878 0.0240235
23.7651 14.3892 0.0241344
25.3678 13.9189 2
22.5001 15.0739 2
24.0557 15.6556 2
23.3009 16.2859 3.96847
25.4089 16.1192 3.98418
27.3004 13.3845 0.0214481
29.7941 14.2119 0.0181872
28.3726 15.9897 2
27.4737 18.8587 3.98337
33.0941 34.2551 3.48875
34.5292 34.3906 2
35.9572 34.3097 0.428308
34.4478 32.8977 0.540495
35.6847 30.9174 0.340266
37.4873 29.0356 0.163128
39.8827 27.9396 0.120106
37.5988 27.6301 2
33.4337 33.1613 2
35.299 29.2569 2
34.2831 31.495 2
35.1971 27.7662 3.88942
33.4492 30.0578 3.83595
33.1697 32.5577 3.71493
29.7386 22.0386 4.00555
30.2338 19.4408 2
30.9421 16.8561 0.0115271
37.6578 25.6177 0.032466
35.2407 22.9551 -0.00387831
32.8845 19.8474 0.00236943
32.432 22.5744 2
35.1516 25.5218 2
31.9999 25.8483 4.00482
32.5814 37.505 3.53329
34.4073 37.5014 2
35.9372 37.4871 0.405166
35.566 49.8041 0.0138741
34.4747 47.0677 0.125445
34.4399 39.0913 0.377096
33.4512 44.9322 0.165187
33.1444 42.4384 0.28215
33.081 40.7496 0.519373
33.3993 48.8927 2
32.7613 39.2494 2
32.1309 41.0727 2
32.6154 46.1035 2
31.9297 43.636 2
31.5814 47.7391 3.98029
31.4734 39.3657 3.67559
30.8563 41.8482 3.84192
31.0435 44.6889 3.88871
32.2357 51.0551 -0.010739
30.2444 49.6528 2
28.391 48.0115 3.96452
28.7023 51.47 0.0154721
26.9167 49.838 2
25.2012 48.28 3.96568
25.405 51.6123 0.0467528
23.7957 50.0219 2
22.2418 48.6015 3.97084
22.3465 51.6662 0.0484837
20.9563 50.1531 2
19.5342 48.9389 3.97339
17.2964 49.2095 3.97484
17.1331 51.2917 3.96869
18.4209 50.1939 2
16.6402 53.7755 3.96512
18.1852 52.6712 2
19.6324 51.4938 0.0388358
16.0883 56.4123 3.96226
17.629 55.2532 2
19.1685 54.2052 0.0388135
15.7653 59.1736 3.96404
17.1885 57.8206 2
18.5502 56.6527 0.036746
15.7934 62.1035 3.96831
17.149 60.5067 2
18.3952 59.0605 0.0341167
16.0914 65.2983 3.98331
17.4118 63.4525 2
18.6311 61.7185 0.0282178
16.6661 68.6801 4
17.9419 66.6132 2
19.1303 64.666 0.0240529
18.75 69.9759 2
19.8885 67.8084 0.0131281
20.9142 71.1327 0
20.2351 14.6484 3.9683
21.5985 13.6489 2
20.5363 12.0224 3.97426
21.1461 9.15579 3.9779
22.1918 11.0411 2
23.105 12.8073 0.0227288
22.0188 6.08223 3.98958
23.0403 8.182 2
23.975 10.1782 0.0230491
23.1494 2.85457 4
24.1165 5.14431 2
25.025 7.31612 0.0173327
25.446 1.99012 2
26.282 4.32861 0.00929101
27.7943 1.27781 0
32.7439 35.772 3.49712
34.4509 35.9171 2
35.9439 35.8859 0.42115
21.3363 15.8783 2
20.3461 17.0119 3.96835
22.1335 16.6842 3.96665
25.3688 13.9322 0.0281887
22.4983 15.0789 0.020998
24.0521 15.6492 0.0142416
25.4116 16.1108 2
23.3052 16.2834 2
24.2525 18.5587 3.96881
27.1725 21.6497 3.99395
28.3784 15.9808 0.0157311
27.47 18.905 2
32.2111 33.9728 3.66647
33.0916 34.2379 2
34.5637 34.3768 0.399655
33.4656 33.1854 0.526739
34.3249 31.5611 0.311885
35.2985 29.3197 0.1662
37.6257 27.6689 0.125769
35.1974 27.716 2
33.0958 32.5021 2
33.4191 30.0177 2
32.8973 28.414 3.89847
31.9881 31.3956 3.8224
29.1297 24.5314 4.00403
29.733 22.0533 2
30.2312 19.4357 0.0168756
35.1207 25.5322 0.00940656
32.4269 22.5815 0.00256671
31.9909 25.82 2
30.1227 27.5042 3.9771
31.0589 37.4961 3.6806
32.5864 37.5041 2
34.3961 37.507 0.35972
33.4133 48.8913 0.0257614
32.647 46.0539 0.123351
32.7527 39.2425 0.51225
31.978 43.6032 0.168532
32.1711 41.0295 0.327963
31.5347 47.7627 2
31.3983 39.3889 2
30.8152 41.8811 2
30.9991 44.729 2
29.8145 46.3476 3.99097
30.0139 39.806 3.85475
29.5395 42.9591 3.89771
30.2371 49.6247 -0.0009473
28.3875 48.0106 2
26.6118 46.4478 3.98165
26.9174 49.8366 0.0265691
25.202 48.2781 2
23.4903 46.866 3.97356
23.794 50.023 0.0363486
22.2412 48.6018 2
20.5388 47.4479 3.97651
20.9574 50.1539 0.0358015
19.5345 48.9375 2
18.1288 48.0421 3.97694
16.5288 48.5701 3.9765
17.2975 49.2085 2
16.2 50.0635 3.973
15.6523 52.3228 3.9687
17.1347 51.2907 2
18.4183 50.1955 0.0303293
15.0381 54.9067 3.96376
16.6419 53.7752 2
18.1866 52.6715 0.0362345
14.4969 57.704 3.96198
16.0886 56.4128 2
17.6303 55.2526 0.0376665
14.2712 60.6688 3.96788
15.7676 59.1747 2
17.193 57.8185 0.0390627
14.3361 63.8551 3.97899
15.7943 62.1059 2
17.1478 60.5045 0.0329969
14.6715 67.2507 4
16.0888 65.2945 2
17.4131 63.4458 0.0302494
16.6661 68.6801 2
17.9446 66.6156 0.0147722
18.75 69.9759 0
18.9551 15.8312 3.97624
20.2364 14.6453 2
18.9898 13.1454 3.97357
21.6002 13.6368 0.025148
20.5348 12.0248 2
19.3463 10.2465 3.97538
19.9937 7.14749 3.98789
21.1428 9.15538 2
22.1949 11.0431 0.0264709
20.9142 3.86727 4
22.015 6.0838 2
23.0427 8.18294 0.0195726
23.1494 2.85451 2
24.1196 5.14346 0.0099728
25.446 1.99014 0
31.4988 35.6377 3.67112
32.748 35.764 2
34.4623 35.917 0.380292
21.3332 15.8856 0.0191056
22.1366 16.6771 2
20.3484 17.0077 2
19.3426 18.4789 3.95671
21.8281 17.935 3.97808
25.4089 16.1192 0.0158239
23.3009 16.2859 0.0315299
24.2437 18.5825 2
22.4247 20.0038 3.97105
24.754 21.5183 3.98666
26.7506 23.817 3.98164
27.1813 21.5723 2
27.4737 18.8587 0.016628
30.9125 33.1598 3.84669
32.1694 33.921 2
33.0941 34.2551 0.511253
33.1697 32.5577 0.285067
33.4492 30.0578 0.164052
35.1971 27.7662 0.110579
32.8569 28.3822 2
31.932 31.3542 2
30.7356 29.7962 3.92494
28.3872 26.6905 3.9966
29.1135 24.5379 2
29.7386 22.0386 -0.00555344
31.9999 25.8483 -0.00482139
30.1139 27.4817 2
29.5659 37.4948 3.8511
30.9964 37.4944 2
32.5814 37.505 0.466709
31.5814 47.7391 0.0197143
31.0435 44.6889 0.11129
31.4734 39.3657 0.324412
30.8563 41.8482 0.158079
29.8186 46.3488 2
29.9406 39.8188 2
29.5077 42.9924 2
28.0854 44.6731 3.96963
27.7729 40.5279 3.93223
28.391 48.0115 0.0354768
26.6101 46.4478 2
24.7972 44.9805 3.97854
25.2012 48.28 0.0343183
23.4887 46.8654 2
21.5629 45.7253 3.97775
22.2418 48.6015 0.0291578
20.5391 47.447 2
18.8607 46.593 3.97663
19.5342 48.9389 0.0266109
18.1295 48.0409 2
16.7671 47.5932 3.97639
16.5302 48.5691 2
15.5456 48.9151 3.97563
17.2964 49.2095 0.0251554
16.2018 50.0626 2
14.7663 50.8991 3.97207
14.0112 53.3676 3.96655
15.6538 52.3222 2
17.1331 51.2917 0.0313094
13.3277 56.1298 3.96187
15.0386 54.9067 2
16.6402 53.7755 0.0348775
12.8577 59.108 3.96625
14.5006 57.704 2
16.0883 56.4123 0.0377382
12.6821 62.2971 3.97643
14.2729 60.6691 2
15.7653 59.1736 0.0359571
12.7746 65.6939 4
14.3338 63.8512 2
15.7934 62.1035 0.031687
14.6714 67.2507 2
16.0914 65.2983 0.016689
16.6661 68.6801 0
17.7137 17.209 3.96306
18.9551 15.8292 2
17.526 14.4161 3.9687
20.2351 14.6484 0.0316962
18.9891 13.1499 2
17.643 11.4671 3.97348
20.5363 12.0224 0.0257397
19.3427 10.2475 2
18.0541 8.34054 3.98591
18.75 5.0241 4
19.9892 7.14979 2
21.1461 9.15579 0.022104
20.9142 3.86727 2
22.0188 6.08223 0.0104205
23.1494 2.85457 0
30.043 35.2028 3.85337
31.4259 35.6135 2
32.7439 35.772 0.502881
22.1335 16.6842 0.0333549
20.3461 17.0119 0.0316537
21.8271 17.9343 2
19.3367 18.4727 2
18.1762 20.0338 3.96162
21.0063 19.4746 3.96593
24.2525 18.5587 0.0311936
22.4161 20.0107 2
24.7615 21.5008 2
22.5965 21.8493 3.98144
25.026 23.2556 3.97167
25.9909 26.0662 3.97903
26.7471 23.8104 2
27.1725 21.6497 0.00604848
29.3032 32.5061 3.89814
30.8455 33.1245 2
32.2111 33.9728 0.33353
31.9881 31.3956 0.1776
32.8973 28.414 0.101526
30.7135 29.7856 2
27.7447 29.2688 4.01455
28.3729 26.701 2
29.1297 24.5314 -0.00402931
30.1227 27.5042 0.0229004
27.913 37.3611 3.90012
29.4929 37.4869 2
31.0589 37.4961 0.319398
29.8145 46.3476 0.00902817
29.5395 42.9591 0.102294
30.0139 39.806 0.145253
28.0802 44.7296 2
27.7413 40.5253 2
26.1717 43.0331 3.98819
25.042 39.4413 3.97192
26.6118 46.4478 0.0183492
24.7867 44.9823 2
22.7112 43.7647 3.97633
23.4903 46.866 0.026438
21.5595 45.727 2
19.629 44.8309 3.97628
20.5388 47.4479 0.023493
18.8605 46.5935 2
17.1243 46.0913 3.97627
18.1288 48.0421 0.0230636
16.7683 47.5925 2
15.3102 47.5688 3.97616
16.5288 48.5701 0.0234959
15.5475 48.9142 2
14.0757 49.4656 3.97445
16.2 50.0635 0.0269993
14.7675 50.8984 2
13.082 51.8128 3.96888
12.2327 54.4903 3.96341
14.0121 53.3672 2
15.6523 52.3228 0.0313043
11.5446 57.4463 3.96549
13.328 56.1299 2
15.0381 54.9067 0.0362443
11.1371 60.6225 3.97359
12.8597 59.1075 2
14.4969 57.704 0.0380203
10.9835 64.0165 4
12.6804 62.2924 2
14.2712 60.6688 0.0321181
12.7745 65.694 2
14.3361 63.8551 0.0210069
14.6715 67.2507 0
16.5192 18.7175 3.96188
17.7127 17.2067 2
16.1207 15.8215 3.96643
18.9551 15.8312 0.0237636
17.5254 14.4124 2
16.0273 12.8363 3.97122
18.9898 13.1454 0.0264334
17.6411 11.4733 2
16.2052 9.66481 3.98308
19.3463 10.2465 0.0246204
18.0491 8.34485 2
16.6661 6.31991 4
18.75 5.02404 2
19.9937 7.14749 0.0121113
20.9142 3.86727 0
28.4367 34.847 3.89886
29.9597 35.1688 2
31.4988 35.6377 0.328882
16.9143 21.4706 3.96713
21.8281 17.935 0.0219194
19.3426 18.4789 0.0432866
20.9983 19.4707 2
18.1744 20.0311 2
19.9954 21.6896 3.97103
22.4247 20.0038 0.0289478
24.754 21.5183 0.0133439
22.5914 21.8549 2
25.0183 23.2574 2
23.3062 24.7312 3.97188
25.294 28.6669 3.98388
25.9825 26.0719 2
26.7506 23.817 0.0183625
27.1564 31.8659 3.98218
29.2676 32.4848 2
30.9125 33.1598 0.153309
30.7356 29.7962 0.0750626
27.7564 29.2478 2
28.3872 26.6905 0.00339658
25.7376 36.8494 3.97029
27.8937 37.3645 2
29.5659 37.4948 0.148902
28.0854 44.6731 0.0303698
27.7729 40.5279 0.0677701
26.1483 43.0551 2
25.0174 39.4451 2
23.925 41.7811 3.98236
22.7614 38.5237 3.97967
24.7972 44.9805 0.0214561
22.7089 43.7653 2
20.5081 42.7817 3.97536
21.5629 45.7253 0.0222527
19.6293 44.8314 2
17.5321 44.271 3.97568
18.8607 46.593 0.023371
17.1249 46.0914 2
15.2731 45.9931 3.97593
16.7671 47.5932 0.0236074
15.3117 47.568 2
13.6061 47.9314 3.97562
15.5456 48.9151 0.0243735
14.0774 49.4649 2
12.3128 50.1959 3.97094
14.7663 50.8991 0.0279278
13.0829 51.8122 2
11.2304 52.8038 3.965
10.3365 55.7035 3.96451
12.2336 54.4899 2
14.0112 53.3676 0.0334512
9.70393 58.8455 3.9733
11.5459 57.446 2
13.3277 56.1298 0.0381307
9.30605 62.2254 4
11.1359 60.6184 2
12.8577 59.108 0.0337538
10.9835 64.0165 2
12.6821 62.2971 0.0235659
12.7746 65.6939 0
15.3078 20.2563 3.96367
16.5192 18.7169 2
14.7829 17.3426 3.96343
17.7137 17.209 0.0369432
16.1221 15.8199 2
14.4906 14.3215 3.96694
17.526 14.4161 0.0312997
16.0264 12.8323 2
14.4474 11.1167 3.98082
17.643 11.4671 0.0265191
16.2008 9.67052 2
14.6715 7.74927 4
18.0541 8.34054 0.0140921
16.6661 6.31988 2
18.75 5.0241 0
26.3971 34.3562 3.97564
28.4192 34.8548 2
30.043 35.2028 0.146631
18.1688 22.4357 3.97394
15.8167 23.0146 3.97098
16.9165 21.4702 2
21.0063 19.4746 0.0340671
18.1762 20.0338 0.0383759
19.9933 21.6874 2
20.1108 24.5279 3.97196
22.5965 21.8493 0.0185576
25.026 23.2556 0.0283332
23.3026 24.7326 2
22.6576 27.9966 3.97176
24.7216 31.3572 3.98213
25.2994 28.658 2
25.9909 26.0662 0.0209742
27.1309 31.8274 2
29.3032 32.5061 0.101856
27.7447 29.2688 -0.0145504
23.4901 36.2929 3.98193
25.7189 36.8473 2
27.913 37.3611 0.0998841
26.1717 43.0331 0.0118114
25.042 39.4413 0.0280839
23.9042 41.7797 2
22.748 38.5193 2
21.6097 40.6007 3.97484
20.9633 37.8015 3.97701
22.7112 43.7647 0.0236686
20.5074 42.7825 2
18.0108 42.0209 3.97571
19.629 44.8309 0.0237209
17.5322 44.2713 2
15.3222 44.1136 3.97556
17.1243 46.0913 0.0237279
15.2737 45.9929 2
13.3049 46.2213 3.9759
15.3102 47.5688 0.0238394
13.6076 47.9307 2
11.7034 48.4965 3.97277
14.0757 49.4656 0.0255485
12.3143 50.1951 2
10.3615 51.0506 3.9662
13.082 51.8128 0.0311153
11.2311 52.8031 2
9.24713 53.8844 3.96445
8.38759 56.9799 3.97472
10.3395 55.7021 2
12.2327 54.4903 0.0365861
7.74927 60.3285 4
9.70296 58.8414 2
11.5446 57.4463 0.0345143
9.306 62.2255 2
11.1371 60.6225 0.0264104
10.9835 64.0165 0
14.1413 21.8196 3.96704
15.3056 20.2554 2
13.5111 18.9396 3.96303
16.5192 18.7175 0.0381237
14.7845 17.3417 2
13.0353 15.9074 3.96941
16.1207 15.8215 0.0335652
14.4917 14.3199 2
12.7852 12.6926 3.97778
16.0273 12.8363 0.0287846
14.4444 11.1235 2
12.7746 9.30605 4
16.2052 9.66481 0.0169172
14.6715 7.74924 2
16.6661 6.31991 0
24.0714 33.8805 3.98117
26.3766 34.3541 2
28.4367 34.847 0.10114
18.0417 24.1685 3.9724
18.1755 22.4359 2
14.6518 24.5443 3.97304
15.8192 23.0147 2
16.9143 21.4706 0.0328679
19.6408 27.3665 3.97425
19.9954 21.6896 0.0289685
20.1053 24.5269 2
22.0305 30.8237 3.97455
23.3062 24.7312 0.0281226
22.657 27.9992 2
24.6892 31.3525 2
25.294 28.6669 0.0161154
27.1564 31.8659 0.017821
21.086 35.9662 3.97648
23.4899 36.2942 2
25.7376 36.8494 0.0297141
23.925 41.7811 0.0176412
22.7614 38.5237 0.0203268
21.6137 40.6023 2
20.9631 37.7996 2
18.7718 38.9867 3.97703
20.5081 42.7817 0.0246404
18.0103 42.0212 2
15.3074 41.8628 3.97602
17.5321 44.271 0.0243177
15.3219 44.1136 2
13.0703 44.3277 3.97594
15.2731 45.9931 0.0240748
13.3064 46.2207 2
11.2181 46.6857 3.97451
13.6061 47.9314 0.0243812
11.7052 48.4957 2
9.63179 49.2131 3.96731
12.3128 50.1959 0.029059
10.362 51.0499 2
8.27926 51.999 3.96437
11.2304 52.8038 0.0350048
9.24894 53.8829 2
7.19659 55.0317 3.97569
6.31991 58.3339 4
8.38658 56.9761 2
10.3365 55.7035 0.0354862
7.74924 60.3285 2
9.70393 58.8455 0.0267001
9.30605 62.2254 0
13.5161 25.4395 3.9759
13.0439 23.3467 3.97007
14.1403 21.8191 2
12.3235 20.5878 3.96375
15.3078 20.2563 0.036334
13.5126 18.939 2
11.6683 17.5808 3.96764
14.7829 17.3426 0.0365709
13.0381 15.9067 2
11.2235 14.3784 3.97434
14.4906 14.3215 0.0330559
12.7829 12.6982 2
10.9835 10.9835 4
14.4474 11.1167 0.0191806
12.7745 9.306 2
14.6715 7.74927 0
21.4342 33.4941 3.97628
24.0748 33.8666 2
26.3971 34.3562 0.0243626
16.3712 26.5218 3.97398
18.0454 24.1686 2
18.1688 22.4357 0.0260593
14.6515 24.5444 2
15.8167 23.0146 0.0290159
19.0428 30.3182 3.97469
19.6409 27.3668 2
20.1108 24.5279 0.0280435
22.0472 30.825 2
22.6576 27.9966 0.0282414
24.7216 31.3572 0.0178705
18.3789 35.9987 3.97761
21.0882 35.9658 2
23.4901 36.2929 0.0180666
21.6097 40.6007 0.0251553
20.9633 37.8015 0.0229927
18.7698 38.9862 2
14.8038 39.1596 3.977
18.0108 42.0209 0.0242929
15.3067 41.8625 2
12.7663 42.2348 3.97628
15.3222 44.1136 0.0244361
13.0712 44.3273 2
10.8055 44.7613 3.9761
13.3049 46.2213 0.0240965
11.2206 46.6848 2
9.01843 47.2952 3.96841
11.7034 48.4965 0.0272317
9.63229 49.2124 2
7.44403 50.0331 3.96438
10.3615 51.0506 0.0338014
8.27933 51.9977 2
6.1372 53.0074 3.97595
9.24713 53.8844 0.035551
7.19601 55.0284 2
5.0241 56.25 4
6.31988 58.3339 2
8.38759 56.9799 0.0252834
7.74927 60.3285 0
13.7957 26.8964 3.97545
12.1541 24.846 3.97282
13.5154 25.4396 2
11.2521 22.2713 3.96575
13.0444 23.3468 2
14.1413 21.8196 0.0329617
12.3248 20.5877 2
10.401 19.3292 3.96566
13.5111 18.9396 0.0369711
11.6709 17.5808 2
9.76424 16.1615 3.9737
13.0353 15.9074 0.0305918
11.2219 14.384 2
9.30607 12.7746 4
12.7852 12.6926 0.0222162
10.9835 10.9835 2
12.7746 9.30605 0
18.5371 33.1874 3.9761
21.4333 33.4974 2
24.0714 33.8805 0.0188313
15.994 29.7495 3.97556
16.3705 26.5218 2
18.0417 24.1685 0.0276013
14.6518 24.5443 0.0269582
19.0411 30.3184 2
19.6408 27.3665 0.025753
22.0305 30.8237 0.0254507
15.4379 36.0367 3.97725
18.3782 35.9992 2
21.086 35.9662 0.0235165
12.9964 37.8287 3.977
18.7718 38.9867 0.0229687
14.8032 39.1595 2
12.2671 40.1184 3.97666
15.3074 41.8628 0.0239763
12.7669 42.2344 2
10.4086 42.7464 3.97648
13.0703 44.3277 0.0240637
10.8078 44.7605 2
8.49786 45.3012 3.96929
11.2181 46.6857 0.0254912
9.01922 47.2947 2
6.73405 47.9986 3.96448
9.63179 49.2131 0.0326895
7.44369 50.0321 2
5.21381 50.9109 3.97564
8.27926 51.999 0.0356342
6.13702 53.0051 2
3.86727 54.0858 4
7.19659 55.0317 0.0243097
5.02404 56.25 2
6.31991 58.3339 0
13.279 29.1068 3.97511
11.6003 26.5412 3.97373
13.795 26.8965 2
10.3073 23.9985 3.96749
12.1563 24.8466 2
13.5161 25.4395 0.0241042
9.2574 21.144 3.96523
11.2534 22.2714 2
13.0439 23.3467 0.0299299
12.3235 20.5878 0.0362519
10.4046 19.3294 2
8.42034 18.0317 3.97406
11.6683 17.5808 0.0323609
9.76322 16.1667 2
7.74928 14.6715 4
11.2235 14.3784 0.02566
9.30602 12.7745 2
10.9835 10.9835 0
14.9823 32.9214 3.97634
18.5358 33.1866 2
21.4342 33.4941 0.0237207
15.9945 29.7497 2
16.3712 26.5218 0.0260166
19.0428 30.3182 0.0253098
13.2972 36.2212 3.97675
15.4372 36.0366 2
18.3789 35.9987 0.0223927
12.9964 37.8286 2
11.5947 38.3047 3.97701
14.8038 39.1596 0.0230021
12.2682 40.1183 2
9.98664 40.7357 3.97665
12.7663 42.2348 0.0237156
10.412 42.7454 2
8.04342 43.2551 3.9702
10.8055 44.7613 0.0239041
8.50022 45.3005 2
6.13948 45.9038 3.96507
9.01843 47.2952 0.0315881
6.73445 47.9976 2
4.42511 48.7514 3.97523
7.44403 50.0331 0.0356225
5.21395 50.9095 2
2.85457 51.8506 4
6.1372 53.0074 0.02405
3.86727 54.0858 2
5.0241 56.25 0
12.4094 31.3074 3.9761
11.0114 28.4607 3.97485
13.2793 29.107 2
9.52281 25.8245 3.96849
11.6024 26.5418 2
13.7957 26.8964 0.0245467
8.2442 23.0263 3.96509
10.3084 23.999 2
12.1541 24.846 0.0271839
7.20256 19.9801 3.97548
9.26398 21.1457 2
11.2521 22.2713 0.034253
10.401 19.3292 0.0343409
8.41977 18.036 2
6.31992 16.6661 4
9.76424 16.1615 0.0262957
7.74926 14.6714 2
9.30607 12.7746 0
12.4474 34.3239 3.97648
14.9818 32.922 2
18.5371 33.1874 0.0238999
15.994 29.7495 0.0244389
11.1312 36.6191 3.97676
13.2971 36.2212 2
15.4379 36.0367 0.0227454
12.9964 37.8287 0.0229963
11.5962 38.3043 2
9.5672 38.8169 3.97687
12.2671 40.1184 0.0233367
9.98971 40.7351 2
7.64843 41.2019 3.97106
10.4086 42.7464 0.0235157
8.04408 43.2547 2
5.65061 43.7669 3.96592
8.49786 45.3012 0.0307149
6.13976 45.903 2
3.7704 46.5368 3.97542
6.73405 47.9986 0.0355157
4.42544 48.7506 2
1.99014 49.554 4
5.21381 50.9109 0.0243624
2.85451 51.8506 2
3.86727 54.0858 0
11.2199 32.9535 3.97666
10.3162 30.4177 3.97555
12.4101 31.308 2
8.83096 27.7544 3.96874
11.0136 28.4613 2
13.279 29.1068 0.0248929
7.3662 24.9838 3.96494
9.52366 25.825 2
11.6003 26.5412 0.0262717
6.11947 22.0022 3.97625
8.24578 23.0274 2
10.3073 23.9985 0.0325104
5.02411 18.75 4
7.20199 19.9834 2
9.2574 21.144 0.0347747
8.42034 18.0317 0.0259425
6.3199 16.6661 2
7.74928 14.6715 0
10.7175 35.0164 3.97666
12.4473 34.3242 2
14.9823 32.9214 0.0236645
9.2248 36.9877 3.97695
11.133 36.6191 2
13.2972 36.2212 0.0232519
11.5947 38.3047 0.0229872
9.57046 38.8166 2
7.32301 39.1779 3.97139
9.98664 40.7357 0.0233465
7.64993 41.2016 2
5.26542 41.6129 3.96637
8.04342 43.2551 0.0298002
5.65092 43.7662 2
3.24781 44.2815 3.97611
6.13948 45.9038 0.0349318
3.77078 46.5362 2
1.27781 47.2057 4
4.42511 48.7514 0.024772
1.99012 49.554 2
2.85457 51.8506 0
10.3523 33.9036 3.97654
9.59434 32.1796 3.97633
11.2219 32.9541 2
8.17164 29.713 3.96926
10.3187 30.4184 2
12.4094 31.3074 0.0238996
6.6074 27.0093 3.96491
8.83209 27.7548 2
11.0114 28.4607 0.025147
5.17463 24.0945 3.97608
7.36581 24.9846 2
9.52281 25.8245 0.0315103
3.86728 20.9142 4
6.11936 22.0045 2
8.2442 23.0263 0.0349122
5.02406 18.75 2
7.20256 19.9801 0.0245179
6.31992 16.6661 0
9.03861 35.2896 3.97717
10.7196 35.0166 2
12.4474 34.3239 0.023523
7.0995 37.2063 3.97121
9.22814 36.9878 2
11.1312 36.6191 0.0232408
9.5672 38.8169 0.023133
7.32491 39.1777 2
4.99264 39.4668 3.96694
7.64843 41.2019 0.0289404
5.26616 41.6125 2
2.8581 42.0017 3.97645
5.65061 43.7669 0.0340783
3.24805 44.281 2
0.720592 44.8159 4
3.7704 46.5368 0.0245814
1.27778 47.2057 2
1.99014 49.554 0
9.07886 33.7146 3.97716
10.3552 33.904 2
7.60111 31.6218 3.96997
9.59752 32.1803 2
11.2199 32.9535 0.0233391
5.95152 29.0704 3.96541
8.17268 29.7134 2
10.3162 30.4177 0.0244463
4.36201 26.2471 3.97569
6.60752 27.0099 2
8.83096 27.7544 0.0312573
2.85458 23.1494 4
5.17488 24.0957 2
7.3662 24.9838 0.03506
3.86728 20.9142 2
6.11947 22.0022 0.0237534
5.02411 18.75 0
7.04713 35.3105 3.97088
9.0422 35.29 2
10.7175 35.0164 0.0233397
4.84276 37.3398 3.96728
7.10178 37.2062 2
9.2248 36.9877 0.0230549
7.32301 39.1779 0.028613
4.99338 39.4666 2
2.60598 39.7134 3.97684
5.26542 41.6129 0.033627
2.85867 42.0015 2
0.320823 42.3947 4
3.24781 44.2815 0.0238872
0.720551 44.8159 2
1.27781 47.2057 0
7.21047 33.4693 3.97043
9.08239 33.7151 2
10.3523 33.9036 0.0234628
5.42178 31.1344 3.96612
7.60264 31.6221 2
9.59434 32.1796 0.0236727
3.68335 28.4433 3.97584
5.95191 29.0711 2
8.17164 29.713 0.0307368
1.99015 25.446 4
4.36238 26.2476 2
6.6074 27.0093 0.0350901
2.85453 23.1494 2
5.17463 24.0945 0.0239218
3.86728 20.9142 0
4.85711 35.252 3.96709
7.04871 35.3105 2
9.03861 35.2896 0.0228292
2.49742 37.4281 3.97768
4.84296 37.3399 2
7.0995 37.2063 0.0287888
4.99264 39.4668 0.0330592
2.60667 39.7137 2
0.080333 39.9526 4
2.8581 42.0017 0.0235502
0.320817 42.3947 2
0.720592 44.8159 0
5.05063 33.1909 3.96678
7.21218 33.4695 2
9.07886 33.7146 0.0228416
3.14738 30.6662 3.97633
5.42214 31.135 2
7.60111 31.6218 0.0300331
1.27793 27.7943 4
3.68376 28.4437 2
5.95152 29.0704 0.034587
1.99013 25.446 2
4.36201 26.2471 0.0243114
2.85458 23.1494 0
2.54953 35.1588 3.97737
4.85793 35.2524 2
7.04713 35.3105 0.029117
0 37.5 4
2.4976 37.4285 2
4.84276 37.3398 0.0327184
2.60598 39.7134 0.0231557
0.0802903 39.9526 2
0.320823 42.3947 0
2.76723 32.9057 3.97738
5.05096 33.1914 2
7.21047 33.4693 0.0295673
0.721173 30.1842 4
3.14784 30.6667 2
5.42178 31.1344 0.0338839
1.27779 27.7943 2
3.68335 28.4433 0.0241642
1.99015 25.446 0
0.0806499 35.0474 4
2.55029 35.1593 2
4.85711 35.252 0.0329094
0 37.5 2
2.49742 37.4281 0.0223177
0.080333 39.9526 0
0.32156 32.6054 4
2.76747 32.9064 2
5.05063 33.1909 0.033219
0.72056 30.1841 2
3.14738 30.6662 0.0236667
1.27793 27.7943 0
0.0802889 35.0474 2
2.54953 35.1588 0.0226317
0 37.5 0
0.320817 32.6053 2
2.76723 32.9057 0.0226219
0.721173 30.1842 0
0.0806499 35.0474 0
0.32156 32.6054 0
CELLS 1910 17190
8 18 6 25 56 2 0 5 16
8 57 23 6 18 17 4 0 2
8 78 36 9 29 31 11 1 7
8 31 11 1 7 79 37 10 30
8 110 57 18 50 48 17 2 14
8 50 18 56 111 14 2 16 49
8 116 62 22 55 52 20 3 15
8 56 25 67 118 16 5 24 53
8 119 63 23 57 54 21 4 17
8 55 22 63 119 15 3 21 54
8 58 26 68 121 18 6 25 56
8 122 65 26 58 57 23 6 18
8 73 31 7 27 142 79 30 71
8 143 78 29 72 73 31 7 27
8 83 147 76 34 32 74 28 8
8 84 148 78 36 33 75 29 9
8 76 34 8 28 148 84 33 75
8 37 79 150 86 10 30 77 35
8 151 87 36 78 80 38 11 31
8 80 38 11 31 152 88 37 79
8 175 100 42 94 96 44 12 40
8 44 96 176 101 12 40 95 43
8 101 176 98 46 43 95 41 13
8 46 98 178 103 13 41 97 45
8 178 103 45 97 147 83 32 74
8 189 116 55 109 106 52 15 47
8 111 56 118 191 49 16 53 107
8 192 119 57 110 108 54 17 48
8 109 55 119 192 47 15 54 108
8 194 122 58 112 110 57 18 50
8 112 58 121 195 50 18 56 111
8 115 61 19 51 197 124 59 113
8 115 61 125 198 51 19 60 114
8 198 125 62 116 114 60 20 52
8 200 127 64 120 116 62 22 55
8 118 67 132 202 53 24 66 117
8 121 68 133 203 56 25 67 118
8 120 64 128 204 55 22 63 119
8 204 128 65 122 119 63 23 57
8 206 134 68 121 123 69 26 58
8 123 69 26 58 207 131 65 122
8 226 147 74 138 140 76 28 70
8 229 148 75 139 143 78 29 72
8 140 76 28 70 229 148 75 139
8 142 79 30 71 231 150 77 141
8 144 80 31 73 232 152 79 142
8 233 151 78 143 144 80 31 73
8 150 86 35 77 235 154 81 145
8 235 154 81 145 146 82 39 91
8 146 82 39 91 236 155 90 165
8 238 157 83 147 149 85 34 76
8 239 158 84 148 151 87 36 78
8 149 85 34 76 239 158 84 148
8 152 88 37 79 241 160 86 150
8 242 161 87 151 153 89 38 80
8 153 89 38 80 243 162 88 152
8 171 98 41 92 265 178 97 169
8 265 178 97 169 226 147 74 138
8 172 96 40 93 266 176 95 170
8 266 176 95 170 171 98 41 92
8 269 175 94 173 172 96 40 93
8 271 180 99 174 175 100 42 94
8 197 124 59 113 271 180 99 174
8 272 181 100 175 177 102 44 96
8 273 182 101 176 179 104 46 98
8 177 102 44 96 273 182 101 176
8 179 104 46 98 275 184 103 178
8 275 184 103 178 238 157 83 147
8 188 115 51 105 283 197 113 186
8 188 115 198 284 105 51 114 187
8 284 198 116 189 187 114 52 106
8 286 200 120 193 189 116 55 109
8 191 118 202 288 107 53 117 190
8 195 121 203 289 111 56 118 191
8 193 120 204 290 109 55 119 192
8 290 204 122 194 192 119 57 110
8 196 123 58 112 292 207 122 194
8 293 206 121 195 196 123 58 112
8 199 126 61 115 297 211 124 197
8 298 212 127 200 198 125 62 116
8 199 126 212 298 115 61 125 198
8 205 129 64 120 300 214 127 200
8 301 217 130 201 202 132 66 117
8 209 136 168 264 301 217 130 201
8 302 219 132 202 203 133 67 118
8 303 220 133 203 206 134 68 121
8 205 129 215 304 120 64 128 204
8 304 215 131 207 204 128 65 122
8 306 221 134 206 208 135 69 123
8 208 135 69 123 307 218 131 207
8 210 137 167 263 309 223 136 209
8 328 238 147 226 230 149 76 140
8 228 146 91 166 329 236 165 260
8 231 150 77 141 330 235 145 227
8 330 235 145 227 228 146 91 166
8 332 239 148 229 233 151 78 143
8 230 149 76 140 332 239 148 229
8 232 152 79 142 334 241 150 231
8 234 153 80 144 335 243 152 232
8 336 242 151 233 234 153 80 144
8 236 155 90 165 338 245 164 259
8 241 160 86 150 339 246 154 235
8 339 246 154 235 237 156 82 146
8 237 156 82 146 340 247 155 236
8 342 249 157 238 240 159 85 149
8 343 250 158 239 242 161 87 151
8 240 159 85 149 343 250 158 239
8 243 162 88 152 345 252 160 241
8 244 163 253 346 153 89 161 242
8 244 163 89 153 347 254 162 243
8 311 224 261 371 210 137 167 263
8 263 167 262 372 209 136 168 264
8 267 179 98 171 375 275 178 265
8 375 275 178 265 328 238 147 226
8 376 273 176 266 267 179 98 171
8 268 177 96 172 376 273 176 266
8 379 272 175 269 268 177 96 172
8 380 271 174 270 269 175 94 173
8 283 197 113 186 380 271 174 270
8 381 277 180 271 272 181 100 175
8 297 211 124 197 381 277 180 271
8 382 278 181 272 274 183 102 177
8 274 183 102 177 383 279 182 273
8 383 279 182 273 276 185 104 179
8 385 281 184 275 342 249 157 238
8 276 185 104 179 385 281 184 275
8 285 199 115 188 393 297 197 283
8 394 298 200 286 284 198 116 189
8 285 199 298 394 188 115 198 284
8 291 205 120 193 396 300 200 286
8 397 301 201 287 288 202 117 190
8 295 209 264 374 397 301 201 287
8 398 302 202 288 289 203 118 191
8 399 303 203 289 293 206 121 195
8 291 205 304 400 193 120 204 290
8 400 304 207 292 290 204 122 194
8 294 208 123 196 402 307 207 292
8 403 306 206 293 294 208 123 196
8 296 210 263 373 405 309 209 295
8 408 312 213 299 297 211 126 199
8 299 213 313 409 199 126 212 298
8 409 313 214 300 298 212 127 200
8 305 216 129 205 411 315 214 300
8 412 318 217 301 302 219 132 202
8 309 223 136 209 412 318 217 301
8 413 320 219 302 303 220 133 203
8 306 221 321 414 206 134 220 303
8 307 218 131 207 415 316 215 304
8 305 216 316 415 205 129 215 304
8 417 322 221 306 308 222 135 208
8 308 222 135 208 418 319 218 307
8 310 225 137 210 420 325 223 309
8 423 326 224 311 310 225 137 210
8 329 236 165 260 441 338 259 368
8 442 342 238 328 333 240 149 230
8 331 237 146 228 443 340 236 329
8 334 241 150 231 444 339 235 330
8 444 339 235 330 331 237 146 228
8 446 343 239 332 336 242 151 233
8 333 240 149 230 446 343 239 332
8 335 243 152 232 448 345 241 334
8 337 244 153 234 449 347 243 335
8 337 244 346 450 234 153 242 336
8 338 245 164 259 452 349 258 367
8 340 247 155 236 453 350 245 338
8 345 252 160 241 454 351 246 339
8 454 351 246 339 341 248 156 237
8 341 248 156 237 455 352 247 340
8 240 159 251 344 342 249 354 457
8 242 161 253 346 343 250 355 458
8 343 250 355 458 240 159 251 344
8 347 254 162 243 460 357 252 345
8 348 255 358 461 244 163 253 346
8 348 255 163 244 462 359 254 347
8 473 360 257 365 363 256 364 482
8 452 349 258 367 365 257 366 485
8 422 324 369 488 311 224 261 371
8 371 261 370 490 263 167 262 372
8 407 311 371 491 296 210 263 373
8 373 263 372 492 295 209 264 374
8 493 385 275 375 442 342 238 328
8 377 276 179 267 493 385 275 375
8 378 274 177 268 494 383 273 376
8 494 383 273 376 377 276 179 267
8 497 382 272 379 378 274 177 268
8 498 381 271 380 379 272 175 269
8 393 297 197 283 498 381 271 380
8 499 387 277 381 382 278 181 272
8 408 312 211 297 499 387 277 381
8 500 388 278 382 384 280 183 274
8 501 389 279 383 386 282 185 276
8 384 280 183 274 501 389 279 383
8 386 282 185 276 503 391 281 385
8 503 391 281 385 457 354 249 342
8 511 408 299 395 393 297 199 285
8 395 299 409 512 285 199 298 394
8 512 409 300 396 394 298 200 286
8 401 305 205 291 514 411 300 396
8 515 412 301 397 398 302 202 288
8 405 309 209 295 515 412 301 397
8 516 413 302 398 399 303 203 289
8 403 306 414 517 293 206 303 399
8 402 307 207 292 518 415 304 400
8 401 305 415 518 291 205 304 400
8 404 308 208 294 520 418 307 402
8 521 417 306 403 404 308 208 294
8 406 310 210 296 523 420 309 405
8 526 423 311 407 406 310 210 296
8 410 314 213 299 527 424 312 408
8 528 425 315 411 409 313 214 300
8 410 314 425 528 299 213 313 409
8 416 317 216 305 530 427 315 411
8 531 430 318 412 413 320 219 302
8 420 325 223 309 531 430 318 412
8 532 432 320 413 414 321 220 303
8 417 322 433 533 306 221 321 414
8 418 319 218 307 534 428 316 415
8 416 317 428 534 305 216 316 415
8 419 323 434 536 308 222 322 417
8 419 323 222 308 537 431 319 418
8 421 327 225 310 539 438 325 420
8 421 327 439 541 310 225 326 423
8 543 437 324 422 423 326 224 311
8 441 338 259 368 559 452 367 486
8 443 340 236 329 560 453 338 441
8 333 240 344 447 442 342 457 561
8 445 341 237 331 562 455 340 443
8 448 345 241 334 563 454 339 444
8 563 454 339 444 445 341 237 331
8 336 242 346 450 446 343 458 565
8 446 343 458 565 333 240 344 447
8 449 347 243 335 567 460 345 448
8 451 348 244 337 568 462 347 449
8 451 348 461 569 337 244 346 450
8 570 463 349 452 473 360 257 365
8 453 350 245 338 570 463 349 452
8 455 352 247 340 571 464 350 453
8 460 357 252 345 572 465 351 454
8 572 465 351 454 456 353 248 341
8 456 353 248 341 573 466 352 455
8 344 251 356 459 457 354 468 575
8 458 355 469 576 344 251 356 459
8 346 253 358 461 458 355 469 576
8 462 359 254 347 578 471 357 460
8 348 255 359 462 461 358 472 579
8 591 474 360 473 475 361 256 363
8 475 361 256 363 594 477 362 479
8 363 256 364 482 479 362 480 603
8 590 473 365 484 481 363 482 605
8 482 364 257 365 606 483 366 485
8 559 452 367 486 484 365 485 607
8 542 436 487 609 422 324 369 488
8 525 422 488 611 407 311 371 491
8 488 369 489 612 371 261 370 490
8 491 371 490 613 373 263 372 492
8 495 386 276 377 614 503 385 493
8 614 503 385 493 561 457 342 442
8 615 501 383 494 495 386 276 377
8 496 384 274 378 615 501 383 494
8 618 500 382 497 496 384 274 378
8 619 499 381 498 497 382 272 379
8 511 408 297 393 619 499 381 498
8 620 505 387 499 500 388 278 382
8 527 424 312 408 620 505 387 499
8 502 390 506 621 384 280 388 500
8 622 507 389 501 504 392 282 386
8 502 390 280 384 622 507 389 501
8 504 392 282 386 624 509 391 503
8 624 509 391 503 575 468 354 457
8 513 410 299 395 630 527 408 511
8 631 528 411 514 512 409 300 396
8 513 410 528 631 395 299 409 512
8 519 416 305 401 633 530 411 514
8 634 531 412 515 516 413 302 398
8 523 420 309 405 634 531 412 515
8 635 532 413 516 517 414 303 399
8 521 417 533 636 403 306 414 517
8 520 418 307 402 637 534 415 518
8 519 416 534 637 401 305 415 518
8 522 419 308 404 639 537 418 520
8 522 419 536 640 404 308 417 521
8 524 421 310 406 642 539 420 523
8 524 421 541 644 406 310 423 526
8 646 543 422 525 526 423 311 407
8 529 426 314 410 647 544 424 527
8 528 425 545 648 411 315 427 530
8 529 426 545 648 410 314 425 528
8 535 429 317 416 649 546 427 530
8 650 548 430 531 532 432 320 413
8 539 438 325 420 650 548 430 531
8 533 433 550 651 414 321 432 532
8 536 434 551 652 417 322 433 533
8 537 431 319 418 653 547 428 534
8 535 429 547 653 416 317 428 534
8 538 435 552 654 419 323 434 536
8 538 435 323 419 655 549 431 537
8 540 440 327 421 657 556 438 539
8 540 440 557 659 421 327 439 541
8 541 439 555 660 423 326 437 543
8 661 554 436 542 543 437 324 422
8 676 570 452 559 590 473 365 484
8 560 453 338 441 676 570 452 559
8 562 455 340 443 677 571 453 560
8 447 344 459 566 561 457 575 678
8 564 456 341 445 679 573 455 562
8 567 460 345 448 680 572 454 563
8 680 572 454 563 564 456 341 445
8 565 458 576 682 447 344 459 566
8 450 346 461 569 565 458 576 682
8 568 462 347 449 684 578 460 567
8 451 348 462 568 569 461 579 685
8 686 580 463 570 591 474 360 473
8 571 464 350 453 686 580 463 570
8 573 466 352 455 687 581 464 571
8 572 465 582 688 460 357 471 578
8 574 467 582 688 456 353 465 572
8 574 467 353 456 689 583 466 573
8 459 356 470 577 575 468 585 691
8 576 469 586 692 459 356 470 577
8 461 358 472 579 576 469 586 692
8 462 359 471 578 579 472 588 694
8 704 591 473 590 593 475 363 481
8 595 476 592 705 475 361 474 591
8 593 475 363 481 707 594 479 602
8 594 477 362 479 709 598 478 600
8 595 476 361 475 711 597 477 594
8 479 362 480 603 600 478 601 720
8 481 363 482 605 602 479 603 722
8 603 480 364 482 723 604 483 606
8 605 482 365 484 724 606 485 607
8 656 553 608 726 542 436 487 609
8 645 542 609 728 525 422 488 611
8 609 487 610 729 488 369 489 612
8 611 488 612 730 491 371 490 613
8 616 504 386 495 731 624 503 614
8 731 624 503 614 678 575 457 561
8 732 622 501 615 616 504 386 495
8 617 502 384 496 732 622 501 615
8 617 502 621 735 496 384 500 618
8 736 620 499 619 618 500 382 497
8 630 527 408 511 736 620 499 619
8 621 506 626 737 500 388 505 620
8 647 544 424 527 737 626 505 620
8 623 508 627 738 502 390 506 621
8 623 508 390 502 739 628 507 622
8 625 510 628 739 504 392 507 622
8 740 629 509 624 691 585 468 575
8 625 510 392 504 740 629 509 624
8 632 529 410 513 744 647 527 630
8 631 528 648 745 514 411 530 633
8 632 529 648 745 513 410 528 631
8 638 535 416 519 746 649 530 633
8 747 650 531 634 635 532 413 516
8 642 539 420 523 747 650 531 634
8 636 533 651 748 517 414 532 635
8 640 536 652 749 521 417 533 636
8 639 537 418 520 750 653 534 637
8 638 535 653 750 519 416 534 637
8 641 538 419 522 751 655 537 639
8 641 538 654 752 522 419 536 640
8 643 540 421 524 753 657 539 642
8 643 540 659 755 524 421 541 644
8 644 541 660 757 526 423 543 646
8 758 661 542 645 646 543 422 525
8 529 426 544 647 648 545 662 759
8 530 427 545 648 649 546 663 760
8 535 429 546 649 653 547 664 761
8 762 666 548 650 651 550 432 532
8 657 556 438 539 762 666 548 650
8 652 551 668 763 533 433 550 651
8 654 552 669 764 536 434 551 652
8 655 549 431 537 765 665 547 653
8 538 435 549 655 654 552 667 766
8 661 554 671 768 542 436 553 656
8 658 558 440 540 769 674 556 657
8 658 558 675 770 540 440 557 659
8 659 557 673 771 541 439 555 660
8 660 555 672 772 543 437 554 661
8 788 686 570 676 704 591 473 590
8 677 571 453 560 788 686 570 676
8 679 573 455 562 789 687 571 677
8 566 459 577 683 678 575 691 790
8 681 574 456 564 791 689 573 679
8 680 572 688 792 567 460 578 684
8 681 574 688 792 564 456 572 680
8 682 576 692 794 566 459 577 683
8 569 461 579 685 682 576 692 794
8 568 462 578 684 685 579 694 796
8 687 581 464 571 798 696 580 686
8 798 696 580 686 705 592 474 591
8 689 583 466 573 799 697 581 687
8 688 582 698 800 578 471 588 694
8 690 584 698 800 574 467 582 688
8 690 584 467 574 801 699 583 689
8 693 587 701 803 577 470 585 691
8 693 587 470 577 804 702 586 692
8 695 589 702 804 579 472 586 692
8 695 589 472 579 805 703 588 694
8 708 595 705 813 593 475 591 704
8 710 596 706 814 595 476 592 705
8 707 594 479 602 816 709 600 719
8 708 595 475 593 817 711 594 707
8 709 598 478 600 819 715 599 717
8 711 597 477 594 820 714 598 709
8 710 596 476 595 822 713 597 711
8 600 478 601 720 717 599 718 832
8 602 479 603 722 719 600 720 834
8 720 601 480 603 835 721 604 723
8 722 603 482 605 836 723 606 724
8 767 670 725 839 656 553 608 726
8 756 656 726 841 645 542 609 728
8 726 608 727 842 609 487 610 729
8 728 609 729 843 611 488 612 730
8 844 740 624 731 790 691 575 678
8 733 625 504 616 844 740 624 731
8 734 623 502 617 845 739 622 732
8 733 625 739 845 616 504 622 732
8 734 623 738 846 617 502 621 735
8 735 621 737 847 618 500 620 736
8 744 647 527 630 847 737 620 736
8 621 506 627 738 737 626 741 848
8 647 544 626 737 759 662 741 848
8 623 508 628 739 738 627 742 849
8 740 629 585 691 850 743 700 802
8 625 510 629 740 739 628 743 850
8 632 529 647 744 745 648 759 854
8 633 530 648 745 746 649 760 855
8 638 535 649 746 750 653 761 856
8 857 762 650 747 748 651 532 635
8 753 657 539 642 857 762 650 747
8 749 652 763 858 636 533 651 748
8 752 654 764 859 640 536 652 749
8 751 655 537 639 860 765 653 750
8 641 538 655 751 752 654 766 861
8 754 658 540 643 862 769 657 753
8 754 658 770 863 643 540 659 755
8 755 659 771 864 644 541 660 757
8 758 661 768 866 645 542 656 756
8 757 660 772 867 646 543 661 758
8 759 662 773 868 648 545 663 760
8 649 546 663 760 761 664 774 871
8 765 665 547 653 872 775 664 761
8 873 777 666 762 763 668 550 651
8 769 674 556 657 873 777 666 762
8 764 669 779 874 652 551 668 763
8 654 552 667 766 764 669 778 875
8 655 549 665 765 766 667 776 876
8 768 671 782 877 656 553 670 767
8 772 672 783 878 661 554 671 768
8 658 558 674 769 770 675 786 879
8 659 557 675 770 771 673 785 881
8 882 784 672 772 771 673 555 660
8 789 687 571 677 897 798 686 788
8 897 798 686 788 813 705 591 704
8 791 689 573 679 898 799 687 789
8 795 693 803 900 683 577 691 790
8 793 690 574 681 901 801 689 791
8 792 688 800 902 684 578 694 796
8 793 690 800 902 681 574 688 792
8 795 693 577 683 903 804 692 794
8 797 695 804 903 685 579 692 794
8 797 695 579 685 904 805 694 796
8 905 806 697 799 798 696 581 687
8 814 706 806 905 705 592 696 798
8 689 583 697 799 801 699 808 907
8 800 698 809 908 694 588 703 805
8 690 584 699 801 800 698 809 908
8 803 701 810 909 691 585 700 802
8 693 587 702 804 803 701 811 910
8 695 589 703 805 804 702 812 911
8 818 710 814 919 708 595 705 813
8 821 712 815 920 710 596 706 814
8 816 709 600 719 922 819 717 831
8 817 711 594 707 923 820 709 816
8 818 710 595 708 924 822 711 817
8 819 715 599 717 926 827 716 829
8 820 714 598 709 927 826 715 819
8 929 825 713 822 820 714 597 711
8 821 712 596 710 930 824 713 822
8 717 599 718 832 829 716 830 942
8 719 600 720 834 831 717 832 944
8 832 718 601 720 945 833 721 835
8 834 720 603 722 946 835 723 836
8 869 780 838 950 767 670 725 839
8 865 767 839 952 756 656 726 841
8 839 725 840 953 726 608 727 842
8 841 726 842 954 728 609 729 843
8 844 740 691 790 955 850 802 899
8 733 625 740 844 845 739 850 955
8 734 623 739 845 846 738 849 956
8 735 621 738 846 847 737 848 957
8 744 647 737 847 854 759 848 957
8 738 627 742 849 848 741 851 958
8 848 741 851 958 759 662 773 868
8 850 743 700 802 959 852 807 906
8 849 742 628 739 959 852 743 850
8 854 759 868 965 745 648 760 855
8 746 649 760 855 856 761 871 966
8 860 765 653 750 967 872 761 856
8 968 873 762 857 858 763 651 748
8 862 769 657 753 968 873 762 857
8 859 764 874 969 749 652 763 858
8 752 654 766 861 859 764 875 970
8 751 655 765 860 861 766 876 971
8 754 658 769 862 863 770 879 972
8 755 659 770 863 864 771 881 974
8 976 882 772 867 864 771 660 757
8 866 768 877 977 756 656 767 865
8 867 772 878 978 758 661 768 866
8 760 663 773 868 871 774 883 980
8 870 781 837 948 982 890 780 869
8 982 890 780 869 877 782 670 767
8 761 664 774 871 872 775 884 984
8 876 776 665 765 985 885 775 872
8 873 777 668 763 986 887 779 874
8 769 674 777 873 879 786 887 986
8 764 669 778 875 874 779 888 987
8 766 667 776 876 875 778 886 988
8 878 783 892 989 768 671 782 877
8 878 783 672 772 990 893 784 882
8 880 787 675 770 991 896 786 879
8 880 787 895 992 770 675 785 881
8 881 785 894 993 771 673 784 882
8 1006 905 799 898 897 798 687 789
8 919 814 905 1006 813 705 798 897
8 791 689 799 898 901 801 907 1007
8 900 803 909 1009 790 691 802 899
8 795 693 804 903 900 803 910 1010
8 902 800 908 1011 796 694 805 904
8 793 690 801 901 902 800 908 1011
8 797 695 805 904 903 804 911 1012
8 799 697 806 905 907 808 912 1013
8 920 815 912 1013 814 706 806 905
8 802 700 810 909 906 807 913 1014
8 801 699 808 907 908 809 914 1015
8 805 703 809 908 911 812 915 1016
8 803 701 811 910 909 810 916 1017
8 911 812 917 1018 804 702 811 910
8 925 821 920 1030 818 710 814 919
8 928 823 921 1031 821 712 815 920
8 922 819 717 831 1033 926 829 941
8 923 820 709 816 1034 927 819 922
8 1035 929 822 924 923 820 711 817
8 925 821 710 818 1036 930 822 924
8 1038 933 825 929 927 826 714 820
8 926 827 716 829 1039 935 828 939
8 927 826 715 819 1040 934 827 926
8 928 823 712 821 1041 931 824 930
8 1042 932 824 930 929 825 713 822
8 829 716 830 942 939 828 940 1058
8 831 717 832 944 941 829 942 1060
8 942 830 718 832 1061 943 833 945
8 944 832 720 834 1062 945 835 946
8 981 889 947 1064 870 781 837 948
8 948 837 949 1067 869 780 838 950
8 975 869 950 1069 865 767 839 952
8 950 838 951 1070 839 725 840 953
8 952 839 953 1071 841 726 842 954
8 955 850 802 899 1072 959 906 1008
8 956 849 739 845 1072 959 850 955
8 846 738 849 956 957 848 958 1073
8 957 848 958 1073 854 759 868 965
8 849 742 852 959 958 851 961 1076
8 960 853 961 1076 906 807 852 959
8 958 851 961 1076 868 773 883 980
8 960 853 807 906 1077 963 913 1014
8 855 760 868 965 966 871 980 1085
8 856 761 871 966 967 872 984 1086
8 971 876 765 860 1087 985 872 967
8 968 873 763 858 1088 986 874 969
8 862 769 873 968 972 879 986 1088
8 859 764 875 970 969 874 987 1089
8 861 766 876 971 970 875 988 1090
8 973 880 770 863 1091 991 879 972
8 973 880 992 1092 863 770 881 974
8 974 881 993 1093 864 771 882 976
8 979 870 948 1066 1094 982 869 975
8 1094 982 869 975 977 877 767 865
8 978 878 772 867 1095 990 882 976
8 978 878 989 1096 866 768 877 977
8 871 774 883 980 984 884 994 1099
8 983 891 999 1100 870 781 889 981
8 1101 1000 890 982 989 892 782 877
8 983 891 781 870 1101 1000 890 982
8 872 775 884 984 985 885 995 1103
8 876 776 885 985 988 886 996 1104
8 986 887 779 874 1105 998 888 987
8 879 786 887 986 991 896 998 1105
8 875 778 886 988 987 888 997 1106
8 990 893 1002 1107 878 783 892 989
8 1108 1003 893 990 993 894 784 882
8 880 787 896 991 992 895 1005 1109
8 993 894 785 881 1110 1004 895 992
8 898 799 905 1006 1007 907 1013 1120
8 1030 920 1013 1120 919 814 905 1006
8 901 801 907 1007 1011 908 1015 1121
8 899 802 909 1009 1008 906 1014 1122
8 900 803 910 1010 1009 909 1017 1123
8 1012 911 1018 1124 903 804 910 1010
8 904 805 908 1011 1012 911 1016 1125
8 1013 912 1020 1127 907 808 914 1015
8 1031 921 1020 1127 920 815 912 1013
8 1019 918 962 1075 1128 1021 913 1014
8 1128 1021 913 1014 1017 916 810 909
8 1015 914 1022 1129 908 809 915 1016
8 1016 915 1023 1130 911 812 917 1018
8 1018 917 1024 1131 910 811 916 1017
8 1037 928 1031 1148 925 821 920 1030
8 928 823 931 1041 1031 921 1032 1149
8 1033 926 829 941 1151 1039 939 1057
8 1034 927 819 922 1152 1040 926 1033
8 1153 1038 929 1035 1034 927 820 923
8 1154 1042 930 1036 1035 929 822 924
8 1037 928 821 925 1155 1041 930 1036
8 1039 935 828 939 1156 1047 938 1055
8 1157 1043 932 1042 1038 933 825 929
8 1038 933 826 927 1158 1045 934 1040
8 1040 934 827 926 1159 1046 935 1039
8 930 824 932 1042 1041 931 1044 1160
8 1051 936 1048 1165 1175 1052 937 1053
8 1156 1047 938 1055 1053 937 1054 1178
8 939 828 940 1058 1055 938 1056 1181
8 941 829 942 1060 1057 939 1058 1183
8 942 830 943 1061 1058 940 1059 1184
8 1060 942 832 944 1185 1061 945 1062
8 1082 964 1063 1188 981 889 947 1064
8 1097 981 1064 1190 979 870 948 1066
8 1064 947 1065 1191 948 837 949 1067
8 1066 948 1067 1193 975 869 950 1069
8 1067 949 1068 1194 950 838 951 1070
8 1069 950 1070 1195 952 839 953 1071
8 956 849 959 1072 1073 958 1076 1197
8 1074 960 1076 1197 1008 906 959 1072
8 1073 958 1076 1197 965 868 980 1085
8 1074 960 906 1008 1198 1077 1014 1122
8 1133 1026 1079 1199 1019 918 962 1075
8 1077 963 913 1014 1200 1080 962 1075
8 960 853 963 1077 1076 961 1078 1201
8 980 883 961 1076 1099 994 1078 1201
8 1210 1083 964 1082 1100 999 889 981
8 966 871 980 1085 1086 984 1099 1215
8 967 872 984 1086 1087 985 1103 1216
8 971 876 985 1087 1090 988 1104 1217
8 1088 986 874 969 1218 1105 987 1089
8 972 879 986 1088 1091 991 1105 1218
8 970 875 988 1090 1089 987 1106 1219
8 973 880 991 1091 1092 992 1109 1220
8 1093 993 881 974 1221 1110 992 1092
8 1222 1108 990 1095 1093 993 882 976
8 1223 1101 982 1094 1096 989 877 977
8 1098 983 870 979 1223 1101 982 1094
8 1095 990 1107 1224 978 878 989 1096
8 1098 983 1100 1225 979 870 981 1097
8 984 884 994 1099 1103 995 1111 1227
8 1102 1001 1115 1228 983 891 999 1100
8 1101 1000 892 989 1229 1116 1002 1107
8 1102 1001 891 983 1229 1116 1000 1101
8 985 885 995 1103 1104 996 1112 1230
8 988 886 996 1104 1106 997 1113 1231
8 1105 998 888 987 1232 1114 997 1106
8 991 896 998 1105 1109 1005 1114 1232
8 1108 1003 1117 1233 990 893 1002 1107
8 1108 1003 894 993 1233 1117 1004 1110
8 992 895 1005 1109 1110 1004 1118 1234
8 1120 1013 1127 1244 1007 907 1015 1121
8 1148 1031 1127 1244 1030 920 1013 1120
8 1121 1015 1129 1245 1011 908 1016 1125
8 1126 1019 1075 1196 1246 1128 1014 1122
8 1246 1128 1014 1122 1123 1017 909 1009
8 1124 1018 1131 1247 1010 910 1017 1123
8 1125 1016 1130 1248 1012 911 1018 1124
8 1127 1020 1137 1254 1015 914 1022 1129
8 1031 921 1032 1149 1127 1020 1137 1254
8 1134 1027 918 1019 1257 1140 1021 1128
8 1257 1140 1021 1128 1131 1024 916 1017
8 1129 1022 1141 1258 1016 915 1023 1130
8 1130 1023 1142 1259 1018 917 1024 1131
8 1261 1144 1025 1132 1133 1026 1079 1199
8 1255 1138 1025 1132 1135 1028 1144 1261
8 1133 1026 918 1019 1262 1145 1027 1134
8 1136 1029 1139 1256 1263 1146 1028 1135
8 1037 928 1041 1155 1148 1031 1149 1275
8 1041 931 1044 1160 1149 1032 1150 1276
8 1151 1039 939 1057 1278 1156 1055 1180
8 1152 1040 926 1033 1279 1159 1039 1151
8 1153 1038 927 1034 1280 1158 1040 1152
8 1281 1157 1042 1154 1153 1038 929 1035
8 1036 930 1042 1154 1155 1041 1160 1282
8 1283 1164 1046 1159 1156 1047 935 1039
8 1165 1048 1164 1283 1053 937 1047 1156
8 1157 1043 933 1038 1284 1161 1045 1158
8 1157 1043 1161 1284 1042 932 1044 1160
8 1040 934 1046 1159 1158 1045 1163 1285
8 1166 1049 1167 1292 1051 936 1048 1165
8 1166 1049 936 1051 1293 1168 1050 1172
8 1051 936 1052 1175 1172 1050 1173 1306
8 1174 1051 1165 1290 1308 1175 1053 1177
8 1053 937 1054 1178 1175 1052 1176 1309
8 1278 1156 1055 1180 1177 1053 1178 1311
8 1055 938 1056 1181 1178 1054 1179 1312
8 1057 939 1058 1183 1180 1055 1181 1314
8 1058 940 1059 1184 1181 1056 1182 1315
8 1060 942 1061 1185 1183 1058 1184 1316
8 1208 1081 1187 1321 1082 964 1063 1188
8 1209 1082 1188 1322 1097 981 1064 1190
8 1188 1063 1189 1323 1064 947 1065 1191
8 1190 1064 1191 1325 1066 948 1067 1193
8 1191 1065 1192 1326 1067 949 1068 1194
8 1067 1193 1069 950 1194 1327 1195 1070
8 1250 1133 1199 1330 1126 1019 1075 1196
8 1198 1077 1014 1122 1331 1200 1075 1196
8 1074 960 1077 1198 1197 1076 1201 1332
8 1085 980 1076 1197 1215 1099 1201 1332
8 1199 1079 1203 1333 1075 962 1080 1200
8 1132 1025 1119 1243 1199 1079 1203 1333
8 1201 1078 963 1077 1334 1202 1080 1200
8 1099 994 1078 1201 1227 1111 1202 1334
8 1343 1207 1081 1208 1210 1083 964 1082
8 1214 1084 1186 1319 1343 1207 1081 1208
8 1345 1210 1082 1209 1225 1100 981 1097
8 1346 1211 1083 1210 1228 1115 999 1100
8 1086 984 1099 1215 1216 1103 1227 1352
8 1087 985 1103 1216 1217 1104 1230 1353
8 1090 988 1104 1217 1219 1106 1231 1354
8 1218 1105 987 1089 1355 1232 1106 1219
8 1091 991 1105 1218 1220 1109 1232 1355
8 1092 992 1109 1220 1221 1110 1234 1356
8 1222 1108 1233 1357 1095 990 1107 1224
8 1222 1108 993 1093 1357 1233 1110 1221
8 1223 1101 989 1096 1358 1229 1107 1224
8 1226 1102 983 1098 1358 1229 1101 1223
8 1226 1102 1228 1359 1098 983 1100 1225
8 1103 995 1111 1227 1230 1112 1235 1360
8 1107 1002 1117 1233 1229 1116 1240 1362
8 1102 1001 1116 1229 1228 1115 1240 1362
8 1104 996 1112 1230 1231 1113 1236 1363
8 1364 1237 1114 1232 1231 1113 997 1106
8 1109 1005 1114 1232 1234 1118 1238 1365
8 1110 1004 1118 1234 1233 1117 1241 1366
8 1242 1374 1255 1138 1119 1243 1132 1025
8 1244 1127 1254 1376 1121 1015 1129 1245
8 1148 1031 1149 1275 1244 1127 1254 1376
8 1245 1129 1258 1377 1125 1016 1130 1248
8 1251 1134 1019 1126 1378 1257 1128 1246
8 1378 1257 1128 1246 1247 1131 1017 1123
8 1248 1130 1259 1379 1124 1018 1131 1247
8 1261 1381 1250 1133 1132 1249 1330 1199
8 1255 1380 1252 1135 1132 1249 1381 1261
8 1250 1133 1019 1126 1382 1262 1134 1251
8 1253 1136 1256 1385 1384 1263 1135 1252
8 1254 1137 1265 1387 1129 1022 1141 1258
8 1149 1032 1150 1276 1254 1137 1265 1387
8 1028 1135 1255 1138 1139 1256 1388 1266
8 1136 1029 1147 1264 1256 1139 1267 1389
8 1390 1268 1140 1257 1259 1142 1024 1131
8 1260 1143 1027 1134 1390 1268 1140 1257
8 1258 1141 1269 1391 1130 1023 1142 1259
8 1262 1145 1027 1134 1393 1271 1143 1260
8 1261 1144 1026 1133 1394 1272 1145 1262
8 1135 1028 1144 1261 1263 1146 1272 1394
8 1136 1029 1146 1263 1264 1147 1273 1395
8 1155 1041 1160 1282 1275 1149 1276 1405
8 1276 1150 1044 1160 1406 1277 1162 1286
8 1408 1283 1159 1279 1278 1156 1039 1151
8 1290 1165 1283 1408 1177 1053 1156 1278
8 1152 1040 1159 1279 1280 1158 1285 1409
8 1281 1157 1038 1153 1410 1284 1158 1280
8 1281 1157 1284 1410 1154 1042 1160 1282
8 1159 1046 1164 1283 1285 1163 1289 1412
8 1292 1167 1289 1412 1165 1048 1164 1283
8 1158 1045 1163 1285 1284 1161 1288 1413
8 1284 1161 1288 1413 1160 1044 1162 1286
8 1291 1166 1292 1418 1174 1051 1165 1290
8 1291 1166 1051 1174 1419 1293 1172 1305
8 1294 1169 1296 1421 1166 1049 1167 1292
8 1293 1168 1050 1172 1422 1295 1171 1303
8 1294 1169 1049 1166 1423 1297 1168 1293
8 1422 1295 1171 1303 1301 1170 1302 1435
8 1172 1050 1173 1306 1303 1171 1304 1438
8 1174 1051 1175 1308 1305 1172 1306 1440
8 1175 1052 1176 1309 1306 1173 1307 1441
8 1177 1053 1178 1311 1308 1175 1309 1443
8 1178 1054 1179 1312 1309 1176 1310 1444
8 1180 1055 1181 1314 1311 1178 1312 1446
8 1056 1181 1312 1179 1182 1315 1447 1313
8 1183 1058 1184 1316 1314 1181 1315 1448
8 1319 1186 1084 1214 1451 1317 1213 1350
8 1319 1186 1318 1453 1208 1081 1187 1321
8 1321 1187 1320 1456 1188 1063 1189 1323
8 1344 1208 1321 1457 1209 1082 1188 1322
8 1322 1188 1323 1458 1190 1064 1191 1325
8 1323 1189 1324 1459 1191 1065 1192 1326
8 1191 1325 1193 1067 1326 1460 1327 1194
8 1242 1374 1243 1119 1328 1462 1335 1204
8 1330 1199 1333 1465 1196 1075 1200 1331
8 1132 1249 1330 1199 1243 1375 1465 1333
8 1332 1201 1077 1198 1466 1334 1200 1331
8 1215 1099 1201 1332 1352 1227 1334 1466
8 1119 1243 1333 1203 1204 1335 1470 1338
8 1333 1203 1338 1470 1200 1080 1202 1334
8 1227 1111 1202 1334 1360 1235 1338 1470
8 1328 1462 1335 1204 1205 1336 1471 1339
8 1337 1206 1340 1472 1464 1329 1205 1336
8 1346 1211 1342 1479 1210 1083 1207 1343
8 1346 1211 1115 1228 1479 1342 1239 1361
8 1348 1212 1084 1214 1479 1342 1207 1343
8 1480 1343 1208 1344 1345 1210 1082 1209
8 1351 1214 1319 1454 1480 1343 1208 1344
8 1481 1346 1210 1345 1359 1228 1100 1225
8 1348 1212 1347 1483 1214 1084 1213 1350
8 1216 1103 1227 1352 1353 1230 1360 1488
8 1217 1104 1230 1353 1354 1231 1363 1489
8 1490 1364 1232 1355 1354 1231 1106 1219
8 1220 1109 1232 1355 1356 1234 1365 1491
8 1221 1110 1234 1356 1357 1233 1366 1492
8 1224 1107 1233 1357 1358 1229 1362 1493
8 1226 1102 1229 1358 1359 1228 1362 1493
8 1230 1112 1235 1360 1363 1236 1367 1496
8 1361 1239 1115 1228 1497 1371 1240 1362
8 1366 1241 1372 1498 1233 1117 1240 1362
8 1364 1237 1113 1231 1499 1368 1236 1363
8 1364 1237 1368 1499 1232 1114 1238 1365
8 1234 1118 1238 1365 1366 1241 1369 1500
8 1507 1373 1242 1374 1388 1266 1138 1255
8 1508 1374 1243 1375 1380 1255 1132 1249
8 1376 1254 1387 1509 1245 1129 1258 1377
8 1275 1149 1276 1405 1376 1254 1387 1509
8 1377 1258 1391 1510 1248 1130 1259 1379
8 1511 1390 1257 1378 1379 1259 1131 1247
8 1383 1260 1134 1251 1511 1390 1257 1378
8 1252 1135 1256 1385 1380 1255 1388 1512
8 1261 1381 1513 1394 1133 1250 1382 1262
8 1135 1252 1384 1263 1261 1381 1513 1394
8 1382 1262 1134 1251 1514 1393 1260 1383
8 1253 1136 1263 1384 1386 1264 1395 1516
8 1253 1136 1264 1386 1385 1256 1389 1517
8 1387 1265 1397 1519 1258 1141 1269 1391
8 1276 1150 1277 1406 1387 1265 1397 1519
8 1256 1139 1267 1389 1388 1266 1398 1520
8 1264 1147 1274 1396 1389 1267 1399 1521
8 1392 1270 1143 1260 1522 1400 1268 1390
8 1390 1268 1142 1259 1522 1400 1269 1391
8 1392 1270 1401 1523 1260 1143 1271 1393
8 1272 1394 1524 1402 1145 1262 1393 1271
8 1395 1273 1146 1263 1524 1402 1272 1394
8 1273 1395 1264 1147 1403 1526 1396 1274
8 1405 1276 1160 1282 1534 1406 1286 1411
8 1414 1287 1407 1535 1286 1162 1277 1406
8 1279 1159 1283 1408 1409 1285 1412 1537
8 1418 1292 1412 1537 1290 1165 1283 1408
8 1280 1158 1285 1409 1410 1284 1413 1538
8 1410 1284 1413 1538 1282 1160 1286 1411
8 1285 1163 1289 1412 1413 1288 1417 1540
8 1421 1296 1417 1540 1292 1167 1289 1412
8 1414 1287 1162 1286 1541 1416 1288 1413
8 1420 1294 1421 1545 1291 1166 1292 1418
8 1419 1293 1172 1305 1546 1422 1303 1437
8 1420 1294 1166 1291 1547 1423 1293 1419
8 1294 1169 1297 1423 1421 1296 1425 1548
8 1423 1297 1168 1293 1549 1424 1295 1422
8 1301 1170 1298 1427 1422 1295 1424 1549
8 1432 1300 1428 1554 1301 1170 1298 1427
8 1431 1299 1428 1554 1560 1430 1300 1432
8 1563 1433 1300 1432 1435 1302 1170 1301
8 1546 1422 1303 1437 1434 1301 1435 1565
8 1303 1171 1304 1438 1435 1302 1436 1566
8 1305 1172 1306 1440 1437 1303 1438 1568
8 1306 1173 1307 1441 1438 1304 1439 1569
8 1308 1175 1309 1443 1440 1306 1441 1571
8 1309 1176 1310 1444 1441 1307 1442 1572
8 1311 1178 1312 1446 1443 1309 1444 1574
8 1179 1312 1444 1310 1313 1447 1575 1445
8 1314 1181 1315 1448 1446 1312 1447 1576
8 1350 1213 1349 1486 1451 1317 1449 1579
8 1451 1317 1450 1581 1319 1186 1318 1453
8 1454 1319 1214 1351 1582 1451 1350 1487
8 1453 1318 1452 1584 1321 1187 1320 1456
8 1454 1319 1453 1585 1344 1208 1321 1457
8 1456 1320 1455 1586 1323 1189 1324 1459
8 1457 1321 1456 1587 1322 1188 1323 1458
8 1458 1323 1459 1588 1325 1191 1326 1460
8 1205 1336 1464 1329 1328 1462 1590 1461
8 1507 1373 1461 1590 1374 1242 1328 1462
8 1508 1374 1462 1591 1375 1243 1335 1467
8 1337 1206 1329 1464 1473 1341 1463 1594
8 1375 1243 1335 1467 1465 1333 1470 1596
8 1465 1333 1470 1596 1331 1200 1334 1466
8 1352 1227 1334 1466 1488 1360 1470 1596
8 1591 1462 1336 1468 1467 1335 1471 1597
8 1469 1337 1472 1598 1595 1464 1336 1468
8 1471 1339 1474 1600 1335 1204 1338 1470
8 1600 1474 1367 1496 1470 1338 1235 1360
8 1336 1205 1340 1472 1471 1339 1475 1601
8 1337 1206 1341 1473 1472 1340 1476 1602
8 1495 1370 1478 1609 1361 1239 1342 1479
8 1348 1212 1342 1479 1483 1347 1478 1609
8 1481 1346 1479 1610 1345 1210 1343 1480
8 1481 1346 1228 1359 1610 1479 1361 1494
8 1484 1348 1214 1351 1610 1479 1343 1480
8 1483 1347 1482 1612 1350 1213 1349 1486
8 1484 1348 1483 1613 1351 1214 1350 1487
8 1353 1230 1360 1488 1489 1363 1496 1616
8 1490 1364 1231 1354 1617 1499 1363 1489
8 1490 1364 1499 1617 1355 1232 1365 1491
8 1356 1234 1365 1491 1492 1366 1500 1619
8 1492 1366 1498 1620 1357 1233 1362 1493
8 1494 1361 1228 1359 1621 1497 1362 1493
8 1495 1370 1239 1361 1622 1504 1371 1497
8 1363 1236 1367 1496 1499 1368 1501 1623
8 1497 1371 1240 1362 1624 1505 1372 1498
8 1625 1503 1372 1498 1500 1369 1241 1366
8 1365 1238 1368 1499 1500 1369 1502 1626
8 1520 1398 1506 1633 1388 1266 1373 1507
8 1634 1507 1374 1508 1512 1388 1255 1380
8 1509 1387 1519 1635 1377 1258 1391 1510
8 1405 1276 1406 1534 1509 1387 1519 1635
8 1515 1392 1260 1383 1636 1522 1390 1511
8 1511 1390 1259 1379 1636 1522 1391 1510
8 1385 1256 1389 1517 1512 1388 1520 1637
8 1513 1394 1262 1382 1638 1524 1393 1514
8 1395 1516 1638 1524 1263 1384 1513 1394
8 1515 1392 1523 1639 1383 1260 1393 1514
8 1516 1395 1526 1640 1386 1264 1396 1518
8 1386 1264 1396 1518 1517 1389 1521 1641
8 1519 1397 1527 1643 1391 1269 1400 1522
8 1535 1407 1527 1643 1406 1277 1397 1519
8 1389 1267 1399 1521 1520 1398 1528 1644
8 1645 1529 1399 1521 1525 1404 1274 1396
8 1392 1270 1400 1522 1523 1401 1531 1646
8 1524 1402 1271 1393 1648 1532 1401 1523
8 1403 1526 1648 1532 1273 1395 1524 1402
8 1525 1404 1274 1396 1649 1533 1403 1526
8 1539 1414 1535 1657 1411 1286 1406 1534
8 1542 1415 1536 1658 1414 1287 1407 1535
8 1409 1285 1412 1537 1538 1413 1540 1660
8 1545 1421 1540 1660 1418 1292 1412 1537
8 1539 1414 1286 1411 1661 1541 1413 1538
8 1540 1417 1544 1663 1413 1288 1416 1541
8 1421 1296 1425 1548 1540 1417 1544 1663
8 1542 1415 1287 1414 1664 1543 1416 1541
8 1420 1294 1423 1547 1545 1421 1548 1666
8 1547 1423 1293 1419 1667 1549 1422 1546
8 1434 1301 1427 1553 1546 1422 1549 1667
8 1423 1297 1424 1549 1548 1425 1550 1668
8 1551 1426 1550 1668 1427 1298 1424 1549
8 1551 1426 1298 1427 1671 1552 1428 1554
8 1562 1432 1554 1674 1434 1301 1427 1553
8 1431 1299 1429 1558 1554 1428 1555 1675
8 1431 1299 1430 1560 1558 1429 1557 1680
8 1560 1430 1300 1432 1683 1559 1433 1563
8 1561 1431 1554 1674 1684 1560 1432 1562
8 1685 1563 1432 1562 1565 1435 1301 1434
8 1435 1302 1436 1566 1563 1433 1564 1686
8 1437 1303 1438 1568 1565 1435 1566 1688
8 1438 1304 1439 1569 1566 1436 1567 1689
8 1440 1306 1441 1571 1568 1438 1569 1691
8 1441 1307 1442 1572 1569 1439 1570 1692
8 1443 1309 1444 1574 1571 1441 1572 1694
8 1310 1444 1572 1442 1445 1575 1695 1573
8 1446 1312 1447 1576 1574 1444 1575 1696
8 1486 1349 1485 1614 1579 1449 1577 1699
8 1451 1317 1449 1579 1581 1450 1578 1701
8 1487 1350 1486 1615 1582 1451 1579 1702
8 1581 1450 1580 1704 1453 1318 1452 1584
8 1582 1451 1581 1705 1454 1319 1453 1585
8 1584 1452 1583 1706 1456 1320 1455 1586
8 1585 1453 1584 1707 1457 1321 1456 1587
8 1587 1456 1586 1708 1458 1323 1459 1588
8 1633 1506 1589 1710 1507 1373 1461 1590
8 1464 1329 1461 1590 1594 1463 1589 1710
8 1468 1336 1462 1591 1595 1464 1590 1711
8 1634 1507 1590 1711 1508 1374 1462 1591
8 1473 1341 1463 1594 1603 1477 1593 1716
8 1469 1337 1464 1595 1599 1473 1594 1717
8 1471 1597 1467 1335 1600 1718 1596 1470
8 1718 1600 1496 1616 1596 1470 1360 1488
8 1336 1468 1597 1471 1472 1598 1719 1601
8 1469 1337 1473 1599 1598 1472 1602 1720
8 1722 1604 1501 1623 1600 1474 1367 1496
8 1475 1601 1471 1339 1604 1722 1600 1474
8 1602 1476 1605 1723 1472 1340 1475 1601
8 1476 1602 1724 1606 1341 1473 1603 1477
8 1483 1347 1478 1609 1612 1482 1608 1731
8 1495 1370 1504 1622 1609 1478 1608 1731
8 1618 1495 1609 1732 1494 1361 1479 1610
8 1484 1348 1479 1610 1613 1483 1609 1732
8 1486 1349 1482 1612 1614 1485 1611 1733
8 1613 1483 1612 1734 1487 1350 1486 1615
8 1489 1363 1496 1616 1617 1499 1623 1736
8 1491 1365 1499 1617 1619 1500 1626 1737
8 1618 1495 1361 1494 1738 1622 1497 1621
8 1739 1625 1498 1620 1619 1500 1366 1492
8 1621 1497 1362 1493 1740 1624 1498 1620
8 1742 1631 1504 1622 1624 1505 1371 1497
8 1743 1628 1502 1626 1623 1501 1368 1499
8 1744 1630 1505 1624 1625 1503 1372 1498
8 1745 1629 1503 1625 1626 1502 1369 1500
8 1520 1398 1528 1644 1633 1506 1632 1751
8 1637 1520 1633 1752 1512 1388 1507 1634
8 1635 1519 1643 1753 1510 1391 1522 1636
8 1657 1535 1643 1753 1534 1406 1519 1635
8 1515 1392 1522 1636 1639 1523 1646 1754
8 1517 1389 1521 1641 1637 1520 1644 1755
8 1524 1638 1756 1648 1393 1514 1639 1523
8 1640 1526 1395 1516 1756 1648 1524 1638
8 1642 1525 1396 1518 1757 1649 1526 1640
8 1758 1645 1521 1641 1642 1525 1396 1518
8 1646 1531 1400 1522 1760 1650 1527 1643
8 1535 1407 1536 1658 1643 1527 1650 1760
8 1521 1399 1529 1645 1644 1528 1651 1761
8 1647 1530 1652 1762 1525 1404 1529 1645
8 1401 1523 1648 1532 1531 1646 1763 1655
8 1525 1404 1533 1649 1647 1530 1654 1765
8 1533 1649 1766 1656 1403 1526 1648 1532
8 1662 1542 1658 1774 1539 1414 1535 1657
8 1542 1415 1543 1664 1658 1536 1659 1775
8 1660 1540 1663 1777 1538 1413 1541 1661
8 1545 1421 1548 1666 1660 1540 1663 1777
8 1662 1542 1414 1539 1778 1664 1541 1661
8 1664 1543 1416 1541 1779 1665 1544 1663
8 1548 1425 1550 1668 1663 1544 1665 1779
8 1547 1423 1549 1667 1666 1548 1668 1781
8 1670 1551 1668 1781 1553 1427 1549 1667
8 1551 1426 1552 1671 1668 1550 1669 1782
8 1670 1551 1427 1553 1784 1671 1554 1674
8 1675 1555 1672 1785 1554 1428 1552 1671
8 1678 1556 1673 1789 1558 1429 1555 1675
8 1561 1431 1558 1681 1674 1554 1675 1790
8 1794 1677 1556 1678 1680 1557 1429 1558
8 1560 1430 1559 1683 1680 1557 1679 1797
8 1561 1431 1560 1684 1681 1558 1680 1798
8 1563 1433 1564 1686 1683 1559 1682 1800
8 1684 1560 1432 1562 1801 1683 1563 1685
8 1565 1435 1566 1688 1685 1563 1686 1802
8 1566 1436 1567 1689 1686 1564 1687 1803
8 1568 1438 1569 1691 1688 1566 1689 1805
8 1569 1439 1570 1692 1689 1567 1690 1806
8 1571 1441 1572 1694 1691 1569 1692 1808
8 1442 1572 1692 1570 1573 1695 1809 1693
8 1574 1444 1575 1696 1694 1572 1695 1810
8 1614 1485 1592 1712 1699 1577 1697 1813
8 1579 1449 1577 1699 1701 1578 1698 1815
8 1615 1486 1614 1735 1702 1579 1699 1816
8 1701 1578 1700 1818 1581 1450 1580 1704
8 1582 1451 1579 1702 1705 1581 1701 1819
8 1704 1580 1703 1820 1584 1452 1583 1706
8 1705 1581 1704 1821 1585 1453 1584 1707
8 1707 1584 1706 1822 1587 1456 1586 1708
8 1710 1589 1506 1633 1824 1709 1632 1751
8 1594 1463 1589 1710 1716 1593 1709 1824
8 1752 1633 1710 1825 1634 1507 1590 1711
8 1595 1464 1590 1711 1717 1594 1710 1825
8 1830 1714 1592 1712 1733 1611 1485 1614
8 1603 1477 1593 1716 1725 1607 1715 1834
8 1599 1473 1594 1717 1721 1603 1716 1835
8 1837 1722 1623 1736 1718 1600 1496 1616
8 1719 1601 1722 1837 1597 1471 1600 1718
8 1602 1720 1598 1472 1723 1838 1719 1601
8 1720 1602 1473 1599 1839 1724 1603 1721
8 1723 1605 1726 1840 1601 1475 1604 1722
8 1840 1726 1628 1743 1722 1604 1501 1623
8 1724 1606 1727 1841 1602 1476 1605 1723
8 1725 1607 1728 1842 1603 1477 1606 1724
8 1612 1482 1608 1731 1733 1611 1730 1849
8 1741 1627 1730 1849 1622 1504 1608 1731
8 1613 1483 1609 1732 1734 1612 1731 1850
8 1618 1495 1622 1738 1732 1609 1731 1850
8 1615 1486 1612 1734 1735 1614 1733 1851
8 1852 1743 1626 1737 1736 1623 1499 1617
8 1853 1745 1625 1739 1737 1626 1500 1619
8 1855 1742 1622 1738 1740 1624 1497 1621
8 1856 1744 1624 1740 1739 1625 1498 1620
8 1741 1627 1504 1622 1857 1746 1631 1742
8 1742 1631 1505 1624 1858 1749 1630 1744
8 1859 1747 1629 1745 1743 1628 1502 1626
8 1860 1748 1630 1744 1745 1629 1503 1625
8 1644 1528 1651 1761 1751 1632 1750 1865
8 1637 1520 1644 1755 1752 1633 1751 1866
8 1754 1646 1522 1636 1867 1760 1643 1753
8 1657 1535 1658 1774 1753 1643 1760 1867
8 1639 1523 1646 1754 1756 1648 1763 1868
8 1641 1521 1645 1758 1755 1644 1761 1869
8 1757 1649 1526 1640 1870 1766 1648 1756
8 1642 1525 1649 1757 1759 1647 1765 1871
8 1759 1647 1762 1872 1642 1525 1645 1758
8 1760 1650 1767 1874 1646 1531 1655 1763
8 1658 1536 1659 1775 1760 1650 1767 1874
8 1762 1652 1768 1875 1645 1529 1651 1761
8 1764 1653 1769 1876 1647 1530 1652 1762
8 1656 1766 1877 1773 1532 1648 1763 1655
8 1771 1879 1765 1654 1653 1764 1647 1530
8 1533 1649 1765 1654 1656 1766 1880 1772
8 1662 1542 1664 1778 1774 1658 1775 1887
8 1664 1543 1665 1779 1775 1659 1776 1888
8 1778 1664 1541 1661 1890 1779 1663 1777
8 1666 1548 1668 1781 1777 1663 1779 1890
8 1782 1669 1780 1891 1668 1550 1665 1779
8 1670 1551 1671 1784 1781 1668 1782 1893
8 1671 1552 1672 1785 1782 1669 1783 1894
8 1790 1675 1785 1896 1674 1554 1671 1784
8 1675 1555 1673 1789 1785 1672 1786 1897
8 1792 1676 1788 1903 1678 1556 1673 1789
8 1795 1678 1789 1904 1681 1558 1675 1790
8 1792 1676 1556 1678 1906 1791 1677 1794
8 1680 1557 1679 1797 1794 1677 1793 1909
8 1910 1794 1678 1795 1798 1680 1558 1681
8 1683 1559 1682 1800 1797 1679 1796 1912
8 1684 1560 1683 1801 1798 1680 1797 1913
8 1686 1564 1687 1803 1800 1682 1799 1915
8 1685 1563 1686 1802 1801 1683 1800 1916
8 1688 1566 1689 1805 1802 1686 1803 1917
8 1689 1567 1690 1806 1803 1687 1804 1918
8 1691 1569 1692 1808 1805 1689 1806 1920
8 1692 1570 1693 1809 1806 1690 1807 1921
8 1694 1572 1695 1810 1808 1692 1809 1922
8 1829 1713 1811 1926 1712 1592 1697 1813
8 1813 1697 1812 1928 1699 1577 1698 1815
8 1735 1614 1712 1828 1816 1699 1813 1929
8 1815 1698 1814 1931 1701 1578 1700 1818
8 1702 1579 1699 1816 1819 1701 1815 1932
8 1818 1700 1817 1933 1704 1580 1703 1820
8 1819 1701 1818 1934 1705 1581 1704 1821
8 1821 1704 1820 1935 1707 1584 1706 1822
8 1824 1709 1632 1751 1937 1823 1750 1865
8 1716 1593 1709 1824 1834 1715 1823 1937
8 1825 1710 1633 1752 1938 1824 1751 1866
8 1717 1594 1710 1825 1835 1716 1824 1938
8 1945 1830 1712 1828 1851 1733 1614 1735
8 1830 1714 1831 1946 1712 1592 1713 1829
8 1947 1832 1714 1830 1849 1730 1611 1733
8 1843 1729 1607 1725 1950 1833 1715 1834
8 1721 1603 1716 1835 1836 1725 1834 1951
8 1836 1725 1842 1953 1721 1603 1724 1839
8 1723 1838 1719 1601 1840 1954 1837 1722
8 1954 1840 1743 1852 1837 1722 1623 1736
8 1724 1839 1720 1602 1841 1955 1838 1723
8 1841 1727 1844 1956 1723 1605 1726 1840
8 1956 1844 1747 1859 1840 1726 1628 1743
8 1728 1842 1724 1606 1845 1957 1841 1727
8 1725 1607 1729 1843 1842 1728 1846 1958
8 1741 1627 1746 1857 1849 1730 1848 1965
8 1734 1612 1731 1850 1851 1733 1849 1966
8 1854 1741 1849 1966 1738 1622 1731 1850
8 1967 1859 1745 1853 1852 1743 1626 1737
8 1968 1860 1744 1856 1853 1745 1625 1739
8 1854 1741 1622 1738 1969 1857 1742 1855
8 1855 1742 1624 1740 1970 1858 1744 1856
8 1857 1746 1631 1742 1971 1861 1749 1858
8 1858 1749 1630 1744 1972 1863 1748 1860
8 1859 1747 1862 1973 1745 1629 1748 1860
8 1875 1768 1864 1977 1761 1651 1750 1865
8 1755 1644 1761 1869 1866 1751 1865 1978
8 1867 1760 1874 1979 1754 1646 1763 1868
8 1774 1658 1775 1887 1867 1760 1874 1979
8 1870 1766 1648 1756 1980 1877 1763 1868
8 1872 1762 1875 1981 1758 1645 1761 1869
8 1757 1649 1766 1870 1871 1765 1880 1982
8 1983 1879 1764 1873 1871 1765 1647 1759
8 1873 1764 1876 1984 1759 1647 1762 1872
8 1877 1773 1655 1763 1986 1881 1767 1874
8 1775 1659 1776 1888 1874 1767 1881 1986
8 1876 1769 1882 1987 1762 1652 1768 1875
8 1878 1770 1883 1988 1764 1653 1769 1876
8 1880 1772 1656 1766 1989 1886 1773 1877
8 1878 1770 1653 1764 1990 1884 1771 1879
8 1765 1654 1772 1880 1879 1771 1885 1991
8 1778 1664 1779 1890 1887 1775 1888 1997
8 1998 1889 1776 1888 1891 1780 1665 1779
8 1893 1782 1891 2000 1781 1668 1779 1890
8 1894 1783 1892 2001 1782 1669 1780 1891
8 1784 1671 1785 1896 1893 1782 1894 2003
8 1897 1786 1895 2004 1785 1672 1783 1894
8 1790 1675 1789 1904 1896 1785 1897 2006
8 1901 1787 1898 2007 1789 1673 1786 1897
8 1903 1788 1900 2013 1789 1673 1787 1901
8 1792 1676 1791 1906 1903 1788 1902 2016
8 1907 1792 1903 2017 1795 1678 1789 1904
8 1906 1791 1677 1794 2019 1905 1793 1909
8 1907 1792 1678 1795 2020 1906 1794 1910
8 1797 1679 1796 1912 1909 1793 1908 2022
8 1798 1680 1797 1913 1910 1794 1909 2023
8 1800 1682 1799 1915 1912 1796 1911 2025
8 1801 1683 1800 1916 1913 1797 1912 2026
8 1803 1687 1804 1918 1915 1799 1914 2028
8 1802 1686 1803 1917 1916 1800 1915 2029
8 1805 1689 1806 1920 1917 1803 1918 2030
8 1806 1690 1807 1921 1918 1804 1919 2031
8 1808 1692 1809 1922 1920 1806 1921 2032
8 1939 1826 1924 2037 1829 1713 1811 1926
8 1926 1811 1925 2039 1813 1697 1812 1928
8 1944 1829 1926 2040 1828 1712 1813 1929
8 1928 1812 1927 2042 1815 1698 1814 1931
8 1929 1813 1928 2043 1816 1699 1815 1932
8 1931 1814 1930 2044 1818 1700 1817 1933
8 1932 1815 1931 2045 1819 1701 1818 1934
8 1934 1818 1933 2046 1821 1704 1820 1935
8 2048 1936 1823 1937 1977 1864 1750 1865
8 1950 1833 1715 1834 2048 1936 1823 1937
8 1938 1824 1751 1866 2049 1937 1865 1978
8 1835 1716 1824 1938 1951 1834 1937 2049
8 1939 1826 1713 1829 2053 1942 1831 1946
8 1940 1827 1923 2035 2053 1942 1826 1939
8 1945 1830 1946 2058 1828 1712 1829 1944
8 2059 1947 1830 1945 1966 1849 1733 1851
8 1947 1832 1730 1849 2060 1948 1848 1965
8 1947 1832 1948 2060 1830 1714 1831 1946
8 1959 1847 1729 1843 2063 1949 1833 1950
8 1952 1843 1725 1836 2064 1950 1834 1951
8 1836 1725 1843 1952 1953 1842 1958 2066
8 1953 1842 1957 2067 1839 1724 1841 1955
8 1841 1955 1838 1723 1956 2068 1954 1840
8 2068 1956 1859 1967 1954 1840 1743 1852
8 1956 1844 1960 2069 1859 1747 1862 1973
8 1845 1957 1841 1727 1960 2069 1956 1844
8 1728 1842 1957 1845 1846 1958 2071 1961
8 1962 2072 1959 1847 1846 1958 1843 1729
8 1971 1861 1964 2077 1857 1746 1848 1965
8 1854 1741 1857 1969 1966 1849 1965 2078
8 1967 1859 1973 2079 1853 1745 1860 1968
8 1970 1858 1744 1856 2080 1972 1860 1968
8 1969 1857 1742 1855 2081 1971 1858 1970
8 1971 1861 1749 1858 2082 1974 1863 1972
8 1973 1862 1975 2083 1860 1748 1863 1972
8 1987 1882 1976 2086 1875 1768 1864 1977
8 1981 1875 1977 2087 1869 1761 1865 1978
8 1980 1877 1763 1868 2088 1986 1874 1979
8 1887 1775 1888 1997 1979 1874 1986 2088
8 1880 1982 2089 1989 1766 1870 1980 1877
8 1984 1876 1987 2090 1872 1762 1875 1981
8 1765 1871 1983 1879 1880 1982 2091 1991
8 1985 1878 1764 1873 2092 1990 1879 1983
8 1985 1878 1988 2093 1873 1764 1876 1984
8 2094 1992 1881 1986 1998 1889 1776 1888
8 1986 1881 1992 2094 1877 1773 1886 1989
8 1988 1883 1993 2095 1876 1769 1882 1987
8 1878 1770 1884 1990 1988 1883 1994 2096
8 1991 1885 1772 1880 2097 1996 1886 1989
8 1879 1771 1885 1991 1990 1884 1995 2098
8 2103 1998 1888 1997 2000 1891 1779 1890
8 2104 1999 1889 1998 2001 1892 1780 1891
8 2003 1894 2001 2106 1893 1782 1891 2000
8 2004 1895 2002 2107 1894 1783 1892 2001
8 2006 1897 2004 2109 1896 1785 1894 2003
8 2007 1898 2005 2110 1897 1786 1895 2004
8 2014 1901 2007 2112 1904 1789 1897 2006
8 2011 1899 2008 2113 1901 1787 1898 2007
8 2119 2010 1899 2011 2013 1900 1787 1901
8 2016 1902 2012 2122 1903 1788 1900 2013
8 2017 1903 2013 2123 1904 1789 1901 2014
8 1906 1791 1905 2019 2016 1902 2015 2125
8 1907 1792 1906 2020 2017 1903 2016 2126
8 1909 1793 1908 2022 2019 1905 2018 2128
8 2020 1906 1794 1910 2129 2019 1909 2023
8 1912 1796 1911 2025 2022 1908 2021 2131
8 1913 1797 1912 2026 2023 1909 2022 2132
8 1915 1799 1914 2028 2025 1911 2024 2134
8 1916 1800 1915 2029 2026 1912 2025 2135
8 1918 1804 1919 2031 2028 1914 2027 2136
8 1917 1803 1918 2030 2029 1915 2028 2137
8 1920 1806 1921 2032 2030 1918 2031 2138
8 1940 1827 1941 2054 2035 1923 2033 2140
8 2035 1923 2034 2143 1939 1826 1924 2037
8 2037 1924 2036 2146 1926 1811 1925 2039
8 2051 1939 2037 2147 1944 1829 1926 2040
8 2039 1925 2038 2149 1928 1812 1927 2042
8 2040 1926 2039 2150 1929 1813 1928 2043
8 2042 1927 2041 2151 1931 1814 1930 2044
8 2043 1928 2042 2152 1932 1815 1931 2045
8 2045 1931 2044 2153 1934 1818 1933 2046
8 2155 2047 1936 2048 2086 1976 1864 1977
8 2063 1949 1833 1950 2155 2047 1936 2048
8 2156 2048 1937 2049 2087 1977 1865 1978
8 2064 1950 1834 1951 2156 2048 1937 2049
8 2051 1939 1829 1944 2160 2053 1946 2058
8 2052 1940 2035 2144 2160 2053 1939 2051
8 2053 1942 1831 1946 2163 2057 1948 2060
8 2055 1943 1827 1940 2163 2057 1942 2053
8 2055 1943 2056 2164 1940 1827 1941 2054
8 2059 1947 1849 1966 2167 2060 1965 2078
8 2059 1947 2060 2167 1945 1830 1946 2058
8 2077 1964 2061 2168 1965 1848 1948 2060
8 2070 1963 1847 1959 2170 2062 1949 2063
8 2065 1959 1843 1952 2171 2063 1950 2064
8 2173 2072 1958 2066 2065 1959 1843 1952
8 1953 1842 1958 2066 2067 1957 2071 2174
8 2068 1956 2069 2175 1967 1859 1973 2079
8 2067 1957 2069 2175 1955 1841 1956 2068
8 1845 1957 2069 1960 1961 2071 2176 2073
8 2069 1960 2073 2176 1973 1862 1975 2083
8 2070 1963 2075 2177 1959 1847 1962 2072
8 1846 1958 2071 1961 1962 2072 2178 2074
8 2077 1964 1861 1971 2182 2076 1974 2082
8 2081 1971 2077 2183 1969 1857 1965 2078
8 2079 1973 2083 2184 1968 1860 1972 2080
8 2081 1971 1858 1970 2185 2082 1972 2080
8 2083 1975 2084 2186 1972 1863 1974 2082
8 2086 1976 1882 1987 2189 2085 1993 2095
8 2090 1987 2086 2190 1981 1875 1977 2087
8 2191 2094 1986 2088 2103 1998 1888 1997
8 2088 1986 2094 2191 1980 1877 1989 2089
8 1991 2091 2192 2097 1880 1982 2089 1989
8 2093 1988 2095 2193 1984 1876 1987 2090
8 1879 1983 2092 1990 1991 2091 2194 2098
8 1985 1878 1990 2092 2093 1988 2096 2195
8 2097 1996 1886 1989 2196 2099 1992 2094
8 2196 2099 1992 2094 2104 1999 1889 1998
8 1994 2096 1988 1883 2100 2197 2095 1993
8 2096 1994 1884 1990 2198 2101 1995 2098
8 1995 2098 2199 2102 1885 1991 2097 1996
8 2203 2104 1998 2103 2106 2001 1891 2000
8 2107 2002 2105 2204 2001 1892 1999 2104
8 2109 2004 2107 2206 2003 1894 2001 2106
8 2110 2005 2108 2207 2004 1895 2002 2107
8 2112 2007 2110 2209 2006 1897 2004 2109
8 2113 2008 2111 2210 2007 1898 2005 2110
8 2120 2011 2113 2212 2014 1901 2007 2112
8 2117 2009 2114 2213 2011 1899 2008 2113
8 2219 2116 2009 2117 2119 2010 1899 2011
8 2222 2118 2010 2119 2122 2012 1900 2013
8 2223 2119 2011 2120 2123 2013 1901 2014
8 2016 1902 2015 2125 2122 2012 2121 2225
8 2126 2016 2122 2226 2017 1903 2013 2123
8 2019 1905 2018 2128 2125 2015 2124 2228
8 2020 1906 2019 2129 2126 2016 2125 2229
8 2022 1908 2021 2131 2128 2018 2127 2231
8 2023 1909 2022 2132 2129 2019 2128 2232
8 2025 1911 2024 2134 2131 2021 2130 2234
8 2026 1912 2025 2135 2132 2022 2131 2235
8 1914 2028 2134 2024 2027 2136 2236 2133
8 2029 1915 2028 2137 2135 2025 2134 2237
8 2030 1918 2031 2138 2137 2028 2136 2238
8 2157 2050 2139 2240 2054 1941 2033 2140
8 2052 1940 2054 2161 2144 2035 2140 2242
8 2140 2033 2141 2243 2035 1923 2034 2143
8 2143 2034 2142 2246 2037 1924 2036 2146
8 2144 2035 2143 2247 2051 1939 2037 2147
8 2146 2036 2145 2249 2039 1925 2038 2149
8 2147 2037 2146 2250 2040 1926 2039 2150
8 2149 2038 2148 2251 2042 1927 2041 2151
8 2150 2039 2149 2252 2043 1928 2042 2152
8 2152 2042 2151 2253 2045 1931 2044 2153
8 2255 2154 2047 2155 2189 2085 1976 2086
8 2170 2062 1949 2063 2255 2154 2047 2155
8 2256 2155 2048 2156 2190 2086 1977 2087
8 2171 2063 1950 2064 2256 2155 2048 2156
8 2258 2159 2050 2157 2164 2056 1941 2054
8 2160 2053 1946 2058 2262 2163 2060 2167
8 2162 2055 1940 2052 2262 2163 2053 2160
8 2162 2055 2164 2263 2052 1940 2054 2161
8 2163 2057 1948 2060 2264 2165 2061 2168
8 2055 1943 2057 2163 2164 2056 2165 2264
8 2182 2076 2166 2268 2077 1964 2061 2168
8 2183 2077 2168 2269 2078 1965 2060 2167
8 2070 1963 2062 2170 2177 2075 2169 2271
8 2172 2070 1959 2065 2272 2170 2063 2171
8 2172 2070 2177 2273 2065 1959 2072 2173
8 2066 1958 2072 2173 2174 2071 2178 2274
8 2067 1957 2071 2174 2175 2069 2176 2275
8 2175 2069 2176 2275 2079 1973 2083 2184
8 2071 1961 2074 2178 2176 2073 2179 2276
8 2176 2073 2179 2276 2083 1975 2084 2186
8 2072 1962 2075 2177 2178 2074 2180 2277
8 2182 2076 1974 2082 2280 2181 2084 2186
8 2183 2077 1971 2081 2281 2182 2082 2185
8 2184 2083 2186 2282 2080 1972 2082 2185
8 2189 2085 1993 2095 2285 2188 2100 2197
8 2190 2086 1987 2090 2286 2189 2095 2193
8 2192 2097 1989 2089 2287 2196 2094 2191
8 2287 2196 2094 2191 2203 2104 1998 2103
8 2194 2098 1991 2091 2288 2199 2097 2192
8 2195 2096 2197 2289 2093 1988 2095 2193
8 2096 2195 2290 2198 1990 2092 2194 2098
8 2097 1996 2099 2196 2199 2102 2200 2291
8 2196 2099 1999 2104 2291 2200 2105 2204
8 2100 2197 2292 2201 1994 2096 2198 2101
8 1995 2098 2198 2101 2102 2199 2293 2202
8 2206 2107 2204 2296 2106 2001 2104 2203
8 2207 2108 2205 2297 2107 2002 2105 2204
8 2209 2110 2207 2299 2109 2004 2107 2206
8 2210 2111 2208 2300 2110 2005 2108 2207
8 2212 2113 2210 2302 2112 2007 2110 2209
8 2213 2114 2211 2303 2113 2008 2111 2210
8 2220 2117 2213 2305 2120 2011 2113 2212
8 2216 2115 2214 2306 2117 2009 2114 2213
8 2216 2115 2009 2117 2311 2217 2116 2219
8 2219 2116 2010 2119 2314 2218 2118 2222
8 2315 2219 2117 2220 2223 2119 2011 2120
8 2122 2012 2121 2225 2222 2118 2221 2317
8 2318 2222 2119 2223 2226 2122 2013 2123
8 2125 2015 2124 2228 2225 2121 2224 2320
8 2126 2016 2125 2229 2226 2122 2225 2321
8 2128 2018 2127 2231 2228 2124 2227 2323
8 2129 2019 2128 2232 2229 2125 2228 2324
8 2131 2021 2130 2234 2231 2127 2230 2326
8 2132 2022 2131 2235 2232 2128 2231 2327
8 2134 2024 2133 2236 2234 2130 2233 2328
8 2135 2025 2134 2237 2235 2131 2234 2329
8 2137 2028 2136 2238 2237 2134 2236 2330
8 2157 2050 2158 2259 2240 2139 2239 2332
8 2257 2157 2240 2334 2161 2054 2140 2242
8 2240 2139 2241 2335 2140 2033 2141 2243
8 2242 2140 2243 2337 2144 2035 2143 2247
8 2243 2141 2244 2338 2143 2034 2142 2246
8 2246 2142 2245 2341 2146 2036 2145 2249
8 2247 2143 2246 2342 2147 2037 2146 2250
8 2249 2145 2248 2343 2149 2038 2148 2251
8 2250 2146 2249 2344 2150 2039 2149 2252
8 2252 2149 2251 2345 2152 2042 2151 2253
8 2169 2271 2347 2254 2062 2170 2255 2154
8 2189 2085 2188 2285 2255 2154 2254 2347
8 2348 2255 2155 2256 2286 2189 2086 2190
8 2272 2170 2063 2171 2348 2255 2155 2256
8 2349 2258 2157 2257 2263 2164 2054 2161
8 2258 2159 2261 2351 2157 2050 2158 2259
8 2258 2159 2056 2164 2351 2261 2165 2264
8 2262 2163 2060 2167 2355 2264 2168 2269
8 2162 2055 2163 2262 2263 2164 2264 2355
8 2357 2266 2165 2264 2268 2166 2061 2168
8 2268 2166 2076 2182 2361 2267 2181 2280
8 2281 2182 2268 2362 2183 2077 2168 2269
8 2271 2169 2270 2364 2177 2075 2180 2277
8 2172 2070 2170 2272 2273 2177 2271 2365
8 2072 2173 2274 2178 2177 2273 2366 2277
8 2071 2174 2275 2176 2178 2274 2367 2276
8 2275 2176 2276 2367 2184 2083 2186 2282
8 2283 2187 2084 2186 2368 2278 2179 2276
8 2178 2074 2180 2277 2276 2179 2278 2368
8 2283 2187 2279 2370 2186 2084 2181 2280
8 2281 2182 2082 2185 2371 2280 2186 2282
8 2188 2285 2374 2284 2100 2197 2292 2201
8 2286 2189 2095 2193 2375 2285 2197 2289
8 2192 2097 2196 2287 2288 2199 2291 2376
8 2287 2196 2104 2203 2376 2291 2204 2296
8 2194 2098 2199 2288 2290 2198 2293 2377
8 2289 2197 2096 2195 2378 2292 2198 2290
8 2291 2200 2105 2204 2379 2294 2205 2297
8 2199 2102 2200 2291 2293 2202 2294 2379
8 2198 2101 2202 2293 2292 2201 2295 2380
8 2299 2207 2297 2383 2206 2107 2204 2296
8 2300 2208 2298 2384 2207 2108 2205 2297
8 2302 2210 2300 2386 2209 2110 2207 2299
8 2303 2211 2301 2387 2210 2111 2208 2300
8 2305 2213 2303 2389 2212 2113 2210 2302
8 2306 2214 2304 2390 2213 2114 2211 2303
8 2310 2216 2306 2392 2220 2117 2213 2305
8 2308 2215 2307 2393 2216 2115 2214 2306
8 2308 2215 2115 2216 2396 2309 2217 2311
8 2310 2216 2117 2220 2398 2311 2219 2315
8 2311 2217 2116 2219 2399 2312 2218 2314
8 2314 2218 2118 2222 2402 2313 2221 2317
8 2315 2219 2119 2223 2403 2314 2222 2318
8 2225 2121 2224 2320 2317 2221 2316 2405
8 2226 2122 2225 2321 2318 2222 2317 2406
8 2228 2124 2227 2323 2320 2224 2319 2408
8 2229 2125 2228 2324 2321 2225 2320 2409
8 2231 2127 2230 2326 2323 2227 2322 2411
8 2232 2128 2231 2327 2324 2228 2323 2412
8 2234 2130 2233 2328 2326 2230 2325 2413
8 2235 2131 2234 2329 2327 2231 2326 2414
8 2237 2134 2236 2330 2329 2234 2328 2415
8 2259 2158 2260 2352 2332 2239 2331 2417
8 2257 2157 2259 2350 2334 2240 2332 2419
8 2240 2139 2239 2332 2335 2241 2333 2420
8 2334 2240 2335 2422 2242 2140 2243 2337
8 2335 2241 2336 2423 2243 2141 2244 2338
8 2337 2243 2338 2425 2247 2143 2246 2342
8 2338 2244 2339 2426 2246 2142 2245 2341
8 2341 2245 2340 2428 2249 2145 2248 2343
8 2342 2246 2341 2429 2250 2146 2249 2344
8 2344 2249 2343 2430 2252 2149 2251 2345
8 2188 2285 2347 2254 2284 2374 2432 2346
8 2347 2254 2346 2432 2271 2169 2270 2364
8 2365 2271 2170 2272 2433 2347 2255 2348
8 2286 2189 2285 2375 2348 2255 2347 2433
8 2349 2258 2351 2435 2257 2157 2259 2350
8 2349 2258 2164 2263 2435 2351 2264 2355
8 2259 2158 2261 2351 2352 2260 2354 2437
8 2356 2265 2354 2437 2264 2165 2261 2351
8 2441 2357 2264 2355 2362 2268 2168 2269
8 2356 2265 2165 2264 2442 2358 2266 2357
8 2443 2359 2266 2357 2361 2267 2166 2268
8 2370 2279 2360 2446 2280 2181 2267 2361
8 2362 2268 2182 2281 2447 2361 2280 2371
8 2180 2277 2368 2278 2270 2364 2449 2363
8 2271 2365 2273 2177 2364 2450 2366 2277
8 2372 2283 2186 2282 2451 2368 2276 2367
8 2178 2274 2367 2276 2277 2366 2451 2368
8 2283 2187 2278 2368 2370 2279 2369 2452
8 2372 2283 2370 2453 2282 2186 2280 2371
8 2284 2374 2455 2373 2201 2292 2380 2295
8 2375 2285 2197 2289 2456 2374 2292 2378
8 2376 2291 2204 2296 2457 2379 2297 2383
8 2288 2199 2291 2376 2377 2293 2379 2457
8 2198 2290 2378 2292 2293 2377 2458 2380
8 2293 2202 2294 2379 2380 2295 2381 2459
8 2384 2298 2381 2459 2297 2205 2294 2379
8 2386 2300 2384 2463 2299 2207 2297 2383
8 2387 2301 2385 2464 2300 2208 2298 2384
8 2389 2303 2387 2466 2302 2210 2300 2386
8 2390 2304 2388 2467 2303 2211 2301 2387
8 2392 2306 2390 2469 2305 2213 2303 2389
8 2393 2307 2391 2470 2306 2214 2304 2390
8 2395 2308 2393 2472 2310 2216 2306 2392
8 2308 2215 2309 2396 2393 2307 2394 2473
8 2395 2308 2216 2310 2475 2396 2311 2398
8 2396 2309 2217 2311 2476 2397 2312 2399
8 2398 2311 2219 2315 2478 2399 2314 2403
8 2399 2312 2218 2314 2479 2400 2313 2402
8 2317 2221 2316 2405 2402 2313 2401 2482
8 2403 2314 2222 2318 2483 2402 2317 2406
8 2320 2224 2319 2408 2405 2316 2404 2485
8 2321 2225 2320 2409 2406 2317 2405 2486
8 2323 2227 2322 2411 2408 2319 2407 2488
8 2324 2228 2323 2412 2409 2320 2408 2489
8 2326 2230 2325 2413 2411 2322 2410 2490
8 2327 2231 2326 2414 2412 2323 2411 2491
8 2329 2234 2328 2415 2414 2326 2413 2492
8 2417 2331 2260 2352 2494 2416 2353 2438
8 2350 2259 2352 2436 2419 2332 2417 2496
8 2332 2239 2331 2417 2420 2333 2418 2497
8 2334 2240 2332 2419 2422 2335 2420 2499
8 2420 2333 2421 2500 2335 2241 2336 2423
8 2422 2335 2423 2502 2337 2243 2338 2425
8 2423 2336 2424 2503 2338 2244 2339 2426
8 2425 2338 2426 2505 2342 2246 2341 2429
8 2426 2339 2427 2506 2341 2245 2340 2428
8 2429 2341 2428 2507 2344 2249 2343 2430
8 2432 2346 2284 2374 2509 2431 2373 2455
8 2432 2346 2431 2509 2364 2270 2363 2449
8 2375 2285 2374 2456 2433 2347 2432 2510
8 2347 2433 2365 2271 2432 2510 2450 2364
8 2350 2259 2351 2435 2436 2352 2437 2514
8 2440 2356 2437 2514 2355 2264 2351 2435
8 2352 2260 2354 2437 2438 2353 2439 2516
8 2356 2265 2358 2442 2437 2354 2439 2516
8 2440 2356 2264 2355 2518 2442 2357 2441
8 2519 2443 2357 2441 2447 2361 2268 2362
8 2443 2359 2444 2520 2357 2266 2358 2442
8 2443 2359 2267 2361 2520 2444 2360 2446
8 2446 2360 2279 2370 2523 2445 2369 2452
8 2453 2370 2446 2524 2371 2280 2361 2447
8 2449 2363 2448 2525 2368 2278 2369 2452
8 2366 2277 2364 2450 2451 2368 2449 2526
8 2372 2283 2368 2451 2453 2370 2452 2527
8 2455 2373 2295 2380 2529 2454 2382 2460
8 2456 2374 2292 2378 2530 2455 2380 2458
8 2377 2293 2379 2457 2458 2380 2459 2531
8 2463 2384 2459 2531 2383 2297 2379 2457
8 2533 2461 2382 2460 2459 2381 2295 2380
8 2464 2385 2461 2533 2384 2298 2381 2459
8 2466 2387 2464 2537 2386 2300 2384 2463
8 2467 2388 2465 2538 2387 2301 2385 2464
8 2469 2390 2467 2540 2389 2303 2387 2466
8 2470 2391 2468 2541 2390 2304 2388 2467
8 2472 2393 2470 2543 2392 2306 2390 2469
8 2393 2307 2394 2473 2470 2391 2471 2544
8 2395 2308 2396 2475 2472 2393 2473 2546
8 2396 2309 2397 2476 2473 2394 2474 2547
8 2475 2396 2311 2398 2549 2476 2399 2478
8 2476 2397 2312 2399 2550 2477 2400 2479
8 2478 2399 2314 2403 2552 2479 2402 2483
8 2479 2400 2313 2402 2553 2480 2401 2482
8 2405 2316 2404 2485 2482 2401 2481 2556
8 2406 2317 2405 2486 2483 2402 2482 2557
8 2408 2319 2407 2488 2485 2404 2484 2559
8 2409 2320 2408 2489 2486 2405 2485 2560
8 2411 2322 2410 2490 2488 2407 2487 2561
8 2412 2323 2411 2491 2489 2408 2488 2562
8 2414 2326 2413 2492 2491 2411 2490 2563
8 2513 2434 2493 2565 2438 2353 2416 2494
8 2496 2417 2352 2436 2567 2494 2438 2515
8 2494 2416 2495 2568 2417 2331 2418 2497
8 2419 2332 2417 2496 2499 2420 2497 2570
8 2497 2418 2498 2571 2420 2333 2421 2500
8 2499 2420 2500 2573 2422 2335 2423 2502
8 2500 2421 2501 2574 2423 2336 2424 2503
8 2502 2423 2503 2576 2425 2338 2426 2505
8 2503 2424 2504 2577 2426 2339 2427 2506
8 2505 2426 2506 2578 2429 2341 2428 2507
8 2509 2431 2373 2455 2580 2508 2454 2529
8 2509 2431 2508 2580 2449 2363 2448 2525
8 2432 2510 2581 2509 2374 2456 2530 2455
8 2432 2510 2450 2364 2509 2581 2526 2449
8 2583 2511 2434 2513 2516 2439 2353 2438
8 2436 2352 2437 2514 2515 2438 2516 2588
8 2440 2356 2442 2518 2514 2437 2516 2588
8 2442 2358 2444 2520 2516 2439 2517 2589
8 2519 2443 2520 2591 2441 2357 2442 2518
8 2519 2443 2361 2447 2591 2520 2446 2524
8 2446 2360 2445 2523 2520 2444 2521 2592
8 2525 2448 2522 2593 2452 2369 2445 2523
8 2524 2446 2370 2453 2594 2523 2452 2527
8 2526 2449 2525 2595 2451 2368 2452 2527
8 2534 2462 2528 2597 2460 2382 2454 2529
8 2530 2455 2380 2458 2598 2529 2460 2532
8 2599 2533 2460 2532 2531 2459 2380 2458
8 2537 2464 2533 2599 2463 2384 2459 2531
8 2534 2462 2382 2460 2601 2535 2461 2533
8 2538 2465 2535 2601 2464 2385 2461 2533
8 2540 2467 2538 2604 2466 2387 2464 2537
8 2541 2468 2539 2605 2467 2388 2465 2538
8 2543 2470 2541 2607 2469 2390 2467 2540
8 2470 2391 2471 2544 2541 2468 2542 2608
8 2472 2393 2473 2546 2543 2470 2544 2610
8 2473 2394 2474 2547 2544 2471 2545 2611
8 2475 2396 2476 2549 2546 2473 2547 2613
8 2476 2397 2477 2550 2547 2474 2548 2614
8 2549 2476 2399 2478 2616 2550 2479 2552
8 2479 2400 2480 2553 2550 2477 2551 2617
8 2552 2479 2402 2483 2619 2553 2482 2557
8 2482 2401 2481 2556 2553 2480 2554 2620
8 2485 2404 2484 2559 2556 2481 2555 2623
8 2486 2405 2485 2560 2557 2482 2556 2624
8 2488 2407 2487 2561 2559 2484 2558 2625
8 2489 2408 2488 2562 2560 2485 2559 2626
8 2491 2411 2490 2563 2562 2488 2561 2627
8 2513 2434 2512 2585 2565 2493 2564 2630
8 2586 2513 2565 2632 2515 2438 2494 2567
8 2565 2493 2566 2633 2494 2416 2495 2568
8 2567 2494 2568 2635 2496 2417 2497 2570
8 2568 2495 2569 2636 2497 2418 2498 2571
8 2570 2497 2571 2638 2499 2420 2500 2573
8 2571 2498 2572 2639 2500 2421 2501 2574
8 2573 2500 2574 2641 2502 2423 2503 2576
8 2574 2501 2575 2642 2503 2424 2504 2577
8 2576 2503 2577 2643 2505 2426 2506 2578
8 2597 2528 2579 2645 2529 2454 2508 2580
8 2580 2508 2579 2645 2525 2448 2522 2593
8 2581 2509 2455 2530 2646 2580 2529 2598
8 2581 2509 2580 2646 2526 2449 2525 2595
8 2583 2511 2582 2648 2513 2434 2512 2585
8 2583 2511 2439 2516 2648 2582 2517 2589
8 2649 2583 2513 2586 2588 2516 2438 2515
8 2589 2517 2444 2520 2653 2587 2521 2592
8 2518 2442 2520 2591 2588 2516 2589 2654
8 2593 2522 2590 2655 2523 2445 2521 2592
8 2524 2446 2523 2594 2591 2520 2592 2656
8 2595 2525 2593 2657 2527 2452 2523 2594
8 2602 2536 2596 2659 2534 2462 2528 2597
8 2600 2534 2597 2660 2532 2460 2529 2598
8 2600 2534 2460 2532 2661 2601 2533 2599
8 2604 2538 2601 2661 2537 2464 2533 2599
8 2602 2536 2462 2534 2663 2603 2535 2601
8 2601 2535 2465 2538 2663 2603 2539 2605
8 2607 2541 2605 2665 2540 2467 2538 2604
8 2608 2542 2606 2666 2541 2468 2539 2605
8 2543 2470 2544 2610 2607 2541 2608 2668
8 2544 2471 2545 2611 2608 2542 2609 2669
8 2546 2473 2547 2613 2610 2544 2611 2671
8 2547 2474 2548 2614 2611 2545 2612 2672
8 2549 2476 2550 2616 2613 2547 2614 2674
8 2550 2477 2551 2617 2614 2548 2615 2675
8 2552 2479 2553 2619 2616 2550 2617 2677
8 2553 2480 2554 2620 2617 2551 2618 2678
8 2557 2482 2556 2624 2619 2553 2620 2680
8 2556 2481 2555 2623 2620 2554 2621 2681
8 2559 2484 2558 2625 2623 2555 2622 2683
8 2560 2485 2559 2626 2624 2556 2623 2684
8 2562 2488 2561 2627 2626 2559 2625 2685
8 2690 2629 2564 2630 2650 2584 2512 2585
8 2586 2513 2585 2651 2632 2565 2630 2691
8 2630 2564 2631 2692 2565 2493 2566 2633
8 2632 2565 2633 2694 2567 2494 2568 2635
8 2633 2566 2634 2695 2568 2495 2569 2636
8 2635 2568 2636 2697 2570 2497 2571 2638
8 2636 2569 2637 2698 2571 2498 2572 2639
8 2638 2571 2639 2700 2573 2500 2574 2641
8 2639 2572 2640 2701 2574 2501 2575 2642
8 2641 2574 2642 2702 2576 2503 2577 2643
8 2597 2528 2596 2659 2645 2579 2644 2704
8 2645 2579 2644 2704 2593 2522 2590 2655
8 2660 2597 2645 2705 2598 2529 2580 2646
8 2646 2580 2645 2705 2595 2525 2593 2657
8 2650 2584 2512 2585 2707 2647 2582 2648
8 2648 2582 2517 2589 2707 2647 2587 2653
8 2649 2583 2648 2708 2586 2513 2585 2651
8 2649 2583 2516 2588 2708 2648 2589 2654
8 2655 2590 2652 2710 2592 2521 2587 2653
8 2654 2589 2520 2591 2711 2653 2592 2656
8 2657 2593 2655 2712 2594 2523 2592 2656
8 2602 2536 2603 2663 2659 2596 2658 2714
8 2662 2602 2659 2715 2600 2534 2597 2660
8 2662 2602 2534 2600 2717 2663 2601 2661
8 2661 2601 2538 2604 2717 2663 2605 2665
8 2666 2606 2664 2718 2605 2539 2603 2663
8 2668 2608 2666 2720 2607 2541 2605 2665
8 2608 2542 2609 2669 2666 2606 2667 2721
8 2610 2544 2611 2671 2668 2608 2669 2723
8 2611 2545 2612 2672 2669 2609 2670 2724
8 2613 2547 2614 2674 2671 2611 2672 2726
8 2614 2548 2615 2675 2672 2612 2673 2727
8 2616 2550 2617 2677 2674 2614 2675 2729
8 2617 2551 2618 2678 2675 2615 2676 2730
8 2619 2553 2620 2680 2677 2617 2678 2732
8 2620 2554 2621 2681 2678 2618 2679 2733
8 2624 2556 2623 2684 2680 2620 2681 2735
8 2681 2621 2555 2623 2736 2682 2622 2683
8 2626 2559 2625 2685 2684 2623 2683 2737
8 2688 2628 2584 2650 2740 2686 2647 2707
8 2688 2628 2687 2742 2650 2584 2629 2690
8 2690 2629 2689 2745 2630 2564 2631 2692
8 2746 2690 2630 2691 2709 2650 2585 2651
8 2691 2630 2692 2747 2632 2565 2633 2694
8 2692 2631 2693 2748 2633 2566 2634 2695
8 2694 2633 2695 2750 2635 2568 2636 2697
8 2695 2634 2696 2751 2636 2569 2637 2698
8 2697 2636 2698 2753 2638 2571 2639 2700
8 2698 2637 2699 2754 2639 2572 2640 2701
8 2700 2639 2701 2755 2641 2574 2642 2702
8 2659 2596 2658 2714 2704 2644 2703 2757
8 2704 2644 2703 2757 2655 2590 2652 2710
8 2660 2597 2659 2715 2705 2645 2704 2758
8 2705 2645 2704 2758 2657 2593 2655 2712
8 2759 2706 2647 2707 2710 2652 2587 2653
8 2709 2650 2585 2651 2760 2707 2648 2708
8 2708 2648 2589 2654 2760 2707 2653 2711
8 2712 2655 2710 2761 2656 2592 2653 2711
8 2763 2713 2658 2714 2718 2664 2603 2663
8 2662 2602 2663 2717 2715 2659 2714 2764
8 2720 2666 2718 2767 2665 2605 2663 2717
8 2768 2719 2664 2718 2721 2667 2606 2666
8 2668 2608 2669 2723 2720 2666 2721 2770
8 2669 2609 2670 2724 2721 2667 2722 2771
8 2671 2611 2672 2726 2723 2669 2724 2773
8 2672 2612 2673 2727 2724 2670 2725 2774
8 2674 2614 2675 2729 2726 2672 2727 2776
8 2675 2615 2676 2730 2727 2673 2728 2777
8 2677 2617 2678 2732 2729 2675 2730 2779
8 2678 2618 2679 2733 2730 2676 2731 2780
8 2680 2620 2681 2735 2732 2678 2733 2782
8 2733 2679 2621 2681 2783 2734 2682 2736
8 2735 2681 2623 2684 2784 2736 2683 2737
8 2740 2686 2647 2707 2787 2738 2706 2759
8 2688 2628 2686 2740 2742 2687 2739 2789
8 2743 2688 2650 2709 2790 2740 2707 2760
8 2742 2687 2741 2792 2690 2629 2689 2745
8 2743 2688 2742 2793 2709 2650 2690 2746
8 2745 2689 2744 2795 2692 2631 2693 2748
8 2746 2690 2745 2796 2691 2630 2692 2747
8 2747 2692 2748 2797 2694 2633 2695 2750
8 2748 2693 2749 2798 2695 2634 2696 2751
8 2750 2695 2751 2800 2697 2636 2698 2753
8 2751 2696 2752 2801 2698 2637 2699 2754
8 2753 2698 2754 2802 2700 2639 2701 2755
8 2763 2713 2756 2804 2714 2658 2703 2757
8 2759 2706 2652 2710 2804 2756 2703 2757
8 2715 2659 2714 2764 2758 2704 2757 2805
8 2758 2704 2757 2805 2712 2655 2710 2761
8 2806 2759 2707 2760 2761 2710 2653 2711
8 2765 2716 2762 2808 2718 2664 2713 2763
8 2809 2763 2714 2764 2767 2718 2663 2717
8 2765 2716 2664 2718 2811 2766 2719 2768
8 2813 2768 2718 2767 2770 2721 2666 2720
8 2814 2769 2719 2768 2771 2722 2667 2721
8 2723 2669 2724 2773 2770 2721 2771 2816
8 2724 2670 2725 2774 2771 2722 2772 2817
8 2726 2672 2727 2776 2773 2724 2774 2819
8 2727 2673 2728 2777 2774 2725 2775 2820
8 2729 2675 2730 2779 2776 2727 2777 2822
8 2730 2676 2731 2780 2777 2728 2778 2823
8 2732 2678 2733 2782 2779 2730 2780 2825
8 2780 2731 2679 2733 2826 2781 2734 2783
8 2782 2733 2681 2735 2827 2783 2736 2784
8 2830 2785 2738 2787 2804 2756 2706 2759
8 2789 2739 2686 2740 2832 2786 2738 2787
8 2790 2740 2707 2760 2833 2787 2759 2806
8 2742 2687 2739 2789 2792 2741 2788 2835
8 2743 2688 2740 2790 2793 2742 2789 2836
8 2792 2741 2791 2838 2745 2689 2744 2795
8 2793 2742 2792 2839 2746 2690 2745 2796
8 2795 2744 2794 2841 2748 2693 2749 2798
8 2796 2745 2795 2842 2747 2692 2748 2797
8 2797 2748 2798 2843 2750 2695 2751 2800
8 2798 2749 2799 2844 2751 2696 2752 2801
8 2800 2751 2801 2845 2753 2698 2754 2802
8 2808 2762 2803 2847 2763 2713 2756 2804
8 2809 2763 2804 2848 2764 2714 2757 2805
8 2806 2759 2710 2761 2848 2804 2757 2805
8 2765 2716 2766 2811 2808 2762 2807 2850
8 2810 2765 2808 2851 2767 2718 2763 2809
8 2810 2765 2718 2767 2852 2811 2768 2813
8 2811 2766 2719 2768 2853 2812 2769 2814
8 2855 2814 2768 2813 2816 2771 2721 2770
8 2856 2815 2769 2814 2817 2772 2722 2771
8 2773 2724 2774 2819 2816 2771 2817 2858
8 2774 2725 2775 2820 2817 2772 2818 2859
8 2776 2727 2777 2822 2819 2774 2820 2861
8 2777 2728 2778 2823 2820 2775 2821 2862
8 2779 2730 2780 2825 2822 2777 2823 2864
8 2823 2778 2731 2780 2865 2824 2781 2826
8 2825 2780 2733 2782 2866 2826 2783 2827
8 2869 2828 2785 2830 2847 2803 2756 2804
8 2871 2829 2786 2832 2830 2785 2738 2787
8 2872 2830 2787 2833 2848 2804 2759 2806
8 2789 2739 2786 2832 2835 2788 2831 2874
8 2836 2789 2740 2790 2875 2832 2787 2833
8 2792 2741 2788 2835 2838 2791 2834 2877
8 2793 2742 2789 2836 2839 2792 2835 2878
8 2838 2791 2837 2880 2795 2744 2794 2841
8 2839 2792 2838 2881 2796 2745 2795 2842
8 2841 2794 2840 2882 2798 2749 2799 2844
8 2842 2795 2841 2883 2797 2748 2798 2843
8 2843 2798 2844 2884 2800 2751 2801 2845
8 2886 2846 2803 2847 2850 2807 2762 2808
8 2851 2808 2847 2887 2809 2763 2804 2848
8 2850 2807 2766 2811 2889 2849 2812 2853
8 2810 2765 2811 2852 2851 2808 2850 2890
8 2852 2811 2768 2813 2891 2853 2814 2855
8 2853 2812 2769 2814 2892 2854 2815 2856
8 2894 2856 2814 2855 2858 2817 2771 2816
8 2817 2772 2818 2859 2856 2815 2857 2895
8 2819 2774 2820 2861 2858 2817 2859 2897
8 2820 2775 2821 2862 2859 2818 2860 2898
8 2822 2777 2823 2864 2861 2820 2862 2900
8 2823 2778 2824 2865 2862 2821 2863 2901
8 2864 2823 2780 2825 2902 2865 2826 2866
8 2904 2867 2828 2869 2886 2846 2803 2847
8 2869 2828 2868 2906 2830 2785 2829 2871
8 2907 2869 2830 2872 2887 2847 2804 2848
8 2871 2829 2870 2909 2832 2786 2831 2874
8 2910 2871 2832 2875 2872 2830 2787 2833
8 2835 2788 2831 2874 2877 2834 2873 2912
8 2836 2789 2832 2875 2878 2835 2874 2913
8 2877 2834 2876 2915 2838 2791 2837 2880
8 2839 2792 2835 2878 2881 2838 2877 2916
8 2880 2837 2879 2917 2841 2794 2840 2882
8 2881 2838 2880 2918 2842 2795 2841 2883
8 2883 2841 2882 2919 2843 2798 2844 2884
8 2921 2885 2846 2886 2889 2849 2807 2850
8 2922 2886 2847 2887 2890 2850 2808 2851
8 2889 2849 2812 2853 2924 2888 2854 2892
8 2890 2850 2811 2852 2925 2889 2853 2891
8 2891 2853 2814 2855 2926 2892 2856 2894
8 2892 2854 2815 2856 2927 2893 2857 2895
8 2858 2817 2859 2897 2894 2856 2895 2929
8 2859 2818 2860 2898 2895 2857 2896 2930
8 2861 2820 2862 2900 2897 2859 2898 2932
8 2862 2821 2863 2901 2898 2860 2899 2933
8 2864 2823 2865 2902 2900 2862 2901 2934
8 2904 2867 2846 2886 2936 2903 2885 2921
8 2904 2867 2903 2936 2869 2828 2868 2906
8 2937 2904 2869 2907 2922 2886 2847 2887
8 2906 2868 2905 2939 2871 2829 2870 2909
8 2907 2869 2906 2940 2872 2830 2871 2910
8 2909 2870 2908 2942 2874 2831 2873 2912
8 2910 2871 2909 2943 2875 2832 2874 2913
8 2912 2873 2911 2945 2877 2834 2876 2915
8 2878 2835 2874 2913 2916 2877 2912 2946
8 2915 2876 2914 2947 2880 2837 2879 2917
8 2916 2877 2915 2948 2881 2838 2880 2918
8 2918 2880 2917 2949 2883 2841 2882 2919
8 2921 2885 2849 2889 2951 2920 2888 2924
8 2952 2921 2886 2922 2925 2889 2850 2890
8 2924 2888 2854 2892 2954 2923 2893 2927
8 2925 2889 2853 2891 2955 2924 2892 2926
8 2926 2892 2856 2894 2956 2927 2895 2929
8 2895 2857 2896 2930 2927 2893 2928 2957
8 2897 2859 2898 2932 2929 2895 2930 2959
8 2898 2860 2899 2933 2930 2896 2931 2960
8 2900 2862 2901 2934 2932 2898 2933 2961
8 2936 2903 2885 2921 2963 2935 2920 2951
8 2936 2903 2935 2963 2906 2868 2905 2939
8 2937 2904 2886 2922 2964 2936 2921 2952
8 2937 2904 2936 2964 2907 2869 2906 2940
8 2939 2905 2938 2966 2909 2870 2908 2942
8 2940 2906 2939 2967 2910 2871 2909 2943
8 2942 2908 2941 2969 2912 2873 2911 2945
8 2943 2909 2942 2970 2913 2874 2912 2946
8 2945 2911 2944 2971 2915 2876 2914 2947
8 2946 2912 2945 2972 2916 2877 2915 2948
8 2948 2915 2947 2973 2918 2880 2917 2949
8 2951 2920 2888 2924 2975 2950 2923 2954
8 2952 2921 2889 2925 2976 2951 2924 2955
8 2927 2893 2928 2957 2954 2923 2953 2978
8 2955 2924 2892 2926 2979 2954 2927 2956
8 2929 2895 2930 2959 2956 2927 2957 2980
8 2930 2896 2931 2960 2957 2928 2958 2981
8 2932 2898 2933 2961 2959 2930 2960 2982
8 2951 2920 2950 2975 2963 2935 2962 2984
8 2963 2935 2962 2984 2939 2905 2938 2966
8 2964 2936 2921 2952 2985 2963 2951 2976
8 2964 2936 2963 2985 2940 2906 2939 2967
8 2966 2938 2965 2987 2942 2908 2941 2969
8 2967 2939 2966 2988 2943 2909 2942 2970
8 2969 2941 2968 2989 2945 2911 2944 2971
8 2970 2942 2969 2990 2946 2912 2945 2972
8 2972 2945 2971 2991 2948 2915 2947 2973
8 2954 2923 2953 2978 2975 2950 2974 2993
8 2976 2951 2924 2955 2994 2975 2954 2979
8 2957 2928 2958 2981 2978 2953 2977 2995
8 2956 2927 2957 2980 2979 2954 2978 2996
8 2959 2930 2960 2982 2980 2957 2981 2997
8 2984 2962 2983 2999 2966 2938 2965 2987
8 2975 2950 2974 2993 2984 2962 2983 2999
8 2976 2951 2975 2994 2985 2963 2984 3000
8 2985 2963 2984 3000 2967 2939 2966 2988
8 2987 2965 2986 3001 2969 2941 2968 2989
8 2988 2966 2987 3002 2970 2942 2969 2990
8 2990 2969 2989 3003 2972 2945 2971 2991
8 2978 2953 2977 2995 2993 2974 2992 3004
8 2979 2954 2978 2996 2994 2975 2993 3005
8 2980 2957 2981 2997 2996 2978 2995 3006
8 2974 2993 2999 2983 2992 3004 3007 2998
8 2983 2999 2987 2965 2998 3007 3001 2986
8 3000 2984 2999 3008 2988 2966 2987 3002
8 2994 2975 2993 3005 3000 2984 2999 3008
8 3002 2987 3001 3009 2990 2969 2989 3003
8 2996 2978 2995 3006 3005 2993 3004 3010
8 3005 2993 3004 3010 3008 2999 3007 3011
8 3008 2999 3007 3011 3002 2987 3001 3009

CELL_TYPES 1910
12
12
12
12
12
12
12
12
12
12
12
12
12
12
12
12
12
12
12
12
12
12
12
12
12
12
12
12
12
12
12
12
12
12
12
12
12
12
12
12
12
12
12
12
12
12
12
12
12
12
12
12
12
12
12
12
12
12
12
12
12
12
12
12
12
12
12
12
12
12
12
12
12
12
12
12
12
12
12
12
12
12
12
12
12
12
12
12
12
12
12
12
12
12
12
12
12
12
12
12
12
12
12
12
12
12
12
12
12
12
12
12
12
12
12
12
12
12
12
12
12
12
12
12
12
12
12
12
12
12
12
12
12
12
12
12
12
12
12
12
12
12
12
12
12
12
12
12
12
12
12
12
12
12
12
12
12
12
12
12
12
12
12
12
12
12
12
12
12
12
12
12
12
12
12
12
12
12
12
12
12
12
12
12
12
12
12
12
12
12
12
12
12
12
12
12
12
12
12
12
12
12
12
12
12
12
12
12
12
12
12
12
12
12
12
12
12
12
12
12
12
12
12
12
12
12
12
12
12
12
12
12
12
12
12
12
12
12
12
12
12
12
12
12
12
12
12
12
12
12
12
12
12
12
12
12
12
12
12
12
12
12
12
12
12
12
12
12
12
12
12
12
12
12
12
12
12
12
12
12
12
12
12
12
12
12
12
12
12
12
12
12
12
12
12
12
12
12
12
12
12
12
12
12
12
12
12
12
12
12
12
12
12
12
12
12
12
12
12
12
12
12
12
12
12
12
12
12
12
12
12
12
12
12
12
12
12
12
12
12
12
12
12
12
12
12
12
12
12
12
12
12
12
12
12
12
12
12
12
12
12
12
12
12
12
12
12
12
12
12
12
12
12
12
12
12
12
12
12
12
12
12
12
12
12
12
12
12
12
12
12
12
12
12
12
12
12
12
12
12
12
12
12
12
12
12
12
12
12
12
12
12
12
12
12
12
12
12
12
12
12
12
12
12
12
12
12
12
12
12
12
12
12
12
12
12
12
12
12
12
12
12
12
12
12
12
12
12
12
12
12
12
12
12
12
12
12
12
12
12
12
12
12
12
12
12
12
12
12
12
12
12
12
12
12
12
12
12
12
12
12
12
12
12
12
12
12
12
12
12
12
12
12
12
12
12
12
12
12
12
12
12
12
12
12
12
12
12
12
12
12
12
12
12
12
12
12
12
12
12
12
12
12
12
12
12
12
12
12
12
12
12
12
12
12
12
12
12
12
12
12
12
12
12
12
12
12
12
12
12
12
12
12
12
12
12
12
12
12
12
12
12
12
12
12
12
12
12
12
12
12
12
12
12
12
12
12
12
12
12
12
12
12
12
12
12
12
12
12
12
12
12
12
12
12
12
12
12
12
12
12
12
12
12
12
12
12
12
12
12
12
12
12
12
12
12
12
12
12
12
12
12
12
12
12
12
12
12
12
12
12
12
12
12
12
12
12
12
12
12
12
12
12
12
12
12
12
12
12
12
12
12
12
12
12
12
12
12
12
12
12
12
12
12
12
12
12
12
12
12
12
12
12
12
12
12
12
12
12
12
12
12
12
12
12
12
12
12
12
12
12
12
12
12
12
12
12
12
12
12
12
12
12
12
12
12
12
12
12
12
12
12
12
12
12
12
12
12
12
12
12
12
12
12
12
12
12
12
12
12
12
12
12
12
12
12
12
12
12
12
12
12
12
12
12
12
12
12
12
12
12
12
12
12
12
12
12
12
12
12
12
12
12
12
12
12
12
12
12
12
12
12
12
12
12
12
12
12
12
12
12
12
12
12
12
12
12
12
12
12
12
12
12
12
12
12
12
12
12
12
12
12
12
12
12
12
12
12
12
12
12
12
12
12
12
12
12
12
12
12
12
12
12
12
12
12
12
12
12
12
12
12
12
12
12
12
12
12
12
12
12
12
12
12
12
12
12
12
12
12
12
12
12
12
12
12
12
12
12
12
12
12
12
12
12
12
12
12
12
12
12
12
12
12
12
12
12
12
12
12
12
12
12
12
12
12
12
12
12
12
12
12
12
12
12
12
12
12
12
12
12
12
12
12
12
12
12
12
12
12
12
12
12
12
12
12
12
12
12
12
12
12
12
12
12
12
12
12
12
12
12
12
12
12
12
12
12
12
12
12
12
12
12
12
12
12
12
12
12
12
12
12
12
12
12
12
12
12
12
12
12
12
12
12
12
12
12
12
12
12
12
12
12
12
12
12
12
12
12
12
12
12
12
12
12
12
12
12
12
12
12
12
12
12
12
12
12
12
12
12
12
12
12
12
12
12
12
12
12
12
12
12
12
12
12
12
12
12
12
12
12
12
12
12
12
12
12
12
12
12
12
12
12
12
12
12
12
12
12
12
12
12
12
12
12
12
12
12
12
12
12
12
12
12
12
12
12
12
12
12
12
12
12
12
12
12
12
12
12
12
12
12
12
12
12
12
12
12
12
12
12
12
12
12
12
12
12
12
12
12
12
12
12
12
12
12
12
12
12
12
12
12
12
12
12
12
12
12
12
12
12
12
12
12
12
12
12
12
12
12
12
12
12
12
12
12
12
12
12
12
12
12
12
12
12
12
12
12
12
12
12
12
12
12
12
12
12
12
12
12
12
12
12
12
12
12
12
12
12
12
12
12
12
12
12
12
12
12
12
12
12
12
12
12
12
12
12
12
12
12
12
12
12
12
12
12
12
12
12
12
12
12
12
12
12
12
12
12
12
12
12
12
12
12
12
12
12
12
12
12
12
12
12
12
12
12
12
12
12
12
12
12
12
12
12
12
12
12
12
12
12
12
12
12
12
12
12
12
12
12
12
12
12
12
12
12
12
12
12
12
12
12
12
12
12
12
12
12
12
12
12
12
12
12
12
12
12
12
12
12
12
12
12
12
12
12
12
12
12
12
12
12
12
12
12
12
12
12
12
12
12
12
12
12
12
12
12
12
12
12
12
12
12
12
12
12
12
12
12
12
12
12
12
12
12
12
12
12
12
12
12
12
12
12
12
12
12
12
12
12
12
12
12
12
12
12
12
12
12
12
12
12
12
12
12
12
12
12
12
12
12
12
12
12
12
12
12
12
12
12
12
12
12
12
12
12
12
12
12
12
12
12
12
12
12
12
12
12
12
12
12
12
12
12
12
12
12
12
12
12
12
12
12
12
12
12
12
12
12
12
12
12
12
12
12
12
12
12
12
12
12
12
12
12
12
12
12
12
12
12
12
12
12
12
12
12
12
12
12
12
12
12
12
12
12
12
12
12
12
12
12
12
12
12
12
12
12
12
12
12
12
12
12
12
12
12
12
12
12
12
12
12
12
12
12
12
12
12
12
12
12
12
12
12
12
12
12
12
12
12
12
12
12
12
12
12
12
12
12
12
12
12
12
12
12
12
12
12
12
12
12
12
12
12
12
12
12
12
12
12
12
12
12
12
12
12
12
12
12
12
12
12
12
12
12
12
12
12
12
12
12
12
12
12
12
12
12
12
12
12
12
12
12
12
12
12
12
12
12
12
12
12
12
12
12
12
12
12
12
12
12
12
12
12
12
12
12
12
12
12
12
12
12
12
12
12
12
12
12
12
12
12
12
12
12
12
12
12
12
12
12
12
12
12
12
12
12
12
12
12
12
12
12
12
12
12
12
12
12
12
12
12
12
12
12
12
12
12
12
12
12
12
12
12
12
12
12
12
12
12
12
12
12
12
12
12
12
12
12
12
12
12
12
12
12
12
12
12
12
12
12
12
12
12
12
12
12
12
12
12
12
12
12
12
12
12
12
12
12
12
12
12
12
12
12
12
12
12
12
12
12
12
12
12
12
12
12
12
12
12
12
12
12
12
12
12
12
12
12
12
12
12
12
12
12
12
12
12
12
12
12
12
12
12
12
12
12
12
12
12
12
12
12
12
12
12
12
12
12
12
12
12
12
12
12
12
12
12
12
12
12
12
12
12
12
12
12
12
12
12
12
12
12
12
12
12
12
12
12
12
12
12
12
12
12
12
12
12
12
12
12
12
12
12
12
12
12
12
12
12
12
12
12
12
12
12
12
12
12
12
12
12
12
12
12
12
12
12
12
12
12
12
12
12
12
12
12
12
12
12
12
12
12
12
12
12
12
12
12
12
12
12
12
12
12
12
12
12
12
12
12
12
12
12
12
12
12
12
12
12
12
12
12
12
12
12
12
12
12
12
12
12
12
12
12
12
12
12
12
12
12
12
12
12
12
12
12
12
12
12
12
12
12
12
12
12
12
12
12
12
12
12
12
12
12
12
12
12
12
12
12
12
12
12
12
12
12
12
12
12
12
12
12
12
12
12
12
12
12
12

POINT_DATA 3012
SCALARS Jp_lamdaP float 4
LOOKUP_TABLE default
0.999668 1 1 0.999668
1 1 1 1
0.999678 1 1 0.999678
0.999614 1 1 0.999614
0.99967 1 1 0.99967
0.999649 1 1 0.999649
0.999029 1.00019 1 0.998837
1 1 1 1
1 1 1 1
1 1 1 1
0.999743 1 1 0.999743
0.998946 1 1 0.998946
0.99961 1 1 0.99961
0.999618 1 1 0.999618
0.99968 1 1 0.99968
0.999641 1 1 0.999641
0.999656 1 1 0.999656
0.999687 1 1 0.999687
0.999126 1.00029 1 0.998838
1 1 1 1
0.999595 1 1 0.999595
0.999647 1 1 0.999647
0.998713 1 1 0.998713
0.998995 1.00018 1 0.998815
0.999655 1 1 0.999655
0.998852 1 1 0.998852
1.01329 1.01576 1 0.997569
1 1 1 1
0.999826 1 1 0.999826
0.999839 1 1 0.999839
1 1 1 1
0.998955 1 1 0.998955
0.999644 1 1 0.999644
0.999671 1 1 0.999671
0.999513 1.00053 1 0.998985
1 1 1 1
0.99909 1.00002 1 0.999069
0.999047 1 1 0.999047
1.0063 1.00877 1 0.997551
1 1 1 1
1 1 1 1
0.999809 1 1 0.999809
1 1 1 1
0.999624 1 1 0.999624
0.998643 1 1 0.998643
1 1 1 1
0.998888 1 1 0.998888
0.999664 1 1 0.999664
0.999699 1 1 0.999699
0.999658 1 1 0.999658
0.99919 1.00035 1 0.998843
0.999793 1 1 0.999793
0.99962 1 1 0.99962
0.999669 1 1 0.999669
0.999671 1 1 0.999671
0.99871 1 1 0.99871
0.998936 1.00008 1 0.998855
0.998985 1.00017 1 0.998816
1.01356 1.01604 1 0.997555
1 1 1 1
0.999596 1 1 0.999596
0.998916 1 1 0.998916
0.998683 1 1 0.998683
0.998782 1.00001 1 0.998767
1.01651 1.01926 1 0.997305
1.01461 1.01723 1 0.997418
0.99972 1 1 0.99972
0.998954 1 1 0.998954
1.01055 1.01292 1 0.99766
1.03293 1.03637 1 0.996682
1 1 1 1
1 1 1 1
1 1 1 1
0.998963 1 1 0.998963
1 1 1 1
1 1 1 1
0.999251 1.00044 1 0.998807
0.999905 1 1 0.999905
0.998954 1.00004 1 0.998911
0.999194 1 1.00003 0.999162
1.005 1.00747 1 0.997548
1 1 1 1
1.0012 1 1.00144 0.999762
0.99911 1.00038 1 0.998729
0.999149 1.00031 1 0.998841
1.01769 1.02063 1 0.997126
0.999759 1 1.00034 0.999416
1.01106 1.01364 1 0.99745
1.00198 1.00429 1 0.997701
1.01454 1.01777 1 0.996829
1 1 1 1
1 1 1 1
1 1 1 1
1 1 1 1
1 1 1 1
0.99981 1 1 0.99981
0.998771 1 1 0.998771
0.999811 1 1 0.999811
0.998805 1.00001 1 0.998794
1 1 1 1
0.998657 1 1 0.998657
0.998881 1 1 0.998881
1.01593 1.01904 1 0.996942
0.998993 1.00007 1 0.998922
1.01915 1.02224 1 0.996975
0.999632 1 1 0.999632
0.999642 1 1 0.999642
0.999679 1 1 0.999679
0.999691 1 1 0.999691
0.998709 1 1 0.998709
0.999003 1.00018 1 0.998819
0.998988 1.00013 1 0.998861
1.0138 1.0163 1 0.997541
1 1 1 1
0.999619 1 1 0.999619
0.998686 1 1 0.998686
0.998678 1 1 0.998678
0.999861 1 1 0.999861
0.999031 1 1 0.999031
0.998778 1.00001 1 0.998766
1.01651 1.01929 1 0.997268
1.01114 1.01352 1 0.997643
1.01492 1.01752 1 0.997445
1.03282 1.03625 1 0.996689
0.99868 1 1 0.99868
0.99868 1 1 0.99868
1.01489 1.01775 1 0.997185
1.01655 1.01939 1 0.997215
1.01621 1.01895 1 0.997317
1.04201 1.04554 1 0.99662
1 1 1 1
1.03604 1.03951 1 0.996659
0.999417 1 1.00026 0.99916
1.00595 1.00833 1 0.997639
1.02944 1.03285 1 0.996705
1.03907 1.04265 1 0.996561
1.00137 1 1.00188 0.999491
1.0065 1 1.0081 0.998407
1 1 1 1
1 1 1 1
0.999185 1.00037 1 0.998813
1 1 1 1
0.99928 1 1.00016 0.999117
0.998942 1.00003 1 0.998917
1.00386 1.00633 1 0.997544
1 1 1 1
1.00087 1 1.00109 0.999785
0.999287 1.00044 1 0.998843
0.999136 1.00019 1 0.998945
1.01714 1.02008 1 0.997127
1.00005 1 1.00069 0.99936
1.00972 1.0123 1 0.997453
1.00113 1.00342 1.00002 0.9977
1.0158 1.01904 1 0.996818
1.00121 1 1.00164 0.999566
1.0001 1 1.00021 0.999889
1.00366 1 1.00496 0.9987
1.01953 1.02258 1 0.997025
1.01488 1.01764 1 0.997287
1.03943 1.04305 1 0.996527
1.00011 1.00153 1.0006 0.997983
1.02481 1.02812 1 0.996778
1.01007 1.01261 1.00057 0.996919
1.02451 1.02794 1 0.996664
1 1 1 1
1 1 1 1
1 1 1 1
1.00087 1 1.00123 0.999635
1 1 1 1
1 1 1 1
1 1 1 1
0.998796 1.0001 1 0.9987
0.998676 1 1 0.998676
1 1 1 1
1 1 1 1
0.998658 1 1 0.998658
0.998787 1 1 0.998787
1.01654 1.01966 1 0.996942
0.998931 1.00021 1 0.998716
1.01936 1.02245 1 0.996974
0.998655 1 1 0.998655
1.01452 1.01766 1 0.99691
1.0178 1.02089 1 0.99697
1.04736 1.05098 1 0.996556
1.01979 1.02288 1 0.996982
1.04869 1.05231 1 0.996556
1 1 1 1
0.999643 1 1 0.999643
0.998432 1 1 0.998432
0.998673 1 1 0.998673
1 1 1 1
0.999111 1 1 0.999111
0.998778 1.00001 1 0.998768
1.01648 1.0193 1 0.997231
1.01526 1.01784 1 0.997472
1.01177 1.01418 1 0.997626
1.03274 1.03616 1 0.996697
0.998677 1 1 0.998677
0.998675 1 1 0.998675
1.0148 1.01779 1 0.997058
1.01662 1.01944 1 0.997237
1 1 1 1
0.999319 1 1.00011 0.999205
1.00734 1.00964 1 0.997718
1.01619 1.01893 1 0.997312
1.04182 1.04536 1 0.996606
1.02893 1.03234 1 0.996698
1.03629 1.03973 1 0.996694
1.03864 1.04221 1 0.99657
1.00122 1 1.00174 0.999479
1.00498 1 1.00658 0.998409
1.01426 1.01739 1 0.996931
1.01537 1.01822 1 0.997207
1.04446 1.048 1 0.99662
1.04246 1.04603 1 0.996585
1.03945 1.04289 1 0.996695
1.04924 1.05286 0.999863 0.996704
1.00049 1 1.00116 0.999327
1.04153 1.04503 1 0.996644
1.00142 1.0035 1.00011 0.997826
1.02219 1.02549 1 0.996782
1.03654 1.04018 1 0.996501
1.03932 1.0427 1 0.996754
1.00307 1.00019 1.00471 0.998177
1.00429 1 1.0056 0.998696
1.00326 1.00008 1.00546 0.997726
0.999224 1.00047 1 0.998758
1 1 1 1
1.00023 1 1.00043 0.999808
0.999026 1.00015 1 0.998874
1.01655 1.01948 1 0.997127
1.00023 1 1.00086 0.999363
0.999929 1.0022 1.00004 0.997698
1.00845 1.01102 1 0.997455
1.01703 1.02029 1 0.996806
1.00109 1 1.0015 0.999588
0.999906 1 1 0.999906
1.00428 1 1.00559 0.998701
1.01901 1.02205 1 0.997023
1.01405 1.0168 1 0.997291
1.03952 1.04315 1 0.996522
0.999351 1.00088 1.00049 0.997987
1.02603 1.02934 1 0.996782
1.00944 1.01209 1.00047 0.996913
1.02526 1.0287 1 0.996658
0.99995 1 1 0.99995
1.0016 1.00027 1.00302 0.998313
1.00245 1 1.00335 0.999096
1.00418 1.00016 1.00602 0.998018
1.04383 1.0475 1 0.996495
1.03354 1.03702 1 0.996647
1.04349 1.04719 1 0.996468
1.00453 1.00681 1.00049 0.99725
1.03127 1.0347 1 0.996681
1.0204 1.02227 1.00158 0.996597
1.03285 1.0364 1 0.996576
0.999673 1 1 0.999673
0.999991 1 1 0.999991
1 1 1 1
1 1 1 1
1 1 1 1
1.00004 1 1.00028 0.999767
1 1 1 1
1.00128 1 1.00166 0.99962
1 1 1 1
0.998992 1.00027 1 0.998717
0.998692 1 1 0.998692
1.0196 1.02269 1 0.996973
1.01713 1.02025 1 0.996943
0.99866 1 1 0.99866
1 1 1 1
0.998654 1 1 0.998654
1.01487 1.01802 1 0.99691
1.01829 1.02139 1 0.996969
1.04653 1.05015 1 0.996555
1.01968 1.02277 1 0.996979
1.04878 1.05241 1 0.996553
1.01402 1.01717 1 0.996907
1.04574 1.04939 1 0.996528
1.04823 1.05184 1 0.996569
1.05236 1.05774 0.998077 0.996839
1.04802 1.05168 1 0.996522
1.05486 1.05884 0.999507 0.996741
0.998675 1 1 0.998675
0.998668 1 1 0.998668
1.01472 1.01784 1 0.996933
1.01672 1.01951 1 0.997258
1 1 1 1
0.999251 1 1 0.999251
1.0087 1.01093 1 0.997795
1.01617 1.01892 1 0.997308
1.04166 1.04522 1 0.996591
1.03649 1.03989 1 0.996729
1.02843 1.03185 1 0.996691
1.03836 1.04192 1 0.996579
1.00128 1 1.00182 0.999468
1.00416 1 1.00576 0.998411
1.01416 1.0173 1 0.996912
1.01542 1.01827 1 0.997202
1.04432 1.04787 0.999961 0.996641
1.04251 1.04607 1 0.996596
1.00019 1 1.00087 0.999316
1.00275 1.00486 1.00008 0.997824
1.02162 1.02488 1 0.996814
1.03972 1.04319 1 0.996678
1.04939 1.053 0.999823 0.996745
1.03621 1.03987 1 0.996481
1.04134 1.04484 1 0.996649
1.03954 1.04293 1 0.996751
1.00279 1.00028 1.00434 0.998179
1.00398 1.00033 1.00594 0.997728
1.00467 1 1.00598 0.998694
1.04403 1.0476 1 0.996589
1.04385 1.04737 0.999987 0.996655
1.05223 1.05709 0.998618 0.996777
1.0504 1.05435 0.999507 0.996739
1.04453 1.04801 0.99996 0.996726
1.04501 1.05124 0.997031 0.997032
0.99943 1.00082 1.0006 0.998015
1.0415 1.04491 0.999847 0.996885
1.01016 1.01311 1 0.997089
1.02788 1.03162 1 0.996381
1.03569 1.03937 1 0.996458
1.03414 1.03726 0.999991 0.997005
1.00223 1 1.00326 0.99897
0.999344 1.00105 1.00067 0.99762
1.00841 1 1.01055 0.997887
1.00238 1.00225 1.00266 0.997473
1.01859 1.02163 1 0.99702
0.999923 1 1 0.999923
1.00114 1 1.00153 0.99961
1.00571 1 1.00702 0.998701
1.01309 1.01584 1 0.997294
1.03965 1.04329 1 0.996517
0.998705 1.00031 1.00041 0.997992
1.00891 1.0117 1.00033 0.996907
1.02722 1.03053 1 0.996787
1.02524 1.02869 1 0.996653
0.99996 1 1 0.99996
1.00244 1.00014 1.00399 0.998314
1.00214 1 1.00303 0.999106
1.00477 1.00011 1.00666 0.998012
1.04376 1.04743 1 0.99649
1.03373 1.03721 1 0.996646
1.04306 1.04676 1 0.996465
1.00299 1.0053 1.00045 0.997257
1.03095 1.03438 1 0.996681
1.01979 1.02152 1.00173 0.996585
1.03258 1.03604 1 0.996656
0.999979 1 1 0.999979
1.00028 1 1.0009 0.999381
1.00166 1.00208 1.00191 0.99767
1.00548 1 1.00712 0.998378
1.00145 1.00052 1.00322 0.997712
1.04826 1.05192 1 0.996521
1.03723 1.04083 1 0.996544
1.0387 1.04226 1 0.996591
1.00813 1.00929 1.00199 0.996866
1.02976 1.03319 1 0.996677
1.01869 1.02153 1.00086 0.996361
0.999629 1 1 0.999629
0.999113 1 1 0.999113
0.999707 1 1 0.999707
0.999675 1 1 0.999675
0.999996 1 1 0.999996
0.999992 1 1 0.999992
1 1 1 1
1 1 1 1
1 1 1 1
0.999887 1 1 0.999887
1 1 1 1
1.00047 1 1.00072 0.999751
1 1 1 1
1.00129 1 1.00169 0.999606
1 1 1 1
1.0196 1.02269 1 0.996976
1.01872 1.02182 1 0.996969
1.04858 1.05221 1 0.99655
1.04568 1.0493 1 0.996553
1.0153 1.01844 1 0.99691
0.998653 1 1 0.998653
1.01413 1.01728 1 0.996907
1.0454 1.04904 1 0.996529
1.04768 1.05129 1 0.996566
1.05268 1.05834 0.997786 0.996857
1.04731 1.05097 1 0.996517
1.05462 1.05851 0.999585 0.996739
1.04433 1.04798 1 0.996521
1.05186 1.05801 0.997312 0.996861
1.05399 1.05872 0.998718 0.996809
1.04875 1.05717 0.994952 0.997074
1.05156 1.0551 1 0.996637
1.0503 1.05819 0.995447 0.997085
1.01409 1.01724 1 0.996894
1.01549 1.01835 1 0.997197
1.04419 1.04777 0.999923 0.996663
1.04254 1.04609 1 0.996606
0.999875 1 1.00057 0.999305
1.00404 1.00618 1.00004 0.997822
1.02146 1.02469 1 0.996847
1.04002 1.0435 1 0.996661
1.04954 1.05317 0.999763 0.996786
1.04121 1.0447 1 0.996654
1.03573 1.03941 1 0.996461
1.03975 1.04314 1 0.996748
1.00221 1.0004 1.00363 0.998181
1.00457 1.00056 1.00629 0.99773
1.00484 1 1.00616 0.998693
1.0441 1.0477 1 0.996564
1.04401 1.04753 0.999985 0.996653
1.05179 1.05684 0.998401 0.99682
1.05036 1.0544 0.999439 0.996723
1.00029 1.00153 1.00075 0.998012
1.0112 1.01415 1 0.997085
1.0266 1.03025 1.00003 0.996424
1.04463 1.04813 0.99997 0.996695
1.04472 1.05127 0.99667 0.997082
1.03631 1.04004 1 0.996421
1.04157 1.04497 0.999851 0.996888
1.03497 1.03805 0.99999 0.99704
1.00076 1.00197 1.00117 0.997621
1.00252 1.00231 1.00277 0.997441
1.00273 1 1.00376 0.998966
1.00777 1 1.00987 0.997926
1.05178 1.05701 0.998236 0.99681
1.05269 1.05729 0.998876 0.996772
1.04463 1.05299 0.995053 0.996988
1.04428 1.05366 0.993974 0.997107
1.04304 1.04727 0.998942 0.997017
1.0415 1.05023 0.994414 0.997264
1.0022 1.00481 1 0.997402
1.03592 1.04063 0.998223 0.997246
1.01511 1.01853 1 0.996647
1.02575 1.0295 1.00018 0.996184
1.03722 1.04092 1 0.996441
1.03579 1.03883 1 0.997073
1.00003 1 1.00083 0.999196
1.00795 1 1.00979 0.998174
1.00121 1.00389 1 0.997338
1.00427 1.00022 1.00645 0.997611
1.00303 1.00352 1.00217 0.997348
0.999969 1 1 0.999969
1.04358 1.04726 1 0.996484
1.00119 1 1.00207 0.999115
1.00315 1.0001 1.00474 0.998315
1.00507 1.00005 1.00703 0.998005
1.03398 1.03746 1 0.996644
1.04267 1.04637 1 0.996462
1.0017 1.00394 1.00051 0.997263
1.02053 1.02206 1.00193 0.996573
1.03077 1.0342 1 0.996681
1.03292 1.0363 1 0.996736
0.999983 1 1 0.999983
0.999924 1 1.00053 0.999391
1.00048 1.00147 1.00134 0.997673
1.00649 1 1.00813 0.998377
1.00165 1.00033 1.00363 0.997697
1.04814 1.05181 1 0.996515
1.03714 1.04073 1 0.996542
1.03875 1.04232 1 0.996579
1.00833 1.00935 1.00213 0.996869
1.03219 1.03564 1 0.996671
1.019 1.02172 1.00096 0.996383
0.999545 1 1 0.999545
1.00183 1 1.0031 0.998735
1.00098 1.00318 1.00048 0.997328
1.0071 1.00039 1.00872 0.998006
1.0018 1.00212 1.00203 0.997655
1.04477 1.04821 1 0.996717
1.03312 1.03664 1 0.996602
1.03816 1.04149 1 0.9968
1.00334 1.00288 1.00379 0.996688
1.01734 1.0211 1 0.996317
0.999632 1 1 0.999632
0.999033 1 1 0.999033
0.999088 1 1 0.999088
0.998835 1 1 0.998835
0.999134 1 1 0.999134
0.999726 1 1 0.999726
0.999709 1 1 0.999709
0.999999 1 1 0.999999
0.999677 1 1 0.999677
0.999997 1 1 0.999997
1 1 1 1
0.999994 1 1 0.999994
1 1 1 1
1 1 1 1
0.999965 1 1 0.999965
1.00002 1 1.00016 0.999867
1 1 1 1
1 1 1 1
1.00088 1 1.00115 0.999734
1 1 1 1
1.04673 1.05039 1 0.996513
1.04736 1.05097 1 0.996564
1.05461 1.05842 0.999665 0.996737
1.05306 1.059 0.997505 0.996874
1.04496 1.0486 1 0.996529
1.01417 1.01731 1 0.996906
1.04434 1.04798 1 0.996521
1.05174 1.05784 0.997373 0.996855
1.05432 1.05897 0.99879 0.996809
1.04795 1.05691 0.994407 0.997105
1.05234 1.05589 1 0.99663
1.05033 1.05805 0.995589 0.997108
1.05184 1.05755 0.997758 0.99683
1.04667 1.05565 0.994433 0.997049
1.0489 1.05821 0.994045 0.997148
1.04761 1.0592 0.9918 0.997228
1.04998 1.05436 0.998914 0.996928
1.04736 1.05896 0.991714 0.997316
1.04408 1.0477 1 0.996539
1.04414 1.04765 1 0.996651
1.05133 1.05656 0.998178 0.996862
1.0502 1.05434 0.999368 0.996707
1.00118 1.00227 1.0009 0.99801
1.01151 1.01447 1 0.99708
1.02489 1.02834 1.00018 0.996467
1.04471 1.0482 1 0.996664
1.04442 1.0513 0.996321 0.997131
1.04154 1.04495 0.999855 0.99689
1.03685 1.04062 1 0.996383
1.03506 1.03809 1 0.997075
1.00207 1.00266 1.00179 0.997621
1.0025 1.0022 1.0029 0.997409
1.00313 1 1.00417 0.998962
1.00683 1 1.00888 0.997966
1.05163 1.05686 0.998232 0.99681
1.05218 1.05663 0.999029 0.996752
1.04478 1.05323 0.994941 0.997021
1.04497 1.05382 0.994499 0.997089
1.00302 1.00564 1 0.997394
1.01359 1.01692 1.00003 0.99669
1.02588 1.02942 1.00039 0.996173
1.0431 1.04707 0.999236 0.996968
1.04038 1.04948 0.993993 0.997322
1.03367 1.03738 1 0.996426
1.0368 1.04142 0.998319 0.997247
1.03648 1.03946 1 0.997133
1.00109 1.00377 1 0.997337
1.00273 1.00385 1.00154 0.997345
1.00523 1.0005 1.00715 0.997605
1.00048 1 1.00132 0.99916
1.00752 1 1.00933 0.998213
1.04527 1.05462 0.994079 0.997035
1.04548 1.05518 0.993719 0.997065
1.04111 1.05405 0.990393 0.997307
1.0371 1.04624 0.993919 0.997329
1.00542 1.00838 1 0.997069
1.0408 1.04562 0.997966 0.997423
1.00825 1.01161 1.00029 0.996396
1.0222 1.02581 1.00051 0.995981
1.03055 1.03424 1 0.996426
0.999412 1 1.00004 0.999368
1.00419 1 1.00567 0.998533
1.00603 1 1.00812 0.997922
1.00246 1.00525 1 0.997223
1.00391 1.0002 1.0064 0.997326
1.00368 1.00483 1.00166 0.997197
0.999987 1 1 0.999987
0.999597 1 1.0002 0.999401
1.04801 1.05168 1 0.996509
1.00775 1 1.00939 0.998375
0.999055 1.00064 1.00074 0.997676
1.00177 1.00019 1.0039 0.997681
1.03687 1.04047 1 0.99654
1.03871 1.04228 1 0.996568
1.00778 1.00863 1.00229 0.996873
1.01821 1.02109 1.00077 0.996406
1.03457 1.03803 1 0.996666
0.999551 1 1 0.999551
1.00178 1 1.00304 0.998739
1.00107 1.00334 1.00041 0.997326
1.00825 1.00019 1.01008 0.997999
1.00175 1.00236 1.00174 0.997656
1.0447 1.04815 1 0.99671
1.03365 1.03719 1 0.99659
1.03815 1.04146 1 0.996827
1.0043 1.00442 1.00324 0.996649
1.01615 1.01988 1.00006 0.996288
0.999176 1 1.00021 0.99897
1.00798 1 1.00969 0.998299
1.0024 1.00322 1.002 0.997195
1.00711 1.00236 1.00698 0.997777
1.00692 1.00841 1.001 0.997527
1.043 1.04831 0.997721 0.997205
1.0331 1.03674 1 0.996498
1.03541 1.03871 1 0.996819
1.00652 1.00568 1.00433 0.996526
1.00711 1.01105 1 0.996098
0.999635 1 1 0.999635
0.999052 1 1 0.999052
0.998759 1 1 0.998759
0.999062 1 1 0.999062
0.999133 1 1 0.999133
0.998806 1 1 0.998806
0.998711 1 1 0.998711
0.998853 1 1.00011 0.998748
0.999152 1 1 0.999152
0.99972 1 1 0.99972
0.999726 1 1 0.999726
1 1 1 1
0.999711 1 1 0.999711
0.999999 1 1 0.999999
1 1 1 1
0.999998 1 1 0.999998
1 1 1 1
1 1 1 1
0.999994 1 1 0.999994
0.999949 1 1 0.999949
1 1 1 1
1.00036 1 1.00051 0.999847
1 1 1 1
1 1 1 1
1.05306 1.05663 1 0.996624
1.05441 1.05899 0.998859 0.996809
1.05033 1.05785 0.995752 0.99713
1.0471 1.05661 0.993849 0.997135
1.05167 1.05769 0.997444 0.99685
1.04448 1.04812 1 0.996522
1.05177 1.05737 0.997886 0.996811
1.04723 1.0558 0.994829 0.997042
1.04828 1.05766 0.993988 0.997132
1.04654 1.05877 0.991188 0.99724
1.04956 1.05372 0.999128 0.996929
1.04542 1.05778 0.990938 0.997356
1.04732 1.05558 0.995144 0.997023
1.04781 1.06033 0.990942 0.997225
1.04779 1.061 0.990198 0.997328
1.04271 1.05492 0.991015 0.997381
1.05154 1.05678 0.998228 0.99681
1.05176 1.05609 0.99917 0.996731
1.04497 1.05347 0.994857 0.997054
1.04576 1.0541 0.995005 0.997071
1.00437 1.00699 1 0.997386
1.01281 1.01613 1 0.996732
1.02604 1.0294 1.00058 0.996162
1.04318 1.04691 0.999516 0.996918
1.03919 1.04869 0.993543 0.997378
1.038 1.04254 0.998389 0.997248
1.03104 1.03475 1 0.996411
1.03881 1.04174 1 0.997192
1.00122 1.0039 1 0.997336
1.00311 1.0051 1.00069 0.997342
1.00661 1.00069 1.00833 0.997599
1.00085 1 1.00173 0.999124
1.00727 1 1.00904 0.998252
1.04567 1.05498 0.994126 0.997037
1.04602 1.05574 0.993715 0.99706
1.04094 1.05327 0.990968 0.997299
1.00543 1.00839 1 0.997065
1.00885 1.01219 1.00026 0.996438
1.02082 1.02417 1.00076 0.995969
1.0376 1.04641 0.994254 0.997315
1.0336 1.0372 1 0.996534
1.0373 1.04234 0.997765 0.997391
0.999431 1 1.00003 0.999402
1.00291 1.00571 1 0.997213
1.00199 1.00391 1.00077 0.997324
1.00606 1.00135 1.00741 0.997317
1.00629 1 1.00836 0.997946
1.00422 1 1.00573 0.998498
1.0462 1.05839 0.99134 0.997114
1.04449 1.06066 0.987487 0.997233
1.03476 1.05168 0.986487 0.99739
1.03546 1.04897 0.989559 0.997531
1.00571 1.00886 1 0.996871
1.03267 1.03622 0.999582 0.996993
1.00418 1.00657 1.00165 0.995985
1.012 1.01519 1.00104 0.995817
0.999637 1 1 0.999637
1.0004 1 1.00157 0.99883
1.00463 1 1.00645 0.998195
1.00627 1 1.00879 0.997501
1.00308 1.00472 1.00133 0.997042
1.0077 1.00231 1.00838 0.997021
0.999556 1 1 0.999556
1.00164 1 1.0029 0.998743
1.04485 1.04831 1 0.996704
1.00936 1 1.01139 0.997993
1.00118 1.0036 1.00027 0.997323
1.00121 1.00203 1.00152 0.997657
1.0344 1.03795 1 0.996578
1.03837 1.04165 1 0.996852
1.00571 1.00638 1.00273 0.996611
1.01502 1.01856 1.00027 0.996259
0.999056 1 1.00008 0.998973
1.00817 1 1.0099 0.99829
1.00303 1.00385 1.00198 0.997204
1.00613 1.00183 1.00652 0.997784
1.00724 1.00918 1.00048 0.997603
1.04415 1.0496 0.997551 0.997251
1.03268 1.03629 1 0.99652
1.03686 1.04009 1 0.996893
1.00651 1.00545 1.00458 0.996491
1.0074 1.01138 1.00003 0.996028
0.999825 1 1.00118 0.998643
1.00809 1 1.0102 0.997914
1.00793 1.00706 1.00378 0.997085
1.00614 1.00714 1.00161 0.997409
1.0408 1.06343 0.981165 0.997505
1.03754 1.04173 0.998693 0.997283
1.02068 1.02457 1 0.996206
1.00978 1.00942 1.00426 0.996109
0.99907 1 1 0.99907
0.998771 1 1 0.998771
0.998709 1 1 0.998709
0.999132 1 1 0.999132
0.998776 1 1 0.998776
0.999151 1 1 0.999151
0.998715 1 1 0.998715
0.998844 1 1.00009 0.998759
0.998744 1 1 0.998744
0.998925 1 1.00033 0.998592
0.998736 1 1.00003 0.998709
0.999132 1 1 0.999132
0.999692 1 1 0.999692
0.999719 1 1 0.999719
1 1 1 1
0.999726 1 1 0.999726
1 1 1 1
1 1 1 1
1 1 1 1
1 1 1 1
1 1 1 1
1 1 1 1
0.999988 1 1 0.999988
1 1 1 1
0.999933 1 1 0.999933
1 1 1 1
1 1 1 1
1.04906 1.05297 0.999349 0.99693
1.04774 1.05722 0.993907 0.997116
1.04357 1.0567 0.990159 0.997396
1.04554 1.0584 0.990565 0.997251
1.04781 1.05597 0.995221 0.997034
1.05162 1.05713 0.997996 0.996792
1.04709 1.05546 0.995029 0.997023
1.0477 1.06001 0.991144 0.997216
1.04654 1.06018 0.989787 0.997327
1.04398 1.05585 0.991348 0.997391
1.04889 1.06037 0.991984 0.997169
1.04953 1.06686 0.986346 0.997378
1.04809 1.06616 0.985564 0.997447
1.04606 1.05534 0.994155 0.997039
1.04649 1.05622 0.99371 0.997055
1.04089 1.05251 0.991649 0.99729
1.00505 1.00801 1 0.997059
1.00885 1.01224 1.00018 0.99648
1.01907 1.02234 1.00085 0.995957
1.03815 1.0466 0.994607 0.997301
1.03319 1.03849 0.997524 0.997359
1.03512 1.03861 1 0.996642
1.00191 1.00455 1.00017 0.997204
0.998562 1.00111 1 0.99745
1.00732 1.00189 1.00813 0.997307
0.999466 1 1.00003 0.999437
1.00572 1 1.00776 0.99797
1.00436 1 1.00591 0.998462
1.04698 1.05893 0.991568 0.997122
1.04389 1.06039 0.987168 0.997239
1.03497 1.05129 0.98706 0.997382
1.00318 1.00633 1 0.996863
1.00425 1.00682 1.0014 0.996063
1.01221 1.01547 1.0009 0.995894
1.03567 1.04869 0.990018 0.997535
1.02997 1.03415 0.99898 0.996973
0.999698 1 1 0.999698
1.00045 1 1.00162 0.998829
1.00038 1.00305 1.00025 0.99709
1.00942 1.00173 1.01053 0.99717
1.00576 1.00002 1.00821 0.997546
1.00459 1 1.00644 0.99816
1.04709 1.06436 0.986441 0.997299
1.03622 1.06113 0.979128 0.997345
1.03183 1.05143 0.983743 0.997579
1.0259 1.03723 0.991507 0.997542
1.00239 1.00454 1.00131 0.996556
1.01215 1.01465 1.0014 0.996139
1.00468 1.00629 1.00264 0.995774
0.999848 1 1 0.999848
0.999357 1 1 0.999357
0.999086 1 1 0.999086
1.00115 1 1.00278 0.998368
1.00601 1 1.0082 0.997826
1.00863 1 1.01134 0.997327
0.999277 1.00192 1.0002 0.997166
1.03176 1.00089 1.03352 0.997409
0.999017 1 1.00004 0.998976
1.00869 1 1.01043 0.998281
1.04532 1.05087 0.997413 0.997297
1.00599 1.00194 1.00626 0.997791
1.00384 1.00448 1.00215 0.997213
1.00743 1.00974 1.00004 0.997679
1.03195 1.03553 1 0.996541
1.03816 1.04132 1 0.996966
1.00648 1.00521 1.00482 0.996458
1.00753 1.01161 1 0.995958
1.00027 1 1.00167 0.99861
1.00749 1 1.00959 0.997925
1.00967 1.00841 1.00415 0.997113
1.00546 1.00661 1.00142 0.997446
1.043 1.06558 0.981245 0.997525
1.03835 1.04222 0.999056 0.997231
1.02086 1.0247 1 0.996254
1.01098 1.01116 1.00377 0.996057
1.00147 1 1.00307 0.998398
1.04375 1.06969 0.97816 0.997531
1.00204 1 1.00447 0.997571
1.00879 1.00927 1.00268 0.996852
1.03588 1.05241 0.986643 0.997626
1.0182 1.02194 1 0.996348
1.00797 1.0089 1.00323 0.995858
0.998784 1 1 0.998784
0.998698 1 1 0.998698
0.998756 1 1 0.998756
0.999149 1 1 0.999149
0.998813 1 1.00004 0.99877
0.998718 1 1 0.998718
0.99913 1 1 0.99913
0.998888 1 1.00017 0.998715
0.998753 1 1 0.998753
0.998744 1 1.00013 0.99861
0.998815 1 1 0.998815
0.998722 1 1.00008 0.998645
0.999092 1 1.00061 0.998483
0.998656 1 1 0.998656
0.999068 1 1 0.999068
0.999655 1 1 0.999655
0.999689 1 1 0.999689
1 1 1 1
0.999717 1 1 0.999717
1 1 1 1
1 1 1 1
1 1 1 1
1 1 1 1
1 1 1 1
0.999874 1 1 0.999874
1 1 1 1
0.999999 1 1 0.999999
1 1 1 1
0.999982 1 1 0.999982
1 1 1 1
1 1 1 1
1.0452 1.05675 0.991644 0.997401
1.04527 1.05925 0.989445 0.997326
1.04754 1.05963 0.991354 0.997206
1.04686 1.05534 0.994933 0.997023
1.04854 1.06027 0.991722 0.997188
1.04936 1.06628 0.986727 0.997369
1.04609 1.06416 0.98553 0.997456
1.04922 1.06672 0.986203 0.997358
1.05834 1.07737 0.984826 0.997471
1.0495 1.07232 0.980947 0.997733
1.04773 1.05943 0.991809 0.99713
1.04325 1.06013 0.986798 0.997246
1.03504 1.05091 0.987499 0.997375
1.00261 1.00571 1.00006 0.996856
1.00491 1.00753 1.00126 0.996143
1.01452 1.01783 1.00078 0.995972
1.03582 1.04829 0.990544 0.99754
1.02759 1.03227 0.998509 0.996953
1.00073 1.00335 1.00025 0.997138
1.01265 1.00233 1.01302 0.997317
1.00661 1.0003 1.00874 0.997591
0.999759 1 1 0.999759
1.00038 1 1.00155 0.998827
1.0047 1 1.00659 0.998125
1.04697 1.06464 0.986057 0.99731
0.999843 1 1 0.999843
0.999325 1 1 0.999325
1.03675 1.06034 0.980353 0.997347
1.03041 1.05052 0.983272 0.997548
1.00287 1.00448 1.00176 0.996642
1.00499 1.00593 1.00332 0.995765
1.01298 1.01606 1.00084 0.996131
1.02467 1.0367 0.990858 0.997517
0.999226 1 1.00006 0.999166
1.00104 1 1.00268 0.99836
1.00111 1.00181 1.00225 0.997063
1.02738 1.001 1.02884 0.997574
1.00708 1.0001 1.00966 0.997345
1.00555 1 1.00772 0.997843
1.05598 1.07642 0.983542 0.997427
1.01798 1.05853 0.964122 0.997484
1.02082 1.04335 0.980629 0.997731
1.00659 1.01851 0.991039 0.997234
1.00421 1.00213 1.00538 0.996718
1.00463 1.00341 1.0055 0.995735
0.999295 1 1 0.999295
0.999318 1 1 0.999318
0.999025 1 1 0.999025
0.998583 1 1.00004 0.998543
1.00336 1 1.00526 0.998114
1.00525 1.00016 1.00761 0.997496
1.04541 1 1.04818 0.997352
1.00181 1.00049 1.00365 0.997676
1.00063 1 1.00205 0.998577
1.00649 1 1.00857 0.997937
1.04445 1.06668 0.981566 0.997544
1.03881 1.04242 0.999354 0.997181
1.0048 1.00618 1.00115 0.997482
1.01149 1.00993 1.00441 0.997141
1.02137 1.02513 1.00004 0.996302
1.01235 1.01302 1.00335 0.996004
1.00169 1 1.00331 0.998382
1.04628 1.07288 0.977569 0.997584
1.00268 1 1.0051 0.997597
1.00747 1.008 1.00269 0.996794
1.03455 1.05145 0.986291 0.9976
1.01751 1.02116 1 0.996427
1.00889 1.00956 1.00348 0.995875
1.00406 1 1.00601 0.998065
1.01505 1.04503 0.973253 0.99801
1.00358 1.00303 1.00326 0.997302
1.00422 1.00407 1.00379 0.996373
1.01708 1.0272 0.99295 0.99718
1.00218 1.00391 1.00221 0.996069
0.980731 1.00376 0.979512 0.997495
0.998687 1 1 0.998687
0.999186 0.999806 1.00063 0.998755
0.999179 1 1.00051 0.998668
0.999127 1 1 0.999127
0.999121 1 1.0004 0.99872
0.998628 1 1 0.998628
0.998763 1 1 0.998763
0.999068 1 1 0.999068
0.998666 1 1.00002 0.998648
0.998781 1 1 0.998781
0.998857 1 1.00037 0.998484
0.998712 1 1.00008 0.998631
0.99877 1 1 0.99877
0.998787 1 1.00048 0.998304
0.999739 1 1.00128 0.998461
0.998561 1 1.00002 0.998539
0.998935 1 1 0.998935
0.99901 1 1.0003 0.998714
0.998909 1 1 0.998909
0.999636 1 1 0.999636
0.999653 1 1 0.999653
1 1 1 1
0.999686 1 1 0.999686
1 1 1 1
1 1 1 1
1 1 1 1
1 1 1 1
1 1 1 1
0.999898 1 1 0.999898
0.999874 1 1 0.999874
1 1 1 1
1 1 1 1
1 1 1 1
0.999999 1 1 0.999999
1 1 1 1
1 1 1 1
1.04436 1.06253 0.985392 0.997465
1.04908 1.06573 0.986985 0.997359
1.04824 1.06023 0.991461 0.997207
1.04925 1.06668 0.986264 0.997356
1.05597 1.07518 0.984625 0.997468
1.04892 1.07072 0.981937 0.997662
1.05972 1.08232 0.981537 0.997536
0.976298 1.01605 0.964829 0.995898
1.0125 1.04267 0.972605 0.998418
0.999424 1 1 0.999424
1.04686 1.06493 0.985674 0.997321
1.0374 1.05958 0.981672 0.997348
1.02899 1.04968 0.982733 0.997517
1.00016 1.00262 1.00082 0.996727
1.00426 1.0045 1.00402 0.995755
1.01272 1.01625 1.0004 0.996123
1.02361 1.03629 0.990254 0.997491
0.998936 1.00192 1.00006 0.996962
1.02021 1 1.02252 0.997742
1.00511 1 1.00777 0.997363
0.999839 1 1 0.999839
1.00645 1 1.0086 0.99786
0.999367 1 1.00012 0.999246
1.001 1 1.00266 0.998352
0.999292 1 1 0.999292
1.05279 1.07668 0.980326 0.997435
0.999337 1 1 0.999337
0.999317 1 1 0.999317
0.99899 1 1 0.99899
1.02212 1.0588 0.967786 0.997482
1.02132 1.04376 0.98078 0.997684
1.00121 1.00179 1.00269 0.996746
1.00722 1.00582 1.00556 0.99585
1.006 1.0164 0.992522 0.997219
0.998702 1 1.00011 0.998595
1.00361 1 1.00556 0.998068
1.00723 1.00031 1.00937 0.997573
1.03594 1 1.03866 0.997382
1.00413 1.00002 1.00659 0.997543
1.03561 1.06557 0.974282 0.997538
1.00272 1.05003 0.957215 0.997632
1.01364 1.02769 0.988903 0.997393
0.992695 1.00654 0.98924 0.996975
1.00353 1 1.00625 0.99729
0.998872 1 1 0.998872
0.998809 1 1 0.998809
0.999764 1 1.00105 0.998718
1.00307 1 1.00475 0.998326
1.00638 1 1.00846 0.997936
1.03412 1 1.03666 0.997553
1.0287 1.00126 1.02991 0.997564
1.00166 1 1.0033 0.998365
1.00324 1 1.00563 0.997623
1.048 1.07694 0.975435 0.997636
1.03369 1.05123 0.985706 0.997573
1.01703 1.0206 1 0.996506
1.00597 1.00656 1.00268 0.996737
1.00953 1.01005 1.0036 0.995892
1.00373 1 1.00564 0.998107
1.01401 1.04522 0.972044 0.998045
1.00131 1.00197 1.00204 0.997315
1.00352 1.00308 1.00408 0.996376
1.01648 1.02754 0.991926 0.997292
1.00249 1.00371 1.00273 0.99606
0.980536 1.00376 0.980221 0.996577
1.00416 1.00065 1.00558 0.997937
1.00454 1.02328 0.983666 0.997989
1.00061 1.00137 1.00204 0.997212
1.00441 1.0014 1.00644 0.996588
0.992761 1.00605 0.989721 0.997035
0.923389 0.978862 0.965605 0.97693
0.923041 0.97199 0.961019 0.988159
0.972258 0.985837 0.988602 0.997596
0.75164 0.84874 0.925552 0.956829
0.675706 0.816959 0.875954 0.944227
0.999321 0.999586 1.00098 0.998753
1.00006 0.999781 1.00156 0.998721
0.999358 1 1.00065 0.998708
0.999067 1 1 0.999067
0.998639 1 1 0.998639
0.998587 1 1.0001 0.998486
0.998661 1 1.00004 0.998616
0.998747 1 1 0.998747
1.00043 1 1.00199 0.998437
0.998969 1 1 0.998969
0.998567 1 1.00001 0.998559
0.998787 1 1.00005 0.998733
0.999115 1 1.00078 0.998341
1.00147 1 1.00312 0.998352
1.00215 1 1.00372 0.998434
1.00092 1 1.00255 0.998367
0.998752 1 1.00028 0.998474
0.998903 1 1 0.998903
0.998595 1 1.00004 0.998558
0.99875 1 1.00021 0.998543
0.998759 1 1.00003 0.998728
0.998968 1 1.00029 0.998674
0.99902 1 1 0.99902
0.998916 1 1.00001 0.998906
0.999631 1 1 0.999631
0.999636 1 1 0.999636
1 1 1 1
0.99965 1 1 0.99965
1 1 1 1
1 1 1 1
1 1 1 1
1 1 1 1
1 1 1 1
0.999923 1 1 0.999923
0.999895 1 1 0.999895
1 1 1 1
0.999873 1 1 0.999873
1 1 1 1
1 1 1 1
1 1 1 1
1 1 1 1
1 1 1 1
1.05324 1.07267 0.984388 0.997465
1.04931 1.06664 0.98636 0.997354
1.04894 1.06949 0.983153 0.997591
0.97785 1.01587 0.966471 0.99597
1.05664 1.07961 0.981138 0.997536
1.02435 1.04604 0.980942 0.998292
1.04194 1.0568 0.988251 0.99766
0.933621 0.981045 0.963925 0.987275
0.994026 1.01935 0.978352 0.996732
0.999441 1 1 0.999441
0.999421 1 1 0.999421
0.998983 1 1 0.998983
0.999064 1 1 0.999064
1.05053 1.07697 0.977944 0.997442
1.02582 1.0586 0.971486 0.997481
1.02172 1.04391 0.981054 0.997638
1.00033 1.00083 1.00274 0.996773
1.01037 1.00906 1.00536 0.995964
1.00507 1.01446 0.993519 0.997202
1.01625 1 1.01883 0.99747
1.02872 1.00003 1.03136 0.997411
1.00219 1 1.00462 0.997588
0.999316 1 1 0.999316
1.00205 1 1.00403 0.998021
0.998766 1 1.00012 0.998648
0.999379 1 1 0.999379
0.998954 1 1 0.998954
1.03327 1.06541 0.972207 0.997553
0.998913 1 1 0.998913
0.998866 1 1 0.998866
0.999134 1 1.00027 0.99886
1.00756 1.05262 0.959473 0.997625
1.01292 1.02753 0.98836 0.997392
1.00366 1.00038 1.00603 0.997272
0.995129 1.00671 0.991426 0.997044
1.00162 1 1.00335 0.998278
1.0053 1 1.00748 0.997841
1.03456 1.00127 1.03579 0.997546
1.03445 1.00021 1.03684 0.997485
0.997232 1.04252 0.958734 0.99773
0.995457 1.0326 0.96633 0.997615
1.00465 1.01073 0.996905 0.997065
0.985909 1.00089 0.987103 0.997901
0.999194 1 1.00062 0.998571
1.00077 1 1.00229 0.998485
1.0125 1 1.01426 0.998266
1.05332 1 1.05589 0.997567
0.899754 0.968703 0.953377 0.974245
1.00405 1 1.00591 0.998147
0.999299 1.00088 1.00109 0.997329
1.01435 1.04507 0.97247 0.998081
1.01604 1.02742 0.991489 0.997404
1.00282 1.00349 1.0033 0.99605
1.0032 1.00237 1.00447 0.996379
0.981216 1.00493 0.980681 0.995635
1.00294 1.00031 1.00465 0.997995
1.00446 1.02448 0.982445 0.997976
1.00031 1.0014 1.00169 0.997228
1.00453 1.00185 1.00611 0.99659
0.996245 1.00698 0.992281 0.997034
0.922169 0.985401 0.960526 0.97429
0.916788 0.969218 0.959824 0.985498
0.975985 0.98642 0.991782 0.99762
0.749681 0.844837 0.926563 0.957699
0.661374 0.806323 0.872599 0.93999
1.00122 1.0001 1.00295 0.998189
0.780554 0.866417 0.938571 0.959862
0.71454 0.822762 0.918537 0.945488
0.988698 1.00639 0.984443 0.997947
1.00743 1.00145 1.00834 0.997658
1.01286 1.00481 1.01068 0.997363
0.967077 0.979271 0.989653 0.997872
0.908247 0.961733 0.968427 0.975175
0.891037 0.942991 0.960274 0.983995
0.739333 0.845942 0.910359 0.960036
0.734838 0.868778 0.896315 0.943676
1.00136 0.999611 1.00298 0.998773
1.00066 0.999864 1.00211 0.998683
1.00285 1 1.00401 0.998848
0.999002 1 1 0.999002
0.998579 1 1 0.998579
1.00084 1 1.00243 0.998412
0.999665 1 1.00129 0.998377
0.998695 1 1 0.998695
0.998904 1 1 0.998904
1.00168 1 1.00335 0.998341
1.00129 1 1.00292 0.998378
0.998577 1 1.00007 0.998511
1.00216 1 1.00371 0.998457
1.00396 1 1.00557 0.998396
1.00931 1 1.01078 0.998553
0.99966 1 1.00135 0.998312
0.99874 1 1.00022 0.998523
0.998569 1 1.00001 0.998554
0.998932 1 1.00038 0.998547
0.999092 1 1.00072 0.998378
0.999121 1 1.00055 0.998574
0.999915 1 1.00137 0.998552
1.00382 1 1.00546 0.998366
0.999555 1 1.00087 0.998688
0.998862 1 1.00013 0.998729
0.999055 1 1 0.999055
0.998825 1 1.00019 0.998635
0.998992 1 1 0.998992
0.999621 1 1 0.999621
0.998902 1 1 0.998902
0.999632 1 1 0.999632
1 1 1 1
0.999636 1 1 0.999636
1 1 1 1
1 1 1 1
1 1 1 1
1 1 1 1
1 1 1 1
0.999398 1 1 0.999398
0.999927 1 1 0.999927
0.99992 1 1 0.99992
1 1 1 1
0.999891 1 1 0.999891
1 1 1 1
1 1 1 1
1 1 1 1
1 1 1 1
1 1 1 1
0.980005 1.01571 0.968672 0.996047
1.05424 1.07662 0.981631 0.997535
1.03112 1.04913 0.984641 0.998164
0.927091 0.974636 0.962396 0.988384
0.993846 1.01907 0.978284 0.996897
1.04187 1.06051 0.98477 0.997614
1.00617 1.02725 0.982493 0.996931
0.941309 0.975478 0.975035 0.989679
0.921381 0.977839 0.966596 0.974825
0.748072 0.84605 0.921216 0.95981
0.644218 0.778111 0.877577 0.943422
0.999009 1 1 0.999009
0.99944 1 1 0.99944
0.999417 1 1 0.999417
0.998975 1 1 0.998975
0.998742 1 1 0.998742
0.998764 1 1 0.998764
0.998947 1 1 0.998947
0.999025 1 1 0.999025
1.02952 1.06555 0.968541 0.997567
1.01291 1.0563 0.961208 0.997617
1.01243 1.02746 0.987943 0.997391
1.00292 1.00122 1.00445 0.997255
0.997553 1.00655 0.99393 0.997113
1.0375 1.00074 1.03931 0.997526
1.03395 1.00036 1.03625 0.997417
1.00611 1 1.00838 0.997746
0.998923 1 1 0.998923
1.00161 1 1.00339 0.998229
0.998956 1 1 0.998956
0.999002 1 1 0.999002
0.996378 1.04325 0.957237 0.997742
0.999385 1 1.00079 0.998593
1.00076 1 1.00223 0.998531
0.994143 1.03122 0.96637 0.99759
1.00198 1.01109 0.993767 0.997199
0.988061 1.00118 0.989084 0.997784
1.02065 1.00013 1.02248 0.998085
1.04931 1.001 1.05078 0.997596
0.982397 1.02717 0.958614 0.9977
0.986054 1.01007 0.978556 0.997618
0.979357 1.00166 0.980041 0.997646
0.989311 1.00118 0.99008 0.99805
1.00439 1 1.0062 0.9982
1.00979 1 1.01155 0.99826
1.04867 1 1.05088 0.997902
0.780457 0.875801 0.926811 0.961507
0.917399 0.975873 0.961342 0.977883
1.00115 0.999975 1.00312 0.998054
0.999885 1.00123 1.00142 0.997244
1.00446 1.02601 0.980998 0.997963
0.999141 1.00833 0.993839 0.997034
1.00478 1.00249 1.00571 0.996595
0.918252 0.975236 0.965498 0.975216
0.921217 0.975957 0.957203 0.986115
0.976908 0.985064 0.994069 0.997637
0.752874 0.846553 0.925636 0.96079
0.64857 0.795809 0.871055 0.935627
1.0006 0.999884 1.00253 0.998188
0.779288 0.872664 0.929633 0.960593
0.701552 0.810601 0.917606 0.943183
0.988475 1.00729 0.983346 0.997944
1.00751 1.00186 1.00799 0.99768
1.01109 1.00315 1.01043 0.997514
0.959899 0.973554 0.987916 0.998034
0.917749 0.972923 0.969716 0.97275
0.888349 0.942164 0.955852 0.986429
0.744787 0.843398 0.921626 0.958176
0.73364 0.874364 0.890026 0.942731
1.00299 1 1.00434 0.998652
0.74653 0.8348 0.944637 0.946672
0.819044 0.906586 0.946899 0.954101
0.988517 0.996764 0.993044 0.998672
1.01466 1.00249 1.01354 0.998609
0.969201 0.965057 1.00656 0.997753
0.894912 0.930323 0.973998 0.987618
0.877664 0.931311 0.970055 0.971487
0.748409 0.838896 0.930259 0.959019
0.780331 0.913622 0.902075 0.946825
1.00153 0.999614 1.00327 0.99866
1.00215 1 1.00335 0.99881
1.0057 0.999758 1.00687 0.999077
0.998905 1 1 0.998905
0.998548 1 1 0.998548
1.00198 1 1.0036 0.99839
1.00219 1 1.00387 0.99833
1.0019 1 1.00343 0.998479
0.998685 1 1.00016 0.998521
1.00256 1 1.00419 0.998379
0.99968 1 1.00137 0.998314
1.00943 0.999902 1.01093 0.99861
1.02794 0.998979 1.02992 0.999096
1.00481 1 1.00641 0.998407
0.999079 1 1.00081 0.998273
0.998568 1 1.00002 0.99855
0.999243 1 1.00069 0.998551
0.999385 1 1.00102 0.998371
0.99946 1 1.0009 0.998564
0.999355 1 1.00073 0.99863
1.0024 1 1.0039 0.9985
1.00044 1 1.00199 0.998453
1.00166 1 1.00302 0.99864
0.9991 1 1.0007 0.998398
0.998739 1 1.00093 0.997812
1.00315 1 1.0049 0.998263
1.00328 1 1.00492 0.998365
1.00286 1 1.00428 0.998582
1.00032 1 1.00163 0.998685
0.999037 1 1 0.999037
0.999171 1 1.00044 0.99873
0.999057 1 1 0.999057
0.999613 1 1 0.999613
0.998965 1 1 0.998965
0.999623 1 1 0.999623
0.999997 1 1 0.999997
0.999633 1 1 0.999633
0.999999 1 1 0.999999
1 1 1 1
1 1 1 1
1 1 1 1
1 1 1 1
0.999407 1 1 0.999407
0.999907 1 1 0.999907
0.9994 1 1 0.9994
1 1 1 1
0.999928 1 1 0.999928
0.999916 1 1 0.999916
1 1 1 1
1 1 1 1
1 1 1 1
1 1 1 1
1 1 1 1
0.773764 0.863586 0.935479 0.957788
0.707839 0.818848 0.914754 0.944991
0.928228 0.978338 0.959428 0.988903
0.99532 1.01884 0.979787 0.997067
1.04488 1.06448 0.983974 0.997569
0.923006 0.95929 0.970839 0.991076
1.00658 1.02661 0.983374 0.99707
0.933144 0.989664 0.966137 0.975938
0.748244 0.848406 0.921067 0.957521
0.644328 0.786478 0.872345 0.939144
0.956192 0.996237 0.966257 0.993321
0.919979 0.970468 0.971626 0.975659
0.736989 0.844696 0.90946 0.959349
0.719233 0.858969 0.888309 0.942601
0.999954 1 1.00136 0.998595
0.999043 1 1 0.999043
0.999438 1 1 0.999438
0.998967 1 1 0.998967
0.998796 1 1 0.998796
0.999648 1 1.00109 0.998563
0.998743 1 1 0.998743
0.998647 1 1 0.998647
0.998908 1 1 0.998908
0.998986 1 1 0.998986
0.996625 1.04341 0.957314 0.997754
0.991251 1.02864 0.966002 0.997568
0.999646 1.01173 0.990699 0.997335
0.99018 1.00131 0.991195 0.997666
1.04428 1.00254 1.04411 0.997625
1.02927 1.00021 1.03122 0.997905
0.99936 1 1.00078 0.998578
0.99953 1 1.00092 0.998614
0.983249 1.02748 0.959093 0.997764
1.00536 1 1.00721 0.998166
1.00936 1 1.01116 0.998215
0.983647 1.00829 0.977956 0.997553
0.977439 1.00128 0.9784 0.997739
0.990927 1.002 0.990951 0.99798
1.04244 1 1.04468 0.99786
0.98107 1.00387 0.97921 0.998034
0.971813 0.999472 0.973854 0.998431
1.01367 1.00091 1.01459 0.998195
1.00863 1 1.01053 0.998118
1.00937 1 1.01139 0.998009
1.02683 1 1.02889 0.998005
0.77089 0.850195 0.95029 0.954153
0.788529 0.874654 0.937499 0.961636
0.905935 0.972419 0.956155 0.974351
1.0004 0.999766 1.00245 0.998187
1.0072 1.00183 1.00767 0.9977
0.991026 1.00836 0.984835 0.997942
1.00951 1.00176 1.0101 0.997661
0.774609 0.867671 0.92814 0.961865
0.912501 0.969225 0.966263 0.974346
0.885097 0.938845 0.957983 0.984101
0.956979 0.969642 0.988728 0.998191
0.739436 0.843431 0.91727 0.955772
0.701792 0.811926 0.915716 0.94391
0.724892 0.865461 0.886305 0.945023
1.00321 0.99984 1.00473 0.998644
0.748326 0.837461 0.941353 0.949235
0.830283 0.916825 0.949405 0.953868
0.988336 0.994555 0.994979 0.998761
1.01458 1.00152 1.0145 0.998565
0.966545 0.963806 1.0047 0.998155
0.888584 0.933866 0.965681 0.985327
0.893113 0.939332 0.975889 0.974287
0.76801 0.860747 0.932533 0.956813
0.768166 0.902104 0.897496 0.948781
1.00728 0.998986 1.00888 0.999431
0.844891 0.921955 0.954641 0.959955
0.816005 0.912379 0.933385 0.958202
0.987888 0.973576 1.01499 0.999715
0.916401 0.930052 0.993689 0.991581
0.899422 0.929366 0.994577 0.973057
0.811861 0.891232 0.95381 0.955057
0.804111 0.938687 0.903446 0.948185
1.00209 1 1.00332 0.998773
1.00577 0.999442 1.00727 0.999072
1.02302 0.997644 1.0261 0.999354
0.998794 1 1.00027 0.99852
0.999604 1 1.00129 0.998316
1.00078 1 1.00242 0.998362
1.00954 0.999785 1.01111 0.998667
0.999353 1 1.00108 0.998272
1.00475 1 1.00636 0.998398
1.03254 0.999646 1.03376 0.999174
1.04288 0.996544 1.04707 0.999446
1.03335 0.999365 1.03498 0.999068
0.999338 1 1.00099 0.998352
0.999624 1 1.00126 0.998363
0.999392 1 1.00084 0.998553
0.998707 1 1 0.998707
1.0001 1 1.00163 0.99847
1.00165 1 1.00315 0.998501
1.00217 1 1.00352 0.998656
1.00098 1 1.00248 0.998503
1.00652 0.999497 1.00807 0.998966
0.997356 1.00022 0.998632 0.998498
0.999709 1.00047 1.00082 0.998418
0.998718 1 1.00069 0.998024
1.00092 1.00237 1.00153 0.997028
1.00222 1 1.00407 0.99816
0.998817 1 1.00079 0.998026
1.00284 1 1.00456 0.99828
1.00511 1 1.0067 0.998424
1.00246 1 1.00411 0.998365
1.00254 1 1.00397 0.998581
0.999178 1 1.00024 0.998942
1.00059 1 1.00191 0.998683
0.999034 1 1 0.999034
0.999598 1 1 0.999598
0.999058 1 1 0.999058
0.999614 1 1 0.999614
0.999991 1 1 0.999991
0.999625 1 1 0.999625
0.999995 1 1 0.999995
1 1 1 1
0.999999 1 1 0.999999
1 1 1 1
1 1 1 1
0.999179 1 1 0.999179
0.999869 1 1 0.999869
0.999336 1 1 0.999336
1 1 1 1
0.999911 1 1 0.999911
0.999401 1 1 0.999401
1 1 1 1
1 1 1 1
0.999929 1 1 0.999929
1 1 1 1
1 1 1 1
1 1 1 1
0.742008 0.834116 0.936855 0.949533
0.779905 0.870818 0.933476 0.959425
0.824805 0.915807 0.944617 0.953436
0.703542 0.815609 0.914106 0.943652
0.924025 0.968681 0.964846 0.988656
1.00453 1.02612 0.981689 0.997219
0.938342 0.987181 0.973053 0.97685
0.757478 0.851831 0.926284 0.960001
0.64838 0.798188 0.868983 0.934788
0.954549 0.991102 0.970428 0.992467
0.914271 0.970311 0.969842 0.971545
0.750488 0.85309 0.918667 0.957615
0.72062 0.863407 0.88747 0.940453
0.931313 0.977278 0.962456 0.99014
0.893557 0.935646 0.983626 0.970913
0.771536 0.871415 0.927133 0.954968
0.774336 0.911395 0.899913 0.94411
1.00168 1 1.00336 0.998326
0.99929 1 1.00065 0.99864
0.999077 1 1 0.999077
0.998849 1 1 0.998849
0.99863 1 1.0004 0.998229
0.998956 1 1.00035 0.998605
0.998722 1 1 0.998722
0.998615 1 1 0.998615
0.998693 1 1.00001 0.998685
0.998868 1 1 0.998868
0.98454 1.02866 0.959197 0.997826
0.983563 1.00732 0.978875 0.997492
0.975404 1.00129 0.976266 0.997832
0.994772 1.00326 0.993616 0.997912
1.03514 1 1.0374 0.997817
1.00859 1 1.01044 0.998171
1.00578 1 1.00766 0.998131
1.00774 1 1.00968 0.998081
0.978665 1.00412 0.976561 0.998042
1.00783 1 1.00985 0.997999
1.02738 1 1.02945 0.99799
0.970396 0.999905 0.972035 0.998408
1.01041 1.00196 1.0103 0.998152
0.953527 0.982941 0.971579 0.998453
0.985473 0.991065 0.99512 0.999234
1.03853 0.999668 1.04053 0.998405
1.00482 1 1.00682 0.99801
1.01745 1 1.01942 0.998067
0.85445 0.927455 0.956451 0.963233
0.7724 0.849622 0.953359 0.953587
0.777325 0.86894 0.932413 0.959411
1.00345 0.99988 1.00494 0.998638
1.015 1.00052 1.01597 0.998522
0.984947 0.992275 0.993757 0.998851
0.751807 0.839818 0.942272 0.950046
0.891732 0.935349 0.981654 0.971185
0.891688 0.931689 0.969855 0.986814
0.958415 0.960162 0.999633 0.998547
0.768163 0.863381 0.927404 0.959361
0.837252 0.922225 0.951927 0.953708
0.772889 0.905422 0.899549 0.948946
1.00583 0.998915 1.00754 0.999385
0.841853 0.920746 0.951014 0.961413
0.816164 0.912431 0.933457 0.958259
0.990466 0.97742 1.0138 0.99955
0.927963 0.939792 0.99604 0.991338
0.875153 0.922414 0.978154 0.969953
0.804889 0.938584 0.903779 0.948857
0.826622 0.898822 0.961784 0.956216
1.00329 0.981539 1.02245 0.999711
0.825441 0.907138 0.940245 0.96777
0.839157 0.934233 0.935829 0.959823
0.773854 0.910251 0.900278 0.944326
0.965435 0.954048 1.01418 0.997789
0.92497 0.942857 1.00694 0.974264
0.86834 0.931821 0.97296 0.957773
1.0063 0.999101 1.00815 0.999066
1.02277 0.997393 1.02619 0.99927
1.02252 0.985657 1.03785 0.999566
0.999401 1 1.00113 0.998272
1.00431 1 1.00593 0.998389
1.03747 0.999804 1.03845 0.999251
0.999677 1 1.00132 0.998358
1.03259 0.999452 1.03411 0.999079
1.0443 0.996367 1.04872 0.999421
1.03283 0.992686 1.04097 0.999489
1.0213 0.998998 1.02329 0.999058
0.999978 1 1.00149 0.998488
1.0013 1 1.00281 0.998503
1.00274 1 1.00407 0.998674
1.0059 0.999799 1.00717 0.998939
1.00046 1 1.00196 0.998501
1.00213 1 1.00328 0.998855
0.998087 1.00007 0.999251 0.998764
1.00188 1.0002 1.00408 0.997608
1.00019 1.00091 1.00084 0.998442
0.999147 1.00064 1.00057 0.99794
0.998559 1.00077 1.00101 0.996782
1.01203 1.01403 1.00129 0.996746
1.00196 1.00138 1.00276 0.997818
0.999999 1.00155 1.00138 0.997077
1.00751 1 1.0093 0.998229
1.0032 1.00033 1.00473 0.99815
0.998883 1 1.00065 0.998238
1.00269 1 1.00441 0.998296
1.00449 1 1.00604 0.998458
0.999811 1 1.001 0.998815
1.00242 1 1.00384 0.99858
0.99926 1 1.00032 0.998942
0.999543 1 1 0.999543
0.999031 1 1 0.999031
0.999596 1 1 0.999596
0.999986 1 1 0.999986
0.999614 1 1 0.999614
0.999989 1 1 0.999989
1 1 1 1
0.999993 1 1 0.999993
1 1 1 1
1 1 1 1
0.998941 1 1 0.998941
0.999686 1 1 0.999686
0.999177 1 1 0.999177
1 1 1 1
0.999821 1 1 0.999821
0.999265 1 1 0.999265
1 1 1 1
1 1 1 1
0.999916 1 1 0.999916
1 1 1 1
1 1 1 1
1 1 1 1
0.841145 0.924593 0.94711 0.960549
0.739409 0.833756 0.932119 0.951424
0.776427 0.866824 0.933996 0.959013
0.998494 1 1 0.998494
0.822093 0.91019 0.940344 0.96051
0.823524 0.915375 0.943732 0.953298
0.707054 0.822401 0.909256 0.945546
0.962118 0.993886 0.97645 0.991383
0.911666 0.9634 0.970529 0.975037
0.754223 0.865104 0.912805 0.95511
0.715709 0.85207 0.891994 0.941672
0.929077 0.973897 0.966291 0.987257
0.892189 0.936267 0.978346 0.974013
0.780815 0.872665 0.936546 0.955369
0.770382 0.905661 0.900425 0.944698
0.890848 0.936623 0.966256 0.984343
0.888297 0.92139 0.992421 0.971446
0.840198 0.911055 0.964118 0.956549
0.805102 0.938035 0.905248 0.948123
1.00116 1 1.00307 0.998097
1.0029 1 1.00462 0.998282
0.998838 1 1.00015 0.998685
0.998311 1 1.00002 0.998294
0.998858 1 1.00056 0.998295
0.998648 1 1 0.998648
0.998621 1 1 0.998621
0.998747 1 1.00003 0.998722
0.975169 1.00478 0.972428 0.998046
0.968535 1.00073 0.969389 0.998392
1.00724 1 1.00921 0.998043
1.00744 1.00297 1.00636 0.998108
1.02921 1 1.0313 0.997975
1.00722 1 1.00924 0.99799
1.00512 1 1.00711 0.998021
0.957925 0.98343 0.975479 0.998551
1.01591 1 1.01784 0.998096
1.02799 1.00032 1.02927 0.998437
0.982367 0.992001 0.990996 0.999286
1.00715 1 1.00902 0.998145
0.951292 0.969838 0.982555 0.998292
1.0019 0.987845 1.01476 0.999473
1.04845 0.997261 1.05287 0.998537
1.01018 1 1.01195 0.998256
0.835919 0.910152 0.946524 0.970329
0.853852 0.927391 0.955906 0.963173
0.77551 0.848948 0.958535 0.953012
1.00375 0.998648 1.00577 0.999342
0.993634 0.980534 1.01398 0.999388
0.841028 0.921538 0.947859 0.962839
0.900479 0.924721 0.999998 0.973786
0.91747 0.937278 0.9906 0.988155
0.826104 0.899273 0.96201 0.954913
0.816951 0.913472 0.933254 0.958298
0.806611 0.939345 0.904334 0.949532
1.00713 0.987713 1.02 0.999669
0.827046 0.908456 0.940735 0.967739
0.838205 0.932051 0.934974 0.961857
0.974182 0.959434 1.01593 0.999452
0.76934 0.904238 0.900502 0.944824
0.90357 0.926927 1.00268 0.972197
0.875021 0.939178 0.973238 0.957308
1.00234 0.976787 1.02641 0.999753
0.849423 0.928078 0.94366 0.969893
0.81977 0.907433 0.940324 0.960726
0.717099 0.857372 0.887137 0.942799
0.839146 0.910732 0.963724 0.95608
0.952932 0.952164 1.00565 0.995188
0.932145 0.940502 1.02311 0.968725
1.01996 0.997836 1.023 0.999188
1.0248 0.986924 1.03886 0.999534
1.01125 0.975192 1.03741 0.999582
0.99997 1 1.00161 0.998364
1.03451 0.999515 1.03596 0.999091
1.04603 0.997517 1.04927 0.999396
1.01628 0.999189 1.01808 0.999045
1.03282 0.994352 1.03922 0.999488
1.01145 0.990034 1.02241 0.999235
1.00479 1 1.00588 0.998911
1.00008 1 1.00158 0.998501
1.00443 1 1.0056 0.998835
1.00981 1 1.01167 0.998162
0.999028 1 1 0.999028
1.00009 1.00019 1.00211 0.997794
1.00176 1.00085 1.00442 0.996499
1.00538 1.00744 1.00188 0.996091
0.999648 1.00139 1.0004 0.997853
0.998956 1.00127 1.00109 0.996602
1.01316 1.01584 1.00053 0.996837
1.00728 1.00734 1.00261 0.997339
1.01114 1.01308 1.00125 0.996834
1.007 1 1.00899 0.99803
1.00399 1.00289 1.00331 0.997795
0.998806 1.0004 1.00128 0.997127
1.00304 1 1.00441 0.99863
1.00693 1 1.0087 0.998244
1.00416 1.00058 1.00545 0.998142
1.00415 1 1.00566 0.998493
1.00031 1 1.0015 0.998815
0.99946 1 1.00002 0.999439
0.999464 1 1.00052 0.998943
0.999539 1 1 0.999539
0.999981 1 1 0.999981
0.999593 1 1 0.999593
0.999986 1 1 0.999986
1 1 1 1
0.999988 1 1 0.999988
1 1 1 1
1 1 1 1
0.998854 1 1 0.998854
0.999545 1 1 0.999545
0.998985 1 1 0.998985
1 1 1 1
0.999671 1 1 0.999671
0.999174 1 1 0.999174
1 1 1 1
1 1 1 1
0.999773 1 1 0.999773
1 1 1 1
1 1 1 1
1 1 1 1
0.831484 0.909914 0.943408 0.968621
0.843876 0.924218 0.950586 0.960534
0.739827 0.83384 0.932391 0.951589
0.998528 1 1 0.998528
0.998456 1 1 0.998456
0.998394 1 1 0.998394
0.838335 0.935629 0.933726 0.959609
0.818692 0.909663 0.93694 0.960568
0.822848 0.914791 0.943687 0.953169
0.93416 0.978275 0.965291 0.989241
0.878862 0.931241 0.97214 0.9708
0.771197 0.856356 0.938983 0.959077
0.782462 0.914875 0.906553 0.943427
0.893374 0.940741 0.962146 0.987012
0.894293 0.925576 0.994179 0.971859
0.819071 0.887944 0.963438 0.957441
0.804475 0.938766 0.903253 0.948737
0.889451 0.930015 0.971086 0.98486
0.908741 0.930964 1.00331 0.972906
0.868067 0.929958 0.974378 0.957994
0.784166 0.916378 0.903823 0.946781
0.998805 1 1.00064 0.998163
1.00182 1 1.00376 0.998069
1.00281 1 1.00458 0.998238
0.998296 1 1.00001 0.998284
0.998699 1 1.00034 0.998362
0.998627 1 1 0.998627
0.96072 0.980996 0.980675 0.998631
0.977627 0.991103 0.987072 0.999323
1.00529 1 1.00727 0.998033
1.01964 1.00052 1.02067 0.998467
1.01648 1 1.01839 0.998125
1.00911 1 1.011 0.998132
1.00993 0.999638 1.01204 0.998282
0.958106 0.969959 0.989377 0.998386
1.04684 0.99685 1.05153 0.998679
1.006 0.98388 1.02311 0.999387
1.00849 0.999659 1.01041 0.998437
0.977486 0.96277 1.01716 0.998159
1.00634 0.978523 1.02905 0.999399
1.03489 0.990552 1.04602 0.998794
0.862093 0.932986 0.950364 0.972274
0.837378 0.910673 0.947143 0.970831
0.853277 0.927254 0.955464 0.963112
1.0123 0.993929 1.01886 0.999627
0.963103 0.956451 1.00867 0.998301
0.828581 0.909495 0.941434 0.967709
0.899085 0.915446 1.00605 0.976224
0.869697 0.936405 0.971793 0.955719
0.838291 0.930468 0.934687 0.963889
0.783321 0.914115 0.90808 0.943658
0.998091 0.974099 1.02485 0.999782
0.850486 0.927821 0.94437 0.970647
0.820236 0.909727 0.938428 0.960787
0.94914 0.947725 1.01006 0.991517
0.718944 0.861648 0.886927 0.940757
0.81411 0.886289 0.960101 0.956733
0.941738 0.946444 1.02251 0.973121
1.00184 0.961021 1.04358 0.998945
0.832291 0.909212 0.944915 0.968763
0.831812 0.920727 0.947202 0.953789
0.643064 0.775614 0.878321 0.943964
0.765574 0.865723 0.926066 0.954919
0.907722 0.927807 1.00632 0.972212
0.927766 0.943173 0.994734 0.988872
1.02787 0.988077 1.04079 0.999501
1.01544 0.981855 1.03463 0.999586
1.01239 0.986584 1.02666 0.999517
1.01093 0.999503 1.01241 0.999032
1.03092 0.995561 1.03605 0.999487
1.015 0.988135 1.02789 0.999319
1.00862 1 1.00982 0.998813
1.00678 1 1.00798 0.998814
1.00816 1.00003 1.01016 0.997988
1.01931 1.00082 1.02188 0.996665
0.998163 1.00005 1.00013 0.997982
1.00325 1.00119 1.00559 0.99649
1.0043 1.00252 1.00618 0.995627
1.0056 1.00805 1.00191 0.995676
1.00769 1.01019 1.00108 0.996446
1.00523 1.0073 1.00191 0.996041
0.9992 1.00154 1.00124 0.996424
1.00596 1.00774 1.0011 0.997136
1.01335 1.016 1.00048 0.996922
1.00242 1.00016 1.00464 0.997634
1.0086 1.00846 1.00274 0.997404
1.01085 1.01278 1.00117 0.996923
1.00763 1 1.00931 0.998332
1.00634 1.0002 1.00812 0.998028
1.00618 1.00461 1.0038 0.997771
0.999599 1 1.0003 0.9993
1.0026 1 1.00398 0.998628
1.00603 1 1.00778 0.998258
1.00024 1 1.00143 0.998814
0.999498 1 1.00006 0.999434
0.999967 1 1 0.999967
0.999535 1 1 0.999535
0.999978 1 1 0.999978
1 1 1 1
0.999985 1 1 0.999985
1 1 1 1
1 1 1 1
0.998821 1 1 0.998821
0.999527 1 1 0.999527
0.998881 1 1 0.998881
0.999999 1 1 0.999999
0.999586 1 1 0.999586
0.999029 1 1 0.999029
1 1 1 1
1 1 1 1
0.999656 1 1 0.999656
1 1 1 1
1 1 1 1
1 1 1 1
0.848851 0.92803 0.943236 0.969727
0.83361 0.910662 0.945067 0.968597
0.845376 0.923299 0.953209 0.960549
0.999511 1 1.00116 0.998354
0.99965 1 1.00144 0.998216
0.998561 1 1 0.998561
0.998445 1 1 0.998445
0.998385 1 1 0.998385
0.998377 1 1 0.998375
0.998342 1 1 0.998342
0.816722 0.915094 0.931645 0.957984
0.840089 0.933605 0.935702 0.961668
0.816972 0.908233 0.936384 0.96063
0.804546 0.939627 0.901907 0.949366
0.887486 0.93644 0.96249 0.984657
0.893963 0.92198 0.997283 0.972254
0.827594 0.898959 0.960429 0.958544
0.881018 0.931126 0.96164 0.983929
0.906508 0.923795 1.0119 0.969743
0.873845 0.938212 0.972285 0.957943
0.769899 0.903927 0.897743 0.948743
0.904006 0.934492 0.980619 0.986496
0.919099 0.933103 1.01608 0.969401
0.816615 0.895005 0.955001 0.955406
0.735904 0.871106 0.895469 0.943409
1.01328 1 1.01489 0.998419
1.0003 1 1.00212 0.998178
1.00289 1 1.00486 0.998041
0.998275 1 1 0.998275
0.965128 0.970377 0.996076 0.998508
1.00832 0.981942 1.02758 0.999296
1.00825 1 1.01014 0.99812
1.00938 0.999952 1.01114 0.998308
1.03954 0.995021 1.04597 0.998821
1.00684 0.99999 1.00843 0.998434
1.03598 0.990594 1.0471 0.998781
0.975988 0.962281 1.01738 0.996919
1.00454 0.969779 1.03632 0.999542
1.01218 0.991245 1.02224 0.998909
0.954896 0.933233 1.02673 0.99657
1.01435 0.969205 1.04732 0.999296
0.836969 0.909742 0.948053 0.970417
0.86008 0.932224 0.947861 0.973361
0.838541 0.910946 0.947685 0.971331
0.992867 0.969586 1.02421 0.999805
0.955166 0.952092 1.00775 0.995512
0.849688 0.926643 0.943942 0.971409
0.940039 0.949595 1.02123 0.969354
0.818755 0.89324 0.956905 0.957893
0.820227 0.911398 0.93664 0.960844
0.715078 0.850542 0.89254 0.941955
1.00326 0.963485 1.0422 0.999116
0.83312 0.911463 0.94354 0.968742
0.826446 0.916704 0.945354 0.953654
0.930352 0.943347 0.994814 0.991366
0.644324 0.785419 0.872959 0.939744
0.772834 0.865992 0.934412 0.955068
0.906788 0.924792 1.01078 0.970071
0.995851 0.968993 1.03028 0.997515
0.842329 0.925989 0.946739 0.960828
0.707924 0.817756 0.91553 0.945563
0.739082 0.846384 0.909736 0.959864
0.878573 0.910833 0.99156 0.972791
0.895021 0.925213 0.9818 0.9853
1.01965 0.985846 1.03471 0.99959
1.01319 0.983568 1.03061 0.999516
0.986127 0.981123 1.00578 0.999322
1.01927 0.98651 1.03383 0.999402
1.00619 0.993066 1.01433 0.998898
1.0019 1.0008 1.00331 0.997806
1.00679 1.00003 1.00897 0.997814
1.01713 1.00076 1.01986 0.996563
1.00978 1.00044 1.01367 0.995731
1.00491 1.00184 1.0066 0.996481
1.00488 1.00228 1.00709 0.995538
1.00198 1.0022 1.00448 0.995317
1.01915 1.02342 1 0.995827
1.01269 1.01603 1.00077 0.995955
1.00593 1.00815 1.00218 0.99562
1.0047 1.00786 1.00013 0.996743
1.00651 1.00928 1.00074 0.996509
1.00499 1.00712 1.00191 0.995991
1.00273 1.00443 1.00112 0.997187
1.00596 1.00779 1.00108 0.997112
1.01328 1.01589 1.00043 0.997007
1.00561 1.00006 1.00762 0.997942
1.00298 1.00068 1.00462 0.997696
1.0097 1.00936 1.00288 0.99747
1.0015 1 1.00245 0.999048
1.00628 1 1.00796 0.998336
1.00566 1.00039 1.00726 0.998027
0.999941 1 1 0.999941
1.00003 1 1.00074 0.999293
1.00255 1 1.00392 0.998627
0.999694 1 1.00026 0.99943
0.99996 1 1 0.99996
1 1 1 1
0.999974 1 1 0.999974
1 1 1 1
1 1 1 1
1.00158 1 1.00324 0.998343
0.998752 1 1.00006 0.998687
0.999414 1 1 0.999414
0.998818 1 1 0.998818
0.999988 1 1 0.999988
0.99953 1 1 0.99953
0.998907 1 1 0.998907
1 1 1 1
0.999999 1 1 0.999999
0.999628 1 1 0.999628
1 1 1 1
1 1 1 1
1 1 1 1
0.824893 0.907247 0.939629 0.967644
0.847293 0.926126 0.942691 0.970496
0.834489 0.912716 0.943963 0.968568
0.999566 1 1.0012 0.998365
1.00061 1 1.00239 0.998216
1.00026 1 1.00201 0.998252
0.999558 1 1.00133 0.998226
1.00545 1 1.00728 0.998177
0.998433 1 1 0.998433
0.998375 1 1 0.998375
0.998377 1 1 0.998377
0.998347 1 1 0.998347
1.0077 1 1.00931 0.998402
0.819413 0.908158 0.945974 0.953811
0.817466 0.914535 0.932981 0.958069
0.841421 0.932737 0.936062 0.963717
0.772384 0.906461 0.897955 0.94892
0.8705 0.935259 0.973562 0.956034
0.875367 0.926295 0.961771 0.982583
0.91577 0.932658 1.0096 0.972554
0.901167 0.9376 0.977231 0.983537
0.928815 0.943577 1.01208 0.972604
0.829948 0.89954 0.964045 0.957046
0.735281 0.877006 0.889667 0.942374
0.915065 0.930017 0.998109 0.985787
0.911663 0.926277 1.01131 0.973218
0.750867 0.841318 0.930982 0.958653
0.675126 0.816388 0.876583 0.943399
1.01249 1 1.01352 0.998981
1.01451 1 1.01611 0.998427
1.00307 1 1.00488 0.998194
0.977434 0.964615 1.01774 0.995629
1.00706 0.963855 1.04514 0.999695
1.00663 1 1.00822 0.99843
1.03851 0.990185 1.0501 0.998768
1.01338 0.994113 1.02049 0.998915
1.01971 0.975821 1.04573 0.999285
0.960952 0.943586 1.02196 0.996526
1.01748 0.993147 1.02517 0.999345
0.973323 0.959759 1.01725 0.996931
0.853024 0.92705 0.95562 0.962882
0.839309 0.91107 0.948834 0.970911
0.857968 0.931228 0.945487 0.97445
1.00531 0.969348 1.03786 0.999266
0.926635 0.940995 0.997447 0.987259
0.836295 0.913713 0.944831 0.968715
0.910577 0.932805 1.00641 0.969955
0.762077 0.847884 0.937476 0.958743
0.821165 0.912632 0.943617 0.95354
0.648056 0.797036 0.869197 0.935441
0.994673 0.967715 1.0302 0.997724
0.843529 0.92378 0.950377 0.960806
0.703818 0.815483 0.914027 0.944249
0.90261 0.933209 0.980231 0.986717
0.751746 0.853858 0.918957 0.958055
0.873156 0.91621 0.981822 0.970654
0.956459 0.956088 1.00428 0.996123
0.742325 0.834925 0.935883 0.950003
0.748042 0.84582 0.92091 0.960353
0.889893 0.935244 0.97992 0.971007
0.873258 0.922422 0.958658 0.987527
1.01208 0.980819 1.03238 0.999515
0.989811 0.97965 1.01108 0.999296
0.995834 0.993615 1.00377 0.998466
1.0034 0.985437 1.01927 0.998979
1.00147 1.00083 1.00276 0.997889
0.998008 1.00199 0.999119 0.996909
1.01475 1.00067 1.01767 0.996461
1.00836 1.00074 1.01193 0.995736
0.999157 1.00185 1.00137 0.995948
1.00518 1.00195 1.00781 0.995448
1.00212 1.00309 1.0037 0.99535
1.01727 1.02131 1 0.996043
1.0396 1.04336 1 0.996399
1.02898 1.0332 1.00002 0.995906
1.01917 1.02341 1 0.995855
1.01438 1.01821 1 0.996239
1.01123 1.0143 1.00107 0.995902
1.0064 1.00843 1.00244 0.995564
1.0064 1.00953 1 0.996903
1.0032 1.00638 1.00002 0.996817
1.0051 1.00824 1.00032 0.996573
1.00086 1.00123 1.00208 0.997554
1.00253 1.00403 1.0013 0.997222
1.00613 1.00797 1.0011 0.997089
1.00665 1 1.00804 0.998622
1.00602 1.00033 1.00776 0.997945
1.00353 1.00104 1.00475 0.997758
0.99989 1 1 0.99989
1.00233 1 1.00329 0.99904
1.00561 1 1.00728 0.998341
0.999999 1 1 0.999999
0.99993 1 1 0.99993
1.00035 1 1.00106 0.999286
0.999954 1 1 0.999954
1 1 1 1
1 1 1 1
1.00467 1 1.00643 0.99825
1.00003 1 1.00149 0.998545
1.0021 1 1.00378 0.998323
0.999298 1 1 0.999298
0.998994 1 1.00031 0.998685
0.999967 1 1 0.999967
0.999418 1 1 0.999418
0.998814 1 1 0.998814
1 1 1 1
0.999992 1 1 0.999992
0.999533 1 1 0.999533
1 1 1 1
1 1 1 1
1 1 1 1
0.840789 0.922338 0.946431 0.963181
0.82809 0.909536 0.940921 0.967619
0.847464 0.923951 0.944351 0.971269
0.998892 1.00024 1.00039 0.998259
1.00007 1 1.0017 0.998376
1.0009 1 1.00269 0.998217
0.999159 1 1.00094 0.998221
1.00015 1 1.00188 0.998274
1.00341 1 1.00516 0.998262
1.01141 1 1.01352 0.997917
1.01378 1 1.01559 0.998219
0.99838 1 1 0.99838
0.998351 1 1 0.998351
1.00737 1 1.00899 0.998387
1.02057 0.999628 1.02239 0.998599
0.714891 0.822178 0.920122 0.944992
0.830061 0.918208 0.948004 0.953583
0.818407 0.914394 0.934134 0.958134
0.72746 0.869082 0.886105 0.944633
0.831282 0.903289 0.962468 0.956171
0.922793 0.936755 1.01612 0.969468
0.901602 0.930237 0.984726 0.984251
0.913499 0.929611 0.994846 0.987759
0.6621 0.807548 0.872901 0.93927
0.905885 0.92457 1.00978 0.970302
0.769403 0.86179 0.933584 0.956311
0.913492 0.938166 0.984671 0.988858
0.897214 0.925965 0.994489 0.974319
0.73961 0.847101 0.910932 0.958476
0.998454 1 0.998913 0.999541
1.012 1 1.01302 0.998987
1.01438 1 1.01597 0.998434
0.959796 0.944657 1.01954 0.996553
1.02516 0.982317 1.04438 0.999273
1.01382 0.996857 1.01812 0.998922
1.01728 0.994061 1.02403 0.999344
0.970224 0.958656 1.01514 0.996976
0.993362 0.986788 1.00873 0.997952
0.771884 0.84993 0.95487 0.951098
0.850322 0.926268 0.951585 0.964715
0.839269 0.911707 0.947652 0.971397
0.995912 0.966864 1.03224 0.99787
0.892754 0.928644 0.973441 0.987581
0.842427 0.921661 0.951306 0.960818
0.878728 0.90864 0.995152 0.971792
0.757501 0.867962 0.91324 0.955647
0.707977 0.822708 0.909564 0.946107
0.957148 0.953704 1.00745 0.996194
0.739821 0.834287 0.931619 0.951859
0.749343 0.84856 0.921707 0.958088
0.873711 0.923382 0.961237 0.984364
0.890471 0.938605 0.973976 0.974068
0.949118 0.965197 0.985196 0.998118
0.770579 0.860677 0.934433 0.95814
0.922003 0.972917 0.971412 0.975557
0.883868 0.936493 0.959031 0.984125
0.992837 0.977929 1.01598 0.999276
0.987608 0.993381 0.995623 0.99856
0.994276 1.00123 0.995424 0.997619
1.00183 1.00094 1.00292 0.997972
1.00133 1.00245 1.002 0.996889
1.00029 1.00398 0.999428 0.996893
1.00705 1.00101 1.01033 0.995742
0.999026 1.00141 1.00167 0.995958
1.02211 1.02629 0.999084 0.99684
1.00252 1.00398 1.00319 0.995382
1.01625 1.02027 1 0.996054
1.04015 1.0437 0.999615 0.996988
1.04296 1.04607 0.999995 0.997032
1.04223 1.04609 1 0.996315
1.03982 1.04353 1 0.996442
1.03028 1.03429 1 0.996127
1.02745 1.03162 1 0.995965
1.01897 1.02318 1 0.995883
1.01889 1.02238 1 0.996586
1.01459 1.01825 1.00014 0.996265
1.00989 1.0126 1.00148 0.995849
1.00266 1.00545 1 0.997229
1.00654 1.00968 1 0.996897
1.00178 1.0049 1 0.996891
1.00334 1.00015 1.00501 0.998186
1.00217 1.00228 1.00234 0.997551
1.00209 1.0034 1.00145 0.997258
1.00046 1 1.0007 0.999765
1.00468 1 1.00607 0.998618
1.00545 1.00063 1.00688 0.997948
1 1 1 1
0.999934 1 1.00006 0.999871
1.00239 1 1.00337 0.999032
1 1 1 1
0.999921 1 1 0.999921
1 1 1 1
0.999891 1.0001 1.00165 0.998142
1.00329 1 1.00507 0.998236
1.00332 1 1.00492 0.998406
0.999828 1 1.00065 0.999175
1.00037 1 1.00183 0.998543
1.00167 1 1.00337 0.998304
0.999938 1 1 0.999938
0.999302 1 1 0.999302
0.99881 1 1.00013 0.998683
1 1 1 1
0.999974 1 1 0.999974
0.999422 1 1 0.999422
1 1 1 1
0.999996 1 1 0.999996
1 1 1 1
0.74636 0.834877 0.943844 0.947166
0.841608 0.923045 0.946614 0.963194
0.831541 0.912069 0.94224 0.967597
1.00127 1.00005 1.00298 0.998239
1.0048 1.00194 1.00492 0.997943
1.00906 1 1.011 0.998086
1.00015 1 1.00194 0.998217
0.9999 1 1.00161 0.998296
1.00361 1 1.00528 0.998346
1.0123 1 1.01414 0.998186
1.01089 1 1.01295 0.997964
1.01285 1.0003 1.01474 0.997844
0.988602 1.00077 0.988852 0.998972
1.00588 1 1.00752 0.998372
1.01666 0.999729 1.01839 0.998573
0.749244 0.844782 0.927746 0.955981
0.700895 0.809512 0.918469 0.942683
0.837252 0.92412 0.950246 0.953436
0.65001 0.797726 0.871445 0.935033
0.770857 0.863053 0.931516 0.958841
0.894852 0.91973 1.0007 0.97227
0.919925 0.93547 0.998158 0.985197
0.903568 0.931114 0.983533 0.986664
0.741267 0.841093 0.920731 0.95719
0.879743 0.915482 0.98889 0.971757
0.892892 0.936785 0.964841 0.987878
0.879056 0.937525 0.965138 0.971502
1.00336 1 1.00434 0.999021
0.998023 1 0.998538 0.999484
1.01168 1 1.0127 0.998992
0.967682 0.958285 1.01282 0.997023
1.01688 0.994525 1.02315 0.999344
0.994075 0.987946 1.00833 0.997888
0.980344 0.991739 0.991507 0.996978
0.781396 0.877691 0.925971 0.961462
0.772066 0.848589 0.955895 0.951803
0.851315 0.927532 0.949625 0.966517
0.96014 0.960371 1.00342 0.996347
0.876237 0.92333 0.963545 0.984901
0.740681 0.834951 0.931828 0.951995
0.874947 0.930264 0.968514 0.971113
0.760006 0.854288 0.926149 0.960576
0.952707 0.967672 0.98738 0.997119
0.77993 0.870368 0.933644 0.95978
0.917602 0.973295 0.970178 0.971759
0.888172 0.93886 0.958823 0.986638
0.959745 0.984924 0.976386 0.998002
0.925752 0.980006 0.968959 0.974901
0.928374 0.977213 0.960767 0.988815
0.978694 0.992169 0.987763 0.998639
0.99083 1.00168 0.991556 0.997592
0.981736 1.00758 0.976811 0.997482
1.0032 1.00278 1.00356 0.996871
0.99965 1.00413 0.998648 0.996889
1.02268 1.03408 0.991426 0.997532
0.998782 1.00096 1.00186 0.995969
1.02126 1.0261 0.998454 0.996821
1.03663 1.04581 0.993641 0.997561
1.01525 1.01926 1 0.996066
1.03924 1.04326 0.999163 0.996982
1.04182 1.04701 0.997515 0.997522
1.04001 1.04303 0.999706 0.9974
1.04385 1.04699 0.999895 0.997102
1.04226 1.04552 1 0.996883
1.04369 1.04748 1 0.996379
1.04226 1.0461 1 0.996331
1.04025 1.04392 1 0.996486
1.03132 1.03507 1 0.996375
1.03195 1.03593 1 0.996159
1.02591 1.03001 1 0.996023
1.01251 1.01562 1 0.996937
1.018 1.02149 1 0.996583
1.01473 1.01833 1.00017 0.996292
0.998939 1.00079 1.00026 0.997891
1.00428 1.00707 1 0.997225
1.00722 1.01036 1 0.996891
1.00149 1 1.00196 0.999533
1.00298 1.00032 1.00448 0.998187
1.00402 1.00347 1.003 0.997549
1 1 1 1
1.00128 1 1.00154 0.99974
1.00395 1 1.00534 0.998615
0.999997 1 1 0.999997
1.00043 1 1.00058 0.999857
1 1 1 1
0.998661 1.00062 1 0.99804
1.00112 1.00012 1.00284 0.998158
1.00384 1 1.00558 0.99827
1.00141 1 1.0032 0.998222
1.00346 1 1.00506 0.998406
1.00128 1 1.00226 0.999021
0.999899 1 1 0.999899
0.999673 1 1.0005 0.999177
1.00132 1 1.00279 0.998541
1 1 1 1
0.999947 1 1 0.999947
0.999306 1 1 0.999306
1 1 1 1
0.999981 1 1 0.999981
1 1 1 1
0.779204 0.865938 0.937651 0.959673
0.749117 0.837313 0.944038 0.947703
0.841362 0.923161 0.946212 0.963201
1.00399 1 1.00578 0.998219
1.01131 1 1.0134 0.997938
1.00278 1.00116 1.0036 0.998017
1.00185 1.00384 1.00086 0.997167
1.01127 1.00113 1.01223 0.997934
1.01106 1 1.01293 0.998155
1.00899 1 1.011 0.99801
1.016 1.00051 1.0176 0.997919
0.999349 1.0018 0.999923 0.997627
0.978729 1.00152 0.978638 0.998577
0.978083 1.00035 0.979975 0.997719
0.988778 1.00073 0.989032 0.999013
1.01109 1 1.01256 0.998547
0.906911 0.964342 0.965814 0.973734
0.746018 0.840732 0.927094 0.957123
0.700085 0.810307 0.915829 0.94338
0.739383 0.843872 0.917799 0.954653
0.89079 0.926659 0.989462 0.97153
0.907543 0.927619 0.989293 0.988946
0.893974 0.935835 0.965396 0.98951
0.895981 0.941623 0.975889 0.975038
0.920333 0.970142 0.959569 0.988629
0.994109 1.00132 0.994573 0.998218
1.00318 1 1.00418 0.998999
0.997844 1 0.998414 0.999428
0.995851 0.990475 1.00758 0.997861
0.986373 0.99519 0.993953 0.99717
0.901754 0.967046 0.957114 0.974266
0.78923 0.876117 0.936693 0.96171
0.771548 0.845823 0.957637 0.952539
0.958264 0.97287 0.98888 0.996064
0.89186 0.943077 0.960781 0.984295
0.778131 0.867244 0.935257 0.959358
0.911384 0.963508 0.970169 0.974988
0.967358 0.984671 0.984308 0.99808
0.934972 0.989626 0.968207 0.975797
0.924948 0.973153 0.96361 0.986359
0.979836 1.00407 0.978338 0.997473
0.952901 0.993634 0.966498 0.992248
0.991652 1.0042 0.989895 0.997586
0.980981 1.00728 0.976392 0.997433
0.996749 1.03427 0.96588 0.997769
0.999104 1.00411 0.998123 0.996885
1.02356 1.03459 0.991813 0.997505
1.03414 1.0536 0.983654 0.99784
1.02028 1.02588 0.997734 0.996802
1.03612 1.04594 0.993055 0.997538
1.03202 1.04583 0.989006 0.997765
1.03813 1.04267 0.998672 0.996976
1.04177 1.04744 0.997071 0.997501
1.03935 1.04592 0.996105 0.997598
1.04035 1.0435 0.999522 0.997454
1.0386 1.0417 0.999816 0.997211
1.04457 1.04777 0.999777 0.997171
1.04215 1.04542 1 0.996875
1.04432 1.0478 1 0.996683
1.04081 1.04454 1 0.996423
1.04349 1.0473 1 0.996368
1.04229 1.04611 1 0.996347
1.02528 1.02866 1 0.996722
1.03092 1.03466 1 0.996385
1.03368 1.03763 1 0.996189
1.00135 1.00368 1 0.99767
1.01278 1.0159 1 0.996935
1.01693 1.02042 1 0.996579
1.00026 1 1.001 0.999267
0.999913 1.00153 1.0005 0.997891
1.00563 1.00843 1 0.997222
1 1 1 1
1.00134 1 1.00183 0.999508
1.00217 1.00049 1.00349 0.998188
1 1 1 1
1.00147 1 1.00175 0.999715
1 1 1 1
1.00285 1.00558 1 0.99729
0.998926 1.0009 1 0.998028
1.00027 1 1.00221 0.998063
1.00278 1 1.00461 0.998174
1.00328 1 1.00505 0.998239
1.00292 1 1.00413 0.998797
1.00385 1 1.00545 0.998406
1.00084 1 1.00182 0.999021
0.999846 1 1 0.999846
1 1 1 1
0.999909 1 1 0.999909
0.999435 1 1.00026 0.999179
1 1 1 1
0.999955 1 1 0.999955
1 1 1 1
0.925639 0.980937 0.965985 0.976855
0.778848 0.87217 0.929747 0.960476
0.75439 0.840752 0.948025 0.946474
1.0127 1 1.01494 0.997791
1.00071 1.00071 1.00192 0.998092
1.00931 1.00105 1.01038 0.997894
1.00324 1.0049 1.0011 0.997246
1.01228 1.01539 1.00016 0.996773
0.999587 1.00207 1 0.997519
1.02039 1.00084 1.02159 0.997992
0.999849 1.00243 1 0.997425
0.984723 1.00179 0.984379 0.99856
0.995526 1.00145 0.996435 0.997643
0.975259 1.00333 0.974147 0.997815
0.995152 1.00129 0.996552 0.99731
0.979778 1.00082 0.981087 0.997848
0.992725 1.00062 0.993045 0.999054
0.926872 0.976387 0.960179 0.988657
0.912549 0.969634 0.966324 0.973925
0.750202 0.842076 0.927921 0.960099
0.897873 0.944078 0.979444 0.971017
0.899082 0.935214 0.970598 0.990487
0.923037 0.966756 0.962528 0.991947
0.985987 1.00377 0.984769 0.99748
0.992068 1.00067 0.993199 0.998193
1.003 1 1.00403 0.998978
0.988165 0.99751 0.993271 0.997342
0.938705 0.973826 0.974698 0.988958
0.917165 0.973941 0.963048 0.977839
0.777139 0.870082 0.930944 0.959433
0.966973 0.980689 0.98784 0.998151
0.928528 0.977828 0.961099 0.988017
0.93929 0.987745 0.973703 0.976626
0.972206 1.00227 0.972416 0.997519
0.95154 0.989658 0.969745 0.991481
0.973169 1.02442 0.952362 0.997487
0.99466 1.01682 0.981714 0.996424
0.979365 1.00701 0.975108 0.997378
0.994785 1.03268 0.965465 0.997764
1.00432 1.05485 0.954223 0.99778
1.02505 1.03568 0.992237 0.997479
1.03389 1.05338 0.983641 0.997821
1.02939 1.04989 0.98271 0.997716
1.03606 1.04631 0.99267 0.997514
1.03185 1.04519 0.989471 0.997746
1.03883 1.05126 0.990584 0.997567
1.04191 1.04798 0.996715 0.99748
1.03736 1.04389 0.996144 0.99759
1.03961 1.04492 0.997597 0.997319
1.04075 1.04401 0.999368 0.997508
1.03899 1.04203 0.999824 0.997257
1.04277 1.04602 1 0.996889
1.04211 1.04539 1 0.996866
1.04435 1.04783 1 0.996672
1.04301 1.04656 1 0.996603
1.03328 1.03677 1 0.996625
1.04085 1.04458 1 0.996426
1.04324 1.04706 1 0.996356
1.00705 1.0096 1 0.997474
1.02437 1.02773 1 0.996726
1.03048 1.03421 1 0.996395
0.999201 1 1.00015 0.999049
1.0029 1.00525 1 0.997668
1.01294 1.01606 1 0.996932
1 1 1 1
1 1 1.00075 0.99925
1.00078 1.00223 1.00066 0.997892
1 1 1 1
1.00137 1 1.00189 0.999484
1 1 1 1
1.01327 1.01646 1 0.99687
1.00475 1.00746 1 0.997317
1.00427 1.00603 1.00066 0.997593
0.998918 1.0009 1 0.998015
1.00012 1 1.00211 0.998019
1.00201 1.00006 1.00345 0.998499
1.00276 1 1.00456 0.998208
1.00293 1 1.00414 0.998798
1.00076 1 1.001 0.999766
1.00067 1 1.00164 0.999022
0.999865 1 1.00001 0.999856
1 1 1 1
1 1 1 1
0.99992 1 1 0.99992
1 1 1 1
0.929559 0.9766 0.962093 0.989334
0.917234 0.98028 0.960925 0.973735
0.771794 0.865061 0.927722 0.961694
1.02747 1.03093 1.00007 0.99658
1.00747 1.00075 1.00888 0.997855
1.0046 1.00593 1.00135 0.997326
0.999489 1.00199 1 0.997501
1.0114 1.01426 1.00042 0.996755
1.00302 1.00572 0.999879 0.997437
0.99972 1.0025 1 0.997224
0.986591 1.00144 0.986609 0.998542
0.993362 1.00171 0.993998 0.997655
0.968897 1.00227 0.968924 0.99771
1.00321 1.01028 0.995994 0.996992
1.00016 1.00688 0.995971 0.997337
0.995945 1.00195 0.996719 0.997274
0.98049 1.00134 0.981165 0.997978
0.984197 1.00613 0.98019 0.997975
0.92225 0.974363 0.958605 0.987389
0.91388 0.971201 0.965565 0.974537
0.916939 0.960646 0.964364 0.989774
0.988667 1.00534 0.985214 0.998174
0.992078 1.0002 0.993706 0.998161
0.985354 1.00668 0.982665 0.99608
0.9245 0.959534 0.972832 0.990395
0.90461 0.970738 0.956374 0.974387
0.968748 1.00018 0.970934 0.997565
0.958886 0.991649 0.976264 0.990471
0.976833 1.02554 0.954809 0.997591
0.996687 1.01649 0.983789 0.996679
0.99289 1.03971 0.957248 0.997615
1.04282 1.05587 0.99015 0.997468
0.991998 1.03054 0.964765 0.997758
1.00843 1.05619 0.956918 0.997765
1.01821 1.06088 0.962122 0.997573
1.03284 1.05264 0.983348 0.997801
1.02761 1.04874 0.982096 0.997712
1.03801 1.05723 0.984329 0.997452
1.03136 1.04438 0.989786 0.997727
1.03752 1.05009 0.990425 0.99758
1.04155 1.05052 0.994172 0.997268
1.03531 1.04184 0.996135 0.997583
1.04013 1.0454 0.997636 0.997317
1.04499 1.04849 0.999675 0.996991
1.03934 1.04233 0.99983 0.997303
1.04313 1.04634 1 0.996931
1.04504 1.04854 1 0.996663
1.04436 1.04786 1 0.996661
1.04278 1.04636 1 0.996585
1.03612 1.0396 1 0.996653
1.01251 1.0152 1 0.997352
1.03256 1.03604 1 0.996642
1.0409 1.04463 1 0.996429
0.998934 1.00003 1 0.998901
1.00863 1.01118 1 0.997474
1.02365 1.02701 1 0.996729
1 1 1 1
0.999053 1 1.00002 0.999036
1.0046 1.00695 1 0.997666
1 1 1 1
0.999609 1 1.00038 0.999234
1 1 1 1
1.02672 1.03025 1 0.99657
1.01483 1.01801 1 0.996869
1.01258 1.01543 1 0.997194
1.00668 1.00935 1.00001 0.997344
1.00309 1.00495 1.00056 0.997587
1.00171 1.00156 1.00197 0.99818
0.999853 1 1.00188 0.997976
1.00292 1 1.00442 0.9985
1.00131 1 1.00167 0.999636
1.00238 1 1.00358 0.998799
1.00021 1 1.00043 0.999777
1 1 1 1
0.999866 1 1 0.999866
1 1 1 1
1 1 1 1
0.980097 1.01057 0.972044 0.997743
0.924047 0.973733 0.961561 0.986909
0.914781 0.970705 0.964369 0.977208
1.01884 1.02189 1.00001 0.996995
1.03767 1.04117 1 0.996639
1.02546 1.02877 1.00013 0.996648
0.999647 1.00217 1 0.997481
1.0107 1.01327 1.00073 0.996735
1.00394 1.00756 0.998992 0.99741
1.0201 1.02486 0.998412 0.996942
0.992457 1.00262 0.992173 0.997667
0.965312 1.00179 0.965899 0.997605
1.00442 1.01199 0.99543 0.99708
1.02247 1.03075 0.995146 0.996807
1.00529 1.02481 0.983336 0.997571
1.00286 1.00872 0.996885 0.997297
0.997383 1.00262 0.997528 0.997237
0.988732 1.00795 0.982693 0.998212
0.92583 0.976718 0.961342 0.986016
0.988586 1.00574 0.984034 0.998888
1.02262 1.04333 0.982033 0.99808
0.983104 1.00539 0.981559 0.996204
0.928413 0.970404 0.968139 0.988214
0.979791 1.02694 0.956299 0.99769
0.998615 1.01662 0.985297 0.996949
0.990981 1.04027 0.95477 0.997749
1.04245 1.05732 0.98843 0.997484
1.03717 1.06711 0.974404 0.997473
1.06998 1.08572 0.98787 0.997607
1.01264 1.05828 0.959032 0.997751
1.02356 1.06197 0.96617 0.997573
1.04136 1.06664 0.978884 0.997356
1.02614 1.04774 0.981632 0.997708
1.0378 1.05638 0.984925 0.997451
1.04196 1.05604 0.989404 0.997233
1.03627 1.04894 0.9903 0.997593
1.04204 1.05101 0.994192 0.997264
1.04718 1.05255 0.997894 0.996995
1.04061 1.04585 0.997676 0.997315
1.04531 1.0488 0.99969 0.99699
1.04809 1.05157 1 0.996688
1.04348 1.04665 1 0.996973
1.04454 1.04803 1 0.996677
1.03884 1.04235 1 0.996636
1.0426 1.04619 1 0.996567
1.03603 1.03951 1 0.99665
1.01477 1.01754 1 0.997285
0.999142 1.0003 1 0.998839
1.01301 1.0157 1 0.997351
1.03191 1.03537 1 0.996658
1 1 1 1
0.998986 1.0001 1 0.998889
1.01024 1.01279 1 0.997473
1 1 1 1
0.999023 1 1 0.999023
1 1 1 1
1.03526 1.0389 1 0.996503
1.02641 1.02995 1 0.99656
1.01998 1.02316 1 0.996891
1.01597 1.01916 1 0.996867
1.01135 1.01419 1 0.997201
1.00349 1.00526 1.00035 0.997892
1.00174 1.00371 1.00046 0.997581
1.00168 1.00103 1.00248 0.998182
1.00053 1 1.00111 0.999424
1.00449 1 1.006 0.998502
1.00118 1 1.00153 0.999652
1 1 1 1
0.999966 1 1.00018 0.999788
1 1 1 1
1 1 1 1
1.00573 1.03812 0.970707 0.998039
0.977119 1.00952 0.970825 0.996991
0.924375 0.975573 0.959395 0.987623
1.03255 1.03584 1 0.996823
1.02029 1.02316 1 0.997188
1.0526 1.05608 1 0.996702
1.03829 1.04181 1 0.996623
1.02352 1.02671 1.00018 0.996717
1.04399 1.05 0.997568 0.996702
1.00473 1.00945 0.997929 0.997384
1.02004 1.02423 0.999027 0.99688
1.04114 1.06043 0.984789 0.996979
1.00444 1.01346 0.993917 0.997169
1.02288 1.03139 0.99499 0.99675
1.00659 1.02667 0.9828 0.997605
1.00322 1.00899 0.997028 0.997254
0.993745 1.00975 0.985695 0.998436
1.05533 1.07693 0.982246 0.997653
1.02428 1.0429 0.984012 0.998103
0.981645 1.00409 0.981254 0.996323
0.989812 1.04009 0.953679 0.997882
1.04103 1.05765 0.98675 0.997501
1.03276 1.06619 0.971077 0.997495
1.07106 1.08771 0.987065 0.997601
1.05905 1.07995 0.983114 0.99749
1.02854 1.0627 0.970207 0.997574
1.04208 1.06602 0.980127 0.997366
1.04339 1.06132 0.985814 0.997258
1.03754 1.05549 0.985508 0.99745
1.04193 1.0558 0.989619 0.997214
1.04634 1.0553 0.994512 0.99698
1.04257 1.05152 0.994216 0.997261
1.04735 1.0527 0.997919 0.996992
1.05109 1.05469 0.999887 0.996698
1.04566 1.04913 0.999705 0.996989
1.04794 1.05142 1 0.996691
1.04251 1.04608 1 0.996593
1.04404 1.04751 1 0.996691
1.03894 1.04244 1 0.996641
1.01576 1.0186 1 0.997213
1.03593 1.03941 1 0.996647
1.015 1.01776 1 0.997283
0.999586 1.00055 1 0.999035
0.999632 1 1 0.999632
0.999246 1.00032 1 0.998924
1.01332 1.01601 1 0.99735
1 1 1 1
0.998959 1.00008 1 0.998877
1 1 1 1
1.0585 1.06191 1 0.996791
1.0443 1.04785 1 0.996613
1.03624 1.03987 1 0.996508
1.02784 1.0312 1 0.996745
1.02648 1.03004 1 0.99655
1.02107 1.02426 1 0.99689
1.00799 1.01037 1 0.997652
1.0103 1.01313 1 0.997208
1.00238 1.00402 1.00047 0.997895
0.999285 1 1.00012 0.999164
1.00149 1.00049 1.00282 0.998184
1.00069 1 1.00125 0.999444
1 1 1 1
1.00064 1 1.00097 0.999669
1 1 1 1
1 1 1 1
1.04879 1.07543 0.977774 0.997401
1.01004 1.04391 0.969404 0.998093
0.974168 1.00962 0.96852 0.99625
1.04957 1.05379 0.999264 0.996727
1.02989 1.03312 1 0.996875
1.02141 1.0241 1 0.997379
1.05125 1.05471 1 0.996719
1.03894 1.04247 1 0.996607
1.0518 1.06941 0.986542 0.996959
1.04057 1.04694 0.997246 0.996663
1.01984 1.02324 0.999855 0.996817
1.0397 1.0588 0.984938 0.996974
1.02608 1.03421 0.99543 0.996693
1.01172 1.03268 0.982016 0.997646
1.05918 1.07756 0.985316 0.997589
1.05848 1.07916 0.983107 0.997687
1.02522 1.04273 0.985047 0.998128
1.02981 1.06652 0.967982 0.997516
1.07307 1.0906 0.986296 0.997595
1.05903 1.0809 0.982223 0.997497
1.04965 1.06324 0.989838 0.997353
1.04275 1.06532 0.981393 0.997375
1.04369 1.06103 0.98638 0.997245
1.04732 1.05748 0.993356 0.997016
1.04193 1.05559 0.989828 0.997195
1.04696 1.05591 0.994531 0.996979
1.05332 1.05746 0.999373 0.996704
1.0475 1.05282 0.997947 0.996988
1.05139 1.05499 0.999883 0.996699
1.04522 1.04885 1 0.996543
1.0478 1.05127 1 0.996694
1.0427 1.04626 1 0.996597
1.01703 1.01997 1 0.997119
1.03902 1.04251 1 0.996646
1.01626 1.0191 1 0.997213
0.999554 1.00051 1 0.999047
1.01518 1.01795 1 0.997281
0.999603 1.00057 1 0.99903
0.999655 1 1 0.999655
0.999824 1 1 0.999824
0.999478 1.00046 1 0.999016
1 1 1 1
1.05335 1.05741 0.999379 0.996786
1.04949 1.05299 1 0.996679
1.05743 1.0607 1 0.996914
1.03804 1.0415 1 0.996677
1.04632 1.04989 1 0.996601
1.03713 1.04076 1 0.996512
1.0288 1.03217 1 0.996737
1.01323 1.01581 1 0.997456
1.02202 1.02521 1 0.996888
1.0064 1.00877 1 0.997653
0.99896 1 1 0.99896
1.00114 1.00273 1.00052 0.997898
0.999563 1 1.00038 0.999182
1 1 1 1
1.00103 1 1.00156 0.999464
1 1 1 1
1 1 1 1
1.05021 1.07169 0.982624 0.997288
1.04628 1.07273 0.977884 0.997396
1.01268 1.04702 0.969007 0.99814
1.052 1.06273 0.993007 0.996875
1.04687 1.05133 0.999025 0.996727
1.02759 1.03075 1 0.996928
1.04971 1.05315 1 0.996737
1.05032 1.0676 0.98684 0.996935
1.03707 1.04379 0.996936 0.996623
1.03401 1.0527 0.985231 0.99697
1.05345 1.06696 0.989901 0.997414
1.05764 1.07584 0.9855 0.997549
1.06143 1.08099 0.984151 0.997721
1.04827 1.05834 0.993214 0.997252
1.05851 1.08147 0.981222 0.997505
1.04957 1.06334 0.989684 0.997339
1.04913 1.05833 0.994172 0.997118
1.04404 1.06074 0.986983 0.997233
1.04747 1.05767 0.993321 0.997018
1.05378 1.05874 0.998584 0.99672
1.04753 1.05646 0.994554 0.996978
1.05303 1.05721 0.999341 0.996705
1.04626 1.04992 1 0.996509
1.0516 1.05521 0.999879 0.9967
1.0453 1.04893 1 0.996546
1.01797 1.021 1 0.997028
1.04285 1.04641 1 0.996601
1.01739 1.02033 1 0.997119
0.999255 1.00023 1 0.999021
1.01684 1.01969 1 0.997212
0.999497 1.00046 1 0.999035
0.999659 1 1 0.999659
0.999644 1.00062 1 0.999027
0.999663 1 1 0.999663
1 1 1 1
1.05238 1.05834 0.997676 0.99669
1.05185 1.0554 1 0.99663
1.05506 1.05915 0.999353 0.996784
1.04437 1.04782 1 0.996705
1.05081 1.05427 1 0.996712
1.0565 1.05964 1 0.997036
1.01719 1.01995 1 0.997298
1.03791 1.04138 1 0.996668
1.04857 1.05216 1 0.996589
1.02968 1.03306 1 0.99673
1.01181 1.01439 1 0.997457
0.999338 1.00048 1 0.998856
1.00484 1.0072 1 0.997654
0.999011 1.00004 1 0.998974
1 1 1 1
0.999786 1 1.00059 0.9992
1 1 1 1
1 1 1 1
1.04841 1.06262 0.989436 0.99716
1.05012 1.07187 0.982389 0.997271
1.04599 1.07252 0.977813 0.997392
1.05134 1.06215 0.992917 0.996891
1.04385 1.04855 0.998781 0.996728
1.04983 1.06682 0.987123 0.99691
1.04994 1.0605 0.992774 0.997251
1.05376 1.06712 0.990046 0.997408
1.05619 1.07427 0.985624 0.99751
1.04868 1.05862 0.993321 0.997272
1.04874 1.05669 0.995395 0.997066
1.04948 1.06346 0.989501 0.997325
1.0494 1.05832 0.994471 0.997078
1.05323 1.05897 0.997768 0.996808
1.04764 1.05787 0.993284 0.99702
1.05343 1.05844 0.998539 0.996723
1.04651 1.0502 1 0.996487
1.05295 1.05717 0.999307 0.996706
1.04677 1.05043 1 0.996511
1.01829 1.02139 1 0.996968
1.04554 1.04916 1 0.996549
1.0181 1.02113 1 0.997029
0.999025 1.00006 1 0.998966
1.01782 1.02076 1 0.99712
0.999183 1.00018 1 0.999004
0.999638 1 1 0.999638
0.999393 1.00037 1 0.999028
0.999676 1 1 0.999676
0.999666 1 1 0.999666
1.05165 1.06031 0.99487 0.996946
1.05355 1.05738 0.999836 0.996541
1.05275 1.05964 0.996768 0.996718
1.04673 1.05026 1 0.996633
1.05101 1.05457 1 0.996618
1.05674 1.06086 0.99933 0.996784
1.01938 1.02225 1 0.997191
1.0442 1.04768 1 0.996676
1.05191 1.05535 1 0.996746
1.00004 1.00121 1 0.998829
1.01704 1.0198 1 0.9973
1.03804 1.04152 1 0.996658
1.01059 1.01317 1 0.997458
0.999273 1.00041 1 0.998868
1 1 1 1
0.998989 1 1 0.998989
1 1 1 1
1 1 1 1
1.04705 1.05759 0.99287 0.997145
1.04862 1.06271 0.989562 0.997152
1.04953 1.07149 0.982211 0.997254
1.05073 1.0616 0.992829 0.996908
1.0492 1.05579 0.996724 0.997024
1.05015 1.06055 0.992905 0.997262
1.05411 1.06726 0.990252 0.997401
1.04912 1.0589 0.993451 0.997293
1.04881 1.05687 0.995282 0.997076
1.05341 1.05864 0.998261 0.996795
1.04973 1.05835 0.994805 0.997037
1.05342 1.05883 0.998129 0.996759
1.04644 1.05027 0.999812 0.996536
1.053 1.05805 0.998496 0.996726
1.04705 1.05074 1 0.99649
1.01774 1.02088 1 0.996923
1.04697 1.05064 1 0.996512
1.01811 1.0212 1 0.996969
0.998725 1 1 0.998724
1.01813 1.02116 1 0.99703
0.998875 1.00001 1 0.998862
1 1 1 1
0.999063 1.00007 1 0.99899
0.999661 1 1 0.999661
0.999687 1 1 0.999687
1.04967 1.05709 0.995927 0.997038
1.05274 1.05747 0.998855 0.996671
1.05209 1.06008 0.99552 0.996936
1.04641 1.05008 1 0.996498
1.05242 1.05658 0.999508 0.996557
1.05315 1.06097 0.995867 0.996746
1.01924 1.02228 1 0.997019
1.04688 1.05041 1 0.996633
1.05021 1.05378 1 0.996606
0.999741 1.00091 1 0.99883
1.01894 1.02185 1 0.997151
1.04396 1.04747 1 0.996647
1 1 1 1
0.999791 1.00095 1 0.99884
1.01633 1.01908 1 0.997303
0.999167 1.00029 1 0.99888
1 1 1 1
1 1 1 1
1.04792 1.05442 0.996794 0.997036
1.04738 1.05776 0.99301 0.997152
1.04877 1.06278 0.989644 0.997144
1.05348 1.05793 0.999055 0.996733
1.04859 1.05551 0.996399 0.997037
1.05034 1.06061 0.993031 0.997272
1.04882 1.05705 0.995119 0.997086
1.05304 1.0584 0.998139 0.996796
1.04555 1.0492 0.999916 0.996597
1.05348 1.05861 0.998439 0.996709
1.04659 1.05035 0.999894 0.996533
1.01678 1.02 1 0.996835
1.04773 1.05142 1 0.996492
1.01751 1.02064 1 0.996924
0.998686 1 1 0.998686
1.01805 1.02114 1 0.996969
0.998722 1 1 0.998722
1 1 1 1
0.998742 1 1 0.998742
0.99981 1 1 0.99981
0.999681 1 1 0.999681
1.04878 1.05496 0.997142 0.996992
1.05335 1.0574 0.999429 0.99674
1.04961 1.05697 0.995985 0.997045
1.04614 1.04982 1 0.996492
1.05366 1.05804 0.999196 0.996655
1.05253 1.05984 0.996167 0.996926
1.01827 1.02141 1 0.996929
1.0462 1.04985 1 0.996519
1.05127 1.05577 0.99917 0.996572
0.999087 1.00028 1 0.998808
1.01904 1.0221 1 0.997007
1.04701 1.05055 1 0.996634
1 1 1 1
0.999877 1.00104 1 0.99884
1.01876 1.02171 1 0.99711
1 1 1 1
0.999834 1.00098 1 0.998851
1 1 1 1
1.0532 1.05763 0.99903 0.99678
1.04743 1.0539 0.996828 0.997021
1.04765 1.05787 0.99316 0.997159
1.04497 1.04858 0.999964 0.996593
1.05296 1.05772 0.998747 0.996755
1.04798 1.05523 0.996075 0.99705
1.05271 1.05816 0.998052 0.996797
1.04546 1.04922 0.999817 0.996597
1.01581 1.01905 1 0.996823
1.0468 1.05044 1 0.99653
1.01667 1.01987 1 0.99686
0.998639 1 1 0.998639
1.0172 1.02033 1 0.996925
0.998683 1 1 0.998683
1 1 1 1
0.998719 1 1 0.998719
1 1 1 1
0.999655 1 1 0.999655
1.05442 1.05859 0.9993 0.996757
1.048 1.0547 0.996621 0.997014
1.04568 1.04932 1 0.996531
1.05394 1.0579 0.99952 0.996739
1.0496 1.0569 0.996028 0.997053
1.01711 1.02021 1 0.996957
1.04558 1.04927 1 0.996489
1.05457 1.0586 0.999548 0.99664
0.998765 1.00001 1 0.998755
1.01855 1.02166 1 0.996952
1.04595 1.04958 1 0.996539
1 1 1 1
0.999281 1.00047 1 0.998813
1.01894 1.02202 1 0.996994
1 1 1 1
0.999909 1.00106 1 0.998849
1 1 1 1
1.04489 1.04843 0.999996 0.99662
1.05315 1.05747 0.999143 0.996767
1.04695 1.0534 0.996863 0.997005
1.01498 1.0182 1 0.996836
1.04487 1.04855 0.999897 0.996593
1.05243 1.05748 0.998435 0.996777
1.04537 1.04924 0.999715 0.996597
1.01588 1.01911 1 0.996822
0.998612 1 1 0.998612
1.01658 1.01976 1 0.996884
0.998637 1 1 0.998637
1 1 1 1
0.998681 1 1 0.998681
1 1 1 1
1 1 1 1
1.0456 1.04922 1 0.99655
1.05418 1.05844 0.999166 0.9968
1.0472 1.05441 0.996113 0.997037
1.01626 1.01936 1 0.996956
1.04528 1.04892 1 0.996527
1.05453 1.05839 0.999613 0.996738
0.998707 1 1 0.998707
1.01753 1.02064 1 0.996954
1.04507 1.04875 1 0.996485
1 1 1 1
0.998839 1.00008 1 0.998759
1.01883 1.02192 1 0.996975
1 1 1 1
0.999385 1.00057 1 0.998819
1 1 1 1
1.01503 1.01818 1 0.996907
1.04472 1.04834 0.999953 0.996594
1.05313 1.05733 0.999269 0.996754
0.998629 1 1 0.998629
1.01511 1.01834 1 0.996834
1.04477 1.04852 0.99983 0.996594
1.01594 1.01918 1 0.996821
0.998613 1 1 0.998613
1 1 1 1
0.998634 1 1 0.998634
1 1 1 1
1 1 1 1
1.01558 1.0187 1 0.99694
1.04529 1.04889 0.999996 0.99657
1.05395 1.0583 0.999042 0.996843
0.9989 1 1 0.9989
1.01652 1.01963 1 0.996954
1.04487 1.04851 1 0.996524
1 1 1 1
0.998708 1 1 0.998708
1.01792 1.02103 1 0.996952
1 1 1 1
0.998923 1.00016 1 0.998762
1 1 1 1
0.998619 1 1 0.998619
1.01517 1.01834 1 0.996884
1.04457 1.04827 0.999897 0.996567
1 1 1 1
0.998628 1 1 0.998628
1.01524 1.01846 1 0.996831
0.998611 1 1 0.998611
1 1 1 1
1 1 1 1
0.998861 1 1 0.998861
1.0158 1.01892 1 0.99694
1.04495 1.04855 0.999978 0.996591
1 1 1 1
0.998682 1 1 0.998682
1.0168 1.01991 1 0.996953
1 1 1 1
0.99872 1.00001 1 0.998709
1 1 1 1
0.999603 1 1 0.999603
0.99875 1 1 0.99875
1.01529 1.01848 1 0.99686
1 1 1 1
0.998629 1 1 0.998629
1 1 1 1
0.999618 1 1 0.999618
0.998767 1 1 0.998767
1.01605 1.01917 1 0.99694
0.999807 1 1 0.999807
0.998683 1 1 0.998683
1 1 1 1
1 1 1 1
0.998651 1 1 0.998651
1 1 1 1
0.999807 1 1 0.999807
0.99867 1 1 0.99867
1 1 1 1
1 1 1 1
1 1 1 1

VECTORS lamdaE float
1.00146 1.00009 0.993564
1.00101 1.00078 0.996837
1.00099 1.0003 0.993873
1.00155 1.00004 0.993471
1.00153 0.999956 0.993603
1.00143 1.00034 0.993352
1.00283 1.00042 0.990517
1.00102 1.00072 0.996833
1.00095 1.00014 0.997324
1.00046 1.00093 0.997344
1.00085 1.00093 0.99353
1.00252 1.00128 0.989234
1.00106 0.999981 0.994065
1.00085 1.00001 0.994161
1.00057 1.00051 0.994155
1.0012 1.00003 0.993815
1.00091 1.0007 0.993634
1.00115 1 0.993929
1.00306 1.00024 0.990377
1.00109 1.00002 0.996984
1.00145 1.00008 0.993548
1.00156 0.999971 0.993545
1.0029 1.00016 0.990675
1.00294 1.00015 0.990622
1.0014 1.00052 0.993143
1.0027 1.00091 0.990268
1.00522 1.00079 0.985928
1.00103 1.00067 0.996841
1.00118 1.00003 0.9955
1.00078 1.00065 0.995486
1.00093 1.00075 0.996891
1.00242 1.00143 0.989246
1.00147 0.999812 0.993596
1.00123 1.00018 0.993693
1.00323 1.00006 0.990924
0.999985 1.00103 0.997616
1.00297 1.00071 0.990815
1.00218 1.0019 0.98919
1.00462 1.00144 0.985579
1.0002 0.999575 0.997935
1.0011 0.99999 0.996978
1.00108 1.00002 0.995524
1.00102 0.999973 0.997033
1.00067 1.00005 0.994399
1.00276 0.999935 0.990259
1.00106 0.999959 0.997247
1.00318 1.00007 0.991
1.00086 0.999977 0.994159
1.00078 1.00005 0.994241
1.00041 1.00107 0.993895
1.00326 1.00008 0.990251
1.0009 1.00004 0.995685
1.00109 1.00011 0.993891
1.00085 1.001 0.993404
1.00122 0.999944 0.993882
1.00305 1.00013 0.990507
1.00295 1.00064 0.990133
1.00312 1.00006 0.990474
1.00521 1.00079 0.985949
1.00099 1 0.99703
1.0013 1.00007 0.993768
1.00251 0.999997 0.991957
1.00277 1.00016 0.990871
1.00294 1.00012 0.990647
1.00512 1.00028 0.986538
1.00521 1.00031 0.986314
1.00114 1.0005 0.993441
1.00218 1.00188 0.990074
1.00521 1.00108 0.985715
1.00529 1.0003 0.985562
1.00146 1.00005 0.996852
1.00084 1.00067 0.997051
1.00112 1.00054 0.996844
1.00234 1.00154 0.989252
1.00152 0.999935 0.996793
1.00133 1.00024 0.996873
1.0031 1 0.989492
1.00025 1.00081 0.995874
1.00271 1.00075 0.989385
1.00204 1.00213 0.990094
1.0047 1.00128 0.985567
1.00048 1.00015 0.997509
1.0003 1.00209 0.992312
1.00326 0.999969 0.98933
1.00311 1.00012 0.989437
1.00523 1.00035 0.985693
1.00149 1.00258 0.991438
1.005 1.00079 0.98558
1.00373 1.00275 0.985756
1.00529 1.00138 0.98439
1.00001 0.998689 0.998386
1.00004 0.999314 0.998124
1.0014 0.999991 0.996795
1.00115 0.999988 0.996953
1.00105 0.999978 0.997029
1.00093 1 0.995683
1.0028 0.999926 0.99094
1.00124 0.999967 0.995426
1.00312 1.00009 0.990293
1.00102 0.999985 0.997048
1.0026 0.999841 0.990556
1.003 1.00004 0.991319
1.00495 0.99934 0.987283
1.00327 1 0.990902
1.00518 0.999717 0.986518
1.00104 0.999995 0.994097
1.00072 1.00013 0.994237
1.00029 1.00153 0.993664
1.00088 0.99988 0.994215
1.00319 1.00015 0.990339
1.00329 0.99997 0.990334
1.00323 1.00034 0.990009
1.00519 1.00078 0.985971
1.00104 0.999985 0.997038
1.00094 1.00007 0.994109
1.00269 0.999955 0.990806
1.00292 1.00014 0.990694
1.00089 1.00093 0.995136
1.00255 1.00167 0.990139
1.0031 1.00006 0.990492
1.00514 1.00013 0.986691
1.00518 1.00107 0.985739
1.00521 1.00047 0.986209
1.00528 1.00029 0.985597
1.00259 0.999885 0.990557
1.00261 1.00006 0.991183
1.00486 0.999187 0.988083
1.00504 0.999765 0.987139
1.00516 1.00011 0.986592
1.00532 0.998721 0.987341
1.00049 1.00072 0.997291
1.00531 0.999619 0.986212
1.00162 1.00283 0.989027
1.00482 1.0014 0.98522
1.0053 1.00102 0.984881
1.00523 0.99839 0.987403
1.00083 1.00295 0.990421
1.00186 1.00462 0.987037
1.00153 0.999954 0.996812
1.0013 1.00028 0.996857
1.00311 0.999975 0.989481
1.00045 1.00049 0.997403
1.00169 1.00243 0.989383
1.0027 1.00075 0.989407
1.00479 1.00115 0.985555
1.0003 1.0001 0.997662
1.00019 1.00218 0.992338
1.00327 0.999998 0.990107
1.00313 1.00018 0.990159
1.00522 1.00036 0.985668
1.0011 1.00277 0.990122
1.00504 1.00076 0.985563
1.00397 1.00238 0.985746
1.00531 1.00128 0.984524
1.00067 1.00254 0.991075
1.0001 1.0013 0.993488
1.00162 1.00474 0.987836
1.00524 1.00015 0.985895
1.00518 1.00051 0.985582
1.0053 0.999423 0.986508
1.00313 1.00323 0.986285
1.00531 1.0005 0.985401
1.00508 1.00195 0.984178
1.0053 1.00046 0.985194
0.999959 0.998221 0.998665
0.999937 0.998655 0.998505
0.999943 0.999172 0.998297
1.00056 1.00276 0.991097
1.00026 1.00045 0.99755
1.00152 0.999956 0.996774
1.00125 0.999995 0.996872
1.00296 1.00012 0.989651
1.00269 0.999926 0.990321
1.00104 0.999977 0.997018
1.001 0.999978 0.997044
1.00259 0.999852 0.990549
1.00293 1.00003 0.990625
1.00493 0.999341 0.987282
1.00312 1.00005 0.989431
1.00514 0.999729 0.986516
1.00255 0.999848 0.990619
1.00487 0.999226 0.987503
1.00506 0.999508 0.986925
1.00534 0.996881 0.98925
1.00524 0.999921 0.986169
1.00534 0.997654 0.988429
1.00101 0.999985 0.997038
1.00057 1.00013 0.994448
1.00271 0.999951 0.989798
1.00307 1.00014 0.990514
1.00019 1.00146 0.997259
1.00305 1.00128 0.990208
1.00326 1.00003 0.990338
1.00516 0.999969 0.986845
1.00521 1.00061 0.986102
1.00511 1.00109 0.985764
1.00529 1.00029 0.985632
1.00256 0.999878 0.990561
1.00276 1.00008 0.991006
1.00489 0.999167 0.987794
1.00508 0.999916 0.986994
1.00063 1.00076 0.997176
1.00187 1.00257 0.989885
1.00467 1.00176 0.985448
1.00518 1.00016 0.986549
1.00533 0.998355 0.98771
1.0053 1.00094 0.984967
1.00531 0.999745 0.98618
1.00523 0.998407 0.987422
1.00089 1.00286 0.990407
1.00194 1.00454 0.987039
1.00484 0.999294 0.987489
1.00496 0.999491 0.987638
1.00534 0.997474 0.988664
1.00534 0.997549 0.988449
1.00533 0.998874 0.987027
1.00525 0.996151 0.989902
1.00115 1.00305 0.989689
1.00525 0.99733 0.988489
1.00402 1.00245 0.985424
1.00532 1.00155 0.984171
1.00523 0.999815 0.986123
1.0052 0.996638 0.989332
1.0028 1.00374 0.986307
1.00117 1.00508 0.987823
1.00363 1.00261 0.986246
1.00316 0.999981 0.989423
1.00011 0.999916 0.997839
1.00006 1.0022 0.992363
1.00297 1.0002 0.98949
1.00523 1.00037 0.985642
1.00103 1.00297 0.990055
1.00413 1.00199 0.985735
1.00506 1.00073 0.985547
1.00532 1.00117 0.984657
1.00063 1.00266 0.991081
1.00002 1.00122 0.993528
1.00128 1.00496 0.987795
1.00523 1.00017 0.985869
1.00519 1.0005 0.985563
1.0053 0.999426 0.986484
1.00323 1.00303 0.9863
1.00531 1.0006 0.985304
1.00521 1.0019 0.98414
1.0053 1.00022 0.985378
1.00009 1.0004 0.994308
1.00249 1.00395 0.98694
1.00095 1.00453 0.989022
1.0027 1.00346 0.987119
1.0053 0.99878 0.987203
1.00531 1.00006 0.985825
1.00524 0.997556 0.988269
1.00476 1.00193 0.984784
1.00525 0.999072 0.986861
1.00531 1.0013 0.984664
1.0053 0.999391 0.986287
1.00023 1.00185 0.992641
1.00028 0.999192 0.99518
0.999989 0.99775 0.998822
0.999936 0.9981 0.998725
0.999889 0.998509 0.998598
1.00016 1.00254 0.991968
1.00013 1.00008 0.9978
1.00063 1.00269 0.991064
1.00036 1.00052 0.99746
1.0031 1.00009 0.989437
1.00283 1.00002 0.989995
1.00512 0.999742 0.986514
1.00492 0.999348 0.98728
1.0026 0.999868 0.990548
1.00105 0.999967 0.997041
1.00257 0.999842 0.990622
1.00486 0.999236 0.987504
1.00504 0.999527 0.986924
1.00533 0.996893 0.989259
1.00522 0.999951 0.98615
1.00534 0.997644 0.988422
1.00484 0.999225 0.987552
1.00532 0.996699 0.98948
1.00536 0.997223 0.98887
1.00525 0.994937 0.99125
1.00532 0.99816 0.987872
1.00523 0.995458 0.990646
1.00257 0.999877 0.99057
1.00293 1.00005 0.990829
1.00492 0.999127 0.987507
1.00511 1.00006 0.986848
1.00076 1.00082 0.997046
1.00222 1.00237 0.99054
1.00464 1.00206 0.985674
1.00519 1.00019 0.986506
1.00533 0.997992 0.988079
1.00531 0.999876 0.986149
1.0053 1.00083 0.985052
1.00523 0.998421 0.98744
1.00093 1.00278 0.990393
1.00199 1.00445 0.987042
1.00485 0.99911 0.987647
1.00498 0.999468 0.987613
1.00534 0.997269 0.988881
1.00534 0.997946 0.988062
1.00122 1.00297 0.989688
1.00395 1.00266 0.985447
1.00531 1.00166 0.984075
1.00533 0.999094 0.986864
1.00524 0.99586 0.990156
1.00524 0.999603 0.986337
1.00525 0.99735 0.988493
1.0052 0.996593 0.989263
1.00276 1.00386 0.986273
1.00341 1.00276 0.98616
1.00122 1.00499 0.987855
1.00532 0.997224 0.988962
1.00538 0.997432 0.988654
1.00523 0.995337 0.990907
1.00525 0.995281 0.990737
1.00526 0.99629 0.989471
1.00522 0.995095 0.990836
1.00339 1.00323 0.985809
1.0052 0.995543 0.990169
1.00525 1.00237 0.983598
1.00525 1.00082 0.984847
1.0052 0.998222 0.987665
1.00517 0.99598 0.989955
1.00072 1.00494 0.9886
1.00452 1.00228 0.985158
1.0026 1.00402 0.986359
1.00489 1.00198 0.985158
1.00523 1.00019 0.985844
0.999987 1.00119 0.993568
1.00047 1.00286 0.991095
1.00096 1.00501 0.987753
1.00521 1.00049 0.985541
1.0053 0.999431 0.986461
1.00336 1.00279 0.986319
1.00528 1.0019 0.984102
1.00531 1.0007 0.985207
1.0053 0.999975 0.985561
1.00008 1.00034 0.994347
1.0024 1.00385 0.986955
1.00076 1.00457 0.989021
1.00257 1.00351 0.987099
1.00531 0.998777 0.987181
1.0053 1.00006 0.985798
1.00524 0.997545 0.988266
1.00486 1.0019 0.984792
1.00524 0.999226 0.98666
1.00527 1.00118 0.984642
1.0053 0.999253 0.986454
1.00019 0.999684 0.994864
1.00065 1.00364 0.99034
1.00383 1.00221 0.986143
1.00176 1.00475 0.987783
1.00374 1.00105 0.987766
1.00526 0.996737 0.989132
1.00524 0.998335 0.987437
1.00522 0.996366 0.989286
1.00489 1.00168 0.984709
1.00524 0.998091 0.987645
1.00503 1.00035 0.985743
1.00034 1.0021 0.992238
1.00035 1.00341 0.990927
1.0001 1.00174 0.992984
1.0002 1.00188 0.992637
1.00024 0.998943 0.996082
1.00026 0.999142 0.995566
1.00017 0.997372 0.99749
0.999987 0.997697 0.998856
0.999923 0.998015 0.998776
0.999892 1.00178 0.993159
0.999942 0.999608 0.998157
1.00026 1.00242 0.991956
1.00021 1.00015 0.997701
1.00069 1.00261 0.991034
1.00048 1.00056 0.997367
1.00519 0.999979 0.986133
1.00501 0.999542 0.986922
1.00533 0.997662 0.988413
1.00532 0.996904 0.989268
1.00485 0.999247 0.987505
1.00256 0.999831 0.99062
1.00483 0.999226 0.987557
1.00532 0.996705 0.989484
1.00535 0.997237 0.988873
1.00525 0.994937 0.991235
1.00532 0.998162 0.987856
1.00524 0.995433 0.990655
1.00531 0.996707 0.989489
1.00527 0.994957 0.991242
1.00523 0.99507 0.991086
1.0052 0.994959 0.991239
1.00525 0.996022 0.98996
1.00524 0.994891 0.990942
1.00486 0.998929 0.987807
1.00501 0.999461 0.987588
1.00534 0.997093 0.989098
1.00535 0.998346 0.987676
1.00131 1.00291 0.989691
1.00375 1.00299 0.985474
1.0053 1.00179 0.983977
1.00533 0.999306 0.986702
1.00524 0.995574 0.99041
1.00524 0.997372 0.988496
1.00524 0.999401 0.98655
1.0052 0.996532 0.989195
1.00276 1.00408 0.986238
1.00336 1.00281 0.986075
1.00126 1.00484 0.987887
1.00532 0.997046 0.98916
1.00537 0.99741 0.988662
1.00524 0.995153 0.991069
1.00523 0.995538 0.990521
1.00332 1.00341 0.985804
1.00523 1.00239 0.98364
1.00525 1.00099 0.984686
1.00525 0.996604 0.989183
1.00523 0.995005 0.990853
1.0052 0.998134 0.98763
1.00521 0.99557 0.990146
1.00517 0.995872 0.990007
1.00429 1.00259 0.985122
1.00485 1.00196 0.984933
1.00087 1.00482 0.988617
1.00239 1.00402 0.986417
1.00524 0.994961 0.991315
1.00525 0.995459 0.990606
1.00516 0.994943 0.991328
1.00519 0.99491 0.990989
1.00522 0.995046 0.990649
1.00524 0.994925 0.990796
1.00513 1.00248 0.983926
1.00521 0.995006 0.990568
1.00521 1.00211 0.983693
1.00523 1.00008 0.9855
1.00519 0.997452 0.988185
1.00517 0.996026 0.989871
1.00048 1.00436 0.98964
1.00129 1.0051 0.987187
1.0051 1.00266 0.983796
1.00429 1.00341 0.985411
1.00501 1.00335 0.983441
1.00006 1.00024 0.994385
1.00531 0.998773 0.987159
1.00052 1.00471 0.989022
1.0023 1.00383 0.986969
1.00249 1.00349 0.987078
1.00531 1.00007 0.985771
1.00524 0.997534 0.988264
1.00516 1.00165 0.984799
1.00525 1.00109 0.984622
1.00524 0.999378 0.98646
1.00531 0.99914 0.986621
1.00019 0.999617 0.994897
1.00045 1.00377 0.990364
1.00406 1.00189 0.986197
1.00133 1.00492 0.987728
1.00366 1.00099 0.987615
1.00525 0.996712 0.989133
1.00523 0.998319 0.987434
1.00522 0.996318 0.989282
1.00499 1.00174 0.98464
1.00525 0.998178 0.987482
1.0051 1.00036 0.985853
1.00041 1.00274 0.991505
1.00093 1.00495 0.988912
1.00459 1.00123 0.985819
1.00232 1.00365 0.98762
1.00463 1.00016 0.987779
1.00527 0.995645 0.990016
1.00521 0.997128 0.98842
1.00523 0.995745 0.989556
1.0049 1.0011 0.985109
1.00508 0.998952 0.986697
1.00034 1.00208 0.992241
1.0004 1.00333 0.990715
1.00014 1.00359 0.990892
1.00052 1.00367 0.99064
1.00019 1.00345 0.991195
1.00003 1.00155 0.99327
1.00009 1.00172 0.992994
1.0002 0.998821 0.99625
1.00019 1.00192 0.992633
1.00025 0.998924 0.996107
1.00023 0.997127 0.99761
1.00025 0.99912 0.995943
1.0001 0.997399 0.998208
0.999992 0.997598 0.998885
0.999812 1.00065 0.994385
0.999941 1.00174 0.993148
0.999773 0.998864 0.998575
1.00007 0.999658 0.998009
1.00036 1.00233 0.991943
1.0003 1.00027 0.997608
1.00532 0.998162 0.987841
1.00533 0.997225 0.988877
1.00526 0.995399 0.990663
1.00525 0.994936 0.99122
1.00532 0.996711 0.989488
1.00483 0.999227 0.98756
1.00532 0.996711 0.989487
1.00527 0.994957 0.991247
1.00525 0.995051 0.991098
1.0052 0.994959 0.991203
1.00526 0.995982 0.989964
1.00524 0.994902 0.990938
1.00526 0.994959 0.991268
1.00521 0.994948 0.991289
1.00522 0.99494 0.991088
1.00527 0.994944 0.991083
1.00527 0.995119 0.99059
1.0053 0.994885 0.990845
1.00532 0.996863 0.989357
1.00536 0.997384 0.98867
1.00524 0.994957 0.991232
1.00521 0.995792 0.990304
1.00326 1.00352 0.9858
1.00519 1.00238 0.983679
1.00524 1.00109 0.984524
1.00525 0.996916 0.988895
1.00524 0.99491 0.990869
1.00522 0.995598 0.990122
1.00521 0.998045 0.987596
1.00517 0.995736 0.990065
1.00395 1.00306 0.985089
1.00473 1.00199 0.984707
1.00105 1.00471 0.988635
1.00227 1.00398 0.986478
1.00524 0.99496 0.991306
1.00524 0.995432 0.990673
1.00516 0.994948 0.991303
1.0052 0.994917 0.990989
1.00492 1.00267 0.983935
1.00521 1.00217 0.983607
1.00521 1.00007 0.98548
1.00523 0.995139 0.990565
1.00524 0.994925 0.990771
1.00516 0.997487 0.988185
1.00521 0.994992 0.99055
1.00519 0.99582 0.989978
1.00501 1.0027 0.98385
1.00498 1.00351 0.983226
1.00385 1.00313 0.985433
1.00047 1.00418 0.989686
1.00117 1.0051 0.987342
1.0052 0.994951 0.991253
1.00519 0.994944 0.991125
1.00525 0.994914 0.99072
1.00524 0.994904 0.990718
1.00516 1.00304 0.983144
1.00521 0.995037 0.990473
1.00506 1.00161 0.983973
1.00516 0.999522 0.985997
1.00512 0.997157 0.988384
0.999922 1.00343 0.991197
1.00083 1.00512 0.988498
1.00187 1.00501 0.986914
1.00498 1.00391 0.982771
1.00478 1.00314 0.98432
1.00502 1.00323 0.982759
1.00017 0.999567 0.994929
1.00031 1.00392 0.990388
1.00525 0.996688 0.989135
1.00096 1.00507 0.987672
1.00415 1.00182 0.986254
1.00356 1.00111 0.987467
1.00523 0.998305 0.98743
1.00522 0.996273 0.989277
1.00516 1.00176 0.984569
1.00512 1.0004 0.985964
1.00526 0.998247 0.987318
1.00035 1.00279 0.991515
1.00059 1.00503 0.988932
1.00483 1.00107 0.985738
1.00216 1.00379 0.987594
1.00435 0.999523 0.987701
1.00526 0.995615 0.990033
1.00523 0.997144 0.988399
1.00524 0.995784 0.989537
1.00489 1.00114 0.985162
1.0051 0.999047 0.986682
1.00058 1.00411 0.990116
1.00028 1.00515 0.988659
1.00495 1.00126 0.985317
1.00258 1.00153 0.987967
1.00521 0.999714 0.98726
1.00524 0.995063 0.990328
1.00526 0.997147 0.988155
1.00529 0.996055 0.989011
1.00487 1.00002 0.986169
1.00514 0.999093 0.986587
1.00033 1.00205 0.992245
1.00041 1.00345 0.990702
0.999999 1.00374 0.990895
0.999981 1.00372 0.990857
1.00007 1.00359 0.991183
1.0001 1.00396 0.990713
0.99996 1.00331 0.991731
1.00001 1.00415 0.990458
1.00003 1.00333 0.991557
1.00001 1.00159 0.993281
1.00002 1.00155 0.993274
1.00012 0.998777 0.9964
1.00006 1.00169 0.993002
1.00021 0.998801 0.996274
1.00022 0.997009 0.99771
1.00027 0.998895 0.996135
1.00019 0.997149 0.99761
1 0.997411 0.998948
0.999836 0.999669 0.995327
0.999845 1.00071 0.99434
0.999729 0.998267 0.998852
1.00003 1.00165 0.993138
0.999878 0.999065 0.998422
1.00017 0.999783 0.997874
1.00525 0.995947 0.989968
1.00526 0.995037 0.991111
1.00524 0.994914 0.990934
1.0052 0.99496 0.991167
1.00526 0.994956 0.991252
1.00532 0.996716 0.989486
1.00526 0.994961 0.991285
1.00521 0.994947 0.991299
1.00521 0.994934 0.991114
1.00527 0.994938 0.991062
1.00527 0.995136 0.990615
1.00528 0.994887 0.990791
1.00521 0.994947 0.991292
1.00527 0.994936 0.991149
1.00528 0.994935 0.990929
1.00529 0.994863 0.990627
1.00525 0.994958 0.991297
1.00524 0.995411 0.99074
1.00515 0.99495 0.991278
1.00521 0.994923 0.990991
1.00478 1.00276 0.983944
1.00522 1.00226 0.983525
1.00519 1.00014 0.985462
1.00524 0.995235 0.990482
1.00523 0.994922 0.990746
1.0052 0.994992 0.990533
1.00514 0.997481 0.988181
1.0052 0.995635 0.990084
1.00476 1.00278 0.983902
1.00501 1.00346 0.983011
1.00326 1.00329 0.985456
1.00049 1.00397 0.989741
1.00117 1.0051 0.9875
1.00519 0.994949 0.991251
1.0052 0.994941 0.991138
1.00525 0.994919 0.990745
1.0051 1.00304 0.9832
1.00512 1.0018 0.983888
1.00514 0.999588 0.985992
1.00524 0.994908 0.990719
1.00516 0.996991 0.988637
1.00521 0.995071 0.990423
0.999936 1.0032 0.991431
1.00488 1.00376 0.982858
1.00482 1.00422 0.982483
1.00441 1.00332 0.984396
1.00196 1.00495 0.987012
1.00066 1.00512 0.988492
1.00526 0.994943 0.991128
1.00528 0.994909 0.990857
1.00526 0.994906 0.990626
1.00523 0.994872 0.990609
1.0051 1.00297 0.98319
1.00519 0.995364 0.990076
1.00505 1.00127 0.984532
1.00507 0.999668 0.986113
0.999999 1.00144 0.993056
1.00013 1.00484 0.989964
1.00137 1.00506 0.988268
1.00266 1.00503 0.985295
1.00473 1.00421 0.983194
1.005 1.00344 0.983086
1.00028 1.00285 0.991524
1.00018 1.00512 0.988953
1.00525 0.995589 0.99005
1.00197 1.0038 0.987565
1.0051 1.0009 0.985656
1.00392 0.999207 0.987612
1.00524 0.99716 0.988378
1.00524 0.995817 0.989517
1.00488 1.00121 0.985212
1.00514 0.999159 0.986668
1.00039 1.00422 0.990125
1.00072 1.00515 0.988392
1.00497 1.00116 0.985295
1.00303 1.00149 0.987785
1.00495 0.999907 0.986894
1.00526 0.995091 0.99037
1.00526 0.997059 0.988359
1.00528 0.996122 0.989093
1.00487 1 0.986248
1.00509 0.99931 0.986354
0.999616 1.0043 0.990303
1.00054 1.00453 0.988791
1.00494 1.00015 0.986326
1.00403 0.999685 0.987395
1.00533 0.994856 0.990342
1.00525 0.995699 0.989897
1.00523 0.998213 0.986946
1.00515 0.999327 0.986243
1.00052 1.00343 0.990688
1.00014 1.00371 0.990872
0.999402 1.00374 0.992553
0.999954 1.00375 0.991172
0.999633 1.00427 0.990788
0.999994 1.00335 0.991549
0.999666 1.00328 0.992072
1.00003 1.00435 0.990388
0.999719 1.00131 0.994036
0.9998 1.00431 0.990961
0.999861 1.0044 0.990451
1.00013 1.00316 0.99157
0.999972 1.00183 0.993031
0.99997 1.00159 0.993273
1.00001 0.998836 0.99651
0.999999 1.00152 0.993279
1.00013 0.998792 0.996418
1.00015 0.997037 0.997799
1.00022 0.998794 0.996301
1.0002 0.997025 0.997708
1.00016 0.99718 0.997603
0.999966 0.998916 0.995913
0.99984 0.999792 0.995261
0.999727 0.997792 0.999016
0.999842 1.00079 0.994291
0.999769 0.998357 0.998779
1.00001 0.999129 0.998254
1.00527 0.995148 0.990639
1.0052 0.994928 0.99114
1.00527 0.99489 0.990738
1.00526 0.994931 0.99104
1.00521 0.994946 0.991309
1.00526 0.994963 0.991303
1.00521 0.994949 0.991301
1.00527 0.994936 0.991147
1.00528 0.994926 0.99092
1.00529 0.99486 0.990648
1.00526 0.994942 0.991178
1.00528 0.994927 0.991043
1.00531 0.99488 0.990727
1.00518 0.994948 0.991249
1.00521 0.994939 0.991151
1.00525 0.994925 0.990769
1.00509 1.00302 0.983258
1.00512 1.00191 0.9838
1.0051 0.999541 0.985984
1.00523 0.994913 0.990721
1.00521 0.995106 0.990373
1.0052 0.996772 0.988882
1.00483 1.00367 0.982943
1.005 1.00424 0.982222
1.0043 1.00328 0.984469
0.999981 1.00301 0.991671
1.00211 1.00479 0.987108
1.0004 1.00513 0.988479
1.00526 0.994943 0.991138
1.00528 0.994905 0.990825
1.00527 0.994904 0.990619
1.00501 1.00307 0.983223
1.00492 1.0012 0.98445
1.00506 0.999334 0.986465
1.00523 0.994876 0.990571
1.00511 0.995486 0.990022
1 1.0014 0.993283
1.00005 1.00485 0.989934
1.00478 1.00321 0.983081
1.00472 1.0037 0.983338
1.00309 1.00478 0.985467
1.00115 1.00505 0.988084
1.00529 0.99491 0.991041
1.00532 0.994859 0.990559
1.00528 0.994892 0.990558
1.00521 0.9949 0.990339
1.00446 1.00245 0.983994
1.00515 0.997339 0.988329
1.00492 1.00155 0.984586
1.00016 1.00053 0.994085
1.00029 1.0016 0.9929
0.999695 1.00327 0.991958
1.00051 1.00505 0.989082
1.00126 1.00505 0.987208
1.00351 1.00436 0.983964
1.00378 1.00403 0.984332
1.0039 1.00483 0.984541
1.00017 1.0044 0.990135
1.00103 1.00517 0.988124
1.00527 0.995122 0.990411
1.00351 1.0011 0.987609
1.005 1.001 0.985279
1.00484 1.00023 0.986541
1.00526 0.996945 0.988565
1.00527 0.996179 0.989179
1.0049 0.99995 0.986327
1.00506 0.999461 0.986122
1.00002 1.00412 0.990131
1.00074 1.00459 0.988533
1.00506 1.00013 0.986214
1.00458 1.00013 0.987324
1.00534 0.994842 0.990355
1.00527 0.995614 0.989827
1.00518 0.998174 0.98706
1.00517 0.999413 0.986206
0.999739 1.00426 0.990317
1.00536 0.994899 0.990349
1.00261 1.00369 0.988095
1.00485 0.999421 0.986943
1.00529 0.995003 0.990588
1.00519 0.997306 0.986945
1.00505 1.00061 0.985577
1.00026 1.00372 0.990849
0.999324 1.00355 0.992462
0.998572 1.00231 0.99538
0.999991 1.00329 0.991541
1.00004 1.00456 0.990318
0.998829 1.00387 0.992407
1.00012 1.0031 0.991563
0.999859 1.00446 0.990447
0.998914 1.00192 0.994412
0.999913 1.00429 0.99085
0.999253 0.999857 0.99706
0.999077 1.00285 0.993429
0.99967 1.00502 0.99018
1.00034 1.00421 0.990074
1.00019 1.0034 0.991163
0.999907 1.00221 0.99276
0.999903 1.00197 0.993011
0.999883 0.999062 0.996542
0.999932 1.00167 0.993264
1.00002 0.99888 0.996508
1.00004 0.997128 0.997882
1.00014 0.998788 0.996438
1.00016 0.997029 0.997794
1.0002 0.997042 0.997701
1.00017 1.00054 0.994124
1.00005 0.998501 0.996211
0.999959 0.999001 0.995868
0.999802 0.997432 0.999109
0.999844 0.999907 0.995197
0.999759 0.997904 0.998977
0.999832 0.998518 0.998677
1.00528 0.994858 0.99067
1.00528 0.994915 0.990911
1.00527 0.994936 0.991146
1.00521 0.994951 0.991312
1.00526 0.994943 0.991179
1.00528 0.994925 0.991057
1.0053 0.994885 0.990694
1.00528 0.994923 0.991098
1.00534 0.99492 0.990868
1.00545 0.995052 0.9911
1.00526 0.994944 0.991148
1.00528 0.9949 0.990793
1.00527 0.994903 0.990612
1.00489 1.00321 0.983257
1.00492 1.00163 0.98439
1.00487 0.999111 0.986815
1.00522 0.994887 0.990534
1.005 0.995674 0.98997
1.00448 1.00351 0.98297
1.00423 1.0044 0.983558
1.00298 1.00449 0.98564
0.999988 1.00132 0.993508
1.00007 1.00487 0.989902
1.00104 1.00504 0.987898
1.00529 0.994908 0.991023
1.00014 1.00054 0.994073
1.00019 1.00169 0.992755
1.00532 0.99487 0.990571
1.00526 0.994893 0.990571
1.00478 1.00268 0.983899
1.0047 1.00151 0.984798
1.0051 0.997071 0.988234
1.00521 0.994904 0.990281
0.999745 1.00325 0.992129
1.00052 1.00506 0.98904
1.00398 1.00386 0.984179
1.00364 1.00426 0.98426
1.0038 1.00459 0.983958
1.00142 1.00503 0.987135
1.00537 0.994869 0.990771
1.00533 0.994826 0.990473
1.00524 0.994861 0.99039
1.00518 0.994924 0.990346
1.00408 1.00236 0.985062
1.0045 1.00106 0.986132
1.00006 1.00226 0.992253
1.00001 1.00182 0.993047
1.00137 1.00049 0.992578
1.00045 1.00378 0.990262
1.00072 1.00507 0.988627
1.00236 1.0045 0.986457
1.00235 1.00515 0.984499
1.00287 1.00101 0.98789
1.00048 1.00396 0.989961
1.00117 1.00466 0.988272
1.00535 0.994829 0.990367
1.00529 0.995574 0.989758
1.00507 1.00051 0.987247
1.00514 1.00016 0.986096
1.00513 0.998148 0.987172
1.00519 0.999517 0.986172
1.00031 1.00398 0.990213
1.00538 0.994923 0.990581
1.00197 1.00372 0.988264
1.00499 0.999615 0.986704
1.00528 0.994999 0.99061
1.00517 0.997503 0.987147
1.00495 1.00043 0.985564
0.999748 1.00492 0.99075
1.00494 0.994812 0.990845
1.00265 1.0026 0.987975
1.00473 1.00126 0.985083
1.0051 0.995656 0.989832
1.00369 1.00111 0.986191
0.998777 0.995434 0.986349
0.999093 1.00355 0.992378
0.99805 1.00268 0.995385
0.998598 1.00164 0.996509
1.00002 1.00318 0.991556
0.999811 1.00459 0.990445
1.00033 1.00389 0.990742
0.998469 1.00212 0.994804
1.00011 1.0035 0.991165
1.00025 1.00426 0.990117
0.999319 0.999689 0.996744
0.9998 1.00492 0.990194
0.999478 1.00279 0.992992
0.99833 1.00117 0.997191
1.00038 1.00427 0.990103
1.00017 1.0048 0.989998
1.00068 1.00422 0.989718
1.00012 1.00391 0.990537
1.00036 1.00453 0.9901
1.00012 1.0041 0.990296
0.9999 1.00231 0.992656
0.999921 1.0022 0.992741
0.999758 0.999186 0.99598
0.999898 1.00197 0.992988
0.999871 0.999114 0.996217
0.999999 0.997297 0.999102
1.00003 0.99893 0.996508
1.00006 0.997102 0.997881
1.00017 0.997023 0.997784
1.00006 1.00048 0.994264
1.00017 1.00044 0.994156
1.00009 0.998285 0.9964
1.00004 0.998512 0.996488
0.999868 0.997166 0.999168
0.999945 0.999107 0.995823
0.999804 0.997507 0.999087
0.999789 0.997934 0.998939
1.00528 0.99489 0.990661
1.00527 0.994923 0.99107
1.00526 0.994944 0.99118
1.00528 0.994923 0.991098
1.00534 0.994918 0.990849
1.00544 0.994987 0.990824
1.00541 0.994886 0.99088
1.00135 0.994876 0.981949
1.00474 0.994955 0.992268
1.00009 1.00171 0.992985
1.00529 0.994907 0.991006
1.00532 0.994879 0.990584
1.00525 0.99489 0.990583
1.00478 1.00234 0.983783
1.0049 1.0011 0.984992
1.00504 0.996952 0.988138
1.00522 0.994889 0.990223
1.00443 1.0033 0.984066
1.00414 1.00391 0.98403
1.00368 1.00461 0.983952
1.00013 1.00056 0.994063
1.00193 1.00502 0.98706
0.999769 1.00321 0.992286
1.00051 1.00504 0.988995
1.00018 1.00168 0.992611
1.00537 0.994859 0.990772
1.00003 1.0023 0.992393
1.00001 1.00184 0.99306
1.00103 1.00046 0.99292
1.00534 0.994836 0.990442
1.00522 0.994863 0.990359
1.00333 1.00323 0.985151
1.00475 0.999845 0.986644
1.00518 0.994908 0.99027
1.00024 1.00379 0.990466
1.00098 1.00504 0.988436
1.00302 1.00242 0.987347
1.00293 1.00501 0.984294
1.00274 1.00405 0.986605
1.00534 0.994808 0.990947
1.00523 0.994777 0.990755
1.00516 0.995002 0.989914
1.005 0.996954 0.990188
1.00189 1.00208 0.988759
0.999467 1.00358 0.991818
1.00115 1.00101 0.992071
1.00002 1.00014 0.993167
1.00054 1.00444 0.990507
1.00042 1.00506 0.989251
1.00092 1.00431 0.987907
1.00218 1.00025 0.990184
1.00109 1.00363 0.990107
1.00106 1.00373 0.988439
1.0054 0.994943 0.990802
1.00529 0.994954 0.990624
1.00517 0.997648 0.987348
1.00505 0.99976 0.986464
1.00488 1.00026 0.985556
1.0002 1.00469 0.990723
1.00467 0.994838 0.991053
1.00281 1.00235 0.987818
1.0048 1.00133 0.984968
1.00506 0.995548 0.990096
1.00399 1.00094 0.986272
0.998541 0.996532 0.984482
0.999189 1.00439 0.991658
1.00299 0.996171 0.991098
1.00339 1.00237 0.985981
1.00307 1.00107 0.986958
1.00335 0.99758 0.99072
0.999956 0.994866 0.944475
0.995247 0.994803 0.965532
0.995622 0.999606 0.988266
0.999313 0.994789 0.861712
0.994716 0.994835 0.824121
0.99765 1.00298 0.995388
0.997765 1.00203 0.996786
0.997795 1.00297 0.99666
1.00007 1.00354 0.991167
1.00029 1.00405 0.990159
0.999976 1.00478 0.990209
0.999705 1.00291 0.992539
0.999287 0.999359 0.996419
1.00013 1.00472 0.990025
1.00015 1.00388 0.990621
1.0006 1.00419 0.989758
0.998595 1.00042 0.996622
0.999973 1.00446 0.990454
1.00042 1.00461 0.990452
0.998801 1.0045 0.992149
1.00013 1.00468 0.990168
1.00052 1.00462 0.989196
1.00021 1.004 0.990368
1.00034 1.00497 0.98938
1.00041 1.00407 0.990566
0.999653 1.00484 0.990712
1.00018 1.00462 0.990061
1.00026 1.00379 0.9907
1.00015 1.00411 0.990287
0.999922 1.0023 0.992659
0.999912 1.00231 0.992659
0.999727 0.999267 0.995994
0.999889 1.0023 0.992723
0.999745 0.999229 0.995973
0.999947 0.9973 0.999131
0.99985 0.999179 0.995894
0.999975 0.997295 0.998497
1.00009 0.997078 0.997878
0.999928 1.00032 0.994597
1.00004 1.00052 0.99427
1.00009 0.998133 0.996576
1.00018 1.00034 0.994186
1.00008 0.998237 0.996683
0.999924 0.996898 0.99922
1.00006 0.998554 0.996166
0.999867 0.997287 0.999145
0.999815 0.997606 0.999067
1.00533 0.994915 0.990829
1.00528 0.994924 0.991098
1.00541 0.994932 0.990557
1.00074 0.994836 0.982102
1.00541 0.994887 0.990891
1.0046 0.994952 0.992046
1.00515 0.996109 0.991213
0.996251 0.994884 0.964892
1.00135 0.995528 0.984194
1.00014 1.00143 0.99326
1.00005 1.00188 0.992947
0.999372 1.00383 0.991917
0.999881 1.0023 0.992683
1.00537 0.994855 0.990772
1.00534 0.994852 0.990411
1.00521 0.994874 0.990328
1.00423 1.00358 0.985246
1.00465 0.997965 0.987176
1.00519 0.994909 0.990193
1.00262 1.00313 0.986779
1.00436 1.00496 0.984078
1.00294 1.00264 0.986744
0.999957 1.00194 0.993077
1.00092 1.00503 0.988257
1.00014 1.00383 0.990672
0.999925 1.00251 0.99253
1.00051 1.00079 0.993235
1.00534 0.994807 0.990954
0.999797 1.00351 0.991644
1.00131 1.00057 0.992299
0.998466 1.00123 0.995389
1.00524 0.994802 0.990665
1.00517 0.995055 0.989929
1.00313 1.00091 0.98875
1.00467 0.996016 0.990508
1.00063 1.00448 0.989887
1.00078 1.00482 0.988402
1.00189 1.00182 0.990087
1.00235 1.00365 0.987335
1.00431 0.995102 0.991637
1.00512 0.994989 0.991057
1.00501 0.99595 0.989635
1.00337 0.996796 0.992915
0.998116 1.00462 0.993058
1.00089 1.00136 0.991905
0.998208 1.00477 0.992947
0.999302 1.00459 0.990943
0.999985 0.994892 0.93138
1.00045 1.00455 0.990692
1.00283 1.00251 0.987656
1.00432 0.994875 0.991291
1.00509 0.995502 0.990355
1.00417 1.00078 0.986336
1.00463 1.00147 0.984849
0.998431 0.99726 0.982475
0.999496 1.00429 0.99192
1.00293 0.996371 0.991001
1.00333 1.00263 0.986021
1.00358 1.00106 0.987058
1.00377 0.997632 0.990451
0.999965 0.994866 0.931843
0.995615 0.994801 0.962043
0.99557 1.00014 0.988475
0.998274 0.994761 0.866522
0.994726 0.994834 0.814655
0.999413 1.00425 0.991447
0.999786 0.994818 0.872791
0.994721 0.994808 0.816652
1.00031 0.999681 0.992658
1.0016 1.00205 0.989436
1.00145 0.999479 0.992588
0.995022 0.998698 0.990882
0.997794 0.994825 0.943302
0.994917 0.994779 0.958074
0.996481 0.994854 0.883852
0.994732 0.99481 0.807126
0.997189 1.0024 0.997073
0.997541 1.00229 0.996507
0.997768 1.00446 0.995209
1.00022 1.00381 0.990703
1.00055 1.00417 0.989799
0.999653 1.00497 0.990051
0.999707 1.00463 0.990804
0.999096 0.999593 0.996059
1.00022 1.00397 0.990374
1.00017 1.00467 0.990341
0.999994 1.00482 0.990024
1.00067 1.00455 0.989326
0.998736 1.00437 0.992433
0.999485 1.00462 0.991665
0.997602 1.00511 0.993194
1.00013 1.00506 0.989461
1.00054 1.00468 0.989429
1.00046 1.00487 0.989361
1.00021 1.00372 0.990841
1.00033 1.00501 0.989674
0.99988 1.00384 0.991349
0.99925 1.00283 0.991982
0.999242 1.00499 0.990941
0.999541 1.00474 0.990695
0.999832 1.0045 0.990737
1.00011 1.00378 0.990857
1.00004 1.00462 0.990023
1.00026 1.00378 0.990632
1 1.00227 0.992582
1.00021 1.00411 0.990278
0.999933 1.00226 0.992671
0.999912 0.99923 0.996438
0.999894 1.00233 0.992663
0.999773 0.999234 0.996254
0.999894 0.997292 0.997974
0.999734 0.999246 0.995966
0.999942 0.997319 0.999139
0.999969 0.997322 0.99789
1.00024 1.00142 0.99305
0.999924 1.0002 0.994745
0.999934 1.00035 0.994588
1.00005 0.998059 0.996685
1.00002 1.00057 0.994274
1.00009 0.998096 0.996575
0.999966 0.996788 0.999252
1.00007 0.998241 0.996927
0.999928 0.997054 0.998653
0.999895 0.997341 0.998001
1.00022 0.994811 0.982236
1.00541 0.994889 0.9909
1.00438 0.995539 0.991811
0.996457 0.994863 0.965476
1.00145 0.995221 0.984565
1.00518 0.995584 0.991189
1.00347 0.996311 0.98655
0.997255 0.994901 0.968206
0.999984 0.994867 0.942492
0.998151 0.994819 0.885256
0.994653 0.994801 0.822897
0.999713 1.00241 0.992662
1.00016 1.00138 0.993246
1.00015 1.00179 0.992907
0.999724 1.00325 0.992055
0.9992 1.00408 0.992353
1.00056 1.00197 0.991899
1.00019 1.00287 0.991966
1.00011 1.00212 0.992544
1.00535 0.994802 0.990952
1.00525 0.99482 0.990579
1.00518 0.995064 0.989941
1.00309 1.00117 0.988738
1.0045 0.995583 0.990827
1.00172 1.00256 0.989971
1.00379 1.00393 0.986771
1.00146 1.00504 0.98756
1.00134 1.00009 0.992522
1.00069 1.00459 0.989235
1.00038 1.0031 0.991484
0.997539 1.00154 0.997578
1.00428 0.99482 0.99191
0.998595 1.00418 0.992961
1.00069 1.00176 0.992346
1.00485 0.99492 0.991027
1.00472 0.995811 0.989968
1.00272 0.996842 0.992594
0.999501 1.0051 0.991304
1.00054 1.00337 0.991169
1.00329 0.994826 0.991366
1.00391 0.998532 0.990524
1.00462 0.995497 0.991044
1.00089 0.998118 0.993931
0.999441 1.0049 0.990718
0.998851 1.00438 0.992254
0.999422 1.00498 0.991895
0.999789 0.994912 0.875432
1.00027 0.994864 0.945082
0.999982 1.00384 0.992185
1.0035 1.00277 0.98607
1.00286 0.996924 0.9909
1.00409 0.997695 0.990194
1.00403 1.00116 0.987181
0.999991 0.994895 0.942823
0.995897 0.994781 0.961532
0.995573 1.00059 0.988723
0.997735 0.994816 0.884072
0.994731 0.994826 0.804647
0.999685 1.0042 0.991406
0.99981 0.994853 0.872037
0.994686 0.994791 0.80989
1.00041 0.999642 0.992626
1.0016 1.00218 0.98943
1.00136 0.999607 0.992979
0.994886 0.999832 0.991604
0.998573 0.995243 0.937183
0.994857 0.994795 0.959637
0.995995 0.99543 0.883425
0.994748 0.994808 0.805601
0.998609 1.00411 0.994207
0.994716 0.994806 0.807646
0.994745 0.99478 0.817073
0.996963 1.0021 0.99688
0.99983 1.00192 0.994497
0.994892 0.999556 0.988722
0.994991 0.994895 0.960933
0.995498 0.994784 0.932055
0.994769 0.996369 0.888141
0.99483 0.994838 0.811709
0.997543 1.00186 0.996362
0.998194 1.00375 0.994969
0.996959 1.00395 0.995482
1.00022 1.00395 0.99038
1.0008 1.00437 0.989455
1.00002 1.00491 0.989878
0.999893 1.0047 0.990231
0.998306 1.00429 0.992718
1.0005 1.00474 0.989417
0.999544 1.00437 0.991333
1.00035 1.00498 0.989474
0.997214 1.00502 0.993572
0.995946 1.00521 0.996341
0.998885 1.00496 0.991795
1.00052 1.00507 0.989345
1.00056 1.00473 0.989342
1.00011 1.0033 0.991111
1.00023 1.00498 0.989616
0.999997 1.00368 0.991255
0.999071 1.003 0.992741
0.998998 1.0048 0.99134
0.998813 1.00503 0.991488
0.998762 1.00334 0.993181
1.0004 1.00168 0.992726
1.00232 0.999742 0.990957
0.99908 1.00484 0.991097
0.999436 1.00482 0.990989
0.999588 1.005 0.99008
0.999594 1.00488 0.990699
1.00005 1.00395 0.990754
0.99982 1.00453 0.99076
1.00015 1.00378 0.990884
1.00003 1.00229 0.992438
1.00027 1.00382 0.990565
0.999982 1.00227 0.992598
1.00004 0.999182 0.996256
0.999922 1.00227 0.992683
0.999889 0.999199 0.996095
1 0.997237 0.997834
0.999767 0.999218 0.995963
0.999951 0.997282 0.999147
0.999939 0.997316 0.999147
1.0003 1.00182 0.992891
0.999947 1.00036 0.994582
1.00014 1.0016 0.993061
1.00005 0.998019 0.996727
0.999916 1.00021 0.994745
0.999933 1.0004 0.994581
1.00006 0.998057 0.996674
0.999993 0.996702 0.999267
1.00007 0.998113 0.997066
0.999978 0.996787 0.998729
0.999946 0.997069 0.998138
0.99981 0.994828 0.860115
0.99469 0.994769 0.807777
0.996523 0.99486 0.965898
1.00128 0.994905 0.985031
1.00524 0.994817 0.991175
0.996902 0.995199 0.967847
1.00353 0.995461 0.98707
1.00082 0.994879 0.939158
0.998561 0.994778 0.866726
0.994703 0.994814 0.813668
0.997998 0.99484 0.973735
0.998674 0.994866 0.942677
0.996619 0.994852 0.883912
0.994752 0.994805 0.813577
1.00014 1.00327 0.991652
0.999868 1.00215 0.992795
1.00012 1.00146 0.993235
0.999887 1.00294 0.992192
0.999042 1.00402 0.992632
1.00026 1.00354 0.990813
1.00031 1.00275 0.991726
1.00048 1.00352 0.990461
1.00015 1.00287 0.991849
0.999994 1.00242 0.992398
1.0041 0.994771 0.99217
1.00471 0.994847 0.990997
1.0044 0.995718 0.990302
1.00227 0.997371 0.992268
1.00102 1.00308 0.991394
0.999576 1.00517 0.989685
1.00027 1.0022 0.992856
0.998776 1.00409 0.992851
1.00248 0.994929 0.991802
0.999518 1.00502 0.99049
0.998562 1.00476 0.992021
1.00367 0.997425 0.990701
1.00437 0.99552 0.991232
1.00107 0.998213 0.994237
0.999219 1.00498 0.991649
1.00024 0.995214 0.990876
1.00134 0.998639 0.993672
0.999016 1.00145 0.995018
0.998773 1.00482 0.990032
0.998712 1.00514 0.990806
0.998667 1.00493 0.992205
0.994724 0.994842 0.830792
0.999789 0.99488 0.880533
0.999994 0.994872 0.931714
0.999496 1.00403 0.991346
1.00184 1.00238 0.989399
1.00051 0.999409 0.992588
1.00122 0.999762 0.993376
0.999815 0.994873 0.884316
0.998077 0.994831 0.932069
0.994837 0.994833 0.958148
0.994887 1.00089 0.992224
0.996812 0.994828 0.868711
0.994663 0.99479 0.815368
0.994793 0.99482 0.819723
0.998444 1.0035 0.993918
0.994706 0.994815 0.817537
0.994771 0.994784 0.816514
0.997113 1.00059 0.997522
0.999416 1.00193 0.994378
0.994968 0.998405 0.991135
0.995455 0.994856 0.959713
0.996405 0.99708 0.943061
0.994715 0.997334 0.871573
0.994949 0.994834 0.821951
0.997066 1.00397 0.996519
0.994784 0.99483 0.825372
0.994814 0.994792 0.813715
0.995011 1.00229 1.00006
0.995321 0.997028 0.968354
0.994832 0.998477 0.942083
0.995211 0.995988 0.863686
0.995212 0.994876 0.829392
0.998613 1.00272 0.994691
0.997292 1.00427 0.995652
0.9957 1.00421 0.997925
1.00039 1.00479 0.989405
1.00046 1.005 0.989488
0.99969 1.00405 0.991
0.997011 1.00488 0.993952
1.00028 1.00507 0.989352
0.998839 1.00498 0.991775
0.995759 1.00519 0.996702
0.994998 1.00506 0.99828
0.99581 1.00514 0.9968
0.999383 1.00507 0.991232
1.00023 1.005 0.989557
1.00006 1.00341 0.991159
0.99875 1.00329 0.993479
0.998818 1.00503 0.991573
0.999211 1.00477 0.991355
0.998745 1.00356 0.993303
0.998847 1.00451 0.992107
0.996476 1.00496 0.995826
1.00226 0.997369 0.99353
1.00003 1.00142 0.993277
1.00112 1.00087 0.991739
1.00464 1.00047 0.986969
1.00162 1.00202 0.990848
1.00115 0.999607 0.992855
0.999615 1.00459 0.990826
0.999705 1.00512 0.989637
0.999688 1.00459 0.991036
0.999885 1.00503 0.990085
1.00008 1.00454 0.990124
0.999983 1.00472 0.990702
1.00027 1.00374 0.990738
1.00011 1.0024 0.992242
1.00034 1.0035 0.990911
1.00011 1.00226 0.992446
1.00015 0.99921 0.996048
1.00001 1.00222 0.992614
1.00002 0.999189 0.995881
1.00009 0.997255 0.997698
0.999892 0.999178 0.9958
0.999989 0.997244 0.998487
0.999963 0.997257 0.999129
1.00022 1.00245 0.992006
1.00009 1.00048 0.994283
1.0002 1.00186 0.992714
1.00004 0.998077 0.996675
0.999965 1.00031 0.994589
1.00013 1.00158 0.993072
1.00002 0.996662 0.999275
1.00004 0.998019 0.996728
0.999918 1.00023 0.994745
1.00007 0.998043 0.996663
0.999994 0.996739 0.999264
0.999963 0.996781 0.999248
0.994688 0.994778 0.811151
0.999794 0.994842 0.871937
0.994755 0.994769 0.814315
0.994708 0.994771 0.806868
0.99693 0.994883 0.96589
1.00343 0.994857 0.987595
0.999912 0.994859 0.935151
0.999109 0.994814 0.885133
0.994737 0.994826 0.804151
0.998487 0.994868 0.972881
0.999574 0.995883 0.928862
0.996208 0.996308 0.882104
0.994719 0.994799 0.806347
0.99524 0.994824 0.965626
0.996351 0.996429 0.930505
0.994823 0.997394 0.864148
0.994822 0.994863 0.810307
1.00085 1.00449 0.990256
0.999807 1.00326 0.991755
1.00002 1.00188 0.992925
0.998744 1.00375 0.992915
1.00085 1.00388 0.989439
1.0002 1.00341 0.99102
0.999899 1.00323 0.99156
1.00095 1.00306 0.990471
1.00056 1.0036 0.990568
1.00019 1.00269 0.991735
1.00209 0.994785 0.992233
1.00351 0.996568 0.990892
1.00398 0.9956 0.991423
1.00091 0.997273 0.994565
1.00022 1.00497 0.991387
0.998964 1.00514 0.991799
0.999651 1.00501 0.990258
1.00017 1.00485 0.989779
0.999873 0.995434 0.991335
0.999598 1.00512 0.990542
0.999379 1.0049 0.992069
1.00127 0.998261 0.99435
0.999815 1.00035 0.99484
0.996528 0.999108 0.990913
0.996747 0.999021 1.00073
0.997062 1.00339 0.995587
0.99951 1.00491 0.990798
0.997891 1.00509 0.993363
0.994812 0.994816 0.831345
0.994716 0.994823 0.826827
0.999798 0.994891 0.863799
0.998426 1.00306 0.993686
0.999127 1.00164 0.99425
0.997279 0.999867 0.998168
0.99468 0.994798 0.816174
0.996508 0.996414 0.931774
0.995609 0.994884 0.959505
0.994867 0.996868 0.993834
0.994793 0.997232 0.889788
0.994773 0.994786 0.816567
0.995084 0.994842 0.823042
0.997401 1.00395 0.996354
0.994791 0.994827 0.828254
0.994804 0.994792 0.814547
0.995213 1.00159 0.999158
0.995296 0.996224 0.970327
0.994853 0.996203 0.9306
0.995071 0.994865 0.825629
0.99501 0.998694 0.871829
0.994932 1.00473 0.999941
0.994794 0.994826 0.820748
0.994869 0.994825 0.821776
0.994816 0.994849 0.810885
0.994814 0.998802 0.990303
0.994869 0.998601 0.945536
0.997193 0.996698 0.879764
0.997734 1.00485 0.995849
0.99584 1.00473 0.997722
0.995155 1.00474 0.999236
1.00022 1.00508 0.989359
0.998811 1.00503 0.991752
0.99558 1.00517 0.997059
0.999065 1.00508 0.991218
0.995971 1.00512 0.9968
0.995199 1.00485 0.998246
0.994955 1.00515 0.998461
0.995754 1.00501 0.996943
0.998721 1.00491 0.991673
0.999369 1.00484 0.99137
0.998771 1.00395 0.993449
0.996686 1.00488 0.995685
0.998852 1.00471 0.991991
0.999128 1.00196 0.994298
0.999824 0.997792 0.997015
1.0024 1.00019 0.989348
0.999664 1.00119 0.993786
1.00169 1.00092 0.991241
1.00435 1.00186 0.985919
1.00499 1.00234 0.984142
1.00346 0.999642 0.98977
1.00385 1.00045 0.987361
1.00079 1.00511 0.988804
1.00093 1.00236 0.991251
0.999997 0.999559 0.994729
1.00015 1.00438 0.990556
0.999891 1.00511 0.989676
1.00022 1.00499 0.989359
1.00016 1.00506 0.990093
1.00024 1.00436 0.990137
1.00014 1.00284 0.9917
1.00037 1.00368 0.99072
1.00015 1.00234 0.992233
1.00018 0.999275 0.995926
1.00013 1.00223 0.992454
1.00013 0.999222 0.995672
1.00017 0.997293 0.997543
1.00003 0.9992 0.995559
1.00007 0.997247 0.998389
1.00002 0.997226 0.999074
1.00056 1.00269 0.991099
1.00011 1.00084 0.99358
1.00036 1.00232 0.991998
1.00011 0.99813 0.996521
1.00006 1.0005 0.994133
1.00015 1.00189 0.99254
1.00004 0.996683 0.99926
1.00006 0.998044 0.996685
0.99998 1.00024 0.994597
1.00002 0.996681 0.999273
1.00003 0.998034 0.996728
0.999994 0.996712 0.999261
0.994821 0.994821 0.821871
0.994697 0.994811 0.823691
0.999799 0.994815 0.871062
1.00112 1.00265 0.990462
0.994818 0.994795 0.820508
0.994757 0.994768 0.814278
0.994739 0.99478 0.819211
0.999072 0.99488 0.972034
0.998256 0.994838 0.941639
0.996333 0.994858 0.866228
0.994702 0.994805 0.814898
0.996434 0.994847 0.963085
0.996497 0.99822 0.941354
0.994732 0.996677 0.867335
0.994833 0.994847 0.814459
0.994831 0.994972 0.957594
0.994822 0.996281 0.93987
0.995404 0.999946 0.875206
0.995096 0.994886 0.829294
0.999701 1.00485 0.990317
1.00028 1.00431 0.99018
0.999977 1.00328 0.991859
1.00063 1.00322 0.990493
1.00062 1.00426 0.989708
1.00018 1.00368 0.991225
1.00095 1.00319 0.990431
1.00054 1.00364 0.990668
0.998754 0.996878 0.99163
1.00084 0.99778 0.994943
1.00037 1.00493 0.989522
1.00068 0.999733 0.994669
0.999595 1.00483 0.991934
1.00004 1.00512 0.990288
0.999239 1.0048 0.990883
0.995996 0.998535 0.991599
0.998225 1.00507 0.993336
0.997733 1.00304 0.995864
0.996227 0.999889 1.00089
0.998807 1.00477 0.992227
0.994813 1.00082 0.988012
0.995418 1.00257 0.999026
0.996091 1.00488 0.996713
0.997889 1.00546 0.994058
0.994782 0.994807 0.826312
0.994817 0.994817 0.829061
0.994705 0.99481 0.822766
0.997704 1.00402 0.996167
0.995431 1.0006 0.998239
0.994806 0.994827 0.830956
0.994788 0.998056 0.942646
0.995628 0.996095 0.967672
0.995033 0.998491 0.870213
0.994805 0.994792 0.815179
0.994883 0.994853 0.821889
0.995402 1.00452 0.99958
0.994797 0.994822 0.820785
0.994863 0.994835 0.822915
0.994794 0.999409 0.994038
0.994825 0.994838 0.814764
0.994852 0.996309 0.937847
0.996039 0.997447 0.881843
0.994787 1.00328 0.998577
0.994836 0.994842 0.826979
0.994802 0.9948 0.821566
0.994746 0.994807 0.813841
0.995523 0.999935 0.874166
0.994867 1.00076 0.97524
0.995495 0.997894 0.93091
0.99612 1.00505 0.99753
0.995061 1.00506 0.99921
0.994894 1.00518 0.998464
0.998695 1.00511 0.991204
0.995856 1.00514 0.996806
0.995024 1.00521 0.998212
0.995806 1.00491 0.996868
0.994957 1.00515 0.998494
0.997724 1.00218 0.997606
0.996864 1.00479 0.995529
0.99882 1.0048 0.99189
0.998938 1.00218 0.994967
0.998851 1.00191 0.99284
0.997516 0.998183 1.00035
1.00216 0.999837 0.990568
1.00426 1.00431 0.982719
1.00467 1.00291 0.983697
1.00222 1.00089 0.990698
1.00427 1.00219 0.985201
1.0051 1.00226 0.984033
1.00483 0.999996 0.986608
1.00473 1.0021 0.984507
1.00163 1.00318 0.988843
1.00311 1.00022 0.989532
1.00312 1.00036 0.987773
1.00041 1.00513 0.988652
1.00033 1.00506 0.989063
1.00031 1.00258 0.991649
1 1.0051 0.989714
1.00034 1.00497 0.989377
1.00019 1.00386 0.990678
1.0004 1.00433 0.99015
1.00018 1.00288 0.991682
1.00014 0.999489 0.995055
1.00023 1.00234 0.992227
1.0002 0.999275 0.995201
1.00008 0.99729 0.998945
1.00014 0.99926 0.995336
1.00013 0.997285 0.998272
1.00009 0.997237 0.999006
1.00053 1.00279 0.991011
1.00027 1.00131 0.99289
1.00049 1.00275 0.991248
1.00017 0.998289 0.996273
1.00019 1.00082 0.993502
1.0004 1.00231 0.991986
1.00007 0.996677 0.999226
1.00011 0.998107 0.996536
1.00006 1.0005 0.993983
1.00004 0.996663 0.999266
1.00007 0.998008 0.996696
1.00001 0.99672 0.999271
0.994799 0.994828 0.827371
0.994818 0.99482 0.82214
0.994689 0.994826 0.823604
1.001 1.0027 0.990635
1.00073 1.00297 0.990504
1.0011 1.00205 0.991312
0.994874 0.99483 0.820911
0.994817 0.994794 0.821191
0.994755 0.994761 0.814323
0.996765 0.994848 0.963906
0.996074 0.99479 0.929702
0.99477 0.998746 0.888405
0.994823 0.994836 0.808937
0.994993 0.994997 0.960307
0.994913 0.997772 0.936132
0.995338 0.99788 0.871523
0.995077 0.994875 0.825274
0.995803 0.995177 0.957209
0.994844 0.997283 0.940704
0.996478 0.996782 0.880464
0.994839 0.994834 0.812648
0.99981 1.00321 0.991739
1.00031 1.00426 0.990131
1.0004 1.00393 0.990102
1.00083 1.00307 0.990433
1.0003 1.00447 0.989978
1.00091 1.00338 0.990393
0.995918 0.997277 0.992412
0.996072 1.0008 1.00119
0.999662 1.00405 0.990962
0.998646 1.00241 0.996059
0.998459 1.00504 0.9933
0.998326 1.00442 0.99283
0.99732 1.00536 0.994125
0.994871 1.00125 0.987874
0.995867 1.00509 0.997156
0.995782 1.00287 0.998318
0.997204 1.00516 0.994535
0.994953 1.00272 0.984877
0.995553 1.00461 0.995534
0.995377 1.00453 0.998424
0.994843 0.994831 0.825739
0.994785 0.994816 0.825673
0.99482 0.994813 0.826814
0.995755 1.0039 0.999184
0.994797 0.999751 0.990006
0.994794 0.99482 0.820834
0.994851 0.997837 0.937474
0.996617 0.996707 0.866811
0.994864 0.994836 0.824034
0.994817 0.994832 0.809637
0.99479 1.0031 0.999039
0.994826 0.994843 0.827326
0.994818 0.994801 0.822293
0.994873 0.999595 0.972658
0.994713 0.994802 0.806998
0.995839 0.999499 0.868903
0.995011 0.995551 0.944285
0.994867 1.00518 0.990811
0.994791 0.994838 0.827635
0.994776 0.994784 0.815538
0.994654 0.994807 0.824321
0.994785 0.997393 0.863355
0.994852 0.998852 0.93925
0.994877 1.00102 0.966997
0.995068 1.00496 0.999157
0.994932 1.00518 0.998406
0.996292 1.00372 0.997588
0.995994 1.00478 0.996796
0.994979 1.00507 0.998506
0.99637 1.00383 0.997664
0.999395 0.998745 0.997963
0.998707 1.00262 0.995623
1.0012 1.00148 0.991947
1.00226 1.00482 0.985752
1.00174 0.999543 0.991999
1.00422 1.00416 0.983369
1.00429 1.00495 0.982203
1.00502 1.00162 0.984017
1.00505 1.00189 0.984215
1.00463 1.00301 0.983595
1.00446 1.00245 0.9845
1.00509 1.00147 0.984875
1.00511 1.00216 0.984064
1.00369 1.00084 0.98766
1.00458 1.00012 0.986935
1.00439 1.0019 0.984874
1.00077 1.0051 0.987998
1.00171 1.00343 0.988783
1.00263 1.00095 0.989284
1.00038 1.00456 0.989708
1.00071 1.00512 0.988656
1.00006 1.00501 0.989323
1.00053 1.0049 0.989399
1.00031 1.00368 0.990684
1.00005 1.00009 0.994568
1.0003 1.00277 0.991664
1.00016 0.999534 0.995029
1.00009 0.997419 0.99891
1.00021 0.99929 0.995197
1.00015 0.997314 0.998218
1.00012 0.997281 0.998951
1.00063 1.0032 0.99076
1.00039 1.00158 0.992629
1.00065 1.00267 0.991067
1.00024 0.998535 0.995904
1.00027 1.00131 0.992975
1.00049 1.00274 0.991398
1.00011 0.996748 0.999169
1.00018 0.998237 0.996293
1.00023 1.00079 0.993426
1.00007 0.996695 0.999236
1.00011 0.998082 0.99655
1.00004 0.996676 0.999273
0.994834 0.994836 0.826163
0.994801 0.994843 0.82742
0.994815 0.994831 0.822457
1.0002 1.00449 0.989684
1.0011 1.00419 0.9899
1.00081 1.00283 0.990813
1.00063 1.00328 0.990393
1.00062 1.00222 0.991488
1.00029 1.00299 0.991309
1.0002 1.00185 0.992533
0.994833 0.994801 0.814081
0.994877 0.99484 0.822164
0.994812 0.994815 0.821891
0.99489 0.994869 0.821337
0.995157 0.994935 0.957915
0.994855 0.999013 0.931085
0.995446 0.995699 0.885574
0.995345 0.994985 0.956291
0.994836 0.998606 0.928287
0.995514 0.997683 0.882228
0.994887 0.994828 0.822691
0.996099 0.996438 0.960259
0.995013 0.999376 0.929558
0.995203 0.996313 0.863896
0.994733 0.994812 0.808088
0.997889 1.00472 0.993797
0.999581 1.00367 0.992035
1.00038 1.00452 0.989946
1.00092 1.00326 0.990379
0.994946 1.00139 0.987921
0.995858 1.00341 0.997458
0.998014 1.00498 0.993435
0.997097 1.00528 0.994198
0.995662 1.00513 0.997669
0.997134 1.00492 0.994642
0.995424 1.00455 0.99844
0.99576 1.00256 0.981509
0.995083 1.0051 0.995799
0.995649 1.00385 0.997758
0.994798 1.0049 0.980448
0.995157 1.00278 0.999464
0.99478 0.994815 0.826776
0.994839 0.994831 0.828822
0.99479 0.99483 0.825015
0.994797 1.00303 0.999482
0.994855 0.999569 0.975996
0.994818 0.994837 0.827721
0.995229 0.997481 0.931875
0.996116 0.99676 0.883838
0.994828 0.994823 0.822952
0.994698 0.994809 0.815342
0.99487 1.00456 0.991702
0.994808 0.994837 0.827708
0.994759 0.994782 0.815555
0.994877 0.999805 0.966943
0.994707 0.994817 0.815213
0.994711 0.997302 0.865716
0.995101 0.998819 0.927464
0.994937 1.00481 0.98563
0.994835 0.994818 0.82206
0.99468 0.994776 0.80935
0.996397 0.994853 0.885349
0.994775 0.998 0.939176
0.994802 0.999988 0.95999
0.994962 1.00527 0.998753
0.995615 1.00421 0.997661
0.996842 1.00021 0.998898
0.995296 1.00501 0.997712
0.997686 1.00051 0.998304
1.00198 0.999644 0.993027
1.00361 1.00093 0.991063
1.00314 1.00496 0.985002
1.00379 1.00389 0.98351
1.00391 1.00418 0.984016
1.00443 1.00479 0.982133
1.00439 1.00418 0.982831
1.00519 0.999926 0.985421
1.00512 1.001 0.98494
1.00504 1.00183 0.983982
1.00509 1.00165 0.984513
1.00505 1.00176 0.984221
1.00451 1.00323 0.983492
1.00511 1.00111 0.985476
1.005 1.0017 0.984724
1.00512 1.00207 0.984099
1.00244 1.00366 0.987391
1.00336 1.00107 0.988018
1.00433 1.00016 0.987265
1.00053 1.00487 0.988695
1.00115 1.00494 0.988055
1.00163 1.0037 0.988722
1.00013 1.00065 0.99387
1.00049 1.00436 0.989716
1.00093 1.0051 0.988661
1.00039 1.00357 0.990688
1.00007 1.00015 0.994533
1.00004 0.997679 0.998835
1.00017 0.999565 0.995003
1.00009 0.997429 0.998896
1.00013 0.997281 0.998926
1.00007 1.0051 0.989851
1.00071 1.00408 0.989874
1.00051 1.00204 0.992005
1.00062 1.00313 0.990745
1.00027 0.998873 0.995505
1.00038 1.00161 0.992619
1.00066 1.00266 0.991124
1.00013 0.996903 0.999077
1.00023 0.998517 0.995926
1.00028 1.00131 0.993057
1.0001 0.996737 0.999187
1.00018 0.998209 0.996314
1.00007 0.996675 0.999248
0.994798 0.994833 0.820906
0.994818 0.994832 0.826544
0.994811 0.994833 0.827463
1.00038 1.0047 0.98966
1.00052 1.00363 0.990084
1.00017 1.00296 0.990066
0.999691 1.0045 0.990064
1.00144 1.00343 0.990449
1.00075 1.00351 0.990282
1.00046 1.00233 0.991663
1.00038 1.00301 0.991335
1.00037 1.00198 0.992536
0.998939 1.00396 0.992911
0.994752 0.994775 0.817396
0.994816 0.994801 0.814965
0.994878 0.994837 0.823346
0.995046 0.994836 0.82371
0.99588 0.996788 0.867632
0.994979 0.9951 0.955047
0.994854 0.997435 0.940258
0.995385 0.996565 0.956526
0.994893 0.99614 0.941333
0.994976 0.999004 0.87246
0.994751 0.994801 0.806601
0.994836 0.998876 0.959873
0.994836 1.00073 0.941153
0.99477 0.997757 0.887809
0.994707 0.99484 0.825376
0.998364 1.00194 0.996082
0.997522 1.0046 0.994094
0.999524 1.00353 0.992342
0.996234 1.00228 0.977867
0.994944 1.00515 0.996089
0.996997 1.00476 0.994747
0.994983 1.00465 0.998452
0.996037 1.00384 0.997718
0.99514 1.00237 0.999743
0.994858 1.00258 0.979759
0.995893 1.00115 1.00012
0.995676 1.00029 0.986281
0.994816 0.994819 0.830351
0.994791 0.994826 0.826154
0.994831 0.994831 0.831944
0.994898 1.00393 0.992011
0.994844 0.999543 0.964491
0.994823 0.994844 0.827769
0.994853 0.999238 0.939197
0.994744 0.998753 0.886294
0.994742 0.994762 0.81572
0.994732 0.994829 0.805777
0.995321 1.00468 0.986381
0.994816 0.994824 0.822228
0.994703 0.994777 0.808527
0.995039 0.999277 0.961032
0.996035 0.995765 0.883075
0.994877 0.997714 0.933992
0.995155 1.00303 0.983363
0.994687 0.994783 0.81195
0.998117 0.994827 0.886514
0.996204 0.996541 0.930708
0.994842 0.996491 0.962333
0.995532 1.005 0.997739
0.99638 1.00125 0.99884
0.998997 1.00215 0.995515
0.995987 1.0025 0.998618
1.00087 0.999999 0.9938
1.0037 0.999247 0.989657
1.00395 1.00501 0.984237
1.0037 1.00405 0.9834
1.0043 1.00094 0.985457
1.00471 1.00463 0.982064
1.00448 1.00372 0.98292
1.00497 1 0.985891
1.00527 0.997353 0.987739
1.00524 0.999425 0.985795
1.0052 0.999829 0.985502
1.00518 1.00084 0.985164
1.00512 1.00104 0.98485
1.00505 1.00198 0.983945
1.00517 1.002 0.98439
1.00501 1.00157 0.98454
1.00504 1.00165 0.984226
1.00436 1.00159 0.986249
1.0046 1.00152 0.985599
1.00492 1.00197 0.984574
1.00103 1.00503 0.98742
1.00229 1.0036 0.98739
1.00322 1.00129 0.988374
1.00008 1.00163 0.993973
1.0008 1.00487 0.988705
1.00148 1.00472 0.988114
1.00008 0.998216 0.996708
1.00013 1.00086 0.994228
1.00062 1.00425 0.989722
1.0001 1.00023 0.994498
1.00006 0.99776 0.998784
1.0001 0.997443 0.99888
1.00053 1.00504 0.98915
1.00084 1.00495 0.989023
0.99973 1.00512 0.98974
1.00051 1.00296 0.991123
1.00053 1.00428 0.989848
1.00023 0.999264 0.99517
1.00048 1.00206 0.992018
1.00071 1.00307 0.990728
1.00012 0.99716 0.998984
1.00027 0.998853 0.995522
1.00037 1.00165 0.99261
1.00012 0.996896 0.999107
1.00022 0.998483 0.995948
1.0001 0.996737 0.999204
0.994787 0.994821 0.831698
0.994807 0.994835 0.820962
0.994805 0.994846 0.826945
1.00163 1.00163 0.989687
0.999978 1.00506 0.989633
1.00033 1.00347 0.990282
1.00036 1.00489 0.989779
1.00108 1.00253 0.990144
1.00061 1.00324 0.991559
1.00298 1.00236 0.987648
0.998261 1.00497 0.991721
1.00037 1.00297 0.991359
1.0001 1.00179 0.992536
0.998654 1.00388 0.992824
0.998131 1.00478 0.993481
0.994718 0.994807 0.816901
0.994775 0.99478 0.81688
0.994814 0.9948 0.815678
0.99478 0.994813 0.820277
0.994901 0.998856 0.871269
0.995232 0.998581 0.929737
0.994854 0.995977 0.956694
0.994867 0.999306 0.959089
0.994715 0.994841 0.815752
0.994867 0.996509 0.933431
0.994756 0.998079 0.871218
0.994919 0.996547 0.964732
0.99486 0.999283 0.942291
0.996011 0.99485 0.884912
0.999684 0.99554 0.999721
0.998293 1.00179 0.996003
0.997463 1.00443 0.994375
0.994876 1.00174 0.979514
0.995028 1.00175 0.999984
0.996689 1.00389 0.997672
0.996968 1.00061 1.00031
0.995216 0.999117 0.986451
0.996465 0.998461 0.991884
0.994715 0.994843 0.825441
0.994814 0.994811 0.831748
0.9948 0.994826 0.825453
0.994964 1.00442 0.986636
0.994859 0.999969 0.960719
0.9948 0.994831 0.82258
0.994839 0.999154 0.929442
0.996191 0.994859 0.867604
0.994742 0.994791 0.820548
0.994769 1.00474 0.983317
0.994698 0.994817 0.824283
0.998203 0.994787 0.867885
0.994859 0.99584 0.958091
0.996244 0.997845 0.941798
0.994878 1.00264 0.989445
0.999804 0.99484 0.860318
0.99849 0.994876 0.94377
0.994838 0.994842 0.957185
0.995877 1.00219 0.998837
0.998326 1.00134 0.995279
1.00137 1.00298 0.991288
0.999787 0.999974 0.994577
1.00294 0.999844 0.989466
1.00434 0.999403 0.987905
1.00375 1.00418 0.983288
1.0043 1.00112 0.985373
1.00505 0.996879 0.988167
1.00448 1.00317 0.983011
1.00483 0.999873 0.98589
1.00529 0.996052 0.989029
1.00526 0.995777 0.989725
1.00527 0.997534 0.987686
1.00528 0.997293 0.987862
1.00526 0.999243 0.986012
1.00523 0.999394 0.985982
1.0052 0.999773 0.985583
1.00526 1.0012 0.984542
1.00518 1.00076 0.985118
1.00512 1.00106 0.984759
1.00515 1.00131 0.984955
1.00503 1.00194 0.984426
1.00491 1.00147 0.984567
1.00256 1.00375 0.986608
1.00406 1.00196 0.986161
1.00399 1.00191 0.985723
1.00017 1.00247 0.991941
1.00155 1.00493 0.987442
1.00222 1.00373 0.987383
0.999821 0.99907 0.998436
1.00014 1.0017 0.992891
1.00104 1.0048 0.988714
1.00006 0.998168 0.998602
1.00012 1.0009 0.993737
1.00007 0.997807 0.998726
1.00271 1.00335 0.987996
1.00059 1.00499 0.988983
1.001 1.00508 0.988571
1.00058 1.00385 0.990121
1.00059 1.005 0.988995
0.99994 1.00514 0.989631
1.00015 0.999847 0.994759
1.00049 1.00292 0.991146
1.00032 1.00434 0.989819
1.0001 0.997382 0.998911
1.00024 0.999209 0.995186
1.00046 1.00205 0.992029
1.00012 0.997117 0.999012
1.00026 0.998836 0.995537
1.00012 0.996852 0.999135
0.994719 0.994806 0.809971
0.994806 0.994823 0.831995
0.994814 0.994837 0.82104
1.00149 1.00242 0.989625
1.00469 1.00156 0.986957
1.00199 1.00327 0.988722
1.00033 1.00477 0.989491
1.00224 1.00222 0.990219
0.999319 1.00252 0.99264
0.999123 1.0047 0.991295
1.00203 1.00291 0.988496
1.0022 1.00263 0.989052
0.999229 0.999886 0.995804
0.999385 1.00381 0.992727
0.998447 1.00476 0.99341
0.998854 0.994812 0.861288
0.994687 0.994796 0.810444
0.994782 0.994784 0.81696
0.99473 0.994823 0.80559
0.994798 0.997373 0.889293
0.994845 0.998386 0.92893
0.994948 0.997011 0.957673
0.994868 0.996894 0.962586
0.996278 0.997259 0.882838
0.994849 0.997331 0.930434
0.994865 0.997443 0.965694
0.996046 0.994836 0.930757
1.00018 0.995638 1.00094
0.999432 0.99686 0.999711
0.998071 1.00169 0.995962
0.994963 0.998794 0.986766
0.99767 0.999919 1.00051
0.996925 0.998637 0.99158
0.996767 0.996121 0.990439
0.999791 0.994925 0.874349
0.994706 0.994828 0.822973
0.994821 0.994812 0.832985
0.994779 1.00495 0.983641
0.994855 0.9949 0.956483
0.994693 0.994831 0.824041
0.995939 0.994784 0.931045
0.998875 0.994826 0.88659
0.994881 1.00068 0.986221
0.999777 0.994856 0.872265
0.998782 0.995409 0.930384
0.994855 0.994803 0.959079
0.996846 0.998197 0.987656
0.999944 0.994887 0.943321
0.995255 0.994812 0.964008
0.997855 1.00043 0.995019
1.00037 1.00126 0.991346
1.00369 0.999682 0.990577
1.00223 1.00082 0.989292
1.00411 0.999299 0.987882
1.00516 0.996294 0.989109
1.0043 1.00134 0.985294
1.00495 0.99737 0.98811
1.00527 0.995062 0.989949
1.00474 0.999729 0.985886
1.00529 0.996107 0.988975
1.00525 0.995035 0.990393
1.00526 0.995184 0.990438
1.00526 0.995723 0.989876
1.00523 0.996186 0.989605
1.00527 0.997885 0.987666
1.00526 0.99759 0.987816
1.0053 0.997223 0.987986
1.00529 0.999992 0.985656
1.00526 0.99929 0.985973
1.00522 0.999338 0.986169
1.00528 1.00154 0.984406
1.00527 1.00122 0.984576
1.00519 1.0007 0.985072
1.00349 1.00273 0.986148
1.00506 1.00141 0.984945
1.00484 1.00189 0.984464
1.00066 1.00294 0.990719
1.00261 1.0038 0.98659
1.0039 1.00207 0.986078
1.00003 0.999318 0.998163
1.00034 1.00232 0.991909
1.00196 1.00478 0.987463
0.999978 0.998983 0.997339
1.00023 1.00162 0.992895
1.00007 0.998436 0.998492
1.00412 1.00083 0.987745
1.00189 1.00332 0.988159
1.0009 1.00505 0.988184
1.00056 1.00497 0.988808
1.00068 1.00509 0.988611
1.00078 1.00458 0.989222
1.00012 1.0006 0.994095
1.00048 1.004 0.990111
1.0002 1.00507 0.98897
1.00007 0.997699 0.998794
1.00014 0.999769 0.994786
1.00045 1.00294 0.99117
1.00009 0.997364 0.998932
1.00025 0.999171 0.995207
1.00012 0.997089 0.999039
0.999787 0.99483 0.872069
0.994705 0.994815 0.815608
0.994816 0.994822 0.832305
1.00123 1.00259 0.989566
1.00192 1.00357 0.987924
1.00411 1.00215 0.987001
1.00507 1.00352 0.983181
1.00184 1.00297 0.988473
0.999556 1.00489 0.990906
1.00146 1.00332 0.989337
1.00129 1.00282 0.989662
1.00438 0.997241 0.988846
1.00201 0.999297 0.99279
1.00273 0.996053 0.993955
1.00019 0.999203 0.995631
0.999372 1.00352 0.993347
0.997979 0.994867 0.940941
0.998983 0.994782 0.865946
0.994662 0.994792 0.81573
0.996363 0.994883 0.869086
0.994855 0.999119 0.939602
0.994862 0.995651 0.963956
0.994869 0.996965 0.967384
0.996695 0.998534 0.942756
0.995737 0.99482 0.966853
0.999533 0.996245 0.999579
0.999521 0.99601 1.00099
0.999145 0.998213 0.999665
0.997432 0.998179 0.991396
0.997572 0.996809 0.990638
0.999984 0.994896 0.931234
0.999793 0.994892 0.879944
0.994691 0.994811 0.820621
0.994888 0.999555 0.98271
0.99509 0.994798 0.957427
0.9998 0.994824 0.871527
0.998194 0.994844 0.94278
0.996579 0.9981 0.987895
1.00045 0.99489 0.939427
0.996182 0.994843 0.961772
1.00047 0.994877 0.987746
0.998276 0.994868 0.971799
0.999252 0.999457 0.99146
1.00299 0.998052 0.990617
1.005 0.995252 0.991408
1.00392 0.99902 0.98785
1.0051 0.996176 0.988997
1.00527 0.994878 0.990327
1.00477 0.997835 0.988053
1.00527 0.995125 0.989897
1.00525 0.994875 0.990475
1.00528 0.996154 0.988921
1.00524 0.995071 0.990361
1.00526 0.994905 0.9906
1.00525 0.995134 0.990495
1.00523 0.99541 0.990425
1.00526 0.995668 0.990028
1.00523 0.996165 0.989605
1.00523 0.996739 0.989002
1.00528 0.99886 0.986903
1.00527 0.997944 0.987646
1.00526 0.997646 0.987946
1.00532 1.00118 0.984579
1.0053 1.00007 0.985522
1.00526 0.999338 0.985934
1.00418 1.00197 0.985708
1.00519 1.00158 0.984449
1.00528 1.00124 0.98461
1.00118 1.00305 0.989695
1.00332 1.00297 0.986148
1.00479 1.00168 0.984936
1.00016 1.00005 0.997758
1.00077 1.00277 0.990712
1.00279 1.00388 0.986573
1.00011 0.999469 0.998022
1.0005 1.00226 0.991875
1.0001 0.998909 0.998246
1.00511 1.00261 0.984156
1.00374 1.00092 0.987629
1.00222 1.00339 0.987435
1.00126 1.00341 0.98834
1.00099 1.005 0.988001
1.001 1.00504 0.988354
1.00052 1.0051 0.988648
1.00054 1.00474 0.989184
1.00017 1.00143 0.993191
1.00005 0.998148 0.998585
1.00008 1.00054 0.99412
1.00035 1.0041 0.990101
1.00005 0.997647 0.998837
1.00015 0.999679 0.994802
1.00009 0.997332 0.998953
0.999969 0.99488 0.944293
0.999814 0.994857 0.871609
0.994684 0.994805 0.809872
1.00164 1.00462 0.987121
1.00333 1.00267 0.987048
1.00297 1.00282 0.987896
1.00463 1.00329 0.983717
1.00522 1.001 0.984623
1.00356 1.00033 0.986931
1.00048 1.00316 0.990243
1.00448 0.997206 0.988718
1.00211 0.998889 0.992863
1.00398 0.995853 0.990357
1.00398 0.996964 0.991907
1.00262 0.996757 0.993296
1.00232 0.996271 0.993936
0.99968 0.999763 0.99546
0.995848 0.994848 0.965053
0.99891 0.996057 0.936587
0.997869 0.99484 0.882633
0.99607 0.99672 0.930405
0.994949 0.996932 0.967861
0.995491 0.995729 0.972673
0.999255 0.994856 0.99264
1.00026 0.995665 0.999087
0.998895 0.996152 1.00106
0.998749 0.998693 0.990878
0.997337 0.995545 0.966301
1.00009 0.994875 0.944839
0.9998 0.9949 0.863087
0.996124 0.998125 0.988218
0.996644 0.994853 0.962347
0.999854 0.994868 0.935176
0.999952 0.995445 0.98807
0.998514 0.994876 0.971011
1.00288 0.99508 0.990159
1.00331 0.996816 0.984906
1.00203 0.996636 0.990643
1.00451 0.995195 0.991426
1.00522 0.994797 0.99088
1.00502 0.996165 0.988886
1.00527 0.994876 0.990278
1.00528 0.994914 0.990473
1.00527 0.995206 0.989842
1.00525 0.994885 0.990455
1.00529 0.994914 0.990516
1.00524 0.995108 0.990327
1.00525 0.994911 0.990597
1.00526 0.994932 0.990647
1.00526 0.995087 0.99055
1.00523 0.995341 0.99045
1.00523 0.995951 0.989966
1.00523 0.996151 0.989604
1.00523 0.996774 0.988993
1.00527 0.998032 0.987843
1.00532 1.00035 0.985455
1.00529 0.999032 0.986676
1.00527 0.998007 0.987626
1.00496 1.00093 0.985455
1.00532 1.00118 0.984623
1.0053 1.00016 0.985387
1.00173 1.00271 0.988992
1.00402 1.00226 0.985714
1.00508 1.00163 0.984491
1.00053 1.00062 0.997292
1.00124 1.00292 0.989688
1.00316 1.00323 0.986148
1.00035 1.00022 0.997569
1.00082 1.00264 0.990714
1.00025 0.999655 0.99785
1.00509 1.00165 0.98453
1.0051 1.00224 0.984348
1.00429 1.00203 0.985441
1.00347 1.00156 0.987512
1.00221 1.00347 0.987238
1.00203 1.00449 0.987279
1.00097 1.00489 0.987821
1.00086 1.00508 0.98836
1.00034 1.00224 0.992182
1.00039 1.00495 0.989149
1.00007 1.00152 0.993215
1.00003 0.998863 0.998294
1.00002 0.998114 0.998663
1.00003 1.00054 0.994149
1.00004 0.997596 0.998873
0.99684 0.994877 0.96677
0.999941 0.994873 0.930714
0.999814 0.994875 0.883626
1.00526 0.998886 0.986437
1.00421 1.00269 0.987334
1.00419 1.00303 0.984253
1.00433 1.00013 0.987247
1.00519 1.00122 0.984584
1.00492 0.997811 0.988196
1.00482 0.998554 0.988595
1.00192 0.998111 0.992945
1.00458 0.996541 0.990266
1.00384 0.997168 0.990913
1.00476 0.996272 0.989636
1.00327 0.994911 0.994325
1.00262 0.996405 0.993383
1.00222 0.996488 0.993907
0.998752 0.99484 0.991095
0.995815 0.994858 0.96345
0.99863 0.994843 0.931529
0.995153 0.996263 0.971771
0.998876 0.994854 0.995343
1.00037 0.995222 0.998541
1.00205 0.99527 0.98186
0.997389 0.995077 0.966357
0.999992 0.99489 0.931311
0.999153 0.995479 0.988408
0.998851 0.994884 0.970297
1.00201 0.994888 0.990666
1.00316 0.996017 0.985778
1.00392 0.995051 0.991118
1.00483 0.996823 0.990949
1.00408 0.995065 0.991432
1.00516 0.99483 0.990776
1.00534 0.994869 0.990398
1.00526 0.994875 0.99023
1.00527 0.994904 0.990473
1.00533 0.9949 0.990446
1.00525 0.994894 0.990435
1.00528 0.994908 0.990527
1.00527 0.994907 0.990673
1.00524 0.994918 0.990593
1.00526 0.994931 0.990635
1.00525 0.995145 0.990596
1.00523 0.995272 0.990475
1.00523 0.995823 0.99008
1.00527 0.997148 0.98881
1.00523 0.996804 0.988984
1.00527 0.997958 0.987918
1.0053 0.999921 0.986025
1.00523 1.0006 0.9854
1.00532 1.00049 0.985304
1.00529 0.999198 0.986448
1.00258 1.00153 0.98886
1.00487 1.00106 0.985457
1.00531 1.00117 0.984667
1.00086 1.00084 0.996946
1.00198 1.00243 0.988981
1.00388 1.00246 0.985723
1.00065 1.00068 0.997152
1.00139 1.00281 0.989683
1.00049 1.00036 0.9974
1.00528 1.00029 0.98533
1.0052 1.00167 0.984425
1.00511 1.00128 0.984947
1.00519 1.00183 0.98454
1.00449 1.00189 0.985413
1.00306 1.00364 0.986461
1.00235 1.0032 0.987041
1.00182 1.00462 0.98729
1.00062 1.00267 0.991131
1.00072 1.00509 0.988359
1.00018 1.00225 0.992206
1.00003 0.999602 0.997961
0.999963 1.00147 0.993239
0.99999 0.998733 0.998405
0.999987 0.998004 0.998734
1.00041 0.995003 0.986845
0.996663 0.994889 0.96318
0.999983 0.994873 0.944079
1.0052 0.997345 0.988211
1.00528 0.996926 0.988538
1.00527 0.998645 0.986694
1.00505 0.999479 0.987556
1.00516 1.0015 0.984548
1.00496 0.997689 0.988463
1.00519 0.995583 0.989406
1.00496 0.996431 0.990181
1.00366 0.99778 0.989926
1.00454 0.996793 0.990059
1.00508 0.995024 0.990795
1.00369 0.994952 0.99306
1.00292 0.995022 0.994004
1.00287 0.995934 0.993485
0.999444 0.994849 0.991167
0.99578 0.994853 0.962037
0.998831 0.994852 0.998171
1.00469 0.994914 0.990683
1.00194 0.995838 0.981982
0.997528 0.994857 0.96483
1.00172 0.994788 0.99113
1.00302 0.995114 0.986671
1.00394 0.994981 0.991788
1.00486 0.995933 0.991059
1.00532 0.994792 0.990957
1.00542 0.994863 0.991198
1.00513 0.994846 0.990675
1.00536 0.99487 0.990371
1.00536 0.994872 0.990493
1.00525 0.994894 0.990473
1.00532 0.9949 0.990471
1.00529 0.994903 0.990651
1.00527 0.994903 0.990539
1.00528 0.994906 0.990668
1.00525 0.99493 0.990858
1.00526 0.99493 0.990624
1.00525 0.99516 0.990571
1.00528 0.99636 0.98951
1.00523 0.995692 0.990193
1.00527 0.997083 0.988853
1.00533 0.999363 0.986533
1.00527 0.997889 0.987993
1.0053 0.999832 0.986135
1.00523 1.00054 0.985467
1.00291 1.00063 0.989143
1.00517 1.00066 0.985408
1.00532 1.00064 0.985152
1.00113 1.00084 0.996737
1.0026 1.00146 0.98885
1.00473 1.00128 0.985462
1.00096 1.00091 0.996838
1.00213 1.00221 0.988969
1.00078 1.00083 0.99701
1.00528 0.998506 0.987063
1.00526 1.00015 0.985526
1.00528 1.00087 0.985047
1.00521 1.00164 0.984321
1.00517 1.00122 0.984942
1.0036 1.00249 0.986375
1.00468 1.00179 0.985391
1.00293 1.00337 0.986457
1.00096 1.003 0.990105
1.00147 1.0047 0.987304
1.00052 1.00279 0.991167
1.00013 1.00043 0.997605
1.00009 1.00235 0.992228
0.999988 0.999457 0.998088
0.999937 0.998627 0.998504
1.00434 0.995013 0.992041
1.00058 0.994977 0.984636
0.996544 0.99491 0.962697
1.00524 0.996249 0.989402
1.00517 0.996914 0.988508
1.00526 0.995797 0.989783
1.00528 0.996966 0.988506
1.00527 0.998365 0.986947
1.00531 0.994903 0.990095
1.00507 0.997753 0.988719
1.00521 0.995875 0.989418
1.00528 0.994823 0.990552
1.00443 0.997197 0.99048
1.00507 0.99515 0.99048
1.00338 0.99501 0.993326
1.00231 0.995504 0.993689
0.999892 0.994862 0.991043
1.00538 0.994895 0.990865
1.00469 0.995672 0.990859
1.00175 0.996235 0.982172
1.00383 0.994809 0.992443
1.00484 0.995149 0.991178
1.00531 0.994786 0.991009
1.00543 0.994885 0.991112
1.00539 0.994856 0.990934
1.00538 0.994878 0.990347
1.00536 0.994874 0.990506
1.00529 0.994897 0.990798
1.00532 0.994901 0.990496
1.00529 0.994905 0.990649
1.00522 0.994903 0.99099
1.00528 0.994906 0.990663
1.00526 0.994928 0.990832
1.00528 0.995669 0.990267
1.00525 0.995175 0.990547
1.00529 0.996394 0.989501
1.00536 0.998797 0.987127
1.00527 0.997017 0.988897
1.00532 0.999375 0.986558
1.00523 1.00043 0.985598
1.0053 0.999739 0.986245
1.00523 1.00053 0.985483
1.00293 1.00029 0.991131
1.00151 1.00024 0.993381
1.00295 1.00063 0.989968
1.00512 1.00072 0.985413
1.00116 1.00083 0.996728
1.00274 1.00124 0.988833
1.00103 1.00097 0.996753
1.00524 0.995717 0.990142
1.00526 0.997253 0.98853
1.00527 0.998487 0.987259
1.0053 1.00028 0.985564
1.00526 1.00002 0.985722
1.0053 1.00091 0.984979
1.00429 1.0013 0.986207
1.00521 1.00118 0.984934
1.00375 1.00204 0.986366
1.00161 1.00277 0.9893
1.00294 1.0031 0.986449
1.00093 1.00312 0.990095
1.0004 1.00103 0.997181
1.00039 1.00284 0.991202
1.00003 1.00017 0.997747
0.999933 0.999323 0.998209
1.00538 0.994832 0.990807
1.00436 0.994918 0.991769
1.00105 0.994893 0.982492
1.0053 0.995191 0.990216
1.0052 0.996225 0.989277
1.0052 0.996508 0.988808
1.00526 0.995966 0.98974
1.00528 0.997009 0.988473
1.00536 0.994825 0.990533
1.00532 0.9949 0.990114
1.00523 0.996132 0.989429
1.00524 0.994821 0.990594
1.00506 0.995177 0.990164
1.00321 0.994789 0.993591
1.00534 0.994909 0.990999
1.00541 0.994887 0.991022
1.00473 0.996305 0.991032
1.00531 0.994781 0.991041
1.00544 0.994908 0.99103
1.00539 0.994863 0.990897
1.00528 0.994924 0.991082
1.00536 0.99488 0.990518
1.00529 0.994902 0.990765
1.0052 0.994937 0.991097
1.00529 0.994908 0.990646
1.00523 0.994903 0.990976
1.00528 0.995179 0.990843
1.00527 0.994927 0.990805
1.00528 0.995692 0.990254
1.00537 0.998261 0.987699
1.00529 0.996428 0.989492
1.00535 0.998799 0.987149
1.00521 1.00033 0.985745
1.00531 0.999386 0.986583
1.00525 1.00041 0.985618
1.00301 1.00008 0.991225
1.00524 1.00052 0.985497
1.00314 1.00018 0.990999
1.00155 0.999941 0.993589
1.00122 1.00053 0.995158
1.00315 1.00059 0.990622
1.00116 1.00086 0.996737
1.00526 0.995088 0.990755
1.00525 0.996913 0.988909
1.00523 0.995585 0.990298
1.00532 0.999474 0.986374
1.00526 0.997318 0.98852
1.00527 0.998462 0.987455
1.0053 1.00031 0.985503
1.00498 1.00046 0.985842
1.0053 1.00096 0.984911
1.00444 1.00102 0.9862
1.00231 1.00187 0.988967
1.00385 1.00166 0.986363
1.00143 1.00294 0.98929
1.00068 1.00134 0.996853
1.00079 1.00327 0.990102
1.00024 1.00088 0.997351
0.999984 1 0.997878
1.00532 0.994897 0.99076
1.00534 0.994832 0.990838
1.00425 0.994911 0.991496
1.0053 0.994852 0.990692
1.00529 0.995248 0.990188
1.00512 0.99621 0.989158
1.00525 0.996137 0.989696
1.00535 0.99483 0.990538
1.00533 0.994902 0.990133
1.0052 0.99482 0.990636
1.00529 0.994951 0.991085
1.00533 0.994909 0.990979
1.00542 0.994883 0.991175
1.00526 0.994945 0.991189
1.00539 0.994864 0.99086
1.00528 0.994924 0.991068
1.00521 0.99495 0.991181
1.00529 0.994905 0.990732
1.0052 0.994937 0.991101
1.00528 0.994971 0.991137
1.00524 0.994903 0.990963
1.00526 0.995193 0.990831
1.00537 0.997788 0.988219
1.00527 0.995717 0.99024
1.00537 0.998265 0.987716
1.00518 1.00019 0.985963
1.00535 0.998802 0.987172
1.00524 1.0003 0.985767
1.00302 1.00009 0.991184
1.00526 1.00038 0.985638
1.00318 1.00001 0.991066
1.00162 0.999846 0.99359
1.00333 1.00007 0.990876
1.00111 1.00011 0.993889
1.0006 1.00086 0.997276
1.00525 0.994911 0.990873
1.00527 0.996049 0.989832
1.00526 0.995139 0.990686
1.00532 0.999103 0.986821
1.00525 0.996602 0.98916
1.00522 0.995455 0.990453
1.00523 1.00015 0.985838
1.00531 0.999474 0.986335
1.00525 0.997379 0.98851
1.00531 1.00032 0.985443
1.00506 1.00039 0.985834
1.00273 1.00096 0.98911
1.00465 1.00072 0.986195
1.00215 1.00206 0.988995
1.00087 1.00133 0.996748
1.00139 1.00308 0.989268
1.00058 1.00123 0.996971
1.00008 1.00067 0.997513
1.00528 0.994914 0.990964
1.00532 0.994898 0.990721
1.00531 0.994832 0.990871
1.0053 0.994856 0.990723
1.00527 0.995305 0.990161
1.00535 0.994836 0.990544
1.00526 0.994956 0.991129
1.00529 0.994945 0.991096
1.00532 0.994911 0.99096
1.00526 0.994948 0.991179
1.00518 0.994943 0.99137
1.00528 0.994924 0.991055
1.0052 0.99495 0.991217
1.00527 0.994939 0.991181
1.0052 0.994937 0.991106
1.00526 0.994968 0.991126
1.00537 0.997388 0.988672
1.00524 0.995198 0.99082
1.00538 0.997788 0.988221
1.00512 0.999985 0.986302
1.00537 0.99827 0.987733
1.00521 1.00017 0.985979
1.00294 1.0002 0.991159
1.00526 1.00027 0.98579
1.00317 1.00005 0.991015
1.00164 0.999901 0.993498
1.00335 0.999954 0.990917
1.00123 0.99989 0.993915
1.0007 1.0003 0.994173
1.00523 0.994915 0.99106
1.00525 0.995437 0.990534
1.00525 0.994903 0.990868
1.00534 0.998186 0.98775
1.00527 0.996132 0.989748
1.00526 0.995188 0.990616
1.00528 0.999976 0.985988
1.00533 0.998741 0.987117
1.00526 0.996292 0.989412
1.00292 1.00028 0.98947
1.00524 1.00013 0.985826
1.0053 0.999483 0.986295
1.0051 1.00035 0.985828
1.00268 1.00104 0.98913
1.00101 1.00104 0.996805
1.002 1.00226 0.989022
1.00083 1.00126 0.996777
1.00045 1.00115 0.997105
1.00525 0.994947 0.991101
1.00528 0.994919 0.990939
1.00532 0.994898 0.990682
1.00531 0.994859 0.990754
1.00518 0.99495 0.99137
1.00526 0.994951 0.991137
1.00529 0.994939 0.991107
1.00525 0.994952 0.991169
1.00519 0.994942 0.991355
1.00526 0.995239 0.990924
1.0052 0.994949 0.991253
1.00528 0.995111 0.991024
1.00536 0.996788 0.989335
1.00525 0.994973 0.991114
1.00538 0.997386 0.988664
1.00504 0.999757 0.986692
1.0054 0.997802 0.988223
1.00514 0.999961 0.986308
1.00291 1.00026 0.989605
1.00524 1.00014 0.985994
1.0031 1.00016 0.990192
1.00142 0.99997 0.996809
1.00334 1.00001 0.990846
1.0013 0.999879 0.993831
1.00087 0.999929 0.994224
1.0052 0.994951 0.991161
1.00524 0.995293 0.990814
1.00523 0.994923 0.991069
1.00535 0.997563 0.988435
1.00526 0.995597 0.990311
1.00525 0.994895 0.990862
1.00525 0.999591 0.986418
1.00533 0.998189 0.987769
1.00527 0.996212 0.989664
1.00301 0.999874 0.989706
1.00526 0.999816 0.986109
1.00532 0.998376 0.987414
1.00115 1.00057 0.996905
1.00292 1.00025 0.989472
1.00525 1.0001 0.985808
1.00259 1.00111 0.989151
1.00101 1.00101 0.996772
1.00077 1.00122 0.996826
1.00516 0.99496 0.991294
1.00525 0.99495 0.991102
1.00529 0.994924 0.990913
1.00524 0.995266 0.990994
1.00518 0.994949 0.99134
1.00526 0.994945 0.991146
1.00519 0.994942 0.991341
1.00526 0.99528 0.990923
1.00535 0.996977 0.989166
1.00528 0.995298 0.990866
1.00536 0.997143 0.988966
1.00495 0.99921 0.98741
1.0054 0.997369 0.988656
1.00504 0.999744 0.986696
1.00281 1.00016 0.989868
1.00517 0.999942 0.986315
1.00292 1.00024 0.989617
1.00134 1.00002 0.996817
1.00313 1.00015 0.989367
1.00127 0.999979 0.995353
1.00096 0.999839 0.994163
1.00513 0.994955 0.991356
1.00522 0.995185 0.991065
1.00519 0.994952 0.991178
1.00536 0.997737 0.988252
1.00525 0.995223 0.990837
1.00522 0.99493 0.991078
1.00523 0.999487 0.986581
1.00534 0.997918 0.988062
1.00526 0.995758 0.990087
1.00308 0.999789 0.989709
1.00524 0.999561 0.986429
1.00532 0.998187 0.987788
1.00131 1.00017 0.996926
1.00305 0.999828 0.989707
1.00526 0.999653 0.98623
1.00118 1.00059 0.996866
1.00295 1.00022 0.989478
1.00098 1.00102 0.996764
1.00521 0.995317 0.990911
1.00516 0.994957 0.991323
1.00525 0.994954 0.991102
1.00535 0.99696 0.989193
1.00524 0.995306 0.990966
1.00519 0.994949 0.99131
1.00526 0.995319 0.990922
1.00535 0.997006 0.989172
1.00489 0.999036 0.987683
1.00537 0.997487 0.988598
1.00496 0.999375 0.987201
1.00274 1.00003 0.990118
1.00505 0.999729 0.986701
1.00279 1.00018 0.98988
1.00123 1.00003 0.996856
1.00291 1.00022 0.989628
1.0013 1.00003 0.996826
1.00136 0.99994 0.993612
1.0052 0.995458 0.99084
1.00513 0.994957 0.991307
1.00536 0.997507 0.988525
1.00524 0.99511 0.991072
1.00517 0.994953 0.991194
1.00514 0.999779 0.986473
1.00535 0.997748 0.988253
1.00526 0.995154 0.99086
1.00306 0.999885 0.989678
1.0052 0.999677 0.986414
1.00533 0.998281 0.98769
1.00143 0.999959 0.996871
1.0031 0.999777 0.98971
1.00523 0.999531 0.986442
1.00131 1.0002 0.996923
1.00309 0.999788 0.989707
1.00119 1.0006 0.99682
1.00536 0.997053 0.989062
1.00521 0.995354 0.990941
1.00517 0.994956 0.991352
1.00488 0.998982 0.98774
1.00535 0.996993 0.989193
1.00523 0.995345 0.990939
1.00534 0.997039 0.989179
1.00491 0.999018 0.987652
1.00264 0.999968 0.990362
1.00497 0.999537 0.986991
1.00272 1.00005 0.990128
1.00117 1.00002 0.996907
1.00278 1.00019 0.989894
1.00119 1.00006 0.99688
1.00127 1.00004 0.996843
1.00537 0.997327 0.988747
1.00521 0.995222 0.991019
1.00512 0.994956 0.991259
1.00506 0.999646 0.986782
1.00536 0.997517 0.988527
1.00525 0.995036 0.991078
1.00293 1.00002 0.989787
1.00512 0.999804 0.986471
1.00535 0.99776 0.988255
1.00141 0.999923 0.996825
1.00305 0.999916 0.989675
1.00518 0.999857 0.986245
1.00141 0.999992 0.996894
1.00311 0.999778 0.989709
1.00134 1.00021 0.996911
1.00491 0.999364 0.987298
1.00535 0.996902 0.989237
1.00521 0.995383 0.99097
1.00259 0.999885 0.990545
1.00489 0.998956 0.987737
1.00534 0.997023 0.989194
1.00493 0.998995 0.987622
1.00265 0.999941 0.99037
1.00111 1.00002 0.996941
1.0027 1.00006 0.990136
1.00115 1.00003 0.996914
1.00114 1.00008 0.996897
1.00497 0.999486 0.987091
1.00536 0.99711 0.988981
1.00522 0.994975 0.991199
1.00292 1.00003 0.991401
1.00502 0.999661 0.986786
1.00536 0.997527 0.988529
1.0013 0.999965 0.996838
1.00294 1.00004 0.989781
1.00509 0.999829 0.986469
1.00142 0.999946 0.996841
1.00304 0.999955 0.989672
1.00142 1.00001 0.996912
1.0027 0.999882 0.990429
1.00491 0.999188 0.987464
1.00535 0.996754 0.989411
1.00103 0.999981 0.997008
1.00258 0.999882 0.990539
1.0049 0.998933 0.987735
1.00264 0.999915 0.990374
1.00108 1.00001 0.996965
1.00112 1.00005 0.996928
1.00289 0.999952 0.991594
1.00496 0.999491 0.987092
1.00536 0.996903 0.989214
1.00072 1.00001 0.997411
1.0028 1.00003 0.990026
1.005 0.999673 0.986791
1.00134 0.99997 0.996838
1.00294 1.00006 0.989774
1.00144 0.99996 0.996858
1.00102 0.999941 0.994183
1.00272 0.999886 0.991114
1.0049 0.999014 0.987629
1.00105 0.999984 0.997014
1.00259 0.999883 0.990541
1.00109 0.999997 0.996983
1.00055 0.999989 0.994625
1.00279 0.999935 0.990947
1.00494 0.999501 0.987093
1.00094 0.999994 0.995674
1.00279 1.00003 0.990046
1.00137 0.999973 0.996839
1.00105 0.999967 0.997005
1.0026 0.999875 0.990524
1.00102 0.999985 0.997011
1.00082 0.999963 0.995819
1.00269 0.999927 0.990348
1.00124 0.999987 0.996875
1.00107 0.999968 0.997009
1.00111 0.999974 0.996952

TENSORS stress float
0.00221547 -0.000151711 0.000256808
-0.000151711 0.00105526 -4.32301e-05
0.000256808 -4.32301e-05 0.00102921
0.0068753 5.33944e-05 0.000293292
5.33944e-05 0.00398723 3.3244e-05
0.000293292 3.3244e-05 0.00399191
0.00185178 -8.21712e-05 0.000107985
-8.21712e-05 0.000825808 -1.70921e-05
0.000107985 -1.70921e-05 0.000788297
0.00221763 -8.63507e-05 0.000248807
-8.63507e-05 0.00103248 -2.49691e-05
0.000248807 -2.49691e-05 0.00101586
0.00224545 -0.000133373 0.000250934
-0.000133373 0.00106393 -3.80492e-05
0.000250934 -3.80492e-05 0.00104126
0.00218477 -0.000154851 0.000266578
-0.000154851 0.00103699 -4.48017e-05
0.000266578 -4.48017e-05 0.00101113
0.00183724 -0.000139809 5.02201e-05
-0.000139809 0.00072688 -1.36766e-05
5.02201e-05 -1.36766e-05 0.000614676
0.00681232 4.3315e-05 -7.45625e-06
4.3315e-05 0.00393877 -1.40565e-06
-7.45625e-06 -1.40565e-06 0.00394797
0.00652969 0.000209889 0.000146479
0.000209889 0.00375925 1.41678e-05
0.000146479 1.41678e-05 0.00373343
0.00654509 -3.27823e-05 8.13218e-05
-3.27823e-05 0.00375484 4.05845e-06
8.13218e-05 4.05845e-06 0.00373474
0.00192364 0.000195864 0.000270516
0.000195864 0.000878101 3.50055e-05
0.000270516 3.50055e-05 0.000869042
0.000437007 0.00025488 2.63372e-05
0.00025488 -0.000115767 2.01716e-05
2.63372e-05 2.01716e-05 -0.000251714
0.00180929 -3.31405e-05 0.000243791
-3.31405e-05 0.000776338 4.00175e-06
0.000243791 4.00175e-06 0.000777188
0.00147123 2.31571e-06 6.27645e-05
2.31571e-06 0.000585903 1.77019e-06
6.27645e-05 1.77019e-06 0.000539627
0.00157285 -8.12748e-05 -5.67393e-05
-8.12748e-05 0.00066011 1.00504e-05
-5.67393e-05 1.00504e-05 0.000606374
0.00185078 -8.59018e-05 8.17382e-05
-8.59018e-05 0.00082042 -5.03844e-06
8.17382e-05 -5.03844e-06 0.000786072
0.00189684 -7.01966e-05 0.000117392
-7.01966e-05 0.000858935 -1.84243e-05
0.000117392 -1.84243e-05 0.000817617
0.00187038 -9.00625e-05 9.61082e-05
-9.00625e-05 0.000830567 -1.32277e-05
9.61082e-05 -1.32277e-05 0.000796076
0.00191441 -0.000175774 -4.08987e-05
-0.000175774 0.000772735 5.91043e-06
-4.08987e-05 5.91043e-06 0.000669806
0.00614662 -0.000143779 0.000315998
-0.000143779 0.00352966 -1.35252e-05
0.000315998 -1.35252e-05 0.0035473
0.00215153 -6.3423e-05 0.000246183
-6.3423e-05 0.00099155 -1.85717e-05
0.000246183 -1.85717e-05 0.000977994
0.00225592 -0.000110806 0.000249439
-0.000110806 0.00106166 -3.16894e-05
0.000249439 -3.16894e-05 0.00104241
0.00180272 -0.000138461 7.04611e-05
-0.000138461 0.000698526 -1.08042e-05
7.04611e-05 -1.08042e-05 0.000600008
0.00184281 -0.000145433 5.93261e-05
-0.000145433 0.000720928 -1.32441e-05
5.93261e-05 -1.32441e-05 0.000616366
0.00209327 -0.000132362 0.000266234
-0.000132362 0.000972221 -4.16327e-05
0.000266234 -4.16327e-05 0.000949411
0.00189762 -0.000138835 4.29484e-05
-0.000138835 0.000780515 -1.40615e-05
4.29484e-05 -1.40615e-05 0.00065648
0.00206272 -0.0003237 1.81683e-05
-0.0003237 0.000642205 -7.56835e-06
1.81683e-05 -7.56835e-06 0.000429572
0.00676682 2.84769e-05 -0.000290777
2.84769e-05 0.0039002 -2.35826e-05
-0.000290777 -2.35826e-05 0.00391418
0.00424405 0.00015586 -0.0001454
0.00015586 0.00232184 -1.6349e-05
-0.0001454 -1.6349e-05 0.0022994
0.00419968 6.86747e-05 -0.000144479
6.86747e-05 0.00230321 -1.40021e-05
-0.000144479 -1.40021e-05 0.00228179
0.00670982 -2.85041e-05 -3.83288e-06
-2.85041e-05 0.00388568 -4.53941e-07
-3.83288e-06 -4.53941e-07 0.00389074
0.00044421 0.000238303 -1.30151e-06
0.000238303 -0.000109109 -1.12059e-06
-1.30151e-06 -1.12059e-06 -0.000245077
0.00187043 6.9304e-05 0.000253808
6.9304e-05 0.000814472 2.34603e-05
0.000253808 2.34603e-05 0.000801854
0.00198318 0.00015904 0.000259838
0.00015904 0.000917985 3.63171e-05
0.000259838 3.63171e-05 0.000893533
0.00282984 0.000210319 0.000155588
0.000210319 0.00133087 2.24972e-05
0.000155588 2.24972e-05 0.00124832
0.0058843 -0.000299861 1.07285e-05
-0.000299861 0.00343583 5.09363e-06
1.07285e-05 5.09363e-06 0.0033789
0.00297874 0.000288847 0.000161771
0.000288847 0.00146503 2.8009e-05
0.000161771 2.8009e-05 0.0013666
0.000442328 0.000223312 2.66381e-05
0.000223312 -0.0001072 2.68693e-05
2.66381e-05 2.68693e-05 -0.000242252
0.00092572 0.000259913 1.3532e-05
0.000259913 3.67838e-05 6.22207e-06
1.3532e-05 6.22207e-06 -0.000183645
0.00470582 -0.000108034 0.000179144
-0.000108034 0.00268118 1.62146e-05
0.000179144 1.62146e-05 0.00267971
0.00612701 8.24939e-05 3.38728e-06
8.24939e-05 0.00350424 -1.84762e-06
3.38728e-06 -1.84762e-06 0.0035292
0.00400349 9.08912e-05 -0.00012167
9.08912e-05 0.00216907 -5.51871e-06
-0.00012167 -5.51871e-06 0.00215753
0.00597985 5.80814e-05 0.000307037
5.80814e-05 0.00341497 4.29958e-06
0.000307037 4.29958e-06 0.00344059
0.00143156 8.76638e-05 6.49796e-05
8.76638e-05 0.000565152 4.28541e-06
6.49796e-05 4.28541e-06 0.000523777
0.000514318 1.1559e-05 1.52204e-05
1.1559e-05 -0.000135527 1.85425e-06
1.52204e-05 1.85425e-06 -0.000221299
0.00636881 0.000234823 0.00017786
0.000234823 0.00368218 1.71371e-05
0.00017786 1.71371e-05 0.00365656
0.00282312 7.66209e-05 0.000146218
7.66209e-05 0.00130022 9.27203e-06
0.000146218 9.27203e-06 0.00124122
0.00144096 -8.68523e-05 -7.72475e-05
-8.68523e-05 0.000582122 9.82518e-06
-7.72475e-05 9.82518e-06 0.000529435
0.00149555 -0.000110361 -7.01394e-05
-0.000110361 0.000618574 1.21638e-05
-7.01394e-05 1.21638e-05 0.000562327
0.00164115 -4.02633e-05 -4.52613e-05
-4.02633e-05 0.000699753 8.69631e-06
-4.52613e-05 8.69631e-06 0.000645606
0.00196281 -0.000178864 -0.000138748
-0.000178864 0.00079549 2.53963e-05
-0.000138748 2.53963e-05 0.000703725
0.003852 -1.9874e-05 -0.000123393
-1.9874e-05 0.00208472 -1.72512e-06
-0.000123393 -1.72512e-06 0.00207295
0.00181002 -6.70103e-05 8.63348e-05
-6.70103e-05 0.000791973 -3.98813e-06
8.63348e-05 -3.98813e-06 0.000761926
0.00185601 -4.79762e-05 0.000122283
-4.79762e-05 0.000836322 -1.71308e-05
0.000122283 -1.71308e-05 0.000793391
0.00187187 -8.88556e-05 8.74103e-05
-8.88556e-05 0.000830739 -8.65647e-06
8.74103e-05 -8.65647e-06 0.000796903
0.00188032 -0.000116484 -3.29687e-05
-0.000116484 0.000736372 2.28031e-06
-3.29687e-05 2.28031e-06 0.000649403
0.00189546 -0.000178094 -4.77413e-05
-0.000178094 0.00077215 6.75655e-06
-4.77413e-05 6.75655e-06 0.00066171
0.00191097 -0.000162772 -3.52266e-05
-0.000162772 0.000763133 4.18897e-06
-3.52266e-05 4.18897e-06 0.00066649
0.00207929 -0.000325981 -9.81677e-06
-0.000325981 0.000648967 2.60162e-06
-9.81677e-06 2.60162e-06 0.000436454
0.0059655 6.01569e-06 0.000303031
6.01569e-06 0.00340392 -2.26677e-06
0.000303031 -2.26677e-06 0.00343082
0.00207461 -3.88643e-05 0.000241042
-3.88643e-05 0.000947628 -1.28217e-05
0.000241042 -1.28217e-05 0.000937755
0.00244795 -8.58602e-06 5.17727e-05
-8.58602e-06 0.00109229 -1.03392e-06
5.17727e-05 -1.03392e-06 0.00102396
0.00176383 -0.00011234 6.27673e-05
-0.00011234 0.000669368 -7.15955e-06
6.27673e-05 -7.15955e-06 0.000579747
0.00182516 -0.000143574 6.66043e-05
-0.000143574 0.00071079 -1.24418e-05
6.66043e-05 -1.24418e-05 0.000609485
0.00190661 -0.000210713 1.09252e-05
-0.000210713 0.000470831 -2.946e-06
1.09252e-05 -2.946e-06 0.00030334
0.00191481 -0.000285144 1.65708e-05
-0.000285144 0.00050983 -5.67912e-06
1.65708e-05 -5.67912e-06 0.000316105
0.00184658 -8.83662e-05 0.000240479
-8.83662e-05 0.000820123 -3.31706e-05
0.000240479 -3.31706e-05 0.000801814
0.00179849 -0.000105216 3.30019e-05
-0.000105216 0.000735808 -1.35778e-05
3.30019e-05 -1.35778e-05 0.000609408
0.00210262 -0.000353197 1.82431e-05
-0.000353197 0.000712307 -8.47196e-06
1.82431e-05 -8.47196e-06 0.000483558
0.00169249 -0.000423179 6.90707e-06
-0.000423179 0.000186122 -6.20023e-07
6.90707e-06 -6.20023e-07 -7.42203e-05
0.00691615 0.00026666 -0.000344669
0.00026666 0.00400062 -3.84659e-05
-0.000344669 -3.84659e-05 0.00400621
0.00660553 -5.53328e-05 -0.000260759
-5.53328e-05 0.00382223 -1.883e-05
-0.000260759 -1.883e-05 0.00382903
0.00680357 0.000106613 -0.000307269
0.000106613 0.0039166 -2.83817e-05
-0.000307269 -2.83817e-05 0.00393267
0.00041226 0.000228834 -2.51822e-05
0.000228834 -0.000123393 -2.04705e-05
-2.51822e-05 -2.04705e-05 -0.000261733
0.006805 0.000240849 -2.41896e-06
0.000240849 0.00392668 -2.39158e-06
-2.41896e-06 -2.39158e-06 0.00393663
0.0069255 0.000216191 -8.89993e-06
0.000216191 0.00399889 -2.95311e-06
-8.89993e-06 -2.95311e-06 0.00400756
0.000362638 0.000131884 2.07762e-07
0.000131884 -0.000218057 -2.8247e-07
2.07762e-07 -2.8247e-07 -0.000332253
0.00368195 -9.48165e-05 -0.000118678
-9.48165e-05 0.00202764 -4.70387e-06
-0.000118678 -4.70387e-06 0.00199426
0.000350778 0.000210345 3.68662e-07
0.000210345 -0.000178484 -4.97307e-07
3.68662e-07 -4.97307e-07 -0.00031123
0.00175277 0.000230539 5.77695e-05
0.000230539 0.000717535 3.30751e-06
5.77695e-05 3.30751e-06 0.000605199
0.000848958 0.000251955 3.06095e-07
0.000251955 -4.84179e-06 2.63307e-08
3.06095e-07 2.63307e-08 -0.000222913
0.00559616 -0.000134229 0.000207396
-0.000134229 0.00325007 2.31134e-05
0.000207396 2.31134e-05 0.00323637
0.000630314 5.78075e-05 1.55502e-05
5.78075e-05 7.07416e-05 1.35696e-05
1.55502e-05 1.35696e-05 -4.48159e-06
0.000466427 0.000101889 1.51324e-05
0.000101889 -0.000171834 1.03845e-05
1.51324e-05 1.03845e-05 -0.000280023
0.000477062 0.000160517 1.97819e-05
0.000160517 -0.000133713 1.80734e-05
1.97819e-05 1.80734e-05 -0.000255325
0.00115402 0.0002477 1.53323e-05
0.0002477 7.31526e-06 5.61417e-06
1.53323e-05 5.61417e-06 -0.000193156
0.00301581 0.000211005 0.000144489
0.000211005 0.00152117 2.03162e-05
0.000144489 2.03162e-05 0.00144121
0.000974632 0.000269332 1.51388e-05
0.000269332 -1.86884e-06 6.61314e-06
1.51388e-05 6.61314e-06 -0.000219257
0.000831931 0.000255026 1.25768e-05
0.000255026 7.27307e-05 6.0245e-06
1.25768e-05 6.0245e-06 -0.000152697
0.00125696 0.000414102 2.2138e-06
0.000414102 0.000137014 -1.62707e-06
2.2138e-06 -1.62707e-06 -0.000161339
0.00362253 -0.000123175 0.000111321
-0.000123175 0.00198927 7.22118e-06
0.000111321 7.22118e-06 0.00198793
0.00422803 -0.000164549 2.4128e-05
-0.000164549 0.00238998 -6.07384e-07
2.4128e-05 -6.07384e-07 0.00237563
0.00658757 6.2387e-05 -0.000325876
6.2387e-05 0.0037763 -1.63205e-05
-0.000325876 -1.63205e-05 0.00379991
0.00621529 7.36646e-05 -0.000317246
7.36646e-05 0.00355542 -9.93554e-06
-0.000317246 -9.93554e-06 0.00358145
0.00606993 8.37973e-05 -7.77096e-08
8.37973e-05 0.00347626 -3.81601e-06
-7.77096e-08 -3.81601e-06 0.00349869
0.00386308 3.31528e-05 -0.000132507
3.31528e-05 0.00208166 -6.97317e-06
-0.000132507 -6.97317e-06 0.00207544
0.00159107 3.8612e-05 6.30819e-05
3.8612e-05 0.000539747 1.74793e-06
6.30819e-05 1.74793e-06 0.000471272
0.0041884 0.000150073 -0.000124397
0.000150073 0.00228885 -7.42448e-06
-0.000124397 -7.42448e-06 0.00226933
0.00166802 9.3256e-05 6.46142e-05
9.3256e-05 0.000580647 3.21763e-06
6.46142e-05 3.21763e-06 0.000500911
0.00602134 0.000121577 0.000309771
0.000121577 0.00345486 7.26625e-06
0.000309771 7.26625e-06 0.00347228
0.000414696 1.04622e-05 1.84083e-05
1.04622e-05 -0.000192594 8.91799e-07
1.84083e-05 8.91799e-07 -0.000275054
0.00280256 3.99306e-05 0.000143465
3.99306e-05 0.00129129 6.22376e-06
0.000143465 6.22376e-06 0.00123834
0.00111596 6.48463e-05 1.17059e-05
6.48463e-05 -3.77936e-05 7.56405e-07
1.17059e-05 7.56405e-07 -0.000171095
0.00279516 0.000122398 0.000151935
0.000122398 0.00128504 1.2504e-05
0.000151935 1.2504e-05 0.00121925
0.00121041 0.000147477 1.16097e-05
0.000147477 -2.13409e-06 1.76724e-06
1.16097e-05 1.76724e-06 -0.000159236
0.00182591 4.21641e-05 -0.000242872
4.21641e-05 0.000784879 3.10217e-06
-0.000242872 3.10217e-06 0.000787699
0.00143346 -1.7587e-05 -6.35151e-05
-1.7587e-05 0.000569405 2.92574e-06
-6.35151e-05 2.92574e-06 0.000522969
0.00168429 -3.57134e-06 -3.75119e-05
-3.57134e-06 0.000730648 8.36079e-06
-3.75119e-05 8.36079e-06 0.000674462
0.00143173 -0.000102404 -7.83895e-05
-0.000102404 0.000578249 1.19434e-05
-7.83895e-05 1.19434e-05 0.000524012
0.00200592 -9.54547e-05 -0.000131913
-9.54547e-05 0.000804585 1.2488e-05
-0.000131913 1.2488e-05 0.000729152
0.00199628 -0.000149313 -0.00013476
-0.000149313 0.000805105 2.14457e-05
-0.00013476 2.14457e-05 0.000721067
0.00193298 -0.000194837 -0.000142536
-0.000194837 0.00078762 2.71141e-05
-0.000142536 2.71141e-05 0.000688799
0.00206131 -0.000325073 -3.43907e-05
-0.000325073 0.000634128 1.1748e-05
-3.43907e-05 1.1748e-05 0.000422516
0.00606119 -0.000106013 2.33123e-06
-0.000106013 0.00347581 -1.88061e-06
2.33123e-06 -1.88061e-06 0.0034951
0.00171398 2.92224e-05 9.32332e-05
2.92224e-05 0.000725891 -4.58032e-06
9.32332e-05 -4.58032e-06 0.000704553
0.00115753 -1.09046e-05 -6.61435e-05
-1.09046e-05 0.00027403 1.997e-06
-6.61435e-05 1.997e-06 0.000204525
0.00183942 -7.6439e-05 -3.60149e-05
-7.6439e-05 0.000708854 2.93396e-06
-3.60149e-05 2.93396e-06 0.000628924
0.00435313 -3.85752e-05 0.000247758
-3.85752e-05 0.00240778 -1.65136e-05
0.000247758 -1.65136e-05 0.00240046
0.00244926 -0.000184542 -4.30604e-05
-0.000184542 0.00113121 3.79393e-06
-4.30604e-05 3.79393e-06 0.00101746
0.00189835 -0.000140891 -3.25909e-05
-0.000140891 0.000750713 2.96307e-06
-3.25909e-05 2.96307e-06 0.000659339
0.00197729 -0.000211308 -1.00736e-05
-0.000211308 0.000511111 1.82813e-06
-1.00736e-05 1.82813e-06 0.000346968
0.00207481 -0.000354544 -8.52738e-06
-0.000354544 0.000688487 2.42664e-06
-8.52738e-06 2.42664e-06 0.000459318
0.0019881 -0.000287887 -8.5794e-06
-0.000287887 0.000556193 2.25671e-06
-8.5794e-06 2.25671e-06 0.000361228
0.00172462 -0.000425207 8.06492e-07
-0.000425207 0.00020773 -1.37763e-07
8.06492e-07 -1.37763e-07 -5.22134e-05
0.000453082 9.63423e-06 1.92399e-05
9.63423e-06 -0.000172404 -7.05394e-07
1.92399e-05 -7.05394e-07 -0.000251441
0.0016753 -4.00507e-06 5.31978e-05
-4.00507e-06 0.000605003 -2.78529e-06
5.31978e-05 -2.78529e-06 0.000528424
0.00183133 -6.89856e-05 1.04921e-05
-6.89856e-05 0.000414897 -4.11587e-07
1.04921e-05 -4.11587e-07 0.000295399
0.00181539 -0.000165671 1.06518e-05
-0.000165671 0.000401616 -1.59519e-06
1.06518e-05 -1.59519e-06 0.000253108
0.00189252 -0.00024743 1.35944e-05
-0.00024743 0.000468852 -3.77656e-06
1.35944e-05 -3.77656e-06 0.000291696
0.00189727 -0.000296274 4.57729e-07
-0.000296274 0.000189906 -1.61572e-07
4.57729e-07 -1.61572e-07 1.3744e-05
0.00617428 0.000105175 0.000218308
0.000105175 0.0035771 -1.68616e-05
0.000218308 -1.68616e-05 0.00357236
0.00169025 -0.000389914 4.51488e-06
-0.000389914 0.000133756 -5.28958e-07
4.51488e-06 -5.28958e-07 -9.86526e-05
0.0002482 -0.00017854 2.0368e-05
-0.00017854 -0.000236932 -2.08414e-05
2.0368e-05 -2.08414e-05 -0.000355776
0.000893106 -0.000270482 1.41564e-05
-0.000270482 1.28863e-05 -8.71602e-06
1.41564e-05 -8.71602e-06 -0.000215995
0.00177061 -0.00047018 9.04371e-06
-0.00047018 0.000297215 -1.45233e-06
9.04371e-06 -1.45233e-06 1.45576e-06
0.00191775 -0.000494805 2.44042e-06
-0.000494805 0.000219318 2.15669e-06
2.44042e-06 2.15669e-06 -2.93165e-05
0.000462119 -0.000143944 2.2312e-05
-0.000143944 -6.60612e-05 -1.65589e-05
2.2312e-05 -1.65589e-05 -0.000166574
0.00060394 -0.000128142 -3.26651e-07
-0.000128142 7.73567e-05 -3.18185e-08
-3.26651e-07 -3.18185e-08 -0.000162541
0.00687558 0.000264507 -0.000352324
0.000264507 0.00397668 -3.64387e-05
-0.000352324 -3.64387e-05 0.00398336
0.00687905 0.000202633 -0.000328477
0.000202633 0.00396811 -3.48233e-05
-0.000328477 -3.48233e-05 0.00398029
0.000340992 0.000128818 -1.83164e-05
0.000128818 -0.000233223 -1.28527e-05
-1.83164e-05 -1.28527e-05 -0.000347635
0.0058853 -0.000129236 -0.000205728
-0.000129236 0.00340712 -1.49652e-05
-0.000205728 -1.49652e-05 0.00340088
0.000334386 0.000200398 -2.31349e-05
0.000200398 -0.000174789 -2.05142e-05
-2.31349e-05 -2.05142e-05 -0.000294539
0.00035551 0.000197608 -2.08405e-05
0.000197608 -0.000173908 -1.85593e-05
-2.08405e-05 -1.85593e-05 -0.000307808
0.000852728 0.000248865 -1.44905e-05
0.000248865 1.9488e-06 -6.83176e-06
-1.44905e-05 -6.83176e-06 -0.000214429
0.0053163 -0.000127085 -2.05205e-07
-0.000127085 0.00306332 7.38287e-07
-2.05205e-07 7.38287e-07 0.00305645
0.000516907 4.47009e-05 1.61974e-06
4.47009e-05 3.65984e-06 4.66519e-07
1.61974e-06 4.66519e-07 -6.78946e-05
0.00167394 0.000143356 6.6542e-05
0.000143356 0.000588708 5.79746e-06
6.6542e-05 5.79746e-06 0.000495827
0.0016588 0.000205951 6.76355e-05
0.000205951 0.000613931 6.51476e-06
6.76355e-05 6.51476e-06 0.00050608
0.00112525 0.000246545 1.05903e-07
0.000246545 -5.10489e-06 -2.82043e-07
1.05903e-07 -2.82043e-07 -0.000206381
0.000449627 0.000174325 -5.4756e-08
0.000174325 -8.61696e-05 -4.7582e-07
-5.4756e-08 -4.7582e-07 -0.000191101
0.000986542 0.000266362 9.12077e-07
0.000266362 1.48936e-05 1.19591e-07
9.12077e-07 1.19591e-07 -0.000201452
0.000829544 0.000244817 3.31069e-07
0.000244817 6.36604e-05 -8.41728e-07
3.31069e-07 -8.41728e-07 -0.000157105
0.00139163 0.000435347 -3.20749e-07
0.000435347 0.000207741 -4.07908e-07
-3.20749e-07 -4.07908e-07 -9.41405e-05
0.000431614 0.000124457 1.84873e-05
0.000124457 -6.94232e-05 1.63511e-05
1.84873e-05 1.63511e-05 -0.00016692
0.000681758 8.03886e-06 8.47564e-06
8.03886e-06 0.000111405 1.18528e-05
8.47564e-06 1.18528e-05 5.75007e-05
0.00129161 0.000190435 5.25718e-06
0.000190435 0.000524416 4.18e-06
5.25718e-06 4.18e-06 0.000307233
0.00119068 0.000217584 1.25001e-05
0.000217584 -2.31299e-06 4.08904e-06
1.25001e-05 4.08904e-06 -0.000188555
0.00109708 0.000268504 1.6573e-05
0.000268504 1.66217e-05 6.49691e-06
1.6573e-05 6.49691e-06 -0.000195297
0.00188603 0.000418247 3.80069e-06
0.000418247 0.000231743 -3.81842e-08
3.80069e-06 -3.81842e-08 -4.72398e-06
0.000706575 0.000217294 9.43331e-06
0.000217294 5.15728e-05 5.92097e-06
9.43331e-06 5.92097e-06 -0.000164383
0.00176087 0.000478079 3.91279e-06
0.000478079 0.00032408 -9.15722e-07
3.91279e-06 -9.15722e-07 3.45932e-05
0.00107598 0.000381449 8.35767e-07
0.000381449 0.000111602 -1.84837e-06
8.35767e-07 -1.84837e-06 -0.000194649
0.00154336 0.000523823 -6.17511e-06
0.000523823 0.000201863 -4.57702e-06
-6.17511e-06 -4.57702e-06 -0.000121509
0.00322389 -0.000132284 7.07181e-05
-0.000132284 0.00173307 3.95758e-06
7.07181e-05 3.95758e-06 0.00172965
0.00356945 -0.000160696 1.37195e-05
-0.000160696 0.00196325 -8.43914e-07
1.37195e-05 -8.43914e-07 0.00195184
0.00402979 -0.000202829 -8.24403e-05
-0.000202829 0.00227085 -6.38827e-06
-8.24403e-05 -6.38827e-06 0.00224686
0.000486035 -0.000127504 2.11518e-05
-0.000127504 -3.38348e-05 -1.48595e-05
2.11518e-05 -1.48595e-05 -0.000120104
0.0055745 0.000151247 0.000179008
0.000151247 0.00323381 -1.73369e-05
0.000179008 -1.73369e-05 0.00321696
0.00680368 0.00022272 -0.000351366
0.00022272 0.00392591 -3.02061e-05
-0.000351366 -3.02061e-05 0.00393899
0.00634121 9.63565e-05 -0.000321173
9.63565e-05 0.00363008 -1.40286e-05
-0.000321173 -1.40286e-05 0.00365466
0.000406618 9.7325e-05 -1.9084e-05
9.7325e-05 -0.000207002 -5.54848e-06
-1.9084e-05 -5.54848e-06 -0.000303656
0.000413361 4.35463e-05 -1.90362e-05
4.35463e-05 -0.000194175 -2.74558e-06
-1.90362e-05 -2.74558e-06 -0.000280727
0.00601716 -5.83933e-06 -0.00030469
-5.83933e-06 0.00343427 -2.64871e-06
-0.00030469 -2.64871e-06 0.00346137
0.00595853 5.65437e-06 -1.27117e-07
5.65437e-06 0.00339909 -1.01509e-06
-1.27117e-07 -1.01509e-06 0.00342628
0.000395358 8.23898e-07 -8.25031e-08
8.23898e-07 -0.000207458 1.46348e-07
-8.25031e-08 1.46348e-07 -0.00028811
0.00158931 4.03973e-05 6.36528e-05
4.03973e-05 0.000532661 2.90055e-06
6.36528e-05 2.90055e-06 0.000461488
0.00108745 6.84815e-05 -7.0159e-08
6.84815e-05 -5.98452e-05 -5.69046e-08
-7.0159e-08 -5.69046e-08 -0.000194057
0.00037746 8.42847e-05 -7.48662e-07
8.42847e-05 -0.000226448 -4.47585e-07
-7.48662e-07 -4.47585e-07 -0.000329721
0.00114354 0.000147657 -1.90462e-07
0.000147657 -4.44081e-05 -1.75156e-07
-1.90462e-07 -1.75156e-07 -0.000202665
0.000389506 -3.16568e-05 1.90238e-05
-3.16568e-05 -0.000212422 -8.00377e-07
1.90238e-05 -8.00377e-07 -0.000290404
0.00106869 2.80907e-05 1.14357e-05
2.80907e-05 -5.61536e-05 3.87135e-07
1.14357e-05 3.87135e-07 -0.000184005
0.0011498 0.000106013 1.16996e-05
0.000106013 -3.04922e-05 1.26155e-06
1.16996e-05 1.26155e-06 -0.00017414
0.00184821 0.00010946 5.38784e-07
0.00010946 7.44812e-05 -4.37155e-07
5.38784e-07 -4.37155e-07 -3.03525e-05
0.00120617 0.000182577 1.1202e-05
0.000182577 -5.99126e-06 2.69799e-06
1.1202e-05 2.69799e-06 -0.000177142
0.00195722 0.000251243 8.70112e-07
0.000251243 0.000152682 -7.43674e-07
8.70112e-07 -7.43674e-07 8.31285e-06
0.00597826 -6.74763e-05 -0.00030879
-6.74763e-05 0.00341821 3.15842e-06
-0.00030879 3.15842e-06 0.00344151
0.00136751 -0.0001566 -6.43367e-05
-0.0001566 0.000544995 7.84568e-06
-6.43367e-05 7.84568e-06 0.000494192
-0.000251027 -6.5022e-06 -1.19862e-05
-6.5022e-06 -0.000603511 1.80631e-06
-1.19862e-05 1.80631e-06 -0.000698675
0.00195184 -6.79968e-05 -0.000129539
-6.79968e-05 0.000772135 8.76153e-06
-0.000129539 8.76153e-06 0.00070171
0.00654308 0.000263069 -2.99997e-05
0.000263069 0.00380967 3.79623e-06
-2.99997e-05 3.79623e-06 0.00375956
0.0031206 -0.000272613 -0.000147135
-0.000272613 0.00154811 2.84349e-05
-0.000147135 2.84349e-05 0.0014393
0.00201846 -0.000121997 -0.000133136
-0.000121997 0.000813903 1.67692e-05
-0.000133136 1.67692e-05 0.000734972
0.00202314 -0.000210437 -3.05747e-05
-0.000210437 0.000535613 5.60424e-06
-3.05747e-05 5.60424e-06 0.00037511
0.0020474 -0.000289993 -3.20191e-05
-0.000289993 0.00059331 1.01539e-05
-3.20191e-05 1.01539e-05 0.000397364
0.00199609 -0.000351543 -3.20486e-05
-0.000351543 0.000634685 1.22223e-05
-3.20486e-05 1.22223e-05 0.000405579
0.00178263 -0.000429324 -5.27874e-06
-0.000429324 0.000245453 4.56549e-07
-5.27874e-06 4.56549e-07 -1.44115e-05
0.000393085 4.52477e-06 -3.24674e-08
4.52477e-06 -0.000207799 3.14776e-07
-3.24674e-08 3.14776e-07 -0.000287836
0.00180908 -8.6796e-05 -3.46342e-05
-8.6796e-05 0.000694905 4.97044e-07
-3.46342e-05 4.97044e-07 0.000619878
0.00147469 -6.45942e-05 -1.06742e-05
-6.45942e-05 0.000191501 7.19452e-07
-1.06742e-05 7.19452e-07 6.76465e-05
0.00190265 -0.000166561 -9.1e-06
-0.000166561 0.000455535 1.44469e-06
-9.1e-06 1.44469e-06 0.000305747
0.00640198 0.000103955 5.2815e-06
0.000103955 0.00372208 5.81764e-07
5.2815e-06 5.81764e-07 0.00371521
0.00171153 -0.000182559 4.77416e-06
-0.000182559 0.000691545 6.45782e-07
4.77416e-06 6.45782e-07 0.000563281
0.00138419 -0.000307221 1.52314e-06
-0.000307221 0.000320856 -1.04864e-06
1.52314e-06 -1.04864e-06 8.81687e-05
0.00194189 -0.000250588 -9.1288e-06
-0.000250588 0.000498665 2.32278e-06
-9.1288e-06 2.32278e-06 0.000320891
0.00192987 -0.000300375 -4.60685e-07
-0.000300375 0.000206145 -3.89038e-09
-4.60685e-07 -3.89038e-09 3.5642e-05
0.00177595 -0.000469539 1.05298e-06
-0.000469539 0.000303742 -3.32433e-07
1.05298e-06 -3.32433e-07 9.65879e-06
0.00181903 -0.00039496 6.45667e-07
-0.00039496 0.000217192 -2.09582e-07
6.45667e-07 -2.09582e-07 -1.56447e-05
0.0019559 -0.000496302 8.23987e-07
-0.000496302 0.000247839 1.29223e-07
8.23987e-07 1.29223e-07 -6.62252e-07
0.000466269 -0.000154968 1.98788e-06
-0.000154968 -6.8348e-05 5.60164e-07
1.98788e-06 5.60164e-07 -0.000169115
0.000694644 -0.000167342 9.23762e-07
-0.000167342 0.000120661 1.46461e-07
9.23762e-07 1.46461e-07 -0.000108699
0.00106794 -3.18443e-05 1.167e-05
-3.18443e-05 -5.17759e-05 -5.6318e-07
1.167e-05 -5.6318e-07 -0.000179959
0.00188455 -0.000114262 9.6383e-06
-0.000114262 0.000446716 -8.15136e-07
9.6383e-06 -8.15136e-07 0.000315703
0.00183723 -0.000115563 4.86695e-07
-0.000115563 9.63123e-05 2.16154e-07
4.86695e-07 2.16154e-07 -1.81683e-05
0.00181488 -0.000243008 -3.49289e-07
-0.000243008 0.000107055 8.59457e-07
-3.49289e-07 8.59457e-07 -3.53037e-05
0.0018067 -0.000350844 7.65483e-07
-0.000350844 0.00016011 4.07978e-07
7.65483e-07 4.07978e-07 -3.96966e-05
0.00208911 -0.000344231 2.4084e-06
-0.000344231 0.000192388 -3.72077e-07
2.4084e-06 -3.72077e-07 5.32772e-05
0.000351584 -0.00016467 2.00954e-05
-0.00016467 -0.000150006 -1.98044e-05
2.00954e-05 -1.98044e-05 -0.00026362
0.00196834 -0.00045713 7.72161e-07
-0.00045713 0.000202741 1.61741e-06
7.72161e-07 1.61741e-06 -5.84264e-06
0.000595728 -0.000236689 1.01072e-05
-0.000236689 -8.05964e-05 -8.54093e-06
1.01072e-05 -8.54093e-06 -0.000305977
0.00146798 -0.000479485 1.09839e-05
-0.000479485 0.000203429 -1.78904e-06
1.09839e-05 -1.78904e-06 -0.000122859
0.0021219 -0.000556994 3.07517e-06
-0.000556994 0.00041326 1.25716e-06
3.07517e-06 1.25716e-06 0.000111354
0.00223628 -0.000532748 -1.35459e-06
-0.000532748 0.00037893 4.24913e-06
-1.35459e-06 4.24913e-06 0.000159669
0.000599487 -0.000208041 1.7103e-06
-0.000208041 4.19593e-05 -3.50237e-06
1.7103e-06 -3.50237e-06 -0.00020694
0.000657854 -0.000119206 4.45195e-07
-0.000119206 0.000121461 -1.295e-06
4.45195e-07 -1.295e-06 -7.87698e-05
0.000938598 -0.000275254 -1.41697e-06
-0.000275254 0.0002644 2.80173e-06
-1.41697e-06 2.80173e-06 -2.74476e-05
0.000371936 0.000107788 -1.76847e-05
0.000107788 -0.000226021 -9.86338e-06
-1.76847e-05 -9.86338e-06 -0.000335348
0.0048365 -0.000184238 -0.000139055
-0.000184238 0.00277986 -1.1451e-05
-0.000139055 -1.1451e-05 0.00275939
0.00028129 3.48093e-05 -1.04808e-05
3.48093e-05 -0.000140263 -1.34e-05
-1.04808e-05 -1.34e-05 -0.000206188
0.00034607 0.000162523 -1.97355e-05
0.000162523 -0.000207472 -1.59431e-05
-1.97355e-05 -1.59431e-05 -0.000330787
0.00110835 0.00024619 -1.6327e-05
0.00024619 -9.94358e-06 -6.20842e-06
-1.6327e-05 -6.20842e-06 -0.000212055
0.000466382 0.000163175 -2.29895e-05
0.000163175 -7.66102e-05 -1.85528e-05
-2.29895e-05 -1.85528e-05 -0.000180486
0.000621275 0.000225569 -1.1104e-05
0.000225569 -6.63512e-05 -7.67487e-06
-1.1104e-05 -7.67487e-06 -0.000281822
0.000962225 0.000261213 -1.54558e-05
0.000261213 9.19299e-06 -7.07659e-06
-1.54558e-05 -7.07659e-06 -0.000205966
0.00149647 0.000453344 -3.774e-06
0.000453344 0.000259607 6.9771e-07
-3.774e-06 6.9771e-07 -4.5049e-05
0.000506083 0.00011997 -3.86162e-07
0.00011997 -2.94152e-05 1.22338e-06
-3.86162e-07 1.22338e-06 -0.000119935
0.000414919 -1.22422e-05 3.45725e-07
-1.22422e-05 -4.62734e-05 6.53931e-07
3.45725e-07 6.53931e-07 -0.000100875
0.000732972 0.000118229 3.4019e-06
0.000118229 0.000163007 -8.61997e-07
3.4019e-06 -8.61997e-07 -3.80349e-05
0.00116653 0.000217797 -1.17162e-07
0.000217797 -1.2165e-05 -3.1518e-07
-1.17162e-07 -3.1518e-07 -0.000199534
0.0010567 0.000264104 4.75717e-07
0.000264104 -1.31417e-06 -2.19146e-07
4.75717e-07 -2.19146e-07 -0.000212857
0.00185908 0.000416346 -2.73066e-07
0.000416346 0.000213578 -1.39391e-07
-2.73066e-07 -1.39391e-07 -2.30257e-05
0.000670533 0.000219508 -3.09248e-07
0.000219508 3.15572e-05 6.92553e-08
-3.09248e-07 6.92553e-08 -0.000182897
0.00175737 0.00047591 -3.28354e-07
0.00047591 0.000316453 -3.37042e-07
-3.28354e-07 -3.37042e-07 2.60407e-05
0.00126638 0.000401994 3.17479e-07
0.000401994 0.000232741 -1.02548e-06
3.17479e-07 -1.02548e-06 -7.74222e-05
0.00153261 0.000533873 -5.29438e-07
0.000533873 0.000178621 1.68964e-06
-5.29438e-07 1.68964e-06 -0.000145049
0.000515712 -2.25048e-05 2.43808e-06
-2.25048e-05 1.16369e-05 9.85964e-06
2.43808e-06 9.85964e-06 -3.23411e-05
0.00103022 0.000188028 5.40631e-06
0.000188028 0.00031008 3.30775e-06
5.40631e-06 3.30775e-06 9.09625e-05
0.00103236 6.62593e-05 3.1267e-07
6.62593e-05 0.000341633 6.58576e-06
3.1267e-07 6.58576e-06 0.000186418
0.00109375 0.000203771 1.56535e-06
0.000203771 0.000406304 2.03452e-07
1.56535e-06 2.03452e-07 0.000130175
0.00193034 0.000370543 8.20199e-07
0.000370543 0.000198609 -1.55196e-06
8.20199e-07 -1.55196e-06 -4.89955e-06
0.00181584 0.000455433 4.66063e-06
0.000455433 0.000264053 -1.33167e-08
4.66063e-06 -1.33167e-08 -3.74837e-06
0.00207403 0.000486157 1.53464e-07
0.000486157 0.000252709 -9.79265e-07
1.53464e-07 -9.79265e-07 2.7948e-05
0.000911338 0.000306853 2.9007e-06
0.000306853 6.80004e-05 9.93087e-07
2.9007e-06 9.93087e-07 -0.00020188
0.00221735 0.000603635 -3.83389e-06
0.000603635 0.000490305 -2.06297e-06
-3.83389e-06 -2.06297e-06 0.000186796
0.00182822 0.000566738 -4.01349e-06
0.000566738 0.000490727 -6.26534e-06
-4.01349e-06 -6.26534e-06 0.000117115
0.00185986 0.000580957 -1.19995e-06
0.000580957 0.000286365 -1.57595e-06
-1.19995e-06 -1.57595e-06 -2.9316e-05
0.000559276 4.64779e-05 2.28651e-06
4.64779e-05 5.06412e-05 4.4452e-06
2.28651e-06 4.4452e-06 -2.42743e-05
0.000475012 -1.8808e-05 1.85719e-06
-1.8808e-05 -2.91052e-05 7.14019e-06
1.85719e-06 7.14019e-06 -5.82817e-05
0.00283986 -0.000121714 4.53088e-05
-0.000121714 0.00148309 4.14755e-06
4.53088e-05 4.14755e-06 0.00148213
0.00308053 -0.000145556 8.65464e-06
-0.000145556 0.00164545 -8.61734e-07
8.65464e-06 -8.61734e-07 0.001638
0.00337695 -0.000174388 -5.67348e-05
-0.000174388 0.00184499 -4.11076e-06
-5.67348e-05 -4.11076e-06 0.001829
0.000448039 -0.000108363 1.76035e-05
-0.000108363 -3.54103e-05 -1.4394e-05
1.76035e-05 -1.4394e-05 -0.000108614
0.00507265 0.000179385 0.000143339
0.000179385 0.00293515 -1.65236e-05
0.000143339 -1.65236e-05 0.00291095
0.000503738 -0.000126008 5.64465e-07
-0.000126008 -2.31644e-05 3.69067e-07
5.64465e-07 3.69067e-07 -0.000114427
0.00580924 0.000133492 5.01717e-06
0.000133492 0.00337521 9.0313e-07
5.01717e-06 9.0313e-07 0.00336093
0.000411552 0.000110504 -1.88767e-05
0.000110504 -0.00020278 -7.71346e-06
-1.88767e-05 -7.71346e-06 -0.00030819
0.00042173 3.47088e-05 -1.79932e-05
3.47088e-05 -0.000196007 -3.38047e-06
-1.79932e-05 -3.38047e-06 -0.000285214
0.00111162 0.000148084 -1.17285e-05
0.000148084 -6.6414e-05 -2.07301e-06
-1.17285e-05 -2.07301e-06 -0.000225595
0.00106067 7.09312e-05 -1.1788e-05
7.09312e-05 -8.05936e-05 -7.99132e-07
-1.1788e-05 -7.99132e-07 -0.000215538
0.000447791 -7.66368e-06 -1.90861e-05
-7.66368e-06 -0.000177886 -8.46187e-07
-1.90861e-05 -8.46187e-07 -0.000256768
0.00605138 -0.000100076 -0.000315693
-0.000100076 0.00346866 5.48589e-06
-0.000315693 5.48589e-06 0.00348985
0.000436944 -2.35639e-06 8.74028e-08
-2.35639e-06 -0.000183708 -6.70231e-07
8.74028e-08 -6.70231e-07 -0.000261605
0.00105189 3.341e-05 -8.13408e-08
3.341e-05 -6.8511e-05 4.88412e-08
-8.13408e-08 4.88412e-08 -0.000196849
0.00112777 0.000107988 -1.19216e-07
0.000107988 -4.74224e-05 -4.10205e-08
-1.19216e-07 -4.10205e-08 -0.00019206
0.00184753 0.000107722 -1.28204e-07
0.000107722 8.12543e-05 2.47393e-07
-1.28204e-07 2.47393e-07 -2.34219e-05
0.00117358 0.000184355 -2.55498e-07
0.000184355 -2.43238e-05 -2.52714e-07
-2.55498e-07 -2.52714e-07 -0.000197048
0.00191121 0.000248614 -1.6811e-07
0.000248614 0.000122435 1.36527e-07
-1.6811e-07 1.36527e-07 -2.20282e-05
0.00104594 -3.61227e-06 1.14828e-05
-3.61227e-06 -6.49398e-05 -2.79468e-07
1.14828e-05 -2.79468e-07 -0.000191759
0.00180863 5.13707e-05 1.15015e-06
5.13707e-05 5.7598e-05 -4.20294e-08
1.15015e-06 -4.20294e-08 -3.862e-05
0.00189303 0.000177547 4.29238e-07
0.000177547 0.000106381 -8.12599e-07
4.29238e-07 -8.12599e-07 -1.4913e-05
0.002007 0.000135992 3.85021e-06
0.000135992 6.19294e-05 1.00904e-06
3.85021e-06 1.00904e-06 8.5398e-06
0.00196289 0.000315906 7.48449e-07
0.000315906 0.000170707 -9.85797e-07
7.48449e-07 -9.85797e-07 -1.49669e-06
0.00204602 0.000278673 2.54807e-06
0.000278673 0.000100884 -2.70228e-07
2.54807e-06 -2.70228e-07 -4.2356e-06
0.0004217 -2.72788e-06 -1.82593e-05
-2.72788e-06 -0.000186641 8.962e-07
-1.82593e-05 8.962e-07 -0.000268896
0.00190525 -4.25507e-05 -0.000127034
-4.25507e-05 0.000745413 5.88545e-06
-0.000127034 5.88545e-06 0.000680862
0.00108079 -5.94098e-05 -1.81136e-05
-5.94098e-05 -5.49095e-05 1.63061e-06
-1.81136e-05 1.63061e-06 -0.000183508
0.00196912 -0.000166531 -2.83451e-05
-0.000166531 0.000495811 4.27636e-06
-2.83451e-05 4.27636e-06 0.000344868
0.00660788 8.29208e-05 -0.000250929
8.29208e-05 0.00384483 2.45243e-05
-0.000250929 2.45243e-05 0.0038399
0.00322099 -0.000257387 -0.000154324
-0.000257387 0.00162876 2.3677e-05
-0.000154324 2.3677e-05 0.00152973
0.00206476 -0.000364159 -2.65079e-05
-0.000364159 0.00074449 1.10386e-05
-2.65079e-05 1.10386e-05 0.000503818
0.00197924 -0.000252613 -3.12937e-05
-0.000252613 0.000520553 7.97482e-06
-3.12937e-05 7.97482e-06 0.000342494
0.00196428 -0.000304639 -2.49279e-06
-0.000304639 0.000223059 -3.52441e-07
-2.49279e-06 -3.52441e-07 5.81645e-05
0.00194243 -0.000399515 -3.83228e-06
-0.000399515 0.000298193 8.44421e-07
-3.83228e-06 8.44421e-07 6.49668e-05
0.00176417 -0.000467515 -7.43058e-06
-0.000467515 0.000298084 4.68126e-07
-7.43058e-06 4.68126e-07 6.04632e-06
0.00199405 -0.0004983 -6.65391e-07
-0.0004983 0.000274847 -1.95438e-06
-6.65391e-07 -1.95438e-06 2.6331e-05
0.00044337 -0.000161394 -2.04927e-05
-0.000161394 -7.69958e-05 1.79502e-05
-2.04927e-05 1.79502e-05 -0.00018408
0.000694522 -0.000190823 -5.81323e-07
-0.000190823 0.000121257 -2.71011e-07
-5.81323e-07 -2.71011e-07 -0.000107865
0.00105788 -2.67449e-05 3.34232e-07
-2.67449e-05 -6.02466e-05 6.54302e-08
3.34232e-07 6.54302e-08 -0.000185518
0.00188066 -0.000114709 -9.22258e-06
-0.000114709 0.000442117 1.11046e-06
-9.22258e-06 1.11046e-06 0.000311297
0.00185972 -0.000112508 1.9193e-07
-0.000112508 0.000107928 -2.33786e-07
1.9193e-07 -2.33786e-07 -1.61814e-06
0.00181256 -0.000242264 -2.56607e-06
-0.000242264 0.000111933 7.88299e-07
-2.56607e-06 7.88299e-07 -3.70256e-05
0.000433437 -0.000185642 1.96943e-07
-0.000185642 -0.00010066 1.53253e-07
1.96943e-07 1.53253e-07 -0.000215286
0.000807962 -0.000252381 -4.72081e-07
-0.000252381 4.28825e-05 -1.78408e-07
-4.72081e-07 -1.78408e-07 -0.000185751
0.00144407 -0.000475058 1.9251e-06
-0.000475058 0.000195432 -3.33717e-07
1.9251e-06 -3.33717e-07 -0.000131102
0.00186826 -0.000352942 -2.92548e-06
-0.000352942 0.000201617 8.63528e-07
-2.92548e-06 8.63528e-07 -1.38962e-06
0.00205081 -0.000345048 2.2346e-06
-0.000345048 0.000158533 -9.86311e-07
2.2346e-06 -9.86311e-07 2.45248e-05
0.002169 -0.000565657 -6.59291e-07
-0.000565657 0.000438337 -6.02691e-07
-6.59291e-07 -6.02691e-07 0.000137516
0.00198535 -0.000457955 5.92553e-07
-0.000457955 0.000215108 1.73824e-08
5.92553e-07 1.73824e-08 6.34217e-06
0.0020945 -0.000526414 6.71088e-07
-0.000526414 0.000283483 8.64668e-07
6.71088e-07 8.64668e-07 6.36475e-05
0.000631972 -0.000200251 4.19428e-07
-0.000200251 6.33188e-05 -3.87657e-07
4.19428e-07 -3.87657e-07 -0.00018247
0.000500867 -0.000187674 9.3616e-07
-0.000187674 -3.7481e-05 6.44709e-07
9.3616e-07 6.44709e-07 -0.000304686
0.000721505 -0.000140615 6.28142e-07
-0.000140615 0.000162955 1.12942e-07
6.28142e-07 1.12942e-07 -4.29455e-05
0.00180939 -5.17409e-05 5.8112e-07
-5.17409e-05 7.84518e-05 4.0277e-08
5.8112e-07 4.0277e-08 -2.59823e-05
0.00193284 -0.000175853 -2.13893e-06
-0.000175853 0.000162609 7.46595e-07
-2.13893e-06 7.46595e-07 4.05115e-05
0.00199287 -0.000129351 5.79576e-06
-0.000129351 6.80089e-05 -1.07469e-06
5.79576e-06 -1.07469e-06 3.74785e-06
0.00197308 -0.000283057 9.12938e-07
-0.000283057 8.25658e-05 2.41354e-07
9.12938e-07 2.41354e-07 -2.10645e-05
0.00186294 -0.000406006 -8.29199e-07
-0.000406006 8.59837e-05 1.75698e-06
-8.29199e-07 1.75698e-06 -8.36394e-05
0.0021909 -0.000373863 3.88826e-06
-0.000373863 0.000188647 -1.1636e-06
3.88826e-06 -1.1636e-06 9.04053e-05
0.000646676 -0.000236733 6.43279e-06
-0.000236733 2.07325e-05 -7.15141e-06
6.43279e-06 -7.15141e-06 -0.000207827
0.00195261 -0.000483737 -3.98986e-07
-0.000483737 0.000140658 1.46239e-06
-3.98986e-07 1.46239e-06 -4.05545e-05
0.00129813 -0.000437084 8.05536e-06
-0.000437084 0.000249211 -2.96032e-06
8.05536e-06 -2.96032e-06 -8.04359e-05
0.00184077 -0.000624158 6.57695e-06
-0.000624158 0.000330732 1.97171e-06
6.57695e-06 1.97171e-06 -4.03994e-05
0.00223785 -0.000595492 4.04375e-06
-0.000595492 0.000435777 4.13796e-06
4.04375e-06 4.13796e-06 0.00015098
0.00228641 -0.000556513 -2.92328e-06
-0.000556513 0.000413213 2.36459e-06
-2.92328e-06 2.36459e-06 0.000201664
0.00044156 -0.000112173 -1.23564e-07
-0.000112173 1.19689e-07 -6.08503e-06
-1.23564e-07 -6.08503e-06 -0.000170909
0.00119469 -0.000299053 7.65374e-07
-0.000299053 0.000316444 -2.27457e-06
7.65374e-07 -2.27457e-06 6.06161e-05
0.000543979 -0.000197236 2.40463e-07
-0.000197236 9.40513e-05 5.5679e-06
2.40463e-07 5.5679e-06 -0.000225228
0.00170367 -0.000382392 -2.68512e-06
-0.000382392 0.000659753 3.07244e-06
-2.68512e-06 3.07244e-06 0.000356886
0.00112517 0.000217579 -1.35349e-05
0.000217579 -3.3472e-05 -4.66878e-06
-1.35349e-05 -4.66878e-06 -0.000222007
0.000338147 -3.88226e-05 2.11661e-06
-3.88226e-05 -7.87697e-05 -1.23975e-05
2.11661e-06 -1.23975e-05 -0.00014025
0.000428004 9.96169e-05 -2.01781e-05
9.96169e-05 -7.75279e-05 -1.43528e-05
-2.01781e-05 -1.43528e-05 -0.00016206
-5.33204e-05 9.79973e-05 -2.42776e-06
9.79973e-05 -0.000315516 -3.93633e-06
-2.42776e-06 -3.93633e-06 -0.00052011
0.00104765 0.000261628 -1.71627e-05
0.000261628 3.55953e-07 -7.20314e-06
-1.71627e-05 -7.20314e-06 -0.000210932
0.00182527 0.000413868 -3.68823e-06
0.000413868 0.000190823 6.38158e-08
-3.68823e-06 6.38158e-08 -4.58333e-05
0.000635831 0.000219683 -6.27886e-06
0.000219683 9.86946e-06 -4.11696e-06
-6.27886e-06 -4.11696e-06 -0.000202666
0.00136194 0.000412777 -3.49385e-06
0.000412777 0.000294915 -1.42642e-06
-3.49385e-06 -1.42642e-06 -1.70641e-05
0.00175042 0.000473684 -4.04683e-06
0.000473684 0.000306916 4.73034e-07
-4.04683e-06 4.73034e-07 1.55539e-05
0.00148124 0.00053765 3.21659e-06
0.00053765 0.000135996 6.12649e-06
3.21659e-06 6.12649e-06 -0.000186311
0.000472256 -3.83168e-05 -3.64442e-06
-3.83168e-05 -7.33998e-06 8.05144e-07
-3.64442e-06 8.05144e-07 -5.4937e-05
0.00066408 0.000203924 -1.46872e-06
0.000203924 9.66996e-05 -6.56437e-07
-1.46872e-06 -6.56437e-07 -0.000131926
0.000615075 6.69644e-05 3.8637e-07
6.69644e-05 7.89097e-05 1.70097e-07
3.8637e-07 1.70097e-07 -6.74271e-05
0.000812122 0.000175314 2.9619e-07
0.000175314 0.000216416 -6.67225e-07
2.9619e-07 -6.67225e-07 -4.89202e-05
0.00191084 0.000368843 -1.22327e-06
0.000368843 0.000186194 -1.03473e-06
-1.22327e-06 -1.03473e-06 -1.7387e-05
0.00177155 0.000453048 -2.88579e-07
0.000453048 0.000235196 -2.35725e-07
-2.88579e-07 -2.35725e-07 -3.30657e-05
0.00204253 0.000481939 2.44012e-07
0.000481939 0.000236953 2.15644e-07
2.44012e-07 2.15644e-07 1.30999e-05
0.00107969 0.000321119 2.90694e-06
0.000321119 0.000189429 1.63793e-07
2.90694e-06 1.63793e-07 -8.16708e-05
0.00210341 0.000584837 -1.7675e-08
0.000584837 0.000428725 4.02376e-07
-1.7675e-08 4.02376e-07 0.000126932
0.00157137 0.000543248 -1.10983e-06
0.000543248 0.000331683 -1.78459e-06
-1.10983e-06 -1.78459e-06 -3.98602e-05
0.0018733 0.000573165 -4.21741e-06
0.000573165 0.000299374 1.96281e-06
-4.21741e-06 1.96281e-06 -8.64985e-06
0.000534858 -2.56432e-05 1.52792e-06
-2.56432e-05 1.60476e-05 8.29482e-06
1.52792e-06 8.29482e-06 -1.92692e-05
0.000862767 5.75892e-05 2.18046e-06
5.75892e-05 0.000232975 6.67601e-06
2.18046e-06 6.67601e-06 0.000119238
0.000767694 0.000235419 1.11496e-06
0.000235419 6.8532e-05 2.28218e-06
1.11496e-06 2.28218e-06 -0.000170081
0.00156825 0.000173032 6.04226e-07
0.000173032 0.000751479 1.041e-06
6.04226e-07 1.041e-06 0.00048322
0.00118862 0.000359936 -1.15793e-06
0.000359936 0.000397376 -2.79442e-07
-1.15793e-06 -2.79442e-07 0.000136969
0.00212566 0.000433885 -4.9897e-07
0.000433885 0.000218489 -2.90037e-06
-4.9897e-07 -2.90037e-06 3.44955e-05
0.00203817 0.000542499 -7.28725e-07
0.000542499 0.000301531 -1.34326e-06
-7.28725e-07 -1.34326e-06 3.44657e-05
0.0020685 0.000527609 -2.04714e-06
0.000527609 0.000231929 -1.00895e-06
-2.04714e-06 -1.00895e-06 1.40705e-05
0.00113999 0.000457271 5.25771e-06
0.000457271 0.000203185 6.40407e-07
5.25771e-06 6.40407e-07 -0.000150963
0.00228594 0.000650128 -2.4373e-06
0.000650128 0.000483044 -1.37411e-06
-2.4373e-06 -1.37411e-06 0.000180076
0.00161335 0.00059966 6.04759e-06
0.00059966 0.000290803 -3.53925e-06
6.04759e-06 -3.53925e-06 -7.72669e-05
0.000597957 4.34317e-05 2.18144e-06
4.34317e-05 7.29312e-05 4.80609e-06
2.18144e-06 4.80609e-06 -7.85175e-06
0.00062598 9.2394e-05 -3.19016e-07
9.2394e-05 0.000130598 2.49144e-06
-3.19016e-07 2.49144e-06 3.12086e-06
0.000587742 5.57451e-05 2.25745e-06
5.57451e-05 7.51482e-05 4.20033e-06
2.25745e-06 4.20033e-06 2.66642e-06
0.000528702 9.81331e-06 -6.73849e-07
9.81331e-06 3.27713e-05 -4.63051e-08
-6.73849e-07 -4.63051e-08 -4.22403e-05
0.00132099 -3.58989e-05 1.40767e-06
-3.58989e-05 0.00050284 4.09571e-06
1.40767e-06 4.09571e-06 0.000480429
0.000901769 -3.10721e-05 3.13453e-07
-3.10721e-05 0.000240676 -1.89884e-07
3.13453e-07 -1.89884e-07 0.000213527
0.000843367 -4.96415e-05 3.36864e-05
-4.96415e-05 0.000208499 9.32784e-06
3.36864e-05 9.32784e-06 0.000206586
0.00280883 -0.000124369 7.17243e-06
-0.000124369 0.00146365 -6.8638e-07
7.17243e-06 -6.8638e-07 0.00146198
0.00299894 -0.000147621 -4.50722e-05
-0.000147621 0.00159462 -3.99664e-06
-4.50722e-05 -3.99664e-06 0.00158648
0.000397557 -5.91356e-05 8.64428e-06
-5.91356e-05 -5.20097e-05 -1.18774e-05
8.64428e-06 -1.18774e-05 -0.000110759
0.00446597 0.000170139 0.000105099
0.000170139 0.0025423 -1.01465e-05
0.000105099 -1.01465e-05 0.00252296
0.000481457 -0.000103402 -1.55346e-06
-0.000103402 -1.50757e-05 6.33471e-07
-1.55346e-06 6.33471e-07 -9.25944e-05
0.00524446 0.000144711 -8.83493e-06
0.000144711 0.0030309 -8.54793e-07
-8.83493e-06 -8.54793e-07 0.00301493
0.000495144 -0.000129916 -2.02692e-05
-0.000129916 -3.19969e-05 1.56186e-05
-2.02692e-05 1.56186e-05 -0.000125023
0.00601745 0.0001342 -0.00021143
0.0001342 0.00350958 2.38475e-05
-0.00021143 2.38475e-05 0.0034932
0.00112238 0.000185425 -1.17682e-05
0.000185425 -5.37855e-05 -3.16862e-06
-1.17682e-05 -3.16862e-06 -0.000228036
0.00109686 0.000111668 -1.19188e-05
0.000111668 -6.91369e-05 -1.27446e-06
-1.19188e-05 -1.27446e-06 -0.000215065
0.00190338 0.000243504 -2.04424e-06
0.000243504 0.000117886 9.74545e-07
-2.04424e-06 9.74545e-07 -2.58949e-05
0.00184809 0.000106225 -5.24731e-07
0.000106225 8.89468e-05 1.02639e-06
-5.24731e-07 1.02639e-06 -1.55904e-05
0.0010396 3.83026e-05 -1.15153e-05
3.83026e-05 -7.86001e-05 -3.16584e-07
-1.15153e-05 -3.16584e-07 -0.000207432
0.000400776 2.89195e-05 -1.90251e-05
2.89195e-05 -0.000208198 -6.26788e-07
-1.90251e-05 -6.26788e-07 -0.000284728
0.00103795 1.69289e-07 -6.28033e-08
1.69289e-07 -7.02137e-05 -5.96059e-08
-6.28033e-08 -5.96059e-08 -0.000197073
0.00182166 5.21606e-05 -1.06579e-07
5.21606e-05 6.96299e-05 2.0589e-07
-1.06579e-07 2.0589e-07 -2.66048e-05
0.00189021 0.00017448 -7.62164e-08
0.00017448 0.00010724 1.05746e-08
-7.62164e-08 1.05746e-08 -1.36566e-05
0.00200181 0.000134088 -9.16715e-08
0.000134088 4.88208e-05 6.03438e-08
-9.16715e-08 6.03438e-08 -1.61456e-06
0.00193874 0.000313232 -4.45654e-07
0.000313232 0.000160078 -1.98408e-08
-4.45654e-07 -1.98408e-08 -1.19568e-05
0.00204393 0.000277863 -4.81411e-07
0.000277863 0.000102892 1.48229e-07
-4.81411e-07 1.48229e-07 -2.42767e-06
0.00180166 -6.92456e-07 1.27045e-06
-6.92456e-07 6.39526e-05 1.66878e-07
1.27045e-06 1.66878e-07 -3.06869e-05
0.00198733 6.42184e-05 3.18512e-06
6.42184e-05 4.00111e-05 3.99628e-07
3.18512e-06 3.99628e-07 1.10152e-06
0.00198837 0.000201768 3.51117e-06
0.000201768 5.34991e-05 7.35856e-07
3.51117e-06 7.35856e-07 -1.9655e-05
0.00202205 0.000124238 6.38935e-06
0.000124238 3.16125e-05 8.54686e-07
6.38935e-06 8.54686e-07 1.07379e-05
0.00214221 0.000369206 8.01925e-07
0.000369206 0.000190438 -1.01324e-06
8.01925e-07 -1.01324e-06 4.50346e-05
0.00205466 0.000292008 3.0337e-06
0.000292008 2.18292e-05 1.07777e-06
3.0337e-06 1.07777e-06 -3.79531e-05
0.00104589 -2.27592e-05 -1.20578e-05
-2.27592e-05 -6.97581e-05 6.6715e-07
-1.20578e-05 6.6715e-07 -0.000192228
0.00189912 -0.000115856 -2.77847e-05
-0.000115856 0.000451652 3.05484e-06
-2.77847e-05 3.05484e-06 0.00032094
0.00192615 -0.000108089 -2.30606e-06
-0.000108089 0.000147189 -4.00074e-07
-2.30606e-06 -4.00074e-07 4.29697e-05
0.00181557 -0.000241207 -2.83155e-06
-0.000241207 0.000120692 6.85986e-07
-2.83155e-06 6.85986e-07 -3.47872e-05
0.000557462 -0.000214058 -2.58061e-05
-0.000214058 -2.51798e-05 1.98071e-05
-2.58061e-05 1.98071e-05 -0.00014119
0.000859074 -0.00025865 -1.19586e-05
-0.00025865 7.38046e-05 8.18576e-06
-1.19586e-05 8.18576e-06 -0.000157565
0.00145558 -0.000475936 -6.73173e-06
-0.000475936 0.000207558 1.60548e-06
-6.73173e-06 1.60548e-06 -0.000120781
0.00191584 -0.000354187 -5.19962e-06
-0.000354187 0.000233893 1.16018e-06
-5.19962e-06 1.16018e-06 2.78209e-05
0.00202158 -0.000346347 6.20194e-08
-0.000346347 0.000130189 -1.09121e-06
6.20194e-08 -1.09121e-06 1.41305e-06
0.00200107 -0.00045877 -4.84899e-07
-0.00045877 0.000226375 -1.27206e-06
-4.84899e-07 -1.27206e-06 1.74074e-05
0.00222571 -0.000574033 -2.8345e-06
-0.000574033 0.000471575 -3.71361e-06
-2.8345e-06 -3.71361e-06 0.000172061
0.00193218 -0.000515461 2.37571e-06
-0.000515461 0.000175713 -2.76418e-06
2.37571e-06 -2.76418e-06 -4.32692e-05
0.000880721 -0.000205786 -5.49781e-06
-0.000205786 0.000210114 4.50008e-06
-5.49781e-06 4.50008e-06 -2.76954e-05
0.000329687 -0.000158012 9.13479e-07
-0.000158012 -0.000152861 -2.10827e-06
9.13479e-07 -2.10827e-06 -0.00041624
0.000669475 -0.000166213 -6.89785e-07
-0.000166213 0.000127816 1.06577e-06
-6.89785e-07 1.06577e-06 -7.94131e-05
0.00183959 -4.87285e-05 2.99528e-07
-4.87285e-05 9.53282e-05 -2.79929e-09
2.99528e-07 -2.79929e-09 -5.71518e-06
0.00190022 -0.00018256 -2.81252e-06
-0.00018256 0.000141656 3.96053e-07
-2.81252e-06 3.96053e-07 1.81796e-05
0.00200199 -0.000126592 2.61058e-06
-0.000126592 6.79253e-05 -4.34596e-07
2.61058e-06 -4.34596e-07 9.83651e-06
0.00196119 -0.000275085 -1.09636e-06
-0.000275085 7.80728e-05 4.85673e-07
-1.09636e-06 4.85673e-07 -2.76609e-05
0.000748488 -0.000242049 7.88847e-07
-0.000242049 8.28521e-05 -3.1812e-07
7.88847e-07 -3.1812e-07 -0.000148883
0.00136996 -0.000447305 -8.61442e-07
-0.000447305 0.000285926 -2.88614e-07
-8.61442e-07 -2.88614e-07 -4.55142e-05
0.00179894 -0.000616684 6.9933e-07
-0.000616684 0.000320296 8.66789e-07
6.9933e-07 8.66789e-07 -5.24864e-05
0.00186505 -0.000403491 -1.33038e-06
-0.000403491 9.31457e-05 1.02083e-06
-1.33038e-06 1.02083e-06 -8.17904e-05
0.00213032 -0.000374768 8.99712e-07
-0.000374768 0.000141623 -4.22309e-07
8.99712e-07 -4.22309e-07 4.7609e-05
0.00211756 -0.000592542 -2.92784e-07
-0.000592542 0.000349805 5.11394e-07
-2.92784e-07 5.11394e-07 6.33973e-05
0.00198061 -0.00048482 -1.99842e-07
-0.00048482 0.000156679 6.64617e-07
-1.99842e-07 6.64617e-07 -2.48986e-05
0.00221231 -0.000540812 6.33983e-07
-0.000540812 0.000357633 -6.21594e-07
6.33983e-07 -6.21594e-07 0.000152603
0.0010521 -0.000292968 -5.13587e-07
-0.000292968 0.000237833 1.0218e-06
-5.13587e-07 1.0218e-06 -2.69649e-05
0.00125342 -0.000342276 -8.70643e-07
-0.000342276 0.000374056 2.09303e-06
-8.70643e-07 2.09303e-06 7.33301e-05
0.000678595 -0.000124393 -2.94088e-07
-0.000124393 0.000148009 -6.16165e-07
-2.94088e-07 -6.16165e-07 -2.9379e-05
9.42789e-05 -0.000110899 1.06775e-06
-0.000110899 -0.000207606 -2.41154e-06
1.06775e-06 -2.41154e-06 -0.000500015
0.00200954 -6.59084e-05 4.8493e-06
-6.59084e-05 7.32586e-05 -6.86982e-07
4.8493e-06 -6.86982e-07 2.57983e-05
0.00193123 -0.000207174 3.60134e-06
-0.000207174 2.3771e-05 -1.04727e-06
3.60134e-06 -1.04727e-06 -5.91762e-05
0.00198919 -0.000119276 6.76931e-06
-0.000119276 4.79609e-05 -1.24091e-06
6.76931e-06 -1.24091e-06 2.70892e-05
0.00206088 -0.000303188 1.41467e-06
-0.000303188 4.41025e-05 -6.6925e-07
1.41467e-06 -6.6925e-07 -3.83997e-06
0.00192809 -0.000433825 -7.14033e-07
-0.000433825 7.63515e-05 2.16972e-08
-7.14033e-07 2.16972e-08 -6.51457e-05
0.00209695 -0.000386913 4.30759e-06
-0.000386913 8.43772e-05 -1.50485e-06
4.30759e-06 -1.50485e-06 1.06925e-05
0.0013289 -0.000381738 5.83017e-06
-0.000381738 0.000364867 -5.36834e-06
5.83017e-06 -5.36834e-06 6.27462e-05
0.00199201 -0.000514394 -3.16634e-06
-0.000514394 0.000140298 -1.97903e-08
-3.16634e-06 -1.97903e-08 -2.20795e-05
0.00158025 -0.00061421 -3.24466e-06
-0.00061421 0.000346516 3.28078e-06
-3.24466e-06 3.28078e-06 -6.06071e-05
0.00202955 -0.00068669 4.87097e-06
-0.00068669 0.00040108 2.98535e-06
4.87097e-06 2.98535e-06 1.95565e-05
0.00207042 -0.000601219 -8.90388e-07
-0.000601219 0.000276306 4.3975e-06
-8.90388e-07 4.3975e-06 -1.10225e-06
0.00229473 -0.000575411 -1.14092e-05
-0.000575411 0.00037975 -1.95545e-06
-1.14092e-05 -1.95545e-06 0.000164477
0.000485244 -0.000110314 -1.26162e-06
-0.000110314 2.44778e-05 -6.96758e-06
-1.26162e-06 -6.96758e-06 -0.00011364
2.67698e-05 -0.000137508 -4.09635e-06
-0.000137508 -0.000170395 -1.23133e-06
-4.09635e-06 -1.23133e-06 -0.000468848
0.00140231 -0.000416205 -1.71391e-07
-0.000416205 0.000435682 -3.55322e-06
-1.71391e-07 -3.55322e-06 0.000111128
0.00255447 -0.000420884 -4.19238e-06
-0.000420884 0.00127413 1.0599e-05
-4.19238e-06 1.0599e-05 0.000943402
0.00168601 -0.00043347 -1.10823e-05
-0.00043347 0.00064508 7.65326e-06
-1.10823e-05 7.65326e-06 0.000291802
0.000321975 -4.39025e-05 -5.20337e-07
-4.39025e-05 -9.99441e-05 -9.34788e-06
-5.20337e-07 -9.34788e-06 -0.000146498
0.00188598 0.000366413 -2.86139e-06
0.000366413 0.000171215 -3.1493e-07
-2.86139e-06 -3.1493e-07 -3.23018e-05
0.000236287 3.60621e-05 -1.26519e-06
3.60621e-05 -0.000150653 -6.2828e-06
-1.26519e-06 -6.2828e-06 -0.000290281
0.000430476 0.000200006 -6.80886e-06
0.000200006 -7.14591e-05 -1.11821e-06
-6.80886e-06 -1.11821e-06 -0.000286099
0.00058854 0.000159766 -8.6413e-07
0.000159766 6.08256e-05 8.70129e-07
-8.6413e-07 8.70129e-07 -0.000193038
0.00175399 0.000452983 -4.70279e-06
0.000452983 0.000222701 -1.05085e-07
-4.70279e-06 -1.05085e-07 -4.63858e-05
0.00201376 0.000478076 1.07686e-06
0.000478076 0.000222532 1.57784e-06
1.07686e-06 1.57784e-06 -4.89835e-07
0.00142942 0.000366847 -2.46243e-06
0.000366847 0.000428413 -3.40547e-06
-2.46243e-06 -3.40547e-06 0.000144927
0.00141607 0.00053722 4.67192e-07
0.00053722 0.000227304 3.06076e-06
4.67192e-07 3.06076e-06 -0.000147519
0.00199528 0.000566014 2.03303e-06
0.000566014 0.000369552 3.25357e-06
2.03303e-06 3.25357e-06 6.96169e-05
0.00195465 0.000576435 3.64994e-06
0.000576435 0.000352397 9.11701e-06
3.64994e-06 9.11701e-06 4.8647e-05
0.00045873 -2.18714e-05 -9.30524e-07
-2.18714e-05 -3.11169e-05 2.98312e-07
-9.30524e-07 2.98312e-07 -6.56286e-05
0.000596875 4.24981e-05 3.6067e-07
4.24981e-05 7.17745e-05 3.48553e-07
3.6067e-07 3.48553e-07 -3.82752e-05
0.000944643 0.000268404 7.71658e-07
0.000268404 0.000182096 1.6667e-06
7.71658e-07 1.6667e-06 -5.89853e-05
0.00068833 0.000113361 4.15751e-07
0.000113361 0.000194055 -9.87423e-07
4.15751e-07 -9.87423e-07 -6.00295e-05
0.000725668 0.000262781 -2.01151e-06
0.000262781 6.37839e-05 2.61187e-06
-2.01151e-06 2.61187e-06 -0.000163901
0.00209627 0.000432425 -1.6573e-06
0.000432425 0.000200236 -1.81338e-06
-1.6573e-06 -1.81338e-06 1.6426e-05
0.00200597 0.000539552 5.71944e-07
0.000539552 0.000283546 1.45779e-07
5.71944e-07 1.45779e-07 1.70256e-05
0.00200508 0.000523738 1.67574e-06
0.000523738 0.000194298 1.62114e-07
1.67574e-06 1.62114e-07 -2.33439e-05
0.00137612 0.000480931 2.31574e-06
0.000480931 0.000358984 3.61421e-07
2.31574e-06 3.61421e-07 -3.13675e-06
0.00217491 0.000636934 2.31665e-06
0.000636934 0.000401391 3.58806e-07
2.31665e-06 3.58806e-07 9.91536e-05
0.0019562 0.000633733 -3.31602e-06
0.000633733 0.000505748 -5.25035e-08
-3.31602e-06 -5.25035e-08 0.000132863
0.000642905 4.06171e-05 6.87734e-07
4.06171e-05 0.000101084 5.33086e-06
6.87734e-07 5.33086e-06 9.27075e-06
0.00143087 0.000176173 2.08844e-07
0.000176173 0.000653785 2.95976e-06
2.08844e-07 2.95976e-06 0.000451676
0.00100069 0.00035316 -2.16056e-06
0.00035316 0.00018616 5.15584e-06
-2.16056e-06 5.15584e-06 -9.3415e-05
0.00118011 0.000173153 4.47476e-06
0.000173153 0.000468745 -3.94771e-06
4.47476e-06 -3.94771e-06 0.000190323
0.0022866 0.000341301 -4.8139e-06
0.000341301 0.000948677 2.75984e-07
-4.8139e-06 2.75984e-07 0.000718094
0.00207418 0.000454566 -3.97151e-06
0.000454566 0.00016372 -2.19325e-06
-3.97151e-06 -2.19325e-06 -6.4317e-06
0.00205555 0.00059222 -1.40049e-06
0.00059222 0.000277417 -5.87119e-07
-1.40049e-06 -5.87119e-07 1.25322e-05
0.00192211 0.000569325 5.74096e-06
0.000569325 0.000101573 1.02269e-07
5.74096e-06 1.02269e-07 -0.000123548
0.00125035 0.000549796 8.96905e-06
0.000549796 0.000295937 -2.79637e-06
8.96905e-06 -2.79637e-06 -0.000110771
0.00160332 0.000625691 1.11468e-05
0.000625691 0.000179174 -1.10417e-06
1.11468e-05 -1.10417e-06 -0.000158982
0.000571738 3.69349e-05 -3.69393e-07
3.69349e-05 5.36016e-05 2.1539e-07
-3.69393e-07 2.1539e-07 -2.5208e-05
0.000334567 5.91305e-05 3.12568e-07
5.91305e-05 -7.21244e-05 2.76457e-06
3.12568e-07 2.76457e-06 -0.000190933
0.000354813 5.74651e-05 -5.80887e-07
5.74651e-05 -5.57647e-05 -2.54309e-07
-5.80887e-07 -2.54309e-07 -0.000168536
0.00102785 0.000156802 -1.64262e-06
0.000156802 0.000386594 -1.12915e-06
-1.64262e-06 -1.12915e-06 0.000241247
0.00069406 0.00011637 1.56655e-06
0.00011637 0.000177623 2.68438e-06
1.56655e-06 2.68438e-06 5.37718e-05
0.000544287 6.41612e-05 2.47694e-06
6.41612e-05 5.34363e-05 3.75484e-06
2.47694e-06 3.75484e-06 -1.75991e-05
0.000528627 1.57013e-05 -6.75863e-07
1.57013e-05 3.80529e-05 -5.65413e-08
-6.75863e-07 -5.65413e-08 -3.37839e-05
0.00129192 -2.09096e-05 1.30325e-06
-2.09096e-05 0.000483633 3.68504e-06
1.30325e-06 3.68504e-06 0.000464346
0.000549892 2.59897e-05 -1.52123e-06
2.59897e-05 4.06326e-05 -4.53348e-06
-1.52123e-06 -4.53348e-06 -3.09264e-05
0.00135166 -3.04712e-05 -8.23047e-06
-3.04712e-05 0.000521478 -1.58997e-06
-8.23047e-06 -1.58997e-06 0.000500524
0.000795619 -3.59874e-05 3.329e-05
-3.59874e-05 0.000171046 9.17172e-06
3.329e-05 9.17172e-06 0.000173603
0.00138188 -3.7829e-05 -1.47066e-05
-3.7829e-05 0.00054459 -5.51949e-06
-1.47066e-05 -5.51949e-06 0.00052068
0.00172684 -7.55828e-05 3.2653e-05
-7.55828e-05 0.000769164 1.50026e-06
3.2653e-05 1.50026e-06 0.00076987
0.00271675 -0.000120117 -3.88701e-05
-0.000120117 0.00140421 -4.30807e-06
-3.88701e-05 -4.30807e-06 0.00140353
0.000303468 8.02633e-05 -6.6941e-06
8.02633e-05 -8.18037e-05 -9.75771e-06
-6.6941e-06 -9.75771e-06 -0.00014077
0.000436683 -4.18294e-05 -6.23806e-07
-4.18294e-05 -2.29863e-05 6.74586e-07
-6.23806e-07 6.74586e-07 -8.7471e-05
0.00359183 0.00018577 1.42973e-05
0.00018577 0.00198486 -7.22508e-06
1.42973e-05 -7.22508e-06 0.00196176
0.00462512 0.000133079 -1.5723e-05
0.000133079 0.00263678 -1.4542e-06
-1.5723e-05 -1.4542e-06 0.00262583
0.000583064 -0.000106052 -1.64508e-05
-0.000106052 4.42755e-05 1.3726e-05
-1.64508e-05 1.3726e-05 -3.62544e-05
0.00548417 0.00013368 -0.000183476
0.00013368 0.00318095 2.17162e-05
-0.000183476 2.17162e-05 0.00316567
0.0019091 0.000310791 -1.81582e-06
0.000310791 0.000144916 1.04671e-06
-1.81582e-06 1.04671e-06 -2.70726e-05
0.00185268 0.000173636 -1.03295e-06
0.000173636 8.51582e-05 8.71607e-07
-1.03295e-06 8.71607e-07 -3.60449e-05
0.00204001 0.000278434 -2.33872e-06
0.000278434 0.000102174 8.36975e-07
-2.33872e-06 8.36975e-07 -3.62575e-06
0.00199722 0.000132061 -3.55945e-06
0.000132061 3.57591e-05 -4.55215e-07
-3.55945e-06 -4.55215e-07 -1.17796e-05
0.00183263 5.4147e-05 -1.06021e-06
5.4147e-05 8.11414e-05 4.93971e-07
-1.06021e-06 4.93971e-07 -1.5131e-05
0.00104034 4.9581e-06 -1.11625e-05
4.9581e-06 -6.87412e-05 5.68696e-08
-1.11625e-05 5.68696e-08 -0.000195533
0.00181314 2.69932e-06 7.88442e-08
2.69932e-06 7.23223e-05 1.80214e-07
7.88442e-08 1.80214e-07 -2.23712e-05
0.00198135 5.54228e-05 -6.50834e-07
5.54228e-05 3.81995e-05 5.06118e-09
-6.50834e-07 5.06118e-09 -8.24507e-07
0.00201455 0.00020256 -3.34482e-07
0.00020256 6.82099e-05 3.56664e-07
-3.34482e-07 3.56664e-07 -5.12434e-06
0.00199652 0.000122585 2.78354e-07
0.000122585 9.37273e-06 -5.80744e-08
2.78354e-07 -5.80744e-08 -6.18367e-06
0.00210728 0.00036963 -4.24564e-07
0.00036963 0.000161681 1.25683e-09
-4.24564e-07 1.25683e-09 1.60533e-05
0.00204843 0.000285691 1.57926e-07
0.000285691 1.9911e-05 2.04347e-07
1.57926e-07 2.04347e-07 -3.91519e-05
0.00197457 -5.38567e-06 4.09729e-06
-5.38567e-06 4.11236e-05 -6.31619e-08
4.09729e-06 -6.31619e-08 3.8023e-08
0.00199778 5.31553e-05 5.59595e-06
5.31553e-05 2.90675e-05 1.67554e-07
5.59595e-06 1.67554e-07 1.97775e-05
0.00205203 0.000198736 3.0367e-06
0.000198736 2.00677e-05 6.00534e-07
3.0367e-06 6.00534e-07 -5.27009e-06
0.00208323 0.000125639 2.66156e-06
0.000125639 8.72212e-06 2.90406e-07
2.66156e-06 2.90406e-07 1.67641e-05
0.00199565 0.000360721 1.21529e-06
0.000360721 4.71641e-05 1.60384e-07
1.21529e-06 1.60384e-07 -6.95251e-05
0.00223571 0.000292931 3.32051e-06
0.000292931 7.09967e-05 1.02947e-06
3.32051e-06 1.02947e-06 4.74375e-05
0.00186163 -4.56702e-05 -1.77919e-06
-4.56702e-05 0.000107751 -3.30331e-07
-1.77919e-06 -3.30331e-07 1.01283e-05
0.00187143 -0.000187568 -3.42208e-06
-0.000187568 0.000121634 -1.38795e-08
-3.42208e-06 -1.38795e-08 -2.95025e-06
0.0019927 -0.000124607 -9.91357e-07
-0.000124607 5.62433e-05 3.95381e-07
-9.91357e-07 3.95381e-07 4.15642e-06
0.00194437 -0.000267563 -2.67536e-06
-0.000267563 7.16095e-05 5.20664e-07
-2.67536e-06 5.20664e-07 -3.63379e-05
0.000751708 -0.000240298 -9.39766e-06
-0.000240298 8.10104e-05 8.25324e-06
-9.39766e-06 8.25324e-06 -0.000152016
0.00132852 -0.000442925 -8.37145e-06
-0.000442925 0.000255836 2.04309e-06
-8.37145e-06 2.04309e-06 -7.35649e-05
0.00161511 -0.000594429 1.65399e-06
-0.000594429 0.000225515 -1.92791e-06
1.65399e-06 -1.92791e-06 -0.00014645
0.00186365 -0.000400664 -1.44073e-06
-0.000400664 9.84982e-05 8.54538e-08
-1.44073e-06 8.54538e-08 -8.18738e-05
0.0020574 -0.000374356 -1.29759e-06
-0.000374356 8.70465e-05 4.68144e-07
-1.29759e-06 4.68144e-07 -2.58903e-06
0.00200031 -0.000485248 9.8334e-09
-0.000485248 0.000168303 -1.55826e-07
9.8334e-09 -1.55826e-07 -1.35727e-05
0.00199267 -0.000593247 -2.61581e-06
-0.000593247 0.000261007 -3.67816e-06
-2.61581e-06 -3.67816e-06 -2.8478e-05
0.002093 -0.000528125 8.75085e-06
-0.000528125 0.000280602 -4.34177e-06
8.75085e-06 -4.34177e-06 8.03315e-05
0.000844576 -0.000271599 -8.08648e-07
-0.000271599 0.000119202 2.55471e-06
-8.08648e-07 2.55471e-06 -0.000149392
0.000688843 -0.000262531 2.47598e-06
-0.000262531 -7.29304e-06 -8.00981e-07
2.47598e-06 -8.00981e-07 -0.000288077
0.000966292 -0.000133554 -6.31712e-07
-0.000133554 0.000323153 5.49441e-06
-6.31712e-07 5.49441e-06 0.000142029
-0.000165975 -7.24927e-05 2.06855e-06
-7.24927e-05 -0.00039004 -6.57754e-06
2.06855e-06 -6.57754e-06 -0.000658506
0.00200915 -6.57268e-05 -2.33206e-07
-6.57268e-05 7.38829e-05 1.05682e-07
-2.33206e-07 1.05682e-07 2.63965e-05
0.00196746 -0.00020774 3.03863e-06
-0.00020774 5.40132e-05 -9.24341e-07
3.03863e-06 -9.24341e-07 -2.96301e-05
0.0019639 -0.000117923 9.1379e-07
-0.000117923 2.68118e-05 -1.38243e-07
9.1379e-07 -1.38243e-07 7.24191e-06
0.00206728 -0.000302362 -9.11893e-07
-0.000302362 5.48396e-05 2.51247e-07
-9.11893e-07 2.51247e-07 2.04739e-06
0.00116013 -0.000352663 -2.74002e-06
-0.000352663 0.000244246 1.9742e-08
-2.74002e-06 1.9742e-08 -4.79657e-05
0.00149493 -0.000592621 1.809e-06
-0.000592621 0.000307153 -4.39571e-07
1.809e-06 -4.39571e-07 -9.35554e-05
0.00193863 -0.000689689 -3.23562e-07
-0.000689689 0.000342617 3.81335e-07
-3.23562e-07 3.81335e-07 -4.46003e-05
0.00194012 -0.000430285 -1.2431e-06
-0.000430285 9.12898e-05 5.91548e-07
-1.2431e-06 5.91548e-07 -5.41139e-05
0.00206242 -0.000386925 1.14747e-06
-0.000386925 6.3487e-05 -2.11334e-07
1.14747e-06 -2.11334e-07 -6.23989e-06
0.00204718 -0.000602421 -2.88087e-07
-0.000602421 0.000287312 3.75294e-07
-2.88087e-07 3.75294e-07 8.04683e-06
0.00194407 -0.00051291 -9.07221e-07
-0.00051291 0.000104663 9.83896e-07
-9.07221e-07 9.83896e-07 -5.867e-05
0.00217874 -0.000561114 3.53469e-06
-0.000561114 0.000302558 -4.74461e-06
3.53469e-06 -4.74461e-06 9.45318e-05
0.00132147 -0.000405899 -1.13144e-06
-0.000405899 0.00038537 -5.39121e-07
-1.13144e-06 -5.39121e-07 6.41088e-05
0.00156187 -0.000417046 -1.08552e-06
-0.000417046 0.000547544 1.60076e-06
-1.08552e-06 1.60076e-06 0.000202958
0.00109699 -0.000287137 1.01529e-06
-0.000287137 0.000351852 -1.83273e-07
1.01529e-06 -1.83273e-07 4.25862e-05
0.00028821 -8.17459e-05 -2.26238e-06
-8.17459e-05 -0.000100512 9.69793e-07
-2.26238e-06 9.69793e-07 -0.000239152
-2.57263e-05 -8.54546e-05 -8.34228e-07
-8.54546e-05 -0.000223816 -1.01228e-06
-8.34228e-07 -1.01228e-06 -0.000501243
0.00193442 -6.46132e-05 4.87612e-06
-6.46132e-05 -9.50687e-06 -3.52629e-07
4.87612e-06 -3.52629e-07 -1.651e-05
0.00199447 -0.000182425 3.81366e-06
-0.000182425 3.10907e-06 -1.03392e-06
3.81366e-06 -1.03392e-06 -1.58623e-05
0.00211827 -0.000354695 7.67822e-07
-0.000354695 1.31256e-05 -4.52833e-07
7.67822e-07 -4.52833e-07 -1.38883e-05
0.0020804 -0.000452116 2.06523e-06
-0.000452116 9.81801e-05 -1.95794e-06
2.06523e-06 -1.95794e-06 6.95642e-06
0.00144769 -0.000498824 -4.92068e-08
-0.000498824 0.000410859 -1.02058e-06
-4.92068e-08 -1.02058e-06 3.80378e-05
0.00223555 -0.000618565 -5.85519e-06
-0.000618565 0.000193374 -5.27933e-06
-5.85519e-06 -5.27933e-06 6.83167e-06
0.00122617 -0.000650322 -1.66028e-05
-0.000650322 0.000128768 6.71124e-06
-1.66028e-05 6.71124e-06 -0.000302628
0.00206468 -0.000753262 1.48381e-06
-0.000753262 0.000380885 6.79461e-07
1.48381e-06 6.79461e-07 -1.95309e-05
0.00186342 -0.000567252 -1.58954e-05
-0.000567252 0.000171185 8.0992e-07
-1.58954e-05 8.0992e-07 -9.14596e-05
3.11677e-05 -1.02366e-05 -2.9663e-06
-1.02366e-05 -0.000247577 -6.269e-06
-2.9663e-06 -6.269e-06 -0.000356309
0.000823432 -0.00015639 -2.43506e-06
-0.00015639 0.000317946 -1.04163e-06
-2.43506e-06 -1.04163e-06 7.47686e-05
0.000988836 -0.000217988 -1.93953e-06
-0.000217988 0.000393777 -4.31869e-06
-1.93953e-06 -4.31869e-06 0.000100675
0.00167098 -0.000497674 -1.01667e-05
-0.000497674 0.000590887 3.70316e-06
-1.01667e-05 3.70316e-06 0.000215497
0.00198815 -0.000358761 -3.37477e-06
-0.000358761 0.000852947 1.21122e-05
-3.37477e-06 1.21122e-05 0.000525311
0.000851675 -0.000387054 -1.18769e-05
-0.000387054 7.35635e-05 1.66959e-05
-1.18769e-05 1.66959e-05 -0.000281167
0.000401921 -1.9762e-05 -2.25545e-06
-1.9762e-05 -6.6367e-05 -7.55204e-06
-2.25545e-06 -7.55204e-06 -0.000100196
0.000517347 3.10479e-05 -4.59836e-07
3.10479e-05 2.7577e-05 -6.73323e-06
-4.59836e-07 -6.73323e-06 -8.09996e-05
0.00206949 0.000431066 -2.10563e-06
0.000431066 0.000183878 -4.81066e-07
-2.10563e-06 -4.81066e-07 2.50482e-07
-8.743e-05 2.40568e-05 3.67662e-07
2.40568e-05 -0.000292083 -2.0869e-06
3.67662e-07 -2.0869e-06 -0.000538589
0.00111408 0.000281641 -1.35992e-06
0.000281641 0.000287002 1.30842e-07
-1.35992e-06 1.30842e-07 5.17653e-05
0.000449746 0.000197266 -2.74744e-06
0.000197266 -0.000143189 2.35133e-06
-2.74744e-06 2.35133e-06 -0.000345171
0.00196594 0.000535509 1.65899e-06
0.000535509 0.000261982 1.52103e-06
1.65899e-06 1.52103e-06 -3.74655e-06
0.00195436 0.000520583 2.27497e-06
0.000520583 0.000164939 6.92064e-07
2.27497e-06 6.92064e-07 -5.25239e-05
0.0016859 0.000509593 -1.15445e-06
0.000509593 0.000565671 -5.37959e-07
-1.15445e-06 -5.37959e-07 0.000194415
0.00222483 0.00065369 -4.02743e-06
0.00065369 0.000679241 2.81167e-06
-4.02743e-06 2.81167e-06 0.000307695
0.00204514 0.000622889 9.85476e-07
0.000622889 0.000307752 2.30695e-06
9.85476e-07 2.30695e-06 6.26634e-06
0.000584005 3.69948e-05 -4.66074e-07
3.69948e-05 6.72624e-05 5.77763e-07
-4.66074e-07 5.77763e-07 -2.48212e-05
0.000756063 8.71791e-05 -1.12912e-06
8.71791e-05 0.000221996 2.12361e-07
-1.12912e-06 2.12361e-07 3.70035e-05
0.00123951 0.000379537 8.15336e-07
0.000379537 0.000328661 1.44489e-06
8.15336e-07 1.44489e-06 4.45069e-05
0.000953337 0.000149179 2.42523e-06
0.000149179 0.00031777 -1.28933e-06
2.42523e-06 -1.28933e-06 4.52064e-05
0.000554326 0.000202031 2.9168e-06
0.000202031 -0.000139014 -6.34446e-07
2.9168e-06 -6.34446e-07 -0.000341749
0.00202955 0.000454368 -2.3673e-06
0.000454368 0.00013993 -1.56955e-06
-2.3673e-06 -1.56955e-06 -3.09868e-05
0.00207749 0.000593921 1.93464e-06
0.000593921 0.000288495 5.96005e-07
1.93464e-06 5.96005e-07 2.32197e-05
0.00198503 0.000570015 1.04339e-06
0.000570015 0.000137346 2.11435e-07
1.04339e-06 2.11435e-07 -8.67495e-05
0.00136872 0.000573737 2.22573e-06
0.000573737 0.000350556 9.15328e-07
2.22573e-06 9.15328e-07 -5.76726e-05
0.00176918 0.000646839 -2.19168e-06
0.000646839 0.000293839 -2.00173e-06
-2.19168e-06 -2.00173e-06 -5.20998e-05
0.00105412 0.00012493 1.28715e-06
0.00012493 0.000396253 3.29782e-06
1.28715e-06 3.29782e-06 0.000249801
-0.000184185 -1.03441e-05 -2.75934e-06
-1.03441e-05 -0.000304758 1.14345e-06
-2.75934e-06 1.14345e-06 -0.000557085
0.00148777 0.000460419 -2.17457e-06
0.000460419 0.000474486 -2.28099e-06
-2.17457e-06 -2.28099e-06 0.000137778
-0.000629485 0.000111982 5.06183e-06
0.000111982 -0.000770045 -1.86961e-06
5.06183e-06 -1.86961e-06 -0.000994845
0.00257398 0.000492765 -3.27899e-06
0.000492765 0.0010606 -3.19998e-06
-3.27899e-06 -3.19998e-06 0.000788251
0.00199054 0.000490646 1.14344e-06
0.000490646 3.00302e-05 -1.00209e-07
1.14344e-06 -1.00209e-07 -0.000115587
0.00213591 0.000654598 9.15583e-06
0.000654598 0.000290532 -1.64515e-06
9.15583e-06 -1.64515e-06 -1.49501e-06
0.00202212 0.000603093 1.01352e-05
0.000603093 0.0001288 1.95153e-06
1.01352e-05 1.95153e-06 -0.000112686
0.00134973 0.00059697 9.78584e-06
0.00059697 0.000286516 1.15972e-06
9.78584e-06 1.15972e-06 -0.000119158
0.00204063 0.000738812 2.98381e-06
0.000738812 0.00046537 -4.26987e-08
2.98381e-06 -4.26987e-08 8.58044e-05
0.000523857 2.89455e-05 -1.77339e-06
2.89455e-05 2.17853e-05 -4.73636e-06
-1.77339e-06 -4.73636e-06 -5.55481e-05
0.000529743 7.44992e-05 1.32444e-06
7.44992e-05 5.45853e-05 3.8944e-07
1.32444e-06 3.8944e-07 -6.75683e-05
0.000276665 5.98443e-05 -4.18988e-07
5.98443e-05 -0.000109974 1.37443e-06
-4.18988e-07 1.37443e-06 -0.000223781
0.000109997 -2.04712e-05 2.67515e-08
-2.04712e-05 -0.000202023 -3.26172e-06
2.67515e-08 -3.26172e-06 -0.000315934
0.000593344 6.49037e-05 -3.0044e-07
6.49037e-05 0.000113924 4.07934e-08
-3.0044e-07 4.07934e-08 -6.86609e-06
0.000560531 9.48612e-05 -6.80372e-07
9.48612e-05 8.17175e-05 -5.12979e-08
-6.80372e-07 -5.12979e-08 -4.44959e-05
0.00075508 0.000138824 -3.2966e-06
0.000138824 0.000220283 -4.42141e-06
-3.2966e-06 -4.42141e-06 9.19217e-05
0.000251952 1.82286e-05 -8.49631e-07
1.82286e-05 -9.59836e-05 -3.86725e-07
-8.49631e-07 -3.86725e-07 -0.000233068
0.000686898 9.96424e-05 4.96138e-07
9.96424e-05 0.000164004 2.72181e-06
4.96138e-07 2.72181e-06 5.31519e-05
0.000563711 7.18407e-05 3.27453e-06
7.18407e-05 6.87148e-05 3.64173e-06
3.27453e-06 3.64173e-06 -4.06223e-06
0.000522914 2.3578e-05 -2.51706e-06
2.3578e-05 3.83445e-05 2.71105e-08
-2.51706e-06 2.71105e-08 -3.13475e-05
0.0012518 -5.29962e-06 1.78611e-06
-5.29962e-06 0.000461249 3.25791e-06
1.78611e-06 3.25791e-06 0.000443801
0.000420518 -6.53506e-05 2.57062e-06
-6.53506e-05 -2.16308e-05 -4.10306e-06
2.57062e-06 -4.10306e-06 -9.74635e-05
0.00131844 -1.55888e-05 -7.11618e-06
-1.55888e-05 0.000499916 -1.66155e-06
-7.11618e-06 -1.66155e-06 0.000481743
0.000744553 -2.58816e-05 2.89133e-05
-2.58816e-05 0.000136845 9.29994e-06
2.89133e-05 9.29994e-06 0.0001416
0.0013765 -2.68798e-05 -1.30153e-05
-2.68798e-05 0.000536529 -7.26251e-06
-1.30153e-05 -7.26251e-06 0.000516383
0.000763596 -4.05205e-05 1.16415e-05
-4.05205e-05 0.000150672 3.44389e-06
1.16415e-05 3.44389e-06 0.000151104
0.0025676 -0.000113866 -1.75893e-06
-0.000113866 0.00130195 -2.87762e-06
-1.75893e-06 -2.87762e-06 0.00130213
0.0003053 6.22855e-05 -4.31382e-06
6.22855e-05 -9.77182e-05 -6.19516e-06
-4.31382e-06 -6.19516e-06 -0.000137359
0.000420971 1.26399e-05 -3.47518e-06
1.26399e-05 -2.8456e-05 1.93245e-07
-3.47518e-06 1.93245e-07 -7.80429e-05
0.00301484 0.000154016 3.9896e-06
0.000154016 0.00161348 -6.44571e-06
3.9896e-06 -6.44571e-06 0.00160063
0.000521571 -7.33821e-05 -1.10484e-05
-7.33821e-05 2.1779e-05 1.19149e-05
-1.10484e-05 1.19149e-05 -4.23381e-05
0.00391379 0.000140691 -3.47616e-05
0.000140691 0.00217967 -2.21508e-07
-3.47616e-05 -2.21508e-07 0.00216847
0.00485114 0.000106629 -0.000164177
0.000106629 0.00277198 1.74925e-05
-0.000164177 1.74925e-05 0.00276662
0.00207097 0.000369851 -2.11326e-06
0.000369851 0.000132546 1.07111e-06
-2.11326e-06 1.07111e-06 -1.33042e-05
0.00204154 0.00020207 -2.88943e-06
0.00020207 8.48568e-05 1.59124e-07
-2.88943e-06 1.59124e-07 1.16396e-05
0.00203694 0.000278568 -1.54944e-06
0.000278568 1.52521e-05 3.6149e-08
-1.54944e-06 3.6149e-08 -4.31289e-05
0.00197046 0.00012111 -3.08059e-06
0.00012111 -1.30729e-05 -4.32279e-07
-3.08059e-06 -4.32279e-07 -2.32315e-05
0.00197364 4.82295e-05 -4.88696e-06
4.82295e-05 3.53191e-05 -1.58767e-07
-4.88696e-06 -1.58767e-07 -3.97187e-06
0.00182383 5.42468e-06 -1.20241e-06
5.42468e-06 7.89107e-05 2.11614e-07
-1.20241e-06 2.11614e-07 -1.57944e-05
0.00198628 -6.08702e-06 -2.28284e-07
-6.08702e-06 5.27748e-05 -7.58594e-09
-2.28284e-07 -7.58594e-09 1.05109e-05
0.00200233 5.36793e-05 1.26728e-06
5.36793e-05 3.57535e-05 3.76933e-08
1.26728e-06 3.76933e-08 2.27511e-05
0.00205633 0.000196088 -5.33572e-08
0.000196088 2.64123e-05 3.53136e-08
-5.33572e-08 3.53136e-08 2.27074e-06
0.00205797 0.000126856 6.41611e-07
0.000126856 -1.23905e-05 1.63909e-07
6.41611e-07 1.63909e-07 1.3807e-06
0.0020354 0.000362134 -5.7641e-07
0.000362134 8.24061e-05 2.06443e-07
-5.7641e-07 2.06443e-07 -3.59739e-05
0.00215906 0.000293108 2.88924e-06
0.000293108 2.07128e-05 3.50295e-07
2.88924e-06 3.50295e-07 4.05223e-06
0.00195358 -1.18249e-05 4.89881e-06
-1.18249e-05 1.09681e-05 1.27656e-07
4.89881e-06 1.27656e-07 -3.87469e-06
0.00206233 6.05073e-05 9.20321e-07
6.05073e-05 -1.35424e-05 -2.0021e-07
9.20321e-07 -2.0021e-07 8.73967e-06
0.00213033 0.000194964 5.26298e-07
0.000194964 -9.44751e-06 8.86135e-08
5.26298e-07 8.86135e-08 2.56785e-06
0.00215269 0.000394871 3.78027e-08
0.000394871 2.45972e-05 8.19525e-07
3.78027e-08 8.19525e-07 -2.03581e-05
0.00200845 -6.55371e-05 -5.1519e-06
-6.55371e-05 7.38221e-05 8.40126e-07
-5.1519e-06 8.40126e-07 2.62891e-05
0.00200485 -0.000209065 -1.09696e-07
-0.000209065 8.51828e-05 -4.99717e-07
-1.09696e-07 -4.99717e-07 7.57716e-07
0.00193427 -0.000116598 -5.0053e-06
-0.000116598 3.23423e-06 1.2764e-06
-5.0053e-06 1.2764e-06 -1.53193e-05
0.00207886 -0.000301929 -5.27565e-06
-0.000301929 6.71858e-05 1.19553e-06
-5.27565e-06 1.19553e-06 9.671e-06
0.000952175 -0.000338793 -6.64609e-06
-0.000338793 0.000105961 2.96818e-06
-6.64609e-06 2.96818e-06 -0.000185369
0.0014997 -0.000582312 8.33527e-06
-0.000582312 0.000317821 -3.4115e-06
8.33527e-06 -3.4115e-06 -7.86682e-05
0.00196296 -0.000704565 -2.87227e-06
-0.000704565 0.000353922 -2.48732e-06
-2.87227e-06 -2.48732e-06 -4.16898e-05
0.00196348 -0.000427883 -2.93751e-06
-0.000427883 0.000112789 8.67133e-07
-2.93751e-06 8.67133e-07 -3.65995e-05
0.0020277 -0.0003875 -9.97194e-07
-0.0003875 4.27073e-05 1.06729e-06
-9.97194e-07 1.06729e-06 -2.29651e-05
0.00191886 -0.000514237 1.01849e-06
-0.000514237 7.94541e-05 1.83691e-06
1.01849e-06 1.83691e-06 -8.51609e-05
0.00199192 -0.000589788 5.34494e-07
-0.000589788 0.000273302 -2.97243e-06
5.34494e-07 -2.97243e-06 -2.99293e-06
0.00209994 -0.000546754 1.59867e-05
-0.000546754 0.000237499 -6.04373e-06
1.59867e-05 -6.04373e-06 3.71206e-05
0.000925485 -0.000360901 -9.82189e-07
-0.000360901 0.000136763 1.28963e-06
-9.82189e-07 1.28963e-06 -0.000173667
0.00128692 -0.000394759 1.05704e-05
-0.000394759 0.000347065 -5.55791e-06
1.05704e-05 -5.55791e-06 1.24017e-05
-0.000115674 -0.000153061 2.42616e-06
-0.000153061 -0.00039291 -1.10682e-05
2.42616e-06 -1.10682e-05 -0.000692482
0.000102535 -6.68192e-05 3.73941e-07
-6.68192e-05 -0.000216553 5.73773e-06
3.73941e-07 5.73773e-06 -0.000357106
0.000217817 -4.35527e-05 4.29707e-06
-4.35527e-05 -8.47385e-05 4.88126e-07
4.29707e-06 4.88126e-07 -0.000350199
0.00192239 -7.27879e-05 1.89578e-08
-7.27879e-05 -2.00062e-05 -1.79159e-07
1.89578e-08 -1.79159e-07 -2.80648e-05
0.00203641 -0.000184105 1.25206e-06
-0.000184105 2.60947e-05 -5.0956e-08
1.25206e-06 -5.0956e-08 6.64653e-06
0.00211473 -0.000348597 -6.35565e-07
-0.000348597 2.67548e-05 9.02445e-08
-6.35565e-07 9.02445e-08 -4.42691e-06
0.0014156 -0.000498212 -1.46288e-06
-0.000498212 0.000387864 -7.72411e-07
-1.46288e-06 -7.72411e-07 1.54926e-05
0.00150593 -0.000665683 3.27777e-06
-0.000665683 0.000293643 -8.73336e-07
3.27777e-06 -8.73336e-07 -0.000137837
0.00209348 -0.00076139 -3.44622e-08
-0.00076139 0.000405371 -2.0619e-07
-3.44622e-08 -2.0619e-07 -1.10814e-06
0.00205886 -0.000448724 2.34377e-07
-0.000448724 8.73241e-05 2.18518e-07
2.34377e-07 2.18518e-07 -6.20364e-06
0.00209282 -0.000608257 1.51266e-06
-0.000608257 0.00028035 -3.6076e-06
1.51266e-06 -3.6076e-06 1.37781e-05
0.00214783 -0.000598 -1.68502e-06
-0.000598 0.000172961 -3.28032e-07
-1.68502e-06 -3.28032e-07 -8.65202e-06
7.30588e-05 4.38318e-05 -1.96671e-06
4.38318e-05 -0.000232582 -8.97145e-07
-1.96671e-06 -8.97145e-07 -0.000331716
0.00131693 -0.000456561 -1.90947e-07
-0.000456561 0.000361074 -1.9415e-06
-1.90947e-07 -1.9415e-06 -1.82636e-06
0.00137697 -0.000451378 -1.94213e-06
-0.000451378 0.000413597 1.17682e-06
-1.94213e-06 1.17682e-06 4.07602e-05
0.00141309 -0.000341715 -1.14527e-06
-0.000341715 0.000527751 2.64517e-06
-1.14527e-06 2.64517e-06 0.00018169
0.00125411 -0.000230392 1.74168e-06
-0.000230392 0.000555003 -2.92843e-06
1.74168e-06 -2.92843e-06 0.000262242
0.000407313 -7.70186e-05 -8.99026e-07
-7.70186e-05 4.72008e-05 1.36409e-06
-8.99026e-07 1.36409e-06 -0.000184588
0.00204012 -9.46254e-05 1.86594e-06
-9.46254e-05 -9.89309e-06 -4.70932e-08
1.86594e-06 -4.70932e-08 4.90179e-06
0.0021892 -0.000243167 2.69165e-07
-0.000243167 -9.93486e-06 -6.05324e-08
2.69165e-07 -6.05324e-08 1.72175e-05
0.00218794 -0.000428316 9.4832e-07
-0.000428316 2.4978e-05 -4.00786e-07
9.4832e-07 -4.00786e-07 1.38767e-05
0.00223094 -0.000535639 2.04601e-06
-0.000535639 9.22119e-05 -2.58298e-06
2.04601e-06 -2.58298e-06 1.76233e-05
0.00162324 -0.000600737 -1.04925e-05
-0.000600737 0.000473086 5.24746e-06
-1.04925e-05 5.24746e-06 5.86849e-05
0.00219685 -0.000685273 -5.4116e-06
-0.000685273 0.000248144 -5.84632e-06
-5.4116e-06 -5.84632e-06 4.18736e-06
0.00190198 -0.000785735 -3.40642e-05
-0.000785735 0.00049845 5.38375e-06
-3.40642e-05 5.38375e-06 2.31803e-05
0.00236961 -0.000827892 -2.10576e-05
-0.000827892 0.000583484 -3.48459e-07
-2.10576e-05 -3.48459e-07 0.000155092
-8.47879e-06 5.47392e-05 -6.01795e-06
5.47392e-05 -0.000288015 -3.00293e-06
-6.01795e-06 -3.00293e-06 -0.000363671
0.000829969 -3.01953e-06 -2.70173e-06
-3.01953e-06 0.000297499 -1.22073e-06
-2.70173e-06 -1.22073e-06 0.000125463
0.00173349 -0.000255972 -5.46897e-06
-0.000255972 0.000893605 -4.04194e-07
-5.46897e-06 -4.04194e-07 0.000617884
0.000684283 -0.000129961 -4.88903e-07
-0.000129961 0.000148036 -5.11053e-06
-4.88903e-07 -5.11053e-06 -0.000159283
0.00242976 -0.000628146 -1.70588e-05
-0.000628146 0.00102233 1.20812e-05
-1.70588e-05 1.20812e-05 0.00060329
0.00154284 -0.000455222 -2.95871e-06
-0.000455222 0.000563938 2.32439e-05
-2.95871e-06 2.32439e-05 0.000138399
0.00052621 2.65044e-05 -1.30576e-06
2.65044e-05 3.22741e-05 -5.22949e-06
-1.30576e-06 -5.22949e-06 -5.8595e-05
-9.48104e-05 2.1552e-05 1.45472e-06
2.1552e-05 -0.000319279 -1.62793e-06
1.45472e-06 -1.62793e-06 -0.000484466
0.00198725 0.000454902 -1.76257e-06
0.000454902 0.000115884 -1.03804e-06
-1.76257e-06 -1.03804e-06 -5.60076e-05
0.000446595 9.35378e-05 -2.6699e-07
9.35378e-05 -1.63653e-05 2.26747e-06
-2.6699e-07 2.26747e-06 -0.000274746
0.00151529 0.000410443 -3.56992e-06
0.000410443 0.000493634 -4.04198e-06
-3.56992e-06 -4.04198e-06 0.000204717
-0.0010751 5.14918e-05 -2.97786e-06
5.14918e-05 -0.00116732 2.42644e-06
-2.97786e-06 2.42644e-06 -0.00133009
0.00209416 0.000595582 2.37218e-06
0.000595582 0.00029485 1.15697e-06
2.37218e-06 1.15697e-06 2.91174e-05
0.00202549 0.000568675 -6.99537e-06
0.000568675 0.00015774 -1.79803e-07
-6.99537e-06 -1.79803e-07 -6.5007e-05
0.00153213 0.000602788 -3.91377e-06
0.000602788 0.000432537 3.23646e-06
-3.91377e-06 3.23646e-06 2.07953e-05
0.00201968 0.000676905 -6.60044e-06
0.000676905 0.000461383 3.2269e-07
-6.60044e-06 3.2269e-07 0.000104587
0.000783739 8.24322e-05 -7.01001e-07
8.24322e-05 0.000219345 1.2333e-07
-7.01001e-07 1.2333e-07 8.39049e-05
0.000505473 7.08153e-05 1.09866e-06
7.08153e-05 0.000122373 3.86581e-07
1.09866e-06 3.86581e-07 -0.000145031
0.001313 0.000436221 -3.0998e-06
0.000436221 0.00036174 -1.51602e-06
-3.0998e-06 -1.51602e-06 3.20558e-05
0.000173631 0.000141342 7.07767e-07
0.000141342 -0.000294941 -1.98322e-06
7.07767e-07 -1.98322e-06 -0.000517023
0.0017118 0.000390006 3.47713e-06
0.000390006 0.000508037 -1.91453e-06
3.47713e-06 -1.91453e-06 0.00026017
0.00214329 0.000504495 -2.65509e-06
0.000504495 0.000110749 -9.66794e-07
-2.65509e-06 -9.66794e-07 -3.45881e-05
0.00228066 0.000656117 2.8215e-06
0.000656117 0.000381885 -5.24265e-07
2.8215e-06 -5.24265e-07 9.57971e-05
0.00221208 0.000627051 2.3715e-06
0.000627051 0.000234243 2.81728e-06
2.3715e-06 2.81728e-06 -1.1463e-05
0.00145525 0.000613455 4.03934e-06
0.000613455 0.000353521 1.48176e-06
4.03934e-06 1.48176e-06 -5.78071e-05
0.0019258 0.000748392 -4.86539e-06
0.000748392 0.000397952 1.73958e-07
-4.86539e-06 1.73958e-07 6.50493e-06
-0.000689113 7.08625e-06 -3.46251e-06
7.08625e-06 -0.00068612 6.03619e-06
-3.46251e-06 6.03619e-06 -0.000818448
-0.000297932 0.000226976 7.14398e-07
0.000226976 -0.00030283 1.46575e-06
7.14398e-07 1.46575e-06 -0.00062334
0.00145848 0.000485258 2.78601e-06
0.000485258 0.00041932 -2.11855e-06
2.78601e-06 -2.11855e-06 7.1706e-05
-0.000216729 0.000182883 6.18325e-07
0.000182883 -0.000661493 -3.65206e-06
6.18325e-07 -3.65206e-06 -0.000867609
0.00236362 0.000509064 5.47427e-06
0.000509064 -4.60971e-05 2.59851e-06
5.47427e-06 2.59851e-06 -3.28992e-05
0.00273587 0.000633576 9.10278e-06
0.000633576 0.000478505 1.80718e-06
9.10278e-06 1.80718e-06 0.000278301
0.00215629 0.000744838 6.15211e-06
0.000744838 0.000331213 -2.89287e-06
6.15211e-06 -2.89287e-06 -2.09279e-05
0.00168481 0.000721612 1.47404e-06
0.000721612 0.000363287 4.86131e-07
1.47404e-06 4.86131e-07 -7.53798e-05
0.000739375 0.000117363 -6.83515e-07
0.000117363 0.00019514 -2.30375e-06
-6.83515e-07 -2.30375e-06 6.47227e-05
0.000535737 0.000103941 -1.03585e-06
0.000103941 6.65733e-05 -6.50444e-07
-1.03585e-06 -6.50444e-07 -5.98583e-05
0.00124426 0.000104745 -7.58912e-06
0.000104745 0.000510244 -3.84142e-06
-7.58912e-06 -3.84142e-06 0.000406894
0.000547117 4.46249e-05 -7.39928e-07
4.46249e-05 6.14591e-05 -3.11394e-06
-7.39928e-07 -3.11394e-06 -4.24437e-05
5.70348e-06 4.19305e-05 -1.50231e-07
4.19305e-05 -0.000261616 -7.72119e-07
-1.50231e-07 -7.72119e-07 -0.000377542
0.000603346 5.19046e-05 -6.50708e-07
5.19046e-05 0.000113927 2.10195e-07
-6.50708e-07 2.10195e-07 2.65514e-06
0.000492108 0.000128194 -7.12054e-08
0.000128194 7.39932e-05 7.37009e-07
-7.12054e-08 7.37009e-07 -5.39302e-05
0.000480791 5.70188e-05 1.12462e-06
5.70188e-05 5.66403e-05 -4.7695e-08
1.12462e-06 -4.7695e-08 -8.81815e-05
0.000637285 0.000107069 4.82692e-06
0.000107069 0.000113474 -3.11997e-06
4.82692e-06 -3.11997e-06 2.98477e-05
0.000726109 1.55795e-05 3.20734e-06
1.55795e-05 0.000206758 -5.03967e-06
3.20734e-06 -5.03967e-06 6.8656e-05
0.000246883 6.84625e-05 -1.71835e-07
6.84625e-05 -9.2032e-05 2.27678e-06
-1.71835e-07 2.27678e-06 -0.00023037
0.000672811 0.000111766 2.31949e-06
0.000111766 0.000157529 3.57324e-06
2.31949e-06 3.57324e-06 4.29204e-05
0.000465943 7.75422e-05 3.2781e-06
7.75422e-05 1.43942e-05 3.61982e-06
3.2781e-06 3.61982e-06 -6.48818e-05
0.000460295 1.55056e-05 -1.54879e-06
1.55056e-05 2.50137e-06 -3.05632e-07
-1.54879e-06 -3.05632e-07 -6.85375e-05
0.00121884 8.03798e-06 1.62287e-06
8.03798e-06 0.000446613 2.91962e-06
1.62287e-06 2.91962e-06 0.000429346
0.000451203 -4.2892e-05 2.81431e-07
-4.2892e-05 -8.126e-06 -3.17556e-06
2.81431e-07 -3.17556e-06 -7.63121e-05
0.00131041 -5.36715e-06 -6.82994e-06
-5.36715e-06 0.000498095 -1.70045e-06
-6.82994e-06 -1.70045e-06 0.000481265
0.000744844 -1.61671e-05 2.64255e-05
-1.61671e-05 0.000139152 9.15634e-06
2.64255e-05 9.15634e-06 0.000144814
0.00135566 -1.95331e-05 -1.06129e-05
-1.95331e-05 0.000523392 -6.85948e-06
-1.06129e-05 -6.85948e-06 0.000505726
0.000748719 -2.98339e-05 1.01171e-05
-2.98339e-05 0.000137976 3.49585e-06
1.01171e-05 3.49585e-06 0.00014117
0.000727031 -4.16072e-05 2.86654e-07
-4.16072e-05 0.000127289 -3.16732e-06
2.86654e-07 -3.16732e-06 0.00012688
0.000387386 4.25423e-05 -1.789e-06
4.25423e-05 -6.83804e-05 -4.18281e-06
-1.789e-06 -4.18281e-06 -9.35523e-05
0.000401606 7.29348e-05 -2.26986e-07
7.29348e-05 -3.35913e-05 3.75889e-07
-2.26986e-07 3.75889e-07 -7.68825e-05
0.00256093 0.000118778 7.90734e-06
0.000118778 0.00131705 -5.19223e-06
7.90734e-06 -5.19223e-06 0.00131406
0.0004699 1.4706e-05 -5.18898e-06
1.4706e-05 5.2225e-06 1.0245e-05
-5.18898e-06 1.0245e-05 -4.75936e-05
0.00313706 0.000155586 -1.40914e-05
0.000155586 0.00168949 -1.48975e-06
-1.40914e-05 -1.48975e-06 0.00167596
0.00407565 8.46474e-05 -0.000135873
8.46474e-05 0.0022757 1.29459e-05
-0.000135873 1.29459e-05 0.00227781
0.00207091 0.000363106 -9.2881e-07
0.000363106 0.000115745 5.75904e-07
-9.2881e-07 5.75904e-07 -4.28784e-06
0.00206608 0.000194127 -4.81355e-06
0.000194127 3.52022e-05 -8.12376e-07
-4.81355e-06 -8.12376e-07 1.23375e-05
0.00208595 0.000293519 -5.51411e-07
0.000293519 -2.80838e-05 -2.52042e-08
-5.51411e-07 -2.52042e-08 -3.78348e-05
0.00203179 0.00012826 -8.47105e-07
0.00012826 -3.47108e-05 -1.09558e-07
-8.47105e-07 -1.09558e-07 -1.51142e-05
0.00200805 5.44668e-05 -4.56922e-06
5.44668e-05 4.30119e-05 -3.57536e-07
-4.56922e-06 -3.57536e-07 2.63491e-05
0.00200166 -8.88945e-06 -6.09183e-06
-8.88945e-06 6.69249e-05 2.78955e-07
-6.09183e-06 2.78955e-07 2.36844e-05
0.00196422 -9.91525e-06 -2.69683e-08
-9.91525e-06 1.85758e-05 -5.23546e-08
-2.69683e-08 -5.23546e-08 4.73731e-06
0.00205578 6.32245e-05 1.14175e-06
6.32245e-05 -1.28267e-05 1.55313e-07
1.14175e-06 1.55313e-07 7.3075e-06
0.00213152 0.000201663 1.06936e-06
0.000201663 -8.51286e-06 2.07661e-07
1.06936e-06 2.07661e-07 5.77823e-06
0.00216258 0.000385398 6.25597e-07
0.000385398 2.42071e-05 1.9064e-07
6.25597e-07 1.9064e-07 -2.01502e-05
0.00202779 -1.59318e-05 2.56708e-07
-1.59318e-05 -1.97119e-05 -9.2838e-08
2.56708e-07 -9.2838e-08 -5.28636e-06
0.00218873 0.000113937 -7.85676e-07
0.000113937 -4.54069e-05 -6.48734e-07
-7.85676e-07 -6.48734e-07 1.43733e-05
0.00234962 0.000306037 2.47103e-06
0.000306037 1.04982e-05 2.82061e-07
2.47103e-06 2.82061e-07 3.94896e-05
0.00191017 -8.09528e-05 -4.5121e-06
-8.09528e-05 -3.08143e-05 4.53793e-07
-4.5121e-06 4.53793e-07 -3.97609e-05
0.00207994 -0.000185381 -3.38724e-06
-0.000185381 5.08063e-05 7.30381e-07
-3.38724e-06 7.30381e-07 3.09579e-05
0.00210641 -0.000341883 -2.40478e-06
-0.000341883 3.82623e-05 6.10967e-07
-2.40478e-06 6.10967e-07 2.10296e-06
0.00144772 -0.000503031 -1.57563e-06
-0.000503031 0.000406167 -3.2614e-07
-1.57563e-06 -3.2614e-07 3.37029e-05
0.00149378 -0.000642745 1.95493e-05
-0.000642745 0.000290553 -6.96907e-06
1.95493e-05 -6.96907e-06 -0.000130936
0.00191514 -0.000747998 -8.72478e-07
-0.000747998 0.000315285 5.78612e-07
-8.72478e-07 5.78612e-07 -9.18754e-05
0.00204667 -0.000445546 -1.77972e-06
-0.000445546 8.1964e-05 1.50417e-06
-1.77972e-06 1.50417e-06 -1.40062e-05
0.00209371 -0.000578921 7.57019e-06
-0.000578921 0.000174808 3.18754e-06
7.57019e-06 3.18754e-06 -1.77155e-06
0.00223137 -0.000643301 1.63636e-05
-0.000643301 0.00034561 -6.90877e-06
1.63636e-05 -6.90877e-06 7.5729e-05
0.00120841 -0.000435706 3.52477e-06
-0.000435706 0.000296835 -4.48141e-06
3.52477e-06 -4.48141e-06 -5.84341e-05
0.00149225 -0.000478129 8.65831e-06
-0.000478129 0.000496245 -1.46921e-05
8.65831e-06 -1.46921e-05 0.000118392
0.00117105 -0.000380932 -2.90362e-07
-0.000380932 0.000406612 -1.22377e-05
-2.90362e-07 -1.22377e-05 4.06866e-05
0.000254277 4.0667e-05 3.61843e-06
4.0667e-05 -0.000123552 2.36156e-06
3.61843e-06 2.36156e-06 -0.000218377
0.00153196 -0.000249976 3.40898e-06
-0.000249976 0.000701244 3.90653e-06
3.40898e-06 3.90653e-06 0.000423742
-0.000216573 2.15872e-06 5.75995e-06
2.15872e-06 -0.000353884 1.02452e-06
5.75995e-06 1.02452e-06 -0.000571863
0.0020503 -9.27162e-05 -5.25313e-07
-9.27162e-05 -4.53061e-06 1.25726e-07
-5.25313e-07 1.25726e-07 8.49057e-06
0.00215498 -0.000250434 9.76935e-08
-0.000250434 -3.40305e-05 -8.11928e-08
9.76935e-08 -8.11928e-08 -5.52913e-06
0.0021762 -0.00042065 -7.21562e-07
-0.00042065 2.45954e-05 3.00272e-07
-7.21562e-07 3.00272e-07 1.01502e-05
0.00157275 -0.000589109 -5.43751e-07
-0.000589109 0.000462219 7.44182e-07
-5.43751e-07 7.44182e-07 5.0953e-05
0.00131388 -0.000709304 4.42244e-06
-0.000709304 0.000159993 -1.94842e-06
4.42244e-06 -1.94842e-06 -0.000296684
0.00235697 -0.000810198 -4.63478e-06
-0.000810198 0.000573531 -4.20845e-08
-4.63478e-06 -4.20845e-08 0.000161513
0.00219547 -0.000543623 2.40245e-07
-0.000543623 7.29866e-05 -6.73639e-07
2.40245e-07 -6.73639e-07 -8.76698e-06
0.00205675 -0.000662812 2.29066e-06
-0.000662812 0.000181199 -1.75146e-06
2.29066e-06 -1.75146e-06 -5.38767e-05
0.000275429 6.06954e-05 -1.61485e-06
6.06954e-05 -0.000112521 -1.28756e-06
-1.61485e-06 -1.28756e-06 -0.00018416
0.000622396 -2.8663e-05 -6.52445e-07
-2.8663e-05 0.000159191 8.62942e-07
-6.52445e-07 8.62942e-07 -5.58843e-06
0.000946687 -0.000464187 -3.18827e-06
-0.000464187 0.000107952 2.12204e-06
-3.18827e-06 2.12204e-06 -0.000264848
0.00152957 -0.000427775 -4.82617e-06
-0.000427775 0.000571617 -1.30459e-07
-4.82617e-06 -1.30459e-07 0.000153775
0.00165735 -0.000218802 -5.91663e-07
-0.000218802 0.000746754 -1.24611e-06
-5.91663e-07 -1.24611e-06 0.000431579
0.000945595 -0.000191107 -7.88365e-07
-0.000191107 0.000392809 1.49336e-06
-7.88365e-07 1.49336e-06 0.000126909
0.0021462 -0.000129154 -1.68038e-06
-0.000129154 -4.99228e-05 5.24908e-07
-1.68038e-06 5.24908e-07 7.51024e-06
0.00228926 -0.000358782 -2.17701e-06
-0.000358782 -7.09706e-05 1.10745e-06
-2.17701e-06 1.10745e-06 6.2445e-06
0.00226332 -0.000508975 2.76094e-06
-0.000508975 2.38132e-05 -8.34068e-07
2.76094e-06 -8.34068e-07 1.9086e-05
0.0023603 -0.000703583 7.3304e-06
-0.000703583 0.000177733 -3.78338e-06
7.3304e-06 -3.78338e-06 2.4247e-05
0.000775081 -0.000542555 -7.35186e-06
-0.000542555 -3.15897e-05 -7.24244e-06
-7.35186e-06 -7.24244e-06 -0.000445274
0.00266684 -0.000889095 -3.41722e-06
-0.000889095 0.00066278 3.47583e-06
-3.41722e-06 3.47583e-06 0.000273109
0.00231528 -0.00090083 -3.7057e-05
-0.00090083 0.000677114 -4.13606e-06
-3.7057e-05 -4.13606e-06 0.000156934
0.000544204 4.57601e-05 -3.55157e-07
4.57601e-05 3.87177e-05 -1.27064e-07
-3.55157e-07 -1.27064e-07 -1.47859e-05
0.000674036 -0.000142854 3.90557e-06
-0.000142854 0.000177022 -1.20911e-06
3.90557e-06 -1.20911e-06 6.68071e-05
0.000356493 8.64846e-05 -8.05639e-06
8.64846e-05 -1.6865e-05 -6.61436e-07
-8.05639e-06 -6.61436e-07 -0.000134013
0.000799053 -6.7468e-05 -3.80302e-06
-6.7468e-05 0.000294045 1.50958e-06
-3.80302e-06 1.50958e-06 7.84759e-05
-3.92449e-06 -0.000130891 2.04671e-06
-0.000130891 -0.000243261 -7.82847e-06
2.04671e-06 -7.82847e-06 -0.000505294
-9.76051e-05 -0.000130949 6.31057e-06
-0.000130949 -0.000288573 -8.32108e-07
6.31057e-06 -8.32108e-07 -0.000680929
0.00141501 -0.000547169 -3.45229e-05
-0.000547169 0.00040956 2.43816e-05
-3.45229e-05 2.43816e-05 3.12799e-05
0.00304007 -0.000556883 -2.89569e-05
-0.000556883 0.00167372 1.65411e-05
-2.89569e-05 1.65411e-05 0.0010374
0.000522192 4.08546e-05 -2.84934e-07
4.08546e-05 4.43903e-05 -1.90808e-06
-2.84934e-07 -1.90808e-06 -7.75897e-05
0.000906665 0.00021347 -5.44238e-07
0.00021347 0.000357461 5.87499e-08
-5.44238e-07 5.87499e-08 8.3499e-05
0.00229893 0.00051866 -3.44238e-06
0.00051866 0.000194037 -1.91362e-06
-3.44238e-06 -1.91362e-06 4.87204e-05
0.000514981 0.000225923 -3.88872e-06
0.000225923 -5.47441e-05 3.18561e-06
-3.88872e-06 3.18561e-06 -0.000312001
0.00110102 0.000410149 -1.79788e-06
0.000410149 0.000223858 6.35993e-08
-1.79788e-06 6.35993e-08 -0.000100076
0.00141419 0.000330819 -3.52266e-06
0.000330819 0.000304934 -4.39677e-06
-3.52266e-06 -4.39677e-06 7.24506e-05
0.00239981 0.000653012 -7.58384e-06
0.000653012 0.000460531 -7.18318e-07
-7.58384e-06 -7.18318e-07 0.000181859
0.00239769 0.000650143 -1.22755e-05
0.000650143 0.000338844 4.17413e-06
-1.22755e-05 4.17413e-06 8.93432e-05
0.0016533 0.000644527 -3.71205e-06
0.000644527 0.000471515 1.08479e-06
-3.71205e-06 1.08479e-06 5.25961e-05
0.00174379 0.000751537 -5.2625e-06
0.000751537 0.000288545 -7.72821e-07
-5.2625e-06 -7.72821e-07 -0.000112447
-0.000218844 6.78246e-05 9.46545e-07
6.78246e-05 -0.000388212 1.53285e-06
9.46545e-07 1.53285e-06 -0.00053933
-7.32507e-05 0.000238335 -3.59486e-07
0.000238335 -0.00017297 -2.70465e-06
-3.59486e-07 -2.70465e-06 -0.000488975
0.0016148 0.00051411 1.49533e-06
0.00051411 0.000497801 1.5168e-07
1.49533e-06 1.5168e-07 0.000139765
0.00165471 0.000356185 -3.08999e-06
0.000356185 0.000516943 1.20714e-06
-3.08999e-06 1.20714e-06 0.000277087
0.00235807 0.0004897 6.96141e-07
0.0004897 -6.74945e-05 -7.7177e-07
6.96141e-07 -7.7177e-07 -4.58072e-05
0.00258581 0.000632296 3.452e-06
0.000632296 0.000390123 6.94019e-08
3.452e-06 6.94019e-08 0.000183569
0.002103 0.000726272 -1.98741e-06
0.000726272 0.000313467 2.49602e-08
-1.98741e-06 2.49602e-08 -3.10679e-05
0.00182301 0.000732102 9.64163e-07
0.000732102 0.000426701 2.74597e-07
9.64163e-07 2.74597e-07 -7.47963e-06
-0.000408983 3.85897e-05 -2.79912e-06
3.85897e-05 -0.000499014 4.72704e-06
-2.79912e-06 4.72704e-06 -0.000655047
0.00224684 0.000376258 1.26866e-05
0.000376258 -0.000181658 3.5413e-06
1.26866e-05 3.5413e-06 -0.000105057
0.00274678 0.00052315 6.72642e-06
0.00052315 0.00150482 8.8706e-06
6.72642e-06 8.8706e-06 0.00116262
0.00137199 0.000496914 2.56579e-06
0.000496914 0.000281449 -9.75667e-07
2.56579e-06 -9.75667e-07 -4.76873e-05
0.00258409 0.000611719 -1.32956e-05
0.000611719 0.000216608 -7.17998e-06
-1.32956e-05 -7.17998e-06 0.00014174
0.00119907 0.000674528 3.61844e-06
0.000674528 -0.000308274 -7.8894e-06
3.61844e-06 -7.8894e-06 -0.000632393
0.0027109 0.000853293 1.3369e-06
0.000853293 0.00088197 4.3373e-06
1.3369e-06 4.3373e-06 0.000417513
0.000784705 0.000119115 -1.18152e-06
0.000119115 0.000222271 -2.32578e-06
-1.18152e-06 -2.32578e-06 9.3416e-05
0.000635505 0.000111103 -3.68361e-06
0.000111103 0.00015007 -1.51844e-06
-3.68361e-06 -1.51844e-06 4.02453e-05
0.0012395 0.000109606 -3.11037e-06
0.000109606 0.000528376 1.20604e-06
-3.11037e-06 1.20604e-06 0.000455276
0.000492603 7.40104e-06 7.57935e-07
7.40104e-06 4.63309e-05 -3.50621e-06
7.57935e-07 -3.50621e-06 -6.55903e-05
0.000709041 8.73714e-05 2.26253e-06
8.73714e-05 0.000205427 -7.76214e-07
2.26253e-06 -7.76214e-07 5.5427e-05
-0.000196293 7.86728e-05 -2.43044e-06
7.86728e-05 -0.000329326 5.0953e-06
-2.43044e-06 5.0953e-06 -0.000447027
0.000551872 2.31913e-05 -1.47549e-06
2.31913e-05 8.75209e-05 1.68785e-08
-1.47549e-06 1.68785e-08 -3.02008e-05
0.000318523 -1.10436e-05 -1.01171e-06
-1.10436e-05 -3.22523e-05 -8.34377e-08
-1.01171e-06 -8.34377e-08 -0.000180575
0.000102856 5.46513e-05 -4.19483e-07
5.46513e-05 -0.000194275 1.67049e-06
-4.19483e-07 1.67049e-06 -0.000266515
0.000804775 9.79305e-05 1.07774e-06
9.79305e-05 0.000270811 -1.37315e-06
1.07774e-06 -1.37315e-06 0.000120229
0.00177694 0.00014006 -4.96568e-08
0.00014006 0.000813763 -1.92382e-06
-4.96568e-08 -1.92382e-06 0.000767662
0.000428954 2.50794e-05 1.0483e-05
2.50794e-05 5.56408e-06 -7.69333e-06
1.0483e-05 -7.69333e-06 -8.19478e-05
0.000313646 0.00011145 6.09122e-07
0.00011145 -2.35226e-05 2.42162e-06
6.09122e-07 2.42162e-06 -0.000184427
0.00054765 4.76326e-05 1.55045e-06
4.76326e-05 0.000106419 3.7082e-06
1.55045e-06 3.7082e-06 -5.42317e-05
0.000571495 3.33188e-05 2.70928e-06
3.33188e-05 9.08513e-05 3.14525e-06
2.70928e-06 3.14525e-06 -2.82203e-05
0.000476091 -5.798e-05 -4.34607e-07
-5.798e-05 1.8155e-05 3.07069e-06
-4.34607e-07 3.07069e-06 -6.18709e-05
0.000488639 1.09863e-05 2.7587e-07
1.09863e-05 2.03186e-05 -3.67964e-07
2.7587e-07 -3.67964e-07 -5.29215e-05
0.00129707 2.89072e-05 3.38796e-06
2.89072e-05 0.000504323 3.13433e-06
3.38796e-06 3.13433e-06 0.00048441
0.000491651 2.84579e-06 1.51645e-07
2.84579e-06 1.27414e-05 -3.32253e-06
1.51645e-07 -3.32253e-06 -5.20356e-05
0.00130945 1.14653e-05 -6.33041e-06
1.14653e-05 0.000503718 -1.7156e-06
-6.33041e-06 -1.7156e-06 0.000486241
0.000742421 -8.57486e-06 2.1459e-05
-8.57486e-06 0.000142329 8.8996e-06
2.1459e-05 8.8996e-06 0.000147852
0.00134867 -9.19352e-06 -8.31687e-06
-9.19352e-06 0.000521971 -6.61881e-06
-8.31687e-06 -6.61881e-06 0.000505552
0.000771657 -2.02336e-05 7.86165e-06
-2.02336e-05 0.000152906 3.51933e-06
7.86165e-06 3.51933e-06 0.000157394
0.000757959 -3.14726e-05 2.06239e-07
-3.14726e-05 0.000141638 -2.94466e-06
2.06239e-07 -2.94466e-06 0.000144244
0.000639307 -1.08966e-05 1.44334e-06
-1.08966e-05 9.24848e-05 -1.49381e-06
1.44334e-06 -1.49381e-06 4.26424e-05
0.000414857 2.8006e-05 -2.76996e-07
2.8006e-05 -6.29377e-05 -3.64264e-06
-2.76996e-07 -3.64264e-06 -8.08027e-05
0.000427206 4.7485e-05 3.81855e-07
4.7485e-05 -4.05223e-05 2.62515e-07
3.81855e-07 2.62515e-07 -6.75144e-05
0.00234968 9.26895e-05 1.19815e-05
9.26895e-05 0.0011732 -4.58962e-06
1.19815e-05 -4.58962e-06 0.00117738
0.000491226 6.51017e-05 5.47043e-06
6.51017e-05 1.64428e-05 7.79239e-06
5.47043e-06 7.79239e-06 -2.48092e-05
0.00274239 0.000128393 -5.08769e-06
0.000128393 0.00143281 -5.73375e-07
-5.08769e-06 -5.73375e-07 0.00142754
0.00337862 0.000119654 -5.08182e-05
0.000119654 0.00183161 5.94908e-06
-5.08182e-05 5.94908e-06 0.00182574
0.0021695 0.000376364 -1.77372e-07
0.000376364 2.17772e-05 -3.66561e-07
-1.77372e-07 -3.66561e-07 -2.18069e-05
0.00213269 0.000208258 -1.38792e-06
0.000208258 -6.21309e-06 -5.05341e-08
-1.38792e-06 -5.05341e-08 9.68131e-06
0.00204882 6.70217e-05 -9.47023e-07
6.70217e-05 -1.15706e-05 4.93219e-08
-9.47023e-07 4.93219e-08 6.31717e-06
0.00197274 -7.90246e-06 -4.71489e-06
-7.90246e-06 2.51124e-05 -1.56546e-07
-4.71489e-06 -1.56546e-07 1.2143e-05
0.002032 -1.07753e-05 -9.26805e-07
-1.07753e-05 -1.85617e-05 -3.12826e-08
-9.26805e-07 -3.12826e-08 -1.56286e-06
0.00216943 0.000107092 -9.78192e-08
0.000107092 -4.76274e-05 2.95733e-07
-9.78192e-08 2.95733e-07 9.4997e-06
0.0022835 0.000312851 -1.20508e-06
0.000312851 -1.79927e-05 -2.07395e-08
-1.20508e-06 -2.07395e-08 1.01262e-05
0.00214792 -1.09425e-05 -1.78086e-06
-1.09425e-05 -6.42105e-05 -3.16637e-07
-1.78086e-06 -3.16637e-07 3.07154e-06
0.00237429 0.000161536 5.22372e-06
0.000161536 -5.01577e-05 -1.40488e-06
5.22372e-06 -1.40488e-06 1.88058e-05
0.00254985 0.000115591 1.26367e-05
0.000115591 0.000135481 1.20084e-05
1.26367e-05 1.20084e-05 0.000215648
0.00205999 -9.12771e-05 -1.68216e-06
-9.12771e-05 8.70172e-07 1.49729e-07
-1.68216e-06 1.49729e-07 1.2003e-05
0.00212579 -0.000259183 -5.88039e-07
-0.000259183 -5.59644e-05 -8.16215e-08
-5.88039e-07 -8.16215e-08 -2.6001e-05
0.00216416 -0.000412406 -4.06526e-07
-0.000412406 2.36845e-05 -1.27064e-07
-4.06526e-07 -1.27064e-07 7.13555e-06
0.00152771 -0.000589002 6.94579e-06
-0.000589002 0.000434948 -3.27179e-06
6.94579e-06 -3.27179e-06 2.16289e-05
0.0017954 -0.000760577 2.40053e-05
-0.000760577 0.000439307 -1.0281e-06
2.40053e-05 -1.0281e-06 -2.82659e-05
0.00196637 -0.000746668 1.05881e-05
-0.000746668 0.00035473 -6.36657e-07
1.05881e-05 -6.36657e-07 -3.37842e-05
0.00212867 -0.000547597 4.20455e-07
-0.000547597 3.80985e-05 3.24132e-06
4.20455e-07 3.24132e-06 -5.04593e-05
0.00189856 -0.000637688 6.39104e-06
-0.000637688 0.000109256 2.81451e-06
6.39104e-06 2.81451e-06 -0.000117916
0.00046529 -0.000403757 1.13024e-05
-0.000403757 -0.000183622 -1.80641e-05
1.13024e-05 -1.80641e-05 -0.000545603
0.00154195 -0.000398447 1.72611e-05
-0.000398447 0.000635829 -1.88426e-05
1.72611e-05 -1.88426e-05 0.000198293
0.001186 -0.000125835 -1.39318e-06
-0.000125835 0.00042362 2.35785e-06
-1.39318e-06 2.35785e-06 0.000133977
0.000451318 1.93685e-05 2.99893e-06
1.93685e-05 -4.23322e-06 9.9911e-07
2.99893e-06 9.9911e-07 -7.13334e-05
0.000635321 2.80095e-05 6.60207e-06
2.80095e-05 0.000161154 2.16831e-06
6.60207e-06 2.16831e-06 -4.59452e-07
0.000399806 -0.0001326 1.05633e-06
-0.0001326 3.82222e-05 7.01804e-06
1.05633e-06 7.01804e-06 -0.00021872
0.00215631 -0.000132066 5.75587e-07
-0.000132066 -5.23517e-05 -9.51579e-08
5.75587e-07 -9.51579e-08 7.51115e-06
0.00048733 9.99793e-06 1.75026e-06
9.99793e-06 3.16499e-06 3.28822e-07
1.75026e-06 3.28822e-07 -5.0113e-05
0.000388115 -7.28444e-05 -2.2283e-06
-7.28444e-05 -3.37781e-05 -5.34909e-07
-2.2283e-06 -5.34909e-07 -0.000123897
0.00226687 -0.000348572 -1.96643e-07
-0.000348572 -6.23997e-05 1.46204e-07
-1.96643e-07 1.46204e-07 5.40068e-06
0.0022184 -0.000497223 -1.81224e-06
-0.000497223 5.69282e-06 3.60657e-07
-1.81224e-06 3.60657e-07 7.89328e-06
0.00182577 -0.000674652 -1.53336e-06
-0.000674652 0.000582197 2.05463e-06
-1.53336e-06 2.05463e-06 0.00013455
0.00191122 -0.000847489 7.42096e-06
-0.000847489 0.000470917 8.06916e-07
7.42096e-06 8.06916e-07 -4.38164e-05
0.0020087 -0.000820877 3.27858e-06
-0.000820877 0.000277484 -5.13997e-06
3.27858e-06 -5.13997e-06 -9.4668e-05
0.00229605 -0.000696187 3.038e-06
-0.000696187 0.000143695 -1.05825e-06
3.038e-06 -1.05825e-06 -4.2247e-06
0.000690797 1.50981e-05 -8.50586e-07
1.50981e-05 0.000200961 -1.25284e-06
-8.50586e-07 -1.25284e-06 8.00452e-05
0.000787924 -6.04149e-05 9.69355e-07
-6.04149e-05 0.000287762 1.96002e-06
9.69355e-07 1.96002e-06 7.16787e-05
0.00145273 -0.000532013 3.92203e-06
-0.000532013 0.000451332 5.24308e-06
3.92203e-06 5.24308e-06 5.86369e-05
0.00106884 -0.000369159 1.07457e-05
-0.000369159 0.000450015 -9.19765e-06
1.07457e-05 -9.19765e-06 -9.46167e-05
0.000953386 -0.000150772 -5.20134e-07
-0.000150772 0.000291637 -6.72905e-07
-5.20134e-07 -6.72905e-07 -5.66292e-05
0.000251292 -0.000101874 4.61715e-07
-0.000101874 -7.91012e-05 -1.78555e-06
4.61715e-07 -1.78555e-06 -0.000348553
0.002162 -0.000153297 1.06024e-06
-0.000153297 -0.000190393 -5.11962e-07
1.06024e-06 -5.11962e-07 -0.000107919
0.00226119 -0.000447587 -1.08845e-06
-0.000447587 -0.000216769 3.21064e-06
-1.08845e-06 3.21064e-06 -1.5309e-05
0.00245692 -0.000686152 -3.45483e-06
-0.000686152 8.25815e-05 -1.70341e-06
-3.45483e-06 -1.70341e-06 4.53628e-05
0.00250523 -0.000907102 1.15466e-05
-0.000907102 0.000347034 -4.44213e-06
1.15466e-05 -4.44213e-06 0.000109314
0.00119795 -0.000637555 -3.5183e-06
-0.000637555 0.000257513 -1.93434e-05
-3.5183e-06 -1.93434e-05 -0.000203746
0.00303722 -0.00106324 -9.63215e-06
-0.00106324 0.00100605 8.03342e-06
-9.63215e-06 8.03342e-06 0.000449701
0.000172552 5.19693e-05 -2.6513e-06
5.19693e-05 -0.000161842 -4.75371e-06
-2.6513e-06 -4.75371e-06 -0.000259351
0.000555799 -4.50133e-05 3.94445e-06
-4.50133e-05 7.82321e-05 8.76382e-07
3.94445e-06 8.76382e-07 -9.19014e-06
0.00126751 -0.00015954 -2.77506e-06
-0.00015954 0.000492538 1.31728e-05
-2.77506e-06 1.31728e-05 0.000377302
0.000494524 1.51064e-05 -4.19126e-06
1.51064e-05 7.27449e-05 3.89334e-06
-4.19126e-06 3.89334e-06 -9.30886e-05
0.000737839 -9.59925e-05 -3.91448e-06
-9.59925e-05 0.000232043 6.91231e-06
-3.91448e-06 6.91231e-06 6.12811e-06
0.000808453 -7.48429e-05 1.13915e-05
-7.48429e-05 0.000191947 -9.86829e-06
1.13915e-05 -9.86829e-06 -6.44626e-05
-0.00092049 -0.000297951 6.85395e-07
-0.000297951 -0.000427079 -1.0594e-06
6.85395e-07 -1.0594e-06 -0.00121748
4.08632e-05 -0.000519411 -5.57968e-05
-0.000519411 -0.0004414 2.18645e-05
-5.57968e-05 2.18645e-05 -0.000792784
0.0004136 7.55468e-05 -9.97825e-07
7.55468e-05 2.74083e-05 -1.81626e-06
-9.97825e-07 -1.81626e-06 -0.000153901
0.000704224 0.000260568 -1.04511e-05
0.000260568 0.000283305 -5.39019e-06
-1.04511e-05 -5.39019e-06 -2.25004e-05
0.00235422 0.000470238 -9.49281e-06
0.000470238 -7.94797e-05 -3.52361e-06
-9.49281e-06 -3.52361e-06 -5.21018e-05
0.00248138 0.000633892 -9.46138e-06
0.000633892 0.00033157 -1.30724e-06
-9.46138e-06 -1.30724e-06 0.000118309
0.00331922 0.000471867 -5.85843e-06
0.000471867 0.00152814 -2.35598e-07
-5.85843e-06 -2.35598e-07 0.00127922
0.00169867 0.000531733 -3.72077e-06
0.000531733 0.000537399 -3.18558e-06
-3.72077e-06 -3.18558e-06 0.000171127
0.00204067 0.000707265 -5.73417e-06
0.000707265 0.000290344 1.30414e-06
-5.73417e-06 1.30414e-06 -4.70762e-05
0.00199263 0.000743448 -3.64851e-06
0.000743448 0.000510135 -1.57267e-06
-3.64851e-06 -1.57267e-06 7.97154e-05
0.000411553 0.000108911 1.20464e-06
0.000108911 3.34734e-05 -1.39874e-06
1.20464e-06 -1.39874e-06 -0.000158262
0.00241754 0.000360921 -2.4877e-06
0.000360921 -7.38179e-05 -2.00431e-06
-2.4877e-06 -2.00431e-06 7.48253e-06
0.00146337 0.000342389 1.04206e-06
0.000342389 0.000687841 1.49008e-06
1.04206e-06 1.49008e-06 0.000392362
0.00160826 0.000518221 2.44008e-06
0.000518221 0.000455733 1.06001e-06
2.44008e-06 1.06001e-06 0.000115651
0.002596 0.000607 1.78257e-06
0.000607 0.000239846 3.22102e-07
1.78257e-06 3.22102e-07 0.000164165
0.00168793 0.000717582 -1.71693e-06
0.000717582 -1.83234e-05 -4.60029e-06
-1.71693e-06 -4.60029e-06 -0.00034725
0.00216145 0.000781358 8.06953e-08
0.000781358 0.000581271 5.7052e-07
8.06953e-08 5.7052e-07 0.000130063
0.00122133 0.000277702 -4.04311e-06
0.000277702 0.000618408 2.39409e-06
-4.04311e-06 2.39409e-06 0.000360357
0.00349248 0.000518844 -7.75294e-05
0.000518844 0.000564422 -2.0436e-05
-7.75294e-05 -2.0436e-05 0.000703786
0.00139823 0.000484526 -6.79183e-06
0.000484526 0.000565234 4.70272e-06
-6.79183e-06 4.70272e-06 0.000230125
0.00159831 0.000604063 -2.45297e-06
0.000604063 0.000378214 -5.35661e-06
-2.45297e-06 -5.35661e-06 -2.93923e-05
0.00229987 0.000801653 -3.07796e-05
0.000801653 0.000172837 -1.85719e-05
-3.07796e-05 -1.85719e-05 -5.1712e-05
0.00109628 0.000677356 -2.07192e-05
0.000677356 -6.58882e-05 -2.02557e-06
-2.07192e-05 -2.02557e-06 -0.000479341
0.000383577 0.000803397 3.14283e-05
0.000803397 -0.00174968 -3.60293e-05
3.14283e-05 -3.60293e-05 -0.0014156
-8.19933e-05 0.000121892 3.66428e-06
0.000121892 -0.000263841 -1.07763e-06
3.66428e-06 -1.07763e-06 -0.000382705
0.000465067 0.00010764 9.81035e-07
0.00010764 9.63793e-05 2.05702e-06
9.81035e-07 2.05702e-06 1.15934e-05
0.00194418 0.000170942 1.93574e-06
0.000170942 0.000966401 1.1682e-06
1.93574e-06 1.1682e-06 0.000890723
0.000414966 -6.38682e-05 6.13161e-07
-6.38682e-05 1.04718e-05 -4.04418e-06
6.13161e-07 -4.04418e-06 -0.000110406
0.000388343 -3.80711e-05 -5.82332e-07
-3.80711e-05 7.11832e-06 -1.31277e-06
-5.82332e-07 -1.31277e-06 -0.000138064
0.00106138 0.000189416 3.47822e-07
0.000189416 0.000433941 1.07155e-06
3.47822e-07 1.07155e-06 0.000270488
-0.000137878 3.18963e-05 -6.82598e-06
3.18963e-05 -0.000321845 1.38853e-05
-6.82598e-06 1.38853e-05 -0.00039147
0.000524411 -1.3937e-05 -3.21441e-07
-1.3937e-05 7.85945e-05 -1.3156e-07
-3.21441e-07 -1.3156e-07 -4.94086e-05
0.000490314 6.99343e-05 1.29825e-07
6.99343e-05 5.09874e-05 -7.01369e-07
1.29825e-07 -7.01369e-07 -9.46123e-05
0.00122792 0.000120094 2.4185e-06
0.000120094 0.000468304 4.49864e-06
2.4185e-06 4.49864e-06 0.000422467
0.000514364 6.94627e-05 1.63812e-06
6.94627e-05 7.92279e-05 7.04859e-07
1.63812e-06 7.04859e-07 -7.05615e-05
0.000689918 5.45842e-05 -1.31834e-06
5.45842e-05 0.000160641 -2.06851e-06
-1.31834e-06 -2.06851e-06 6.25001e-05
0.00159591 0.000134608 -2.24684e-06
0.000134608 0.00073339 -1.28388e-05
-2.24684e-06 -1.28388e-05 0.000681891
0.000862617 0.000140611 -2.07689e-06
0.000140611 0.000253446 -2.3731e-06
-2.07689e-06 -2.3731e-06 0.000107131
0.000949831 0.000134839 1.73624e-06
0.000134839 0.000342328 1.57473e-06
1.73624e-06 1.57473e-06 0.000181416
0.000896232 9.36578e-05 2.17518e-07
9.36578e-05 0.000325451 1.85907e-06
2.17518e-07 1.85907e-06 0.000150229
0.00025991 -2.33954e-05 -2.54335e-07
-2.33954e-05 -0.000106031 2.36087e-06
-2.54335e-07 2.36087e-06 -0.000230325
0.00108949 -8.1382e-05 5.96024e-07
-8.1382e-05 0.000485658 -1.79908e-06
5.96024e-07 -1.79908e-06 0.000297267
0.00018953 -3.97967e-05 -1.17888e-06
-3.97967e-05 -0.000147075 3.69757e-06
-1.17888e-06 3.69757e-06 -0.000276512
0.000454897 3.96988e-06 -1.74789e-06
3.96988e-06 1.0864e-05 3.16768e-06
-1.74789e-06 3.16768e-06 -7.41888e-05
0.000473692 3.87029e-05 2.48992e-06
3.87029e-05 1.996e-05 -1.47404e-07
2.48992e-06 -1.47404e-07 -6.26693e-05
0.000380431 2.1565e-05 7.85613e-08
2.1565e-05 -6.54714e-05 4.49827e-06
7.85613e-08 4.49827e-06 -8.93622e-05
0.000430799 6.83627e-06 -2.80059e-06
6.83627e-06 -7.15351e-06 -3.69452e-06
-2.80059e-06 -3.69452e-06 -8.59257e-05
0.000882193 1.63443e-05 -3.50684e-06
1.63443e-05 0.000243348 -1.54165e-06
-3.50684e-06 -1.54165e-06 0.00022248
0.00262514 -4.44191e-06 1.9555e-05
-4.44191e-06 0.00132583 5.54994e-06
1.9555e-05 5.54994e-06 0.0013386
0.00139662 2.37561e-05 -1.02899e-05
2.37561e-05 0.000559489 -6.72589e-06
-1.02899e-05 -6.72589e-06 0.000541404
0.0007669 -1.05231e-05 6.85954e-06
-1.05231e-05 0.000154149 3.42803e-06
6.85954e-06 3.42803e-06 0.000159183
0.000791422 -2.13761e-05 6.06983e-07
-2.13761e-05 0.000161883 -2.66855e-06
6.06983e-07 -2.66855e-06 0.000166138
0.000493167 1.38316e-05 -2.21121e-06
1.38316e-05 8.73193e-06 -2.46522e-06
-2.21121e-06 -2.46522e-06 -4.16267e-05
0.000550579 -2.46348e-05 8.27184e-07
-2.46348e-05 4.02935e-05 -3.17609e-07
8.27184e-07 -3.17609e-07 -1.10972e-05
0.000493912 2.29515e-05 6.69065e-08
2.29515e-05 -1.89739e-05 -3.56953e-06
6.69065e-08 -3.56953e-06 -3.32894e-05
0.000801823 3.81871e-05 -1.11466e-07
3.81871e-05 0.000181976 1.40114e-07
-1.11466e-07 1.40114e-07 0.000165297
0.00220736 7.20816e-05 9.30332e-06
7.20816e-05 0.0010753 -4.53731e-06
9.30332e-06 -4.53731e-06 0.00108436
0.000480518 5.53537e-05 5.08297e-06
5.53537e-05 -2.39803e-06 5.66492e-06
5.08297e-06 5.66492e-06 -3.23811e-05
0.00243256 9.87582e-05 -2.86961e-06
9.87582e-05 0.0012268 -2.8586e-07
-2.86961e-06 -2.8586e-07 0.00122947
0.00280178 0.00013443 5.45801e-06
0.00013443 0.00147123 7.43979e-06
5.45801e-06 7.43979e-06 0.00146453
0.00221977 0.000319486 -2.42489e-06
0.000319486 -4.82697e-05 -4.12054e-07
-2.42489e-06 -4.12054e-07 -1.99228e-05
0.00214617 0.000101881 2.15612e-06
0.000101881 -5.3607e-05 5.92624e-07
2.15612e-06 5.92624e-07 2.01701e-06
0.0020381 -6.36019e-06 -4.77852e-07
-6.36019e-06 -1.67751e-05 -1.53021e-07
-4.77852e-07 -1.53021e-07 2.81947e-06
0.00213496 -7.16589e-06 1.27602e-07
-7.16589e-06 -7.13363e-05 -2.39724e-07
1.27602e-07 -2.39724e-07 -4.22025e-06
0.00234455 0.000167039 -3.68804e-07
0.000167039 -5.36949e-05 4.61039e-07
-3.68804e-07 4.61039e-07 1.45021e-05
0.00228354 9.20096e-05 8.29839e-06
9.20096e-05 -4.53997e-05 -5.81821e-06
8.29839e-06 -5.81821e-06 2.96177e-05
0.00239197 -2.15982e-06 1.43577e-06
-2.15982e-06 -9.56495e-05 -1.84509e-06
1.43577e-06 -1.84509e-06 1.2906e-05
0.00455745 0.000832293 6.118e-05
0.000832293 -0.00045305 1.22149e-05
6.118e-05 1.22149e-05 0.00020636
0.0028258 7.1305e-05 -2.35173e-05
7.1305e-05 0.00044668 2.8615e-05
-2.35173e-05 2.8615e-05 0.000655175
0.000485773 0.000109881 -2.90907e-06
0.000109881 4.39363e-05 -1.16085e-06
-2.90907e-06 -1.16085e-06 -5.10055e-05
0.00216248 -0.000133058 9.44953e-07
-0.000133058 -5.71161e-05 -4.92864e-07
9.44953e-07 -4.92864e-07 5.36439e-06
0.00223919 -0.000337843 2.2288e-06
-0.000337843 -5.75109e-05 -8.5501e-07
2.2288e-06 -8.5501e-07 4.85565e-07
0.00217843 -0.000488125 -4.33113e-07
-0.000488125 -1.2065e-05 4.8267e-07
-4.33113e-07 4.8267e-07 -2.91428e-06
0.00110777 -0.000597901 -1.58517e-07
-0.000597901 0.000166413 9.69269e-06
-1.58517e-07 9.69269e-06 -0.000260483
0.00217618 -0.000869866 2.24735e-05
-0.000869866 0.000618747 9.80551e-06
2.24735e-05 9.80551e-06 0.000105324
0.00152906 -0.00076881 -4.85391e-06
-0.00076881 2.67789e-06 -4.26414e-06
-4.85391e-06 -4.26414e-06 -0.000355398
0.00221989 -0.00069022 -5.67541e-06
-0.00069022 0.000101553 1.69734e-06
-5.67541e-06 1.69734e-06 -4.16833e-05
0.00168322 -0.000528157 4.1402e-05
-0.000528157 0.000517233 -3.32295e-05
4.1402e-05 -3.32295e-05 0.000158582
0.00148069 -0.000434523 3.06276e-05
-0.000434523 0.000650555 -2.82431e-05
3.06276e-05 -2.82431e-05 0.000169974
0.000672454 -6.04451e-05 8.45134e-08
-6.04451e-05 7.67992e-05 4.93404e-06
8.45134e-08 4.93404e-06 -0.000233373
0.000486336 1.00705e-05 2.35784e-06
1.00705e-05 3.02839e-06 9.14725e-07
2.35784e-06 9.14725e-07 -5.08196e-05
0.00137806 -0.00011514 1.27543e-06
-0.00011514 0.000626078 7.25916e-06
1.27543e-06 7.25916e-06 0.000334844
0.000907007 -2.23811e-05 7.51579e-06
-2.23811e-05 0.000349274 -1.19113e-06
7.51579e-06 -1.19113e-06 0.000223278
0.000676113 -5.40193e-05 2.63797e-06
-5.40193e-05 0.000207233 -6.90713e-07
2.63797e-06 -6.90713e-07 -2.65361e-06
0.000118732 -4.36927e-05 -3.28547e-06
-4.36927e-05 -0.000210778 -3.08087e-07
-3.28547e-06 -3.08087e-07 -0.000296821
0.00223618 -0.000171149 -4.78629e-07
-0.000171149 -0.000176864 2.71429e-08
-4.78629e-07 2.71429e-08 -6.78644e-05
0.000342271 2.68828e-05 4.24811e-07
2.68828e-05 -4.24274e-05 -2.46783e-06
4.24811e-07 -2.46783e-06 -0.000145696
0.000589474 -5.79284e-05 2.60784e-06
-5.79284e-05 0.00011445 9.78795e-07
2.60784e-06 9.78795e-07 1.74978e-05
0.000894706 -0.00012705 3.6543e-06
-0.00012705 0.00025698 2.05473e-07
3.6543e-06 2.05473e-07 0.000153338
0.00228318 -0.000460338 2.06774e-06
-0.000460338 -0.000183243 -8.04729e-07
2.06774e-06 -8.04729e-07 -2.02579e-05
0.00236858 -0.000680469 5.30884e-07
-0.000680469 3.4623e-05 -5.87546e-07
5.30884e-07 -5.87546e-07 -2.37356e-06
0.000513167 -0.000491624 7.13109e-06
-0.000491624 -0.000139405 -1.5754e-07
7.13109e-06 -1.5754e-07 -0.000535398
0.00267071 -0.00103122 1.78429e-05
-0.00103122 0.000779903 3.04025e-07
1.78429e-05 3.04025e-07 0.000245497
0.00235707 -0.000896425 -7.96142e-07
-0.000896425 0.000282461 2.19361e-06
-7.96142e-07 2.19361e-06 3.36988e-05
0.000295086 -2.8003e-05 -7.10754e-07
-2.8003e-05 -5.14376e-05 2.66776e-07
-7.10754e-07 2.66776e-07 -0.000209187
0.00105354 -0.000125102 -8.90952e-07
-0.000125102 0.000449519 3.99963e-06
-8.90952e-07 3.99963e-06 0.000197598
0.00169516 -0.000722251 -1.23817e-06
-0.000722251 0.00052914 1.81949e-06
-1.23817e-06 1.81949e-06 8.95853e-05
0.000139491 -0.000216776 -1.28513e-06
-0.000216776 -5.83558e-06 1.78076e-06
-1.28513e-06 1.78076e-06 -0.00061868
0.00126259 -0.000125246 1.52817e-06
-0.000125246 0.000479197 5.93665e-06
1.52817e-06 5.93665e-06 0.000217148
0.00268994 -0.000324094 -7.48163e-06
-0.000324094 9.23563e-05 1.31085e-06
-7.48163e-06 1.31085e-06 0.000209886
0.00205214 -0.000511354 -1.59031e-05
-0.000511354 -0.000299534 7.45441e-06
-1.59031e-05 7.45441e-06 -6.43998e-05
0.00218038 -0.000812876 -6.42412e-06
-0.000812876 4.99169e-05 -1.55165e-06
-6.42412e-06 -1.55165e-06 -0.000129294
0.00443215 -0.0012049 -7.93266e-06
-0.0012049 0.00157222 -2.6394e-06
-7.93266e-06 -2.6394e-06 0.00121647
0.00014329 -0.000612319 -2.03161e-05
-0.000612319 -0.00038235 -7.63724e-06
-2.03161e-05 -7.63724e-06 -0.000815567
5.76619e-05 -2.78186e-05 5.31515e-07
-2.78186e-05 -0.000214311 5.47225e-07
5.31515e-07 5.47225e-07 -0.000323467
0.000770056 1.25323e-05 -4.16258e-06
1.25323e-05 0.000161946 1.16465e-05
-4.16258e-06 1.16465e-05 5.72064e-05
-0.00165704 -0.000120091 -6.32784e-06
-0.000120091 -0.00132551 3.70882e-07
-6.32784e-06 3.70882e-07 -0.00140312
0.00207629 -0.000289636 -2.26418e-05
-0.000289636 0.00107776 2.38204e-05
-2.26418e-05 2.38204e-05 0.000861895
0.000878983 -9.83286e-05 -5.30177e-06
-9.83286e-05 0.000320526 2.65121e-05
-5.30177e-06 2.65121e-05 8.65071e-05
-0.00146674 -0.000115237 6.6291e-06
-0.000115237 -0.000539832 4.61973e-07
6.6291e-06 4.61973e-07 -0.00129804
0.000406861 -0.000790034 -2.07544e-05
-0.000790034 8.10033e-05 9.16178e-06
-2.07544e-05 9.16178e-06 -0.000572611
0.00164005 0.000241442 -3.96523e-06
0.000241442 0.00080383 -6.6321e-06
-3.96523e-06 -6.6321e-06 0.000579779
-0.000528922 8.66821e-05 -4.77194e-06
8.66821e-05 -0.000568769 -2.12176e-06
-4.77194e-06 -2.12176e-06 -0.000800914
0.00255857 0.000336352 9.40629e-07
0.000336352 5.98249e-06 1.30166e-06
9.40629e-07 1.30166e-06 0.000102819
0.00256084 0.000599784 1.1531e-05
0.000599784 0.000227835 5.63392e-06
1.1531e-05 5.63392e-06 0.000156302
0.00214677 0.000757922 5.5349e-06
0.000757922 0.000252191 2.59664e-06
5.5349e-06 2.59664e-06 -8.05956e-05
0.00158575 0.000510755 -1.66888e-06
0.000510755 0.000468335 6.70262e-07
-1.66888e-06 6.70262e-07 0.000124572
0.00171582 0.000723165 1.32715e-06
0.000723165 0.000339033 2.41496e-06
1.32715e-06 2.41496e-06 -0.000100516
0.00198011 0.00030511 7.54157e-07
0.00030511 0.00102491 -5.42372e-07
7.54157e-07 -5.42372e-07 0.000792501
0.00277054 0.000420777 5.68494e-06
0.000420777 0.000185255 2.80575e-06
5.68494e-06 2.80575e-06 0.000356539
0.0011964 0.000407623 -3.84122e-06
0.000407623 0.000410584 3.34622e-06
-3.84122e-06 3.34622e-06 0.000111344
0.00168264 0.000618942 3.40543e-06
0.000618942 0.000466496 -2.25133e-07
3.40543e-06 -2.25133e-07 4.22575e-05
0.00228436 0.00078116 -3.17785e-06
0.00078116 0.000181783 -3.54632e-06
-3.17785e-06 -3.54632e-06 -2.24991e-05
0.0018335 0.00077161 -4.40597e-06
0.00077161 0.000348317 5.25853e-06
-4.40597e-06 5.25853e-06 -8.63681e-05
0.00307589 0.0011131 4.04048e-05
0.0011131 -0.000594057 7.92649e-06
4.04048e-05 7.92649e-06 -0.000436029
0.000394181 0.000269896 -3.48344e-06
0.000269896 0.000132152 2.08115e-06
-3.48344e-06 2.08115e-06 -0.000124091
0.00281163 0.000770898 -8.20528e-05
0.000770898 0.00032784 -3.72354e-05
-8.20528e-05 -3.72354e-05 0.000289291
0.000699267 0.000409218 -7.66554e-06
0.000409218 -6.49449e-05 3.10564e-06
-7.66554e-06 3.10564e-06 -0.000386154
-3.30907e-05 0.000465505 1.45909e-07
0.000465505 -0.000548826 -1.45367e-05
1.45909e-07 -1.45367e-05 -0.000944482
0.0013036 0.000827894 -3.63242e-05
0.000827894 -0.000150883 -1.13623e-05
-3.63242e-05 -1.13623e-05 -0.000421644
0.0146804 0.000400874 -0.000496946
0.000400874 0.00225033 -8.09984e-05
-0.000496946 -8.09984e-05 0.00177932
0.00363922 0.00171865 -5.50796e-05
0.00171865 -0.001956 -6.88664e-05
-5.50796e-05 -6.88664e-05 -0.000698838
0.000334617 0.00126959 1.16978e-05
0.00126959 -0.000877264 2.18926e-06
1.16978e-05 2.18926e-06 -0.00112228
0.00234472 -0.00222425 0.00150483
-0.00222425 0.00191858 0.000308401
0.00150483 0.000308401 -0.0014248
0.0218529 -0.00852727 -4.25006e-05
-0.00852727 0.00844382 8.01664e-05
-4.25006e-05 8.01664e-05 0.00589682
-9.61453e-05 0.00010439 7.74482e-06
0.00010439 -0.000213456 2.10187e-06
7.74482e-06 2.10187e-06 -0.000306875
0.000841173 0.000112086 -7.21633e-07
0.000112086 0.000335796 -2.74308e-06
-7.21633e-07 -2.74308e-06 0.000258842
0.00204402 0.000280093 1.56099e-06
0.000280093 0.00110261 -1.62795e-07
1.56099e-06 -1.62795e-07 0.000976698
0.000493135 -5.57384e-05 -6.1791e-07
-5.57384e-05 6.88631e-05 -2.78808e-06
-6.1791e-07 -2.78808e-06 -6.42333e-05
0.000337677 6.52889e-05 -1.0961e-06
6.52889e-05 -4.48593e-05 -3.23927e-06
-1.0961e-06 -3.23927e-06 -0.000190135
0.000757606 -2.27878e-05 -7.25474e-08
-2.27878e-05 0.000228795 -1.47229e-06
-7.25474e-08 -1.47229e-06 7.66538e-05
0.00076264 7.80073e-05 -4.08931e-06
7.80073e-05 0.000199796 1.0635e-05
-4.08931e-06 1.0635e-05 9.58767e-05
0.000188364 8.20412e-05 1.96976e-06
8.20412e-05 -0.000175879 9.34983e-06
1.96976e-06 9.34983e-06 -0.000218836
0.000743032 0.000145922 -1.3854e-06
0.000145922 0.000241256 -4.29806e-07
-1.3854e-06 -4.29806e-07 6.1916e-05
0.000403579 -1.03926e-05 3.97462e-07
-1.03926e-05 -7.12821e-06 1.00779e-06
3.97462e-07 1.00779e-06 -0.000136658
0.000707618 5.36693e-05 -6.72473e-07
5.36693e-05 0.000199709 2.40202e-08
-6.72473e-07 2.40202e-08 3.26692e-05
0.000313973 9.00569e-05 -1.13924e-06
9.00569e-05 -6.33051e-05 -1.97825e-06
-1.13924e-06 -1.97825e-06 -0.000113301
0.000659672 0.000117759 -1.50644e-06
0.000117759 0.000145613 -1.75547e-07
-1.50644e-06 -1.75547e-07 1.88712e-06
0.00196766 0.000233864 -1.32551e-06
0.000233864 0.000994209 -9.52885e-07
-1.32551e-06 -9.52885e-07 0.000803052
0.00024037 0.000103144 2.82023e-07
0.000103144 -3.39336e-05 -3.47114e-06
2.82023e-07 -3.47114e-06 -0.000195012
0.000923225 0.000108855 3.12264e-06
0.000108855 0.000338251 6.21175e-08
3.12264e-06 6.21175e-08 0.000168452
0.000339814 -1.0505e-05 1.12068e-06
-1.0505e-05 -4.88301e-05 -1.54933e-07
1.12068e-06 -1.54933e-07 -0.000209868
0.000348721 -7.29893e-05 -7.23431e-07
-7.29893e-05 -4.20211e-05 1.69504e-06
-7.23431e-07 1.69504e-06 -0.000176037
0.000688369 -3.31142e-05 -7.3098e-07
-3.31142e-05 0.000186448 -5.05213e-07
-7.3098e-07 -5.05213e-07 2.12792e-05
0.00129937 -1.15037e-05 9.52603e-07
-1.15037e-05 0.000561319 -1.02941e-05
9.52603e-07 -1.02941e-05 0.000403913
0.000751308 -5.19458e-05 -9.96199e-07
-5.19458e-05 0.000267937 -1.2712e-06
-9.96199e-07 -1.2712e-06 0.000107188
0.000760383 -7.4912e-05 1.91778e-06
-7.4912e-05 0.00024923 -7.16944e-07
1.91778e-06 -7.16944e-07 8.39493e-05
0.000662438 -0.000125484 -1.82478e-06
-0.000125484 0.000159805 3.06231e-06
-1.82478e-06 3.06231e-06 2.52944e-05
0.000284027 -2.45676e-05 1.82615e-07
-2.45676e-05 -8.40487e-05 1.08368e-06
1.82615e-07 1.08368e-06 -0.000217029
0.000502443 -5.69725e-05 -1.7453e-06
-5.69725e-05 3.0582e-05 3.9531e-06
-1.7453e-06 3.9531e-06 -4.88694e-05
0.00049899 -3.83785e-05 1.95498e-06
-3.83785e-05 3.58399e-05 1.05631e-07
1.95498e-06 1.05631e-07 -4.79279e-05
0.000438314 2.82921e-06 2.95749e-06
2.82921e-06 -2.58842e-05 6.43859e-06
2.95749e-06 6.43859e-06 -5.12872e-05
0.000511782 5.21662e-05 -1.93643e-06
5.21662e-05 3.77553e-05 -3.37831e-06
-1.93643e-06 -3.37831e-06 -4.08733e-05
0.000402092 3.21891e-05 3.45608e-07
3.21891e-05 -4.98526e-05 7.29942e-08
3.45608e-07 7.29942e-08 -7.48421e-05
0.00254554 5.19809e-06 5.83126e-06
5.19809e-06 0.00127802 5.40005e-06
5.83126e-06 5.40005e-06 0.00129039
0.000463251 4.04915e-05 -3.7203e-06
4.04915e-05 -1.60657e-05 -7.31446e-06
-3.7203e-06 -7.31446e-06 -4.16831e-05
0.00171111 -4.98263e-06 -3.72708e-06
-4.98263e-06 0.000751189 1.72197e-07
-3.72708e-06 1.72197e-07 0.000759141
0.000812198 -1.11492e-05 4.91625e-07
-1.11492e-05 0.000177914 -2.34657e-06
4.91625e-07 -2.34657e-06 0.000183005
0.000438808 5.83481e-06 -3.84998e-07
5.83481e-06 -2.93977e-05 -1.73361e-06
-3.84998e-07 -1.73361e-06 -7.12159e-05
0.000533351 -3.8133e-05 8.75935e-08
-3.8133e-05 3.72311e-05 1.48896e-08
8.75935e-08 1.48896e-08 -1.5213e-05
0.000520796 1.21949e-05 9.10785e-07
1.21949e-05 -4.55123e-06 -3.34688e-06
9.10785e-07 -3.34688e-06 -1.57343e-05
0.000477559 -3.8088e-05 -1.36263e-06
-3.8088e-05 -4.34855e-06 4.25857e-07
-1.36263e-06 4.25857e-07 -5.62063e-05
0.00079781 2.76858e-05 -1.71782e-07
2.76858e-05 0.00017293 -7.15789e-07
-1.71782e-07 -7.15789e-07 0.000160739
0.00202525 5.30293e-05 5.95972e-06
5.30293e-05 0.000953998 -4.60052e-06
5.95972e-06 -4.60052e-06 0.000967233
0.000457575 3.40516e-05 1.1333e-06
3.40516e-05 -3.46583e-05 3.79175e-06
1.1333e-06 3.79175e-06 -5.3831e-05
0.00234435 7.81223e-05 -5.7554e-06
7.81223e-05 0.00116458 1.16947e-06
-5.7554e-06 1.16947e-06 0.0011721
0.0025736 0.000107381 -6.09152e-07
0.000107381 0.00131782 5.82916e-06
-6.09152e-07 5.82916e-06 0.00131849
0.00230886 0.000174704 -2.97598e-06
0.000174704 -5.90921e-05 -7.3415e-07
-2.97598e-06 -7.3415e-07 8.64887e-06
0.00212599 -6.22192e-06 1.95377e-06
-6.22192e-06 -7.5526e-05 -1.48242e-07
1.95377e-06 -1.48242e-07 -8.94157e-06
0.00205104 6.64667e-05 -7.6495e-06
6.64667e-05 -0.000213928 3.54868e-06
-7.6495e-06 3.54868e-06 -0.000141653
0.00257562 0.000622368 9.39224e-05
0.000622368 -0.00146892 2.00303e-05
9.39224e-05 2.00303e-05 -0.000724622
0.00238024 -3.03777e-05 -2.50812e-07
-3.03777e-05 -7.95587e-05 -2.76696e-06
-2.50812e-07 -2.76696e-06 2.80126e-05
0.0022197 6.51862e-05 2.99817e-07
6.51862e-05 8.63382e-05 -9.34371e-06
2.99817e-07 -9.34371e-06 0.000232354
0.00322669 -4.20291e-05 -2.46236e-05
-4.20291e-05 0.000808209 -8.50058e-07
-2.46236e-05 -8.50058e-07 0.000839276
0.00327895 0.000131718 -1.53158e-05
0.000131718 -0.0018852 -3.97814e-05
-1.53158e-05 -3.97814e-05 -0.000799104
0.00257052 0.000213466 0.000128385
0.000213466 -0.000837315 4.87411e-05
0.000128385 4.87411e-05 -0.000307616
0.00059222 8.81215e-05 -1.52172e-07
8.81215e-05 0.000112695 -8.03883e-07
-1.52172e-07 -8.03883e-07 1.8672e-05
0.000575241 -2.78126e-06 4.12835e-07
-2.78126e-06 0.000113348 -1.09025e-07
4.12835e-07 -1.09025e-07 1.0338e-05
0.000338038 -9.01292e-05 -6.28195e-06
-9.01292e-05 -2.25469e-05 1.12512e-06
-6.28195e-06 1.12512e-06 -0.000138383
0.000421228 -4.91253e-05 -3.9313e-06
-4.91253e-05 3.2964e-05 2.02605e-06
-3.9313e-06 2.02605e-06 -8.53785e-05
0.00231861 -0.000191281 -3.25807e-06
-0.000191281 -0.000150453 -2.6701e-07
-3.25807e-06 -2.6701e-07 -2.36766e-05
0.00228432 -0.000467602 7.94716e-07
-0.000467602 -0.00015539 -2.42833e-06
7.94716e-07 -2.42833e-06 -2.96934e-05
0.00228442 -0.000671867 -3.57639e-06
-0.000671867 -8.01482e-06 1.64333e-06
-3.57639e-06 1.64333e-06 -4.505e-05
0.00365314 -0.000847749 1.92076e-05
-0.000847749 0.00166373 1.40391e-05
1.92076e-05 1.40391e-05 0.00120149
0.000366134 -0.000782972 -1.83719e-06
-0.000782972 -0.000515068 1.30836e-06
-1.83719e-06 1.30836e-06 -0.00100006
0.00228787 -0.000891797 -4.61685e-07
-0.000891797 0.000259547 -2.05776e-06
-4.61685e-07 -2.05776e-06 1.86012e-06
0.000889444 -0.000692122 2.10954e-05
-0.000692122 3.95663e-05 -1.93527e-05
2.10954e-05 -1.93527e-05 -0.000439298
0.00359796 -0.000319452 9.9339e-06
-0.000319452 0.00176873 -5.09496e-06
9.9339e-06 -5.09496e-06 0.00137211
-3.83239e-05 -1.70582e-05 -6.61043e-06
-1.70582e-05 -0.00040026 4.03702e-06
-6.61043e-06 4.03702e-06 -0.000607274
0.000641289 -5.65014e-05 3.84065e-06
-5.65014e-05 0.000145997 -7.59596e-07
3.84065e-06 -7.59596e-07 4.98524e-05
0.000615702 -0.000138836 -3.72606e-06
-0.000138836 0.000191338 -1.28237e-05
-3.72606e-06 -1.28237e-05 -6.28842e-05
0.000426257 -2.628e-05 5.7104e-06
-2.628e-05 2.93166e-05 -1.05487e-06
5.7104e-06 -1.05487e-06 -0.000123103
0.000593797 1.385e-06 5.70455e-07
1.385e-06 0.000141592 1.86843e-06
5.70455e-07 1.86843e-06 2.55202e-05
0.000593985 -7.57402e-05 -7.64903e-06
-7.57402e-05 7.07543e-05 -7.13137e-07
-7.64903e-06 -7.13137e-07 -2.01654e-05
0.0026296 -0.000306084 2.04062e-06
-0.000306084 6.72877e-05 1.40489e-06
2.04062e-06 1.40489e-06 0.000201347
0.000489154 -2.46383e-05 -7.64758e-07
-2.46383e-05 7.43725e-05 1.95884e-06
-7.64758e-07 1.95884e-06 -5.55891e-05
0.000849091 -4.81078e-05 6.68859e-06
-4.81078e-05 0.000224346 -1.63606e-07
6.68859e-06 -1.63606e-07 0.000108736
-0.000616451 -4.07374e-05 4.30534e-06
-4.07374e-05 -0.00061897 -2.00318e-07
4.30534e-06 -2.00318e-07 -0.000679749
0.00204748 -0.000524028 7.09954e-07
-0.000524028 -0.00032468 -1.27038e-06
7.09954e-07 -1.27038e-06 -0.000105651
0.00227913 -0.000822008 2.14991e-06
-0.000822008 9.94563e-05 -1.29287e-06
2.14991e-06 -1.29287e-06 -7.39946e-05
0.00192374 -0.000852566 -4.58329e-06
-0.000852566 0.000607629 4.6582e-07
-4.58329e-06 4.6582e-07 0.00013111
0.00262031 -0.00102495 -6.12062e-06
-0.00102495 0.000584012 1.58144e-06
-6.12062e-06 1.58144e-06 0.000249839
0.00147371 -0.000160673 3.56909e-06
-0.000160673 0.000687084 -2.69261e-06
3.56909e-06 -2.69261e-06 0.000481539
0.000202057 -3.71488e-05 7.65613e-06
-3.71488e-05 -0.000129702 9.77167e-06
7.65613e-06 9.77167e-06 -0.000357805
0.00176955 -0.00102552 1.85474e-06
-0.00102552 0.000925466 -2.8303e-06
1.85474e-06 -2.8303e-06 0.000188732
0.00106654 -0.000393806 -7.45638e-06
-0.000393806 0.000458908 -9.1459e-07
-7.45638e-06 -9.1459e-07 -4.28634e-05
0.00339892 -0.000449133 -4.38949e-05
-0.000449133 0.000431039 5.13488e-06
-4.38949e-05 5.13488e-06 0.000691654
0.00266436 -0.000684373 -4.14377e-05
-0.000684373 0.000237119 1.31469e-05
-4.14377e-05 1.31469e-05 0.000296632
0.00257582 -0.000957875 3.3757e-06
-0.000957875 0.000455882 -9.60522e-06
3.3757e-06 -9.60522e-06 0.000130244
0.00303035 -0.00102782 4.96617e-06
-0.00102782 0.00102801 5.63696e-06
4.96617e-06 5.63696e-06 0.000679844
8.82834e-05 -6.18416e-05 -2.29947e-06
-6.18416e-05 -0.000108495 -7.65528e-06
-2.29947e-06 -7.65528e-06 -0.000235944
0.000441016 -0.000126106 -1.22989e-05
-0.000126106 5.07356e-05 -3.88314e-06
-1.22989e-05 -3.88314e-06 -0.000133678
0.000144513 -0.000187439 -6.70201e-06
-0.000187439 0.000137079 5.08887e-05
-6.70201e-06 5.08887e-05 -0.00019286
-0.000443875 -0.00086078 -3.37161e-06
-0.00086078 0.000308832 -2.73485e-05
-3.37161e-06 -2.73485e-05 -0.000763241
0.00265089 -0.000461403 5.84459e-05
-0.000461403 -0.00527088 -2.11964e-05
5.84459e-05 -2.11964e-05 -0.00532075
0.00234963 0.000291006 7.69839e-07
0.000291006 0.00122823 -3.65526e-06
7.69839e-07 -3.65526e-06 0.000999117
0.00124398 0.000355659 -7.72667e-07
0.000355659 0.000425211 -4.4698e-07
-7.72667e-07 -4.4698e-07 0.000150002
0.00191197 0.000343242 5.64438e-05
0.000343242 -0.000291671 1.75086e-05
5.64438e-05 1.75086e-05 -9.56246e-05
0.00256287 0.000789685 2.33483e-05
0.000789685 0.000347444 9.56024e-06
2.33483e-05 9.56024e-06 0.000154312
0.00219445 0.000817661 7.56804e-06
0.000817661 0.000561416 1.08343e-05
7.56804e-06 1.08343e-05 0.000113318
0.0012436 0.000570667 6.46462e-06
0.000570667 0.000242165 6.73526e-06
6.46462e-06 6.73526e-06 -0.00018542
0.00547433 0.00144401 0.000114225
0.00144401 0.000328044 3.31808e-05
0.000114225 3.31808e-05 0.000282937
0.00141796 0.000314564 5.38514e-06
0.000314564 0.000727719 2.84678e-07
5.38514e-06 2.84678e-07 0.000482495
0.00263985 0.000731818 -2.38628e-05
0.000731818 0.000222508 7.60962e-07
-2.38628e-05 7.60962e-07 0.000216291
0.000911394 0.000435869 -4.91893e-06
0.000435869 0.000104611 3.68648e-06
-4.91893e-06 3.68648e-06 -0.00022976
0.00145375 0.000661947 6.9129e-07
0.000661947 0.000312211 -6.6121e-06
6.9129e-07 -6.6121e-06 -0.000123306
0.00227784 0.000911512 -1.12974e-05
0.000911512 0.00037173 -4.32027e-07
-1.12974e-05 -4.32027e-07 7.19112e-05
0.00466067 -0.000653724 -0.000163338
-0.000653724 -0.00481039 -8.74975e-05
-0.000163338 -8.74975e-05 -0.00565441
0.00696967 0.00178756 -0.00014363
0.00178756 -0.000380035 -5.97688e-05
-0.00014363 -5.97688e-05 0.000651861
0.00111267 0.00126729 -1.31098e-06
0.00126729 -0.000435241 5.75948e-06
-1.31098e-06 5.75948e-06 -0.000791313
0.000917398 -0.00200805 0.000542
-0.00200805 0.0028849 0.000210972
0.000542 0.000210972 -5.27546e-05
0.0137576 -0.00867165 -0.000485999
-0.00867165 0.00662023 -0.000441767
-0.000485999 -0.000441767 0.00390314
0.000719259 0.000258316 -1.53451e-05
0.000258316 0.000198005 -8.51934e-07
-1.53451e-05 -8.51934e-07 -1.99019e-05
0.00127127 0.0005436 0.000760741
0.0005436 0.00414602 6.93609e-05
0.000760741 6.93609e-05 0.00215877
0.00374825 -0.0031214 -0.000181281
-0.0031214 0.00574452 -0.000231136
-0.000181281 -0.000231136 0.000551358
0.00312305 0.00116744 -5.57579e-05
0.00116744 0.000618137 -1.292e-05
-5.57579e-05 -1.292e-05 0.000427335
0.000700071 0.000344955 -2.71962e-05
0.000344955 -1.80003e-05 -4.69064e-06
-2.71962e-05 -4.69064e-06 -0.000311586
0.000831827 0.000681495 -3.15974e-05
0.000681495 2.58176e-05 -2.67675e-05
-3.15974e-05 -2.67675e-05 -0.000342612
-0.000201893 0.00114561 5.45176e-05
0.00114561 -0.000875409 9.77399e-05
5.45176e-05 9.77399e-05 -0.0012466
0.0124903 0.00245451 5.60387e-05
0.00245451 0.00137779 -2.01698e-05
5.60387e-05 -2.01698e-05 0.000522336
0.00490109 0.00264302 -4.68228e-05
0.00264302 -0.000175079 -5.05102e-05
-4.68228e-05 -5.05102e-05 0.000434387
0.0154203 -0.00654917 0.00100447
-0.00654917 0.00492405 0.000524471
0.00100447 0.000524471 0.0012271
0.0130792 -0.00300515 -9.67583e-05
-0.00300515 0.00369572 0.000621869
-9.67583e-05 0.000621869 0.00203748
0.000366523 8.76248e-05 4.81851e-06
8.76248e-05 8.17011e-05 -4.53078e-06
4.81851e-06 -4.53078e-06 -4.10895e-06
0.000173805 0.000130523 8.3352e-06
0.000130523 -3.75003e-05 1.35596e-06
8.3352e-06 1.35596e-06 -0.000146496
0.00192761 0.000303066 2.69562e-06
0.000303066 0.00104431 -1.60958e-06
2.69562e-06 -1.60958e-06 0.000861868
0.000579371 7.88032e-06 9.69576e-07
7.88032e-06 0.000128029 -8.5334e-08
9.69576e-07 -8.5334e-08 -1.7831e-05
0.000608744 7.07643e-05 -6.89752e-07
7.07643e-05 0.000129861 -2.19288e-06
-6.89752e-07 -2.19288e-06 -3.00584e-05
1.76953e-05 3.66855e-05 -1.77646e-06
3.66855e-05 -0.000229881 7.94042e-07
-1.77646e-06 7.94042e-07 -0.000385251
0.000760752 0.000118963 -7.74888e-06
0.000118963 0.000229144 2.06079e-06
-7.74888e-06 2.06079e-06 8.08135e-05
-0.000479524 6.07788e-05 -4.01048e-06
6.07788e-05 -0.000571542 -9.15551e-08
-4.01048e-06 -9.15551e-08 -0.000619649
0.000344949 -1.31988e-05 1.04798e-07
-1.31988e-05 -3.86865e-05 8.16244e-07
1.04798e-07 8.16244e-07 -0.000176428
0.00129776 0.000146307 1.90559e-06
0.000146307 0.000556801 1.08452e-07
1.90559e-06 1.08452e-07 0.000383524
0.000575071 5.87638e-05 4.46151e-08
5.87638e-05 0.000132004 1.21784e-07
4.46151e-08 1.21784e-07 -4.36835e-05
0.000770485 3.73074e-05 1.30092e-06
3.73074e-05 0.000250033 -4.11196e-07
1.30092e-06 -4.11196e-07 6.87185e-05
0.000302114 0.000103774 -5.47227e-07
0.000103774 4.8785e-06 -2.84414e-06
-5.47227e-07 -2.84414e-06 -0.000154067
0.00146073 0.00013694 -2.03874e-06
0.00013694 0.000686317 -3.1314e-06
-2.03874e-06 -3.1314e-06 0.000516055
-0.000376461 5.56167e-05 -6.18613e-06
5.56167e-05 -0.00027784 -5.43418e-06
-6.18613e-06 -5.43418e-06 -0.000504425
0.000438078 -7.93678e-05 1.45926e-07
-7.93678e-05 3.88531e-05 -2.86721e-07
1.45926e-07 -2.86721e-07 -0.00013456
0.000791029 -8.43056e-05 -1.25467e-06
-8.43056e-05 0.000269994 -7.63222e-07
-1.25467e-06 -7.63222e-07 8.80614e-05
0.000785924 -4.94911e-05 -2.67606e-07
-4.94911e-05 0.000263792 -6.73947e-07
-2.67606e-07 -6.73947e-07 8.53819e-05
0.000700585 -2.93445e-05 -3.86725e-06
-2.93445e-05 0.000172985 4.23685e-07
-3.86725e-06 4.23685e-07 3.38605e-05
0.00111601 4.02439e-06 -6.53344e-06
4.02439e-06 0.000505483 -5.10751e-06
-6.53344e-06 -5.10751e-06 0.000302978
0.000805317 -6.35829e-05 2.94178e-06
-6.35829e-05 0.000251437 -9.75319e-06
2.94178e-06 -9.75319e-06 0.000116125
-0.00131513 -1.44752e-06 -3.30084e-06
-1.44752e-06 -0.00105589 -6.77293e-06
-3.30084e-06 -6.77293e-06 -0.00117081
0.000356134 -4.40951e-05 2.2625e-06
-4.40951e-05 1.35622e-05 -2.03919e-06
2.2625e-06 -2.03919e-06 -0.000164313
0.000337672 -7.85225e-05 2.0845e-06
-7.85225e-05 -3.26288e-05 2.41812e-07
2.0845e-06 2.41812e-07 -0.000168926
0.000726127 -0.000107974 -1.23489e-06
-0.000107974 0.000231819 5.63515e-08
-1.23489e-06 5.63515e-08 7.85774e-05
0.00051479 -8.50462e-05 -1.04923e-06
-8.50462e-05 4.94186e-05 2.12162e-06
-1.04923e-06 2.12162e-06 -6.80947e-05
0.000399477 -8.54111e-05 3.35618e-06
-8.54111e-05 -1.13952e-05 6.9755e-07
3.35618e-06 6.9755e-07 -0.000151409
0.000540581 -0.000114844 1.34009e-08
-0.000114844 8.01522e-05 2.09327e-07
1.34009e-08 2.09327e-07 -5.30212e-05
0.000537377 -5.58603e-05 -1.94215e-06
-5.58603e-05 4.93485e-05 4.7023e-06
-1.94215e-06 4.7023e-06 -3.07232e-05
0.000379346 -8.71462e-06 8.05765e-07
-8.71462e-06 -7.52143e-06 -1.13881e-06
8.05765e-07 -1.13881e-06 -0.000152438
0.000489844 8.02234e-07 2.24591e-06
8.02234e-07 3.03842e-05 1.32204e-07
2.24591e-06 1.32204e-07 -5.38675e-05
0.00145222 -3.04876e-05 -9.30888e-06
-3.04876e-05 0.000602272 6.88934e-06
-9.30888e-06 6.88934e-06 0.000580988
0.000478876 6.72897e-05 -2.08099e-06
6.72897e-05 2.31838e-05 -3.31297e-06
-2.08099e-06 -3.31297e-06 -6.00773e-05
0.000870061 -1.66685e-05 -3.92699e-06
-1.66685e-05 0.000244088 7.31319e-07
-3.92699e-06 7.31319e-07 0.000220755
0.000783395 3.504e-06 -2.74298e-06
3.504e-06 0.000174737 4.8159e-06
-2.74298e-06 4.8159e-06 0.000179159
0.000391177 -1.86563e-05 3.35798e-06
-1.86563e-05 -5.75136e-05 -4.94106e-06
3.35798e-06 -4.94106e-06 -8.16992e-05
0.0025745 3.84255e-06 7.0176e-06
3.84255e-06 0.00129656 -1.21064e-08
7.0176e-06 -1.21064e-08 0.00130883
0.000887372 2.93066e-06 -9.18426e-06
2.93066e-06 0.000236147 -5.39683e-06
-9.18426e-06 -5.39683e-06 0.000239888
0.000502139 6.54e-05 2.16141e-06
6.54e-05 5.86228e-05 9.01124e-07
2.16141e-06 9.01124e-07 -4.17344e-05
0.000457916 5.25572e-05 -2.55749e-06
5.25572e-05 -6.48273e-06 -2.26024e-06
-2.55749e-06 -2.26024e-06 -5.35393e-05
0.000477915 -3.62652e-06 1.60041e-06
-3.62652e-06 6.90653e-06 1.43689e-07
1.60041e-06 1.43689e-07 -4.24215e-05
0.000480067 9.16306e-06 8.31069e-07
9.16306e-06 -2.92849e-05 -3.09573e-06
8.31069e-07 -3.09573e-06 -3.89576e-05
0.000552029 -6.25538e-05 -1.77215e-06
-6.25538e-05 5.69805e-05 2.18813e-06
-1.77215e-06 2.18813e-06 3.51319e-08
0.000476536 1.31796e-05 9.81932e-08
1.31796e-05 -3.26512e-05 -7.20089e-07
9.81932e-08 -7.20089e-07 -4.36264e-05
0.00201413 3.68198e-05 4.02097e-06
3.68198e-05 0.000942693 -4.65218e-06
4.02097e-06 -4.65218e-06 0.000958254
0.00110434 3.58689e-05 -6.77697e-08
3.58689e-05 0.000367547 1.66236e-06
-6.77697e-08 1.66236e-06 0.000356439
0.00146503 4.56434e-05 -3.3299e-07
4.56434e-05 0.000602083 1.43419e-06
-3.3299e-07 1.43419e-06 0.000610497
0.000883168 4.95361e-05 -6.39526e-06
4.95361e-05 0.000241707 8.12603e-06
-6.39526e-06 8.12603e-06 0.00024238
0.000873976 0.000429029 7.6567e-05
0.000429029 -0.00228422 1.63782e-05
7.6567e-05 1.63782e-05 -0.00151433
0.00235297 -5.08154e-05 -4.59465e-06
-5.08154e-05 -6.25837e-05 6.16095e-06
-4.59465e-06 6.16095e-06 3.67537e-05
0.002199 7.00532e-05 3.11295e-05
7.00532e-05 9.95991e-05 -1.22645e-05
3.11295e-05 -1.22645e-05 0.000222389
0.00273571 0.000384135 -5.32707e-05
0.000384135 -0.00181972 -3.61554e-05
-5.32707e-05 -3.61554e-05 -0.000482433
0.00247274 0.000117565 4.49527e-05
0.000117565 -0.000686511 -1.67292e-06
4.49527e-05 -1.67292e-06 -0.000262464
0.00259925 -5.16298e-05 2.88466e-06
-5.16298e-05 0.000343065 -9.54727e-06
2.88466e-06 -9.54727e-06 0.000404854
0.00477089 -0.000357295 -5.81269e-05
-0.000357295 0.00108285 -1.89192e-05
-5.81269e-05 -1.89192e-05 0.00123228
0.00304543 -0.000247671 2.86461e-05
-0.000247671 -0.000488197 2.19332e-06
2.86461e-05 2.19332e-06 0.000142934
0.0161972 -0.000852513 4.93116e-05
-0.000852513 0.00279064 -1.7217e-05
4.93116e-05 -1.7217e-05 0.00174215
0.0152634 0.00558281 0.00144181
0.00558281 0.00596891 -0.000460345
0.00144181 -0.000460345 0.00296396
0.019023 0.00647885 4.5628e-05
0.00647885 0.0122666 1.22766e-05
4.5628e-05 1.22766e-05 0.00929072
0.000153997 -9.85063e-05 -1.79285e-07
-9.85063e-05 -0.000142303 -6.16647e-07
-1.79285e-07 -6.16647e-07 -0.000252845
0.000544676 -6.71688e-06 1.59331e-06
-6.71688e-06 8.20624e-05 -9.88646e-08
1.59331e-06 -9.88646e-08 -1.19318e-05
0.000621438 -8.75616e-05 -1.81506e-07
-8.75616e-05 0.00014869 3.32372e-06
-1.81506e-07 3.32372e-06 3.9165e-05
0.00053944 -3.17866e-05 7.64561e-07
-3.17866e-05 9.22712e-05 4.42452e-07
7.64561e-07 4.42452e-07 -2.33305e-05
0.000924689 0.000111368 -5.0939e-06
0.000111368 0.000378221 8.40619e-07
-5.0939e-06 8.40619e-07 0.000241488
0.000469531 0.000129974 5.17456e-07
0.000129974 2.13552e-05 7.56561e-06
5.17456e-07 7.56561e-06 -9.94472e-05
0.000965263 -4.61738e-06 2.31713e-06
-4.61738e-06 0.000374927 3.84293e-06
2.31713e-06 3.84293e-06 0.000236205
0.000513919 -2.77883e-05 -1.56006e-06
-2.77883e-05 7.18346e-05 1.32383e-06
-1.56006e-06 1.32383e-06 -4.26454e-05
0.00257912 -0.000289881 1.17403e-05
-0.000289881 3.04791e-05 -1.41391e-06
1.17403e-05 -1.41391e-06 0.00019584
0.00209048 -0.000547907 1.46582e-05
-0.000547907 -0.000335048 -6.88437e-06
1.46582e-05 -6.88437e-06 -0.000132027
0.00231084 -0.000826434 5.68098e-08
-0.000826434 0.000111749 3.72838e-06
5.68098e-08 3.72838e-06 -5.60254e-05
0.0022228 -0.00085794 1.7407e-05
-0.00085794 0.000741537 8.17959e-06
1.7407e-05 8.17959e-06 0.000292098
0.00200361 -0.000982141 -1.71024e-05
-0.000982141 0.000242765 4.91418e-06
-1.71024e-05 4.91418e-06 -9.45586e-05
0.00215303 -0.00110763 3.5542e-05
-0.00110763 0.00122132 -1.12604e-05
3.5542e-05 -1.12604e-05 0.000401608
0.0046998 -0.000750001 5.87812e-06
-0.000750001 0.00237436 3.2659e-06
5.87812e-06 3.2659e-06 0.00196706
0.000945177 -0.000222834 7.03796e-06
-0.000222834 0.000396142 -4.7334e-05
7.03796e-06 -4.7334e-05 9.12556e-05
0.000574678 -8.02051e-05 3.6458e-06
-8.02051e-05 3.11074e-05 5.70116e-08
3.6458e-06 5.70116e-08 -6.89959e-05
0.000839829 -8.03512e-05 1.00802e-05
-8.03512e-05 0.000256749 -1.8726e-05
1.00802e-05 -1.8726e-05 7.08348e-05
0.00106845 -4.95211e-05 3.67805e-06
-4.95211e-05 0.00042689 1.87303e-06
3.67805e-06 1.87303e-06 0.000286152
0.000787458 2.12668e-05 7.13747e-06
2.12668e-05 0.000269215 -5.77254e-06
7.13747e-06 -5.77254e-06 0.000235435
0.00242885 -0.000399892 -5.90205e-07
-0.000399892 -7.57258e-05 3.14562e-06
-5.90205e-07 3.14562e-06 0.000207734
0.000480718 -8.12987e-05 -3.35405e-06
-8.12987e-05 0.000121485 -2.60144e-07
-3.35405e-06 -2.60144e-07 -1.32961e-05
0.00118934 -0.000174876 -7.51963e-06
-0.000174876 0.000493279 4.98574e-06
-7.51963e-06 4.98574e-06 0.000330781
0.00173393 -0.000629908 7.72215e-06
-0.000629908 -0.000306531 -3.63459e-06
7.72215e-06 -3.63459e-06 -0.000195867
0.00182796 -0.000846276 1.18543e-06
-0.000846276 3.9182e-05 3.71188e-07
1.18543e-06 3.71188e-07 -0.000212842
0.000892629 -0.000774946 -1.30366e-06
-0.000774946 -0.000193869 -4.85971e-06
-1.30366e-06 -4.85971e-06 -0.000483788
0.00168578 -0.000352741 9.03612e-07
-0.000352741 0.000960781 -2.48204e-05
9.03612e-07 -2.48204e-05 0.000577175
0.00156755 -0.000658039 5.39704e-06
-0.000658039 0.00123877 3.54693e-06
5.39704e-06 3.54693e-06 0.000394193
0.00511462 -0.000820303 -5.26529e-05
-0.000820303 0.0012329 2.3099e-05
-5.26529e-05 2.3099e-05 0.00143216
0.00417946 -0.000978739 -4.835e-05
-0.000978739 0.00134673 1.32549e-05
-4.835e-05 1.32549e-05 0.00115097
0.00212091 -0.000976041 1.0072e-05
-0.000976041 0.000304587 -3.02599e-06
1.0072e-05 -3.02599e-06 4.14683e-05
-0.000836406 -0.000446105 -4.29012e-06
-0.000446105 -0.000876237 1.48956e-05
-4.29012e-06 1.48956e-05 -0.00100866
0.00033546 -0.000143675 8.63683e-07
-0.000143675 7.27604e-05 8.91052e-06
8.63683e-07 8.91052e-06 -0.000159923
0.000323965 -0.000165885 4.62596e-06
-0.000165885 0.000126821 5.54698e-07
4.62596e-06 5.54698e-07 -0.000140158
0.0019933 -0.000258152 -7.26519e-06
-0.000258152 0.00145322 -2.37907e-05
-7.26519e-06 -2.37907e-05 0.000776226
-0.00676154 -0.00037852 0.00056272
-0.00037852 -0.00426667 -3.16442e-05
0.00056272 -3.16442e-05 -0.00393319
0.0117051 -0.000349489 6.6942e-05
-0.000349489 0.00119084 2.13515e-05
6.6942e-05 2.13515e-05 0.00127909
0.00240301 0.000349547 1.08294e-05
0.000349547 0.00127246 -9.66863e-06
1.08294e-05 -9.66863e-06 0.00105658
0.00155339 0.000513954 -3.12443e-06
0.000513954 0.000530168 5.01928e-06
-3.12443e-06 5.01928e-06 0.00017091
0.00288119 0.000692955 9.89917e-05
0.000692955 0.000373702 4.25468e-05
9.89917e-05 4.25468e-05 0.00038707
0.00295941 0.00097598 2.35743e-05
0.00097598 0.000736968 9.04017e-06
2.35743e-05 9.04017e-06 0.00041866
0.00294384 0.00085484 1.7325e-05
0.00085484 0.00116828 4.78359e-06
1.7325e-05 4.78359e-06 0.00069615
0.015869 0.000730068 8.29902e-05
0.000730068 0.00301477 -3.72988e-05
8.29902e-05 -3.72988e-05 0.00227203
0.00859095 0.00231052 -0.000218437
0.00231052 -0.0005587 -2.49743e-05
-0.000218437 -2.49743e-05 0.000758761
0.00184819 0.00126077 7.55176e-06
0.00126077 9.7142e-05 -3.31175e-05
7.55176e-06 -3.31175e-05 -0.000372921
0.0133967 -0.00430657 -0.00048539
-0.00430657 0.00570263 7.46698e-08
-0.00048539 7.46698e-08 0.00295043
0.00388594 -0.00905539 -0.00242172
-0.00905539 0.0046476 -0.00150978
-0.00242172 -0.00150978 0.00145535
0.00113508 0.000335844 1.94508e-06
0.000335844 0.000516456 -1.29875e-06
1.94508e-06 -1.29875e-06 0.000262184
-0.00165282 -0.00253323 0.000481444
-0.00253323 -0.00263587 7.93547e-05
0.000481444 7.93547e-05 -0.00455486
-0.00243084 -0.00238632 -0.00051426
-0.00238632 0.00558235 -0.000202086
-0.00051426 -0.000202086 0.00020799
0.00342789 0.00110164 -1.59275e-05
0.00110164 0.000742325 2.02387e-06
-1.59275e-05 2.02387e-06 0.000603913
0.000820832 0.000425379 -8.61258e-06
0.000425379 0.0001089 8.21513e-06
-8.61258e-06 8.21513e-06 -0.000233572
0.00127415 0.000786552 5.83239e-06
0.000786552 0.00025984 1.76754e-06
5.83239e-06 1.76754e-06 -0.000148654
0.00106939 0.00113926 5.33545e-05
0.00113926 5.45172e-05 3.65628e-05
5.33545e-05 3.65628e-05 -0.000233815
0.0141586 0.00260238 -0.000149777
0.00260238 0.00114682 -8.93797e-05
-0.000149777 -8.93797e-05 -0.00058026
0.00443486 0.00292805 -4.06833e-05
0.00292805 -0.000533229 -4.21151e-05
-4.06833e-05 -4.21151e-05 0.000342297
0.0172752 -0.00508239 0.000560718
-0.00508239 0.00706774 -1.33661e-05
0.000560718 -1.33661e-05 0.00317014
0.015913 -0.00427064 0.000149048
-0.00427064 0.0029685 0.000723778
0.000149048 0.000723778 0.000930232
0.00216235 0.000397649 -2.07154e-05
0.000397649 0.00109753 -1.41581e-05
-2.07154e-05 -1.41581e-05 0.000876391
-0.0104595 0.00124924 -0.000144863
0.00124924 0.00368369 -0.000142604
-0.000144863 -0.000142604 -0.00289268
0.00501645 0.000887069 -0.000376963
0.000887069 0.00402675 -0.000495562
-0.000376963 -0.000495562 -0.000742902
0.00258678 0.000823921 -2.98582e-05
0.000823921 0.000639793 -2.48509e-06
-2.98582e-05 -2.48509e-06 0.000594124
0.00232073 0.000808804 -7.12532e-05
0.000808804 0.000976455 -2.7033e-05
-7.12532e-05 -2.7033e-05 0.000588897
0.000583739 0.000785781 -0.000103155
0.000785781 0.000619385 -2.47092e-05
-0.000103155 -2.47092e-05 -7.94203e-05
-0.00268544 0.00170782 -2.96948e-05
0.00170782 -0.00123751 -3.72508e-05
-2.96948e-05 -3.72508e-05 -0.00144518
0.000640417 0.00314874 0.00037446
0.00314874 -0.00206853 0.000139309
0.00037446 0.000139309 -0.00437914
0.0186343 -0.00628181 0.000203576
-0.00628181 0.00959776 0.000709269
0.000203576 0.000709269 0.00514769
0.00882924 -0.000896669 -0.000180349
-0.000896669 -0.0020306 -0.000148877
-0.000180349 -0.000148877 -0.00101594
-0.00070626 0.00012668 3.12696e-06
0.00012668 -0.000526584 -6.73809e-06
3.12696e-06 -6.73809e-06 -0.000664137
0.00163962 0.00029602 1.0741e-05
0.00029602 0.000853032 2.48057e-06
1.0741e-05 2.48057e-06 0.000674279
-0.000638006 6.75361e-05 -2.04889e-06
6.75361e-05 -0.000447232 -1.27533e-06
-2.04889e-06 -1.27533e-06 -0.000611314
0.000334351 5.25139e-05 1.69551e-06
5.25139e-05 -4.61057e-05 3.90281e-07
1.69551e-06 3.90281e-07 -0.000183291
0.00101715 9.24333e-05 -9.1368e-07
9.24333e-05 0.000413034 -1.46314e-06
-9.1368e-07 -1.46314e-06 0.000224874
0.000557741 1.50698e-05 -2.11673e-06
1.50698e-05 0.000128639 1.84592e-06
-2.11673e-06 1.84592e-06 -5.6179e-05
0.000500841 9.47418e-05 5.02998e-06
9.47418e-05 7.33286e-05 5.57958e-06
5.02998e-06 5.57958e-06 -0.000101874
-0.000480461 5.20633e-05 -4.06528e-06
5.20633e-05 -0.000459211 7.36091e-07
-4.06528e-06 7.36091e-07 -0.000608755
0.000775482 4.48597e-05 2.08338e-07
4.48597e-05 0.000262407 -9.22515e-07
2.08338e-07 -9.22515e-07 7.99955e-05
0.000743978 8.8529e-05 7.69106e-07
8.8529e-05 0.000233966 -1.51279e-07
7.69106e-07 -1.51279e-07 7.21229e-05
0.000854305 -4.52415e-05 -1.07893e-06
-4.52415e-05 0.000305295 2.06256e-06
-1.07893e-06 2.06256e-06 0.000121819
-0.000931341 2.4637e-05 2.37114e-06
2.4637e-05 -0.000601316 3.73076e-07
2.37114e-06 3.73076e-07 -0.000821532
5.27921e-05 4.95553e-05 -2.75562e-06
4.95553e-05 0.000201559 5.00326e-06
-2.75562e-06 5.00326e-06 -0.000149633
0.000631833 -3.50033e-05 -1.72901e-06
-3.50033e-05 0.000246764 -8.60268e-06
-1.72901e-06 -8.60268e-06 5.33523e-05
0.00119695 -1.15965e-05 -7.2387e-07
-1.15965e-05 0.000555197 4.41839e-07
-7.2387e-07 4.41839e-07 0.000345062
0.00079977 -8.16866e-05 -6.08999e-07
-8.16866e-05 0.000276841 -1.56436e-06
-6.08999e-07 -1.56436e-06 9.30269e-05
0.000229083 -8.37056e-05 3.88019e-06
-8.37056e-05 -0.000131803 7.60077e-06
3.88019e-06 7.60077e-06 -0.000259473
0.000783187 -8.95059e-05 5.07108e-07
-8.95059e-05 0.000278624 -1.32146e-06
5.07108e-07 -1.32146e-06 8.93661e-05
0.000727445 -7.2387e-05 -1.74627e-06
-7.2387e-05 0.00019116 -6.30185e-08
-1.74627e-06 -6.30185e-08 5.76684e-05
-0.000393352 -5.98023e-05 1.93189e-06
-5.98023e-05 -0.000475816 4.10378e-06
1.93189e-06 4.10378e-06 -0.00058656
4.6762e-05 -5.24378e-05 1.95153e-07
-5.24378e-05 -0.000174609 -2.63146e-06
1.95153e-07 -2.63146e-06 -0.000331097
9.76776e-05 -3.2639e-05 -7.47041e-06
-3.2639e-05 -9.36261e-05 -3.84788e-06
-7.47041e-06 -3.84788e-06 -0.000265998
-4.84891e-05 -8.39281e-05 3.57359e-06
-8.39281e-05 -0.000230446 -5.29274e-06
3.57359e-06 -5.29274e-06 -0.000362405
0.00101478 -0.000114904 9.69474e-06
-0.000114904 0.000297763 -1.6112e-05
9.69474e-06 -1.6112e-05 0.000196442
0.000572732 -0.000179703 4.16137e-07
-0.000179703 -1.52581e-05 4.02517e-06
4.16137e-07 4.02517e-06 -0.000176275
-3.96273e-05 -5.54966e-05 -6.31317e-06
-5.54966e-05 -0.000230341 -2.8098e-06
-6.31317e-06 -2.8098e-06 -0.000402238
0.00065161 -5.70446e-05 1.45465e-06
-5.70446e-05 0.000187705 -1.01627e-06
1.45465e-06 -1.01627e-06 1.14595e-05
-5.92752e-05 -3.50886e-05 2.08498e-06
-3.50886e-05 -0.000261263 -1.3464e-06
2.08498e-06 -1.3464e-06 -0.000431119
0.000672218 -0.000110352 -1.83174e-07
-0.000110352 0.000201237 -2.86198e-07
-1.83174e-07 -2.86198e-07 4.28565e-05
0.000466079 -2.64048e-05 1.40038e-06
-2.64048e-05 2.38851e-05 1.25895e-06
1.40038e-06 1.25895e-06 -9.75782e-05
0.000793348 -0.000106666 -1.54497e-06
-0.000106666 0.000264474 1.18464e-06
-1.54497e-06 1.18464e-06 0.000115542
0.000634057 -8.36354e-05 -7.9418e-07
-8.36354e-05 0.000138765 1.50753e-07
-7.9418e-07 1.50753e-07 1.1152e-05
0.000417251 3.191e-05 2.79128e-07
3.191e-05 -2.67129e-05 4.1965e-06
2.79128e-07 4.1965e-06 -0.000107992
0.000526428 -0.000108495 1.0227e-06
-0.000108495 6.54354e-05 -1.68774e-06
1.0227e-06 -1.68774e-06 -6.52371e-05
0.00051676 -3.90094e-05 -4.60067e-07
-3.90094e-05 3.32099e-05 1.02773e-07
-4.60067e-07 1.02773e-07 -4.41548e-05
0.00141862 1.18377e-05 -7.3622e-06
1.18377e-05 0.000573229 7.25119e-06
-7.3622e-06 7.25119e-06 0.000552523
0.000488169 -6.11673e-05 1.17422e-06
-6.11673e-05 2.45238e-05 -3.64754e-06
1.17422e-06 -3.64754e-06 -5.63592e-05
0.000867576 -1.72142e-05 -7.00072e-06
-1.72142e-05 0.000235519 8.2675e-07
-7.00072e-06 8.2675e-07 0.000212509
0.000765227 1.242e-05 1.14781e-06
1.242e-05 0.000154317 2.28251e-06
1.14781e-06 2.28251e-06 0.000157857
0.000427744 -1.68792e-05 2.4971e-06
-1.68792e-05 -3.72511e-05 -4.67186e-06
2.4971e-06 -4.67186e-06 -6.089e-05
0.00255313 1.27597e-05 7.01259e-06
1.27597e-05 0.0012827 3.07475e-08
7.01259e-06 3.07475e-08 0.00129528
0.00257503 1.85642e-06 1.08286e-06
1.85642e-06 0.00129687 -5.07258e-06
1.08286e-06 -5.07258e-06 0.00130917
0.00102586 8.03048e-05 -9.70894e-07
8.03048e-05 0.000386028 9.7974e-07
-9.70894e-07 9.7974e-07 0.000281461
0.000512501 6.15332e-05 -1.90969e-06
6.15332e-05 3.1565e-05 -2.41073e-06
-1.90969e-06 -2.41073e-06 -2.06979e-05
0.000539394 -1.44426e-05 -1.96537e-07
-1.44426e-05 8.56346e-05 7.79718e-07
-1.96537e-07 7.79718e-07 -1.49377e-05
0.000481748 7.12517e-06 8.78854e-07
7.12517e-06 -2.8547e-05 -3.34097e-06
8.78854e-07 -3.34097e-06 -3.75109e-05
0.00045945 -1.21547e-05 9.97479e-07
-1.21547e-05 -6.75056e-06 -1.79133e-07
9.97479e-07 -1.79133e-07 -5.29389e-05
0.000536151 -5.87683e-05 -1.37674e-06
-5.87683e-05 4.67215e-05 2.17561e-06
-1.37674e-06 2.17561e-06 -4.98115e-06
0.000483154 7.26167e-06 -4.59046e-07
7.26167e-06 -2.7777e-05 -3.93492e-09
-4.59046e-07 -3.93492e-09 -3.74274e-05
0.00197309 2.25791e-05 -1.24743e-06
2.25791e-05 0.000914102 -4.72488e-06
-1.24743e-06 -4.72488e-06 0.000931196
0.00113135 2.39412e-05 -5.29527e-07
2.39412e-05 0.000381348 2.07924e-06
-5.29527e-07 2.07924e-06 0.000373184
0.00130812 2.96241e-05 -1.47141e-06
2.96241e-05 0.000496496 1.08257e-08
-1.47141e-06 1.08257e-08 0.000508712
0.000810537 3.5488e-05 -8.44762e-06
3.5488e-05 0.000188771 7.43546e-06
-8.44762e-06 7.43546e-06 0.000194204
-0.0086291 0.001248 0.000533566
0.001248 -0.0030073 -4.77013e-05
0.000533566 -4.77013e-05 -0.00581235
-0.000878851 0.000262558 0.00114627
0.000262558 0.00631211 -0.000289031
0.00114627 -0.000289031 0.00255996
0.0022382 0.000350685 -0.000163602
0.000350685 -0.00234293 -2.86973e-05
-0.000163602 -2.86973e-05 -0.000714294
0.00179834 1.08096e-05 1.36236e-05
1.08096e-05 -0.00100821 -2.80737e-05
1.36236e-05 -2.80737e-05 -0.000545165
0.00172563 -7.48096e-05 7.40491e-06
-7.48096e-05 -0.000273624 1.93486e-05
7.40491e-06 1.93486e-05 -0.000207087
-0.00135379 2.97482e-05 -9.78404e-05
2.97482e-05 -0.00168807 -2.66688e-05
-9.78404e-05 -2.66688e-05 -0.000588343
0.00389905 -0.000407929 3.70156e-06
-0.000407929 0.000425636 5.72946e-06
3.70156e-06 5.72946e-06 0.000581245
0.0121384 -9.8537e-05 0.000188431
-9.8537e-05 -0.00068879 -7.76094e-05
0.000188431 -7.76094e-05 -0.00141299
0.00149668 0.00369405 -4.88501e-07
0.00369405 0.00088144 -6.52873e-05
-4.88501e-07 -6.52873e-05 -0.00254681
0.0129239 0.0074144 -0.000520868
0.0074144 0.00881129 0.00025798
-0.000520868 0.00025798 0.00595388
0.00177819 -0.000782048 2.61313e-05
-0.000782048 -0.00231129 -4.03095e-05
2.61313e-05 -4.03095e-05 -0.001149
0.0153612 -0.00237335 0.000223514
-0.00237335 0.00175914 -7.55261e-05
0.000223514 -7.55261e-05 0.000321033
0.0166172 0.00629028 0.0003815
0.00629028 0.00521554 -0.000538003
0.0003815 -0.000538003 0.00160007
0.0196914 0.00431752 -0.000320263
0.00431752 0.00596084 0.000274675
-0.000320263 0.000274675 0.00384796
0.000996381 0.000166355 -3.15077e-06
0.000166355 0.000426894 3.8296e-06
-3.15077e-06 3.8296e-06 0.00024982
0.000353226 3.90279e-05 4.24109e-07
3.90279e-05 -3.28204e-05 -1.05971e-06
4.24109e-07 -1.05971e-06 -0.000136179
0.000550062 -9.49214e-05 1.76138e-06
-9.49214e-05 9.59682e-05 1.42215e-06
1.76138e-06 1.42215e-06 -3.8035e-06
0.000668447 1.35488e-05 7.02633e-06
1.35488e-05 0.000178808 -5.95833e-07
7.02633e-06 -5.95833e-07 5.75547e-05
0.000865063 8.89513e-05 2.5757e-06
8.89513e-05 0.000355112 1.39087e-06
2.5757e-06 1.39087e-06 0.000216824
0.000480895 1.54499e-05 -3.77645e-07
1.54499e-05 7.50511e-05 7.58217e-06
-3.77645e-07 7.58217e-06 -8.96873e-05
0.000750145 9.4155e-05 8.9936e-07
9.4155e-05 0.000225208 3.35068e-06
8.9936e-07 3.35068e-06 8.89425e-05
0.00045656 6.37984e-05 4.6257e-06
6.37984e-05 1.84791e-05 1.44867e-06
4.6257e-06 1.44867e-06 -0.000121324
0.000700679 -3.1533e-05 2.69776e-06
-3.1533e-05 0.00020889 -1.26861e-06
2.69776e-06 -1.26861e-06 7.12684e-05
0.000482395 -1.68121e-05 2.1046e-06
-1.68121e-05 4.23888e-05 -2.79304e-06
2.1046e-06 -2.79304e-06 -6.53175e-05
0.00139291 -0.000339563 3.45469e-05
-0.000339563 -0.00060343 -6.1848e-06
3.45469e-05 -6.1848e-06 -0.000311179
0.00108433 -0.000580101 2.9956e-05
-0.000580101 -0.000663114 -9.93208e-06
2.9956e-05 -9.93208e-06 -0.000517374
0.0010502 -0.00073212 1.72889e-06
-0.00073212 -0.000397917 4.04867e-06
1.72889e-06 4.04867e-06 -0.000574299
-9.90556e-06 -0.000670825 -1.40747e-05
-0.000670825 -0.000678332 3.34066e-06
-1.40747e-05 3.34066e-06 -0.000949399
0.00288477 -0.00049681 8.83404e-06
-0.00049681 0.0018058 3.49867e-05
8.83404e-06 3.49867e-05 0.00114407
-0.000241477 -0.000508021 -3.82536e-06
-0.000508021 -0.000195577 -6.98648e-06
-3.82536e-06 -6.98648e-06 -0.00070329
0.00154451 -0.000249921 5.60014e-06
-0.000249921 0.000711573 -3.04484e-06
5.60014e-06 -3.04484e-06 0.000571097
0.000623538 -5.13095e-05 -2.78527e-08
-5.13095e-05 0.000200276 3.13486e-06
-2.78527e-08 3.13486e-06 6.38476e-05
0.00240413 -0.000590787 1.10856e-05
-0.000590787 -0.000210452 -8.70333e-06
1.10856e-05 -8.70333e-06 6.05948e-05
0.000372473 -5.59419e-05 7.03919e-07
-5.59419e-05 9.83958e-05 1.65468e-06
7.03919e-07 1.65468e-06 -0.000145738
-0.000189124 -0.000188007 -1.01705e-06
-0.000188007 -0.00017265 -5.78071e-06
-1.01705e-06 -5.78071e-06 -0.000443049
0.00185245 -0.000771689 1.95114e-05
-0.000771689 2.94679e-05 -2.20422e-06
1.95114e-05 -2.20422e-06 -3.83531e-05
0.00192619 -0.000961156 -7.17322e-07
-0.000961156 0.000127737 3.13275e-06
-7.17322e-07 3.13275e-06 -6.57052e-05
0.00028968 -0.000707174 1.99742e-05
-0.000707174 -0.000214781 -1.5172e-05
1.99742e-05 -1.5172e-05 -0.000471106
0.00112354 -0.000356233 5.54233e-06
-0.000356233 0.000964274 -1.91204e-05
5.54233e-06 -1.91204e-05 0.000273455
0.00239753 -0.000932054 -6.44543e-05
-0.000932054 0.000228131 3.92443e-05
-6.44543e-05 3.92443e-05 -2.83476e-05
0.00100472 -0.000697838 -3.14322e-05
-0.000697838 -0.000194552 5.75378e-06
-3.14322e-05 5.75378e-06 -0.000213491
0.000309138 -0.000644212 -7.09917e-05
-0.000644212 0.000194046 4.59113e-05
-7.09917e-05 4.59113e-05 -0.000232989
-0.00243771 -0.000226029 -7.41918e-06
-0.000226029 -0.00163098 1.12895e-05
-7.41918e-06 1.12895e-05 -0.00187895
-0.00100619 -4.98972e-05 1.96304e-06
-4.98972e-05 -0.000663276 9.56461e-06
1.96304e-06 9.56461e-06 -0.000958262
0.00061049 -7.62745e-05 8.43316e-06
-7.62745e-05 0.000392885 -1.37675e-05
8.43316e-06 -1.37675e-05 9.89152e-06
-0.00242071 0.00126761 -0.000413442
0.00126761 0.00705219 1.95526e-05
-0.000413442 1.95526e-05 0.00217727
0.000250724 -0.0015145 -1.15227e-05
-0.0015145 0.0023625 1.23055e-05
-1.15227e-05 1.23055e-05 0.00144595
0.00257241 0.00102132 -0.000126083
0.00102132 -0.00534517 -2.37064e-05
-0.000126083 -2.37064e-05 -0.00555979
0.000218781 0.000253736 1.28437e-05
0.000253736 -1.59083e-05 -3.37892e-06
1.28437e-05 -3.37892e-06 -0.000261174
0.00163329 0.000592156 1.2209e-05
0.000592156 0.000633434 1.96806e-05
1.2209e-05 1.96806e-05 0.000225562
0.00346383 0.000975119 6.76502e-05
0.000975119 0.000747745 2.01059e-05
6.76502e-05 2.01059e-05 0.000650998
0.00156986 0.000852963 1.49971e-05
0.000852963 0.000438861 2.10644e-05
1.49971e-05 2.10644e-05 -2.96908e-06
0.0127667 -0.00292728 0.000228843
-0.00292728 0.00479839 7.79789e-05
0.000228843 7.79789e-05 0.00365182
0.00357234 0.00141037 -0.000367952
0.00141037 -0.00439483 -7.49228e-05
-0.000367952 -7.49228e-05 -0.00599525
0.00518711 0.00279545 2.98446e-05
0.00279545 0.000248679 2.82232e-05
2.98446e-05 2.82232e-05 0.000764075
0.00272121 0.00116435 5.60232e-05
0.00116435 0.00109755 -1.3407e-05
5.60232e-05 -1.3407e-05 0.00085553
0.00808905 -0.00320338 -0.000383155
-0.00320338 0.00361181 -0.000369141
-0.000383155 -0.000369141 0.000150559
-0.000207921 -0.00344916 -0.000697178
-0.00344916 0.00613384 -0.000218097
-0.000697178 -0.000218097 0.000632697
0.0241033 -0.00549254 0.000731913
-0.00549254 0.00675565 0.00037971
0.000731913 0.00037971 0.00441293
0.000393199 0.000246636 1.7138e-05
0.000246636 6.08176e-05 -4.25869e-06
1.7138e-05 -4.25869e-06 -0.000150629
-0.00414075 0.00046021 -0.000183683
0.00046021 0.00559989 -3.51581e-05
-0.000183683 -3.51581e-05 2.1138e-05
0.00570495 0.00121714 -0.000131275
0.00121714 0.00330438 -0.000172807
-0.000131275 -0.000172807 -0.00194918
0.00177458 0.000844134 1.06322e-05
0.000844134 0.000304948 3.38959e-06
1.06322e-05 3.38959e-06 0.000192316
0.000771456 0.000626896 1.291e-05
0.000626896 0.000233202 4.56445e-06
1.291e-05 4.56445e-06 -0.000164089
0.000761555 0.000951128 -5.68447e-05
0.000951128 0.000510482 -6.20255e-05
-5.68447e-05 -6.20255e-05 -6.04158e-05
0.004182 0.00316843 3.09754e-05
0.00316843 0.00124315 3.065e-05
3.09754e-05 3.065e-05 0.00105218
0.0166255 0.00422199 3.71103e-05
0.00422199 0.00370587 1.2215e-05
3.71103e-05 1.2215e-05 0.00153941
0.00813707 -0.00371594 8.59205e-05
-0.00371594 0.00357781 -8.95691e-05
8.59205e-05 -8.95691e-05 -0.0013637
0.0153184 -0.00220594 -1.05829e-05
-0.00220594 0.0021665 -6.91938e-05
-1.05829e-05 -6.91938e-05 0.00334016
0.000704736 0.00046182 -1.45281e-05
0.00046182 0.000259427 -8.36297e-06
-1.45281e-05 -8.36297e-06 -2.96066e-05
0.00190372 0.0002202 -0.000347535
0.0002202 0.00218778 -8.27864e-05
-0.000347535 -8.27864e-05 -0.0025142
0.000968662 0.000788613 -0.000132576
0.000788613 -0.000187405 -0.000172116
-0.000132576 -0.000172116 -0.00176793
-0.000638216 0.000304295 -5.76443e-06
0.000304295 -0.000133134 -1.97741e-05
-5.76443e-06 -1.97741e-05 -0.000392949
-0.000862052 0.000654185 -0.000192484
0.000654185 0.000978979 -1.21275e-05
-0.000192484 -1.21275e-05 0.000190292
0.013565 0.00486207 0.000112131
0.00486207 0.00435976 -4.11629e-05
0.000112131 -4.11629e-05 1.89459e-05
-0.00185233 -0.00522088 -2.31802e-06
-0.00522088 -0.00018378 0.000231142
-2.31802e-06 0.000231142 -0.00508185
0.0118444 0.000240408 6.54029e-05
0.000240408 -0.00162525 -0.000326279
6.54029e-05 -0.000326279 0.00092126
0.000818426 0.000185946 -4.16892e-06
0.000185946 0.00030787 1.58396e-05
-4.16892e-06 1.58396e-05 0.000167502
0.000937316 0.000232278 -9.48641e-06
0.000232278 0.000519952 -5.56379e-06
-9.48641e-06 -5.56379e-06 0.000317366
-0.000296967 0.000116528 6.95527e-07
0.000116528 -3.41517e-05 -6.99513e-07
6.95527e-07 -6.99513e-07 -0.000339341
0.00057524 8.6395e-05 -1.66573e-06
8.6395e-05 0.000118063 -1.36209e-06
-1.66573e-06 -1.36209e-06 -5.00573e-05
0.00116996 -3.61779e-05 -2.17716e-06
-3.61779e-05 0.000515345 4.71231e-06
-2.17716e-06 4.71231e-06 0.000321118
0.000155109 7.37114e-05 2.64329e-06
7.37114e-05 -0.000142794 2.5477e-06
2.64329e-06 2.5477e-06 -0.000296548
-0.00110848 3.19829e-05 1.9237e-06
3.19829e-05 -0.000693324 2.39556e-06
1.9237e-06 2.39556e-06 -0.000913515
0.000641095 -2.55751e-05 1.22459e-06
-2.55751e-05 0.00017367 2.74176e-07
1.22459e-06 2.74176e-07 -9.30348e-06
0.00051507 3.06056e-05 4.35582e-07
3.06056e-05 0.00016814 -2.31532e-06
4.35582e-07 -2.31532e-06 -2.04655e-05
6.5064e-05 3.40894e-05 2.13093e-06
3.40894e-05 0.000247484 2.91415e-06
2.13093e-06 2.91415e-06 -0.000130699
-0.000375117 6.10637e-05 -3.51123e-06
6.10637e-05 0.000160493 1.25533e-05
-3.51123e-06 1.25533e-05 -0.00033097
0.000392357 2.74409e-06 -2.86417e-06
2.74409e-06 0.00045877 -2.49745e-06
-2.86417e-06 -2.49745e-06 7.00247e-05
0.00118851 2.44564e-05 -1.6304e-06
2.44564e-05 0.000562632 -4.06138e-06
-1.6304e-06 -4.06138e-06 0.000389345
0.000710495 -0.000149119 2.62049e-06
-0.000149119 0.00021836 1.41376e-06
2.62049e-06 1.41376e-06 3.78051e-05
0.000342938 -5.10239e-05 9.52727e-07
-5.10239e-05 -6.44766e-05 3.66293e-06
9.52727e-07 3.66293e-06 -0.000188936
0.000324981 -9.12788e-05 1.49001e-06
-9.12788e-05 -2.59023e-05 1.29296e-05
1.49001e-06 1.29296e-05 -0.000124974
0.000251211 -4.23113e-05 2.33185e-06
-4.23113e-05 -2.00583e-05 3.1844e-06
2.33185e-06 3.1844e-06 -0.000176621
0.000554903 -4.96147e-05 -1.15926e-07
-4.96147e-05 0.000128232 7.0064e-07
-1.15926e-07 7.0064e-07 -2.3954e-05
0.000427156 -5.29164e-05 -1.08592e-07
-5.29164e-05 5.80682e-05 -2.0062e-06
-1.08592e-07 -2.0062e-06 -7.0993e-05
0.000354368 -5.92041e-05 -8.42081e-06
-5.92041e-05 2.20451e-06 -5.01512e-06
-8.42081e-06 -5.01512e-06 -0.000130469
0.000505298 -7.77315e-05 9.83218e-06
-7.77315e-05 0.000271826 -7.26125e-06
9.83218e-06 -7.26125e-06 0.000108243
0.000712339 -0.000210999 9.94855e-07
-0.000210999 1.62818e-05 3.9428e-06
9.94855e-07 3.9428e-06 -7.06418e-05
0.000567196 -0.000135182 -1.18248e-05
-0.000135182 4.59685e-05 -5.76936e-07
-1.18248e-05 -5.76936e-07 -6.32099e-05
0.00034791 -0.000186752 8.11406e-06
-0.000186752 -0.000110135 7.09255e-06
8.11406e-06 7.09255e-06 -0.000264946
0.0020028 -0.000529199 6.14663e-07
-0.000529199 0.000800567 2.05712e-05
6.14663e-07 2.05712e-05 0.000469219
0.00182655 -0.000251038 4.27899e-06
-0.000251038 0.000833511 -9.38626e-06
4.27899e-06 -9.38626e-06 0.000637426
0.00016331 -0.000143095 -8.57379e-06
-0.000143095 -0.000226963 -6.27658e-06
-8.57379e-06 -6.27658e-06 -0.000358324
0.000529816 -8.00039e-05 -1.41741e-07
-8.00039e-05 9.2249e-05 -8.76225e-07
-1.41741e-07 -8.76225e-07 -7.78404e-05
-0.000238324 -4.64659e-05 -3.60419e-07
-4.64659e-05 -0.000353366 -2.80605e-06
-3.60419e-07 -2.80605e-06 -0.000555166
0.00101959 -6.85007e-05 -2.90954e-07
-6.85007e-05 0.000405456 1.58592e-06
-2.90954e-07 1.58592e-06 0.000231538
0.000729496 -0.000126708 -2.57808e-07
-0.000126708 0.000235179 3.87203e-07
-2.57808e-07 3.87203e-07 5.24971e-05
0.000521465 -6.30952e-05 1.24001e-06
-6.30952e-05 4.53633e-05 1.63595e-06
1.24001e-06 1.63595e-06 -7.88542e-05
0.00137991 -0.000191127 -2.5761e-06
-0.000191127 0.000662362 -1.81218e-07
-2.5761e-06 -1.81218e-07 0.000478219
0.00067554 -0.000106171 -5.28096e-07
-0.000106171 0.000155692 4.1958e-08
-5.28096e-07 4.1958e-08 2.76598e-05
0.000505857 6.25269e-06 -1.04799e-06
6.25269e-06 2.29369e-05 3.51621e-06
-1.04799e-06 3.51621e-06 -5.88509e-05
0.000721033 -0.000131217 6.60509e-07
-0.000131217 0.000193144 -1.8963e-06
6.60509e-07 -1.8963e-06 6.13842e-05
0.000586964 -5.53249e-05 -1.28164e-07
-5.53249e-05 7.5704e-05 1.59423e-07
-1.28164e-07 1.59423e-07 -5.08187e-06
0.00143543 1.12666e-05 -1.20899e-05
1.12666e-05 0.000579257 7.5132e-06
-1.20899e-05 7.5132e-06 0.000556918
0.000536928 -6.79142e-05 1.59309e-06
-6.79142e-05 5.42296e-05 -4.28702e-06
1.59309e-06 -4.28702e-06 -2.87681e-05
0.000867341 -1.16195e-05 -8.3063e-06
-1.16195e-05 0.000228513 6.9058e-07
-8.3063e-06 6.9058e-07 0.000204721
0.00081003 2.18155e-05 1.18823e-06
2.18155e-05 0.000179207 2.86797e-06
1.18823e-06 2.86797e-06 0.000181103
0.000432899 -3.02143e-05 2.32883e-06
-3.02143e-05 -3.89783e-05 -5.12493e-06
2.32883e-06 -5.12493e-06 -6.41143e-05
0.00166188 2.11444e-05 1.08697e-05
2.11444e-05 0.000720694 -1.46852e-06
1.08697e-05 -1.46852e-06 0.000728798
0.00251803 1.20092e-05 1.12945e-05
1.20092e-05 0.00125996 -5.18305e-06
1.12945e-05 -5.18305e-06 0.00127269
0.000493504 5.10581e-05 1.30901e-06
5.10581e-05 3.10629e-05 -1.04165e-06
1.30901e-06 -1.04165e-06 -7.01512e-05
0.000599775 6.25694e-05 -1.36729e-06
6.25694e-05 8.02233e-05 -1.82339e-06
-1.36729e-06 -1.82339e-06 2.49788e-05
0.000589521 2.16273e-06 8.68157e-07
2.16273e-06 0.000105558 7.81721e-07
8.68157e-07 7.81721e-07 5.75974e-06
0.000470351 4.0092e-06 1.57163e-06
4.0092e-06 -3.45865e-05 -3.6231e-06
1.57163e-06 -3.6231e-06 -4.42593e-05
0.000493838 5.22442e-05 4.28879e-08
5.22442e-05 1.51317e-05 -1.72252e-07
4.28879e-08 -1.72252e-07 -3.42614e-05
0.000522332 -0.000112845 -2.70561e-06
-0.000112845 6.50132e-05 6.86833e-07
-2.70561e-06 6.86833e-07 -2.93439e-05
0.00199571 8.82041e-06 -6.39712e-06
8.82041e-06 0.00092626 -4.76977e-06
-6.39712e-06 -4.76977e-06 0.000944196
0.000459431 5.50514e-06 -2.47303e-07
5.50514e-06 -4.20908e-05 2.83311e-08
-2.47303e-07 2.83311e-08 -5.10382e-05
0.00049679 -1.12163e-05 -1.43803e-06
-1.12163e-05 1.32085e-05 2.10335e-06
-1.43803e-06 2.10335e-06 -3.08512e-05
0.000470727 5.5909e-06 -1.3365e-06
5.5909e-06 -3.62405e-05 3.36379e-06
-1.3365e-06 3.36379e-06 -4.58682e-05
0.00202622 2.41686e-05 -5.32346e-06
2.41686e-05 0.000947786 -1.0937e-07
-5.32346e-06 -1.0937e-07 0.000964533
0.00199008 3.79402e-05 -4.9868e-06
3.79402e-05 0.00092773 4.66529e-06
-4.9868e-06 4.66529e-06 0.000943307
-0.00642471 -0.00174474 -0.000185406
-0.00174474 0.0056196 5.69584e-05
-0.000185406 5.69584e-05 0.00141973
0.00199097 0.00141595 -0.000266157
0.00141595 0.000676798 8.31946e-05
-0.000266157 8.31946e-05 -0.00145784
0.00293514 -0.0010061 -0.000612638
-0.0010061 0.00123778 0.000263828
-0.000612638 0.000263828 -0.00338964
-0.000192012 0.000718614 0.00110422
0.000718614 0.00623021 -0.00033443
0.00110422 -0.00033443 0.00199932
0.00255803 0.000599795 -4.50281e-05
0.000599795 -0.00105751 4.44766e-06
-4.50281e-05 4.44766e-06 -0.000154461
0.00278028 -0.000475904 9.08319e-05
-0.000475904 -0.000286724 7.81998e-06
9.08319e-05 7.81998e-06 -0.000155155
0.000827602 -0.000371948 0.000284141
-0.000371948 -0.00493519 -6.05698e-05
0.000284141 -6.05698e-05 -0.00656678
0.0216679 0.00328626 -0.000838935
0.00328626 0.00961206 6.64769e-05
-0.000838935 6.64769e-05 0.00662989
0.00520723 0.0085972 -0.00232713
0.0085972 0.00455233 0.00149762
-0.00232713 0.00149762 0.00147584
0.0047339 -0.000646997 2.93846e-05
-0.000646997 -0.000438115 6.17538e-06
2.93846e-05 6.17538e-06 0.00029571
0.00887652 -0.00224636 0.000163931
-0.00224636 -0.00167011 -0.000138557
0.000163931 -0.000138557 -0.00389675
0.0201392 0.00555223 -0.000330883
0.00555223 0.00644236 -0.000112415
-0.000330883 -0.000112415 0.00280948
0.0147452 0.00441248 -1.00953e-05
0.00441248 0.00296067 0.000403869
-1.00953e-05 0.000403869 0.000631291
0.00180531 -0.00175228 -0.000116743
-0.00175228 -0.00311502 2.56119e-05
-0.000116743 2.56119e-05 -0.00193147
0.00631472 -0.00367891 0.000431962
-0.00367891 -0.000161113 -0.000225768
0.000431962 -0.000225768 -0.00391268
0.00691356 0.00341302 9.61968e-05
0.00341302 0.00139308 -0.000814981
9.61968e-05 -0.000814981 -0.0025478
0.00866348 0.000787396 -0.000289182
0.000787396 -0.00224782 8.55563e-06
-0.000289182 8.55563e-06 -0.00139287
0.00250328 -9.02712e-05 1.07522e-06
-9.02712e-05 0.00142323 1.64312e-05
1.07522e-06 1.64312e-05 0.00115199
0.000338711 9.87461e-05 -1.54773e-06
9.87461e-05 -1.2384e-05 -2.29818e-06
-1.54773e-06 -2.29818e-06 -0.00015561
0.000510156 0.000101239 2.98751e-06
0.000101239 5.33268e-05 -1.06843e-06
2.98751e-06 -1.06843e-06 -4.43889e-05
0.000157998 2.72259e-06 6.86038e-06
2.72259e-06 -0.000107126 -2.10376e-06
6.86038e-06 -2.10376e-06 -0.000217844
0.000446051 9.94747e-05 3.22608e-06
9.94747e-05 3.11484e-05 3.87094e-06
3.22608e-06 3.87094e-06 -0.000152907
0.000446653 4.10045e-05 -1.15549e-08
4.10045e-05 4.17047e-05 2.30284e-06
-1.15549e-08 2.30284e-06 -0.000108988
0.000230936 2.69131e-05 1.37087e-06
2.69131e-05 -9.74755e-05 -3.53541e-06
1.37087e-06 -3.53541e-06 -0.000227323
0.000918543 0.000180622 3.8822e-06
0.000180622 0.000344542 7.6751e-06
3.8822e-06 7.6751e-06 0.000169075
0.000908925 0.000131102 -2.61241e-07
0.000131102 0.000346287 -2.75098e-07
-2.61241e-07 -2.75098e-07 0.000175576
0.00037937 -1.7244e-05 -3.70282e-06
-1.7244e-05 -5.63456e-06 -6.46221e-06
-3.70282e-06 -6.46221e-06 -0.000136903
0.000511493 -0.000465659 8.47374e-05
-0.000465659 -0.00122102 -4.30806e-05
8.47374e-05 -4.30806e-05 -0.000907752
0.000172521 -0.000633282 1.33815e-05
-0.000633282 -0.000920586 -8.64666e-06
1.33815e-05 -8.64666e-06 -0.000912521
0.0013584 -0.000898275 -1.29821e-05
-0.000898275 -0.000235665 1.67105e-05
-1.29821e-05 1.67105e-05 -0.000339222
-0.00100498 -0.000690916 4.0725e-06
-0.000690916 -0.000903068 -5.05636e-06
4.0725e-06 -5.05636e-06 -0.00125241
0.00344904 -0.000457814 -2.58155e-05
-0.000457814 0.0021357 6.71756e-05
-2.58155e-05 6.71756e-05 0.00161888
0.0010588 -0.000218227 -3.33713e-06
-0.000218227 0.000608258 6.24719e-06
-3.33713e-06 6.24719e-06 0.000312914
0.000352545 0.00012659 -2.77357e-06
0.00012659 7.11668e-05 -1.57554e-05
-2.77357e-06 -1.57554e-05 -0.000169515
0.000727018 -7.13658e-05 -2.88891e-06
-7.13658e-05 0.000309392 9.49818e-06
-2.88891e-06 9.49818e-06 2.94612e-05
0.00178223 -0.000813527 -8.71469e-06
-0.000813527 -0.000197355 -3.82181e-06
-8.71469e-06 -3.82181e-06 -0.000245845
0.000802858 -6.19943e-05 1.22528e-06
-6.19943e-05 0.000387662 4.89818e-06
1.22528e-06 4.89818e-06 0.000110873
0.00218313 -0.000297998 2.2666e-06
-0.000297998 0.00132626 -1.69204e-06
2.2666e-06 -1.69204e-06 0.000926066
0.00140513 -0.000740856 7.68074e-06
-0.000740856 1.7339e-05 3.12202e-06
7.68074e-06 3.12202e-06 -1.65909e-05
0.000566448 -0.000648766 -3.15695e-05
-0.000648766 0.000263673 7.99503e-06
-3.15695e-05 7.99503e-06 -0.000121918
0.00203756 -0.00139666 4.29513e-05
-0.00139666 -1.10773e-05 -1.91087e-05
4.29513e-05 -1.91087e-05 -4.59663e-05
-0.000304167 -0.000475034 -5.59507e-06
-0.000475034 -0.000444115 2.34988e-05
-5.59507e-06 2.34988e-05 -0.000490724
-0.00137999 -7.33145e-05 2.02915e-05
-7.33145e-05 -0.000603211 -9.78871e-07
2.02915e-05 -9.78871e-07 -0.00108212
0.000664908 2.59973e-05 -4.531e-06
2.59973e-05 0.000255441 -3.79889e-07
-4.531e-06 -3.79889e-07 2.68101e-05
0.000618672 -3.55736e-05 6.80546e-06
-3.55736e-05 0.000393702 -6.8008e-06
6.80546e-06 -6.8008e-06 7.56172e-05
0.0013119 0.000130245 -4.44458e-05
0.000130245 0.00187452 -1.72527e-05
-4.44458e-05 -1.72527e-05 -0.00212843
-0.00658256 0.000430318 -0.000362807
0.000430318 0.00642709 -1.90306e-05
-0.000362807 -1.90306e-05 0.00131758
-0.0132678 -0.00247897 -0.000715108
-0.00247897 -0.00531626 -8.03552e-06
-0.000715108 -8.03552e-06 -0.0061401
-0.000696752 0.000184671 1.09084e-05
0.000184671 -0.000534527 -5.36168e-06
1.09084e-05 -5.36168e-06 -0.000769086
-0.000782253 0.000471686 -3.33453e-06
0.000471686 -0.000546902 9.03081e-06
-3.33453e-06 9.03081e-06 -0.000955031
0.00216309 0.000973421 3.16219e-05
0.000973421 0.000532979 2.57359e-05
3.16219e-05 2.57359e-05 0.000381467
-0.00555184 0.00194384 7.66365e-05
0.00194384 0.00611531 5.78454e-05
7.66365e-05 5.78454e-05 0.00146559
0.00687438 0.00361773 -0.000290348
0.00361773 0.000101313 -0.00016835
-0.000290348 -0.00016835 -0.00328235
0.0018761 0.00215515 0.000424181
0.00215515 0.000377078 0.000154054
0.000424181 0.000154054 0.000225836
4.03922e-05 0.000904796 2.32305e-05
0.000904796 -9.17523e-06 -4.54587e-05
2.32305e-05 -4.54587e-05 -0.000289855
0.0266695 -0.00370741 -0.000156493
-0.00370741 0.00867133 -0.00036547
-0.000156493 -0.00036547 0.0053337
0.00628112 0.00157425 0.000543376
0.00157425 0.00315072 0.000196515
0.000543376 0.000196515 -0.002544
0.0138318 -0.00192555 0.000175978
-0.00192555 0.00241759 2.94363e-05
0.000175978 2.94363e-05 0.00370645
0.00124277 0.000515731 2.57793e-06
0.000515731 0.00064275 -2.10713e-06
2.57793e-06 -2.10713e-06 0.00033838
0.00381102 0.000575739 -1.01552e-05
0.000575739 0.0031147 1.41243e-05
-1.01552e-05 1.41243e-05 -0.000409505
0.0016397 0.000717593 6.85666e-05
0.000717593 8.94742e-05 8.48354e-07
6.85666e-05 8.48354e-07 -0.00151914
-0.000454741 0.000478327 -2.76301e-06
0.000478327 -0.00014504 -5.36829e-06
-2.76301e-06 -5.36829e-06 -0.000471861
0.000227019 0.00126253 -0.00012268
0.00126253 0.000834726 -5.97984e-05
-0.00012268 -5.97984e-05 -0.000378776
0.0010256 0.00453661 0.0002077
0.00453661 0.000592124 0.000110013
0.0002077 0.000110013 -0.00382887
0.00957234 -2.44837e-05 -3.81172e-06
-2.44837e-05 -0.00344144 -0.000211469
-3.81172e-06 -0.000211469 -0.00063013
0.00547179 -0.00262581 -7.67182e-05
-0.00262581 0.00342085 -0.000164974
-7.67182e-05 -0.000164974 -0.00146016
0.000968337 0.000411019 -7.36086e-06
0.000411019 0.000778046 -1.42788e-05
-7.36086e-06 -1.42788e-05 0.000426409
-0.00293845 0.000224514 1.35791e-05
0.000224514 2.41696e-05 2.52448e-05
1.35791e-05 2.52448e-05 -0.000385287
0.00495277 -0.000179404 0.000114561
-0.000179404 -0.000223331 -0.000155425
0.000114561 -0.000155425 -0.00145344
0.0085344 0.000954129 0.000290737
0.000954129 -0.00199116 -2.05464e-05
0.000290737 -2.05464e-05 -0.00121208
-0.0025354 0.00014106 3.44234e-05
0.00014106 -0.000129231 -3.00888e-05
3.44234e-05 -3.00888e-05 -0.000947997
0.0131772 0.00344111 0.000318343
0.00344111 0.00625639 7.58411e-05
0.000318343 7.58411e-05 0.00100318
0.00167266 -0.000549163 4.23262e-05
-0.000549163 0.00273406 0.000388554
4.23262e-05 0.000388554 -0.000914079
0.00320091 0.000464204 2.66765e-05
0.000464204 0.00192042 1.06403e-05
2.66765e-05 1.06403e-05 0.00166045
0.00042035 0.000209549 -5.62183e-06
0.000209549 0.000429874 -1.66409e-06
-5.62183e-06 -1.66409e-06 7.9147e-05
0.000218136 0.000184931 2.81067e-06
0.000184931 0.000479657 5.6987e-08
2.81067e-06 5.6987e-08 3.736e-05
0.000519538 0.000146906 1.25472e-06
0.000146906 0.000110017 -4.564e-07
1.25472e-06 -4.564e-07 -7.89347e-05
0.000503329 7.42286e-05 9.76495e-07
7.42286e-05 0.000141043 3.08788e-06
9.76495e-07 3.08788e-06 -3.33143e-05
0.000141133 -1.27429e-05 6.40462e-06
-1.27429e-05 0.000322942 -2.91622e-06
6.40462e-06 -2.91622e-06 -7.42048e-05
0.000415121 2.90419e-05 2.85173e-08
2.90419e-05 6.75613e-05 -6.13123e-07
2.85173e-08 -6.13123e-07 -8.8888e-05
0.000727247 -3.90314e-05 -1.13108e-06
-3.90314e-05 0.000663165 -2.4558e-06
-1.13108e-06 -2.4558e-06 0.000274574
-1.74415e-06 4.7576e-05 -3.61662e-09
4.7576e-05 0.000379927 -1.66689e-06
-3.61662e-09 -1.66689e-06 -0.000108151
-5.0471e-05 -1.59051e-05 -6.07574e-06
-1.59051e-05 0.000305603 9.6339e-06
-6.07574e-06 9.6339e-06 -0.000104049
0.00034796 -3.04896e-05 -5.28036e-07
-3.04896e-05 0.000372453 -5.15576e-06
-5.28036e-07 -5.15576e-06 6.42409e-05
-6.39304e-06 -5.97111e-05 4.23284e-06
-5.97111e-05 -0.0002066 8.86626e-06
4.23284e-06 8.86626e-06 -0.000342845
0.00106402 -5.39424e-05 -7.96943e-07
-5.39424e-05 0.000435276 3.1213e-06
-7.96943e-07 3.1213e-06 0.000284707
0.00130269 -6.56343e-05 -1.48263e-05
-6.56343e-05 0.000597041 1.19566e-05
-1.48263e-05 1.19566e-05 0.000466393
0.000712007 -8.46035e-05 4.56067e-06
-8.46035e-05 0.000377471 -8.7296e-07
4.56067e-06 -8.7296e-07 0.000222158
0.000498494 -5.54037e-05 -9.24242e-07
-5.54037e-05 8.87978e-05 -9.23103e-07
-9.24242e-07 -9.23103e-07 -4.23566e-05
0.000465876 -0.000182407 -3.6703e-07
-0.000182407 6.37053e-05 3.13407e-06
-3.6703e-07 3.13407e-06 -7.17964e-05
0.000177196 -0.000160457 -1.2071e-05
-0.000160457 -0.000200043 -1.2805e-06
-1.2071e-05 -1.2805e-06 -0.000253556
-0.000824795 -0.000297459 1.08636e-05
-0.000297459 -0.000746908 1.94097e-05
1.08636e-05 1.94097e-05 -0.00104005
8.214e-05 -0.000165347 5.6067e-06
-0.000165347 -0.000227623 -5.45663e-07
5.6067e-06 -5.45663e-07 -0.000342158
0.00116928 -0.000286493 -3.74368e-06
-0.000286493 0.000379358 1.13846e-05
-3.74368e-06 1.13846e-05 0.000195237
0.00202174 -0.000560524 -6.43821e-06
-0.000560524 0.000826713 1.3984e-05
-6.43821e-06 1.3984e-05 0.000461556
0.00163993 -0.000526664 -5.73215e-06
-0.000526664 0.000474545 -8.85594e-07
-5.73215e-06 -8.85594e-07 9.54267e-05
0.00145713 -0.000362505 2.13851e-06
-0.000362505 0.000554372 1.90693e-06
2.13851e-06 1.90693e-06 0.00031152
0.000503853 -0.000338501 9.40834e-06
-0.000338501 -0.000116665 -4.0893e-06
9.40834e-06 -4.0893e-06 -0.000394906
0.00123769 -0.000170649 3.15751e-06
-0.000170649 0.000548224 -4.20403e-06
3.15751e-06 -4.20403e-06 0.000296772
0.00119593 -0.000221973 -8.14817e-06
-0.000221973 0.00048808 1.17076e-06
-8.14817e-06 1.17076e-06 0.000281659
-0.00012468 -0.000122055 1.19095e-05
-0.000122055 -0.000369644 -1.66343e-05
1.19095e-05 -1.66343e-05 -0.000474696
0.00118044 -0.000109278 -1.80882e-06
-0.000109278 0.000465436 2.45802e-06
-1.80882e-06 2.45802e-06 0.000295244
0.000267932 -8.3891e-05 8.13129e-07
-8.3891e-05 -4.59895e-05 -3.97015e-07
8.13129e-07 -3.97015e-07 -0.000246254
0.000415099 -5.39943e-05 2.08392e-06
-5.39943e-05 -2.30711e-05 6.91227e-07
2.08392e-06 6.91227e-07 -0.00016335
0.00145624 -0.000220361 -1.9573e-06
-0.000220361 0.000695682 7.84585e-07
-1.9573e-06 7.84585e-07 0.000497818
0.000654013 -9.68593e-05 -3.99764e-07
-9.68593e-05 0.000142665 -1.42504e-07
-3.99764e-07 -1.42504e-07 4.66541e-06
0.000426142 1.22634e-05 3.25182e-06
1.22634e-05 -1.53654e-05 4.62023e-06
3.25182e-06 4.62023e-06 -0.000111695
0.00079836 -0.000135218 -6.9487e-07
-0.000135218 0.000245374 -2.19319e-06
-6.9487e-07 -2.19319e-06 0.000106199
0.000487399 7.15595e-06 -2.13293e-06
7.15595e-06 2.0077e-05 -2.04463e-07
-2.13293e-06 -2.04463e-07 -6.79919e-05
0.00142079 1.05533e-05 -1.62786e-05
1.05533e-05 0.000570278 5.33198e-06
-1.62786e-05 5.33198e-06 0.000546473
0.000583673 -6.37833e-05 1.92034e-06
-6.37833e-05 7.77867e-05 -4.22533e-06
1.92034e-06 -4.22533e-06 -5.6623e-06
0.000882226 -7.21936e-06 -8.28296e-06
-7.21936e-06 0.000232547 5.68716e-07
-8.28296e-06 5.68716e-07 0.000207587
0.000839776 3.19406e-05 4.8382e-07
3.19406e-05 0.000195728 3.0841e-06
4.8382e-07 3.0841e-06 0.000195369
0.000448518 -2.23915e-05 2.31648e-06
-2.23915e-05 -3.63849e-05 -5.91419e-06
2.31648e-06 -5.91419e-06 -6.27348e-05
0.00171895 3.32221e-05 1.38878e-05
3.32221e-05 0.000753938 -1.24857e-06
1.38878e-05 -1.24857e-06 0.000760869
0.00254126 2.61663e-05 1.61396e-05
2.61663e-05 0.00127235 -5.43958e-06
1.61396e-05 -5.43958e-06 0.00128473
0.000313901 1.74039e-05 1.20108e-06
1.74039e-05 -6.41875e-05 1.31472e-06
1.20108e-06 1.31472e-06 -0.000196203
0.00015392 1.9433e-05 -9.10445e-08
1.9433e-05 -0.000202548 -3.60468e-06
-9.10445e-08 -3.60468e-06 -0.00026525
0.000625104 5.06768e-05 1.327e-07
5.06768e-05 0.00012433 1.52697e-07
1.327e-07 1.52697e-07 1.27755e-05
0.000470171 3.72293e-06 1.3707e-06
3.72293e-06 -3.65854e-05 -3.74903e-06
1.3707e-06 -3.74903e-06 -4.77689e-05
0.00033024 6.31481e-06 1.5906e-06
6.31481e-06 -9.40034e-05 1.65922e-08
1.5906e-06 1.65922e-08 -0.000146826
0.000257603 -9.37919e-05 -9.46853e-07
-9.37919e-05 -0.000104111 -7.85453e-07
-9.46853e-07 -7.85453e-07 -0.000203829
0.00205305 -5.13086e-06 -1.11141e-05
-5.13086e-06 0.000961549 -4.78773e-06
-1.11141e-05 -4.78773e-06 0.000979412
0.000465048 3.11897e-06 3.97461e-09
3.11897e-06 -3.88014e-05 -6.88205e-08
3.97461e-09 -6.88205e-08 -4.81792e-05
0.000437544 -1.52788e-05 -2.52526e-06
-1.52788e-05 -2.51635e-05 2.22914e-06
-2.52526e-06 2.22914e-06 -7.13557e-05
0.00201126 1.0186e-05 -4.62975e-06
1.0186e-05 0.000936415 7.85039e-09
-4.62975e-06 7.85039e-09 0.000954146
0.000456238 4.70188e-06 -1.21266e-06
4.70188e-06 -4.3497e-05 3.25676e-06
-1.21266e-06 3.25676e-06 -5.25102e-05
0.00198482 2.5134e-05 1.32342e-06
2.5134e-05 0.000921635 4.80511e-06
1.32342e-06 4.80511e-06 0.000938449
-0.00027946 -0.000768613 -0.000241125
-0.000768613 -0.000141428 9.04865e-05
-0.000241125 9.04865e-05 -0.00327922
0.00179148 0.000620002 -0.000111222
0.000620002 0.00746594 2.07945e-05
-0.000111222 2.07945e-05 0.00337038
0.00221861 -3.23757e-05 -0.000846476
-3.23757e-05 0.00379136 0.000171816
-0.000846476 0.000171816 0.00192462
0.000719938 0.000123694 4.70661e-06
0.000123694 0.000184931 6.53275e-06
4.70661e-06 6.53275e-06 2.78576e-05
0.00497772 -0.000888608 -8.62537e-05
-0.000888608 0.00318912 0.000235142
-8.62537e-05 0.000235142 0.0010897
0.00409301 -0.00125894 -0.000271431
-0.00125894 0.00169834 2.48699e-05
-0.000271431 2.48699e-05 -0.00291365
0.0108133 0.00325158 0.000345416
0.00325158 0.0076474 -0.000339141
0.000345416 -0.000339141 0.00349622
0.00716911 -0.00102264 0.000118839
-0.00102264 0.000785263 -2.24947e-05
0.000118839 -2.24947e-05 0.00107757
0.0130407 -0.00225298 0.00026381
-0.00225298 0.00100447 -0.000132164
0.00026381 -0.000132164 -0.000146172
0.0083096 0.00469472 -0.000638198
0.00469472 0.000421056 0.000418131
-0.000638198 0.000418131 -0.00290079
0.0136665 0.00424645 0.000104718
0.00424645 0.00482294 0.000225716
0.000104718 0.000225716 0.00220765
0.00732867 -0.00219565 -0.000122433
-0.00219565 0.000159278 -5.58267e-06
-0.000122433 -5.58267e-06 0.000610526
0.0172871 -0.00399617 3.67567e-05
-0.00399617 0.00412416 -3.31187e-05
3.67567e-05 -3.31187e-05 0.00164241
0.00824118 0.00280478 0.000149683
0.00280478 0.00284772 -0.000348695
0.000149683 -0.000348695 -0.00132148
0.0119019 0.00125519 1.15239e-05
0.00125519 -0.000392707 4.0938e-05
1.15239e-05 4.0938e-05 -0.00015324
0.00297379 -0.00240169 -5.86929e-05
-0.00240169 1.03117e-06 7.88185e-05
-5.86929e-05 7.88185e-05 -7.47421e-05
0.0108416 -0.00426753 0.000150987
-0.00426753 0.00457542 -0.000106245
0.000150987 -0.000106245 0.000221814
0.00977938 -0.000273722 0.000131465
-0.000273722 0.0045984 -0.000447247
0.000131465 -0.000447247 0.00177293
0.011885 0.00044049 -0.00013405
0.00044049 -0.00134315 0.000244187
-0.00013405 0.000244187 0.000844634
0.000324995 6.84885e-05 3.81241e-06
6.84885e-05 4.06787e-05 8.91723e-06
3.81241e-06 8.91723e-06 -0.000177122
0.00074031 -0.000132214 6.11016e-07
-0.000132214 0.000313951 -3.72953e-07
6.11016e-07 -3.72953e-07 6.75803e-05
0.00091318 0.000136601 1.78723e-06
0.000136601 0.00036558 -4.94002e-06
1.78723e-06 -4.94002e-06 0.000208714
0.000480126 0.000126751 1.36792e-06
0.000126751 2.13653e-05 1.03738e-05
1.36792e-06 1.03738e-05 -0.000123336
0.000826553 0.000187895 3.84804e-07
0.000187895 0.000298042 8.2027e-07
3.84804e-07 8.2027e-07 0.000102346
0.00108242 0.000103649 -4.58696e-06
0.000103649 0.000456116 -4.52716e-06
-4.58696e-06 -4.52716e-06 0.000297705
0.00103673 0.000170435 -1.49735e-06
0.000170435 0.000420623 -1.06672e-07
-1.49735e-06 -1.06672e-07 0.000243306
0.00105893 0.000180783 1.52545e-06
0.000180783 0.000457886 2.45878e-06
1.52545e-06 2.45878e-06 0.000277483
0.00044814 -0.000593087 0.000115031
-0.000593087 -0.000967292 -6.52592e-05
0.000115031 -6.52592e-05 -0.000815556
0.000546628 -0.000683693 -2.51216e-05
-0.000683693 -0.000541422 -4.72137e-06
-2.51216e-05 -4.72137e-06 -0.000492181
0.000957391 -0.000228163 2.36327e-06
-0.000228163 0.00046961 -2.77142e-05
2.36327e-06 -2.77142e-05 0.000173083
0.00170566 -0.000691532 1.88847e-05
-0.000691532 0.000856551 -2.49436e-05
1.88847e-05 -2.49436e-05 0.000511869
0.0025309 -0.000462614 -2.06735e-05
-0.000462614 0.00147444 2.03854e-05
-2.06735e-05 2.03854e-05 0.00108378
0.00155299 -0.000155344 3.43978e-06
-0.000155344 0.000835404 -2.24643e-05
3.43978e-06 -2.24643e-05 0.000545725
-3.15424e-05 -3.38106e-05 3.48267e-06
-3.38106e-05 -0.000183371 7.62665e-06
3.48267e-06 7.62665e-06 -0.000400442
0.000423511 -0.00115266 -6.48124e-06
-0.00115266 -0.00071507 -4.09776e-06
-6.48124e-06 -4.09776e-06 -0.000760543
0.00131691 -6.51675e-06 -8.07574e-07
-6.51675e-06 0.000822893 -8.34319e-07
-8.07574e-07 -8.34319e-07 0.000496407
0.000370298 -0.000236946 -4.20967e-08
-0.000236946 0.000335446 4.49853e-06
-4.20967e-08 4.49853e-06 -9.62472e-05
-0.000309617 -0.000382683 2.37178e-05
-0.000382683 -0.000462824 8.2913e-07
2.37178e-05 8.2913e-07 -0.000437945
0.000806292 0.000108088 4.34886e-07
0.000108088 0.000349934 3.35977e-07
4.34886e-07 3.35977e-07 0.000145906
-0.000239478 -0.00102029 -5.40975e-05
-0.00102029 -0.000491801 -2.4588e-05
-5.40975e-05 -2.4588e-05 -0.000701458
-0.000979968 -0.000398578 -1.5465e-05
-0.000398578 -0.000535353 3.06073e-05
-1.5465e-05 3.06073e-05 -0.000792607
3.79173e-05 0.000143582 1.91953e-05
0.000143582 0.000384109 -2.64094e-05
1.91953e-05 -2.64094e-05 -0.000149339
0.00209794 0.000321699 -4.63135e-06
0.000321699 0.0012914 -1.86522e-06
-4.63135e-06 -1.86522e-06 0.0010118
-0.00116649 0.000100137 0.000109438
0.000100137 0.00147498 2.13557e-05
0.000109438 2.13557e-05 0.00057633
0.000464791 -1.64578e-05 0.000154644
-1.64578e-05 0.001254 -3.33671e-05
0.000154644 -3.33671e-05 -0.00276173
-0.0113479 -0.000344008 -0.000265732
-0.000344008 0.00592135 2.66286e-05
-0.000265732 2.66286e-05 0.000397418
0.0017563 0.000554308 2.06105e-05
0.000554308 0.00102316 3.52308e-06
2.06105e-05 3.52308e-06 0.000709413
-0.000708833 0.000667151 1.27886e-05
0.000667151 -0.000317402 1.04971e-05
1.27886e-05 1.04971e-05 -0.000758811
0.00548084 0.000762768 0.000308652
0.000762768 0.00371125 5.9055e-05
0.000308652 5.9055e-05 0.00128729
0.00981969 0.00371227 0.000267348
0.00371227 0.00337458 0.000196178
0.000267348 0.000196178 -0.000734636
0.00430704 0.00237439 -8.65401e-05
0.00237439 0.00245072 -9.64809e-05
-8.65401e-05 -9.64809e-05 0.00107511
0.00475043 -0.00223028 -0.000179097
-0.00223028 0.00415912 -0.0004485
-0.000179097 -0.0004485 0.000384206
0.00269188 0.000598249 0.000134104
0.000598249 0.000351377 0.000183156
0.000134104 0.000183156 -0.0012353
0.00747539 -0.000210249 -5.13324e-05
-0.000210249 -0.0053845 -0.000235691
-5.13324e-05 -0.000235691 -0.00214933
0.00102247 0.000489587 6.06127e-06
0.000489587 0.000772345 1.70333e-06
6.06127e-06 1.70333e-06 0.000393293
-0.00249006 9.8495e-05 -2.70286e-06
9.8495e-05 9.0035e-05 2.12355e-06
-2.70286e-06 2.12355e-06 -0.000451695
0.00436604 -7.82188e-05 0.000110852
-7.82188e-05 -0.00025829 2.29633e-05
0.000110852 2.29633e-05 -0.000843529
-0.00174885 0.000418085 -1.32812e-05
0.000418085 -0.000285296 -1.07861e-05
-1.32812e-05 -1.07861e-05 -0.00100851
0.0116106 0.00138299 -4.71142e-06
0.00138299 -0.000332557 -4.22738e-05
-4.71142e-06 -4.22738e-05 -0.000167337
0.00259444 0.00188389 0.00021615
0.00188389 0.00377655 0.000134405
0.00021615 0.000134405 -0.00189733
0.00704606 0.000670888 -0.000169492
0.000670888 0.00318305 4.2525e-06
-0.000169492 4.2525e-06 -0.000464352
0.000382907 0.000420265 4.1617e-06
0.000420265 0.00053796 -2.36564e-05
4.1617e-06 -2.36564e-05 1.85518e-05
0.00145942 -1.5465e-05 5.69762e-06
-1.5465e-05 0.000223392 -1.66623e-05
5.69762e-06 -1.66623e-05 -0.000135266
0.00390667 -0.00111484 7.04805e-05
-0.00111484 0.00316416 -0.000235223
7.04805e-05 -0.000235223 0.00130361
0.019493 0.00470381 0.000305838
0.00470381 0.00583344 -0.000276842
0.000305838 -0.000276842 0.00369822
0.00882725 -0.000130775 -0.000108982
-0.000130775 0.00461938 0.000453457
-0.000108982 0.000453457 0.001495
0.000278698 0.000416212 -1.8316e-05
0.000416212 0.000694938 -0.000133385
-1.8316e-05 -0.000133385 4.82383e-05
0.00430347 0.00147022 0.000261609
0.00147022 0.00607495 2.74877e-05
0.000261609 2.74877e-05 -0.00211676
0.00127734 0.000330835 8.54133e-06
0.000330835 0.00092488 1.0832e-05
8.54133e-06 1.0832e-05 0.000559951
0.000620305 0.000237307 4.11965e-06
0.000237307 0.000707942 1.65095e-06
4.11965e-06 1.65095e-06 0.000282389
0.000427459 -2.65941e-05 -1.81491e-05
-2.65941e-05 0.000729376 9.19311e-07
-1.81491e-05 9.19311e-07 0.000362823
-0.000445087 -4.43504e-05 1.40564e-06
-4.43504e-05 -0.00047998 3.20693e-06
1.40564e-06 3.20693e-06 -0.000619694
0.000448953 -1.33195e-05 4.56932e-06
-1.33195e-05 0.000507594 -1.85553e-06
4.56932e-06 -1.85553e-06 0.00010631
0.000131618 4.94654e-05 4.77495e-06
4.94654e-05 0.000458426 -4.50729e-06
4.77495e-06 -4.50729e-06 -2.35702e-05
0.000233438 -3.25173e-05 3.57709e-07
-3.25173e-05 0.000244143 4.17732e-07
3.57709e-07 4.17732e-07 -1.0365e-05
-8.95807e-06 -3.6874e-05 4.29349e-06
-3.6874e-05 0.000322761 6.54336e-07
4.29349e-06 6.54336e-07 -8.84851e-05
0.00146343 -0.000358179 4.18998e-06
-0.000358179 0.000976873 -1.10432e-05
4.18998e-06 -1.10432e-05 0.000648944
0.000808434 -9.13802e-05 -6.5104e-06
-9.13802e-05 0.000414139 6.60772e-06
-6.5104e-06 6.60772e-06 0.000270605
0.000408581 -1.04182e-05 -1.17636e-06
-1.04182e-05 3.3296e-05 1.82073e-06
-1.17636e-06 1.82073e-06 -9.60913e-05
0.00133825 -0.00027468 1.04017e-06
-0.00027468 0.000591098 5.46635e-06
1.04017e-06 5.46635e-06 0.00042167
-0.00281529 -0.000123516 1.82345e-05
-0.000123516 -0.00172618 1.96375e-05
1.82345e-05 1.96375e-05 -0.00205432
-0.000259308 -0.000112082 1.02181e-05
-0.000112082 -0.000376185 -2.03916e-06
1.02181e-05 -2.03916e-06 -0.000397464
-9.24237e-05 -0.000336493 -9.10253e-07
-0.000336493 -0.000355161 -4.95805e-06
-9.10253e-07 -4.95805e-06 -0.000611606
0.00124735 -0.000530106 -3.59453e-07
-0.000530106 0.000314536 -1.11938e-06
-3.59453e-07 -1.11938e-06 -0.000135886
0.00168358 -0.000635588 -6.41986e-06
-0.000635588 0.000458524 -2.96719e-07
-6.41986e-06 -2.96719e-07 2.05515e-05
0.00170161 -0.000360521 4.99582e-06
-0.000360521 0.00069055 -3.57229e-06
4.99582e-06 -3.57229e-06 0.000482363
0.00128031 -0.00047518 1.02371e-06
-0.00047518 0.000359243 6.98949e-07
1.02371e-06 6.98949e-07 2.80709e-06
0.00164248 -0.000537303 4.84779e-06
-0.000537303 0.000449802 -4.28802e-06
4.84779e-06 -4.28802e-06 7.72819e-05
0.00099265 -0.000359559 -1.59575e-06
-0.000359559 0.000146044 6.65841e-06
-1.59575e-06 6.65841e-06 -0.000141235
0.0011305 -0.000460882 2.16098e-06
-0.000460882 0.000174422 -4.89758e-06
2.16098e-06 -4.89758e-06 -0.000182501
0.000549383 -0.000157924 1.16021e-06
-0.000157924 8.69349e-05 -5.99748e-06
1.16021e-06 -5.99748e-06 -0.000165801
0.00110533 -0.000346667 -6.0089e-06
-0.000346667 0.000349473 3.57376e-06
-6.0089e-06 3.57376e-06 9.28866e-05
-0.000879588 -0.000160494 -7.20418e-07
-0.000160494 -0.000959639 -9.68699e-06
-7.20418e-07 -9.68699e-06 -0.00118686
4.97617e-05 -5.54672e-05 1.32783e-06
-5.54672e-05 -0.000228687 -2.37124e-06
1.32783e-06 -2.37124e-06 -0.000412274
0.000392564 -0.00013692 2.60042e-07
-0.00013692 4.98161e-05 4.12375e-07
2.60042e-07 4.12375e-07 -0.000198985
0.000551161 -0.000204934 1.01434e-05
-0.000204934 0.000138579 -1.76973e-07
1.01434e-05 -1.76973e-07 -8.34397e-05
0.000591933 -0.00012372 -1.69268e-07
-0.00012372 0.000149182 3.06483e-06
-1.69268e-07 3.06483e-06 -4.88926e-05
0.000713697 -0.000112021 8.74632e-09
-0.000112021 0.000179806 3.60264e-07
8.74632e-09 3.60264e-07 2.28503e-05
0.000573028 -5.27145e-06 2.29719e-06
-5.27145e-06 6.72436e-05 6.45253e-06
2.29719e-06 6.45253e-06 -3.77807e-05
0.00099823 -0.000139293 -2.16685e-06
-0.000139293 0.00037305 -1.08521e-06
-2.16685e-06 -1.08521e-06 0.000219763
0.000574689 -7.45301e-06 -1.18904e-06
-7.45301e-06 6.654e-05 -3.50463e-07
-1.18904e-06 -3.50463e-07 -2.46264e-05
0.000403733 4.58982e-05 2.2994e-06
4.58982e-05 -6.00248e-05 7.08364e-06
2.2994e-06 7.08364e-06 -9.59032e-05
0.000685753 -6.34167e-05 8.30546e-07
-6.34167e-05 0.000136037 -3.7863e-06
8.30546e-07 -3.7863e-06 5.06999e-05
0.000453566 3.50774e-06 -1.22083e-06
3.50774e-06 -3.95521e-05 -4.45307e-08
-1.22083e-06 -4.45307e-08 -6.9059e-05
0.00258825 9.07497e-05 -2.147e-06
9.07497e-05 0.0013044 2.60892e-06
-2.147e-06 2.60892e-06 0.00130916
0.000469816 -1.36241e-05 2.38947e-06
-1.36241e-05 -2.80282e-05 -6.09765e-06
2.38947e-06 -6.09765e-06 -5.59204e-05
0.00175271 4.67603e-05 1.6766e-05
4.67603e-05 0.000774539 -1.03329e-06
1.6766e-05 -1.03329e-06 0.000779506
0.00260413 4.20667e-05 2.2977e-05
4.20667e-05 0.00131068 -5.61018e-06
2.2977e-05 -5.61018e-06 0.00132211
0.00027202 2.129e-05 1.11941e-06
2.129e-05 -0.000109252 1.05749e-06
1.11941e-06 1.05749e-06 -0.000230549
0.000222876 1.06984e-05 1.21016e-06
1.06984e-05 -0.000160623 -2.72647e-06
1.21016e-06 -2.72647e-06 -0.000234827
0.000461908 3.71854e-05 -5.95242e-07
3.71854e-05 2.39398e-05 -1.22008e-06
-5.95242e-07 -1.22008e-06 -0.000101684
0.000493401 3.43658e-06 1.51904e-06
3.43658e-06 -2.24856e-05 -4.23286e-06
1.51904e-06 -4.23286e-06 -3.6627e-05
0.000197219 1.58195e-05 -5.88106e-07
1.58195e-05 -0.000176012 -1.75276e-06
-5.88106e-07 -1.75276e-06 -0.000240844
0.000669558 5.6476e-05 3.71449e-08
5.6476e-05 0.000164906 1.51162e-06
3.71449e-08 1.51162e-06 4.44344e-05
0.00207458 -1.85542e-05 -1.64099e-05
-1.85542e-05 0.000973925 -4.69161e-06
-1.64099e-05 -4.69161e-06 0.000991578
0.000472262 1.71833e-06 -6.45103e-07
1.71833e-06 -3.56899e-05 -6.86656e-08
-6.45103e-07 -6.86656e-08 -4.65529e-05
0.000116436 1.50579e-05 1.55961e-06
1.50579e-05 -0.000224911 1.67253e-06
1.55961e-06 1.67253e-06 -0.000281512
0.00203379 -3.91593e-06 -4.04964e-06
-3.91593e-06 0.000949267 4.6337e-08
-4.04964e-06 4.6337e-08 0.000967281
0.000454078 2.63672e-06 -1.46868e-06
2.63672e-06 -4.6337e-05 3.44626e-06
-1.46868e-06 3.44626e-06 -5.5355e-05
0.00205726 1.17372e-05 6.83871e-06
1.17372e-05 0.000965805 4.86244e-06
6.83871e-06 4.86244e-06 0.000983117
0.000440933 -4.00576e-05 0.000127121
-4.00576e-05 0.00212513 4.92277e-05
0.000127121 4.92277e-05 0.0015032
-0.00023566 -0.000377954 -4.97325e-05
-0.000377954 0.000383568 -1.09023e-05
-4.97325e-05 -1.09023e-05 -0.00339004
0.000201588 0.000602791 -3.19054e-05
0.000602791 0.00711232 -4.54715e-05
-3.19054e-05 -4.54715e-05 0.00289638
0.000756995 0.000132417 5.86644e-07
0.000132417 0.000198273 7.62334e-08
5.86644e-07 7.62334e-08 5.20868e-05
0.000318874 9.04859e-05 5.69245e-06
9.04859e-05 -8.78152e-05 4.65647e-06
5.69245e-06 4.65647e-06 -0.000221576
0.0010662 0.000190999 8.21188e-06
0.000190999 0.000392607 8.15062e-06
8.21188e-06 8.15062e-06 0.000244451
0.00584319 -0.000325911 -8.88275e-05
-0.000325911 -0.000401407 0.000226573
-8.88275e-05 0.000226573 -0.00143037
0.00492746 -0.00102913 9.16526e-05
-0.00102913 0.00286962 5.06876e-06
9.16526e-05 5.06876e-06 0.00140585
0.00461403 -0.00172955 0.000189374
-0.00172955 0.00193643 -0.000252326
0.000189374 -0.000252326 -0.00275884
0.00858257 -0.00263402 -1.98824e-05
-0.00263402 0.000244591 -3.27562e-05
-1.98824e-05 -3.27562e-05 0.000903464
0.00104654 -0.0031731 -0.000402854
-0.0031731 -0.0019948 9.82703e-05
-0.000402854 9.82703e-05 -0.0047064
0.0259269 0.00411849 0.000220735
0.00411849 0.0105954 0.000169289
0.000220735 0.000169289 0.00598172
0.00716713 -0.00012387 0.000289377
-0.00012387 -0.00274712 -0.00023197
0.000289377 -0.00023197 -0.00291641
0.00441133 -0.00276822 -3.05788e-05
-0.00276822 4.20904e-05 1.74198e-05
-3.05788e-05 1.74198e-05 0.000396939
0.00731173 -0.00410474 -0.000115041
-0.00410474 0.00273477 2.03238e-05
-0.000115041 2.03238e-05 -0.00198529
-0.00224513 0.0036713 -8.85359e-05
0.0036713 0.00378214 -0.000307594
-8.85359e-05 -0.000307594 -0.00105148
0.00986777 0.000108369 -7.54385e-05
0.000108369 -0.00352389 0.000141134
-7.54385e-05 0.000141134 -0.000636634
0.00200795 -0.00199956 -0.000109242
-0.00199956 0.00119849 4.7471e-05
-0.000109242 4.7471e-05 0.000760997
0.0107257 -0.00302607 -0.000297674
-0.00302607 0.00576121 0.000173824
-0.000297674 0.000173824 0.000680447
-0.000336519 -8.0122e-05 4.42581e-05
-8.0122e-05 0.00240818 -0.000341643
4.42581e-05 -0.000341643 -0.0013484
0.00896584 -0.000896259 0.000121508
-0.000896259 -0.0019687 6.08666e-05
0.000121508 6.08666e-05 -0.00118678
0.0002655 9.84744e-05 6.38627e-06
9.84744e-05 -6.33709e-05 1.85012e-05
6.38627e-06 1.85012e-05 -0.000212285
0.000703321 -3.4679e-06 2.45996e-06
-3.4679e-06 0.000255218 -3.20149e-06
2.45996e-06 -3.20149e-06 2.70936e-05
0.000432462 -0.000159241 1.89146e-06
-0.000159241 4.52379e-05 -1.0624e-05
1.89146e-06 -1.0624e-05 -0.000164012
0.000656858 0.00013381 -2.02095e-06
0.00013381 0.000134855 1.40408e-06
-2.02095e-06 1.40408e-06 -1.75831e-05
0.000745785 0.00013907 2.38054e-06
0.00013907 0.000249351 -4.87588e-06
2.38054e-06 -4.87588e-06 6.60449e-05
0.00117045 0.000196578 -3.64213e-06
0.000196578 0.000508081 -4.22053e-06
-3.64213e-06 -4.22053e-06 0.000328133
-0.000536452 -0.000988962 3.3224e-05
-0.000988962 -0.00114079 -1.49384e-05
3.3224e-05 -1.49384e-05 -0.0011822
0.00106652 -0.000367665 2.33308e-05
-0.000367665 0.00031321 -2.51691e-05
2.33308e-05 -2.51691e-05 0.000354622
1.97754e-05 5.031e-05 -1.15121e-06
5.031e-05 -0.000145284 -1.40075e-05
-1.15121e-06 -1.40075e-05 -0.000373055
0.00222343 -0.000466935 5.88941e-05
-0.000466935 0.00134161 -2.54497e-05
5.88941e-05 -2.54497e-05 0.000945474
0.00179772 -0.00011916 -1.54624e-06
-0.00011916 0.00107514 5.45391e-06
-1.54624e-06 5.45391e-06 0.000772771
-5.00256e-05 9.48379e-05 3.97533e-06
9.48379e-05 -0.000121954 4.31591e-06
3.97533e-06 4.31591e-06 -0.000345827
0.000684497 0.000130897 6.75395e-07
0.000130897 0.000413192 -2.29472e-06
6.75395e-07 -2.29472e-06 0.000169092
0.000388246 -0.00114049 -2.51228e-05
-0.00114049 -0.000228493 -1.5211e-06
-2.51228e-05 -1.5211e-06 -0.000537558
0.000273605 -3.9046e-05 -6.0858e-06
-3.9046e-05 0.000529581 4.75735e-06
-6.0858e-06 4.75735e-06 7.02858e-06
0.00127403 -0.000349429 -1.3279e-06
-0.000349429 0.000740556 -9.06779e-06
-1.3279e-06 -9.06779e-06 0.000410552
0.000722845 0.000159206 1.09538e-06
0.000159206 0.000421037 -1.49294e-05
1.09538e-06 -1.49294e-05 0.000198584
-0.00207847 -0.000265191 -6.45698e-05
-0.000265191 -0.000248189 -1.54216e-05
-6.45698e-05 -1.54216e-05 -0.00112527
0.00058798 -0.000201951 -2.82728e-05
-0.000201951 0.000740129 8.22535e-06
-2.82728e-05 8.22535e-06 0.00035947
-4.43538e-05 0.000104465 -1.20843e-05
0.000104465 0.000409333 1.15498e-05
-1.20843e-05 1.15498e-05 -4.94288e-05
-0.000216053 0.000180405 -1.04021e-05
0.000180405 -0.000613155 2.77069e-06
-1.04021e-05 2.77069e-06 -0.00171178
-0.00176384 0.000182067 5.18838e-05
0.000182067 0.00119925 -1.36994e-05
5.18838e-05 -1.36994e-05 0.00030494
-0.000372044 -0.000154238 0.000328351
-0.000154238 0.000667452 2.59531e-05
0.000328351 2.59531e-05 -0.00334674
8.18644e-05 0.000452072 1.6598e-06
0.000452072 0.000207383 1.61109e-05
1.6598e-06 1.61109e-05 -0.000192859
0.000478316 0.00079901 -1.9158e-05
0.00079901 0.000454871 -8.43078e-06
-1.9158e-05 -8.43078e-06 -0.000175172
-0.00226506 5.35747e-05 -3.53919e-05
5.35747e-05 0.000139642 -1.99202e-05
-3.53919e-05 -1.99202e-05 -0.000539667
-0.00472419 0.000713791 6.41711e-05
0.000713791 0.00246515 0.000183563
6.41711e-05 0.000183563 -0.00290923
-0.00118041 0.00126831 -0.000189933
0.00126831 -0.0017484 -0.000468599
-0.000189933 -0.000468599 -0.00625296
0.00363258 1.72465e-05 8.41853e-05
1.72465e-05 -0.00034725 9.69703e-05
8.41853e-05 9.69703e-05 -0.000397106
0.00669134 3.57058e-05 -0.000288656
3.57058e-05 -0.00251773 0.000234959
-0.000288656 0.000234959 -0.00291639
0.000219173 0.000342458 1.5017e-08
0.000342458 0.00048974 -7.84807e-07
1.5017e-08 -7.84807e-07 3.88453e-05
0.00103402 6.18948e-06 3.12551e-05
6.18948e-06 0.000142649 -1.59342e-05
3.12551e-05 -1.59342e-05 -0.000193223
0.00413006 -0.000808723 -8.94866e-05
-0.000808723 0.00283515 1.82269e-06
-8.94866e-05 1.82269e-06 0.0013306
-0.000360079 0.00066087 -0.000133505
0.00066087 0.00106861 -6.09543e-06
-0.000133505 -6.09543e-06 -0.000306185
0.0141144 0.00479494 2.00006e-05
0.00479494 0.0029482 -0.000397824
2.00006e-05 -0.000397824 0.000633913
9.35176e-05 0.0030123 7.72124e-05
0.0030123 0.00418728 0.000318648
7.72124e-05 0.000318648 -0.000715943
0.00522022 0.000634447 5.95179e-05
0.000634447 0.0058331 -2.2191e-05
5.95179e-05 -2.2191e-05 -0.00140963
0.000703892 -2.0964e-05 4.30595e-05
-2.0964e-05 0.00142814 -2.78534e-05
4.30595e-05 -2.78534e-05 0.000421742
3.09744e-05 -0.000137977 -0.000111882
-0.000137977 0.00219524 3.62059e-06
-0.000111882 3.62059e-06 0.00142485
0.00203331 -0.000902951 0.000694054
-0.000902951 0.000709172 -0.000255407
0.000694054 -0.000255407 -0.0041396
0.0182824 0.00697314 -6.8679e-05
0.00697314 0.0123959 -1.85124e-06
-6.8679e-05 -1.85124e-06 0.00927072
0.00577281 0.00365268 -0.000145965
0.00365268 0.00144888 0.000782499
-0.000145965 0.000782499 -0.00244088
0.0118912 -0.00330026 0.000270108
-0.00330026 0.00591712 -0.000223813
0.000270108 -0.000223813 0.000264838
0.00363869 -0.000742761 -6.99125e-05
-0.000742761 0.00315012 3.65551e-05
-6.99125e-05 3.65551e-05 0.00226495
0.000620814 0.000232314 -2.92218e-06
0.000232314 0.000730628 2.58645e-06
-2.92218e-06 2.58645e-06 0.000299101
1.60485e-05 -5.37151e-05 -8.23618e-06
-5.37151e-05 0.000419388 -3.1258e-06
-8.23618e-06 -3.1258e-06 2.56474e-05
0.00128121 -0.000500084 3.87468e-05
-0.000500084 0.000933062 -1.33417e-05
3.87468e-05 -1.33417e-05 0.00043312
0.000386379 -7.68823e-05 -1.27257e-06
-7.68823e-05 0.000291716 3.45775e-06
-1.27257e-06 3.45775e-06 8.08901e-05
-1.31669e-05 -4.72254e-05 5.2324e-07
-4.72254e-05 0.000292476 -1.23689e-05
5.2324e-07 -1.23689e-05 -9.86377e-05
0.000466739 -0.000289077 -4.15116e-06
-0.000289077 0.000513476 4.02782e-07
-4.15116e-06 4.02782e-07 0.000170093
0.000902634 -0.000568439 2.14881e-05
-0.000568439 0.000331795 -2.00369e-05
2.14881e-05 -2.00369e-05 5.95289e-05
0.0023866 -0.000378829 -1.43027e-06
-0.000378829 0.00124401 1.16737e-06
-1.43027e-06 1.16737e-06 0.00102745
0.00178088 -0.000636515 1.47363e-05
-0.000636515 0.000801169 -3.09727e-06
1.47363e-05 -3.09727e-06 0.000409179
0.00105581 -0.000550958 8.18845e-06
-0.000550958 0.000376929 7.39926e-07
8.18845e-06 7.39926e-07 -0.000232307
0.00059974 -0.000347421 -5.53994e-06
-0.000347421 2.09332e-05 -5.23601e-06
-5.53994e-06 -5.23601e-06 -0.000186973
0.0019504 -0.00061333 -2.34084e-06
-0.00061333 0.000686333 -6.33112e-07
-2.34084e-06 -6.33112e-07 0.000230685
0.00218285 -0.000773541 -6.41682e-06
-0.000773541 0.000723147 7.80375e-08
-6.41682e-06 7.80375e-08 0.000168179
0.00191397 -0.000812776 -1.11279e-05
-0.000812776 0.000421108 1.84509e-06
-1.11279e-05 1.84509e-06 -6.60652e-05
0.00176703 -0.000680153 -1.86533e-06
-0.000680153 0.000486011 -7.62968e-07
-1.86533e-06 -7.62968e-07 5.25793e-05
0.00161934 -0.000631056 -4.76281e-06
-0.000631056 0.000410653 1.34956e-06
-4.76281e-06 1.34956e-06 -2.8556e-05
0.00119434 -0.000470484 -1.769e-06
-0.000470484 0.000279239 -5.54691e-06
-1.769e-06 -5.54691e-06 -8.64224e-05
0.00151551 -0.000487477 9.31662e-06
-0.000487477 0.00044547 -1.9415e-06
9.31662e-06 -1.9415e-06 0.000101929
0.00157202 -0.000536716 5.80271e-06
-0.000536716 0.000408223 -2.20452e-06
5.80271e-06 -2.20452e-06 3.58541e-05
0.000658417 -0.000231989 2.42815e-06
-0.000231989 3.50351e-05 -5.99649e-07
2.42815e-06 -5.99649e-07 -0.000209361
0.00101787 -0.000373024 4.13955e-06
-0.000373024 0.000170891 -3.28117e-06
4.13955e-06 -3.28117e-06 -0.000118974
0.000447807 -0.000376205 -1.95077e-06
-0.000376205 -0.000235597 -8.15857e-06
-1.95077e-06 -8.15857e-06 -0.000566777
-4.5395e-05 -5.69175e-05 7.36417e-07
-5.69175e-05 -0.00025983 -2.88446e-06
7.36417e-07 -2.88446e-06 -0.00050273
0.00105206 -0.000221075 -3.78967e-07
-0.000221075 0.000411497 2.81127e-07
-3.78967e-07 2.81127e-07 0.00014819
0.000632436 -0.000313462 -3.62819e-06
-0.000313462 6.79316e-05 -1.55827e-06
-3.62819e-06 -1.55827e-06 -0.000197589
0.000646163 -4.27801e-05 4.96874e-07
-4.27801e-05 0.000107863 7.83574e-06
4.96874e-07 7.83574e-06 -1.27927e-05
0.000785671 -0.000112378 -3.66497e-07
-0.000112378 0.000225488 -1.22188e-07
-3.66497e-07 -1.22188e-07 3.66958e-05
2.20055e-05 -0.000107759 2.20128e-07
-0.000107759 -0.000173514 4.33423e-06
2.20128e-07 4.33423e-06 -0.000410778
0.00107474 -0.000135199 -4.83251e-07
-0.000135199 0.000415409 -5.99751e-07
-4.83251e-07 -5.99751e-07 0.000247401
0.000610862 -4.86506e-05 -1.95686e-07
-4.86506e-05 8.83843e-05 -3.67819e-07
-1.95686e-07 -3.67819e-07 -1.82026e-05
0.000360063 2.5791e-05 2.09474e-06
2.5791e-05 -8.08702e-05 9.33132e-06
2.09474e-06 9.33132e-06 -0.000123211
0.000658146 -5.46126e-05 -4.64871e-07
-5.46126e-05 0.000115528 -4.75139e-06
-4.64871e-07 -4.75139e-06 2.34572e-05
0.000479868 1.63465e-05 -2.72128e-06
1.63465e-05 -1.76118e-05 -2.46151e-07
-2.72128e-06 -2.46151e-07 -5.12942e-05
0.00274392 9.72408e-05 -3.72044e-05
9.72408e-05 0.00140916 4.67655e-06
-3.72044e-05 4.67655e-06 0.00141352
0.000498261 -4.8892e-06 2.22401e-06
-4.8892e-06 -1.36922e-05 -6.30843e-06
2.22401e-06 -6.30843e-06 -4.25516e-05
0.00175186 6.31547e-05 1.95365e-05
6.31547e-05 0.000776451 -7.21769e-07
1.95365e-05 -7.21769e-07 0.000779067
0.00267451 6.11175e-05 2.83184e-05
6.11175e-05 0.00135589 -5.26846e-06
2.83184e-05 -5.26846e-06 0.00136552
0.000765596 0.000100139 4.18129e-06
0.000100139 0.000213489 1.12896e-06
4.18129e-06 1.12896e-06 7.62316e-05
0.000517231 4.80467e-05 1.67891e-06
4.80467e-05 2.44924e-05 -2.02665e-06
1.67891e-06 -2.02665e-06 -5.564e-05
0.000460567 5.24835e-05 -9.76451e-07
5.24835e-05 2.37788e-05 -1.27393e-06
-9.76451e-07 -1.27393e-06 -0.000108942
0.000489232 4.24254e-06 8.64895e-07
4.24254e-06 -2.4917e-05 -5.14966e-06
8.64895e-07 -5.14966e-06 -4.37982e-05
0.000328709 3.85512e-05 -2.2615e-06
3.85512e-05 -9.28326e-05 -1.83387e-06
-2.2615e-06 -1.83387e-06 -0.000166455
0.000661586 7.81218e-05 -8.35442e-07
7.81218e-05 0.000152927 -2.76615e-06
-8.35442e-07 -2.76615e-06 2.67042e-05
0.00217054 -3.39197e-05 -2.03584e-05
-3.39197e-05 0.00103436 -4.78119e-06
-2.03584e-05 -4.78119e-06 0.00105065
0.000465888 -2.84821e-06 4.35668e-08
-2.84821e-06 -4.05565e-05 -1.35864e-07
4.35668e-08 -1.35864e-07 -5.41817e-05
0.000131797 1.42635e-05 -1.40348e-06
1.42635e-05 -0.000217362 3.24495e-07
-1.40348e-06 3.24495e-07 -0.000283413
0.00211271 -1.79613e-05 -5.40354e-06
-1.79613e-05 0.000998103 1.2613e-07
-5.40354e-06 1.2613e-07 0.00101563
0.000462152 -1.47911e-06 -2.36405e-06
-1.47911e-06 -4.23649e-05 3.55529e-06
-2.36405e-06 3.55529e-06 -5.29576e-05
0.00206698 -2.47048e-06 1.16915e-05
-2.47048e-06 0.000970154 4.84433e-06
1.16915e-05 4.84433e-06 0.000988023
0.00142033 -0.000239051 -5.8261e-05
-0.000239051 0.000114598 3.43281e-05
-5.8261e-05 3.43281e-05 -0.000269828
-0.000640446 -0.000206837 6.29011e-05
-0.000206837 0.00178241 -3.49582e-06
6.29011e-05 -3.49582e-06 0.000999435
-0.000825883 -0.000374861 0.000155269
-0.000374861 0.000622517 -0.000142117
0.000155269 -0.000142117 -0.0035844
0.000126044 4.96618e-05 2.89121e-06
4.96618e-05 -0.000201824 4.78037e-06
2.89121e-06 4.78037e-06 -0.000344165
0.00222971 0.000104938 1.58106e-06
0.000104938 0.0011013 2.80303e-06
1.58106e-06 2.80303e-06 0.00092985
0.000745257 0.000148628 -2.83524e-06
0.000148628 0.000197043 -5.08988e-06
-2.83524e-06 -5.08988e-06 5.35401e-05
0.000383873 7.72706e-05 8.56491e-07
7.72706e-05 -5.97515e-05 9.50881e-07
8.56491e-07 9.50881e-07 -0.000184873
0.000433825 9.45643e-05 4.02489e-07
9.45643e-05 -1.54419e-05 -7.3805e-07
4.02489e-07 -7.3805e-07 -0.000140915
0.000480102 8.93365e-05 6.41268e-06
8.93365e-05 1.34551e-05 2.41882e-06
6.41268e-06 2.41882e-06 -0.000106898
0.000366869 0.000145392 1.15652e-05
0.000145392 -1.38505e-05 7.48573e-06
1.15652e-05 7.48573e-06 -0.000146346
0.00166122 0.000909076 0.000204811
0.000909076 -0.000460066 0.00024404
0.000204811 0.00024404 -0.00178078
0.00481573 -0.000212697 -4.87163e-05
-0.000212697 -0.000213899 5.60253e-05
-4.87163e-05 5.60253e-05 -0.00105803
0.00400895 -0.000692292 0.000198385
-0.000692292 0.00273387 -0.000108243
0.000198385 -0.000108243 0.00147561
0.00778505 -0.000129427 4.04109e-07
-0.000129427 -0.00578567 0.000176188
4.04109e-07 0.000176188 -0.00213131
0.00441661 -0.00275963 -0.000119283
-0.00275963 0.000506111 4.1391e-05
-0.000119283 4.1391e-05 0.000656979
0.00139688 -0.00386965 -0.000260921
-0.00386965 0.00154999 8.00964e-05
-0.000260921 8.00964e-05 -0.00407055
0.0152345 0.00415944 0.000123632
0.00415944 0.00714869 -0.00014995
0.000123632 -0.00014995 0.00273189
0.00240847 -0.00229465 -5.97328e-05
-0.00229465 0.000163916 2.34307e-05
-5.97328e-05 2.34307e-05 0.000393589
-0.00131575 -0.000803331 -5.51045e-05
-0.000803331 0.00376762 5.24862e-05
-5.51045e-05 5.24862e-05 -0.0031499
0.008084 0.000568015 0.000195046
0.000568015 0.00327373 -2.6542e-05
0.000195046 -2.6542e-05 -0.000142419
0.0151603 -0.00205594 -7.36933e-05
-0.00205594 0.00198256 -1.83495e-05
-7.36933e-05 -1.83495e-05 0.00324295
-0.00103448 -0.000557319 -0.000191621
-0.000557319 0.000366323 0.000144744
-0.000191621 0.000144744 0.000317864
0.00343037 0.00204908 -0.000187835
0.00204908 0.00527501 -9.3468e-05
-0.000187835 -9.3468e-05 -0.00178139
-0.00187352 -0.00496622 4.7666e-06
-0.00496622 -0.000441296 -0.000245346
4.7666e-06 -0.000245346 -0.00530822
0.0133891 -0.00285129 0.000123682
-0.00285129 0.00352713 -0.000616797
0.000123682 -0.000616797 0.00208312
0.000737082 2.12185e-05 1.28157e-05
2.12185e-05 0.000380531 2.08889e-06
1.28157e-05 2.08889e-06 0.000154746
0.000812567 0.000180987 -1.12986e-06
0.000180987 0.000301334 -3.51005e-06
-1.12986e-06 -3.51005e-06 0.000136468
0.000984919 -2.0015e-05 4.50568e-07
-2.0015e-05 0.000451193 -2.88949e-06
4.50568e-07 -2.88949e-06 0.000196292
0.00106101 0.000159607 -4.21586e-06
0.000159607 0.000414728 -9.6877e-06
-4.21586e-06 -9.6877e-06 0.000239755
0.000770718 -0.00101139 3.4075e-05
-0.00101139 2.3699e-05 3.19295e-05
3.4075e-05 3.19295e-05 -0.000349075
0.00270969 -0.000332674 1.64329e-06
-0.000332674 0.00162507 -2.79811e-05
1.64329e-06 -2.79811e-05 0.0012097
0.000889776 0.000100624 -9.64046e-06
0.000100624 0.000442077 -1.35614e-05
-9.64046e-06 -1.35614e-05 0.000242726
0.000126484 5.9704e-05 -9.5517e-07
5.9704e-05 5.74558e-05 -6.97802e-06
-9.5517e-07 -6.97802e-06 -0.0001741
0.000452546 -7.10752e-06 -2.04707e-06
-7.10752e-06 0.00061689 1.58883e-05
-2.04707e-06 1.58883e-05 0.000166155
0.000383686 5.76468e-05 2.77213e-06
5.76468e-05 0.000162481 4.57922e-06
2.77213e-06 4.57922e-06 -1.96152e-05
0.000144716 8.93854e-05 4.13063e-06
8.93854e-05 0.00050918 1.97438e-06
4.13063e-06 1.97438e-06 4.26219e-05
0.00107921 -0.000422888 4.13728e-07
-0.000422888 0.00130812 4.5244e-06
4.13728e-07 4.5244e-06 0.00017866
0.000150221 -0.000119894 9.73994e-06
-0.000119894 0.000679963 9.46124e-07
9.73994e-06 9.46124e-07 0.000269319
-0.000929343 7.99676e-05 1.87188e-06
7.99676e-05 -0.000424373 -1.24148e-05
1.87188e-06 -1.24148e-05 -0.00065556
0.0020156 -6.95597e-06 -9.07805e-05
-6.95597e-06 0.00350166 -3.0227e-05
-9.07805e-05 -3.0227e-05 0.00174137
0.000770663 0.000304416 -3.28915e-05
0.000304416 0.00102777 1.60936e-05
-3.28915e-05 1.60936e-05 0.000495138
-0.00176906 6.03299e-05 -7.57103e-05
6.03299e-05 0.00153237 -1.2412e-05
-7.57103e-05 -1.2412e-05 0.000518323
0.000914491 4.99121e-05 1.38358e-05
4.99121e-05 -9.79051e-05 5.15835e-06
1.38358e-05 5.15835e-06 -0.000527688
-0.00256653 0.000237044 -1.4021e-05
0.000237044 0.000817383 -5.80974e-05
-1.4021e-05 -5.80974e-05 -5.72502e-05
0.000231551 0.000256388 -2.24569e-05
0.000256388 0.000590955 6.99969e-06
-2.24569e-05 6.99969e-06 0.000227411
-0.00146133 0.00079337 0.000137201
0.00079337 -0.000170712 0.000104692
0.000137201 0.000104692 -0.000899864
0.000687778 2.28286e-05 5.91292e-05
2.28286e-05 6.03571e-05 -6.46283e-06
5.91292e-05 -6.46283e-06 -7.38765e-05
0.00545934 -0.0020375 0.000225984
-0.0020375 0.00559269 -0.000176159
0.000225984 -0.000176159 -0.00251355
0.0175987 0.00362497 -0.000166586
0.00362497 0.00776495 0.000148668
-0.000166586 0.000148668 0.00345059
0.00333054 -0.000607405 -0.000181318
-0.000607405 0.0022071 0.00011344
-0.000181318 0.00011344 0.00108818
0.0128463 0.00448787 -7.01639e-05
0.00448787 0.00489646 -0.000211145
-7.01639e-05 -0.000211145 0.00213101
0.00043736 0.000204552 -5.66822e-05
0.000204552 0.00114539 1.45185e-05
-5.66822e-05 1.45185e-05 0.000180062
5.00263e-05 -0.000190553 -7.25708e-05
-0.000190553 0.00177761 1.1218e-06
-7.25708e-05 1.1218e-06 0.00124218
0.0032867 -0.00135843 0.000266609
-0.00135843 0.00153301 -3.46221e-05
0.000266609 -3.46221e-05 -0.00314712
-0.00246339 -0.000126799 4.35702e-05
-0.000126799 -0.000488629 3.05135e-05
4.35702e-05 3.05135e-05 -0.000912545
0.0121623 0.00783634 0.000566558
0.00783634 0.00883618 -0.000256653
0.000566558 -0.000256653 0.00588684
0.0074717 0.00294496 -0.000161033
0.00294496 0.00283966 0.000352553
-0.000161033 0.000352553 -0.00127287
-0.00280952 -0.00121403 0.000164117
-0.00121403 0.00269552 -0.000134719
0.000164117 -0.000134719 -0.00467184
-0.000622223 -0.000383898 2.37598e-05
-0.000383898 0.000559581 -2.75241e-05
2.37598e-05 -2.75241e-05 -0.000406802
0.000246429 -0.000715445 0.000272774
-0.000715445 -0.00020057 -6.63649e-05
0.000272774 -6.63649e-05 -0.00329633
-0.000998652 0.000453811 -0.00109149
0.000453811 0.00651374 0.000297633
-0.00109149 0.000297633 0.00273799
0.0167413 0.00663341 -0.000554416
0.00663341 0.00515896 0.000537626
-0.000554416 0.000537626 0.00153541
0.00832893 -0.00327455 -0.000148148
-0.00327455 0.00344599 5.21793e-05
-0.000148148 5.21793e-05 -0.000177896
0.00277819 -0.00140628 1.37175e-05
-0.00140628 0.00246468 7.56869e-06
1.37175e-05 7.56869e-06 0.00166747
0.000404023 -5.82303e-05 5.55311e-06
-5.82303e-05 0.000584161 -6.10225e-07
5.55311e-06 -6.10225e-07 0.000181116
8.16791e-05 -0.000359435 3.21833e-07
-0.000359435 0.000357283 -8.85097e-07
3.21833e-07 -8.85097e-07 -0.000157037
0.000318244 -0.000640958 3.01493e-06
-0.000640958 0.000190297 -2.43642e-06
3.01493e-06 -2.43642e-06 -8.27886e-05
-0.000484794 -0.0002148 1.15403e-06
-0.0002148 6.38263e-05 7.65966e-06
1.15403e-06 7.65966e-06 -0.000290633
-0.000575841 -0.000374698 1.08552e-06
-0.000374698 -0.000343161 -6.19611e-07
1.08552e-06 -6.19611e-07 -0.000614933
0.00291313 -0.000843811 3.85099e-05
-0.000843811 0.00120143 -1.10538e-05
3.85099e-05 -1.10538e-05 0.000836018
0.00641152 -0.00117765 -1.32135e-05
-0.00117765 0.00334558 -4.40054e-07
-1.32135e-05 -4.40054e-07 0.00287912
0.00277004 -0.000772238 9.73294e-06
-0.000772238 0.00124227 -2.17236e-06
9.73294e-06 -2.17236e-06 0.000636952
0.00157694 -0.000770508 7.01462e-06
-0.000770508 0.000357723 -1.46884e-05
7.01462e-06 -1.46884e-05 -0.00025113
0.00216256 -0.000632661 -9.90447e-06
-0.000632661 0.000780318 -6.586e-06
-9.90447e-06 -6.586e-06 0.000332294
0.0022954 -0.000796214 2.23275e-06
-0.000796214 0.000767123 -1.24483e-06
2.23275e-06 -1.24483e-06 0.00020249
0.00250735 -0.0008863 -1.06494e-06
-0.0008863 0.000792799 -1.05046e-05
-1.06494e-06 -1.05046e-05 0.000234027
0.0021342 -0.000729594 -6.21935e-06
-0.000729594 0.000383776 -4.94531e-06
-6.21935e-06 -4.94531e-06 -4.64592e-06
0.0024279 -0.000869905 -7.52523e-06
-0.000869905 0.000685416 1.44823e-06
-7.52523e-06 1.44823e-06 0.000215479
0.00225919 -0.000854631 -2.79842e-06
-0.000854631 0.000610454 -1.21212e-07
-2.79842e-06 -1.21212e-07 0.000111285
0.00173013 -0.000649316 8.92177e-06
-0.000649316 0.000496589 -3.2767e-06
8.92177e-06 -3.2767e-06 9.14408e-05
0.00150852 -0.000639364 2.60943e-06
-0.000639364 0.000337947 -7.15191e-07
2.60943e-06 -7.15191e-07 -7.93745e-05
0.00149677 -0.000616998 3.33867e-06
-0.000616998 0.000327907 -6.28978e-08
3.33867e-06 -6.28978e-08 -0.000109518
0.00172483 -0.000450056 8.01762e-06
-0.000450056 0.00061058 3.59258e-06
8.01762e-06 3.59258e-06 0.000297257
0.00140632 -0.000473056 -1.21503e-06
-0.000473056 0.000381204 -1.90568e-06
-1.21503e-06 -1.90568e-06 3.84602e-05
0.00152448 -0.000537807 5.93471e-06
-0.000537807 0.00038124 1.77587e-06
5.93471e-06 1.77587e-06 9.16828e-06
0.00114304 -0.000214525 2.42694e-06
-0.000214525 0.00043418 -4.9527e-06
2.42694e-06 -4.9527e-06 0.000158989
0.000696263 -0.000244575 -2.71934e-06
-0.000244575 7.85218e-05 1.9331e-06
-2.71934e-06 1.9331e-06 -0.000165352
0.000937789 -0.000371178 -1.88375e-09
-0.000371178 0.00012751 -9.87395e-06
-1.88375e-09 -9.87395e-06 -0.000160717
2.44132e-05 -6.25009e-05 -1.08373e-06
-6.25009e-05 -0.000279623 5.17859e-06
-1.08373e-06 5.17859e-06 -0.000428466
0.000752093 -0.000111622 -4.79672e-08
-0.000111622 0.000232108 8.92258e-07
-4.79672e-08 8.92258e-07 -1.41687e-05
0.00114681 -0.000290259 2.52477e-06
-0.000290259 0.000496309 2.03478e-06
2.52477e-06 2.03478e-06 0.000217906
0.00035374 -5.59734e-06 -5.07095e-06
-5.59734e-06 -9.39568e-05 1.41481e-05
-5.07095e-06 1.41481e-05 -0.000140471
0.000650508 -6.34282e-05 7.58475e-07
-6.34282e-05 0.000103205 1.15812e-07
7.58475e-07 1.15812e-07 -1.72175e-05
0.001338 -0.000188037 -1.80443e-06
-0.000188037 0.000567642 1.85889e-06
-1.80443e-06 1.85889e-06 0.000371862
0.000635462 -5.49725e-05 -8.24052e-07
-5.49725e-05 0.000101249 -5.80949e-06
-8.24052e-07 -5.80949e-06 -6.34291e-06
0.000446427 1.45513e-05 -4.32241e-07
1.45513e-05 -3.22226e-05 -4.30669e-07
-4.32241e-07 -4.30669e-07 -7.27877e-05
0.00288617 0.000122458 -3.79149e-05
0.000122458 0.00150823 4.59885e-06
-3.79149e-05 4.59885e-06 0.00150663
0.000521721 6.78617e-06 1.31363e-06
6.78617e-06 4.66684e-06 -7.61111e-06
1.31363e-06 -7.61111e-06 -2.75579e-05
0.00273806 0.000100064 4.63703e-06
0.000100064 0.00140584 5.35688e-07
4.63703e-06 5.35688e-07 0.0014097
0.00264404 7.96741e-05 3.14252e-05
7.96741e-05 0.00133999 -4.81047e-06
3.14252e-05 -4.81047e-06 0.00134768
0.000921058 9.02756e-05 3.53963e-06
9.02756e-05 0.00038049 -4.92823e-06
3.53963e-06 -4.92823e-06 0.000177328
0.000964258 0.00014273 6.62588e-06
0.00014273 0.00036734 6.28614e-07
6.62588e-06 6.28614e-07 0.000196418
0.00057446 4.08934e-05 3.02105e-06
4.08934e-05 5.74401e-05 -3.25941e-06
3.02105e-06 -3.25941e-06 -3.17883e-05
0.000606681 0.000104685 2.5051e-07
0.000104685 0.000109508 -2.51754e-07
2.5051e-07 -2.51754e-07 -2.40654e-05
0.000471291 1.38452e-06 4.356e-07
1.38452e-06 -3.35979e-05 -6.32413e-06
4.356e-07 -6.32413e-06 -5.7891e-05
0.000532677 5.06382e-05 2.09559e-07
5.06382e-05 3.46039e-05 -1.42673e-07
2.09559e-07 -1.42673e-07 -4.56228e-05
0.000573662 5.55169e-05 -4.07384e-06
5.55169e-05 8.03533e-05 -2.17768e-06
-4.07384e-06 -2.17768e-06 -4.32008e-05
0.00231515 -4.99968e-05 -2.64546e-05
-4.99968e-05 0.00112699 -4.95188e-06
-2.64546e-05 -4.95188e-06 0.00114094
0.000474044 -8.77284e-07 -7.62346e-07
-8.77284e-07 -3.40704e-05 -1.62585e-07
-7.62346e-07 -1.62585e-07 -5.24487e-05
0.000476037 5.59295e-05 -3.24781e-06
5.59295e-05 9.47689e-07 1.17027e-07
-3.24781e-06 1.17027e-07 -7.22349e-05
0.00217183 -3.32443e-05 -4.7413e-06
-3.32443e-05 0.00103513 2.30199e-07
-4.7413e-06 2.30199e-07 0.00105153
0.000471218 -2.26722e-06 -2.42525e-06
-2.26722e-06 -3.77443e-05 3.91649e-06
-2.42525e-06 3.91649e-06 -5.10062e-05
0.00209935 -1.73156e-05 1.57041e-05
-1.73156e-05 0.000989529 4.70195e-06
1.57041e-05 4.70195e-06 0.00100712
-0.00227841 0.000182479 -1.43119e-05
0.000182479 0.000242132 -3.76957e-05
-1.43119e-05 -3.76957e-05 -0.000109073
0.00144127 -0.000195913 -1.55118e-05
-0.000195913 0.0002836 8.80267e-06
-1.55118e-05 8.80267e-06 7.29535e-05
-1.00477e-05 -0.000201909 8.22684e-06
-0.000201909 0.00165245 -3.71089e-05
8.22684e-06 -3.71089e-05 0.00101912
0.000808407 0.000101544 -1.14648e-07
0.000101544 0.000267541 7.81197e-07
-1.14648e-07 7.81197e-07 9.16655e-05
0.000271105 8.62367e-05 5.4174e-06
8.62367e-05 -0.000112564 -1.56121e-06
5.4174e-06 -1.56121e-06 -0.000270916
-0.00161192 -1.29134e-05 -3.52431e-06
-1.29134e-05 -0.00127016 -7.72203e-06
-3.52431e-06 -7.72203e-06 -0.00141573
-0.000560491 2.54611e-05 3.90934e-07
2.54611e-05 -0.000602682 1.39693e-05
3.90934e-07 1.39693e-05 -0.00074779
0.00287699 0.000398964 -2.53394e-06
0.000398964 0.00153383 -4.68257e-07
-2.53394e-06 -4.68257e-07 0.00127585
0.000858495 4.58615e-05 -5.7166e-06
4.58615e-05 0.000225957 -4.78675e-06
-5.7166e-06 -4.78675e-06 0.000102034
0.000447455 0.000101731 -7.81989e-06
0.000101731 -9.26359e-06 -1.01248e-05
-7.81989e-06 -1.01248e-05 -0.000128268
0.0007678 6.60445e-05 3.93498e-07
6.60445e-05 0.000193044 -4.50904e-07
3.93498e-07 -4.50904e-07 7.13129e-05
0.000979722 0.000164481 -7.27134e-07
0.000164481 0.000349788 -2.25135e-06
-7.27134e-07 -2.25135e-06 0.000220828
0.000876829 0.000124326 7.58775e-06
0.000124326 0.000428284 -1.50852e-05
7.58775e-06 -1.50852e-05 0.000210698
0.00541875 0.000931134 0.000389834
0.000931134 0.00389653 0.000479941
0.000389834 0.000479941 -0.000778919
0.00222854 0.000738397 2.05357e-05
0.000738397 5.86115e-05 8.8559e-05
2.05357e-05 8.8559e-05 -0.00149848
0.004212 -0.000154986 3.78561e-05
-0.000154986 -0.000210849 -1.93859e-05
3.78561e-05 -1.93859e-05 -0.0006231
0.0139877 -0.00176927 -0.000268815
-0.00176927 0.00214464 -0.000127046
-0.000268815 -0.000127046 0.00377908
-0.00337371 0.00148298 7.48902e-05
0.00148298 -0.00223254 0.000424125
7.48902e-05 0.000424125 -0.00675287
0.00192042 -0.00224694 -5.61096e-05
-0.00224694 0.000478746 -3.38651e-05
-5.61096e-05 -3.38651e-05 0.000516033
0.00851923 -0.00209121 -0.000128453
-0.00209121 0.0051782 3.44378e-05
-0.000128453 3.44378e-05 4.79457e-05
0.000972643 -0.000927852 -9.14776e-05
-0.000927852 0.000838477 0.000109605
-9.14776e-05 0.000109605 0.000509617
0.00950638 -9.30598e-05 -0.000153606
-9.30598e-05 0.00636715 2.18826e-06
-0.000153606 2.18826e-06 -5.80611e-05
0.00526282 -0.00261147 9.96309e-05
-0.00261147 0.00352232 0.000183537
9.96309e-05 0.000183537 -0.00125258
0.0160705 -0.00408124 -0.000146698
-0.00408124 0.00278332 -0.000714757
-0.000146698 -0.000714757 0.000893922
0.00287016 -9.19552e-07 -0.000133532
-9.19552e-07 0.00293699 0.00011212
-0.000133532 0.00011212 0.00185357
0.0131227 0.00257162 -0.000188907
0.00257162 0.00730085 1.00945e-05
-0.000188907 1.00945e-05 0.00220138
0.0195201 -0.00633046 -0.000160018
-0.00633046 0.00959996 -0.000702906
-0.000160018 -0.000702906 0.00522517
0.0220641 -0.00815591 8.37504e-05
-0.00815591 0.0086305 -7.07431e-05
8.37504e-05 -7.07431e-05 0.00610172
0.000967926 0.000301745 1.36782e-05
0.000301745 0.000558268 -8.26233e-07
1.36782e-05 -8.26233e-07 0.000261952
1.97958e-05 4.85793e-05 3.19898e-06
4.85793e-05 1.17702e-05 2.82334e-06
3.19898e-06 2.82334e-06 -0.000257376
0.000900322 0.00018016 -1.11588e-05
0.00018016 0.000372672 -1.39953e-05
-1.11588e-05 -1.39953e-05 0.000193622
0.00305849 -0.000604084 3.28576e-05
-0.000604084 0.00191083 2.5235e-05
3.28576e-05 2.5235e-05 0.00060046
3.69711e-07 -0.000100656 1.46518e-05
-0.000100656 0.000752285 -3.88344e-05
1.46518e-05 -3.88344e-05 0.000288853
-9.24102e-06 5.11911e-05 -4.73856e-06
5.11911e-05 -7.88723e-05 1.93607e-06
-4.73856e-06 1.93607e-06 -0.000256662
-0.000697082 -1.03151e-05 1.53652e-05
-1.03151e-05 3.48195e-05 -8.32619e-06
1.53652e-05 -8.32619e-06 -0.000453689
-1.144e-05 0.00010948 -4.7398e-07
0.00010948 9.93299e-05 -7.00564e-07
-4.7398e-07 -7.00564e-07 -0.000144922
0.000392243 0.000332474 1.3878e-05
0.000332474 0.000667094 7.18042e-07
1.3878e-05 7.18042e-07 0.000127441
-0.00208449 -7.36889e-05 0.00026167
-7.36889e-05 0.000885164 -2.16285e-05
0.00026167 -2.16285e-05 -0.000966884
-0.00110111 0.000348694 -6.78554e-06
0.000348694 -0.000572799 1.20059e-05
-6.78554e-06 1.20059e-05 -0.000943678
0.00291719 0.000917793 -0.000144375
0.000917793 0.00224678 -7.71974e-05
-0.000144375 -7.71974e-05 0.000854095
0.00128957 0.000195895 0.000178619
0.000195895 0.00170434 6.00797e-05
0.000178619 6.00797e-05 -0.00231692
-0.00209838 0.000175316 -5.58144e-05
0.000175316 0.0012593 1.55458e-05
-5.58144e-05 1.55458e-05 0.000182727
0.00229374 -0.000232811 -2.54713e-05
-0.000232811 0.000599437 -2.53173e-06
-2.54713e-05 -2.53173e-06 0.000758788
-0.000652538 0.000506853 0.000124685
0.000506853 0.000404648 1.27386e-05
0.000124685 1.27386e-05 -0.000634376
0.00128734 0.000308929 -9.76278e-05
0.000308929 0.0022389 9.46629e-05
-9.76278e-05 9.46629e-05 0.000879487
-0.000211552 -0.000251976 -1.00387e-05
-0.000251976 0.001561 -5.9473e-06
-1.00387e-05 -5.9473e-06 0.00085817
0.016465 -0.00395262 0.000223753
-0.00395262 0.00823489 -0.000105857
0.000223753 -0.000105857 0.00219626
0.0231189 0.00455019 -0.000135205
0.00455019 0.0102928 -0.000151721
-0.000135205 -0.000151721 0.00566632
0.00494142 -0.00154064 -0.000253199
-0.00154064 0.00248347 0.000246096
-0.000253199 0.000246096 -0.00201622
0.0046646 0.00897737 0.00242011
0.00897737 0.00455314 -0.00152832
0.00242011 -0.00152832 0.0015179
0.00115045 -0.000487507 3.81046e-05
-0.000487507 0.00145832 -1.15145e-05
3.81046e-05 -1.15145e-05 0.000410598
-0.000287441 -0.000517882 4.2933e-05
-0.000517882 0.000372636 1.36233e-05
4.2933e-05 1.36233e-05 -0.00330695
-0.000234166 0.000869678 -0.00112755
0.000869678 0.00622806 0.000334508
-0.00112755 0.000334508 0.00210978
0.000723502 -0.00080779 9.76427e-06
-0.00080779 0.00124398 3.19404e-05
9.76427e-06 3.19404e-05 0.000541904
0.0193149 0.00598444 0.00034362
0.00598444 0.00606292 9.46425e-05
0.00034362 9.46425e-05 0.00239092
0.00742018 -0.00470084 0.000189691
-0.00470084 0.00244236 -7.5201e-05
0.000189691 -7.5201e-05 -0.00147616
0.00117139 -0.00120051 -9.22867e-06
-0.00120051 0.00078504 2.94453e-05
-9.22867e-06 2.94453e-05 2.13734e-06
-0.00632893 -0.00170738 0.000140113
-0.00170738 0.00540844 -7.63895e-05
0.000140113 -7.63895e-05 0.00143888
0.0156219 0.00575941 -0.00149918
0.00575941 0.00612675 0.000516065
-0.00149918 0.000516065 0.00321214
0.00629041 -0.00348407 -0.000432282
-0.00348407 -0.000401896 0.000187082
-0.000432282 0.000187082 -0.00372326
0.00118911 -0.00193067 0.000189137
-0.00193067 5.02061e-05 -0.000119547
0.000189137 -0.000119547 0.000948286
0.00104318 -0.000498808 -9.65776e-05
-0.000498808 0.000784541 3.24844e-05
-9.65776e-05 3.24844e-05 0.000323844
0.000677249 -0.000576689 -5.53874e-06
-0.000576689 0.000427087 1.1642e-05
-5.53874e-06 1.1642e-05 9.11433e-05
0.00317842 -0.000887508 1.98888e-05
-0.000887508 0.00144964 -1.15868e-05
1.98888e-05 -1.15868e-05 0.00107577
-0.00169827 -0.000186701 7.76177e-06
-0.000186701 -0.000804329 1.04369e-05
7.76177e-06 1.04369e-05 -0.00107485
0.00127527 -0.000635903 4.58241e-06
-0.000635903 0.000353286 -2.68528e-06
4.58241e-06 -2.68528e-06 3.59487e-06
0.00305944 -0.000962667 9.61601e-06
-0.000962667 0.000969108 -1.34059e-06
9.61601e-06 -1.34059e-06 0.000577127
0.00413457 -0.000945175 -2.83786e-05
-0.000945175 0.00192725 2.74963e-06
-2.83786e-05 2.74963e-06 0.00132999
0.0013845 -0.000719793 -6.61198e-07
-0.000719793 0.000240902 -1.2355e-06
-6.61198e-07 -1.2355e-06 -0.000345292
0.00181059 -0.000888415 1.61564e-06
-0.000888415 0.000231419 -1.1914e-05
1.61564e-06 -1.1914e-05 -0.000235959
0.00278697 -0.000867155 9.15705e-07
-0.000867155 0.00101582 4.55637e-06
9.15705e-07 4.55637e-06 0.000436495
0.00220698 -0.000854785 1.19962e-06
-0.000854785 0.000601397 -4.55401e-06
1.19962e-06 -4.55401e-06 6.22545e-05
0.00260169 -0.000789299 -4.14586e-07
-0.000789299 0.000598559 -9.8532e-06
-4.14586e-07 -9.8532e-06 0.000213533
0.00173146 -0.000509501 -5.68803e-06
-0.000509501 -2.95357e-06 -2.92434e-06
-5.68803e-06 -2.92434e-06 -0.000250169
0.00189413 -0.000729785 -1.86715e-06
-0.000729785 0.000193378 -1.50702e-06
-1.86715e-06 -1.50702e-06 -0.000193506
0.00213161 -0.000730954 2.96385e-06
-0.000730954 0.000373644 -2.89769e-06
2.96385e-06 -2.89769e-06 -1.28461e-05
0.00226464 -0.000764214 -3.25953e-06
-0.000764214 0.00065367 -7.90392e-07
-3.25953e-06 -7.90392e-07 0.000232423
0.00237864 -0.00086361 -3.00492e-06
-0.00086361 0.000667355 3.78329e-08
-3.00492e-06 3.78329e-08 0.00019316
0.00250767 -0.000886239 7.35482e-06
-0.000886239 0.000742877 -3.80315e-06
7.35482e-06 -3.80315e-06 0.000233582
0.00190871 -0.000569138 7.17994e-06
-0.000569138 0.000660956 4.11315e-07
7.17994e-06 4.11315e-07 0.000291726
0.00140489 -0.000602975 2.37724e-06
-0.000602975 0.000315049 -3.2256e-07
2.37724e-06 -3.2256e-07 -7.61198e-05
0.00128169 -0.000605009 2.22989e-06
-0.000605009 0.000207932 1.9177e-06
2.22989e-06 1.9177e-06 -0.000194646
0.00136873 -0.000348178 -1.32724e-07
-0.000348178 0.000454747 -4.45053e-07
-1.32724e-07 -4.45053e-07 0.000186732
0.00120966 -0.00038334 9.56792e-07
-0.00038334 0.000305504 -4.04879e-07
9.56792e-07 -4.04879e-07 7.53484e-06
0.00140175 -0.000468989 -6.44561e-06
-0.000468989 0.000383155 9.06672e-08
-6.44561e-06 9.06672e-08 3.86335e-05
-0.000324581 -9.48806e-05 -2.19551e-06
-9.48806e-05 -0.000487306 1.57319e-06
-2.19551e-06 1.57319e-06 -0.000700564
0.000712141 -0.000226392 1.97291e-07
-0.000226392 0.000176267 -4.12425e-07
1.97291e-07 -4.12425e-07 -0.000102779
0.00116809 -0.000290181 -4.79135e-06
-0.000290181 0.000392504 1.76649e-06
-4.79135e-06 1.76649e-06 0.000139427
0.00179677 2.55405e-05 -4.56068e-05
2.55405e-05 0.000822648 8.87541e-06
-4.56068e-05 8.87541e-06 0.000773262
0.000716798 -0.000109418 1.25446e-07
-0.000109418 0.000143815 -4.92577e-07
1.25446e-07 -4.92577e-07 -1.26046e-05
0.00134815 -0.000167884 -1.22214e-06
-0.000167884 0.00060224 3.54003e-06
-1.22214e-06 3.54003e-06 0.000348771
0.000722061 3.54795e-05 -5.03478e-05
3.54795e-05 0.000143459 6.15195e-06
-5.03478e-05 6.15195e-06 0.000133002
0.0011599 1.66749e-05 -1.67392e-05
1.66749e-05 0.000416261 -5.9528e-07
-1.67392e-05 -5.9528e-07 0.000370795
0.000809861 -7.75578e-05 2.3381e-06
-7.75578e-05 0.000196985 -7.08976e-06
2.3381e-06 -7.08976e-06 7.5603e-05
0.000595615 8.16345e-06 2.10701e-06
8.16345e-06 5.72627e-05 -9.70352e-06
2.10701e-06 -9.70352e-06 1.71886e-05
0.00296509 0.000123241 8.07924e-06
0.000123241 0.00155798 7.31593e-07
8.07924e-06 7.31593e-07 0.00155629
0.00274085 0.000100404 3.55616e-05
0.000100404 0.00140781 -4.65781e-06
3.55616e-05 -4.65781e-06 0.00141175
0.000943662 0.000144181 1.12567e-05
0.000144181 0.000374236 -1.59394e-06
1.12567e-05 -1.59394e-06 0.000149908
0.00133161 0.000170852 4.6257e-06
0.000170852 0.000613631 -1.76599e-06
4.6257e-06 -1.76599e-06 0.000408567
-3.38628e-05 5.3259e-05 4.86191e-07
5.3259e-05 -0.000243479 5.95707e-07
4.86191e-07 5.95707e-07 -0.000422348
0.000669985 4.29272e-05 3.15613e-06
4.29272e-05 0.000119575 -4.67212e-06
3.15613e-06 -4.67212e-06 1.69289e-05
0.000790464 0.000112539 6.80666e-07
0.000112539 0.000242877 1.49835e-07
6.80666e-07 1.49835e-07 8.45513e-05
0.000464585 9.89402e-06 -1.70323e-06
9.89402e-06 -3.24101e-05 -7.86774e-06
-1.70323e-06 -7.86774e-06 -6.22848e-05
0.000547609 4.37156e-05 -1.02245e-07
4.37156e-05 4.43083e-05 -4.02654e-07
-1.02245e-07 -4.02654e-07 -4.6037e-05
0.000713076 6.48932e-05 -3.51212e-06
6.48932e-05 0.000200073 -4.29046e-07
-3.51212e-06 -4.29046e-07 4.95341e-05
0.0025496 -6.84637e-05 -3.48883e-05
-6.84637e-05 0.00127867 -4.91259e-06
-3.48883e-05 -4.91259e-06 0.0012893
0.000452335 3.17264e-06 -6.1384e-07
3.17264e-06 -4.46739e-05 -1.39794e-07
-6.1384e-07 -1.39794e-07 -6.87992e-05
0.000549691 5.49194e-05 -8.63097e-07
5.49194e-05 4.66148e-05 2.47227e-06
-8.63097e-07 2.47227e-06 -3.41561e-05
0.00233391 -5.04494e-05 -6.01764e-06
-5.04494e-05 0.00113886 3.59619e-07
-6.01764e-06 3.59619e-07 0.00115273
0.000437158 -1.06714e-05 -4.12363e-06
-1.06714e-05 -5.68892e-05 4.84106e-06
-4.12363e-06 4.84106e-06 -7.49686e-05
0.00219821 -3.2064e-05 2.12629e-05
-3.2064e-05 0.00105171 4.66286e-06
2.12629e-05 4.66286e-06 0.00106819
0.00650763 0.000635945 0.000323037
0.000635945 0.00373228 7.09317e-05
0.000323037 7.09317e-05 0.00148536
-0.00197892 0.000123491 -2.72813e-06
0.000123491 0.000204467 -7.15269e-06
-2.72813e-06 -7.15269e-06 -0.000382632
0.000617409 9.94346e-05 -1.32062e-05
9.94346e-05 0.000366125 -8.36044e-06
-1.32062e-05 -8.36044e-06 8.67143e-05
-0.000488104 0.000102062 -8.02655e-06
0.000102062 -0.000633234 2.5499e-06
-8.02655e-06 2.5499e-06 -0.000785123
0.000332932 5.78725e-05 -6.20607e-06
5.78725e-05 -4.87528e-05 -3.54216e-06
-6.20607e-06 -3.54216e-06 -0.000203586
-0.0001513 5.46884e-05 -8.32233e-07
5.46884e-05 -0.000369593 -4.10785e-06
-8.32233e-07 -4.10785e-06 -0.000524541
0.00125236 7.33334e-05 1.54059e-06
7.33334e-05 0.000503361 -1.4905e-07
1.54059e-06 -1.4905e-07 0.000347371
0.000128854 9.39314e-05 -2.59463e-06
9.39314e-05 -0.000221897 -2.65325e-06
-2.59463e-06 -2.65325e-06 -0.000371468
0.00211055 0.000298026 -4.11518e-06
0.000298026 0.00106702 -3.94075e-06
-4.11518e-06 -3.94075e-06 0.000863799
0.0010047 0.000248499 -7.00146e-06
0.000248499 0.000336036 -1.44484e-05
-7.00146e-06 -1.44484e-05 3.15396e-05
-0.00110844 9.69875e-05 3.55244e-07
9.69875e-05 -0.000665712 9.06494e-07
3.55244e-07 9.06494e-07 -0.00100162
0.000705408 0.000141294 -6.06861e-06
0.000141294 0.000181302 -4.0723e-06
-6.06861e-06 -4.0723e-06 4.27186e-05
8.87224e-05 5.56096e-05 -9.21953e-06
5.56096e-05 -0.000250475 -8.42448e-06
-9.21953e-06 -8.42448e-06 -0.000341982
-6.64804e-05 4.36366e-05 -7.80211e-09
4.36366e-05 -0.000162441 1.21974e-06
-7.80211e-09 1.21974e-06 -0.000367668
0.000932191 0.000292518 1.63931e-05
0.000292518 0.000602373 -1.68413e-06
1.63931e-05 -1.68413e-06 0.000215449
0.0032763 -0.00302433 0.000128009
-0.00302433 0.00578941 0.000252154
0.000128009 0.000252154 0.00035967
0.00621846 0.00129839 0.000133467
0.00129839 0.00318745 0.000169491
0.000133467 0.000169491 -0.00190116
0.00303172 0.000483769 -3.43583e-05
0.000483769 0.000592108 -7.88224e-05
-3.43583e-05 -7.88224e-05 -0.00119481
0.0240372 -0.00518685 -0.000724966
-0.00518685 0.00648033 -0.000370934
-0.000724966 -0.000370934 0.00429055
0.005805 -0.00170787 0.000273377
-0.00170787 0.00376189 0.00048875
0.000273377 0.00048875 0.000270169
0.00363674 -0.00160403 -0.000246505
-0.00160403 0.00505325 9.8837e-05
-0.000246505 9.8837e-05 -0.00207795
-0.00114691 -0.00050786 0.000129264
-0.00050786 0.00102571 1.62193e-05
0.000129264 1.62193e-05 9.41007e-05
-0.000470876 -0.000151908 9.37088e-05
-0.000151908 0.000995368 5.38722e-05
9.37088e-05 5.38722e-05 0.000310529
0.0141933 -0.00849945 0.000453157
-0.00849945 0.00665548 0.000426614
0.000453157 0.000426614 0.00386652
0.00163017 0.0014593 -9.59407e-05
0.0014593 0.00406936 -8.30048e-05
-9.59407e-05 -8.30048e-05 -0.00235452
0.0080061 -0.00369462 -0.000129163
-0.00369462 0.00364282 0.00010326
-0.000129163 0.00010326 -0.00132611
0.000530578 0.0007055 -1.63569e-05
0.0007055 0.00109437 6.85746e-05
-1.63569e-05 6.85746e-05 0.000744908
0.0117155 0.00389351 -0.000110592
0.00389351 0.0039614 5.43647e-06
-0.000110592 5.43647e-06 0.000199715
0.0146105 -0.00655448 -0.000815656
-0.00655448 0.00446906 -0.000505289
-0.000815656 -0.000505289 0.000537652
-0.000180076 0.000460659 2.14356e-06
0.000460659 -0.000497553 -4.93109e-06
2.14356e-06 -4.93109e-06 -0.000641982
0.00050652 0.000169296 7.85964e-06
0.000169296 0.000246369 3.8656e-06
7.85964e-06 3.8656e-06 1.09334e-05
2.71483e-05 5.95332e-05 -9.20818e-06
5.95332e-05 -6.02422e-06 -5.05647e-06
-9.20818e-06 -5.05647e-06 -0.000259178
-0.00400864 -0.000360169 -0.000122683
-0.000360169 -0.000315489 -6.56234e-05
-0.000122683 -6.56234e-05 -0.00209655
-0.000719499 0.00024559 1.77828e-05
0.00024559 -0.000122144 -2.11049e-05
1.77828e-05 -2.11049e-05 -0.000639712
0.00163547 0.000198934 -4.63329e-06
0.000198934 0.00103393 1.29368e-05
-4.63329e-06 1.29368e-05 0.000786104
0.00114978 0.000646696 1.43269e-05
0.000646696 0.000596564 3.18821e-06
1.43269e-05 3.18821e-06 0.000202541
-0.000422971 0.000500986 4.17376e-05
0.000500986 0.000651789 -2.97122e-05
4.17376e-05 -2.97122e-05 -0.000542759
0.000701901 0.00127041 6.26525e-05
0.00127041 -1.76885e-05 7.11387e-06
6.26525e-05 7.11387e-06 -0.000836626
-0.00590469 0.00110998 0.000347496
0.00110998 0.0053874 6.18911e-06
0.000347496 6.18911e-06 -0.00134182
0.00228138 -0.000151623 -8.74592e-06
-0.000151623 0.00197421 6.4565e-05
-8.74592e-06 6.4565e-05 -0.000789136
-0.00247694 -5.06443e-05 -1.22514e-05
-5.06443e-05 0.00077616 5.10469e-05
-1.22514e-05 5.10469e-05 -5.78339e-05
-0.000496204 -0.000271777 -6.43496e-05
-0.000271777 0.000680219 1.63276e-05
-6.43496e-05 1.63276e-05 -0.000423383
-0.00153072 -0.000412959 -6.08484e-05
-0.000412959 -0.000413333 4.90953e-05
-6.08484e-05 4.90953e-05 -0.000176687
-0.000233002 -0.00043119 -0.000183981
-0.00043119 0.000763786 0.00011526
-0.000183981 0.00011526 -0.00317086
6.78699e-05 -0.00376056 0.00026489
-0.00376056 0.00211394 -8.78792e-05
0.00026489 -8.78792e-05 -0.00354873
0.00920171 0.00504572 0.000679757
0.00504572 0.000463134 -0.000439606
0.000679757 -0.000439606 -0.00286524
0.0101362 0.00328189 -0.000395634
0.00328189 0.00746658 0.000317445
-0.000395634 0.000317445 0.00330823
0.00124201 -0.000792646 -1.06262e-05
-0.000792646 0.00126468 -1.8537e-06
-1.06262e-05 -1.8537e-06 0.000519771
0.00184989 0.000541277 0.000123381
0.000541277 0.00724442 -2.04678e-05
0.000123381 -2.04678e-05 0.00326331
0.000656753 0.00393948 9.30688e-06
0.00393948 0.000686747 6.89271e-05
9.30688e-06 6.89271e-05 -0.00281346
0.00245537 -0.00252624 8.53929e-05
-0.00252624 0.000716242 -4.1012e-05
8.53929e-05 -4.1012e-05 0.000909809
0.0169145 -0.0038273 1.81301e-05
-0.0038273 0.00339287 -2.75161e-06
1.81301e-05 -2.75161e-06 0.00149324
0.00308748 -0.00156271 6.36976e-06
-0.00156271 0.00122793 1.9953e-05
6.36976e-06 1.9953e-05 0.000888113
-0.00836422 0.00119424 -0.000570731
0.00119424 -0.00259011 8.92685e-05
-0.000570731 8.92685e-05 -0.00527618
0.0159821 -0.00246128 -0.000228396
-0.00246128 0.00219476 6.85148e-05
-0.000228396 6.85148e-05 0.000792606
0.00385787 -0.00265823 0.000106113
-0.00265823 -9.05577e-05 -7.2838e-05
0.000106113 -7.2838e-05 0.000405822
0.000805824 -0.00051731 -1.58561e-05
-0.00051731 0.000569387 1.65567e-05
-1.58561e-05 1.65567e-05 0.000162059
0.00103828 -0.000776092 -5.68187e-07
-0.000776092 0.000180431 -1.95379e-06
-5.68187e-07 -1.95379e-06 -6.73417e-05
0.0055752 -0.00107039 2.36585e-05
-0.00107039 0.00236508 -1.27936e-05
2.36585e-05 -1.27936e-05 0.00198492
-0.000812655 -0.000390955 -6.84656e-06
-0.000390955 -0.000735397 7.4133e-06
-6.84656e-06 7.4133e-06 -0.00106899
0.00137722 -0.000772848 -3.55355e-06
-0.000772848 0.000109796 -2.42653e-07
-3.55355e-06 -2.42653e-07 -0.000279708
0.00302828 -0.00101353 4.78748e-06
-0.00101353 0.000761192 -7.64231e-06
4.78748e-06 -7.64231e-06 0.000362151
0.00154912 -0.000715952 -1.1775e-05
-0.000715952 0.000298985 8.55764e-06
-1.1775e-05 8.55764e-06 -0.00026936
0.00193578 -0.000892243 -1.12212e-06
-0.000892243 0.000301963 1.19573e-06
-1.12212e-06 1.19573e-06 -0.000173765
0.0017949 -0.000723367 -7.94154e-07
-0.000723367 -1.23518e-05 -6.79722e-06
-7.94154e-07 -6.79722e-06 -0.000307652
0.00153615 -0.000779388 -2.0985e-06
-0.000779388 0.00021035 3.10479e-06
-2.0985e-06 3.10479e-06 -0.000304581
0.00198038 -0.000709531 -1.26675e-06
-0.000709531 0.000263607 1.4603e-06
-1.26675e-06 1.4603e-06 -0.000103919
0.00202101 -0.000536891 -1.27796e-06
-0.000536891 9.70181e-05 -4.42243e-06
-1.27796e-06 -4.42243e-06 -0.000114786
0.00186519 -0.000443179 -5.07638e-06
-0.000443179 6.32444e-05 -8.43645e-07
-5.07638e-06 -8.43645e-07 -0.000111229
0.00170207 -0.000525787 -6.07461e-06
-0.000525787 -3.35525e-06 -2.02261e-06
-6.07461e-06 -2.02261e-06 -0.000262501
0.00181485 -0.000510453 1.56923e-06
-0.000510453 4.94878e-05 2.7235e-06
1.56923e-06 2.7235e-06 -0.000194364
0.00167522 -0.000630679 -6.01719e-06
-0.000630679 0.00012214 -2.58965e-06
-6.01719e-06 -2.58965e-06 -0.000225128
0.00206279 -0.000736679 2.80409e-06
-0.000736679 0.00031273 -3.17956e-07
2.80409e-06 -3.17956e-07 -7.02709e-05
0.0021598 -0.000734151 6.34373e-06
-0.000734151 0.000383602 1.37298e-06
6.34373e-06 1.37298e-06 -1.2477e-06
0.00165442 -0.000626967 -1.256e-06
-0.000626967 0.000332869 -2.26275e-06
-1.256e-06 -2.26275e-06 -5.44164e-05
0.00209571 -0.000751004 2.01495e-06
-0.000751004 0.000549399 -6.94408e-07
2.01495e-06 -6.94408e-07 0.00012807
0.00228657 -0.000850702 1.56606e-06
-0.000850702 0.00062477 -1.67284e-06
1.56606e-06 -1.67284e-06 0.000147461
0.00127715 -0.000372963 -6.13906e-06
-0.000372963 0.000294815 2.21429e-06
-6.13906e-06 2.21429e-06 1.61066e-05
0.00150908 -0.000520714 1.95698e-06
-0.000520714 0.000405441 1.13176e-06
1.95698e-06 1.13176e-06 4.98312e-05
0.000998359 -0.000545829 -5.23751e-06
-0.000545829 8.45399e-05 1.99663e-06
-5.23751e-06 1.99663e-06 -0.000290321
0.000496754 -0.000208012 -7.24845e-06
-0.000208012 -5.18526e-05 -9.64098e-07
-7.24845e-06 -9.64098e-07 -0.000270229
0.00107048 -0.000335089 5.19543e-07
-0.000335089 0.000260218 -6.75076e-07
5.19543e-07 -6.75076e-07 -1.44087e-06
0.000415785 -0.000295132 -9.32022e-06
-0.000295132 -0.000168053 2.99985e-07
-9.32022e-06 2.99985e-07 -0.000447271
0.000340888 -4.84896e-05 -1.10926e-05
-4.84896e-05 -0.000108398 1.33761e-05
-1.10926e-05 1.33761e-05 -0.000180426
0.0008442 -0.000170734 2.75251e-06
-0.000170734 0.000238162 1.15184e-06
2.75251e-06 1.15184e-06 1.6893e-05
0.000696139 -0.000243111 6.48983e-08
-0.000243111 0.000169884 2.18706e-06
6.48983e-08 2.18706e-06 -0.000107189
0.00380814 0.000227887 3.72338e-06
0.000227887 0.00212709 5.06489e-06
3.72338e-06 5.06489e-06 0.00209262
0.000479493 -2.35104e-05 3.41016e-07
-2.35104e-05 -1.57886e-05 -3.57125e-07
3.41016e-07 -3.57125e-07 -7.49384e-05
0.00121326 -0.00010925 -3.04188e-07
-0.00010925 0.000456472 -6.42357e-06
-3.04188e-07 -6.42357e-06 0.00029092
0.00329689 0.000141578 8.80562e-06
0.000141578 0.0017744 7.02731e-07
8.80562e-06 7.02731e-07 0.00176803
0.000516383 -4.57203e-06 4.12999e-06
-4.57203e-06 8.91043e-06 -1.13314e-05
4.12999e-06 -1.13314e-05 -4.07637e-05
0.00298646 0.000117347 5.13627e-05
0.000117347 0.00157018 -4.90859e-06
5.13627e-05 -4.90859e-06 0.00156998
0.00220576 0.000328256 7.02345e-06
0.000328256 0.0010753 3.25394e-06
7.02345e-06 3.25394e-06 0.000840612
0.000794951 0.000157149 5.96946e-07
0.000157149 0.000287319 -4.16401e-06
5.96946e-07 -4.16401e-06 5.8964e-05
0.00128809 0.000171087 8.40573e-07
0.000171087 0.000601295 -6.7474e-06
8.40573e-07 -6.7474e-06 0.000360059
0.000686561 5.87737e-05 2.86229e-06
5.87737e-05 0.000131353 -5.58684e-06
2.86229e-06 -5.58684e-06 9.24467e-06
0.000768385 0.000103515 3.08929e-07
0.000103515 0.00024885 1.48627e-06
3.08929e-07 1.48627e-06 5.76717e-05
0.00033761 0.000114348 -1.19605e-06
0.000114348 1.03638e-05 4.96944e-06
-1.19605e-06 4.96944e-06 -0.000187547
0.000513398 -5.28332e-07 -1.75347e-06
-5.28332e-07 5.23294e-06 -9.5771e-06
-1.75347e-06 -9.5771e-06 -3.20202e-05
0.000578008 4.28931e-05 -5.70212e-08
4.28931e-05 6.61959e-05 -3.76656e-07
-5.70212e-08 -3.76656e-07 -3.80119e-05
0.000356891 8.4177e-05 -4.99907e-06
8.4177e-05 -4.67023e-05 -2.14069e-07
-4.99907e-06 -2.14069e-07 -0.000187208
0.00270445 -8.5659e-05 -4.34543e-05
-8.5659e-05 0.00138179 -4.72197e-06
-4.34543e-05 -4.72197e-06 0.00138945
0.000421143 -1.86596e-05 2.80496e-06
-1.86596e-05 -5.76691e-05 -1.28884e-07
2.80496e-06 -1.28884e-07 -8.82755e-05
0.000497455 4.68567e-05 -2.2208e-06
4.68567e-05 1.50194e-05 3.26308e-06
-2.2208e-06 3.26308e-06 -7.57764e-05
0.00251605 -6.86085e-05 -6.58816e-06
-6.86085e-05 0.00125732 4.87411e-07
-6.58816e-06 4.87411e-07 0.00126789
0.000437068 -1.94422e-06 -2.06019e-06
-1.94422e-06 -5.42178e-05 6.04077e-06
-2.06019e-06 6.04077e-06 -7.78488e-05
0.00229878 -4.96603e-05 2.35464e-05
-4.96603e-05 0.00111658 4.67828e-06
2.35464e-05 4.67828e-06 0.00113072
-0.00962634 0.00106495 -0.000106317
0.00106495 0.0037932 8.08362e-05
-0.000106317 8.08362e-05 -0.00251467
0.006119 0.000452723 3.55745e-06
0.000452723 0.00358321 -1.77812e-06
3.55745e-06 -1.77812e-06 0.00144336
-0.00159205 5.74964e-05 4.38626e-05
5.74964e-05 0.000229573 2.05528e-05
4.38626e-05 2.05528e-05 -0.000595215
0.000217913 0.000137111 -5.72836e-07
0.000137111 -0.000154645 2.25354e-06
-5.72836e-07 2.25354e-06 -0.000345137
0.00336269 0.000663993 1.40791e-05
0.000663993 0.00171482 1.05535e-05
1.40791e-05 1.05535e-05 0.00135983
0.00130111 0.00019362 -9.06207e-06
0.00019362 0.000611741 1.85086e-06
-9.06207e-06 1.85086e-06 0.000302928
0.000594343 7.23429e-05 -7.43866e-06
7.23429e-05 9.56157e-05 -1.46376e-05
-7.43866e-06 -1.46376e-05 -6.39725e-05
0.0026477 0.000287653 3.70838e-06
0.000287653 0.0013084 -1.70563e-06
3.70838e-06 -1.70563e-06 0.00113818
-0.000640648 3.53996e-05 -1.02615e-05
3.53996e-05 -0.00061592 9.49163e-06
-1.02615e-05 9.49163e-06 -0.000763681
0.000103675 0.000105126 -1.19523e-06
0.000105126 -2.81704e-05 5.77982e-06
-1.19523e-06 5.77982e-06 -0.000306242
0.000614287 0.000159477 -3.06626e-06
0.000159477 0.000153142 -5.58646e-06
-3.06626e-06 -5.58646e-06 -0.000153277
0.00185085 0.000509313 7.44032e-06
0.000509313 0.000918473 -2.70891e-05
7.44032e-06 -2.70891e-05 0.000478142
0.000111695 0.000463166 -1.47368e-05
0.000463166 -0.000263504 4.95537e-05
-1.47368e-05 4.95537e-05 -0.000420224
0.00151354 4.46596e-05 -1.34628e-05
4.46596e-05 0.000768095 1.48861e-05
-1.34628e-05 1.48861e-05 0.00057566
0.00145625 0.000264263 5.14397e-06
0.000264263 0.000920661 -1.05355e-05
5.14397e-06 -1.05355e-05 0.000555729
-0.000291379 -0.00234291 -0.0015261
-0.00234291 0.00144511 -0.000259227
-0.0015261 -0.000259227 -0.00231615
-0.00245451 -0.00229997 0.000516778
-0.00229997 0.00569421 0.000197609
0.000516778 0.000197609 0.000138055
0.00696384 0.00164006 -0.000544089
0.00164006 0.00298061 -0.000188376
-0.000544089 -0.000188376 -0.0024993
0.00412264 -0.00897869 0.00239052
-0.00897869 0.00453762 0.00149674
0.00239052 0.00149674 0.00116538
0.0251787 -0.00382316 6.47891e-05
-0.00382316 0.00858675 0.000357342
6.47891e-05 0.000357342 0.00516844
-0.00306444 0.0014356 -1.51851e-05
0.0014356 0.00227011 -0.000186922
-1.51851e-05 -0.000186922 -0.00338575
-0.00263134 0.000146494 -0.000386661
0.000146494 0.00071929 -6.47384e-05
-0.000386661 -6.47384e-05 -0.000948598
0.00109053 0.000730376 7.60744e-05
0.000730376 0.00160681 5.20125e-05
7.60744e-05 5.20125e-05 0.00127496
0.0195137 -0.00487659 -0.000634282
-0.00487659 0.0080155 6.02047e-06
-0.000634282 6.02047e-06 0.00419654
-0.00255137 0.00290885 -0.000112948
0.00290885 0.000329397 -4.62426e-05
-0.000112948 -4.62426e-05 -0.00436746
0.00315623 0.00211484 1.48859e-05
0.00211484 0.000970965 -7.13021e-05
1.48859e-05 -7.13021e-05 0.00161312
0.00251684 0.00457556 -0.00039623
0.00457556 -0.00210118 -0.000107721
-0.00039623 -0.000107721 -0.00477507
0.00329159 0.00116497 2.45217e-05
0.00116497 0.00123114 -1.40626e-05
2.45217e-05 -1.40626e-05 0.000880814
0.000999347 0.000563732 -5.34036e-06
0.000563732 0.000275357 -1.61714e-06
-5.34036e-06 -1.61714e-06 0.000111022
-0.00021934 0.000153405 -6.78409e-06
0.000153405 -0.00018497 1.05666e-06
-6.78409e-06 1.05666e-06 -0.000425111
-0.00157677 0.000358473 -8.1796e-05
0.000358473 6.9643e-05 -7.53451e-05
-8.1796e-05 -7.53451e-05 -0.000965281
0.00211681 0.000769002 -3.40996e-05
0.000769002 0.00106322 -2.01862e-05
-3.40996e-05 -2.01862e-05 0.000654763
0.00192901 0.00142691 1.10846e-05
0.00142691 0.000519785 -8.70661e-06
1.10846e-05 -8.70661e-06 -0.000290654
-0.000761342 0.00153198 0.000100385
0.00153198 -0.00169906 4.55993e-05
0.000100385 4.55993e-05 -0.00201015
-0.00621364 -0.000457367 -0.000585621
-0.000457367 -0.00436845 4.59835e-05
-0.000585621 4.59835e-05 -0.00409351
-0.00844876 0.000492404 0.000382938
0.000492404 0.00558633 1.66762e-05
0.000382938 1.66762e-05 -0.0006226
0.00292707 -9.57688e-05 -0.0001224
-9.57688e-05 0.00206146 3.36503e-05
-0.0001224 3.36503e-05 0.000281115
0.00225746 -0.00095 -5.16849e-05
-0.00095 0.00137951 -4.6701e-05
-5.16849e-05 -4.6701e-05 0.000661518
-0.000593993 -0.0019147 3.88254e-05
-0.0019147 -0.000660895 4.47024e-05
3.88254e-05 4.47024e-05 -0.000413373
0.000653591 0.000621285 5.71392e-05
0.000621285 0.00694799 4.38336e-05
5.71392e-05 4.38336e-05 0.00284377
0.00242501 -0.00325857 0.000466461
-0.00325857 -0.00164684 -0.000116018
0.000466461 -0.000116018 -0.00388617
0.0218702 0.00342767 0.000842301
0.00342767 0.00962328 -9.9003e-05
0.000842301 -9.9003e-05 0.00666442
0.00159635 -0.00162628 -1.73292e-05
-0.00162628 0.000342426 4.66478e-06
-1.73292e-05 4.66478e-06 -0.000248415
0.00200443 0.0014476 0.000258165
0.0014476 0.000678283 -7.88501e-05
0.000258165 -7.88501e-05 -0.00146385
0.00765669 -0.00215418 -0.00016419
-0.00215418 -0.00238591 0.000141981
-0.00016419 0.000141981 -0.00455267
0.00382928 -0.00266055 -1.109e-05
-0.00266055 -0.000403307 2.66656e-05
-1.109e-05 2.66656e-05 0.00032292
0.00248139 -0.00137671 7.06696e-05
-0.00137671 0.000192649 -1.90147e-05
7.06696e-05 -1.90147e-05 4.82156e-05
0.0166558 -0.000840378 -6.92909e-05
-0.000840378 0.0032898 4.75656e-05
-6.92909e-05 4.75656e-05 0.00207238
0.00248006 -0.00174784 0.000127964
-0.00174784 -0.00312713 -9.19047e-05
0.000127964 -9.19047e-05 -0.00177482
-0.000689338 -0.000641225 -2.8345e-05
-0.000641225 -0.000841326 3.09535e-05
-2.8345e-05 3.09535e-05 -0.000956248
0.000172914 -0.000568076 -4.01486e-05
-0.000568076 -0.000589907 3.62195e-06
-4.01486e-05 3.62195e-06 -0.000732206
0.00612055 -0.00113094 6.23157e-05
-0.00113094 0.00230604 -2.41361e-05
6.23157e-05 -2.41361e-05 0.00208625
0.000357663 -0.000644021 -1.41002e-05
-0.000644021 -0.000389165 -4.36988e-07
-1.41002e-05 -4.36988e-07 -0.000781139
0.00213272 -0.000904586 -2.46131e-06
-0.000904586 0.000299539 -3.28853e-06
-2.46131e-06 -3.28853e-06 -7.18339e-05
0.00272937 -0.000824741 1.20072e-06
-0.000824741 0.000318643 -4.85292e-06
1.20072e-06 -4.85292e-06 0.000111094
0.00213917 -0.000905031 6.27755e-07
-0.000905031 0.000414214 9.49955e-06
6.27755e-07 9.49955e-06 -6.98447e-05
0.00215596 -0.000753181 -1.07246e-06
-0.000753181 0.000188646 7.95796e-07
-1.07246e-06 7.95796e-07 -0.000110454
0.00212853 -0.000560366 1.21919e-07
-0.000560366 3.26047e-05 -1.59298e-06
1.21919e-07 -1.59298e-06 -9.8328e-05
0.00147966 -0.000643627 5.9211e-06
-0.000643627 -7.85043e-06 7.75954e-06
5.9211e-06 7.75954e-06 -0.000360345
0.00198763 -0.000526895 -4.17168e-07
-0.000526895 7.9926e-05 2.31811e-06
-4.17168e-07 2.31811e-06 -0.000125797
0.00206049 -0.000493468 -2.55303e-06
-0.000493468 8.61245e-05 1.24162e-06
-2.55303e-06 1.24162e-06 -5.49214e-05
0.00200426 -0.000462014 -4.59776e-06
-0.000462014 0.00014424 1.02334e-06
-4.59776e-06 1.02334e-06 -1.09259e-05
0.00199807 -0.000452939 -3.02596e-06
-0.000452939 0.000138352 3.29794e-06
-3.02596e-06 3.29794e-06 -3.30401e-05
0.00207997 -0.000465771 -2.66185e-06
-0.000465771 0.00023504 -3.97417e-06
-2.66185e-06 -3.97417e-06 4.75651e-05
0.00200574 -0.000555366 -7.13004e-06
-0.000555366 0.000207621 -2.76052e-06
-7.13004e-06 -2.76052e-06 -5.99392e-05
0.0019319 -0.000542731 1.83175e-06
-0.000542731 0.0001438 8.88845e-07
1.83175e-06 8.88845e-07 -0.000116093
0.00189696 -0.0005116 7.06956e-06
-0.0005116 9.90933e-05 7.54183e-06
7.06956e-06 7.54183e-06 -0.000141376
0.00190536 -0.00062207 -7.79465e-06
-0.00062207 0.00032593 -2.36936e-06
-7.79465e-06 -2.36936e-06 -2.23182e-05
0.001693 -0.000639421 -5.06422e-07
-0.000639421 0.000119442 1.06111e-07
-5.06422e-07 1.06111e-07 -0.00023126
0.00220424 -0.000741993 8.41534e-06
-0.000741993 0.000414546 1.1262e-06
8.41534e-06 1.1262e-06 3.55897e-05
0.00142167 -0.000459378 -1.03952e-05
-0.000459378 0.000282759 3.4109e-06
-1.03952e-05 3.4109e-06 -3.62397e-05
0.00175245 -0.000635421 -7.08049e-07
-0.000635421 0.000395593 7.40112e-07
-7.08049e-07 7.40112e-07 7.52966e-06
0.00198382 -0.000745729 2.81952e-06
-0.000745729 0.000477555 7.19587e-07
2.81952e-06 7.19587e-07 5.46314e-05
0.000697421 -0.000218165 -8.31756e-06
-0.000218165 2.41723e-05 4.34559e-06
-8.31756e-06 4.34559e-06 -0.000187562
0.00120059 -0.000373021 1.09196e-06
-0.000373021 0.000238874 -1.30173e-07
1.09196e-06 -1.30173e-07 -4.26068e-05
0.00103789 -0.000466569 -1.78422e-06
-0.000466569 0.000101824 1.81722e-06
-1.78422e-06 1.81722e-06 -0.000239523
0.000464147 -0.000125721 -2.21791e-05
-0.000125721 -6.3466e-05 1.52456e-05
-2.21791e-05 1.52456e-05 -0.000156495
0.000648941 -0.000200956 -1.89078e-06
-0.000200956 6.59135e-05 1.06352e-06
-1.89078e-06 1.06352e-06 -0.000167354
0.000737508 -0.00034796 1.5144e-06
-0.00034796 5.04808e-05 9.2378e-08
1.5144e-06 9.2378e-08 -0.000216997
0.00426638 0.000207886 -8.68203e-05
0.000207886 0.00241566 6.69206e-06
-8.68203e-05 6.69206e-06 0.00239008
0.000486541 -6.6153e-05 1.33919e-06
-6.6153e-05 -2.19708e-05 -3.92878e-07
1.33919e-06 -3.92878e-07 -0.000100544
0.00167435 -0.000250565 5.39514e-06
-0.000250565 0.000748812 -2.18639e-06
5.39514e-06 -2.18639e-06 0.000520064
0.0024864 0.000130345 5.08991e-05
0.000130345 0.00127715 1.37429e-06
5.08991e-05 1.37429e-06 0.00125439
0.00060613 -3.25906e-05 9.97134e-06
-3.25906e-05 5.95652e-05 -1.29189e-05
9.97134e-06 -1.29189e-05 -2.42881e-06
0.00356302 0.000134629 8.08119e-05
0.000134629 0.00194195 -4.87879e-06
8.08119e-05 -4.87879e-06 0.00193755
0.0017764 0.000340172 4.18193e-06
0.000340172 0.000695092 -3.29636e-06
4.18193e-06 -3.29636e-06 0.000479767
0.000405422 0.000138188 -3.6374e-06
0.000138188 -6.71902e-05 -1.16199e-07
-3.6374e-06 -1.16199e-07 -0.000259717
0.000488803 0.000159519 1.61207e-06
0.000159519 6.76051e-05 -8.02798e-06
1.61207e-06 -8.02798e-06 -0.000162658
0.000434009 0.000128833 -2.52648e-06
0.000128833 4.15422e-05 1.11492e-05
-2.52648e-06 1.11492e-05 -0.000165954
0.000590624 9.76216e-05 7.88504e-07
9.76216e-05 0.00013831 1.5592e-07
7.88504e-07 1.5592e-07 -7.67966e-05
0.000978033 0.000107003 6.8005e-07
0.000107003 0.000305151 -8.66944e-06
6.8005e-07 -8.66944e-06 0.000161293
0.000580615 2.95622e-05 -4.92462e-06
2.95622e-05 4.93798e-05 -1.18515e-05
-4.92462e-06 -1.18515e-05 2.9273e-06
0.000665184 5.67539e-05 4.26438e-07
5.67539e-05 0.000124417 -2.41172e-08
4.26438e-07 -2.41172e-08 1.18099e-06
-7.74471e-05 3.60534e-05 -6.22237e-06
3.60534e-05 -0.000306042 1.31376e-06
-6.22237e-06 1.31376e-06 -0.000474336
0.0029214 -9.97238e-05 -6.04248e-05
-9.97238e-05 0.00152587 -4.88007e-06
-6.04248e-05 -4.88007e-06 0.00153097
0.000422824 1.32967e-05 9.65618e-07
1.32967e-05 -4.98549e-05 -2.86973e-07
9.65618e-07 -2.86973e-07 -8.69337e-05
0.000531927 4.51779e-05 -3.38132e-06
4.51779e-05 4.33551e-05 4.60841e-06
-3.38132e-06 4.60841e-06 -6.30714e-05
0.00269502 -8.67392e-05 -7.22249e-06
-8.67392e-05 0.00137608 5.89222e-07
-7.22249e-06 5.89222e-07 0.00138318
0.000402458 -1.00125e-05 3.32518e-07
-1.00125e-05 -6.85349e-05 7.40992e-06
3.32518e-07 7.40992e-06 -9.88766e-05
0.00250835 -6.83602e-05 2.96695e-05
-6.83602e-05 0.00125223 4.85931e-06
2.96695e-05 4.85931e-06 0.00126275
0.00115315 8.63856e-05 -0.00083347
8.63856e-05 0.00373898 -5.91258e-05
-0.00083347 -5.91258e-05 0.0016286
-0.00579995 0.000168643 3.63706e-05
0.000168643 0.00478901 -2.77944e-06
3.63706e-05 -2.77944e-06 -0.00174523
0.00580171 0.00021155 -0.000244288
0.00021155 0.00346889 -6.5264e-05
-0.000244288 -6.5264e-05 0.00148282
-0.000268039 4.18429e-05 2.70636e-06
4.18429e-05 -0.000452455 -9.44174e-06
2.70636e-06 -9.44174e-06 -0.000643639
0.00045882 8.2768e-05 5.95711e-06
8.2768e-05 4.40421e-05 7.79051e-06
5.95711e-06 7.79051e-06 -0.0002461
0.00275768 0.000576953 -3.3618e-06
0.000576953 0.00137586 4.05951e-06
-3.3618e-06 4.05951e-06 0.00103589
0.00224148 0.000677547 1.57186e-05
0.000677547 0.000920415 7.09529e-06
1.57186e-05 7.09529e-06 0.000473817
0.00048247 0.000374199 6.30312e-06
0.000374199 0.000115453 2.36051e-06
6.30312e-06 2.36051e-06 -0.00025725
0.000880579 0.000154306 -6.90038e-06
0.000154306 0.000440732 8.67441e-06
-6.90038e-06 8.67441e-06 0.000157346
0.000963673 0.000170548 1.09317e-05
0.000170548 0.000397784 1.06812e-05
1.09317e-05 1.06812e-05 0.000110412
0.000602794 0.000418043 -5.13957e-06
0.000418043 0.000235008 -9.86296e-07
-5.13957e-06 -9.86296e-07 -0.00021102
-0.000345731 0.00053339 1.42512e-05
0.00053339 -0.000703426 -1.16971e-05
1.42512e-05 -1.16971e-05 -0.00103041
0.00245606 0.000819098 -9.94459e-06
0.000819098 0.000904787 2.61115e-05
-9.94459e-06 2.61115e-05 0.00067598
0.0014487 0.000868255 2.97612e-05
0.000868255 4.50378e-05 1.06311e-05
2.97612e-05 1.06311e-05 -0.000103951
0.00138176 0.00062799 -7.02254e-06
0.00062799 0.000502029 -3.30575e-06
-7.02254e-06 -3.30575e-06 0.000266127
0.00200454 0.000357071 -8.13282e-06
0.000357071 0.00112079 3.4688e-05
-8.13282e-06 3.4688e-05 0.0008029
0.0138127 0.00250502 -0.000121799
0.00250502 0.00175119 6.40712e-05
-0.000121799 6.40712e-05 0.000500263
0.00239827 -0.00197861 -0.000556304
-0.00197861 0.00375316 -0.00020338
-0.000556304 -0.00020338 0.000680763
-0.000105943 -0.00347265 0.000754034
-0.00347265 0.00625543 0.000205492
0.000754034 0.000205492 0.000612948
0.00701916 -0.00297789 0.000301237
-0.00297789 0.00313545 0.000321817
0.000301237 0.000321817 -0.000437012
0.0141493 0.00469438 -0.000110354
0.00469438 0.00466198 -4.79729e-05
-0.000110354 -4.79729e-05 0.00070167
-0.00305088 0.000235923 -5.5579e-05
0.000235923 -0.000189608 -5.81733e-05
-5.5579e-05 -5.81733e-05 -0.000581492
0.00216869 0.0018682 -5.25046e-05
0.0018682 0.000547402 -2.07836e-05
-5.25046e-05 -2.07836e-05 0.00127928
0.0173421 0.00448479 1.75714e-05
0.00448479 0.00389444 3.81861e-05
1.75714e-05 3.81861e-05 0.00150527
0.00646364 0.0035347 -7.84229e-05
0.0035347 -0.000122229 -0.000103902
-7.84229e-05 -0.000103902 0.000277472
0.00160869 0.00117903 1.15291e-05
0.00117903 0.000104523 -6.25016e-06
1.15291e-05 -6.25016e-06 -0.00014398
0.00157503 0.000909629 9.63979e-06
0.000909629 0.000430041 -3.82936e-06
9.63979e-06 -3.82936e-06 0.000125501
0.00211154 0.000627082 -2.53836e-05
0.000627082 0.00100296 1.20546e-06
-2.53836e-05 1.20546e-06 0.000824334
0.00270323 0.0015987 -7.00108e-05
0.0015987 0.000777368 -2.64648e-05
-7.00108e-05 -2.64648e-05 -1.24214e-05
0.00137736 0.00177343 7.35138e-05
0.00177343 -0.000805679 3.74297e-05
7.35138e-05 3.74297e-05 -0.00120602
0.00233388 -0.000306904 -0.000121914
-0.000306904 -0.004921 5.71255e-05
-0.000121914 5.71255e-05 -0.00515979
0.000782061 -0.00164496 1.03152e-05
-0.00164496 0.00216263 3.08439e-06
1.03152e-05 3.08439e-06 0.00124144
-0.0115326 -0.000264183 0.000308966
-0.000264183 0.00601547 -2.40855e-05
0.000308966 -2.40855e-05 0.00040668
0.000483775 -0.00178035 -5.75057e-05
-0.00178035 -0.000515321 1.87202e-05
-5.75057e-05 1.87202e-05 -0.00131385
0.00553598 -0.00310792 2.80607e-05
-0.00310792 0.000354845 4.54146e-05
2.80607e-05 4.54146e-05 0.000634716
0.00235915 -1.87845e-05 0.000899148
-1.87845e-05 0.00392065 -0.000212034
0.000899148 -0.000212034 0.0020081
0.0139359 -0.00239341 -0.000274958
-0.00239341 0.00157464 0.000148062
-0.000274958 0.000148062 0.000534241
0.00171489 -0.00137043 -3.03106e-05
-0.00137043 -0.000130057 3.8906e-07
-3.03106e-05 3.8906e-07 -0.000422816
0.0114689 -0.000104146 -0.000193297
-0.000104146 -0.000879318 6.56438e-05
-0.000193297 6.56438e-05 -0.00172258
0.00717802 -0.00204925 0.000101378
-0.00204925 -0.000280411 1.19746e-05
0.000101378 1.19746e-05 0.00046053
0.00357051 -0.00117544 6.23002e-05
-0.00117544 0.000361993 -4.41502e-05
6.23002e-05 -4.41502e-05 0.000158584
0.00262433 -0.00077701 -1.0077e-05
-0.00077701 -0.00193429 8.74747e-06
-1.0077e-05 8.74747e-06 -0.000799923
-0.00562584 -4.46942e-05 1.2568e-05
-4.46942e-05 -0.0037327 1.11097e-05
1.2568e-05 1.11097e-05 -0.00369655
0.00154076 -0.000725253 -1.7383e-05
-0.000725253 -0.000214758 1.78569e-06
-1.7383e-05 1.78569e-06 -0.000233616
0.00363553 -0.000761334 3.59575e-05
-0.000761334 0.00069805 -1.44934e-05
3.59575e-05 -1.44934e-05 0.000750064
0.00107129 -0.000782261 -1.02709e-05
-0.000782261 -0.000251004 6.89411e-06
-1.02709e-05 6.89411e-06 -0.000593482
0.00217578 -0.000771688 -3.61488e-06
-0.000771688 2.67897e-05 3.19071e-06
-3.61488e-06 3.19071e-06 -0.000175091
0.00239438 -0.000627029 5.68e-06
-0.000627029 -6.82974e-06 -1.55079e-06
5.68e-06 -1.55079e-06 -3.92622e-05
0.00225788 -0.000753049 -4.10821e-06
-0.000753049 0.000253244 1.07374e-05
-4.10821e-06 1.07374e-05 -4.31227e-05
0.00211703 -0.000557136 4.24264e-07
-0.000557136 2.46424e-05 1.46904e-06
4.24264e-07 1.46904e-06 -0.000101844
0.00225923 -0.000549767 -5.1507e-07
-0.000549767 8.70513e-05 2.44975e-07
-5.1507e-07 2.44975e-07 1.73092e-05
0.0019244 -0.000513817 4.00499e-06
-0.000513817 4.64597e-05 6.75643e-06
4.00499e-06 6.75643e-06 -0.000152386
0.00204042 -0.000492864 -2.46827e-08
-0.000492864 7.11933e-05 1.33333e-06
-2.46827e-08 1.33333e-06 -6.73306e-05
0.00218809 -0.000527637 -2.40664e-06
-0.000527637 0.000149147 1.49704e-06
-2.40664e-06 1.49704e-06 1.8581e-05
0.00201997 -0.000469604 -4.23844e-06
-0.000469604 0.00014596 2.49624e-06
-4.23844e-06 2.49624e-06 -7.97815e-06
0.00215893 -0.000470829 -1.40335e-06
-0.000470829 0.000276063 -1.18007e-06
-1.40335e-06 -1.18007e-06 0.00011279
0.00211649 -0.000462053 3.61449e-06
-0.000462053 0.000205864 5.9566e-06
3.61449e-06 5.9566e-06 3.7636e-05
0.00205631 -0.000464562 6.30194e-07
-0.000464562 0.000218803 -6.94647e-07
6.30194e-07 -6.94647e-07 3.1552e-05
0.00195248 -0.000481176 -3.19615e-06
-0.000481176 0.000158056 -2.99577e-06
-3.19615e-06 -2.99577e-06 -5.01072e-05
0.00204098 -0.000536706 -5.11748e-06
-0.000536706 0.000302927 -3.96514e-06
-5.11748e-06 -3.96514e-06 2.59612e-05
0.002071 -0.000563382 -4.37657e-07
-0.000563382 0.000250273 -4.96291e-09
-4.37657e-07 -4.96291e-09 -2.0042e-05
0.00216293 -0.000559466 8.58186e-06
-0.000559466 0.00029275 4.19419e-06
8.58186e-06 4.19419e-06 3.21765e-05
0.00155708 -0.000498682 -1.02859e-05
-0.000498682 0.00022098 2.04884e-06
-1.02859e-05 2.04884e-06 -0.000101226
0.00183145 -0.000612278 -1.69519e-06
-0.000612278 0.000283155 -2.21371e-07
-1.69519e-06 -2.21371e-07 -6.51078e-05
0.00170994 -0.00064719 6.31513e-06
-0.00064719 0.000116436 2.05208e-06
6.31513e-06 2.05208e-06 -0.000237434
0.000733439 -0.000242752 -1.10345e-05
-0.000242752 -1.4511e-05 6.78743e-06
-1.10345e-05 6.78743e-06 -0.000233593
0.00132711 -0.000452941 1.03476e-06
-0.000452941 0.000223421 3.04227e-07
1.03476e-06 3.04227e-07 -9.47285e-05
0.00185103 -0.0006427 3.12202e-06
-0.0006427 0.000460818 2.20321e-06
3.12202e-06 2.20321e-06 7.24462e-05
0.000418136 -0.000182615 -2.2353e-05
-0.000182615 -0.00010451 1.88551e-05
-2.2353e-05 1.88551e-05 -0.000221513
0.000635557 -0.000221543 -5.56223e-07
-0.000221543 -7.11221e-06 2.67088e-07
-5.56223e-07 2.67088e-07 -0.0002242
0.000934821 -0.000344553 6.20895e-06
-0.000344553 6.48766e-05 -1.1955e-06
6.20895e-06 -1.1955e-06 -0.000211171
0.00505846 0.000177366 -0.000139661
0.000177366 0.00290579 9.42949e-06
-0.000139661 9.42949e-06 0.00288758
0.000502006 -0.00014282 -2.59886e-06
-0.00014282 -3.66815e-05 -8.0309e-07
-2.59886e-06 -8.0309e-07 -0.000136402
0.00119213 -0.000243583 5.70466e-06
-0.000243583 0.000418031 -1.43401e-06
5.70466e-06 -1.43401e-06 0.000171843
0.00446934 0.000178896 2.22347e-05
0.000178896 0.00253944 8.5117e-07
2.22347e-05 8.5117e-07 0.00252102
0.000744328 -8.74832e-05 1.8718e-05
-8.74832e-05 0.000133545 -1.43876e-05
1.8718e-05 -1.43876e-05 5.09533e-05
0.00396438 0.000138598 0.000110972
0.000138598 0.00220141 -6.75735e-06
0.000110972 -6.75735e-06 0.00219599
0.00203559 0.000555004 2.35441e-06
0.000555004 0.000811537 -3.00547e-06
2.35441e-06 -3.00547e-06 0.000443704
0.000779062 0.000259621 -6.88602e-07
0.000259621 8.81826e-05 -3.2617e-06
-6.88602e-07 -3.2617e-06 -0.000119978
0.000265452 0.000159426 4.38431e-06
0.000159426 -0.000166442 4.19397e-06
4.38431e-06 4.19397e-06 -0.000372363
-0.000767657 3.41607e-05 -2.27719e-06
3.41607e-05 -0.00077284 4.1692e-07
-2.27719e-06 4.1692e-07 -0.000966949
0.000373084 0.000108893 -3.73267e-07
0.000108893 -3.32404e-05 2.3598e-06
-3.73267e-07 2.3598e-06 -0.000246358
0.000985935 0.000104143 5.42584e-07
0.000104143 0.000317047 -9.85679e-06
5.42584e-07 -9.85679e-06 0.000139846
0.000281501 5.88712e-05 -3.17958e-06
5.88712e-05 -7.36527e-05 4.56159e-06
-3.17958e-06 4.56159e-06 -0.000272901
0.000570688 8.17135e-05 -7.76052e-08
8.17135e-05 6.16498e-05 3.38672e-07
-7.76052e-08 3.38672e-07 -8.06371e-05
0.00061532 3.52293e-05 -6.72153e-06
3.52293e-05 6.90733e-05 -1.50151e-05
-6.72153e-06 -1.50151e-05 1.1193e-05
0.0032151 -0.000108776 -8.40763e-05
-0.000108776 0.00171948 -6.24059e-06
-8.40763e-05 -6.24059e-06 0.00172237
0.000435773 1.22245e-05 1.37574e-06
1.22245e-05 -3.62913e-05 -3.53304e-07
1.37574e-06 -3.53304e-07 -8.34327e-05
0.000466639 4.49131e-05 -3.88979e-06
4.49131e-05 6.77791e-06 6.33396e-06
-3.88979e-06 6.33396e-06 -0.00011605
0.00286086 -0.000105913 -8.11516e-06
-0.000105913 0.0014887 7.28875e-07
-8.11516e-06 7.28875e-07 0.00149163
0.000324504 -5.06881e-05 -6.28147e-06
-5.06881e-05 -0.000104063 9.03636e-06
-6.28147e-06 9.03636e-06 -0.000144674
0.00267798 -8.74047e-05 3.69447e-05
-8.74047e-05 0.00136499 4.90448e-06
3.69447e-05 4.90448e-06 0.00137169
0.0148528 0.000592621 0.000479181
0.000592621 0.00198155 0.000116998
0.000479181 0.000116998 0.00164653
-0.00122746 -0.00283223 -0.000500003
-0.00283223 -0.00248641 -8.23126e-05
-0.000500003 -8.23126e-05 -0.00461595
-0.00940866 0.00146004 -0.000204724
0.00146004 0.0042012 -0.000124819
-0.000204724 -0.000124819 -0.00265889
0.000155349 3.04802e-05 1.76542e-05
3.04802e-05 -0.000133415 -6.33106e-06
1.76542e-05 -6.33106e-06 -0.000441349
0.00157315 0.000430151 -9.14364e-06
0.000430151 0.000668062 -1.5359e-08
-9.14364e-06 -1.5359e-08 0.000358992
0.0023415 0.000580332 -1.03112e-05
0.000580332 0.00119856 -2.46497e-06
-1.03112e-05 -2.46497e-06 0.000778231
0.0015188 0.000590509 9.47182e-07
0.000590509 0.000485263 -8.06243e-07
9.47182e-07 -8.06243e-07 6.25448e-05
0.00144244 0.000635781 1.18208e-05
0.000635781 0.000253959 1.85448e-05
1.18208e-05 1.85448e-05 -0.00015089
-0.000748104 0.000412637 2.73516e-05
0.000412637 -0.00090486 5.8135e-06
2.73516e-05 5.8135e-06 -0.00123763
-0.000277105 0.000300501 -1.17744e-05
0.000300501 -0.000201891 1.16018e-05
-1.17744e-05 1.16018e-05 -0.000681317
-0.000268979 0.000530328 1.09628e-05
0.000530328 -0.00066936 -7.52779e-07
1.09628e-05 -7.52779e-07 -0.000996768
0.00222657 0.000784873 5.41323e-06
0.000784873 0.000825441 7.42669e-06
5.41323e-06 7.42669e-06 0.000551619
-0.000621861 0.00051761 5.87511e-06
0.00051761 -0.000995787 -3.75828e-06
5.87511e-06 -3.75828e-06 -0.00123376
0.00358394 0.00101011 3.87554e-06
0.00101011 0.00119502 1.51911e-05
3.87554e-06 1.51911e-05 0.00100963
0.00132586 0.000863755 2.14947e-05
0.000863755 -3.818e-06 6.11062e-06
2.14947e-05 6.11062e-06 -0.000289304
0.000573121 0.000759959 3.05635e-06
0.000759959 -0.00046763 1.96479e-07
3.05635e-06 1.96479e-07 -0.000545125
0.000604409 0.000510779 2.59642e-06
0.000510779 5.27901e-05 -5.11225e-05
2.59642e-06 -5.11225e-05 -0.000156014
0.00513971 0.00170955 1.9585e-05
0.00170955 -0.00140481 2.60351e-05
1.9585e-05 2.60351e-05 1.2744e-05
0.0137109 0.00291023 0.000275962
0.00291023 0.000979925 0.000148453
0.000275962 0.000148453 -0.000588545
0.0114742 -0.00417118 0.000510636
-0.00417118 0.00548179 -4.04687e-05
0.000510636 -4.04687e-05 0.00232183
0.00572768 0.00474734 0.000543997
0.00474734 -0.000966543 0.000313733
0.000543997 0.000313733 -0.00508359
0.000242232 0.0012816 -5.85874e-05
0.0012816 0.000187857 -1.50489e-06
-5.85874e-05 -1.50489e-06 0.000810377
0.00396136 0.00249564 -0.000110006
0.00249564 -0.000568223 -5.38394e-05
-0.000110006 -5.38394e-05 0.000163565
0.00601895 0.00213424 7.39491e-05
0.00213424 0.00116667 3.08064e-05
7.39491e-05 3.08064e-05 0.000908597
0.00426074 0.00154684 1.90751e-05
0.00154684 0.00129008 8.85586e-06
1.90751e-05 8.85586e-06 0.000967845
-0.000184565 0.00067135 -2.94797e-05
0.00067135 -0.000482027 1.13221e-05
-2.94797e-05 1.13221e-05 -0.000723488
0.00673149 0.00242201 -0.000180353
0.00242201 0.00168034 -1.82668e-05
-0.000180353 -1.82668e-05 0.00111884
0.00302065 -0.000507773 1.70314e-05
-0.000507773 -0.000549854 1.33903e-05
1.70314e-05 1.33903e-05 9.75622e-05
0.0114102 -0.000548656 -4.54831e-05
-0.000548656 0.00124381 -9.23443e-06
-4.54831e-05 -9.23443e-06 0.00118897
-0.0125919 -0.00265942 0.000756546
-0.00265942 -0.00532476 2.46199e-06
0.000756546 2.46199e-06 -0.00619746
0.000717319 -0.00117519 -0.000109619
-0.00117519 -0.00053236 3.25874e-05
-0.000109619 3.25874e-05 -0.000792614
0.00889961 -0.00254789 -2.31434e-06
-0.00254789 -5.99499e-05 9.30209e-05
-2.31434e-06 9.30209e-05 0.000963873
0.00104102 -0.000281725 -0.000279376
-0.000281725 -0.00475701 3.39931e-05
-0.000279376 3.39931e-05 -0.00648233
0.00276975 -0.0010061 3.38163e-05
-0.0010061 -0.000104107 8.46109e-07
3.38163e-05 8.46109e-07 -2.03908e-05
0.00503595 -0.000707372 -4.64067e-05
-0.000707372 -0.000485663 -2.37035e-06
-4.64067e-05 -2.37035e-06 0.000288851
0.00572382 -0.000867813 4.34042e-05
-0.000867813 0.00127343 -3.27911e-05
4.34042e-05 -3.27911e-05 0.001609
0.005637 -0.000444172 0.000106457
-0.000444172 0.00136924 2.44484e-06
0.000106457 2.44484e-06 0.00154813
-0.00335628 -0.000331853 8.83258e-06
-0.000331853 -0.0029957 1.12909e-05
8.83258e-06 1.12909e-05 -0.00273653
0.00203979 -0.000646237 -6.6478e-06
-0.000646237 -0.00022883 1.54177e-06
-6.6478e-06 1.54177e-06 -6.88664e-05
0.00235803 -0.000494723 2.51455e-05
-0.000494723 -0.000200954 -6.11903e-06
2.51455e-05 -6.11903e-06 6.34156e-05
0.00171518 -0.000731838 2.18062e-07
-0.000731838 -0.000219165 6.43502e-06
2.18062e-07 6.43502e-06 -0.000419326
0.00233496 -0.000623052 1.42057e-06
-0.000623052 -3.3931e-05 1.4356e-06
1.42057e-06 1.4356e-06 -6.81786e-05
0.00236587 -0.000544787 2.12819e-06
-0.000544787 1.56951e-05 -7.29283e-07
2.12819e-06 -7.29283e-07 2.10725e-05
0.00214201 -0.00055866 2.21539e-06
-0.00055866 3.72062e-05 5.6467e-06
2.21539e-06 5.6467e-06 -8.75294e-05
0.00220725 -0.000541091 3.41458e-07
-0.000541091 6.94855e-05 4.30493e-07
3.41458e-07 4.30493e-07 -2.54719e-06
0.00219895 -0.000483643 -2.15242e-06
-0.000483643 5.32162e-05 1.59563e-07
-2.15242e-06 1.59563e-07 -1.01861e-05
0.00203749 -0.000494034 3.64609e-06
-0.000494034 6.56197e-05 1.79583e-06
3.64609e-06 1.79583e-06 -7.13125e-05
0.00213217 -0.000519906 -1.69997e-07
-0.000519906 0.000137344 6.07441e-08
-1.69997e-07 6.07441e-08 7.15443e-06
0.00204085 -0.000467943 -8.6167e-08
-0.000467943 0.000121131 3.02421e-07
-8.6167e-08 3.02421e-07 -1.19947e-05
0.00204954 -0.000477998 -4.48137e-07
-0.000477998 0.000156407 2.07241e-06
-4.48137e-07 2.07241e-06 3.34518e-06
0.00209686 -0.000461573 -1.7919e-06
-0.000461573 0.000232208 3.34892e-07
-1.7919e-06 3.34892e-07 7.24983e-05
0.00215286 -0.000466207 -1.63295e-06
-0.000466207 0.000274873 -1.01663e-06
-1.63295e-06 -1.01663e-06 9.76211e-05
0.00203965 -0.000462852 4.81309e-06
-0.000462852 0.00020725 2.96791e-06
4.81309e-06 2.96791e-06 2.04705e-05
0.00200305 -0.000485206 -2.51297e-07
-0.000485206 0.000189304 -1.79588e-07
-2.51297e-07 -1.79588e-07 -1.99525e-05
0.00204158 -0.000478132 -1.275e-06
-0.000478132 0.000263716 -2.75875e-06
-1.275e-06 -2.75875e-06 3.40546e-05
0.00171545 -0.000464713 -9.04604e-06
-0.000464713 0.000214487 -4.34784e-07
-9.04604e-06 -4.34784e-07 -6.73951e-05
0.00197318 -0.000536649 -7.60502e-07
-0.000536649 0.00026034 -1.09884e-06
-7.60502e-07 -1.09884e-06 -2.21155e-05
0.00213719 -0.000571864 5.67182e-06
-0.000571864 0.000294121 2.60222e-06
5.67182e-06 2.60222e-06 2.08832e-05
0.000899691 -0.000269895 -1.47291e-05
-0.000269895 -7.82905e-06 7.16793e-06
-1.47291e-05 7.16793e-06 -0.000230848
0.00159935 -0.00049661 -1.57366e-07
-0.00049661 0.00025399 7.03804e-07
-1.57366e-07 7.03804e-07 -6.56129e-05
0.0017553 -0.00060216 3.55516e-06
-0.00060216 0.000239277 1.95601e-06
3.55516e-06 1.95601e-06 -0.000108917
0.000269659 -0.000185778 -1.95055e-05
-0.000185778 -0.000214801 1.94258e-05
-1.95055e-05 1.94258e-05 -0.000341347
0.000799643 -0.000252734 7.52877e-07
-0.000252734 2.3218e-05 3.29641e-07
7.52877e-07 3.29641e-07 -0.000200004
0.00119056 -0.000441676 1.07037e-05
-0.000441676 0.000139325 -1.79456e-06
1.07037e-05 -1.79456e-06 -0.000176933
0.00611577 0.000104901 -0.000213563
0.000104901 0.00353509 1.32352e-05
-0.000213563 1.32352e-05 0.00353212
0.00038445 -0.000187652 -1.02685e-06
-0.000187652 -0.000124728 -4.60701e-08
-1.02685e-06 -4.60701e-08 -0.000242631
0.000632025 -0.000224833 9.82029e-06
-0.000224833 -3.87052e-06 -5.60969e-06
9.82029e-06 -5.60969e-06 -0.000224915
0.00549065 0.000124999 -2.79778e-06
0.000124999 0.00316432 -1.35002e-06
-2.79778e-06 -1.35002e-06 0.003156
0.000422355 -0.000142042 1.91045e-05
-0.000142042 -7.98334e-05 -1.70445e-05
1.91045e-05 -1.70445e-05 -0.00018567
0.00482074 0.000114776 0.00017235
0.000114776 0.00274763 -1.50764e-05
0.00017235 -1.50764e-05 0.00274317
0.00155046 0.000570142 -4.26109e-06
0.000570142 0.000367926 2.71647e-06
-4.26109e-06 2.71647e-06 -5.75946e-06
0.00173383 0.000518837 -1.16706e-06
0.000518837 0.000607563 -1.48208e-06
-1.16706e-06 -1.48208e-06 0.000253805
0.000734606 0.000300858 -1.76055e-06
0.000300858 4.68914e-07 -3.17182e-06
-1.76055e-06 -3.17182e-06 -0.000261884
0.000865756 0.00028578 -8.21527e-06
0.00028578 0.000177704 -3.52446e-06
-8.21527e-06 -3.52446e-06 -4.90365e-05
8.74581e-05 0.000153473 2.13659e-06
0.000153473 -0.000269535 -3.36252e-07
2.13659e-06 -3.36252e-07 -0.000480025
0.00114991 0.000261845 -1.88213e-06
0.000261845 0.000427284 -5.90591e-06
-1.88213e-06 -5.90591e-06 0.000198984
-6.9311e-05 6.02792e-05 -1.10184e-06
6.02792e-05 -0.000324842 3.28351e-06
-1.10184e-06 3.28351e-06 -0.000525959
0.000690705 0.000120534 6.87787e-07
0.000120534 0.000144728 -2.6044e-07
6.87787e-07 -2.6044e-07 -3.69446e-05
0.000761411 6.69524e-05 -1.365e-05
6.69524e-05 0.000150773 -1.69258e-05
-1.365e-05 -1.69258e-05 7.74207e-05
0.000450722 5.5189e-05 -2.90767e-06
5.5189e-05 3.11884e-07 9.79997e-06
-2.90767e-06 9.79997e-06 -0.000145944
0.000527324 4.27669e-05 4.19291e-07
4.27669e-05 1.90439e-05 -3.43886e-07
4.19291e-07 -3.43886e-07 -3.83308e-05
0.00378959 -0.000126713 -0.00011038
-0.000126713 0.00209312 -8.43861e-06
-0.00011038 -8.43861e-06 0.00209037
0.00320524 -0.000126088 -1.00588e-05
-0.000126088 0.00171624 9.04586e-07
-1.00588e-05 9.04586e-07 0.00171422
0.000345315 3.74425e-05 5.18522e-06
3.74425e-05 -9.13787e-05 1.16551e-05
5.18522e-06 1.16551e-05 -0.000137196
0.0028161 -0.000105929 4.51779e-05
-0.000105929 0.00146051 4.84939e-06
4.51779e-05 4.84939e-06 0.00146314
0.00401031 0.000159928 8.95744e-05
0.000159928 -0.00121536 2.74037e-05
8.95744e-05 2.74037e-05 0.000221848
0.00510702 -0.000930386 0.000171297
-0.000930386 -0.00429382 8.00832e-05
0.000171297 8.00832e-05 -0.00521786
0.0124793 -0.00304777 -0.000220718
-0.00304777 0.00497194 -9.83742e-05
-0.000220718 -9.83742e-05 0.00377953
0.00141341 0.000614427 8.26591e-06
0.000614427 4.4639e-05 8.89457e-06
8.26591e-06 8.89457e-06 -0.000298577
0.00455873 0.000818849 -1.17818e-05
0.000818849 0.00248502 1.59198e-06
-1.17818e-05 1.59198e-06 0.00202461
0.000739269 0.000494277 -7.43982e-06
0.000494277 1.86273e-05 -5.77747e-06
-7.43982e-06 -5.77747e-06 -0.00037805
0.00143952 0.000672222 1.91374e-06
0.000672222 0.000403389 -1.5637e-06
1.91374e-06 -1.5637e-06 1.2656e-05
0.0016272 0.000655345 -1.63866e-06
0.000655345 0.000389165 3.82195e-06
-1.63866e-06 3.82195e-06 -2.59751e-05
0.00166615 0.000742196 2.46979e-05
0.000742196 0.000345893 1.38481e-05
2.46979e-05 1.38481e-05 -1.57795e-05
0.00246827 0.000823164 -3.91813e-05
0.000823164 0.000971488 -1.03361e-06
-3.91813e-05 -1.03361e-06 0.000564844
0.000692337 0.000627349 1.90155e-05
0.000627349 -1.68502e-05 -3.47717e-05
1.90155e-05 -3.47717e-05 -0.000291832
0.00183188 0.000822158 1.21004e-06
0.000822158 0.000401832 -2.3012e-06
1.21004e-06 -2.3012e-06 9.92475e-05
0.00207423 0.000865144 8.75359e-06
0.000865144 0.000268027 -1.74586e-07
8.75359e-06 -1.74586e-07 0.000214335
0.00208195 0.000881984 1.47565e-05
0.000881984 0.000256078 -2.56589e-06
1.47565e-05 -2.56589e-06 -4.87961e-05
0.00181862 0.00076453 2.33132e-05
0.00076453 0.00020664 1.99584e-05
2.33132e-05 1.99584e-05 1.43713e-05
0.000878462 0.000816326 -5.64555e-06
0.000816326 -0.000241729 -5.88059e-06
-5.64555e-06 -5.88059e-06 -0.000508915
0.000515169 0.000745573 -1.60007e-05
0.000745573 -0.000492563 -2.53701e-05
-1.60007e-05 -2.53701e-05 -0.000554726
0.0011552 0.00075535 5.17731e-05
0.00075535 -0.00112243 3.6174e-05
5.17731e-05 3.6174e-05 -0.000783653
0.00612082 0.00176749 -9.14391e-05
0.00176749 -0.00116487 -2.72638e-05
-9.14391e-05 -2.72638e-05 0.000212814
0.00416888 0.00192988 0.000548997
0.00192988 -0.00436328 0.000112082
0.000548997 0.000112082 -0.00609262
0.00193966 0.00195593 -0.0001621
0.00195593 -0.000843234 -6.28333e-05
-0.0001621 -6.28333e-05 -0.000160748
0.00453966 0.00174075 -3.05583e-05
0.00174075 0.0008082 -9.26756e-06
-3.05583e-05 -9.26756e-06 0.000634626
0.0050251 0.00164745 -0.000146585
0.00164745 0.00159663 -3.48411e-05
-0.000146585 -3.48411e-05 0.00125446
0.00236727 -0.000245536 -6.24533e-05
-0.000245536 -0.000735676 -2.07671e-05
-6.24533e-05 -2.07671e-05 -0.000385103
-0.00047747 -0.000284802 8.34495e-05
-0.000284802 -0.00115739 1.78048e-05
8.34495e-05 1.78048e-05 -0.000315508
0.00313874 0.000820633 0.000211308
0.000820633 -0.00500583 -1.67416e-05
0.000211308 -1.67416e-05 -0.00520963
0.000350966 -0.000758546 -4.81556e-05
-0.000758546 -0.00133155 7.37146e-05
-4.81556e-05 7.37146e-05 -0.00105857
0.00667996 -0.00078864 -0.000162587
-0.00078864 0.000467795 4.6134e-05
-0.000162587 4.6134e-05 0.000777243
0.0025235 -0.000635663 -1.79157e-05
-0.000635663 -0.000447839 1.18961e-05
-1.79157e-05 1.18961e-05 -4.57273e-05
0.00430731 -0.00045237 -7.64468e-06
-0.00045237 0.000587176 -3.10268e-06
-7.64468e-06 -3.10268e-06 0.000729891
0.00272313 -0.000367727 6.2029e-05
-0.000367727 -9.62511e-05 -7.57591e-06
6.2029e-05 -7.57591e-06 0.000249079
0.00372931 -0.00010795 4.73865e-05
-0.00010795 0.0011145 1.15773e-06
4.73865e-05 1.15773e-06 0.00112123
0.000474493 -0.000522463 -2.38624e-05
-0.000522463 -0.00111286 1.28753e-05
-2.38624e-05 1.28753e-05 -0.000853538
0.00214424 -0.000509411 -2.43636e-06
-0.000509411 -0.000356479 1.86897e-06
-2.43636e-06 1.86897e-06 -9.495e-05
0.00241027 -0.000435224 5.08046e-06
-0.000435224 -0.00018004 -1.59587e-06
5.08046e-06 -1.59587e-06 3.35075e-05
0.00226298 -0.000613215 -2.43693e-06
-0.000613215 -6.28556e-05 4.05099e-06
-2.43693e-06 4.05099e-06 -9.55283e-05
0.00234848 -0.000534024 4.24533e-08
-0.000534024 2.21524e-05 -3.06465e-07
4.24533e-08 -3.06465e-07 3.16277e-05
0.00227049 -0.000424321 -4.60417e-07
-0.000424321 -1.34362e-05 -3.49307e-07
-4.60417e-07 -3.49307e-07 -2.08333e-06
0.00214722 -0.000530518 -1.64359e-07
-0.000530518 4.84752e-05 1.09509e-06
-1.64359e-07 1.09509e-06 -2.42957e-05
0.00219106 -0.000489147 -8.97244e-07
-0.000489147 5.88652e-05 9.06223e-08
-8.97244e-07 9.06223e-08 -5.58827e-06
0.00210161 -0.000416493 -1.56996e-06
-0.000416493 7.59055e-05 9.18647e-07
-1.56996e-06 9.18647e-07 -6.8078e-06
0.00206849 -0.000511502 7.51184e-07
-0.000511502 0.000120888 -9.14514e-07
7.51184e-07 -9.14514e-07 -8.42021e-06
0.00202609 -0.000468019 1.03255e-06
-0.000468019 0.000108543 -5.5137e-07
1.03255e-06 -5.5137e-07 -2.51137e-05
0.00200775 -0.0004331 -4.71105e-07
-0.0004331 0.000133509 -6.07164e-07
-4.71105e-07 -6.07164e-07 -1.55156e-05
0.00203308 -0.000452284 -1.45875e-06
-0.000452284 0.000187688 2.05548e-06
-1.45875e-06 2.05548e-06 3.1537e-05
0.00213905 -0.000463297 -1.81681e-06
-0.000463297 0.000259608 6.80942e-07
-1.81681e-06 6.80942e-07 8.60801e-05
0.0021463 -0.000455278 -8.86184e-07
-0.000455278 0.000290204 -2.12292e-06
-8.86184e-07 -2.12292e-06 9.22366e-05
0.00205144 -0.000489448 2.96123e-06
-0.000489448 0.000218759 2.91775e-06
2.96123e-06 2.91775e-06 8.33598e-06
0.00205338 -0.000480882 4.23998e-07
-0.000480882 0.000271174 -4.49415e-07
4.23998e-07 -4.49415e-07 4.17192e-05
0.00180882 -0.000416095 -6.32636e-06
-0.000416095 0.00022885 2.16198e-07
-6.32636e-06 2.16198e-07 -1.71786e-05
0.00105884 -0.000278822 -1.74649e-05
-0.000278822 2.11668e-05 7.90572e-06
-1.74649e-05 7.90572e-06 -0.000198844
0.00168282 -0.000459829 -1.10719e-06
-0.000459829 0.0002024 -3.95953e-07
-1.10719e-06 -3.95953e-07 -8.09263e-05
0.00190276 -0.000536616 3.34296e-06
-0.000536616 0.000215496 1.44941e-06
3.34296e-06 1.44941e-06 -7.24878e-05
0.000416706 -0.000232912 -2.27741e-05
-0.000232912 -0.000134078 1.8903e-05
-2.27741e-05 1.8903e-05 -0.000276702
0.000882542 -0.000273238 1.09731e-06
-0.000273238 -2.73824e-05 -1.86362e-07
1.09731e-06 -1.86362e-07 -0.000252484
0.00162645 -0.000494075 9.27843e-06
-0.000494075 0.000275547 -5.45519e-07
9.27843e-06 -5.45519e-07 -4.14795e-05
0.00675633 5.94901e-05 -0.000256958
5.94901e-05 0.00391275 1.76564e-05
-0.000256958 1.76564e-05 0.00391597
0.000459003 -0.000239446 -1.31797e-06
-0.000239446 -9.04687e-05 7.12474e-07
-1.31797e-06 7.12474e-07 -0.000227584
0.000762096 -0.000260539 1.29064e-05
-0.000260539 -3.33457e-06 -6.50697e-06
1.29064e-05 -6.50697e-06 -0.000231058
0.00630549 8.73879e-05 -5.2382e-06
8.73879e-05 0.00365648 -3.41086e-07
-5.2382e-06 -3.41086e-07 0.00365256
0.000576958 -0.000228939 2.57994e-05
-0.000228939 -5.86377e-06 -1.93806e-05
2.57994e-05 -1.93806e-05 -0.000126875
0.00577698 0.00013694 0.000202356
0.00013694 0.00336319 -2.38837e-05
0.000202356 -2.38837e-05 0.00334442
0.0015641 0.00056666 -1.50862e-08
0.00056666 0.000199003 5.25396e-06
-1.50862e-08 5.25396e-06 -0.000144888
0.0016928 0.000592078 -2.09545e-06
0.000592078 0.00044646 2.56185e-07
-2.09545e-06 2.56185e-07 6.51012e-05
0.00123373 0.000418261 -7.72802e-06
0.000418261 0.000193392 -7.55734e-07
-7.72802e-06 -7.55734e-07 -0.00010481
0.0016068 0.000504637 -2.44484e-07
0.000504637 0.000506763 3.57562e-07
-2.44484e-07 3.57562e-07 0.000162182
0.000944639 0.000307632 -3.51809e-06
0.000307632 0.000133102 -2.13182e-06
-3.51809e-06 -2.13182e-06 -0.000126167
0.00130649 0.000257417 -8.33577e-06
0.000257417 0.000454819 -2.18026e-06
-8.33577e-06 -2.18026e-06 0.000225491
-0.000252845 0.00010889 -3.59965e-06
0.00010889 -0.000496036 -2.15796e-06
-3.59965e-06 -2.15796e-06 -0.000698923
0.000830701 0.000158726 -9.60293e-07
0.000158726 0.000211843 -7.18464e-07
-9.60293e-07 -7.18464e-07 -1.29056e-06
0.000578682 0.000110871 -2.12342e-05
0.000110871 1.62572e-05 -1.77689e-05
-2.12342e-05 -1.77689e-05 -7.12079e-05
0.000342304 8.80447e-05 4.24067e-07
8.80447e-05 -8.18749e-05 9.46725e-06
4.24067e-07 9.46725e-06 -0.000250207
0.000414043 6.07917e-05 -5.84023e-07
6.07917e-05 -5.99634e-05 -3.46376e-07
-5.84023e-07 -3.46376e-07 -0.000129465
0.00437549 -0.000149571 -0.000131276
-0.000149571 0.00247607 -1.14409e-05
-0.000131276 -1.14409e-05 0.00246459
0.000232849 4.63657e-05 7.33488e-06
4.63657e-05 -0.000159332 1.46895e-05
7.33488e-06 1.46895e-05 -0.000215929
0.00366689 -0.000146369 -1.03766e-05
-0.000146369 0.00202012 1.04383e-06
-1.03766e-05 1.04383e-06 0.00201211
0.00308022 -0.000130592 5.35383e-05
-0.000130592 0.00163805 5.07333e-06
5.35383e-05 5.07333e-06 0.00163422
0.000473539 0.000146609 -1.60569e-06
0.000146609 -0.00181753 1.00208e-05
-1.60569e-06 1.00208e-05 -0.0011394
0.00511095 3.91716e-05 6.61723e-05
3.91716e-05 -0.000627116 1.75709e-05
6.61723e-05 1.75709e-05 0.000685613
0.0140819 0.000822563 -2.47702e-05
0.000822563 0.0022817 1.16253e-05
-2.47702e-05 1.16253e-05 0.00200914
0.0019274 0.000735331 1.34411e-06
0.000735331 0.000324582 5.24144e-06
1.34411e-06 5.24144e-06 -1.47441e-05
0.00215961 0.000712432 -1.82024e-07
0.000712432 0.000300479 3.64731e-06
-1.82024e-07 3.64731e-06 -6.00949e-06
0.00150883 0.000628253 -3.7209e-07
0.000628253 0.000114334 -3.53892e-06
-3.7209e-07 -3.53892e-06 -0.000228259
0.00286053 0.000844975 -1.19847e-05
0.000844975 0.00124182 3.69428e-06
-1.19847e-05 3.69428e-06 0.000817349
0.00190806 0.000685411 -7.16103e-06
0.000685411 0.000583449 -9.9522e-06
-7.16103e-06 -9.9522e-06 0.000154871
0.00198359 0.000793699 7.45043e-06
0.000793699 0.000492143 3.13957e-06
7.45043e-06 3.13957e-06 0.000130435
0.00189695 0.000799866 -1.23067e-06
0.000799866 0.000101567 -3.62838e-06
-1.23067e-06 -3.62838e-06 -0.000197822
0.00257694 0.000926225 -1.97501e-05
0.000926225 0.00077971 5.51857e-06
-1.97501e-05 5.51857e-06 0.000461095
0.00106578 0.000763506 -1.05265e-05
0.000763506 -0.000375544 1.11773e-05
-1.05265e-05 1.11773e-05 -0.000312049
0.00270967 0.000949119 6.52842e-07
0.000949119 0.000621893 3.77324e-06
6.52842e-07 3.77324e-06 0.000302777
0.00264683 0.000816554 -4.06833e-06
0.000816554 0.00039768 3.03961e-06
-4.06833e-06 3.03961e-06 0.000164871
0.00127709 0.00040249 3.67383e-05
0.00040249 -0.00028546 1.80767e-05
3.67383e-05 1.80767e-05 -0.000235135
0.00043093 0.000637258 9.28927e-06
0.000637258 -0.000520037 -3.83657e-06
9.28927e-06 -3.83657e-06 -0.000696851
0.000968746 0.00082386 -3.5455e-05
0.00082386 -0.000193034 -4.51507e-06
-3.5455e-05 -4.51507e-06 -0.000464299
0.00295467 0.000897831 5.21781e-06
0.000897831 -0.000150791 7.93797e-06
5.21781e-06 7.93797e-06 5.64363e-05
0.00695447 0.00137025 -2.31923e-05
0.00137025 -0.000726067 -4.06059e-05
-2.31923e-05 -4.06059e-05 0.000293982
0.00422189 0.00145501 -4.21933e-05
0.00145501 0.00104041 -5.32679e-05
-4.21933e-05 -5.32679e-05 0.000940553
0.00175342 -7.81765e-05 3.43619e-05
-7.81765e-05 -0.000233327 3.03076e-06
3.43619e-05 3.03076e-06 -7.38561e-05
0.00275253 -0.000234957 -5.61001e-05
-0.000234957 -0.000441047 3.41582e-06
-5.61001e-05 3.41582e-06 -8.14198e-05
0.00367971 0.000361656 2.05581e-05
0.000361656 -0.000314704 -1.53935e-05
2.05581e-05 -1.53935e-05 0.000274807
0.000979268 -0.000543695 -6.9027e-05
-0.000543695 -0.00123591 5.09301e-05
-6.9027e-05 5.09301e-05 -0.00082879
0.0027734 -0.00050461 -9.93676e-05
-0.00050461 -0.000290539 -3.14387e-06
-9.93676e-05 -3.14387e-06 -0.000190187
0.00265355 -0.000369392 8.53746e-06
-0.000369392 -4.51851e-05 -3.47591e-06
8.53746e-06 -3.47591e-06 0.00029312
0.00250304 -0.000102723 -1.54576e-05
-0.000102723 0.000306715 7.02381e-07
-1.54576e-05 7.02381e-07 0.000334656
0.00242166 -0.000242356 1.46963e-05
-0.000242356 -3.48433e-05 -2.36842e-07
1.46963e-05 -2.36842e-07 0.000100086
0.00236976 2.96792e-06 1.09015e-05
2.96792e-06 -2.66852e-05 2.69688e-06
1.09015e-05 2.69688e-06 2.96796e-05
0.00203845 -0.000532528 -1.75633e-05
-0.000532528 -0.000452756 5.43379e-06
-1.75633e-05 5.43379e-06 -0.000199216
0.00242655 -0.000449585 -2.68217e-06
-0.000449585 -0.000165245 6.31724e-07
-2.68217e-06 6.31724e-07 1.21199e-05
0.00234568 -0.000312895 6.43001e-07
-0.000312895 -8.68833e-05 -1.2342e-06
6.43001e-07 -1.2342e-06 3.31181e-06
0.00232777 -0.000524321 -3.92584e-06
-0.000524321 2.38825e-05 1.1374e-06
-3.92584e-06 1.1374e-06 3.6647e-05
0.0022732 -0.000421289 -8.71988e-08
-0.000421289 1.17395e-06 -1.21785e-07
-8.71988e-08 -1.21785e-07 7.74228e-06
0.00217349 -0.00035061 -6.37178e-07
-0.00035061 1.45466e-05 3.8934e-07
-6.37178e-07 3.8934e-07 -4.15198e-06
0.00218578 -0.000494977 -3.52167e-07
-0.000494977 6.55572e-05 -6.8679e-07
-3.52167e-07 -6.8679e-07 -2.27972e-07
0.00210064 -0.000415686 5.21377e-07
-0.000415686 7.13418e-05 -1.47566e-07
5.21377e-07 -1.47566e-07 -1.11809e-05
0.00206295 -0.000380796 -1.94812e-06
-0.000380796 0.000106118 6.27837e-07
-1.94812e-06 6.27837e-07 -3.12939e-06
0.00201289 -0.000468119 2.17807e-06
-0.000468119 9.70031e-05 -1.28615e-06
2.17807e-06 -1.28615e-06 -3.7175e-05
0.00200276 -0.000432347 5.73763e-07
-0.000432347 0.000126793 -5.34282e-07
5.73763e-07 -5.34282e-07 -2.25057e-05
0.00200738 -0.000407414 -6.80807e-07
-0.000407414 0.000161779 -1.49883e-06
-6.80807e-07 -1.49883e-06 -6.98583e-06
0.00212265 -0.000460264 -9.53709e-07
-0.000460264 0.000242531 2.74869e-06
-9.53709e-07 2.74869e-06 7.27455e-05
0.00211014 -0.000453738 -5.51427e-07
-0.000453738 0.000269217 -1.98862e-07
-5.51427e-07 -1.98862e-07 7.21639e-05
0.00178696 -0.000382781 -4.3442e-06
-0.000382781 0.000170715 1.29412e-07
-4.3442e-06 1.29412e-07 -5.1073e-05
0.00206998 -0.00048394 2.74771e-06
-0.00048394 0.000281689 2.26724e-06
2.74771e-06 2.26724e-06 5.23922e-05
0.00185633 -0.000421426 -8.10781e-07
-0.000421426 0.000258556 3.63594e-09
-8.10781e-07 3.63594e-09 1.31689e-05
0.00107394 -0.000255281 -1.71195e-05
-0.000255281 -3.71252e-06 7.25986e-06
-1.71195e-05 7.25986e-06 -0.000211874
0.000331391 -0.000200759 -1.99031e-05
-0.000200759 -0.000206619 1.72345e-05
-1.99031e-05 1.72345e-05 -0.000341075
0.00102057 -0.000277691 8.36175e-07
-0.000277691 -4.9958e-06 4.18822e-08
8.36175e-07 4.18822e-08 -0.000225473
0.00167487 -0.000456999 6.74777e-06
-0.000456999 0.000205663 -7.10149e-07
6.74777e-06 -7.10149e-07 -7.944e-05
0.00711225 -2.35053e-05 -0.000293845
-2.35053e-05 0.00411033 2.15669e-05
-0.000293845 2.15669e-05 0.00412222
0.000365636 -0.000226099 -9.795e-07
-0.000226099 -0.000174354 1.28451e-06
-9.795e-07 1.28451e-06 -0.000311459
0.000896707 -0.000276701 1.4067e-05
-0.000276701 -2.66275e-05 -6.42257e-06
1.4067e-05 -6.42257e-06 -0.000253788
0.00694812 3.03532e-05 -9.97786e-07
3.03532e-05 0.0040303 5.3315e-07
-9.97786e-07 5.3315e-07 0.00403453
0.00048136 -0.000240511 2.45277e-05
-0.000240511 -8.2216e-05 -1.98144e-05
2.45277e-05 -1.98144e-05 -0.00021922
0.00661952 5.44358e-05 0.000259879
5.44358e-05 0.00384444 -2.33864e-05
0.000259879 -2.33864e-05 0.00384442
0.00183072 0.000625042 -1.75759e-07
0.000625042 0.000216406 5.68486e-06
-1.75759e-07 5.68486e-06 -0.000101298
0.0016124 0.000577541 -1.75056e-08
0.000577541 0.000232187 8.48352e-07
-1.75056e-08 8.48352e-07 -0.000112146
0.00148042 0.000469783 -8.27213e-06
0.000469783 0.000241426 8.27813e-08
-8.27213e-06 8.27813e-08 -6.50674e-05
0.00152742 0.000578502 5.32967e-07
0.000578502 0.000337113 -1.78832e-06
5.32967e-07 -1.78832e-06 -4.3466e-05
0.00125906 0.000414419 -1.62483e-06
0.000414419 0.000216527 -4.286e-08
-1.62483e-06 -4.286e-08 -7.91255e-05
0.000979397 0.000240768 -1.15804e-05
0.000240768 0.000163233 -4.49429e-06
-1.15804e-05 -4.49429e-06 -5.09233e-05
0.00122414 0.000322011 8.16595e-07
0.000322011 0.000313026 -1.48973e-06
8.16595e-07 -1.48973e-06 5.44922e-05
0.000584742 0.000204604 5.75679e-07
0.000204604 6.71448e-06 1.70457e-06
5.75679e-07 1.70457e-06 -0.000216555
0.000425464 0.000183652 -2.72468e-05
0.000183652 -9.49417e-05 -1.84684e-05
-2.72468e-05 -1.84684e-05 -0.000199783
0.000107756 9.89404e-05 4.56364e-07
9.89404e-05 -0.000227898 4.83631e-06
4.56364e-07 4.83631e-06 -0.000443093
0.000552401 9.59697e-05 -1.09578e-06
9.59697e-05 4.68873e-06 -4.46199e-07
-1.09578e-06 -4.46199e-07 -8.04937e-05
0.00532161 -0.000163839 -0.000174497
-0.000163839 0.00308464 -1.62077e-05
-0.000174497 -1.62077e-05 0.00306533
0.000363848 5.95438e-05 1.14987e-05
5.95438e-05 -8.69755e-05 1.75196e-05
1.14987e-05 1.75196e-05 -0.000154927
0.00425394 -0.000171269 -1.00107e-05
-0.000171269 0.00240489 1.16723e-06
-1.00107e-05 1.16723e-06 0.00238836
0.00352929 -0.000156851 7.28819e-05
-0.000156851 0.00193587 5.97766e-06
7.28819e-05 5.97766e-06 0.00192443
0.0014133 0.000163893 2.9845e-05
0.000163893 -0.00035441 1.90589e-05
2.9845e-05 1.90589e-05 -0.000135603
0.0026886 0.000194524 -1.78679e-05
0.000194524 -0.00091958 -2.60411e-06
-1.78679e-05 -2.60411e-06 -0.000186052
0.00412081 0.000282136 0.000214547
0.000282136 -0.00165555 6.36604e-05
0.000214547 6.36604e-05 0.000147021
0.00264126 0.000771003 -7.87002e-06
0.000771003 0.000545085 4.97545e-08
-7.87002e-06 4.97545e-08 0.00024981
0.00174072 0.000737211 -6.15137e-06
0.000737211 0.000196266 -4.65999e-06
-6.15137e-06 -4.65999e-06 -0.000138286
0.00216656 0.000576132 8.63475e-07
0.000576132 0.000175684 4.50916e-06
8.63475e-07 4.50916e-06 -4.90566e-05
0.00214683 0.000701228 1.34351e-06
0.000701228 0.000294556 4.37451e-07
1.34351e-06 4.37451e-07 -8.81223e-06
0.00153734 0.000635074 1.22535e-06
0.000635074 0.000141778 -1.12705e-05
1.22535e-06 -1.12705e-05 -0.000198687
0.00206345 0.000623002 -2.25324e-06
0.000623002 2.37351e-05 8.455e-07
-2.25324e-06 8.455e-07 -0.000179573
0.00275997 0.000900179 -1.01572e-05
0.000900179 0.000909038 -3.71215e-06
-1.01572e-05 -3.71215e-06 0.000533922
0.00239416 0.000832751 3.41613e-07
0.000832751 0.000399635 2.42166e-08
3.41613e-07 2.42166e-08 8.88205e-05
0.00207472 0.000424999 -1.24047e-05
0.000424999 -0.00013857 -7.65125e-07
-1.24047e-05 -7.65125e-07 -0.000146882
0.00347234 0.00104175 -5.52282e-06
0.00104175 0.00104444 6.27375e-06
-5.52282e-06 6.27375e-06 0.000711927
0.00248363 0.000804563 3.74919e-07
0.000804563 0.000304564 -4.80458e-07
3.74919e-07 -4.80458e-07 6.95959e-05
0.000678368 0.000388132 1.15611e-07
0.000388132 -0.000606555 1.6811e-06
1.15611e-07 1.6811e-06 -0.000549438
-0.00115652 0.000493447 -2.45776e-05
0.000493447 -0.0013443 -9.23547e-06
-2.45776e-05 -9.23547e-06 -0.0014941
0.00382515 0.001015 -0.000123385
0.001015 0.000285325 -4.02943e-05
-0.000123385 -4.02943e-05 0.000383214
0.00213444 9.57376e-05 -1.03013e-06
9.57376e-05 -0.000195769 -1.95717e-07
-1.03013e-06 -1.95717e-07 -0.000100612
0.00264673 -8.06612e-05 8.05742e-06
-8.06612e-05 0.000405303 -6.28662e-07
8.05742e-06 -6.28662e-07 0.000512802
0.00278777 -0.000251478 -9.36501e-05
-0.000251478 -0.000371838 6.2815e-06
-9.36501e-05 6.2815e-06 -5.55623e-06
0.00213999 -0.000359846 -7.2098e-05
-0.000359846 -0.000262835 6.5327e-06
-7.2098e-05 6.5327e-06 6.76941e-05
0.0013229 -0.000111117 -1.44668e-05
-0.000111117 -0.000467302 1.14144e-06
-1.44668e-05 1.14144e-06 -0.000419478
0.00242556 -0.000245947 1.38143e-06
-0.000245947 -5.13912e-05 -1.81715e-06
1.38143e-06 -1.81715e-06 0.000106513
0.002398 5.38096e-06 -3.09492e-06
5.38096e-06 -3.92678e-05 1.0572e-06
-3.09492e-06 1.0572e-06 2.20752e-05
0.00238348 -7.70641e-05 1.06718e-06
-7.70641e-05 -7.11133e-05 -7.27609e-07
1.06718e-06 -7.27609e-07 2.14217e-05
0.00244549 -0.000460801 -6.47475e-06
-0.000460801 -0.000141953 1.22602e-06
-6.47475e-06 1.22602e-06 -1.04543e-06
0.00230211 -0.000301831 3.7738e-07
-0.000301831 -9.48637e-05 -2.5131e-07
3.7738e-07 -2.5131e-07 -1.35956e-05
0.00222352 -0.000232362 5.08772e-07
-0.000232362 -2.35991e-05 -3.34248e-07
5.08772e-07 -3.34248e-07 1.97943e-05
0.00227775 -0.000418497 -3.38898e-07
-0.000418497 1.74964e-05 2.31851e-07
-3.38898e-07 2.31851e-07 1.91532e-05
0.00217031 -0.000347486 9.72747e-08
-0.000347486 1.70268e-05 1.86879e-07
9.72747e-08 1.86879e-07 -2.98592e-06
0.00208215 -0.000297896 -2.83106e-06
-0.000297896 5.52212e-05 8.15829e-07
-2.83106e-06 8.15829e-07 2.24793e-06
0.00209999 -0.00041486 2.07244e-06
-0.00041486 6.67087e-05 -1.05633e-06
2.07244e-06 -1.05633e-06 -1.56225e-05
0.00204857 -0.000378883 6.66524e-07
-0.000378883 9.46183e-05 -2.36869e-07
6.66524e-07 -2.36869e-07 -1.46831e-05
0.00202824 -0.000348484 -1.25917e-06
-0.000348484 0.000135324 -9.06471e-07
-1.25917e-06 -9.06471e-07 9.58755e-07
0.0019965 -0.000431661 1.44295e-06
-0.000431661 0.000119093 -3.59708e-07
1.44295e-06 -3.59708e-07 -3.05067e-05
0.00205115 -0.000409887 -3.09844e-07
-0.000409887 0.000190415 -1.06399e-07
-3.09844e-07 -1.06399e-07 2.11591e-05
0.00184752 -0.000347428 -2.50526e-06
-0.000347428 0.000164864 -2.33954e-07
-2.50526e-06 -2.33954e-07 -3.21928e-05
0.00207191 -0.000451929 4.91933e-07
-0.000451929 0.00024683 1.77779e-06
4.91933e-07 1.77779e-06 5.07759e-05
0.00182173 -0.000384999 -5.7454e-07
-0.000384999 0.000193168 1.02964e-07
-5.7454e-07 1.02964e-07 -2.85061e-05
0.00107579 -0.000227052 -1.4907e-05
-0.000227052 -2.48157e-05 6.29775e-06
-1.4907e-05 6.29775e-06 -0.000220223
0.00189536 -0.000426122 5.4289e-06
-0.000426122 0.000282669 -2.97511e-08
5.4289e-06 -2.97511e-08 3.80237e-05
0.00108476 -0.000255196 2.21952e-07
-0.000255196 -5.81637e-07 7.52879e-08
2.21952e-07 7.52879e-08 -0.00020803
0.00274254 -0.000181502 -4.92872e-05
-0.000181502 0.0012846 1.20818e-05
-4.92872e-05 1.20818e-05 0.00118052
0.00228005 -0.000103661 -0.00026134
-0.000103661 0.00107849 3.53149e-05
-0.00026134 3.53149e-05 0.00105951
0.00159999 -0.000207782 -1.33274e-05
-0.000207782 0.000581597 -2.08169e-08
-1.33274e-05 -2.08169e-08 0.000457812
0.000987661 -0.000276367 1.64799e-05
-0.000276367 -2.70413e-05 -6.73775e-06
1.64799e-05 -6.73775e-06 -0.000247785
0.00716362 -4.23246e-05 -7.85431e-06
-4.23246e-05 0.00414993 1.26332e-06
-7.85431e-06 1.26332e-06 0.00415863
0.000348976 -0.00025271 2.49943e-05
-0.00025271 -0.000183903 -1.86088e-05
2.49943e-05 -1.86088e-05 -0.000323644
0.00708295 6.75454e-06 0.000288658
6.75454e-06 0.0041192 -2.77279e-05
0.000288658 -2.77279e-05 0.00412088
0.00214857 0.000443606 2.69405e-07
0.000443606 0.00015906 7.80434e-07
2.69405e-07 7.80434e-07 -8.7252e-06
0.00211927 0.000580649 3.23172e-06
0.000580649 0.000287888 5.39994e-06
3.23172e-06 5.39994e-06 2.84835e-05
0.0021072 0.000647462 2.46604e-07
0.000647462 0.000380937 2.08035e-07
2.46604e-07 2.08035e-07 6.29523e-05
0.00172214 0.000503779 -7.80387e-06
0.000503779 0.000278046 1.40204e-06
-7.80387e-06 1.40204e-06 -2.0673e-05
0.00170923 0.000594962 3.13514e-06
0.000594962 0.000292815 -3.38165e-06
3.13514e-06 -3.38165e-06 -5.37652e-05
0.00148931 0.000474618 -9.3273e-08
0.000474618 0.000237758 5.66751e-07
-9.3273e-08 5.66751e-07 -7.14114e-05
0.000850542 0.000265443 -1.36767e-05
0.000265443 -8.40025e-06 -5.65743e-06
-1.36767e-05 -5.65743e-06 -0.000223904
0.00127779 0.000410298 8.20388e-06
0.000410298 0.000235286 2.51686e-06
8.20388e-06 2.51686e-06 -5.78625e-05
0.000656235 0.000218601 1.21138e-06
0.000218601 -3.9457e-05 -8.49583e-09
1.21138e-06 -8.49583e-09 -0.000247584
0.000540521 0.000256407 -2.87654e-05
0.000256407 -3.70081e-05 -1.94293e-05
-2.87654e-05 -1.94293e-05 -0.000161888
0.000209633 0.000168383 4.07365e-06
0.000168383 -0.000238596 3.10358e-06
4.07365e-06 3.10358e-06 -0.000452263
0.000515999 0.000167154 1.07243e-06
0.000167154 -4.34469e-05 -8.40988e-07
1.07243e-06 -8.40988e-07 -0.000144001
0.00623763 -0.00013776 -0.000221854
-0.00013776 0.00364985 -2.2473e-05
-0.000221854 -2.2473e-05 0.00362943
0.000320956 8.64748e-05 1.73197e-05
8.64748e-05 -0.000135475 1.7517e-05
1.73197e-05 1.7517e-05 -0.000215213
0.00489436 -0.000185638 -7.23352e-06
-0.000185638 0.00281492 9.25585e-08
-7.23352e-06 9.25585e-08 0.00279228
0.00410112 -0.000187972 9.43396e-05
-0.000187972 0.00231298 8.15902e-06
9.43396e-05 8.15902e-06 0.00229199
0.0022397 0.000218479 -5.73158e-06
0.000218479 -0.000172 -1.08265e-06
-5.73158e-06 -1.08265e-06 -5.17492e-05
0.00210911 0.00011546 2.19826e-05
0.00011546 -7.76749e-05 -2.95997e-06
2.19826e-05 -2.95997e-06 0.000176906
0.00569224 0.000295626 -0.000114521
0.000295626 0.000444134 -1.86091e-06
-0.000114521 -1.86091e-06 0.00121334
0.00219119 0.000529236 -3.179e-06
0.000529236 0.000138513 1.30951e-06
-3.179e-06 1.30951e-06 -4.60032e-05
0.00223948 0.000721344 -3.54671e-06
0.000721344 0.0003437 -2.88182e-07
-3.54671e-06 -2.88182e-07 5.65895e-05
0.00175346 0.000759068 -6.33386e-06
0.000759068 0.000182744 -1.06708e-05
-6.33386e-06 -1.06708e-05 -0.000150394
0.00228612 0.000570783 3.03113e-06
0.000570783 0.000266397 1.52205e-06
3.03113e-06 1.52205e-06 4.41959e-05
0.00213782 0.000690529 6.88316e-07
0.000690529 0.000291597 -4.64624e-06
6.88316e-07 -4.64624e-06 -8.82532e-06
0.00241135 0.000422115 -2.15276e-07
0.000422115 2.80267e-05 1.74795e-07
-2.15276e-07 1.74795e-07 1.17278e-05
0.0021189 0.000633218 -6.7074e-07
0.000633218 7.28927e-05 3.10566e-07
-6.7074e-07 3.10566e-07 -0.000130368
0.00280464 0.000856167 -6.01476e-06
0.000856167 0.00065303 -1.91417e-06
-6.01476e-06 -1.91417e-06 0.000330733
0.00203315 0.000414431 -3.52157e-08
0.000414431 -0.000142936 -3.42564e-07
-3.52157e-08 -3.42564e-07 -0.000149595
0.00219006 0.000776769 1.21965e-05
0.000776769 0.000129286 3.1594e-06
1.21965e-05 3.1594e-06 -0.000104899
6.363e-06 0.000346264 -3.8861e-05
0.000346264 -0.000981021 -1.96179e-05
-3.8861e-05 -1.96179e-05 -0.000912156
0.00238095 8.87831e-05 1.03729e-06
8.87831e-05 -2.58528e-05 3.384e-07
1.03729e-06 3.384e-07 4.58285e-05
0.00227494 0.000104973 -1.76535e-06
0.000104973 -9.28376e-05 2.6723e-07
-1.76535e-06 2.6723e-07 -5.30864e-06
0.0034921 -8.23272e-05 -4.8824e-05
-8.23272e-05 0.00100528 1.82233e-06
-4.8824e-05 1.82233e-06 0.00107005
0.00242067 -0.000245311 -2.30776e-05
-0.000245311 -7.83419e-05 2.01877e-06
-2.30776e-05 2.01877e-06 0.000101589
0.00244644 1.18432e-05 -7.5255e-06
1.18432e-05 -4.42227e-05 -4.64245e-06
-7.5255e-06 -4.64245e-06 2.15512e-05
0.00235424 -8.51703e-05 -2.64934e-07
-8.51703e-05 -0.000104379 1.07362e-07
-2.64934e-07 1.07362e-07 -5.00609e-06
0.00210702 -7.10326e-05 4.8899e-07
-7.10326e-05 -3.05103e-05 1.06638e-07
4.8899e-07 1.06638e-07 1.13094e-06
0.0022571 -0.000289931 -4.81006e-07
-0.000289931 -0.000102434 4.68564e-07
-4.81006e-07 4.68564e-07 -3.01334e-05
0.00217815 -0.000237207 -1.94933e-07
-0.000237207 -4.44342e-05 2.72503e-08
-1.94933e-07 2.72503e-08 -7.53121e-06
0.00205792 -0.000198698 -2.05562e-06
-0.000198698 1.76842e-05 1.95823e-07
-2.05562e-06 1.95823e-07 -1.87918e-06
0.00216659 -0.000344379 8.19402e-07
-0.000344379 1.90821e-05 1.98661e-08
8.19402e-07 1.98661e-08 -2.20108e-06
0.00209278 -0.000298885 3.3725e-07
-0.000298885 5.73694e-05 -3.10275e-09
3.3725e-07 -3.10275e-09 4.01172e-06
0.00208046 -0.000284405 -2.40102e-06
-0.000284405 0.000124608 -2.02601e-07
-2.40102e-06 -2.02601e-07 2.39054e-05
0.00203543 -0.000376868 2.69611e-06
-0.000376868 8.40243e-05 -9.33282e-07
2.69611e-06 -9.33282e-07 -2.52832e-05
0.00203687 -0.000349731 -2.55377e-07
-0.000349731 0.000137562 -9.3022e-08
-2.55377e-07 -9.3022e-08 2.6684e-06
0.00186266 -0.00029882 -2.07386e-06
-0.00029882 0.00013817 -4.33264e-07
-2.07386e-06 -4.33264e-07 -3.31277e-05
0.00209401 -0.00041235 9.55597e-07
-0.00041235 0.000218503 9.89532e-07
9.55597e-07 9.89532e-07 4.87415e-05
0.00187379 -0.000349245 -4.07271e-07
-0.000349245 0.000180945 6.11488e-08
-4.07271e-07 6.11488e-08 -1.59492e-05
0.00108785 -0.000202994 -1.34785e-05
-0.000202994 -3.6978e-05 5.00749e-06
-1.34785e-05 5.00749e-06 -0.000222331
0.00185626 -0.000387158 3.30044e-06
-0.000387158 0.000215579 -3.8173e-08
3.30044e-06 -3.8173e-08 -5.96899e-06
0.00111953 -0.000228385 5.5135e-09
-0.000228385 -3.59705e-06 2.02505e-07
5.5135e-09 2.02505e-07 -0.000198161
0.00276024 -0.000176677 -5.75592e-05
-0.000176677 0.00128683 1.17546e-05
-5.75592e-05 1.17546e-05 0.00119106
0.00110743 -0.000256054 1.66298e-05
-0.000256054 1.02939e-05 -6.83002e-06
1.66298e-05 -6.83002e-06 -0.000196561
0.00289489 -0.000221046 4.9182e-05
-0.000221046 0.00138051 -7.71515e-06
4.9182e-05 -7.71515e-06 0.00128413
0.00224319 -0.000137831 -0.000257361
-0.000137831 0.00106249 4.00306e-05
-0.000257361 4.00306e-05 0.001041
0.00458381 -0.000116467 -0.000253852
-0.000116467 0.0025385 2.62611e-05
-0.000253852 2.62611e-05 0.0025325
0.00296899 -0.000279667 0.000162289
-0.000279667 0.00144211 -2.60209e-05
0.000162289 -2.60209e-05 0.00134486
0.00722051 -5.5912e-05 0.000300889
-5.5912e-05 0.00419386 -3.19314e-05
0.000300889 -3.19314e-05 0.00419835
0.00231228 0.000438385 -1.93101e-06
0.000438385 0.000248142 -4.95185e-07
-1.93101e-06 -4.95185e-07 0.000104132
0.00191716 0.000448007 1.84727e-06
0.000448007 0.000120449 1.65243e-06
1.84727e-06 1.65243e-06 -7.89004e-05
0.0021384 0.000433592 2.63119e-07
0.000433592 0.000160505 -1.53875e-06
2.63119e-07 -1.53875e-06 -3.21327e-07
0.00186599 0.000480609 -6.10491e-06
0.000480609 0.000253352 1.70135e-06
-6.10491e-06 1.70135e-06 -1.29501e-05
0.00219689 0.000588173 7.18304e-07
0.000588173 0.000322181 3.05718e-07
7.18304e-07 3.05718e-07 6.16458e-05
0.00237786 0.000670371 3.7528e-07
0.000670371 0.000542367 -4.82403e-06
3.7528e-07 -4.82403e-06 0.000223909
0.00168487 0.000504755 1.95848e-07
0.000504755 0.000247982 6.8061e-07
1.95848e-07 6.8061e-07 -5.29627e-05
0.000926137 0.000289049 -1.83856e-05
0.000289049 -5.42841e-05 -5.75681e-06
-1.83856e-05 -5.75681e-06 -0.000274952
0.00148015 0.000477184 9.67495e-06
0.000477184 0.000224222 1.51105e-06
9.67495e-06 1.51105e-06 -8.72028e-05
0.000772642 0.000255164 -8.64378e-07
0.000255164 -5.24582e-05 -2.34793e-07
-8.64378e-07 -2.34793e-07 -0.000263808
0.000437061 0.000256976 -2.60047e-05
0.000256976 -0.000111483 -1.99376e-05
-2.60047e-05 -1.99376e-05 -0.000250329
0.000306141 0.000193672 8.9756e-06
0.000193672 -0.000254492 2.13407e-06
8.9756e-06 2.13407e-06 -0.000456772
0.000321662 0.00021045 3.13075e-06
0.00021045 -0.000173334 3.72978e-07
3.13075e-06 3.72978e-07 -0.000293111
0.00690894 -5.27189e-05 -0.000265501
-5.27189e-05 0.00403757 -2.77037e-05
-0.000265501 -2.77037e-05 0.00402766
0.00038543 0.000126992 2.24933e-05
0.000126992 -0.000122326 1.74056e-05
2.24933e-05 1.74056e-05 -0.00021854
0.00588551 -0.000161561 4.45144e-06
-0.000161561 0.0034257 -2.16879e-06
4.45144e-06 -2.16879e-06 0.00340625
0.00472711 -0.000221398 0.00011601
-0.000221398 0.00272383 1.09229e-05
0.00011601 1.09229e-05 0.0026913
0.00238536 0.000255107 1.98031e-07
0.000255107 -3.37609e-05 6.23519e-07
1.98031e-07 6.23519e-07 3.41537e-05
0.00217219 0.000224956 1.73003e-06
0.000224956 -0.00019109 -2.74112e-08
1.73003e-06 -2.74112e-08 -7.20081e-05
0.00257548 7.41744e-05 -7.77948e-05
7.41744e-05 8.23654e-05 -9.35512e-06
-7.77948e-05 -9.35512e-06 0.000373588
0.00215335 0.000376297 7.14567e-07
0.000376297 5.95707e-06 2.78384e-07
7.14567e-07 2.78384e-07 -5.8707e-05
0.00217723 0.000524574 -8.35527e-07
0.000524574 0.000153496 2.8643e-07
-8.35527e-07 2.8643e-07 -2.86762e-05
0.00175614 0.000662337 5.81665e-06
0.000662337 9.56736e-05 -2.62154e-06
5.81665e-06 -2.62154e-06 -0.00018142
0.00240405 0.000565112 -5.89273e-07
0.000565112 0.000356425 -2.78336e-06
-5.89273e-07 -2.78336e-06 0.00013688
0.00235973 0.000405815 -9.19417e-07
0.000405815 1.41416e-05 2.00458e-08
-9.19417e-07 2.00458e-08 -1.00046e-06
0.00218839 0.000645251 -2.69057e-06
0.000645251 0.000129407 -4.25451e-08
-2.69057e-06 -4.25451e-08 -7.42122e-05
0.00195774 0.000403037 1.18725e-05
0.000403037 -0.000135515 4.61506e-07
1.18725e-05 4.61506e-07 -0.000141511
0.00217811 6.8855e-05 2.01644e-06
6.8855e-05 -1.26623e-05 3.8932e-07
2.01644e-06 3.8932e-07 1.84466e-05
0.00229725 8.32706e-05 6.89781e-08
8.32706e-05 -6.51227e-05 -5.17935e-09
6.89781e-08 -5.17935e-09 5.191e-06
0.00239561 0.000120082 -8.75814e-06
0.000120082 1.65846e-06 -1.289e-06
-8.75814e-06 -1.289e-06 8.03541e-05
0.00203755 -1.2913e-05 -2.9377e-06
-1.2913e-05 1.14066e-05 3.61075e-07
-2.9377e-06 3.61075e-07 1.5242e-05
0.0023125 -9.95266e-05 -5.87613e-07
-9.95266e-05 -0.000145268 -5.12581e-07
-5.87613e-07 -5.12581e-07 -3.81154e-05
0.00211987 -7.41236e-05 -7.16151e-07
-7.41236e-05 -2.71883e-05 2.4487e-07
-7.16151e-07 2.4487e-07 4.63324e-06
0.00198367 -0.000108676 -3.40174e-06
-0.000108676 -1.64623e-05 3.98431e-07
-3.40174e-06 3.98431e-07 -2.86954e-05
0.00212984 -0.000241752 4.82608e-08
-0.000241752 -6.70715e-05 2.92572e-07
4.82608e-08 2.92572e-07 -3.68967e-05
0.00205742 -0.000197351 1.06484e-06
-0.000197351 1.62854e-05 -2.96808e-07
1.06484e-06 -2.96808e-07 -2.77802e-06
0.0020907 -0.000201714 -9.39465e-07
-0.000201714 0.000104989 1.89941e-07
-9.39465e-07 1.89941e-07 3.45966e-05
0.00210579 -0.000299473 3.05467e-06
-0.000299473 6.10874e-05 -7.80496e-07
3.05467e-06 -7.80496e-07 7.42657e-06
0.00203332 -0.000279533 -1.63937e-07
-0.000279533 9.56264e-05 -3.0941e-07
-1.63937e-07 -3.0941e-07 -4.46817e-06
0.0018411 -0.000236061 -1.66244e-06
-0.000236061 0.000101436 -4.25511e-07
-1.66244e-06 -4.25511e-07 -4.4358e-05
0.00204426 -0.000350738 1.98615e-06
-0.000350738 0.000139613 4.37291e-07
1.98615e-06 4.37291e-07 4.24249e-06
0.00188056 -0.000299184 -3.1589e-07
-0.000299184 0.000150261 -2.10624e-08
-3.1589e-07 -2.10624e-08 -2.06711e-05
0.00109411 -0.000175648 -1.29657e-05
-0.000175648 -4.97441e-05 3.80688e-06
-1.29657e-05 3.80688e-06 -0.000224177
0.00189339 -0.000350535 1.56839e-06
-0.000350535 0.000193055 2.50788e-07
1.56839e-06 2.50788e-07 -3.61513e-06
0.00113217 -0.00020298 -1.96174e-07
-0.00020298 -1.45452e-05 2.299e-07
-1.96174e-07 2.299e-07 -0.000198595
0.00272987 -0.000169917 -6.48073e-05
-0.000169917 0.00126806 1.12989e-05
-6.48073e-05 1.12989e-05 0.00117605
0.00114812 -0.000229104 1.45399e-05
-0.000229104 7.49975e-06 -5.91167e-06
1.45399e-05 -5.91167e-06 -0.000186167
0.00284273 -0.00019881 4.494e-05
-0.00019881 0.00133886 -6.08686e-06
4.494e-05 -6.08686e-06 0.00125052
0.00226486 -0.000117414 -0.000251298
-0.000117414 0.00106733 3.50607e-05
-0.000251298 3.50607e-05 0.00104839
0.00300766 -0.000228719 0.000155578
-0.000228719 0.00144599 -2.71234e-05
0.000155578 -2.71234e-05 0.00135963
0.00188486 -7.5013e-05 -0.000104439
-7.5013e-05 0.000839471 1.52999e-05
-0.000104439 1.52999e-05 0.000805067
0.0066868 9.57677e-06 9.1887e-05
9.57677e-06 0.00384064 -4.45064e-06
9.1887e-05 -4.45064e-06 0.00382144
0.00213344 0.000374886 -6.08368e-07
0.000374886 9.86326e-05 -6.47302e-08
-6.08368e-07 -6.47302e-08 -9.00561e-06
0.00214219 0.00041299 -1.38299e-06
0.00041299 0.000199479 -5.89628e-07
-1.38299e-06 -5.89628e-07 3.53457e-05
0.00227633 0.00043919 -3.69034e-06
0.00043919 0.00021589 -1.53449e-07
-3.69034e-06 -1.53449e-07 7.01898e-05
0.00190438 0.00041334 -2.88007e-06
0.00041334 0.000210172 4.06895e-07
-2.88007e-06 4.06895e-07 -1.70133e-05
0.00190848 0.000454776 -9.27876e-07
0.000454776 9.59599e-05 -2.27284e-06
-9.27876e-07 -2.27284e-06 -0.000100246
0.00213212 0.000424095 -4.13936e-06
0.000424095 0.000164556 -4.15925e-06
-4.13936e-06 -4.15925e-06 1.06076e-05
0.00112191 0.000289409 -2.10578e-05
0.000289409 6.61998e-06 -6.22469e-06
-2.10578e-05 -6.22469e-06 -0.000207114
0.00177527 0.000473069 1.08116e-06
0.000473069 0.000196499 3.29197e-07
1.08116e-06 3.29197e-07 -6.93213e-05
0.00226789 0.00059472 1.71013e-06
0.00059472 0.000351216 -4.2893e-06
1.71013e-06 -4.2893e-06 8.97713e-05
0.00163005 0.000504119 9.10274e-06
0.000504119 0.000206805 6.47148e-08
9.10274e-06 6.47148e-08 -9.59751e-05
0.000985566 0.000288375 -1.44986e-06
0.000288375 -7.70226e-06 6.8339e-08
-1.44986e-06 6.8339e-08 -0.00022688
0.000321225 0.000246459 -2.55661e-05
0.000246459 -0.000197625 -1.81461e-05
-2.55661e-05 -1.81461e-05 -0.000335952
0.000814183 0.000252685 1.38722e-05
0.000252685 -2.41289e-05 6.16673e-06
1.38722e-05 6.16673e-06 -0.000232088
0.000359035 0.000243594 2.04353e-06
0.000243594 -0.000154329 9.16419e-07
2.04353e-06 9.16419e-07 -0.000292941
0.00720808 3.73174e-05 -0.000288431
3.73174e-05 0.0042075 -3.46826e-05
-0.000288431 -3.46826e-05 0.00419997
0.000387809 0.000191698 2.46168e-05
0.000191698 -0.000136994 1.96591e-05
2.46168e-05 1.96591e-05 -0.00025412
0.0066752 -9.47046e-05 4.19489e-06
-9.47046e-05 0.00388896 -8.00615e-07
4.19489e-06 -8.00615e-07 0.00388008
0.00543223 -0.000193805 0.000155358
-0.000193805 0.00314627 1.05125e-05
0.000155358 1.05125e-05 0.00312188
0.00215052 0.000203643 -1.92705e-07
0.000203643 -1.37885e-05 -2.67577e-07
-1.92705e-07 -2.67577e-07 1.61929e-06
0.00235223 0.000258691 -1.13783e-07
0.000258691 -6.08709e-05 5.2913e-07
-1.13783e-07 5.2913e-07 9.0679e-06
0.00217046 0.000229812 3.47296e-06
0.000229812 -0.000191256 -4.07476e-08
3.47296e-06 -4.07476e-08 -7.23439e-05
0.00219415 0.000373197 -2.27654e-07
0.000373197 3.61032e-05 1.07333e-07
-2.27654e-07 1.07333e-07 -2.55814e-05
0.00215051 0.000518214 4.35864e-07
0.000518214 0.000163857 -7.01915e-07
4.35864e-07 -7.01915e-07 -1.56522e-05
0.00233367 0.000391624 1.76331e-06
0.000391624 9.0673e-06 -1.15217e-07
1.76331e-06 -1.15217e-07 -5.2331e-06
0.00205283 6.31762e-05 -9.55238e-07
6.31762e-05 -5.87899e-06 2.41129e-07
-9.55238e-07 2.41129e-07 -7.23445e-07
0.00216103 6.36855e-05 2.98235e-07
6.36855e-05 -2.11324e-05 -1.36094e-07
2.98235e-07 -1.36094e-07 9.48689e-06
0.0022222 7.76778e-05 -1.19489e-06
7.76778e-05 -0.000100088 -2.40031e-07
-1.19489e-06 -2.40031e-07 -3.05679e-05
0.00202409 -1.13284e-05 -8.9349e-07
-1.13284e-05 5.78485e-07 4.91974e-08
-8.9349e-07 4.91974e-08 3.7721e-06
0.00201541 -3.71488e-05 -6.25171e-06
-3.71488e-05 4.30371e-05 5.86614e-07
-6.25171e-06 5.86614e-07 2.64754e-05
0.00213537 -7.70127e-05 -2.76778e-07
-7.70127e-05 -2.25713e-05 2.86315e-07
-2.76778e-07 2.86315e-07 9.63309e-06
0.00200899 -0.000108536 -1.48834e-06
-0.000108536 5.43788e-06 2.2764e-07
-1.48834e-06 2.2764e-07 -9.5502e-06
0.00198276 -0.000124953 -5.64372e-06
-0.000124953 2.72119e-05 8.38533e-07
-5.64372e-06 8.38533e-07 -2.24579e-05
0.00205648 -0.000196419 4.17754e-06
-0.000196419 1.4958e-05 -8.22465e-07
4.17754e-06 -8.22465e-07 -3.71505e-06
0.00203492 -0.000199844 2.89456e-06
-0.000199844 7.19879e-05 -6.47136e-07
2.89456e-06 -6.47136e-07 1.65086e-06
0.00187096 -0.000172358 1.36077e-06
-0.000172358 0.000102278 -1.10517e-06
1.36077e-06 -1.10517e-06 -2.20897e-05
0.00197104 -0.000275739 2.66929e-06
-0.000275739 5.58075e-05 -5.33611e-07
2.66929e-06 -5.33611e-07 -4.40074e-05
0.00188359 -0.000239006 -1.78524e-07
-0.000239006 0.000124703 -1.88509e-08
-1.78524e-07 -1.88509e-08 -2.11947e-05
0.00111499 -0.000141999 -1.25621e-05
-0.000141999 -4.80559e-05 2.59418e-06
-1.25621e-05 2.59418e-06 -0.000209284
0.00190317 -0.000300039 1.06471e-06
-0.000300039 0.00016413 3.52634e-07
1.06471e-06 3.52634e-07 -6.50897e-06
0.00114233 -0.000175026 -3.29278e-07
-0.000175026 -2.23031e-05 3.01682e-07
-3.29278e-07 3.01682e-07 -0.000195421
0.00265043 -0.000170438 -6.69621e-05
-0.000170438 0.00122074 9.7256e-06
-6.69621e-05 9.7256e-06 0.00113137
0.00117487 -0.000203136 1.31004e-05
-0.000203136 6.47276e-06 -4.64506e-06
1.31004e-05 -4.64506e-06 -0.000176292
0.00278777 -0.000170408 4.2876e-05
-0.000170408 0.00129947 -4.65946e-06
4.2876e-05 -4.65946e-06 0.00121649
0.00225903 -9.75145e-05 -0.000248819
-9.75145e-05 0.00105711 2.93588e-05
-0.000248819 2.93588e-05 0.00103962
0.00293426 -0.000191748 0.000152056
-0.000191748 0.00138847 -2.31126e-05
0.000152056 -2.31126e-05 0.00131112
0.00188232 -7.77982e-05 -9.47596e-05
-7.77982e-05 0.000832542 1.22351e-05
-9.47596e-05 1.22351e-05 0.000800569
0.00158791 -7.25687e-05 6.10445e-05
-7.25687e-05 0.000665009 -9.54791e-06
6.10445e-05 -9.54791e-06 0.000613806
0.00209522 0.000243125 -1.71765e-06
0.000243125 3.19554e-05 -4.70404e-07
-1.71765e-06 -4.70404e-07 -1.04633e-05
0.00212347 0.000340901 -2.35156e-06
0.000340901 0.000156603 4.40142e-07
-2.35156e-06 4.40142e-07 2.91871e-05
0.00214817 0.000378474 -3.93287e-07
0.000378474 8.74379e-05 -4.97709e-08
-3.93287e-07 -4.97709e-08 -1.22249e-05
0.00199744 0.000376797 5.30025e-08
0.000376797 0.000212832 6.8635e-07
5.30025e-08 6.8635e-07 1.94188e-05
0.00211552 0.000408009 -1.22412e-06
0.000408009 0.000191862 -5.71764e-07
-1.22412e-06 -5.71764e-07 2.72552e-05
0.00223942 0.000440394 1.45022e-06
0.000440394 0.000182712 8.8263e-08
1.45022e-06 8.8263e-08 3.51696e-05
0.00121037 0.000257231 -1.85582e-05
0.000257231 2.30354e-05 -5.95715e-06
-1.85582e-05 -5.95715e-06 -0.000173833
0.00185852 0.000415724 2.19923e-06
0.000415724 0.000173767 -9.79947e-08
2.19923e-06 -9.79947e-08 -4.94674e-05
0.0019083 0.00046206 -2.03528e-06
0.00046206 7.73369e-05 -4.53882e-06
-2.03528e-06 -4.53882e-06 -0.000115773
0.000313782 0.000188294 -2.25947e-05
0.000188294 -0.00022668 -1.52221e-05
-2.25947e-05 -1.52221e-05 -0.000352524
0.00110461 0.000286051 -6.79879e-07
0.000286051 -2.92544e-06 5.66612e-09
-6.79879e-07 5.66612e-09 -0.000216001
0.00172546 0.00046958 8.13255e-06
0.00046958 0.000163876 -1.10791e-06
8.13255e-06 -1.10791e-06 -0.000102252
0.000964783 0.000282994 1.86015e-05
0.000282994 -1.08274e-05 7.14737e-06
1.86015e-05 7.14737e-06 -0.000228382
0.000368722 0.000233258 7.65049e-07
0.000233258 -0.000165674 1.1563e-06
7.65049e-07 1.1563e-06 -0.000305665
0.00723337 0.000137574 -0.000298264
0.000137574 0.00420572 -3.88924e-05
-0.000298264 -3.88924e-05 0.00420083
0.000329999 0.000228232 2.22242e-05
0.000228232 -0.000170328 1.88245e-05
2.22242e-05 1.88245e-05 -0.000307045
0.00707527 7.51678e-06 7.44657e-06
7.51678e-06 0.00411224 1.53525e-07
7.44657e-06 1.53525e-07 0.00411245
0.00644376 -0.000126112 0.000217533
-0.000126112 0.00374193 1.28794e-05
0.000217533 1.28794e-05 0.00373298
0.00207278 0.000127377 -3.48591e-06
0.000127377 2.4502e-05 -8.46993e-07
-3.48591e-06 -8.46993e-07 2.19248e-05
0.00215544 0.000208088 7.736e-07
0.000208088 -1.27177e-05 3.3794e-07
7.736e-07 3.3794e-07 4.59524e-07
0.00230753 0.000262637 -4.09273e-07
0.000262637 -9.12744e-05 -7.6345e-07
-4.09273e-07 -7.6345e-07 -1.98041e-05
0.00223284 0.000368964 2.07201e-06
0.000368964 6.47421e-05 7.63212e-09
2.07201e-06 7.63212e-09 6.34679e-06
0.0019835 1.82007e-05 -6.18129e-06
1.82007e-05 4.37328e-05 2.89078e-07
-6.18129e-06 2.89078e-07 1.49696e-05
0.0020372 5.36775e-05 -1.09709e-08
5.36775e-05 -1.43754e-05 3.17416e-08
-1.09709e-08 3.17416e-08 -9.55177e-06
0.00214294 5.84136e-05 -1.17923e-06
5.84136e-05 -2.95338e-05 -2.09846e-07
-1.17923e-06 -2.09846e-07 1.27218e-08
0.00200854 -8.70667e-06 2.45286e-07
-8.70667e-06 -1.11908e-05 -5.36842e-07
2.45286e-07 -5.36842e-07 -8.89418e-06
0.00201329 -3.13787e-05 -6.9786e-07
-3.13787e-05 3.82409e-05 -1.63359e-07
-6.9786e-07 -1.63359e-07 2.28508e-05
0.001886 -5.34779e-05 -4.42702e-06
-5.34779e-05 -1.84801e-05 3.51502e-07
-4.42702e-06 3.51502e-07 -7.18926e-05
0.00203298 -0.000108526 3.64632e-06
-0.000108526 2.64381e-05 -2.43429e-07
3.64632e-06 -2.43429e-07 8.37998e-06
0.001992 -0.000125771 -2.08298e-06
-0.000125771 4.17608e-05 4.42102e-07
-2.08298e-06 4.42102e-07 -1.47973e-05
0.00191686 -0.00011326 -1.27347e-06
-0.00011326 0.000114806 -3.44542e-07
-1.27347e-06 -3.44542e-07 1.35352e-05
0.00199437 -0.000197134 6.75839e-06
-0.000197134 4.87764e-05 -1.43115e-06
6.75839e-06 -1.43115e-06 -2.12199e-05
0.00189632 -0.000171561 1.92593e-06
-0.000171561 0.000113138 -5.65566e-07
1.92593e-06 -5.65566e-07 -1.07418e-05
0.00112005 -0.000105172 -1.22144e-05
-0.000105172 -4.72151e-05 1.70624e-06
-1.22144e-05 1.70624e-06 -0.000195744
0.00194622 -0.000240202 1.34891e-06
-0.000240202 0.000162645 3.12571e-07
1.34891e-06 3.12571e-07 1.71669e-05
0.00112922 -0.000141054 -1.73946e-07
-0.000141054 -3.79855e-05 2.0129e-07
-1.73946e-07 2.0129e-07 -0.000198372
0.000404303 -9.00142e-05 -1.98501e-05
-9.00142e-05 -0.000203784 5.78397e-06
-1.98501e-05 5.78397e-06 -0.000300769
0.00118579 -0.000174015 1.28564e-05
-0.000174015 2.88346e-06 -3.32238e-06
1.28564e-05 -3.32238e-06 -0.000168839
0.00158741 -0.000112006 6.36571e-05
-0.000112006 0.000539577 -4.87923e-06
6.36571e-05 -4.87923e-06 0.000453992
0.00663071 -0.000165763 -0.000331509
-0.000165763 0.0038117 2.47131e-05
-0.000331509 2.47131e-05 0.0038299
0.0028859 -0.000154282 0.000149321
-0.000154282 0.00135031 -1.82167e-05
0.000149321 -1.82167e-05 0.00127881
0.00188713 -7.62916e-05 -8.57856e-05
-7.62916e-05 0.000834382 7.9675e-06
-8.57856e-05 7.9675e-06 0.000802371
0.00151327 -9.78091e-05 7.31485e-05
-9.78091e-05 0.000622452 -1.13462e-05
7.31485e-05 -1.13462e-05 0.000570018
0.00203207 0.000171088 -3.94993e-06
0.000171088 3.53757e-05 -1.02689e-06
-3.94993e-06 -1.02689e-06 -1.49935e-06
0.00213805 0.000262964 -1.43325e-06
0.000262964 0.000147417 6.08033e-07
-1.43325e-06 6.08033e-07 5.61635e-05
0.00208455 0.000236352 6.66015e-08
0.000236352 3.42558e-05 1.14521e-07
6.66015e-08 1.14521e-07 -1.31872e-05
0.00200973 0.000304688 2.21364e-07
0.000304688 0.000201718 1.37295e-06
2.21364e-07 1.37295e-06 4.2789e-05
0.0020392 0.000335367 1.03791e-06
0.000335367 0.000105915 1.69982e-07
1.03791e-06 1.69982e-07 -2.12273e-05
0.0021635 0.000382526 7.64255e-07
0.000382526 7.6481e-05 2.36883e-07
7.64255e-07 2.36883e-07 -1.54219e-05
0.00120442 0.000225425 -1.50988e-05
0.000225425 -1.08189e-07 -4.04835e-06
-1.50988e-05 -4.04835e-06 -0.000179541
0.00200246 0.000374015 2.23975e-06
0.000374015 0.000216255 6.22985e-07
2.23975e-06 6.22985e-07 2.39461e-05
0.00207844 0.000402216 -2.71931e-07
0.000402216 0.000178289 -1.61338e-06
-2.71931e-07 -1.61338e-06 1.33024e-05
0.000309381 0.000134409 -1.94628e-05
0.000134409 -0.000250852 -1.17631e-05
-1.94628e-05 -1.17631e-05 -0.000362388
0.00112587 0.000253407 4.0922e-07
0.000253407 -2.86134e-05 4.42416e-07
4.0922e-07 4.42416e-07 -0.00022373
0.00179112 0.000415993 6.92321e-06
0.000415993 0.000123882 -1.29544e-06
6.92321e-06 -1.29544e-06 -9.49939e-05
0.00702905 0.000212863 -0.000305288
0.000212863 0.00406597 -3.84984e-05
-0.000305288 -3.84984e-05 0.00406594
0.000295535 0.000181051 3.54131e-07
0.000181051 -0.000237781 8.08267e-07
3.54131e-07 8.08267e-07 -0.000364258
0.00105631 0.00027885 2.18135e-05
0.00027885 -2.7953e-05 6.92725e-06
2.18135e-05 6.92725e-06 -0.000239478
0.000273708 0.00021279 2.10128e-05
0.00021279 -0.000220453 1.78056e-05
2.10128e-05 1.78056e-05 -0.000360907
0.00714801 0.000129234 9.989e-06
0.000129234 0.00414672 1.24401e-06
9.989e-06 1.24401e-06 0.00414864
0.00694622 -2.75922e-05 0.000269665
-2.75922e-05 0.00402247 1.84712e-05
0.000269665 1.84712e-05 0.00402741
0.00194697 7.04257e-05 -8.06494e-06
7.04257e-05 1.95787e-05 -3.82862e-07
-8.06494e-06 -3.82862e-07 -1.30504e-05
0.0020622 0.000123965 1.22376e-07
0.000123965 1.81452e-05 -1.3009e-08
1.22376e-07 -1.3009e-08 1.47283e-05
0.00216222 0.000212622 6.353e-07
0.000212622 -1.07279e-05 2.85908e-07
6.353e-07 2.85908e-07 5.75266e-07
0.00193057 6.25194e-06 -5.36132e-06
6.25194e-06 2.86187e-05 -2.18708e-07
-5.36132e-06 -2.18708e-07 -3.06701e-05
0.00196719 2.31672e-05 3.08136e-07
2.31672e-05 3.03738e-05 6.10571e-08
3.08136e-07 6.10571e-08 4.26009e-06
0.00202441 4.31508e-05 2.77681e-07
4.31508e-05 -2.13336e-05 -2.48822e-07
2.77681e-07 -2.48822e-07 -1.67719e-05
0.00201272 -2.63354e-05 3.87914e-06
-2.63354e-05 3.39499e-05 -3.97683e-07
3.87914e-06 -3.97683e-07 2.02067e-05
0.00194066 -5.20741e-05 -1.41276e-06
-5.20741e-05 1.95766e-05 2.47895e-07
-1.41276e-06 2.47895e-07 -3.25732e-05
0.00185848 -5.31474e-05 5.74556e-07
-5.31474e-05 9.0318e-05 -4.92422e-07
5.74556e-07 -4.92422e-07 -9.10375e-06
0.00201995 -0.000126687 1.13695e-06
-0.000126687 6.92559e-05 -7.04852e-08
1.13695e-06 -7.04852e-08 6.2847e-06
0.00189657 -0.000114529 4.7689e-07
-0.000114529 0.000106586 1.63556e-08
4.7689e-07 1.63556e-08 -1.90984e-06
0.0011371 -6.36044e-05 -1.24428e-05
-6.36044e-05 -3.67086e-05 8.01963e-07
-1.24428e-05 8.01963e-07 -0.000168847
0.00189931 -0.000172415 2.83331e-06
-0.000172415 0.00010924 -1.54884e-07
2.83331e-06 -1.54884e-07 -1.46446e-05
0.0011151 -0.000100804 -6.26282e-08
-0.000100804 -4.86562e-05 4.11679e-08
-6.26282e-08 4.11679e-08 -0.000196186
0.000411145 -2.40701e-05 -1.84054e-05
-2.40701e-05 -0.000202008 3.3599e-06
-1.84054e-05 3.3599e-06 -0.0002922
0.00117112 -0.000139813 1.24124e-05
-0.000139813 -1.2528e-05 -2.25562e-06
1.24124e-05 -2.25562e-06 -0.000171835
0.000408151 -7.48691e-05 -1.23721e-07
-7.48691e-05 -0.000200057 4.64349e-07
-1.23721e-07 4.64349e-07 -0.000297563
0.00653079 -5.64395e-05 -0.00032024
-5.64395e-05 0.00374387 1.53014e-05
-0.00032024 1.53014e-05 0.00376716
0.000452527 -7.70949e-05 1.45288e-05
-7.70949e-05 -0.000175922 -7.72059e-06
1.45288e-05 -7.72059e-06 -0.000278951
0.00415969 -0.000108036 0.000141823
-0.000108036 0.00226534 -7.4631e-06
0.000141823 -7.4631e-06 0.00224915
0.00148019 -9.05841e-05 7.91326e-05
-9.05841e-05 0.000601119 -1.1047e-05
7.91326e-05 -1.1047e-05 0.000549389
0.00204137 0.000131361 -8.13007e-06
0.000131361 7.84784e-05 -1.01746e-06
-8.13007e-06 -1.01746e-06 3.68353e-05
0.00211873 0.000195077 -2.34326e-06
0.000195077 0.000145701 5.69961e-07
-2.34326e-06 5.69961e-07 6.80272e-05
0.00200974 0.000165158 -6.23287e-07
0.000165158 2.30122e-05 -1.29865e-07
-6.23287e-07 -1.29865e-07 -1.31686e-05
0.0018997 0.000233024 -7.38131e-08
0.000233024 0.000123246 1.06919e-06
-7.38131e-08 1.06919e-06 -2.01594e-05
0.00208865 0.000260419 2.08993e-07
0.000260419 0.000112107 8.1706e-08
2.08993e-07 8.1706e-08 1.86753e-05
0.00206847 0.000229335 2.9975e-06
0.000229335 3.30788e-05 7.60037e-07
2.9975e-06 7.60037e-07 -1.92977e-05
0.00118855 0.000184844 -1.38187e-05
0.000184844 -1.42121e-05 -2.76188e-06
-1.38187e-05 -2.76188e-06 -0.000179412
0.00194255 0.000300118 1.96055e-06
0.000300118 0.00016577 7.19137e-07
1.96055e-06 7.19137e-07 9.59949e-07
0.00195573 0.000329746 1.09997e-06
0.000329746 5.57853e-05 -5.41103e-07
1.09997e-06 -5.41103e-07 -7.09576e-05
0.000344299 9.54715e-05 -1.8284e-05
9.54715e-05 -0.000243364 -8.55174e-06
-1.8284e-05 -8.55174e-06 -0.000345752
0.00115015 0.000221262 -7.65498e-07
0.000221262 -3.20087e-05 3.34116e-07
-7.65498e-07 3.34116e-07 -0.000210759
0.00200097 0.000371267 4.63702e-06
0.000371267 0.000215475 5.69637e-07
4.63702e-06 5.69637e-07 2.41807e-05
0.00685515 0.000267601 -0.000321241
0.000267601 0.00395924 -3.70648e-05
-0.000321241 -3.70648e-05 0.0039608
0.000337719 0.000133513 -8.8845e-08
0.000133513 -0.000236434 4.04426e-07
-8.8845e-08 4.04426e-07 -0.000348453
0.00105357 0.000251536 1.79637e-05
0.000251536 -7.42744e-05 5.77417e-06
1.79637e-05 5.77417e-06 -0.000268024
0.00706225 0.000231027 1.377e-05
0.000231027 0.00409388 3.8225e-06
1.377e-05 3.8225e-06 0.00409171
0.00032837 0.000174169 2.00057e-05
0.000174169 -0.000219469 1.49362e-05
2.00057e-05 1.49362e-05 -0.000346729
0.00707097 9.23124e-05 0.000297313
9.23124e-05 0.00408438 2.67427e-05
0.000297313 2.67427e-05 0.00409452
0.00188283 5.31429e-05 -5.80485e-06
5.31429e-05 -6.31878e-06 -2.9232e-07
-5.80485e-06 -2.9232e-07 -6.74847e-05
0.00198002 7.60142e-05 -8.49275e-07
7.60142e-05 4.80424e-05 -2.00943e-07
-8.49275e-07 -2.00943e-07 1.47325e-05
0.00204902 0.000120796 2.95904e-06
0.000120796 1.08959e-05 5.04615e-07
2.95904e-06 5.04615e-07 6.53125e-06
0.0018512 -6.04711e-06 1.23298e-06
-6.04711e-06 9.13676e-05 -5.1012e-07
1.23298e-06 -5.1012e-07 -6.52519e-06
0.00194657 7.27298e-06 -1.89285e-06
7.27298e-06 3.81984e-05 2.13325e-07
-1.89285e-06 2.13325e-07 -1.83755e-05
0.00194905 2.93502e-05 6.92961e-06
2.93502e-05 1.58507e-05 -7.8305e-08
6.92961e-06 -7.8305e-08 -7.68133e-06
0.00199192 -5.06748e-05 1.34037e-06
-5.06748e-05 5.57192e-05 1.78571e-07
1.34037e-06 1.78571e-07 4.50768e-06
0.00189621 -5.27852e-05 2.41992e-06
-5.27852e-05 0.000115103 -9.84079e-08
2.41992e-06 -9.84079e-08 1.67394e-05
0.00110621 -2.70502e-05 -1.20036e-05
-2.70502e-05 -4.80966e-05 8.94092e-08
-1.20036e-05 8.94092e-08 -0.000173426
0.00186319 -0.000115795 3.33498e-07
-0.000115795 8.93633e-05 4.16636e-07
3.33498e-07 4.16636e-07 -2.65881e-05
0.00110744 -6.31662e-05 9.81116e-08
-6.31662e-05 -5.36814e-05 -7.55514e-08
9.81116e-08 -7.55514e-08 -0.000188797
0.000414365 -8.78543e-06 -1.86154e-05
-8.78543e-06 -0.000199762 2.10641e-06
-1.86154e-05 2.10641e-06 -0.000286283
0.00110963 -9.77498e-05 1.14285e-05
-9.77498e-05 -4.95977e-05 -1.63301e-06
1.14285e-05 -1.63301e-06 -0.000196303
0.00038915 -3.63464e-05 8.71347e-07
-3.63464e-05 -0.000215462 -2.98718e-07
8.71347e-07 -2.98718e-07 -0.000304998
0.00632756 -0.000151002 -0.00032114
-0.000151002 0.00363386 1.65811e-05
-0.00032114 1.65811e-05 0.00365103
0.0003735 -5.82681e-05 1.77743e-05
-5.82681e-05 -0.000221462 -4.33597e-06
1.77743e-05 -4.33597e-06 -0.000318355
0.00646543 -9.25941e-05 7.55171e-06
-9.25941e-05 0.00370657 1.02629e-08
7.55171e-06 1.02629e-08 0.00372906
0.00180503 -3.58296e-05 0.000249276
-3.58296e-05 0.000773665 -1.65374e-05
0.000249276 -1.65374e-05 0.000763708
0.00201409 0.000129365 -5.28736e-06
0.000129365 7.63962e-05 -4.98756e-07
-5.28736e-06 -4.98756e-07 4.13283e-06
0.00199788 0.000132459 -1.95325e-06
0.000132459 4.28681e-05 -1.96232e-07
-1.95325e-06 -1.96232e-07 5.5501e-06
0.0018738 0.000167371 7.01288e-07
0.000167371 9.99042e-05 1.03641e-06
7.01288e-07 1.03641e-06 -2.46085e-05
0.00205947 0.000193667 8.71618e-07
0.000193667 0.000101201 7.0839e-08
8.71618e-07 7.0839e-08 2.32557e-05
0.00198957 0.000159129 4.85691e-06
0.000159129 1.12764e-05 7.21933e-07
4.85691e-06 7.21933e-07 -2.40442e-05
0.00116382 0.000138267 -1.24925e-05
0.000138267 -1.93759e-05 -2.02027e-06
-1.24925e-05 -2.02027e-06 -0.000175891
0.00189523 0.000231298 1.76286e-07
0.000231298 0.000125126 8.35147e-08
1.76286e-07 8.35147e-08 -1.81275e-05
0.0020446 0.00025797 2.50426e-06
0.00025797 8.05366e-05 -4.35535e-07
2.50426e-06 -4.35535e-07 -1.5154e-05
0.000382265 7.0748e-05 -1.79475e-05
7.0748e-05 -0.000225672 -5.92176e-06
-1.79475e-05 -5.92176e-06 -0.000323317
0.0011551 0.000183794 -6.06402e-07
0.000183794 -3.24386e-05 4.05602e-07
-6.06402e-07 4.05602e-07 -0.000200716
0.00188372 0.00029573 2.42726e-06
0.00029573 0.000135749 3.66351e-07
2.42726e-06 3.66351e-07 -3.49244e-05
0.00672681 0.000280714 -0.00033843
0.000280714 0.00388904 -3.4482e-05
-0.00033843 -3.4482e-05 0.00389024
0.000371802 9.84009e-05 2.24945e-07
9.84009e-05 -0.000228691 1.96649e-07
2.24945e-07 1.96649e-07 -0.000331705
0.00110433 0.000217237 1.17014e-05
0.000217237 -5.95089e-05 4.31003e-06
1.17014e-05 4.31003e-06 -0.000237441
0.00687301 0.000291799 1.10829e-05
0.000291799 0.0039828 4.90964e-06
1.10829e-05 4.90964e-06 0.00397858
0.000365921 0.000131753 1.8773e-05
0.000131753 -0.000222066 1.20591e-05
1.8773e-05 1.20591e-05 -0.000334274
0.00704421 0.000233658 0.000324154
0.000233658 0.00407474 3.70242e-05
0.000324154 3.70242e-05 0.00407891
0.00182266 4.87843e-05 2.79224e-06
4.87843e-05 7.52079e-05 -2.04256e-07
2.79224e-06 -2.04256e-07 -2.61281e-05
0.00195094 5.40594e-05 -3.40723e-06
5.40594e-05 4.46905e-05 -1.21268e-07
-3.40723e-06 -1.21268e-07 -1.7358e-05
0.00201728 8.10759e-05 7.35936e-06
8.10759e-05 7.91803e-05 4.62697e-07
7.35936e-06 4.62697e-07 4.52494e-05
0.0010848 -1.04998e-05 -1.24148e-05
-1.04998e-05 -5.42915e-05 -1.95702e-07
-1.24148e-05 -1.95702e-07 -0.00017795
0.00188523 -1.52103e-06 2.85956e-06
-1.52103e-06 0.000114797 -9.14236e-08
2.85956e-06 -9.14236e-08 1.74475e-05
0.00196186 7.80752e-06 1.21415e-06
7.80752e-06 4.73751e-05 4.54983e-07
1.21415e-06 4.54983e-07 -6.43119e-06
0.00193909 -5.29316e-05 3.95336e-06
-5.29316e-05 0.000143406 2.08152e-07
3.95336e-06 2.08152e-07 4.61133e-05
0.00109537 -2.83757e-05 1.38193e-07
-2.83757e-05 -5.74197e-05 -4.78565e-08
1.38193e-07 -4.78565e-08 -0.000183013
0.000417299 -3.24256e-05 -1.91425e-05
-3.24256e-05 -0.000196348 8.58663e-07
-1.91425e-05 8.58663e-07 -0.000279347
0.00105393 -6.16984e-05 1.18262e-05
-6.16984e-05 -8.53735e-05 -1.24558e-06
1.18262e-05 -1.24558e-06 -0.000223498
0.000392427 2.68203e-06 3.98382e-07
2.68203e-06 -0.000214335 8.04462e-08
3.98382e-07 8.04462e-08 -0.000299685
0.00624062 -0.000121598 -0.000321267
-0.000121598 0.00357856 1.23424e-05
-0.000321267 1.23424e-05 0.00359877
0.000401923 -4.3954e-05 1.85429e-05
-4.3954e-05 -0.000204854 -3.09253e-06
1.85429e-05 -3.09253e-06 -0.000295537
0.00631786 -4.58356e-05 -3.12117e-06
-4.58356e-05 0.00361548 2.81198e-06
-3.12117e-06 2.81198e-06 0.00364024
0.00641604 -0.000106505 0.000319692
-0.000106505 0.00367723 -1.47424e-05
0.000319692 -1.47424e-05 0.00369978
0.00183611 0.000105179 6.84123e-07
0.000105179 7.87519e-05 4.74285e-07
6.84123e-07 4.74285e-07 -3.348e-05
0.00199271 0.000127281 -3.50223e-06
0.000127281 5.46036e-05 -6.97141e-07
-3.50223e-06 -6.97141e-07 -1.20585e-05
0.0019517 0.000134035 6.30803e-06
0.000134035 5.89005e-06 7.82081e-07
6.30803e-06 7.82081e-07 -2.73091e-05
0.0011629 9.18303e-05 -1.21384e-05
9.18303e-05 -1.53327e-05 -1.36617e-06
-1.21384e-05 -1.36617e-06 -0.000159065
0.0018845 0.000166086 2.70011e-07
0.000166086 0.000110457 -1.13209e-07
2.70011e-07 -1.13209e-07 -1.40158e-05
0.00200017 0.0001922 2.57585e-06
0.0001922 5.68491e-05 -7.9335e-07
2.57585e-06 -7.9335e-07 -2.13926e-05
0.000401851 4.78629e-05 -1.74603e-05
4.78629e-05 -0.000211535 -4.20401e-06
-1.74603e-05 -4.20401e-06 -0.00030515
0.00114572 0.000140423 3.56395e-07
0.000140423 -3.21086e-05 2.67091e-07
3.56395e-07 2.67091e-07 -0.000189827
0.00189573 0.000229782 7.00353e-07
0.000229782 0.000129825 -8.69441e-07
7.00353e-07 -8.69441e-07 -1.3295e-05
0.00654866 0.000235226 -0.000346023
0.000235226 0.00377743 -2.81645e-05
-0.000346023 -2.81645e-05 0.00378605
0.000395733 7.60626e-05 6.55596e-07
7.60626e-05 -0.000216573 2.50188e-07
6.55596e-07 2.50188e-07 -0.00031553
0.00110491 0.00018189 1.16394e-05
0.00018189 -6.16109e-05 3.45582e-06
1.16394e-05 3.45582e-06 -0.00023286
0.00676636 0.000296654 5.69515e-06
0.000296654 0.0039191 3.42768e-06
5.69515e-06 3.42768e-06 0.00391799
0.000395669 0.00010317 1.78195e-05
0.00010317 -0.000214612 9.27328e-06
1.78195e-05 9.27328e-06 -0.000318825
0.00694284 0.000326238 0.000337323
0.000326238 0.00403416 4.34538e-05
0.000337323 4.34538e-05 0.00402573
0.00107106 2.60243e-05 -1.23646e-05
2.60243e-05 -5.83377e-05 -6.33715e-07
-1.23646e-05 -6.33715e-07 -0.000189203
0.00185099 4.64068e-05 3.14843e-06
4.64068e-05 9.20663e-05 2.45808e-08
3.14843e-06 2.45808e-08 -6.03476e-06
0.00200915 5.51306e-05 -1.95139e-07
5.51306e-05 8.87308e-05 4.94795e-07
-1.95139e-07 4.94795e-07 2.56313e-05
0.000455051 3.19964e-05 -1.96868e-05
3.19964e-05 -0.000180773 -9.07809e-07
-1.96868e-05 -9.07809e-07 -0.000255435
0.00106169 -4.95899e-06 -3.05039e-08
-4.95899e-06 -7.11512e-05 3.80264e-08
-3.05039e-08 3.80264e-08 -0.000194827
0.00191632 4.33479e-06 4.33635e-06
4.33479e-06 0.000136198 1.48815e-07
4.33635e-06 1.48815e-07 3.93719e-05
0.00108107 -2.92497e-05 1.23076e-05
-2.92497e-05 -6.9203e-05 -4.81389e-07
1.23076e-05 -4.81389e-07 -0.000195041
0.00041451 -5.8259e-06 4.44131e-07
-5.8259e-06 -0.000198254 3.76953e-07
4.44131e-07 3.76953e-07 -0.000281239
0.0061433 1.42086e-05 -0.000323759
1.42086e-05 0.0035104 1.60807e-06
-0.000323759 1.60807e-06 0.00353781
0.000372857 1.42744e-05 1.8073e-05
1.42744e-05 -0.000228191 -1.06259e-06
1.8073e-05 -1.06259e-06 -0.000312127
0.00620335 -0.000119319 -7.84999e-06
-0.000119319 0.00355697 2.00985e-06
-7.84999e-06 2.00985e-06 0.00357674
0.0062509 -2.78492e-05 0.00030695
-2.78492e-05 0.00357396 -7.80223e-06
0.00030695 -7.80223e-06 0.00359888
0.00112423 5.43238e-05 -1.22481e-05
5.43238e-05 -3.13631e-05 -1.17222e-06
-1.22481e-05 -1.17222e-06 -0.00016637
0.00186676 0.000102075 -3.3661e-07
0.000102075 9.73669e-05 -4.0725e-07
-3.3661e-07 -4.0725e-07 -1.03158e-05
0.00195728 0.00012454 -1.3272e-06
0.00012454 2.33419e-05 -8.67755e-07
-1.3272e-06 -8.67755e-07 -3.77595e-05
0.00269825 6.46646e-05 -0.000149291
6.46646e-05 0.00122911 -5.43383e-06
-0.000149291 -5.43383e-06 0.00117592
0.00111158 9.31714e-05 3.03804e-07
9.31714e-05 -4.78948e-05 1.52605e-07
3.03804e-07 1.52605e-07 -0.000192612
0.00189361 0.000164663 7.00364e-07
0.000164663 0.000120107 -1.17269e-06
7.00364e-07 -1.17269e-06 -4.33679e-06
0.00637439 0.000170675 -0.000343414
0.000170675 0.00366322 -2.00996e-05
-0.000343414 -2.00996e-05 0.00368094
0.000419738 6.69329e-05 9.46092e-07
6.69329e-05 -0.000197883 4.46633e-07
9.46092e-07 4.46633e-07 -0.000293634
0.00111598 0.000141902 1.25994e-05
0.000141902 -5.17683e-05 2.42544e-06
1.25994e-05 2.42544e-06 -0.000210653
0.00664565 0.000251291 9.93818e-07
0.000251291 0.00383924 1.60087e-06
9.93818e-07 1.60087e-06 0.00384649
0.000421078 8.43604e-05 1.8114e-05
8.43604e-05 -0.000198927 7.11245e-06
1.8114e-05 7.11245e-06 -0.000299915
0.00682679 0.000332123 0.000346826
0.000332123 0.00397012 4.2986e-05
0.000346826 4.2986e-05 0.00396196
0.000534585 1.20745e-05 -1.56286e-05
1.20745e-05 -0.000120819 -2.05852e-06
-1.56286e-05 -2.05852e-06 -0.000204834
0.00105537 2.55474e-05 1.62709e-07
2.55474e-05 -7.26823e-05 2.10555e-07
1.62709e-07 2.10555e-07 -0.000201098
0.00188312 4.28651e-05 4.08331e-06
4.28651e-05 0.000111346 -6.58055e-08
4.08331e-06 -6.58055e-08 1.66475e-05
0.00597628 -0.000102322 -0.000305954
-0.000102322 0.00342472 4.02468e-06
-0.000305954 4.02468e-06 0.00344101
0.000412085 9.58631e-06 -5.8753e-07
9.58631e-06 -0.000203233 -1.14704e-07
-5.8753e-07 -1.14704e-07 -0.000280555
0.00105659 -6.62726e-07 1.22474e-05
-6.62726e-07 -7.68621e-05 2.22512e-08
1.22474e-05 2.22512e-08 -0.000200493
0.000370393 2.08355e-05 1.83701e-05
2.08355e-05 -0.000227355 4.01159e-07
1.83701e-05 4.01159e-07 -0.000309121
0.00608184 -2.12887e-05 1.94186e-06
-2.12887e-05 0.00347842 -1.63891e-06
1.94186e-06 -1.63891e-06 0.00350109
0.00619091 -4.17186e-05 0.000312449
-4.17186e-05 0.00353717 -5.46122e-06
0.000312449 -5.46122e-06 0.00356304
0.00278152 1.71174e-05 -0.000143213
1.71174e-05 0.00128058 -3.09653e-06
-0.000143213 -3.09653e-06 0.00123126
0.00109895 5.74651e-05 8.54374e-08
5.74651e-05 -4.87367e-05 -3.70452e-08
8.54374e-08 -3.70452e-08 -0.000184483
0.00190865 9.93796e-05 1.12145e-06
9.93796e-05 0.00012381 -7.89579e-07
1.12145e-06 -7.89579e-07 2.07796e-05
0.0058588 -3.26845e-05 -0.000135288
-3.26845e-05 0.00335368 2.46304e-07
-0.000135288 2.46304e-07 0.00334248
0.000432559 5.92071e-05 1.909e-07
5.92071e-05 -0.000188206 2.66192e-07
1.909e-07 2.66192e-07 -0.000277861
0.00108515 9.54038e-05 1.21589e-05
9.54038e-05 -6.57008e-05 1.62007e-06
1.21589e-05 1.62007e-06 -0.000211329
0.00646601 0.000147355 -1.06265e-05
0.000147355 0.00371459 -1.80845e-06
-1.06265e-05 -1.80845e-06 0.00373357
0.000449701 9.00765e-05 1.96218e-05
9.00765e-05 -0.000178567 5.87653e-06
1.96218e-05 5.87653e-06 -0.000275454
0.00671647 0.000275467 0.000353627
0.000275467 0.00388959 3.63971e-05
0.000353627 3.63971e-05 0.00389416
0.00180694 -5.38636e-05 -0.000242589
-5.38636e-05 0.000778606 1.33542e-06
-0.000242589 1.33542e-06 0.00077844
0.00159468 3.16904e-05 -6.15558e-05
3.16904e-05 0.000535892 9.02798e-08
-6.15558e-05 9.02798e-08 0.000474547
0.00103737 2.7686e-05 1.26947e-05
2.7686e-05 -8.79306e-05 6.99156e-07
1.26947e-05 6.99156e-07 -0.000213966
0.00605475 -4.90365e-05 6.80898e-06
-4.90365e-05 0.003467 2.68272e-06
6.80898e-06 2.68272e-06 0.00348888
0.000429794 -1.15433e-05 1.90126e-05
-1.15433e-05 -0.00018569 8.86825e-07
1.90126e-05 8.86825e-07 -0.000266966
0.00612085 -8.42018e-05 0.000324611
-8.42018e-05 0.00350669 -5.0979e-06
0.000324611 -5.0979e-06 0.003529
0.00137095 2.287e-05 -6.34984e-05
2.287e-05 0.000533231 -1.17712e-06
-6.34984e-05 -1.17712e-06 0.000494149
0.00158693 1.9454e-05 -6.2522e-05
1.9454e-05 0.000533092 -1.45461e-06
-6.2522e-05 -1.45461e-06 0.000467067
0.00106351 5.90868e-05 1.2202e-05
5.90868e-05 -7.22493e-05 1.08952e-06
1.2202e-05 1.08952e-06 -0.000208757
0.00386238 6.97847e-05 0.000121625
6.97847e-05 0.00208316 3.6933e-06
0.000121625 3.6933e-06 0.00207586
0.000441027 6.93945e-05 1.98462e-05
6.93945e-05 -0.000182827 4.54396e-06
1.98462e-05 4.54396e-06 -0.000272432
0.00654738 0.000134966 0.000337087
0.000134966 0.00375718 2.1821e-05
0.000337087 2.1821e-05 0.00378003
0.00601109 -1.98145e-05 -8.83641e-06
-1.98145e-05 0.00344295 -3.24721e-06
-8.83641e-06 -3.24721e-06 0.00346354
0.000424516 5.06471e-05 2.06423e-05
5.06471e-05 -0.000200585 2.61282e-06
2.06423e-05 2.61282e-06 -0.000274897
0.00596796 3.61587e-05 0.000312778
3.61587e-05 0.0034083 2.25388e-07
0.000312778 2.25388e-07 0.00343393
0.00373572 3.28878e-05 0.000133034
3.28878e-05 0.00200927 5.25679e-06
0.000133034 5.25679e-06 0.00200419
0.00045612 9.4734e-06 1.90461e-05
9.4734e-06 -0.000172692 2.73171e-06
1.90461e-05 2.73171e-06 -0.00025603
0.00631693 3.39158e-06 0.000322976
3.39158e-06 0.00361508 9.73899e-06
0.000322976 9.73899e-06 0.00363985
0.00606809 -0.000117721 0.000311263
-0.000117721 0.00348244 -4.28223e-06
0.000311263 -4.28223e-06 0.00349873
0.00610261 1.07409e-05 0.000314699
1.07409e-05 0.00348238 5.65289e-06
0.000314699 5.65289e-06 0.00351017
