# vtk DataFile Version 2.0
Wound Healing Simulation
ASCII
DATASET UNSTRUCTURED_GRID
POINTS 3012 float
69.9759 18.75 4
67.2507 60.3285 4
69.976 18.75 2
73.0099 25.446 4
71.1327 20.9142 4
68.6801 16.6661 4
67.8267 19.926 3.98503
67.2507 60.3286 2
71.1327 54.0858 4
68.6801 58.3339 4
65.6939 62.2254 4
65.3134 59.0025 3.98614
74.6784 42.3946 4
73.7221 47.2057 4
69.9759 18.75 0
73.0099 25.446 2
68.6801 16.6661 2
71.1327 20.9142 2
67.8272 19.9284 2
74.6792 32.6053 4
73.7222 27.7943 4
72.1454 23.1494 4
70.6151 26.2215 3.98479
68.8868 21.9586 3.98503
67.2507 14.6715 4
66.6384 17.9709 3.98558
65.7998 21.0244 3.97762
67.2507 60.3285 0
71.1327 54.0858 2
68.6801 58.3339 2
65.694 62.2255 2
65.3145 59.0006 2
72.1454 51.8506 4
69.9759 56.25 4
68.8373 53.1128 3.98416
64.0165 64.0165 4
66.6119 57.1347 3.9857
63.887 60.7674 3.98786
63.5031 57.7748 3.98011
60.3285 67.2507 4
74.6792 42.3947 2
73.7222 47.2057 2
74.9194 39.9526 4
74.2788 44.8158 4
72.1686 42.0857 3.98286
73.0099 49.554 4
71.2501 46.5982 3.98383
73.0099 25.446 0
71.1327 20.9142 0
68.6801 16.6661 0
67.8267 19.926 0.0149655
74.6792 32.6053 2
73.7222 27.7943 2
67.2508 14.6715 2
72.1455 23.1494 2
70.6151 26.2221 2
66.6393 17.9732 2
68.8871 21.9606 2
65.7995 21.0244 2
74.9197 35.0474 4
74.2794 30.1841 4
72.1853 32.9433 3.98331
71.279 28.4316 3.98434
69.8165 24.0604 3.98495
68.349 26.9512 3.9757
66.7648 22.9331 3.9765
65.694 12.7746 4
65.3251 16.1019 3.98695
64.7169 19.1926 3.97919
63.8898 22.0341 3.97348
71.1327 54.0858 0
65.6939 62.2254 0
68.6801 58.3339 0
65.3134 59.0025 0.0138556
72.1455 51.8506 2
69.9759 56.25 2
68.8376 53.1106 2
64.0165 64.0165 2
66.6128 57.1321 2
63.888 60.7663 2
63.5033 57.7757 2
62.2254 65.694 4
58.8952 65.415 3.99239
69.7697 50.9886 3.9841
67.7847 55.1675 3.9847
66.6512 52.2097 3.97542
62.3372 62.4286 3.98991
64.6638 56.0338 3.97942
62.2051 59.4082 3.98134
61.8264 56.6854 3.97645
58.3339 68.6801 4
60.3285 67.2508 2
73.7221 47.2057 0
74.6784 42.3946 0
74.9197 39.9526 2
74.2794 44.8159 2
72.1684 42.0857 2
73.0099 49.554 2
71.2501 46.5978 2
75 37.5 4
72.4058 39.8023 3.98275
71.7832 44.3531 3.98349
69.8051 41.79 3.97364
70.5759 48.8134 3.98389
68.9142 46.0155 3.97474
74.6792 32.6053 0
73.7222 27.7943 0
67.2507 14.6715 0
72.1454 23.1494 0
70.6151 26.2215 0.0152119
68.8868 21.9586 0.0149668
66.6384 17.9709 0.0144204
65.7998 21.0244 0.0223803
74.9197 35.0474 2
74.2794 30.1841 2
72.1851 32.9434 2
71.2791 28.4318 2
65.694 12.7745 2
65.3261 16.1033 2
69.8167 24.0616 2
68.3489 26.9514 2
64.7169 19.192 2
66.7645 22.9333 2
63.8895 22.0337 2
72.4136 35.2242 3.98275
71.8045 30.6763 3.98366
69.8413 33.2681 3.97431
68.9682 29.0378 3.97544
67.6133 24.912 3.97585
66.1969 27.6337 3.97224
64.0165 10.9835 4
64.7587 23.8294 3.97275
63.8913 14.3255 3.98847
63.5165 17.443 3.98134
62.9105 20.3177 3.9747
62.0945 22.9421 3.97118
60.6848 11.0964 3.99067
57.6131 11.4434 3.98486
72.1454 51.8506 0
69.9759 56.25 0
68.8373 53.1128 0.0158374
64.0165 64.0165 0
63.887 60.7674 0.0121365
66.6119 57.1347 0.0143042
63.5031 57.7748 0.019887
62.2255 65.694 2
58.8957 65.4149 2
69.7699 50.9872 2
67.7853 55.1649 2
66.6509 52.2093 2
62.3381 62.4281 2
64.6638 56.0343 2
62.2053 59.4093 2
61.8266 56.6864 2
60.6697 63.978 3.99133
57.0259 66.7358 3.99303
57.559 63.6949 3.98654
67.5091 50.1772 3.97473
65.7042 54.1743 3.97689
64.5389 51.3863 3.97127
60.7747 60.9418 3.98299
62.8236 55.0712 3.976
60.6611 58.1646 3.97728
60.3309 55.79 3.97553
56.25 69.9759 4
58.3339 68.6801 2
60.3285 67.2507 0
58.922 9.65474 3.99155
62.2254 9.30607 4
73.0099 49.554 0
74.2788 44.8158 0
71.2501 46.5982 0.0161739
72.1686 42.0857 0.0171379
74.9194 39.9526 0
75 37.5 2
72.4057 39.8024 2
71.7832 44.3527 2
69.8049 41.7898 2
70.576 48.8126 2
68.9142 46.0152 2
72.4891 37.5121 3.98256
70.042 39.6575 3.97323
69.432 43.9081 3.97438
67.5983 41.4982 3.97015
68.2675 48.1077 3.97448
66.712 45.4412 3.97133
74.9197 35.0474 0
74.2794 30.1841 0
72.1853 32.9433 0.0166942
71.279 28.4316 0.0156558
65.694 12.7746 0
65.3251 16.1019 0.0130506
69.8165 24.0604 0.0150523
68.349 26.9512 0.0242989
66.7648 22.9331 0.0234995
64.7169 19.1926 0.0208089
63.8898 22.0341 0.0265228
72.4135 35.2241 2
71.8046 30.6765 2
69.8411 33.2683 2
68.9683 29.0379 2
64.0165 10.9835 2
63.8922 14.3264 2
63.5167 17.442 2
67.6131 24.9123 2
66.1968 27.6337 2
62.9106 20.3169 2
64.7584 23.8293 2
62.0944 22.9419 2
60.6854 11.0969 2
57.6133 11.4427 2
70.0586 35.3918 3.97337
69.4685 31.1492 3.97452
67.6568 33.5903 3.97094
66.7745 29.6218 3.97158
65.526 25.6987 3.97237
64.1484 28.2544 3.9713
62.3426 12.6536 3.98961
62.8581 24.6366 3.97114
62.2015 15.7803 3.98277
61.8176 18.6802 3.97706
61.2201 21.3394 3.97192
60.4256 23.7271 3.97057
59.2473 12.7749 3.98332
55.875 10.2301 3.98639
56.4061 13.1081 3.98156
69.7697 50.9886 0.0159015
62.2254 65.694 0
58.8952 65.415 0.00761365
67.7847 55.1675 0.0152974
66.6512 52.2097 0.024584
62.3372 62.4286 0.0100881
62.2051 59.4082 0.0186615
64.6638 56.0338 0.0205756
61.8264 56.6854 0.0235469
60.6703 63.9776 2
57.0263 66.7359 2
57.5591 63.696 2
67.5089 50.1767 2
65.704 54.1743 2
64.5387 51.3863 2
60.7749 60.9429 2
62.8237 55.072 2
60.6614 58.1657 2
60.3313 55.7907 2
55.0713 67.9328 3.99326
59.2205 62.3697 3.98413
55.8058 64.9128 3.98863
56.3281 62.095 3.98276
65.333 49.4093 3.97079
63.7078 53.2938 3.97234
62.4415 50.6534 3.96923
59.3353 59.5623 3.9801
61.0796 54.3125 3.97488
59.2916 57.0171 3.97409
59.2446 55.1863 3.97685
48.1038 68.5804 3.98964
50.9489 69.9324 3.99354
54.0858 71.1327 4
56.25 69.976 2
58.3339 68.6801 0
57.0592 8.33486 3.99186
60.3285 7.74928 4
58.9225 9.65502 2
62.2255 9.30602 2
70.5759 48.8134 0.0161073
71.7832 44.3531 0.0165058
68.9142 46.0155 0.0252615
69.8051 41.79 0.0263612
72.4058 39.8023 0.0172529
75 37.5 0
72.4889 37.5121 2
70.0419 39.6574 2
69.432 43.9079 2
67.5981 41.4981 2
68.2675 48.1073 2
66.7119 45.4412 2
70.13 37.5215 3.97333
67.8351 39.5126 3.96986
67.2254 43.471 3.97071
65.5567 41.2105 3.96993
66.0702 47.4191 3.97094
64.6544 44.8497 3.97043
72.4136 35.2242 0.0172473
71.8045 30.6763 0.0163444
69.8413 33.2681 0.025691
68.9682 29.0378 0.024559
64.0165 10.9835 0
63.8913 14.3255 0.0115333
63.5165 17.443 0.0186591
67.6133 24.912 0.0241499
66.1969 27.6337 0.0277584
64.7587 23.8294 0.0272512
62.9105 20.3177 0.0252974
62.0945 22.9421 0.0288181
60.6848 11.0964 0.00933432
57.6131 11.4434 0.0151388
70.0586 35.392 2
69.4686 31.1493 2
67.6567 33.5903 2
66.7746 29.6217 2
62.3433 12.6543 2
62.2015 15.7795 2
61.8178 18.679 2
65.5258 25.6986 2
64.1484 28.2543 2
61.2203 21.3388 2
62.8579 24.6365 2
60.4256 23.7269 2
59.2474 12.7743 2
56.406 13.1071 2
55.8751 10.2293 2
67.8711 35.5472 3.97002
67.2667 31.6218 3.97078
65.699 33.9267 3.97039
64.6649 30.1909 3.97039
63.5395 26.4134 3.9713
62.2593 28.7766 3.97184
60.7768 14.2195 3.98306
61.0449 25.3371 3.97113
60.6159 17.1224 3.97977
60.2254 19.8126 3.97399
59.6616 22.2573 3.97012
58.9762 24.32 3.97206
54.0381 9.13328 3.98718
57.9115 14.3269 3.98141
54.7873 12.0073 3.98297
55.3132 14.6404 3.98011
67.5091 50.1772 0.025267
57.0259 66.7358 0.00697116
60.6697 63.978 0.0086715
57.559 63.6949 0.0134614
65.7042 54.1743 0.0231146
64.5389 51.3863 0.028733
60.7747 60.9418 0.0170065
60.6611 58.1646 0.022723
62.8236 55.0712 0.023999
60.3309 55.79 0.0244695
55.0716 67.9329 2
59.2206 62.3708 2
55.8057 64.9137 2
56.3281 62.0963 2
65.3329 49.4093 2
63.7077 53.2943 2
62.4413 50.6534 2
59.3356 59.5637 2
61.0799 54.3131 2
59.2921 57.0179 2
59.2451 55.1866 2
53.0431 69.0006 3.99346
53.9681 66.015 3.98929
57.882 60.8749 3.98145
54.6849 63.2122 3.9848
55.2124 60.622 3.9809
63.1945 48.6624 3.96926
61.7413 52.5766 3.97004
60.271 50.0202 3.96865
58.0199 58.2663 3.9765
59.3284 53.9493 3.9741
58.128 55.8143 3.97226
50.1105 67.8584 3.9896
47.4642 66.5843 3.9872
46.0573 69.1598 3.98968
48.1037 68.5809 2
48.803 70.7237 3.99363
50.9492 69.9326 2
51.8506 72.1454 4
54.0858 71.1327 2
56.25 69.9759 0
55.1035 7.13941 3.99216
58.3339 6.31992 4
57.0596 8.33489 2
60.3286 7.74926 2
58.922 9.65474 0.00845247
62.2254 9.30607 0
68.2675 48.1077 0.025521
69.432 43.9081 0.0256224
66.712 45.4412 0.0286708
67.5983 41.4982 0.0298454
70.042 39.6575 0.0267703
72.4891 37.5121 0.0174382
70.1299 37.5215 2
67.8351 39.5126 2
67.2253 43.4709 2
65.5565 41.2105 2
66.0701 47.419 2
64.6544 44.8497 2
67.9314 37.522 3.9699
65.7872 39.3706 3.96979
65.1776 43.0263 3.97009
63.7489 40.9303 3.97125
63.9666 46.718 3.96983
62.8091 44.2177 3.9716
70.0586 35.3918 0.026629
69.4685 31.1492 0.0254751
67.6568 33.5903 0.0290558
66.7745 29.6218 0.0284235
62.3426 12.6536 0.0103942
62.2015 15.7803 0.0172321
61.8176 18.6802 0.0229417
65.526 25.6987 0.0276316
64.1484 28.2544 0.0286958
62.8581 24.6366 0.0288581
61.2201 21.3394 0.028077
60.4256 23.7271 0.029434
59.2473 12.7749 0.0166801
56.4061 13.1081 0.0184383
55.875 10.2301 0.0136148
67.871 35.5472 2
67.2668 31.6217 2
65.6989 33.9266 2
64.665 30.1908 2
60.7769 14.2188 2
60.6159 17.1213 2
60.2259 19.8116 2
63.5394 26.4133 2
62.2593 28.7765 2
59.6619 22.2569 2
61.0447 25.3371 2
58.9762 24.3202 2
57.9113 14.3261 2
55.313 14.6395 2
54.0381 9.13256 2
54.7873 12.0063 2
65.8763 35.6665 3.96968
65.1871 32.1535 3.96982
64.2815 34.2494 3.97078
62.5956 30.6348 3.97105
61.6521 27.0712 3.9713
60.8501 29.1393 3.97329
59.3125 15.6637 3.98107
59.3275 25.7958 3.97234
59.1261 18.3505 3.9777
58.7407 20.8519 3.97078
58.2828 23.0925 3.96973
57.9641 24.6644 3.97243
52.1127 8.15154 3.98782
53.0583 11.0135 3.98388
56.6776 15.7369 3.98055
53.8099 13.6753 3.98133
54.3768 15.9928 3.98008
55.0713 67.9328 0.00673764
65.333 49.4093 0.0292073
55.8058 64.9128 0.0113685
59.2205 62.3697 0.0158689
56.3281 62.095 0.0172429
63.7078 53.2938 0.0276615
62.4415 50.6534 0.0307675
59.3353 59.5623 0.0198978
59.2916 57.0171 0.0259146
61.0796 54.3125 0.0251192
59.2446 55.1863 0.0231484
53.0434 69.0008 2
53.968 66.0157 2
57.8821 60.8762 2
54.6848 63.2134 2
55.2125 60.6235 2
63.1944 48.6624 2
61.7414 52.577 2
60.2708 50.0202 2
58.0205 58.2677 2
59.329 53.9495 2
58.1286 55.8142 2
52.0716 67.0015 3.98952
52.9543 64.2227 3.98639
56.6496 59.4942 3.97966
53.6821 61.6284 3.98265
54.2611 59.3275 3.9787
60.9881 47.8815 3.96913
59.7067 52.1056 3.96988
58.0172 49.617 3.97016
56.7779 56.9914 3.97384
57.1199 54.1215 3.97202
50.1104 67.859 2
49.338 65.9246 3.98724
47.464 66.5849 2
46.8933 64.7409 3.98587
45.5591 67.1015 3.98699
43.9741 69.5921 3.98955
46.0573 69.1602 2
46.6096 71.3681 3.99366
48.1038 68.5804 0.010358
48.8033 70.7239 2
49.554 73.0099 4
50.9489 69.9324 0.00645736
51.8506 72.1455 2
54.0858 71.1327 0
53.0646 6.07084 3.99243
55.1039 7.13934 2
56.25 5.02411 4
58.3339 6.3199 2
57.0592 8.33486 0.00813748
60.3285 7.74928 0
66.0702 47.4191 0.0290617
67.2254 43.471 0.0292909
64.6544 44.8497 0.029565
65.5567 41.2105 0.0300667
67.8351 39.5126 0.0301424
70.13 37.5215 0.0266674
67.9313 37.522 2
65.7871 39.3706 2
65.1775 43.0263 2
63.7489 40.9303 2
63.9665 46.7179 2
62.8089 44.2176 2
65.8902 37.5018 3.96964
63.8839 39.2672 3.97091
63.3253 42.5511 3.97126
62.4133 40.6986 3.97269
61.9681 45.9205 3.97091
61.4455 43.6849 3.97341
67.8711 35.5472 0.0299844
67.2667 31.6218 0.0292201
65.699 33.9267 0.029609
64.6649 30.1909 0.029611
60.7768 14.2195 0.0169449
60.6159 17.1224 0.0202289
60.2254 19.8126 0.0260084
63.5395 26.4134 0.0287042
62.2593 28.7766 0.0281551
61.0449 25.3371 0.0288748
59.6616 22.2573 0.0298788
58.9762 24.32 0.027938
57.9115 14.3269 0.018594
55.3132 14.6404 0.0198866
54.0381 9.13328 0.0128192
54.7873 12.0073 0.0170304
65.8763 35.6664 2
65.1871 32.1534 2
64.2816 34.2493 2
62.5957 30.6347 2
59.3124 15.6627 2
59.1264 18.3494 2
58.7413 20.8511 2
61.6519 27.0712 2
60.8502 29.1393 2
58.2831 23.0928 2
59.3277 25.796 2
57.9641 24.6647 2
56.6774 15.7359 2
54.3765 15.9919 2
53.8098 13.6742 2
52.1127 8.15094 2
53.0583 11.0126 2
64.0801 35.6322 3.97061
62.923 33.0459 3.97108
60.6112 30.611 3.97311
59.5665 27.9094 3.97291
57.941 16.9779 3.98005
57.7327 25.7256 3.97357
57.7159 19.4722 3.97531
57.3685 21.8409 3.96867
57.181 23.9479 3.97163
50.1128 7.28333 3.98833
51.2328 10.1215 3.98478
52.1722 12.7926 3.9825
55.5382 16.9666 3.98019
52.9777 15.2578 3.97939
53.7584 16.9749 3.98051
53.0431 69.0006 0.00653784
53.9681 66.015 0.010714
63.1945 48.6624 0.0307396
54.6849 63.2122 0.0152015
57.882 60.8749 0.0185531
55.2124 60.622 0.0191002
61.7413 52.5766 0.0299644
60.271 50.0202 0.0313536
58.0199 58.2663 0.0235026
58.128 55.8143 0.0277373
59.3284 53.9493 0.0258978
52.0715 67.0021 2
52.9541 64.2237 2
56.6497 59.4957 2
53.682 61.6297 2
54.2611 59.3291 2
60.9878 47.8814 2
59.707 52.1057 2
58.0166 49.6167 2
56.7781 56.9945 2
57.1206 54.1215 2
51.1689 65.1317 3.987
52.0471 62.5443 3.98445
55.4818 58.255 3.97858
52.8352 60.1417 3.98054
53.6405 58.4774 3.98003
58.2946 46.8497 3.97316
57.5538 51.7852 3.96987
56.2338 49.553 3.97297
55.4714 55.7903 3.97145
55.3518 53.3785 3.96962
50.1105 67.8584 0.0103997
49.3378 65.9253 2
48.619 64.1275 3.98575
47.4642 66.5843 0.0127992
45.559 67.1021 2
46.893 64.7415 2
46.3827 63.0592 3.98495
45.1335 65.202 3.98582
43.6321 67.4721 3.98697
41.8611 69.8794 3.98933
43.9742 69.5926 2
44.3769 71.8629 3.99354
46.0573 69.1598 0.0103241
46.6099 71.3684 2
47.2057 73.7222 4
48.803 70.7237 0.00636635
49.554 73.0099 2
51.8506 72.1454 0
50.9543 5.13111 3.99274
53.0649 6.07072 2
54.0858 3.86728 4
55.1035 7.13941 0.00784127
56.25 5.02406 2
58.3339 6.31992 0
63.9666 46.718 0.030169
65.1776 43.0263 0.029907
62.8091 44.2177 0.028405
63.7489 40.9303 0.0287513
65.7872 39.3706 0.0302114
67.9314 37.522 0.0300966
65.8901 37.5018 2
63.8838 39.2671 2
63.3252 42.5511 2
62.4134 40.6986 2
61.9677 45.9204 2
61.445 43.6848 2
63.9454 37.4572 3.97083
62.1278 39.3556 3.97213
61.1979 41.9595 3.97321
60.2482 44.7722 3.97394
65.8763 35.6665 0.0303234
65.1871 32.1535 0.0301799
64.2815 34.2494 0.0292246
62.5956 30.6348 0.0289494
59.3125 15.6637 0.0189345
59.1261 18.3505 0.0223049
58.7407 20.8519 0.0292242
61.6521 27.0712 0.0286965
60.8501 29.1393 0.0267124
59.3275 25.7958 0.0276578
58.2828 23.0925 0.030273
57.9641 24.6644 0.0275749
56.6776 15.7369 0.0194544
54.3768 15.9928 0.0199165
53.8099 13.6753 0.0186701
52.1127 8.15154 0.0121754
53.0583 11.0135 0.0161215
64.0802 35.6321 2
62.9231 33.0458 2
60.6114 30.6111 2
57.941 16.9769 2
57.7165 19.471 2
57.3693 21.8413 2
59.5668 27.9095 2
57.1811 23.9484 2
57.7331 25.7259 2
50.1127 7.28276 2
55.538 16.9656 2
53.7582 16.9738 2
52.9776 15.2567 2
52.1721 12.7916 2
51.2327 10.1208 2
62.1633 35.3595 3.9717
60.2707 32.7452 3.97301
58.6109 30.0752 3.97448
57.2749 27.3815 3.97453
56.637 18.1512 3.9797
56.283 25.1013 3.97263
56.356 20.5204 3.97115
56.1032 22.8732 3.96752
48.0565 6.52634 3.9888
49.3247 9.32914 3.98529
50.4333 11.9903 3.983
51.3777 14.4933 3.98121
54.415 17.9157 3.98092
52.3607 17.031 3.97871
52.0716 67.0015 0.0104841
52.9543 64.2227 0.0136121
60.9881 47.8815 0.0308698
53.6821 61.6284 0.0173497
56.6496 59.4942 0.0203427
54.2611 59.3275 0.0213009
59.7067 52.1056 0.030123
58.0172 49.617 0.0298429
56.7779 56.9914 0.0261552
57.1199 54.1215 0.0279801
51.1686 65.1324 2
52.0469 62.5454 2
55.4818 58.2567 2
52.8352 60.143 2
53.6406 58.4789 2
58.2946 46.8495 2
57.5542 51.785 2
56.2334 49.5525 2
55.4723 55.7912 2
55.3527 53.3788 2
50.3472 63.3858 3.98524
51.2449 60.9418 3.98213
54.2193 57.2715 3.97864
52.313 58.6402 3.97843
56.6846 44.1834 3.97659
55.476 47.8955 3.97491
55.0584 51.3844 3.96996
54.0002 54.5376 3.96986
49.338 65.9246 0.0127617
48.6188 64.1282 2
47.9629 62.4805 3.98463
45.5591 67.1015 0.013008
46.8933 64.7409 0.0141264
43.6319 67.4727 2
46.3825 63.06 2
45.1332 65.2027 2
45.9883 61.5924 3.98434
44.7679 63.46 3.98525
43.3573 65.5115 3.98571
41.6639 67.6908 3.98683
39.7026 70.0266 3.98924
41.8612 69.88 2
42.1112 72.2077 3.99338
43.9741 69.5921 0.0104499
44.3771 71.8632 2
44.8159 74.2794 4
46.6096 71.3681 0.00634228
47.2057 73.7222 2
49.554 73.0099 0
48.7847 4.32206 3.993
50.9546 5.13093 2
51.8506 2.85458 4
53.0646 6.07084 0.00756538
54.0858 3.86728 2
56.25 5.02411 0
61.9681 45.9205 0.0290945
63.3253 42.5511 0.0287404
61.4455 43.6849 0.0265887
62.4133 40.6986 0.027313
63.8839 39.2672 0.0290932
65.8902 37.5018 0.0303631
63.9452 37.4571 2
62.1277 39.3556 2
61.1977 41.9594 2
60.2477 44.7721 2
61.9617 37.4449 3.97199
60.2134 39.8479 3.97399
58.9652 42.9194 3.97494
64.0801 35.6322 0.0293929
62.923 33.0459 0.028919
60.6112 30.611 0.026886
57.941 16.9779 0.0199518
57.7159 19.4722 0.0246877
57.3685 21.8409 0.0313333
59.5665 27.9094 0.0270851
57.7327 25.7256 0.0264288
57.181 23.9479 0.0283694
55.5382 16.9666 0.0198133
53.7584 16.9749 0.0194941
52.9777 15.2578 0.020607
50.1128 7.28333 0.011668
52.1722 12.7926 0.0174964
51.2328 10.1215 0.0152242
62.1631 35.3595 2
60.271 32.7452 2
58.6103 30.0754 2
56.6372 18.1499 2
56.3565 20.518 2
56.1037 22.8738 2
57.2758 27.3816 2
56.2831 25.1021 2
48.0565 6.52579 2
49.3245 9.32858 2
54.4149 17.9146 2
52.3605 17.0301 2
51.3775 14.4922 2
50.4332 11.9895 2
59.8528 35.1198 3.97312
57.9691 32.27 3.9759
56.5284 29.3404 3.97551
55.4298 26.5993 3.97491
55.3415 19.1851 3.97821
54.9196 24.0601 3.97067
54.9968 21.5652 3.96938
45.9623 5.88133 3.98919
43.3736 7.47185 3.98682
47.355 8.62271 3.98587
48.6001 11.2915 3.98355
49.7138 13.7401 3.98192
50.633 16.1278 3.97983
53.1238 18.6553 3.97703
51.3008 18.0444 3.98453
51.1689 65.1317 0.0130031
52.0471 62.5443 0.0155492
58.2946 46.8497 0.0268405
52.8352 60.1417 0.0194558
55.4818 58.255 0.0214215
53.6405 58.4774 0.0199697
57.5538 51.7852 0.030133
56.2338 49.553 0.0270285
55.4714 55.7903 0.02855
55.3518 53.3785 0.030377
50.3469 63.3865 2
51.2448 60.9429 2
54.2196 57.2731 2
52.3131 58.6414 2
56.6835 44.1832 2
55.4756 47.8949 2
55.0588 51.384 2
54.0012 54.5395 2
49.5926 61.7505 3.98399
55.5778 41.705 3.97728
50.5674 59.3345 3.9786
52.1836 56.4942 3.97435
54.1442 45.5623 3.97723
53.3107 49.3253 3.97297
52.6576 52.8398 3.96711
48.619 64.1275 0.014252
47.9627 62.4811 2
47.3302 61.0155 3.98391
43.6321 67.4721 0.0130261
45.1335 65.202 0.0141834
46.3827 63.0592 0.0150507
41.6638 67.6914 2
43.3571 65.5122 2
45.9883 61.5932 2
44.7677 63.4607 2
45.767 60.637 3.98329
44.4842 61.8418 3.98407
43.1471 63.7321 3.98484
41.5466 65.6491 3.98536
39.6328 67.7705 3.9866
37.5259 70.0517 3.98912
39.7026 70.0272 2
39.8179 72.4048 3.99327
41.8611 69.8794 0.0106712
42.1114 72.208 2
42.3947 74.6792 4
44.3769 71.8629 0.00645809
44.8159 74.2794 2
47.2057 73.7222 0
43.8516 5.35824 3.98945
46.5707 3.64657 3.99323
48.785 4.32184 2
49.554 1.99015 4
50.9543 5.13111 0.00725995
51.8506 2.85453 2
54.0858 3.86728 0
60.2482 44.7722 0.0260639
61.1979 41.9595 0.0267865
62.1278 39.3556 0.0278687
63.9454 37.4572 0.0291687
61.9614 37.4449 2
60.2133 39.8479 2
58.9647 42.9193 2
59.7063 37.5669 3.97299
57.9466 40.6578 3.97523
55.0362 39.721 3.97775
62.1633 35.3595 0.0282953
60.2707 32.7452 0.0269922
58.6109 30.0752 0.0255156
56.637 18.1512 0.020303
56.356 20.5204 0.0288524
56.1032 22.8732 0.0324841
57.2749 27.3815 0.0254671
56.283 25.1013 0.0273745
54.415 17.9157 0.0190837
52.3607 17.031 0.0212852
51.3777 14.4933 0.0187928
48.0565 6.52634 0.011197
49.3247 9.32914 0.0147125
50.4333 11.9903 0.0169973
59.8521 35.1198 2
45.9623 5.88083 2
43.3736 7.47141 2
57.971 32.2701 2
56.5276 29.3404 2
55.3417 19.1837 2
54.9976 21.5642 2
54.9197 24.0614 2
55.4262 26.6004 2
47.355 8.62207 2
48.5999 11.291 2
53.1239 18.6544 2
51.3007 18.0434 2
50.6328 16.1267 2
49.7136 13.7392 2
57.3423 34.7605 3.97643
55.7003 31.5207 3.97675
54.4639 28.4064 3.97781
53.7582 25.4993 3.97481
53.9667 20.135 3.97728
53.5716 22.7176 3.9661
41.3986 7.07714 3.98724
45.3596 7.99387 3.98634
42.8654 9.41421 3.985
46.6664 10.652 3.98394
47.7453 13.1 3.98244
48.9307 15.3987 3.98058
50.0051 17.6971 3.97979
51.648 19.3191 3.98729
50.3472 63.3858 0.0147559
51.2449 60.9418 0.0178671
56.6846 44.1834 0.0234137
55.476 47.8955 0.0250895
52.313 58.6402 0.0215664
54.2193 57.2715 0.0213643
55.0584 51.3844 0.0300392
54.0002 54.5376 0.0301362
49.5924 61.7512 2
55.578 41.7048 2
50.5674 59.3358 2
52.1842 56.4954 2
54.1472 45.5618 2
53.3128 49.3244 2
52.6591 52.8393 2
48.8497 60.2081 3.98253
52.4545 42.6382 3.97754
49.7891 57.6318 3.97776
50.5866 54.4269 3.97155
51.7599 47.2646 3.9758
51.1929 50.9371 3.96867
48.0833 43.8009 3.99264
47.9629 62.4805 0.0153674
47.33 61.016 2
46.6195 59.8022 3.98312
41.6639 67.6908 0.013169
43.3573 65.5115 0.0142887
44.7679 63.46 0.0147545
45.9883 61.5924 0.0156562
39.6328 67.7712 2
41.5464 65.6496 2
45.7669 60.6378 2
43.1469 63.7328 2
44.4841 61.8426 2
44.6242 60.2994 3.98331
42.9512 62.09 3.98411
41.6005 63.8254 3.98482
39.6479 65.6172 3.98492
37.5633 67.7528 3.98651
31.6964 65.136 3.98526
33.3918 67.4904 3.9865
35.333 69.9618 3.98912
37.5259 70.0523 2
37.5095 72.4594 3.99315
39.7026 70.0266 0.0107592
39.818 72.4052 2
39.9526 74.9197 4
42.1112 72.2077 0.00662306
42.3947 74.6792 2
44.8159 74.2794 0
41.7362 4.96748 3.98971
43.8516 5.35779 2
44.3259 3.10975 3.99343
46.5709 3.64632 2
47.2057 1.27793 4
48.7847 4.32206 0.00699785
49.554 1.99013 2
51.8506 2.85458 0
58.9652 42.9194 0.0250562
60.2134 39.8479 0.0260148
61.9617 37.4449 0.0280078
59.7062 37.5669 2
57.946 40.6576 2
55.036 39.7213 2
56.7538 37.8964 3.97636
49.4883 41.3356 3.98791
53.0561 39.3036 3.97839
39.442 6.8006 3.98728
59.8528 35.1198 0.0268781
57.9691 32.27 0.0241006
56.5284 29.3404 0.0244893
55.3415 19.1851 0.0217925
54.9968 21.5652 0.0306157
54.9196 24.0601 0.0293303
55.4298 26.5993 0.0250883
53.1238 18.6553 0.0229706
51.3008 18.0444 0.0154731
50.633 16.1278 0.020171
45.9623 5.88133 0.0108105
49.7138 13.7401 0.0180849
47.355 8.62271 0.0141279
48.6001 11.2915 0.0164528
43.3736 7.47185 0.0131819
57.3414 34.7605 2
41.3987 7.0766 2
45.3596 7.9934 2
42.8653 9.41375 2
55.6994 31.5207 2
54.4638 28.4075 2
53.9674 20.1342 2
53.5721 22.7148 2
53.7567 25.5004 2
46.6662 10.6513 2
47.7449 13.0994 2
51.6481 19.3181 2
50.0051 17.6961 2
48.9305 15.3978 2
54.8212 33.974 3.97755
53.4439 30.4896 3.97539
52.5589 27.203 3.97667
52.1289 24.102 3.97212
52.3848 21.054 3.98065
41.0134 9.04722 3.98498
44.7236 9.99458 3.98434
42.4684 10.9012 3.98373
46.0051 12.7283 3.98199
47.6812 14.5829 3.98167
48.1125 16.9879 3.97853
49.8164 19.6118 3.97593
49.5926 61.7505 0.0160124
50.5674 59.3345 0.0213978
55.5778 41.705 0.0227224
54.1442 45.5623 0.0227734
53.3107 49.3253 0.0270299
52.1836 56.4942 0.0256516
52.6576 52.8398 0.0328872
48.8495 60.2089 2
52.4562 42.6366 2
49.7893 57.6332 2
50.5876 54.4286 2
51.7602 47.2631 2
51.1951 50.9356 2
48.0855 43.8099 2
47.9874 58.7495 3.98054
50.024 45.2735 3.97718
48.5949 55.9225 3.97842
49.1156 52.5897 3.97184
49.6352 49.0422 3.97358
45.8913 39.8763 3.89733
46.3276 42.6834 3.94119
46.4282 45.8498 3.99408
43.7351 41.174 3.87315
41.974 42.0263 3.80972
47.3302 61.0155 0.0160897
46.6192 59.8028 2
45.4692 58.799 3.98357
39.6328 67.7705 0.0133976
41.5466 65.6491 0.0146441
43.1471 63.7321 0.0151604
44.4842 61.8418 0.0159254
45.767 60.637 0.0167132
41.6003 63.826 2
37.5632 67.7536 2
39.6477 65.6178 2
44.6242 60.3002 2
42.9511 62.0906 2
41.7541 62.5007 3.98416
42.4818 59.9915 3.98487
39.8939 63.5604 3.98426
37.6423 65.5161 3.98453
35.4632 67.6622 3.98646
33.5749 65.3492 3.98478
31.9587 63.3089 3.98447
29.8824 64.7272 3.98568
31.6965 65.1367 2
31.3762 67.2004 3.98664
33.3918 67.4912 2
33.1557 69.755 3.98911
35.333 69.9624 2
35.1947 72.3737 3.99313
37.5259 70.0517 0.0108794
37.5095 72.4597 2
37.5 75 4
39.8179 72.4048 0.00673233
39.9526 74.9197 2
42.3947 74.6792 0
39.6237 4.71455 3.98988
41.7362 4.96697 2
42.0622 2.71738 3.99351
43.8516 5.35824 0.010551
44.3261 3.10948 2
44.8158 0.721173 4
46.5707 3.64657 0.00677005
47.2057 1.27779 2
49.554 1.99015 0
57.9466 40.6578 0.0247742
59.7063 37.5669 0.0270115
55.0362 39.721 0.0222536
49.5011 41.3382 2
56.7532 37.8962 2
53.0559 39.305 2
53.9053 36.6284 3.97813
47.4148 40.4142 3.94405
50.4272 38.5124 3.98745
37.5158 6.67157 3.98745
39.4421 6.80005 2
39.2108 8.68973 3.98535
35.9413 8.48941 3.98565
57.3423 34.7605 0.0235657
55.7003 31.5207 0.0232496
54.4639 28.4064 0.0221886
53.9667 20.135 0.0227158
53.5716 22.7176 0.0339024
53.7582 25.4993 0.0251907
51.648 19.3191 0.0127126
50.0051 17.6971 0.020215
48.9307 15.3987 0.0194248
45.3596 7.99387 0.0136614
47.7453 13.1 0.0175569
46.6664 10.652 0.0160606
41.3986 7.07714 0.0127554
42.8654 9.41421 0.0150042
54.8227 33.9735 2
41.0133 9.04673 2
44.7234 9.99423 2
42.468 10.9007 2
53.4394 30.4893 2
52.5628 27.2044 2
52.3856 21.0525 2
52.1297 24.1032 2
46.0046 12.7273 2
47.6809 14.582 2
49.8166 19.6107 2
48.1124 16.9868 2
52.3834 32.8809 3.98006
51.2745 29.1602 3.97755
50.7626 25.7322 3.97204
49.9345 22.1954 3.97712
40.5694 11.6052 3.98275
43.858 11.917 3.98292
45.8024 15.4201 3.98087
47.503 19.2253 3.97635
46.2239 37.4958 3.90198
48.8497 60.2081 0.017468
49.7891 57.6318 0.0222395
52.4545 42.6382 0.0224647
51.7599 47.2646 0.0242044
51.1929 50.9371 0.0313333
50.5866 54.4269 0.0284499
48.0833 43.8009 0.00736087
47.9873 58.7505 2
50.0289 45.2756 2
48.5954 55.9242 2
49.1168 52.5921 2
49.6377 49.0409 2
45.9136 39.884 2
46.3435 42.6949 2
46.4287 45.8428 2
43.7552 41.1881 2
41.9818 42.0324 2
46.8382 57.352 3.98293
44.4813 39.4555 3.86638
42.3241 40.8905 3.83452
48.0281 47.2404 3.97607
47.1606 54.2487 3.97769
47.564 50.745 3.97029
44.753 47.43 3.99371
44.9924 41.9677 3.9002
44.8766 44.5856 3.94775
42.587 42.6959 3.87288
40.8676 42.3742 3.83951
46.6195 59.8022 0.0168791
45.4688 58.7997 2
43.8771 57.7249 3.9845
37.5633 67.7528 0.0134857
39.6479 65.6172 0.0150839
41.6005 63.8254 0.0151828
42.9512 62.09 0.0158891
44.6242 60.2994 0.0166885
35.4632 67.663 2
41.7539 62.5013 2
39.8937 63.5609 2
37.6422 65.5168 2
42.4818 59.9924 2
40.6235 61.6592 3.98376
40.4457 58.2251 3.98566
37.837 63.2212 3.98352
35.5727 65.4382 3.98463
33.5749 65.3498 2
31.9587 63.3096 2
33.6285 63.3484 3.98394
30.3776 62.8677 3.98476
32.1224 62.0158 3.98486
26.8672 61.5111 3.98419
28.0611 64.1553 3.9858
29.8825 64.7279 2
29.4054 66.7641 3.98681
31.6964 65.136 0.0147383
31.3763 67.201 2
31.0127 69.4201 3.9892
33.3918 67.4904 0.0135014
33.1556 69.7557 2
32.8917 72.1479 3.99317
35.333 69.9618 0.0108797
35.1947 72.3741 2
35.0474 74.9194 4
37.5095 72.4594 0.00685117
37.5 75 2
39.9526 74.9197 0
35.6204 6.72263 3.98735
37.5229 4.61406 3.99003
39.6237 4.71407 2
39.7886 2.47377 3.99364
41.7362 4.96748 0.0102867
42.0623 2.71708 2
42.3946 0.32156 4
44.3259 3.10975 0.00656736
44.8159 0.72056 2
47.2057 1.27793 0
49.4883 41.3356 0.0120863
56.7538 37.8964 0.0236398
53.0561 39.3036 0.0216068
47.4285 40.425 2
50.4386 38.5115 2
53.9094 36.6293 2
51.2288 35.5823 3.97821
48.0692 37.7497 3.96068
45.8952 35.1402 3.89885
43.7454 33.832 3.86924
41.9824 32.9876 3.80692
37.4575 8.5313 3.98541
37.5159 6.67086 2
39.442 6.8006 0.0127178
39.2108 8.68917 2
38.9762 10.123 3.98482
35.898 9.76948 3.98427
34.1497 8.81887 3.98543
35.9412 8.48868 2
54.8212 33.974 0.0224465
53.4439 30.4896 0.0246059
52.5589 27.203 0.0233329
52.3848 21.054 0.0193532
52.1289 24.102 0.0278779
49.8164 19.6118 0.0240654
48.1125 16.9879 0.0214675
47.6812 14.5829 0.0183287
44.7236 9.99458 0.0156557
46.0051 12.7283 0.01801
41.0134 9.04722 0.0150234
42.4684 10.9012 0.0162732
52.3834 32.8811 2
40.569 11.605 2
43.8574 11.9166 2
51.2857 29.1601 2
50.7632 25.7345 2
49.9356 22.1946 2
45.802 15.4189 2
47.5031 19.2235 2
49.9119 31.4153 3.96842
49.247 27.4873 3.97727
49.3876 24.4089 3.98005
47.1836 21.9549 3.97492
38.3018 12.7304 3.98283
42.1014 14.3024 3.9818
44.7999 18.4588 3.97926
44.7717 37.5033 3.86572
46.2511 37.5036 2
47.9874 58.7495 0.0194602
48.5949 55.9225 0.021579
50.024 45.2735 0.0228216
49.6352 49.0422 0.026424
49.1156 52.5897 0.0281603
45.8913 39.8763 0.102671
46.3276 42.6834 0.0588058
46.4282 45.8498 0.00591956
43.7351 41.174 0.126848
41.974 42.0263 0.190275
46.8382 57.3533 2
44.4939 39.4651 2
42.3208 40.8911 2
48.0301 47.2417 2
47.1614 54.2522 2
47.5663 50.7465 2
44.7572 47.4064 2
45.0081 41.9797 2
44.8915 44.6003 2
42.6116 42.7147 2
40.8663 42.3741 2
45.3965 55.9399 3.98627
42.6517 39.2778 3.8482
40.7817 40.8143 3.8986
46.0568 48.9169 3.98603
45.5286 52.5405 3.98113
43.4174 48.4604 4.0088
43.3374 46.1446 3.94706
43.6129 43.7825 3.89766
41.1104 43.8689 3.86837
39.2925 42.7346 3.85286
45.4692 58.799 0.0164292
43.8767 57.7255 2
42.1071 56.3527 3.98834
35.4632 67.6622 0.0135384
37.6423 65.5161 0.0154749
39.8939 63.5604 0.0157383
41.7541 62.5007 0.0158433
42.4818 59.9915 0.015127
35.5727 65.4391 2
40.6233 61.6598 2
37.8369 63.2218 2
40.4455 58.2264 2
38.9258 56.5225 3.99093
38.2504 60.3425 3.98407
35.6068 63.2148 3.98338
33.5749 65.3492 0.0152196
31.9587 63.3089 0.015531
33.6285 63.3491 2
30.3776 62.8683 2
32.1223 62.0164 2
28.6798 62.2134 3.98511
33.3452 61.5284 3.98421
31.0655 61.2334 3.98469
27.5666 59.609 3.98267
23.7899 59.0936 3.98035
25.0329 60.883 3.983
26.8674 61.5117 2
26.2277 63.4874 3.9855
28.0613 64.156 2
27.4618 66.188 3.987
29.8824 64.7272 0.0143215
29.4056 66.7648 2
28.9048 68.9456 3.9893
31.3762 67.2004 0.0133574
31.0127 69.4207 2
30.614 71.779 3.99327
33.1557 69.755 0.0108877
32.8916 72.1483 2
32.6054 74.6784 4
35.1947 72.3737 0.00686668
35.0474 74.9197 2
37.5 75 0
33.723 6.97715 3.98694
35.4343 4.68442 3.98986
35.6203 6.72197 2
37.514 2.38643 3.99368
37.5229 4.61352 2
39.6237 4.71455 0.0101237
39.7886 2.47347 2
39.9526 0.0806499 4
42.0622 2.71738 0.00649484
42.3947 0.320817 2
44.8158 0.721173 0
44.5026 35.5501 3.86122
42.3366 34.1162 3.83122
47.4148 40.4142 0.0559507
50.4272 38.5124 0.0125456
53.9053 36.6284 0.0218744
48.0809 37.7566 2
51.2373 35.5816 2
45.9115 35.1252 2
43.7674 33.8169 2
41.9901 32.981 2
48.2513 34.3036 3.98082
44.9985 33.0399 3.89523
42.5953 32.3187 3.86956
40.877 32.6377 3.83711
37.3103 10.6264 3.98372
37.4575 8.53038 2
37.5158 6.67157 0.0125477
39.2108 8.68973 0.0146539
38.9761 10.1223 2
34.7532 10.3752 3.98395
35.898 9.76871 2
32.3764 9.3654 3.98487
34.1496 8.81813 2
35.9413 8.48941 0.0143456
52.3834 32.8809 0.0199385
51.2745 29.1602 0.0224507
50.7626 25.7322 0.0279561
49.9345 22.1954 0.0228776
47.503 19.2253 0.0236481
45.8024 15.4201 0.0191266
43.858 11.917 0.017079
40.5694 11.6052 0.017254
49.9166 31.411 2
38.3013 12.7299 2
42.1007 14.3022 2
49.2479 27.4907 2
49.3885 24.4085 2
47.1848 21.9559 2
44.7999 18.4575 2
47.74 29.5416 3.99129
47.085 25.1462 3.98191
44.2879 21.3158 3.97576
36.5814 12.9266 3.98263
38.6811 14.8005 3.98197
41.7498 17.8326 3.98091
42.7929 37.4937 3.84796
44.7876 37.5022 2
46.2239 37.4958 0.0980183
46.8382 57.352 0.0170689
47.1606 54.2487 0.0223122
48.0281 47.2404 0.0239257
47.564 50.745 0.0297111
44.4813 39.4555 0.133622
44.9924 41.9677 0.0998042
44.8766 44.5856 0.0522536
44.753 47.43 0.00629209
42.587 42.6959 0.127117
42.3241 40.8905 0.16548
40.8676 42.3742 0.160495
45.3969 55.9412 2
42.6523 39.2764 2
40.7777 40.8102 2
46.0584 48.9178 2
45.5309 52.5442 2
43.4204 48.4773 2
43.3593 46.1646 2
43.6294 43.798 2
41.128 43.8859 2
39.2869 42.7283 2
43.7336 54.4571 3.99649
40.8892 39.1787 3.9265
39.1777 40.9066 3.92868
43.6798 50.5129 3.99781
41.9345 47.6893 3.97906
41.8569 45.2012 3.89935
39.3776 44.6064 3.88313
37.4904 42.8594 3.86224
43.8771 57.7249 0.0154997
42.1064 56.3538 2
40.4187 54.9641 3.99159
35.5727 65.4382 0.0153744
37.837 63.2212 0.016476
40.6235 61.6592 0.0162416
40.4457 58.2251 0.0143406
35.6067 63.2156 2
38.2502 60.3432 2
38.9253 56.5247 2
37.9996 55.2808 3.99126
36.9344 57.6479 3.98565
35.3632 60.9271 3.98373
33.6285 63.3484 0.0160639
30.3776 62.8677 0.0152419
32.1224 62.0158 0.015143
33.3451 61.5291 2
28.6799 62.2139 2
31.0655 61.2339 2
29.4015 60.3039 3.98425
32.3554 59.7615 3.9859
28.0201 58.3887 3.98533
27.5666 59.6096 2
25.3768 58.6066 3.98021
22.7537 58.2503 3.97573
23.3988 60.3619 3.98085
23.7898 59.0946 2
25.033 60.8839 2
24.4303 62.7794 3.98476
26.8672 61.5111 0.0158123
26.2279 63.488 2
25.5458 65.4979 3.98699
28.0611 64.1553 0.0141985
27.462 66.1886 2
26.8343 68.3339 3.98936
29.4054 66.7641 0.013189
28.9048 68.9461 2
28.369 71.2641 3.99335
31.0127 69.4201 0.0108021
30.6138 71.7793 2
30.1842 74.2788 4
32.8917 72.1479 0.00682828
32.6053 74.6792 2
35.0474 74.9194 0
31.7873 7.41691 3.98661
33.3462 4.92355 3.98971
33.7229 6.97651 2
35.2441 2.46257 3.99366
35.4342 4.6839 2
35.6204 6.72263 0.0126511
37.5 0 4
37.514 2.3861 2
37.5229 4.61406 0.00997196
39.7886 2.47377 0.00636405
39.9526 0.0802889 2
42.3946 0.32156 0
42.6632 35.7179 3.84829
44.5126 35.5412 2
40.7931 34.1941 3.89751
42.3327 34.1168 2
48.0692 37.7497 0.0393249
51.2288 35.5823 0.0217943
45.8952 35.1402 0.101152
43.7454 33.832 0.13076
41.9824 32.9876 0.193081
48.2629 34.2896 2
45.0148 33.0278 2
42.6168 32.3013 2
40.8752 32.637 2
46.2592 31.5593 3.95978
43.6175 31.2347 3.89424
41.1237 31.1494 3.87089
39.3001 32.276 3.85232
35.6915 11.7709 3.98282
37.3102 10.6256 2
37.4575 8.5313 0.0145868
38.9762 10.123 0.015178
33.0969 11.2117 3.98284
34.7531 10.3744 2
35.898 9.76948 0.0157268
30.481 10.0133 3.98437
32.3763 9.36466 2
34.1497 8.81887 0.0145726
49.9119 31.4153 0.0315786
49.247 27.4873 0.0227294
49.3876 24.4089 0.0199497
47.1836 21.9549 0.0250815
44.7999 18.4588 0.0207374
42.1014 14.3024 0.0181986
38.3018 12.7304 0.0171692
36.581 12.9261 2
47.7409 29.5312 2
38.6803 14.8002 2
41.7491 17.8318 2
47.0867 25.1474 2
44.2891 21.3134 2
45.5217 27.6498 3.99964
43.7927 24.0431 3.99771
41.3407 20.7093 3.98148
35.7712 14.7518 3.98219
38.6811 17.5878 3.98027
40.9395 37.4859 3.93777
42.7972 37.4954 2
44.7717 37.5033 0.134282
45.3965 55.9399 0.0137275
45.5286 52.5405 0.0188748
46.0568 48.9169 0.0139731
42.6517 39.2778 0.151801
43.6129 43.7825 0.102338
43.3374 46.1446 0.0529391
43.4174 48.4604 -0.00880053
41.1104 43.8689 0.131632
40.7817 40.8143 0.101399
39.2925 42.7346 0.147143
43.7343 54.4596 2
40.885 39.1759 2
39.1729 40.8989 2
43.6827 50.5244 2
41.9377 47.7016 2
41.8802 45.2166 2
37.4923 42.8512 2
39.3982 44.6127 2
41.8767 53.034 3.99512
39.1935 39.1804 3.95808
37.4917 40.9559 3.94305
35.6958 42.7328 3.85347
40.9138 49.7449 4.00289
39.8034 46.1056 3.88081
37.4936 44.8406 3.87925
42.1071 56.3527 0.0116592
40.4179 54.9652 2
38.7287 53.897 3.99432
35.6068 63.2148 0.0166223
38.2504 60.3425 0.0159332
38.9258 56.5225 0.00906792
35.363 60.9278 2
36.934 57.6487 2
37.999 55.282 2
36.3194 55.411 3.99257
34.4866 58.5397 3.98546
33.3452 61.5284 0.0157883
28.6798 62.2134 0.0148859
31.0655 61.2334 0.0153057
32.3553 59.7622 2
29.4015 60.3042 2
30.2955 57.8364 3.98567
28.0199 58.3895 2
26.9425 56.8379 3.97991
27.5666 59.609 0.0173281
25.3767 58.6076 2
23.836 56.8117 3.97406
21.3304 57.4081 3.97551
21.9914 59.6325 3.98018
22.7534 58.2517 2
22.7342 62.0305 3.98336
23.3988 60.3629 2
23.7899 59.0936 0.0196522
25.0329 60.883 0.0170036
24.4305 62.7802 2
23.6797 64.716 3.98654
26.2277 63.4874 0.0145036
25.546 65.4985 2
24.8065 67.5949 3.98934
27.4618 66.188 0.0130041
26.8343 68.3344 2
26.1642 70.6049 3.99341
28.9048 68.9456 0.0107035
28.3688 71.2644 2
27.7943 73.7221 4
30.614 71.779 0.00672822
30.1841 74.2794 2
32.6054 74.6784 0
29.8097 7.9901 3.98613
31.2513 5.33068 3.98936
31.7872 7.41619 2
32.9798 2.70072 3.99355
33.3461 4.923 2
33.723 6.97715 0.0130588
35.0474 0.080333 4
35.2441 2.46225 2
35.4343 4.68442 0.0101367
37.5 0 2
37.514 2.38643 0.00631946
39.9526 0.0806499 0
40.8962 35.8055 3.92788
42.663 35.7207 2
44.5026 35.5501 0.13878
28.5417 10.6884 3.98432
39.1856 34.1026 3.92846
40.7874 34.1985 2
42.3366 34.1162 0.168783
48.2513 34.3036 0.0191785
44.9985 33.0399 0.104768
42.5953 32.3187 0.130439
40.877 32.6377 0.162892
46.2759 31.5508 2
43.6285 31.221 2
41.1418 31.1332 2
39.2957 32.2805 2
44.3833 29.7447 3.94742
41.8747 29.8172 3.90206
39.3957 30.4026 3.88388
37.4987 32.1505 3.86329
34.0914 12.9289 3.98215
35.6914 11.7701 2
37.3103 10.6264 0.0162784
31.1848 11.9796 3.98332
33.0969 11.2109 2
34.7532 10.3752 0.0160535
30.4808 10.0125 2
32.3764 9.3654 0.015127
47.74 29.5416 0.00871247
47.085 25.1462 0.0180939
36.5814 12.9266 0.017375
44.2879 21.3158 0.0242386
41.7498 17.8326 0.0190852
38.6811 14.8005 0.0180276
35.7706 14.7514 2
45.5222 27.6482 2
38.6801 17.5871 2
41.3408 20.7065 2
43.7945 24.0442 2
33.6064 15.8678 3.98204
43.041 26.4762 3.9984
40.9138 23.2765 3.99906
38.4206 20.3177 3.98155
35.8474 17.4995 3.98299
39.21 37.4863 3.9655
40.9307 37.4859 2
42.7929 37.4937 0.152036
43.7336 54.4571 0.00351462
43.6798 50.5129 0.00218612
40.8892 39.1787 0.0734952
41.8569 45.2012 0.100655
41.9345 47.6893 0.0209352
39.3776 44.6064 0.116874
39.1777 40.9066 0.0713192
37.4904 42.8594 0.13776
41.8787 53.0376 2
39.188 39.1788 2
37.4916 40.9487 2
40.9195 49.7495 2
35.6998 42.7283 2
39.8271 46.1254 2
37.4911 44.8413 2
39.8157 51.9492 3.99502
37.4903 39.1945 3.97403
35.8049 40.9151 3.92808
34.1163 42.3717 3.83832
35.5891 44.6063 3.88075
38.7055 48.7606 3.99045
37.4846 46.4328 3.88404
40.4187 54.9641 0.00840594
38.7283 53.8971 2
36.7197 53.2501 4.0067
35.3632 60.9271 0.0162725
36.9344 57.6479 0.0143451
37.9996 55.2808 0.00874399
34.4864 58.5403 2
36.3189 55.4119 2
33.2249 55.5252 3.98812
32.3554 59.7615 0.0141023
29.4015 60.3039 0.0157485
30.2956 57.8368 2
28.6873 55.3271 3.9791
28.0201 58.3887 0.0146668
26.9419 56.8386 2
25.3071 55.1492 3.97511
21.8051 55.354 3.97072
25.3768 58.6066 0.019788
23.8355 56.8133 2
20.2149 57.0355 3.97867
20.6424 58.7896 3.97838
21.33 57.4095 2
21.1645 61.179 3.98174
21.9913 59.6338 2
22.7537 58.2503 0.0242665
21.8931 63.8439 3.98587
22.7343 62.0314 2
23.3988 60.3619 0.019146
24.4303 62.7794 0.0152449
23.6799 64.7168 2
22.8347 66.7385 3.98931
25.5458 65.4979 0.0130096
24.8065 67.5954 2
24.0083 69.806 3.9934
26.8343 68.3339 0.0106371
26.1639 70.6051 2
25.446 73.0099 4
28.369 71.2641 0.00664763
27.7943 73.7222 2
30.1842 74.2788 0
27.8194 8.64967 3.98589
29.1532 5.87642 3.98896
29.8095 7.98932 2
30.7249 3.09791 3.99337
31.2512 5.33009 2
31.7873 7.41691 0.0133908
32.6053 0.320823 4
32.9797 2.7004 2
33.3462 4.92355 0.0102866
35.0474 0.0802903 2
35.2441 2.46257 0.00634436
37.5 0 0
39.2063 35.8045 3.95734
40.8906 35.8083 2
42.6632 35.7179 0.151712
28.5416 10.6877 2
26.6205 11.3833 3.98448
29.2235 12.6358 3.98386
37.4978 34.0533 3.94331
39.18 34.1097 2
40.7931 34.1941 0.102494
46.2592 31.5593 0.0402178
43.6175 31.2347 0.105759
41.1237 31.1494 0.129108
39.3001 32.276 0.147683
44.4003 29.7313 2
41.8951 29.7994 2
39.4117 30.3908 2
37.4995 32.1589 2
42.3549 28.3836 3.935
39.8544 28.9013 3.89701
37.5133 30.1577 3.87775
35.7013 32.2709 3.85217
31.9126 14.4733 3.98282
34.0912 12.9281 2
35.6915 11.7709 0.017181
31.1847 11.9788 2
33.0969 11.2117 0.017162
30.481 10.0133 0.0156286
45.5217 27.6498 0.000362293
43.7927 24.0431 0.00229018
35.7712 14.7518 0.0178057
41.3407 20.7093 0.0185236
38.6811 17.5878 0.0197266
33.6057 15.8674 2
35.8462 17.4995 2
43.0438 26.478 2
38.4201 20.3168 2
40.9142 23.2699 2
33.5485 17.376 3.98377
40.4183 25.6173 4.00765
38.0759 22.8476 3.9941
35.5828 20.0646 3.98631
37.4959 37.4954 3.98183
39.2026 37.4862 2
40.9395 37.4859 0.0622272
41.8767 53.034 0.00487516
40.9138 49.7449 -0.00289438
39.1935 39.1804 0.0419191
39.8034 46.1056 0.119195
37.4936 44.8406 0.120747
37.4917 40.9559 0.0569452
35.6958 42.7328 0.146534
39.82 51.9522 2
37.4916 39.192 2
35.8105 40.9085 2
38.7063 48.7907 2
34.1175 42.3718 2
35.5779 44.6217 2
37.4853 46.4529 2
37.6538 51.0477 4.01065
35.7925 39.1962 3.95871
34.2045 40.8218 3.89817
33.0055 42.0225 3.8088
33.8617 43.8604 3.86967
35.1512 46.0947 3.89222
36.8474 48.4072 3.97098
38.7287 53.897 0.00568218
36.72 53.251 2
34.361 52.5021 3.99503
34.4866 58.5397 0.0145372
36.3194 55.411 0.00743069
33.2245 55.5257 2
30.5167 53.4008 3.98154
30.2955 57.8364 0.0143293
28.6868 55.3289 2
26.8787 53.4401 3.97483
26.9425 56.8379 0.0200888
25.3065 55.152 2
23.5697 53.4835 3.96906
20.464 53.2213 3.96546
19.9279 55.8371 3.97429
21.8043 55.3553 2
23.836 56.8117 0.0259407
19.4349 57.8976 3.97758
20.2144 57.0368 2
19.7041 60.2115 3.98032
20.6422 58.7909 2
21.3304 57.4081 0.0244866
20.2057 62.8644 3.98421
21.1645 61.1802 2
21.9914 59.6325 0.0198187
20.9362 65.7675 3.98912
21.8933 63.8448 2
22.7342 62.0305 0.0166415
23.6797 64.716 0.0134632
22.8348 66.7391 2
21.9108 68.873 3.99335
24.8065 67.5949 0.0106577
24.0081 69.8061 2
23.1494 72.1454 4
26.1642 70.6049 0.00658875
25.446 73.0099 2
27.7943 73.7221 0
25.8585 9.3777 3.98571
27.0679 6.54049 3.98855
27.8193 8.64886 2
28.4871 3.64387 3.99316
29.153 5.87579 2
29.8097 7.9901 0.0138691
30.1841 0.720592 4
30.7248 3.09759 2
31.2513 5.33068 0.0106414
32.6053 0.320817 2
32.9798 2.70072 0.00644817
35.0474 0.080333 0
37.4991 35.8023 3.97501
39.1979 35.8061 2
40.8962 35.8055 0.0721178
24.7753 12.0661 3.98461
23.7497 14.3505 3.98371
28.5417 10.6884 0.0156844
26.6205 11.3827 2
29.2235 12.635 2
27.2896 13.3681 3.98403
29.7784 14.1947 3.98338
35.8151 34.0934 3.92894
37.4981 34.0604 2
39.1856 34.1026 0.0715368
37.4987 32.1505 0.136709
44.3833 29.7447 0.0525812
41.8747 29.8172 0.0979393
39.3957 30.4026 0.11612
42.3736 28.3654 2
39.8696 28.8785 2
37.5141 30.1566 2
35.7076 32.2755 2
40.0456 27.529 3.93161
37.5247 28.5715 3.89388
35.6126 30.4017 3.88402
34.1294 32.6283 3.8372
30.924 16.8288 3.98331
31.9124 14.4725 2
34.0914 12.9289 0.0178542
31.1848 11.9796 0.0166762
43.041 26.4762 0.00160247
40.9138 23.2765 0.0009405
33.6064 15.8678 0.0179616
35.8474 17.4995 0.0170064
38.4206 20.3177 0.0184451
33.5475 17.3761 2
35.5823 20.0642 2
40.4184 25.6117 2
38.075 22.846 2
32.8613 19.7809 3.98478
37.8021 25.1582 4.01651
35.2012 22.618 3.99261
35.7861 37.501 3.96757
37.4959 37.4949 2
39.21 37.4863 0.0345009
39.8157 51.9492 0.00498194
38.7055 48.7606 0.00955029
37.4903 39.1945 0.0259718
37.4846 46.4328 0.115956
35.5891 44.6063 0.119247
35.8049 40.9151 0.0719225
34.1163 42.3717 0.161678
37.6593 51.0584 2
35.8012 39.1939 2
34.2095 40.817 2
36.8433 48.4241 2
32.9988 42.0271 2
33.8491 43.8721 2
35.1342 46.1101 2
35.4621 50.1779 4.01091
34.1065 39.1927 3.92841
32.6506 40.892 3.8325
32.3894 42.691 3.87159
33.1276 45.1925 3.89993
34.2633 47.4669 3.94208
36.7197 53.2501 -0.00669562
34.3615 52.5051 2
31.9996 51.2089 3.99863
33.2249 55.5252 0.0118792
30.5158 53.404 2
28.4247 51.6126 3.97862
28.6873 55.3271 0.0209049
26.8779 53.4423 2
25.0755 51.7533 3.96663
25.3071 55.1492 0.0248855
23.5688 53.4847 2
21.9622 51.8043 3.96507
19.1974 51.6353 3.9696
18.9179 54.3097 3.96773
20.4629 53.2211 2
18.4434 56.7285 3.97733
19.9272 55.8385 2
21.8051 55.354 0.0292848
18.3665 59.1167 3.9773
19.4344 57.8986 2
20.2149 57.0355 0.0213345
18.6169 61.7709 3.9823
19.704 60.2127 2
20.6424 58.7896 0.0216179
19.1252 64.6781 3.98815
20.2058 62.8656 2
21.1645 61.179 0.0182627
19.8848 67.8096 3.99321
20.9363 65.7682 2
21.8931 63.8439 0.0141346
22.8347 66.7385 0.010692
21.9105 68.8732 2
20.9142 71.1327 4
24.0083 69.806 0.00660398
23.1494 72.1455 2
25.446 73.0099 0
23.0946 12.7806 3.98422
23.9709 10.1641 3.9856
25.0216 7.31067 3.98827
25.8584 9.37702 2
26.2788 4.32812 3.99295
27.0676 6.53984 2
27.8194 8.64967 0.0141074
27.7943 1.27781 4
28.4869 3.64357 2
29.1532 5.87642 0.0110367
30.1841 0.720551 2
30.7249 3.09791 0.00663351
32.6053 0.320823 0
35.7961 35.8084 3.95979
37.4984 35.8041 2
39.2063 35.8045 0.0426562
24.7754 12.0656 2
23.75 14.3503 2
22.4784 15.0272 3.98312
25.3558 13.8999 3.98359
24.0229 15.6126 3.98255
26.6205 11.3833 0.0155237
29.2235 12.6358 0.0161375
27.2897 13.3677 2
29.7783 14.194 2
28.3543 15.968 3.9837
34.2186 34.1862 3.8976
35.8206 34.1002 2
37.4978 34.0533 0.0566905
35.7013 32.2709 0.147826
37.5133 30.1577 0.122251
42.3549 28.3836 0.0649961
39.8544 28.9013 0.102986
40.0584 27.5145 2
37.5277 28.5497 2
35.5973 30.3864 2
34.1315 32.6277 2
37.6191 27.2111 3.94125
35.1826 28.8924 3.89477
33.8727 31.1411 3.86958
33.0266 32.9762 3.80808
30.2059 19.3306 3.98627
30.9235 16.8285 2
31.9126 14.4733 0.0171792
40.4183 25.6173 -0.00764843
38.0759 22.8476 0.00589921
33.5485 17.376 0.0162303
35.5828 20.0646 0.0136935
32.8602 19.7815 2
35.1977 22.6141 2
37.7896 25.1586 2
32.3094 22.3934 3.99047
34.9809 25.1468 4.00715
34.0577 37.5016 3.93816
35.7936 37.5004 2
37.4959 37.4954 0.0181653
37.6538 51.0477 -0.0106503
36.8474 48.4072 0.0290238
35.7925 39.1962 0.0412929
35.1512 46.0947 0.10778
33.8617 43.8604 0.130331
34.2045 40.8218 0.101831
33.0055 42.0225 0.191199
35.4594 50.1894 2
34.1154 39.1898 2
32.6531 40.8908 2
34.2585 47.4997 2
32.3708 42.7048 2
33.1096 45.2101 2
33.2392 49.1679 4.00737
32.3271 39.2845 3.84984
31.2344 41.1716 3.87067
31.3756 43.7765 3.89657
32.2448 46.3838 3.94089
34.361 52.5021 0.00496859
31.9986 51.2162 2
29.8532 49.7256 3.98835
30.5167 53.4008 0.0184646
28.4231 51.6108 2
26.5051 49.9936 3.97074
26.8787 53.4401 0.0251726
25.0741 51.7521 2
23.3403 50.199 3.97264
23.5697 53.4835 0.030938
21.9613 51.8037 2
20.4613 50.3192 3.97093
17.986 50.3328 3.97089
17.831 52.7914 3.96703
19.1968 51.635 2
17.4336 55.3431 3.97151
18.9169 54.3101 2
20.464 53.2213 0.0345389
17.1323 57.8778 3.97739
18.4428 56.7296 2
19.9279 55.8371 0.0257121
17.1346 60.5529 3.97973
18.3663 59.1179 2
19.4349 57.8976 0.0224176
17.406 63.4701 3.98617
18.6169 61.7722 2
19.7041 60.2115 0.0196844
17.941 66.6179 3.99293
19.1253 64.679 2
20.2057 62.8644 0.0157949
18.75 69.9759 4
19.8845 67.8097 2
20.9362 65.7675 0.0108812
21.9108 68.873 0.00665073
20.9142 71.1327 2
23.1494 72.1454 0
21.5856 13.6008 3.98364
22.189 11.0232 3.98529
23.0949 12.7805 2
23.0394 8.17601 3.98814
23.971 10.1637 2
24.1164 5.14287 3.99275
25.0213 7.31014 2
25.8585 9.3777 0.0142925
25.446 1.99014 4
26.2784 4.32786 2
27.0679 6.54049 0.0114486
27.7943 1.27778 2
28.4871 3.64387 0.00683777
30.1841 0.720592 0
34.1056 35.8116 3.92706
35.8026 35.8096 2
37.4991 35.8023 0.0249866
21.3036 15.8228 3.98259
24.7753 12.0661 0.0153878
23.7497 14.3505 0.016288
25.356 13.8996 2
22.4789 15.0271 2
24.0233 15.6125 2
23.2622 16.2443 3.98236
25.3782 16.0806 3.98345
27.2896 13.3681 0.0159703
29.7784 14.1947 0.0166165
28.3545 15.9679 2
27.4376 18.7895 3.98492
32.6761 34.1077 3.8324
34.2248 34.1903 2
35.8151 34.0934 0.0710614
34.1294 32.6283 0.1628
35.6126 30.4017 0.115984
37.5247 28.5715 0.106118
40.0456 27.529 0.0683916
37.6208 27.1814 2
33.0179 32.9719 2
35.1675 28.8732 2
33.8562 31.1216 2
35.0677 27.3367 3.94607
33.1425 29.8132 3.89521
32.4012 32.3017 3.86758
29.5739 21.9233 3.99548
30.2054 19.3315 2
30.924 16.8288 0.0166872
37.8021 25.1582 -0.0165055
35.2012 22.618 0.00738505
32.8613 19.7809 0.0152209
32.3058 22.3942 2
34.9917 25.146 2
31.6937 25.6078 4.00145
32.1955 37.5032 3.849
34.0677 37.5017 2
35.7861 37.501 0.0324343
35.4621 50.1779 -0.0109067
34.2633 47.4669 0.057919
34.1065 39.1927 0.0715887
33.1276 45.1925 0.100066
32.3894 42.691 0.128406
32.6506 40.892 0.167501
33.2349 49.1579 2
32.3276 39.2816 2
31.2139 41.1822 2
32.2216 46.4052 2
31.3607 43.7887 2
31.1442 47.9929 3.99576
30.485 39.4535 3.86277
29.987 41.9671 3.89539
30.4225 44.9661 3.94615
31.9996 51.2089 0.00136753
29.8512 49.7238 2
27.8717 48.1908 3.97451
28.4247 51.6126 0.0213755
26.5037 49.9922 2
24.6496 48.4784 3.97726
25.0755 51.7533 0.0333653
23.3393 50.1982 2
21.6614 48.7967 3.97176
21.9622 51.8043 0.0349348
20.4607 50.3186 2
19.0309 49.0971 3.97294
16.8902 49.3339 3.97236
16.7718 51.4072 3.96893
17.9859 50.3324 2
16.3875 53.8706 3.96854
17.8303 52.7915 2
19.1974 51.6353 0.0304004
15.9741 56.4784 3.97468
17.4329 55.3441 2
18.9179 54.3097 0.0322713
15.7481 59.213 3.97877
17.1319 57.8791 2
18.4434 56.7285 0.0226711
15.7869 62.1397 3.98339
17.1346 60.5543 2
18.3665 59.1167 0.0226992
16.0878 65.3004 3.99223
17.4059 63.4711 2
18.6169 61.7709 0.0176975
16.6661 68.6801 4
17.9406 66.618 2
19.1252 64.6781 0.0118485
18.75 69.9759 2
19.8848 67.8096 0.00678813
20.9142 71.1327 0
20.2177 14.5897 3.98287
21.5859 13.6008 2
20.5283 11.993 3.98467
21.1423 9.14573 3.9881
22.1892 11.023 2
23.0946 12.7806 0.0157837
22.0154 6.08184 3.99267
23.0392 8.17562 2
23.9709 10.1641 0.0143965
23.1494 2.85457 4
24.116 5.14271 2
25.0216 7.31067 0.0117253
25.446 1.99012 2
26.2788 4.32812 0.00704592
27.7943 1.27781 0
32.3387 35.7168 3.848
34.1124 35.8147 2
35.7961 35.8084 0.0402141
21.304 15.8225 2
20.3013 16.9572 3.98248
22.0954 16.6286 3.9809
25.3558 13.8999 0.0164141
22.4784 15.0272 0.0168809
24.0229 15.6126 0.0174465
25.3786 16.0804 2
23.2626 16.2443 2
24.2019 18.444 3.98046
27.0117 21.4476 3.98809
28.3543 15.968 0.0163012
27.4376 18.7895 2
31.2675 33.8309 3.8713
32.6776 34.1105 2
34.2186 34.1862 0.102403
33.0266 32.9762 0.191918
33.8727 31.1411 0.130417
35.1826 28.8924 0.105227
37.6191 27.2111 0.0587524
35.0521 27.3115 2
32.3876 32.2947 2
33.1242 29.7866 2
32.5479 28.0721 3.96467
31.3738 31.2295 3.89776
28.8013 24.3902 3.98502
29.5704 21.9257 2
30.2059 19.3306 0.0137282
34.9809 25.1468 -0.00715275
32.3094 22.3934 0.00952511
31.7018 25.5955 2
29.6518 27.2999 3.9682
30.2099 37.4958 3.86635
32.1965 37.5019 2
34.0577 37.5016 0.0618448
33.2392 49.1679 -0.00737012
32.2448 46.3838 0.059111
32.3271 39.2845 0.150157
31.3756 43.7765 0.103434
31.2344 41.1716 0.12933
31.1427 47.9937 2
30.4712 39.4639 2
29.9717 41.9798 2
30.4005 44.981 2
29.185 46.588 4.00017
29.0845 39.8562 3.89668
28.707 43.1805 3.95217
29.8532 49.7256 0.0116467
27.87 48.1863 2
25.9524 46.6692 3.97639
26.5051 49.9936 0.0292556
24.6485 48.4768 2
22.8182 47.0868 3.97683
23.3403 50.199 0.0273559
21.6606 48.7959 2
19.9811 47.6249 3.97694
20.4613 50.3192 0.0290743
19.0315 49.0967 2
17.668 48.1819 3.97493
16.1397 48.6849 3.97358
16.8905 49.3335 2
15.8482 50.1709 3.97113
15.3778 52.4146 3.96917
16.7715 51.407 2
17.986 50.3328 0.0291141
14.8674 54.9776 3.9716
16.3869 53.8712 2
17.831 52.7914 0.0329712
14.4575 57.7413 3.97739
15.9736 56.4795 2
17.4336 55.3431 0.0284856
14.2652 60.6935 3.98192
15.748 59.2143 2
17.1323 57.8778 0.0226109
14.3323 63.8595 3.99096
15.7867 62.1408 2
17.1346 60.5529 0.0202729
14.6715 67.2507 4
16.0873 65.3003 2
17.406 63.4701 0.0138257
16.6661 68.6801 2
17.941 66.6179 0.00707271
18.75 69.9759 0
18.9318 15.7772 3.98189
20.2179 14.5895 2
18.9781 13.1039 3.98381
21.5856 13.6008 0.0163598
20.5287 11.9929 2
19.3417 10.2335 3.98785
19.99 7.14648 3.99265
21.1423 9.14543 2
22.189 11.0232 0.014715
20.9142 3.86727 4
22.0149 6.08184 2
23.0394 8.17601 0.0118619
23.1494 2.85451 2
24.1164 5.14287 0.00725431
25.446 1.99014 0
30.5104 35.554 3.86711
32.341 35.7194 2
34.1056 35.8116 0.0729365
21.3036 15.8228 0.0174078
22.0957 16.6283 2
20.3015 16.9566 2
19.2413 18.4047 3.98031
21.7799 17.8453 3.9814
25.3782 16.0806 0.0165462
23.2622 16.2443 0.0176378
24.2022 18.444 2
22.2762 19.8885 3.97724
24.5895 21.3166 3.98228
26.4177 23.7125 3.97593
27.0103 21.4481 2
27.4376 18.7895 0.0150786
30.0099 33.0335 3.89559
31.2397 33.8081 2
32.6761 34.1077 0.167603
32.4012 32.3017 0.132421
33.1425 29.8132 0.104795
35.0677 27.3367 0.0539334
32.5403 28.0615 2
31.3749 31.2208 2
30.1281 29.5302 3.96178
27.8907 26.532 3.97444
28.8042 24.398 2
29.5739 21.9233 0.00452418
31.6937 25.6078 -0.00145027
29.6485 27.2615 2
28.753 37.5116 3.90233
30.2033 37.4978 2
32.1955 37.5032 0.150998
31.1442 47.9929 0.00424328
30.4225 44.9661 0.0538543
30.485 39.4535 0.137229
29.987 41.9671 0.104607
29.1837 46.6027 2
29.0664 39.869 2
28.6886 43.1932 2
27.2942 44.8711 3.98671
26.8538 40.5955 3.97139
27.8717 48.1908 0.0254864
25.9504 46.6716 2
24.025 45.2257 3.97896
24.6496 48.4784 0.0227419
22.8177 47.0856 2
20.9465 45.9018 3.97906
21.6614 48.7967 0.0282379
19.9823 47.6243 2
18.3214 46.7414 3.97714
19.0309 49.0971 0.0270612
17.6677 48.1815 2
16.3307 47.7151 3.97437
16.1399 48.6846 2
15.1937 49.0161 3.97269
16.8902 49.3339 0.0276446
15.8483 50.1706 2
14.4914 50.9841 3.971
13.8306 53.4332 3.97071
15.3776 52.4147 2
16.7718 51.4072 0.0310742
13.2536 56.1679 3.97475
14.8669 54.9784 2
16.3875 53.8706 0.0314603
12.8476 59.1268 3.98118
14.4573 57.7425 2
15.9741 56.4784 0.0253165
12.678 62.3018 3.98899
14.265 60.6944 2
15.7481 59.213 0.0212333
12.7746 65.6939 4
14.3317 63.8593 2
15.7869 62.1397 0.0166094
14.6714 67.2507 2
16.0878 65.3004 0.00777379
16.6661 68.6801 0
17.6662 17.1533 3.98029
18.9319 15.7768 2
17.5099 14.3688 3.98253
20.2177 14.5897 0.0171349
18.9785 13.1036 2
17.6374 11.4525 3.98703
20.5283 11.993 0.0153295
19.3418 10.2333 2
18.0501 8.33935 3.99257
18.75 5.0241 4
19.9895 7.14665 2
21.1423 9.14573 0.0119036
20.9142 3.86727 2
22.0154 6.08184 0.00732606
23.1494 2.85457 0
29.104 35.1231 3.89756
30.4931 35.5422 2
32.3387 35.7168 0.152
22.0954 16.6286 0.0190978
20.3013 16.9572 0.0175218
21.7801 17.8449 2
19.2415 18.4041 2
17.9788 19.9382 3.97746
20.8742 19.3747 3.97982
24.2019 18.444 0.0195433
22.2764 19.888 2
24.5891 21.318 2
22.3561 21.7152 3.97975
24.6947 23.1627 3.97363
25.4723 25.9413 3.9662
26.4211 23.7132 2
27.0117 21.4476 0.0119137
28.382 32.3191 3.94444
29.992 33.0258 2
31.2675 33.8309 0.128703
31.3738 31.2295 0.102235
32.5479 28.0721 0.0353265
30.1072 29.5164 2
27.0437 29.125 3.99907
27.8878 26.5294 2
28.8013 24.3902 0.0149834
29.6518 27.2999 0.0318015
26.9821 37.3703 3.95692
28.7309 37.5045 2
30.2099 37.4958 0.133652
29.185 46.588 -0.000169919
28.707 43.1805 0.0478323
29.0845 39.8562 0.10332
27.293 44.8816 2
26.8416 40.6089 2
25.3047 43.1793 3.97037
24.102 39.4286 3.97963
25.9524 46.6692 0.0236075
24.0177 45.2258 2
21.9271 43.9584 3.97822
22.8182 47.0868 0.023165
20.9483 45.901 2
18.9899 44.9737 3.97814
19.9811 47.6249 0.0230595
18.3212 46.7411 2
16.6251 46.2141 3.97471
17.668 48.1819 0.0250677
16.3307 47.7149 2
14.923 47.6709 3.97255
16.1397 48.6849 0.0264191
15.1939 49.0159 2
13.7888 49.5459 3.97169
15.8482 50.1709 0.0288732
14.4915 50.984 2
12.8978 51.8727 3.97112
12.1423 54.5258 3.97331
13.8305 53.4336 2
15.3778 52.4146 0.0308297
11.5328 57.4583 3.97933
13.2533 56.1689 2
14.8674 54.9776 0.0283958
11.1327 60.6277 3.98752
12.8475 59.1277 2
14.4575 57.7413 0.0226084
10.9835 64.0165 4
12.6773 62.3012 2
14.2652 60.6935 0.018081
12.7745 65.694 2
14.3323 63.8595 0.00904219
14.6715 67.2507 0
16.3995 18.6482 3.97861
17.6663 17.1527 2
16.1011 15.7782 3.98183
18.9318 15.7772 0.0181099
17.5102 14.3681 2
16.0193 12.8062 3.98503
18.9781 13.1039 0.0161935
17.6376 11.452 2
16.2013 9.66243 3.99238
19.3417 10.2335 0.0121461
18.0497 8.33963 2
16.6661 6.31991 4
18.75 5.02404 2
19.99 7.14648 0.00735323
20.9142 3.86727 0
27.4969 34.77 3.94384
29.0804 35.1118 2
30.5104 35.554 0.132889
16.6816 21.3761 3.9732
21.7799 17.8453 0.0185994
19.2413 18.4047 0.0196946
20.8744 19.3741 2
17.9791 19.9374 2
19.7232 21.5703 3.98015
22.2762 19.8885 0.0227613
24.5895 21.3166 0.0177231
22.3563 21.7148 2
24.6962 23.1633 2
22.8472 24.5986 3.971
24.5858 28.5234 3.97065
25.4697 25.9403 2
26.4177 23.7125 0.0240685
26.2233 31.6956 3.9907
28.3637 32.3051 2
30.0099 33.0335 0.104407
30.1281 29.5302 0.038224
27.0512 29.1238 2
27.8907 26.532 0.0255551
24.8055 36.8556 3.98583
26.9655 37.3702 2
28.753 37.5116 0.0976728
27.2942 44.8711 0.0132858
26.8538 40.5955 0.028614
25.2965 43.1833 2
24.0915 39.4286 2
23.0056 41.8005 3.9811
21.8202 38.5045 3.97705
24.025 45.2257 0.0210377
21.9272 43.9582 2
19.763 42.8909 3.97823
20.9465 45.9018 0.0209441
18.9893 44.9736 2
16.9643 44.3811 3.97469
18.3214 46.7414 0.0228628
16.625 46.2139 2
14.8452 46.091 3.97217
16.3307 47.7151 0.0256342
14.9231 47.6708 2
13.2951 48.0089 3.97134
15.1937 49.0161 0.027312
13.789 49.5459 2
12.1166 50.252 3.97153
14.4914 50.9841 0.0290017
12.8979 51.8728 2
11.1385 52.835 3.97293
10.3241 55.7099 3.97769
12.1422 54.5264 2
13.8306 53.4332 0.0292938
9.69949 58.8498 3.98591
11.5325 57.4592 2
13.2536 56.1679 0.0252487
9.30605 62.2254 4
11.1317 60.6268 2
12.8476 59.1268 0.018819
10.9835 64.0165 2
12.678 62.3018 0.0110076
12.7746 65.6939 0
15.1463 20.1844 3.97458
16.3996 18.6474 2
14.747 17.3015 3.97978
17.6662 17.1533 0.0197132
16.1012 15.7773 2
14.482 14.2886 3.98355
17.5099 14.3688 0.017468
16.0195 12.8056 2
14.4441 11.1135 3.99179
17.6374 11.4525 0.0129719
16.2009 9.66276 2
14.6715 7.74927 4
18.0501 8.33935 0.00742756
16.6661 6.31988 2
18.75 5.0241 0
25.4497 34.2611 3.98849
27.4788 34.7644 2
29.104 35.1231 0.102436
17.8568 22.3216 3.98263
15.5296 22.9201 3.97006
16.6818 21.3753 2
20.8742 19.3747 0.0201832
17.9788 19.9382 0.0225412
19.7234 21.5697 2
19.6674 24.379 3.96969
22.3561 21.7152 0.0202525
24.6947 23.1627 0.026365
22.8476 24.5975 2
21.9531 27.82 3.97089
23.7879 31.1833 3.9743
24.5902 28.5228 2
25.4723 25.9413 0.0338022
26.2185 31.6878 2
28.382 32.3191 0.0555556
27.0437 29.125 0.000929025
22.5537 36.276 3.97724
24.79 36.8543 2
26.9821 37.3703 0.0430844
25.3047 43.1793 0.0296341
24.102 39.4286 0.02037
23.0021 41.7992 2
21.8158 38.5043 2
20.7444 40.6349 3.97767
20.1557 37.7834 3.97669
21.9271 43.9584 0.0217778
19.7635 42.8911 2
17.3874 42.101 3.97511
18.9899 44.9737 0.0218574
16.9642 44.381 2
14.8533 44.2005 3.97219
16.6251 46.2141 0.0252922
14.8451 46.0909 2
12.966 46.2961 3.97062
14.923 47.6709 0.027453
13.2952 48.0089 2
11.4877 48.5496 3.97115
13.7888 49.5459 0.0283071
12.1168 50.252 2
10.2643 51.0793 3.9728
12.8978 51.8727 0.0288756
11.1387 52.8352 2
9.23337 53.8883 3.97694
8.38329 56.9822 3.9847
10.324 55.7103 2
12.1423 54.5258 0.0266887
7.74927 60.3285 4
9.69839 58.8481 2
11.5328 57.4583 0.0206736
9.306 62.2255 2
11.1327 60.6277 0.0124807
10.9835 64.0165 0
13.9604 21.7523 3.97116
15.1465 20.1835 2
13.4488 18.8997 3.97692
16.3995 18.6482 0.0213949
14.7472 17.3004 2
13.0275 15.8817 3.98258
16.1011 15.7782 0.0181734
14.4821 14.2877 2
12.7817 12.6869 3.99045
16.0193 12.8062 0.0149714
14.4437 11.1139 2
12.7746 9.30605 4
16.2013 9.66243 0.00761541
14.6715 7.74924 2
16.6661 6.31991 0
23.1224 33.7978 3.97639
25.4324 34.2583 2
27.4969 34.77 0.0561556
17.6311 24.0404 3.97139
17.857 22.3209 2
14.3137 24.45 3.97092
15.5298 22.9195 2
16.6816 21.3761 0.0268042
19.0615 27.2001 3.97032
19.7232 21.5703 0.0198456
19.6674 24.3786 2
21.2166 30.6603 3.97208
22.8472 24.5986 0.0290006
21.9542 27.8198 2
23.7799 31.1836 2
24.5858 28.5234 0.0293477
26.2233 31.6956 0.00930411
20.2923 35.9217 3.97617
22.5527 36.276 2
24.8055 36.8556 0.0141694
23.0056 41.8005 0.0188994
21.8202 38.5045 0.0229524
20.7417 40.6348 2
20.1536 37.7833 2
18.1177 39.0009 3.97528
19.763 42.8909 0.0217678
17.3871 42.1009 2
14.8228 41.9176 3.97263
16.9643 44.3811 0.0253126
14.8532 44.2004 2
12.7072 44.392 3.97032
14.8452 46.091 0.0278314
12.966 46.2961 2
10.9887 46.7339 3.97047
13.2951 48.0089 0.028656
11.4878 48.5496 2
9.52754 49.2396 3.97231
12.1166 50.252 0.0284714
10.2645 51.0793 2
8.26648 52.0016 3.97649
11.1385 52.835 0.027067
9.23363 53.8881 2
7.19242 55.0321 3.9845
6.31991 58.3339 4
8.38237 56.9797 2
10.3241 55.7099 0.0223148
7.74924 60.3285 2
9.69949 58.8498 0.0140886
9.30605 62.2254 0
13.2296 25.3617 3.97192
12.8292 23.2823 3.97045
13.9607 21.7516 2
12.2356 20.5497 3.97467
15.1463 20.1844 0.025424
13.449 18.8986 2
11.6577 17.5632 3.98106
14.747 17.3015 0.0202224
13.0276 15.8806 2
11.2192 14.3719 3.98864
14.482 14.2886 0.0164465
12.7812 12.6873 2
10.9835 10.9835 4
14.4441 11.1135 0.00820834
12.7745 9.306 2
14.6715 7.74927 0
20.6569 33.3928 3.97451
23.1264 33.7978 2
25.4497 34.2611 0.0115075
15.9103 26.3979 3.97044
17.6312 24.0399 2
17.8568 22.3216 0.0173715
14.3138 24.4496 2
15.5296 22.9201 0.0299361
18.4148 30.1699 3.97273
19.0605 27.1999 2
19.6674 24.379 0.0303107
21.2213 30.6603 2
21.9531 27.82 0.0291137
23.7879 31.1833 0.0257001
17.75 35.9624 3.97546
20.2942 35.9217 2
22.5537 36.276 0.0227573
20.7444 40.6349 0.0223291
20.1557 37.7834 0.0233054
18.1182 39.0009 2
14.3528 39.1752 3.97326
17.3874 42.101 0.0248947
14.8227 41.9176 2
12.4032 42.2762 3.9704
14.8533 44.2005 0.0278054
12.7072 44.392 2
10.5656 44.8027 3.96986
12.966 46.2961 0.0293811
10.9887 46.734 2
8.90973 47.3192 3.97172
11.4877 48.5496 0.0288503
9.5277 49.2396 2
7.43356 50.0351 3.97587
10.2643 51.0793 0.0272014
8.26675 52.0012 2
6.13311 53.0067 3.98485
9.23337 53.8883 0.0230625
7.19189 55.0295 2
5.0241 56.25 4
6.31988 58.3339 2
8.38329 56.9822 0.0152987
7.74927 60.3285 0
13.4669 26.8133 3.9702
11.9415 24.7885 3.97195
13.2299 25.3614 2
11.1404 22.2355 3.97237
12.8296 23.2818 2
13.9604 21.7523 0.0288431
12.236 20.5487 2
10.3886 19.3186 3.97928
13.4488 18.8997 0.0230807
11.6578 17.5621 2
9.76015 16.1557 3.98694
13.0275 15.8817 0.0174236
11.2185 14.3726 2
9.30607 12.7746 4
12.7817 12.6869 0.00955228
10.9835 10.9835 2
12.7746 9.30605 0
17.9118 33.1085 3.97448
20.6581 33.3929 2
23.1224 33.7978 0.0236134
15.5096 29.6343 3.97175
15.9094 26.3975 2
17.6311 24.0404 0.0286055
14.3137 24.45 0.0290836
18.4162 30.1699 2
19.0615 27.2001 0.0296758
21.2166 30.6603 0.0279214
14.96 36.017 3.97376
17.7503 35.9625 2
20.2923 35.9217 0.023834
12.6282 37.8286 3.97301
18.1177 39.0009 0.0247241
14.353 39.1752 2
11.926 40.1399 3.97117
14.8228 41.9176 0.0273697
12.4029 42.2762 2
10.1656 42.7778 3.96927
12.7072 44.392 0.0296848
10.5656 44.8027 2
8.38765 45.3213 3.97102
10.9887 46.7339 0.0295284
8.90976 47.3192 2
6.72487 48.0005 3.97537
9.52754 49.2396 0.0276925
7.43372 50.0347 2
5.21002 50.91 3.98486
8.26648 52.0016 0.0235072
6.13281 53.0047 2
3.86727 54.0858 4
7.19242 55.0321 0.0155048
5.02404 56.25 2
6.31991 58.3339 0
12.925 29.0317 3.97013
11.3708 26.4871 3.97079
13.4664 26.813 2
10.1996 23.9683 3.97244
11.9419 24.7881 2
13.2296 25.3617 0.0280802
9.24201 21.1384 3.97686
11.141 22.2348 2
12.8292 23.2823 0.0295547
12.2356 20.5497 0.0253344
10.3889 19.3178 2
8.41612 18.0273 3.98567
11.6577 17.5632 0.0189367
9.75928 16.157 2
7.74928 14.6715 4
11.2192 14.3719 0.0113591
9.30602 12.7745 2
10.9835 10.9835 0
14.5208 32.861 3.97294
17.9129 33.1086 2
20.6569 33.3928 0.0254926
15.5098 29.6342 2
15.9103 26.3979 0.0295626
18.4148 30.1699 0.0272726
12.9226 36.2083 3.97223
14.9604 36.017 2
17.75 35.9624 0.0245419
12.6285 37.8285 2
11.2821 38.3093 3.97167
14.3528 39.1752 0.0267376
11.9261 40.1398 2
9.75361 40.7541 3.96947
12.4032 42.2762 0.0296002
10.1656 42.7778 2
7.93763 43.27 3.96992
10.5656 44.8027 0.0301403
8.38763 45.3213 2
6.13117 45.9057 3.97483
8.90973 47.3192 0.0282752
6.7249 48.0002 2
4.42167 48.7509 3.98461
7.43356 50.0351 0.0241322
5.20984 50.9087 2
2.85457 51.8506 4
6.13311 53.0067 0.0151539
3.86727 54.0858 2
5.0241 56.25 0
12.0713 31.2553 3.97103
10.7829 28.4143 3.96973
12.9249 29.0315 2
9.41408 25.798 3.97203
11.3709 26.4868 2
13.4669 26.8133 0.0298005
8.22949 23.0235 3.97592
10.2 23.968 2
11.9415 24.7885 0.0280485
7.19857 19.9782 3.9845
9.24261 21.1381 2
11.1404 22.2355 0.027629
10.3886 19.3186 0.0207189
8.41541 18.0293 2
6.31992 16.6661 4
9.76015 16.1557 0.0130621
7.74926 14.6714 2
9.30607 12.7746 0
12.1066 34.294 3.9723
14.5205 32.8609 2
17.9118 33.1085 0.025515
15.5096 29.6343 0.0282479
10.8453 36.6107 3.97143
12.9229 36.2082 2
14.96 36.017 0.026241
12.6282 37.8286 0.0269928
11.2822 38.3092 2
9.3499 38.8234 3.96979
11.926 40.1399 0.028828
9.75387 40.7541 2
7.54965 41.2112 3.96953
10.1656 42.7778 0.0307325
7.93765 43.2699 2
5.64367 43.7686 3.97399
8.38765 45.3213 0.0289785
6.13116 45.9055 2
3.76741 46.537 3.98411
6.72487 48.0005 0.0246341
4.42158 48.7503 2
1.99014 49.554 4
5.21002 50.91 0.0151352
2.85451 51.8506 2
3.86727 54.0858 0
10.9276 32.9185 3.97164
10.0961 30.3816 3.96959
12.0714 31.2553 2
8.72231 27.7316 3.97108
10.7829 28.4142 2
12.925 29.0317 0.0298727
7.35491 24.9824 3.9756
9.41428 25.7977 2
11.3708 26.4871 0.0292066
6.11566 22.0024 3.98438
8.23005 23.0234 2
10.1996 23.9683 0.0275574
5.02411 18.75 4
7.19827 19.9804 2
9.24201 21.1384 0.0231446
8.41612 18.0273 0.0143263
6.3199 16.6661 2
7.74928 14.6715 0
10.4523 34.9996 3.97122
12.107 34.2939 2
14.5208 32.861 0.0270582
9.02041 36.9848 3.96998
10.8458 36.6106 2
12.9226 36.2083 0.027767
11.2821 38.3093 0.0283282
9.35001 38.8233 2
7.2303 39.182 3.96971
9.75361 40.7541 0.0305319
7.54983 41.2111 2
5.25959 41.6142 3.97301
7.93763 43.27 0.0300775
5.64369 43.7684 2
3.24535 44.282 3.98337
6.13117 45.9057 0.025166
3.76741 46.5367 2
1.27781 47.2057 4
4.42167 48.7509 0.0153949
1.99012 49.554 2
2.85457 51.8506 0
10.093 33.881 3.97123
9.38876 32.1541 3.96997
10.9276 32.9184 2
8.07183 29.6953 3.97048
10.096 30.3814 2
12.0713 31.2553 0.0289702
6.59882 27.0084 3.97488
8.72233 27.7315 2
10.7829 28.4143 0.03027
5.17099 24.0954 3.98473
7.35519 24.9824 2
9.41408 25.798 0.0279699
3.86728 20.9142 4
6.1156 22.004 2
8.22949 23.0235 0.0240821
5.02406 18.75 2
7.19857 19.9782 0.0155024
6.31992 16.6661 0
8.84556 35.2793 3.9703
10.4525 34.9995 2
12.1066 34.294 0.0277
7.01404 37.2058 3.96987
9.02031 36.9847 2
10.8453 36.6107 0.0285715
9.3499 38.8234 0.0302145
7.23038 39.1819 2
4.98764 39.4675 3.97275
7.54965 41.2112 0.030473
5.25977 41.614 2
2.85608 42.0024 3.98258
5.64367 43.7686 0.0260127
3.24539 44.2819 2
0.720592 44.8159 4
3.76741 46.537 0.0158899
1.27778 47.2057 2
1.99014 49.554 0
8.88501 33.6976 3.97056
10.0931 33.881 2
7.50932 31.6089 3.97081
9.38874 32.154 2
10.9276 32.9185 0.028363
5.9443 29.0694 3.97435
8.07176 29.6951 2
10.0961 30.3816 0.0304101
4.35879 26.2479 3.98435
6.5989 27.0084 2
8.72231 27.7316 0.0289211
2.85458 23.1494 4
5.17096 24.0962 2
7.35491 24.9824 0.0243977
3.86728 20.9142 2
6.11566 22.0024 0.0156185
5.02411 18.75 0
6.96427 35.3059 3.97003
8.8458 35.2792 2
10.4523 34.9996 0.0287779
4.83776 37.3399 3.97312
7.01414 37.2057 2
9.02041 36.9848 0.0300167
7.2303 39.182 0.0302934
4.98771 39.4674 2
2.60432 39.7141 3.98209
5.25959 41.6142 0.0269855
2.85629 42.0026 2
0.320823 42.3947 4
3.24535 44.282 0.016634
0.720551 44.8159 2
1.27781 47.2057 0
7.12348 33.4607 3.97082
8.8851 33.6975 2
10.093 33.881 0.0287677
5.41532 31.1333 3.97434
7.50926 31.6088 2
9.38876 32.1541 0.0300276
3.6807 28.4436 3.98368
5.94423 29.0695 2
8.07183 29.6953 0.029522
1.99015 25.446 4
4.3588 26.2481 2
6.59882 27.0084 0.0251176
2.85453 23.1494 2
5.17099 24.0954 0.0152747
3.86728 20.9142 0
4.85204 35.2515 3.97318
6.96446 35.3058 2
8.84556 35.2793 0.0296981
2.4957 37.4287 3.98247
4.83784 37.3399 2
7.01404 37.2058 0.0301317
4.98764 39.4675 0.0272501
2.60443 39.7144 2
0.080333 39.9526 4
2.85608 42.0024 0.0174154
0.320817 42.3947 2
0.720592 44.8159 0
5.04499 33.19 3.97398
7.12357 33.4607 2
8.88501 33.6976 0.0294404
3.14513 30.6662 3.98316
5.41525 31.1334 2
7.50932 31.6089 0.0291913
1.27793 27.7943 4
3.68071 28.4436 2
5.9443 29.0694 0.025647
1.99013 25.446 2
4.35879 26.2479 0.0156538
2.85458 23.1494 0
2.54783 35.1591 3.98257
4.85225 35.2517 2
6.96427 35.3059 0.0299675
0 37.5 4
2.49585 37.4289 2
4.83776 37.3399 0.0268774
2.60432 39.7141 0.0179079
0.0802903 39.9526 2
0.320823 42.3947 0
2.76527 32.9058 3.98295
5.04508 33.1902 2
7.12348 33.4607 0.0291771
0.721173 30.1842 4
3.14516 30.6664 2
5.41532 31.1333 0.0256593
1.27779 27.7943 2
3.6807 28.4436 0.0163174
1.99015 25.446 0
0.0806499 35.0474 4
2.54805 35.1594 2
4.85204 35.2515 0.0268199
0 37.5 2
2.4957 37.4287 0.0175273
0.080333 39.9526 0
0.32156 32.6054 4
2.76539 32.9062 2
5.04499 33.19 0.0260159
0.72056 30.1841 2
3.14513 30.6662 0.0168414
1.27793 27.7943 0
0.0802889 35.0474 2
2.54783 35.1591 0.017431
0 37.5 0
0.320817 32.6053 2
2.76527 32.9058 0.0170532
0.721173 30.1842 0
0.0806499 35.0474 0
0.32156 32.6054 0
CELLS 1910 17190
8 18 6 25 56 2 0 5 16
8 57 23 6 18 17 4 0 2
8 78 36 9 29 31 11 1 7
8 31 11 1 7 79 37 10 30
8 110 57 18 50 48 17 2 14
8 50 18 56 111 14 2 16 49
8 116 62 22 55 52 20 3 15
8 56 25 67 118 16 5 24 53
8 119 63 23 57 54 21 4 17
8 55 22 63 119 15 3 21 54
8 58 26 68 121 18 6 25 56
8 122 65 26 58 57 23 6 18
8 73 31 7 27 142 79 30 71
8 143 78 29 72 73 31 7 27
8 83 147 76 34 32 74 28 8
8 84 148 78 36 33 75 29 9
8 76 34 8 28 148 84 33 75
8 37 79 150 86 10 30 77 35
8 151 87 36 78 80 38 11 31
8 80 38 11 31 152 88 37 79
8 175 100 42 94 96 44 12 40
8 44 96 176 101 12 40 95 43
8 101 176 98 46 43 95 41 13
8 46 98 178 103 13 41 97 45
8 178 103 45 97 147 83 32 74
8 189 116 55 109 106 52 15 47
8 111 56 118 191 49 16 53 107
8 192 119 57 110 108 54 17 48
8 109 55 119 192 47 15 54 108
8 194 122 58 112 110 57 18 50
8 112 58 121 195 50 18 56 111
8 115 61 19 51 197 124 59 113
8 115 61 125 198 51 19 60 114
8 198 125 62 116 114 60 20 52
8 200 127 64 120 116 62 22 55
8 118 67 132 202 53 24 66 117
8 121 68 133 203 56 25 67 118
8 120 64 128 204 55 22 63 119
8 204 128 65 122 119 63 23 57
8 206 134 68 121 123 69 26 58
8 123 69 26 58 207 131 65 122
8 226 147 74 138 140 76 28 70
8 229 148 75 139 143 78 29 72
8 140 76 28 70 229 148 75 139
8 142 79 30 71 231 150 77 141
8 144 80 31 73 232 152 79 142
8 233 151 78 143 144 80 31 73
8 150 86 35 77 235 154 81 145
8 235 154 81 145 146 82 39 91
8 146 82 39 91 236 155 90 165
8 238 157 83 147 149 85 34 76
8 239 158 84 148 151 87 36 78
8 149 85 34 76 239 158 84 148
8 152 88 37 79 241 160 86 150
8 242 161 87 151 153 89 38 80
8 153 89 38 80 243 162 88 152
8 171 98 41 92 265 178 97 169
8 265 178 97 169 226 147 74 138
8 172 96 40 93 266 176 95 170
8 266 176 95 170 171 98 41 92
8 269 175 94 173 172 96 40 93
8 271 180 99 174 175 100 42 94
8 197 124 59 113 271 180 99 174
8 272 181 100 175 177 102 44 96
8 273 182 101 176 179 104 46 98
8 177 102 44 96 273 182 101 176
8 179 104 46 98 275 184 103 178
8 275 184 103 178 238 157 83 147
8 188 115 51 105 283 197 113 186
8 188 115 198 284 105 51 114 187
8 284 198 116 189 187 114 52 106
8 286 200 120 193 189 116 55 109
8 191 118 202 288 107 53 117 190
8 195 121 203 289 111 56 118 191
8 193 120 204 290 109 55 119 192
8 290 204 122 194 192 119 57 110
8 196 123 58 112 292 207 122 194
8 293 206 121 195 196 123 58 112
8 199 126 61 115 297 211 124 197
8 298 212 127 200 198 125 62 116
8 199 126 212 298 115 61 125 198
8 205 129 64 120 300 214 127 200
8 301 217 130 201 202 132 66 117
8 209 136 168 264 301 217 130 201
8 302 219 132 202 203 133 67 118
8 303 220 133 203 206 134 68 121
8 205 129 215 304 120 64 128 204
8 304 215 131 207 204 128 65 122
8 306 221 134 206 208 135 69 123
8 208 135 69 123 307 218 131 207
8 210 137 167 263 309 223 136 209
8 328 238 147 226 230 149 76 140
8 228 146 91 166 329 236 165 260
8 231 150 77 141 330 235 145 227
8 330 235 145 227 228 146 91 166
8 332 239 148 229 233 151 78 143
8 230 149 76 140 332 239 148 229
8 232 152 79 142 334 241 150 231
8 234 153 80 144 335 243 152 232
8 336 242 151 233 234 153 80 144
8 236 155 90 165 338 245 164 259
8 241 160 86 150 339 246 154 235
8 339 246 154 235 237 156 82 146
8 237 156 82 146 340 247 155 236
8 342 249 157 238 240 159 85 149
8 343 250 158 239 242 161 87 151
8 240 159 85 149 343 250 158 239
8 243 162 88 152 345 252 160 241
8 244 163 253 346 153 89 161 242
8 244 163 89 153 347 254 162 243
8 311 224 261 371 210 137 167 263
8 263 167 262 372 209 136 168 264
8 267 179 98 171 375 275 178 265
8 375 275 178 265 328 238 147 226
8 376 273 176 266 267 179 98 171
8 268 177 96 172 376 273 176 266
8 379 272 175 269 268 177 96 172
8 380 271 174 270 269 175 94 173
8 283 197 113 186 380 271 174 270
8 381 277 180 271 272 181 100 175
8 297 211 124 197 381 277 180 271
8 382 278 181 272 274 183 102 177
8 274 183 102 177 383 279 182 273
8 383 279 182 273 276 185 104 179
8 385 281 184 275 342 249 157 238
8 276 185 104 179 385 281 184 275
8 285 199 115 188 393 297 197 283
8 394 298 200 286 284 198 116 189
8 285 199 298 394 188 115 198 284
8 291 205 120 193 396 300 200 286
8 397 301 201 287 288 202 117 190
8 295 209 264 374 397 301 201 287
8 398 302 202 288 289 203 118 191
8 399 303 203 289 293 206 121 195
8 291 205 304 400 193 120 204 290
8 400 304 207 292 290 204 122 194
8 294 208 123 196 402 307 207 292
8 403 306 206 293 294 208 123 196
8 296 210 263 373 405 309 209 295
8 408 312 213 299 297 211 126 199
8 299 213 313 409 199 126 212 298
8 409 313 214 300 298 212 127 200
8 305 216 129 205 411 315 214 300
8 412 318 217 301 302 219 132 202
8 309 223 136 209 412 318 217 301
8 413 320 219 302 303 220 133 203
8 306 221 321 414 206 134 220 303
8 307 218 131 207 415 316 215 304
8 305 216 316 415 205 129 215 304
8 417 322 221 306 308 222 135 208
8 308 222 135 208 418 319 218 307
8 310 225 137 210 420 325 223 309
8 423 326 224 311 310 225 137 210
8 329 236 165 260 441 338 259 368
8 442 342 238 328 333 240 149 230
8 331 237 146 228 443 340 236 329
8 334 241 150 231 444 339 235 330
8 444 339 235 330 331 237 146 228
8 446 343 239 332 336 242 151 233
8 333 240 149 230 446 343 239 332
8 335 243 152 232 448 345 241 334
8 337 244 153 234 449 347 243 335
8 337 244 346 450 234 153 242 336
8 338 245 164 259 452 349 258 367
8 340 247 155 236 453 350 245 338
8 345 252 160 241 454 351 246 339
8 454 351 246 339 341 248 156 237
8 341 248 156 237 455 352 247 340
8 240 159 251 344 342 249 354 457
8 242 161 253 346 343 250 355 458
8 343 250 355 458 240 159 251 344
8 347 254 162 243 460 357 252 345
8 348 255 358 461 244 163 253 346
8 348 255 163 244 462 359 254 347
8 473 360 257 365 363 256 364 482
8 452 349 258 367 365 257 366 485
8 422 324 369 488 311 224 261 371
8 371 261 370 490 263 167 262 372
8 407 311 371 491 296 210 263 373
8 373 263 372 492 295 209 264 374
8 493 385 275 375 442 342 238 328
8 377 276 179 267 493 385 275 375
8 378 274 177 268 494 383 273 376
8 494 383 273 376 377 276 179 267
8 497 382 272 379 378 274 177 268
8 498 381 271 380 379 272 175 269
8 393 297 197 283 498 381 271 380
8 499 387 277 381 382 278 181 272
8 408 312 211 297 499 387 277 381
8 500 388 278 382 384 280 183 274
8 501 389 279 383 386 282 185 276
8 384 280 183 274 501 389 279 383
8 386 282 185 276 503 391 281 385
8 503 391 281 385 457 354 249 342
8 511 408 299 395 393 297 199 285
8 395 299 409 512 285 199 298 394
8 512 409 300 396 394 298 200 286
8 401 305 205 291 514 411 300 396
8 515 412 301 397 398 302 202 288
8 405 309 209 295 515 412 301 397
8 516 413 302 398 399 303 203 289
8 403 306 414 517 293 206 303 399
8 402 307 207 292 518 415 304 400
8 401 305 415 518 291 205 304 400
8 404 308 208 294 520 418 307 402
8 521 417 306 403 404 308 208 294
8 406 310 210 296 523 420 309 405
8 526 423 311 407 406 310 210 296
8 410 314 213 299 527 424 312 408
8 528 425 315 411 409 313 214 300
8 410 314 425 528 299 213 313 409
8 416 317 216 305 530 427 315 411
8 531 430 318 412 413 320 219 302
8 420 325 223 309 531 430 318 412
8 532 432 320 413 414 321 220 303
8 417 322 433 533 306 221 321 414
8 418 319 218 307 534 428 316 415
8 416 317 428 534 305 216 316 415
8 419 323 434 536 308 222 322 417
8 419 323 222 308 537 431 319 418
8 421 327 225 310 539 438 325 420
8 421 327 439 541 310 225 326 423
8 543 437 324 422 423 326 224 311
8 441 338 259 368 559 452 367 486
8 443 340 236 329 560 453 338 441
8 333 240 344 447 442 342 457 561
8 445 341 237 331 562 455 340 443
8 448 345 241 334 563 454 339 444
8 563 454 339 444 445 341 237 331
8 336 242 346 450 446 343 458 565
8 446 343 458 565 333 240 344 447
8 449 347 243 335 567 460 345 448
8 451 348 244 337 568 462 347 449
8 451 348 461 569 337 244 346 450
8 570 463 349 452 473 360 257 365
8 453 350 245 338 570 463 349 452
8 455 352 247 340 571 464 350 453
8 460 357 252 345 572 465 351 454
8 572 465 351 454 456 353 248 341
8 456 353 248 341 573 466 352 455
8 344 251 356 459 457 354 468 575
8 458 355 469 576 344 251 356 459
8 346 253 358 461 458 355 469 576
8 462 359 254 347 578 471 357 460
8 348 255 359 462 461 358 472 579
8 591 474 360 473 475 361 256 363
8 475 361 256 363 594 477 362 479
8 363 256 364 482 479 362 480 603
8 590 473 365 484 481 363 482 605
8 482 364 257 365 606 483 366 485
8 559 452 367 486 484 365 485 607
8 542 436 487 609 422 324 369 488
8 525 422 488 611 407 311 371 491
8 488 369 489 612 371 261 370 490
8 491 371 490 613 373 263 372 492
8 495 386 276 377 614 503 385 493
8 614 503 385 493 561 457 342 442
8 615 501 383 494 495 386 276 377
8 496 384 274 378 615 501 383 494
8 618 500 382 497 496 384 274 378
8 619 499 381 498 497 382 272 379
8 511 408 297 393 619 499 381 498
8 620 505 387 499 500 388 278 382
8 527 424 312 408 620 505 387 499
8 502 390 506 621 384 280 388 500
8 622 507 389 501 504 392 282 386
8 502 390 280 384 622 507 389 501
8 504 392 282 386 624 509 391 503
8 624 509 391 503 575 468 354 457
8 513 410 299 395 630 527 408 511
8 631 528 411 514 512 409 300 396
8 513 410 528 631 395 299 409 512
8 519 416 305 401 633 530 411 514
8 634 531 412 515 516 413 302 398
8 523 420 309 405 634 531 412 515
8 635 532 413 516 517 414 303 399
8 521 417 533 636 403 306 414 517
8 520 418 307 402 637 534 415 518
8 519 416 534 637 401 305 415 518
8 522 419 308 404 639 537 418 520
8 522 419 536 640 404 308 417 521
8 524 421 310 406 642 539 420 523
8 524 421 541 644 406 310 423 526
8 646 543 422 525 526 423 311 407
8 529 426 314 410 647 544 424 527
8 528 425 545 648 411 315 427 530
8 529 426 545 648 410 314 425 528
8 535 429 317 416 649 546 427 530
8 650 548 430 531 532 432 320 413
8 539 438 325 420 650 548 430 531
8 533 433 550 651 414 321 432 532
8 536 434 551 652 417 322 433 533
8 537 431 319 418 653 547 428 534
8 535 429 547 653 416 317 428 534
8 538 435 552 654 419 323 434 536
8 538 435 323 419 655 549 431 537
8 540 440 327 421 657 556 438 539
8 540 440 557 659 421 327 439 541
8 541 439 555 660 423 326 437 543
8 661 554 436 542 543 437 324 422
8 676 570 452 559 590 473 365 484
8 560 453 338 441 676 570 452 559
8 562 455 340 443 677 571 453 560
8 447 344 459 566 561 457 575 678
8 564 456 341 445 679 573 455 562
8 567 460 345 448 680 572 454 563
8 680 572 454 563 564 456 341 445
8 565 458 576 682 447 344 459 566
8 450 346 461 569 565 458 576 682
8 568 462 347 449 684 578 460 567
8 451 348 462 568 569 461 579 685
8 686 580 463 570 591 474 360 473
8 571 464 350 453 686 580 463 570
8 573 466 352 455 687 581 464 571
8 572 465 582 688 460 357 471 578
8 574 467 582 688 456 353 465 572
8 574 467 353 456 689 583 466 573
8 459 356 470 577 575 468 585 691
8 576 469 586 692 459 356 470 577
8 461 358 472 579 576 469 586 692
8 462 359 471 578 579 472 588 694
8 704 591 473 590 593 475 363 481
8 595 476 592 705 475 361 474 591
8 593 475 363 481 707 594 479 602
8 594 477 362 479 709 598 478 600
8 595 476 361 475 711 597 477 594
8 479 362 480 603 600 478 601 720
8 481 363 482 605 602 479 603 722
8 603 480 364 482 723 604 483 606
8 605 482 365 484 724 606 485 607
8 656 553 608 726 542 436 487 609
8 645 542 609 728 525 422 488 611
8 609 487 610 729 488 369 489 612
8 611 488 612 730 491 371 490 613
8 616 504 386 495 731 624 503 614
8 731 624 503 614 678 575 457 561
8 732 622 501 615 616 504 386 495
8 617 502 384 496 732 622 501 615
8 617 502 621 735 496 384 500 618
8 736 620 499 619 618 500 382 497
8 630 527 408 511 736 620 499 619
8 621 506 626 737 500 388 505 620
8 647 544 424 527 737 626 505 620
8 623 508 627 738 502 390 506 621
8 623 508 390 502 739 628 507 622
8 625 510 628 739 504 392 507 622
8 740 629 509 624 691 585 468 575
8 625 510 392 504 740 629 509 624
8 632 529 410 513 744 647 527 630
8 631 528 648 745 514 411 530 633
8 632 529 648 745 513 410 528 631
8 638 535 416 519 746 649 530 633
8 747 650 531 634 635 532 413 516
8 642 539 420 523 747 650 531 634
8 636 533 651 748 517 414 532 635
8 640 536 652 749 521 417 533 636
8 639 537 418 520 750 653 534 637
8 638 535 653 750 519 416 534 637
8 641 538 419 522 751 655 537 639
8 641 538 654 752 522 419 536 640
8 643 540 421 524 753 657 539 642
8 643 540 659 755 524 421 541 644
8 644 541 660 757 526 423 543 646
8 758 661 542 645 646 543 422 525
8 529 426 544 647 648 545 662 759
8 530 427 545 648 649 546 663 760
8 535 429 546 649 653 547 664 761
8 762 666 548 650 651 550 432 532
8 657 556 438 539 762 666 548 650
8 652 551 668 763 533 433 550 651
8 654 552 669 764 536 434 551 652
8 655 549 431 537 765 665 547 653
8 538 435 549 655 654 552 667 766
8 661 554 671 768 542 436 553 656
8 658 558 440 540 769 674 556 657
8 658 558 675 770 540 440 557 659
8 659 557 673 771 541 439 555 660
8 660 555 672 772 543 437 554 661
8 788 686 570 676 704 591 473 590
8 677 571 453 560 788 686 570 676
8 679 573 455 562 789 687 571 677
8 566 459 577 683 678 575 691 790
8 681 574 456 564 791 689 573 679
8 680 572 688 792 567 460 578 684
8 681 574 688 792 564 456 572 680
8 682 576 692 794 566 459 577 683
8 569 461 579 685 682 576 692 794
8 568 462 578 684 685 579 694 796
8 687 581 464 571 798 696 580 686
8 798 696 580 686 705 592 474 591
8 689 583 466 573 799 697 581 687
8 688 582 698 800 578 471 588 694
8 690 584 698 800 574 467 582 688
8 690 584 467 574 801 699 583 689
8 693 587 701 803 577 470 585 691
8 693 587 470 577 804 702 586 692
8 695 589 702 804 579 472 586 692
8 695 589 472 579 805 703 588 694
8 708 595 705 813 593 475 591 704
8 710 596 706 814 595 476 592 705
8 707 594 479 602 816 709 600 719
8 708 595 475 593 817 711 594 707
8 709 598 478 600 819 715 599 717
8 711 597 477 594 820 714 598 709
8 710 596 476 595 822 713 597 711
8 600 478 601 720 717 599 718 832
8 602 479 603 722 719 600 720 834
8 720 601 480 603 835 721 604 723
8 722 603 482 605 836 723 606 724
8 767 670 725 839 656 553 608 726
8 756 656 726 841 645 542 609 728
8 726 608 727 842 609 487 610 729
8 728 609 729 843 611 488 612 730
8 844 740 624 731 790 691 575 678
8 733 625 504 616 844 740 624 731
8 734 623 502 617 845 739 622 732
8 733 625 739 845 616 504 622 732
8 734 623 738 846 617 502 621 735
8 735 621 737 847 618 500 620 736
8 744 647 527 630 847 737 620 736
8 621 506 627 738 737 626 741 848
8 647 544 626 737 759 662 741 848
8 623 508 628 739 738 627 742 849
8 740 629 585 691 850 743 700 802
8 625 510 629 740 739 628 743 850
8 632 529 647 744 745 648 759 854
8 633 530 648 745 746 649 760 855
8 638 535 649 746 750 653 761 856
8 857 762 650 747 748 651 532 635
8 753 657 539 642 857 762 650 747
8 749 652 763 858 636 533 651 748
8 752 654 764 859 640 536 652 749
8 751 655 537 639 860 765 653 750
8 641 538 655 751 752 654 766 861
8 754 658 540 643 862 769 657 753
8 754 658 770 863 643 540 659 755
8 755 659 771 864 644 541 660 757
8 758 661 768 866 645 542 656 756
8 757 660 772 867 646 543 661 758
8 759 662 773 868 648 545 663 760
8 649 546 663 760 761 664 774 871
8 765 665 547 653 872 775 664 761
8 873 777 666 762 763 668 550 651
8 769 674 556 657 873 777 666 762
8 764 669 779 874 652 551 668 763
8 654 552 667 766 764 669 778 875
8 655 549 665 765 766 667 776 876
8 768 671 782 877 656 553 670 767
8 772 672 783 878 661 554 671 768
8 658 558 674 769 770 675 786 879
8 659 557 675 770 771 673 785 881
8 882 784 672 772 771 673 555 660
8 789 687 571 677 897 798 686 788
8 897 798 686 788 813 705 591 704
8 791 689 573 679 898 799 687 789
8 795 693 803 900 683 577 691 790
8 793 690 574 681 901 801 689 791
8 792 688 800 902 684 578 694 796
8 793 690 800 902 681 574 688 792
8 795 693 577 683 903 804 692 794
8 797 695 804 903 685 579 692 794
8 797 695 579 685 904 805 694 796
8 905 806 697 799 798 696 581 687
8 814 706 806 905 705 592 696 798
8 689 583 697 799 801 699 808 907
8 800 698 809 908 694 588 703 805
8 690 584 699 801 800 698 809 908
8 803 701 810 909 691 585 700 802
8 693 587 702 804 803 701 811 910
8 695 589 703 805 804 702 812 911
8 818 710 814 919 708 595 705 813
8 821 712 815 920 710 596 706 814
8 816 709 600 719 922 819 717 831
8 817 711 594 707 923 820 709 816
8 818 710 595 708 924 822 711 817
8 819 715 599 717 926 827 716 829
8 820 714 598 709 927 826 715 819
8 929 825 713 822 820 714 597 711
8 821 712 596 710 930 824 713 822
8 717 599 718 832 829 716 830 942
8 719 600 720 834 831 717 832 944
8 832 718 601 720 945 833 721 835
8 834 720 603 722 946 835 723 836
8 869 780 838 950 767 670 725 839
8 865 767 839 952 756 656 726 841
8 839 725 840 953 726 608 727 842
8 841 726 842 954 728 609 729 843
8 844 740 691 790 955 850 802 899
8 733 625 740 844 845 739 850 955
8 734 623 739 845 846 738 849 956
8 735 621 738 846 847 737 848 957
8 744 647 737 847 854 759 848 957
8 738 627 742 849 848 741 851 958
8 848 741 851 958 759 662 773 868
8 850 743 700 802 959 852 807 906
8 849 742 628 739 959 852 743 850
8 854 759 868 965 745 648 760 855
8 746 649 760 855 856 761 871 966
8 860 765 653 750 967 872 761 856
8 968 873 762 857 858 763 651 748
8 862 769 657 753 968 873 762 857
8 859 764 874 969 749 652 763 858
8 752 654 766 861 859 764 875 970
8 751 655 765 860 861 766 876 971
8 754 658 769 862 863 770 879 972
8 755 659 770 863 864 771 881 974
8 976 882 772 867 864 771 660 757
8 866 768 877 977 756 656 767 865
8 867 772 878 978 758 661 768 866
8 760 663 773 868 871 774 883 980
8 870 781 837 948 982 890 780 869
8 982 890 780 869 877 782 670 767
8 761 664 774 871 872 775 884 984
8 876 776 665 765 985 885 775 872
8 873 777 668 763 986 887 779 874
8 769 674 777 873 879 786 887 986
8 764 669 778 875 874 779 888 987
8 766 667 776 876 875 778 886 988
8 878 783 892 989 768 671 782 877
8 878 783 672 772 990 893 784 882
8 880 787 675 770 991 896 786 879
8 880 787 895 992 770 675 785 881
8 881 785 894 993 771 673 784 882
8 1006 905 799 898 897 798 687 789
8 919 814 905 1006 813 705 798 897
8 791 689 799 898 901 801 907 1007
8 900 803 909 1009 790 691 802 899
8 795 693 804 903 900 803 910 1010
8 902 800 908 1011 796 694 805 904
8 793 690 801 901 902 800 908 1011
8 797 695 805 904 903 804 911 1012
8 799 697 806 905 907 808 912 1013
8 920 815 912 1013 814 706 806 905
8 802 700 810 909 906 807 913 1014
8 801 699 808 907 908 809 914 1015
8 805 703 809 908 911 812 915 1016
8 803 701 811 910 909 810 916 1017
8 911 812 917 1018 804 702 811 910
8 925 821 920 1030 818 710 814 919
8 928 823 921 1031 821 712 815 920
8 922 819 717 831 1033 926 829 941
8 923 820 709 816 1034 927 819 922
8 1035 929 822 924 923 820 711 817
8 925 821 710 818 1036 930 822 924
8 1038 933 825 929 927 826 714 820
8 926 827 716 829 1039 935 828 939
8 927 826 715 819 1040 934 827 926
8 928 823 712 821 1041 931 824 930
8 1042 932 824 930 929 825 713 822
8 829 716 830 942 939 828 940 1058
8 831 717 832 944 941 829 942 1060
8 942 830 718 832 1061 943 833 945
8 944 832 720 834 1062 945 835 946
8 981 889 947 1064 870 781 837 948
8 948 837 949 1067 869 780 838 950
8 975 869 950 1069 865 767 839 952
8 950 838 951 1070 839 725 840 953
8 952 839 953 1071 841 726 842 954
8 955 850 802 899 1072 959 906 1008
8 956 849 739 845 1072 959 850 955
8 846 738 849 956 957 848 958 1073
8 957 848 958 1073 854 759 868 965
8 849 742 852 959 958 851 961 1076
8 960 853 961 1076 906 807 852 959
8 958 851 961 1076 868 773 883 980
8 960 853 807 906 1077 963 913 1014
8 855 760 868 965 966 871 980 1085
8 856 761 871 966 967 872 984 1086
8 971 876 765 860 1087 985 872 967
8 968 873 763 858 1088 986 874 969
8 862 769 873 968 972 879 986 1088
8 859 764 875 970 969 874 987 1089
8 861 766 876 971 970 875 988 1090
8 973 880 770 863 1091 991 879 972
8 973 880 992 1092 863 770 881 974
8 974 881 993 1093 864 771 882 976
8 979 870 948 1066 1094 982 869 975
8 1094 982 869 975 977 877 767 865
8 978 878 772 867 1095 990 882 976
8 978 878 989 1096 866 768 877 977
8 871 774 883 980 984 884 994 1099
8 983 891 999 1100 870 781 889 981
8 1101 1000 890 982 989 892 782 877
8 983 891 781 870 1101 1000 890 982
8 872 775 884 984 985 885 995 1103
8 876 776 885 985 988 886 996 1104
8 986 887 779 874 1105 998 888 987
8 879 786 887 986 991 896 998 1105
8 875 778 886 988 987 888 997 1106
8 990 893 1002 1107 878 783 892 989
8 1108 1003 893 990 993 894 784 882
8 880 787 896 991 992 895 1005 1109
8 993 894 785 881 1110 1004 895 992
8 898 799 905 1006 1007 907 1013 1120
8 1030 920 1013 1120 919 814 905 1006
8 901 801 907 1007 1011 908 1015 1121
8 899 802 909 1009 1008 906 1014 1122
8 900 803 910 1010 1009 909 1017 1123
8 1012 911 1018 1124 903 804 910 1010
8 904 805 908 1011 1012 911 1016 1125
8 1013 912 1020 1127 907 808 914 1015
8 1031 921 1020 1127 920 815 912 1013
8 1019 918 962 1075 1128 1021 913 1014
8 1128 1021 913 1014 1017 916 810 909
8 1015 914 1022 1129 908 809 915 1016
8 1016 915 1023 1130 911 812 917 1018
8 1018 917 1024 1131 910 811 916 1017
8 1037 928 1031 1148 925 821 920 1030
8 928 823 931 1041 1031 921 1032 1149
8 1033 926 829 941 1151 1039 939 1057
8 1034 927 819 922 1152 1040 926 1033
8 1153 1038 929 1035 1034 927 820 923
8 1154 1042 930 1036 1035 929 822 924
8 1037 928 821 925 1155 1041 930 1036
8 1039 935 828 939 1156 1047 938 1055
8 1157 1043 932 1042 1038 933 825 929
8 1038 933 826 927 1158 1045 934 1040
8 1040 934 827 926 1159 1046 935 1039
8 930 824 932 1042 1041 931 1044 1160
8 1051 936 1048 1165 1175 1052 937 1053
8 1156 1047 938 1055 1053 937 1054 1178
8 939 828 940 1058 1055 938 1056 1181
8 941 829 942 1060 1057 939 1058 1183
8 942 830 943 1061 1058 940 1059 1184
8 1060 942 832 944 1185 1061 945 1062
8 1082 964 1063 1188 981 889 947 1064
8 1097 981 1064 1190 979 870 948 1066
8 1064 947 1065 1191 948 837 949 1067
8 1066 948 1067 1193 975 869 950 1069
8 1067 949 1068 1194 950 838 951 1070
8 1069 950 1070 1195 952 839 953 1071
8 956 849 959 1072 1073 958 1076 1197
8 1074 960 1076 1197 1008 906 959 1072
8 1073 958 1076 1197 965 868 980 1085
8 1074 960 906 1008 1198 1077 1014 1122
8 1133 1026 1079 1199 1019 918 962 1075
8 1077 963 913 1014 1200 1080 962 1075
8 960 853 963 1077 1076 961 1078 1201
8 980 883 961 1076 1099 994 1078 1201
8 1210 1083 964 1082 1100 999 889 981
8 966 871 980 1085 1086 984 1099 1215
8 967 872 984 1086 1087 985 1103 1216
8 971 876 985 1087 1090 988 1104 1217
8 1088 986 874 969 1218 1105 987 1089
8 972 879 986 1088 1091 991 1105 1218
8 970 875 988 1090 1089 987 1106 1219
8 973 880 991 1091 1092 992 1109 1220
8 1093 993 881 974 1221 1110 992 1092
8 1222 1108 990 1095 1093 993 882 976
8 1223 1101 982 1094 1096 989 877 977
8 1098 983 870 979 1223 1101 982 1094
8 1095 990 1107 1224 978 878 989 1096
8 1098 983 1100 1225 979 870 981 1097
8 984 884 994 1099 1103 995 1111 1227
8 1102 1001 1115 1228 983 891 999 1100
8 1101 1000 892 989 1229 1116 1002 1107
8 1102 1001 891 983 1229 1116 1000 1101
8 985 885 995 1103 1104 996 1112 1230
8 988 886 996 1104 1106 997 1113 1231
8 1105 998 888 987 1232 1114 997 1106
8 991 896 998 1105 1109 1005 1114 1232
8 1108 1003 1117 1233 990 893 1002 1107
8 1108 1003 894 993 1233 1117 1004 1110
8 992 895 1005 1109 1110 1004 1118 1234
8 1120 1013 1127 1244 1007 907 1015 1121
8 1148 1031 1127 1244 1030 920 1013 1120
8 1121 1015 1129 1245 1011 908 1016 1125
8 1126 1019 1075 1196 1246 1128 1014 1122
8 1246 1128 1014 1122 1123 1017 909 1009
8 1124 1018 1131 1247 1010 910 1017 1123
8 1125 1016 1130 1248 1012 911 1018 1124
8 1127 1020 1137 1254 1015 914 1022 1129
8 1031 921 1032 1149 1127 1020 1137 1254
8 1134 1027 918 1019 1257 1140 1021 1128
8 1257 1140 1021 1128 1131 1024 916 1017
8 1129 1022 1141 1258 1016 915 1023 1130
8 1130 1023 1142 1259 1018 917 1024 1131
8 1261 1144 1025 1132 1133 1026 1079 1199
8 1255 1138 1025 1132 1135 1028 1144 1261
8 1133 1026 918 1019 1262 1145 1027 1134
8 1136 1029 1139 1256 1263 1146 1028 1135
8 1037 928 1041 1155 1148 1031 1149 1275
8 1041 931 1044 1160 1149 1032 1150 1276
8 1151 1039 939 1057 1278 1156 1055 1180
8 1152 1040 926 1033 1279 1159 1039 1151
8 1153 1038 927 1034 1280 1158 1040 1152
8 1281 1157 1042 1154 1153 1038 929 1035
8 1036 930 1042 1154 1155 1041 1160 1282
8 1283 1164 1046 1159 1156 1047 935 1039
8 1165 1048 1164 1283 1053 937 1047 1156
8 1157 1043 933 1038 1284 1161 1045 1158
8 1157 1043 1161 1284 1042 932 1044 1160
8 1040 934 1046 1159 1158 1045 1163 1285
8 1166 1049 1167 1292 1051 936 1048 1165
8 1166 1049 936 1051 1293 1168 1050 1172
8 1051 936 1052 1175 1172 1050 1173 1306
8 1174 1051 1165 1290 1308 1175 1053 1177
8 1053 937 1054 1178 1175 1052 1176 1309
8 1278 1156 1055 1180 1177 1053 1178 1311
8 1055 938 1056 1181 1178 1054 1179 1312
8 1057 939 1058 1183 1180 1055 1181 1314
8 1058 940 1059 1184 1181 1056 1182 1315
8 1060 942 1061 1185 1183 1058 1184 1316
8 1208 1081 1187 1321 1082 964 1063 1188
8 1209 1082 1188 1322 1097 981 1064 1190
8 1188 1063 1189 1323 1064 947 1065 1191
8 1190 1064 1191 1325 1066 948 1067 1193
8 1191 1065 1192 1326 1067 949 1068 1194
8 1067 1193 1069 950 1194 1327 1195 1070
8 1250 1133 1199 1330 1126 1019 1075 1196
8 1198 1077 1014 1122 1331 1200 1075 1196
8 1074 960 1077 1198 1197 1076 1201 1332
8 1085 980 1076 1197 1215 1099 1201 1332
8 1199 1079 1203 1333 1075 962 1080 1200
8 1132 1025 1119 1243 1199 1079 1203 1333
8 1201 1078 963 1077 1334 1202 1080 1200
8 1099 994 1078 1201 1227 1111 1202 1334
8 1343 1207 1081 1208 1210 1083 964 1082
8 1214 1084 1186 1319 1343 1207 1081 1208
8 1345 1210 1082 1209 1225 1100 981 1097
8 1346 1211 1083 1210 1228 1115 999 1100
8 1086 984 1099 1215 1216 1103 1227 1352
8 1087 985 1103 1216 1217 1104 1230 1353
8 1090 988 1104 1217 1219 1106 1231 1354
8 1218 1105 987 1089 1355 1232 1106 1219
8 1091 991 1105 1218 1220 1109 1232 1355
8 1092 992 1109 1220 1221 1110 1234 1356
8 1222 1108 1233 1357 1095 990 1107 1224
8 1222 1108 993 1093 1357 1233 1110 1221
8 1223 1101 989 1096 1358 1229 1107 1224
8 1226 1102 983 1098 1358 1229 1101 1223
8 1226 1102 1228 1359 1098 983 1100 1225
8 1103 995 1111 1227 1230 1112 1235 1360
8 1107 1002 1117 1233 1229 1116 1240 1362
8 1102 1001 1116 1229 1228 1115 1240 1362
8 1104 996 1112 1230 1231 1113 1236 1363
8 1364 1237 1114 1232 1231 1113 997 1106
8 1109 1005 1114 1232 1234 1118 1238 1365
8 1110 1004 1118 1234 1233 1117 1241 1366
8 1242 1374 1255 1138 1119 1243 1132 1025
8 1244 1127 1254 1376 1121 1015 1129 1245
8 1148 1031 1149 1275 1244 1127 1254 1376
8 1245 1129 1258 1377 1125 1016 1130 1248
8 1251 1134 1019 1126 1378 1257 1128 1246
8 1378 1257 1128 1246 1247 1131 1017 1123
8 1248 1130 1259 1379 1124 1018 1131 1247
8 1261 1381 1250 1133 1132 1249 1330 1199
8 1255 1380 1252 1135 1132 1249 1381 1261
8 1250 1133 1019 1126 1382 1262 1134 1251
8 1253 1136 1256 1385 1384 1263 1135 1252
8 1254 1137 1265 1387 1129 1022 1141 1258
8 1149 1032 1150 1276 1254 1137 1265 1387
8 1028 1135 1255 1138 1139 1256 1388 1266
8 1136 1029 1147 1264 1256 1139 1267 1389
8 1390 1268 1140 1257 1259 1142 1024 1131
8 1260 1143 1027 1134 1390 1268 1140 1257
8 1258 1141 1269 1391 1130 1023 1142 1259
8 1262 1145 1027 1134 1393 1271 1143 1260
8 1261 1144 1026 1133 1394 1272 1145 1262
8 1135 1028 1144 1261 1263 1146 1272 1394
8 1136 1029 1146 1263 1264 1147 1273 1395
8 1155 1041 1160 1282 1275 1149 1276 1405
8 1276 1150 1044 1160 1406 1277 1162 1286
8 1408 1283 1159 1279 1278 1156 1039 1151
8 1290 1165 1283 1408 1177 1053 1156 1278
8 1152 1040 1159 1279 1280 1158 1285 1409
8 1281 1157 1038 1153 1410 1284 1158 1280
8 1281 1157 1284 1410 1154 1042 1160 1282
8 1159 1046 1164 1283 1285 1163 1289 1412
8 1292 1167 1289 1412 1165 1048 1164 1283
8 1158 1045 1163 1285 1284 1161 1288 1413
8 1284 1161 1288 1413 1160 1044 1162 1286
8 1291 1166 1292 1418 1174 1051 1165 1290
8 1291 1166 1051 1174 1419 1293 1172 1305
8 1294 1169 1296 1421 1166 1049 1167 1292
8 1293 1168 1050 1172 1422 1295 1171 1303
8 1294 1169 1049 1166 1423 1297 1168 1293
8 1422 1295 1171 1303 1301 1170 1302 1435
8 1172 1050 1173 1306 1303 1171 1304 1438
8 1174 1051 1175 1308 1305 1172 1306 1440
8 1175 1052 1176 1309 1306 1173 1307 1441
8 1177 1053 1178 1311 1308 1175 1309 1443
8 1178 1054 1179 1312 1309 1176 1310 1444
8 1180 1055 1181 1314 1311 1178 1312 1446
8 1056 1181 1312 1179 1182 1315 1447 1313
8 1183 1058 1184 1316 1314 1181 1315 1448
8 1319 1186 1084 1214 1451 1317 1213 1350
8 1319 1186 1318 1453 1208 1081 1187 1321
8 1321 1187 1320 1456 1188 1063 1189 1323
8 1344 1208 1321 1457 1209 1082 1188 1322
8 1322 1188 1323 1458 1190 1064 1191 1325
8 1323 1189 1324 1459 1191 1065 1192 1326
8 1191 1325 1193 1067 1326 1460 1327 1194
8 1242 1374 1243 1119 1328 1462 1335 1204
8 1330 1199 1333 1465 1196 1075 1200 1331
8 1132 1249 1330 1199 1243 1375 1465 1333
8 1332 1201 1077 1198 1466 1334 1200 1331
8 1215 1099 1201 1332 1352 1227 1334 1466
8 1119 1243 1333 1203 1204 1335 1470 1338
8 1333 1203 1338 1470 1200 1080 1202 1334
8 1227 1111 1202 1334 1360 1235 1338 1470
8 1328 1462 1335 1204 1205 1336 1471 1339
8 1337 1206 1340 1472 1464 1329 1205 1336
8 1346 1211 1342 1479 1210 1083 1207 1343
8 1346 1211 1115 1228 1479 1342 1239 1361
8 1348 1212 1084 1214 1479 1342 1207 1343
8 1480 1343 1208 1344 1345 1210 1082 1209
8 1351 1214 1319 1454 1480 1343 1208 1344
8 1481 1346 1210 1345 1359 1228 1100 1225
8 1348 1212 1347 1483 1214 1084 1213 1350
8 1216 1103 1227 1352 1353 1230 1360 1488
8 1217 1104 1230 1353 1354 1231 1363 1489
8 1490 1364 1232 1355 1354 1231 1106 1219
8 1220 1109 1232 1355 1356 1234 1365 1491
8 1221 1110 1234 1356 1357 1233 1366 1492
8 1224 1107 1233 1357 1358 1229 1362 1493
8 1226 1102 1229 1358 1359 1228 1362 1493
8 1230 1112 1235 1360 1363 1236 1367 1496
8 1361 1239 1115 1228 1497 1371 1240 1362
8 1366 1241 1372 1498 1233 1117 1240 1362
8 1364 1237 1113 1231 1499 1368 1236 1363
8 1364 1237 1368 1499 1232 1114 1238 1365
8 1234 1118 1238 1365 1366 1241 1369 1500
8 1507 1373 1242 1374 1388 1266 1138 1255
8 1508 1374 1243 1375 1380 1255 1132 1249
8 1376 1254 1387 1509 1245 1129 1258 1377
8 1275 1149 1276 1405 1376 1254 1387 1509
8 1377 1258 1391 1510 1248 1130 1259 1379
8 1511 1390 1257 1378 1379 1259 1131 1247
8 1383 1260 1134 1251 1511 1390 1257 1378
8 1252 1135 1256 1385 1380 1255 1388 1512
8 1261 1381 1513 1394 1133 1250 1382 1262
8 1135 1252 1384 1263 1261 1381 1513 1394
8 1382 1262 1134 1251 1514 1393 1260 1383
8 1253 1136 1263 1384 1386 1264 1395 1516
8 1253 1136 1264 1386 1385 1256 1389 1517
8 1387 1265 1397 1519 1258 1141 1269 1391
8 1276 1150 1277 1406 1387 1265 1397 1519
8 1256 1139 1267 1389 1388 1266 1398 1520
8 1264 1147 1274 1396 1389 1267 1399 1521
8 1392 1270 1143 1260 1522 1400 1268 1390
8 1390 1268 1142 1259 1522 1400 1269 1391
8 1392 1270 1401 1523 1260 1143 1271 1393
8 1272 1394 1524 1402 1145 1262 1393 1271
8 1395 1273 1146 1263 1524 1402 1272 1394
8 1273 1395 1264 1147 1403 1526 1396 1274
8 1405 1276 1160 1282 1534 1406 1286 1411
8 1414 1287 1407 1535 1286 1162 1277 1406
8 1279 1159 1283 1408 1409 1285 1412 1537
8 1418 1292 1412 1537 1290 1165 1283 1408
8 1280 1158 1285 1409 1410 1284 1413 1538
8 1410 1284 1413 1538 1282 1160 1286 1411
8 1285 1163 1289 1412 1413 1288 1417 1540
8 1421 1296 1417 1540 1292 1167 1289 1412
8 1414 1287 1162 1286 1541 1416 1288 1413
8 1420 1294 1421 1545 1291 1166 1292 1418
8 1419 1293 1172 1305 1546 1422 1303 1437
8 1420 1294 1166 1291 1547 1423 1293 1419
8 1294 1169 1297 1423 1421 1296 1425 1548
8 1423 1297 1168 1293 1549 1424 1295 1422
8 1301 1170 1298 1427 1422 1295 1424 1549
8 1432 1300 1428 1554 1301 1170 1298 1427
8 1431 1299 1428 1554 1560 1430 1300 1432
8 1563 1433 1300 1432 1435 1302 1170 1301
8 1546 1422 1303 1437 1434 1301 1435 1565
8 1303 1171 1304 1438 1435 1302 1436 1566
8 1305 1172 1306 1440 1437 1303 1438 1568
8 1306 1173 1307 1441 1438 1304 1439 1569
8 1308 1175 1309 1443 1440 1306 1441 1571
8 1309 1176 1310 1444 1441 1307 1442 1572
8 1311 1178 1312 1446 1443 1309 1444 1574
8 1179 1312 1444 1310 1313 1447 1575 1445
8 1314 1181 1315 1448 1446 1312 1447 1576
8 1350 1213 1349 1486 1451 1317 1449 1579
8 1451 1317 1450 1581 1319 1186 1318 1453
8 1454 1319 1214 1351 1582 1451 1350 1487
8 1453 1318 1452 1584 1321 1187 1320 1456
8 1454 1319 1453 1585 1344 1208 1321 1457
8 1456 1320 1455 1586 1323 1189 1324 1459
8 1457 1321 1456 1587 1322 1188 1323 1458
8 1458 1323 1459 1588 1325 1191 1326 1460
8 1205 1336 1464 1329 1328 1462 1590 1461
8 1507 1373 1461 1590 1374 1242 1328 1462
8 1508 1374 1462 1591 1375 1243 1335 1467
8 1337 1206 1329 1464 1473 1341 1463 1594
8 1375 1243 1335 1467 1465 1333 1470 1596
8 1465 1333 1470 1596 1331 1200 1334 1466
8 1352 1227 1334 1466 1488 1360 1470 1596
8 1591 1462 1336 1468 1467 1335 1471 1597
8 1469 1337 1472 1598 1595 1464 1336 1468
8 1471 1339 1474 1600 1335 1204 1338 1470
8 1600 1474 1367 1496 1470 1338 1235 1360
8 1336 1205 1340 1472 1471 1339 1475 1601
8 1337 1206 1341 1473 1472 1340 1476 1602
8 1495 1370 1478 1609 1361 1239 1342 1479
8 1348 1212 1342 1479 1483 1347 1478 1609
8 1481 1346 1479 1610 1345 1210 1343 1480
8 1481 1346 1228 1359 1610 1479 1361 1494
8 1484 1348 1214 1351 1610 1479 1343 1480
8 1483 1347 1482 1612 1350 1213 1349 1486
8 1484 1348 1483 1613 1351 1214 1350 1487
8 1353 1230 1360 1488 1489 1363 1496 1616
8 1490 1364 1231 1354 1617 1499 1363 1489
8 1490 1364 1499 1617 1355 1232 1365 1491
8 1356 1234 1365 1491 1492 1366 1500 1619
8 1492 1366 1498 1620 1357 1233 1362 1493
8 1494 1361 1228 1359 1621 1497 1362 1493
8 1495 1370 1239 1361 1622 1504 1371 1497
8 1363 1236 1367 1496 1499 1368 1501 1623
8 1497 1371 1240 1362 1624 1505 1372 1498
8 1625 1503 1372 1498 1500 1369 1241 1366
8 1365 1238 1368 1499 1500 1369 1502 1626
8 1520 1398 1506 1633 1388 1266 1373 1507
8 1634 1507 1374 1508 1512 1388 1255 1380
8 1509 1387 1519 1635 1377 1258 1391 1510
8 1405 1276 1406 1534 1509 1387 1519 1635
8 1515 1392 1260 1383 1636 1522 1390 1511
8 1511 1390 1259 1379 1636 1522 1391 1510
8 1385 1256 1389 1517 1512 1388 1520 1637
8 1513 1394 1262 1382 1638 1524 1393 1514
8 1395 1516 1638 1524 1263 1384 1513 1394
8 1515 1392 1523 1639 1383 1260 1393 1514
8 1516 1395 1526 1640 1386 1264 1396 1518
8 1386 1264 1396 1518 1517 1389 1521 1641
8 1519 1397 1527 1643 1391 1269 1400 1522
8 1535 1407 1527 1643 1406 1277 1397 1519
8 1389 1267 1399 1521 1520 1398 1528 1644
8 1645 1529 1399 1521 1525 1404 1274 1396
8 1392 1270 1400 1522 1523 1401 1531 1646
8 1524 1402 1271 1393 1648 1532 1401 1523
8 1403 1526 1648 1532 1273 1395 1524 1402
8 1525 1404 1274 1396 1649 1533 1403 1526
8 1539 1414 1535 1657 1411 1286 1406 1534
8 1542 1415 1536 1658 1414 1287 1407 1535
8 1409 1285 1412 1537 1538 1413 1540 1660
8 1545 1421 1540 1660 1418 1292 1412 1537
8 1539 1414 1286 1411 1661 1541 1413 1538
8 1540 1417 1544 1663 1413 1288 1416 1541
8 1421 1296 1425 1548 1540 1417 1544 1663
8 1542 1415 1287 1414 1664 1543 1416 1541
8 1420 1294 1423 1547 1545 1421 1548 1666
8 1547 1423 1293 1419 1667 1549 1422 1546
8 1434 1301 1427 1553 1546 1422 1549 1667
8 1423 1297 1424 1549 1548 1425 1550 1668
8 1551 1426 1550 1668 1427 1298 1424 1549
8 1551 1426 1298 1427 1671 1552 1428 1554
8 1562 1432 1554 1674 1434 1301 1427 1553
8 1431 1299 1429 1558 1554 1428 1555 1675
8 1431 1299 1430 1560 1558 1429 1557 1680
8 1560 1430 1300 1432 1683 1559 1433 1563
8 1561 1431 1554 1674 1684 1560 1432 1562
8 1685 1563 1432 1562 1565 1435 1301 1434
8 1435 1302 1436 1566 1563 1433 1564 1686
8 1437 1303 1438 1568 1565 1435 1566 1688
8 1438 1304 1439 1569 1566 1436 1567 1689
8 1440 1306 1441 1571 1568 1438 1569 1691
8 1441 1307 1442 1572 1569 1439 1570 1692
8 1443 1309 1444 1574 1571 1441 1572 1694
8 1310 1444 1572 1442 1445 1575 1695 1573
8 1446 1312 1447 1576 1574 1444 1575 1696
8 1486 1349 1485 1614 1579 1449 1577 1699
8 1451 1317 1449 1579 1581 1450 1578 1701
8 1487 1350 1486 1615 1582 1451 1579 1702
8 1581 1450 1580 1704 1453 1318 1452 1584
8 1582 1451 1581 1705 1454 1319 1453 1585
8 1584 1452 1583 1706 1456 1320 1455 1586
8 1585 1453 1584 1707 1457 1321 1456 1587
8 1587 1456 1586 1708 1458 1323 1459 1588
8 1633 1506 1589 1710 1507 1373 1461 1590
8 1464 1329 1461 1590 1594 1463 1589 1710
8 1468 1336 1462 1591 1595 1464 1590 1711
8 1634 1507 1590 1711 1508 1374 1462 1591
8 1473 1341 1463 1594 1603 1477 1593 1716
8 1469 1337 1464 1595 1599 1473 1594 1717
8 1471 1597 1467 1335 1600 1718 1596 1470
8 1718 1600 1496 1616 1596 1470 1360 1488
8 1336 1468 1597 1471 1472 1598 1719 1601
8 1469 1337 1473 1599 1598 1472 1602 1720
8 1722 1604 1501 1623 1600 1474 1367 1496
8 1475 1601 1471 1339 1604 1722 1600 1474
8 1602 1476 1605 1723 1472 1340 1475 1601
8 1476 1602 1724 1606 1341 1473 1603 1477
8 1483 1347 1478 1609 1612 1482 1608 1731
8 1495 1370 1504 1622 1609 1478 1608 1731
8 1618 1495 1609 1732 1494 1361 1479 1610
8 1484 1348 1479 1610 1613 1483 1609 1732
8 1486 1349 1482 1612 1614 1485 1611 1733
8 1613 1483 1612 1734 1487 1350 1486 1615
8 1489 1363 1496 1616 1617 1499 1623 1736
8 1491 1365 1499 1617 1619 1500 1626 1737
8 1618 1495 1361 1494 1738 1622 1497 1621
8 1739 1625 1498 1620 1619 1500 1366 1492
8 1621 1497 1362 1493 1740 1624 1498 1620
8 1742 1631 1504 1622 1624 1505 1371 1497
8 1743 1628 1502 1626 1623 1501 1368 1499
8 1744 1630 1505 1624 1625 1503 1372 1498
8 1745 1629 1503 1625 1626 1502 1369 1500
8 1520 1398 1528 1644 1633 1506 1632 1751
8 1637 1520 1633 1752 1512 1388 1507 1634
8 1635 1519 1643 1753 1510 1391 1522 1636
8 1657 1535 1643 1753 1534 1406 1519 1635
8 1515 1392 1522 1636 1639 1523 1646 1754
8 1517 1389 1521 1641 1637 1520 1644 1755
8 1524 1638 1756 1648 1393 1514 1639 1523
8 1640 1526 1395 1516 1756 1648 1524 1638
8 1642 1525 1396 1518 1757 1649 1526 1640
8 1758 1645 1521 1641 1642 1525 1396 1518
8 1646 1531 1400 1522 1760 1650 1527 1643
8 1535 1407 1536 1658 1643 1527 1650 1760
8 1521 1399 1529 1645 1644 1528 1651 1761
8 1647 1530 1652 1762 1525 1404 1529 1645
8 1401 1523 1648 1532 1531 1646 1763 1655
8 1525 1404 1533 1649 1647 1530 1654 1765
8 1533 1649 1766 1656 1403 1526 1648 1532
8 1662 1542 1658 1774 1539 1414 1535 1657
8 1542 1415 1543 1664 1658 1536 1659 1775
8 1660 1540 1663 1777 1538 1413 1541 1661
8 1545 1421 1548 1666 1660 1540 1663 1777
8 1662 1542 1414 1539 1778 1664 1541 1661
8 1664 1543 1416 1541 1779 1665 1544 1663
8 1548 1425 1550 1668 1663 1544 1665 1779
8 1547 1423 1549 1667 1666 1548 1668 1781
8 1670 1551 1668 1781 1553 1427 1549 1667
8 1551 1426 1552 1671 1668 1550 1669 1782
8 1670 1551 1427 1553 1784 1671 1554 1674
8 1675 1555 1672 1785 1554 1428 1552 1671
8 1678 1556 1673 1789 1558 1429 1555 1675
8 1561 1431 1558 1681 1674 1554 1675 1790
8 1794 1677 1556 1678 1680 1557 1429 1558
8 1560 1430 1559 1683 1680 1557 1679 1797
8 1561 1431 1560 1684 1681 1558 1680 1798
8 1563 1433 1564 1686 1683 1559 1682 1800
8 1684 1560 1432 1562 1801 1683 1563 1685
8 1565 1435 1566 1688 1685 1563 1686 1802
8 1566 1436 1567 1689 1686 1564 1687 1803
8 1568 1438 1569 1691 1688 1566 1689 1805
8 1569 1439 1570 1692 1689 1567 1690 1806
8 1571 1441 1572 1694 1691 1569 1692 1808
8 1442 1572 1692 1570 1573 1695 1809 1693
8 1574 1444 1575 1696 1694 1572 1695 1810
8 1614 1485 1592 1712 1699 1577 1697 1813
8 1579 1449 1577 1699 1701 1578 1698 1815
8 1615 1486 1614 1735 1702 1579 1699 1816
8 1701 1578 1700 1818 1581 1450 1580 1704
8 1582 1451 1579 1702 1705 1581 1701 1819
8 1704 1580 1703 1820 1584 1452 1583 1706
8 1705 1581 1704 1821 1585 1453 1584 1707
8 1707 1584 1706 1822 1587 1456 1586 1708
8 1710 1589 1506 1633 1824 1709 1632 1751
8 1594 1463 1589 1710 1716 1593 1709 1824
8 1752 1633 1710 1825 1634 1507 1590 1711
8 1595 1464 1590 1711 1717 1594 1710 1825
8 1830 1714 1592 1712 1733 1611 1485 1614
8 1603 1477 1593 1716 1725 1607 1715 1834
8 1599 1473 1594 1717 1721 1603 1716 1835
8 1837 1722 1623 1736 1718 1600 1496 1616
8 1719 1601 1722 1837 1597 1471 1600 1718
8 1602 1720 1598 1472 1723 1838 1719 1601
8 1720 1602 1473 1599 1839 1724 1603 1721
8 1723 1605 1726 1840 1601 1475 1604 1722
8 1840 1726 1628 1743 1722 1604 1501 1623
8 1724 1606 1727 1841 1602 1476 1605 1723
8 1725 1607 1728 1842 1603 1477 1606 1724
8 1612 1482 1608 1731 1733 1611 1730 1849
8 1741 1627 1730 1849 1622 1504 1608 1731
8 1613 1483 1609 1732 1734 1612 1731 1850
8 1618 1495 1622 1738 1732 1609 1731 1850
8 1615 1486 1612 1734 1735 1614 1733 1851
8 1852 1743 1626 1737 1736 1623 1499 1617
8 1853 1745 1625 1739 1737 1626 1500 1619
8 1855 1742 1622 1738 1740 1624 1497 1621
8 1856 1744 1624 1740 1739 1625 1498 1620
8 1741 1627 1504 1622 1857 1746 1631 1742
8 1742 1631 1505 1624 1858 1749 1630 1744
8 1859 1747 1629 1745 1743 1628 1502 1626
8 1860 1748 1630 1744 1745 1629 1503 1625
8 1644 1528 1651 1761 1751 1632 1750 1865
8 1637 1520 1644 1755 1752 1633 1751 1866
8 1754 1646 1522 1636 1867 1760 1643 1753
8 1657 1535 1658 1774 1753 1643 1760 1867
8 1639 1523 1646 1754 1756 1648 1763 1868
8 1641 1521 1645 1758 1755 1644 1761 1869
8 1757 1649 1526 1640 1870 1766 1648 1756
8 1642 1525 1649 1757 1759 1647 1765 1871
8 1759 1647 1762 1872 1642 1525 1645 1758
8 1760 1650 1767 1874 1646 1531 1655 1763
8 1658 1536 1659 1775 1760 1650 1767 1874
8 1762 1652 1768 1875 1645 1529 1651 1761
8 1764 1653 1769 1876 1647 1530 1652 1762
8 1656 1766 1877 1773 1532 1648 1763 1655
8 1771 1879 1765 1654 1653 1764 1647 1530
8 1533 1649 1765 1654 1656 1766 1880 1772
8 1662 1542 1664 1778 1774 1658 1775 1887
8 1664 1543 1665 1779 1775 1659 1776 1888
8 1778 1664 1541 1661 1890 1779 1663 1777
8 1666 1548 1668 1781 1777 1663 1779 1890
8 1782 1669 1780 1891 1668 1550 1665 1779
8 1670 1551 1671 1784 1781 1668 1782 1893
8 1671 1552 1672 1785 1782 1669 1783 1894
8 1790 1675 1785 1896 1674 1554 1671 1784
8 1675 1555 1673 1789 1785 1672 1786 1897
8 1792 1676 1788 1903 1678 1556 1673 1789
8 1795 1678 1789 1904 1681 1558 1675 1790
8 1792 1676 1556 1678 1906 1791 1677 1794
8 1680 1557 1679 1797 1794 1677 1793 1909
8 1910 1794 1678 1795 1798 1680 1558 1681
8 1683 1559 1682 1800 1797 1679 1796 1912
8 1684 1560 1683 1801 1798 1680 1797 1913
8 1686 1564 1687 1803 1800 1682 1799 1915
8 1685 1563 1686 1802 1801 1683 1800 1916
8 1688 1566 1689 1805 1802 1686 1803 1917
8 1689 1567 1690 1806 1803 1687 1804 1918
8 1691 1569 1692 1808 1805 1689 1806 1920
8 1692 1570 1693 1809 1806 1690 1807 1921
8 1694 1572 1695 1810 1808 1692 1809 1922
8 1829 1713 1811 1926 1712 1592 1697 1813
8 1813 1697 1812 1928 1699 1577 1698 1815
8 1735 1614 1712 1828 1816 1699 1813 1929
8 1815 1698 1814 1931 1701 1578 1700 1818
8 1702 1579 1699 1816 1819 1701 1815 1932
8 1818 1700 1817 1933 1704 1580 1703 1820
8 1819 1701 1818 1934 1705 1581 1704 1821
8 1821 1704 1820 1935 1707 1584 1706 1822
8 1824 1709 1632 1751 1937 1823 1750 1865
8 1716 1593 1709 1824 1834 1715 1823 1937
8 1825 1710 1633 1752 1938 1824 1751 1866
8 1717 1594 1710 1825 1835 1716 1824 1938
8 1945 1830 1712 1828 1851 1733 1614 1735
8 1830 1714 1831 1946 1712 1592 1713 1829
8 1947 1832 1714 1830 1849 1730 1611 1733
8 1843 1729 1607 1725 1950 1833 1715 1834
8 1721 1603 1716 1835 1836 1725 1834 1951
8 1836 1725 1842 1953 1721 1603 1724 1839
8 1723 1838 1719 1601 1840 1954 1837 1722
8 1954 1840 1743 1852 1837 1722 1623 1736
8 1724 1839 1720 1602 1841 1955 1838 1723
8 1841 1727 1844 1956 1723 1605 1726 1840
8 1956 1844 1747 1859 1840 1726 1628 1743
8 1728 1842 1724 1606 1845 1957 1841 1727
8 1725 1607 1729 1843 1842 1728 1846 1958
8 1741 1627 1746 1857 1849 1730 1848 1965
8 1734 1612 1731 1850 1851 1733 1849 1966
8 1854 1741 1849 1966 1738 1622 1731 1850
8 1967 1859 1745 1853 1852 1743 1626 1737
8 1968 1860 1744 1856 1853 1745 1625 1739
8 1854 1741 1622 1738 1969 1857 1742 1855
8 1855 1742 1624 1740 1970 1858 1744 1856
8 1857 1746 1631 1742 1971 1861 1749 1858
8 1858 1749 1630 1744 1972 1863 1748 1860
8 1859 1747 1862 1973 1745 1629 1748 1860
8 1875 1768 1864 1977 1761 1651 1750 1865
8 1755 1644 1761 1869 1866 1751 1865 1978
8 1867 1760 1874 1979 1754 1646 1763 1868
8 1774 1658 1775 1887 1867 1760 1874 1979
8 1870 1766 1648 1756 1980 1877 1763 1868
8 1872 1762 1875 1981 1758 1645 1761 1869
8 1757 1649 1766 1870 1871 1765 1880 1982
8 1983 1879 1764 1873 1871 1765 1647 1759
8 1873 1764 1876 1984 1759 1647 1762 1872
8 1877 1773 1655 1763 1986 1881 1767 1874
8 1775 1659 1776 1888 1874 1767 1881 1986
8 1876 1769 1882 1987 1762 1652 1768 1875
8 1878 1770 1883 1988 1764 1653 1769 1876
8 1880 1772 1656 1766 1989 1886 1773 1877
8 1878 1770 1653 1764 1990 1884 1771 1879
8 1765 1654 1772 1880 1879 1771 1885 1991
8 1778 1664 1779 1890 1887 1775 1888 1997
8 1998 1889 1776 1888 1891 1780 1665 1779
8 1893 1782 1891 2000 1781 1668 1779 1890
8 1894 1783 1892 2001 1782 1669 1780 1891
8 1784 1671 1785 1896 1893 1782 1894 2003
8 1897 1786 1895 2004 1785 1672 1783 1894
8 1790 1675 1789 1904 1896 1785 1897 2006
8 1901 1787 1898 2007 1789 1673 1786 1897
8 1903 1788 1900 2013 1789 1673 1787 1901
8 1792 1676 1791 1906 1903 1788 1902 2016
8 1907 1792 1903 2017 1795 1678 1789 1904
8 1906 1791 1677 1794 2019 1905 1793 1909
8 1907 1792 1678 1795 2020 1906 1794 1910
8 1797 1679 1796 1912 1909 1793 1908 2022
8 1798 1680 1797 1913 1910 1794 1909 2023
8 1800 1682 1799 1915 1912 1796 1911 2025
8 1801 1683 1800 1916 1913 1797 1912 2026
8 1803 1687 1804 1918 1915 1799 1914 2028
8 1802 1686 1803 1917 1916 1800 1915 2029
8 1805 1689 1806 1920 1917 1803 1918 2030
8 1806 1690 1807 1921 1918 1804 1919 2031
8 1808 1692 1809 1922 1920 1806 1921 2032
8 1939 1826 1924 2037 1829 1713 1811 1926
8 1926 1811 1925 2039 1813 1697 1812 1928
8 1944 1829 1926 2040 1828 1712 1813 1929
8 1928 1812 1927 2042 1815 1698 1814 1931
8 1929 1813 1928 2043 1816 1699 1815 1932
8 1931 1814 1930 2044 1818 1700 1817 1933
8 1932 1815 1931 2045 1819 1701 1818 1934
8 1934 1818 1933 2046 1821 1704 1820 1935
8 2048 1936 1823 1937 1977 1864 1750 1865
8 1950 1833 1715 1834 2048 1936 1823 1937
8 1938 1824 1751 1866 2049 1937 1865 1978
8 1835 1716 1824 1938 1951 1834 1937 2049
8 1939 1826 1713 1829 2053 1942 1831 1946
8 1940 1827 1923 2035 2053 1942 1826 1939
8 1945 1830 1946 2058 1828 1712 1829 1944
8 2059 1947 1830 1945 1966 1849 1733 1851
8 1947 1832 1730 1849 2060 1948 1848 1965
8 1947 1832 1948 2060 1830 1714 1831 1946
8 1959 1847 1729 1843 2063 1949 1833 1950
8 1952 1843 1725 1836 2064 1950 1834 1951
8 1836 1725 1843 1952 1953 1842 1958 2066
8 1953 1842 1957 2067 1839 1724 1841 1955
8 1841 1955 1838 1723 1956 2068 1954 1840
8 2068 1956 1859 1967 1954 1840 1743 1852
8 1956 1844 1960 2069 1859 1747 1862 1973
8 1845 1957 1841 1727 1960 2069 1956 1844
8 1728 1842 1957 1845 1846 1958 2071 1961
8 1962 2072 1959 1847 1846 1958 1843 1729
8 1971 1861 1964 2077 1857 1746 1848 1965
8 1854 1741 1857 1969 1966 1849 1965 2078
8 1967 1859 1973 2079 1853 1745 1860 1968
8 1970 1858 1744 1856 2080 1972 1860 1968
8 1969 1857 1742 1855 2081 1971 1858 1970
8 1971 1861 1749 1858 2082 1974 1863 1972
8 1973 1862 1975 2083 1860 1748 1863 1972
8 1987 1882 1976 2086 1875 1768 1864 1977
8 1981 1875 1977 2087 1869 1761 1865 1978
8 1980 1877 1763 1868 2088 1986 1874 1979
8 1887 1775 1888 1997 1979 1874 1986 2088
8 1880 1982 2089 1989 1766 1870 1980 1877
8 1984 1876 1987 2090 1872 1762 1875 1981
8 1765 1871 1983 1879 1880 1982 2091 1991
8 1985 1878 1764 1873 2092 1990 1879 1983
8 1985 1878 1988 2093 1873 1764 1876 1984
8 2094 1992 1881 1986 1998 1889 1776 1888
8 1986 1881 1992 2094 1877 1773 1886 1989
8 1988 1883 1993 2095 1876 1769 1882 1987
8 1878 1770 1884 1990 1988 1883 1994 2096
8 1991 1885 1772 1880 2097 1996 1886 1989
8 1879 1771 1885 1991 1990 1884 1995 2098
8 2103 1998 1888 1997 2000 1891 1779 1890
8 2104 1999 1889 1998 2001 1892 1780 1891
8 2003 1894 2001 2106 1893 1782 1891 2000
8 2004 1895 2002 2107 1894 1783 1892 2001
8 2006 1897 2004 2109 1896 1785 1894 2003
8 2007 1898 2005 2110 1897 1786 1895 2004
8 2014 1901 2007 2112 1904 1789 1897 2006
8 2011 1899 2008 2113 1901 1787 1898 2007
8 2119 2010 1899 2011 2013 1900 1787 1901
8 2016 1902 2012 2122 1903 1788 1900 2013
8 2017 1903 2013 2123 1904 1789 1901 2014
8 1906 1791 1905 2019 2016 1902 2015 2125
8 1907 1792 1906 2020 2017 1903 2016 2126
8 1909 1793 1908 2022 2019 1905 2018 2128
8 2020 1906 1794 1910 2129 2019 1909 2023
8 1912 1796 1911 2025 2022 1908 2021 2131
8 1913 1797 1912 2026 2023 1909 2022 2132
8 1915 1799 1914 2028 2025 1911 2024 2134
8 1916 1800 1915 2029 2026 1912 2025 2135
8 1918 1804 1919 2031 2028 1914 2027 2136
8 1917 1803 1918 2030 2029 1915 2028 2137
8 1920 1806 1921 2032 2030 1918 2031 2138
8 1940 1827 1941 2054 2035 1923 2033 2140
8 2035 1923 2034 2143 1939 1826 1924 2037
8 2037 1924 2036 2146 1926 1811 1925 2039
8 2051 1939 2037 2147 1944 1829 1926 2040
8 2039 1925 2038 2149 1928 1812 1927 2042
8 2040 1926 2039 2150 1929 1813 1928 2043
8 2042 1927 2041 2151 1931 1814 1930 2044
8 2043 1928 2042 2152 1932 1815 1931 2045
8 2045 1931 2044 2153 1934 1818 1933 2046
8 2155 2047 1936 2048 2086 1976 1864 1977
8 2063 1949 1833 1950 2155 2047 1936 2048
8 2156 2048 1937 2049 2087 1977 1865 1978
8 2064 1950 1834 1951 2156 2048 1937 2049
8 2051 1939 1829 1944 2160 2053 1946 2058
8 2052 1940 2035 2144 2160 2053 1939 2051
8 2053 1942 1831 1946 2163 2057 1948 2060
8 2055 1943 1827 1940 2163 2057 1942 2053
8 2055 1943 2056 2164 1940 1827 1941 2054
8 2059 1947 1849 1966 2167 2060 1965 2078
8 2059 1947 2060 2167 1945 1830 1946 2058
8 2077 1964 2061 2168 1965 1848 1948 2060
8 2070 1963 1847 1959 2170 2062 1949 2063
8 2065 1959 1843 1952 2171 2063 1950 2064
8 2173 2072 1958 2066 2065 1959 1843 1952
8 1953 1842 1958 2066 2067 1957 2071 2174
8 2068 1956 2069 2175 1967 1859 1973 2079
8 2067 1957 2069 2175 1955 1841 1956 2068
8 1845 1957 2069 1960 1961 2071 2176 2073
8 2069 1960 2073 2176 1973 1862 1975 2083
8 2070 1963 2075 2177 1959 1847 1962 2072
8 1846 1958 2071 1961 1962 2072 2178 2074
8 2077 1964 1861 1971 2182 2076 1974 2082
8 2081 1971 2077 2183 1969 1857 1965 2078
8 2079 1973 2083 2184 1968 1860 1972 2080
8 2081 1971 1858 1970 2185 2082 1972 2080
8 2083 1975 2084 2186 1972 1863 1974 2082
8 2086 1976 1882 1987 2189 2085 1993 2095
8 2090 1987 2086 2190 1981 1875 1977 2087
8 2191 2094 1986 2088 2103 1998 1888 1997
8 2088 1986 2094 2191 1980 1877 1989 2089
8 1991 2091 2192 2097 1880 1982 2089 1989
8 2093 1988 2095 2193 1984 1876 1987 2090
8 1879 1983 2092 1990 1991 2091 2194 2098
8 1985 1878 1990 2092 2093 1988 2096 2195
8 2097 1996 1886 1989 2196 2099 1992 2094
8 2196 2099 1992 2094 2104 1999 1889 1998
8 1994 2096 1988 1883 2100 2197 2095 1993
8 2096 1994 1884 1990 2198 2101 1995 2098
8 1995 2098 2199 2102 1885 1991 2097 1996
8 2203 2104 1998 2103 2106 2001 1891 2000
8 2107 2002 2105 2204 2001 1892 1999 2104
8 2109 2004 2107 2206 2003 1894 2001 2106
8 2110 2005 2108 2207 2004 1895 2002 2107
8 2112 2007 2110 2209 2006 1897 2004 2109
8 2113 2008 2111 2210 2007 1898 2005 2110
8 2120 2011 2113 2212 2014 1901 2007 2112
8 2117 2009 2114 2213 2011 1899 2008 2113
8 2219 2116 2009 2117 2119 2010 1899 2011
8 2222 2118 2010 2119 2122 2012 1900 2013
8 2223 2119 2011 2120 2123 2013 1901 2014
8 2016 1902 2015 2125 2122 2012 2121 2225
8 2126 2016 2122 2226 2017 1903 2013 2123
8 2019 1905 2018 2128 2125 2015 2124 2228
8 2020 1906 2019 2129 2126 2016 2125 2229
8 2022 1908 2021 2131 2128 2018 2127 2231
8 2023 1909 2022 2132 2129 2019 2128 2232
8 2025 1911 2024 2134 2131 2021 2130 2234
8 2026 1912 2025 2135 2132 2022 2131 2235
8 1914 2028 2134 2024 2027 2136 2236 2133
8 2029 1915 2028 2137 2135 2025 2134 2237
8 2030 1918 2031 2138 2137 2028 2136 2238
8 2157 2050 2139 2240 2054 1941 2033 2140
8 2052 1940 2054 2161 2144 2035 2140 2242
8 2140 2033 2141 2243 2035 1923 2034 2143
8 2143 2034 2142 2246 2037 1924 2036 2146
8 2144 2035 2143 2247 2051 1939 2037 2147
8 2146 2036 2145 2249 2039 1925 2038 2149
8 2147 2037 2146 2250 2040 1926 2039 2150
8 2149 2038 2148 2251 2042 1927 2041 2151
8 2150 2039 2149 2252 2043 1928 2042 2152
8 2152 2042 2151 2253 2045 1931 2044 2153
8 2255 2154 2047 2155 2189 2085 1976 2086
8 2170 2062 1949 2063 2255 2154 2047 2155
8 2256 2155 2048 2156 2190 2086 1977 2087
8 2171 2063 1950 2064 2256 2155 2048 2156
8 2258 2159 2050 2157 2164 2056 1941 2054
8 2160 2053 1946 2058 2262 2163 2060 2167
8 2162 2055 1940 2052 2262 2163 2053 2160
8 2162 2055 2164 2263 2052 1940 2054 2161
8 2163 2057 1948 2060 2264 2165 2061 2168
8 2055 1943 2057 2163 2164 2056 2165 2264
8 2182 2076 2166 2268 2077 1964 2061 2168
8 2183 2077 2168 2269 2078 1965 2060 2167
8 2070 1963 2062 2170 2177 2075 2169 2271
8 2172 2070 1959 2065 2272 2170 2063 2171
8 2172 2070 2177 2273 2065 1959 2072 2173
8 2066 1958 2072 2173 2174 2071 2178 2274
8 2067 1957 2071 2174 2175 2069 2176 2275
8 2175 2069 2176 2275 2079 1973 2083 2184
8 2071 1961 2074 2178 2176 2073 2179 2276
8 2176 2073 2179 2276 2083 1975 2084 2186
8 2072 1962 2075 2177 2178 2074 2180 2277
8 2182 2076 1974 2082 2280 2181 2084 2186
8 2183 2077 1971 2081 2281 2182 2082 2185
8 2184 2083 2186 2282 2080 1972 2082 2185
8 2189 2085 1993 2095 2285 2188 2100 2197
8 2190 2086 1987 2090 2286 2189 2095 2193
8 2192 2097 1989 2089 2287 2196 2094 2191
8 2287 2196 2094 2191 2203 2104 1998 2103
8 2194 2098 1991 2091 2288 2199 2097 2192
8 2195 2096 2197 2289 2093 1988 2095 2193
8 2096 2195 2290 2198 1990 2092 2194 2098
8 2097 1996 2099 2196 2199 2102 2200 2291
8 2196 2099 1999 2104 2291 2200 2105 2204
8 2100 2197 2292 2201 1994 2096 2198 2101
8 1995 2098 2198 2101 2102 2199 2293 2202
8 2206 2107 2204 2296 2106 2001 2104 2203
8 2207 2108 2205 2297 2107 2002 2105 2204
8 2209 2110 2207 2299 2109 2004 2107 2206
8 2210 2111 2208 2300 2110 2005 2108 2207
8 2212 2113 2210 2302 2112 2007 2110 2209
8 2213 2114 2211 2303 2113 2008 2111 2210
8 2220 2117 2213 2305 2120 2011 2113 2212
8 2216 2115 2214 2306 2117 2009 2114 2213
8 2216 2115 2009 2117 2311 2217 2116 2219
8 2219 2116 2010 2119 2314 2218 2118 2222
8 2315 2219 2117 2220 2223 2119 2011 2120
8 2122 2012 2121 2225 2222 2118 2221 2317
8 2318 2222 2119 2223 2226 2122 2013 2123
8 2125 2015 2124 2228 2225 2121 2224 2320
8 2126 2016 2125 2229 2226 2122 2225 2321
8 2128 2018 2127 2231 2228 2124 2227 2323
8 2129 2019 2128 2232 2229 2125 2228 2324
8 2131 2021 2130 2234 2231 2127 2230 2326
8 2132 2022 2131 2235 2232 2128 2231 2327
8 2134 2024 2133 2236 2234 2130 2233 2328
8 2135 2025 2134 2237 2235 2131 2234 2329
8 2137 2028 2136 2238 2237 2134 2236 2330
8 2157 2050 2158 2259 2240 2139 2239 2332
8 2257 2157 2240 2334 2161 2054 2140 2242
8 2240 2139 2241 2335 2140 2033 2141 2243
8 2242 2140 2243 2337 2144 2035 2143 2247
8 2243 2141 2244 2338 2143 2034 2142 2246
8 2246 2142 2245 2341 2146 2036 2145 2249
8 2247 2143 2246 2342 2147 2037 2146 2250
8 2249 2145 2248 2343 2149 2038 2148 2251
8 2250 2146 2249 2344 2150 2039 2149 2252
8 2252 2149 2251 2345 2152 2042 2151 2253
8 2169 2271 2347 2254 2062 2170 2255 2154
8 2189 2085 2188 2285 2255 2154 2254 2347
8 2348 2255 2155 2256 2286 2189 2086 2190
8 2272 2170 2063 2171 2348 2255 2155 2256
8 2349 2258 2157 2257 2263 2164 2054 2161
8 2258 2159 2261 2351 2157 2050 2158 2259
8 2258 2159 2056 2164 2351 2261 2165 2264
8 2262 2163 2060 2167 2355 2264 2168 2269
8 2162 2055 2163 2262 2263 2164 2264 2355
8 2357 2266 2165 2264 2268 2166 2061 2168
8 2268 2166 2076 2182 2361 2267 2181 2280
8 2281 2182 2268 2362 2183 2077 2168 2269
8 2271 2169 2270 2364 2177 2075 2180 2277
8 2172 2070 2170 2272 2273 2177 2271 2365
8 2072 2173 2274 2178 2177 2273 2366 2277
8 2071 2174 2275 2176 2178 2274 2367 2276
8 2275 2176 2276 2367 2184 2083 2186 2282
8 2283 2187 2084 2186 2368 2278 2179 2276
8 2178 2074 2180 2277 2276 2179 2278 2368
8 2283 2187 2279 2370 2186 2084 2181 2280
8 2281 2182 2082 2185 2371 2280 2186 2282
8 2188 2285 2374 2284 2100 2197 2292 2201
8 2286 2189 2095 2193 2375 2285 2197 2289
8 2192 2097 2196 2287 2288 2199 2291 2376
8 2287 2196 2104 2203 2376 2291 2204 2296
8 2194 2098 2199 2288 2290 2198 2293 2377
8 2289 2197 2096 2195 2378 2292 2198 2290
8 2291 2200 2105 2204 2379 2294 2205 2297
8 2199 2102 2200 2291 2293 2202 2294 2379
8 2198 2101 2202 2293 2292 2201 2295 2380
8 2299 2207 2297 2383 2206 2107 2204 2296
8 2300 2208 2298 2384 2207 2108 2205 2297
8 2302 2210 2300 2386 2209 2110 2207 2299
8 2303 2211 2301 2387 2210 2111 2208 2300
8 2305 2213 2303 2389 2212 2113 2210 2302
8 2306 2214 2304 2390 2213 2114 2211 2303
8 2310 2216 2306 2392 2220 2117 2213 2305
8 2308 2215 2307 2393 2216 2115 2214 2306
8 2308 2215 2115 2216 2396 2309 2217 2311
8 2310 2216 2117 2220 2398 2311 2219 2315
8 2311 2217 2116 2219 2399 2312 2218 2314
8 2314 2218 2118 2222 2402 2313 2221 2317
8 2315 2219 2119 2223 2403 2314 2222 2318
8 2225 2121 2224 2320 2317 2221 2316 2405
8 2226 2122 2225 2321 2318 2222 2317 2406
8 2228 2124 2227 2323 2320 2224 2319 2408
8 2229 2125 2228 2324 2321 2225 2320 2409
8 2231 2127 2230 2326 2323 2227 2322 2411
8 2232 2128 2231 2327 2324 2228 2323 2412
8 2234 2130 2233 2328 2326 2230 2325 2413
8 2235 2131 2234 2329 2327 2231 2326 2414
8 2237 2134 2236 2330 2329 2234 2328 2415
8 2259 2158 2260 2352 2332 2239 2331 2417
8 2257 2157 2259 2350 2334 2240 2332 2419
8 2240 2139 2239 2332 2335 2241 2333 2420
8 2334 2240 2335 2422 2242 2140 2243 2337
8 2335 2241 2336 2423 2243 2141 2244 2338
8 2337 2243 2338 2425 2247 2143 2246 2342
8 2338 2244 2339 2426 2246 2142 2245 2341
8 2341 2245 2340 2428 2249 2145 2248 2343
8 2342 2246 2341 2429 2250 2146 2249 2344
8 2344 2249 2343 2430 2252 2149 2251 2345
8 2188 2285 2347 2254 2284 2374 2432 2346
8 2347 2254 2346 2432 2271 2169 2270 2364
8 2365 2271 2170 2272 2433 2347 2255 2348
8 2286 2189 2285 2375 2348 2255 2347 2433
8 2349 2258 2351 2435 2257 2157 2259 2350
8 2349 2258 2164 2263 2435 2351 2264 2355
8 2259 2158 2261 2351 2352 2260 2354 2437
8 2356 2265 2354 2437 2264 2165 2261 2351
8 2441 2357 2264 2355 2362 2268 2168 2269
8 2356 2265 2165 2264 2442 2358 2266 2357
8 2443 2359 2266 2357 2361 2267 2166 2268
8 2370 2279 2360 2446 2280 2181 2267 2361
8 2362 2268 2182 2281 2447 2361 2280 2371
8 2180 2277 2368 2278 2270 2364 2449 2363
8 2271 2365 2273 2177 2364 2450 2366 2277
8 2372 2283 2186 2282 2451 2368 2276 2367
8 2178 2274 2367 2276 2277 2366 2451 2368
8 2283 2187 2278 2368 2370 2279 2369 2452
8 2372 2283 2370 2453 2282 2186 2280 2371
8 2284 2374 2455 2373 2201 2292 2380 2295
8 2375 2285 2197 2289 2456 2374 2292 2378
8 2376 2291 2204 2296 2457 2379 2297 2383
8 2288 2199 2291 2376 2377 2293 2379 2457
8 2198 2290 2378 2292 2293 2377 2458 2380
8 2293 2202 2294 2379 2380 2295 2381 2459
8 2384 2298 2381 2459 2297 2205 2294 2379
8 2386 2300 2384 2463 2299 2207 2297 2383
8 2387 2301 2385 2464 2300 2208 2298 2384
8 2389 2303 2387 2466 2302 2210 2300 2386
8 2390 2304 2388 2467 2303 2211 2301 2387
8 2392 2306 2390 2469 2305 2213 2303 2389
8 2393 2307 2391 2470 2306 2214 2304 2390
8 2395 2308 2393 2472 2310 2216 2306 2392
8 2308 2215 2309 2396 2393 2307 2394 2473
8 2395 2308 2216 2310 2475 2396 2311 2398
8 2396 2309 2217 2311 2476 2397 2312 2399
8 2398 2311 2219 2315 2478 2399 2314 2403
8 2399 2312 2218 2314 2479 2400 2313 2402
8 2317 2221 2316 2405 2402 2313 2401 2482
8 2403 2314 2222 2318 2483 2402 2317 2406
8 2320 2224 2319 2408 2405 2316 2404 2485
8 2321 2225 2320 2409 2406 2317 2405 2486
8 2323 2227 2322 2411 2408 2319 2407 2488
8 2324 2228 2323 2412 2409 2320 2408 2489
8 2326 2230 2325 2413 2411 2322 2410 2490
8 2327 2231 2326 2414 2412 2323 2411 2491
8 2329 2234 2328 2415 2414 2326 2413 2492
8 2417 2331 2260 2352 2494 2416 2353 2438
8 2350 2259 2352 2436 2419 2332 2417 2496
8 2332 2239 2331 2417 2420 2333 2418 2497
8 2334 2240 2332 2419 2422 2335 2420 2499
8 2420 2333 2421 2500 2335 2241 2336 2423
8 2422 2335 2423 2502 2337 2243 2338 2425
8 2423 2336 2424 2503 2338 2244 2339 2426
8 2425 2338 2426 2505 2342 2246 2341 2429
8 2426 2339 2427 2506 2341 2245 2340 2428
8 2429 2341 2428 2507 2344 2249 2343 2430
8 2432 2346 2284 2374 2509 2431 2373 2455
8 2432 2346 2431 2509 2364 2270 2363 2449
8 2375 2285 2374 2456 2433 2347 2432 2510
8 2347 2433 2365 2271 2432 2510 2450 2364
8 2350 2259 2351 2435 2436 2352 2437 2514
8 2440 2356 2437 2514 2355 2264 2351 2435
8 2352 2260 2354 2437 2438 2353 2439 2516
8 2356 2265 2358 2442 2437 2354 2439 2516
8 2440 2356 2264 2355 2518 2442 2357 2441
8 2519 2443 2357 2441 2447 2361 2268 2362
8 2443 2359 2444 2520 2357 2266 2358 2442
8 2443 2359 2267 2361 2520 2444 2360 2446
8 2446 2360 2279 2370 2523 2445 2369 2452
8 2453 2370 2446 2524 2371 2280 2361 2447
8 2449 2363 2448 2525 2368 2278 2369 2452
8 2366 2277 2364 2450 2451 2368 2449 2526
8 2372 2283 2368 2451 2453 2370 2452 2527
8 2455 2373 2295 2380 2529 2454 2382 2460
8 2456 2374 2292 2378 2530 2455 2380 2458
8 2377 2293 2379 2457 2458 2380 2459 2531
8 2463 2384 2459 2531 2383 2297 2379 2457
8 2533 2461 2382 2460 2459 2381 2295 2380
8 2464 2385 2461 2533 2384 2298 2381 2459
8 2466 2387 2464 2537 2386 2300 2384 2463
8 2467 2388 2465 2538 2387 2301 2385 2464
8 2469 2390 2467 2540 2389 2303 2387 2466
8 2470 2391 2468 2541 2390 2304 2388 2467
8 2472 2393 2470 2543 2392 2306 2390 2469
8 2393 2307 2394 2473 2470 2391 2471 2544
8 2395 2308 2396 2475 2472 2393 2473 2546
8 2396 2309 2397 2476 2473 2394 2474 2547
8 2475 2396 2311 2398 2549 2476 2399 2478
8 2476 2397 2312 2399 2550 2477 2400 2479
8 2478 2399 2314 2403 2552 2479 2402 2483
8 2479 2400 2313 2402 2553 2480 2401 2482
8 2405 2316 2404 2485 2482 2401 2481 2556
8 2406 2317 2405 2486 2483 2402 2482 2557
8 2408 2319 2407 2488 2485 2404 2484 2559
8 2409 2320 2408 2489 2486 2405 2485 2560
8 2411 2322 2410 2490 2488 2407 2487 2561
8 2412 2323 2411 2491 2489 2408 2488 2562
8 2414 2326 2413 2492 2491 2411 2490 2563
8 2513 2434 2493 2565 2438 2353 2416 2494
8 2496 2417 2352 2436 2567 2494 2438 2515
8 2494 2416 2495 2568 2417 2331 2418 2497
8 2419 2332 2417 2496 2499 2420 2497 2570
8 2497 2418 2498 2571 2420 2333 2421 2500
8 2499 2420 2500 2573 2422 2335 2423 2502
8 2500 2421 2501 2574 2423 2336 2424 2503
8 2502 2423 2503 2576 2425 2338 2426 2505
8 2503 2424 2504 2577 2426 2339 2427 2506
8 2505 2426 2506 2578 2429 2341 2428 2507
8 2509 2431 2373 2455 2580 2508 2454 2529
8 2509 2431 2508 2580 2449 2363 2448 2525
8 2432 2510 2581 2509 2374 2456 2530 2455
8 2432 2510 2450 2364 2509 2581 2526 2449
8 2583 2511 2434 2513 2516 2439 2353 2438
8 2436 2352 2437 2514 2515 2438 2516 2588
8 2440 2356 2442 2518 2514 2437 2516 2588
8 2442 2358 2444 2520 2516 2439 2517 2589
8 2519 2443 2520 2591 2441 2357 2442 2518
8 2519 2443 2361 2447 2591 2520 2446 2524
8 2446 2360 2445 2523 2520 2444 2521 2592
8 2525 2448 2522 2593 2452 2369 2445 2523
8 2524 2446 2370 2453 2594 2523 2452 2527
8 2526 2449 2525 2595 2451 2368 2452 2527
8 2534 2462 2528 2597 2460 2382 2454 2529
8 2530 2455 2380 2458 2598 2529 2460 2532
8 2599 2533 2460 2532 2531 2459 2380 2458
8 2537 2464 2533 2599 2463 2384 2459 2531
8 2534 2462 2382 2460 2601 2535 2461 2533
8 2538 2465 2535 2601 2464 2385 2461 2533
8 2540 2467 2538 2604 2466 2387 2464 2537
8 2541 2468 2539 2605 2467 2388 2465 2538
8 2543 2470 2541 2607 2469 2390 2467 2540
8 2470 2391 2471 2544 2541 2468 2542 2608
8 2472 2393 2473 2546 2543 2470 2544 2610
8 2473 2394 2474 2547 2544 2471 2545 2611
8 2475 2396 2476 2549 2546 2473 2547 2613
8 2476 2397 2477 2550 2547 2474 2548 2614
8 2549 2476 2399 2478 2616 2550 2479 2552
8 2479 2400 2480 2553 2550 2477 2551 2617
8 2552 2479 2402 2483 2619 2553 2482 2557
8 2482 2401 2481 2556 2553 2480 2554 2620
8 2485 2404 2484 2559 2556 2481 2555 2623
8 2486 2405 2485 2560 2557 2482 2556 2624
8 2488 2407 2487 2561 2559 2484 2558 2625
8 2489 2408 2488 2562 2560 2485 2559 2626
8 2491 2411 2490 2563 2562 2488 2561 2627
8 2513 2434 2512 2585 2565 2493 2564 2630
8 2586 2513 2565 2632 2515 2438 2494 2567
8 2565 2493 2566 2633 2494 2416 2495 2568
8 2567 2494 2568 2635 2496 2417 2497 2570
8 2568 2495 2569 2636 2497 2418 2498 2571
8 2570 2497 2571 2638 2499 2420 2500 2573
8 2571 2498 2572 2639 2500 2421 2501 2574
8 2573 2500 2574 2641 2502 2423 2503 2576
8 2574 2501 2575 2642 2503 2424 2504 2577
8 2576 2503 2577 2643 2505 2426 2506 2578
8 2597 2528 2579 2645 2529 2454 2508 2580
8 2580 2508 2579 2645 2525 2448 2522 2593
8 2581 2509 2455 2530 2646 2580 2529 2598
8 2581 2509 2580 2646 2526 2449 2525 2595
8 2583 2511 2582 2648 2513 2434 2512 2585
8 2583 2511 2439 2516 2648 2582 2517 2589
8 2649 2583 2513 2586 2588 2516 2438 2515
8 2589 2517 2444 2520 2653 2587 2521 2592
8 2518 2442 2520 2591 2588 2516 2589 2654
8 2593 2522 2590 2655 2523 2445 2521 2592
8 2524 2446 2523 2594 2591 2520 2592 2656
8 2595 2525 2593 2657 2527 2452 2523 2594
8 2602 2536 2596 2659 2534 2462 2528 2597
8 2600 2534 2597 2660 2532 2460 2529 2598
8 2600 2534 2460 2532 2661 2601 2533 2599
8 2604 2538 2601 2661 2537 2464 2533 2599
8 2602 2536 2462 2534 2663 2603 2535 2601
8 2601 2535 2465 2538 2663 2603 2539 2605
8 2607 2541 2605 2665 2540 2467 2538 2604
8 2608 2542 2606 2666 2541 2468 2539 2605
8 2543 2470 2544 2610 2607 2541 2608 2668
8 2544 2471 2545 2611 2608 2542 2609 2669
8 2546 2473 2547 2613 2610 2544 2611 2671
8 2547 2474 2548 2614 2611 2545 2612 2672
8 2549 2476 2550 2616 2613 2547 2614 2674
8 2550 2477 2551 2617 2614 2548 2615 2675
8 2552 2479 2553 2619 2616 2550 2617 2677
8 2553 2480 2554 2620 2617 2551 2618 2678
8 2557 2482 2556 2624 2619 2553 2620 2680
8 2556 2481 2555 2623 2620 2554 2621 2681
8 2559 2484 2558 2625 2623 2555 2622 2683
8 2560 2485 2559 2626 2624 2556 2623 2684
8 2562 2488 2561 2627 2626 2559 2625 2685
8 2690 2629 2564 2630 2650 2584 2512 2585
8 2586 2513 2585 2651 2632 2565 2630 2691
8 2630 2564 2631 2692 2565 2493 2566 2633
8 2632 2565 2633 2694 2567 2494 2568 2635
8 2633 2566 2634 2695 2568 2495 2569 2636
8 2635 2568 2636 2697 2570 2497 2571 2638
8 2636 2569 2637 2698 2571 2498 2572 2639
8 2638 2571 2639 2700 2573 2500 2574 2641
8 2639 2572 2640 2701 2574 2501 2575 2642
8 2641 2574 2642 2702 2576 2503 2577 2643
8 2597 2528 2596 2659 2645 2579 2644 2704
8 2645 2579 2644 2704 2593 2522 2590 2655
8 2660 2597 2645 2705 2598 2529 2580 2646
8 2646 2580 2645 2705 2595 2525 2593 2657
8 2650 2584 2512 2585 2707 2647 2582 2648
8 2648 2582 2517 2589 2707 2647 2587 2653
8 2649 2583 2648 2708 2586 2513 2585 2651
8 2649 2583 2516 2588 2708 2648 2589 2654
8 2655 2590 2652 2710 2592 2521 2587 2653
8 2654 2589 2520 2591 2711 2653 2592 2656
8 2657 2593 2655 2712 2594 2523 2592 2656
8 2602 2536 2603 2663 2659 2596 2658 2714
8 2662 2602 2659 2715 2600 2534 2597 2660
8 2662 2602 2534 2600 2717 2663 2601 2661
8 2661 2601 2538 2604 2717 2663 2605 2665
8 2666 2606 2664 2718 2605 2539 2603 2663
8 2668 2608 2666 2720 2607 2541 2605 2665
8 2608 2542 2609 2669 2666 2606 2667 2721
8 2610 2544 2611 2671 2668 2608 2669 2723
8 2611 2545 2612 2672 2669 2609 2670 2724
8 2613 2547 2614 2674 2671 2611 2672 2726
8 2614 2548 2615 2675 2672 2612 2673 2727
8 2616 2550 2617 2677 2674 2614 2675 2729
8 2617 2551 2618 2678 2675 2615 2676 2730
8 2619 2553 2620 2680 2677 2617 2678 2732
8 2620 2554 2621 2681 2678 2618 2679 2733
8 2624 2556 2623 2684 2680 2620 2681 2735
8 2681 2621 2555 2623 2736 2682 2622 2683
8 2626 2559 2625 2685 2684 2623 2683 2737
8 2688 2628 2584 2650 2740 2686 2647 2707
8 2688 2628 2687 2742 2650 2584 2629 2690
8 2690 2629 2689 2745 2630 2564 2631 2692
8 2746 2690 2630 2691 2709 2650 2585 2651
8 2691 2630 2692 2747 2632 2565 2633 2694
8 2692 2631 2693 2748 2633 2566 2634 2695
8 2694 2633 2695 2750 2635 2568 2636 2697
8 2695 2634 2696 2751 2636 2569 2637 2698
8 2697 2636 2698 2753 2638 2571 2639 2700
8 2698 2637 2699 2754 2639 2572 2640 2701
8 2700 2639 2701 2755 2641 2574 2642 2702
8 2659 2596 2658 2714 2704 2644 2703 2757
8 2704 2644 2703 2757 2655 2590 2652 2710
8 2660 2597 2659 2715 2705 2645 2704 2758
8 2705 2645 2704 2758 2657 2593 2655 2712
8 2759 2706 2647 2707 2710 2652 2587 2653
8 2709 2650 2585 2651 2760 2707 2648 2708
8 2708 2648 2589 2654 2760 2707 2653 2711
8 2712 2655 2710 2761 2656 2592 2653 2711
8 2763 2713 2658 2714 2718 2664 2603 2663
8 2662 2602 2663 2717 2715 2659 2714 2764
8 2720 2666 2718 2767 2665 2605 2663 2717
8 2768 2719 2664 2718 2721 2667 2606 2666
8 2668 2608 2669 2723 2720 2666 2721 2770
8 2669 2609 2670 2724 2721 2667 2722 2771
8 2671 2611 2672 2726 2723 2669 2724 2773
8 2672 2612 2673 2727 2724 2670 2725 2774
8 2674 2614 2675 2729 2726 2672 2727 2776
8 2675 2615 2676 2730 2727 2673 2728 2777
8 2677 2617 2678 2732 2729 2675 2730 2779
8 2678 2618 2679 2733 2730 2676 2731 2780
8 2680 2620 2681 2735 2732 2678 2733 2782
8 2733 2679 2621 2681 2783 2734 2682 2736
8 2735 2681 2623 2684 2784 2736 2683 2737
8 2740 2686 2647 2707 2787 2738 2706 2759
8 2688 2628 2686 2740 2742 2687 2739 2789
8 2743 2688 2650 2709 2790 2740 2707 2760
8 2742 2687 2741 2792 2690 2629 2689 2745
8 2743 2688 2742 2793 2709 2650 2690 2746
8 2745 2689 2744 2795 2692 2631 2693 2748
8 2746 2690 2745 2796 2691 2630 2692 2747
8 2747 2692 2748 2797 2694 2633 2695 2750
8 2748 2693 2749 2798 2695 2634 2696 2751
8 2750 2695 2751 2800 2697 2636 2698 2753
8 2751 2696 2752 2801 2698 2637 2699 2754
8 2753 2698 2754 2802 2700 2639 2701 2755
8 2763 2713 2756 2804 2714 2658 2703 2757
8 2759 2706 2652 2710 2804 2756 2703 2757
8 2715 2659 2714 2764 2758 2704 2757 2805
8 2758 2704 2757 2805 2712 2655 2710 2761
8 2806 2759 2707 2760 2761 2710 2653 2711
8 2765 2716 2762 2808 2718 2664 2713 2763
8 2809 2763 2714 2764 2767 2718 2663 2717
8 2765 2716 2664 2718 2811 2766 2719 2768
8 2813 2768 2718 2767 2770 2721 2666 2720
8 2814 2769 2719 2768 2771 2722 2667 2721
8 2723 2669 2724 2773 2770 2721 2771 2816
8 2724 2670 2725 2774 2771 2722 2772 2817
8 2726 2672 2727 2776 2773 2724 2774 2819
8 2727 2673 2728 2777 2774 2725 2775 2820
8 2729 2675 2730 2779 2776 2727 2777 2822
8 2730 2676 2731 2780 2777 2728 2778 2823
8 2732 2678 2733 2782 2779 2730 2780 2825
8 2780 2731 2679 2733 2826 2781 2734 2783
8 2782 2733 2681 2735 2827 2783 2736 2784
8 2830 2785 2738 2787 2804 2756 2706 2759
8 2789 2739 2686 2740 2832 2786 2738 2787
8 2790 2740 2707 2760 2833 2787 2759 2806
8 2742 2687 2739 2789 2792 2741 2788 2835
8 2743 2688 2740 2790 2793 2742 2789 2836
8 2792 2741 2791 2838 2745 2689 2744 2795
8 2793 2742 2792 2839 2746 2690 2745 2796
8 2795 2744 2794 2841 2748 2693 2749 2798
8 2796 2745 2795 2842 2747 2692 2748 2797
8 2797 2748 2798 2843 2750 2695 2751 2800
8 2798 2749 2799 2844 2751 2696 2752 2801
8 2800 2751 2801 2845 2753 2698 2754 2802
8 2808 2762 2803 2847 2763 2713 2756 2804
8 2809 2763 2804 2848 2764 2714 2757 2805
8 2806 2759 2710 2761 2848 2804 2757 2805
8 2765 2716 2766 2811 2808 2762 2807 2850
8 2810 2765 2808 2851 2767 2718 2763 2809
8 2810 2765 2718 2767 2852 2811 2768 2813
8 2811 2766 2719 2768 2853 2812 2769 2814
8 2855 2814 2768 2813 2816 2771 2721 2770
8 2856 2815 2769 2814 2817 2772 2722 2771
8 2773 2724 2774 2819 2816 2771 2817 2858
8 2774 2725 2775 2820 2817 2772 2818 2859
8 2776 2727 2777 2822 2819 2774 2820 2861
8 2777 2728 2778 2823 2820 2775 2821 2862
8 2779 2730 2780 2825 2822 2777 2823 2864
8 2823 2778 2731 2780 2865 2824 2781 2826
8 2825 2780 2733 2782 2866 2826 2783 2827
8 2869 2828 2785 2830 2847 2803 2756 2804
8 2871 2829 2786 2832 2830 2785 2738 2787
8 2872 2830 2787 2833 2848 2804 2759 2806
8 2789 2739 2786 2832 2835 2788 2831 2874
8 2836 2789 2740 2790 2875 2832 2787 2833
8 2792 2741 2788 2835 2838 2791 2834 2877
8 2793 2742 2789 2836 2839 2792 2835 2878
8 2838 2791 2837 2880 2795 2744 2794 2841
8 2839 2792 2838 2881 2796 2745 2795 2842
8 2841 2794 2840 2882 2798 2749 2799 2844
8 2842 2795 2841 2883 2797 2748 2798 2843
8 2843 2798 2844 2884 2800 2751 2801 2845
8 2886 2846 2803 2847 2850 2807 2762 2808
8 2851 2808 2847 2887 2809 2763 2804 2848
8 2850 2807 2766 2811 2889 2849 2812 2853
8 2810 2765 2811 2852 2851 2808 2850 2890
8 2852 2811 2768 2813 2891 2853 2814 2855
8 2853 2812 2769 2814 2892 2854 2815 2856
8 2894 2856 2814 2855 2858 2817 2771 2816
8 2817 2772 2818 2859 2856 2815 2857 2895
8 2819 2774 2820 2861 2858 2817 2859 2897
8 2820 2775 2821 2862 2859 2818 2860 2898
8 2822 2777 2823 2864 2861 2820 2862 2900
8 2823 2778 2824 2865 2862 2821 2863 2901
8 2864 2823 2780 2825 2902 2865 2826 2866
8 2904 2867 2828 2869 2886 2846 2803 2847
8 2869 2828 2868 2906 2830 2785 2829 2871
8 2907 2869 2830 2872 2887 2847 2804 2848
8 2871 2829 2870 2909 2832 2786 2831 2874
8 2910 2871 2832 2875 2872 2830 2787 2833
8 2835 2788 2831 2874 2877 2834 2873 2912
8 2836 2789 2832 2875 2878 2835 2874 2913
8 2877 2834 2876 2915 2838 2791 2837 2880
8 2839 2792 2835 2878 2881 2838 2877 2916
8 2880 2837 2879 2917 2841 2794 2840 2882
8 2881 2838 2880 2918 2842 2795 2841 2883
8 2883 2841 2882 2919 2843 2798 2844 2884
8 2921 2885 2846 2886 2889 2849 2807 2850
8 2922 2886 2847 2887 2890 2850 2808 2851
8 2889 2849 2812 2853 2924 2888 2854 2892
8 2890 2850 2811 2852 2925 2889 2853 2891
8 2891 2853 2814 2855 2926 2892 2856 2894
8 2892 2854 2815 2856 2927 2893 2857 2895
8 2858 2817 2859 2897 2894 2856 2895 2929
8 2859 2818 2860 2898 2895 2857 2896 2930
8 2861 2820 2862 2900 2897 2859 2898 2932
8 2862 2821 2863 2901 2898 2860 2899 2933
8 2864 2823 2865 2902 2900 2862 2901 2934
8 2904 2867 2846 2886 2936 2903 2885 2921
8 2904 2867 2903 2936 2869 2828 2868 2906
8 2937 2904 2869 2907 2922 2886 2847 2887
8 2906 2868 2905 2939 2871 2829 2870 2909
8 2907 2869 2906 2940 2872 2830 2871 2910
8 2909 2870 2908 2942 2874 2831 2873 2912
8 2910 2871 2909 2943 2875 2832 2874 2913
8 2912 2873 2911 2945 2877 2834 2876 2915
8 2878 2835 2874 2913 2916 2877 2912 2946
8 2915 2876 2914 2947 2880 2837 2879 2917
8 2916 2877 2915 2948 2881 2838 2880 2918
8 2918 2880 2917 2949 2883 2841 2882 2919
8 2921 2885 2849 2889 2951 2920 2888 2924
8 2952 2921 2886 2922 2925 2889 2850 2890
8 2924 2888 2854 2892 2954 2923 2893 2927
8 2925 2889 2853 2891 2955 2924 2892 2926
8 2926 2892 2856 2894 2956 2927 2895 2929
8 2895 2857 2896 2930 2927 2893 2928 2957
8 2897 2859 2898 2932 2929 2895 2930 2959
8 2898 2860 2899 2933 2930 2896 2931 2960
8 2900 2862 2901 2934 2932 2898 2933 2961
8 2936 2903 2885 2921 2963 2935 2920 2951
8 2936 2903 2935 2963 2906 2868 2905 2939
8 2937 2904 2886 2922 2964 2936 2921 2952
8 2937 2904 2936 2964 2907 2869 2906 2940
8 2939 2905 2938 2966 2909 2870 2908 2942
8 2940 2906 2939 2967 2910 2871 2909 2943
8 2942 2908 2941 2969 2912 2873 2911 2945
8 2943 2909 2942 2970 2913 2874 2912 2946
8 2945 2911 2944 2971 2915 2876 2914 2947
8 2946 2912 2945 2972 2916 2877 2915 2948
8 2948 2915 2947 2973 2918 2880 2917 2949
8 2951 2920 2888 2924 2975 2950 2923 2954
8 2952 2921 2889 2925 2976 2951 2924 2955
8 2927 2893 2928 2957 2954 2923 2953 2978
8 2955 2924 2892 2926 2979 2954 2927 2956
8 2929 2895 2930 2959 2956 2927 2957 2980
8 2930 2896 2931 2960 2957 2928 2958 2981
8 2932 2898 2933 2961 2959 2930 2960 2982
8 2951 2920 2950 2975 2963 2935 2962 2984
8 2963 2935 2962 2984 2939 2905 2938 2966
8 2964 2936 2921 2952 2985 2963 2951 2976
8 2964 2936 2963 2985 2940 2906 2939 2967
8 2966 2938 2965 2987 2942 2908 2941 2969
8 2967 2939 2966 2988 2943 2909 2942 2970
8 2969 2941 2968 2989 2945 2911 2944 2971
8 2970 2942 2969 2990 2946 2912 2945 2972
8 2972 2945 2971 2991 2948 2915 2947 2973
8 2954 2923 2953 2978 2975 2950 2974 2993
8 2976 2951 2924 2955 2994 2975 2954 2979
8 2957 2928 2958 2981 2978 2953 2977 2995
8 2956 2927 2957 2980 2979 2954 2978 2996
8 2959 2930 2960 2982 2980 2957 2981 2997
8 2984 2962 2983 2999 2966 2938 2965 2987
8 2975 2950 2974 2993 2984 2962 2983 2999
8 2976 2951 2975 2994 2985 2963 2984 3000
8 2985 2963 2984 3000 2967 2939 2966 2988
8 2987 2965 2986 3001 2969 2941 2968 2989
8 2988 2966 2987 3002 2970 2942 2969 2990
8 2990 2969 2989 3003 2972 2945 2971 2991
8 2978 2953 2977 2995 2993 2974 2992 3004
8 2979 2954 2978 2996 2994 2975 2993 3005
8 2980 2957 2981 2997 2996 2978 2995 3006
8 2974 2993 2999 2983 2992 3004 3007 2998
8 2983 2999 2987 2965 2998 3007 3001 2986
8 3000 2984 2999 3008 2988 2966 2987 3002
8 2994 2975 2993 3005 3000 2984 2999 3008
8 3002 2987 3001 3009 2990 2969 2989 3003
8 2996 2978 2995 3006 3005 2993 3004 3010
8 3005 2993 3004 3010 3008 2999 3007 3011
8 3008 2999 3007 3011 3002 2987 3001 3009

CELL_TYPES 1910
12
12
12
12
12
12
12
12
12
12
12
12
12
12
12
12
12
12
12
12
12
12
12
12
12
12
12
12
12
12
12
12
12
12
12
12
12
12
12
12
12
12
12
12
12
12
12
12
12
12
12
12
12
12
12
12
12
12
12
12
12
12
12
12
12
12
12
12
12
12
12
12
12
12
12
12
12
12
12
12
12
12
12
12
12
12
12
12
12
12
12
12
12
12
12
12
12
12
12
12
12
12
12
12
12
12
12
12
12
12
12
12
12
12
12
12
12
12
12
12
12
12
12
12
12
12
12
12
12
12
12
12
12
12
12
12
12
12
12
12
12
12
12
12
12
12
12
12
12
12
12
12
12
12
12
12
12
12
12
12
12
12
12
12
12
12
12
12
12
12
12
12
12
12
12
12
12
12
12
12
12
12
12
12
12
12
12
12
12
12
12
12
12
12
12
12
12
12
12
12
12
12
12
12
12
12
12
12
12
12
12
12
12
12
12
12
12
12
12
12
12
12
12
12
12
12
12
12
12
12
12
12
12
12
12
12
12
12
12
12
12
12
12
12
12
12
12
12
12
12
12
12
12
12
12
12
12
12
12
12
12
12
12
12
12
12
12
12
12
12
12
12
12
12
12
12
12
12
12
12
12
12
12
12
12
12
12
12
12
12
12
12
12
12
12
12
12
12
12
12
12
12
12
12
12
12
12
12
12
12
12
12
12
12
12
12
12
12
12
12
12
12
12
12
12
12
12
12
12
12
12
12
12
12
12
12
12
12
12
12
12
12
12
12
12
12
12
12
12
12
12
12
12
12
12
12
12
12
12
12
12
12
12
12
12
12
12
12
12
12
12
12
12
12
12
12
12
12
12
12
12
12
12
12
12
12
12
12
12
12
12
12
12
12
12
12
12
12
12
12
12
12
12
12
12
12
12
12
12
12
12
12
12
12
12
12
12
12
12
12
12
12
12
12
12
12
12
12
12
12
12
12
12
12
12
12
12
12
12
12
12
12
12
12
12
12
12
12
12
12
12
12
12
12
12
12
12
12
12
12
12
12
12
12
12
12
12
12
12
12
12
12
12
12
12
12
12
12
12
12
12
12
12
12
12
12
12
12
12
12
12
12
12
12
12
12
12
12
12
12
12
12
12
12
12
12
12
12
12
12
12
12
12
12
12
12
12
12
12
12
12
12
12
12
12
12
12
12
12
12
12
12
12
12
12
12
12
12
12
12
12
12
12
12
12
12
12
12
12
12
12
12
12
12
12
12
12
12
12
12
12
12
12
12
12
12
12
12
12
12
12
12
12
12
12
12
12
12
12
12
12
12
12
12
12
12
12
12
12
12
12
12
12
12
12
12
12
12
12
12
12
12
12
12
12
12
12
12
12
12
12
12
12
12
12
12
12
12
12
12
12
12
12
12
12
12
12
12
12
12
12
12
12
12
12
12
12
12
12
12
12
12
12
12
12
12
12
12
12
12
12
12
12
12
12
12
12
12
12
12
12
12
12
12
12
12
12
12
12
12
12
12
12
12
12
12
12
12
12
12
12
12
12
12
12
12
12
12
12
12
12
12
12
12
12
12
12
12
12
12
12
12
12
12
12
12
12
12
12
12
12
12
12
12
12
12
12
12
12
12
12
12
12
12
12
12
12
12
12
12
12
12
12
12
12
12
12
12
12
12
12
12
12
12
12
12
12
12
12
12
12
12
12
12
12
12
12
12
12
12
12
12
12
12
12
12
12
12
12
12
12
12
12
12
12
12
12
12
12
12
12
12
12
12
12
12
12
12
12
12
12
12
12
12
12
12
12
12
12
12
12
12
12
12
12
12
12
12
12
12
12
12
12
12
12
12
12
12
12
12
12
12
12
12
12
12
12
12
12
12
12
12
12
12
12
12
12
12
12
12
12
12
12
12
12
12
12
12
12
12
12
12
12
12
12
12
12
12
12
12
12
12
12
12
12
12
12
12
12
12
12
12
12
12
12
12
12
12
12
12
12
12
12
12
12
12
12
12
12
12
12
12
12
12
12
12
12
12
12
12
12
12
12
12
12
12
12
12
12
12
12
12
12
12
12
12
12
12
12
12
12
12
12
12
12
12
12
12
12
12
12
12
12
12
12
12
12
12
12
12
12
12
12
12
12
12
12
12
12
12
12
12
12
12
12
12
12
12
12
12
12
12
12
12
12
12
12
12
12
12
12
12
12
12
12
12
12
12
12
12
12
12
12
12
12
12
12
12
12
12
12
12
12
12
12
12
12
12
12
12
12
12
12
12
12
12
12
12
12
12
12
12
12
12
12
12
12
12
12
12
12
12
12
12
12
12
12
12
12
12
12
12
12
12
12
12
12
12
12
12
12
12
12
12
12
12
12
12
12
12
12
12
12
12
12
12
12
12
12
12
12
12
12
12
12
12
12
12
12
12
12
12
12
12
12
12
12
12
12
12
12
12
12
12
12
12
12
12
12
12
12
12
12
12
12
12
12
12
12
12
12
12
12
12
12
12
12
12
12
12
12
12
12
12
12
12
12
12
12
12
12
12
12
12
12
12
12
12
12
12
12
12
12
12
12
12
12
12
12
12
12
12
12
12
12
12
12
12
12
12
12
12
12
12
12
12
12
12
12
12
12
12
12
12
12
12
12
12
12
12
12
12
12
12
12
12
12
12
12
12
12
12
12
12
12
12
12
12
12
12
12
12
12
12
12
12
12
12
12
12
12
12
12
12
12
12
12
12
12
12
12
12
12
12
12
12
12
12
12
12
12
12
12
12
12
12
12
12
12
12
12
12
12
12
12
12
12
12
12
12
12
12
12
12
12
12
12
12
12
12
12
12
12
12
12
12
12
12
12
12
12
12
12
12
12
12
12
12
12
12
12
12
12
12
12
12
12
12
12
12
12
12
12
12
12
12
12
12
12
12
12
12
12
12
12
12
12
12
12
12
12
12
12
12
12
12
12
12
12
12
12
12
12
12
12
12
12
12
12
12
12
12
12
12
12
12
12
12
12
12
12
12
12
12
12
12
12
12
12
12
12
12
12
12
12
12
12
12
12
12
12
12
12
12
12
12
12
12
12
12
12
12
12
12
12
12
12
12
12
12
12
12
12
12
12
12
12
12
12
12
12
12
12
12
12
12
12
12
12
12
12
12
12
12
12
12
12
12
12
12
12
12
12
12
12
12
12
12
12
12
12
12
12
12
12
12
12
12
12
12
12
12
12
12
12
12
12
12
12
12
12
12
12
12
12
12
12
12
12
12
12
12
12
12
12
12
12
12
12
12
12
12
12
12
12
12
12
12
12
12
12
12
12
12
12
12
12
12
12
12
12
12
12
12
12
12
12
12
12
12
12
12
12
12
12
12
12
12
12
12
12
12
12
12
12
12
12
12
12
12
12
12
12
12
12
12
12
12
12
12
12
12
12
12
12
12
12
12
12
12
12
12
12
12
12
12
12
12
12
12
12
12
12
12
12
12
12
12
12
12
12
12
12
12
12
12
12
12
12
12
12
12
12
12
12
12
12
12
12
12
12
12
12
12
12
12
12
12
12
12
12
12
12
12
12
12
12
12
12
12
12
12
12
12
12
12
12
12
12
12
12
12
12
12
12
12
12
12
12
12
12
12
12
12
12
12
12
12
12
12
12
12
12
12
12
12
12
12
12
12
12
12
12
12
12
12
12
12
12
12
12
12
12
12
12
12
12
12
12
12
12
12
12
12
12
12
12
12
12
12
12
12
12
12
12
12
12
12
12
12
12
12
12
12
12
12
12
12
12
12
12
12
12
12
12
12
12
12
12
12
12
12
12
12
12
12
12
12
12
12
12
12
12
12
12
12
12
12
12
12
12
12
12
12
12
12
12
12
12
12
12
12
12
12
12
12
12
12
12
12
12
12
12
12
12
12
12
12
12
12
12
12
12
12
12
12
12
12
12
12
12
12
12
12
12
12
12
12
12
12
12
12
12
12
12
12
12
12
12
12
12
12
12
12
12
12
12
12
12
12
12
12
12
12
12
12
12
12
12
12
12
12
12
12
12
12
12
12
12
12
12
12
12
12
12
12
12
12
12
12
12
12
12
12
12
12
12
12
12
12
12
12
12
12
12
12
12
12
12
12
12
12
12
12
12
12
12
12
12
12
12
12
12
12
12
12
12
12
12
12
12
12
12
12
12
12
12
12
12
12
12
12
12
12
12
12
12
12
12
12
12
12
12
12
12
12
12
12
12
12
12
12
12
12
12
12
12
12
12
12
12
12
12
12
12
12
12
12
12
12
12
12
12
12
12
12
12
12
12
12
12
12
12
12
12
12
12
12
12
12

POINT_DATA 3012
SCALARS Jp_lamdaP float 4
LOOKUP_TABLE default
0.999985 1 1 0.999985
1 1 1 1
0.999987 1 1 0.999987
0.999961 1 1 0.999961
0.999979 1 1 0.999979
0.999992 1 1 0.999992
0.99978 1 1 0.99978
1 1 1 1
1 1 1 1
1 1 1 1
1 1 1 1
0.999907 1 1 0.999907
0.999931 1 1 0.999931
0.999959 1 1 0.999959
0.999988 1 1 0.999988
0.999965 1 1 0.999965
0.999993 1 1 0.999993
0.999982 1 1 0.999982
0.999783 1 1 0.999783
1 1 1 1
0.999955 1 1 0.999955
0.99997 1 1 0.99997
0.999669 1 1 0.999669
0.999744 1 1 0.999744
0.999999 1 1 0.999999
0.999823 1 1 0.999823
0.999435 1 1 0.999435
1 1 1 1
0.999986 1 1 0.999986
0.999996 1 1 0.999996
1 1 1 1
0.999914 1 1 0.999914
0.999968 1 1 0.999968
0.999987 1 1 0.999987
0.99981 1 1 0.99981
1 1 1 1
0.999883 1 1 0.999883
0.999939 1 1 0.999939
0.999513 1 1 0.999513
1 1 1 1
1 1 1 1
0.999978 1 1 0.999978
1 1 1 1
0.99995 1 1 0.99995
0.999636 1 1 0.999636
1 1 1 1
0.999747 1 1 0.999747
0.999969 1 1 0.999969
0.999983 1 1 0.999983
0.999995 1 1 0.999995
0.999786 1 1 0.999786
0.999967 1 1 0.999967
0.999959 1 1 0.999959
0.999999 1 1 0.999999
0.999974 1 1 0.999974
0.999671 1 1 0.999671
0.999826 1 1 0.999826
0.999746 1 1 0.999746
0.999422 1 1 0.999422
1 1 1 1
0.999945 1 1 0.999945
0.999696 1 1 0.999696
0.999651 1 1 0.999651
0.999704 1 1 0.999704
0.999175 1 1 0.999175
0.99931 1 1 0.99931
1 1 1 1
0.999883 1 1 0.999883
0.999529 1 1 0.999529
0.999046 1 1 0.999046
1 1 1 1
1 1 1 1
1 1 1 1
0.999921 1 1 0.999921
1 1 1 1
1 1 1 1
0.999803 1 1 0.999803
1 1 1 1
0.999886 1 1 0.999886
0.99995 1 1 0.99995
0.999511 1 1 0.999511
1 1 1 1
1 1 1 1
0.99976 1 1 0.99976
0.999836 1 1 0.999836
0.999233 1 1 0.999233
0.999975 1 1 0.999975
0.999459 1 1 0.999459
0.999566 1 1 0.999566
0.999246 1 1 0.999246
1 1 1 1
1 1 1 1
1 1 1 1
1 1 1 1
1 1 1 1
0.999971 1 1 0.999971
0.999666 1 1 0.999666
0.999981 1 1 0.999981
0.99974 1 1 0.99974
1 1 1 1
0.999604 1 1 0.999604
0.999718 1 1 0.999718
0.998935 1 1 0.998935
0.999766 1 1 0.999766
0.999035 1 1 0.999035
0.99994 1 1 0.99994
0.999963 1 1 0.999963
1 1 1 1
0.999977 1 1 0.999977
0.999673 1 1 0.999673
0.99975 1 1 0.99975
0.999829 1 1 0.999829
0.999409 1 1 0.999409
1 1 1 1
0.99995 1 1 0.99995
0.999626 1 1 0.999626
0.999652 1 1 0.999652
1 1 1 1
0.999907 1 1 0.999907
0.999707 1 1 0.999707
0.999152 1 1 0.999152
0.999515 1 1 0.999515
0.999325 1 1 0.999325
0.999047 1 1 0.999047
0.999621 1 1 0.999621
0.999634 1 1 0.999634
0.999012 1 1 0.999012
0.999101 1 1 0.999101
0.999208 1 1 0.999208
0.998807 1 1 0.998807
1 1 1 1
0.998969 1 1 0.998969
0.999969 1 1 0.999969
0.999567 1 1 0.999567
0.999126 1 1 0.999126
0.998883 1 1 0.998883
0.999997 1 1 0.999997
0.999742 1 1 0.999742
1 1 1 1
1 1 1 1
0.999809 1 1 0.999809
1 1 1 1
0.999961 1 1 0.999961
0.999889 1 1 0.999889
0.99951 1 1 0.99951
1 1 1 1
1 1 1 1
0.999776 1 1 0.999776
0.99985 1 1 0.99985
0.999235 1 1 0.999235
0.999982 1 1 0.999982
0.999461 1 1 0.999461
0.999565 1 1 0.999565
0.999237 1 1 0.999237
0.999996 1 1 0.999996
1 1 1 1
0.999788 1 1 0.999788
0.999136 1 1 0.999136
0.999358 1 1 0.999358
0.998909 1 1 0.998909
0.999636 1 1 0.999636
0.999182 1 1 0.999182
0.999282 1 1 0.999282
0.999134 1 1 0.999134
1 1 1 1
1 1 1 1
1 1 1 1
1 1 1 1
1 1 1 1
1 1 1 1
1 1 1 1
0.99973 1 1 0.99973
0.999652 1 1 0.999652
1 1 1 1
1 1 1 1
0.999607 1 1 0.999607
0.999711 1 1 0.999711
0.998935 1 1 0.998935
0.999748 1 1 0.999748
0.999036 1 1 0.999036
0.999594 1 1 0.999594
0.998877 1 1 0.998877
0.998994 1 1 0.998994
0.998717 1.00009 1 0.998627
0.999076 1 1 0.999076
0.998735 1 1 0.998735
1 1 1 1
0.999956 1 1 0.999956
0.999554 1 1 0.999554
0.999652 1 1 0.999652
1 1 1 1
0.999932 1 1 0.999932
0.99971 1 1 0.99971
0.999129 1 1 0.999129
0.99934 1 1 0.99934
0.9995 1 1 0.9995
0.999049 1 1 0.999049
0.999618 1 1 0.999618
0.999635 1 1 0.999635
0.998965 1 1 0.998965
0.999118 1 1 0.999118
1 1 1 1
0.999962 1 1 0.999962
0.999586 1 1 0.999586
0.99921 1 1 0.99921
0.998779 1 1 0.998779
0.999122 1 1 0.999122
0.998982 1 1 0.998982
0.998886 1 1 0.998886
0.999995 1 1 0.999995
0.999742 1 1 0.999742
0.998889 1 1 0.998889
0.999069 1 1 0.999069
0.998689 1 1 0.998689
0.99871 1 1 0.99871
0.998896 1 1 0.998896
0.998676 1 1 0.998675
0.999987 1 1 0.999987
0.998816 1 1 0.998816
0.999612 1 1 0.999612
0.999236 1 1 0.999236
0.998963 1 1 0.998963
0.998836 1.00001 1 0.99883
0.999673 1 1 0.999673
0.999825 1 1 0.999825
0.999427 1 1 0.999427
0.999772 1 1 0.999772
1 1 1 1
1 1 1 1
0.999855 1 1 0.999855
0.999237 1 1 0.999237
0.99999 1 1 0.99999
0.999565 1 1 0.999565
0.999462 1 1 0.999462
0.999227 1 1 0.999227
0.999997 1 1 0.999997
1 1 1 1
0.999789 1 1 0.999789
0.999136 1 1 0.999136
0.999362 1 1 0.999362
0.998909 1 1 0.998909
0.999637 1 1 0.999637
0.99919 1 1 0.99919
0.99928 1 1 0.99928
0.999124 1 1 0.999124
1 1 1 1
0.999707 1 1 0.999707
0.999869 1 1 0.999869
0.999488 1 1 0.999488
0.998816 1 1 0.998816
0.999061 1 1 0.999061
0.999131 1.00038 1 0.998749
0.999357 1 1 0.999357
0.999069 1 1 0.999069
0.999433 1 1.00033 0.999101
0.99904 1 1 0.99904
0.999972 1 1 0.999972
1 1 1 1
1 1 1 1
1 1 1 1
1 1 1 1
1 1 1 1
1 1 1 1
0.999999 1 1 0.999999
1 1 1 1
0.99975 1 1 0.99975
0.999698 1 1 0.999698
0.999036 1 1 0.999036
0.998936 1 1 0.998936
0.999609 1 1 0.999609
1 1 1 1
0.999593 1 1 0.999593
0.998877 1 1 0.998877
0.998994 1 1 0.998994
0.998689 1.00006 1 0.998627
0.999076 1 1 0.999076
0.998735 1 1 0.998735
0.998862 1 1 0.998862
0.998778 1.00021 1 0.998568
0.998688 1 1 0.998688
1.00073 1.00219 1 0.998546
0.998772 1 1 0.998772
0.99923 1.00059 1 0.998636
0.999615 1 1 0.999615
0.999635 1 1 0.999635
0.998919 1 1 0.998919
0.999136 1 1 0.999136
1 1 1 1
0.999954 1 1 0.999954
0.999606 1 1 0.999606
0.999211 1 1 0.999211
0.998752 1 1 0.998752
0.998996 1 1 0.998996
0.999118 1 1 0.999118
0.998888 1 1 0.998888
0.999992 1 1 0.999992
0.999742 1 1 0.999742
0.998874 1 1 0.998874
0.999068 1 1 0.999068
0.998688 1.00001 1 0.998677
0.998739 1 1 0.998739
0.999983 1 1 0.999983
0.999612 1 1 0.999612
0.999257 1 1 0.999257
0.998896 1 1 0.998896
0.998716 1.00005 1 0.998668
0.998941 1 1 0.998941
0.998816 1 1 0.998816
0.998906 1.00007 1 0.998831
0.999674 1 1 0.999674
0.999425 1 1 0.999425
0.999823 1 1 0.999823
0.998697 1.00007 1 0.99863
0.998715 1 1 0.998715
1.00013 1.00159 1 0.998542
0.998853 1.00025 1 0.998608
0.998751 1.00001 1 0.998743
0.99967 1.001 1 0.998671
0.999639 1 1 0.999639
0.999122 1.00034 1 0.998782
0.999362 1 1 0.999362
0.999045 1 1 0.999045
0.998828 1 1 0.998828
0.999054 1.00018 1 0.998877
0.999888 1 1 0.999888
0.999414 1 1 0.999414
0.999465 1 1 0.999465
0.99931 1 1 0.99931
0.999137 1 1 0.999137
1 1 1 1
0.999999 1 1 0.999999
0.99979 1 1 0.99979
0.999365 1 1 0.999365
0.998909 1 1 0.998909
0.999637 1 1 0.999637
0.999279 1 1 0.999279
0.999199 1 1 0.999199
0.999113 1 1 0.999113
1 1 1 1
0.999707 1 1 0.999707
0.999872 1 1 0.999872
0.999487 1 1 0.999487
0.998815 1 1 0.998815
0.999064 1 1 0.999064
0.999008 1.00026 1 0.998749
0.999359 1 1 0.999359
0.99908 1 1 0.99908
0.99928 1 1.00019 0.999095
0.999078 1 1 0.999078
1 1 1 1
0.99992 1 1 0.99992
0.999428 1 1 0.999428
0.999564 1 1 0.999564
0.999318 1 1 0.999318
0.999242 1.00057 1 0.998677
0.998914 1 1 0.998914
0.999381 1.00069 1 0.998694
0.999399 1 1.00024 0.999157
0.999006 1 1 0.999006
0.999289 1 1.00037 0.998918
0.999961 1 1 0.999961
0.99976 1 1 0.99976
0.99998 1 1 0.99998
0.999975 1 1 0.999975
1 1 1 1
1 1 1 1
1 1 1 1
1 1 1 1
1 1 1 1
1 1 1 1
1 1 1 1
1 1 1 1
1 1 1 1
0.999999 1 1 0.999999
1 1 1 1
0.999076 1 1 0.999076
0.998994 1 1 0.998994
0.998735 1 1 0.998735
0.99866 1.00003 1 0.998626
0.998877 1 1 0.998877
0.999592 1 1 0.999592
0.998862 1 1 0.998862
0.998749 1.00018 1 0.998568
0.998688 1 1 0.998688
1.00063 1.00209 1 0.998542
0.998771 1 1 0.998771
0.99905 1.00042 1 0.998636
0.998738 1.00019 1 0.998552
1.00254 1.00405 1 0.998491
1.00003 1.00144 1 0.998589
1.00472 1.00619 1 0.998543
0.998944 1.00028 1 0.998662
1.00127 1.0026 1 0.998673
0.998858 1 1 0.998858
0.999067 1 1 0.999067
0.99869 1.00002 1 0.998665
0.998768 1 1 0.998768
0.999978 1 1 0.999978
0.999612 1 1 0.999612
0.999278 1 1 0.999278
0.998896 1 1 0.998896
0.998757 1.0001 1 0.998662
0.998817 1 1 0.998817
0.998919 1 1 0.998919
0.998991 1.00016 1 0.998832
0.999676 1 1 0.999676
0.999422 1 1 0.999422
0.999822 1 1 0.999822
0.998703 1.0001 1 0.998605
0.998714 1 1 0.998714
1.0004 1.00187 1 0.998532
0.999092 1.00048 1 0.998614
0.99964 1 1 0.99964
0.999359 1 1 0.999359
0.99907 1 1 0.99907
0.998761 1.00001 1 0.998753
0.999755 1.00108 1 0.998679
0.998812 1 1 0.998812
0.999319 1.00054 1 0.998782
0.999113 1.00023 1 0.998886
0.999416 1 1 0.999416
0.999296 1 1 0.999296
0.999885 1 1 0.999885
0.999476 1 1 0.999476
1.00105 1.00257 1 0.998485
0.999729 1.00116 1 0.998574
1.00437 1.00588 1 0.998494
1.00055 1.00196 1 0.998599
0.999858 1.00113 1 0.998732
1.00208 1.00338 1 0.998703
0.999406 1 1 0.999406
1.00017 1.0013 1 0.998869
0.999199 1 1 0.999199
0.998888 1 1 0.998888
0.998747 1 1 0.998747
0.999625 1.00074 1 0.998886
0.99992 1 1 0.99992
0.999541 1 1 0.999541
0.999304 1 1 0.999304
0.999322 1 1 0.999322
0.999253 1 1 0.999253
1 1 1 1
0.998813 1 1 0.998813
0.999875 1 1 0.999875
0.999707 1 1 0.999707
0.999485 1 1 0.999485
0.999066 1 1 0.999066
0.998886 1.00014 1 0.998749
0.99936 1 1 0.99936
0.999198 1 1.00011 0.999088
0.999091 1 1 0.999091
0.999115 1 1 0.999115
1 1 1 1
0.999924 1 1 0.999924
0.999428 1 1 0.999428
0.999564 1 1 0.999564
0.999308 1 1 0.999308
0.999265 1.00059 1 0.998675
0.998915 1 1 0.998915
0.999383 1.00069 1 0.998689
0.999381 1 1.00022 0.99916
0.999014 1 1 0.999014
0.999505 1 1.00057 0.998933
0.999945 1 1 0.999945
0.999638 1 1 0.999638
0.999241 1 1 0.999241
0.999376 1 1 0.999376
0.999215 1 1 0.999215
1.00031 1.00166 1 0.998646
0.999122 1.00027 1 0.998852
0.999815 1.00104 1 0.998776
1.00086 1 1.00188 0.998981
0.998832 1 1 0.998832
0.999965 1 1 0.999965
0.999705 1 1 0.999705
0.999745 1 1 0.999745
0.999606 1 1 0.999606
0.999769 1 1 0.999769
0.999984 1 1 0.999984
0.999982 1 1 0.999982
1 1 1 1
0.999977 1 1 0.999977
1 1 1 1
1 1 1 1
1 1 1 1
1 1 1 1
1 1 1 1
1 1 1 1
1 1 1 1
1 1 1 1
1 1 1 1
1 1 1 1
1 1 1 1
0.99877 1 1 0.99877
0.998688 1 1 0.998688
0.998868 1.00023 1 0.998636
1.00051 1.00197 1 0.998537
0.998723 1.00015 1 0.998569
0.998861 1 1 0.998861
0.998757 1.00021 1 0.998553
1.00258 1.0041 1 0.998483
0.999738 1.00115 1 0.998589
1.00473 1.00619 1 0.998545
0.99908 1.00042 1 0.99866
1.00111 1.00244 1 0.998674
1.00225 1.0038 1 0.99846
1.00758 1.00911 1 0.998485
1.00304 1.00444 1 0.998602
1.00668 1.00813 1 0.998555
1.00109 1.00242 1 0.998671
1.00408 1.00537 1 0.998715
0.998707 1.00013 1 0.998581
0.998714 1 1 0.998714
1.00066 1.00214 1 0.998522
0.999331 1.00071 1 0.998619
0.999641 1 1 0.999641
0.999357 1 1 0.999357
0.999095 1 1 0.999095
0.99877 1.00001 1 0.998763
0.999832 1.00115 1 0.998686
0.9995 1.00072 1 0.998783
0.998795 1 1 0.998795
0.999165 1.00027 1 0.998895
0.999419 1 1 0.999419
0.999283 1 1 0.999283
0.999882 1 1 0.999882
0.999487 1 1 0.999487
1.0014 1.00291 1 0.998485
0.999896 1.00132 1 0.998575
1.0039 1.00541 1 0.998497
1.0004 1.0018 1 0.9986
0.999405 1 1 0.999405
0.999219 1 1 0.999219
0.998984 1 1.0001 0.998885
0.999909 1.00118 1 0.998727
1.00197 1.00324 1 0.998733
0.998738 1 1 0.998738
1.00044 1.00157 1 0.99887
0.999431 1.00052 1 0.998916
0.999305 1 1 0.999305
0.999249 1 1 0.999249
0.99932 1 1 0.99932
0.999897 1 1 0.999897
0.99955 1 1 0.99955
1.00676 1.00831 1 0.99846
1.00412 1.00562 1 0.998503
1.00333 1.0047 1 0.998639
1.00247 1.00369 1 0.998786
0.999299 1 1 0.999299
1.00207 1.00313 1 0.998939
0.999117 1 1.00003 0.999083
0.999012 1 1.00032 0.998692
0.998994 1.00032 1 0.998677
0.999903 1 1 0.999903
0.999643 1 1 0.999643
0.999397 1 1 0.999397
0.99927 1 1 0.99927
0.99921 1 1 0.99921
0.999211 1 1 0.999211
1 1 1 1
0.999928 1 1 0.999928
0.999279 1.00061 1 0.998672
0.999564 1 1 0.999564
0.999427 1 1 0.999427
0.999297 1 1 0.999297
0.998916 1 1 0.998916
0.999341 1.00066 1 0.998685
0.999291 1 1.00013 0.999162
0.999491 1 1.00054 0.998948
0.999023 1 1 0.999023
0.999949 1 1 0.999949
0.999639 1 1 0.999639
0.99925 1 1 0.99925
0.999375 1 1 0.999375
0.999203 1 1 0.999203
1.00028 1.00164 1 0.998644
0.998973 1.00013 1 0.998847
0.999825 1.00104 1 0.998791
1.00041 1 1.00144 0.998972
0.998859 1 1.00006 0.998804
0.999693 1 1 0.999693
0.999419 1 1 0.999419
0.99998 1 1.00087 0.999111
0.999213 1 1 0.999213
0.999125 1 1 0.999125
1.00336 1.00453 1 0.998835
0.999008 1.00026 1 0.998753
1.00099 1.0022 1 0.998795
1.00189 1 1.00302 0.99887
0.998616 1 1 0.998616
0.999968 1 1 0.999968
0.999717 1 1 0.999717
0.999525 1 1 0.999525
0.99973 1 1 0.99973
0.999769 1 1 0.999769
0.999584 1 1 0.999584
0.999471 1 1 0.999471
0.999579 1 1 0.999579
0.999776 1 1 0.999776
0.999985 1 1 0.999985
0.999985 1 1 0.999985
1 1 1 1
0.999983 1 1 0.999983
1 1 1 1
1 1 1 1
1 1 1 1
1 1 1 1
1 1 1 1
1 1 1 1
1 1 1 1
1 1 1 1
1 1 1 1
1 1 1 1
1 1 1 1
0.999226 1.00057 1 0.998658
0.999457 1.00087 1 0.99859
1.00096 1.00229 1 0.998674
1.00474 1.0062 1 0.998547
1.00262 1.00415 1 0.998476
0.998777 1.00022 1 0.998553
1.00235 1.0039 1 0.998456
1.00746 1.00899 1 0.998485
1.00333 1.00475 1 0.998591
1.00698 1.00844 1 0.998552
1.00071 1.00204 1 0.998672
1.00391 1.00519 1 0.998733
1.00788 1.00944 1 0.998455
1.00852 1.01001 1 0.998525
1.00709 1.00848 1 0.998628
1.00432 1.00553 1 0.998796
1.00174 1.00326 1 0.998486
1.00006 1.00149 1 0.998575
1.00345 1.00496 1 0.998501
1.00025 1.00165 1 0.998601
0.999405 1 1 0.999405
0.99924 1 1 0.99924
0.999196 1 1.00031 0.998883
0.999963 1.00124 1 0.998722
1.00191 1.00315 1 0.998763
1.00074 1.00187 1 0.99887
0.998729 1 1 0.998729
0.999242 1.0003 1 0.998946
0.999305 1 1 0.999305
0.999245 1 1 0.999245
0.999317 1 1 0.999317
0.999875 1 1 0.999875
0.99956 1 1 0.99956
1.00633 1.00787 1 0.998464
1.0041 1.0056 1 0.998509
1.00323 1.00459 1 0.998646
0.999297 1 1 0.999297
0.999194 1 1.00009 0.999107
0.999259 1 1.00057 0.998687
1.00263 1.00385 1 0.998778
0.998963 1.00025 1 0.998714
1.00147 1.00253 1 0.99894
0.999904 1 1 0.999904
0.999269 1 1 0.999269
0.999222 1 1 0.999222
0.999206 1 1 0.999206
0.999405 1 1 0.999405
0.999626 1 1 0.999626
1.00788 1.00943 1 0.998474
1.00577 1.00725 1 0.998534
1.00484 1.00615 1 0.998697
1.00466 1.00579 1 0.998873
0.999234 1 1 0.999234
1.00023 1.00146 1 0.99877
0.999847 1 1.001 0.998848
0.999614 1.00002 1.00104 0.998555
0.999927 1 1 0.999927
0.999694 1 1 0.999694
0.999465 1 1 0.999465
0.999233 1 1 0.999233
0.999213 1 1 0.999213
0.999155 1 1 0.999155
0.999953 1 1 0.999953
0.999639 1 1 0.999639
1.00027 1.00163 1 0.998641
0.999373 1 1 0.999373
0.999258 1 1 0.999258
0.99919 1 1 0.99919
0.998842 1 1 0.998842
0.999869 1.00106 1 0.998806
0.999948 1 1.00099 0.998963
0.999012 1 1.00024 0.998775
0.999694 1 1 0.999694
0.999426 1 1 0.999426
0.999684 1 1.00056 0.999126
0.999219 1 1 0.999219
0.999133 1 1 0.999133
1.00328 1.00445 1 0.998839
0.999004 1.00025 1 0.998754
1.00087 1.002 1 0.99887
1.00208 1 1.00322 0.998858
0.998607 1 1.00003 0.998577
0.999487 1 1 0.999487
0.999247 1 1 0.999247
1.00155 1 1.00254 0.999011
0.999065 1 1 0.999065
1.00946 1.0106 1 0.998867
1.00582 1.00704 0.999872 0.998919
0.999929 1.00135 1 0.998582
1.00228 1 1.00369 0.9986
0.999729 1 1 0.999729
0.999536 1 1 0.999536
0.999415 1 1 0.999415
0.999769 1 1 0.999769
0.999562 1 1 0.999562
0.999777 1 1 0.999777
0.999454 1 1 0.999454
0.999587 1 1 0.999587
0.999359 1 1 0.999359
0.999455 1 1 0.999455
0.999587 1 1 0.999587
0.999778 1 1 0.999778
0.999982 1 1 0.999982
0.999984 1 1 0.999984
1 1 1 1
0.999985 1 1 0.999985
1 1 1 1
1 1 1 1
1 1 1 1
1 1 1 1
1 1 1 1
1 1 1 1
1 1 1 1
1 1 1 1
1 1 1 1
1 1 1 1
1 1 1 1
1.00031 1.00164 1 0.998673
1.00362 1.00504 1 0.998581
1.00375 1.005 1 0.998752
1.00727 1.00873 1 0.998549
1.00734 1.00886 1 0.998486
1.00246 1.00402 1 0.998452
1.00761 1.00917 1 0.998461
1.00829 1.00978 1 0.998523
1.00694 1.00832 1 0.998634
1.00505 1.00627 1 0.998791
1.0095 1.01102 1 0.998495
1.0096 1.011 1 0.998609
1.00837 1.00966 1 0.998727
1.00589 1.00744 1 0.998468
1.00411 1.0056 1 0.998516
1.00309 1.00444 1 0.998653
0.999295 1 1 0.999295
0.999131 1 1 0.999131
0.999318 1 1.00064 0.998682
1.00272 1.00396 1 0.998769
1.00094 1.002 1 0.998941
0.998919 1.00017 1 0.998751
0.999267 1 1 0.999267
0.999233 1 1 0.999233
0.999203 1 1 0.999203
0.999906 1 1 0.999906
0.999412 1 1 0.999412
0.999608 1 1 0.999608
1.00846 1.01 1 0.998475
1.00558 1.00706 1 0.998533
1.00481 1.00614 1 0.998684
0.999229 1 1 0.999229
0.999749 1 1.00086 0.998891
0.999474 1.00001 1.0009 0.998561
1.00502 1.00614 1 0.998891
1.00045 1.00168 1 0.998764
0.999945 1 1 0.999945
0.999695 1 1 0.999695
0.999214 1 1 0.999214
0.999172 1 1 0.999172
0.999235 1 1 0.999235
0.999452 1 1 0.999452
1.00908 1.01056 1 0.99854
1.00683 1.00824 1 0.998596
1.00756 1.00882 0.999905 0.998843
1.00528 1.00635 1 0.998932
0.99964 1 1.00052 0.999118
1.00007 1.00017 1.0014 0.998499
1.0011 1 1.00239 0.998707
0.999981 1 1 0.999981
0.999795 1 1 0.999795
0.999698 1 1 0.999698
0.999487 1 1 0.999487
0.999297 1 1 0.999297
0.999113 1 1 0.999113
0.999227 1 1 0.999227
1.00092 1 1.00173 0.999192
0.999694 1 1 0.999694
0.999434 1 1 0.999434
1.00313 1.00429 1 0.998843
0.999225 1 1 0.999225
0.999564 1 1.00042 0.999142
0.999141 1 1 0.999141
0.998988 1.00023 1 0.998756
1.00071 1.00177 1 0.998945
1.00226 1 1.00342 0.998847
0.998538 1 1 0.998538
0.999479 1 1 0.999479
0.999256 1 1 0.999256
1.00183 1 1.00281 0.999023
0.999078 1 1 0.999078
1.00891 1.01006 1 0.99886
1.00523 1.00638 0.999949 0.998913
1.0002 1.00159 1 0.998615
1.00182 1 1.00324 0.998579
0.99936 1 1 0.99936
1.00973 1.01125 0.999698 0.998802
0.999123 1 1 0.999123
1.00093 1 1.00205 0.998883
1.01214 1.01349 0.999722 0.998942
1.00464 1.00603 1 0.998611
1.00203 1.00034 1.00323 0.998461
0.999546 1 1 0.999546
0.999415 1 1 0.999415
0.99931 1 1 0.99931
0.999777 1 1 0.999777
0.999594 1 1 0.999594
0.999437 1 1 0.999437
0.999778 1 1 0.999778
0.999587 1 1 0.999587
0.999346 1 1 0.999346
0.999472 1 1 0.999472
0.999276 1 1 0.999276
0.999346 1 1 0.999346
0.999486 1 1 0.999486
0.999602 1 1 0.999602
0.999772 1 1 0.999772
0.99998 1 1 0.99998
0.999982 1 1 0.999982
1 1 1 1
0.999984 1 1 0.999984
1 1 1 1
1 1 1 1
1 1 1 1
1 1 1 1
1 1 1 1
0.99999 1 1 0.99999
1 1 1 1
1 1 1 1
1 1 1 1
1 1 1 1
1 1 1 1
1 1 1 1
1.00581 1.00703 1 0.998785
1.00679 1.00816 1 0.998639
1.00808 1.00957 1 0.998522
1.00734 1.00889 1 0.998466
1.00937 1.01088 1 0.998503
1.01003 1.01145 1 0.998599
1.00896 1.01024 1 0.998741
1.00957 1.01101 1 0.998583
1.01096 1.01229 1 0.998682
1.00758 1.00965 0.999107 0.998836
1.009 1.01053 1 0.998477
1.0054 1.00688 1 0.998533
1.00489 1.00623 1 0.998671
0.999223 1 1 0.999223
0.999927 1 1.00099 0.998935
0.999342 1 1.00078 0.998567
1.00556 1.00665 1 0.99891
1.00051 1.00175 1 0.998758
0.999214 1 1 0.999214
0.999189 1 1 0.999189
0.999237 1 1 0.999237
0.999963 1 1 0.999963
0.999695 1 1 0.999695
0.999439 1 1 0.999439
1.00858 1.01005 1 0.998551
0.999977 1 1 0.999977
0.999783 1 1 0.999783
1.00654 1.00796 1 0.998595
1.00876 1.00995 1 0.998815
0.999621 1 1.00048 0.999144
1.00177 1 1.0031 0.998675
0.999683 1.00034 1.00084 0.998507
1.00482 1.0059 1 0.99893
0.999732 1 1 0.999732
0.999486 1 1 0.999486
0.999202 1 1 0.999202
1.00011 1 1.00086 0.999248
0.999093 1 1 0.999093
0.9993 1 1 0.9993
1.00988 1.01133 0.999913 0.998656
1.01015 1.01147 1 0.998699
1.00916 1.01061 0.999538 0.999027
1.00092 1.00221 1 0.998721
1.00122 1 1.00213 0.999093
1.00381 1 1.00532 0.998496
0.999797 1 1 0.999797
0.999761 1 1 0.999761
0.999631 1 1 0.999631
0.999491 1 1 0.999491
0.999353 1 1 0.999353
0.999152 1 1 0.999152
1.00085 1 1.00184 0.999014
0.999262 1 1 0.999262
0.999472 1 1 0.999472
0.999264 1 1 0.999264
1.00856 1.00972 1 0.998854
1.00484 1.00594 1 0.998908
0.99909 1 1 0.99909
1.00204 1 1.003 0.999036
1.00054 1.00186 1.00004 0.998648
1.0014 1 1.00285 0.998558
0.999357 1 1 0.999357
1.00984 1.01137 0.999674 0.998819
0.999127 1 1 0.999127
1.00103 1 1.00217 0.998864
1.01189 1.01324 0.99974 0.998928
1.00502 1.0064 1 0.998626
1.00224 1.0003 1.00348 0.998469
0.99921 1 1 0.99921
1.01783 1.02081 0.998125 0.998963
0.99901 1 1 0.99901
1.00223 1 1.00355 0.998689
1.00582 1.00992 0.997225 0.998714
1.00183 1.00117 1.00221 0.998455
1.00663 1.00906 0.998576 0.999021
0.999414 1 1 0.999414
0.99931 1 1 0.99931
0.999231 1 1 0.999231
0.999778 1 1 0.999778
0.999586 1 1 0.999586
0.999488 1 1 0.999488
0.999332 1 1 0.999332
0.999771 1 1 0.999771
0.999593 1 1 0.999593
0.999271 1 1 0.999271
0.999485 1 1 0.999485
0.99936 1 1 0.99936
0.99926 1 1 0.99926
0.999402 1 1 0.999402
0.999492 1 1 0.999492
0.99957 1 1 0.99957
0.999737 1 1 0.999737
0.999622 1 1 0.999622
0.999739 1 1 0.999739
0.999978 1 1 0.999978
0.999979 1 1 0.999979
1 1 1 1
0.999981 1 1 0.999981
1 1 1 1
1 1 1 1
1 1 1 1
1 1 1 1
1 1 1 1
0.999994 1 1 0.999994
0.999987 1 1 0.999987
1 1 1 1
1 1 1 1
1 1 1 1
1 1 1 1
1 1 1 1
1 1 1 1
1.00951 1.01077 1 0.998755
1.01047 1.01189 1 0.998589
1.00926 1.01077 1 0.99851
1.01002 1.01145 1 0.998582
1.01025 1.01158 1 0.998685
1.00847 1.01017 0.999474 0.998841
1.00999 1.01147 0.999798 0.998741
1.01009 1.01593 0.99536 0.99888
1.01995 1.02326 0.99773 0.999031
0.99984 1 1 0.99984
1.00814 1.00959 1 0.998562
1.00614 1.00756 1 0.998593
1.00967 1.0109 1 0.998787
0.999538 1 1.00037 0.999171
1.00251 1 1.00387 0.998644
0.99956 1.00059 1.00045 0.998515
1.00428 1.00536 1 0.998929
0.999178 1 1 0.999178
0.999304 1 1 0.999304
0.999073 1 1 0.999073
0.999974 1 1 0.999974
0.999303 1 1 0.999303
0.999766 1 1 0.999766
0.999485 1 1 0.999485
0.99977 1 1 0.99977
1.01013 1.01155 0.999933 0.998657
0.999812 1 1 0.999812
0.99976 1 1 0.99976
0.999605 1 1 0.999605
1.01062 1.01193 1 0.998702
1.00773 1.00933 0.99942 0.998991
1.00047 1 1.00137 0.999105
1.00391 1 1.00543 0.998489
1.00108 1.00219 1.00016 0.998726
0.999509 1 1 0.999509
0.999345 1 1 0.999345
0.999746 1 1.00052 0.999226
1.00081 1 1.00177 0.99904
0.999167 1 1 0.999167
1.01069 1.01291 0.999114 0.998697
1.00956 1.0134 0.997374 0.998826
1.00391 1.00547 0.999618 0.998835
1.00307 1.0012 1.00326 0.99861
1.00367 1 1.00467 0.999009
0.999606 1 1 0.999606
0.999542 1 1 0.999542
0.999471 1 1 0.999471
0.999363 1 1 0.999363
0.999238 1 1 0.999238
0.999644 1 1.00058 0.999063
1.00417 1 1.00521 0.998964
0.999355 1 1 0.999355
0.99913 1 1 0.99913
1.0099 1.01138 0.999704 0.998836
1.01147 1.01287 0.999712 0.998913
1.00516 1.00653 1 0.998641
1.0011 1 1.00226 0.998846
1.0023 1.00024 1.00359 0.998476
0.999228 1 1 0.999228
1.01775 1.02124 0.997619 0.998967
0.999035 1 1.00002 0.999016
1.00242 1 1.00373 0.998698
1.00689 1.01033 0.99784 0.998754
1.00208 1.00095 1.00269 0.998448
1.0078 1.01018 0.998753 0.99889
0.999124 1 1 0.999124
1.0024 1.01315 0.990451 0.998925
1.00037 1 1.0014 0.998974
1.00492 1 1.00632 0.998614
1.00153 1.00191 1.00104 0.998574
0.960697 0.970213 0.99668 0.99349
0.997728 0.99456 1.00601 0.997193
0.986248 1.00548 0.981703 0.999155
0.914329 0.935032 0.982177 0.995604
0.909077 0.950095 0.96069 0.995979
0.999309 1 1 0.999309
0.999239 1 1 0.999239
0.999225 1 1 0.999225
0.999771 1 1 0.999771
0.999583 1 1 0.999583
0.999484 1 1 0.999484
0.999375 1 1 0.999375
0.999266 1 1 0.999266
0.999477 1 1 0.999477
0.999751 1 1 0.999751
0.999581 1 1 0.999581
0.999267 1 1 0.999267
0.999398 1 1 0.999398
0.999409 1 1 0.999409
0.999326 1 1 0.999326
0.999447 1 1 0.999447
0.999556 1 1 0.999556
0.999735 1 1 0.999735
0.999595 1 1 0.999595
0.999494 1 1 0.999494
0.999592 1 1 0.999592
0.999602 1 1 0.999602
0.999766 1 1 0.999766
0.999738 1 1 0.999738
0.999977 1 1 0.999977
0.999978 1 1 0.999978
1 1 1 1
0.999979 1 1 0.999979
1 1 1 1
1 1 1 1
1 1 1 1
1 1 1 1
1 1 1 1
0.999995 1 1 0.999995
0.999993 1 1 0.999993
1 1 1 1
0.999985 1 1 0.999985
1 1 1 1
1 1 1 1
1 1 1 1
1 1 1 1
1 1 1 1
1.00957 1.01089 1 0.998689
1.01041 1.01185 1 0.99858
1.00912 1.01054 0.999744 0.998846
1.01044 1.01573 0.99589 0.998901
1.00991 1.0113 0.999881 0.99874
1.02073 1.02394 0.997878 0.998988
1.0207 1.02271 0.99935 0.998686
0.976418 0.984914 0.994734 0.996623
1.01625 1.01935 0.997905 0.999054
0.999848 1 1 0.999848
0.99984 1 1 0.99984
0.999658 1 1 0.999658
0.999678 1 1 0.999678
1.01046 1.01182 1 0.998658
1.01109 1.0124 1 0.998706
1.00633 1.00791 0.999481 0.998955
0.999643 1 1.00053 0.999117
1.00372 1 1.00525 0.998483
1.00121 1.00235 1.00013 0.998731
1.00023 1 1.00104 0.999191
1.00073 1 1.00167 0.999067
0.999181 1 1 0.999181
0.999759 1 1 0.999759
0.999337 1 1 0.999337
0.999526 1 1 0.999526
0.999827 1 1 0.999827
0.999579 1 1 0.999579
1.0093 1.0112 0.999405 0.998714
0.999632 1 1 0.999632
0.999556 1 1 0.999556
0.999467 1 1 0.999467
1.01128 1.01418 0.998305 0.998836
1.00259 1.00434 0.999431 0.998832
1.00347 1 1.00447 0.999006
1.00263 1.00123 1.00281 0.998596
0.999367 1 1 0.999367
0.999246 1 1 0.999246
1.00301 1 1.00405 0.998964
1.00015 1 1.00111 0.999045
1.018 1.02011 0.999196 0.998732
1.00303 1.01114 0.993158 0.998814
1.00208 1.00279 1.00073 0.998566
1.00192 1 1.00304 0.998886
0.999421 1 1 0.999421
0.999405 1 1 0.999405
0.999193 1 1 0.999193
1.00513 1 1.00627 0.998871
0.949585 0.966737 0.988859 0.993324
0.999245 1 1 0.999245
0.999051 1 1.00003 0.999022
1.0173 1.0215 0.996919 0.998971
1.00799 1.01065 0.99857 0.998794
1.00256 1.00083 1.0033 0.998441
1.0027 1 1.004 0.998707
1.0085 1.01105 0.998722 0.998757
0.999151 1 1.00001 0.999136
1.00168 1.01275 0.990149 0.998913
0.999973 1 1.00099 0.998979
1.00466 1 1.00605 0.998617
1.00142 1.00261 1.00023 0.998585
0.958375 0.969476 0.994816 0.993701
0.992689 0.992645 1.00386 0.996201
0.989043 1.00556 0.984358 0.999203
0.921031 0.937894 0.986734 0.995223
0.898815 0.94285 0.957434 0.995677
0.999451 1 1.00028 0.999173
0.927028 0.94196 0.989242 0.994851
0.930693 0.952056 0.981182 0.99631
0.978618 1.00336 0.976382 0.99893
1.00383 1 1.00485 0.998984
1.00899 1.00015 1.01012 0.998742
0.989017 1.00371 0.986059 0.999295
0.968608 0.972478 1.00285 0.993189
0.993408 0.990479 1.00704 0.995951
0.908738 0.939565 0.971582 0.99548
0.941215 0.976105 0.967126 0.997031
0.999246 1 1 0.999246
0.999225 1 1 0.999225
0.999279 1 1 0.999279
0.999765 1 1 0.999765
0.999593 1 1 0.999593
0.999463 1 1 0.999463
0.999394 1 1 0.999394
0.999273 1 1 0.999273
0.999735 1 1 0.999735
0.99941 1 1 0.99941
0.999463 1 1 0.999463
0.999571 1 1 0.999571
0.999316 1 1 0.999316
0.999363 1 1 0.999363
0.999508 1 1.0002 0.999311
0.999456 1 1 0.999456
0.999584 1 1 0.999584
0.999594 1 1 0.999594
0.999479 1 1 0.999479
0.999471 1 1 0.999471
0.999467 1 1 0.999467
0.999409 1 1 0.999409
0.999378 1 1 0.999378
0.99957 1 1 0.99957
0.999592 1 1 0.999592
0.999762 1 1 0.999762
0.999581 1 1 0.999581
0.999754 1 1 0.999754
0.999977 1 1 0.999977
0.999738 1 1 0.999738
0.999977 1 1 0.999977
1 1 1 1
0.999977 1 1 0.999977
1 1 1 1
1 1 1 1
1 1 1 1
1 1 1 1
1 1 1 1
0.999843 1 1 0.999843
0.999996 1 1 0.999996
0.999995 1 1 0.999995
1 1 1 1
0.999992 1 1 0.999992
1 1 1 1
1 1 1 1
1 1 1 1
1 1 1 1
1 1 1 1
1.01162 1.01585 0.996908 0.998922
1.00991 1.01125 0.999941 0.998739
1.02194 1.02478 0.998283 0.998944
0.978903 0.9844 0.997201 0.997207
1.01583 1.01907 0.997733 0.999087
1.02131 1.02389 0.998807 0.998674
1.01988 1.02233 0.998789 0.998817
0.981609 0.986526 0.997701 0.997309
0.958443 0.969716 0.995767 0.992576
0.903363 0.932415 0.97427 0.994429
0.901155 0.938907 0.963745 0.995898
0.99965 1 1 0.99965
0.999848 1 1 0.999848
0.99984 1 1 0.99984
0.99965 1 1 0.99965
0.999535 1 1 0.999535
0.999562 1 1 0.999562
0.99966 1 1 0.99966
0.999666 1 1 0.999666
1.00769 1.00938 0.99959 0.998731
1.01337 1.01543 0.999126 0.998846
1.00153 1.00347 0.999231 0.998829
1.00345 1 1.00445 0.999003
1.00236 1.00105 1.00272 0.998582
1.00194 1 1.00298 0.998965
1.00069 1 1.00166 0.999026
0.999254 1 1 0.999254
0.99957 1 1 0.99957
0.99937 1 1 0.99937
0.999659 1 1 0.999659
0.999463 1 1 0.999463
1.01852 1.02103 0.998829 0.998708
0.999435 1 1 0.999435
0.999404 1 1 0.999404
1.00365 1.01005 0.994858 0.998806
1.00204 1.00306 1.00036 0.998623
1.00341 1 1.00456 0.998847
0.999186 1 1 0.999186
1.00474 1 1.00588 0.998874
1.01282 1.02063 0.993678 0.998664
0.992031 1.00286 0.990436 0.998749
0.999783 1 1.00103 0.998753
1.00641 1 1.00754 0.998882
0.999346 1 1 0.999346
0.999253 1 1 0.999253
1.00025 1 1.00122 0.999025
0.917022 0.941631 0.97858 0.995182
0.955819 0.968428 0.993198 0.99374
0.999186 1 1.00004 0.999148
0.999694 1 1.00071 0.998985
1.00186 1.0128 0.990294 0.998902
1.00138 1.00338 0.999411 0.998596
1.0043 1 1.00569 0.998619
0.959501 0.970663 0.996004 0.992466
0.993129 0.993756 1.00244 0.996934
0.992153 1.00581 0.987156 0.999251
0.915754 0.938983 0.980395 0.994763
0.887866 0.934604 0.954407 0.995373
0.999356 1 1.00018 0.999172
0.922046 0.945074 0.980237 0.995304
0.931689 0.949995 0.984426 0.996246
0.981228 1.00397 0.978404 0.99892
1.00323 1 1.00424 0.998993
1.00809 1.00009 1.00924 0.998777
0.982692 1.00122 0.98218 0.999301
0.969382 0.973673 1.00284 0.99277
0.991319 0.98981 1.00463 0.996913
0.911071 0.938598 0.97597 0.994572
0.94051 0.976016 0.966694 0.996822
1.00003 1 1.00083 0.99921
0.946664 0.952758 0.996615 0.996979
0.993168 0.994543 1.00037 0.998253
0.986735 1.00017 0.987361 0.999195
1.00881 1 1.0096 0.999222
1.0048 0.998549 1.00663 0.999631
0.984009 0.987306 0.998792 0.997866
0.971733 0.971046 1.00785 0.992911
0.931078 0.961594 0.973555 0.994566
0.962464 0.994121 0.970355 0.997733
0.999225 1 1 0.999225
0.999262 1 1 0.999262
0.999773 1 1.00042 0.999352
0.999735 1 1 0.999735
0.999587 1 1 0.999587
0.999478 1 1 0.999478
0.999411 1 1 0.999411
0.999306 1 1 0.999306
0.999584 1 1 0.999584
0.999374 1 1 0.999374
0.999456 1 1 0.999456
0.999559 1 1.00024 0.999314
0.999908 1 1.00055 0.999353
0.999447 1 1.00009 0.999361
0.999458 1 1 0.999458
0.999594 1 1 0.999594
0.999464 1 1 0.999464
0.999471 1 1 0.999471
0.999466 1 1 0.999466
0.999407 1 1 0.999407
0.999433 1 1 0.999433
0.999396 1 1 0.999396
0.999367 1 1 0.999367
0.999252 1 1 0.999252
0.999591 1 1.00043 0.999157
0.999314 1 1 0.999314
0.999377 1 1 0.999377
0.999533 1 1 0.999533
0.999569 1 1 0.999569
0.999751 1 1 0.999751
0.999592 1 1 0.999592
0.999762 1 1 0.999762
0.999975 1 1 0.999975
0.999742 1 1 0.999742
0.999976 1 1 0.999976
1 1 1 1
0.999977 1 1 0.999977
1 1 1 1
1 1 1 1
1 1 1 1
1 1 1 1
1 1 1 1
0.999858 1 1 0.999858
0.999995 1 1 0.999995
0.999843 1 1 0.999843
1 1 1 1
0.999996 1 1 0.999996
0.999994 1 1 0.999994
1 1 1 1
1 1 1 1
1 1 1 1
1 1 1 1
1 1 1 1
0.919436 0.939828 0.98272 0.995506
0.93746 0.953382 0.98657 0.996685
0.981962 0.985119 0.999164 0.997629
1.01562 1.01871 0.997846 0.99912
1.02188 1.02497 0.998328 0.99866
0.981112 0.985026 0.997747 0.998275
1.02014 1.02213 0.999221 0.998826
0.960439 0.97091 0.995555 0.993631
0.91443 0.935537 0.981936 0.995421
0.893016 0.936001 0.958297 0.995596
0.998865 0.999896 1.00016 0.99881
0.966834 0.971711 1.00146 0.99353
0.903455 0.936571 0.969094 0.995405
0.940103 0.973318 0.969229 0.996539
0.999491 1 1 0.999491
0.99966 1 1 0.99966
0.999847 1 1 0.999847
0.999642 1 1 0.999642
0.999549 1 1 0.999549
0.999513 1 1 0.999513
0.999562 1 1 0.999562
0.99959 1 1 0.99959
0.999645 1 1 0.999645
0.999655 1 1 0.999655
1.01906 1.02186 0.998573 0.998685
1.00338 1.0082 0.996415 0.998797
1.00199 1.00334 0.999976 0.998681
1.00466 1 1.00586 0.998807
1.0041 1 1.00522 0.998878
0.999179 1 1 0.999179
0.999404 1 1 0.999404
0.999449 1 1 0.999449
1.01305 1.02069 0.993867 0.99864
0.99934 1 1 0.99934
0.999238 1 1 0.999238
0.993563 1.00295 0.991922 0.998709
1.00013 1 1.00133 0.9988
1.00528 1 1.00645 0.998844
1.00131 1 1.0023 0.999015
1.00825 1.01032 0.999216 0.998737
0.996727 1 0.997656 0.999069
1.00557 1 1.00664 0.998942
0.999327 1 1 0.999327
0.999231 1 1 0.999231
0.999098 1 1 0.999098
0.947242 0.955723 0.99398 0.997129
0.921356 0.941558 0.983819 0.994639
0.953786 0.969461 0.990473 0.993295
0.999171 1 1 0.999171
1.00254 1 1.00354 0.999003
0.983818 1.00444 0.980537 0.998911
1.00731 1 1.00851 0.998812
0.91947 0.943834 0.979496 0.99458
0.967999 0.97287 1.00089 0.994109
0.991128 0.991241 1.0039 0.996006
0.980027 0.99906 0.981621 0.999315
0.913743 0.937427 0.979152 0.995489
0.933041 0.952199 0.983681 0.996136
0.936291 0.974456 0.964131 0.996581
1.00011 1 1.0009 0.999209
0.944774 0.954285 0.993072 0.99694
0.993617 0.994723 1.00064 0.998253
0.989674 1.00007 0.990377 0.999216
1.00877 1 1.00955 0.999219
1.00449 0.999531 1.00572 0.999247
0.985017 0.986769 1.00172 0.996508
0.968763 0.971773 1.00405 0.992883
0.933228 0.963755 0.972486 0.995721
0.956532 0.98844 0.970146 0.997498
1.00091 1 1.00141 0.999499
0.994464 0.995904 0.999811 0.998743
1.00435 1.00081 1.00451 0.999039
1.00891 0.999572 1.00963 0.999715
0.992751 0.988061 1.00585 0.998903
0.972041 0.97379 1.00557 0.99268
0.960344 0.978145 0.985742 0.996002
0.962793 0.99834 0.966883 0.997426
0.999245 1 1 0.999245
0.999719 1 1.00036 0.999364
1.00075 1 1.0013 0.999451
0.999583 1 1 0.999583
0.999455 1 1 0.999455
0.999384 1 1 0.999384
0.999599 1 1.00028 0.999318
0.999458 1 1 0.999458
0.99939 1 1.00003 0.999359
1.0003 1 1.00093 0.999366
1.00031 1 1.00086 0.999456
0.999558 1 1.00021 0.999346
0.999384 1 1 0.999384
0.999471 1 1 0.999471
0.999465 1 1 0.999465
0.999404 1 1 0.999404
0.999398 1 1 0.999398
0.999432 1 1 0.999432
0.999372 1 1 0.999372
0.999327 1 1 0.999327
0.999353 1 1 0.999353
0.99923 1 1 0.99923
0.99926 1 1 0.99926
0.999619 1 1.00045 0.999169
0.999416 1 1.0004 0.999019
0.999299 1 1 0.999299
0.99945 1 1.00025 0.9992
0.999333 1 1 0.999333
0.999459 1 1 0.999459
0.999376 1 1 0.999376
0.999532 1 1 0.999532
0.999728 1 1 0.999728
0.999568 1 1 0.999568
0.99975 1 1 0.99975
0.999972 1 1 0.999972
0.999762 1 1 0.999762
0.999975 1 1 0.999975
1 1 1 1
0.999976 1 1 0.999976
1 1 1 1
1 1 1 1
1 1 1 1
1 1 1 1
1 1 1 1
0.999798 1 1 0.999798
0.999993 1 1 0.999993
0.999831 1 1 0.999831
1 1 1 1
0.999995 1 1 0.999995
0.999843 1 1 0.999843
1 1 1 1
1 1 1 1
0.999996 1 1 0.999996
1 1 1 1
1 1 1 1
1 1 1 1
0.950249 0.956274 0.996408 0.997282
0.919732 0.940805 0.982562 0.994951
0.993235 0.996152 0.998894 0.998177
0.931688 0.949424 0.984743 0.996524
0.977054 0.983685 0.996194 0.997054
1.01972 1.02195 0.998979 0.998834
0.960438 0.971185 0.994199 0.994703
0.912051 0.936726 0.979006 0.994538
0.885029 0.933517 0.952543 0.995292
0.99647 0.999389 0.998739 0.998338
0.967839 0.970909 1.00378 0.993082
0.907692 0.940633 0.970356 0.994459
0.937472 0.972291 0.967626 0.996447
0.995194 0.998026 0.998824 0.998336
0.969611 0.969471 1.00739 0.992803
0.933785 0.9647 0.972184 0.99565
0.961373 0.994905 0.96875 0.997467
0.999399 1 1 0.999399
0.999506 1 1 0.999506
0.99967 1 1 0.99967
0.999564 1 1 0.999564
0.999421 1 1 0.999421
0.999524 1 1 0.999524
0.999563 1 1 0.999563
0.999573 1 1 0.999573
0.999606 1 1 0.999606
0.999631 1 1 0.999631
1.01393 1.02147 0.993993 0.998618
0.9958 1.00338 0.993764 0.998669
1.00044 1 1.00159 0.998846
1.0045 1 1.0057 0.998807
1.00256 1 1.00356 0.999005
0.999223 1 1 0.999223
0.999334 1 1 0.999334
0.999328 1 1 0.999328
1.00334 1.00902 0.995614 0.998757
0.999241 1 1 0.999241
0.999184 1 1.00009 0.999093
0.995297 1 0.996273 0.999021
1.00479 1 1.00586 0.998939
0.990303 1.00307 0.988141 0.999117
1.01092 1 1.01161 0.999323
0.999855 1 1.00078 0.999076
0.999254 1 1 0.999254
0.999111 1 1 0.999111
0.994415 0.995663 0.999768 0.998979
0.949486 0.955809 0.996091 0.997283
0.920021 0.941282 0.981823 0.995509
1.00024 1 1.00103 0.999208
1.00861 1 1.0094 0.999216
0.991056 1 0.991814 0.999236
0.95061 0.956597 0.996505 0.997226
0.971522 0.970347 1.00858 0.992691
0.986959 0.988071 1.00135 0.997527
0.998735 0.999566 1.00033 0.998837
0.932895 0.961499 0.975558 0.99456
0.993313 0.994102 1.00095 0.998254
0.951416 0.984259 0.969012 0.997544
1.00116 1 1.00165 0.999506
0.993313 0.994364 1.00002 0.998924
1.00644 1.00254 1.00485 0.99905
1.00864 0.999568 1.00948 0.999591
0.992015 0.988884 1.00467 0.998502
0.975331 0.975802 1.00706 0.992506
0.963914 1.0016 0.964613 0.997683
0.944638 0.970054 0.9783 0.995399
1.00193 0.999451 1.00277 0.999711
1.0044 1.00436 1.00033 0.999706
1.01369 1.00937 1.00511 0.999172
0.963312 0.995396 0.970221 0.997472
1.00169 0.9892 1.01297 0.999656
0.978397 0.977011 1.00841 0.993062
0.938234 0.956819 0.984647 0.995866
0.999643 1 1.00027 0.999376
1.0005 1 1.00109 0.999414
1.00312 1 1.00355 0.999566
0.999458 1 1 0.999458
0.999358 1 1 0.999358
1.00075 1 1.00138 0.999378
0.999386 1 1 0.999386
0.999672 1 1.00033 0.999347
1.00069 1 1.00126 0.999429
0.999851 1 1.00035 0.999497
0.999339 1 1 0.999339
0.9994 1 1 0.9994
0.999431 1 1 0.999431
0.999376 1 1 0.999376
0.999351 1 1 0.999351
0.999334 1 1 0.999334
0.999525 1 1.0002 0.999321
0.999262 1 1 0.999262
1.00135 1 1.00234 0.999005
0.999268 1 1 0.999268
0.999519 1 1.00036 0.999161
0.999627 1 1.00073 0.998893
0.999432 1 1.00042 0.99901
0.999238 1 1 0.999238
0.999476 1 1.00045 0.999024
0.99942 1 1 0.99942
0.999284 1 1 0.999284
0.99931 1 1.00007 0.999243
0.999353 1 1 0.999353
0.999476 1 1 0.999476
0.999689 1 1 0.999689
0.999531 1 1 0.999531
0.999727 1 1 0.999727
0.999967 1 1 0.999967
0.99975 1 1 0.99975
0.999971 1 1 0.999971
1 1 1 1
0.999974 1 1 0.999974
1 1 1 1
1 1 1 1
1 1 1 1
1 1 1 1
1 1 1 1
0.999717 1 1 0.999717
0.999953 1 1 0.999953
0.999796 1 1 0.999796
1 1 1 1
0.999978 1 1 0.999978
0.999803 1 1 0.999803
1 1 1 1
1 1 1 1
0.999996 1 1 0.999996
1 1 1 1
1 1 1 1
1 1 1 1
0.992956 0.994414 0.999662 0.998872
0.943289 0.955285 0.990457 0.996957
0.921137 0.939507 0.985682 0.994689
0.999522 1 1 0.999522
1.00208 0.998866 1.00403 0.99919
0.994919 0.996237 1.0005 0.998178
0.925783 0.948927 0.97923 0.996304
0.994815 0.999396 0.997588 0.997823
0.970583 0.972805 1.0043 0.993441
0.911501 0.944613 0.969428 0.995377
0.932435 0.969788 0.965054 0.9963
0.997705 1.00018 1.0005 0.997029
0.966729 0.968766 1.00488 0.993052
0.936672 0.964666 0.975613 0.995251
0.96049 0.994402 0.968557 0.997253
0.988968 0.990198 1.00247 0.996297
0.975021 0.969807 1.01373 0.991763
0.94537 0.971628 0.977862 0.995002
0.96206 0.998326 0.96617 0.997416
0.999315 1 1 0.999315
0.99939 1 1 0.99939
0.999522 1 1 0.999522
0.999411 1 1 0.999411
0.999441 1 1 0.999441
0.999535 1 1 0.999535
0.999578 1 1 0.999578
0.999622 1 1 0.999622
0.997966 1.0073 0.991946 0.998777
0.993567 1 0.994589 0.998973
0.999329 1 1 0.999329
1.00384 1 1.00491 0.998937
0.999255 1 1.00017 0.999089
0.999251 1 1 0.999251
0.999257 1 1 0.999257
0.994408 1.00455 0.990776 0.999123
0.999129 1 1 0.999129
1.00067 1 1.0016 0.999072
1.00701 1 1.00769 0.999324
0.99927 1 1 0.99927
0.985566 0.996313 0.989674 0.999534
1.01278 0.999703 1.01363 0.999454
0.999173 1 1 0.999173
0.999213 1 1 0.999213
1.00491 1.00579 0.99935 0.999772
0.993869 0.995144 0.999723 0.998995
0.952069 0.955893 0.998555 0.99744
1.0013 1 1.00178 0.999515
1.00933 0.999579 1.0103 0.999469
0.992017 0.992912 0.999995 0.999104
0.976246 0.973377 1.01018 0.992841
0.992244 0.987359 1.00783 0.997139
0.947591 0.972064 0.979856 0.994865
1.00838 1.00409 1.00522 0.999061
0.966976 1.00631 0.962898 0.99794
1.00215 0.999483 1.00299 0.999678
1.00351 1.00385 0.999948 0.999713
1.01305 1.00884 1.00484 0.999336
1.0067 0.993494 1.01336 0.999931
0.961281 0.994624 0.969141 0.99725
0.976752 0.975604 1.00812 0.993111
0.944165 0.967186 0.981294 0.994806
1.00619 0.996499 1.00996 0.999771
1.01252 1.01159 1.00111 0.999803
1.00226 1.0001 1.00297 0.999193
0.941385 0.974412 0.969442 0.996559
0.944548 0.97283 0.975873 0.994933
0.994831 0.988649 1.0064 0.99985
0.979687 0.971174 1.01638 0.992508
1.00027 1 1.00089 0.999376
1.00223 1 1.00268 0.99955
1.00884 0.996683 1.01262 0.999582
0.999387 1 1 0.999387
0.999713 1 1.00037 0.999347
1.00094 1 1.00154 0.999403
0.999336 1 1 0.999336
0.99993 1 1.00043 0.999497
1.00421 1 1.00483 0.99938
0.99935 1 1 0.99935
0.999341 1 1 0.999341
0.999871 1 1.00057 0.9993
1.00515 1 1.00609 0.999065
0.999293 1 1 0.999293
1.00081 1 1.00177 0.999045
1.00277 1 1.004 0.998773
1.00052 1 1.00177 0.998749
0.999394 1 1.00024 0.999154
0.999619 1 1.00076 0.998861
0.999473 1 1.00039 0.999081
0.999611 1 1.00044 0.999175
0.999397 1 1.00036 0.999036
0.999381 1 1 0.999381
0.999235 1 1 0.999235
0.999541 1 1.00051 0.999029
0.999638 1 1 0.999638
0.999414 1 1 0.999414
0.999268 1 1 0.999268
0.999493 1 1 0.999493
0.999688 1 1 0.999688
0.999955 1 1 0.999955
0.999726 1 1 0.999726
0.999964 1 1 0.999964
1 1 1 1
0.99997 1 1 0.99997
1 1 1 1
1 1 1 1
1 1 1 1
1 1 1 1
1 1 1 1
0.999684 1 1 0.999684
0.999929 1 1 0.999929
0.999733 1 1 0.999733
1 1 1 1
0.999952 1 1 0.999952
0.999795 1 1 0.999795
1 1 1 1
1 1 1 1
0.999963 1 1 0.999963
1 1 1 1
1 1 1 1
1 1 1 1
1.00312 1.00342 1.00002 0.999692
0.992844 0.99425 0.999705 0.99888
0.943963 0.955802 0.990609 0.996977
0.999528 1 1 0.999528
0.999491 1 1 0.999491
0.999424 1 1 0.999424
1.01354 1.00822 1.00611 0.999169
1.00255 0.999326 1.00403 0.999204
0.996223 0.996346 1.0017 0.998179
1.00359 1.00116 1.00435 0.998091
0.968696 0.969557 1.00628 0.992874
0.933662 0.962129 0.975701 0.99458
0.961694 0.996181 0.967961 0.997334
0.983999 0.985309 1.00123 0.997441
0.97089 0.9694 1.00885 0.992748
0.945082 0.968037 0.980282 0.995924
0.964484 1.00186 0.964936 0.997677
0.976562 0.980583 0.998712 0.997185
0.981015 0.973407 1.01504 0.99288
0.938583 0.956691 0.985148 0.995862
0.961564 0.992691 0.970866 0.997711
0.999301 1 1 0.999301
0.999313 1 1 0.999313
0.999381 1 1 0.999381
0.99941 1 1 0.99941
0.99946 1 1 0.99946
0.999583 1 1 0.999583
0.998971 1.00594 0.993944 0.999128
1.00312 1 1.0038 0.999324
0.99926 1 1 0.99926
1.00138 1 1.00231 0.999069
0.999147 1 1 0.999147
0.99926 1 1 0.99926
0.999216 1 1 0.999216
0.994569 0.998774 0.996263 0.999524
0.999208 1 1 0.999208
1.00992 0.997595 1.01289 0.99948
0.999276 1 1 0.999276
1.00893 0.990934 1.01841 0.999754
0.995207 0.995146 1.00044 0.999626
0.999264 1 1 0.999264
1.01443 1.01506 0.999502 0.999882
1.00485 1.00575 0.999306 0.999803
0.99354 0.99478 0.999742 0.999011
1.00231 0.99952 1.00315 0.999644
1.00125 0.994243 1.00717 0.999881
1.00284 1.00354 0.99959 0.99972
0.984137 0.978488 1.01054 0.995284
0.950752 0.967646 0.986402 0.996086
1.01224 1.00826 1.00444 0.999501
0.961998 0.996461 0.967992 0.997338
1.00567 0.997644 1.00826 0.999788
1.01278 1.01192 1.00102 0.999827
1.00312 1.00055 1.00337 0.999206
0.993472 0.98497 1.01037 0.998279
0.939331 0.973668 0.968152 0.996469
0.942953 0.969821 0.97635 0.995847
0.990251 0.977227 1.02048 0.992995
1.01746 0.992041 1.02574 0.99989
1.00363 1.00399 0.999943 0.999693
0.994148 0.997397 0.998553 0.998188
0.901929 0.939958 0.963464 0.995929
0.934445 0.964243 0.973306 0.995675
0.984074 0.975968 1.01552 0.992891
0.96766 0.97889 0.990748 0.997759
1.0012 1 1.00167 0.999534
1.01091 0.997677 1.01369 0.999586
1.0195 1 1.01998 0.999529
0.999334 1 1 0.999334
1.00005 1 1.00055 0.999497
1.00341 1 1.00402 0.9994
1.01311 1 1.01395 0.999169
1.0002 1 1.00093 0.999279
1.00519 1 1.00618 0.99902
1.01041 1 1.01174 0.998688
1.00038 1 1.00129 0.999086
1.00351 1 1.00475 0.998765
1.00355 1 1.00502 0.998538
1.00034 1 1.00179 0.99855
0.999907 1 1.00096 0.998951
1.00048 1 1.00175 0.99873
0.999663 1 1.00083 0.998829
0.9996 1 1.00042 0.999177
0.999506 1 1.00039 0.999113
0.99942 1 1.00013 0.99929
0.999551 1 1.00036 0.999194
0.999352 1 1.00029 0.999061
0.999574 1 1 0.999574
0.999382 1 1 0.999382
0.999232 1 1 0.999232
0.999933 1 1 0.999933
0.999638 1 1 0.999638
0.999408 1 1 0.999408
0.999687 1 1 0.999687
0.999952 1 1 0.999952
1 1 1 1
0.999962 1 1 0.999962
1 1 1 1
1 1 1 1
1 1 1 1
1 1 1 1
1 1 1 1
0.999681 1 1 0.999681
0.999949 1 1 0.999949
0.999695 1 1 0.999695
1 1 1 1
0.999949 1 1 0.999949
0.999749 1 1 0.999749
1 1 1 1
1 1 1 1
0.999951 1 1 0.999951
1 1 1 1
1 1 1 1
1 1 1 1
1.0133 1.01134 1.00214 0.999801
1.00469 1.00414 1.00086 0.9997
0.993023 0.994024 1.0001 0.998888
0.999474 1 1 0.999474
0.999395 1 1 0.999395
0.999534 1 1 0.999534
0.999488 1 1 0.999488
0.99941 1 1 0.99941
0.999402 1 1 0.999402
0.999342 1 1 0.999342
1.00389 0.999794 1.00508 0.99903
1.01191 1.0072 1.00535 0.999334
1.00335 0.999771 1.00436 0.999218
0.968248 1.00634 0.96414 0.997938
0.981717 0.984387 1.00091 0.996386
0.976771 0.973513 1.00967 0.993739
0.947287 0.963935 0.987896 0.99477
0.976125 0.980711 0.998693 0.996627
0.975232 0.971326 1.01139 0.992712
0.945896 0.967928 0.982211 0.994937
0.956726 0.988601 0.970222 0.99746
0.967221 0.975783 0.993447 0.997763
0.97217 0.973104 1.00652 0.99257
0.963662 0.981041 0.98626 0.99597
0.939763 0.974727 0.967044 0.996986
0.999314 1 1 0.999314
0.999299 1 1 0.999299
0.999311 1 1 0.999311
0.999408 1 1 0.999408
1.0025 1.00116 1.00182 0.999516
1.00762 0.995792 1.01238 0.999505
0.99925 1 1 0.99925
0.999218 1 1 0.999218
0.999243 1 1 0.999243
0.999273 1 1 0.999273
0.999253 1 1 0.999253
1.00421 0.989507 1.01526 0.999602
0.99687 0.996748 1.00044 0.999685
0.999282 1 1 0.999282
1.01 0.985946 1.02468 0.999724
1.00182 0.998189 1.00425 0.999388
1.00562 1.0061 0.999753 0.999771
1.01345 1.01409 0.999468 0.999896
1.00475 1.00559 0.999332 0.999835
1.00525 0.998716 1.00674 0.999805
0.994716 0.984821 1.01024 0.999805
1.01296 1.01219 1.00091 0.999851
0.97856 0.970768 1.01554 0.992603
0.947063 0.965501 0.986131 0.994699
1.00416 1.00101 1.00394 0.99922
0.934639 0.971077 0.966023 0.996328
1.02019 0.991925 1.02863 0.999873
1.00466 1.00448 1.00048 0.9997
0.995728 0.997499 1.00004 0.998189
0.971776 0.981914 0.990394 0.999274
0.894668 0.937381 0.958621 0.995633
0.935211 0.963248 0.975519 0.995258
0.987301 0.976049 1.01844 0.993213
1.00361 0.988055 1.01598 0.999761
0.994447 0.995529 1.00004 0.998877
0.938467 0.954311 0.98663 0.996724
0.905579 0.936439 0.97149 0.995424
0.978292 0.971987 1.01368 0.9929
0.962764 0.976915 0.988598 0.996882
1.01353 0.999084 1.01487 0.99959
1.01905 0.998901 1.02066 0.999522
1.01308 1 1.01368 0.999407
1.00267 1 1.00325 0.999421
1.01361 1 1.01442 0.999205
1.00915 1 1.0104 0.998767
1.0053 1 1.00633 0.998975
1.0102 1 1.01156 0.998655
1.00491 1 1.00647 0.998444
1.00417 1 1.00542 0.998757
1.00355 1 1.00505 0.99851
1.00204 1.00047 1.00316 0.998416
0.998592 1.00007 1 0.998519
0.999407 1 1.00069 0.998719
1.00058 1 1.00206 0.998518
0.999151 1 1.00006 0.999092
0.999606 1 1.00063 0.998972
1.00041 1 1.0017 0.998711
0.999337 1 1.00012 0.99922
0.999701 1 1.00053 0.99917
0.999539 1 1.00039 0.999146
0.999485 1 1 0.999485
0.999379 1 1.00007 0.999308
0.999511 1 1.0003 0.999213
0.999884 1 1 0.999884
0.999574 1 1 0.999574
0.999383 1 1 0.999383
1 1 1 1
0.999929 1 1 0.999929
0.999638 1 1 0.999638
0.999948 1 1 0.999948
1 1 1 1
1 1 1 1
1 1 1 1
1 1 1 1
1 1 1 1
0.999472 1 1 0.999472
0.999653 1 1 0.999653
0.999936 1 1 0.999936
0.999681 1 1 0.999681
1 1 1 1
0.999953 1 1 0.999953
0.999707 1 1 0.999707
1 1 1 1
1 1 1 1
0.99997 1 1 0.99997
1 1 1 1
1 1 1 1
1 1 1 1
1.00485 1.00368 1.00146 0.999706
1.01354 1.0117 1.002 0.999825
1.00585 1.00486 1.00128 0.999707
0.999481 1 1 0.999481
0.999384 1 1 0.999384
0.999343 1 1 0.999343
0.999383 1 1 0.999383
0.999331 1 1 0.999331
0.999486 1 1 0.999486
0.999396 1 1 0.999396
0.999403 1 1 0.999403
0.999337 1 1 0.999337
0.999349 1 1 0.999349
0.992055 0.99296 1.00087 0.998223
1.00563 1.00122 1.00537 0.999042
1.01019 1.00626 1.00441 0.999498
0.952566 0.985245 0.969244 0.997511
0.948511 0.965661 0.986071 0.996115
0.969462 0.976093 0.99715 0.996046
0.977676 0.976529 1.00841 0.992822
0.968575 0.975975 0.99593 0.996473
0.982317 0.977802 1.01193 0.992771
0.949265 0.973096 0.979982 0.995437
0.939321 0.974827 0.966699 0.99677
0.982962 0.979184 1.00687 0.997008
0.975058 0.976663 1.0054 0.992998
0.93119 0.961705 0.973592 0.994534
0.906475 0.948976 0.959144 0.995902
0.999464 1 1 0.999464
0.999314 1 1 0.999314
0.999298 1 1 0.999298
0.999874 0.987714 1.01287 0.999447
0.997218 0.997065 1.00041 0.999748
0.99927 1 1 0.99927
0.999242 1 1 0.999242
0.999325 1 1.00003 0.999292
1.00251 0.998628 1.0045 0.999383
1.00812 0.985821 1.02288 0.999736
1.00375 1 1.00435 0.999399
1.00695 0.993397 1.01418 0.999468
0.994329 0.995375 1 0.998949
1.00562 1.00611 0.999712 0.999804
1.01244 1.01313 0.999408 0.999911
1.02241 0.991514 1.03131 0.999855
0.971336 0.981733 0.992031 0.997357
1.00544 1.00498 1.00075 0.999708
0.978568 0.974904 1.01232 0.991545
0.933619 0.961368 0.976384 0.994625
0.997085 0.997646 1.00125 0.99819
0.887746 0.935322 0.953582 0.995336
1.00425 0.988657 1.01598 0.999791
0.994504 0.995622 0.999993 0.998884
0.932737 0.95049 0.984707 0.996563
0.962008 0.977658 0.986343 0.997617
0.909399 0.94077 0.971999 0.9945
0.970667 0.97035 1.00813 0.992261
0.984584 0.989004 0.996145 0.999383
0.950638 0.956431 0.996617 0.997317
0.90511 0.933141 0.975357 0.994467
0.973117 0.970677 1.00977 0.99281
0.98034 0.983831 0.998754 0.997695
1.01798 0.997621 1.02091 0.999515
1.0154 1 1.01601 0.999399
0.993396 1 0.994303 0.999087
1.01391 1 1.01468 0.999241
1.00898 1 1.01018 0.998811
1.00198 1.00069 1.00272 0.998582
1.00983 1 1.01122 0.998621
1.00413 1 1.00569 0.998451
0.999079 1.00052 1.00003 0.998523
1.00342 1 1.00494 0.998482
1.00171 1.00084 1.00244 0.998427
1.00095 1.00238 1 0.998571
0.999808 1.00115 1 0.998664
0.99863 1 1.00002 0.998613
0.998595 1.00007 1 0.998527
0.998909 1 1 0.998909
0.999664 1 1.00098 0.998686
1.00082 1 1.00233 0.998487
0.999205 1 1 0.999205
0.999121 1 1 0.999117
0.999263 1 1.00027 0.998994
0.999395 1 1 0.999395
0.999458 1 1.00023 0.999227
0.99979 1 1.00063 0.999163
0.999799 1 1 0.999799
0.999486 1 1 0.999486
0.999325 1 1 0.999325
1 1 1 1
0.999882 1 1 0.999882
0.999575 1 1 0.999575
1 1 1 1
1 1 1 1
0.999925 1 1 0.999925
1 1 1 1
1 1 1 1
1 1 1 1
0.999423 1 1 0.999423
0.999619 1 1 0.999619
0.999463 1 1 0.999463
0.999925 1 1 0.999925
0.999653 1 1 0.999653
1 1 1 1
0.999939 1 1 0.999939
0.999681 1 1 0.999681
1 1 1 1
1 1 1 1
0.999957 1 1 0.999957
1 1 1 1
1 1 1 1
1 1 1 1
0.994894 0.995809 1 0.999081
1.00425 1.00338 1.00115 0.999714
1.01372 1.01197 1.00188 0.99985
0.999338 1 1 0.999338
0.999487 1 1 0.999487
0.999374 1 1 0.999374
0.999393 1 1 0.999393
0.999353 1 1 0.999353
0.999328 1 1 0.999328
0.999286 1 1 0.999286
0.999314 1 1 0.999314
0.999404 1 1 0.999404
0.999332 1 1 0.999332
0.999346 1 1 0.999346
0.999352 1 1 0.999352
0.930886 0.951502 0.982007 0.99626
0.992678 0.993247 1.00121 0.998222
1.00701 1.00228 1.00567 0.999053
0.935861 0.974058 0.96415 0.996511
0.953528 0.976121 0.981766 0.994998
0.972296 0.973105 1.00662 0.9926
0.970646 0.974836 0.998132 0.997566
0.982637 0.978524 1.00599 0.998229
0.897037 0.941444 0.957028 0.995615
0.980289 0.975438 1.01287 0.992204
0.930172 0.961168 0.972024 0.995605
0.982287 0.98434 0.999528 0.998385
0.974143 0.971268 1.00972 0.993301
0.903732 0.935997 0.970045 0.995345
1.00007 1 1.00041 0.99966
0.999466 1 1 0.999466
0.999315 1 1 0.999315
1.0089 0.988634 1.02076 0.999743
1.00425 0.99981 1.00506 0.999377
0.999352 1 1.00005 0.999302
1.00405 1 1.00465 0.999403
1.0059 0.993834 1.01266 0.999492
1.00679 0.997844 1.00939 0.999582
0.947821 0.955608 0.995056 0.996779
0.99473 0.995581 0.999986 0.999159
1.00558 1.00601 0.999735 0.999837
1.00455 0.988944 1.01596 0.999823
0.962352 0.979393 0.984415 0.998157
0.994726 0.995664 1.00017 0.998893
0.975305 0.972923 1.00868 0.993824
0.913726 0.944882 0.971485 0.995411
0.926162 0.949824 0.978664 0.996346
0.983668 0.989464 0.994716 0.999424
0.943578 0.955385 0.990622 0.996992
0.915661 0.93494 0.98383 0.995477
0.979713 0.980867 1.00239 0.996447
0.969456 0.970965 1.00547 0.993014
0.974426 0.996361 0.978527 0.999445
0.92022 0.941007 0.982279 0.995552
0.97015 0.972533 1.00426 0.993316
0.991637 0.992867 1.00252 0.996252
1.01861 1 1.01923 0.999391
0.989828 1 0.990695 0.999126
0.981645 1.00098 0.981713 0.99895
1.00914 1 1.01029 0.998855
1.00205 1.00088 1.00259 0.998581
0.99983 1.00162 0.999428 0.998779
1.00349 1 1.00504 0.998458
0.999211 1.0003 1.00037 0.998537
1.00443 1.00563 1 0.998806
1.00149 1.00121 1.00184 0.998438
1.0008 1.00223 1 0.998576
1.00239 1.00356 1 0.998836
1.00053 1.00166 1 0.998867
0.999072 1.00039 1 0.998684
0.999762 1.00108 1 0.998681
0.998778 1 1 0.998778
0.998636 1 1 0.998636
0.99862 1.00008 1 0.998536
0.999115 1 1 0.999115
0.999001 1 1.00009 0.99891
0.999965 1 1.00131 0.998654
0.999342 1 1 0.999342
0.999203 1 1 0.999203
0.999143 1 1 0.999143
0.999698 1 1 0.999698
0.999397 1 1 0.999397
0.99959 1 1.00036 0.999234
1 1 1 1
0.999797 1 1 0.999797
0.999486 1 1 0.999486
1 1 1 1
1 1 1 1
0.999879 1 1 0.999879
1 1 1 1
1 1 1 1
1 1 1 1
0.999414 1 1 0.999414
0.999426 1 1 0.999426
0.999576 1 1 0.999576
0.999909 1 1 0.999909
0.999619 1 1 0.999619
0.999455 1 1 0.999455
1 1 1 1
0.999927 1 1 0.999927
0.999653 1 1 0.999653
1 1 1 1
1 1 1 1
0.999942 1 1 0.999942
1 1 1 1
1 1 1 1
1 1 1 1
0.947826 0.9541 0.996418 0.996995
0.994063 0.994966 1 0.999093
1.00385 1.00328 1.00084 0.999721
0.999328 1 1 0.999328
0.999314 1 1 0.999314
0.999283 1 1 0.999283
0.999403 1 1 0.999403
0.999363 1 1 0.999363
0.999325 1 1 0.999325
0.999313 1 1 0.999313
0.999285 1 1 0.999285
0.999229 1 1 0.999229
0.999342 1 1 0.999342
0.999342 1 1 0.999342
0.999353 1 1 0.999353
0.912834 0.934452 0.981304 0.995477
0.930299 0.948979 0.984053 0.996203
0.992973 0.993143 1.00161 0.998223
0.887655 0.934027 0.954814 0.995327
0.928877 0.958882 0.974044 0.994522
0.987853 0.981253 1.0127 0.994098
0.986878 0.977513 1.01272 0.996897
0.980027 0.981986 1.00089 0.997118
0.907195 0.936681 0.973917 0.99446
0.974443 0.971813 1.00918 0.993581
0.984012 0.983473 1.0032 0.997359
0.973563 0.974075 1.00646 0.993063
1.00751 1 1.00819 0.999332
0.99991 1 1.00027 0.999644
0.999468 1 1 0.999468
1.00219 0.991869 1.0109 0.999516
1.00434 1 1.00494 0.999407
1.00731 0.998637 1.00918 0.999512
1.00119 1.00067 1.00146 0.999051
0.917509 0.942888 0.977749 0.995229
0.949161 0.955024 0.996744 0.997107
0.995385 0.996095 0.999918 0.999369
0.98173 0.989656 0.992515 0.999472
0.979889 0.980823 1.00165 0.9974
0.944624 0.955915 0.991152 0.99701
0.973249 0.971385 1.00912 0.992868
0.912919 0.936499 0.980143 0.994571
0.977958 0.996885 0.9817 0.999301
0.920441 0.941257 0.98283 0.99497
0.970974 0.972071 1.00593 0.992982
0.992259 0.989497 1.00546 0.997347
0.993363 1.00328 0.99089 0.999218
0.958648 0.970679 0.995108 0.992461
0.994232 0.995353 1.00099 0.997884
0.986227 1 0.987052 0.999164
0.982816 1.00109 0.982791 0.998932
0.983058 1.00244 0.981716 0.998928
1.00176 1.00103 1.00216 0.99858
0.999529 1.00206 0.998697 0.998775
1.0046 1.00815 0.997384 0.999092
0.999387 1.00012 1.00071 0.998552
1.00497 1.00617 1 0.998804
1.00804 1.00901 1 0.999045
1.00067 1.00209 1 0.998582
1.00215 1.00332 1 0.998835
1.00241 1.00341 1 0.998999
1.00017 1.0012 1 0.998964
1.00043 1.00154 1 0.998889
0.999269 1.00043 1 0.998843
0.998781 1.00001 1 0.998771
0.999037 1.00035 1 0.998687
0.99964 1.00094 1 0.998699
0.998951 1 1 0.998951
0.998803 1 1 0.998803
0.99866 1 1 0.99866
0.99928 1 1 0.99928
0.999111 1 1 0.999111
0.999025 1 1.00011 0.998911
0.999619 1 1 0.999619
0.999343 1 1 0.999343
0.9992 1 1 0.9992
0.999997 1 1 0.999997
0.999697 1 1 0.999697
0.999399 1 1 0.999399
1 1 1 1
1 1 1 1
0.999795 1 1 0.999795
1 1 1 1
1 1 1 1
1 1 1 1
0.999369 1 1 0.999369
0.999402 1 1 0.999402
0.999531 1 1 0.999531
0.999428 1 1 0.999428
0.999576 1 1 0.999576
0.999877 1 1 0.999877
1 1 1 1
0.99991 1 1 0.99991
0.999619 1 1 0.999619
1 1 1 1
1 1 1 1
0.999929 1 1 0.999929
1 1 1 1
1 1 1 1
1 1 1 1
0.926521 0.941124 0.989571 0.994859
0.945771 0.954745 0.993809 0.996771
0.992887 0.993776 1 0.999105
0.999319 1 1 0.999319
0.999271 1 1 0.999271
0.999325 1 1 0.999325
0.999275 1 1 0.999275
0.999256 1 1 0.999256
0.999312 1 1 0.999312
0.999284 1 1 0.999284
0.999235 1 1 0.999235
0.999208 1 1 0.999208
0.999235 1 1 0.999235
0.999225 1 1.00026 0.998968
0.999349 1 1 0.999349
0.999354 1 1 0.999354
0.968986 0.977292 0.999245 0.992251
0.91841 0.936338 0.985677 0.995105
0.931152 0.95016 0.983848 0.996083
0.907799 0.936261 0.974109 0.995372
0.976521 0.97127 1.01362 0.991896
0.98206 0.981304 1.00232 0.998453
0.986987 0.986494 1.00245 0.998055
0.972611 0.97505 1.00417 0.993361
0.989304 0.997643 0.994432 0.997194
1.00568 1.00132 1.0057 0.998668
1.00597 1 1.00666 0.999318
0.999628 1 1 0.999628
1.00725 0.999764 1.00804 0.999448
1.00022 1.00101 1.00017 0.999035
0.950778 0.969459 0.987335 0.993311
0.921601 0.942551 0.982966 0.994717
0.951231 0.954629 0.999 0.997438
0.98172 0.997948 0.984572 0.999153
0.992268 0.988824 1.00723 0.996284
0.921554 0.940303 0.985296 0.994687
0.973208 0.972951 1.00703 0.993284
0.990831 1.00406 0.987616 0.999203
0.961329 0.972103 0.995405 0.993483
0.996705 0.997612 1.00236 0.99674
1.00375 1.00736 0.997572 0.99884
0.995444 0.996736 1.00013 0.998573
0.983416 1.00125 0.983259 0.998914
0.985913 1.00213 0.984906 0.998895
1.00334 1.01438 0.990149 0.998956
0.999384 1.0024 0.998214 0.99877
1.00324 1.00679 0.997387 0.999085
1.01011 1.0139 0.997119 0.999138
1.00544 1.00665 1 0.998802
1.00837 1.00936 0.999985 0.999032
1.00587 1.00683 0.999987 0.999054
1.00195 1.00312 1 0.998834
1.00243 1.00345 1 0.998989
1.00143 1.00246 1 0.998975
1.00015 1.00116 1 0.998991
0.99931 1.00041 1 0.998897
1.0004 1.00149 1 0.998911
0.999296 1.00046 1 0.998838
0.998829 1 1 0.998824
0.99887 1 1 0.99887
0.998766 1 1 0.998765
0.998993 1.0003 1 0.99869
0.999177 1 1 0.999177
0.998969 1 1 0.998969
0.998829 1 1 0.998829
0.999561 1 1 0.999561
0.999278 1 1 0.999278
0.999107 1 1 0.999107
0.999982 1 1 0.999982
0.99962 1 1 0.99962
0.999344 1 1 0.999344
1 1 1 1
0.999994 1 1 0.999994
0.999697 1 1 0.999697
1 1 1 1
1 1 1 1
1 1 1 1
0.999299 1 1 0.999299
0.99937 1 1 0.99937
0.999459 1 1 0.999459
0.99939 1 1 0.99939
0.999517 1 1 0.999517
0.999814 1 1 0.999814
0.999575 1 1 0.999575
0.999878 1 1 0.999878
1 1 1 1
1 1 1 1
1 1 1 1
0.999912 1 1 0.999912
1 1 1 1
1 1 1 1
1 1 1 1
0.965363 0.974127 0.997608 0.99338
0.921642 0.944016 0.980832 0.995378
0.950132 0.956275 0.996698 0.996867
0.999259 1 1 0.999259
0.999336 1 1 0.999336
0.999263 1 1 0.999263
0.999277 1 1 0.999277
0.999187 1 1 0.999187
0.999253 1 1 0.999253
0.999241 1 1 0.999241
0.999176 1 1 0.999176
0.99922 1 1 0.99922
0.999118 1 1 0.999118
0.999937 1.00094 1 0.999002
0.999005 1.00038 1.00011 0.998509
0.999271 1.00022 1.00006 0.998994
0.999356 1 1 0.999356
0.986785 0.993716 0.995618 0.997396
0.967892 0.974886 0.999739 0.993085
0.912551 0.937175 0.979056 0.994555
0.973989 0.973616 1.00752 0.992914
0.98344 0.986829 0.997876 0.998687
0.992407 0.997044 0.996972 0.998373
0.996502 1.00479 0.992903 0.998842
1.0028 1.00067 1.00337 0.998762
1.00493 1 1.00563 0.999304
0.998064 1.00112 0.997932 0.999013
0.9822 0.986386 0.998628 0.997124
0.958315 0.970976 0.993205 0.993713
0.919838 0.942347 0.980457 0.995571
0.990012 1.00493 0.98596 0.999185
1.00211 0.998566 1.00593 0.997635
0.961219 0.972071 0.994259 0.994545
0.99781 1.00578 0.993215 0.998856
0.99378 0.996701 0.998952 0.998116
1.00958 1.01857 0.992432 0.998729
1.01114 1.01402 0.998461 0.9987
0.989072 1.00193 0.988293 0.998861
1.00448 1.01395 0.991697 0.998952
1.01229 1.01708 0.996344 0.998939
1.00205 1.00568 0.997316 0.999078
1.0104 1.01371 0.99761 0.99913
1.00798 1.01006 0.998999 0.998941
1.0087 1.00973 0.999966 0.999019
1.00516 1.00614 0.999983 0.999043
1.00328 1.00442 1 0.998868
1.00241 1.00343 1 0.998978
1.00124 1.00226 1 0.998984
0.99988 1.00104 1 0.998845
1.0001 1.00108 1 0.999017
0.99934 1.00043 1 0.998912
0.998833 1 1 0.998828
0.999321 1.00049 1 0.998834
0.998825 1 1 0.99882
0.998877 1 1 0.998877
0.999055 1 1 0.999055
0.998887 1 1 0.998887
0.99876 1 1 0.99876
0.999483 1 1 0.999483
0.999176 1 1 0.999176
0.998987 1 1 0.998987
0.999954 1 1 0.999954
0.99956 1 1 0.99956
0.999275 1 1 0.999275
1 1 1 1
0.999975 1 1 0.999975
0.999621 1 1 0.999621
1 1 1 1
0.99999 1 1 0.99999
1 1 1 1
0.999223 1 1 0.999223
0.999309 1 1 0.999309
0.9994 1 1 0.9994
0.999371 1 1 0.999371
0.999452 1 1 0.999452
0.999733 1 1 0.999733
0.999504 1 1 0.999504
0.999815 1 1 0.999815
1 1 1 1
0.999879 1 1 0.999879
1 1 1 1
1 1 1 1
1 1 1 1
1 1 1 1
1 1 1 1
0.979918 0.986272 0.996105 0.997443
0.959132 0.971494 0.994016 0.993219
0.919663 0.944088 0.979415 0.994602
0.999058 1 1 0.999058
0.99927 1 1 0.99927
0.999279 1 1 0.999279
0.999248 1 1 0.999248
0.999181 1 1 0.999181
0.999267 1 1 0.999267
0.999144 1 1 0.999144
0.999205 1 1 0.999205
0.999147 1 1 0.999147
0.99952 1.0005 1 0.999024
0.999883 1.00125 1 0.99864
1.00383 1.0056 1 0.998239
0.999244 1.00062 1.00013 0.998497
0.99946 1.00044 1 0.999021
1.00073 1.00618 0.99547 0.999111
0.988274 0.995222 0.996123 0.996884
0.971062 0.976782 1.00011 0.994037
0.993375 0.997204 0.998789 0.997368
1.00148 1.0065 0.996111 0.998899
1.00136 1.0002 1.00231 0.998857
1.00528 1.00647 0.99992 0.998902
0.982429 0.985341 0.999029 0.998014
0.956053 0.970997 0.991201 0.99335
0.991298 1.00393 0.988538 0.998871
0.99297 0.996453 0.998901 0.997602
1.01038 1.019 0.992812 0.998721
1.01008 1.0122 0.999114 0.998792
1.01919 1.02239 0.99819 0.998678
1.01243 1.01439 0.999461 0.998605
1.00537 1.01322 0.993298 0.998949
1.01351 1.01806 0.996581 0.998948
1.0068 1.00866 0.999351 0.998796
1.01067 1.01348 0.998106 0.999121
1.00896 1.01077 0.999267 0.998939
1.00415 1.00544 0.999996 0.998722
1.00447 1.00546 0.999983 0.999032
1.00314 1.00426 1 0.998889
1.00144 1.00274 1 0.998709
1.00109 1.0021 1 0.998994
0.999905 1.00106 1 0.998845
0.998944 1.00018 1 0.998762
0.999393 1.00047 1 0.998927
0.998863 1.00003 1 0.998833
0.998831 1 1 0.998831
0.998818 1 1 0.998815
0.998866 1 1 0.998866
0.999007 1 1 0.999007
0.999395 1 1 0.999395
0.999073 1 1 0.999073
0.998904 1 1 0.998904
0.999914 1 1 0.999914
0.999482 1 1 0.999482
0.999175 1 1 0.999175
1 1 1 1
0.999945 1 1 0.999945
0.99956 1 1 0.99956
1 1 1 1
0.999968 1 1 0.999968
1 1 1 1
0.999101 1 1 0.999101
0.999225 1 1 0.999225
0.999339 1 1 0.999339
0.999318 1 1 0.999318
0.999406 1 1 0.999406
0.999656 1 1 0.999656
0.999444 1 1 0.999444
0.999732 1 1 0.999732
0.999999 1 1 0.999999
0.999816 1 1 0.999816
1 1 1 1
1 1 1 1
1 1 1 1
1 1 1 1
1 1 1 1
1.00593 1.00968 0.997094 0.999192
0.979932 0.987541 0.995832 0.996448
0.962902 0.971269 0.997884 0.993488
0.999103 1 1 0.999103
0.99888 1.00005 1 0.99883
0.999076 1 1 0.999076
0.999243 1 1 0.999243
0.999174 1 1 0.999174
0.999238 1 1 0.999238
1.00079 1.00204 1 0.998755
0.999176 1 1 0.999176
0.999046 1 1 0.999046
1.00002 1.00136 1 0.998668
1.00295 1.00467 1 0.998287
1.00958 1.01159 0.999472 0.998531
1.00258 1.00436 0.999977 0.998249
0.999396 1.00091 1 0.998485
1.00371 1.00889 0.995706 0.999156
0.986704 0.994554 0.995834 0.996258
1.00469 1.00772 0.998028 0.998956
1.00945 1.01055 0.999896 0.99901
1.00398 1.00528 0.99976 0.99895
0.979235 0.98512 0.997154 0.996863
1.01118 1.0197 0.992931 0.998714
1.00847 1.01027 0.99934 0.998883
1.01895 1.02254 0.997783 0.998709
1.01386 1.01565 0.999602 0.998632
1.00912 1.01144 0.999033 0.998679
1.01286 1.01408 1 0.998791
1.01473 1.01916 0.996696 0.998957
1.0066 1.00872 0.999095 0.998802
1.00609 1.0076 0.99987 0.99863
1.00982 1.01139 0.99951 0.998936
1.00402 1.0053 1 0.99873
1.004 1.00541 1 0.998604
1.00299 1.00408 1 0.99891
1.00136 1.00266 1 0.998708
0.999609 1.00096 1 0.998652
0.999896 1.00105 1 0.998844
0.999091 1.00033 1 0.998761
0.998764 1 1 0.998764
0.998892 1.00005 1 0.998838
0.998832 1 1 0.998832
0.998954 1 1 0.998954
0.998854 1 1 0.998854
0.999002 1 1 0.999002
0.999322 1 1 0.999322
0.999869 1 1 0.999869
0.999394 1 1 0.999394
0.999091 1 1 0.999091
1 1 1 1
0.999904 1 1 0.999904
0.999481 1 1 0.999481
1 1 1 1
0.999936 1 1 0.999936
1 1 1 1
0.998913 1 1 0.998913
0.999082 1 1 0.999082
0.999233 1 1 0.999233
0.999227 1 1 0.999227
0.99934 1 1 0.99934
0.99959 1 1 0.99959
0.999412 1 1 0.999412
0.999656 1 1 0.999656
0.999984 1 1 0.999984
0.999732 1 1 0.999732
0.999999 1 1 0.999999
1 1 1 1
1 1 1 1
1 1 1 1
1 1 1 1
1.00861 1.01046 0.9993 0.998871
1.00502 1.00889 0.997059 0.999103
0.979397 0.986214 0.995914 0.997161
1.00078 1.002 1 0.998782
0.999201 1 1 0.999201
1.0002 1.00155 1 0.998653
0.998846 1.00003 1 0.998818
0.999093 1 1 0.999093
1.00661 1.00822 1 0.998404
0.99921 1 1 0.99921
1.00075 1.00203 1 0.998728
1.00744 1.00904 1 0.998405
1.00011 1.00142 1 0.998696
1.00375 1.0055 1 0.998264
1.00742 1.00933 0.999584 0.99853
1.00092 1.00266 1 0.998258
1.00603 1.01086 0.996012 0.999202
1.01222 1.01333 1 0.998905
1.00961 1.0107 0.99991 0.999007
1.00316 1.00406 1.0001 0.998998
1.01897 1.02287 0.997438 0.998741
1.01539 1.01704 0.999723 0.998658
1.00963 1.01176 0.999207 0.998684
1.01325 1.01446 1 0.998799
1.01101 1.01232 1 0.998711
1.00646 1.00879 0.998888 0.998807
1.00593 1.00736 0.999942 0.998636
1.00729 1.00873 1 0.998569
1.00391 1.00518 1 0.998738
1.00358 1.00499 1 0.998597
1.00143 1.00288 1 0.998557
1.00129 1.00259 1 0.998706
0.999867 1.00122 1 0.998649
0.99871 1.00004 1 0.998672
0.999245 1.00049 1 0.99876
0.998763 1 1 0.998763
0.998874 1 1 0.998874
0.998834 1 1 0.998834
0.998955 1 1 0.998955
0.999254 1 1 0.999254
0.998996 1 1 0.998996
0.999321 1 1 0.999321
0.999844 1 1 0.999844
0.999984 1 1 0.999984
0.999865 1 1 0.999865
0.999394 1 1 0.999394
1 1 1 1
0.999895 1 1 0.999895
1 1 1 1
1.00078 1.00209 1 0.998691
0.998809 1 1 0.998809
0.998893 1 1 0.998893
0.999125 1 1 0.999125
0.999062 1 1 0.999062
0.999237 1 1 0.999237
0.999525 1 1 0.999525
0.999342 1 1 0.999342
0.999591 1 1 0.999591
0.999953 1 1 0.999953
0.999655 1 1 0.999655
0.999989 1 1 0.999989
1 1 1 1
1 1 1 1
1 1 1 1
1 1 1 1
1.01056 1.01187 1 0.998708
1.01146 1.01308 0.999477 0.998927
1.00528 1.00924 0.997069 0.999012
1.00481 1.00632 1 0.998497
1.0001 1.00126 1 0.998848
0.999298 1 1 0.999298
1.00038 1.00171 1 0.998678
0.998807 1 1 0.998807
1.0121 1.01376 1 0.998369
1.00628 1.00792 1 0.998375
1.00076 1.00206 1 0.998702
1.0081 1.00972 1 0.998398
1.00515 1.00692 1 0.99824
1.00695 1.00882 0.99961 0.99853
1.01435 1.01558 1 0.998794
1.01206 1.01318 1 0.998898
1.01 1.01107 0.99994 0.999003
1.01002 1.01198 0.999366 0.998689
1.01392 1.01513 1 0.998807
1.0117 1.013 0.999989 0.998721
1.01163 1.01303 1 0.998615
1.00579 1.00716 1 0.998641
1.00672 1.00816 1 0.998565
1.00458 1.00607 1 0.998526
1.00316 1.00458 1 0.99859
1.00168 1.00312 1 0.998557
0.998982 1.00039 1 0.998593
1.00012 1.00147 1 0.998647
0.998772 1.0001 1 0.998671
0.998791 1 1 0.998791
0.998763 1 1 0.998763
0.998874 1 1 0.998874
0.999175 1 1 0.999175
0.998956 1 1 0.998956
0.999253 1 1 0.999253
0.999825 1 1 0.999825
0.99932 1 1 0.99932
0.999839 1 1 0.999839
0.999979 1 1 0.999979
0.999992 1 1 0.999992
0.999862 1 1 0.999862
1 1 1 1
1.00236 1.00384 1 0.998519
0.998795 1 1 0.998795
1.0005 1.00172 1 0.998779
0.999004 1 1 0.999004
0.998889 1.00008 1 0.998807
0.998874 1 1 0.998874
0.999126 1 1 0.999126
0.999442 1 1 0.999442
0.99924 1 1 0.99924
0.999526 1 1 0.999526
0.999918 1 1 0.999918
0.999591 1 1 0.999591
0.999963 1 1 0.999963
1 1 1 1
0.999995 1 1 0.999995
1 1 1 1
1 1 1 1
1.01363 1.01507 1 0.998587
1.01011 1.01142 1 0.998706
1.01286 1.01424 0.99966 0.998982
1.0095 1.01111 1 0.998404
1.00452 1.00602 1 0.9985
0.999439 1.00053 1 0.998914
1.00058 1.00188 1 0.998702
1.01181 1.01347 1 0.998366
1.00586 1.00753 1 0.998345
1.00765 1.00927 1 0.99839
1.01324 1.01459 1 0.998668
1.01414 1.01539 1 0.998765
1.01143 1.01255 1 0.998892
1.01215 1.01359 1 0.998574
1.0122 1.01351 0.999985 0.998731
1.01156 1.01296 1 0.998615
1.00808 1.00954 1 0.998551
1.00614 1.00759 1 0.998561
1.00474 1.00622 1 0.998528
1.00018 1.00164 1 0.998543
1.0019 1.00335 1 0.998556
0.999285 1.00069 1 0.998593
0.998722 1 1 0.998722
0.998833 1.00016 1 0.998669
0.99879 1 1 0.99879
0.999098 1 1 0.999098
0.998874 1 1 0.998874
0.999173 1 1 0.999173
0.999806 1 1 0.999806
0.999251 1 1 0.999251
0.99982 1 1 0.99982
0.999977 1 1 0.999977
0.999834 1 1 0.999834
0.99998 1 1 0.99998
1 1 1 1
1.00395 1.00554 1 0.998421
0.999213 1.0006 1 0.998615
1.00212 1.00357 1 0.99855
0.998936 1 1 0.998936
0.998868 1.00008 1 0.998793
1.00023 1.00136 1 0.998866
0.999324 1 1 0.999324
0.999002 1 1 0.999002
0.998954 1.00015 1 0.998804
0.999127 1 1 0.999127
0.999443 1 1 0.999443
0.999876 1 1 0.999876
0.999527 1 1 0.999527
0.999927 1 1 0.999927
1 1 1 1
0.999973 1 1 0.999973
1 1 1 1
1 1 1 1
1.01184 1.01333 1 0.998533
1.01374 1.01519 1 0.998569
1.01049 1.0118 1 0.998704
1.00941 1.01102 1 0.998404
1.00421 1.00571 1 0.998502
1.01165 1.01331 1 0.998363
1.0117 1.01314 1 0.998573
1.01341 1.01477 1 0.998665
1.01413 1.01542 1 0.998737
1.01235 1.01379 1 0.998579
1.00934 1.01083 1 0.998527
1.01148 1.01288 1 0.998615
1.00812 1.00958 1 0.998546
1.00195 1.00342 1 0.998534
1.00491 1.00639 1 0.99853
1.00059 1.00204 1 0.998545
0.998693 1.00003 1 0.998662
0.999599 1.00101 1 0.998593
0.998721 1 1 0.998721
0.999043 1 1 0.999043
0.998789 1 1 0.998789
0.999097 1 1 0.999097
0.999784 1 1 0.999784
0.999171 1 1 0.999171
0.999801 1 1 0.999801
0.999971 1 1 0.999971
0.999816 1 1 0.999816
0.999979 1 1 0.999979
0.999981 1 1 0.999981
1.00664 1.00814 1 0.998507
0.999739 1.00125 1 0.998494
1.00378 1.00537 1 0.998416
0.99879 1 1 0.99879
0.999076 1.00045 1 0.998627
1.00187 1.0033 1 0.998581
0.999209 1 1 0.999209
0.998904 1 1 0.998904
0.998957 1.00017 1 0.998791
0.999826 1 1 0.999826
0.999326 1 1 0.999326
0.999 1 1 0.999
0.999445 1 1 0.999445
0.999884 1 1 0.999884
1 1 1 1
0.999936 1 1 0.999936
1 1 1 1
1 1 1 1
1.0104 1.0119 1 0.998517
1.01179 1.01328 1 0.998529
1.0137 1.01517 1 0.99855
1.00934 1.01095 1 0.998405
1.0098 1.01132 1 0.998501
1.0121 1.01354 1 0.998579
1.01358 1.01494 1 0.998662
1.01254 1.01397 1 0.998585
1.0093 1.01078 1 0.998529
1.00324 1.00472 1 0.998527
1.00816 1.00964 1 0.998541
1.00214 1.0036 1 0.998538
0.99889 1.00028 1 0.998612
1.00098 1.00244 1 0.998547
0.998753 1.00009 1 0.998663
0.998993 1 1 0.998993
0.99872 1 1 0.99872
0.999042 1 1 0.999042
0.999743 1 1 0.999743
0.999095 1 1 0.999095
0.999771 1 1 0.999771
1 1 1 1
0.999795 1 1 0.999795
0.999974 1 1 0.999974
0.99998 1 1 0.99998
1.00669 1.00817 1 0.99853
1.00047 1.00196 1 0.99852
1.00665 1.00815 1 0.99851
0.998645 1 1 0.998645
0.999562 1.00105 1 0.998509
1.00359 1.00519 1 0.998411
0.999058 1 1 0.999058
0.998789 1 1 0.998789
0.998954 1.00032 1 0.998638
0.99978 1 1 0.99978
0.999182 1 1 0.999182
0.998873 1 1 0.998873
1 1 1 1
0.999835 1 1 0.999835
0.999329 1 1 0.999329
0.999892 1 1 0.999892
1 1 1 1
1 1 1 1
1.009 1.01051 1 0.998504
1.01083 1.01233 1 0.998526
1.01174 1.01323 1 0.998526
1.00394 1.00547 1 0.998483
1.00934 1.01085 1 0.998499
1.01251 1.01394 1 0.998584
1.00926 1.01074 1 0.998532
1.00326 1.00474 1 0.998527
0.999452 1.00083 1 0.998622
1.00232 1.00379 1 0.998543
0.998994 1.00036 1 0.998639
0.998891 1 1 0.998891
0.998817 1.00015 1 0.998663
0.998993 1 1 0.998993
0.99971 1 1 0.99971
0.999041 1 1 0.999041
0.999741 1 1 0.999741
1 1 1 1
0.999757 1 1 0.999757
0.999984 1 1 0.999984
0.999977 1 1 0.999977
1.00504 1.00652 1 0.998532
1.00052 1.00196 1 0.998556
1.00667 1.00815 1 0.998531
0.998653 1 1 0.998653
1.00066 1.00214 1 0.998523
1.00668 1.00818 1 0.998512
0.998973 1 1 0.998973
0.998679 1 1 0.998679
0.99937 1.00085 1 0.998525
0.99975 1 1 0.99975
0.999047 1 1 0.999047
0.998787 1 1 0.998787
1 1 1 1
0.999788 1 1 0.999788
0.999155 1 1 0.999155
1 1 1 1
0.999845 1 1 0.999845
1 1 1 1
1.0037 1.0052 1 0.998503
1.00862 1.01013 1 0.998505
1.0113 1.01278 1 0.998534
0.999262 1.00068 1 0.998586
1.00391 1.00543 1 0.998488
1.00891 1.01043 1 0.998498
1.00329 1.00477 1 0.998527
0.999436 1.00082 1 0.998621
0.99884 1 1 0.99884
0.999096 1.00043 1 0.998666
0.998917 1 1 0.998917
0.999655 1 1 0.999655
0.998993 1 1 0.998993
0.999707 1 1 0.999707
1 1 1 1
0.999739 1 1 0.999739
1 1 1 1
0.999971 1 1 0.999971
1.00086 1.0023 1 0.998565
1.00497 1.00645 1 0.998532
0.998653 1 1 0.998653
1.0006 1.00205 1 0.998555
1.00662 1.0081 1 0.998532
0.998977 1 1 0.998977
0.998661 1.00001 1 0.99865
1.00084 1.00232 1 0.998525
0.999727 1 1 0.999727
0.998991 1 1 0.998991
0.998713 1 1 0.998713
1 1 1 1
0.999755 1 1 0.999755
0.999036 1 1 0.999036
1 1 1 1
0.999796 1 1 0.999796
1 1 1 1
0.999012 1.0004 1 0.998612
1.00355 1.00505 1 0.998505
1.00819 1.0097 1 0.998505
0.998818 1 1 0.998818
0.999253 1.00067 1 0.998586
1.00383 1.00534 1 0.998493
0.999419 1.0008 1 0.998621
0.998845 1 1 0.998845
0.999604 1 1 0.999604
0.998942 1 1 0.998942
0.999652 1 1 0.999652
1 1 1 1
0.999704 1 1 0.999704
1 1 1 1
1 1 1 1
0.998656 1.00002 1 0.998638
1.00078 1.00222 1 0.998559
1.00491 1.00639 1 0.998531
0.998954 1 1 0.998954
0.998662 1.00001 1 0.998651
1.00068 1.00212 1 0.998555
0.9997 1 1 0.9997
0.998976 1 1 0.998976
0.998669 1.00002 1 0.998648
1 1 1 1
0.99973 1 1 0.99973
0.999009 1 1 0.999009
1 1 1 1
0.999759 1 1 0.999759
1 1 1 1
0.998873 1 1 0.998873
0.998989 1.0004 1 0.998587
1.00343 1.00493 1 0.998507
0.999585 1 1 0.999585
0.99882 1 1 0.99882
0.999245 1.00066 1 0.998586
0.99885 1 1 0.99885
0.999603 1 1 0.999603
1 1 1 1
0.999649 1 1 0.999649
1 1 1 1
1 1 1 1
0.998916 1 1 0.998916
0.998637 1.00001 1 0.998628
1.0007 1.00215 1 0.998553
0.999703 1 1 0.999703
0.998953 1 1 0.998953
0.99867 1.00002 1 0.99865
1 1 1 1
0.999701 1 1 0.999701
0.998975 1 1 0.998975
1 1 1 1
0.999733 1 1 0.999733
1 1 1 1
0.999583 1 1 0.999583
0.998854 1 1 0.998854
0.998967 1.00041 1 0.998561
1 1 1 1
0.999584 1 1 0.999584
0.998821 1 1 0.998821
0.999601 1 1 0.999601
1 1 1 1
1 1 1 1
0.999661 1 1 0.999661
0.998916 1 1 0.998916
0.998618 1 1 0.998617
1 1 1 1
0.999669 1 1 0.999669
0.998951 1 1 0.998951
1 1 1 1
0.999703 1 1 0.999703
1 1 1 1
0.999903 1 1 0.999903
0.999617 1 1 0.999617
0.998835 1 1 0.998835
1 1 1 1
0.999583 1 1 0.999583
1 1 1 1
0.999921 1 1 0.999921
0.999648 1 1 0.999648
0.998917 1 1 0.998917
0.999966 1 1 0.999966
0.999667 1 1 0.999667
1 1 1 1
1 1 1 1
0.999594 1 1 0.999594
1 1 1 1
0.999957 1 1 0.999957
0.999628 1 1 0.999628
1 1 1 1
1 1 1 1
1 1 1 1

VECTORS lamdaE float
0.999325 1.00028 0.996104
0.999345 0.999761 0.998387
0.999173 1.00045 0.996209
0.999702 0.999931 0.995968
0.99947 1.00016 0.996066
0.999274 1.00011 0.996265
1.00032 1.00073 0.993669
0.99934 0.999637 0.998437
0.999344 1.00035 0.998323
0.999056 1.00023 0.998485
0.999426 0.99932 0.996856
1.00008 1.00081 0.993689
0.999863 1.00001 0.995571
0.999547 0.999906 0.995986
0.999018 1.00069 0.996295
0.999571 0.999907 0.996091
0.999151 1.00028 0.99635
0.999308 1.00028 0.996174
1.00041 1.00065 0.993647
0.99981 1 0.998007
0.999747 0.999967 0.995835
0.999624 0.99999 0.996029
1.00093 0.999908 0.993447
1.00064 1.00033 0.993547
0.999343 0.999621 0.99659
0.999956 1.00101 0.993964
1.00224 1.00088 0.990192
0.999323 0.999513 0.998498
0.999436 1.00021 0.997118
0.999173 1.0002 0.997359
0.999385 0.999143 0.998597
0.999985 1.00092 0.993699
0.999696 0.999962 0.99586
0.99941 1.00047 0.996036
1.00095 1.00028 0.993729
0.999324 0.99854 0.998923
1.00037 1.00076 0.994249
0.999887 1.00064 0.99418
1.00108 1.00197 0.990742
0.99942 0.99793 0.999115
0.999858 1 0.997962
0.999651 0.999969 0.997025
0.999893 1 0.997929
0.999565 0.999998 0.995926
1.0013 1.00005 0.992121
0.999578 0.999986 0.998276
1.00122 0.99998 0.993523
0.99944 0.999863 0.996214
0.999156 1.00042 0.996268
0.999009 1.00049 0.996453
1.0005 1.00053 0.993634
0.999748 1.00001 0.996899
0.999612 0.999946 0.995976
0.999237 0.999725 0.996678
0.999479 1.00002 0.996142
1.00099 0.999873 0.993399
1.00005 1.00094 0.99396
1.00072 1.00026 0.993513
1.00228 1.00092 0.990124
0.999842 1 0.997971
0.999816 1.00001 0.995669
1.00117 1 0.993504
1.00097 0.999959 0.993311
1.00086 1.00001 0.993484
1.00315 0.999796 0.989608
1.00277 1.00021 0.989609
0.999499 0.9989 0.997024
0.999564 1.00099 0.994592
1.00146 1.0016 0.990803
1.00327 1.00083 0.987826
0.999522 1.00021 0.99817
0.999374 0.998948 0.998711
0.999272 0.999977 0.998359
0.9999 1.00101 0.993708
0.999718 1.00005 0.998123
0.999416 1.00031 0.998214
1.00085 1.00026 0.992686
0.999368 0.998627 0.998125
1.00019 1.00087 0.993333
0.999808 1.00064 0.994712
1.00107 1.00194 0.990737
0.999432 0.998239 0.998974
0.999594 0.999163 0.996207
1.00113 0.999942 0.992546
1.00064 1.00059 0.992864
1.00302 1.00028 0.988784
0.999687 1.00014 0.99578
1.0017 1.00142 0.990141
1.00056 1.00239 0.991302
1.0017 1.00227 0.989188
0.999453 0.997612 0.999209
0.999397 0.997875 0.99915
0.999759 0.999972 0.998089
0.999828 1 0.997994
0.999891 1 0.997937
0.999683 0.999994 0.99696
1.0013 1.00004 0.992739
0.999655 0.999958 0.99705
1.00118 1 0.993005
0.999901 1 0.997932
1.00132 0.999993 0.992113
1.00126 1.00006 0.993398
1.00356 0.999868 0.988206
1.00119 0.999915 0.993606
1.0034 0.999857 0.988535
0.99983 1.00002 0.995645
0.999473 0.999899 0.99612
0.999129 0.999807 0.996784
0.999338 1.00006 0.996249
1.00105 0.99986 0.993351
1.0008 1.00018 0.993486
1.00015 1.00081 0.993947
1.00232 1.00097 0.990055
0.999878 1 0.99795
0.999667 0.999999 0.995819
1.00124 0.999995 0.992563
1.00103 0.999929 0.993264
0.999407 0.99895 0.997855
0.999729 1.00089 0.994719
1.00092 0.99997 0.993442
1.00316 0.999777 0.989482
1.00154 1.00166 0.990695
1.00278 1.00029 0.989696
1.00324 1.00085 0.98784
1.00129 1.00002 0.992164
1.00108 0.999988 0.993078
1.00349 0.99979 0.988734
1.00318 0.999822 0.989236
1.00309 0.999831 0.989419
1.00427 0.999463 0.987612
0.999475 0.998412 0.998875
1.00383 1.00006 0.987564
0.999646 1.00059 0.994613
1.00061 1.00215 0.991263
1.00252 1.00191 0.988268
1.00397 1.00053 0.986836
0.999684 0.999676 0.995452
1.00012 1.00152 0.992877
0.99968 1.00008 0.998129
0.999327 1.00022 0.998263
1.00084 1.00024 0.992697
0.99939 0.998472 0.998915
0.999696 1.00077 0.994324
1.00012 1.00095 0.993327
1.00107 1.00192 0.990732
0.999399 0.998182 0.999025
0.999598 0.999097 0.99624
1.00113 0.999969 0.993098
1.00058 1.00059 0.993446
1.00302 1.00027 0.988789
0.999644 1.00013 0.995126
1.00168 1.00141 0.99016
1.00052 1.00239 0.991302
1.00171 1.00227 0.989124
0.999584 0.999678 0.995697
0.999679 0.998662 0.996569
1 1.00106 0.99355
1.00332 0.999961 0.988545
1.00239 1.00089 0.989364
1.00412 1.00012 0.98691
1.00031 1.00214 0.991987
1.00249 1.00151 0.988439
1.00107 1.00315 0.989663
1.00189 1.00256 0.988613
0.999536 0.997306 0.999258
0.999451 0.997551 0.999227
0.999378 0.99781 0.999182
0.999715 0.999253 0.995833
0.99949 0.998126 0.998994
0.999754 0.99999 0.998108
0.999767 0.999982 0.998056
1.00114 1 0.992473
1.00124 1.00005 0.992203
0.999869 1 0.99795
0.999895 1 0.997929
1.00131 1 0.992114
1.0012 1.00006 0.992897
1.00356 0.999868 0.988206
1.00114 0.999906 0.992525
1.00339 0.999865 0.988534
1.00132 0.999989 0.992096
1.00365 0.999809 0.988093
1.00344 0.9999 0.988418
1.00465 0.999468 0.986639
1.00341 0.999853 0.988514
1.00448 0.999508 0.986927
0.99989 0.999999 0.997933
0.999519 0.999995 0.995974
1.00125 0.99999 0.991691
1.00109 0.999924 0.993216
0.999254 0.998939 0.998772
0.999904 1.00079 0.994837
1.00098 0.999934 0.993401
1.00317 0.999749 0.989356
1.00278 1.00036 0.989784
1.00163 1.00175 0.990586
1.00322 1.00086 0.987853
1.00129 0.999998 0.99216
1.00114 0.999989 0.993024
1.00348 0.999772 0.988474
1.00321 0.999853 0.989337
0.999467 0.998479 0.998832
0.999709 1.00051 0.994991
1.00072 1.00218 0.991364
1.00308 0.99987 0.989412
1.00427 0.99938 0.987473
1.00241 1.0019 0.988259
1.00382 1.0001 0.987683
1.00394 1.00053 0.986856
0.999669 0.999732 0.995439
1.00014 1.00147 0.992874
1.00364 0.999795 0.98813
1.00338 0.999826 0.988891
1.00456 0.999446 0.987106
1.00431 0.999426 0.987164
1.00417 0.999566 0.987613
1.00482 0.998906 0.986996
0.999667 1.00013 0.99501
1.00452 0.999514 0.986828
1.0003 1.00221 0.991786
1.00137 1.00265 0.989196
1.0032 1.00197 0.987248
1.00449 0.99986 0.986577
1.0002 1.0019 0.992383
1.00013 1.00098 0.99341
1.00037 1.00252 0.991476
1.00107 0.999954 0.992582
0.999371 0.998132 0.999073
0.999597 0.999038 0.996274
1.00044 1.00068 0.992976
1.00303 1.00027 0.988794
0.999619 1.00015 0.995082
1.00049 1.00239 0.991303
1.00165 1.0014 0.990179
1.00173 1.00225 0.98906
0.999589 0.999607 0.995724
0.999671 0.998632 0.996589
0.999978 1.00109 0.993562
1.00332 0.999972 0.988544
1.00238 1.00087 0.989385
1.00414 1.00012 0.9869
1.00026 1.00219 0.991992
1.00253 1.00153 0.988468
1.00105 1.00314 0.98965
1.0019 1.00254 0.988579
0.999773 0.998296 0.99676
1.00014 1.00165 0.992715
0.999974 1.00036 0.994302
1.00018 1.00228 0.992074
1.00441 0.999746 0.986775
1.00339 1.0009 0.987523
1.00478 0.999821 0.986045
1.00064 1.00314 0.990486
1.00295 1.00148 0.987813
1.00116 1.00395 0.988542
1.00219 1.00231 0.988146
1.00022 0.999322 0.994929
0.999931 0.997852 0.996898
0.999638 0.997044 0.999285
0.999547 0.997253 0.999267
0.999453 0.997486 0.999243
0.999775 0.998922 0.996076
0.999502 0.997892 0.999076
0.999705 0.999316 0.99581
0.999502 0.998169 0.998956
1.00115 0.999913 0.992524
1.00116 1.00005 0.992358
1.00339 0.999872 0.988532
1.00356 0.999868 0.988207
1.00131 1.00001 0.992115
0.999904 1 0.997926
1.00133 0.999991 0.992095
1.00365 0.999813 0.988092
1.00343 0.999908 0.988419
1.00465 0.999471 0.986633
1.0034 0.999866 0.988508
1.00448 0.999508 0.986924
1.00367 0.999795 0.988086
1.00473 0.999385 0.986555
1.00452 0.999548 0.986818
1.00506 0.998846 0.9865
1.00449 0.999543 0.986848
1.00495 0.998995 0.986556
1.0013 0.999983 0.992153
1.0012 0.999981 0.992968
1.00348 0.999745 0.988216
1.00323 0.999871 0.989438
0.999464 0.998548 0.998786
0.999784 1.00048 0.995331
1.00086 1.00219 0.991463
1.00306 0.999903 0.989405
1.00428 0.999293 0.987334
1.00381 1.00014 0.987801
1.0023 1.00189 0.98825
1.00391 1.00053 0.986876
0.999659 0.99979 0.995426
1.00017 1.00142 0.992871
1.00362 0.999766 0.988055
1.00339 0.999828 0.988881
1.00458 0.9994 0.987059
1.00433 0.999487 0.98731
0.99968 1.00014 0.99501
1.00037 1.00222 0.991775
1.00136 1.00264 0.989349
1.00416 0.999608 0.987638
1.00482 0.998823 0.986982
1.00314 1.00194 0.987104
1.0045 0.999517 0.986841
1.00443 0.999811 0.986611
1.00022 1.00184 0.992393
1.00034 1.00251 0.991491
1.00013 1.00097 0.993399
1.00468 0.999451 0.98686
1.00452 0.999444 0.987064
1.00505 0.998886 0.986616
1.00488 0.998955 0.986748
1.00476 0.998898 0.98694
1.00506 0.998261 0.987127
1.00024 1.00208 0.992109
1.00491 0.998747 0.986793
1.00084 1.0027 0.990426
1.00186 1.00318 0.987813
1.00361 1.0017 0.986517
1.00482 0.999023 0.986942
1.00015 1.00057 0.993785
1.0005 1.00244 0.991313
1.00027 1.00225 0.991866
1.00045 1.00291 0.991018
1.00332 0.999978 0.988544
0.999662 0.998608 0.99661
0.9996 0.999524 0.99575
0.999976 1.0011 0.993574
1.00236 1.00086 0.989408
1.00416 1.00012 0.986889
1.0002 1.00224 0.991998
1.00104 1.00315 0.989637
1.00257 1.00156 0.988498
1.00189 1.00252 0.988545
0.999764 0.998287 0.996767
1.00013 1.00169 0.992716
0.999986 1.00033 0.99432
1.00015 1.00234 0.992065
1.00442 0.999741 0.986765
1.00338 1.0009 0.987534
1.00476 0.999833 0.986039
1.0006 1.00314 0.990506
1.00298 1.0015 0.987858
1.00119 1.00406 0.988498
1.00214 1.00213 0.988446
0.999857 0.998042 0.996851
1.00006 0.99982 0.994712
1.0004 1.00272 0.991319
1.00014 1.00156 0.992853
1.00008 1.0033 0.991273
1.00495 0.999446 0.986106
1.00398 1.00067 0.98667
1.00498 0.999472 0.985969
1.00068 1.00436 0.989213
1.0031 1.00133 0.987594
1.0015 1.00373 0.987648
1.00018 0.999399 0.994914
1.00025 1.00034 0.993878
1.00025 0.999279 0.994912
1.00021 0.999337 0.994924
0.999974 0.997668 0.997394
0.999918 0.997841 0.997134
0.999792 0.996853 0.998373
0.999652 0.996998 0.999291
0.999559 0.997199 0.999276
0.999841 0.998648 0.996236
0.999549 0.997665 0.999122
0.999774 0.998953 0.996059
0.999516 0.997923 0.999052
0.999696 0.999371 0.995787
0.999516 0.998216 0.998916
1.00341 0.999874 0.988501
1.00343 0.999916 0.988421
1.00447 0.999518 0.986921
1.00465 0.999473 0.986627
1.00365 0.999818 0.988091
1.00132 0.999994 0.992095
1.00367 0.999792 0.988086
1.00473 0.999388 0.986555
1.00451 0.999564 0.986813
1.00507 0.998794 0.98654
1.0045 0.999536 0.98684
1.00494 0.999011 0.986551
1.00474 0.999375 0.986552
1.00511 0.998725 0.986546
1.00497 0.998931 0.986562
1.00516 0.998213 0.986966
1.00498 0.999149 0.986357
1.00512 0.998161 0.987047
1.0036 0.999736 0.98798
1.0034 0.999836 0.98887
1.00459 0.999358 0.987011
1.00434 0.999548 0.987456
0.999695 1.00016 0.995009
1.00039 1.00224 0.991764
1.00136 1.00262 0.989503
1.00416 0.999651 0.987662
1.00481 0.99874 0.986968
1.00447 0.999519 0.986855
1.00308 1.00191 0.98696
1.00438 0.999749 0.986646
1.00023 1.00178 0.992403
1.00033 1.00248 0.991506
1.00014 1.00097 0.993387
1.0047 0.999417 0.98673
1.00453 0.999446 0.987055
1.00503 0.998808 0.986629
1.00488 0.998987 0.986767
1.00027 1.00204 0.992111
1.0009 1.00269 0.990396
1.00177 1.00322 0.988018
1.00475 0.998987 0.986968
1.00505 0.998166 0.987195
1.00353 1.00175 0.986423
1.00492 0.998758 0.986798
1.00479 0.998843 0.987002
1.00052 1.00245 0.991324
1.00045 1.00294 0.990964
1.00015 1.00058 0.993778
1.00025 1.00219 0.991939
1.00509 0.998855 0.986474
1.00501 0.998952 0.986667
1.00517 0.998369 0.986815
1.00511 0.998061 0.987206
1.00503 0.998263 0.987096
1.00514 0.99755 0.98762
1.00064 1.00243 0.991072
1.00509 0.997911 0.987299
1.00086 1.00348 0.989324
1.00232 1.00365 0.986828
1.00397 1.00102 0.98643
1.00502 0.998234 0.987239
1.00017 1.0003 0.994026
1.00023 1.00185 0.992325
1.00058 1.00276 0.990886
1.00029 1.00286 0.991334
1.00051 1.00296 0.990827
0.999755 0.99828 0.996774
1.00444 0.999737 0.986755
0.999999 1.00029 0.994338
1.0001 1.00175 0.992718
1.00013 1.0024 0.992055
1.00337 1.00091 0.987544
1.00473 0.999847 0.986033
1.00058 1.0031 0.990525
1.00123 1.00416 0.988454
1.00301 1.00152 0.987902
1.00211 1.00198 0.988744
0.999851 0.998038 0.996853
1.00006 0.999806 0.99472
1.00038 1.00271 0.991326
1.00012 1.00159 0.992859
1.00007 1.00338 0.991166
1.00494 0.999452 0.986089
1.00395 1.00068 0.986674
1.00498 0.999483 0.985942
1.00062 1.00436 0.989226
1.00314 1.00134 0.987657
1.00166 1.00368 0.987708
1.00013 0.999551 0.994863
1.00018 1.00088 0.993476
1.00039 1.0038 0.990256
0.999996 1.00276 0.991944
1.00014 1.00393 0.990645
1.00509 0.99896 0.986248
1.00422 1.00029 0.986489
1.00502 0.998697 0.986473
1.00062 1.00503 0.988442
1.00281 1.00233 0.987115
1.00018 0.999415 0.994911
1.00022 1.00038 0.993817
1.00024 1.00035 0.993844
1.00018 1.00103 0.993433
1.00027 1.00038 0.993822
1.00028 0.999291 0.994853
1.00025 0.999289 0.99491
1.00004 0.997538 0.997403
1.00021 0.999352 0.994919
0.999983 0.997665 0.997395
0.999894 0.996629 0.998399
0.999907 0.997833 0.997366
0.999767 0.996807 0.998841
0.999666 0.996956 0.999297
0.999907 0.998386 0.996382
0.999843 0.998666 0.996225
0.99962 0.997424 0.999159
0.999554 0.997703 0.999109
0.999772 0.998988 0.996041
0.999531 0.997956 0.999026
1.00451 0.999529 0.986832
1.0045 0.999571 0.986808
1.00493 0.999023 0.986547
1.00508 0.998742 0.986579
1.00473 0.999389 0.986554
1.00367 0.99979 0.988085
1.00474 0.999375 0.986554
1.00511 0.998728 0.986542
1.00498 0.998943 0.986555
1.00516 0.998129 0.987063
1.00497 0.999153 0.986344
1.00513 0.998084 0.987109
1.0051 0.998775 0.986514
1.00516 0.998242 0.986971
1.00513 0.997992 0.987219
1.00514 0.997691 0.987554
1.00513 0.998403 0.986736
1.00516 0.99752 0.987722
1.00472 0.99938 0.9866
1.00452 0.999455 0.987046
1.00502 0.998728 0.986642
1.00489 0.999018 0.986786
1.00031 1.00201 0.992114
1.00096 1.00269 0.990365
1.00169 1.00326 0.988223
1.00474 0.999076 0.986996
1.00503 0.998069 0.987262
1.00492 0.998768 0.986803
1.00345 1.0018 0.986328
1.00476 0.998666 0.987062
1.00051 1.00247 0.991334
1.00043 1.00299 0.99091
1.00015 1.00059 0.993772
1.00024 1.00212 0.992013
1.00507 0.998858 0.986482
1.00501 0.998969 0.986607
1.00516 0.998339 0.98683
1.00509 0.998136 0.987141
1.00066 1.00247 0.991055
1.00086 1.00342 0.989498
1.00227 1.00373 0.986797
1.00503 0.998346 0.987043
1.00514 0.997465 0.987676
1.00398 1.00096 0.9864
1.00507 0.997931 0.987309
1.00501 0.998109 0.987236
1.00061 1.00276 0.990887
1.00053 1.00296 0.990823
1.00027 1.00289 0.991327
1.00017 1.0003 0.993951
1.00022 1.0018 0.992377
1.00516 0.998275 0.986943
1.00515 0.998126 0.98706
1.00515 0.997169 0.987994
1.00513 0.997421 0.987667
1.00063 1.00298 0.990531
1.00511 0.99755 0.987735
1.00072 1.0042 0.988569
1.00279 1.0036 0.986023
1.00468 0.999521 0.986581
1.00018 1.00006 0.99408
1.00022 1.00151 0.992831
1.00019 1.00254 0.991861
1.00063 1.0028 0.990779
1.00033 1.00326 0.990885
1.00064 1.00279 0.990699
0.999845 0.998035 0.996856
1.00007 0.999791 0.994729
1.00493 0.999457 0.986073
1.0001 1.00162 0.992865
1.00034 1.00272 0.991333
1.00005 1.00346 0.991059
1.00392 1.00069 0.986678
1.00499 0.999493 0.985915
1.00057 1.00442 0.98924
1.0018 1.00367 0.987769
1.00317 1.00134 0.987722
1.00013 0.999555 0.994863
1.00017 1.00088 0.993488
1.00035 1.00384 0.990276
0.999986 1.00277 0.991944
1.0001 1.00393 0.990599
1.0051 0.999001 0.986227
1.00425 1.00029 0.986465
1.00501 0.998619 0.986609
1.00063 1.00498 0.988348
1.00284 1.00248 0.987001
1.00019 1.00054 0.993794
1.00002 1.00202 0.992513
1.00043 1.00427 0.989639
0.999955 1.00374 0.990915
1.00031 1.00398 0.990218
1.00514 0.997367 0.987661
1.0044 1.0002 0.98652
1.00496 0.997926 0.987162
1.00144 1.00462 0.987902
1.00284 1.00217 0.986495
1.00017 0.999432 0.994908
1.00023 1.00036 0.993861
1.00012 1.00113 0.993269
1.00023 1.00036 0.993809
1.00026 1.00038 0.993822
1.00015 1.00104 0.993375
1.00007 1.00153 0.993097
1.00014 1.00107 0.993301
1.00028 1.00043 0.993763
1.00028 0.999362 0.994775
1.00027 0.999299 0.994853
1.00009 0.997474 0.997371
1.00024 0.999298 0.994907
1.00004 0.997546 0.997399
0.999966 0.996489 0.998403
0.999991 0.997663 0.997397
0.999884 0.996602 0.998403
0.999738 0.996751 0.999317
0.999967 0.998141 0.996523
0.99991 0.998398 0.996373
0.999699 0.997177 0.999196
0.999844 0.998688 0.996214
0.999616 0.997472 0.999148
0.99956 0.997733 0.999095
1.00495 0.999157 0.986332
1.00498 0.998958 0.986549
1.00512 0.998004 0.987172
1.00517 0.998045 0.987161
1.00511 0.998731 0.986538
1.00474 0.999376 0.986555
1.0051 0.998814 0.986474
1.00516 0.998281 0.986927
1.00514 0.998033 0.98715
1.00514 0.997595 0.987618
1.00512 0.998429 0.986742
1.00516 0.997373 0.987777
1.00514 0.998327 0.986933
1.00514 0.997673 0.987542
1.00514 0.997233 0.987961
1.00515 0.997203 0.988028
1.00506 0.998861 0.986489
1.00502 0.998982 0.986547
1.00516 0.998312 0.986846
1.00507 0.998211 0.987076
1.0007 1.00248 0.991037
1.00085 1.00336 0.989673
1.00221 1.00382 0.986766
1.00504 0.99843 0.98699
1.00514 0.997382 0.987732
1.00505 0.997952 0.987318
1.00399 1.00092 0.98637
1.005 0.998002 0.987233
1.00063 1.00277 0.990887
1.00056 1.00294 0.990817
1.00023 1.00292 0.991321
1.00016 1.0003 0.993875
1.00022 1.00175 0.992429
1.00516 0.998283 0.986937
1.00514 0.998137 0.987083
1.00514 0.997271 0.987899
1.00069 1.00298 0.990509
1.00087 1.00415 0.988736
1.00274 1.00365 0.985972
1.00513 0.997463 0.987677
1.00467 0.999371 0.986695
1.00509 0.997487 0.987659
1.00018 1.00003 0.994112
1.00066 1.0028 0.990764
1.00062 1.00275 0.990787
1.00033 1.00332 0.990834
1.00019 1.00253 0.991885
1.00021 1.0015 0.992765
1.00514 0.997892 0.987259
1.00511 0.997147 0.988101
1.00512 0.996657 0.988403
1.00511 0.996762 0.988404
1.00067 1.00338 0.990134
1.00506 0.997691 0.987485
1.00136 1.005 0.986945
1.00361 1.00243 0.985794
1.00019 0.999806 0.994322
1.00022 1.00123 0.99311
1.00018 1.00227 0.992194
1.00016 1.0031 0.991308
1.00069 1.00297 0.990475
1.0007 1.00291 0.990519
1.00013 0.999559 0.994863
1.00016 1.00086 0.993501
1.0051 0.999043 0.986205
0.999978 1.00277 0.991943
1.00031 1.00383 0.990295
1.00004 1.00397 0.990554
1.00429 1.00029 0.98644
1.00501 0.99854 0.986745
1.00064 1.00501 0.988252
1.00287 1.00262 0.986886
1.0002 1.00051 0.993801
1.00005 1.00199 0.992554
1.00039 1.00439 0.989691
0.999919 1.00384 0.990911
1.00021 1.0039 0.990397
1.00513 0.997373 0.987828
1.00444 1.00017 0.986409
1.00504 0.997857 0.987225
1.00128 1.00468 0.987824
1.00301 1.00225 0.986455
1.00008 1.00137 0.993081
0.999922 1.00306 0.991552
1.00065 1.00426 0.98932
0.999969 1.00437 0.989908
1.00514 0.995963 0.989128
1.00511 0.996732 0.988411
1.00447 0.999764 0.986497
1.00174 1.00399 0.986679
1.00023 1.00035 0.993906
1.00012 1.00115 0.993292
0.99999 1.00181 0.992929
1.00026 1.00038 0.993821
1.00013 1.00104 0.993316
1.00028 1.00042 0.993762
1.00005 1.00154 0.993055
1.00016 1.00104 0.993323
1.00001 1.0019 0.992789
1.00011 1.00147 0.993014
1.00018 1.0011 0.993197
1.00027 1.0005 0.993686
1.00027 0.999446 0.99471
1.00028 0.999367 0.994775
1.00012 0.997476 0.997316
1.00027 0.999303 0.994854
1.00009 0.9975 0.997362
1.00002 0.996419 0.998376
1.00005 0.997557 0.997396
0.999959 0.996461 0.998409
0.999875 0.996578 0.998405
1.00002 0.99791 0.996651
0.999972 0.998146 0.996515
0.999779 0.996937 0.99923
0.999914 0.998412 0.996364
0.999692 0.997226 0.999184
0.999615 0.997517 0.999135
1.00511 0.998455 0.986749
1.00515 0.998075 0.987082
1.00517 0.997229 0.987832
1.00514 0.997502 0.987681
1.00516 0.99832 0.986883
1.0051 0.998853 0.986434
1.00514 0.998322 0.986923
1.00513 0.997704 0.987514
1.00513 0.997232 0.987947
1.00516 0.997157 0.988032
1.00514 0.997853 0.987384
1.00512 0.996989 0.988291
1.00515 0.996534 0.98854
1.00516 0.998292 0.986931
1.00514 0.998149 0.987106
1.00514 0.997375 0.987805
1.00075 1.00298 0.990487
1.00101 1.00411 0.988903
1.00269 1.00371 0.98592
1.00512 0.997503 0.987686
1.00507 0.997426 0.987582
1.00466 0.999214 0.986808
1.00069 1.00279 0.990748
1.00057 1.00273 0.990876
1.00035 1.00336 0.990784
1.00018 1 0.994143
1.00019 1.00252 0.991908
1.00021 1.00149 0.9927
1.00515 0.997933 0.987276
1.00511 0.997119 0.988149
1.00512 0.996699 0.988407
1.00069 1.00338 0.990087
1.00123 1.00498 0.987274
1.00361 1.00229 0.985873
1.00511 0.996807 0.988368
1.00506 0.997714 0.987452
1.00019 0.999784 0.994424
1.00022 1.00123 0.993109
1.00061 1.00284 0.990535
1.00069 1.00282 0.990726
1.00019 1.00308 0.991272
1.00016 1.00231 0.992146
1.00512 0.997149 0.988085
1.00509 0.996127 0.989073
1.00511 0.996091 0.988958
1.00507 0.99675 0.988649
1.00056 1.00407 0.989209
1.00449 0.999575 0.98665
1.00223 1.00466 0.986387
1.0002 0.999612 0.994668
1.00017 1.00075 0.993619
1.00019 1.00104 0.99318
1.00014 1.00211 0.992354
1.00005 1.00299 0.991617
1.00009 1.00344 0.990957
1.00105 1.00162 0.990966
1.00058 1.00266 0.991618
1.0002 1.00049 0.993808
1.00007 1.00197 0.992595
1.00513 0.997383 0.987995
0.999932 1.00389 0.990908
1.00035 1.00444 0.989743
1.0001 1.00381 0.990576
1.00448 1.00011 0.986297
1.00511 0.997782 0.987288
1.00111 1.00471 0.987749
1.00315 1.00227 0.986415
1.00009 1.00139 0.993036
0.999957 1.00309 0.991555
1.00058 1.0043 0.989367
1.0001 1.00437 0.990009
1.00514 0.995957 0.989209
1.00511 0.996853 0.988234
1.0045 0.999762 0.986545
1.00206 1.00395 0.986539
0.999954 1.00221 0.992566
1.00518 0.995177 0.989685
0.999988 1.00425 0.9907
1.00074 1.0047 0.988649
1.0051 0.995775 0.989483
1.00505 0.997668 0.987256
1.00339 1.00266 0.986051
1.00013 1.00117 0.993315
0.999986 1.00181 0.99292
0.999886 1.00235 0.992584
1.00028 1.0004 0.993761
1.00016 1.00103 0.993345
1.00003 1.00155 0.993012
1.00028 1.00049 0.993683
1.00017 1.0011 0.993212
1 1.00193 0.992741
1.00012 1.00144 0.993058
1 1.00211 0.992511
1.00011 1.00174 0.992709
1.00016 1.00148 0.99296
1.00027 1.0011 0.993087
1.00027 1.00059 0.993597
1.00025 0.999514 0.994669
1.00026 0.999451 0.994711
1.00014 0.997498 0.997261
1.00027 0.999374 0.994775
1.00012 0.997505 0.997307
1.00006 0.996393 0.998339
1.0001 0.997524 0.997353
1.00002 0.996384 0.998383
0.999951 0.996435 0.998412
1.0002 0.999475 0.994809
1.00007 0.997718 0.99676
1.00003 0.997916 0.996644
0.999854 0.996723 0.99926
0.999978 0.998153 0.996508
0.99977 0.996985 0.99922
0.999686 0.997277 0.999172
1.00517 0.997111 0.988036
1.00513 0.997229 0.987933
1.00512 0.997729 0.987486
1.00515 0.998317 0.986914
1.00513 0.997819 0.987433
1.00512 0.997001 0.98826
1.00515 0.996511 0.988544
1.00515 0.997041 0.988128
1.00517 0.996186 0.989055
1.00515 0.994936 0.989825
1.00515 0.997973 0.987294
1.00512 0.997091 0.988197
1.00512 0.99674 0.988411
1.00073 1.00341 0.990039
1.00112 1.00485 0.987602
1.0036 1.00212 0.985954
1.00511 0.996852 0.988332
1.00506 0.997712 0.987418
1.00054 1.00272 0.990595
1.0007 1.00273 0.990928
1.00014 1.00313 0.991236
1.0002 0.999758 0.994527
1.00022 1.00123 0.993109
1.00014 1.00234 0.992097
1.00513 0.997066 0.98818
1.00021 0.999607 0.994668
1.00015 1.00077 0.993573
1.00508 0.996195 0.989059
1.00511 0.996098 0.988905
1.00047 1.00413 0.989484
1.00213 1.00458 0.986336
1.00441 0.999628 0.986647
1.005 0.99671 0.988558
1.0002 1.00102 0.993321
1.00014 1.0021 0.992348
1.00118 1.00187 0.990635
1.00034 1.00231 0.991978
1.00006 1.00353 0.990912
1.00006 1.00295 0.991623
1.00517 0.995865 0.989254
1.00513 0.995784 0.989459
1.00508 0.995414 0.98943
1.00491 0.996804 0.988219
1.00087 1.00339 0.989614
1.00307 1.00313 0.986268
1.00014 1.00065 0.993643
1.00018 1.00089 0.993458
1.00008 1.0017 0.992949
1.00012 1.00199 0.992354
1.00002 1.00287 0.991921
0.999922 1.00358 0.991008
0.999744 1.00435 0.990843
1.00051 1.00147 0.992151
1.00011 1.0014 0.992991
0.999994 1.00312 0.991559
1.00514 0.995936 0.989289
1.00511 0.996992 0.988057
1.00024 1.00437 0.99011
1.00052 1.00433 0.989412
1.00454 0.999783 0.986594
1.00239 1.00396 0.986398
0.999953 1.00223 0.992537
1.00518 0.995213 0.989702
0.999909 1.00412 0.990769
1.00074 1.00462 0.988557
1.0051 0.995704 0.989373
1.00503 0.997586 0.987445
1.00329 1.00281 0.986103
0.999885 1.00336 0.991651
1.00503 0.995092 0.990849
1.00053 1.00446 0.98995
1.00159 1.00472 0.987687
1.00497 0.996598 0.988773
1.00377 1.0006 0.98691
0.999806 0.999176 0.992583
0.999981 1.00181 0.992912
0.999876 1.00237 0.992571
0.999987 1.00258 0.992196
1.00028 1.00048 0.993679
1.00017 1.00111 0.993226
1.00012 1.0014 0.993101
0.999995 1.00195 0.992694
1.00027 1.00058 0.993593
1.00026 1.0011 0.993083
1.00002 1.00214 0.992473
1.00016 1.00148 0.992956
1.00012 1.00175 0.992747
1.00015 1.00189 0.992522
1.00021 1.00152 0.992775
1.00022 1.00142 0.992887
1.00035 1.00114 0.992899
1.00029 1.00064 0.993423
1.00026 1.00113 0.993164
1.00028 1.00063 0.993454
1.00024 0.999542 0.994655
1.00025 0.999517 0.99467
1.00017 0.997556 0.996736
1.00026 0.999458 0.994711
1.00015 0.997529 0.997014
1.00003 0.996337 0.999288
1.00012 0.997535 0.997299
1.00006 0.996352 0.998345
1.00001 0.99635 0.998388
1.00018 0.999391 0.994921
1.0002 0.999473 0.994807
1.00011 0.997572 0.996844
1.00006 0.99772 0.996998
0.999918 0.996543 0.999286
1.00003 0.997922 0.996637
0.999845 0.996765 0.999252
0.999762 0.997032 0.999209
1.00515 0.996489 0.988548
1.00512 0.99701 0.98823
1.00513 0.99779 0.987481
1.00515 0.997033 0.988116
1.00517 0.996176 0.988979
1.00515 0.994995 0.989878
1.00518 0.995662 0.989337
1.00088 0.999723 0.988435
1.00498 0.994961 0.991168
1.00012 1.00062 0.993844
1.00513 0.996983 0.988275
1.00508 0.99625 0.989044
1.00511 0.996146 0.988851
1.00037 1.00424 0.989759
1.00203 1.00452 0.986284
1.0043 0.999719 0.986643
1.00494 0.996696 0.988467
1.00132 1.00207 0.990312
1.00009 1.00196 0.99235
1.00007 1.00356 0.990868
1.00021 0.999606 0.994667
1.00009 1.00292 0.99163
1.00021 1.001 0.993462
1.00014 1.0021 0.992341
1.00014 1.00077 0.993527
1.00518 0.995758 0.989366
1.00014 1.00064 0.993719
1.00018 1.00089 0.993456
1.00009 1.00169 0.992851
1.00513 0.995627 0.989454
1.00504 0.995683 0.989303
1.00096 1.00316 0.989689
1.00269 1.00305 0.986385
1.00493 0.997029 0.988207
1.00012 1.002 0.992417
1.00003 1.00284 0.991869
1.00044 1.00187 0.991807
0.999769 1.00416 0.991013
0.999974 1.00357 0.991071
1.00513 0.99505 0.990158
1.00509 0.996194 0.989272
1.00508 0.995923 0.989062
1.00363 1.00012 0.987948
1.00068 1.00333 0.990079
1.00011 1.00154 0.992819
1.00009 1.00184 0.992575
1.00004 1.00237 0.992329
1 1.00281 0.991863
0.999893 1.00346 0.991395
0.999768 1.00435 0.990659
0.999733 1.00461 0.990474
0.999957 1.00224 0.992509
0.999823 1.004 0.990839
1.00518 0.995263 0.989719
1.00511 0.995636 0.989262
1.00505 0.997475 0.987634
1.00074 1.00454 0.988466
1.00318 1.00293 0.986156
0.999848 1.00327 0.991809
1.005 0.995058 0.990814
1.00028 1.0044 0.990043
1.00126 1.00486 0.987747
1.00498 0.996317 0.988911
1.0038 1.00053 0.986863
0.999735 0.9992 0.99095
1.00002 1.0037 0.991098
1.00467 0.995573 0.991399
1.00025 1.00458 0.989884
1.00174 1.00379 0.987703
1.00411 0.997402 0.98837
1.00133 0.995174 0.959741
0.995996 0.999138 0.978072
0.998968 1.00046 0.992934
0.999698 0.997018 0.936537
0.994997 0.998158 0.927561
0.999876 1.00238 0.992558
0.999926 1.00262 0.992263
0.999987 1.00226 0.992519
1.00027 1.00058 0.993589
1.00026 1.00107 0.993079
1.00016 1.00148 0.992953
1.00012 1.00176 0.992786
1.00005 1.00216 0.992436
1.00023 1.0014 0.992855
1.00028 1.00064 0.993479
1.00034 1.00113 0.992923
1.00014 1.00191 0.992534
1.0002 1.00154 0.992784
1.00024 1.00146 0.992731
1.00019 1.00136 0.992928
1.00034 1.0014 0.992701
1.0004 1.00122 0.992703
1.00029 1.00066 0.993412
1.00034 1.00118 0.992918
1.00028 1.00137 0.992866
1.00017 1.00114 0.993225
1.00026 1.00114 0.993104
1.00027 1.00054 0.993628
1.00028 1.00064 0.993445
1.00025 0.999527 0.994667
1.00024 0.99954 0.994655
1.00016 0.997609 0.996721
1.00025 0.999517 0.99467
1.00017 0.99756 0.996735
1.00004 0.996343 0.999281
1.00016 0.997559 0.996768
1.00005 0.99634 0.998802
1.00006 0.996313 0.99835
1.00017 0.999331 0.995004
1.00019 0.999386 0.99492
1.00013 0.99747 0.996903
1.00021 0.99947 0.994804
1.0001 0.997554 0.997082
0.999969 0.996404 0.999305
1.00007 0.997744 0.996738
0.999908 0.99661 0.999274
0.999836 0.996805 0.999243
1.00516 0.996156 0.988903
1.00515 0.997029 0.988105
1.00515 0.995069 0.98993
1.00087 0.998901 0.988549
1.00518 0.995616 0.989412
1.00499 0.99519 0.991094
1.00502 0.995879 0.990396
0.997338 0.999673 0.975042
1.00232 0.996644 0.98972
1.00012 1.00058 0.993879
1.00013 1.0006 0.993844
1.00007 1.0015 0.993036
1.00009 1.00139 0.993125
1.00518 0.995658 0.989478
1.00513 0.995547 0.989448
1.00507 0.995839 0.989175
1.00106 1.00296 0.989764
1.00234 1.00291 0.986502
1.00495 0.997305 0.988196
1.00036 1.00233 0.991451
0.999807 1.00397 0.991182
1.00002 1.00356 0.991135
1.00018 1.00091 0.993453
1.00004 1.00281 0.991816
1.00012 1.00202 0.992481
1.00014 1.00064 0.993795
1.00009 1.00169 0.992751
1.00506 0.99515 0.990123
1.0001 1.00157 0.992929
1.00009 1.00184 0.992629
1.00002 1.00231 0.992348
1.00506 0.995845 0.98934
1.00508 0.995799 0.98903
1.00079 1.00318 0.99005
1.00369 1.0002 0.987905
1.00001 1.00285 0.991861
0.999871 1.00344 0.991444
0.999763 1.00458 0.990476
0.999863 1.00441 0.990615
1.00507 0.996101 0.98964
1.00506 0.995535 0.989728
1.00418 0.998364 0.988624
1.0009 1.00327 0.989889
1.00007 1.00239 0.992118
0.999988 1.00261 0.992063
0.999812 1.00379 0.991195
0.999913 1.0051 0.989648
1.00067 0.994956 0.95548
0.999806 1.00319 0.991966
1.00001 1.00435 0.990136
1.00498 0.995006 0.990773
1.00501 0.996024 0.989048
1.00379 1.00044 0.986815
1.00092 1.00499 0.987806
0.999683 0.99924 0.989289
0.999882 1.00376 0.991232
1.00465 0.995421 0.991341
1.00013 1.0046 0.989942
1.0017 1.00376 0.987671
1.00432 0.997452 0.988417
1.00173 0.995467 0.955671
0.99569 0.999194 0.974267
0.999024 1.00035 0.993026
0.998731 0.997233 0.938003
0.99475 0.998147 0.922382
0.999716 1.00366 0.991804
0.99995 0.994976 0.940087
0.994955 0.99951 0.929119
1.00409 0.99652 0.991321
0.999808 1.00483 0.990254
1.00223 1.00132 0.988611
0.998116 1.00074 0.994809
0.999307 0.997197 0.959985
0.994851 0.999147 0.973319
0.99799 0.999301 0.938899
0.994677 0.999877 0.931884
0.99985 1.00267 0.99233
0.99994 1.00237 0.992488
0.999965 1.00125 0.993708
1.00027 1.00064 0.993536
1.00034 1.00113 0.992947
1.00022 1.00142 0.992824
1.0002 1.00156 0.992792
1.00014 1.00193 0.992547
1.00029 1.00066 0.993411
1.00025 1.0015 0.992709
1.00032 1.00141 0.992723
1.00039 1.00121 0.992775
1.00019 1.00132 0.992976
1.00033 1.00137 0.992714
1.00027 1.00059 0.993552
1.00043 1.00143 0.99251
1.00039 1.0012 0.992815
1.00036 1.00117 0.992912
1.00029 1.00135 0.99286
1.00041 1.00132 0.992643
1.00018 1.0014 0.992962
1.00022 1.00137 0.992883
0.999858 1.00223 0.992679
1.00007 1.00124 0.993299
1.00017 1.00115 0.993228
1.00025 1.00051 0.993708
1.00027 1.00116 0.993044
1.00028 1.00056 0.993585
1.00025 0.999484 0.994703
1.00028 1.00066 0.993436
1.00025 0.999517 0.994667
1.00011 0.997633 0.997226
1.00024 0.999537 0.994655
1.00015 0.997599 0.99697
1.00008 0.996368 0.998286
1.00017 0.997565 0.996734
1.00004 0.996348 0.999279
1.00008 0.996343 0.998316
1.00014 1.00059 0.99384
1.00017 0.999294 0.99504
1.00017 0.999327 0.995004
1.00015 0.997399 0.996949
1.00019 0.999382 0.994919
1.00014 0.997456 0.996902
1.00001 0.996304 0.999318
1.00009 0.997562 0.997309
0.999982 0.996455 0.998823
0.999949 0.996649 0.9983
1.00078 0.998063 0.98868
1.00517 0.995559 0.989486
1.00501 0.995414 0.991019
0.996802 0.998893 0.976782
1.00214 0.997025 0.989957
1.00502 0.995412 0.990405
1.00429 0.995738 0.990371
0.998278 0.996684 0.979349
1.00037 0.995586 0.958458
0.998525 0.997388 0.940044
0.994661 0.998234 0.926319
1.00005 1.00147 0.992999
1.00012 1.00058 0.993877
1.00014 1.00058 0.993843
1.00008 1.00151 0.993004
1.00002 1.00209 0.992543
1.00014 1.00184 0.99265
1.00012 1.00144 0.993062
1.00007 1.00145 0.993072
1.00502 0.995215 0.990089
1.00509 0.995385 0.989404
1.00502 0.995718 0.988998
1.0009 1.00297 0.990023
1.00376 1.0002 0.987861
0.999792 1.00454 0.99048
0.999954 1.00449 0.990572
0.99986 1.00342 0.991494
1.00009 1.00183 0.992683
1.00002 1.00291 0.991859
1.0001 1.0016 0.993039
1.00002 1.00224 0.992368
1.00502 0.99584 0.989648
1.00005 1.00237 0.99221
1 1.00262 0.992074
1.00503 0.995423 0.989606
1.00381 0.997958 0.988976
1.00107 1.00315 0.989721
0.999863 1.00382 0.991176
1.00002 1.00503 0.989663
1.00339 1.00046 0.989574
1.00452 0.996057 0.990691
1.00195 0.999834 0.989812
1.00045 1.00373 0.990078
1.00006 1.00247 0.992004
0.999952 1.00312 0.991654
0.999828 1.00442 0.990549
0.999976 0.994886 0.938293
1.00121 0.994959 0.961725
0.999768 1.00379 0.991365
1.00001 1.00458 0.990001
1.00463 0.995222 0.99129
1.00453 0.997518 0.988463
1.00167 1.00377 0.98764
1.00073 0.99496 0.957663
0.996026 0.9996 0.974457
0.999045 1.0001 0.993119
0.998208 0.997148 0.942488
0.994635 0.998144 0.917198
0.999679 1.00356 0.991815
0.999975 0.995292 0.938508
0.994962 0.999465 0.926513
1.00413 0.996564 0.99129
0.99972 1.00482 0.990356
1.00188 1.00133 0.989162
0.998449 1.0002 0.995547
0.999951 0.99729 0.956602
0.995352 0.998886 0.976109
0.997532 0.999466 0.939507
0.994848 0.999869 0.929885
0.999272 1.0033 0.99288
0.994963 0.999475 0.931339
0.994753 1.00312 0.945793
1.00112 0.998587 0.994121
0.999235 1.00417 0.992329
0.996956 1.00227 0.99605
0.995115 0.999836 0.979051
0.996679 0.999645 0.955374
0.995548 0.999908 0.942599
0.994562 0.999853 0.939344
0.999922 1.00244 0.992455
0.999963 1.00142 0.993532
0.999703 0.99978 0.995307
1.00029 1.00066 0.993409
1.00038 1.0012 0.992847
1.00031 1.00141 0.992744
1.00026 1.00153 0.992687
1.00019 1.0013 0.993023
1.00039 1.00121 0.992812
1.00032 1.00142 0.992716
1.00043 1.00144 0.992509
1.00016 1.00055 0.993743
0.999938 0.999799 0.995011
1.00045 1.001 0.992892
1.00049 1.00139 0.992456
1.00037 1.00116 0.992905
1.0003 1.00133 0.992854
1.00041 1.00132 0.992639
1.00019 1.00138 0.992954
1.00022 1.00136 0.992919
1.00004 1.0016 0.992978
1.00032 1.00132 0.992722
1.00012 1.00135 0.993091
0.999967 1.00265 0.992073
0.999654 1.00465 0.990432
0.999737 1.00292 0.992035
0.999854 1.00228 0.992657
0.999984 1.00151 0.993182
1.00007 1.00125 0.993294
1.0002 1.00051 0.993784
1.00016 1.00116 0.99323
1.00025 1.00051 0.993711
1.00024 0.99946 0.994751
1.00028 1.00057 0.993542
1.00026 0.999473 0.994704
1.00008 0.997657 0.997255
1.00025 0.999508 0.994667
1.00013 0.997622 0.996986
1.00005 0.996373 0.998297
1.00016 0.997586 0.996723
1.00003 0.996371 0.999275
1.00004 0.996354 0.999277
1.00017 1.00065 0.993904
1.00018 0.999318 0.994998
1.00014 1.00059 0.993838
1.00015 0.99737 0.99697
1.00017 0.999295 0.995039
1.00017 0.999325 0.995004
1.00015 0.9974 0.996947
1.00003 0.996242 0.999328
1.00011 0.997449 0.997366
1.00002 0.996322 0.998845
1.00001 0.996456 0.998355
0.99995 0.995298 0.936106
0.995248 0.999 0.929504
0.997738 0.998128 0.977816
1.00197 0.997416 0.990192
1.00501 0.994953 0.990416
0.997582 0.996772 0.981696
1.00426 0.995937 0.99042
1.00114 0.995317 0.958905
0.999023 0.996782 0.936532
0.994637 0.998191 0.921095
0.999015 0.997669 0.985118
0.998684 0.997753 0.960884
0.998057 0.999294 0.937561
0.994682 0.999877 0.929722
1.00012 1.00208 0.992382
1.00006 1.00147 0.993039
1.00013 1.00057 0.993875
1.00008 1.0015 0.992971
1.00002 1.00202 0.992615
1.00016 1.00195 0.992485
1.00015 1.00181 0.992628
1.00016 1.00156 0.992804
1.00012 1.00145 0.993006
1.00007 1.00148 0.993018
1.00494 0.995517 0.989659
1.00495 0.995342 0.989492
1.00341 0.997527 0.98933
1.00122 1.00309 0.989554
1.00015 1.00496 0.989678
0.999913 1.00383 0.991157
1.00001 1.00263 0.992085
1.00002 1.00236 0.992302
1.00356 0.999159 0.989746
1.00007 1.0025 0.991995
0.999963 1.0031 0.991637
1.00438 0.995798 0.990486
1.00173 1.00026 0.99018
1.00059 1.00382 0.989733
0.999945 1.00446 0.990427
1.00049 1.00115 0.992968
1.00153 0.998776 0.993262
0.999834 1.00405 0.990625
1.00006 1.00258 0.991975
1.0001 1.00266 0.991723
1.00002 1.0033 0.991338
0.994772 0.99938 0.939695
0.999954 0.995269 0.940658
1.00072 0.994943 0.95526
0.999617 1.00353 0.991829
0.999647 1.00483 0.990462
1.00421 0.996579 0.991256
1.00151 1.00147 0.989712
0.999947 0.995148 0.941594
0.998869 0.997266 0.957317
0.994895 0.998493 0.973335
0.998853 0.999068 0.996221
0.997918 0.999372 0.934861
0.994935 0.999395 0.927102
0.994992 0.999883 0.930999
0.999181 1.00335 0.992901
0.994975 0.999587 0.934148
0.994934 1.00323 0.945279
1.00131 0.998537 0.9942
0.998802 1.00445 0.992317
0.996639 1.0001 0.9989
0.995247 0.999367 0.9762
0.996698 0.99971 0.960661
0.997725 0.99991 0.938339
0.994577 0.999854 0.940988
0.998246 1.00237 0.995734
0.994559 1.0022 0.954188
0.994149 1.00337 0.958967
0.996659 1.00209 0.998455
0.995177 1.00016 0.985533
0.995381 1.00001 0.959945
0.99504 0.99996 0.939766
0.994685 0.999547 0.93876
0.999941 1.00158 0.993359
0.999772 0.999753 0.995373
0.999327 0.999216 0.99666
1.00039 1.00122 0.992809
1.00044 1.00144 0.992507
1.00033 1.00145 0.992719
1.00007 1.00051 0.993935
1.00047 1.00141 0.992457
1.00043 1.00105 0.992853
0.999921 0.99955 0.995225
0.999095 0.999311 0.996904
1.00021 1.0002 0.994208
1.00043 1.00128 0.992585
1.00042 1.00132 0.992635
1.00019 1.00137 0.992946
1.00021 1.00136 0.992954
1.00031 1.00134 0.992746
1.00003 1.00166 0.992965
1.00014 1.00135 0.993083
1.00006 1.00171 0.992876
0.999967 1.00133 0.993383
0.999985 1.00237 0.992224
0.999991 1.00257 0.992172
0.999725 1.00399 0.991075
1.00037 1.00493 0.989138
0.999819 1.00385 0.991367
0.999626 1.00467 0.990548
0.999759 1.00294 0.992154
0.999907 1.00197 0.992714
0.99985 1.00234 0.992636
0.99999 1.00154 0.993171
1.00016 1.0006 0.993769
1.00008 1.00127 0.99329
1.00021 1.00051 0.993782
1.0002 0.999492 0.994785
1.00026 1.00051 0.993714
1.00024 0.99945 0.994753
1.00004 0.997703 0.997285
1.00026 0.999464 0.994705
1.00009 0.997648 0.997018
1.00001 0.996438 0.99832
1.00014 0.997601 0.99674
1.00003 0.99639 0.998784
1.00002 0.996382 0.999276
1.00019 1.00074 0.993631
1.00019 0.999379 0.994921
1.00016 1.00066 0.993775
1.00015 0.997397 0.996953
1.00018 0.999317 0.995
1.00013 1.00061 0.993835
1.00003 0.996227 0.999331
1.00015 0.997371 0.99697
1.00017 0.999293 0.995039
1.00015 0.997402 0.996945
1.00002 0.99625 0.999325
1 0.996321 0.999313
0.994809 0.998736 0.936631
0.999962 0.995238 0.938129
0.995078 1.00341 0.944991
0.995182 0.999318 0.927715
0.99838 0.99687 0.977862
1.00421 0.996448 0.990459
1.00086 0.995308 0.959293
0.999774 0.997492 0.94093
0.994629 0.998152 0.91588
0.998727 0.99769 0.983712
0.999939 0.997114 0.954462
0.997745 0.999313 0.938518
0.99468 0.999865 0.926826
0.995166 1.00087 0.98096
0.99826 1.00003 0.954535
0.995679 0.999871 0.936691
0.994622 0.999684 0.934707
1.00014 1.00235 0.992116
1.0001 1.00208 0.992446
1.00005 1.00151 0.99308
1.00003 1.00196 0.992687
1.00022 1.00205 0.992176
1.00016 1.00193 0.992522
1.00014 1.0018 0.992605
1.00025 1.00151 0.992796
1.00019 1.00154 0.992866
1.00013 1.00145 0.992949
1.00361 0.997923 0.98993
1.0043 0.995632 0.990284
1.00156 1.00071 0.990544
1.00075 1.00385 0.989393
1.00003 1.00449 0.990305
0.999983 1.00306 0.99162
1.00009 1.00252 0.991986
1.00007 1.00257 0.991976
1.00066 1.00044 0.993225
1.0001 1.00274 0.991746
1.00005 1.00339 0.991269
1.00158 0.998908 0.992919
1.0002 1.00374 0.990541
0.99891 0.998824 0.995832
0.999159 0.999737 0.99719
0.999957 1.00254 0.991849
1.0002 1.00244 0.991871
1.00018 1.00297 0.991342
0.994204 1.00161 0.959286
0.994776 0.999786 0.93897
0.999941 0.995729 0.936819
0.999098 1.00343 0.992915
0.998444 1.00463 0.992291
1.00145 0.998559 0.994287
0.994966 0.999407 0.935741
0.997638 0.999555 0.955563
0.994883 0.998968 0.977234
0.996462 0.999189 1.00194
0.995865 0.999893 0.942065
0.995166 1.00337 0.944774
0.994573 0.999855 0.941173
0.998257 1.00219 0.995886
0.994606 1.00164 0.956436
0.994167 1.00349 0.958765
0.996771 1.00262 0.998357
0.995027 1.00018 0.985899
0.996465 1 0.95489
0.994623 0.999613 0.940563
0.995031 0.999971 0.942465
0.997067 1.00238 0.998055
0.993672 1.00244 0.975815
0.994185 1.00273 0.961449
0.994658 0.999683 0.934804
0.994991 1.00152 0.995733
0.996204 0.999106 0.961864
0.994717 1.00001 0.943034
0.999902 0.999703 0.995433
0.999377 0.99936 0.996463
0.998534 0.999384 0.998056
1.00046 1.00142 0.992458
1.00042 1.00111 0.992815
0.999903 0.999295 0.99544
1.00042 1.00131 0.992591
1.00019 1.00014 0.9942
0.9993 0.999193 0.996717
0.99878 0.999273 0.997475
1.00004 1.00103 0.99359
1.0003 1.00136 0.99277
1.00002 1.0017 0.992951
1.00016 1.00136 0.993075
1.00002 1.00131 0.993346
1.00008 1.00163 0.99292
0.999541 1.00233 0.993181
0.999741 1.00254 0.992536
1.00003 1.0039 0.990517
1.00003 1.00246 0.992271
0.999926 1.00395 0.990967
1.0004 1.00485 0.988768
1.00038 1.00498 0.98888
0.999914 1.00423 0.990655
1.00029 1.00484 0.989208
0.999936 1.0027 0.992131
0.9998 1.0039 0.99124
0.999596 1.00469 0.990664
0.999782 1.00295 0.992274
0.999924 1.00194 0.992806
1.00012 1.00082 0.993612
1 1.00155 0.993159
1.00016 1.00062 0.993762
1.00015 0.999579 0.99479
1.00022 1.00051 0.993781
1.00021 0.999479 0.994787
0.999967 0.997795 0.997305
1.00025 0.999435 0.994756
1.00005 0.997703 0.997051
0.999941 0.996533 0.99834
1.00011 0.997627 0.996776
0.999986 0.99645 0.998798
0.999994 0.996423 0.999281
1.00025 1.00083 0.993289
1.0002 0.999507 0.994614
1.0002 1.00074 0.99363
1.00013 0.997477 0.996899
1.00019 0.999389 0.994827
1.00014 1.00066 0.993647
1.00002 0.996264 0.999325
1.00015 0.997396 0.996955
1.00018 0.999316 0.995003
1.00003 0.996227 0.99933
1.00015 0.997371 0.99697
1.00002 0.996262 0.999322
0.994274 1.00156 0.957844
0.994828 0.998647 0.937557
0.999914 0.995226 0.938855
1.0003 1.00144 0.992699
0.994098 1.00317 0.960885
0.995096 1.00342 0.944521
0.995197 0.999508 0.92923
0.998902 0.997931 0.982177
0.999058 0.998631 0.960776
0.998145 0.999364 0.933821
0.994677 0.999867 0.927446
0.995537 0.99994 0.976973
0.996933 0.999875 0.95966
0.997537 0.999883 0.939323
0.994639 0.99976 0.934701
0.995217 0.999868 0.973197
0.995318 1.00051 0.958359
0.994777 0.999924 0.942783
0.994642 0.999487 0.93883
1.00023 1.00233 0.99195
1.00013 1.00237 0.992091
1.0001 1.00206 0.99251
1.00025 1.00192 0.992298
1.00023 1.00204 0.992254
1.00015 1.00191 0.992558
1.00025 1.00152 0.992801
1.0002 1.00152 0.992928
1.00091 0.999889 0.993456
1.0016 0.999048 0.992565
1.00008 1.00256 0.991976
1.00056 1.00358 0.990454
1.00008 1.00344 0.9912
1.00008 1.00283 0.991767
1.00019 1.00248 0.991891
0.998925 0.999294 0.996195
1.00016 1.00286 0.991538
1.00022 1.00236 0.991883
0.999232 0.999071 0.997173
1.00023 1.00222 0.992106
0.997491 0.999532 0.996887
0.997795 1.00057 0.99914
1.00012 1.00185 0.992308
1.00017 1.00211 0.99227
0.993512 1.00259 0.978907
0.994151 1.00209 0.959878
0.994794 1.00019 0.938271
0.998196 1.00204 0.996058
0.996819 1.00274 0.998229
0.994637 1.0013 0.958663
0.995457 1.00005 0.961077
0.994879 0.999256 0.981958
0.995302 0.999967 0.94191
0.994163 1.00361 0.958577
0.994577 0.999663 0.942362
0.997219 1.00234 0.997818
0.993603 1.00251 0.97581
0.994086 1.00282 0.965224
0.995254 1.00281 0.998557
0.994672 0.999732 0.934722
0.995426 0.999122 0.958825
0.995004 0.999962 0.943865
0.996708 1.00245 0.998719
0.993606 1.00176 0.981041
0.994156 1.0032 0.960915
0.994696 0.999823 0.929956
0.995288 0.999928 0.942041
0.995683 0.998695 0.991857
0.996485 1.00012 0.953217
0.999375 0.999482 0.996261
0.998418 0.999975 0.997784
0.996882 0.999266 1.00168
1.00039 1.00134 0.992597
1.00018 1.00007 0.99419
0.999482 0.999085 0.996526
1.00005 1.00107 0.993539
0.998907 0.998914 0.997571
0.998403 1.00254 0.994772
1.00007 1.00129 0.99331
1.00008 1.00156 0.992964
0.999715 1.00237 0.993052
0.999287 1.00449 0.991282
0.999475 1.00268 0.992844
0.999833 1.00384 0.990836
1.00058 1.00498 0.988642
1.0016 1.00472 0.986992
1.00013 1.00392 0.990857
1.00055 1.00486 0.988618
1.00074 1.00462 0.989019
0.999848 1.00467 0.989969
1.00042 1.00483 0.989033
0.999915 1.00335 0.991524
0.999954 1.00422 0.990645
1.0002 1.00476 0.98928
1.00008 1.00128 0.993235
0.999919 1.00267 0.992104
0.999781 1.00396 0.991111
0.999938 1.00191 0.992897
1.00013 1.00084 0.993598
1.00009 0.999732 0.994753
1.00016 1.00064 0.993755
1.00016 0.999573 0.994789
0.999912 0.99794 0.996829
1.00022 0.999465 0.994789
0.999991 0.997796 0.996833
0.999813 0.996655 0.999303
1.00006 0.997683 0.996811
0.999925 0.996539 0.998812
0.999948 0.996488 0.999288
1.00029 1.00083 0.993217
1.00022 0.999655 0.99442
1.00026 1.00083 0.993366
1.00011 0.997605 0.996814
1.0002 0.999515 0.99459
1.00021 1.00074 0.993629
0.999993 0.996351 0.99931
1.00013 0.997474 0.996903
1.00019 0.999398 0.994733
1.00002 0.996254 0.999327
1.00014 0.997396 0.996957
1.00003 0.996225 0.99933
0.993472 1.002 0.976348
0.99427 1.00217 0.95765
0.994848 0.998994 0.937613
1.00028 1.00146 0.992736
1.00027 1.00142 0.992743
1.00025 1.00179 0.992489
0.994144 1.00246 0.96163
0.994144 1.00309 0.960708
0.995093 1.00371 0.944057
0.995053 1.00049 0.979506
0.99749 1.00014 0.953965
0.99514 0.999884 0.942968
0.99465 0.999848 0.933158
0.995656 0.99963 0.97596
0.996485 1.00005 0.957474
0.995167 0.999987 0.943946
0.994599 0.99955 0.940627
0.994891 0.999715 0.972709
0.995807 1.00011 0.959703
0.994691 1.00003 0.943288
0.994548 0.999836 0.939187
1.00029 1.00207 0.992081
1.00023 1.00233 0.991929
1.00012 1.00238 0.992066
1.00026 1.00192 0.992286
1.00023 1.00203 0.992332
1.00027 1.00153 0.992806
0.998954 0.99961 0.996548
0.999094 0.998518 0.997164
1.00019 1.00253 0.99191
1.00049 1.00202 0.991918
1.0001 1.00284 0.991735
1.00028 1.00216 0.992017
1.00013 1.00214 0.992381
0.997516 0.999514 0.99721
1.00005 1.0019 0.992772
0.997637 1.00025 0.999361
1.00014 1.00188 0.992644
0.995853 0.999106 0.998154
0.997576 1.0016 0.998824
0.999803 1.00112 0.994114
0.993567 1.00259 0.985321
0.993381 1.0025 0.980514
0.994101 1.00252 0.960439
0.997486 1.00233 0.997568
0.995997 1.00253 0.996519
0.993553 1.00255 0.975804
0.995376 0.999167 0.964287
0.994728 0.999989 0.941346
0.994004 1.0029 0.968998
0.994684 0.999813 0.933341
0.996447 1.00293 0.998921
0.993549 1.00168 0.982401
0.994205 1.00309 0.960732
0.995133 0.999075 0.987214
0.994689 0.999774 0.927228
0.995349 0.999937 0.94295
0.995574 1.00015 0.959526
0.995422 1.00144 1.00127
0.99347 1.00182 0.976631
0.995022 1.00342 0.945336
0.994632 0.998204 0.92697
0.995677 0.999478 0.936576
0.995769 1.00004 0.959254
0.995822 0.998867 0.982641
0.998271 1.0007 0.997565
0.997065 0.998929 1.00153
0.997003 1.00099 0.99945
1.00004 1.00113 0.993488
0.999056 0.998569 0.997661
0.998251 1.00269 0.995078
0.998857 1.00367 0.993324
0.999896 1.00244 0.992924
0.999799 1.0044 0.990952
1.00061 1.00505 0.988487
0.999632 1.00379 0.991159
1.00065 1.00492 0.988567
1.00209 1.00486 0.986328
1.0031 1.0036 0.985508
1.00114 1.00452 0.987791
1.00159 1.00484 0.986909
1.00069 1.00489 0.988467
1.00054 1.00432 0.989647
1.00055 1.00446 0.989322
0.999886 1.0042 0.990591
0.999932 1.00466 0.990085
1.00045 1.00468 0.989187
1.00003 1.00203 0.99257
0.999962 1.00326 0.991531
0.999986 1.00422 0.990635
1.00002 1.00001 0.994593
1.00009 1.00129 0.993221
0.999903 1.00265 0.992078
1.00014 1.00086 0.993585
1.00009 0.999733 0.99475
0.999821 0.998131 0.996803
1.00016 0.999568 0.994789
0.999916 0.99794 0.996829
0.999746 0.996821 0.999293
0.999998 0.997788 0.996831
0.999843 0.996678 0.998821
0.999887 0.996582 0.999294
1.00032 1.00083 0.993256
1.00024 0.999761 0.994432
1.00029 1.00084 0.99325
1.00007 0.997766 0.996714
1.00022 0.999658 0.994489
1.00026 1.00082 0.993443
0.999953 0.996479 0.999289
1.00011 0.9976 0.996819
1.00021 0.999523 0.994566
0.999998 0.996331 0.999315
1.00013 0.997472 0.996907
1.00002 0.996244 0.999329
0.993602 1.0015 0.981184
0.99356 1.00171 0.976352
0.994269 1.00235 0.957526
1.00022 1.00152 0.992714
1.00009 1.00214 0.992431
1.00026 1.00148 0.992772
1.00026 1.00143 0.992747
1.00023 1.0018 0.992466
1.00018 1.00179 0.992601
1.00024 1.00189 0.992384
0.994151 1.00298 0.959076
0.994035 1.0026 0.965432
0.994189 1.00288 0.960536
0.994568 0.9996 0.942425
0.994849 0.99995 0.973527
0.995248 1.00009 0.957518
0.994738 0.999987 0.944997
0.995509 0.999756 0.972109
0.995366 1.00007 0.955564
0.994835 0.99997 0.945132
0.994574 0.999799 0.940911
0.996019 0.997769 0.976294
0.995142 1.00008 0.954996
0.995259 0.999944 0.940391
0.994675 0.999838 0.931266
1.00009 1.00192 0.992651
1.00028 1.00204 0.992101
1.00023 1.00233 0.991908
1.00027 1.00192 0.992274
0.997644 0.999695 0.997511
0.997642 0.999929 0.999568
1.00031 1.00212 0.991929
1.00011 1.00208 0.992491
0.999931 1.00194 0.993236
1.00012 1.0019 0.992582
0.999652 1.00117 0.994071
0.995777 0.999896 0.996023
0.9971 1.00202 0.999051
0.99949 1.00165 0.993827
0.99562 0.99946 0.995498
0.997999 1.00197 0.998026
0.993432 1.00222 0.979576
0.993413 1.00205 0.986961
0.993269 1.00244 0.982123
0.996319 1.0032 0.999067
0.995437 0.998409 0.992722
0.993493 1.00162 0.98377
0.996704 1.00012 0.953836
0.995003 0.999918 0.944061
0.994254 1.00288 0.960549
0.994681 0.99982 0.927777
0.995596 1.00073 1.00151
0.993556 1.00163 0.976632
0.995094 1.00336 0.944853
0.994886 0.998894 0.986181
0.99461 0.998171 0.921826
0.997654 0.999852 0.938844
0.995377 1.00006 0.955668
0.995725 1.00147 0.998341
0.994321 1.00128 0.95834
0.995189 0.999023 0.930097
0.998109 0.998781 0.938344
0.995442 1.00033 0.959781
0.994894 0.999155 0.976872
0.99738 0.9984 1.0013
0.996885 1.00169 0.9994
0.99922 0.998718 0.998378
0.998086 1.00283 0.995385
0.998296 1.00369 0.993639
1.00131 1.00221 0.990022
1.00032 1.00428 0.990619
1.00085 1.00503 0.988347
1.00236 1.00312 0.986749
1.00073 1.00486 0.988492
1.00212 1.00488 0.986167
1.00362 1.00221 0.985472
1.0044 1.00063 0.985846
1.00268 1.00453 0.985697
1.00314 1.0036 0.985316
1.00094 1.00406 0.988623
1.00114 1.00449 0.988004
1.00158 1.00497 0.986825
1.00043 1.00431 0.989698
1.00046 1.00435 0.989622
1.00036 1.00431 0.989625
1.00006 1.00285 0.991661
0.999912 1.00407 0.990733
1.00003 1.00464 0.990203
0.999957 1.00056 0.994146
1.00006 1.00199 0.992569
1.00001 1.00317 0.991538
0.999737 0.99835 0.996746
1.00001 1.00004 0.994583
1.0001 1.0013 0.993207
1.00009 0.999734 0.994747
0.999827 0.998134 0.996801
0.999648 0.997015 0.999286
0.999919 0.997943 0.996828
0.999734 0.996855 0.999291
0.99981 0.996716 0.999294
1.0002 1.00164 0.992677
1.00034 1.00087 0.993201
1.00025 0.999868 0.994318
1.00032 1.00084 0.993251
1.00003 0.997946 0.996613
1.00024 0.999781 0.994428
1.00028 1.00086 0.993284
0.999902 0.996637 0.999265
1.00007 0.99776 0.99672
1.00023 0.999662 0.994558
0.999959 0.996452 0.999296
1.0001 0.997596 0.996825
1 0.996311 0.99932
0.993622 1.00178 0.976403
0.99352 1.00146 0.982534
0.993644 1.00154 0.976354
1.00024 1.00149 0.99274
1.00007 1.00216 0.992388
1.00004 1.00249 0.992081
1.00008 1.00201 0.992451
1.00005 1.00255 0.992134
1.00026 1.00143 0.992751
1.00022 1.0018 0.992443
1.00016 1.00179 0.992598
1.00024 1.0019 0.992378
1.00007 1.00203 0.992618
0.994768 1.00306 0.945408
0.994156 1.0031 0.958908
0.993928 1.00274 0.969229
0.994592 0.999773 0.941104
0.994693 1.00001 0.941922
0.994861 0.999741 0.970854
0.994997 1.00005 0.959133
0.995631 0.997925 0.972532
0.995812 1.00007 0.959236
0.994848 0.999939 0.943462
0.994874 0.999833 0.929143
0.996174 0.995608 0.976962
0.995378 1.0001 0.959962
0.995855 0.999887 0.94229
0.995073 0.998151 0.926352
0.999447 1.00136 0.994238
1.00005 1.00199 0.992661
1.00029 1.00201 0.99212
0.995631 1.0005 0.99391
0.996953 1.00232 0.999267
1.00012 1.00191 0.99252
0.999546 1.00133 0.994028
0.999481 1.0017 0.993837
0.997861 1.00152 0.997898
0.995323 0.999502 0.995692
0.99813 1.0014 0.99676
0.995891 1.00132 0.994691
0.994245 1.00167 0.959019
0.993305 1.00209 0.981165
0.993203 1.0015 0.9886
0.995546 1.0002 1.00182
0.995286 0.998711 0.980298
0.993639 1.00153 0.976629
0.99666 1.00005 0.9563
0.995122 0.999879 0.942401
0.99511 1.0036 0.944386
0.994603 0.998083 0.916687
0.995825 1.00117 0.998596
0.994312 1.00191 0.958132
0.995148 0.999287 0.928318
0.994972 0.99905 0.978386
0.997718 0.999218 0.939118
0.996277 1.00005 0.956512
0.997263 0.999119 0.99489
0.994853 0.998698 0.937234
0.998172 0.997062 0.940625
0.998286 0.999523 0.954916
0.994872 0.999302 0.97824
0.996871 1.00223 0.99934
0.999035 0.998705 0.998421
1.00241 0.998199 0.993132
0.997782 1.00364 0.993939
1.00075 1.00245 0.990459
1.00313 0.999301 0.988647
1.00108 1.00498 0.988207
1.0024 1.00319 0.98681
1.0042 0.999697 0.986949
1.00214 1.00497 0.986007
1.00365 1.00228 0.98551
1.00492 0.998798 0.986519
1.00498 0.998693 0.986672
1.00367 1.00274 0.985186
1.00432 1.00066 0.985888
1.00212 1.00421 0.986735
1.00251 1.00453 0.985561
1.00316 1.00361 0.985125
1.00096 1.00369 0.989225
1.00089 1.00398 0.988867
1.00114 1.00446 0.988217
1.00039 1.00322 0.990736
1.00036 1.00424 0.989795
1.00038 1.00438 0.989597
0.999958 1.00137 0.993326
1.00011 1.00281 0.991664
0.999935 1.00394 0.990875
0.999634 0.998698 0.997049
0.999954 1.00058 0.99413
1.00009 1.00196 0.992568
0.999564 0.997273 0.998282
0.999736 0.998385 0.996965
1.00001 1.00006 0.994573
0.999834 0.998138 0.996799
0.999636 0.997058 0.999281
0.999721 0.99689 0.999289
1.00016 1.00199 0.992363
1.00031 1.00105 0.993074
1.00019 1.00169 0.992642
1.00022 0.999986 0.994254
1.00032 1.0009 0.993201
0.999973 0.998123 0.996531
1.00024 0.999891 0.994315
1.00033 1.00085 0.993245
0.999841 0.996815 0.99924
1.00002 0.997944 0.996618
1.00023 0.999803 0.994425
0.999908 0.996607 0.999272
1.00007 0.997756 0.996726
0.999965 0.996425 0.999302
0.994605 1.0011 0.959812
0.993561 1.00185 0.976412
0.993445 1.00145 0.98389
1.00003 1.00272 0.991954
1.00024 1.00151 0.992766
1.00008 1.00218 0.992345
1.0001 1.00203 0.992483
1.00008 1.00244 0.992125
1.00004 1.00254 0.99209
1.00004 1.00284 0.991798
0.999953 1.00253 0.992116
1.00016 1.00179 0.992596
1.00023 1.0019 0.992371
1.00004 1.00207 0.992577
0.999764 1.00246 0.993034
0.994963 0.999594 0.928447
0.994969 1.00318 0.94488
0.994148 1.00322 0.958745
0.995067 0.999845 0.930449
0.995286 0.999935 0.943364
0.995152 1.00008 0.955136
0.996056 0.998033 0.97097
0.996381 0.99532 0.978865
0.99481 0.998143 0.921267
0.995478 1.00005 0.956522
0.997369 0.999908 0.938155
0.995644 0.99762 0.979645
0.995876 1.00004 0.961411
0.998138 0.999121 0.937157
0.99922 1.00049 0.995549
0.999607 1.0013 0.994216
1.00001 1.00208 0.992672
0.994932 0.999417 0.995831
0.997853 1.00073 0.997769
0.999487 1.0017 0.993847
0.998758 1.00119 0.996585
0.995727 1.00131 0.994891
0.997797 1.00085 0.99472
0.994788 0.999866 0.934115
0.994159 1.00143 0.962982
0.993204 1.00198 0.982756
0.995843 1.00137 0.998894
0.994883 0.999072 0.979356
0.994311 1.00219 0.95798
0.995301 1.00009 0.956878
0.998163 0.998842 0.934581
0.995202 0.999378 0.929848
0.997282 0.999254 0.994957
0.994871 0.998538 0.938138
0.998911 0.996665 0.937166
0.995037 0.999373 0.974189
0.996945 0.999577 0.95995
0.998653 0.998816 0.995284
0.99994 0.995173 0.936601
0.998386 0.998674 0.960211
0.995256 0.999427 0.973109
0.998781 0.998794 0.998501
1.00184 0.997878 0.993876
1.00377 0.997153 0.990997
1.00019 1.00274 0.990898
1.00308 0.999752 0.988573
1.00465 0.996823 0.988786
1.00242 1.00333 0.986871
1.00408 0.999872 0.986967
1.00496 0.997486 0.987913
1.0037 1.0023 0.985546
1.00496 0.9988 0.986504
1.0051 0.997452 0.987637
1.00512 0.997981 0.987126
1.00471 1.00018 0.985937
1.00497 0.998701 0.986647
1.00306 1.00293 0.985824
1.00367 1.00263 0.985326
1.00425 1.00067 0.98593
1.00162 1.0035 0.988214
1.00193 1.0042 0.986808
1.00234 1.00452 0.985425
1.00089 1.003 0.990063
1.00102 1.00366 0.989199
1.00085 1.00388 0.98911
1.00011 1.0021 0.992347
1.00042 1.0032 0.990744
1.00029 1.00417 0.989892
0.999595 0.999135 0.996172
0.999987 1.00134 0.993308
1.00016 1.00277 0.991666
0.999425 0.997545 0.999246
0.999646 0.99875 0.996521
0.999954 1.0006 0.994113
0.999541 0.997269 0.999265
0.999743 0.9984 0.996714
0.999625 0.9971 0.999277
1.00014 1.0023 0.992161
1.00018 1.00199 0.992355
1.00027 1.00135 0.992834
1.00015 1.00015 0.9942
1.00029 1.00106 0.993079
1.00019 1.00169 0.992607
0.999911 0.998285 0.996487
1.00021 0.999993 0.994254
1.00031 1.0009 0.993202
0.999773 0.996991 0.99922
0.999971 0.998121 0.996535
1.00023 0.999909 0.994312
0.999848 0.996784 0.999248
1.00002 0.99794 0.996624
0.999915 0.996575 0.99928
0.99483 0.999546 0.931529
0.994553 1.00113 0.959628
0.993506 1.0019 0.976418
0.999982 1.0028 0.991908
1.00014 1.00315 0.991462
0.99995 1.00313 0.99166
1.00012 1.00203 0.992516
1.00011 1.00238 0.992169
0.999995 1.00256 0.992047
1 1.00253 0.992087
1.00001 1.00288 0.991762
0.999873 1.00355 0.991467
1.00015 1.00162 0.992757
1.00006 1.00205 0.992535
0.999739 1.00228 0.993
0.99959 0.997027 0.935503
0.994901 0.999651 0.925736
0.995153 1.00329 0.944382
0.994641 0.998135 0.916192
0.995943 0.999618 0.941681
0.996086 1 0.958203
0.996018 0.995186 0.976454
0.995339 0.997727 0.977848
0.997676 0.998934 0.938506
0.996265 1.00002 0.956761
0.995873 0.997808 0.979329
0.9978 0.999763 0.95472
1.00142 0.999681 0.993
0.999415 1.00037 0.995368
0.999715 1.00122 0.994201
0.995358 1.00165 0.995067
0.999161 1.00105 0.996408
0.998162 1.00115 0.994116
1.0011 0.999464 0.989888
0.999976 0.994874 0.938598
0.99481 1.0001 0.936255
0.994079 1.00125 0.966901
0.997333 0.999206 0.995085
0.994857 0.999374 0.974135
0.994885 0.998783 0.938202
0.997075 0.999393 0.954525
0.999908 0.998176 0.941502
0.998569 0.999062 0.993796
0.999959 0.99529 0.938573
1 0.99739 0.954423
0.995332 0.999163 0.975714
0.999415 0.997527 0.994888
1.00042 0.996501 0.957905
0.995898 1.00069 0.978409
1.00123 0.997504 0.994613
1.00363 0.996792 0.990963
1.00502 0.995248 0.990064
1.00302 1.00014 0.988497
1.00455 0.99681 0.988787
1.00486 0.995866 0.989478
1.00395 0.999966 0.986987
1.00489 0.997453 0.987867
1.00511 0.996193 0.988802
1.005 0.998803 0.98649
1.00509 0.997424 0.987658
1.00512 0.996857 0.988183
1.00511 0.99759 0.987606
1.00512 0.997897 0.9872
1.00498 0.998666 0.98681
1.00426 1.00091 0.986046
1.00474 1.00007 0.98592
1.00496 0.99871 0.986622
1.00258 1.00279 0.986908
1.00307 1.003 0.98596
1.00366 1.00249 0.985466
1.00135 1.00285 0.989344
1.00165 1.00349 0.98818
1.00175 1.00422 0.98688
1.00039 1.00231 0.99161
1.00093 1.00298 0.990059
1.00108 1.00364 0.989173
0.99961 0.999717 0.99554
1.00015 1.00202 0.992344
1.00048 1.00316 0.990751
0.999401 0.997823 0.999168
0.999593 0.999211 0.996137
1.00001 1.00131 0.993291
0.999455 0.997581 0.998722
0.999655 0.99877 0.996507
0.999532 0.99735 0.999252
1.00019 1.00268 0.99169
1.0001 1.00237 0.992136
1.00017 1.00182 0.992527
1.0002 1.00199 0.992348
1.00025 1.00137 0.992836
1.00007 1.00043 0.99406
0.999837 0.998457 0.99646
1.00015 1.00015 0.994205
1.00026 1.00109 0.993084
0.999695 0.997157 0.999208
0.999908 0.998282 0.996489
1.00021 1 0.994255
0.99978 0.996966 0.999226
0.999967 0.998122 0.996538
0.999854 0.99675 0.999255
0.999917 0.995134 0.939939
0.994889 0.999994 0.931396
0.994508 1.00116 0.959432
0.999938 1.0029 0.991863
0.999929 1.00327 0.991536
1.00004 1.00312 0.991571
1.00047 1.00331 0.99067
0.999893 1.00374 0.991199
1.00003 1.00255 0.992059
1 1.00289 0.991726
0.999832 1.0034 0.991513
0.999804 1.00386 0.990664
1.00029 1.00238 0.991742
1.00303 1.00044 0.988765
0.999878 1.00183 0.992997
0.999778 1.00207 0.992965
1.00029 0.997438 0.957161
0.998919 0.997085 0.937188
0.994877 0.999566 0.926417
0.998062 0.999362 0.933676
0.99573 1.00036 0.957848
0.995613 0.997877 0.980377
0.99562 0.997876 0.981322
0.997045 0.999548 0.960911
0.997458 0.999899 0.97741
1.00377 0.997573 0.990243
1.00107 0.999488 0.993016
0.999601 1.00028 0.995182
0.998476 1.00133 0.993551
1.00184 1.00046 0.988565
1.00055 0.995502 0.955223
0.999954 0.995234 0.940901
0.994834 1.00023 0.93844
0.998434 0.999367 0.992286
0.994867 0.999233 0.973277
0.999928 0.995072 0.939196
0.999057 0.999254 0.960358
0.999275 0.998544 0.99513
1.0016 0.995491 0.958024
0.995738 1.00001 0.975155
1.00087 1.00102 0.991889
1.00005 0.997484 0.982661
1.00351 0.996439 0.990937
1.00501 0.995137 0.989827
1.00506 0.994998 0.990078
1.00444 0.996842 0.988786
1.00477 0.995897 0.989464
1.00508 0.995023 0.989908
1.00485 0.997431 0.987821
1.00512 0.996128 0.988795
1.00512 0.99589 0.989158
1.00507 0.997385 0.987679
1.00513 0.996873 0.988156
1.00512 0.996997 0.98819
1.00511 0.997497 0.987638
1.00503 0.998126 0.987276
1.00512 0.997816 0.987274
1.005 0.998629 0.986813
1.00467 0.999433 0.986675
1.00364 1.00131 0.986502
1.00424 1.00091 0.986017
1.00477 0.999959 0.985903
1.00204 1.00252 0.988417
1.00253 1.00283 0.987024
1.00307 1.00308 0.986097
1.0007 1.00226 0.991039
1.0014 1.00284 0.989323
1.00169 1.00348 0.988147
0.999713 1.00026 0.994794
1.00042 1.00227 0.991617
1.00096 1.00297 0.990055
0.99941 0.998149 0.99904
0.999612 0.999778 0.99551
1.0002 1.00194 0.992343
0.999423 0.997881 0.999132
0.999588 0.999285 0.996101
0.999465 0.997633 0.999199
1.00058 1.00292 0.990776
1.0002 1.00263 0.991687
1.00019 1.00228 0.991976
1.00006 1.00241 0.99211
1.00016 1.0019 0.992457
1.00002 1.00089 0.993675
1.00023 1.00138 0.992839
1.00008 1.00041 0.994068
0.999749 0.998683 0.996401
0.999609 0.997337 0.999198
0.999832 0.998453 0.996463
1.00015 1.00015 0.994209
0.999704 0.997138 0.999211
0.999905 0.998282 0.996491
0.999787 0.996939 0.999232
1.00154 0.995294 0.959573
0.999945 0.995247 0.938601
0.994918 1.00048 0.930105
0.999904 1.00341 0.991413
0.99995 1.00307 0.991679
0.999912 1.00373 0.991245
1.00042 1.00329 0.990721
1.00079 1.00368 0.989652
0.999985 1.00373 0.99077
0.99979 1.00327 0.991559
1.00008 1.00396 0.99034
1.00024 1.00267 0.991499
1.00103 1.00249 0.989685
1.00319 1.00055 0.989091
1.00416 0.998915 0.987564
1.00266 1.00047 0.989115
0.999579 1.00216 0.993237
0.996708 1.00003 0.976331
1.00016 0.997195 0.956831
0.99866 0.99736 0.941566
0.998837 0.999867 0.954677
0.995419 0.998038 0.982705
0.997897 0.999339 0.981738
1.00179 0.998516 0.991344
1.00365 0.997589 0.990601
1.00102 0.99923 0.993028
1.00308 1.00159 0.987203
0.998681 0.996924 0.978089
1.00117 0.995127 0.961315
0.999942 0.995677 0.937119
0.999211 0.999321 0.995323
0.995501 1.0002 0.977404
1.00111 0.995178 0.958199
1.00086 1.00042 0.992026
0.999263 0.99759 0.981422
1.00355 1.00115 0.98924
1.00443 0.995855 0.989859
1.00496 0.995034 0.989583
1.00504 0.994977 0.990026
1.00506 0.995013 0.990158
1.00469 0.995937 0.989455
1.00506 0.995144 0.989869
1.0051 0.995313 0.98975
1.00512 0.996069 0.988786
1.00512 0.995924 0.989125
1.00513 0.996581 0.988638
1.00513 0.996897 0.988129
1.00512 0.997009 0.988125
1.0051 0.997815 0.987395
1.00511 0.997402 0.98767
1.00502 0.998045 0.987334
1.00485 0.998845 0.986957
1.00501 0.998593 0.986816
1.00469 0.999417 0.986657
1.00426 1.00006 0.986913
1.00292 1.00144 0.987623
1.00358 1.00141 0.986587
1.00421 1.00092 0.985987
1.00121 1.00206 0.990331
1.00206 1.0025 0.988414
1.00249 1.00288 0.987139
0.999811 1.00076 0.994116
1.00074 1.00228 0.991031
1.00145 1.00283 0.989301
0.999458 0.998524 0.998852
0.999741 1.00027 0.994783
1.00046 1.00223 0.991623
0.999445 0.998221 0.998981
0.999618 0.999841 0.99548
0.99945 0.997943 0.999094
1.0009 1.00332 0.989796
1.0006 1.00289 0.990817
1.00047 1.00255 0.991287
1.0002 1.0026 0.991684
1.00021 1.00233 0.991896
1.00008 1.00141 0.993056
1.00014 1.00197 0.992387
1.00002 1.00088 0.993685
0.999659 0.99901 0.996235
1.00009 1.00039 0.994076
0.999747 0.998663 0.996409
0.999526 0.997547 0.99918
0.99962 0.997313 0.999202
0.999828 0.998448 0.996465
0.999712 0.997119 0.999215
0.997793 0.998481 0.977802
1.00136 0.995756 0.954293
0.999918 0.995202 0.941484
1.0018 1.00306 0.988463
0.999939 1.00372 0.99129
1.00036 1.00327 0.990772
1.00008 1.0038 0.990694
1.00073 1.00378 0.9896
1.00085 1.00261 0.990268
1.00033 1.00406 0.990016
1.00026 1.00291 0.991256
1.00121 1.0024 0.989917
1.00318 1.0006 0.988705
1.0043 0.999382 0.987123
1.00459 0.997473 0.98842
1.00427 0.998997 0.987181
1.00238 1.00043 0.989465
1.0007 0.99888 0.993501
0.996979 0.999954 0.97491
0.999591 0.997475 0.95691
0.998019 0.998476 0.980123
1.00179 0.997456 0.993296
1.00312 0.997621 0.990952
1.00272 0.9964 0.989029
0.997972 0.996076 0.980677
1.00065 0.99528 0.955093
1.00076 0.999962 0.992159
0.999331 0.997571 0.98008
1.00348 0.999199 0.989436
1.00438 0.995887 0.989804
1.00503 0.996142 0.989965
1.00494 0.996147 0.990428
1.00505 0.994992 0.989974
1.00506 0.995009 0.990197
1.0051 0.995206 0.989955
1.00505 0.995249 0.989829
1.0051 0.995381 0.989746
1.00514 0.996209 0.988918
1.00512 0.995961 0.989092
1.00512 0.996585 0.988588
1.00515 0.997686 0.987441
1.00511 0.997019 0.98806
1.00508 0.997825 0.987412
1.00498 0.998576 0.986899
1.00501 0.99797 0.987392
1.00485 0.998749 0.986986
1.00452 0.99942 0.986924
1.0047 0.999393 0.986639
1.00424 1.00003 0.986829
1.00362 1.00051 0.987558
1.00192 1.00141 0.989695
1.00288 1.00151 0.987716
1.00351 1.00151 0.986673
0.999989 1.00104 0.993503
1.00123 1.00207 0.990322
1.00208 1.00247 0.988411
0.999448 0.998969 0.99865
0.999907 1.00065 0.994106
1.00077 1.00229 0.991024
0.999479 0.998606 0.998782
0.999771 1.00027 0.994771
0.999484 0.998285 0.998915
1.00155 1.00319 0.988536
1.00088 1.0033 0.98981
1.00085 1.00277 0.990487
1.00063 1.00287 0.990857
1.00047 1.00253 0.991304
1.0002 1.00187 0.992421
1.00023 1.00237 0.991816
1.00004 1.00148 0.993056
0.999589 0.999472 0.995879
1.00002 1.00089 0.993694
0.999662 0.998964 0.996255
0.999467 0.997774 0.999137
0.999746 0.998646 0.996417
0.999534 0.997512 0.999187
0.999629 0.997292 0.999205
1.00154 0.998436 0.991367
0.997841 0.998144 0.974343
1.00055 0.995855 0.960002
1.002 1.00197 0.988777
1.0038 1.00087 0.986826
1.00156 1.00304 0.988628
1.00017 1.00387 0.990617
1.00068 1.00389 0.989542
1.00117 1.0025 0.99003
1.00404 0.999688 0.987668
1.00133 1.00235 0.990149
1.00292 1.0007 0.98832
1.00416 0.999473 0.98733
1.00506 0.998062 0.987184
1.00499 0.996028 0.989173
1.00468 0.997567 0.988231
1.00433 0.999161 0.9868
1.00106 0.99877 0.993635
0.996636 1.00052 0.972901
1.00195 0.996455 0.99525
1.00508 0.99569 0.990456
1.00253 0.996805 0.989184
0.998653 0.995948 0.977237
1.00351 0.997485 0.989641
1.00433 0.996218 0.989752
1.005 0.995577 0.990142
1.00497 0.995727 0.990226
1.00503 0.995228 0.989983
1.00515 0.99546 0.989374
1.00506 0.994969 0.990234
1.0051 0.995198 0.989939
1.00515 0.996137 0.988964
1.00511 0.995461 0.989742
1.00515 0.996319 0.988815
1.00516 0.997397 0.987735
1.00512 0.996583 0.988537
1.00514 0.997698 0.987453
1.00508 0.998536 0.986755
1.00507 0.997835 0.98743
1.00498 0.998578 0.986904
1.00469 0.999211 0.986831
1.00485 0.998653 0.987016
1.00451 0.999387 0.986917
1.00392 0.99997 0.987502
1.00423 1.00001 0.986745
1.00356 1.0005 0.987515
1.00252 1.00065 0.989366
1.00026 1.00092 0.993059
1.00192 1.00143 0.989692
1.00285 1.00158 0.987809
0.999378 0.999496 0.998469
1.00008 1.00096 0.993486
1.00124 1.0021 0.990312
0.999457 0.999083 0.998587
0.99998 1.00059 0.994094
0.999504 0.998692 0.998712
1.00272 1.00221 0.987059
1.00155 1.00317 0.988403
1.00146 1.00274 0.989344
1.00085 1.00328 0.989825
1.00079 1.00277 0.99051
1.00039 1.00221 0.991793
1.00047 1.00251 0.991321
1.00016 1.00193 0.992418
0.999624 0.999972 0.995318
1.00002 1.00154 0.993057
0.999603 0.9994 0.995906
0.999449 0.998046 0.999036
0.999665 0.998919 0.996276
0.999465 0.997737 0.999154
0.999542 0.997482 0.999193
1.00509 0.995603 0.989634
1.00167 0.998096 0.990354
0.997648 0.997287 0.975055
1.00432 0.99968 0.987137
1.0017 1.00167 0.989628
1.00485 0.998794 0.986752
1.00388 1.00085 0.986776
1.00132 1.003 0.988799
1.00509 0.998143 0.986992
1.00148 1.00237 0.989798
1.0042 0.999695 0.987273
1.00512 0.997139 0.987872
1.00414 0.999519 0.987537
1.00502 0.997983 0.987244
1.00494 0.996104 0.989273
1.00461 0.997644 0.988032
1.00127 0.998631 0.993804
1.00514 0.995851 0.989017
1.00508 0.995916 0.990456
1.00235 0.996868 0.989319
1.00495 0.994919 0.990325
1.00497 0.995341 0.990026
1.00502 0.995116 0.990145
1.00515 0.995506 0.989409
1.00518 0.996134 0.988873
1.0051 0.995178 0.989922
1.00515 0.996149 0.98897
1.00514 0.9972 0.987972
1.00515 0.99643 0.988711
1.00516 0.99748 0.987641
1.00514 0.998513 0.986688
1.00513 0.99771 0.987466
1.00508 0.998539 0.986764
1.00483 0.999156 0.986628
1.00498 0.99858 0.986909
1.00469 0.999211 0.986831
1.00412 0.999724 0.987378
1.0045 0.999351 0.98691
1.0039 0.999978 0.98751
1.00285 1.00021 0.989202
1.00351 1.00049 0.987473
1.00251 1.00067 0.989361
1.0005 1.00063 0.993983
0.99946 0.999895 0.996111
1.00034 1.00086 0.993589
1.00191 1.00145 0.989689
0.999404 0.999623 0.998402
1.00019 1.00083 0.993467
0.999468 0.999179 0.998517
1.00508 0.998576 0.986839
1.00397 1.00019 0.986818
1.0029 1.00216 0.98694
1.00222 1.00232 0.988278
1.00154 1.00316 0.988271
1.0014 1.00276 0.989373
1.00078 1.00225 0.991062
1.00073 1.00278 0.990533
1.00034 1.00222 0.991805
0.999762 1.00045 0.994625
1.00011 1.00201 0.992416
0.999615 0.999934 0.995334
0.999439 0.998411 0.998864
0.999616 0.999323 0.99593
0.999431 0.997993 0.999074
0.999464 0.997698 0.999169
1.00515 0.996388 0.988529
1.00512 0.995716 0.990048
1.00191 0.997876 0.98934
1.00514 0.99824 0.986835
1.00413 0.999714 0.987416
1.00141 1.00138 0.990465
1.00487 0.99893 0.98674
1.00395 1.00085 0.986727
1.0051 0.997335 0.988005
1.00508 0.998148 0.986942
1.00436 0.999727 0.986876
1.00511 0.997128 0.987867
1.00501 0.997923 0.987303
1.00493 0.996157 0.989389
1.00516 0.996388 0.988806
1.00516 0.995824 0.989072
1.00509 0.996131 0.990462
1.00504 0.995004 0.990305
1.00515 0.995554 0.989443
1.00518 0.995995 0.98902
1.00515 0.997235 0.987978
1.00515 0.996172 0.988977
1.00515 0.99722 0.987943
1.00516 0.998404 0.986782
1.00516 0.997561 0.987547
1.00513 0.998513 0.986701
1.00493 0.999205 0.986393
1.00507 0.998542 0.986773
1.00482 0.999156 0.986632
1.00427 0.999643 0.987171
1.00468 0.999211 0.986831
1.00412 0.999726 0.987379
1.00303 1.00003 0.98904
1.00389 0.999985 0.987517
1.00285 1.00021 0.989196
1.0007 1.00027 0.994017
1.00249 1.00069 0.989356
1.00063 1.00057 0.993934
0.999502 1.00014 0.995983
0.999378 1.00006 0.997163
1.00049 1.00079 0.99404
0.999427 0.999739 0.998333
1.00512 0.998523 0.986701
1.00466 0.999155 0.98702
1.00505 0.998472 0.986869
1.00315 1.0012 0.987615
1.00405 1.00026 0.986769
1.00306 1.0021 0.986821
1.00222 1.00233 0.988277
1.00137 1.00197 0.990203
1.00134 1.00278 0.989402
1.00073 1.00223 0.991078
0.999939 1.00084 0.99394
1.00029 1.00223 0.991816
0.999699 1.00049 0.994636
0.999381 0.998946 0.99865
0.999606 0.999898 0.995349
0.999422 0.998336 0.998927
0.999421 0.997945 0.999109
1.00512 0.996813 0.988368
1.00514 0.99638 0.988529
1.00513 0.995813 0.990439
1.00514 0.997829 0.987367
1.00513 0.998269 0.986865
1.00394 0.999741 0.987699
1.00489 0.999062 0.986728
1.0051 0.997332 0.987895
1.00508 0.998154 0.98689
1.0051 0.997127 0.987863
1.00514 0.997086 0.988147
1.00516 0.996434 0.988725
1.00517 0.995797 0.989127
1.00512 0.997568 0.987632
1.00517 0.995857 0.989166
1.00515 0.997244 0.987961
1.00515 0.998195 0.987107
1.00515 0.99724 0.987913
1.00515 0.9984 0.986792
1.00504 0.999146 0.986244
1.00512 0.998515 0.986714
1.00492 0.999206 0.986405
1.00441 0.999692 0.986867
1.00482 0.999156 0.986635
1.00428 0.999642 0.98717
1.00316 0.999973 0.988856
1.00411 0.999728 0.98738
1.00304 1.00002 0.989036
1.00085 1.00004 0.994024
1.00285 1.0002 0.989189
1.0008 1.00023 0.993969
0.999557 1.00007 0.996023
1.00076 1.00049 0.993892
0.99934 1.00031 0.996077
0.999168 1.00023 0.998397
1.00513 0.998456 0.986707
1.00487 0.998942 0.986802
1.00514 0.998489 0.986721
1.00391 1.00006 0.987661
1.00465 0.999077 0.986986
1.00501 0.998374 0.986898
1.00215 1.00123 0.989439
1.00318 1.00121 0.987586
1.00415 1.00034 0.986722
1.00221 1.00234 0.988276
1.00136 1.00193 0.990218
1.00015 1.00104 0.993345
1.0007 1.00221 0.991095
0.999836 1.00094 0.993958
0.999287 0.999598 0.998454
0.999639 1.00055 0.994646
0.999381 0.998828 0.99873
0.999411 0.998256 0.998984
1.00513 0.997427 0.98772
1.00512 0.996745 0.988393
1.00515 0.996371 0.988529
1.00513 0.997805 0.98739
1.00513 0.9983 0.986895
1.00511 0.99733 0.987784
1.00512 0.997602 0.98769
1.00513 0.997145 0.988102
1.00515 0.996479 0.988645
1.00512 0.997546 0.987705
1.00512 0.998184 0.987093
1.00515 0.997254 0.987944
1.00514 0.998263 0.986983
1.0051 0.998923 0.986382
1.00514 0.998394 0.986801
1.00503 0.999147 0.98626
1.0046 0.999686 0.986527
1.00491 0.999203 0.986418
1.00441 0.999688 0.986869
1.00329 0.999977 0.988606
1.00428 0.999641 0.987169
1.00317 0.999958 0.988854
1.00095 0.999979 0.993917
1.00305 0.999997 0.989031
1.00093 1.00002 0.993961
0.999643 0.999973 0.996008
1.0009 1.00018 0.993929
0.999399 1.00017 0.996126
0.999177 1.00053 0.996157
1.00515 0.9981 0.987127
1.00499 0.998929 0.986489
1.00514 0.998378 0.986777
1.00426 0.999446 0.987492
1.00486 0.998958 0.986832
1.00515 0.998453 0.986742
1.00281 1.00035 0.989075
1.00393 0.999966 0.987521
1.00464 0.998999 0.986951
1.00043 1.00088 0.992922
1.00216 1.00121 0.989445
1.00322 1.00122 0.987556
1.00134 1.00192 0.990234
1.00004 1.00114 0.99337
0.99927 1.00018 0.998293
0.999733 1.00105 0.993974
0.999288 0.999455 0.998526
0.999382 0.998702 0.9988
1.00512 0.997696 0.987518
1.00513 0.997408 0.987749
1.00512 0.996678 0.988419
1.00512 0.997782 0.987414
1.00512 0.998202 0.987075
1.00512 0.997604 0.987704
1.00513 0.997202 0.988057
1.00513 0.997529 0.987778
1.00512 0.998141 0.987134
1.00509 0.99885 0.986558
1.00514 0.99833 0.986859
1.00509 0.999006 0.986325
1.00475 0.999497 0.986358
1.00501 0.999153 0.986275
1.00458 0.999688 0.986537
1.00348 0.999982 0.988256
1.00441 0.999689 0.986871
1.0033 0.999967 0.988603
1.00105 1.00002 0.992595
1.00319 0.999941 0.988851
1.00101 0.999946 0.993303
0.99965 0.999977 0.998183
1.00101 0.999997 0.993902
0.999504 0.999998 0.996118
0.999253 1.00028 0.996212
1.00514 0.998074 0.9872
1.00506 0.998802 0.98654
1.00515 0.998149 0.987094
1.00449 0.999294 0.986893
1.00499 0.99893 0.986566
1.00516 0.998299 0.986847
1.00313 0.999803 0.988745
1.00426 0.999475 0.987483
1.00486 0.998975 0.986862
1.00073 1.00039 0.992796
1.00282 1.0003 0.988968
1.00394 0.999871 0.987382
0.99935 1.00047 0.998201
1.00037 1.00093 0.992942
1.00217 1.0012 0.989452
0.999941 1.00121 0.993394
0.999227 1.00004 0.998351
0.999285 0.999293 0.998599
1.00513 0.998155 0.987111
1.00512 0.997693 0.987525
1.00512 0.99739 0.987778
1.0051 0.998798 0.986556
1.00512 0.998161 0.987117
1.00512 0.997604 0.987719
1.00512 0.998093 0.987174
1.00509 0.998842 0.986558
1.0048 0.999396 0.986613
1.00509 0.99909 0.986268
1.00474 0.999565 0.986464
1.00367 0.999872 0.98774
1.00458 0.999684 0.986547
1.00348 0.999979 0.988256
1.00117 1.00007 0.992314
1.00331 0.999959 0.9886
1.00106 1.00001 0.992585
0.999685 0.999977 0.998142
1.00103 0.999932 0.992748
0.999596 0.999946 0.997141
0.999368 1.00002 0.996224
1.00514 0.998268 0.987003
1.00507 0.998763 0.986545
1.00514 0.99805 0.987197
1.00461 0.999305 0.986836
1.00506 0.99883 0.986482
1.00514 0.998197 0.98706
1.00335 0.999662 0.988486
1.0045 0.999364 0.98704
1.00499 0.998931 0.986643
1.00093 0.999989 0.992805
1.00314 0.99981 0.988725
1.00426 0.999503 0.987474
0.999477 1.00038 0.998185
1.00071 1.00039 0.992806
1.00283 1.00025 0.988861
0.999303 1.00036 0.998224
1.0003 1.00096 0.99297
0.99919 0.999906 0.998414
1.0051 0.998673 0.986695
1.00513 0.998168 0.987073
1.00513 0.997688 0.987531
1.00477 0.999288 0.986748
1.0051 0.998759 0.986613
1.00511 0.998128 0.987159
1.00509 0.998833 0.986559
1.0048 0.999401 0.986609
1.00375 0.999775 0.987678
1.00473 0.999636 0.98657
1.00366 0.999908 0.987853
1.00132 1.00007 0.992043
1.00348 0.999972 0.988256
1.00118 1.00007 0.992302
0.999758 0.99999 0.998062
1.00106 1.00001 0.992575
0.99971 0.999975 0.998115
0.999653 0.999875 0.995979
1.00507 0.998757 0.986685
1.00515 0.998189 0.987022
1.00462 0.999286 0.986852
1.00506 0.998772 0.986546
1.00514 0.998025 0.987195
1.00348 0.999682 0.988535
1.00461 0.999301 0.986832
1.00506 0.998857 0.986424
1.00108 0.999846 0.992682
1.00335 0.999709 0.988582
1.00451 0.999438 0.987187
0.999625 1.00014 0.99817
1.00093 0.999979 0.992812
1.00315 0.999813 0.988706
0.999446 1.00035 0.998181
1.0007 1.0004 0.992813
0.999229 1.0003 0.998264
1.00472 0.999235 0.986893
1.0051 0.998694 0.986672
1.00513 0.998183 0.987034
1.00372 0.999718 0.987796
1.00477 0.999303 0.986747
1.0051 0.998716 0.98667
1.0048 0.999408 0.986605
1.00376 0.999772 0.987669
1.0014 1.00004 0.991929
1.00365 0.999939 0.987966
1.00132 1.00006 0.992036
0.999863 1 0.99797
1.00119 1.00007 0.99229
0.999796 0.999993 0.998029
0.999737 0.999973 0.998083
1.00463 0.999277 0.986871
1.00506 0.998676 0.986715
1.00515 0.99811 0.987042
1.00352 0.9997 0.988447
1.00462 0.999287 0.986843
1.00505 0.998781 0.986547
1.00119 0.999876 0.992464
1.00348 0.999692 0.98853
1.00462 0.999298 0.986829
0.999749 0.999986 0.998106
1.00108 0.999848 0.99269
1.00336 0.999749 0.988677
0.999584 1.00017 0.998176
1.00093 0.99998 0.992818
0.999412 1.00033 0.99818
1.00366 0.999781 0.988109
1.00474 0.999205 0.986777
1.0051 0.998712 0.986649
1.00139 0.999992 0.991991
1.00373 0.999714 0.98778
1.00478 0.999317 0.986745
1.00376 0.999769 0.987661
1.00139 1.00003 0.991932
0.999936 1.00001 0.997898
1.00132 1.00006 0.992029
0.99989 1.00001 0.997936
0.999827 0.999995 0.997995
1.00357 0.999754 0.9883
1.00465 0.999221 0.98684
1.00505 0.998596 0.986744
1.0013 0.999976 0.993413
1.00352 0.999702 0.988439
1.00463 0.999289 0.986834
0.999816 0.999947 0.998029
1.00118 0.999897 0.992469
1.00348 0.9997 0.988523
0.999706 1.00002 0.998133
1.00107 0.99986 0.9927
0.999557 1.00018 0.998176
1.00138 0.999991 0.992026
1.00366 0.999743 0.988015
1.00475 0.999172 0.986661
0.999943 1 0.997898
1.00138 0.999997 0.991992
1.00374 0.999712 0.987765
1.00139 1.00002 0.991932
0.999946 1.00001 0.997893
0.999926 1.00001 0.997913
1.00139 1 0.993253
1.00358 0.999748 0.988301
1.00466 0.999163 0.986809
0.999614 0.999984 0.99821
1.00123 0.999986 0.992304
1.00353 0.999703 0.988432
0.999792 0.999968 0.99806
1.00118 0.999923 0.992474
0.999672 1.00004 0.998157
0.999913 1 0.995509
1.00139 0.999989 0.992635
1.00366 0.999707 0.98792
0.999938 1 0.997899
1.00137 1 0.991996
0.999954 1.00001 0.997883
0.999632 1.00002 0.995816
1.00133 0.999999 0.992735
1.00358 0.999745 0.988303
0.999719 0.999993 0.996925
1.00124 0.99999 0.992302
0.999764 0.999986 0.998088
0.999913 0.999998 0.997916
1.00133 0.999992 0.992096
0.999925 1 0.997906
0.999757 0.999999 0.996874
1.00128 1 0.992195
0.999817 0.99998 0.998021
0.99989 0.999994 0.99794
0.999849 0.999989 0.997976

TENSORS stress float
0.00135196 -4.45502e-05 0.000112024
-4.45502e-05 0.000406231 -1.29441e-05
0.000112024 -1.29441e-05 0.000385385
0.00397506 -9.261e-05 0.000104836
-9.261e-05 0.00186423 6.36667e-06
0.000104836 6.36667e-06 0.00185497
0.00133856 2.91673e-05 5.97471e-05
2.91673e-05 0.000415836 -3.78825e-06
5.97471e-05 -3.78825e-06 0.000383756
0.00168761 -3.29126e-05 0.000120006
-3.29126e-05 0.000564737 -8.98387e-06
0.000120006 -8.98387e-06 0.000545149
0.00152111 -4.35884e-05 0.000115035
-4.35884e-05 0.000490773 -1.23438e-05
0.000115035 -1.23438e-05 0.000469468
0.00120026 -2.6606e-05 0.000102353
-2.6606e-05 0.000321255 -1.14173e-05
0.000102353 -1.14173e-05 0.000303883
0.001261 -6.9447e-06 9.54258e-06
-6.9447e-06 0.000304682 -7.26801e-06
9.54258e-06 -7.26801e-06 0.00023757
0.00385069 -0.000117932 5.90624e-06
-0.000117932 0.00179663 -6.78205e-07
5.90624e-06 -6.78205e-07 0.00178581
0.00477175 -0.000109238 2.28332e-05
-0.000109238 0.00229301 1.87304e-06
2.28332e-05 1.87304e-06 0.00227499
0.00400043 -0.000240286 -3.39611e-06
-0.000240286 0.00191992 3.82975e-06
-3.39611e-06 3.82975e-06 0.00188146
0.00132677 -1.16046e-05 8.84611e-05
-1.16046e-05 0.000380419 6.25272e-06
8.84611e-05 6.25272e-06 0.000369707
0.00075458 7.64546e-05 1.13292e-05
7.64546e-05 2.8067e-05 8.13834e-06
1.13292e-05 8.13834e-06 -2.87427e-05
0.00166993 -1.6263e-05 0.000136715
-1.6263e-05 0.000543806 1.54877e-06
0.000136715 1.54877e-06 0.000524254
0.00125324 8.64186e-06 1.72989e-05
8.64186e-06 0.000331808 1.82009e-06
1.72989e-05 1.82009e-06 0.000302564
0.00138756 7.58528e-05 -4.18649e-06
7.58528e-05 0.000450412 4.30538e-06
-4.18649e-06 4.30538e-06 0.000413108
0.0014757 -2.04063e-05 4.81173e-05
-2.04063e-05 0.000453569 -2.87412e-06
4.81173e-05 -2.87412e-06 0.000430627
0.00122977 3.18608e-05 5.10523e-05
3.18608e-05 0.000353435 -3.75178e-06
5.10523e-05 -3.75178e-06 0.000325302
0.00141382 7.74143e-06 5.52275e-05
7.74143e-06 0.000441164 -4.39224e-06
5.52275e-05 -4.39224e-06 0.00041395
0.00136446 -4.72442e-05 -2.306e-05
-4.72442e-05 0.000348274 9.51459e-07
-2.306e-05 9.51459e-07 0.000289653
0.00506852 -7.48241e-05 0.000144241
-7.48241e-05 0.00243539 -2.53536e-06
0.000144241 -2.53536e-06 0.00243075
0.00166681 -2.05972e-05 0.000122719
-2.05972e-05 0.000550153 -7.00297e-06
0.000122719 -7.00297e-06 0.000530318
0.00164755 -4.01815e-05 0.000117854
-4.01815e-05 0.000548901 -1.08248e-05
0.000117854 -1.08248e-05 0.000528672
0.00145371 -5.25667e-05 2.78882e-05
-5.25667e-05 0.000350331 -4.19718e-06
2.78882e-05 -4.19718e-06 0.000295551
0.0013802 -2.85431e-05 1.74841e-05
-2.85431e-05 0.000338872 -6.09051e-06
1.74841e-05 -6.09051e-06 0.000278347
0.00114514 1.9697e-05 8.1529e-05
1.9697e-05 0.000286435 -9.14225e-06
8.1529e-05 -9.14225e-06 0.000269938
0.00109226 -7.93471e-06 9.747e-06
-7.93471e-06 0.000231915 -6.50099e-06
9.747e-06 -6.50099e-06 0.00016909
0.00179347 -0.000146488 7.70057e-06
-0.000146488 0.00047114 -3.6007e-06
7.70057e-06 -3.6007e-06 0.000368844
0.00370636 -0.000138817 -7.99509e-05
-0.000138817 0.00171853 -3.71525e-06
-7.99509e-05 -3.71525e-06 0.00170566
0.00305247 -2.89044e-05 -6.75758e-05
-2.89044e-05 0.00134151 -2.23643e-06
-6.75758e-05 -2.23643e-06 0.00131987
0.00264647 -0.000105788 -4.31236e-05
-0.000105788 0.00114627 -1.69122e-06
-4.31236e-05 -1.69122e-06 0.00111862
0.00348311 -0.000118812 4.23021e-06
-0.000118812 0.0015845 -3.0039e-07
4.23021e-06 -3.0039e-07 0.00157749
0.000656533 6.55942e-05 -1.15732e-07
6.55942e-05 -2.05962e-05 -2.79096e-07
-1.15732e-07 -2.79096e-07 -7.68795e-05
0.00156299 4.41725e-05 0.000122595
4.41725e-05 0.000498059 8.3012e-06
0.000122595 8.3012e-06 0.000477537
0.00177901 6.69886e-05 0.000119648
6.69886e-05 0.000635353 1.07681e-05
0.000119648 1.07681e-05 0.000615176
0.00245277 0.00012476 7.41536e-05
0.00012476 0.000911551 8.71273e-06
7.41536e-05 8.71273e-06 0.000861149
0.00290637 -0.000131997 1.50873e-05
-0.000131997 0.00126419 1.44843e-06
1.50873e-05 1.44843e-06 0.00125635
0.00228513 9.74285e-05 6.20328e-05
9.74285e-05 0.000861829 8.39467e-06
6.20328e-05 8.39467e-06 0.000811854
0.00067331 3.0216e-05 1.04033e-05
3.0216e-05 -9.07872e-06 9.8605e-06
1.04033e-05 9.8605e-06 -5.82435e-05
0.000947439 0.000107841 4.80307e-06
0.000107841 8.74272e-05 2.16544e-06
4.80307e-06 2.16544e-06 -1.42097e-05
0.002554 -8.6193e-05 5.01584e-05
-8.6193e-05 0.00105515 2.6462e-06
5.01584e-05 2.6462e-06 0.00106061
0.00514664 3.71009e-05 7.0263e-07
3.71009e-05 0.00247253 -9.86425e-07
7.0263e-07 -9.86425e-07 0.00246994
0.00315338 2.6401e-05 -5.41222e-05
2.6401e-05 0.00137968 -1.15409e-06
-5.41222e-05 -1.15409e-06 0.00136274
0.0051872 7.31145e-05 0.000148095
7.31145e-05 0.00249658 1.08604e-06
0.000148095 1.08604e-06 0.00249216
0.00134698 -2.26913e-05 1.17048e-05
-2.26913e-05 0.000384182 1.19951e-06
1.17048e-05 1.19951e-06 0.000353225
0.000754712 -5.09e-07 1.5656e-05
-5.09e-07 -6.72001e-05 2.17825e-06
1.5656e-05 2.17825e-06 -0.000129383
0.00481281 8.0758e-05 5.34034e-05
8.0758e-05 0.00229905 3.21415e-06
5.34034e-05 3.21415e-06 0.00228667
0.00246375 2.57686e-05 7.56462e-05
2.57686e-05 0.000886629 4.58984e-06
7.56462e-05 4.58984e-06 0.000842468
0.0012284 -3.80416e-05 -2.64736e-05
-3.80416e-05 0.000326046 2.90106e-06
-2.64736e-05 2.90106e-06 0.000298066
0.00134475 7.96485e-06 -1.72905e-05
7.96485e-06 0.000406033 3.42387e-06
-1.72905e-05 3.42387e-06 0.000377205
0.00130311 0.0001091 5.1464e-07
0.0001091 0.000414407 4.794e-06
5.1464e-07 4.794e-06 0.000372433
0.00141442 -7.26133e-05 -6.1201e-05
-7.26133e-05 0.000366794 8.44962e-06
-6.1201e-05 8.44962e-06 0.000313858
0.00328293 3.7333e-05 -5.76006e-05
3.7333e-05 0.00145767 -9.99822e-07
-5.76006e-05 -9.99822e-07 0.00143292
0.00147183 -2.77302e-05 4.93943e-05
-2.77302e-05 0.000450943 -1.803e-06
4.93943e-05 -1.803e-06 0.000426399
0.00113616 4.70879e-05 3.9636e-05
4.70879e-05 0.000291968 -2.90301e-06
3.9636e-05 -2.90301e-06 0.000269294
0.00146751 -1.22505e-05 5.05473e-05
-1.22505e-05 0.000455354 -3.94536e-06
5.05473e-05 -3.94536e-06 0.000431657
0.00149291 -5.5226e-05 -1.79125e-05
-5.5226e-05 0.000369002 6.32313e-07
-1.79125e-05 6.32313e-07 0.000316705
0.0012356 -2.78699e-05 -2.25143e-05
-2.78699e-05 0.000302856 3.64251e-07
-2.25143e-05 3.64251e-07 0.000244719
0.00145047 -6.14743e-05 -1.97991e-05
-6.14743e-05 0.000369724 1.05464e-06
-1.97991e-05 1.05464e-06 0.000314475
0.00187897 -0.00014972 -3.79866e-06
-0.00014972 0.000514935 1.07701e-06
-3.79866e-06 1.07701e-06 0.000411651
0.00511565 5.42884e-05 0.0001379
5.42884e-05 0.00245617 1.02319e-08
0.0001379 1.02319e-08 0.00245385
0.00167189 -6.68316e-06 0.00012751
-6.68316e-06 0.000548754 -4.77623e-06
0.00012751 -4.77623e-06 0.0005283
0.00232994 6.78287e-05 1.46571e-05
6.78287e-05 0.000823706 -1.31172e-06
1.46571e-05 -1.31172e-06 0.000767038
0.00143996 -5.6554e-05 2.79934e-05
-5.6554e-05 0.000340495 -3.74993e-06
2.79934e-05 -3.74993e-06 0.000284316
0.00144916 -4.64366e-05 2.43715e-05
-4.64366e-05 0.000355163 -5.02592e-06
2.43715e-05 -5.02592e-06 0.000299106
0.00194874 -9.83762e-05 8.76551e-06
-9.83762e-05 0.000470332 -2.04395e-06
8.76551e-06 -2.04395e-06 0.000376779
0.00147362 -0.000122257 1.03963e-05
-0.000122257 0.000248633 -3.909e-06
1.03963e-05 -3.909e-06 0.000147044
0.00115855 4.60764e-05 6.24504e-05
4.60764e-05 0.00028042 -7.64426e-06
6.24504e-05 -7.64426e-06 0.000267515
0.000891904 1.93337e-05 8.06141e-06
1.93337e-05 0.000139426 -4.97817e-06
8.06141e-06 -4.97817e-06 8.7262e-05
0.00156306 -0.000134067 5.36286e-06
-0.000134067 0.000400391 -3.0201e-06
5.36286e-06 -3.0201e-06 0.000300291
0.00125193 -0.000144886 5.0111e-06
-0.000144886 9.39676e-05 -2.02432e-06
5.0111e-06 -2.02432e-06 -3.63845e-05
0.00482267 -4.99155e-06 -0.000127724
-4.99155e-06 0.0023097 -7.26964e-06
-0.000127724 -7.26964e-06 0.00230522
0.00333086 -0.000127602 -6.75523e-05
-0.000127602 0.00150002 -2.78216e-06
-6.75523e-05 -2.78216e-06 0.00149274
0.00404394 -0.000141258 -8.91214e-05
-0.000141258 0.00191584 -5.54783e-06
-8.91214e-05 -5.54783e-06 0.00189839
0.000566881 6.21033e-05 -9.77277e-06
6.21033e-05 -6.55575e-05 -8.5232e-06
-9.77277e-06 -8.5232e-06 -0.000121395
0.00507062 5.09857e-05 -2.72186e-06
5.09857e-05 0.00243329 -8.7897e-07
-2.72186e-06 -8.7897e-07 0.00243034
0.00473265 -8.07803e-05 -6.37672e-06
-8.07803e-05 0.00228297 5.73638e-07
-6.37672e-06 5.73638e-07 0.00226797
0.000605698 9.98756e-05 -6.31314e-07
9.98756e-05 -0.000103928 -2.58803e-07
-6.31314e-07 -2.58803e-07 -0.00016818
0.00199901 -8.72657e-05 -2.77073e-05
-8.72657e-05 0.000756193 -2.67257e-07
-2.77073e-05 -2.67257e-07 0.000747667
0.000623946 9.70647e-05 -2.34171e-07
9.70647e-05 -5.01493e-05 -9.70409e-08
-2.34171e-07 -9.70409e-08 -0.00011048
0.00123234 9.74026e-06 1.72285e-05
9.74026e-06 0.000307036 2.75022e-07
1.72285e-05 2.75022e-07 0.000262889
0.000876525 0.000101965 2.79368e-07
0.000101965 4.73582e-05 -1.78721e-07
2.79368e-07 -1.78721e-07 -5.3291e-05
0.00283501 -9.32008e-05 6.25472e-05
-9.32008e-05 0.0012128 2.81089e-06
6.25472e-05 2.81089e-06 0.00121574
0.000648753 -6.96816e-05 -1.55317e-06
-6.96816e-05 -3.80324e-06 5.26291e-06
-1.55317e-06 5.26291e-06 -3.15788e-05
0.000730186 7.20528e-05 1.63911e-05
7.20528e-05 -5.87081e-05 7.67343e-06
1.63911e-05 7.67343e-06 -0.000121033
0.000774145 0.000109672 1.92676e-05
0.000109672 5.64929e-06 1.13604e-05
1.92676e-05 1.13604e-05 -5.96444e-05
0.00106551 0.000109605 9.77972e-06
0.000109605 2.98281e-06 4.14045e-06
9.77972e-06 4.14045e-06 -0.000106463
0.00171775 -3.75538e-05 3.43415e-05
-3.75538e-05 0.000582552 4.51998e-06
3.43415e-05 4.51998e-06 0.000550085
0.00100064 0.00011796 6.1164e-06
0.00011796 7.21661e-05 3.97886e-06
6.1164e-06 3.97886e-06 -3.29559e-05
0.000925963 8.56909e-05 4.38802e-06
8.56909e-05 0.000112521 2.54307e-06
4.38802e-06 2.54307e-06 1.40445e-05
0.000879089 0.000130362 1.70947e-06
0.000130362 1.36227e-05 -8.13239e-08
1.70947e-06 -8.13239e-08 -0.000112092
0.00231726 -7.85682e-05 3.90139e-05
-7.85682e-05 0.000918873 2.70807e-06
3.90139e-05 2.70807e-06 0.000926919
0.00246047 -8.80544e-05 2.11741e-06
-8.80544e-05 0.00100458 -1.62644e-07
2.11741e-06 -1.62644e-07 0.00100966
0.00501331 3.74299e-05 -0.000139761
3.74299e-05 0.00239959 -5.33977e-06
-0.000139761 -5.33977e-06 0.00239822
0.00510388 5.27634e-05 -0.000140445
5.27634e-05 0.00245018 -2.52476e-06
-0.000140445 -2.52476e-06 0.00244759
0.00519452 7.48621e-05 3.26884e-06
7.48621e-05 0.00250316 -7.27843e-07
3.26884e-06 -7.27843e-07 0.00249719
0.0031819 -1.71259e-05 -6.31615e-05
-1.71259e-05 0.00139165 -1.25746e-06
-6.31615e-05 -1.25746e-06 0.00137596
0.00164558 1.32476e-05 3.26819e-05
1.32476e-05 0.000426705 2.45113e-07
3.26819e-05 2.45113e-07 0.00037274
0.00318671 4.97814e-05 -6.02637e-05
4.97814e-05 0.00139597 -2.64139e-06
-6.02637e-05 -2.64139e-06 0.00137947
0.001633 4.10192e-05 3.06249e-05
4.10192e-05 0.00043145 8.00785e-07
3.06249e-05 8.00785e-07 0.000378645
0.00520718 0.000132968 0.00014097
0.000132968 0.00251635 2.07573e-06
0.00014097 2.07573e-06 0.00250588
0.000703568 -4.5513e-06 1.543e-05
-4.5513e-06 -9.81931e-05 5.60906e-07
1.543e-05 5.60906e-07 -0.000160073
0.00252994 -7.94598e-07 7.75594e-05
-7.94598e-07 0.000919458 3.34157e-06
7.75594e-05 3.34157e-06 0.000874422
0.0011788 2.31735e-05 1.06169e-05
2.31735e-05 7.84552e-06 1.46949e-06
1.06169e-05 1.46949e-06 -9.67609e-05
0.00240698 7.00764e-05 7.52959e-05
7.00764e-05 0.000862235 5.44584e-06
7.52959e-05 5.44584e-06 0.000815978
0.00117184 5.86436e-05 1.01598e-05
5.86436e-05 2.10506e-05 2.42229e-06
1.01598e-05 2.42229e-06 -8.17459e-05
0.00169897 2.33142e-05 -0.000135063
2.33142e-05 0.000562156 7.2452e-07
-0.000135063 7.2452e-07 0.000542823
0.00123004 -3.23314e-05 -2.13495e-05
-3.23314e-05 0.000325288 2.11135e-06
-2.13495e-05 2.11135e-06 0.000296324
0.00111277 9.05888e-05 -5.43741e-06
9.05888e-05 0.000292105 3.46645e-06
-5.43741e-06 3.46645e-06 0.00026059
0.00128549 -2.06417e-05 -2.38686e-05
-2.06417e-05 0.000362015 3.19057e-06
-2.38686e-05 3.19057e-06 0.000334429
0.00156744 -4.33088e-05 -6.4963e-05
-4.33088e-05 0.000405726 5.11468e-06
-6.4963e-05 5.11468e-06 0.000356609
0.00149886 -6.82002e-05 -6.29309e-05
-6.82002e-05 0.000391582 7.985e-06
-6.29309e-05 7.985e-06 0.00033952
0.00131131 -5.58976e-05 -5.46736e-05
-5.58976e-05 0.000334059 7.70191e-06
-5.46736e-05 7.70191e-06 0.000282338
0.00198114 -0.000154165 -1.57855e-05
-0.000154165 0.000568284 5.99739e-06
-1.57855e-05 5.99739e-06 0.000463828
0.00517927 -5.64891e-05 -1.96853e-06
-5.64891e-05 0.00249262 -7.0548e-07
-1.96853e-06 -7.0548e-07 0.00248813
0.00147264 1.60898e-05 5.72433e-05
1.60898e-05 0.000446455 -1.56164e-06
5.72433e-05 -1.56164e-06 0.000421797
0.00115067 5.83296e-06 -3.50286e-05
5.83296e-06 0.000157613 4.70283e-07
-3.50286e-05 4.70283e-07 0.000101607
0.00148386 -4.14998e-05 -1.97993e-05
-4.14998e-05 0.00036021 4.49167e-07
-1.97993e-05 4.49167e-07 0.000307472
0.00218548 7.70779e-05 5.86698e-05
7.70779e-05 0.000858277 -5.54577e-07
5.86698e-05 -5.54577e-07 0.000849692
0.00138602 6.28042e-06 -1.43609e-05
6.28042e-06 0.000403316 -2.59927e-07
-1.43609e-05 -2.59927e-07 0.000353837
0.00149543 -6.11447e-05 -1.82947e-05
-6.11447e-05 0.000377391 8.47408e-07
-1.82947e-05 8.47408e-07 0.000324107
0.00176842 -9.10813e-05 -6.0666e-06
-9.10813e-05 0.000369553 1.05368e-06
-6.0666e-06 1.05368e-06 0.000274913
0.00172945 -0.000145077 -2.77899e-06
-0.000145077 0.000487767 1.01102e-06
-2.77899e-06 1.01102e-06 0.00038523
0.00172947 -0.00013093 -1.98154e-06
-0.00013093 0.000389509 3.71097e-07
-1.98154e-06 3.71097e-07 0.000288425
0.0012176 -0.000142174 -8.28571e-08
-0.000142174 7.6149e-05 -2.14239e-07
-8.28571e-08 -2.14239e-07 -5.3788e-05
0.000726865 5.36532e-06 1.56639e-05
5.36532e-06 -8.24258e-05 -1.26894e-06
1.56639e-05 -1.26894e-06 -0.000143825
0.00144864 -6.74172e-06 2.23753e-05
-6.74172e-06 0.000334693 -2.41382e-06
2.23753e-05 -2.41382e-06 0.00027835
0.00161947 -1.73608e-05 1.03418e-05
-1.73608e-05 0.000256608 -1.39802e-06
1.03418e-05 -1.39802e-06 0.000158563
0.00153542 -6.92758e-05 9.88065e-06
-6.92758e-05 0.00023702 -2.15371e-06
9.88065e-06 -2.15371e-06 0.000140887
0.00154807 -0.000107436 1.06255e-05
-0.000107436 0.000259166 -3.10557e-06
1.06255e-05 -3.10557e-06 0.000160563
0.0017761 -0.000105525 3.0488e-06
-0.000105525 0.000286359 -6.68779e-07
3.0488e-06 -6.68779e-07 0.000171479
0.00306683 0.000110537 6.13466e-05
0.000110537 0.00134053 -2.53055e-06
6.13466e-05 -2.53055e-06 0.00133934
0.00132708 -0.000134529 5.26674e-06
-0.000134529 8.51478e-05 -1.66807e-06
5.26674e-06 -1.66807e-06 -4.02347e-05
0.000569126 2.92806e-05 4.14917e-06
2.92806e-05 -5.16885e-05 -6.27866e-06
4.14917e-06 -6.27866e-06 -9.60914e-05
0.00065896 -8.78412e-05 3.56209e-06
-8.78412e-05 -4.3675e-05 -2.42348e-06
3.56209e-06 -2.42348e-06 -0.00013902
0.00133217 -0.000158861 4.39286e-06
-0.000158861 0.000203599 -2.53285e-06
4.39286e-06 -2.53285e-06 6.81778e-05
0.00141531 -0.000161453 2.80292e-06
-0.000161453 0.000125372 -9.23196e-07
2.80292e-06 -9.23196e-07 -1.62456e-05
0.000546814 6.07994e-05 4.64691e-07
6.07994e-05 -6.36011e-05 -6.04425e-06
4.64691e-07 -6.04425e-06 -9.91342e-05
0.000719342 3.09151e-05 3.82375e-07
3.09151e-05 1.0161e-05 -2.93635e-06
3.82375e-07 -2.93635e-06 -5.74214e-05
0.00501571 5.42364e-05 -0.00014275
5.42364e-05 0.00240512 -7.83779e-06
-0.00014275 -7.83779e-06 0.00240222
0.0044254 -9.66325e-05 -0.000102922
-9.66325e-05 0.00211568 -6.66166e-06
-0.000102922 -6.66166e-06 0.00210283
0.000586643 8.9592e-05 -1.45337e-05
8.9592e-05 -0.000114111 -8.4228e-06
-1.45337e-05 -8.4228e-06 -0.000178455
0.00297636 -0.000111214 -5.82774e-05
-0.000111214 0.00129716 -2.48511e-06
-5.82774e-05 -2.48511e-06 0.00129544
0.000545786 1.10916e-06 -4.6196e-06
1.10916e-06 -6.93131e-05 -7.54579e-06
-4.6196e-06 -7.54579e-06 -0.000115551
0.00052415 8.85421e-05 -1.23776e-05
8.85421e-05 -0.000101065 -8.75181e-06
-1.23776e-05 -8.75181e-06 -0.00016137
0.000829343 9.76022e-05 -4.86151e-06
9.76022e-05 2.04543e-05 -2.73624e-06
-4.86151e-06 -2.73624e-06 -7.9457e-05
0.00273413 -9.68122e-05 2.41048e-06
-9.68122e-05 0.00115904 -1.9328e-07
2.41048e-06 -1.9328e-07 0.00116134
0.000610871 -6.74796e-05 5.60767e-08
-6.74796e-05 -2.55893e-05 1.89559e-07
5.60767e-08 1.89559e-07 -5.24778e-05
0.00156711 8.5943e-05 2.96474e-05
8.5943e-05 0.000405781 9.96899e-07
2.96474e-05 9.96899e-07 0.000349858
0.00143791 0.000109157 2.57032e-05
0.000109157 0.000376599 7.14885e-07
2.57032e-05 7.14885e-07 0.000319443
0.00107791 0.000111538 3.16313e-07
0.000111538 1.04453e-05 -2.41314e-07
3.16313e-07 -2.41314e-07 -9.92902e-05
0.000638155 -3.60231e-05 -5.47753e-07
-3.60231e-05 -1.35985e-05 1.61541e-07
-5.47753e-07 1.61541e-07 -5.22335e-05
0.000939801 0.000113643 3.04976e-07
0.000113643 3.97815e-05 4.93463e-07
3.04976e-07 4.93463e-07 -6.46638e-05
0.000832706 7.92844e-05 2.94974e-07
7.92844e-05 6.04354e-05 -2.3373e-07
2.94974e-07 -2.3373e-07 -3.61043e-05
0.000811165 0.000126328 -2.81801e-08
0.000126328 -2.49429e-05 -4.79148e-08
-2.81801e-08 -4.79148e-08 -0.000150982
0.000634185 -5.15139e-05 2.61032e-06
-5.15139e-05 -1.14151e-05 5.55379e-06
2.61032e-06 5.55379e-06 -4.43294e-05
0.00068425 -5.91529e-05 2.39141e-07
-5.91529e-05 3.02122e-06 4.16068e-06
2.39141e-07 4.16068e-06 -1.66011e-05
0.000679155 -7.57595e-06 1.99982e-06
-7.57595e-06 4.92053e-07 2.60888e-06
1.99982e-06 2.60888e-06 -6.34148e-05
0.00111008 9.32151e-05 1.01345e-05
9.32151e-05 2.7807e-08 3.56175e-06
1.01345e-05 3.56175e-06 -0.000107253
0.00103678 0.000119503 8.33716e-06
0.000119503 3.8647e-05 4.42284e-06
8.33716e-06 4.42284e-06 -7.06884e-05
0.0013031 0.000137123 5.74315e-06
0.000137123 5.16869e-05 1.93362e-06
5.74315e-06 1.93362e-06 -8.18844e-05
0.000867163 5.98309e-05 3.43809e-06
5.98309e-05 9.4734e-05 2.72896e-06
3.43809e-06 2.72896e-06 5.65049e-06
0.000913349 0.000133937 1.86775e-06
0.000133937 -3.01458e-05 1.72181e-06
1.86775e-06 1.72181e-06 -0.000158637
0.00110979 0.000140247 1.93141e-06
0.000140247 0.000190172 5.88488e-07
1.93141e-06 5.88488e-07 6.28709e-05
0.0010421 0.000150528 -2.22372e-06
0.000150528 9.06444e-05 -1.42218e-06
-2.22372e-06 -1.42218e-06 -4.69335e-05
0.00216853 -6.97193e-05 3.26327e-05
-6.97193e-05 0.000828021 2.92769e-06
3.26327e-05 2.92769e-06 0.000838958
0.00224594 -7.83373e-05 1.14318e-06
-7.83373e-05 0.000879021 -1.24263e-07
1.14318e-06 -1.24263e-07 0.000887239
0.00235779 -8.771e-05 -3.79215e-05
-8.771e-05 0.000948469 -2.56136e-06
-3.79215e-05 -2.56136e-06 0.00095368
0.000570356 6.30732e-05 5.96292e-07
6.30732e-05 -5.50112e-05 -5.17652e-06
5.96292e-07 -5.17652e-06 -8.51795e-05
0.00286173 0.000100304 5.28382e-05
0.000100304 0.00122308 -2.67428e-06
5.28382e-05 -2.67428e-06 0.00122501
0.00505328 8.36583e-05 -0.000148097
8.36583e-05 0.00242421 -7.59084e-06
-0.000148097 -7.59084e-06 0.00242064
0.00499946 -1.93028e-05 -0.00013424
-1.93028e-05 0.00239361 -3.42351e-06
-0.00013424 -3.42351e-06 0.0023917
0.000733251 4.97917e-05 -1.55371e-05
4.97917e-05 -6.36811e-05 -3.98343e-06
-1.55371e-05 -3.98343e-06 -0.000123817
0.0007069 1.79658e-05 -1.56771e-05
1.79658e-05 -8.86736e-05 -2.34314e-06
-1.56771e-05 -2.34314e-06 -0.000150567
0.0051554 -6.80991e-05 -0.0001384
-6.80991e-05 0.00247925 -5.11956e-07
-0.0001384 -5.11956e-07 0.00247542
0.00519587 -4.74152e-07 -1.1775e-06
-4.74152e-07 0.00249883 4.54899e-07
-1.1775e-06 4.54899e-07 0.00249596
0.000701507 -3.44883e-06 -1.5645e-07
-3.44883e-06 -9.87849e-05 -2.2743e-07
-1.5645e-07 -2.2743e-07 -0.0001607
0.00161736 1.66937e-05 3.15398e-05
1.66937e-05 0.000419137 6.58091e-07
3.15398e-05 6.58091e-07 0.000366384
0.0011892 2.7321e-05 1.682e-07
2.7321e-05 1.37064e-05 -2.08648e-07
1.682e-07 -2.08648e-07 -9.10297e-05
0.00067433 5.04279e-05 2.32933e-07
5.04279e-05 -9.44302e-05 -1.53123e-07
2.32933e-07 -1.53123e-07 -0.000154596
0.00116017 6.08132e-05 -1.37837e-07
6.08132e-05 1.54561e-05 3.76018e-08
-1.37837e-07 3.76018e-08 -8.76917e-05
0.000693274 -1.40693e-05 1.57703e-05
-1.40693e-05 -0.000104667 -3.55872e-07
1.57703e-05 -3.55872e-07 -0.000166624
0.00119344 9.96391e-06 1.06194e-05
9.96391e-06 7.65314e-06 4.864e-07
1.06194e-05 4.864e-07 -9.78555e-05
0.00117213 4.1274e-05 1.03119e-05
4.1274e-05 1.58691e-05 2.19568e-06
1.03119e-05 2.19568e-06 -8.73236e-05
0.00144679 2.98172e-05 4.43877e-06
2.98172e-05 6.83014e-05 7.27557e-07
4.43877e-06 7.27557e-07 -5.2171e-05
0.00114334 7.49125e-05 1.01925e-05
7.49125e-05 8.13386e-06 2.6638e-06
1.01925e-05 2.6638e-06 -9.64464e-05
0.00144219 7.01724e-05 4.34066e-06
7.01724e-05 8.39633e-05 1.11775e-06
4.34066e-06 1.11775e-06 -3.57632e-05
0.0051811 -5.12842e-05 -0.000149846
-5.12842e-05 0.002493 -4.91562e-07
-0.000149846 -4.91562e-07 0.0024887
0.00128703 -4.49831e-05 -1.68098e-05
-4.49831e-05 0.000353472 1.58653e-06
-1.68098e-05 1.58653e-06 0.000323306
-0.000119839 -4.83661e-07 -1.35906e-05
-4.83661e-07 -0.000544928 2.28568e-06
-1.35906e-05 2.28568e-06 -0.000612898
0.00157489 -2.87133e-05 -6.63171e-05
-2.87133e-05 0.00040638 3.76096e-06
-6.63171e-05 3.76096e-06 0.000356785
0.00307883 0.000149014 -1.62291e-05
0.000149014 0.00136888 1.43262e-06
-1.62291e-05 1.43262e-06 0.00135507
0.00190033 -3.76178e-05 -4.52668e-05
-3.76178e-05 0.000672504 6.35961e-06
-4.52668e-05 6.35961e-06 0.000629867
0.0015516 -5.80253e-05 -6.41438e-05
-5.80253e-05 0.000404459 6.73144e-06
-6.41438e-05 6.73144e-06 0.000354055
0.00157384 -8.36267e-05 -1.93959e-05
-8.36267e-05 0.000260738 3.70388e-06
-1.93959e-05 3.70388e-06 0.000165125
0.00198865 -0.000140217 -1.55619e-05
-0.000140217 0.00053244 4.99264e-06
-1.55619e-05 4.99264e-06 0.000431819
0.00194415 -0.000157465 -1.26606e-05
-0.000157465 0.00060193 5.71488e-06
-1.26606e-05 5.71488e-06 0.000496754
0.0011893 -0.000139828 -4.5132e-06
-0.000139828 6.16054e-05 1.43018e-06
-4.5132e-06 1.43018e-06 -6.79596e-05
0.000692348 8.10673e-06 3.84852e-08
8.10673e-06 -0.000101967 -2.3413e-07
3.84852e-08 -2.3413e-07 -0.00016319
0.00153147 -2.99785e-05 -2.21255e-05
-2.99785e-05 0.000377932 1.19532e-07
-2.21255e-05 1.19532e-07 0.000323824
0.00119727 -1.50476e-05 -4.20842e-06
-1.50476e-05 2.42099e-05 2.11378e-07
-4.20842e-06 2.11378e-07 -7.69981e-05
0.0017992 -7.22439e-05 -2.87389e-06
-7.22439e-05 0.000380422 3.79636e-07
-2.87389e-06 3.79636e-07 0.000285944
0.00308033 0.000107987 -1.28653e-06
0.000107987 0.0013488 -2.61499e-07
-1.28653e-06 -2.61499e-07 0.00134766
0.00117075 1.2817e-05 2.18335e-06
1.2817e-05 0.000278291 3.90145e-07
2.18335e-06 3.90145e-07 0.00023549
0.00117129 -0.000106014 4.93073e-07
-0.000106014 0.000233852 -2.9808e-07
4.93073e-07 -2.9808e-07 0.000138019
0.00155439 -0.00010649 -3.22588e-06
-0.00010649 0.00026336 6.21248e-07
-3.22588e-06 6.21248e-07 0.000164673
0.00147442 -9.65595e-05 -2.30776e-06
-9.65595e-05 0.000118667 6.19602e-07
-2.30776e-06 6.19602e-07 2.59909e-06
0.00101596 -0.000140396 -6.42659e-07
-0.000140396 3.36294e-05 -2.31575e-07
-6.42659e-07 -2.31575e-07 -0.000100297
0.00153536 -0.000140771 9.81134e-08
-0.000140771 0.000200794 -2.38971e-07
9.81134e-08 -2.38971e-07 7.65472e-05
0.00136938 -0.000158457 3.50177e-08
-0.000158457 0.000101699 -2.77631e-07
3.50177e-08 -2.77631e-07 -3.94366e-05
0.000573796 5.27955e-05 -7.37952e-07
5.27955e-05 -5.01862e-05 6.74241e-08
-7.37952e-07 6.74241e-08 -8.48979e-05
0.000698716 1.64927e-05 -1.64869e-07
1.64927e-05 -2.96295e-06 1.7704e-07
-1.64869e-07 1.7704e-07 -7.03763e-05
0.00118167 -7.69307e-06 1.04234e-05
-7.69307e-06 2.49517e-06 -1.37974e-06
1.04234e-05 -1.37974e-06 -0.000102337
0.00158773 -3.87928e-05 9.93688e-06
-3.87928e-05 0.000248892 -1.58265e-06
9.93688e-06 -1.58265e-06 0.000151732
0.00183889 -2.3198e-05 3.22416e-06
-2.3198e-05 0.000290713 -3.59917e-07
3.22416e-06 -3.59917e-07 0.000176916
0.00120007 -6.87556e-05 5.03792e-06
-6.87556e-05 -3.83823e-05 -1.50533e-06
5.03792e-06 -1.50533e-06 -0.000156162
0.0016401 -0.000128884 4.47625e-06
-0.000128884 0.000225423 -9.50674e-07
4.47625e-06 -9.50674e-07 0.000106233
0.00170602 -0.000102729 4.50287e-07
-0.000102729 0.000194503 3.32971e-08
4.50287e-07 3.32971e-08 7.6188e-05
0.000523425 4.13644e-05 2.78232e-06
4.13644e-05 -7.79866e-05 -6.23636e-06
2.78232e-06 -6.23636e-06 -0.000117149
0.00149428 -0.000146094 2.45538e-06
-0.000146094 0.000115257 -2.52559e-07
2.45538e-06 -2.52559e-07 -1.60961e-05
0.000649152 -5.66261e-05 2.41209e-06
-5.66261e-05 -2.90691e-05 -1.67395e-06
2.41209e-06 -1.67395e-06 -0.000117882
0.000516292 -0.000109423 2.94575e-06
-0.000109423 -0.000164072 -3.1286e-06
2.94575e-06 -3.1286e-06 -0.000290944
0.00192371 -0.000204183 1.75427e-06
-0.000204183 0.000480018 -8.34643e-07
1.75427e-06 -8.34643e-07 0.000327677
0.00162592 -0.000174951 -5.1237e-07
-0.000174951 0.000188452 1.0624e-06
-5.1237e-07 1.0624e-06 4.73911e-05
0.000778117 -1.35609e-05 1.46449e-06
-1.35609e-05 4.68789e-05 -2.88509e-06
1.46449e-06 -2.88509e-06 -3.29682e-05
0.000703268 2.98587e-05 1.13431e-06
2.98587e-05 -1.93565e-06 -2.26553e-06
1.13431e-06 -2.26553e-06 -6.03979e-05
0.000832333 -4.64674e-05 3.48823e-07
-4.64674e-05 7.49081e-05 -6.95344e-07
3.48823e-07 -6.95344e-07 -2.31551e-05
0.000642618 7.37258e-05 -1.4663e-05
7.37258e-05 -0.000102553 -6.74125e-06
-1.4663e-05 -6.74125e-06 -0.000165106
0.00265382 -9.92583e-05 -4.71064e-05
-9.92583e-05 0.00111619 -2.42624e-06
-4.71064e-05 -2.42624e-06 0.00111805
0.00057227 -6.09718e-05 -9.07391e-07
-6.09718e-05 -4.8972e-05 -4.40746e-06
-9.07391e-07 -4.40746e-06 -7.41324e-05
0.000522022 9.82595e-05 -1.40805e-05
9.82595e-05 -0.000122907 -9.24128e-06
-1.40805e-05 -9.24128e-06 -0.00018596
0.00108663 0.00011364 -9.90283e-06
0.00011364 1.59077e-05 -4.66928e-06
-9.90283e-06 -4.66928e-06 -9.41533e-05
0.000521466 -4.57335e-05 -2.04193e-06
-4.57335e-05 -7.47471e-05 -6.487e-06
-2.04193e-06 -6.487e-06 -0.00011416
0.000723451 7.1104e-05 -3.02077e-06
7.1104e-05 6.68852e-08 -2.68508e-06
-3.02077e-06 -2.68508e-06 -9.47244e-05
0.000881995 0.000109322 -5.64688e-06
0.000109322 9.39367e-06 -3.11589e-06
-5.64688e-06 -3.11589e-06 -9.44153e-05
0.000740549 0.000122227 -2.9391e-06
0.000122227 -6.51912e-05 -7.60778e-07
-2.9391e-06 -7.60778e-07 -0.000191522
0.000580141 -5.98291e-05 1.80461e-06
-5.98291e-05 -4.03263e-05 5.28138e-09
1.80461e-06 5.28138e-09 -7.3355e-05
0.000650237 -5.4685e-05 -2.08916e-07
-5.4685e-05 -1.6728e-05 1.35811e-07
-2.08916e-07 1.35811e-07 -3.536e-05
0.000683472 -3.72991e-05 3.10507e-07
-3.72991e-05 -1.06852e-06 3.18795e-07
3.10507e-07 3.18795e-07 -6.12428e-05
0.00112205 9.5387e-05 1.42143e-07
9.5387e-05 7.21568e-06 -2.05667e-07
1.42143e-07 -2.05667e-07 -0.000100465
0.00101199 0.000118597 5.88013e-07
0.000118597 2.64413e-05 -2.39103e-07
5.88013e-07 -2.39103e-07 -8.26848e-05
0.00133983 0.000139904 2.88316e-07
0.000139904 7.11332e-05 2.77263e-08
2.88316e-07 2.77263e-08 -6.28567e-05
0.000797402 5.21753e-05 7.95643e-08
5.21753e-05 5.9308e-05 -2.46443e-08
7.95643e-08 -2.46443e-08 -2.95783e-05
0.0010936 0.000144208 -1.91798e-07
0.000144208 6.8943e-05 -1.50002e-07
-1.91798e-07 -1.50002e-07 -6.02731e-05
0.00102357 0.00013402 3.31467e-07
0.00013402 0.000143195 -4.21628e-07
3.31467e-07 -4.21628e-07 1.65083e-05
0.000985897 0.000149431 -8.43436e-07
0.000149431 5.90411e-05 8.76103e-07
-8.43436e-07 8.76103e-07 -7.9035e-05
0.000692493 -4.87204e-05 1.822e-06
-4.87204e-05 -4.69979e-06 3.47923e-06
1.822e-06 3.47923e-06 -1.86881e-05
0.000722869 2.30128e-05 2.30923e-06
2.30128e-05 1.82748e-05 2.32749e-06
2.30923e-06 2.32749e-06 -5.68608e-05
0.000681854 -5.24718e-05 9.5814e-08
-5.24718e-05 -5.18749e-06 2.25235e-06
9.5814e-08 2.25235e-06 -5.41818e-05
0.000821948 3.04625e-05 2.97968e-07
3.04625e-05 8.06791e-05 6.7489e-07
2.97968e-07 6.7489e-07 -1.04106e-05
0.0013604 0.000114163 6.14934e-06
0.000114163 5.43158e-05 1.49196e-06
6.14934e-06 1.49196e-06 -7.41832e-05
0.00125783 0.000150813 4.65206e-06
0.000150813 8.95402e-05 3.06127e-06
4.65206e-06 3.06127e-06 -4.53708e-05
0.00155489 0.000155899 3.14426e-06
0.000155899 0.000130137 1.13164e-06
3.14426e-06 1.13164e-06 -1.34999e-05
0.00108836 0.000108805 2.11504e-06
0.000108805 0.000204239 1.78041e-06
2.11504e-06 1.78041e-06 8.90248e-05
0.00131793 0.000168299 -5.93936e-07
0.000168299 0.000156944 1.63275e-06
-5.93936e-07 1.63275e-06 1.71861e-05
0.000925971 0.000142377 -3.53109e-07
0.000142377 8.5718e-05 -1.78825e-06
-3.53109e-07 -1.78825e-06 -6.35036e-05
0.000869387 0.000147483 -5.78504e-07
0.000147483 -3.32164e-05 -6.17305e-07
-5.78504e-07 -6.17305e-07 -0.000175039
0.000747601 -2.55736e-05 1.32749e-06
-2.55736e-05 3.21493e-06 1.6369e-06
1.32749e-06 1.6369e-06 -2.97953e-05
0.000690797 -3.68686e-05 1.39966e-06
-3.68686e-05 -2.24696e-05 3.38824e-06
1.39966e-06 3.38824e-06 -3.09134e-05
0.00210522 -6.16033e-05 2.81482e-05
-6.16033e-05 0.000783687 3.22168e-06
2.81482e-05 3.22168e-06 0.00079715
0.0021343 -6.92386e-05 1.37946e-06
-6.92386e-05 0.000807931 -1.23408e-07
1.37946e-06 -1.23408e-07 0.000819142
0.00217903 -7.70565e-05 -3.35053e-05
-7.70565e-05 0.000841297 -2.77754e-06
-3.35053e-05 -2.77754e-06 0.000849963
0.000610425 5.07813e-05 1.80471e-06
5.07813e-05 -4.34762e-05 -4.45924e-06
1.80471e-06 -4.45924e-06 -6.73606e-05
0.00267152 9.08768e-05 4.52852e-05
9.08768e-05 0.00111448 -2.90514e-06
4.52852e-05 -2.90514e-06 0.0011189
0.00060183 6.23205e-05 -4.69957e-07
6.23205e-05 -3.7214e-05 6.59267e-08
-4.69957e-07 6.59267e-08 -6.76743e-05
0.00290254 9.79951e-05 -1.51137e-06
9.79951e-05 0.00124496 -1.84435e-07
-1.51137e-06 -1.84435e-07 0.00124719
0.000698687 6.05652e-05 -1.51581e-05
6.05652e-05 -8.03043e-05 -5.24686e-06
-1.51581e-05 -5.24686e-06 -0.000141308
0.000698854 2.99443e-05 -1.52224e-05
2.99443e-05 -8.5874e-05 -3.21399e-06
-1.52224e-05 -3.21399e-06 -0.000146719
0.00115228 6.224e-05 -9.99924e-06
6.224e-05 1.17173e-05 -2.27888e-06
-9.99924e-06 -2.27888e-06 -9.16941e-05
0.00118874 2.93117e-05 -1.05374e-05
2.93117e-05 1.37712e-05 -1.85711e-06
-1.05374e-05 -1.85711e-06 -9.10369e-05
0.000724064 8.94584e-08 -1.59783e-05
8.94584e-08 -8.69549e-05 -1.11011e-06
-1.59783e-05 -1.11011e-06 -0.000148458
0.00521736 -7.99825e-05 -0.000147526
-7.99825e-05 0.0025124 1.24772e-06
-0.000147526 1.24772e-06 0.00250844
0.000715086 -1.47816e-06 1.04238e-07
-1.47816e-06 -9.35491e-05 -2.85795e-07
1.04238e-07 -2.85795e-07 -0.000155247
0.00119937 1.42645e-05 5.9973e-09
1.42645e-05 1.10557e-05 -2.32613e-07
5.9973e-09 -2.32613e-07 -9.45056e-05
0.00116847 4.2191e-05 3.66666e-09
4.2191e-05 1.45636e-05 -3.78149e-08
3.66666e-09 -3.78149e-08 -8.87632e-05
0.00145034 2.95843e-05 2.85636e-08
2.95843e-05 7.02181e-05 -1.21346e-07
2.85636e-08 -1.21346e-07 -5.03134e-05
0.00114754 7.75589e-05 2.24502e-09
7.75589e-05 1.09674e-05 -2.42972e-07
2.24502e-09 -2.42972e-07 -9.41115e-05
0.00143217 7.22759e-05 -8.6842e-08
7.22759e-05 7.8937e-05 2.22929e-07
-8.6842e-08 2.22929e-07 -4.10785e-05
0.00120564 -5.35953e-07 1.0575e-05
-5.35953e-07 1.29916e-05 -2.15287e-07
1.0575e-05 -2.15287e-07 -9.24367e-05
0.00146403 1.83603e-05 4.35349e-06
1.83603e-05 6.85787e-05 2.48696e-07
4.35349e-06 2.48696e-07 -5.23551e-05
0.00145278 5.05636e-05 4.41476e-06
5.05636e-05 8.44478e-05 1.09241e-06
4.41476e-06 1.09241e-06 -3.53553e-05
0.00158351 3.22981e-05 6.69343e-07
3.22981e-05 8.45051e-05 1.49128e-07
6.69343e-07 1.49128e-07 -3.4033e-05
0.00140487 9.17802e-05 4.68279e-06
9.17802e-05 6.68262e-05 6.96034e-07
4.68279e-06 6.96034e-07 -5.62897e-05
0.00155557 7.74051e-05 7.52082e-07
7.74051e-05 9.575e-05 1.73027e-07
7.52082e-07 1.73027e-07 -2.56202e-05
0.000700351 1.13082e-05 -1.51413e-05
1.13082e-05 -9.86262e-05 6.8807e-07
-1.51413e-05 6.8807e-07 -0.000159884
0.00159626 -1.06957e-05 -6.83833e-05
-1.06957e-05 0.000410407 2.67163e-06
-6.83833e-05 2.67163e-06 0.000359172
0.000769757 -1.1269e-05 -1.11109e-05
-1.1269e-05 -0.000211128 1.72453e-06
-1.11109e-05 1.72453e-06 -0.000315549
0.00203644 -7.3777e-05 -1.69999e-05
-7.3777e-05 0.000509038 2.83122e-06
-1.69999e-05 2.83122e-06 0.000416399
0.00310404 0.000103328 -7.00846e-05
0.000103328 0.00136218 2.81226e-06
-7.00846e-05 2.81226e-06 0.00136152
0.00183114 7.59694e-06 -3.78919e-05
7.59694e-06 0.000640334 4.422e-06
-3.78919e-05 4.422e-06 0.000602171
0.00172333 -0.000132169 -8.46689e-06
-0.000132169 0.000532412 3.73195e-06
-8.46689e-06 3.73195e-06 0.00043534
0.00155116 -0.000105164 -1.66361e-05
-0.000105164 0.000262258 4.14928e-06
-1.66361e-05 4.14928e-06 0.000163595
0.0011674 -8.73348e-05 -6.24113e-06
-8.73348e-05 -5.19593e-05 1.57676e-06
-6.24113e-06 1.57676e-06 -0.000169187
0.00174269 -0.000147054 -6.09257e-06
-0.000147054 0.000315963 1.47903e-06
-6.09257e-06 1.47903e-06 0.000192833
0.000694601 -0.000121451 -3.83768e-06
-0.000121451 -0.000139015 1.67966e-06
-3.83768e-06 1.67966e-06 -0.000271394
0.00132108 -0.000155326 -2.078e-06
-0.000155326 7.67649e-05 1.81883e-07
-2.078e-06 1.81883e-07 -6.3879e-05
0.000611721 4.60562e-05 -3.06115e-06
4.60562e-05 -2.92147e-05 5.72117e-06
-3.06115e-06 5.72117e-06 -6.40695e-05
0.000688403 1.93192e-06 -1.73836e-06
1.93192e-06 -9.16629e-06 2.62703e-06
-1.73836e-06 2.62703e-06 -7.73485e-05
0.000987033 -3.6527e-06 -4.83982e-07
-3.6527e-06 -0.000103383 -3.36284e-07
-4.83982e-07 -3.36284e-07 -0.000209373
0.00160532 -4.04773e-05 -3.43946e-06
-4.04773e-05 0.000257989 2.68299e-07
-3.43946e-06 2.68299e-07 0.000160735
0.00176439 -1.98541e-05 -2.19332e-06
-1.98541e-05 0.000247581 5.43399e-07
-2.19332e-06 5.43399e-07 0.000133406
0.00154167 -7.46675e-05 1.04072e-06
-7.46675e-05 0.0001487 -3.48206e-07
1.04072e-06 -3.48206e-07 3.28738e-05
0.000585755 3.12667e-05 1.56001e-07
3.12667e-05 -4.62465e-05 1.51123e-07
1.56001e-07 1.51123e-07 -8.47923e-05
0.000817614 -7.10955e-05 -1.77563e-07
-7.10955e-05 6.2398e-05 1.06784e-07
-1.77563e-07 1.06784e-07 -2.82796e-05
0.000699339 -0.000120112 1.11074e-06
-0.000120112 -6.13921e-05 -1.06646e-06
1.11074e-06 -1.06646e-06 -0.000187388
0.00173304 -0.000130231 -1.221e-06
-0.000130231 0.000276551 3.08295e-07
-1.221e-06 3.08295e-07 0.00015765
0.00155655 -9.74695e-05 -6.75758e-07
-9.74695e-05 0.000111029 4.86968e-07
-6.75758e-07 4.86968e-07 -6.92436e-06
0.00150996 -0.000180942 -1.48857e-06
-0.000180942 0.000253452 7.80249e-07
-1.48857e-06 7.80249e-07 0.000101379
0.00144844 -0.000143567 1.73696e-07
-0.000143567 9.1635e-05 -1.29204e-07
1.73696e-07 -1.29204e-07 -3.94281e-05
0.00144138 -0.000165918 4.02909e-07
-0.000165918 8.97455e-05 1.74559e-07
4.02909e-07 1.74559e-07 -5.01949e-05
0.000742712 -1.77019e-05 -2.1022e-07
-1.77019e-05 2.6791e-05 -1.44324e-07
-2.1022e-07 -1.44324e-07 -5.31487e-05
0.000756913 -1.68733e-05 -7.0635e-07
-1.68733e-05 2.8545e-05 -3.21718e-07
-7.0635e-07 -3.21718e-07 -6.49741e-05
0.000704042 2.14528e-05 4.6239e-07
2.14528e-05 -3.14896e-06 2.77202e-07
4.6239e-07 2.77202e-07 -6.12136e-05
0.00184928 -3.78343e-06 3.08413e-06
-3.78343e-06 0.000285488 -6.09778e-07
3.08413e-06 -6.09778e-07 0.00016906
0.00167455 -4.50108e-05 3.85758e-06
-4.50108e-05 0.000204652 -4.95334e-07
3.85758e-06 -4.95334e-07 8.91619e-05
0.00176496 -2.06514e-05 8.53058e-07
-2.06514e-05 0.000191169 2.2861e-07
8.53058e-07 2.2861e-07 7.44732e-05
0.00157955 -7.174e-05 6.86467e-07
-7.174e-05 0.000114815 -7.65524e-07
6.86467e-07 -7.65524e-07 -3.9916e-06
0.00145439 -0.000124025 2.40282e-06
-0.000124025 6.47517e-05 1.49867e-07
2.40282e-06 1.49867e-07 -5.8021e-05
0.00169513 -9.62631e-05 -1.84403e-06
-9.62631e-05 0.000149121 6.76744e-07
-1.84403e-06 6.76744e-07 3.72921e-05
0.000732161 -3.92454e-05 2.19536e-06
-3.92454e-05 2.46267e-05 -1.9846e-06
2.19536e-06 -1.9846e-06 -6.22959e-05
0.00151681 -0.000148577 -6.122e-07
-0.000148577 8.05928e-05 9.06978e-07
-6.122e-07 9.06978e-07 -4.63186e-05
0.000881557 -0.000121781 1.09128e-06
-0.000121781 7.81014e-05 -5.63689e-07
1.09128e-06 -5.63689e-07 -3.67165e-05
0.000715151 -0.000137541 3.09186e-06
-0.000137541 -8.50316e-05 -3.79497e-06
3.09186e-06 -3.79497e-06 -0.000235111
0.00172168 -0.00020213 1.45961e-06
-0.00020213 0.000326161 7.461e-07
1.45961e-06 7.461e-07 0.000166363
0.00195596 -0.000193401 -3.17221e-06
-0.000193401 0.000326378 1.78293e-06
-3.17221e-06 1.78293e-06 0.00019415
0.000721777 1.86982e-05 1.42869e-06
1.86982e-05 3.44894e-06 -2.00178e-06
1.42869e-06 -2.00178e-06 -4.78147e-05
0.000843472 -6.82546e-05 1.15756e-06
-6.82546e-05 7.04273e-05 2.38922e-07
1.15756e-06 2.38922e-07 -2.74508e-05
0.000720429 7.90351e-08 4.05086e-07
7.90351e-08 1.38498e-05 -1.29663e-06
4.05086e-07 -1.29663e-06 -7.55639e-05
0.000968598 -0.000112139 -4.47092e-07
-0.000112139 0.00015056 1.27448e-06
-4.47092e-07 1.27448e-06 4.13446e-05
0.00112985 9.77748e-05 -1.05531e-05
9.77748e-05 1.21047e-05 -3.94309e-06
-1.05531e-05 -3.94309e-06 -9.5994e-05
0.000619328 -5.1385e-05 -1.9683e-06
-5.1385e-05 -3.42512e-05 -3.60486e-06
-1.9683e-06 -3.60486e-06 -5.21737e-05
0.000520636 -7.49413e-05 1.01771e-06
-7.49413e-05 -6.87187e-05 -5.76447e-06
1.01771e-06 -5.76447e-06 -0.000104192
0.000708579 -6.17779e-05 6.94902e-07
-6.17779e-05 1.59897e-05 -2.72139e-06
6.94902e-07 -2.72139e-06 -4.57915e-05
0.000978237 0.000117346 -7.2413e-06
0.000117346 9.59217e-06 -4.9313e-06
-7.2413e-06 -4.9313e-06 -9.93389e-05
0.00136758 0.000142052 -5.47541e-06
0.000142052 8.57559e-05 -1.93402e-06
-5.47541e-06 -1.93402e-06 -4.85952e-05
0.000716886 4.42194e-05 -1.94742e-06
4.42194e-05 1.75627e-05 -2.35715e-06
-1.94742e-06 -2.35715e-06 -7.06467e-05
0.000962892 0.00012947 -2.51982e-06
0.00012947 0.000110464 -2.08718e-06
-2.51982e-06 -2.08718e-06 -1.5872e-05
0.00127917 0.000154867 -2.48611e-06
0.000154867 0.000171095 -1.97398e-06
-2.48611e-06 -1.97398e-06 4.10924e-05
0.00088404 0.000145404 -1.38518e-06
0.000145404 2.90701e-06 7.95541e-07
-1.38518e-06 7.95541e-07 -0.000135352
0.000665749 -4.69297e-05 6.91831e-08
-4.69297e-05 -1.94073e-05 2.73315e-08
6.91831e-08 2.73315e-08 -3.31329e-05
0.000745252 1.63547e-05 1.60921e-07
1.63547e-05 3.54542e-05 -5.39713e-08
1.60921e-07 -5.39713e-08 -4.22138e-05
0.000692243 -5.8226e-05 -2.48876e-07
-5.8226e-05 9.73269e-07 3.72737e-07
-2.48876e-07 3.72737e-07 -4.83485e-05
0.000817225 1.031e-05 3.84269e-07
1.031e-05 7.69925e-05 -2.25689e-07
3.84269e-07 -2.25689e-07 -1.25139e-05
0.00139036 0.000115912 1.0742e-06
0.000115912 6.95807e-05 1.08764e-07
1.0742e-06 1.08764e-07 -5.91242e-05
0.00123182 0.00015054 1.02641e-07
0.00015054 7.71603e-05 1.06328e-07
1.02641e-07 1.06328e-07 -5.78941e-05
0.00149413 0.000153266 1.57464e-07
0.000153266 9.95632e-05 2.99743e-07
1.57464e-07 2.99743e-07 -4.41632e-05
0.000988883 0.000107151 3.53431e-07
0.000107151 0.000150728 3.86987e-07
3.53431e-07 3.86987e-07 3.67952e-05
0.00149754 0.000178256 -6.90754e-07
0.000178256 0.000256063 -1.69129e-06
-6.90754e-07 -1.69129e-06 0.000115839
0.00111732 0.000155289 3.19431e-07
0.000155289 0.000190682 -1.27652e-06
3.19431e-07 -1.27652e-06 4.00346e-05
0.000918503 0.000150224 -1.93862e-06
0.000150224 -3.28346e-06 -2.97098e-07
-1.93862e-06 -2.97098e-07 -0.000141009
0.000692177 -4.25871e-05 1.67481e-06
-4.25871e-05 -1.40788e-05 3.38352e-06
1.67481e-06 3.38352e-06 -2.48292e-05
0.000717572 -5.05378e-05 4.08939e-07
-5.05378e-05 5.42305e-06 1.81975e-06
4.08939e-07 1.81975e-06 -3.57674e-05
0.000974552 6.05396e-05 1.56634e-06
6.05396e-05 0.000153578 7.28068e-07
1.56634e-06 7.28068e-07 5.20772e-05
0.000785291 1.52884e-05 9.89315e-08
1.52884e-05 5.41242e-05 1.2681e-06
9.89315e-08 1.2681e-06 -2.14592e-05
0.000891594 8.34719e-05 5.941e-07
8.34719e-05 0.000130515 -2.12293e-07
5.941e-07 -2.12293e-07 2.30334e-05
0.00157065 0.000123102 3.37165e-06
0.000123102 0.000115325 6.37845e-08
3.37165e-06 6.37845e-08 -1.96132e-05
0.00143412 0.000170542 1.16112e-06
0.000170542 0.000135111 3.8377e-06
1.16112e-06 3.8377e-06 -1.08789e-05
0.00158809 0.00016588 8.33497e-08
0.00016588 0.000118214 7.16415e-07
8.33497e-08 7.16415e-07 -2.5907e-05
0.0011524 0.000149228 2.44263e-06
0.000149228 0.000247661 2.97658e-06
2.44263e-06 2.97658e-06 0.00010368
0.00129183 0.000177154 1.35718e-06
0.000177154 0.000121022 2.24178e-06
1.35718e-06 2.24178e-06 -2.2398e-05
0.00032526 0.00011339 1.23647e-06
0.00011339 -0.000276875 -2.3505e-06
1.23647e-06 -2.3505e-06 -0.000434816
0.000744369 -3.01995e-05 1.56037e-06
-3.01995e-05 5.09705e-06 1.5173e-06
1.56037e-06 1.5173e-06 -2.90215e-05
0.000773814 7.58398e-06 5.43019e-07
7.58398e-06 3.18209e-05 5.4099e-07
5.43019e-07 5.4099e-07 -2.25893e-05
0.000759296 -1.87782e-05 9.5741e-07
-1.87782e-05 6.27147e-06 1.75301e-06
9.5741e-07 1.75301e-06 -2.61439e-05
0.000752845 -2.47936e-05 1.21635e-07
-2.47936e-05 6.40509e-06 -7.56978e-09
1.21635e-07 -7.56978e-09 -2.66971e-05
0.00125417 -4.00042e-05 1.61291e-06
-4.00042e-05 0.000285826 2.07229e-06
1.61291e-06 2.07229e-06 0.00028226
0.000975612 -4.07282e-05 7.92535e-07
-4.07282e-05 0.000136731 -3.22651e-08
7.92535e-07 -3.22651e-08 0.000129838
0.000949396 -3.54975e-05 2.32315e-05
-3.54975e-05 0.000128215 6.20427e-06
2.32315e-05 6.20427e-06 0.000138063
0.00208628 -6.11079e-05 1.41001e-06
-6.11079e-05 0.00077192 -1.13225e-07
1.41001e-06 -1.13225e-07 0.000785654
0.00210207 -6.85163e-05 -2.97604e-05
-6.85163e-05 0.000788849 -3.05031e-06
-2.97604e-05 -3.05031e-06 0.000800402
0.000633239 4.33778e-05 1.9304e-06
4.33778e-05 -3.96748e-05 -4.12532e-06
1.9304e-06 -4.12532e-06 -5.94204e-05
0.00253602 8.20217e-05 3.92742e-05
8.20217e-05 0.00103395 -3.19591e-06
3.92742e-05 -3.19591e-06 0.0010407
0.000629778 5.48142e-05 3.51259e-08
5.48142e-05 -3.14237e-05 4.49074e-08
3.51259e-08 4.49074e-08 -5.62112e-05
0.00271939 8.99278e-05 -1.72736e-06
8.99278e-05 0.00114022 -1.58955e-07
-1.72736e-06 -1.58955e-07 0.00114483
0.000625094 5.82838e-05 -4.93703e-07
5.82838e-05 -2.50084e-05 5.53375e-06
-4.93703e-07 5.53375e-06 -5.51336e-05
0.00295073 9.53434e-05 -6.26921e-05
9.53434e-05 0.00127077 2.92675e-06
-6.26921e-05 2.92675e-06 0.00127336
0.00115832 8.0316e-05 -1.03501e-05
8.0316e-05 1.70547e-05 -3.08906e-06
-1.03501e-05 -3.08906e-06 -8.84695e-05
0.00117168 4.58811e-05 -1.00445e-05
4.58811e-05 1.70354e-05 -2.21459e-06
-1.00445e-05 -2.21459e-06 -8.65425e-05
0.00141121 7.05974e-05 -4.58822e-06
7.05974e-05 6.81048e-05 -6.85383e-07
-4.58822e-06 -6.85383e-07 -5.19791e-05
0.00145868 2.9635e-05 -4.60546e-06
2.9635e-05 7.46405e-05 -9.5004e-07
-4.60546e-06 -9.5004e-07 -4.59438e-05
0.00120597 1.72478e-05 -1.07411e-05
1.72478e-05 1.48334e-05 -9.8509e-07
-1.07411e-05 -9.8509e-07 -9.08006e-05
0.000700742 1.11765e-05 -1.56952e-05
1.11765e-05 -0.000100766 -2.23986e-07
-1.56952e-05 -2.23986e-07 -0.000162651
0.00119812 1.52652e-06 1.96647e-08
1.52652e-06 8.89271e-06 -1.0688e-07
1.96647e-08 -1.0688e-07 -9.65813e-05
0.00146032 2.01267e-05 -6.65873e-08
2.01267e-05 6.69958e-05 -1.34946e-07
-6.65873e-08 -1.34946e-07 -5.39937e-05
0.0014382 4.78938e-05 8.38665e-08
4.78938e-05 7.7043e-05 -5.20409e-08
8.38665e-08 -5.20409e-08 -4.2772e-05
0.00160072 3.31233e-05 -1.33184e-07
3.31233e-05 9.27503e-05 4.30916e-08
-1.33184e-07 4.30916e-08 -2.50252e-05
0.00141528 9.24098e-05 -1.4374e-07
9.24098e-05 7.16188e-05 -1.35627e-07
-1.4374e-07 -1.35627e-07 -5.15759e-05
0.0015494 7.65021e-05 -1.63454e-07
7.65021e-05 9.43224e-05 2.69143e-07
-1.63454e-07 2.69143e-07 -2.71275e-05
0.00145599 6.18583e-06 4.61346e-06
6.18583e-06 6.3751e-05 -7.89292e-08
4.61346e-06 -7.89292e-08 -5.70979e-05
0.00162854 2.54331e-05 5.31763e-08
2.54331e-05 8.86608e-05 2.58299e-07
5.31763e-08 2.58299e-07 -2.89278e-05
0.00153701 5.47675e-05 7.05425e-07
5.47675e-05 7.40325e-05 1.5493e-07
7.05425e-07 1.5493e-07 -4.55647e-05
0.00171413 4.06525e-05 -7.30293e-07
4.06525e-05 0.00010275 1.27213e-07
-7.30293e-07 1.27213e-07 -6.96057e-06
0.00158557 9.43007e-05 1.08575e-06
9.43007e-05 0.000116132 -4.97535e-07
1.08575e-06 -4.97535e-07 -9.96106e-06
0.00164768 7.96008e-05 -2.38364e-06
7.96008e-05 9.89042e-05 -2.49674e-07
-2.38364e-06 -2.49674e-07 -1.11737e-05
0.000783758 -1.48435e-06 -1.0356e-05
-1.48435e-06 -0.000213722 6.56925e-07
-1.0356e-05 6.56925e-07 -0.000320924
0.00163859 -4.38642e-05 -1.67262e-05
-4.38642e-05 0.000275574 2.27216e-06
-1.67262e-05 2.27216e-06 0.000178211
0.00168109 -1.32052e-05 -7.29453e-06
-1.32052e-05 0.000199842 1.10609e-06
-7.29453e-06 1.10609e-06 8.53699e-05
0.00188565 -8.08287e-05 -4.74142e-06
-8.08287e-05 0.000337083 1.0723e-06
-4.74142e-06 1.0723e-06 0.000223194
0.000645379 2.12799e-05 -5.26347e-06
2.12799e-05 -1.42632e-05 5.81637e-06
-5.26347e-06 5.81637e-06 -5.32774e-05
0.00090953 -7.92949e-05 -3.99529e-06
-7.92949e-05 0.000113248 2.42783e-06
-3.99529e-06 2.42783e-06 2.11082e-05
0.000891259 -0.000131698 -8.78011e-07
-0.000131698 4.60315e-05 7.27142e-07
-8.78011e-07 7.27142e-07 -7.92118e-05
0.00183098 -0.000131773 -6.84497e-06
-0.000131773 0.000330355 1.54811e-06
-6.84497e-06 1.54811e-06 0.000211739
0.00141099 -9.22427e-05 -1.623e-06
-9.22427e-05 2.95838e-05 6.69716e-07
-1.623e-06 6.69716e-07 -8.80006e-05
0.00140257 -0.000141031 -2.33761e-06
-0.000141031 6.79781e-05 3.82243e-08
-2.33761e-06 3.82243e-08 -6.27898e-05
0.00108463 -0.000157131 -3.04659e-06
-0.000157131 2.05087e-05 1.93863e-06
-3.04659e-06 1.93863e-06 -0.000131231
0.00123606 -0.000155877 9.28062e-07
-0.000155877 -2.04714e-05 -1.14168e-06
9.28062e-07 -1.14168e-06 -0.000159164
0.000708495 -2.05366e-05 -2.41586e-06
-2.05366e-05 5.79506e-06 2.32315e-06
-2.41586e-06 2.32315e-06 -7.32228e-05
0.00072393 -8.0905e-06 -1.24813e-06
-8.0905e-06 1.04134e-05 5.78155e-08
-1.24813e-06 5.78155e-08 -8.26026e-05
0.000705015 1.46178e-05 -1.01483e-06
1.46178e-05 -3.86528e-06 2.40477e-06
-1.01483e-06 2.40477e-06 -6.17852e-05
0.00166066 -2.5102e-06 -2.26329e-06
-2.5102e-06 0.000180225 9.14171e-08
-2.26329e-06 9.14171e-08 6.20198e-05
0.00167272 -4.98515e-05 -1.36838e-06
-4.98515e-05 0.000203712 1.96149e-07
-1.36838e-06 1.96149e-07 8.78973e-05
0.00163276 -1.73925e-05 -7.09162e-07
-1.73925e-05 0.000116572 2.81868e-07
-7.09162e-07 2.81868e-07 1.61183e-07
0.00166802 -7.07937e-05 -2.18007e-07
-7.07937e-05 0.000161143 -1.87555e-07
-2.18007e-07 -1.87555e-07 4.27094e-05
0.000773998 -4.63779e-05 2.91896e-09
-4.63779e-05 4.60763e-05 -1.94248e-07
2.91896e-09 -1.94248e-07 -4.1001e-05
0.000996807 -0.000129976 -3.24197e-07
-0.000129976 0.000138752 4.88884e-07
-3.24197e-07 4.88884e-07 2.27856e-05
0.000829324 -0.000142043 8.30019e-07
-0.000142043 -1.62779e-05 -1.54165e-06
8.30019e-07 -1.54165e-06 -0.000164408
0.0015912 -0.000128274 3.72177e-07
-0.000128274 0.000141864 -2.98189e-08
3.72177e-07 -2.98189e-08 1.89076e-05
0.00162539 -9.33894e-05 2.57984e-07
-9.33894e-05 0.000109635 4.44891e-07
2.57984e-07 4.44891e-07 -7.51314e-07
0.00143226 -0.000186665 -3.76337e-07
-0.000186665 0.000171598 6.49912e-07
-3.76337e-07 6.49912e-07 1.12281e-05
0.00155317 -0.000149161 -7.38526e-09
-0.000149161 9.86672e-05 8.06105e-08
-7.38526e-09 8.06105e-08 -2.81556e-05
0.0016867 -0.000180905 7.49797e-07
-0.000180905 0.000178835 -1.06626e-07
7.49797e-07 -1.06626e-07 4.91476e-05
0.000913581 -7.51675e-05 -2.17724e-07
-7.51675e-05 0.000111086 -9.26445e-08
-2.17724e-07 -9.26445e-08 1.14299e-05
0.000941826 -0.000111392 -3.56727e-07
-0.000111392 0.000136852 3.78816e-07
-3.56727e-07 3.78816e-07 2.60929e-05
0.000725314 1.30585e-05 1.54871e-07
1.30585e-05 5.12879e-06 1.0873e-07
1.54871e-07 1.0873e-07 -4.6206e-05
0.000681031 1.96414e-05 -9.38759e-08
1.96414e-05 -1.20307e-05 -5.35681e-07
-9.38759e-08 -5.35681e-07 -9.69139e-05
0.00165132 -7.03635e-06 1.20706e-06
-7.03635e-06 0.000116894 -5.61932e-07
1.20706e-06 -5.61932e-07 -1.78438e-06
0.0018361 -4.57295e-05 5.77873e-07
-4.57295e-05 0.000236738 2.93952e-07
5.77873e-07 2.93952e-07 0.000119596
0.00171636 -3.06022e-05 9.3571e-08
-3.06022e-05 0.000109524 1.88043e-07
9.3571e-08 1.88043e-07 -2.77375e-06
0.00167323 -7.51544e-05 -2.23069e-06
-7.51544e-05 0.000119179 -3.53673e-07
-2.23069e-06 -3.53673e-07 1.13674e-05
0.00158981 -0.000123203 -1.38001e-06
-0.000123203 9.54696e-05 1.12584e-06
-1.38001e-06 1.12584e-06 -2.06418e-05
0.00168647 -9.38045e-05 -4.00461e-07
-9.38045e-05 0.000104724 2.11533e-07
-4.00461e-07 2.11533e-07 3.33613e-06
0.000860757 -0.00011449 1.09104e-06
-0.00011449 7.88217e-05 3.36869e-07
1.09104e-06 3.36869e-07 -2.6711e-05
0.00164619 -0.000157562 -3.70205e-06
-0.000157562 0.000110957 6.72975e-07
-3.70205e-06 6.72975e-07 -4.69512e-06
0.000515734 -0.000112523 -6.20299e-07
-0.000112523 -0.000123674 -2.79749e-06
-6.20299e-07 -2.79749e-06 -0.000256348
0.00134195 -0.000186068 2.60927e-06
-0.000186068 0.000228104 -2.3699e-06
2.60927e-06 -2.3699e-06 5.85694e-05
0.0017061 -0.000208087 -1.17805e-06
-0.000208087 0.000274411 2.42196e-06
-1.17805e-06 2.42196e-06 0.000116339
0.0019029 -0.000195015 -1.45229e-06
-0.000195015 0.000260014 4.09188e-07
-1.45229e-06 4.09188e-07 0.000135872
0.000731896 8.48805e-06 1.89039e-06
8.48805e-06 5.51213e-06 -1.97421e-06
1.89039e-06 -1.97421e-06 -4.14858e-05
0.000676077 9.04686e-06 2.83869e-07
9.04686e-06 -6.89579e-06 -1.21245e-06
2.83869e-07 -1.21245e-06 -9.03908e-05
0.000918409 -0.000127764 1.20881e-08
-0.000127764 0.000119549 1.58409e-06
1.20881e-08 1.58409e-06 6.28017e-06
0.000922461 -8.01479e-05 1.09768e-06
-8.01479e-05 0.000128133 1.58163e-07
1.09768e-06 1.58163e-07 2.64044e-05
0.000936471 -0.000129437 -1.01476e-06
-0.000129437 0.000133811 2.33679e-06
-1.01476e-06 2.33679e-06 1.80383e-05
0.000640215 -4.54452e-05 -1.95611e-06
-4.54452e-05 -3.33265e-05 -3.44213e-06
-1.95611e-06 -3.44213e-06 -4.68451e-05
0.00141098 0.000117354 -4.14782e-06
0.000117354 7.99674e-05 -1.30771e-06
-4.14782e-06 -1.30771e-06 -4.89543e-05
0.000693064 -6.0882e-05 -3.5978e-07
-6.0882e-05 1.52635e-06 -1.78942e-06
-3.5978e-07 -1.78942e-06 -4.78931e-05
0.000763876 -5.29641e-07 -1.99584e-07
-5.29641e-07 4.42407e-05 -2.73679e-06
-1.99584e-07 -2.73679e-06 -3.13188e-05
0.000822373 -8.65158e-06 9.62938e-07
-8.65158e-06 7.85547e-05 -8.92773e-07
9.62938e-07 -8.92773e-07 -9.23929e-06
0.00122991 0.000151447 -4.51991e-06
0.000151447 7.75584e-05 -2.88542e-06
-4.51991e-06 -2.88542e-06 -5.77128e-05
0.00142948 0.000150524 -2.31396e-06
0.000150524 6.70199e-05 -4.78702e-07
-2.31396e-06 -4.78702e-07 -7.68161e-05
0.000884707 0.000115299 -1.34941e-06
0.000115299 9.70968e-05 -8.73896e-07
-1.34941e-06 -8.73896e-07 -1.76385e-05
0.00131137 0.000168535 -1.73216e-06
0.000168535 0.000297264 -1.38932e-06
-1.73216e-06 -1.38932e-06 0.000144616
0.0016853 0.00018858 -1.65726e-06
0.00018858 0.000359356 -3.86804e-06
-1.65726e-06 -3.86804e-06 0.000218668
0.00103372 0.000156722 -3.43728e-06
0.000156722 6.28315e-05 8.14649e-07
-3.43728e-06 8.14649e-07 -7.12619e-05
0.000672599 -4.1412e-05 5.93248e-08
-4.1412e-05 -2.48078e-05 1.49218e-08
5.93248e-08 1.49218e-08 -3.54305e-05
0.000720743 -5.01764e-05 -3.14432e-07
-5.01764e-05 6.964e-06 1.24815e-07
-3.14432e-07 1.24815e-07 -3.40661e-05
0.000919647 6.48568e-05 6.30989e-07
6.48568e-05 0.000125064 -5.20005e-08
6.30989e-07 -5.20005e-08 2.33296e-05
0.000782019 -1.79474e-05 -2.52854e-07
-1.79474e-05 5.07217e-05 1.73912e-07
-2.52854e-07 1.73912e-07 -2.29509e-05
0.00082279 5.99882e-05 7.02125e-07
5.99882e-05 8.93012e-05 -2.72466e-07
7.02125e-07 -2.72466e-07 -1.67428e-05
0.00152107 0.000121971 1.28359e-06
0.000121971 8.88435e-05 3.79307e-08
1.28359e-06 3.79307e-08 -4.64085e-05
0.00137317 0.000168432 -1.36576e-07
0.000168432 0.000104179 1.21382e-06
-1.36576e-07 1.21382e-06 -4.19257e-05
0.00159087 0.000167741 1.29273e-06
0.000167741 0.000119212 6.72414e-07
1.29273e-06 6.72414e-07 -2.56543e-05
0.00100161 0.000138783 1.22071e-06
0.000138783 0.000167716 1.28303e-06
1.22071e-06 1.28303e-06 2.50463e-05
0.00148966 0.000186958 1.20259e-06
0.000186958 0.000229058 -1.61652e-06
1.20259e-06 -1.61652e-06 8.56614e-05
0.000763571 0.000141637 -1.86749e-06
0.000141637 -4.21884e-05 -1.08503e-06
-1.86749e-06 -1.08503e-06 -0.000203063
0.000739773 -3.77771e-05 1.44229e-06
-3.77771e-05 8.7015e-06 1.52385e-06
1.44229e-06 1.52385e-06 -2.7698e-05
0.000793828 6.87986e-06 3.99007e-07
6.87986e-06 4.75767e-05 1.02259e-06
3.99007e-07 1.02259e-06 -1.37842e-05
0.00100852 0.000130194 -4.64762e-07
0.000130194 0.000183393 -3.36934e-07
-4.64762e-07 -3.36934e-07 5.81319e-05
0.000843972 1.3079e-05 2.71118e-07
1.3079e-05 9.49808e-05 5.24605e-07
2.71118e-07 5.24605e-07 5.23436e-06
0.00108026 6.68533e-05 -1.38333e-06
6.68533e-05 0.000227052 -2.67979e-06
-1.38333e-06 -2.67979e-06 0.000112296
0.0015494 0.000120328 -1.99292e-06
0.000120328 7.1736e-05 -2.21906e-06
-1.99292e-06 -2.21906e-06 -5.86145e-05
0.00139791 0.000181379 8.95199e-07
0.000181379 8.007e-05 3.73056e-06
8.95199e-07 3.73056e-06 -6.81553e-05
0.00147173 0.000178651 -2.88822e-06
0.000178651 2.6208e-05 -9.50378e-07
-2.88822e-06 -9.50378e-07 -0.00010988
0.000883371 0.000138047 -2.01281e-07
0.000138047 0.000111924 1.44479e-06
-2.01281e-07 1.44479e-06 -5.79962e-05
0.00128065 0.000188893 2.57606e-06
0.000188893 0.000140888 4.40478e-07
2.57606e-06 4.40478e-07 -1.85395e-05
0.000745796 -2.9524e-05 1.65558e-08
-2.9524e-05 6.35235e-06 -6.86729e-09
1.65558e-08 -6.86729e-09 -2.78395e-05
0.000659734 -1.23006e-05 1.1526e-06
-1.23006e-05 -3.47141e-05 9.57784e-07
1.1526e-06 9.57784e-07 -8.7269e-05
0.000710622 -2.32177e-05 -6.52934e-07
-2.32177e-05 -4.87113e-06 -7.31497e-08
-6.52934e-07 -7.31497e-08 -5.83241e-05
0.000955392 2.42004e-05 1.19519e-06
2.42004e-05 0.000142593 -4.04856e-07
1.19519e-06 -4.04856e-07 7.63273e-05
0.000797365 2.17689e-05 1.72441e-06
2.17689e-05 4.11876e-05 6.84202e-07
1.72441e-06 6.84202e-07 -1.21197e-05
0.000761055 -8.40219e-06 9.92731e-07
-8.40219e-06 4.9981e-06 1.71301e-06
9.92731e-07 1.71301e-06 -2.75653e-05
0.000761133 -1.92201e-05 -6.59367e-08
-1.92201e-05 7.56963e-06 4.37239e-09
-6.59367e-08 4.37239e-09 -2.49193e-05
0.00125647 -3.23293e-05 1.08439e-06
-3.23293e-05 0.000280858 2.09932e-06
1.08439e-06 2.09932e-06 0.00027884
0.000757235 -2.43427e-05 -1.23846e-06
-2.43427e-05 9.12077e-06 -1.74493e-06
-1.23846e-06 -1.74493e-06 -2.40814e-05
0.00127436 -3.77283e-05 -4.41703e-06
-3.77283e-05 0.000296454 -1.18856e-06
-4.41703e-06 -1.18856e-06 0.000293209
0.000943371 -2.97424e-05 2.03914e-05
-2.97424e-05 0.000115981 6.38158e-06
2.03914e-05 6.38158e-06 0.000127953
0.00126443 -4.22683e-05 -9.71828e-06
-4.22683e-05 0.000298285 -3.122e-06
-9.71828e-06 -3.122e-06 0.000293303
0.00148353 -4.42937e-05 1.86401e-05
-4.42937e-05 0.000426821 1.95219e-06
1.86401e-05 1.95219e-06 0.0004397
0.00207331 -6.05321e-05 -2.64322e-05
-6.05321e-05 0.000763455 -3.32519e-06
-2.64322e-05 -3.32519e-06 0.000777467
0.000648849 3.87719e-05 1.63377e-06
3.87719e-05 -3.8788e-05 -3.95296e-06
1.63377e-06 -3.95296e-06 -5.50514e-05
0.000648803 4.52082e-05 -1.09518e-07
4.52082e-05 -3.05936e-05 3.43576e-08
-1.09518e-07 3.43576e-08 -5.07105e-05
0.00243092 7.31264e-05 3.39843e-05
7.31264e-05 0.000968587 -3.47708e-06
3.39843e-05 -3.47708e-06 0.000977782
0.00258608 8.20289e-05 -1.75761e-06
8.20289e-05 0.00106159 -1.63062e-07
-1.75761e-06 -1.63062e-07 0.00106833
0.000649143 5.6285e-05 -2.12807e-07
5.6285e-05 -1.99772e-05 4.88455e-06
-2.12807e-07 4.88455e-06 -4.52938e-05
0.00277079 8.77626e-05 -5.41938e-05
8.77626e-05 0.00116778 2.97675e-06
-5.41938e-05 2.97675e-06 0.00117283
0.00142648 9.31688e-05 -4.91265e-06
9.31688e-05 7.68044e-05 -9.57663e-07
-4.91265e-06 -9.57663e-07 -4.64778e-05
0.00142743 4.86043e-05 -4.51687e-06
4.86043e-05 7.1733e-05 -1.21028e-06
-4.51687e-06 -1.21028e-06 -4.83118e-05
0.00154319 7.66663e-05 -9.36186e-07
7.66663e-05 9.29173e-05 3.9053e-07
-9.36186e-07 3.9053e-07 -2.86753e-05
0.00161357 3.38849e-05 -6.26787e-07
3.38849e-05 9.88004e-05 -1.50523e-07
-6.26787e-07 -1.50523e-07 -1.82122e-05
0.00145939 2.33786e-05 -4.36686e-06
2.33786e-05 6.68787e-05 -4.97957e-07
-4.36686e-06 -4.97957e-07 -5.41996e-05
0.00120312 6.4031e-06 -1.05394e-05
6.4031e-06 1.12973e-05 -7.82505e-08
-1.05394e-05 -7.82505e-08 -9.41467e-05
0.00146505 1.00597e-05 7.72347e-08
1.00597e-05 6.85102e-05 -7.39283e-08
7.72347e-08 -7.39283e-08 -5.23927e-05
0.00163211 1.54882e-05 -3.26141e-07
1.54882e-05 9.03403e-05 -1.05212e-08
-3.26141e-07 -1.05212e-08 -2.72355e-05
0.00156494 5.40592e-05 -3.66847e-08
5.40592e-05 9.10439e-05 -7.36139e-08
-3.66847e-08 -7.36139e-08 -2.85e-05
0.00175252 4.29414e-05 4.13568e-07
4.29414e-05 0.000121578 3.24857e-07
4.13568e-07 3.24857e-07 1.35379e-05
0.00153593 9.41657e-05 -1.74893e-07
9.41657e-05 8.89292e-05 -3.24412e-08
-1.74893e-07 -3.24412e-08 -3.75387e-05
0.00163205 7.92097e-05 -8.84421e-08
7.92097e-05 9.01207e-05 5.27729e-07
-8.84421e-08 5.27729e-07 -1.87059e-05
0.00163709 -5.20392e-07 8.15742e-07
-5.20392e-07 9.72353e-05 7.97252e-08
8.15742e-07 7.97252e-08 -2.09313e-05
0.00176228 3.43881e-05 -4.30551e-07
3.43881e-05 0.00010778 4.74093e-07
-4.30551e-07 4.74093e-07 -2.58599e-06
0.00167374 6.2106e-05 -2.18598e-06
6.2106e-05 9.36666e-05 -1.3572e-07
-2.18598e-06 -1.3572e-07 -1.26525e-05
0.00181515 4.96444e-05 -3.63251e-07
4.96444e-05 0.000132368 1.08394e-07
-3.63251e-07 1.08394e-07 3.23577e-05
0.00156818 8.76748e-05 -1.81775e-06
8.76748e-05 6.16872e-05 -1.45941e-06
-1.81775e-06 -1.45941e-06 -5.47952e-05
0.00187598 8.76791e-05 -4.4255e-07
8.76791e-05 0.000182551 -4.57092e-08
-4.4255e-07 -4.57092e-08 8.44608e-05
0.00147032 -1.70072e-06 -6.35019e-06
-1.70072e-06 7.40098e-05 7.53177e-07
-6.35019e-06 7.53177e-07 -4.59687e-05
0.00166526 -5.14993e-05 -6.5566e-06
-5.14993e-05 0.000199896 1.06143e-06
-6.5566e-06 1.06143e-06 8.38369e-05
0.00150506 -1.60433e-05 -1.7413e-06
-1.60433e-05 4.43748e-05 3.47457e-07
-1.7413e-06 3.47457e-07 -7.17983e-05
0.00175561 -7.04004e-05 -1.38348e-06
-7.04004e-05 0.000207046 4.45935e-07
-1.38348e-06 4.45935e-07 8.89558e-05
0.000827794 -5.44696e-05 -3.10054e-06
-5.44696e-05 7.37446e-05 2.01058e-06
-3.10054e-06 2.01058e-06 -1.34198e-05
0.00111653 -0.000138443 -1.83376e-06
-0.000138443 0.000201972 1.60132e-06
-1.83376e-06 1.60132e-06 8.47963e-05
0.000951407 -0.000146686 -9.89234e-07
-0.000146686 5.69807e-05 1.01782e-06
-9.89234e-07 1.01782e-06 -8.92176e-05
0.00172771 -0.000132453 -2.05375e-06
-0.000132453 0.00021881 8.61365e-08
-2.05375e-06 8.61365e-08 9.56779e-05
0.00154986 -9.0467e-05 1.75273e-06
-9.0467e-05 6.71041e-05 -8.94201e-08
1.75273e-06 -8.94201e-08 -4.18398e-05
0.00158689 -0.000149616 5.37909e-07
-0.000149616 0.000115453 -6.68898e-07
5.37909e-07 -6.68898e-07 -1.12701e-05
0.00114633 -0.000171358 -1.82252e-06
-0.000171358 1.86302e-05 5.64268e-07
-1.82252e-06 5.64268e-07 -0.000142297
0.00144857 -0.000169753 4.47029e-06
-0.000169753 4.76777e-05 -2.17031e-06
4.47029e-06 -2.17031e-06 -7.95232e-05
0.000934336 -6.74184e-05 -1.20916e-06
-6.74184e-05 0.000122127 -3.75453e-07
-1.20916e-06 -3.75453e-07 2.32332e-05
0.000883978 -8.23741e-05 -7.28179e-07
-8.23741e-05 9.86746e-05 -7.01761e-07
-7.28179e-07 -7.01761e-07 -7.79192e-06
0.000724763 1.06131e-05 -1.44934e-06
1.06131e-05 4.50173e-06 2.07655e-06
-1.44934e-06 2.07655e-06 -4.68739e-05
0.000662726 3.18223e-05 1.6968e-07
3.18223e-05 -2.42081e-05 1.61043e-07
1.6968e-07 1.61043e-07 -0.000106362
0.0016162 -6.55124e-06 -4.06764e-08
-6.55124e-06 9.63047e-05 -2.32673e-07
-4.06764e-08 -2.32673e-07 -2.2446e-05
0.00177745 -4.33188e-05 -6.98583e-07
-4.33188e-05 0.000203271 2.71487e-07
-6.98583e-07 2.71487e-07 8.53489e-05
0.00168539 -2.97207e-05 -6.08878e-08
-2.97207e-05 9.64797e-05 -1.19847e-07
-6.08878e-08 -1.19847e-07 -1.54495e-05
0.00162694 -7.37576e-05 -2.55801e-07
-7.37576e-05 9.78295e-05 -1.04528e-07
-2.55801e-07 -1.04528e-07 -1.12389e-05
0.000957476 -0.000105566 -3.09546e-07
-0.000105566 0.00012841 3.17956e-07
-3.09546e-07 3.17956e-07 2.41203e-05
0.000663313 -0.000120383 6.6861e-07
-0.000120383 -4.15624e-05 -9.38347e-07
6.6861e-07 -9.38347e-07 -0.000172507
0.0012769 -0.000180864 -2.35231e-07
-0.000180864 0.000195675 2.94584e-07
-2.35231e-07 2.94584e-07 2.50956e-05
0.00165226 -0.000126144 -5.8612e-07
-0.000126144 0.000130032 2.42088e-07
-5.8612e-07 2.42088e-07 1.26718e-05
0.00163952 -9.29263e-05 1.02757e-06
-9.29263e-05 7.96812e-05 -3.70651e-07
1.02757e-06 -3.70651e-07 -2.03296e-05
0.00161302 -0.000202329 -7.6638e-07
-0.000202329 0.000221808 1.22021e-06
-7.6638e-07 1.22021e-06 6.40443e-05
0.00163718 -0.000157051 -5.02571e-07
-0.000157051 0.000105445 1.14611e-07
-5.02571e-07 1.14611e-07 -1.02601e-05
0.00168396 -0.00018388 2.35801e-06
-0.00018388 0.000141994 -1.60989e-06
2.35801e-06 -1.60989e-06 1.98064e-05
0.00098584 -0.000132318 1.25464e-07
-0.000132318 0.00015602 1.22577e-07
1.25464e-07 1.22577e-07 4.22439e-05
0.000977952 -0.000124339 2.86311e-07
-0.000124339 0.000153329 3.40353e-07
2.86311e-07 3.40353e-07 3.90315e-05
0.000886123 -5.44064e-05 -3.05667e-07
-5.44064e-05 0.000105197 -9.53592e-08
-3.05667e-07 -9.53592e-08 6.29092e-06
0.000606697 1.89055e-05 -4.43829e-07
1.89055e-05 -6.28935e-05 5.43563e-08
-4.43829e-07 5.43563e-08 -0.000111343
0.000661746 2.53331e-05 1.16853e-07
2.53331e-05 -1.96324e-05 -4.09836e-07
1.16853e-07 -4.09836e-07 -9.9001e-05
0.00177595 -1.97064e-05 8.05902e-08
-1.97064e-05 0.000121402 -9.32844e-08
8.05902e-08 -9.32844e-08 1.08206e-05
0.00170491 -4.50253e-05 -5.05342e-07
-4.50253e-05 0.000100583 2.45625e-07
-5.05342e-07 2.45625e-07 -7.94893e-06
0.00171648 -8.64679e-05 -1.45919e-06
-8.64679e-05 0.000101916 -3.97447e-07
-1.45919e-06 -3.97447e-07 7.83552e-06
0.0015828 -0.000118711 -1.53843e-06
-0.000118711 4.36418e-05 7.17228e-07
-1.53843e-06 7.17228e-07 -5.95269e-05
0.000875582 -0.000127631 -6.31342e-07
-0.000127631 9.26644e-05 8.41966e-07
-6.31342e-07 8.41966e-07 -2.54856e-05
0.00200595 -0.0001857 -2.0569e-06
-0.0001857 0.000265159 5.04559e-07
-2.0569e-06 5.04559e-07 0.000154613
0.000134808 -9.25346e-05 -7.16004e-08
-9.25346e-05 -0.000326163 -4.35484e-06
-7.16004e-08 -4.35484e-06 -0.000470584
0.00151469 -0.000208675 3.02288e-06
-0.000208675 0.000281241 -9.06291e-07
3.02288e-06 -9.06291e-07 9.67075e-05
0.00188767 -0.000222329 -3.11074e-07
-0.000222329 0.000294206 1.08157e-06
-3.11074e-07 1.08157e-06 0.000145932
0.000484969 2.17651e-05 1.29612e-06
2.17651e-05 -0.00013268 -2.70742e-06
1.29612e-06 -2.70742e-06 -0.000178752
0.000887791 -6.72108e-06 1.43259e-06
-6.72108e-06 0.000107933 -6.75113e-07
1.43259e-06 -6.75113e-07 3.33141e-05
0.00093853 -3.59976e-05 -2.01001e-07
-3.59976e-05 0.000137658 1.31455e-07
-2.01001e-07 1.31455e-07 4.67155e-05
0.000957158 -0.000131696 -1.4598e-06
-0.000131696 0.000137654 2.28008e-06
-1.4598e-06 2.28008e-06 2.22461e-05
0.000989249 -8.39317e-05 4.24227e-07
-8.39317e-05 0.000160066 1.608e-06
4.24227e-07 1.608e-06 5.20278e-05
0.000872233 -0.000126716 -6.53035e-07
-0.000126716 8.80752e-05 1.90132e-06
-6.53035e-07 1.90132e-06 -2.80697e-05
0.000656123 -4.04292e-05 -1.69627e-06
-4.04292e-05 -3.37686e-05 -3.42245e-06
-1.69627e-06 -3.42245e-06 -4.42935e-05
0.000721227 -4.75498e-05 -1.59439e-06
-4.75498e-05 6.38504e-06 -1.368e-06
-1.59439e-06 -1.368e-06 -3.40907e-05
0.00147719 0.000121051 -1.07859e-06
0.000121051 6.53952e-05 -7.89108e-08
-1.07859e-06 -7.89108e-08 -7.01712e-05
0.000785904 -5.30882e-05 6.52646e-07
-5.30882e-05 5.12579e-05 -1.04894e-06
6.52646e-07 -1.04894e-06 -2.05721e-05
0.000824285 5.68572e-05 -1.39899e-07
5.68572e-05 7.16315e-05 -2.95134e-07
-1.39899e-07 -2.95134e-07 -2.77858e-05
0.000728985 3.595e-05 1.08973e-06
3.595e-05 3.38766e-05 1.59528e-07
1.08973e-06 1.59528e-07 -7.02185e-05
0.00130797 0.000166035 -2.04076e-06
0.000166035 7.10316e-05 -1.6666e-06
-2.04076e-06 -1.6666e-06 -7.51643e-05
0.00159572 0.000169563 4.62121e-07
0.000169563 0.000121626 2.83491e-07
4.62121e-07 2.83491e-07 -2.39528e-05
0.000977806 0.000136746 3.4419e-07
0.000136746 0.000157576 -3.7545e-07
3.4419e-07 -3.7545e-07 1.56005e-05
0.00125739 0.000173345 -3.22963e-07
0.000173345 0.000222228 -1.17855e-07
-3.22963e-07 -1.17855e-07 5.96338e-05
0.00166073 0.000195555 -2.64098e-06
0.000195555 0.000322837 -4.15445e-06
-2.64098e-06 -4.15445e-06 0.000179546
0.000739417 -3.68341e-05 -8.56331e-08
-3.68341e-05 8.52831e-06 1.74032e-08
-8.56331e-08 1.74032e-08 -2.77988e-05
0.000777248 -2.5986e-05 -5.32495e-07
-2.5986e-05 3.82678e-05 3.09587e-07
-5.32495e-07 3.09587e-07 -2.23967e-05
0.000991079 0.000129075 -5.32965e-07
0.000129075 0.000176512 -3.21161e-08
-5.32965e-07 -3.21161e-08 5.13478e-05
0.000826383 -1.0827e-05 2.83163e-07
-1.0827e-05 8.2138e-05 3.39221e-08
2.83163e-07 3.39221e-08 -5.18175e-06
0.000901205 7.12086e-05 9.22931e-08
7.12086e-05 0.00013338 -5.81512e-07
9.22931e-08 -5.81512e-07 1.64598e-05
0.00159541 0.000124485 -9.75988e-07
0.000124485 9.7194e-05 -9.40416e-07
-9.75988e-07 -9.40416e-07 -3.4112e-05
0.00146466 0.000184187 1.07232e-06
0.000184187 0.000115906 1.14747e-06
1.07232e-06 1.14747e-06 -3.26821e-05
0.00152665 0.000178054 7.57363e-07
0.000178054 5.56382e-05 4.50773e-07
7.57363e-07 4.50773e-07 -7.78386e-05
0.000712499 0.000128292 4.7127e-07
0.000128292 1.38804e-05 2.13508e-06
4.7127e-07 2.13508e-06 -0.000153309
0.00141117 0.000197461 -1.18329e-06
0.000197461 0.000213229 -6.85271e-07
-1.18329e-06 -6.85271e-07 5.01658e-05
0.000793259 3.88606e-06 9.80779e-07
3.88606e-06 4.19242e-05 6.51014e-07
9.80779e-07 6.51014e-07 -1.21718e-05
0.000650883 -3.29009e-05 -9.31438e-07
-3.29009e-05 -2.20082e-05 1.40535e-06
-9.31438e-07 1.40535e-06 -9.80252e-05
0.000937188 0.000133892 -1.81803e-06
0.000133892 0.000146672 -2.05642e-06
-1.81803e-06 -2.05642e-06 3.77027e-06
0.000678819 2.30131e-05 -9.14303e-07
2.30131e-05 9.80697e-06 -7.5765e-07
-9.14303e-07 -7.5765e-07 -9.67792e-05
0.00100561 0.000106217 -9.67847e-07
0.000106217 0.000183334 -2.33895e-06
-9.67847e-07 -2.33895e-06 5.7639e-05
0.0015796 0.000133791 -3.49044e-06
0.000133791 2.69787e-05 -2.28096e-06
-3.49044e-06 -2.28096e-06 -7.72725e-05
0.00196607 0.000228441 -9.63141e-07
0.000228441 0.000362297 8.9045e-07
-9.63141e-07 8.9045e-07 0.000208575
0.00127853 0.000168741 -3.32582e-07
0.000168741 -0.000103778 -1.84906e-07
-3.32582e-07 -1.84906e-07 -0.000226494
0.00184942 0.000205797 2.79323e-06
0.000205797 0.000593911 4.21594e-06
2.79323e-06 4.21594e-06 0.000403961
0.000296752 0.000143748 -8.545e-07
0.000143748 -0.000412244 -3.22555e-07
-8.545e-07 -3.22555e-07 -0.000577941
0.000747732 -2.82485e-05 -1.66995e-06
-2.82485e-05 7.83265e-06 -1.52545e-06
-1.66995e-06 -1.52545e-06 -2.64003e-05
0.000720516 -1.09874e-05 1.7327e-07
-1.09874e-05 4.01713e-07 4.47046e-07
1.7327e-07 4.47046e-07 -5.26934e-05
0.00070169 -3.93745e-05 -2.04694e-07
-3.93745e-05 -2.14079e-06 4.33295e-07
-2.04694e-07 4.33295e-07 -6.6009e-05
0.00065026 -4.51398e-05 -9.46663e-07
-4.51398e-05 -3.87457e-05 -4.55421e-07
-9.46663e-07 -4.55421e-07 -9.20922e-05
0.00079169 -2.60302e-06 1.30463e-07
-2.60302e-06 3.75378e-05 -9.15463e-09
1.30463e-07 -9.15463e-09 -1.52545e-05
0.000811969 -1.22791e-05 1.28829e-07
-1.22791e-05 5.81636e-05 -3.32614e-07
1.28829e-07 -3.32614e-07 -4.39735e-06
0.000909264 1.02334e-05 4.60299e-08
1.02334e-05 0.000119128 -7.76653e-07
4.60299e-08 -7.76653e-07 4.88776e-05
0.00072725 -3.48191e-05 6.04297e-07
-3.48191e-05 1.50614e-05 -1.03246e-07
6.04297e-07 -1.03246e-07 -5.03926e-05
0.000819791 3.58412e-06 4.71795e-07
3.58412e-06 4.86897e-05 5.00548e-07
4.71795e-07 5.00548e-07 -2.37998e-06
0.000756703 -4.82766e-07 9.64717e-07
-4.82766e-07 2.82383e-06 1.57523e-06
9.64717e-07 1.57523e-06 -3.0711e-05
0.000762644 -1.21437e-05 -1.66629e-07
-1.21437e-05 6.32997e-06 -3.37271e-09
-1.66629e-07 -3.37271e-09 -2.63566e-05
0.00126061 -2.38544e-05 1.02648e-06
-2.38544e-05 0.000278479 2.04704e-06
1.02648e-06 2.04704e-06 0.000277169
0.000761611 -1.95211e-05 -9.81051e-07
-1.95211e-05 8.12655e-06 -1.78585e-06
-9.81051e-07 -1.78585e-06 -2.44311e-05
0.00127817 -3.0181e-05 -3.75537e-06
-3.0181e-05 0.000292634 -1.23523e-06
-3.75537e-06 -1.23523e-06 0.00029074
0.00094495 -2.45285e-05 1.66224e-05
-2.45285e-05 0.000110709 6.5703e-06
1.66224e-05 6.5703e-06 0.000123889
0.00129467 -3.60838e-05 -8.24302e-06
-3.60838e-05 0.00030726 -4.54055e-06
-8.24302e-06 -4.54055e-06 0.000304169
0.000884506 -3.0911e-05 6.64007e-06
-3.0911e-05 8.34519e-05 2.45715e-06
6.64007e-06 2.45715e-06 9.5109e-05
0.00200341 -5.77064e-05 -6.16594e-06
-5.77064e-05 0.000717327 -1.5353e-06
-6.16594e-06 -1.5353e-06 0.0007325
0.000664809 3.44501e-05 1.20692e-06
3.44501e-05 -3.69855e-05 -3.7814e-06
1.20692e-06 -3.7814e-06 -5.00199e-05
0.000662865 3.97245e-05 -1.51769e-07
3.97245e-05 -3.09159e-05 3.41098e-08
-1.51769e-07 3.41098e-08 -4.73815e-05
0.00234169 6.4172e-05 2.90047e-05
6.4172e-05 0.000911419 -3.70692e-06
2.90047e-05 -3.70692e-06 0.000923114
0.000666628 4.75824e-05 -1.47788e-06
4.75824e-05 -2.00212e-05 4.26686e-06
-1.47788e-06 4.26686e-06 -4.06277e-05
0.00247557 7.35585e-05 -1.80452e-06
7.35585e-05 0.000993905 -1.43555e-07
-1.80452e-06 -1.43555e-07 0.00100289
0.00262467 8.10464e-05 -4.554e-05
8.10464e-05 0.00108275 3.07936e-06
-4.554e-05 3.07936e-06 0.00108969
0.00148478 9.39559e-05 -1.92255e-06
9.39559e-05 6.08503e-05 3.32876e-07
-1.92255e-06 3.32876e-07 -6.59955e-05
0.00159492 5.25191e-05 -5.224e-07
5.25191e-05 0.000109026 -2.66011e-07
-5.224e-07 -2.66011e-07 -1.04101e-05
0.00161015 7.87347e-05 2.37517e-06
7.87347e-05 7.78319e-05 1.10637e-06
2.37517e-06 1.10637e-06 -2.97418e-05
0.00179152 4.51797e-05 1.7401e-06
4.51797e-05 0.000140628 9.09313e-08
1.7401e-06 9.09313e-08 3.42603e-05
0.00163516 8.49063e-06 -9.2944e-07
8.49063e-06 9.18389e-05 -1.54613e-07
-9.2944e-07 -1.54613e-07 -2.57605e-05
0.00147221 1.32264e-05 -4.27712e-06
1.32264e-05 7.22327e-05 -4.47237e-08
-4.27712e-06 -4.47237e-08 -4.86867e-05
0.00162373 2.70178e-06 -2.42084e-07
2.70178e-06 8.98559e-05 -1.52761e-08
-2.42084e-07 -1.52761e-08 -2.90919e-05
0.00175281 2.82214e-05 4.42033e-07
2.82214e-05 0.000104667 -3.08444e-08
4.42033e-07 -3.08444e-08 -6.33458e-06
0.00166249 5.9263e-05 -7.14399e-07
5.9263e-05 8.50372e-05 -1.55625e-07
-7.14399e-07 -1.55625e-07 -2.22405e-05
0.00178347 4.99287e-05 1.05592e-06
4.99287e-05 0.000110435 -9.80529e-08
1.05592e-06 -9.80529e-08 1.16005e-05
0.00157808 8.75628e-05 -6.13562e-07
8.75628e-05 7.1445e-05 1.24292e-07
-6.13562e-07 1.24292e-07 -4.50593e-05
0.00176883 9.02348e-05 2.55647e-06
9.02348e-05 0.000122368 3.92428e-07
2.55647e-06 3.92428e-07 2.5613e-05
0.00176579 3.3629e-06 -4.40827e-07
3.3629e-06 0.000112125 1.72403e-07
-4.40827e-07 1.72403e-07 8.00625e-07
0.00175088 3.87383e-05 -6.0211e-07
3.87383e-05 8.60118e-05 5.06729e-07
-6.0211e-07 5.06729e-07 -1.45526e-05
0.00178816 6.60624e-05 -9.77438e-07
6.60624e-05 0.000105224 -3.65277e-10
-9.77438e-07 -3.65277e-10 1.2065e-05
0.00189339 0.000112067 -1.68737e-06
0.000112067 0.000184325 -7.84851e-07
-1.68737e-06 -7.84851e-07 8.98732e-05
0.00158068 -6.11084e-06 -9.67249e-07
-6.11084e-06 7.55456e-05 1.04155e-07
-9.67249e-07 1.04155e-07 -4.32771e-05
0.00172126 -4.26487e-05 -2.06397e-06
-4.26487e-05 0.000171088 1.71279e-07
-2.06397e-06 1.71279e-07 5.23379e-05
0.00165558 -2.89854e-05 -2.39362e-07
-2.89854e-05 8.40359e-05 -2.16012e-08
-2.39362e-07 -2.16012e-08 -2.75408e-05
0.00158129 -7.18057e-05 1.19077e-06
-7.18057e-05 7.66997e-05 -9.16078e-08
1.19077e-06 -9.16078e-08 -3.35857e-05
0.00106375 -0.000109239 -1.31619e-06
-0.000109239 0.000185757 2.67986e-07
-1.31619e-06 2.67986e-07 8.04665e-05
0.000824184 -0.000129502 1.04308e-06
-0.000129502 4.7779e-05 6.19795e-07
1.04308e-06 6.19795e-07 -8.16197e-05
0.00121101 -0.000175012 -1.83788e-06
-0.000175012 0.000163939 3.26123e-06
-1.83788e-06 3.26123e-06 -8.82369e-06
0.00171505 -0.000128982 -2.21784e-07
-0.000128982 0.000164821 -3.95342e-07
-2.21784e-07 -3.95342e-07 4.62199e-05
0.00159016 -9.22094e-05 2.02121e-06
-9.22094e-05 5.31407e-05 -7.79203e-07
2.02121e-06 -7.79203e-07 -4.55237e-05
0.00161531 -0.000156032 2.9557e-06
-0.000156032 9.31005e-05 -5.41984e-07
2.9557e-06 -5.41984e-07 -2.26496e-05
0.0015292 -0.00019721 -7.33383e-07
-0.00019721 0.000174947 -9.98956e-07
-7.33383e-07 -9.98956e-07 1.73538e-05
0.00148725 -0.000173895 2.81813e-06
-0.000173895 3.64295e-05 -3.21864e-06
2.81813e-06 -3.21864e-06 -8.40242e-05
0.00106489 -0.000137668 3.40642e-07
-0.000137668 0.000199168 -1.23022e-06
3.40642e-07 -1.23022e-06 8.47244e-05
0.00102319 -0.000128261 6.99535e-07
-0.000128261 0.000176565 -2.40048e-06
6.99535e-07 -2.40048e-06 6.20987e-05
0.000837235 -2.92975e-05 2.23727e-07
-2.92975e-05 7.68859e-05 -1.08873e-07
2.23727e-07 -1.08873e-07 -2.00694e-05
0.000480154 2.10868e-05 -1.69442e-06
2.10868e-05 -0.000132401 1.99728e-06
-1.69442e-06 1.99728e-06 -0.000182081
0.000653078 3.84945e-05 8.79099e-08
3.84945e-05 -2.74592e-05 1.93786e-07
8.79099e-08 1.93786e-07 -0.000103991
0.00177009 -2.08082e-05 2.48849e-07
-2.08082e-05 0.000122078 -5.70846e-08
2.48849e-07 -5.70846e-08 1.14258e-05
0.0017319 -4.65435e-05 1.84233e-07
-4.65435e-05 0.000116708 -1.17408e-07
1.84233e-07 -1.17408e-07 8.37165e-06
0.0017101 -8.65327e-05 -7.78152e-07
-8.65327e-05 0.000101186 -7.63633e-08
-7.78152e-07 -7.63633e-08 5.38507e-06
0.00100725 -0.000135889 -6.65917e-08
-0.000135889 0.000162553 5.76022e-07
-6.65917e-08 5.76022e-07 4.33989e-05
0.000704352 -0.000127742 1.70897e-06
-0.000127742 -1.86502e-05 -1.93681e-06
1.70897e-06 -1.93681e-06 -0.000164514
0.00139851 -0.000199412 -5.65199e-07
-0.000199412 0.000221734 6.29229e-07
-5.65199e-07 6.29229e-07 3.46373e-05
0.00164727 -0.000119958 6.98853e-07
-0.000119958 7.84606e-05 -1.02019e-07
6.98853e-07 -1.02019e-07 -2.4879e-05
0.00176116 -0.000211669 9.36627e-07
-0.000211669 0.000227732 -1.35806e-06
9.36627e-07 -1.35806e-06 8.3199e-05
0.00173684 -0.000177907 -2.71995e-07
-0.000177907 0.000125992 -5.91291e-07
-2.71995e-07 -5.91291e-07 1.49598e-05
0.000482826 2.53631e-05 4.59594e-08
2.53631e-05 -0.000134339 -6.82544e-07
4.59594e-08 -6.82544e-07 -0.000179772
0.00102376 -0.000135986 -6.64794e-08
-0.000135986 0.000172663 3.07304e-07
-6.64794e-08 3.07304e-07 5.67035e-05
0.00086525 -0.000125641 -6.05845e-07
-0.000125641 8.52975e-05 3.69513e-07
-6.05845e-07 3.69513e-07 -2.94574e-05
0.00100203 -8.89567e-05 -3.68555e-07
-8.89567e-05 0.000170778 8.17754e-07
-3.68555e-07 8.17754e-07 5.959e-05
0.000957275 -3.30993e-05 -2.17648e-08
-3.30993e-05 0.000148347 5.28561e-08
-2.17648e-08 5.28561e-08 5.7506e-05
0.000761393 1.23891e-05 -2.16906e-07
1.23891e-05 3.4583e-05 2.90603e-07
-2.16906e-07 2.90603e-07 -3.8396e-05
0.00167479 -3.12163e-05 -7.58952e-07
-3.12163e-05 4.8754e-05 9.03011e-08
-7.58952e-07 9.03011e-08 -5.64033e-05
0.00178219 -6.98707e-05 -2.09018e-06
-6.98707e-05 0.0001102 -6.32318e-08
-2.09018e-06 -6.32318e-08 1.87295e-05
0.00156382 -9.81858e-05 -4.48401e-07
-9.81858e-05 -1.77914e-06 3.1779e-07
-4.48401e-07 3.1779e-07 -8.95524e-05
0.00187118 -0.000152469 -4.58437e-07
-0.000152469 0.000153973 7.34411e-08
-4.58437e-07 7.34411e-08 6.03277e-05
0.00100309 -0.00013837 -1.64341e-06
-0.00013837 0.000161702 7.30209e-07
-1.64341e-06 7.30209e-07 3.54481e-05
0.00173026 -0.000204493 9.82585e-07
-0.000204493 0.000134231 1.07511e-06
9.82585e-07 1.07511e-06 1.2577e-05
0.000802908 -0.000148012 2.20434e-07
-0.000148012 7.39124e-06 -2.87955e-06
2.20434e-07 -2.87955e-06 -0.000174461
0.00189831 -0.000241386 3.11782e-07
-0.000241386 0.000418712 1.89482e-06
3.11782e-07 1.89482e-06 0.00022872
0.00049447 2.61312e-05 5.47426e-07
2.61312e-05 -0.000130861 -2.5735e-06
5.47426e-07 -2.5735e-06 -0.000172766
0.000884674 -4.20174e-06 1.21588e-06
-4.20174e-06 0.000102259 -9.08085e-07
1.21588e-06 -9.08085e-07 3.3897e-05
0.00100066 -5.14859e-05 3.94518e-08
-5.14859e-05 0.000174555 8.59616e-07
3.94518e-08 8.59616e-07 8.7281e-05
0.000888615 -1.90317e-05 3.07745e-07
-1.90317e-05 0.00010912 -2.01567e-07
3.07745e-07 -2.01567e-07 9.86771e-06
0.000957156 -0.000134086 -7.94813e-07
-0.000134086 0.000132621 1.78371e-06
-7.94813e-07 1.78371e-06 1.24428e-05
0.000962505 -0.000133862 -3.28186e-06
-0.000133862 0.000133469 3.13821e-06
-3.28186e-06 3.13821e-06 1.37241e-05
0.000739851 -3.59285e-05 -1.82253e-06
-3.59285e-05 8.7429e-06 -1.39549e-06
-1.82253e-06 -1.39549e-06 -2.74929e-05
0.00075222 -5.34533e-05 -1.54729e-07
-5.34533e-05 2.54461e-05 -6.57662e-07
-1.54729e-07 -6.57662e-07 -3.53534e-05
0.00164849 0.000129009 9.70492e-08
0.000129009 0.00012618 4.24788e-07
9.70492e-08 4.24788e-07 -6.10946e-06
0.000815631 -3.08965e-05 5.53746e-07
-3.08965e-05 7.32329e-05 -3.88508e-07
5.53746e-07 -3.88508e-07 -1.18144e-05
0.000904544 0.000123277 5.52616e-07
0.000123277 0.00013098 -1.51108e-07
5.52616e-07 -1.51108e-07 6.62828e-06
0.000724536 4.25308e-05 9.0701e-07
4.25308e-05 3.37008e-05 -5.23978e-09
9.0701e-07 -5.23978e-09 -7.98075e-05
0.00154138 0.000187639 -1.14451e-06
0.000187639 0.00015685 -1.84606e-06
-1.14451e-06 -1.84606e-06 7.83552e-06
0.00160864 0.000178994 2.28044e-06
0.000178994 9.85803e-05 9.5287e-07
2.28044e-06 9.5287e-07 -3.23912e-05
0.000642177 0.000124881 6.54483e-07
0.000124881 -2.75852e-05 1.05992e-06
6.54483e-07 1.05992e-06 -0.000192717
0.0015416 0.000205678 -4.69424e-07
0.000205678 0.000285634 -7.01753e-07
-4.69424e-07 -7.01753e-07 0.000118135
0.000774037 -1.88773e-05 -5.11453e-07
-1.88773e-05 3.17945e-05 1.14827e-07
-5.11453e-07 1.14827e-07 -2.25428e-05
0.00073588 -1.61698e-05 -2.82945e-08
-1.61698e-05 2.42637e-05 8.3249e-07
-2.82945e-08 8.3249e-07 -5.18365e-05
0.00108598 0.000142706 -5.99432e-07
0.000142706 0.000231798 -1.73227e-06
-5.99432e-07 -1.73227e-06 9.00779e-05
0.000730804 -1.30026e-05 -1.83159e-07
-1.30026e-05 3.18503e-05 7.20548e-08
-1.83159e-07 7.20548e-08 -6.91341e-05
0.000869485 8.9292e-05 -1.00698e-06
8.9292e-05 0.000110194 -9.40654e-07
-1.00698e-06 -9.40654e-07 -1.08372e-05
0.00182801 0.00014046 -2.08754e-06
0.00014046 0.000162976 -8.85658e-07
-2.08754e-06 -8.85658e-07 6.05427e-05
0.00188852 0.000222863 9.48105e-07
0.000222863 0.000316456 6.01885e-07
9.48105e-07 6.01885e-07 0.000162489
0.00149576 0.000181671 6.74001e-07
0.000181671 1.02549e-05 1.54964e-06
6.74001e-07 1.54964e-06 -0.000111516
0.00136309 0.000176373 1.73357e-06
0.000176373 0.000339357 2.6969e-06
1.73357e-06 2.6969e-06 0.000147665
0.000834857 0.000177881 -1.7585e-06
0.000177881 -0.000126011 -7.01388e-07
-1.7585e-06 -7.01388e-07 -0.000296242
0.000665989 -3.66903e-05 -2.04996e-07
-3.66903e-05 -1.8937e-05 7.89347e-07
-2.04996e-07 7.89347e-07 -8.59426e-05
0.000519123 2.69288e-05 -4.95634e-07
2.69288e-05 -7.80699e-05 1.28125e-07
-4.95634e-07 1.28125e-07 -0.000175202
0.00109815 0.000144076 -1.6714e-07
0.000144076 0.000233647 -2.89438e-08
-1.6714e-07 -2.89438e-08 7.13626e-05
0.000196567 3.69589e-05 4.01674e-07
3.69589e-05 -0.000252455 -1.14121e-07
4.01674e-07 -1.14121e-07 -0.000375038
0.00189459 0.000137703 -2.50484e-06
0.000137703 0.000109715 -6.34494e-07
-2.50484e-06 -6.34494e-07 3.29334e-05
0.00189496 0.000174219 2.72749e-07
0.000174219 0.000152803 -4.49787e-07
2.72749e-07 -4.49787e-07 5.79142e-05
0.00164558 0.000231566 -1.16043e-06
0.000231566 0.000158014 -1.52836e-06
-1.16043e-06 -1.52836e-06 2.19379e-06
7.10772e-05 0.000107372 -8.5878e-07
0.000107372 -0.000412559 1.49026e-06
-8.5878e-07 1.49026e-06 -0.000620511
0.000781249 3.72788e-06 -8.71795e-07
3.72788e-06 3.77853e-05 -1.88018e-08
-8.71795e-07 -1.88018e-08 -1.74226e-05
0.00077321 -1.31666e-05 -2.82192e-07
-1.31666e-05 4.00521e-05 4.26966e-07
-2.82192e-07 4.26966e-07 -2.53965e-05
0.000867772 -3.57002e-05 -2.48328e-07
-3.57002e-05 9.79322e-05 -9.7114e-08
-2.48328e-07 -9.7114e-08 2.6662e-05
0.000776914 -3.2489e-05 -1.0176e-06
-3.2489e-05 2.75702e-05 -5.91238e-07
-1.0176e-06 -5.91238e-07 -2.38291e-05
0.000671032 -4.085e-05 -1.21615e-07
-4.085e-05 -1.88095e-05 -1.2752e-07
-1.21615e-07 -1.2752e-07 -8.18738e-05
0.000797717 -1.04164e-05 4.14379e-08
-1.04164e-05 3.7562e-05 3.13016e-08
4.14379e-08 3.13016e-08 -1.41468e-05
0.000812623 1.84475e-05 -2.76286e-07
1.84475e-05 7.1574e-05 -2.88631e-07
-2.76286e-07 -2.88631e-07 -2.47081e-06
0.00075012 -1.14866e-05 3.26911e-07
-1.14866e-05 2.91766e-05 2.26803e-07
3.26911e-07 2.26803e-07 -3.73319e-05
0.000851552 -1.18985e-05 2.04934e-07
-1.18985e-05 8.85338e-05 -3.85828e-07
2.04934e-07 -3.85828e-07 1.38217e-05
0.000809192 -4.12409e-05 4.0594e-08
-4.12409e-05 6.32731e-05 -1.58304e-07
4.0594e-08 -1.58304e-07 -8.82943e-06
0.000707024 8.69723e-06 4.88931e-07
8.69723e-06 1.68e-06 5.55085e-08
4.88931e-07 5.55085e-08 -6.43623e-05
0.000799622 1.6973e-05 6.03077e-07
1.6973e-05 3.89316e-05 4.70832e-07
6.03077e-07 4.70832e-07 -1.35602e-05
0.0007494 5.51795e-06 6.48912e-07
5.51795e-06 4.38258e-07 1.47546e-06
6.48912e-07 1.47546e-06 -3.42229e-05
0.000758003 -6.5115e-06 -1.74735e-07
-6.5115e-06 3.83091e-06 3.93826e-10
-1.74735e-07 3.93826e-10 -2.98133e-05
0.00127662 -1.58036e-05 8.49446e-07
-1.58036e-05 0.000284626 2.00805e-06
8.49446e-07 2.00805e-06 0.000283223
0.000759967 -1.64933e-05 -6.39904e-07
-1.64933e-05 5.24906e-06 -1.66797e-06
-6.39904e-07 -1.66797e-06 -2.75593e-05
0.00129203 -2.19999e-05 -3.09934e-06
-2.19999e-05 0.000296037 -1.29698e-06
-3.09934e-06 -1.29698e-06 0.000294611
0.000954024 -1.87206e-05 1.3759e-05
-1.87206e-05 0.000111361 6.78609e-06
1.3759e-05 6.78609e-06 0.000125027
0.00130614 -2.86346e-05 -6.65883e-06
-2.86346e-05 0.000307892 -4.59168e-06
-6.65883e-06 -4.59168e-06 0.000305983
0.000895534 -2.53028e-05 5.29763e-06
-2.53028e-05 8.31371e-05 2.53227e-06
5.29763e-06 2.53227e-06 9.62059e-05
0.000828769 -3.09214e-05 -2.11081e-06
-3.09214e-05 5.24568e-05 -1.67773e-06
-2.11081e-06 -1.67773e-06 6.41094e-05
0.000674208 2.96108e-05 8.32374e-07
2.96108e-05 -3.84246e-05 -3.63952e-06
8.32374e-07 -3.63952e-06 -4.84466e-05
0.000675324 3.50572e-05 -1.65676e-07
3.50572e-05 -3.13125e-05 3.65971e-08
-1.65676e-07 3.65971e-08 -4.44524e-05
0.00226099 5.50223e-05 2.42829e-05
5.50223e-05 0.000859087 -3.8891e-06
2.42829e-05 -3.8891e-06 0.00087322
0.000678651 4.09282e-05 -1.66155e-06
4.09282e-05 -2.1998e-05 4.01338e-06
-1.66155e-06 4.01338e-06 -3.87024e-05
0.0023771 6.47075e-05 -1.88748e-06
6.47075e-05 0.000931902 -1.31679e-07
-1.88748e-06 -1.31679e-07 0.000943313
0.00251994 7.35714e-05 -3.87952e-05
7.35714e-05 0.00101889 3.36947e-06
-3.87952e-05 3.36947e-06 0.00102779
0.00158582 8.74519e-05 1.68263e-06
8.74519e-05 8.01596e-05 1.98646e-06
1.68263e-06 1.98646e-06 -3.63724e-05
0.00165597 5.64513e-05 6.55686e-07
5.64513e-05 7.89854e-05 2.67679e-08
6.55686e-07 2.67679e-08 -2.92466e-05
0.00166704 9.28336e-05 4.37275e-06
9.28336e-05 6.51291e-05 4.04455e-07
4.37275e-06 4.04455e-07 -3.03013e-05
0.00175275 5.02457e-05 2.51084e-06
5.02457e-05 8.92685e-05 -4.26099e-07
2.51084e-06 -4.26099e-07 -8.39973e-06
0.00174245 2.29656e-05 1.4937e-06
2.29656e-05 0.000101246 -1.67712e-07
1.4937e-06 -1.67712e-07 -1.04557e-05
0.0016115 1.55123e-06 -1.088e-06
1.55123e-06 8.2915e-05 -1.13595e-07
-1.088e-06 -1.13595e-07 -3.67709e-05
0.00175368 4.07848e-06 -1.32101e-07
4.07848e-06 0.000107216 -5.88364e-09
-1.32101e-07 -5.88364e-09 -4.15648e-06
0.00173238 3.47002e-05 5.43154e-07
3.47002e-05 7.83869e-05 -1.82847e-07
5.43154e-07 -1.82847e-07 -2.25833e-05
0.00175595 6.75154e-05 6.99886e-07
6.75154e-05 8.86829e-05 -1.16351e-07
6.99886e-07 -1.16351e-07 -4.77048e-06
0.00186881 0.000107168 5.49943e-07
0.000107168 0.000163638 2.60136e-07
5.49943e-07 2.60136e-07 6.98569e-05
0.00176385 3.80425e-06 -1.23737e-06
3.80425e-06 9.04129e-05 3.69622e-07
-1.23737e-06 3.69622e-07 -1.30557e-05
0.0018969 5.07603e-05 -2.49597e-07
5.07603e-05 0.000140375 3.7137e-07
-2.49597e-07 3.7137e-07 5.33017e-05
0.00174191 0.000103312 -6.45047e-07
0.000103312 5.21821e-05 7.13491e-08
-6.45047e-07 7.13491e-08 -3.22361e-05
0.00176528 -2.16545e-05 3.84014e-07
-2.16545e-05 0.000123303 -2.21474e-07
3.84014e-07 -2.21474e-07 1.25832e-05
0.00176075 -4.79893e-05 4.68258e-07
-4.79893e-05 0.00013375 -2.93746e-07
4.68258e-07 -2.93746e-07 2.56071e-05
0.00170513 -8.62101e-05 1.06229e-06
-8.62101e-05 0.00010156 -9.47673e-08
1.06229e-06 -9.47673e-08 4.07119e-06
0.00112203 -0.000142892 1.50123e-07
-0.000142892 0.000222912 5.24038e-07
1.50123e-07 5.24038e-07 0.000102974
0.00127893 -0.000163522 1.3615e-07
-0.000163522 0.000290268 1.414e-06
1.3615e-07 1.414e-06 0.000144339
0.00126255 -0.000189739 -2.13911e-06
-0.000189739 0.000150647 2.74522e-06
-2.13911e-06 2.74522e-06 -3.75911e-05
0.00171454 -0.000121091 9.89726e-07
-0.000121091 0.000115132 -6.17842e-07
9.89726e-07 -6.17842e-07 1.16507e-05
0.00148203 -0.000171246 -1.15322e-07
-0.000171246 -6.73796e-06 -1.12968e-06
-1.15322e-07 -1.12968e-06 -0.00011837
0.00165678 -0.000202515 -3.23938e-07
-0.000202515 0.000172348 -4.75057e-06
-3.23938e-07 -4.75057e-06 3.14585e-05
0.00106026 -0.000138255 8.14999e-07
-0.000138255 0.000191303 -1.3187e-06
8.14999e-07 -1.3187e-06 7.50393e-05
0.00084917 -0.000123728 -2.05924e-06
-0.000123728 7.8476e-05 -2.19326e-06
-2.05924e-06 -2.19326e-06 -3.49077e-05
0.00102679 -0.000103417 7.14241e-07
-0.000103417 0.00019019 1.44022e-07
7.14241e-07 1.44022e-07 7.39965e-05
0.000478988 2.34573e-05 -9.22754e-07
2.34573e-05 -0.000136871 1.2273e-06
-9.22754e-07 1.2273e-06 -0.00018168
0.000972342 -2.48161e-05 1.37218e-07
-2.48161e-05 0.000154191 -2.63746e-07
1.37218e-07 -2.63746e-07 6.53507e-05
0.000634341 2.79224e-05 2.9158e-07
2.79224e-05 -3.93103e-05 1.17761e-06
2.9158e-07 1.17761e-06 -0.000110543
0.00176897 -2.93416e-05 -1.58947e-07
-2.93416e-05 9.68161e-05 6.78598e-08
-1.58947e-07 6.78598e-08 -8.21098e-06
0.00181971 -7.1848e-05 5.72706e-07
-7.1848e-05 0.000132151 5.04581e-09
5.72706e-07 5.04581e-09 4.12539e-05
0.00162182 -9.83902e-05 -3.4631e-07
-9.83902e-05 3.09193e-05 7.8909e-08
-3.4631e-07 7.8909e-08 -5.69838e-05
0.000998571 -0.00013752 9.56956e-08
-0.00013752 0.000156355 1.16829e-06
9.56956e-08 1.16829e-06 2.99861e-05
0.000895017 -0.000152054 -2.52621e-07
-0.000152054 6.57106e-05 1.06469e-07
-2.52621e-07 1.06469e-07 -0.000111636
0.00180329 -0.0002333 -2.47523e-06
-0.0002333 0.000364628 8.56617e-07
-2.47523e-06 8.56617e-07 0.000177903
0.00188762 -0.00015425 4.1519e-07
-0.00015425 0.000161037 -4.54208e-07
4.1519e-07 -4.54208e-07 6.65113e-05
0.00173047 -0.000206382 1.29613e-06
-0.000206382 0.000132111 -7.60426e-07
1.29613e-06 -7.60426e-07 9.71553e-06
0.000617145 2.18096e-05 2.66701e-07
2.18096e-05 -6.36286e-05 -6.46553e-07
2.66701e-07 -6.46553e-07 -0.000104003
0.000877461 4.64202e-06 -2.97555e-07
4.64202e-06 9.71478e-05 2.09157e-07
-2.97555e-07 2.09157e-07 2.96717e-05
0.000624994 -0.000111792 -1.36254e-06
-0.000111792 -5.0095e-05 1.12637e-06
-1.36254e-06 1.12637e-06 -0.000166403
0.00110574 -0.00013716 9.69083e-07
-0.00013716 0.00021254 8.34847e-07
9.69083e-07 8.34847e-07 9.59191e-05
0.000870025 -3.04271e-05 2.0578e-07
-3.04271e-05 0.000100431 -3.74984e-07
2.0578e-07 -3.74984e-07 -1.02127e-06
0.000921364 -4.08106e-05 -6.81856e-07
-4.08106e-05 0.000131197 9.64801e-07
-6.81856e-07 9.64801e-07 4.37885e-05
0.00181693 -4.65939e-05 -1.22289e-06
-4.65939e-05 0.00010196 -2.23869e-07
-1.22289e-06 -2.23869e-07 1.1157e-05
0.00172306 -9.53639e-05 -3.33088e-06
-9.53639e-05 5.20049e-05 -1.39592e-07
-3.33088e-06 -1.39592e-07 -2.32581e-05
0.0016772 -0.000113983 2.6407e-07
-0.000113983 1.59322e-05 4.52243e-08
2.6407e-07 4.52243e-08 -6.18935e-05
0.00231813 -0.000224699 2.4156e-06
-0.000224699 0.000367097 -7.49681e-07
2.4156e-06 -7.49681e-07 0.000267112
0.000373702 -0.000102938 -2.03431e-06
-0.000102938 -0.000175403 -3.78911e-07
-2.03431e-06 -3.78911e-07 -0.000318383
0.00164828 -0.000235731 -2.32615e-06
-0.000235731 0.000173211 4.01219e-06
-2.32615e-06 4.01219e-06 6.95739e-06
0.00202026 -0.000238324 1.58353e-06
-0.000238324 0.000619199 -3.01218e-06
1.58353e-06 -3.01218e-06 0.000413214
0.000759774 1.54602e-05 8.61798e-07
1.54602e-05 1.20899e-05 -1.83467e-06
8.61798e-07 -1.83467e-06 -2.43447e-05
0.000766618 -6.52335e-05 1.26972e-06
-6.52335e-05 4.2231e-05 -1.3157e-06
1.26972e-06 -1.3157e-06 -2.08224e-05
0.000631616 1.01875e-05 5.68722e-07
1.01875e-05 -3.57288e-05 -1.68512e-06
5.68722e-07 -1.68512e-06 -0.000103425
0.000850461 -3.55769e-05 1.07016e-06
-3.55769e-05 9.59635e-05 1.26473e-07
1.07016e-06 1.26473e-07 1.01878e-05
0.000849679 2.83241e-06 3.62231e-07
2.83241e-06 8.98276e-05 -7.56813e-08
3.62231e-07 -7.56813e-08 -1.48687e-06
0.000675786 -0.000111425 7.29847e-07
-0.000111425 1.31192e-05 2.55188e-06
7.29847e-07 2.55188e-06 -0.000103826
0.000686941 -0.000116588 -3.81343e-06
-0.000116588 -5.33332e-05 1.28609e-06
-3.81343e-06 1.28609e-06 -0.000157475
0.0018616 -0.00018758 -4.95838e-06
-0.00018758 0.000648584 3.56806e-06
-4.95838e-06 3.56806e-06 0.000522097
0.00076387 -4.88921e-05 -5.14492e-07
-4.88921e-05 2.66461e-05 -4.95079e-07
-5.14492e-07 -4.95079e-07 -2.78706e-05
0.000828686 -5.0084e-06 -1.53787e-07
-5.0084e-06 7.53297e-05 4.16366e-07
-1.53787e-07 4.16366e-07 -1.08164e-06
0.00207788 0.000146536 1.52743e-06
0.000146536 0.000300748 6.10599e-07
1.52743e-06 6.10599e-07 0.000200189
0.000833516 7.75131e-06 -1.47912e-07
7.75131e-06 9.17065e-05 -3.14105e-07
-1.47912e-07 -3.14105e-07 -1.20949e-05
0.00112687 0.000144558 3.18298e-07
0.000144558 0.000257804 -1.1127e-06
3.18298e-07 -1.1127e-06 0.000116824
0.000697789 6.98494e-05 -5.3031e-07
6.98494e-05 1.82619e-05 1.66869e-06
-5.3031e-07 1.66869e-06 -9.79913e-05
0.00174496 0.000213546 8.5621e-07
0.000213546 0.000235403 -6.27798e-07
8.5621e-07 -6.27798e-07 8.16132e-05
0.00167307 0.000192786 5.53659e-06
0.000192786 0.00010353 3.81756e-06
5.53659e-06 3.81756e-06 -1.71118e-05
0.000825883 0.000144122 1.42895e-06
0.000144122 5.71728e-05 5.89398e-07
1.42895e-06 5.89398e-07 -0.000136177
0.00121661 0.000202588 -2.93811e-06
0.000202588 7.5037e-05 -7.08931e-07
-2.93811e-06 -7.08931e-07 -9.81574e-05
0.000675801 -1.57201e-05 1.05175e-07
-1.57201e-05 -1.03453e-05 5.82384e-07
1.05175e-07 5.82384e-07 -8.05969e-05
0.000667663 4.2474e-05 -1.26175e-07
4.2474e-05 3.01655e-06 -1.24285e-06
-1.26175e-07 -1.24285e-06 -9.50399e-05
0.00102125 0.000139716 5.93834e-07
0.000139716 0.000198806 -1.3861e-06
5.93834e-07 -1.3861e-06 3.39757e-05
0.000716369 7.15031e-05 -6.00126e-07
7.15031e-05 2.9383e-05 -1.0038e-06
-6.00126e-07 -1.0038e-06 -9.5444e-05
0.00197946 0.000135562 1.41929e-07
0.000135562 0.000162232 -4.76112e-07
1.41929e-07 -4.76112e-07 8.6869e-05
0.00178486 0.000175217 1.79497e-06
0.000175217 0.000102814 3.74493e-07
1.79497e-06 3.74493e-07 3.83477e-06
0.00177974 0.000234646 -2.10219e-06
0.000234646 0.000226641 -5.95934e-07
-2.10219e-06 -5.95934e-07 7.19896e-05
0.000721159 0.000153329 7.45221e-07
0.000153329 -8.26262e-05 3.68251e-07
7.45221e-07 3.68251e-07 -0.000288538
0.000830335 -2.43077e-05 -7.0249e-08
-2.43077e-05 7.84196e-05 -2.64307e-09
-7.0249e-08 -2.64307e-09 2.58933e-06
0.00168409 9.97194e-05 -1.31156e-06
9.97194e-05 -2.43919e-05 3.71325e-07
-1.31156e-06 3.71325e-07 -8.38974e-05
0.00121648 0.00013086 -7.43814e-07
0.00013086 0.000323054 2.17726e-06
-7.43814e-07 2.17726e-06 0.000197708
0.00103346 0.000144654 1.70935e-07
0.000144654 0.000189502 1.56602e-06
1.70935e-07 1.56602e-06 1.83558e-05
0.00227004 0.00017281 -4.27025e-06
0.00017281 0.000268874 1.75341e-07
-4.27025e-06 1.75341e-07 0.000196126
0.00156169 0.000238428 -1.3503e-06
0.000238428 -1.84465e-05 -2.40911e-06
-1.3503e-06 -2.40911e-06 -0.000151246
0.00202531 0.00025095 -1.78252e-06
0.00025095 0.00051438 2.04878e-06
-1.78252e-06 2.04878e-06 0.000304901
0.000849979 -4.89207e-06 -1.53436e-06
-4.89207e-06 8.17439e-05 2.64721e-07
-1.53436e-06 2.64721e-07 1.69215e-05
0.000841954 -1.93258e-05 -6.58368e-08
-1.93258e-05 8.29088e-05 -1.15086e-08
-6.58368e-08 -1.15086e-08 1.21982e-05
0.000886298 -2.61743e-05 -3.65608e-07
-2.61743e-05 0.000114174 2.92705e-07
-3.65608e-07 2.92705e-07 3.64671e-05
0.000776409 -2.83551e-05 -4.78144e-07
-2.83551e-05 2.70584e-05 -6.2443e-07
-4.78144e-07 -6.2443e-07 -2.54498e-05
0.000781603 3.63175e-07 4.0227e-08
3.63175e-07 4.70033e-05 4.91259e-07
4.0227e-08 4.91259e-07 -1.97458e-05
0.000698284 -9.4516e-06 -4.49137e-07
-9.4516e-06 1.1284e-05 -8.9455e-08
-4.49137e-07 -8.9455e-08 -6.41701e-05
0.00078709 -1.70804e-05 -1.09894e-07
-1.70804e-05 3.52346e-05 2.21174e-08
-1.09894e-07 2.21174e-08 -1.95528e-05
0.000721532 -2.56822e-05 -5.21407e-07
-2.56822e-05 1.27467e-05 2.5761e-07
-5.21407e-07 2.5761e-07 -5.50349e-05
0.000801711 -4.56088e-05 3.86983e-07
-4.56088e-05 6.1531e-05 -3.72157e-07
3.86983e-07 -3.72157e-07 -1.37311e-05
0.000851536 7.31533e-06 2.07858e-07
7.31533e-06 9.14987e-05 4.77532e-07
2.07858e-07 4.77532e-07 1.64839e-05
0.000750208 -2.90767e-05 6.19513e-07
-2.90767e-05 2.98598e-05 -1.0054e-06
6.19513e-07 -1.0054e-06 -4.71473e-05
0.000790979 -6.26711e-05 1.1949e-07
-6.26711e-05 5.13346e-05 -1.58833e-07
1.1949e-07 -1.58833e-07 -2.54287e-05
0.000892286 1.18988e-05 6.27734e-07
1.18988e-05 0.000108622 -4.07765e-07
6.27734e-07 -4.07765e-07 3.47447e-05
0.000793578 1.43539e-05 1.44731e-06
1.43539e-05 5.11312e-05 -6.05604e-08
1.44731e-06 -6.05604e-08 -2.02823e-05
0.000794625 4.299e-06 6.53714e-07
4.299e-06 3.66246e-05 5.00029e-07
6.53714e-07 5.00029e-07 -1.70005e-05
0.000739724 1.02813e-05 4.46857e-07
1.02813e-05 -2.98062e-06 1.42973e-06
4.46857e-07 1.42973e-06 -3.85131e-05
0.000751531 -2.81477e-07 -1.8131e-07
-2.81477e-07 1.78513e-06 6.74505e-09
-1.8131e-07 6.74505e-09 -3.28902e-05
0.00128342 -7.66093e-06 6.16084e-07
-7.66093e-06 0.000287038 1.97098e-06
6.16084e-07 1.97098e-06 0.000285276
0.000763943 -1.22668e-05 -3.49647e-07
-1.22668e-05 7.40811e-06 -1.58171e-06
-3.49647e-07 -1.58171e-06 -2.63459e-05
0.00130648 -1.40902e-05 -2.3044e-06
-1.40902e-05 0.000301592 -1.35018e-06
-2.3044e-06 -1.35018e-06 0.000299996
0.00096318 -1.28502e-05 1.03758e-05
-1.28502e-05 0.000113592 7.01848e-06
1.03758e-05 7.01848e-06 0.00012729
0.00132404 -2.06733e-05 -5.01526e-06
-2.06733e-05 0.00031388 -4.64148e-06
-5.01526e-06 -4.64148e-06 0.000312249
0.00090877 -1.92642e-05 3.79655e-06
-1.92642e-05 8.56564e-05 2.62521e-06
3.79655e-06 2.62521e-06 9.93906e-05
0.000843096 -2.50354e-05 -1.5329e-06
-2.50354e-05 5.38685e-05 -1.69359e-06
-1.5329e-06 -1.69359e-06 6.70531e-05
0.000754083 8.98877e-06 4.50204e-07
8.98877e-06 7.34035e-06 -1.80009e-06
4.50204e-07 -1.80009e-06 -2.67283e-05
0.000686348 2.37657e-05 7.39434e-07
2.37657e-05 -3.73472e-05 -3.55867e-06
7.39434e-07 -3.55867e-06 -4.477e-05
0.00068692 3.01242e-05 -1.46805e-07
3.01242e-05 -3.15276e-05 3.02622e-08
-1.46805e-07 3.02622e-08 -4.16464e-05
0.00220032 4.58022e-05 1.99749e-05
4.58022e-05 0.000818419 -4.04612e-06
1.99749e-05 -4.04612e-06 0.000834756
0.000689316 3.58352e-05 -1.37394e-06
3.58352e-05 -2.36735e-05 3.82359e-06
-1.37394e-06 3.82359e-06 -3.69489e-05
0.00229309 5.57104e-05 -2.04336e-06
5.57104e-05 0.000877806 -1.19447e-07
-2.04336e-06 -1.19447e-07 0.000891614
0.00241771 6.50858e-05 -3.27069e-05
6.50858e-05 0.000955216 3.65359e-06
-3.27069e-05 3.65359e-06 0.000966376
0.00184542 0.000102223 1.9299e-06
0.000102223 0.000143484 1.40841e-06
1.9299e-06 1.40841e-06 5.03775e-05
0.00172164 6.88277e-05 1.58697e-06
6.88277e-05 7.09494e-05 -2.19893e-07
1.58697e-06 -2.19893e-07 -2.27802e-05
0.001707 3.40849e-05 1.61931e-06
3.40849e-05 6.67751e-05 -5.63905e-07
1.61931e-06 -5.63905e-07 -3.46152e-05
0.00174214 5.04966e-06 7.27589e-07
5.04966e-06 0.000102577 -1.82675e-07
7.27589e-07 -1.82675e-07 -8.78249e-06
0.00178171 4.06298e-06 -4.74648e-07
4.06298e-06 0.000100555 1.20667e-07
-4.74648e-07 1.20667e-07 -1.91669e-06
0.00187033 4.84684e-05 3.96744e-07
4.84684e-05 0.000122918 -3.47275e-07
3.96744e-07 -3.47275e-07 3.52998e-05
0.00172784 0.000104323 -2.96394e-07
0.000104323 3.90024e-05 -1.65098e-07
-2.96394e-07 -1.65098e-07 -4.52412e-05
0.00179729 4.77213e-06 -1.00586e-06
4.77213e-06 8.6417e-05 8.31678e-07
-1.00586e-06 8.31678e-07 -2.50245e-06
0.00198052 6.3828e-05 -1.27683e-06
6.3828e-05 0.000162922 5.32448e-07
-1.27683e-06 5.32448e-07 8.90858e-05
0.00153273 4.6767e-05 -3.58001e-07
4.6767e-05 -0.000100652 -5.61312e-07
-3.58001e-07 -5.61312e-07 -0.000148213
0.00186521 -2.76748e-05 3.34617e-07
-2.76748e-05 0.000146231 -1.26927e-07
3.34617e-07 -1.26927e-07 4.13505e-05
0.00186156 -7.47519e-05 3.32977e-06
-7.47519e-05 0.000156186 7.87004e-08
3.32977e-06 7.87004e-08 6.58426e-05
0.00167829 -9.98416e-05 -3.79895e-07
-9.98416e-05 6.17825e-05 -2.03035e-07
-3.79895e-07 -2.03035e-07 -2.63633e-05
0.00107931 -0.000142377 -1.69664e-07
-0.000142377 0.000198411 2.21308e-06
-1.69664e-07 2.21308e-06 7.10851e-05
0.000858038 -0.000147654 5.4043e-07
-0.000147654 5.25177e-05 4.184e-06
5.4043e-07 4.184e-06 -0.000121171
0.00163689 -0.000220474 -2.21275e-06
-0.000220474 0.000272953 9.22622e-07
-2.21275e-06 9.22622e-07 9.01768e-05
0.00187854 -0.000154027 3.19717e-06
-0.000154027 0.000153903 -7.20394e-07
3.19717e-06 -7.20394e-07 5.86603e-05
0.001688 -0.000204957 -2.88136e-07
-0.000204957 0.000108952 -2.07561e-06
-2.88136e-07 -2.07561e-06 -1.37148e-05
0.000338982 -9.25488e-05 -1.82031e-06
-9.25488e-05 -0.000207448 1.71043e-06
-1.82031e-06 1.71043e-06 -0.000320294
0.00126941 -0.000144593 7.10574e-06
-0.000144593 0.000303306 -3.7066e-06
7.10574e-06 -3.7066e-06 0.000188958
0.000783795 1.65793e-06 5.24866e-08
1.65793e-06 4.59926e-05 -7.18394e-07
5.24866e-08 -7.18394e-07 -4.94051e-05
0.000739391 2.00856e-05 -7.70714e-07
2.00856e-05 3.369e-06 1.17672e-06
-7.70714e-07 1.17672e-06 -3.55906e-05
0.000877699 2.20488e-05 -6.45895e-07
2.20488e-05 9.69166e-05 1.23704e-06
-6.45895e-07 1.23704e-06 2.96617e-05
0.000837333 -1.67278e-05 -5.66449e-07
-1.67278e-05 8.55215e-05 9.51866e-07
-5.66449e-07 9.51866e-07 -2.08294e-06
0.0018422 -4.74244e-05 -4.37552e-08
-4.74244e-05 0.000118306 -3.45971e-09
-4.37552e-08 -3.45971e-09 2.92373e-05
0.00075388 1.35092e-05 2.30776e-07
1.35092e-05 8.71547e-06 2.37557e-08
2.30776e-07 2.37557e-08 -2.76962e-05
0.000694309 -1.6643e-05 -4.65722e-07
-1.6643e-05 -6.62727e-06 5.9464e-08
-4.65722e-07 5.9464e-08 -6.41033e-05
0.00178943 -9.60842e-05 -2.61875e-07
-9.60842e-05 9.14852e-05 -1.88326e-07
-2.61875e-07 -1.88326e-07 1.55187e-05
0.00159421 -0.000111276 -1.41333e-06
-0.000111276 -3.49281e-05 8.10492e-07
-1.41333e-06 8.10492e-07 -0.000114448
0.000629249 -0.000118094 -1.41212e-07
-0.000118094 -2.98167e-05 2.61388e-06
-1.41212e-07 2.61388e-06 -0.000170521
0.0015345 -0.000204717 -1.80857e-06
-0.000204717 0.000364433 7.70324e-07
-1.80857e-06 7.70324e-07 0.000153141
0.00147692 -0.000222884 7.8854e-07
-0.000222884 8.36061e-05 -6.34375e-07
7.8854e-07 -6.34375e-07 -7.767e-05
0.00194792 -0.000215167 2.52335e-06
-0.000215167 0.000174945 -6.86713e-07
2.52335e-06 -6.86713e-07 7.42681e-05
0.000839262 -2.11771e-05 1.17018e-06
-2.11771e-05 7.77772e-05 -6.29113e-07
1.17018e-06 -6.29113e-07 1.22654e-05
0.000830365 -2.3364e-05 -3.39145e-07
-2.3364e-05 8.6273e-05 5.89828e-07
-3.39145e-07 5.89828e-07 -5.13307e-07
0.000927411 -0.000122118 8.77146e-08
-0.000122118 7.35434e-05 -2.65297e-07
8.77146e-08 -2.65297e-07 -3.5002e-05
0.00121465 -0.000148116 5.50464e-06
-0.000148116 0.000293865 -1.84485e-06
5.50464e-06 -1.84485e-06 0.000183994
0.000670934 -8.27818e-05 -8.44191e-07
-8.27818e-05 5.15435e-06 2.49316e-07
-8.44191e-07 2.49316e-07 -0.000108179
0.000859025 -1.99653e-06 2.41286e-07
-1.99653e-06 9.73709e-05 -4.28868e-07
2.41286e-07 -4.28868e-07 3.97131e-06
0.00190745 -5.78446e-05 -3.12507e-06
-5.78446e-05 0.000113984 -8.46192e-08
-3.12507e-06 -8.46192e-08 4.59287e-05
0.00194796 -8.72048e-05 2.35894e-06
-8.72048e-05 0.000143806 9.26383e-07
2.35894e-06 9.26383e-07 7.56934e-05
0.00172125 -0.000191337 -4.00157e-06
-0.000191337 -2.92006e-05 -1.87645e-06
-4.00157e-06 -1.87645e-06 -0.000102427
0.00132388 -0.000227435 7.73867e-07
-0.000227435 -0.000119098 2.83916e-07
7.73867e-07 2.83916e-07 -0.000233857
0.000869203 -0.000103933 -4.2618e-06
-0.000103933 7.69962e-05 -2.69465e-06
-4.2618e-06 -2.69465e-06 -6.71107e-05
0.0021848 -0.000268857 -3.00158e-06
-0.000268857 0.00062396 2.1791e-06
-3.00158e-06 2.1791e-06 0.000399504
0.000580595 4.51323e-05 -1.15464e-06
4.51323e-05 -6.55242e-05 -1.82994e-06
-1.15464e-06 -1.82994e-06 -0.000124023
0.000779929 -3.38795e-05 9.75465e-07
-3.38795e-05 4.01928e-05 -1.18416e-06
9.75465e-07 -1.18416e-06 -1.94209e-05
0.000974102 -4.34186e-05 1.06565e-06
-4.34186e-05 0.000165796 -3.73912e-07
1.06565e-06 -3.73912e-07 8.96644e-05
0.000623291 1.76034e-05 -3.38277e-07
1.76034e-05 -2.49701e-05 -3.79739e-07
-3.38277e-07 -3.79739e-07 -0.000112574
0.00103731 -2.49964e-05 2.37642e-07
-2.49964e-05 0.000198752 2.25901e-07
2.37642e-07 2.25901e-07 0.000108964
0.000501058 -2.6108e-05 4.31971e-07
-2.6108e-05 -8.60831e-05 6.51391e-07
4.31971e-07 6.51391e-07 -0.000192881
0.000907522 -8.27491e-05 5.64844e-06
-8.27491e-05 0.000171603 7.88115e-07
5.64844e-06 7.88115e-07 3.43657e-05
0.000727935 -0.000130503 -1.3959e-05
-0.000130503 -7.0673e-06 4.5127e-06
-1.3959e-05 4.5127e-06 -0.000102536
0.000663085 3.32521e-06 -1.45396e-07
3.32521e-06 -1.42176e-05 2.35249e-07
-1.45396e-07 2.35249e-07 -8.75918e-05
0.000817016 5.63011e-05 -1.81631e-06
5.63011e-05 8.43796e-05 -2.11045e-06
-1.81631e-06 -2.11045e-06 -1.45465e-05
0.00204097 0.000133599 -6.82754e-08
0.000133599 0.000200228 -1.9441e-07
-6.82754e-08 -1.9441e-07 0.000126301
0.00170301 0.000177612 2.37072e-06
0.000177612 6.64538e-05 1.69879e-06
2.37072e-06 1.69879e-06 -3.66495e-05
0.00124545 8.75696e-05 -2.60737e-06
8.75696e-05 0.000312779 -4.53334e-07
-2.60737e-06 -4.53334e-07 0.000188195
0.000945365 0.000134963 -3.67009e-07
0.000134963 0.000163466 -3.39121e-06
-3.67009e-07 -3.39121e-06 -3.01635e-06
0.00199945 0.000242351 1.73415e-06
0.000242351 0.000340844 3.46713e-07
1.73415e-06 3.46713e-07 0.000186627
0.00149023 0.000206284 -6.96263e-07
0.000206284 0.000312928 -1.04744e-06
-6.96263e-07 -1.04744e-06 0.000107545
0.000808894 6.54337e-06 6.28168e-07
6.54337e-06 7.14837e-05 -6.09031e-07
6.28168e-07 -6.09031e-07 -7.79718e-06
0.00179033 9.70509e-05 -5.95631e-07
9.70509e-05 3.16411e-05 1.19051e-07
-5.95631e-07 1.19051e-07 -2.73852e-05
0.000917984 8.83935e-05 1.5722e-07
8.83935e-05 0.000155588 1.42766e-06
1.5722e-07 1.42766e-06 3.70597e-05
0.000783405 0.000128 4.40629e-07
0.000128 5.39379e-05 -2.59657e-07
4.40629e-07 -2.59657e-07 -0.000118933
0.00201098 0.00016491 2.40489e-06
0.00016491 0.0001291 -1.78627e-07
2.40489e-06 -1.78627e-07 5.57554e-05
0.00172156 0.000242237 -2.22064e-07
0.000242237 6.25625e-05 -1.27838e-06
-2.22064e-07 -1.27838e-06 -6.7421e-05
0.00204728 0.000255592 9.53255e-07
0.000255592 0.000535856 1.23902e-06
9.53255e-07 1.23902e-06 0.000325324
0.00101308 2.905e-05 -1.89195e-06
2.905e-05 0.00019598 1.01774e-06
-1.89195e-06 1.01774e-06 9.7375e-05
0.00210825 0.000112046 -1.36141e-05
0.000112046 0.000189981 -1.46322e-06
-1.36141e-05 -1.46322e-06 0.000150778
0.00199323 0.000181019 -3.16397e-06
0.000181019 0.00071952 5.36674e-09
-3.16397e-06 5.36674e-09 0.000579385
0.00215302 0.000234414 -4.87411e-06
0.000234414 0.000738859 1.63871e-06
-4.87411e-06 1.63871e-06 0.000543832
0.00227458 0.000267731 -3.12133e-06
0.000267731 0.000258849 -2.81069e-06
-3.12133e-06 -2.81069e-06 0.000171281
0.0015611 0.000248896 -5.06438e-06
0.000248896 0.000160192 -9.36966e-10
-5.06438e-06 -9.36966e-10 -2.14504e-05
0.00027186 0.000116283 1.06411e-05
0.000116283 -0.000482857 -2.48809e-08
1.06411e-05 -2.48809e-08 -0.000642584
0.000813323 -3.70677e-06 1.20611e-08
-3.70677e-06 6.82879e-05 1.42538e-08
1.20611e-08 1.42538e-08 -3.08327e-06
0.000860274 -2.36796e-05 -2.06584e-07
-2.36796e-05 0.000101122 2.20907e-07
-2.06584e-07 2.20907e-07 2.28297e-05
0.000944019 -1.35725e-05 -2.92196e-08
-1.35725e-05 0.000139506 -1.08823e-06
-2.92196e-08 -1.08823e-06 5.6643e-05
0.000773922 -4.67941e-05 -2.77206e-07
-4.67941e-05 3.06045e-05 -6.57236e-07
-2.77206e-07 -6.57236e-07 -2.60486e-05
0.000743102 -5.02439e-05 -1.08463e-06
-5.02439e-05 2.4029e-05 5.27531e-07
-1.08463e-06 5.27531e-07 -4.30634e-05
0.000877314 6.18683e-05 -8.21668e-07
6.18683e-05 0.000109116 7.22003e-07
-8.21668e-07 7.22003e-07 3.23052e-05
0.000754619 -4.67532e-05 -4.95606e-08
-4.67532e-05 3.69573e-05 1.49062e-07
-4.95606e-08 1.49062e-07 -3.9555e-05
0.000775747 -2.59154e-05 -7.40182e-08
-2.59154e-05 3.23841e-05 2.79616e-08
-7.40182e-08 2.79616e-08 -2.53248e-05
0.000752679 8.51767e-06 8.87536e-09
8.51767e-06 2.1518e-05 -1.12296e-07
8.87536e-09 -1.12296e-07 -4.49514e-05
0.000792393 -3.2761e-05 3.46923e-07
-3.2761e-05 5.24191e-05 -4.78081e-07
3.46923e-07 -4.78081e-07 -2.53435e-05
0.000879181 -1.90017e-05 -2.21475e-08
-1.90017e-05 9.82789e-05 8.98725e-09
-2.21475e-08 8.98725e-09 2.65823e-05
0.000876037 -4.37933e-05 2.96716e-07
-4.37933e-05 9.69149e-05 -1.46799e-08
2.96716e-07 -1.46799e-08 2.12879e-05
0.000837424 -4.06357e-05 -6.78165e-09
-4.06357e-05 6.96776e-05 -9.06308e-07
-6.78165e-09 -9.06308e-07 -7.19664e-06
0.000823754 -9.14275e-06 4.18783e-07
-9.14275e-06 5.88823e-05 -1.33371e-06
4.18783e-07 -1.33371e-06 -1.28756e-05
0.000859297 1.30623e-05 5.93352e-07
1.30623e-05 7.92945e-05 -4.78167e-07
5.93352e-07 -4.78167e-07 9.9649e-06
0.000810113 2.54027e-05 2.30409e-07
2.54027e-05 5.71901e-05 1.64599e-08
2.30409e-07 1.64599e-08 -1.74152e-05
0.000680481 -1.09075e-05 3.41545e-08
-1.09075e-05 -2.76023e-05 9.32565e-07
3.41545e-08 9.32565e-07 -8.33539e-05
0.000913772 -6.42475e-06 2.86466e-07
-6.42475e-06 0.000127711 -6.40102e-07
2.86466e-07 -6.40102e-07 5.12921e-05
0.000653153 5.93823e-06 -5.87188e-07
5.93823e-06 -3.84335e-05 9.15304e-07
-5.87188e-07 9.15304e-07 -9.6101e-05
0.000743265 1.12844e-05 1.09011e-07
1.12844e-05 -3.34395e-07 1.37052e-06
1.09011e-07 1.37052e-06 -3.61709e-05
0.000743099 3.33364e-06 -9.61827e-08
3.33364e-06 -1.16017e-06 4.79148e-09
-9.61827e-08 4.79148e-09 -3.66218e-05
0.000694658 9.39599e-07 2.04882e-07
9.39599e-07 -4.17598e-05 3.30806e-06
2.04882e-07 3.30806e-06 -4.7407e-05
0.000757259 -6.15746e-06 -8.04205e-08
-6.15746e-06 5.11683e-06 -1.47277e-06
-8.04205e-08 -1.47277e-06 -2.95753e-05
0.00100875 -5.68241e-06 -1.49538e-06
-5.68241e-06 0.000133927 -1.41771e-06
-1.49538e-06 -1.41771e-06 0.000130322
0.00216408 -9.17565e-06 6.41084e-06
-9.17565e-06 0.000782429 4.42017e-06
6.41084e-06 4.42017e-06 0.000802891
0.00133928 -1.29587e-05 -2.99545e-06
-1.29587e-05 0.000320163 -4.68844e-06
-2.99545e-06 -4.68844e-06 0.000318295
0.000919141 -1.30768e-05 2.03655e-06
-1.30768e-05 8.82307e-05 2.71466e-06
2.03655e-06 2.71466e-06 0.000102129
0.000858692 -1.87152e-05 -1.00679e-06
-1.87152e-05 5.73724e-05 -1.687e-06
-1.00679e-06 -1.687e-06 7.13631e-05
0.000749141 7.58213e-06 2.52114e-07
7.58213e-06 4.58529e-06 -1.76093e-06
2.52114e-07 -1.76093e-06 -2.79326e-05
0.000756357 7.67103e-06 -3.62046e-08
7.67103e-06 8.36746e-06 1.24252e-08
-3.62046e-08 1.24252e-08 -2.57216e-05
0.00069969 1.76944e-05 4.47143e-07
1.76944e-05 -3.42878e-05 -3.46886e-06
4.47143e-07 -3.46886e-06 -3.97057e-05
0.00100579 2.7342e-05 -4.85929e-07
2.7342e-05 0.000141003 3.23794e-08
-4.85929e-07 3.23794e-08 0.000135076
0.00215041 3.62085e-05 1.65047e-05
3.62085e-05 0.000784777 -4.17253e-06
1.65047e-05 -4.17253e-06 0.000803039
0.000697869 3.06725e-05 -9.79019e-07
3.06725e-05 -2.55565e-05 3.67289e-06
-9.79019e-07 3.67289e-06 -3.57784e-05
0.00222324 4.65377e-05 -2.11729e-06
4.65377e-05 0.000832042 -1.03573e-07
-2.11729e-06 -1.03573e-07 0.000848071
0.00232335 5.61816e-05 -2.719e-05
5.61816e-05 0.000895495 3.87755e-06
-2.719e-05 3.87755e-06 0.000909019
0.0017114 0.000105489 -8.29223e-07
0.000105489 2.49705e-05 -3.89775e-07
-8.29223e-07 -3.89775e-07 -5.91222e-05
0.00184127 4.68955e-05 1.22353e-06
4.68955e-05 0.000104158 -7.96422e-07
1.22353e-06 -7.96422e-07 1.59726e-05
0.00180585 1.06575e-06 1.81136e-07
1.06575e-06 0.000113946 -1.48581e-07
1.81136e-07 -1.48581e-07 1.24797e-05
0.00176684 6.67811e-06 3.6187e-07
6.67811e-06 6.6676e-05 3.25867e-07
3.6187e-07 3.25867e-07 -2.24723e-05
0.00184188 6.16521e-05 -7.64726e-07
6.16521e-05 9.3165e-05 3.83129e-09
-7.64726e-07 3.83129e-09 1.84074e-05
0.00168176 4.66656e-05 2.33636e-06
4.66656e-05 -1.726e-05 5.65417e-08
2.33636e-06 5.65417e-08 -6.77316e-05
0.00167813 1.00965e-05 -1.29668e-06
1.00965e-05 -3.80754e-06 1.64487e-07
-1.29668e-06 1.64487e-07 -6.74014e-05
0.00330461 5.48541e-05 1.35052e-05
5.48541e-05 0.000625617 1.7969e-06
1.35052e-05 1.7969e-06 0.000571322
0.00168391 3.87054e-05 -9.20531e-06
3.87054e-05 -4.05871e-06 -1.90449e-06
-9.20531e-06 -1.90449e-06 -2.90022e-05
0.000782113 3.66007e-05 -2.43329e-07
3.66007e-05 4.32296e-05 -1.00736e-06
-2.43329e-07 -1.00736e-06 -1.04375e-05
0.0018642 -4.80265e-05 1.69801e-06
-4.80265e-05 0.000132684 1.9152e-07
1.69801e-06 1.9152e-07 4.53197e-05
0.00182977 -9.43251e-05 1.7997e-06
-9.43251e-05 0.000118525 -2.93145e-07
1.7997e-06 -2.93145e-07 4.2023e-05
0.00157672 -0.000110122 9.61908e-07
-0.000110122 -4.87678e-05 2.67536e-07
9.61908e-07 2.67536e-07 -0.000129394
0.000925367 -0.000135457 1.69109e-06
-0.000135457 0.000138957 3.96134e-06
1.69109e-06 3.96134e-06 6.48354e-07
0.00108988 -0.000173615 1.35159e-06
-0.000173615 0.000132614 4.65371e-06
1.35159e-06 4.65371e-06 -8.53107e-05
0.00127192 -0.000209185 -6.96583e-07
-0.000209185 -2.20172e-05 -3.46588e-06
-6.96583e-07 -3.46588e-06 -0.000179861
0.00162952 -0.000209215 -1.79633e-06
-0.000209215 9.7791e-06 -1.42116e-06
-1.79633e-06 -1.42116e-06 -9.20747e-05
0.00112743 -0.000132084 8.78163e-06
-0.000132084 0.000178826 -3.3581e-06
8.78163e-06 -3.3581e-06 6.52484e-05
0.000551588 -0.000109156 2.5084e-06
-0.000109156 -6.76186e-05 -9.6288e-06
2.5084e-06 -9.6288e-06 -0.000161407
0.000692543 -8.03307e-05 -1.04317e-07
-8.03307e-05 1.48798e-05 -1.14582e-06
-1.04317e-07 -1.14582e-06 -9.84786e-05
0.000753014 9.56991e-06 -1.00099e-06
9.56991e-06 8.06921e-06 1.87726e-06
-1.00099e-06 1.87726e-06 -2.82432e-05
0.000878613 -1.18765e-05 -1.85598e-08
-1.18765e-05 0.000110827 -6.79704e-07
-1.85598e-08 -6.79704e-07 1.50358e-05
0.00103527 -5.09706e-05 -3.41949e-07
-5.09706e-05 0.000189096 4.6215e-07
-3.41949e-07 4.6215e-07 0.000122985
0.00081821 -1.60065e-05 -9.16211e-07
-1.60065e-05 7.91511e-05 9.15749e-07
-9.16211e-07 9.15749e-07 -7.44521e-06
0.000613571 -1.24499e-05 -4.65908e-07
-1.24499e-05 -5.47426e-05 1.15765e-06
-4.65908e-07 1.15765e-06 -0.000110387
0.00191928 -6.14876e-05 -4.11327e-07
-6.14876e-05 0.000117881 -1.52785e-07
-4.11327e-07 -1.52785e-07 5.15168e-05
0.00067446 1.91219e-05 1.53064e-07
1.91219e-05 -1.22871e-05 -6.94454e-07
1.53064e-07 -6.94454e-07 -7.07118e-05
0.000781951 -4.52035e-05 -2.76689e-07
-4.52035e-05 4.61493e-05 7.64246e-08
-2.76689e-07 7.64246e-08 -1.68703e-05
0.000834771 -1.88538e-05 -6.43157e-07
-1.88538e-05 9.0149e-05 6.04676e-07
-6.43157e-07 6.04676e-07 1.15903e-05
0.00173148 -9.14487e-05 5.65725e-07
-9.14487e-05 1.61069e-05 -6.05218e-07
5.65725e-07 -6.05218e-07 -5.13257e-05
0.0017792 -0.000193045 -2.03984e-08
-0.000193045 1.85186e-05 -1.22562e-08
-2.03984e-08 -1.22562e-08 -5.77761e-05
0.000881714 -0.000114936 1.69244e-06
-0.000114936 6.94289e-05 -1.25427e-07
1.69244e-06 -1.25427e-07 -6.65523e-05
0.00110101 -0.000198831 1.81061e-06
-0.000198831 7.57707e-05 3.10582e-08
1.81061e-06 3.10582e-08 -0.000150367
0.00171887 -0.000254265 -7.22106e-07
-0.000254265 8.89505e-05 7.14698e-08
-7.22106e-07 7.14698e-08 -3.05577e-05
0.000732295 -1.32795e-06 -2.01939e-07
-1.32795e-06 3.55189e-05 -1.8995e-08
-2.01939e-07 -1.8995e-08 -5.14832e-05
0.000947418 -4.16024e-05 -6.65502e-08
-4.16024e-05 0.000153667 9.62498e-08
-6.65502e-08 9.62498e-08 6.00631e-05
0.000593793 -0.000123792 -6.06002e-06
-0.000123792 -6.85691e-05 1.28624e-06
-6.06002e-06 1.28624e-06 -0.000174668
0.000949866 -7.58046e-05 8.85992e-07
-7.58046e-05 0.00018776 -2.91199e-07
8.85992e-07 -2.91199e-07 5.71166e-05
0.000730591 -5.21723e-05 -5.62369e-07
-5.21723e-05 3.86688e-05 6.43632e-07
-5.62369e-07 6.43632e-07 -6.87653e-05
0.0020396 -0.00011822 -3.83268e-06
-0.00011822 0.000129628 3.53548e-07
-3.83268e-06 3.53548e-07 8.26313e-05
0.0023628 -0.000130016 -3.63215e-07
-0.000130016 0.000322262 1.25806e-06
-3.63215e-07 1.25806e-06 0.000266302
0.00216716 -0.000281628 -2.0144e-06
-0.000281628 0.000227724 -1.23923e-06
-2.0144e-06 -1.23923e-06 0.000131655
0.00196462 -0.000275834 -8.28268e-06
-0.000275834 0.000400049 8.26103e-07
-8.28268e-06 8.26103e-07 0.000227683
0.000947458 -0.000115671 -5.36696e-06
-0.000115671 0.000142826 -2.12395e-06
-5.36696e-06 -2.12395e-06 -2.90215e-05
0.000602759 1.32925e-05 5.72783e-07
1.32925e-05 -4.07391e-05 -1.32332e-06
5.72783e-07 -1.32332e-06 -0.000117722
0.000636071 5.34618e-05 4.07261e-08
5.34618e-05 -2.0188e-05 -8.48451e-07
4.07261e-08 -8.48451e-07 -0.000101963
0.000938317 1.41825e-05 1.03147e-06
1.41825e-05 0.00014897 1.65402e-07
1.03147e-06 1.65402e-07 6.2401e-05
0.00081261 -6.92772e-05 1.64454e-06
-6.92772e-05 8.49614e-05 1.62595e-07
1.64454e-06 1.62595e-07 -1.10187e-05
0.00081714 -1.14345e-05 4.51873e-07
-1.14345e-05 7.94944e-05 1.06427e-06
4.51873e-07 1.06427e-06 -1.51568e-05
0.000717605 -1.50791e-05 1.6651e-06
-1.50791e-05 4.71845e-05 -3.57e-07
1.6651e-06 -3.57e-07 -7.19686e-05
0.000730142 -9.55201e-05 8.82676e-06
-9.55201e-05 9.71283e-05 1.02485e-06
8.82676e-06 1.02485e-06 -7.97115e-05
0.000797841 4.22777e-05 6.70975e-07
4.22777e-05 7.12031e-05 -1.52755e-06
6.70975e-07 -1.52755e-06 -1.23103e-05
0.000593011 4.55047e-05 6.99503e-07
4.55047e-05 -2.58892e-05 1.70135e-07
6.99503e-07 1.70135e-07 -0.000137625
0.00191664 9.41751e-05 1.16826e-06
9.41751e-05 9.99021e-05 -3.5369e-07
1.16826e-06 -3.5369e-07 4.08048e-05
0.00175569 0.000156826 3.82181e-06
0.000156826 -7.68168e-06 -4.20454e-07
3.82181e-06 -4.20454e-07 -8.12441e-05
0.00192974 0.000248743 3.02311e-06
0.000248743 0.000168792 -1.75475e-08
3.02311e-06 -1.75475e-08 4.16917e-05
0.000528715 0.000111708 1.97226e-06
0.000111708 -8.45095e-05 -7.00546e-07
1.97226e-06 -7.00546e-07 -0.000258811
0.00200564 0.000256854 2.78752e-06
0.000256854 0.000522063 1.43612e-06
2.78752e-06 1.43612e-06 0.000311967
0.00100866 1.90499e-05 -2.46907e-07
1.90499e-05 0.00019138 3.15624e-07
-2.46907e-07 3.15624e-07 9.77485e-05
0.00192873 0.000106535 -1.26162e-06
0.000106535 8.81967e-05 -1.4917e-07
-1.26162e-06 -1.4917e-07 5.47345e-05
0.00130372 0.000140185 -1.01054e-06
0.000140185 0.00035092 -7.60085e-08
-1.01054e-06 -7.60085e-08 0.000216837
0.00149913 0.000189788 -7.10032e-07
0.000189788 0.000409386 1.21722e-06
-7.10032e-07 1.21722e-06 0.000211771
0.00210669 0.00025346 1.04726e-06
0.00025346 0.000168293 -9.82087e-07
1.04726e-06 -9.82087e-07 8.28955e-05
0.00150048 0.000246538 -1.41801e-06
0.000246538 0.000129191 1.25908e-06
-1.41801e-06 1.25908e-06 -5.64211e-05
0.00122064 0.000136582 1.37972e-05
0.000136582 -0.000213921 1.53278e-06
1.37972e-05 1.53278e-06 -0.000408856
0.00108019 5.59671e-05 -2.24319e-06
5.59671e-05 0.000228104 -1.35641e-06
-2.24319e-06 -1.35641e-06 0.000120352
0.0025984 0.00017698 -1.87558e-05
0.00017698 0.000450238 -1.04988e-05
-1.87558e-05 -1.04988e-05 0.000450462
0.00131006 0.000168821 -5.54395e-06
0.000168821 0.000357956 -1.40775e-06
-5.54395e-06 -1.40775e-06 0.000207161
0.00141066 0.000205032 -6.6277e-06
0.000205032 0.000294038 -4.54541e-07
-6.6277e-06 -4.54541e-07 7.87672e-05
0.000490599 0.000257212 -8.92621e-06
0.000257212 -0.000541424 -1.72472e-06
-8.92621e-06 -1.72472e-06 -0.000685324
0.00781903 6.37508e-05 -8.37681e-05
6.37508e-05 0.0023927 -3.04889e-05
-8.37681e-05 -3.04889e-05 0.00151783
0.00380717 0.00026301 9.78041e-05
0.00026301 0.000548509 1.26162e-06
9.78041e-05 1.26162e-06 -0.000143323
0.000339062 0.000225289 9.25764e-06
0.000225289 -0.000494339 1.79187e-05
9.25764e-06 1.79187e-05 -0.000598934
-0.00197238 -0.000348515 5.65441e-05
-0.000348515 -0.000748941 -9.4389e-06
5.65441e-05 -9.4389e-06 -0.000929916
0.00338165 -0.000714497 -2.2866e-05
-0.000714497 0.000411392 -1.00012e-05
-2.2866e-05 -1.00012e-05 0.00166833
0.000859584 -1.64738e-05 3.73365e-07
-1.64738e-05 9.99051e-05 -1.14829e-07
3.73365e-07 -1.14829e-07 2.19715e-05
0.000927654 -2.37763e-05 8.32569e-07
-2.37763e-05 0.000134419 -3.2024e-07
8.32569e-07 -3.2024e-07 5.20604e-05
0.00093234 2.23442e-05 -3.29342e-07
2.23442e-05 0.000139645 -2.16506e-06
-3.29342e-07 -2.16506e-06 5.66571e-05
0.000763908 -5.13597e-05 1.07214e-07
-5.13597e-05 3.00163e-05 -6.76479e-07
1.07214e-07 -6.76479e-07 -3.0447e-05
0.00071239 4.48967e-05 -9.36445e-07
4.48967e-05 1.33801e-06 7.42546e-08
-9.36445e-07 7.42546e-08 -6.66524e-05
0.00087219 -4.5892e-05 -1.12235e-07
-4.5892e-05 9.52183e-05 3.80034e-07
-1.12235e-07 3.80034e-07 2.30001e-05
0.000954911 -2.35151e-05 -7.46902e-07
-2.35151e-05 0.000138518 5.75186e-07
-7.46902e-07 5.75186e-07 6.44129e-05
0.000840985 -4.17104e-05 9.45493e-08
-4.17104e-05 7.86001e-05 -3.12236e-07
9.45493e-08 -3.12236e-07 -3.63354e-07
0.000811239 3.60669e-05 -6.66934e-07
3.60669e-05 5.80728e-05 -2.46893e-07
-6.66934e-07 -2.46893e-07 -1.54598e-05
0.000719131 -4.88797e-06 -2.66525e-08
-4.88797e-06 -1.89903e-06 5.44216e-07
-2.66525e-08 5.44216e-07 -5.92325e-05
0.00081251 2.36204e-05 -2.83638e-07
2.36204e-05 5.74669e-05 -6.52081e-08
-2.83638e-07 -6.52081e-08 -1.58072e-05
0.000866875 -3.88808e-05 -2.36777e-07
-3.88808e-05 8.55819e-05 4.82877e-07
-2.36777e-07 4.82877e-07 9.2147e-06
0.000853951 -1.30869e-05 -1.06447e-07
-1.30869e-05 7.55475e-05 -1.76222e-07
-1.06447e-07 -1.76222e-07 4.02279e-06
0.000773582 1.95058e-05 2.55393e-07
1.95058e-05 2.73538e-05 -1.0161e-06
2.55393e-07 -1.0161e-06 -4.3266e-05
0.000761822 -1.56743e-05 7.20657e-07
-1.56743e-05 2.01833e-05 -2.07173e-06
7.20657e-07 -2.07173e-06 -4.76753e-05
0.000890497 2.60325e-05 1.33524e-06
2.60325e-05 9.08807e-05 -1.22808e-07
1.33524e-06 -1.22808e-07 1.87033e-05
0.000764704 2.47501e-06 1.04078e-06
2.47501e-06 2.25047e-05 -2.24346e-07
1.04078e-06 -2.24346e-07 -4.97459e-05
0.000667668 -3.9276e-05 -1.28203e-06
-3.9276e-05 -2.94567e-05 9.07519e-07
-1.28203e-06 9.07519e-07 -8.84401e-05
0.000869282 1.2816e-05 -4.5513e-07
1.2816e-05 8.96994e-05 -2.04727e-07
-4.5513e-07 -2.04727e-07 1.60891e-05
0.000917583 5.80179e-05 -2.04257e-08
5.80179e-05 0.000116918 -1.30347e-06
-2.04257e-08 -1.30347e-06 4.17774e-05
0.000772748 5.37051e-06 -7.58184e-07
5.37051e-06 4.57367e-05 -2.68514e-07
-7.58184e-07 -2.68514e-07 -2.47363e-05
0.000869301 9.29659e-06 6.53051e-07
9.29659e-06 9.54767e-05 -3.8183e-07
6.53051e-07 -3.8183e-07 2.2877e-05
0.000778583 -3.17829e-05 -1.48186e-06
-3.17829e-05 3.14607e-05 4.37332e-07
-1.48186e-06 4.37332e-07 -2.44431e-05
0.00066546 7.97814e-06 1.40781e-07
7.97814e-06 -2.85806e-05 4.97051e-07
1.40781e-07 4.97051e-07 -8.83685e-05
0.000754596 1.32764e-05 -2.45409e-07
1.32764e-05 5.49873e-06 1.39726e-06
-2.45409e-07 1.39726e-06 -3.02134e-05
0.000741366 4.88354e-06 -1.13234e-07
4.88354e-06 -1.53004e-06 -1.7762e-10
-1.13234e-07 -1.7762e-10 -3.72932e-05
0.000715314 6.61918e-06 -3.69382e-07
6.61918e-06 -2.89559e-05 4.71772e-06
-3.69382e-07 4.71772e-06 -3.51523e-05
0.000741713 -3.21092e-06 3.32785e-07
-3.21092e-06 -1.95068e-06 -1.41444e-06
3.32785e-07 -1.41444e-06 -3.7344e-05
0.000699143 1.17895e-06 2.41057e-07
1.17895e-06 -3.92462e-05 -6.23522e-09
2.41057e-07 -6.23522e-09 -4.49251e-05
0.00217828 -9.59425e-07 3.08318e-07
-9.59425e-07 0.000789876 4.48866e-06
3.08318e-07 4.48866e-06 0.000810231
0.000723278 -4.37174e-06 -5.38661e-07
-4.37174e-06 -2.53169e-05 -4.72362e-06
-5.38661e-07 -4.72362e-06 -3.07947e-05
0.00154292 -7.35424e-06 -3.81644e-07
-7.35424e-06 0.00043504 2.91014e-08
-3.81644e-07 2.91014e-08 0.000452192
0.000871611 -1.21328e-05 -4.92649e-07
-1.21328e-05 6.09931e-05 -1.69573e-06
-4.92649e-07 -1.69573e-06 7.52342e-05
0.000751 5.31399e-06 -1.36639e-07
5.31399e-06 5.59912e-06 -1.74716e-06
-1.36639e-07 -1.74716e-06 -2.57835e-05
0.000750228 5.5091e-06 3.90343e-08
5.5091e-06 4.87093e-06 1.43427e-08
3.90343e-08 1.43427e-08 -2.76096e-05
0.000705413 1.18003e-05 1.89975e-07
1.18003e-05 -3.40713e-05 -3.43564e-06
1.89975e-07 -3.43564e-06 -3.80875e-05
0.000757214 6.11454e-06 -8.54441e-07
6.11454e-06 8.57897e-06 1.86405e-06
-8.54441e-07 1.86405e-06 -2.55093e-05
0.00099425 2.01041e-05 -2.25782e-07
2.01041e-05 0.000129945 -7.00709e-07
-2.25782e-07 -7.00709e-07 0.000126216
0.00211689 2.68057e-05 1.24993e-05
2.68057e-05 0.000761468 -4.31211e-06
1.24993e-05 -4.31211e-06 0.000781172
0.000699139 2.47848e-05 -6.74008e-07
2.47848e-05 -2.99677e-05 3.57518e-06
-6.74008e-07 3.57518e-06 -3.77618e-05
0.00220225 3.6327e-05 -7.15146e-06
3.6327e-05 0.0008151 1.1647e-06
-7.15146e-06 1.1647e-06 0.000832944
0.00224498 4.71176e-05 -2.20141e-05
4.71176e-05 0.00084499 4.03837e-06
-2.20141e-05 4.03837e-06 0.00086074
0.00169088 5.97384e-05 3.9185e-07
5.97384e-05 1.63485e-05 -4.57222e-07
3.9185e-07 -4.57222e-07 -5.92912e-05
0.00173898 7.8492e-06 1.0549e-06
7.8492e-06 4.87126e-05 -6.00665e-08
1.0549e-06 -6.00665e-08 -4.06442e-05
0.00186007 4.73476e-05 4.14101e-06
4.73476e-05 8.26777e-05 6.49776e-07
4.14101e-06 6.49776e-07 3.00696e-05
0.00203978 4.78894e-05 1.41485e-05
4.78894e-05 1.26513e-05 2.53168e-06
1.41485e-05 2.53168e-06 -5.76645e-05
0.00178637 9.36956e-06 -6.80932e-07
9.36956e-06 5.19242e-05 3.57415e-08
-6.80932e-07 3.57415e-08 -1.13369e-05
0.00190299 3.89299e-05 1.86387e-06
3.89299e-05 0.000124119 6.97108e-07
1.86387e-06 6.97108e-07 9.71759e-05
0.00240929 3.49077e-06 -9.52582e-06
3.49077e-06 0.000391043 -2.42468e-07
-9.52582e-06 -2.42468e-07 0.000341901
0.00316377 -8.98829e-06 0.000134916
-8.98829e-06 0.000383909 -1.05691e-06
0.000134916 -1.05691e-06 7.27617e-05
0.00180157 -2.05061e-05 -1.01222e-05
-2.05061e-05 -5.22046e-05 -4.67627e-06
-1.01222e-05 -4.67627e-06 -0.000115694
0.000782373 4.27614e-05 -8.18097e-07
4.27614e-05 4.52248e-05 -9.72479e-07
-8.18097e-07 -9.72479e-07 -9.20765e-06
0.00078058 -1.2982e-05 6.99918e-07
-1.2982e-05 4.5945e-05 -6.9858e-08
6.99918e-07 -6.9858e-08 -1.04556e-05
0.000766893 -5.74634e-05 1.29043e-07
-5.74634e-05 4.41751e-05 -3.35996e-07
1.29043e-07 -3.35996e-07 -2.49411e-05
0.000779636 -2.11815e-05 -1.28612e-06
-2.11815e-05 6.03741e-05 2.21414e-09
-1.28612e-06 2.21414e-09 -1.4064e-05
0.00194804 -6.63755e-05 1.76887e-06
-6.63755e-05 0.000130489 -1.93531e-07
1.76887e-06 -1.93531e-07 6.53318e-05
0.00163516 -9.75969e-05 -2.03316e-06
-9.75969e-05 -4.51404e-05 -1.99687e-07
-2.03316e-06 -1.99687e-07 -0.000112519
0.00184562 -0.000193692 -2.44996e-06
-0.000193692 6.71616e-05 1.28398e-06
-2.44996e-06 1.28398e-06 -1.26803e-05
0.000974765 -0.000148697 3.82763e-06
-0.000148697 0.00011278 2.76962e-06
3.82763e-06 2.76962e-06 -1.96711e-05
2.71912e-05 -0.000129035 3.88161e-06
-0.000129035 -0.000473453 -6.88034e-07
3.88161e-06 -6.88034e-07 -0.000698191
0.00219124 -0.00028522 -2.45793e-08
-0.00028522 0.000339251 -2.3813e-06
-2.45793e-08 -2.3813e-06 0.000215386
0.000519407 -0.00010824 -7.32155e-06
-0.00010824 -0.000101746 1.0464e-06
-7.32155e-06 1.0464e-06 -0.000216413
0.00102645 -6.97106e-05 -1.30874e-06
-6.97106e-05 0.000221854 -1.27175e-06
-1.30874e-06 -1.27175e-06 9.7957e-05
0.000930318 -7.75746e-05 -1.98816e-06
-7.75746e-05 0.000147642 8.20228e-07
-1.98816e-06 8.20228e-07 3.94465e-05
0.000791229 -2.11971e-05 -1.2351e-06
-2.11971e-05 4.85806e-05 1.27638e-06
-1.2351e-06 1.27638e-06 -1.26589e-05
0.000841743 -5.41945e-05 -5.01873e-07
-5.41945e-05 0.000101399 -1.49217e-07
-5.01873e-07 -1.49217e-07 2.95553e-06
0.00084969 -5.64928e-06 -9.62126e-07
-5.64928e-06 9.83348e-05 6.52634e-07
-9.62126e-07 6.52634e-07 1.34882e-05
0.000780847 -4.74833e-06 -3.63158e-08
-4.74833e-06 4.87035e-05 5.09433e-07
-3.63158e-08 5.09433e-07 -1.02948e-05
0.000689796 1.97662e-05 -2.65295e-07
1.97662e-05 1.23108e-05 1.54402e-06
-2.65295e-07 1.54402e-06 -6.88919e-05
0.00194382 -0.000101794 1.07279e-07
-0.000101794 0.000106443 2.72734e-07
1.07279e-07 2.72734e-07 5.64151e-05
0.000786438 8.60095e-06 6.32934e-07
8.60095e-06 6.13453e-05 -4.85231e-07
6.32934e-07 -4.85231e-07 -1.44966e-05
0.000732423 2.04744e-05 5.83548e-07
2.04744e-05 3.47494e-05 -7.08028e-08
5.83548e-07 -7.08028e-08 -4.77292e-05
0.000829793 5.87999e-05 -3.50646e-07
5.87999e-05 9.26161e-05 8.50363e-07
-3.50646e-07 8.50363e-07 4.78775e-06
0.00197646 -0.000122421 -2.85624e-06
-0.000122421 0.000102409 9.92418e-07
-2.85624e-06 9.92418e-07 4.27619e-05
0.00188877 -0.000260951 5.48955e-07
-0.000260951 9.08481e-05 -1.25606e-06
5.48955e-07 -1.25606e-06 -1.47225e-06
0.00100388 -0.000155069 -1.39963e-06
-0.000155069 0.000161875 6.29865e-08
-1.39963e-06 6.29865e-08 -1.08523e-05
0.00222707 -0.000292063 -8.45212e-07
-0.000292063 0.000532005 4.54004e-07
-8.45212e-07 4.54004e-07 0.000355841
0.000902974 -2.15052e-05 -3.36235e-07
-2.15052e-05 0.000130828 6.61624e-08
-3.36235e-07 6.61624e-08 3.69655e-05
0.000784454 -2.81076e-05 -1.08671e-07
-2.81076e-05 6.81597e-05 9.17565e-07
-1.08671e-07 9.17565e-07 -2.92985e-05
0.00079007 -0.000100262 3.85038e-06
-0.000100262 0.000118567 -1.10321e-06
3.85038e-06 -1.10321e-06 -4.87941e-05
0.000999801 -6.64389e-05 1.05438e-06
-6.64389e-05 0.00020623 -1.04788e-06
1.05438e-06 -1.04788e-06 7.76174e-05
0.00223029 -8.35047e-05 -4.91222e-06
-8.35047e-05 0.000224939 4.26034e-06
-4.91222e-06 4.26034e-06 0.000165423
0.00240963 -0.000233116 -4.55261e-06
-0.000233116 0.000273862 -2.13873e-06
-4.55261e-06 -2.13873e-06 0.000244571
0.00239417 -0.000310996 -3.86246e-06
-0.000310996 0.000480798 -2.30929e-06
-3.86246e-06 -2.30929e-06 0.000341301
0.00138654 -0.000225971 -1.50692e-06
-0.000225971 0.000334727 -1.09671e-06
-1.50692e-06 -1.09671e-06 0.000154381
0.000743619 2.67739e-05 -3.46973e-07
2.67739e-05 4.59343e-05 -6.24591e-07
-3.46973e-07 -6.24591e-07 -4.7685e-05
0.000757696 -3.99357e-05 7.61966e-07
-3.99357e-05 5.80916e-05 -9.66616e-07
7.61966e-07 -9.66616e-07 -3.64361e-05
0.000777428 -2.87294e-05 2.94116e-07
-2.87294e-05 6.94781e-05 4.59293e-07
2.94116e-07 4.59293e-07 -3.32323e-05
0.000746011 -8.40898e-07 -5.05074e-07
-8.40898e-07 9.99946e-05 6.33789e-07
-5.05074e-07 6.33789e-07 -8.49529e-05
0.000400487 -0.000110975 1.35566e-05
-0.000110975 -0.00146641 -4.53679e-06
1.35566e-05 -4.53679e-06 -0.00194626
0.000994304 1.187e-05 1.10256e-06
1.187e-05 0.000180744 -1.10475e-06
1.10256e-06 -1.10475e-06 9.26722e-05
0.000623777 9.12661e-05 2.41864e-06
9.12661e-05 -1.34216e-05 1.31803e-06
2.41864e-06 1.31803e-06 -0.000140185
0.00172678 0.000102451 1.24981e-05
0.000102451 -2.56878e-05 8.24909e-07
1.24981e-05 8.24909e-07 -5.22385e-05
0.00200477 0.000242364 2.5701e-06
0.000242364 0.000111572 -5.39529e-07
2.5701e-06 -5.39529e-07 2.82e-05
0.00126068 0.000233931 4.72219e-06
0.000233931 6.33699e-06 2.68592e-06
4.72219e-06 2.68592e-06 -0.000184595
0.000786678 0.00014061 4.26037e-06
0.00014061 4.87618e-05 1.2034e-06
4.26037e-06 1.2034e-06 -0.000151598
0.00219566 0.00016595 1.42431e-05
0.00016595 8.85551e-05 1.69675e-06
1.42431e-05 1.69675e-06 -0.000154302
0.000979906 4.93999e-05 8.00005e-07
4.93999e-05 0.000179699 -7.69047e-07
8.00005e-07 -7.69047e-07 7.42232e-05
0.00222864 0.000168554 -6.49395e-06
0.000168554 0.000259568 -2.02488e-06
-6.49395e-06 -2.02488e-06 0.000270216
0.00106518 0.000151049 3.28588e-07
0.000151049 0.000231675 -3.46927e-07
3.28588e-07 -3.46927e-07 8.4741e-05
0.00118351 0.000196727 -3.07541e-07
0.000196727 0.000183239 6.54605e-07
-3.07541e-07 6.54605e-07 -3.39106e-05
0.00127923 0.000298692 -2.06415e-06
0.000298692 -0.000155854 -8.95583e-07
-2.06415e-06 -8.95583e-07 -0.000293229
0.0027831 -0.000138524 -5.75349e-05
-0.000138524 -8.94961e-05 -1.81294e-05
-5.75349e-05 -1.81294e-05 -0.000917008
0.00355251 0.000189583 8.03515e-06
0.000189583 0.000261148 -1.52591e-05
8.03515e-06 -1.52591e-05 -0.00051843
0.000296628 0.000186981 6.04114e-06
0.000186981 -0.000506117 5.87104e-06
6.04114e-06 5.87104e-06 -0.000620056
-0.00190765 -0.000208893 5.20623e-05
-0.000208893 -0.000408832 1.45673e-05
5.20623e-05 1.45673e-05 -0.000899225
-0.000240205 -0.000728871 -2.2101e-06
-0.000728871 -0.00130614 -1.4957e-05
-2.2101e-06 -1.4957e-05 0.000150701
0.00120393 0.000105045 -3.05062e-06
0.000105045 0.000322058 -2.7926e-06
-3.05062e-06 -2.7926e-06 0.000214062
0.000746331 0.000160723 -3.87572e-05
0.000160723 0.000825643 -2.45228e-05
-3.87572e-05 -2.45228e-05 0.000302647
0.00141884 -0.000351996 -5.22716e-05
-0.000351996 0.000825748 -5.08323e-05
-5.22716e-05 -5.08323e-05 0.000874827
0.00226708 0.000241438 -2.21424e-05
0.000241438 0.000334792 -5.75885e-06
-2.21424e-05 -5.75885e-06 0.000352119
0.00103145 9.34477e-05 -9.15737e-06
9.34477e-05 0.000225896 -2.29978e-06
-9.15737e-06 -2.29978e-06 6.48959e-05
0.000960155 0.000293423 -1.53572e-05
0.000293423 -1.18031e-05 -7.39368e-06
-1.53572e-05 -7.39368e-06 -0.000236964
-0.000225129 0.000238385 1.04343e-05
0.000238385 -0.000783302 4.82012e-05
1.04343e-05 4.82012e-05 -0.000779462
0.00786245 -5.2405e-05 -4.1915e-05
-5.2405e-05 0.00275982 -1.72189e-05
-4.1915e-05 -1.72189e-05 0.00140698
0.00364482 0.000408386 -6.39585e-06
0.000408386 0.000557299 1.70716e-05
-6.39585e-06 1.70716e-05 -0.000540581
0.000712537 -0.00057494 1.55528e-05
-0.00057494 -0.00017101 1.15318e-05
1.55528e-05 1.15318e-05 0.00016898
0.00120827 -0.000404967 -2.58001e-05
-0.000404967 -0.00161761 3.68715e-05
-2.58001e-05 3.68715e-05 -0.000485308
0.000879571 -3.07752e-05 1.18244e-06
-3.07752e-05 0.000112925 -4.79899e-07
1.18244e-06 -4.79899e-07 3.09897e-05
0.000915345 1.2314e-05 1.75475e-07
1.2314e-05 0.000131195 2.74049e-08
1.75475e-07 2.74049e-08 4.88671e-05
0.00111948 5.136e-05 -1.01888e-06
5.136e-05 0.000238213 -3.16788e-06
-1.01888e-06 -3.16788e-06 0.000172429
0.000761037 3.74104e-06 -1.18953e-07
3.74104e-06 3.1716e-05 -1.73892e-09
-1.18953e-07 -1.73892e-09 -3.13237e-05
0.000821869 1.89912e-05 -6.88308e-07
1.89912e-05 6.14603e-05 -1.28733e-07
-6.88308e-07 -1.28733e-07 -1.04797e-05
0.000755609 -3.19713e-05 -5.14228e-07
-3.19713e-05 2.12836e-05 2.17162e-07
-5.14228e-07 2.17162e-07 -4.82285e-05
0.000895027 -1.61314e-05 2.04098e-08
-1.61314e-05 9.83984e-05 6.48077e-07
2.04098e-08 6.48077e-07 2.68038e-05
0.000912193 -3.8716e-05 -2.90351e-07
-3.8716e-05 0.000110631 1.65093e-06
-2.90351e-07 1.65093e-06 3.45004e-05
0.000666276 -2.05818e-07 4.95521e-07
-2.05818e-07 -2.78979e-05 5.1127e-07
4.95521e-07 5.1127e-07 -8.84729e-05
0.000828764 -8.74613e-06 -1.29327e-07
-8.74613e-06 5.69285e-05 -1.33545e-07
-1.29327e-07 -1.33545e-07 -1.37435e-05
0.000891887 -7.7584e-06 5.5964e-09
-7.7584e-06 9.3741e-05 2.93339e-07
5.5964e-09 2.93339e-07 2.10809e-05
0.000838897 2.31785e-05 5.62654e-07
2.31785e-05 7.15702e-05 -2.35479e-07
5.62654e-07 -2.35479e-07 -4.81689e-06
0.000787334 -1.31737e-05 1.60611e-07
-1.31737e-05 3.38674e-05 -1.36095e-07
1.60611e-07 -1.36095e-07 -3.33676e-05
0.000840739 -1.79798e-05 5.04056e-07
-1.79798e-05 5.70305e-05 -1.09392e-06
5.04056e-07 -1.09392e-06 -1.24877e-05
0.000770679 1.6976e-05 -7.64629e-07
1.6976e-05 1.79526e-05 -4.56382e-06
-7.64629e-07 -4.56382e-06 -4.3275e-05
0.000901303 -5.94525e-05 1.80725e-07
-5.94525e-05 9.49177e-05 -5.90104e-07
1.80725e-07 -5.90104e-07 1.89077e-05
0.000878589 -4.59046e-05 -4.95561e-07
-4.59046e-05 9.59326e-05 -6.62139e-07
-4.95561e-07 -6.62139e-07 1.87161e-05
0.000883971 -1.04174e-05 -4.59813e-07
-1.04174e-05 9.91215e-05 -1.72826e-07
-4.59813e-07 -1.72826e-07 2.41067e-05
0.000906772 4.60593e-05 -5.17221e-07
4.60593e-05 0.000107406 -2.87317e-07
-5.17221e-07 -2.87317e-07 3.42008e-05
0.000871636 2.03224e-05 -6.00831e-07
2.03224e-05 9.26934e-05 -1.20183e-06
-6.00831e-07 -1.20183e-06 9.90648e-06
0.000833707 4.68973e-05 2.24202e-07
4.68973e-05 7.24296e-05 -8.3329e-07
2.24202e-07 -8.3329e-07 8.80994e-08
0.000783301 4.41337e-05 1.24167e-07
4.41337e-05 3.65444e-05 -1.34748e-06
1.24167e-07 -1.34748e-06 -3.34035e-05
0.000751822 4.80504e-05 1.64945e-06
4.80504e-05 4.49382e-05 9.31232e-07
1.64945e-06 9.31232e-07 -3.25583e-05
0.00077055 1.61775e-05 -3.24594e-07
1.61775e-05 3.93197e-05 -2.27441e-07
-3.24594e-07 -2.27441e-07 -2.4234e-05
0.000792062 -1.13549e-06 -6.99365e-08
-1.13549e-06 5.37e-05 4.20016e-08
-6.99365e-08 4.20016e-08 -1.51247e-05
0.000778107 5.73755e-06 -1.17809e-06
5.73755e-06 2.80238e-05 2.87682e-07
-1.17809e-06 2.87682e-07 -2.41908e-05
0.000822117 1.24532e-05 8.36419e-07
1.24532e-05 6.03499e-05 -9.31226e-08
8.36419e-07 -9.31226e-08 -7.48795e-06
0.000746489 -2.66198e-05 -2.24287e-08
-2.66198e-05 1.33969e-05 2.18759e-08
-2.24287e-08 2.18759e-08 -4.29543e-05
0.000761165 1.6197e-05 -6.33753e-07
1.6197e-05 8.5705e-06 1.46532e-06
-6.33753e-07 1.46532e-06 -2.67033e-05
0.000676683 7.72e-06 5.12171e-07
7.72e-06 -1.86531e-05 4.47761e-08
5.12171e-07 4.47761e-08 -8.09307e-05
0.00074821 8.01304e-06 -9.78802e-08
8.01304e-06 1.56073e-06 5.3064e-10
-9.78802e-08 5.3064e-10 -3.40075e-05
0.00134982 1.48203e-05 -2.98597e-06
1.48203e-05 0.00032758 4.61883e-06
-2.98597e-06 4.61883e-06 0.00032444
0.000738091 -1.66954e-06 5.82804e-07
-1.66954e-06 -3.47072e-06 -1.37025e-06
5.82804e-07 -1.37025e-06 -3.91608e-05
0.00102657 7.89137e-06 -1.44924e-06
7.89137e-06 0.000144958 7.02281e-07
-1.44924e-06 7.02281e-07 0.000140505
0.000929772 3.68337e-06 -3.16198e-06
3.68337e-06 9.26137e-05 4.35761e-06
-3.16198e-06 4.35761e-06 0.000106129
0.000704599 1.41043e-06 2.76844e-08
1.41043e-06 -3.61715e-05 -3.2921e-06
2.76844e-08 -3.2921e-06 -4.18904e-05
0.00218151 -1.49138e-07 2.91823e-06
-1.49138e-07 0.000791716 -7.84327e-10
2.91823e-06 -7.84327e-10 0.000812032
0.000938653 -3.81833e-06 -2.74864e-06
-3.81833e-06 9.7339e-05 -4.36065e-06
-2.74864e-06 -4.36065e-06 0.000111266
0.000780467 5.85307e-05 6.15375e-07
5.85307e-05 4.81759e-05 -2.39638e-07
6.15375e-07 -2.39638e-07 -1.00258e-05
0.00075309 1.67517e-06 -2.90702e-08
1.67517e-06 6.20742e-06 -1.69493e-06
-2.90702e-08 -1.69493e-06 -2.46155e-05
0.000750563 3.82847e-06 -1.02761e-07
3.82847e-06 5.18642e-06 1.77097e-09
-1.02761e-07 1.77097e-09 -2.61606e-05
0.000708081 5.69125e-06 -7.29175e-08
5.69125e-06 -3.436e-05 -3.38919e-06
-7.29175e-08 -3.38919e-06 -3.73856e-05
0.000752422 3.88652e-06 -4.19962e-07
3.88652e-06 5.76126e-06 1.75569e-06
-4.19962e-07 1.75569e-06 -2.66932e-05
0.000698627 1.19551e-05 1.05571e-08
1.19551e-05 -3.82684e-05 -7.1604e-07
1.05571e-08 -7.1604e-07 -4.2184e-05
0.00209026 1.74897e-05 8.33269e-06
1.74897e-05 0.000743315 -4.41048e-06
8.33269e-06 -4.41048e-06 0.000764064
0.00129253 2.42375e-05 -1.14816e-06
2.42375e-05 0.000296921 2.09689e-06
-1.14816e-06 2.09689e-06 0.000294536
0.0015378 2.28952e-05 3.83551e-07
2.28952e-05 0.000438922 1.38702e-06
3.83551e-07 1.38702e-06 0.000455043
0.000982616 2.55971e-05 -1.65913e-05
2.55971e-05 0.00013402 7.0152e-06
-1.65913e-05 7.0152e-06 0.000145206
0.000574796 4.46172e-05 2.47556e-05
4.46172e-05 -0.000700558 9.93918e-06
2.47556e-05 9.93918e-06 -0.000796956
0.00187707 8.37547e-06 3.04994e-06
8.37547e-06 9.69722e-05 3.29022e-07
3.04994e-06 3.29022e-07 3.43014e-05
0.00213281 3.72787e-05 1.33491e-05
3.72787e-05 0.000259079 3.96995e-07
1.33491e-05 3.96995e-07 0.000228559
0.000924707 2.09223e-05 1.93479e-05
2.09223e-05 -0.000506987 -3.44456e-06
1.93479e-05 -3.44456e-06 -0.000855244
0.00178417 -1.33223e-05 1.80036e-06
-1.33223e-05 -1.89745e-05 8.68644e-07
1.80036e-06 8.68644e-07 -7.02832e-05
0.00203377 -6.52532e-06 -3.01226e-06
-6.52532e-06 0.000132118 -9.0391e-07
-3.01226e-06 -9.0391e-07 8.90157e-05
0.00238083 -2.2835e-05 -3.32407e-05
-2.2835e-05 0.000295192 3.42766e-06
-3.32407e-05 3.42766e-06 0.000259856
0.00194713 -0.000100476 0.000135957
-0.000100476 -3.92698e-05 -9.61791e-06
0.000135957 -9.61791e-06 -0.000336874
0.00793515 -8.10555e-05 -2.88825e-05
-8.10555e-05 0.00246602 5.05558e-06
-2.88825e-05 5.05558e-06 0.00153167
0.00413021 0.00072699 5.33036e-05
0.00072699 0.00199911 -1.40839e-05
5.33036e-05 -1.40839e-05 0.00218587
0.00208098 0.000679841 -1.29264e-05
0.000679841 0.000685238 1.43918e-05
-1.29264e-05 1.43918e-05 0.00170176
0.000617659 -6.19563e-05 1.30409e-06
-6.19563e-05 -3.38219e-05 -9.42756e-07
1.30409e-06 -9.42756e-07 -0.000105386
0.000785379 -9.20592e-06 4.71907e-07
-9.20592e-06 4.83457e-05 -4.7925e-08
4.71907e-07 -4.7925e-08 -7.19006e-06
0.00077905 -6.24913e-05 -1.18614e-06
-6.24913e-05 4.92248e-05 1.19331e-06
-1.18614e-06 1.19331e-06 -1.01509e-05
0.000758355 -2.78654e-05 -3.22302e-07
-2.78654e-05 4.36436e-05 6.05538e-08
-3.22302e-07 6.05538e-08 -2.89549e-05
0.000775815 4.22566e-05 2.3528e-07
4.22566e-05 6.63291e-05 6.14023e-07
2.3528e-07 6.14023e-07 -2.01835e-05
0.00091222 8.70652e-05 6.47035e-07
8.70652e-05 0.00012895 8.45583e-07
6.47035e-07 8.45583e-07 4.79469e-05
0.000839839 -2.14286e-05 8.33804e-07
-2.14286e-05 8.73432e-05 -1.08377e-06
8.33804e-07 -1.08377e-06 1.50996e-05
0.000739409 -3.44042e-05 -5.06335e-07
-3.44042e-05 3.37586e-05 6.24248e-07
-5.06335e-07 6.24248e-07 -3.78548e-05
0.00186861 -8.3964e-05 3.82072e-06
-8.3964e-05 9.32991e-05 -1.05504e-06
3.82072e-06 -1.05504e-06 4.14754e-05
0.00158557 -0.00012005 5.85669e-07
-0.00012005 -0.000133683 -5.74323e-07
5.85669e-07 -5.74323e-07 -0.000196105
0.00150565 -0.000238297 -1.00068e-06
-0.000238297 -9.92346e-05 7.45816e-07
-1.00068e-06 7.45816e-07 -0.000188275
0.000977861 -0.000171518 1.60165e-06
-0.000171518 0.000131319 3.12835e-06
1.60165e-06 3.12835e-06 -3.88133e-05
0.00235985 -0.000300553 1.29806e-06
-0.000300553 0.000595953 9.1611e-07
1.29806e-06 9.1611e-07 0.00041492
0.000813794 -0.00010247 -1.07509e-06
-0.00010247 0.000122017 -6.46927e-07
-1.07509e-06 -6.46927e-07 -3.65745e-05
0.00130376 -0.000116591 -3.12422e-07
-0.000116591 0.000378343 -5.25436e-07
-3.12422e-07 -5.25436e-07 0.000239575
0.000794247 -5.4215e-05 -1.37103e-06
-5.4215e-05 7.99115e-05 7.16811e-07
-1.37103e-06 7.16811e-07 -2.06247e-05
0.000793736 -5.01437e-06 2.83078e-08
-5.01437e-06 6.9787e-05 9.01998e-07
2.83078e-08 9.01998e-07 -1.27076e-05
0.00100148 1.12895e-05 -1.37107e-06
1.12895e-05 0.000180949 -3.30449e-07
-1.37107e-06 -3.30449e-07 8.9398e-05
0.00100361 -3.97454e-06 6.78534e-07
-3.97454e-06 0.000180636 4.29028e-07
6.78534e-07 4.29028e-07 0.000106326
0.000745545 9.65569e-05 1.14932e-06
9.65569e-05 4.90463e-05 1.78994e-06
1.14932e-06 1.78994e-06 -4.03245e-05
0.001605 -8.43145e-05 -1.26017e-06
-8.43145e-05 -0.000118725 -2.35352e-06
-1.26017e-06 -2.35352e-06 -0.000172617
0.000808142 3.2248e-05 -5.25372e-07
3.2248e-05 8.13252e-05 2.96134e-07
-5.25372e-07 2.96134e-07 -1.03101e-05
0.0008293 -3.27423e-05 -4.40921e-07
-3.27423e-05 9.24604e-05 -3.28404e-07
-4.40921e-07 -3.28404e-07 7.3742e-07
0.00207049 -0.000231248 -3.51736e-07
-0.000231248 0.000103022 -9.51444e-07
-3.51736e-07 -9.51444e-07 6.1907e-05
0.00123633 -0.000251541 5.08161e-07
-0.000251541 -0.000113184 1.43305e-06
5.08161e-07 1.43305e-06 -0.000239439
0.00148787 -0.000233186 1.59066e-06
-0.000233186 0.000382219 -1.57195e-06
1.59066e-06 -1.57195e-06 0.000189098
0.000927462 -2.80127e-05 2.74035e-07
-2.80127e-05 0.000153443 -6.42552e-07
2.74035e-07 -6.42552e-07 4.7466e-05
0.000965296 -3.55458e-05 8.73497e-08
-3.55458e-05 0.000213036 5.43811e-07
8.73497e-08 5.43811e-07 2.99563e-05
0.00368029 -0.000177206 -9.45275e-06
-0.000177206 0.00112134 7.33937e-06
-9.45275e-06 7.33937e-06 0.00103566
0.00300324 -0.000323168 -1.2858e-05
-0.000323168 0.000658415 1.64534e-07
-1.2858e-05 1.64534e-07 0.000634084
-0.000397696 -0.000178652 -3.8939e-06
-0.000178652 -0.00077853 -2.11881e-06
-3.8939e-06 -2.11881e-06 -0.000918985
0.00114506 -0.000143436 -4.65443e-06
-0.000143436 0.000252555 3.49077e-06
-4.65443e-06 3.49077e-06 4.51126e-05
0.000693877 -7.99793e-05 1.06057e-06
-7.99793e-05 1.16252e-05 -3.01622e-07
1.06057e-06 -3.01622e-07 -8.00808e-05
0.00083408 -3.47636e-05 1.08876e-06
-3.47636e-05 9.41776e-05 -3.11477e-08
1.08876e-06 -3.11477e-08 -2.52249e-06
0.000814036 -8.83127e-06 -2.04524e-06
-8.83127e-06 0.00010009 6.55113e-07
-2.04524e-06 6.55113e-07 -2.45978e-05
-0.00376398 -2.97328e-05 9.9998e-05
-2.97328e-05 -0.0017357 3.51587e-06
9.9998e-05 3.51587e-06 -0.001535
0.00858078 -6.73504e-05 -2.98101e-05
-6.73504e-05 0.00286924 -9.49702e-07
-2.98101e-05 -9.49702e-07 0.00228341
0.000908762 4.63063e-05 2.32615e-06
4.63063e-05 0.000147343 -1.06727e-07
2.32615e-06 -1.06727e-07 4.32708e-05
0.000787032 0.0001312 3.98523e-06
0.0001312 8.64947e-05 -1.80517e-07
3.98523e-06 -1.80517e-07 -5.68281e-05
0.00176021 0.00015077 7.96515e-06
0.00015077 1.13565e-05 7.112e-06
7.96515e-06 7.112e-06 3.61332e-05
0.00205849 0.000339927 4.42503e-06
0.000339927 0.000225005 1.50562e-06
4.42503e-06 1.50562e-06 9.47634e-05
0.00103738 0.000193075 6.53063e-06
0.000193075 0.000114526 2.11106e-06
6.53063e-06 2.11106e-06 -0.000103718
0.00575258 0.000225739 6.557e-05
0.000225739 0.00132343 2.15331e-06
6.557e-05 2.15331e-06 0.000364674
0.00567147 0.000273602 -9.18419e-05
0.000273602 0.00116349 -2.75724e-05
-9.18419e-05 -2.75724e-05 0.000507928
-4.90004e-05 0.000139453 3.90186e-06
0.000139453 -0.000678251 -1.9833e-05
3.90186e-06 -1.9833e-05 -0.000792174
0.00432058 -0.000596886 1.02096e-05
-0.000596886 0.00215348 2.18166e-05
1.02096e-05 2.18166e-05 0.00202971
-0.00383885 -0.000764633 -5.55954e-05
-0.000764633 -0.00293232 -6.54765e-05
-5.55954e-05 -6.54765e-05 -0.00126479
0.000963782 0.00010876 2.61615e-07
0.00010876 0.000196232 -7.29394e-07
2.61615e-07 -7.29394e-07 8.72213e-05
-0.00245198 -0.000190416 2.97734e-05
-0.000190416 -0.00137462 3.71187e-06
2.97734e-05 3.71187e-06 -0.0013859
-0.000631196 -0.000311361 -3.51196e-05
-0.000311361 8.51259e-06 -1.31331e-05
-3.51196e-05 -1.31331e-05 -0.000170674
0.00248871 0.000239882 -4.2597e-06
0.000239882 0.000422137 -2.93736e-06
-4.2597e-06 -2.93736e-06 0.00045653
0.000880193 0.000110372 -9.70927e-07
0.000110372 0.000163025 -6.00898e-07
-9.70927e-07 -6.00898e-07 -6.62987e-07
0.000645956 0.000224378 2.22604e-06
0.000224378 -0.000148021 1.6797e-06
2.22604e-06 1.6797e-06 -0.000364722
0.000414031 0.000165076 1.26326e-05
0.000165076 -0.000380928 1.02777e-05
1.26326e-05 1.02777e-05 -0.000333482
0.00614949 -1.54602e-05 -8.4997e-06
-1.54602e-05 0.0017896 -6.72401e-06
-8.4997e-06 -6.72401e-06 0.000316561
0.00631183 0.000552978 -3.49936e-05
0.000552978 0.0016444 -1.73356e-05
-3.49936e-05 -1.73356e-05 0.000883939
0.00526997 -0.000840962 2.23452e-05
-0.000840962 0.00228448 -1.69766e-05
2.23452e-05 -1.69766e-05 0.00236204
0.00116905 -0.000470429 3.12239e-05
-0.000470429 -0.00174558 6.97979e-05
3.12239e-05 6.97979e-05 -0.00056822
0.00098087 6.41866e-05 -7.27678e-06
6.41866e-05 0.00022573 -6.09208e-06
-7.27678e-06 -6.09208e-06 0.000132651
-0.00244399 -7.99076e-05 -7.25156e-05
-7.99076e-05 -0.000282493 -2.13556e-05
-7.25156e-05 -2.13556e-05 -0.00100066
0.00197391 -3.361e-07 -6.63777e-05
-3.361e-07 0.000285762 -7.17297e-05
-6.63777e-05 -7.17297e-05 -0.000348572
0.000346574 0.000216763 -2.41134e-05
0.000216763 -0.000380201 3.50259e-07
-2.41134e-05 3.50259e-07 -0.000369363
0.00153549 0.000254518 -2.89959e-05
0.000254518 0.000570395 -7.97933e-06
-2.89959e-05 -7.97933e-06 0.000390354
0.00255089 0.00015703 -5.01808e-05
0.00015703 0.0010132 -1.1832e-06
-5.01808e-05 -1.1832e-06 0.000876813
0.00414429 0.000623932 -8.38908e-05
0.000623932 0.00069602 5.18427e-06
-8.38908e-05 5.18427e-06 0.000321064
-0.00112066 6.25165e-06 5.38112e-05
6.25165e-06 -0.000989828 4.86096e-05
5.38112e-05 4.86096e-05 -0.00292976
0.00650875 -0.00075799 -4.64509e-05
-0.00075799 0.00163214 3.56398e-05
-4.64509e-05 3.56398e-05 0.00172969
0.00178196 -0.000278986 -1.0605e-05
-0.000278986 -0.00190577 -1.73318e-05
-1.0605e-05 -1.73318e-05 -0.000752565
0.000920947 2.51928e-05 1.36296e-06
2.51928e-05 0.00013944 2.48373e-06
1.36296e-06 2.48373e-06 5.38343e-05
0.00110965 5.77053e-05 1.86436e-06
5.77053e-05 0.000235942 1.8481e-06
1.86436e-06 1.8481e-06 0.000166021
0.00056108 5.1226e-05 -2.34815e-07
5.1226e-05 -5.82909e-05 -7.23909e-06
-2.34815e-07 -7.23909e-06 -0.000106204
0.000658882 4.04128e-05 4.28264e-07
4.04128e-05 -3.22574e-05 8.87562e-08
4.28264e-07 8.87562e-08 -9.26494e-05
0.000901772 3.65437e-05 -7.80173e-07
3.65437e-05 0.000111108 -2.90929e-07
-7.80173e-07 -2.90929e-07 3.29274e-05
0.000880335 -2.40778e-05 -4.23696e-07
-2.40778e-05 8.82223e-05 6.97729e-07
-4.23696e-07 6.97729e-07 1.59363e-05
0.000866124 -2.2577e-05 -4.86793e-07
-2.2577e-05 7.83753e-05 2.02759e-07
-4.86793e-07 2.02759e-07 6.60561e-06
0.000818863 -1.60381e-05 -6.28913e-07
-1.60381e-05 5.11345e-05 2.31648e-06
-6.28913e-07 2.31648e-06 -1.56085e-05
0.000876834 2.89825e-05 2.82355e-07
2.89825e-05 9.55668e-05 -4.96758e-07
2.82355e-07 -4.96758e-07 1.80808e-05
0.000906906 -1.76782e-05 -1.24894e-07
-1.76782e-05 9.38867e-05 4.07921e-07
-1.24894e-07 4.07921e-07 2.4174e-05
0.000909053 -3.40142e-05 6.02861e-08
-3.40142e-05 0.000101891 3.14237e-07
6.02861e-08 3.14237e-07 2.40077e-05
0.000700063 1.40709e-06 -4.92422e-09
1.40709e-06 -1.56389e-05 -4.30955e-07
-4.92422e-09 -4.30955e-07 -7.42177e-05
0.000820903 -2.69349e-05 1.95653e-06
-2.69349e-05 6.50988e-05 -4.25544e-06
1.95653e-06 -4.25544e-06 1.70531e-05
0.000892173 -3.03499e-05 1.49074e-07
-3.03499e-05 8.05609e-05 -3.12078e-06
1.49074e-07 -3.12078e-06 1.10899e-05
0.000918526 3.07404e-06 7.00079e-08
3.07404e-06 0.000115401 -1.036e-06
7.00079e-08 -1.036e-06 2.96768e-05
0.000891028 -3.6411e-05 6.31503e-08
-3.6411e-05 0.000105742 -2.0437e-07
6.31503e-08 -2.0437e-07 2.84751e-05
0.000897143 1.49978e-05 -3.66839e-07
1.49978e-05 9.75897e-05 6.71514e-07
-3.66839e-07 6.71514e-07 2.6756e-05
0.000871744 -1.12956e-05 2.74286e-07
-1.12956e-05 8.84274e-05 -3.2164e-07
2.74286e-07 -3.2164e-07 8.34227e-06
0.000826182 4.38453e-05 -6.44073e-08
4.38453e-05 6.64113e-05 3.32761e-08
-6.44073e-08 3.32761e-08 -5.1245e-06
0.000816384 1.53931e-05 -2.57297e-07
1.53931e-05 5.30407e-05 2.82108e-07
-2.57297e-07 2.82108e-07 -1.52331e-05
0.000773463 5.63329e-05 7.38685e-07
5.63329e-05 4.54293e-05 -4.13385e-08
7.38685e-07 -4.13385e-08 -2.65819e-05
0.000748846 2.85688e-05 -1.01737e-07
2.85688e-05 2.15003e-05 -1.81151e-06
-1.01737e-07 -1.81151e-06 -5.63615e-05
0.000792 2.84508e-05 7.02341e-07
2.84508e-05 4.40707e-05 -1.00734e-06
7.02341e-07 -1.00734e-06 -2.28891e-05
0.000811857 2.68373e-05 2.214e-06
2.68373e-05 6.89906e-05 -1.10945e-06
2.214e-06 -1.10945e-06 -1.58491e-05
0.00049126 -3.12021e-05 4.65711e-07
-3.12021e-05 -6.5825e-05 -2.51427e-07
4.65711e-07 -2.51427e-07 -0.000188274
0.000497047 3.10433e-05 6.19454e-07
3.10433e-05 -8.70892e-05 -3.41054e-08
6.19454e-07 -3.41054e-08 -0.000173516
0.000787686 4.32609e-05 4.60074e-07
4.32609e-05 6.40801e-05 4.86851e-07
4.60074e-07 4.86851e-07 -1.33174e-05
0.000766858 4.34696e-05 4.84108e-07
4.34696e-05 4.392e-05 3.98076e-07
4.84108e-07 3.98076e-07 -2.30021e-05
0.00079511 1.33054e-05 -2.85045e-07
1.33054e-05 5.65171e-05 -7.41436e-08
-2.85045e-07 -7.41436e-08 -9.70138e-06
0.000765159 2.83737e-05 -7.38499e-07
2.83737e-05 2.5199e-05 2.68839e-07
-7.38499e-07 2.68839e-07 -2.76075e-05
0.000813751 1.16622e-05 6.27174e-07
1.16622e-05 6.35932e-05 4.12528e-07
6.27174e-07 4.12528e-07 -3.86208e-06
0.000791837 -3.30385e-06 -1.32124e-07
-3.30385e-06 3.80537e-05 2.16038e-08
-1.32124e-07 2.16038e-08 -1.59328e-05
0.000755258 2.22335e-05 -1.00703e-06
2.22335e-05 6.56543e-06 1.49677e-06
-1.00703e-06 1.49677e-06 -2.85196e-05
0.000709155 -1.81467e-05 7.71932e-07
-1.81467e-05 -9.47647e-06 -2.47888e-07
7.71932e-07 -2.47888e-07 -6.50489e-05
0.000752977 1.2638e-05 -7.0275e-08
1.2638e-05 3.67878e-06 6.97634e-09
-7.0275e-08 6.97634e-09 -3.14507e-05
0.00134135 2.2273e-05 -4.91232e-06
2.2273e-05 0.000325481 4.56755e-06
-4.91232e-06 4.56755e-06 0.000322129
0.000744897 3.15713e-06 7.95062e-07
3.15713e-06 -6.7626e-07 -1.3733e-06
7.95062e-07 -1.3733e-06 -3.61167e-05
0.00102485 1.46762e-05 -2.27965e-06
1.46762e-05 0.000145789 6.86665e-07
-2.27965e-06 6.86665e-07 0.000141133
0.00087153 1.20997e-05 -5.55167e-07
1.20997e-05 6.15985e-05 1.65774e-06
-5.55167e-07 1.65774e-06 7.50037e-05
0.000696499 7.19625e-06 2.79362e-07
7.19625e-06 -3.98523e-05 -3.27585e-06
2.79362e-07 -3.27585e-06 -4.58717e-05
0.00218655 8.99678e-06 2.57402e-06
8.99678e-06 0.000795222 2.31929e-08
2.57402e-06 2.31929e-08 0.000815318
0.00218644 6.66058e-07 6.4869e-07
6.66058e-07 0.000794487 -4.50395e-06
6.4869e-07 -4.50395e-06 0.000814739
0.00105836 4.58141e-05 -1.16748e-06
4.58141e-05 0.000196843 -6.97712e-07
-1.16748e-06 -6.97712e-07 0.000141132
0.000759316 -2.10382e-06 -2.737e-07
-2.10382e-06 9.15528e-06 -1.76079e-06
-2.737e-07 -1.76079e-06 -2.21694e-05
0.000774524 4.28015e-06 7.22391e-07
4.28015e-06 4.40247e-05 5.88531e-07
7.22391e-07 5.88531e-07 -1.34335e-05
0.00070993 -6.21248e-07 -1.19e-07
-6.21248e-07 -3.39583e-05 -3.38809e-06
-1.19e-07 -3.38809e-06 -3.65828e-05
0.000756548 3.83509e-07 1.11353e-07
3.83509e-07 8.11239e-06 -1.00709e-08
1.11353e-07 -1.00709e-08 -2.27212e-05
0.000751828 2.49779e-06 -2.62228e-07
2.49779e-06 5.74129e-06 1.70118e-06
-2.62228e-07 1.70118e-06 -2.55804e-05
0.000710735 5.96728e-06 -1.5943e-07
5.96728e-06 -3.29596e-05 4.46548e-09
-1.5943e-07 4.46548e-09 -3.60091e-05
0.00207269 8.1975e-06 3.89246e-06
8.1975e-06 0.000731614 -4.46467e-06
3.89246e-06 -4.46467e-06 0.000753014
0.00128547 1.62617e-05 -7.00707e-07
1.62617e-05 0.000289745 2.06544e-06
-7.00707e-07 2.06544e-06 0.000288905
0.00149451 1.53534e-05 2.23121e-06
1.53534e-05 0.000410459 5.92016e-08
2.23121e-06 5.92016e-08 0.000427904
0.000955659 1.84148e-05 -1.45042e-05
1.84148e-05 0.000113065 6.99554e-06
-1.45042e-05 6.99554e-06 0.000126356
-0.00605559 0.000127407 6.05989e-05
0.000127407 -0.00294605 -2.4129e-06
6.05989e-05 -2.4129e-06 -0.00310344
-0.00138266 0.000237127 3.51014e-05
0.000237127 -0.000260479 1.86596e-05
3.51014e-05 1.86596e-05 -0.000430157
0.00304576 3.2659e-05 -0.000140441
3.2659e-05 0.000508019 -8.77281e-07
-0.000140441 -8.77281e-07 0.000153979
0.00182841 -1.04826e-05 2.32583e-05
-1.04826e-05 5.73828e-05 2.21892e-06
2.32583e-05 2.21892e-06 3.84534e-06
0.00164051 -1.70323e-05 5.34675e-06
-1.70323e-05 -0.000137465 7.38737e-07
5.34675e-06 7.38737e-07 -0.000175184
0.00112818 1.96599e-06 2.67271e-05
1.96599e-06 -0.000301532 -8.7186e-07
2.67271e-05 -8.7186e-07 -0.000482245
0.00211598 -3.57077e-05 -9.49493e-07
-3.57077e-05 0.000161022 9.1095e-07
-9.49493e-07 9.1095e-07 0.000112009
0.00598909 0.000201422 -1.23313e-05
0.000201422 0.0014684 -1.72251e-05
-1.23313e-05 -1.72251e-05 0.000674828
-0.00383186 0.000268136 -2.16701e-05
0.000268136 -0.00150427 -4.50295e-07
-2.16701e-05 -4.50295e-07 -0.00175893
-0.00096968 0.000724025 -1.58837e-05
0.000724025 -0.00117946 5.13506e-06
-1.58837e-05 5.13506e-06 0.000202373
0.00208634 -0.0001224 6.79488e-05
-0.0001224 0.000107525 6.58563e-06
6.79488e-05 6.58563e-06 -0.00013708
0.00716122 0.000284387 1.84581e-05
0.000284387 0.00235565 -3.26218e-06
1.84581e-05 -3.26218e-06 0.00116571
0.000119916 0.000564535 -7.51708e-06
0.000564535 -0.000434866 -3.90501e-05
-7.51708e-06 -3.90501e-05 3.67332e-05
0.00373251 0.000515117 -6.45144e-05
0.000515117 -5.47411e-05 4.48005e-05
-6.45144e-05 4.48005e-05 0.000819173
0.000792902 5.32349e-05 -6.4426e-07
5.32349e-05 7.11514e-05 -3.90962e-08
-6.4426e-07 -3.90962e-08 -1.85589e-05
0.000695464 5.21431e-06 -2.07238e-07
5.21431e-06 5.90961e-06 -3.75522e-07
-2.07238e-07 -3.75522e-07 -6.33795e-05
0.000779304 -6.00309e-05 -8.88159e-07
-6.00309e-05 4.81463e-05 1.02289e-06
-8.88159e-07 1.02289e-06 -9.76855e-06
0.000698715 -5.85121e-09 1.52271e-07
-5.85121e-09 1.33023e-05 6.09822e-07
1.52271e-07 6.09822e-07 -6.14778e-05
0.000784028 4.98878e-05 7.39946e-07
4.98878e-05 7.08576e-05 9.0194e-07
7.39946e-07 9.0194e-07 -1.48507e-05
0.000878038 4.67084e-05 -6.24792e-07
4.67084e-05 0.000113203 3.77389e-07
-6.24792e-07 3.77389e-07 2.64784e-05
0.000848364 6.21357e-05 1.46265e-06
6.21357e-05 9.72969e-05 1.12145e-06
1.46265e-06 1.12145e-06 1.35062e-05
0.000776913 -1.44864e-05 8.19066e-07
-1.44864e-05 4.79152e-05 9.50895e-08
8.19066e-07 9.50895e-08 -2.71125e-05
0.000772471 -2.27236e-05 4.01339e-07
-2.27236e-05 5.31486e-05 -6.3194e-07
4.01339e-07 -6.3194e-07 -2.19777e-05
0.000689548 -1.57971e-05 1.92501e-07
-1.57971e-05 2.07766e-06 7.79315e-07
1.92501e-07 7.79315e-07 -6.72744e-05
0.000850037 -8.33133e-05 1.30394e-06
-8.33133e-05 -0.000538045 -3.53861e-06
1.30394e-06 -3.53861e-06 -0.000587026
0.0016376 -0.000221022 6.67388e-06
-0.000221022 -0.000105681 1.5326e-06
6.67388e-06 1.5326e-06 -0.000157132
-7.45466e-06 -0.000186509 5.76346e-06
-0.000186509 -0.000752078 2.9152e-06
5.76346e-06 2.9152e-06 -0.000863472
0.00161737 -0.000242667 1.72995e-06
-0.000242667 0.000445796 9.8794e-07
1.72995e-06 9.8794e-07 0.00024155
0.00123163 -7.23363e-05 1.70915e-06
-7.23363e-05 0.000348987 -1.14611e-06
1.70915e-06 -1.14611e-06 0.000170087
0.00105923 -4.16336e-05 -2.10779e-07
-4.16336e-05 0.000227747 -8.41676e-07
-2.10779e-07 -8.41676e-07 0.00011838
0.000896406 -2.60689e-05 -1.12315e-06
-2.60689e-05 0.000122914 -1.66755e-07
-1.12315e-06 -1.66755e-07 3.50351e-05
0.000837056 3.89831e-05 -1.14706e-06
3.89831e-05 9.69395e-05 4.24319e-07
-1.14706e-06 4.24319e-07 7.79856e-06
0.0018863 -0.000143414 -3.02352e-06
-0.000143414 0.000153175 1.78892e-06
-3.02352e-06 1.78892e-06 8.9052e-05
0.000744447 -3.46541e-05 -9.66318e-08
-3.46541e-05 4.1685e-05 3.73191e-08
-9.66318e-08 3.73191e-08 -5.19749e-05
0.000812631 -3.40822e-05 4.5025e-07
-3.40822e-05 8.15488e-05 -4.3087e-07
4.5025e-07 -4.3087e-07 -1.54158e-05
0.00196323 -0.000282439 3.49977e-06
-0.000282439 0.000125816 -2.10331e-06
3.49977e-06 -2.10331e-06 9.59578e-05
0.00016644 -0.000206511 1.50665e-06
-0.000206511 -0.000466443 1.25237e-06
1.50665e-06 1.25237e-06 -0.000607338
0.00117568 -0.000142757 2.61324e-06
-0.000142757 0.000260513 -1.59949e-06
2.61324e-06 -1.59949e-06 5.8417e-05
0.00100884 -4.16706e-05 -7.24363e-07
-4.16706e-05 0.000212834 -6.31846e-07
-7.24363e-07 -6.31846e-07 7.51411e-05
0.0020407 -0.000228625 2.91684e-06
-0.000228625 0.000537565 -6.07127e-06
2.91684e-06 -6.07127e-06 0.000336802
0.0016954 -0.000244995 -1.61058e-05
-0.000244995 0.000311018 1.12564e-06
-1.61058e-05 1.12564e-06 0.000238956
0.000498355 -2.11932e-05 -1.20484e-05
-2.11932e-05 -3.49181e-05 1.11453e-05
-1.20484e-05 1.11453e-05 -0.000210809
0.000820238 2.69392e-05 6.30966e-07
2.69392e-05 8.09281e-05 8.86643e-07
6.30966e-07 8.86643e-07 -1.16782e-05
0.000654234 -7.44102e-05 1.43216e-06
-7.44102e-05 -1.26591e-05 2.04758e-07
1.43216e-06 2.04758e-07 -0.00010868
0.000835835 -2.13539e-05 6.15251e-07
-2.13539e-05 8.25141e-05 1.52444e-06
6.15251e-07 1.52444e-06 -1.44e-05
0.000901657 1.21724e-05 -8.72731e-05
1.21724e-05 0.00148363 -1.09812e-06
-8.72731e-05 -1.09812e-06 0.0010638
0.00185066 -9.71653e-05 1.40049e-05
-9.71653e-05 0.00122755 5.82027e-06
1.40049e-05 5.82027e-06 0.00108614
-0.000164182 0.000265931 -4.99104e-05
0.000265931 -0.00183939 2.25312e-05
-4.99104e-05 2.25312e-05 -0.0024196
0.000763137 9.37972e-05 3.63842e-06
9.37972e-05 8.80936e-05 1.51022e-06
3.63842e-06 1.51022e-06 -1.81841e-05
0.000803758 0.000128869 6.91163e-06
0.000128869 0.000137704 2.53247e-06
6.91163e-06 2.53247e-06 -2.69958e-05
0.00275272 0.000235806 1.16315e-05
0.000235806 0.000542221 3.07901e-06
1.16315e-05 3.07901e-06 0.000583367
0.000419351 0.00015156 1.17917e-05
0.00015156 -0.000236738 5.92945e-06
1.17917e-05 5.92945e-06 -0.000446215
0.00408051 -0.000329531 4.23353e-05
-0.000329531 0.00176563 1.56672e-05
4.23353e-05 1.56672e-05 0.00182985
-0.000189032 -0.000156793 -2.01611e-05
-0.000156793 -0.00135392 4.37026e-06
-2.01611e-05 4.37026e-06 -0.00256438
0.00369677 0.000462488 -6.84605e-05
0.000462488 0.000121412 -4.4454e-05
-6.84605e-05 -4.4454e-05 -0.000730322
0.000258744 9.39023e-05 2.51376e-05
9.39023e-05 -0.000383536 -1.52591e-05
2.51376e-05 -1.52591e-05 -0.00033819
-0.00326324 -0.000365337 1.41004e-05
-0.000365337 -0.00147092 -1.57047e-06
1.41004e-05 -1.57047e-06 -0.00155574
0.000900997 -0.000337075 2.1442e-05
-0.000337075 0.000540094 2.39001e-05
2.1442e-05 2.39001e-05 0.000353497
0.00450986 -0.000578649 7.42611e-05
-0.000578649 2.70204e-05 5.64796e-05
7.42611e-05 5.64796e-05 0.00130615
0.000838623 7.31401e-05 1.2596e-06
7.31401e-05 0.000156513 -1.65596e-06
1.2596e-06 -1.65596e-06 5.99072e-05
-0.000269409 -0.000127278 -2.93123e-05
-0.000127278 0.000630896 -9.81092e-06
-2.93123e-05 -9.81092e-06 0.000145277
0.00220535 9.35769e-07 -2.1265e-06
9.35769e-07 0.000413559 -1.54181e-05
-2.1265e-06 -1.54181e-05 -0.000242032
0.000824699 0.000178916 -6.86346e-06
0.000178916 -7.3478e-05 2.13456e-06
-6.86346e-06 2.13456e-06 -0.000116366
0.000673922 0.000124138 -9.4644e-07
0.000124138 0.000143508 9.31661e-07
-9.4644e-07 9.31661e-07 -4.18278e-05
0.00013343 0.000131361 2.84005e-05
0.000131361 -0.000208046 -1.84773e-05
2.84005e-05 -1.84773e-05 -0.000294966
0.00578942 0.00078896 -1.9598e-05
0.00078896 0.00157066 -3.28821e-07
-1.9598e-05 -3.28821e-07 0.000855854
0.00818831 -0.000259023 3.42658e-05
-0.000259023 0.00307948 1.10814e-05
3.42658e-05 1.10814e-05 0.00153689
0.00190661 -0.00047892 1.47211e-06
-0.00047892 -0.000899144 -7.87587e-06
1.47211e-06 -7.87587e-06 -0.000619017
0.00539402 -0.000366394 5.22788e-06
-0.000366394 0.000463107 -6.99557e-06
5.22788e-06 -6.99557e-06 0.00154413
0.000968794 0.000111582 -1.38116e-05
0.000111582 0.000278813 -9.56217e-06
-1.38116e-05 -9.56217e-06 0.000204646
0.0017135 -4.61178e-05 -5.74899e-05
-4.61178e-05 0.000178767 -2.6294e-05
-5.74899e-05 -2.6294e-05 -0.000277206
0.00142848 6.41637e-06 -1.62259e-05
6.41637e-06 0.000179503 -4.09332e-05
-1.62259e-05 -4.09332e-05 -0.000403888
-0.000939167 -8.21699e-06 -2.42696e-05
-8.21699e-06 -0.000543095 -1.65484e-05
-2.42696e-05 -1.65484e-05 -0.000652649
0.00285698 0.000337604 -1.91214e-06
0.000337604 0.000763981 5.44324e-05
-1.91214e-06 5.44324e-05 0.000316358
0.00792988 -7.501e-05 2.04953e-05
-7.501e-05 0.00275826 6.19911e-06
2.04953e-05 6.19911e-06 0.00102619
-0.0053281 -0.00040079 -5.46605e-05
-0.00040079 -0.00369302 5.36559e-06
-5.46605e-05 5.36559e-06 -0.0044337
0.00487292 7.0505e-05 -3.4078e-06
7.0505e-05 -0.000261788 -6.01714e-05
-3.4078e-06 -6.01714e-05 0.00100098
0.00102739 5.80319e-05 2.32115e-06
5.80319e-05 0.0001928 5.05027e-06
2.32115e-06 5.05027e-06 0.000120213
0.000813412 6.6772e-05 -2.25841e-06
6.6772e-05 7.87984e-05 -5.15151e-07
-2.25841e-06 -5.15151e-07 3.03291e-05
0.000703899 4.87091e-05 -4.94539e-07
4.87091e-05 4.48372e-05 -5.0761e-06
-4.94539e-07 -5.0761e-06 5.59148e-06
0.00088915 6.41919e-05 -1.34574e-06
6.41919e-05 9.64803e-05 -3.76033e-07
-1.34574e-06 -3.76033e-07 2.2759e-05
0.000927216 -2.92293e-05 -1.18916e-07
-2.92293e-05 0.000116622 1.28352e-06
-1.18916e-07 1.28352e-06 3.54257e-05
0.000975654 -8.4153e-06 -7.51902e-07
-8.4153e-06 0.000131932 1.72007e-06
-7.51902e-07 1.72007e-06 6.19476e-05
0.000649796 -1.04662e-05 -6.12883e-07
-1.04662e-05 -3.71027e-05 3.58814e-06
-6.12883e-07 3.58814e-06 -9.40803e-05
0.000897293 1.06864e-05 4.4626e-07
1.06864e-05 9.53759e-05 2.56246e-08
4.4626e-07 2.56246e-08 1.56797e-05
0.000873826 -1.49354e-05 -1.5187e-07
-1.49354e-05 7.15235e-05 -2.17669e-07
-1.5187e-07 -2.17669e-07 1.62842e-06
0.000723447 -2.07019e-05 1.01109e-07
-2.07019e-05 1.32935e-05 8.68484e-07
1.01109e-07 8.68484e-07 -3.44899e-05
0.000602959 -2.71489e-05 -1.5037e-07
-2.71489e-05 -6.3356e-06 -3.93139e-06
-1.5037e-07 -3.93139e-06 -3.74768e-05
0.000971302 -2.59e-05 3.24664e-06
-2.59e-05 0.00013004 -5.3744e-06
3.24664e-06 -5.3744e-06 7.77129e-05
0.000801793 3.59679e-05 4.65741e-07
3.59679e-05 4.2612e-05 -1.99435e-06
4.65741e-07 -1.99435e-06 -3.58204e-05
0.00088438 -4.1707e-05 9.95782e-07
-4.1707e-05 8.96091e-05 5.64192e-07
9.95782e-07 5.64192e-07 1.30284e-05
0.000807499 4.81273e-05 -7.63108e-08
4.81273e-05 5.49102e-05 4.77592e-07
-7.63108e-08 4.77592e-07 -1.61055e-05
0.000847975 8.48504e-06 -5.9931e-07
8.48504e-06 7.08909e-05 1.59754e-06
-5.9931e-07 1.59754e-06 3.05983e-06
0.000783501 2.42935e-05 2.1078e-07
2.42935e-05 3.65706e-05 2.28328e-07
2.1078e-07 2.28328e-07 -3.80016e-05
0.000798255 5.40054e-05 2.13074e-07
5.40054e-05 6.00309e-05 2.59054e-07
2.13074e-07 2.59054e-07 -1.25094e-05
0.000840706 4.19623e-05 -2.08722e-07
4.19623e-05 7.14446e-05 -3.81256e-08
-2.08722e-07 -3.81256e-08 3.47115e-06
0.000849453 4.09039e-05 1.41644e-06
4.09039e-05 8.13058e-05 -3.42304e-07
1.41644e-06 -3.42304e-07 8.89281e-06
0.000752678 2.46287e-05 1.06109e-06
2.46287e-05 3.18412e-05 -1.90027e-06
1.06109e-06 -1.90027e-06 -3.21585e-05
0.000670689 -5.30031e-05 1.20115e-06
-5.30031e-05 -9.016e-07 -5.45856e-07
1.20115e-06 -5.45856e-07 -9.08953e-05
0.000901092 1.02943e-05 -8.18726e-07
1.02943e-05 0.000119683 -1.48759e-07
-8.18726e-07 -1.48759e-07 3.37048e-05
0.00065533 -4.13704e-05 1.72637e-06
-4.13704e-05 1.49449e-05 1.08056e-06
1.72637e-06 1.08056e-06 -9.72868e-05
0.00104843 -0.000142518 -1.43795e-06
-0.000142518 0.000209229 3.09047e-06
-1.43795e-06 3.09047e-06 5.94983e-05
0.00112957 -2.76098e-05 1.18315e-06
-2.76098e-05 0.000265855 -5.94006e-07
1.18315e-06 -5.94006e-07 0.000164356
0.000612677 -4.74362e-05 -1.89966e-07
-4.74362e-05 3.5223e-06 -2.57839e-06
-1.89966e-07 -2.57839e-06 -0.000117356
0.000761671 3.38909e-05 -5.94597e-07
3.38909e-05 5.65853e-05 -5.31179e-07
-5.94597e-07 -5.31179e-07 -2.82526e-05
0.000553743 3.70562e-05 9.96817e-07
3.70562e-05 -6.75657e-05 5.65566e-07
9.96817e-07 5.65566e-07 -0.000141849
0.000840284 3.58969e-05 -5.44882e-07
3.58969e-05 9.22754e-05 8.77392e-08
-5.44882e-07 8.77392e-08 1.50856e-05
0.000805588 1.26744e-05 -2.65602e-07
1.26744e-05 6.65073e-05 3.3922e-07
-2.65602e-07 3.3922e-07 -1.68977e-06
0.000750443 3.7827e-05 -6.68209e-07
3.7827e-05 2.05058e-05 3.86263e-07
-6.68209e-07 3.86263e-07 -3.34449e-05
0.000829062 -1.42365e-05 3.30538e-07
-1.42365e-05 8.01851e-05 8.35886e-08
3.30538e-07 8.35886e-08 1.0332e-05
0.000783817 -6.73745e-07 -4.49635e-07
-6.73745e-07 3.68075e-05 3.19008e-08
-4.49635e-07 3.19008e-08 -1.71845e-05
0.000747971 2.80869e-05 -1.2472e-06
2.80869e-05 5.90365e-06 1.49338e-06
-1.2472e-06 1.49338e-06 -2.95737e-05
0.000813438 -2.65331e-05 1.31393e-06
-2.65331e-05 5.16689e-05 -2.65225e-07
1.31393e-06 -2.65225e-07 -3.6241e-06
0.000755533 1.80855e-05 -1.50242e-07
1.80855e-05 6.11056e-06 1.05109e-08
-1.50242e-07 1.05109e-08 -2.87355e-05
0.00132625 2.98415e-05 -6.74178e-06
2.98415e-05 0.000321079 4.49008e-06
-6.74178e-06 4.49008e-06 0.000317266
0.000748306 8.15711e-06 1.15323e-06
8.15711e-06 6.67082e-07 -1.42015e-06
1.15323e-06 -1.42015e-06 -3.42832e-05
0.00101649 2.15321e-05 -3.06629e-06
2.15321e-05 0.000143996 6.4793e-07
-3.06629e-06 6.4793e-07 0.000139133
0.000867196 1.8711e-05 -1.04189e-06
1.8711e-05 6.31251e-05 1.65994e-06
-1.04189e-06 1.65994e-06 7.59687e-05
0.000690144 1.32309e-05 4.6422e-07
1.32309e-05 -4.17394e-05 -3.27036e-06
4.6422e-07 -3.27036e-06 -4.79062e-05
0.00152446 1.62917e-05 4.83169e-06
1.62917e-05 0.000426794 -1.33309e-06
4.83169e-06 -1.33309e-06 0.000443347
0.00219162 1.03429e-05 4.89521e-06
1.03429e-05 0.000798415 -4.43356e-06
4.89521e-06 -4.43356e-06 0.000818421
0.000845201 -2.03508e-05 5.79429e-07
-2.03508e-05 7.45457e-05 -5.88499e-07
5.79429e-07 -5.88499e-07 1.7647e-05
0.000765048 -6.71701e-06 -2.28904e-07
-6.71701e-06 1.24872e-05 -1.78136e-06
-2.28904e-07 -1.78136e-06 -1.99425e-05
0.000833218 -2.90062e-06 4.50411e-07
-2.90062e-06 7.16621e-05 1.39558e-07
4.50411e-07 1.39558e-07 1.56499e-05
0.000711312 -6.83627e-06 -3.13382e-07
-6.83627e-06 -3.25333e-05 -3.39413e-06
-3.13382e-07 -3.39413e-06 -3.55309e-05
0.000758514 -3.27357e-06 -8.01164e-08
-3.27357e-06 8.80235e-06 -1.47435e-08
-8.01164e-08 -1.47435e-08 -2.25017e-05
0.000772913 -4.35197e-05 -1.52298e-06
-4.35197e-05 3.92753e-05 1.49157e-06
-1.52298e-06 1.49157e-06 -1.53641e-05
0.00206783 -1.13894e-06 -3.21144e-07
-1.13894e-06 0.000728492 -4.47768e-06
-3.21144e-07 -4.47768e-06 0.000750064
0.000711952 -3.29471e-07 -8.26812e-08
-3.29471e-07 -3.28696e-05 -1.57221e-09
-8.26812e-08 -1.57221e-09 -3.54939e-05
0.000754111 -9.23953e-07 7.8674e-08
-9.23953e-07 6.69985e-06 1.70273e-06
7.8674e-08 1.70273e-06 -2.41164e-05
0.000713953 6.24789e-06 -6.56531e-08
6.24789e-06 -3.12418e-05 3.39858e-06
-6.56531e-08 3.39858e-06 -3.43194e-05
0.00207534 8.94917e-06 -2.71879e-06
8.94917e-06 0.000733291 -2.50925e-08
-2.71879e-06 -2.50925e-08 0.000754627
0.00210236 1.773e-05 -1.09184e-05
1.773e-05 0.000750272 4.3566e-06
-1.09184e-05 4.3566e-06 0.000770966
-0.00170613 4.89332e-05 -4.05219e-05
4.89332e-05 -6.68809e-06 8.09761e-06
-4.05219e-05 8.09761e-06 -0.000606915
-0.000841449 0.000269593 -1.03231e-05
0.000269593 -0.000292866 5.0157e-06
-1.03231e-05 5.0157e-06 -0.00042987
0.00235007 3.25698e-05 -8.27636e-05
3.25698e-05 0.00030213 6.17907e-05
-8.27636e-05 6.17907e-05 -0.000265463
-0.00175488 0.000272412 7.6844e-05
0.000272412 -0.000284664 -3.16466e-05
7.6844e-05 -3.16466e-05 -0.000372282
0.00263741 0.000104156 -9.47673e-05
0.000104156 0.000332601 1.43237e-05
-9.47673e-05 1.43237e-05 3.64104e-05
0.00209629 -4.92069e-05 5.70134e-05
-4.92069e-05 0.000157468 -8.73349e-06
5.70134e-05 -8.73349e-06 0.000107773
0.00127908 -0.000301448 -8.09288e-05
-0.000301448 -0.000849879 -3.20302e-05
-8.09288e-05 -3.20302e-05 -0.00154562
0.00853215 0.000516436 4.76852e-05
0.000516436 0.0042061 -1.76833e-05
4.76852e-05 -1.76833e-05 0.00419273
-0.00398921 0.000786898 -5.37809e-05
0.000786898 -0.00307602 6.72283e-05
-5.37809e-05 6.72283e-05 -0.00128824
0.00151839 -6.48368e-06 -5.66684e-06
-6.48368e-06 -0.000309436 -4.02108e-06
-5.66684e-06 -4.02108e-06 -0.00053894
0.00220307 0.000126338 1.71953e-05
0.000126338 4.51679e-05 -2.07096e-05
1.71953e-05 -2.07096e-05 -0.00157189
0.00560031 0.000876086 -1.67396e-05
0.000876086 0.00179531 -2.44453e-05
-1.67396e-05 -2.44453e-05 0.00226595
0.00174939 0.000508403 -1.46919e-05
0.000508403 -0.00125721 3.26805e-05
-1.46919e-05 3.26805e-05 -0.000315906
0.00319497 -0.000196535 -3.15145e-05
-0.000196535 0.000367464 1.17973e-05
-3.15145e-05 1.17973e-05 -3.21419e-05
0.004385 0.000114368 8.8832e-05
0.000114368 0.00147979 -5.5813e-05
8.8832e-05 -5.5813e-05 -0.00041169
-0.00580545 0.000201511 -7.24693e-05
0.000201511 -0.00444234 -5.26644e-05
-7.24693e-05 -5.26644e-05 -0.00416748
0.00136409 0.000320127 -2.08093e-05
0.000320127 -0.00235898 1.77887e-05
-2.08093e-05 1.77887e-05 -0.00124587
0.00087251 -1.88644e-05 1.06739e-06
-1.88644e-05 0.000112607 4.49582e-07
1.06739e-06 4.49582e-07 1.86776e-05
0.000844879 3.93892e-05 -1.59752e-06
3.93892e-05 9.93615e-05 -4.43041e-07
-1.59752e-06 -4.43041e-07 1.14165e-05
0.000795768 2.14087e-05 6.81022e-07
2.14087e-05 6.2493e-05 -1.35856e-07
6.81022e-07 -1.35856e-07 -6.82896e-06
0.000836469 5.75642e-05 1.79995e-06
5.75642e-05 9.99657e-05 1.29663e-06
1.79995e-06 1.29663e-06 1.47193e-05
0.000762863 1.83757e-05 -2.42605e-07
1.83757e-05 4.94812e-05 6.72909e-07
-2.42605e-07 6.72909e-07 -4.43978e-05
0.000900953 4.87781e-05 2.0648e-07
4.87781e-05 0.000127179 6.10373e-07
2.0648e-07 6.10373e-07 4.01826e-05
0.000788554 5.32294e-06 -1.29707e-07
5.32294e-06 6.1355e-05 1.39139e-06
-1.29707e-07 1.39139e-06 -2.03826e-05
0.000911445 7.75069e-05 -5.73338e-07
7.75069e-05 0.000133019 4.84196e-07
-5.73338e-07 4.84196e-07 4.73818e-05
0.000886844 3.69125e-05 -2.43565e-07
3.69125e-05 0.000119306 3.44126e-07
-2.43565e-07 3.44126e-07 3.72967e-05
0.000714223 -1.56468e-05 -9.73265e-07
-1.56468e-05 2.32763e-05 -1.86889e-07
-9.73265e-07 -1.86889e-07 -5.44638e-05
-0.000220992 -9.72185e-05 1.37368e-05
-9.72185e-05 -0.000960643 -8.29764e-06
1.37368e-05 -8.29764e-06 -0.000998219
0.00120602 -0.000259968 1.14743e-05
-0.000259968 -0.000262095 4.39706e-07
1.14743e-05 4.39706e-07 -0.000304535
0.000903878 -0.000244819 8.75963e-06
-0.000244819 -6.52732e-05 1.59191e-06
8.75963e-06 1.59191e-06 -0.000208112
0.00118468 -0.00013951 6.33164e-06
-0.00013951 0.000256986 -2.30727e-06
6.33164e-06 -2.30727e-06 5.68256e-05
0.00110641 -3.9974e-05 1.16299e-06
-3.9974e-05 0.000272798 -1.61985e-06
1.16299e-06 -1.61985e-06 0.000122491
0.000781438 -4.46524e-05 -8.39327e-07
-4.46524e-05 6.8532e-05 -3.84647e-07
-8.39327e-07 -3.84647e-07 -3.21967e-05
0.000816549 5.53506e-05 -2.92987e-07
5.53506e-05 8.398e-05 -2.01987e-07
-2.92987e-07 -2.01987e-07 -1.2533e-05
0.000830257 -3.55752e-05 -2.85512e-07
-3.55752e-05 8.96101e-05 4.60594e-07
-2.85512e-07 4.60594e-07 -5.41933e-06
0.00124524 -0.000172894 2.08278e-06
-0.000172894 0.000103337 -4.979e-07
2.08278e-06 -4.979e-07 -2.63909e-05
0.000830951 6.63367e-06 -3.12446e-07
6.63367e-06 8.92571e-05 -3.1467e-07
-3.12446e-07 -3.1467e-07 -1.02514e-05
0.000937448 -3.40511e-05 1.10496e-07
-3.40511e-05 0.000145519 1.82201e-07
1.10496e-07 1.82201e-07 4.16281e-05
0.00148435 -0.000235064 -1.24383e-06
-0.000235064 0.000192613 3.79518e-07
-1.24383e-06 3.79518e-07 0.000131468
0.000983156 -4.53008e-05 -4.53964e-06
-4.53008e-05 0.000196822 2.19139e-06
-4.53964e-06 2.19139e-06 2.77536e-05
-0.000315664 -0.000215153 -1.05823e-07
-0.000215153 -0.000747621 -1.20563e-05
-1.05823e-07 -1.20563e-05 -0.000772849
0.00138799 -8.55831e-05 -1.44861e-05
-8.55831e-05 0.000457391 9.71004e-06
-1.44861e-05 9.71004e-06 0.000344233
0.000426415 1.98258e-05 -3.08271e-06
1.98258e-05 -0.000140718 9.34124e-06
-3.08271e-06 9.34124e-06 -0.000238385
0.000833351 -4.2391e-06 5.39192e-07
-4.2391e-06 7.33909e-05 6.60681e-07
5.39192e-07 6.60681e-07 -1.65292e-05
0.00078388 2.32026e-05 9.35248e-08
2.32026e-05 5.47575e-05 6.42907e-07
9.35248e-08 6.42907e-07 -4.7345e-05
0.00125991 -5.11942e-06 -2.63045e-05
-5.11942e-06 -1.97012e-05 -4.09624e-06
-2.63045e-05 -4.09624e-06 -0.000392415
-0.000483936 -1.0227e-05 -3.73087e-05
-1.0227e-05 0.000793097 -1.56355e-06
-3.73087e-05 -1.56355e-06 0.000250749
-0.00627067 -0.000122027 -0.00011034
-0.000122027 -0.00309669 8.61193e-07
-0.00011034 8.61193e-07 -0.00309973
0.000726035 9.05435e-05 7.40173e-06
9.05435e-05 0.000106229 2.3038e-06
7.40173e-06 2.3038e-06 3.61826e-06
-0.000139159 9.58077e-06 7.31527e-06
9.58077e-06 -0.000264305 3.34269e-06
7.31527e-06 3.34269e-06 -0.000454821
0.00126886 0.000128745 1.76862e-05
0.000128745 0.000191102 -9.1887e-07
1.76862e-05 -9.1887e-07 0.000124426
-0.00166131 -3.61017e-05 1.32551e-05
-3.61017e-05 -1.38129e-05 7.22367e-06
1.32551e-05 7.22367e-06 -0.000642984
0.00347632 -0.00022214 -2.36442e-05
-0.00022214 0.00107438 -2.41534e-05
-2.36442e-05 -2.41534e-05 -0.000893961
0.00373837 0.000642385 4.5879e-05
0.000642385 0.000351536 -1.7274e-05
4.5879e-05 -1.7274e-05 -0.000163756
0.000427015 0.000135987 6.71842e-06
0.000135987 -2.05079e-05 -2.41285e-06
6.71842e-06 -2.41285e-06 -1.82011e-07
0.00619502 -0.000642455 3.26059e-05
-0.000642455 0.0017155 7.42613e-06
3.26059e-05 7.42613e-06 0.00174693
0.00245904 -5.07123e-06 5.75574e-05
-5.07123e-06 0.000596981 4.0646e-05
5.75574e-05 4.0646e-05 -7.8878e-05
0.00521341 -0.000330349 2.69523e-05
-0.000330349 0.000587409 1.16785e-05
2.69523e-05 1.16785e-05 0.00171109
0.000944648 0.000109882 1.11698e-06
0.000109882 0.000275507 -1.9868e-06
1.11698e-06 -1.9868e-06 0.000199426
0.0017422 -4.08032e-05 3.55577e-06
-4.08032e-05 0.000285403 -6.96146e-06
3.55577e-06 -6.96146e-06 -0.000125918
0.0016105 1.45873e-05 3.04354e-06
1.45873e-05 0.000181386 7.31912e-06
3.04354e-06 7.31912e-06 -0.00041291
0.000172172 8.95194e-05 -6.03493e-06
8.95194e-05 3.41192e-05 1.07651e-07
-6.03493e-06 1.07651e-07 -8.90826e-05
0.00301012 0.000428195 -2.91776e-05
0.000428195 0.000586699 -3.10584e-05
-2.91776e-05 -3.10584e-05 0.000232394
0.00339007 0.000381964 4.38669e-05
0.000381964 0.000604126 2.38153e-05
4.38669e-05 2.38153e-05 -0.00139867
0.00354057 2.03469e-05 -5.9964e-07
2.03469e-05 -0.00139637 -3.07202e-05
-5.9964e-07 -3.07202e-05 0.00010179
0.000428413 -0.000247476 -1.21707e-05
-0.000247476 -0.000735667 1.31613e-05
-1.21707e-05 1.31613e-05 -0.00101098
0.000793016 5.17857e-05 -4.31123e-06
5.17857e-05 0.000285489 -1.02212e-05
-4.31123e-06 -1.02212e-05 0.00022804
0.00127795 -2.84399e-05 -1.34467e-05
-2.84399e-05 0.000134085 -1.70113e-05
-1.34467e-05 -1.70113e-05 -3.16791e-05
0.00183627 8.06476e-06 4.94051e-06
8.06476e-06 8.36867e-05 -3.91234e-05
4.94051e-06 -3.91234e-05 -0.000447533
0.00140384 0.000311825 1.77762e-05
0.000311825 -0.00226535 -2.03626e-05
1.77762e-05 -2.03626e-05 -0.00124218
-0.00174186 8.8181e-06 4.13149e-06
8.8181e-06 -0.000809042 -1.14891e-05
4.13149e-06 -1.14891e-05 -0.00110177
0.00945782 0.000282827 8.64025e-05
0.000282827 0.00363143 3.7542e-05
8.64025e-05 3.7542e-05 0.00170412
-0.00465054 -0.000124859 2.65193e-05
-0.000124859 -0.000926477 8.25861e-06
2.65193e-05 8.25861e-06 -0.00165359
0.00119641 9.83194e-05 8.0147e-06
9.83194e-05 0.000285306 7.48503e-06
8.0147e-06 7.48503e-06 0.000235153
0.00075235 6.913e-05 -2.87041e-06
6.913e-05 7.24999e-05 1.27416e-06
-2.87041e-06 1.27416e-06 2.90857e-05
0.000410396 3.80738e-05 -6.71725e-06
3.80738e-05 -3.76538e-05 -7.27145e-06
-6.71725e-06 -7.27145e-06 -8.37445e-05
0.000875941 9.20391e-05 -5.35379e-08
9.20391e-05 8.84719e-05 1.07242e-06
-5.35379e-08 1.07242e-06 6.04725e-06
0.000852387 9.44729e-06 -4.63888e-07
9.44729e-06 5.89521e-05 2.10274e-06
-4.63888e-07 2.10274e-06 -1.00271e-05
0.000619764 -2.96683e-05 -2.40688e-06
-2.96683e-05 -4.13661e-05 8.29849e-06
-2.40688e-06 8.29849e-06 -8.93421e-05
0.000809532 4.03583e-05 -6.04486e-08
4.03583e-05 4.5554e-05 -4.86134e-08
-6.04486e-08 -4.86134e-08 -3.13877e-05
0.000817737 -3.38273e-05 4.21298e-07
-3.38273e-05 4.86445e-05 -1.07407e-06
4.21298e-07 -1.07407e-06 -5.07243e-06
0.000728745 -5.14067e-05 3.34088e-06
-5.14067e-05 5.39401e-05 2.84611e-06
3.34088e-06 2.84611e-06 1.60108e-05
0.000597383 -3.23726e-06 -2.02441e-07
-3.23726e-06 3.92686e-06 -5.58696e-06
-2.02441e-07 -5.58696e-06 -2.07974e-05
0.000820708 7.55941e-06 -6.08957e-07
7.55941e-06 6.26883e-05 -3.95065e-06
-6.08957e-07 -3.95065e-06 2.60977e-06
0.000822811 2.30786e-05 -3.99223e-08
2.30786e-05 5.34248e-05 1.82651e-06
-3.99223e-08 1.82651e-06 -1.73909e-05
0.000807525 5.27961e-05 -2.45353e-07
5.27961e-05 6.60587e-05 3.2027e-07
-2.45353e-07 3.2027e-07 -6.9612e-06
0.000897653 4.91042e-05 -1.35933e-06
4.91042e-05 0.000102641 1.69215e-06
-1.35933e-06 1.69215e-06 3.39884e-05
0.000819399 2.49355e-05 4.52377e-07
2.49355e-05 6.54548e-05 4.28921e-08
4.52377e-07 4.28921e-08 1.19177e-06
0.000838299 4.19298e-05 7.03451e-07
4.19298e-05 7.47455e-05 2.33106e-07
7.03451e-07 2.33106e-07 2.7635e-06
0.000741492 -3.32606e-05 1.12073e-06
-3.32606e-05 6.5904e-05 7.39092e-07
1.12073e-06 7.39092e-07 -1.38238e-05
0.000698366 -2.85377e-05 -6.46466e-07
-2.85377e-05 2.47204e-05 -1.11518e-06
-6.46466e-07 -1.11518e-06 -5.91748e-05
0.000566776 -6.50429e-05 3.59108e-06
-6.50429e-05 -3.49163e-05 1.61161e-07
3.59108e-06 1.61161e-07 -0.00017274
0.00100142 -6.30718e-06 -1.57541e-06
-6.30718e-06 0.000175042 1.11965e-07
-1.57541e-06 1.11965e-07 8.83358e-05
0.00100715 -6.63703e-05 -9.31102e-07
-6.63703e-05 0.000198353 8.84905e-07
-9.31102e-07 8.84905e-07 8.30413e-05
0.000490879 -0.00011174 1.40436e-07
-0.00011174 -0.000101271 1.71518e-06
1.40436e-07 1.71518e-06 -0.00025692
0.000772946 -0.000122931 -3.3853e-06
-0.000122931 5.60011e-05 -9.24981e-08
-3.3853e-06 -9.24981e-08 -9.53098e-05
0.000913744 -9.79984e-05 -1.16993e-06
-9.79984e-05 0.000154176 1.83501e-06
-1.16993e-06 1.83501e-06 3.52701e-05
0.000785215 -0.000123374 -7.78869e-08
-0.000123374 6.7707e-05 8.22229e-07
-7.78869e-08 8.22229e-07 -7.94779e-05
0.000863271 -3.93856e-06 9.82222e-07
-3.93856e-06 0.000104984 7.90449e-07
9.82222e-07 7.90449e-07 2.04702e-05
0.000966135 -2.87351e-05 -5.24245e-07
-2.87351e-05 0.000178253 -6.40859e-07
-5.24245e-07 -6.40859e-07 7.43899e-05
0.000720708 -6.22308e-05 5.68054e-07
-6.22308e-05 6.52915e-05 -4.23276e-06
5.68054e-07 -4.23276e-06 -5.38194e-05
0.00103167 3.77204e-05 -1.95863e-06
3.77204e-05 0.000203178 -1.08342e-06
-1.95863e-06 -1.08342e-06 0.000119887
0.000681236 2.89207e-05 1.4345e-07
2.89207e-05 2.10285e-06 -3.20467e-08
1.4345e-07 -3.20467e-08 -7.13718e-05
0.000749373 4.98122e-05 -8.19489e-08
4.98122e-05 2.53101e-05 5.90933e-07
-8.19489e-08 5.90933e-07 -3.3233e-05
0.000833162 -8.47656e-06 -7.77744e-08
-8.47656e-06 8.3841e-05 1.76622e-07
-7.77744e-08 1.76622e-07 1.36678e-05
0.000780477 1.08162e-05 -6.35849e-07
1.08162e-05 3.77798e-05 -8.74755e-08
-6.35849e-07 -8.74755e-08 -1.69375e-05
0.000740379 3.41388e-05 -1.43029e-06
3.41388e-05 6.64319e-06 1.44111e-06
-1.43029e-06 1.44111e-06 -2.99577e-05
0.000803525 -2.31641e-05 1.26548e-06
-2.31641e-05 4.86187e-05 -3.83716e-07
1.26548e-06 -3.83716e-07 -6.2848e-06
0.000750765 2.66078e-05 -1.41288e-07
2.66078e-05 6.81951e-06 3.46637e-09
-1.41288e-07 3.46637e-09 -2.8485e-05
0.00128888 3.73372e-05 -7.61323e-06
3.73372e-05 0.000306613 3.1034e-06
-7.61323e-06 3.1034e-06 0.000301802
0.000750687 1.45135e-05 1.30177e-06
1.45135e-05 2.78392e-06 -1.42944e-06
1.30177e-06 -1.42944e-06 -3.18218e-05
0.0010099 2.8512e-05 -3.78238e-06
2.8512e-05 0.00014457 5.91994e-07
-3.78238e-06 5.91994e-07 0.000139173
0.000853878 2.49945e-05 -1.57022e-06
2.49945e-05 6.11163e-05 1.64466e-06
-1.57022e-06 1.64466e-06 7.30568e-05
0.000687474 1.95364e-05 6.48284e-07
1.95364e-05 -4.03475e-05 -3.27726e-06
6.48284e-07 -3.27726e-06 -4.67288e-05
0.00151001 2.42448e-05 6.35259e-06
2.42448e-05 0.000422465 -1.2387e-06
6.35259e-06 -1.2387e-06 0.000438442
0.00217826 1.98911e-05 8.85601e-06
1.98911e-05 0.000793458 -4.29075e-06
8.85601e-06 -4.29075e-06 0.000813066
0.000627381 3.75785e-06 -3.61435e-07
3.75785e-06 -4.08356e-05 -1.13503e-06
-3.61435e-07 -1.13503e-06 -0.000107251
0.000512736 -1.16028e-05 -2.75678e-07
-1.16028e-05 -0.000125686 -2.36538e-06
-2.75678e-07 -2.36538e-06 -0.000162096
0.000870796 -6.99028e-06 1.28458e-08
-6.99028e-06 9.11948e-05 9.11933e-08
1.28458e-08 9.11933e-08 3.23885e-05
0.000709233 -1.30739e-05 -2.97237e-07
-1.30739e-05 -3.16777e-05 -3.42017e-06
-2.97237e-07 -3.42017e-06 -3.57998e-05
0.000631632 -7.96293e-06 1.35351e-07
-7.96293e-06 -6.09307e-05 -1.30154e-09
1.35351e-07 -1.30154e-09 -9.44456e-05
0.000612396 -4.81498e-05 2.36109e-07
-4.81498e-05 -4.82925e-05 9.91893e-07
2.36109e-07 9.91893e-07 -0.000106612
0.00208151 -1.03687e-05 -4.8263e-06
-1.03687e-05 0.000737158 -4.4494e-06
-4.8263e-06 -4.4494e-06 0.000758376
0.000710248 -6.55599e-06 -1.83997e-07
-6.55599e-06 -3.30986e-05 -3.03364e-09
-1.83997e-07 -3.03364e-09 -3.60707e-05
0.000756735 -4.78713e-06 -7.76905e-08
-4.78713e-06 7.91829e-06 1.71815e-06
-7.76905e-08 1.71815e-06 -2.33647e-05
0.00206794 -3.74008e-07 -2.63196e-06
-3.74008e-07 0.000728538 -2.95353e-10
-2.63196e-06 -2.95353e-10 0.000750117
0.000713505 -4.08852e-08 1.42014e-07
-4.08852e-08 -3.20368e-05 3.37537e-06
1.42014e-07 3.37537e-06 -3.46635e-05
0.00208173 9.6929e-06 -5.02419e-06
9.6929e-06 0.000737061 4.46087e-06
-5.02419e-06 4.46087e-06 0.000758294
0.00111282 7.53411e-06 -5.12643e-05
7.53411e-06 -8.58892e-05 2.07693e-05
-5.12643e-05 2.07693e-05 -0.000492346
0.00133654 0.000161037 -2.85928e-06
0.000161037 0.00140782 -5.61605e-06
-2.85928e-06 -5.61605e-06 0.00113834
0.000764397 -0.000130204 -2.46391e-05
-0.000130204 0.000786355 -1.25977e-05
-2.46391e-05 -1.25977e-05 0.000447395
0.000816866 3.07868e-05 -6.3711e-08
3.07868e-05 7.10121e-05 6.13782e-07
-6.3711e-08 6.13782e-07 -1.15828e-05
0.00226217 7.95938e-06 -2.35775e-05
7.95938e-06 0.000662612 4.37042e-05
-2.35775e-05 4.37042e-05 0.000193116
0.0023473 1.36223e-05 -2.17654e-05
1.36223e-05 0.000362316 3.25207e-06
-2.17654e-05 3.25207e-06 -0.000285867
0.00157192 0.000380909 7.40355e-05
0.000380909 0.00116876 -5.83031e-05
7.40355e-05 -5.83031e-05 0.00137886
0.00293933 -9.25424e-05 -1.91063e-05
-9.25424e-05 0.000191204 -1.0549e-05
-1.91063e-05 -1.0549e-05 -5.96333e-05
0.00994707 0.000432108 3.14619e-05
0.000432108 0.00378134 -3.03019e-05
3.14619e-05 -3.03019e-05 0.00238774
-0.00248528 0.000457228 2.85707e-06
0.000457228 -0.00237155 1.1964e-05
2.85707e-06 1.1964e-05 -0.00176411
0.00321021 0.000555336 3.2137e-05
0.000555336 -0.000442591 -1.14678e-05
3.2137e-05 -1.14678e-05 0.000531077
0.00309038 -0.000301874 -5.13242e-05
-0.000301874 1.87784e-05 1.44979e-06
-5.13242e-05 1.44979e-06 -0.000635364
0.00712586 0.000206964 2.78701e-05
0.000206964 0.00279771 -1.26879e-05
2.78701e-05 -1.26879e-05 0.00117731
0.00511915 0.000542528 5.70148e-06
0.000542528 0.000589621 -2.15874e-05
5.70148e-06 -2.15874e-05 0.000770887
0.00328833 0.000334752 -9.85797e-06
0.000334752 -0.00126982 1.29994e-06
-9.85797e-06 1.29994e-06 -0.000195156
0.0040209 -0.000544753 -9.16577e-06
-0.000544753 0.000524516 -1.47853e-05
-9.16577e-06 -1.47853e-05 -0.00036306
0.0082429 -7.66265e-05 4.26629e-05
-7.66265e-05 0.00379823 1.86607e-06
4.26629e-05 1.86607e-06 0.00140611
0.00122636 8.98235e-05 5.91612e-06
8.98235e-05 -0.000708697 -7.61253e-06
5.91612e-06 -7.61253e-06 -0.000812057
0.00486746 4.87311e-05 -5.14693e-06
4.87311e-05 -0.000322248 3.18839e-05
-5.14693e-06 3.18839e-05 0.000976584
0.00086542 -2.92841e-05 4.69755e-07
-2.92841e-05 0.000101153 5.72189e-07
4.69755e-07 5.72189e-07 5.67785e-06
0.000838786 -3.77663e-05 4.61136e-07
-3.77663e-05 9.71724e-05 2.69403e-08
4.61136e-07 2.69403e-08 1.06007e-06
0.000903658 6.03546e-05 -1.14951e-06
6.03546e-05 0.000133789 -8.8028e-08
-1.14951e-06 -8.8028e-08 4.54398e-05
0.000816494 -7.30869e-06 -3.37019e-07
-7.30869e-06 6.46974e-05 3.99312e-07
-3.37019e-07 3.99312e-07 -1.9352e-05
0.000870046 5.21867e-05 -6.30997e-07
5.21867e-05 0.000108719 3.70457e-07
-6.30997e-07 3.70457e-07 1.56777e-05
0.000907901 3.28155e-05 6.46783e-07
3.28155e-05 0.000131811 1.04272e-06
6.46783e-07 1.04272e-06 4.51956e-05
0.000961646 7.13022e-05 -6.22304e-07
7.13022e-05 0.000158772 7.95808e-08
-6.22304e-07 7.95808e-08 7.42914e-05
0.00100254 7.919e-05 8.96472e-07
7.919e-05 0.000187623 1.0749e-06
8.96472e-07 1.0749e-06 0.000102937
0.000868386 -0.00013619 2.29507e-05
-0.00013619 -0.000124145 -1.09652e-05
2.29507e-05 -1.09652e-05 -0.000183852
0.0011794 -0.000220909 8.01829e-06
-0.000220909 2.32155e-05 -3.94302e-06
8.01829e-06 -3.94302e-06 -2.05101e-05
0.000835962 -0.000118593 -1.60622e-06
-0.000118593 0.00010169 -2.02063e-07
-1.60622e-06 -2.02063e-07 5.73252e-07
0.00169045 -7.36096e-05 4.88276e-06
-7.36096e-05 0.000549545 -4.49087e-06
4.88276e-06 -4.49087e-06 0.000388462
0.00101459 -5.29242e-05 -3.63443e-07
-5.29242e-05 0.000191493 -8.08593e-07
-3.63443e-07 -8.08593e-07 8.26773e-05
0.000948833 -3.02811e-05 -1.30762e-06
-3.02811e-05 0.000149379 -1.11718e-07
-1.30762e-06 -1.11718e-07 5.35635e-05
0.000903578 1.24079e-05 4.43353e-08
1.24079e-05 0.000118597 -2.40494e-07
4.43353e-08 -2.40494e-07 2.47946e-05
0.000700617 -0.000270786 -6.15332e-06
-0.000270786 -0.000246795 2.91958e-07
-6.15332e-06 2.91958e-07 -0.00029416
0.000851517 2.46866e-05 -1.30544e-07
2.46866e-05 9.75854e-05 -3.90162e-07
-1.30544e-07 -3.90162e-07 -5.85761e-06
0.000977872 -3.03431e-05 5.74502e-07
-3.03431e-05 0.00014635 7.62765e-07
5.74502e-07 7.62765e-07 4.36341e-05
0.000525763 -7.43232e-05 7.65191e-07
-7.43232e-05 -2.0929e-05 3.35593e-06
7.65191e-07 3.35593e-06 -0.000104188
0.000931277 -8.55149e-06 6.57051e-07
-8.55149e-06 0.000116541 9.74058e-07
6.57051e-07 9.74058e-07 3.59216e-05
0.000243115 -0.000271795 4.91458e-05
-0.000271795 -0.000369905 -2.81265e-05
4.91458e-05 -2.81265e-05 -0.000328019
0.00115768 -4.62165e-05 -1.20208e-05
-4.62165e-05 0.000515777 1.57992e-05
-1.20208e-05 1.57992e-05 0.000400584
0.000505808 5.15337e-06 -9.05696e-07
5.15337e-06 -0.000110857 4.8548e-06
-9.05696e-07 4.8548e-06 -0.000194595
0.000884708 0.000101527 1.94337e-06
0.000101527 0.000111072 1.23468e-06
1.94337e-06 1.23468e-06 1.90843e-05
0.00139796 -1.09388e-05 -1.57691e-05
-1.09388e-05 0.000230115 -2.83591e-08
-1.57691e-05 -2.83591e-08 0.000115618
0.00118848 -1.98981e-05 2.98587e-05
-1.98981e-05 -1.61693e-05 -2.01891e-06
2.98587e-05 -2.01891e-06 -0.000387234
-0.00187354 -3.58119e-05 -2.81075e-06
-3.58119e-05 0.00011861 1.55859e-06
-2.81075e-06 1.55859e-06 -0.000567589
0.000766461 9.26891e-05 1.2807e-05
9.26891e-05 0.000192165 3.45095e-06
1.2807e-05 3.45095e-06 0.000116122
0.000424046 0.00016226 2.30614e-05
0.00016226 0.000167959 1.04758e-05
2.30614e-05 1.04758e-05 2.4644e-05
0.00188321 -3.47711e-05 5.24078e-05
-3.47711e-05 0.00044138 1.14385e-05
5.24078e-05 1.14385e-05 8.66181e-05
0.00723623 -0.000268255 7.15984e-05
-0.000268255 0.00285303 3.46728e-05
7.15984e-05 3.46728e-05 0.000880716
0.00233151 0.000420555 -6.60019e-05
0.000420555 0.000356241 -8.32844e-05
-6.60019e-05 -8.32844e-05 -0.000401716
0.00335553 -0.000260336 2.66184e-05
-0.000260336 0.000346342 6.95014e-06
2.66184e-05 6.95014e-06 -3.08934e-05
0.00178507 2.12432e-05 2.03922e-05
2.12432e-05 0.000179223 5.58401e-05
2.03922e-05 5.58401e-05 -0.000428586
0.00229455 6.19243e-06 3.91901e-06
6.19243e-06 -0.00253962 -1.89072e-05
3.91901e-06 -1.89072e-05 -0.000832932
0.000786764 8.88908e-05 4.44191e-07
8.88908e-05 0.000281702 -2.14989e-07
4.44191e-07 -2.14989e-07 0.000212893
0.00129537 -2.55705e-05 -1.71109e-07
-2.55705e-05 0.000136174 -5.63314e-06
-1.71109e-07 -5.63314e-06 -1.95651e-05
0.00202323 9.52145e-06 1.06827e-05
9.52145e-06 0.000304613 4.1617e-06
1.06827e-05 4.1617e-06 -0.000144778
-0.000717237 7.54558e-05 -1.42399e-05
7.54558e-05 -0.000283811 -4.40443e-06
-1.42399e-05 -4.40443e-06 -0.000500812
0.00329956 0.000336158 6.62852e-06
0.000336158 -0.00123921 -1.09929e-06
6.62852e-06 -1.09929e-06 -0.000196742
0.00542664 0.000591069 4.62119e-05
0.000591069 0.00170998 7.65163e-06
4.62119e-05 7.65163e-06 -0.000264453
0.00278738 0.000144294 -4.82656e-05
0.000144294 0.00121619 -3.11774e-06
-4.82656e-05 -3.11774e-06 0.000748358
0.00025136 9.02699e-05 -1.46917e-05
9.02699e-05 0.00010369 -1.17696e-05
-1.46917e-05 -1.17696e-05 -1.3896e-05
0.00139403 -9.74359e-08 -3.48808e-07
-9.74359e-08 0.000163268 -1.68231e-05
-3.48808e-07 -1.68231e-05 2.47637e-05
0.00232893 6.91016e-06 2.3113e-05
6.91016e-06 0.000637543 -4.35097e-05
2.3113e-05 -4.35097e-05 0.000203109
0.00380858 0.000523993 5.86156e-05
0.000523993 -5.48324e-05 -4.12226e-05
5.86156e-05 -4.12226e-05 0.000811852
0.00239238 0.000155091 -2.01553e-05
0.000155091 -0.000329182 7.26318e-06
-2.01553e-05 7.26318e-06 -0.000286924
0.00246112 0.000271931 1.69661e-05
0.000271931 0.000372374 -2.13028e-05
1.69661e-05 -2.13028e-05 0.000462673
0.00213888 2.21514e-05 9.18719e-05
2.21514e-05 0.00141077 3.25405e-05
9.18719e-05 3.25405e-05 -0.00137636
0.00061627 8.42378e-05 3.26109e-06
8.42378e-05 1.5666e-06 6.84171e-06
3.26109e-06 6.84171e-06 -4.53956e-05
0.00064265 2.5564e-05 6.85203e-06
2.5564e-05 9.03254e-05 8.06835e-07
6.85203e-06 8.06835e-07 4.60357e-05
0.000189654 -1.25863e-05 1.00862e-05
-1.25863e-05 4.39739e-05 -1.2469e-05
1.00862e-05 -1.2469e-05 -2.21629e-05
0.000801258 2.13069e-05 -1.06036e-07
2.13069e-05 3.64859e-05 2.05743e-06
-1.06036e-07 2.05743e-06 -3.66026e-05
0.000660402 -3.32043e-05 -1.17209e-06
-3.32043e-05 -3.7224e-05 4.04997e-06
-1.17209e-06 4.04997e-06 -9.07618e-05
0.000799519 -5.7014e-05 -4.52659e-06
-5.7014e-05 8.20844e-05 8.66097e-06
-4.52659e-06 8.66097e-06 4.05901e-05
0.00080511 -6.22894e-06 -8.59493e-08
-6.22894e-06 5.45613e-05 -1.71623e-07
-8.59493e-08 -1.71623e-07 -6.39334e-06
0.000569482 -1.1071e-05 -7.93294e-07
-1.1071e-05 -2.31208e-05 2.50997e-06
-7.93294e-07 2.50997e-06 -4.47127e-05
0.000205819 -8.49239e-05 4.31352e-06
-8.49239e-05 -0.000100114 -5.16249e-06
4.31352e-06 -5.16249e-06 -0.000217871
0.000880167 1.96822e-05 -3.24262e-08
1.96822e-05 9.57975e-05 1.81595e-06
-3.24262e-08 1.81595e-06 3.12007e-05
0.000795733 5.27319e-05 -5.79685e-07
5.27319e-05 5.28999e-05 9.28975e-07
-5.79685e-07 9.28975e-07 -1.9193e-05
0.00111015 -4.55235e-05 9.73751e-07
-4.55235e-05 0.000257056 6.75941e-07
9.73751e-07 6.75941e-07 0.000172744
0.000423174 -5.98885e-05 3.78802e-06
-5.98885e-05 -2.81504e-05 7.17072e-07
3.78802e-06 7.17072e-07 -0.000198248
0.000612839 -1.64695e-06 -4.07357e-06
-1.64695e-06 -1.05756e-05 5.8879e-08
-4.07357e-06 5.8879e-08 -8.83435e-05
0.000385579 -6.39952e-05 9.84491e-07
-6.39952e-05 -0.000126563 -4.18234e-07
9.84491e-07 -4.18234e-07 -0.000256001
0.00106157 -0.000157553 4.03309e-06
-0.000157553 0.000215965 -1.09195e-06
4.03309e-06 -1.09195e-06 2.74576e-05
0.0011334 -0.000165212 -1.84502e-06
-0.000165212 0.000176022 3.60658e-06
-1.84502e-06 3.60658e-06 -1.19231e-05
0.00137445 -9.26884e-05 -2.11545e-06
-9.26884e-05 0.000390323 -3.32343e-07
-2.11545e-06 -3.32343e-07 0.000271848
0.000710142 -0.000127408 -3.0892e-07
-0.000127408 1.04245e-05 7.27124e-08
-3.0892e-07 7.27124e-08 -0.000148714
0.00144854 -0.000171541 8.47488e-07
-0.000171541 0.000410362 -1.13203e-06
8.47488e-07 -1.13203e-06 0.000258376
0.000387585 -8.20401e-05 -1.21841e-06
-8.20401e-05 -0.00012665 -2.20278e-07
-1.21841e-06 -2.20278e-07 -0.000258444
0.000869402 -0.000129074 1.25033e-07
-0.000129074 0.000106822 3.26269e-07
1.25033e-07 3.26269e-07 -4.18495e-05
0.000880541 -9.73033e-06 -6.11457e-08
-9.73033e-06 0.000118422 6.03387e-07
-6.11457e-08 6.03387e-07 2.45786e-05
0.00100143 -9.70363e-05 -1.79753e-06
-9.70363e-05 0.000200519 1.48453e-06
-1.79753e-06 1.48453e-06 8.1009e-05
0.000535995 -0.000105242 -8.03385e-07
-0.000105242 -6.58754e-05 -6.59644e-07
-8.03385e-07 -6.59644e-07 -0.000210782
0.00076631 5.15171e-05 1.8917e-07
5.15171e-05 4.00075e-05 8.01514e-07
1.8917e-07 8.01514e-07 -2.55589e-05
0.000734481 -1.71391e-06 7.20055e-07
-1.71391e-06 3.54717e-05 -1.01426e-07
7.20055e-07 -1.01426e-07 -4.94485e-05
0.000808206 -3.0626e-05 7.80926e-07
-3.0626e-05 9.38137e-05 -2.34383e-06
7.80926e-07 -2.34383e-06 -1.24986e-05
0.000812313 1.84311e-05 -6.57234e-08
1.84311e-05 7.3507e-05 -4.57323e-07
-6.57234e-08 -4.57323e-07 1.08017e-06
0.000782268 2.1232e-05 -4.80457e-07
2.1232e-05 4.13644e-05 -1.55822e-07
-4.80457e-07 -1.55822e-07 -1.64004e-05
0.000733795 4.28825e-05 -1.46739e-06
4.28825e-05 9.94257e-06 1.35878e-06
-1.46739e-06 1.35878e-06 -2.90063e-05
0.000806049 -1.2421e-05 8.88276e-07
-1.2421e-05 5.22311e-05 -5.89135e-07
8.88276e-07 -5.89135e-07 -2.98142e-06
0.000744264 3.46264e-05 -8.43768e-08
3.46264e-05 8.55439e-06 -3.87615e-09
-8.43768e-08 -3.87615e-09 -2.8068e-05
0.00066653 3.69937e-05 -1.18314e-06
3.69937e-05 -3.41491e-05 3.33729e-06
-1.18314e-06 3.33729e-06 -4.37717e-05
0.000752628 2.4715e-05 1.26205e-06
2.4715e-05 7.18362e-06 -1.45505e-06
1.26205e-06 -1.45505e-06 -2.7922e-05
0.000684316 3.18173e-05 1.20068e-07
3.18173e-05 -3.15404e-05 2.61753e-08
1.20068e-07 2.61753e-08 -3.95871e-05
0.0020502 4.9536e-05 -4.73067e-06
4.9536e-05 0.000736825 1.59279e-06
-4.73067e-06 1.59279e-06 0.000753276
0.000686039 2.5893e-05 8.23584e-07
2.5893e-05 -3.6865e-05 -3.2843e-06
8.23584e-07 -3.2843e-06 -4.37786e-05
0.00149179 3.19036e-05 7.71296e-06
3.19036e-05 0.000417426 -1.13389e-06
7.71296e-06 -1.13389e-06 0.00043252
0.00215743 2.91723e-05 1.25943e-05
2.91723e-05 0.000785763 -4.10307e-06
1.25943e-05 -4.10307e-06 0.000804723
0.000648905 -1.60707e-05 -1.8909e-07
-1.60707e-05 -3.71015e-05 -7.54439e-07
-1.8909e-07 -7.54439e-07 -0.000100884
0.00049154 -1.37584e-05 -3.6297e-07
-1.37584e-05 -0.000136616 -2.27058e-06
-3.6297e-07 -2.27058e-06 -0.000175936
0.000755301 4.25007e-06 -3.26832e-07
4.25007e-06 2.85422e-05 -5.52498e-07
-3.26832e-07 -5.52498e-07 -3.63094e-05
0.000703573 -1.93668e-05 -3.19203e-07
-1.93668e-05 -3.14887e-05 -3.46344e-06
-3.19203e-07 -3.46344e-06 -3.74166e-05
0.000497642 -1.2533e-05 -3.20822e-08
-1.2533e-05 -0.000134039 -6.95796e-07
-3.20822e-08 -6.95796e-07 -0.000170788
0.000890023 3.62859e-06 -1.34862e-07
3.62859e-06 0.000106109 8.5582e-07
-1.34862e-07 8.5582e-07 4.42693e-05
0.00211338 -1.97883e-05 -8.73826e-06
-1.97883e-05 0.00075735 -4.39222e-06
-8.73826e-06 -4.39222e-06 0.000777688
0.000706103 -1.27534e-05 -1.14682e-07
-1.27534e-05 -3.34037e-05 -1.16519e-08
-1.14682e-07 -1.16519e-08 -3.74755e-05
0.000497645 -8.18637e-06 1.48037e-07
-8.18637e-06 -0.000134654 1.69834e-06
1.48037e-07 1.69834e-06 -0.000169221
0.00207565 -9.6546e-06 -2.81714e-06
-9.6546e-06 0.000733686 2.66254e-08
-2.81714e-06 2.66254e-08 0.000754999
0.000709621 -6.27852e-06 1.72439e-07
-6.27852e-06 -3.34129e-05 3.36831e-06
1.72439e-07 3.36831e-06 -3.63639e-05
0.00206446 3.93228e-07 -5.45796e-07
3.93228e-07 0.000726583 4.47586e-06
-5.45796e-07 4.47586e-06 0.000748172
0.00135037 2.15334e-05 -1.44829e-05
2.15334e-05 0.00018418 1.52166e-05
-1.44829e-05 1.52166e-05 2.94755e-05
0.00144761 1.99918e-05 7.64218e-06
1.99918e-05 0.000126604 -2.35822e-06
7.64218e-06 -2.35822e-06 -0.000279204
0.00145704 0.00012948 4.18568e-05
0.00012948 0.00152781 -2.0109e-05
4.18568e-05 -2.0109e-05 0.00126353
0.000849684 3.04504e-05 9.6961e-08
3.04504e-05 8.54353e-05 1.15247e-07
9.6961e-08 1.15247e-07 6.28014e-06
0.000759428 -1.72575e-06 1.09189e-07
-1.72575e-06 3.01808e-05 4.5042e-07
1.09189e-07 4.5042e-07 -4.51654e-05
0.00090799 4.80733e-05 -1.91142e-07
4.80733e-05 0.000117571 1.17372e-06
-1.91142e-07 1.17372e-06 3.3993e-05
0.0017611 1.22619e-05 2.6614e-06
1.22619e-05 8.28574e-05 6.8166e-05
2.6614e-06 6.8166e-05 -0.000470432
0.00228043 1.61412e-05 -6.5992e-06
1.61412e-05 0.000658238 1.60448e-06
-6.5992e-06 1.60448e-06 0.00019019
0.00249197 1.89979e-06 4.16236e-05
1.89979e-06 0.000493034 -5.05572e-05
4.16236e-05 -5.05572e-05 -0.000212044
0.0043511 -0.000325977 -6.08436e-05
-0.000325977 0.000793185 7.68586e-07
-6.08436e-05 7.68586e-07 0.000165502
0.000237383 -5.1774e-05 -4.46811e-05
-5.1774e-05 -0.000348563 2.54504e-05
-4.46811e-05 2.54504e-05 -0.00220885
0.00489126 0.000619822 6.2085e-05
0.000619822 0.00113954 -1.01389e-05
6.2085e-05 -1.01389e-05 0.00111991
0.00143621 0.000230328 1.2324e-05
0.000230328 -0.00241706 -3.31908e-05
1.2324e-05 -3.31908e-05 -0.00129308
0.00488877 -0.000629366 -7.95265e-06
-0.000629366 0.00124078 4.05004e-06
-7.95265e-06 4.05004e-06 0.000629996
0.00613766 -0.00011141 1.16886e-05
-0.00011141 0.00244316 -4.03024e-06
1.16886e-05 -4.03024e-06 0.000479743
-0.000355047 0.0001229 -9.93029e-06
0.0001229 -0.000691826 -1.71244e-05
-9.93029e-06 -1.71244e-05 -0.00101838
0.00355554 1.69243e-05 -6.59371e-06
1.69243e-05 -0.00139883 7.0351e-06
-6.59371e-06 7.0351e-06 6.47194e-05
0.00198812 -0.000483664 -3.22199e-05
-0.000483664 -0.000306724 -3.21613e-05
-3.22199e-05 -3.21613e-05 -0.000859037
0.00939272 -0.000431049 5.74511e-05
-0.000431049 0.00421057 1.41958e-05
5.74511e-05 1.41958e-05 0.00181388
-0.00468905 7.00917e-05 3.29635e-05
7.00917e-05 -0.00100341 -2.78952e-05
3.29635e-05 -2.78952e-05 -0.00172805
0.00171766 -0.000275039 1.83267e-06
-0.000275039 -0.00184501 1.54077e-06
1.83267e-06 1.54077e-06 -0.000728367
0.000851543 1.02862e-05 -9.37422e-08
1.02862e-05 8.2636e-05 1.28637e-06
-9.37422e-08 1.28637e-06 -6.64042e-06
0.000839638 -1.28786e-05 1.9304e-07
-1.28786e-05 8.89963e-05 -8.53253e-08
1.9304e-07 -8.53253e-08 -8.19417e-06
0.00081509 -4.89145e-05 -5.74436e-08
-4.89145e-05 8.54946e-05 -3.72981e-07
-5.74436e-08 -3.72981e-07 -1.1795e-05
0.00083738 1.63189e-05 -3.47331e-07
1.63189e-05 7.67499e-05 -2.71907e-07
-3.47331e-07 -2.71907e-07 -8.34753e-06
0.000972231 9.11068e-05 1.27906e-06
9.11068e-05 0.000164261 7.1162e-08
1.27906e-06 7.1162e-08 7.26972e-05
0.00101965 8.15819e-05 -2.14652e-07
8.15819e-05 0.000191371 8.12657e-08
-2.14652e-07 8.12657e-08 0.000106055
0.00154484 -0.000312436 -1.03487e-06
-0.000312436 0.000180452 6.14862e-06
-1.03487e-06 6.14862e-06 9.7295e-05
-0.000788748 -5.57089e-05 8.85704e-06
-5.57089e-05 -0.000721122 -6.18894e-06
8.85704e-06 -6.18894e-06 -0.000781749
0.00100447 5.12381e-05 -6.28209e-07
5.12381e-05 0.000181278 -5.84084e-07
-6.28209e-07 -5.84084e-07 8.31182e-05
0.00129874 -7.789e-05 9.28125e-06
-7.789e-05 0.000306415 -1.07633e-05
9.28125e-06 -1.07633e-05 0.000199413
0.000988308 1.41735e-05 -5.64466e-07
1.41735e-05 0.000174088 -1.69135e-06
-5.64466e-07 -1.69135e-06 7.30678e-05
0.000873978 -1.28245e-07 2.7851e-08
-1.28245e-07 8.51254e-05 -3.26519e-07
2.7851e-08 -3.26519e-07 1.33544e-06
0.000950649 5.54988e-05 5.13905e-07
5.54988e-05 0.000144407 -4.14999e-07
5.13905e-07 -4.14999e-07 5.77196e-05
0.000570548 -0.0002584 -6.53377e-06
-0.0002584 -0.000212179 -2.16652e-06
-6.53377e-06 -2.16652e-06 -0.000225512
0.000994992 -2.43537e-05 1.22684e-06
-2.43537e-05 0.000165363 -2.08104e-06
1.22684e-06 -2.08104e-06 8.54265e-05
0.000454646 -2.50083e-05 1.01207e-05
-2.50083e-05 0.000151558 -1.02781e-06
1.01207e-05 -1.02781e-06 4.02353e-05
0.000964421 2.36657e-05 2.41802e-06
2.36657e-05 0.000145237 1.25321e-06
2.41802e-06 1.25321e-06 6.75969e-05
-0.00208187 -4.34861e-06 3.9309e-06
-4.34861e-06 -0.00101221 -2.71372e-05
3.9309e-06 -2.71372e-05 -0.00130207
0.00128741 1.35024e-06 8.47028e-06
1.35024e-06 0.000547097 1.95664e-05
8.47028e-06 1.95664e-05 0.000507329
0.00110319 -9.17248e-06 2.49259e-06
-9.17248e-06 0.00023718 4.16953e-06
2.49259e-06 4.16953e-06 0.000174355
0.00150811 -8.45713e-06 -1.00887e-06
-8.45713e-06 0.000277741 4.87764e-08
-1.00887e-06 4.87764e-08 0.000209798
0.00110969 -8.58023e-06 -6.32986e-06
-8.58023e-06 8.56644e-05 -1.5971e-06
-6.32986e-06 -1.5971e-06 -1.41238e-05
0.00108663 -2.83415e-05 9.01219e-05
-2.83415e-05 -3.33927e-05 -1.42627e-06
9.01219e-05 -1.42627e-06 -0.000408367
0.00115473 0.00013342 1.735e-05
0.00013342 0.00046948 1.22236e-05
1.735e-05 1.22236e-05 0.000391545
0.00357615 0.000349286 3.81558e-06
0.000349286 0.0015023 -1.52147e-05
3.81558e-06 -1.52147e-05 0.00137678
0.00131187 -2.38303e-05 9.42436e-06
-2.38303e-05 0.000134904 5.68961e-06
9.42436e-06 5.68961e-06 -1.08098e-05
0.000475288 0.000276403 -4.55898e-06
0.000276403 -0.000272535 1.22047e-06
-4.55898e-06 1.22047e-06 -0.00219961
-0.00731843 1.81824e-05 -3.09659e-05
1.81824e-05 -0.00333495 -1.10139e-05
-3.09659e-05 -1.10139e-05 -0.00415922
0.00220816 1.54397e-05 1.24978e-05
1.54397e-05 0.000528912 3.63938e-05
1.24978e-05 3.63938e-05 0.00017185
0.00153587 0.000239735 -9.71701e-06
0.000239735 -0.00236268 3.32899e-05
-9.71701e-06 3.32899e-05 -0.00124078
0.000365524 6.92594e-05 -9.21701e-07
6.92594e-05 0.000167419 -1.36104e-06
-9.21701e-07 -1.36104e-06 6.74203e-05
0.00122881 -3.66341e-06 2.96283e-06
-3.66341e-06 8.65404e-05 -6.62632e-06
2.96283e-06 -6.62632e-06 -3.33966e-05
0.00232692 1.20476e-05 6.55691e-06
1.20476e-05 0.00063247 -1.61168e-06
6.55691e-06 -1.61168e-06 0.000186629
0.00133757 0.000241806 3.78557e-05
0.000241806 -0.000276826 -5.25599e-07
3.78557e-05 -5.25599e-07 -0.000406371
0.00185923 0.000510297 1.28191e-05
0.000510297 -0.0012256 -2.97803e-05
1.28191e-05 -2.97803e-05 -0.000313394
-0.000291916 0.000137348 1.01434e-05
0.000137348 -0.00105293 1.3729e-05
1.01434e-05 1.3729e-05 -0.00109351
0.00645896 0.000104579 5.67837e-05
0.000104579 0.00340539 -1.57988e-05
5.67837e-05 -1.57988e-05 0.000395183
5.50661e-05 1.07939e-05 -3.83858e-06
1.07939e-05 0.000201382 -1.20233e-05
-3.83858e-06 -1.20233e-05 -1.28903e-05
0.00130411 1.72078e-05 1.34408e-05
1.72078e-05 0.000140627 -1.47285e-05
1.34408e-05 -1.47285e-05 -9.68597e-06
0.00238018 3.19273e-05 8.17115e-05
3.19273e-05 0.000261033 -5.97537e-05
8.17115e-05 -5.97537e-05 -0.00028815
0.0022519 0.000709865 9.53898e-06
0.000709865 0.000692174 -8.12246e-06
9.53898e-06 -8.12246e-06 0.00173053
-0.00638098 0.000149759 5.58646e-05
0.000149759 -0.0045769 5.66371e-05
5.58646e-05 5.66371e-05 -0.00435377
0.00892968 -0.000159304 3.64079e-05
-0.000159304 0.00370612 -5.32497e-05
3.64079e-05 -5.32497e-05 0.00130011
0.00456885 -0.000261023 -6.89253e-05
-0.000261023 0.00103088 0.000120459
-6.89253e-05 0.000120459 0.00112689
0.0010699 1.76392e-05 -2.73058e-07
1.76392e-05 0.000333368 6.74199e-06
-2.73058e-07 6.74199e-06 0.000288775
5.21126e-05 -1.43187e-05 2.13419e-06
-1.43187e-05 -3.91068e-05 -1.10693e-06
2.13419e-06 -1.10693e-06 -0.000119097
-0.00048912 -0.000101019 6.00716e-06
-0.000101019 -0.00024164 -1.14352e-05
6.00716e-06 -1.14352e-05 -0.000416066
0.000799199 -1.84779e-05 1.82778e-07
-1.84779e-05 5.41062e-05 1.93605e-06
1.82778e-07 1.93605e-06 -9.00259e-06
0.000610488 -1.3274e-05 3.92966e-06
-1.3274e-05 -1.34455e-05 1.13931e-05
3.92966e-06 1.13931e-05 -3.21973e-05
0.00049007 -2.79239e-05 -5.32954e-07
-2.79239e-05 4.73557e-05 9.97921e-09
-5.32954e-07 9.97921e-09 -5.5423e-05
0.00103188 -0.00014264 1.50321e-05
-0.00014264 0.000384486 -9.54944e-06
1.50321e-05 -9.54944e-06 0.000167012
0.00154653 -6.07925e-05 -1.82727e-06
-6.07925e-05 0.000485172 1.56135e-06
-1.82727e-06 1.56135e-06 0.000396158
0.0012816 -0.000140764 9.59833e-07
-0.000140764 0.000401137 4.60176e-07
9.59833e-07 4.60176e-07 0.000227186
0.00103898 -0.000167041 6.251e-06
-0.000167041 0.000261178 1.67621e-06
6.251e-06 1.67621e-06 -5.78511e-06
0.000219053 -6.04002e-05 -1.87222e-06
-6.04002e-05 -0.000210873 -1.09796e-06
-1.87222e-06 -1.09796e-06 -0.000331369
0.00107044 -0.000155773 -2.65122e-07
-0.000155773 0.000216049 8.39917e-07
-2.65122e-07 8.39917e-07 2.17298e-05
0.00190001 -0.000237336 1.9242e-06
-0.000237336 0.000567501 1.49258e-06
1.9242e-06 1.49258e-06 0.000334693
0.00172714 -0.000227866 -2.94624e-06
-0.000227866 0.000377558 3.3869e-07
-2.94624e-06 3.3869e-07 0.000171734
0.000644131 -0.00012689 -3.14702e-07
-0.00012689 -6.33082e-05 4.43042e-06
-3.14702e-07 4.43042e-06 -0.000230278
0.00116718 -0.000167935 -1.84508e-06
-0.000167935 0.000194105 1.25738e-06
-1.84508e-06 1.25738e-06 4.76026e-06
0.00092892 -0.000142877 -2.88013e-06
-0.000142877 0.000122591 3.40385e-07
-2.88013e-06 3.40385e-07 -4.03994e-05
0.00132481 -0.000159829 2.39292e-06
-0.000159829 0.000355863 -2.06211e-06
2.39292e-06 -2.06211e-06 0.000213649
0.00111092 -0.000146873 2.29877e-06
-0.000146873 0.000233462 -1.9621e-06
2.29877e-06 -1.9621e-06 8.82116e-05
0.000699649 -4.1972e-05 7.39019e-07
-4.1972e-05 3.03989e-05 8.73863e-07
7.39019e-07 8.73863e-07 -8.26749e-05
0.00077954 -0.000102189 9.92568e-07
-0.000102189 8.59087e-05 -3.74878e-07
9.92568e-07 -3.74878e-07 -4.594e-05
0.000951408 -0.000134166 4.23063e-06
-0.000134166 0.00014958 -2.63001e-06
4.23063e-06 -2.63001e-06 3.78691e-06
0.000766995 5.71112e-05 6.89795e-07
5.71112e-05 4.88981e-05 1.21617e-06
6.89795e-07 1.21617e-06 -2.882e-05
0.000890049 -2.80351e-05 -1.55287e-07
-2.80351e-05 0.000124581 4.4197e-08
-1.55287e-07 4.4197e-08 2.84603e-05
0.00106907 -9.55752e-05 -4.38289e-07
-9.55752e-05 0.000235621 8.3254e-08
-4.38289e-07 8.3254e-08 0.000116028
0.000710664 5.41384e-05 -9.79868e-07
5.41384e-05 6.37342e-06 1.45993e-06
-9.79868e-07 1.45993e-06 -3.7472e-05
0.000784413 2.74905e-05 -6.04935e-07
2.74905e-05 4.81886e-05 -2.65083e-07
-6.04935e-07 -2.65083e-07 -1.67657e-05
0.000612303 8.37373e-07 -1.58697e-07
8.37373e-07 -3.02727e-05 -7.23131e-07
-1.58697e-07 -7.23131e-07 -0.00011577
0.000812573 -1.73528e-06 8.19067e-07
-1.73528e-06 5.69819e-05 -8.71371e-07
8.19067e-07 -8.71371e-07 -6.88443e-07
0.000736132 4.42751e-05 -1.33979e-07
4.42751e-05 1.1475e-05 -2.87674e-08
-1.33979e-07 -2.87674e-08 -2.76964e-05
0.000652289 4.25456e-05 -1.41438e-06
4.25456e-05 -3.33523e-05 3.3229e-06
-1.41438e-06 3.3229e-06 -4.51792e-05
0.000750439 3.55474e-05 1.25063e-06
3.55474e-05 1.18015e-05 -1.5201e-06
1.25063e-06 -1.5201e-06 -2.48843e-05
0.000677204 3.77794e-05 8.45733e-08
3.77794e-05 -2.83298e-05 1.12904e-08
8.45733e-08 1.12904e-08 -3.80049e-05
0.00209289 5.37482e-05 -2.1545e-05
5.37482e-05 0.000767337 3.54006e-06
-2.1545e-05 3.54006e-06 0.000782651
0.000687888 3.23477e-05 9.77725e-07
3.23477e-05 -2.9924e-05 -3.3004e-06
9.77725e-07 -3.3004e-06 -3.79462e-05
0.00147885 3.97527e-05 9.01462e-06
3.97527e-05 0.000417281 -1.011e-06
9.01462e-06 -1.011e-06 0.000430956
0.00213313 3.81185e-05 1.60431e-05
3.81185e-05 0.000777503 -3.8819e-06
1.60431e-05 -3.8819e-06 0.000795499
0.000794411 2.81886e-05 -5.62543e-07
2.81886e-05 4.22106e-05 -2.85898e-07
-5.62543e-07 -2.85898e-07 -2.1679e-05
0.000731385 -1.60947e-05 -6.47575e-07
-1.60947e-05 -3.99278e-06 -1.59659e-06
-6.47575e-07 -1.59659e-06 -4.36764e-05
0.000710358 2.09499e-05 -7.9119e-07
2.09499e-05 1.5666e-06 -4.54667e-07
-7.9119e-07 -4.54667e-07 -6.48702e-05
0.000692865 -2.57095e-05 -2.3954e-07
-2.57095e-05 -3.28262e-05 -3.53999e-06
-2.3954e-07 -3.53999e-06 -4.10171e-05
0.000613074 -1.3561e-05 -2.99959e-07
-1.3561e-05 -6.96402e-05 -7.09691e-07
-2.99959e-07 -7.09691e-07 -0.000108153
0.00088439 2.89183e-06 6.60892e-08
2.89183e-06 0.000100225 8.66341e-09
6.60892e-08 8.66341e-09 3.58653e-05
0.00216004 -2.92223e-05 -1.27247e-05
-2.92223e-05 0.000787012 -4.29462e-06
-1.27247e-05 -4.29462e-06 0.000806037
0.000698978 -1.89905e-05 -1.80973e-07
-1.89905e-05 -3.40768e-05 -1.18147e-08
-1.80973e-07 -1.18147e-08 -3.99208e-05
0.000481889 -1.29257e-05 -5.33103e-08
-1.29257e-05 -0.000142815 1.01474e-06
-5.33103e-08 1.01474e-06 -0.000179861
0.00210289 -1.902e-05 -2.56522e-06
-1.902e-05 0.000751108 5.00886e-08
-2.56522e-06 5.00886e-08 0.000771626
0.000704044 -1.24541e-05 3.39597e-07
-1.24541e-05 -3.45238e-05 3.40995e-06
3.39597e-07 3.40995e-06 -3.85544e-05
0.00207133 -8.93099e-06 3.65405e-06
-8.93099e-06 0.000731069 4.45729e-06
3.65405e-06 4.45729e-06 0.000752452
0.00136228 -1.31897e-06 -1.52725e-06
-1.31897e-06 0.00016924 1.7465e-05
-1.52725e-06 1.7465e-05 8.52798e-06
0.00130317 1.83993e-05 -4.22584e-06
1.83993e-05 0.000155707 8.75846e-07
-4.22584e-06 8.75846e-07 -1.3277e-05
0.00155593 2.24743e-05 6.67161e-05
2.24743e-05 0.000216576 -1.65895e-05
6.67161e-05 -1.65895e-05 -0.000196557
0.000740989 -4.13674e-05 1.44945e-07
-4.13674e-05 1.6091e-05 -1.46802e-07
1.44945e-07 -1.46802e-07 -5.56769e-05
0.000896057 -6.06334e-06 -4.06752e-07
-6.06334e-06 0.000109192 -5.14577e-07
-4.06752e-07 -5.14577e-07 3.18281e-05
0.000873564 2.97898e-05 1.26349e-06
2.97898e-05 9.72916e-05 -3.28826e-07
1.26349e-06 -3.28826e-07 2.01313e-05
0.00076653 -1.68406e-05 1.22318e-07
-1.68406e-05 2.99191e-05 4.86692e-08
1.22318e-07 4.86692e-08 -4.24894e-05
0.000836131 1.26425e-05 -2.30036e-09
1.26425e-05 7.72992e-05 2.05175e-07
-2.30036e-09 2.05175e-07 -5.51638e-06
0.000866197 -9.97929e-06 -8.30668e-07
-9.97929e-06 9.39484e-05 4.91927e-07
-8.30668e-07 4.91927e-07 1.45333e-05
0.000879005 0.000118254 8.56538e-07
0.000118254 0.000111987 1.16645e-06
8.56538e-07 1.16645e-06 1.92577e-05
0.001368 4.8164e-06 2.35034e-05
4.8164e-06 0.000178888 6.51139e-05
2.35034e-05 6.51139e-05 -0.000416064
0.00196028 1.5691e-05 -2.34979e-06
1.5691e-05 0.00032181 1.97479e-05
-2.34979e-06 1.97479e-05 -0.000130486
0.00222096 2.29718e-05 1.11559e-05
2.29718e-05 0.000615389 -3.9009e-05
1.11559e-05 -3.9009e-05 0.000140163
0.00226206 -1.40062e-05 -7.2526e-06
-1.40062e-05 -0.00248215 -3.43297e-06
-7.2526e-06 -3.43297e-06 -0.000864216
0.00305898 -0.000546668 -2.1761e-05
-0.000546668 0.000462039 4.94607e-05
-2.1761e-05 4.94607e-05 -0.000349824
-0.00133746 -0.000266076 4.67438e-05
-0.000266076 -0.0010951 1.3125e-06
4.67438e-05 1.3125e-06 -0.00313425
0.00485263 0.000545863 4.02532e-05
0.000545863 0.00240167 -2.56195e-05
4.02532e-05 -2.56195e-05 0.00150295
0.004957 -0.000696489 -1.87319e-05
-0.000696489 0.0011343 3.85281e-06
-1.87319e-05 3.85281e-06 0.000441698
0.00124 -0.000243649 4.12754e-05
-0.000243649 0.000322845 -1.60379e-05
4.12754e-05 -1.60379e-05 -0.00187991
0.00348381 -2.22483e-05 -2.43242e-05
-2.22483e-05 0.00142787 2.30694e-06
-2.43242e-05 2.30694e-06 0.000975659
0.00541181 -0.000364077 -1.28278e-05
-0.000364077 0.000472971 -1.9001e-05
-1.28278e-05 -1.9001e-05 0.00155516
0.00234586 -0.000162475 -2.44286e-05
-0.000162475 -0.000169918 1.48478e-05
-2.44286e-05 1.48478e-05 -0.000109744
0.000692598 -4.15606e-05 3.48954e-05
-4.15606e-05 -0.000401819 -6.23646e-05
3.48954e-05 -6.23646e-05 -0.00220361
-0.00432861 -0.000426841 3.95152e-05
-0.000426841 -0.00338371 -5.79798e-06
3.95152e-05 -5.79798e-06 -0.00409889
0.00105152 -0.000394003 2.25384e-05
-0.000394003 -0.00165766 -3.74353e-05
2.25384e-05 -3.74353e-05 -0.000507127
0.000890089 -3.97833e-05 -3.7604e-07
-3.97833e-05 0.000104138 2.06443e-06
-3.7604e-07 2.06443e-06 2.89478e-05
0.000806977 9.31899e-06 1.86309e-07
9.31899e-06 5.83818e-05 4.67846e-08
1.86309e-07 4.67846e-08 -3.04701e-05
0.000802957 9.13229e-07 -5.40814e-07
9.13229e-07 7.2327e-05 -1.30722e-06
-5.40814e-07 -1.30722e-06 -2.73419e-05
0.000851219 2.47827e-05 -5.93521e-08
2.47827e-05 8.83239e-05 -1.45352e-06
-5.93521e-08 -1.45352e-06 5.91164e-08
0.00145376 -0.000279246 1.77056e-07
-0.000279246 0.000202635 1.75329e-05
1.77056e-07 1.75329e-05 0.000151198
0.000238897 -1.73589e-05 1.64367e-06
-1.73589e-05 3.99126e-05 -1.14165e-05
1.64367e-06 -1.14165e-05 -5.85324e-05
0.000771669 -2.36418e-05 -2.9808e-07
-2.36418e-05 2.30704e-05 -2.0961e-06
-2.9808e-07 -2.0961e-06 -5.91399e-05
0.000964284 7.33393e-05 -1.04233e-06
7.33393e-05 0.000159984 -2.0107e-06
-1.04233e-06 -2.0107e-06 7.03325e-05
0.00138632 -1.20023e-05 6.28951e-06
-1.20023e-05 0.000399266 -1.17173e-05
6.28951e-06 -1.17173e-05 0.000316764
0.000839063 1.91277e-06 -5.85101e-07
1.91277e-06 7.55892e-05 -4.60994e-08
-5.85101e-07 -4.60994e-08 -1.54369e-06
0.000718627 1.39813e-06 -9.24873e-08
1.39813e-06 3.77503e-05 -7.73889e-07
-9.24873e-08 -7.73889e-07 -2.84006e-05
-0.000662399 -3.14689e-05 -1.48338e-05
-3.14689e-05 -0.000340222 -9.73032e-06
-1.48338e-05 -9.73032e-06 -0.000665561
0.000864658 -2.4278e-05 2.37967e-06
-2.4278e-05 0.000349127 1.27149e-06
2.37967e-06 1.27149e-06 0.000316497
0.000732332 -5.29e-06 3.53093e-06
-5.29e-06 4.95604e-05 8.92829e-07
3.53093e-06 8.92829e-07 -1.91641e-05
0.000817948 7.95668e-06 -1.24807e-05
7.95668e-06 0.000903581 -5.08484e-05
-1.24807e-05 -5.08484e-05 1.1603e-05
0.00183408 -1.11426e-05 1.5177e-06
-1.11426e-05 0.000822861 1.44651e-05
1.5177e-06 1.44651e-05 0.000757333
0.00143833 -1.23474e-05 1.49286e-05
-1.23474e-05 0.000253679 5.21061e-07
1.49286e-05 5.21061e-07 0.000136706
0.00105795 -7.67629e-06 -2.74968e-07
-7.67629e-06 5.51986e-05 -1.05687e-07
-2.74968e-07 -1.05687e-07 -1.23646e-06
0.000856354 -5.7378e-06 2.81611e-06
-5.7378e-06 -3.09544e-05 -1.54851e-06
2.81611e-06 -1.54851e-06 -0.000117282
0.000539011 5.95209e-05 8.45768e-06
5.95209e-05 0.000243932 8.4275e-06
8.45768e-06 8.4275e-06 0.000164425
0.00150855 0.000188232 -5.44304e-05
0.000188232 2.85722e-05 1.92096e-05
-5.44304e-05 1.92096e-05 4.22884e-05
0.00107259 -5.78866e-06 4.87696e-06
-5.78866e-06 1.7247e-05 3.98476e-06
4.87696e-06 3.98476e-06 -8.67349e-05
0.00332715 -0.000243947 0.000118618
-0.000243947 0.00182759 -0.000120821
0.000118618 -0.000120821 -0.000809205
0.00533767 0.000594181 -3.45865e-05
0.000594181 0.00233893 2.48539e-05
-3.45865e-05 2.48539e-05 0.00155822
0.00226363 1.2794e-05 -1.25351e-05
1.2794e-05 0.000593367 3.94682e-05
-1.25351e-05 3.94682e-05 0.000132518
0.00328867 0.000552817 -2.76384e-05
0.000552817 -0.000393117 1.07945e-05
-2.76384e-05 1.07945e-05 0.000532581
-0.000478893 -1.36125e-05 1.63995e-05
-1.36125e-05 -2.91223e-05 -3.6939e-08
1.63995e-05 -3.6939e-08 -0.000290198
0.00130649 1.46973e-05 4.76355e-06
1.46973e-05 0.000142507 -8.12438e-07
4.76355e-06 -8.12438e-07 -1.57894e-05
0.00237793 9.87347e-06 2.18618e-05
9.87347e-06 0.000315192 -3.15611e-06
2.18618e-05 -3.15611e-06 -0.000309595
0.00142056 -9.26277e-05 -1.38977e-05
-9.26277e-05 -0.000575489 2.57461e-05
-1.38977e-05 2.57461e-05 -0.000270605
-0.000747436 0.000747711 1.59561e-05
0.000747711 -0.00112402 -4.49173e-06
1.59561e-05 -4.49173e-06 0.000242207
0.00524798 0.000589751 -3.95931e-06
0.000589751 0.000649285 2.0826e-05
-3.95931e-06 2.0826e-05 0.000853477
0.000170399 -0.000370252 4.76384e-05
-0.000370252 1.15219e-06 -2.82723e-05
4.76384e-05 -2.82723e-05 -0.00284686
0.000889144 -3.7675e-05 4.58194e-05
-3.7675e-05 0.000364824 -8.95181e-06
4.58194e-05 -8.95181e-06 0.000316797
0.00109917 -4.36579e-07 4.71613e-05
-4.36579e-07 -0.000116724 -2.01378e-05
4.71613e-05 -2.01378e-05 -0.000530367
-0.00130484 0.00024682 -3.40917e-05
0.00024682 -0.00026566 -1.58804e-05
-3.40917e-05 -1.58804e-05 -0.000430255
0.000180851 0.000570158 -7.93397e-06
0.000570158 -0.000261907 4.9006e-05
-7.93397e-06 4.9006e-05 8.19461e-05
0.00742789 0.000195251 2.07996e-05
0.000195251 0.00312245 -3.39273e-05
2.07996e-05 -3.39273e-05 0.000871315
0.00281944 -0.000310607 -6.77778e-05
-0.000310607 0.000210605 7.90208e-05
-6.77778e-05 7.90208e-05 -8.12258e-05
-0.000127009 -2.1773e-05 -3.9267e-06
-2.1773e-05 -0.000145665 9.72979e-06
-3.9267e-06 9.72979e-06 -0.00024368
0.000190809 -5.10374e-05 1.30114e-07
-5.10374e-05 0.000120982 -4.45453e-07
1.30114e-07 -4.45453e-07 -4.25351e-05
0.00102396 -0.000162708 1.88656e-05
-0.000162708 0.000339082 -8.44022e-06
1.88656e-05 -8.44022e-06 0.000211887
0.000714319 2.33151e-05 -4.37953e-06
2.33151e-05 0.000164531 3.35222e-06
-4.37953e-06 3.35222e-06 7.59786e-05
-7.06506e-05 -7.5137e-05 1.00628e-06
-7.5137e-05 -0.000167685 -2.61879e-06
1.00628e-06 -2.61879e-06 -0.000392514
0.00144914 -0.00022008 1.48656e-05
-0.00022008 0.000363123 -7.40474e-08
1.48656e-05 -7.40474e-08 0.000143443
0.0021267 -0.000223576 -4.22845e-06
-0.000223576 0.0008223 1.36555e-06
-4.22845e-06 1.36555e-06 0.000643802
0.00149318 -0.000193016 1.08788e-06
-0.000193016 0.000478904 1.13111e-06
1.08788e-06 1.13111e-06 0.000218295
0.000900431 -0.000199204 3.1567e-06
-0.000199204 -2.33271e-05 -3.53252e-06
3.1567e-06 -3.53252e-06 -0.000259817
0.00110781 -0.000156602 -3.49145e-06
-0.000156602 0.000230223 2.29936e-07
-3.49145e-06 2.29936e-07 3.08805e-05
0.00180307 -0.000230245 1.33717e-06
-0.000230245 0.000507712 1.07669e-07
1.33717e-06 1.07669e-07 0.000274723
0.00126213 -0.0002167 1.43422e-06
-0.0002167 6.06567e-05 -3.91043e-06
1.43422e-06 -3.91043e-06 -0.000150887
0.00163143 -0.000224206 7.42752e-07
-0.000224206 0.000190538 -2.17475e-06
7.42752e-07 -2.17475e-06 2.22843e-05
0.00208848 -0.00023989 -4.6437e-06
-0.00023989 0.000615644 4.67211e-06
-4.6437e-06 4.67211e-06 0.000417312
0.00156659 -0.000218747 -1.27207e-06
-0.000218747 0.000288063 -2.4319e-07
-1.27207e-06 -2.4319e-07 7.81942e-05
0.000606469 -0.000122353 2.31877e-06
-0.000122353 -7.76303e-05 -2.32327e-07
2.31877e-06 -2.32327e-07 -0.000223385
0.00090983 -0.000143215 1.71463e-06
-0.000143215 8.02541e-05 -3.21308e-07
1.71463e-06 -3.21308e-07 -8.22263e-05
0.00124696 -0.000173797 -9.73519e-07
-0.000173797 0.000236219 -1.44444e-06
-9.73519e-07 -1.44444e-06 4.57217e-05
0.00105907 -0.000136267 1.01634e-06
-0.000136267 0.000212259 8.21304e-08
1.01634e-06 8.21304e-08 7.68389e-05
0.00112952 -0.000145451 -7.44981e-07
-0.000145451 0.000251592 -9.23316e-07
-7.44981e-07 -9.23316e-07 0.00010951
0.000793813 -0.000123649 2.42729e-06
-0.000123649 6.81991e-05 -2.01925e-06
2.42729e-06 -2.01925e-06 -7.05866e-05
0.000739673 1.40279e-05 1.1659e-06
1.40279e-05 4.15228e-05 1.21508e-06
1.1659e-06 1.21508e-06 -5.42949e-05
0.000780927 -4.89635e-05 3.67757e-09
-4.89635e-05 7.61155e-05 7.14235e-07
3.67757e-09 7.14235e-07 -3.66395e-05
0.00118515 -0.000122476 1.39406e-06
-0.000122476 0.000306047 -1.12468e-06
1.39406e-06 -1.12468e-06 0.000173584
0.000695226 6.8402e-05 1.0839e-07
6.8402e-05 9.42271e-06 2.00971e-06
1.0839e-07 2.00971e-06 -4.47618e-05
0.00077775 2.2631e-05 -2.95779e-07
2.2631e-05 5.53714e-05 -1.59173e-07
-2.95779e-07 -1.59173e-07 -2.37269e-05
0.000896109 -4.20512e-05 2.88777e-08
-4.20512e-05 0.000128844 -5.6314e-07
2.88777e-08 -5.6314e-07 3.049e-05
0.000650363 4.78599e-05 -2.44024e-06
4.78599e-05 -2.55397e-05 4.61685e-06
-2.44024e-06 4.61685e-06 -3.99951e-05
0.000716307 5.59103e-05 -1.44112e-07
5.59103e-05 1.03309e-05 -1.63608e-07
-1.44112e-07 -1.63608e-07 -3.40281e-05
0.000801897 4.78784e-06 2.30388e-07
4.78784e-06 5.63691e-05 -1.18539e-06
2.30388e-07 -1.18539e-06 -8.17733e-06
0.000736563 4.64375e-05 7.97077e-07
4.64375e-05 1.21526e-05 -1.60454e-06
7.97077e-07 -1.60454e-06 -2.73664e-05
0.000671851 4.36753e-05 2.5521e-08
4.36753e-05 -2.26639e-05 -9.01259e-09
2.5521e-08 -9.01259e-09 -3.45994e-05
0.00209355 6.19631e-05 -2.44353e-05
6.19631e-05 0.000776218 3.27304e-06
-2.44353e-05 3.27304e-06 0.00078951
0.000691119 3.86952e-05 1.186e-06
3.86952e-05 -2.06844e-05 -3.29391e-06
1.186e-06 -3.29391e-06 -3.04361e-05
0.00210431 5.45578e-05 1.54151e-06
5.45578e-05 0.000774753 1.02617e-07
1.54151e-06 1.02617e-07 0.000789827
0.00211801 4.68372e-05 1.92168e-05
4.68372e-05 0.00077569 -3.65386e-06
1.92168e-05 -3.65386e-06 0.000792307
0.000826775 8.82764e-06 2.37516e-08
8.82764e-06 7.24339e-05 -5.60135e-07
2.37516e-08 -5.60135e-07 -5.35854e-06
0.000809784 3.9084e-05 -1.03086e-06
3.9084e-05 5.73799e-05 -8.72243e-07
-1.03086e-06 -8.72243e-07 -1.23644e-05
0.000732523 -2.45499e-05 -7.67229e-07
-2.45499e-05 -1.85595e-06 -1.70483e-06
-7.67229e-07 -1.70483e-06 -4.37081e-05
0.000800098 3.05479e-05 -4.37642e-08
3.05479e-05 4.56898e-05 -1.8215e-08
-4.37642e-08 -1.8215e-08 -1.84694e-05
0.00067845 -3.15177e-05 -4.05966e-07
-3.15177e-05 -3.52589e-05 -3.63948e-06
-4.05966e-07 -3.63948e-06 -4.59186e-05
0.000741256 -1.76179e-05 -1.29481e-07
-1.76179e-05 2.05785e-06 -7.58659e-09
-1.29481e-07 -7.58659e-09 -3.78116e-05
0.000769418 2.11066e-05 -1.13528e-07
2.11066e-05 2.64293e-05 -4.51376e-08
-1.13528e-07 -4.51376e-08 -3.41677e-05
0.00221438 -3.86228e-05 -1.65659e-05
-3.86228e-05 0.000822004 -4.16543e-06
-1.65659e-05 -4.16543e-06 0.000839399
0.000689138 -2.51536e-05 -1.63756e-07
-2.51536e-05 -3.50096e-05 -1.1202e-08
-1.63756e-07 -1.1202e-08 -4.3095e-05
0.00073368 -1.45409e-05 -9.10503e-08
-1.45409e-05 -3.17504e-06 1.02663e-06
-9.10503e-08 1.02663e-06 -4.08978e-05
0.00214546 -2.85077e-05 -2.59403e-06
-2.85077e-05 0.000778357 7.50648e-08
-2.59403e-06 7.50648e-08 0.000797614
0.000695067 -1.8648e-05 2.72996e-07
-1.8648e-05 -3.6259e-05 3.44191e-06
2.72996e-07 3.44191e-06 -4.2029e-05
0.00209232 -1.82166e-05 8.05262e-06
-1.82166e-05 0.000744812 4.39908e-06
8.05262e-06 4.39908e-06 0.000765501
0.00120978 -3.42028e-05 1.27556e-05
-3.42028e-05 0.000130575 1.89594e-05
1.27556e-05 1.89594e-05 -5.68595e-05
0.00118737 -3.64844e-06 -3.39988e-06
-3.64844e-06 8.22564e-05 6.86624e-06
-3.39988e-06 6.86624e-06 -5.69132e-05
0.00132064 1.39025e-05 6.9945e-06
1.39025e-05 0.000156709 -1.1063e-05
6.9945e-06 -1.1063e-05 -1.56733e-05
0.000796413 1.1983e-06 -2.47933e-07
1.1983e-06 5.21797e-05 -6.59193e-08
-2.47933e-07 -6.59193e-08 -2.3715e-05
0.000817379 -2.01986e-05 -1.89577e-07
-2.01986e-05 6.65379e-05 2.45109e-07
-1.89577e-07 2.45109e-07 -1.13522e-05
0.000770541 -2.64845e-05 9.57386e-09
-2.64845e-05 4.31299e-05 -1.68351e-06
9.57386e-09 -1.68351e-06 -3.93743e-05
0.000711756 -3.47677e-05 -6.18677e-08
-3.47677e-05 7.49857e-06 -6.61278e-07
-6.18677e-08 -6.61278e-07 -6.92677e-05
0.000965729 4.74629e-05 -7.31104e-07
4.74629e-05 0.000159252 -2.68302e-07
-7.31104e-07 -2.68302e-07 7.06187e-05
0.000766248 -3.1686e-05 -6.27251e-08
-3.1686e-05 2.68142e-05 -2.47071e-07
-6.27251e-08 -2.47071e-07 -4.3567e-05
0.00076463 -1.20969e-05 4.48809e-07
-1.20969e-05 3.46972e-05 -9.90446e-07
4.48809e-07 -9.90446e-07 -4.5755e-05
0.000835941 1.04722e-05 -1.10203e-07
1.04722e-05 7.74608e-05 -4.76586e-08
-1.10203e-07 -4.76586e-08 -1.6725e-06
0.0008897 3.5343e-05 -4.50712e-08
3.5343e-05 0.000107011 1.86811e-07
-4.50712e-08 1.86811e-07 2.12608e-05
0.000952006 1.27346e-05 8.77477e-09
1.27346e-05 0.000152145 7.19482e-07
8.77477e-09 7.19482e-07 6.79612e-05
0.00184773 -1.53795e-05 6.39562e-05
-1.53795e-05 0.000308464 7.37396e-05
6.39562e-05 7.37396e-05 -0.000360779
0.00154653 1.34376e-05 3.90823e-06
1.34376e-05 0.00018934 1.74917e-05
3.90823e-06 1.74917e-05 -0.000413904
0.00216991 2.28979e-05 -5.21992e-06
2.28979e-05 0.000556161 -1.65021e-05
-5.21992e-06 -1.65021e-05 0.000210141
0.00525412 -0.000333082 -2.77752e-05
-0.000333082 0.000569056 -4.85822e-05
-2.77752e-05 -4.85822e-05 0.00168292
-0.00721563 0.000224133 -2.95399e-05
0.000224133 -0.0032432 3.47736e-05
-2.95399e-05 3.47736e-05 -0.0040348
0.00387637 -0.000623855 -5.59461e-05
-0.000623855 0.000826988 5.26515e-05
-5.59461e-05 5.26515e-05 9.48209e-05
0.00671362 -0.00014433 -5.99611e-06
-0.00014433 0.0021277 -4.72808e-05
-5.99611e-06 -4.72808e-05 0.000360331
0.00361796 -0.000282717 -4.03785e-05
-0.000282717 0.000468204 4.21067e-05
-4.03785e-05 4.21067e-05 0.000183757
0.00956969 -0.000208355 5.84342e-05
-0.000208355 0.00399228 -1.28392e-05
5.84342e-05 -1.28392e-05 0.0017299
0.000318313 -0.000267551 2.31681e-05
-0.000267551 -0.000828774 1.69716e-06
2.31681e-05 1.69716e-06 -0.00115023
0.00101434 -0.000449264 -3.04383e-05
-0.000449264 -0.00178508 -7.11e-05
-3.04383e-05 -7.11e-05 -0.000593365
0.00457098 1.51705e-05 -0.00010972
1.51705e-05 0.000916548 -1.9707e-05
-0.00010972 -1.9707e-05 0.000665263
0.00801498 -0.000239413 -1.81204e-05
-0.000239413 0.00271451 4.62067e-05
-1.81204e-05 4.62067e-05 0.00111683
0.0075741 -0.000918644 4.60888e-06
-0.000918644 0.00209064 -2.51131e-05
4.60888e-06 -2.51131e-05 0.00220393
0.00316643 -0.00070081 1.6638e-05
-0.00070081 0.000290684 1.04253e-06
1.6638e-05 1.04253e-06 0.00165063
0.000635086 1.9918e-05 2.59554e-06
1.9918e-05 7.9928e-06 1.65497e-06
2.59554e-06 1.65497e-06 -5.61905e-05
0.000919503 -3.40328e-05 -8.32805e-08
-3.40328e-05 0.000124929 6.15135e-07
-8.32805e-08 6.15135e-07 4.77957e-05
0.000809858 9.17308e-06 -1.31549e-07
9.17308e-06 5.76506e-05 -1.36256e-06
-1.31549e-07 -1.36256e-06 -2.96021e-05
0.000159093 6.57628e-06 -2.15496e-05
6.57628e-06 3.47049e-05 1.74687e-05
-2.15496e-05 1.74687e-05 -0.000319716
0.00113852 -6.48244e-05 -2.36022e-05
-6.48244e-05 0.00051106 -8.35576e-06
-2.36022e-05 -8.35576e-06 0.000488581
0.000768531 -1.54225e-05 -1.36979e-06
-1.54225e-05 3.82652e-05 -9.05493e-07
-1.36979e-06 -9.05493e-07 -4.07442e-05
0.000617996 -4.39693e-05 -5.96125e-07
-4.39693e-05 -1.71665e-05 -5.86019e-06
-5.96125e-07 -5.86019e-06 -8.06217e-05
0.000790913 5.06787e-07 -4.21533e-07
5.06787e-07 8.47305e-05 -1.46201e-06
-4.21533e-07 -1.46201e-06 1.45698e-05
0.000553672 -1.69271e-05 -1.25872e-06
-1.69271e-05 0.000141959 3.90008e-06
-1.25872e-06 3.90008e-06 7.57772e-05
0.00011693 -1.73641e-05 3.96863e-05
-1.73641e-05 0.000550787 -3.40327e-05
3.96863e-05 -3.40327e-05 -0.000317969
-0.000530016 -1.16488e-05 -5.27823e-06
-1.16488e-05 -0.000459157 8.26108e-06
-5.27823e-06 8.26108e-06 -0.000537584
0.00111329 0.000117261 -3.56947e-06
0.000117261 0.000521698 -3.14748e-05
-3.56947e-06 -3.14748e-05 1.95686e-05
0.00132669 -6.77095e-06 4.78279e-05
-6.77095e-06 4.82657e-05 6.63292e-06
4.78279e-05 6.63292e-06 -0.000341447
0.00113409 -9.53566e-06 7.01112e-06
-9.53566e-06 0.000100134 1.67561e-06
7.01112e-06 1.67561e-06 -2.48695e-06
0.000552517 -6.82968e-06 3.48747e-07
-6.82968e-06 -0.000206518 -3.49898e-07
3.48747e-07 -3.49898e-07 -0.000251248
-0.00152276 -4.00668e-05 -3.70455e-05
-4.00668e-05 -0.000472868 1.23752e-05
-3.70455e-05 1.23752e-05 -0.000805526
0.00239143 4.22751e-05 5.34243e-06
4.22751e-05 -0.00017858 -4.12142e-05
5.34243e-06 -4.12142e-05 -0.000263912
0.00135912 9.88097e-06 -4.8805e-06
9.88097e-06 0.000169055 1.05669e-05
-4.8805e-06 1.05669e-05 9.84313e-06
0.0121751 -0.000287852 9.1524e-05
-0.000287852 0.00516566 -8.65548e-06
9.1524e-05 -8.65548e-06 0.00281239
0.00464978 0.000664971 -4.48887e-05
0.000664971 0.00104665 4.81976e-06
-4.48887e-05 4.81976e-06 0.000987382
0.00251142 -5.04782e-06 -4.19773e-05
-5.04782e-06 0.000437842 4.92828e-05
-4.19773e-05 4.92828e-05 -0.000245251
-0.0037492 0.000801306 6.04126e-05
0.000801306 -0.00299507 -7.44776e-05
6.04126e-05 -7.44776e-05 -0.00127219
0.000504636 -3.22824e-05 -8.8412e-06
-3.22824e-05 0.000195189 -1.42647e-06
-8.8412e-06 -1.42647e-06 0.000116635
0.00144147 4.85059e-06 -8.05129e-06
4.85059e-06 8.88541e-05 2.48965e-06
-8.05129e-06 2.48965e-06 -0.000322834
-0.00165844 0.000282261 -7.63394e-05
0.000282261 -0.000297028 3.14904e-05
-7.63394e-05 3.14904e-05 -0.000376016
0.00194449 -0.000296678 -2.28958e-05
-0.000296678 -0.000191821 2.96721e-05
-2.28958e-05 2.96721e-05 -0.000375893
0.00589497 0.000933037 1.77524e-05
0.000933037 0.00198086 2.27889e-05
1.77524e-05 2.27889e-05 0.00235468
0.00709488 -0.000158076 5.03727e-05
-0.000158076 0.00258038 -2.90029e-05
5.03727e-05 -2.90029e-05 0.00055255
0.00169966 -0.000201524 1.9266e-05
-0.000201524 0.000303416 1.72952e-05
1.9266e-05 1.72952e-05 0.000460986
-0.00162594 4.07581e-05 3.75806e-05
4.07581e-05 4.97942e-05 -8.0064e-06
3.75806e-05 -8.0064e-06 -0.000548583
0.00268077 0.000647326 -5.15747e-05
0.000647326 0.00135998 1.98826e-05
-5.15747e-05 1.98826e-05 0.00147418
0.00479439 0.000216661 -7.93695e-05
0.000216661 0.00161477 6.09954e-05
-7.93695e-05 6.09954e-05 -0.000446322
0.002604 -0.000576878 2.15843e-05
-0.000576878 0.000151437 5.2393e-06
2.15843e-05 5.2393e-06 -0.000428428
0.000877064 -4.96467e-07 8.17439e-06
-4.96467e-07 0.000486401 1.03246e-05
8.17439e-06 1.03246e-05 0.000336783
0.000571888 -0.000143394 -1.47361e-06
-0.000143394 0.000122032 2.5173e-07
-1.47361e-06 2.5173e-07 -2.72674e-05
0.00253203 -0.000268484 1.89983e-05
-0.000268484 0.000727321 1.68749e-06
1.89983e-05 1.68749e-06 0.000696487
-0.00115446 -1.28989e-05 -4.60001e-06
-1.28989e-05 -0.000714017 5.86952e-06
-4.60001e-06 5.86952e-06 -0.000944653
0.000715718 -0.000166834 4.32355e-06
-0.000166834 1.46837e-05 -6.53919e-07
4.32355e-06 -6.53919e-07 -0.000207768
0.000799009 -0.000228463 3.15048e-06
-0.000228463 -0.000242823 -1.29689e-06
3.15048e-06 -1.29689e-06 -0.000406737
0.00190139 -0.000214663 -5.20199e-06
-0.000214663 0.000670354 1.42774e-06
-5.20199e-06 1.42774e-06 0.000417848
0.00120879 -0.000214709 -2.38744e-06
-0.000214709 0.000131922 -2.23632e-06
-2.38744e-06 -2.23632e-06 -9.56019e-05
0.00160948 -0.000264407 4.84117e-06
-0.000264407 0.000131057 -1.50342e-06
4.84117e-06 -1.50342e-06 -2.72767e-05
0.00176769 -0.000226203 -2.29735e-06
-0.000226203 0.000481625 -8.47109e-07
-2.29735e-06 -8.47109e-07 0.000248982
0.00150612 -0.000228691 -4.81259e-07
-0.000228691 0.000185265 -2.01427e-06
-4.81259e-07 -2.01427e-06 -2.09293e-05
0.00153507 -0.000222587 5.86181e-07
-0.000222587 4.86301e-05 -2.6104e-06
5.86181e-07 -2.6104e-06 -9.89322e-05
0.00164009 -0.000193869 5.94549e-07
-0.000193869 0.000122853 -1.60459e-06
5.94549e-07 -1.60459e-06 -1.44996e-05
0.00157233 -0.000211811 -5.42964e-08
-0.000211811 0.000238068 -1.18291e-06
-5.42964e-08 -1.18291e-06 5.21292e-05
0.00149084 -0.000214054 1.4792e-06
-0.000214054 0.000120253 3.35131e-08
1.4792e-06 3.35131e-08 -4.65948e-05
0.00146091 -0.000189093 -1.64588e-06
-0.000189093 0.000311297 4.08294e-06
-1.64588e-06 4.08294e-06 0.000138015
0.00140912 -0.000197848 4.59532e-08
-0.000197848 0.000254859 4.32345e-07
4.59532e-08 4.32345e-07 5.46502e-05
0.00135536 -0.00020624 -4.68735e-07
-0.00020624 0.00017265 -1.55752e-06
-4.68735e-07 -1.55752e-06 -4.13718e-05
0.00096034 -0.000138946 1.03026e-06
-0.000138946 0.000119636 -1.25816e-06
1.03026e-06 -1.25816e-06 -1.7266e-05
0.000693985 -0.000126683 -2.23243e-07
-0.000126683 -2.69389e-05 -1.62283e-06
-2.23243e-07 -1.62283e-06 -0.000169309
0.00118476 -0.000160241 3.97717e-06
-0.000160241 0.000228765 -4.24204e-06
3.97717e-06 -4.24204e-06 7.09228e-05
0.000840057 -7.36387e-05 3.54888e-07
-7.36387e-05 8.4407e-05 1.13717e-06
3.54888e-07 1.13717e-06 -2.777e-05
0.000915171 -0.00011762 3.64019e-07
-0.00011762 0.000134183 4.88458e-07
3.64019e-07 4.88458e-07 1.63852e-06
0.000911563 -0.00012958 -6.51024e-07
-0.00012958 0.000134702 8.91736e-07
-6.51024e-07 8.91736e-07 -6.94347e-06
0.000690086 8.20295e-05 1.20805e-06
8.20295e-05 1.49651e-05 2.88845e-06
1.20805e-06 2.88845e-06 -5.47564e-05
0.000817712 -7.79978e-06 6.58189e-08
-7.79978e-06 8.599e-05 -1.06142e-07
6.58189e-08 -1.06142e-07 -1.27373e-05
0.000863612 -6.38428e-05 -9.87304e-07
-6.38428e-05 0.000122601 1.18605e-07
-9.87304e-07 1.18605e-07 1.03474e-05
0.00130195 6.58978e-05 -1.36836e-05
6.58978e-05 0.000348705 2.96103e-06
-1.36836e-05 2.96103e-06 0.000332908
0.000696812 5.33064e-05 -2.73612e-07
5.33064e-05 7.20202e-06 -3.44274e-07
-2.73612e-07 -3.44274e-07 -4.52802e-05
0.000796462 -9.45495e-06 2.03573e-07
-9.45495e-06 6.65875e-05 -1.34825e-06
2.03573e-07 -1.34825e-06 -1.42428e-05
0.00080134 3.87963e-05 -2.32808e-05
3.87963e-05 6.49842e-05 3.23223e-06
-2.32808e-05 3.23223e-06 7.05639e-05
0.00101324 5.58656e-05 -6.39094e-06
5.58656e-05 0.000177031 2.79372e-07
-6.39094e-06 2.79372e-07 0.000163647
0.000717595 5.63616e-05 1.46153e-08
5.63616e-05 1.15296e-05 -1.92297e-06
1.46153e-08 -1.92297e-06 -3.31039e-05
0.00069305 4.49869e-05 1.23457e-06
4.49869e-05 -1.10459e-05 -3.30099e-06
1.23457e-06 -3.30099e-06 -2.31179e-05
0.00211749 6.28821e-05 1.27948e-06
6.28821e-05 0.000790626 1.06749e-07
1.27948e-06 1.06749e-07 0.000803598
0.00211831 5.52933e-05 2.24795e-05
5.52933e-05 0.000783616 -3.40166e-06
2.24795e-05 -3.40166e-06 0.000798455
0.000753415 -1.7463e-05 2.71746e-07
-1.7463e-05 3.04576e-05 -1.11667e-06
2.71746e-07 -1.11667e-06 -4.91637e-05
0.000809227 1.95018e-05 -4.86836e-07
1.95018e-05 5.73218e-05 -1.38383e-06
-4.86836e-07 -1.38383e-06 -1.34485e-05
0.000804596 -1.75694e-05 1.09019e-07
-1.75694e-05 5.81953e-05 -5.63539e-08
1.09019e-07 -5.63539e-08 -1.82344e-05
0.000733887 -3.61674e-05 -8.41059e-07
-3.61674e-05 3.19736e-06 -1.97438e-06
-8.41059e-07 -1.97438e-06 -4.09131e-05
0.000804467 8.01224e-06 6.99755e-07
8.01224e-06 4.99034e-05 -6.58448e-08
6.99755e-07 -6.58448e-08 -1.61692e-05
0.000667254 -3.70961e-05 -6.00368e-07
-3.70961e-05 -3.53529e-05 -3.78008e-06
-6.00368e-07 -3.78008e-06 -4.84061e-05
0.000737128 -2.12831e-05 -1.6486e-07
-2.12831e-05 1.38389e-06 9.24283e-09
-1.6486e-07 9.24283e-09 -4.05559e-05
0.000818904 4.58243e-05 1.07968e-06
4.58243e-05 6.32723e-05 5.62537e-07
1.07968e-06 5.62537e-07 -5.76775e-06
0.00227111 -4.76474e-05 -2.10435e-05
-4.76474e-05 0.000859145 -4.00518e-06
-2.10435e-05 -4.00518e-06 0.000874741
0.000677361 -3.0956e-05 -2.90073e-07
-3.0956e-05 -3.592e-05 -2.09442e-09
-2.90073e-07 -2.09442e-09 -4.64964e-05
0.000753535 -1.81503e-05 3.08488e-07
-1.81503e-05 9.40856e-06 1.70639e-06
3.08488e-07 1.70639e-06 -3.06239e-05
0.00219727 -3.79748e-05 -2.39963e-06
-3.79748e-05 0.00081187 9.63734e-08
-2.39963e-06 9.63734e-08 0.000829509
0.000686097 -2.46788e-05 2.96202e-07
-2.46788e-05 -3.67671e-05 3.51053e-06
2.96202e-07 3.51053e-06 -4.47639e-05
0.00213084 -2.77369e-05 1.17538e-05
-2.77369e-05 0.000769654 4.31052e-06
1.17538e-05 4.31052e-06 0.000789139
0.00200062 -4.73388e-05 4.9567e-05
-4.73388e-05 0.000419947 2.74854e-05
4.9567e-05 2.74854e-05 6.90044e-05
0.00123518 -3.02265e-05 5.17746e-07
-3.02265e-05 0.000135446 6.03831e-06
5.17746e-07 6.03831e-06 -4.37123e-05
0.00103632 -6.06188e-06 -3.68459e-06
-6.06188e-06 1.33168e-05 -4.67758e-06
-3.68459e-06 -4.67758e-06 -0.0001082
0.000890234 4.99774e-05 -1.11689e-06
4.99774e-05 0.000120453 -4.93656e-07
-1.11689e-06 -4.93656e-07 2.8875e-05
0.000865676 -1.82138e-06 1.22524e-07
-1.82138e-06 8.98743e-05 1.13766e-07
1.22524e-07 1.13766e-07 1.46569e-05
0.000790778 -3.00972e-05 3.21078e-08
-3.00972e-05 5.18486e-05 5.00037e-07
3.21078e-08 5.00037e-07 -2.65738e-05
0.000849363 -2.52849e-05 1.0276e-07
-2.52849e-05 8.07137e-05 -1.30532e-07
1.0276e-07 -1.30532e-07 5.16084e-06
0.000871005 2.96743e-06 1.65054e-07
2.96743e-06 9.8861e-05 -3.62763e-07
1.65054e-07 -3.62763e-07 1.5179e-05
0.000859935 2.99273e-05 1.61771e-07
2.99273e-05 9.92026e-05 6.43102e-07
1.61771e-07 6.43102e-07 1.18507e-05
0.000882268 2.09222e-05 -2.59422e-07
2.09222e-05 0.000112252 -1.72862e-06
-2.59422e-07 -1.72862e-06 2.02005e-05
0.000640553 -2.5142e-05 3.97583e-07
-2.5142e-05 -2.34458e-05 -2.10861e-07
3.97583e-07 -2.10861e-07 -0.000106423
0.000827685 5.55694e-05 2.46501e-07
5.55694e-05 7.61013e-05 -4.95645e-07
2.46501e-07 -4.95645e-07 -5.11157e-06
0.000845014 -4.86193e-05 6.5356e-07
-4.86193e-05 7.21777e-05 -9.77212e-07
6.5356e-07 -9.77212e-07 -6.27805e-06
0.000857412 4.29424e-06 -1.7422e-07
4.29424e-06 9.75163e-05 1.28802e-07
-1.7422e-07 1.28802e-07 1.58173e-05
0.00136229 1.99826e-05 4.15267e-06
1.99826e-05 0.000394643 1.61858e-06
4.15267e-06 1.61858e-06 0.000313735
0.00130204 -0.000353247 5.84255e-05
-0.000353247 0.000857748 5.22846e-05
5.84255e-05 5.22846e-05 0.000853737
0.00210309 -8.01212e-06 3.3388e-06
-8.01212e-06 0.000444034 1.5517e-05
3.3388e-06 1.5517e-05 -0.000250048
0.00170029 2.02858e-05 -1.24131e-05
2.02858e-05 0.000202279 -3.00051e-05
-1.24131e-05 -3.00051e-05 -0.000407349
0.0045123 -0.00057038 -6.96015e-05
-0.00057038 5.85454e-05 -5.83889e-05
-6.96015e-05 -5.83889e-05 0.00135017
0.00404902 -0.000228616 -1.19684e-05
-0.000228616 0.00049273 6.72228e-06
-1.19684e-05 6.72228e-06 0.000119874
0.000872376 -0.000332238 -9.22328e-05
-0.000332238 -0.000366606 6.03096e-05
-9.22328e-05 6.03096e-05 -0.00215651
0.00293956 -0.000220038 -4.67106e-05
-0.000220038 0.000324103 9.06655e-05
-4.67106e-05 9.06655e-05 -9.62332e-05
0.00410585 -0.000204271 -5.92874e-06
-0.000204271 0.000731071 3.35749e-05
-5.92874e-06 3.35749e-05 0.000622169
-0.000438882 -0.000702823 3.66016e-06
-0.000702823 -0.00133342 1.45797e-05
3.66016e-06 1.45797e-05 0.00016201
0.00511154 9.7203e-05 6.93097e-06
9.7203e-05 0.00206858 2.08985e-05
6.93097e-06 2.08985e-05 -0.000249088
0.00111585 -0.000453245 -3.8052e-06
-0.000453245 -0.00110925 1.24204e-05
-3.8052e-06 1.24204e-05 -0.000812889
0.00241616 0.000181298 -4.43628e-05
0.000181298 7.36441e-05 -1.57779e-05
-4.43628e-05 -1.57779e-05 -0.00012665
0.00901657 -0.000422748 -3.53535e-05
-0.000422748 0.00387858 3.85403e-05
-3.53535e-05 3.85403e-05 0.00194952
-0.000127294 -0.000517505 -5.14484e-05
-0.000517505 -0.000402931 -4.00894e-05
-5.14484e-05 -4.00894e-05 2.05843e-05
0.000587239 0.000146995 7.66124e-07
0.000146995 -3.22828e-05 -2.50497e-06
7.66124e-07 -2.50497e-06 -9.70226e-05
0.00094474 2.87936e-05 4.1903e-06
2.87936e-05 0.000168812 -5.26268e-08
4.1903e-06 -5.26268e-08 0.000106086
0.000945494 -1.66176e-05 -9.56472e-07
-1.66176e-05 0.000142974 -5.75127e-07
-9.56472e-07 -5.75127e-07 6.47437e-05
-0.000944598 -1.16699e-05 -4.31217e-05
-1.16699e-05 -0.000116886 -1.2839e-05
-4.31217e-05 -1.2839e-05 -0.000934515
-0.000879372 3.28301e-05 4.02204e-06
3.28301e-05 -0.000633352 -6.89972e-06
4.02204e-06 -6.89972e-06 -0.000703979
0.000813795 3.32716e-05 -4.19728e-07
3.32716e-05 9.96715e-05 -2.47438e-06
-4.19728e-07 -2.47438e-06 2.76968e-05
0.000803056 8.37043e-05 2.88724e-06
8.37043e-05 0.000203883 1.82997e-06
2.88724e-06 1.82997e-06 0.000118147
0.000699719 0.00015367 3.25299e-06
0.00015367 0.000227414 -2.09718e-05
3.25299e-06 -2.09718e-05 -0.000165761
0.00043582 0.000214464 1.72044e-05
0.000214464 -0.000132917 5.07394e-06
1.72044e-05 5.07394e-06 -0.000290988
0.000260673 -6.04965e-06 8.75997e-05
-6.04965e-06 0.0011157 4.30443e-07
8.75997e-05 4.30443e-07 0.000525405
0.00140766 -2.00177e-05 -5.02565e-06
-2.00177e-05 0.000152754 5.82829e-06
-5.02565e-06 5.82829e-06 -0.000168692
0.000859856 -7.08291e-06 -1.87425e-06
-7.08291e-06 -3.05454e-05 1.11844e-06
-1.87425e-06 1.11844e-06 -0.000120015
0.000894409 -4.6767e-05 -1.77135e-05
-4.6767e-05 0.000402438 5.65651e-06
-1.77135e-05 5.65651e-06 0.000324365
0.00105847 -0.000221562 5.13363e-06
-0.000221562 -0.000795708 -2.40007e-05
5.13363e-06 -2.40007e-05 -0.000783844
0.00160508 7.6723e-06 -6.24722e-05
7.6723e-06 0.000202159 1.62599e-05
-6.24722e-05 1.62599e-05 -0.000212112
-0.000414973 -0.000277192 2.64512e-05
-0.000277192 -0.000843633 -3.3786e-05
2.64512e-05 -3.3786e-05 -0.00284639
-0.00258584 0.000468873 4.77632e-06
0.000468873 -0.00230864 -2.47752e-05
4.77632e-06 -2.47752e-05 -0.00181774
0.00165678 0.000389855 -7.30186e-05
0.000389855 0.00112686 5.29979e-05
-7.30186e-05 5.29979e-05 0.00137209
0.0017379 -0.000128948 -5.14554e-06
-0.000128948 0.000199835 3.2959e-06
-5.14554e-06 3.2959e-06 0.00047406
0.00135664 0.000148776 2.22513e-06
0.000148776 0.00143455 5.62521e-06
2.22513e-06 5.62521e-06 0.00116701
-0.00418849 0.000258701 2.15674e-05
0.000258701 -0.00149763 4.49293e-07
2.15674e-05 4.49293e-07 -0.00187033
0.00415208 -0.000620833 1.2256e-07
-0.000620833 0.00111586 2.65959e-06
1.2256e-07 2.65959e-06 0.000186527
0.00791613 0.000276022 1.09329e-05
0.000276022 0.00299723 -1.84442e-06
1.09329e-05 -1.84442e-06 0.00133816
0.000481823 -0.000200549 1.00246e-06
-0.000200549 -0.000355014 1.50254e-05
1.00246e-06 1.50254e-05 -0.000274727
-0.00605138 0.000143045 -6.06519e-05
0.000143045 -0.00306716 2.57418e-06
-6.06519e-05 2.57418e-06 -0.00319338
0.00668673 0.000223627 -5.61138e-06
0.000223627 0.00234347 5.95417e-06
-5.61138e-06 5.95417e-06 0.000902535
0.0054571 -0.000551825 -2.92959e-07
-0.000551825 0.000949664 1.81365e-05
-2.92959e-07 1.81365e-05 8.41977e-05
0.000130552 -0.000112577 -1.6358e-05
-0.000112577 -7.56242e-05 1.06226e-05
-1.6358e-05 1.06226e-05 -0.000258748
0.00121116 -0.000197774 -1.06307e-06
-0.000197774 4.27501e-05 5.75468e-07
-1.06307e-06 5.75468e-07 5.75099e-05
0.00205397 -0.000233597 1.22414e-05
-0.000233597 0.000222074 -2.10959e-06
1.22414e-05 -2.10959e-06 0.0002704
8.60805e-05 -0.000119843 -5.21183e-06
-0.000119843 -0.000279125 -6.82632e-07
-5.21183e-06 -6.82632e-07 -0.000507238
0.0012259 -0.000251472 -3.96809e-06
-0.000251472 -1.87643e-05 -1.44858e-06
-3.96809e-06 -1.44858e-06 -0.000185846
0.00192537 -0.000296314 1.99479e-06
-0.000296314 0.000160454 3.46635e-07
1.99479e-06 3.46635e-07 4.82544e-05
0.00159054 -0.000235053 -5.02641e-06
-0.000235053 0.000328784 -1.94935e-06
-5.02641e-06 -1.94935e-06 0.000107912
0.00155516 -0.000258257 2.31433e-06
-0.000258257 0.000114504 4.07874e-07
2.31433e-06 4.07874e-07 -4.68962e-05
0.0019793 -0.000241571 1.92677e-07
-0.000241571 0.000210779 -3.67142e-06
1.92677e-07 -3.67142e-06 9.03484e-05
0.00169908 -0.000238129 -3.59878e-06
-0.000238129 0.000282396 2.4406e-07
-3.59878e-06 2.4406e-07 8.08411e-05
0.00163634 -0.000226536 4.44071e-08
-0.000226536 0.000101451 7.99083e-07
4.44071e-08 7.99083e-07 -4.61814e-05
0.00173931 -0.000188143 4.41836e-07
-0.000188143 0.000113501 -3.3415e-06
4.41836e-07 -3.3415e-06 -6.2754e-07
0.00166112 -0.00016284 -3.04085e-07
-0.00016284 0.000107255 -1.93241e-06
-3.04085e-07 -1.93241e-06 -1.16482e-05
0.00187289 -0.0002058 -3.12381e-07
-0.0002058 0.000301355 -1.73092e-06
-3.12381e-07 -1.73092e-06 0.000145498
0.00156016 -0.000188166 -8.82462e-08
-0.000188166 8.23315e-05 5.95474e-07
-8.82462e-08 5.95474e-07 -5.45836e-05
0.000937608 -0.000164173 -2.29838e-06
-0.000164173 -5.60165e-05 1.26443e-06
-2.29838e-06 1.26443e-06 -0.000230208
0.00158085 -0.000208752 2.12213e-06
-0.000208752 0.00024294 -9.89901e-07
2.12213e-06 -9.89901e-07 6.0237e-05
0.00134925 -0.000204031 1.93759e-06
-0.000204031 4.9033e-05 2.14163e-06
1.93759e-06 2.14163e-06 -0.000116411
0.0010808 -0.000155388 1.19296e-07
-0.000155388 0.000139178 1.58061e-06
1.19296e-07 1.58061e-06 -9.56617e-06
0.00101585 -0.000160367 1.35503e-06
-0.000160367 7.65881e-05 -7.13585e-07
1.35503e-06 -7.13585e-07 -9.41742e-05
0.000704433 -0.000153923 -1.76615e-07
-0.000153923 -0.000119821 -2.72736e-06
-1.76615e-07 -2.72736e-06 -0.000321908
0.000937093 -0.000121235 -1.52616e-06
-0.000121235 0.000106139 1.56827e-07
-1.52616e-06 1.56827e-07 -1.31327e-05
0.00105438 -0.000144437 -8.66144e-08
-0.000144437 0.000167369 -7.0204e-07
-8.66144e-08 -7.0204e-07 3.00059e-05
0.000777975 -0.000130766 -9.80221e-07
-0.000130766 2.18441e-05 -3.26198e-06
-9.80221e-07 -3.26198e-06 -0.00011753
0.000762992 1.99688e-06 2.91372e-07
1.99688e-06 4.44436e-05 3.17606e-06
2.91372e-07 3.17606e-06 -3.64141e-05
0.000923258 -7.34783e-05 1.00217e-06
-7.34783e-05 0.000128256 4.34006e-07
1.00217e-06 4.34006e-07 1.59653e-05
0.000776276 -9.52459e-05 -4.47793e-07
-9.52459e-05 5.88192e-05 1.17429e-06
-4.47793e-07 1.17429e-06 -7.10415e-05
0.000562334 6.29152e-05 -4.82986e-07
6.29152e-05 -5.3154e-05 4.48186e-06
-4.82986e-07 4.48186e-06 -8.00858e-05
0.000706296 2.30303e-05 -6.82705e-07
2.30303e-05 1.54067e-05 -4.0284e-07
-6.82705e-07 -4.0284e-07 -5.03916e-05
0.000891383 -3.17796e-05 -1.36498e-07
-3.17796e-05 0.000127351 -1.62871e-06
-1.36498e-07 -1.62871e-06 2.62206e-05
0.00219526 8.6786e-05 -9.5378e-06
8.6786e-05 0.000852509 1.23519e-06
-9.5378e-06 1.23519e-06 0.000858576
0.000653923 5.69755e-05 -3.6461e-08
5.69755e-05 -1.17175e-05 -9.65719e-08
-3.6461e-08 -9.65719e-08 -3.19884e-05
0.000696751 3.6595e-05 1.16877e-06
3.6595e-05 4.99301e-06 -2.26303e-06
1.16877e-06 -2.26303e-06 -4.64578e-05
0.00214065 7.02894e-05 1.32561e-06
7.02894e-05 0.000811928 1.0583e-07
1.32561e-06 1.0583e-07 0.000822759
0.00069567 5.1864e-05 1.0979e-06
5.1864e-05 3.70347e-07 -3.5005e-06
1.0979e-06 -3.5005e-06 -1.50883e-05
0.00214072 6.35607e-05 2.59038e-05
6.35607e-05 0.000804623 -3.1421e-06
2.59038e-05 -3.1421e-06 0.000817326
0.000892949 3.95878e-05 -3.39208e-07
3.95878e-05 0.000113479 -2.08928e-07
-3.39208e-07 -2.08928e-07 2.72489e-05
0.000790956 -5.55225e-06 3.74043e-09
-5.55225e-06 5.11544e-05 -2.73548e-07
3.74043e-09 -2.73548e-07 -2.91996e-05
0.000794189 5.20542e-06 -2.68998e-07
5.20542e-06 5.42458e-05 -1.70197e-06
-2.68998e-07 -1.70197e-06 -2.22285e-05
0.000722047 -4.0691e-05 -7.79554e-07
-4.0691e-05 2.55377e-06 -2.32098e-06
-7.79554e-07 -2.32098e-06 -4.37066e-05
0.000775305 -7.93509e-06 8.39335e-07
-7.93509e-06 3.88545e-05 -7.51509e-08
8.39335e-07 -7.51509e-08 -3.13054e-05
0.000753089 -3.98974e-06 4.65962e-07
-3.98974e-06 3.2942e-05 7.06448e-07
4.65962e-07 7.06448e-07 -4.5967e-05
0.00066608 -4.22902e-05 -1.08001e-06
-4.22902e-05 -2.95281e-05 -3.92015e-06
-1.08001e-06 -3.92015e-06 -4.46185e-05
0.000731241 -2.88477e-05 -1.88003e-07
-2.88477e-05 1.37471e-06 1.37452e-08
-1.88003e-07 1.37452e-08 -4.23025e-05
0.000779092 -1.11348e-06 1.18004e-06
-1.11348e-06 3.54951e-05 7.91339e-07
1.18004e-06 7.91339e-07 -2.98367e-05
0.00231011 -5.6228e-05 -2.52255e-05
-5.6228e-05 0.000887096 -3.78248e-06
-2.52255e-05 -3.78248e-06 0.000900894
0.000663321 -3.62088e-05 -2.43885e-07
-3.62088e-05 -3.75976e-05 2.20921e-08
-2.43885e-07 2.20921e-08 -5.05476e-05
0.000742131 -1.95682e-05 8.26489e-07
-1.95682e-05 4.52675e-06 1.76873e-06
8.26489e-07 1.76873e-06 -3.74184e-05
0.00225443 -4.71811e-05 -2.53342e-06
-4.71811e-05 0.000849262 1.21436e-07
-2.53342e-06 1.21436e-07 0.000865061
0.000672343 -3.03574e-05 2.82198e-07
-3.03574e-05 -3.87088e-05 3.63351e-06
2.82198e-07 3.63351e-06 -4.92004e-05
0.00217946 -3.72103e-05 1.55e-05
-3.72103e-05 0.000801307 4.19525e-06
1.55e-05 4.19525e-06 0.000819207
-0.00249406 -0.000111531 3.42087e-05
-0.000111531 -0.000392521 1.98296e-05
3.42087e-05 1.98296e-05 -0.00109595
0.00194509 -5.48771e-05 2.14065e-06
-5.48771e-05 0.000412677 7.8628e-06
2.14065e-06 7.8628e-06 6.41105e-05
0.00125906 -2.63018e-05 -8.45659e-06
-2.63018e-05 0.000136717 -6.73153e-06
-8.45659e-06 -6.73153e-06 -3.3826e-05
0.000821436 1.38919e-05 -8.70914e-07
1.38919e-05 7.96339e-05 6.60249e-07
-8.70914e-07 6.60249e-07 -8.88496e-06
0.00110993 0.00012783 1.45093e-07
0.00012783 0.000251112 7.09429e-07
1.45093e-07 7.09429e-07 0.00014206
0.00085465 2.63723e-05 -5.5588e-07
2.63723e-05 0.000105952 -1.63031e-08
-5.5588e-07 -1.63031e-08 9.683e-06
0.000951126 -3.48995e-05 2.58861e-07
-3.48995e-05 0.000136649 -3.44517e-07
2.58861e-07 -3.44517e-07 6.09257e-05
0.000935597 3.45768e-05 7.31847e-07
3.45768e-05 0.00013198 4.98826e-07
7.31847e-07 4.98826e-07 4.94378e-05
0.000698083 -1.48785e-05 -5.94421e-07
-1.48785e-05 4.67405e-06 1.63567e-06
-5.94421e-07 1.63567e-06 -7.77904e-05
0.00073103 5.40566e-06 -7.64368e-07
5.40566e-06 3.02623e-05 -2.2017e-08
-7.64368e-07 -2.2017e-08 -5.74499e-05
0.000796186 8.10997e-06 2.22433e-07
8.10997e-06 6.41781e-05 -1.82363e-07
2.22433e-07 -1.82363e-07 -2.66663e-05
0.000987322 5.58904e-05 1.39915e-06
5.58904e-05 0.000191241 -1.94119e-06
1.39915e-06 -1.94119e-06 8.4292e-05
0.000904618 8.04495e-05 4.55223e-06
8.04495e-05 0.000102221 -5.17783e-06
4.55223e-06 -5.17783e-06 1.51473e-05
0.000837361 3.36681e-05 -2.46742e-07
3.36681e-05 8.80568e-05 -8.54939e-07
-2.46742e-07 -8.54939e-07 3.91092e-06
0.000969968 4.19818e-05 7.4264e-07
4.19818e-05 0.000182267 9.60339e-07
7.4264e-07 9.60339e-07 0.000100172
-0.00286872 -0.000374039 -5.89508e-05
-0.000374039 -0.00116573 1.58619e-05
-5.89508e-05 1.58619e-05 -0.00133728
-0.000781257 -0.000333725 3.74399e-05
-0.000333725 -7.3824e-06 1.37911e-05
3.74399e-05 1.37911e-05 -0.000175415
0.00231566 -1.47003e-05 -5.42619e-05
-1.47003e-05 0.000583303 -4.30464e-05
-5.42619e-05 -4.30464e-05 -0.000135169
-0.00399122 -0.000718121 4.67705e-05
-0.000718121 -0.00293571 6.71967e-05
4.67705e-05 6.71967e-05 -0.00128743
0.00572575 -0.000688438 -7.73959e-06
-0.000688438 0.00164089 -3.5712e-06
-7.73959e-06 -3.5712e-06 0.00174826
0.00282111 0.000407239 5.49756e-05
0.000407239 0.000731678 -1.08715e-05
5.49756e-05 -1.08715e-05 -0.00152031
0.00306794 -0.000240591 -0.000138251
-0.000240591 0.000373544 8.064e-05
-0.000138251 8.064e-05 -0.000188816
0.00324295 0.00014558 -2.78039e-05
0.00014558 0.000447607 6.09898e-06
-2.78039e-05 6.09898e-06 0.000152637
0.0048519 -0.000811486 -2.03285e-05
-0.000811486 0.00209084 2.44716e-05
-2.03285e-05 2.44716e-05 0.00227872
0.00185559 0.000121265 8.63748e-06
0.000121265 0.000437317 1.31019e-05
8.63748e-06 1.31019e-05 -0.00155711
0.00247801 0.000404309 -0.000110083
0.000404309 0.000599498 -7.56361e-05
-0.000110083 -7.56361e-05 -0.000149112
0.00188457 0.000470362 -0.000150393
0.000470362 0.000237971 -5.759e-05
-0.000150393 -5.759e-05 -0.00165514
0.00221779 0.000345595 1.09145e-05
0.000345595 0.000605599 -1.1878e-05
1.09145e-05 -1.1878e-05 0.000460916
0.000776968 0.000142545 -2.87792e-06
0.000142545 6.30464e-05 6.36137e-07
-2.87792e-06 6.36137e-07 4.54125e-07
0.00109169 2.69083e-05 -1.62093e-06
2.69083e-05 0.000242642 -2.72915e-06
-1.62093e-06 -2.72915e-06 0.000181025
0.000183274 0.000137815 -3.2068e-05
0.000137815 -2.79545e-05 -1.60931e-05
-3.2068e-05 -1.60931e-05 -0.000324508
0.00163689 0.000135543 -6.67258e-06
0.000135543 0.000611864 -6.40911e-06
-6.67258e-06 -6.40911e-06 0.000520381
0.00116532 0.000267413 8.12528e-06
0.000267413 0.000159478 -1.03716e-06
8.12528e-06 -1.03716e-06 1.4518e-05
0.00197578 0.000391143 6.05074e-05
0.000391143 7.3891e-05 3.22503e-05
6.05074e-05 3.22503e-05 3.76077e-05
-0.00353181 -5.03774e-05 -0.000113035
-5.03774e-05 -0.00178083 -5.87194e-06
-0.000113035 -5.87194e-06 -0.00151879
-0.000676231 -9.95655e-06 3.35371e-05
-9.95655e-06 0.000720022 6.212e-07
3.35371e-05 6.212e-07 8.80011e-05
0.00152819 -2.73485e-05 -4.45339e-05
-2.73485e-05 0.000263523 5.13626e-06
-4.45339e-05 5.13626e-06 1.20391e-05
0.00179155 -0.00017509 -3.83591e-05
-0.00017509 0.00020339 -2.05499e-05
-3.83591e-05 -2.05499e-05 0.000469505
0.00344146 -0.000639563 -6.08152e-05
-0.000639563 0.000533273 -1.44715e-07
-6.08152e-05 -1.44715e-07 -0.000187712
0.00145059 0.00011487 -3.89824e-05
0.00011487 0.00153952 1.99033e-05
-3.89824e-05 1.99033e-05 0.00125329
-0.00119704 -0.000123827 6.50638e-05
-0.000123827 -0.000955375 -6.30339e-05
6.50638e-05 -6.30339e-05 -0.00302616
0.0100256 0.00053425 -6.64786e-05
0.00053425 0.00501114 7.76621e-06
-6.64786e-05 7.76621e-06 0.00494897
0.00179625 -0.000324888 2.06035e-06
-0.000324888 0.000227455 1.7565e-06
2.06035e-06 1.7565e-06 0.000208528
-0.000789961 0.000275715 -8.72133e-07
0.000275715 -0.000277949 -4.72649e-06
-8.72133e-07 -4.72649e-06 -0.0004311
0.00241649 0.000142977 -1.62393e-05
0.000142977 0.000254012 2.03434e-05
-1.62393e-05 2.03434e-05 -0.00152589
0.00540221 -0.000568587 -3.06525e-05
-0.000568587 0.00136711 9.86433e-06
-3.06525e-05 9.86433e-06 0.000547568
-0.000749305 -0.000135325 8.60606e-06
-0.000135325 -0.000878724 -3.94833e-06
8.60606e-06 -3.94833e-06 -0.00108548
0.00818774 -0.000112126 6.04511e-05
-0.000112126 0.00253243 -3.42024e-06
6.04511e-05 -3.42024e-06 0.00161042
0.00429237 -0.000165009 1.65577e-05
-0.000165009 0.000934987 -1.38665e-05
1.65577e-05 -1.38665e-05 0.000382758
-0.000275072 -0.000121308 -1.65732e-05
-0.000121308 -0.000726042 4.34508e-06
-1.65732e-05 4.34508e-06 -0.000665801
0.0010421 -0.000199023 -1.24898e-06
-0.000199023 -0.000302156 -7.94034e-07
-1.24898e-06 -7.94034e-07 -0.000243695
0.00208231 -0.000268541 8.79918e-06
-0.000268541 7.05206e-05 -1.14402e-05
8.79918e-06 -1.14402e-05 0.000125848
0.00153788 -0.000266922 -8.78035e-06
-0.000266922 0.000145406 -2.77066e-06
-8.78035e-06 -2.77066e-06 -2.1073e-05
0.00163537 -0.0002802 -9.60697e-08
-0.0002802 5.77781e-06 1.10766e-06
-9.60697e-08 1.10766e-06 -9.84109e-05
0.00206932 -0.000258789 -3.25759e-06
-0.000258789 0.000146816 -4.58238e-07
-3.25759e-06 -4.58238e-07 8.1013e-05
0.0013312 -0.000242869 -9.11498e-07
-0.000242869 8.46959e-06 2.43183e-06
-9.11498e-07 2.43183e-06 -0.000155126
0.0017034 -0.000231133 -2.25402e-06
-0.000231133 5.91601e-05 -5.29525e-07
-2.25402e-06 -5.29525e-07 -6.08064e-05
0.00189321 -0.000192389 -7.44304e-07
-0.000192389 0.00010307 -1.97179e-06
-7.44304e-07 -1.97179e-06 1.39764e-05
0.00173369 -0.00023015 1.95031e-06
-0.00023015 0.000152387 2.95767e-06
1.95031e-06 2.95767e-06 4.72353e-06
0.00168159 -0.000183246 -3.55517e-08
-0.000183246 8.51233e-05 -1.89413e-07
-3.55517e-08 -1.89413e-07 -2.80219e-05
0.00171253 -0.000152459 9.49332e-07
-0.000152459 8.84105e-05 -1.75954e-06
9.49332e-07 -1.75954e-06 -7.76643e-06
0.00173306 -0.000143999 2.93344e-07
-0.000143999 0.000145317 -6.18227e-07
2.93344e-07 -6.18227e-07 3.88559e-05
0.00163722 -0.000158657 -1.74449e-06
-0.000158657 9.484e-05 1.36663e-06
-1.74449e-06 1.36663e-06 -2.18756e-05
0.00170054 -0.000167164 4.93616e-07
-0.000167164 0.000168576 -2.83421e-06
4.93616e-07 -2.83421e-06 4.06335e-05
0.00171965 -0.000193672 -2.60841e-06
-0.000193672 0.000270719 -1.1559e-06
-2.60841e-06 -1.1559e-06 0.000113102
0.00175926 -0.000200146 1.05616e-06
-0.000200146 0.000237845 2.61939e-07
1.05616e-06 2.61939e-07 8.2817e-05
0.00149114 -0.000182711 -1.10356e-06
-0.000182711 4.80216e-05 3.61016e-06
-1.10356e-06 3.61016e-06 -8.84315e-05
0.000880766 -0.000151178 -3.82006e-06
-0.000151178 -4.67017e-05 3.07701e-06
-3.82006e-06 3.07701e-06 -0.000205391
0.00126786 -0.000180655 5.77501e-07
-0.000180655 0.000125797 -2.73085e-07
5.77501e-07 -2.73085e-07 -4.79512e-05
0.00157078 -0.000204766 2.77848e-06
-0.000204766 0.000237219 -4.53159e-07
2.77848e-06 -4.53159e-07 5.77942e-05
0.000962622 -0.000132388 -1.50343e-06
-0.000132388 8.96909e-05 8.22785e-07
-1.50343e-06 8.22785e-07 -3.81464e-05
0.00112232 -0.000156833 2.92292e-07
-0.000156833 0.000158601 -1.8564e-07
2.92292e-07 -1.8564e-07 9.76797e-06
0.000639532 -0.000135967 3.02778e-07
-0.000135967 -0.000121057 -4.46523e-06
3.02778e-07 -4.46523e-06 -0.000289193
0.000767738 -5.63319e-05 -2.89502e-06
-5.63319e-05 3.23965e-05 2.56398e-06
-2.89502e-06 2.56398e-06 -5.86191e-05
0.00102675 -0.000128063 1.13868e-07
-0.000128063 0.000153553 -1.20961e-07
1.13868e-07 -1.20961e-07 3.35442e-05
0.00113614 -0.000149123 3.65477e-07
-0.000149123 0.000208673 -8.80746e-07
3.65477e-07 -8.80746e-07 7.09073e-05
0.000529899 6.57667e-05 1.2572e-06
6.57667e-05 -6.65383e-05 5.86419e-06
1.2572e-06 5.86419e-06 -0.000102851
0.000756069 -1.48512e-05 1.77329e-07
-1.48512e-05 4.2262e-05 1.27672e-07
1.77329e-07 1.27672e-07 -4.13802e-05
0.00102661 -8.13622e-05 1.29156e-06
-8.13622e-05 0.000184186 -2.89222e-07
1.29156e-06 -2.89222e-07 7.05155e-05
0.00242203 9.02509e-05 -3.63521e-05
9.02509e-05 0.000982746 2.53595e-06
-3.63521e-05 2.53595e-06 0.000987438
0.000614781 6.79671e-05 -1.57604e-07
6.79671e-05 -2.25024e-05 -2.45303e-07
-1.57604e-07 -2.45303e-07 -5.09301e-05
0.000715172 -1.41527e-05 2.20437e-06
-1.41527e-05 1.7522e-05 -3.076e-06
2.20437e-06 -3.076e-06 -4.7891e-05
0.00158021 6.72536e-05 1.45908e-05
6.72536e-05 0.000508253 -5.11418e-07
1.45908e-05 -5.11418e-07 0.000512456
0.000687059 6.08651e-05 -2.00342e-08
6.08651e-05 7.17739e-06 -4.16594e-06
-2.00342e-08 -4.16594e-06 -1.38529e-05
0.00221356 7.19235e-05 3.05158e-05
7.19235e-05 0.000853654 -2.86716e-06
3.05158e-05 -2.86716e-06 0.000863892
0.000892603 5.79293e-05 5.97821e-07
5.79293e-05 0.000112891 3.57956e-07
5.97821e-07 3.57956e-07 1.87467e-05
0.000834345 2.68855e-06 -2.70439e-07
2.68855e-06 7.74167e-05 4.85777e-07
-2.70439e-07 4.85777e-07 -5.10953e-06
0.000789561 -2.79628e-05 2.57594e-07
-2.79628e-05 5.52154e-05 -1.59778e-06
2.57594e-07 -1.59778e-06 -2.48195e-05
0.000866349 1.46209e-05 1.45894e-07
1.46209e-05 9.28501e-05 6.21861e-07
1.45894e-07 6.21861e-07 1.13155e-05
0.000778959 -2.68554e-05 4.22928e-07
-2.68554e-05 4.21786e-05 -7.85124e-08
4.22928e-07 -7.85124e-08 -3.11196e-05
0.000694767 -4.08032e-05 -7.53961e-07
-4.08032e-05 -6.12757e-06 -2.59228e-06
-7.53961e-07 -2.59228e-06 -5.58126e-05
0.000669174 -4.7921e-05 -1.39501e-06
-4.7921e-05 -2.02297e-05 -4.09061e-06
-1.39501e-06 -4.09061e-06 -3.74537e-05
0.000720432 -3.69688e-05 1.01186e-07
-3.69688e-05 1.43135e-06 -3.37435e-08
1.01186e-07 -3.37435e-08 -4.45436e-05
0.000758124 -4.83058e-05 -2.61806e-07
-4.83058e-05 2.53915e-05 1.24155e-06
-2.61806e-07 1.24155e-06 -4.11746e-05
0.00231979 -6.41493e-05 -2.92272e-05
-6.41493e-05 0.000899415 -3.49571e-06
-2.92272e-05 -3.49571e-06 0.000911527
0.000655153 -4.11738e-05 -2.49271e-07
-4.11738e-05 -3.55776e-05 3.92172e-08
-2.49271e-07 3.92172e-08 -5.05479e-05
0.000731268 -2.07574e-05 1.59616e-06
-2.07574e-05 1.15583e-06 1.93684e-06
1.59616e-06 1.93684e-06 -4.21775e-05
0.00230215 -5.59103e-05 -2.21146e-06
-5.59103e-05 0.000882029 1.39957e-07
-2.21146e-06 1.39957e-07 0.00089595
0.000659945 -3.54366e-05 5.60458e-07
-3.54366e-05 -3.94272e-05 3.80636e-06
5.60458e-07 3.80636e-06 -5.23086e-05
0.00223348 -4.6595e-05 1.90864e-05
-4.6595e-05 0.000836957 4.04892e-06
1.90864e-05 4.04892e-06 0.000852992
0.000798109 0.000157315 4.77628e-05
0.000157315 0.000880258 3.6173e-05
4.77628e-05 3.6173e-05 0.000322913
-0.000541221 -0.000157131 1.15357e-06
-0.000157131 0.000457798 7.08576e-06
1.15357e-06 7.08576e-06 -0.000126697
0.0018808 -6.23966e-05 -4.79455e-05
-6.23966e-05 0.00041359 -1.2278e-05
-4.79455e-05 -1.2278e-05 6.74983e-05
0.000773716 -1.77495e-05 1.21835e-07
-1.77495e-05 5.16573e-05 6.50203e-07
1.21835e-07 6.50203e-07 -3.46986e-05
0.000820102 2.64161e-06 -4.287e-08
2.64161e-06 8.3848e-05 6.8974e-07
-4.287e-08 6.8974e-07 -1.12624e-05
0.000948928 0.00011219 -2.08517e-07
0.00011219 0.000167288 2.86689e-07
-2.08517e-07 2.86689e-07 6.04168e-05
0.00113896 0.000148236 1.1638e-06
0.000148236 0.00024994 9.01964e-08
1.1638e-06 9.01964e-08 0.000127816
0.000925746 8.88675e-05 -1.55205e-06
8.88675e-05 0.000163084 -7.5492e-07
-1.55205e-06 -7.5492e-07 5.02734e-05
0.000810647 4.05952e-05 5.64278e-07
4.05952e-05 7.28879e-05 1.19756e-06
5.64278e-07 1.19756e-06 -1.56238e-05
0.000737944 1.62736e-05 3.41457e-07
1.62736e-05 3.14586e-05 1.24933e-06
3.41457e-07 1.24933e-06 -5.88817e-05
0.000709368 5.94441e-05 -1.15712e-06
5.94441e-05 3.79042e-05 -1.18053e-06
-1.15712e-06 -1.18053e-06 -6.54406e-05
8.04675e-05 7.63855e-05 -1.80009e-07
7.63855e-05 -0.000299271 1.76253e-07
-1.80009e-07 1.76253e-07 -0.000417302
0.000957042 0.000127488 9.81562e-07
0.000127488 0.000122617 -4.83876e-06
9.81562e-07 -4.83876e-06 1.70899e-05
0.00195079 0.00027192 5.55086e-06
0.00027192 0.000424683 -1.04911e-05
5.55086e-06 -1.04911e-05 0.00028037
0.000764752 7.57109e-05 -1.58266e-06
7.57109e-05 4.84561e-05 -3.58684e-07
-1.58266e-06 -3.58684e-07 -3.76379e-05
0.000721318 9.35925e-06 -6.51311e-07
9.35925e-06 3.54964e-05 -8.38278e-07
-6.51311e-07 -8.38278e-07 -4.11922e-05
0.0103467 2.20834e-05 -4.58509e-05
2.20834e-05 0.00340946 -1.40414e-06
-4.58509e-05 -1.40414e-06 0.00213758
-0.00199542 -0.00029032 -5.49577e-05
-0.00029032 -0.000451127 -9.82587e-06
-5.49577e-05 -9.82587e-06 -0.000886813
0.000766385 -0.00036881 -2.35265e-05
-0.00036881 0.000614071 -2.76111e-05
-2.35265e-05 -2.76111e-05 0.000409998
-0.00337658 -0.000358535 1.061e-05
-0.000358535 -0.00173744 3.06478e-05
1.061e-05 3.06478e-05 -0.00153035
0.00926933 -0.00030343 8.60701e-05
-0.00030343 0.00412281 -2.44762e-06
8.60701e-05 -2.44762e-06 0.00164578
0.00304284 0.000188784 -1.04806e-05
0.000188784 0.000498236 1.10002e-05
-1.04806e-05 1.10002e-05 0.000339196
0.00152372 0.000370828 -4.53312e-05
0.000370828 -2.37118e-05 -1.94943e-05
-4.53312e-05 -1.94943e-05 -0.000634207
0.00745302 -0.000233942 5.69246e-05
-0.000233942 0.00260795 1.73119e-05
5.69246e-05 1.73119e-05 0.00109157
0.00365659 0.00047592 7.73117e-06
0.00047592 0.000439647 -2.85933e-05
7.73117e-06 -2.85933e-05 -0.000140163
0.00203581 0.000392312 5.02405e-06
0.000392312 0.000299226 1.37227e-05
5.02405e-06 1.37227e-05 0.000140439
0.000873013 0.000239599 2.76293e-06
0.000239599 -4.74312e-06 -4.89091e-06
2.76293e-06 -4.89091e-06 -0.000155718
0.000954276 0.000133984 -1.00973e-05
0.000133984 0.000156213 5.74185e-06
-1.00973e-05 5.74185e-06 9.71375e-05
0.00144578 0.000298788 -3.03222e-05
0.000298788 0.000227316 -1.52702e-05
-3.03222e-05 -1.52702e-05 9.58705e-05
0.00118749 0.0003558 -1.66558e-05
0.0003558 -0.000277205 1.47064e-05
-1.66558e-05 1.47064e-05 -0.000337508
0.000502942 -0.000135774 -1.30981e-05
-0.000135774 -0.00169669 -2.15687e-06
-1.30981e-05 -2.15687e-06 -0.0020726
0.00199734 -8.27191e-05 -2.25597e-06
-8.27191e-05 0.00116733 -4.69378e-06
-2.25597e-06 -4.69378e-06 0.00108944
-0.00169705 -2.20994e-05 1.2209e-05
-2.20994e-05 0.000308214 -1.34342e-07
1.2209e-05 -1.34342e-07 -0.000397713
0.00283854 -0.000416314 -5.3983e-05
-0.000416314 0.000676525 4.64319e-06
-5.3983e-05 4.64319e-06 0.00060269
0.00369507 -0.000517336 -1.34721e-05
-0.000517336 0.00071079 -1.3859e-05
-1.34721e-05 -1.3859e-05 -0.000428591
0.000444239 -0.000111322 8.44146e-06
-0.000111322 0.000537646 1.52361e-05
8.44146e-06 1.52361e-05 0.000237325
0.010183 0.000294251 -4.68438e-05
0.000294251 0.00417597 2.95798e-05
-4.68438e-05 2.95798e-05 0.00258366
0.000625173 -0.000192373 -4.14079e-06
-0.000192373 -0.00025278 -8.45878e-07
-4.14079e-06 -8.45878e-07 -0.000388879
0.00628699 0.000118993 1.59692e-05
0.000118993 0.00153735 1.74456e-05
1.59692e-05 1.74456e-05 0.000719533
0.0035578 -0.000248082 4.22062e-05
-0.000248082 0.000275289 -1.10703e-06
4.22062e-05 -1.10703e-06 -0.000518875
0.00275148 -0.000230207 5.61897e-07
-0.000230207 0.000868005 2.20572e-06
5.61897e-07 2.20572e-06 0.000613203
0.00358221 -7.25672e-05 -8.82807e-05
-7.25672e-05 0.000813047 -8.05708e-06
-8.82807e-05 -8.05708e-06 0.000528302
0.000141991 -0.000167756 -1.22408e-05
-0.000167756 -0.000782211 4.03901e-06
-1.22408e-05 4.03901e-06 -0.000706199
0.00153386 -0.000256838 -6.5307e-08
-0.000256838 -0.000190484 5.72199e-07
-6.5307e-08 5.72199e-07 -0.000158393
0.00191728 -0.000182604 2.23608e-06
-0.000182604 -3.39383e-05 -9.82456e-07
2.23608e-06 -9.82456e-07 -2.159e-05
0.00135281 -0.000264923 1.51663e-06
-0.000264923 -0.00013997 1.54078e-06
1.51663e-06 1.54078e-06 -0.000238585
0.00176823 -0.000236044 -6.97807e-07
-0.000236044 1.35036e-05 -3.26388e-07
-6.97807e-07 -3.26388e-07 -5.08296e-05
0.00182119 -0.000162772 -1.76449e-06
-0.000162772 -2.30044e-05 7.47913e-07
-1.76449e-06 7.47913e-07 -6.20346e-05
0.00150311 -0.000224264 -3.69562e-06
-0.000224264 -5.3305e-05 2.71706e-06
-3.69562e-06 2.71706e-06 -0.000173052
0.00178422 -0.000188153 2.77726e-07
-0.000188153 4.26679e-05 1.15631e-06
2.77726e-07 1.15631e-06 -4.59391e-05
0.00182228 -0.00015632 2.5018e-06
-0.00015632 9.31478e-05 1.09423e-07
2.5018e-06 1.09423e-07 1.55396e-05
0.00161112 -0.000178036 5.44938e-07
-0.000178036 4.9401e-05 2.81582e-06
5.44938e-07 2.81582e-06 -6.26999e-05
0.00170166 -0.00015407 -7.59551e-08
-0.00015407 8.33412e-05 8.96463e-07
-7.59551e-08 8.96463e-07 -1.36413e-05
0.00183139 -0.000139878 2.09434e-06
-0.000139878 0.000171013 -2.7969e-07
2.09434e-06 -2.7969e-07 7.63053e-05
0.00165227 -0.000141992 -2.76812e-06
-0.000141992 0.000100109 1.76587e-06
-2.76812e-06 1.76587e-06 -5.17821e-06
0.00170686 -0.000143881 2.23779e-06
-0.000143881 0.000160005 -1.37344e-06
2.23779e-06 -1.37344e-06 4.56316e-05
0.00161557 -0.000154957 -7.37452e-07
-0.000154957 8.32197e-05 3.83695e-06
-7.37452e-07 3.83695e-06 -3.14046e-05
0.0016819 -0.000165708 7.65361e-07
-0.000165708 0.000156927 -2.98949e-07
7.65361e-07 -2.98949e-07 2.93943e-05
0.00164953 -0.000165566 -1.05993e-06
-0.000165566 0.000184579 -1.6353e-06
-1.05993e-06 -1.6353e-06 4.96409e-05
0.00112535 -0.000159279 -4.45817e-06
-0.000159279 -6.38419e-07 8.55113e-07
-4.45817e-06 8.55113e-07 -0.000153143
0.00162022 -0.000188139 4.1395e-07
-0.000188139 0.000217704 -6.03663e-07
4.1395e-07 -6.03663e-07 5.99548e-05
0.00166094 -0.000195369 1.82658e-06
-0.000195369 0.000182607 2.47018e-06
1.82658e-06 2.47018e-06 2.83336e-05
0.00108595 -0.000147458 -2.88723e-06
-0.000147458 0.000107566 2.22551e-06
-2.88723e-06 2.22551e-06 -2.98908e-05
0.00097448 -0.000154973 -1.22759e-06
-0.000154973 8.18815e-06 1.2649e-06
-1.22759e-06 1.2649e-06 -0.00014942
0.00157225 -0.000195397 3.21444e-06
-0.000195397 0.000294127 -1.76804e-06
3.21444e-06 -1.76804e-06 0.000120956
0.000734478 -7.59244e-05 -3.40592e-06
-7.59244e-05 -7.52736e-06 2.23157e-06
-3.40592e-06 2.23157e-06 -0.000104081
0.00105852 -0.000139188 1.68939e-07
-0.000139188 0.00013983 -3.50872e-07
1.68939e-07 -3.50872e-07 1.11373e-05
0.0011776 -0.000159294 1.40113e-06
-0.000159294 0.000185548 -2.27026e-06
1.40113e-06 -2.27026e-06 3.64908e-05
0.000534392 2.52334e-05 -2.88973e-06
2.52334e-05 -7.67959e-05 6.57544e-06
-2.88973e-06 6.57544e-06 -0.000116851
0.00081581 -6.06907e-05 2.21695e-07
-6.06907e-05 5.82958e-05 2.90302e-07
2.21695e-07 2.90302e-07 -3.36329e-05
0.00109276 -0.000126778 1.6679e-06
-0.000126778 0.000187177 -3.93162e-07
1.6679e-06 -3.93162e-07 6.76937e-05
0.00274089 0.000103653 -4.41986e-05
0.000103653 0.0011622 2.46794e-06
-4.41986e-05 2.46794e-06 0.00116308
0.000588938 4.77016e-05 6.77102e-07
4.77016e-05 -3.91988e-05 -2.50745e-07
6.77102e-07 -2.50745e-07 -7.31102e-05
0.000769006 -4.93107e-05 2.4987e-06
-4.93107e-05 4.54381e-05 -2.73646e-06
2.4987e-06 -2.73646e-06 -3.75573e-05
0.0025154 9.0894e-05 1.70086e-06
9.0894e-05 0.00103352 1.54424e-07
1.70086e-06 1.54424e-07 0.00103797
0.000661553 5.99424e-05 6.20874e-08
5.99424e-05 1.10656e-06 -5.0502e-06
6.20874e-08 -5.0502e-06 -2.62718e-05
0.00236618 8.09295e-05 3.70805e-05
8.09295e-05 0.000945437 -2.67462e-06
3.70805e-05 -2.67462e-06 0.000952904
0.000985813 0.000130052 7.28444e-07
0.000130052 0.000155083 -5.1685e-07
7.28444e-07 -5.1685e-07 4.00649e-05
0.000838271 8.85365e-05 4.07562e-07
8.85365e-05 8.78568e-05 5.06864e-08
4.07562e-07 5.06864e-08 -9.82917e-06
0.000724459 -1.92204e-05 -4.25799e-07
-1.92204e-05 2.17438e-05 -1.01606e-06
-4.25799e-07 -1.01606e-06 -6.81318e-05
0.000760522 -2.77764e-05 -3.61995e-07
-2.77764e-05 3.63147e-05 9.94385e-07
-3.61995e-07 9.94385e-07 -4.5024e-05
0.000749966 -4.28124e-05 2.31307e-07
-4.28124e-05 3.23134e-05 5.98665e-08
2.31307e-07 5.98665e-08 -4.73677e-05
0.000669118 -3.96425e-05 -7.89624e-07
-3.96425e-05 -1.49653e-05 -2.81216e-06
-7.89624e-07 -2.81216e-06 -7.15204e-05
0.000745712 -4.85306e-05 -3.09477e-07
-4.85306e-05 2.28195e-05 1.6235e-06
-3.09477e-07 1.6235e-06 -4.90849e-05
0.000700145 -4.53384e-05 3.20185e-07
-4.53384e-05 -2.58094e-06 -1.56449e-07
3.20185e-07 -1.56449e-07 -5.26148e-05
0.000665136 -5.68067e-05 -9.00726e-07
-5.68067e-05 -1.2483e-05 -4.38284e-06
-9.00726e-07 -4.38284e-06 -3.31026e-05
0.00232968 -7.20484e-05 -3.27597e-05
-7.20484e-05 0.000912606 -3.16419e-06
-3.27597e-05 -3.16419e-06 0.000922835
0.000653154 -4.64367e-05 -4.67932e-08
-4.64367e-05 -2.91101e-05 2.41573e-08
-4.67932e-08 2.41573e-08 -4.614e-05
0.000715291 -3.40701e-05 1.73883e-06
-3.40701e-05 -1.52797e-06 2.1283e-06
1.73883e-06 2.1283e-06 -4.72292e-05
0.00232347 -6.39702e-05 -1.92616e-06
-6.39702e-05 0.000900712 1.47892e-07
-1.92616e-06 1.47892e-07 0.000912862
0.000648615 -4.01341e-05 9.0217e-07
-4.01341e-05 -3.92023e-05 3.96374e-06
9.0217e-07 3.96374e-06 -5.40737e-05
0.00228876 -5.54709e-05 2.33857e-05
-5.54709e-05 0.000873958 3.86972e-06
2.33857e-05 3.86972e-06 0.000888034
0.00883147 0.000182828 9.81546e-05
0.000182828 0.00268796 3.31356e-05
9.81546e-05 3.31356e-05 0.00175758
-0.00244414 -0.000202255 -2.76059e-05
-0.000202255 -0.00127644 -2.81229e-06
-2.76059e-05 -2.81229e-06 -0.00133232
-0.00191788 -7.45052e-05 -4.59677e-05
-7.45052e-05 -0.000194368 -8.42473e-06
-4.59677e-05 -8.42473e-06 -0.000952486
0.000779008 -3.14473e-05 5.35127e-07
-3.14473e-05 5.92927e-05 1.6275e-06
5.35127e-07 1.6275e-06 -3.52905e-05
0.000790725 0.000109247 -7.64265e-07
0.000109247 8.43011e-05 6.66533e-07
-7.64265e-07 6.66533e-07 -2.03481e-05
0.00102758 9.36359e-05 4.86422e-07
9.36359e-05 0.000218497 -6.63144e-08
4.86422e-07 -6.63144e-08 0.000105687
0.00101606 0.000139723 -1.23277e-06
0.000139723 0.000184955 1.04047e-07
-1.23277e-06 1.04047e-07 6.43911e-05
0.00111275 0.000152207 9.18402e-06
0.000152207 0.000211277 1.22537e-06
9.18402e-06 1.22537e-06 7.61921e-05
0.000548302 0.000108518 -9.47525e-07
0.000108518 -4.89919e-05 -2.00604e-07
-9.47525e-07 -2.00604e-07 -0.000168621
0.000461216 6.15035e-05 -1.04933e-06
6.15035e-05 -9.52203e-05 -3.50535e-08
-1.04933e-06 -3.50535e-08 -0.000197604
0.000526228 0.000108499 5.53472e-07
0.000108499 -6.70276e-05 6.51268e-07
5.53472e-07 6.51268e-07 -0.000192709
0.000874072 0.000109693 -1.33836e-06
0.000109693 8.10019e-05 -1.06516e-07
-1.33836e-06 -1.06516e-07 -2.76506e-05
0.000236672 0.000117165 8.24857e-07
0.000117165 -0.000312633 -1.48607e-06
8.24857e-07 -1.48607e-06 -0.000439228
0.00292386 0.000307467 -1.30764e-06
0.000307467 0.00094105 -3.68441e-06
-1.30764e-06 -3.68441e-06 0.000801053
0.00133359 0.000272268 2.55083e-06
0.000272268 -4.22226e-05 -6.49979e-07
2.55083e-06 -6.49979e-07 -0.000191975
0.00141909 0.000240169 3.09245e-06
0.000240169 0.000165361 -2.37948e-06
3.09245e-06 -2.37948e-06 2.76212e-05
0.000751741 8.13387e-05 -5.65416e-06
8.13387e-05 5.77917e-05 3.81146e-06
-5.65416e-06 3.81146e-06 -2.76348e-05
0.00322753 0.000140893 2.46573e-06
0.000140893 5.22447e-05 2.41023e-06
2.46573e-06 2.41023e-06 -0.000228495
0.00565809 1.91094e-05 1.8241e-05
1.91094e-05 0.00132975 9.18726e-06
1.8241e-05 9.18726e-06 8.52082e-05
0.00530821 -0.000664385 -2.99351e-05
-0.000664385 0.00270346 -3.39647e-05
-2.99351e-05 -3.39647e-05 0.00264248
0.00681965 3.57115e-05 0.00026276
3.57115e-05 0.00237917 7.38453e-05
0.00026276 7.38453e-05 0.000406983
0.0013525 0.000337703 2.8838e-05
0.000337703 -0.000282583 3.29481e-05
2.8838e-05 3.29481e-05 -0.000489247
0.00238983 0.000355628 -7.11288e-05
0.000355628 3.31447e-05 -2.11754e-05
-7.11288e-05 -2.11754e-05 -0.000360398
0.00281489 0.000385599 4.63886e-05
0.000385599 0.000479201 2.14997e-05
4.63886e-05 2.14997e-05 0.000483492
0.00215776 0.000393534 -3.69488e-08
0.000393534 0.000347711 5.13954e-06
-3.69488e-08 5.13954e-06 0.000212229
0.000385021 0.000195856 -1.30985e-06
0.000195856 -0.000237597 6.45739e-06
-1.30985e-06 6.45739e-06 -0.000380535
0.00226457 0.000436901 -7.47816e-05
0.000436901 0.000256886 -4.64379e-05
-7.47816e-05 -4.64379e-05 0.000173662
0.00288029 -0.000136318 -0.000139515
-0.000136318 0.000426167 1.13593e-06
-0.000139515 1.13593e-06 4.79291e-05
0.00839843 -9.71389e-05 1.36748e-05
-9.71389e-05 0.00262638 -6.82469e-07
1.36748e-05 -6.82469e-07 0.00203306
-0.00599997 -0.000156122 0.000115662
-0.000156122 -0.00315716 5.17483e-07
0.000115662 5.17483e-07 -0.0030683
0.00176463 -0.00023733 -7.6411e-06
-0.00023733 0.000289148 6.46123e-06
-7.6411e-06 6.46123e-06 0.000179862
0.0052412 -0.000304951 9.7524e-05
-0.000304951 0.00120501 3.51364e-06
9.7524e-05 3.51364e-06 0.0004499
0.000423255 -0.000310406 7.52063e-05
-0.000310406 -0.00135664 3.27728e-05
7.52063e-05 3.27728e-05 -0.00210212
0.00135566 -0.000153098 5.94707e-06
-0.000153098 0.000144954 -1.09076e-06
5.94707e-06 -1.09076e-06 -3.10969e-05
0.00170967 8.91385e-06 -6.10948e-06
8.91385e-06 -0.000268195 2.79674e-06
-6.10948e-06 2.79674e-06 -0.000548091
0.00514412 -0.000163424 6.87409e-06
-0.000163424 0.00190123 -3.3393e-06
6.87409e-06 -3.3393e-06 0.00179407
0.00238165 3.35725e-06 4.39025e-05
3.35725e-06 0.000312226 -2.93017e-06
4.39025e-05 -2.93017e-06 0.000268536
0.000860935 -0.000244636 -5.70182e-06
-0.000244636 -0.000513544 3.77363e-06
-5.70182e-06 3.77363e-06 -0.000503856
0.00183065 -0.000188755 -2.93767e-07
-0.000188755 -6.85166e-05 1.05004e-06
-2.93767e-07 1.05004e-06 -6.79934e-05
0.00178517 -8.14505e-05 4.99601e-06
-8.14505e-05 -3.79524e-05 -9.34025e-08
4.99601e-06 -9.34025e-08 -5.95688e-05
0.00154142 -0.000218154 2.54139e-06
-0.000218154 -8.62622e-05 -5.88895e-08
2.54139e-06 -5.88895e-08 -0.000149137
0.00187209 -0.000164558 1.64333e-06
-0.000164558 1.72263e-05 5.99655e-07
1.64333e-06 5.99655e-07 -2.7684e-05
0.0016946 -0.000101949 2.67785e-06
-0.000101949 -3.85277e-06 1.03774e-06
2.67785e-06 1.03774e-06 -5.71722e-05
0.00167923 -0.00018399 4.2155e-06
-0.00018399 -1.55771e-05 2.88605e-06
4.2155e-06 2.88605e-06 -0.000103705
0.00180096 -0.000152597 1.15243e-06
-0.000152597 9.10924e-05 5.15252e-07
1.15243e-06 5.15252e-07 1.31744e-05
0.00188392 -0.000121582 2.1266e-06
-0.000121582 0.000177648 4.95648e-07
2.1266e-06 4.95648e-07 9.26825e-05
0.00169977 -0.000155531 -5.95847e-07
-0.000155531 8.35425e-05 2.80415e-06
-5.95847e-07 2.80415e-06 -1.42418e-05
0.00172666 -0.000139775 -6.33303e-07
-0.000139775 0.000117536 3.97271e-07
-6.33303e-07 3.97271e-07 2.1664e-05
0.00163439 -0.000128122 3.19191e-06
-0.000128122 0.000103374 7.06096e-08
3.19191e-06 7.06096e-08 -5.6929e-06
0.0015682 -0.00013979 -2.454e-06
-0.00013979 5.35385e-05 3.53401e-06
-2.454e-06 3.53401e-06 -5.05397e-05
0.00166094 -0.000141311 -9.5312e-07
-0.000141311 0.000133328 -2.91886e-07
-9.5312e-07 -2.91886e-07 2.04375e-05
0.00168223 -0.000143762 6.30638e-07
-0.000143762 0.000181101 -6.14403e-07
6.30638e-07 -6.14403e-07 5.76465e-05
0.00167503 -0.000164797 7.60775e-07
-0.000164797 0.000151457 1.65431e-06
7.60775e-07 1.65431e-06 2.43153e-05
0.00164161 -0.0001647 4.40392e-07
-0.0001647 0.000179012 -4.12197e-07
4.40392e-07 -4.12197e-07 4.40545e-05
0.00163904 -0.000163485 -2.21041e-06
-0.000163485 0.000224683 -3.73675e-07
-2.21041e-06 -3.73675e-07 8.846e-05
0.000858029 -0.00013492 -5.93444e-06
-0.00013492 -9.07612e-05 2.38791e-06
-5.93444e-06 2.38791e-06 -0.000228427
0.00121985 -0.000162454 -9.30826e-07
-0.000162454 5.66619e-05 3.58265e-07
-9.30826e-07 3.58265e-07 -9.55479e-05
0.00150496 -0.000181747 3.04857e-06
-0.000181747 0.00015651 9.68039e-08
3.04857e-06 9.68039e-08 -1.34981e-06
0.00084875 -0.00010205 -4.5562e-06
-0.00010205 2.27323e-05 3.28288e-06
-4.5562e-06 3.28288e-06 -8.2562e-05
0.00110812 -0.000148054 3.59241e-07
-0.000148054 0.000117616 2.34962e-07
3.59241e-07 2.34962e-07 -1.95425e-05
0.00107723 -0.00015929 1.01135e-06
-0.00015929 6.763e-05 -5.4151e-07
1.01135e-06 -5.4151e-07 -8.89076e-05
0.000546401 7.5049e-07 -5.93719e-06
7.5049e-07 -7.65302e-05 7.05022e-06
-5.93719e-06 7.05022e-06 -0.000124048
0.00086549 -8.54273e-05 7.05605e-08
-8.54273e-05 6.4168e-05 -1.41362e-07
7.05605e-08 -1.41362e-07 -3.38561e-05
0.00114767 -0.000145451 2.35655e-06
-0.000145451 0.000186342 -1.70621e-06
2.35655e-06 -1.70621e-06 5.68564e-05
0.00314903 0.00011796 -5.6573e-05
0.00011796 0.00138886 2.4832e-06
-5.6573e-05 2.4832e-06 0.00138555
0.000612078 1.78098e-05 3.42194e-07
1.78098e-05 -3.58084e-05 -1.7423e-07
3.42194e-07 -1.7423e-07 -7.64427e-05
0.000873606 -6.75669e-05 3.87086e-06
-6.75669e-05 8.80725e-05 -2.21697e-06
3.87086e-06 -2.21697e-06 -4.03758e-06
0.00285844 0.000102378 2.14648e-06
0.000102378 0.00122536 1.82057e-07
2.14648e-06 1.82057e-07 0.00122632
0.000653184 4.70552e-05 2.60907e-06
4.70552e-05 -3.20159e-06 -5.72281e-06
2.60907e-06 -5.72281e-06 -3.8395e-05
0.00262674 8.99316e-05 4.7434e-05
8.99316e-05 0.00109377 -2.64473e-06
4.7434e-05 -2.64473e-06 0.00109838
0.00108383 0.000144619 -2.76209e-07
0.000144619 0.000188175 -2.56314e-06
-2.76209e-07 -2.56314e-06 5.86964e-05
0.00107719 0.000136148 3.75445e-07
0.000136148 0.000205257 2.03446e-07
3.75445e-07 2.03446e-07 9.00758e-05
0.000896834 6.95847e-05 -1.31083e-06
6.95847e-05 0.000105008 -1.23053e-06
-1.31083e-06 -1.23053e-06 2.80228e-06
0.000785505 0.000108892 -5.13587e-08
0.000108892 6.41303e-05 3.56285e-07
-5.13587e-08 3.56285e-07 -3.69423e-05
0.000717051 2.40228e-06 -5.24743e-07
2.40228e-06 1.76572e-05 -1.68288e-07
-5.24743e-07 -1.68288e-07 -7.38966e-05
0.00069893 1.14815e-05 -1.9784e-06
1.14815e-05 5.87681e-06 -2.51718e-06
-1.9784e-06 -2.51718e-06 -6.37597e-05
0.000719617 -6.0956e-05 -1.92246e-07
-6.0956e-05 1.70972e-05 1.47392e-06
-1.92246e-07 1.47392e-06 -6.40919e-05
0.000685049 -4.28316e-05 4.25542e-07
-4.28316e-05 -4.53237e-06 -3.71176e-07
4.25542e-07 -3.71176e-07 -6.2019e-05
0.000647301 -6.91168e-05 9.55244e-07
-6.91168e-05 -1.00081e-05 -5.11906e-06
9.55244e-07 -5.11906e-06 -3.65008e-05
0.000704142 -4.84826e-05 9.65146e-07
-4.84826e-05 -1.23934e-07 2.42298e-06
9.65146e-07 2.42298e-06 -5.02878e-05
0.000642668 -5.36313e-05 1.88861e-07
-5.36313e-05 -2.57503e-05 -1.75984e-08
1.88861e-07 -1.75984e-08 -4.57261e-05
0.00238123 -8.03819e-05 -3.68334e-05
-8.03819e-05 0.000948947 -2.77592e-06
-3.68334e-05 -2.77592e-06 0.00095699
0.00233096 -7.18224e-05 -1.21473e-06
-7.18224e-05 0.000912398 1.38926e-07
-1.21473e-06 1.38926e-07 0.000922706
0.00063866 -4.50504e-05 1.48792e-06
-4.50504e-05 -3.72038e-05 4.10084e-06
1.48792e-06 4.10084e-06 -5.4049e-05
0.00232198 -6.37543e-05 2.75282e-05
-6.37543e-05 0.000899218 3.64235e-06
2.75282e-05 3.64235e-06 0.000911416
0.00261009 -3.89406e-06 -5.30785e-05
-3.89406e-06 0.0001487 1.21602e-05
-5.30785e-05 1.21602e-05 -7.17394e-05
0.00197949 -0.000194419 1.79727e-05
-0.000194419 -0.000692965 7.25741e-06
1.79727e-05 7.25741e-06 -0.00155063
0.00402061 -0.000374718 -4.59413e-05
-0.000374718 0.00171974 -2.35869e-05
-4.59413e-05 -2.35869e-05 0.00179915
0.00135251 0.000174407 9.09392e-06
0.000174407 0.000267225 1.95285e-06
9.09392e-06 1.95285e-06 0.000121428
0.00115562 0.000101227 4.85726e-07
0.000101227 0.000287809 4.71004e-07
4.85726e-07 4.71004e-07 0.000174935
0.000898237 0.00013154 -1.19779e-06
0.00013154 0.000123039 1.03489e-06
-1.19779e-06 1.03489e-06 3.94791e-06
0.000811028 0.000126969 4.73207e-07
0.000126969 9.23301e-05 7.37954e-07
4.73207e-07 7.37954e-07 -3.06715e-05
0.0010296 0.000147922 -3.1246e-07
0.000147922 0.000170004 -1.50749e-06
-3.1246e-07 -1.50749e-06 3.38306e-05
0.000689619 0.000133729 -3.44819e-07
0.000133729 -4.83104e-05 5.91304e-08
-3.44819e-07 5.91304e-08 -0.000168965
0.000920763 0.000137973 -8.77209e-07
0.000137973 0.000137981 -2.15839e-07
-8.77209e-07 -2.15839e-07 4.81668e-06
0.000940799 0.000103091 -2.85374e-06
0.000103091 0.00011389 5.01957e-06
-2.85374e-06 5.01957e-06 1.60381e-06
0.000954067 0.000161569 5.49448e-07
0.000161569 6.67536e-05 -2.4524e-09
5.49448e-07 -2.4524e-09 -6.09664e-05
0.00236085 0.000273499 8.24162e-07
0.000273499 0.00064578 4.39075e-06
8.24162e-07 4.39075e-06 0.000505142
0.00170163 0.000264604 -2.36375e-06
0.000264604 0.000164106 -1.45419e-06
-2.36375e-06 -1.45419e-06 1.25269e-05
0.00151493 0.000234001 1.25361e-05
0.000234001 -1.88091e-05 1.04352e-05
1.25361e-05 1.04352e-05 -0.000138928
0.00129203 0.000272092 -1.62795e-06
0.000272092 -7.30547e-05 -2.34773e-06
-1.62795e-06 -2.34773e-06 -0.000228345
0.00101981 0.00021218 2.92729e-07
0.00021218 -3.33835e-05 7.01448e-06
2.92729e-07 7.01448e-06 -0.000164001
0.000256374 0.000146709 7.5527e-06
0.000146709 -0.000452749 2.95096e-06
7.5527e-06 2.95096e-06 -0.000454393
0.00475793 0.000227355 -2.1569e-05
0.000227355 0.000633035 4.92025e-07
-2.1569e-05 4.92025e-07 0.000246203
0.000780438 -7.92935e-05 4.24795e-05
-7.92935e-05 -0.00106737 1.2302e-05
4.24795e-05 1.2302e-05 -0.0022394
0.00229001 0.000400362 6.04706e-05
0.000400362 -8.04013e-05 1.10241e-05
6.04706e-05 1.10241e-05 -0.000639599
0.00164096 0.000296849 -1.79668e-05
0.000296849 8.19869e-05 -2.59645e-06
-1.79668e-05 -2.59645e-06 6.2287e-05
0.000932509 0.000299922 -2.76946e-05
0.000299922 -0.000194669 -1.98354e-05
-2.76946e-05 -1.98354e-05 -0.000334507
0.00209221 -9.48214e-05 1.54963e-05
-9.48214e-05 0.000149947 5.4596e-07
1.54963e-05 5.4596e-07 5.15405e-05
0.00115531 3.42483e-06 -1.77931e-05
3.42483e-06 -0.000342503 1.07776e-06
-1.77931e-05 1.07776e-06 -0.000592335
0.000225347 0.000261611 5.9904e-05
0.000261611 -0.00176699 -1.92771e-05
5.9904e-05 -1.92771e-05 -0.00238863
-7.78332e-05 -7.72974e-05 1.87669e-06
-7.72974e-05 -0.000621539 1.22091e-05
1.87669e-06 1.22091e-05 -0.000697567
0.00234799 -7.84229e-06 1.23245e-05
-7.84229e-06 -7.79569e-05 1.17619e-05
1.23245e-05 1.17619e-05 -0.000444895
0.00166521 -9.24996e-05 -2.18676e-06
-9.24996e-05 2.8395e-05 -9.65537e-07
-2.18676e-06 -9.65537e-07 -3.17866e-05
0.0021813 -1.33863e-05 -1.8938e-06
-1.33863e-05 0.000207609 -7.1562e-07
-1.8938e-06 -7.1562e-07 0.00015031
0.00212991 -2.71059e-05 1.41847e-05
-2.71059e-05 0.00019718 -1.61726e-06
1.41847e-05 -1.61726e-06 0.000148096
0.00263939 -2.19212e-05 1.06925e-05
-2.19212e-05 0.000542621 5.44521e-07
1.06925e-05 5.44521e-07 0.000491503
0.00190275 -0.00019715 -3.38576e-06
-0.00019715 -1.44825e-05 1.04421e-07
-3.38576e-06 1.04421e-07 -2.83123e-05
0.00196132 -9.04802e-05 2.87224e-06
-9.04802e-05 4.44578e-05 -6.05897e-07
2.87224e-06 -6.05897e-07 1.98294e-05
0.00181451 -9.40659e-05 1.66668e-06
-9.40659e-05 6.66292e-05 2.5335e-07
1.66668e-06 2.5335e-07 1.53176e-05
0.00189211 -0.000165553 2.93864e-06
-0.000165553 4.1061e-05 1.14228e-06
2.93864e-06 1.14228e-06 -9.54528e-06
0.00181793 -0.000115869 8.9408e-07
-0.000115869 5.77133e-05 2.46354e-08
8.9408e-07 2.46354e-08 5.73558e-07
0.00175293 -0.000105807 3.23183e-06
-0.000105807 9.29253e-05 5.21828e-07
3.23183e-06 5.21828e-07 1.49631e-05
0.00178909 -0.000149549 -2.00974e-06
-0.000149549 9.40632e-05 1.60311e-06
-2.00974e-06 1.60311e-06 1.57098e-05
0.00179867 -0.00012529 -1.29851e-06
-0.00012529 0.00013363 1.65172e-09
-1.29851e-06 1.65172e-09 4.75075e-05
0.00164492 -0.000110413 2.23008e-06
-0.000110413 8.89247e-05 5.22753e-07
2.23008e-06 5.22753e-07 -1.71476e-05
0.00162108 -0.000139757 -3.20229e-06
-0.000139757 6.33138e-05 1.06433e-06
-3.20229e-06 1.06433e-06 -3.37344e-05
0.00162449 -0.000127669 4.49883e-07
-0.000127669 9.92381e-05 -2.21971e-07
4.49883e-07 -2.21971e-07 -9.71946e-06
0.00157633 -0.000124184 9.78766e-07
-0.000124184 0.000105808 3.10045e-07
9.78766e-07 3.10045e-07 -1.42263e-05
0.00161778 -0.00013887 -3.72585e-06
-0.00013887 0.000108097 1.37514e-06
-3.72585e-06 1.37514e-06 -3.36565e-06
0.00159136 -0.000139263 -1.84533e-07
-0.000139263 0.000129247 -3.60821e-07
-1.84533e-07 -3.60821e-07 7.06269e-06
0.00146875 -0.000135257 -2.05542e-06
-0.000135257 0.000101199 7.91827e-08
-2.05542e-06 7.91827e-08 -2.6425e-05
0.00161419 -0.000163058 1.89489e-06
-0.000163058 0.000162925 8.83793e-07
1.89489e-06 8.83793e-07 2.80147e-05
0.00145005 -0.000155137 6.82438e-07
-0.000155137 0.000120536 -5.74952e-07
6.82438e-07 -5.74952e-07 -1.6165e-05
0.00134717 -0.000143736 -5.46873e-06
-0.000143736 0.00011981 1.6478e-06
-5.46873e-06 1.6478e-06 -1.01676e-05
0.000966578 -0.000115193 -6.5265e-06
-0.000115193 3.71161e-05 3.91079e-06
-6.5265e-06 3.91079e-06 -7.22352e-05
0.000980434 -0.000140105 -1.43285e-06
-0.000140105 -2.01542e-05 7.94491e-07
-1.43285e-06 7.94491e-07 -0.000157287
0.00130303 -0.000164817 2.47269e-06
-0.000164817 0.000107882 -1.223e-07
2.47269e-06 -1.223e-07 -4.39402e-05
0.00056636 -6.49704e-05 -9.35144e-06
-6.49704e-05 -7.19315e-05 8.29853e-06
-9.35144e-06 8.29853e-06 -0.000129277
0.000904826 -0.000107203 3.26511e-07
-0.000107203 5.32637e-05 1.57995e-08
3.26511e-07 1.57995e-08 -5.28865e-05
0.0011334 -0.000149042 3.44055e-06
-0.000149042 0.000129324 -1.66048e-06
3.44055e-06 -1.66048e-06 -7.5934e-06
0.00348004 0.000129986 -6.98284e-05
0.000129986 0.00157751 2.69119e-06
-6.98284e-05 2.69119e-06 0.00156971
0.000642642 -3.11912e-05 -6.89447e-08
-3.11912e-05 -2.7715e-05 -1.55749e-07
-6.89447e-08 -1.55749e-07 -7.65708e-05
0.000957393 -9.41109e-05 4.60152e-06
-9.41109e-05 0.000114413 -2.83809e-06
4.60152e-06 -2.83809e-06 1.51069e-05
0.00322629 0.000111509 2.32669e-06
0.000111509 0.00143031 2.69318e-07
2.32669e-06 2.69318e-07 0.00142784
0.000679543 1.07388e-06 6.65898e-06
1.07388e-06 -9.24902e-07 -6.20548e-06
6.65898e-06 -6.20548e-06 -4.1764e-05
0.0029615 9.60276e-05 6.25307e-05
9.60276e-05 0.00127984 -2.95527e-06
6.25307e-05 -2.95527e-06 0.00128181
0.000920248 0.000143499 -5.94414e-07
0.000143499 4.79525e-05 -2.10363e-06
-5.94414e-07 -2.10363e-06 -9.43293e-05
0.00100975 0.000139403 -1.12305e-07
0.000139403 0.000148719 -1.10312e-06
-1.12305e-07 -1.10312e-06 2.00086e-05
0.00110961 0.00013094 -9.98701e-07
0.00013094 0.000201641 -1.29027e-06
-9.98701e-07 -1.29027e-06 8.68026e-05
0.00116988 0.000142415 -5.35936e-07
0.000142415 0.000255914 1.51758e-07
-5.35936e-07 1.51758e-07 0.000140571
0.000891314 7.4469e-05 -1.04134e-06
7.4469e-05 0.000100793 -6.31142e-07
-1.04134e-06 -6.31142e-07 -3.68629e-07
0.00077468 3.2628e-05 -2.18218e-06
3.2628e-05 4.69434e-05 -2.09192e-06
-2.18218e-06 -2.09192e-06 -3.48423e-05
0.000713056 2.37398e-05 -2.07912e-07
2.37398e-05 1.46454e-05 3.76336e-07
-2.07912e-07 3.76336e-07 -7.80942e-05
0.000698644 -2.68998e-05 -3.86822e-07
-2.68998e-05 5.99972e-06 -6.42516e-08
-3.86822e-07 -6.42516e-08 -6.22719e-05
0.000612062 -6.95833e-05 1.12209e-07
-6.95833e-05 -2.19647e-05 -5.42848e-06
1.12209e-07 -5.42848e-06 -5.4351e-05
0.000689524 -5.88398e-05 4.34901e-07
-5.88398e-05 6.4295e-07 2.77245e-06
4.34901e-07 2.77245e-06 -5.809e-05
0.00061848 -6.54262e-05 2.29272e-07
-6.54262e-05 -2.74538e-05 -1.12908e-07
2.29272e-07 -1.12908e-07 -5.28475e-05
0.00249081 -8.88712e-05 -4.25919e-05
-8.88712e-05 0.00101596 -2.44547e-06
-4.25919e-05 -2.44547e-06 0.00102165
0.000627966 -5.12385e-05 1.81411e-06
-5.12385e-05 -3.45584e-05 4.21266e-06
1.81411e-06 4.21266e-06 -5.40456e-05
0.00236159 -8.01234e-05 -7.63636e-07
-8.01234e-05 0.000937275 1.26201e-07
-7.63636e-07 1.26201e-07 0.000945429
0.00233153 -7.14203e-05 3.1576e-05
-7.14203e-05 0.000911937 3.33532e-06
3.1576e-05 3.33532e-06 0.00092234
0.000315214 2.00691e-05 7.80639e-06
2.00691e-05 -0.000551239 2.98498e-06
7.80639e-06 2.98498e-06 -0.000579138
0.00374913 2.52854e-05 4.55497e-06
2.52854e-05 0.000475688 1.06599e-05
4.55497e-06 1.06599e-05 0.00011609
0.00669502 0.000253151 -9.70624e-05
0.000253151 0.00195173 -2.39989e-05
-9.70624e-05 -2.39989e-05 0.000991857
0.000808264 0.000139477 2.55067e-06
0.000139477 -6.56025e-05 4.79365e-07
2.55067e-06 4.79365e-07 -0.000197096
0.00150789 0.000188079 3.56665e-06
0.000188079 0.000184862 -3.00706e-06
3.56665e-06 -3.00706e-06 3.48494e-05
0.000899791 0.000149322 -1.2302e-07
0.000149322 3.12852e-05 -1.38213e-06
-1.2302e-07 -1.38213e-06 -0.000110881
0.00105471 0.000143986 -1.41467e-06
0.000143986 0.000223247 -3.8526e-07
-1.41467e-06 -3.8526e-07 9.70962e-05
0.000955337 0.000143945 -1.22133e-06
0.000143945 0.000133019 -7.58298e-07
-1.22133e-06 -7.58298e-07 -4.22417e-06
0.0010912 0.00016216 4.18323e-06
0.00016216 0.00015142 1.94556e-06
4.18323e-06 1.94556e-06 2.57772e-05
0.00203608 0.000256186 -6.13115e-06
0.000256186 0.000384917 -5.19161e-06
-6.13115e-06 -5.19161e-06 0.000241445
0.00156794 0.0001999 4.32002e-08
0.0001999 0.00039462 2.09298e-06
4.32002e-08 2.09298e-06 0.000266013
0.00114638 0.000203351 2.46664e-06
0.000203351 1.69455e-05 1.21423e-05
2.46664e-06 1.21423e-05 -0.000122128
0.00173666 0.000263187 -8.32479e-07
0.000263187 0.000193999 9.51634e-07
-8.32479e-07 9.51634e-07 4.43114e-05
0.00221184 0.00026674 -6.64325e-06
0.00026674 0.00032424 2.52394e-06
-6.64325e-06 2.52394e-06 0.000185073
0.00122727 0.000105339 1.39976e-05
0.000105339 -0.000234889 4.53286e-06
1.39976e-05 4.53286e-06 -0.000308807
0.00164715 0.000233675 8.23357e-06
0.000233675 5.54598e-05 2.51416e-06
8.23357e-06 2.51416e-06 -6.64349e-05
0.00120652 0.00026433 -5.81231e-06
0.00026433 -0.00012443 -2.55946e-06
-5.81231e-06 -2.55946e-06 -0.000283421
0.000928875 0.000136953 -4.08796e-06
0.000136953 -0.000118925 1.19895e-06
-4.08796e-06 1.19895e-06 -0.000128463
0.0047192 8.93849e-05 4.55616e-05
8.93849e-05 0.000511798 5.90936e-06
4.55616e-05 5.90936e-06 9.64072e-05
0.00108463 0.000240073 3.00143e-06
0.000240073 -4.13722e-05 -9.42482e-06
3.00143e-06 -9.42482e-06 -6.80314e-05
0.00159981 -2.66099e-05 1.13066e-05
-2.66099e-05 4.2558e-05 1.17972e-06
1.13066e-05 1.17972e-06 -8.49613e-06
0.00205062 -4.94527e-05 -4.60205e-06
-4.94527e-05 0.000165111 -2.13149e-07
-4.60205e-06 -2.13149e-07 7.67051e-05
0.00207058 0.00012361 5.74811e-05
0.00012361 -0.000115505 -4.19126e-06
5.74811e-05 -4.19126e-06 -0.000409911
-0.00126382 -4.85263e-05 -1.24524e-05
-4.85263e-05 -0.00154392 7.82616e-06
-1.24524e-05 7.82616e-06 -0.00156471
0.00234053 -3.60097e-05 -5.13807e-05
-3.60097e-05 0.000291844 5.71971e-06
-5.13807e-05 5.71971e-06 0.000232438
0.00150842 -5.9569e-05 7.72731e-07
-5.9569e-05 -0.000171838 2.09292e-06
7.72731e-07 2.09292e-06 -0.000209117
0.00220472 -3.65584e-05 -9.38779e-07
-3.65584e-05 0.00026424 1.55085e-07
-9.38779e-07 1.55085e-07 0.000211643
0.00195226 -0.000101438 5.32522e-06
-0.000101438 8.88293e-05 1.49627e-06
5.32522e-06 1.49627e-06 4.15388e-05
0.00173204 -3.36248e-05 2.12139e-06
-3.36248e-05 -2.61232e-05 2.62626e-07
2.12139e-06 2.62626e-07 -8.99201e-05
0.00208634 -9.96791e-05 4.39521e-07
-9.96791e-05 9.50555e-05 3.85312e-07
4.39521e-07 3.85312e-07 6.90005e-05
0.00179935 -9.30981e-05 -1.60545e-06
-9.30981e-05 5.32585e-05 2.10132e-07
-1.60545e-06 2.10132e-07 4.20909e-06
0.00182398 -9.59431e-05 3.40705e-06
-9.59431e-05 9.2804e-05 4.48753e-07
3.40705e-06 4.48753e-07 1.9199e-05
0.00195695 -0.000128537 -2.61214e-06
-0.000128537 0.000129026 -5.44129e-08
-2.61214e-06 -5.44129e-08 6.83073e-05
0.00176356 -0.000106092 -3.35193e-07
-0.000106092 0.000100598 -2.26892e-07
-3.35193e-07 -2.26892e-07 2.07399e-05
0.00170663 -9.30866e-05 2.28998e-06
-9.30866e-05 8.96452e-05 1.839e-07
2.28998e-06 1.839e-07 -9.15521e-06
0.00170416 -0.000128451 -6.32793e-06
-0.000128451 8.45804e-05 -1.48023e-07
-6.32793e-06 -1.48023e-07 -2.62213e-06
0.0016582 -0.000109796 9.21431e-08
-0.000109796 9.73186e-05 8.30176e-08
9.21431e-08 8.30176e-08 -8.58984e-06
0.00160599 -0.000102284 5.22854e-07
-0.000102284 0.000104192 6.17758e-07
5.22854e-07 6.17758e-07 -1.46605e-05
0.00161714 -0.000127242 -2.48402e-06
-0.000127242 9.66825e-05 -4.98615e-07
-2.48402e-06 -4.98615e-07 -1.21515e-05
0.00159072 -0.000124021 1.67185e-07
-0.000124021 0.000112394 -1.61288e-07
1.67185e-07 -1.61288e-07 -7.51798e-06
0.00151566 -0.00012252 -1.63186e-06
-0.00012252 0.000109275 6.73384e-07
-1.63186e-06 6.73384e-07 -1.593e-05
0.00150334 -0.000134925 -6.16567e-07
-0.000134925 7.88795e-05 3.05053e-07
-6.16567e-07 3.05053e-07 -4.2043e-05
0.00138189 -0.000132172 -2.53526e-07
-0.000132172 5.36859e-05 -2.1678e-07
-2.53526e-07 -2.1678e-07 -7.37691e-05
0.00134987 -0.000128303 -5.39758e-06
-0.000128303 9.0834e-05 1.48953e-06
-5.39758e-06 1.48953e-06 -3.327e-05
0.0012718 -0.000147321 3.53106e-06
-0.000147321 2.22414e-05 -2.96828e-07
3.53106e-06 -2.96828e-07 -0.000114998
0.00112426 -0.000132978 2.39376e-07
-0.000132978 -5.21249e-07 1.13165e-08
2.39376e-07 1.13165e-08 -0.000130344
0.00104047 -0.0001131 -8.42263e-06
-0.0001131 3.02426e-05 3.98889e-06
-8.42263e-06 3.98889e-06 -7.65669e-05
0.000485791 -9.61206e-05 -1.277e-05
-9.61206e-05 -0.000132423 9.04727e-06
-1.277e-05 9.04727e-06 -0.00019423
0.000971651 -0.000116572 3.77177e-07
-0.000116572 4.01291e-05 1.91788e-07
3.77177e-07 1.91788e-07 -6.94846e-05
0.00111471 -0.00014609 2.78456e-06
-0.00014609 5.68632e-05 -6.02243e-07
2.78456e-06 -6.02243e-07 -7.98272e-05
0.00379532 0.000146349 -7.65832e-05
0.000146349 0.001764 3.26396e-06
-7.65832e-05 3.26396e-06 0.00174999
0.000656673 -6.04047e-05 -8.9016e-08
-6.04047e-05 -2.68844e-05 8.53443e-08
-8.9016e-08 8.53443e-08 -8.47767e-05
0.000985912 -0.000112632 5.40599e-06
-0.000112632 9.80133e-05 -3.1899e-06
5.40599e-06 -3.1899e-06 -9.19459e-06
0.00358002 0.000123881 3.64037e-06
0.000123881 0.00163266 3.92081e-07
3.64037e-06 3.92081e-07 0.00162535
0.000747847 -3.35497e-05 8.79247e-06
-3.35497e-05 2.56967e-05 -7.20226e-06
8.79247e-06 -7.20226e-06 -2.35701e-05
0.0033201 0.000104126 7.55316e-05
0.000104126 0.0014804 -3.17491e-06
7.55316e-05 -3.17491e-06 0.00147879
0.000691184 0.000138939 -1.57125e-06
0.000138939 -0.000172643 -1.51239e-06
-1.57125e-06 -1.51239e-06 -0.000325144
0.000687561 0.000130136 -1.51529e-07
0.000130136 -8.04693e-05 -9.2576e-08
-1.51529e-07 -9.2576e-08 -0.000223145
0.00113252 0.000142019 -2.57804e-06
0.000142019 0.000171916 -1.7355e-06
-2.57804e-06 -1.7355e-06 4.39415e-05
0.000930259 0.000133861 -4.86493e-07
0.000133861 0.000106261 1.93289e-07
-4.86493e-07 1.93289e-07 -2.16224e-05
0.000985059 0.000122055 -3.14274e-07
0.000122055 0.000135536 -4.13862e-07
-3.14274e-07 -4.13862e-07 2.19414e-05
0.000914671 6.71816e-05 -3.49052e-06
6.71816e-05 0.000114839 -2.08666e-06
-3.49052e-06 -2.08666e-06 2.32842e-05
0.000878372 7.85055e-05 -5.6064e-08
7.85055e-05 9.27246e-05 -3.96866e-07
-5.6064e-08 -3.96866e-07 -7.39319e-06
0.000751021 1.80158e-05 -1.27327e-07
1.80158e-05 3.62817e-05 1.20795e-07
-1.27327e-07 1.20795e-07 -4.54135e-05
0.000628522 -4.42339e-05 -3.58742e-06
-4.42339e-05 -1.60787e-05 -5.51911e-06
-3.58742e-06 -5.51911e-06 -5.42202e-05
0.000707621 -5.39015e-05 2.03589e-07
-5.39015e-05 1.34565e-05 3.00035e-06
2.03589e-07 3.00035e-06 -5.53463e-05
0.000580659 -7.66741e-05 -1.34908e-08
-7.66741e-05 -3.75271e-05 -2.04378e-07
-1.34908e-08 -2.04378e-07 -7.1035e-05
0.00268904 -9.80386e-05 -5.09284e-05
-9.80386e-05 0.00112982 -2.31614e-06
-5.09284e-05 -2.31614e-06 0.0011327
0.000592967 -6.0626e-05 1.46116e-06
-6.0626e-05 -4.34481e-05 4.45939e-06
1.46116e-06 4.45939e-06 -6.75527e-05
0.0024525 -8.91799e-05 -7.81493e-07
-8.91799e-05 0.000994665 1.22073e-07
-7.81493e-07 1.22073e-07 0.00100033
0.00234997 -7.95476e-05 3.46927e-05
-7.95476e-05 0.000930049 2.98246e-06
3.46927e-05 2.98246e-06 0.000938373
0.00138735 3.75488e-05 9.87724e-06
3.75488e-05 -0.00014634 1.89134e-06
9.87724e-06 1.89134e-06 -0.000202261
0.00138287 -1.23033e-05 -2.98363e-06
-1.23033e-05 -9.25416e-05 3.58898e-06
-2.98363e-06 3.58898e-06 -0.000148306
0.00275742 -1.3613e-05 6.51297e-05
-1.3613e-05 -3.75388e-05 2.77219e-06
6.51297e-05 2.77219e-06 -0.000303852
0.00179474 0.000206176 -3.76285e-07
0.000206176 0.000267184 -4.35966e-06
-3.76285e-07 -4.35966e-06 0.000127369
0.00077263 0.000141914 -1.09417e-06
0.000141914 -6.60412e-05 1.2872e-06
-1.09417e-06 1.2872e-06 -0.000187902
0.00146084 0.000174036 -1.52387e-06
0.000174036 3.98973e-05 1.44783e-06
-1.52387e-06 1.44783e-06 -9.48476e-05
0.00162464 0.00019539 7.66244e-07
0.00019539 0.000245482 2.91598e-07
7.66244e-07 2.91598e-07 9.44158e-05
0.000434656 0.000123604 -3.99327e-06
0.000123604 -0.000211512 1.96341e-06
-3.99327e-06 1.96341e-06 -0.00034994
0.00179084 0.000212655 -4.47924e-06
0.000212655 0.000110456 1.27949e-06
-4.47924e-06 1.27949e-06 -2.33697e-05
0.00144239 0.000187787 -4.67521e-07
0.000187787 0.000324757 1.05215e-06
-4.67521e-07 1.05215e-06 0.000194467
0.00190127 0.000248247 9.19262e-08
0.000248247 0.000304076 -2.44998e-06
9.19262e-08 -2.44998e-06 0.000157331
0.00181156 0.00014415 -3.57184e-06
0.00014415 8.09301e-05 1.8725e-06
-3.57184e-06 1.8725e-06 -2.3167e-05
0.00205305 0.000278792 3.58273e-06
0.000278792 0.000366915 4.01073e-06
3.58273e-06 4.01073e-06 0.000218027
0.00206333 0.000260458 -1.53533e-06
0.000260458 0.000241767 2.07893e-08
-1.53533e-06 2.07893e-08 0.000103833
0.00132737 0.000115767 -4.5972e-07
0.000115767 -0.00015795 -1.99769e-07
-4.5972e-07 -1.99769e-07 -0.000232618
0.00128781 0.00021222 -3.38518e-06
0.00021222 -0.000114349 -3.6826e-06
-3.38518e-06 -3.6826e-06 -0.000237887
0.00117094 0.000124033 -1.59179e-05
0.000124033 3.39601e-06 -2.79849e-06
-1.59179e-05 -2.79849e-06 -1.28133e-05
0.00169561 2.65591e-06 -1.52972e-06
2.65591e-06 -3.27034e-05 5.12713e-07
-1.52972e-06 5.12713e-07 -0.000101915
0.00193861 -7.67666e-06 -1.95054e-06
-7.67666e-06 0.000231664 -4.22521e-07
-1.95054e-06 -4.22521e-07 0.000180182
0.00152772 3.23658e-06 -3.38352e-05
3.23658e-06 -7.64405e-05 -2.50608e-08
-3.38352e-05 -2.50608e-08 -0.000169654
0.000791222 -8.86182e-05 -7.65551e-06
-8.86182e-05 -0.000603758 1.15675e-06
-7.65551e-06 1.15675e-06 -0.000629766
0.00171006 -5.06697e-05 -5.94512e-06
-5.06697e-05 -4.72949e-05 -1.2989e-06
-5.94512e-06 -1.2989e-06 -0.000101535
0.00194221 -9.69117e-05 -1.20623e-06
-9.69117e-05 8.70869e-05 2.80333e-07
-1.20623e-06 2.80333e-07 4.06558e-05
0.00181911 -3.46423e-05 1.21609e-06
-3.46423e-05 2.15406e-05 -1.63965e-07
1.21609e-06 -1.63965e-07 -4.21027e-05
0.00179686 -5.17602e-05 1.43231e-06
-5.17602e-05 4.45007e-05 5.84446e-08
1.43231e-06 5.84446e-08 -2.95109e-05
0.00176444 -9.21156e-05 -3.19417e-06
-9.21156e-05 2.9727e-05 -7.03352e-07
-3.19417e-06 -7.03352e-07 -1.74521e-05
0.00183534 -9.28385e-05 4.26845e-07
-9.28385e-05 0.000103905 -6.75461e-08
4.26845e-07 -6.75461e-08 2.96833e-05
0.00182057 -7.56222e-05 1.32567e-06
-7.56222e-05 0.000108163 -3.87525e-07
1.32567e-06 -3.87525e-07 1.5642e-05
0.0017774 -0.000107188 -5.01565e-06
-0.000107188 0.000109703 -4.79898e-07
-5.01565e-06 -4.79898e-07 2.79172e-05
0.00168543 -9.26852e-05 -8.13995e-08
-9.26852e-05 8.23947e-05 5.78898e-08
-8.13995e-08 5.78898e-08 -1.79892e-05
0.0016696 -7.58026e-05 5.71124e-07
-7.58026e-05 0.000112307 1.89402e-07
5.71124e-07 1.89402e-07 -4.45417e-06
0.00167394 -0.000109166 -2.08918e-06
-0.000109166 0.000106924 -3.30697e-07
-2.08918e-06 -3.30697e-07 1.18851e-06
0.00161565 -0.000101636 3.22947e-08
-0.000101636 0.000107503 1.27707e-07
3.22947e-08 1.27707e-07 -1.12046e-05
0.00154494 -0.000100741 -1.687e-06
-0.000100741 0.000109737 8.33673e-07
-1.687e-06 8.33673e-07 -1.45639e-05
0.00160812 -0.000124026 -5.09196e-07
-0.000124026 0.000120497 -6.26591e-07
-5.09196e-07 -6.26591e-07 6.98129e-07
0.00151005 -0.00012169 1.11313e-08
-0.00012169 0.000106235 -7.34121e-08
1.11313e-08 -7.34121e-08 -1.88637e-05
0.00137573 -0.000113933 -4.84078e-06
-0.000113933 8.48799e-05 1.56214e-06
-4.84078e-06 1.56214e-06 -3.67116e-05
0.00128931 -0.000128802 1.89169e-06
-0.000128802 3.0099e-06 -4.84587e-07
1.89169e-06 -4.84587e-07 -0.00012424
0.00132384 -0.000126328 -8.16573e-08
-0.000126328 7.74513e-05 -2.44556e-08
-8.16573e-08 -2.44556e-08 -4.64095e-05
0.00108449 -0.000103182 -9.54906e-06
-0.000103182 2.51255e-05 3.89755e-06
-9.54906e-06 3.89755e-06 -7.85121e-05
0.000898231 -0.000121947 4.86324e-06
-0.000121947 -0.00012252 -1.12304e-06
4.86324e-06 -1.12304e-06 -0.00025216
0.00103071 -0.000112237 3.36796e-07
-0.000112237 2.52876e-05 1.11006e-07
3.36796e-07 1.11006e-07 -8.15244e-05
0.00206829 -2.50829e-05 -8.05608e-06
-2.50829e-05 0.000739166 6.6896e-06
-8.05608e-06 6.6896e-06 0.000676405
0.0011708 3.02183e-07 -9.64891e-05
3.02183e-07 0.000292175 9.7855e-06
-9.64891e-05 9.7855e-06 0.000273043
0.00140498 -6.04564e-05 1.03028e-06
-6.04564e-05 0.000377069 5.45191e-08
1.03028e-06 5.45191e-08 0.000314334
0.000983689 -0.000118281 6.88293e-06
-0.000118281 4.73388e-05 -3.32113e-06
6.88293e-06 -3.32113e-06 -6.26338e-05
0.00395677 0.000128624 6.96639e-06
0.000128624 0.0018512 5.43352e-07
6.96639e-06 5.43352e-07 0.00183901
0.000777714 -7.89694e-05 1.16747e-05
-7.89694e-05 3.31957e-05 -8.392e-06
1.16747e-05 -8.392e-06 -2.53195e-05
0.00365035 0.000103126 9.08877e-05
0.000103126 0.00166953 -3.95234e-06
9.08877e-05 -3.95234e-06 0.00166464
0.00192048 0.000163474 -1.51183e-07
0.000163474 0.000264547 4.41928e-07
-1.51183e-07 4.41928e-07 0.000137896
0.00094554 0.000149282 -7.00385e-07
0.000149282 -0.000139608 1.68953e-06
-7.00385e-07 1.68953e-06 -0.000281457
0.000936291 0.000154211 -3.18435e-07
0.000154211 -4.84995e-05 -1.93733e-07
-3.18435e-07 -1.93733e-07 -0.000203258
0.00113109 0.000147433 -3.58477e-06
0.000147433 0.000113081 -1.93245e-06
-3.58477e-06 -1.93245e-06 -2.39968e-05
0.000461009 0.000117183 3.70718e-07
0.000117183 -0.000205382 2.35629e-06
3.70718e-07 2.35629e-06 -0.000348536
0.00104072 0.000135163 -5.01229e-07
0.000135163 0.000124802 -7.48526e-08
-5.01229e-07 -7.48526e-08 -2.24796e-06
0.000985531 9.75177e-05 -4.53266e-06
9.75177e-05 0.000127467 -2.42652e-06
-4.53266e-06 -2.42652e-06 2.83542e-05
0.000868395 0.000113598 9.72224e-07
0.000113598 7.36863e-05 7.67715e-07
9.72224e-07 7.67715e-07 -3.87068e-05
0.000801911 5.82015e-05 -2.86018e-07
5.82015e-05 5.4772e-05 3.32587e-08
-2.86018e-07 3.32587e-08 -3.58529e-05
0.000705266 6.56631e-06 -6.83009e-06
6.56631e-06 1.4938e-05 -6.08764e-06
-6.83009e-06 -6.08764e-06 -2.91717e-05
0.000731133 2.52637e-06 1.07063e-06
2.52637e-06 2.53235e-05 2.12124e-06
1.07063e-06 2.12124e-06 -5.47345e-05
0.00056938 -5.23522e-05 -6.03389e-07
-5.23522e-05 -4.81517e-05 -1.96289e-07
-6.03389e-07 -1.96289e-07 -8.56339e-05
0.00294743 -0.000107099 -6.1981e-05
-0.000107099 0.00127708 -2.32818e-06
-6.1981e-05 -2.32818e-06 0.00127645
0.000538307 -7.42713e-05 -1.40505e-07
-7.42713e-05 -6.2231e-05 5.19773e-06
-1.40505e-07 5.19773e-06 -9.47364e-05
0.00261809 -9.93354e-05 -1.11912e-06
-9.93354e-05 0.00109141 1.41464e-07
-1.11912e-06 1.41464e-07 0.00109414
0.00241531 -8.8645e-05 3.78666e-05
-8.8645e-05 0.000973808 2.5944e-06
3.78666e-05 2.5944e-06 0.000979655
0.00180919 7.45214e-05 -2.14684e-06
7.45214e-05 3.96345e-05 1.42734e-06
-2.14684e-06 1.42734e-06 -4.15724e-05
0.00185064 3.28452e-05 9.48034e-07
3.28452e-05 0.000113513 -6.73661e-07
9.48034e-07 -6.73661e-07 5.98455e-05
0.00298847 -4.55226e-05 -2.64962e-05
-4.55226e-05 0.000636843 -4.46285e-06
-2.64962e-05 -4.46285e-06 0.00055083
0.00169418 0.000175282 -2.92475e-06
0.000175282 8.7648e-05 2.29734e-07
-2.92475e-06 2.29734e-07 -4.1293e-05
0.00168208 0.00019935 -2.44884e-06
0.00019935 0.000228661 7.42243e-08
-2.44884e-06 7.42243e-08 9.22609e-05
0.000757796 0.000145616 -1.02707e-05
0.000145616 -5.60641e-05 3.20015e-06
-1.02707e-05 3.20015e-06 -0.000168424
0.00170405 0.000180905 1.68694e-06
0.000180905 0.000171679 3.48453e-07
1.68694e-06 3.48453e-07 3.65379e-05
0.00175202 0.000203453 -1.5877e-06
0.000203453 0.000312619 3.60712e-07
-1.5877e-06 3.60712e-07 0.000160353
0.00206471 0.000144535 -3.47796e-06
0.000144535 0.000207103 1.3922e-06
-3.47796e-06 1.3922e-06 0.000103793
0.00172854 0.00021297 -1.5273e-06
0.00021297 7.76596e-05 4.36334e-07
-1.5273e-06 4.36334e-07 -5.74167e-05
0.00181926 0.00024335 3.00378e-06
0.00024335 0.000250463 7.9277e-07
3.00378e-06 7.9277e-07 0.000100056
0.00180192 0.000144239 -4.96684e-07
0.000144239 7.06402e-05 1.49946e-07
-4.96684e-07 1.49946e-07 -3.37206e-05
0.00201145 0.000257772 5.67038e-06
0.000257772 0.000205132 -7.12835e-07
5.67038e-06 -7.12835e-07 6.83702e-05
0.00154847 0.000128528 -1.73692e-05
0.000128528 -3.46097e-05 -5.92103e-06
-1.73692e-05 -5.92103e-06 -0.000108963
0.00195268 1.01798e-05 -1.43092e-08
1.01798e-05 0.000120804 2.38256e-07
-1.43092e-08 2.38256e-07 4.507e-05
0.00177811 6.56156e-06 5.59709e-07
6.56156e-06 1.38065e-05 -4.09438e-07
5.59709e-07 -4.09438e-07 -5.45302e-05
0.00229372 1.09988e-05 -1.6693e-05
1.09988e-05 0.000427204 -1.21911e-06
-1.6693e-05 -1.21911e-06 0.000375194
0.00198632 -9.36776e-05 -9.84247e-06
-9.36776e-05 0.000113273 -9.95248e-07
-9.84247e-06 -9.95248e-07 6.77861e-05
0.00193396 -3.48708e-05 -2.07678e-06
-3.48708e-05 8.17098e-05 -5.41953e-07
-2.07678e-06 -5.41953e-07 1.82733e-05
0.00181626 -5.1014e-05 4.80498e-07
-5.1014e-05 4.74149e-05 1.03736e-07
4.80498e-07 1.03736e-07 -2.39621e-05
0.00186129 -3.27562e-05 4.34455e-07
-3.27562e-05 0.000107511 -1.87122e-07
4.34455e-07 -1.87122e-07 1.57795e-05
0.00186441 -9.0221e-05 -1.59021e-06
-9.0221e-05 0.000124042 -3.40527e-07
-1.59021e-06 -3.40527e-07 4.9259e-05
0.00181051 -7.64023e-05 -3.82275e-07
-7.64023e-05 0.000108335 -1.58843e-07
-3.82275e-07 -1.58843e-07 1.51246e-05
0.00174496 -5.61012e-05 1.39053e-06
-5.61012e-05 0.000117857 -8.60272e-07
1.39053e-06 -8.60272e-07 4.43503e-06
0.00166134 -9.22828e-05 -2.24637e-06
-9.22828e-05 7.35138e-05 1.06278e-07
-2.24637e-06 1.06278e-07 -2.84596e-05
0.00165775 -7.57138e-05 -1.48791e-07
-7.57138e-05 0.00010474 1.3192e-07
-1.48791e-07 1.3192e-07 -1.19353e-05
0.00157491 -7.0471e-05 -1.64944e-06
-7.0471e-05 0.00011082 7.00082e-07
-1.64944e-06 7.00082e-07 -1.33274e-05
0.00162534 -0.000100882 -2.76112e-07
-0.000100882 0.000110865 -3.65552e-07
-2.76112e-07 -3.65552e-07 -7.68299e-06
0.00153439 -9.9866e-05 -3.45875e-08
-9.9866e-05 0.000103709 5.26592e-08
-3.45875e-08 5.26592e-08 -2.05085e-05
0.00139825 -9.51094e-05 -4.70473e-06
-9.51094e-05 8.11337e-05 1.4616e-06
-4.70473e-06 1.4616e-06 -3.97339e-05
0.00150173 -0.000120795 1.84581e-06
-0.000120795 0.000101803 -8.37137e-07
1.84581e-06 -8.37137e-07 -2.31952e-05
0.00136871 -0.000112825 -2.55821e-08
-0.000112825 8.10735e-05 3.3477e-08
-2.55821e-08 3.3477e-08 -4.03683e-05
0.00110892 -9.19526e-05 -9.85109e-06
-9.19526e-05 2.11327e-05 3.60122e-06
-9.85109e-06 3.60122e-06 -8.13978e-05
0.00129805 -0.000124379 4.93792e-06
-0.000124379 6.41895e-05 -1.4732e-06
4.93792e-06 -1.4732e-06 -5.94296e-05
0.00107226 -0.000101566 2.85903e-07
-0.000101566 1.7852e-05 2.31428e-08
2.85903e-07 2.31428e-08 -8.55748e-05
0.00216587 -4.3367e-05 -1.48572e-05
-4.3367e-05 0.000770002 5.42747e-06
-1.48572e-05 5.42747e-06 0.000714573
0.00101067 -0.000111149 8.41403e-06
-0.000111149 1.49289e-05 -3.63669e-06
8.41403e-06 -3.63669e-06 -9.19135e-05
0.00226951 -7.44332e-05 2.73181e-05
-7.44332e-05 0.000835719 -1.9629e-06
2.73181e-05 -1.9629e-06 0.000780243
0.00146654 -4.03225e-05 -0.000115857
-4.03225e-05 0.000456724 1.27442e-05
-0.000115857 1.27442e-05 0.000436267
0.002728 3.37036e-05 -9.91878e-05
3.37036e-05 0.00116752 2.89994e-06
-9.91878e-05 2.89994e-06 0.00115221
0.00234985 -9.77747e-05 6.3472e-05
-9.77747e-05 0.000889489 -8.07388e-06
6.3472e-05 -8.07388e-06 0.000837747
0.00409136 9.35903e-05 0.000106445
9.35903e-05 0.00192251 -6.22333e-06
0.000106445 -6.22333e-06 0.00191308
0.00175476 0.000138456 -2.89235e-06
0.000138456 0.000151791 -6.48251e-07
-2.89235e-06 -6.48251e-07 2.65916e-05
0.00170267 0.000163653 1.28973e-06
0.000163653 0.000214637 4.93894e-07
1.28973e-06 4.93894e-07 8.50682e-05
0.00171606 0.000155824 8.63975e-07
0.000155824 0.000157083 3.73713e-07
8.63975e-07 3.73713e-07 3.25054e-05
0.00116279 0.000149876 -4.8029e-06
0.000149876 5.4195e-05 -5.17055e-07
-4.8029e-06 -5.17055e-07 -8.29287e-05
0.00122518 0.000164602 -1.7926e-07
0.000164602 8.64471e-06 6.42447e-07
-1.7926e-07 6.42447e-07 -0.000135172
0.00114812 0.000167893 1.90103e-06
0.000167893 5.79723e-05 1.10497e-06
1.90103e-06 1.10497e-06 -9.89391e-05
0.00112346 0.000147417 -3.68226e-07
0.000147417 0.000110097 -3.49482e-08
-3.68226e-07 -3.49482e-08 -2.72413e-05
0.000992939 0.000114334 -5.80156e-06
0.000114334 8.96769e-05 -3.43158e-06
-5.80156e-06 -3.43158e-06 -1.77332e-05
0.000946747 0.000128155 1.49392e-06
0.000128155 7.64411e-05 1.5191e-06
1.49392e-06 1.5191e-06 -4.96589e-05
0.000858282 9.0037e-05 -3.36691e-07
9.0037e-05 5.83935e-05 -7.94379e-08
-3.36691e-07 -7.94379e-08 -3.93096e-05
0.000771601 4.77644e-05 -9.23404e-06
4.77644e-05 4.34448e-05 -7.07569e-06
-9.23404e-06 -7.07569e-06 -9.74846e-06
0.000679119 5.05553e-05 1.70169e-06
5.05553e-05 -1.15787e-05 1.63713e-06
1.70169e-06 1.63713e-06 -0.000100662
0.000608265 -1.55812e-05 2.87082e-07
-1.55812e-05 -3.28389e-05 -2.40851e-07
2.87082e-07 -2.40851e-07 -7.75463e-05
0.00326019 -0.000105703 -7.93984e-05
-0.000105703 0.00145812 -2.90615e-06
-7.93984e-05 -2.90615e-06 0.00145435
0.000505972 -8.08162e-05 -1.74553e-06
-8.08162e-05 -7.34935e-05 6.20063e-06
-1.74553e-06 6.20063e-06 -0.000116003
0.00288229 -0.000111884 -1.80875e-06
-0.000111884 0.00124199 2.24776e-07
-1.80875e-06 2.24776e-07 0.00124074
0.00257182 -9.96008e-05 4.23101e-05
-9.96008e-05 0.00106608 2.24871e-06
4.23101e-05 2.24871e-06 0.00106894
0.0018772 7.60753e-05 -1.73687e-06
7.60753e-05 8.03038e-05 1.15234e-06
-1.73687e-06 1.15234e-06 -6.63455e-06
0.00176996 7.39777e-05 8.19933e-07
7.39777e-05 2.43641e-05 -1.47582e-07
8.19933e-07 -1.47582e-07 -5.67763e-05
0.0022093 2.70805e-05 -2.85569e-05
2.70805e-05 0.00033535 -4.44361e-06
-2.85569e-05 -4.44361e-06 0.000284009
0.0018834 0.000129527 1.16917e-07
0.000129527 0.000140265 1.34562e-06
1.16917e-07 1.34562e-06 2.78217e-05
0.00175601 0.000174426 -9.81633e-07
0.000174426 0.000125993 -4.77868e-07
-9.81633e-07 -4.77868e-07 -2.32355e-06
0.00156969 0.000191994 -1.70667e-06
0.000191994 0.000189739 1.66783e-06
-1.70667e-06 1.66783e-06 5.69098e-05
0.00192291 0.000186564 1.04424e-06
0.000186564 0.000290206 -7.0218e-07
1.04424e-06 -7.0218e-07 0.00015475
0.00190144 0.000138743 2.66533e-07
0.000138743 0.00011903 -1.80997e-08
2.66533e-07 -1.80997e-08 1.45442e-05
0.0016531 0.000212751 5.20108e-07
0.000212751 3.88195e-05 -8.97293e-07
5.20108e-07 -8.97293e-07 -9.74697e-05
0.00176995 0.000143404 4.67596e-06
0.000143404 5.8718e-05 -1.40646e-06
4.67596e-06 -1.40646e-06 -4.59155e-05
0.00186126 1.64605e-05 1.36458e-06
1.64605e-05 9.65688e-05 5.18145e-07
1.36458e-06 5.18145e-07 7.81667e-06
0.00188419 1.06798e-05 -3.22975e-07
1.06798e-05 8.52363e-05 -4.3213e-08
-3.22975e-07 -4.3213e-08 7.8879e-06
0.00183643 1.02296e-05 -1.73651e-06
1.02296e-05 5.14854e-05 -1.25791e-06
-1.73651e-06 -1.25791e-06 -1.59919e-05
0.00168816 -6.31626e-06 -9.83364e-08
-6.31626e-06 2.47887e-05 1.03831e-07
-9.83364e-08 1.03831e-07 -7.35251e-05
0.0018266 -4.9735e-05 -1.48608e-06
-4.9735e-05 4.7348e-05 -4.52131e-08
-1.48608e-06 -4.52131e-08 -2.14361e-05
0.00185071 -3.33957e-05 -3.23068e-07
-3.33957e-05 0.000101587 4.09885e-07
-3.23068e-07 4.09885e-07 9.59664e-06
0.0018897 -3.1107e-05 1.05866e-06
-3.1107e-05 0.000170568 -6.89348e-07
1.05866e-06 -6.89348e-07 6.29993e-05
0.00180094 -7.7253e-05 -2.15574e-06
-7.7253e-05 0.000108777 2.47258e-07
-2.15574e-06 2.47258e-07 1.4892e-05
0.00173207 -5.59838e-05 2.85886e-07
-5.59838e-05 0.000110305 -3.21983e-07
2.85886e-07 -3.21983e-07 -3.01583e-06
0.00159103 -3.97295e-05 -1.7751e-06
-3.97295e-05 9.66857e-05 2.85226e-07
-1.7751e-06 2.85226e-07 -2.67697e-05
0.00164946 -7.50682e-05 -4.08073e-07
-7.50682e-05 9.92349e-05 4.54831e-08
-4.08073e-07 4.54831e-08 -1.73127e-05
0.00155488 -6.87265e-05 -8.3489e-08
-6.87265e-05 9.83317e-05 4.31071e-08
-8.3489e-08 4.31071e-08 -2.56897e-05
0.00142887 -7.18427e-05 -4.68758e-06
-7.18427e-05 8.37597e-05 1.46313e-06
-4.68758e-06 1.46313e-06 -3.81165e-05
0.00152374 -9.89169e-05 1.80492e-06
-9.89169e-05 9.76264e-05 -7.37e-07
1.80492e-06 -7.37e-07 -2.64984e-05
0.0014 -9.43022e-05 -5.98063e-08
-9.43022e-05 8.17792e-05 2.77032e-08
-5.98063e-08 2.77032e-08 -3.8973e-05
0.00112789 -7.79144e-05 -9.91093e-06
-7.79144e-05 1.85762e-05 3.02676e-06
-9.91093e-06 3.02676e-06 -8.38147e-05
0.00136048 -0.000111625 4.90679e-06
-0.000111625 7.66015e-05 -1.51617e-06
4.90679e-06 -1.51617e-06 -4.46778e-05
0.00110673 -8.99754e-05 2.03005e-07
-8.99754e-05 1.86824e-05 1.21728e-07
2.03005e-07 1.21728e-07 -8.34702e-05
0.00224803 -6.40498e-05 -2.19823e-05
-6.40498e-05 0.00079855 4.47785e-06
-2.19823e-05 4.47785e-06 0.000748331
0.00105563 -9.99e-05 9.37596e-06
-9.99e-05 8.12907e-06 -3.81444e-06
9.37596e-06 -3.81444e-06 -9.50764e-05
0.00231356 -8.45766e-05 2.43689e-05
-8.45766e-05 0.000842658 -2.19553e-06
2.43689e-05 -2.19553e-06 0.000792043
0.00157271 -3.70814e-05 -0.000115465
-3.70814e-05 0.000512558 1.18172e-05
-0.000115465 1.18172e-05 0.000491773
0.00244313 -0.000107972 7.12397e-05
-0.000107972 0.000921886 -1.04064e-05
7.12397e-05 -1.04064e-05 0.00087055
0.00139677 3.36182e-05 -6.08352e-05
3.36182e-05 0.000436516 3.67303e-06
-6.08352e-05 3.67303e-06 0.000404285
0.00418253 0.000247717 -2.74727e-06
0.000247717 0.00201395 -3.79077e-06
-2.74727e-06 -3.79077e-06 0.0019744
0.00168098 0.000110095 -4.76245e-07
0.000110095 9.34117e-05 5.99751e-07
-4.76245e-07 5.99751e-07 -2.8393e-05
0.00167184 0.000130972 -1.81257e-06
0.000130972 0.000165893 -8.35779e-07
-1.81257e-06 -8.35779e-07 4.03586e-05
0.00176257 0.000141204 -2.00446e-06
0.000141204 0.00015832 6.51981e-08
-2.00446e-06 6.51981e-08 3.34265e-05
0.00172005 0.000160765 -3.21859e-06
0.000160765 0.000295404 -1.29279e-07
-3.21859e-06 -1.29279e-07 0.000167805
0.0015213 0.000158169 5.28748e-07
0.000158169 0.000113274 -5.67999e-07
5.28748e-07 -5.67999e-07 -1.6268e-05
0.0014921 0.000147551 4.3264e-06
0.000147551 3.97961e-05 6.09877e-07
4.3264e-06 6.09877e-07 -8.2694e-05
0.000997238 0.000120025 -8.08968e-06
0.000120025 3.28905e-05 -3.32758e-06
-8.08968e-06 -3.32758e-06 -7.8676e-05
0.00123329 0.000154734 -4.86822e-07
0.000154734 9.17553e-05 6.25896e-07
-4.86822e-07 6.25896e-07 -4.63432e-05
0.00155652 0.000182383 3.17164e-06
0.000182383 0.000184096 -2.55687e-08
3.17164e-06 -2.55687e-08 3.81991e-05
0.00111374 0.000147429 3.21293e-06
0.000147429 0.000106021 2.03368e-06
3.21293e-06 2.03368e-06 -3.15956e-05
0.000926765 0.000109495 -4.09885e-07
0.000109495 5.37017e-05 -2.34612e-07
-4.09885e-07 -2.34612e-07 -5.29146e-05
0.000789803 9.86113e-05 -1.37057e-05
9.86113e-05 4.4927e-05 -8.31564e-06
-1.37057e-05 -8.31564e-06 -1.70591e-05
0.00074209 8.26556e-05 3.24051e-06
8.26556e-05 -4.58083e-06 2.13205e-06
3.24051e-06 2.13205e-06 -0.000100974
0.000654134 4.26978e-05 -1.76379e-08
4.26978e-05 -1.41012e-05 -7.77817e-09
-1.76379e-08 -7.77817e-09 -6.74388e-05
0.00366855 -9.20122e-05 -9.56715e-05
-9.20122e-05 0.00169606 -5.11627e-06
-9.56715e-05 -5.11627e-06 0.00168787
0.000535933 -2.61399e-05 3.02983e-06
-2.61399e-05 -7.03815e-05 6.25577e-06
3.02983e-06 6.25577e-06 -0.000113756
0.00320312 -0.000126117 -3.3492e-06
-0.000126117 0.00142782 3.71923e-07
-3.3492e-06 3.71923e-07 0.00142134
0.00281903 -0.00011323 4.85071e-05
-0.00011323 0.00120713 2.05986e-06
4.85071e-05 2.05986e-06 0.00120602
0.00178549 7.01788e-05 9.77396e-07
7.01788e-05 5.98404e-05 1.21072e-06
9.77396e-07 1.21072e-06 -3.87722e-05
0.00182429 7.80205e-05 -3.91217e-07
7.80205e-05 4.91175e-05 2.09275e-07
-3.91217e-07 2.09275e-07 -3.75014e-05
0.00177659 7.42704e-05 1.99615e-06
7.42704e-05 2.53903e-05 -1.78511e-06
1.99615e-06 -1.78511e-06 -5.56538e-05
0.001874 0.000128191 5.34733e-07
0.000128191 0.000134249 -8.4919e-08
5.34733e-07 -8.4919e-08 2.24987e-05
0.00182461 0.000173909 8.2872e-10
0.000173909 0.000168183 -1.23496e-06
8.2872e-10 -1.23496e-06 4.04508e-05
0.00175516 0.000133051 2.19112e-06
0.000133051 3.89951e-05 -1.51181e-06
2.19112e-06 -1.51181e-06 -6.6613e-05
0.00184434 1.83359e-05 3.43319e-07
1.83359e-05 0.000110353 4.4872e-07
3.43319e-07 4.4872e-07 1.25347e-05
0.00187275 1.777e-05 3.54183e-07
1.777e-05 0.000103058 -1.8238e-07
3.54183e-07 -1.8238e-07 1.3376e-05
0.00182138 1.16912e-05 7.94296e-07
1.16912e-05 5.0812e-05 -2.55434e-07
7.94296e-07 -2.55434e-07 -2.81598e-05
0.00177108 -1.31292e-05 -1.15785e-06
-1.31292e-05 6.94494e-05 1.0404e-07
-1.15785e-06 1.0404e-07 -2.78254e-05
0.00173751 -1.46824e-05 1.27532e-06
-1.46824e-05 8.48206e-05 -4.09392e-07
1.27532e-06 -4.09392e-07 -2.33976e-05
0.00184016 -3.39447e-05 -1.01821e-06
-3.39447e-05 9.58297e-05 4.92158e-07
-1.01821e-06 4.92158e-07 3.56825e-06
0.00179621 -3.12178e-05 -2.26032e-07
-3.12178e-05 0.00011953 2.89459e-07
-2.26032e-07 2.89459e-07 9.92768e-06
0.00165663 -1.97264e-05 8.66976e-08
-1.97264e-05 0.000110903 -3.81127e-07
8.66976e-08 -3.81127e-07 -8.97258e-06
0.00171332 -5.64175e-05 -1.53596e-07
-5.64175e-05 9.95536e-05 1.48758e-07
-1.53596e-07 1.48758e-07 -1.3712e-05
0.00158443 -4.11988e-05 -4.65942e-07
-4.11988e-05 9.08892e-05 9.22412e-08
-4.65942e-07 9.22412e-08 -3.25574e-05
0.00145798 -4.12702e-05 -5.60687e-06
-4.12702e-05 8.22168e-05 1.62091e-06
-5.60687e-06 1.62091e-06 -4.12259e-05
0.00153599 -6.84956e-05 1.27945e-06
-6.84956e-05 8.63254e-05 -6.07798e-07
1.27945e-06 -6.07798e-07 -3.76373e-05
0.00142051 -7.04558e-05 7.56125e-08
-7.04558e-05 7.90711e-05 -6.499e-08
7.56125e-08 -6.499e-08 -4.26607e-05
0.00113332 -5.9564e-05 -9.888e-06
-5.9564e-05 9.04486e-06 2.6361e-06
-9.888e-06 2.6361e-06 -9.40297e-05
0.001399 -9.33595e-05 4.71351e-06
-9.33595e-05 8.0967e-05 -1.41924e-06
4.71351e-06 -1.41924e-06 -3.9665e-05
0.00113259 -7.57229e-05 1.58267e-08
-7.57229e-05 1.99201e-05 1.14184e-07
1.58267e-08 1.14184e-07 -8.2077e-05
0.00227243 -6.77884e-05 -2.53527e-05
-6.77884e-05 0.000802862 3.65591e-06
-2.53527e-05 3.65591e-06 0.000753399
0.00110222 -8.80851e-05 9.89674e-06
-8.80851e-05 1.48829e-05 -3.42707e-06
9.89674e-06 -3.42707e-06 -8.68853e-05
0.00233728 -8.28847e-05 2.32116e-05
-8.28847e-05 0.000844019 -1.86897e-06
2.32116e-05 -1.86897e-06 0.000795845
0.00164456 -3.36873e-05 -0.000116129
-3.36873e-05 0.000545362 1.0254e-05
-0.000116129 1.0254e-05 0.000525189
0.00244813 -9.93639e-05 7.19258e-05
-9.93639e-05 0.000912169 -9.35378e-06
7.19258e-05 -9.35378e-06 0.000863715
0.00143527 1.39142e-05 -5.55036e-05
1.39142e-05 0.000447073 4.0778e-06
-5.55036e-05 4.0778e-06 0.000419785
0.00139147 7.6492e-05 4.88399e-06
7.6492e-05 0.000441819 -4.43016e-06
4.88399e-06 -4.43016e-06 0.000404317
0.00184731 6.8466e-05 7.41106e-07
6.8466e-05 0.00015013 1.35749e-06
7.41106e-07 1.35749e-06 4.1041e-05
0.0015474 9.78512e-05 -2.24007e-06
9.78512e-05 7.80272e-05 -3.97207e-07
-2.24007e-06 -3.97207e-07 -4.75032e-05
0.00171589 0.000112278 -1.14314e-06
0.000112278 0.000110589 -9.06304e-08
-1.14314e-06 -9.06304e-08 -1.00688e-05
0.00160502 0.000130038 -4.16505e-06
0.000130038 0.000192931 -1.20834e-06
-4.16505e-06 -1.20834e-06 7.19628e-05
0.00172089 0.00013291 9.7706e-07
0.00013291 0.000195269 4.01598e-07
9.7706e-07 4.01598e-07 7.0004e-05
0.001759 0.00014365 3.21324e-06
0.00014365 0.000159073 4.65601e-07
3.21324e-06 4.65601e-07 3.44316e-05
0.00102762 0.000115138 -9.58836e-06
0.000115138 -4.14658e-06 -2.98414e-06
-9.58836e-06 -2.98414e-06 -0.000112964
0.00144057 0.000151202 2.73518e-06
0.000151202 0.000139008 5.13004e-07
2.73518e-06 5.13004e-07 1.03655e-05
0.00134014 0.000152312 2.85847e-06
0.000152312 1.13913e-05 -8.48778e-07
2.85847e-06 -8.48778e-07 -0.000118061
0.000714776 0.000120539 -1.69638e-05
0.000120539 -1.30154e-05 -8.36587e-06
-1.69638e-05 -8.36587e-06 -7.93221e-05
0.00100644 0.000119723 -7.94659e-07
0.000119723 3.7862e-05 2.74902e-07
-7.94659e-07 2.74902e-07 -7.35165e-05
0.00130742 0.000159759 5.05074e-06
0.000159759 0.000131409 2.19777e-06
5.05074e-06 2.19777e-06 -7.70164e-06
0.000875263 0.000105431 5.23657e-06
0.000105431 2.62154e-05 3.17288e-06
5.23657e-06 3.17288e-06 -7.97559e-05
0.000656294 8.80307e-05 -1.12874e-07
8.80307e-05 -2.22161e-05 6.54036e-08
-1.12874e-07 6.54036e-08 -8.36854e-05
0.00424706 -8.03715e-05 -0.000107529
-8.03715e-05 0.00202694 -8.46282e-06
-0.000107529 -8.46282e-06 0.00201101
0.000552477 3.36261e-05 6.51915e-06
3.36261e-05 -6.57219e-05 6.99615e-06
6.51915e-06 6.99615e-06 -0.000117688
0.00356718 -0.000129199 -6.13102e-06
-0.000129199 0.00164197 4.24133e-07
-6.13102e-06 4.24133e-07 0.00163073
0.00312384 -0.000129911 5.66367e-05
-0.000129911 0.00138303 2.00876e-06
5.66367e-05 2.00876e-06 0.00137639
0.00178871 4.93874e-05 4.71193e-07
4.93874e-05 8.42109e-05 3.18484e-07
4.71193e-07 3.18484e-07 -1.71766e-05
0.00178323 6.94692e-05 1.77109e-08
6.94692e-05 5.94431e-05 3.46517e-07
1.77109e-08 3.46517e-07 -3.87251e-05
0.00176031 7.94472e-05 3.14867e-06
7.94472e-05 1.33776e-05 -7.51815e-07
3.14867e-06 -7.51815e-07 -7.29203e-05
0.00186123 0.000126663 6.45698e-07
0.000126663 0.000126379 -1.35025e-06
6.45698e-07 -1.35025e-06 1.5333e-05
0.00175822 -3.95699e-06 1.06151e-06
-3.95699e-06 9.15769e-05 7.78998e-08
1.06151e-06 7.78998e-08 -1.73354e-05
0.00187467 1.50384e-05 -6.75367e-08
1.50384e-05 0.000124723 -1.07659e-07
-6.75367e-08 -1.07659e-07 2.7078e-05
0.0018814 1.85487e-05 -8.28716e-07
1.85487e-05 0.000108165 -1.76715e-07
-8.28716e-07 -1.76715e-07 1.75641e-05
0.00186137 -1.68043e-05 -2.61688e-06
-1.68043e-05 0.000118288 -2.8021e-07
-2.61688e-06 -2.8021e-07 2.20453e-05
0.00173582 -8.54783e-06 -7.52068e-07
-8.54783e-06 8.35239e-05 -9.90492e-08
-7.52068e-07 -9.90492e-08 -2.38976e-05
0.00178174 -3.06237e-06 6.89599e-07
-3.06237e-06 0.000170694 -3.13399e-07
6.89599e-07 -3.13399e-07 5.3446e-05
0.00170323 -3.1388e-05 -1.0497e-06
-3.1388e-05 6.86534e-05 1.03956e-06
-1.0497e-06 1.03956e-06 -4.29772e-05
0.00166863 -1.92705e-05 5.90479e-07
-1.92705e-05 0.000117522 3.51887e-08
5.90479e-07 3.51887e-08 -3.4402e-06
0.0013729 -1.42704e-05 -4.3745e-06
-1.42704e-05 1.86952e-05 5.76845e-07
-4.3745e-06 5.76845e-07 -0.000104723
0.00157179 -4.11025e-05 6.34448e-07
-4.11025e-05 8.20741e-05 -9.57148e-08
6.34448e-07 -9.57148e-08 -4.13089e-05
0.0014343 -3.84822e-05 -5.02931e-07
-3.84822e-05 6.95536e-05 3.09082e-07
-5.02931e-07 3.09082e-07 -5.36587e-05
0.00116316 -3.70421e-05 -1.01592e-05
-3.70421e-05 9.17508e-06 2.4882e-06
-1.01592e-05 2.4882e-06 -9.60081e-05
0.00141053 -6.70731e-05 4.41065e-06
-6.70731e-05 7.34979e-05 -1.53133e-06
4.41065e-06 -1.53133e-06 -4.79553e-05
0.00114876 -5.91449e-05 -2.26681e-08
-5.91449e-05 1.64647e-05 2.68326e-08
-2.26681e-08 2.68326e-08 -8.64724e-05
0.000683874 -4.40862e-05 -1.50767e-05
-4.40862e-05 -8.51329e-05 3.79455e-06
-1.50767e-05 3.79455e-06 -0.000143737
0.00114099 -7.3752e-05 9.98866e-06
-7.3752e-05 2.31084e-05 -2.90283e-06
9.98866e-06 -2.90283e-06 -7.84832e-05
0.00151407 -5.95805e-05 2.93519e-05
-5.95805e-05 0.000379862 -1.50958e-06
2.93519e-05 -1.50958e-06 0.000328387
0.00485789 -6.89766e-05 -0.000140647
-6.89766e-05 0.00232116 6.78309e-06
-0.000140647 6.78309e-06 0.00231845
0.00243581 -8.28921e-05 7.23131e-05
-8.28921e-05 0.000894102 -7.78236e-06
7.23131e-05 -7.78236e-06 0.000848088
0.00146483 -8.27367e-06 -4.94665e-05
-8.27367e-06 0.000452025 3.63788e-06
-4.94665e-05 3.63788e-06 0.0004283
0.00133521 1.23167e-05 1.72209e-05
1.23167e-05 0.000393888 -3.37779e-06
1.72209e-05 -3.37779e-06 0.000365465
0.00187101 4.74714e-05 1.09042e-06
4.74714e-05 0.000166285 7.09484e-07
1.09042e-06 7.09484e-07 5.97382e-05
0.00162794 6.23164e-05 -7.27594e-07
6.23164e-05 0.000105468 8.02517e-07
-7.27594e-07 8.02517e-07 -1.44351e-05
0.00185335 6.57253e-05 8.58903e-08
6.57253e-05 0.000155696 -6.15355e-08
8.58903e-08 -6.15355e-08 4.60695e-05
0.00116975 9.0769e-05 -5.34575e-06
9.0769e-05 -7.05281e-05 -1.5894e-06
-5.34575e-06 -1.5894e-06 -0.000193748
0.00166353 0.000100874 -1.21443e-07
0.000100874 0.000143144 -2.2648e-08
-1.21443e-07 -2.2648e-08 1.87286e-05
0.00175763 0.000114965 -7.0602e-07
0.000114965 0.000131389 -9.42562e-07
-7.0602e-07 -9.42562e-07 1.18492e-05
0.000665773 8.47087e-05 -1.17684e-05
8.47087e-05 -0.000235777 -3.46579e-06
-1.17684e-05 -3.46579e-06 -0.000341873
0.00163506 0.000133098 1.291e-06
0.000133098 0.00021015 2.25792e-07
1.291e-06 2.25792e-07 8.85603e-05
0.00177419 0.000135278 3.69973e-06
0.000135278 0.000227085 1.11759e-06
3.69973e-06 1.11759e-06 0.000102043
0.00064629 0.000111148 -1.67602e-05
0.000111148 -7.4433e-05 -6.96952e-06
-1.67602e-05 -6.96952e-06 -0.000138433
0.000832174 0.000107246 1.8412e-07
0.000107246 -0.000113062 2.63027e-07
1.8412e-07 2.63027e-07 -0.00022266
0.0011567 0.000141373 7.57763e-06
0.000141373 -1.99023e-05 1.26718e-06
7.57763e-06 1.26718e-06 -0.000149536
0.00475414 -8.87552e-05 -0.000108979
-8.87552e-05 0.00231128 -1.05512e-05
-0.000108979 -1.05512e-05 0.00228758
0.000641448 0.00011006 1.03778e-06
0.00011006 -5.10711e-05 2.77452e-07
1.03778e-06 2.77452e-07 -0.00011655
0.0010021 0.000118783 7.52839e-06
0.000118783 3.57605e-05 4.16361e-06
7.52839e-06 4.16361e-06 -7.54198e-05
0.000524212 7.87225e-05 1.03741e-05
7.87225e-05 -8.99813e-05 7.95729e-06
1.03741e-05 7.95729e-06 -0.000150703
0.00400834 -0.000119559 -8.36521e-06
-0.000119559 0.00189794 5.21752e-07
-8.36521e-06 5.21752e-07 0.00188117
0.00342638 -0.000147687 6.54244e-05
-0.000147687 0.00156468 2.20681e-06
6.54244e-05 2.20681e-06 0.00155128
0.00180889 2.73131e-05 -4.61884e-07
2.73131e-05 0.000117794 -2.98521e-08
-4.61884e-07 -2.98521e-08 9.76659e-06
0.00179868 4.86982e-05 -1.53218e-07
4.86982e-05 8.60773e-05 2.22617e-07
-1.53218e-07 2.22617e-07 -1.51564e-05
0.00178473 6.92616e-05 -7.46607e-08
6.92616e-05 6.09887e-05 -6.43398e-07
-7.46607e-08 -6.43398e-07 -3.67526e-05
0.00172521 7.3214e-06 7.31212e-07
7.3214e-06 0.000131993 -2.44922e-07
7.31212e-07 -2.44922e-07 1.4331e-05
0.00174988 -7.01167e-07 -1.13134e-07
-7.01167e-07 8.99725e-05 5.32179e-08
-1.13134e-07 5.32179e-08 -1.81071e-05
0.00190103 9.33005e-06 -1.32831e-06
9.33005e-06 0.000136887 -1.21085e-07
-1.32831e-06 -1.21085e-07 3.94187e-05
0.00172615 -3.70926e-06 -1.80671e-06
-3.70926e-06 7.7684e-05 4.91212e-07
-1.80671e-06 4.91212e-07 -2.8924e-05
0.00177177 -5.0753e-07 1.03837e-06
-5.0753e-07 0.00016483 -1.87142e-07
1.03837e-06 -1.87142e-07 4.76014e-05
0.00174861 -5.9116e-07 -2.79057e-06
-5.9116e-07 0.000215045 7.2579e-08
-2.79057e-06 7.2579e-08 9.59776e-05
0.00168742 -1.87561e-05 1.48395e-06
-1.87561e-05 0.000127758 2.83891e-07
1.48395e-06 2.83891e-07 5.71355e-06
0.00159643 -1.25735e-05 -8.24671e-09
-1.25735e-05 0.000142082 6.87133e-08
-8.24671e-09 6.87133e-08 2.01398e-05
0.000820507 -1.32594e-05 -1.2203e-05
-1.32594e-05 -0.000196213 2.01363e-06
-1.2203e-05 2.01363e-06 -0.000306492
0.00141752 -3.79234e-05 3.9655e-06
-3.79234e-05 6.05073e-05 -9.42922e-07
3.9655e-06 -9.42922e-07 -6.26085e-05
0.00116151 -3.436e-05 4.42248e-08
-3.436e-05 7.70632e-06 1.06027e-07
4.42248e-08 1.06027e-07 -9.72689e-05
0.000684822 -1.969e-05 -1.49304e-05
-1.969e-05 -9.44255e-05 2.88205e-06
-1.49304e-05 2.88205e-06 -0.000155147
0.00116452 -5.75351e-05 1.01906e-05
-5.75351e-05 2.39674e-05 -2.66471e-06
1.01906e-05 -2.66471e-06 -7.87233e-05
0.000686788 -3.05581e-05 -2.54157e-07
-3.05581e-05 -8.43103e-05 1.33271e-07
-2.54157e-07 1.33271e-07 -0.000142924
0.00489551 -3.58698e-05 -0.000135458
-3.58698e-05 0.00233854 4.80785e-06
-0.000135458 4.80785e-06 0.00233698
0.000726415 -5.09744e-05 1.55317e-05
-5.09744e-05 -5.80086e-05 -5.5117e-06
1.55317e-05 -5.5117e-06 -0.000116113
0.0031387 -4.19823e-05 5.84953e-05
-4.19823e-05 0.00137206 -1.63503e-07
5.84953e-05 -1.63503e-07 0.00135681
0.00127296 -1.99353e-05 2.35915e-05
-1.99353e-05 0.000352973 -3.16262e-06
2.35915e-05 -3.16262e-06 0.000325501
0.00181793 3.56352e-05 1.65671e-07
3.56352e-05 0.000155537 2.11043e-07
1.65671e-07 2.11043e-07 4.62135e-05
0.00160305 3.47059e-05 -4.17532e-07
3.47059e-05 9.06421e-05 9.20642e-07
-4.17532e-07 9.20642e-07 -2.69022e-05
0.00182909 4.51364e-05 -3.33815e-07
4.51364e-05 0.000143506 -1.94089e-07
-3.33815e-07 -1.94089e-07 3.70685e-05
0.00142692 6.42709e-05 -4.47318e-06
6.42709e-05 5.83368e-05 -3.25287e-07
-4.47318e-06 -3.25287e-07 -6.14591e-05
0.00159001 6.04531e-05 3.92502e-07
6.04531e-05 8.35132e-05 9.79193e-08
3.92502e-07 9.79193e-08 -3.71319e-05
0.00185841 6.26672e-05 -1.09148e-06
6.26672e-05 0.00016062 -1.23314e-06
-1.09148e-06 -1.23314e-06 5.04716e-05
0.000694143 6.82917e-05 -1.19025e-05
6.82917e-05 -0.000240301 -3.24008e-06
-1.19025e-05 -3.24008e-06 -0.000345981
0.00151507 0.000101577 -1.39106e-06
0.000101577 0.000119333 -3.48065e-07
-1.39106e-06 -3.48065e-07 -2.4314e-06
0.00177983 0.000103692 2.44818e-06
0.000103692 0.000208343 9.62876e-08
2.44818e-06 9.62876e-08 8.50773e-05
0.000629118 8.14303e-05 -1.56065e-05
8.14303e-05 -0.000101543 -5.60815e-06
-1.56065e-05 -5.60815e-06 -0.000162458
0.000665426 8.55475e-05 -2.54613e-06
8.55475e-05 -0.000235925 -6.5973e-07
-2.54613e-06 -6.5973e-07 -0.000342539
0.00166169 0.000136055 6.86513e-06
0.000136055 0.000225523 1.54605e-06
6.86513e-06 1.54605e-06 0.000103322
0.00497175 -1.69253e-05 -0.000124894
-1.69253e-05 0.00240081 -8.61068e-06
-0.000124894 -8.61068e-06 0.00239121
0.000614609 0.000101408 8.74401e-07
0.000101408 -8.99416e-05 3.90956e-07
8.74401e-07 3.90956e-07 -0.000154692
0.00063203 9.92572e-05 9.61231e-06
9.92572e-05 -0.000224568 3.36796e-06
9.61231e-06 3.36796e-06 -0.000334954
0.00451081 -6.24965e-05 2.45315e-06
-6.24965e-05 0.00216581 -2.50521e-07
2.45315e-06 -2.50521e-07 0.0021516
0.000524894 0.000100519 1.38828e-05
0.000100519 -0.00011153 8.29321e-06
1.38828e-05 8.29321e-06 -0.000176591
0.00379108 -0.000152007 7.66497e-05
-0.000152007 0.00178115 3.90198e-06
7.66497e-05 3.90198e-06 0.00176234
0.00177263 2.12337e-05 -3.55281e-07
2.12337e-05 0.000155583 -1.02744e-07
-3.55281e-07 -1.02744e-07 4.04097e-05
0.00176528 2.60162e-05 -1.13351e-07
2.60162e-05 9.76738e-05 6.28009e-08
-1.13351e-07 6.28009e-08 -1.09235e-05
0.00180875 4.79126e-05 -7.05665e-07
4.79126e-05 8.77633e-05 -2.16109e-07
-7.05665e-07 -2.16109e-07 -1.33141e-05
0.00172713 -1.71634e-06 -2.96204e-06
-1.71634e-06 0.00020417 -1.26044e-07
-2.96204e-06 -1.26044e-07 8.67426e-05
0.00175329 6.52238e-06 6.58386e-07
6.52238e-06 0.000147447 -4.10812e-10
6.58386e-07 -4.10812e-10 3.0747e-05
0.0017546 4.698e-06 2.14524e-07
4.698e-06 9.53366e-05 -4.03551e-08
2.14524e-07 -4.03551e-08 -1.19414e-05
0.00176197 1.00026e-06 9.53746e-07
1.00026e-06 0.000159046 2.02086e-07
9.53746e-07 2.02086e-07 4.18344e-05
0.00175025 -3.27209e-07 1.61156e-06
-3.27209e-07 0.000215994 -1.91817e-07
1.61156e-06 -1.91817e-07 9.68753e-05
0.000828062 -3.79461e-06 -1.15746e-05
-3.79461e-06 -0.000199928 8.5694e-07
-1.15746e-05 8.5694e-07 -0.000310524
0.00182065 -1.10627e-05 5.41811e-06
-1.10627e-05 0.000265955 -6.57057e-07
5.41811e-06 -6.57057e-07 0.000145487
0.00100641 -1.17526e-05 -2.46255e-06
-1.17526e-05 -9.33504e-05 4.73338e-07
-2.46255e-06 4.73338e-07 -0.00020197
0.000704501 -7.23098e-06 -1.54781e-05
-7.23098e-06 -9.502e-05 2.05748e-06
-1.54781e-05 2.05748e-06 -0.000158144
0.00116811 -3.31244e-05 1.01376e-05
-3.31244e-05 1.06527e-05 -2.30346e-06
1.01376e-05 -2.30346e-06 -9.41961e-05
0.000694227 -1.59292e-05 3.09525e-07
-1.59292e-05 -9.03422e-05 -2.60338e-09
3.09525e-07 -2.60338e-09 -0.000150857
0.00499841 -4.00413e-05 -0.000136935
-4.00413e-05 0.00239273 3.40161e-06
-0.000136935 3.40161e-06 0.0023908
0.00068074 -2.20173e-05 1.40855e-05
-2.20173e-05 -8.89478e-05 -3.29485e-06
1.40855e-05 -3.29485e-06 -0.000147031
0.00491823 -1.01099e-05 8.25577e-06
-1.01099e-05 0.00235163 8.16265e-08
8.25577e-06 8.16265e-08 0.00234925
0.00148787 -1.62281e-05 0.000119702
-1.62281e-05 0.000457794 -5.435e-06
0.000119702 -5.435e-06 0.000439383
0.00178139 2.52593e-05 -2.35106e-07
2.52593e-05 0.000186897 1.33461e-07
-2.35106e-07 1.33461e-07 7.18551e-05
0.00175302 3.87592e-05 -6.06944e-07
3.87592e-05 0.000117833 -5.1796e-08
-6.06944e-07 -5.1796e-08 9.0278e-06
0.00143775 3.26266e-05 -3.98491e-06
3.26266e-05 6.14466e-05 -1.70088e-07
-3.98491e-06 -1.70088e-07 -5.55836e-05
0.00158571 3.42412e-05 3.28185e-07
3.42412e-05 8.13673e-05 6.28205e-08
3.28185e-07 6.28205e-08 -3.62622e-05
0.00178521 4.28933e-05 -5.97709e-07
4.28933e-05 0.00011974 -1.13479e-06
-5.97709e-07 -1.13479e-06 1.34163e-05
0.00116329 5.60087e-05 -1.02563e-05
5.60087e-05 5.48862e-06 -1.81189e-06
-1.02563e-05 -1.81189e-06 -9.66133e-05
0.00142981 6.44575e-05 -4.6345e-08
6.44575e-05 5.92446e-05 2.85095e-07
-4.6345e-08 2.85095e-07 -6.05759e-05
0.00155125 5.86038e-05 6.85213e-07
5.86038e-05 6.11763e-05 -3.35036e-07
6.85213e-07 -3.35036e-07 -6.02257e-05
0.000652195 5.66639e-05 -1.526e-05
5.66639e-05 -0.000103734 -4.29255e-06
-1.526e-05 -4.29255e-06 -0.000162818
0.000913472 7.58801e-05 -3.05238e-06
7.58801e-05 -0.000119205 -5.59793e-07
-3.05238e-06 -5.59793e-07 -0.000224137
0.00186615 0.000112553 4.9133e-06
0.000112553 0.00031238 1.08268e-06
4.9133e-06 1.08268e-06 0.000192052
0.00501241 5.02865e-05 -0.000142441
5.02865e-05 0.00240603 -7.64207e-06
-0.000142441 -7.64207e-06 0.00240328
0.000622068 7.72137e-05 1.46474e-07
7.72137e-05 -0.000105124 1.04695e-07
1.46474e-07 1.04695e-07 -0.0001663
0.0006653 8.66232e-05 7.09092e-06
8.66232e-05 -0.00023604 2.19709e-06
7.09092e-06 2.19709e-06 -0.000343184
0.00482932 1.23192e-06 9.23298e-06
1.23192e-06 0.00232537 3.82089e-07
9.23298e-06 3.82089e-07 0.0023156
0.000578563 9.08666e-05 1.46656e-05
9.08666e-05 -0.000108339 7.23024e-06
1.46656e-05 7.23024e-06 -0.000173482
0.00427458 -9.70884e-05 9.57681e-05
-9.70884e-05 0.00203854 6.05757e-06
9.57681e-05 6.05757e-06 0.00202467
0.00172152 1.71524e-05 -2.73765e-06
1.71524e-05 0.000205945 -3.66423e-07
-2.73765e-06 -3.66423e-07 9.05755e-05
0.00176255 1.73202e-05 3.52228e-08
1.73202e-05 0.000152327 1.085e-07
3.52228e-08 1.085e-07 3.68291e-05
0.00172191 2.44601e-05 -1.89809e-07
2.44601e-05 7.81834e-05 1.28838e-07
-1.89809e-07 1.28838e-07 -3.09697e-05
0.000821178 -1.07317e-05 -1.20832e-05
-1.07317e-05 -0.000202031 -4.62801e-08
-1.20832e-05 -4.62801e-08 -0.000311464
0.00174965 4.86638e-06 1.68058e-06
4.86638e-06 0.000216704 -5.17559e-08
1.68058e-06 -5.17559e-08 9.92112e-05
0.0017753 5.81028e-06 1.36295e-06
5.81028e-06 0.00015981 9.22762e-08
1.36295e-06 9.22762e-08 4.40852e-05
0.00175343 -3.18069e-07 5.86302e-06
-3.18069e-07 0.000217825 -2.07602e-07
5.86302e-06 -2.07602e-07 9.86476e-05
0.000821811 -3.99249e-06 -1.85484e-06
-3.99249e-06 -0.000203563 1.99463e-07
-1.85484e-06 1.99463e-07 -0.000314204
0.000733247 -8.11119e-06 -1.58318e-05
-8.11119e-06 -8.64697e-05 8.27924e-07
-1.58318e-05 8.27924e-07 -0.000150467
0.00118087 -9.42825e-06 8.1429e-06
-9.42825e-06 3.27313e-06 -1.30723e-06
8.1429e-06 -1.30723e-06 -0.000103676
0.000704693 2.13529e-06 1.8767e-07
2.13529e-06 -9.5755e-05 1.44938e-07
1.8767e-07 1.44938e-07 -0.00015871
0.00517382 -5.2478e-05 -0.000141989
-5.2478e-05 0.00248682 2.03072e-06
-0.000141989 2.03072e-06 0.00248342
0.000709749 -4.61159e-06 1.47484e-05
-4.61159e-06 -8.28066e-05 -2.41278e-06
1.47484e-05 -2.41278e-06 -0.00014328
0.00505687 1.79022e-05 5.50289e-06
1.79022e-05 0.00242394 3.46806e-07
5.50289e-06 3.46806e-07 0.00242169
0.00494288 -5.15881e-05 0.000147563
-5.15881e-05 0.00236394 -4.03454e-06
0.000147563 -4.03454e-06 0.00236207
0.00148153 2.04324e-05 -3.98292e-06
2.04324e-05 8.46532e-05 -7.21775e-07
-3.98292e-06 -7.21775e-07 -3.15991e-05
0.00168726 2.68997e-05 4.68712e-07
2.68997e-05 0.000134646 -1.11298e-07
4.68712e-07 -1.11298e-07 2.01472e-05
0.00168871 4.20169e-05 -1.04563e-06
4.20169e-05 8.04107e-05 -1.64561e-07
-1.04563e-06 -1.64561e-07 -2.78788e-05
0.00116616 2.71062e-05 -9.93867e-06
2.71062e-05 2.03184e-06 -1.485e-06
-9.93867e-06 -1.485e-06 -9.91457e-05
0.00144006 3.26885e-05 2.40815e-07
3.26885e-05 6.21445e-05 2.01383e-09
2.40815e-07 2.01383e-09 -5.49994e-05
0.00156212 3.37195e-05 4.47061e-07
3.37195e-05 6.88852e-05 -8.51745e-07
4.47061e-07 -8.51745e-07 -4.88459e-05
0.000674963 3.42191e-05 -1.47795e-05
3.42191e-05 -0.000101749 -3.16277e-06
-1.47795e-05 -3.16277e-06 -0.000160999
0.00116286 5.75212e-05 2.40718e-08
5.75212e-05 5.52336e-06 2.84304e-07
2.40718e-08 2.84304e-07 -9.68893e-05
0.00143142 6.46055e-05 4.62606e-06
6.46055e-05 5.94456e-05 9.34069e-07
4.62606e-06 9.34069e-07 -6.04018e-05
0.00503032 7.30723e-05 -0.000154258
7.30723e-05 0.00241021 -6.65889e-06
-0.000154258 -6.65889e-06 0.00240828
0.000657374 5.68871e-05 1.09263e-07
5.68871e-05 -0.000100476 9.98682e-08
1.09263e-07 9.98682e-08 -0.000159691
0.0011224 8.33174e-05 7.41989e-06
8.33174e-05 -3.78023e-06 2.1936e-06
7.41989e-06 2.1936e-06 -0.000107938
0.00494392 6.07171e-05 5.14127e-06
6.07171e-05 0.00237334 1.02855e-06
5.14127e-06 1.02855e-06 0.00236888
0.000619336 7.35623e-05 1.46213e-05
7.35623e-05 -0.000106406 5.55357e-06
1.46213e-05 5.55357e-06 -0.000167606
0.00471257 1.47757e-05 0.000125224
1.47757e-05 0.00225622 7.65147e-06
0.000125224 7.65147e-06 0.00225099
0.00121813 8.19028e-06 -1.07626e-05
8.19028e-06 1.95558e-05 -6.0941e-07
-1.07626e-05 -6.0941e-07 -8.56247e-05
0.00154728 1.22311e-05 1.84209e-06
1.22311e-05 0.000109229 2.94725e-08
1.84209e-06 2.94725e-08 -7.75535e-06
0.00175044 1.23106e-05 9.30583e-07
1.23106e-05 0.000147665 4.74201e-07
9.30583e-07 4.74201e-07 3.18389e-05
0.000719387 1.99999e-05 -1.61739e-05
1.99999e-05 -9.89722e-05 -2.39562e-07
-1.61739e-05 -2.39562e-07 -0.000159276
0.000818148 -4.54988e-06 -2.014e-06
-4.54988e-06 -0.000204387 5.01017e-08
-2.014e-06 5.01017e-08 -0.000313931
0.00177248 1.13151e-05 6.32767e-06
1.13151e-05 0.000229367 -1.87277e-08
6.32767e-06 -1.87277e-08 0.000111805
0.000814502 -3.73882e-06 7.76018e-06
-3.73882e-06 -0.000207808 -4.03765e-07
7.76018e-06 -4.03765e-07 -0.000318485
0.000704358 2.15623e-06 7.37646e-08
2.15623e-06 -0.000102362 2.93802e-07
7.37646e-08 2.93802e-07 -0.000166188
0.0052795 5.6422e-05 -0.000150579
5.6422e-05 0.00254074 -6.41367e-07
-0.000150579 -6.41367e-07 0.00253811
0.000688532 1.11775e-05 1.49475e-05
1.11775e-05 -0.000105072 -1.3318e-06
1.49475e-05 -1.3318e-06 -0.000167915
0.00520376 -3.87067e-05 -3.1836e-06
-3.87067e-05 0.00250075 9.47984e-07
-3.1836e-06 9.47984e-07 0.00249818
0.00509644 4.78932e-05 0.000141044
4.78932e-05 0.00244419 -1.54212e-06
0.000141044 -1.54212e-06 0.0024418
0.00119689 1.34665e-05 -1.04884e-05
1.34665e-05 1.42942e-05 -1.5579e-06
-1.04884e-05 -1.5579e-06 -8.83863e-05
0.00140278 1.89307e-05 6.58471e-08
1.89307e-05 3.96352e-05 -1.15987e-07
6.58471e-08 -1.15987e-07 -7.68422e-05
0.00159734 2.84785e-05 6.25722e-07
2.84785e-05 8.46516e-05 -6.21572e-07
6.25722e-07 -6.21572e-07 -2.93075e-05
0.00251856 1.84889e-05 -7.91475e-05
1.84889e-05 0.000910047 -2.19773e-06
-7.91475e-05 -2.19773e-06 0.000865144
0.0011757 2.91354e-05 1.68952e-07
2.91354e-05 6.83025e-06 6.18699e-08
1.68952e-07 6.18699e-08 -9.45519e-05
0.00144567 3.26484e-05 4.40257e-06
3.26484e-05 6.45775e-05 1.74109e-07
4.40257e-06 1.74109e-07 -5.26747e-05
0.00504344 7.43965e-05 -0.000158556
7.43965e-05 0.00241657 -5.10398e-06
-0.000158556 -5.10398e-06 0.00241378
0.000700947 3.77113e-05 2.13165e-07
3.77113e-05 -8.67181e-05 1.8379e-07
2.13165e-07 1.8379e-07 -0.000146294
0.0011711 5.92095e-05 1.02625e-05
5.92095e-05 1.00229e-05 2.34614e-06
1.02625e-05 2.34614e-06 -9.26743e-05
0.00499834 8.53897e-05 6.31114e-07
8.53897e-05 0.00239699 1.00828e-06
6.31114e-07 1.00828e-06 0.00239361
0.000665206 5.6745e-05 1.47804e-05
5.6745e-05 -9.54441e-05 4.56387e-06
1.47804e-05 4.56387e-06 -0.000154792
0.00488198 7.64374e-05 0.000140961
7.64374e-05 0.00234089 8.52538e-06
0.000140961 8.52538e-06 0.00233648
0.000756324 7.94614e-06 -1.58672e-05
7.94614e-06 -7.31097e-05 -1.59954e-06
-1.58672e-05 -1.59954e-06 -0.00013614
0.00102349 5.55468e-06 4.97241e-07
5.55468e-06 -8.73162e-05 3.95011e-07
4.97241e-07 3.95011e-07 -0.000193831
0.00136632 7.1831e-06 5.6939e-06
7.1831e-06 8.8102e-06 5.12256e-07
5.6939e-06 5.12256e-07 -0.000109755
0.00527708 -7.89202e-05 -0.000137933
-7.89202e-05 0.00254988 -1.97317e-06
-0.000137933 -1.97317e-06 0.00254044
0.000713625 9.24196e-06 -2.03849e-07
9.24196e-06 -9.90267e-05 2.32317e-07
-2.03849e-07 2.32317e-07 -0.000161135
0.000823753 1.2822e-06 7.97039e-06
1.2822e-06 -0.000202131 5.74447e-08
7.97039e-06 5.74447e-08 -0.000311775
0.000691234 1.57962e-05 1.53077e-05
1.57962e-05 -0.000109626 -3.95652e-08
1.53077e-05 -3.95652e-08 -0.000173447
0.00529701 3.38567e-05 4.56135e-06
3.38567e-05 0.00255328 4.79468e-07
4.56135e-06 4.79468e-07 0.00254809
0.00526732 6.70663e-05 0.000143678
6.70663e-05 0.00253432 -1.15746e-07
0.000143678 -1.15746e-07 0.00253092
0.00258889 -4.10972e-06 -8.05811e-05
-4.10972e-06 0.000941689 -1.85917e-06
-8.05811e-05 -1.85917e-06 0.000895568
0.0012049 1.57672e-05 -6.07346e-08
1.57672e-05 1.83838e-05 -1.79111e-08
-6.07346e-08 -1.79111e-08 -8.43159e-05
0.00132345 1.75856e-05 4.21766e-06
1.75856e-05 -5.73463e-06 3.37011e-07
4.21766e-06 3.37011e-07 -0.000122432
0.00480827 -1.89845e-05 -2.99659e-05
-1.89845e-05 0.00229602 -8.74273e-07
-2.99659e-05 -8.74273e-07 0.00228429
0.000728825 2.3385e-05 -5.70523e-08
2.3385e-05 -7.57611e-05 2.01668e-07
-5.70523e-08 2.01668e-07 -0.000136506
0.00120117 3.18207e-05 1.02033e-05
3.18207e-05 1.99531e-05 1.6648e-06
1.02033e-05 1.6648e-06 -8.15909e-05
0.00505549 5.65851e-05 -7.34754e-06
5.65851e-05 0.00242235 2.06597e-07
-7.34754e-06 2.06597e-07 0.00242067
0.000730591 4.76369e-05 1.57101e-05
4.76369e-05 -6.90029e-05 3.8282e-06
1.57101e-05 3.8282e-06 -0.000129261
0.00496848 0.000100021 0.000148897
0.000100021 0.00238418 8.36425e-06
0.000148897 8.36425e-06 0.0023795
0.00170621 -2.60736e-05 -0.00013767
-2.60736e-05 0.000561253 3.1366e-07
-0.00013767 3.1366e-07 0.000540317
0.0016593 1.47086e-05 -3.2918e-05
1.47086e-05 0.00042417 3.68308e-07
-3.2918e-05 3.68308e-07 0.000371208
0.000830682 5.77733e-06 1.04825e-05
5.77733e-06 -0.000193122 1.23687e-06
1.04825e-05 1.23687e-06 -0.000300997
0.00526757 -3.19306e-05 8.14782e-06
-3.19306e-05 0.00254125 -9.07308e-07
8.14782e-06 -9.07308e-07 0.00253457
0.00070084 -1.21218e-07 1.59818e-05
-1.21218e-07 -0.000103658 7.6252e-07
1.59818e-05 7.6252e-07 -0.000166905
0.00529838 -4.0461e-05 0.000157491
-4.0461e-05 0.00255199 3.13672e-07
0.000157491 3.13672e-07 0.00254842
0.00139733 -5.51878e-05 -9.489e-06
-5.51878e-05 0.000412344 -8.20038e-07
-9.489e-06 -8.20038e-07 0.000377775
0.0016513 9.453e-06 -3.24461e-05
9.453e-06 0.000426867 -7.69581e-08
-3.24461e-05 -7.69581e-08 0.000373272
0.00120309 1.62943e-05 1.02098e-05
1.62943e-05 1.74154e-05 1.56906e-06
1.02098e-05 1.56906e-06 -8.53331e-05
0.00322736 3.63317e-05 5.64579e-05
3.63317e-05 0.00141718 4.75331e-07
5.64579e-05 4.75331e-07 0.00139953
0.000744984 3.19805e-05 1.5969e-05
3.19805e-05 -6.68017e-05 3.12156e-06
1.5969e-05 3.12156e-06 -0.000127853
0.0050448 0.000101012 0.000149936
0.000101012 0.00242267 6.97e-06
0.000149936 6.97e-06 0.00241786
0.0052177 -3.16916e-05 -9.45271e-06
-3.16916e-05 0.00251512 2.77806e-07
-9.45271e-06 2.77806e-07 0.00250847
0.000714725 2.4685e-05 1.64121e-05
2.4685e-05 -9.62785e-05 1.67616e-06
1.64121e-05 1.67616e-06 -0.000156279
0.00524138 6.54291e-05 0.00014149
6.54291e-05 0.00252772 -1.45462e-06
0.00014149 -1.45462e-06 0.00252085
0.00326536 2.03223e-05 6.96475e-05
2.03223e-05 0.00143635 9.46194e-07
6.96475e-05 9.46194e-07 0.00141863
0.000724593 9.24672e-06 1.56138e-05
9.24672e-06 -8.2542e-05 2.38943e-06
1.56138e-05 2.38943e-06 -0.000144058
0.00508682 -1.49993e-05 0.000141258
-1.49993e-05 0.002438 3.51145e-06
0.000141258 3.51145e-06 0.00243656
0.00517946 -0.000127306 0.000135442
-0.000127306 0.00250129 -1.01327e-07
0.000135442 -1.01327e-07 0.00249025
0.00511711 -5.99559e-05 0.000137564
-5.99559e-05 0.00245663 1.48607e-06
0.000137564 1.48607e-06 0.00245318
