# vtk DataFile Version 2.0
Wound Healing Simulation
ASCII
DATASET UNSTRUCTURED_GRID
POINTS 3012 float
69.9759 18.75 4
67.2507 60.3285 4
69.976 18.75 2
73.0099 25.446 4
71.1327 20.9142 4
68.6801 16.6661 4
67.8275 19.9215 3.98931
67.2507 60.3286 2
71.1327 54.0858 4
68.6801 58.3339 4
65.6939 62.2254 4
65.3139 59.0064 3.99085
74.6784 42.3946 4
73.7221 47.2057 4
69.9759 18.75 0
73.0099 25.446 2
68.6801 16.6661 2
71.1327 20.9142 2
67.8277 19.9217 2
74.6792 32.6053 4
73.7222 27.7943 4
72.1454 23.1494 4
70.6167 26.2211 3.98818
68.888 21.9551 3.98886
67.2507 14.6715 4
66.6388 17.9663 3.99009
65.8044 21.0169 3.98528
67.2507 60.3285 0
71.1327 54.0858 2
68.6801 58.3339 2
65.694 62.2255 2
65.314 59.0064 2
72.1454 51.8506 4
69.9759 56.25 4
68.8391 53.1157 3.98891
64.0165 64.0165 4
66.6126 57.1387 3.9903
63.8872 60.7705 3.99165
63.5059 57.7827 3.98626
60.3285 67.2507 4
74.6792 42.3947 2
73.7222 47.2057 2
74.9194 39.9526 4
74.2788 44.8158 4
72.1701 42.0853 3.98751
73.0099 49.554 4
71.2518 46.5974 3.98826
73.0099 25.446 0
71.1327 20.9142 0
68.6801 16.6661 0
67.8275 19.9215 0.0106902
74.6792 32.6053 2
73.7222 27.7943 2
67.2508 14.6715 2
72.1455 23.1494 2
70.6168 26.2221 2
66.6389 17.9663 2
68.8883 21.9556 2
65.8046 21.0168 2
74.9197 35.0474 4
74.2794 30.1841 4
72.1868 32.9435 3.98795
71.2806 28.4319 3.98814
69.8181 24.0584 3.98851
68.3543 26.9488 3.9829
66.7703 22.9271 3.98474
65.694 12.7746 4
65.3252 16.0978 3.99102
64.7203 19.1842 3.98593
63.8995 22.0222 3.98315
71.1327 54.0858 0
65.6939 62.2254 0
68.6801 58.3339 0
65.3139 59.0064 0.00914656
72.1455 51.8506 2
69.9759 56.25 2
68.8393 53.1152 2
64.0165 64.0165 2
66.6127 57.1388 2
63.8873 60.7706 2
63.506 57.7829 2
62.2254 65.694 4
58.894 65.4171 3.99255
69.7718 50.9898 3.98847
67.786 55.1715 3.98966
66.658 52.2151 3.98488
62.3371 62.4312 3.99218
64.6677 56.0413 3.9864
62.2067 59.4158 3.98652
61.8325 56.697 3.98444
58.3339 68.6801 4
60.3285 67.2508 2
73.7221 47.2057 0
74.6784 42.3946 0
74.9197 39.9526 2
74.2794 44.8159 2
72.17 42.0848 2
73.0099 49.554 2
71.2519 46.5965 2
75 37.5 4
72.4071 39.8021 3.98703
71.7848 44.3523 3.98802
69.8104 41.7899 3.98161
70.5779 48.8133 3.98833
68.9198 46.0162 3.98237
74.6792 32.6053 0
73.7222 27.7943 0
67.2507 14.6715 0
72.1454 23.1494 0
70.6167 26.2211 0.0118246
68.888 21.9551 0.0111447
66.6388 17.9663 0.00991118
65.8044 21.0169 0.0147228
74.9197 35.0474 2
74.2794 30.1841 2
72.1867 32.944 2
71.2806 28.4329 2
65.694 12.7745 2
65.3253 16.0978 2
69.8183 24.0592 2
68.3542 26.9488 2
64.7204 19.1841 2
66.7704 22.9269 2
63.8995 22.0221 2
72.415 35.2242 3.98729
71.8061 30.6767 3.98827
69.8465 33.2681 3.98207
68.9733 29.0367 3.98229
67.6191 24.9077 3.98393
66.207 27.6287 3.98078
64.0165 10.9835 4
64.7697 23.8193 3.9827
63.8912 14.3224 3.9917
63.5182 17.4348 3.98657
62.9181 20.3049 3.98363
62.11 22.9259 3.98213
60.6844 11.0942 3.99226
57.6128 11.4385 3.98743
72.1454 51.8506 0
69.9759 56.25 0
68.8391 53.1157 0.0110899
64.0165 64.0165 0
63.8872 60.7705 0.0083503
66.6126 57.1387 0.00970284
63.5059 57.7827 0.0137417
62.2255 65.694 2
58.8941 65.4172 2
69.772 50.989 2
67.7862 55.1713 2
66.6582 52.2152 2
62.3372 62.4313 2
64.6679 56.0415 2
62.2067 59.416 2
61.8327 56.6972 2
60.6691 63.9803 3.99236
57.0244 66.7375 3.99281
57.558 63.6986 3.98756
67.516 50.1807 3.98392
65.7101 54.1812 3.98588
64.5521 51.3958 3.98244
60.7754 60.9482 3.98707
62.8319 55.0827 3.98475
60.6653 58.1751 3.98439
60.3406 55.8053 3.98366
56.25 69.9759 4
58.3339 68.6801 2
60.3285 67.2507 0
58.9213 9.65269 3.99256
62.2254 9.30607 4
73.0099 49.554 0
74.2788 44.8158 0
71.2518 46.5974 0.0117405
72.1701 42.0853 0.0124925
74.9194 39.9526 0
75 37.5 2
72.407 39.8019 2
71.7847 44.3516 2
69.8102 41.7897 2
70.5781 48.8123 2
68.9197 46.0159 2
72.4904 37.5121 3.98692
70.0467 39.6574 3.98087
69.4373 43.9081 3.98206
67.6082 41.4996 3.97915
68.274 48.1097 3.98304
66.7224 45.4442 3.9803
74.9197 35.0474 0
74.2794 30.1841 0
72.1868 32.9435 0.0120477
71.2806 28.4319 0.0118631
65.694 12.7746 0
65.3252 16.0978 0.00897762
69.8181 24.0584 0.0114943
68.3543 26.9488 0.0170963
66.7703 22.9271 0.0152626
64.7203 19.1842 0.0140674
63.8995 22.0222 0.0168528
72.4149 35.2245 2
71.8061 30.6775 2
69.8463 33.2683 2
68.9732 29.0368 2
64.0165 10.9835 2
63.8913 14.3224 2
63.5183 17.4347 2
67.6192 24.9076 2
66.2069 27.6285 2
62.9182 20.3049 2
64.7697 23.8192 2
62.1099 22.926 2
60.6846 11.0942 2
57.6128 11.4382 2
70.0638 35.3919 3.98157
69.4741 31.1487 3.98225
67.6667 33.5889 3.97958
66.7843 29.6184 3.98006
65.5372 25.691 3.98182
64.1636 28.246 3.98009
62.3425 12.6511 3.99205
62.875 24.6223 3.98191
62.2021 15.773 3.98685
61.8224 18.6682 3.98445
61.2327 21.3224 3.98215
60.447 23.7069 3.98197
59.2474 12.7691 3.98704
55.8743 10.2256 3.98829
56.4067 13.1009 3.98461
69.7718 50.9898 0.0115258
62.2254 65.694 0
58.894 65.4171 0.00744816
67.786 55.1715 0.01034
66.658 52.2151 0.0151207
62.3371 62.4312 0.00782032
62.2067 59.4158 0.0134832
64.6677 56.0413 0.0135964
61.8325 56.697 0.015564
60.6692 63.9804 2
57.0246 66.7376 2
57.558 63.699 2
67.5161 50.1807 2
65.7103 54.1814 2
64.5522 51.396 2
60.7754 60.9487 2
62.8321 55.0829 2
60.6654 58.1754 2
60.3408 55.8054 2
55.0699 67.9341 3.9931
59.2205 62.3749 3.98724
55.8038 64.9152 3.98811
56.3283 62.0993 3.98488
65.346 49.4164 3.98153
63.7198 53.3054 3.98382
62.4617 50.6667 3.98118
59.3378 59.5709 3.98497
61.0927 54.3278 3.98399
59.2986 57.0317 3.98298
59.2568 55.2047 3.98383
48.102 68.5817 3.98992
50.9478 69.9333 3.99365
54.0858 71.1327 4
56.25 69.976 2
58.3339 68.6801 0
57.0584 8.33275 3.99297
60.3285 7.74928 4
58.9215 9.65264 2
62.2255 9.30602 2
70.5779 48.8133 0.0116674
71.7848 44.3523 0.0119796
68.9198 46.0162 0.017631
69.8104 41.7899 0.0183911
72.4071 39.8021 0.0129709
75 37.5 0
72.4903 37.5122 2
70.0465 39.6572 2
69.4372 43.9078 2
67.6079 41.4995 2
68.2741 48.1095 2
66.7222 45.4442 2
70.1347 37.5216 3.98084
67.8443 39.5133 3.97843
67.2354 43.473 3.97975
65.5713 41.2135 3.97841
66.0823 47.424 3.98087
64.6697 44.8555 3.97957
72.415 35.2242 0.0127051
71.8061 30.6767 0.0117327
69.8465 33.2681 0.0179274
68.9733 29.0367 0.0177147
64.0165 10.9835 0
63.8912 14.3224 0.00829977
63.5182 17.4348 0.0134284
67.6191 24.9077 0.0160699
66.207 27.6287 0.0192162
64.7697 23.8193 0.0172958
62.9181 20.3049 0.0163747
62.11 22.9259 0.0178668
60.6844 11.0942 0.00774387
57.6128 11.4385 0.0125706
70.0636 35.392 2
69.4739 31.1489 2
67.6664 33.5888 2
66.784 29.6183 2
62.3426 12.6511 2
62.2022 15.7728 2
61.8225 18.6681 2
65.5371 25.6909 2
64.1633 28.2459 2
61.2328 21.3225 2
62.8749 24.6223 2
60.4468 23.7071 2
59.2474 12.7688 2
56.4067 13.1007 2
55.8744 10.2252 2
67.8811 35.5466 3.97921
67.2772 31.6192 3.97999
65.7135 33.9239 3.97866
64.6797 30.1849 3.979
63.5562 26.402 3.98102
62.2791 28.7652 3.98047
60.7771 14.2128 3.98691
61.0678 25.3194 3.98181
60.6183 17.1122 3.98499
60.2342 19.7965 3.98309
59.6798 22.2363 3.98115
59.0029 24.2974 3.98236
54.0373 9.1292 3.98908
57.9126 14.3186 3.98483
54.7874 12.0009 3.98498
55.3149 14.6318 3.98347
67.516 50.1807 0.0160795
57.0244 66.7375 0.00719373
60.6691 63.9803 0.00764008
57.558 63.6986 0.0124362
65.7101 54.1812 0.0141151
64.5521 51.3958 0.0175553
60.7754 60.9482 0.0129307
60.6653 58.1751 0.0156129
62.8319 55.0827 0.015254
60.3406 55.8053 0.0163398
55.0701 67.9342 2
59.2205 62.3754 2
55.8038 64.9155 2
56.3283 62.0996 2
65.3461 49.4166 2
63.72 53.3056 2
62.4618 50.6667 2
59.3379 59.5714 2
61.0929 54.3279 2
59.2988 57.0319 2
59.257 55.2047 2
53.0418 69.0017 3.99341
53.9657 66.0169 3.9887
57.8835 60.8818 3.98497
54.6839 63.2141 3.98519
55.214 60.6268 3.98366
63.214 48.6731 3.98047
61.7602 52.5922 3.98277
60.2988 50.0373 3.98052
58.0245 58.2776 3.98368
59.3452 53.9687 3.98319
58.1387 55.8347 3.98164
50.1084 67.8599 3.98963
47.4621 66.5858 3.98738
46.0559 69.1611 3.99015
48.1021 68.5821 2
48.8022 70.7244 3.99385
50.948 69.9335 2
51.8506 72.1454 4
54.0858 71.1327 2
56.25 69.9759 0
55.1026 7.13746 3.9933
58.3339 6.31992 4
57.0585 8.33266 2
60.3286 7.74926 2
58.9213 9.65269 0.00743968
62.2254 9.30607 0
68.274 48.1097 0.0169584
69.4373 43.9081 0.0179419
66.7224 45.4442 0.0197005
67.6082 41.4996 0.0208519
70.0467 39.6574 0.0191305
72.4904 37.5121 0.0130822
70.1345 37.5215 2
67.844 39.5132 2
67.2352 43.4729 2
65.5709 41.2135 2
66.0822 47.4241 2
64.6694 44.8555 2
67.9405 37.5221 3.97824
65.8018 39.3722 3.97784
65.1923 43.0307 3.97886
63.7753 40.9348 3.97855
63.9842 46.726 3.97996
62.8291 44.2257 3.98006
70.0638 35.3919 0.0184332
69.4741 31.1487 0.0177456
67.6667 33.5889 0.0204174
66.7843 29.6184 0.0199424
62.3425 12.6511 0.00794603
62.2021 15.773 0.0131531
61.8224 18.6682 0.0155462
65.5372 25.691 0.0181847
64.1636 28.246 0.0199113
62.875 24.6223 0.0180936
61.2327 21.3224 0.0178487
60.447 23.7069 0.0180344
59.2474 12.7691 0.0129642
56.4067 13.1009 0.0153891
55.8743 10.2256 0.0117116
67.8807 35.5465 2
67.2769 31.6191 2
65.7131 33.9236 2
64.6793 30.1847 2
60.7771 14.2125 2
60.6185 17.112 2
60.2344 19.7966 2
63.556 26.4019 2
62.2786 28.7651 2
59.6797 22.2366 2
61.0675 25.3195 2
59.0027 24.2978 2
57.9126 14.3184 2
55.3149 14.6316 2
54.0373 9.12881 2
54.7874 12.0005 2
65.8915 35.6652 3.97831
65.2028 32.1488 3.97882
64.3034 34.2459 3.97811
62.6165 30.6256 3.97901
61.674 27.0567 3.98084
60.8758 29.1256 3.98211
59.3139 15.6547 3.98498
59.3579 25.7755 3.98297
59.131 18.3371 3.98407
58.7545 20.8317 3.98171
58.3064 23.0683 3.98031
57.9947 24.641 3.98331
52.112 8.14798 3.98962
53.0581 11.0074 3.98584
56.6796 15.727 3.98408
53.8111 13.6679 3.9832
54.3792 15.9829 3.98335
55.0699 67.9341 0.00690376
65.346 49.4164 0.0184693
55.8038 64.9152 0.0118898
59.2205 62.3749 0.0127593
56.3283 62.0993 0.0151173
63.7198 53.3054 0.0161828
62.4617 50.6667 0.0188241
59.3378 59.5709 0.0150343
59.2986 57.0317 0.0170232
61.0927 54.3278 0.016008
59.2568 55.2047 0.0161724
53.042 69.0018 2
53.9658 66.0173 2
57.8835 60.8822 2
54.6838 63.2144 2
55.214 60.6271 2
63.214 48.6732 2
61.7605 52.5923 2
60.2988 50.0373 2
58.0247 58.278 2
59.3454 53.9688 2
58.1389 55.8348 2
52.0692 67.0032 3.98924
52.9525 64.2238 3.98567
56.6524 59.5024 3.98405
53.6822 61.6303 3.98388
54.2636 59.3334 3.98306
61.019 47.896 3.97975
59.7327 52.1255 3.98245
58.0555 49.6379 3.98091
56.785 57.0072 3.98195
57.1384 54.1463 3.98122
50.1085 67.8602 2
49.3357 65.926 3.98687
47.4621 66.5862 2
46.8913 64.7422 3.98548
45.5573 67.1032 3.98763
43.9731 69.5938 3.99037
46.056 69.1615 2
46.609 71.3688 3.99403
48.102 68.5817 0.0100813
48.8023 70.7246 2
49.554 73.0099 4
50.9478 69.9333 0.00634785
51.8506 72.1455 2
54.0858 71.1327 0
53.0637 6.06909 3.9936
55.1028 7.13733 2
56.25 5.02411 4
58.3339 6.3199 2
57.0584 8.33275 0.00703064
60.3285 7.74928 0
66.0823 47.424 0.0191256
67.2354 43.473 0.0202511
64.6697 44.8555 0.0204337
65.5713 41.2135 0.0215861
67.8443 39.5133 0.0215686
70.1347 37.5216 0.019157
67.9401 37.5219 2
65.8014 39.3721 2
65.1921 43.0307 2
63.7749 40.9347 2
63.9841 46.7261 2
62.8288 44.2257 2
65.9046 37.502 3.97737
63.9187 39.2697 3.97782
63.3497 42.5573 3.97882
62.4548 40.7041 3.97809
61.9913 45.9312 3.97993
61.4775 43.6945 3.982
67.8811 35.5466 0.0207893
67.2772 31.6192 0.0200083
65.7135 33.9239 0.0213355
64.6797 30.1849 0.0210024
60.7771 14.2128 0.0130889
60.6183 17.1122 0.0150073
60.2342 19.7965 0.0169076
63.5562 26.402 0.0189793
62.2791 28.7652 0.0195262
61.0678 25.3194 0.0181889
59.6798 22.2363 0.0188548
59.0029 24.2974 0.0176436
57.9126 14.3186 0.015171
55.3149 14.6318 0.016528
54.0373 9.1292 0.010923
54.7874 12.0009 0.0150246
65.8911 35.665 2
65.2024 32.1486 2
64.303 34.2456 2
62.6159 30.6255 2
59.314 15.6544 2
59.1312 18.3369 2
58.7546 20.8319 2
61.6737 27.0567 2
60.8752 29.1256 2
58.3063 23.0687 2
59.3575 25.7758 2
57.9944 24.6415 2
56.6796 15.7268 2
54.3792 15.9828 2
53.8111 13.6676 2
52.112 8.14757 2
53.0581 11.007 2
64.1103 35.6303 3.97773
62.9529 33.0394 3.97788
60.6416 30.5986 3.9795
59.6008 27.8919 3.98179
57.9437 16.9667 3.9843
57.7695 25.7026 3.98434
57.7241 19.4556 3.98307
57.3879 21.8165 3.97996
57.2107 23.9227 3.98031
50.1121 7.28035 3.98993
51.2323 10.1161 3.98653
52.1729 12.7853 3.98398
55.541 16.9554 3.98389
52.9798 15.2494 3.98211
53.7615 16.9644 3.98354
53.0418 69.0017 0.00658691
53.9657 66.0169 0.0113033
63.214 48.6731 0.0195329
54.6839 63.2141 0.0148077
57.8835 60.8818 0.0150255
55.214 60.6268 0.0163367
61.7602 52.5922 0.0172323
60.2988 50.0373 0.0194765
58.0245 58.2776 0.016317
58.1387 55.8347 0.0183603
59.3452 53.9687 0.0168073
52.0693 67.0035 2
52.9525 64.2242 2
56.6526 59.5028 2
53.6822 61.6307 2
54.2637 59.3338 2
61.0189 47.896 2
59.7329 52.1255 2
58.0554 49.6377 2
56.7853 57.0075 2
57.1386 54.1463 2
51.1667 65.1328 3.98624
52.0461 62.5448 3.984
55.4857 58.2649 3.98355
52.8366 60.1446 3.98319
53.6442 58.4842 3.98312
58.3395 46.8661 3.98191
57.5862 51.8097 3.981
56.2802 49.5764 3.98226
55.4824 55.8152 3.98041
55.377 53.4068 3.97856
50.1084 67.8599 0.0103676
49.3358 65.9264 2
48.6171 64.1282 3.98501
47.4621 66.5858 0.0126232
45.5574 67.1037 2
46.8913 64.7426 2
46.3809 63.06 3.98404
45.1315 65.2039 3.9858
43.6307 67.4744 3.98782
41.8605 69.8815 3.99047
43.9732 69.5942 2
44.3765 71.8637 3.99419
46.0559 69.1611 0.00985151
46.6091 71.3691 2
47.2057 73.7222 4
48.8022 70.7244 0.00615204
49.554 73.0099 2
51.8506 72.1454 0
50.9535 5.12964 3.99376
53.0639 6.06892 2
54.0858 3.86728 4
55.1026 7.13746 0.00669828
56.25 5.02406 2
58.3339 6.31992 0
63.9842 46.726 0.020038
65.1923 43.0307 0.0211389
62.8291 44.2257 0.0199416
63.7753 40.9348 0.0214533
65.8018 39.3722 0.0221601
67.9405 37.5221 0.0217646
65.9041 37.5019 2
63.9182 39.2696 2
63.3493 42.5572 2
62.4543 40.704 2
61.9911 45.9312 2
61.4771 43.6944 2
63.9788 37.4575 3.97748
62.183 39.3591 3.97781
61.2454 41.9681 3.97918
60.2795 44.7834 3.98231
65.8915 35.6652 0.0216914
65.2028 32.1488 0.0211825
64.3034 34.2459 0.0218851
62.6165 30.6256 0.0209948
59.3139 15.6547 0.0150195
59.131 18.3371 0.0159273
58.7545 20.8317 0.0182945
61.674 27.0567 0.0191613
60.8758 29.1256 0.0178905
59.3579 25.7755 0.0170272
58.3064 23.0683 0.0196902
57.9947 24.641 0.0166946
56.6796 15.727 0.0159188
54.3792 15.9829 0.0166469
53.8111 13.6679 0.0168016
52.112 8.14798 0.0103831
53.0581 11.0074 0.0141594
64.1098 35.6301 2
62.9523 33.0392 2
60.6408 30.5985 2
57.9438 16.9665 2
57.7244 19.4555 2
57.3879 21.8169 2
59.6002 27.8921 2
57.2104 23.9233 2
57.769 25.7031 2
50.1122 7.27997 2
55.5411 16.9553 2
53.7615 16.9643 2
52.9798 15.2492 2
52.1729 12.7849 2
51.2323 10.1157 2
62.2159 35.356 3.97741
60.3215 32.7359 3.97733
58.6555 30.0581 3.98038
57.3267 27.3583 3.98376
56.6412 18.138 3.98392
56.3222 25.078 3.98173
56.3685 20.5002 3.98135
56.1293 22.8448 3.97757
48.056 6.52372 3.99015
49.3241 9.32438 3.98725
50.4334 11.9838 3.98445
51.3794 14.4853 3.98225
54.419 17.904 3.98351
52.364 17.0213 3.9822
52.0692 67.0032 0.0107625
52.9525 64.2238 0.0143323
61.019 47.896 0.0202475
53.6822 61.6303 0.0161247
56.6524 59.5024 0.0159531
54.2636 59.3334 0.0169384
59.7327 52.1255 0.0175497
58.0555 49.6379 0.0190889
56.785 57.0072 0.0180525
57.1384 54.1463 0.0187793
51.1667 65.1332 2
52.0461 62.5452 2
55.4859 58.2654 2
52.8366 60.145 2
53.6444 58.4846 2
58.3394 46.8658 2
57.5863 51.8096 2
56.2802 49.5761 2
55.4828 55.8155 2
55.3773 53.4069 2
50.3456 63.3862 3.98442
51.245 60.9422 3.98269
54.2253 57.2802 3.98259
52.3159 58.6451 3.98244
56.7608 44.2007 3.98298
55.5324 47.916 3.98126
55.0977 51.4129 3.97852
54.0183 54.5677 3.97793
49.3357 65.926 0.013126
48.6171 64.1286 2
47.9614 62.4807 3.98365
45.5573 67.1032 0.0123658
46.8913 64.7422 0.0145215
43.6307 67.4749 2
46.3808 63.0604 2
45.1315 65.2044 2
45.9867 61.5926 3.98287
44.766 63.4615 3.98445
43.3554 65.5139 3.98589
41.663 67.6938 3.98798
39.7023 70.0287 3.99044
41.8606 69.8819 2
42.111 72.2086 3.9942
43.9731 69.5938 0.00963023
44.3766 71.864 2
44.8159 74.2794 4
46.609 71.3688 0.0059654
47.2057 73.7222 2
49.554 73.0099 0
48.784 4.32079 3.99396
50.9536 5.12946 2
51.8506 2.85458 4
53.0637 6.06909 0.0064041
54.0858 3.86728 2
56.25 5.02411 0
61.9913 45.9312 0.0200705
63.3497 42.5573 0.0211831
61.4775 43.6945 0.017997
62.4548 40.7041 0.0219103
63.9187 39.2697 0.02218
65.9046 37.502 0.022626
63.9783 37.4573 2
62.1825 39.359 2
61.2449 41.968 2
60.2792 44.7832 2
62.022 37.4451 3.97793
60.2822 39.854 3.97787
59.0307 42.9319 3.98106
64.1103 35.6303 0.0222679
62.9529 33.0394 0.0221191
60.6416 30.5986 0.0204992
57.9437 16.9667 0.0156967
57.7241 19.4556 0.016934
57.3879 21.8165 0.0200359
59.6008 27.8919 0.0182096
57.7695 25.7026 0.0156644
57.2107 23.9227 0.0196922
55.541 16.9554 0.0161148
53.7615 16.9644 0.0164574
52.9798 15.2494 0.0178939
50.1121 7.28035 0.0100693
52.1729 12.7853 0.0160191
51.2323 10.1161 0.0134685
62.2154 35.3558 2
60.3206 32.7357 2
58.6545 30.0582 2
56.6415 18.1378 2
56.3688 20.5002 2
56.1291 22.8455 2
57.3259 27.3587 2
56.3217 25.0788 2
48.056 6.52337 2
49.3241 9.32398 2
54.4192 17.9039 2
52.3641 17.0212 2
51.3794 14.4849 2
50.4334 11.9833 2
59.9303 35.1149 3.97753
58.0341 32.2557 3.97791
56.5864 29.3172 3.98141
55.4854 26.5756 3.98476
55.3483 19.1717 3.98317
54.9557 24.0323 3.97684
55.0156 21.5407 3.97983
45.962 5.87898 3.99039
43.3734 7.46802 3.9884
47.3546 8.6185 3.98763
48.5999 11.2854 3.98512
49.7149 13.7325 3.98314
50.6357 16.1197 3.98091
53.1293 18.6442 3.98252
51.3062 18.0351 3.98295
51.1667 65.1328 0.0137572
52.0461 62.5448 0.0160016
58.3395 46.8661 0.0180872
52.8366 60.1446 0.0168108
55.4857 58.2649 0.0164455
53.6442 58.4842 0.0168773
57.5862 51.8097 0.018999
56.2802 49.5764 0.0177422
55.4824 55.8152 0.0195894
55.377 53.4068 0.021437
50.3455 63.3866 2
51.245 60.9425 2
54.2257 57.2806 2
52.316 58.6456 2
56.7603 44.2001 2
55.5322 47.9157 2
55.0979 51.4128 2
54.0186 54.5678 2
49.5917 61.7501 3.98311
55.6959 41.7221 3.97833
50.5688 59.3359 3.98152
52.1915 56.5036 3.98101
54.2378 45.5812 3.9825
53.3819 49.3508 3.97922
52.6894 52.8748 3.97669
48.6171 64.1282 0.0149867
47.9613 62.4811 2
47.3291 61.0152 3.98259
43.6307 67.4744 0.0121757
45.1315 65.2039 0.0141979
46.3809 63.06 0.0159565
41.663 67.6943 2
43.3555 65.5144 2
45.9866 61.593 2
44.766 63.462 2
45.7659 60.6367 3.98197
44.4823 61.8425 3.98318
43.1452 63.7343 3.98458
41.5451 65.6523 3.98612
39.6323 67.7738 3.9881
37.5259 70.0541 3.99046
39.7023 70.0291 2
39.8179 72.4057 3.9941
41.8605 69.8815 0.00953366
42.1111 72.2089 2
42.3947 74.6792 4
44.3765 71.8637 0.00580592
44.8159 74.2794 2
47.2057 73.7222 0
43.8515 5.35603 3.99065
46.5701 3.64546 3.99414
48.7842 4.3206 2
49.554 1.99015 4
50.9535 5.12964 0.00623728
51.8506 2.85453 2
54.0858 3.86728 0
60.2795 44.7834 0.0176883
61.2454 41.9681 0.0208163
62.183 39.3591 0.02219
63.9788 37.4575 0.0225167
62.0215 37.4449 2
60.2815 39.8538 2
59.0302 42.9316 2
59.8029 37.5677 3.9789
58.0474 40.668 3.97785
55.1811 39.7292 3.97928
62.2159 35.356 0.0225944
60.3215 32.7359 0.0226668
58.6555 30.0581 0.0196239
56.6412 18.138 0.0160831
56.3685 20.5002 0.0186505
56.1293 22.8448 0.0224294
57.3267 27.3583 0.0162444
56.3222 25.078 0.0182737
54.419 17.904 0.0164931
52.364 17.0213 0.017799
51.3794 14.4853 0.0177464
48.056 6.52372 0.00985287
49.3241 9.32438 0.0127469
50.4334 11.9838 0.0155495
59.9296 35.1147 2
45.962 5.87862 2
43.3735 7.46771 2
58.033 32.2555 2
56.5853 29.3173 2
55.3486 19.1716 2
55.0159 21.5409 2
54.9554 24.0335 2
55.4846 26.5765 2
47.3546 8.61812 2
48.5999 11.285 2
53.1294 18.6441 2
51.3063 18.0349 2
50.6357 16.1193 2
49.7149 13.7321 2
57.4481 34.7527 3.97844
55.7774 31.4986 3.97858
54.5606 28.379 3.98661
53.8061 25.4737 3.9796
53.9761 20.1193 3.9829
53.5993 22.6858 3.97542
41.3986 7.07326 3.98854
45.3594 7.99002 3.98804
42.8651 9.40878 3.98663
46.6661 10.6464 3.98561
47.7456 13.0929 3.98333
48.933 15.39 3.98211
50.0087 17.6889 3.97937
51.6576 19.3132 3.98422
50.3456 63.3862 0.0155766
51.245 60.9422 0.0173092
56.7608 44.2007 0.0170215
55.5324 47.916 0.0187448
52.3159 58.6451 0.0175639
54.2253 57.2802 0.0174071
55.0977 51.4129 0.0214785
54.0183 54.5677 0.0220702
49.5916 61.7506 2
55.6949 41.7214 2
50.5688 59.3363 2
52.1919 56.5041 2
54.2376 45.5806 2
53.3819 49.3501 2
52.6898 52.8736 2
48.8496 60.2076 3.98224
52.6056 42.657 3.97827
49.7927 57.636 3.98142
50.6079 54.4383 3.97772
51.879 47.2884 3.97952
51.2488 50.9682 3.97512
48.301 43.7404 3.97582
47.9614 62.4807 0.016349
47.329 61.0156 2
46.619 59.8016 3.98193
41.663 67.6938 0.012017
43.3554 65.5139 0.0141109
44.766 63.4615 0.0155525
45.9867 61.5926 0.0171331
39.6323 67.7743 2
41.5451 65.6527 2
45.7658 60.637 2
43.1451 63.7348 2
44.4823 61.8429 2
44.623 60.2992 3.98201
42.9494 62.0916 3.98355
41.5986 63.8283 3.98461
39.6468 65.6212 3.98638
37.563 67.7566 3.98793
31.6976 65.1397 3.98612
33.3922 67.4941 3.9879
35.3333 69.9642 3.99042
37.5259 70.0545 2
37.5096 72.4603 3.99412
39.7023 70.0287 0.00956164
39.8179 72.406 2
39.9526 74.9197 4
42.111 72.2086 0.00580337
42.3947 74.6792 2
44.8159 74.2794 0
41.7361 4.96515 3.99086
43.8515 5.3557 2
44.3255 3.10878 3.99429
46.5702 3.64525 2
47.2057 1.27793 4
48.784 4.32079 0.00603843
49.554 1.99013 2
51.8506 2.85458 0
59.0307 42.9319 0.0189353
60.2822 39.854 0.0221288
62.022 37.4451 0.0220748
59.8022 37.5675 2
58.0465 40.6679 2
55.1798 39.7286 2
56.8886 37.8984 3.97995
49.7644 41.3065 3.97704
53.227 39.3131 3.98286
39.442 6.79684 3.98878
59.9303 35.1149 0.0224724
58.0341 32.2557 0.0220858
56.5864 29.3172 0.0185903
55.3483 19.1717 0.0168348
55.0156 21.5407 0.0201725
54.9557 24.0323 0.0231645
55.4854 26.5756 0.0152431
53.1293 18.6442 0.0174805
51.3062 18.0351 0.0170468
50.6357 16.1197 0.019091
45.962 5.87898 0.00960593
49.7149 13.7325 0.0168573
47.3546 8.6185 0.0123741
48.5999 11.2854 0.0148826
43.3734 7.46802 0.0116034
57.4472 34.7526 2
41.3986 7.07286 2
45.3594 7.9897 2
42.8651 9.4085 2
55.776 31.4982 2
54.5591 28.3796 2
53.9765 20.1192 2
53.5995 22.686 2
53.8054 25.4754 2
46.6661 10.6461 2
47.7455 13.0926 2
51.6577 19.3129 2
50.0088 17.6886 2
48.933 15.3898 2
54.9561 33.9572 3.97936
53.5573 30.4587 3.98241
52.6377 27.1762 3.98348
52.1707 24.0642 3.97675
52.4016 21.0532 3.98077
41.0132 9.04205 3.98685
44.7233 9.98904 3.98619
42.4679 10.8948 3.98502
46.005 12.7208 3.98399
47.6824 14.5746 3.98268
48.1154 16.9773 3.98058
49.8214 19.5873 3.97804
49.5917 61.7501 0.016894
50.5688 59.3359 0.0184802
55.6959 41.7221 0.0216663
54.2378 45.5812 0.0174954
53.3819 49.3508 0.0207792
52.1915 56.5036 0.0189867
52.6894 52.8748 0.0233137
48.8495 60.2081 2
52.6047 42.6558 2
49.7928 57.6364 2
50.6084 54.4394 2
51.8787 47.2881 2
51.2488 50.9657 2
48.2922 43.7414 2
47.9882 58.7496 3.98153
50.197 45.2852 3.97718
48.6047 55.9274 3.98138
49.1515 52.6156 3.97829
49.7221 49.0681 3.97561
46.1758 39.9056 3.9142
46.5556 42.7549 3.9808
46.6096 45.7456 3.98179
44.0216 41.2351 3.9638
42.1082 41.9903 3.96211
47.3291 61.0152 0.0174083
46.6188 59.8018 2
45.4686 58.7977 3.98087
39.6323 67.7738 0.0119001
41.5451 65.6523 0.0138769
43.1452 63.7343 0.0154212
44.4823 61.8425 0.0168186
45.7659 60.6367 0.0180283
41.5985 63.8286 2
37.5631 67.7571 2
39.6468 65.6217 2
44.6229 60.2995 2
42.9494 62.092 2
41.7523 62.5029 3.98369
42.4803 59.9914 3.98216
39.8922 63.5639 3.98434
37.6418 65.5204 3.98612
35.4633 67.6659 3.98798
33.5756 65.3534 3.98611
31.9598 63.3123 3.98458
29.8838 64.7302 3.98587
31.6976 65.1402 2
31.3771 67.2035 3.98792
33.3923 67.4946 2
33.1562 69.7575 3.99038
35.3333 69.9646 2
35.195 72.3748 3.99408
37.5259 70.0541 0.00953887
37.5096 72.4606 2
37.5 75 4
39.8179 72.4057 0.00590125
39.9526 74.9197 2
42.3947 74.6792 0
39.6237 4.7124 3.99094
41.7362 4.96478 2
42.062 2.71642 3.99446
43.8515 5.35603 0.00935037
44.3256 3.10856 2
44.8158 0.721173 4
46.5701 3.64546 0.00586279
47.2057 1.27779 2
49.554 1.99015 0
58.0474 40.668 0.0221504
59.8029 37.5677 0.0210954
55.1811 39.7292 0.0207219
49.7634 41.308 2
56.8877 37.8984 2
53.2253 39.3117 2
54.0816 36.6218 3.979
47.6889 40.4532 3.98944
50.7192 38.4866 3.98122
37.5158 6.66793 3.98878
39.442 6.79642 2
39.2109 8.68456 3.98708
35.9414 8.48448 3.9871
57.4481 34.7527 0.0215646
55.7774 31.4986 0.021424
54.5606 28.379 0.0133932
53.9761 20.1193 0.0170968
53.5993 22.6858 0.0245767
53.8061 25.4737 0.0204036
51.6576 19.3132 0.0157783
50.0087 17.6889 0.020627
48.933 15.39 0.0178883
45.3594 7.99002 0.0119616
47.7456 13.0929 0.0166711
46.6661 10.6464 0.0143882
41.3986 7.07326 0.0114563
42.8651 9.40878 0.0133716
54.955 33.9568 2
41.0132 9.04161 2
44.7233 9.9888 2
42.4678 10.8946 2
53.5553 30.4578 2
52.6366 27.1791 2
52.402 21.0527 2
52.1706 24.066 2
46.0049 12.7205 2
47.6824 14.5744 2
49.8216 19.5874 2
48.1154 16.9771 2
52.5052 32.8518 3.98071
51.4091 29.1332 3.98504
50.8317 25.7023 3.97345
49.951 22.1659 3.979
40.5687 11.5982 3.98445
43.8577 11.9098 3.98442
45.8034 15.41 3.98225
47.5071 19.2105 3.97925
46.5057 37.5039 3.91493
48.8496 60.2076 0.0177627
49.7927 57.636 0.0185796
52.6056 42.657 0.0217282
51.879 47.2884 0.0204769
51.2488 50.9682 0.024876
50.6079 54.4383 0.0222795
48.301 43.7404 0.0241754
47.9882 58.75 2
50.1974 45.2849 2
48.6048 55.9279 2
49.1517 52.6169 2
49.7212 49.0651 2
46.1809 39.9084 2
46.5604 42.7563 2
46.6035 45.7448 2
44.0274 41.233 2
42.1184 41.9946 2
46.8407 57.3523 3.98255
44.7881 39.5004 3.95974
42.48 40.8656 3.97275
48.1689 47.2648 3.98308
47.1802 54.2607 3.98166
47.6226 50.7768 3.97786
44.8849 47.3469 3.98945
45.2385 42.019 3.92234
45.0223 44.6533 3.96667
42.8168 42.7372 3.95678
40.9619 42.3573 3.9617
46.619 59.8016 0.0180662
45.4684 58.7979 2
43.8762 57.7218 3.98076
37.563 67.7566 0.0120681
39.6468 65.6212 0.0136215
41.5986 63.8283 0.0153922
42.9494 62.0916 0.0164529
44.623 60.2992 0.0179939
35.4634 67.6664 2
41.7523 62.5033 2
39.8921 63.5643 2
37.6418 65.5209 2
42.4803 59.9917 2
40.6221 61.6613 3.98337
40.4439 58.2215 3.98018
37.8359 63.2256 3.98477
35.5729 65.4428 3.98612
33.5756 65.3539 2
31.9599 63.3127 2
33.6291 63.3524 3.9847
30.3788 62.8704 3.98432
32.1231 62.0184 3.9834
26.8677 61.5128 3.98312
28.0626 64.1577 3.98549
29.8839 64.7307 2
29.4068 66.7668 3.98774
31.6976 65.1397 0.0138794
31.3771 67.204 2
31.0136 69.4223 3.99024
33.3922 67.4941 0.0120995
33.1562 69.7579 2
32.8921 72.149 3.99409
35.3333 69.9642 0.00958041
35.195 72.375 2
35.0474 74.9194 4
37.5096 72.4603 0.00588255
37.5 75 2
39.9526 74.9197 0
35.6204 6.71903 3.98879
37.5229 4.61187 3.991
39.6237 4.71203 2
39.7885 2.47292 3.99452
41.7361 4.96515 0.00914042
42.062 2.71617 2
42.3946 0.32156 4
44.3255 3.10878 0.00570742
44.8159 0.72056 2
47.2057 1.27793 0
49.7644 41.3065 0.022958
56.8886 37.8984 0.0200544
53.227 39.3131 0.0171382
47.6887 40.45 2
50.7165 38.4866 2
54.0806 36.6216 2
51.5035 35.5655 3.96906
48.3509 37.7612 3.99128
46.1732 35.1031 3.9156
44.0137 33.7716 3.96331
42.0964 33.0276 3.96574
37.4576 8.52628 3.98712
37.5158 6.66752 2
39.442 6.79684 0.0112234
39.2109 8.68411 2
38.9758 10.1167 3.98619
35.8978 9.76369 3.98611
34.1498 8.81393 3.98682
35.9413 8.484 2
54.9561 33.9572 0.0206379
53.5573 30.4587 0.0175856
52.6377 27.1762 0.0165221
52.4016 21.0532 0.0192256
52.1707 24.0642 0.0232547
49.8214 19.5873 0.021963
48.1154 16.9773 0.0194238
47.6824 14.5746 0.0173235
44.7233 9.98904 0.0138074
46.005 12.7208 0.016008
41.0132 9.04205 0.0131492
42.4679 10.8948 0.0149804
52.5038 32.851 2
40.5686 11.5979 2
43.8576 11.9097 2
51.4072 29.1353 2
50.8313 25.7043 2
49.9513 22.166 2
45.8033 15.4098 2
47.5071 19.2102 2
50.1177 31.3863 3.97269
49.3486 27.4603 3.97366
49.4334 24.3798 3.97945
47.1935 21.9126 3.97773
38.3013 12.7232 3.98357
42.1009 14.2939 3.98236
44.8025 18.4465 3.98015
45.0622 37.504 3.95342
46.5166 37.5053 2
47.9882 58.7496 0.0184715
48.6047 55.9274 0.0186212
50.197 45.2852 0.0228197
49.7221 49.0681 0.0243915
49.1515 52.6156 0.0217118
46.1758 39.9056 0.0858048
46.5556 42.7549 0.0191994
46.6096 45.7456 0.0182125
44.0216 41.2351 0.0361985
42.1082 41.9903 0.0378854
46.8408 57.3527 2
44.796 39.4987 2
42.4818 40.8673 2
48.1669 47.2622 2
47.1803 54.261 2
47.6226 50.7763 2
44.8827 47.3383 2
45.241 42.0216 2
45.0303 44.6604 2
42.8275 42.7349 2
40.9718 42.3564 2
45.4012 55.9387 3.98001
42.8106 39.2596 3.97635
40.9156 40.8113 3.96627
46.1485 48.9401 3.97977
45.5655 52.5622 3.98436
43.5197 48.4807 3.95477
43.4106 46.2088 3.98423
43.7828 43.8243 3.9165
41.285 43.8983 3.96882
39.3255 42.6684 3.95728
45.4686 58.7977 0.0191306
43.876 57.7218 2
42.1067 56.3452 3.9809
35.4633 67.6659 0.0120175
37.6418 65.5204 0.0138842
39.8922 63.5639 0.0156557
41.7523 62.5029 0.0163124
42.4803 59.9914 0.0178435
35.5729 65.4432 2
40.622 61.6616 2
37.8359 63.226 2
40.4439 58.2218 2
38.9252 56.5106 3.98088
38.2497 60.3453 3.98292
35.6066 63.2192 3.98458
33.5756 65.3534 0.0138924
31.9598 63.3123 0.0154198
33.6292 63.3528 2
30.3789 62.8708 2
32.1231 62.0187 2
28.681 62.2152 3.98401
33.3457 61.5311 3.98319
31.0658 61.2348 3.98283
27.5653 59.6096 3.98208
23.7869 59.0994 3.9844
25.0323 60.8854 3.98291
26.8678 61.5131 2
26.2289 63.4895 3.98498
28.0627 64.1581 2
27.4635 66.1903 3.98749
29.8838 64.7302 0.0141275
29.4067 66.7673 2
28.906 68.9476 3.99011
31.3771 67.2035 0.0120839
31.0135 69.4227 2
30.6146 71.78 3.99404
33.1562 69.7575 0.00961771
32.892 72.1493 2
32.6054 74.6784 4
35.195 72.3748 0.0059206
35.0474 74.9197 2
37.5 75 0
33.7231 6.9736 3.98848
35.4343 4.68231 3.9909
35.6203 6.71858 2
37.5141 2.38555 3.99459
37.5229 4.61152 2
39.6237 4.7124 0.00906427
39.7885 2.47268 2
39.9526 0.0806499 4
42.062 2.71642 0.00553636
42.3947 0.320817 2
44.8158 0.721173 0
44.7926 35.5054 3.95808
42.4731 34.1463 3.97207
47.6889 40.4532 0.0105578
50.7192 38.4866 0.0187832
54.0816 36.6218 0.021004
48.3485 37.7598 2
51.5022 35.5658 2
46.1738 35.1018 2
44.0245 33.7708 2
42.1029 33.0257 2
48.5201 34.2501 4.00486
45.2246 32.9896 3.91798
42.806 32.2754 3.96008
40.9481 32.6672 3.96349
37.3098 10.6198 3.98541
37.4576 8.52579 2
37.5158 6.66793 0.011223
39.2109 8.68456 0.0129246
38.9758 10.1162 2
34.7529 10.3693 3.98535
35.8977 9.76325 2
32.3764 9.36058 3.98615
34.1497 8.81347 2
35.9414 8.48448 0.0129028
52.5052 32.8518 0.0192922
51.4091 29.1332 0.0149561
50.8317 25.7023 0.0265457
49.951 22.1659 0.0209973
47.5071 19.2105 0.020752
45.8034 15.41 0.0177461
43.8577 11.9098 0.0155847
40.5687 11.5982 0.015546
50.1153 31.3868 2
38.3011 12.7225 2
42.1007 14.294 2
49.347 27.4618 2
49.4335 24.3801 2
47.1937 21.9143 2
44.8024 18.4462 2
47.8954 29.5914 3.97001
47.1361 25.106 3.97784
44.293 21.3009 3.97843
36.5809 12.9196 3.98352
38.6803 14.7936 3.98222
41.7507 17.8236 3.98032
42.9388 37.4952 3.98007
45.0754 37.5045 2
46.5057 37.5039 0.0850743
46.8407 57.3523 0.0174524
47.1802 54.2607 0.0183417
48.1689 47.2648 0.0169217
47.6226 50.7768 0.0221413
44.7881 39.5004 0.0402575
45.2385 42.019 0.077655
45.0223 44.6533 0.0333286
44.8849 47.3469 0.0105532
42.8168 42.7372 0.0432227
42.48 40.8656 0.0272463
40.9619 42.3573 0.0383037
45.4014 55.939 2
42.8119 39.2593 2
40.916 40.8119 2
46.1482 48.9365 2
45.5658 52.5615 2
43.5179 48.4802 2
43.4389 46.2195 2
43.7884 43.8282 2
41.2903 43.8917 2
39.3311 42.673 2
43.741 54.4489 3.98588
40.9839 39.1815 3.95479
39.2407 40.8708 3.93092
43.7465 50.5365 3.9898
42.0194 47.7359 4.0194
41.931 45.2153 3.9145
39.5009 44.6593 3.97279
37.5009 42.7864 3.96127
43.8762 57.7218 0.0192363
42.1066 56.3449 2
40.4206 54.9459 3.97833
35.5729 65.4428 0.0138767
37.8359 63.2256 0.0152297
40.6221 61.6613 0.0166268
40.4439 58.2215 0.0198231
35.6066 63.2196 2
38.2497 60.3456 2
38.925 56.5121 2
37.9996 55.2644 3.97948
36.9344 57.6456 3.98021
35.3632 60.9301 3.98324
33.6291 63.3524 0.0153019
30.3788 62.8704 0.0156788
32.1231 62.0184 0.0165979
33.3457 61.5314 2
28.6811 62.2155 2
31.0659 61.2351 2
29.4012 60.3038 3.98227
32.3551 59.7619 3.98245
28.017 58.3887 3.98301
27.5653 59.6099 2
25.3738 58.6103 3.98226
22.749 58.2594 3.98129
23.397 60.3655 3.98307
23.7868 59.0998 2
25.0323 60.8858 2
24.431 62.7816 3.98447
26.8677 61.5128 0.0168844
26.229 63.4899 2
25.5475 65.5001 3.98703
28.0626 64.1577 0.0145074
27.4635 66.1908 2
26.8359 68.3357 3.98996
29.4068 66.7668 0.012262
28.9059 68.948 2
28.3698 71.2652 3.99395
31.0136 69.4223 0.00975995
30.6145 71.7803 2
30.1842 74.2788 4
32.8921 72.149 0.00590707
32.6053 74.6792 2
35.0474 74.9194 0
31.7875 7.41324 3.98807
33.3463 4.92145 3.99073
33.723 6.97313 2
35.2444 2.46172 3.9945
35.4343 4.68192 2
35.6204 6.71903 0.0112125
37.5 0 4
37.5141 2.38531 2
37.5229 4.61187 0.00899641
39.7885 2.47292 0.00548199
39.9526 0.0802889 2
42.3946 0.32156 0
42.814 35.7387 3.97724
44.7961 35.5082 2
40.9086 34.211 3.96776
42.4747 34.1451 2
48.3509 37.7612 0.00871996
51.5035 35.5655 0.0309382
46.1732 35.1031 0.0843971
44.0137 33.7716 0.0366872
42.0964 33.0276 0.0342613
48.519 34.2509 2
45.2301 32.9837 2
42.8161 32.2744 2
40.9549 32.6653 2
46.4356 31.4954 3.98936
43.766 31.1852 3.91847
41.277 31.1263 3.96347
39.3091 32.361 3.95512
35.6912 11.7643 3.98393
37.3097 10.6192 2
37.4576 8.52628 0.0128777
38.9758 10.1167 0.0138114
33.0968 11.206 3.98442
34.7528 10.369 2
35.8978 9.76369 0.0138884
30.4811 10.0087 3.98573
32.3763 9.36023 2
34.1498 8.81393 0.0131833
50.1177 31.3863 0.0273052
49.3486 27.4603 0.0263418
49.4334 24.3798 0.0205493
47.1935 21.9126 0.0222747
44.8025 18.4465 0.0198548
42.1009 14.2939 0.0176441
38.3013 12.7232 0.0164251
36.5808 12.9195 2
47.8912 29.593 2
38.6801 14.7928 2
41.7503 17.8237 2
47.1361 25.1071 2
44.293 21.3006 2
45.6411 27.8054 3.97392
43.8225 24.0348 3.9808
41.3443 20.7013 3.98003
35.7705 14.7446 3.9825
38.6811 17.5806 3.9806
41.0275 37.4926 3.94878
42.9427 37.496 2
45.0622 37.504 0.0465769
45.4012 55.9387 0.0199922
45.5655 52.5622 0.0156362
46.1485 48.9401 0.0202291
42.8106 39.2596 0.0236511
43.7828 43.8243 0.0834988
43.4106 46.2088 0.0157668
43.5197 48.4807 0.0452313
41.285 43.8983 0.0311841
40.9156 40.8113 0.0337276
39.3255 42.6684 0.0427191
43.7415 54.4492 2
40.9836 39.1818 2
39.2404 40.8749 2
43.7462 50.5374 2
42.0188 47.7385 2
41.9422 45.2154 2
37.5023 42.7946 2
39.5096 44.6636 2
41.8909 53.0143 3.98588
39.2338 39.171 3.931
37.5045 40.9227 3.91962
35.6811 42.6869 3.95767
40.9869 49.7582 3.99638
39.8186 46.095 3.91756
37.4972 44.9254 3.96617
42.1067 56.3452 0.0190978
40.4204 54.9457 2
38.7296 53.8734 3.98413
35.6066 63.2192 0.0154225
38.2497 60.3453 0.0170846
38.9252 56.5106 0.01912
35.3631 60.9304 2
36.9342 57.6458 2
37.9992 55.2646 2
36.3184 55.4017 3.98012
34.4866 58.5397 3.98181
33.3457 61.5311 0.0168068
28.681 62.2152 0.0159907
31.0658 61.2348 0.0171685
32.3551 59.7621 2
29.4012 60.3041 2
30.2931 57.8333 3.98225
28.017 58.389 2
26.935 56.8393 3.9807
27.5653 59.6096 0.0179233
25.3737 58.6107 2
23.8277 56.8248 3.97966
21.3237 57.4207 3.98234
21.9882 59.6393 3.98368
22.7489 58.2598 2
22.734 62.0329 3.98402
23.397 60.3659 2
23.7869 59.0994 0.0156034
25.0323 60.8854 0.0170863
24.431 62.782 2
23.6812 64.7182 3.98635
26.2289 63.4895 0.015024
25.5476 65.5005 2
24.8083 67.5969 3.98978
27.4635 66.1903 0.0125114
26.8358 68.3361 2
26.1651 70.6059 3.99384
28.906 68.9476 0.00988614
28.3696 71.2654 2
27.7943 73.7221 4
30.6146 71.78 0.00596263
30.1841 74.2794 2
32.6054 74.6784 0
29.8101 7.98645 3.98757
31.2515 5.32848 3.99044
31.7874 7.41282 2
32.9802 2.69981 3.99439
33.3463 4.92101 2
33.7231 6.9736 0.011523
35.0474 0.080333 4
35.2443 2.46147 2
35.4343 4.68231 0.00910217
37.5 0 2
37.5141 2.38555 0.00541147
39.9526 0.0806499 0
40.9889 35.8159 3.95534
42.8134 35.7395 2
44.7926 35.5054 0.0419224
28.542 10.6839 3.98527
39.2325 34.158 3.93287
40.9081 34.2096 2
42.4731 34.1463 0.0279255
48.5201 34.2501 -0.00486215
45.2246 32.9896 0.0820236
42.806 32.2754 0.0399153
40.9481 32.6672 0.0365133
46.4454 31.4918 2
43.7679 31.1797 2
41.2861 31.1238 2
39.3148 32.3535 2
44.4519 29.6689 3.98336
41.9189 29.8099 3.9228
39.4901 30.3859 3.9703
37.4808 32.2492 3.96034
34.0909 12.9223 3.98322
35.6912 11.7641 2
37.3098 10.6198 0.0145908
31.1848 11.9743 3.98429
33.0968 11.2058 2
34.7529 10.3693 0.0146524
30.4811 10.0083 2
32.3764 9.36058 0.0138532
47.8954 29.5914 0.029991
47.1361 25.106 0.0221646
36.5809 12.9196 0.0164786
44.293 21.3009 0.0215719
41.7507 17.8236 0.019678
38.6803 14.7936 0.0177841
35.7703 14.745 2
45.6381 27.8094 2
38.6807 17.58 2
41.3438 20.7011 2
43.8223 24.0394 2
33.6057 15.8619 3.98252
43.1157 26.5277 3.98485
40.9267 23.2739 3.98066
38.4222 20.3092 3.9811
35.8467 17.4936 3.98123
39.2421 37.4957 3.93088
41.0281 37.4923 2
42.9388 37.4952 0.0199306
43.741 54.4489 0.0141182
43.7465 50.5365 0.0101957
40.9839 39.1815 0.0452097
41.931 45.2153 0.085495
42.0194 47.7359 -0.0193969
39.5009 44.6593 0.0272079
39.2407 40.8708 0.069083
37.5009 42.7864 0.0387285
41.8913 53.0152 2
39.2334 39.1728 2
37.5049 40.9299 2
40.9856 49.7579 2
35.6767 42.6911 2
39.8301 46.1003 2
37.5003 44.9099 2
39.8297 51.934 3.98962
37.5019 39.1892 3.92497
35.7707 40.89 3.92786
34.0453 42.3744 3.96185
35.4868 44.6654 3.9696
38.7729 48.7955 4.03157
37.5066 46.4074 3.91134
40.4206 54.9459 0.0216677
38.7292 53.8727 2
36.7178 53.2263 3.98512
35.3632 60.9301 0.016757
36.9344 57.6456 0.0197869
37.9996 55.2644 0.0205152
34.4865 58.5398 2
36.3181 55.4013 2
33.2214 55.5209 3.98191
32.3551 59.7619 0.0175487
29.4012 60.3038 0.0177291
30.2931 57.8334 2
28.674 55.3255 3.97895
28.017 58.3887 0.0169926
26.9347 56.8398 2
25.2922 55.1624 3.97881
21.7906 55.3706 3.97974
25.3738 58.6103 0.0177396
23.8274 56.8252 2
20.2068 57.0521 3.98383
20.6379 58.7988 3.98365
21.3234 57.421 2
21.163 61.1839 3.98455
21.9881 59.6397 2
22.749 58.2594 0.0187095
21.8942 63.8461 3.98581
22.734 62.0333 2
23.397 60.3655 0.0169288
24.431 62.7816 0.0155259
23.6813 64.7187 2
22.8367 66.7407 3.98947
25.5475 65.5001 0.0129688
24.8083 67.5972 2
24.0095 69.8071 3.99372
26.8359 68.3357 0.0100404
26.1649 70.6061 2
25.446 73.0099 4
28.3698 71.2652 0.00604702
27.7943 73.7222 2
30.1842 74.2788 0
27.82 8.64593 3.98729
29.1535 5.87415 3.99006
29.81 7.98603 2
30.7255 3.09689 3.99419
31.2514 5.32808 2
31.7875 7.41324 0.0119318
32.6053 0.320823 4
32.9801 2.69955 2
33.3463 4.92145 0.0092695
35.0474 0.0802903 2
35.2444 2.46172 0.00549623
37.5 0 0
39.2389 35.833 3.93103
40.9876 35.8151 2
42.814 35.7387 0.02276
28.542 10.6837 2
26.621 11.3794 3.98502
29.2237 12.6311 3.98398
37.4947 34.1089 3.92586
39.2316 34.1522 2
40.9086 34.211 0.0322387
46.4356 31.4954 0.0106421
43.766 31.1852 0.0815286
41.277 31.1263 0.0365289
39.3091 32.361 0.0448765
44.4629 29.6607 2
41.9318 29.8038 2
39.4971 30.3819 2
37.4831 32.2425 2
42.362 28.3543 3.98626
39.8177 28.9391 3.91951
37.4797 30.1249 3.96367
35.6587 32.3537 3.95669
31.9123 14.4682 3.98282
34.091 12.9222 2
35.6912 11.7643 0.0160686
31.1849 11.9739 2
33.0968 11.206 0.015579
30.4811 10.0087 0.0142693
45.6411 27.8054 0.0260791
43.8225 24.0348 0.0192048
35.7705 14.7446 0.0175043
41.3443 20.7013 0.0199705
38.6811 17.5806 0.0194048
33.6056 15.8624 2
35.8464 17.4943 2
43.1138 26.5325 2
38.422 20.3096 2
40.9267 23.2738 2
33.5476 17.3705 3.98259
40.4855 25.6198 3.99589
38.0833 22.8386 3.988
35.5822 20.0615 3.98231
37.5027 37.505 3.92834
39.2426 37.4953 2
41.0275 37.4926 0.0512157
41.8909 53.0143 0.0141223
40.9869 49.7582 0.00362191
39.2338 39.171 0.0690022
39.8186 46.095 0.0824385
37.4972 44.9254 0.0338303
37.5045 40.9227 0.0803785
35.6811 42.6869 0.0423263
39.8307 51.934 2
37.5024 39.1928 2
35.772 40.8945 2
38.768 48.803 2
34.0374 42.3755 2
35.4856 44.6648 2
37.5025 46.4198 2
37.6686 51.0083 3.98046
35.7746 39.1933 3.92752
34.1023 40.8333 3.96517
32.8974 42.0099 3.96628
33.7035 43.92 3.96346
35.1813 46.1071 3.91956
36.901 48.4235 4.019
38.7296 53.8734 0.0158651
36.7174 53.2254 2
34.3494 52.4915 3.98224
34.4866 58.5397 0.0181863
36.3184 55.4017 0.0198764
33.2214 55.5204 2
30.4995 53.4205 3.98017
30.2931 57.8333 0.0177524
28.6736 55.3257 2
26.8552 53.4642 3.97752
26.935 56.8393 0.0192994
25.2917 55.1628 2
23.5444 53.5078 3.97715
20.4386 53.2556 3.97821
19.9161 55.857 3.98286
21.79 55.3708 2
23.8277 56.8248 0.0203416
19.4287 57.9127 3.98347
20.2064 57.0524 2
19.7013 60.2189 3.98415
20.6378 58.7991 2
21.3237 57.4207 0.0176609
20.2057 62.8679 3.9857
21.163 61.1843 2
21.9882 59.6393 0.0163179
20.9381 65.7699 3.989
21.8942 63.8465 2
22.734 62.0329 0.0159812
23.6812 64.7182 0.0136452
22.8367 66.741 2
21.9121 68.8743 3.99357
24.8083 67.5969 0.010225
24.0093 69.8073 2
23.1494 72.1454 4
26.1651 70.6059 0.00616287
25.446 73.0099 2
27.7943 73.7221 0
25.8593 9.3741 3.98673
27.0684 6.5381 3.98975
27.8199 8.64559 2
28.4877 3.64274 3.99395
29.1534 5.87377 2
29.8101 7.98645 0.0124318
30.1841 0.720592 4
30.7254 3.09666 2
31.2515 5.32848 0.00956019
32.6053 0.320817 2
32.9802 2.69981 0.00561441
35.0474 0.080333 0
37.5039 35.827 3.92592
39.2377 35.83 2
40.9889 35.8159 0.0446585
24.7757 12.0624 3.98475
23.7492 14.347 3.9835
28.542 10.6839 0.0147296
26.621 11.3792 2
29.2238 12.631 2
27.2897 13.3643 3.98391
29.7783 14.1903 3.98326
35.7621 34.147 3.93284
37.4946 34.1032 2
39.2325 34.158 0.0671305
37.4808 32.2492 0.0396649
44.4519 29.6689 0.0166437
41.9189 29.8099 0.0771998
39.4901 30.3859 0.0297038
42.3698 28.3432 2
39.8298 28.9339 2
37.4809 30.134 2
35.657 32.347 2
40.0437 27.5345 3.99659
37.4885 28.6348 3.91492
35.465 30.3833 3.9653
34.0276 32.6606 3.96027
30.9233 16.8257 3.98232
31.9124 14.468 2
34.0909 12.9223 0.016776
31.1848 11.9743 0.015711
43.1157 26.5277 0.0151481
40.9267 23.2739 0.0193389
33.6057 15.8619 0.0174795
35.8467 17.4936 0.0187667
38.4222 20.3092 0.0189007
33.5473 17.3715 2
35.5821 20.0621 2
40.4825 25.6267 2
38.0834 22.8409 2
32.8595 19.778 3.98086
37.7878 25.1337 4.01095
35.2033 22.6206 3.97788
35.7661 37.5143 3.92791
37.5039 37.5055 2
39.2421 37.4957 0.0691154
39.8297 51.934 0.0103788
38.7729 48.7955 -0.0315736
37.5019 39.1892 0.075029
37.5066 46.4074 0.0886633
35.4868 44.6654 0.0303982
35.7707 40.89 0.0721353
34.0453 42.3744 0.0381464
37.6697 51.0185 2
35.7761 39.1952 2
34.103 40.8343 2
36.8974 48.4295 2
32.891 42.012 2
33.6999 43.9179 2
35.1686 46.1111 2
35.4207 50.1591 3.98279
34.0322 39.2084 3.9505
32.529 40.8869 3.97276
32.1804 42.7566 3.95959
33.0775 45.2343 3.91855
34.2818 47.5273 3.99533
36.7178 53.2263 0.0148821
34.3491 52.4918 2
31.9661 51.2138 3.97891
33.2214 55.5209 0.01809
30.4991 53.4226 2
28.3906 51.6454 3.97862
28.674 55.3255 0.0210502
26.8547 53.4654 2
25.0385 51.7974 3.9743
25.2922 55.1624 0.0211923
23.5437 53.5082 2
21.9253 51.8431 3.97611
19.1654 51.6667 3.97809
18.8991 54.3355 3.98041
20.4382 53.2553 2
18.4345 56.7461 3.98402
19.9156 55.8572 2
21.7906 55.3706 0.02026
18.3619 59.1281 3.98366
19.4285 57.9129 2
20.2068 57.0521 0.0161728
18.6156 61.7767 3.98537
19.7013 60.2192 2
20.6379 58.7988 0.0163548
19.1267 64.6811 3.98851
20.2057 62.8683 2
21.163 61.1839 0.0154475
19.8862 67.8111 3.99327
20.9381 65.7702 2
21.8942 63.8461 0.0141874
22.8367 66.7407 0.0105335
21.9119 68.8745 2
20.9142 71.1327 4
24.0095 69.8071 0.0062847
23.1494 72.1455 2
25.446 73.0099 0
23.0948 12.7771 3.98439
23.9719 10.1606 3.98633
25.0224 7.30808 3.98945
25.8593 9.37379 2
26.2795 4.32687 3.99369
27.0683 6.53776 2
27.82 8.64593 0.0127111
27.7943 1.27781 4
28.4876 3.64254 2
29.1535 5.87415 0.00994424
30.1841 0.720551 2
30.7255 3.09689 0.00581321
32.6053 0.320823 0
35.7715 35.8377 3.92893
37.5036 35.8244 2
39.2389 35.833 0.0689739
24.7758 12.0623 2
23.7493 14.347 2
22.4772 15.0234 3.98339
25.3557 13.8963 3.98367
24.0216 15.6089 3.98304
26.621 11.3794 0.0149788
29.2237 12.6311 0.0160248
27.2898 13.3641 2
29.7784 14.1902 2
28.3539 15.9648 3.98286
34.0982 34.2062 3.96504
35.7627 34.1419 2
37.4947 34.1089 0.0741404
35.6587 32.3537 0.0433071
37.4797 30.1249 0.0363329
42.362 28.3543 0.0137445
39.8177 28.9391 0.0804862
40.0455 27.5332 2
37.4881 28.6222 2
35.4613 30.3798 2
34.0265 32.6577 2
37.6196 27.2318 3.99911
35.1422 28.9326 3.919
33.6798 31.1236 3.96626
32.8852 33.0298 3.96718
30.2027 19.3292 3.98328
30.9232 16.8257 2
31.9123 14.4682 0.0171827
40.4855 25.6198 0.00411444
38.0833 22.8386 0.0120025
33.5476 17.3705 0.0174081
35.5822 20.0615 0.0176932
32.8593 19.7796 2
35.2038 22.6208 2
37.7872 25.14 2
32.304 22.3936 3.98055
34.9373 25.1516 3.98819
33.9871 37.5185 3.94607
35.7681 37.5138 2
37.5027 37.505 0.0716643
37.6686 51.0083 0.0195366
36.901 48.4235 -0.0190014
35.7746 39.1933 0.072481
35.1813 46.1071 0.0804368
33.7035 43.92 0.0365396
34.1023 40.8333 0.0348269
32.8974 42.0099 0.0337221
35.4207 50.1655 2
34.0337 39.2087 2
32.5279 40.8871 2
34.2749 47.5373 2
32.1714 42.753 2
33.0651 45.2395 2
33.1768 49.1391 3.98462
32.1954 39.2861 3.97687
30.9787 41.2542 3.96337
31.2223 43.8418 3.91961
32.2195 46.4645 3.9778
34.3494 52.4915 0.017762
31.9657 51.2174 2
29.7927 49.7395 3.9763
30.4995 53.4205 0.0198263
28.3901 51.644 2
26.4474 50.0346 3.97371
26.8552 53.4642 0.0224814
25.0378 51.7962 2
23.287 50.2376 3.97802
23.5444 53.5078 0.022846
21.925 51.8424 2
20.4199 50.3503 3.97819
17.9514 50.3587 3.98004
17.8062 52.8193 3.97959
19.1654 51.666 2
17.4201 55.3637 3.98235
18.8988 54.3354 2
20.4386 53.2556 0.0217946
17.126 57.8917 3.98444
18.4342 56.7463 2
19.9161 55.857 0.0171402
17.132 60.5615 3.98483
18.3618 59.1284 2
19.4287 57.9127 0.0165277
17.4065 63.4745 3.98808
18.6156 61.777 2
19.7013 60.2189 0.0158502
17.9423 66.6197 3.99301
19.1267 64.6814 2
20.2057 62.8679 0.0142994
18.75 69.9759 4
19.886 67.8112 2
20.9381 65.7699 0.0110044
21.9121 68.8743 0.00643239
20.9142 71.1327 2
23.1494 72.1454 0
21.5853 13.5972 3.9841
22.1899 11.0197 3.98578
23.095 12.7771 2
23.0405 8.1733 3.98924
23.972 10.1604 2
24.1172 5.14147 3.99351
25.0222 7.30778 2
25.8593 9.3741 0.0132721
25.446 1.99014 4
26.2793 4.32672 2
27.0684 6.5381 0.0102525
27.7943 1.27778 2
28.4877 3.64274 0.00604672
30.1841 0.720592 0
34.0275 35.8291 3.95215
35.7721 35.8349 2
37.5039 35.827 0.0740799
21.3016 15.8187 3.98335
24.7757 12.0624 0.0152518
23.7492 14.347 0.0165021
25.3558 13.8964 2
22.4774 15.0236 2
24.0218 15.6091 2
23.2602 16.2402 3.98285
25.3769 16.0768 3.98319
27.2897 13.3643 0.0160915
29.7783 14.1903 0.0167415
28.354 15.9649 2
27.4342 18.7869 3.98307
32.5343 34.1538 3.97323
34.0981 34.2044 2
35.7621 34.147 0.0671555
34.0276 32.6606 0.0397254
35.465 30.3833 0.0346974
37.4885 28.6348 0.0850787
40.0437 27.5345 0.00340736
37.6167 27.2035 2
32.8844 33.0308 2
35.1267 28.9256 2
33.6723 31.1191 2
35.0458 27.3405 4.0007
33.0331 29.8107 3.92353
32.1632 32.278 3.96289
29.5642 21.9246 3.98758
30.203 19.3299 2
30.9233 16.8257 0.0176771
37.7878 25.1337 -0.0109532
35.2033 22.6206 0.0221161
32.8595 19.778 0.0191422
32.3045 22.3964 2
34.9392 25.1613 2
31.6289 25.6102 3.9851
32.0701 37.5215 3.97873
33.9892 37.518 2
35.7661 37.5143 0.0720925
35.4207 50.1591 0.0172057
34.2818 47.5273 0.00466869
34.0322 39.2084 0.0495033
33.0775 45.2343 0.0814483
32.1804 42.7566 0.0404077
32.529 40.8869 0.0272409
33.1774 49.1265 2
32.195 39.2858 2
30.969 41.2531 2
32.2035 46.4753 2
31.2163 43.8447 2
31.0458 47.8943 3.98224
30.2074 39.5149 3.95787
29.7657 42.0322 3.91771
30.326 45.0412 3.97977
31.9661 51.2138 0.0210949
29.7929 49.7372 2
27.7831 48.2218 3.97739
28.3906 51.6454 0.021383
26.4471 50.0328 2
24.5745 48.5148 3.97852
25.0385 51.7974 0.0256976
23.2868 50.2365 2
21.5915 48.8295 3.9804
21.9253 51.8431 0.0238904
20.4201 50.3491 2
18.9874 49.1232 3.98202
16.8587 49.3566 3.98256
16.7447 51.4326 3.98023
17.9516 50.3581 2
16.3691 53.8937 3.98122
17.8061 52.8189 2
19.1654 51.6667 0.021909
15.9653 56.4945 3.98378
17.4198 55.3638 2
18.8991 54.3355 0.019586
15.7443 59.2236 3.98499
17.1257 57.892 2
18.4345 56.7461 0.0159784
15.7863 62.146 3.98748
17.1319 60.5619 2
18.3619 59.1281 0.0163438
16.0887 65.3026 3.99286
17.4065 63.4749 2
18.6156 61.7767 0.0146332
16.6661 68.6801 4
17.9421 66.6198 2
19.1267 64.6811 0.0114881
18.75 69.9759 2
19.8862 67.8111 0.00672743
20.9142 71.1327 0
20.2166 14.5857 3.98382
21.5854 13.5973 2
20.529 11.9896 3.98533
21.1437 9.14276 3.98897
22.19 11.0196 2
23.0948 12.7771 0.0156079
22.0163 6.08038 3.99333
23.0404 8.17304 2
23.9719 10.1606 0.0136651
23.1494 2.85457 4
24.117 5.14136 2
25.0224 7.30808 0.0105548
25.446 1.99012 2
26.2795 4.32687 0.00630718
27.7943 1.27781 0
32.2006 35.7549 3.97535
34.0282 35.8281 2
35.7715 35.8377 0.0710659
21.3018 15.8188 2
20.2975 16.9512 3.98422
22.0928 16.624 3.983
25.3557 13.8963 0.0163285
22.4772 15.0234 0.0166123
24.0216 15.6089 0.0169578
25.3771 16.0771 2
23.2605 16.2405 2
24.1983 18.4389 3.98186
27.0003 21.4464 3.98147
28.3539 15.9648 0.017137
27.4346 18.7875 2
30.9852 33.7849 3.95955
32.5309 34.1554 2
34.0982 34.2062 0.0349561
32.8852 33.0298 0.0328186
33.6798 31.1236 0.0337416
35.1422 28.9326 0.0810009
37.6196 27.2318 0.00089171
35.0356 27.3299 2
32.1646 32.2816 2
33.0307 29.8038 2
32.4637 28.0594 4.00588
31.1882 31.2004 3.92409
28.749 24.3891 3.98675
29.5647 21.9266 2
30.2027 19.3292 0.0167151
34.9373 25.1516 0.0118149
32.304 22.3936 0.0194457
31.6298 25.6015 2
29.5562 27.299 3.98084
29.9383 37.5202 3.95509
32.0708 37.5213 2
33.9871 37.5185 0.0539281
33.1768 49.1391 0.0153762
32.2195 46.4645 0.0221955
32.1954 39.2861 0.02313
31.2223 43.8418 0.080385
30.9787 41.2542 0.0366282
31.0491 47.8861 2
30.2019 39.5151 2
29.7607 42.0362 2
30.3117 45.0491 2
29.0524 46.4636 3.97645
28.823 39.915 3.91384
28.5158 43.259 3.9872
29.7927 49.7395 0.0237035
27.7836 48.2187 2
25.8391 46.6978 3.97811
26.4474 50.0346 0.0262876
24.5748 48.5133 2
22.7221 47.1247 3.98677
23.287 50.2376 0.0219845
21.5921 48.8278 2
19.9283 47.6521 3.98517
20.4199 50.3503 0.0218118
18.9879 49.1223 2
17.6306 48.2046 3.98405
16.1104 48.706 3.98417
16.859 49.3562 2
15.8218 50.193 3.98173
15.3569 52.4371 3.98104
16.7448 51.4322 2
17.9514 50.3587 0.0199635
14.8548 54.9958 3.98262
16.369 53.8935 2
17.8062 52.8193 0.0204055
14.4523 57.7532 3.98484
15.965 56.4947 2
17.4201 55.3637 0.0176487
14.2638 60.7011 3.98696
15.7442 59.224 2
17.126 57.8917 0.0155611
14.3327 63.862 3.99264
15.7863 62.1465 2
17.132 60.5615 0.0151705
14.6715 67.2507 4
16.0886 65.3027 2
17.4065 63.4745 0.0119169
16.6661 68.6801 2
17.9423 66.6197 0.00699455
18.75 69.9759 0
18.9292 15.7715 3.98409
20.2167 14.5858 2
18.9782 13.1002 3.98496
21.5853 13.5972 0.0158973
20.5291 11.9895 2
19.3431 10.2305 3.98844
19.9909 7.14491 3.99324
21.1437 9.14256 2
22.1899 11.0197 0.0142168
20.9142 3.86727 4
22.016 6.08032 2
23.0405 8.1733 0.0107644
23.1494 2.85451 2
24.1172 5.14147 0.00649481
25.446 1.99014 0
30.2209 35.529 3.96113
32.1988 35.755 2
34.0275 35.8291 0.0478493
21.3016 15.8187 0.0166532
22.0931 16.6242 2
20.2978 16.9512 2
19.235 18.3966 3.98395
21.7759 17.8389 3.98331
25.3769 16.0768 0.0168069
23.2602 16.2402 0.0171466
24.1988 18.4397 2
22.2669 19.8789 3.98254
24.576 21.309 3.98267
26.3772 23.7118 3.98281
27.0016 21.448 2
27.4342 18.7869 0.0169265
29.7622 33.0045 3.9216
30.9748 33.7823 2
32.5343 34.1538 0.02677
32.1632 32.278 0.0371131
33.0331 29.8107 0.0764736
35.0458 27.3405 -0.000702532
32.4494 28.0561 2
31.1969 31.2051 2
29.9994 29.4991 3.9994
27.8002 26.5379 3.96952
28.7496 24.3952 2
29.5642 21.9246 0.0124199
31.6289 25.6102 0.0149031
29.5489 27.2502 2
28.4931 37.5169 3.91857
29.9328 37.5217 2
32.0701 37.5215 0.0212724
31.0458 47.8943 0.0177618
30.326 45.0412 0.0202286
30.2074 39.5149 0.0421322
29.7657 42.0322 0.0822947
29.0563 46.4626 2
28.819 39.9152 2
28.5061 43.2626 2
27.1242 44.8164 3.9671
26.6028 40.6578 4.00634
27.7831 48.2218 0.0226055
25.8408 46.6961 2
23.8671 45.2553 3.98027
24.5745 48.5148 0.0214842
22.7232 47.1223 2
20.8532 45.9347 3.98633
21.5915 48.8295 0.0195982
19.9291 47.6511 2
18.2728 46.765 3.98551
18.9874 49.1232 0.0179755
17.6311 48.2042 2
16.2989 47.7358 3.98392
16.1107 48.7057 2
15.168 49.036 3.98293
16.8587 49.3566 0.0174356
15.822 50.1927 2
14.4699 51.0039 3.98155
13.8155 53.4512 3.98202
15.3568 52.4369 2
16.7447 51.4326 0.0197666
13.2461 56.1811 3.98408
14.8546 54.9958 2
16.3691 53.8937 0.018777
12.8456 59.135 3.98673
14.4522 57.7535 2
15.9653 56.4945 0.0162161
12.6779 62.3047 3.99216
14.2638 60.7015 2
15.7443 59.2236 0.0150058
12.7746 65.6939 4
14.3325 63.8621 2
15.7863 62.146 0.0125157
14.6714 67.2507 2
16.0887 65.3026 0.00714331
16.6661 68.6801 0
17.6623 17.1457 3.98406
18.9294 15.7714 2
17.5088 14.3634 3.98493
20.2166 14.5857 0.0161763
18.9784 13.1001 2
17.6385 11.4492 3.98773
20.529 11.9896 0.0146711
19.3431 10.2303 2
18.0511 8.33769 3.99299
18.75 5.0241 4
19.9907 7.14492 2
21.1437 9.14276 0.0110306
20.9142 3.86727 2
22.0163 6.08038 0.00666501
23.1494 2.85457 0
28.8289 35.1213 3.92007
30.2148 35.5319 2
32.2006 35.7549 0.024653
22.0928 16.624 0.0170029
20.2975 16.9512 0.0157841
21.7763 17.8388 2
19.2352 18.3965 2
17.9683 19.927 3.98382
20.8663 19.3648 3.98375
24.1983 18.4389 0.0181353
22.2676 19.8787 2
24.5774 21.3102 2
22.3388 21.7026 3.98348
24.6628 23.1543 3.98282
25.3919 25.9403 3.97417
26.3787 23.7125 2
27.0003 21.4464 0.0185339
28.1535 32.2724 3.98309
29.7573 33.0041 2
30.9852 33.7849 0.0404451
31.1882 31.2004 0.0759136
32.4637 28.0594 -0.00587648
29.9729 29.498 2
26.8964 29.1357 3.97587
27.7952 26.5378 2
28.749 24.3891 0.0132517
29.5562 27.299 0.0191622
26.7222 37.3669 3.98865
28.4895 37.5153 2
29.9383 37.5202 0.0449061
29.0524 46.4636 0.0235509
28.5158 43.259 0.0127962
28.823 39.915 0.086162
27.1295 44.8157 2
26.6037 40.6593 2
25.0891 43.2085 3.97285
23.8495 39.4399 3.96743
25.8391 46.6978 0.0218894
23.8688 45.255 2
21.8234 43.9873 3.98365
22.7221 47.1247 0.0132293
20.8546 45.9339 2
18.9293 44.9979 3.98265
19.9283 47.6521 0.0148292
18.2735 46.7647 2
16.5871 46.2343 3.98241
17.6306 48.2046 0.0159482
16.2994 47.7356 2
14.8965 47.6892 3.98261
16.1104 48.706 0.0158329
15.1682 49.0358 2
13.7674 49.5631 3.98205
15.8218 50.193 0.0182712
14.47 51.0037 2
12.8817 51.8887 3.98189
12.1327 54.5389 3.98341
13.8153 53.4511 2
15.3569 52.4371 0.0189611
11.5294 57.4671 3.98624
13.2459 56.1812 2
14.8548 54.9958 0.0173833
11.1324 60.6312 3.99173
12.8455 59.1354 2
14.4523 57.7532 0.0151649
10.9835 64.0165 4
12.6778 62.3048 2
14.2638 60.7011 0.0130382
12.7745 65.694 2
14.3327 63.862 0.00736164
14.6715 67.2507 0
16.3931 18.6382 3.98422
17.6625 17.1456 2
16.0989 15.7715 3.98495
18.9292 15.7715 0.0159139
17.5089 14.3631 2
16.0197 12.802 3.98717
18.9782 13.1002 0.0150442
17.6386 11.4489 2
16.2023 9.66065 3.99268
19.3431 10.2305 0.0115641
18.051 8.33773 2
16.6661 6.31991 4
18.75 5.02404 2
19.9909 7.14491 0.00675533
20.9142 3.86727 0
27.228 34.7414 3.97979
28.8233 35.1201 2
30.2209 35.529 0.0388653
16.6655 21.3608 3.98226
21.7759 17.8389 0.0166911
19.235 18.3966 0.0160453
20.8668 19.3646 2
17.9686 19.927 2
19.7067 21.5557 3.98541
22.2669 19.8789 0.0174608
24.576 21.309 0.0173273
22.34 21.7017 2
24.6634 23.1549 2
22.8024 24.5867 3.9782
24.4472 28.5167 3.97351
25.3891 25.9392 2
26.3772 23.7118 0.0171911
25.9908 31.7096 3.97982
28.1448 32.2691 2
29.7622 33.0045 0.0784004
29.9994 29.4991 0.000601357
26.9015 29.1381 2
27.8002 26.5379 0.0304818
24.5366 36.8718 3.97929
26.723 37.3708 2
28.4931 37.5169 0.0814256
27.1242 44.8164 0.0328995
26.6028 40.6578 -0.00634219
25.0905 43.2094 2
23.8505 39.4407 2
22.8685 41.8258 3.97875
21.6064 38.5065 3.97772
23.8671 45.2553 0.0197285
21.8248 43.9883 2
19.6756 42.9117 3.97914
20.8532 45.9347 0.0136685
18.9304 44.9981 2
16.9135 44.3998 3.9799
18.2728 46.765 0.0144949
16.5877 46.2343 2
14.8161 46.1079 3.98079
16.2989 47.7358 0.0160762
14.8969 47.6891 2
13.2737 48.0239 3.98156
15.168 49.036 0.0170742
13.7675 49.563 2
12.1003 50.2655 3.98189
14.4699 51.0039 0.0184512
12.8816 51.8886 2
11.1279 52.8466 3.98294
10.3194 55.7184 3.98562
12.1325 54.539 2
13.8155 53.4512 0.017981
9.69892 58.8541 3.99096
11.5293 57.4673 2
13.2461 56.1811 0.0159159
9.30605 62.2254 4
11.1323 60.6313 2
12.8456 59.135 0.0132679
10.9835 64.0165 2
12.6779 62.3047 0.00783655
12.7746 65.6939 0
15.136 20.1713 3.98328
16.3934 18.6381 2
14.7436 17.2933 3.98463
17.6623 17.1457 0.0159383
16.0991 15.7712 2
14.4815 14.2831 3.98682
17.5088 14.3634 0.0150708
16.0198 12.8017 2
14.4448 11.1116 3.99239
17.6385 11.4492 0.0122665
16.2021 9.66067 2
14.6715 7.74927 4
18.0511 8.33769 0.00700648
16.6661 6.31988 2
18.75 5.0241 0
25.1735 34.2769 3.98488
27.2272 34.7437 2
28.8289 35.1213 0.0799273
17.8351 22.3056 3.98599
15.5078 22.9037 3.98086
16.6657 21.3606 2
20.8663 19.3648 0.0162539
17.9683 19.927 0.016175
19.7074 21.5552 2
19.6284 24.3611 3.98132
22.3388 21.7026 0.0165229
24.6628 23.1543 0.0171761
22.8008 24.5852 2
21.8352 27.8076 3.97487
23.6137 31.1781 3.97305
24.4499 28.5198 2
25.3919 25.9403 0.0258283
25.9942 31.7065 2
28.1535 32.2724 0.0169075
26.8964 29.1357 0.0241282
22.3169 36.2707 3.98318
24.5382 36.8725 2
26.7222 37.3669 0.0113529
25.0891 43.2085 0.0271541
23.8495 39.4399 0.0325685
22.869 41.8263 2
21.6072 38.5065 2
20.5927 40.645 3.97804
19.9714 37.7847 3.98079
21.8234 43.9873 0.0163536
19.6766 42.9118 2
17.3053 42.1163 3.9782
18.9293 44.9979 0.0173532
16.9144 44.4 2
14.816 44.2157 3.97853
16.5871 46.2343 0.017595
14.8166 46.1079 2
12.9455 46.309 3.9799
14.8965 47.6892 0.0173864
13.274 48.0239 2
11.4714 48.5609 3.98132
13.7674 49.5631 0.0179516
12.1004 50.2655 2
10.2534 51.0887 3.98257
12.8817 51.8887 0.0181062
11.1278 52.8466 2
9.228 53.8953 3.98512
8.38244 56.9867 3.98998
10.3193 55.7185 2
12.1327 54.5389 0.0165874
7.74927 60.3285 4
9.69881 58.8542 2
11.5294 57.4671 0.0137627
9.306 62.2255 2
11.1324 60.6312 0.00826648
10.9835 64.0165 0
13.9464 21.7374 3.98231
15.1362 20.171 2
13.4431 18.8896 3.98422
16.3931 18.6382 0.0157843
14.7438 17.2931 2
13.0264 15.8752 3.98647
16.0989 15.7715 0.0150451
14.4816 14.2828 2
12.7819 12.6847 3.99206
16.0197 12.802 0.0128268
14.4447 11.1116 2
12.7746 9.30605 4
16.2023 9.66065 0.00732409
14.6715 7.74924 2
16.6661 6.31991 0
22.9094 33.7926 3.98332
25.1732 34.2769 2
27.228 34.7414 0.0202131
17.5983 24.0243 3.98218
17.8352 22.3051 2
14.2888 24.4361 3.97952
15.5074 22.903 2
16.6655 21.3608 0.0177447
18.9779 27.1839 3.97442
19.7067 21.5557 0.0145941
19.6273 24.3612 2
21.0666 30.6487 3.97559
22.8024 24.5867 0.0218049
21.837 27.8085 2
23.615 31.1786 2
24.4472 28.5167 0.0264921
25.9908 31.7096 0.0201791
20.0861 35.9177 3.98278
22.3179 36.2713 2
24.5366 36.8718 0.0207128
22.8685 41.8258 0.02125
21.6064 38.5065 0.0222829
20.5933 40.6449 2
19.972 37.7849 2
17.9719 39.008 3.97915
19.6756 42.9117 0.020864
17.306 42.1166 2
14.7611 41.9298 3.97774
16.9135 44.3998 0.0201009
14.8167 44.2158 2
12.6847 44.4033 3.97836
14.8161 46.1079 0.0192082
12.9458 46.3091 2
10.9732 46.743 3.97996
13.2737 48.0239 0.0184412
11.4716 48.561 2
9.51663 49.2471 3.98194
12.1003 50.2655 0.0181083
10.2534 51.0888 2
8.26085 52.007 3.98464
11.1279 52.8466 0.0170576
9.22786 53.8955 2
7.19134 55.0363 3.98921
6.31991 58.3339 4
8.38231 56.9868 2
10.3194 55.7184 0.0143776
7.74924 60.3285 2
9.69892 58.8541 0.00903953
9.30605 62.2254 0
13.2097 25.3508 3.98323
12.8123 23.2672 3.98133
13.9462 21.7367 2
12.2273 20.5384 3.98381
15.136 20.1713 0.0167241
13.4433 18.8892 2
11.6555 17.5559 3.9863
14.7436 17.2933 0.0153714
13.0265 15.875 2
11.2191 14.3692 3.99157
14.4815 14.2831 0.013175
12.7819 12.6847 2
10.9835 10.9835 4
14.4448 11.1116 0.00760979
12.7745 9.306 2
14.6715 7.74927 0
20.4748 33.3833 3.98037
22.9096 33.7925 2
25.1735 34.2769 0.015119
15.8681 26.3861 3.97743
17.5976 24.0238 2
17.8351 22.3056 0.0140133
14.2888 24.4363 2
15.5078 22.9037 0.0191399
18.314 30.1581 3.97495
18.9792 27.1845 2
19.6284 24.3611 0.0186775
21.0675 30.6487 2
21.8352 27.8076 0.0251298
23.6137 31.1781 0.0269481
17.594 35.9614 3.98164
20.087 35.918 2
22.3169 36.2707 0.0168175
20.5927 40.645 0.0219622
19.9714 37.7847 0.0192053
17.9722 39.0081 2
14.2643 39.1823 3.97924
17.3053 42.1163 0.0217966
14.7616 41.93 2
12.3707 42.2857 3.97823
14.816 44.2157 0.021471
12.6852 44.4034 2
10.55 44.8104 3.97897
12.9455 46.309 0.0200993
10.9734 46.7432 2
8.89931 47.3248 3.98082
11.4714 48.5609 0.0186768
9.51663 49.2472 2
7.42784 50.039 3.98393
10.2534 51.0887 0.0174318
8.26073 52.0071 2
6.13179 53.0099 3.98871
9.228 53.8953 0.0148791
7.19117 55.0362 2
5.0241 56.25 4
6.31988 58.3339 2
8.38244 56.9867 0.0100181
7.74927 60.3285 0
13.4446 26.8032 3.9787
11.9256 24.7778 3.98063
13.2099 25.3507 2
11.1295 22.224 3.9829
12.8123 23.267 2
13.9464 21.7374 0.0176863
12.2272 20.5379 2
10.385 19.311 3.98612
13.4431 18.8896 0.0157813
11.6556 17.5556 2
9.75988 16.1522 3.99096
13.0264 15.8752 0.013527
11.2191 14.3692 2
9.30607 12.7746 4
12.7819 12.6847 0.00794242
10.9835 10.9835 2
12.7746 9.30605 0
17.7773 33.1018 3.97818
20.4751 33.3833 2
22.9094 33.7926 0.016682
15.4534 29.6255 3.97661
15.8689 26.3865 2
17.5983 24.0243 0.0178192
14.2888 24.4361 0.0204767
18.3145 30.1581 2
18.9779 27.1839 0.0255794
21.0666 30.6487 0.0244113
14.8555 36.0173 3.97997
17.5947 35.9615 2
20.0861 35.9177 0.0172203
12.5643 37.8321 3.97887
17.9719 39.008 0.0208486
14.2646 39.1825 2
11.883 40.1474 3.97923
14.7611 41.9298 0.0222569
12.3711 42.2859 2
10.1487 42.7844 3.97855
12.6847 44.4033 0.0216353
10.5503 44.8106 2
8.37727 45.3257 3.98007
10.9732 46.743 0.0200426
8.89938 47.325 2
6.71939 48.0031 3.98294
9.51663 49.2471 0.0180618
7.42775 50.0391 2
5.20845 50.9118 3.98839
8.26085 52.007 0.0153552
6.1316 53.0095 2
3.86727 54.0858 4
7.19134 55.0363 0.010794
5.02404 56.25 2
6.31991 58.3339 0
12.8992 29.0247 3.97598
11.3551 26.4794 3.97972
13.4451 26.8029 2
10.1888 23.9599 3.98154
11.9257 24.7776 2
13.2097 25.3508 0.0167671
9.23673 21.131 3.98532
11.1295 22.2237 2
12.8123 23.2672 0.0186701
12.2273 20.5384 0.0161948
10.3849 19.3105 2
8.41561 18.0232 3.99026
11.6555 17.5559 0.0136974
9.75987 16.1521 2
7.74928 14.6715 4
11.2191 14.3692 0.00843251
9.30602 12.7745 2
10.9835 10.9835 0
14.4441 32.8555 3.97799
17.7776 33.1019 2
20.4748 33.3833 0.019629
15.4537 29.6255 2
15.8681 26.3861 0.0225679
18.314 30.1581 0.0250465
12.852 36.2088 3.97843
14.8561 36.0174 2
17.594 35.9614 0.0183605
12.5647 37.8321 2
11.2415 38.3136 3.97834
14.2643 39.1823 0.0207568
11.8832 40.1477 2
9.73387 40.7594 3.97913
12.3707 42.2857 0.0217734
10.1489 42.7847 2
7.92634 43.2738 3.97966
10.55 44.8104 0.0210293
8.37749 45.3259 2
6.12574 45.9074 3.98228
8.89931 47.3248 0.0191816
6.71936 48.0031 2
4.42005 48.7515 3.98817
7.42784 50.039 0.0160666
5.20826 50.9112 2
2.85457 51.8506 4
6.13179 53.0099 0.0112927
3.86727 54.0858 2
5.0241 56.25 0
12.0398 31.2504 3.97828
10.7676 28.4089 3.97801
12.8994 29.0243 2
9.40371 25.7923 3.98073
11.3554 26.4792 2
13.4446 26.8032 0.0213005
8.22395 23.0181 3.98393
10.1888 23.9595 2
11.9256 24.7778 0.0193729
7.19756 19.9738 3.9894
9.23663 21.1306 2
11.1295 22.224 0.0170956
10.385 19.311 0.013877
8.4155 18.023 2
6.31992 16.6661 4
9.75988 16.1522 0.00904
7.74926 14.6714 2
9.30607 12.7746 0
12.0569 34.2917 3.97781
14.4444 32.8555 2
17.7773 33.1018 0.0218226
15.4534 29.6255 0.023394
10.8064 36.6118 3.97765
12.8526 36.2088 2
14.8555 36.0173 0.0200292
12.5643 37.8321 0.0211311
11.2418 38.3137 2
9.32945 38.8269 3.97884
11.883 40.1474 0.0207686
9.7341 40.7597 2
7.53779 41.2143 3.97969
10.1487 42.7844 0.02145
7.92654 43.274 2
5.63776 43.7698 3.98223
8.37727 45.3257 0.0199319
6.12585 45.9073 2
3.76581 46.5369 3.98811
6.71939 48.0031 0.0170643
4.41989 48.7507 2
1.99014 49.554 4
5.20845 50.9118 0.0116133
2.85451 51.8506 2
3.86727 54.0858 0
10.9037 32.9153 3.97882
10.0807 30.3776 3.97848
12.04 31.2502 2
8.71199 27.7278 3.97973
10.7677 28.4085 2
12.8992 29.0247 0.0240211
7.34954 24.979 3.98309
9.40385 25.792 2
11.3551 26.4794 0.0202775
6.11442 21.999 3.9884
8.22385 23.0177 2
10.1888 23.9599 0.0184564
5.02411 18.75 4
7.19739 19.974 2
9.23673 21.131 0.0146775
8.41561 18.0232 0.00974488
6.3199 16.6661 2
7.74928 14.6715 0
10.4185 34.9989 3.97846
12.0572 34.2917 2
14.4441 32.8555 0.0220076
9.00344 36.9863 3.97754
10.8068 36.6118 2
12.852 36.2088 0.0215716
11.2415 38.3136 0.0216608
9.32972 38.827 2
7.21903 39.1841 3.97957
9.73387 40.7594 0.0208724
7.53798 41.2145 2
5.25336 41.6151 3.98202
7.92634 43.2738 0.0203418
5.63787 43.7697 2
3.24365 44.282 3.98813
6.12574 45.9074 0.0177208
3.76576 46.536 2
1.27781 47.2057 4
4.42005 48.7515 0.0118256
1.99012 49.554 2
2.85457 51.8506 0
10.0718 33.8793 3.9787
9.37451 32.1513 3.979
10.9039 32.9152 2
8.06157 29.6927 3.97951
10.0809 30.3774 2
12.0398 31.2504 0.0217186
6.59341 27.0064 3.98232
8.71208 27.7275 2
10.7676 28.4089 0.0219889
5.16958 24.0936 3.98793
7.34958 24.9787 2
9.40371 25.7923 0.0192694
3.86728 20.9142 4
6.1142 21.9995 2
8.22395 23.0181 0.0160677
5.02406 18.75 2
7.19756 19.9738 0.0106045
6.31992 16.6661 0
8.83009 35.2791 3.97837
10.4188 34.9988 2
12.0569 34.2917 0.0221923
7.00425 37.2069 3.97856
9.00382 36.9863 2
10.8064 36.6118 0.022352
9.32945 38.8269 0.0211557
7.21928 39.1842 2
4.98167 39.4682 3.98162
7.53779 41.2143 0.0203109
5.25349 41.615 2
2.85433 42.0025 3.98787
5.63776 43.7698 0.017768
3.24363 44.2811 2
0.720592 44.8159 4
3.76581 46.5369 0.0118907
1.27778 47.2057 2
1.99014 49.554 0
8.87167 33.696 3.97892
10.0721 33.8792 2
7.49952 31.6074 3.97969
9.37472 32.1512 2
10.9037 32.9153 0.0211762
5.93887 29.0684 3.98189
8.06171 29.6925 2
10.0807 30.3776 0.0215162
4.3572 26.2474 3.98785
6.59345 27.0062 2
8.71199 27.7278 0.0202657
2.85458 23.1494 4
5.16941 24.0944 2
7.34954 24.979 0.0169143
3.86728 20.9142 2
6.11442 21.999 0.0115953
5.02411 18.75 0
6.95476 35.3061 3.97877
8.83042 35.2791 2
10.4185 34.9989 0.0215355
4.83254 37.3403 3.98111
7.0046 37.2069 2
9.00344 36.9863 0.0224635
7.21903 39.1841 0.0204273
4.98187 39.4681 2
2.60263 39.7143 3.98735
5.25336 41.6151 0.0179845
2.85435 42.0018 2
0.320823 42.3947 4
3.24365 44.282 0.0118724
0.720551 44.8159 2
1.27781 47.2057 0
7.11411 33.4601 3.97943
8.87193 33.6959 2
10.0718 33.8793 0.0212983
5.41005 31.1331 3.98186
7.49967 31.6072 2
9.37451 32.1513 0.0209955
3.67907 28.4439 3.98791
5.93895 29.0685 2
8.06157 29.6927 0.0204902
1.99015 25.446 4
4.35708 26.2484 2
6.59341 27.0064 0.0176756
2.85453 23.1494 2
5.16958 24.0936 0.0120693
3.86728 20.9142 0
4.84703 35.2519 3.98115
6.95507 35.3061 2
8.83009 35.2791 0.0216295
2.49425 37.4288 3.98721
4.83284 37.3404 2
7.00425 37.2069 0.0214397
4.98167 39.4682 0.0183781
2.60272 39.7138 2
0.080333 39.9526 4
2.85433 42.0025 0.0121267
0.320817 42.3947 2
0.720592 44.8159 0
5.04 33.1902 3.98166
7.11433 33.46 2
8.87167 33.696 0.0210786
3.14359 30.6667 3.98785
5.41015 31.1333 2
7.49952 31.6074 0.0203105
1.27793 27.7943 4
3.67902 28.4449 2
5.93887 29.0684 0.0181093
1.99013 25.446 2
4.3572 26.2474 0.0121523
2.85458 23.1494 0
2.54646 35.1594 3.98719
4.84729 35.2521 2
6.95476 35.3061 0.0212282
0 37.5 4
2.4944 37.4288 2
4.83254 37.3403 0.0188898
2.60263 39.7143 0.0126511
0.0802903 39.9526 2
0.320823 42.3947 0
2.76388 32.9062 3.9875
5.04017 33.1905 2
7.11411 33.4601 0.0205722
0.721173 30.1842 4
3.14358 30.6675 2
5.41005 31.1331 0.0181358
1.27779 27.7943 2
3.67907 28.4439 0.0120922
1.99015 25.446 0
0.0806499 35.0474 4
2.54657 35.1597 2
4.84703 35.2519 0.0188547
0 37.5 2
2.49425 37.4288 0.0127892
0.080333 39.9526 0
0.32156 32.6054 4
2.76394 32.9068 2
5.04 33.1902 0.0183357
0.72056 30.1841 2
3.14359 30.6667 0.0121531
1.27793 27.7943 0
0.0802889 35.0474 2
2.54646 35.1594 0.0128118
0 37.5 0
0.320817 32.6053 2
2.76388 32.9062 0.0124972
0.721173 30.1842 0
0.0806499 35.0474 0
0.32156 32.6054 0
CELLS 1910 17190
8 18 6 25 56 2 0 5 16
8 57 23 6 18 17 4 0 2
8 78 36 9 29 31 11 1 7
8 31 11 1 7 79 37 10 30
8 110 57 18 50 48 17 2 14
8 50 18 56 111 14 2 16 49
8 116 62 22 55 52 20 3 15
8 56 25 67 118 16 5 24 53
8 119 63 23 57 54 21 4 17
8 55 22 63 119 15 3 21 54
8 58 26 68 121 18 6 25 56
8 122 65 26 58 57 23 6 18
8 73 31 7 27 142 79 30 71
8 143 78 29 72 73 31 7 27
8 83 147 76 34 32 74 28 8
8 84 148 78 36 33 75 29 9
8 76 34 8 28 148 84 33 75
8 37 79 150 86 10 30 77 35
8 151 87 36 78 80 38 11 31
8 80 38 11 31 152 88 37 79
8 175 100 42 94 96 44 12 40
8 44 96 176 101 12 40 95 43
8 101 176 98 46 43 95 41 13
8 46 98 178 103 13 41 97 45
8 178 103 45 97 147 83 32 74
8 189 116 55 109 106 52 15 47
8 111 56 118 191 49 16 53 107
8 192 119 57 110 108 54 17 48
8 109 55 119 192 47 15 54 108
8 194 122 58 112 110 57 18 50
8 112 58 121 195 50 18 56 111
8 115 61 19 51 197 124 59 113
8 115 61 125 198 51 19 60 114
8 198 125 62 116 114 60 20 52
8 200 127 64 120 116 62 22 55
8 118 67 132 202 53 24 66 117
8 121 68 133 203 56 25 67 118
8 120 64 128 204 55 22 63 119
8 204 128 65 122 119 63 23 57
8 206 134 68 121 123 69 26 58
8 123 69 26 58 207 131 65 122
8 226 147 74 138 140 76 28 70
8 229 148 75 139 143 78 29 72
8 140 76 28 70 229 148 75 139
8 142 79 30 71 231 150 77 141
8 144 80 31 73 232 152 79 142
8 233 151 78 143 144 80 31 73
8 150 86 35 77 235 154 81 145
8 235 154 81 145 146 82 39 91
8 146 82 39 91 236 155 90 165
8 238 157 83 147 149 85 34 76
8 239 158 84 148 151 87 36 78
8 149 85 34 76 239 158 84 148
8 152 88 37 79 241 160 86 150
8 242 161 87 151 153 89 38 80
8 153 89 38 80 243 162 88 152
8 171 98 41 92 265 178 97 169
8 265 178 97 169 226 147 74 138
8 172 96 40 93 266 176 95 170
8 266 176 95 170 171 98 41 92
8 269 175 94 173 172 96 40 93
8 271 180 99 174 175 100 42 94
8 197 124 59 113 271 180 99 174
8 272 181 100 175 177 102 44 96
8 273 182 101 176 179 104 46 98
8 177 102 44 96 273 182 101 176
8 179 104 46 98 275 184 103 178
8 275 184 103 178 238 157 83 147
8 188 115 51 105 283 197 113 186
8 188 115 198 284 105 51 114 187
8 284 198 116 189 187 114 52 106
8 286 200 120 193 189 116 55 109
8 191 118 202 288 107 53 117 190
8 195 121 203 289 111 56 118 191
8 193 120 204 290 109 55 119 192
8 290 204 122 194 192 119 57 110
8 196 123 58 112 292 207 122 194
8 293 206 121 195 196 123 58 112
8 199 126 61 115 297 211 124 197
8 298 212 127 200 198 125 62 116
8 199 126 212 298 115 61 125 198
8 205 129 64 120 300 214 127 200
8 301 217 130 201 202 132 66 117
8 209 136 168 264 301 217 130 201
8 302 219 132 202 203 133 67 118
8 303 220 133 203 206 134 68 121
8 205 129 215 304 120 64 128 204
8 304 215 131 207 204 128 65 122
8 306 221 134 206 208 135 69 123
8 208 135 69 123 307 218 131 207
8 210 137 167 263 309 223 136 209
8 328 238 147 226 230 149 76 140
8 228 146 91 166 329 236 165 260
8 231 150 77 141 330 235 145 227
8 330 235 145 227 228 146 91 166
8 332 239 148 229 233 151 78 143
8 230 149 76 140 332 239 148 229
8 232 152 79 142 334 241 150 231
8 234 153 80 144 335 243 152 232
8 336 242 151 233 234 153 80 144
8 236 155 90 165 338 245 164 259
8 241 160 86 150 339 246 154 235
8 339 246 154 235 237 156 82 146
8 237 156 82 146 340 247 155 236
8 342 249 157 238 240 159 85 149
8 343 250 158 239 242 161 87 151
8 240 159 85 149 343 250 158 239
8 243 162 88 152 345 252 160 241
8 244 163 253 346 153 89 161 242
8 244 163 89 153 347 254 162 243
8 311 224 261 371 210 137 167 263
8 263 167 262 372 209 136 168 264
8 267 179 98 171 375 275 178 265
8 375 275 178 265 328 238 147 226
8 376 273 176 266 267 179 98 171
8 268 177 96 172 376 273 176 266
8 379 272 175 269 268 177 96 172
8 380 271 174 270 269 175 94 173
8 283 197 113 186 380 271 174 270
8 381 277 180 271 272 181 100 175
8 297 211 124 197 381 277 180 271
8 382 278 181 272 274 183 102 177
8 274 183 102 177 383 279 182 273
8 383 279 182 273 276 185 104 179
8 385 281 184 275 342 249 157 238
8 276 185 104 179 385 281 184 275
8 285 199 115 188 393 297 197 283
8 394 298 200 286 284 198 116 189
8 285 199 298 394 188 115 198 284
8 291 205 120 193 396 300 200 286
8 397 301 201 287 288 202 117 190
8 295 209 264 374 397 301 201 287
8 398 302 202 288 289 203 118 191
8 399 303 203 289 293 206 121 195
8 291 205 304 400 193 120 204 290
8 400 304 207 292 290 204 122 194
8 294 208 123 196 402 307 207 292
8 403 306 206 293 294 208 123 196
8 296 210 263 373 405 309 209 295
8 408 312 213 299 297 211 126 199
8 299 213 313 409 199 126 212 298
8 409 313 214 300 298 212 127 200
8 305 216 129 205 411 315 214 300
8 412 318 217 301 302 219 132 202
8 309 223 136 209 412 318 217 301
8 413 320 219 302 303 220 133 203
8 306 221 321 414 206 134 220 303
8 307 218 131 207 415 316 215 304
8 305 216 316 415 205 129 215 304
8 417 322 221 306 308 222 135 208
8 308 222 135 208 418 319 218 307
8 310 225 137 210 420 325 223 309
8 423 326 224 311 310 225 137 210
8 329 236 165 260 441 338 259 368
8 442 342 238 328 333 240 149 230
8 331 237 146 228 443 340 236 329
8 334 241 150 231 444 339 235 330
8 444 339 235 330 331 237 146 228
8 446 343 239 332 336 242 151 233
8 333 240 149 230 446 343 239 332
8 335 243 152 232 448 345 241 334
8 337 244 153 234 449 347 243 335
8 337 244 346 450 234 153 242 336
8 338 245 164 259 452 349 258 367
8 340 247 155 236 453 350 245 338
8 345 252 160 241 454 351 246 339
8 454 351 246 339 341 248 156 237
8 341 248 156 237 455 352 247 340
8 240 159 251 344 342 249 354 457
8 242 161 253 346 343 250 355 458
8 343 250 355 458 240 159 251 344
8 347 254 162 243 460 357 252 345
8 348 255 358 461 244 163 253 346
8 348 255 163 244 462 359 254 347
8 473 360 257 365 363 256 364 482
8 452 349 258 367 365 257 366 485
8 422 324 369 488 311 224 261 371
8 371 261 370 490 263 167 262 372
8 407 311 371 491 296 210 263 373
8 373 263 372 492 295 209 264 374
8 493 385 275 375 442 342 238 328
8 377 276 179 267 493 385 275 375
8 378 274 177 268 494 383 273 376
8 494 383 273 376 377 276 179 267
8 497 382 272 379 378 274 177 268
8 498 381 271 380 379 272 175 269
8 393 297 197 283 498 381 271 380
8 499 387 277 381 382 278 181 272
8 408 312 211 297 499 387 277 381
8 500 388 278 382 384 280 183 274
8 501 389 279 383 386 282 185 276
8 384 280 183 274 501 389 279 383
8 386 282 185 276 503 391 281 385
8 503 391 281 385 457 354 249 342
8 511 408 299 395 393 297 199 285
8 395 299 409 512 285 199 298 394
8 512 409 300 396 394 298 200 286
8 401 305 205 291 514 411 300 396
8 515 412 301 397 398 302 202 288
8 405 309 209 295 515 412 301 397
8 516 413 302 398 399 303 203 289
8 403 306 414 517 293 206 303 399
8 402 307 207 292 518 415 304 400
8 401 305 415 518 291 205 304 400
8 404 308 208 294 520 418 307 402
8 521 417 306 403 404 308 208 294
8 406 310 210 296 523 420 309 405
8 526 423 311 407 406 310 210 296
8 410 314 213 299 527 424 312 408
8 528 425 315 411 409 313 214 300
8 410 314 425 528 299 213 313 409
8 416 317 216 305 530 427 315 411
8 531 430 318 412 413 320 219 302
8 420 325 223 309 531 430 318 412
8 532 432 320 413 414 321 220 303
8 417 322 433 533 306 221 321 414
8 418 319 218 307 534 428 316 415
8 416 317 428 534 305 216 316 415
8 419 323 434 536 308 222 322 417
8 419 323 222 308 537 431 319 418
8 421 327 225 310 539 438 325 420
8 421 327 439 541 310 225 326 423
8 543 437 324 422 423 326 224 311
8 441 338 259 368 559 452 367 486
8 443 340 236 329 560 453 338 441
8 333 240 344 447 442 342 457 561
8 445 341 237 331 562 455 340 443
8 448 345 241 334 563 454 339 444
8 563 454 339 444 445 341 237 331
8 336 242 346 450 446 343 458 565
8 446 343 458 565 333 240 344 447
8 449 347 243 335 567 460 345 448
8 451 348 244 337 568 462 347 449
8 451 348 461 569 337 244 346 450
8 570 463 349 452 473 360 257 365
8 453 350 245 338 570 463 349 452
8 455 352 247 340 571 464 350 453
8 460 357 252 345 572 465 351 454
8 572 465 351 454 456 353 248 341
8 456 353 248 341 573 466 352 455
8 344 251 356 459 457 354 468 575
8 458 355 469 576 344 251 356 459
8 346 253 358 461 458 355 469 576
8 462 359 254 347 578 471 357 460
8 348 255 359 462 461 358 472 579
8 591 474 360 473 475 361 256 363
8 475 361 256 363 594 477 362 479
8 363 256 364 482 479 362 480 603
8 590 473 365 484 481 363 482 605
8 482 364 257 365 606 483 366 485
8 559 452 367 486 484 365 485 607
8 542 436 487 609 422 324 369 488
8 525 422 488 611 407 311 371 491
8 488 369 489 612 371 261 370 490
8 491 371 490 613 373 263 372 492
8 495 386 276 377 614 503 385 493
8 614 503 385 493 561 457 342 442
8 615 501 383 494 495 386 276 377
8 496 384 274 378 615 501 383 494
8 618 500 382 497 496 384 274 378
8 619 499 381 498 497 382 272 379
8 511 408 297 393 619 499 381 498
8 620 505 387 499 500 388 278 382
8 527 424 312 408 620 505 387 499
8 502 390 506 621 384 280 388 500
8 622 507 389 501 504 392 282 386
8 502 390 280 384 622 507 389 501
8 504 392 282 386 624 509 391 503
8 624 509 391 503 575 468 354 457
8 513 410 299 395 630 527 408 511
8 631 528 411 514 512 409 300 396
8 513 410 528 631 395 299 409 512
8 519 416 305 401 633 530 411 514
8 634 531 412 515 516 413 302 398
8 523 420 309 405 634 531 412 515
8 635 532 413 516 517 414 303 399
8 521 417 533 636 403 306 414 517
8 520 418 307 402 637 534 415 518
8 519 416 534 637 401 305 415 518
8 522 419 308 404 639 537 418 520
8 522 419 536 640 404 308 417 521
8 524 421 310 406 642 539 420 523
8 524 421 541 644 406 310 423 526
8 646 543 422 525 526 423 311 407
8 529 426 314 410 647 544 424 527
8 528 425 545 648 411 315 427 530
8 529 426 545 648 410 314 425 528
8 535 429 317 416 649 546 427 530
8 650 548 430 531 532 432 320 413
8 539 438 325 420 650 548 430 531
8 533 433 550 651 414 321 432 532
8 536 434 551 652 417 322 433 533
8 537 431 319 418 653 547 428 534
8 535 429 547 653 416 317 428 534
8 538 435 552 654 419 323 434 536
8 538 435 323 419 655 549 431 537
8 540 440 327 421 657 556 438 539
8 540 440 557 659 421 327 439 541
8 541 439 555 660 423 326 437 543
8 661 554 436 542 543 437 324 422
8 676 570 452 559 590 473 365 484
8 560 453 338 441 676 570 452 559
8 562 455 340 443 677 571 453 560
8 447 344 459 566 561 457 575 678
8 564 456 341 445 679 573 455 562
8 567 460 345 448 680 572 454 563
8 680 572 454 563 564 456 341 445
8 565 458 576 682 447 344 459 566
8 450 346 461 569 565 458 576 682
8 568 462 347 449 684 578 460 567
8 451 348 462 568 569 461 579 685
8 686 580 463 570 591 474 360 473
8 571 464 350 453 686 580 463 570
8 573 466 352 455 687 581 464 571
8 572 465 582 688 460 357 471 578
8 574 467 582 688 456 353 465 572
8 574 467 353 456 689 583 466 573
8 459 356 470 577 575 468 585 691
8 576 469 586 692 459 356 470 577
8 461 358 472 579 576 469 586 692
8 462 359 471 578 579 472 588 694
8 704 591 473 590 593 475 363 481
8 595 476 592 705 475 361 474 591
8 593 475 363 481 707 594 479 602
8 594 477 362 479 709 598 478 600
8 595 476 361 475 711 597 477 594
8 479 362 480 603 600 478 601 720
8 481 363 482 605 602 479 603 722
8 603 480 364 482 723 604 483 606
8 605 482 365 484 724 606 485 607
8 656 553 608 726 542 436 487 609
8 645 542 609 728 525 422 488 611
8 609 487 610 729 488 369 489 612
8 611 488 612 730 491 371 490 613
8 616 504 386 495 731 624 503 614
8 731 624 503 614 678 575 457 561
8 732 622 501 615 616 504 386 495
8 617 502 384 496 732 622 501 615
8 617 502 621 735 496 384 500 618
8 736 620 499 619 618 500 382 497
8 630 527 408 511 736 620 499 619
8 621 506 626 737 500 388 505 620
8 647 544 424 527 737 626 505 620
8 623 508 627 738 502 390 506 621
8 623 508 390 502 739 628 507 622
8 625 510 628 739 504 392 507 622
8 740 629 509 624 691 585 468 575
8 625 510 392 504 740 629 509 624
8 632 529 410 513 744 647 527 630
8 631 528 648 745 514 411 530 633
8 632 529 648 745 513 410 528 631
8 638 535 416 519 746 649 530 633
8 747 650 531 634 635 532 413 516
8 642 539 420 523 747 650 531 634
8 636 533 651 748 517 414 532 635
8 640 536 652 749 521 417 533 636
8 639 537 418 520 750 653 534 637
8 638 535 653 750 519 416 534 637
8 641 538 419 522 751 655 537 639
8 641 538 654 752 522 419 536 640
8 643 540 421 524 753 657 539 642
8 643 540 659 755 524 421 541 644
8 644 541 660 757 526 423 543 646
8 758 661 542 645 646 543 422 525
8 529 426 544 647 648 545 662 759
8 530 427 545 648 649 546 663 760
8 535 429 546 649 653 547 664 761
8 762 666 548 650 651 550 432 532
8 657 556 438 539 762 666 548 650
8 652 551 668 763 533 433 550 651
8 654 552 669 764 536 434 551 652
8 655 549 431 537 765 665 547 653
8 538 435 549 655 654 552 667 766
8 661 554 671 768 542 436 553 656
8 658 558 440 540 769 674 556 657
8 658 558 675 770 540 440 557 659
8 659 557 673 771 541 439 555 660
8 660 555 672 772 543 437 554 661
8 788 686 570 676 704 591 473 590
8 677 571 453 560 788 686 570 676
8 679 573 455 562 789 687 571 677
8 566 459 577 683 678 575 691 790
8 681 574 456 564 791 689 573 679
8 680 572 688 792 567 460 578 684
8 681 574 688 792 564 456 572 680
8 682 576 692 794 566 459 577 683
8 569 461 579 685 682 576 692 794
8 568 462 578 684 685 579 694 796
8 687 581 464 571 798 696 580 686
8 798 696 580 686 705 592 474 591
8 689 583 466 573 799 697 581 687
8 688 582 698 800 578 471 588 694
8 690 584 698 800 574 467 582 688
8 690 584 467 574 801 699 583 689
8 693 587 701 803 577 470 585 691
8 693 587 470 577 804 702 586 692
8 695 589 702 804 579 472 586 692
8 695 589 472 579 805 703 588 694
8 708 595 705 813 593 475 591 704
8 710 596 706 814 595 476 592 705
8 707 594 479 602 816 709 600 719
8 708 595 475 593 817 711 594 707
8 709 598 478 600 819 715 599 717
8 711 597 477 594 820 714 598 709
8 710 596 476 595 822 713 597 711
8 600 478 601 720 717 599 718 832
8 602 479 603 722 719 600 720 834
8 720 601 480 603 835 721 604 723
8 722 603 482 605 836 723 606 724
8 767 670 725 839 656 553 608 726
8 756 656 726 841 645 542 609 728
8 726 608 727 842 609 487 610 729
8 728 609 729 843 611 488 612 730
8 844 740 624 731 790 691 575 678
8 733 625 504 616 844 740 624 731
8 734 623 502 617 845 739 622 732
8 733 625 739 845 616 504 622 732
8 734 623 738 846 617 502 621 735
8 735 621 737 847 618 500 620 736
8 744 647 527 630 847 737 620 736
8 621 506 627 738 737 626 741 848
8 647 544 626 737 759 662 741 848
8 623 508 628 739 738 627 742 849
8 740 629 585 691 850 743 700 802
8 625 510 629 740 739 628 743 850
8 632 529 647 744 745 648 759 854
8 633 530 648 745 746 649 760 855
8 638 535 649 746 750 653 761 856
8 857 762 650 747 748 651 532 635
8 753 657 539 642 857 762 650 747
8 749 652 763 858 636 533 651 748
8 752 654 764 859 640 536 652 749
8 751 655 537 639 860 765 653 750
8 641 538 655 751 752 654 766 861
8 754 658 540 643 862 769 657 753
8 754 658 770 863 643 540 659 755
8 755 659 771 864 644 541 660 757
8 758 661 768 866 645 542 656 756
8 757 660 772 867 646 543 661 758
8 759 662 773 868 648 545 663 760
8 649 546 663 760 761 664 774 871
8 765 665 547 653 872 775 664 761
8 873 777 666 762 763 668 550 651
8 769 674 556 657 873 777 666 762
8 764 669 779 874 652 551 668 763
8 654 552 667 766 764 669 778 875
8 655 549 665 765 766 667 776 876
8 768 671 782 877 656 553 670 767
8 772 672 783 878 661 554 671 768
8 658 558 674 769 770 675 786 879
8 659 557 675 770 771 673 785 881
8 882 784 672 772 771 673 555 660
8 789 687 571 677 897 798 686 788
8 897 798 686 788 813 705 591 704
8 791 689 573 679 898 799 687 789
8 795 693 803 900 683 577 691 790
8 793 690 574 681 901 801 689 791
8 792 688 800 902 684 578 694 796
8 793 690 800 902 681 574 688 792
8 795 693 577 683 903 804 692 794
8 797 695 804 903 685 579 692 794
8 797 695 579 685 904 805 694 796
8 905 806 697 799 798 696 581 687
8 814 706 806 905 705 592 696 798
8 689 583 697 799 801 699 808 907
8 800 698 809 908 694 588 703 805
8 690 584 699 801 800 698 809 908
8 803 701 810 909 691 585 700 802
8 693 587 702 804 803 701 811 910
8 695 589 703 805 804 702 812 911
8 818 710 814 919 708 595 705 813
8 821 712 815 920 710 596 706 814
8 816 709 600 719 922 819 717 831
8 817 711 594 707 923 820 709 816
8 818 710 595 708 924 822 711 817
8 819 715 599 717 926 827 716 829
8 820 714 598 709 927 826 715 819
8 929 825 713 822 820 714 597 711
8 821 712 596 710 930 824 713 822
8 717 599 718 832 829 716 830 942
8 719 600 720 834 831 717 832 944
8 832 718 601 720 945 833 721 835
8 834 720 603 722 946 835 723 836
8 869 780 838 950 767 670 725 839
8 865 767 839 952 756 656 726 841
8 839 725 840 953 726 608 727 842
8 841 726 842 954 728 609 729 843
8 844 740 691 790 955 850 802 899
8 733 625 740 844 845 739 850 955
8 734 623 739 845 846 738 849 956
8 735 621 738 846 847 737 848 957
8 744 647 737 847 854 759 848 957
8 738 627 742 849 848 741 851 958
8 848 741 851 958 759 662 773 868
8 850 743 700 802 959 852 807 906
8 849 742 628 739 959 852 743 850
8 854 759 868 965 745 648 760 855
8 746 649 760 855 856 761 871 966
8 860 765 653 750 967 872 761 856
8 968 873 762 857 858 763 651 748
8 862 769 657 753 968 873 762 857
8 859 764 874 969 749 652 763 858
8 752 654 766 861 859 764 875 970
8 751 655 765 860 861 766 876 971
8 754 658 769 862 863 770 879 972
8 755 659 770 863 864 771 881 974
8 976 882 772 867 864 771 660 757
8 866 768 877 977 756 656 767 865
8 867 772 878 978 758 661 768 866
8 760 663 773 868 871 774 883 980
8 870 781 837 948 982 890 780 869
8 982 890 780 869 877 782 670 767
8 761 664 774 871 872 775 884 984
8 876 776 665 765 985 885 775 872
8 873 777 668 763 986 887 779 874
8 769 674 777 873 879 786 887 986
8 764 669 778 875 874 779 888 987
8 766 667 776 876 875 778 886 988
8 878 783 892 989 768 671 782 877
8 878 783 672 772 990 893 784 882
8 880 787 675 770 991 896 786 879
8 880 787 895 992 770 675 785 881
8 881 785 894 993 771 673 784 882
8 1006 905 799 898 897 798 687 789
8 919 814 905 1006 813 705 798 897
8 791 689 799 898 901 801 907 1007
8 900 803 909 1009 790 691 802 899
8 795 693 804 903 900 803 910 1010
8 902 800 908 1011 796 694 805 904
8 793 690 801 901 902 800 908 1011
8 797 695 805 904 903 804 911 1012
8 799 697 806 905 907 808 912 1013
8 920 815 912 1013 814 706 806 905
8 802 700 810 909 906 807 913 1014
8 801 699 808 907 908 809 914 1015
8 805 703 809 908 911 812 915 1016
8 803 701 811 910 909 810 916 1017
8 911 812 917 1018 804 702 811 910
8 925 821 920 1030 818 710 814 919
8 928 823 921 1031 821 712 815 920
8 922 819 717 831 1033 926 829 941
8 923 820 709 816 1034 927 819 922
8 1035 929 822 924 923 820 711 817
8 925 821 710 818 1036 930 822 924
8 1038 933 825 929 927 826 714 820
8 926 827 716 829 1039 935 828 939
8 927 826 715 819 1040 934 827 926
8 928 823 712 821 1041 931 824 930
8 1042 932 824 930 929 825 713 822
8 829 716 830 942 939 828 940 1058
8 831 717 832 944 941 829 942 1060
8 942 830 718 832 1061 943 833 945
8 944 832 720 834 1062 945 835 946
8 981 889 947 1064 870 781 837 948
8 948 837 949 1067 869 780 838 950
8 975 869 950 1069 865 767 839 952
8 950 838 951 1070 839 725 840 953
8 952 839 953 1071 841 726 842 954
8 955 850 802 899 1072 959 906 1008
8 956 849 739 845 1072 959 850 955
8 846 738 849 956 957 848 958 1073
8 957 848 958 1073 854 759 868 965
8 849 742 852 959 958 851 961 1076
8 960 853 961 1076 906 807 852 959
8 958 851 961 1076 868 773 883 980
8 960 853 807 906 1077 963 913 1014
8 855 760 868 965 966 871 980 1085
8 856 761 871 966 967 872 984 1086
8 971 876 765 860 1087 985 872 967
8 968 873 763 858 1088 986 874 969
8 862 769 873 968 972 879 986 1088
8 859 764 875 970 969 874 987 1089
8 861 766 876 971 970 875 988 1090
8 973 880 770 863 1091 991 879 972
8 973 880 992 1092 863 770 881 974
8 974 881 993 1093 864 771 882 976
8 979 870 948 1066 1094 982 869 975
8 1094 982 869 975 977 877 767 865
8 978 878 772 867 1095 990 882 976
8 978 878 989 1096 866 768 877 977
8 871 774 883 980 984 884 994 1099
8 983 891 999 1100 870 781 889 981
8 1101 1000 890 982 989 892 782 877
8 983 891 781 870 1101 1000 890 982
8 872 775 884 984 985 885 995 1103
8 876 776 885 985 988 886 996 1104
8 986 887 779 874 1105 998 888 987
8 879 786 887 986 991 896 998 1105
8 875 778 886 988 987 888 997 1106
8 990 893 1002 1107 878 783 892 989
8 1108 1003 893 990 993 894 784 882
8 880 787 896 991 992 895 1005 1109
8 993 894 785 881 1110 1004 895 992
8 898 799 905 1006 1007 907 1013 1120
8 1030 920 1013 1120 919 814 905 1006
8 901 801 907 1007 1011 908 1015 1121
8 899 802 909 1009 1008 906 1014 1122
8 900 803 910 1010 1009 909 1017 1123
8 1012 911 1018 1124 903 804 910 1010
8 904 805 908 1011 1012 911 1016 1125
8 1013 912 1020 1127 907 808 914 1015
8 1031 921 1020 1127 920 815 912 1013
8 1019 918 962 1075 1128 1021 913 1014
8 1128 1021 913 1014 1017 916 810 909
8 1015 914 1022 1129 908 809 915 1016
8 1016 915 1023 1130 911 812 917 1018
8 1018 917 1024 1131 910 811 916 1017
8 1037 928 1031 1148 925 821 920 1030
8 928 823 931 1041 1031 921 1032 1149
8 1033 926 829 941 1151 1039 939 1057
8 1034 927 819 922 1152 1040 926 1033
8 1153 1038 929 1035 1034 927 820 923
8 1154 1042 930 1036 1035 929 822 924
8 1037 928 821 925 1155 1041 930 1036
8 1039 935 828 939 1156 1047 938 1055
8 1157 1043 932 1042 1038 933 825 929
8 1038 933 826 927 1158 1045 934 1040
8 1040 934 827 926 1159 1046 935 1039
8 930 824 932 1042 1041 931 1044 1160
8 1051 936 1048 1165 1175 1052 937 1053
8 1156 1047 938 1055 1053 937 1054 1178
8 939 828 940 1058 1055 938 1056 1181
8 941 829 942 1060 1057 939 1058 1183
8 942 830 943 1061 1058 940 1059 1184
8 1060 942 832 944 1185 1061 945 1062
8 1082 964 1063 1188 981 889 947 1064
8 1097 981 1064 1190 979 870 948 1066
8 1064 947 1065 1191 948 837 949 1067
8 1066 948 1067 1193 975 869 950 1069
8 1067 949 1068 1194 950 838 951 1070
8 1069 950 1070 1195 952 839 953 1071
8 956 849 959 1072 1073 958 1076 1197
8 1074 960 1076 1197 1008 906 959 1072
8 1073 958 1076 1197 965 868 980 1085
8 1074 960 906 1008 1198 1077 1014 1122
8 1133 1026 1079 1199 1019 918 962 1075
8 1077 963 913 1014 1200 1080 962 1075
8 960 853 963 1077 1076 961 1078 1201
8 980 883 961 1076 1099 994 1078 1201
8 1210 1083 964 1082 1100 999 889 981
8 966 871 980 1085 1086 984 1099 1215
8 967 872 984 1086 1087 985 1103 1216
8 971 876 985 1087 1090 988 1104 1217
8 1088 986 874 969 1218 1105 987 1089
8 972 879 986 1088 1091 991 1105 1218
8 970 875 988 1090 1089 987 1106 1219
8 973 880 991 1091 1092 992 1109 1220
8 1093 993 881 974 1221 1110 992 1092
8 1222 1108 990 1095 1093 993 882 976
8 1223 1101 982 1094 1096 989 877 977
8 1098 983 870 979 1223 1101 982 1094
8 1095 990 1107 1224 978 878 989 1096
8 1098 983 1100 1225 979 870 981 1097
8 984 884 994 1099 1103 995 1111 1227
8 1102 1001 1115 1228 983 891 999 1100
8 1101 1000 892 989 1229 1116 1002 1107
8 1102 1001 891 983 1229 1116 1000 1101
8 985 885 995 1103 1104 996 1112 1230
8 988 886 996 1104 1106 997 1113 1231
8 1105 998 888 987 1232 1114 997 1106
8 991 896 998 1105 1109 1005 1114 1232
8 1108 1003 1117 1233 990 893 1002 1107
8 1108 1003 894 993 1233 1117 1004 1110
8 992 895 1005 1109 1110 1004 1118 1234
8 1120 1013 1127 1244 1007 907 1015 1121
8 1148 1031 1127 1244 1030 920 1013 1120
8 1121 1015 1129 1245 1011 908 1016 1125
8 1126 1019 1075 1196 1246 1128 1014 1122
8 1246 1128 1014 1122 1123 1017 909 1009
8 1124 1018 1131 1247 1010 910 1017 1123
8 1125 1016 1130 1248 1012 911 1018 1124
8 1127 1020 1137 1254 1015 914 1022 1129
8 1031 921 1032 1149 1127 1020 1137 1254
8 1134 1027 918 1019 1257 1140 1021 1128
8 1257 1140 1021 1128 1131 1024 916 1017
8 1129 1022 1141 1258 1016 915 1023 1130
8 1130 1023 1142 1259 1018 917 1024 1131
8 1261 1144 1025 1132 1133 1026 1079 1199
8 1255 1138 1025 1132 1135 1028 1144 1261
8 1133 1026 918 1019 1262 1145 1027 1134
8 1136 1029 1139 1256 1263 1146 1028 1135
8 1037 928 1041 1155 1148 1031 1149 1275
8 1041 931 1044 1160 1149 1032 1150 1276
8 1151 1039 939 1057 1278 1156 1055 1180
8 1152 1040 926 1033 1279 1159 1039 1151
8 1153 1038 927 1034 1280 1158 1040 1152
8 1281 1157 1042 1154 1153 1038 929 1035
8 1036 930 1042 1154 1155 1041 1160 1282
8 1283 1164 1046 1159 1156 1047 935 1039
8 1165 1048 1164 1283 1053 937 1047 1156
8 1157 1043 933 1038 1284 1161 1045 1158
8 1157 1043 1161 1284 1042 932 1044 1160
8 1040 934 1046 1159 1158 1045 1163 1285
8 1166 1049 1167 1292 1051 936 1048 1165
8 1166 1049 936 1051 1293 1168 1050 1172
8 1051 936 1052 1175 1172 1050 1173 1306
8 1174 1051 1165 1290 1308 1175 1053 1177
8 1053 937 1054 1178 1175 1052 1176 1309
8 1278 1156 1055 1180 1177 1053 1178 1311
8 1055 938 1056 1181 1178 1054 1179 1312
8 1057 939 1058 1183 1180 1055 1181 1314
8 1058 940 1059 1184 1181 1056 1182 1315
8 1060 942 1061 1185 1183 1058 1184 1316
8 1208 1081 1187 1321 1082 964 1063 1188
8 1209 1082 1188 1322 1097 981 1064 1190
8 1188 1063 1189 1323 1064 947 1065 1191
8 1190 1064 1191 1325 1066 948 1067 1193
8 1191 1065 1192 1326 1067 949 1068 1194
8 1067 1193 1069 950 1194 1327 1195 1070
8 1250 1133 1199 1330 1126 1019 1075 1196
8 1198 1077 1014 1122 1331 1200 1075 1196
8 1074 960 1077 1198 1197 1076 1201 1332
8 1085 980 1076 1197 1215 1099 1201 1332
8 1199 1079 1203 1333 1075 962 1080 1200
8 1132 1025 1119 1243 1199 1079 1203 1333
8 1201 1078 963 1077 1334 1202 1080 1200
8 1099 994 1078 1201 1227 1111 1202 1334
8 1343 1207 1081 1208 1210 1083 964 1082
8 1214 1084 1186 1319 1343 1207 1081 1208
8 1345 1210 1082 1209 1225 1100 981 1097
8 1346 1211 1083 1210 1228 1115 999 1100
8 1086 984 1099 1215 1216 1103 1227 1352
8 1087 985 1103 1216 1217 1104 1230 1353
8 1090 988 1104 1217 1219 1106 1231 1354
8 1218 1105 987 1089 1355 1232 1106 1219
8 1091 991 1105 1218 1220 1109 1232 1355
8 1092 992 1109 1220 1221 1110 1234 1356
8 1222 1108 1233 1357 1095 990 1107 1224
8 1222 1108 993 1093 1357 1233 1110 1221
8 1223 1101 989 1096 1358 1229 1107 1224
8 1226 1102 983 1098 1358 1229 1101 1223
8 1226 1102 1228 1359 1098 983 1100 1225
8 1103 995 1111 1227 1230 1112 1235 1360
8 1107 1002 1117 1233 1229 1116 1240 1362
8 1102 1001 1116 1229 1228 1115 1240 1362
8 1104 996 1112 1230 1231 1113 1236 1363
8 1364 1237 1114 1232 1231 1113 997 1106
8 1109 1005 1114 1232 1234 1118 1238 1365
8 1110 1004 1118 1234 1233 1117 1241 1366
8 1242 1374 1255 1138 1119 1243 1132 1025
8 1244 1127 1254 1376 1121 1015 1129 1245
8 1148 1031 1149 1275 1244 1127 1254 1376
8 1245 1129 1258 1377 1125 1016 1130 1248
8 1251 1134 1019 1126 1378 1257 1128 1246
8 1378 1257 1128 1246 1247 1131 1017 1123
8 1248 1130 1259 1379 1124 1018 1131 1247
8 1261 1381 1250 1133 1132 1249 1330 1199
8 1255 1380 1252 1135 1132 1249 1381 1261
8 1250 1133 1019 1126 1382 1262 1134 1251
8 1253 1136 1256 1385 1384 1263 1135 1252
8 1254 1137 1265 1387 1129 1022 1141 1258
8 1149 1032 1150 1276 1254 1137 1265 1387
8 1028 1135 1255 1138 1139 1256 1388 1266
8 1136 1029 1147 1264 1256 1139 1267 1389
8 1390 1268 1140 1257 1259 1142 1024 1131
8 1260 1143 1027 1134 1390 1268 1140 1257
8 1258 1141 1269 1391 1130 1023 1142 1259
8 1262 1145 1027 1134 1393 1271 1143 1260
8 1261 1144 1026 1133 1394 1272 1145 1262
8 1135 1028 1144 1261 1263 1146 1272 1394
8 1136 1029 1146 1263 1264 1147 1273 1395
8 1155 1041 1160 1282 1275 1149 1276 1405
8 1276 1150 1044 1160 1406 1277 1162 1286
8 1408 1283 1159 1279 1278 1156 1039 1151
8 1290 1165 1283 1408 1177 1053 1156 1278
8 1152 1040 1159 1279 1280 1158 1285 1409
8 1281 1157 1038 1153 1410 1284 1158 1280
8 1281 1157 1284 1410 1154 1042 1160 1282
8 1159 1046 1164 1283 1285 1163 1289 1412
8 1292 1167 1289 1412 1165 1048 1164 1283
8 1158 1045 1163 1285 1284 1161 1288 1413
8 1284 1161 1288 1413 1160 1044 1162 1286
8 1291 1166 1292 1418 1174 1051 1165 1290
8 1291 1166 1051 1174 1419 1293 1172 1305
8 1294 1169 1296 1421 1166 1049 1167 1292
8 1293 1168 1050 1172 1422 1295 1171 1303
8 1294 1169 1049 1166 1423 1297 1168 1293
8 1422 1295 1171 1303 1301 1170 1302 1435
8 1172 1050 1173 1306 1303 1171 1304 1438
8 1174 1051 1175 1308 1305 1172 1306 1440
8 1175 1052 1176 1309 1306 1173 1307 1441
8 1177 1053 1178 1311 1308 1175 1309 1443
8 1178 1054 1179 1312 1309 1176 1310 1444
8 1180 1055 1181 1314 1311 1178 1312 1446
8 1056 1181 1312 1179 1182 1315 1447 1313
8 1183 1058 1184 1316 1314 1181 1315 1448
8 1319 1186 1084 1214 1451 1317 1213 1350
8 1319 1186 1318 1453 1208 1081 1187 1321
8 1321 1187 1320 1456 1188 1063 1189 1323
8 1344 1208 1321 1457 1209 1082 1188 1322
8 1322 1188 1323 1458 1190 1064 1191 1325
8 1323 1189 1324 1459 1191 1065 1192 1326
8 1191 1325 1193 1067 1326 1460 1327 1194
8 1242 1374 1243 1119 1328 1462 1335 1204
8 1330 1199 1333 1465 1196 1075 1200 1331
8 1132 1249 1330 1199 1243 1375 1465 1333
8 1332 1201 1077 1198 1466 1334 1200 1331
8 1215 1099 1201 1332 1352 1227 1334 1466
8 1119 1243 1333 1203 1204 1335 1470 1338
8 1333 1203 1338 1470 1200 1080 1202 1334
8 1227 1111 1202 1334 1360 1235 1338 1470
8 1328 1462 1335 1204 1205 1336 1471 1339
8 1337 1206 1340 1472 1464 1329 1205 1336
8 1346 1211 1342 1479 1210 1083 1207 1343
8 1346 1211 1115 1228 1479 1342 1239 1361
8 1348 1212 1084 1214 1479 1342 1207 1343
8 1480 1343 1208 1344 1345 1210 1082 1209
8 1351 1214 1319 1454 1480 1343 1208 1344
8 1481 1346 1210 1345 1359 1228 1100 1225
8 1348 1212 1347 1483 1214 1084 1213 1350
8 1216 1103 1227 1352 1353 1230 1360 1488
8 1217 1104 1230 1353 1354 1231 1363 1489
8 1490 1364 1232 1355 1354 1231 1106 1219
8 1220 1109 1232 1355 1356 1234 1365 1491
8 1221 1110 1234 1356 1357 1233 1366 1492
8 1224 1107 1233 1357 1358 1229 1362 1493
8 1226 1102 1229 1358 1359 1228 1362 1493
8 1230 1112 1235 1360 1363 1236 1367 1496
8 1361 1239 1115 1228 1497 1371 1240 1362
8 1366 1241 1372 1498 1233 1117 1240 1362
8 1364 1237 1113 1231 1499 1368 1236 1363
8 1364 1237 1368 1499 1232 1114 1238 1365
8 1234 1118 1238 1365 1366 1241 1369 1500
8 1507 1373 1242 1374 1388 1266 1138 1255
8 1508 1374 1243 1375 1380 1255 1132 1249
8 1376 1254 1387 1509 1245 1129 1258 1377
8 1275 1149 1276 1405 1376 1254 1387 1509
8 1377 1258 1391 1510 1248 1130 1259 1379
8 1511 1390 1257 1378 1379 1259 1131 1247
8 1383 1260 1134 1251 1511 1390 1257 1378
8 1252 1135 1256 1385 1380 1255 1388 1512
8 1261 1381 1513 1394 1133 1250 1382 1262
8 1135 1252 1384 1263 1261 1381 1513 1394
8 1382 1262 1134 1251 1514 1393 1260 1383
8 1253 1136 1263 1384 1386 1264 1395 1516
8 1253 1136 1264 1386 1385 1256 1389 1517
8 1387 1265 1397 1519 1258 1141 1269 1391
8 1276 1150 1277 1406 1387 1265 1397 1519
8 1256 1139 1267 1389 1388 1266 1398 1520
8 1264 1147 1274 1396 1389 1267 1399 1521
8 1392 1270 1143 1260 1522 1400 1268 1390
8 1390 1268 1142 1259 1522 1400 1269 1391
8 1392 1270 1401 1523 1260 1143 1271 1393
8 1272 1394 1524 1402 1145 1262 1393 1271
8 1395 1273 1146 1263 1524 1402 1272 1394
8 1273 1395 1264 1147 1403 1526 1396 1274
8 1405 1276 1160 1282 1534 1406 1286 1411
8 1414 1287 1407 1535 1286 1162 1277 1406
8 1279 1159 1283 1408 1409 1285 1412 1537
8 1418 1292 1412 1537 1290 1165 1283 1408
8 1280 1158 1285 1409 1410 1284 1413 1538
8 1410 1284 1413 1538 1282 1160 1286 1411
8 1285 1163 1289 1412 1413 1288 1417 1540
8 1421 1296 1417 1540 1292 1167 1289 1412
8 1414 1287 1162 1286 1541 1416 1288 1413
8 1420 1294 1421 1545 1291 1166 1292 1418
8 1419 1293 1172 1305 1546 1422 1303 1437
8 1420 1294 1166 1291 1547 1423 1293 1419
8 1294 1169 1297 1423 1421 1296 1425 1548
8 1423 1297 1168 1293 1549 1424 1295 1422
8 1301 1170 1298 1427 1422 1295 1424 1549
8 1432 1300 1428 1554 1301 1170 1298 1427
8 1431 1299 1428 1554 1560 1430 1300 1432
8 1563 1433 1300 1432 1435 1302 1170 1301
8 1546 1422 1303 1437 1434 1301 1435 1565
8 1303 1171 1304 1438 1435 1302 1436 1566
8 1305 1172 1306 1440 1437 1303 1438 1568
8 1306 1173 1307 1441 1438 1304 1439 1569
8 1308 1175 1309 1443 1440 1306 1441 1571
8 1309 1176 1310 1444 1441 1307 1442 1572
8 1311 1178 1312 1446 1443 1309 1444 1574
8 1179 1312 1444 1310 1313 1447 1575 1445
8 1314 1181 1315 1448 1446 1312 1447 1576
8 1350 1213 1349 1486 1451 1317 1449 1579
8 1451 1317 1450 1581 1319 1186 1318 1453
8 1454 1319 1214 1351 1582 1451 1350 1487
8 1453 1318 1452 1584 1321 1187 1320 1456
8 1454 1319 1453 1585 1344 1208 1321 1457
8 1456 1320 1455 1586 1323 1189 1324 1459
8 1457 1321 1456 1587 1322 1188 1323 1458
8 1458 1323 1459 1588 1325 1191 1326 1460
8 1205 1336 1464 1329 1328 1462 1590 1461
8 1507 1373 1461 1590 1374 1242 1328 1462
8 1508 1374 1462 1591 1375 1243 1335 1467
8 1337 1206 1329 1464 1473 1341 1463 1594
8 1375 1243 1335 1467 1465 1333 1470 1596
8 1465 1333 1470 1596 1331 1200 1334 1466
8 1352 1227 1334 1466 1488 1360 1470 1596
8 1591 1462 1336 1468 1467 1335 1471 1597
8 1469 1337 1472 1598 1595 1464 1336 1468
8 1471 1339 1474 1600 1335 1204 1338 1470
8 1600 1474 1367 1496 1470 1338 1235 1360
8 1336 1205 1340 1472 1471 1339 1475 1601
8 1337 1206 1341 1473 1472 1340 1476 1602
8 1495 1370 1478 1609 1361 1239 1342 1479
8 1348 1212 1342 1479 1483 1347 1478 1609
8 1481 1346 1479 1610 1345 1210 1343 1480
8 1481 1346 1228 1359 1610 1479 1361 1494
8 1484 1348 1214 1351 1610 1479 1343 1480
8 1483 1347 1482 1612 1350 1213 1349 1486
8 1484 1348 1483 1613 1351 1214 1350 1487
8 1353 1230 1360 1488 1489 1363 1496 1616
8 1490 1364 1231 1354 1617 1499 1363 1489
8 1490 1364 1499 1617 1355 1232 1365 1491
8 1356 1234 1365 1491 1492 1366 1500 1619
8 1492 1366 1498 1620 1357 1233 1362 1493
8 1494 1361 1228 1359 1621 1497 1362 1493
8 1495 1370 1239 1361 1622 1504 1371 1497
8 1363 1236 1367 1496 1499 1368 1501 1623
8 1497 1371 1240 1362 1624 1505 1372 1498
8 1625 1503 1372 1498 1500 1369 1241 1366
8 1365 1238 1368 1499 1500 1369 1502 1626
8 1520 1398 1506 1633 1388 1266 1373 1507
8 1634 1507 1374 1508 1512 1388 1255 1380
8 1509 1387 1519 1635 1377 1258 1391 1510
8 1405 1276 1406 1534 1509 1387 1519 1635
8 1515 1392 1260 1383 1636 1522 1390 1511
8 1511 1390 1259 1379 1636 1522 1391 1510
8 1385 1256 1389 1517 1512 1388 1520 1637
8 1513 1394 1262 1382 1638 1524 1393 1514
8 1395 1516 1638 1524 1263 1384 1513 1394
8 1515 1392 1523 1639 1383 1260 1393 1514
8 1516 1395 1526 1640 1386 1264 1396 1518
8 1386 1264 1396 1518 1517 1389 1521 1641
8 1519 1397 1527 1643 1391 1269 1400 1522
8 1535 1407 1527 1643 1406 1277 1397 1519
8 1389 1267 1399 1521 1520 1398 1528 1644
8 1645 1529 1399 1521 1525 1404 1274 1396
8 1392 1270 1400 1522 1523 1401 1531 1646
8 1524 1402 1271 1393 1648 1532 1401 1523
8 1403 1526 1648 1532 1273 1395 1524 1402
8 1525 1404 1274 1396 1649 1533 1403 1526
8 1539 1414 1535 1657 1411 1286 1406 1534
8 1542 1415 1536 1658 1414 1287 1407 1535
8 1409 1285 1412 1537 1538 1413 1540 1660
8 1545 1421 1540 1660 1418 1292 1412 1537
8 1539 1414 1286 1411 1661 1541 1413 1538
8 1540 1417 1544 1663 1413 1288 1416 1541
8 1421 1296 1425 1548 1540 1417 1544 1663
8 1542 1415 1287 1414 1664 1543 1416 1541
8 1420 1294 1423 1547 1545 1421 1548 1666
8 1547 1423 1293 1419 1667 1549 1422 1546
8 1434 1301 1427 1553 1546 1422 1549 1667
8 1423 1297 1424 1549 1548 1425 1550 1668
8 1551 1426 1550 1668 1427 1298 1424 1549
8 1551 1426 1298 1427 1671 1552 1428 1554
8 1562 1432 1554 1674 1434 1301 1427 1553
8 1431 1299 1429 1558 1554 1428 1555 1675
8 1431 1299 1430 1560 1558 1429 1557 1680
8 1560 1430 1300 1432 1683 1559 1433 1563
8 1561 1431 1554 1674 1684 1560 1432 1562
8 1685 1563 1432 1562 1565 1435 1301 1434
8 1435 1302 1436 1566 1563 1433 1564 1686
8 1437 1303 1438 1568 1565 1435 1566 1688
8 1438 1304 1439 1569 1566 1436 1567 1689
8 1440 1306 1441 1571 1568 1438 1569 1691
8 1441 1307 1442 1572 1569 1439 1570 1692
8 1443 1309 1444 1574 1571 1441 1572 1694
8 1310 1444 1572 1442 1445 1575 1695 1573
8 1446 1312 1447 1576 1574 1444 1575 1696
8 1486 1349 1485 1614 1579 1449 1577 1699
8 1451 1317 1449 1579 1581 1450 1578 1701
8 1487 1350 1486 1615 1582 1451 1579 1702
8 1581 1450 1580 1704 1453 1318 1452 1584
8 1582 1451 1581 1705 1454 1319 1453 1585
8 1584 1452 1583 1706 1456 1320 1455 1586
8 1585 1453 1584 1707 1457 1321 1456 1587
8 1587 1456 1586 1708 1458 1323 1459 1588
8 1633 1506 1589 1710 1507 1373 1461 1590
8 1464 1329 1461 1590 1594 1463 1589 1710
8 1468 1336 1462 1591 1595 1464 1590 1711
8 1634 1507 1590 1711 1508 1374 1462 1591
8 1473 1341 1463 1594 1603 1477 1593 1716
8 1469 1337 1464 1595 1599 1473 1594 1717
8 1471 1597 1467 1335 1600 1718 1596 1470
8 1718 1600 1496 1616 1596 1470 1360 1488
8 1336 1468 1597 1471 1472 1598 1719 1601
8 1469 1337 1473 1599 1598 1472 1602 1720
8 1722 1604 1501 1623 1600 1474 1367 1496
8 1475 1601 1471 1339 1604 1722 1600 1474
8 1602 1476 1605 1723 1472 1340 1475 1601
8 1476 1602 1724 1606 1341 1473 1603 1477
8 1483 1347 1478 1609 1612 1482 1608 1731
8 1495 1370 1504 1622 1609 1478 1608 1731
8 1618 1495 1609 1732 1494 1361 1479 1610
8 1484 1348 1479 1610 1613 1483 1609 1732
8 1486 1349 1482 1612 1614 1485 1611 1733
8 1613 1483 1612 1734 1487 1350 1486 1615
8 1489 1363 1496 1616 1617 1499 1623 1736
8 1491 1365 1499 1617 1619 1500 1626 1737
8 1618 1495 1361 1494 1738 1622 1497 1621
8 1739 1625 1498 1620 1619 1500 1366 1492
8 1621 1497 1362 1493 1740 1624 1498 1620
8 1742 1631 1504 1622 1624 1505 1371 1497
8 1743 1628 1502 1626 1623 1501 1368 1499
8 1744 1630 1505 1624 1625 1503 1372 1498
8 1745 1629 1503 1625 1626 1502 1369 1500
8 1520 1398 1528 1644 1633 1506 1632 1751
8 1637 1520 1633 1752 1512 1388 1507 1634
8 1635 1519 1643 1753 1510 1391 1522 1636
8 1657 1535 1643 1753 1534 1406 1519 1635
8 1515 1392 1522 1636 1639 1523 1646 1754
8 1517 1389 1521 1641 1637 1520 1644 1755
8 1524 1638 1756 1648 1393 1514 1639 1523
8 1640 1526 1395 1516 1756 1648 1524 1638
8 1642 1525 1396 1518 1757 1649 1526 1640
8 1758 1645 1521 1641 1642 1525 1396 1518
8 1646 1531 1400 1522 1760 1650 1527 1643
8 1535 1407 1536 1658 1643 1527 1650 1760
8 1521 1399 1529 1645 1644 1528 1651 1761
8 1647 1530 1652 1762 1525 1404 1529 1645
8 1401 1523 1648 1532 1531 1646 1763 1655
8 1525 1404 1533 1649 1647 1530 1654 1765
8 1533 1649 1766 1656 1403 1526 1648 1532
8 1662 1542 1658 1774 1539 1414 1535 1657
8 1542 1415 1543 1664 1658 1536 1659 1775
8 1660 1540 1663 1777 1538 1413 1541 1661
8 1545 1421 1548 1666 1660 1540 1663 1777
8 1662 1542 1414 1539 1778 1664 1541 1661
8 1664 1543 1416 1541 1779 1665 1544 1663
8 1548 1425 1550 1668 1663 1544 1665 1779
8 1547 1423 1549 1667 1666 1548 1668 1781
8 1670 1551 1668 1781 1553 1427 1549 1667
8 1551 1426 1552 1671 1668 1550 1669 1782
8 1670 1551 1427 1553 1784 1671 1554 1674
8 1675 1555 1672 1785 1554 1428 1552 1671
8 1678 1556 1673 1789 1558 1429 1555 1675
8 1561 1431 1558 1681 1674 1554 1675 1790
8 1794 1677 1556 1678 1680 1557 1429 1558
8 1560 1430 1559 1683 1680 1557 1679 1797
8 1561 1431 1560 1684 1681 1558 1680 1798
8 1563 1433 1564 1686 1683 1559 1682 1800
8 1684 1560 1432 1562 1801 1683 1563 1685
8 1565 1435 1566 1688 1685 1563 1686 1802
8 1566 1436 1567 1689 1686 1564 1687 1803
8 1568 1438 1569 1691 1688 1566 1689 1805
8 1569 1439 1570 1692 1689 1567 1690 1806
8 1571 1441 1572 1694 1691 1569 1692 1808
8 1442 1572 1692 1570 1573 1695 1809 1693
8 1574 1444 1575 1696 1694 1572 1695 1810
8 1614 1485 1592 1712 1699 1577 1697 1813
8 1579 1449 1577 1699 1701 1578 1698 1815
8 1615 1486 1614 1735 1702 1579 1699 1816
8 1701 1578 1700 1818 1581 1450 1580 1704
8 1582 1451 1579 1702 1705 1581 1701 1819
8 1704 1580 1703 1820 1584 1452 1583 1706
8 1705 1581 1704 1821 1585 1453 1584 1707
8 1707 1584 1706 1822 1587 1456 1586 1708
8 1710 1589 1506 1633 1824 1709 1632 1751
8 1594 1463 1589 1710 1716 1593 1709 1824
8 1752 1633 1710 1825 1634 1507 1590 1711
8 1595 1464 1590 1711 1717 1594 1710 1825
8 1830 1714 1592 1712 1733 1611 1485 1614
8 1603 1477 1593 1716 1725 1607 1715 1834
8 1599 1473 1594 1717 1721 1603 1716 1835
8 1837 1722 1623 1736 1718 1600 1496 1616
8 1719 1601 1722 1837 1597 1471 1600 1718
8 1602 1720 1598 1472 1723 1838 1719 1601
8 1720 1602 1473 1599 1839 1724 1603 1721
8 1723 1605 1726 1840 1601 1475 1604 1722
8 1840 1726 1628 1743 1722 1604 1501 1623
8 1724 1606 1727 1841 1602 1476 1605 1723
8 1725 1607 1728 1842 1603 1477 1606 1724
8 1612 1482 1608 1731 1733 1611 1730 1849
8 1741 1627 1730 1849 1622 1504 1608 1731
8 1613 1483 1609 1732 1734 1612 1731 1850
8 1618 1495 1622 1738 1732 1609 1731 1850
8 1615 1486 1612 1734 1735 1614 1733 1851
8 1852 1743 1626 1737 1736 1623 1499 1617
8 1853 1745 1625 1739 1737 1626 1500 1619
8 1855 1742 1622 1738 1740 1624 1497 1621
8 1856 1744 1624 1740 1739 1625 1498 1620
8 1741 1627 1504 1622 1857 1746 1631 1742
8 1742 1631 1505 1624 1858 1749 1630 1744
8 1859 1747 1629 1745 1743 1628 1502 1626
8 1860 1748 1630 1744 1745 1629 1503 1625
8 1644 1528 1651 1761 1751 1632 1750 1865
8 1637 1520 1644 1755 1752 1633 1751 1866
8 1754 1646 1522 1636 1867 1760 1643 1753
8 1657 1535 1658 1774 1753 1643 1760 1867
8 1639 1523 1646 1754 1756 1648 1763 1868
8 1641 1521 1645 1758 1755 1644 1761 1869
8 1757 1649 1526 1640 1870 1766 1648 1756
8 1642 1525 1649 1757 1759 1647 1765 1871
8 1759 1647 1762 1872 1642 1525 1645 1758
8 1760 1650 1767 1874 1646 1531 1655 1763
8 1658 1536 1659 1775 1760 1650 1767 1874
8 1762 1652 1768 1875 1645 1529 1651 1761
8 1764 1653 1769 1876 1647 1530 1652 1762
8 1656 1766 1877 1773 1532 1648 1763 1655
8 1771 1879 1765 1654 1653 1764 1647 1530
8 1533 1649 1765 1654 1656 1766 1880 1772
8 1662 1542 1664 1778 1774 1658 1775 1887
8 1664 1543 1665 1779 1775 1659 1776 1888
8 1778 1664 1541 1661 1890 1779 1663 1777
8 1666 1548 1668 1781 1777 1663 1779 1890
8 1782 1669 1780 1891 1668 1550 1665 1779
8 1670 1551 1671 1784 1781 1668 1782 1893
8 1671 1552 1672 1785 1782 1669 1783 1894
8 1790 1675 1785 1896 1674 1554 1671 1784
8 1675 1555 1673 1789 1785 1672 1786 1897
8 1792 1676 1788 1903 1678 1556 1673 1789
8 1795 1678 1789 1904 1681 1558 1675 1790
8 1792 1676 1556 1678 1906 1791 1677 1794
8 1680 1557 1679 1797 1794 1677 1793 1909
8 1910 1794 1678 1795 1798 1680 1558 1681
8 1683 1559 1682 1800 1797 1679 1796 1912
8 1684 1560 1683 1801 1798 1680 1797 1913
8 1686 1564 1687 1803 1800 1682 1799 1915
8 1685 1563 1686 1802 1801 1683 1800 1916
8 1688 1566 1689 1805 1802 1686 1803 1917
8 1689 1567 1690 1806 1803 1687 1804 1918
8 1691 1569 1692 1808 1805 1689 1806 1920
8 1692 1570 1693 1809 1806 1690 1807 1921
8 1694 1572 1695 1810 1808 1692 1809 1922
8 1829 1713 1811 1926 1712 1592 1697 1813
8 1813 1697 1812 1928 1699 1577 1698 1815
8 1735 1614 1712 1828 1816 1699 1813 1929
8 1815 1698 1814 1931 1701 1578 1700 1818
8 1702 1579 1699 1816 1819 1701 1815 1932
8 1818 1700 1817 1933 1704 1580 1703 1820
8 1819 1701 1818 1934 1705 1581 1704 1821
8 1821 1704 1820 1935 1707 1584 1706 1822
8 1824 1709 1632 1751 1937 1823 1750 1865
8 1716 1593 1709 1824 1834 1715 1823 1937
8 1825 1710 1633 1752 1938 1824 1751 1866
8 1717 1594 1710 1825 1835 1716 1824 1938
8 1945 1830 1712 1828 1851 1733 1614 1735
8 1830 1714 1831 1946 1712 1592 1713 1829
8 1947 1832 1714 1830 1849 1730 1611 1733
8 1843 1729 1607 1725 1950 1833 1715 1834
8 1721 1603 1716 1835 1836 1725 1834 1951
8 1836 1725 1842 1953 1721 1603 1724 1839
8 1723 1838 1719 1601 1840 1954 1837 1722
8 1954 1840 1743 1852 1837 1722 1623 1736
8 1724 1839 1720 1602 1841 1955 1838 1723
8 1841 1727 1844 1956 1723 1605 1726 1840
8 1956 1844 1747 1859 1840 1726 1628 1743
8 1728 1842 1724 1606 1845 1957 1841 1727
8 1725 1607 1729 1843 1842 1728 1846 1958
8 1741 1627 1746 1857 1849 1730 1848 1965
8 1734 1612 1731 1850 1851 1733 1849 1966
8 1854 1741 1849 1966 1738 1622 1731 1850
8 1967 1859 1745 1853 1852 1743 1626 1737
8 1968 1860 1744 1856 1853 1745 1625 1739
8 1854 1741 1622 1738 1969 1857 1742 1855
8 1855 1742 1624 1740 1970 1858 1744 1856
8 1857 1746 1631 1742 1971 1861 1749 1858
8 1858 1749 1630 1744 1972 1863 1748 1860
8 1859 1747 1862 1973 1745 1629 1748 1860
8 1875 1768 1864 1977 1761 1651 1750 1865
8 1755 1644 1761 1869 1866 1751 1865 1978
8 1867 1760 1874 1979 1754 1646 1763 1868
8 1774 1658 1775 1887 1867 1760 1874 1979
8 1870 1766 1648 1756 1980 1877 1763 1868
8 1872 1762 1875 1981 1758 1645 1761 1869
8 1757 1649 1766 1870 1871 1765 1880 1982
8 1983 1879 1764 1873 1871 1765 1647 1759
8 1873 1764 1876 1984 1759 1647 1762 1872
8 1877 1773 1655 1763 1986 1881 1767 1874
8 1775 1659 1776 1888 1874 1767 1881 1986
8 1876 1769 1882 1987 1762 1652 1768 1875
8 1878 1770 1883 1988 1764 1653 1769 1876
8 1880 1772 1656 1766 1989 1886 1773 1877
8 1878 1770 1653 1764 1990 1884 1771 1879
8 1765 1654 1772 1880 1879 1771 1885 1991
8 1778 1664 1779 1890 1887 1775 1888 1997
8 1998 1889 1776 1888 1891 1780 1665 1779
8 1893 1782 1891 2000 1781 1668 1779 1890
8 1894 1783 1892 2001 1782 1669 1780 1891
8 1784 1671 1785 1896 1893 1782 1894 2003
8 1897 1786 1895 2004 1785 1672 1783 1894
8 1790 1675 1789 1904 1896 1785 1897 2006
8 1901 1787 1898 2007 1789 1673 1786 1897
8 1903 1788 1900 2013 1789 1673 1787 1901
8 1792 1676 1791 1906 1903 1788 1902 2016
8 1907 1792 1903 2017 1795 1678 1789 1904
8 1906 1791 1677 1794 2019 1905 1793 1909
8 1907 1792 1678 1795 2020 1906 1794 1910
8 1797 1679 1796 1912 1909 1793 1908 2022
8 1798 1680 1797 1913 1910 1794 1909 2023
8 1800 1682 1799 1915 1912 1796 1911 2025
8 1801 1683 1800 1916 1913 1797 1912 2026
8 1803 1687 1804 1918 1915 1799 1914 2028
8 1802 1686 1803 1917 1916 1800 1915 2029
8 1805 1689 1806 1920 1917 1803 1918 2030
8 1806 1690 1807 1921 1918 1804 1919 2031
8 1808 1692 1809 1922 1920 1806 1921 2032
8 1939 1826 1924 2037 1829 1713 1811 1926
8 1926 1811 1925 2039 1813 1697 1812 1928
8 1944 1829 1926 2040 1828 1712 1813 1929
8 1928 1812 1927 2042 1815 1698 1814 1931
8 1929 1813 1928 2043 1816 1699 1815 1932
8 1931 1814 1930 2044 1818 1700 1817 1933
8 1932 1815 1931 2045 1819 1701 1818 1934
8 1934 1818 1933 2046 1821 1704 1820 1935
8 2048 1936 1823 1937 1977 1864 1750 1865
8 1950 1833 1715 1834 2048 1936 1823 1937
8 1938 1824 1751 1866 2049 1937 1865 1978
8 1835 1716 1824 1938 1951 1834 1937 2049
8 1939 1826 1713 1829 2053 1942 1831 1946
8 1940 1827 1923 2035 2053 1942 1826 1939
8 1945 1830 1946 2058 1828 1712 1829 1944
8 2059 1947 1830 1945 1966 1849 1733 1851
8 1947 1832 1730 1849 2060 1948 1848 1965
8 1947 1832 1948 2060 1830 1714 1831 1946
8 1959 1847 1729 1843 2063 1949 1833 1950
8 1952 1843 1725 1836 2064 1950 1834 1951
8 1836 1725 1843 1952 1953 1842 1958 2066
8 1953 1842 1957 2067 1839 1724 1841 1955
8 1841 1955 1838 1723 1956 2068 1954 1840
8 2068 1956 1859 1967 1954 1840 1743 1852
8 1956 1844 1960 2069 1859 1747 1862 1973
8 1845 1957 1841 1727 1960 2069 1956 1844
8 1728 1842 1957 1845 1846 1958 2071 1961
8 1962 2072 1959 1847 1846 1958 1843 1729
8 1971 1861 1964 2077 1857 1746 1848 1965
8 1854 1741 1857 1969 1966 1849 1965 2078
8 1967 1859 1973 2079 1853 1745 1860 1968
8 1970 1858 1744 1856 2080 1972 1860 1968
8 1969 1857 1742 1855 2081 1971 1858 1970
8 1971 1861 1749 1858 2082 1974 1863 1972
8 1973 1862 1975 2083 1860 1748 1863 1972
8 1987 1882 1976 2086 1875 1768 1864 1977
8 1981 1875 1977 2087 1869 1761 1865 1978
8 1980 1877 1763 1868 2088 1986 1874 1979
8 1887 1775 1888 1997 1979 1874 1986 2088
8 1880 1982 2089 1989 1766 1870 1980 1877
8 1984 1876 1987 2090 1872 1762 1875 1981
8 1765 1871 1983 1879 1880 1982 2091 1991
8 1985 1878 1764 1873 2092 1990 1879 1983
8 1985 1878 1988 2093 1873 1764 1876 1984
8 2094 1992 1881 1986 1998 1889 1776 1888
8 1986 1881 1992 2094 1877 1773 1886 1989
8 1988 1883 1993 2095 1876 1769 1882 1987
8 1878 1770 1884 1990 1988 1883 1994 2096
8 1991 1885 1772 1880 2097 1996 1886 1989
8 1879 1771 1885 1991 1990 1884 1995 2098
8 2103 1998 1888 1997 2000 1891 1779 1890
8 2104 1999 1889 1998 2001 1892 1780 1891
8 2003 1894 2001 2106 1893 1782 1891 2000
8 2004 1895 2002 2107 1894 1783 1892 2001
8 2006 1897 2004 2109 1896 1785 1894 2003
8 2007 1898 2005 2110 1897 1786 1895 2004
8 2014 1901 2007 2112 1904 1789 1897 2006
8 2011 1899 2008 2113 1901 1787 1898 2007
8 2119 2010 1899 2011 2013 1900 1787 1901
8 2016 1902 2012 2122 1903 1788 1900 2013
8 2017 1903 2013 2123 1904 1789 1901 2014
8 1906 1791 1905 2019 2016 1902 2015 2125
8 1907 1792 1906 2020 2017 1903 2016 2126
8 1909 1793 1908 2022 2019 1905 2018 2128
8 2020 1906 1794 1910 2129 2019 1909 2023
8 1912 1796 1911 2025 2022 1908 2021 2131
8 1913 1797 1912 2026 2023 1909 2022 2132
8 1915 1799 1914 2028 2025 1911 2024 2134
8 1916 1800 1915 2029 2026 1912 2025 2135
8 1918 1804 1919 2031 2028 1914 2027 2136
8 1917 1803 1918 2030 2029 1915 2028 2137
8 1920 1806 1921 2032 2030 1918 2031 2138
8 1940 1827 1941 2054 2035 1923 2033 2140
8 2035 1923 2034 2143 1939 1826 1924 2037
8 2037 1924 2036 2146 1926 1811 1925 2039
8 2051 1939 2037 2147 1944 1829 1926 2040
8 2039 1925 2038 2149 1928 1812 1927 2042
8 2040 1926 2039 2150 1929 1813 1928 2043
8 2042 1927 2041 2151 1931 1814 1930 2044
8 2043 1928 2042 2152 1932 1815 1931 2045
8 2045 1931 2044 2153 1934 1818 1933 2046
8 2155 2047 1936 2048 2086 1976 1864 1977
8 2063 1949 1833 1950 2155 2047 1936 2048
8 2156 2048 1937 2049 2087 1977 1865 1978
8 2064 1950 1834 1951 2156 2048 1937 2049
8 2051 1939 1829 1944 2160 2053 1946 2058
8 2052 1940 2035 2144 2160 2053 1939 2051
8 2053 1942 1831 1946 2163 2057 1948 2060
8 2055 1943 1827 1940 2163 2057 1942 2053
8 2055 1943 2056 2164 1940 1827 1941 2054
8 2059 1947 1849 1966 2167 2060 1965 2078
8 2059 1947 2060 2167 1945 1830 1946 2058
8 2077 1964 2061 2168 1965 1848 1948 2060
8 2070 1963 1847 1959 2170 2062 1949 2063
8 2065 1959 1843 1952 2171 2063 1950 2064
8 2173 2072 1958 2066 2065 1959 1843 1952
8 1953 1842 1958 2066 2067 1957 2071 2174
8 2068 1956 2069 2175 1967 1859 1973 2079
8 2067 1957 2069 2175 1955 1841 1956 2068
8 1845 1957 2069 1960 1961 2071 2176 2073
8 2069 1960 2073 2176 1973 1862 1975 2083
8 2070 1963 2075 2177 1959 1847 1962 2072
8 1846 1958 2071 1961 1962 2072 2178 2074
8 2077 1964 1861 1971 2182 2076 1974 2082
8 2081 1971 2077 2183 1969 1857 1965 2078
8 2079 1973 2083 2184 1968 1860 1972 2080
8 2081 1971 1858 1970 2185 2082 1972 2080
8 2083 1975 2084 2186 1972 1863 1974 2082
8 2086 1976 1882 1987 2189 2085 1993 2095
8 2090 1987 2086 2190 1981 1875 1977 2087
8 2191 2094 1986 2088 2103 1998 1888 1997
8 2088 1986 2094 2191 1980 1877 1989 2089
8 1991 2091 2192 2097 1880 1982 2089 1989
8 2093 1988 2095 2193 1984 1876 1987 2090
8 1879 1983 2092 1990 1991 2091 2194 2098
8 1985 1878 1990 2092 2093 1988 2096 2195
8 2097 1996 1886 1989 2196 2099 1992 2094
8 2196 2099 1992 2094 2104 1999 1889 1998
8 1994 2096 1988 1883 2100 2197 2095 1993
8 2096 1994 1884 1990 2198 2101 1995 2098
8 1995 2098 2199 2102 1885 1991 2097 1996
8 2203 2104 1998 2103 2106 2001 1891 2000
8 2107 2002 2105 2204 2001 1892 1999 2104
8 2109 2004 2107 2206 2003 1894 2001 2106
8 2110 2005 2108 2207 2004 1895 2002 2107
8 2112 2007 2110 2209 2006 1897 2004 2109
8 2113 2008 2111 2210 2007 1898 2005 2110
8 2120 2011 2113 2212 2014 1901 2007 2112
8 2117 2009 2114 2213 2011 1899 2008 2113
8 2219 2116 2009 2117 2119 2010 1899 2011
8 2222 2118 2010 2119 2122 2012 1900 2013
8 2223 2119 2011 2120 2123 2013 1901 2014
8 2016 1902 2015 2125 2122 2012 2121 2225
8 2126 2016 2122 2226 2017 1903 2013 2123
8 2019 1905 2018 2128 2125 2015 2124 2228
8 2020 1906 2019 2129 2126 2016 2125 2229
8 2022 1908 2021 2131 2128 2018 2127 2231
8 2023 1909 2022 2132 2129 2019 2128 2232
8 2025 1911 2024 2134 2131 2021 2130 2234
8 2026 1912 2025 2135 2132 2022 2131 2235
8 1914 2028 2134 2024 2027 2136 2236 2133
8 2029 1915 2028 2137 2135 2025 2134 2237
8 2030 1918 2031 2138 2137 2028 2136 2238
8 2157 2050 2139 2240 2054 1941 2033 2140
8 2052 1940 2054 2161 2144 2035 2140 2242
8 2140 2033 2141 2243 2035 1923 2034 2143
8 2143 2034 2142 2246 2037 1924 2036 2146
8 2144 2035 2143 2247 2051 1939 2037 2147
8 2146 2036 2145 2249 2039 1925 2038 2149
8 2147 2037 2146 2250 2040 1926 2039 2150
8 2149 2038 2148 2251 2042 1927 2041 2151
8 2150 2039 2149 2252 2043 1928 2042 2152
8 2152 2042 2151 2253 2045 1931 2044 2153
8 2255 2154 2047 2155 2189 2085 1976 2086
8 2170 2062 1949 2063 2255 2154 2047 2155
8 2256 2155 2048 2156 2190 2086 1977 2087
8 2171 2063 1950 2064 2256 2155 2048 2156
8 2258 2159 2050 2157 2164 2056 1941 2054
8 2160 2053 1946 2058 2262 2163 2060 2167
8 2162 2055 1940 2052 2262 2163 2053 2160
8 2162 2055 2164 2263 2052 1940 2054 2161
8 2163 2057 1948 2060 2264 2165 2061 2168
8 2055 1943 2057 2163 2164 2056 2165 2264
8 2182 2076 2166 2268 2077 1964 2061 2168
8 2183 2077 2168 2269 2078 1965 2060 2167
8 2070 1963 2062 2170 2177 2075 2169 2271
8 2172 2070 1959 2065 2272 2170 2063 2171
8 2172 2070 2177 2273 2065 1959 2072 2173
8 2066 1958 2072 2173 2174 2071 2178 2274
8 2067 1957 2071 2174 2175 2069 2176 2275
8 2175 2069 2176 2275 2079 1973 2083 2184
8 2071 1961 2074 2178 2176 2073 2179 2276
8 2176 2073 2179 2276 2083 1975 2084 2186
8 2072 1962 2075 2177 2178 2074 2180 2277
8 2182 2076 1974 2082 2280 2181 2084 2186
8 2183 2077 1971 2081 2281 2182 2082 2185
8 2184 2083 2186 2282 2080 1972 2082 2185
8 2189 2085 1993 2095 2285 2188 2100 2197
8 2190 2086 1987 2090 2286 2189 2095 2193
8 2192 2097 1989 2089 2287 2196 2094 2191
8 2287 2196 2094 2191 2203 2104 1998 2103
8 2194 2098 1991 2091 2288 2199 2097 2192
8 2195 2096 2197 2289 2093 1988 2095 2193
8 2096 2195 2290 2198 1990 2092 2194 2098
8 2097 1996 2099 2196 2199 2102 2200 2291
8 2196 2099 1999 2104 2291 2200 2105 2204
8 2100 2197 2292 2201 1994 2096 2198 2101
8 1995 2098 2198 2101 2102 2199 2293 2202
8 2206 2107 2204 2296 2106 2001 2104 2203
8 2207 2108 2205 2297 2107 2002 2105 2204
8 2209 2110 2207 2299 2109 2004 2107 2206
8 2210 2111 2208 2300 2110 2005 2108 2207
8 2212 2113 2210 2302 2112 2007 2110 2209
8 2213 2114 2211 2303 2113 2008 2111 2210
8 2220 2117 2213 2305 2120 2011 2113 2212
8 2216 2115 2214 2306 2117 2009 2114 2213
8 2216 2115 2009 2117 2311 2217 2116 2219
8 2219 2116 2010 2119 2314 2218 2118 2222
8 2315 2219 2117 2220 2223 2119 2011 2120
8 2122 2012 2121 2225 2222 2118 2221 2317
8 2318 2222 2119 2223 2226 2122 2013 2123
8 2125 2015 2124 2228 2225 2121 2224 2320
8 2126 2016 2125 2229 2226 2122 2225 2321
8 2128 2018 2127 2231 2228 2124 2227 2323
8 2129 2019 2128 2232 2229 2125 2228 2324
8 2131 2021 2130 2234 2231 2127 2230 2326
8 2132 2022 2131 2235 2232 2128 2231 2327
8 2134 2024 2133 2236 2234 2130 2233 2328
8 2135 2025 2134 2237 2235 2131 2234 2329
8 2137 2028 2136 2238 2237 2134 2236 2330
8 2157 2050 2158 2259 2240 2139 2239 2332
8 2257 2157 2240 2334 2161 2054 2140 2242
8 2240 2139 2241 2335 2140 2033 2141 2243
8 2242 2140 2243 2337 2144 2035 2143 2247
8 2243 2141 2244 2338 2143 2034 2142 2246
8 2246 2142 2245 2341 2146 2036 2145 2249
8 2247 2143 2246 2342 2147 2037 2146 2250
8 2249 2145 2248 2343 2149 2038 2148 2251
8 2250 2146 2249 2344 2150 2039 2149 2252
8 2252 2149 2251 2345 2152 2042 2151 2253
8 2169 2271 2347 2254 2062 2170 2255 2154
8 2189 2085 2188 2285 2255 2154 2254 2347
8 2348 2255 2155 2256 2286 2189 2086 2190
8 2272 2170 2063 2171 2348 2255 2155 2256
8 2349 2258 2157 2257 2263 2164 2054 2161
8 2258 2159 2261 2351 2157 2050 2158 2259
8 2258 2159 2056 2164 2351 2261 2165 2264
8 2262 2163 2060 2167 2355 2264 2168 2269
8 2162 2055 2163 2262 2263 2164 2264 2355
8 2357 2266 2165 2264 2268 2166 2061 2168
8 2268 2166 2076 2182 2361 2267 2181 2280
8 2281 2182 2268 2362 2183 2077 2168 2269
8 2271 2169 2270 2364 2177 2075 2180 2277
8 2172 2070 2170 2272 2273 2177 2271 2365
8 2072 2173 2274 2178 2177 2273 2366 2277
8 2071 2174 2275 2176 2178 2274 2367 2276
8 2275 2176 2276 2367 2184 2083 2186 2282
8 2283 2187 2084 2186 2368 2278 2179 2276
8 2178 2074 2180 2277 2276 2179 2278 2368
8 2283 2187 2279 2370 2186 2084 2181 2280
8 2281 2182 2082 2185 2371 2280 2186 2282
8 2188 2285 2374 2284 2100 2197 2292 2201
8 2286 2189 2095 2193 2375 2285 2197 2289
8 2192 2097 2196 2287 2288 2199 2291 2376
8 2287 2196 2104 2203 2376 2291 2204 2296
8 2194 2098 2199 2288 2290 2198 2293 2377
8 2289 2197 2096 2195 2378 2292 2198 2290
8 2291 2200 2105 2204 2379 2294 2205 2297
8 2199 2102 2200 2291 2293 2202 2294 2379
8 2198 2101 2202 2293 2292 2201 2295 2380
8 2299 2207 2297 2383 2206 2107 2204 2296
8 2300 2208 2298 2384 2207 2108 2205 2297
8 2302 2210 2300 2386 2209 2110 2207 2299
8 2303 2211 2301 2387 2210 2111 2208 2300
8 2305 2213 2303 2389 2212 2113 2210 2302
8 2306 2214 2304 2390 2213 2114 2211 2303
8 2310 2216 2306 2392 2220 2117 2213 2305
8 2308 2215 2307 2393 2216 2115 2214 2306
8 2308 2215 2115 2216 2396 2309 2217 2311
8 2310 2216 2117 2220 2398 2311 2219 2315
8 2311 2217 2116 2219 2399 2312 2218 2314
8 2314 2218 2118 2222 2402 2313 2221 2317
8 2315 2219 2119 2223 2403 2314 2222 2318
8 2225 2121 2224 2320 2317 2221 2316 2405
8 2226 2122 2225 2321 2318 2222 2317 2406
8 2228 2124 2227 2323 2320 2224 2319 2408
8 2229 2125 2228 2324 2321 2225 2320 2409
8 2231 2127 2230 2326 2323 2227 2322 2411
8 2232 2128 2231 2327 2324 2228 2323 2412
8 2234 2130 2233 2328 2326 2230 2325 2413
8 2235 2131 2234 2329 2327 2231 2326 2414
8 2237 2134 2236 2330 2329 2234 2328 2415
8 2259 2158 2260 2352 2332 2239 2331 2417
8 2257 2157 2259 2350 2334 2240 2332 2419
8 2240 2139 2239 2332 2335 2241 2333 2420
8 2334 2240 2335 2422 2242 2140 2243 2337
8 2335 2241 2336 2423 2243 2141 2244 2338
8 2337 2243 2338 2425 2247 2143 2246 2342
8 2338 2244 2339 2426 2246 2142 2245 2341
8 2341 2245 2340 2428 2249 2145 2248 2343
8 2342 2246 2341 2429 2250 2146 2249 2344
8 2344 2249 2343 2430 2252 2149 2251 2345
8 2188 2285 2347 2254 2284 2374 2432 2346
8 2347 2254 2346 2432 2271 2169 2270 2364
8 2365 2271 2170 2272 2433 2347 2255 2348
8 2286 2189 2285 2375 2348 2255 2347 2433
8 2349 2258 2351 2435 2257 2157 2259 2350
8 2349 2258 2164 2263 2435 2351 2264 2355
8 2259 2158 2261 2351 2352 2260 2354 2437
8 2356 2265 2354 2437 2264 2165 2261 2351
8 2441 2357 2264 2355 2362 2268 2168 2269
8 2356 2265 2165 2264 2442 2358 2266 2357
8 2443 2359 2266 2357 2361 2267 2166 2268
8 2370 2279 2360 2446 2280 2181 2267 2361
8 2362 2268 2182 2281 2447 2361 2280 2371
8 2180 2277 2368 2278 2270 2364 2449 2363
8 2271 2365 2273 2177 2364 2450 2366 2277
8 2372 2283 2186 2282 2451 2368 2276 2367
8 2178 2274 2367 2276 2277 2366 2451 2368
8 2283 2187 2278 2368 2370 2279 2369 2452
8 2372 2283 2370 2453 2282 2186 2280 2371
8 2284 2374 2455 2373 2201 2292 2380 2295
8 2375 2285 2197 2289 2456 2374 2292 2378
8 2376 2291 2204 2296 2457 2379 2297 2383
8 2288 2199 2291 2376 2377 2293 2379 2457
8 2198 2290 2378 2292 2293 2377 2458 2380
8 2293 2202 2294 2379 2380 2295 2381 2459
8 2384 2298 2381 2459 2297 2205 2294 2379
8 2386 2300 2384 2463 2299 2207 2297 2383
8 2387 2301 2385 2464 2300 2208 2298 2384
8 2389 2303 2387 2466 2302 2210 2300 2386
8 2390 2304 2388 2467 2303 2211 2301 2387
8 2392 2306 2390 2469 2305 2213 2303 2389
8 2393 2307 2391 2470 2306 2214 2304 2390
8 2395 2308 2393 2472 2310 2216 2306 2392
8 2308 2215 2309 2396 2393 2307 2394 2473
8 2395 2308 2216 2310 2475 2396 2311 2398
8 2396 2309 2217 2311 2476 2397 2312 2399
8 2398 2311 2219 2315 2478 2399 2314 2403
8 2399 2312 2218 2314 2479 2400 2313 2402
8 2317 2221 2316 2405 2402 2313 2401 2482
8 2403 2314 2222 2318 2483 2402 2317 2406
8 2320 2224 2319 2408 2405 2316 2404 2485
8 2321 2225 2320 2409 2406 2317 2405 2486
8 2323 2227 2322 2411 2408 2319 2407 2488
8 2324 2228 2323 2412 2409 2320 2408 2489
8 2326 2230 2325 2413 2411 2322 2410 2490
8 2327 2231 2326 2414 2412 2323 2411 2491
8 2329 2234 2328 2415 2414 2326 2413 2492
8 2417 2331 2260 2352 2494 2416 2353 2438
8 2350 2259 2352 2436 2419 2332 2417 2496
8 2332 2239 2331 2417 2420 2333 2418 2497
8 2334 2240 2332 2419 2422 2335 2420 2499
8 2420 2333 2421 2500 2335 2241 2336 2423
8 2422 2335 2423 2502 2337 2243 2338 2425
8 2423 2336 2424 2503 2338 2244 2339 2426
8 2425 2338 2426 2505 2342 2246 2341 2429
8 2426 2339 2427 2506 2341 2245 2340 2428
8 2429 2341 2428 2507 2344 2249 2343 2430
8 2432 2346 2284 2374 2509 2431 2373 2455
8 2432 2346 2431 2509 2364 2270 2363 2449
8 2375 2285 2374 2456 2433 2347 2432 2510
8 2347 2433 2365 2271 2432 2510 2450 2364
8 2350 2259 2351 2435 2436 2352 2437 2514
8 2440 2356 2437 2514 2355 2264 2351 2435
8 2352 2260 2354 2437 2438 2353 2439 2516
8 2356 2265 2358 2442 2437 2354 2439 2516
8 2440 2356 2264 2355 2518 2442 2357 2441
8 2519 2443 2357 2441 2447 2361 2268 2362
8 2443 2359 2444 2520 2357 2266 2358 2442
8 2443 2359 2267 2361 2520 2444 2360 2446
8 2446 2360 2279 2370 2523 2445 2369 2452
8 2453 2370 2446 2524 2371 2280 2361 2447
8 2449 2363 2448 2525 2368 2278 2369 2452
8 2366 2277 2364 2450 2451 2368 2449 2526
8 2372 2283 2368 2451 2453 2370 2452 2527
8 2455 2373 2295 2380 2529 2454 2382 2460
8 2456 2374 2292 2378 2530 2455 2380 2458
8 2377 2293 2379 2457 2458 2380 2459 2531
8 2463 2384 2459 2531 2383 2297 2379 2457
8 2533 2461 2382 2460 2459 2381 2295 2380
8 2464 2385 2461 2533 2384 2298 2381 2459
8 2466 2387 2464 2537 2386 2300 2384 2463
8 2467 2388 2465 2538 2387 2301 2385 2464
8 2469 2390 2467 2540 2389 2303 2387 2466
8 2470 2391 2468 2541 2390 2304 2388 2467
8 2472 2393 2470 2543 2392 2306 2390 2469
8 2393 2307 2394 2473 2470 2391 2471 2544
8 2395 2308 2396 2475 2472 2393 2473 2546
8 2396 2309 2397 2476 2473 2394 2474 2547
8 2475 2396 2311 2398 2549 2476 2399 2478
8 2476 2397 2312 2399 2550 2477 2400 2479
8 2478 2399 2314 2403 2552 2479 2402 2483
8 2479 2400 2313 2402 2553 2480 2401 2482
8 2405 2316 2404 2485 2482 2401 2481 2556
8 2406 2317 2405 2486 2483 2402 2482 2557
8 2408 2319 2407 2488 2485 2404 2484 2559
8 2409 2320 2408 2489 2486 2405 2485 2560
8 2411 2322 2410 2490 2488 2407 2487 2561
8 2412 2323 2411 2491 2489 2408 2488 2562
8 2414 2326 2413 2492 2491 2411 2490 2563
8 2513 2434 2493 2565 2438 2353 2416 2494
8 2496 2417 2352 2436 2567 2494 2438 2515
8 2494 2416 2495 2568 2417 2331 2418 2497
8 2419 2332 2417 2496 2499 2420 2497 2570
8 2497 2418 2498 2571 2420 2333 2421 2500
8 2499 2420 2500 2573 2422 2335 2423 2502
8 2500 2421 2501 2574 2423 2336 2424 2503
8 2502 2423 2503 2576 2425 2338 2426 2505
8 2503 2424 2504 2577 2426 2339 2427 2506
8 2505 2426 2506 2578 2429 2341 2428 2507
8 2509 2431 2373 2455 2580 2508 2454 2529
8 2509 2431 2508 2580 2449 2363 2448 2525
8 2432 2510 2581 2509 2374 2456 2530 2455
8 2432 2510 2450 2364 2509 2581 2526 2449
8 2583 2511 2434 2513 2516 2439 2353 2438
8 2436 2352 2437 2514 2515 2438 2516 2588
8 2440 2356 2442 2518 2514 2437 2516 2588
8 2442 2358 2444 2520 2516 2439 2517 2589
8 2519 2443 2520 2591 2441 2357 2442 2518
8 2519 2443 2361 2447 2591 2520 2446 2524
8 2446 2360 2445 2523 2520 2444 2521 2592
8 2525 2448 2522 2593 2452 2369 2445 2523
8 2524 2446 2370 2453 2594 2523 2452 2527
8 2526 2449 2525 2595 2451 2368 2452 2527
8 2534 2462 2528 2597 2460 2382 2454 2529
8 2530 2455 2380 2458 2598 2529 2460 2532
8 2599 2533 2460 2532 2531 2459 2380 2458
8 2537 2464 2533 2599 2463 2384 2459 2531
8 2534 2462 2382 2460 2601 2535 2461 2533
8 2538 2465 2535 2601 2464 2385 2461 2533
8 2540 2467 2538 2604 2466 2387 2464 2537
8 2541 2468 2539 2605 2467 2388 2465 2538
8 2543 2470 2541 2607 2469 2390 2467 2540
8 2470 2391 2471 2544 2541 2468 2542 2608
8 2472 2393 2473 2546 2543 2470 2544 2610
8 2473 2394 2474 2547 2544 2471 2545 2611
8 2475 2396 2476 2549 2546 2473 2547 2613
8 2476 2397 2477 2550 2547 2474 2548 2614
8 2549 2476 2399 2478 2616 2550 2479 2552
8 2479 2400 2480 2553 2550 2477 2551 2617
8 2552 2479 2402 2483 2619 2553 2482 2557
8 2482 2401 2481 2556 2553 2480 2554 2620
8 2485 2404 2484 2559 2556 2481 2555 2623
8 2486 2405 2485 2560 2557 2482 2556 2624
8 2488 2407 2487 2561 2559 2484 2558 2625
8 2489 2408 2488 2562 2560 2485 2559 2626
8 2491 2411 2490 2563 2562 2488 2561 2627
8 2513 2434 2512 2585 2565 2493 2564 2630
8 2586 2513 2565 2632 2515 2438 2494 2567
8 2565 2493 2566 2633 2494 2416 2495 2568
8 2567 2494 2568 2635 2496 2417 2497 2570
8 2568 2495 2569 2636 2497 2418 2498 2571
8 2570 2497 2571 2638 2499 2420 2500 2573
8 2571 2498 2572 2639 2500 2421 2501 2574
8 2573 2500 2574 2641 2502 2423 2503 2576
8 2574 2501 2575 2642 2503 2424 2504 2577
8 2576 2503 2577 2643 2505 2426 2506 2578
8 2597 2528 2579 2645 2529 2454 2508 2580
8 2580 2508 2579 2645 2525 2448 2522 2593
8 2581 2509 2455 2530 2646 2580 2529 2598
8 2581 2509 2580 2646 2526 2449 2525 2595
8 2583 2511 2582 2648 2513 2434 2512 2585
8 2583 2511 2439 2516 2648 2582 2517 2589
8 2649 2583 2513 2586 2588 2516 2438 2515
8 2589 2517 2444 2520 2653 2587 2521 2592
8 2518 2442 2520 2591 2588 2516 2589 2654
8 2593 2522 2590 2655 2523 2445 2521 2592
8 2524 2446 2523 2594 2591 2520 2592 2656
8 2595 2525 2593 2657 2527 2452 2523 2594
8 2602 2536 2596 2659 2534 2462 2528 2597
8 2600 2534 2597 2660 2532 2460 2529 2598
8 2600 2534 2460 2532 2661 2601 2533 2599
8 2604 2538 2601 2661 2537 2464 2533 2599
8 2602 2536 2462 2534 2663 2603 2535 2601
8 2601 2535 2465 2538 2663 2603 2539 2605
8 2607 2541 2605 2665 2540 2467 2538 2604
8 2608 2542 2606 2666 2541 2468 2539 2605
8 2543 2470 2544 2610 2607 2541 2608 2668
8 2544 2471 2545 2611 2608 2542 2609 2669
8 2546 2473 2547 2613 2610 2544 2611 2671
8 2547 2474 2548 2614 2611 2545 2612 2672
8 2549 2476 2550 2616 2613 2547 2614 2674
8 2550 2477 2551 2617 2614 2548 2615 2675
8 2552 2479 2553 2619 2616 2550 2617 2677
8 2553 2480 2554 2620 2617 2551 2618 2678
8 2557 2482 2556 2624 2619 2553 2620 2680
8 2556 2481 2555 2623 2620 2554 2621 2681
8 2559 2484 2558 2625 2623 2555 2622 2683
8 2560 2485 2559 2626 2624 2556 2623 2684
8 2562 2488 2561 2627 2626 2559 2625 2685
8 2690 2629 2564 2630 2650 2584 2512 2585
8 2586 2513 2585 2651 2632 2565 2630 2691
8 2630 2564 2631 2692 2565 2493 2566 2633
8 2632 2565 2633 2694 2567 2494 2568 2635
8 2633 2566 2634 2695 2568 2495 2569 2636
8 2635 2568 2636 2697 2570 2497 2571 2638
8 2636 2569 2637 2698 2571 2498 2572 2639
8 2638 2571 2639 2700 2573 2500 2574 2641
8 2639 2572 2640 2701 2574 2501 2575 2642
8 2641 2574 2642 2702 2576 2503 2577 2643
8 2597 2528 2596 2659 2645 2579 2644 2704
8 2645 2579 2644 2704 2593 2522 2590 2655
8 2660 2597 2645 2705 2598 2529 2580 2646
8 2646 2580 2645 2705 2595 2525 2593 2657
8 2650 2584 2512 2585 2707 2647 2582 2648
8 2648 2582 2517 2589 2707 2647 2587 2653
8 2649 2583 2648 2708 2586 2513 2585 2651
8 2649 2583 2516 2588 2708 2648 2589 2654
8 2655 2590 2652 2710 2592 2521 2587 2653
8 2654 2589 2520 2591 2711 2653 2592 2656
8 2657 2593 2655 2712 2594 2523 2592 2656
8 2602 2536 2603 2663 2659 2596 2658 2714
8 2662 2602 2659 2715 2600 2534 2597 2660
8 2662 2602 2534 2600 2717 2663 2601 2661
8 2661 2601 2538 2604 2717 2663 2605 2665
8 2666 2606 2664 2718 2605 2539 2603 2663
8 2668 2608 2666 2720 2607 2541 2605 2665
8 2608 2542 2609 2669 2666 2606 2667 2721
8 2610 2544 2611 2671 2668 2608 2669 2723
8 2611 2545 2612 2672 2669 2609 2670 2724
8 2613 2547 2614 2674 2671 2611 2672 2726
8 2614 2548 2615 2675 2672 2612 2673 2727
8 2616 2550 2617 2677 2674 2614 2675 2729
8 2617 2551 2618 2678 2675 2615 2676 2730
8 2619 2553 2620 2680 2677 2617 2678 2732
8 2620 2554 2621 2681 2678 2618 2679 2733
8 2624 2556 2623 2684 2680 2620 2681 2735
8 2681 2621 2555 2623 2736 2682 2622 2683
8 2626 2559 2625 2685 2684 2623 2683 2737
8 2688 2628 2584 2650 2740 2686 2647 2707
8 2688 2628 2687 2742 2650 2584 2629 2690
8 2690 2629 2689 2745 2630 2564 2631 2692
8 2746 2690 2630 2691 2709 2650 2585 2651
8 2691 2630 2692 2747 2632 2565 2633 2694
8 2692 2631 2693 2748 2633 2566 2634 2695
8 2694 2633 2695 2750 2635 2568 2636 2697
8 2695 2634 2696 2751 2636 2569 2637 2698
8 2697 2636 2698 2753 2638 2571 2639 2700
8 2698 2637 2699 2754 2639 2572 2640 2701
8 2700 2639 2701 2755 2641 2574 2642 2702
8 2659 2596 2658 2714 2704 2644 2703 2757
8 2704 2644 2703 2757 2655 2590 2652 2710
8 2660 2597 2659 2715 2705 2645 2704 2758
8 2705 2645 2704 2758 2657 2593 2655 2712
8 2759 2706 2647 2707 2710 2652 2587 2653
8 2709 2650 2585 2651 2760 2707 2648 2708
8 2708 2648 2589 2654 2760 2707 2653 2711
8 2712 2655 2710 2761 2656 2592 2653 2711
8 2763 2713 2658 2714 2718 2664 2603 2663
8 2662 2602 2663 2717 2715 2659 2714 2764
8 2720 2666 2718 2767 2665 2605 2663 2717
8 2768 2719 2664 2718 2721 2667 2606 2666
8 2668 2608 2669 2723 2720 2666 2721 2770
8 2669 2609 2670 2724 2721 2667 2722 2771
8 2671 2611 2672 2726 2723 2669 2724 2773
8 2672 2612 2673 2727 2724 2670 2725 2774
8 2674 2614 2675 2729 2726 2672 2727 2776
8 2675 2615 2676 2730 2727 2673 2728 2777
8 2677 2617 2678 2732 2729 2675 2730 2779
8 2678 2618 2679 2733 2730 2676 2731 2780
8 2680 2620 2681 2735 2732 2678 2733 2782
8 2733 2679 2621 2681 2783 2734 2682 2736
8 2735 2681 2623 2684 2784 2736 2683 2737
8 2740 2686 2647 2707 2787 2738 2706 2759
8 2688 2628 2686 2740 2742 2687 2739 2789
8 2743 2688 2650 2709 2790 2740 2707 2760
8 2742 2687 2741 2792 2690 2629 2689 2745
8 2743 2688 2742 2793 2709 2650 2690 2746
8 2745 2689 2744 2795 2692 2631 2693 2748
8 2746 2690 2745 2796 2691 2630 2692 2747
8 2747 2692 2748 2797 2694 2633 2695 2750
8 2748 2693 2749 2798 2695 2634 2696 2751
8 2750 2695 2751 2800 2697 2636 2698 2753
8 2751 2696 2752 2801 2698 2637 2699 2754
8 2753 2698 2754 2802 2700 2639 2701 2755
8 2763 2713 2756 2804 2714 2658 2703 2757
8 2759 2706 2652 2710 2804 2756 2703 2757
8 2715 2659 2714 2764 2758 2704 2757 2805
8 2758 2704 2757 2805 2712 2655 2710 2761
8 2806 2759 2707 2760 2761 2710 2653 2711
8 2765 2716 2762 2808 2718 2664 2713 2763
8 2809 2763 2714 2764 2767 2718 2663 2717
8 2765 2716 2664 2718 2811 2766 2719 2768
8 2813 2768 2718 2767 2770 2721 2666 2720
8 2814 2769 2719 2768 2771 2722 2667 2721
8 2723 2669 2724 2773 2770 2721 2771 2816
8 2724 2670 2725 2774 2771 2722 2772 2817
8 2726 2672 2727 2776 2773 2724 2774 2819
8 2727 2673 2728 2777 2774 2725 2775 2820
8 2729 2675 2730 2779 2776 2727 2777 2822
8 2730 2676 2731 2780 2777 2728 2778 2823
8 2732 2678 2733 2782 2779 2730 2780 2825
8 2780 2731 2679 2733 2826 2781 2734 2783
8 2782 2733 2681 2735 2827 2783 2736 2784
8 2830 2785 2738 2787 2804 2756 2706 2759
8 2789 2739 2686 2740 2832 2786 2738 2787
8 2790 2740 2707 2760 2833 2787 2759 2806
8 2742 2687 2739 2789 2792 2741 2788 2835
8 2743 2688 2740 2790 2793 2742 2789 2836
8 2792 2741 2791 2838 2745 2689 2744 2795
8 2793 2742 2792 2839 2746 2690 2745 2796
8 2795 2744 2794 2841 2748 2693 2749 2798
8 2796 2745 2795 2842 2747 2692 2748 2797
8 2797 2748 2798 2843 2750 2695 2751 2800
8 2798 2749 2799 2844 2751 2696 2752 2801
8 2800 2751 2801 2845 2753 2698 2754 2802
8 2808 2762 2803 2847 2763 2713 2756 2804
8 2809 2763 2804 2848 2764 2714 2757 2805
8 2806 2759 2710 2761 2848 2804 2757 2805
8 2765 2716 2766 2811 2808 2762 2807 2850
8 2810 2765 2808 2851 2767 2718 2763 2809
8 2810 2765 2718 2767 2852 2811 2768 2813
8 2811 2766 2719 2768 2853 2812 2769 2814
8 2855 2814 2768 2813 2816 2771 2721 2770
8 2856 2815 2769 2814 2817 2772 2722 2771
8 2773 2724 2774 2819 2816 2771 2817 2858
8 2774 2725 2775 2820 2817 2772 2818 2859
8 2776 2727 2777 2822 2819 2774 2820 2861
8 2777 2728 2778 2823 2820 2775 2821 2862
8 2779 2730 2780 2825 2822 2777 2823 2864
8 2823 2778 2731 2780 2865 2824 2781 2826
8 2825 2780 2733 2782 2866 2826 2783 2827
8 2869 2828 2785 2830 2847 2803 2756 2804
8 2871 2829 2786 2832 2830 2785 2738 2787
8 2872 2830 2787 2833 2848 2804 2759 2806
8 2789 2739 2786 2832 2835 2788 2831 2874
8 2836 2789 2740 2790 2875 2832 2787 2833
8 2792 2741 2788 2835 2838 2791 2834 2877
8 2793 2742 2789 2836 2839 2792 2835 2878
8 2838 2791 2837 2880 2795 2744 2794 2841
8 2839 2792 2838 2881 2796 2745 2795 2842
8 2841 2794 2840 2882 2798 2749 2799 2844
8 2842 2795 2841 2883 2797 2748 2798 2843
8 2843 2798 2844 2884 2800 2751 2801 2845
8 2886 2846 2803 2847 2850 2807 2762 2808
8 2851 2808 2847 2887 2809 2763 2804 2848
8 2850 2807 2766 2811 2889 2849 2812 2853
8 2810 2765 2811 2852 2851 2808 2850 2890
8 2852 2811 2768 2813 2891 2853 2814 2855
8 2853 2812 2769 2814 2892 2854 2815 2856
8 2894 2856 2814 2855 2858 2817 2771 2816
8 2817 2772 2818 2859 2856 2815 2857 2895
8 2819 2774 2820 2861 2858 2817 2859 2897
8 2820 2775 2821 2862 2859 2818 2860 2898
8 2822 2777 2823 2864 2861 2820 2862 2900
8 2823 2778 2824 2865 2862 2821 2863 2901
8 2864 2823 2780 2825 2902 2865 2826 2866
8 2904 2867 2828 2869 2886 2846 2803 2847
8 2869 2828 2868 2906 2830 2785 2829 2871
8 2907 2869 2830 2872 2887 2847 2804 2848
8 2871 2829 2870 2909 2832 2786 2831 2874
8 2910 2871 2832 2875 2872 2830 2787 2833
8 2835 2788 2831 2874 2877 2834 2873 2912
8 2836 2789 2832 2875 2878 2835 2874 2913
8 2877 2834 2876 2915 2838 2791 2837 2880
8 2839 2792 2835 2878 2881 2838 2877 2916
8 2880 2837 2879 2917 2841 2794 2840 2882
8 2881 2838 2880 2918 2842 2795 2841 2883
8 2883 2841 2882 2919 2843 2798 2844 2884
8 2921 2885 2846 2886 2889 2849 2807 2850
8 2922 2886 2847 2887 2890 2850 2808 2851
8 2889 2849 2812 2853 2924 2888 2854 2892
8 2890 2850 2811 2852 2925 2889 2853 2891
8 2891 2853 2814 2855 2926 2892 2856 2894
8 2892 2854 2815 2856 2927 2893 2857 2895
8 2858 2817 2859 2897 2894 2856 2895 2929
8 2859 2818 2860 2898 2895 2857 2896 2930
8 2861 2820 2862 2900 2897 2859 2898 2932
8 2862 2821 2863 2901 2898 2860 2899 2933
8 2864 2823 2865 2902 2900 2862 2901 2934
8 2904 2867 2846 2886 2936 2903 2885 2921
8 2904 2867 2903 2936 2869 2828 2868 2906
8 2937 2904 2869 2907 2922 2886 2847 2887
8 2906 2868 2905 2939 2871 2829 2870 2909
8 2907 2869 2906 2940 2872 2830 2871 2910
8 2909 2870 2908 2942 2874 2831 2873 2912
8 2910 2871 2909 2943 2875 2832 2874 2913
8 2912 2873 2911 2945 2877 2834 2876 2915
8 2878 2835 2874 2913 2916 2877 2912 2946
8 2915 2876 2914 2947 2880 2837 2879 2917
8 2916 2877 2915 2948 2881 2838 2880 2918
8 2918 2880 2917 2949 2883 2841 2882 2919
8 2921 2885 2849 2889 2951 2920 2888 2924
8 2952 2921 2886 2922 2925 2889 2850 2890
8 2924 2888 2854 2892 2954 2923 2893 2927
8 2925 2889 2853 2891 2955 2924 2892 2926
8 2926 2892 2856 2894 2956 2927 2895 2929
8 2895 2857 2896 2930 2927 2893 2928 2957
8 2897 2859 2898 2932 2929 2895 2930 2959
8 2898 2860 2899 2933 2930 2896 2931 2960
8 2900 2862 2901 2934 2932 2898 2933 2961
8 2936 2903 2885 2921 2963 2935 2920 2951
8 2936 2903 2935 2963 2906 2868 2905 2939
8 2937 2904 2886 2922 2964 2936 2921 2952
8 2937 2904 2936 2964 2907 2869 2906 2940
8 2939 2905 2938 2966 2909 2870 2908 2942
8 2940 2906 2939 2967 2910 2871 2909 2943
8 2942 2908 2941 2969 2912 2873 2911 2945
8 2943 2909 2942 2970 2913 2874 2912 2946
8 2945 2911 2944 2971 2915 2876 2914 2947
8 2946 2912 2945 2972 2916 2877 2915 2948
8 2948 2915 2947 2973 2918 2880 2917 2949
8 2951 2920 2888 2924 2975 2950 2923 2954
8 2952 2921 2889 2925 2976 2951 2924 2955
8 2927 2893 2928 2957 2954 2923 2953 2978
8 2955 2924 2892 2926 2979 2954 2927 2956
8 2929 2895 2930 2959 2956 2927 2957 2980
8 2930 2896 2931 2960 2957 2928 2958 2981
8 2932 2898 2933 2961 2959 2930 2960 2982
8 2951 2920 2950 2975 2963 2935 2962 2984
8 2963 2935 2962 2984 2939 2905 2938 2966
8 2964 2936 2921 2952 2985 2963 2951 2976
8 2964 2936 2963 2985 2940 2906 2939 2967
8 2966 2938 2965 2987 2942 2908 2941 2969
8 2967 2939 2966 2988 2943 2909 2942 2970
8 2969 2941 2968 2989 2945 2911 2944 2971
8 2970 2942 2969 2990 2946 2912 2945 2972
8 2972 2945 2971 2991 2948 2915 2947 2973
8 2954 2923 2953 2978 2975 2950 2974 2993
8 2976 2951 2924 2955 2994 2975 2954 2979
8 2957 2928 2958 2981 2978 2953 2977 2995
8 2956 2927 2957 2980 2979 2954 2978 2996
8 2959 2930 2960 2982 2980 2957 2981 2997
8 2984 2962 2983 2999 2966 2938 2965 2987
8 2975 2950 2974 2993 2984 2962 2983 2999
8 2976 2951 2975 2994 2985 2963 2984 3000
8 2985 2963 2984 3000 2967 2939 2966 2988
8 2987 2965 2986 3001 2969 2941 2968 2989
8 2988 2966 2987 3002 2970 2942 2969 2990
8 2990 2969 2989 3003 2972 2945 2971 2991
8 2978 2953 2977 2995 2993 2974 2992 3004
8 2979 2954 2978 2996 2994 2975 2993 3005
8 2980 2957 2981 2997 2996 2978 2995 3006
8 2974 2993 2999 2983 2992 3004 3007 2998
8 2983 2999 2987 2965 2998 3007 3001 2986
8 3000 2984 2999 3008 2988 2966 2987 3002
8 2994 2975 2993 3005 3000 2984 2999 3008
8 3002 2987 3001 3009 2990 2969 2989 3003
8 2996 2978 2995 3006 3005 2993 3004 3010
8 3005 2993 3004 3010 3008 2999 3007 3011
8 3008 2999 3007 3011 3002 2987 3001 3009

CELL_TYPES 1910
12
12
12
12
12
12
12
12
12
12
12
12
12
12
12
12
12
12
12
12
12
12
12
12
12
12
12
12
12
12
12
12
12
12
12
12
12
12
12
12
12
12
12
12
12
12
12
12
12
12
12
12
12
12
12
12
12
12
12
12
12
12
12
12
12
12
12
12
12
12
12
12
12
12
12
12
12
12
12
12
12
12
12
12
12
12
12
12
12
12
12
12
12
12
12
12
12
12
12
12
12
12
12
12
12
12
12
12
12
12
12
12
12
12
12
12
12
12
12
12
12
12
12
12
12
12
12
12
12
12
12
12
12
12
12
12
12
12
12
12
12
12
12
12
12
12
12
12
12
12
12
12
12
12
12
12
12
12
12
12
12
12
12
12
12
12
12
12
12
12
12
12
12
12
12
12
12
12
12
12
12
12
12
12
12
12
12
12
12
12
12
12
12
12
12
12
12
12
12
12
12
12
12
12
12
12
12
12
12
12
12
12
12
12
12
12
12
12
12
12
12
12
12
12
12
12
12
12
12
12
12
12
12
12
12
12
12
12
12
12
12
12
12
12
12
12
12
12
12
12
12
12
12
12
12
12
12
12
12
12
12
12
12
12
12
12
12
12
12
12
12
12
12
12
12
12
12
12
12
12
12
12
12
12
12
12
12
12
12
12
12
12
12
12
12
12
12
12
12
12
12
12
12
12
12
12
12
12
12
12
12
12
12
12
12
12
12
12
12
12
12
12
12
12
12
12
12
12
12
12
12
12
12
12
12
12
12
12
12
12
12
12
12
12
12
12
12
12
12
12
12
12
12
12
12
12
12
12
12
12
12
12
12
12
12
12
12
12
12
12
12
12
12
12
12
12
12
12
12
12
12
12
12
12
12
12
12
12
12
12
12
12
12
12
12
12
12
12
12
12
12
12
12
12
12
12
12
12
12
12
12
12
12
12
12
12
12
12
12
12
12
12
12
12
12
12
12
12
12
12
12
12
12
12
12
12
12
12
12
12
12
12
12
12
12
12
12
12
12
12
12
12
12
12
12
12
12
12
12
12
12
12
12
12
12
12
12
12
12
12
12
12
12
12
12
12
12
12
12
12
12
12
12
12
12
12
12
12
12
12
12
12
12
12
12
12
12
12
12
12
12
12
12
12
12
12
12
12
12
12
12
12
12
12
12
12
12
12
12
12
12
12
12
12
12
12
12
12
12
12
12
12
12
12
12
12
12
12
12
12
12
12
12
12
12
12
12
12
12
12
12
12
12
12
12
12
12
12
12
12
12
12
12
12
12
12
12
12
12
12
12
12
12
12
12
12
12
12
12
12
12
12
12
12
12
12
12
12
12
12
12
12
12
12
12
12
12
12
12
12
12
12
12
12
12
12
12
12
12
12
12
12
12
12
12
12
12
12
12
12
12
12
12
12
12
12
12
12
12
12
12
12
12
12
12
12
12
12
12
12
12
12
12
12
12
12
12
12
12
12
12
12
12
12
12
12
12
12
12
12
12
12
12
12
12
12
12
12
12
12
12
12
12
12
12
12
12
12
12
12
12
12
12
12
12
12
12
12
12
12
12
12
12
12
12
12
12
12
12
12
12
12
12
12
12
12
12
12
12
12
12
12
12
12
12
12
12
12
12
12
12
12
12
12
12
12
12
12
12
12
12
12
12
12
12
12
12
12
12
12
12
12
12
12
12
12
12
12
12
12
12
12
12
12
12
12
12
12
12
12
12
12
12
12
12
12
12
12
12
12
12
12
12
12
12
12
12
12
12
12
12
12
12
12
12
12
12
12
12
12
12
12
12
12
12
12
12
12
12
12
12
12
12
12
12
12
12
12
12
12
12
12
12
12
12
12
12
12
12
12
12
12
12
12
12
12
12
12
12
12
12
12
12
12
12
12
12
12
12
12
12
12
12
12
12
12
12
12
12
12
12
12
12
12
12
12
12
12
12
12
12
12
12
12
12
12
12
12
12
12
12
12
12
12
12
12
12
12
12
12
12
12
12
12
12
12
12
12
12
12
12
12
12
12
12
12
12
12
12
12
12
12
12
12
12
12
12
12
12
12
12
12
12
12
12
12
12
12
12
12
12
12
12
12
12
12
12
12
12
12
12
12
12
12
12
12
12
12
12
12
12
12
12
12
12
12
12
12
12
12
12
12
12
12
12
12
12
12
12
12
12
12
12
12
12
12
12
12
12
12
12
12
12
12
12
12
12
12
12
12
12
12
12
12
12
12
12
12
12
12
12
12
12
12
12
12
12
12
12
12
12
12
12
12
12
12
12
12
12
12
12
12
12
12
12
12
12
12
12
12
12
12
12
12
12
12
12
12
12
12
12
12
12
12
12
12
12
12
12
12
12
12
12
12
12
12
12
12
12
12
12
12
12
12
12
12
12
12
12
12
12
12
12
12
12
12
12
12
12
12
12
12
12
12
12
12
12
12
12
12
12
12
12
12
12
12
12
12
12
12
12
12
12
12
12
12
12
12
12
12
12
12
12
12
12
12
12
12
12
12
12
12
12
12
12
12
12
12
12
12
12
12
12
12
12
12
12
12
12
12
12
12
12
12
12
12
12
12
12
12
12
12
12
12
12
12
12
12
12
12
12
12
12
12
12
12
12
12
12
12
12
12
12
12
12
12
12
12
12
12
12
12
12
12
12
12
12
12
12
12
12
12
12
12
12
12
12
12
12
12
12
12
12
12
12
12
12
12
12
12
12
12
12
12
12
12
12
12
12
12
12
12
12
12
12
12
12
12
12
12
12
12
12
12
12
12
12
12
12
12
12
12
12
12
12
12
12
12
12
12
12
12
12
12
12
12
12
12
12
12
12
12
12
12
12
12
12
12
12
12
12
12
12
12
12
12
12
12
12
12
12
12
12
12
12
12
12
12
12
12
12
12
12
12
12
12
12
12
12
12
12
12
12
12
12
12
12
12
12
12
12
12
12
12
12
12
12
12
12
12
12
12
12
12
12
12
12
12
12
12
12
12
12
12
12
12
12
12
12
12
12
12
12
12
12
12
12
12
12
12
12
12
12
12
12
12
12
12
12
12
12
12
12
12
12
12
12
12
12
12
12
12
12
12
12
12
12
12
12
12
12
12
12
12
12
12
12
12
12
12
12
12
12
12
12
12
12
12
12
12
12
12
12
12
12
12
12
12
12
12
12
12
12
12
12
12
12
12
12
12
12
12
12
12
12
12
12
12
12
12
12
12
12
12
12
12
12
12
12
12
12
12
12
12
12
12
12
12
12
12
12
12
12
12
12
12
12
12
12
12
12
12
12
12
12
12
12
12
12
12
12
12
12
12
12
12
12
12
12
12
12
12
12
12
12
12
12
12
12
12
12
12
12
12
12
12
12
12
12
12
12
12
12
12
12
12
12
12
12
12
12
12
12
12
12
12
12
12
12
12
12
12
12
12
12
12
12
12
12
12
12
12
12
12
12
12
12
12
12
12
12
12
12
12
12
12
12
12
12
12
12
12
12
12
12
12
12
12
12
12
12
12
12
12
12
12
12
12
12
12
12
12
12
12
12
12
12
12
12
12
12
12
12
12
12
12
12
12
12
12
12
12
12
12
12
12
12
12
12
12
12
12
12
12
12
12
12
12
12
12
12
12
12
12
12
12
12
12
12
12
12
12
12
12
12
12
12
12
12
12
12
12
12
12
12
12
12
12
12
12
12
12
12
12
12
12
12
12
12
12
12
12
12
12
12
12
12
12
12
12
12
12
12
12
12
12
12
12
12
12
12
12
12
12
12
12
12
12
12
12
12
12
12
12
12
12
12
12
12
12
12
12
12
12
12
12
12
12
12
12
12
12
12
12
12
12
12
12
12
12
12
12
12
12
12
12
12
12
12
12
12
12
12
12
12
12
12
12
12
12
12
12
12
12
12
12
12
12
12
12
12
12
12
12
12
12
12
12
12
12
12
12
12
12
12
12
12
12
12
12
12
12
12
12
12
12
12
12
12
12
12
12
12
12
12
12
12
12
12
12
12
12
12
12
12
12
12
12
12
12
12
12
12
12
12
12
12
12
12
12
12
12
12
12
12
12
12
12
12
12
12
12
12
12
12
12
12
12
12
12
12
12
12
12
12
12
12
12
12
12
12
12
12
12
12
12
12
12
12
12
12
12
12
12
12
12
12
12
12
12
12
12
12
12
12
12
12
12
12
12
12
12
12
12
12
12
12
12
12
12
12
12
12
12
12
12
12
12
12
12
12
12
12
12
12
12
12
12
12
12
12
12
12
12
12
12
12
12
12
12
12
12
12
12
12
12
12
12
12
12
12
12
12
12
12
12
12
12
12
12

POINT_DATA 3012
SCALARS Jp_lamdaP float 4
LOOKUP_TABLE default
1 1 1 1
1 1 1 1
1 1 1 1
1 1 1 1
1 1 1 1
1 1 1 1
0.999975 1 1 0.999975
1 1 1 1
1 1 1 1
1 1 1 1
1 1 1 1
1 1 1 1
1 1 1 1
1 1 1 1
1 1 1 1
1 1 1 1
1 1 1 1
1 1 1 1
0.999976 1 1 0.999976
1 1 1 1
1 1 1 1
1 1 1 1
0.999948 1 1 0.999948
0.999968 1 1 0.999968
1 1 1 1
0.999982 1 1 0.999982
0.99991 1 1 0.99991
1 1 1 1
1 1 1 1
1 1 1 1
1 1 1 1
1 1 1 1
1 1 1 1
1 1 1 1
0.999987 1 1 0.999987
1 1 1 1
0.999998 1 1 0.999998
1 1 1 1
0.999928 1 1 0.999928
1 1 1 1
1 1 1 1
1 1 1 1
1 1 1 1
1 1 1 1
0.999963 1 1 0.999963
1 1 1 1
0.999974 1 1 0.999974
1 1 1 1
1 1 1 1
1 1 1 1
0.999976 1 1 0.999976
1 1 1 1
1 1 1 1
1 1 1 1
1 1 1 1
0.999949 1 1 0.999949
0.999983 1 1 0.999983
0.999969 1 1 0.999969
0.999907 1 1 0.999907
1 1 1 1
1 1 1 1
0.999965 1 1 0.999965
0.999941 1 1 0.999941
0.999959 1 1 0.999959
0.999845 1 1 0.999845
0.999882 1 1 0.999882
1 1 1 1
0.999988 1 1 0.999988
0.999927 1 1 0.999927
0.999801 1 1 0.999801
1 1 1 1
1 1 1 1
1 1 1 1
1 1 1 1
1 1 1 1
1 1 1 1
0.999989 1 1 0.999989
1 1 1 1
0.999999 1 1 0.999999
1 1 1 1
0.999928 1 1 0.999928
1 1 1 1
1 1 1 1
0.999981 1 1 0.999981
0.999993 1 1 0.999993
0.999873 1 1 0.999873
1 1 1 1
0.999918 1 1 0.999918
0.999939 1 1 0.999939
0.999844 1 1 0.999844
1 1 1 1
1 1 1 1
1 1 1 1
1 1 1 1
1 1 1 1
1 1 1 1
0.999965 1 1 0.999965
1 1 1 1
0.999975 1 1 0.999975
1 1 1 1
0.999959 1 1 0.999959
0.999969 1 1 0.999969
0.999794 1 1 0.999794
0.999977 1 1 0.999977
0.999818 1 1 0.999818
1 1 1 1
1 1 1 1
1 1 1 1
1 1 1 1
0.99995 1 1 0.99995
0.999969 1 1 0.999969
0.999984 1 1 0.999984
0.999905 1 1 0.999905
1 1 1 1
1 1 1 1
0.999951 1 1 0.999951
0.999942 1 1 0.999942
1 1 1 1
0.999994 1 1 0.999994
0.99996 1 1 0.99996
0.999838 1 1 0.999838
0.999925 1 1 0.999925
0.999887 1 1 0.999887
0.999802 1 1 0.999802
0.999962 1 1 0.999962
0.99994 1 1 0.99994
0.999806 1 1 0.999806
0.999818 1 1 0.999818
0.999859 1 1 0.999859
0.999744 1 1 0.999744
1 1 1 1
0.999789 1 1 0.999789
1 1 1 1
0.999932 1 1 0.999932
0.999814 1 1 0.999814
0.999759 1 1 0.999759
1 1 1 1
0.999951 1 1 0.999951
1 1 1 1
1 1 1 1
0.999991 1 1 0.999991
1 1 1 1
1 1 1 1
0.999999 1 1 0.999999
0.999928 1 1 0.999928
1 1 1 1
1 1 1 1
0.999983 1 1 0.999983
0.999995 1 1 0.999995
0.999873 1 1 0.999873
1 1 1 1
0.999918 1 1 0.999918
0.999939 1 1 0.999939
0.999841 1 1 0.999841
1 1 1 1
1 1 1 1
0.999958 1 1 0.999958
0.99985 1 1 0.99985
0.999899 1 1 0.999899
0.999782 1 1 0.999782
0.99995 1 1 0.99995
0.999831 1 1 0.999831
0.99985 1 1 0.99985
0.999806 1 1 0.999806
1 1 1 1
1 1 1 1
1 1 1 1
1 1 1 1
1 1 1 1
1 1 1 1
1 1 1 1
0.999976 1 1 0.999976
0.999966 1 1 0.999966
1 1 1 1
1 1 1 1
0.99996 1 1 0.99996
0.99997 1 1 0.99997
0.999794 1 1 0.999794
0.999978 1 1 0.999978
0.999818 1 1 0.999818
0.999959 1 1 0.999959
0.999784 1 1 0.999784
0.999806 1 1 0.999806
0.999711 1 1 0.999711
0.999832 1 1 0.999832
0.999735 1 1 0.999735
1 1 1 1
1 1 1 1
0.999936 1 1 0.999936
0.999942 1 1 0.999942
1 1 1 1
1 1 1 1
0.99996 1 1 0.99996
0.999831 1 1 0.999831
0.999891 1 1 0.999891
0.999922 1 1 0.999922
0.999802 1 1 0.999802
0.999961 1 1 0.999961
0.99994 1 1 0.99994
0.999792 1 1 0.999792
0.999823 1 1 0.999823
1 1 1 1
1 1 1 1
0.999936 1 1 0.999936
0.999859 1 1 0.999859
0.999736 1 1 0.999736
0.999812 1 1 0.999812
0.999794 1 1 0.999794
0.99976 1 1 0.99976
1 1 1 1
0.999951 1 1 0.999951
0.999786 1 1 0.999786
0.99981 1 1 0.99981
0.999714 1 1 0.999714
0.999709 1 1 0.999709
0.999775 1 1 0.999775
0.999703 1 1 0.999703
1 1 1 1
0.999751 1 1 0.999751
0.999941 1 1 0.999941
0.99983 1 1 0.99983
0.99977 1 1 0.99977
0.999748 1 1 0.999748
0.999948 1 1 0.999948
0.99996 1 1 0.99996
0.999848 1 1 0.999848
0.999984 1 1 0.999984
1 1 1 1
1 1 1 1
0.999996 1 1 0.999996
0.999873 1 1 0.999873
1 1 1 1
0.99994 1 1 0.99994
0.999918 1 1 0.999918
0.999838 1 1 0.999838
1 1 1 1
1 1 1 1
0.999958 1 1 0.999958
0.999849 1 1 0.999849
0.9999 1 1 0.9999
0.999782 1 1 0.999782
0.99995 1 1 0.99995
0.999834 1 1 0.999834
0.999849 1 1 0.999849
0.999801 1 1 0.999801
1 1 1 1
0.999955 1 1 0.999955
0.999963 1 1 0.999963
0.999862 1 1 0.999862
0.999761 1 1 0.999761
0.999812 1 1 0.999812
0.999737 1 1 0.999737
0.999858 1 1 0.999858
0.999793 1 1 0.999793
0.999794 1 1 0.999794
0.999774 1 1 0.999774
0.999985 1 1 0.999985
1 1 1 1
1 1 1 1
1 1 1 1
1 1 1 1
1 1 1 1
1 1 1 1
1 1 1 1
1 1 1 1
0.999979 1 1 0.999979
0.999972 1 1 0.999972
0.999818 1 1 0.999818
0.999794 1 1 0.999794
0.999961 1 1 0.999961
1 1 1 1
0.999959 1 1 0.999959
0.999784 1 1 0.999784
0.999806 1 1 0.999806
0.99971 1 1 0.99971
0.999832 1 1 0.999832
0.999735 1 1 0.999735
0.999782 1 1 0.999782
0.999703 1 1 0.999703
0.999722 1 1 0.999722
0.999684 1 1 0.999684
0.999749 1 1 0.999749
0.999706 1 1 0.999706
0.99996 1 1 0.99996
0.99994 1 1 0.99994
0.999778 1 1 0.999778
0.999827 1 1 0.999827
1 1 1 1
1 1 1 1
0.99994 1 1 0.99994
0.99986 1 1 0.99986
0.999728 1 1 0.999728
0.999798 1 1 0.999798
0.999811 1 1 0.999811
0.99976 1 1 0.99976
1 1 1 1
0.999952 1 1 0.999952
0.999781 1 1 0.999781
0.99981 1 1 0.99981
0.999712 1 1 0.999712
0.999718 1 1 0.999718
1 1 1 1
0.999941 1 1 0.999941
0.999836 1 1 0.999836
0.999776 1 1 0.999776
0.999701 1 1 0.999701
0.999764 1 1 0.999764
0.999751 1 1 0.999751
0.999747 1 1 0.999747
0.999948 1 1 0.999948
0.999844 1 1 0.999844
0.99996 1 1 0.99996
0.999713 1 1 0.999713
0.99971 1 1 0.99971
0.999672 1 1 0.999672
0.999676 1 1 0.999676
0.999736 1 1 0.999736
0.999704 1 1 0.999704
0.999946 1 1 0.999946
0.999745 1 1 0.999745
0.999854 1 1 0.999854
0.999777 1 1 0.999777
0.999736 1 1 0.999736
0.999761 1 1 0.999761
0.999972 1 1 0.999972
0.999853 1 1 0.999853
0.999837 1 1 0.999837
0.999802 1 1 0.999802
0.999849 1 1 0.999849
1 1 1 1
1 1 1 1
0.999958 1 1 0.999958
0.9999 1 1 0.9999
0.999782 1 1 0.999782
0.999951 1 1 0.999951
0.999848 1 1 0.999848
0.999837 1 1 0.999837
0.999797 1 1 0.999797
1 1 1 1
0.999955 1 1 0.999955
0.999963 1 1 0.999963
0.999862 1 1 0.999862
0.999761 1 1 0.999761
0.999813 1 1 0.999813
0.999737 1 1 0.999737
0.999859 1 1 0.999859
0.999798 1 1 0.999798
0.999792 1 1 0.999792
0.999782 1 1 0.999782
1 1 1 1
0.99997 1 1 0.99997
0.999863 1 1 0.999863
0.999864 1 1 0.999864
0.999801 1 1 0.999801
0.999724 1 1 0.999724
0.999768 1 1 0.999768
0.999721 1 1 0.999721
0.999798 1 1 0.999798
0.99977 1 1 0.99977
0.999739 1 1 0.999739
0.99998 1 1 0.99998
0.999895 1 1 0.999895
0.999988 1 1 0.999988
0.999986 1 1 0.999986
1 1 1 1
1 1 1 1
1 1 1 1
1 1 1 1
1 1 1 1
1 1 1 1
1 1 1 1
1 1 1 1
1 1 1 1
1 1 1 1
1 1 1 1
0.999832 1 1 0.999832
0.999806 1 1 0.999806
0.999736 1 1 0.999736
0.99971 1 1 0.99971
0.999784 1 1 0.999784
0.999958 1 1 0.999958
0.999782 1 1 0.999782
0.999703 1 1 0.999703
0.999722 1 1 0.999722
0.999683 1 1 0.999683
0.999748 1 1 0.999748
0.999706 1 1 0.999706
0.9997 1 1 0.9997
0.999681 1 1 0.999681
0.999691 1 1 0.999691
0.999677 1 1 0.999677
0.999718 1 1 0.999718
0.999716 1 1 0.999716
0.999775 1 1 0.999775
0.99981 1 1 0.99981
0.99971 1 1 0.99971
0.999726 1 1 0.999726
1 1 1 1
0.999941 1 1 0.999941
0.999841 1 1 0.999841
0.999776 1 1 0.999776
0.999699 1 1 0.999699
0.999752 1 1 0.999752
0.999759 1 1 0.999759
0.999747 1 1 0.999747
0.999948 1 1 0.999948
0.999841 1 1 0.999841
0.99996 1 1 0.99996
0.999708 1 1 0.999708
0.99971 1 1 0.99971
0.999667 1 1 0.999667
0.999678 1 1 0.999678
0.999946 1 1 0.999946
0.999853 1 1 0.999853
0.999783 1 1 0.999783
0.999738 1 1 0.999738
0.999706 1 1 0.999706
0.999731 1 1 0.999731
0.999745 1 1 0.999745
0.999764 1 1 0.999764
0.999854 1 1 0.999854
0.999796 1 1 0.999796
0.999971 1 1 0.999971
0.999838 1 1 0.999838
0.999669 1 1 0.999669
0.999664 1 1 0.999664
0.999645 1 1 0.999645
0.999673 1 1 0.999673
0.999737 1 1 0.999737
0.99972 1 1 0.99972
0.999858 1 1 0.999858
0.999769 1 1 0.999769
0.9998 1 1 0.9998
0.999738 1 1 0.999738
0.999715 1 1 0.999715
0.999767 1 1 0.999767
0.999981 1 1 0.999981
0.999846 1 1 0.999846
0.999806 1 1 0.999806
0.999781 1 1 0.999781
0.999775 1 1 0.999775
1 1 1 1
0.99976 1 1 0.99976
0.999963 1 1 0.999963
0.999955 1 1 0.999955
0.999862 1 1 0.999862
0.999813 1 1 0.999813
0.999737 1 1 0.999737
0.999859 1 1 0.999859
0.999791 1 1 0.999791
0.999802 1 1 0.999802
0.999789 1 1 0.999789
1 1 1 1
0.99997 1 1 0.99997
0.999863 1 1 0.999863
0.999864 1 1 0.999864
0.9998 1 1 0.9998
0.999723 1 1 0.999723
0.999768 1 1 0.999768
0.999719 1 1 0.999719
0.999798 1 1 0.999798
0.999772 1 1 0.999772
0.999743 1 1 0.999743
0.999976 1 1 0.999976
0.999868 1 1 0.999868
0.9998 1 1 0.9998
0.999799 1 1 0.999799
0.999774 1 1 0.999774
0.999717 1 1 0.999717
0.999746 1 1 0.999746
0.999735 1 1 0.999735
0.999747 1 1 0.999747
0.999712 1 1 0.999712
0.999982 1 1 0.999982
0.999872 1 1 0.999872
0.999889 1 1 0.999889
0.999828 1 1 0.999828
0.999902 1 1 0.999902
0.999991 1 1 0.999991
0.999989 1 1 0.999989
1 1 1 1
0.999987 1 1 0.999987
1 1 1 1
1 1 1 1
1 1 1 1
1 1 1 1
1 1 1 1
1 1 1 1
1 1 1 1
1 1 1 1
1 1 1 1
1 1 1 1
1 1 1 1
0.999748 1 1 0.999748
0.999722 1 1 0.999722
0.999707 1 1 0.999707
0.999683 1 1 0.999683
0.999703 1 1 0.999703
0.999782 1 1 0.999782
0.9997 1 1 0.9997
0.99968 1 1 0.99968
0.999691 1 1 0.999691
0.999675 1 1 0.999675
0.999718 1 1 0.999718
0.999716 1 1 0.999716
0.999676 1 1 0.999676
0.999677 1 1 0.999677
0.999688 1 1 0.999688
0.999669 1 1 0.999669
0.999722 1 1 0.999722
0.999731 1 1 0.999731
0.999703 1 1 0.999703
0.99971 1 1 0.99971
0.999663 1 1 0.999663
0.99968 1 1 0.99968
0.999946 1 1 0.999946
0.999853 1 1 0.999853
0.999788 1 1 0.999788
0.99974 1 1 0.99974
0.999709 1 1 0.999709
0.999745 1 1 0.999745
0.999726 1 1 0.999726
0.999767 1 1 0.999767
0.999854 1 1 0.999854
0.999791 1 1 0.999791
0.99997 1 1 0.99997
0.999839 1 1 0.999839
0.99967 1 1 0.99967
0.999665 1 1 0.999665
0.999642 1 1 0.999642
0.999674 1 1 0.999674
0.999858 1 1 0.999858
0.999804 1 1 0.999804
0.999737 1 1 0.999737
0.999735 1 1 0.999735
0.999729 1 1 0.999729
0.999713 1 1 0.999713
0.999769 1 1 0.999769
0.999775 1 1 0.999775
0.999807 1 1 0.999807
0.999773 1 1 0.999773
0.99978 1 1 0.99978
0.999972 1 1 0.999972
0.999848 1 1 0.999848
0.999653 1 1 0.999653
0.999633 1 1 0.999633
0.999692 1 1 0.999692
0.999756 1 1 0.999756
0.999813 1 1 0.999813
0.999798 1 1 0.999798
0.999765 1 1 0.999765
0.999691 1 1 0.999691
0.999701 1 1 0.999701
0.999971 1 1 0.999971
0.999876 1 1 0.999876
0.999782 1 1 0.999782
0.999785 1 1 0.999785
0.999736 1 1 0.999736
0.999753 1 1 0.999753
1 1 1 1
0.99997 1 1 0.99997
0.999722 1 1 0.999722
0.999864 1 1 0.999864
0.999862 1 1 0.999862
0.999798 1 1 0.999798
0.999769 1 1 0.999769
0.999718 1 1 0.999718
0.999799 1 1 0.999799
0.999747 1 1 0.999747
0.999775 1 1 0.999775
0.999976 1 1 0.999976
0.999868 1 1 0.999868
0.999804 1 1 0.999804
0.999798 1 1 0.999798
0.99977 1 1 0.99977
0.999716 1 1 0.999716
0.999744 1 1 0.999744
0.999737 1 1 0.999737
0.999744 1 1 0.999744
0.999706 1 1 0.999706
0.999874 1 1 0.999874
0.999789 1 1 0.999789
0.999762 1 1 0.999762
0.999757 1 1 0.999757
0.999748 1 1 0.999748
0.999769 1 1 0.999769
0.999707 1 1 0.999707
0.999724 1 1 0.999724
0.999709 1 1 0.999709
0.999648 1 1 0.999648
0.999983 1 1 0.999983
0.999877 1 1 0.999877
0.999799 1 1 0.999799
0.999882 1 1 0.999882
0.999902 1 1 0.999902
0.999818 1 1 0.999818
0.999769 1 1 0.999769
0.999815 1 1 0.999815
0.999908 1 1 0.999908
0.999992 1 1 0.999992
0.999991 1 1 0.999991
1 1 1 1
0.99999 1 1 0.99999
1 1 1 1
1 1 1 1
1 1 1 1
1 1 1 1
1 1 1 1
1 1 1 1
1 1 1 1
1 1 1 1
1 1 1 1
1 1 1 1
1 1 1 1
0.999717 1 1 0.999717
0.999691 1 1 0.999691
0.999717 1 1 0.999717
0.999674 1 1 0.999674
0.99968 1 1 0.99968
0.999701 1 1 0.999701
0.999675 1 1 0.999675
0.999677 1 1 0.999677
0.999685 1 1 0.999685
0.999663 1 1 0.999663
0.999723 1 1 0.999723
0.999737 1 1 0.999737
0.999681 1 1 0.999681
0.999675 1 1 0.999675
0.999686 1 1 0.999686
0.999772 1 1 0.999772
0.999671 1 1 0.999671
0.999666 1 1 0.999666
0.999639 1 1 0.999639
0.999675 1 1 0.999675
0.999858 1 1 0.999858
0.999809 1 1 0.999809
0.999737 1 1 0.999737
0.999733 1 1 0.999733
0.999738 1 1 0.999738
0.99977 1 1 0.99977
0.999711 1 1 0.999711
0.999784 1 1 0.999784
0.999807 1 1 0.999807
0.99977 1 1 0.99977
0.999778 1 1 0.999778
0.999963 1 1 0.999963
0.99985 1 1 0.99985
0.999649 1 1 0.999649
0.999638 1 1 0.999638
0.999695 1 1 0.999695
0.999813 1 1 0.999813
0.999771 1 1 0.999771
0.999689 1 1 0.999689
0.999752 1 1 0.999752
0.999712 1 1 0.999712
0.999796 1 1 0.999796
0.999971 1 1 0.999971
0.999784 1 1 0.999784
0.999756 1 1 0.999756
0.999738 1 1 0.999738
0.999785 1 1 0.999785
0.999869 1 1 0.999869
0.999643 1 1 0.999643
0.999633 1 1 0.999633
0.999726 1 1 0.999726
0.999795 1 1 0.999795
0.999785 1 1 0.999785
0.999745 1 1 0.999745
0.999711 1 1 0.999711
0.999654 1 1 0.999654
0.999978 1 1 0.999978
0.999891 1 1 0.999891
0.999802 1 1 0.999802
0.999717 1 1 0.999717
0.999757 1 1 0.999757
0.999719 1 1 0.999719
0.999977 1 1 0.999977
0.999868 1 1 0.999868
0.999715 1 1 0.999715
0.999798 1 1 0.999798
0.999808 1 1 0.999808
0.999767 1 1 0.999767
0.999743 1 1 0.999743
0.999739 1 1 0.999739
0.999741 1 1 0.999741
0.9997 1 1 0.9997
0.999874 1 1 0.999874
0.999792 1 1 0.999792
0.999767 1 1 0.999767
0.99976 1 1 0.99976
0.999751 1 1 0.999751
0.999773 1 1 0.999773
0.99971 1 1 0.99971
0.999739 1 1 0.999739
0.999704 1 1 0.999704
0.999642 1 1 0.999642
0.999791 1 1 0.999791
0.999736 1 1 0.999736
0.999725 1 1 0.999725
0.999726 1 1 0.999726
0.99978 1 1 0.99978
0.99977 1 1 0.99977
0.999646 1 1 0.999646
0.999866 1 1.00024 0.999622
0.999882 1 1 0.999882
0.999803 1 1 0.999803
0.999757 1 1 0.999757
0.999902 1 1 0.999902
0.999809 1 1 0.999809
0.999908 1 1 0.999908
0.999763 1 1 0.999763
0.999818 1 1 0.999818
0.999727 1 1 0.999727
0.999759 1 1 0.999759
0.999819 1 1 0.999819
0.99991 1 1 0.99991
0.999993 1 1 0.999993
0.999992 1 1 0.999992
1 1 1 1
0.999992 1 1 0.999992
1 1 1 1
1 1 1 1
1 1 1 1
1 1 1 1
1 1 1 1
1 1 1 1
1 1 1 1
1 1 1 1
1 1 1 1
1 1 1 1
1 1 1 1
0.999723 1 1 0.999723
0.999683 1 1 0.999683
0.999744 1 1 0.999744
0.999657 1 1 0.999657
0.999678 1 1 0.999678
0.999675 1 1 0.999675
0.999677 1 1 0.999677
0.999674 1 1 0.999674
0.999691 1 1 0.999691
0.999769 1 1 0.999769
0.999678 1 1 0.999678
0.999684 1 1 0.999684
0.999735 1 1 0.999735
0.999646 1 1 0.999646
0.999642 1 1 0.999642
0.999698 1 1 0.999698
0.999813 1 1 0.999813
0.999777 1 1 0.999777
0.999688 1 1 0.999688
0.999748 1 1 0.999748
0.999794 1 1 0.999794
0.999724 1 1 0.999724
0.999783 1 1 0.999783
0.99976 1 1 0.99976
0.999741 1 1 0.999741
0.999972 1 1 0.999972
0.999787 1 1 0.999787
0.999862 1 1 0.999862
0.999649 1 1 0.999649
0.999631 1 1 0.999631
0.99972 1 1 0.99972
0.999784 1 1 0.999784
0.999718 1 1 0.999718
0.999659 1 1 0.999659
0.9998 1 1 0.9998
0.999744 1 1 0.999744
0.999985 1 1 0.999985
0.999891 1 1 0.999891
0.999757 1 1 0.999757
0.999721 1 1 0.999721
0.999721 1 1 0.999721
0.999796 1 1 0.999796
0.999662 1 1 0.999662
0.999646 1 1 0.999646
0.999797 1 0.999999 0.999798
0.999809 1 1 0.999809
0.999745 1 1 0.999745
0.999839 1 1.00019 0.999648
0.999669 1 1 0.999669
0.999997 1 1 0.999997
0.999928 1 1 0.999928
0.999895 1 1 0.999895
0.999802 1 1 0.999802
0.99973 1 1 0.99973
0.999682 1 1 0.999682
0.999735 1 1 0.999735
0.999693 1 1 0.999693
0.999874 1 1 0.999874
0.999795 1 1 0.999795
0.999777 1 1 0.999777
0.999764 1 1 0.999764
0.999772 1 1 0.999772
0.999754 1 1 0.999754
0.999712 1 1 0.999712
0.999755 1 1 0.999755
0.9997 1 1 0.9997
0.999637 1 1 0.999637
0.99979 1 1 0.99979
0.999742 1 1 0.999742
0.99973 1 1 0.99973
0.99973 1 1 0.99973
0.999782 1 1 0.999782
0.999766 1 1 0.999766
0.999653 1 1 0.999653
0.999709 1 1.00009 0.99962
0.999747 1 1 0.999747
0.99974 1 1 0.99974
0.999707 1 1 0.999707
0.999683 1 1 0.999683
0.999797 1 1 0.999797
0.999631 1 1 0.999631
0.999957 1 1.00037 0.999583
0.999808 1 1 0.999808
0.999757 1 1 0.999757
0.99972 1 1 0.99972
0.999908 1 1 0.999908
0.999822 1 1 0.999822
0.999756 1 1 0.999756
0.99991 1 1 0.99991
0.999819 1 1 0.999819
0.999721 1 1 0.999721
0.999766 1 1 0.999766
0.999696 1 1 0.999696
0.999714 1 1 0.999714
0.99977 1 1 0.99977
0.999827 1 1 0.999827
0.99991 1 1 0.99991
0.999992 1 1 0.999992
0.999993 1 1 0.999993
1 1 1 1
0.999993 1 1 0.999993
1 1 1 1
1 1 1 1
1 1 1 1
1 1 1 1
1 1 1 1
0.999999 1 1 0.999999
1 1 1 1
1 1 1 1
1 1 1 1
1 1 1 1
1 1 1 1
1 1 1 1
0.999766 1 1 0.999766
0.999696 1 1 0.999696
0.999674 1 1 0.999674
0.999674 1 1 0.999674
0.999683 1 1 0.999683
0.999679 1 1 0.999679
0.999746 1 1 0.999746
0.99969 1 1 0.99969
0.999698 1 1 0.999698
0.999775 1 1 0.999775
0.999655 1 1 0.999655
0.999629 1 1 0.999629
0.999713 1 1 0.999713
0.999784 1 1 0.999784
0.999724 1 1 0.999724
0.999664 1 1 0.999664
0.999805 1 1 0.999805
0.999743 1 1 0.999743
0.999757 1 1 0.999757
0.999722 1 1 0.999722
0.999726 1 1 0.999726
0.999992 1 1 0.999992
0.999892 1 1 0.999892
0.999791 1 1 0.999791
0.99966 1 1 0.99966
0.999996 1 1 0.999996
0.999923 1 1 0.999923
0.999648 1 1 0.999648
0.999785 1 1 0.999785
0.999749 1 1 0.999749
0.999662 1 1 0.999662
0.999692 1 1.00004 0.999651
0.999806 1 1 0.999806
0.999909 1 1 0.999909
0.999802 1 1 0.999802
0.999737 1 1 0.999737
0.9997 1 1 0.9997
0.999675 1 1 0.999675
0.999732 1 1 0.999732
0.999646 1 1 0.999646
0.999718 1 1 0.999718
0.999584 1 0.999712 0.999872
0.999709 1 1 0.999709
0.999716 1 1 0.999716
1.00026 1 1.00065 0.999612
0.999927 1 1 0.999927
0.99992 1 1 0.99992
0.999859 1 1 0.999859
0.999805 1 1 0.999805
0.999745 1 1 0.999745
0.999673 1 1 0.999673
0.999641 1 1 0.999641
0.999699 1 1 0.999699
0.999789 1 1 0.999789
0.999747 1 1 0.999747
0.999783 1 1 0.999783
0.999762 1 1 0.999762
0.999733 1 1 0.999733
0.999735 1 1 0.999735
0.99966 1 1 0.99966
0.999618 1 1 0.999618
0.999747 1 1 0.999747
0.999757 1 1 0.999757
0.999706 1 1 0.999706
0.999679 1 1 0.999675
0.999794 1 1 0.999794
0.999632 1 1 0.999632
0.999942 1 1.00036 0.999581
0.999708 1 1 0.999708
0.999569 1.00021 0.99959 0.999773
0.99968 1 1 0.99968
0.999986 1 1.00038 0.99961
0.999631 1 1 0.999631
1.00044 1 1.00089 0.99955
0.987115 1.00426 0.983352 0.999571
0.999757 1 1 0.999757
0.99972 1 1 0.99972
0.999694 1 1 0.999694
0.99991 1 1 0.99991
0.999819 1 1 0.999819
0.999773 1 1 0.999773
0.999716 1 1 0.999716
0.99991 1 1 0.99991
0.999822 1 1 0.999822
0.999694 1 1 0.999694
0.99977 1 1 0.99977
0.99972 1 1 0.99972
0.999676 1 1 0.999676
0.999725 1 1 0.999725
0.999772 1 1 0.999772
0.999814 1 1 0.999814
0.999896 1 1 0.999896
0.999834 1 1 0.999834
0.999895 1 1 0.999895
0.999992 1 1 0.999992
0.999992 1 1 0.999992
1 1 1 1
0.999992 1 1 0.999992
1 1 1 1
1 1 1 1
1 1 1 1
1 1 1 1
1 1 1 1
1 1 1 1
0.999999 1 1 0.999999
1 1 1 1
1 1 1 1
1 1 1 1
1 1 1 1
1 1 1 1
1 1 1 1
0.999757 1 1 0.999757
0.999674 1 1 0.999674
0.999688 1 1 0.999688
0.999691 1 1 0.999691
0.999702 1 1 0.999702
0.999783 1 1 0.999783
0.999711 1 1 0.999711
0.995912 1.00077 0.99531 0.999838
0.999574 1 0.999705 0.999869
0.999945 1 1 0.999945
0.999657 1 1 0.999657
0.999651 1 1 0.999651
0.999772 1 1 0.999772
0.999752 1 1 0.999752
0.999655 1 1 0.999655
0.999654 1 1 0.999654
0.999804 1 1 0.999804
0.999739 1 1 0.999739
0.999707 1 1 0.999707
0.999667 1 1 0.999667
0.999995 1 1 0.999995
0.999733 1 1 0.999733
0.999922 1 1 0.999922
0.999801 1 1 0.999801
0.999918 1 1 0.999918
0.999639 1 1 0.999639
0.999933 1 1 0.999933
0.999919 1 1 0.999919
0.999848 1 1 0.999848
0.99972 1 1 0.99972
0.999494 1 0.99964 0.999854
0.999718 1 1 0.999718
1.00014 1 1.00053 0.999609
0.999712 1 1 0.999712
0.999813 1 1 0.999813
0.999742 1 1 0.999742
0.999698 1 1 0.999698
0.999682 1 1.00003 0.999648
0.999678 1 1 0.999678
0.999671 1 1.00004 0.999627
0.997364 1 0.997528 0.999835
0.999609 1 0.999839 0.99977
1.00008 1 1.00046 0.999622
1.00021 1 1.00054 0.999674
0.999849 1 1 0.999849
0.999823 1 1 0.999823
0.999791 1 1 0.999791
0.999743 1 1 0.999743
0.999696 1 1 0.999696
0.999637 1 1 0.999637
1.00123 1 1.0016 0.999628
0.999747 1 1 0.999747
0.999706 1 1 0.999706
0.999774 1 1 0.999774
0.99979 1 1 0.99979
0.999633 1 1 0.999633
0.999667 1 1 0.999667
0.999826 1 1.00025 0.999578
0.999711 1 1 0.999711
0.999667 1.0002 0.999684 0.999782
0.99968 1 1 0.99968
0.999831 1 1.00022 0.99961
0.999678 1.00003 1 0.999645
1.00105 1 1.00151 0.999547
0.991446 1.00686 0.985084 0.999604
0.999683 1 1 0.999683
1.00028 1.00068 1 0.9996
0.999651 1 1 0.999651
1.00235 1 1.00279 0.999564
1.00038 1 1.00085 0.999534
0.962348 0.96385 1.00004 0.998402
0.98896 1.00115 0.988207 0.999609
0.984965 1.00834 0.977259 0.999547
0.959888 0.967422 0.992469 0.999742
0.965977 0.989518 0.976308 0.9999
0.99972 1 1 0.99972
0.999694 1 1 0.999694
0.999667 1 1 0.999667
0.99991 1 1 0.99991
0.999818 1 1 0.999818
0.99977 1 1 0.99977
0.999727 1 1 0.999727
0.999693 1 1 0.999693
0.999764 1 1 0.999764
0.999902 1 1 0.999902
0.999819 1 1 0.999819
0.99968 1 1 0.99968
0.999723 1 1 0.999723
0.999729 1 1 0.999729
0.999679 1 1 0.999679
0.999749 1 1 0.999749
0.999812 1 1 0.999812
0.999895 1 1 0.999895
0.999828 1 1 0.999828
0.999769 1 1 0.999769
0.999815 1 1 0.999815
0.999824 1 1 0.999824
0.999904 1 1 0.999904
0.999895 1 1 0.999895
0.999991 1 1 0.999991
0.999992 1 1 0.999992
1 1 1 1
0.999992 1 1 0.999992
1 1 1 1
1 1 1 1
1 1 1 1
1 1 1 1
1 1 1 1
1 1 1 1
1 1 1 1
1 1 1 1
0.999998 1 1 0.999998
1 1 1 1
1 1 1 1
1 1 1 1
1 1 1 1
1 1 1 1
0.999706 1 1 0.999706
0.999691 1 1 0.999691
0.999792 1 1 0.999792
0.995319 1.00017 0.995317 0.999835
0.999709 1 1 0.999709
0.999701 1 0.999863 0.999838
0.999704 1 1.00004 0.999666
0.981236 0.984914 0.99692 0.999344
0.999629 1 0.999727 0.999903
0.999949 1 1 0.999949
0.999944 1 1 0.999944
0.999869 1 1 0.999869
0.99988 1 1 0.99988
0.999631 1 1 0.999631
0.999721 1 1 0.999721
0.999425 1 0.999589 0.999836
0.99972 1 1 0.99972
0.999883 1 1.00028 0.999607
0.999715 1 1 0.999715
0.999696 1 1 0.999696
0.999704 1 1.00005 0.999656
0.999683 1 1 0.999683
0.999919 1 1 0.999919
0.999739 1 1 0.999739
0.99982 1 1 0.99982
0.999939 1 1 0.999939
0.999838 1 1 0.999838
0.999672 1 1.00003 0.999637
0.99986 1 1 0.99986
0.99983 1 1 0.99983
0.999792 1 1 0.999792
0.998254 1 0.998419 0.999835
0.999422 1 0.99965 0.999772
1.00024 1 1.00056 0.999673
1.00005 1 1.00042 0.999625
0.999746 1 1 0.999746
0.999699 1 1 0.999699
1.00061 1 1.00098 0.999629
0.999659 1 1.00002 0.999635
0.999726 1 1.00003 0.999696
0.997816 1.00018 0.997819 0.999819
0.999671 1 1.00007 0.999606
1.00031 1 1.00069 0.999627
0.999772 1 1 0.999772
0.999757 1 1 0.999757
0.999666 1 1 0.999666
1.00164 1 1.00206 0.99958
0.960293 0.963727 0.998058 0.998375
0.999714 1 1 0.999714
0.999679 1 1 0.999679
0.999644 1.00006 0.999798 0.999791
0.999682 1.00002 1 0.999659
1.00174 1 1.0022 0.999545
0.999721 1 1.00011 0.999609
0.995899 1.00921 0.987167 0.999637
0.999685 1 1 0.999685
1.00067 1.00128 0.999785 0.999599
0.999652 1 1 0.999652
1.00194 1 1.00238 0.999566
1.00014 1 1.00059 0.999545
0.963935 0.96432 1.00105 0.998557
0.985369 0.998065 0.988039 0.999232
0.988034 1.01005 0.978645 0.999552
0.96352 0.969788 0.993988 0.999545
0.965103 0.986746 0.978159 0.999905
0.999673 1 1 0.999673
0.968345 0.971295 0.997633 0.999328
0.98187 0.992493 0.989366 0.99993
0.998478 1.00002 0.99891 0.999546
1.0013 1 1.00166 0.999635
1.00755 1 1.008 0.999559
1.00119 1.01017 0.991623 0.999482
0.975746 0.972289 1.00527 0.998299
0.987218 1.00631 0.981807 0.999205
0.957356 0.970611 0.98664 0.9997
0.99097 1.00582 0.985297 0.999934
0.999694 1 1 0.999694
0.999667 1 1 0.999667
0.999642 1 1 0.999642
0.999908 1 1 0.999908
0.999825 1 1 0.999825
0.999756 1 1 0.999756
0.99972 1 1 0.99972
0.999684 1 1 0.999684
0.999895 1 1 0.999895
0.999727 1 1 0.999727
0.999758 1 1 0.999758
0.999818 1 1 0.999818
0.999673 1 1 0.999673
0.999703 1 1 0.999703
0.999838 1 1.0002 0.999641
0.999752 1 1 0.999752
0.999825 1 1 0.999825
0.999828 1 1 0.999828
0.999761 1 1 0.999761
0.999762 1 1 0.999762
0.999752 1 1 0.999752
0.999721 1 1 0.999721
0.999733 1 1 0.999733
0.999803 1 1 0.999803
0.999815 1 1 0.999815
0.999898 1 1 0.999898
0.999813 1 1 0.999813
0.999898 1 1 0.999898
0.99999 1 1 0.99999
0.999895 1 1 0.999895
0.999991 1 1 0.999991
1 1 1 1
0.999991 1 1 0.999991
1 1 1 1
1 1 1 1
1 1 1 1
1 1 1 1
1 1 1 1
0.999947 1 1 0.999947
1 1 1 1
1 1 1 1
1 1 1 1
1 1 1 1
1 1 1 1
1 1 1 1
1 1 1 1
1 1 1 1
1 1 1 1
0.99488 1.00004 0.995005 0.999832
0.999707 1 1 0.999707
0.999807 1 1 0.999807
0.982099 0.984465 0.998027 0.999569
0.999784 1 0.999883 0.999901
0.999684 1 1.00003 0.999651
1.00126 1 1.00159 0.999666
0.987557 0.986526 1.00163 0.999419
0.965261 0.967083 1.00011 0.998002
0.957954 0.966843 0.991501 0.999299
0.969194 0.985394 0.983644 0.999914
0.999867 1 1 0.999867
0.999948 1 1 0.999948
0.999944 1 1 0.999944
0.999866 1 1 0.999866
0.999817 1 1 0.999817
0.999831 1 1 0.999831
0.999872 1 1 0.999872
0.999875 1 1 0.999875
0.999673 1 1.00003 0.999647
0.999074 1 0.999239 0.999835
0.999215 1 0.999443 0.999773
1.00028 1 1.00061 0.999672
1.00004 1 1.00041 0.999629
1.00008 1 1.00045 0.99963
0.999701 1 1.00007 0.999633
0.999702 1 1 0.999702
0.999837 1 1 0.999837
0.999748 1 1 0.999748
0.99987 1 1 0.99987
0.999793 1 1 0.999793
0.999164 1 0.999476 0.999688
0.999775 1 1 0.999775
0.99976 1 1 0.99976
0.997283 1.00005 0.997416 0.999817
0.999624 1 1.00001 0.999617
1.00079 1 1.00117 0.999614
0.999666 1 1 0.999666
1.00167 1 1.00208 0.999583
0.990621 1.00475 0.986234 0.999702
1.00181 1.0001 1.00208 0.999637
0.999582 1 1.00001 0.999571
1.00465 1 1.0051 0.999556
0.999727 1 1 0.999727
0.999692 1 1 0.999692
1.00014 1 1.00054 0.999599
0.967285 0.973567 0.993909 0.999637
0.963953 0.96558 0.99988 0.998436
0.999688 1 1 0.999688
0.999654 1 1 0.999654
1.00146 1.00218 0.999683 0.999599
0.999819 1 1.00026 0.999555
1.00143 1 1.00186 0.999569
0.962895 0.965001 0.999863 0.997955
0.988647 0.998108 0.990823 0.999695
0.99138 1.01227 0.979796 0.999556
0.959393 0.968874 0.990881 0.999327
0.964243 0.984057 0.979953 0.99991
0.999672 1 1 0.999672
0.966462 0.972605 0.994006 0.999675
0.982522 0.991493 0.991012 0.999939
0.998607 1.00014 0.998919 0.999543
1.00045 1 1.00081 0.999637
1.00685 1 1.00729 0.99957
0.998693 1.0076 0.991689 0.999464
0.974774 0.973286 1.00344 0.998095
0.981906 1.00201 0.980299 0.999631
0.957227 0.970482 0.987038 0.999295
0.986363 1.00518 0.981346 0.999932
0.99965 1 1 0.99965
0.996514 0.998038 0.998512 0.999962
1.00831 1.01013 0.998236 0.99996
1.00945 1 1.00991 0.999551
1.00555 1 1.00587 0.999684
1.00435 1.00361 1.00103 0.99971
0.990247 1.00074 0.989656 0.99986
0.978937 0.976398 1.0044 0.998207
0.969363 0.985383 0.984457 0.999275
1.00218 1.01245 0.989911 0.999945
0.999668 1 1 0.999668
0.99964 1 1 0.99964
1.00005 1 1.00042 0.999626
0.999895 1 1 0.999895
0.999824 1 1 0.999824
0.999766 1 1 0.999766
0.999725 1 1 0.999725
0.999666 1 1 0.999666
0.999825 1 1 0.999825
0.999707 1 1 0.999707
0.999752 1 1 0.999752
0.999881 1 1.00024 0.999636
1.00016 1 1.00055 0.999609
0.999767 1 1.00009 0.999681
0.999756 1 1 0.999756
0.999827 1 1 0.999827
0.999753 1 1 0.999753
0.999761 1 1 0.999761
0.999752 1 1 0.999752
0.99972 1 1 0.99972
0.999738 1 1 0.999738
0.999713 1 1 0.999713
0.999697 1 1 0.999697
0.999709 1 1 0.999709
0.999744 1 1 0.999744
0.999742 1 1 0.999742
0.999733 1 1 0.999733
0.999794 1 1 0.999794
0.999803 1 1 0.999803
0.999888 1 1 0.999888
0.999815 1 1 0.999815
0.999898 1 1 0.999898
0.999988 1 1 0.999988
0.999892 1 1 0.999892
0.999989 1 1 0.999989
1 1 1 1
0.99999 1 1 0.99999
1 1 1 1
1 1 1 1
1 1 1 1
1 1 1 1
1 1 1 1
0.999952 1 1 0.999952
1 1 1 1
0.999947 1 1 0.999947
1 1 1 1
1 1 1 1
1 1 1 1
1 1 1 1
1 1 1 1
1 1 1 1
1 1 1 1
1 1 1 1
0.964288 0.970388 0.993997 0.999715
0.986114 0.99351 0.992599 0.999957
0.984207 0.985146 0.999286 0.999761
0.999882 1 0.999984 0.999898
0.999664 1 1.00003 0.999635
0.986812 0.985026 1.00196 0.999859
1.00047 1 1.0008 0.999676
0.969088 0.96931 1.00136 0.998417
0.961161 0.967902 0.993298 0.999737
0.967721 0.984833 0.982703 0.99992
0.999952 0.995507 1.00465 0.999815
0.973846 0.972806 1.00269 0.998383
0.957651 0.969084 0.988483 0.999717
0.984672 1.00417 0.980658 0.999926
0.999799 1 1 0.999799
0.999872 1 1 0.999872
0.999948 1 1 0.999948
0.999863 1 1 0.999863
0.999822 1 1 0.999822
0.999812 1 1 0.999812
0.999834 1 1 0.999834
0.999847 1 1 0.999847
0.999865 1 1 0.999865
0.999871 1 1 0.999871
0.998706 1 0.999025 0.99968
0.996992 1 0.997176 0.999816
0.999627 1 1 0.999627
1.0012 1 1.0016 0.999602
1.00156 1 1.00198 0.999586
0.999665 1 1 0.999665
0.999762 1 1 0.999762
0.999778 1 1 0.999778
0.992742 1.00337 0.989724 0.999682
0.999724 1 1 0.999724
0.999686 1 1 0.999686
1.00024 1.00009 1.00051 0.999638
1.00001 1 1.00044 0.999569
1.00371 1 1.00416 0.999548
1.00071 1 1.00112 0.999592
0.984979 1.01222 0.973502 0.999571
1.00821 1 1.00865 0.999557
1.00429 1 1.00476 0.999537
0.999722 1 1 0.999722
0.999678 1 1 0.999678
0.999626 1 1 0.999626
0.995329 0.998014 0.997386 0.999924
0.96786 0.972881 0.995542 0.999294
0.961994 0.965399 0.998115 0.998355
0.999672 1 1 0.999672
0.999639 1 1 0.999639
0.998853 1.00012 0.999195 0.999541
1.00632 1 1.00674 0.999581
0.963327 0.971245 0.992553 0.99929
0.971984 0.972096 1.00115 0.998739
0.982772 1.00315 0.980417 0.999255
0.997091 1.00518 0.992497 0.999452
0.957831 0.969511 0.988215 0.999734
0.984258 0.993045 0.991225 0.999926
0.984546 1.00302 0.98166 0.999924
0.999648 1 1 0.999648
0.993949 0.996955 0.997039 0.999946
1.00939 1.01134 0.998114 0.999959
1.00954 1 1.00999 0.999553
1.00579 1 1.00611 0.999684
1.00738 1.00315 1.0048 0.999415
0.987248 1.00079 0.987149 0.999306
0.978275 0.977563 1.00255 0.998188
0.974314 0.985912 0.988471 0.999763
0.998739 1.01093 0.988005 0.999934
0.9997 1 1 0.9997
1.00801 1.00824 0.999791 0.999978
1.00594 1.00756 0.99841 0.999983
1.00707 1 1.00726 0.999809
0.997677 0.99506 1.00269 0.999938
0.987695 0.9844 1.00501 0.998341
0.985544 0.999635 0.986165 0.999735
0.999451 1.01327 0.986438 0.999923
0.999638 1 1 0.999638
0.999988 1 1.00036 0.999633
1.00094 1 1.0013 0.999636
0.999825 1 1 0.999825
0.999752 1 1 0.999752
0.999712 1 1 0.999712
0.999912 1 1.00028 0.999631
0.999756 1 1 0.999756
0.999713 1 1.00003 0.999682
1.00054 1 1.00093 0.999607
1.00048 1 1.00086 0.999622
0.999831 1 1.00021 0.999619
0.999702 1 1 0.999702
0.999761 1 1 0.999761
0.999752 1 1 0.999752
0.999719 1 1 0.999719
0.999714 1 1 0.999714
0.999739 1 1 0.999739
0.999699 1 1 0.999699
0.99969 1 1 0.99969
0.999677 1 1 0.999677
0.999689 1 1 0.999689
0.999709 1 1 0.999709
0.999719 1 1 0.999719
0.999729 1 1 0.999729
0.999781 1 1 0.999781
0.999758 1 1 0.999758
0.999746 1 1 0.999746
0.999788 1 1 0.999788
0.999734 1 1 0.999734
0.999794 1 1 0.999794
0.999878 1 1 0.999878
0.999803 1 1 0.999803
0.999888 1 1 0.999888
0.999985 1 1 0.999985
0.999897 1 1 0.999897
0.999987 1 1 0.999987
1 1 1 1
0.999989 1 1 0.999989
1 1 1 1
1 1 1 1
1 1 1 1
1 1 1 1
1 1 1 1
0.999928 1 1 0.999928
1 1 1 1
0.999941 1 1 0.999941
1 1 1 1
1 1 1 1
0.999947 1 1 0.999947
1 1 1 1
1 1 1 1
1 1 1 1
1 1 1 1
1 1 1 1
1 1 1 1
0.995971 0.997686 0.998315 0.999966
0.965272 0.970954 0.994638 0.999508
1.007 1.00994 0.997119 0.999968
0.983379 0.990531 0.992828 0.999952
0.983628 0.983685 1.00054 0.999404
0.999729 1 1.00004 0.999687
0.969741 0.969125 1.00178 0.998854
0.959797 0.968227 0.991971 0.999317
0.966936 0.984783 0.98195 0.999926
0.997063 0.997038 1.00037 0.99966
0.973314 0.970836 1.00425 0.99831
0.959897 0.971693 0.988553 0.9993
0.982605 1.00354 0.979203 0.99993
0.996408 1.00423 0.992388 0.999817
0.975337 0.972478 1.00473 0.998215
0.972142 0.987448 0.984745 0.99975
0.996616 1.01425 0.982668 0.999947
0.999762 1 1 0.999762
0.999806 1 1 0.999806
0.999877 1 1 0.999877
0.999827 1 1 0.999827
0.999778 1 1 0.999778
0.999817 1 1 0.999817
0.999836 1 1 0.999836
0.999839 1 1 0.999839
0.999853 1 1 0.999853
0.999859 1 1 0.999859
0.995073 1.00224 0.993186 0.999662
0.998548 1 0.998908 0.99964
1.0003 1 1.00074 0.999566
1.00303 1 1.00349 0.999539
1.00135 1 1.00176 0.999585
0.999679 1 1 0.999679
0.999721 1 1 0.999721
0.999724 1 1 0.999724
0.9871 1.00965 0.978088 0.999569
0.999682 1 1 0.999682
0.999713 1 1.00009 0.999622
1.00755 1 1.008 0.999553
1.00415 1 1.00462 0.999537
0.987505 1.01062 0.977574 0.999546
1.01751 1 1.01794 0.999582
1.00036 1 1.00078 0.999576
0.999688 1 1 0.999688
0.999632 1 1 0.999632
1.00656 1.00681 0.999768 0.999985
0.995937 0.997919 0.998067 0.999947
0.968208 0.973681 0.994692 0.999686
0.999647 1 1 0.999647
1.0059 1 1.00622 0.999684
1.00933 1 1.00978 0.999555
0.996619 0.998103 0.998551 0.999962
0.978048 0.97582 1.00414 0.998147
0.984114 0.99972 0.984556 0.999831
1.00847 1.002 1.00736 0.999106
0.96777 0.983117 0.985092 0.999288
1.01074 1.01282 0.997988 0.999958
1.00086 1.01119 0.989854 0.99993
0.999707 1 1 0.999707
1.00889 1.00899 0.999921 0.999977
1.00681 1.00855 0.998287 0.999983
1.00732 0.999985 1.00762 0.999723
0.996798 0.996448 1.00059 0.999762
0.989819 0.986539 1.00511 0.998228
1.00281 1.01385 0.989171 0.999937
0.984586 0.99636 0.988626 0.999552
0.999757 1 1 0.999757
1.001 1.0011 0.9999 0.999998
1.00372 1.0053 0.998432 0.999992
0.999899 1.01336 0.986771 0.999944
1.0046 0.996715 1.008 0.999913
0.983206 0.982664 1.00207 0.998479
0.982764 0.997691 0.985398 0.999635
0.999907 1 1.00027 0.999639
1.00072 1 1.00109 0.999624
1.00322 1 1.00355 0.99967
0.999756 1 1 0.999756
0.999683 1 1 0.999683
1.00098 1 1.00138 0.999605
0.999704 1 1 0.999704
0.999943 1 1.00033 0.999618
1.00087 1 1.00126 0.999611
0.999987 1 1.00035 0.999632
0.999647 1 1 0.999647
0.999716 1 1 0.999716
0.999739 1 1 0.999739
0.999702 1 1 0.999702
0.999678 1 1 0.999678
0.999689 1 1 0.999689
0.999669 1 1 0.999669
0.999705 1 1 0.999705
0.99984 1 1.00019 0.999649
0.999709 1 1 0.999709
0.999719 1 1 0.999719
0.999679 1 1 0.999679
0.999742 1 1 0.999742
0.999786 1 1 0.999786
0.99973 1 1 0.99973
0.999807 1 1 0.999807
0.999778 1 1 0.999778
0.999772 1 1 0.999772
0.999751 1 1 0.999751
0.999792 1 1 0.999792
0.999871 1 1 0.999871
0.999795 1 1 0.999795
0.999878 1 1 0.999878
0.999982 1 1 0.999982
0.999888 1 1 0.999888
0.999985 1 1 0.999985
1 1 1 1
0.999987 1 1 0.999987
1 1 1 1
1 1 1 1
1 1 1 1
1 1 1 1
1 1 1 1
0.9999 1 1 0.9999
0.999985 1 1 0.999985
0.999928 1 1 0.999928
1 1 1 1
0.999994 1 1 0.999994
0.999931 1 1 0.999931
1 1 1 1
1 1 1 1
1 1 1 1
1 1 1 1
1 1 1 1
1 1 1 1
1.00707 1.00724 0.999846 0.999982
0.992962 0.9965 0.99652 0.99993
0.967546 0.971233 0.996872 0.99933
0.999813 1 1 0.999813
1.00646 1.00722 0.999251 0.999986
1.00838 1.01055 0.997885 0.999968
0.98122 0.989815 0.991391 0.999924
0.994362 0.998177 0.99669 0.999487
0.976101 0.971501 1.00641 0.99834
0.963082 0.973273 0.98979 0.999737
0.982792 1.00216 0.980748 0.999922
0.994974 1.00777 0.987928 0.999363
0.976754 0.973901 1.00467 0.998265
0.969954 0.986797 0.983392 0.999531
0.997041 1.01469 0.982669 0.999935
0.978089 1.00028 0.978478 0.999324
0.98116 0.97879 1.00459 0.997836
0.98077 0.994945 0.986443 0.999301
0.995799 1.01435 0.981798 0.999913
0.999722 1 1 0.999722
0.999758 1 1 0.999758
0.999813 1 1 0.999813
0.999766 1 1 0.999766
0.999785 1 1 0.999785
0.999821 1 1 0.999821
0.999842 1 1 0.999842
0.999859 1 1 0.999859
0.989092 1.00689 0.982747 0.999567
1.00681 1 1.00727 0.999548
0.999725 1 1 0.999725
1.00391 1 1.00438 0.999537
0.999786 1 1.00017 0.999619
0.999686 1 1 0.999686
0.999688 1 1 0.999688
0.988602 1.00979 0.97947 0.999543
0.999632 1 1 0.999632
1.00118 1 1.0016 0.999573
1.01764 1 1.01807 0.999579
0.999682 1 1 0.999682
1.00373 1.00289 1.00118 0.999666
1.01325 1 1.01363 0.999626
0.999615 1 1 0.999615
0.999644 1 1 0.999644
1.00047 1.00042 1.00005 0.999999
1.0062 1.00641 0.999809 0.999985
0.996325 0.997797 0.998555 0.99997
0.999714 1 1 0.999714
1.00773 0.999979 1.00811 0.999638
1.00973 1.00976 0.999995 0.999977
0.986351 0.980902 1.00733 0.998243
1.00086 1.00036 1.00115 0.999344
0.979388 0.993649 0.986269 0.999371
1.00727 1.00908 0.998228 0.999984
1.00613 1.01395 0.992331 0.999951
0.999749 1 1 0.999749
1.00061 1.00063 0.999979 0.999999
1.00242 1.00356 0.998863 0.999995
1.00251 0.996132 1.00646 0.999941
1.00003 1.01378 0.986506 0.999933
0.982878 0.985894 0.998319 0.998619
0.979483 0.994629 0.985482 0.999279
1.00444 0.998779 1.00587 0.9998
0.998753 0.998313 1.00044 1
1.00723 1.00735 0.999889 0.999985
0.986475 1.00376 0.982858 0.999923
0.981696 0.992618 0.989678 0.999312
0.995383 0.99287 1.00239 1.00014
0.976989 0.980893 0.997519 0.998497
1.0005 1 1.00089 0.999612
1.00234 1 1.00268 0.999662
1.01225 1 1.01262 0.999632
0.999706 1 1 0.999706
0.999983 1 1.00037 0.999617
1.00114 1 1.00154 0.9996
0.999648 1 1 0.999648
1.00006 1 1.00043 0.99963
1.00301 1 1.00337 0.999635
0.999678 1 1 0.999678
0.999689 1 1 0.999689
0.999844 1 1.00018 0.999665
1.00143 1 1.00181 0.999621
0.999721 1 1 0.999721
0.99977 1 1.00011 0.999657
0.999864 1 1.00025 0.999617
0.999677 1 1 0.999677
0.999719 1 1 0.999719
0.999674 1 1 0.999674
0.999767 1 1 0.999767
0.999786 1 1 0.999786
0.999748 1 1 0.999748
0.99982 1 1 0.99982
0.999785 1 1 0.999785
0.99973 1 1 0.99973
0.999872 1 1 0.999872
0.999805 1 1 0.999805
0.999775 1 1 0.999775
0.999796 1 1 0.999796
0.999872 1 1 0.999872
0.999977 1 1 0.999977
0.999878 1 1 0.999878
0.999981 1 1 0.999981
1 1 1 1
0.999984 1 1 0.999984
1 1 1 1
1 1 1 1
1 1 1 1
1 1 1 1
1 1 1 1
0.999886 1 1 0.999886
0.999978 1 1 0.999978
0.999906 1 1 0.999906
1 1 1 1
0.999985 1 1 0.999985
0.999927 1 1 0.999927
1 1 1 1
1 1 1 1
0.999989 1 1 0.999989
1 1 1 1
1 1 1 1
1 1 1 1
1.00175 1.00164 1.0001 0.999997
1.00691 1.00715 0.999777 0.999982
0.994503 0.997252 0.997316 0.999927
0.999816 1 1 0.999816
0.999798 1 1 0.999798
0.999766 1 1 0.999766
1.00237 1.00499 0.997404 0.999994
1.00656 1.00759 0.998992 0.999987
1.00989 1.01118 0.99876 0.999967
0.99824 1.01157 0.987022 0.999801
0.9761 0.972645 1.00532 0.99824
0.968626 0.985511 0.983552 0.999304
0.999936 1.01551 0.984725 0.99994
0.976151 0.998171 0.978172 0.999762
0.984656 0.980524 1.0059 0.998319
0.984142 1.0002 0.984256 0.999681
0.998881 1.0146 0.984572 0.999932
0.975044 0.993815 0.981235 0.999875
0.981615 0.981999 1.00121 0.998399
0.984128 1.00035 0.984212 0.999565
0.995791 1.01167 0.984352 0.999949
0.99971 1 1 0.99971
0.999723 1 1 0.999723
0.999753 1 1 0.999753
0.999765 1 1 0.999765
0.999792 1 1 0.999792
0.999844 1 1 0.999844
0.989553 1.00883 0.981345 0.999541
1.01751 1 1.01794 0.999575
0.999689 1 1 0.999689
1.00188 1 1.00231 0.999571
0.999632 1 1 0.999632
0.999681 1 1 0.999681
0.99964 1 1 0.99964
1.00061 1.0039 0.997063 0.999658
0.99962 1 1 0.99962
1.01375 1 1.01412 0.999638
0.999643 1 1 0.999643
1.02086 0.999635 1.02147 0.999768
1.00014 1 1.00044 0.999702
0.99961 1 1 0.99961
0.998828 0.998734 1.00009 1
1.00003 0.999994 1.00004 1
1.00587 1.006 0.999882 0.999986
0.999742 1 1 0.999742
1.00133 0.995452 1.00592 0.999986
1.00019 1.00015 1.00005 0.999999
0.987695 0.989214 0.999267 0.999197
0.985659 1.00104 0.98496 0.99967
1.00127 1.00198 0.999291 0.999997
1.00269 1.0147 0.988221 0.999938
1.00377 0.99937 1.00459 0.999809
0.998784 0.998421 1.00036 1
1.0074 1.00774 0.99967 0.999985
0.996218 0.992812 1.00367 0.999761
0.984933 1.00338 0.981683 0.999926
0.984302 0.997871 0.986703 0.999695
0.977408 0.980815 0.998011 0.998512
1.01485 1 1.01497 0.999886
1.00164 1.00157 1.00007 0.999997
1.00805 1.0103 0.997814 0.999965
0.969384 0.985618 0.983619 0.999908
0.974102 0.985859 0.988325 0.999746
0.990632 0.985948 1.00633 0.998428
0.978413 0.991468 0.987204 0.999625
1.00132 1 1.00167 0.999654
1.0134 1 1.01377 0.999635
1.01935 1 1.01972 0.999636
0.999649 1 1 0.999649
1.00018 1 1.00055 0.999627
1.00244 1 1.00281 0.999635
1.01024 1 1.01067 0.999577
0.999981 1 1.00032 0.999662
1.00172 1 1.00211 0.999612
1.00371 1 1.00416 0.999556
0.999665 1 1 0.999665
1.00017 1 1.00056 0.999614
0.999905 1 1.00031 0.999598
0.999654 1 1 0.999654
0.999737 1 1 0.999737
0.999671 1 1 0.999671
0.999669 1 1 0.999669
0.999796 1 1 0.999796
0.999773 1 1 0.999773
0.999818 1 1 0.999818
0.999791 1 1 0.999791
0.999754 1 1 0.999754
0.999878 1 1 0.999878
0.99982 1 1 0.99982
0.999784 1 1 0.999784
0.999973 1 1 0.999973
0.999873 1 1 0.999873
0.999803 1 1 0.999803
0.999872 1 1 0.999872
0.999977 1 1 0.999977
1 1 1 1
0.99998 1 1 0.99998
1 1 1 1
1 1 1 1
1 1 1 1
1 1 1 1
1 1 1 1
0.999885 1 1 0.999885
0.999987 1 1 0.999987
0.999891 1 1 0.999891
1 1 1 1
0.999985 1 1 0.999985
0.999912 1 1 0.999912
1 1 1 1
1 1 1 1
0.999985 1 1 0.999985
1 1 1 1
1 1 1 1
1 1 1 1
0.998898 0.998342 1.00055 1
1.00147 1.00134 1.00013 0.999998
1.00663 1.00703 0.99962 0.999982
0.999796 1 1 0.999796
0.99977 1 1 0.99977
0.999819 1 1 0.999819
0.999797 1 1 0.999797
0.999759 1 1 0.999759
0.999754 1 1 0.999754
0.999726 1 1 0.999726
1.00491 1.0068 0.998139 0.999985
1.00156 1.00352 0.998046 0.999996
1.00661 1.00795 0.998687 0.999987
1.00197 1.01476 0.987443 0.999951
0.980659 1.00341 0.978012 0.999301
0.985909 0.980345 1.00693 0.998757
0.978976 0.997358 0.982306 0.999249
0.979609 0.993478 0.986433 0.999601
0.986935 0.986167 1.00241 0.998372
0.981887 0.998102 0.984515 0.999228
0.994057 1.01135 0.98297 0.999926
0.987997 0.990084 0.997964 0.999928
0.979915 0.986049 0.995428 0.998344
0.986402 1.00353 0.983252 0.999676
0.988819 1.00471 0.984243 0.999938
0.999691 1 1 0.999691
0.999709 1 1 0.999709
0.999723 1 1 0.999723
0.999765 1 1 0.999765
0.996687 1.00489 0.992182 0.999649
1.01462 1 1.01497 0.999651
0.99968 1 1 0.99968
0.999636 1 1 0.999636
0.999625 1 1 0.999625
0.999648 1 1 0.999648
0.999607 1 1 0.999607
1.01172 0.997733 1.01424 0.999782
1.00016 1 1.00044 0.999722
0.999606 1 1 0.999606
1.02442 0.994265 1.03044 0.999897
1.00353 1 1.00395 0.999578
1.00038 1.00036 1.00002 0.999999
0.999035 0.99899 1.00004 1
0.999589 0.999559 1.00003 1
1.0034 1 1.00358 0.999819
0.996441 0.992144 1.00423 1.0001
0.998821 0.99854 1.00028 1
0.977854 0.980943 0.998389 0.99846
0.97891 0.99526 0.984294 0.999266
1.00747 1.00812 0.999372 0.999986
0.98576 1.00193 0.983937 0.99992
1.01612 0.999637 1.01662 0.999871
1.00135 1.00126 1.00009 0.999998
1.00939 1.01089 0.998549 0.999965
0.982769 0.994023 0.988591 1.00009
0.968082 0.984778 0.983129 0.999915
0.970707 0.984373 0.986588 0.999523
0.992482 0.984997 1.00904 0.998569
1.00404 1 1.00418 0.999861
1.0074 1.00736 1.00006 0.99998
0.987348 0.993882 0.993472 0.999953
0.957455 0.968264 0.98913 0.999704
0.983676 0.978555 1.00698 0.998268
0.975896 0.997208 0.979176 0.999442
1.01476 1 1.01513 0.999639
1.01988 1 1.02025 0.999634
1.0201 1 1.02053 0.999582
1.00193 1 1.0023 0.999635
1.01069 1 1.01111 0.999586
1.00781 1 1.0083 0.999513
1.00221 1 1.0026 0.999603
1.00387 1 1.00432 0.999546
1.00224 1 1.00271 0.999535
1.00057 1 1.00096 0.999612
1.00003 1 1.00044 0.99959
0.999923 1 1.00032 0.999608
0.999664 1 1 0.999664
0.999704 1 1 0.999704
0.999649 1 1 0.999649
0.999779 1 1 0.999779
0.999742 1 1 0.999742
0.999664 1 1 0.999664
0.999815 1 1 0.999815
0.999793 1 1 0.999793
0.999779 1 1 0.999779
0.999876 1 1 0.999876
0.99982 1 1 0.99982
0.999796 1 1 0.999796
0.999972 1 1 0.999972
0.999878 1 1 0.999878
0.99982 1 1 0.99982
1 1 1 1
0.999974 1 1 0.999974
0.999874 1 1 0.999874
0.999977 1 1 0.999977
1 1 1 1
1 1 1 1
1 1 1 1
1 1 1 1
1 1 1 1
0.9998 1 1 0.9998
0.999875 1 1 0.999875
0.999982 1 1 0.999982
0.999885 1 1 0.999885
1 1 1 1
0.999988 1 1 0.999988
0.999896 1 1 0.999896
1 1 1 1
1 1 1 1
0.999993 1 1 0.999993
1 1 1 1
1 1 1 1
1 1 1 1
1.00092 1.00092 0.999997 0.999998
0.998925 0.998442 1.00048 1
1.0012 1.00104 1.00017 0.999998
0.999799 1 1 0.999799
0.999766 1 1 0.999766
0.999767 1 1 0.999767
0.999758 1 1 0.999758
0.999749 1 1 0.999749
0.999797 1 1 0.999797
0.999752 1 1 0.999752
0.999755 1 1 0.999755
0.999726 1 1 0.999726
0.999725 1 1 0.999725
1.00774 1.00845 0.999334 0.999962
1.00555 1.00763 0.997952 0.999985
1.00056 1.00191 0.99865 0.999998
0.994903 1.01103 0.984123 0.999922
0.987306 1.00346 0.984279 0.999619
0.984354 0.99336 0.991553 0.999375
0.980757 0.983656 0.998602 0.998449
0.992222 0.989397 1.00338 0.999477
0.979334 0.983165 0.997704 0.998396
0.984089 0.999733 0.984858 0.999487
0.986739 1.004 0.982874 0.999937
1.01246 0.986859 1.02644 0.999518
0.9845 0.984996 1.00105 0.998444
0.968005 0.985324 0.983114 0.999298
0.96964 0.988696 0.980806 0.999919
0.999721 1 1 0.999721
0.999694 1 1 0.999694
0.999707 1 1 0.999707
1.00367 0.996068 1.00784 0.999796
1.00015 1 1.00041 0.999742
0.999653 1 1 0.999653
0.999603 1 1 0.999603
0.999643 1 1.00003 0.999609
1.00401 1 1.00444 0.999572
1.02443 0.995829 1.02882 0.999897
1.00395 1 1.00435 0.999593
1.01278 0.999006 1.01406 0.999737
1.00638 1.0064 1 0.999983
0.999963 0.999947 1.00002 1
0.999256 0.999245 1.00001 1
1.01712 0.999246 1.01803 0.999857
0.985401 0.993031 0.992689 0.999625
1.00108 1.00095 1.00014 0.999998
0.98364 0.982422 1.00325 0.997992
0.970358 0.984081 0.986755 0.999291
1.0108 1.01151 0.999335 0.999964
0.967856 0.984717 0.982954 0.999922
1.00496 1 1.00509 0.999868
1.00731 1.00728 1.00005 0.99998
0.984469 0.990972 0.993488 0.999949
0.972016 0.994344 0.977842 0.999696
0.960153 0.971259 0.989267 0.999292
0.986722 0.980456 1.00842 0.997987
0.985014 1.00028 0.984974 0.999759
0.996793 0.998075 0.998753 0.999962
0.958659 0.967435 0.991629 0.999293
0.976532 0.973808 1.00462 0.998187
0.973913 1.00018 0.974013 0.999713
1.01994 1 1.02031 0.999633
1.02147 1 1.0219 0.999582
1.01173 1 1.01222 0.999523
1.01093 1 1.01134 0.999594
1.00736 1 1.00785 0.999517
1.00181 1 1.00228 0.999529
1.00378 1 1.00424 0.999537
1.00161 1 1.00208 0.999538
0.999629 1 1 0.999629
1.00001 1 1.00043 0.999582
0.999727 1 1.00012 0.999612
0.999686 1 1 0.999686
0.999712 1 1 0.999712
0.999689 1 1 0.999689
0.999667 1 1 0.999667
0.99975 1 1 0.99975
0.999696 1 1 0.999696
0.999644 1 1 0.999644
0.999817 1 1 0.999817
0.999784 1 1 0.999784
0.999747 1 1 0.999747
0.999868 1 1 0.999868
0.999815 1 1 0.999815
0.999791 1 1 0.999791
0.999969 1 1 0.999969
0.999876 1 1 0.999876
0.999823 1 1 0.999823
1 1 1 1
0.999972 1 1 0.999972
0.999879 1 1 0.999879
1 1 1 1
1 1 1 1
0.999974 1 1 0.999974
1 1 1 1
1 1 1 1
1 1 1 1
0.999795 1 1 0.999795
0.999866 1 1 0.999866
0.999798 1 1 0.999798
0.999977 1 1 0.999977
0.999874 1 1 0.999874
1 1 1 1
0.999983 1 1 0.999983
0.999885 1 1 0.999885
1 1 1 1
1 1 1 1
0.999989 1 1 0.999989
1 1 1 1
1 1 1 1
1 1 1 1
1.00649 1.00651 1 0.999978
1.00056 1.00052 1.00004 0.999999
0.998957 0.998549 1.00041 1
0.999777 1 1 0.999777
0.999801 1 1 0.999801
0.999763 1 1 0.999763
0.999762 1 1 0.999762
0.999771 1 1 0.999771
0.99975 1 1 0.99975
0.999746 1 1 0.999746
0.999736 1 1 0.999736
0.999755 1 1 0.999755
0.999727 1 1 0.999727
0.999725 1 1 0.999725
0.999719 1 1 0.999719
0.98364 0.991774 0.991866 0.999933
1.00859 1.0094 0.999236 0.999961
1.0064 1.00865 0.997784 0.999986
0.987459 1.00307 0.984513 0.999924
0.980245 0.997381 0.983517 0.999291
0.978839 0.985146 0.995241 0.998348
0.994311 0.986118 1.00834 0.999966
1.01374 0.986828 1.02729 0.999981
0.96841 0.98553 0.982701 0.999927
0.986564 0.986821 1.00158 0.998165
0.968176 0.983444 0.98472 0.99975
1.00431 0.994159 1.01028 0.99993
0.984009 0.980275 1.00541 0.998408
0.955882 0.96666 0.989093 0.999754
1.00017 1 1.00041 0.999768
0.999722 1 1 0.999722
0.999697 1 1 0.999697
1.02448 0.997538 1.02711 0.999897
1.00463 1 1.00506 0.999566
0.999663 1 1.00005 0.999613
1.00424 1 1.00465 0.999597
1.01182 0.999584 1.01251 0.999738
1.00904 1 1.0093 0.999744
0.99514 0.9978 0.997409 0.999926
1.00568 1.00569 1 0.999984
0.999545 0.999533 1.00001 1
1.00562 1 1.00575 0.999876
0.972196 0.995961 0.976263 0.999874
1.00709 1.00715 0.999959 0.999981
0.990857 0.981934 1.01036 0.998741
0.963232 0.972781 0.990455 0.999727
0.981719 0.990131 0.991582 0.999921
0.983434 1.00103 0.982657 0.999758
0.993552 0.996906 0.99671 0.999926
0.96144 0.968068 0.993418 0.999734
0.97402 1.00074 0.974003 0.999276
0.979259 0.976149 1.00496 0.998231
0.977822 1.00817 0.97031 0.999574
0.965172 0.971275 0.993997 0.999718
0.974143 0.973214 1.00259 0.998364
0.978359 1.00475 0.974439 0.999272
1.02339 1 1.02382 0.999581
1.01124 1 1.01173 0.999521
1.00263 1 1.00305 0.999573
1.00715 1 1.00763 0.999522
1.00176 1 1.00223 0.999532
0.999705 1 1 0.999705
1.00112 1 1.00158 0.999541
0.999644 1 1.00001 0.999635
0.999772 1 1 0.999772
0.999617 1 1 0.999617
0.999689 1 1 0.999689
0.999775 1 1 0.999775
0.999772 1 1 0.999772
0.999716 1 1 0.999716
0.999718 1 1 0.999718
0.999728 1 1 0.999728
0.999696 1 1 0.999696
0.99967 1 1 0.99967
0.999802 1 1 0.999802
0.999749 1 1 0.999749
0.999688 1 1 0.999688
0.999863 1 1 0.999863
0.999816 1 1 0.999816
0.99979 1 1 0.99979
0.999962 1 1 0.999962
0.999868 1 1 0.999868
0.999815 1 1 0.999815
1 1 1 1
0.999968 1 1 0.999968
0.999876 1 1 0.999876
1 1 1 1
1 1 1 1
0.999972 1 1 0.999972
1 1 1 1
1 1 1 1
1 1 1 1
0.999807 1 1 0.999807
0.999797 1 1 0.999797
0.99986 1 1 0.99986
0.99997 1 1 0.99997
0.999866 1 1 0.999866
0.999795 1 1 0.999795
1 1 1 1
0.999978 1 1 0.999978
0.999874 1 1 0.999874
1 1 1 1
1 1 1 1
0.999984 1 1 0.999984
1 1 1 1
1 1 1 1
1 1 1 1
0.994891 0.996683 0.998235 0.999967
1.00751 1.00754 1 0.999978
1.00018 1.00011 1.00007 1
0.999774 1 1 0.999774
0.999787 1 1 0.999787
0.99976 1 1 0.99976
0.999767 1 1 0.999767
0.999774 1 1 0.999774
0.999751 1 1 0.999751
0.999738 1 1 0.999738
0.999748 1 1 0.999748
0.999729 1 1 0.999729
0.99973 1 1 0.99973
0.999725 1 1 0.999725
0.999719 1 1 0.999719
0.961333 0.967718 0.993648 0.999753
0.983018 0.990711 0.992287 0.999947
1.00956 1.01045 0.999163 0.99996
0.967684 0.982927 0.984556 0.999935
0.963985 0.982092 0.982234 0.999317
0.990177 0.989769 1.00159 0.998825
1.019 0.98712 1.03281 0.999506
1.00476 0.994063 1.0113 0.99946
0.956011 0.968171 0.988079 0.999353
0.987889 0.984065 1.00528 0.998616
0.999082 0.993864 1.00583 0.999427
0.979252 0.976792 1.00413 0.998398
1.00786 1 1.00815 0.999709
1.00004 1 1.00027 0.999769
0.999723 1 1 0.999723
1.01063 1 1.0109 0.999739
1.00454 1 1.00494 0.999601
1.00851 1 1.00876 0.999748
1.00151 1.0005 1.00132 0.999696
0.966969 0.974142 0.99298 0.999654
0.995904 0.997711 0.998242 0.999946
1.00497 1.00499 1 0.999985
0.981166 1.00122 0.980207 0.999758
0.972915 0.99938 0.973741 0.999771
0.994957 0.997636 0.99739 0.999924
0.978246 0.974617 1.00551 0.998219
0.959983 0.96835 0.992046 0.999308
0.978065 1.00739 0.971282 0.999597
0.965817 0.971636 0.994508 0.999501
0.974909 0.972148 1.00455 0.998296
0.976565 1.00365 0.973282 0.999721
0.979614 1.01242 0.968071 0.999511
0.9655 0.967187 1.00026 0.997998
0.990481 1.00177 0.988919 0.999808
1.01082 1 1.0113 0.999518
1.00236 1 1.00279 0.999569
0.999162 1.00017 0.999258 0.999734
1.00163 1 1.0021 0.999535
0.999613 1 0.999906 0.999707
0.999298 1 0.999404 0.999894
0.999642 1 1 0.999642
0.999773 1 1 0.999773
0.999862 1 1 0.999862
0.999692 1 1 0.999692
0.999774 1 1 0.999774
0.99982 1 1 0.99982
0.999799 1 1 0.999799
0.999778 1 1 0.999778
0.999763 1 1 0.999763
0.999737 1 1 0.999737
0.999718 1 1 0.999718
0.999723 1 1 0.999723
0.999773 1 1 0.999773
0.999735 1 1 0.999735
0.999702 1 1 0.999702
0.999854 1 1 0.999854
0.999802 1 1 0.999802
0.999749 1 1 0.999749
0.999953 1 1 0.999953
0.999864 1 1 0.999864
0.999816 1 1 0.999816
1 1 1 1
0.999961 1 1 0.999961
0.999869 1 1 0.999869
1 1 1 1
1 1 1 1
0.999968 1 1 0.999968
1 1 1 1
1 1 1 1
1 1 1 1
0.99981 1 1 0.99981
0.999801 1 1 0.999801
0.999856 1 1 0.999856
0.999799 1 1 0.999799
0.99986 1 1 0.99986
0.999962 1 1 0.999962
1 1 1 1
0.999971 1 1 0.999971
0.999866 1 1 0.999866
1 1 1 1
1 1 1 1
0.999979 1 1 0.999979
1 1 1 1
1 1 1 1
1 1 1 1
0.969007 0.97241 0.99714 0.999359
0.993565 0.996136 0.997468 0.999951
1.00851 1.00853 1 0.999978
0.999772 1 1 0.999772
0.99976 1 1 0.99976
0.999789 1 1 0.999789
0.999791 1 1 0.999791
0.999766 1 1 0.999766
0.99974 1 1 0.99974
0.99975 1 1 0.99975
0.99973 1 1 0.99973
0.999755 1 1 0.999755
0.999721 1 1 0.999721
0.999963 1 1.00026 0.999706
0.999725 1 1 0.999725
0.99972 1 1 0.99972
0.975741 0.97684 1.00086 0.998014
0.964056 0.96999 0.994324 0.999556
0.983377 0.991334 0.99204 0.999933
0.955998 0.96839 0.987428 0.999773
0.983997 0.979992 1.00619 0.99791
1.00756 0.99483 1.01286 0.999938
0.999771 0.994863 1.00527 0.99967
0.979877 0.977677 1.00381 0.998447
0.993715 0.999091 0.995102 0.999515
1.00585 1.00117 1.00518 0.999509
1.0061 1 1.0064 0.999702
0.99977 1 1 0.99977
1.00641 1 1.00666 0.999752
1.00074 1.00078 1.0002 0.999769
0.961707 0.965271 0.997893 0.998412
0.967981 0.973545 0.994956 0.999325
0.996454 0.997575 0.998909 0.999967
0.978262 1.00691 0.971923 0.99962
0.979938 1.00841 0.97248 0.999265
0.968334 0.971957 0.996948 0.999322
0.976601 0.971796 1.00662 0.998332
0.979183 1.01103 0.968979 0.999506
0.968801 0.968892 1.00149 0.998414
0.987712 1.0042 0.98422 0.999352
0.97704 1.00982 0.967955 0.999569
0.998339 0.993017 1.00554 0.99982
1.00186 1 1.00229 0.999564
0.998063 1.00016 0.998175 0.999731
0.996854 1.00031 0.996675 0.999867
0.999447 1 0.999738 0.999709
0.999047 1 0.999155 0.999892
0.999024 1 0.999102 0.999922
0.999774 1 1 0.999774
0.999857 1 1 0.999857
0.999853 1 1 0.999853
0.999774 1 1 0.999774
0.999816 1 1 0.999816
0.999808 1 1 0.999808
0.999805 1 1 0.999805
0.999779 1 1 0.999779
0.999784 1 1 0.999784
0.999762 1 1 0.999762
0.999756 1 1 0.999756
0.999761 1 1 0.999761
0.999736 1 1 0.999736
0.999719 1 1 0.999719
0.999835 1 1 0.999835
0.999777 1 1 0.999777
0.999741 1 1 0.999741
0.999943 1 1 0.999943
0.999854 1 1 0.999854
0.999801 1 1 0.999801
1 1 1 1
0.999953 1 1 0.999953
0.999864 1 1 0.999864
1 1 1 1
1 1 1 1
0.999961 1 1 0.999961
1 1 1 1
1 1 1 1
1 1 1 1
0.999805 1 1 0.999805
0.999811 1 1 0.999811
0.999847 1 1 0.999847
0.999796 1 1 0.999796
0.999852 1 1 0.999852
0.999955 1 1 0.999955
0.999859 1 1 0.999859
0.999962 1 1 0.999962
1 1 1 1
1 1 1 1
1 1 1 1
0.999971 1 1 0.999971
1 1 1 1
1 1 1 1
1 1 1 1
0.969484 0.970669 1.00031 0.998471
0.968382 0.974112 0.994418 0.999699
0.995281 0.997202 0.998108 0.999965
0.99976 1 1 0.99976
0.999791 1 1 0.999791
0.999767 1 1 0.999767
0.999792 1 1 0.999792
0.999786 1 1 0.999786
0.999776 1 1 0.999776
0.999731 1 1 0.999731
0.999753 1 1 0.999753
0.999723 1 1 0.999723
0.99975 1 1 0.99975
0.999715 1 1 0.999715
0.999666 1 1.00011 0.999552
0.999761 1 1.00006 0.999704
0.99972 1 1 0.99972
0.991212 0.994014 0.997359 0.999822
0.972536 0.973864 1.00022 0.998413
0.961289 0.96887 0.992836 0.999334
0.977348 0.97534 1.00371 0.998355
0.99904 0.994822 1.00431 0.999925
0.993733 0.997052 0.996807 0.999864
0.997134 1.00418 0.993458 0.999521
1.00334 1.00042 1.00339 0.999535
1.00522 1 1.00552 0.999695
0.998285 1.00064 0.997809 0.999839
0.988213 0.986386 1.00245 0.999408
0.965749 0.966874 1.00035 0.998486
0.968049 0.974074 0.994109 0.999704
0.978919 1.00946 0.970229 0.999502
0.990787 1.00773 0.983396 0.999785
0.969976 0.96849 1.00269 0.998846
0.979258 1.00752 0.972367 0.999569
0.993852 0.993985 1.00021 0.999656
0.984178 1.00289 0.981634 0.999705
1.00209 1 1.00249 0.9996
0.996795 1 0.997066 0.999728
0.996243 1.00009 0.99629 0.999868
0.997162 1 0.997308 0.999853
0.998929 1 0.999038 0.99989
0.999132 1 0.999215 0.999918
0.999628 1 0.999799 0.999829
0.999853 1 1 0.999853
0.999849 1 1 0.999849
0.999784 1 1 0.999784
0.999813 1 1 0.999813
0.999809 1 1 0.999809
0.999766 1 1 0.999766
0.999812 1 1 0.999812
0.999783 1 1 0.999783
0.999759 1 1 0.999759
0.999761 1 1 0.999761
0.999754 1 1 0.999754
0.999768 1 1 0.999768
0.99981 1 1 0.99981
0.999765 1 1 0.999765
0.999735 1 1 0.999735
0.999927 1 1 0.999927
0.999835 1 1 0.999835
0.999781 1 1 0.999781
1 1 1 1
0.999942 1 1 0.999942
0.999853 1 1 0.999853
1 1 1 1
1 1 1 1
0.999953 1 1 0.999953
1 1 1 1
1 1 1 1
1 1 1 1
0.999802 1 1 0.999802
0.999809 1 1 0.999809
0.999844 1 1 0.999844
0.999811 1 1 0.999811
0.999847 1 1 0.999847
0.999948 1 1 0.999948
0.999848 1 1 0.999848
0.999955 1 1 0.999955
1 1 1 1
0.999962 1 1 0.999962
1 1 1 1
1 1 1 1
1 1 1 1
1 1 1 1
1 1 1 1
0.984664 0.986272 0.998582 0.999788
0.965264 0.967849 0.998896 0.998432
0.965904 0.972814 0.993567 0.999326
0.999772 1 1 0.999772
0.999769 1 1 0.999769
0.999792 1 1 0.999792
0.999775 1 1 0.999775
0.999785 1 1 0.999785
0.999793 1 1 0.999793
0.999751 1 1 0.999751
0.999724 1 1 0.999724
0.999754 1 1 0.999754
0.99973 1 1 0.99973
0.999638 1 1 0.999638
0.999427 1 1 0.999427
0.999688 1 1.00013 0.999559
0.999702 1 1 0.999702
0.996762 1.00026 0.996966 0.999539
0.991963 0.995444 0.996885 0.999617
0.974369 0.974818 1.00072 0.998823
0.997042 0.998586 0.999012 0.999442
1.00116 1.00429 0.997443 0.999439
1.0031 1 1.00354 0.999562
0.999837 1 1.00002 0.999817
0.989074 0.985341 1.00397 0.999815
0.963166 0.966694 0.997922 0.998426
0.981359 1.00514 0.976759 0.999569
0.990289 0.994546 0.99624 0.999476
0.987862 1.00202 0.986176 0.999688
1.00106 1 1.00141 0.999652
0.999221 1 0.999573 0.999648
0.99961 1 1 0.99961
0.99582 1 0.995951 0.999868
0.997992 1 0.998138 0.999854
0.999746 1 1 0.999746
0.999298 1 0.999384 0.999913
0.999784 1 0.999957 0.999827
0.999736 1 1 0.999736
0.999845 1 1 0.999845
0.99979 1 1 0.99979
0.999724 1 1 0.999724
0.999811 1 1 0.999811
0.999766 1 1 0.999766
0.999741 1 1 0.999741
0.999787 1 1 0.999787
0.999761 1 1 0.999761
0.999759 1 1 0.999759
0.999753 1 1 0.999753
0.999765 1 1 0.999765
0.999803 1 1 0.999803
0.999908 1 1 0.999908
0.999815 1 1 0.999815
0.999769 1 1 0.999769
1 1 1 1
0.999926 1 1 0.999926
0.999835 1 1 0.999835
1 1 1 1
1 1 1 1
0.999942 1 1 0.999942
1 1 1 1
1 1 1 1
1 1 1 1
0.999788 1 1 0.999788
0.999802 1 1 0.999802
0.999843 1 1 0.999843
0.999813 1 1 0.999813
0.999847 1 1 0.999847
0.999941 1 1 0.999941
0.999847 1 1 0.999847
0.999948 1 1 0.999948
1 1 1 1
0.999955 1 1 0.999955
1 1 1 1
1 1 1 1
1 1 1 1
1 1 1 1
1 1 1 1
0.997915 1.00014 0.997999 0.999778
0.98501 0.987573 0.998008 0.999396
0.966304 0.968098 0.999659 0.998487
0.999779 1 1 0.999779
0.999732 1 1 0.999732
0.999774 1 1 0.999774
0.999775 1 1 0.999775
0.999784 1 1 0.999784
0.999789 1 1 0.999789
0.999674 1 1 0.999674
0.999759 1 1 0.999759
0.999745 1 1 0.999745
0.999639 1 1 0.999639
0.999503 1 1 0.999503
0.999586 1 1 0.999586
0.999438 1 1 0.999438
0.999567 1 1 0.999567
0.998663 1.00184 0.997276 0.999552
0.990772 0.994916 0.996435 0.999398
1.00262 1.00391 0.999348 0.999359
0.999814 1 1 0.999814
1.00098 1 1.00116 0.999823
0.987451 0.98512 1.00298 0.999388
0.991876 1.00145 0.990765 0.999671
1.00005 1 1.00034 0.999705
0.998884 1.00004 0.999187 0.999658
0.999635 1 1 0.999635
0.999651 1 1 0.999651
0.999757 1 1 0.999757
0.998802 1 0.998947 0.999855
0.99975 1 1 0.99975
0.999669 1 1 0.999669
0.999825 1 1 0.999825
0.999737 1 1 0.999737
0.999682 1 1 0.999682
0.999796 1 1 0.999796
0.999724 1 1 0.999724
0.999704 1 1 0.999704
0.999767 1 1 0.999767
0.999741 1 1 0.999741
0.999742 1 1 0.999742
0.999762 1 1 0.999762
0.99976 1 1 0.99976
0.999792 1 1 0.999792
0.999762 1 1 0.999762
0.999801 1 1 0.999801
0.999892 1 1 0.999892
0.999998 1 1 0.999998
0.999908 1 1 0.999908
0.999819 1 1 0.999819
1 1 1 1
1 1 1 1
0.999925 1 1 0.999925
1 1 1 1
1 1 1 1
1 1 1 1
0.999756 1 1 0.999756
0.999784 1 1 0.999784
0.999831 1 1 0.999831
0.999803 1 1 0.999803
0.999842 1 1 0.999842
0.999931 1 1 0.999931
0.999849 1 1 0.999849
0.999941 1 1 0.999941
1 1 1 1
0.999948 1 1 0.999948
1 1 1 1
1 1 1 1
1 1 1 1
1 1 1 1
1 1 1 1
0.999789 1 1 0.999789
0.997803 1.00001 0.998002 0.99979
0.984369 0.986214 0.998319 0.999809
0.999707 1 1 0.999707
0.999795 1 1 0.999795
0.999668 1 1 0.999668
0.999729 1 1 0.999729
0.999776 1 1 0.999776
0.999567 1 1 0.999567
0.999785 1 1 0.999785
0.999674 1 1 0.999674
0.999571 1 1 0.999571
0.99964 1 1 0.99964
0.999489 1 1 0.999489
0.99958 1 1 0.99958
0.999449 1 1 0.999449
1.00057 1.00337 0.997648 0.999564
0.999834 1 1 0.999834
0.999811 1 1 0.999811
1.00207 1 1.00224 0.999829
0.998633 1.00005 0.998911 0.999669
0.99966 1 1 0.99966
0.999646 1 1 0.999646
0.999761 1 1 0.999761
0.999729 1 1 0.999729
0.999754 1 1 0.999754
0.999673 1 1 0.999673
0.999663 1 1 0.999663
0.999738 1 1 0.999738
0.99968 1 1 0.99968
0.99967 1 1 0.99967
0.999724 1 1 0.999724
0.999703 1 1 0.999703
0.999711 1 1 0.999711
0.999741 1 1 0.999741
0.999742 1 1 0.999742
0.999772 1 1 0.999772
0.99976 1 1 0.99976
0.999792 1 1 0.999792
0.999876 1 1 0.999876
0.999799 1 1 0.999799
0.999892 1 1 0.999892
0.999995 1 1 0.999995
1 1 1 1
0.999997 1 1 0.999997
0.999908 1 1 0.999908
1 1 1 1
0.999999 1 1 0.999999
1 1 1 1
0.99968 1 1 0.99968
0.999725 1 1 0.999725
0.999752 1 1 0.999752
0.999815 1 1 0.999815
0.999781 1 1 0.999781
0.999831 1 1 0.999831
0.999922 1 1 0.999922
0.999842 1 1 0.999842
0.999932 1 1 0.999932
1 1 1 1
0.999941 1 1 0.999941
1 1 1 1
1 1 1 1
1 1 1 1
1 1 1 1
1 1 1 1
0.999739 1 1 0.999739
0.999815 1.00003 1 0.999782
0.998156 1.00038 0.997979 0.999802
0.99961 1 1 0.99961
0.999724 1 1 0.999724
0.999812 1 1 0.999812
0.999676 1 1 0.999676
0.999726 1 1 0.999726
0.999557 1 1 0.999557
0.999559 1 1 0.999559
0.999675 1 1 0.999675
0.999566 1 1 0.999566
0.999476 1 1 0.999476
0.999641 1.00007 1 0.999575
0.999806 1 1 0.999806
0.99983 1 1 0.99983
0.999808 1 1 0.999808
0.999641 1 1 0.999641
0.999765 1 1 0.999765
0.999728 1 1 0.999728
0.999721 1 1 0.999721
0.999678 1 1 0.999678
0.99966 1 1 0.99966
0.999675 1 1 0.999675
0.999678 1 1 0.999678
0.999669 1 1 0.999669
0.999682 1 1 0.999682
0.999702 1 1 0.999702
0.99971 1 1 0.99971
0.999746 1 1 0.999746
0.999741 1 1 0.999741
0.999772 1 1 0.999772
0.999856 1 1 0.999856
0.999792 1 1 0.999792
0.999876 1 1 0.999876
0.99999 1 1 0.99999
0.999892 1 1 0.999892
0.999993 1 1 0.999993
1 1 1 1
1 1 1 1
0.999996 1 1 0.999996
1 1 1 1
0.999626 1 1 0.999626
0.999719 1 1 0.999719
0.999705 1 1 0.999705
0.999788 1 1 0.999788
0.999725 1 1 0.999725
0.999748 1 1 0.999748
0.999816 1 1 0.999816
0.99991 1 1 0.99991
0.999832 1 1 0.999832
0.999922 1 1 0.999922
1 1 1 1
0.999932 1 1 0.999932
1 1 1 1
1 1 1 1
1 1 1 1
1 1 1 1
1 1 1 1
0.99969 1 1 0.99969
0.99974 1 1 0.99974
0.999776 1 1 0.999776
0.999583 1 1 0.999583
0.999611 1 1 0.999611
0.999741 1 1 0.999741
0.999684 1 1 0.999684
0.999557 1 1 0.999557
0.99955 1 1 0.99955
0.999562 1 1 0.999562
0.999766 1 1 0.999766
0.999791 1 1 0.999791
0.999826 1 1 0.999826
0.999719 1 1 0.999719
0.999728 1 1 0.999728
0.999719 1 1 0.999719
0.999707 1 1 0.999707
0.999656 1 1 0.999656
0.999676 1 1 0.999676
0.99968 1 1 0.99968
0.999668 1 1 0.999668
0.999682 1 1 0.999682
0.999722 1 1 0.999722
0.99971 1 1 0.99971
0.999745 1 1 0.999745
0.999831 1 1 0.999831
0.999772 1 1 0.999772
0.999855 1 1 0.999855
0.999985 1 1 0.999985
0.999876 1 1 0.999876
0.999989 1 1 0.999989
1 1 1 1
0.999992 1 1 0.999992
1 1 1 1
1 1 1 1
0.999597 1 1 0.999597
0.999663 1 1 0.999663
0.999636 1 1 0.999636
0.999769 1 1 0.999769
0.999717 1 1 0.999717
0.999729 1 1 0.999729
0.999884 1 1 0.999884
0.999788 1 1 0.999788
0.999725 1 1 0.999725
0.999816 1 1 0.999816
0.99991 1 1 0.99991
0.999997 1 1 0.999997
0.999923 1 1 0.999923
1 1 1 1
1 1 1 1
1 1 1 1
1 1 1 1
1 1 1 1
0.999671 1 1 0.999671
0.999679 1 1 0.999679
0.99974 1 1 0.99974
0.999575 1 1 0.999575
0.999611 1 1 0.999611
0.999558 1 1 0.999558
0.999721 1 1 0.999721
0.999769 1 1 0.999769
0.999777 1 1 0.999777
0.999716 1 1 0.999716
0.999703 1 1 0.999703
0.999718 1 1 0.999718
0.999707 1 1 0.999707
0.999703 1 1 0.999703
0.999676 1 1 0.999676
0.999681 1 1 0.999681
0.999713 1 1 0.999713
0.999682 1 1 0.999682
0.999721 1 1 0.999721
0.999811 1 1 0.999811
0.999745 1 1 0.999745
0.999831 1 1 0.999831
0.99998 1 1 0.99998
0.999855 1 1 0.999855
0.999984 1 1 0.999984
1 1 1 1
0.999987 1 1 0.999987
1 1 1 1
1 1 1 1
0.999666 1 1 0.999666
0.999623 1 1 0.999623
0.999594 1 1 0.999594
0.999722 1 1 0.999722
0.999668 1 1 0.999668
0.999645 1 1 0.999645
0.999853 1 1 0.999853
0.999759 1 1 0.999759
0.999715 1 1 0.999715
0.99999 1 1 0.99999
0.999885 1 1 0.999885
0.999788 1 1 0.999788
0.99991 1 1 0.99991
0.999998 1 1 0.999998
1 1 1 1
1 1 1 1
1 1 1 1
1 1 1 1
0.999665 1 1 0.999665
0.999667 1 1 0.999667
0.999669 1 1 0.999669
0.999568 1 1 0.999568
0.999691 1 1 0.999691
0.999725 1 1 0.999725
0.999772 1 1 0.999772
0.999712 1 1 0.999712
0.999704 1 1 0.999704
0.999713 1 1 0.999713
0.999707 1 1 0.999707
0.999704 1 1 0.999704
0.999719 1 1 0.999719
0.999682 1 1 0.999682
0.999713 1 1 0.999713
0.999801 1 1 0.999801
0.999721 1 1 0.999721
0.999811 1 1 0.999811
0.999975 1 1 0.999975
0.999831 1 1 0.999831
0.999978 1 1 0.999978
1 1 1 1
0.999982 1 1 0.999982
1 1 1 1
1 1 1 1
0.999672 1 1 0.999672
0.999662 1 1 0.999662
0.999666 1 1 0.999666
0.999676 1 1 0.999676
0.999632 1 1 0.999632
0.999591 1 1 0.999591
0.999805 1 1 0.999805
0.999722 1 1 0.999722
0.999673 1 1 0.999673
0.999979 1 1 0.999979
0.999844 1 1 0.999844
0.999749 1 1 0.999749
1 1 1 1
0.999992 1 1 0.999992
0.999885 1 1 0.999885
0.999999 1 1 0.999999
1 1 1 1
1 1 1 1
0.999675 1 1 0.999675
0.999673 1 1 0.999673
0.999663 1 1 0.999663
0.999698 1 1 0.999698
0.99969 1 1 0.99969
0.999729 1 1 0.999729
0.999706 1 1 0.999706
0.999714 1 1 0.999714
0.999742 1 1 0.999742
0.999705 1 1 0.999705
0.999726 1 1 0.999726
0.999791 1 1 0.999791
0.999714 1 1 0.999714
0.999801 1 1 0.999801
0.999971 1 1 0.999971
0.999811 1 1 0.999811
0.999974 1 1 0.999974
1 1 1 1
0.999977 1 1 0.999977
1 1 1 1
1 1 1 1
0.999674 1 1 0.999674
0.999685 1 1 0.999685
0.999671 1 1 0.999671
0.999693 1 1 0.999693
0.999665 1 1 0.999665
0.999665 1 1 0.999665
0.999774 1 1 0.999774
0.999686 1 1 0.999686
0.99964 1 1 0.99964
0.99997 1 1 0.99997
0.999801 1 1 0.999801
0.999721 1 1 0.999721
1 1 1 1
0.999982 1 1 0.999982
0.999836 1 1 0.999836
1 1 1 1
0.999995 1 1 0.999995
1 1 1 1
0.999689 1 1 0.999689
0.999676 1 1 0.999676
0.999682 1 1 0.999682
0.999727 1 1 0.999727
0.999698 1 1 0.999698
0.99969 1 1 0.99969
0.999714 1 1 0.999714
0.999742 1 1 0.999742
0.999795 1 1 0.999795
0.999732 1 1 0.999732
0.999796 1 1 0.999796
0.999968 1 1 0.999968
0.999801 1 1 0.999801
0.99997 1 1 0.99997
1 1 1 1
0.999973 1 1 0.999973
1 1 1 1
1 1 1 1
0.999692 1 1 0.999692
0.99967 1 1 0.99967
0.999709 1 1 0.999709
0.999685 1 1 0.999685
0.99967 1 1 0.99967
0.999782 1 1 0.999782
0.999692 1 1 0.999692
0.999668 1 1 0.999668
0.999965 1 1 0.999965
0.999779 1 1 0.999779
0.999696 1 1 0.999696
1 1 1 1
0.999973 1 1 0.999973
0.999796 1 1 0.999796
1 1 1 1
0.999986 1 1 0.999986
1 1 1 1
0.999722 1 1 0.999722
0.99969 1 1 0.99969
0.999676 1 1 0.999676
0.999787 1 1 0.999787
0.999728 1 1 0.999728
0.999697 1 1 0.999697
0.999743 1 1 0.999743
0.999796 1 1 0.999796
0.999965 1 1 0.999965
0.999801 1 1 0.999801
0.999967 1 1 0.999967
1 1 1 1
0.999969 1 1 0.999969
1 1 1 1
1 1 1 1
0.999716 1 1 0.999716
0.999688 1 1 0.999688
0.999665 1 1 0.999665
0.99979 1 1 0.99979
0.999709 1 1 0.999709
0.999686 1 1 0.999686
0.999964 1 1 0.999964
0.999782 1 1 0.999782
0.999691 1 1 0.999691
1 1 1 1
0.999966 1 1 0.999966
0.999784 1 1 0.999784
1 1 1 1
0.999975 1 1 0.999975
1 1 1 1
0.999794 1 1 0.999794
0.999717 1 1 0.999717
0.99969 1 1 0.99969
0.999963 1 1 0.999963
0.999788 1 1 0.999788
0.999728 1 1 0.999728
0.999796 1 1 0.999796
0.999964 1 1 0.999964
1 1 1 1
0.999966 1 1 0.999966
1 1 1 1
1 1 1 1
0.999794 1 1 0.999794
0.999714 1 1 0.999714
0.999685 1 1 0.999685
0.999965 1 1 0.999965
0.999789 1 1 0.999789
0.999709 1 1 0.999709
1 1 1 1
0.999964 1 1 0.999964
0.999781 1 1 0.999781
1 1 1 1
0.999968 1 1 0.999968
1 1 1 1
0.999962 1 1 0.999962
0.999789 1 1 0.999789
0.999712 1 1 0.999712
1 1 1 1
0.999962 1 1 0.999962
0.999789 1 1 0.999789
0.999964 1 1 0.999964
1 1 1 1
1 1 1 1
0.999964 1 1 0.999964
0.999794 1 1 0.999794
0.999713 1 1 0.999713
1 1 1 1
0.999965 1 1 0.999965
0.999789 1 1 0.999789
1 1 1 1
0.999964 1 1 0.999964
1 1 1 1
1 1 1 1
0.999962 1 1 0.999962
0.999784 1 1 0.999784
1 1 1 1
0.999962 1 1 0.999962
1 1 1 1
1 1 1 1
0.999964 1 1 0.999964
0.999794 1 1 0.999794
1 1 1 1
0.999965 1 1 0.999965
1 1 1 1
1 1 1 1
0.999963 1 1 0.999963
1 1 1 1
1 1 1 1
0.999965 1 1 0.999965
1 1 1 1
1 1 1 1
1 1 1 1

VECTORS lamdaE float
0.999048 0.999402 0.997278
0.999224 0.99844 0.998991
0.999018 0.999427 0.997314
0.998912 1.00006 0.996991
0.998945 0.999759 0.997159
0.999169 0.998939 0.997467
0.999491 1.00021 0.99551
0.999252 0.998367 0.999014
0.998819 0.99971 0.998828
0.999072 0.998798 0.99897
0.999373 0.99807 0.997878
0.999491 0.999787 0.99569
0.99912 0.999998 0.996809
0.998852 1.00015 0.997064
0.998988 0.999447 0.997352
0.998871 1.00013 0.997023
0.999148 0.998931 0.997508
0.99891 0.999807 0.997192
0.999509 1.0002 0.99551
0.999033 1 0.998662
0.998954 1.00004 0.996978
0.998893 0.999986 0.997067
0.999793 1.00024 0.994955
0.999558 1.00029 0.995324
0.999303 0.998429 0.997696
0.999426 1.00004 0.995773
1.00033 1.00098 0.993173
0.999282 0.998289 0.999038
0.998851 0.999779 0.99801
0.9991 0.998897 0.998247
0.999364 0.99799 0.999081
0.999463 0.999806 0.995692
0.99886 1.00018 0.997084
0.99897 0.999542 0.997374
0.999606 1.00032 0.995644
0.999461 0.99763 0.999167
0.999482 0.999973 0.996133
0.999516 0.999489 0.995929
0.999928 1.00124 0.993406
0.999636 0.997228 0.999192
0.999111 1.00001 0.998609
0.9989 1.00008 0.997877
0.999197 0.999987 0.998558
0.998931 1.00005 0.997007
1.00016 0.999972 0.994088
0.998803 1.00011 0.998765
0.999946 1.00013 0.995262
0.998826 1.00021 0.997056
0.998874 0.999854 0.997227
0.999126 0.998915 0.99755
0.999527 1.0002 0.995509
0.999025 0.999999 0.99781
0.998915 1.00008 0.997007
0.999288 0.998395 0.997733
0.998854 1.00005 0.9971
0.999819 1.00023 0.994955
0.999441 1.00004 0.995775
0.999584 1.00026 0.995324
1.00037 1.00099 0.993133
0.999101 0.999991 0.998618
0.998976 1 0.996986
1.00006 0.999978 0.995144
0.999908 1.00011 0.994881
0.999651 1.00031 0.995139
1.00121 1.00034 0.992162
1.00058 1.00071 0.992768
0.999459 0.997954 0.997887
0.999407 0.99972 0.996112
1.00004 1.00119 0.993491
1.0009 1.00093 0.991824
0.998877 0.999596 0.998821
0.999398 0.997916 0.999111
0.999136 0.998727 0.998964
0.999433 0.999833 0.995693
0.998851 0.999985 0.998739
0.998947 0.999331 0.998862
0.999542 1.00044 0.994878
0.99948 0.997668 0.998582
0.99945 1.00008 0.995453
0.999507 0.999437 0.996262
0.999919 1.00126 0.993393
0.999555 0.997434 0.999169
0.999788 0.99847 0.996406
0.999719 1.00038 0.994607
0.999508 1.00032 0.995109
1.00055 1.00077 0.992655
0.99959 0.999063 0.996751
1.00004 1.0011 0.993322
0.999875 1.00124 0.993518
1.00028 1.00149 0.99244
0.999701 0.997035 0.999219
0.999648 0.99721 0.9992
0.998899 1.00006 0.99871
0.999062 1.00001 0.998637
0.999178 0.999988 0.998568
0.99898 1.00004 0.997822
1.00015 0.999965 0.994562
0.998833 1.00009 0.997901
0.999907 1.00011 0.994864
0.999186 0.999976 0.998566
1.00026 0.9999 0.993948
1.00005 1.00004 0.995149
1.00174 0.99987 0.991156
0.999825 1.00024 0.995341
1.00139 1.00016 0.991593
0.999063 0.99998 0.996908
0.998875 1.00014 0.997035
0.999271 0.998353 0.997771
0.998813 1.00012 0.997135
0.999846 1.00019 0.994954
0.999611 1.00024 0.995322
0.999457 1.00005 0.995776
1.0004 1.00099 0.993093
0.999132 0.999993 0.998597
0.998945 1.00001 0.997021
1.00008 0.99997 0.994493
0.999931 1.0001 0.994872
0.999422 0.997927 0.998495
0.999434 0.99971 0.996249
0.999681 1.00028 0.995141
1.00121 1.00032 0.992077
1.00009 1.00121 0.993443
1.00061 1.00072 0.992822
1.00089 1.00093 0.991831
1.00017 0.999934 0.99408
0.999955 1.00002 0.994888
1.00163 0.99988 0.991601
1.00139 1.00009 0.991841
1.00089 1.00051 0.992395
1.00188 1.00019 0.990837
0.999522 0.997619 0.999147
1.00115 1.00061 0.991631
0.999529 0.999328 0.996035
0.999847 1.00125 0.993483
1.00062 1.00135 0.992023
1.00123 1.00081 0.991305
0.999724 0.99869 0.996276
1.00006 1.00045 0.993936
0.998837 0.999888 0.998759
0.998981 0.999185 0.998896
0.99949 1.00052 0.994879
0.999499 0.997625 0.999157
0.999493 0.999421 0.995975
0.999395 1.00016 0.995437
0.999911 1.00127 0.993381
0.999572 0.997415 0.999176
0.999795 0.99844 0.996412
0.99968 1.00036 0.99505
0.99946 1.0003 0.99552
1.00054 1.00075 0.992664
0.999604 0.999033 0.996205
1.00004 1.0011 0.993318
0.999853 1.00127 0.993511
1.00029 1.00147 0.992418
0.9997 0.998743 0.996309
0.999853 0.998223 0.996528
1.00007 1.00037 0.993974
1.00088 1.00052 0.99223
1.00023 1.00098 0.99307
1.00111 1.00078 0.991555
0.999932 1.00095 0.993694
1.00047 1.00115 0.992378
1.00014 1.00182 0.992471
1.00039 1.00172 0.99206
0.999757 0.996847 0.999251
0.99971 0.997015 0.999228
0.999659 0.997191 0.999208
0.999789 0.998425 0.996426
0.999595 0.997412 0.999177
0.998849 1.00003 0.998727
0.99897 1.00004 0.998685
0.999894 1.00012 0.994453
1.00013 0.999955 0.994137
0.999159 0.999986 0.998583
0.999196 0.999979 0.998558
1.00025 0.999896 0.993954
1.00002 1.00003 0.994754
1.00174 0.999872 0.991159
0.99978 1.00027 0.994531
1.00138 1.00016 0.991599
1.00027 0.999882 0.993927
1.0019 0.999793 0.990923
1.00157 0.999989 0.991392
1.00245 0.999736 0.989935
1.00116 1.00033 0.991866
1.00206 0.999968 0.990484
0.999163 0.999994 0.998577
0.998912 1.00003 0.997056
1.00007 0.999975 0.993864
0.999955 1.00008 0.994864
0.999379 0.997894 0.999117
0.99946 0.99971 0.996385
0.999712 1.00024 0.995142
1.0012 1.00031 0.991993
1.00063 1.00074 0.992876
1.00013 1.00123 0.993395
1.00089 1.00093 0.991838
1.00018 0.999935 0.994072
0.999981 1.00001 0.994875
1.00162 0.999885 0.991421
1.0014 1.00011 0.991898
0.999502 0.997642 0.999138
0.999528 0.999343 0.996318
0.999893 1.00125 0.993613
1.00089 1.00051 0.992403
1.00187 1.00015 0.990739
1.00057 1.00136 0.992006
1.00118 1.00062 0.991671
1.00122 1.00081 0.991316
0.999712 0.998733 0.996272
1.00006 1.00043 0.99394
1.0018 0.999811 0.991114
1.0015 0.999947 0.991767
1.00233 0.999797 0.990332
1.0021 0.999871 0.990394
1.00144 1.00039 0.991352
1.00224 0.999883 0.990363
0.999623 0.99899 0.996159
1.00152 1.00037 0.991154
0.999851 1.00116 0.993604
1.00024 1.00157 0.99231
1.00094 1.00147 0.991473
1.00143 1.00058 0.9912
1.00002 1.00071 0.993749
1.00007 1.0001 0.994258
1.0002 1.00155 0.99258
0.999631 1.00045 0.994661
0.999588 0.997396 0.999183
0.999802 0.998409 0.996419
0.999397 1.00042 0.995169
1.00054 1.00073 0.992672
0.999598 0.999005 0.996195
0.999832 1.00131 0.993505
1.00003 1.00111 0.993313
1.00029 1.00146 0.992396
0.999707 0.998709 0.996313
0.999856 0.998199 0.996537
1.00007 1.00039 0.993973
1.00088 1.00051 0.992238
1.00023 1.00097 0.993076
1.00111 1.00078 0.991557
0.999908 1.00099 0.993693
1.00048 1.00116 0.992417
1.00013 1.00183 0.992465
1.00039 1.00172 0.992018
0.999898 0.997996 0.996672
1.00002 1.00061 0.993832
1.00009 1.00012 0.99419
1.0002 1.00143 0.992713
1.00149 1.00047 0.991106
1.00073 1.00103 0.992083
1.00141 1.00076 0.990986
1.00012 1.00173 0.992598
1.00065 1.00127 0.992002
1.00018 1.00232 0.991894
1.00049 1.00175 0.991714
1.00013 0.999202 0.995036
0.999964 0.997609 0.996926
0.999806 0.996666 0.999285
0.999763 0.996826 0.999261
0.999719 0.996996 0.999238
0.999832 0.998165 0.996611
0.999647 0.997208 0.999215
0.999781 0.998462 0.996416
0.999583 0.997429 0.999168
0.99977 1.00028 0.994541
1.00001 1.00002 0.994327
1.00138 1.00017 0.991605
1.00174 0.999874 0.991161
1.00025 0.999892 0.993958
0.999205 0.99998 0.998554
1.00027 0.999885 0.993921
1.0019 0.999791 0.990925
1.00156 0.999997 0.991395
1.00246 0.99974 0.989934
1.00116 1.00033 0.991874
1.00207 0.999965 0.990485
1.00191 0.99977 0.990918
1.00261 0.999695 0.989667
1.00228 0.999804 0.990218
1.00277 0.999488 0.989592
1.0018 1.0002 0.990769
1.00242 0.99966 0.990091
1.00019 0.999938 0.994063
1.00001 0.999998 0.994863
1.0016 0.999878 0.99124
1.00142 1.00014 0.991956
0.999482 0.997663 0.999128
0.99953 0.999359 0.996594
0.999939 1.00123 0.993743
1.00089 1.00051 0.992411
1.00185 1.00011 0.990641
1.00121 1.00062 0.991711
1.00052 1.00136 0.991988
1.00121 1.00081 0.991328
0.999701 0.998775 0.996268
1.00007 1.00041 0.993944
1.00178 0.99981 0.991048
1.00151 0.999949 0.991767
1.00233 0.999777 0.990286
1.00211 0.999913 0.990501
0.99962 0.999027 0.996158
0.999875 1.00113 0.993608
1.00024 1.00157 0.992377
1.00147 1.00041 0.991348
1.00223 0.999825 0.990343
1.00089 1.00147 0.991397
1.00153 1.00037 0.991155
1.00141 1.00056 0.991189
1.00003 1.00068 0.993755
1.00021 1.00152 0.992562
1.00007 1.0001 0.994255
1.00248 0.99976 0.990069
1.00224 0.999795 0.990407
1.00267 0.999672 0.989709
1.00249 0.999609 0.990004
1.00177 1.00007 0.990866
1.00243 0.999399 0.990414
0.999925 1.00096 0.993675
1.0017 1.00006 0.991108
1.00016 1.00157 0.99263
1.00041 1.00189 0.991676
1.00109 1.00152 0.990999
1.00154 1.00031 0.991392
1.00008 0.999745 0.994598
1.0002 1.00151 0.992619
1.00018 1.00146 0.992604
1.00022 1.00207 0.99213
1.00088 1.00051 0.992246
0.999859 0.998174 0.996546
0.999715 0.998672 0.996317
1.00006 1.0004 0.993971
1.00022 1.00095 0.993082
1.0011 1.00079 0.99156
0.999883 1.00103 0.993691
1.00012 1.00183 0.99246
1.00049 1.00116 0.992457
1.00038 1.00172 0.991977
0.999897 0.997978 0.996681
1.00001 1.00065 0.993829
1.00009 1.00012 0.994192
1.0002 1.00144 0.992706
1.00149 1.00047 0.991101
1.00071 1.00103 0.992093
1.00141 1.00076 0.990989
1.00011 1.00174 0.992601
1.00066 1.00127 0.992046
1.00019 1.00233 0.991876
1.00047 1.00172 0.991823
0.999933 0.997787 0.996816
1.00009 0.999856 0.994444
1.00019 1.0015 0.99268
1.0002 1.0013 0.992837
1.0002 1.00202 0.992109
1.00182 1.00035 0.990569
1.00094 1.0011 0.991592
1.00151 1.00081 0.990758
1.00013 1.00234 0.991984
1.00074 1.0014 0.991705
1.00027 1.00257 0.991227
1.00012 0.99937 0.994884
1.00015 1.0004 0.993833
1.00013 0.999083 0.995156
1.00013 0.999209 0.995038
0.999984 0.997436 0.997472
0.999959 0.997592 0.997165
0.999875 0.996526 0.998404
0.999811 0.996645 0.999294
0.999769 0.996805 0.999272
0.999867 0.997931 0.996784
0.999694 0.996996 0.999256
0.99983 0.99819 0.996598
0.999641 0.99723 0.999202
0.999773 0.998498 0.996406
0.99957 0.997447 0.999159
1.00115 1.00034 0.991881
1.00156 1 0.991398
1.00207 0.999967 0.990486
1.00247 0.999743 0.989934
1.0019 0.999788 0.990928
1.00028 0.99989 0.993918
1.00192 0.999767 0.990915
1.00261 0.999696 0.989669
1.00228 0.99981 0.990221
1.00279 0.999473 0.989572
1.0018 1.0002 0.990765
1.00242 0.999669 0.99009
1.00262 0.9997 0.989648
1.00287 0.999509 0.98932
1.00264 0.999487 0.989816
1.00298 0.999164 0.989561
1.00214 0.999975 0.990329
1.00261 0.999076 0.990313
1.00177 0.999812 0.990982
1.00151 0.999945 0.991768
1.00233 0.999761 0.99024
1.00212 0.999956 0.990609
0.999617 0.999063 0.996156
0.9999 1.0011 0.993612
1.00025 1.00157 0.992445
1.00151 1.00043 0.991344
1.00221 0.999768 0.990323
1.00153 1.00036 0.991156
1.00084 1.00148 0.991321
1.00139 1.00055 0.991177
1.00004 1.00065 0.993762
1.00022 1.00149 0.992544
1.00006 1.00011 0.994251
1.00248 0.999757 0.989972
1.00225 0.999773 0.990408
1.00266 0.999656 0.989656
1.00251 0.999623 0.990022
0.999948 1.00092 0.993681
1.00019 1.00156 0.992624
1.0004 1.00191 0.991752
1.00179 1.00012 0.990893
1.00242 0.999305 0.990463
1.00104 1.00157 0.990925
1.0017 1.00005 0.991112
1.00152 1.00023 0.99143
1.00022 1.00149 0.992628
1.00023 1.00206 0.99208
1.00007 0.999758 0.994592
1.00019 1.00142 0.992646
1.00276 0.99968 0.98943
1.00266 0.999579 0.989809
1.00283 0.99957 0.989406
1.0027 0.99923 0.98995
1.00198 0.999638 0.990926
1.00263 0.998781 0.990655
1.00016 1.00153 0.992677
1.00177 0.999509 0.991505
1.00022 1.0019 0.992077
1.00056 1.00231 0.991119
1.00117 1.0016 0.99065
1.00165 1.00009 0.991423
1.00008 0.999503 0.99483
1.00017 1.00112 0.992942
1.00024 1.00185 0.992215
1.00016 1.00227 0.991973
1.00027 1.00215 0.991943
0.999896 0.99796 0.99669
1.0015 1.00048 0.991097
1.00009 1.00011 0.994194
0.999995 1.00068 0.993825
1.00019 1.00145 0.992698
1.0007 1.00103 0.992102
1.0014 1.00077 0.990992
1.00009 1.00176 0.992603
1.0002 1.00234 0.991859
1.00067 1.00128 0.992089
1.00045 1.00169 0.991931
0.999931 0.997773 0.996823
1.0001 0.999847 0.994448
1.00018 1.00151 0.992676
1.00019 1.00131 0.992832
1.0002 1.00202 0.9921
1.00183 1.00035 0.990562
1.00093 1.0011 0.991594
1.00151 1.00081 0.990735
1.00012 1.00234 0.991994
1.00075 1.0014 0.991737
1.00032 1.00254 0.991283
1.00011 0.999596 0.994685
1.0002 1.00108 0.993054
1.00021 1.00204 0.992095
1.00019 1.00202 0.992164
1.0002 1.0023 0.991865
1.00196 1.0002 0.990416
1.00103 1.00118 0.991316
1.00141 1.00078 0.990828
1.00014 1.00287 0.991401
1.00068 1.00236 0.990872
1.00012 0.999367 0.994888
1.00018 1.0006 0.993458
1.00016 1.00041 0.993756
1.00013 1.00132 0.993086
1.00012 1.00034 0.993941
1.00014 0.998995 0.995246
1.00013 0.999093 0.995156
1.00001 0.997292 0.997545
1.00013 0.999216 0.99504
0.999987 0.997432 0.997483
0.999921 0.996369 0.998463
0.999954 0.997579 0.997401
0.999862 0.996494 0.998864
0.999816 0.996625 0.999304
0.999901 0.997732 0.996916
0.99987 0.997945 0.996773
0.999744 0.996791 0.999293
0.99969 0.997022 0.999243
0.999829 0.998215 0.996586
0.999634 0.997252 0.99919
1.00181 1.00021 0.99076
1.00228 0.999811 0.990224
1.00242 0.999676 0.99009
1.0028 0.999457 0.989551
1.00262 0.999698 0.989671
1.00192 0.999764 0.990911
1.00262 0.9997 0.98965
1.00289 0.999526 0.989284
1.00265 0.999495 0.989818
1.00299 0.999142 0.989559
1.00215 0.999982 0.990318
1.00263 0.999033 0.990329
1.00289 0.999612 0.989219
1.00297 0.999434 0.989224
1.00286 0.998878 0.98989
1.00311 0.999064 0.989521
1.00233 0.999509 0.990362
1.00285 0.998453 0.990601
1.00248 0.999751 0.989876
1.00225 0.999756 0.990409
1.00266 0.99964 0.989602
1.00253 0.999635 0.99004
0.999969 1.00088 0.993686
1.00021 1.00155 0.992617
1.00038 1.00193 0.991829
1.00181 1.00017 0.99092
1.0024 0.999209 0.990512
1.0017 1.00005 0.991116
1.00099 1.00163 0.990851
1.00149 1.00014 0.991468
1.00023 1.00147 0.992638
1.00023 1.00204 0.99203
1.00006 0.99977 0.994585
1.0002 1.00139 0.992687
1.00276 0.999679 0.989434
1.00265 0.999575 0.989824
1.00281 0.999583 0.989409
1.00271 0.999234 0.989961
1.00018 1.00151 0.992678
1.00021 1.00189 0.992137
1.00055 1.00235 0.991113
1.002 0.999709 0.990888
1.00252 0.998717 0.990835
1.00116 1.00166 0.99061
1.00176 0.999525 0.991516
1.0016 0.999888 0.991546
1.00025 1.00185 0.992216
1.00027 1.00212 0.991935
1.00015 1.0023 0.991956
1.00008 0.999505 0.994738
1.00019 1.00107 0.992992
1.00292 0.99963 0.98919
1.00294 0.999392 0.989359
1.00287 0.998718 0.990149
1.00224 0.998806 0.991228
1.00022 1.00181 0.992301
1.00199 0.998869 0.991905
1.00017 1.00229 0.991658
1.00071 1.0028 0.990347
1.00139 1.00152 0.990339
1.00009 0.999318 0.994829
1.00018 1.00076 0.993465
1.00012 1.00203 0.992267
1.00027 1.00192 0.992097
1.00018 1.00272 0.991527
1.00032 1.00214 0.991784
0.999929 0.997759 0.996831
1.0001 0.999838 0.994451
1.00184 1.00035 0.990556
1.00019 1.00132 0.992826
1.00016 1.00153 0.992673
1.0002 1.00202 0.992091
1.00093 1.0011 0.991597
1.00151 1.00081 0.990712
1.00011 1.00233 0.992003
1.00037 1.00251 0.991339
1.00075 1.0014 0.99177
1.00011 0.999588 0.99469
1.0002 1.00109 0.99305
1.0002 1.00203 0.992134
1.00018 1.00203 0.992156
1.00019 1.00232 0.991835
1.00196 1.00025 0.990397
1.00105 1.00116 0.991299
1.00146 1.00075 0.990839
1.00012 1.00287 0.991357
1.00068 1.00246 0.990777
1.00019 1.00083 0.993314
1.00019 1.00191 0.992185
1.00021 1.00248 0.99171
1.00019 1.00238 0.991721
1.00025 1.0024 0.991624
1.00223 0.998989 0.991043
1.00111 1.0018 0.99065
1.0015 1.00046 0.990597
1.00034 1.0032 0.990895
1.00065 1.00287 0.989917
1.00012 0.999365 0.994892
1.00018 1.0006 0.993506
1.00016 1.00152 0.992627
1.00016 1.00043 0.993678
1.00012 1.00034 0.993941
1.00014 1.00132 0.992978
1.00013 1.00198 0.992395
1.00012 1.00124 0.992985
1.0001 1.00029 0.994033
1.00014 0.998948 0.99529
1.00013 0.998998 0.995247
1.00004 0.997165 0.997603
1.00013 0.999102 0.995156
1.00002 0.99729 0.997555
0.99996 0.996236 0.99851
0.999991 0.997426 0.997494
0.999916 0.996342 0.99846
0.999847 0.996457 0.999328
0.999939 0.997562 0.997014
0.999906 0.99774 0.99691
0.999796 0.996605 0.999321
0.999873 0.997958 0.996763
0.999739 0.996816 0.999282
0.999685 0.997047 0.999231
1.00215 0.999989 0.990307
1.00265 0.999506 0.989821
1.00264 0.998989 0.990346
1.003 0.999119 0.989556
1.00291 0.999543 0.989247
1.00262 0.999699 0.989651
1.00289 0.999619 0.989208
1.00297 0.999439 0.989236
1.0029 0.998908 0.989832
1.00307 0.999053 0.989489
1.00232 0.999566 0.990354
1.00279 0.998271 0.990781
1.00297 0.999575 0.989104
1.00297 0.999399 0.989284
1.00305 0.998535 0.98997
1.00264 0.99826 0.99108
1.00275 0.999677 0.989439
1.00265 0.999569 0.989839
1.00279 0.999595 0.989411
1.00271 0.999238 0.989972
1.0002 1.00149 0.99268
1.00022 1.00188 0.992198
1.00053 1.00239 0.991107
1.00202 0.999779 0.990851
1.00242 0.998657 0.991015
1.00175 0.99954 0.991528
1.00115 1.00173 0.990571
1.00156 0.999697 0.991668
1.00026 1.00185 0.992217
1.00027 1.00209 0.991927
1.00015 1.00233 0.99194
1.00008 0.999509 0.994645
1.0002 1.00102 0.993042
1.00289 0.99961 0.989216
1.00292 0.999407 0.989394
1.00283 0.998762 0.990214
1.00024 1.00181 0.992294
1.00022 1.00228 0.991741
1.00068 1.00287 0.99033
1.00227 0.998864 0.991158
1.00136 1.00138 0.990522
1.00192 0.998875 0.991869
1.00009 0.999297 0.994851
1.00027 1.00193 0.992089
1.0003 1.00208 0.991845
1.00018 1.00273 0.991514
1.00013 1.00203 0.992299
1.00018 1.00076 0.993386
1.00297 0.999572 0.989174
1.00311 0.999132 0.989282
1.00282 0.998283 0.990564
1.00258 0.997691 0.991793
1.00024 1.00203 0.992056
1.00183 1.00003 0.99091
1.00027 1.00299 0.990868
1.00085 1.00329 0.989719
1.0001 0.999158 0.994985
1.00016 1.00049 0.993785
1.00015 1.00174 0.992619
1.00013 1.00282 0.991471
1.00028 1.00212 0.991868
1.00026 1.0026 0.99142
1.00011 0.999577 0.994694
1.00019 1.0011 0.993046
1.00195 1.0003 0.990379
1.00018 1.00205 0.992148
1.00019 1.00201 0.992173
1.00017 1.00235 0.991805
1.00107 1.00115 0.991281
1.00151 1.00073 0.99085
1.0001 1.00287 0.991313
1.00069 1.00256 0.990681
1.00019 1.00083 0.993314
1.00019 1.00193 0.992206
1.0002 1.00246 0.991764
1.00019 1.0024 0.991753
1.00022 1.00243 0.991673
1.00229 0.999037 0.991072
1.00114 1.00171 0.990683
1.00151 1.00051 0.990798
1.0003 1.00321 0.990836
1.00071 1.00307 0.989843
1.00018 1.00172 0.992401
1.00019 1.00251 0.991583
1.00024 1.00286 0.991275
1.00021 1.00262 0.99137
1.0034 0.997187 0.990894
1.00227 0.998804 0.990995
1.00121 1.00234 0.989799
1.00031 1.00403 0.98968
1.00018 1.00061 0.993553
1.00016 1.00153 0.992669
1.00015 1.00217 0.992095
1.00013 1.00034 0.99394
1.00014 1.00132 0.992869
1.00011 1.00028 0.994034
1.00014 1.00199 0.992308
1.00011 1.00124 0.993027
1.00016 1.00246 0.991828
1.00012 1.00189 0.99234
1.00009 1.00119 0.99308
1.0001 1.00023 0.994105
1.00013 0.998944 0.995299
1.00014 0.998943 0.995293
1.00007 0.997096 0.99762
1.00013 0.999 0.995248
1.00004 0.997171 0.997609
0.999995 0.996119 0.998545
1.00002 0.997287 0.997565
0.999956 0.996206 0.998507
0.99991 0.996315 0.998456
0.999976 0.997403 0.9971
0.999943 0.997568 0.99701
0.999849 0.996438 0.999343
0.999911 0.997747 0.996903
0.999791 0.996627 0.999313
0.999734 0.996841 0.999271
1.00232 0.999621 0.990347
1.00294 0.998939 0.989773
1.00274 0.998091 0.990961
1.00303 0.999047 0.989456
1.00297 0.999445 0.989248
1.00289 0.999627 0.989196
1.00295 0.99958 0.989137
1.00296 0.999389 0.989296
1.00303 0.998537 0.990001
1.00266 0.998193 0.991058
1.00292 0.999588 0.989201
1.00304 0.999064 0.98957
1.00312 0.997886 0.990445
1.00287 0.999591 0.989242
1.00291 0.999423 0.989429
1.0028 0.998804 0.99028
1.00025 1.0018 0.992287
1.00028 1.00227 0.991824
1.00064 1.00294 0.990313
1.0023 0.998919 0.991088
1.00185 0.998881 0.991832
1.00132 1.00124 0.990707
1.00028 1.00195 0.99208
1.00029 1.00203 0.991906
1.00019 1.00273 0.991501
1.00009 0.999275 0.994873
1.00014 1.00203 0.992331
1.00019 1.00075 0.993306
1.00295 0.999566 0.989176
1.00312 0.99911 0.98927
1.00286 0.998356 0.990471
1.00025 1.00203 0.992041
1.00025 1.00293 0.990998
1.00085 1.00324 0.989764
1.00252 0.99776 0.991848
1.00184 0.999962 0.990899
1.0001 0.999145 0.995077
1.00016 1.00048 0.993789
1.00026 1.00211 0.991866
1.00027 1.00258 0.991447
1.00012 1.00279 0.991512
1.00015 1.00176 0.992551
1.00298 0.999394 0.989286
1.00322 0.998724 0.989474
1.00302 0.996921 0.991524
1.00263 0.997791 0.991901
1.00016 1.00253 0.991621
1.00113 1.00308 0.989333
1.00043 1.00365 0.990254
1.00011 0.999001 0.995277
1.00012 1.00004 0.994261
1.00014 1.00031 0.993831
1.00013 1.00152 0.992798
1.00011 1.0025 0.991806
1.00013 1.00332 0.990981
1.00028 1.0021 0.991742
1.00021 1.00334 0.991235
1.00019 1.00083 0.993315
1.00019 1.00196 0.992226
1.00235 0.999083 0.991102
1.00019 1.00243 0.991786
1.00019 1.00243 0.991818
1.00018 1.00244 0.991722
1.00118 1.00162 0.990717
1.00151 1.00055 0.990998
1.00025 1.00323 0.990777
1.00077 1.00325 0.989769
1.00018 1.00175 0.992365
1.0002 1.00249 0.991639
1.00022 1.00282 0.991334
1.00024 1.00264 0.991412
1.00335 0.997124 0.990939
1.00222 0.999051 0.99097
1.00126 1.00227 0.989901
1.00038 1.00399 0.989627
1.00015 1.00241 0.991861
1.00346 0.997655 0.99002
1.0002 1.00297 0.991257
1.00022 1.00335 0.990784
1.00354 0.996741 0.990768
1.00188 1.00118 0.989588
1.00072 1.00424 0.989158
1.00016 1.00155 0.992711
1.00014 1.00218 0.992098
1.00014 1.00267 0.991611
1.00011 1.00028 0.994034
1.00011 1.00124 0.993069
1.00015 1.00199 0.992222
1.0001 1.00022 0.994108
1.00009 1.0012 0.99307
1.00017 1.00246 0.991759
1.00011 1.0019 0.992425
1.00025 1.0027 0.991407
1.00018 1.00237 0.991774
1.00011 1.0018 0.992551
1.00007 1.00112 0.993267
1.0001 1.00019 0.994138
1.00012 0.998963 0.995294
1.00013 0.998945 0.995299
1.00008 0.997083 0.997604
1.00014 0.99894 0.995295
1.00007 0.997114 0.997619
1.00002 0.996058 0.998544
1.00004 0.997177 0.997615
0.999993 0.996089 0.998544
0.999953 0.996177 0.998503
1.00013 0.99886 0.995393
1.00001 0.997247 0.997182
0.99998 0.997412 0.997096
0.999897 0.996285 0.999364
0.999947 0.997576 0.997006
0.999843 0.996459 0.999337
0.999786 0.996649 0.999305
1.00268 0.998122 0.991037
1.00301 0.99854 0.990033
1.00295 0.999375 0.989308
1.00294 0.999586 0.98917
1.00291 0.999596 0.98922
1.00304 0.999096 0.989507
1.00305 0.997865 0.990585
1.00286 0.999444 0.989476
1.00317 0.998699 0.98965
1.00304 0.99821 0.990154
1.00294 0.999559 0.989179
1.00314 0.999091 0.989258
1.0029 0.998427 0.990378
1.00027 1.00203 0.992025
1.00023 1.00287 0.991128
1.00086 1.00315 0.989809
1.00245 0.997827 0.991902
1.00184 0.999893 0.990888
1.00023 1.00211 0.991864
1.00027 1.00255 0.991473
1.00012 1.00277 0.991554
1.0001 0.99913 0.995168
1.00015 1.00048 0.993794
1.00015 1.00178 0.992483
1.00297 0.999369 0.989325
1.00012 0.998998 0.995274
1.00011 1.00004 0.994207
1.00325 0.998702 0.989473
1.00297 0.997154 0.99135
1.00014 1.00248 0.99169
1.00043 1.00377 0.990082
1.00114 1.00286 0.989387
1.00255 0.997754 0.991863
1.00013 1.00032 0.993981
1.00013 1.00151 0.992796
1.00032 1.00215 0.991719
1.00017 1.00298 0.991388
1.0001 1.0034 0.99089
1.00012 1.00248 0.991812
1.00299 0.998935 0.989695
1.00328 0.998096 0.990102
1.00328 0.995515 0.992585
1.00186 1.00057 0.990276
1.0002 1.00287 0.991313
1.00062 1.00458 0.989042
1.0001 0.99994 0.994262
1.00011 1.00017 0.994123
1.00007 1.00101 0.993542
1.00011 1.00134 0.992903
1.00012 1.00226 0.992118
1.00007 1.00309 0.991215
1.00001 1.00412 0.990505
1.00004 1.00299 0.99143
1.00018 1.00179 0.992328
1.0002 1.00247 0.991695
1.00329 0.997059 0.990984
1.00218 0.999316 0.990945
1.00027 1.00266 0.991454
1.00021 1.00279 0.991394
1.00132 1.00224 0.990002
1.00045 1.00395 0.989573
1.00015 1.0024 0.991861
1.00343 0.99755 0.99008
1.00019 1.00292 0.991266
1.00024 1.00333 0.990655
1.00347 0.996783 0.990735
1.00198 1.00109 0.989602
1.00066 1.00432 0.989155
1.00013 1.00297 0.991378
1.00433 0.996187 0.989748
1.00034 1.0031 0.990978
1.00041 1.00418 0.989859
1.00304 0.998413 0.989634
1.00102 1.00343 0.988958
1.00311 1.00039 0.989076
1.00014 1.00219 0.992101
1.00013 1.00268 0.991615
1.00024 1.00284 0.9913
1.0001 1.00021 0.994112
1.00009 1.00121 0.99306
1.00011 1.00191 0.99251
1.00018 1.00246 0.991689
1.0001 1.00019 0.994138
1.00008 1.00114 0.993208
1.00025 1.00268 0.991376
1.00011 1.0018 0.992549
1.00017 1.00237 0.991853
1.00035 1.00262 0.991251
1.00014 1.00222 0.992101
1.00011 1.00175 0.992642
1.00008 1.00109 0.993174
1.0001 1.00021 0.994001
1.00007 1.00117 0.993339
1.00009 1.00026 0.993964
1.00012 0.998985 0.995282
1.00012 0.998967 0.995294
1.0001 0.997103 0.99717
1.00013 0.998946 0.9953
1.00009 0.997104 0.997389
1.00001 0.996005 0.999377
1.00006 0.997131 0.997617
1.00002 0.996025 0.998546
0.999991 0.996059 0.998542
1.00014 0.998748 0.995486
1.00013 0.998856 0.995393
1.00005 0.997109 0.99726
1.00001 0.997255 0.997389
0.999939 0.996148 0.999383
0.999983 0.99742 0.997092
0.999891 0.996305 0.999358
0.999837 0.996479 0.99933
1.003 0.997843 0.990724
1.00304 0.999127 0.989444
1.0029 0.999604 0.98924
1.00287 0.999444 0.989468
1.00308 0.998684 0.98976
1.00301 0.998486 0.990082
1.00291 0.998927 0.989925
1.0042 0.996661 0.990378
1.00325 0.997363 0.990727
1.00011 0.999879 0.994443
1.00296 0.999344 0.989363
1.00328 0.998678 0.989471
1.00293 0.997355 0.991177
1.00013 1.00244 0.991758
1.00042 1.00391 0.98991
1.00116 1.00257 0.989441
1.00247 0.997756 0.991826
1.00036 1.0022 0.991696
1.00013 1.00265 0.991541
1.00007 1.00349 0.990798
1.00012 0.998998 0.995272
1.00014 1.00246 0.991819
1.00012 1.00032 0.994131
1.00013 1.00151 0.992795
1.0001 1.00004 0.994153
1.00302 0.998901 0.989691
1.00011 0.999936 0.994323
1.00011 1.00018 0.994119
1.00007 1.001 0.993424
1.00332 0.997919 0.99013
1.00318 0.99584 0.992332
1.00023 1.00269 0.991362
1.00049 1.00461 0.988966
1.00183 1.00054 0.990325
1.0001 1.00132 0.992989
1.00013 1.00227 0.992077
1.00005 1.00303 0.991346
1.00001 1.00402 0.990586
1.00008 1.00307 0.991276
1.00317 0.99827 0.989837
1.00355 0.996598 0.991082
1.003 0.997791 0.991004
1.001 1.00355 0.989198
1.00007 1.00376 0.990627
1.00005 1.00088 0.99343
1.00008 1.00116 0.993139
1.00007 1.00173 0.992776
1.00009 1.00213 0.992274
1.00011 1.00275 0.991594
0.999993 1.00371 0.990876
0.99985 1.00451 0.990301
1.00014 1.0024 0.991861
1.00017 1.00288 0.991275
1.00341 0.997431 0.990139
1.00342 0.996816 0.990703
1.00207 1.00098 0.989615
1.00026 1.00331 0.990526
1.00059 1.00439 0.989153
1.00012 1.00294 0.991421
1.00434 0.996045 0.989743
1.00028 1.00305 0.991008
1.00027 1.00428 0.989833
1.00323 0.998241 0.989691
1.001 1.00357 0.988953
1.00314 0.999655 0.989341
1.00021 1.00306 0.99114
1.00444 0.996161 0.989463
1.00023 1.00352 0.990727
1.00005 1.0048 0.989604
1.00148 1.00158 0.989512
0.997692 1.00051 0.970757
0.998697 1.00185 0.985747
1.00244 0.999991 0.990781
0.994804 0.997923 0.979858
0.996364 0.996044 0.982053
1.00012 1.00268 0.991619
1.00022 1.00285 0.991309
1.0004 1.00269 0.991084
1.0001 1.00018 0.994138
1.00008 1.00115 0.993148
1.00011 1.0018 0.992548
1.00015 1.00237 0.991932
1.00026 1.00267 0.991345
1.00012 1.00176 0.992558
1.0001 1.00021 0.994058
1.00008 1.00109 0.993243
1.00031 1.00264 0.991298
1.00015 1.00221 0.992066
1.00014 1.00216 0.992165
1.00023 1.00264 0.991504
1.00013 1.00176 0.992438
1.00009 1.00109 0.993178
1.00009 1.00023 0.993982
1.00009 1.00112 0.993272
1.0001 1.00182 0.992617
1.00007 1.00126 0.993123
1.00007 1.00118 0.993229
1.00009 1.00028 0.99406
1.00009 1.00026 0.993967
1.00012 0.999012 0.995255
1.00012 0.998984 0.995282
1.00009 0.997133 0.997164
1.00012 0.99897 0.995293
1.0001 0.997105 0.99717
1.00002 0.995991 0.999377
1.00009 0.997125 0.997174
1.00003 0.996002 0.998954
1.00002 0.995993 0.998548
1.00015 0.998677 0.99554
1.00014 0.998741 0.995485
1.00007 0.997002 0.997323
1.00013 0.998851 0.995392
1.00004 0.997106 0.997465
0.999974 0.996032 0.999402
1.00002 0.997275 0.997166
0.999933 0.996188 0.999375
0.999885 0.996327 0.999351
1.00298 0.998674 0.98987
1.00287 0.999442 0.98946
1.00294 0.998771 0.990009
1.00417 0.996634 0.990419
1.0029 0.998921 0.989877
1.00312 0.99759 0.990483
1.0033 0.998459 0.989308
0.999576 0.998983 0.984053
1.0033 0.997765 0.991649
1.0001 0.999865 0.994468
1.00011 0.999877 0.994442
1.00005 1.00078 0.993672
1.00006 1.00074 0.993686
1.00304 0.998877 0.989688
1.00335 0.997787 0.990159
1.00307 0.996161 0.992078
1.00026 1.00253 0.99141
1.00036 1.00471 0.98889
1.00181 1.00041 0.990375
1.00006 1.00307 0.991262
1 1.00391 0.990667
1.00009 1.00305 0.991336
1.00011 1.00019 0.994115
1.00014 1.00228 0.992036
1.0001 1.0013 0.993075
1.00011 0.999932 0.994383
1.00006 1.00099 0.993305
1.00316 0.998349 0.989944
1.00005 1.00089 0.99355
1.00008 1.00114 0.993213
1.00007 1.00166 0.992759
1.00356 0.99643 0.991148
1.0029 0.997658 0.991008
1.0001 1.00372 0.990618
1.00093 1.00361 0.989175
1.00008 1.00213 0.992313
1.00012 1.0027 0.991603
0.999861 1.0045 0.990306
1.00001 1.00381 0.990789
1.00379 0.996702 0.989943
1.00405 0.995981 0.990579
1.0019 1.00237 0.988698
1.00005 1.00454 0.989929
1.00006 1.00186 0.992527
1.00005 1.00195 0.992451
1.00009 1.00297 0.991399
0.999996 1.00458 0.990004
0.996967 1.00086 0.968013
1.00011 1.0029 0.991464
1.00023 1.00298 0.991038
1.00438 0.995888 0.989739
1.0034 0.998057 0.98975
1.00097 1.0037 0.988949
1.00012 1.00441 0.989807
1.003 0.998965 0.989609
1.00018 1.00307 0.991165
1.00456 0.996132 0.989375
1.00016 1.00351 0.990735
1.00005 1.0048 0.989632
1.00148 1.00155 0.989523
0.997361 0.999562 0.971246
0.99844 1.00154 0.98229
1.00241 0.999511 0.991109
0.994767 0.998338 0.97888
0.996064 0.995885 0.981786
1.00015 1.0031 0.991175
0.995516 0.997364 0.97676
0.998033 0.995294 0.984453
1.00327 0.997065 0.990872
1.00009 1.00348 0.990701
1.00002 1.00476 0.990163
1.00224 0.999905 0.991638
0.996719 1.00064 0.970708
0.997798 1.00377 0.981576
0.994674 1.00105 0.977701
1.00186 0.996104 0.980832
1.00019 1.00286 0.991319
1.00039 1.00273 0.991096
1.00053 1.00266 0.990923
1.0001 1.00021 0.994115
1.00007 1.00109 0.993311
1.00013 1.00177 0.992475
1.00016 1.0022 0.99203
1.00028 1.00265 0.991345
1.0001 1.00023 0.993984
1.00014 1.00212 0.992154
1.00012 1.00177 0.992536
1.00009 1.00107 0.993243
1.00025 1.00263 0.991405
1.00018 1.00234 0.991852
1.00013 1.0034 0.990997
1.00012 1.00174 0.992567
1.0001 1.0011 0.993276
1.00009 1.00113 0.993272
1.00011 1.00182 0.992523
1.00012 1.00174 0.992573
1.0001 1.00194 0.992407
1.00016 1.00222 0.992057
1.00006 1.00248 0.991932
1.00009 1.00142 0.992949
1.00007 1.00127 0.993122
1.0001 1.00033 0.993991
1.00008 1.00118 0.993119
1.00009 1.00028 0.994001
1.00012 0.999064 0.995207
1.00009 1.00026 0.99397
1.00012 0.999009 0.995255
1.00006 0.997166 0.997585
1.00012 0.998983 0.995282
1.00009 0.997127 0.997378
1.00005 0.995998 0.998522
1.0001 0.997108 0.99717
1.00002 0.99599 0.999377
1.00004 0.995999 0.99853
1.0001 0.999898 0.994433
1.00015 0.998661 0.995555
1.00015 0.998674 0.995539
1.00009 0.996935 0.997362
1.00014 0.998735 0.995483
1.00007 0.996996 0.997325
0.999999 0.995946 0.999415
1.00003 0.997121 0.997657
0.999981 0.996071 0.99898
0.999957 0.996213 0.99853
1.00395 0.996687 0.990461
1.00292 0.998922 0.989829
1.00299 0.997826 0.990239
0.999448 0.998573 0.98644
1.00323 0.997832 0.991774
1.00335 0.998297 0.989219
1.00375 0.998434 0.99074
0.999133 0.999665 0.985894
0.996757 1.00124 0.966432
0.99527 0.99741 0.976198
0.996101 0.995191 0.98271
1.00004 1.00074 0.993591
1.0001 0.999868 0.994468
1.00011 0.999879 0.994442
1.00004 1.00079 0.993626
1.00004 1.00146 0.993067
1.00006 1.00131 0.993157
1.00006 1.00087 0.993574
1.00006 1.00075 0.993635
1.00314 0.99843 0.990051
1.00359 0.99621 0.991215
1.0028 0.997607 0.991011
1.00013 1.00366 0.990608
1.00087 1.00376 0.989152
0.999873 1.00447 0.990311
1.00003 1.00392 0.990701
1.00012 1.00265 0.991613
1.00007 1.00111 0.993287
1.00007 1.00214 0.992352
1.00005 1.0009 0.99367
1.00008 1.0016 0.992742
1.00384 0.997033 0.989801
1.00005 1.00185 0.992573
1.00005 1.00197 0.992457
1.00395 0.996064 0.99056
1.00168 1.002 0.988934
1.00012 1.00455 0.989797
1.0001 1.00298 0.991363
1.00002 1.00452 0.990028
1.00465 0.996722 0.988871
1.00298 1.00035 0.988864
1.00028 1.00456 0.98897
1.00005 1.00483 0.989647
1.00003 1.00235 0.992069
1.0001 1.00271 0.991637
1.00011 1.00386 0.990565
0.996465 0.996659 0.976666
0.997437 1.00142 0.970485
1.00017 1.00309 0.99119
1.0001 1.0035 0.990743
1.00471 0.99597 0.989287
1.00155 1.00167 0.989535
1.00004 1.0048 0.989661
0.997665 1.00072 0.965631
0.998389 1.00057 0.986978
1.0024 0.999226 0.991426
0.994632 0.998539 0.977273
0.995635 0.995814 0.981521
1.0002 1.003 0.991165
0.996164 0.995974 0.978398
0.997483 0.995591 0.984559
1.00322 0.997488 0.990756
1.00003 1.00381 0.990723
0.999908 1.00468 0.990228
1.00236 0.999931 0.991489
0.996185 1.00117 0.968798
0.997774 1.00494 0.983972
0.994536 1.00033 0.976216
1.00097 0.996822 0.981228
1.00056 1.00245 0.990931
0.998764 0.995813 0.98621
1.00801 0.997225 0.980015
1.00086 1.00105 0.991539
0.999769 1.00377 0.991862
1.00155 1.00168 0.995225
0.998893 1.00081 0.990644
0.995129 1.00342 0.968708
0.994925 0.998776 0.977433
1.00844 0.996815 0.976416
1.00037 1.00277 0.991109
1.00051 1.00269 0.990862
1.0002 1.00315 0.99078
1.0001 1.00023 0.993985
1.0001 1.00106 0.993308
1.00012 1.00179 0.992633
1.00015 1.00209 0.992143
1.00026 1.00261 0.991305
1.00009 1.00109 0.993277
1.00016 1.0023 0.99192
1.00012 1.00174 0.992565
1.00011 1.00342 0.990932
1.00006 1.00389 0.990635
1.00013 1.0027 0.991657
1.00012 1.00176 0.992562
1.00008 1.00113 0.993272
1.00011 1.00182 0.992429
1.00012 1.00174 0.992572
1.00009 1.00195 0.992403
1.00018 1.00217 0.992034
1.00007 1.00217 0.992195
1.00018 1.00219 0.992029
1.00019 1.00237 0.99172
1.00014 1.00281 0.991441
0.999934 1.003 0.99153
1.00004 1.00263 0.991778
1.00006 1.00248 0.991939
1.00009 1.00165 0.99271
1.00008 1.00143 0.992945
1.00012 1.00043 0.993862
1.00007 1.00127 0.993121
1.0001 1.00033 0.993989
1.00011 0.999141 0.995144
1.00009 1.00028 0.993941
1.00012 0.999057 0.995207
1.00004 0.997232 0.997566
1.00012 0.999006 0.995255
1.00007 0.997166 0.997368
1.00003 0.996009 0.998521
1.00009 0.997119 0.997164
1.00002 0.995999 0.999376
1.00002 0.995987 0.999377
1.00011 0.999976 0.994496
1.00015 0.998699 0.995517
1.0001 0.9999 0.994433
1.00009 0.99692 0.997373
1.00015 0.99866 0.995555
1.00015 0.998669 0.995539
1.00009 0.996939 0.997361
1.00001 0.995894 0.999423
1.00006 0.996996 0.997721
1.00001 0.995958 0.99901
0.999998 0.996077 0.998577
0.996135 0.995822 0.979449
0.997855 0.995013 0.984833
0.999573 0.998013 0.988712
1.00318 0.997992 0.991896
1.0034 0.998139 0.989129
0.99919 0.99962 0.990217
1.00386 0.998238 0.99063
0.997497 1.00037 0.970569
0.994598 0.998051 0.9797
0.995862 0.995012 0.982775
1.00068 0.998276 0.992897
0.99603 1.0019 0.971679
0.994518 0.99992 0.978755
0.999252 0.997687 0.980864
1.00003 1.00161 0.992834
1.00005 1.00074 0.993638
1.0001 0.999866 0.994468
1.00004 1.00079 0.993581
1.00002 1.00141 0.993118
1.00004 1.00161 0.992905
1.00005 1.00127 0.993173
1.00007 1.00116 0.993241
1.00006 1.00089 0.993502
1.00005 1.00077 0.993585
1.00385 0.997277 0.989661
1.0038 0.996098 0.990534
1.00143 1.00156 0.98917
1.00018 1.00456 0.989665
1.00003 1.00446 0.990052
1.00012 1.00299 0.991327
1.00005 1.00198 0.992462
1.00004 1.00184 0.99262
1.00473 0.996423 0.98867
1.00003 1.00238 0.992036
1.00011 1.00273 0.991545
1.00272 1.00032 0.98865
1.00027 1.00441 0.989301
1.00009 1.00483 0.989606
1.00015 1.00384 0.990487
1.00381 1.00047 0.987504
1.00043 1.0044 0.989488
1.00006 1.00442 0.989939
1.00003 1.00247 0.991981
1.00014 1.00281 0.991433
1.00026 1.00325 0.990796
1.00013 0.996299 0.982872
0.996102 0.997458 0.975495
0.997038 1.00102 0.967829
1.00025 1.00291 0.991155
0.999974 1.00412 0.990746
1.00323 0.997748 0.990642
0.999784 1.00453 0.99029
0.996621 0.996946 0.975573
0.996029 1.00115 0.973703
0.997714 1.00404 0.981389
1.00241 0.999767 0.991436
0.994543 1.00007 0.978804
0.997464 0.995577 0.984066
0.999127 0.997256 0.982078
1.00049 1.00273 0.990911
0.998939 0.996005 0.984808
1.00773 0.997278 0.980325
1.00097 1.00107 0.991582
0.99954 1.00359 0.991896
1.00242 1.00297 0.990748
0.998744 1.00181 0.985372
0.995539 1.00354 0.969325
0.995858 0.998844 0.9805
1.00574 0.997172 0.977849
0.999939 1.0026 0.992313
1.01125 0.99685 0.979486
1.01917 0.995458 0.96954
0.998469 1.00398 0.993403
0.99903 0.999247 0.997142
0.995578 1.00044 0.971112
0.997476 0.998647 0.98091
1.00648 0.996467 0.978988
1.00048 1.00273 0.990802
1.0003 1.00306 0.990915
1.00034 1.00268 0.991386
1.0001 1.00109 0.993277
1.00012 1.00174 0.992564
1.00015 1.00226 0.991988
1.00009 1.00346 0.990868
1.00012 1.00176 0.99256
1.00013 1.00266 0.991664
1.00003 1.00386 0.990626
0.999894 1.00394 0.991005
1.00017 1.00339 0.990834
1.00019 1.00229 0.991954
1.00012 1.00175 0.992571
1.00009 1.00196 0.9924
1.0002 1.00212 0.992011
1.00019 1.00218 0.992039
1.00007 1.0022 0.992196
1.00021 1.00234 0.991752
1.00018 1.00262 0.991539
1.00026 1.00248 0.991547
1.00017 1.00296 0.991214
1.00015 1.00282 0.991463
0.999941 1.00316 0.991367
1.00017 1.00305 0.991198
1.00009 1.00245 0.991988
0.9999 1.00288 0.991769
1.00005 1.00261 0.991839
1.00009 1.00191 0.992363
1.00007 1.00248 0.991946
1.00009 1.00166 0.99271
1.00014 1.0006 0.993654
1.00008 1.00143 0.992941
1.00011 1.00044 0.993858
1.0001 0.999242 0.995066
1.0001 1.00034 0.993986
1.00012 0.999133 0.995143
1.00001 0.997331 0.997532
1.00012 0.99905 0.995207
1.00005 0.997239 0.997344
0.999998 0.996087 0.998506
1.00008 0.997158 0.997153
1.00002 0.99602 0.998948
1.00001 0.996003 0.999375
1.00012 1.00016 0.994164
1.00014 0.998781 0.995445
1.00011 0.999983 0.994363
1.00009 0.996958 0.997346
1.00015 0.9987 0.995517
1.0001 0.999907 0.994433
1.00002 0.995883 0.999424
1.00009 0.996918 0.997373
1.00015 0.998657 0.995554
1.00009 0.996942 0.99736
1.00001 0.9959 0.999421
0.999997 0.99595 0.999413
0.999457 0.995986 0.984697
0.995911 0.996623 0.977543
1.00958 0.995221 0.979632
0.997781 0.995002 0.984569
0.999291 1.0002 0.985128
1.00401 0.998064 0.990494
0.996974 0.999282 0.97489
0.995189 0.99885 0.976533
0.995639 0.994713 0.982841
1.00068 0.998686 0.990459
0.996159 1.00128 0.969786
0.994466 0.999885 0.976646
1.00029 0.996995 0.981187
0.99959 0.999229 0.991396
0.995377 1.00149 0.970133
0.994767 0.999688 0.979758
1.00626 0.998103 0.978083
1.00005 1.0021 0.992376
1.00003 1.00159 0.992906
1.00006 1.00073 0.993684
1 1.00135 0.993168
1.00007 1.00189 0.992482
1.00004 1.00156 0.99296
1.00005 1.00123 0.993189
1.00011 1.00125 0.993149
1.00008 1.00114 0.993307
1.00006 1.00091 0.993431
1.00486 0.996222 0.988471
1.00249 1.00031 0.988443
1.00028 1.00433 0.989632
1.00014 1.00482 0.989565
1.00018 1.00382 0.990409
1.00013 1.00276 0.991454
1.00003 1.00242 0.992004
1.00005 1.00246 0.991993
1.00387 0.999932 0.98762
1.00012 1.00284 0.991486
1.00026 1.00334 0.99077
1.00043 1.00443 0.989341
1.00014 1.00444 0.989926
1.00207 1.00197 0.988823
0.999797 1.00429 0.99076
1.00031 1.0033 0.990583
1.00017 1.00264 0.99157
1.00034 1.00306 0.990793
1.01309 0.997233 0.977717
0.999985 0.996299 0.9838
0.996178 0.996624 0.978732
1.00041 1.00304 0.99089
0.999299 1.00345 0.991931
1.00108 1.00105 0.991611
0.998984 0.996422 0.984599
0.995433 1.00281 0.968256
0.998647 1.00172 0.98821
1.00339 1.00426 0.986116
0.995266 0.999254 0.976969
1.00732 0.99734 0.980635
1.00528 0.997195 0.978093
0.999902 1.00232 0.992443
1.01146 0.997105 0.978831
1.019 0.995343 0.969764
0.998666 1.00372 0.99296
0.999102 0.999944 0.994363
0.995631 1.00202 0.969682
1.0086 0.995586 0.977365
0.99627 0.998187 0.980082
0.999502 1.00192 0.993525
1.02486 0.9922 0.966666
1.02339 0.994289 0.966313
1.00611 0.997968 0.978462
0.996507 1.00211 0.997067
0.995438 0.998772 0.974822
0.99578 0.999332 0.980759
1.0004 1.00293 0.99105
1.00044 1.00284 0.990982
0.999972 1.0026 0.992419
1.00012 1.00176 0.992558
1.00013 1.00263 0.991671
1.00001 1.00378 0.990616
1.00019 1.00227 0.991974
1.00019 1.00334 0.99083
0.999968 1.00383 0.990777
0.999851 1.00368 0.991149
1.00033 1.0027 0.991205
1.00019 1.00217 0.992048
1.00006 1.00223 0.992197
1.00023 1.00231 0.991785
1.00027 1.00245 0.991548
1.00019 1.00258 0.99156
1.00004 1.00309 0.991354
1.00011 1.00292 0.991366
1.00007 1.00399 0.990433
1.00017 1.00283 0.991486
1.00002 1.00319 0.991349
1.00015 1.00345 0.99056
1.00015 1.0029 0.99133
1.00007 1.00246 0.991968
1.00012 1.00306 0.991219
1.00012 1.002 0.99232
1.00009 1.00248 0.991958
0.999867 1.00275 0.992008
1.00006 1.00259 0.9919
1.00009 1.00189 0.992432
1.00014 1.00086 0.993383
1.00009 1.00166 0.99271
1.00013 1.00061 0.99365
1.00008 0.999372 0.99496
1.00011 1.00045 0.993854
1.0001 0.999236 0.995064
0.999968 0.997454 0.997482
1.00012 0.999125 0.995142
1.00001 0.997343 0.997305
0.999958 0.996191 0.998484
1.00006 0.997233 0.997128
0.999989 0.996093 0.99894
0.999996 0.996049 0.999373
1.00014 1.00034 0.993793
1.00013 0.998933 0.995153
1.00012 1.00017 0.994162
1.00007 0.997046 0.997283
1.00014 0.998792 0.99536
1.0001 0.999988 0.99423
1.00001 0.995915 0.999415
1.00009 0.996951 0.997348
1.00015 0.998701 0.995518
1.00002 0.995882 0.999424
1.00009 0.996917 0.997373
1.00001 0.995906 0.999419
1.01292 0.996052 0.977455
0.999606 0.995874 0.983467
0.996074 0.996506 0.976503
1.00017 1.00134 0.992868
1.02008 0.993953 0.97051
1.00919 0.995896 0.979903
0.998059 0.995004 0.983752
1.00062 0.998514 0.988069
0.996099 1.00181 0.972049
0.994586 1.00022 0.979319
1.00038 0.996039 0.981379
0.999245 0.999469 0.986212
0.995074 1.00197 0.97162
0.995632 0.999608 0.978818
1.00485 0.997831 0.979218
0.998839 1.00013 0.984438
0.995112 1.00011 0.968366
0.997076 0.999063 0.976748
1.00735 0.996742 0.978493
1.00016 1.00227 0.991919
1.00005 1.00212 0.992331
1.00003 1.00157 0.992978
1.00012 1.0019 0.992375
1.00008 1.00185 0.992567
1.00005 1.0015 0.993014
1.00012 1.00125 0.993174
1.00008 1.00113 0.993373
1.00392 0.999364 0.987733
1.00044 1.00447 0.989195
1.00005 1.00241 0.992005
1.00023 1.00447 0.989913
1.00027 1.0034 0.990744
1.0001 1.00287 0.991539
1.00016 1.00265 0.99158
1.00232 1.00209 0.988905
1.00032 1.00302 0.990881
1.00031 1.00345 0.990534
0.99979 1.0042 0.990613
1.00026 1.00252 0.991592
1.00093 1.00097 0.992754
0.999531 1.00377 0.991786
1.0004 1.0026 0.991069
1.00031 1.00283 0.991206
1.02357 0.994041 0.96779
1.01337 0.996818 0.97719
0.999804 0.996355 0.984731
0.999854 1.00201 0.992575
0.99888 1.00353 0.992519
1.01168 0.99733 0.978179
0.995677 1.00033 0.971171
0.99919 1.00045 0.987728
0.996761 0.998419 0.977899
1.01883 0.995158 0.969987
1.01101 0.994941 0.975743
0.999595 1.00223 0.993232
1.02494 0.992116 0.966466
1.02456 0.993117 0.965124
0.996593 1.00394 0.997804
1.00468 0.997828 0.979337
0.995194 0.998467 0.974255
0.996968 0.998872 0.977388
0.998714 1.00236 0.995406
1.02822 0.991674 0.962824
1.02048 0.994938 0.968553
0.999208 0.998261 0.98059
0.997277 0.998346 0.976918
0.99612 1.00021 1.00249
0.994919 0.999996 0.970636
1.00051 1.00307 0.990577
1.00005 1.00241 0.992194
0.999033 1.00398 0.991715
1.00019 1.00225 0.991994
1.0002 1.00331 0.990826
1.00005 1.0038 0.990548
1.0003 1.0027 0.991218
0.999884 1.00358 0.991109
0.999705 1.00398 0.991104
1.00027 1.00244 0.991549
1.00021 1.00254 0.991582
1.00012 1.00311 0.991279
0.999854 1.0044 0.990414
1.00005 1.00288 0.991517
0.999987 1.00388 0.990567
1.0001 1.00459 0.989775
1.00051 1.00316 0.990407
1.0001 1.00321 0.991331
1.0002 1.00358 0.990448
1.00023 1.00253 0.991719
0.999959 1.00262 0.991906
1.00016 1.00279 0.991425
1.00009 1.00203 0.992358
1.00009 1.00246 0.991952
1.00006 1.00306 0.99124
1.00015 1.0011 0.993154
1.00013 1.00198 0.992306
1.00009 1.00251 0.991926
1.00009 1.00186 0.9925
1.00014 1.00086 0.993382
1.00006 0.999585 0.994798
1.00013 1.00062 0.993646
1.00008 0.999378 0.994954
0.999937 0.997598 0.996981
1.0001 0.999231 0.995061
0.999982 0.997465 0.997035
0.999885 0.996312 0.999348
1.00002 0.997338 0.997087
0.999951 0.996194 0.998925
0.999968 0.996127 0.999365
1.00017 1.00045 0.993613
1.00012 0.999131 0.994954
1.00015 1.00034 0.993865
1.00005 0.99718 0.997193
1.00013 0.998956 0.995129
1.00013 1.00018 0.994159
0.999996 0.995983 0.999399
1.00007 0.997037 0.997287
1.00013 0.998807 0.995275
1.00001 0.995908 0.999418
1.00009 0.996945 0.99735
1.00002 0.995882 0.999424
1.02317 0.993438 0.968235
1.01299 0.99576 0.977532
0.999506 0.995742 0.983647
1.00016 1.00134 0.992895
1.00021 1.00139 0.992681
1.00015 1.00194 0.992373
1.02263 0.993753 0.967989
1.01983 0.994006 0.97071
1.00878 0.996584 0.980176
0.998983 0.999783 0.990071
0.995299 1.00225 0.969775
0.994772 0.999227 0.977396
1.00548 0.996796 0.979102
0.9984 1.00014 0.988572
0.995137 1.00016 0.971997
0.995405 0.999169 0.981351
1.00896 0.995372 0.977154
0.998154 0.998237 0.990171
0.994947 0.999794 0.973562
0.996559 0.999368 0.979858
1.00796 0.997414 0.97615
1.00021 1.00237 0.991777
1.00014 1.00232 0.991914
1.00005 1.00217 0.992286
1.00013 1.00191 0.992368
1.00008 1.00182 0.992652
1.00012 1.00124 0.993199
1.00257 1.00221 0.988986
0.99979 1.00408 0.990467
1.00016 1.00267 0.99159
1.00032 1.00356 0.990485
1.0003 1.00303 0.99097
1.00026 1.00246 0.991592
1.00031 1.0028 0.991177
1.00102 1.00089 0.992685
1.00043 1.00256 0.991196
0.999353 1.00362 0.992527
1.00027 1.00251 0.991428
0.998625 1.0019 0.99572
0.999413 1.00071 0.99498
1.0003 1.00283 0.991033
1.02688 0.992941 0.963969
1.02401 0.993778 0.966912
1.01364 0.996315 0.976662
0.999677 1.00251 0.992939
0.996607 1.00109 0.998551
1.02503 0.992043 0.966266
0.995053 0.999123 0.983709
0.99762 0.999015 0.980346
1.0258 0.99195 0.963934
1.00532 0.996977 0.979348
0.998779 1.00199 0.995121
1.02783 0.991978 0.963005
1.02025 0.995291 0.968743
0.996042 1.00158 0.994859
1.00015 0.997759 0.980895
0.995562 0.998624 0.981355
0.994962 1.00004 0.974174
0.99789 1.00499 0.997057
1.02335 0.994723 0.966657
1.00957 0.996207 0.978477
0.995827 0.996367 0.982529
0.994824 0.999442 0.979459
0.995262 0.999335 0.973537
0.997067 0.999207 0.992397
1.00012 1.0022 0.991969
0.999126 1.00394 0.991781
0.99904 1.00479 0.991475
1.00028 1.00269 0.991231
0.999905 1.00347 0.991068
0.999628 1.00403 0.99114
0.999664 1.00493 0.990178
1.00021 1.00312 0.991205
1.00001 1.00442 0.990267
1.00014 1.00503 0.98923
0.999903 1.00376 0.990702
1.00014 1.00451 0.989774
1.00059 1.00448 0.989236
1.00076 1.00339 0.989794
1.0003 1.00249 0.991308
1.00049 1.00326 0.990305
1.00025 1.0037 0.990335
1.0002 1.00223 0.992052
1.00018 1.0024 0.991832
0.999987 1.00226 0.992244
0.999986 1.00258 0.991962
1.00016 1.00269 0.991521
1.00013 1.00127 0.993018
1.00011 1.002 0.992366
1.0001 1.00246 0.991937
1.00004 0.999838 0.994587
1.00015 1.00107 0.993161
1.00014 1.00196 0.992292
1.00015 1.00086 0.99338
1.00006 0.999591 0.994792
0.999889 0.997776 0.996895
1.00008 0.999383 0.994948
0.999941 0.997605 0.996977
0.999847 0.996458 0.999335
0.999987 0.997465 0.997035
0.999902 0.996327 0.998903
0.99993 0.99623 0.999354
1.00019 1.00059 0.993549
1.00012 0.999292 0.99496
1.00016 1.00047 0.993668
1.00002 0.997346 0.997083
1.00012 0.999147 0.995023
1.00016 1.00035 0.993937
0.999971 0.996089 0.999376
1.00005 0.997168 0.997198
1.00013 0.998978 0.995105
0.999999 0.995973 0.999404
1.00007 0.997028 0.99729
1.00001 0.995899 0.999421
1.02774 0.991351 0.963966
1.02353 0.993164 0.968071
1.01311 0.995499 0.977606
1.00023 1.00152 0.99252
1.00023 1.00207 0.992081
1.00016 1.00134 0.992923
1.0002 1.00142 0.992661
1.00017 1.00194 0.992299
1.00019 1.00196 0.992208
1.00018 1.0023 0.991909
1.01844 0.996394 0.96976
1.02391 0.992356 0.966875
1.01958 0.994083 0.970911
1.01093 0.994389 0.975814
0.997864 1.00019 0.984705
0.995134 0.999781 0.975607
0.995146 1.00004 0.977695
0.997714 0.997989 0.988029
0.994959 0.999147 0.971366
0.997255 0.998995 0.976959
1.00593 0.997943 0.977142
0.996294 0.997864 0.993312
0.994876 0.999911 0.970256
0.997513 1.00002 0.979517
1.00166 0.996604 0.980437
1.00028 1.00239 0.991638
1.00021 1.00235 0.991767
1.00012 1.00236 0.991909
1.00013 1.00193 0.992362
1.00112 1.00141 0.992616
0.999091 1.00356 0.99327
1.00026 1.00238 0.991591
1.0003 1.00277 0.991149
1.00046 1.00254 0.991322
1.00027 1.00254 0.991424
1.00032 1.00283 0.990964
0.99831 1.00242 0.996165
0.999442 1.00056 0.995303
1.00025 1.00304 0.991072
0.996878 1.00097 0.999931
0.999874 1.00347 0.991955
1.02343 0.995631 0.966526
1.02635 0.993474 0.964006
1.02446 0.993585 0.966034
0.998887 1.00162 0.994857
0.996125 1.00031 1.00206
1.02741 0.992289 0.963186
0.994915 0.999779 0.970771
0.995398 0.999534 0.977703
1.02001 0.995592 0.968934
1.00014 0.996568 0.981338
0.997928 1.00495 0.996919
1.02372 0.994471 0.966445
1.00914 0.997045 0.978788
0.997017 0.999219 0.998731
0.995608 0.995673 0.98272
0.995779 0.999661 0.978394
0.995218 0.999538 0.973143
0.99891 1.00421 0.995518
1.01307 0.997522 0.975895
0.997675 0.995726 0.984592
0.994458 1.00022 0.978648
0.995329 1.00093 0.971494
0.997272 0.999061 0.987312
0.999302 1.00391 0.991847
0.998984 1.00483 0.991446
1.0001 1.00405 0.99073
0.999551 1.00409 0.991176
0.999457 1.00496 0.99032
1.00027 1.00498 0.989153
1.00016 1.00443 0.99012
1.00024 1.00502 0.989112
1.00072 1.00455 0.98853
1.00017 1.00442 0.989772
1.0006 1.00447 0.989133
1.00087 1.00398 0.988904
1.00114 1.00267 0.989661
1.00071 1.00275 0.990628
1.00076 1.00345 0.989683
1.00023 1.00207 0.991865
1.00031 1.00249 0.991379
1.00047 1.00337 0.990203
1.00014 1.00216 0.992172
1.00017 1.00226 0.992032
1.00013 1.00227 0.991946
1.00008 1.00148 0.992861
1.00001 1.00221 0.992277
1.00001 1.00254 0.992019
1.00002 1.00007 0.994377
1.00013 1.00124 0.993026
1.00012 1.00197 0.992373
0.999854 0.997974 0.996789
1.00003 0.999842 0.994586
1.00016 1.00105 0.993168
1.00005 0.999597 0.994787
0.999892 0.997786 0.996889
0.999792 0.996619 0.999317
0.999944 0.997612 0.996973
0.999841 0.996476 0.99933
0.999886 0.996353 0.999341
1.00023 1.00164 0.992453
1.00023 1.00072 0.993343
1.00011 0.999449 0.994819
1.00019 1.00059 0.993549
0.999992 0.997517 0.996973
1.00012 0.999297 0.994962
1.00016 1.00048 0.993724
0.999938 0.996225 0.99935
1.00002 0.997334 0.997088
1.00013 0.999161 0.995092
0.999975 0.996073 0.999383
1.00005 0.997157 0.997203
1 0.99596 0.999409
1.02415 0.993841 0.966106
1.02744 0.991638 0.963965
1.02389 0.992913 0.967907
1.00022 1.00153 0.992543
1.00024 1.00207 0.992035
1.0002 1.00222 0.991901
1.00022 1.002 0.992052
1.00021 1.00238 0.99181
1.0002 1.00144 0.992642
1.00018 1.00194 0.992225
1.00019 1.00197 0.992211
1.00019 1.00227 0.991904
1.00017 1.0024 0.991833
1.00797 0.997995 0.979486
1.01821 0.996472 0.96996
1.02511 0.990944 0.96576
1.00529 0.997823 0.977315
0.997483 0.998947 0.979784
0.997355 0.997467 0.986369
0.994962 0.999184 0.973018
0.996047 0.997647 0.988276
0.994936 0.999958 0.97263
0.996399 0.999264 0.978447
1.00097 0.996963 0.981055
0.995158 0.998271 0.990682
0.99497 0.999141 0.973788
0.994796 0.999787 0.977828
0.996479 0.994603 0.982802
1.00006 1.00229 0.992098
1.00024 1.00247 0.991627
1.00021 1.00235 0.991757
0.998061 1.00236 0.996604
0.99948 1.00036 0.995628
1.00027 1.00257 0.991421
1.00034 1.00285 0.990896
1.00021 1.00298 0.991134
0.999654 1.00357 0.99177
0.996976 1.00036 0.999971
0.999297 1.00405 0.991534
0.998392 1.0037 0.995224
1.01271 0.998679 0.976785
1.02383 0.995254 0.965761
1.02584 0.994059 0.964043
0.997932 1.00489 0.996777
0.997035 0.998913 0.990429
1.02409 0.994215 0.966232
0.995315 0.999258 0.967868
0.994928 0.999663 0.97691
1.00871 0.99784 0.979099
0.995445 0.994903 0.982912
0.998936 1.00405 0.995718
1.01314 0.997136 0.975942
0.997572 0.995546 0.984401
0.99757 0.998879 0.990211
0.99443 1.00014 0.976608
0.995397 1.00136 0.968538
1.00016 1.00284 0.992812
0.99952 0.996642 0.984053
0.995312 0.99734 0.976138
0.995485 1.00189 0.969727
0.997534 1.00241 0.98718
0.998943 1.00488 0.991417
0.999985 1.00396 0.990709
1.00141 1.00297 0.989314
0.999267 1.00499 0.990461
1.00013 1.00496 0.989161
1.00115 1.00371 0.988582
1.00034 1.00501 0.988994
1.00072 1.00453 0.988547
1.00135 1.00283 0.989166
1.0006 1.0045 0.989029
1.00088 1.00387 0.988959
1.00149 1.00194 0.989708
1.00162 1.00107 0.990268
1.00094 1.0024 0.990237
1.00115 1.00256 0.989705
1.00052 1.00227 0.991344
1.00065 1.00282 0.990493
1.00076 1.00351 0.989572
1.00021 1.00188 0.992242
1.00023 1.00204 0.991946
1.00032 1.00249 0.991451
1.00006 1.00169 0.992701
1.00011 1.00216 0.992184
1.00015 1.00228 0.992013
0.999984 1.00034 0.994164
1.00009 1.00149 0.992863
1.00002 1.00216 0.99231
0.9998 0.99817 0.99715
1.00002 1.00008 0.994377
1.00014 1.00122 0.993033
0.999749 0.996822 0.998312
0.999846 0.997997 0.997009
1.00003 0.999847 0.994585
0.999896 0.997797 0.996883
0.999785 0.996644 0.99931
0.999834 0.996496 0.999325
1.00021 1.00187 0.992235
1.00023 1.00093 0.993128
1.00023 1.00167 0.99241
1.0001 0.999595 0.994692
1.00023 1.00073 0.993344
0.999958 0.997675 0.996879
1.00011 0.99945 0.994822
1.00019 1.00059 0.993549
0.999899 0.996373 0.999324
0.999989 0.997507 0.996978
1.00012 0.999304 0.994964
0.999942 0.996205 0.999358
1.00002 0.997323 0.997094
0.999978 0.996056 0.99939
1.01166 0.998846 0.976743
1.02426 0.993788 0.965942
1.02712 0.991911 0.963963
1.0002 1.00219 0.991975
1.00022 1.00154 0.992566
1.00024 1.00206 0.991989
1.00021 1.00202 0.992107
1.0002 1.00222 0.991941
1.00022 1.00232 0.9918
1.00021 1.00245 0.991684
1.00017 1.00241 0.991733
1.00018 1.00197 0.992214
1.0002 1.00223 0.991899
1.00017 1.0024 0.991832
1.00025 1.0027 0.991649
0.998173 0.995005 0.98422
1.00749 0.998225 0.979762
1.0181 0.99653 0.97016
0.999172 0.996951 0.981939
0.997474 0.999465 0.976544
0.994887 0.999849 0.970283
0.995684 0.997545 0.993771
0.995026 0.99822 0.996088
0.996036 0.99448 0.983044
0.994906 0.999514 0.96968
0.995297 0.999395 0.980297
0.996139 0.999134 0.994613
0.995084 0.998572 0.975542
0.994434 0.998971 0.979824
0.999617 1.00224 0.992957
1.00017 1.00219 0.992102
1.0002 1.00256 0.991617
0.997047 0.999685 1.00002
0.99956 1.00359 0.99158
1.00016 1.00294 0.991195
0.999482 1.00407 0.991511
0.99814 1.0038 0.99533
0.999084 1.00188 0.994283
0.999396 0.996524 0.984611
1.01348 0.998603 0.974994
1.02422 0.994916 0.964996
0.998884 1.00413 0.995957
0.997535 0.999174 0.991787
1.01326 0.996856 0.975985
0.995242 1.00045 0.974106
0.994503 1.00015 0.979282
0.997837 0.995482 0.983559
1.00013 1.00267 0.993106
0.99966 0.996506 0.982867
0.994605 0.99807 0.97969
0.997418 1.00225 0.983696
0.995199 1.00231 0.971001
1.00131 1.00256 0.990239
0.996204 0.99568 0.979543
0.996167 1.00181 0.971238
0.99785 1.00266 0.982986
0.99987 1.00393 0.990688
1.00111 1.00271 0.989447
1.00186 1.00154 0.989033
0.999968 1.00493 0.989169
1.0012 1.00355 0.988589
1.00239 1.00028 0.989868
1.00072 1.00452 0.988564
1.00129 1.00271 0.98925
1.00211 0.999728 0.990776
1.0009 1.00372 0.989013
1.00152 1.00175 0.989746
1.00206 0.99941 0.991063
1.00188 0.999573 0.991271
1.00141 1.0013 0.990479
1.00161 1.00097 0.990374
1.00073 1.00201 0.99089
1.00096 1.00237 0.990324
1.00115 1.00246 0.989749
1.00031 1.00189 0.992031
1.00045 1.00228 0.991336
1.00059 1.00289 0.990359
1.00011 1.00167 0.992654
1.00022 1.00189 0.992234
1.00023 1.00202 0.992028
0.999919 1.00074 0.993923
1.00008 1.00167 0.992711
1.00009 1.00215 0.992196
0.999752 0.998383 0.99655
0.999988 1.00035 0.994161
1.0001 1.00149 0.992864
0.99966 0.997009 0.999261
0.999803 0.998201 0.996638
1.00002 1.00008 0.994376
0.999733 0.996822 0.999285
0.999848 0.998011 0.996759
0.999779 0.996669 0.999302
1.00019 1.00193 0.992267
1.0002 1.00189 0.992246
1.0002 1.00122 0.992914
1.00007 0.999793 0.994539
1.00023 1.00095 0.993127
1.00023 1.0017 0.992367
0.999925 0.99781 0.996805
1.0001 0.999585 0.994697
1.00022 1.00073 0.993346
0.999855 0.996517 0.999303
0.999955 0.997666 0.996884
1.00011 0.999447 0.994825
0.999903 0.996354 0.999332
0.999986 0.997496 0.996983
0.999946 0.996185 0.999366
0.998881 0.996378 0.985872
1.01156 0.998902 0.976822
1.02437 0.99375 0.965778
1.0002 1.0022 0.991945
1.00016 1.00218 0.992146
1.00023 1.00229 0.991808
1.00021 1.00203 0.992161
1.0002 1.00222 0.99198
1.00023 1.00227 0.99179
1.00018 1.00241 0.991744
1.00022 1.00244 0.991695
1.0001 1.00288 0.991491
1.00013 1.00259 0.991611
1.00017 1.0024 0.991832
1.00018 1.00265 0.99167
0.99471 0.997636 0.979904
0.997745 0.995137 0.984607
1.00707 0.998424 0.980037
0.995786 0.994212 0.983288
0.994554 0.999696 0.977741
0.995248 0.999668 0.97702
0.994927 0.998264 0.990482
0.996004 0.999122 0.989534
0.994454 0.998627 0.977657
0.994996 0.998941 0.97518
0.997957 0.996043 0.989927
0.995399 1.00026 0.971977
1.00012 1.00335 0.991559
0.999783 1.00198 0.992923
1.00028 1.00209 0.992106
0.997678 1.00395 0.99546
0.999643 1.00409 0.99149
0.999795 1.00202 0.994051
1.00191 0.999467 0.992694
0.996564 0.995824 0.977361
0.999497 0.996806 0.984277
1.01419 0.9984 0.973205
1.00035 1.00239 0.993344
0.997308 1.00264 0.986998
0.999557 0.996288 0.983028
0.995322 1.0022 0.969619
0.995226 0.99891 0.976487
1.00137 1.00277 0.990369
0.996097 0.996467 0.977417
0.996456 1.0011 0.969596
0.99745 1.00233 0.987037
1.00136 1.00392 0.98859
0.996919 1.00089 0.96639
0.999184 0.999444 0.990791
1.0008 1.00238 0.98958
1.00167 1.00197 0.988923
1.0034 0.997835 0.989262
1.00127 1.00337 0.988596
1.00236 1 0.98984
1.00312 0.996609 0.992013
1.00123 1.00259 0.989335
1.00211 0.999518 0.990789
1.00274 0.996935 0.99219
1.00153 1.00156 0.989784
1.00207 0.999327 0.991068
1.00229 0.997964 0.991985
1.00204 0.998829 0.991826
1.00188 0.99946 0.991386
1.00168 1.00005 0.991185
1.00125 1.00125 0.990859
1.00141 1.00132 0.990496
1.0016 1.00086 0.99048
1.00058 1.00174 0.991512
1.00075 1.00202 0.990987
1.00097 1.00233 0.990411
1.00018 1.00162 0.992547
1.00033 1.0019 0.992017
1.00038 1.00229 0.991327
0.999882 1.00102 0.993716
1.00013 1.00164 0.99266
1.00024 1.00189 0.992226
0.99967 0.998664 0.996417
0.999935 1.0007 0.993925
1.0001 1.00165 0.992721
0.999621 0.997186 0.999237
0.999747 0.99841 0.996542
0.999993 1.00036 0.994157
0.999673 0.997019 0.998757
0.999804 0.998215 0.996638
0.999724 0.996861 0.999271
1.00016 1.00193 0.992326
1.0002 1.00194 0.992218
1.00018 1.00141 0.992758
1.0002 1.0019 0.992257
1.00019 1.00123 0.992909
1.00004 1.00009 0.994313
0.999885 0.997966 0.996726
1.00008 0.999781 0.994544
1.00022 1.00096 0.993126
0.999805 0.996656 0.999286
0.999921 0.997804 0.996809
1.00011 0.999578 0.994701
0.99986 0.996503 0.999309
0.999951 0.997658 0.996888
0.999908 0.996335 0.999339
0.995352 0.997597 0.977094
0.998736 0.996364 0.985346
1.01152 0.998966 0.976902
1.0002 1.00221 0.991915
1.00021 1.00233 0.991788
1.00013 1.00216 0.992179
1.0001 1.00223 0.99221
1.00013 1.00243 0.991902
1.00019 1.00241 0.991755
1.00021 1.00243 0.991705
1.00008 1.00283 0.991523
0.999963 1.00254 0.991781
1.00003 1.00289 0.991435
1.00057 1.00329 0.990618
1.00006 1.00287 0.991588
1.00013 1.00262 0.99169
0.996584 1.0003 0.968289
0.994779 0.998586 0.978686
0.997471 0.995341 0.98417
0.994471 0.998362 0.980373
0.994963 0.9993 0.969999
0.995971 0.99908 0.995169
0.998122 0.996309 0.992624
0.995555 0.999028 0.974469
1.00086 0.995954 0.989434
1.0021 1.00232 0.988344
0.99976 1.00332 0.991511
0.999932 1.0017 0.992887
1.00029 1.00218 0.993803
1.00226 0.998846 0.992056
0.997237 0.999671 0.968649
0.996302 0.996585 0.976109
0.999632 0.997255 0.98394
1.00147 1.00297 0.990517
0.996985 1.0028 0.983312
0.996271 0.996303 0.976367
0.996292 1.00111 0.971844
1.00172 1.00374 0.98865
0.997715 0.999934 0.970482
0.998832 1.00004 0.985656
1.00333 1.0021 0.987087
1.00074 0.998037 0.992713
1.00147 1.00241 0.98881
1.00332 0.998344 0.989142
1.00431 0.995538 0.990192
1.00229 0.999748 0.989814
1.00294 0.996639 0.992002
1.00336 0.995221 0.992604
1.00212 0.999285 0.990802
1.00273 0.996939 0.992118
1.00281 0.996555 0.992379
1.00207 0.999247 0.991074
1.00229 0.998045 0.991936
1.00231 0.998 0.991969
1.00198 0.998697 0.991947
1.00193 0.999316 0.991545
1.00187 0.999357 0.991501
1.00169 1.00006 0.991162
1.00158 1.00036 0.991101
1.00099 1.00123 0.991232
1.00124 1.00129 0.990839
1.0014 1.00136 0.990513
1.00038 1.00153 0.992261
1.00056 1.00177 0.991575
1.00077 1.00204 0.991083
0.99987 1.00118 0.993546
1.00021 1.0016 0.992539
1.00034 1.0019 0.992004
0.999593 0.998983 0.996232
0.999905 1.00097 0.993723
1.00014 1.00162 0.992666
0.999551 0.997387 0.999212
0.999665 0.998702 0.996409
0.999949 1.00067 0.993928
0.99961 0.997203 0.99923
0.999744 0.998439 0.996534
0.999665 0.99704 0.999246
1.00011 1.00208 0.992275
1.00015 1.00193 0.992331
1.00014 1.00156 0.992637
1.0002 1.00194 0.99217
1.00017 1.00145 0.992715
1.00003 1.00039 0.994046
1.00019 1.00124 0.992904
1.00005 1.00007 0.994315
0.999832 0.998189 0.996606
0.99975 0.996812 0.999267
0.999882 0.997957 0.996733
1.00009 0.999765 0.994549
0.999812 0.996648 0.999291
0.999918 0.997799 0.996813
0.999865 0.996489 0.999315
0.996941 1.00088 0.971432
0.995608 0.996914 0.978932
0.998378 0.996334 0.985953
1.00018 1.0024 0.991769
1.0001 1.00213 0.992212
1.00014 1.00243 0.99192
1.00009 1.00222 0.992204
1.00006 1.00242 0.99208
0.999986 1.00238 0.992075
1.00006 1.00276 0.991555
1.00001 1.00268 0.991704
0.999951 1.0031 0.991419
1.0001 1.00236 0.991611
1.00089 1.00283 0.990902
1.00163 1.0027 0.988838
1.00042 1.00312 0.990693
0.999981 1.00317 0.991564
1.00026 0.99788 0.98926
0.995971 1.00101 0.971182
0.995094 0.997954 0.976568
0.995496 0.999927 0.972069
0.99838 0.996461 0.995221
1.00089 0.995875 0.992985
1.00411 0.997208 0.990307
1.00208 1.00174 0.988971
0.999573 1.00332 0.991459
1.0033 0.998355 0.991419
0.999003 1.00065 0.985537
0.997605 1.00027 0.971144
0.996273 0.995899 0.97924
1.00212 1.00372 0.988715
0.998477 1.00042 0.989163
0.997288 0.998799 0.97467
1.00351 1.00122 0.987275
1.00057 0.998641 0.990227
1.0048 0.997391 0.988329
1.00393 0.998558 0.989741
1.00333 0.998946 0.989022
1.0043 0.995622 0.990218
1.00372 0.996379 0.990873
1.00276 0.99665 0.991988
1.00328 0.995473 0.992561
1.00328 0.996495 0.991573
1.00271 0.996969 0.992047
1.00276 0.996738 0.99232
1.00278 0.997618 0.991469
1.00229 0.998132 0.991887
1.00225 0.998077 0.991998
1.00215 0.998919 0.991368
1.00193 0.998571 0.992068
1.00191 0.999211 0.991611
1.00184 0.999836 0.991208
1.0017 1.00008 0.991139
1.00157 1.00039 0.991081
1.00139 1.0006 0.991277
1.00067 1.00119 0.991867
1.00097 1.00127 0.99129
1.00123 1.00133 0.990818
0.999939 1.00128 0.993311
1.00038 1.00153 0.992256
1.00055 1.00179 0.991637
0.999518 0.999346 0.996004
0.9999 1.00115 0.993549
1.00023 1.00159 0.992531
0.999485 0.997622 0.999171
0.999591 0.999022 0.996226
0.999926 1.00092 0.99373
0.999542 0.997412 0.999201
0.999663 0.998736 0.9964
0.9996 0.99722 0.999224
1.0001 1.0022 0.99217
1.00012 1.00206 0.992303
1.00008 1.00176 0.992594
1.00014 1.00193 0.992335
1.00013 1.00159 0.992632
0.999997 1.00067 0.99382
1.00017 1.00147 0.992672
1.00003 1.00039 0.994045
0.999773 0.998451 0.996457
1.00006 1.00006 0.994317
0.999834 0.998166 0.996616
0.99969 0.997004 0.999237
0.999758 0.9968 0.999273
0.99988 0.997947 0.996739
0.999818 0.996638 0.999296
0.999399 0.999798 0.987686
0.996753 1.00028 0.969691
0.996072 0.997175 0.976069
1.00032 1.00223 0.991771
1.00013 1.00244 0.991939
1.00008 1.0022 0.992199
1.00002 1.00244 0.992066
1.00003 1.00245 0.992059
0.999988 1.00203 0.992363
1.00006 1.00287 0.991627
0.999944 1.00332 0.991402
1.00022 1.00238 0.991708
1.00061 1.00273 0.991115
1.00161 1.00177 0.98968
1.0033 1.00029 0.987569
1.00169 1.00232 0.988773
1.00036 1.00282 0.990769
1.00456 0.995776 0.990382
1.00002 0.998238 0.987364
0.995868 1.00088 0.974533
1.0008 0.995787 0.988049
1.00415 0.997034 0.989966
1.00161 1.00102 0.989611
1.00296 0.999705 0.991096
0.999039 1.00018 0.98946
0.997268 0.999701 0.968974
1.00368 1.00033 0.987455
1.00047 0.998571 0.987797
1.00489 0.996873 0.988151
1.00391 0.998321 0.990237
1.00419 0.996836 0.988833
1.00326 0.998483 0.98878
1.00422 0.995637 0.990245
1.00372 0.996235 0.990942
1.00333 0.997825 0.990284
1.00321 0.995695 0.992517
1.00327 0.996554 0.991555
1.00311 0.997997 0.990493
1.0027 0.996918 0.992261
1.00267 0.997693 0.991589
1.00256 0.998792 0.990659
1.00218 0.99815 0.992027
1.00214 0.998929 0.991371
1.00204 0.99957 0.990935
1.00188 0.999104 0.991677
1.00182 0.999757 0.991237
1.00164 1.00018 0.991156
1.00157 1.00041 0.99106
1.00136 1.00061 0.991234
1.00105 1.0008 0.991702
1.00015 1.00116 0.993027
1.00066 1.00122 0.991927
1.00094 1.00131 0.991348
0.999463 0.999773 0.995692
0.99996 1.00126 0.993314
1.00039 1.00153 0.992251
0.999406 0.997892 0.999118
0.999532 0.999366 0.995999
0.99993 1.00111 0.993552
0.999471 0.997651 0.999156
0.999591 0.999058 0.99622
0.999532 0.997436 0.999189
1.00022 1.00214 0.991903
1.0001 1.00218 0.992177
1.0001 1.00186 0.992524
1.00014 1.00205 0.992332
1.00007 1.00177 0.992617
0.999926 1.001 0.993646
1.00012 1.00163 0.992627
0.999984 1.00071 0.993816
0.999692 0.998753 0.99631
1.00002 1.0004 0.994043
0.999778 0.998419 0.996466
0.999625 0.997211 0.999204
0.999836 0.998143 0.996625
0.9997 0.996981 0.999247
0.999766 0.996789 0.999279
1.00363 0.996596 0.991402
0.999395 1.00009 0.983997
0.997008 1.00064 0.971133
1.00037 1.00174 0.991979
1.00095 1.00167 0.991081
1.00018 1.00225 0.991833
1.00006 1.00246 0.992056
1.00002 1.00249 0.992037
1.00012 1.00201 0.992279
1.00147 1.00128 0.990392
1.00028 1.00241 0.991805
1.00019 1.00265 0.991328
1.00154 1.00171 0.989822
1.00298 1.00007 0.988231
1.00417 0.997382 0.988578
1.0034 1.00017 0.987573
1.00184 1.00196 0.988708
1.00442 0.99588 0.99059
0.999941 0.998915 0.984635
1.00435 0.99695 0.989608
1.00283 0.998127 0.991063
1.00288 0.999096 0.991343
0.999178 1.00019 0.984459
1.00499 0.996398 0.987974
1.00393 0.99813 0.990703
1.00421 0.996975 0.988881
1.00337 0.99848 0.989061
1.00326 0.998555 0.989516
1.00292 0.998307 0.990347
1.00373 0.996 0.991012
1.00335 0.997633 0.990332
1.00321 0.998641 0.98958
1.00326 0.996652 0.991536
1.00306 0.99799 0.990554
1.00293 0.998772 0.989922
1.00257 0.997763 0.991708
1.00257 0.998801 0.990653
1.00243 0.999419 0.990318
1.00213 0.99894 0.991373
1.00205 0.999566 0.990933
1.00186 1 0.990865
1.0018 0.999676 0.991265
1.00162 1.00016 0.991161
1.00128 1.00048 0.991524
1.00134 1.00061 0.991191
1.00101 1.00079 0.991685
1.00043 1.00087 0.992772
0.999488 1.00007 0.995361
1.00016 1.00115 0.993032
1.00065 1.00124 0.991988
0.999302 0.998238 0.999046
0.999499 0.99975 0.995683
0.999981 1.00124 0.993317
0.999386 0.997936 0.999098
0.999545 0.999384 0.995993
0.999458 0.997682 0.999141
1.00049 1.00197 0.99136
1.00022 1.00212 0.991845
1.00024 1.00178 0.992325
1.0001 1.00215 0.992184
1.00008 1.00186 0.992526
0.999872 1.00127 0.993494
1.00007 1.00178 0.992641
0.999905 1.00104 0.993642
0.999597 0.999109 0.996148
0.99997 1.00074 0.993811
0.9997 0.998717 0.996317
0.999548 0.997439 0.999169
0.999784 0.998387 0.996476
0.999637 0.997187 0.999214
0.99971 0.996962 0.999257
1.00354 0.996519 0.990631
1.00359 0.996871 0.991436
0.999597 1.0001 0.987405
1.00155 1.00102 0.990791
1.00022 1.00171 0.992309
1.0015 1.00099 0.990222
1.00096 1.00168 0.991034
1.00003 1.0023 0.991896
1.0028 1.00016 0.988878
1.00026 1.00199 0.992196
1.00155 1.00116 0.990339
1.0037 0.998473 0.988675
1.0015 1.00166 0.989963
1.00309 1.00014 0.988174
1.00406 0.997652 0.988558
1.00333 1.00015 0.987577
1.00427 0.995985 0.99079
1.00277 0.99816 0.99108
1.00277 0.997892 0.990976
1.0028 0.998467 0.991595
1.00422 0.997053 0.98893
1.00348 0.99852 0.98934
1.00337 0.998492 0.989451
1.00292 0.998385 0.990413
1.00289 0.998815 0.990044
1.00335 0.997516 0.99038
1.00323 0.998582 0.989616
1.00309 0.998956 0.989496
1.003 0.997992 0.990616
1.00294 0.998814 0.989898
1.0028 0.999279 0.989727
1.00257 0.998811 0.990646
1.00244 0.999417 0.990306
1.00221 0.999821 0.990361
1.00205 0.999563 0.990932
1.00187 0.999999 0.990862
1.00153 1.00029 0.991207
1.00159 1.00013 0.991167
1.00128 1.00048 0.991528
1.00069 1.0006 0.992527
1.00098 1.00078 0.991667
1.00042 1.00088 0.992775
0.99953 1.0002 0.995791
0.999229 0.998808 0.997473
0.999526 1.00001 0.995698
1.00016 1.00115 0.993037
0.999282 0.998311 0.999017
0.999532 0.999734 0.995674
0.999368 0.997981 0.999078
1.0019 1.00024 0.990416
1.00088 1.00164 0.990924
1.00057 1.00195 0.991293
1.00045 1.00163 0.992065
1.00023 1.00208 0.991788
1.00022 1.00177 0.992336
0.999877 1.0014 0.993366
1.00006 1.00186 0.992528
0.999848 1.0013 0.993491
0.999514 0.999485 0.995944
0.999883 1.00108 0.993638
0.9996 0.999071 0.996154
0.999453 0.997708 0.999126
0.999707 0.99868 0.996324
0.999564 0.997413 0.99918
0.99965 0.997163 0.999224
1.0033 0.997889 0.990141
1.00353 0.996758 0.990665
1.00354 0.997199 0.991468
1.00258 0.999992 0.989434
1.00132 1.00105 0.991057
1.00005 1.00166 0.992638
1.00165 1.00094 0.990332
1.00098 1.0017 0.990986
1.00357 0.999024 0.988439
1.00282 1.00022 0.988757
1.00161 1.00109 0.990286
1.00374 0.998504 0.988633
1.00323 1.00017 0.988117
1.00397 0.997869 0.988536
1.00264 0.998707 0.990525
1.00274 0.99814 0.991023
1.0027 0.997607 0.99089
1.0035 0.99842 0.989388
1.00293 0.998439 0.99048
1.00291 0.998798 0.990068
1.00278 0.999219 0.98985
1.00325 0.998512 0.989652
1.00311 0.998923 0.989484
1.00292 0.999183 0.989578
1.00295 0.998855 0.989873
1.00281 0.99928 0.989716
1.00254 0.999613 0.989908
1.00245 0.999416 0.990293
1.00221 0.999818 0.990352
1.00184 1.00012 0.990779
1.00187 0.999994 0.990859
1.00154 1.00029 0.991205
1.00093 1.00044 0.992215
1.00127 1.00048 0.991533
1.00068 1.00061 0.992525
0.999599 1.00029 0.995592
1.00042 1.00089 0.992778
0.999583 1.00018 0.995749
0.999101 0.999336 0.997251
0.999195 0.998781 0.998197
0.999569 0.999948 0.996027
0.999265 0.998379 0.998987
1.00262 0.999727 0.989617
1.00146 1.00089 0.990855
1.00178 1.0001 0.990806
1.00068 1.00153 0.991661
1.00099 1.00163 0.990913
1.00066 1.00193 0.991226
1.00041 1.00166 0.992072
0.99997 1.00141 0.993179
1.0002 1.00176 0.992348
0.999862 1.0014 0.993362
0.99946 0.999848 0.995695
0.999825 1.00133 0.993488
0.999505 0.999462 0.995948
0.999335 0.998042 0.999068
0.999603 0.999033 0.996159
0.999474 0.997672 0.99914
0.99958 0.997386 0.99919
1.00324 0.998597 0.989495
1.0033 0.99793 0.990115
1.00354 0.997041 0.9907
1.00329 0.99912 0.988775
1.00258 1.00003 0.989435
1.00113 1.00107 0.991324
1.00179 1.00087 0.990442
1.00358 0.999028 0.988462
1.00284 1.00027 0.988635
1.00378 0.99853 0.988592
1.00275 0.999097 0.990002
1.00271 0.998751 0.990383
1.0027 0.998141 0.990967
1.00273 0.999544 0.989653
1.00292 0.998785 0.990093
1.00278 0.999233 0.989822
1.00277 0.99936 0.989735
1.00314 0.998895 0.989472
1.00292 0.999183 0.989582
1.00267 0.999528 0.989743
1.00281 0.999283 0.989704
1.00254 0.999618 0.989904
1.00213 0.999907 0.990423
1.00222 0.999815 0.990342
1.00185 1.00012 0.990773
1.00118 1.00031 0.991851
1.00154 1.00029 0.991203
1.00093 1.00044 0.992205
0.99968 1.00029 0.995449
1.00068 1.00062 0.992524
0.999654 1.00026 0.995557
0.999002 0.999694 0.997125
0.999637 1.00015 0.995707
0.999074 0.999348 0.997287
0.999146 0.998739 0.99894
1.00304 0.999576 0.989061
1.00226 1.00004 0.990096
1.00254 0.999808 0.989754
1.00114 1.00108 0.991374
1.00145 1.00083 0.990851
1.00167 0.999995 0.991194
1.00018 1.00136 0.992794
1.00069 1.00153 0.991657
1.00107 1.00164 0.990901
1.00038 1.0017 0.992079
0.99995 1.00142 0.993177
0.999449 1.00018 0.995392
0.999847 1.0014 0.993358
0.999433 0.999861 0.995698
0.999192 0.998464 0.998997
0.999496 0.999437 0.995952
0.999362 0.997986 0.999086
0.999495 0.997635 0.999153
1.00323 0.998805 0.989349
1.00333 0.998579 0.98938
1.00329 0.997964 0.990088
1.00337 0.999056 0.98876
1.00257 1.00009 0.989435
1.0036 0.999034 0.988485
1.00282 0.9994 0.989584
1.00273 0.999144 0.989991
1.00278 0.998795 0.990241
1.00271 0.999534 0.98967
1.00268 0.99975 0.989548
1.00279 0.999245 0.989794
1.00276 0.999371 0.989739
1.00263 0.999595 0.989795
1.00293 0.999182 0.989585
1.00267 0.999521 0.989751
1.00227 0.999817 0.990242
1.00254 0.999622 0.989901
1.00213 0.999912 0.990417
1.0014 1.00014 0.99159
1.00185 1.00011 0.990768
1.00119 1.0003 0.991839
0.999799 1.00022 0.995335
1.00094 1.00044 0.992196
0.999737 1.00027 0.995415
0.998941 0.999927 0.997043
0.999711 1.00023 0.995521
0.998969 0.999728 0.997157
0.999045 0.999355 0.997326
1.00313 0.99895 0.989377
1.00269 0.999747 0.989485
1.00306 0.999523 0.989014
1.00172 1.00042 0.990802
1.00222 1.00009 0.990164
1.00244 0.999878 0.989893
1.00055 1.00103 0.992344
1.00112 1.00105 0.991259
1.00143 1.00075 0.990846
0.999501 1.00046 0.995011
1.00018 1.00135 0.992796
1.00069 1.00153 0.991653
0.99993 1.00144 0.993174
0.999396 1.00024 0.995398
0.999046 0.998961 0.998912
0.999405 0.999879 0.995701
0.999221 0.998384 0.99902
0.999392 0.997932 0.999105
1.00307 0.999083 0.989419
1.00326 0.998804 0.989319
1.00341 0.998561 0.989266
1.00345 0.998983 0.988745
1.00284 0.999593 0.989345
1.00282 0.99939 0.989611
1.00271 0.999188 0.98998
1.0027 0.999524 0.989688
1.00268 0.999728 0.989538
1.00257 0.99981 0.989694
1.00275 0.999382 0.989742
1.00261 0.999605 0.989824
1.00229 0.999804 0.99015
1.00266 0.999515 0.98976
1.00226 0.999814 0.990244
1.00152 1.00001 0.991474
1.00213 0.999919 0.990412
1.00141 1.00013 0.991582
0.999916 1.00011 0.994416
1.0012 1.0003 0.991827
0.999841 1.00023 0.99488
0.998916 0.99999 0.998706
0.999794 1.00025 0.99538
0.998903 0.99998 0.997073
0.998935 0.99976 0.997191
1.00302 0.99905 0.989565
1.00277 0.999402 0.989586
1.00311 0.998993 0.989406
1.00214 0.999957 0.990161
1.00267 0.999743 0.989555
1.00307 0.999476 0.988967
1.00098 1.00053 0.991755
1.00173 1.00041 0.990794
1.00218 1.00015 0.990231
0.999642 1.00053 0.994635
1.00056 1.001 0.992241
1.0011 1.00101 0.991143
0.998947 0.999471 0.998807
0.999436 1.00053 0.995026
1.00017 1.00134 0.992799
0.999339 1.00031 0.995405
0.999069 0.998867 0.99894
0.999257 0.998302 0.999042
1.00294 0.99929 0.98946
1.00306 0.999079 0.989439
1.00329 0.998807 0.98929
1.00282 0.999734 0.989301
1.00286 0.999604 0.989311
1.00283 0.999384 0.989637
1.00268 0.999704 0.989529
1.00258 0.999791 0.989697
1.00233 0.999852 0.990163
1.0026 0.999614 0.989853
1.00228 0.999822 0.990253
1.00159 0.999952 0.991208
1.00226 0.999809 0.990247
1.00152 1 0.991473
0.999978 1.00003 0.994375
1.00141 1.00013 0.991574
0.999919 1.00012 0.994411
0.998933 1.00001 0.998699
0.999873 1.00023 0.994442
0.998911 1.00006 0.997872
0.998865 1.00004 0.997105
1.0029 0.999281 0.989659
1.00275 0.999327 0.989771
1.003 0.999016 0.989582
1.00231 0.999745 0.990187
1.00276 0.999409 0.989614
1.00309 0.999034 0.989435
1.00137 1.00015 0.99139
1.00217 0.999998 0.990292
1.00265 0.999737 0.989625
0.9998 1.00041 0.994398
1.00104 1.00051 0.991708
1.00174 1.00041 0.990787
0.998916 0.999856 0.998717
0.999582 1.00059 0.99465
1.00057 1.00097 0.992139
0.998949 0.999365 0.998843
0.99937 1.0006 0.99504
0.999093 0.998762 0.998966
1.00282 0.999539 0.989487
1.00294 0.999301 0.989462
1.00305 0.999072 0.98946
1.00254 0.999783 0.989808
1.00279 0.999756 0.989328
1.00287 0.999616 0.989277
1.00259 0.999775 0.9897
1.00234 0.999841 0.990167
1.00171 0.999914 0.991011
1.00228 0.999842 0.990356
1.00159 0.999957 0.991302
1.00004 1.00001 0.994269
1.00152 0.999997 0.991471
0.999979 1.00003 0.994374
0.998963 1.00001 0.998691
0.999921 1.00012 0.994406
0.998945 1.00002 0.998696
0.998928 1.00014 0.997001
1.00273 0.999466 0.989802
1.00288 0.999229 0.98967
1.00238 0.999654 0.990162
1.00276 0.999326 0.989766
1.00298 0.998983 0.989598
1.00157 0.999975 0.991394
1.00233 0.999741 0.990177
1.00276 0.999416 0.989641
0.99993 1.00021 0.99431
1.00139 1.00017 0.991457
1.0022 1.00004 0.990423
0.998931 1.00006 0.998673
0.999764 1.00045 0.994408
1.00109 1.00049 0.991662
0.998903 0.999772 0.998745
0.999525 1.00066 0.994664
0.998952 0.999258 0.998877
1.0025 0.999711 0.989973
1.0028 0.999558 0.989511
1.00293 0.999316 0.989464
1.00184 0.999859 0.990802
1.00254 0.999805 0.989808
1.00277 0.999776 0.989355
1.00234 0.999831 0.990172
1.00169 0.999912 0.991044
1.00014 0.999966 0.994112
1.00158 0.99996 0.991397
1.00004 1.00001 0.994265
0.999007 1.00001 0.998669
0.999979 1.00004 0.994373
0.998979 1.00002 0.998685
0.99896 1.00004 0.998692
1.00241 0.999699 0.990083
1.00273 0.99942 0.989781
1.00286 0.999173 0.989681
1.00165 0.999883 0.991315
1.00238 0.999655 0.990157
1.00276 0.999326 0.989761
1.00002 1.00005 0.99429
1.00157 0.999984 0.991395
1.00235 0.999737 0.990167
0.998966 1.0001 0.998663
0.999912 1.00023 0.994319
1.00142 1.00019 0.991524
0.998911 1 0.998685
0.999732 1.00049 0.994419
0.998884 0.999685 0.998776
1.00182 0.99985 0.991028
1.00251 0.999724 0.989864
1.00278 0.999573 0.989536
1.00021 0.999917 0.994014
1.00183 0.999857 0.990819
1.00254 0.999828 0.989807
1.00168 0.999908 0.991077
1.00014 0.999976 0.994107
0.999084 0.999997 0.998624
1.00005 1.00002 0.994261
0.999032 1.00001 0.998653
0.998994 1.00002 0.998677
1.00173 0.999865 0.991186
1.00242 0.99968 0.990044
1.00273 0.999376 0.989761
1.0001 0.999971 0.995102
1.00166 0.999892 0.991313
1.0024 0.999657 0.990152
0.99901 1.00006 0.99866
1.00001 1.00004 0.994295
1.00157 0.999993 0.991396
0.998947 1.00008 0.998665
0.999894 1.00025 0.994328
0.99889 0.999955 0.998698
1.00022 0.999939 0.993998
1.00182 0.999841 0.990947
1.00252 0.99973 0.989756
0.999152 0.999981 0.998589
1.00021 0.99992 0.99401
1.00183 0.999854 0.990835
1.00014 0.999986 0.9941
0.999108 1 0.998608
0.999058 1.00002 0.998636
1.00019 0.999954 0.994979
1.00174 0.999863 0.991188
1.00243 0.999661 0.990004
0.998978 1.00004 0.998709
1.00008 0.999961 0.994254
1.00166 0.999899 0.991311
0.998992 1.00006 0.998662
1.00001 1.00004 0.994299
0.998924 1.00006 0.998668
0.999157 0.999961 0.996742
1.00023 0.999927 0.994466
1.00182 0.999838 0.990867
0.999155 0.999985 0.998583
1.00021 0.999925 0.994009
0.999129 1.00001 0.998595
0.999038 0.999975 0.996884
1.00016 0.999948 0.994571
1.00174 0.99986 0.99119
0.999008 1.00001 0.997795
1.00009 0.999955 0.994246
0.998975 1.00005 0.998663
0.999162 0.999984 0.998581
1.00021 0.999908 0.994026
0.999165 0.999985 0.998579
0.999082 0.999985 0.997735
1.00015 0.999939 0.994134
0.999024 1.00002 0.998656
0.999141 0.999982 0.998594
0.999083 1 0.998629

TENSORS stress float
0.00117479 3.14269e-05 3.09932e-05
3.14269e-05 0.000221648 -5.88667e-06
3.09932e-05 -5.88667e-06 0.000205953
0.00281202 -5.65641e-05 2.86381e-05
-5.65641e-05 0.00103244 3.39025e-06
2.86381e-05 3.39025e-06 0.00103496
0.00117587 3.65296e-05 1.25408e-05
3.65296e-05 0.00022496 -2.06687e-06
1.25408e-05 -2.06687e-06 0.000208748
0.00131091 1.62128e-05 4.28458e-05
1.62128e-05 0.000305652 -4.43873e-06
4.28458e-05 -4.43873e-06 0.000284814
0.00121253 2.80664e-05 3.47635e-05
2.80664e-05 0.000251618 -5.47069e-06
3.47635e-05 -5.47069e-06 0.000233025
0.00114362 3.30338e-05 2.7776e-05
3.30338e-05 0.000192521 -6.18899e-06
2.7776e-05 -6.18899e-06 0.00018117
0.00113272 1.08768e-05 7.24551e-06
1.08768e-05 0.000167692 -2.53205e-06
7.24551e-06 -2.53205e-06 0.000132603
0.00282363 -5.73884e-05 3.8552e-07
-5.73884e-05 0.00103553 -1.35756e-07
3.8552e-07 -1.35756e-07 0.00103861
0.00320062 -8.04323e-05 1.09719e-05
-8.04323e-05 0.00127265 1.19027e-06
1.09719e-05 1.19027e-06 0.0012637
0.00284238 -6.71738e-05 1.12299e-05
-6.71738e-05 0.00106322 1.30238e-06
1.12299e-05 1.30238e-06 0.00106196
0.00109526 -3.19279e-05 2.29289e-05
-3.19279e-05 0.000144727 3.83017e-06
2.29289e-05 3.83017e-06 0.000142578
0.000789899 -1.84467e-05 5.55064e-06
-1.84467e-05 -1.03046e-05 3.20285e-06
5.55064e-06 3.20285e-06 -3.97767e-05
0.00158548 -9.7169e-06 5.27117e-05
-9.7169e-06 0.000428726 9.91332e-07
5.27117e-05 9.91332e-07 0.000407992
0.00135651 -4.1815e-05 6.73248e-06
-4.1815e-05 0.000335773 1.51168e-06
6.73248e-06 1.51168e-06 0.000312298
0.0011706 4.27212e-05 -7.0746e-06
4.27212e-05 0.000225192 1.72522e-06
-7.0746e-06 1.72522e-06 0.00020835
0.00132664 3.1783e-05 1.86252e-05
3.1783e-05 0.000318484 -1.32752e-06
1.86252e-05 -1.32752e-06 0.000295929
0.00112948 3.685e-05 1.09765e-05
3.685e-05 0.000187113 -2.23511e-06
1.09765e-05 -2.23511e-06 0.000175631
0.00122255 3.52242e-05 1.44144e-05
3.52242e-05 0.00026026 -1.79034e-06
1.44144e-05 -1.79034e-06 0.00024076
0.00117874 1.05192e-05 -4.63899e-06
1.05192e-05 0.000189361 4.55363e-07
-4.63899e-06 4.55363e-07 0.000154639
0.00404831 5.48161e-05 5.11089e-05
5.48161e-05 0.00168631 -5.70662e-07
5.11089e-05 -5.70662e-07 0.00167803
0.00137955 1.47521e-05 4.57314e-05
1.47521e-05 0.000336845 -3.52641e-06
4.57314e-05 -3.52641e-06 0.000316325
0.00124911 2.19117e-05 3.88904e-05
2.19117e-05 0.000275726 -5.06956e-06
3.88904e-05 -5.06956e-06 0.000255484
0.00129997 7.02076e-06 8.46305e-06
7.02076e-06 0.000228657 -2.76126e-06
8.46305e-06 -2.76126e-06 0.000188068
0.00118536 7.70464e-06 7.57333e-06
7.70464e-06 0.000189814 -2.58853e-06
7.57333e-06 -2.58853e-06 0.00015242
0.00113983 3.33847e-05 2.55574e-05
3.33847e-05 0.000175786 -6.25416e-06
2.55574e-05 -6.25416e-06 0.000169604
0.00107656 1.77486e-05 6.48911e-06
1.77486e-05 0.000143038 -2.61858e-06
6.48911e-06 -2.61858e-06 0.000111424
0.00143492 -3.49398e-05 2.44651e-06
-3.49398e-05 0.000255682 -1.10528e-06
2.44651e-06 -1.10528e-06 0.000196873
0.00283557 -5.81891e-05 -2.70594e-05
-5.81891e-05 0.00103857 -3.38449e-06
-2.70594e-05 -3.38449e-06 0.00104224
0.00220008 -5.41851e-05 -1.35084e-05
-5.41851e-05 0.000761909 -5.51289e-07
-1.35084e-05 -5.51289e-07 0.000747924
0.00201642 -5.02717e-05 -1.09749e-05
-5.02717e-05 0.000641639 -8.73701e-07
-1.09749e-05 -8.73701e-07 0.000635349
0.00270824 -5.34072e-05 2.74286e-07
-5.34072e-05 0.000965088 -8.50738e-08
2.74286e-07 -8.50738e-08 0.000971343
0.000734068 -1.9337e-05 1.20613e-07
-1.9337e-05 -3.60148e-05 -4.80866e-08
1.20613e-07 -4.80866e-08 -6.56675e-05
0.00146804 -2.06938e-05 3.77781e-05
-2.06938e-05 0.000390807 2.88826e-06
3.77781e-05 2.88826e-06 0.000369695
0.00128662 -3.15332e-05 2.99752e-05
-3.15332e-05 0.000285743 3.19503e-06
2.99752e-05 3.19503e-06 0.000270095
0.00184654 5.9392e-06 1.90294e-05
5.9392e-06 0.000521606 2.72491e-06
1.90294e-05 2.72491e-06 0.000487829
0.00260435 -5.41065e-05 9.88724e-06
-5.41065e-05 0.000901905 1.49802e-06
9.88724e-06 1.49802e-06 0.000910712
0.00168352 -1.55736e-05 1.52686e-05
-1.55736e-05 0.000445576 2.5859e-06
1.52686e-05 2.5859e-06 0.000418231
0.000779247 -2.76878e-05 6.32125e-06
-2.76878e-05 -1.94079e-05 4.96252e-06
6.32125e-06 4.96252e-06 -4.53316e-05
0.000907237 2.03014e-05 2.84557e-06
2.03014e-05 2.42868e-05 1.18504e-06
2.84557e-06 1.18504e-06 -3.44294e-05
0.002584 -4.11475e-05 2.37404e-05
-4.11475e-05 0.000873967 3.96055e-06
2.37404e-05 3.96055e-06 0.000886872
0.00422734 -5.55345e-05 1.26533e-06
-5.55345e-05 0.00177125 -1.94279e-07
1.26533e-06 -1.94279e-07 0.00176266
0.00260526 -5.55677e-05 -1.94714e-05
-5.55677e-05 0.000965881 -5.07047e-08
-1.94714e-05 -5.07047e-08 0.000949222
0.0043751 -4.27559e-05 5.68448e-05
-4.27559e-05 0.00183967 1.50435e-07
5.68448e-05 1.50435e-07 0.0018315
0.00138149 -3.4693e-05 7.71473e-06
-3.4693e-05 0.000340685 1.21019e-06
7.71473e-06 1.21019e-06 0.000317939
0.000772534 -1.23122e-05 1.11432e-05
-1.23122e-05 -7.38432e-05 2.35047e-06
1.11432e-05 2.35047e-06 -0.000117609
0.00364336 -9.96004e-05 8.83993e-06
-9.96004e-05 0.00150297 1.02234e-06
8.83993e-06 1.02234e-06 0.00148987
0.00205066 -1.80273e-05 2.6477e-05
-1.80273e-05 0.000594677 2.99865e-06
2.6477e-05 2.99865e-06 0.000559956
0.00135893 4.90874e-05 -6.13758e-06
4.90874e-05 0.000340296 1.84904e-06
-6.13758e-06 1.84904e-06 0.00031571
0.00123293 4.44423e-05 -6.98908e-06
4.44423e-05 0.000269319 1.78005e-06
-6.98908e-06 1.78005e-06 0.000248703
0.00110088 4.11022e-05 -6.74715e-06
4.11022e-05 0.000174516 1.662e-06
-6.74715e-06 1.662e-06 0.000162875
0.00123096 9.3186e-06 -1.70454e-05
9.3186e-06 0.000214121 3.45074e-06
-1.70454e-05 3.45074e-06 0.000179806
0.00276669 4.76833e-05 -1.94864e-05
4.76833e-05 0.00103634 -8.0482e-07
-1.94864e-05 -8.0482e-07 0.00102077
0.00137027 3.28001e-05 2.02173e-05
3.28001e-05 0.000336859 -9.97615e-07
2.02173e-05 -9.97615e-07 0.000314482
0.00110041 3.6328e-05 9.84377e-06
3.6328e-05 0.000156852 -2.25371e-06
9.84377e-06 -2.25371e-06 0.000150763
0.00127022 3.30328e-05 1.65072e-05
3.30328e-05 0.000290669 -1.55232e-06
1.65072e-05 -1.55232e-06 0.000269096
0.00135394 2.81888e-06 -7.31029e-06
2.81888e-06 0.000253309 1.37894e-07
-7.31029e-06 1.37894e-07 0.000213574
0.00112427 1.79319e-05 -4.03469e-06
1.79319e-05 0.000165932 4.6552e-07
-4.03469e-06 4.6552e-07 0.000134591
0.00123247 6.48382e-06 -5.51655e-06
6.48382e-06 0.000211164 3.99199e-07
-5.51655e-06 3.99199e-07 0.000174335
0.00149299 -3.76673e-05 -1.33634e-06
-3.76673e-05 0.000282567 5.46129e-07
-1.33634e-06 5.46129e-07 0.000223294
0.00417449 5.71224e-05 5.13768e-05
5.71224e-05 0.00174514 -3.93557e-09
5.13768e-05 -3.93557e-09 0.0017367
0.00141086 1.58188e-05 4.76618e-05
1.58188e-05 0.000350958 -2.67208e-06
4.76618e-05 -2.67208e-06 0.0003308
0.00201577 3.07647e-05 8.56135e-06
3.07647e-05 0.000566582 -1.24192e-06
8.56135e-06 -1.24192e-06 0.000530571
0.00135594 1.23516e-05 9.00286e-06
1.23516e-05 0.00024653 -2.32071e-06
9.00286e-06 -2.32071e-06 0.000206104
0.0012341 6.24118e-06 7.87873e-06
6.24118e-06 0.000207287 -2.79318e-06
7.87873e-06 -2.79318e-06 0.000167984
0.00170357 -3.92881e-05 3.20677e-06
-3.92881e-05 0.000314589 -1.54261e-06
3.20677e-06 -1.54261e-06 0.000250724
0.00120692 -3.36979e-05 3.13485e-06
-3.36979e-05 0.000117294 -1.55185e-06
3.13485e-06 -1.55185e-06 5.63203e-05
0.00120329 3.2634e-05 2.49241e-05
3.2634e-05 0.000191442 -6.19008e-06
2.49241e-05 -6.19008e-06 0.000190058
0.00104542 3.6052e-05 4.89969e-06
3.6052e-05 0.000127608 -2.78611e-06
4.89969e-06 -2.78611e-06 0.000100194
0.00132525 -2.44146e-05 2.12791e-06
-2.44146e-05 0.000225405 -1.11655e-06
2.12791e-06 -1.11655e-06 0.000168202
0.001129 -5.18188e-05 2.0191e-06
-5.18188e-05 5.3259e-05 -1.07154e-06
2.0191e-06 -1.07154e-06 -1.92216e-05
0.00319983 -7.02992e-05 -3.1458e-05
-7.02992e-05 0.00126624 -2.67667e-06
-3.1458e-05 -2.67667e-06 0.00125932
0.0027469 -5.40728e-05 -2.57986e-05
-5.40728e-05 0.000981421 -3.49568e-06
-2.57986e-05 -3.49568e-06 0.000988329
0.00292488 -6.17785e-05 -2.86421e-05
-6.17785e-05 0.001099 -3.18955e-06
-2.86421e-05 -3.18955e-06 0.00109908
0.000684167 -2.59392e-05 -4.21365e-06
-2.59392e-05 -5.81757e-05 -3.6634e-06
-4.21365e-06 -3.6634e-06 -8.82616e-05
0.00357356 -7.00232e-05 7.34724e-07
-7.00232e-05 0.00146068 -1.64201e-07
7.34724e-07 -1.64201e-07 0.00145118
0.00308516 -6.5444e-05 5.22727e-07
-6.5444e-05 0.00120029 -1.4114e-07
5.22727e-07 -1.4114e-07 0.00119564
0.000708976 1.63525e-05 -4.96195e-08
1.63525e-05 -5.01719e-05 -1.46798e-07
-4.96195e-08 -1.46798e-07 -9.05398e-05
0.00186285 -4.19308e-05 -9.51413e-06
-4.19308e-05 0.000523349 -1.0291e-06
-9.51413e-06 -1.0291e-06 0.000528396
0.000744094 -7.25624e-06 -4.66677e-08
-7.25624e-06 -2.83051e-05 -5.14309e-08
-4.66677e-08 -5.14309e-08 -6.13456e-05
0.00115823 -3.83986e-05 4.92065e-06
-3.83986e-05 0.000174312 5.29661e-07
4.92065e-06 5.29661e-07 0.000150755
0.000893473 1.72603e-05 6.92823e-08
1.72603e-05 1.79658e-05 -2.32418e-07
6.92823e-08 -2.32418e-07 -4.09109e-05
0.00260574 -4.52219e-05 2.45677e-05
-4.52219e-05 0.000893198 3.78161e-06
2.45677e-05 3.78161e-06 0.000904324
0.000815378 -2.80374e-05 4.146e-06
-2.80374e-05 -3.12403e-05 3.76691e-06
4.146e-06 3.76691e-06 -4.65709e-05
0.000771269 2.52453e-05 9.26059e-06
2.52453e-05 -3.31098e-05 4.53256e-06
9.26059e-06 4.53256e-06 -7.54642e-05
0.000763771 7.79563e-06 8.04642e-06
7.79563e-06 -2.08912e-05 4.52439e-06
8.04642e-06 4.52439e-06 -5.84166e-05
0.00101048 3.73997e-05 3.19077e-06
3.73997e-05 2.19509e-05 1.68686e-06
3.19077e-06 1.68686e-06 -4.07317e-05
0.00158184 -4.3196e-05 1.20551e-05
-4.3196e-05 0.000380059 3.30311e-06
1.20551e-05 3.30311e-06 0.000362579
0.000937268 2.92254e-05 2.77098e-06
2.92254e-05 2.93675e-05 1.2784e-06
2.77098e-06 1.2784e-06 -2.93552e-05
0.000909365 1.09114e-05 2.66194e-06
1.09114e-05 2.94874e-05 1.69928e-06
2.66194e-06 1.69928e-06 -2.81029e-05
0.000948605 4.62095e-05 1.45452e-06
4.62095e-05 1.79809e-05 1.33566e-07
1.45452e-06 1.33566e-07 -5.21219e-05
0.00254048 -3.70343e-05 2.24796e-05
-3.70343e-05 0.000845043 4.08788e-06
2.24796e-05 4.08788e-06 0.000859649
0.00260564 -4.12891e-05 3.4498e-07
-4.12891e-05 0.000883859 -8.43494e-08
3.4498e-07 -8.43494e-08 0.000896913
0.00379072 -6.7188e-05 -4.20253e-05
-6.7188e-05 0.00156712 -1.60371e-06
-4.20253e-05 -1.60371e-06 0.00155743
0.00411784 -5.46077e-05 -4.94513e-05
-5.46077e-05 0.00171909 -6.40466e-07
-4.94513e-05 -6.40466e-07 0.00171057
0.00433177 -3.37395e-05 2.16864e-06
-3.37395e-05 0.00181826 -2.50228e-07
2.16864e-06 -2.50228e-07 0.00181058
0.00270595 -4.82399e-05 -2.05651e-05
-4.82399e-05 0.00100946 1.08389e-08
-2.05651e-05 1.08389e-08 0.000993413
0.00142861 -4.3249e-06 1.15562e-05
-4.3249e-06 0.000259872 -1.21559e-07
1.15562e-05 -1.21559e-07 0.000220479
0.00245059 -5.67806e-05 -1.69058e-05
-5.67806e-05 0.000893081 -2.09944e-07
-1.69058e-05 -2.09944e-07 0.000876257
0.00132106 2.94218e-06 9.42625e-06
2.94218e-06 0.000227864 -3.31988e-08
9.42625e-06 -3.31988e-08 0.000189712
0.00433829 2.37181e-05 5.23261e-05
2.37181e-05 0.0018206 6.15379e-07
5.23261e-05 6.15379e-07 0.00181302
0.000747857 -2.06915e-06 9.23752e-06
-2.06915e-06 -9.54624e-05 7.84253e-07
9.23752e-06 7.84253e-07 -0.000139541
0.00208473 -3.45392e-05 2.85276e-05
-3.45392e-05 0.000603207 2.41826e-06
2.85276e-05 2.41826e-06 0.000567613
0.00117981 1.80571e-06 5.46187e-06
1.80571e-06 -2.34849e-06 1.54001e-06
5.46187e-06 1.54001e-06 -7.18847e-05
0.00196785 1.13082e-05 2.3161e-05
1.13082e-05 0.000564396 2.65116e-06
2.3161e-05 2.65116e-06 0.000529155
0.0011455 2.34088e-05 4.68764e-06
2.34088e-05 1.38823e-05 1.73569e-06
4.68764e-06 1.73569e-06 -5.37379e-05
0.00153174 1.69188e-05 -4.9908e-05
1.69188e-05 0.000406034 7.86315e-07
-4.9908e-05 7.86315e-07 0.000385824
0.0013773 4.27529e-05 -7.13087e-06
4.27529e-05 0.000344437 1.58707e-06
-7.13087e-06 1.58707e-06 0.00032072
0.00104365 3.92771e-05 -6.35176e-06
3.92771e-05 0.000129362 1.60687e-06
-6.35176e-06 1.60687e-06 0.000123381
0.00129992 4.66597e-05 -6.56174e-06
4.66597e-05 0.000310424 1.85535e-06
-6.56174e-06 1.85535e-06 0.000287236
0.00138736 -1.66986e-06 -2.32129e-05
-1.66986e-06 0.000267177 3.08958e-06
-2.32129e-05 3.08958e-06 0.000228507
0.00127717 4.05553e-06 -1.90245e-05
4.05553e-06 0.000231182 3.30559e-06
-1.90245e-05 3.30559e-06 0.000195021
0.00118729 1.75847e-05 -1.51834e-05
1.75847e-05 0.000196414 3.53538e-06
-1.51834e-05 3.53538e-06 0.000165365
0.00155193 -4.02299e-05 -5.13327e-06
-4.02299e-05 0.0003098 2.19658e-06
-5.13327e-06 2.19658e-06 0.000250073
0.00424046 6.12635e-05 -2.12011e-06
6.12635e-05 0.0017768 -2.5587e-07
-2.12011e-06 -2.5587e-07 0.00176818
0.00138301 2.98286e-05 2.05606e-05
2.98286e-05 0.000340222 -6.72577e-07
2.05606e-05 -6.72577e-07 0.000318745
0.00109586 1.52375e-05 -1.23914e-05
1.52375e-05 9.79641e-05 1.63149e-07
-1.23914e-05 1.63149e-07 5.74169e-05
0.0013999 5.0866e-06 -7.52848e-06
5.0866e-06 0.00026592 8.88868e-08
-7.52848e-06 8.88868e-08 0.000226562
0.00193884 4.29938e-05 1.73776e-05
4.29938e-05 0.00056844 -1.90986e-06
1.73776e-05 -1.90986e-06 0.00057123
0.00131428 3.27603e-05 -3.57232e-06
3.27603e-05 0.000261171 4.38491e-07
-3.57232e-06 4.38491e-07 0.000235598
0.00128798 3.40884e-06 -6.49176e-06
3.40884e-06 0.000231642 2.70316e-07
-6.49176e-06 2.70316e-07 0.000193105
0.0015422 -3.62892e-05 -2.03084e-06
-3.62892e-05 0.000232481 4.40362e-07
-2.03084e-06 4.40362e-07 0.000167881
0.00142603 -2.91016e-05 -1.10322e-06
-2.91016e-05 0.000272975 6.34115e-07
-1.10322e-06 6.34115e-07 0.000215185
0.00138314 -3.75943e-05 -5.86271e-07
-3.75943e-05 0.000204924 1.59413e-07
-5.86271e-07 1.59413e-07 0.000144421
0.00112224 -5.13301e-05 7.08247e-09
-5.13301e-05 5.02995e-05 -3.97066e-08
7.08247e-09 -3.97066e-08 -2.20887e-05
0.000730805 4.76343e-06 8.95534e-06
4.76343e-06 -9.64685e-05 -1.48606e-06
8.95534e-06 -1.48606e-06 -0.000139669
0.0013723 1.75552e-05 9.6604e-06
1.75552e-05 0.000249478 -1.83039e-06
9.6604e-06 -1.83039e-06 0.000210176
0.00151333 1.18265e-05 4.89454e-06
1.18265e-05 0.000176956 -9.55748e-07
4.89454e-06 -9.55748e-07 0.000111238
0.00142333 -2.61647e-05 4.39234e-06
-2.61647e-05 0.000154084 -1.40052e-06
4.39234e-06 -1.40052e-06 8.89665e-05
0.00131121 -3.66662e-05 3.44304e-06
-3.66662e-05 0.000143297 -1.80181e-06
3.44304e-06 -1.80181e-06 8.01266e-05
0.00162738 -4.79986e-05 1.60357e-06
-4.79986e-05 0.000216404 -6.45264e-07
1.60357e-06 -6.45264e-07 0.000140348
0.00274587 4.9937e-05 2.54347e-05
4.9937e-05 0.000968335 -3.61502e-06
2.54347e-05 -3.61502e-06 0.000977766
0.00114485 -4.89175e-05 1.85348e-06
-4.89175e-05 3.76809e-05 -8.92602e-07
1.85348e-06 -8.92602e-07 -3.4323e-05
0.000736723 3.74033e-05 3.99545e-06
3.74033e-05 -4.22538e-05 -3.57084e-06
3.99545e-06 -3.57084e-06 -6.69409e-05
0.000797304 -1.2517e-05 2.23548e-06
-1.2517e-05 -2.53118e-05 -1.68731e-06
2.23548e-06 -1.68731e-06 -8.32509e-05
0.00117678 -5.50184e-05 1.97627e-06
-5.50184e-05 0.00010448 -1.48097e-06
1.97627e-06 -1.48097e-06 3.10135e-05
0.00121784 -5.94891e-05 1.4525e-06
-5.94891e-05 6.85566e-05 -6.12204e-07
1.4525e-06 -6.12204e-07 -8.6783e-06
0.000749106 2.93502e-05 4.37749e-06
2.93502e-05 -5.74327e-05 -3.86722e-06
4.37749e-06 -3.86722e-06 -7.53914e-05
0.000930959 -2.27794e-06 2.48563e-06
-2.27794e-06 1.92014e-05 -2.59743e-06
2.48563e-06 -2.59743e-06 -2.91173e-05
0.00341654 -7.27763e-05 -3.51725e-05
-7.27763e-05 0.00138162 -2.37422e-06
-3.51725e-05 -2.37422e-06 0.0013725
0.0030223 -6.5741e-05 -2.94974e-05
-6.5741e-05 0.00116456 -2.93979e-06
-2.94974e-05 -2.93979e-06 0.00116096
0.000676005 1.30805e-05 -6.00949e-06
1.30805e-05 -6.24237e-05 -3.54427e-06
-6.00949e-06 -3.54427e-06 -0.000103153
0.00269914 -4.97651e-05 -2.53008e-05
-4.97651e-05 0.00094666 -3.63529e-06
-2.53008e-05 -3.63529e-06 0.000956116
0.000675118 -3.6164e-05 -3.9585e-06
-3.6164e-05 -6.97855e-05 -3.76699e-06
-3.9585e-06 -3.76699e-06 -9.5536e-05
0.000672337 -7.80796e-06 -5.68229e-06
-7.80796e-06 -5.95265e-05 -3.2971e-06
-5.68229e-06 -3.2971e-06 -9.31767e-05
0.000872094 1.5536e-05 -2.51712e-06
1.5536e-05 7.60401e-06 -1.52323e-06
-2.51712e-06 -1.52323e-06 -5.12958e-05
0.00263873 -4.53983e-05 3.04043e-07
-4.53983e-05 0.000908453 -9.36419e-08
3.04043e-07 -9.36419e-08 0.000919732
0.000800189 -2.71275e-05 1.38801e-07
-2.71275e-05 -3.97377e-05 -1.31921e-08
1.38801e-07 -1.31921e-08 -5.47815e-05
0.001271 1.7767e-05 7.92499e-06
1.7767e-05 0.000223647 3.37329e-08
7.92499e-06 3.37329e-08 0.000185016
0.00119854 -1.23466e-06 5.91474e-06
-1.23466e-06 0.000203693 3.48841e-07
5.91474e-06 3.48841e-07 0.000169459
0.000992552 3.75887e-05 1.24522e-07
3.75887e-05 1.2932e-05 -6.63836e-09
1.24522e-07 -6.63836e-09 -4.96073e-05
0.000782955 -3.49178e-05 -4.47557e-08
-3.49178e-05 -2.75363e-05 -2.72215e-09
-4.47557e-08 -2.72215e-09 -4.86901e-05
0.000912888 2.80866e-05 -8.37892e-08
2.80866e-05 1.73648e-05 4.70833e-08
-8.37892e-08 4.70833e-08 -4.12897e-05
0.000884575 7.99511e-06 -4.43698e-08
7.99511e-06 1.87312e-05 -1.51956e-07
-4.43698e-08 -1.51956e-07 -3.90045e-05
0.0009152 4.54764e-05 -4.59343e-08
4.54764e-05 4.25756e-07 -1.36411e-07
-4.59343e-08 -1.36411e-07 -6.98139e-05
0.000803364 -3.18426e-05 4.29442e-06
-3.18426e-05 -2.76104e-05 3.64399e-06
4.29442e-06 3.64399e-06 -4.57682e-05
0.000830939 -2.44219e-05 3.79388e-06
-2.44219e-05 -3.08571e-05 3.81455e-06
3.79388e-06 3.81455e-06 -4.337e-05
0.000911532 2.0497e-06 2.8403e-06
2.0497e-06 7.6993e-06 2.02596e-06
2.8403e-06 2.02596e-06 -3.97415e-05
0.0010514 3.48083e-05 3.53242e-06
3.48083e-05 1.27331e-05 1.75288e-06
3.53242e-06 1.75288e-06 -5.2008e-05
0.000976314 3.5821e-05 2.90675e-06
3.5821e-05 3.22586e-05 1.60096e-06
2.90675e-06 1.60096e-06 -2.80842e-05
0.00117194 5.28218e-05 1.78435e-06
5.28218e-05 5.59165e-05 1.28062e-06
1.78435e-06 1.28062e-06 -1.81965e-05
0.00091611 6.13623e-06 2.68933e-06
6.13623e-06 2.58834e-05 1.85519e-06
2.68933e-06 1.85519e-06 -2.80056e-05
0.000958202 4.89473e-05 1.18793e-06
4.89473e-05 4.64041e-06 4.79446e-07
1.18793e-06 4.79446e-07 -6.4254e-05
0.00104349 4.39308e-05 1.50512e-06
4.39308e-05 7.99308e-05 4.74445e-07
1.50512e-06 4.74445e-07 8.37718e-06
0.00108928 5.85781e-05 -6.2025e-08
5.85781e-05 8.12475e-05 -3.63601e-07
-6.2025e-08 -3.63601e-07 5.20352e-06
0.00247937 -3.29874e-05 2.08257e-05
-3.29874e-05 0.000808081 4.14559e-06
2.08257e-05 4.14559e-06 0.00082437
0.00255106 -3.71738e-05 3.93482e-07
-3.71738e-05 0.000849577 -7.4646e-08
3.93482e-07 -7.4646e-08 0.000864353
0.00262562 -4.14668e-05 -2.32571e-05
-4.14668e-05 0.000892905 -3.93821e-06
-2.32571e-05 -3.93821e-06 0.000906112
0.000780914 2.59412e-05 3.84693e-06
2.59412e-05 -4.90198e-05 -3.88806e-06
3.84693e-06 -3.88806e-06 -6.38348e-05
0.00270887 4.56955e-05 2.45134e-05
4.56955e-05 0.000942011 -3.77685e-06
2.45134e-05 -3.77685e-06 0.000953283
0.00361488 -7.38622e-05 -3.82501e-05
-7.38622e-05 0.00148254 -2.0438e-06
-3.82501e-05 -2.0438e-06 0.00147239
0.00394636 -5.9907e-05 -4.57767e-05
-5.9907e-05 0.00163966 -1.12396e-06
-4.57767e-05 -1.12396e-06 0.00163068
0.000694161 1.513e-05 -7.66161e-06
1.513e-05 -8.95996e-05 -3.15264e-06
-7.66161e-06 -3.15264e-06 -0.000130973
0.000726281 9.87749e-06 -8.62607e-06
9.87749e-06 -9.5299e-05 -2.14059e-06
-8.62607e-06 -2.14059e-06 -0.000138132
0.00429269 -3.69588e-05 -5.23714e-05
-3.69588e-05 0.00179944 -1.53689e-07
-5.23714e-05 -1.53689e-07 0.00179178
0.0043611 1.67078e-05 -1.06576e-06
1.67078e-05 0.0018322 2.65455e-07
-1.06576e-06 2.65455e-07 0.00182437
0.000743553 -6.90392e-07 5.6906e-08
-6.90392e-07 -9.75439e-05 -2.12216e-07
5.6906e-08 -2.12216e-07 -0.000141529
0.00137426 -8.86114e-06 1.04798e-05
-8.86114e-06 0.000244815 -2.01539e-08
1.04798e-05 -2.01539e-08 0.000206407
0.00118785 4.83548e-06 1.08866e-07
4.83548e-06 1.71832e-06 -1.36532e-08
1.08866e-07 -1.36532e-08 -6.77783e-05
0.000687871 1.91576e-05 1.33081e-08
1.91576e-05 -8.1711e-05 -1.1606e-07
1.33081e-08 -1.1606e-07 -0.00012364
0.00115194 2.40876e-05 8.94249e-08
2.40876e-05 1.7577e-05 -1.05864e-07
8.94249e-08 -1.05864e-07 -5.00662e-05
0.000722851 -1.80327e-06 9.27284e-06
-1.80327e-06 -0.000109131 -4.77486e-07
9.27284e-06 -4.77486e-07 -0.000153306
0.00120799 -5.8201e-07 5.70495e-06
-5.8201e-07 -2.30986e-06 7.46789e-07
5.70495e-06 7.46789e-07 -7.35604e-05
0.0011669 1.29244e-05 5.10345e-06
1.29244e-05 7.32249e-06 1.64427e-06
5.10345e-06 1.64427e-06 -6.08609e-05
0.00138232 2.07601e-06 2.95761e-06
2.07601e-06 3.80919e-05 1.04016e-06
2.95761e-06 1.04016e-06 -4.24572e-05
0.0011016 2.97885e-05 4.05327e-06
2.97885e-05 1.25514e-05 1.82845e-06
4.05327e-06 1.82845e-06 -5.3951e-05
0.00133048 2.6857e-05 2.31387e-06
2.6857e-05 4.79819e-05 8.55742e-07
2.31387e-06 8.55742e-07 -2.9278e-05
0.00430768 5.82801e-05 -5.7923e-05
5.82801e-05 0.00180858 -4.10989e-07
-5.7923e-05 -4.10989e-07 0.00180017
0.00135323 3.49188e-05 -8.08387e-06
3.49188e-05 0.00032773 1.19159e-06
-8.08387e-06 1.19159e-06 0.00030551
0.00016837 4.36216e-06 -1.05059e-05
4.36216e-06 -0.000373117 2.27198e-06
-1.05059e-05 2.27198e-06 -0.000419187
0.0014288 1.62404e-06 -2.48166e-05
1.62404e-06 0.000278023 2.57445e-06
-2.48166e-05 2.57445e-06 0.000239477
0.00266635 5.84654e-05 -1.01343e-05
5.84654e-05 0.000942051 1.42337e-06
-1.01343e-05 1.42337e-06 0.000948429
0.0015974 4.14098e-05 -1.36596e-05
4.14098e-05 0.000402988 3.54732e-06
-1.36596e-05 3.54732e-06 0.000378534
0.00132903 -7.30359e-07 -2.1115e-05
-7.30359e-07 0.000249248 3.25451e-06
-2.1115e-05 3.25451e-06 0.000211641
0.00138856 -3.39303e-05 -7.03163e-06
-3.39303e-05 0.00015434 2.43601e-06
-7.03163e-06 2.43601e-06 8.89595e-05
0.00156854 -4.13768e-05 -4.4848e-06
-4.13768e-05 0.00029711 1.806e-06
-4.4848e-06 1.806e-06 0.000237072
0.00152078 -3.34764e-05 -4.75229e-06
-3.34764e-05 0.000317611 2.42581e-06
-4.75229e-06 2.42581e-06 0.000259224
0.00111621 -5.09086e-05 -1.74482e-06
-5.09086e-05 4.76706e-05 9.18069e-07
-1.74482e-06 9.18069e-07 -2.46274e-05
0.000744584 5.61809e-06 -1.70099e-07
5.61809e-06 -9.01118e-05 -1.61409e-07
-1.70099e-07 -1.61409e-07 -0.000133411
0.00141387 1.25206e-05 -7.71398e-06
1.25206e-05 0.000267797 7.06465e-08
-7.71398e-06 7.06465e-08 0.000229368
0.00120567 9.88314e-06 -1.28071e-06
9.88314e-06 2.19402e-05 9.53734e-08
-1.28071e-06 9.53734e-08 -4.55515e-05
0.0015807 -2.74752e-05 -1.16806e-06
-2.74752e-05 0.000233043 8.56649e-08
-1.16806e-06 8.56649e-08 0.000168495
0.00270208 4.96793e-05 -2.47234e-07
4.96793e-05 0.000947962 -9.37862e-08
-2.47234e-07 -9.37862e-08 0.000957192
0.0011692 4.37807e-05 1.00604e-06
4.37807e-05 0.000177829 6.27121e-08
1.00604e-06 6.27121e-08 0.000154865
0.00112351 -1.33974e-05 1.09465e-07
-1.33974e-05 0.000136395 -2.71939e-08
1.09465e-07 -2.71939e-08 7.96128e-05
0.00131446 -3.68255e-05 -8.41536e-07
-3.68255e-05 0.000145106 1.0875e-07
-8.41536e-07 1.0875e-07 8.20464e-05
0.00137227 -4.43896e-05 -8.71401e-07
-4.43896e-05 8.7917e-05 3.80029e-07
-8.71401e-07 3.80029e-07 1.09842e-05
0.00102142 -5.10346e-05 -1.77387e-07
-5.10346e-05 2.91964e-05 -1.33337e-07
-1.77387e-07 -1.33337e-07 -4.44318e-05
0.00131063 -5.12226e-05 6.2786e-08
-5.12226e-05 0.000119272 9.90857e-08
6.2786e-08 9.90857e-08 4.77196e-05
0.00120717 -5.9092e-05 1.19748e-07
-5.9092e-05 6.37956e-05 1.6638e-08
1.19748e-07 1.6638e-08 -1.33047e-05
0.000771477 3.07401e-05 -1.1923e-07
3.07401e-05 -4.47707e-05 -3.48935e-08
-1.1923e-07 -3.48935e-08 -6.31079e-05
0.000915922 -3.14463e-06 -2.73609e-07
-3.14463e-06 1.11961e-05 -3.60373e-08
-2.73609e-07 -3.60373e-08 -3.70339e-05
0.00119931 5.28538e-06 5.53656e-06
5.28538e-06 2.4324e-06 -8.538e-07
5.53656e-06 -8.538e-07 -6.71771e-05
0.00145133 -2.76664e-06 4.6369e-06
-2.76664e-06 0.000157094 -1.16145e-06
4.6369e-06 -1.16145e-06 9.25983e-05
0.00169732 6.8034e-06 2.3723e-06
6.8034e-06 0.000208574 -2.15149e-07
2.3723e-06 -2.15149e-07 0.000131596
0.00116177 -2.99176e-05 3.22885e-06
-2.99176e-05 -4.13782e-05 -8.30814e-07
3.22885e-06 -8.30814e-07 -0.000119491
0.00131516 -4.92577e-05 1.53628e-06
-4.92577e-05 9.77403e-05 -9.979e-07
1.53628e-06 -9.979e-07 2.47147e-05
0.00159417 -4.80236e-05 8.61018e-07
-4.80236e-05 0.000165037 -4.03138e-07
8.61018e-07 -4.03138e-07 8.61969e-05
0.000709675 3.3392e-05 4.32786e-06
3.3392e-05 -6.64573e-05 -3.69897e-06
4.32786e-06 -3.69897e-06 -8.76379e-05
0.00125534 -5.55196e-05 1.02732e-06
-5.55196e-05 5.90948e-05 -5.97868e-07
1.02732e-06 -5.97868e-07 -1.63445e-05
0.000846917 -4.49695e-06 2.4748e-06
-4.49695e-06 -8.58097e-07 -1.6164e-06
2.4748e-06 -1.6164e-06 -5.71146e-05
0.000770401 -4.26189e-05 1.78504e-06
-4.26189e-05 -6.92586e-05 -1.66951e-06
1.78504e-06 -1.66951e-06 -0.000141211
0.00153234 -7.17251e-05 1.05579e-06
-7.17251e-05 0.000258063 -9.65994e-07
1.05579e-06 -9.65994e-07 0.00017785
0.00136026 -6.47167e-05 7.81362e-07
-6.47167e-05 0.000119927 2.63456e-07
7.81362e-07 2.63456e-07 4.30054e-05
0.000916699 -7.35514e-06 3.1518e-06
-7.35514e-06 1.7888e-05 -2.20506e-06
3.1518e-06 -2.20506e-06 -3.41603e-05
0.000919062 7.21385e-06 1.68329e-06
7.21385e-06 9.58804e-06 -2.53872e-06
1.68329e-06 -2.53872e-06 -3.34151e-05
0.00100016 -2.75693e-05 1.39287e-06
-2.75693e-05 5.05844e-05 -1.16132e-06
1.39287e-06 -1.16132e-06 -1.78252e-05
0.000687317 2.1404e-05 -6.62861e-06
2.1404e-05 -6.82989e-05 -3.58182e-06
-6.62861e-06 -3.58182e-06 -0.000110571
0.00267048 -4.56069e-05 -2.4535e-05
-4.56069e-05 0.000923098 -3.80616e-06
-2.4535e-05 -3.80616e-06 0.000934527
0.00078781 -2.62971e-05 -4.11832e-06
-2.62971e-05 -4.68649e-05 -3.81732e-06
-4.11832e-06 -3.81732e-06 -6.16282e-05
0.000661704 1.73869e-06 -5.66936e-06
1.73869e-06 -6.31413e-05 -3.31941e-06
-5.66936e-06 -3.31941e-06 -0.000100639
0.000978077 3.79406e-05 -3.05908e-06
3.79406e-05 5.64015e-06 -1.81133e-06
-3.05908e-06 -1.81133e-06 -5.67687e-05
0.000708707 -3.31754e-05 -4.45855e-06
-3.31754e-05 -6.48855e-05 -3.6904e-06
-4.45855e-06 -3.6904e-06 -8.58879e-05
0.000861042 4.06182e-06 -2.34864e-06
4.06182e-06 8.72028e-06 -1.91848e-06
-2.34864e-06 -1.91848e-06 -4.92542e-05
0.000889836 2.6588e-05 -2.65546e-06
2.6588e-05 5.99463e-06 -1.06754e-06
-2.65546e-06 -1.06754e-06 -5.25929e-05
0.000881203 4.47345e-05 -1.62893e-06
4.47345e-05 -1.74266e-05 -4.39103e-07
-1.62893e-06 -4.39103e-07 -8.78033e-05
0.000780172 -3.08468e-05 9.1843e-08
-3.08468e-05 -4.02274e-05 -2.91317e-08
9.1843e-08 -2.91317e-08 -5.80946e-05
0.00081707 -2.3773e-05 1.39704e-07
-2.3773e-05 -3.83576e-05 1.15582e-08
1.39704e-07 1.15582e-08 -5.06233e-05
0.000912419 2.6143e-06 8.9828e-08
2.6143e-06 8.83763e-06 -1.68137e-08
8.9828e-08 -1.68137e-08 -3.87763e-05
0.00105259 3.54756e-05 1.7645e-07
3.54756e-05 1.34196e-05 6.23552e-09
1.7645e-07 6.23552e-09 -5.12596e-05
0.000943411 3.48789e-05 2.90258e-08
3.48789e-05 1.60843e-05 7.66911e-08
2.90258e-08 7.66911e-08 -4.40891e-05
0.00116044 5.29088e-05 1.09409e-07
5.29088e-05 5.072e-05 4.24959e-08
1.09409e-07 4.24959e-08 -2.34267e-05
0.000899549 4.35682e-06 -2.01924e-07
4.35682e-06 1.97262e-05 2.49856e-08
-2.01924e-07 2.49856e-08 -3.43971e-05
0.00103948 5.12194e-05 -3.40115e-08
5.12194e-05 4.56753e-05 -5.68156e-08
-3.40115e-08 -5.68156e-08 -2.29253e-05
0.0010253 4.36775e-05 1.07709e-07
4.36775e-05 7.11854e-05 -1.92695e-07
1.07709e-07 -1.92695e-07 -4.21054e-07
0.00100343 5.6669e-05 -5.36857e-07
5.6669e-05 3.80689e-05 2.12056e-07
-5.36857e-07 2.12056e-07 -3.83514e-05
0.000846199 -2.13854e-05 3.31812e-06
-2.13854e-05 -2.88058e-05 3.75228e-06
3.31812e-06 3.75228e-06 -3.85199e-05
0.000912082 5.6079e-06 2.93947e-06
5.6079e-06 1.39307e-05 1.74647e-06
2.93947e-06 1.74647e-06 -3.65312e-05
0.000908139 -6.7381e-07 2.50788e-06
-6.7381e-07 2.87193e-06 2.30825e-06
2.50788e-06 2.30825e-06 -4.10095e-05
0.00102021 1.9171e-05 1.47798e-06
1.9171e-05 5.94118e-05 6.94409e-07
1.47798e-06 6.94409e-07 -6.54304e-06
0.00121471 4.52188e-05 2.2329e-06
4.52188e-05 4.28352e-05 1.19266e-06
2.2329e-06 1.19266e-06 -3.2833e-05
0.00112438 5.47636e-05 1.46646e-06
5.47636e-05 6.66926e-05 1.24036e-06
1.46646e-06 1.24036e-06 -4.33916e-06
0.0012441 5.86771e-05 8.85496e-07
5.86771e-05 6.52847e-05 1.37092e-06
8.85496e-07 1.37092e-06 -1.45741e-05
0.00105511 3.47989e-05 1.42684e-06
3.47989e-05 8.59969e-05 8.15875e-07
1.42684e-06 8.15875e-07 1.65998e-05
0.00112607 5.9528e-05 2.50439e-07
5.9528e-05 7.48747e-05 3.9816e-07
2.50439e-07 3.9816e-07 1.02487e-06
0.00106056 5.74244e-05 7.62946e-07
5.74244e-05 8.79629e-05 -2.78299e-07
7.62946e-07 -2.78299e-07 6.87509e-06
0.000932907 5.65199e-05 2.82979e-07
5.65199e-05 -7.71338e-06 -2.19247e-07
2.82979e-07 -2.19247e-07 -8.7407e-05
0.000924862 -5.69782e-06 9.00264e-07
-5.69782e-06 1.32553e-06 1.97495e-06
9.00264e-07 1.97495e-06 -2.91615e-05
0.000856246 -1.63262e-05 2.34119e-06
-1.63262e-05 -3.25563e-05 3.51981e-06
2.34119e-06 3.51981e-06 -3.74764e-05
0.00241308 -2.90733e-05 1.88402e-05
-2.90733e-05 0.000769036 4.14523e-06
1.88402e-05 4.14523e-06 0.000786953
0.00248433 -3.31507e-05 4.84723e-07
-3.31507e-05 0.000809932 -6.55266e-08
4.84723e-07 -6.55266e-08 0.000826397
0.00256371 -3.73476e-05 -2.16355e-05
-3.73476e-05 0.00085516 -4.00679e-06
-2.16355e-05 -4.00679e-06 0.000870097
0.000803064 2.35071e-05 3.25721e-06
2.35071e-05 -4.35879e-05 -3.69437e-06
3.25721e-06 -3.69437e-06 -5.50919e-05
0.00262059 4.15376e-05 2.26791e-05
4.15376e-05 0.000891533 -3.83923e-06
2.26791e-05 -3.83923e-06 0.000904647
0.000794418 2.69551e-05 -2.32531e-07
2.69551e-05 -4.11605e-05 -4.84262e-09
-2.32531e-07 -4.84262e-09 -5.6327e-05
0.00268064 4.54787e-05 -2.82091e-07
4.54787e-05 0.000928835 -9.22283e-08
-2.82091e-07 -9.22283e-08 0.000939963
0.000684012 2.26861e-05 -7.19016e-06
2.26861e-05 -8.27043e-05 -3.45582e-06
-7.19016e-06 -3.45582e-06 -0.000124731
0.000714025 1.56911e-05 -8.1267e-06
1.56911e-05 -9.01761e-05 -2.7113e-06
-8.1267e-06 -2.7113e-06 -0.000131904
0.00114617 2.33876e-05 -4.5891e-06
2.33876e-05 1.53378e-05 -1.93451e-06
-4.5891e-06 -1.93451e-06 -5.23215e-05
0.00119675 5.98544e-06 -5.30572e-06
5.98544e-06 6.25322e-06 -1.49995e-06
-5.30572e-06 -1.49995e-06 -6.32109e-05
0.000735297 3.19057e-06 -9.17292e-06
3.19057e-06 -0.000101377 -1.24696e-06
-9.17292e-06 -1.24696e-06 -0.000145362
0.00438126 2.39738e-05 -5.59438e-05
2.39738e-05 0.00184274 3.67726e-07
-5.59438e-05 3.67726e-07 0.00183421
0.00074265 1.15752e-08 -8.68409e-09
1.15752e-08 -9.97582e-05 -2.45597e-07
-8.68409e-09 -2.45597e-07 -0.000143985
0.00121632 2.62454e-06 1.61011e-08
2.62454e-06 1.67941e-06 -2.54042e-07
1.61011e-08 -2.54042e-07 -6.94924e-05
0.00116714 1.20241e-05 1.96572e-08
1.20241e-05 7.98574e-06 -4.06495e-08
1.96572e-08 -4.06495e-08 -6.02329e-05
0.00141192 1.2152e-06 7.46402e-08
1.2152e-06 5.24167e-05 9.69781e-09
7.46402e-08 9.69781e-09 -2.81284e-05
0.00110816 3.08105e-05 1.78483e-07
3.08105e-05 1.64125e-05 -2.95493e-08
1.78483e-07 -2.95493e-08 -5.01135e-05
0.00134367 2.88659e-05 2.23054e-08
2.88659e-05 5.43054e-05 -1.35926e-08
2.23054e-08 -1.35926e-08 -2.29999e-05
0.00121421 5.08093e-07 5.72576e-06
5.08093e-07 -6.59893e-07 -4.02258e-07
5.72576e-06 -4.02258e-07 -7.17585e-05
0.00142086 4.12359e-06 3.14123e-06
4.12359e-06 4.346e-05 6.40602e-07
3.14123e-06 6.40602e-07 -3.94822e-05
0.00136989 1.49526e-05 2.70428e-06
1.49526e-05 4.75116e-05 9.41994e-07
2.70428e-06 9.41994e-07 -3.09212e-05
0.00151876 -3.82228e-06 1.67843e-06
-3.82228e-06 7.67817e-05 7.2643e-07
1.67843e-06 7.2643e-07 -5.52963e-06
0.00127888 3.78002e-05 1.9667e-06
3.78002e-05 4.66048e-05 7.91212e-07
1.9667e-06 7.91212e-07 -2.99376e-05
0.00142126 3.04654e-05 1.0591e-06
3.04654e-05 5.95074e-05 6.98228e-07
1.0591e-06 6.98228e-07 -1.97003e-05
0.000758756 9.21201e-06 -9.01731e-06
9.21201e-06 -8.32925e-05 1.12517e-06
-9.01731e-06 1.12517e-06 -0.000126878
0.00145979 1.26153e-05 -2.58782e-05
1.26153e-05 0.000288855 1.90671e-06
-2.58782e-05 1.90671e-06 0.000250946
0.000885963 9.09337e-06 -6.00584e-06
9.09337e-06 -0.000139267 1.12115e-06
-6.00584e-06 1.12115e-06 -0.000208554
0.0017462 -2.83823e-05 -6.96277e-06
-2.83823e-05 0.000316144 1.83108e-06
-6.96277e-06 1.83108e-06 0.000252165
0.00265822 4.93562e-05 -2.50533e-05
4.93562e-05 0.000927521 3.59305e-06
-2.50533e-05 3.59305e-06 0.00093656
0.00160115 3.90208e-05 -1.266e-05
3.90208e-05 0.000396453 2.99746e-06
-1.266e-05 2.99746e-06 0.000376077
0.00143954 -1.76987e-05 -3.35149e-06
-1.76987e-05 0.000292796 1.83326e-06
-3.35149e-06 1.83326e-06 0.000237322
0.00132645 -3.69641e-05 -5.03095e-06
-3.69641e-05 0.000151377 2.03166e-06
-5.03095e-06 2.03166e-06 8.84001e-05
0.00111917 -4.07922e-05 -3.25062e-06
-4.07922e-05 -3.95337e-05 1.35068e-06
-3.25062e-06 1.35068e-06 -0.000117352
0.00146905 -5.34926e-05 -1.96034e-06
-5.34926e-05 0.000197234 1.01472e-06
-1.96034e-06 1.01472e-06 0.000126138
0.000853546 -4.66522e-05 -1.77615e-06
-4.66522e-05 -5.21519e-05 1.22532e-06
-1.77615e-06 1.22532e-06 -0.000125926
0.00119425 -5.86354e-05 -1.00651e-06
-5.86354e-05 5.79408e-05 5.94424e-07
-1.00651e-06 5.94424e-07 -1.90228e-05
0.000795016 3.19139e-05 -4.0547e-06
3.19139e-05 -3.1612e-05 3.7125e-06
-4.0547e-06 3.7125e-06 -5.03052e-05
0.000903469 -2.35416e-06 -2.83246e-06
-2.35416e-06 4.35075e-06 2.20151e-06
-2.83246e-06 2.20151e-06 -4.36848e-05
0.00106379 8.94489e-06 -1.41555e-07
8.94489e-06 -6.52979e-05 9.83395e-09
-1.41555e-07 9.83395e-09 -0.000135725
0.00146586 -5.87128e-06 -1.24056e-06
-5.87128e-06 0.000164197 1.43502e-07
-1.24056e-06 1.43502e-07 9.96826e-05
0.00158909 8.74344e-06 -9.94651e-07
8.74344e-06 0.000153795 1.85564e-07
-9.94651e-07 1.85564e-07 7.63827e-05
0.00141491 -3.252e-05 4.59239e-07
-3.252e-05 8.65004e-05 -3.23232e-07
4.59239e-07 -3.23232e-07 9.41211e-06
0.000752254 3.46275e-05 -1.0795e-09
3.46275e-05 -4.43402e-05 -1.06992e-08
-1.0795e-09 -1.06992e-08 -6.58143e-05
0.000884596 -7.7575e-06 1.9392e-07
-7.7575e-06 1.61202e-05 -5.67771e-08
1.9392e-07 -5.67771e-08 -3.99542e-05
0.000865969 -4.49724e-05 4.98132e-07
-4.49724e-05 -2.06138e-05 -3.19677e-07
4.98132e-07 -3.19677e-07 -9.19313e-05
0.00143232 -5.07656e-05 -4.73995e-07
-5.07656e-05 0.000154586 1.09998e-07
-4.73995e-07 1.09998e-07 8.15309e-05
0.00143023 -4.4662e-05 -2.66842e-07
-4.4662e-05 8.26799e-05 4.36844e-07
-2.66842e-07 4.36844e-07 3.94365e-06
0.00128626 -6.55981e-05 -5.84434e-07
-6.55981e-05 0.00013693 1.43888e-07
-5.84434e-07 1.43888e-07 5.59762e-05
0.00125841 -5.54e-05 8.16147e-08
-5.54e-05 6.04369e-05 1.60497e-07
8.16147e-08 1.60497e-07 -1.49489e-05
0.00125128 -6.21164e-05 3.59822e-07
-6.21164e-05 6.63248e-05 3.69801e-07
3.59822e-07 3.69801e-07 -1.06072e-05
0.000914166 -6.56636e-06 9.67497e-09
-6.56636e-06 1.51623e-05 -7.59088e-08
9.67497e-09 -7.59088e-08 -3.65279e-05
0.000965616 -2.62538e-05 -1.01282e-07
-2.62538e-05 3.19803e-05 -1.92185e-07
-1.01282e-07 -1.92185e-07 -3.64197e-05
0.000909633 5.88601e-06 -1.92487e-07
5.88601e-06 5.0477e-06 7.54025e-08
-1.92487e-07 7.54025e-08 -3.80468e-05
0.00170347 1.43445e-05 2.52268e-06
1.43445e-05 0.000198796 -2.42612e-07
2.52268e-06 -2.42612e-07 0.000119554
0.00150836 -9.22162e-06 2.99086e-06
-9.22162e-06 0.000121066 -3.09768e-07
2.99086e-06 -3.09768e-07 4.44602e-05
0.00163628 1.14005e-05 2.23672e-06
1.14005e-05 0.000147045 1.39705e-07
2.23672e-06 1.39705e-07 6.45719e-05
0.00143948 -2.70084e-05 1.68152e-06
-2.70084e-05 6.2071e-05 -7.98517e-07
1.68152e-06 -7.98517e-07 -1.7905e-05
0.00113612 -5.01139e-05 1.10427e-06
-5.01139e-05 -2.48679e-05 -1.0728e-06
1.10427e-06 -1.0728e-06 -0.000100867
0.00156187 -4.4088e-05 -9.26985e-08
-4.4088e-05 0.000126707 -3.57835e-08
-9.26985e-08 -3.57835e-08 5.17032e-05
0.000879879 -4.29892e-06 2.88169e-06
-4.29892e-06 8.42222e-06 -1.80066e-06
2.88169e-06 -1.80066e-06 -4.58296e-05
0.00127181 -5.77055e-05 2.95845e-07
-5.77055e-05 4.8611e-05 -4.60829e-07
2.95845e-07 -4.60829e-07 -2.54108e-05
0.000991692 -4.35245e-05 1.25202e-06
-4.35245e-05 5.01611e-05 -5.81233e-07
1.25202e-06 -5.81233e-07 -1.84953e-05
0.000849465 -5.53279e-05 1.59243e-06
-5.53279e-05 -4.15329e-05 -2.07057e-06
1.59243e-06 -2.07057e-06 -0.000122533
0.00138727 -7.15742e-05 1.80807e-06
-7.15742e-05 0.000169546 -3.06362e-07
1.80807e-06 -3.06362e-07 8.427e-05
0.00160823 -7.11613e-05 -2.18564e-07
-7.11613e-05 0.000231814 1.14818e-06
-2.18564e-07 1.14818e-06 0.000158468
0.000916777 1.31387e-05 1.18498e-06
1.31387e-05 5.7314e-06 -2.25504e-06
1.18498e-06 -2.25504e-06 -3.21258e-05
0.00100702 -3.56066e-05 1.69461e-06
-3.56066e-05 5.38241e-05 -6.04614e-07
1.69461e-06 -6.04614e-07 -1.4083e-05
0.000841394 -1.7909e-05 1.5426e-06
-1.7909e-05 -2.91512e-05 -2.04942e-06
1.5426e-06 -2.04942e-06 -9.69447e-05
0.00117751 -5.73129e-05 4.57147e-07
-5.73129e-05 0.00014314 2.36955e-07
4.57147e-07 2.36955e-07 6.58973e-05
0.00105687 3.6358e-05 -3.6684e-06
3.6358e-05 1.57178e-05 -1.92766e-06
-3.6684e-06 -1.92766e-06 -4.89231e-05
0.000804798 -2.32004e-05 -3.60304e-06
-2.32004e-05 -4.50544e-05 -3.79795e-06
-3.60304e-06 -3.79795e-06 -5.70793e-05
0.000756674 -2.97181e-05 -4.48494e-06
-2.97181e-05 -5.311e-05 -3.75335e-06
-4.48494e-06 -3.75335e-06 -7.06636e-05
0.000919006 -2.84503e-06 -2.50168e-06
-2.84503e-06 1.23967e-05 -2.27659e-06
-2.50168e-06 -2.27659e-06 -3.50751e-05
0.000912727 3.39933e-05 -2.5434e-06
3.39933e-05 9.78014e-07 -1.41857e-06
-2.5434e-06 -1.41857e-06 -5.90272e-05
0.00114034 5.2726e-05 -1.74619e-06
5.2726e-05 4.13608e-05 -1.25411e-06
-1.74619e-06 -1.25411e-06 -3.2811e-05
0.000881514 2.25772e-06 -2.7993e-06
2.25772e-06 1.29016e-05 -1.81269e-06
-2.7993e-06 -1.81269e-06 -4.14641e-05
0.00101021 4.3377e-05 -1.42194e-06
4.3377e-05 6.39795e-05 -8.98461e-07
-1.42194e-06 -8.98461e-07 -7.68779e-06
0.00112844 5.36696e-05 -1.25898e-06
5.36696e-05 9.03624e-05 -5.65173e-07
-1.25898e-06 -5.65173e-07 2.2061e-05
0.000916655 5.47293e-05 -1.55154e-06
5.47293e-05 -5.48433e-06 1.04887e-07
-1.55154e-06 1.04887e-07 -8.229e-05
0.000830723 -2.09573e-05 1.45437e-07
-2.09573e-05 -3.67321e-05 2.93277e-08
1.45437e-07 2.93277e-08 -4.62586e-05
0.000913262 3.21281e-06 -3.81788e-09
3.21281e-06 1.58299e-05 -4.04526e-08
-3.81788e-09 -4.04526e-08 -3.47981e-05
0.000911084 -4.7862e-06 6.80116e-08
-4.7862e-06 4.05893e-06 3.2596e-08
6.80116e-08 3.2596e-08 -3.96331e-05
0.00100364 1.83544e-05 1.38959e-07
1.83544e-05 5.15961e-05 -1.49517e-07
1.38959e-07 -1.49517e-07 -1.44686e-05
0.00122841 4.58407e-05 4.22616e-07
4.58407e-05 4.953e-05 2.56788e-07
4.22616e-07 2.56788e-07 -2.6241e-05
0.00109296 5.43733e-05 4.89996e-08
5.43733e-05 5.21703e-05 1.69499e-08
4.89996e-08 1.69499e-08 -1.88277e-05
0.00123333 5.84852e-05 -2.86125e-09
5.84852e-05 6.03573e-05 2.16253e-07
-2.86125e-09 2.16253e-07 -1.94924e-05
0.00102329 3.69302e-05 -5.42162e-08
3.69302e-05 7.13005e-05 7.36402e-08
-5.42162e-08 7.36402e-08 1.91128e-06
0.00123602 6.22503e-05 -3.16688e-07
6.22503e-05 0.000129964 -4.13648e-07
-3.16688e-07 -4.13648e-07 5.64532e-05
0.00107774 5.8228e-05 1.90421e-07
5.8228e-05 9.61179e-05 -3.82956e-07
1.90421e-07 -3.82956e-07 1.47531e-05
0.000978748 5.76009e-05 -1.22517e-06
5.76009e-05 1.74785e-05 3.1322e-08
-1.22517e-06 3.1322e-08 -6.09986e-05
0.000858953 -1.88042e-05 2.80047e-06
-1.88042e-05 -2.7041e-05 3.63691e-06
2.80047e-06 3.63691e-06 -3.41164e-05
0.000907401 -6.30719e-06 1.88328e-06
-6.30719e-06 -5.52093e-08 2.36806e-06
1.88328e-06 2.36806e-06 -3.98575e-05
0.00104047 2.74596e-05 1.55542e-06
2.74596e-05 7.1419e-05 5.16295e-07
1.55542e-06 5.16295e-07 4.50297e-06
0.00100746 1.40153e-05 1.17708e-06
1.40153e-05 5.22024e-05 1.14093e-06
1.17708e-06 1.14093e-06 -1.1811e-05
0.00100404 4.55768e-05 9.28843e-07
4.55768e-05 5.55189e-05 -4.79026e-08
9.28843e-07 -4.79026e-08 -2.08791e-05
0.00127864 4.73517e-05 1.40637e-06
4.73517e-05 4.43462e-05 1.05487e-06
1.40637e-06 1.05487e-06 -3.5823e-05
0.00116328 6.11446e-05 5.86243e-07
6.11446e-05 6.74105e-05 1.2262e-06
5.86243e-07 1.2262e-06 -9.26982e-06
0.00129064 6.26301e-05 7.34775e-08
6.26301e-05 7.79543e-05 1.3683e-06
7.34775e-08 1.3683e-06 -4.57431e-06
0.00108562 5.50087e-05 1.48472e-06
5.50087e-05 0.000104589 1.34414e-06
1.48472e-06 1.34414e-06 2.45043e-05
0.00116515 6.34927e-05 1.20415e-06
6.34927e-05 8.5825e-05 4.94962e-07
1.20415e-06 4.94962e-07 8.10588e-06
0.000758618 5.30418e-05 1.10058e-06
5.30418e-05 -7.31369e-05 -5.09673e-07
1.10058e-06 -5.09673e-07 -0.000162466
0.000919288 -7.64889e-06 1.08968e-06
-7.64889e-06 4.79426e-07 2.17322e-06
1.08968e-06 2.17322e-06 -3.24013e-05
0.000991718 1.15866e-05 3.85009e-07
1.15866e-05 4.25674e-05 1.14806e-06
3.85009e-07 1.14806e-06 -6.81564e-06
0.000929244 -1.89058e-06 7.74623e-07
-1.89058e-06 2.55743e-06 1.8579e-06
7.74623e-07 1.8579e-06 -2.61335e-05
0.000930121 -3.46915e-06 1.23169e-07
-3.46915e-06 4.2901e-06 1.61099e-08
1.23169e-07 1.61099e-08 -2.62355e-05
0.00145886 -1.76626e-05 2.29262e-06
-1.76626e-05 0.000271206 2.09548e-06
2.29262e-06 2.09548e-06 0.000271237
0.00116117 -1.80499e-05 6.72672e-07
-1.80499e-05 0.00012309 2.18891e-09
6.72672e-07 2.18891e-09 0.000119852
0.00113775 -1.77592e-05 1.57854e-05
-1.77592e-05 0.000112911 6.77513e-06
1.57854e-05 6.77513e-06 0.000126151
0.00241275 -2.92402e-05 5.87198e-07
-2.92402e-05 0.000768293 -5.54971e-08
5.87198e-07 -5.54971e-08 0.000786381
0.00248692 -3.33173e-05 -1.96504e-05
-3.33173e-05 0.000810614 -4.01822e-06
-1.96504e-05 -4.01822e-06 0.000827259
0.000818259 2.16861e-05 2.69083e-06
2.16861e-05 -4.07626e-05 -3.49149e-06
2.69083e-06 -3.49149e-06 -4.92601e-05
0.00251436 3.74938e-05 2.0598e-05
3.74938e-05 0.000832219 -3.83851e-06
2.0598e-05 -3.83851e-06 0.000847238
0.000816204 2.40565e-05 -1.61784e-07
2.40565e-05 -3.65811e-05 4.01576e-08
-1.61784e-07 4.01576e-08 -4.83549e-05
0.00261663 4.12982e-05 -3.6378e-07
4.12982e-05 0.000890134 -8.34753e-08
-3.6378e-07 -8.34753e-08 0.000903059
0.000810177 2.80682e-05 -3.88411e-06
2.80682e-05 -3.2224e-05 3.85107e-06
-3.88411e-06 3.85107e-06 -4.77456e-05
0.0026552 4.53933e-05 -2.46075e-05
4.53933e-05 0.000917088 3.76659e-06
-2.46075e-05 3.76659e-06 0.00092805
0.00112036 3.18757e-05 -4.17675e-06
3.18757e-05 2.30672e-05 -2.01669e-06
-4.17675e-06 -2.01669e-06 -4.3487e-05
0.00117178 1.416e-05 -4.903e-06
1.416e-05 1.06536e-05 -1.64075e-06
-4.903e-06 -1.64075e-06 -5.75826e-05
0.00135145 2.67791e-05 -2.30498e-06
2.67791e-05 5.81812e-05 -9.0559e-07
-2.30498e-06 -9.0559e-07 -1.91173e-05
0.00144186 7.01607e-07 -3.02322e-06
7.01607e-07 6.6874e-05 -1.00987e-06
-3.02322e-06 -1.00987e-06 -1.36617e-05
0.00122114 5.0483e-06 -5.73127e-06
5.0483e-06 4.00988e-06 -1.19475e-06
-5.73127e-06 -1.19475e-06 -6.71238e-05
0.000757918 4.47107e-07 -9.35068e-06
4.47107e-07 -9.24092e-05 -3.12931e-08
-9.35068e-06 -3.12931e-08 -0.000136681
0.00121797 2.42251e-06 -3.06808e-08
2.42251e-06 8.89446e-07 -2.88715e-07
-3.06808e-08 -2.88715e-07 -7.02717e-05
0.00143806 5.42158e-06 -4.06101e-09
5.42158e-06 5.18778e-05 -1.7156e-07
-4.06101e-09 -1.7156e-07 -3.10382e-05
0.00138072 1.13149e-05 1.01036e-07
1.13149e-05 5.30306e-05 -8.77452e-09
1.01036e-07 -8.77452e-09 -2.53439e-05
0.00151771 -4.60659e-06 -6.31277e-09
-4.60659e-06 7.46786e-05 8.14289e-08
-6.31277e-09 8.14289e-08 -7.74566e-06
0.00128891 3.80067e-05 -3.61881e-08
3.80067e-05 5.13982e-05 -3.71228e-08
-3.61881e-08 -3.71228e-08 -2.52109e-05
0.0014344 2.99272e-05 -1.53627e-08
2.99272e-05 6.61485e-05 1.22977e-07
-1.53627e-08 1.22977e-07 -1.30859e-05
0.00143598 6.83269e-06 3.51439e-06
6.83269e-06 5.01729e-05 -4.5335e-07
3.51439e-06 -4.5335e-07 -3.29667e-05
0.00146748 3.29081e-07 1.77381e-06
3.29081e-07 4.22531e-05 9.48609e-07
1.77381e-06 9.48609e-07 -4.29903e-05
0.00144902 1.42143e-05 1.48646e-06
1.42143e-05 5.27871e-05 6.1274e-07
1.48646e-06 6.1274e-07 -2.76486e-05
0.00165493 -1.09496e-05 1.9892e-06
-1.09496e-05 0.000124407 6.18575e-07
1.9892e-06 6.18575e-07 4.39381e-05
0.00136274 3.71161e-05 7.27898e-07
3.71161e-05 5.65308e-05 3.3055e-07
7.27898e-07 3.3055e-07 -2.27408e-05
0.00148856 2.11503e-05 -1.25162e-06
2.11503e-05 7.06512e-05 9.48029e-07
-1.25162e-06 9.48029e-07 -2.17747e-06
0.00093144 1.04492e-05 -5.56636e-06
1.04492e-05 -0.000131349 8.04325e-07
-5.56636e-06 8.04325e-07 -0.000202618
0.00147465 -1.09487e-05 -7.17847e-06
-1.09487e-05 0.000168133 1.39862e-06
-7.17847e-06 1.39862e-06 0.000103702
0.00148293 1.43411e-05 -4.34457e-06
1.43411e-05 0.000100253 5.68018e-07
-4.34457e-06 5.68018e-07 2.2359e-05
0.00166812 -3.51857e-05 -2.6721e-06
-3.51857e-05 0.000214435 3.17411e-07
-2.6721e-06 3.17411e-07 0.000138366
0.000794564 3.58045e-05 -3.9185e-06
3.58045e-05 -2.2398e-05 3.53464e-06
-3.9185e-06 3.53464e-06 -4.41533e-05
0.000921826 -1.06781e-05 -2.63513e-06
-1.06781e-05 3.28951e-05 1.67573e-06
-2.63513e-06 1.67573e-06 -2.30025e-05
0.00097816 -4.78493e-05 -9.64228e-07
-4.78493e-05 3.60525e-05 9.21692e-07
-9.64228e-07 9.21692e-07 -3.4648e-05
0.00155432 -5.23119e-05 -2.51738e-06
-5.23119e-05 0.000213809 1.19912e-06
-2.51738e-06 1.19912e-06 0.000140721
0.00126602 -4.13115e-05 -1.58148e-06
-4.13115e-05 1.75572e-07 1.17577e-06
-1.58148e-06 1.17577e-06 -7.84566e-05
0.0012601 -5.52577e-05 -9.11093e-07
-5.52577e-05 6.11244e-05 9.36029e-07
-9.11093e-07 9.36029e-07 -1.42086e-05
0.00104173 -5.9537e-05 -1.72562e-06
-5.9537e-05 1.65234e-05 1.29964e-06
-1.72562e-06 1.29964e-06 -6.5171e-05
0.00113392 -5.93294e-05 -1.87874e-07
-5.93294e-05 8.65835e-06 1.44827e-07
-1.87874e-07 1.44827e-07 -6.82772e-05
0.000912288 -7.37613e-06 -2.97846e-06
-7.37613e-06 1.2954e-05 1.86978e-06
-2.97846e-06 1.86978e-06 -3.84806e-05
0.000930341 -2.49848e-05 -1.72163e-06
-2.49848e-05 1.29471e-05 7.96696e-07
-1.72163e-06 7.96696e-07 -5.54321e-05
0.000900136 4.81907e-06 -2.12641e-06
4.81907e-06 4.60877e-07 2.44042e-06
-2.12641e-06 2.44042e-06 -4.27231e-05
0.00156167 1.46945e-05 -1.02197e-06
1.46945e-05 0.000126764 3.37907e-07
-1.02197e-06 3.37907e-07 4.64298e-05
0.00150159 -1.46137e-05 -4.2396e-07
-1.46137e-05 0.000116756 2.66971e-08
-4.2396e-07 2.66971e-08 4.03179e-05
0.0015163 1.37246e-05 -4.58512e-07
1.37246e-05 8.65271e-05 1.79641e-07
-4.58512e-07 1.79641e-07 3.46781e-06
0.00153705 -2.58389e-05 1.92414e-08
-2.58389e-05 0.000110164 -3.34893e-07
1.92414e-08 -3.34893e-07 3.04199e-05
0.000899901 -5.87378e-06 1.20401e-07
-5.87378e-06 1.64441e-05 -8.42231e-08
1.20401e-07 -8.42231e-08 -3.75065e-05
0.00103175 -4.48641e-05 2.81386e-08
-4.48641e-05 6.86683e-05 1.03545e-07
2.81386e-08 1.03545e-07 -2.03188e-08
0.000944864 -5.73845e-05 3.2116e-07
-5.73845e-05 8.04001e-06 -4.34435e-07
3.2116e-07 -4.34435e-07 -7.22953e-05
0.00132421 -5.30433e-05 -3.72931e-08
-5.30433e-05 6.90096e-05 -2.37615e-07
-3.72931e-08 -2.37615e-07 -6.93851e-06
0.00144642 -4.25929e-05 3.41712e-07
-4.25929e-05 6.8724e-05 8.02799e-07
3.41712e-07 8.02799e-07 -5.25805e-06
0.0012132 -6.76234e-05 5.53895e-08
-6.76234e-05 8.55244e-05 1.17076e-07
5.53895e-08 1.17076e-07 -8.48986e-07
0.00128286 -5.72442e-05 3.63228e-08
-5.72442e-05 5.37438e-05 2.71768e-07
3.63228e-08 2.71768e-07 -2.01431e-05
0.00144838 -6.73943e-05 6.07315e-07
-6.73943e-05 0.000152654 4.20259e-07
6.07315e-07 4.20259e-07 8.02135e-05
0.0010268 -3.53927e-05 5.32609e-08
-3.53927e-05 6.29442e-05 -9.59033e-08
5.32609e-08 -9.59033e-08 -4.7742e-06
0.00110206 -5.51215e-05 -3.37702e-07
-5.51215e-05 0.000104177 2.32983e-07
-3.37702e-07 2.32983e-07 2.65735e-05
0.000905699 1.18252e-05 -1.29701e-07
1.18252e-05 6.55663e-07 8.81484e-08
-1.29701e-07 8.81484e-08 -3.73316e-05
0.000872888 -1.50464e-05 2.35042e-07
-1.50464e-05 -1.42587e-05 -5.36121e-07
2.35042e-07 -5.36121e-07 -8.12614e-05
0.00153268 1.46772e-05 2.69998e-06
1.46772e-05 8.63887e-05 -1.54609e-07
2.69998e-06 -1.54609e-07 1.01841e-06
0.00162595 -7.1889e-06 2.15917e-06
-7.1889e-06 0.000141355 9.29691e-08
2.15917e-06 9.29691e-08 6.03558e-05
0.00156238 1.62801e-05 1.95372e-06
1.62801e-05 9.38369e-05 3.2971e-07
1.95372e-06 3.2971e-07 8.75313e-06
0.00144266 -2.08333e-05 6.86103e-07
-2.08333e-05 4.17554e-05 -1.46393e-06
6.86103e-07 -1.46393e-06 -3.60888e-05
0.00124971 -5.20075e-05 -1.36433e-07
-5.20075e-05 9.84928e-06 -5.2246e-07
-1.36433e-07 -5.2246e-07 -6.27031e-05
0.00162928 -4.18171e-05 1.57837e-06
-4.18171e-05 0.000136981 -5.49893e-07
1.57837e-06 -5.49893e-07 6.87197e-05
0.00100002 -4.01094e-05 1.42099e-06
-4.01094e-05 5.39542e-05 -3.9288e-07
1.42099e-06 -3.9288e-07 -1.37259e-05
0.00127182 -5.75056e-05 -8.48735e-07
-5.75056e-05 3.62572e-05 4.6387e-08
-8.48735e-07 4.6387e-08 -3.02516e-05
0.000831833 -5.22436e-05 6.98521e-07
-5.22436e-05 -3.29458e-05 -1.21371e-06
6.98521e-07 -1.21371e-06 -0.00011002
0.00111518 -6.58195e-05 1.83441e-06
-6.58195e-05 8.18248e-05 -1.97972e-06
1.83441e-06 -1.97972e-06 -7.39505e-06
0.00127065 -7.23255e-05 2.15921e-06
-7.23255e-05 0.000100917 1.08964e-06
2.15921e-06 1.08964e-06 1.16135e-05
0.00167706 -7.28307e-05 9.09214e-07
-7.28307e-05 0.000253088 3.42576e-07
9.09214e-07 3.42576e-07 0.000181522
0.000910802 1.33695e-05 1.06647e-06
1.33695e-05 8.81594e-07 -2.0547e-06
1.06647e-06 -2.0547e-06 -3.34551e-05
0.000805069 -7.61055e-06 9.861e-07
-7.61055e-06 -4.91306e-05 -2.116e-06
9.861e-07 -2.116e-06 -0.000111611
0.00103608 -5.38576e-05 8.09694e-07
-5.38576e-05 6.84321e-05 2.67541e-07
8.09694e-07 2.67541e-07 -6.69922e-06
0.00104005 -5.26604e-05 1.0805e-06
-5.26604e-05 7.93634e-05 -4.34088e-07
1.0805e-06 -4.34088e-07 -4.85507e-07
0.00117773 -5.95213e-05 4.72455e-07
-5.95213e-05 0.000139255 7.49363e-07
4.72455e-07 7.49363e-07 5.94373e-05
0.000815587 -2.0554e-05 -3.04618e-06
-2.0554e-05 -4.44987e-05 -3.72403e-06
-3.04618e-06 -3.72403e-06 -5.38381e-05
0.00124064 4.64437e-05 -1.49382e-06
4.64437e-05 5.55429e-05 -7.21766e-07
-1.49382e-06 -7.21766e-07 -2.03368e-05
0.000909212 -7.79656e-06 -1.98471e-06
-7.79656e-06 2.95851e-06 -2.41914e-06
-1.98471e-06 -2.41914e-06 -4.06355e-05
0.000912904 5.11092e-06 -3.01113e-06
5.11092e-06 1.73644e-05 -1.98396e-06
-3.01113e-06 -1.98396e-06 -3.36239e-05
0.000981697 1.75747e-05 -1.2416e-06
1.75747e-05 4.10262e-05 -9.44242e-07
-1.2416e-06 -9.44242e-07 -2.5131e-05
0.00106284 5.40217e-05 -1.45885e-06
5.40217e-05 3.8247e-05 -1.2485e-06
-1.45885e-06 -1.2485e-06 -3.27142e-05
0.00122187 5.82632e-05 -8.01584e-07
5.82632e-05 5.511e-05 -9.17392e-07
-8.01584e-07 -9.17392e-07 -2.47325e-05
0.00099437 3.73396e-05 -1.35542e-06
3.73396e-05 5.81179e-05 -5.33783e-07
-1.35542e-06 -5.33783e-07 -1.12986e-05
0.00109947 5.91407e-05 -1.18467e-06
5.91407e-05 0.000106497 -9.00251e-07
-1.18467e-06 -9.00251e-07 2.48507e-05
0.00134353 6.49188e-05 -1.23644e-06
6.49188e-05 0.000183808 -9.64125e-07
-1.23644e-06 -9.64125e-07 0.000110645
0.00102828 5.8753e-05 -2.48919e-06
5.8753e-05 4.4315e-05 6.81e-07
-2.48919e-06 6.81e-07 -3.29278e-05
0.000842983 -1.85058e-05 1.27e-07
-1.85058e-05 -3.51091e-05 3.94632e-08
1.27e-07 3.94632e-08 -4.20357e-05
0.000910386 -7.40158e-06 4.99324e-08
-7.40158e-06 1.12272e-06 4.39145e-08
4.99324e-08 4.39145e-08 -3.85614e-05
0.00101707 2.69108e-05 2.18497e-08
2.69108e-05 6.06121e-05 -4.52175e-08
2.18497e-08 -4.52175e-08 -6.37707e-06
0.000994721 1.38854e-05 7.34087e-08
1.38854e-05 4.64163e-05 -6.57007e-08
7.34087e-08 -6.57007e-08 -1.77342e-05
0.00098152 4.44798e-05 8.43966e-08
4.44798e-05 4.4202e-05 -1.91349e-07
8.43966e-08 -1.91349e-07 -3.2228e-05
0.00130474 4.82403e-05 5.46432e-07
4.82403e-05 5.66462e-05 4.54808e-07
5.46432e-07 4.54808e-07 -2.36137e-05
0.00115466 6.12428e-05 1.25156e-07
6.12428e-05 6.36009e-05 -7.00035e-08
1.25156e-07 -7.00035e-08 -1.31093e-05
0.00125172 6.27832e-05 6.53852e-07
6.27832e-05 5.85304e-05 3.92716e-07
6.53852e-07 3.92716e-07 -2.43341e-05
0.00105832 5.4798e-05 4.83666e-07
5.4798e-05 9.20225e-05 4.81039e-07
4.83666e-07 4.81039e-07 1.19726e-05
0.00123337 6.47567e-05 8.69445e-08
6.47567e-05 0.000120095 -3.65711e-07
8.69445e-08 -3.65711e-07 4.27121e-05
0.000959 5.84535e-05 -8.49392e-07
5.84535e-05 2.41433e-05 -4.73418e-07
-8.49392e-07 -4.73418e-07 -6.4512e-05
0.000911551 -7.47396e-06 1.4748e-06
-7.47396e-06 -5.64198e-07 2.32696e-06
1.4748e-06 2.32696e-06 -3.66094e-05
0.000989668 1.22727e-05 9.93852e-07
1.22727e-05 4.18951e-05 1.3185e-06
9.93852e-07 1.3185e-06 -1.8773e-05
0.00104592 5.10262e-05 6.31709e-07
5.10262e-05 7.65401e-05 -3.05416e-08
6.31709e-07 -3.05416e-08 -5.31521e-07
0.0010472 4.09351e-05 7.06087e-07
4.09351e-05 7.78067e-05 3.25244e-07
7.06087e-07 3.25244e-07 2.35793e-06
0.0010576 5.32321e-05 -2.04566e-08
5.32321e-05 8.46021e-05 -5.94255e-07
-2.04566e-08 -5.94255e-07 3.55515e-06
0.00128737 4.74022e-05 -1.06056e-06
4.74022e-05 3.34372e-05 7.59906e-09
-1.06056e-06 7.59906e-09 -4.72111e-05
0.00118246 6.64781e-05 1.05684e-06
6.64781e-05 6.6729e-05 1.10332e-06
1.05684e-06 1.10332e-06 -1.34918e-05
0.00106568 6.53211e-05 -2.74503e-07
6.53211e-05 -3.10618e-05 2.82159e-07
-2.74503e-07 2.82159e-07 -0.000113178
0.00103814 5.93368e-05 6.90301e-07
5.93368e-05 8.24683e-05 1.72202e-06
6.90301e-07 1.72202e-06 -6.89626e-06
0.0011834 6.76503e-05 2.30951e-06
6.76503e-05 0.000105231 1.05103e-07
2.30951e-06 1.05103e-07 1.34419e-05
0.000922644 -6.77754e-06 1.05203e-07
-6.77754e-06 2.18583e-06 2.74487e-08
1.05203e-07 2.74487e-08 -3.06433e-05
0.000823235 3.43344e-06 7.22604e-07
3.43344e-06 -4.45552e-05 1.88402e-06
7.22604e-07 1.88402e-06 -9.84671e-05
0.000906996 5.69692e-06 -2.82537e-07
5.69692e-06 -7.77419e-07 4.8139e-08
-2.82537e-07 4.8139e-08 -5.0887e-05
0.00118694 1.86009e-05 2.98649e-07
1.86009e-05 0.000147986 2.55149e-07
2.98649e-07 2.55149e-07 8.61522e-05
0.000962967 7.8373e-06 6.83908e-07
7.8373e-06 3.01047e-05 1.08217e-06
6.83908e-07 1.08217e-06 -1.79517e-05
0.000941528 2.24318e-06 6.5104e-07
2.24318e-06 7.88636e-06 1.81507e-06
6.5104e-07 1.81507e-06 -1.94888e-05
0.000937663 -2.33055e-06 1.19215e-07
-2.33055e-06 7.11512e-06 1.55772e-08
1.19215e-07 1.55772e-08 -2.16509e-05
0.00144805 -1.46539e-05 1.78426e-06
-1.46539e-05 0.000261957 2.02871e-06
1.78426e-06 2.02871e-06 0.000263628
0.00093694 -1.82347e-06 -1.03241e-06
-1.82347e-06 8.03739e-06 -1.92578e-06
-1.03241e-06 -1.92578e-06 -2.25325e-05
0.00147741 -1.66622e-05 -2.69467e-06
-1.66622e-05 0.00028043 -1.25623e-06
-2.69467e-06 -1.25623e-06 0.000280624
0.00113647 -1.53675e-05 1.34674e-05
-1.53675e-05 0.000107142 6.58368e-06
1.34674e-05 6.58368e-06 0.000121973
0.00147226 -1.84605e-05 -7.32863e-06
-1.84605e-05 0.000281864 -3.34621e-06
-7.32863e-06 -3.34621e-06 0.000280392
0.00172416 -2.17333e-05 1.14889e-05
-2.17333e-05 0.000412327 2.36006e-06
1.14889e-05 2.36006e-06 0.000428768
0.00241437 -2.9395e-05 -1.7494e-05
-2.9395e-05 0.000768549 -4.00936e-06
-1.7494e-05 -4.00936e-06 0.000786801
0.000828911 2.00127e-05 2.25465e-06
2.00127e-05 -3.99994e-05 -3.32518e-06
2.25465e-06 -3.32518e-06 -4.60352e-05
0.000832999 2.19231e-05 -1.64867e-07
2.19231e-05 -3.34285e-05 3.97941e-08
-1.64867e-07 3.97941e-08 -4.20882e-05
0.00241952 3.36805e-05 1.83108e-05
3.36805e-05 0.000778445 -3.81872e-06
1.83108e-05 -3.81872e-06 0.000795282
0.00252077 3.72902e-05 -4.18929e-07
3.72902e-05 0.000835962 -6.92111e-08
-4.18929e-07 -6.92111e-08 0.000850763
0.000830157 2.47262e-05 -3.45758e-06
2.47262e-05 -2.91788e-05 3.81045e-06
-3.45758e-06 3.81045e-06 -4.12281e-05
0.0026113 4.1183e-05 -2.37054e-05
4.1183e-05 0.000888117 3.93545e-06
-2.37054e-05 3.93545e-06 0.000900836
0.00130128 3.83664e-05 -2.0749e-06
3.83664e-05 5.73426e-05 -8.99204e-07
-2.0749e-06 -8.99204e-07 -1.93414e-05
0.00139433 1.13692e-05 -2.62701e-06
1.13692e-05 5.97791e-05 -9.58118e-07
-2.62701e-06 -9.58118e-07 -1.85957e-05
0.00144848 3.04615e-05 -1.0422e-06
3.04615e-05 7.32048e-05 -4.78452e-07
-1.0422e-06 -4.78452e-07 -6.06756e-06
0.0015126 -5.48844e-06 -1.75584e-06
-5.48844e-06 7.05846e-05 -6.85157e-07
-1.75584e-06 -6.85157e-07 -1.19519e-05
0.00146013 8.67258e-06 -3.18339e-06
8.67258e-06 6.2664e-05 -9.59701e-07
-3.18339e-06 -9.59701e-07 -2.02541e-05
0.00122395 7.01181e-06 -5.70735e-06
7.01181e-06 3.42449e-06 -1.28009e-07
-5.70735e-06 -1.28009e-07 -6.77428e-05
0.00144715 1.12949e-05 4.52068e-08
1.12949e-05 5.5647e-05 -3.78686e-07
4.52068e-08 -3.78686e-07 -2.75309e-05
0.00148807 -7.36356e-06 7.08244e-08
-7.36356e-06 5.14268e-05 1.1912e-07
7.08244e-08 1.1912e-07 -3.42645e-05
0.00147419 1.31071e-05 6.53947e-08
1.31071e-05 6.52866e-05 -8.68911e-08
6.53947e-08 -8.68911e-08 -1.51005e-05
0.00164405 -1.20208e-05 1.15846e-07
-1.20208e-05 0.000117974 -1.88756e-07
1.15846e-07 -1.88756e-07 3.75734e-05
0.00137375 3.80846e-05 -3.53392e-08
3.80846e-05 6.16966e-05 -2.8567e-08
-3.53392e-08 -2.8567e-08 -1.77583e-05
0.00149174 2.13021e-05 -1.40877e-07
2.13021e-05 7.05942e-05 9.21464e-07
-1.40877e-07 9.21464e-07 -1.77207e-06
0.00151666 8.38305e-07 2.5527e-06
8.38305e-07 6.67305e-05 -2.20485e-07
2.5527e-06 -2.20485e-07 -2.02019e-05
0.00152857 -7.58953e-07 1.79912e-06
-7.58953e-07 6.38189e-05 5.88188e-07
1.79912e-06 5.88188e-07 -2.19817e-05
0.00134498 5.09561e-06 7.01126e-07
5.09561e-06 -2.49125e-05 1.87076e-06
7.01126e-07 1.87076e-06 -0.000100597
0.00184942 -1.84717e-05 1.87487e-06
-1.84717e-05 0.000210492 5.55404e-07
1.87487e-06 5.55404e-07 0.000130314
0.00132592 3.32783e-05 -1.02104e-06
3.32783e-05 1.56798e-05 -5.25788e-07
-1.02104e-06 -5.25788e-07 -6.00712e-05
0.00174491 1.50217e-05 2.2968e-07
1.50217e-05 0.000172801 6.85546e-07
2.2968e-07 6.85546e-07 0.000107448
0.00141059 1.42091e-05 -4.30668e-06
1.42091e-05 5.00993e-05 7.9952e-07
-4.30668e-06 7.9952e-07 -3.13052e-05
0.00149329 -1.66701e-05 -3.83891e-06
-1.66701e-05 0.000111939 4.011e-07
-3.83891e-06 4.011e-07 3.56206e-05
0.00140322 1.39462e-05 -2.99395e-06
1.39462e-05 2.93305e-05 1.22714e-07
-2.99395e-06 1.22714e-07 -5.43076e-05
0.00162989 -2.50656e-05 -1.98887e-06
-2.50656e-05 0.000155866 1.19537e-07
-1.98887e-06 1.19537e-07 7.63723e-05
0.000917391 -7.44079e-06 -2.81101e-06
-7.44079e-06 2.32758e-05 1.63714e-06
-2.81101e-06 1.63714e-06 -3.0384e-05
0.00107004 -4.62935e-05 -1.44039e-06
-4.62935e-05 8.63647e-05 9.00304e-07
-1.44039e-06 9.00304e-07 1.76261e-05
0.00102741 -5.90316e-05 -7.68186e-07
-5.90316e-05 5.15448e-05 1.09672e-06
-7.68186e-07 1.09672e-06 -2.81305e-05
0.0015135 -5.59368e-05 -1.03553e-06
-5.59368e-05 0.000163463 6.54004e-07
-1.03553e-06 6.54004e-07 8.75698e-05
0.00132848 -4.10426e-05 -3.8342e-07
-4.10426e-05 9.48267e-06 1.14054e-06
-3.8342e-07 1.14054e-06 -6.34681e-05
0.00129466 -5.68386e-05 9.31271e-09
-5.68386e-05 5.92662e-05 9.42021e-07
9.31271e-09 9.42021e-07 -1.44915e-05
0.00104511 -6.38132e-05 -1.64847e-06
-6.38132e-05 4.33529e-06 9.09431e-07
-1.64847e-06 9.09431e-07 -8.31332e-05
0.00128874 -6.3622e-05 5.67615e-07
-6.3622e-05 7.34969e-05 -1.4982e-06
5.67615e-07 -1.4982e-06 1.97445e-06
0.0010459 -3.64548e-05 -1.62274e-06
-3.64548e-05 7.18057e-05 4.7625e-07
-1.62274e-06 4.7625e-07 4.22218e-06
0.0010291 -5.3034e-05 -1.55381e-06
-5.3034e-05 6.63732e-05 1.07989e-07
-1.55381e-06 1.07989e-07 -1.15899e-05
0.000893092 1.10793e-05 -1.55471e-06
1.10793e-05 -5.1526e-06 2.34182e-06
-1.55471e-06 2.34182e-06 -4.33069e-05
0.000905347 -1.13888e-05 -7.81942e-07
-1.13888e-05 1.12884e-06 1.0079e-06
-7.81942e-07 1.0079e-06 -6.5095e-05
0.00152496 1.50107e-05 -8.99886e-08
1.50107e-05 8.28238e-05 1.30596e-07
-8.99886e-08 1.30596e-07 -2.5007e-06
0.00162099 -4.81775e-06 -3.08683e-07
-4.81775e-06 0.000139373 1.13226e-07
-3.08683e-07 1.13226e-07 5.85752e-05
0.00151799 1.61516e-05 -6.79995e-07
1.61516e-05 7.33507e-05 2.14953e-07
-6.79995e-07 2.14953e-07 -1.1865e-05
0.0014907 -2.16331e-05 -2.17191e-07
-2.16331e-05 6.54829e-05 -2.8543e-07
-2.17191e-07 -2.8543e-07 -1.22333e-05
0.00103001 -4.17115e-05 6.77378e-08
-4.17115e-05 6.76959e-05 -2.53466e-08
6.77378e-08 -2.53466e-08 5.31942e-08
0.000898748 -5.33325e-05 3.11894e-07
-5.33325e-05 9.58001e-07 -1.85023e-07
3.11894e-07 -1.85023e-07 -7.54074e-05
0.00112318 -6.58693e-05 4.44174e-08
-6.58693e-05 8.69816e-05 -1.44545e-07
4.44174e-08 -1.44545e-07 -2.47979e-06
0.00137212 -5.35886e-05 -5.56736e-07
-5.35886e-05 7.04688e-05 -1.59155e-07
-5.56736e-07 -1.59155e-07 -2.81633e-06
0.00146484 -4.10146e-05 3.60375e-07
-4.10146e-05 6.27124e-05 7.15313e-07
3.60375e-07 7.15313e-07 -3.54056e-06
0.00127947 -7.21506e-05 -6.74605e-08
-7.21506e-05 0.00010673 5.27565e-07
-6.74605e-08 5.27565e-07 1.66176e-05
0.00129055 -5.73386e-05 1.60888e-08
-5.73386e-05 4.64011e-05 5.44024e-07
1.60888e-08 5.44024e-07 -2.00706e-05
0.00140572 -6.70687e-05 7.12866e-07
-6.70687e-05 0.000118787 -1.75389e-06
7.12866e-07 -1.75389e-06 4.96971e-05
0.00106254 -5.44802e-05 1.264e-07
-5.44802e-05 8.11427e-05 7.15912e-09
1.264e-07 7.15912e-09 6.03382e-06
0.00112517 -5.79665e-05 -1.92612e-08
-5.79665e-05 0.000112142 8.74241e-08
-1.92612e-08 8.74241e-08 3.24447e-05
0.00105506 -4.93704e-05 -2.27317e-07
-4.93704e-05 8.67983e-05 1.83906e-07
-2.27317e-07 1.83906e-07 6.92545e-06
0.000772441 1.71943e-05 -2.73705e-07
1.71943e-05 -6.90329e-05 3.00367e-08
-2.73705e-07 3.00367e-08 -0.000104467
0.000849452 -3.22103e-06 2.45083e-07
-3.22103e-06 -2.84218e-05 -4.67711e-07
2.45083e-07 -4.67711e-07 -8.99164e-05
0.00160169 2.12098e-05 2.22029e-06
2.12098e-05 0.0001068 2.06825e-07
2.22029e-06 2.06825e-07 1.92247e-05
0.00155125 9.95484e-06 2.44416e-06
9.95484e-06 7.7228e-05 9.3777e-08
2.44416e-06 9.3777e-08 -7.19444e-06
0.00151662 -2.45275e-05 1.9563e-06
-2.45275e-05 5.86506e-05 -2.33612e-06
1.9563e-06 -2.33612e-06 -1.36094e-05
0.0012977 -4.71074e-05 8.06131e-07
-4.71074e-05 2.45104e-06 -1.4355e-06
8.06131e-07 -1.4355e-06 -6.11238e-05
0.0010311 -5.50262e-05 4.72815e-07
-5.50262e-05 6.78683e-05 2.633e-08
4.72815e-07 2.633e-08 -6.35758e-06
0.00163041 -6.51011e-05 6.14776e-07
-6.51011e-05 0.000189517 6.44764e-08
6.14776e-07 6.44764e-08 0.000131237
0.000654601 -4.98938e-05 7.47385e-07
-4.98938e-05 -0.000117985 -2.1551e-06
7.47385e-07 -2.1551e-06 -0.000201598
0.00118614 -7.17392e-05 2.99567e-06
-7.17392e-05 0.00010533 -2.02706e-06
2.99567e-06 -2.02706e-06 5.45153e-06
0.00139936 -7.68586e-05 2.53813e-06
-7.68586e-05 0.000144082 1.24066e-06
2.53813e-06 1.24066e-06 5.22444e-05
0.000679598 1.38343e-05 9.08984e-07
1.38343e-05 -0.000118796 -2.56173e-06
9.08984e-07 -2.56173e-06 -0.00015231
0.00106086 -2.41401e-06 9.46938e-07
-2.41401e-06 7.86258e-05 -1.30673e-06
9.46938e-07 -1.30673e-06 2.31346e-05
0.00102326 -4.17307e-05 7.23388e-07
-4.17307e-05 7.10093e-05 -8.10431e-07
7.23388e-07 -8.10431e-07 -4.06152e-06
0.0010667 -5.64918e-05 3.52636e-07
-5.64918e-05 8.12622e-05 4.6743e-07
3.52636e-07 4.6743e-07 4.29762e-06
0.00113571 -5.84542e-05 8.66964e-07
-5.84542e-05 0.00012761 5.60323e-07
8.66964e-07 5.60323e-07 4.05088e-05
0.0010715 -5.73099e-05 3.07751e-07
-5.73099e-05 8.0653e-05 3.18179e-07
3.07751e-07 3.18179e-07 -7.24782e-07
0.000828007 -1.82317e-05 -2.54609e-06
-1.82317e-05 -4.26563e-05 -3.60371e-06
-2.54609e-06 -3.60371e-06 -4.94393e-05
0.000915971 -7.9676e-06 -1.69921e-06
-7.9676e-06 3.66126e-06 -2.40352e-06
-1.69921e-06 -2.40352e-06 -3.59636e-05
0.00133183 4.92249e-05 -5.01685e-07
4.92249e-05 6.93726e-05 -1.83738e-07
-5.01685e-07 -1.83738e-07 -1.09756e-05
0.000982409 1.36182e-05 -1.11916e-06
1.36182e-05 4.08495e-05 -1.29956e-06
-1.11916e-06 -1.29956e-06 -2.34482e-05
0.00099135 2.83558e-05 -1.43519e-06
2.83558e-05 4.86491e-05 -4.90979e-07
-1.43519e-06 -4.90979e-07 -1.83748e-05
0.000958043 4.3251e-05 -5.79729e-07
4.3251e-05 3.23844e-05 -1.56819e-07
-5.79729e-07 -1.56819e-07 -4.40603e-05
0.00114554 6.12883e-05 -6.49122e-07
6.12883e-05 5.95632e-05 -1.44949e-06
-6.49122e-07 -1.44949e-06 -1.71741e-05
0.00121365 6.28656e-05 8.95306e-09
6.28656e-05 3.95132e-05 -8.03326e-07
8.95306e-09 -8.03326e-07 -4.36778e-05
0.00102329 5.43487e-05 -3.27295e-07
5.43487e-05 7.55291e-05 -2.87754e-07
-3.27295e-07 -2.87754e-07 -4.45673e-06
0.00115167 6.36178e-05 -1.39741e-06
6.36178e-05 0.000117661 -2.3009e-07
-1.39741e-06 -2.3009e-07 2.96899e-05
0.00129826 6.59572e-05 -1.79961e-06
6.59572e-05 0.000152885 -7.79884e-07
-1.79961e-06 -7.79884e-07 7.58241e-05
0.00091687 -7.58994e-06 1.60362e-07
-7.58994e-06 1.83978e-06 4.07276e-08
1.60362e-07 4.07276e-08 -3.41102e-05
0.000991241 1.23212e-05 3.85529e-08
1.23212e-05 4.30983e-05 -2.4396e-08
3.85529e-08 -2.4396e-08 -1.77043e-05
0.00105352 5.14444e-05 -1.99307e-07
5.14444e-05 8.11598e-05 -1.80974e-07
-1.99307e-07 -1.80974e-07 4.52045e-06
0.00104495 4.20359e-05 -3.69708e-08
4.20359e-05 7.71412e-05 -3.71681e-08
-3.69708e-08 -3.71681e-08 1.42448e-06
0.00101064 5.21555e-05 -2.99635e-07
5.21555e-05 6.193e-05 -6.4781e-08
-2.99635e-07 -6.4781e-08 -1.95537e-05
0.00132375 4.95955e-05 -3.95701e-07
4.95955e-05 5.23704e-05 1.0632e-08
-3.95701e-07 1.0632e-08 -2.88692e-05
0.00119248 6.63876e-05 5.45429e-07
6.63876e-05 7.03849e-05 -1.52781e-07
5.45429e-07 -1.52781e-07 -9.9029e-06
0.00118991 6.68168e-05 2.76976e-07
6.68168e-05 2.75271e-05 4.64036e-07
2.76976e-07 4.64036e-07 -5.41816e-05
0.000922639 5.62847e-05 3.80137e-07
5.62847e-05 2.52813e-05 7.14031e-07
3.80137e-07 7.14031e-07 -6.45259e-05
0.00120648 6.84396e-05 -8.1498e-08
6.84396e-05 0.000117224 -2.36176e-07
-8.1498e-08 -2.36176e-07 2.38533e-05
0.000980715 1.13437e-05 8.92767e-07
1.13437e-05 3.63006e-05 1.43508e-06
8.92767e-07 1.43508e-06 -2.04364e-05
0.000939643 3.5883e-05 1.14854e-06
3.5883e-05 2.17311e-05 9.13183e-07
1.14854e-06 9.13183e-07 -5.28595e-05
0.00113086 6.05805e-05 -6.38444e-08
6.05805e-05 0.000122264 4.41622e-08
-6.38444e-08 4.41622e-08 3.8116e-05
0.000957928 5.01398e-05 3.21726e-07
5.01398e-05 3.45231e-05 -2.29207e-07
3.21726e-07 -2.29207e-07 -4.83637e-05
0.00102758 5.50067e-05 -2.24688e-07
5.50067e-05 6.54114e-05 -5.35857e-07
-2.24688e-07 -5.35857e-07 -1.88449e-05
0.00129414 5.02713e-05 -1.98183e-07
5.02713e-05 -4.96224e-07 -1.69126e-07
-1.98183e-07 -1.69126e-07 -6.68951e-05
0.00137575 7.63393e-05 1.31111e-06
7.63393e-05 0.000159223 1.70218e-07
1.31111e-06 1.70218e-07 6.84229e-05
0.000572673 5.80794e-05 7.0542e-07
5.80794e-05 -0.00029277 6.82762e-08
7.0542e-07 6.82762e-08 -0.00037554
0.00143233 7.21142e-05 2.31953e-06
7.21142e-05 0.000265294 2.72624e-06
2.31953e-06 2.72624e-06 0.000168951
0.000456652 5.32683e-05 5.37601e-07
5.32683e-05 -0.000258727 3.57392e-07
5.37601e-07 3.57392e-07 -0.000363545
0.00092694 -4.69929e-06 -1.19581e-06
-4.69929e-06 4.35983e-06 -2.07572e-06
-1.19581e-06 -2.07572e-06 -2.84199e-05
0.000891141 7.01454e-06 3.91215e-07
7.01454e-06 -9.43589e-06 6.07998e-07
3.91215e-07 6.07998e-07 -6.31101e-05
0.000906968 1.88425e-05 6.18415e-07
1.88425e-05 4.18912e-06 1.32169e-06
6.18415e-07 1.32169e-06 -6.32325e-05
0.000824834 -1.80574e-06 -4.58242e-07
-1.80574e-06 -4.29186e-05 -1.13533e-06
-4.58242e-07 -1.13533e-06 -9.37218e-05
0.000968444 1.16826e-05 1.25326e-07
1.16826e-05 3.29555e-05 1.05765e-08
1.25326e-07 1.05765e-08 -1.51856e-05
0.00105074 1.30055e-05 -1.09898e-07
1.30055e-05 7.78942e-05 -5.1132e-07
-1.09898e-07 -5.1132e-07 1.52225e-05
0.00114924 2.90119e-05 2.51321e-07
2.90119e-05 0.000132256 1.83015e-07
2.51321e-07 1.83015e-07 5.96309e-05
0.000882459 -1.96768e-06 1.52303e-07
-1.96768e-06 -6.15926e-06 1.10792e-06
1.52303e-07 1.10792e-06 -6.83757e-05
0.000961345 -1.09942e-05 1.20322e-07
-1.09942e-05 3.00764e-05 1.05298e-06
1.20322e-07 1.05298e-06 -1.64275e-05
0.000948742 5.87563e-06 6.37576e-07
5.87563e-06 1.09636e-05 1.74548e-06
6.37576e-07 1.74548e-06 -1.57689e-05
0.000942751 -2.62265e-06 -1.03347e-07
-2.62265e-06 8.68882e-06 2.76768e-08
-1.03347e-07 2.76768e-08 -1.87127e-05
0.00143707 -1.12833e-05 1.33108e-06
-1.12833e-05 0.000252865 1.97278e-06
1.33108e-06 1.97278e-06 0.000255938
0.000944524 -2.46588e-06 -5.63902e-07
-2.46588e-06 1.08548e-05 -1.86188e-06
-5.63902e-07 -1.86188e-06 -1.79608e-05
0.00146405 -1.38017e-05 -2.19607e-06
-1.38017e-05 0.00027004 -1.2313e-06
-2.19607e-06 -1.2313e-06 0.000271829
0.00112835 -1.29059e-05 1.09026e-05
-1.29059e-05 9.87619e-05 6.45779e-06
1.09026e-05 6.45779e-06 0.000114932
0.00149499 -1.59358e-05 -6.58027e-06
-1.59358e-05 0.000289151 -4.55053e-06
-6.58027e-06 -4.55053e-06 0.000289483
0.00107664 -1.62879e-05 4.41244e-06
-1.62879e-05 7.68404e-05 2.50295e-06
4.41244e-06 2.50295e-06 9.17032e-05
0.00229853 -2.82713e-05 -5.39787e-06
-2.82713e-05 0.000705659 -1.6748e-06
-5.39787e-06 -1.6748e-06 0.000725133
0.000837943 1.80429e-05 1.87353e-06
1.80429e-05 -4.00701e-05 -3.27247e-06
1.87353e-06 -3.27247e-06 -4.40965e-05
0.000844929 2.0094e-05 -1.17153e-07
2.0094e-05 -3.21981e-05 3.72309e-08
-1.17153e-07 3.72309e-08 -3.83224e-05
0.00234857 2.98438e-05 1.61602e-05
2.98438e-05 0.000736661 -3.82545e-06
1.61602e-05 -3.82545e-06 0.000755131
0.00084659 2.21746e-05 -3.0283e-06
2.21746e-05 -2.66821e-05 3.5858e-06
-3.0283e-06 3.5858e-06 -3.54996e-05
0.00242682 3.34523e-05 -5.62365e-07
3.34523e-05 0.000782689 -6.10756e-08
-5.62365e-07 -6.10756e-08 0.000799323
0.00252546 3.70696e-05 -2.20418e-05
3.70696e-05 0.000838865 3.99429e-06
-2.20418e-05 3.99429e-06 0.00085345
0.00138376 3.899e-05 -1.17427e-06
3.899e-05 6.63951e-05 -4.97733e-07
-1.17427e-06 -4.97733e-07 -1.32448e-05
0.00150399 1.11374e-05 -1.20343e-06
1.11374e-05 8.00723e-05 -7.66846e-07
-1.20343e-06 -7.66846e-07 -2.54251e-07
0.00149447 2.14523e-05 1.09429e-06
2.14523e-05 7.02765e-05 -6.19748e-08
1.09429e-06 -6.19748e-08 -1.62033e-06
0.00163027 -1.31573e-05 -1.52635e-06
-1.31573e-05 0.000110074 -8.22047e-07
-1.52635e-06 -8.22047e-07 2.97496e-05
0.0015101 -1.21046e-05 -1.88897e-06
-1.21046e-05 6.13393e-05 -6.47111e-07
-1.88897e-06 -6.47111e-07 -2.48139e-05
0.00145429 1.46639e-05 -3.2379e-06
1.46639e-05 5.9178e-05 -2.63546e-07
-3.2379e-06 -2.63546e-07 -2.40225e-05
0.00151855 4.48807e-06 8.53751e-08
4.48807e-06 6.74825e-05 -2.62694e-07
8.53751e-08 -2.62694e-07 -1.95856e-05
0.00154028 -4.78067e-06 2.24915e-07
-4.78067e-06 7.01919e-05 -1.14747e-07
2.24915e-07 -1.14747e-07 -1.54768e-05
0.00142853 3.47039e-06 -1.72295e-07
3.47039e-06 1.41225e-05 1.02682e-07
-1.72295e-07 1.02682e-07 -6.22379e-05
0.00165754 -1.78851e-05 -2.30698e-07
-1.78851e-05 0.000116843 -4.62953e-07
-2.30698e-07 -4.62953e-07 3.61693e-05
0.00137905 3.44087e-05 -3.07203e-07
3.44087e-05 4.35146e-05 -4.33001e-08
-3.07203e-07 -4.33001e-08 -3.26468e-05
0.00155796 1.51396e-05 1.69522e-06
1.51396e-05 8.19216e-05 -4.61046e-07
1.69522e-06 -4.61046e-07 1.93882e-05
0.00154019 1.16211e-05 1.51279e-06
1.16211e-05 7.1341e-05 3.04675e-07
1.51279e-06 3.04675e-07 -1.65816e-05
0.0015669 -1.26834e-05 1.97811e-06
-1.26834e-05 8.28353e-05 5.18335e-07
1.97811e-06 5.18335e-07 -2.14306e-06
0.00156066 -4.93083e-06 9.6095e-07
-4.93083e-06 6.34205e-05 2.05985e-06
9.6095e-07 2.05985e-06 -8.89581e-06
0.00151605 3.05548e-05 -5.26264e-07
3.05548e-05 7.21976e-05 5.11391e-08
-5.26264e-07 5.11391e-08 1.23694e-05
0.00151687 1.52966e-05 -2.35341e-06
1.52966e-05 7.90751e-05 4.28044e-07
-2.35341e-06 4.28044e-07 -6.20173e-06
0.00162113 -4.15124e-06 -3.08551e-06
-4.15124e-06 0.000139804 2.44711e-07
-3.08551e-06 2.44711e-07 5.92104e-05
0.00145627 1.58937e-05 -3.30707e-06
1.58937e-05 4.44989e-05 1.28299e-07
-3.30707e-06 1.28299e-07 -4.08605e-05
0.00154103 -2.20674e-05 -1.36455e-06
-2.20674e-05 9.02811e-05 6.14671e-07
-1.36455e-06 6.14671e-07 1.26934e-05
0.00105804 -4.17731e-05 -1.42322e-06
-4.17731e-05 8.03749e-05 4.36056e-07
-1.42322e-06 4.36056e-07 1.28538e-05
0.000985016 -5.49806e-05 -1.73036e-07
-5.49806e-05 4.41385e-05 5.86689e-07
-1.73036e-07 5.86689e-07 -3.15237e-05
0.0011293 -6.58669e-05 -1.38088e-06
-6.58669e-05 9.13519e-05 2.12156e-06
-1.38088e-06 2.12156e-06 1.63599e-06
0.00149566 -5.51472e-05 -6.61536e-07
-5.51472e-05 0.000131637 5.86552e-07
-6.61536e-07 5.86552e-07 5.76224e-05
0.00131389 -4.03603e-05 -5.45048e-07
-4.03603e-05 -4.93821e-06 2.16688e-06
-5.45048e-07 2.16688e-06 -6.92008e-05
0.00129983 -5.70382e-05 6.55646e-07
-5.70382e-05 5.20287e-05 1.08976e-06
6.55646e-07 1.08976e-06 -1.4408e-05
0.00128828 -7.19678e-05 -2.04495e-06
-7.19678e-05 0.000112482 2.47177e-07
-2.04495e-06 2.47177e-07 2.1569e-05
0.00115696 -6.17209e-05 -1.52966e-06
-6.17209e-05 -4.30999e-06 -4.42515e-06
-1.52966e-06 -4.42515e-06 -7.0976e-05
0.00108864 -5.51957e-05 -7.31175e-07
-5.51957e-05 9.36671e-05 -9.9785e-08
-7.31175e-07 -9.9785e-08 1.85739e-05
0.00106994 -5.63283e-05 -1.2022e-06
-5.63283e-05 8.36867e-05 -6.87231e-07
-1.2022e-06 -6.87231e-07 4.11848e-06
0.0010707 -4.55412e-05 -9.96408e-07
-4.55412e-05 9.44923e-05 9.43568e-07
-9.96408e-07 9.43568e-07 1.46775e-05
0.000636851 1.67596e-05 -1.0492e-06
1.67596e-05 -0.000137735 2.12771e-06
-1.0492e-06 2.12771e-06 -0.000174155
0.000897977 1.95349e-06 -3.01619e-07
1.95349e-06 -5.78834e-06 9.95561e-07
-3.01619e-07 9.95561e-07 -6.62021e-05
0.00152524 1.98549e-05 -3.44348e-08
1.98549e-05 7.02647e-05 -1.06575e-09
-3.44348e-08 -1.06575e-09 -1.70209e-05
0.00158535 9.11744e-06 -2.01644e-07
9.11744e-06 9.57872e-05 1.59851e-07
-2.01644e-07 1.59851e-07 1.16763e-05
0.00157661 -2.48515e-05 -8.12634e-07
-2.48515e-05 9.23559e-05 2.03825e-07
-8.12634e-07 2.03825e-07 2.0455e-05
0.00106909 -5.56018e-05 3.60721e-08
-5.56018e-05 8.55306e-05 1.04664e-07
3.60721e-08 1.04664e-07 1.13087e-05
0.000925613 -5.69406e-05 5.89005e-07
-5.69406e-05 1.49297e-05 -4.6767e-07
5.89005e-07 -4.6767e-07 -6.78304e-05
0.00115572 -7.06892e-05 -1.0879e-07
-7.06892e-05 9.30461e-05 -2.20232e-07
-1.0879e-07 -2.20232e-07 -7.35032e-06
0.001374 -4.77793e-05 3.01355e-07
-4.77793e-05 3.8932e-05 -3.84172e-07
3.01355e-07 -3.84172e-07 -2.56505e-05
0.001346 -7.37854e-05 -1.56393e-07
-7.37854e-05 0.000119546 -5.24523e-07
-1.56393e-07 -5.24523e-07 3.05046e-05
0.00136989 -6.28759e-05 -5.47555e-07
-6.28759e-05 6.38667e-05 -6.37374e-07
-5.47555e-07 -6.37374e-07 5.00272e-06
0.000672452 1.81019e-05 -1.81743e-08
1.81019e-05 -0.000122316 -6.209e-07
-1.81743e-08 -6.209e-07 -0.000155552
0.0010798 -5.68384e-05 5.77869e-08
-5.68384e-05 8.77941e-05 1.28455e-07
5.77869e-08 1.28455e-07 1.0665e-05
0.00103782 -5.61909e-05 -8.21854e-07
-5.61909e-05 6.42867e-05 -4.76228e-08
-8.21854e-07 -4.76228e-08 -1.61526e-05
0.00113227 -5.65332e-05 -3.88436e-07
-5.65332e-05 0.000125565 4.73666e-07
-3.88436e-07 4.73666e-07 3.85062e-05
0.00110231 -4.14318e-05 -2.65151e-08
-4.14318e-05 0.00011004 3.22387e-08
-2.65151e-08 3.22387e-08 3.54198e-05
0.00095048 -2.07719e-06 1.05971e-07
-2.07719e-06 2.17379e-05 1.84152e-07
1.05971e-07 1.84152e-07 -3.42576e-05
0.00165273 2.35402e-05 2.39003e-06
2.35402e-05 0.000127382 6.49554e-07
2.39003e-06 6.49554e-07 3.99386e-05
0.00159914 9.71831e-06 2.6781e-06
9.71831e-06 8.33632e-05 -2.71821e-07
2.6781e-06 -2.71821e-07 -1.18896e-07
0.00135197 -3.02806e-05 2.37955e-06
-3.02806e-05 -2.62405e-05 -3.14682e-06
2.37955e-06 -3.14682e-06 -9.16924e-05
0.00156523 -5.67282e-05 1.42242e-06
-5.67282e-05 9.44193e-05 -1.59266e-06
1.42242e-06 -1.59266e-06 4.39837e-05
0.00105307 -5.7599e-05 3.06742e-07
-5.7599e-05 7.76912e-05 -2.8942e-07
3.06742e-07 -2.8942e-07 -4.01121e-07
0.00141948 -7.40359e-05 3.21213e-06
-7.40359e-05 0.000102686 1.88133e-06
3.21213e-06 1.88133e-06 2.62992e-05
0.00086831 -5.92014e-05 5.58654e-07
-5.92014e-05 -1.63067e-05 -2.88002e-06
5.58654e-07 -2.88002e-06 -0.000111935
0.00141178 -8.03267e-05 2.42728e-06
-8.03267e-05 0.000208584 -7.00742e-07
2.42728e-06 -7.00742e-07 9.96424e-05
0.00068138 1.36773e-05 7.03111e-07
1.36773e-05 -0.000119645 -2.42369e-06
7.03111e-07 -2.42369e-06 -0.000150649
0.00108132 -3.24692e-07 8.62026e-07
-3.24692e-07 8.80825e-05 -1.28315e-06
8.62026e-07 -1.28315e-06 3.74127e-05
0.00118078 -3.49742e-05 4.89847e-08
-3.49742e-05 0.000146537 5.85524e-08
4.89847e-08 5.85524e-08 7.69771e-05
0.00104905 -4.49658e-05 6.74945e-07
-4.49658e-05 8.6785e-05 -1.07191e-06
6.74945e-07 -1.07191e-06 -5.7984e-07
0.0010527 -5.73719e-05 3.00202e-07
-5.73719e-05 7.3483e-05 4.12654e-09
3.00202e-07 4.12654e-09 -7.0045e-06
0.00105757 -5.73293e-05 9.32452e-07
-5.73293e-05 7.9787e-05 8.22202e-07
9.32452e-07 8.22202e-07 -7.78467e-06
0.000919915 -8.00258e-06 -1.32621e-06
-8.00258e-06 3.04818e-06 -2.26979e-06
-1.32621e-06 -2.26979e-06 -3.27972e-05
0.000993817 1.2237e-05 -9.84248e-07
1.2237e-05 4.48146e-05 -1.47363e-06
-9.84248e-07 -1.47363e-06 -1.61135e-05
0.00135918 5.18593e-05 -1.37014e-07
5.18593e-05 7.0911e-05 -1.14902e-07
-1.37014e-07 -1.14902e-07 -1.09353e-05
0.00104386 4.26493e-05 -9.10343e-07
4.26493e-05 7.69921e-05 -4.75801e-07
-9.10343e-07 -4.75801e-07 1.05646e-06
0.00106624 5.20547e-05 -5.40504e-07
5.20547e-05 8.83875e-05 -7.77968e-08
-5.40504e-07 -7.77968e-08 1.2158e-05
0.00096709 5.12362e-05 -5.82544e-07
5.12362e-05 4.10518e-05 5.65721e-08
-5.82544e-07 5.65721e-08 -4.08947e-05
0.00120415 6.63534e-05 -8.61966e-07
6.63534e-05 7.48282e-05 -1.535e-06
-8.61966e-07 -1.535e-06 -5.52899e-06
0.00132651 6.86214e-05 1.00548e-07
6.86214e-05 9.21864e-05 -1.69387e-07
1.00548e-07 -1.69387e-07 1.08556e-05
0.000808818 5.33166e-05 -2.91888e-07
5.33166e-05 -3.09527e-05 -3.48598e-07
-2.91888e-07 -3.48598e-07 -0.000121225
0.0012334 6.93816e-05 -1.58157e-06
6.93816e-05 0.000130935 -4.98019e-07
-1.58157e-06 -4.98019e-07 3.59951e-05
0.00098519 1.03909e-05 5.11104e-08
1.03909e-05 3.86395e-05 2.20344e-08
5.11104e-08 2.20344e-08 -1.81164e-05
0.000993877 3.88346e-05 4.19445e-07
3.88346e-05 4.98659e-05 3.13669e-07
4.19445e-07 3.13669e-07 -2.48108e-05
0.00114217 6.08161e-05 -1.54514e-07
6.08161e-05 0.000128863 -5.19253e-07
-1.54514e-07 -5.19253e-07 4.53648e-05
0.00102173 5.12816e-05 -2.52034e-07
5.12816e-05 6.74759e-05 -1.35764e-08
-2.52034e-07 -1.35764e-08 -1.51609e-05
0.00102 5.47901e-05 -8.12518e-07
5.47901e-05 6.46833e-05 -3.46964e-07
-8.12518e-07 -3.46964e-07 -1.9231e-05
0.0015992 5.31614e-05 -6.00069e-07
5.31614e-05 0.000148543 -4.11875e-07
-6.00069e-07 -4.11875e-07 8.23205e-05
0.0014087 7.68483e-05 8.19287e-07
7.68483e-05 0.00017221 7.54228e-08
8.19287e-07 7.54228e-08 8.22838e-05
0.000943775 6.52243e-05 -5.19528e-07
6.52243e-05 -0.000104622 5.32446e-07
-5.19528e-07 5.32446e-07 -0.000185541
0.00123018 6.68195e-05 1.01986e-06
6.68195e-05 0.000166615 1.04122e-06
1.01986e-06 1.04122e-06 6.95934e-05
0.000836584 6.30063e-05 -1.37038e-06
6.30063e-05 -7.06951e-05 -4.47119e-07
-1.37038e-06 -4.47119e-07 -0.000177278
0.000947441 3.17067e-05 1.02377e-06
3.17067e-05 2.50441e-05 1.26683e-06
1.02377e-06 1.26683e-06 -4.63069e-05
0.000949732 5.20154e-05 6.8269e-07
5.20154e-05 3.10366e-05 2.82814e-08
6.8269e-07 2.82814e-08 -5.42042e-05
0.00114925 6.20483e-05 2.11259e-07
6.20483e-05 0.000130104 4.97454e-07
2.11259e-07 4.97454e-07 3.9521e-05
0.000851713 5.09083e-05 7.6278e-07
5.09083e-05 -1.98908e-05 -1.72632e-07
7.6278e-07 -1.72632e-07 -0.000107909
0.00206038 4.25138e-05 1.59517e-06
4.25138e-05 0.000266518 1.35487e-06
1.59517e-06 1.35487e-06 0.000212641
0.00109114 6.30969e-05 2.24968e-06
6.30969e-05 -0.000111698 4.17086e-07
2.24968e-06 4.17086e-07 -0.000178292
0.00126788 7.88134e-05 1.59413e-06
7.88134e-05 9.66374e-05 -7.77334e-07
1.59413e-06 -7.77334e-07 -6.26591e-06
0.00077736 5.86857e-05 9.48008e-07
5.86857e-05 -5.92489e-05 2.08833e-06
9.48008e-07 2.08833e-06 -0.000174811
0.000959752 1.13059e-05 -1.5289e-07
1.13059e-05 2.60662e-05 -8.46332e-07
-1.5289e-07 -8.46332e-07 -2.73975e-05
0.000981848 2.46767e-05 1.99655e-07
2.46767e-05 4.28702e-05 4.36692e-07
1.99655e-07 4.36692e-07 -2.4395e-05
0.00106363 3.51293e-05 3.99624e-07
3.51293e-05 8.8182e-05 5.94214e-07
3.99624e-07 5.94214e-07 1.13159e-05
0.000974493 1.44832e-05 -6.12696e-07
1.44832e-05 3.62155e-05 -1.08291e-06
-6.12696e-07 -1.08291e-06 -1.20965e-05
0.000914618 8.04435e-06 -2.65414e-07
8.04435e-06 7.94943e-06 -1.2821e-06
-2.65414e-07 -1.2821e-06 -5.5635e-05
0.000966417 -1.20704e-06 4.41049e-07
-1.20704e-06 3.28169e-05 2.55591e-08
4.41049e-07 2.55591e-08 -1.39026e-05
0.00106639 2.75792e-05 -5.02338e-08
2.75792e-05 8.95776e-05 -4.32446e-07
-5.02338e-08 -4.32446e-07 1.58878e-05
0.000933473 5.25612e-06 2.04593e-07
5.25612e-06 2.05337e-05 4.09171e-07
2.04593e-07 4.09171e-07 -4.16349e-05
0.0011354 3.65272e-05 4.0653e-07
3.65272e-05 0.00012489 3.0863e-07
4.0653e-07 3.0863e-07 4.38016e-05
0.000898553 -2.25889e-06 3.49709e-08
-2.25889e-06 4.75894e-06 9.93674e-07
3.49709e-08 9.93674e-07 -6.7533e-05
0.000883683 2.6285e-05 4.70018e-07
2.6285e-05 -2.66863e-06 1.10305e-06
4.70018e-07 1.10305e-06 -6.45809e-05
0.000978548 -2.02119e-05 -3.53802e-07
-2.02119e-05 3.92053e-05 1.04739e-06
-3.53802e-07 1.04739e-06 -6.61619e-06
0.000935801 7.91808e-06 4.98311e-07
7.91808e-06 4.93834e-06 1.64041e-06
4.98311e-07 1.64041e-06 -2.17159e-05
0.000941682 -2.05996e-06 -2.67254e-07
-2.05996e-06 7.47047e-06 3.05749e-08
-2.67254e-07 3.05749e-08 -1.92191e-05
0.00143048 -7.55547e-06 9.93241e-07
-7.55547e-06 0.000246968 1.91504e-06
9.93241e-07 1.91504e-06 0.000250716
0.00094302 -8.41986e-06 -7.15332e-08
-8.41986e-06 8.97534e-06 -1.79275e-06
-7.15332e-08 -1.79275e-06 -1.84365e-05
0.00145345 -1.05788e-05 -1.70405e-06
-1.05788e-05 0.00026133 -1.20358e-06
-1.70405e-06 -1.20358e-06 0.000264413
0.00111757 -1.01579e-05 8.26851e-06
-1.01579e-05 8.93524e-05 6.32287e-06
8.26851e-06 6.32287e-06 0.000106657
0.00147902 -1.32375e-05 -4.92194e-06
-1.32375e-05 0.000277616 -4.45133e-06
-4.92194e-06 -4.45133e-06 0.000279496
0.00106983 -1.35826e-05 3.24389e-06
-1.35826e-05 6.89269e-05 2.46336e-06
3.24389e-06 2.46336e-06 8.51926e-05
0.00101532 -1.66523e-05 -2.31057e-06
-1.66523e-05 4.58097e-05 -1.63639e-06
-2.31057e-06 -1.63639e-06 6.07649e-05
0.00084612 1.57569e-05 1.51711e-06
1.57569e-05 -4.0522e-05 -3.23711e-06
1.51711e-06 -3.23711e-06 -4.26976e-05
0.000854385 1.80801e-05 -1.10832e-07
1.80801e-05 -3.20429e-05 1.88847e-08
-1.10832e-07 1.88847e-08 -3.61283e-05
0.00229542 2.58641e-05 1.40427e-05
2.58641e-05 0.000704053 -3.84091e-06
1.40427e-05 -3.84091e-06 0.000723983
0.000861327 2.01891e-05 -2.52868e-06
2.01891e-05 -2.42205e-05 3.37925e-06
-2.52868e-06 3.37925e-06 -3.04327e-05
0.00235299 2.97177e-05 -6.30764e-07
2.97177e-05 0.000739506 -5.10569e-08
-6.30764e-07 -5.10569e-08 0.0007578
0.00243319 3.32181e-05 -1.99465e-05
3.32181e-05 0.000786466 3.96471e-06
-1.99465e-05 3.96471e-06 0.000802899
0.00143344 3.56245e-05 5.5075e-07
3.56245e-05 7.19093e-05 3.87479e-07
5.5075e-07 3.87479e-07 -4.65751e-06
0.00151095 1.77223e-06 -9.33779e-07
1.77223e-06 5.26205e-05 -8.71952e-07
-9.33779e-07 -8.71952e-07 -2.44176e-05
0.00138382 1.52086e-05 2.38883e-06
1.52086e-05 -2.75858e-06 -2.39735e-06
2.38883e-06 -2.39735e-06 -6.24705e-05
0.00147911 -1.7373e-05 -2.19357e-06
-1.7373e-05 2.987e-05 -1.6547e-06
-2.19357e-06 -1.6547e-06 -5.13193e-05
0.00155068 -7.3969e-06 -1.56408e-06
-7.3969e-06 7.60693e-05 -8.13588e-07
-1.56408e-06 -8.13588e-07 -9.52735e-06
0.0015178 3.76811e-06 -1.96593e-06
3.76811e-06 6.69551e-05 -3.55271e-07
-1.96593e-06 -3.55271e-07 -2.02471e-05
0.00155003 1.38733e-05 1.93458e-07
1.38733e-05 7.76731e-05 -3.82705e-08
1.93458e-07 -3.82705e-08 -9.9501e-06
0.00153689 -1.64158e-05 -2.14533e-07
-1.64158e-05 6.85177e-05 1.09986e-07
-2.14533e-07 1.09986e-07 -1.63352e-05
0.00154546 -4.33899e-06 7.49771e-07
-4.33899e-06 5.75387e-05 -2.79239e-07
7.49771e-07 -2.79239e-07 -1.45104e-05
0.00145261 2.74883e-05 3.90564e-08
2.74883e-05 3.78693e-05 -4.86939e-07
3.90564e-08 -4.86939e-07 -2.17064e-05
0.00155613 7.76738e-06 1.57437e-06
7.76738e-06 8.35722e-05 2.38898e-07
1.57437e-06 2.38898e-07 -3.59637e-06
0.001724 -2.50784e-05 2.19043e-06
-2.50784e-05 0.00015178 8.51268e-07
2.19043e-06 8.51268e-07 7.18295e-05
0.00152135 1.18529e-05 1.07089e-06
1.18529e-05 2.97276e-05 2.6165e-06
1.07089e-06 2.6165e-06 -3.34021e-05
0.00145733 1.86789e-05 -2.71577e-06
1.86789e-05 3.78493e-05 -1.12425e-07
-2.71577e-06 -1.12425e-07 -4.91434e-05
0.00161773 8.41187e-06 -2.52246e-06
8.41187e-06 0.000113602 5.60714e-07
-2.52246e-06 5.60714e-07 2.97949e-05
0.00163102 -2.52355e-05 -1.75889e-06
-2.52355e-05 0.000123246 1.84234e-06
-1.75889e-06 1.84234e-06 5.17225e-05
0.00110151 -5.59302e-05 -6.19081e-07
-5.59302e-05 0.00010048 3.21425e-07
-6.19081e-07 3.21425e-07 2.62767e-05
0.00120541 -6.4228e-05 -3.60712e-07
-6.4228e-05 0.000152044 1.037e-06
-3.60712e-07 1.037e-06 7.01371e-05
0.00112867 -6.97118e-05 -2.08702e-06
-6.97118e-05 8.2623e-05 2.66719e-06
-2.08702e-06 2.66719e-06 -1.83176e-05
0.00144125 -4.84006e-05 -9.26867e-07
-4.84006e-05 7.09555e-05 1.12282e-06
-9.26867e-07 1.12282e-06 5.38021e-06
0.0011206 -6.06783e-05 -2.00061e-06
-6.06783e-05 -5.63825e-05 -4.76262e-07
-2.00061e-06 -4.76262e-07 -0.000115835
0.00130145 -7.1062e-05 -3.10181e-06
-7.1062e-05 9.94467e-05 -2.37401e-06
-3.10181e-06 -2.37401e-06 1.31787e-05
0.00109444 -5.72279e-05 -5.1365e-07
-5.72279e-05 9.50786e-05 -3.86361e-08
-5.1365e-07 -3.86361e-08 1.7783e-05
0.000995593 -5.4841e-05 -2.1139e-06
-5.4841e-05 4.38351e-05 -4.47749e-07
-2.1139e-06 -4.47749e-07 -3.56665e-05
0.00112553 -5.56578e-05 -1.01388e-06
-5.56578e-05 0.000122001 2.19529e-07
-1.01388e-06 2.19529e-07 3.48933e-05
0.000660816 2.02022e-05 -7.05042e-07
2.02022e-05 -0.000127948 1.25706e-06
-7.05042e-07 1.25706e-06 -0.00016095
0.00116865 -4.10997e-05 -6.75857e-07
-4.10997e-05 0.000142666 1.02787e-06
-6.75857e-07 1.02787e-06 6.85689e-05
0.000834047 1.10465e-06 1.02945e-08
1.10465e-06 -3.78829e-05 1.70009e-06
1.02945e-08 1.70009e-06 -9.45315e-05
0.00159187 2.33767e-05 -1.87464e-08
2.33767e-05 9.80594e-05 2.57471e-08
-1.87464e-08 2.57471e-08 1.0649e-05
0.00159131 8.19257e-06 4.84374e-07
8.19257e-06 7.78326e-05 -8.18009e-09
4.84374e-07 -8.18009e-09 -5.62859e-06
0.00144107 -3.06842e-05 -1.88011e-07
-3.06842e-05 1.63078e-05 -3.28066e-07
-1.88011e-07 -3.28066e-07 -5.04769e-05
0.00108801 -5.85428e-05 1.85305e-08
-5.85428e-05 9.39559e-05 2.84975e-07
1.85305e-08 2.84975e-07 1.56941e-05
0.000915316 -6.02262e-05 -9.5253e-08
-6.02262e-05 8.91201e-06 1.3715e-07
-9.5253e-08 1.3715e-07 -8.51287e-05
0.0014194 -7.99225e-05 -1.30101e-06
-7.99225e-05 0.000211659 1.34078e-06
-1.30101e-06 1.34078e-06 0.000103562
0.00157658 -5.81628e-05 -1.18052e-07
-5.81628e-05 0.00010519 4.39247e-07
-1.18052e-07 4.39247e-07 5.46753e-05
0.0013139 -7.16403e-05 1.38044e-07
-7.16403e-05 4.85133e-05 -8.79124e-07
1.38044e-07 -8.79124e-07 -2.75265e-05
0.000802637 1.41023e-05 8.71662e-08
1.41023e-05 -5.82984e-05 -5.82163e-07
8.71662e-08 -5.82163e-07 -8.83453e-05
0.00106307 6.95271e-06 -1.97234e-07
6.95271e-06 7.93108e-05 8.71287e-08
-1.97234e-07 8.71287e-08 2.875e-05
0.00096766 -5.51398e-05 -5.99728e-07
-5.51398e-05 3.24212e-05 2.86836e-07
-5.99728e-07 2.86836e-07 -4.80519e-05
0.00107875 -5.77826e-05 3.75026e-07
-5.77826e-05 8.99426e-05 8.54001e-08
3.75026e-07 8.54001e-08 2.73616e-06
0.00105116 -4.39789e-05 -9.22734e-08
-4.39789e-05 8.80704e-05 -2.74445e-07
-9.22734e-08 -2.74445e-07 1.30024e-06
0.0011074 -3.76381e-05 -6.34148e-07
-3.76381e-05 0.000109875 9.80868e-07
-6.34148e-07 9.80868e-07 3.92803e-05
0.00158427 2.79619e-05 2.12956e-06
2.79619e-05 9.00703e-05 1.19322e-06
2.12956e-06 1.19322e-06 4.75763e-06
0.00163178 4.98581e-07 2.76564e-06
4.98581e-07 8.52974e-05 -5.55226e-07
2.76564e-06 -5.55226e-07 6.57604e-06
0.00143878 -4.21087e-05 1.85511e-06
-4.21087e-05 -1.66074e-05 -3.66795e-06
1.85511e-06 -3.66795e-06 -6.30641e-05
0.00207867 -7.88194e-05 2.38566e-06
-7.88194e-05 0.000342924 -7.81345e-07
2.38566e-06 -7.81345e-07 0.000291925
0.000916803 -5.62905e-05 -1.63303e-07
-5.62905e-05 1.68668e-05 -7.0336e-07
-1.63303e-07 -7.0336e-07 -6.85682e-05
0.00144078 -8.30793e-05 2.77861e-06
-8.30793e-05 0.000194938 2.33005e-06
2.77861e-06 2.33005e-06 8.23319e-05
0.00144411 -7.78019e-05 1.81312e-06
-7.78019e-05 0.00026325 -3.72158e-06
1.81312e-06 -3.72158e-06 0.000157681
0.000932629 1.11351e-05 5.93929e-07
1.11351e-05 5.03383e-06 -1.79985e-06
5.93929e-07 -1.79985e-06 -2.2195e-05
0.00096899 -2.40839e-05 7.40817e-07
-2.40839e-05 3.32592e-05 -1.19861e-06
7.40817e-07 -1.19861e-06 -1.07638e-05
0.000802831 1.20325e-05 1.13864e-07
1.20325e-05 -5.17412e-05 -1.79973e-06
1.13864e-07 -1.79973e-06 -0.000101109
0.00107241 -2.47725e-05 3.20938e-07
-2.47725e-05 9.05001e-05 -5.87665e-07
3.20938e-07 -5.87665e-07 2.44771e-05
0.000980963 -3.17686e-05 1.98179e-07
-3.17686e-05 5.1358e-05 -1.02001e-06
1.98179e-07 -1.02001e-06 -3.02127e-05
0.00106039 -5.75235e-05 1.94463e-06
-5.75235e-05 9.59017e-05 5.29819e-07
1.94463e-06 5.29819e-07 -7.45217e-08
0.000826039 -5.28067e-05 3.94341e-07
-5.28067e-05 -4.20753e-05 1.00894e-07
3.94341e-07 1.00894e-07 -0.000123836
0.00171237 -7.71613e-05 5.07529e-07
-7.71613e-05 0.00041926 7.94149e-07
5.07529e-07 7.94149e-07 0.000325446
0.000988322 9.02419e-06 -6.4063e-07
9.02419e-06 4.02664e-05 -1.49982e-06
-6.4063e-07 -1.49982e-06 -1.64701e-05
0.0010468 4.25059e-05 -5.06729e-07
4.25059e-05 7.74544e-05 -3.64658e-07
-5.06729e-07 -3.64658e-07 2.6143e-06
0.00189548 5.5871e-05 6.99647e-08
5.5871e-05 0.000293282 -3.95584e-07
6.99647e-08 -3.95584e-07 0.000227252
0.00109568 5.36535e-05 -8.19645e-07
5.36535e-05 0.000105471 7.06655e-08
-8.19645e-07 7.06655e-08 2.29775e-05
0.00115478 6.10985e-05 -6.63112e-07
6.10985e-05 0.000135882 -1.12446e-06
-6.63112e-07 -1.12446e-06 5.30599e-05
0.000993896 5.39078e-05 -9.13296e-07
5.39078e-05 5.4816e-05 -5.21675e-08
-9.13296e-07 -5.21675e-08 -2.8707e-05
0.00143431 7.71498e-05 -3.87567e-07
7.71498e-05 0.000181591 -4.63416e-07
-3.87567e-07 -4.63416e-07 9.25528e-05
0.00130397 7.21548e-05 -7.20792e-07
7.21548e-05 7.77035e-05 1.32696e-06
-7.20792e-07 1.32696e-06 -1.28118e-06
0.00102233 6.13072e-05 1.03545e-07
6.13072e-05 6.52448e-05 -3.08409e-07
1.03545e-07 -3.08409e-07 -3.24564e-05
0.00118967 7.2105e-05 -3.51949e-06
7.2105e-05 0.000104109 -7.24639e-07
-3.51949e-06 -7.24639e-07 -4.20843e-06
0.000929966 3.264e-05 3.64971e-07
3.264e-05 1.6736e-05 4.05402e-07
3.64971e-07 4.05402e-07 -5.5234e-05
0.00100637 5.42046e-05 -3.58664e-07
5.42046e-05 5.96728e-05 -4.5928e-07
-3.58664e-07 -4.5928e-07 -2.49909e-05
0.00113161 6.14592e-05 -2.23713e-07
6.14592e-05 0.000122436 -7.64581e-07
-2.23713e-07 -7.64581e-07 3.26298e-05
0.00103108 5.55134e-05 -7.80776e-08
5.55134e-05 6.88839e-05 -2.72848e-07
-7.80776e-08 -2.72848e-07 -1.88388e-05
0.00186696 3.86838e-05 -5.69625e-07
3.86838e-05 0.000173588 -1.02666e-06
-5.69625e-07 -1.02666e-06 0.000120538
0.00126493 6.53796e-05 3.3991e-07
6.53796e-05 -1.71824e-05 1.33553e-08
3.3991e-07 1.33553e-08 -8.56775e-05
0.00147905 8.36797e-05 -5.8604e-07
8.36797e-05 0.000198038 6.41258e-08
-5.8604e-07 6.41258e-08 9.66338e-05
0.000865577 6.2184e-05 3.31973e-07
6.2184e-05 -2.21061e-05 5.08464e-07
3.31973e-07 5.08464e-07 -0.000136682
0.00107954 4.85755e-05 2.15399e-07
4.85755e-05 9.86975e-05 7.6271e-08
2.15399e-07 7.6271e-08 1.72685e-05
0.00160518 9.84086e-06 3.31748e-06
9.84086e-06 3.96445e-05 3.51972e-06
3.31748e-06 3.51972e-06 -2.55671e-05
0.0011772 6.04467e-05 7.31608e-07
6.04467e-05 0.000147432 3.13622e-07
7.31608e-07 3.13622e-07 5.61476e-05
0.00110523 6.17886e-05 5.02482e-07
6.17886e-05 0.000110227 9.84922e-07
5.02482e-07 9.84922e-07 1.20219e-05
0.00177905 6.65735e-05 4.36585e-06
6.65735e-05 9.61662e-05 1.43409e-06
4.36585e-06 1.43409e-06 4.32532e-05
0.00134911 8.31536e-05 3.75054e-06
8.31536e-05 6.59849e-05 -2.57485e-07
3.75054e-06 -2.57485e-07 -3.21545e-05
0.0016258 8.67687e-05 9.38652e-07
8.67687e-05 0.000333004 2.20157e-06
9.38652e-07 2.20157e-06 0.000210122
0.00105539 2.97957e-05 -6.0907e-07
2.97957e-05 8.08049e-05 -4.69619e-07
-6.0907e-07 -4.69619e-07 1.37293e-05
0.00105821 3.45947e-05 -9.19985e-09
3.45947e-05 8.59543e-05 -7.3078e-08
-9.19985e-09 -7.3078e-08 9.14989e-06
0.00107481 4.22546e-05 6.22782e-07
4.22546e-05 9.70531e-05 3.46054e-07
6.22782e-07 3.46054e-07 1.2288e-05
0.000968816 9.56769e-06 -1.43095e-08
9.56769e-06 3.41825e-05 -1.04465e-06
-1.43095e-08 -1.04465e-06 -1.27262e-05
0.000986283 1.26154e-05 6.99432e-08
1.26154e-05 4.79017e-05 -2.45355e-07
6.99432e-08 -2.45355e-07 -1.40821e-05
0.000979762 2.47727e-05 -3.71248e-07
2.47727e-05 4.49545e-05 -1.11815e-06
-3.71248e-07 -1.11815e-06 -2.97336e-05
0.000966105 -1.70062e-05 2.09278e-07
-1.70062e-05 3.29213e-05 3.53805e-08
2.09278e-07 3.53805e-08 -1.29469e-05
0.000876837 6.08206e-06 -2.58939e-07
6.08206e-06 -6.93555e-06 3.82322e-07
-2.58939e-07 3.82322e-07 -6.84259e-05
0.00106858 3.08878e-05 8.47516e-08
3.08878e-05 9.00128e-05 -4.64899e-07
8.47516e-08 -4.64899e-07 8.24259e-06
0.00102075 1.56589e-05 1.38669e-07
1.56589e-05 6.8113e-05 4.20718e-07
1.38669e-07 4.20718e-07 -3.9594e-06
0.00115481 5.15159e-05 2.33423e-07
5.15159e-05 0.000129467 -8.50406e-09
2.33423e-07 -8.50406e-09 4.18427e-05
0.000988698 9.84621e-06 1.33643e-07
9.84621e-06 4.66449e-05 8.00446e-07
1.33643e-07 8.00446e-07 -3.3667e-05
0.00105887 2.18295e-05 2.51806e-07
2.18295e-05 8.63837e-05 4.12159e-07
2.51806e-07 4.12159e-07 1.64921e-05
0.000983992 2.20823e-05 5.83333e-07
2.20823e-05 5.10355e-05 8.2169e-07
5.83333e-07 8.2169e-07 -9.76723e-06
0.000977237 -8.50009e-06 -4.1795e-07
-8.50009e-06 3.78715e-05 9.24513e-07
-4.1795e-07 9.24513e-07 -7.30285e-06
0.000928382 1.04827e-05 3.47153e-07
1.04827e-05 2.21884e-06 1.57662e-06
3.47153e-07 1.57662e-06 -2.4653e-05
0.000935382 -1.91278e-07 -2.28317e-07
-1.91278e-07 4.7951e-06 1.56782e-08
-2.28317e-07 1.56782e-08 -2.18497e-05
0.00143087 -3.82468e-06 6.35029e-07
-3.82468e-06 0.00024586 1.86585e-06
6.35029e-07 1.86585e-06 0.000249621
0.000936095 -9.80999e-06 2.24263e-08
-9.80999e-06 4.7186e-06 -1.67089e-06
2.24263e-08 -1.67089e-06 -2.19241e-05
0.00145112 -6.97212e-06 -1.21252e-06
-6.97212e-06 0.000257758 -1.20284e-06
-1.21252e-06 -1.20284e-06 0.000261369
0.00111456 -7.14044e-06 5.81801e-06
-7.14044e-06 8.49041e-05 6.30796e-06
5.81801e-06 6.30796e-06 0.000102669
0.00147017 -1.01483e-05 -3.43186e-06
-1.01483e-05 0.000269976 -4.33201e-06
-3.43186e-06 -4.33201e-06 0.000273044
0.00106594 -1.05965e-05 2.13432e-06
-1.05965e-05 6.28713e-05 2.41937e-06
2.13432e-06 2.41937e-06 8.03344e-05
0.00101199 -1.36819e-05 -1.74861e-06
-1.36819e-05 3.94096e-05 -1.58147e-06
-1.74861e-06 -1.58147e-06 5.58271e-05
0.000937803 8.50124e-06 4.25909e-07
8.50124e-06 5.27359e-06 -1.79761e-06
4.25909e-07 -1.79761e-06 -2.00097e-05
0.000855671 1.31405e-05 1.15741e-06
1.31405e-05 -4.02333e-05 -3.19113e-06
1.15741e-06 -3.19113e-06 -4.06105e-05
0.000863941 1.58291e-05 -1.03466e-07
1.58291e-05 -3.16802e-05 2.13136e-08
-1.03466e-07 2.13136e-08 -3.39329e-05
0.00224828 2.17e-05 1.1914e-05
2.17e-05 0.000674939 -3.85205e-06
1.1914e-05 -3.85205e-06 0.000696222
0.000871848 1.81377e-05 -2.13805e-06
1.81377e-05 -2.34589e-05 3.25896e-06
-2.13805e-06 3.25896e-06 -2.76133e-05
0.00229878 2.58405e-05 -7.10296e-07
2.58405e-05 0.000706415 -4.53845e-08
-7.10296e-07 -4.53845e-08 0.000726177
0.00235598 2.95092e-05 -1.76465e-05
2.95092e-05 0.000741617 3.93166e-06
-1.76465e-05 3.93166e-06 0.000759749
0.0013777 2.442e-05 5.76456e-07
2.442e-05 -2.12224e-06 -6.20269e-07
5.76456e-07 -6.20269e-07 -6.14287e-05
0.0015195 -3.70917e-06 -1.0961e-06
-3.70917e-06 4.65966e-05 -2.31917e-06
-1.0961e-06 -2.31917e-06 -2.52055e-05
0.00150031 -1.61405e-05 -1.86745e-06
-1.61405e-05 5.07256e-05 -5.17817e-07
-1.86745e-06 -5.17817e-07 -3.38784e-05
0.00156406 1.60966e-05 -1.64303e-06
1.60966e-05 8.59456e-05 -6.31211e-07
-1.64303e-06 -6.31211e-07 -1.31455e-06
0.00156797 8.08269e-06 3.83866e-08
8.08269e-06 9.03724e-05 -7.64143e-08
3.83866e-08 -7.64143e-08 3.47264e-06
0.00165927 -2.36093e-05 -5.17566e-08
-2.36093e-05 0.000119966 -2.96386e-09
-5.17566e-08 -2.96386e-09 3.9142e-05
0.0014971 1.2088e-05 -6.23322e-07
1.2088e-05 2.30574e-05 3.98732e-07
-6.23322e-07 3.98732e-07 -3.85321e-05
0.0015696 1.17501e-06 2.36614e-06
1.17501e-06 9.38073e-05 -1.0636e-07
2.36614e-06 -1.0636e-07 1.0036e-05
0.00171525 -1.55679e-05 2.53831e-06
-1.55679e-05 0.000131112 1.83155e-06
2.53831e-06 1.83155e-06 5.46201e-05
0.00140787 -1.57681e-05 2.75388e-06
-1.57681e-05 -2.16825e-05 8.32241e-07
2.75388e-06 8.32241e-07 -8.95412e-05
0.00153271 2.32407e-05 -1.84714e-06
2.32407e-05 6.95369e-05 -3.29846e-07
-1.84714e-06 -3.29846e-07 -1.78388e-05
0.00159353 6.42667e-06 -2.47988e-06
6.42667e-06 7.73211e-05 6.52321e-07
-2.47988e-06 6.52321e-07 -6.13552e-06
0.00154085 -3.11785e-05 -2.52012e-06
-3.11785e-05 6.38208e-05 1.5669e-06
-2.52012e-06 1.5669e-06 -4.27906e-06
0.00111658 -5.93163e-05 -5.51606e-07
-5.93163e-05 0.000107125 9.73945e-07
-5.51606e-07 9.73945e-07 2.86986e-05
0.000949593 -6.09224e-05 -5.29878e-07
-6.09224e-05 2.75597e-05 2.7624e-06
-5.29878e-07 2.7624e-06 -6.48432e-05
0.00137356 -7.80869e-05 -2.72346e-06
-7.80869e-05 0.000187894 3.25492e-06
-2.72346e-06 3.25492e-06 8.07815e-05
0.00154375 -5.91547e-05 1.35886e-06
-5.91547e-05 9.49055e-05 2.1648e-06
1.35886e-06 2.1648e-06 4.43088e-05
0.00121019 -6.92712e-05 -4.27722e-06
-6.92712e-05 -4.68341e-06 -2.38685e-06
-4.27722e-06 -2.38685e-06 -8.0388e-05
0.000885481 -5.29645e-05 -1.08173e-06
-5.29645e-05 -7.19003e-06 4.35734e-07
-1.08173e-06 4.35734e-07 -8.76568e-05
0.00109348 -5.80652e-05 -7.30192e-07
-5.80652e-05 9.69507e-05 -1.00361e-06
-7.30192e-07 -1.00361e-06 1.01158e-05
0.00106389 -3.69963e-05 -2.34237e-07
-3.69963e-05 9.39615e-05 3.33867e-07
-2.34237e-07 3.33867e-07 8.2421e-06
0.0009242 1.41133e-05 -7.02984e-07
1.41133e-05 3.03336e-06 1.25141e-06
-7.02984e-07 1.25141e-06 -2.60272e-05
0.001051 1.81846e-05 -1.71565e-07
1.81846e-05 7.36909e-05 1.44386e-06
-1.71565e-07 1.44386e-06 2.31167e-05
0.00104526 -3.11743e-05 -1.16294e-06
-3.11743e-05 7.78057e-05 2.00003e-06
-1.16294e-06 2.00003e-06 6.80363e-06
0.00157512 2.80189e-05 2.17574e-07
2.80189e-05 8.61568e-05 2.7568e-07
2.17574e-07 2.7568e-07 1.33567e-06
0.000932043 1.07808e-05 -3.065e-08
1.07808e-05 4.51375e-06 9.17619e-09
-3.065e-08 9.17619e-09 -2.27047e-05
0.000868197 -2.17732e-06 -4.91738e-07
-2.17732e-06 -1.79349e-05 1.43045e-08
-4.91738e-07 1.43045e-08 -6.21381e-05
0.00169112 8.19455e-08 1.4833e-07
8.19455e-08 0.000112269 -6.82008e-08
1.4833e-07 -6.82008e-08 3.37463e-05
0.00136829 -4.28756e-05 -5.89748e-07
-4.28756e-05 -4.53763e-05 -3.34415e-07
-5.89748e-07 -3.34415e-07 -9.54498e-05
0.00090602 -5.5696e-05 -9.1348e-08
-5.5696e-05 1.2215e-05 8.4083e-07
-9.1348e-08 8.4083e-07 -7.22621e-05
0.00136264 -7.59158e-05 -5.32599e-07
-7.59158e-05 0.000223 3.71638e-07
-5.32599e-07 3.71638e-07 0.00011506
0.00120836 -7.58695e-05 8.31697e-07
-7.58695e-05 7.49133e-05 9.8231e-07
8.31697e-07 9.8231e-07 -3.47421e-05
0.00171299 -7.4952e-05 2.38761e-07
-7.4952e-05 0.000166055 -1.04492e-06
2.38761e-07 -1.04492e-06 0.000114948
0.00101429 6.62919e-07 6.22772e-07
6.62919e-07 5.61544e-05 -4.91819e-07
6.22772e-07 -4.91819e-07 8.18328e-06
0.00105208 -1.5661e-05 -5.20294e-07
-1.5661e-05 8.10968e-05 5.13896e-07
-5.20294e-07 5.13896e-07 1.46466e-05
0.00101103 -5.74907e-05 4.13519e-07
-5.74907e-05 4.84941e-05 3.78903e-07
4.13519e-07 3.78903e-07 -3.3819e-05
0.00128618 -6.55626e-05 -8.99594e-07
-6.55626e-05 0.000204846 -3.7812e-07
-8.99594e-07 -3.7812e-07 0.000114453
0.000970669 -4.62174e-05 3.31503e-07
-4.62174e-05 5.20685e-05 3.27165e-07
3.31503e-07 3.27165e-07 -4.45768e-05
0.00102031 -2.58212e-05 2.28304e-07
-2.58212e-05 6.90186e-05 -2.81244e-07
2.28304e-07 -2.81244e-07 -1.19292e-05
0.00155637 3.01632e-05 2.75928e-06
3.01632e-05 7.03821e-05 8.25519e-07
2.75928e-06 8.25519e-07 -8.27442e-06
0.00184976 -1.15822e-05 2.97756e-06
-1.15822e-05 0.000181216 -5.63896e-07
2.97756e-06 -5.63896e-07 0.000113512
0.00178458 -6.83451e-05 -3.28344e-07
-6.83451e-05 0.000112633 -3.91533e-06
-3.28344e-07 -3.91533e-06 8.81053e-05
0.00140285 -8.43072e-05 3.81833e-06
-8.43072e-05 8.90052e-05 1.71144e-06
3.81833e-06 1.71144e-06 2.36209e-06
0.0011268 -6.21597e-05 -3.60709e-07
-6.21597e-05 0.000119761 -1.5818e-06
-3.60709e-07 -1.5818e-06 2.93611e-05
0.0016255 -9.05685e-05 1.46258e-06
-9.05685e-05 0.000344903 -2.6901e-06
1.46258e-06 -2.6901e-06 0.000216827
0.000771759 1.59136e-05 -4.03546e-07
1.59136e-05 -6.72665e-05 -1.54402e-06
-4.03546e-07 -1.54402e-06 -0.000110005
0.000955781 -9.78688e-06 8.01454e-07
-9.78688e-06 2.66425e-05 -1.24272e-06
8.01454e-07 -1.24272e-06 -1.88769e-05
0.00120256 -1.74686e-05 1.70845e-07
-1.74686e-05 0.000161775 -7.38867e-07
1.70845e-07 -7.38867e-07 0.000104736
0.000878508 1.12961e-05 -4.93868e-07
1.12961e-05 -4.11041e-06 -1.15832e-06
-4.93868e-07 -1.15832e-06 -6.97042e-05
0.00115282 -2.58792e-05 -9.31994e-10
-2.58792e-05 0.000134915 -6.80586e-07
-9.31994e-10 -6.80586e-07 5.82449e-05
0.000884733 -2.97563e-05 9.13623e-08
-2.97563e-05 8.28323e-06 -4.46484e-07
9.13623e-08 -4.46484e-07 -8.26909e-05
0.00120347 -5.01088e-05 2.66816e-06
-5.01088e-05 0.000179541 -5.73915e-07
2.66816e-06 -5.73915e-07 7.53016e-05
0.000984133 -6.24611e-05 -2.28487e-07
-6.24611e-05 6.10099e-05 1.94016e-07
-2.28487e-07 1.94016e-07 -2.95123e-05
0.000914927 3.41341e-05 -3.23295e-07
3.41341e-05 9.77241e-06 -4.66265e-07
-3.23295e-07 -4.66265e-07 -6.28671e-05
0.0010616 5.51985e-05 -1.38455e-06
5.51985e-05 8.74687e-05 -7.15097e-07
-1.38455e-06 -7.15097e-07 3.50288e-06
0.00166843 3.51059e-05 -3.53529e-06
3.51059e-05 7.79626e-05 -3.56353e-06
-3.53529e-06 -3.56353e-06 2.57476e-05
0.00148987 6.82714e-05 -1.36416e-06
6.82714e-05 0.000102561 6.06736e-07
-1.36416e-06 6.06736e-07 3.20666e-05
0.00122467 6.0684e-05 -1.01641e-06
6.0684e-05 0.000164535 -8.57423e-08
-1.01641e-06 -8.57423e-08 7.70835e-05
0.00113236 6.13083e-05 -9.27164e-07
6.13083e-05 0.00012392 -1.81972e-06
-9.27164e-07 -1.81972e-06 3.48562e-05
0.0017537 9.011e-05 -1.43393e-06
9.011e-05 0.00033117 -2.04828e-07
-1.43393e-06 -2.04828e-07 0.000231119
0.000946396 6.52197e-05 -7.30103e-07
6.52197e-05 1.18504e-05 -1.65703e-06
-7.30103e-07 -1.65703e-06 -0.00010234
0.00105021 5.06057e-05 -3.17203e-07
5.06057e-05 8.48892e-05 -4.13781e-07
-3.17203e-07 -4.13781e-07 3.21811e-06
0.0014586 8.78514e-06 8.67058e-07
8.78514e-06 -3.36127e-05 9.12483e-07
8.67058e-07 9.12483e-07 -9.7522e-05
0.00108263 5.77615e-05 2.97281e-07
5.77615e-05 0.000100339 4.04876e-07
2.97281e-07 4.04876e-07 9.40073e-06
0.000971274 5.7955e-05 2.69124e-07
5.7955e-05 4.06124e-05 -3.28106e-07
2.69124e-07 -3.28106e-07 -5.88552e-05
0.00158614 6.16202e-05 5.68079e-07
6.16202e-05 5.99138e-06 -2.71988e-07
5.68079e-07 -2.71988e-07 -4.75778e-05
0.00153564 8.92614e-05 6.71508e-07
8.92614e-05 0.000149912 -5.18575e-07
6.71508e-07 -5.18575e-07 5.2564e-05
0.00156251 8.53133e-05 1.0589e-07
8.53133e-05 0.000306478 4.55978e-07
1.0589e-07 4.55978e-07 0.000183112
0.00112192 5.37827e-05 3.09025e-07
5.37827e-05 0.000125116 1.83323e-07
3.09025e-07 1.83323e-07 3.5472e-05
0.00175908 3.90215e-05 5.11022e-06
3.90215e-05 1.59626e-05 1.03486e-06
5.11022e-06 1.03486e-06 -3.78095e-05
0.00138635 6.75578e-05 5.90384e-08
6.75578e-05 0.000242005 -3.20052e-07
5.90384e-08 -3.20052e-07 0.00014707
0.00158509 7.89958e-05 -1.47267e-06
7.89958e-05 0.000340737 1.90029e-06
-1.47267e-06 1.90029e-06 0.000225911
0.00115345 8.90161e-05 4.12102e-06
8.90161e-05 -0.000170745 1.95213e-06
4.12102e-06 1.95213e-06 -0.000249934
0.00110161 8.05555e-05 2.42263e-08
8.05555e-05 3.4726e-05 2.61058e-06
2.42263e-08 2.61058e-06 -9.03828e-05
0.00211195 -1.20049e-06 9.24806e-06
-1.20049e-06 0.000217207 -2.13533e-06
9.24806e-06 -2.13533e-06 0.000235596
0.0010547 3.5025e-05 -4.24523e-07
3.5025e-05 8.47185e-05 -7.08103e-07
-4.24523e-07 -7.08103e-07 7.90173e-06
0.00105061 4.27976e-05 1.80572e-08
4.27976e-05 8.6025e-05 -8.81232e-08
1.80572e-08 -8.81232e-08 1.1453e-06
0.00118557 5.45683e-05 4.69781e-07
5.45683e-05 0.000146711 -2.92579e-08
4.69781e-07 -2.92579e-08 5.70478e-05
0.000956701 -1.27474e-05 3.89227e-07
-1.27474e-05 2.81118e-05 -9.76922e-07
3.89227e-07 -9.76922e-07 -1.77591e-05
0.000872629 -1.13364e-05 -5.88374e-08
-1.13364e-05 -9.49753e-06 -2.93075e-07
-5.88374e-08 -2.93075e-07 -7.08022e-05
0.00114172 3.33735e-05 -4.15634e-07
3.33735e-05 0.000131037 -1.27074e-07
-4.15634e-07 -1.27074e-07 5.90883e-05
0.000997461 2.68263e-05 -4.01633e-07
2.68263e-05 5.32121e-05 -1.1573e-06
-4.01633e-07 -1.1573e-06 -2.93324e-05
0.000969121 -1.60394e-05 -2.71645e-07
-1.60394e-05 3.46191e-05 1.80739e-08
-2.71645e-07 1.80739e-08 -1.1133e-05
0.000929461 1.09242e-05 2.03443e-07
1.09242e-05 2.14804e-05 3.70756e-08
2.03443e-07 3.70756e-08 -3.88876e-05
0.00108738 4.56494e-05 -4.81506e-07
4.56494e-05 9.47256e-05 -7.76655e-07
-4.81506e-07 -7.76655e-07 7.2801e-06
0.00105127 1.15177e-05 -1.49426e-07
1.15177e-05 8.26483e-05 -4.85134e-08
-1.49426e-07 -4.85134e-08 1.27778e-05
0.00105654 1.41095e-05 1.25686e-07
1.41095e-05 8.27218e-05 -6.39627e-09
1.25686e-07 -6.39627e-09 2.97455e-06
0.00109778 3.99266e-05 3.32473e-08
3.99266e-05 9.1526e-05 8.55378e-07
3.32473e-08 8.55378e-07 3.31108e-06
0.00113379 3.51022e-05 2.36701e-07
3.51022e-05 0.00012456 1.11862e-07
2.36701e-07 1.11862e-07 4.68648e-05
0.00111875 3.04401e-05 2.61866e-07
3.04401e-05 0.000117051 2.4104e-07
2.61866e-07 2.4104e-07 4.78216e-05
0.000820016 9.17622e-06 -2.31796e-07
9.17622e-06 -3.3986e-05 7.60624e-07
-2.31796e-07 7.60624e-07 -9.4925e-05
0.000790308 1.00891e-05 4.64703e-07
1.00891e-05 -5.63718e-05 1.28885e-06
4.64703e-07 1.28885e-06 -0.000103278
0.00116803 -1.05601e-06 2.4247e-07
-1.05601e-06 0.000144996 1.98201e-07
2.4247e-07 1.98201e-07 8.43465e-05
0.000790894 1.50263e-07 -2.76769e-07
1.50263e-07 -5.57653e-05 1.32748e-06
-2.76769e-07 1.32748e-06 -0.00010291
0.00093218 1.14873e-05 2.59573e-07
1.14873e-05 4.62594e-06 1.60475e-06
2.59573e-07 1.60475e-06 -2.24998e-05
0.000930183 1.48058e-06 -2.82915e-07
1.48058e-06 3.17078e-06 3.69181e-09
-2.82915e-07 3.69181e-09 -2.36937e-05
0.000881495 2.04252e-07 1.39269e-07
2.04252e-07 -3.54135e-05 3.02908e-06
1.39269e-07 3.02908e-06 -3.46368e-05
0.000934663 -8.54151e-06 2.33972e-07
-8.54151e-06 4.51163e-06 -1.62641e-06
2.33972e-07 -1.62641e-06 -2.21275e-05
0.00116837 -3.17743e-06 -7.02073e-07
-3.17743e-06 0.000111774 -1.2344e-06
-7.02073e-07 -1.2344e-06 0.000113969
0.002218 -4.91117e-06 3.3192e-06
-4.91117e-06 0.000647508 3.96106e-06
3.3192e-06 3.96106e-06 0.000671133
0.00147184 -6.6486e-06 -2.07855e-06
-6.6486e-06 0.000268594 -4.26492e-06
-2.07855e-06 -4.26492e-06 0.000272053
0.00107089 -7.34331e-06 1.11349e-06
-7.34331e-06 6.2273e-05 2.41028e-06
1.11349e-06 2.41028e-06 8.02711e-05
0.00101475 -1.0493e-05 -1.23206e-06
-1.0493e-05 3.65897e-05 -1.53253e-06
-1.23206e-06 -1.53253e-06 5.42548e-05
0.000943991 5.66602e-06 3.35624e-07
5.66602e-06 6.40708e-06 -1.75371e-06
3.35624e-07 -1.75371e-06 -1.73359e-05
0.000937709 8.16504e-06 -2.32956e-08
8.16504e-06 4.96991e-06 3.31909e-09
-2.32956e-08 3.31909e-09 -2.02809e-05
0.000865962 1.02161e-05 7.87452e-07
1.02161e-05 -3.89243e-05 -3.15491e-06
7.87452e-07 -3.15491e-06 -3.76753e-05
0.00115487 1.43094e-05 -4.28908e-07
1.43094e-05 0.000112613 2.74126e-08
-4.28908e-07 2.74126e-08 0.000113531
0.00220606 1.74146e-05 9.6819e-06
1.74146e-05 0.000648918 -3.86297e-06
9.6819e-06 -3.86297e-06 0.00067141
0.000880943 1.58956e-05 -1.7405e-06
1.58956e-05 -2.32431e-05 3.21486e-06
-1.7405e-06 3.21486e-06 -2.557e-05
0.00225078 2.17714e-05 -7.94183e-07
2.17714e-05 0.000676846 -3.8283e-08
-7.94183e-07 -3.8283e-08 0.000697959
0.00230079 2.57545e-05 -1.53482e-05
2.57545e-05 0.000708067 3.90897e-06
-1.53482e-05 3.90897e-06 0.000727675
0.00149686 1.22037e-05 -1.81145e-06
1.22037e-05 2.77222e-05 -2.27764e-06
-1.81145e-06 -2.27764e-06 -3.22927e-05
0.00160152 -2.16077e-05 -1.88313e-06
-2.16077e-05 9.14095e-05 -3.76632e-07
-1.88313e-06 -3.76632e-07 9.7416e-06
0.00158078 4.45236e-06 -1.71199e-06
4.45236e-06 9.78001e-05 -5.33385e-07
-1.71199e-06 -5.33385e-07 1.10638e-05
0.00157534 1.82979e-06 -1.13079e-07
1.82979e-06 9.62453e-05 -5.0773e-07
-1.13079e-07 -5.0773e-07 1.24467e-05
0.00158349 -1.51001e-05 -2.42528e-07
-1.51001e-05 7.22519e-05 6.58209e-07
-2.42528e-07 6.58209e-07 -3.217e-06
0.00146354 -1.78145e-05 1.32996e-06
-1.78145e-05 1.91827e-05 6.6186e-07
1.32996e-06 6.6186e-07 -5.10783e-05
0.00158894 3.89381e-06 2.0349e-06
3.89381e-06 9.59026e-05 -4.80018e-09
2.0349e-06 -4.80018e-09 2.00617e-05
0.00195432 -5.44312e-05 -2.21527e-06
-5.44312e-05 0.00013738 -6.43286e-06
-2.21527e-06 -6.43286e-06 0.00011063
0.00180192 4.70573e-06 3.55135e-06
4.70573e-06 0.00014004 7.86292e-07
3.55135e-06 7.86292e-07 8.64177e-05
0.000969985 -4.58912e-06 4.64472e-07
-4.58912e-06 3.22172e-05 -1.02095e-06
4.64472e-07 -1.02095e-06 -8.22147e-06
0.00155965 2.79841e-05 -2.44083e-06
2.79841e-05 7.91959e-05 -7.02309e-07
-2.44083e-06 -7.02309e-07 -5.13135e-06
0.0017416 -5.66424e-07 -2.6717e-06
-5.66424e-07 0.000134913 7.34886e-07
-2.6717e-06 7.34886e-07 5.65996e-05
0.00127947 -4.35341e-05 -8.81504e-07
-4.35341e-05 -8.45968e-05 2.79177e-06
-8.81504e-07 2.79177e-06 -0.000138007
0.000904428 -5.53559e-05 -4.41146e-08
-5.53559e-05 1.22381e-05 1.53712e-06
-4.41146e-08 1.53712e-06 -7.13129e-05
0.00129238 -7.4348e-05 -1.42477e-06
-7.4348e-05 0.000188543 4.43213e-06
-1.42477e-06 4.43213e-06 7.8169e-05
0.000913346 -6.75291e-05 -2.31551e-06
-6.75291e-05 -7.71226e-05 4.66643e-07
-2.31551e-06 4.66643e-07 -0.000184375
0.00143017 -7.19658e-05 -2.59132e-06
-7.19658e-05 3.02473e-05 -2.17697e-06
-2.59132e-06 -2.17697e-06 -2.12337e-05
0.00117772 -6.17162e-05 5.6786e-07
-6.17162e-05 0.000129598 -3.04587e-07
5.6786e-07 -3.04587e-07 4.68246e-05
0.000916274 -5.5521e-05 -4.12813e-06
-5.5521e-05 1.86366e-05 -2.84244e-06
-4.12813e-06 -2.84244e-06 -6.84728e-05
0.000885833 -4.33855e-05 -1.00003e-07
-4.33855e-05 1.16173e-05 8.69512e-07
-1.00003e-07 8.69512e-07 -8.63585e-05
0.000934893 1.05664e-05 -7.06583e-07
1.05664e-05 5.80607e-06 1.82903e-06
-7.06583e-07 1.82903e-06 -2.14252e-05
0.00105575 -2.69245e-05 2.72663e-08
-2.69245e-05 8.55035e-05 3.1338e-07
2.72663e-08 3.1338e-07 4.67335e-06
0.00122327 -1.71649e-05 -2.90696e-07
-1.71649e-05 0.000163223 7.29795e-07
-2.90696e-07 7.29795e-07 0.000116461
0.00103265 -5.90118e-06 -2.67229e-07
-5.90118e-06 7.1965e-05 1.73847e-06
-2.67229e-07 1.73847e-06 5.20315e-06
0.000765845 6.06536e-06 -1.08999e-07
6.06536e-06 -7.09189e-05 1.17873e-06
-1.08999e-07 1.17873e-06 -0.0001147
0.00158266 2.88795e-05 7.75063e-08
2.88795e-05 8.09318e-05 1.7439e-07
7.75063e-08 1.7439e-07 2.50439e-06
0.000880108 2.36752e-06 2.94905e-07
2.36752e-06 -1.28734e-05 -4.47922e-07
2.94905e-07 -4.47922e-07 -5.50364e-05
0.000958192 -1.11793e-05 -1.57644e-07
-1.11793e-05 2.81173e-05 3.16935e-08
-1.57644e-07 3.16935e-08 -1.75406e-05
0.00101305 -6.36453e-06 -5.94185e-07
-6.36453e-06 6.55212e-05 4.65555e-07
-5.94185e-07 4.65555e-07 7.31761e-06
0.00174191 -1.13798e-05 8.99122e-07
-1.13798e-05 0.000121941 4.57934e-07
8.99122e-07 4.57934e-07 5.57021e-05
0.00156793 -6.74171e-05 -1.19945e-06
-6.74171e-05 1.50007e-05 -1.16191e-06
-1.19945e-06 -1.16191e-06 -1.37133e-05
0.00101254 -5.97009e-05 -2.80353e-07
-5.97009e-05 5.85401e-05 6.13038e-07
-2.80353e-07 6.13038e-07 -3.04127e-05
0.0011698 -7.81925e-05 9.74123e-07
-7.81925e-05 0.000125405 -5.69052e-07
9.74123e-07 -5.69052e-07 -3.13504e-06
0.00136916 -8.39646e-05 -1.33096e-07
-8.39646e-05 7.35103e-05 8.98234e-07
-1.33096e-07 8.98234e-07 -1.21736e-05
0.000964865 6.67937e-06 -1.43584e-07
6.67937e-06 3.93877e-05 3.57457e-08
-1.43584e-07 3.57457e-08 -2.48582e-05
0.00111941 -2.81775e-05 -2.89762e-09
-2.81775e-05 0.000118453 -2.47544e-08
-2.89762e-09 -2.47544e-08 4.07474e-05
0.000935986 -6.07592e-05 -1.78552e-06
-6.07592e-05 3.60218e-05 2.08681e-07
-1.78552e-06 2.08681e-07 -5.54158e-05
0.00116501 -4.52177e-05 1.91958e-07
-4.52177e-05 0.000159817 -2.07387e-07
1.91958e-07 -2.07387e-07 5.6982e-05
0.0009787 -3.63149e-05 -3.33117e-08
-3.63149e-05 5.50713e-05 6.27387e-07
-3.33117e-08 6.27387e-07 -3.53589e-05
0.00142423 2.38117e-05 3.24092e-06
2.38117e-05 -2.29004e-05 2.4049e-07
3.24092e-06 2.4049e-07 -9.61945e-05
0.00208148 -3.93931e-05 3.05621e-06
-3.93931e-05 0.000228467 -3.31292e-06
3.05621e-06 -3.31292e-06 0.000200767
0.00191908 -9.81661e-05 5.46219e-06
-9.81661e-05 0.000219557 -9.19693e-07
5.46219e-06 -9.19693e-07 0.000161094
0.00156477 -9.54453e-05 1.21593e-06
-9.54453e-05 0.000268407 -1.77441e-06
1.21593e-06 -1.77441e-06 0.000148535
0.00103495 -6.9242e-05 7.31945e-07
-6.9242e-05 9.14141e-05 -2.80306e-06
7.31945e-07 -2.80306e-06 -1.65659e-05
0.000781282 1.47761e-05 5.0059e-08
1.47761e-05 -5.1495e-05 -1.28316e-06
5.0059e-08 -1.28316e-06 -0.000108658
0.000889559 1.35893e-05 3.53541e-07
1.35893e-05 2.92948e-06 -1.29089e-06
3.53541e-07 -1.29089e-06 -5.95203e-05
0.00114354 1.27594e-05 2.90771e-07
1.27594e-05 0.000134982 -2.37419e-07
2.90771e-07 -2.37419e-07 6.61131e-05
0.00107447 -3.63636e-05 6.11663e-07
-3.63636e-05 9.99324e-05 -9.48687e-07
6.11663e-07 -9.48687e-07 2.37184e-05
0.00107216 -3.36331e-05 -3.20115e-09
-3.36331e-05 9.8061e-05 -6.06076e-09
-3.20115e-09 -6.06076e-09 1.27913e-05
0.00107803 -3.69605e-05 -6.30878e-08
-3.69605e-05 0.000114691 -1.62774e-06
-6.30878e-08 -1.62774e-06 1.68267e-05
0.000991517 -5.15092e-05 4.32603e-06
-5.15092e-05 9.7843e-05 -3.69088e-07
4.32603e-06 -3.69088e-07 -2.37329e-05
0.00101667 5.23941e-05 -7.7366e-07
5.23941e-05 6.90722e-05 -9.65439e-07
-7.7366e-07 -9.65439e-07 -1.2848e-05
0.000980084 5.48868e-05 -9.53343e-08
5.48868e-05 4.94864e-05 3.23225e-07
-9.53343e-08 3.23225e-07 -4.11162e-05
0.00133835 6.90641e-06 -2.3256e-06
6.90641e-06 -9.4671e-05 -9.47217e-07
-2.3256e-06 -9.47217e-07 -0.00015716
0.00142289 5.68752e-05 -1.86015e-06
5.68752e-05 -7.04521e-05 -2.01249e-06
-1.86015e-06 -2.01249e-06 -0.000124583
0.00169418 9.50322e-05 -2.38111e-06
9.50322e-05 0.000219608 -8.31144e-07
-2.38111e-06 -8.31144e-07 0.000123098
0.000805751 5.34192e-05 -8.15873e-08
5.34192e-05 -4.48913e-05 -1.19443e-06
-8.15873e-08 -1.19443e-06 -0.0001455
0.00144338 8.26077e-05 -3.04048e-07
8.26077e-05 0.000251804 -8.93535e-07
-3.04048e-07 -8.93535e-07 0.000128818
0.00111802 5.54191e-05 9.76125e-08
5.54191e-05 0.000123851 9.59223e-08
9.76125e-08 9.59223e-08 3.46075e-05
0.00159363 3.83094e-05 -1.86633e-06
3.83094e-05 -7.00177e-05 1.28857e-07
-1.86633e-06 1.28857e-07 -0.000123746
0.00119342 6.19757e-05 -3.1663e-07
6.19757e-05 0.000148366 -3.70771e-07
-3.1663e-07 -3.70771e-07 5.40294e-05
0.00124486 6.86336e-05 -2.60711e-07
6.86336e-05 0.000180916 4.27809e-07
-2.60711e-07 4.27809e-07 6.62771e-05
0.00156745 9.26659e-05 2.12618e-06
9.26659e-05 1.75797e-05 -9.38337e-07
2.12618e-06 -9.38337e-07 -5.94858e-05
0.00124397 8.46269e-05 -9.27067e-07
8.46269e-05 0.000112606 9.36889e-07
-9.27067e-07 9.36889e-07 -1.83412e-05
0.00183167 -7.16291e-06 -3.4125e-06
-7.16291e-06 5.06218e-05 -1.71603e-06
-3.4125e-06 -1.71603e-06 6.09374e-05
0.00115768 5.93066e-05 -3.95122e-07
5.93066e-05 0.000137238 -8.10135e-07
-3.95122e-07 -8.10135e-07 4.42431e-05
0.00160376 0.000104287 8.98365e-06
0.000104287 -8.29391e-05 2.79429e-06
8.98365e-06 2.79429e-06 -0.000147642
0.00129602 6.67257e-05 -1.4488e-06
6.67257e-05 0.000206227 -6.83324e-07
-1.4488e-06 -6.83324e-07 0.00010634
0.0010542 6.93407e-05 -1.68386e-06
6.93407e-05 0.000115275 1.48814e-06
-1.68386e-06 1.48814e-06 -2.3499e-05
0.000753868 9.8254e-05 7.40397e-08
9.8254e-05 -0.000207979 7.39298e-07
7.40397e-08 7.39298e-07 -0.000320526
0.00589696 -0.000101235 -1.95216e-05
-0.000101235 0.00207902 2.03247e-06
-1.95216e-05 2.03247e-06 0.00155094
0.00240003 -0.000133416 5.09948e-05
-0.000133416 0.000325148 1.78859e-05
5.09948e-05 1.78859e-05 0.000102408
0.00169922 8.19918e-05 6.20737e-06
8.19918e-05 6.99805e-05 4.5261e-06
6.20737e-06 4.5261e-06 0.000123146
-0.00234204 -0.000123325 -4.86185e-05
-0.000123325 -0.00132955 -2.11547e-05
-4.86185e-05 -2.11547e-05 -0.00133004
0.00145547 -0.00018835 -1.08712e-05
-0.00018835 -4.54177e-05 -1.71083e-06
-1.08712e-05 -1.71083e-06 0.000461142
0.00103245 4.28873e-05 -4.83076e-07
4.28873e-05 7.78004e-05 -5.64933e-07
-4.83076e-07 -5.64933e-07 -7.14044e-06
0.00114607 5.29472e-05 -5.0689e-08
5.29472e-05 0.000128428 -4.56089e-08
-5.0689e-08 -4.56089e-08 3.88627e-05
0.00113647 5.48607e-05 5.02649e-07
5.48607e-05 0.000107616 4.36733e-07
5.02649e-07 4.36733e-07 1.6478e-05
0.000960307 -2.30187e-05 1.80444e-07
-2.30187e-05 3.0993e-05 -8.8382e-07
1.80444e-07 -8.8382e-07 -1.53209e-05
0.000868588 1.85866e-05 1.33516e-08
1.85866e-05 -9.51095e-06 -8.8282e-07
1.33516e-08 -8.8282e-07 -7.05939e-05
0.00104275 -9.87048e-07 4.84579e-08
-9.87048e-07 7.79067e-05 -5.23986e-07
4.84579e-08 -5.23986e-07 8.42386e-06
0.00111952 2.16056e-05 -1.81906e-07
2.16056e-05 0.000116612 -6.11671e-07
-1.81906e-07 -6.11671e-07 3.737e-05
0.00104194 3.89592e-05 -8.60882e-07
3.89592e-05 7.05137e-05 -1.31117e-06
-8.60882e-07 -1.31117e-06 -1.6697e-05
0.00103503 3.38253e-05 -2.96506e-07
3.38253e-05 7.47032e-05 -4.77422e-07
-2.96506e-07 -4.77422e-07 4.08676e-06
0.000878431 6.43283e-06 1.648e-07
6.43283e-06 -1.11836e-05 4.37956e-07
1.648e-07 4.37956e-07 -5.78157e-05
0.00091599 4.78857e-06 -9.11018e-08
4.78857e-06 1.50993e-05 5.20424e-08
-9.11018e-08 5.20424e-08 -4.52854e-05
0.00108468 4.07773e-05 -9.42477e-09
4.07773e-05 8.76132e-05 1.26931e-07
-9.42477e-09 1.26931e-07 -1.58781e-07
0.00108921 3.3134e-05 -1.02637e-07
3.3134e-05 0.000101046 -3.85518e-07
-1.02637e-07 -3.85518e-07 2.31816e-05
0.00112245 5.26495e-05 -2.30229e-08
5.26495e-05 0.000120379 -2.07386e-07
-2.30229e-08 -2.07386e-07 4.26384e-05
0.00114106 5.21336e-05 3.19625e-07
5.21336e-05 0.00012398 9.07651e-07
3.19625e-07 9.07651e-07 3.71365e-05
0.000888024 2.29826e-05 2.60346e-07
2.29826e-05 -1.9907e-06 1.20178e-06
2.60346e-07 1.20178e-06 -7.31055e-05
0.000849715 4.23267e-06 3.51987e-07
4.23267e-06 -1.93246e-05 1.5081e-07
3.51987e-07 1.5081e-07 -8.0328e-05
0.000766824 -2.68923e-05 -1.01915e-06
-2.68923e-05 -6.6707e-05 1.32355e-06
-1.01915e-06 1.32355e-06 -0.000114408
0.0010454 7.50935e-06 -2.12227e-08
7.50935e-06 8.04315e-05 5.58028e-07
-2.12227e-08 5.58028e-07 1.99996e-05
0.00116447 3.36781e-05 2.01019e-07
3.36781e-05 0.000142031 3.2143e-07
2.01019e-07 3.2143e-07 7.15398e-05
0.000986458 -8.0137e-06 -2.55175e-07
-8.0137e-06 5.20719e-05 7.57663e-07
-2.55175e-07 7.57663e-07 -1.0428e-05
0.00101331 2.10972e-06 3.54599e-07
2.10972e-06 6.51927e-05 -4.75343e-07
3.54599e-07 -4.75343e-07 4.29939e-06
0.00095992 -2.32359e-05 -8.05065e-07
-2.32359e-05 3.15138e-05 8.59905e-07
-8.05065e-07 8.59905e-07 -1.56914e-05
0.000788571 3.81416e-06 1.64263e-07
3.81416e-06 -5.58258e-05 4.5988e-07
1.64263e-07 4.5988e-07 -0.000103574
0.000936466 9.91795e-06 -5.71197e-09
9.91795e-06 6.76331e-06 1.62762e-06
-5.71197e-09 1.62762e-06 -2.06904e-05
0.000930336 2.29691e-06 -2.20816e-07
2.29691e-06 3.60768e-06 -3.61892e-09
-2.20816e-07 -3.61892e-09 -2.34568e-05
0.000900476 3.17912e-06 -3.5099e-07
3.17912e-06 -2.50359e-05 4.26248e-06
-3.5099e-07 4.26248e-06 -2.45383e-05
0.000931986 -7.82109e-06 3.82475e-07
-7.82109e-06 4.13122e-06 -1.58325e-06
3.82475e-07 -1.58325e-06 -2.27264e-05
0.00088494 1.4724e-07 8.82524e-08
1.4724e-07 -3.36521e-05 5.26648e-09
8.82524e-08 5.26648e-09 -3.28932e-05
0.00221547 -9.06626e-07 -1.83445e-09
-9.06626e-07 0.000645585 3.96981e-06
-1.83445e-09 3.96981e-06 0.000669315
0.000902065 -2.81104e-06 -4.52145e-07
-2.81104e-06 -2.42041e-05 -4.29081e-06
-4.52145e-07 -4.29081e-06 -2.35849e-05
0.00164088 -4.27719e-06 -1.27333e-07
-4.27719e-06 0.000352134 2.21753e-08
-1.27333e-07 2.21753e-08 0.000372996
0.00102726 -7.0288e-06 -7.6137e-07
-7.0288e-06 3.96526e-05 -1.51353e-06
-7.6137e-07 -1.51353e-06 5.79122e-05
0.000947073 2.93836e-06 1.40079e-07
2.93836e-06 6.58724e-06 -1.77811e-06
1.40079e-07 -1.77811e-06 -1.62143e-05
0.000941944 5.25349e-06 4.30426e-09
5.25349e-06 5.06629e-06 -6.22258e-09
4.30426e-09 -6.22258e-09 -1.86333e-05
0.000875596 7.00069e-06 5.33663e-07
7.00069e-06 -3.69967e-05 -3.11808e-06
5.33663e-07 -3.11808e-06 -3.44599e-05
0.000937685 7.86679e-06 -5.36658e-07
7.86679e-06 4.70828e-06 1.78799e-06
-5.36658e-07 1.78799e-06 -2.05097e-05
0.00114723 1.10403e-05 -1.50053e-07
1.10403e-05 0.000104691 -5.97971e-07
-1.50053e-07 -5.97971e-07 0.000107316
0.00216793 1.30682e-05 7.28618e-06
1.30682e-05 0.000625785 -3.85676e-06
7.28618e-06 -3.85676e-06 0.000649321
0.000879326 1.33203e-05 -1.36833e-06
1.33203e-05 -2.81938e-05 3.1931e-06
-1.36833e-06 3.1931e-06 -2.88736e-05
0.00223132 1.70284e-05 -3.78083e-06
1.70284e-05 0.000662736 1.12452e-06
-3.78083e-06 1.12452e-06 0.000684927
0.00225612 2.18024e-05 -1.3105e-05
2.18024e-05 0.000680196 3.92308e-06
-1.3105e-05 3.92308e-06 0.000701132
0.00140347 -1.39981e-05 -2.21987e-06
-1.39981e-05 -9.44587e-06 -3.12972e-07
-2.21987e-06 -3.12972e-07 -8.39587e-05
0.00157869 1.92169e-06 -2.35072e-06
1.92169e-06 9.74738e-05 -9.68987e-07
-2.35072e-06 -9.68987e-07 1.3638e-05
0.00144759 -1.82538e-05 2.10292e-06
-1.82538e-05 2.57581e-05 4.98966e-07
2.10292e-06 4.98966e-07 -4.70426e-05
0.00185975 -4.61953e-05 -1.2906e-06
-4.61953e-05 0.000102448 -1.61705e-06
-1.2906e-06 -1.61705e-06 7.0022e-05
0.001489 2.18894e-06 -7.75243e-07
2.18894e-06 4.595e-05 -2.9181e-07
-7.75243e-07 -2.9181e-07 -3.0394e-05
0.00137419 5.20277e-06 -7.2204e-07
5.20277e-06 -6.11951e-05 -5.7002e-07
-7.2204e-07 -5.7002e-07 -0.000120372
0.00183797 3.04394e-05 1.97944e-06
3.04394e-05 0.000149728 2.39297e-06
1.97944e-06 2.39297e-06 6.89332e-05
0.00235434 -0.000114038 0.00013751
-0.000114038 0.00041795 3.94405e-05
0.00013751 3.94405e-05 0.000186419
0.00137543 -1.15827e-05 -4.0779e-06
-1.15827e-05 4.95217e-05 1.33876e-06
-4.0779e-06 1.33876e-06 1.60593e-06
0.000967065 7.04303e-07 -3.46648e-07
7.04303e-07 3.15077e-05 -1.06201e-06
-3.46648e-07 -1.06201e-06 -8.86196e-06
0.000972389 -1.48061e-05 3.17809e-07
-1.48061e-05 3.37146e-05 -7.34165e-09
3.17809e-07 -7.34165e-09 -7.0444e-06
0.000982645 2.2318e-06 -1.84888e-07
2.2318e-06 4.90291e-05 -6.02703e-07
-1.84888e-07 -6.02703e-07 -4.22615e-06
0.000994611 -1.51451e-05 -2.6672e-07
-1.51451e-05 5.5899e-05 -2.46562e-07
-2.6672e-07 -2.46562e-07 1.56918e-06
0.00162619 2.7861e-05 -2.47908e-06
2.7861e-05 0.000100215 -8.90073e-07
-2.47908e-06 -8.90073e-07 2.19519e-05
0.00169224 -1.13294e-05 -6.70754e-07
-1.13294e-05 9.25561e-05 1.59806e-06
-6.70754e-07 1.59806e-06 2.74762e-05
0.00133394 -6.63709e-05 -4.05466e-06
-6.63709e-05 -9.08611e-05 1.1442e-06
-4.05466e-06 1.1442e-06 -0.000124006
0.000939518 -5.83311e-05 -2.30695e-07
-5.83311e-05 1.80438e-05 2.82962e-06
-2.30695e-07 2.82962e-06 -6.95784e-05
0.000806586 -6.78362e-05 2.05795e-08
-6.78362e-05 -4.77817e-05 2.30315e-06
2.05795e-08 2.30315e-06 -0.000175854
0.0011653 -7.99967e-05 -2.92471e-06
-7.99967e-05 -2.76947e-05 -8.13896e-07
-2.92471e-06 -8.13896e-07 -0.00011185
0.000886413 -5.89992e-05 -4.16909e-06
-5.89992e-05 1.06833e-05 1.17388e-06
-4.16909e-06 1.17388e-06 -8.17311e-05
0.00109972 -3.85996e-05 -1.04216e-06
-3.85996e-05 0.000126319 3.2754e-07
-1.04216e-06 3.2754e-07 2.51734e-05
0.00106969 -4.31633e-05 -4.84167e-07
-4.31633e-05 0.000100443 1.59693e-06
-4.84167e-07 1.59693e-06 1.05331e-05
0.000961719 -1.3933e-06 -6.75441e-07
-1.3933e-06 2.99992e-05 1.26574e-06
-6.75441e-07 1.26574e-06 -1.57134e-05
0.00108554 -3.29101e-05 -1.02393e-07
-3.29101e-05 0.000101634 8.14641e-07
-1.02393e-07 8.14641e-07 2.29481e-05
0.00105399 6.1908e-06 -5.2638e-07
6.1908e-06 8.40221e-05 1.08186e-06
-5.2638e-07 1.08186e-06 2.1251e-05
0.000987401 -5.68206e-06 -8.55222e-08
-5.68206e-06 4.11643e-05 5.83184e-07
-8.55222e-08 5.83184e-07 -5.20218e-07
0.000810776 1.41972e-05 -2.90839e-08
1.41972e-05 -3.61921e-05 1.69375e-06
-2.90839e-08 1.69375e-06 -9.60277e-05
0.00159762 2.39933e-05 -1.80611e-07
2.39933e-05 6.8902e-05 1.29109e-06
-1.80611e-07 1.29109e-06 -3.54628e-06
0.000970812 1.25374e-05 1.31458e-07
1.25374e-05 4.38872e-05 -4.97235e-07
1.31458e-07 -4.97235e-07 -1.15624e-05
0.000942094 2.18104e-07 4.08249e-07
2.18104e-07 3.00567e-05 8.94901e-09
4.08249e-07 8.94901e-09 -3.15827e-05
0.00102303 2.37206e-05 -1.34695e-07
2.37206e-05 7.28054e-05 9.55725e-07
-1.34695e-07 9.55725e-07 4.53657e-06
0.00192552 -4.14647e-05 -2.63956e-06
-4.14647e-05 0.000155475 9.76721e-07
-2.63956e-06 9.76721e-07 0.000122632
0.00139215 -8.73765e-05 -1.06974e-06
-8.73765e-05 -3.65672e-05 -1.41589e-06
-1.06974e-06 -1.41589e-06 -9.26619e-05
0.00106242 -6.99612e-05 7.00739e-08
-6.99612e-05 0.000101471 -3.08783e-07
7.00739e-08 -3.08783e-07 -5.96135e-06
0.00141419 -9.21006e-05 1.22956e-07
-9.21006e-05 0.000198257 6.07354e-08
1.22956e-07 6.07354e-08 7.79385e-05
0.00111266 -2.45454e-05 -2.13808e-07
-2.45454e-05 0.0001187 9.34648e-08
-2.13808e-07 9.34648e-08 4.35956e-05
0.00102692 -3.36559e-05 -2.2051e-07
-3.36559e-05 7.44539e-05 7.32138e-07
-2.2051e-07 7.32138e-07 -1.04597e-05
0.00101133 -5.19381e-05 1.76951e-06
-5.19381e-05 0.000102213 -3.89385e-07
1.76951e-06 -3.89385e-07 -1.44166e-05
0.00115917 -4.2802e-05 7.46243e-08
-4.2802e-05 0.000155446 -5.40864e-07
7.46243e-08 -5.40864e-07 5.57477e-05
0.00101902 1.47203e-05 4.22496e-06
1.47203e-05 -0.000290189 -5.54925e-07
4.22496e-06 -5.54925e-07 -0.000350472
0.00227709 -0.000101259 1.08176e-05
-0.000101259 0.000242627 -5.79789e-06
1.08176e-05 -5.79789e-06 0.000210103
0.00182128 -0.000107993 5.54425e-06
-0.000107993 0.000302668 -1.35481e-06
5.54425e-06 -1.35481e-06 0.000187981
0.00113025 -8.31432e-05 7.38299e-07
-8.31432e-05 0.000139751 -2.05342e-06
7.38299e-07 -2.05342e-06 1.85815e-05
0.00094308 1.60092e-05 -4.99863e-07
1.60092e-05 3.47983e-05 -7.69997e-07
-4.99863e-07 -7.69997e-07 -3.73861e-05
0.000961572 -3.40826e-05 8.49004e-07
-3.40826e-05 4.53e-05 -1.67373e-06
8.49004e-07 -1.67373e-06 -2.86207e-05
0.00103186 -5.1654e-05 6.29386e-07
-5.1654e-05 8.21468e-05 -1.13092e-06
6.29386e-07 -1.13092e-06 -7.67853e-06
0.00111427 -2.90394e-05 -5.10333e-07
-2.90394e-05 0.000149194 -8.69359e-07
-5.10333e-07 -8.69359e-07 2.23336e-05
0.000649494 -8.6806e-06 -1.0187e-05
-8.6806e-06 -0.000322171 -1.50652e-06
-1.0187e-05 -1.50652e-06 -0.00082609
0.00110541 5.59734e-05 -2.27319e-07
5.59734e-05 0.000118169 -2.06757e-07
-2.27319e-07 -2.06757e-07 2.94392e-05
0.000977629 5.57143e-05 4.93819e-07
5.57143e-05 4.3024e-05 4.2502e-07
4.93819e-07 4.2502e-07 -5.06214e-05
0.0015755 3.99524e-05 -5.92295e-06
3.99524e-05 -8.7699e-05 -6.10998e-07
-5.92295e-06 -6.10998e-07 -0.000141478
0.0018625 9.38759e-05 -3.30117e-06
9.38759e-05 0.000149555 -1.12399e-06
-3.30117e-06 -1.12399e-06 7.45917e-05
0.00135358 8.81187e-05 -1.82982e-06
8.81187e-05 0.000175904 -9.34875e-07
-1.82982e-06 -9.34875e-07 3.83313e-05
0.000927558 5.88033e-05 1.25575e-06
5.88033e-05 3.34784e-05 2.94833e-07
1.25575e-06 2.94833e-07 -8.13279e-05
0.00126395 9.54945e-07 -9.25368e-06
9.54945e-07 -0.000266349 -3.06694e-06
-9.25368e-06 -3.06694e-06 -0.000246865
0.00113986 5.87324e-05 4.83873e-08
5.87324e-05 0.00013034 -1.04708e-07
4.83873e-08 -1.04708e-07 3.7522e-05
0.00183875 0.000107997 4.83184e-07
0.000107997 1.50149e-05 8.32361e-08
4.83184e-07 8.32361e-08 -4.87958e-05
0.00109956 6.08793e-05 6.64603e-07
6.08793e-05 0.000112315 1.41221e-08
6.64603e-07 1.41221e-08 1.2561e-05
0.00107815 7.04306e-05 -2.94606e-07
7.04306e-05 0.000126599 -5.61666e-08
-2.94606e-07 -5.61666e-08 -9.7537e-06
0.000725308 9.5668e-05 -2.44139e-06
9.5668e-05 -0.000224862 -1.41457e-07
-2.44139e-06 -1.41457e-07 -0.000334364
0.00153549 -9.50483e-05 -1.39845e-05
-9.50483e-05 0.000169784 -5.48455e-06
-1.39845e-05 -5.48455e-06 -0.000372129
0.00246292 -0.000122706 4.02241e-06
-0.000122706 0.000183003 -2.77641e-06
4.02241e-06 -2.77641e-06 -9.88631e-05
0.00125513 8.53025e-05 2.14433e-06
8.53025e-05 -0.000168157 -1.40752e-06
2.14433e-06 -1.40752e-06 -0.000100334
-0.000374361 -0.000141102 -8.83313e-06
-0.000141102 -0.000475495 -5.34887e-06
-8.83313e-06 -5.34887e-06 -0.000559582
0.000548396 -0.000191951 -1.60307e-06
-0.000191951 -0.00047579 -2.04581e-07
-1.60307e-06 -2.04581e-07 -1.9228e-05
0.00109986 5.80892e-05 1.09616e-06
5.80892e-05 0.000111975 -5.66699e-07
1.09616e-06 -5.66699e-07 1.9014e-05
-0.000126543 3.75006e-05 -0.000103848
3.75006e-05 -0.000383833 -1.06818e-05
-0.000103848 -1.06818e-05 -0.00059928
0.0023554 -9.4992e-05 -3.68369e-06
-9.4992e-05 0.000887696 -5.1401e-06
-3.68369e-06 -5.1401e-06 0.00107972
0.00127463 0.000128799 5.54012e-06
0.000128799 -0.000143299 6.69165e-06
5.54012e-06 6.69165e-06 -0.000194227
0.00079567 3.43149e-05 -3.52304e-07
3.43149e-05 -2.96364e-05 -1.16429e-06
-3.52304e-07 -1.16429e-06 -0.000140038
0.00165169 6.38799e-05 -3.87771e-06
6.38799e-05 0.000447104 1.9304e-06
-3.87771e-06 1.9304e-06 0.000275542
0.00167495 6.62098e-05 1.10197e-06
6.62098e-05 0.000215584 9.56014e-07
1.10197e-06 9.56014e-07 0.000160113
0.0049825 -0.000204353 -7.27818e-05
-0.000204353 0.00148209 -1.58492e-05
-7.27818e-05 -1.58492e-05 0.000711977
0.00263472 -4.09139e-05 3.03088e-05
-4.09139e-05 0.000265438 2.28874e-05
3.03088e-05 2.28874e-05 -6.76528e-05
0.000321519 -0.000224158 -5.51627e-05
-0.000224158 -0.000104254 -2.94831e-05
-5.51627e-05 -2.94831e-05 -6.86527e-06
-0.000590843 -9.38678e-05 -4.86613e-06
-9.38678e-05 -0.00120467 3.96095e-06
-4.86613e-06 3.96095e-06 -0.000962683
0.00107347 4.9907e-05 -8.37397e-07
4.9907e-05 9.4042e-05 -5.09965e-07
-8.37397e-07 -5.09965e-07 4.6524e-06
0.00115063 5.67579e-05 -5.06584e-07
5.67579e-05 0.00011685 2.61593e-07
-5.06584e-07 2.61593e-07 2.54496e-05
0.00123489 6.12353e-05 -3.3517e-07
6.12353e-05 0.000147381 -5.45446e-08
-3.3517e-07 -5.45446e-08 5.43469e-05
0.000963777 2.81819e-06 1.34087e-08
2.81819e-06 3.29753e-05 -4.21056e-07
1.34087e-08 -4.21056e-07 -1.36249e-05
0.00101037 -5.67219e-06 8.92136e-08
-5.67219e-06 6.30646e-05 -8.07272e-07
8.92136e-08 -8.07272e-07 3.45114e-06
0.000952838 2.10946e-05 -5.32131e-07
2.10946e-05 3.10917e-05 -1.0539e-06
-5.32131e-07 -1.0539e-06 -3.96023e-05
0.00104669 3.23324e-05 -1.54142e-07
3.23324e-05 7.8575e-05 -8.65653e-07
-1.54142e-07 -8.65653e-07 4.20298e-07
0.00107069 3.78991e-05 -4.1419e-07
3.78991e-05 8.31048e-05 -8.07172e-07
-4.1419e-07 -8.07172e-07 -4.11966e-06
0.000777078 -4.92539e-06 3.01035e-07
-4.92539e-06 -6.20359e-05 4.46582e-07
3.01035e-07 4.46582e-07 -0.000109535
0.00105744 4.31306e-05 -3.84445e-07
4.31306e-05 8.6303e-05 -6.4773e-07
-3.84445e-07 -6.4773e-07 9.0956e-06
0.00104156 6.26107e-06 -5.84977e-08
6.26107e-06 7.6644e-05 4.51262e-07
-5.84977e-08 4.51262e-07 6.25125e-06
0.000935974 1.22257e-05 1.59939e-07
1.22257e-05 2.4492e-05 -3.40676e-07
1.59939e-07 -3.40676e-07 -3.61349e-05
0.00102738 4.97871e-05 3.8145e-08
4.97871e-05 6.48634e-05 2.20286e-07
3.8145e-08 2.20286e-07 -2.28363e-05
0.00104883 3.7502e-05 5.81323e-08
3.7502e-05 7.89165e-05 4.25766e-07
5.81323e-08 4.25766e-07 -1.92181e-06
0.001213 5.32926e-05 2.2223e-07
5.32926e-05 0.000172693 5.76934e-07
2.2223e-07 5.76934e-07 7.54154e-05
0.00101639 -3.11675e-05 -2.45291e-07
-3.11675e-05 6.4082e-05 4.53173e-07
-2.45291e-07 4.53173e-07 -5.98584e-06
0.00103251 -2.28434e-05 -2.64729e-07
-2.28434e-05 7.30253e-05 9.22757e-08
-2.64729e-07 9.22757e-08 1.2853e-05
0.00104687 -2.31753e-06 -2.39917e-07
-2.31753e-06 8.07127e-05 -5.5229e-08
-2.39917e-07 -5.5229e-08 2.06803e-05
0.00104607 1.74074e-05 -1.71438e-07
1.74074e-05 8.03289e-05 -4.16889e-07
-1.71438e-07 -4.16889e-07 9.64512e-06
0.00104101 1.30201e-05 8.78961e-08
1.30201e-05 7.88121e-05 7.18028e-07
8.78961e-08 7.18028e-07 7.32473e-06
0.00102288 5.57614e-06 -9.02261e-09
5.57614e-06 6.9071e-05 7.97779e-07
-9.02261e-09 7.97779e-07 -2.88014e-06
0.00110595 1.47111e-05 7.85224e-10
1.47111e-05 0.000107421 -9.27168e-08
7.85224e-10 -9.27168e-08 3.03783e-05
0.000998934 -2.61749e-05 -2.93668e-07
-2.61749e-05 6.38245e-05 1.06947e-06
-2.93668e-07 1.06947e-06 -1.60361e-05
0.000992257 -8.84478e-06 -1.84434e-07
-8.84478e-06 5.28535e-05 8.46078e-07
-1.84434e-07 8.46078e-07 -1.09403e-05
0.000983369 -9.4684e-06 3.27557e-08
-9.4684e-06 5.01441e-05 -2.14336e-08
3.27557e-08 -2.14336e-08 -1.20468e-05
0.000963295 -9.70465e-06 -6.49182e-07
-9.70465e-06 3.24054e-05 9.29548e-07
-6.49182e-07 9.29548e-07 -1.55312e-05
0.000862837 2.5193e-06 2.47902e-07
2.5193e-06 -1.28604e-05 -1.11451e-06
2.47902e-07 -1.11451e-06 -7.38172e-05
0.000875527 -1.05185e-05 1.78171e-07
-1.05185e-05 -1.20008e-05 -2.33775e-09
1.78171e-07 -2.33775e-09 -5.93662e-05
0.000941653 7.55612e-06 -2.95631e-07
7.55612e-06 9.69963e-06 1.66546e-06
-2.95631e-07 1.66546e-06 -1.84523e-05
0.000790891 3.3479e-06 1.47361e-07
3.3479e-06 -5.45699e-05 -4.38135e-07
1.47361e-07 -4.38135e-07 -0.000102295
0.000934832 2.10684e-06 -1.73424e-07
2.10684e-06 5.82757e-06 -1.48282e-08
-1.73424e-07 -1.48282e-08 -2.15957e-05
0.00147171 6.75946e-06 -2.3412e-06
6.75946e-06 0.000268898 4.23407e-06
-2.3412e-06 4.23407e-06 0.000271886
0.000928882 -6.84588e-06 5.46815e-07
-6.84588e-06 2.84681e-06 -1.59369e-06
5.46815e-07 -1.59369e-06 -2.41974e-05
0.00118066 3.43508e-06 -8.6251e-07
3.43508e-06 0.000118336 6.08616e-07
-8.6251e-07 6.08616e-07 0.000120284
0.00107721 2.03886e-06 -1.93683e-06
2.03886e-06 6.30491e-05 3.8468e-06
-1.93683e-06 3.8468e-06 8.11192e-05
0.000888484 8.75493e-08 3.52481e-08
8.75493e-08 -3.18309e-05 -3.01581e-06
3.52481e-08 -3.01581e-06 -3.10921e-05
0.00221298 -6.78391e-07 1.19538e-06
-6.78391e-07 0.000644306 6.636e-11
1.19538e-06 6.636e-11 0.000668047
0.00107309 -2.97824e-06 -9.7443e-07
-2.97824e-06 6.14515e-05 -3.85473e-06
-9.7443e-07 -3.85473e-06 7.95626e-05
0.000969566 2.23735e-05 1.82485e-07
2.23735e-05 3.32455e-05 -5.1846e-07
1.82485e-07 -5.1846e-07 -7.89575e-06
0.000948324 5.18806e-07 5.58614e-08
5.18806e-07 6.93816e-06 -1.77735e-06
5.58614e-08 -1.77735e-06 -1.5624e-05
0.000945313 2.50879e-06 -5.00263e-08
2.50879e-06 5.56166e-06 -9.54355e-09
-5.00263e-08 -9.54355e-09 -1.72213e-05
0.000883298 3.60854e-06 2.23984e-07
3.60854e-06 -3.49787e-05 -3.12595e-06
2.23984e-07 -3.12595e-06 -3.16371e-05
0.000939964 4.86329e-06 -3.86287e-07
4.86329e-06 3.76944e-06 1.76241e-06
-3.86287e-07 1.76241e-06 -1.98895e-05
0.000879342 7.06107e-06 5.87517e-08
7.06107e-06 -3.54005e-05 -6.14844e-07
5.87517e-08 -6.14844e-07 -3.27892e-05
0.00213762 8.68503e-06 4.80113e-06
8.68503e-06 0.000607655 -3.87551e-06
4.80113e-06 -3.87551e-06 0.000631968
0.00142225 1.25151e-05 -1.26497e-06
1.25151e-05 0.000245668 1.95104e-06
-1.26497e-06 1.95104e-06 0.000249425
0.00163411 1.15594e-05 2.28529e-07
1.15594e-05 0.000353475 1.19822e-06
2.28529e-07 1.19822e-06 0.000373951
0.00111551 1.32977e-05 -1.02892e-05
1.32977e-05 9.22859e-05 6.36282e-06
-1.02892e-05 6.36282e-06 0.00010876
0.00121003 -3.69007e-05 -3.29717e-06
-3.69007e-05 -0.000195867 8.2984e-07
-3.29717e-06 8.2984e-07 -0.000228847
0.00144277 -6.19807e-07 -2.42645e-06
-6.19807e-07 2.21867e-05 -2.92254e-07
-2.42645e-06 -2.92254e-07 -5.4675e-05
0.0009247 4.83432e-06 -6.58492e-06
4.83432e-06 -0.000271979 -3.91185e-06
-6.58492e-06 -3.91185e-06 -0.000336779
0.00102202 -9.31364e-05 3.63236e-05
-9.31364e-05 -5.01826e-06 5.67549e-06
3.63236e-05 5.67549e-06 -0.000236975
0.00126364 -1.73246e-05 -2.06516e-06
-1.73246e-05 4.28584e-06 -9.34706e-07
-2.06516e-06 -9.34706e-07 -4.08569e-05
0.00159107 3.20242e-05 -2.06456e-06
3.20242e-05 2.08765e-05 -1.46434e-06
-2.06456e-06 -1.46434e-06 -5.98747e-05
0.00129257 4.61945e-05 2.66059e-06
4.61945e-05 2.61415e-05 7.88373e-07
2.66059e-06 7.88373e-07 -3.42116e-05
0.00108223 -3.84733e-05 0.000105788
-3.84733e-05 2.73594e-05 6.37487e-06
0.000105788 6.37487e-06 -0.000226061
0.00485789 8.51807e-05 -2.2364e-05
8.51807e-05 0.00142883 -5.01855e-06
-2.2364e-05 -5.01855e-06 0.000769422
0.00248691 0.000219184 -4.04498e-05
0.000219184 0.000944039 1.81959e-05
-4.04498e-05 1.81959e-05 0.000880357
0.00102089 0.000155209 -1.06308e-05
0.000155209 -5.91519e-05 4.54655e-06
-1.06308e-05 4.54655e-06 0.00029052
0.000787158 -6.30438e-06 8.14189e-07
-6.30438e-06 -4.82196e-05 -1.0624e-06
8.14189e-07 -1.0624e-06 -0.000103173
0.000972529 -8.74146e-06 -9.25396e-08
-8.74146e-06 3.42457e-05 3.39893e-09
-9.25396e-08 3.39893e-09 -6.13455e-06
0.000980249 -2.52215e-05 -6.37994e-07
-2.52215e-05 3.81859e-05 1.02418e-06
-6.37994e-07 1.02418e-06 -3.02524e-06
0.000911952 9.51747e-06 -2.14967e-07
9.51747e-06 1.41339e-05 3.5259e-09
-2.14967e-07 3.5259e-09 -3.99315e-05
0.0010782 3.69723e-05 1.43234e-07
3.69723e-05 0.000103318 2.45159e-07
1.43234e-07 2.45159e-07 3.88587e-05
0.00105038 4.52954e-05 2.24908e-07
4.52954e-05 8.75314e-05 1.53913e-07
2.24908e-07 1.53913e-07 2.47543e-05
0.0010207 6.36407e-07 5.23846e-07
6.36407e-07 7.00235e-05 -1.51132e-06
5.23846e-07 -1.51132e-06 1.37743e-05
0.000926699 -2.16462e-05 -3.09995e-07
-2.16462e-05 2.12238e-05 4.82451e-07
-3.09995e-07 4.82451e-07 -3.32109e-05
0.00177966 2.42878e-05 -3.23567e-06
2.42878e-05 0.000165065 1.82264e-07
-3.23567e-06 1.82264e-07 9.34468e-05
0.00173261 -4.3034e-05 -2.17878e-06
-4.3034e-05 6.21342e-05 1.92912e-06
-2.17878e-06 1.92912e-06 2.48638e-05
0.00100939 -7.92809e-05 -9.39007e-06
-7.92809e-05 -0.000220761 -1.759e-09
-9.39007e-06 -1.759e-09 -0.000274772
0.00105094 -6.96002e-05 -2.75122e-07
-6.96002e-05 9.20826e-05 2.06899e-06
-2.75122e-07 2.06899e-06 -1.50153e-05
0.00143155 -9.26973e-05 -1.25862e-06
-9.26973e-05 0.000212384 2.67379e-06
-1.25862e-06 2.67379e-06 9.08292e-05
0.00103012 -5.25334e-05 -5.27823e-07
-5.25334e-05 0.000106496 6.34794e-07
-5.27823e-07 6.34794e-07 -5.75773e-06
0.00123786 -4.9108e-05 1.28891e-07
-4.9108e-05 0.000195071 5.8174e-07
1.28891e-07 5.8174e-07 9.33719e-05
0.000980155 -3.36059e-05 -5.37531e-07
-3.36059e-05 5.01353e-05 1.20677e-06
-5.37531e-07 1.20677e-06 -3.4396e-05
0.000993049 -9.8154e-06 -1.90237e-07
-9.8154e-06 5.64226e-05 1.22978e-06
-1.90237e-07 1.22978e-06 -4.43052e-06
0.0011525 -1.80419e-05 -4.46688e-07
-1.80419e-05 0.000138713 8.88455e-07
-4.46688e-07 8.88455e-07 6.44794e-05
0.00117651 4.79733e-06 -1.59336e-07
4.79733e-06 0.000147309 3.79777e-07
-1.59336e-07 3.79777e-07 9.35672e-05
0.000930069 3.42557e-05 5.83679e-07
3.42557e-05 2.43089e-05 2.21551e-06
5.83679e-07 2.21551e-06 -4.34004e-05
0.00171608 2.5296e-05 1.18931e-06
2.5296e-05 4.11694e-05 -3.08841e-06
1.18931e-06 -3.08841e-06 -1.78268e-05
0.000967779 1.69564e-05 -2.36559e-07
1.69564e-05 4.78446e-05 3.14612e-07
-2.36559e-07 3.14612e-07 -2.36458e-05
0.000998175 -3.38331e-05 9.50206e-08
-3.38331e-05 6.3925e-05 -4.567e-07
9.50206e-08 -4.567e-07 -1.00029e-05
0.00203422 -9.7005e-05 -5.08162e-06
-9.7005e-05 0.000132565 -1.19987e-06
-5.08162e-06 -1.19987e-06 0.000104166
0.000964474 -8.99599e-05 1.77276e-06
-8.99599e-05 -0.000111441 1.8395e-06
1.77276e-06 1.8395e-06 -0.000221709
0.00115066 -8.49587e-05 6.09192e-07
-8.49587e-05 0.00014881 -7.03633e-07
6.09192e-07 -7.03633e-07 2.19812e-05
0.0010596 -4.41229e-05 2.4571e-09
-4.41229e-05 9.38096e-05 -1.73651e-07
2.4571e-09 -1.73651e-07 3.9633e-06
0.00112882 -3.37362e-05 -1.19441e-07
-3.37362e-05 0.000154918 2.36021e-07
-1.19441e-07 2.36021e-07 2.83795e-05
0.00213673 -4.61042e-05 -6.07135e-08
-4.61042e-05 8.9074e-05 9.5675e-06
-6.07135e-08 9.5675e-06 9.66799e-05
0.00281416 -0.000166137 1.26815e-05
-0.000166137 0.000649852 -2.66885e-06
1.26815e-05 -2.66885e-06 0.000537009
0.000557571 -8.64464e-05 3.53624e-07
-8.64464e-05 -0.000184499 -3.05141e-06
3.53624e-07 -3.05141e-06 -0.000311225
0.00115702 -5.9557e-05 5.40601e-07
-5.9557e-05 0.000184656 -1.25926e-06
5.40601e-07 -1.25926e-06 2.55074e-05
0.000898467 -3.19786e-05 3.27208e-07
-3.19786e-05 1.59964e-05 -5.31633e-07
3.27208e-07 -5.31633e-07 -6.30048e-05
0.00103171 -3.28103e-05 9.22992e-07
-3.28103e-05 7.84705e-05 -1.43926e-06
9.22992e-07 -1.43926e-06 -6.66506e-06
0.00122154 -1.98188e-05 -9.60781e-08
-1.98188e-05 0.000180036 -9.23736e-07
-9.60781e-08 -9.23736e-07 7.44498e-05
-0.000789293 -1.34318e-05 -9.29294e-05
-1.34318e-05 -0.000613803 -9.58363e-07
-9.29294e-05 -9.58363e-07 -0.000632354
0.00521788 -2.39762e-05 -2.07871e-05
-2.39762e-05 0.00177207 -2.08397e-06
-2.07871e-05 -2.08397e-06 0.00125059
0.00115203 5.96538e-05 1.06203e-07
5.96538e-05 0.00013809 3.79321e-07
1.06203e-07 3.79321e-07 4.53577e-05
0.000921066 5.54827e-05 1.264e-06
5.54827e-05 2.70703e-05 -8.45792e-07
1.264e-06 -8.45792e-07 -7.25461e-05
0.00195562 0.000108449 -9.68455e-06
0.000108449 4.94089e-05 -1.20778e-06
-9.68455e-06 -1.20778e-06 -1.27641e-05
0.00116704 0.000102611 -2.27336e-06
0.000102611 -1.49031e-05 -2.80131e-06
-2.27336e-06 -2.80131e-06 -0.000120904
0.00110383 7.1304e-05 1.36813e-06
7.1304e-05 0.00013829 -1.52824e-06
1.36813e-06 -1.52824e-06 5.1413e-06
0.00499089 -3.70017e-05 2.52806e-05
-3.70017e-05 0.00152554 -1.36017e-05
2.52806e-05 -1.36017e-05 0.000873988
0.00140103 -0.000136917 -5.09826e-05
-0.000136917 -9.51324e-05 -1.53648e-05
-5.09826e-05 -1.53648e-05 -0.000306236
0.00115896 7.9477e-05 -3.84596e-06
7.9477e-05 -0.000212829 -9.49655e-06
-3.84596e-06 -9.49655e-06 -0.000152984
0.0025176 -0.000186999 3.25463e-05
-0.000186999 0.00103232 1.20154e-05
3.25463e-05 1.20154e-05 0.000973478
-0.000432784 -0.000198628 1.57797e-05
-0.000198628 -0.000966039 1.66613e-05
1.57797e-05 1.66613e-05 -0.000555959
0.00109271 5.86383e-05 2.41322e-07
5.86383e-05 0.000104279 -3.03264e-07
2.41322e-07 -3.03264e-07 1.16339e-05
-0.000880991 -3.35657e-05 -1.60521e-05
-3.35657e-05 -0.0005491 -5.83097e-07
-1.60521e-05 -5.83097e-07 -0.000565224
0.00122043 -9.02031e-05 -1.68339e-06
-9.02031e-05 0.000260024 1.02986e-06
-1.68339e-06 1.02986e-06 0.000406428
0.00159537 0.000134789 1.34219e-06
0.000134789 2.11566e-05 1.48836e-06
1.34219e-06 1.48836e-06 -3.35345e-05
0.0011325 4.78365e-05 -2.26548e-07
4.78365e-05 0.000143717 -1.2344e-06
-2.26548e-07 -1.2344e-06 3.72753e-05
0.00135331 6.94825e-05 6.90402e-07
6.94825e-05 0.000298503 3.35397e-08
6.90402e-07 3.35397e-08 0.000128089
0.00157743 5.47384e-05 -1.43019e-05
5.47384e-05 0.00016221 -6.34221e-06
-1.43019e-05 -6.34221e-06 0.000121534
0.00424739 -0.000117 6.86377e-06
-0.000117 0.00102783 6.13396e-06
6.86377e-06 6.13396e-06 0.000238897
0.00157783 -3.88863e-05 -4.75512e-06
-3.88863e-05 -3.41158e-05 -1.55694e-05
-4.75512e-06 -1.55694e-05 -0.000156967
0.00281562 -0.000303895 6.61047e-06
-0.000303895 0.000774852 -7.26408e-07
6.61047e-06 -7.26408e-07 0.000776607
0.000141733 -0.000111589 -3.23385e-06
-0.000111589 -0.000830812 3.73442e-07
-3.23385e-06 3.73442e-07 -0.000520734
0.00104954 3.30514e-05 -1.49678e-06
3.30514e-05 4.71442e-05 -1.4214e-06
-1.49678e-06 -1.4214e-06 -4.34464e-05
0.000334734 -1.92056e-05 2.00324e-06
-1.92056e-05 -0.00015072 -6.62473e-07
2.00324e-06 -6.62473e-07 -0.000162787
0.000823334 -4.80584e-06 6.23638e-06
-4.80584e-06 2.48309e-05 -1.2059e-06
6.23638e-06 -1.2059e-06 -2.68834e-05
0.00062224 7.57098e-05 1.00264e-05
7.57098e-05 -0.000141768 -1.47515e-06
1.00264e-05 -1.47515e-06 -0.000306018
0.00188011 4.44347e-05 -6.9028e-06
4.44347e-05 0.000577245 -3.67603e-07
-6.9028e-06 -3.67603e-07 0.000446558
0.00284818 -3.89611e-05 -6.1657e-06
-3.89611e-05 0.00112862 -1.32891e-06
-6.1657e-06 -1.32891e-06 0.00110585
0.000915003 0.000130169 -5.87981e-05
0.000130169 -3.74509e-05 6.99846e-06
-5.87981e-05 6.99846e-06 -0.000272682
0.00216397 -0.000212295 1.28187e-05
-0.000212295 5.86622e-05 1.42318e-05
1.28187e-05 1.42318e-05 -0.000806035
0.00370365 -0.000337712 -4.14141e-05
-0.000337712 0.00077839 -1.81971e-05
-4.14141e-05 -1.81971e-05 0.000852694
0.000448464 -3.12292e-05 -1.86469e-06
-3.12292e-05 -0.000453536 5.32369e-06
-1.86469e-06 5.32369e-06 -0.000404758
0.00117607 5.99242e-05 -4.44801e-07
5.99242e-05 0.000131864 8.43852e-07
-4.44801e-07 8.43852e-07 4.00665e-05
0.00113024 5.73075e-05 6.46117e-07
5.73075e-05 9.582e-05 6.5103e-07
6.46117e-07 6.5103e-07 2.16411e-06
0.000743664 5.0672e-05 1.97339e-06
5.0672e-05 -6.95707e-05 -1.42832e-07
1.97339e-06 -1.42832e-07 -0.000170763
0.000788267 1.27881e-05 9.45362e-08
1.27881e-05 -5.65321e-05 -4.06659e-07
9.45362e-08 -4.06659e-07 -0.000104087
0.00102008 1.78149e-05 -8.32979e-08
1.78149e-05 6.72206e-05 -8.40465e-07
-8.32979e-08 -8.40465e-07 7.02856e-06
0.00120106 -1.0834e-05 1.43349e-07
-1.0834e-05 0.000158426 -6.31838e-08
1.43349e-07 -6.31838e-08 8.85929e-05
0.00099438 3.64918e-05 -4.77991e-07
3.64918e-05 5.37185e-05 -1.10526e-06
-4.77991e-07 -1.10526e-06 -2.32082e-05
0.000903521 4.75889e-05 -3.28673e-07
4.75889e-05 6.87381e-07 -3.28916e-07
-3.28673e-07 -3.28916e-07 -8.7883e-05
0.0010225 6.60072e-06 3.43372e-07
6.60072e-06 6.86349e-05 -4.46483e-07
3.43372e-07 -4.46483e-07 8.07179e-06
0.00104351 3.41132e-05 -1.52526e-07
3.41132e-05 7.77235e-05 -1.24425e-07
-1.52526e-07 -1.24425e-07 -2.44448e-06
0.00100727 -1.37281e-05 3.58398e-08
-1.37281e-05 5.99708e-05 1.64132e-08
3.58398e-08 1.64132e-08 -1.03058e-05
0.00109086 4.4887e-05 2.26485e-07
4.4887e-05 0.000112662 4.16362e-07
2.26485e-07 4.16362e-07 1.44262e-05
0.00122413 3.29355e-06 1.48648e-07
3.29355e-06 0.000184953 -7.55976e-07
1.48648e-07 -7.55976e-07 8.04098e-05
0.0011442 1.75921e-05 -3.35111e-07
1.75921e-05 0.000133409 1.01311e-06
-3.35111e-07 1.01311e-06 4.78699e-05
0.00104823 9.31982e-06 2.23967e-07
9.31982e-06 8.21358e-05 4.20999e-07
2.23967e-07 4.20999e-07 1.07367e-05
0.00103623 -1.35372e-05 1.36636e-09
-1.35372e-05 7.64597e-05 -6.83355e-07
1.36636e-09 -6.83355e-07 1.59381e-05
0.00092684 -5.93691e-06 1.88539e-08
-5.93691e-06 1.85244e-05 -1.21007e-06
1.88539e-08 -1.21007e-06 -5.24796e-05
0.00103537 9.34327e-07 2.00247e-07
9.34327e-07 7.56508e-05 3.03911e-08
2.00247e-07 3.03911e-08 4.51602e-06
0.00101495 3.63696e-06 1.61006e-08
3.63696e-06 6.54418e-05 3.22643e-08
1.61006e-08 3.22643e-08 -6.55513e-06
0.00106061 2.80502e-06 -1.90907e-07
2.80502e-06 8.25167e-05 -7.65329e-07
-1.90907e-07 -7.65329e-07 5.63822e-06
0.000978568 -8.07825e-06 -2.09967e-07
-8.07825e-06 4.90791e-05 1.27292e-06
-2.09967e-07 1.27292e-06 -2.58776e-05
0.00110633 1.28809e-05 1.17697e-07
1.28809e-05 0.000107104 1.17506e-07
1.17697e-07 1.17506e-07 2.8668e-05
0.00094013 -1.36715e-05 -3.05399e-08
-1.36715e-05 2.10213e-05 4.02023e-07
-3.05399e-08 4.02023e-07 -6.00682e-05
0.00103708 -3.68397e-05 3.90656e-07
-3.68397e-05 7.84121e-05 -6.42386e-07
3.90656e-07 -6.42386e-07 -8.75406e-06
0.000800989 -4.9e-05 3.16348e-07
-4.9e-05 -2.06498e-05 3.85859e-08
3.16348e-07 3.85859e-08 -0.000109192
0.000920847 -3.88743e-05 -7.91543e-07
-3.88743e-05 2.842e-05 -4.09772e-07
-7.91543e-07 -4.09772e-07 -5.45045e-05
0.00102128 -2.67475e-05 -1.22867e-07
-2.67475e-05 7.47657e-05 2.7664e-07
-1.22867e-07 2.7664e-07 -5.05356e-06
0.00100751 -2.04109e-05 -5.70043e-07
-2.04109e-05 6.16593e-05 1.38995e-06
-5.70043e-07 1.38995e-06 -5.75985e-06
0.000999926 -1.50076e-05 -3.58296e-08
-1.50076e-05 5.7364e-05 -3.19645e-08
-3.58296e-08 -3.19645e-08 -6.84005e-06
0.000968591 2.60144e-06 -2.79483e-07
2.60144e-06 3.35333e-05 1.05513e-06
-2.79483e-07 1.05513e-06 -1.56431e-05
0.000986378 -6.94099e-06 3.56506e-07
-6.94099e-06 5.1116e-05 -6.86703e-07
3.56506e-07 -6.86703e-07 -1.06514e-05
0.000964626 -4.96303e-06 6.70263e-08
-4.96303e-06 3.2816e-05 -1.54469e-08
6.70263e-08 -1.54469e-08 -1.49364e-05
0.000938467 8.55125e-06 -5.84584e-07
8.55125e-06 9.34656e-06 1.65928e-06
-5.84584e-07 1.65928e-06 -1.98692e-05
0.000786694 6.96927e-06 1.11648e-07
6.96927e-06 -5.78341e-05 -8.73858e-07
1.11648e-07 -8.73858e-07 -0.000105221
0.000937803 2.52861e-06 -9.16633e-08
2.52861e-06 7.58813e-06 -1.03095e-08
-9.16633e-08 -1.03095e-08 -2.05474e-05
0.00147173 1.01681e-05 -3.67227e-06
1.01681e-05 0.000271351 4.26997e-06
-3.67227e-06 4.26997e-06 0.000273692
0.000933216 -4.47604e-06 6.22843e-07
-4.47604e-06 4.89232e-06 -1.61148e-06
6.22843e-07 -1.61148e-06 -2.25056e-05
0.00117823 6.74122e-06 -1.36422e-06
6.74122e-06 0.000118665 5.95467e-07
-1.36422e-06 5.95467e-07 0.000120238
0.00102998 6.47061e-06 -7.51564e-07
6.47061e-06 4.05599e-05 1.51796e-06
-7.51564e-07 1.51796e-06 5.85119e-05
0.00088723 3.16433e-06 3.79536e-07
3.16433e-06 -3.21167e-05 -3.02902e-06
3.79536e-07 -3.02902e-06 -3.15115e-05
0.002214 3.70947e-06 1.14082e-06
3.70947e-06 0.00064515 7.98358e-09
1.14082e-06 7.98358e-09 0.000668817
0.00220975 -4.49068e-07 1.07449e-06
-4.49068e-07 0.000642642 -3.94884e-06
1.07449e-06 -3.94884e-06 0.000666399
0.00121515 2.08913e-05 -6.9502e-07
2.08913e-05 0.000157289 -9.32773e-07
-6.9502e-07 -9.32773e-07 0.000116333
0.000945515 -1.41278e-06 -1.32255e-07
-1.41278e-06 5.88796e-06 -1.75179e-06
-1.32255e-07 -1.75179e-06 -1.72311e-05
0.00096426 4.77823e-06 4.46975e-07
4.77823e-06 3.03323e-05 5.00984e-07
4.46975e-07 5.00984e-07 -1.05076e-05
0.00088936 1.8553e-07 -1.92889e-08
1.8553e-07 -3.24006e-05 -3.12992e-06
-1.92889e-08 -3.12992e-06 -2.88496e-05
0.000947398 9.11556e-08 -3.58675e-09
9.11556e-08 6.44758e-06 -7.51254e-09
-3.58675e-09 -7.51254e-09 -1.61112e-05
0.00094179 2.09451e-06 -2.99918e-07
2.09451e-06 3.62423e-06 1.77625e-06
-2.99918e-07 1.77625e-06 -1.9132e-05
0.000887432 3.70601e-06 -1.08395e-07
3.70601e-06 -3.28783e-05 1.6143e-09
-1.08395e-07 1.6143e-09 -2.95661e-05
0.0021194 4.34573e-06 2.0947e-06
4.34573e-06 0.000596772 -3.88707e-06
2.0947e-06 -3.88707e-06 0.000621548
0.00141122 8.57071e-06 -8.7022e-07
8.57071e-06 0.000236848 1.92049e-06
-8.7022e-07 1.92049e-06 0.000242025
0.00159907 7.95875e-06 1.39244e-06
7.95875e-06 0.000332275 2.91551e-08
1.39244e-06 2.91551e-08 0.000353849
0.0011119 9.98866e-06 -8.36389e-06
9.98866e-06 8.58833e-05 6.28373e-06
-8.36389e-06 6.28373e-06 0.000103743
-0.00277106 5.21115e-05 -5.80607e-05
5.21115e-05 -0.00168194 1.20262e-05
-5.80607e-05 1.20262e-05 -0.00168779
-0.00127457 6.67772e-05 -8.00977e-06
6.67772e-05 -0.0012173 6.69107e-06
-8.00977e-06 6.69107e-06 -0.00110579
0.000895787 -9.03514e-05 -5.18801e-05
-9.03514e-05 5.07091e-06 -1.7318e-05
-5.18801e-05 -1.7318e-05 -0.000239828
0.00137107 -2.43741e-05 -3.12336e-06
-2.43741e-05 6.75899e-05 -5.07164e-07
-3.12336e-06 -5.07164e-07 2.44616e-05
0.00133053 3.49235e-05 -1.24748e-05
3.49235e-05 -0.000114328 -1.2397e-06
-1.24748e-05 -1.2397e-06 -0.000194971
0.000824298 -3.24608e-05 2.05993e-05
-3.24608e-05 8.25693e-05 -1.31733e-06
2.05993e-05 -1.31733e-06 -6.60148e-05
0.00162262 5.2529e-05 2.2774e-06
5.2529e-05 0.000164194 1.76496e-06
2.2774e-06 1.76496e-06 0.00010008
0.00479144 0.000127477 -3.14765e-05
0.000127477 0.00141891 -3.00151e-07
-3.14765e-05 -3.00151e-07 0.000830986
-0.00190263 0.000119321 5.61176e-06
0.000119321 -0.000956292 -4.28217e-06
5.61176e-06 -4.28217e-06 -0.000975383
0.000407445 0.000169108 2.26996e-06
0.000169108 -0.000423493 -2.839e-06
2.26996e-06 -2.839e-06 -6.28864e-05
0.000752501 4.10395e-05 2.87903e-05
4.10395e-05 0.000110005 -1.34819e-05
2.87903e-05 -1.34819e-05 -8.551e-05
0.0049594 0.00025471 -1.61825e-05
0.00025471 0.00145216 1.10517e-05
-1.61825e-05 1.10517e-05 0.000811977
0.000163506 0.000206144 -5.56993e-05
0.000206144 -0.000100008 3.64696e-05
-5.56993e-05 3.64696e-05 -1.37924e-05
0.00108316 0.000112807 -6.88498e-06
0.000112807 -0.000361812 4.25156e-06
-6.88498e-06 4.25156e-06 9.61911e-07
0.000920456 2.60622e-05 -2.89171e-07
2.60622e-05 2.58376e-05 -8.13623e-07
-2.89171e-07 -8.13623e-07 -4.23938e-05
0.000884108 7.3758e-06 4.38953e-08
7.3758e-06 -8.68424e-08 -4.46738e-07
4.38953e-08 -4.46738e-07 -5.43542e-05
0.000970428 -2.12164e-05 -6.00554e-07
-2.12164e-05 3.33028e-05 1.03426e-06
-6.00554e-07 1.03426e-06 -7.18126e-06
0.000838274 1.39514e-05 -1.71816e-08
1.39514e-05 -2.29932e-05 7.33227e-07
-1.71816e-08 7.33227e-07 -7.75407e-05
0.00102981 3.83169e-05 5.19747e-07
3.83169e-05 7.99692e-05 9.34601e-07
5.19747e-07 9.34601e-07 1.62093e-05
0.00106266 3.11812e-05 -2.42523e-07
3.11812e-05 9.78674e-05 -6.83524e-07
-2.42523e-07 -6.83524e-07 3.0087e-05
0.000995354 2.34176e-05 7.37391e-07
2.34176e-05 5.98019e-05 9.81503e-07
7.37391e-07 9.81503e-07 -2.66819e-06
0.000994663 7.82141e-06 4.94144e-07
7.82141e-06 5.73575e-05 -5.64598e-07
4.94144e-07 -5.64598e-07 -3.83766e-06
0.000946744 -4.87143e-06 2.41052e-07
-4.87143e-06 3.28049e-05 -5.18156e-07
2.41052e-07 -5.18156e-07 -2.43915e-05
0.00085014 -2.00577e-05 -3.9092e-07
-2.00577e-05 -1.73141e-05 1.23326e-06
-3.9092e-07 1.23326e-06 -7.20215e-05
0.00220795 3.41106e-05 -7.29266e-06
3.41106e-05 0.000270235 2.55875e-06
-7.29266e-06 2.55875e-06 0.000212558
0.00156786 -9.07193e-05 -1.41057e-05
-9.07193e-05 -8.71106e-05 1.65099e-06
-1.41057e-05 1.65099e-06 -0.000111215
-6.27383e-05 -6.81787e-05 -2.22278e-06
-6.81787e-05 -0.000608746 3.62238e-06
-2.22278e-06 3.62238e-06 -0.000714564
0.00113592 -8.58471e-05 -8.44293e-07
-8.58471e-05 0.000140315 2.48739e-06
-8.44293e-07 2.48739e-06 8.46906e-06
0.00113729 -3.8246e-05 2.75892e-07
-3.8246e-05 0.000156853 9.03833e-07
2.75892e-07 9.03833e-07 3.14927e-05
0.00108832 -4.01988e-05 -2.4193e-07
-4.01988e-05 0.000105856 7.52157e-07
-2.4193e-07 7.52157e-07 1.6003e-05
0.00102161 -3.65364e-05 -4.67846e-07
-3.65364e-05 7.58606e-05 7.41261e-07
-4.67846e-07 7.41261e-07 1.99312e-06
0.00099123 1.76912e-05 -6.79303e-08
1.76912e-05 6.02031e-05 1.03374e-06
-6.79303e-08 1.03374e-06 -1.05833e-05
0.00194063 -4.24259e-05 -4.13546e-06
-4.24259e-05 -1.5604e-05 1.24271e-06
-4.13546e-06 1.24271e-06 -2.47909e-05
0.000910013 -1.48545e-05 -1.54228e-07
-1.48545e-05 2.16737e-05 -5.21237e-08
-1.54228e-07 -5.21237e-08 -5.77723e-05
0.000987508 -3.57735e-05 3.9948e-07
-3.57735e-05 5.49922e-05 -5.78174e-07
3.9948e-07 -5.78174e-07 -3.14027e-05
0.00178679 -0.000139609 2.64993e-06
-0.000139609 0.000148018 5.16151e-07
2.64993e-06 5.16151e-07 4.5466e-05
0.000693382 -8.88402e-05 -1.41475e-08
-8.88402e-05 -0.000109145 1.90794e-06
-1.41475e-08 1.90794e-06 -0.000234498
0.00117793 -5.84901e-05 6.51143e-07
-5.84901e-05 0.000187781 -2.71443e-07
6.51143e-07 -2.71443e-07 3.55543e-05
0.00119309 -2.38262e-05 -1.53718e-07
-2.38262e-05 0.000165888 -3.54151e-07
-1.53718e-07 -3.54151e-07 5.54896e-05
0.00286671 -0.000127985 3.22108e-06
-0.000127985 0.000461937 -2.90924e-07
3.22108e-06 -2.90924e-07 0.000486848
0.00180541 -0.000137858 1.2883e-06
-0.000137858 0.000441034 -5.35822e-06
1.2883e-06 -5.35822e-06 0.000265897
0.000894531 -3.96875e-07 -1.16906e-06
-3.96875e-07 5.69268e-05 -9.14713e-07
-1.16906e-06 -9.14713e-07 -9.25105e-05
0.000977703 3.05215e-05 2.28129e-07
3.05215e-05 5.64012e-05 -3.88687e-08
2.28129e-07 -3.88687e-08 -2.41803e-05
0.00102589 -4.60562e-05 6.7956e-07
-4.60562e-05 7.27433e-05 -7.31251e-07
6.7956e-07 -7.31251e-07 -1.54433e-05
0.00111891 -2.55497e-06 2.63235e-07
-2.55497e-06 0.000107651 -3.16477e-07
2.63235e-07 -3.16477e-07 1.30917e-05
0.00110901 -8.29183e-06 3.79438e-06
-8.29183e-06 0.000242242 4.03826e-07
3.79438e-06 4.03826e-07 0.00023776
0.00144091 -5.12591e-06 7.38053e-06
-5.12591e-06 0.000351642 -2.82986e-06
7.38053e-06 -2.82986e-06 0.000200616
0.000630775 8.24185e-05 -3.88562e-05
8.24185e-05 -0.000433835 6.56223e-06
-3.88562e-05 6.56223e-06 -0.000949824
0.00109301 5.91126e-05 -2.09604e-07
5.91126e-05 9.99301e-05 5.90353e-08
-2.09604e-07 5.90353e-08 7.65437e-06
0.00145734 6.06254e-05 2.4491e-06
6.06254e-05 0.000309662 4.97753e-07
2.4491e-06 4.97753e-07 0.000207424
0.00181626 0.000139123 -3.3956e-06
0.000139123 0.000133419 -2.73399e-06
-3.3956e-06 -2.73399e-06 7.34722e-05
0.000923069 7.18984e-05 2.37223e-06
7.18984e-05 8.63579e-05 -3.3371e-06
2.37223e-06 -3.3371e-06 -8.43349e-05
0.00383728 -0.000141252 4.56435e-05
-0.000141252 0.00149897 4.93918e-06
4.56435e-05 4.93918e-06 0.00143069
0.00127193 -0.000186869 3.8253e-05
-0.000186869 -0.000154174 2.91439e-05
3.8253e-05 2.91439e-05 -0.000655523
0.00296761 -3.22672e-05 -5.54894e-05
-3.22672e-05 0.000293442 -5.95527e-05
-5.54894e-05 -5.95527e-05 9.43597e-05
0.00112629 3.99584e-05 6.27237e-06
3.99584e-05 -6.29178e-05 -2.51434e-07
6.27237e-06 -2.51434e-07 -8.37869e-05
-0.00178112 -0.000199596 5.76158e-05
-0.000199596 -0.00125432 2.61479e-05
5.76158e-05 2.61479e-05 -0.0011886
0.00226639 -9.15634e-05 9.10589e-06
-9.15634e-05 0.000804574 7.78053e-06
9.10589e-06 7.78053e-06 0.000945018
0.00168165 -0.000137121 4.92473e-06
-0.000137121 5.06198e-05 6.93697e-07
4.92473e-06 6.93697e-07 0.000396997
0.00119773 4.44844e-05 -6.23969e-08
4.44844e-05 0.000129827 3.28709e-07
-6.23969e-08 3.28709e-07 3.7332e-05
0.000767177 -3.16193e-05 -7.23438e-07
-3.16193e-05 6.5335e-05 4.71422e-07
-7.23438e-07 4.71422e-07 8.42165e-05
0.000775118 8.06968e-07 -1.10146e-06
8.06968e-07 -9.07743e-06 -2.02581e-06
-1.10146e-06 -2.02581e-06 -5.96674e-05
0.00113327 8.3862e-05 -1.08031e-06
8.3862e-05 0.000102396 1.19736e-06
-1.08031e-06 1.19736e-06 -6.75692e-05
0.000934198 2.76373e-05 -1.80029e-07
2.76373e-05 0.000125692 -3.91032e-07
-1.80029e-07 -3.91032e-07 -1.03345e-05
0.00199242 -8.4884e-06 8.73653e-06
-8.4884e-06 0.000613244 3.62811e-06
8.73653e-06 3.62811e-06 0.000503785
0.00373094 0.000192433 -2.04187e-05
0.000192433 0.000964378 -2.19889e-05
-2.04187e-05 -2.19889e-05 0.000581581
0.00571481 -0.000242742 -2.12528e-06
-0.000242742 0.00147596 4.9592e-06
-2.12528e-06 4.9592e-06 0.00072707
0.000257522 -0.000244136 8.84184e-06
-0.000244136 -0.000547606 1.69355e-05
8.84184e-06 1.69355e-05 -0.000516011
0.00165342 -4.5309e-05 -7.50408e-07
-4.5309e-05 0.000196112 3.3025e-07
-7.50408e-07 3.3025e-07 0.000316639
0.00136477 6.04294e-05 -1.02438e-07
6.04294e-05 0.000259037 -3.26686e-06
-1.02438e-07 -3.26686e-06 0.000179798
0.00191826 5.52105e-06 9.76139e-06
5.52105e-06 0.000756377 4.46816e-06
9.76139e-06 4.46816e-06 0.000690122
0.0010815 1.42189e-05 5.15248e-06
1.42189e-05 0.00014569 2.45086e-06
5.15248e-06 2.45086e-06 4.18869e-05
0.00040966 -2.3144e-05 -5.27964e-06
-2.3144e-05 -3.52712e-05 6.36975e-06
-5.27964e-06 6.36975e-06 -0.000169097
0.00105445 0.000119798 -1.24905e-05
0.000119798 0.000415582 3.93637e-05
-1.24905e-05 3.93637e-05 0.00020844
0.00528617 -0.000186759 -3.38709e-05
-0.000186759 0.000907663 -1.12322e-05
-3.38709e-05 -1.12322e-05 4.92837e-05
-0.000355401 -0.000135781 -3.74902e-05
-0.000135781 -0.00125774 -4.60605e-05
-3.74902e-05 -4.60605e-05 -0.00110511
0.00213976 6.2646e-06 -3.65472e-07
6.2646e-06 0.000536898 1.55288e-05
-3.65472e-07 1.55288e-05 0.000642765
0.00101756 5.44086e-05 -3.97817e-07
5.44086e-05 4.07295e-05 -3.46273e-07
-3.97817e-07 -3.46273e-07 -5.36957e-05
0.00110301 5.72807e-05 5.81464e-07
5.72807e-05 0.000102773 -2.03975e-08
5.81464e-07 -2.03975e-08 4.48913e-06
0.00137881 5.69746e-05 -9.47681e-07
5.69746e-05 0.000241263 -2.7197e-06
-9.47681e-07 -2.7197e-06 0.000143515
0.00102623 3.75075e-05 -5.94357e-07
3.75075e-05 6.99858e-05 -9.8284e-07
-5.94357e-07 -9.8284e-07 9.63119e-06
0.00100803 -5.6953e-06 1.31882e-07
-5.6953e-06 6.06071e-05 -4.1341e-07
1.31882e-07 -4.1341e-07 -9.8685e-06
0.00103176 3.11252e-05 -2.17373e-07
3.11252e-05 7.32701e-05 -5.94374e-07
-2.17373e-07 -5.94374e-07 -6.16167e-06
0.000989465 3.62401e-05 1.89739e-07
3.62401e-05 6.30152e-05 -2.31723e-07
1.89739e-07 -2.31723e-07 -3.60517e-05
0.0010522 1.7394e-05 2.00394e-07
1.7394e-05 8.30933e-05 4.24346e-09
2.00394e-07 4.24346e-09 1.223e-05
0.00110885 1.79627e-05 -5.98197e-08
1.79627e-05 0.000114202 4.55726e-07
-5.98197e-08 4.55726e-07 2.97096e-05
0.00106082 1.03722e-05 4.16831e-07
1.03722e-05 0.000108738 -8.00506e-07
4.16831e-07 -8.00506e-07 4.14025e-07
0.00129988 -1.59387e-06 2.21111e-07
-1.59387e-06 0.000240258 -7.03826e-07
2.21111e-07 -7.03826e-07 0.000136285
0.00111095 -3.11238e-05 2.45104e-07
-3.11238e-05 0.000114153 7.28763e-07
2.45104e-07 7.28763e-07 1.65498e-05
0.00114871 3.10633e-05 5.796e-07
3.10633e-05 0.000129382 5.3064e-07
5.796e-07 5.3064e-07 4.91816e-05
0.00103709 -8.35031e-06 4.54152e-07
-8.35031e-06 7.5781e-05 -6.21974e-07
4.54152e-07 -6.21974e-07 5.19754e-06
0.00100578 3.54818e-06 1.57548e-07
3.54818e-06 6.11864e-05 -7.69464e-07
1.57548e-07 -7.69464e-07 -1.08959e-05
0.0010187 -2.94321e-06 -2.08957e-07
-2.94321e-06 5.87811e-05 -1.5431e-06
-2.08957e-07 -1.5431e-06 -1.76345e-05
0.00111494 9.92005e-06 -1.724e-07
9.92005e-06 0.000110392 -4.49096e-07
-1.724e-07 -4.49096e-07 3.26143e-05
0.00100393 -4.93252e-06 3.92373e-08
-4.93252e-06 6.28986e-05 3.38959e-07
3.92373e-08 3.38959e-07 -1.23954e-05
0.000994614 -3.21018e-06 5.31551e-08
-3.21018e-06 4.6376e-05 -1.67424e-07
5.31551e-08 -1.67424e-07 -3.37696e-05
0.00102253 -2.32628e-05 -1.24406e-07
-2.32628e-05 6.49189e-05 4.91017e-07
-1.24406e-07 4.91017e-07 -1.95546e-05
0.00106214 -1.85131e-05 1.62084e-07
-1.85131e-05 7.66847e-05 2.29503e-07
1.62084e-07 2.29503e-07 -6.56006e-06
0.00101775 -4.95867e-05 3.65683e-07
-4.95867e-05 6.742e-05 -9.19164e-08
3.65683e-07 -9.19164e-08 -2.37543e-05
0.00110489 -3.97513e-05 -3.06241e-07
-3.97513e-05 0.000112242 -7.71691e-08
-3.06241e-07 -7.71691e-08 2.51516e-05
0.000825053 -4.88654e-05 -1.43603e-07
-4.88654e-05 -8.74636e-06 1.03899e-06
-1.43603e-07 1.03899e-06 -9.97733e-05
0.00110165 -6.02663e-05 -1.10802e-06
-6.02663e-05 0.000111761 1.82226e-06
-1.10802e-06 1.82226e-06 1.95525e-05
0.00113121 -5.32305e-05 2.89488e-07
-5.32305e-05 0.00013142 -1.11307e-06
2.89488e-07 -1.11307e-06 5.08506e-05
0.000859808 -5.0481e-05 3.10686e-07
-5.0481e-05 1.13952e-05 -1.18867e-06
3.10686e-07 -1.18867e-06 -7.41848e-05
0.00102212 -4.21729e-05 2.25463e-07
-4.21729e-05 7.88695e-05 -4.92009e-07
2.25463e-07 -4.92009e-07 -3.43831e-06
0.00089332 -2.59385e-05 -5.45383e-07
-2.59385e-05 5.43068e-06 7.94853e-07
-5.45383e-07 7.94853e-07 -6.69522e-05
0.00104341 -2.75336e-05 -7.78905e-08
-2.75336e-05 8.56945e-05 -1.89487e-07
-7.78905e-08 -1.89487e-07 5.90795e-06
0.00100974 -2.18545e-05 -1.65079e-07
-2.18545e-05 6.29894e-05 4.62667e-07
-1.65079e-07 4.62667e-07 -4.57357e-06
0.000965817 1.26536e-06 -3.38075e-07
1.26536e-06 3.15391e-05 1.2697e-06
-3.38075e-07 1.2697e-06 -2.04777e-05
0.000999823 -2.29339e-05 3.78443e-07
-2.29339e-05 5.82981e-05 -9.11156e-07
3.78443e-07 -9.11156e-07 -6.5243e-06
0.000961623 -5.78678e-06 -1.8426e-07
-5.78678e-06 3.08024e-05 -4.13777e-08
-1.8426e-07 -4.13777e-08 -1.87899e-05
0.000930303 9.73967e-06 -7.64393e-07
9.73967e-06 7.17683e-06 1.73525e-06
-7.64393e-07 1.73525e-06 -2.33873e-05
0.000964018 -4.35825e-06 6.38977e-07
-4.35825e-06 3.26614e-05 -9.71063e-07
6.38977e-07 -9.71063e-07 -1.51952e-05
0.000933667 3.73966e-06 -1.4968e-07
3.73966e-06 6.61721e-06 -4.38051e-10
-1.4968e-07 -4.38051e-10 -2.25635e-05
0.00147464 1.33996e-05 -5.05752e-06
1.33996e-05 0.000276209 4.31255e-06
-5.05752e-06 4.31255e-06 0.00027755
0.000932055 -3.39753e-06 8.93823e-07
-3.39753e-06 4.50162e-06 -1.64296e-06
8.93823e-07 -1.64296e-06 -2.36047e-05
0.00117686 9.95533e-06 -1.81994e-06
9.95533e-06 0.000120642 5.86777e-07
-1.81994e-06 5.86777e-07 0.000121472
0.00102618 9.97963e-06 -1.23711e-06
9.97963e-06 4.19112e-05 1.52968e-06
-1.23711e-06 1.52968e-06 5.91214e-05
0.00088459 6.27126e-06 6.69598e-07
6.27126e-06 -3.18915e-05 -3.06675e-06
6.69598e-07 -3.06675e-06 -3.16774e-05
0.00162782 7.68234e-06 2.76459e-06
7.68234e-06 0.000346431 -1.19116e-06
2.76459e-06 -1.19116e-06 0.000367118
0.00221213 4.09849e-06 3.69508e-06
4.09849e-06 0.000644464 -3.9273e-06
3.69508e-06 -3.9273e-06 0.000668099
0.00103219 -2.31885e-06 5.61635e-08
-2.31885e-06 6.48973e-05 -1.10991e-06
5.61635e-08 -1.10991e-06 1.96867e-05
0.000947329 -3.39046e-06 -2.63414e-07
-3.39046e-06 7.87021e-06 -1.72098e-06
-2.63414e-07 -1.72098e-06 -1.63846e-05
0.00101168 4.73016e-06 2.10227e-07
4.73016e-06 5.41985e-05 5.13942e-08
2.10227e-07 5.13942e-08 1.21764e-05
0.000893516 -3.11468e-06 -3.61781e-07
-3.11468e-06 -2.96252e-05 -3.1312e-06
-3.61781e-07 -3.1312e-06 -2.65581e-05
0.000946718 -1.82773e-06 -5.70536e-08
-1.82773e-06 6.55512e-06 -4.69843e-09
-5.70536e-08 -4.69843e-09 -1.65714e-05
0.000966816 -2.80592e-06 -2.96457e-07
-2.80592e-06 3.11594e-05 1.4761e-06
-2.96457e-07 1.4761e-06 -9.22414e-06
0.00211676 6.04136e-08 -7.5518e-07
6.04136e-08 0.000595008 -3.91804e-06
-7.5518e-07 -3.91804e-06 0.000619885
0.000888427 2.95305e-07 -8.03194e-08
2.95305e-07 -3.29145e-05 -5.21331e-09
-8.03194e-08 -5.21331e-09 -2.93502e-05
0.000944284 -3.56882e-07 -1.16635e-07
-3.56882e-07 4.82292e-06 1.77652e-06
-1.16635e-07 1.77652e-06 -1.772e-05
0.000891622 3.80199e-06 -4.07448e-07
3.80199e-06 -3.07428e-05 3.10261e-06
-4.07448e-07 3.10261e-06 -2.74621e-05
0.00212081 4.50413e-06 -1.19328e-06
4.50413e-06 0.000597656 -7.84754e-09
-1.19328e-06 -7.84754e-09 0.000622381
0.00213669 8.61986e-06 -6.32725e-06
8.61986e-06 0.000607329 3.85825e-06
-6.32725e-06 3.85825e-06 0.000631626
-0.0010072 1.30845e-05 3.62826e-06
1.30845e-05 -0.000966829 -1.12787e-06
3.62826e-06 -1.12787e-06 -0.000980433
-0.000181063 9.10575e-05 2.63499e-05
9.10575e-05 -0.000295949 -3.11531e-06
2.63499e-05 -3.11531e-06 -0.000372155
0.00106861 7.73051e-06 6.71575e-06
7.73051e-06 0.000121041 1.7591e-06
6.71575e-06 1.7591e-06 8.60965e-05
-0.0010905 7.59178e-05 -3.24451e-06
7.59178e-05 -0.00104176 2.45187e-06
-3.24451e-06 2.45187e-06 -0.000925246
0.00196421 2.0236e-05 -7.27739e-05
2.0236e-05 0.00048649 -5.08151e-06
-7.27739e-05 -5.08151e-06 0.000257035
0.00174983 5.53237e-05 5.15618e-06
5.53237e-05 0.000212195 -1.59862e-06
5.15618e-06 -1.59862e-06 0.000144756
0.000412713 -6.74609e-06 -2.3081e-05
-6.74609e-06 -0.000459385 3.6486e-06
-2.3081e-05 3.6486e-06 -0.000930651
0.00399921 0.000171454 9.51586e-05
0.000171454 0.00177165 -2.82172e-05
9.51586e-05 -2.82172e-05 0.00169354
-0.000251309 0.000183984 1.15943e-05
0.000183984 -0.000828331 -1.35883e-05
1.15943e-05 -1.35883e-05 -0.00045843
0.00137749 4.45566e-05 -4.16176e-06
4.45566e-05 0.000239961 4.18256e-06
-4.16176e-06 4.18256e-06 5.05659e-05
0.00279532 0.000167026 7.12558e-06
0.000167026 0.000540759 -6.6678e-06
7.12558e-06 -6.6678e-06 -0.000265008
0.00284119 0.000293044 2.72423e-06
0.000293044 0.000853884 4.06653e-07
2.72423e-06 4.06653e-07 0.000847543
0.00137599 0.000102632 -2.72739e-06
0.000102632 -0.00013109 2.36218e-06
-2.72739e-06 2.36218e-06 0.000213229
0.00124297 5.8114e-05 9.44825e-07
5.8114e-05 0.00027595 2.88692e-07
9.44825e-07 2.88692e-07 1.23199e-05
0.0029516 0.000214412 2.92067e-05
0.000214412 0.000567486 -1.98514e-05
2.92067e-05 -1.98514e-05 -0.000290818
-0.00235009 0.000212451 -4.83463e-05
0.000212451 -0.00203483 4.34044e-05
-4.83463e-05 4.34044e-05 -0.00188234
0.000733518 3.18496e-05 -1.13498e-06
3.18496e-05 -0.000344187 -2.38695e-06
-1.13498e-06 -2.38695e-06 -0.000204868
0.00106904 -3.12309e-06 6.74572e-07
-3.12309e-06 0.000101287 -8.53164e-07
6.74572e-07 -8.53164e-07 2.56248e-05
0.00100735 2.74064e-05 -7.17021e-07
2.74064e-05 6.91081e-05 -2.75472e-07
-7.17021e-07 -2.75472e-07 2.18401e-06
0.000972953 9.56607e-06 2.46194e-07
9.56607e-06 4.34648e-05 2.5076e-07
2.46194e-07 2.5076e-07 -9.70259e-06
0.00096215 3.91116e-05 1.00302e-06
3.91116e-05 4.71811e-05 1.56753e-06
1.00302e-06 1.56753e-06 -1.58579e-05
0.000959836 8.84316e-06 -2.43095e-07
8.84316e-06 4.31924e-05 -5.48026e-07
-2.43095e-07 -5.48026e-07 -2.98353e-05
0.00108855 2.80715e-05 9.09388e-08
2.80715e-05 0.000109976 4.98533e-07
9.09388e-08 4.98533e-07 4.32278e-05
0.000957017 8.4803e-06 -2.05607e-07
8.4803e-06 3.97702e-05 1.76354e-06
-2.05607e-07 1.76354e-06 -2.20701e-05
0.00111104 3.38703e-05 -7.17651e-07
3.38703e-05 0.000114942 -7.41526e-07
-7.17651e-07 -7.41526e-07 5.16534e-05
0.00108009 1.89884e-05 -1.85621e-08
1.89884e-05 0.000101151 4.66039e-07
-1.85621e-08 4.66039e-07 4.02535e-05
0.000879575 -1.36212e-05 -6.04749e-07
-1.36212e-05 -1.24847e-06 4.58593e-07
-6.04749e-07 4.58593e-07 -5.92947e-05
0.00195486 -4.1264e-05 -8.23375e-06
-4.1264e-05 -1.45684e-05 7.95405e-07
-8.23375e-06 7.95405e-07 -4.09222e-05
0.00088094 -0.000113743 -7.54999e-06
-0.000113743 -0.000293811 4.63524e-06
-7.54999e-06 4.63524e-06 -0.00038679
0.000983388 -9.51971e-05 1.62821e-06
-9.51971e-05 4.1467e-05 4.65831e-06
1.62821e-06 4.65831e-06 -8.19204e-05
0.00120653 -5.75676e-05 2.36411e-07
-5.75676e-05 0.00019623 2.01893e-06
2.36411e-07 2.01893e-06 4.90346e-05
0.00115794 -1.97259e-05 -8.00597e-08
-1.97259e-05 0.00014915 5.47139e-07
-8.00597e-08 5.47139e-07 3.3436e-05
0.00093784 -3.88833e-05 -2.16506e-07
-3.88833e-05 2.94998e-05 6.65008e-07
-2.16506e-07 6.65008e-07 -5.85141e-05
0.000925786 1.85486e-05 -6.92536e-09
1.85486e-05 2.93041e-05 2.59333e-07
-6.92536e-09 2.59333e-07 -5.03925e-05
0.00102102 -4.63522e-06 2.50218e-07
-4.63522e-06 7.71978e-05 6.48891e-07
2.50218e-07 6.48891e-07 -3.35939e-06
0.00219643 -0.000127708 4.07377e-07
-0.000127708 0.000152639 -1.75627e-07
4.07377e-07 -1.75627e-07 0.000163884
0.00108215 -6.24969e-06 -1.32785e-07
-6.24969e-06 0.000102428 -1.77158e-07
-1.32785e-07 -1.77158e-07 1.51646e-05
0.00121739 -1.12069e-05 -5.38811e-08
-1.12069e-05 0.000159145 -2.24491e-08
-5.38811e-08 -2.24491e-08 6.25551e-05
0.00157174 -0.000128128 -1.5081e-07
-0.000128128 0.000334866 -1.47605e-06
-1.5081e-07 -1.47605e-06 0.000154944
0.0011584 -1.046e-05 -4.34727e-07
-1.046e-05 0.000180348 -3.79719e-08
-4.34727e-07 -3.79719e-08 3.371e-05
0.00086494 -0.000139572 -7.9094e-06
-0.000139572 -0.000318642 -6.32586e-06
-7.9094e-06 -6.32586e-06 -0.000320053
0.00146086 -3.42785e-05 -1.67695e-06
-3.42785e-05 0.000406734 -6.94118e-07
-1.67695e-06 -6.94118e-07 0.000175511
0.000936737 2.39357e-05 -8.40037e-07
2.39357e-05 2.13456e-05 1.23692e-06
-8.40037e-07 1.23692e-06 -8.25878e-05
0.0010352 2.95851e-05 -3.42042e-08
2.95851e-05 7.40323e-05 -1.19608e-06
-3.42042e-08 -1.19608e-06 -1.1011e-05
0.00108433 2.4498e-05 -1.4607e-07
2.4498e-05 8.4641e-05 -1.5313e-07
-1.4607e-07 -1.5313e-07 -1.0352e-05
0.00202705 -4.87719e-06 7.23972e-06
-4.87719e-06 0.000840137 1.09641e-06
7.23972e-06 1.09641e-06 0.000765599
3.21247e-05 -8.12015e-06 1.07769e-05
-8.12015e-06 -0.000359254 -3.66502e-07
1.07769e-05 -3.66502e-07 -0.000374888
-0.00278915 -1.22782e-05 8.64219e-05
-1.22782e-05 -0.00175208 -2.58704e-07
8.64219e-05 -2.58704e-07 -0.00178029
0.00139908 5.70393e-05 1.26739e-06
5.70393e-05 0.000239468 1.89788e-06
1.26739e-06 1.89788e-06 0.000144891
6.13477e-06 1.42673e-05 2.37156e-06
1.42673e-05 -0.000315827 -1.21779e-06
2.37156e-06 -1.21779e-06 -0.000456843
0.00156783 9.07894e-05 1.02743e-06
9.07894e-05 0.000305778 -6.64629e-06
1.02743e-06 -6.64629e-06 0.000133614
-0.000982945 -1.81283e-05 2.99875e-06
-1.81283e-05 -0.000961611 7.04353e-07
2.99875e-06 7.04353e-07 -0.000983161
0.00263664 -0.000246032 2.61831e-05
-0.000246032 0.000202576 1.87921e-05
2.61831e-05 1.87921e-05 -0.000679885
0.00186441 0.000134002 3.2619e-05
0.000134002 0.000233693 -4.13599e-05
3.2619e-05 -4.13599e-05 4.6882e-05
0.00154701 3.58267e-06 5.12415e-05
3.58267e-06 0.000256527 1.3403e-05
5.12415e-05 1.3403e-05 7.0447e-05
0.0041802 -0.000353691 4.56375e-05
-0.000353691 0.00110526 5.1439e-05
4.56375e-05 5.1439e-05 0.00112201
0.00060238 5.72227e-06 -9.61675e-06
5.72227e-06 -0.000124297 -3.6404e-06
-9.61675e-06 -3.6404e-06 -0.000173515
0.00107149 -3.30896e-05 -3.84979e-06
-3.30896e-05 -9.79004e-05 -6.78353e-06
-3.84979e-06 -6.78353e-06 -1.17442e-05
0.00101711 5.53144e-05 1.38881e-06
5.53144e-05 8.58017e-05 -3.37788e-07
1.38881e-06 -3.37788e-07 9.09639e-06
0.00126868 7.86229e-06 1.48268e-06
7.86229e-06 0.000371885 1.40304e-06
1.48268e-06 1.40304e-06 0.000300467
0.000920211 1.49821e-05 -1.38822e-06
1.49821e-05 4.70373e-05 -1.15109e-06
-1.38822e-06 -1.15109e-06 -5.65654e-05
-0.000328136 -1.42519e-06 1.08959e-05
-1.42519e-06 -0.000399458 -2.85088e-07
1.08959e-05 -2.85088e-07 -0.000552837
0.00240178 0.000173485 -3.46541e-05
0.000173485 0.000754905 -1.72623e-05
-3.46541e-05 -1.72623e-05 0.000563958
0.00597926 -1.07417e-05 1.73183e-05
-1.07417e-05 0.0011246 6.25931e-06
1.73183e-05 6.25931e-06 0.000251822
0.00104328 -3.56497e-06 3.48813e-07
-3.56497e-06 -0.000102765 2.674e-06
3.48813e-07 2.674e-06 -4.55672e-05
0.00152575 -0.000212683 8.82748e-07
-0.000212683 -0.000424711 2.61376e-05
8.82748e-07 2.61376e-05 -0.000338389
0.000922473 3.39522e-05 -1.68342e-06
3.39522e-05 6.13628e-05 -6.41188e-06
-1.68342e-06 -6.41188e-06 -2.01707e-06
0.00105115 1.06566e-05 1.1654e-05
1.06566e-05 0.000130495 -1.7858e-06
1.1654e-05 -1.7858e-06 1.56281e-05
0.00191722 -5.49524e-06 -3.37912e-06
-5.49524e-06 0.000629987 1.49239e-06
-3.37912e-06 1.49239e-06 0.000511467
0.000697303 1.78592e-05 -5.53679e-07
1.78592e-05 -0.000307941 5.83399e-06
-5.53679e-07 5.83399e-06 -0.000215283
-0.00138005 4.99837e-05 -5.01951e-06
4.99837e-05 -0.000792546 1.69087e-06
-5.01951e-06 1.69087e-06 -0.000929137
0.00653251 -6.34094e-05 1.6981e-05
-6.34094e-05 0.00140432 1.63816e-05
1.6981e-05 1.63816e-05 0.000847894
0.00018375 6.0279e-06 -1.66371e-06
6.0279e-06 -0.000996927 -6.44127e-05
-1.66371e-06 -6.44127e-05 -0.000764639
0.00144423 6.54758e-05 6.83883e-07
6.54758e-05 0.000265121 2.05143e-06
6.83883e-07 2.05143e-06 0.000169858
0.00133477 5.69844e-05 -9.20979e-07
5.69844e-05 0.000209936 7.51162e-07
-9.20979e-07 7.51162e-07 0.000108821
0.00171167 5.60588e-05 1.04003e-06
5.60588e-05 0.000438378 -3.34111e-06
1.04003e-06 -3.34111e-06 0.000338085
0.00103714 3.81651e-05 -2.37766e-07
3.81651e-05 7.55138e-05 -4.32088e-07
-2.37766e-07 -4.32088e-07 4.73786e-06
0.00107964 2.75987e-05 -1.01155e-07
2.75987e-05 9.83511e-05 -5.1286e-07
-1.01155e-07 -5.1286e-07 1.46966e-05
0.000861917 1.27253e-06 -4.0146e-07
1.27253e-06 1.31994e-05 8.73106e-07
-4.0146e-07 8.73106e-07 -9.88023e-05
0.00115967 2.78819e-05 -4.9445e-08
2.78819e-05 0.000133565 -1.7394e-07
-4.9445e-08 -1.7394e-07 5.44025e-05
0.00107996 -3.11629e-05 1.96747e-08
-3.11629e-05 9.81179e-05 1.9651e-07
1.96747e-08 1.9651e-07 -3.94797e-07
0.00102195 -2.07663e-05 3.88512e-07
-2.07663e-05 9.56997e-05 5.45779e-07
3.88512e-07 5.45779e-07 -1.31562e-05
0.000986125 -1.23932e-05 1.241e-07
-1.23932e-05 8.10093e-05 1.51264e-07
1.241e-07 1.51264e-07 -1.63778e-05
0.00110679 -3.30704e-05 -6.28475e-07
-3.30704e-05 9.51486e-05 5.48336e-07
-6.28475e-07 5.48336e-07 6.52879e-06
0.00112697 8.38105e-06 -5.59212e-07
8.38105e-06 0.00011515 -9.24865e-07
-5.59212e-07 -9.24865e-07 3.81348e-05
0.00102603 -1.59928e-06 2.29623e-08
-1.59928e-06 7.49901e-05 -3.75282e-07
2.29623e-08 -3.75282e-07 -5.98938e-07
0.00104316 4.68963e-07 -1.84537e-07
4.68963e-07 6.93933e-05 -6.99918e-07
-1.84537e-07 -6.99918e-07 -1.018e-05
0.00104668 -2.34097e-05 1.93209e-07
-2.34097e-05 6.87925e-05 2.49841e-08
1.93209e-07 2.49841e-08 -1.46436e-05
0.00102766 -2.05134e-05 -4.63005e-08
-2.05134e-05 6.6138e-05 4.01387e-07
-4.63005e-08 4.01387e-07 -1.78508e-05
0.00103128 -5.04767e-05 6.43057e-08
-5.04767e-05 8.47175e-05 1.00063e-06
6.43057e-08 1.00063e-06 -6.06931e-06
0.000991579 -4.9248e-05 1.06891e-07
-4.9248e-05 5.93607e-05 -7.27629e-07
1.06891e-07 -7.27629e-07 -3.00833e-05
0.00110956 -5.95006e-05 6.40571e-07
-5.95006e-05 0.000128337 9.84569e-07
6.40571e-07 9.84569e-07 2.17041e-05
0.00119608 -4.36519e-05 1.63292e-07
-4.36519e-05 0.000157517 -3.1996e-07
1.63292e-07 -3.1996e-07 7.04375e-05
0.0010921 -5.62286e-05 -7.60956e-08
-5.62286e-05 0.000119839 1.02596e-06
-7.60956e-08 1.02596e-06 2.84643e-05
0.0007283 -5.3276e-05 -2.80916e-07
-5.3276e-05 -7.47999e-05 1.91611e-06
-2.80916e-07 1.91611e-06 -0.00017598
0.00102127 -5.84938e-05 -1.716e-06
-5.84938e-05 7.21446e-05 3.56801e-07
-1.716e-06 3.56801e-07 -1.79746e-05
0.00106193 -5.48523e-05 -1.16551e-06
-5.48523e-05 9.80593e-05 2.03243e-07
-1.16551e-06 2.03243e-07 1.69729e-05
0.000984744 -5.67129e-05 -3.21409e-07
-5.67129e-05 5.69194e-05 -1.02081e-07
-3.21409e-07 -1.02081e-07 -3.51094e-05
0.00103634 -4.13245e-05 -5.61834e-07
-4.13245e-05 7.81197e-05 5.43375e-07
-5.61834e-07 5.43375e-07 4.13819e-06
0.00112947 -5.32207e-05 -2.91661e-07
-5.32207e-05 0.000130533 -3.03676e-07
-2.91661e-07 -3.03676e-07 4.94904e-05
0.000920656 -5.17568e-05 1.65009e-08
-5.17568e-05 4.43742e-05 -1.43027e-06
1.65009e-08 -1.43027e-06 -3.82203e-05
0.00113265 -4.56689e-05 5.75656e-07
-4.56689e-05 0.000133803 -6.67198e-07
5.75656e-07 -6.67198e-07 5.21137e-05
0.000958271 -2.7243e-05 6.84562e-08
-2.7243e-05 3.82469e-05 -2.72774e-08
6.84562e-08 -2.72774e-08 -3.33222e-05
0.000980061 -4.26108e-06 -5.03463e-07
-4.26108e-06 3.98838e-05 1.41313e-06
-5.03463e-07 1.41313e-06 -1.61863e-05
0.00101204 -2.45719e-05 2.851e-07
-2.45719e-05 6.47635e-05 -4.98625e-07
2.851e-07 -4.98625e-07 -3.21168e-06
0.000969903 -2.06375e-06 -7.92682e-08
-2.06375e-06 3.40799e-05 -8.80545e-08
-7.92682e-08 -8.80545e-08 -1.81457e-05
0.000921238 1.20115e-05 -9.45193e-07
1.20115e-05 4.79218e-06 1.86356e-06
-9.45193e-07 1.86356e-06 -2.7575e-05
0.000961214 -1.03457e-05 5.383e-07
-1.03457e-05 3.10127e-05 -1.11869e-06
5.383e-07 -1.11869e-06 -1.87843e-05
0.000924946 8.76348e-06 -6.5963e-08
8.76348e-06 4.1985e-06 -4.9124e-09
-6.5963e-08 -4.9124e-09 -2.63565e-05
0.00145003 1.6487e-05 -5.70225e-06
1.6487e-05 0.000268337 3.12385e-06
-5.70225e-06 3.12385e-06 0.000268378
0.000928869 -2.80929e-07 9.34721e-07
-2.80929e-07 3.88207e-06 -1.68282e-06
9.34721e-07 -1.68282e-06 -2.52573e-05
0.00117501 1.29874e-05 -2.27252e-06
1.29874e-05 0.000123266 5.78923e-07
-2.27252e-06 5.78923e-07 0.000123016
0.0010226 1.33107e-05 -1.73531e-06
1.33107e-05 4.43746e-05 1.55463e-06
-1.73531e-06 1.55463e-06 6.05635e-05
0.000882301 9.29372e-06 1.02081e-06
9.29372e-06 -3.03262e-05 -3.1044e-06
1.02081e-06 -3.1044e-06 -3.08753e-05
0.00163481 1.16768e-05 3.73169e-06
1.16768e-05 0.000352953 -1.17488e-06
3.73169e-06 -1.17488e-06 0.000373004
0.0022201 8.58713e-06 6.21881e-06
8.58713e-06 0.000650398 -3.91431e-06
6.21881e-06 -3.91431e-06 0.000673662
0.000799042 -2.59817e-07 -3.6606e-07
-2.59817e-07 -5.32397e-05 -1.60883e-06
-3.6606e-07 -1.60883e-06 -0.000103399
0.000687834 -5.98815e-06 -3.44372e-07
-5.98815e-06 -0.00012106 -2.37028e-06
-3.44372e-07 -2.37028e-06 -0.00014893
0.00104521 6.31623e-07 -2.80499e-08
6.31623e-07 7.15121e-05 6.47574e-08
-2.80499e-08 6.47574e-08 2.61227e-05
0.00089472 -6.28714e-06 -6.39468e-07
-6.28714e-06 -2.732e-05 -3.151e-06
-6.39468e-07 -3.151e-06 -2.53611e-05
0.000820547 -3.85241e-06 3.07863e-08
-3.85241e-06 -5.58665e-05 -1.46458e-08
3.07863e-08 -1.46458e-08 -8.09894e-05
0.000807062 -1.43195e-05 -1.43959e-07
-1.43195e-05 -4.93221e-05 1.10916e-06
-1.43959e-07 1.10916e-06 -9.2563e-05
0.00213272 -4.17695e-06 -3.69764e-06
-4.17695e-06 0.000603843 -3.94334e-06
-3.69764e-06 -3.94334e-06 0.000628421
0.000887334 -3.02248e-06 -1.33416e-07
-3.02248e-06 -3.28532e-05 -1.63566e-08
-1.33416e-07 -1.63566e-08 -2.97225e-05
0.000946904 -2.28321e-06 -4.63885e-08
-2.28321e-06 6.70947e-06 1.75385e-06
-4.63885e-08 1.75385e-06 -1.64214e-05
0.0021155 1.97643e-07 -1.24711e-06
1.97643e-07 0.000594359 2.54945e-10
-1.24711e-06 2.54945e-10 0.000619246
0.000888737 4.02512e-07 -9.83091e-08
4.02512e-07 -3.27856e-05 3.11889e-06
-9.83091e-08 3.11889e-06 -2.92148e-05
0.00212173 4.66123e-06 -3.3504e-06
4.66123e-06 0.000598283 3.88942e-06
-3.3504e-06 3.88942e-06 0.000622958
0.00131118 -8.75735e-06 9.51163e-06
-8.75735e-06 0.000369007 -4.68817e-07
9.51163e-06 -4.68817e-07 0.000293198
0.00121381 2.88489e-05 1.83441e-06
2.88489e-05 0.000311979 -1.31065e-07
1.83441e-06 -1.31065e-07 0.000335706
0.000324211 4.03681e-06 0.000111674
4.03681e-06 -0.000202785 -1.7753e-05
0.000111674 -1.7753e-05 -0.000392622
0.00100758 1.85363e-05 -4.25817e-07
1.85363e-05 5.69547e-05 -9.3025e-07
-4.25817e-07 -9.3025e-07 -8.91925e-06
0.00133797 -4.84051e-06 1.56564e-05
-4.84051e-06 0.000305517 2.40008e-06
1.56564e-05 2.40008e-06 0.000206513
0.0012356 3.62951e-06 -4.17508e-06
3.62951e-06 0.000250333 4.70466e-07
-4.17508e-06 4.70466e-07 0.000203673
0.00133596 9.40042e-05 4.36771e-06
9.40042e-05 0.0003493 -3.86153e-06
4.36771e-06 -3.86153e-06 0.00050987
0.00157361 7.13293e-05 -4.26882e-05
7.13293e-05 0.000110106 1.76305e-05
-4.26882e-05 1.76305e-05 -0.000111431
0.00582909 0.000271153 1.43949e-05
0.000271153 0.00204743 -1.13405e-05
1.43949e-05 -1.13405e-05 0.001257
-0.000916497 0.000201707 5.62502e-05
0.000201707 -0.000760958 -3.58762e-05
5.62502e-05 -3.58762e-05 -0.000725461
0.00221034 9.95561e-05 3.73048e-06
9.95561e-05 0.000392417 -1.71061e-06
3.73048e-06 -1.71061e-06 0.00071848
0.00152148 5.75679e-05 -2.38646e-05
5.75679e-05 3.60397e-05 8.65357e-06
-2.38646e-05 8.65357e-06 -0.000298618
0.0046256 0.000211147 2.25151e-05
0.000211147 0.00127257 -1.95787e-05
2.25151e-05 -1.95787e-05 0.000485847
0.00126476 0.000246536 -6.57374e-06
0.000246536 -0.000463481 1.24118e-05
-6.57374e-06 1.24118e-05 -0.000316835
0.00175085 3.59833e-05 8.24747e-07
3.59833e-05 0.000191481 1.97477e-06
8.24747e-07 1.97477e-06 0.00037144
0.0029848 -7.70352e-05 1.98647e-05
-7.70352e-05 0.000648713 -3.08211e-05
1.98647e-05 -3.08211e-05 0.000285891
0.00685592 0.000201439 2.36154e-05
0.000201439 0.00179664 -3.08523e-06
2.36154e-05 -3.08523e-06 0.000858549
0.00208217 0.000225791 6.48145e-06
0.000225791 -0.000296331 6.42584e-05
6.48145e-06 6.42584e-05 -0.000261453
0.00293586 2.60432e-05 -3.19704e-06
2.60432e-05 0.000970523 -5.65566e-06
-3.19704e-06 -5.65566e-06 0.00111967
0.000964709 -3.37554e-06 6.33348e-08
-3.37554e-06 3.96227e-05 -1.18441e-06
6.33348e-08 -1.18441e-06 -4.09108e-05
0.00103312 -1.46328e-05 2.64623e-07
-1.46328e-05 8.33392e-05 -4.33516e-08
2.64623e-07 -4.33516e-08 6.99595e-06
0.00109912 3.29334e-05 -4.1239e-07
3.29334e-05 0.000116031 6.52417e-07
-4.1239e-07 6.52417e-07 4.94246e-05
0.000984262 1.08403e-05 -3.65119e-07
1.08403e-05 4.87894e-05 -1.35637e-06
-3.65119e-07 -1.35637e-06 -2.38006e-05
0.00105019 2.85217e-05 -2.80853e-07
2.85217e-05 8.83052e-05 3.96955e-07
-2.80853e-07 3.96955e-07 1.64494e-05
0.00110481 1.50357e-05 2.76158e-07
1.50357e-05 0.000116873 1.59314e-06
2.76158e-07 1.59314e-06 5.13494e-05
0.00115906 3.39322e-05 -3.08238e-07
3.39322e-05 0.00013871 5.6162e-08
-3.08238e-07 5.6162e-08 7.5709e-05
0.00116922 3.46322e-05 6.41447e-07
3.46322e-05 0.00014642 1.55134e-06
6.41447e-07 1.55134e-06 8.60026e-05
0.00144178 -0.000124016 2.34096e-06
-0.000124016 -0.00020276 -3.4049e-06
2.34096e-06 -3.4049e-06 -0.000202799
0.00137584 -0.000118845 -1.5512e-06
-0.000118845 0.000246672 3.94493e-06
-1.5512e-06 3.94493e-06 6.255e-05
0.000992332 -5.60128e-05 -1.14526e-06
-5.60128e-05 6.35534e-05 1.29497e-06
-1.14526e-06 1.29497e-06 -1.77962e-05
0.00146055 -2.05458e-05 7.16257e-08
-2.05458e-05 0.00032216 8.21949e-07
7.16257e-08 8.21949e-07 0.000179243
0.00128288 -2.29657e-05 -5.60706e-07
-2.29657e-05 0.000192636 7.7875e-07
-5.60706e-07 7.7875e-07 9.48408e-05
0.00113934 8.24137e-06 -4.43901e-07
8.24137e-06 0.000133102 -2.55496e-07
-4.43901e-07 -2.55496e-07 4.643e-05
0.00106349 2.61191e-05 9.5462e-08
2.61191e-05 8.94732e-05 3.11893e-07
9.5462e-08 3.11893e-07 3.75402e-06
0.00174848 -0.000161757 -5.4255e-07
-0.000161757 0.000103837 -8.1396e-07
-5.4255e-07 -8.1396e-07 0.000102986
0.00107051 1.12542e-05 4.1461e-08
1.12542e-05 8.10098e-05 -6.93687e-07
4.1461e-08 -6.93687e-07 -1.32685e-05
0.00111654 7.19083e-06 -2.10706e-07
7.19083e-06 0.00011777 1.46696e-07
-2.10706e-07 1.46696e-07 7.2945e-06
0.00110812 -2.78664e-05 -3.70256e-07
-2.78664e-05 0.000244026 4.13671e-07
-3.70256e-07 4.13671e-07 5.92889e-07
0.00119226 2.68231e-05 9.15078e-08
2.68231e-05 0.000143945 -8.18137e-07
9.15078e-08 -8.18137e-07 6.03804e-05
0.00111745 -0.000147764 -2.80764e-05
-0.000147764 0.000137797 -5.07219e-06
-2.80764e-05 -5.07219e-06 4.79972e-06
0.00138797 4.88572e-05 -5.20569e-06
4.88572e-05 0.000384887 2.557e-06
-5.20569e-06 2.557e-06 0.000191771
0.000937862 2.19676e-05 -4.80207e-07
2.19676e-05 4.49708e-06 3.62921e-07
-4.80207e-07 3.62921e-07 -8.48495e-05
0.00120162 4.85587e-05 -2.98799e-07
4.85587e-05 0.000149135 -9.59213e-07
-2.98799e-07 -9.59213e-07 5.88369e-05
0.00143955 -6.04513e-07 1.00729e-05
-6.04513e-07 0.000414234 -1.00618e-06
1.00729e-05 -1.00618e-06 0.000301321
0.00164164 -4.6819e-06 -4.06656e-06
-4.6819e-06 0.000595016 2.82908e-07
-4.06656e-06 2.82908e-07 0.000517515
-0.00105932 -6.06835e-06 1.1226e-05
-6.06835e-06 -0.000974142 9.32804e-07
1.1226e-05 9.32804e-07 -0.000996797
0.000597876 4.56033e-05 2.23995e-06
4.56033e-05 -0.000123387 1.69852e-06
2.23995e-06 1.69852e-06 -0.000197002
-0.000929182 1.40671e-05 -7.96944e-06
1.40671e-05 -0.000684625 2.24151e-06
-7.96944e-06 2.24151e-06 -0.000860642
0.00060407 9.75308e-06 -1.24745e-05
9.75308e-06 -2.19603e-05 -3.00973e-06
-1.24745e-05 -3.00973e-06 -9.7963e-05
0.00443414 -0.00029752 4.18785e-05
-0.00029752 0.000856448 9.52355e-06
4.18785e-05 9.52355e-06 -9.06525e-05
0.00304345 0.000190363 -2.84846e-05
0.000190363 0.000646877 -7.37753e-05
-2.84846e-05 -7.37753e-05 0.000229754
0.00251938 -0.00026287 1.27805e-05
-0.00026287 -0.000178234 0.00010351
1.27805e-05 0.00010351 -2.09425e-05
0.000703598 1.59177e-05 -1.02488e-05
1.59177e-05 -8.42018e-05 -3.76699e-06
-1.02488e-05 -3.76699e-06 -0.000186885
0.000367055 -1.08174e-05 -6.72153e-08
-1.08174e-05 -0.000472186 -2.17314e-06
-6.72153e-08 -2.17314e-06 -0.000468474
0.00120188 4.55608e-05 -1.79528e-06
4.55608e-05 0.00019767 -8.00084e-07
-1.79528e-06 -8.00084e-07 0.000129518
0.000929484 8.20359e-06 9.66364e-07
8.20359e-06 5.44071e-05 -9.79338e-08
9.66364e-07 -9.79338e-08 -6.15915e-05
0.00122873 -6.40191e-06 -2.19848e-06
-6.40191e-06 0.000197491 1.68813e-06
-2.19848e-06 1.68813e-06 7.30617e-05
0.000147958 6.18794e-05 7.99159e-06
6.18794e-05 2.07652e-05 -3.70202e-06
7.99159e-06 -3.70202e-06 -7.14841e-05
0.00161669 2.32675e-05 -1.1994e-06
2.32675e-05 0.000168785 -2.18642e-06
-1.1994e-06 -2.18642e-06 0.000299249
0.00506772 7.36569e-05 2.32283e-05
7.36569e-05 0.000489843 -2.91201e-06
2.32283e-05 -2.91201e-06 0.00011581
0.00341729 1.30526e-05 -2.46594e-05
1.30526e-05 0.000377892 -4.02659e-06
-2.46594e-05 -4.02659e-06 0.000558228
0.00102286 6.34799e-05 2.11625e-06
6.34799e-05 0.000252045 -7.47029e-06
2.11625e-06 -7.47029e-06 0.000165544
0.00137374 -5.09807e-06 7.15423e-07
-5.09807e-06 0.000280763 -6.46073e-06
7.15423e-07 -6.46073e-06 0.000146455
0.00119437 -1.86255e-05 -1.72661e-05
-1.86255e-05 0.000207929 -1.51456e-06
-1.72661e-05 -1.51456e-06 9.11278e-05
0.00119833 0.000106585 4.0711e-06
0.000106585 -0.000227614 -7.41148e-07
4.0711e-06 -7.41148e-07 8.74059e-05
0.00189341 0.000253931 -5.57352e-06
0.000253931 -0.000294443 -6.00061e-05
-5.57352e-06 -6.00061e-05 -0.000306835
0.000762087 0.000122558 7.46806e-06
0.000122558 0.000374151 -4.91423e-06
7.46806e-06 -4.91423e-06 0.000366043
0.0033158 -0.000134658 4.8615e-05
-0.000134658 -7.56315e-06 2.12204e-05
4.8615e-05 2.12204e-05 -0.0004625
0.00128664 5.56694e-05 -1.17776e-06
5.56694e-05 0.000179272 4.0328e-06
-1.17776e-06 4.0328e-06 7.45538e-05
0.00131331 3.81534e-05 -8.83525e-07
3.81534e-05 0.000229454 9.48946e-07
-8.83525e-07 9.48946e-07 0.000133337
8.79546e-05 -2.63983e-05 1.29012e-07
-2.63983e-05 -0.000195861 -5.81876e-06
1.29012e-07 -5.81876e-06 -0.000421871
0.00116669 1.52475e-05 -3.40517e-07
1.52475e-05 0.000135467 -5.80035e-07
-3.40517e-07 -5.80035e-07 5.75021e-05
0.00105193 -2.96393e-05 2.18087e-07
-2.96393e-05 8.31644e-05 2.70093e-07
2.18087e-07 2.70093e-07 -1.55855e-05
0.000896429 -2.02601e-05 -1.87575e-06
-2.02601e-05 2.77983e-05 3.80643e-06
-1.87575e-06 3.80643e-06 -8.56495e-05
0.00106105 -3.92438e-05 -1.95288e-07
-3.92438e-05 7.45073e-05 6.77064e-08
-1.95288e-07 6.77064e-08 -1.45028e-05
0.000881314 -2.26081e-05 -1.19709e-08
-2.26081e-05 2.56571e-05 1.17453e-06
-1.19709e-08 1.17453e-06 -7.25187e-05
0.00092584 -3.94387e-05 7.71434e-07
-3.94387e-05 9.1214e-05 -7.72215e-08
7.71434e-07 -7.72215e-08 -3.69477e-05
0.00103483 -2.61503e-05 1.29759e-07
-2.61503e-05 6.28566e-05 -3.11347e-07
1.29759e-07 -3.11347e-07 -2.07453e-05
0.00103659 -1.10867e-05 -4.48037e-08
-1.10867e-05 6.87857e-05 9.02587e-08
-4.48037e-08 9.02587e-08 -1.43529e-05
0.00118715 -5.24182e-05 9.83959e-08
-5.24182e-05 0.000158029 4.00639e-07
9.83959e-08 4.00639e-07 6.53071e-05
0.00101061 -5.88162e-05 4.21173e-07
-5.88162e-05 0.000109528 1.13918e-06
4.21173e-07 1.13918e-06 -1.33689e-05
0.00094546 -4.80314e-05 -5.84865e-07
-4.80314e-05 4.17996e-05 -4.87457e-07
-5.84865e-07 -4.87457e-07 -4.58931e-05
0.000863947 -5.22441e-05 6.88947e-07
-5.22441e-05 9.80801e-06 -3.01459e-07
6.88947e-07 -3.01459e-07 -9.41497e-05
0.00112579 -6.73127e-05 6.38352e-07
-6.73127e-05 0.000135454 8.84499e-07
6.38352e-07 8.84499e-07 1.83138e-05
0.00118638 -6.93605e-05 -2.09644e-06
-6.93605e-05 0.000124281 2.03172e-06
-2.09644e-06 2.03172e-06 2.30511e-05
0.00133869 -6.32341e-05 1.51372e-07
-6.32341e-05 0.0002384 -2.32703e-07
1.51372e-07 -2.32703e-07 0.000146691
0.000901318 -5.82207e-05 -3.15942e-07
-5.82207e-05 8.95127e-06 2.17734e-08
-3.15942e-07 2.17734e-08 -9.3951e-05
0.00129856 -6.65238e-05 1.03245e-07
-6.65238e-05 0.000204975 -6.42833e-08
1.03245e-07 -6.42833e-08 0.0001205
0.000856763 -4.89027e-05 -9.50942e-07
-4.89027e-05 4.13198e-06 5.02696e-08
-9.50942e-07 5.02696e-08 -7.8353e-05
0.00102169 -5.82643e-05 4.24597e-07
-5.82643e-05 7.16393e-05 4.63558e-08
4.24597e-07 4.63558e-08 -1.69827e-05
0.00105033 -4.58185e-05 -1.08486e-06
-4.58185e-05 8.83583e-05 1.77141e-07
-1.08486e-06 1.77141e-07 1.43164e-05
0.0010919 -5.57169e-05 -9.75003e-07
-5.57169e-05 0.000111906 5.89056e-07
-9.75003e-07 5.89056e-07 3.06506e-05
0.000864098 -5.30894e-05 -9.72286e-08
-5.30894e-05 3.52089e-07 -8.50202e-07
-9.72286e-08 -8.50202e-07 -9.15043e-05
0.00100998 -1.11144e-05 -9.47442e-07
-1.11144e-05 5.69625e-05 1.33613e-06
-9.47442e-07 1.33613e-06 -3.0772e-06
0.00100417 -3.9691e-05 2.24763e-07
-3.9691e-05 6.09686e-05 1.72146e-07
2.24763e-07 1.72146e-07 -1.29572e-05
0.0011227 -5.28026e-05 1.55347e-06
-5.28026e-05 0.000127178 -4.41275e-07
1.55347e-06 -4.41275e-07 4.56887e-05
0.00101895 -2.84628e-05 5.46677e-07
-2.84628e-05 6.90085e-05 -8.43508e-07
5.46677e-07 -8.43508e-07 -1.74789e-06
0.000978716 -4.12067e-06 1.34822e-07
-4.12067e-06 3.89196e-05 -4.90641e-08
1.34822e-07 -4.90641e-08 -1.70953e-05
0.000922045 1.2516e-05 -1.11732e-06
1.2516e-05 8.63881e-06 2.05126e-06
-1.11732e-06 2.05126e-06 -2.6484e-05
0.000969014 -5.69489e-06 4.15156e-07
-5.69489e-06 3.40804e-05 -1.26874e-06
4.15156e-07 -1.26874e-06 -1.8325e-05
0.000917053 1.28366e-05 6.86676e-08
1.28366e-05 2.80231e-06 -2.73849e-08
6.86676e-08 -2.73849e-08 -2.9672e-05
0.000838327 1.70386e-05 -1.94279e-06
1.70386e-05 -3.95034e-05 3.27828e-06
-1.94279e-06 3.27828e-06 -4.39889e-05
0.00092142 7.12543e-06 8.21549e-07
7.12543e-06 2.13176e-06 -1.80442e-06
8.21549e-07 -1.80442e-06 -2.84046e-05
0.000857337 1.4701e-05 1.33641e-07
1.4701e-05 -3.47377e-05 7.18083e-09
1.33641e-07 7.18083e-09 -3.77806e-05
0.0022308 2.3386e-05 -4.28983e-06
2.3386e-05 0.000666901 1.5989e-06
-4.28983e-06 1.5989e-06 0.000687733
0.000878657 1.2144e-05 1.38137e-06
1.2144e-05 -2.85668e-05 -3.14659e-06
1.38137e-06 -3.14659e-06 -3.02343e-05
0.00164553 1.55254e-05 4.63077e-06
1.55254e-05 0.000362365 -1.15598e-06
4.63077e-06 -1.15598e-06 0.000381501
0.00223593 1.29402e-05 8.73717e-06
1.29402e-05 0.000661428 -3.90949e-06
8.73717e-06 -3.90949e-06 0.000684042
0.000789353 -3.73418e-06 -2.50486e-07
-3.73418e-06 -5.99887e-05 -1.76131e-06
-2.50486e-07 -1.76131e-06 -0.00011242
0.000669288 -7.64658e-06 -6.14655e-07
-7.64658e-06 -0.000128267 -2.44175e-06
-6.14655e-07 -2.44175e-06 -0.000159158
0.000936575 -1.30706e-06 -1.27519e-07
-1.30706e-06 1.5935e-05 -4.98358e-07
-1.27519e-07 -4.98358e-07 -3.35134e-05
0.000894005 -9.47616e-06 -8.93321e-07
-9.47616e-06 -2.47978e-05 -3.22462e-06
-8.93321e-07 -3.22462e-06 -2.45022e-05
0.000685361 -6.16738e-06 -8.16703e-08
-6.16738e-06 -0.000122096 -6.08031e-07
-8.16703e-08 -6.08031e-07 -0.000150331
0.00105532 2.50539e-07 7.5264e-08
2.50539e-07 7.68449e-05 1.22557e-06
7.5264e-08 1.22557e-06 3.11821e-05
0.00216104 -8.4704e-06 -6.35554e-06
-8.4704e-06 0.000620007 -3.97374e-06
-6.35554e-06 -3.97374e-06 0.00064396
0.000884201 -6.21642e-06 -1.01131e-07
-6.21642e-06 -3.26417e-05 -1.77772e-08
-1.01131e-07 -1.77772e-08 -3.06007e-05
0.000693037 -4.21948e-06 1.0423e-07
-4.21948e-06 -0.000119831 1.69905e-06
1.0423e-07 1.69905e-06 -0.00014584
0.00213007 -4.06231e-06 -1.28771e-06
-4.06231e-06 0.000602322 8.67481e-09
-1.28771e-06 8.67481e-09 0.000626976
0.000881416 -2.93137e-06 1.42441e-07
-2.93137e-06 -3.59323e-05 3.13636e-06
1.42441e-07 3.13636e-06 -3.27414e-05
0.00211643 3.4113e-07 -6.15231e-07
3.4113e-07 0.000594825 3.90287e-06
-6.15231e-07 3.90287e-06 0.000619713
0.00115464 -8.24507e-06 1.2588e-05
-8.24507e-06 0.000229019 -3.773e-07
1.2588e-05 -3.773e-07 0.000118234
0.00122197 -9.71944e-06 -4.49355e-06
-9.71944e-06 0.000310697 5.99485e-07
-4.49355e-06 5.99485e-07 0.000236206
0.00109026 1.20981e-05 4.57878e-06
1.20981e-05 0.000247621 3.16635e-06
4.57878e-06 3.16635e-06 0.000249823
0.00104533 2.47158e-05 -5.97309e-08
2.47158e-05 7.55635e-05 8.80666e-08
-5.97309e-08 8.80666e-08 1.03976e-05
0.000944327 1.4537e-05 -2.7792e-07
1.4537e-05 1.92287e-05 -8.7956e-07
-2.7792e-07 -8.7956e-07 -4.721e-05
0.00114422 3.3995e-05 -2.55058e-07
3.3995e-05 0.000128542 -2.36244e-07
-2.55058e-07 -2.36244e-07 5.51065e-05
0.0018011 1.38507e-05 2.17234e-06
1.38507e-05 0.000564544 -6.42183e-06
2.17234e-06 -6.42183e-06 0.000463868
0.00116686 -5.40995e-06 4.2665e-06
-5.40995e-06 0.000211947 -9.97957e-07
4.2665e-06 -9.97957e-07 0.00011381
0.0013896 -6.5602e-07 -1.48383e-05
-6.5602e-07 0.000371357 3.20577e-06
-1.48383e-05 3.20577e-06 0.000312591
0.000500862 5.5962e-05 -3.21002e-05
5.5962e-05 -0.000336606 1.1107e-05
-3.21002e-05 1.1107e-05 -0.000526457
0.00238677 0.000184897 1.3045e-05
0.000184897 0.000408214 -1.60535e-05
1.3045e-05 -1.60535e-05 -0.000483887
0.00339641 0.000313409 3.76789e-05
0.000313409 0.000666657 -2.48195e-05
3.76789e-05 -2.48195e-05 0.00077482
0.000454363 2.09486e-05 4.12212e-06
2.09486e-05 -0.000568587 8.89213e-07
4.12212e-06 8.89213e-07 -0.000419608
0.000752261 -3.78028e-05 -1.13201e-05
-3.78028e-05 -0.000186133 9.98763e-06
-1.13201e-05 9.98763e-06 -0.000308958
0.00509129 9.85995e-05 3.53649e-05
9.85995e-05 0.00107969 -4.18183e-05
3.53649e-05 -4.18183e-05 0.000208083
0.000893087 0.000113518 -1.02499e-06
0.000113518 -0.000721884 1.25978e-05
-1.02499e-06 1.25978e-05 -0.000500463
0.00121336 1.6914e-05 4.70632e-07
1.6914e-05 -7.60384e-05 3.39583e-06
4.70632e-07 3.39583e-06 4.18833e-05
0.00258382 -0.000220297 2.13268e-05
-0.000220297 0.000419344 -5.28393e-05
2.13268e-05 -5.28393e-05 0.00029771
0.00799788 0.000123007 2.56968e-05
0.000123007 0.00211134 -3.24315e-05
2.56968e-05 -3.24315e-05 0.00152814
0.000191393 -1.15684e-06 1.3859e-06
-1.15684e-06 -0.000995188 6.6923e-05
1.3859e-06 6.6923e-05 -0.000793473
0.000255424 -5.8323e-06 -5.27156e-08
-5.8323e-06 -0.00065208 2.80222e-06
-5.27156e-08 2.80222e-06 -0.000512969
0.0010746 6.70384e-06 -1.12646e-07
6.70384e-06 8.88431e-05 -5.97692e-07
-1.12646e-07 -5.97692e-07 7.90382e-06
0.000985766 -3.10082e-06 -1.0008e-07
-3.10082e-06 5.19954e-05 -2.15383e-07
-1.0008e-07 -2.15383e-07 -2.89527e-05
0.00104117 -2.09806e-05 -1.86329e-07
-2.09806e-05 8.70347e-05 9.94119e-07
-1.86329e-07 9.94119e-07 1.03333e-05
0.001004 1.99083e-05 -3.99544e-07
1.99083e-05 5.89583e-05 -6.72218e-07
-3.99544e-07 -6.72218e-07 -1.3954e-05
0.00113095 5.28722e-05 1.10566e-06
5.28722e-05 0.000129391 1.28751e-06
1.10566e-06 1.28751e-06 5.83324e-05
0.00120651 3.42036e-05 1.04254e-07
3.42036e-05 0.000162231 9.58812e-07
1.04254e-07 9.58812e-07 9.95116e-05
0.00262615 -0.000181561 5.86607e-06
-0.000181561 0.000526496 3.76559e-07
5.86607e-06 3.76559e-07 0.000525499
0.000735455 -1.47974e-05 6.12403e-07
-1.47974e-05 6.73443e-05 5.03644e-06
6.12403e-07 5.03644e-06 -0.000185432
0.00111899 3.0141e-05 4.25502e-07
3.0141e-05 0.000117595 1.07015e-06
4.25502e-07 1.07015e-06 3.17692e-05
0.0012277 -1.66469e-05 7.63158e-07
-1.66469e-05 0.000179034 -1.52281e-07
7.63158e-07 -1.52281e-07 6.23821e-05
0.00112662 1.2347e-06 4.73533e-08
1.2347e-06 0.000111809 1.12837e-07
4.73533e-08 1.12837e-07 1.87e-05
0.00109549 2.00181e-05 4.08016e-07
2.00181e-05 9.46392e-05 1.42736e-07
4.08016e-07 1.42736e-07 1.15143e-05
0.00112059 3.01364e-05 2.389e-07
3.01364e-05 0.000106795 -2.62426e-07
2.389e-07 -2.62426e-07 1.68432e-05
0.00106232 -0.000138445 -1.64163e-06
-0.000138445 5.53401e-05 2.46047e-06
-1.64163e-06 2.46047e-06 -3.63192e-05
0.00122407 -2.15137e-06 5.73772e-07
-2.15137e-06 0.000143192 -1.26301e-06
5.73772e-07 -1.26301e-06 5.55037e-05
0.00138769 5.02865e-05 -1.63039e-06
5.02865e-05 0.000411408 -7.33418e-07
-1.63039e-06 -7.33418e-07 0.000226712
0.000941986 1.45619e-06 4.16629e-07
1.45619e-06 1.55855e-05 -2.21185e-06
4.16629e-07 -2.21185e-06 -6.92988e-05
-9.92312e-05 -2.45948e-05 3.5082e-06
-2.45948e-05 -0.000103757 -6.48821e-06
3.5082e-06 -6.48821e-06 -0.000356264
0.000405473 2.18709e-05 -2.46308e-06
2.18709e-05 -0.000177188 9.23547e-06
-2.46308e-06 9.23547e-06 -0.000227817
0.00105483 -6.97857e-06 1.75212e-07
-6.97857e-06 6.53968e-05 -1.27865e-06
1.75212e-07 -1.27865e-06 -2.53057e-05
0.00130363 -4.6516e-06 6.65246e-07
-4.6516e-06 0.00027821 -4.36483e-07
6.65246e-07 -4.36483e-07 0.000147294
0.00105045 -1.87619e-06 3.54886e-06
-1.87619e-06 0.000166336 8.60274e-09
3.54886e-06 8.60274e-09 4.86001e-05
0.00119547 -4.37016e-06 -1.73075e-05
-4.37016e-06 0.000312102 1.33605e-06
-1.73075e-05 1.33605e-06 0.000231531
0.00141831 6.42372e-05 3.36881e-06
6.42372e-05 0.000303307 4.29995e-06
3.36881e-06 4.29995e-06 0.000229748
-0.000454129 6.70586e-05 7.98245e-06
6.70586e-05 -0.000359925 -1.30674e-05
7.98245e-06 -1.30674e-05 -0.000449321
0.000814688 5.77305e-06 -8.30698e-06
5.77305e-06 -1.79113e-05 1.97024e-06
-8.30698e-06 1.97024e-06 -0.000135057
0.00346936 -2.8223e-05 -1.7393e-05
-2.8223e-05 0.000245471 -1.1389e-05
-1.7393e-05 -1.1389e-05 -1.44948e-05
-0.000955889 2.4045e-05 2.68539e-06
2.4045e-05 -0.00167561 6.93379e-05
2.68539e-06 6.93379e-05 -0.00145688
0.00061355 -6.81335e-06 -2.56797e-06
-6.81335e-06 -0.000187414 -4.35498e-06
-2.56797e-06 -4.35498e-06 -0.000318728
0.00051304 8.49659e-06 -2.12187e-06
8.49659e-06 -0.000468712 -4.71395e-06
-2.12187e-06 -4.71395e-06 -0.000369483
0.000628728 4.23202e-05 5.50202e-07
4.23202e-05 2.92929e-05 3.96829e-07
5.50202e-07 3.96829e-07 -5.61271e-05
0.00121396 -4.40908e-06 -5.51884e-07
-4.40908e-06 0.000192784 -2.95872e-07
-5.51884e-07 -2.95872e-07 5.8265e-05
0.00120832 -2.09509e-05 -4.43838e-06
-2.09509e-05 0.000233269 1.70596e-06
-4.43838e-06 1.70596e-06 0.000116756
0.00141103 0.000170414 2.97995e-05
0.000170414 0.000313827 9.63343e-07
2.97995e-05 9.63343e-07 0.000207267
0.00151242 9.5748e-05 1.76276e-06
9.5748e-05 1.28974e-05 -2.79305e-06
1.76276e-06 -2.79305e-06 0.000303205
0.000662546 0.000140959 2.43341e-06
0.000140959 -0.000755148 -1.36288e-05
2.43341e-06 -1.36288e-05 -0.000576304
0.00696135 -6.43924e-06 9.06199e-06
-6.43924e-06 0.0017755 -1.89746e-05
9.06199e-06 -1.89746e-05 0.00137951
-0.00080578 7.88784e-06 -2.12925e-05
7.88784e-06 -0.000165229 -1.3138e-05
-2.12925e-05 -1.3138e-05 -0.00040395
0.00116885 -1.47953e-05 -1.2588e-05
-1.47953e-05 0.00023829 6.29273e-07
-1.2588e-05 6.29273e-07 0.000114542
0.000955659 -4.32148e-07 -9.02044e-06
-4.32148e-07 5.4724e-05 -1.19347e-07
-9.02044e-06 -1.19347e-07 3.93514e-06
0.00133585 0.000156337 9.50781e-06
0.000156337 0.00014225 -1.98423e-06
9.50781e-06 -1.98423e-06 0.000475665
-0.00297811 0.000234562 4.46655e-05
0.000234562 -0.0021905 -3.88904e-05
4.46655e-05 -3.88904e-05 -0.00214576
0.00780623 0.00016561 1.75345e-06
0.00016561 0.0020796 -1.1592e-05
1.75345e-06 -1.1592e-05 0.00124638
0.0014827 -2.87635e-05 -2.1526e-05
-2.87635e-05 0.000322186 9.48371e-05
-2.1526e-05 9.48371e-05 6.74841e-05
0.000833358 1.98669e-05 1.50506e-06
1.98669e-05 -1.73057e-05 4.64561e-06
1.50506e-06 4.64561e-06 -0.000109789
0.000430693 -1.43565e-05 1.03966e-06
-1.43565e-05 -3.22988e-05 -1.32408e-06
1.03966e-06 -1.32408e-06 -0.000257977
0.000705168 -3.86093e-05 8.52017e-07
-3.86093e-05 0.000162346 -2.59647e-06
8.52017e-07 -2.59647e-06 -0.00010484
0.00100547 -4.27674e-05 3.15389e-07
-4.27674e-05 4.83023e-05 -7.41837e-07
3.15389e-07 -7.41837e-07 -4.08441e-05
0.000713102 -2.9776e-05 -3.91382e-07
-2.9776e-05 -6.04549e-05 2.09127e-06
-3.91382e-07 2.09127e-06 -0.00015968
0.000810788 -2.59995e-05 -1.40853e-07
-2.59995e-05 3.35238e-05 6.6819e-07
-1.40853e-07 6.6819e-07 -8.78868e-05
0.000896502 -7.0918e-05 2.42345e-06
-7.0918e-05 0.000135667 -1.11233e-06
2.42345e-06 -1.11233e-06 -6.75401e-05
0.00134472 -5.56917e-05 -2.71589e-07
-5.56917e-05 0.000231592 4.23959e-08
-2.71589e-07 4.23959e-08 0.000137335
0.00129922 -6.98997e-05 -2.10081e-08
-6.98997e-05 0.000242247 3.7344e-07
-2.10081e-08 3.7344e-07 0.00011669
0.00111717 -7.49413e-05 1.6256e-06
-7.49413e-05 0.000155163 1.95772e-06
1.6256e-06 1.95772e-06 -2.74827e-06
0.000631518 -4.54808e-05 -1.65165e-07
-4.54808e-05 -0.000102405 -1.27736e-06
-1.65165e-07 -1.27736e-06 -0.000203427
0.00110185 -6.62296e-05 -3.73292e-07
-6.62296e-05 0.000121873 -2.98355e-09
-3.73292e-07 -2.98355e-09 2.71514e-06
0.00168557 -9.0303e-05 -1.0438e-06
-9.0303e-05 0.000375144 1.89549e-06
-1.0438e-06 1.89549e-06 0.000252144
0.0013997 -7.99906e-05 -2.06225e-06
-7.99906e-05 0.000211105 2.64217e-06
-2.06225e-06 2.64217e-06 0.000102212
0.000836335 -5.70123e-05 -4.93764e-07
-5.70123e-05 -3.62447e-05 1.79021e-06
-4.93764e-07 1.79021e-06 -0.000124656
0.00112453 -6.81779e-05 -5.81627e-07
-6.81779e-05 9.52265e-05 5.44666e-07
-5.81627e-07 5.44666e-07 -7.66903e-06
0.00107603 -6.31954e-05 -2.00646e-07
-6.31954e-05 9.34294e-05 -8.52078e-07
-2.00646e-07 -8.52078e-07 -1.11882e-05
0.00123213 -6.24553e-05 4.16247e-07
-6.24553e-05 0.000173067 -5.04997e-07
4.16247e-07 -5.04997e-07 9.37848e-05
0.00111896 -6.12881e-05 1.22649e-06
-6.12881e-05 0.000117442 -6.23409e-07
1.22649e-06 -6.23409e-07 3.48414e-05
0.000898965 -4.10466e-05 -5.12198e-07
-4.10466e-05 2.09506e-05 6.09693e-07
-5.12198e-07 6.09693e-07 -5.5312e-05
0.000963121 -5.17372e-05 2.38441e-07
-5.17372e-05 5.57821e-05 -1.15157e-07
2.38441e-07 -1.15157e-07 -2.59575e-05
0.00103041 -5.82392e-05 2.91936e-06
-5.82392e-05 7.51659e-05 -1.37878e-06
2.91936e-06 -1.37878e-06 -1.19663e-05
0.00098786 -8.58998e-06 -1.35029e-06
-8.58998e-06 4.95679e-05 1.08468e-06
-1.35029e-06 1.08468e-06 -1.32154e-05
0.00106745 -4.56934e-05 -2.77441e-07
-4.56934e-05 9.55991e-05 -4.11528e-08
-2.77441e-07 -4.11528e-08 2.17931e-05
0.00111666 -5.64416e-05 3.71496e-07
-5.64416e-05 0.000123227 -3.66357e-08
3.71496e-07 -3.66357e-08 4.18049e-05
0.000915466 9.56994e-06 -1.57918e-06
9.56994e-06 8.8268e-06 2.21322e-06
-1.57918e-06 2.21322e-06 -2.96646e-05
0.000994515 -1.1783e-05 1.80822e-07
-1.1783e-05 4.84141e-05 8.08477e-08
1.80822e-07 8.08477e-08 -1.12292e-05
0.000981533 -3.89034e-05 1.2799e-06
-3.89034e-05 4.85633e-05 -2.57278e-07
1.2799e-06 -2.57278e-07 -2.53704e-05
0.000979882 -4.56734e-06 8.10737e-07
-4.56734e-06 3.92286e-05 -1.35034e-06
8.10737e-07 -1.35034e-06 -1.67201e-05
0.000912353 1.41581e-05 2.04765e-07
1.41581e-05 4.07252e-06 -3.94736e-08
2.04765e-07 -3.94736e-08 -3.11822e-05
0.000825339 1.9382e-05 -2.32698e-06
1.9382e-05 -4.05066e-05 3.35432e-06
-2.32698e-06 3.35432e-06 -4.69739e-05
0.000912664 1.37367e-05 8.58765e-07
1.37367e-05 6.69873e-07 -2.00685e-06
8.58765e-07 -2.00685e-06 -3.18932e-05
0.00085287 1.72153e-05 1.00976e-07
1.72153e-05 -3.2347e-05 -1.15644e-08
1.00976e-07 -1.15644e-08 -3.69e-05
0.00230982 2.52126e-05 -1.43396e-05
2.52126e-05 0.000711541 3.8297e-06
-1.43396e-05 3.8297e-06 0.000731292
0.000874543 1.47966e-05 1.78378e-06
1.47966e-05 -2.64395e-05 -3.20677e-06
1.78378e-06 -3.20677e-06 -2.94675e-05
0.0016572 1.93163e-05 5.48857e-06
1.93163e-05 0.000373493 -1.12436e-06
5.48857e-06 -1.12436e-06 0.000391407
0.00225671 1.71666e-05 1.11224e-05
1.71666e-05 0.000675888 -3.90714e-06
1.11224e-05 -3.90714e-06 0.000697626
0.000961307 1.69212e-05 -6.45681e-07
1.69212e-05 2.67258e-05 -1.33044e-06
-6.45681e-07 -1.33044e-06 -2.73137e-05
0.000914799 -1.02899e-05 -6.90019e-07
-1.02899e-05 -2.21826e-06 -1.95417e-06
-6.90019e-07 -1.95417e-06 -3.39579e-05
0.000875416 8.46137e-06 -5.17661e-07
8.46137e-06 -1.53342e-05 -5.50512e-07
-5.17661e-07 -5.50512e-07 -6.75812e-05
0.000886585 -1.24595e-05 -1.15774e-06
-1.24595e-05 -2.46707e-05 -3.3079e-06
-1.15774e-06 -3.3079e-06 -2.64244e-05
0.000802893 -7.86388e-06 -2.41204e-07
-7.86388e-06 -6.05766e-05 -5.94573e-07
-2.41204e-07 -5.94573e-07 -9.08887e-05
0.00107598 -2.27064e-06 1.42023e-07
-2.27064e-06 8.61021e-05 6.61036e-07
1.42023e-07 6.61036e-07 3.73603e-05
0.00220706 -1.28226e-05 -8.79952e-06
-1.28226e-05 0.000646261 -4.00872e-06
-8.79952e-06 -4.00872e-06 0.000669241
0.000878338 -9.37425e-06 -9.60799e-08
-9.37425e-06 -3.26732e-05 -2.11422e-08
-9.60799e-08 -2.11422e-08 -3.22662e-05
0.000683793 -6.29908e-06 1.18375e-07
-6.29908e-06 -0.00012274 1.22406e-06
1.18375e-07 1.22406e-06 -0.000151331
0.00216122 -8.34913e-06 -1.14311e-06
-8.34913e-06 0.000619829 1.9457e-08
-1.14311e-06 1.9457e-08 0.000643879
0.000872699 -6.14168e-06 4.77485e-07
-6.14168e-06 -3.84524e-05 3.15656e-06
4.77485e-07 3.15656e-06 -3.63285e-05
0.00212723 -3.94262e-06 2.24786e-06
-3.94262e-06 0.000600685 3.89712e-06
2.24786e-06 3.89712e-06 0.000625416
0.00135108 1.98779e-06 1.0252e-06
1.98779e-06 0.000276804 3.69221e-06
1.0252e-06 3.69221e-06 0.000150913
0.00122443 -7.01932e-06 3.22417e-06
-7.01932e-06 0.000266998 -7.13131e-07
3.22417e-06 -7.13131e-07 0.000156758
0.00118957 -1.08362e-05 -1.83787e-05
-1.08362e-05 0.000286899 1.93878e-06
-1.83787e-05 1.93878e-06 0.0002145
0.000945499 7.96287e-06 -2.3154e-07
7.96287e-06 1.78834e-05 -1.0722e-06
-2.3154e-07 -1.0722e-06 -4.99204e-05
0.00112886 2.99213e-05 -2.61844e-07
2.99213e-05 0.000114399 -6.65297e-07
-2.61844e-07 -6.65297e-07 3.85886e-05
0.00108417 2.92234e-05 1.03474e-06
2.92234e-05 9.49881e-05 9.81794e-07
1.03474e-06 9.81794e-07 3.03955e-05
0.000929006 1.30724e-05 -4.55134e-08
1.30724e-05 1.18414e-05 1.44057e-08
-4.55134e-08 1.44057e-08 -5.47176e-05
0.00107206 2.16385e-05 1.88932e-07
2.16385e-05 8.99066e-05 3.5408e-07
1.88932e-07 3.5408e-07 1.64324e-05
0.00104374 2.79073e-05 -3.92837e-07
2.79073e-05 7.3794e-05 -6.87649e-07
-3.92837e-07 -6.87649e-07 -7.79528e-07
0.00105537 5.0271e-05 -1.74425e-07
5.0271e-05 8.42866e-05 -1.15737e-07
-1.74425e-07 -1.15737e-07 3.45342e-06
0.00101802 2.72688e-05 -6.49826e-06
2.72688e-05 0.000126013 -5.55094e-06
-6.49826e-06 -5.55094e-06 2.18409e-05
0.00112686 1.25892e-05 1.29266e-06
1.25892e-05 0.00014387 -6.57233e-06
1.29266e-06 -6.57233e-06 3.56054e-05
0.00101491 -6.28735e-06 -7.02615e-06
-6.28735e-06 0.000130775 4.76385e-06
-7.02615e-06 4.76385e-06 3.37502e-05
4.72848e-05 8.34671e-06 3.76268e-06
8.34671e-06 -0.000753133 5.8994e-06
3.76268e-06 5.8994e-06 -0.000680153
0.000934435 -4.6771e-05 -6.12785e-05
-4.6771e-05 -0.000486925 5.87192e-05
-6.12785e-05 5.87192e-05 -0.000691463
0.00202311 7.67412e-05 5.28636e-05
7.67412e-05 -1.94777e-05 -5.59494e-05
5.28636e-05 -5.59494e-05 -0.00079817
0.00454251 0.000194314 1.83706e-05
0.000194314 0.00082342 -2.59116e-05
1.83706e-05 -2.59116e-05 0.000994556
0.00137171 -0.000186918 -2.29871e-05
-0.000186918 -0.000220586 2.08643e-05
-2.29871e-05 2.08643e-05 -0.000470003
0.00321525 -7.29571e-05 2.22308e-05
-7.29571e-05 -0.000132138 -4.92943e-05
2.22308e-05 -4.92943e-05 -0.00086728
0.00348434 -2.34578e-05 -5.2587e-06
-2.34578e-05 0.000325958 1.55669e-06
-5.2587e-06 1.55669e-06 0.000449982
0.00199539 -1.46874e-05 6.80022e-07
-1.46874e-05 0.000314548 3.79112e-06
6.80022e-07 3.79112e-06 0.000515187
0.00138939 -0.000147359 3.2308e-05
-0.000147359 0.000103019 -2.3766e-05
3.2308e-05 -2.3766e-05 -3.13253e-05
0.00322498 -0.000244406 -1.86785e-05
-0.000244406 -0.000543083 -0.000105406
-1.86785e-05 -0.000105406 -0.000847232
-0.000103608 -8.82642e-05 2.35544e-05
-8.82642e-05 -0.00122981 4.56464e-05
2.35544e-05 4.56464e-05 -0.00108361
-0.000706614 -7.05835e-05 -4.39579e-06
-7.05835e-05 -0.00128154 1.42165e-06
-4.39579e-06 1.42165e-06 -0.00101726
0.00113628 5.88114e-06 -6.1758e-07
5.88114e-06 0.000111705 -7.13238e-07
-6.1758e-07 -7.13238e-07 3.02524e-05
0.00103344 9.86261e-06 7.17611e-08
9.86261e-06 6.87162e-05 -2.07035e-07
7.17611e-08 -2.07035e-07 -1.27455e-05
0.00098343 -3.79834e-07 8.39125e-09
-3.79834e-07 5.27933e-05 5.04477e-07
8.39125e-09 5.04477e-07 -2.86971e-05
0.00103149 2.18612e-05 8.7949e-08
2.18612e-05 7.24396e-05 -8.6039e-10
8.7949e-08 -8.6039e-10 -4.86948e-07
0.00192298 -0.000143419 1.16054e-05
-0.000143419 0.000431004 4.07111e-06
1.16054e-05 4.07111e-06 0.000378932
0.00121306 4.53852e-05 2.91869e-06
4.53852e-05 0.000368489 1.64724e-06
2.91869e-06 1.64724e-06 0.000185827
0.000984719 1.64802e-05 1.32752e-07
1.64802e-05 3.77091e-05 1.18023e-06
1.32752e-07 1.18023e-06 -4.50055e-05
0.0010232 1.99614e-05 -8.72352e-08
1.99614e-05 5.7105e-05 1.07384e-06
-8.72352e-08 1.07384e-06 -3.28089e-05
0.00152999 -6.51844e-07 -5.18628e-07
-6.51844e-07 0.000293273 -1.14882e-06
-5.18628e-07 -1.14882e-06 0.0002066
0.000999562 1.86309e-05 -7.87268e-07
1.86309e-05 4.50549e-05 2.12323e-09
-7.87268e-07 2.12323e-09 -4.03049e-05
0.00100582 -9.88894e-07 -1.1888e-06
-9.88894e-07 4.06648e-05 5.93967e-07
-1.1888e-06 5.93967e-07 -5.14457e-05
0.000607484 -3.74045e-05 1.13875e-05
-3.74045e-05 0.000230694 -1.14242e-06
1.13875e-05 -1.14242e-06 3.22251e-05
0.000847906 9.41325e-06 2.6955e-06
9.41325e-06 4.25881e-05 4.66896e-06
2.6955e-06 4.66896e-06 -3.689e-06
0.00120364 4.9265e-07 1.11537e-07
4.9265e-07 0.000150871 -3.26844e-06
1.11537e-07 -3.26844e-06 5.82345e-05
0.000374225 1.63358e-05 5.47045e-06
1.63358e-05 0.000340858 1.60792e-06
5.47045e-06 1.60792e-06 6.79402e-05
0.00167516 -3.44331e-05 7.59776e-06
-3.44331e-05 0.000455892 3.43232e-07
7.59776e-06 3.43232e-07 0.000340894
0.00150517 -3.80295e-06 -1.08779e-05
-3.80295e-06 0.000463502 8.74496e-07
-1.08779e-05 8.74496e-07 0.000338899
0.0010817 -4.25559e-06 3.39623e-07
-4.25559e-06 0.000153364 -3.32801e-07
3.39623e-07 -3.32801e-07 2.05029e-05
0.000704681 -2.941e-06 -3.17289e-06
-2.941e-06 -5.43299e-05 -3.24319e-07
-3.17289e-06 -3.24319e-07 -0.000177068
0.000407271 2.40819e-05 -2.72144e-06
2.40819e-05 -0.000113201 6.33606e-06
-2.72144e-06 6.33606e-06 -0.000198101
0.00132635 8.56498e-05 -4.3275e-05
8.56498e-05 0.000563502 8.00935e-06
-4.3275e-05 8.00935e-06 0.000598448
0.00103074 -3.67524e-06 1.17059e-08
-3.67524e-06 9.08358e-05 4.5144e-06
1.17059e-08 4.5144e-06 -4.40816e-05
0.00317549 0.0001764 1.99873e-05
0.0001764 -6.359e-05 -8.76072e-05
1.99873e-05 -8.76072e-05 -0.000574187
0.00479721 0.000228771 -1.52592e-05
0.000228771 0.00100632 1.87331e-05
-1.52592e-05 1.87331e-05 0.00113961
0.00119424 -2.36603e-05 8.20455e-06
-2.36603e-05 0.000240636 -6.87963e-06
8.20455e-06 -6.87963e-06 0.000124877
0.00224575 9.19324e-05 -3.05471e-06
9.19324e-05 0.000488649 -1.70648e-06
-3.05471e-06 -1.70648e-06 0.000747005
-2.66453e-05 -8.17555e-06 1.91972e-05
-8.17555e-06 0.000120949 -1.75808e-07
1.91972e-05 -1.75808e-07 -7.07087e-05
0.00123282 -1.40981e-05 -3.56259e-06
-1.40981e-05 0.000272445 6.27351e-07
-3.56259e-06 6.27351e-07 0.00014886
0.00120549 -4.18507e-06 3.98146e-06
-4.18507e-06 0.000238222 -1.1178e-07
3.98146e-06 -1.1178e-07 0.000176275
0.00199428 -3.46545e-05 -1.2588e-05
-3.46545e-05 0.000674851 1.76911e-05
-1.2588e-05 1.76911e-05 0.000620627
0.000507759 0.000168284 -1.85566e-06
0.000168284 -0.000342262 1.99158e-06
-1.85566e-06 1.99158e-06 4.18173e-06
0.00123397 0.000280695 4.96465e-06
0.000280695 -0.000350597 -1.08062e-05
4.96465e-06 -1.08062e-05 -0.000298137
0.00305651 1.92904e-05 2.02559e-05
1.92904e-05 0.000281358 -9.77168e-06
2.02559e-05 -9.77168e-06 -0.000746112
0.000609447 -6.15746e-05 8.10521e-06
-6.15746e-05 0.000354531 -1.66907e-05
8.10521e-06 -1.66907e-05 0.000123933
0.00138176 -1.16598e-05 -1.07664e-05
-1.16598e-05 0.000417288 1.34214e-06
-1.07664e-05 1.34214e-06 0.000327397
-0.00120125 6.37585e-05 7.7198e-06
6.37585e-05 -0.00115253 -5.81445e-06
7.7198e-06 -5.81445e-06 -0.00106352
7.00681e-05 0.000221322 5.37073e-05
0.000221322 -7.6574e-05 -2.87358e-05
5.37073e-05 -2.87358e-05 -2.13538e-05
0.00604127 0.000370236 3.77039e-05
0.000370236 0.00164976 -4.88425e-05
3.77039e-05 -4.88425e-05 0.000764894
0.00212955 -0.000168782 -5.04723e-05
-0.000168782 0.000133554 0.000107708
-5.04723e-05 0.000107708 -0.0003709
0.00103502 -9.89429e-06 -2.34368e-06
-9.89429e-06 0.000247824 9.30023e-07
-2.34368e-06 9.30023e-07 2.93508e-05
0.000576753 -2.64757e-05 1.12137e-07
-2.64757e-05 0.000107902 -1.00979e-06
1.12137e-07 -1.00979e-06 -0.000165342
0.00145408 -0.000102717 2.68525e-06
-0.000102717 0.000433651 2.80473e-07
2.68525e-06 2.80473e-07 0.000184708
0.000704119 -1.98352e-05 -6.74339e-07
-1.98352e-05 -1.8004e-05 -1.36686e-07
-6.74339e-07 -1.36686e-07 -0.000133892
0.000506208 -4.77618e-05 4.99979e-08
-4.77618e-05 -3.58998e-05 2.93457e-07
4.99979e-08 2.93457e-07 -0.000245105
0.00124484 -9.60543e-05 2.2063e-06
-9.60543e-05 0.000231421 4.5566e-06
2.2063e-06 4.5566e-06 4.19656e-05
0.00159246 -8.14894e-05 -1.50106e-06
-8.14894e-05 0.000377857 1.68725e-08
-1.50106e-06 1.68725e-08 0.00024834
0.00124164 -7.80593e-05 -1.00265e-07
-7.80593e-05 0.000208052 7.4977e-07
-1.00265e-07 7.4977e-07 4.93038e-05
0.0012125 -9.06516e-05 -7.15909e-07
-9.06516e-05 0.00013353 1.50375e-07
-7.15909e-07 1.50375e-07 -1.78106e-05
0.00110525 -6.60069e-05 -5.61118e-07
-6.60069e-05 0.000121982 -8.46369e-07
-5.61118e-07 -8.46369e-07 1.58981e-07
0.00153595 -8.69811e-05 4.42971e-08
-8.69811e-05 0.000299467 2.05408e-07
4.42971e-08 2.05408e-07 0.000174513
0.00131475 -8.36581e-05 -3.18753e-07
-8.36581e-05 0.00016074 1.35071e-07
-3.18753e-07 1.35071e-07 3.69094e-05
0.00132148 -7.7214e-05 -1.67173e-06
-7.7214e-05 0.00013416 7.59564e-08
-1.67173e-06 7.59564e-08 2.84433e-05
0.00151431 -7.85843e-05 -2.061e-06
-7.85843e-05 0.000272192 3.00137e-06
-2.061e-06 3.00137e-06 0.000175499
0.00134538 -7.90656e-05 -3.82141e-07
-7.90656e-05 0.000183457 3.55998e-07
-3.82141e-07 3.55998e-07 7.30796e-05
0.000801252 -5.35407e-05 1.09712e-07
-5.35407e-05 -4.92702e-05 -1.87562e-08
1.09712e-07 -1.87562e-08 -0.000129579
0.000969167 -6.03184e-05 9.16172e-07
-6.03184e-05 3.01724e-05 -2.98906e-07
9.16172e-07 -2.98906e-07 -5.75202e-05
0.00108164 -6.75555e-05 7.11831e-07
-6.75555e-05 7.53853e-05 -1.35592e-06
7.11831e-07 -1.35592e-06 -2.91893e-05
0.00111088 -5.27466e-05 -1.62246e-07
-5.27466e-05 0.000116394 1.32232e-07
-1.62246e-07 1.32232e-07 3.93901e-05
0.00116028 -6.03284e-05 -1.91665e-08
-6.03284e-05 0.00013884 -1.88015e-07
-1.91665e-08 -1.88015e-07 5.92459e-05
0.000927185 -5.57513e-05 1.96896e-06
-5.57513e-05 2.39627e-05 -4.78295e-07
1.96896e-06 -4.78295e-07 -5.675e-05
0.000922745 -7.99129e-07 -6.8587e-07
-7.99129e-07 2.18941e-05 1.00451e-06
-6.8587e-07 1.00451e-06 -4.37666e-05
0.0009366 -4.00739e-05 -9.65959e-08
-4.00739e-05 3.80578e-05 1.80779e-07
-9.65959e-08 1.80779e-07 -3.74933e-05
0.00107472 -5.47084e-05 7.92185e-07
-5.47084e-05 0.000110018 -4.47312e-07
7.92185e-07 -4.47312e-07 2.90149e-05
0.000889967 1.39016e-05 -2.15824e-06
1.39016e-05 -8.44419e-07 2.21097e-06
-2.15824e-06 2.21097e-06 -4.27853e-05
0.000989725 -8.80495e-06 -2.58411e-07
-8.80495e-06 4.94891e-05 1.92062e-08
-2.58411e-07 1.92062e-08 -1.29875e-05
0.00108001 -4.57454e-05 4.97443e-07
-4.57454e-05 0.000100574 -2.68949e-07
4.97443e-07 -2.68949e-07 2.70214e-05
0.000849918 2.16107e-05 -3.86087e-06
2.16107e-05 -2.34504e-05 4.74276e-06
-3.86087e-06 4.74276e-06 -3.21733e-05
0.000905094 1.37973e-05 3.20604e-07
1.37973e-05 4.15468e-06 -2.49338e-08
3.20604e-07 -2.49338e-08 -3.44988e-05
0.000978489 -1.19355e-05 1.30551e-06
-1.19355e-05 3.95962e-05 -1.06641e-06
1.30551e-06 -1.06641e-06 -1.96793e-05
0.000902257 1.60437e-05 1.16971e-06
1.60437e-05 -7.30964e-07 -2.15618e-06
1.16971e-06 -2.15618e-06 -3.61041e-05
0.000841924 1.96569e-05 1.20337e-07
1.96569e-05 -3.22956e-05 -3.49082e-08
1.20337e-07 -3.49082e-08 -3.88703e-05
0.00234853 2.9179e-05 -1.62408e-05
2.9179e-05 0.00073705 3.79779e-06
-1.62408e-05 3.79779e-06 0.000755422
0.000868352 1.74079e-05 2.15133e-06
1.74079e-05 -2.47228e-05 -3.28894e-06
2.15133e-06 -3.28894e-06 -2.93446e-05
0.00230854 2.52242e-05 6.27966e-07
2.52242e-05 0.000711575 4.34345e-08
6.27966e-07 4.34345e-08 0.00073119
0.00227962 2.12444e-05 1.33609e-05
2.12444e-05 0.000692204 -3.89563e-06
1.33609e-05 -3.89563e-06 0.000712895
0.00103946 2.6953e-05 -5.64538e-07
2.6953e-05 6.76831e-05 -1.08026e-06
-5.64538e-07 -1.08026e-06 -2.39896e-06
0.000979926 1.22046e-05 -6.11524e-07
1.22046e-05 3.39743e-05 -1.52945e-06
-6.11524e-07 -1.52945e-06 -2.28973e-05
0.000906216 -1.60569e-05 -7.75841e-07
-1.60569e-05 -4.29851e-06 -2.08882e-06
-7.75841e-07 -2.08882e-06 -3.84048e-05
0.000972078 1.27827e-05 9.18421e-08
1.27827e-05 3.17679e-05 -3.91456e-08
9.18421e-08 -3.91456e-08 -2.20644e-05
0.000875788 -1.50584e-05 -1.57666e-06
-1.50584e-05 -2.58731e-05 -3.39461e-06
-1.57666e-06 -3.39461e-06 -2.97244e-05
0.000922075 -1.17105e-05 -4.44215e-09
-1.17105e-05 1.66268e-06 -5.3594e-09
-4.44215e-09 -5.3594e-09 -3.01338e-05
0.00096175 1.71436e-05 1.60425e-07
1.71436e-05 2.8423e-05 7.74537e-07
1.60425e-07 7.74537e-07 -2.30041e-05
0.00226616 -1.71437e-05 -1.1126e-05
-1.71437e-05 0.000680078 -4.04848e-06
-1.1126e-05 -4.04848e-06 0.00070182
0.000869172 -1.23691e-05 -9.98547e-08
-1.23691e-05 -3.33835e-05 -2.46311e-08
-9.98547e-08 -2.46311e-08 -3.50274e-05
0.000936499 -8.17049e-06 2.48378e-07
-8.17049e-06 7.06276e-06 1.29957e-06
2.48378e-07 1.29957e-06 -2.26669e-05
0.00220386 -1.27094e-05 -1.01477e-06
-1.27094e-05 0.000644233 2.95249e-08
-1.01477e-06 2.95249e-08 0.000667366
0.000863041 -9.26839e-06 7.24063e-07
-9.26839e-06 -4.03504e-05 3.22006e-06
7.24063e-07 3.22006e-06 -3.98346e-05
0.00215807 -8.21114e-06 5.1561e-06
-8.21114e-06 0.000617925 3.91607e-06
5.1561e-06 3.91607e-06 0.000642091
0.000973066 1.04362e-05 -1.08861e-05
1.04362e-05 0.000101999 4.50721e-07
-1.08861e-05 4.50721e-07 -2.14794e-05
0.00116588 1.5433e-06 7.92525e-07
1.5433e-06 0.00017074 -6.88698e-07
7.92525e-07 -6.88698e-07 4.32627e-05
0.00130968 -5.79459e-06 -6.32285e-06
-5.79459e-06 0.000314917 -2.16123e-06
-6.32285e-06 -2.16123e-06 0.000205086
0.000983886 1.81122e-05 -7.21815e-08
1.81122e-05 3.88921e-05 1.21803e-08
-7.21815e-08 1.21803e-08 -2.95157e-05
0.0010745 2.74949e-05 4.82094e-08
2.74949e-05 8.61874e-05 2.48942e-07
4.82094e-08 2.48942e-07 1.00169e-05
0.000998278 3.2013e-05 -9.14147e-07
3.2013e-05 5.17121e-05 -1.23494e-06
-9.14147e-07 -1.23494e-06 -2.68602e-05
0.000949922 2.15515e-05 -2.49509e-07
2.15515e-05 2.38222e-05 -1.26366e-06
-2.49509e-07 -1.26366e-06 -5.18254e-05
0.00114374 4.41251e-05 -3.78275e-07
4.41251e-05 0.000126002 -7.41441e-07
-3.78275e-07 -7.41441e-07 4.4788e-05
0.000910589 1.60432e-05 2.06278e-07
1.60432e-05 3.59263e-06 9.40545e-07
2.06278e-07 9.40545e-07 -6.35368e-05
0.0010015 1.04317e-05 2.76899e-07
1.04317e-05 5.19982e-05 1.02757e-06
2.76899e-07 1.02757e-06 -2.15055e-05
0.00103275 3.54253e-05 -1.09204e-07
3.54253e-05 6.9575e-05 -1.86265e-08
-1.09204e-07 -1.86265e-08 -5.54148e-06
0.00104847 2.72789e-05 3.70961e-07
2.72789e-05 7.72868e-05 4.62763e-07
3.70961e-07 4.62763e-07 -1.94412e-06
0.00109168 3.02106e-05 -2.72811e-07
3.02106e-05 0.000101399 -6.8671e-07
-2.72811e-07 -6.8671e-07 2.06974e-05
0.000874257 3.28797e-06 -1.03239e-05
3.28797e-06 9.18816e-05 2.05203e-06
-1.03239e-05 2.05203e-06 2.26488e-05
0.000899942 2.80193e-05 3.75245e-07
2.80193e-05 5.57976e-05 -2.60503e-06
3.75245e-07 -2.60503e-06 -4.79742e-05
0.000371313 1.15542e-05 5.86684e-07
1.15542e-05 -0.00032936 -1.48905e-06
5.86684e-07 -1.48905e-06 -0.000443956
0.00111807 -7.9009e-06 6.7551e-06
-7.9009e-06 -0.000188699 6.58878e-06
6.7551e-06 6.58878e-06 1.29451e-06
-0.00174562 1.56306e-05 -2.75827e-06
1.56306e-05 -0.00215643 -6.94985e-05
-2.75827e-06 -6.94985e-05 -0.00196976
0.00140427 -0.000225989 -6.65336e-05
-0.000225989 -0.000343438 8.9675e-05
-6.65336e-05 8.9675e-05 -0.000696157
0.00704256 0.000120642 -1.36983e-05
0.000120642 0.00148202 -4.7184e-05
-1.36983e-05 -4.7184e-05 0.0010796
0.000928907 -0.000193178 -3.73349e-05
-0.000193178 -0.000336987 2.96317e-05
-3.73349e-05 2.96317e-05 -0.000720412
0.00755616 -0.000122355 2.14183e-05
-0.000122355 0.00177577 1.97171e-06
2.14183e-05 1.97171e-06 0.00134587
0.000939426 -0.000165156 5.08359e-06
-0.000165156 -0.000788676 -2.03709e-05
5.08359e-06 -2.03709e-05 -0.000675995
0.000105976 -7.7111e-05 2.71645e-06
-7.7111e-05 -0.000795618 -5.35035e-07
2.71645e-06 -5.35035e-07 -0.000519773
0.00179576 -7.54258e-05 -2.38251e-05
-7.54258e-05 0.000311167 -5.51775e-05
-2.38251e-05 -5.51775e-05 -9.95603e-05
0.00698085 -0.000271445 -1.60659e-05
-0.000271445 0.00156016 4.94788e-05
-1.60659e-05 4.94788e-05 0.00103462
0.00548995 -0.000316313 1.46166e-05
-0.000316313 0.001633 2.42544e-05
1.46166e-05 2.42544e-05 0.00177512
0.00110723 -0.000148331 1.92106e-06
-0.000148331 -0.000122885 6.70518e-07
1.92106e-06 6.70518e-07 0.000283856
0.000957363 2.58517e-05 -7.99305e-07
2.58517e-05 4.11393e-05 -6.861e-07
-7.99305e-07 -6.861e-07 -3.67897e-05
0.00110564 5.40546e-06 -1.18829e-07
5.40546e-06 0.000100524 1.183e-07
-1.18829e-07 1.183e-07 1.84555e-05
0.00102188 8.90204e-06 2.54043e-07
8.90204e-06 6.28066e-05 4.98605e-07
2.54043e-07 4.98605e-07 -1.88709e-05
0.000997735 -3.65554e-05 2.02433e-05
-3.65554e-05 0.000385562 -2.6675e-06
2.02433e-05 -2.6675e-06 0.000242994
0.00124695 -9.16808e-06 5.46298e-07
-9.16808e-06 0.00023795 6.90209e-08
5.46298e-07 6.90209e-08 0.000196098
0.00103849 1.38422e-05 -9.88536e-08
1.38422e-05 6.43608e-05 2.00717e-06
-9.88536e-08 2.00717e-06 -2.06704e-05
0.000982816 -1.27078e-05 -6.02086e-07
-1.27078e-05 2.79617e-05 2.74348e-06
-6.02086e-07 2.74348e-06 -6.46569e-05
0.00107555 -3.57736e-06 1.36867e-07
-3.57736e-06 8.98609e-05 4.77301e-08
1.36867e-07 4.77301e-08 -2.06918e-06
0.000903113 -3.5512e-05 1.08804e-06
-3.5512e-05 9.47103e-05 2.02718e-06
1.08804e-06 2.02718e-06 -2.99334e-05
-7.11753e-05 1.73259e-05 1.64845e-06
1.73259e-05 8.48772e-05 -5.99105e-06
1.64845e-06 -5.99105e-06 -0.000190092
0.000455729 1.49821e-05 -2.23083e-06
1.49821e-05 -0.000102985 3.21854e-07
-2.23083e-06 3.21854e-07 -0.000240735
0.00131187 4.66064e-05 3.66608e-06
4.66064e-05 0.000519926 6.45686e-06
3.66608e-06 6.45686e-06 0.000343092
0.00201815 -7.05947e-06 -1.3272e-05
-7.05947e-06 0.000845663 -1.62345e-06
-1.3272e-05 -1.62345e-06 0.000760855
0.00106487 -4.36639e-06 -3.63994e-06
-4.36639e-06 0.000184145 -2.84999e-07
-3.63994e-06 -2.84999e-07 5.53023e-05
0.000905479 -3.74381e-06 7.39601e-07
-3.74381e-06 5.72257e-05 4.47521e-07
7.39601e-07 4.47521e-07 -7.76259e-05
-3.31869e-05 1.86341e-06 -7.75704e-06
1.86341e-06 8.73208e-05 1.72751e-05
-7.75704e-06 1.72751e-05 -7.27713e-05
3.43838e-05 2.39387e-05 4.1839e-05
2.39387e-05 -0.000460403 -5.10874e-05
4.1839e-05 -5.10874e-05 -0.000801532
0.00129805 -1.33256e-05 5.71299e-06
-1.33256e-05 0.000307384 3.36217e-06
5.71299e-06 3.36217e-06 0.000183877
0.00791712 0.000183209 3.07416e-05
0.000183209 0.0019437 -8.51783e-06
3.07416e-05 -8.51783e-06 0.00104418
0.00351895 0.000355188 -3.18164e-05
0.000355188 0.000865405 1.8995e-05
-3.18164e-05 1.8995e-05 0.000845846
0.00142423 -8.26898e-06 1.63426e-05
-8.26898e-06 0.000400205 -5.9244e-06
1.63426e-05 -5.9244e-06 0.000327972
-0.000297966 0.000180577 -9.64992e-06
0.000180577 -0.000828341 1.336e-05
-9.64992e-06 1.336e-05 -0.000478247
-0.000155331 -2.27701e-05 -9.03164e-06
-2.27701e-05 2.84012e-05 7.07718e-08
-9.03164e-06 7.07718e-08 -0.000202752
0.00121685 -1.25649e-05 4.33825e-06
-1.25649e-05 0.000310299 -3.45811e-07
4.33825e-06 -3.45811e-07 0.000221488
-0.00109456 7.42063e-05 4.20834e-06
7.42063e-05 -0.00103298 -2.81205e-06
4.20834e-06 -2.81205e-06 -0.000932674
0.00187233 -0.000115175 8.44215e-06
-0.000115175 0.000357348 3.2579e-05
8.44215e-06 3.2579e-05 -4.30887e-05
0.00292152 0.000316216 -2.79351e-06
0.000316216 0.000927822 -1.38089e-06
-2.79351e-06 -1.38089e-06 0.000883986
0.00606572 0.000126403 2.1229e-05
0.000126403 0.00155425 -1.10298e-05
2.1229e-05 -1.10298e-05 0.000402195
0.00165279 -6.16867e-05 1.0944e-05
-6.16867e-05 0.00036969 1.65315e-06
1.0944e-05 1.65315e-06 0.000370743
-0.000986912 1.35223e-05 -4.43512e-06
1.35223e-05 -0.000948887 6.35893e-07
-4.43512e-06 6.35893e-07 -0.000975794
0.00241409 0.000218517 4.30175e-05
0.000218517 0.000874362 -1.5842e-05
4.30175e-05 -1.5842e-05 0.000809174
0.00346601 0.000290576 -2.65263e-05
0.000290576 0.000656204 2.16839e-05
-2.65263e-05 2.16839e-05 -0.000210469
0.00157281 -8.08259e-05 9.06285e-06
-8.08259e-05 0.000125228 4.24869e-05
9.06285e-06 4.24869e-05 -0.000144034
0.000578035 -1.36534e-05 -6.84238e-07
-1.36534e-05 0.000108357 3.17542e-06
-6.84238e-07 3.17542e-06 -0.00016597
0.000953916 -9.22848e-05 5.41435e-07
-9.22848e-05 0.000211113 -1.78071e-06
5.41435e-07 -1.78071e-06 -6.31108e-05
0.00247984 -0.000167977 4.63487e-07
-0.000167977 0.000709317 2.71372e-06
4.63487e-07 2.71372e-06 0.000508032
0.000156747 -2.49111e-05 -1.37083e-06
-2.49111e-05 -0.000191488 1.87133e-06
-1.37083e-06 1.87133e-06 -0.000403632
0.000886471 -8.58403e-05 9.64876e-07
-8.58403e-05 6.05011e-05 1.25736e-07
9.64876e-07 1.25736e-07 -0.000130725
0.00131571 -0.000113766 -1.0545e-06
-0.000113766 0.000129507 1.24264e-06
-1.0545e-06 1.24264e-06 -1.42568e-05
0.00136256 -8.04936e-05 -1.60122e-06
-8.04936e-05 0.000257397 -6.00154e-08
-1.60122e-06 -6.00154e-08 9.98154e-05
0.00121398 -8.90684e-05 -1.05096e-06
-8.90684e-05 0.000129675 -9.28999e-07
-1.05096e-06 -9.28999e-07 -1.58664e-05
0.00156723 -9.77565e-05 -9.79641e-07
-9.77565e-05 0.000227688 -3.06448e-07
-9.79641e-07 -3.06448e-07 0.000115024
0.00143606 -8.45319e-05 -1.66665e-07
-8.45319e-05 0.00024867 -1.31126e-06
-1.66665e-07 -1.31126e-06 0.000122635
0.00127746 -8.14004e-05 3.51894e-07
-8.14004e-05 0.000139124 -9.03502e-07
3.51894e-07 -9.03502e-07 1.80875e-05
0.00141001 -7.92344e-05 -1.5269e-06
-7.92344e-05 0.000140989 -1.63208e-06
-1.5269e-06 -1.63208e-06 4.05186e-05
0.00131826 -7.13564e-05 -1.31235e-06
-7.13564e-05 8.13493e-05 -8.62456e-07
-1.31235e-06 -8.62456e-07 -7.98091e-06
0.00114623 -6.9939e-05 -1.34305e-06
-6.9939e-05 6.30778e-05 1.00643e-06
-1.34305e-06 1.00643e-06 -3.53269e-05
0.00124145 -7.45813e-05 3.19667e-07
-7.45813e-05 9.30069e-05 -8.38895e-07
3.19667e-07 -8.38895e-07 -1.16478e-05
0.00125095 -6.79574e-05 -8.85568e-07
-6.79574e-05 0.000154164 1.99754e-06
-8.85568e-07 1.99754e-06 6.74869e-05
0.00124148 -7.19439e-05 -2.54597e-07
-7.19439e-05 0.000139114 4.92398e-07
-2.54597e-07 4.92398e-07 4.0647e-05
0.00127308 -7.75685e-05 8.23969e-07
-7.75685e-05 0.000147096 -1.7725e-06
8.23969e-07 -1.7725e-06 3.52479e-05
0.00101515 -5.50878e-05 -3.80017e-07
-5.50878e-05 6.08772e-05 -4.06658e-07
-3.80017e-07 -4.06658e-07 -1.43201e-05
0.00088349 -5.54324e-05 -1.83194e-07
-5.54324e-05 -7.82086e-06 -7.22483e-07
-1.83194e-07 -7.22483e-07 -8.71781e-05
0.00111418 -6.3953e-05 2.15695e-06
-6.3953e-05 0.000102571 -2.16911e-06
2.15695e-06 -2.16911e-06 1.55786e-05
0.000959196 -1.76862e-05 -6.20277e-07
-1.76862e-05 4.21454e-05 8.4634e-07
-6.20277e-07 8.4634e-07 -2.60277e-05
0.00104129 -5.00407e-05 1.62402e-07
-5.00407e-05 8.2896e-05 3.02007e-07
1.62402e-07 3.02007e-07 6.1376e-06
0.00108706 -5.81886e-05 5.27237e-07
-5.81886e-05 0.000103873 3.72295e-07
5.27237e-07 3.72295e-07 2.39773e-05
0.000876261 2.86486e-05 -1.94357e-06
2.86486e-05 -2.12557e-06 2.08871e-06
-1.94357e-06 2.08871e-06 -4.8279e-05
0.00097891 -3.1173e-06 -7.62998e-08
-3.1173e-06 4.93507e-05 5.0386e-09
-7.62998e-08 5.0386e-09 -1.64002e-05
0.000973485 -3.905e-05 1.26228e-07
-3.905e-05 5.48557e-05 -1.93957e-07
1.26228e-07 -1.93957e-07 -2.00079e-05
0.00149616 2.77891e-05 -1.02411e-05
2.77891e-05 0.000311703 3.29849e-06
-1.02411e-05 3.29849e-06 0.000303963
0.00089667 1.30563e-05 9.12506e-08
1.30563e-05 2.53465e-06 -2.29197e-08
9.12506e-08 -2.29197e-08 -3.93238e-05
0.000996107 -9.32736e-06 8.98656e-07
-9.32736e-06 5.16447e-05 -1.01842e-06
8.98656e-07 -1.01842e-06 -1.04889e-05
0.00105257 2.12243e-05 -1.51718e-05
2.12243e-05 8.23551e-05 3.85778e-06
-1.51718e-05 3.85778e-06 9.25674e-05
0.00118118 2.39203e-05 -3.71056e-06
2.39203e-05 0.000146019 5.09339e-07
-3.71056e-06 5.09339e-07 0.000138665
0.000895416 1.81583e-05 1.49068e-06
1.81583e-05 -3.22971e-07 -2.12194e-06
1.49068e-06 -2.12194e-06 -3.90446e-05
0.000858242 1.99514e-05 2.54717e-06
1.99514e-05 -2.42222e-05 -3.3974e-06
2.54717e-06 -3.3974e-06 -3.09036e-05
0.00235543 2.91569e-05 5.37975e-07
2.91569e-05 0.000741252 4.69305e-08
5.37975e-07 4.69305e-08 0.00075942
0.00231003 2.5203e-05 1.54079e-05
2.5203e-05 0.000713033 -3.87497e-06
1.54079e-05 -3.87497e-06 0.0007325
0.000990556 2.63833e-05 -8.82796e-07
2.63833e-05 4.58112e-05 -1.31171e-06
-8.82796e-07 -1.31171e-06 -2.74687e-05
0.000988985 2.0192e-06 -6.50672e-07
2.0192e-06 3.88257e-05 -1.67945e-06
-6.50672e-07 -1.67945e-06 -2.09389e-05
0.00102261 2.1275e-05 -1.10703e-07
2.1275e-05 5.8683e-05 1.86187e-08
-1.10703e-07 1.86187e-08 -1.16522e-05
0.000898295 -1.95774e-05 -9.98532e-07
-1.95774e-05 -6.15977e-06 -2.27988e-06
-9.98532e-07 -2.27988e-06 -4.2428e-05
0.000981653 6.12767e-06 2.35511e-07
6.12767e-06 3.46868e-05 -6.79248e-08
2.35511e-07 -6.79248e-08 -2.19044e-05
0.000864745 -1.72541e-05 -2.03579e-06
-1.72541e-05 -2.7233e-05 -3.46631e-06
-2.03579e-06 -3.46631e-06 -3.29695e-05
0.000913826 -1.26658e-05 -2.56723e-07
-1.26658e-05 -4.92915e-07 8.62753e-10
-2.56723e-07 8.62753e-10 -3.45405e-05
0.000983456 1.45135e-05 6.35441e-07
1.45135e-05 3.80316e-05 1.44861e-06
6.35441e-07 1.44861e-06 -1.61805e-05
0.00232562 -2.13094e-05 -1.35095e-05
-2.13094e-05 0.000714654 -4.05397e-06
-1.35095e-05 -4.05397e-06 0.000735076
0.000858356 -1.49469e-05 -1.45081e-07
-1.49469e-05 -3.45729e-05 -1.50633e-08
-1.45081e-07 -1.50633e-08 -3.83267e-05
0.000930929 -1.09818e-05 6.47829e-07
-1.09818e-05 6.27017e-06 1.9231e-06
6.47829e-07 1.9231e-06 -2.55295e-05
0.00226158 -1.70862e-05 -8.84315e-07
-1.70862e-05 0.000677266 3.73645e-08
-8.84315e-07 3.73645e-08 0.000699187
0.00085207 -1.22777e-05 9.80562e-07
-1.22777e-05 -4.19351e-05 3.31579e-06
9.80562e-07 3.31579e-06 -4.34718e-05
0.00220105 -1.25709e-05 7.7096e-06
-1.25709e-05 0.0006424 3.92881e-06
7.7096e-06 3.92881e-06 0.000665684
0.00060318 4.40539e-06 -1.09515e-05
4.40539e-06 -4.82561e-06 -4.95868e-06
-1.09515e-05 -4.95868e-06 -9.2033e-05
0.000923182 8.28393e-06 -7.92025e-07
8.28393e-06 7.09077e-05 -5.2899e-07
-7.92025e-07 -5.2899e-07 -5.34385e-05
0.000953859 1.14889e-06 -3.13477e-07
1.14889e-06 4.82867e-05 -3.10267e-06
-3.13477e-07 -3.10267e-06 -8.08825e-05
0.0010394 4.78383e-05 -9.26648e-07
4.78383e-05 7.50332e-05 -2.69725e-07
-9.26648e-07 -2.69725e-07 -3.94558e-06
0.00102993 1.78192e-05 2.77779e-07
1.78192e-05 6.26249e-05 1.05971e-06
2.77779e-07 1.05971e-06 -5.64291e-06
0.00101619 2.66358e-05 4.0235e-07
2.66358e-05 5.63886e-05 1.21744e-06
4.0235e-07 1.21744e-06 -2.03178e-05
0.00104609 2.11924e-05 5.88188e-08
2.11924e-05 7.26997e-05 -2.32449e-07
5.88188e-08 -2.32449e-07 -2.35867e-06
0.0010535 4.02748e-05 -1.55566e-07
4.02748e-05 8.06862e-05 -1.14245e-07
-1.55566e-07 -1.14245e-07 1.90118e-06
0.00105642 4.13904e-05 1.30146e-07
4.13904e-05 8.11341e-05 3.79643e-07
1.30146e-07 3.79643e-07 1.87816e-07
0.00105628 4.98894e-05 -1.11769e-06
4.98894e-05 8.31164e-05 -1.28342e-06
-1.11769e-06 -1.28342e-06 -2.97789e-07
0.00095078 3.95212e-05 -4.15151e-07
3.95212e-05 3.13046e-05 -1.18254e-06
-4.15151e-07 -1.18254e-06 -5.09047e-05
0.00102423 4.47807e-05 5.90177e-07
4.47807e-05 6.65678e-05 7.05882e-07
5.90177e-07 7.05882e-07 -9.11988e-06
0.0010083 7.56477e-06 4.09163e-07
7.56477e-06 5.4757e-05 8.91784e-07
4.09163e-07 8.91784e-07 -2.32748e-05
0.00107262 3.23575e-05 -1.06499e-07
3.23575e-05 9.25115e-05 -9.69716e-09
-1.06499e-07 -9.69716e-09 1.15907e-05
0.00149835 3.80877e-05 1.02526e-06
3.80877e-05 0.00030236 -1.21647e-06
1.02526e-06 -1.21647e-06 0.000218617
0.00211639 -7.15242e-05 4.1311e-06
-7.15242e-05 0.000801788 2.71925e-06
4.1311e-06 2.71925e-06 0.000928985
0.00070815 7.98165e-06 1.31724e-06
7.98165e-06 -1.26544e-05 2.44025e-06
1.31724e-06 2.44025e-06 -8.10646e-05
0.000873466 2.85582e-05 9.80324e-06
2.85582e-05 4.45546e-05 -2.6313e-07
9.80324e-06 -2.6313e-07 -5.92318e-05
0.0014894 -9.31051e-05 2.9885e-06
-9.31051e-05 -1.1159e-05 -3.9306e-06
2.9885e-06 -3.9306e-06 0.000278473
0.00337151 -0.000221775 -8.16741e-07
-0.000221775 0.000168402 -9.1959e-05
-8.16741e-07 -9.1959e-05 0.000269289
0.00309638 5.52775e-05 -2.21338e-05
5.52775e-05 -0.0005639 0.000103451
-2.21338e-05 0.000103451 -0.000851826
0.000830886 -0.000185495 -5.84494e-05
-0.000185495 -7.35964e-05 6.62456e-05
-5.84494e-05 6.62456e-05 -0.000321291
0.00203959 -5.36486e-05 -1.47902e-05
-5.36486e-05 0.000675933 2.19639e-06
-1.47902e-05 2.19639e-06 0.0004215
0.000367525 -0.000149408 4.30063e-07
-0.000149408 -0.000443892 -7.68736e-07
4.30063e-07 -7.68736e-07 -8.6464e-05
0.00523023 -8.48181e-05 1.32997e-05
-8.48181e-05 0.000630396 5.35708e-05
1.32997e-05 5.35708e-05 -9.336e-05
-0.000630353 -0.00019764 -6.62892e-06
-0.00019764 -0.000924684 -1.25948e-05
-6.62892e-06 -1.25948e-05 -0.000777445
0.00229515 0.000127394 -5.96143e-05
0.000127394 0.000601905 -4.96577e-05
-5.96143e-05 -4.96577e-05 0.000380128
0.00678965 -0.000238498 4.87509e-06
-0.000238498 0.00192123 3.51356e-05
4.87509e-06 3.51356e-05 0.00119977
-8.57673e-05 -0.000174058 3.53688e-05
-0.000174058 -9.59728e-05 2.07744e-05
3.53688e-05 2.07744e-05 -5.82252e-06
0.000847283 6.81574e-05 -3.43307e-06
6.81574e-05 1.12667e-05 -2.9438e-06
-3.43307e-06 -2.9438e-06 -6.34776e-05
0.00116934 3.00775e-05 2.10501e-06
3.00775e-05 0.0001391 2.53713e-07
2.10501e-06 2.53713e-07 6.19845e-05
0.00107902 1.73391e-05 -2.41003e-07
1.73391e-05 9.21649e-05 4.17847e-07
-2.41003e-07 4.17847e-07 8.84045e-06
-0.000683699 9.68837e-06 -4.05875e-06
9.68837e-06 -0.000255647 -1.47085e-05
-4.05875e-06 -1.47085e-05 -0.00053196
0.000397933 -2.41798e-05 -8.02072e-07
-2.41798e-05 -0.000142392 2.5231e-06
-8.02072e-07 2.5231e-06 -0.000277437
0.000919341 9.51536e-06 2.43241e-06
9.51536e-06 1.6605e-05 3.98515e-06
2.43241e-06 3.98515e-06 -7.51123e-05
0.00105338 3.54185e-05 2.16499e-08
3.54185e-05 0.000174577 2.0039e-07
2.16499e-08 2.0039e-07 3.98604e-05
0.000780994 2.42784e-05 1.76197e-06
2.42784e-05 0.000262852 -8.33392e-07
1.76197e-06 -8.33392e-07 9.83981e-05
-0.00119593 5.18868e-05 -2.31519e-06
5.18868e-05 -0.000784734 1.62954e-05
-2.31519e-06 1.62954e-05 -0.000955071
0.00270536 -1.76481e-05 -7.94484e-06
-1.76481e-05 0.00122011 -1.21597e-07
-7.94484e-06 -1.21597e-07 0.0012276
0.000927488 -5.15653e-06 -7.68464e-07
-5.15653e-06 0.000177971 -1.23448e-06
-7.68464e-07 -1.23448e-06 8.28474e-05
0.000649385 -4.76848e-06 4.18319e-06
-4.76848e-06 -7.97379e-05 2.53774e-07
4.18319e-06 2.53774e-07 -0.000212888
4.7833e-05 -2.87265e-05 1.02802e-05
-2.87265e-05 0.000135474 1.5288e-05
1.02802e-05 1.5288e-05 -0.000103263
0.000925798 -9.14183e-05 -6.51097e-06
-9.14183e-05 -3.14598e-05 -4.77743e-05
-6.51097e-06 -4.77743e-05 -0.000328129
0.00116694 -1.3476e-05 1.94855e-05
-1.3476e-05 0.000275343 -2.06067e-06
1.94855e-05 -2.06067e-06 0.000188083
0.0015581 0.000140232 -3.08289e-05
0.000140232 -0.000202617 3.24463e-05
-3.08289e-05 3.24463e-05 -0.00122488
-0.00125785 0.000214432 -5.37927e-05
0.000214432 -0.000886768 2.90465e-05
-5.37927e-05 2.90465e-05 -0.000877964
0.0012667 9.42844e-05 -2.41429e-06
9.42844e-05 0.000307783 2.23324e-06
-2.41429e-06 2.23324e-06 0.000465718
0.00158472 -7.30571e-05 2.15942e-06
-7.30571e-05 0.000363366 2.16858e-06
2.15942e-06 2.16858e-06 0.000343574
0.00124349 2.5462e-05 -2.2038e-06
2.5462e-05 0.000326799 1.26104e-07
-2.2038e-06 1.26104e-07 0.000345294
-0.00188275 0.000117099 -6.15363e-06
0.000117099 -0.000959116 3.37268e-06
-6.15363e-06 3.37268e-06 -0.000979991
0.00330609 -0.000145553 -1.14952e-05
-0.000145553 0.000686546 2.1193e-05
-1.14952e-05 2.1193e-05 0.000241971
0.00502101 0.000252942 -6.89408e-06
0.000252942 0.00134063 3.0964e-06
-6.89408e-06 3.0964e-06 0.000513922
0.000979064 -9.76187e-05 5.82782e-06
-9.76187e-05 -0.000187411 7.60423e-06
5.82782e-06 7.60423e-06 -0.000130291
-0.00273297 4.99728e-05 5.56037e-05
4.99728e-05 -0.00170253 -1.47613e-05
5.56037e-05 -1.47613e-05 -0.00170377
0.00500544 0.000245484 1.17483e-05
0.000245484 0.00144619 -4.05022e-06
1.17483e-05 -4.05022e-06 0.00079189
0.0031695 1.00865e-05 -1.46326e-05
1.00865e-05 0.000560993 2.90741e-05
-1.46326e-05 2.90741e-05 0.00024744
0.000538097 -8.16834e-05 -2.0275e-06
-8.16834e-05 3.57974e-05 -1.65745e-06
-2.0275e-06 -1.65745e-06 -0.000269755
0.00112457 -0.000132485 5.83297e-07
-0.000132485 8.46235e-05 1.07016e-06
5.83297e-07 1.07016e-06 -0.000123873
0.0016493 -0.000164651 -3.69426e-06
-0.000164651 0.000160764 3.69334e-06
-3.69426e-06 3.69334e-06 2.96153e-05
0.000426459 -7.31067e-05 -1.54979e-06
-7.31067e-05 -0.000155776 -1.80167e-06
-1.54979e-06 -1.80167e-06 -0.000352238
0.00125639 -0.000111624 -1.38469e-06
-0.000111624 9.48691e-05 -1.39047e-06
-1.38469e-06 -1.39047e-06 -4.79908e-05
0.00204978 -0.000118012 -5.69666e-06
-0.000118012 0.000347627 -7.86452e-07
-5.69666e-06 -7.86452e-07 0.000258197
0.00120334 -8.75311e-05 -5.20943e-07
-8.75311e-05 0.000121446 -2.56687e-06
-5.20943e-07 -2.56687e-06 -1.95421e-05
0.0013212 -9.07763e-05 1.04695e-06
-9.07763e-05 0.000109268 -7.41773e-07
1.04695e-06 -7.41773e-07 -1.85735e-06
0.00167324 -8.363e-05 -1.6469e-06
-8.363e-05 0.000197285 -2.33169e-06
-1.6469e-06 -2.33169e-06 0.000122111
0.00117507 -7.75953e-05 1.85247e-07
-7.75953e-05 8.48778e-05 -1.36957e-06
1.85247e-07 -1.36957e-06 -3.38513e-05
0.00126083 -7.48447e-05 -2.97254e-07
-7.48447e-05 6.24837e-05 -5.90856e-07
-2.97254e-07 -5.90856e-07 -3.64628e-05
0.00142772 -6.88542e-05 -1.12993e-06
-6.88542e-05 8.27929e-05 -1.93482e-06
-1.12993e-06 -1.93482e-06 1.26893e-05
0.00139991 -6.45927e-05 -1.23481e-06
-6.45927e-05 8.95266e-05 -1.1837e-06
-1.23481e-06 -1.1837e-06 2.03186e-05
0.00131167 -7.07103e-05 -1.69774e-06
-7.07103e-05 9.95437e-05 -2.08258e-07
-1.69774e-06 -2.08258e-07 1.07572e-05
0.00130258 -6.9346e-05 5.70223e-07
-6.9346e-05 7.36147e-05 2.29669e-07
5.70223e-07 2.29669e-07 -1.39571e-05
0.000853341 -5.92044e-05 -1.29345e-06
-5.92044e-05 -6.76144e-05 1.46778e-06
-1.29345e-06 1.46778e-06 -0.000157109
0.00126056 -7.21815e-05 7.33028e-07
-7.21815e-05 0.000119909 -6.87312e-07
7.33028e-07 -6.87312e-07 2.26298e-05
0.00114737 -7.15557e-05 1.50431e-06
-7.15557e-05 4.4927e-05 -1.31492e-06
1.50431e-06 -1.31492e-06 -5.86365e-05
0.00105309 -5.92561e-05 -3.03192e-07
-5.92561e-05 7.08948e-05 8.73231e-07
-3.03192e-07 8.73231e-07 -6.65122e-06
0.00103917 -6.24046e-05 2.71354e-07
-6.24046e-05 5.2691e-05 -1.51462e-07
2.71354e-07 -1.51462e-07 -3.4124e-05
0.000963991 -6.51784e-05 8.69484e-07
-6.51784e-05 3.72e-06 -1.92992e-06
8.69484e-07 -1.92992e-06 -9.65133e-05
0.000997451 -3.77015e-05 -1.23046e-06
-3.77015e-05 5.77371e-05 2.5507e-07
-1.23046e-06 2.5507e-07 -1.07571e-05
0.00105886 -5.58159e-05 -1.93572e-07
-5.58159e-05 8.14768e-05 -2.79505e-07
-1.93572e-07 -2.79505e-07 6.2417e-06
0.000975763 -5.76082e-05 2.99047e-08
-5.76082e-05 3.87231e-05 -1.23247e-06
2.99047e-08 -1.23247e-06 -3.97193e-05
0.00090623 7.38707e-06 -2.17434e-06
7.38707e-06 1.99986e-05 2.02065e-06
-2.17434e-06 2.02065e-06 -3.01239e-05
0.000992636 -1.92957e-05 3.4616e-07
-1.92957e-05 5.78922e-05 2.23071e-07
3.4616e-07 2.23071e-07 -1.01529e-05
0.000971767 -4.71353e-05 6.94957e-07
-4.71353e-05 4.93267e-05 3.39652e-07
6.94957e-07 3.39652e-07 -2.71636e-05
0.000786299 2.64249e-05 -3.98794e-06
2.64249e-05 -4.37478e-05 3.48612e-06
-3.98794e-06 3.48612e-06 -5.73646e-05
0.000893936 9.60938e-06 -2.06968e-07
9.60938e-06 5.48522e-06 -4.94171e-08
-2.06968e-07 -4.94171e-08 -4.00846e-05
0.00102209 -5.37767e-06 7.12825e-07
-5.37767e-06 7.03137e-05 -1.05973e-06
7.12825e-07 -1.05973e-06 4.51226e-06
0.00243871 4.07033e-05 -7.71023e-06
4.07033e-05 0.000796528 1.57671e-06
-7.71023e-06 1.57671e-06 0.000811051
0.000805077 2.39593e-05 1.6031e-07
2.39593e-05 -4.00572e-05 3.73269e-08
1.6031e-07 3.73269e-08 -5.16075e-05
0.00090108 1.18094e-05 2.3004e-06
1.18094e-05 5.12591e-06 -2.07802e-06
2.3004e-06 -2.07802e-06 -3.69407e-05
0.00242155 3.30024e-05 4.65368e-07
3.30024e-05 0.000780433 4.65336e-08
4.65368e-07 4.65336e-08 0.000797059
0.000843943 2.22573e-05 3.12723e-06
2.22573e-05 -2.57195e-05 -3.49076e-06
3.12723e-06 -3.49076e-06 -3.49215e-05
0.00236089 2.90927e-05 1.7489e-05
2.90927e-05 0.000744721 -3.89338e-06
1.7489e-05 -3.89338e-06 0.000762695
0.0010871 4.17125e-05 -7.08052e-07
4.17125e-05 9.75619e-05 -3.07691e-07
-7.08052e-07 -3.07691e-07 2.34479e-05
0.00101294 2.63935e-05 -1.43132e-07
2.63935e-05 5.75327e-05 -2.13235e-07
-1.43132e-07 -2.13235e-07 -1.56009e-05
0.000989392 2.64763e-06 -9.65503e-07
2.64763e-06 4.41843e-05 -1.6386e-06
-9.65503e-07 -1.6386e-06 -1.95732e-05
0.000894225 -1.683e-05 -1.50438e-06
-1.683e-05 -5.22158e-06 -2.49e-06
-1.50438e-06 -2.49e-06 -4.40032e-05
0.000983487 5.92566e-07 6.65054e-08
5.92566e-07 3.66792e-05 -7.13224e-09
6.65054e-08 -7.13224e-09 -2.31195e-05
0.000999416 2.4203e-05 5.77973e-07
2.4203e-05 4.75058e-05 1.20972e-06
5.77973e-07 1.20972e-06 -2.36939e-05
0.000853428 -1.93206e-05 -2.59298e-06
-1.93206e-05 -2.90325e-05 -3.54562e-06
-2.59298e-06 -3.54562e-06 -3.63565e-05
0.000905138 -1.55286e-05 -1.40738e-07
-1.55286e-05 -3.28779e-06 -1.64311e-08
-1.40738e-07 -1.64311e-08 -3.93177e-05
0.000979375 9.31918e-07 5.62297e-07
9.31918e-07 3.3338e-05 1.54297e-06
5.62297e-07 1.54297e-06 -2.29447e-05
0.00237079 -2.52855e-05 -1.57344e-05
-2.52855e-05 0.000742329 -4.03589e-06
-1.57344e-05 -4.03589e-06 0.000761487
0.000847803 -1.7112e-05 -1.35278e-07
-1.7112e-05 -3.56471e-05 -9.52521e-09
-1.35278e-07 -9.52521e-09 -4.13e-05
0.000919904 -1.19023e-05 8.25367e-07
-1.19023e-05 2.3829e-06 2.01912e-06
8.25367e-07 2.01912e-06 -3.15433e-05
0.00232249 -2.13189e-05 -8.52705e-07
-2.13189e-05 0.000712541 4.58757e-08
-8.52705e-07 4.58757e-08 0.000733127
0.000840064 -1.48298e-05 1.29291e-06
-1.48298e-05 -4.36963e-05 3.41835e-06
1.29291e-06 3.41835e-06 -4.735e-05
0.00225569 -1.69737e-05 1.0019e-05
-1.69737e-05 0.000673783 3.95267e-06
1.0019e-05 3.95267e-06 0.000695892
0.000398117 -2.33199e-05 9.21495e-08
-2.33199e-05 -8.77945e-05 -1.6998e-07
9.21495e-08 -1.6998e-07 -9.78235e-05
0.000543599 6.81427e-06 -1.24822e-06
6.81427e-06 -4.10858e-05 -1.07543e-06
-1.24822e-06 -1.07543e-06 -0.000128385
0.000874177 6.10255e-06 8.22183e-06
6.10255e-06 4.00549e-05 -1.75527e-06
8.22183e-06 -1.75527e-06 -8.51819e-05
0.00102858 4.55135e-05 1.91376e-08
4.55135e-05 6.90802e-05 2.02441e-07
1.91376e-08 2.02441e-07 -1.0056e-05
0.00118042 5.73955e-05 -8.69398e-07
5.73955e-05 0.000150071 1.53568e-07
-8.69398e-07 1.53568e-07 7.21849e-05
0.0010601 5.36069e-05 -8.8672e-07
5.36069e-05 8.33568e-05 -3.86304e-07
-8.8672e-07 -3.86304e-07 1.7455e-06
0.00112736 1.83477e-05 1.3928e-08
1.83477e-05 0.000113942 5.12376e-07
1.3928e-08 5.12376e-07 3.96995e-05
0.00112136 4.31755e-05 5.86729e-07
4.31755e-05 0.000115229 8.7695e-07
5.86729e-07 8.7695e-07 3.67618e-05
0.000991279 3.16418e-05 3.53471e-07
3.16418e-05 4.58402e-05 1.42845e-06
3.53471e-07 1.42845e-06 -3.41195e-05
0.000997722 3.50874e-05 -1.5747e-07
3.50874e-05 5.36897e-05 4.65568e-08
-1.5747e-07 4.65568e-08 -2.79819e-05
0.00106903 4.49049e-05 1.26342e-07
4.49049e-05 8.85525e-05 6.07863e-08
1.26342e-07 6.07863e-08 5.80257e-06
0.00107917 4.75468e-05 -1.25235e-06
4.75468e-05 0.000104957 -1.52977e-06
-1.25235e-06 -1.52977e-06 1.74168e-05
0.000901043 4.05711e-05 -1.49944e-06
4.05711e-05 1.03093e-05 -2.53572e-06
-1.49944e-06 -2.53572e-06 -7.45728e-05
0.00106713 3.98508e-05 2.02857e-07
3.98508e-05 9.07564e-05 5.28386e-07
2.02857e-07 5.28386e-07 9.21249e-06
0.00123333 3.92353e-05 2.69988e-07
3.92353e-05 0.000174571 -5.95578e-08
2.69988e-07 -5.95578e-08 9.06783e-05
-0.0027989 -0.000100409 4.45646e-05
-0.000100409 -0.00152372 2.24147e-05
4.45646e-05 2.24147e-05 -0.0015477
0.00116761 -7.18199e-05 -9.08905e-07
-7.18199e-05 0.000268381 -7.72475e-07
-9.08905e-07 -7.72475e-07 0.000384426
0.000587263 1.28207e-05 1.17387e-05
1.28207e-05 -9.17317e-05 3.09037e-06
1.17387e-05 3.09037e-06 -0.000159818
-0.000258055 -0.000148935 8.29124e-07
-0.000148935 -0.000709344 -7.94235e-06
8.29124e-07 -7.94235e-06 -0.00039922
0.00385614 -0.000297973 -1.43697e-05
-0.000297973 0.00101148 -5.43318e-05
-1.43697e-05 -5.43318e-05 0.00114973
0.00509013 -8.31384e-05 3.67172e-05
-8.31384e-05 0.000798221 3.00472e-05
3.67172e-05 3.00472e-05 0.000294704
0.000543762 -4.26877e-05 -2.71502e-05
-4.26877e-05 -0.000124514 6.57993e-05
-2.71502e-05 6.57993e-05 -0.000661265
0.00191672 0.000114555 -3.50869e-05
0.000114555 0.000228758 -2.93444e-05
-3.50869e-05 -2.93444e-05 -0.000175098
0.0025205 -0.000257506 -1.20457e-06
-0.000257506 0.000741671 -2.05398e-06
-1.20457e-06 -2.05398e-06 0.00077361
0.00317831 -0.000101169 3.31184e-05
-0.000101169 0.00014708 4.4623e-05
3.31184e-05 4.4623e-05 -0.000587238
0.00144772 0.000132478 -7.04736e-05
0.000132478 -8.17777e-05 -8.50233e-05
-7.04736e-05 -8.50233e-05 -0.000492689
0.00304724 -1.79757e-05 -3.18068e-05
-1.79757e-05 0.000423678 -1.0202e-05
-3.18068e-05 -1.0202e-05 -0.000336633
0.00218342 0.000143763 7.13525e-06
0.000143763 0.000650598 -7.18389e-06
7.13525e-06 -7.18389e-06 0.000508664
0.000908458 6.77698e-05 -3.98029e-07
6.77698e-05 3.01198e-05 -4.9979e-07
-3.98029e-07 -4.9979e-07 -4.22754e-05
0.00133539 3.71608e-05 1.72376e-06
3.71608e-05 0.000215662 4.87256e-07
1.72376e-06 4.87256e-07 0.000138601
-0.000294585 -1.11036e-05 -1.18494e-05
-1.11036e-05 -0.000236481 -5.32229e-06
-1.18494e-05 -5.32229e-06 -0.000394781
0.00162564 5.39177e-05 2.45296e-06
5.39177e-05 0.00043892 -1.6031e-07
2.45296e-06 -1.6031e-07 0.000306562
0.000936877 0.000106532 5.91892e-06
0.000106532 0.000172113 2.09055e-06
5.91892e-06 2.09055e-06 3.29913e-05
8.56373e-05 0.000109127 2.1012e-05
0.000109127 -0.000374321 2.12171e-05
2.1012e-05 2.12171e-05 -0.000502153
-0.000788683 -1.95849e-05 7.3629e-05
-1.95849e-05 -0.000677974 -5.31949e-06
7.3629e-05 -5.31949e-06 -0.000648591
0.000740717 -1.155e-05 -9.69951e-06
-1.155e-05 7.73941e-05 4.08835e-07
-9.69951e-06 4.08835e-07 6.17437e-05
-0.000302231 -3.4993e-06 1.57773e-05
-3.4993e-06 -0.000576368 -1.0526e-06
1.57773e-05 -1.0526e-06 -0.000681764
0.00157866 -7.13151e-05 -2.65885e-05
-7.13151e-05 0.000427974 1.17891e-06
-2.65885e-05 1.17891e-06 0.000341882
0.00124638 -0.000104277 -4.07648e-05
-0.000104277 -9.55151e-05 -5.26674e-06
-4.07648e-05 -5.26674e-06 -0.000331539
0.00105379 1.37296e-05 -2.99618e-06
1.37296e-05 0.00021702 -2.49767e-06
-2.99618e-06 -2.49767e-06 0.000218211
0.00232775 0.000234578 1.40913e-05
0.000234578 0.000217707 -2.79684e-05
1.40913e-05 -2.79684e-05 -0.000678856
0.00408492 0.000179688 -9.56765e-05
0.000179688 0.00179181 2.21727e-05
-9.56765e-05 2.21727e-05 0.00171055
0.00163126 -0.00011305 1.22954e-05
-0.00011305 0.000177885 -9.97998e-07
1.22954e-05 -9.97998e-07 0.000189484
-0.000100533 8.40118e-05 -3.06024e-05
8.40118e-05 -0.000316966 3.37826e-06
-3.06024e-05 3.37826e-06 -0.000387793
0.00321414 0.00015773 -7.63973e-06
0.00015773 0.000649154 6.44749e-06
-7.63973e-06 6.44749e-06 -0.000175401
0.00096931 2.99029e-05 -5.89873e-06
2.99029e-05 -0.000308008 3.6835e-06
-5.89873e-06 3.6835e-06 -0.000379247
0.000389269 -7.96445e-05 8.43784e-07
-7.96445e-05 -0.000537309 5.76989e-06
8.43784e-07 5.76989e-06 -0.00045564
0.00471069 9.49947e-05 1.84488e-05
9.49947e-05 0.00134266 8.29411e-06
1.84488e-05 8.29411e-06 0.00067551
0.00146715 7.48389e-05 -2.29403e-06
7.48389e-05 0.000280279 -1.08161e-06
-2.29403e-06 -1.08161e-06 1.80116e-05
-0.000431503 -9.44741e-05 9.52895e-07
-9.44741e-05 -0.00063268 -7.29364e-06
9.52895e-07 -7.29364e-06 -0.000852635
0.00154583 -0.000158379 -2.08995e-07
-0.000158379 0.000131572 -4.7642e-07
-2.08995e-07 -4.7642e-07 -4.18642e-06
0.00129921 -0.000139692 -1.70909e-05
-0.000139692 -0.000192916 7.92801e-06
-1.70909e-05 7.92801e-06 -0.000265992
0.0012217 -0.000109933 -1.53844e-06
-0.000109933 7.02331e-05 -3.3366e-06
-1.53844e-06 -3.3366e-06 -7.0739e-05
0.00146497 -0.000106566 -1.51274e-06
-0.000106566 5.79758e-05 6.00553e-07
-1.51274e-06 6.00553e-07 -2.88977e-05
0.002057 -9.01936e-05 -5.74152e-06
-9.01936e-05 0.000263029 3.10811e-06
-5.74152e-06 3.10811e-06 0.000226831
0.00105523 -8.31521e-05 2.34056e-06
-8.31521e-05 -1.867e-05 -5.85092e-07
2.34056e-06 -5.85092e-07 -0.000128137
0.0013955 -7.78855e-05 -4.33125e-07
-7.78855e-05 5.54002e-05 -3.53298e-07
-4.33125e-07 -3.53298e-07 -1.82092e-05
0.00159884 -6.733e-05 -9.38743e-07
-6.733e-05 8.37056e-05 -7.83801e-08
-9.38743e-07 -7.83801e-08 4.23998e-05
0.00109229 -7.01751e-05 1.64691e-06
-7.01751e-05 -2.52933e-05 -3.62685e-08
1.64691e-06 -3.62685e-08 -0.000122704
0.00132611 -6.66936e-05 1.96233e-07
-6.66936e-05 3.05312e-05 2.86491e-07
1.96233e-07 2.86491e-07 -3.89663e-05
0.00134515 -5.93956e-05 -4.57374e-07
-5.93956e-05 1.13023e-05 -1.84051e-07
-4.57374e-07 -1.84051e-07 -3.96183e-05
0.00158839 -5.96369e-05 -5.1132e-07
-5.96369e-05 0.000166875 -1.92692e-07
-5.1132e-07 -1.92692e-07 0.000108491
0.00138616 -6.29695e-05 -6.43866e-07
-6.29695e-05 8.23116e-05 1.27679e-06
-6.43866e-07 1.27679e-06 1.50249e-05
0.00134332 -6.35428e-05 -7.19953e-07
-6.35428e-05 8.42865e-05 -1.86844e-06
-7.19953e-07 -1.86844e-06 1.09747e-05
0.00128939 -6.70561e-05 -1.55976e-06
-6.70561e-05 0.000104314 4.04602e-07
-1.55976e-06 4.04602e-07 1.96474e-05
0.00136781 -7.13864e-05 6.56984e-07
-7.13864e-05 0.000128744 -2.21491e-07
6.56984e-07 -2.21491e-07 3.99713e-05
0.0012703 -6.71244e-05 2.07651e-06
-6.71244e-05 5.74671e-05 1.33485e-06
2.07651e-06 1.33485e-06 -2.82908e-05
0.0008768 -5.65737e-05 -1.45109e-06
-5.65737e-05 -4.22195e-05 1.85333e-06
-1.45109e-06 1.85333e-06 -0.000123834
0.00108883 -6.45313e-05 9.94253e-08
-6.45313e-05 4.9978e-05 -7.22805e-08
9.94253e-08 -7.22805e-08 -3.86144e-05
0.00136554 -7.41729e-05 2.25033e-06
-7.41729e-05 0.000172067 -2.18265e-06
2.25033e-06 -2.18265e-06 7.59387e-05
0.000997708 -4.45083e-05 -9.30736e-07
-4.45083e-05 5.17452e-05 5.09463e-07
-9.30736e-07 5.09463e-07 -1.79622e-05
0.00108555 -5.96371e-05 6.75208e-08
-5.96371e-05 8.598e-05 -1.55725e-07
6.75208e-08 -1.55725e-07 8.33717e-06
0.000848009 -5.74181e-05 4.97728e-07
-5.74181e-05 -3.9007e-05 -2.20674e-06
4.97728e-07 -2.20674e-06 -0.00012595
0.000896304 -1.81953e-06 -2.55299e-06
-1.81953e-06 2.03268e-05 1.7887e-06
-2.55299e-06 1.7887e-06 -3.36562e-05
0.00102425 -3.91159e-05 -7.30646e-08
-3.91159e-05 6.98992e-05 1.15723e-08
-7.30646e-08 1.15723e-08 1.50451e-06
0.00109821 -5.63769e-05 4.92342e-07
-5.63769e-05 9.99725e-05 -4.27485e-07
4.92342e-07 -4.27485e-07 2.47065e-05
0.000754338 2.99889e-05 -4.08444e-06
2.99889e-05 -5.06708e-05 3.51163e-06
-4.08444e-06 3.51163e-06 -6.74481e-05
0.000902931 8.71171e-06 -1.33301e-08
8.71171e-06 1.73481e-05 1.6555e-08
-1.33301e-08 1.6555e-08 -3.29433e-05
0.00103023 -2.12614e-05 1.28403e-06
-2.12614e-05 7.57261e-05 -4.06452e-07
1.28403e-06 -4.06452e-07 7.78512e-06
0.00254215 4.12724e-05 -2.15597e-05
4.12724e-05 0.000853669 3.67518e-06
-2.15597e-05 3.67518e-06 0.000867061
0.000801839 2.71401e-05 -1.9993e-09
2.71401e-05 -3.53014e-05 3.00479e-09
-1.9993e-09 3.00479e-09 -4.91789e-05
0.000912851 2.79802e-06 2.49969e-06
2.79802e-06 1.45017e-05 -2.05823e-06
2.49969e-06 -2.05823e-06 -3.10471e-05
0.00175962 3.26727e-05 8.1543e-06
3.26727e-05 0.00044991 -1.02365e-06
8.1543e-06 -1.02365e-06 0.000461294
0.000829704 2.45776e-05 3.74913e-06
2.45776e-05 -2.75828e-05 -3.5111e-06
3.74913e-06 -3.5111e-06 -3.92263e-05
0.00242867 3.30753e-05 1.94095e-05
3.30753e-05 0.000785135 -3.89091e-06
1.94095e-05 -3.89091e-06 0.000801417
0.00107914 4.43569e-05 -5.2874e-07
4.43569e-05 9.59031e-05 3.22646e-07
-5.2874e-07 3.22646e-07 2.23028e-05
0.00102857 3.84908e-05 1.78059e-07
3.84908e-05 6.7305e-05 3.91598e-07
1.78059e-07 3.91598e-07 -7.09042e-06
0.000981304 -1.73182e-07 -1.20463e-06
-1.73182e-07 4.28852e-05 -1.17207e-06
-1.20463e-06 -1.17207e-06 -2.34472e-05
0.00103715 3.35393e-05 5.82582e-07
3.35393e-05 7.10235e-05 9.33769e-07
5.82582e-07 9.33769e-07 -2.61041e-06
0.000990362 -2.20577e-06 -3.18004e-08
-2.20577e-06 4.44966e-05 6.77416e-08
-3.18004e-08 6.77416e-08 -1.90218e-05
0.000894166 -1.0569e-05 -2.08519e-06
-1.0569e-05 -8.58593e-07 -2.529e-06
-2.08519e-06 -2.529e-06 -4.33529e-05
0.000842759 -2.17495e-05 -3.03789e-06
-2.17495e-05 -2.96782e-05 -3.68971e-06
-3.03789e-06 -3.68971e-06 -3.87992e-05
0.000903155 -1.49715e-05 -1.81441e-07
-1.49715e-05 -1.3503e-06 -5.20454e-08
-1.81441e-07 -5.20454e-08 -3.99296e-05
0.000981843 -5.77589e-06 4.23956e-07
-5.77589e-06 3.60341e-05 1.7648e-06
4.23956e-07 1.7648e-06 -2.3498e-05
0.00239919 -2.91154e-05 -1.76565e-05
-2.91154e-05 0.000761884 -3.97016e-06
-1.76565e-05 -3.97016e-06 0.000779843
0.000839299 -1.91367e-05 -1.5142e-07
-1.91367e-05 -3.59193e-05 7.70491e-09
-1.5142e-07 7.70491e-09 -4.31833e-05
0.00091678 -1.03586e-05 1.42156e-06
-1.03586e-05 2.10311e-06 2.17744e-06
1.42156e-06 2.17744e-06 -3.37615e-05
0.00237572 -2.53733e-05 -7.20243e-07
-2.53733e-05 0.000744306 5.18961e-08
-7.20243e-07 5.18961e-08 0.000763572
0.0008313 -1.69909e-05 1.74313e-06
-1.69909e-05 -4.37896e-05 3.48555e-06
1.74313e-06 3.48555e-06 -4.93682e-05
0.0023204 -2.13154e-05 1.2214e-05
-2.13154e-05 0.000710955 3.97403e-06
1.2214e-05 3.97403e-06 0.000731701
0.000210744 4.2501e-05 0.000100373
4.2501e-05 -0.000286086 9.36667e-06
0.000100373 9.36667e-06 -0.000478934
0.00158755 -3.25555e-05 3.94808e-06
-3.25555e-05 0.000589523 -1.03361e-08
3.94808e-06 -1.03361e-08 0.000594483
0.000545267 9.4278e-06 1.44986e-05
9.4278e-06 -3.8267e-05 2.66428e-06
1.44986e-05 2.66428e-06 -0.000125524
0.00100378 4.31026e-05 1.26847e-06
4.31026e-05 5.59029e-05 5.93375e-07
1.26847e-06 5.93375e-07 -2.33534e-05
0.00101806 4.87833e-05 6.39968e-07
4.87833e-05 6.40475e-05 5.91901e-08
6.39968e-07 5.91901e-08 -1.7641e-05
0.00109048 5.52684e-05 -4.24139e-08
5.52684e-05 0.000107017 -6.33201e-08
-4.24139e-08 -6.33201e-08 2.95851e-05
0.00114315 5.95981e-05 -4.6419e-07
5.95981e-05 0.000136757 2.58754e-08
-4.6419e-07 2.58754e-08 5.88811e-05
0.00109858 5.66189e-05 -1.87014e-06
5.66189e-05 0.000112312 -1.2341e-07
-1.87014e-06 -1.2341e-07 3.05061e-05
0.00103928 3.82564e-05 4.93236e-07
3.82564e-05 7.44378e-05 1.3457e-06
4.93236e-07 1.3457e-06 -7.29805e-06
0.00105688 4.84569e-05 1.24655e-06
4.84569e-05 8.32279e-05 1.10438e-06
1.24655e-06 1.10438e-06 2.54259e-07
0.000974658 5.21828e-05 -4.44149e-07
5.21828e-05 5.48449e-05 -3.37641e-07
-4.44149e-07 -3.37641e-07 -3.27843e-05
0.000563263 4.57734e-05 -1.71142e-06
4.57734e-05 -0.00014573 2.57117e-07
-1.71142e-06 2.57117e-07 -0.000229564
0.000812461 5.27444e-05 -2.11278e-06
5.27444e-05 -2.76669e-05 -1.82306e-06
-2.11278e-06 -1.82306e-06 -0.000117027
0.00182583 9.85848e-05 4.82849e-07
9.85848e-05 0.000438584 -4.29681e-06
4.82849e-07 -4.29681e-06 0.000336582
0.00108671 4.50515e-05 -1.44245e-06
4.50515e-05 0.000110625 7.55667e-08
-1.44245e-06 7.55667e-08 2.39531e-05
0.00105841 3.70449e-05 6.97973e-07
3.70449e-05 9.03157e-05 1.16885e-06
6.97973e-07 1.16885e-06 6.47571e-06
0.00717812 -9.34003e-05 -8.26263e-06
-9.34003e-05 0.00196172 -1.2787e-05
-8.26263e-06 -1.2787e-05 0.00130199
-0.000133387 -0.000126409 6.32678e-06
-0.000126409 -0.000385586 5.20544e-06
6.32678e-06 5.20544e-06 -0.000473629
0.00210203 -8.01309e-05 -9.089e-06
-8.01309e-05 0.000771356 -3.69149e-06
-9.089e-06 -3.69149e-06 0.000889689
-0.00204515 -0.000157595 -3.14646e-05
-0.000157595 -0.00134283 -2.51589e-05
-3.14646e-05 -2.51589e-05 -0.00120716
0.00746515 -0.000232843 6.47515e-05
-0.000232843 0.00203357 4.78308e-05
6.47515e-05 4.78308e-05 0.00105168
0.00160194 9.57616e-05 3.28774e-05
9.57616e-05 0.000356393 9.76858e-06
3.28774e-05 9.76858e-06 0.000124675
0.00153791 0.000126568 -2.86586e-05
0.000126568 7.04027e-05 -2.50304e-05
-2.86586e-05 -2.50304e-05 -0.000238774
0.00513339 -0.00018212 2.40738e-05
-0.00018212 0.00128148 1.65021e-05
2.40738e-05 1.65021e-05 0.000639932
0.00128232 5.41586e-05 -3.92457e-05
5.41586e-05 -6.50464e-05 -4.92505e-05
-3.92457e-05 -4.92505e-05 -0.000362535
0.00223416 0.000171508 1.75994e-05
0.000171508 0.000471257 8.74427e-06
1.75994e-05 8.74427e-06 0.000314003
0.000921147 9.77238e-05 -2.50626e-07
9.77238e-05 7.59451e-05 -5.33408e-06
-2.50626e-07 -5.33408e-06 -7.40519e-05
0.000876461 5.2872e-05 8.86443e-07
5.2872e-05 2.67521e-06 3.2461e-06
8.86443e-07 3.2461e-06 -6.54071e-05
0.00201066 0.000139313 -2.01434e-05
0.000139313 0.000663718 -2.17165e-05
-2.01434e-05 -2.17165e-05 0.000541671
-5.31424e-05 0.000125668 -3.80315e-06
0.000125668 -0.000538208 1.95106e-05
-3.80315e-06 1.95106e-05 -0.000655938
0.000747859 3.80073e-05 -1.60535e-06
3.80073e-05 -0.000417673 -4.96289e-06
-1.60535e-06 -4.96289e-06 -0.000889735
0.00155419 6.53635e-06 5.30471e-07
6.53635e-06 0.000324287 3.31005e-06
5.30471e-07 3.31005e-06 0.000213981
-0.00110394 -7.20817e-06 -6.55878e-06
-7.20817e-06 -0.000994603 -3.72004e-07
-6.55878e-06 -3.72004e-07 -0.00103008
0.0025789 -0.000132269 -3.56177e-05
-0.000132269 0.000687676 -2.24385e-06
-3.56177e-05 -2.24385e-06 0.000656488
0.00151951 2.5146e-05 3.05691e-05
2.5146e-05 -0.000414484 -2.51811e-05
3.05691e-05 -2.51811e-05 -0.000577423
0.000261729 -9.62548e-07 -0.000117832
-9.62548e-07 -0.000276996 2.26932e-05
-0.000117832 2.26932e-05 -0.000469845
0.00544636 0.00026331 -1.99565e-05
0.00026331 0.00181651 5.64399e-06
-1.99565e-05 5.64399e-06 0.00101633
0.0012289 -9.39213e-05 1.42918e-06
-9.39213e-05 -0.000116468 -1.77697e-06
1.42918e-06 -1.77697e-06 -5.63924e-05
0.00477773 0.000161438 2.87589e-05
0.000161438 0.00139858 3.0083e-06
2.87589e-05 3.0083e-06 0.000807929
0.00198094 8.25915e-05 2.63236e-05
8.25915e-05 0.000153448 -8.38879e-06
2.63236e-05 -8.38879e-06 -0.00016183
0.00256007 -6.60421e-05 -7.64673e-06
-6.60421e-05 0.000379364 2.1208e-06
-7.64673e-06 2.1208e-06 0.000417832
0.00109465 6.93474e-05 -2.92728e-05
6.93474e-05 0.000294393 1.1472e-05
-2.92728e-05 1.1472e-05 5.98742e-05
0.00139554 -0.00015034 9.04353e-06
-0.00015034 7.99945e-05 -7.32885e-06
9.04353e-06 -7.32885e-06 -5.9548e-05
0.00169496 -0.000142775 -4.05492e-06
-0.000142775 2.75647e-06 1.5212e-06
-4.05492e-06 1.5212e-06 -6.4088e-05
0.00190551 -8.50088e-05 -1.26033e-05
-8.50088e-05 2.01766e-05 3.90072e-06
-1.26033e-05 3.90072e-06 -1.10426e-06
0.000820456 -9.40725e-05 5.39811e-06
-9.40725e-05 -0.000258273 -1.31843e-06
5.39811e-06 -1.31843e-06 -0.000341925
0.00147438 -8.15891e-05 2.07168e-06
-8.15891e-05 -1.16629e-05 1.05035e-06
2.07168e-06 1.05035e-06 -4.54058e-05
0.00161901 -5.54019e-05 -1.40123e-06
-5.54019e-05 1.6154e-05 4.57195e-06
-1.40123e-06 4.57195e-06 -4.73632e-07
0.00111378 -7.25031e-05 1.51633e-06
-7.25031e-05 -8.95495e-05 1.42399e-06
1.51633e-06 1.42399e-06 -0.000161381
0.00144708 -6.60736e-05 4.76686e-08
-6.60736e-05 9.17408e-06 1.65904e-06
4.76686e-08 1.65904e-06 -3.28061e-05
0.00150403 -5.36954e-05 9.0025e-07
-5.36954e-05 3.0931e-05 2.7367e-06
9.0025e-07 2.7367e-06 -5.29516e-06
0.00124018 -6.48941e-05 2.33505e-06
-6.48941e-05 -1.41099e-05 2.08187e-06
2.33505e-06 2.08187e-06 -8.30173e-05
0.00139277 -6.0704e-05 8.0455e-08
-6.0704e-05 3.60449e-05 9.98637e-07
8.0455e-08 9.98637e-07 -1.5923e-05
0.00144451 -5.34906e-05 6.83516e-08
-5.34906e-05 6.19435e-05 7.9154e-07
6.83516e-08 7.9154e-07 1.09626e-05
0.00140718 -5.74054e-05 -1.17249e-06
-5.74054e-05 7.86856e-05 9.85478e-07
-1.17249e-06 9.85478e-07 2.22286e-05
0.00155454 -5.89507e-05 8.55606e-07
-5.89507e-05 0.000164882 -9.85691e-07
8.55606e-07 -9.85691e-07 0.000100467
0.00138792 -6.16659e-05 1.4723e-06
-6.16659e-05 8.2996e-05 2.87971e-06
1.4723e-06 2.87971e-06 1.75728e-05
0.0013553 -6.32879e-05 8.25243e-08
-6.32879e-05 8.9653e-05 -4.42702e-07
8.25243e-08 -4.42702e-07 1.60568e-05
0.00133735 -6.15051e-05 -6.48137e-07
-6.15051e-05 9.49088e-05 -5.44441e-07
-6.48137e-07 -5.44441e-07 1.88291e-05
0.000982885 -5.73743e-05 -1.72708e-06
-5.73743e-05 -2.69321e-05 1.20066e-06
-1.72708e-06 1.20066e-06 -0.000107768
0.00128258 -6.65812e-05 3.76512e-08
-6.65812e-05 0.000101988 -1.57933e-07
3.76512e-08 -1.57933e-07 1.68912e-05
0.00142942 -7.21956e-05 2.06403e-06
-7.21956e-05 0.000160798 -3.11088e-07
2.06403e-06 -3.11088e-07 7.20085e-05
0.00103778 -5.11152e-05 -1.2778e-06
-5.11152e-05 5.58189e-05 1.15498e-06
-1.2778e-06 1.15498e-06 -1.64599e-05
0.000957176 -5.83032e-05 -3.77285e-07
-5.83032e-05 -1.63499e-08 4.33008e-07
-3.77285e-07 4.33008e-07 -8.11523e-05
0.00129806 -6.91296e-05 1.38734e-06
-6.91296e-05 0.000154924 -1.64729e-06
1.38734e-06 -1.64729e-06 6.72448e-05
0.000858866 -4.64272e-06 -2.32903e-06
-4.64272e-06 3.70401e-06 1.53942e-06
-2.32903e-06 1.53942e-06 -5.30799e-05
0.00103858 -4.5989e-05 -2.67916e-08
-4.5989e-05 7.06076e-05 -1.07851e-07
-2.67916e-08 -1.07851e-07 8.36329e-07
0.00112183 -6.01348e-05 5.87903e-07
-6.01348e-05 0.000102976 -1.2142e-06
5.87903e-07 -1.2142e-06 2.52246e-05
0.000713412 3.31212e-05 -4.02352e-06
3.31212e-05 -6.22217e-05 3.57944e-06
-4.02352e-06 3.57944e-06 -8.28009e-05
0.000907382 -3.54621e-06 7.2295e-10
-3.54621e-06 2.37643e-05 9.48595e-08
7.2295e-10 9.48595e-08 -2.98799e-05
0.00105054 -4.01307e-05 1.21408e-06
-4.01307e-05 8.18497e-05 -3.26863e-07
1.21408e-06 -3.26863e-07 1.35645e-05
0.00258784 4.57005e-05 -2.22639e-05
4.57005e-05 0.000884146 3.535e-06
-2.22639e-05 3.535e-06 0.000895749
0.000783449 3.10569e-05 -1.96208e-08
3.10569e-05 -3.52284e-05 -3.12375e-08
-1.96208e-08 -3.12375e-08 -5.2349e-05
0.000904012 -1.91643e-06 2.52941e-06
-1.91643e-06 1.60226e-05 -1.7801e-06
2.52941e-06 -1.7801e-06 -3.37269e-05
0.00252502 4.13164e-05 2.14976e-07
4.13164e-05 0.000845978 7.06265e-08
2.14976e-07 7.06265e-08 0.00085922
0.000822321 2.79766e-05 3.93758e-06
2.79766e-05 -2.43521e-05 -3.51203e-06
3.93758e-06 -3.51203e-06 -3.8511e-05
0.00247676 3.71572e-05 2.07685e-05
3.71572e-05 0.000815694 -3.79362e-06
2.07685e-05 -3.79362e-06 0.000830383
0.0010616 4.88677e-05 -7.12072e-07
4.88677e-05 9.25457e-05 -1.04156e-07
-7.12072e-07 -1.04156e-07 1.70983e-05
0.00104347 4.41311e-05 2.75248e-07
4.41311e-05 7.91091e-05 1.46972e-07
2.75248e-07 1.46972e-07 5.47522e-06
0.000912201 1.39458e-06 -1.55691e-06
1.39458e-06 1.08324e-05 -7.44822e-07
-1.55691e-06 -7.44822e-07 -5.71672e-05
0.000969247 3.30037e-05 1.28433e-06
3.30037e-05 3.63698e-05 1.0604e-06
1.28433e-06 1.0604e-06 -3.81239e-05
0.000952872 2.89723e-07 -9.04263e-08
2.89723e-07 2.86925e-05 1.99838e-07
-9.04263e-08 1.99838e-07 -3.80659e-05
0.000897422 -4.94524e-06 -2.49011e-06
-4.94524e-06 3.94181e-06 -2.22647e-06
-2.49011e-06 -2.22647e-06 -4.28113e-05
0.000983811 -2.14414e-06 8.25059e-07
-2.14414e-06 4.16193e-05 1.72981e-06
8.25059e-07 1.72981e-06 -2.20147e-05
0.000901163 -1.02987e-05 -1.25755e-07
-1.02987e-05 2.04051e-06 -5.4945e-08
-1.25755e-07 -5.4945e-08 -4.03393e-05
0.000831828 -2.47207e-05 -3.50813e-06
-2.47207e-05 -2.89504e-05 -3.79659e-06
-3.50813e-06 -3.79659e-06 -4.06625e-05
0.00243053 -3.29687e-05 -1.93086e-05
-3.29687e-05 0.000783539 -3.92686e-06
-1.93086e-05 -3.92686e-06 0.000800144
0.000830504 -2.13721e-05 -8.52962e-08
-2.13721e-05 -3.57484e-05 -1.44724e-08
-8.52962e-08 -1.44724e-08 -4.47569e-05
0.000908906 -1.3844e-05 1.36582e-06
-1.3844e-05 9.49771e-07 2.41545e-06
1.36582e-06 2.41545e-06 -3.74573e-05
0.00241452 -2.92507e-05 -6.11821e-07
-2.92507e-05 0.000769054 6.16027e-08
-6.11821e-07 6.16027e-08 0.000787071
0.000825991 -1.8958e-05 2.24386e-06
-1.8958e-05 -4.2425e-05 3.56548e-06
2.24386e-06 3.56548e-06 -4.96278e-05
0.00237879 -2.5429e-05 1.45476e-05
-2.5429e-05 0.00074534 3.97722e-06
1.45476e-05 3.97722e-06 0.000764723
0.00544958 5.91478e-06 2.51023e-05
5.91478e-06 0.00160767 -1.37739e-06
2.51023e-05 -1.37739e-06 0.001089
-0.000607489 -2.47839e-05 1.47642e-05
-2.47839e-05 -0.000425383 9.03771e-07
1.47642e-05 9.03771e-07 -0.000451224
0.000330025 -2.23158e-05 2.0961e-06
-2.23158e-05 -0.00016185 3.0226e-08
2.0961e-06 3.0226e-08 -0.000171385
0.00101764 4.26507e-05 1.67361e-06
4.26507e-05 6.53015e-05 4.50874e-07
1.67361e-06 4.50874e-07 -1.63947e-05
0.00101061 5.33652e-05 8.08251e-07
5.33652e-05 6.89946e-05 1.15825e-07
8.08251e-07 1.15825e-07 -8.00705e-06
0.00113777 5.70644e-05 1.40686e-07
5.70644e-05 0.000131716 -5.28599e-08
1.40686e-07 -5.28599e-08 5.01242e-05
0.00109644 5.85725e-05 -2.9334e-07
5.85725e-05 0.000113701 -1.81086e-07
-2.9334e-07 -1.81086e-07 3.58186e-05
0.00111876 6.0515e-05 1.74409e-06
6.0515e-05 0.000128011 6.19704e-07
1.74409e-06 6.19704e-07 4.77031e-05
0.00083953 5.25576e-05 -1.9109e-06
5.25576e-05 -7.78882e-06 5.45224e-07
-1.9109e-06 5.45224e-07 -8.79397e-05
0.000851483 4.7909e-05 1.32039e-06
4.7909e-05 -6.34204e-06 1.13766e-06
1.32039e-06 1.13766e-06 -9.31838e-05
0.000806639 5.19841e-05 6.65549e-07
5.19841e-05 -2.5328e-05 -1.23361e-07
6.65549e-07 -1.23361e-07 -0.000110694
0.000852385 5.2064e-05 8.35216e-07
5.2064e-05 1.25453e-07 1.344e-07
8.35216e-07 1.344e-07 -9.036e-05
0.0005041 5.38065e-05 -4.66563e-07
5.38065e-05 -0.000191175 2.30672e-08
-4.66563e-07 2.30672e-08 -0.000276465
0.00260533 0.000116966 -4.23454e-08
0.000116966 0.000799983 -1.02815e-06
-4.23454e-08 -1.02815e-06 0.000704756
0.00180945 0.00011574 4.07389e-07
0.00011574 0.000315804 -4.19729e-06
4.07389e-07 -4.19729e-06 0.000198481
0.00122491 8.4411e-05 7.82427e-07
8.4411e-05 0.000148397 1.59293e-07
7.82427e-07 1.59293e-07 4.87061e-05
0.0012455 4.82853e-05 -6.59134e-07
4.82853e-05 0.000198494 1.45529e-06
-6.59134e-07 1.45529e-06 0.000110035
0.000878713 -4.4172e-05 -1.72867e-05
-4.4172e-05 -0.000222388 -2.01041e-05
-1.72867e-05 -2.01041e-05 -0.00034276
0.00368209 -8.95159e-05 -1.13675e-05
-8.95159e-05 0.000681473 -2.62599e-06
-1.13675e-05 -2.62599e-06 0.000141394
0.00283754 -0.000176527 -3.7536e-05
-0.000176527 0.00114623 -1.34895e-05
-3.7536e-05 -1.34895e-05 0.00105853
0.00405459 -0.000105975 9.38858e-05
-0.000105975 0.000817755 3.66579e-05
9.38858e-05 3.66579e-05 8.17615e-05
0.00286993 0.000153756 2.20892e-05
0.000153756 0.0008038 4.41129e-05
2.20892e-05 4.41129e-05 0.000626836
0.00104164 3.44575e-05 -1.54426e-05
3.44575e-05 -4.88901e-05 -3.62824e-06
-1.54426e-05 -3.62824e-06 -0.000182635
0.00115679 6.7784e-05 2.06144e-05
6.7784e-05 -0.000159804 1.20095e-05
2.06144e-05 1.20095e-05 -0.000222397
0.00193699 0.000171565 3.47236e-07
0.000171565 0.000324347 8.93696e-06
3.47236e-07 8.93696e-06 0.000184757
0.000271856 7.3676e-05 -1.47747e-06
7.3676e-05 -0.000230278 5.98331e-06
-1.47747e-06 5.98331e-06 -0.000377566
0.00226094 0.000202325 -5.7372e-05
0.000202325 0.000391872 -7.87042e-05
-5.7372e-05 -7.87042e-05 0.00032423
0.00200621 6.01774e-06 -0.000111736
6.01774e-06 0.000493134 -6.63398e-06
-0.000111736 -6.63398e-06 0.00021375
0.00520098 4.76757e-05 1.15532e-05
4.76757e-05 0.00167951 -6.77243e-07
1.15532e-05 -6.77243e-07 0.0011745
-0.00285813 -1.94088e-05 -7.03106e-05
-1.94088e-05 -0.00184657 5.63101e-06
-7.03106e-05 5.63101e-06 -0.00183709
0.0023952 -0.00010788 -2.467e-06
-0.00010788 0.000471357 -1.87161e-06
-2.467e-06 -1.87161e-06 0.000501514
0.000987916 8.4401e-05 3.42566e-05
8.4401e-05 -0.000220585 -1.03886e-05
3.42566e-05 -1.03886e-05 -0.00039531
0.000442849 1.09537e-06 2.26528e-05
1.09537e-06 -0.000418275 -3.1369e-06
2.26528e-05 -3.1369e-06 -0.000920813
0.00178554 -7.01868e-05 2.8568e-07
-7.01868e-05 -3.11407e-08 2.70346e-06
2.8568e-07 2.70346e-06 3.79735e-05
0.00131535 9.42636e-05 2.9212e-06
9.42636e-05 0.0002198 -5.20981e-06
2.9212e-06 -5.20981e-06 1.77028e-05
0.00251261 -5.79757e-06 1.30852e-07
-5.79757e-06 0.000289993 -1.29914e-05
1.30852e-07 -1.29914e-05 0.000292857
0.000893984 6.00904e-05 3.14051e-06
6.00904e-05 -0.000216335 -2.0533e-06
3.14051e-06 -2.0533e-06 -0.000286082
0.00250343 -0.000151361 8.90812e-06
-0.000151361 0.000400093 -3.21775e-06
8.90812e-06 -3.21775e-06 0.000336679
0.00205984 -8.64003e-05 2.75179e-06
-8.64003e-05 9.77414e-05 -6.6886e-07
2.75179e-06 -6.6886e-07 7.95604e-05
0.00198058 -1.54526e-05 -2.57261e-06
-1.54526e-05 0.000159314 3.09432e-06
-2.57261e-06 3.09432e-06 0.000134544
0.00090359 -7.39171e-05 8.2626e-06
-7.39171e-05 -0.000282114 -1.29453e-06
8.2626e-06 -1.29453e-06 -0.000314214
0.00167572 -5.65971e-05 2.24931e-06
-5.65971e-05 5.43007e-05 1.39728e-07
2.24931e-06 1.39728e-07 3.51067e-05
0.00169715 -3.15678e-05 -4.50263e-07
-3.15678e-05 8.48935e-05 3.38782e-06
-4.50263e-07 3.38782e-06 4.45041e-05
0.00132276 -6.50967e-05 3.28234e-06
-6.50967e-05 -5.10199e-05 1.51238e-06
3.28234e-06 1.51238e-06 -9.38914e-05
0.0015075 -5.41763e-05 7.24305e-07
-5.41763e-05 3.97083e-05 7.70431e-07
7.24305e-07 7.70431e-07 1.5283e-06
0.0016093 -4.32773e-05 -3.45382e-07
-4.32773e-05 0.000100255 1.87141e-06
-3.45382e-07 1.87141e-06 4.80558e-05
0.00144918 -6.20372e-05 1.03679e-06
-6.20372e-05 6.52107e-05 1.655e-06
1.03679e-06 1.655e-06 1.21553e-05
0.00138569 -5.44787e-05 -1.13084e-07
-5.44787e-05 3.8895e-05 -3.16448e-08
-1.13084e-07 -3.16448e-08 -1.25159e-05
0.00138612 -5.18555e-05 1.36431e-06
-5.18555e-05 5.73722e-05 7.23162e-07
1.36431e-06 7.23162e-07 -5.83807e-06
0.0012449 -5.53961e-05 -2.61721e-07
-5.53961e-05 -1.39446e-07 1.87343e-06
-2.61721e-07 1.87343e-06 -5.47121e-05
0.00141889 -5.63467e-05 -8.11734e-07
-5.63467e-05 9.73693e-05 -5.63048e-07
-8.11734e-07 -5.63048e-07 3.42594e-05
0.00152116 -5.77292e-05 1.98994e-07
-5.77292e-05 0.000162311 -3.10323e-07
1.98994e-07 -3.10323e-07 9.12451e-05
0.00136557 -6.30074e-05 9.01646e-07
-6.30074e-05 9.41002e-05 8.76982e-07
9.01646e-07 8.76982e-07 2.02326e-05
0.00133714 -6.11338e-05 1.52138e-07
-6.11338e-05 9.50961e-05 -3.17485e-07
1.52138e-07 -3.17485e-07 1.8674e-05
0.00136077 -5.96294e-05 -8.81014e-07
-5.96294e-05 0.000126503 1.98368e-07
-8.81014e-07 1.98368e-07 5.07174e-05
0.000855126 -4.80741e-05 -2.23482e-06
-4.80741e-05 -6.37454e-05 1.50864e-06
-2.23482e-06 1.50864e-06 -0.000137673
0.00106738 -5.90038e-05 -3.11861e-07
-5.90038e-05 1.79336e-05 2.46777e-07
-3.11861e-07 2.46777e-07 -6.2586e-05
0.00127571 -6.61066e-05 1.41579e-06
-6.61066e-05 9.96596e-05 -9.09015e-07
1.41579e-06 -9.09015e-07 1.41291e-05
0.000868127 -1.62148e-05 -2.20122e-06
-1.62148e-05 3.13493e-06 1.67014e-06
-2.20122e-06 1.67014e-06 -5.63286e-05
0.00105882 -5.11716e-05 7.26367e-08
-5.11716e-05 6.5692e-05 1.65065e-08
7.26367e-08 1.65065e-08 -6.59338e-06
0.00105503 -6.04863e-05 4.98435e-07
-6.04863e-05 5.05879e-05 -8.7328e-07
4.98435e-07 -8.7328e-07 -3.00739e-05
0.00068264 3.57448e-05 -3.98467e-06
3.57448e-05 -6.8597e-05 3.47106e-06
-3.98467e-06 3.47106e-06 -9.35814e-05
0.00089793 -8.76746e-06 -1.40518e-07
-8.76746e-06 2.08659e-05 3.18427e-08
-1.40518e-07 3.18427e-08 -3.56828e-05
0.00107946 -4.73629e-05 1.2192e-06
-4.73629e-05 8.95052e-05 -8.72247e-07
1.2192e-06 -8.72247e-07 1.96666e-05
0.0026709 5.02713e-05 -2.32836e-05
5.02713e-05 0.000933484 3.4211e-06
-2.32836e-05 3.4211e-06 0.000942957
0.000758988 3.43643e-05 1.21483e-07
3.43643e-05 -3.87339e-05 1.31138e-08
1.21483e-07 1.31138e-08 -5.96449e-05
0.000912772 -5.25173e-06 2.61211e-06
-5.25173e-06 2.44548e-05 -1.50298e-06
2.61211e-06 -1.50298e-06 -2.88529e-05
0.00258003 4.56913e-05 2.08048e-07
4.56913e-05 0.00088112 7.47234e-08
2.08048e-07 7.47234e-08 0.000892488
0.000813041 3.20247e-05 3.76668e-06
3.20247e-05 -1.97199e-05 -3.52234e-06
3.76668e-06 -3.52234e-06 -3.7158e-05
0.0025095 4.12925e-05 2.17158e-05
4.12925e-05 0.000839066 -3.65921e-06
2.17158e-05 -3.65921e-06 0.000852162
0.00106973 5.39646e-05 -9.46752e-07
5.39646e-05 9.80637e-05 -6.74337e-07
-9.46752e-07 -6.74337e-07 2.04785e-05
0.00111977 5.0695e-05 1.41402e-07
5.0695e-05 0.000121203 1.0343e-07
1.41402e-07 1.0343e-07 4.60662e-05
0.000956103 1.98564e-05 -1.50869e-06
1.98564e-05 3.88778e-05 -5.91073e-07
-1.50869e-06 -5.91073e-07 -3.04739e-05
0.00100849 4.39253e-05 9.26385e-07
4.39253e-05 6.26198e-05 2.56231e-07
9.26385e-07 2.56231e-07 -1.10447e-05
0.000921028 3.9819e-06 -3.7496e-07
3.9819e-06 1.61645e-05 -4.11835e-08
-3.7496e-07 -4.11835e-08 -5.19762e-05
0.000897401 3.08735e-07 -2.65959e-06
3.08735e-07 8.67994e-06 -1.83036e-06
-2.65959e-06 -1.83036e-06 -4.21537e-05
0.000925038 -4.43237e-06 1.03992e-06
-4.43237e-06 1.48572e-05 1.38361e-06
1.03992e-06 1.38361e-06 -5.24641e-05
0.000899181 -6.15044e-06 -5.93921e-08
-6.15044e-06 5.05849e-06 -2.19598e-09
-5.93921e-08 -2.19598e-09 -4.17477e-05
0.000815169 -2.84926e-05 -3.79854e-06
-2.84926e-05 -3.01979e-05 -3.74757e-06
-3.79854e-06 -3.74757e-06 -4.50463e-05
0.000908451 -1.05358e-05 1.87767e-06
-1.05358e-05 5.12904e-06 2.62386e-06
1.87767e-06 2.62386e-06 -3.7144e-05
0.000816177 -2.40649e-05 -1.08875e-07
-2.40649e-05 -3.72054e-05 -1.7951e-08
-1.08875e-07 -1.7951e-08 -4.8673e-05
0.00248679 -3.70702e-05 -2.08108e-05
-3.70702e-05 0.000818421 -3.87005e-06
-2.08108e-05 -3.87005e-06 0.000833321
0.00244824 -3.31177e-05 -4.30806e-07
-3.31177e-05 0.000791741 6.23335e-08
-4.30806e-07 6.23335e-08 0.00080844
0.000818448 -2.10132e-05 2.82057e-06
-2.10132e-05 -4.17851e-05 3.63151e-06
2.82057e-06 3.63151e-06 -5.06721e-05
0.00242611 -2.93937e-05 1.6677e-05
-2.93937e-05 0.000774398 3.94332e-06
1.6677e-05 3.94332e-06 0.000792477
0.000662771 -2.59918e-05 -5.17598e-05
-2.59918e-05 -0.000186969 -9.39317e-06
-5.17598e-05 -9.39317e-06 -0.000332819
0.0016734 -3.86314e-05 -1.0564e-05
-3.86314e-05 -4.08598e-05 -5.49728e-06
-1.0564e-05 -5.49728e-06 -0.000536272
0.00323393 -0.000137198 -3.90151e-05
-0.000137198 0.00120266 -3.48602e-06
-3.90151e-05 -3.48602e-06 0.00111947
0.00118958 6.5353e-05 2.41672e-06
6.5353e-05 0.000140067 5.04362e-07
2.41672e-06 5.04362e-07 5.77438e-05
0.00115408 5.82297e-05 1.44434e-06
5.82297e-05 0.000140729 -3.88515e-08
1.44434e-06 -3.88515e-08 5.92102e-05
0.00103645 5.70849e-05 6.26032e-07
5.70849e-05 8.40441e-05 -6.9036e-09
6.26032e-07 -6.9036e-09 6.19934e-06
0.00101148 5.73905e-05 -8.5155e-09
5.73905e-05 7.72432e-05 1.15083e-07
-8.5155e-09 1.15083e-07 -3.41867e-06
0.00106335 5.94348e-05 -1.14172e-07
5.94348e-05 0.000102236 -2.88044e-07
-1.14172e-07 -2.88044e-07 2.14833e-05
0.000747544 5.54277e-05 -1.72113e-06
5.54277e-05 -5.88199e-05 6.99005e-07
-1.72113e-06 6.99005e-07 -0.00013457
0.00114277 6.11163e-05 2.73495e-06
6.11163e-05 0.000142007 -7.91963e-07
2.73495e-06 -7.91963e-07 5.47578e-05
0.00113344 5.62506e-05 1.56091e-06
5.62506e-05 0.000143591 1.1831e-06
1.56091e-06 1.1831e-06 5.19794e-05
0.00104095 6.82619e-05 -1.31434e-07
6.82619e-05 7.02383e-05 -1.19623e-07
-1.31434e-07 -1.19623e-07 -1.42971e-05
0.00193048 9.98877e-05 1.92152e-07
9.98877e-05 0.000482172 9.08678e-07
1.92152e-07 9.08678e-07 0.000389474
0.00153028 9.72401e-05 5.51541e-07
9.72401e-05 0.000183183 -1.57157e-06
5.51541e-07 -1.57157e-06 8.143e-05
0.00177676 9.75341e-05 -5.81337e-06
9.75341e-05 0.000131351 -2.82778e-06
-5.81337e-06 -2.82778e-06 1.67026e-05
0.00132013 0.000102522 3.01592e-06
0.000102522 6.63132e-05 9.14103e-07
3.01592e-06 9.14103e-07 -4.99314e-05
0.00073416 7.07891e-05 -5.41381e-07
7.07891e-05 -9.59891e-05 4.53466e-06
-5.41381e-07 4.53466e-06 -0.000193149
0.00169226 -2.23384e-05 -3.35611e-06
-2.23384e-05 -4.70903e-06 4.95858e-06
-3.35611e-06 4.95858e-06 -3.79429e-05
0.00185709 -3.61935e-05 2.39688e-07
-3.61935e-05 4.01439e-05 7.84357e-07
2.39688e-07 7.84357e-07 -0.000125896
0.000903062 -9.8771e-05 -2.19108e-05
-9.8771e-05 -0.000444379 -5.64673e-06
-2.19108e-05 -5.64673e-06 -0.000902533
0.00228124 9.9761e-05 1.98285e-05
9.9761e-05 9.43708e-05 2.03119e-05
1.98285e-05 2.03119e-05 -0.000133959
0.00139102 7.10346e-05 2.30247e-06
7.10346e-05 -0.000103762 1.58362e-06
2.30247e-06 1.58362e-06 -0.000165902
5.60214e-05 0.000123211 -7.74655e-06
0.000123211 -0.000535343 -9.00447e-06
-7.74655e-06 -9.00447e-06 -0.000678643
0.00231982 -3.28053e-06 7.71699e-06
-3.28053e-06 0.000574227 -5.46991e-06
7.71699e-06 -5.46991e-06 0.000506869
0.000703816 2.44676e-06 -2.23452e-05
2.44676e-06 4.46672e-05 1.34602e-06
-2.23452e-05 1.34602e-06 -0.000153462
0.00124407 0.000128384 5.3713e-05
0.000128384 -0.000288541 -9.10874e-07
5.3713e-05 -9.10874e-07 -0.000754996
0.000980198 -7.66388e-05 -2.12517e-06
-7.66388e-05 -0.000400977 7.47246e-06
-2.12517e-06 7.47246e-06 -0.000362544
0.00146621 0.000106009 4.28537e-05
0.000106009 8.20367e-05 -1.75128e-05
4.28537e-05 -1.75128e-05 -0.000156227
0.0020186 -9.30926e-06 5.5212e-06
-9.30926e-06 2.63925e-05 -1.5565e-06
5.5212e-06 -1.5565e-06 1.85962e-05
0.0013308 6.93016e-05 3.68522e-07
6.93016e-05 5.8199e-06 -3.68949e-06
3.68522e-07 -3.68949e-06 -6.33782e-05
0.00112961 4.41259e-05 -6.4173e-06
4.41259e-05 -0.00028931 -9.74447e-08
-6.4173e-06 -9.74447e-08 -0.000359703
0.000835664 4.19235e-05 -5.37051e-06
4.19235e-05 -0.000346968 -3.57182e-06
-5.37051e-06 -3.57182e-06 -0.000434539
0.00188355 -8.36929e-05 1.27567e-05
-8.36929e-05 1.4609e-05 -3.15282e-06
1.27567e-05 -3.15282e-06 1.98942e-06
0.00184318 -1.81418e-05 3.2591e-06
-1.81418e-05 9.63212e-05 2.51052e-07
3.2591e-06 2.51052e-07 6.62017e-05
0.00186326 1.12428e-05 -2.02031e-06
1.12428e-05 0.000181839 9.93406e-07
-2.02031e-06 9.93406e-07 0.000117887
0.00171908 -5.82532e-05 1.52074e-06
-5.82532e-05 8.54443e-05 -1.37076e-06
1.52074e-06 -1.37076e-06 6.31237e-05
0.00171649 -3.27159e-05 -1.53876e-07
-3.27159e-05 9.76526e-05 -2.22885e-07
-1.53876e-07 -2.22885e-07 5.52412e-05
0.00172316 -1.93776e-05 -7.55349e-07
-1.93776e-05 0.000133648 2.0457e-06
-7.55349e-07 2.0457e-06 7.02909e-05
0.00150795 -5.4568e-05 6.94348e-08
-5.4568e-05 4.68967e-05 -6.52727e-07
6.94348e-08 -6.52727e-07 6.78126e-06
0.00155323 -4.47998e-05 -8.57388e-07
-4.47998e-05 8.23532e-05 -9.54373e-07
-8.57388e-07 -9.54373e-07 3.05866e-05
0.00141747 -4.16287e-05 9.58948e-08
-4.16287e-05 3.67267e-05 2.13951e-06
9.58948e-08 2.13951e-06 -3.18669e-05
0.00132033 -5.53322e-05 -8.49462e-07
-5.53322e-05 1.25101e-05 -1.25598e-06
-8.49462e-07 -1.25598e-06 -3.92939e-05
0.00136766 -5.13642e-05 1.60277e-07
-5.13642e-05 4.91876e-05 -5.67822e-07
1.60277e-07 -5.67822e-07 -1.40594e-05
0.00136558 -5.19972e-05 3.28505e-07
-5.19972e-05 6.35618e-05 5.96263e-07
3.28505e-07 5.96263e-07 -8.25717e-06
0.00128106 -5.37786e-05 -1.45985e-06
-5.37786e-05 2.87316e-05 6.85065e-07
-1.45985e-06 6.85065e-07 -3.30655e-05
0.0013923 -5.47689e-05 -2.42501e-07
-5.47689e-05 9.76885e-05 -3.65518e-07
-2.42501e-07 -3.65518e-07 2.74231e-05
0.00131971 -5.2639e-05 -7.14782e-07
-5.2639e-05 8.15614e-05 1.84368e-07
-7.14782e-07 1.84368e-07 7.77688e-06
0.00133675 -6.07621e-05 9.653e-07
-6.07621e-05 9.51605e-05 -6.40994e-08
9.653e-07 -6.40994e-08 1.84015e-05
0.0012238 -5.68324e-05 2.23219e-07
-5.68324e-05 5.91137e-05 -1.80356e-07
2.23219e-07 -1.80356e-07 -1.71594e-05
0.00121138 -5.20968e-05 -1.87191e-06
-5.20968e-05 8.20456e-05 9.8056e-07
-1.87191e-06 9.8056e-07 9.47516e-06
0.000923648 -2.84183e-05 -2.67053e-06
-2.84183e-05 1.30586e-05 1.68915e-06
-2.67053e-06 1.68915e-06 -4.83537e-05
0.00094942 -4.99055e-05 -5.12952e-07
-4.99055e-05 -1.4824e-05 3.46182e-07
-5.12952e-07 3.46182e-07 -8.8292e-05
0.00113673 -6.0214e-05 9.53884e-07
-6.0214e-05 5.55158e-05 -7.52555e-07
9.53884e-07 -7.52555e-07 -2.46829e-05
0.000683043 2.80195e-05 -3.90281e-06
2.80195e-05 -6.14504e-05 3.52004e-06
-3.90281e-06 3.52004e-06 -9.12338e-05
0.000909552 -1.87866e-05 3.51972e-08
-1.87866e-05 2.27022e-05 6.92268e-08
3.51972e-08 6.92268e-08 -3.68806e-05
0.00108211 -5.13825e-05 1.48897e-06
-5.13825e-05 7.66517e-05 -1.14491e-06
1.48897e-06 -1.14491e-06 4.35189e-06
0.00274661 5.44723e-05 -2.46498e-05
5.44723e-05 0.000980401 3.31328e-06
-2.46498e-05 3.31328e-06 0.00098745
0.000747362 3.48634e-05 -2.98976e-08
3.48634e-05 -3.71048e-05 -5.83438e-08
-2.98976e-08 -5.83438e-08 -6.21058e-05
0.000935966 -1.17593e-05 2.53256e-06
-1.17593e-05 3.76701e-05 -1.62769e-06
2.53256e-06 -1.62769e-06 -1.875e-05
0.00264946 4.98743e-05 3.14435e-07
4.98743e-05 0.000923927 9.52729e-08
3.14435e-07 9.52729e-08 0.000933143
0.000801674 3.54902e-05 3.84341e-06
3.54902e-05 -1.67449e-05 -3.40144e-06
3.84341e-06 -3.40144e-06 -3.79632e-05
0.00256645 4.54733e-05 2.28855e-05
4.54733e-05 0.00087521 -3.59079e-06
2.28855e-05 -3.59079e-06 0.000886373
0.000941292 5.57279e-05 -8.594e-07
5.57279e-05 2.27469e-05 -7.77444e-07
-8.594e-07 -7.77444e-07 -5.74178e-05
0.00103966 5.30418e-05 -4.46158e-08
5.30418e-05 8.2766e-05 -2.47209e-07
-4.46158e-08 -2.47209e-07 5.41096e-06
0.0010637 3.92719e-05 -1.32655e-06
3.92719e-05 9.25664e-05 -5.12557e-07
-1.32655e-06 -5.12557e-07 2.16571e-05
0.00118253 5.27821e-05 7.35718e-07
5.27821e-05 0.000152102 -1.97162e-08
7.35718e-07 -1.97162e-08 7.72569e-05
0.000987942 2.34975e-05 -3.63122e-07
2.34975e-05 5.52785e-05 -1.35133e-07
-3.63122e-07 -1.35133e-07 -1.37685e-05
0.000904513 2.18755e-06 -2.56971e-06
2.18755e-06 2.04748e-05 -1.64566e-06
-2.56971e-06 -1.64566e-06 -3.41563e-05
0.000929177 1.05077e-05 9.08491e-07
1.05077e-05 2.08611e-05 4.71892e-07
9.08491e-07 4.71892e-07 -4.71342e-05
0.000898617 -4.18794e-06 1.11881e-08
-4.18794e-06 1.04955e-05 4.67943e-08
1.11881e-08 4.67943e-08 -4.04655e-05
0.000796801 -3.28943e-05 -3.79056e-06
-3.28943e-05 -3.01691e-05 -3.59989e-06
-3.79056e-06 -3.59989e-06 -4.84784e-05
0.000901349 -8.14521e-06 2.33496e-06
-8.14521e-06 6.42623e-06 2.52079e-06
2.33496e-06 2.52079e-06 -4.0407e-05
0.00079893 -2.75276e-05 -8.17437e-08
-2.75276e-05 -3.91343e-05 5.17785e-09
-8.17437e-08 5.17785e-09 -5.3661e-05
0.00254397 -4.13796e-05 -2.19841e-05
-4.13796e-05 0.000854361 -3.74533e-06
-2.19841e-05 -3.74533e-06 0.000867392
0.000803945 -2.34956e-05 3.3184e-06
-2.34956e-05 -4.3799e-05 3.75214e-06
3.3184e-06 3.75214e-06 -5.50236e-05
0.0024977 -3.71461e-05 -3.52648e-07
-3.71461e-05 0.000822997 6.78994e-08
-3.52648e-07 6.78994e-08 0.000838097
0.00246529 -3.32403e-05 1.86142e-05
-3.32403e-05 0.000799712 3.88205e-06
1.86142e-05 3.88205e-06 0.000816493
0.00132515 -4.6697e-05 -1.94741e-06
-4.6697e-05 -8.29374e-05 3.16751e-07
-1.94741e-06 3.16751e-07 -0.000116878
0.0020677 -5.22544e-06 -4.10517e-06
-5.22544e-06 0.000293317 6.78534e-06
-4.10517e-06 6.78534e-06 5.83537e-05
0.00442569 4.11639e-05 -6.48416e-05
4.11639e-05 0.00129151 -1.02531e-05
-6.48416e-05 -1.02531e-05 0.000792626
0.000933971 5.87207e-05 1.10121e-06
5.87207e-05 2.26417e-06 4.70084e-07
1.10121e-06 4.70084e-07 -7.52143e-05
0.00132162 7.2307e-05 1.95942e-06
7.2307e-05 0.000148074 -1.05246e-06
1.95942e-06 -1.05246e-06 6.22411e-05
0.000891801 5.82843e-05 2.93139e-07
5.82843e-05 6.56976e-07 -3.71278e-07
2.93139e-07 -3.71278e-07 -8.12528e-05
0.0011517 6.13734e-05 1.24235e-06
6.13734e-05 0.000145275 -8.24398e-07
1.24235e-06 -8.24398e-07 6.43283e-05
0.00104514 5.94697e-05 2.56784e-07
5.94697e-05 9.44323e-05 -6.04247e-08
2.56784e-07 -6.04247e-08 1.31954e-05
0.00101629 6.34577e-05 8.66948e-07
6.34577e-05 6.60143e-05 7.15403e-07
8.66948e-07 7.15403e-07 -1.06115e-05
0.00139616 8.58496e-05 -2.08727e-06
8.58496e-05 0.00012945 -2.95028e-06
-2.08727e-06 -2.95028e-06 3.80431e-05
0.00142644 7.86241e-05 2.504e-06
7.86241e-05 0.000260015 2.46599e-07
2.504e-06 2.46599e-07 0.000176142
0.000821507 7.20362e-05 -1.02918e-06
7.20362e-05 -4.15385e-05 3.80029e-06
-1.02918e-06 3.80029e-06 -0.000131899
0.00142679 9.45586e-05 -1.05256e-06
9.45586e-05 0.000137776 -3.96478e-07
-1.05256e-06 -3.96478e-07 3.75095e-05
0.00117683 7.89869e-05 -4.38071e-06
7.89869e-05 -0.000125423 -2.70468e-06
-4.38071e-06 -2.70468e-06 -0.000231095
0.0017269 3.31208e-05 -6.70908e-06
3.31208e-05 9.21293e-06 4.35372e-06
-6.70908e-06 4.35372e-06 -7.12465e-05
0.00191475 0.00010008 5.29622e-07
0.00010008 0.000191025 7.65555e-07
5.29622e-07 7.65555e-07 7.75132e-05
0.00110044 9.46261e-05 -2.68953e-07
9.46261e-05 -5.58561e-05 4.27308e-06
-2.68953e-07 4.27308e-06 -0.00016989
0.00157593 -1.74379e-05 4.9895e-07
-1.74379e-05 -4.94368e-05 8.43972e-07
4.9895e-07 8.43972e-07 -8.19856e-05
0.00276253 -4.48724e-05 4.99621e-05
-4.48724e-05 0.000362849 2.71099e-05
4.99621e-05 2.71099e-05 0.000131437
0.00210381 8.36257e-05 -4.08807e-06
8.36257e-05 0.000198598 -2.33846e-06
-4.08807e-06 -2.33846e-06 0.000132826
0.00192552 2.27424e-05 -4.45504e-06
2.27424e-05 0.0002571 -2.88586e-06
-4.45504e-06 -2.88586e-06 0.000198081
0.00143963 -7.29711e-06 9.02737e-07
-7.29711e-06 0.000137826 -5.25253e-07
9.02737e-07 -5.25253e-07 7.41609e-05
0.000877379 5.25508e-05 5.51019e-05
5.25508e-05 -9.36102e-05 2.9792e-06
5.51019e-05 2.9792e-06 -0.000349023
0.00152815 -1.46749e-05 7.05988e-06
-1.46749e-05 -0.00023008 2.52117e-07
7.05988e-06 2.52117e-07 -0.000247348
0.0015821 7.58314e-05 -4.5821e-06
7.58314e-05 0.000147499 1.62166e-06
-4.5821e-06 1.62166e-06 8.03077e-05
0.00160708 5.08819e-05 -1.75345e-06
5.08819e-05 -6.1549e-05 4.32323e-06
-1.75345e-06 4.32323e-06 -0.000128485
0.00150629 5.32234e-05 2.15056e-07
5.32234e-05 -1.44848e-05 1.3735e-06
2.15056e-07 1.3735e-06 -9.83535e-05
0.00161976 4.27352e-05 -4.93555e-06
4.27352e-05 7.0672e-05 -5.62472e-08
-4.93555e-06 -5.62472e-08 -7.59083e-06
0.00136213 3.82438e-05 -3.134e-06
3.82438e-05 -2.72602e-05 -1.56202e-06
-3.134e-06 -1.56202e-06 -9.51563e-05
0.00159795 -2.02192e-05 7.19369e-06
-2.02192e-05 -2.26765e-05 -2.44052e-06
7.19369e-06 -2.44052e-06 -5.72792e-05
0.00171303 9.76782e-06 -1.12579e-06
9.76782e-06 0.000102193 -9.31765e-07
-1.12579e-06 -9.31765e-07 4.00378e-05
0.00164874 2.01583e-05 -1.56828e-06
2.01583e-05 9.32648e-05 7.24249e-08
-1.56828e-06 7.24249e-08 1.60302e-05
0.00179474 -3.37166e-05 -1.58165e-06
-3.37166e-05 0.000139437 -2.74146e-06
-1.58165e-06 -2.74146e-06 9.56444e-05
0.00164254 -1.92757e-05 -1.26012e-07
-1.92757e-05 9.74917e-05 -4.39099e-07
-1.26012e-07 -4.39099e-07 3.46585e-05
0.0014441 -1.44072e-05 -9.07285e-07
-1.44072e-05 1.78455e-05 1.78387e-06
-9.07285e-07 1.78387e-06 -5.70508e-05
0.00149496 -4.61325e-05 -2.67969e-06
-4.61325e-05 6.31215e-05 -2.89042e-06
-2.67969e-06 -2.89042e-06 1.18333e-05
0.00144363 -4.11738e-05 2.59563e-07
-4.11738e-05 4.94463e-05 -8.10376e-08
2.59563e-07 -8.10376e-08 -1.92065e-05
0.0014199 -4.31802e-05 -2.87595e-07
-4.31802e-05 5.65455e-05 1.49727e-06
-2.87595e-07 1.49727e-06 -1.96971e-05
0.00134966 -5.08552e-05 -9.09446e-07
-5.08552e-05 4.12106e-05 -1.87538e-06
-9.09446e-07 -1.87538e-06 -2.207e-05
0.0013648 -5.13246e-05 4.76049e-08
-5.13246e-05 6.29383e-05 -4.01007e-07
4.76049e-08 -4.01007e-07 -8.82175e-06
0.0013294 -5.06532e-05 -6.0674e-07
-5.06532e-05 6.56495e-05 6.18846e-07
-6.0674e-07 6.18846e-07 -9.62442e-06
0.00126241 -5.18581e-05 -2.97039e-07
-5.18581e-05 3.25465e-05 -5.63072e-08
-2.97039e-07 -5.63072e-08 -3.69209e-05
0.0012298 -5.09666e-05 -1.74161e-07
-5.09666e-05 3.73779e-05 -1.67585e-07
-1.74161e-07 -1.67585e-07 -3.62245e-05
0.0012044 -4.76007e-05 -1.8357e-06
-4.76007e-05 5.62992e-05 7.63811e-07
-1.8357e-06 7.63811e-07 -1.56257e-05
0.00109138 -5.41412e-05 1.35629e-06
-5.41412e-05 -6.07601e-06 -6.12422e-07
1.35629e-06 -6.12422e-07 -8.28394e-05
0.00106471 -4.87523e-05 6.27472e-08
-4.87523e-05 1.0334e-05 3.69132e-08
6.27472e-08 3.69132e-08 -6.23611e-05
0.000976075 -3.28175e-05 -2.99767e-06
-3.28175e-05 1.46812e-05 1.53543e-06
-2.99767e-06 1.53543e-06 -4.7281e-05
0.000716284 1.00201e-05 -5.20296e-06
1.00201e-05 -4.56394e-05 3.49598e-06
-5.20296e-06 3.49598e-06 -7.93081e-05
0.000938078 -2.97291e-05 4.1993e-08
-2.97291e-05 2.02932e-05 9.8833e-08
4.1993e-08 9.8833e-08 -4.1187e-05
0.00105428 -5.20432e-05 1.11721e-06
-5.20432e-05 3.9147e-05 -7.96676e-07
1.11721e-06 -7.96676e-07 -3.38626e-05
0.00283091 5.88158e-05 -2.55598e-05
5.88158e-05 0.00103422 3.2123e-06
-2.55598e-05 3.2123e-06 0.0010382
0.000747119 2.14959e-05 5.78254e-08
2.14959e-05 -3.26272e-05 -6.74796e-08
5.78254e-08 -6.74796e-08 -6.20142e-05
0.000945687 -2.23468e-05 2.71801e-06
-2.23468e-05 3.93941e-05 -1.71133e-06
2.71801e-06 -1.71133e-06 -2.01601e-05
0.00272138 5.40697e-05 2.67739e-07
5.40697e-05 0.00096954 9.00732e-08
2.67739e-07 9.00732e-08 0.000976195
0.000805102 2.97916e-05 4.50322e-06
2.97916e-05 -9.3332e-06 -3.3426e-06
4.50322e-06 -3.3426e-06 -3.41501e-05
0.00263314 4.9623e-05 2.40672e-05
4.9623e-05 0.000916921 -3.47601e-06
2.40672e-05 -3.47601e-06 0.000925856
0.000755202 5.54256e-05 -4.72621e-07
5.54256e-05 -9.71878e-05 -6.8673e-07
-4.72621e-07 -6.8673e-07 -0.000181853
0.000831381 5.30945e-05 -1.54734e-08
5.30945e-05 -3.35597e-05 -9.7709e-08
-1.54734e-08 -9.7709e-08 -0.000114131
0.00109962 4.78833e-05 -1.51137e-06
4.78833e-05 9.86873e-05 -5.31005e-07
-1.51137e-06 -5.31005e-07 2.58299e-05
0.0010075 5.20636e-05 5.61848e-07
5.20636e-05 6.64527e-05 3.81966e-08
5.61848e-07 3.81966e-08 -1.06684e-05
0.00101174 3.71118e-05 -4.91617e-08
3.71118e-05 6.74979e-05 -4.66167e-08
-4.91617e-08 -4.66167e-08 -3.2828e-06
0.000920347 5.92312e-06 -2.63968e-06
5.92312e-06 3.49329e-05 -1.48328e-06
-2.63968e-06 -1.48328e-06 -2.29253e-05
0.00102429 2.64969e-05 1.02151e-06
2.64969e-05 7.39827e-05 2.37308e-07
1.02151e-06 2.37308e-07 5.21535e-06
0.000895093 -6.8252e-07 9.53029e-08
-6.8252e-07 1.76927e-05 4.45801e-08
9.53029e-08 4.45801e-08 -3.71754e-05
0.000788803 -3.70514e-05 -3.65924e-06
-3.70514e-05 -2.33192e-05 -3.47167e-06
-3.65924e-06 -3.47167e-06 -4.55621e-05
0.000899537 -7.15051e-06 2.57156e-06
-7.15051e-06 1.22604e-05 2.13536e-06
2.57156e-06 2.13536e-06 -3.88851e-05
0.00077676 -3.18981e-05 -2.60013e-08
-3.18981e-05 -4.1233e-05 1.01647e-08
-2.60013e-08 1.01647e-08 -5.92099e-05
0.00259123 -4.57494e-05 -2.29322e-05
-4.57494e-05 0.000886453 -3.58917e-06
-2.29322e-05 -3.58917e-06 0.000897454
0.000783484 -2.66256e-05 3.83924e-06
-2.66256e-05 -4.77181e-05 3.76875e-06
3.83924e-06 3.76875e-06 -6.19226e-05
0.00256166 -4.14595e-05 -2.85693e-07
-4.14595e-05 0.000862151 7.59306e-08
-2.85693e-07 7.59306e-08 0.000875396
0.0025141 -3.72769e-05 2.01469e-05
-3.72769e-05 0.000830391 3.80206e-06
2.01469e-05 3.80206e-06 0.000845659
0.00157811 -1.83587e-05 -6.01046e-07
-1.83587e-05 -1.92611e-05 1.57402e-06
-6.01046e-07 1.57402e-06 -7.09284e-05
0.00115975 -4.47858e-05 3.64478e-07
-4.47858e-05 -0.000133521 -9.28954e-07
3.64478e-07 -9.28954e-07 -0.000167571
0.000514552 -3.33949e-05 4.40462e-05
-3.33949e-05 -0.000225107 1.87631e-05
4.40462e-05 1.87631e-05 -0.000378741
0.00179106 8.26237e-05 6.17828e-07
8.26237e-05 0.000328428 -2.19667e-06
6.17828e-07 -2.19667e-06 0.00024385
0.000916218 5.93343e-05 -7.12564e-07
5.93343e-05 5.47601e-06 3.589e-07
-7.12564e-07 3.589e-07 -6.88754e-05
0.000777463 6.19914e-05 -2.55443e-06
6.19914e-05 -0.000182105 -2.81449e-07
-2.55443e-06 -2.81449e-07 -0.00027241
0.00130742 7.2009e-05 1.70413e-07
7.2009e-05 0.000140097 7.54221e-08
1.70413e-07 7.54221e-08 5.37344e-05
0.000605001 5.12433e-05 -9.37112e-07
5.12433e-05 -0.000132232 8.23455e-07
-9.37112e-07 8.23455e-07 -0.000213874
0.00165862 7.91332e-05 -3.5568e-06
7.91332e-05 0.000139222 -4.12772e-06
-3.5568e-06 -4.12772e-06 4.09821e-05
0.00127831 7.11134e-05 4.90403e-07
7.11134e-05 0.000187365 -6.35228e-08
4.90403e-07 -6.35228e-08 0.000109946
0.00138998 8.43342e-05 1.73683e-08
8.43342e-05 0.000119867 2.2396e-07
1.73683e-08 2.2396e-07 2.88056e-05
0.00160126 3.43327e-05 -2.7405e-06
3.43327e-05 2.07058e-05 2.62003e-06
-2.7405e-06 2.62003e-06 -6.61505e-05
0.00142466 9.42897e-05 1.61817e-06
9.42897e-05 0.000141099 2.93939e-06
1.61817e-06 2.93939e-06 4.226e-05
0.00148567 8.60755e-05 -9.44665e-07
8.60755e-05 2.19857e-05 -7.17426e-07
-9.44665e-07 -7.17426e-07 -8.4495e-05
0.00181963 3.05631e-05 -5.9171e-07
3.05631e-05 6.49398e-05 2.04647e-06
-5.9171e-07 2.04647e-06 -1.75674e-05
0.00167787 9.40874e-05 4.14613e-06
9.40874e-05 7.86687e-05 2.90887e-06
4.14613e-06 2.90887e-06 -3.46106e-05
0.00144235 -7.56809e-06 -9.06326e-06
-7.56809e-06 -0.000102875 -6.25753e-06
-9.06326e-06 -6.25753e-06 -0.000134711
0.00169979 2.26406e-06 -2.27909e-06
2.26406e-06 0.000157239 -1.0924e-06
-2.27909e-06 -1.0924e-06 9.84718e-05
0.00145855 1.71513e-05 1.24563e-06
1.71513e-05 1.56819e-05 5.62112e-07
1.24563e-06 5.62112e-07 -4.30164e-05
0.00051093 -8.87052e-06 1.26659e-06
-8.87052e-06 -0.000319509 2.90316e-06
1.26659e-06 2.90316e-06 -0.000380526
0.00200988 5.60401e-05 4.16038e-06
5.60401e-05 0.000127393 -2.01534e-06
4.16038e-06 -2.01534e-06 6.34291e-05
0.00220235 6.42331e-05 1.51774e-05
6.42331e-05 0.000332809 4.44403e-06
1.51774e-05 4.44403e-06 0.000252493
0.00182273 4.60033e-05 -3.06416e-06
4.60033e-05 0.000159909 -4.8601e-07
-3.06416e-06 -4.8601e-07 8.14577e-05
0.00152477 3.84892e-05 8.54881e-07
3.84892e-05 5.88797e-05 1.7123e-06
8.54881e-07 1.7123e-06 -8.60611e-06
0.00158135 3.7484e-05 -3.18825e-06
3.7484e-05 9.00262e-05 -1.99638e-06
-3.18825e-06 -1.99638e-06 1.59451e-05
0.00164025 8.09015e-06 -1.02791e-06
8.09015e-06 6.31203e-05 -2.19741e-06
-1.02791e-06 -2.19741e-06 2.20727e-06
0.00167927 1.94836e-05 -1.42114e-09
1.94836e-05 0.000106109 -2.57783e-07
-1.42114e-09 -2.57783e-07 2.96883e-05
0.00159614 2.32165e-05 -2.54065e-06
2.32165e-05 8.18369e-05 -6.19181e-07
-2.54065e-06 -6.19181e-07 1.52413e-06
0.0015692 -1.93621e-05 -2.64693e-07
-1.93621e-05 6.52842e-05 -2.48707e-06
-2.64693e-07 -2.48707e-06 2.90206e-06
0.00150476 -1.44932e-05 2.79177e-07
-1.44932e-05 4.80094e-05 3.66067e-07
2.79177e-07 3.66067e-07 -2.73287e-05
0.00150066 -1.5061e-05 -1.29214e-06
-1.5061e-05 6.33391e-05 9.55584e-07
-1.29214e-06 9.55584e-07 -1.68607e-05
0.00146514 -4.06324e-05 3.85661e-08
-4.06324e-05 5.99471e-05 -2.24013e-06
3.85661e-08 -2.24013e-06 -8.76699e-06
0.00143382 -4.22968e-05 1.83057e-07
-4.22968e-05 6.25759e-05 3.23778e-08
1.83057e-07 3.23778e-08 -1.37148e-05
0.00138498 -4.40017e-05 -1.03849e-06
-4.40017e-05 6.23665e-05 1.07286e-06
-1.03849e-06 1.07286e-06 -1.61332e-05
0.00136404 -5.07101e-05 -2.19324e-07
-5.07101e-05 6.23313e-05 -1.39068e-06
-2.19324e-07 -1.39068e-06 -9.37322e-06
0.00132901 -5.02489e-05 3.73365e-09
-5.02489e-05 6.50715e-05 -2.35868e-07
3.73365e-09 -2.35868e-07 -1.0166e-05
0.00123873 -4.54734e-05 -1.70829e-06
-4.54734e-05 5.07955e-05 8.27787e-07
-1.70829e-06 8.27787e-07 -2.27507e-05
0.00113553 -4.9176e-05 6.04102e-07
-4.9176e-05 -8.92953e-06 -4.98277e-07
6.04102e-07 -4.98277e-07 -8.23438e-05
0.00119191 -4.69355e-05 -2.41084e-08
-4.69355e-05 5.03084e-05 -4.5643e-08
-2.41084e-08 -4.5643e-08 -2.15243e-05
0.00102277 -3.30003e-05 -3.21751e-06
-3.30003e-05 1.46934e-05 1.46047e-06
-3.21751e-06 1.46047e-06 -4.76988e-05
0.000909576 -4.51684e-05 1.68089e-06
-4.51684e-05 -6.54774e-05 -8.35263e-07
1.68089e-06 -8.35263e-07 -0.00013829
0.000975672 -3.30875e-05 3.84469e-08
-3.30875e-05 1.52387e-05 5.46979e-08
3.84469e-08 5.46979e-08 -4.68003e-05
0.00166588 1.36697e-05 -6.39252e-06
1.36697e-05 0.000434646 1.92856e-06
-6.39252e-06 1.92856e-06 0.00040256
0.00114451 3.391e-05 -2.6559e-05
3.391e-05 0.000187011 5.95145e-06
-2.6559e-05 5.95145e-06 0.000176463
0.00122774 1.5101e-05 -1.06673e-06
1.5101e-05 0.000210712 -1.06549e-08
-1.06673e-06 -1.06549e-08 0.000179663
0.000956023 -3.08919e-05 2.9225e-06
-3.08919e-05 2.92062e-05 -1.56949e-06
2.9225e-06 -1.56949e-06 -3.2349e-05
0.00283681 5.83731e-05 3.07063e-07
5.83731e-05 0.00103929 1.0929e-07
3.07063e-07 1.0929e-07 0.00104266
0.000814943 2.02266e-05 5.1586e-06
2.02266e-05 -1.25138e-06 -3.33967e-06
5.1586e-06 -3.33967e-06 -3.05694e-05
0.00270398 5.35102e-05 2.54498e-05
5.35102e-05 0.000962467 -3.40773e-06
2.54498e-05 -3.40773e-06 0.00096874
0.00118163 6.54867e-05 -1.0358e-06
6.54867e-05 -1.63793e-05 -2.71095e-07
-1.0358e-06 -2.71095e-07 -9.93507e-05
0.000834381 5.96344e-05 5.63173e-07
5.96344e-05 -9.30276e-05 1.0767e-07
5.63173e-07 1.0767e-07 -0.000180122
0.000860468 5.84319e-05 -9.67369e-08
5.84319e-05 -5.01194e-05 -7.49333e-08
-9.67369e-08 -7.49333e-08 -0.000135371
0.00111869 5.35675e-05 -1.47995e-06
5.35675e-05 9.03842e-05 -7.47541e-07
-1.47995e-06 -7.47541e-07 1.56412e-05
0.000706947 5.00416e-05 4.62642e-07
5.00416e-05 -9.72066e-05 5.89663e-07
4.62642e-07 5.89663e-07 -0.000178132
0.00103831 4.51758e-05 -1.31717e-07
4.51758e-05 6.90913e-05 -3.9172e-08
-1.31717e-07 -3.9172e-08 -3.47956e-06
0.000938272 1.40991e-05 -2.71473e-06
1.40991e-05 4.42998e-05 -1.21498e-06
-2.71473e-06 -1.21498e-06 -1.55067e-05
0.000964775 3.50981e-05 1.30028e-06
3.50981e-05 4.48557e-05 4.65076e-07
1.30028e-06 4.65076e-07 -2.58016e-05
0.000883934 3.22512e-06 7.35581e-08
3.22512e-06 1.85915e-05 1.0115e-07
7.35581e-08 1.0115e-07 -3.9451e-05
0.000788273 -3.60104e-05 -4.05331e-06
-3.60104e-05 -1.42515e-05 -3.26986e-06
-4.05331e-06 -3.26986e-06 -4.04968e-05
0.000884135 -3.94491e-06 2.53542e-06
-3.94491e-06 1.41636e-05 1.76364e-06
2.53542e-06 1.76364e-06 -4.09342e-05
0.000750147 -3.59369e-05 9.47553e-09
-3.59369e-05 -4.34101e-05 -1.50782e-08
9.47553e-09 -1.50782e-08 -6.53369e-05
0.00263212 -4.99824e-05 -2.38871e-05
-4.99824e-05 0.000917068 -3.45944e-06
-2.38871e-05 -3.45944e-06 0.000925698
0.000753938 -3.07026e-05 4.12262e-06
-3.07026e-05 -5.37164e-05 3.68072e-06
4.12262e-06 3.68072e-06 -7.13414e-05
0.00261782 -4.59313e-05 -2.51902e-07
-4.59313e-05 0.000898407 8.23731e-08
-2.51902e-07 8.23731e-08 0.000909637
0.00258004 -4.15523e-05 2.15894e-05
-4.15523e-05 0.00087027 3.72223e-06
2.15894e-05 3.72223e-06 0.00088373
0.00159357 -2.02087e-05 -3.89139e-07
-2.02087e-05 4.95086e-05 2.16769e-06
-3.89139e-07 2.16769e-06 -1.66988e-05
0.00176875 -1.80673e-05 1.44194e-06
-1.80673e-05 8.90251e-05 -1.95983e-06
1.44194e-06 -1.95983e-06 3.61759e-05
0.00125413 -4.88411e-05 -7.15907e-07
-4.88411e-05 -6.75228e-05 -3.78494e-06
-7.15907e-07 -3.78494e-06 -0.00010219
0.0014899 7.0948e-05 -4.34688e-06
7.0948e-05 7.69938e-05 -2.83182e-06
-4.34688e-06 -2.83182e-06 -1.40248e-05
0.00151087 7.62585e-05 -1.48996e-07
7.62585e-05 0.000206904 3.92596e-07
-1.48996e-07 3.92596e-07 0.000124658
0.000806932 5.81685e-05 -3.57016e-06
5.81685e-05 -3.64601e-05 4.70458e-07
-3.57016e-06 4.70458e-07 -0.000107561
0.00131771 7.28739e-05 9.49104e-07
7.28739e-05 7.87929e-05 9.71717e-07
9.49104e-07 9.71717e-07 -9.82734e-06
0.00131483 7.21718e-05 -1.38936e-06
7.21718e-05 0.000142586 7.47593e-07
-1.38936e-06 7.47593e-07 5.56858e-05
0.00170862 3.13998e-05 -2.33863e-06
3.13998e-05 9.10358e-05 1.07228e-06
-2.33863e-06 1.07228e-06 -1.89137e-06
0.00161291 7.98699e-05 -1.52999e-06
7.98699e-05 0.000114818 -1.43094e-06
-1.52999e-06 -1.43094e-06 1.47457e-05
0.00138693 8.32188e-05 1.7669e-06
8.32188e-05 0.000113196 4.30318e-06
1.7669e-06 4.30318e-06 2.2239e-05
0.00169319 3.26074e-05 -3.99074e-07
3.26074e-05 6.40849e-05 9.47436e-07
-3.99074e-07 9.47436e-07 -2.32925e-05
0.00187701 9.47799e-05 3.78673e-06
9.47799e-05 0.000206498 1.78675e-06
3.78673e-06 1.78675e-06 9.95403e-05
0.00186022 2.75708e-05 4.95815e-06
2.75708e-05 9.24638e-05 -2.41477e-07
4.95815e-06 -2.41477e-07 8.26254e-06
0.00137242 2.22064e-06 -1.75668e-06
2.22064e-06 4.53665e-06 -1.17793e-08
-1.75668e-06 -1.17793e-08 -6.36248e-05
0.00153514 3.87339e-06 -2.5335e-07
3.87339e-06 7.38939e-05 -5.28189e-07
-2.5335e-07 -5.28189e-07 1.45077e-05
0.000860173 1.10903e-05 6.3546e-06
1.10903e-05 -0.000291009 5.65751e-06
6.3546e-06 5.65751e-06 -0.00034911
0.00205536 4.98933e-05 4.75871e-06
4.98933e-05 0.000263224 -1.02045e-06
4.75871e-06 -1.02045e-06 0.000184663
0.00165376 3.87855e-05 7.22712e-06
3.87855e-05 0.000127553 4.79878e-06
7.22712e-06 4.79878e-06 6.06066e-05
0.00163855 3.80137e-05 -1.12263e-06
3.80137e-05 0.000117749 -3.95608e-07
-1.12263e-06 -3.95608e-07 4.40579e-05
0.00153106 3.18442e-05 -1.2533e-06
3.18442e-05 7.98499e-05 -8.00097e-07
-1.2533e-06 -8.00097e-07 1.39254e-06
0.00169627 1.85821e-05 1.86931e-06
1.85821e-05 0.000111973 -7.32976e-07
1.86931e-06 -7.32976e-07 3.64416e-05
0.0015969 2.11612e-05 -4.69292e-07
2.11612e-05 7.99489e-05 -7.64933e-08
-4.69292e-07 -7.64933e-08 -2.26714e-07
0.0015036 1.43073e-05 -2.57561e-06
1.43073e-05 5.31961e-05 -9.78814e-07
-2.57561e-06 -9.78814e-07 -2.75565e-05
0.00156218 -1.4742e-05 9.02344e-07
-1.4742e-05 7.65895e-05 -8.03355e-07
9.02344e-07 -8.03355e-07 8.04865e-07
0.00150418 -1.54858e-05 6.35679e-08
-1.54858e-05 6.46203e-05 3.92143e-07
6.35679e-08 3.92143e-07 -1.5697e-05
0.00145478 -2.2459e-05 -1.79869e-06
-2.2459e-05 6.6102e-05 5.83761e-07
-1.79869e-06 5.83761e-07 -1.45695e-05
0.00144733 -4.13481e-05 8.08895e-07
-4.13481e-05 6.84167e-05 -1.41687e-06
8.08895e-07 -1.41687e-06 -7.91955e-06
0.00139188 -4.36388e-05 9.96503e-08
-4.36388e-05 6.50998e-05 9.73075e-08
9.96503e-08 9.73075e-08 -1.34423e-05
0.00129532 -4.08851e-05 -1.99771e-06
-4.08851e-05 5.15402e-05 1.02026e-06
-1.99771e-06 1.02026e-06 -2.46275e-05
0.0013281 -4.98796e-05 6.77102e-07
-4.98796e-05 6.42525e-05 -1.08831e-06
6.77102e-07 -1.08831e-06 -1.09523e-05
0.00124109 -4.51338e-05 -8.474e-09
-4.51338e-05 5.16454e-05 -1.18934e-07
-8.474e-09 -1.18934e-07 -2.18619e-05
0.00106671 -3.2715e-05 -3.44755e-06
-3.2715e-05 1.56164e-05 1.60085e-06
-3.44755e-06 1.60085e-06 -4.85433e-05
0.00117838 -4.62667e-05 1.61089e-06
-4.62667e-05 4.38152e-05 -7.9725e-07
1.61089e-06 -7.9725e-07 -2.79252e-05
0.00101607 -3.27387e-05 6.86e-08
-3.27387e-05 1.19462e-05 -3.46839e-08
6.86e-08 -3.46839e-08 -5.05277e-05
0.00171453 7.32507e-06 -6.68565e-06
7.32507e-06 0.000454715 1.93306e-06
-6.68565e-06 1.93306e-06 0.000420208
0.000976929 -3.35604e-05 3.06829e-06
-3.35604e-05 1.65792e-05 -1.39613e-06
3.06829e-06 -1.39613e-06 -4.55409e-05
0.00172879 9.9966e-06 5.80338e-06
9.9966e-06 0.000462005 -9.47477e-07
5.80338e-06 -9.47477e-07 0.000429953
0.00120376 3.23771e-05 -3.06653e-05
3.23771e-05 0.000231309 5.79128e-06
-3.06653e-05 5.79128e-06 0.000215783
0.00206151 4.74738e-05 -2.00356e-05
4.74738e-05 0.000655649 1.73546e-06
-2.00356e-05 1.73546e-06 0.00065023
0.00175819 1.57965e-05 1.54336e-05
1.57965e-05 0.000476064 -2.74713e-06
1.54336e-05 -2.74713e-06 0.000448041
0.00283923 5.74201e-05 2.77565e-05
5.74201e-05 0.00104244 -3.35885e-06
2.77565e-05 -3.35885e-06 0.00104527
0.00149264 6.51808e-05 -3.27396e-06
6.51808e-05 7.48503e-05 -2.24035e-06
-3.27396e-06 -2.24035e-06 -1.20928e-05
0.00140833 6.9753e-05 1.55703e-06
6.9753e-05 0.000143785 -1.66168e-07
1.55703e-06 -1.66168e-07 6.11122e-05
0.00117722 6.54643e-05 1.02923e-06
6.54643e-05 -8.74278e-06 6.29863e-07
1.02923e-06 6.29863e-07 -8.70424e-05
0.00112882 5.82712e-05 -1.45817e-06
5.82712e-05 7.42786e-05 -1.0877e-06
-1.45817e-06 -1.0877e-06 -4.08885e-06
0.0011209 6.71719e-05 -3.51753e-07
6.71719e-05 4.35965e-05 1.82598e-07
-3.51753e-07 1.82598e-07 -4.35763e-05
0.00100062 6.24938e-05 4.56526e-07
6.24938e-05 1.36781e-05 7.12636e-07
4.56526e-07 7.12636e-07 -7.21686e-05
0.0010843 5.25023e-05 -6.86859e-08
5.25023e-05 7.59091e-05 -1.11851e-07
-6.86859e-08 -1.11851e-07 1.01737e-06
0.000960518 2.44622e-05 -2.60851e-06
2.44622e-05 4.79285e-05 -1.22074e-06
-2.60851e-06 -1.22074e-06 -1.3725e-05
0.000978942 4.25991e-05 1.11867e-06
4.25991e-05 4.04643e-05 3.85869e-07
1.11867e-06 3.85869e-07 -3.18314e-05
0.000892713 1.08471e-05 -4.60834e-08
1.08471e-05 2.23945e-05 9.15792e-08
-4.60834e-08 9.15792e-08 -3.74411e-05
0.000793796 -2.7427e-05 -4.87449e-06
-2.7427e-05 -4.89045e-06 -3.01268e-06
-4.87449e-06 -3.01268e-06 -3.51947e-05
0.000853631 6.94033e-07 2.42296e-06
6.94033e-07 5.23359e-06 1.55536e-06
2.42296e-06 1.55536e-06 -5.30011e-05
0.000733251 -3.8874e-05 -1.88055e-08
-3.8874e-05 -4.10266e-05 -2.34403e-08
-1.88055e-08 -2.34403e-08 -6.74072e-05
0.00267601 -5.39269e-05 -2.50981e-05
-5.39269e-05 0.000951627 -3.33459e-06
-2.50981e-05 -3.33459e-06 0.000957372
0.000710831 -3.47435e-05 4.03753e-06
-3.47435e-05 -6.38458e-05 3.58201e-06
4.03753e-06 3.58201e-06 -8.54454e-05
0.00266503 -5.03615e-05 -2.36102e-07
-5.03615e-05 0.000931719 8.67813e-08
-2.36102e-07 8.67813e-08 0.000940656
0.00264298 -4.60596e-05 2.27085e-05
-4.60596e-05 0.000909629 3.59421e-06
2.27085e-05 3.59421e-06 0.000921097
0.00157047 -1.65867e-05 -2.0848e-06
-1.65867e-05 4.89566e-05 2.41309e-06
-2.0848e-06 2.41309e-06 -2.86506e-05
0.00162545 -1.89416e-05 3.92638e-07
-1.89416e-05 6.56567e-05 -6.06444e-07
3.92638e-07 -6.06444e-07 -1.02941e-06
0.00209505 -1.83397e-05 2.41045e-06
-1.83397e-05 0.00026405 -4.90419e-06
2.41045e-06 -4.90419e-06 0.000209718
0.00145157 3.34544e-05 -2.34703e-06
3.34544e-05 -1.1025e-05 3.76318e-07
-2.34703e-06 3.76318e-07 -0.000101147
0.00154481 7.21777e-05 1.72709e-07
7.21777e-05 0.000105497 -5.86712e-07
1.72709e-07 -5.86712e-07 1.41768e-05
0.00132951 7.19781e-05 -1.15819e-06
7.19781e-05 0.000132461 1.86005e-06
-1.15819e-06 1.86005e-06 5.26214e-05
0.0017964 8.25407e-05 1.75368e-06
8.25407e-05 0.000309156 9.92338e-07
1.75368e-06 9.92338e-07 0.00022232
0.00178655 3.30953e-05 -1.93895e-07
3.30953e-05 0.000129312 -1.33325e-07
-1.93895e-07 -1.33325e-07 3.668e-05
0.0015843 8.0684e-05 2.41793e-06
8.0684e-05 9.80795e-05 1.70777e-06
2.41793e-06 1.70777e-06 -3.6883e-06
0.00177712 3.01887e-05 3.20419e-06
3.01887e-05 0.000103464 -2.68487e-07
3.20419e-06 -2.68487e-07 1.55953e-05
0.0014905 1.56806e-06 1.94789e-09
1.56806e-06 5.98973e-05 5.14185e-07
1.94789e-09 5.14185e-07 -1.58381e-05
0.0014299 3.63789e-06 3.80294e-08
3.63789e-06 2.8488e-05 -2.25514e-07
3.80294e-08 -2.25514e-07 -4.13258e-05
0.00140338 6.18781e-06 1.60755e-06
6.18781e-06 7.46897e-06 8.10046e-07
1.60755e-06 8.10046e-07 -5.26714e-05
0.00155035 3.16746e-05 -7.59547e-07
3.16746e-05 9.81109e-05 -5.5689e-08
-7.59547e-07 -5.5689e-08 1.56597e-05
0.00169238 3.84523e-05 2.99766e-06
3.84523e-05 0.000144109 1.28341e-06
2.99766e-06 1.28341e-06 7.07813e-05
0.00153209 3.21355e-05 2.50468e-07
3.21355e-05 7.97685e-05 2.23297e-07
2.50468e-07 2.23297e-07 9.20757e-07
0.00155695 2.84605e-05 -9.93849e-07
2.84605e-05 9.4405e-05 -4.24777e-07
-9.93849e-07 -4.24777e-07 1.39794e-05
0.00162127 1.9413e-05 1.76501e-06
1.9413e-05 8.95974e-05 3.58641e-07
1.76501e-06 3.58641e-07 9.54596e-06
0.00152829 1.41983e-05 -6.68704e-07
1.41983e-05 6.52014e-05 -1.64988e-07
-6.68704e-07 -1.64988e-07 -1.54796e-05
0.00147571 8.29239e-06 -2.79382e-06
8.29239e-06 6.45184e-05 -4.59962e-07
-2.79382e-06 -4.59962e-07 -1.68205e-05
0.00150974 -1.5272e-05 2.03049e-06
-1.5272e-05 6.68773e-05 -1.93968e-07
2.03049e-06 -1.93968e-07 -1.35547e-05
0.00144822 -2.11019e-05 4.96766e-08
-2.11019e-05 6.30691e-05 1.80229e-07
4.96766e-08 1.80229e-07 -1.7699e-05
0.00135916 -2.79733e-05 -2.59067e-06
-2.79733e-05 5.66366e-05 6.38017e-07
-2.59067e-06 6.38017e-07 -2.09624e-05
0.00139978 -4.32332e-05 1.45941e-06
-4.32332e-05 6.83096e-05 -8.88754e-07
1.45941e-06 -8.88754e-07 -1.02711e-05
0.00129881 -4.05764e-05 4.74465e-08
-4.05764e-05 5.28907e-05 1.03777e-07
4.74465e-08 1.03777e-07 -2.32902e-05
0.00112011 -3.04471e-05 -3.96932e-06
-3.04471e-05 2.0344e-05 1.77904e-06
-3.96932e-06 1.77904e-06 -4.62283e-05
0.00124305 -4.47299e-05 1.74115e-06
-4.47299e-05 5.23069e-05 -1.05019e-06
1.74115e-06 -1.05019e-06 -2.11586e-05
0.00106416 -3.21555e-05 1.59654e-07
-3.21555e-05 1.40346e-05 -8.43597e-08
1.59654e-07 -8.43597e-08 -5.01897e-05
0.00175775 3.7272e-06 -6.68772e-06
3.7272e-06 0.000470472 2.02659e-06
-6.68772e-06 2.02659e-06 0.000434538
0.0010113 -3.25076e-05 3.17042e-06
-3.25076e-05 1.01704e-05 -1.40558e-06
3.17042e-06 -1.40558e-06 -5.23883e-05
0.00178723 3.69871e-06 6.54277e-06
3.69871e-06 0.000486836 -8.25979e-07
6.54277e-06 -8.25979e-07 0.000452507
0.00123987 3.02626e-05 -3.38563e-05
3.02626e-05 0.00026031 5.30679e-06
-3.38563e-05 5.30679e-06 0.000241711
0.00179583 6.14007e-06 1.88537e-05
6.14007e-06 0.000491381 -3.9907e-06
1.88537e-05 -3.9907e-06 0.000459421
0.00119045 3.70126e-05 -1.21809e-05
3.70126e-05 0.000227105 2.07132e-06
-1.21809e-05 2.07132e-06 0.000211186
0.0029367 6.83825e-05 1.12237e-05
6.83825e-05 0.00110442 -1.31995e-06
1.12237e-05 -1.31995e-06 0.00110333
0.00174308 4.26001e-05 -2.5211e-06
4.26001e-05 0.000163934 -8.59189e-07
-2.5211e-06 -8.59189e-07 7.40321e-05
0.00150577 6.37164e-05 -1.22031e-06
6.37164e-05 0.000118397 -1.97341e-06
-1.22031e-06 -1.97341e-06 3.43525e-05
0.00154349 6.70117e-05 -1.42033e-06
6.70117e-05 0.000108969 1.09489e-06
-1.42033e-06 1.09489e-06 2.27943e-05
0.00146004 6.52861e-05 -9.7937e-07
6.52861e-05 0.000200375 -3.76924e-07
-9.7937e-07 -3.76924e-07 0.000122103
0.00126622 6.76264e-05 4.25686e-07
6.76264e-05 7.24544e-05 -8.88324e-07
4.25686e-07 -8.88324e-07 -9.99732e-06
0.00123261 6.64731e-05 2.76493e-06
6.64731e-05 2.84708e-05 1.47285e-06
2.76493e-06 1.47285e-06 -4.52852e-05
0.00099402 3.71979e-05 -2.77161e-06
3.71979e-05 4.656e-05 -1.56768e-06
-2.77161e-06 -1.56768e-06 -1.86415e-05
0.00112289 5.83315e-05 -6.53887e-08
5.83315e-05 7.12787e-05 -8.26835e-08
-6.53887e-08 -8.26835e-08 -7.14994e-06
0.00138051 7.39385e-05 1.50556e-06
7.39385e-05 0.000167885 1.13209e-06
1.50556e-06 1.13209e-06 8.05617e-05
0.0010315 5.08602e-05 1.1972e-06
5.08602e-05 5.23903e-05 4.41816e-07
1.1972e-06 4.41816e-07 -2.26149e-05
0.000921212 2.33062e-05 -4.36361e-08
2.33062e-05 2.93494e-05 -5.55739e-08
-4.36361e-08 -5.55739e-08 -3.2235e-05
0.000801631 -9.59238e-06 -5.45781e-06
-9.59238e-06 1.45114e-06 -3.01814e-06
-5.45781e-06 -3.01814e-06 -3.28155e-05
0.000840652 7.98356e-06 2.32779e-06
7.98356e-06 -2.92968e-06 1.21521e-06
2.32779e-06 1.21521e-06 -6.27281e-05
0.000731993 -2.82945e-05 -1.76987e-07
-2.82945e-05 -3.38908e-05 -3.12293e-08
-1.76987e-07 -3.12293e-08 -6.41896e-05
0.00275715 -5.77212e-05 -2.69516e-05
-5.77212e-05 0.00100771 -3.17804e-06
-2.69516e-05 -3.17804e-06 0.00100995
0.000674419 -3.75789e-05 3.83227e-06
-3.75789e-05 -7.01793e-05 3.47811e-06
3.83227e-06 3.47811e-06 -9.63503e-05
0.0027055 -5.45037e-05 -2.76804e-07
-5.45037e-05 0.000963872 9.31794e-08
-2.76804e-07 9.31794e-08 0.000970071
0.00269639 -5.06311e-05 2.35645e-05
-5.06311e-05 0.000945618 3.4319e-06
2.35645e-05 3.4319e-06 0.000954871
0.00161117 -6.35035e-06 -1.25393e-06
-6.35035e-06 7.47234e-05 1.06504e-06
-1.25393e-06 1.06504e-06 -5.49462e-06
0.00167489 -1.58134e-05 -1.22572e-07
-1.58134e-05 9.28552e-05 5.97741e-07
-1.22572e-07 5.97741e-07 1.43272e-05
0.00161218 -1.76973e-05 1.97393e-06
-1.76973e-05 6.00137e-05 -3.26168e-06
1.97393e-06 -3.26168e-06 -7.14628e-06
0.00158449 3.44874e-05 3.69422e-07
3.44874e-05 4.84274e-05 -1.09727e-07
3.69422e-07 -1.09727e-07 -4.12792e-05
0.00161278 7.37433e-05 2.03227e-06
7.37433e-05 0.00014093 1.15952e-06
2.03227e-06 1.15952e-06 4.92108e-05
0.00188318 3.44062e-05 2.55115e-06
3.44062e-05 0.000176588 -7.77695e-07
2.55115e-06 -7.77695e-07 8.42826e-05
0.00151748 2.42068e-06 -9.67417e-07
2.42068e-06 7.10435e-05 5.52383e-07
-9.67417e-07 5.52383e-07 -1.08996e-05
0.00147709 4.13457e-06 5.56394e-07
4.13457e-06 5.56917e-05 -2.42135e-07
5.56394e-07 -2.42135e-07 -2.04383e-05
0.0015124 5.04209e-06 1.58016e-06
5.04209e-06 6.44141e-05 -1.35485e-07
1.58016e-06 -1.35485e-07 -7.04397e-06
0.00151595 2.32214e-05 -6.46966e-07
2.32214e-05 8.15824e-05 -1.75302e-07
-6.46966e-07 -1.75302e-07 -4.62267e-07
0.00155867 2.12001e-05 -3.76451e-07
2.12001e-05 0.000107465 2.00641e-07
-3.76451e-07 2.00641e-07 2.27896e-05
0.00152342 3.24215e-05 1.74516e-06
3.24215e-05 7.49887e-05 6.8737e-07
1.74516e-06 6.8737e-07 -4.2504e-06
0.00154285 2.81582e-05 4.1072e-07
2.81582e-05 8.84512e-05 2.33655e-07
4.1072e-07 2.33655e-07 7.97845e-06
0.00154035 2.40491e-05 -9.43418e-07
2.40491e-05 0.000100944 -2.52988e-07
-9.43418e-07 -2.52988e-07 1.96715e-05
0.0015523 1.34361e-05 1.73581e-06
1.34361e-05 7.68984e-05 6.08548e-07
1.73581e-06 6.08548e-07 -3.7124e-06
0.00147498 7.08902e-06 -6.28996e-07
7.08902e-06 6.41634e-05 8.31819e-09
-6.28996e-07 8.31819e-09 -1.70724e-05
0.00138451 -2.68209e-07 -3.5412e-06
-2.68209e-07 5.63651e-05 2.12533e-07
-3.5412e-06 2.12533e-07 -2.20226e-05
0.00144358 -2.12735e-05 1.87549e-06
-2.12735e-05 6.08691e-05 -2.12766e-07
1.87549e-06 -2.12766e-07 -1.99819e-05
0.00135258 -2.72174e-05 8.18511e-08
-2.72174e-05 5.34238e-05 1.03979e-07
8.18511e-08 1.03979e-07 -2.42384e-05
0.00115205 -2.10768e-05 -4.59094e-06
-2.10768e-05 1.61419e-05 1.49012e-06
-4.59094e-06 1.49012e-06 -5.13982e-05
0.00130277 -4.02164e-05 2.24262e-06
-4.02164e-05 5.44767e-05 -8.02797e-07
2.24262e-06 -8.02797e-07 -2.17164e-05
0.00111583 -2.96661e-05 1.97577e-07
-2.96661e-05 1.7374e-05 6.88463e-08
1.97577e-07 6.88463e-08 -4.92215e-05
0.00185278 5.50525e-06 -6.85601e-06
5.50525e-06 0.000508509 2.13073e-06
-6.85601e-06 2.13073e-06 0.000471961
0.00106321 -3.16406e-05 3.49235e-06
-3.16406e-05 1.32892e-05 -1.61025e-06
3.49235e-06 -1.61025e-06 -5.10092e-05
0.00185031 -6.16384e-07 7.48287e-06
-6.16384e-07 0.000512548 -6.93888e-07
7.48287e-06 -6.93888e-07 0.000476857
0.00127369 2.62296e-05 -3.73777e-05
2.62296e-05 0.000283933 4.7598e-06
-3.73777e-05 4.7598e-06 0.000263591
0.00186235 -6.9472e-07 2.06095e-05
-6.9472e-07 0.00052001 -3.81766e-06
2.06095e-05 -3.81766e-06 0.000485943
0.0012375 3.65196e-05 -1.3696e-05
3.65196e-05 0.000262306 1.80534e-06
-1.3696e-05 1.80534e-06 0.000242968
0.00117084 4.24213e-05 7.28727e-06
4.24213e-05 0.000219842 -1.6304e-06
7.28727e-06 -1.6304e-06 0.000203444
0.00154658 5.57442e-06 -1.52514e-06
5.57442e-06 5.18902e-05 1.16781e-06
-1.52514e-06 1.16781e-06 -2.90753e-05
0.00151603 4.47413e-05 -2.68751e-06
4.47413e-05 8.27155e-05 -5.09739e-07
-2.68751e-06 -5.09739e-07 -4.29067e-06
0.00165183 4.17775e-05 -1.07691e-06
4.17775e-05 0.000115489 -8.39663e-07
-1.07691e-06 -8.39663e-07 2.52897e-05
0.00142803 5.99634e-05 -2.05913e-06
5.99634e-05 0.000129794 -8.62305e-07
-2.05913e-06 -8.62305e-07 5.04902e-05
0.00156609 6.48752e-05 7.71693e-07
6.48752e-05 0.000152459 5.61704e-07
7.71693e-07 5.61704e-07 6.88372e-05
0.00155104 6.79842e-05 3.68592e-06
6.79842e-05 0.000122063 2.58991e-06
3.68592e-06 2.58991e-06 3.6708e-05
0.000968854 4.20385e-05 -3.2497e-06
4.20385e-05 1.08392e-06 -1.41023e-06
-3.2497e-06 -1.41023e-06 -6.64941e-05
0.00116854 5.98922e-05 9.10205e-07
5.98922e-05 5.39265e-05 5.67357e-07
9.10205e-07 5.67357e-07 -2.53674e-05
0.00111127 6.52542e-05 1.30127e-06
6.52542e-05 -5.80132e-06 1.30824e-06
1.30127e-06 1.30824e-06 -8.79308e-05
0.000810003 8.18813e-06 -6.18812e-06
8.18813e-06 3.56664e-06 -3.41158e-06
-6.18812e-06 -3.41158e-06 -3.56339e-05
0.000957349 3.53478e-05 -1.32165e-07
3.53478e-05 2.82271e-05 -1.20087e-07
-1.32165e-07 -1.20087e-07 -3.67529e-05
0.00112437 5.85994e-05 1.49027e-06
5.85994e-05 7.19199e-05 9.59561e-07
1.49027e-06 9.59561e-07 -6.58145e-06
0.000871339 2.1422e-05 2.37476e-06
2.1422e-05 5.57347e-06 1.01163e-06
2.37476e-06 1.01163e-06 -5.59435e-05
0.000740199 -1.28583e-05 -4.17421e-08
-1.28583e-05 -2.46659e-05 -5.79549e-08
-4.17421e-08 -5.79549e-08 -5.93837e-05
0.00291339 -6.10743e-05 -3.02102e-05
-6.10743e-05 0.00110275 -3.03821e-06
-3.02102e-05 -3.03821e-06 0.00110106
0.000676998 -3.55092e-05 3.85578e-06
-3.55092e-05 -5.84677e-05 3.28844e-06
3.85578e-06 3.28844e-06 -8.93742e-05
0.00276127 -5.84576e-05 -3.44211e-07
-5.84576e-05 0.0010068 1.04033e-07
-3.44211e-07 1.04033e-07 0.00100964
0.00274333 -5.50461e-05 2.44206e-05
-5.50461e-05 0.000980232 3.27708e-06
2.44206e-05 3.27708e-06 0.000986876
0.0016035 -1.31573e-05 -1.03682e-06
-1.31573e-05 8.87394e-05 -3.85613e-07
-1.03682e-06 -3.85613e-07 7.23043e-06
0.00165369 -6.8343e-06 -3.65559e-07
-6.8343e-06 9.34857e-05 2.21488e-07
-3.65559e-07 2.21488e-07 1.29691e-05
0.00171782 -1.49307e-05 1.12393e-06
-1.49307e-05 0.000107386 -1.62294e-06
1.12393e-06 -1.62294e-06 2.78632e-05
0.00169693 3.51588e-05 2.81599e-06
3.51588e-05 9.77041e-05 -2.28553e-07
2.81599e-06 -2.28553e-07 8.44922e-06
0.00153765 -1.22642e-06 -9.74736e-07
-1.22642e-06 8.0324e-05 -3.16544e-07
-9.74736e-07 -3.16544e-07 -5.09234e-06
0.0015645 2.47241e-06 -2.5817e-07
2.47241e-06 9.41912e-05 -1.60905e-07
-2.5817e-07 -1.60905e-07 1.26612e-05
0.00145319 6.55891e-06 7.57643e-07
6.55891e-06 4.6248e-05 -2.02685e-07
7.57643e-07 -2.02685e-07 -3.02576e-05
0.00149144 1.82951e-05 -4.41393e-07
1.82951e-05 6.99744e-05 -4.11111e-07
-4.41393e-07 -4.11111e-07 -1.1797e-05
0.00151538 2.57791e-05 5.42909e-08
2.57791e-05 8.54217e-05 -2.46734e-07
5.42909e-08 -2.46734e-07 6.44098e-07
0.00152962 2.2668e-05 -1.5649e-06
2.2668e-05 0.000102443 4.86425e-07
-1.5649e-06 4.86425e-07 1.88882e-05
0.00153356 2.79173e-05 1.89193e-06
2.79173e-05 8.48184e-05 9.38462e-07
1.89193e-06 9.38462e-07 4.29859e-06
0.00154222 2.44587e-05 4.74452e-07
2.44587e-05 0.000103556 1.24148e-07
4.74452e-07 1.24148e-07 2.24936e-05
0.00131752 2.08893e-05 -2.72529e-06
2.08893e-05 1.96527e-05 -4.78079e-08
-2.72529e-06 -4.78079e-08 -5.96288e-05
0.00146739 7.39769e-06 1.40246e-06
7.39769e-06 6.05984e-05 4.94429e-07
1.40246e-06 4.94429e-07 -2.05519e-05
0.00137495 1.47334e-06 -3.3114e-07
1.47334e-06 5.16641e-05 1.24392e-07
-3.3114e-07 1.24392e-07 -2.66473e-05
0.00116168 -2.13833e-06 -4.94383e-06
-2.13833e-06 9.38972e-06 1.02828e-06
-4.94383e-06 1.02828e-06 -5.82544e-05
0.00134547 -2.42876e-05 2.65012e-06
-2.42876e-05 5.00106e-05 -3.88457e-07
2.65012e-06 -3.88457e-07 -2.76838e-05
0.00115182 -2.23075e-05 1.05794e-07
-2.23075e-05 1.55103e-05 1.57383e-07
1.05794e-07 1.57383e-07 -5.20922e-05
0.000700003 -8.92922e-06 -7.52472e-06
-8.92922e-06 -8.84824e-05 3.07459e-06
-7.52472e-06 3.07459e-06 -0.00013008
0.00111445 -2.90489e-05 4.11328e-06
-2.90489e-05 1.58623e-05 -1.52471e-06
4.11328e-06 -1.52471e-06 -5.07692e-05
0.00132317 -1.15961e-05 9.49525e-06
-1.15961e-05 0.000235546 -3.5351e-07
9.49525e-06 -3.5351e-07 0.000196692
0.00373287 7.53221e-05 -4.07427e-05
7.53221e-05 0.00153637 1.95148e-06
-4.07427e-05 1.95148e-06 0.00152639
0.0019394 -6.05426e-06 2.27143e-05
-6.05426e-06 0.000552689 -3.68389e-06
2.27143e-05 -3.68389e-06 0.000517352
0.00128418 3.5322e-05 -1.54771e-05
3.5322e-05 0.000293165 1.51616e-06
-1.54771e-05 1.51616e-06 0.000271676
0.00123236 4.41317e-05 7.41381e-06
4.41317e-05 0.000263113 -1.641e-06
7.41381e-06 -1.641e-06 0.000242883
0.00162831 -5.58378e-06 -5.74688e-07
-5.58378e-06 0.000104848 3.47868e-08
-5.74688e-07 3.47868e-08 2.51357e-05
0.00138356 1.41193e-05 -1.79614e-06
1.41193e-05 5.8102e-06 8.26055e-07
-1.79614e-06 8.26055e-07 -7.65405e-05
0.00157673 5.48007e-06 8.60482e-08
5.48007e-06 6.98631e-05 -4.73835e-08
8.60482e-08 -4.73835e-08 -1.10847e-05
0.00108271 4.2634e-05 -3.12838e-06
4.2634e-05 -8.52117e-05 -9.20262e-07
-3.12838e-06 -9.20262e-07 -0.000167223
0.00153598 4.49275e-05 1.33424e-07
4.49275e-05 9.51049e-05 -3.56019e-08
1.33424e-07 -3.56019e-08 8.85693e-06
0.00155866 4.10717e-05 1.72162e-06
4.10717e-05 6.63988e-05 -5.27736e-07
1.72162e-06 -5.27736e-07 -2.41412e-05
0.000694225 3.60541e-05 -4.89352e-06
3.60541e-05 -0.000178141 -1.8793e-06
-4.89352e-06 -1.8793e-06 -0.000248219
0.00142851 6.06203e-05 5.3094e-07
6.06203e-05 0.000129428 -1.4497e-09
5.3094e-07 -1.4497e-09 5.00461e-05
0.00162424 6.61042e-05 2.50504e-06
6.61042e-05 0.000186045 1.73613e-06
2.50504e-06 1.73613e-06 0.000102755
0.000790111 2.28299e-05 -7.14881e-06
2.28299e-05 -1.67754e-05 -3.60291e-06
-7.14881e-06 -3.60291e-06 -5.97986e-05
0.00080954 3.85195e-05 -1.27975e-07
3.85195e-05 -8.09199e-05 8.222e-08
-1.27975e-07 8.222e-08 -0.000149331
0.00088076 5.45724e-05 2.68063e-06
5.45724e-05 -9.07075e-05 1.69661e-06
2.68063e-06 1.69661e-06 -0.000171026
0.00320881 -6.02729e-05 -3.69812e-05
-6.02729e-05 0.00126412 -2.98658e-06
-3.69812e-05 -2.98658e-06 0.00125881
0.00073391 5.06657e-06 -1.27414e-07
5.06657e-06 -2.92092e-05 -4.5477e-08
-1.27414e-07 -4.5477e-08 -6.86665e-05
0.000927734 3.35321e-05 2.48416e-06
3.35321e-05 1.34002e-05 1.39066e-06
2.48416e-06 1.39066e-06 -5.13704e-05
0.000675813 -1.48326e-05 4.76559e-06
-1.48326e-05 -5.22537e-05 3.1605e-06
4.76559e-06 3.1605e-06 -8.72666e-05
0.00288885 -6.27792e-05 -4.48013e-07
-6.27792e-05 0.00108768 1.29418e-07
-4.48013e-07 1.29418e-07 0.00108657
0.00278297 -5.90496e-05 2.54247e-05
-5.90496e-05 0.00101423 3.13151e-06
2.54247e-05 3.13151e-06 0.00101771
0.00156072 -1.36106e-05 -1.56253e-06
-1.36106e-05 8.0635e-05 -2.48363e-07
-1.56253e-06 -2.48363e-07 -1.80985e-06
0.00159451 -1.30633e-05 -3.766e-07
-1.30633e-05 8.50748e-05 -2.38987e-07
-3.766e-07 -2.38987e-07 3.83609e-06
0.00170794 -7.22181e-06 1.15122e-06
-7.22181e-06 0.000118079 -1.05278e-06
1.15122e-06 -1.05278e-06 3.72514e-05
0.00159488 1.29499e-05 -1.46405e-06
1.29499e-05 0.000113257 1.16113e-07
-1.46405e-06 1.16113e-07 2.66115e-05
0.00154798 2.37286e-06 -3.52025e-07
2.37286e-06 8.44242e-05 -2.874e-07
-3.52025e-07 -2.874e-07 -1.42051e-06
0.00161977 -3.92664e-07 -1.34903e-07
-3.92664e-07 0.000121271 -1.4827e-07
-1.34903e-07 -1.4827e-07 4.02513e-05
0.00146121 2.87792e-05 7.0377e-07
2.87792e-05 5.79869e-05 -9.18028e-07
7.0377e-07 -9.18028e-07 -2.6808e-05
0.00152144 2.47915e-05 3.27096e-07
2.47915e-05 9.78102e-05 1.0255e-07
3.27096e-07 1.0255e-07 1.4337e-05
0.0015342 1.89882e-05 -2.25213e-06
1.89882e-05 0.000126274 6.27642e-07
-2.25213e-06 6.27642e-07 4.71499e-05
0.00154883 2.48951e-05 2.23716e-06
2.48951e-05 0.00010843 7.10147e-07
2.23716e-06 7.10147e-07 2.75826e-05
0.00146106 2.31461e-05 7.19727e-08
2.31461e-05 9.36949e-05 6.27141e-08
7.19727e-08 6.27141e-08 1.54094e-05
0.000916456 1.55509e-05 -5.89184e-06
1.55509e-05 -0.000122082 9.44617e-07
-5.89184e-06 9.44617e-07 -0.00019218
0.00135824 8.36462e-07 2.50347e-06
8.36462e-07 4.35168e-05 8.07168e-08
2.50347e-06 8.07168e-08 -3.47677e-05
0.00115656 -5.29715e-07 -2.33533e-08
-5.29715e-07 6.56845e-06 3.23933e-08
-2.33533e-08 3.23933e-08 -6.10284e-05
0.00071048 -9.18116e-07 -7.70449e-06
-9.18116e-07 -8.94829e-05 2.59221e-06
-7.70449e-06 2.59221e-06 -0.000130677
0.00114837 -2.17126e-05 4.79453e-06
-2.17126e-05 1.33026e-05 -1.16143e-06
4.79453e-06 -1.16143e-06 -5.4331e-05
0.000708804 -6.32325e-06 -8.63572e-08
-6.32325e-06 -8.41251e-05 1.5137e-07
-8.63572e-08 1.5137e-07 -0.000125827
0.00379546 8.02176e-05 -4.12421e-05
8.02176e-05 0.00156737 1.44896e-06
-4.12421e-05 1.44896e-06 0.00155695
0.00077199 -2.06281e-05 9.70933e-06
-2.06281e-05 -4.70022e-05 -4.11442e-06
9.70933e-06 -4.11442e-06 -8.93512e-05
0.00258965 6.32904e-05 1.50293e-05
6.32904e-05 0.000956803 8.7117e-07
1.50293e-05 8.7117e-07 0.000939767
0.00129691 4.6218e-05 7.27477e-06
4.6218e-05 0.000303873 -1.65025e-06
7.27477e-06 -1.65025e-06 0.000281021
0.00171329 -1.38952e-05 -9.55016e-07
-1.38952e-05 0.000161499 4.51574e-08
-9.55016e-07 4.51574e-08 8.1221e-05
0.00148529 -4.6031e-07 -1.29153e-06
-4.6031e-07 5.89922e-05 1.80662e-07
-1.29153e-06 1.80662e-07 -2.05826e-05
0.00153407 -5.69854e-06 -1.99881e-09
-5.69854e-06 5.87741e-05 1.17144e-07
-1.99881e-09 1.17144e-07 -2.06693e-05
0.0013349 2.2142e-05 -2.64614e-06
2.2142e-05 2.57832e-05 1.04372e-07
-2.64614e-06 1.04372e-07 -5.31493e-05
0.00142307 1.38181e-05 4.17522e-07
1.38181e-05 2.63435e-05 -1.31161e-07
4.17522e-07 -1.31161e-07 -5.56958e-05
0.00161093 5.28609e-06 1.53928e-06
5.28609e-06 8.96792e-05 -8.97511e-07
1.53928e-06 -8.97511e-07 8.76473e-06
0.000779628 3.15339e-05 -5.61163e-06
3.15339e-05 -0.000170399 -1.8178e-06
-5.61163e-06 -1.8178e-06 -0.000241155
0.00142967 4.83188e-05 -7.53376e-07
4.83188e-05 8.85989e-05 -2.06186e-07
-7.53376e-07 -2.06186e-07 7.85513e-06
0.00156882 4.52901e-05 2.88641e-06
4.52901e-05 0.000113518 -1.55377e-07
2.88641e-06 -1.55377e-07 2.80601e-05
0.000758415 3.02705e-05 -8.22138e-06
3.02705e-05 -4.62796e-05 -3.63077e-06
-8.22138e-06 -3.63077e-06 -9.05761e-05
0.00075928 3.76664e-05 -1.28466e-06
3.76664e-05 -0.00014975 -5.02909e-07
-1.28466e-06 -5.02909e-07 -0.000220163
0.00143266 6.13735e-05 3.02502e-06
6.13735e-05 0.000130893 1.03611e-06
3.02502e-06 1.03611e-06 5.14245e-05
0.00355071 -5.98374e-05 -4.22318e-05
-5.98374e-05 0.00144251 -2.84373e-06
-4.22318e-05 -2.84373e-06 0.00143439
0.000726865 1.97088e-05 -1.6709e-07
1.97088e-05 -4.36995e-05 1.29768e-07
-1.6709e-07 1.29768e-07 -8.6909e-05
0.000653106 3.50661e-05 3.08111e-06
3.50661e-05 -0.000161617 1.8007e-06
3.08111e-06 1.8007e-06 -0.000230852
0.00311146 -6.67563e-05 -9.92079e-07
-6.67563e-05 0.00121418 1.60002e-07
-9.92079e-07 1.60002e-07 0.00120913
0.00066039 2.51619e-06 5.32388e-06
2.51619e-06 -6.07567e-05 3.42859e-06
5.32388e-06 3.42859e-06 -0.000100451
0.00284607 -6.29207e-05 2.65185e-05
-6.29207e-05 0.00106321 2.98999e-06
2.65185e-05 2.98999e-06 0.00106289
0.00159183 7.90513e-08 -1.39877e-06
7.90513e-08 0.000109826 -3.27807e-07
-1.39877e-06 -3.27807e-07 2.61309e-05
0.00157344 -1.26435e-05 2.51807e-07
-1.26435e-05 8.74409e-05 2.55394e-07
2.51807e-07 2.55394e-07 4.96827e-06
0.00157437 -1.27394e-05 5.3997e-07
-1.27394e-05 7.58671e-05 -4.63673e-07
5.3997e-07 -4.63673e-07 -5.0804e-06
0.00156572 1.62303e-06 -2.81875e-06
1.62303e-06 0.000122881 1.56714e-07
-2.81875e-06 1.56714e-07 4.09349e-05
0.00159492 1.27874e-05 3.27173e-07
1.27874e-05 0.000115542 -5.02237e-08
3.27173e-07 -5.02237e-08 2.90051e-05
0.00156098 8.46033e-06 1.34814e-06
8.46033e-06 9.0031e-05 -2.84837e-07
1.34814e-06 -2.84837e-07 3.62534e-06
0.00151968 2.57272e-05 1.74813e-06
2.57272e-05 9.63381e-05 -5.55025e-07
1.74813e-06 -5.55025e-07 1.29748e-05
0.00152901 1.94261e-05 5.6286e-07
1.94261e-05 0.000123356 -5.15588e-08
5.6286e-07 -5.15588e-08 4.43788e-05
0.000931066 1.18047e-05 -5.85964e-06
1.18047e-05 -0.000125256 1.05662e-06
-5.85964e-06 1.05662e-06 -0.000196877
0.00161666 2.54238e-05 2.98529e-06
2.54238e-05 0.000173647 3.82538e-08
2.98529e-06 3.82538e-08 9.63603e-05
0.00103947 1.74068e-05 -9.37009e-07
1.74068e-05 -5.88968e-05 2.07488e-07
-9.37009e-07 2.07488e-07 -0.000128024
0.000722168 4.73744e-06 -8.16342e-06
4.73744e-06 -8.90736e-05 2.21383e-06
-8.16342e-06 2.21383e-06 -0.000131311
0.00115298 -1.06444e-06 4.84377e-06
-1.06444e-06 4.44508e-06 -9.96737e-07
4.84377e-06 -9.96737e-07 -6.31179e-05
0.000712787 6.34705e-06 1.49088e-07
6.34705e-06 -8.78558e-05 3.16898e-08
1.49088e-07 3.16898e-08 -0.000129389
0.00388763 8.12939e-05 -4.38986e-05
8.12939e-05 0.00161212 9.18101e-07
-4.38986e-05 9.18101e-07 0.0016017
0.000712429 -1.64099e-06 7.41963e-06
-1.64099e-06 -8.25399e-05 -2.81478e-06
7.41963e-06 -2.81478e-06 -0.000124163
0.00384776 7.84592e-05 3.35884e-07
7.84592e-05 0.00159304 1.61704e-07
3.35884e-07 1.61704e-07 0.00158276
0.00149075 2.36462e-05 3.91557e-05
2.36462e-05 0.000396565 -2.37515e-06
3.91557e-05 -2.37515e-06 0.000375047
0.00166379 -8.37613e-06 -1.28825e-06
-8.37613e-06 0.000153433 -1.43772e-07
-1.28825e-06 -1.43772e-07 7.34853e-05
0.00158982 -1.39947e-05 4.21958e-07
-1.39947e-05 0.000100327 2.46706e-07
4.21958e-07 2.46706e-07 2.03132e-05
0.0013674 -1.13546e-07 -2.41664e-06
-1.13546e-07 3.57883e-05 -1.94471e-07
-2.41664e-06 -1.94471e-07 -4.20958e-05
0.00149926 -1.04224e-06 2.53722e-07
-1.04224e-06 6.54413e-05 -1.45165e-07
2.53722e-07 -1.45165e-07 -1.4148e-05
0.00143737 -5.83234e-06 1.75437e-06
-5.83234e-06 1.15514e-05 -1.04188e-08
1.75437e-06 -1.04188e-08 -6.76282e-05
0.00115536 1.96178e-05 -5.11866e-06
1.96178e-05 1.29318e-06 -1.16704e-06
-5.11866e-06 -1.16704e-06 -6.7235e-05
0.00137571 2.23557e-05 -5.02198e-08
2.23557e-05 4.46777e-05 1.24137e-07
-5.02198e-08 1.24137e-07 -3.42857e-05
0.0014625 1.3523e-05 1.6907e-06
1.3523e-05 4.67675e-05 -7.11622e-07
1.6907e-06 -7.11622e-07 -3.49553e-05
0.000734455 2.77115e-05 -8.81648e-06
2.77115e-05 -7.07222e-05 -3.46254e-06
-8.81648e-06 -3.46254e-06 -0.000114231
0.000982971 3.48876e-05 -1.51772e-06
3.48876e-05 -6.90805e-05 -3.8387e-07
-1.51772e-06 -3.8387e-07 -0.000139188
0.00177176 5.38036e-05 2.56525e-06
5.38036e-05 0.000259939 4.06908e-07
2.56525e-06 4.06908e-07 0.000180485
0.00383093 -6.26492e-05 -4.52144e-05
-6.26492e-05 0.00158485 -2.51614e-06
-4.52144e-05 -2.51614e-06 0.00157513
0.000721647 2.76645e-05 -4.81218e-08
2.76645e-05 -6.18783e-05 1.61312e-07
-4.81218e-08 1.61312e-07 -0.000106315
0.00081784 3.92252e-05 2.96642e-06
3.92252e-05 -0.000124459 1.17529e-06
2.96642e-06 1.17529e-06 -0.000195214
0.00342653 -6.63822e-05 -1.19638e-06
-6.63822e-05 0.00138045 1.88685e-07
-1.19638e-06 1.88685e-07 0.00137252
0.000668043 1.64392e-05 6.13278e-06
1.64392e-05 -6.86794e-05 3.84423e-06
6.13278e-06 3.84423e-06 -0.000112061
0.00301236 -6.76847e-05 2.82873e-05
-6.76847e-05 0.00116291 2.87976e-06
2.82873e-05 2.87976e-06 0.00115852
0.00157189 4.65736e-06 -2.24671e-06
4.65736e-06 0.000129136 -5.50208e-07
-2.24671e-06 -5.50208e-07 4.92513e-05
0.00158767 -2.38132e-06 2.23716e-07
-2.38132e-06 0.000109702 1.8257e-07
2.23716e-07 1.8257e-07 2.61977e-05
0.00159121 -1.22291e-05 2.01452e-06
-1.22291e-05 9.68058e-05 7.40078e-07
2.01452e-06 7.40078e-07 1.42865e-05
0.000939765 -1.03724e-05 -6.46093e-06
-1.03724e-05 -0.000132402 3.61499e-07
-6.46093e-06 3.61499e-07 -0.000205744
0.00158204 8.4864e-06 5.85513e-07
8.4864e-06 0.000131776 1.15695e-07
5.85513e-07 1.15695e-07 4.96962e-05
0.00158455 1.28517e-05 2.1927e-06
1.28517e-05 0.000112728 -4.16148e-07
2.1927e-06 -4.16148e-07 2.63122e-05
0.00152587 1.95435e-05 3.24859e-06
1.95435e-05 0.000121483 -3.88653e-07
3.24859e-06 -3.88653e-07 4.26479e-05
0.000929213 1.18e-05 -7.09757e-07
1.18e-05 -0.000124953 1.89466e-07
-7.09757e-07 1.89466e-07 -0.000196245
0.000723231 9.88343e-06 -8.53811e-06
9.88343e-06 -9.73195e-05 1.56051e-06
-8.53811e-06 1.56051e-06 -0.000140528
0.00115639 2.01385e-05 4.03421e-06
2.01385e-05 1.22737e-06 -7.65517e-07
4.03421e-06 -7.65517e-07 -6.69416e-05
0.0007263 1.35563e-05 2.37527e-07
1.35563e-05 -8.68219e-05 3.58585e-08
2.37527e-07 3.58585e-08 -0.000129274
0.00398488 7.80626e-05 -4.68646e-05
7.80626e-05 0.0016579 3.84857e-07
-4.68646e-05 3.84857e-07 0.0016479
0.00071559 1.45815e-05 7.63063e-06
1.45815e-05 -8.62542e-05 -2.46002e-06
7.63063e-06 -2.46002e-06 -0.000127915
0.00393511 8.1261e-05 2.30776e-07
8.1261e-05 0.00163529 1.42889e-07
2.30776e-07 1.42889e-07 0.00162491
0.00391708 7.78565e-05 4.5312e-05
7.78565e-05 0.00162714 -1.13748e-06
4.5312e-05 -1.13748e-06 0.00161694
0.0014316 -5.65927e-06 -2.63258e-06
-5.65927e-06 6.57854e-05 -5.99634e-07
-2.63258e-06 -5.99634e-07 -1.30192e-05
0.00156207 -9.43703e-06 2.30485e-07
-9.43703e-06 0.000101514 1.43096e-07
2.30485e-07 1.43096e-07 2.151e-05
0.00145917 -1.38919e-05 1.33682e-06
-1.38919e-05 3.5526e-05 4.42617e-07
1.33682e-06 4.42617e-07 -4.42017e-05
0.00116186 -1.57184e-06 -5.10508e-06
-1.57184e-06 -3.50186e-06 -1.21908e-06
-5.10508e-06 -1.21908e-06 -7.17331e-05
0.00139213 -3.73043e-07 1.29456e-07
-3.73043e-07 4.74797e-05 -9.34062e-08
1.29456e-07 -9.34062e-08 -3.04418e-05
0.00151168 -1.60639e-06 1.32304e-06
-1.60639e-06 7.11602e-05 -5.29013e-07
1.32304e-06 -5.29013e-07 -8.44781e-06
0.000719069 1.69475e-05 -8.88727e-06
1.69475e-05 -8.75448e-05 -3.09366e-06
-8.88727e-06 -3.09366e-06 -0.000129692
0.00117234 1.9406e-05 -1.07538e-07
1.9406e-05 9.94213e-06 1.42219e-07
-1.07538e-07 1.42219e-07 -5.86744e-05
0.00141633 2.25157e-05 2.86585e-06
2.25157e-05 6.34953e-05 2.2189e-07
2.86585e-06 2.2189e-07 -1.55044e-05
0.00398724 -6.71649e-05 -4.67312e-05
-6.71649e-05 0.00166193 -2.06122e-06
-4.67312e-05 -2.06122e-06 0.00165171
0.000718474 2.70209e-05 6.86094e-08
2.70209e-05 -7.73589e-05 1.54807e-07
6.86094e-08 1.54807e-07 -0.000120913
0.0011968 3.85812e-05 3.6652e-06
3.85812e-05 3.76483e-05 1.24139e-06
3.6652e-06 1.24139e-06 -3.18707e-05
0.00370587 -6.6146e-05 -9.86139e-07
-6.6146e-05 0.00152296 2.01664e-07
-9.86139e-07 2.01664e-07 0.00151334
0.000687878 2.54123e-05 7.25799e-06
2.54123e-05 -7.63312e-05 3.82954e-06
7.25799e-06 3.82954e-06 -0.000120844
0.00328543 -7.21152e-05 3.23356e-05
-7.21152e-05 0.00131022 2.75358e-06
3.23356e-05 2.75358e-06 0.0013024
0.00121049 -2.21222e-06 -5.55631e-06
-2.21222e-06 6.18802e-06 -6.16134e-07
-5.55631e-06 -6.16134e-07 -6.45749e-05
0.00145518 -2.16231e-07 6.07887e-07
-2.16231e-07 6.93145e-05 -9.00456e-08
6.07887e-07 -9.00456e-08 -1.18176e-05
0.00158617 -5.85874e-06 2.06109e-06
-5.85874e-06 0.000110733 9.3529e-07
2.06109e-06 9.3529e-07 2.74229e-05
0.000723361 9.48228e-06 -8.98115e-06
9.48228e-06 -0.000104208 4.06752e-07
-8.98115e-06 4.06752e-07 -0.000147639
0.000950674 -2.782e-06 -8.86939e-07
-2.782e-06 -0.000126726 3.09584e-07
-8.86939e-07 3.09584e-07 -0.000199791
0.00160032 1.47945e-05 3.89988e-06
1.47945e-05 0.000141701 -4.02738e-07
3.89988e-06 -4.02738e-07 5.94729e-05
0.000927217 1.20866e-05 4.07199e-06
1.20866e-05 -0.000124846 -5.42061e-07
4.07199e-06 -5.42061e-07 -0.000195786
0.00073191 1.22022e-05 1.86109e-07
1.22022e-05 -9.28003e-05 1.70004e-07
1.86109e-07 1.70004e-07 -0.000136225
0.00413542 7.62869e-05 -4.9499e-05
7.62869e-05 0.00172842 -1.41598e-07
-4.9499e-05 -1.41598e-07 0.00171867
0.000730431 2.08681e-05 8.10638e-06
2.08681e-05 -8.44497e-05 -2.05254e-06
8.10638e-06 -2.05254e-06 -0.000127234
0.00404558 7.9107e-05 3.77145e-07
7.9107e-05 0.00168721 1.61983e-07
3.77145e-07 1.61983e-07 0.00167714
0.00398048 8.1621e-05 4.79435e-05
8.1621e-05 0.0016575 -6.27717e-07
4.79435e-05 -6.27717e-07 0.00164714
0.00118955 -6.91031e-06 -5.43957e-06
-6.91031e-06 3.38244e-06 -1.27898e-06
-5.43957e-06 -1.27898e-06 -6.58891e-05
0.00137747 -7.03032e-06 -6.40413e-08
-7.03032e-06 3.72917e-05 -7.95505e-08
-6.40413e-08 -7.95505e-08 -4.18625e-05
0.00146496 -1.05605e-05 1.55812e-06
-1.05605e-05 5.19388e-05 2.73319e-07
1.55812e-06 2.73319e-07 -2.8136e-05
0.00207321 -7.01904e-06 -2.77573e-05
-7.01904e-06 0.0005917 -1.93675e-06
-2.77573e-05 -1.93675e-06 0.000556946
0.00118189 -2.01623e-06 1.1345e-07
-2.01623e-06 6.49113e-06 3.57468e-08
1.1345e-07 3.57468e-08 -6.18809e-05
0.00142059 -8.2941e-07 2.70951e-06
-8.2941e-07 6.10103e-05 4.69651e-08
2.70951e-06 4.69651e-08 -1.6955e-05
0.00406427 -6.4478e-05 -4.93011e-05
-6.4478e-05 0.00169678 -1.4791e-06
-4.93011e-05 -1.4791e-06 0.00168729
0.000719545 1.7329e-05 -2.31985e-08
1.7329e-05 -8.71473e-05 1.22569e-07
-2.31985e-08 1.22569e-07 -0.000129352
0.00118882 1.85598e-05 5.27882e-06
1.85598e-05 1.84155e-05 1.47055e-06
5.27882e-06 1.47055e-06 -5.03313e-05
0.00389823 -6.38736e-05 1.81545e-08
-6.38736e-05 0.00161768 1.75636e-07
1.81545e-08 1.75636e-07 0.00160781
0.000697994 2.59915e-05 8.16568e-06
2.59915e-05 -8.62291e-05 3.62659e-06
8.16568e-06 3.62659e-06 -0.000129855
0.00359009 -7.1565e-05 3.84273e-05
-7.1565e-05 0.00146597 2.58256e-06
3.84273e-05 2.58256e-06 0.00145629
0.000767388 4.56983e-06 -1.18353e-05
4.56983e-06 -8.25313e-05 -1.0942e-06
-1.18353e-05 -1.0942e-06 -0.00012642
0.00107835 -4.87705e-06 1.21662e-07
-4.87705e-06 -6.10086e-05 2.63761e-07
1.21662e-07 2.63761e-07 -0.000132562
0.00132873 -4.88183e-06 3.59607e-06
-4.88183e-06 4.44219e-06 5.4215e-07
3.59607e-06 5.4215e-07 -7.78628e-05
0.00427193 -6.69443e-06 -4.98523e-05
-6.69443e-06 0.00179166 -6.95721e-07
-4.98523e-05 -6.95721e-07 0.00178283
0.000736832 7.08524e-06 9.63097e-08
7.08524e-06 -9.75103e-05 1.75789e-07
9.63097e-08 1.75789e-07 -0.000141191
0.000954234 4.46317e-06 4.48364e-06
4.46317e-06 -0.0001246 -7.45876e-08
4.48364e-06 -7.45876e-08 -0.000197408
0.000739657 1.86507e-05 8.67848e-06
1.86507e-05 -8.84352e-05 -1.18094e-06
8.67848e-06 -1.18094e-06 -0.000132299
0.00419373 7.95891e-05 1.81398e-06
7.95891e-05 0.00175693 2.51749e-07
1.81398e-06 2.51749e-07 0.00174696
0.00410519 8.24104e-05 5.22367e-05
8.24104e-05 0.00171632 -9.61204e-08
5.22367e-05 -9.61204e-08 0.00170597
0.0021449 -2.12476e-05 -3.16625e-05
-2.12476e-05 0.000620536 -1.7628e-06
-3.16625e-05 -1.7628e-06 0.000584643
0.00119751 -5.56944e-06 -5.16426e-08
-5.56944e-06 7.14548e-06 1.68503e-08
-5.16426e-08 1.68503e-08 -6.20583e-05
0.00132272 -8.2518e-06 2.60395e-06
-8.2518e-06 8.48954e-06 4.49818e-07
2.60395e-06 4.49818e-07 -7.10085e-05
0.00399865 -8.05333e-05 -1.29241e-05
-8.05333e-05 0.0016662 -5.95504e-07
-1.29241e-05 -5.95504e-07 0.00165506
0.000729283 2.86855e-06 -4.44837e-08
2.86855e-06 -8.83382e-05 5.23558e-08
-4.44837e-08 5.23558e-08 -0.000130282
0.00120393 -1.16366e-06 5.29003e-06
-1.16366e-06 1.73096e-05 1.22681e-06
5.29003e-06 1.22681e-06 -5.11365e-05
0.00400057 -6.24716e-05 6.18116e-07
-6.24716e-05 0.00166568 1.61208e-07
6.18116e-07 1.61208e-07 0.00165622
0.000714933 1.83855e-05 8.84723e-06
1.83855e-05 -8.92857e-05 3.27503e-06
8.84723e-06 3.27503e-06 -0.000131508
0.00380323 -6.81077e-05 4.25332e-05
-6.81077e-05 0.0015716 2.27176e-06
4.25332e-05 2.27176e-06 0.0015615
0.00154436 -8.31357e-06 -5.21316e-05
-8.31357e-06 0.000404866 -2.59675e-07
-5.21316e-05 -2.59675e-07 0.000383838
0.00145526 -2.01748e-06 -1.1929e-05
-2.01748e-06 0.000266475 3.4768e-07
-1.1929e-05 3.4768e-07 0.000226808
0.000957697 -3.71296e-06 5.58318e-06
-3.71296e-06 -0.00012249 9.36622e-07
5.58318e-06 9.36622e-07 -0.000194802
0.00427858 2.04792e-06 2.09892e-06
2.04792e-06 0.00179628 -4.12566e-07
2.09892e-06 -4.12566e-07 0.0017867
0.000741952 5.42649e-06 9.25824e-06
5.42649e-06 -9.48407e-05 -5.46609e-08
9.25824e-06 -5.46609e-08 -0.000138584
0.00424729 7.48456e-05 5.44567e-05
7.48456e-05 0.00178245 4.78505e-07
5.44567e-05 4.78505e-07 0.00177275
0.00141455 -3.33573e-05 -8.16992e-06
-3.33573e-05 0.00034825 -9.71927e-07
-8.16992e-06 -9.71927e-07 0.000325144
0.00144504 -3.72456e-06 -1.12413e-05
-3.72456e-06 0.00026703 1.77736e-07
-1.12413e-05 1.77736e-07 0.000228008
0.00120457 -6.74368e-06 5.2101e-06
-6.74368e-06 1.05621e-05 1.23374e-06
5.2101e-06 1.23374e-06 -5.86412e-05
0.00271511 -4.68083e-05 2.10787e-05
-4.68083e-05 0.00101122 -2.61562e-08
2.10787e-05 -2.61562e-08 0.000995295
0.0007392 8.25165e-06 9.14911e-06
8.25165e-06 -8.43362e-05 2.80564e-06
9.14911e-06 2.80564e-06 -0.000126197
0.00394624 -5.77406e-05 4.69554e-05
-5.77406e-05 0.00163875 1.78822e-06
4.69554e-05 1.78822e-06 0.00162961
0.00429509 -6.1656e-05 -1.54115e-06
-6.1656e-05 0.00180238 2.51514e-07
-1.54115e-06 2.51514e-07 0.00179371
0.000741023 2.22657e-06 9.33601e-06
2.22657e-06 -9.54074e-05 1.26157e-06
9.33601e-06 1.26157e-06 -0.000138773
0.00430224 2.94247e-05 5.39359e-05
2.94247e-05 0.00180748 -5.65452e-07
5.39359e-05 -5.65452e-07 0.00179778
0.00281164 -4.93788e-05 2.15292e-05
-4.93788e-05 0.00105466 -9.8338e-08
2.15292e-05 -9.8338e-08 0.00103846
0.000752461 2.62182e-06 9.13736e-06
2.62182e-06 -8.3731e-05 2.2217e-06
9.13736e-06 2.2217e-06 -0.000126372
0.00403974 -5.67791e-05 4.9207e-05
-5.67791e-05 0.00168198 1.24716e-06
4.9207e-05 1.24716e-06 0.00167325
0.00424854 -7.83665e-05 5.06361e-05
-7.83665e-05 0.00178169 2.45687e-08
5.06361e-05 2.45687e-08 0.00177169
0.00414918 -5.92269e-05 5.06735e-05
-5.92269e-05 0.00173323 6.52977e-07
5.06735e-05 6.52977e-07 0.00172453
