# vtk DataFile Version 2.0
Wound Healing Simulation
ASCII
DATASET UNSTRUCTURED_GRID
POINTS 3012 float
69.9759 18.75 4
67.2507 60.3285 4
69.976 18.75 2
73.0099 25.446 4
71.1327 20.9142 4
68.6801 16.6661 4
67.825 19.9262 3.98132
67.2507 60.3286 2
71.1327 54.0858 4
68.6801 58.3339 4
65.6939 62.2254 4
65.3114 59.0007 3.98013
74.6784 42.3946 4
73.7221 47.2057 4
69.9759 18.75 0
73.0099 25.446 2
68.6801 16.6661 2
71.1327 20.9142 2
67.8255 19.9293 2
74.6792 32.6053 4
73.7222 27.7943 4
72.1454 23.1494 4
70.6136 26.2208 3.9808
68.8851 21.958 3.98164
67.2507 14.6715 4
66.6364 17.9723 3.98048
65.7949 21.0266 3.97102
67.2507 60.3285 0
71.1327 54.0858 2
68.6801 58.3339 2
65.694 62.2255 2
65.3126 58.997 2
72.1454 51.8506 4
69.9759 56.25 4
68.8358 53.1129 3.98071
64.0165 64.0165 4
66.6102 57.1335 3.98099
63.8847 60.7652 3.98095
63.4979 57.7685 3.9717
60.3285 67.2507 4
74.6792 42.3947 2
73.7222 47.2057 2
74.9194 39.9526 4
74.2788 44.8158 4
72.1679 42.0854 3.98025
73.0099 49.554 4
71.2489 46.5979 3.97998
73.0099 25.446 0
71.1327 20.9142 0
68.6801 16.6661 0
67.825 19.9262 0.0186786
74.6792 32.6053 2
73.7222 27.7943 2
67.2508 14.6715 2
72.1455 23.1494 2
70.6136 26.2213 2
66.6373 17.9762 2
68.8854 21.9601 2
65.7943 21.0274 2
74.9197 35.0474 4
74.2794 30.1841 4
72.1845 32.9433 3.98058
71.2777 28.4313 3.98031
69.815 24.0595 3.98146
68.3449 26.9519 3.96985
66.7603 22.9341 3.97041
65.694 12.7746 4
65.3227 16.1043 3.97995
64.7113 19.1972 3.97178
63.8818 22.0392 3.96736
71.1327 54.0858 0
65.6939 62.2254 0
68.6801 58.3339 0
65.3114 59.0007 0.0198653
72.1455 51.8506 2
69.9759 56.25 2
68.836 53.111 2
64.0165 64.0165 2
66.611 57.1299 2
63.8864 60.7619 2
63.4973 57.7683 2
62.2254 65.694 4
58.8942 65.414 3.99
69.7684 50.9888 3.98062
67.7831 55.1671 3.98078
66.6473 52.2079 3.96947
62.3355 62.4272 3.98505
64.6587 56.0298 3.97155
62.1997 59.399 3.97048
61.8172 56.6743 3.96704
58.3339 68.6801 4
60.3285 67.2508 2
73.7221 47.2057 0
74.6784 42.3946 0
74.9197 39.9526 2
74.2794 44.8159 2
72.1674 42.0854 2
73.0099 49.554 2
71.2487 46.5977 2
75 37.5 4
72.4052 39.8021 3.9808
71.7822 44.3527 3.98029
69.8024 41.7892 3.9698
70.5746 48.8134 3.98016
68.9104 46.0139 3.9694
74.6792 32.6053 0
73.7222 27.7943 0
67.2507 14.6715 0
72.1454 23.1494 0
70.6136 26.2208 0.0191995
68.8851 21.958 0.0183595
66.6364 17.9723 0.0195176
65.7949 21.0266 0.0289816
74.9197 35.0474 2
74.2794 30.1841 2
72.184 32.9436 2
71.2776 28.4317 2
65.694 12.7745 2
65.3241 16.1084 2
69.8151 24.0606 2
68.3448 26.9525 2
64.7107 19.1979 2
66.7599 22.9349 2
63.8812 22.0396 2
72.413 35.2241 3.98089
71.8036 30.6762 3.98063
69.8385 33.2685 3.9701
68.9642 29.0385 3.96981
67.6092 24.9126 3.97
66.1871 27.6368 3.96722
64.0165 10.9835 4
64.7514 23.8328 3.96723
63.8892 14.3282 3.98222
63.5101 17.4514 3.97151
62.9011 20.326 3.96716
62.067 22.9546 3.96699
60.6834 11.0984 3.98624
57.6114 11.4523 3.97781
72.1454 51.8506 0
69.9759 56.25 0
68.8358 53.1129 0.0192872
64.0165 64.0165 0
63.8847 60.7652 0.0190499
66.6102 57.1335 0.0190108
63.4979 57.7685 0.028303
62.2255 65.694 2
58.8955 65.4132 2
69.7684 50.9879 2
67.7836 55.1641 2
66.6468 52.2072 2
62.3373 62.4248 2
64.6581 56.0293 2
62.1991 59.3994 2
61.8166 56.6743 2
60.6681 63.9766 3.98737
57.0254 66.7347 3.99129
57.557 63.689 3.9803
67.5055 50.1755 3.96917
65.6996 54.1718 3.9701
64.5311 51.3811 3.9663
60.7713 60.9337 3.97519
62.815 55.0626 3.96702
60.6506 58.1487 3.96466
60.319 55.7742 3.96692
56.25 69.9759 4
58.3339 68.6801 2
60.3285 67.2507 0
58.9207 9.65664 3.98767
62.2254 9.30607 4
73.0099 49.554 0
74.2788 44.8158 0
71.2489 46.5979 0.0200229
72.1679 42.0854 0.0197484
74.9194 39.9526 0
75 37.5 2
72.4051 39.8023 2
71.7821 44.3525 2
69.802 41.7889 2
70.5745 48.8131 2
68.9104 46.0134 2
72.4885 37.512 3.98046
70.0397 39.657 3.96987
69.4287 43.9068 3.96968
67.589 41.4958 3.96816
68.2639 48.106 3.96914
66.6975 45.4365 3.96738
74.9197 35.0474 0
74.2794 30.1841 0
72.1845 32.9433 0.0194159
71.2777 28.4313 0.0196884
65.694 12.7746 0
65.3227 16.1043 0.020048
69.815 24.0595 0.0185405
68.3449 26.9519 0.0301503
66.7603 22.9341 0.0295922
64.7113 19.1972 0.0282176
63.8818 22.0392 0.0326392
72.413 35.2242 2
71.8035 30.6767 2
69.838 33.2689 2
68.9642 29.039 2
64.0165 10.9835 2
63.8912 14.3315 2
63.5096 17.4523 2
67.609 24.9133 2
66.1872 27.6372 2
62.9005 20.3262 2
64.751 23.8332 2
62.0662 22.9551 2
60.6856 11.1009 2
57.6123 11.4509 2
70.0565 35.3919 3.9701
69.4654 31.1497 3.96988
67.6496 33.5917 3.96804
66.7641 29.6247 3.96743
65.5175 25.7017 3.96716
64.0978 28.2656 3.96968
62.3411 12.6556 3.98496
62.8239 24.6484 3.96792
62.1962 15.7907 3.97262
61.806 18.6936 3.9669
61.1956 21.3544 3.9656
60.3646 23.7486 3.9688
59.245 12.7841 3.97608
55.8739 10.2372 3.98035
56.4036 13.1258 3.97439
69.7684 50.9888 0.0193821
62.2254 65.694 0
58.8942 65.414 0.0100019
67.7831 55.1671 0.0192226
66.6473 52.2079 0.0305283
62.3355 62.4272 0.0149538
62.1997 59.399 0.0295208
64.6587 56.0298 0.0284473
61.8172 56.6743 0.0329591
60.6698 63.9751 2
57.0262 66.7343 2
57.5572 63.6906 2
67.5052 50.1749 2
65.6991 54.1711 2
64.5308 51.3808 2
60.7712 60.9348 2
62.8144 55.0624 2
60.6502 58.1488 2
60.3185 55.774 2
55.0712 67.9315 3.99187
59.2178 62.362 3.97655
55.8043 64.9084 3.98439
56.325 62.0823 3.97523
65.3217 49.4041 3.9665
63.7008 53.2877 3.96643
62.4001 50.6376 3.96701
59.3287 59.5483 3.96982
61.065 54.2979 3.96581
59.2728 56.9951 3.96331
59.2294 55.1674 3.96534
48.1021 68.5775 3.98737
50.9489 69.9312 3.99203
54.0858 71.1327 4
56.25 69.976 2
58.3339 68.6801 0
57.0582 8.3364 3.98908
60.3285 7.74928 4
58.9228 9.65805 2
62.2255 9.30602 2
70.5746 48.8134 0.019844
71.7822 44.3527 0.0197124
68.9104 46.0139 0.0305968
69.8024 41.7892 0.0302047
72.4052 39.8021 0.0192035
75 37.5 0
72.4881 37.5121 2
70.0397 39.6569 2
69.4286 43.9064 2
67.5889 41.4956 2
68.2638 48.1054 2
66.6971 45.4362 2
70.1278 37.5214 3.96998
67.8286 39.5113 3.96824
67.2122 43.4673 3.96778
65.497 41.2036 3.9717
66.0568 47.4141 3.96697
64.5893 44.8372 3.97003
72.413 35.2241 0.0191141
71.8036 30.6762 0.0193715
69.8385 33.2685 0.0299006
68.9642 29.0385 0.0301876
64.0165 10.9835 0
63.8892 14.3282 0.0177786
63.5101 17.4514 0.0284906
67.6092 24.9126 0.0299955
66.1871 27.6368 0.0327762
64.7514 23.8328 0.0327704
62.9011 20.326 0.0328353
62.067 22.9546 0.0330124
60.6834 11.0984 0.0137561
57.6114 11.4523 0.0221854
70.0565 35.3921 2
69.4654 31.1501 2
67.6497 33.5919 2
66.7642 29.625 2
62.3431 12.6588 2
62.196 15.7906 2
61.805 18.6939 2
65.5173 25.7021 2
64.0969 28.266 2
61.1946 21.3548 2
62.8234 24.6488 2
60.3644 23.7491 2
59.2457 12.7839 2
56.4041 13.1243 2
55.8745 10.2359 2
67.866 35.5478 3.96828
67.258 31.6238 3.96775
65.65 33.9309 3.9717
64.6108 30.2006 3.97033
63.4984 26.4249 3.96898
62.163 28.7955 3.97346
60.774 14.2283 3.97576
60.9735 25.3583 3.97069
60.6048 17.14 3.96704
60.2028 19.8313 3.96413
59.6014 22.2816 3.96595
58.8874 24.3495 3.97133
54.0372 9.13857 3.98231
57.9075 14.3431 3.97511
54.7855 12.0204 3.97546
55.3086 14.6647 3.97298
67.5055 50.1755 0.0308286
57.0254 66.7347 0.00870782
60.6681 63.9766 0.0126261
57.557 63.689 0.0197041
65.6996 54.1718 0.0299025
64.5311 51.3811 0.0336994
60.7713 60.9337 0.0248069
60.6506 58.1487 0.0353374
62.815 55.0626 0.0329781
60.319 55.7742 0.0330845
55.0718 67.9315 2
59.2178 62.3633 2
55.8042 64.9094 2
56.3245 62.0844 2
65.3216 49.4037 2
63.7002 53.2875 2
62.4002 50.6374 2
59.3281 59.5498 2
61.065 54.2978 2
59.2728 56.9948 2
59.2292 55.167 2
53.0431 68.9993 3.99194
53.9667 66.0118 3.98589
57.8775 60.8612 3.97489
54.6832 63.2034 3.97965
55.2079 60.6013 3.97463
63.1422 48.6467 3.96816
61.7147 52.5622 3.96628
60.1861 49.994 3.96887
58.007 58.2483 3.96804
59.3009 53.9289 3.96707
58.0968 55.7912 3.96311
50.1088 67.8558 3.98712
47.4629 66.5781 3.98396
46.0557 69.1566 3.98755
48.1021 68.5781 2
48.803 70.7225 3.99214
50.9494 69.9312 2
51.8506 72.1454 4
54.0858 71.1327 2
56.25 69.9759 0
55.103 7.14078 3.99053
58.3339 6.31992 4
57.0599 8.33711 2
60.3286 7.74926 2
58.9207 9.65664 0.0123276
62.2254 9.30607 0
68.2639 48.106 0.0308561
69.4287 43.9068 0.0303211
66.6975 45.4365 0.0326211
67.589 41.4958 0.0318411
70.0397 39.657 0.030128
72.4885 37.512 0.0195402
70.1274 37.5214 2
67.8285 39.5112 2
67.2128 43.4671 2
65.496 41.2034 2
66.0569 47.4138 2
64.5882 44.8369 2
67.9268 37.5217 3.96832
65.7342 39.3667 3.97212
65.1162 43.0167 3.97107
63.6438 40.9194 3.97602
63.9042 46.7034 3.96909
62.6928 44.1979 3.9739
70.0565 35.3919 0.0298983
69.4654 31.1497 0.0301193
67.6496 33.5917 0.0319564
66.7641 29.6247 0.0325728
62.3411 12.6556 0.0150425
62.1962 15.7907 0.0273752
61.806 18.6936 0.0331013
65.5175 25.7017 0.0328352
64.0978 28.2656 0.0303223
62.8239 24.6484 0.0320801
61.1956 21.3544 0.0343962
60.3646 23.7486 0.0312036
59.245 12.7841 0.0239221
56.4036 13.1258 0.0256066
55.8739 10.2372 0.0196461
67.8658 35.5479 2
67.2584 31.624 2
65.6495 33.9311 2
64.61 30.2009 2
60.7739 14.2288 2
60.6048 17.1394 2
60.2029 19.8314 2
63.4978 26.4253 2
62.1615 28.796 2
59.6032 22.2818 2
60.9732 25.3588 2
58.8866 24.3504 2
57.9074 14.3422 2
55.3088 14.6644 2
54.0377 9.13717 2
54.786 12.0184 2
65.8249 35.6682 3.97188
65.1312 32.1607 3.97089
64.1959 34.2551 3.97608
62.4775 30.6518 3.9742
61.5659 27.092 3.97186
60.7202 29.1635 3.97703
59.3065 15.6789 3.97183
59.2174 25.8263 3.9743
59.1072 18.3738 3.96475
58.699 20.8774 3.96326
58.1946 23.1241 3.96661
57.8572 24.7001 3.97328
52.112 8.15554 3.98448
53.0574 11.0241 3.97774
56.6708 15.7589 3.9742
53.8067 13.6964 3.975
54.3683 16.0204 3.97452
55.0712 67.9315 0.00813131
65.3217 49.4041 0.0334988
55.8043 64.9084 0.0156129
59.2178 62.362 0.0234454
56.325 62.0823 0.0247747
63.7008 53.2877 0.033569
62.4001 50.6376 0.0329949
59.3287 59.5483 0.0301782
59.2728 56.9951 0.0366882
61.065 54.2979 0.0341905
59.2294 55.1674 0.0346591
53.0436 68.9994 2
53.9667 66.0125 2
57.8768 60.8628 2
54.6827 63.2043 2
55.2077 60.603 2
63.1417 48.6464 2
61.7155 52.5621 2
60.1858 49.9935 2
58.0064 58.2498 2
59.3025 53.9287 2
58.0957 55.7905 2
52.07 66.9987 3.98682
52.9532 64.2154 3.98241
56.6419 59.4764 3.97445
53.6788 61.6151 3.97647
54.2521 59.3034 3.97422
60.88 47.855 3.96956
59.6434 52.0814 3.96771
57.8989 49.5819 3.97041
56.7567 56.9654 3.96717
57.0729 54.0965 3.9651
50.1087 67.8562 2
49.3369 65.9186 3.98385
47.4629 66.5787 2
46.8923 64.7315 3.98227
45.558 67.095 3.98407
43.9728 69.5887 3.98772
46.0557 69.1571 2
46.6095 71.3669 3.99217
48.1021 68.5775 0.0126257
48.8034 70.7227 2
49.554 73.0099 4
50.9489 69.9312 0.00797236
51.8506 72.1455 2
54.0858 71.1327 0
53.0646 6.07208 3.99139
55.1042 7.14087 2
56.25 5.02411 4
58.3339 6.3199 2
57.0582 8.3364 0.010922
60.3285 7.74928 0
66.0568 47.4141 0.0330301
67.2122 43.4673 0.0322208
64.5893 44.8372 0.0299691
65.497 41.2036 0.028302
67.8286 39.5113 0.0317566
70.1278 37.5214 0.0300177
67.9267 37.5217 2
65.7331 39.3666 2
65.1152 43.0163 2
63.6418 40.9191 2
63.9032 46.703 2
62.6907 44.1974 2
65.8394 37.5007 3.97202
63.7923 39.2607 3.97617
63.2071 42.5352 3.97489
62.2764 40.6828 3.97697
61.8534 45.897 3.97172
61.2942 43.6599 3.97729
67.866 35.5478 0.0317203
67.258 31.6238 0.0322454
65.65 33.9309 0.0283002
64.6108 30.2006 0.0296733
60.774 14.2283 0.024238
60.6048 17.14 0.0329629
60.2028 19.8313 0.0358715
63.4984 26.4249 0.0310241
62.163 28.7955 0.0265389
60.9735 25.3583 0.0293107
59.6014 22.2816 0.0340474
58.8874 24.3495 0.0286742
57.9075 14.3431 0.0248867
55.3086 14.6647 0.0270217
54.0372 9.13857 0.017685
54.7855 12.0204 0.0245395
65.8238 35.6683 2
65.1306 32.1609 2
64.1952 34.2552 2
62.4761 30.6523 2
59.3056 15.6792 2
59.108 18.373 2
58.7026 20.8773 2
61.565 27.0925 2
60.7195 29.1641 2
58.1936 23.1252 2
59.2171 25.8271 2
57.8569 24.7012 2
56.6705 15.7579 2
54.3682 16.021 2
53.8068 13.693 2
52.1122 8.15448 2
53.0577 11.0225 2
63.9924 35.6345 3.9756
62.8094 33.0574 3.97533
60.4575 30.635 3.97689
59.4341 27.9393 3.97528
57.9296 16.9998 3.96942
57.6113 25.7635 3.97604
57.6863 19.4999 3.96258
57.2925 21.8745 3.96351
57.0623 23.9877 3.96801
50.1124 7.28624 3.98673
51.2324 10.1296 3.98011
52.1699 12.8076 3.97648
55.5262 16.9927 3.97302
52.9725 15.2866 3.97241
53.7464 17.0056 3.97831
53.0431 68.9993 0.00805971
53.9667 66.0118 0.014109
63.1422 48.6467 0.0318358
54.6832 63.2034 0.0203476
57.8775 60.8612 0.0251134
55.2079 60.6013 0.0253653
61.7147 52.5622 0.0337166
60.1861 49.994 0.0311295
58.007 58.2483 0.031965
58.0968 55.7912 0.0368923
59.3009 53.9289 0.0329321
52.07 66.9993 2
52.9529 64.2162 2
56.6414 59.4776 2
53.6783 61.6157 2
54.2519 59.3052 2
60.8788 47.8543 2
59.6433 52.081 2
57.8959 49.5807 2
56.7556 56.9697 2
57.0712 54.0958 2
51.168 65.1255 3.98387
52.0451 62.5334 3.97943
55.4684 58.2344 3.97471
52.8285 60.1198 3.97732
53.6271 58.4534 3.97924
58.1356 46.8109 3.97404
57.4726 51.7553 3.96705
56.0896 49.5128 3.9707
55.4383 55.7649 3.96228
55.2856 53.3502 3.96321
50.1088 67.8558 0.0128822
49.3368 65.919 2
48.618 64.1185 3.98276
47.4629 66.5781 0.0160364
45.558 67.0956 2
46.8923 64.7319 2
46.3818 63.0468 3.98206
45.1325 65.1922 3.98221
43.6312 67.4656 3.98419
41.8602 69.8759 3.98756
43.9728 69.5892 2
44.3768 71.8618 3.99213
46.0557 69.1566 0.012445
46.6099 71.3672 2
47.2057 73.7222 4
48.803 70.7225 0.00786236
49.554 73.0099 2
51.8506 72.1454 0
50.9546 5.13241 3.99204
53.0654 6.07207 2
54.0858 3.86728 4
55.103 7.14078 0.00947137
56.25 5.02406 2
58.3339 6.31992 0
63.9042 46.7034 0.0309107
65.1162 43.0167 0.0289316
62.6928 44.1979 0.0261018
63.6438 40.9194 0.0239785
65.7342 39.3667 0.0278828
67.9268 37.5217 0.0316797
65.8384 37.5007 2
63.7907 39.2606 2
63.2051 42.5347 2
62.2741 40.6823 2
61.8516 45.8963 2
61.2921 43.6592 2
63.8528 37.4552 3.97548
61.9962 39.3455 3.97683
61.04 41.9364 3.97685
60.0873 44.7413 3.97626
65.8249 35.6682 0.0281151
65.1312 32.1607 0.0291127
64.1959 34.2551 0.0239198
62.4775 30.6518 0.0257955
59.3065 15.6789 0.0281723
59.1072 18.3738 0.0352483
58.699 20.8774 0.0367393
61.5659 27.092 0.0281358
60.7202 29.1635 0.022973
59.2174 25.8263 0.0256971
58.1946 23.1241 0.0333853
57.8572 24.7001 0.0267173
56.6708 15.7589 0.025798
54.3683 16.0204 0.0254849
53.8067 13.6964 0.0249982
52.112 8.15554 0.0155247
53.0574 11.0241 0.0222581
63.991 35.6346 2
62.8081 33.0578 2
60.4561 30.6356 2
57.9286 16.9999 2
57.6885 19.4984 2
57.2949 21.8751 2
59.4333 27.9401 2
57.0614 23.9891 2
57.6114 25.7646 2
50.1126 7.28481 2
55.5261 16.9923 2
53.746 17.0053 2
52.9726 15.2857 2
52.1704 12.8064 2
51.2327 10.1283 2
62.0345 35.3677 3.97673
60.0974 32.7665 3.97703
58.4322 30.1108 3.97705
57.1212 27.4239 3.97653
56.6178 18.1786 3.96751
56.1483 25.1493 3.97354
56.3108 20.5529 3.96077
55.9962 22.9135 3.96327
48.0566 6.52806 3.98849
49.3247 9.33488 3.98202
50.4321 12.0026 3.97762
51.3729 14.513 3.97337
54.3969 17.9452 3.97412
52.3498 17.0672 3.9701
52.07 66.9987 0.0131754
52.9532 64.2154 0.017589
60.88 47.855 0.0304406
53.6788 61.6151 0.0235333
56.6419 59.4764 0.0255499
54.2521 59.3034 0.0257817
59.6434 52.0814 0.0322907
57.8989 49.5819 0.0295879
56.7567 56.9654 0.0328265
57.0729 54.0965 0.0349045
51.1678 65.1261 2
52.0447 62.5339 2
55.4679 58.2355 2
52.8284 60.1232 2
53.6268 58.4545 2
58.1343 46.8099 2
57.4709 51.7544 2
56.0862 49.5117 2
55.4381 55.7653 2
55.288 53.3505 2
50.346 63.3771 3.98231
51.2407 60.9268 3.97646
54.1982 57.2504 3.97459
52.3011 58.6123 3.97491
56.4598 44.1338 3.97735
55.2892 47.8473 3.97345
54.9531 51.3507 3.96615
53.9515 54.5115 3.9652
49.3369 65.9186 0.0161527
48.618 64.1188 2
47.9617 62.4688 3.98174
45.558 67.095 0.0159277
46.8923 64.7315 0.0177316
43.6312 67.4661 2
46.382 63.0473 2
45.1326 65.1928 2
45.9871 61.5779 3.98313
44.7672 63.4466 3.98085
43.3567 65.5013 3.98192
41.6634 67.6842 3.98406
39.7022 70.0227 3.98775
41.8602 69.8765 2
42.1111 72.2066 3.99214
43.9728 69.5887 0.0122818
44.3771 71.862 2
44.8159 74.2794 4
46.6095 71.3669 0.00783088
47.2057 73.7222 2
49.554 73.0099 0
48.7853 4.32297 3.99261
50.9552 5.13193 2
51.8506 2.85458 4
53.0646 6.07208 0.00861019
54.0858 3.86728 2
56.25 5.02411 0
61.8534 45.897 0.0282756
63.2071 42.5352 0.0251143
61.2942 43.6599 0.022712
62.2764 40.6828 0.0230295
63.7923 39.2607 0.0238324
65.8394 37.5007 0.0279786
63.8513 37.4552 2
61.994 39.3454 2
61.0381 41.9357 2
60.086 44.7405 2
61.8335 37.4443 3.97738
60.0305 39.8275 3.97724
58.7595 42.8814 3.97725
63.9924 35.6345 0.024404
62.8094 33.0574 0.0246672
60.4575 30.635 0.0231077
57.9296 16.9998 0.0305793
57.6863 19.4999 0.0374228
57.2925 21.8745 0.0364937
59.4341 27.9393 0.0247181
57.6113 25.7635 0.0239641
57.0623 23.9877 0.0319861
55.5262 16.9927 0.0269844
53.7464 17.0056 0.0216935
52.9725 15.2866 0.0275902
50.1124 7.28624 0.0132721
52.1699 12.8076 0.0235236
51.2324 10.1296 0.0198915
62.0327 35.3681 2
60.0952 32.7669 2
58.4317 30.1117 2
56.617 18.179 2
56.3141 20.5501 2
55.9981 22.9147 2
57.1219 27.4249 2
56.1497 25.1508 2
48.0566 6.52689 2
49.325 9.3333 2
54.397 17.945 2
52.3494 17.0673 2
51.3726 14.5099 2
50.4325 12.0011 2
59.6756 35.1335 3.97715
57.7403 32.3058 3.97686
56.3347 29.3883 3.97738
55.2423 26.658 3.9773
55.3117 19.2161 3.96471
54.787 24.1129 3.96392
54.9281 21.604 3.96004
45.9627 5.88287 3.98897
43.3742 7.47415 3.98599
47.3555 8.62585 3.98433
48.5997 11.3003 3.97904
49.7098 13.7546 3.97704
50.6251 16.157 3.97629
53.1012 18.6921 3.96916
51.284 18.0868 3.97873
51.168 65.1255 0.0161297
52.0451 62.5334 0.0205744
58.1356 46.8109 0.0259554
52.8285 60.1198 0.0226825
55.4684 58.2344 0.0252889
53.6271 58.4534 0.0207592
57.4726 51.7553 0.0329547
56.0896 49.5128 0.0293003
55.4383 55.7649 0.0377172
55.2856 53.3502 0.036787
50.3458 63.3773 2
51.2403 60.9267 2
54.198 57.2516 2
52.3007 58.6133 2
56.4588 44.133 2
55.2885 47.8463 2
54.9544 51.3505 2
53.9522 54.5126 2
49.5909 61.7393 3.98103
55.2861 41.6723 3.97603
50.5583 59.3141 3.97428
52.1567 56.4667 3.96807
53.9025 45.5031 3.97477
53.1518 49.2787 3.96964
52.5789 52.815 3.96255
48.618 64.1185 0.0172449
47.9617 62.4688 2
47.3274 61.0016 3.98445
43.6312 67.4656 0.0158124
45.1325 65.1922 0.0177872
46.3818 63.0468 0.017936
41.6635 67.6844 2
43.3567 65.5021 2
45.9873 61.5785 2
44.7673 63.4473 2
45.764 60.6216 3.98247
44.4834 61.8255 3.98099
43.1465 63.7183 3.9802
41.5463 65.6389 3.98122
39.6327 67.7635 3.98375
37.5261 70.0475 3.9873
39.7021 70.0233 2
39.8178 72.4035 3.99196
41.8602 69.8759 0.0124401
42.1114 72.2069 2
42.3947 74.6792 4
44.3768 71.8618 0.00787175
44.8159 74.2794 2
47.2057 73.7222 0
43.8519 5.35978 3.98898
46.5712 3.64741 3.99275
48.7856 4.32251 2
49.554 1.99015 4
50.9546 5.13241 0.00795796
51.8506 2.85453 2
54.0858 3.86728 0
60.0873 44.7413 0.0237441
61.04 41.9364 0.0231497
61.9962 39.3455 0.0231686
63.8528 37.4552 0.0245177
61.832 37.4445 2
60.0294 39.8276 2
58.7581 42.8805 2
59.5323 37.5646 3.97739
57.7146 40.6288 3.97744
54.7163 39.6867 3.97564
62.0345 35.3677 0.023268
60.0974 32.7665 0.0229749
58.4322 30.1108 0.0229484
56.6178 18.1786 0.0324926
56.3108 20.5529 0.0392319
55.9962 22.9135 0.0367335
57.1212 27.4239 0.0234654
56.1483 25.1493 0.0264629
54.3969 17.9452 0.025877
52.3498 17.0672 0.0299009
51.3729 14.513 0.0266329
48.0566 6.52806 0.0115109
49.3247 9.33488 0.0179757
50.4321 12.0026 0.0223778
59.6749 35.1333 2
45.9625 5.88221 2
43.3741 7.47346 2
57.7398 32.3066 2
56.3341 29.3894 2
55.3111 19.2169 2
54.9334 21.6033 2
54.7861 24.1151 2
55.2388 26.6603 2
47.3557 8.62389 2
48.6001 11.2985 2
53.1017 18.6917 2
51.2841 18.0883 2
50.6252 16.1569 2
49.7098 13.7535 2
57.1033 34.7758 3.97738
55.4611 31.563 3.97721
54.2557 28.4747 3.97774
53.5998 25.5679 3.97606
53.9261 20.1728 3.9649
53.4779 22.7671 3.95594
41.3993 7.0799 3.98623
45.3604 7.99559 3.98649
42.8663 9.41744 3.98295
46.667 10.6572 3.98143
47.7426 13.1112 3.97906
48.9248 15.4172 3.9743
49.9907 17.7224 3.97567
51.6197 19.3646 3.97792
50.346 63.3771 0.0176924
51.2407 60.9268 0.0235367
56.4598 44.1338 0.0226459
55.2892 47.8473 0.0265536
52.3011 58.6123 0.0250896
54.1982 57.2504 0.0254054
54.9531 51.3507 0.0338461
53.9515 54.5115 0.0347996
49.5905 61.7391 2
55.2845 41.6714 2
50.5581 59.3154 2
52.1565 56.4678 2
53.9065 45.5029 2
53.157 49.2788 2
52.5795 52.8142 2
48.8441 60.1956 3.9788
52.1401 42.5735 3.98129
49.7712 57.6065 3.97222
50.5333 54.401 3.9653
51.5642 47.2107 3.97648
51.0774 50.9037 3.95794
47.7973 43.7115 3.98885
47.9617 62.4688 0.0182551
47.3276 61.0017 2
46.6145 59.7881 3.98447
41.6634 67.6842 0.0159437
43.3567 65.5013 0.0180838
44.7672 63.4466 0.019146
45.9871 61.5779 0.016873
39.633 67.7642 2
41.5462 65.6387 2
45.764 60.6224 2
43.1466 63.7191 2
44.4835 61.8262 2
44.6209 60.2821 3.98309
42.9504 62.0725 3.9787
41.6 63.8115 3.98044
39.6477 65.6061 3.98024
37.5635 67.7449 3.98297
31.6973 65.1252 3.98122
33.3925 67.4829 3.9827
35.3339 69.9576 3.98745
37.526 70.0483 2
37.5095 72.458 3.99192
39.7022 70.0227 0.0122513
39.8181 72.4039 2
39.9526 74.9197 4
42.1111 72.2066 0.00785645
42.3947 74.6792 2
44.8159 74.2794 0
41.7365 4.96898 3.98917
43.8519 5.35904 2
44.3264 3.11056 3.99308
46.5714 3.64709 2
47.2057 1.27793 4
48.7853 4.32297 0.00738691
49.554 1.99013 2
51.8506 2.85458 0
58.7595 42.8814 0.0227529
60.0305 39.8275 0.0227589
61.8335 37.4443 0.0226228
59.5321 37.565 2
57.7147 40.6292 2
54.7162 39.6861 2
56.4963 37.8853 3.97719
49.1728 41.2812 3.98788
52.7365 39.3049 3.98326
39.4428 6.80376 3.98608
59.6756 35.1335 0.0228475
57.7403 32.3058 0.0231449
56.3347 29.3883 0.0226217
55.3117 19.2161 0.0352869
54.9281 21.604 0.0399614
54.787 24.1129 0.0360766
55.2423 26.658 0.0226963
53.1012 18.6921 0.030844
51.284 18.0868 0.0212711
50.6251 16.157 0.0237134
45.9627 5.88287 0.0110275
49.7098 13.7546 0.0229573
47.3555 8.62585 0.0156712
48.5997 11.3003 0.0209584
43.3742 7.47415 0.0140126
57.1025 34.7754 2
41.3993 7.07887 2
45.3601 7.99498 2
42.8661 9.41688 2
55.4643 31.5622 2
54.2554 28.4753 2
53.9265 20.1748 2
53.4769 22.7654 2
53.5975 25.5695 2
46.6671 10.6541 2
47.743 13.1087 2
51.6205 19.3652 2
49.99 17.7206 2
48.9243 15.4169 2
54.5156 33.975 3.97609
53.2036 30.5631 3.97753
52.3507 27.2849 3.97586
52.0115 24.1756 3.97707
52.3304 21.1023 3.9748
41.0138 9.05118 3.98279
44.7254 9.99585 3.98455
42.4683 10.9041 3.98558
46.0037 12.736 3.97746
47.6754 14.5959 3.97384
48.0979 17.0022 3.97376
49.7988 19.7019 3.97389
49.5909 61.7393 0.0189703
50.5583 59.3141 0.025716
55.2861 41.6723 0.0239672
53.9025 45.5031 0.0252336
53.1518 49.2787 0.0303581
52.1567 56.4667 0.0319317
52.5789 52.815 0.0374476
48.8438 60.1942 2
52.1521 42.5766 2
49.7708 57.6073 2
50.5332 54.4025 2
51.5676 47.2114 2
51.0781 50.9021 2
47.8074 43.7346 2
47.9759 58.729 3.97892
49.7508 45.2146 3.9792
48.5615 55.8988 3.97587
49.0397 52.5626 3.97608
49.4895 48.9957 3.97229
45.5733 39.8441 3.88194
46.0317 42.5858 3.91476
46.1959 45.7508 3.98565
43.3849 41.0996 3.78161
41.83 41.9822 3.62857
47.3274 61.0016 0.0155532
46.6143 59.7885 2
45.4613 58.7827 3.98165
39.6327 67.7635 0.0162544
41.5463 65.6389 0.0187824
43.1465 63.7183 0.0197962
44.4834 61.8255 0.0190116
45.764 60.6216 0.0175313
41.6001 63.8116 2
37.5637 67.7458 2
39.6476 65.6067 2
44.621 60.2828 2
42.9506 62.0732 2
41.7535 62.4838 3.97957
42.4789 59.9694 3.98201
39.8939 63.5444 3.97863
37.6423 65.5041 3.98067
35.4637 67.6543 3.98288
33.5757 65.3373 3.9802
31.9592 63.2944 3.98107
29.8834 64.7173 3.98246
31.6973 65.126 2
31.3771 67.1933 3.98334
33.3926 67.4836 2
33.1571 69.7515 3.98729
35.3338 69.9585 2
35.195 72.3724 3.99184
37.5261 70.0475 0.0126991
37.5096 72.4585 2
37.5 75 4
39.8178 72.4035 0.00804326
39.9526 74.9197 2
42.3947 74.6792 0
39.6241 4.71645 3.98949
41.7365 4.96812 2
42.0628 2.71806 3.99328
43.8519 5.35978 0.011021
44.3266 3.11009 2
44.8158 0.721173 4
46.5712 3.64741 0.00724673
47.2057 1.27779 2
49.554 1.99015 0
57.7146 40.6288 0.022563
59.5323 37.5646 0.0226067
54.7163 39.6867 0.0243634
49.1931 41.2918 2
56.4962 37.8857 2
52.7359 39.2963 2
53.5803 36.6313 3.97726
47.0975 40.3663 3.92211
50.1129 38.5194 3.99152
37.5168 6.67511 3.98604
39.4429 6.80257 2
39.2113 8.69445 3.98348
35.9427 8.49491 3.98383
57.1033 34.7758 0.0226243
55.4611 31.563 0.0227863
54.2557 28.4747 0.0222579
53.9261 20.1728 0.0351031
53.4779 22.7671 0.0440604
53.5998 25.5679 0.0239428
51.6197 19.3646 0.0220752
49.9907 17.7224 0.0243308
48.9248 15.4172 0.0256959
45.3604 7.99559 0.0135074
47.7426 13.1112 0.0209362
46.667 10.6572 0.0185675
41.3993 7.0799 0.0137719
42.8663 9.41744 0.0170504
54.5115 33.9773 2
41.0139 9.05031 2
44.7247 9.99543 2
42.4681 10.9041 2
53.2016 30.5625 2
52.3574 27.2874 2
52.332 21.1029 2
52.0119 24.1768 2
46.0036 12.7312 2
47.6751 14.5931 2
49.7994 19.702 2
48.0964 16.9998 2
52.0643 32.8896 3.97981
51.0059 29.2464 3.97504
50.5939 25.8114 3.97294
49.8829 22.2907 3.98274
40.5691 11.6108 3.98075
43.8579 11.9165 3.98018
45.7949 15.4334 3.98135
47.4894 19.3144 3.9775
45.9513 37.4827 3.88205
48.8441 60.1956 0.021201
49.7712 57.6065 0.0277754
52.1401 42.5735 0.0187106
51.5642 47.2107 0.0235237
51.0774 50.9037 0.0420555
50.5333 54.401 0.0346987
47.7973 43.7115 0.0111539
47.9753 58.7302 2
49.7651 45.2239 2
48.5602 55.9008 2
49.0391 52.5664 2
49.4925 48.9933 2
45.6139 39.8533 2
46.0556 42.6095 2
46.2017 45.7531 2
43.4102 41.1266 2
41.8484 41.9995 2
46.8206 57.3309 3.9822
44.1359 39.3857 3.78087
42.183 40.8541 3.68149
47.8241 47.1956 3.9794
47.1137 54.2141 3.97196
47.4653 50.7153 3.9688
44.5866 47.3469 3.97659
44.6842 41.9164 3.86398
44.6682 44.483 3.93153
42.2808 42.6009 3.7922
40.7623 42.3098 3.66589
46.6145 59.7881 0.0155266
45.4617 58.7833 2
43.8662 57.7021 3.98368
37.5635 67.7449 0.0170308
39.6477 65.6061 0.0197562
41.6 63.8115 0.0195588
42.9504 62.0725 0.0213021
44.6209 60.2821 0.0169134
35.4639 67.6555 2
41.7537 62.4842 2
39.8938 63.5449 2
37.6425 65.5048 2
42.4792 59.9698 2
40.6234 61.639 3.98045
40.4411 58.1948 3.9808
37.837 63.205 3.97888
35.5731 65.4258 3.98011
33.5757 65.3378 2
31.959 63.2951 2
33.6287 63.3324 3.97943
30.3785 62.8544 3.98182
32.1238 61.9992 3.98335
26.8703 61.496 3.97973
28.0623 64.1457 3.98213
29.8834 64.7179 2
29.4065 66.7576 3.98401
31.6973 65.1252 0.0187774
31.3772 67.194 2
31.0146 69.4166 3.98725
33.3925 67.4829 0.0173021
33.157 69.7521 2
32.892 72.1468 3.99196
35.3339 69.9576 0.0125508
35.1949 72.3729 2
35.0474 74.9194 4
37.5095 72.458 0.00807793
37.5 75 2
39.9526 74.9197 0
35.6214 6.72632 3.98555
37.5236 4.61602 3.98958
39.6242 4.71542 2
39.7892 2.47456 3.99327
41.7365 4.96898 0.010831
42.0628 2.71755 2
42.3946 0.32156 4
44.3264 3.11056 0.00692199
44.8159 0.72056 2
47.2057 1.27793 0
49.1728 41.2812 0.0121232
56.4963 37.8853 0.0228087
52.7365 39.3049 0.0167439
47.1169 40.3658 2
50.1211 38.5102 2
53.5872 36.6342 2
50.9005 35.577 3.97656
47.7626 37.7496 3.93595
45.5727 35.1422 3.87965
43.3906 33.886 3.77463
41.8321 33.0133 3.62484
37.4584 8.53634 3.98421
37.5167 6.67394 2
39.4428 6.80376 0.0139169
39.2115 8.69299 2
38.9764 10.1292 3.9837
35.8992 9.77659 3.98183
34.1516 8.8253 3.98287
35.9422 8.49339 2
54.5156 33.975 0.0239077
53.2036 30.5631 0.0224705
52.3507 27.2849 0.0241352
52.3304 21.1023 0.0251964
52.0115 24.1756 0.0229303
49.7988 19.7019 0.0261057
48.0979 17.0022 0.0262434
47.6754 14.5959 0.0261631
44.7254 9.99585 0.0154484
46.0037 12.736 0.0225389
41.0138 9.05118 0.0172052
42.4683 10.9041 0.0144188
52.0707 32.8893 2
40.5696 11.6109 2
43.8569 11.9171 2
51.0215 29.2481 2
50.5988 25.8148 2
49.8816 22.287 2
45.7934 15.4247 2
47.4896 19.3209 2
49.6075 31.4783 3.98628
49.0304 27.5836 3.97461
49.268 24.4936 3.97899
47.1558 22.058 3.98149
38.3025 12.7416 3.97808
42.1004 14.307 3.97867
44.7904 18.5087 3.97758
44.4747 37.4906 3.78986
46.0128 37.4888 2
47.9759 58.729 0.0210757
48.5615 55.8988 0.02413
49.7508 45.2146 0.0208002
49.4895 48.9957 0.0277071
49.0397 52.5626 0.0239161
45.5733 39.8441 0.118062
46.0317 42.5858 0.085244
46.1959 45.7508 0.0143503
43.3849 41.0996 0.218388
41.83 41.9822 0.371433
46.8195 57.3317 2
44.1704 39.4069 2
42.1771 40.8634 2
47.8267 47.1978 2
47.1119 54.2182 2
47.4674 50.7187 2
44.5964 47.3252 2
44.7081 41.9379 2
44.6898 44.5022 2
42.3284 42.6307 2
40.771 42.3078 2
45.3696 55.9205 3.98934
42.5041 39.2659 3.69251
40.6477 40.75 3.7806
45.9209 48.8745 3.98887
45.4552 52.5023 3.98151
43.2839 48.3579 3.99833
43.227 46.0231 3.91274
43.4042 43.6977 3.86263
40.9177 43.7194 3.77834
39.2536 42.6121 3.68327
45.4613 58.7827 0.018349
43.8664 57.7032 2
42.0937 56.3175 3.9841
35.4637 67.6543 0.0171243
37.6423 65.5041 0.0193296
39.8939 63.5444 0.0213706
41.7535 62.4838 0.0204302
42.4789 59.9694 0.0179928
35.5733 65.4274 2
40.6236 61.6397 2
37.8368 63.2055 2
40.4414 58.1957 2
38.9203 56.486 3.9899
38.2507 60.3204 3.97928
35.6069 63.1971 3.97695
33.5757 65.3373 0.0197958
31.9592 63.2944 0.0189335
33.6285 63.333 2
30.3784 62.8548 2
32.1239 61.9999 2
28.6816 62.1998 3.98149
33.346 61.5089 3.98116
31.0683 61.217 3.98104
27.5736 59.5902 3.98089
23.799 59.0768 3.97904
25.0367 60.869 3.97989
26.8705 61.4967 2
26.2293 63.4766 3.98132
28.0624 64.1461 2
27.4632 66.1819 3.98427
29.8834 64.7173 0.0175449
29.4067 66.7581 2
28.9069 68.9427 3.98711
31.3771 67.1933 0.0166577
31.0145 69.4172 2
30.6144 71.7778 3.99185
33.1571 69.7515 0.0127125
32.8918 72.1472 2
32.6054 74.6784 4
35.195 72.3724 0.00815797
35.0474 74.9197 2
37.5 75 0
33.7243 6.98155 3.98498
35.4355 4.6863 3.98941
35.6213 6.72526 2
37.5148 2.38711 3.99325
37.5236 4.61521 2
39.6241 4.71645 0.0105062
39.7891 2.47399 2
39.9526 0.0806499 4
42.0628 2.71806 0.00671791
42.3947 0.320817 2
44.8158 0.721173 0
44.1476 35.5934 3.77748
42.1891 34.1325 3.67837
47.0975 40.3663 0.0778927
50.1129 38.5194 0.00847748
53.5803 36.6313 0.022738
47.7656 37.7544 2
50.9132 35.575 2
45.6052 35.1222 2
43.42 33.8575 2
41.8515 32.9955 2
47.9304 34.3037 3.96293
44.6832 33.0571 3.85761
42.2834 32.3949 3.7866
40.7649 32.6901 3.66286
37.311 10.6339 3.98117
37.4583 8.53455 2
37.5168 6.67511 0.013958
39.2113 8.69445 0.0165206
38.9772 10.1277 2
34.7548 10.384 3.98128
35.8992 9.77423 2
32.3785 9.37273 3.98092
34.1507 8.82344 2
35.9427 8.49491 0.0161733
52.0643 32.8896 0.0201887
51.0059 29.2464 0.0249593
50.5939 25.8114 0.0270636
49.8829 22.2907 0.0172644
47.4894 19.3144 0.0224995
45.7949 15.4334 0.0186546
43.8579 11.9165 0.0198165
40.5691 11.6108 0.0192512
49.6209 31.4727 2
38.3025 12.7394 2
42.1007 14.3095 2
49.0353 27.5839 2
49.2712 24.49 2
47.1504 22.0561 2
44.7903 18.5237 2
47.4438 29.58 3.98323
46.9573 25.2418 3.98073
44.266 21.4423 3.97614
36.5831 12.9402 3.9765
38.6827 14.8188 3.97613
41.7461 17.8733 3.97854
42.623 37.4842 3.70713
44.5034 37.4906 2
45.9513 37.4827 0.117951
46.8206 57.3309 0.0178021
47.1137 54.2141 0.0280402
47.8241 47.1956 0.0206035
47.4653 50.7153 0.0311997
44.1359 39.3857 0.219127
44.6842 41.9164 0.136017
44.6682 44.483 0.068472
44.5866 47.3469 0.0234055
42.2808 42.6009 0.207798
42.183 40.8541 0.318509
40.7623 42.3098 0.334108
45.3683 55.92 2
42.4953 39.2642 2
40.6399 40.7358 2
45.9213 48.8821 2
45.4541 52.5084 2
43.2881 48.3768 2
43.2596 46.0514 2
43.4363 43.7255 2
40.9497 43.762 2
39.2511 42.6096 2
43.7009 54.4197 3.99579
40.7441 39.1458 3.80283
39.1181 40.8169 3.78738
43.5789 50.419 4.0043
41.8752 47.5668 3.94907
41.7881 45.1143 3.87651
39.3365 44.4043 3.78279
37.5043 42.7073 3.70549
43.8662 57.7021 0.0163248
42.0941 56.3182 2
40.4048 54.9122 3.98175
35.5731 65.4258 0.0198868
37.837 63.205 0.0211228
40.6234 61.639 0.0195547
40.4411 58.1948 0.0191981
35.6067 63.1985 2
38.251 60.321 2
38.9205 56.486 2
37.996 55.2282 3.99079
36.934 57.6166 3.98311
35.3635 60.9029 3.97718
33.6287 63.3324 0.0205747
30.3785 62.8544 0.0181843
32.1238 61.9992 0.016653
33.3462 61.5096 2
28.6818 62.2001 2
31.0687 61.2174 2
29.4062 60.2864 3.97975
32.3606 59.7406 3.98729
28.0338 58.3714 3.98963
27.5742 59.5911 2
25.3873 58.5908 3.97752
22.7678 58.2309 3.96996
23.4041 60.3464 3.97877
23.7994 59.0778 2
25.037 60.8699 2
24.4325 62.7684 3.98145
26.8703 61.496 0.0202656
26.2295 63.4775 2
25.5474 65.4914 3.9834
28.0623 64.1457 0.017873
27.4632 66.1824 2
26.8364 68.3311 3.98716
29.4065 66.7576 0.015987
28.9069 68.9429 2
28.3694 71.2631 3.99189
31.0146 69.4166 0.0127535
30.614 71.7781 2
30.1842 74.2788 4
32.892 72.1468 0.00804227
32.6053 74.6792 2
35.0474 74.9194 0
31.7888 7.42163 3.98382
33.3479 4.92583 3.98889
33.7239 6.98011 2
35.245 2.46316 3.99317
35.4353 4.68564 2
35.6214 6.72632 0.0144506
37.5 0 4
37.5145 2.38668 2
37.5236 4.61602 0.0104178
39.7892 2.47456 0.00672548
39.9526 0.0802889 2
42.3946 0.32156 0
42.4983 35.709 3.69388
44.1794 35.5728 2
40.6528 34.2459 3.7794
42.1794 34.1246 2
47.7626 37.7496 0.0640466
50.9005 35.577 0.0234417
45.5727 35.1422 0.120348
43.3906 33.886 0.225371
41.8321 33.0133 0.375163
47.9477 34.2959 2
44.71 33.039 2
42.3333 32.3615 2
40.7755 32.6917 2
45.9568 31.624 3.93601
43.3953 31.3 3.86478
40.9163 31.2784 3.77992
39.2546 32.3979 3.68237
35.6934 11.7815 3.97939
37.312 10.6313 2
37.4584 8.53634 0.0157878
38.9764 10.1292 0.0162963
33.0993 11.2226 3.97778
34.7543 10.3811 2
35.8992 9.77659 0.0181722
30.4836 10.0226 3.9805
32.3778 9.37228 2
34.1516 8.8253 0.0171265
49.6075 31.4783 0.0137236
49.0304 27.5836 0.0253928
49.268 24.4936 0.0210133
47.1558 22.058 0.0185123
44.7904 18.5087 0.0224154
42.1004 14.307 0.0213274
38.3025 12.7416 0.0219187
36.5827 12.9356 2
47.4541 29.5574 2
38.682 14.8143 2
41.7442 17.8771 2
46.9642 25.2401 2
44.2641 21.4266 2
45.3099 27.7067 4.00217
43.7133 24.1617 4.00743
41.3255 20.8273 3.97983
35.7735 14.7719 3.97722
38.6822 17.6192 3.97836
40.7954 37.478 3.812
42.6195 37.4856 2
44.4747 37.4906 0.210137
45.3696 55.9205 0.0106567
45.4552 52.5023 0.0184854
45.9209 48.8745 0.0111325
42.5041 39.2659 0.307493
43.4042 43.6977 0.137373
43.227 46.0231 0.087263
43.2839 48.3579 0.00166637
40.9177 43.7194 0.221658
40.6477 40.75 0.219403
39.2536 42.6121 0.316728
43.6985 54.4192 2
40.7262 39.1383 2
39.119 40.7986 2
43.5774 50.436 2
41.8676 47.588 2
41.8091 45.1442 2
37.503 42.7072 2
39.3537 44.4384 2
41.8497 52.965 3.9947
39.138 39.1579 3.80884
37.5041 40.8654 3.80076
35.7576 42.6198 3.68495
40.8615 49.6202 3.99736
39.8022 45.9621 3.85393
37.5032 44.6336 3.77615
42.0937 56.3175 0.0159002
40.403 54.916 2
38.7233 53.795 3.99592
35.6069 63.1971 0.0230538
38.2507 60.3204 0.0207159
38.9203 56.486 0.0100981
35.3637 60.9038 2
36.9349 57.6172 2
37.9957 55.2248 2
36.3238 55.3118 3.99741
34.4893 58.5086 3.9852
33.346 61.5089 0.0188448
28.6816 62.1998 0.0185134
31.0683 61.217 0.0189558
32.3612 59.7414 2
29.4068 60.2865 2
30.3112 57.8161 3.98432
28.0342 58.3722 2
26.9671 56.8239 3.97546
27.5736 59.5902 0.0191082
25.3878 58.5919 2
23.861 56.7901 3.9627
21.3497 57.3831 3.969
21.9996 59.6157 3.97717
22.768 58.2327 2
22.7374 62.0183 3.97916
23.4044 60.3473 2
23.799 59.0768 0.0209638
25.0367 60.869 0.0201123
24.4328 62.7694 2
23.6816 64.7087 3.98299
26.2293 63.4766 0.0186769
25.5474 65.4923 2
24.8086 67.5923 3.98691
27.4632 66.1819 0.0157314
26.8364 68.3318 2
26.1645 70.6038 3.99196
28.9069 68.9427 0.0128852
28.369 71.2632 2
27.7943 73.7221 4
30.6144 71.7778 0.00815416
30.1841 74.2794 2
32.6054 74.6784 0
29.8115 7.99623 3.98284
31.2533 5.33283 3.98799
31.7884 7.42081 2
32.9807 2.70146 3.99285
33.3475 4.92481 2
33.7243 6.98155 0.0150246
35.0474 0.080333 4
35.2447 2.46284 2
35.4355 4.6863 0.0105857
37.5 0 2
37.5148 2.38711 0.00675352
39.9526 0.0806499 0
40.748 35.8259 3.8009
42.4897 35.7118 2
44.1476 35.5934 0.222523
28.5443 10.6982 3.9793
39.1166 34.1919 3.7866
40.6421 34.2602 2
42.1891 34.1325 0.321627
47.9304 34.3037 0.0370732
44.6832 33.0571 0.142394
42.2834 32.3949 0.213396
40.7649 32.6901 0.337136
45.9846 31.609 2
43.4259 31.2687 2
40.9507 31.2375 2
39.2566 32.4016 2
44.2137 29.8189 3.92853
41.7832 29.8827 3.87496
39.341 30.6007 3.78156
37.5083 32.3113 3.70493
34.0942 12.9434 3.97617
35.6933 11.7767 2
37.311 10.6339 0.0188311
31.1878 11.9929 3.97831
33.0996 11.222 2
34.7548 10.384 0.0187191
30.4824 10.0202 2
32.3785 9.37273 0.019079
47.4438 29.58 0.0167732
46.9573 25.2418 0.01927
36.5831 12.9402 0.0234976
44.266 21.4423 0.0238611
41.7461 17.8733 0.0214589
38.6827 14.8188 0.0238725
35.7741 14.7771 2
45.3137 27.7059 2
38.6799 17.6225 2
41.322 20.8165 2
43.7163 24.1506 2
33.6106 15.8916 3.97713
42.9085 26.5576 3.9972
40.8659 23.3908 4.01373
38.4131 20.3982 3.98338
35.8522 17.5261 3.97947
39.1434 37.4883 3.83241
40.7795 37.4777 2
42.623 37.4842 0.292868
43.7009 54.4197 0.00420588
43.5789 50.419 -0.00430228
40.7441 39.1458 0.197167
41.7881 45.1143 0.12349
41.8752 47.5668 0.0509321
39.3365 44.4043 0.217207
39.1181 40.8169 0.212622
37.5043 42.7073 0.294507
41.8469 52.9626 2
39.127 39.1463 2
37.5033 40.8425 2
40.8671 49.6357 2
35.7548 42.6164 2
39.8221 45.999 2
37.4973 44.6643 2
39.7907 51.8343 4.0016
37.501 39.1689 3.83514
35.8906 40.8305 3.78751
34.2464 42.3192 3.66313
35.6684 44.4179 3.77884
38.6707 48.6083 3.96393
37.518 46.2597 3.86992
40.4048 54.9122 0.0182508
38.7224 53.7891 2
36.7424 53.1305 3.99926
35.3635 60.9029 0.0228206
36.934 57.6166 0.0168937
37.996 55.2282 0.00921182
34.4905 58.5095 2
36.3251 55.3148 2
33.2459 55.4885 3.99503
32.3606 59.7406 0.012711
29.4062 60.2864 0.0202479
30.3118 57.8164 2
28.7274 55.312 3.97885
28.0338 58.3714 0.0103732
26.9672 56.8246 2
25.3508 55.1295 3.97039
21.8393 55.3303 3.96479
25.3873 58.5908 0.0224826
23.8608 56.7925 2
20.2358 57.0115 3.97151
20.6536 58.7668 3.97278
21.3496 57.3847 2
21.1693 61.166 3.977
21.9999 59.6168 2
22.7678 58.2309 0.0300432
21.8954 63.8359 3.98164
22.7377 62.0193 2
23.4041 60.3464 0.0212304
24.4325 62.7684 0.0185456
23.6817 64.7096 2
22.8369 66.7354 3.98614
25.5474 65.4914 0.0165987
24.8086 67.5932 2
24.0087 69.805 3.99206
26.8364 68.3311 0.0128356
26.1641 70.6041 2
25.446 73.0099 4
28.3694 71.2631 0.00810546
27.7943 73.7222 2
30.1842 74.2788 0
27.8214 8.65593 3.98241
29.1555 5.87914 3.98693
29.8107 7.9943 2
30.726 3.09851 3.99256
31.2529 5.33206 2
31.7888 7.42163 0.0161818
32.6053 0.320823 4
32.9803 2.70096 2
33.3479 4.92583 0.0111093
35.0474 0.0802903 2
35.245 2.46316 0.00682873
37.5 0 0
39.1389 35.8301 3.80919
40.729 35.8319 2
42.4983 35.709 0.306116
28.5433 10.6972 2
26.6228 11.3943 3.97912
29.2268 12.6495 3.97889
37.5014 34.1553 3.79965
39.1177 34.2111 2
40.6528 34.2459 0.220601
45.9568 31.624 0.0639898
43.3953 31.3 0.135221
40.9163 31.2784 0.220076
39.2546 32.3979 0.317626
44.2146 29.8076 2
41.7992 29.8577 2
39.3539 30.5645 2
37.5098 32.3103 2
42.2384 28.4793 3.90252
39.8094 29.0334 3.87478
37.5109 30.3812 3.7764
35.7641 32.3982 3.68302
31.9169 14.4931 3.97731
34.0951 12.9433 2
35.6934 11.7815 0.0206133
31.187 11.9893 2
33.0993 11.2226 0.0222192
30.4836 10.0226 0.0195049
45.3099 27.7067 -0.0021747
43.7133 24.1617 -0.00743177
35.7735 14.7719 0.0227755
41.3255 20.8273 0.0201736
38.6822 17.6192 0.0216351
33.6093 15.8878 2
35.849 17.529 2
42.9175 26.5579 2
38.4122 20.3991 2
40.8632 23.3755 2
33.5553 17.4012 3.97819
40.325 25.7489 3.98763
38.0676 23.0406 3.99783
35.5834 20.1123 3.98187
37.4993 37.4993 3.85422
39.1335 37.4877 2
40.7954 37.478 0.188001
41.8497 52.965 0.0053005
40.8615 49.6202 0.00263862
39.138 39.1579 0.191159
39.8022 45.9621 0.146069
37.5032 44.6336 0.223848
37.5041 40.8654 0.199236
35.7576 42.6198 0.315048
39.7914 51.8376 2
37.5012 39.1546 2
35.8894 40.8126 2
38.6859 48.6488 2
34.2375 42.318 2
35.6517 44.4544 2
37.5198 46.298 2
37.6574 50.9011 4.00149
35.8676 39.1759 3.80942
34.3618 40.7701 3.77999
33.1732 41.9936 3.62818
34.0793 43.7207 3.77936
35.1865 45.9578 3.86664
36.9087 48.2352 3.93279
38.7233 53.795 0.0040754
36.7378 53.1352 2
34.3958 52.4342 3.99676
34.4893 58.5086 0.0148015
36.3238 55.3118 0.00258551
33.2465 55.4915 2
30.5602 53.3418 3.9788
30.3112 57.8161 0.0156818
28.7276 55.314 2
26.9443 53.4255 3.97159
26.9671 56.8239 0.0245364
25.3506 55.1332 2
23.6419 53.461 3.95841
20.546 53.1964 3.96231
19.9575 55.8124 3.96652
21.838 55.3318 2
23.861 56.7901 0.0372977
19.4497 57.8731 3.97165
20.2354 57.0128 2
19.7108 60.1924 3.97631
20.6535 58.7674 2
21.3497 57.3831 0.0309964
20.2085 62.8558 3.97924
21.1696 61.1675 2
21.9996 59.6157 0.0228275
20.9383 65.764 3.98521
21.8955 63.8368 2
22.7374 62.0183 0.0208401
23.6816 64.7087 0.0170123
22.837 66.736 2
21.9112 68.8719 3.99171
24.8086 67.5923 0.0130894
24.0081 69.8052 2
23.1494 72.1454 4
26.1645 70.6038 0.00804208
25.446 73.0099 2
27.7943 73.7221 0
25.8605 9.38481 3.98144
27.0702 6.5432 3.9859
27.8205 8.65504 2
28.4883 3.64459 3.99205
29.1549 5.87786 2
29.8115 7.99623 0.017156
30.1841 0.720592 4
30.7255 3.09817 2
31.2533 5.33283 0.012009
32.6053 0.320817 2
32.9807 2.70146 0.00715107
35.0474 0.080333 0
37.5008 35.836 3.83412
39.1265 35.8405 2
40.748 35.8259 0.199101
24.7777 12.0793 3.97915
23.7535 14.3689 3.97778
28.5443 10.6982 0.0206982
26.6221 11.3941 2
29.2261 12.6483 2
27.2932 13.3831 3.97839
29.7832 14.2119 3.97857
35.8893 34.1904 3.78656
37.5029 34.1776 2
39.1166 34.1919 0.213398
37.5083 32.3113 0.295074
44.2137 29.8189 0.0714715
41.7832 29.8827 0.12504
39.341 30.6007 0.218443
42.2597 28.4495 2
39.8218 28.9982 2
37.5146 30.3488 2
35.7631 32.4014 2
39.9951 27.6692 3.90517
37.5048 28.7481 3.8702
35.6778 30.6113 3.78427
34.2578 32.6968 3.66307
30.9303 16.8554 3.97774
31.9165 14.4868 2
34.0942 12.9434 0.0238257
31.1878 11.9929 0.0216897
42.9085 26.5576 0.00279542
40.8659 23.3908 -0.0137317
33.6106 15.8916 0.022865
35.8522 17.5261 0.0205332
38.4131 20.3982 0.0166188
33.5511 17.4137 2
35.5856 20.1163 2
40.3263 25.7316 2
38.059 23.0284 2
32.8689 19.8079 3.98631
37.7807 25.3466 3.99998
35.1948 22.7635 3.99403
35.8563 37.5033 3.83301
37.4993 37.4991 2
39.1434 37.4883 0.167594
39.7907 51.8343 -0.00159684
38.6707 48.6083 0.0360716
37.501 39.1689 0.16486
37.518 46.2597 0.130084
35.6684 44.4179 0.221163
35.8906 40.8305 0.212495
34.2464 42.3192 0.336866
37.6447 50.9218 2
35.8802 39.1647 2
34.3692 40.7566 2
36.889 48.2761 2
33.1544 42.01 2
34.0516 43.7595 2
35.1714 45.9886 2
35.5115 50.0634 3.99254
34.2668 39.1726 3.80287
32.814 40.8721 3.68039
32.7217 42.6131 3.78863
33.222 45.1169 3.87243
34.3421 47.3304 3.90755
36.7424 53.1305 0.00073726
34.39 52.4409 2
32.0775 51.1514 4.00558
33.2459 55.4885 0.00496728
30.5602 53.3467 2
28.5037 51.559 3.98004
28.7274 55.312 0.0211549
26.9438 53.4291 2
25.1733 51.7134 3.95684
25.3508 55.1295 0.0296057
23.6411 53.4632 2
22.0753 51.771 3.95497
19.3212 51.6036 3.96303
18.966 54.2862 3.96327
20.5454 53.1956 2
18.4649 56.705 3.9689
19.9565 55.8136 2
21.8393 55.3303 0.035207
18.3756 59.0956 3.97047
19.4492 57.874 2
20.2358 57.0115 0.0284937
18.621 61.7589 3.97446
19.7112 60.1939 2
20.6536 58.7668 0.0272163
19.1273 64.6738 3.98379
20.2085 62.857 2
21.1693 61.166 0.0230025
19.8854 67.8086 3.99163
20.9383 65.7648 2
21.8954 63.8359 0.0183581
22.8369 66.7354 0.0138636
21.9106 68.8718 2
20.9142 71.1327 4
24.0087 69.805 0.00794302
23.1494 72.1455 2
25.446 73.0099 0
23.0973 12.7952 3.97866
23.9731 10.1729 3.98066
25.0239 7.31387 3.9849
25.8598 9.3843 2
26.28 4.32873 3.99156
27.0696 6.54251 2
27.8214 8.65593 0.017587
27.7943 1.27781 4
28.4875 3.64417 2
29.1555 5.87914 0.0130725
30.1841 0.720551 2
30.726 3.09851 0.00744127
32.6053 0.320823 0
35.8618 35.8352 3.80781
37.5011 35.8503 2
39.1389 35.8301 0.190815
24.7772 12.0786 2
23.7538 14.3688 2
22.4828 15.046 3.9789
25.3594 13.9171 3.97739
24.03 15.6328 3.97936
26.6228 11.3943 0.0208813
29.2268 12.6495 0.021112
27.293 13.3831 2
29.7817 14.2099 2
28.3614 15.9882 3.97786
34.3636 34.2539 3.778
35.8888 34.2094 2
37.5014 34.1553 0.200352
35.7641 32.3982 0.316975
37.5109 30.3812 0.223597
42.2384 28.4793 0.0974826
39.8094 29.0334 0.125218
40.0146 27.643 2
37.5063 28.7136 2
35.6614 30.5706 2
34.2448 32.6997 2
37.5824 27.3827 3.91764
35.1956 29.0482 3.8735
34.092 31.2935 3.77944
33.1909 33.0238 3.627
30.216 19.3689 3.98093
30.9287 16.8483 2
31.9169 14.4931 0.0226864
40.325 25.7489 0.0123749
38.0676 23.0406 0.0021669
33.5553 17.4012 0.0218139
35.5834 20.1123 0.0181252
32.8685 19.8213 2
35.1912 22.7525 2
37.7766 25.3328 2
32.318 22.493 3.99634
35.0189 25.3113 4.00081
34.2085 37.5109 3.81329
35.8667 37.5044 2
37.4993 37.4993 0.145782
37.6574 50.9011 -0.00149496
36.9087 48.2352 0.067213
35.8676 39.1759 0.190578
35.1865 45.9578 0.133359
34.0793 43.7207 0.220645
34.3618 40.7701 0.22001
33.1732 41.9936 0.371824
35.5011 50.0684 2
34.2868 39.1662 2
32.8194 40.8789 2
34.3289 47.3707 2
32.6828 42.6425 2
33.2049 45.1442 2
33.3331 49.0606 3.98639
32.4975 39.2903 3.69622
31.6074 41.1144 3.77932
31.6007 43.7061 3.86449
32.392 46.2682 3.90656
34.3958 52.4342 0.00323743
32.0786 51.1613 2
29.9773 49.6681 3.98481
30.5602 53.3418 0.0212049
28.5023 51.5573 2
26.6332 49.9406 3.96917
26.9443 53.4255 0.0284133
25.172 51.7112 2
23.4803 50.1454 3.96435
23.6419 53.461 0.0415887
22.0746 51.7696 2
20.6096 50.2754 3.96534
18.1249 50.2983 3.96801
17.926 52.7651 3.96445
19.3198 51.6029 2
17.4642 55.3226 3.96325
18.9627 54.2863 2
20.546 53.1964 0.0376901
17.1459 57.8566 3.96693
18.4641 56.7052 2
19.9575 55.8124 0.0334837
17.1397 60.5357 3.97361
18.3756 59.0966 2
19.4497 57.8731 0.0283455
17.4085 63.4645 3.97988
18.6212 61.7602 2
19.7108 60.1924 0.0236934
17.942 66.6171 3.99104
19.1272 64.6749 2
20.2085 62.8558 0.0207631
18.75 69.9759 4
19.8847 67.8084 2
20.9383 65.764 0.0147939
21.9112 68.8719 0.0082941
20.9142 71.1327 2
23.1494 72.1454 0
21.5886 13.6163 3.97835
22.1912 11.0332 3.97978
23.0972 12.7952 2
23.0417 8.18023 3.98403
23.9725 10.1721 2
24.1176 5.14352 3.99107
25.0232 7.31322 2
25.8605 9.38481 0.0185592
25.446 1.99014 4
26.279 4.32868 2
27.0702 6.5432 0.0140955
27.7943 1.27778 2
28.4883 3.64459 0.00795221
30.1841 0.720592 0
34.2608 35.8441 3.80137
35.8729 35.8463 2
37.5008 35.836 0.165881
21.31 15.8427 3.98057
24.7777 12.0793 0.0208548
23.7535 14.3689 0.0222191
25.3594 13.9165 2
22.4835 15.0463 2
24.0301 15.6333 2
23.271 16.2633 3.97617
25.3861 16.1024 3.97887
27.2932 13.3831 0.0216103
29.7832 14.2119 0.0214297
28.3594 15.9904 2
27.4469 18.8203 3.97904
32.8258 34.1475 3.679
34.3761 34.2683 2
35.8893 34.1904 0.213436
34.2578 32.6968 0.33693
35.6778 30.6113 0.215728
37.5048 28.7481 0.129804
39.9951 27.6692 0.0948323
37.5846 27.3462 2
33.1708 33.0077 2
35.1893 29.007 2
34.055 31.2486 2
35.091 27.5043 3.91672
33.2235 29.8987 3.86948
32.7377 32.3977 3.77622
29.605 21.9652 3.9955
30.2159 19.38 2
30.9303 16.8554 0.022263
37.7807 25.3466 1.67211e-05
35.1948 22.7635 0.00597248
32.8689 19.8079 0.0136932
32.318 22.4843 2
35.0362 25.2992 2
31.7936 25.7162 4.00804
32.3672 37.5117 3.70964
34.2293 37.511 2
35.8563 37.5033 0.166985
35.5115 50.0634 0.00746054
34.3421 47.3304 0.0924513
34.2668 39.1726 0.197128
33.222 45.1169 0.127566
32.7217 42.6131 0.211365
32.814 40.8721 0.319612
33.3285 49.0589 2
32.5122 39.2889 2
31.5788 41.1394 2
32.3586 46.2996 2
31.5695 43.7337 2
31.2995 47.8979 3.98706
30.8567 39.4063 3.77927
30.3141 41.942 3.85851
30.6299 44.8671 3.92758
32.0775 51.1514 -0.00558146
29.9755 49.6702 2
28.0523 48.1245 3.96483
28.5037 51.559 0.0199622
26.6322 49.9384 2
24.8302 48.4137 3.97252
25.1733 51.7134 0.0431562
23.4799 50.1433 2
21.8509 48.7381 3.96978
22.0753 51.771 0.0450328
20.608 50.2744 2
19.1983 49.0544 3.97222
17.0231 49.3028 3.97291
16.8733 51.3813 3.96698
18.1267 50.2971 2
16.4363 53.8514 3.96453
17.9237 52.7649 2
19.3212 51.6036 0.0369658
15.9914 56.4607 3.96625
17.462 55.3232 2
18.966 54.2862 0.036735
15.7559 59.1978 3.96967
17.1458 57.8576 2
18.4649 56.705 0.0310977
15.7903 62.1313 3.97476
17.14 60.5375 2
18.3756 59.0956 0.0295298
16.0892 65.2996 3.98975
17.4082 63.4661 2
18.621 61.7589 0.0255376
16.6661 68.6801 4
17.9409 66.6168 2
19.1273 64.6738 0.0162133
18.75 69.9759 2
19.8854 67.8086 0.00836629
20.9142 71.1327 0
20.2218 14.607 3.97696
21.5888 13.6166 2
20.5306 12.0041 3.97912
21.1444 9.15062 3.98335
22.1909 11.033 2
23.0973 12.7952 0.0213352
22.0167 6.08274 3.99049
23.0409 8.1794 2
23.9731 10.1729 0.0193431
23.1494 2.85457 4
24.1165 5.14361 2
25.0239 7.31387 0.0150972
25.446 1.99012 2
26.28 4.32873 0.00843646
27.7943 1.27781 0
32.4928 35.7294 3.68972
34.2796 35.8543 2
35.8618 35.8352 0.192193
21.3107 15.8424 2
20.3102 16.9749 3.98077
22.1035 16.649 3.97389
25.3594 13.9171 0.0226137
22.4828 15.046 0.0210983
24.03 15.6328 0.0206446
25.3855 16.1029 2
23.2714 16.2642 2
24.2123 18.4756 3.97373
27.0448 21.4876 3.99138
28.3614 15.9882 0.0221367
27.4485 18.8196 2
31.6252 33.9101 3.77682
32.8323 34.1379 2
34.3636 34.2539 0.221999
33.1909 33.0238 0.372998
34.092 31.2935 0.22056
35.1956 29.0482 0.126496
37.5824 27.3827 0.0823607
35.0833 27.4631 2
32.67 32.3672 2
33.2098 29.8792 2
32.6599 28.2132 3.92792
31.6032 31.3185 3.86562
28.9018 24.4466 3.98169
29.5999 21.9767 2
30.216 19.3689 0.019071
35.0189 25.3113 -0.000814938
32.318 22.493 0.00365924
31.7959 25.6943 2
29.796 27.3749 3.97194
30.5107 37.5051 3.78835
32.3794 37.5104 2
34.2085 37.5109 0.186707
33.3331 49.0606 0.0136092
32.392 46.2682 0.0934363
32.4975 39.2903 0.303778
31.6007 43.7061 0.135507
31.6074 41.1144 0.220676
31.2964 47.9022 2
30.8168 39.4269 2
30.2888 41.9587 2
30.6092 44.8889 2
29.4119 46.5017 4.00248
29.4171 39.8522 3.88134
29.0207 43.0974 3.92754
29.9773 49.6681 0.0151928
28.0507 48.1205 2
26.1808 46.5927 3.97644
26.6332 49.9406 0.0308333
24.8298 48.4112 2
23.0482 47.0157 3.97438
23.4803 50.1454 0.0356548
21.85 48.737 2
20.1754 47.5737 3.977
20.6096 50.2754 0.034659
19.2004 49.053 2
17.8221 48.1461 3.97631
16.2617 48.6575 3.97603
17.0244 49.3018 2
15.9526 50.1458 3.97044
15.442 52.3962 3.9665
16.8738 51.3807 2
18.1249 50.2983 0.0319879
14.8892 54.9645 3.96511
16.4361 53.8513 2
17.926 52.7651 0.0355548
14.4683 57.7273 3.96685
15.9916 56.4606 2
17.4642 55.3226 0.0367487
14.2693 60.685 3.97371
15.7563 59.1991 2
17.1459 57.8566 0.0330713
14.3343 63.8582 3.98638
15.7901 62.1325 2
17.1397 60.5357 0.0263931
14.6715 67.2507 4
16.0877 65.2988 2
17.4085 63.4645 0.020119
16.6661 68.6801 2
17.942 66.6171 0.00896298
18.75 69.9759 0
18.9369 15.7935 3.97844
20.2222 14.6069 2
18.9809 13.116 3.97781
21.5886 13.6163 0.0216542
20.5307 12.0041 2
19.3436 10.2391 3.98262
19.9913 7.14744 3.99005
21.1439 9.15028 2
22.1912 11.0332 0.0202153
20.9142 3.86727 4
22.0153 6.08299 2
23.0417 8.18023 0.0159682
23.1494 2.85451 2
24.1176 5.14352 0.00892937
25.446 1.99014 0
30.8745 35.6223 3.78167
32.5044 35.7322 2
34.2608 35.8441 0.198628
21.31 15.8427 0.0194321
22.1043 16.6494 2
20.3109 16.9739 2
19.2597 18.4245 3.97335
21.7901 17.868 3.97978
25.3861 16.1024 0.0211264
23.271 16.2633 0.0238273
24.2129 18.4766 2
22.3051 19.9187 3.96881
24.6266 21.3606 3.98897
26.5107 23.7542 3.97125
27.0442 21.4847 2
27.4469 18.8203 0.0209562
30.345 33.0855 3.87213
31.6015 33.8747 2
32.8258 34.1475 0.320999
32.7377 32.3977 0.223781
33.2235 29.8987 0.130521
35.091 27.5043 0.0832768
32.6219 28.1869 2
31.5673 31.283 2
30.3171 29.6321 3.94684
28.0433 26.5873 3.98732
28.8968 24.4628 2
29.605 21.9652 0.00450483
31.7936 25.7162 -0.00804086
29.792 27.3442 2
29.0325 37.5178 3.88265
30.4893 37.5059 2
32.3672 37.5117 0.290358
31.2995 47.8979 0.01294
30.6299 44.8671 0.0724201
30.8567 39.4063 0.220733
30.3141 41.942 0.141494
29.4112 46.5134 2
29.384 39.8721 2
28.9923 43.1241 2
27.5941 44.8074 3.97483
27.1871 40.5928 3.9526
28.0523 48.1245 0.035173
26.1768 46.5947 2
24.3005 45.1377 3.97618
24.8302 48.4137 0.0274803
23.0473 47.0149 2
21.1538 45.8412 3.97832
21.8509 48.7381 0.0302214
20.1745 47.5725 2
18.5051 46.6993 3.97824
19.1983 49.0544 0.0277791
17.8236 48.145 2
16.4688 47.6866 3.97703
16.2628 48.6568 2
15.2977 48.9929 3.97363
17.0231 49.3028 0.0270883
15.9539 50.1451 2
14.5596 50.9664 3.9685
13.8597 53.4223 3.96591
15.4432 52.3957 2
16.8733 51.3813 0.0330161
13.264 56.1585 3.96692
14.8884 54.9645 2
16.4363 53.8514 0.0354682
12.8532 59.1186 3.97177
14.4689 57.7274 2
15.9914 56.4607 0.0337526
12.6801 62.3003 3.98352
14.2693 60.6855 2
15.7559 59.1978 0.0303302
12.7746 65.6939 4
14.3325 63.8565 2
15.7903 62.1313 0.0252399
14.6714 67.2507 2
16.0892 65.2996 0.0102473
16.6661 68.6801 0
17.6766 17.1705 3.97301
18.9373 15.7931 2
17.5131 14.3811 3.97694
20.2218 14.607 0.0230368
18.9811 13.1158 2
17.6392 11.4588 3.98133
20.5306 12.0041 0.0208762
19.3434 10.2389 2
18.0514 8.34035 3.98974
18.75 5.0241 4
19.9897 7.14826 2
21.1444 9.15062 0.0166499
20.9142 3.86727 2
22.0167 6.08274 0.00950934
23.1494 2.85457 0
29.4337 35.1574 3.88372
30.8269 35.5965 2
32.4928 35.7294 0.310279
22.1035 16.649 0.0261143
20.3102 16.9749 0.0192265
21.7909 17.8673 2
19.2602 18.4233 2
18.0135 19.9623 3.96225
20.8998 19.3989 3.97427
24.2123 18.4756 0.0262717
22.3052 19.9184 2
24.6264 21.3617 2
22.409 21.7504 3.9773
24.7795 23.1979 3.97759
25.6307 25.9851 3.97626
26.5125 23.7525 2
27.0448 21.4876 0.00861888
28.7246 32.4052 3.93073
30.3133 33.0642 2
31.6252 33.9101 0.223182
31.6032 31.3185 0.134379
32.6599 28.2132 0.0720846
30.3113 29.632 2
27.2661 29.176 4.006
28.0357 26.6001 2
28.9018 24.4466 0.0183064
29.796 27.3749 0.0280621
27.2991 37.3676 3.9331
28.9796 37.5061 2
30.5107 37.5051 0.21165
29.4119 46.5017 -0.00247929
29.0207 43.0974 0.0724564
29.4171 39.8522 0.118655
27.5843 44.8321 2
27.1693 40.5978 2
25.6199 43.1162 3.98845
24.4431 39.4518 3.97607
26.1808 46.5927 0.0235552
24.2925 45.1386 2
22.1872 43.8915 3.97814
23.0482 47.0157 0.0256207
21.1514 45.8403 2
19.2078 44.931 3.97785
20.1754 47.5737 0.022999
18.5057 46.6982 2
16.7891 46.1841 3.97717
17.8221 48.1461 0.02369
16.4701 47.6858 2
15.0447 47.6479 3.97502
16.2617 48.6575 0.0239699
15.2991 48.9923 2
13.8616 49.5288 3.97057
15.9526 50.1458 0.0295563
14.5606 50.9659 2
12.9301 51.863 3.96691
12.151 54.5207 3.9671
13.8595 53.4221 2
15.442 52.3962 0.033501
11.5388 57.4525 3.97111
13.2646 56.1584 2
14.8892 54.9645 0.0348858
11.135 60.6258 3.98111
12.8537 59.1182 2
14.4683 57.7273 0.033149
10.9835 64.0165 4
12.6784 62.2977 2
14.2693 60.685 0.0262923
12.7745 65.694 2
14.3343 63.8582 0.0136216
14.6715 67.2507 0
16.4188 18.6686 3.96451
17.6769 17.1697 2
16.1059 15.7915 3.97429
18.9369 15.7935 0.021565
17.5135 14.3804 2
16.0211 12.8132 3.9793
18.9809 13.116 0.0221867
17.6392 11.4585 2
16.2025 9.66348 3.9893
19.3436 10.2391 0.017384
18.0498 8.34159 2
16.6661 6.31991 4
18.75 5.02404 2
19.9913 7.14744 0.00994688
20.9142 3.86727 0
27.8298 34.8009 3.9246
29.4004 35.1419 2
30.8745 35.6223 0.218329
16.726 21.3972 3.96538
21.7901 17.868 0.0202161
19.2597 18.4245 0.02665
20.9001 19.3978 2
18.0139 19.9614 2
19.779 21.5994 3.97058
22.3051 19.9187 0.0311862
24.6266 21.3606 0.011025
22.4089 21.7503 2
24.7799 23.1972 2
22.976 24.6344 3.97264
24.8073 28.5672 3.97841
25.6284 25.9828 2
26.5107 23.7542 0.0287515
26.5725 31.7594 3.98282
28.6967 32.3817 2
30.345 33.0855 0.127872
30.3171 29.6321 0.0531581
27.2878 29.1586 2
28.0433 26.5873 0.0126821
25.1288 36.8592 3.98244
27.2838 37.3591 2
29.0325 37.5178 0.117351
27.5941 44.8074 0.0251703
27.1871 40.5928 0.0473967
25.6033 43.1277 2
24.4271 39.4522 2
23.3374 41.813 3.98007
22.1606 38.5207 3.9778
24.3005 45.1377 0.0238201
22.1856 43.8917 2
20.0309 42.8634 3.97689
21.1538 45.8412 0.0216756
19.2079 44.9309 2
17.1599 44.3504 3.97718
18.5051 46.6993 0.0217631
16.7907 46.1833 2
14.987 46.0685 3.97547
16.4688 47.6866 0.0229682
15.046 47.6474 2
13.38 47.9922 3.97215
15.2977 48.9929 0.0263686
13.8628 49.5284 2
12.1526 50.2427 3.96786
14.5596 50.9664 0.0314996
12.9304 51.8628 2
11.1463 52.8322 3.96714
10.3293 55.7072 3.97109
12.1515 54.5205 2
13.8597 53.4223 0.0340873
9.70175 58.8481 3.9798
11.5391 57.4521 2
13.264 56.1585 0.0330843
9.30605 62.2254 4
11.1335 60.6227 2
12.8532 59.1186 0.0282314
10.9835 64.0165 2
12.6801 62.3003 0.016476
12.7746 65.6939 0
15.1657 20.2003 3.96529
16.4192 18.6681 2
14.7569 17.3182 3.96797
17.6766 17.1705 0.026994
16.1062 15.7904 2
14.4843 14.2964 3.97724
17.5131 14.3811 0.0230613
16.0212 12.8125 2
14.4453 11.1148 3.98839
17.6392 11.4588 0.0186737
16.2009 9.66506 2
14.6715 7.74927 4
18.0514 8.34035 0.0102647
16.6661 6.31988 2
18.75 5.0241 0
25.7893 34.2905 3.99002
27.8078 34.81 2
29.4337 35.1574 0.116279
17.9258 22.3474 3.96991
15.5816 22.9383 3.96785
16.7267 21.3971 2
20.8998 19.3989 0.0257271
18.0135 19.9623 0.0377454
19.7793 21.5989 2
19.8031 24.4157 3.97039
22.409 21.7504 0.0227043
24.7795 23.1979 0.0224121
22.9753 24.6341 2
22.1752 27.8675 3.97273
24.1293 31.2391 3.97657
24.8217 28.567 2
25.6307 25.9851 0.0237379
26.5555 31.7312 2
28.7246 32.4052 0.0692707
27.2661 29.176 -0.00599584
22.8818 36.2877 3.98231
25.1122 36.8606 2
27.2991 37.3676 0.0669046
25.6199 43.1162 0.0115476
24.4431 39.4518 0.0239301
23.3274 41.8119 2
22.1531 38.5191 2
21.0631 40.637 3.9757
20.456 37.8028 3.97697
22.1872 43.8915 0.021861
20.0298 42.8641 2
17.619 42.0723 3.97652
19.2078 44.931 0.0221509
17.1615 44.3502 2
15.0177 44.1793 3.9759
16.7891 46.1841 0.0228333
14.9881 46.0681 2
13.068 46.2803 3.9733
15.0447 47.6479 0.0249836
13.381 47.9918 2
11.5303 48.5404 3.9687
13.8616 49.5288 0.0294287
12.1532 50.2424 2
10.2721 51.0773 3.96703
12.9301 51.863 0.0330903
11.1468 52.8319 2
9.23815 53.8873 3.97074
8.38516 56.9814 3.98032
10.3298 55.7066 2
12.151 54.5207 0.0329002
7.74927 60.3285 4
9.70055 58.8446 2
11.5388 57.4525 0.0288899
9.306 62.2255 2
11.135 60.6258 0.0188926
10.9835 64.0165 0
13.9867 21.7656 3.96539
15.1665 20.2004 2
13.4609 18.914 3.96711
16.4188 18.6686 0.0354858
14.7574 17.3173 2
13.0319 15.8916 3.97315
16.1059 15.7915 0.0257068
14.4843 14.2954 2
12.7829 12.6885 3.98658
16.0211 12.8132 0.0206989
14.4437 11.1167 2
12.7746 9.30605 4
16.2025 9.66348 0.0106975
14.6715 7.74924 2
16.6661 6.31991 0
23.4667 33.8318 3.98385
25.7652 34.2819 2
27.8298 34.8009 0.0753976
17.7411 24.0705 3.97016
17.9266 22.3473 2
14.4055 24.4714 3.96947
15.5829 22.9384 2
16.726 21.3972 0.0346212
19.2558 27.2427 3.97195
19.779 21.5994 0.0294163
19.801 24.4155 2
21.5029 30.7094 3.97528
22.976 24.6344 0.02736
22.1843 27.8688 2
24.1104 31.237 2
24.8073 28.5672 0.0215948
26.5725 31.7594 0.0171788
20.5777 35.9522 3.97707
22.881 36.2847 2
25.1288 36.8592 0.0175646
23.3374 41.813 0.0199294
22.1606 38.5207 0.0222005
21.0692 40.6362 2
20.4586 37.8021 2
18.362 39.0063 3.9773
20.0309 42.8634 0.0231075
17.6202 42.0723 2
15.0013 41.8997 3.97682
17.1599 44.3504 0.0228188
15.0192 44.1787 2
12.828 44.3785 3.97391
14.987 46.0685 0.0245338
13.0691 46.2799 2
11.0391 46.7249 3.96938
13.38 47.9922 0.0278515
11.5309 48.5401 2
9.53654 49.2378 3.96686
12.1526 50.2427 0.0321397
10.2726 51.077 2
8.27101 52.0012 3.9704
11.1463 52.8322 0.0328602
9.23861 53.8865 2
7.19413 55.0322 3.98108
6.31991 58.3339 4
8.38427 56.9779 2
10.3293 55.7072 0.0289106
7.74924 60.3285 2
9.70175 58.8481 0.0201982
9.30605 62.2254 0
13.3008 25.3791 3.97222
12.8698 23.2941 3.96702
13.9861 21.7654 2
12.2458 20.5589 3.96747
15.1657 20.2003 0.0347093
13.4619 18.9138 2
11.6637 17.573 3.97118
14.7569 17.3182 0.032031
13.0323 15.8909 2
11.221 14.3744 3.98298
14.4843 14.2964 0.0227634
12.7811 12.6908 2
10.9835 10.9835 4
14.4453 11.1148 0.0116083
12.7745 9.306 2
14.6715 7.74927 0
20.9368 33.4378 3.97591
23.468 33.8386 2
25.7893 34.2905 0.009978
16.0621 26.4298 3.97192
17.7416 24.0705 2
17.9258 22.3474 0.03009
14.4055 24.4717 2
15.5816 22.9383 0.0321498
18.6345 30.2114 3.97489
19.2547 27.2429 2
19.8031 24.4157 0.0296125
21.5047 30.7097 2
22.1752 27.8675 0.0272688
24.1293 31.2391 0.0234295
17.9733 35.984 3.97814
20.5778 35.9543 2
22.8818 36.2877 0.0176854
21.0631 40.637 0.0242983
20.456 37.8028 0.0230292
18.361 39.006 2
14.5082 39.171 3.97758
17.619 42.0723 0.023477
15.0027 41.8992 2
12.5268 42.2673 3.97449
15.0177 44.1793 0.024105
12.8292 44.3782 2
10.6262 44.7946 3.96996
13.068 46.2803 0.0267021
11.0397 46.7247 2
8.92029 47.3171 3.96676
11.5303 48.5404 0.0312982
9.53669 49.2375 2
7.43786 50.0349 3.9699
10.2721 51.0773 0.0329711
8.27136 52.0005 2
6.13478 53.0074 3.98147
9.23815 53.8873 0.0292574
7.19359 55.0293 2
5.0241 56.25 4
6.31988 58.3339 2
8.38516 56.9814 0.0196777
7.74927 60.3285 0
13.5664 26.8331 3.97172
11.9772 24.799 3.96873
13.3001 25.3792 2
11.1492 22.2404 3.9669
12.8702 23.2943 2
13.9867 21.7656 0.0346088
12.2468 20.5589 2
10.3943 19.3249 3.97167
13.4609 18.914 0.0328922
11.6645 17.5731 2
9.76236 16.1588 3.97992
13.0319 15.8916 0.026853
11.2192 14.3775 2
9.30607 12.7746 4
12.7829 12.6885 0.013423
10.9835 10.9835 2
12.7746 9.30605 0
18.1466 33.1458 3.97723
20.939 33.4383 2
23.4667 33.8318 0.0161465
15.687 29.6645 3.97433
16.0615 26.4302 2
17.7411 24.0705 0.0298419
14.4055 24.4714 0.0305342
18.6323 30.2115 2
19.2558 27.2427 0.0280478
21.5029 30.7094 0.0247171
15.1255 36.0337 3.97789
17.9754 35.9841 2
20.5777 35.9522 0.0229302
12.75 37.831 3.97753
18.362 39.0063 0.0226994
14.5089 39.1708 2
12.0322 40.1359 3.97533
15.0013 41.8997 0.023175
12.5278 42.2671 2
10.2328 42.7717 3.97039
12.828 44.3785 0.0260851
10.6266 44.7944 2
8.39943 45.3191 3.96699
11.0391 46.7249 0.0306245
8.92012 47.3168 2
6.72908 48.0002 3.96952
9.53654 49.2378 0.0331426
7.43806 50.0342 2
5.2116 50.9109 3.98122
8.27101 52.0012 0.0295991
6.13451 53.0055 2
3.86727 54.0858 4
7.19413 55.0322 0.0189191
5.02404 56.25 2
6.31991 58.3339 0
13.0419 29.0509 3.97127
11.4209 26.4987 3.96903
13.5658 26.8333 2
10.2079 23.9718 3.96706
11.9782 24.7992 2
13.3008 25.3791 0.0277793
9.24696 21.1416 3.97025
11.1502 22.2406 2
12.8698 23.2941 0.032977
12.2458 20.5589 0.0325296
10.3952 19.3253 2
8.41802 18.0297 3.98002
11.6637 17.573 0.0288207
9.76106 16.1626 2
7.74928 14.6715 4
11.221 14.3744 0.0170192
9.30602 12.7745 2
10.9835 10.9835 0
14.6827 32.8829 3.97655
18.1446 33.1462 2
20.9368 33.4378 0.0240884
15.6884 29.6651 2
16.0621 26.4298 0.0280784
18.6345 30.2114 0.0251056
13.0424 36.2159 3.97702
15.1263 36.0339 2
17.9733 35.984 0.021864
12.7517 37.8309 2
11.3761 38.3092 3.97542
14.5082 39.171 0.0224212
12.0338 40.1357 2
9.81809 40.7505 3.9711
12.5268 42.2673 0.0255134
10.2338 42.7714 2
7.94894 43.2683 3.96732
10.6262 44.7946 0.0300408
8.39949 45.3189 2
6.13511 45.9054 3.96934
8.92029 47.3171 0.0332421
6.72922 47.9996 2
4.42312 48.7516 3.98057
7.43786 50.0349 0.0300961
5.21149 50.9098 2
2.85457 51.8506 4
6.13478 53.0074 0.0185304
3.86727 54.0858 2
5.0241 56.25 0
12.1873 31.2712 3.97249
10.8434 28.426 3.96925
13.0433 29.0513 2
9.42482 25.8014 3.96722
11.4212 26.4989 2
13.5664 26.8331 0.028277
8.23349 23.025 3.97029
10.2086 23.972 2
11.9772 24.799 0.0312687
7.20014 19.9794 3.98046
9.24785 21.1422 2
11.1492 22.2404 0.0330984
10.3943 19.3249 0.0283311
8.41725 18.0335 2
6.31992 16.6661 4
9.76236 16.1588 0.020076
7.74926 14.6714 2
9.30607 12.7746 0
12.2117 34.3047 3.9767
14.6838 32.8834 2
18.1466 33.1458 0.022765
15.687 29.6645 0.0256723
10.933 36.6137 3.97459
13.0436 36.216 2
15.1255 36.0337 0.0221114
12.75 37.831 0.0224705
11.3776 38.3091 2
9.40849 38.8221 3.97135
12.0322 40.1359 0.0246686
9.819 40.7503 2
7.56005 41.2104 3.96772
10.2328 42.7717 0.0296095
7.94837 43.2681 2
5.64699 43.7683 3.96929
8.39943 45.3191 0.0330146
6.13524 45.9049 2
3.76867 46.5372 3.98015
6.72908 48.0002 0.0304818
4.42319 48.7511 2
1.99014 49.554 4
5.2116 50.9109 0.0187768
2.85451 51.8506 2
3.86727 54.0858 0
11.0163 32.929 3.9744
10.1616 30.3917 3.96973
12.1886 31.2716 2
8.73581 27.735 3.96725
10.8441 28.4262 2
13.0419 29.0509 0.0287337
7.35887 24.9835 3.96997
9.42505 25.8016 2
11.4209 26.4987 0.0309716
6.11705 22.0025 3.98135
8.23409 23.0256 2
10.2079 23.9718 0.0329352
5.02411 18.75 4
7.19979 19.9825 2
9.24696 21.1416 0.0297541
8.41802 18.0297 0.0199791
6.3199 16.6661 2
7.74928 14.6715 0
10.533 35.0052 3.97444
12.2136 34.3049 2
14.6827 32.8829 0.0234548
9.07289 36.9859 3.97178
10.9344 36.6138 2
13.0424 36.2159 0.0229763
11.3761 38.3092 0.0245815
9.40979 38.822 2
7.23932 39.182 3.96818
9.81809 40.7505 0.0289008
7.56017 41.2102 2
5.26212 41.614 3.96918
7.94894 43.2683 0.0326811
5.64706 43.7679 2
3.24639 44.2819 3.9801
6.13511 45.9054 0.0306556
3.76884 46.5368 2
1.27781 47.2057 4
4.42312 48.7516 0.019433
1.99012 49.554 2
2.85457 51.8506 0
10.1681 33.8881 3.97493
9.445 32.1615 3.97046
11.0177 32.9292 2
8.08444 29.6983 3.9675
10.1625 30.3919 2
12.1873 31.2712 0.0275102
6.60245 27.0093 3.96975
8.73557 27.7352 2
10.8434 28.426 0.0307452
5.17241 24.0951 3.9813
7.35917 24.984 2
9.42482 25.8014 0.032776
3.86728 20.9142 4
6.11692 22.0044 2
8.23349 23.025 0.02971
5.02406 18.75 2
7.20014 19.9794 0.0195373
6.31992 16.6661 0
8.89319 35.2824 3.97189
10.534 35.0053 2
12.2117 34.3047 0.0233002
7.02035 37.2064 3.96811
9.07364 36.9858 2
10.933 36.6137 0.02541
9.40849 38.8221 0.0286473
7.23979 39.1819 2
4.98961 39.4674 3.96946
7.56005 41.2104 0.0322794
5.26251 41.6137 2
2.85683 42.0022 3.98008
5.64699 43.7683 0.0307115
3.24645 44.2817 2
0.720592 44.8159 4
3.76867 46.5372 0.019852
1.27778 47.2057 2
1.99014 49.554 0
8.93238 33.7025 3.97159
10.1693 33.8882 2
7.52049 31.6113 3.96774
9.44604 32.1617 2
11.0163 32.929 0.0255952
5.94744 29.0701 3.9698
8.08395 29.6984 2
10.1616 30.3917 0.030268
4.36008 26.2475 3.98079
6.60255 27.0097 2
8.73581 27.735 0.0327534
2.85458 23.1494 4
5.1724 24.0959 2
7.35887 24.9835 0.030026
3.86728 20.9142 2
6.11705 22.0025 0.0186452
5.02411 18.75 0
6.96886 35.3071 3.96806
8.89395 35.2824 2
10.533 35.0052 0.0255567
4.83972 37.3399 3.96987
7.02063 37.2064 2
9.07289 36.9859 0.0282179
7.23932 39.182 0.0318247
4.99 39.4673 2
2.60484 39.7138 3.98011
5.26212 41.614 0.0308245
2.85715 42.0022 2
0.320823 42.3947 4
3.24639 44.2819 0.019895
0.720551 44.8159 2
1.27781 47.2057 0
7.1308 33.4624 3.96795
8.9329 33.7026 2
10.1681 33.8881 0.0250659
5.41813 31.1339 3.96998
7.52032 31.6114 2
9.445 32.1615 0.0295426
3.68174 28.4434 3.98039
5.94751 29.0705 2
8.08444 29.6983 0.0324975
1.99015 25.446 4
4.36015 26.2478 2
6.60245 27.0093 0.0302478
2.85453 23.1494 2
5.17241 24.0951 0.0186963
3.86728 20.9142 0
4.85404 35.2517 3.97
6.96895 35.3071 2
8.89319 35.2824 0.0281136
2.49626 37.4284 3.98076
4.83974 37.34 2
7.02035 37.2064 0.0318902
4.98961 39.4674 0.0305414
2.60523 39.7142 2
0.080333 39.9526 4
2.85683 42.0022 0.0199238
0.320817 42.3947 2
0.720592 44.8159 0
5.04747 33.1905 3.97
7.13066 33.4625 2
8.93238 33.7025 0.0284116
3.14598 30.6661 3.98032
5.41823 31.1343 2
7.52049 31.6113 0.0322554
1.27793 27.7943 4
3.6819 28.4436 2
5.94744 29.0701 0.0302012
1.99013 25.446 2
4.36008 26.2475 0.019208
2.85458 23.1494 0
2.54837 35.159 3.98058
4.85452 35.252 2
6.96886 35.3071 0.0319418
0 37.5 4
2.49629 37.4289 2
4.83972 37.3399 0.0301268
2.60484 39.7138 0.019893
0.0802903 39.9526 2
0.320823 42.3947 0
2.766 32.9057 3.98069
5.0476 33.1908 2
7.1308 33.4624 0.0320534
0.721173 30.1842 4
3.14618 30.6666 2
5.41813 31.1339 0.0300199
1.27779 27.7943 2
3.68174 28.4434 0.0196115
1.99015 25.446 0
0.0806499 35.0474 4
2.54884 35.1594 2
4.85404 35.2517 0.0300016
0 37.5 2
2.49626 37.4284 0.0192449
0.080333 39.9526 0
0.32156 32.6054 4
2.76609 32.9063 2
5.04747 33.1905 0.0299976
0.72056 30.1841 2
3.14598 30.6661 0.0196804
1.27793 27.7943 0
0.0802889 35.0474 2
2.54837 35.159 0.019417
0 37.5 0
0.320817 32.6053 2
2.766 32.9057 0.0193114
0.721173 30.1842 0
0.0806499 35.0474 0
0.32156 32.6054 0
CELLS 1910 17190
8 18 6 25 56 2 0 5 16
8 57 23 6 18 17 4 0 2
8 78 36 9 29 31 11 1 7
8 31 11 1 7 79 37 10 30
8 110 57 18 50 48 17 2 14
8 50 18 56 111 14 2 16 49
8 116 62 22 55 52 20 3 15
8 56 25 67 118 16 5 24 53
8 119 63 23 57 54 21 4 17
8 55 22 63 119 15 3 21 54
8 58 26 68 121 18 6 25 56
8 122 65 26 58 57 23 6 18
8 73 31 7 27 142 79 30 71
8 143 78 29 72 73 31 7 27
8 83 147 76 34 32 74 28 8
8 84 148 78 36 33 75 29 9
8 76 34 8 28 148 84 33 75
8 37 79 150 86 10 30 77 35
8 151 87 36 78 80 38 11 31
8 80 38 11 31 152 88 37 79
8 175 100 42 94 96 44 12 40
8 44 96 176 101 12 40 95 43
8 101 176 98 46 43 95 41 13
8 46 98 178 103 13 41 97 45
8 178 103 45 97 147 83 32 74
8 189 116 55 109 106 52 15 47
8 111 56 118 191 49 16 53 107
8 192 119 57 110 108 54 17 48
8 109 55 119 192 47 15 54 108
8 194 122 58 112 110 57 18 50
8 112 58 121 195 50 18 56 111
8 115 61 19 51 197 124 59 113
8 115 61 125 198 51 19 60 114
8 198 125 62 116 114 60 20 52
8 200 127 64 120 116 62 22 55
8 118 67 132 202 53 24 66 117
8 121 68 133 203 56 25 67 118
8 120 64 128 204 55 22 63 119
8 204 128 65 122 119 63 23 57
8 206 134 68 121 123 69 26 58
8 123 69 26 58 207 131 65 122
8 226 147 74 138 140 76 28 70
8 229 148 75 139 143 78 29 72
8 140 76 28 70 229 148 75 139
8 142 79 30 71 231 150 77 141
8 144 80 31 73 232 152 79 142
8 233 151 78 143 144 80 31 73
8 150 86 35 77 235 154 81 145
8 235 154 81 145 146 82 39 91
8 146 82 39 91 236 155 90 165
8 238 157 83 147 149 85 34 76
8 239 158 84 148 151 87 36 78
8 149 85 34 76 239 158 84 148
8 152 88 37 79 241 160 86 150
8 242 161 87 151 153 89 38 80
8 153 89 38 80 243 162 88 152
8 171 98 41 92 265 178 97 169
8 265 178 97 169 226 147 74 138
8 172 96 40 93 266 176 95 170
8 266 176 95 170 171 98 41 92
8 269 175 94 173 172 96 40 93
8 271 180 99 174 175 100 42 94
8 197 124 59 113 271 180 99 174
8 272 181 100 175 177 102 44 96
8 273 182 101 176 179 104 46 98
8 177 102 44 96 273 182 101 176
8 179 104 46 98 275 184 103 178
8 275 184 103 178 238 157 83 147
8 188 115 51 105 283 197 113 186
8 188 115 198 284 105 51 114 187
8 284 198 116 189 187 114 52 106
8 286 200 120 193 189 116 55 109
8 191 118 202 288 107 53 117 190
8 195 121 203 289 111 56 118 191
8 193 120 204 290 109 55 119 192
8 290 204 122 194 192 119 57 110
8 196 123 58 112 292 207 122 194
8 293 206 121 195 196 123 58 112
8 199 126 61 115 297 211 124 197
8 298 212 127 200 198 125 62 116
8 199 126 212 298 115 61 125 198
8 205 129 64 120 300 214 127 200
8 301 217 130 201 202 132 66 117
8 209 136 168 264 301 217 130 201
8 302 219 132 202 203 133 67 118
8 303 220 133 203 206 134 68 121
8 205 129 215 304 120 64 128 204
8 304 215 131 207 204 128 65 122
8 306 221 134 206 208 135 69 123
8 208 135 69 123 307 218 131 207
8 210 137 167 263 309 223 136 209
8 328 238 147 226 230 149 76 140
8 228 146 91 166 329 236 165 260
8 231 150 77 141 330 235 145 227
8 330 235 145 227 228 146 91 166
8 332 239 148 229 233 151 78 143
8 230 149 76 140 332 239 148 229
8 232 152 79 142 334 241 150 231
8 234 153 80 144 335 243 152 232
8 336 242 151 233 234 153 80 144
8 236 155 90 165 338 245 164 259
8 241 160 86 150 339 246 154 235
8 339 246 154 235 237 156 82 146
8 237 156 82 146 340 247 155 236
8 342 249 157 238 240 159 85 149
8 343 250 158 239 242 161 87 151
8 240 159 85 149 343 250 158 239
8 243 162 88 152 345 252 160 241
8 244 163 253 346 153 89 161 242
8 244 163 89 153 347 254 162 243
8 311 224 261 371 210 137 167 263
8 263 167 262 372 209 136 168 264
8 267 179 98 171 375 275 178 265
8 375 275 178 265 328 238 147 226
8 376 273 176 266 267 179 98 171
8 268 177 96 172 376 273 176 266
8 379 272 175 269 268 177 96 172
8 380 271 174 270 269 175 94 173
8 283 197 113 186 380 271 174 270
8 381 277 180 271 272 181 100 175
8 297 211 124 197 381 277 180 271
8 382 278 181 272 274 183 102 177
8 274 183 102 177 383 279 182 273
8 383 279 182 273 276 185 104 179
8 385 281 184 275 342 249 157 238
8 276 185 104 179 385 281 184 275
8 285 199 115 188 393 297 197 283
8 394 298 200 286 284 198 116 189
8 285 199 298 394 188 115 198 284
8 291 205 120 193 396 300 200 286
8 397 301 201 287 288 202 117 190
8 295 209 264 374 397 301 201 287
8 398 302 202 288 289 203 118 191
8 399 303 203 289 293 206 121 195
8 291 205 304 400 193 120 204 290
8 400 304 207 292 290 204 122 194
8 294 208 123 196 402 307 207 292
8 403 306 206 293 294 208 123 196
8 296 210 263 373 405 309 209 295
8 408 312 213 299 297 211 126 199
8 299 213 313 409 199 126 212 298
8 409 313 214 300 298 212 127 200
8 305 216 129 205 411 315 214 300
8 412 318 217 301 302 219 132 202
8 309 223 136 209 412 318 217 301
8 413 320 219 302 303 220 133 203
8 306 221 321 414 206 134 220 303
8 307 218 131 207 415 316 215 304
8 305 216 316 415 205 129 215 304
8 417 322 221 306 308 222 135 208
8 308 222 135 208 418 319 218 307
8 310 225 137 210 420 325 223 309
8 423 326 224 311 310 225 137 210
8 329 236 165 260 441 338 259 368
8 442 342 238 328 333 240 149 230
8 331 237 146 228 443 340 236 329
8 334 241 150 231 444 339 235 330
8 444 339 235 330 331 237 146 228
8 446 343 239 332 336 242 151 233
8 333 240 149 230 446 343 239 332
8 335 243 152 232 448 345 241 334
8 337 244 153 234 449 347 243 335
8 337 244 346 450 234 153 242 336
8 338 245 164 259 452 349 258 367
8 340 247 155 236 453 350 245 338
8 345 252 160 241 454 351 246 339
8 454 351 246 339 341 248 156 237
8 341 248 156 237 455 352 247 340
8 240 159 251 344 342 249 354 457
8 242 161 253 346 343 250 355 458
8 343 250 355 458 240 159 251 344
8 347 254 162 243 460 357 252 345
8 348 255 358 461 244 163 253 346
8 348 255 163 244 462 359 254 347
8 473 360 257 365 363 256 364 482
8 452 349 258 367 365 257 366 485
8 422 324 369 488 311 224 261 371
8 371 261 370 490 263 167 262 372
8 407 311 371 491 296 210 263 373
8 373 263 372 492 295 209 264 374
8 493 385 275 375 442 342 238 328
8 377 276 179 267 493 385 275 375
8 378 274 177 268 494 383 273 376
8 494 383 273 376 377 276 179 267
8 497 382 272 379 378 274 177 268
8 498 381 271 380 379 272 175 269
8 393 297 197 283 498 381 271 380
8 499 387 277 381 382 278 181 272
8 408 312 211 297 499 387 277 381
8 500 388 278 382 384 280 183 274
8 501 389 279 383 386 282 185 276
8 384 280 183 274 501 389 279 383
8 386 282 185 276 503 391 281 385
8 503 391 281 385 457 354 249 342
8 511 408 299 395 393 297 199 285
8 395 299 409 512 285 199 298 394
8 512 409 300 396 394 298 200 286
8 401 305 205 291 514 411 300 396
8 515 412 301 397 398 302 202 288
8 405 309 209 295 515 412 301 397
8 516 413 302 398 399 303 203 289
8 403 306 414 517 293 206 303 399
8 402 307 207 292 518 415 304 400
8 401 305 415 518 291 205 304 400
8 404 308 208 294 520 418 307 402
8 521 417 306 403 404 308 208 294
8 406 310 210 296 523 420 309 405
8 526 423 311 407 406 310 210 296
8 410 314 213 299 527 424 312 408
8 528 425 315 411 409 313 214 300
8 410 314 425 528 299 213 313 409
8 416 317 216 305 530 427 315 411
8 531 430 318 412 413 320 219 302
8 420 325 223 309 531 430 318 412
8 532 432 320 413 414 321 220 303
8 417 322 433 533 306 221 321 414
8 418 319 218 307 534 428 316 415
8 416 317 428 534 305 216 316 415
8 419 323 434 536 308 222 322 417
8 419 323 222 308 537 431 319 418
8 421 327 225 310 539 438 325 420
8 421 327 439 541 310 225 326 423
8 543 437 324 422 423 326 224 311
8 441 338 259 368 559 452 367 486
8 443 340 236 329 560 453 338 441
8 333 240 344 447 442 342 457 561
8 445 341 237 331 562 455 340 443
8 448 345 241 334 563 454 339 444
8 563 454 339 444 445 341 237 331
8 336 242 346 450 446 343 458 565
8 446 343 458 565 333 240 344 447
8 449 347 243 335 567 460 345 448
8 451 348 244 337 568 462 347 449
8 451 348 461 569 337 244 346 450
8 570 463 349 452 473 360 257 365
8 453 350 245 338 570 463 349 452
8 455 352 247 340 571 464 350 453
8 460 357 252 345 572 465 351 454
8 572 465 351 454 456 353 248 341
8 456 353 248 341 573 466 352 455
8 344 251 356 459 457 354 468 575
8 458 355 469 576 344 251 356 459
8 346 253 358 461 458 355 469 576
8 462 359 254 347 578 471 357 460
8 348 255 359 462 461 358 472 579
8 591 474 360 473 475 361 256 363
8 475 361 256 363 594 477 362 479
8 363 256 364 482 479 362 480 603
8 590 473 365 484 481 363 482 605
8 482 364 257 365 606 483 366 485
8 559 452 367 486 484 365 485 607
8 542 436 487 609 422 324 369 488
8 525 422 488 611 407 311 371 491
8 488 369 489 612 371 261 370 490
8 491 371 490 613 373 263 372 492
8 495 386 276 377 614 503 385 493
8 614 503 385 493 561 457 342 442
8 615 501 383 494 495 386 276 377
8 496 384 274 378 615 501 383 494
8 618 500 382 497 496 384 274 378
8 619 499 381 498 497 382 272 379
8 511 408 297 393 619 499 381 498
8 620 505 387 499 500 388 278 382
8 527 424 312 408 620 505 387 499
8 502 390 506 621 384 280 388 500
8 622 507 389 501 504 392 282 386
8 502 390 280 384 622 507 389 501
8 504 392 282 386 624 509 391 503
8 624 509 391 503 575 468 354 457
8 513 410 299 395 630 527 408 511
8 631 528 411 514 512 409 300 396
8 513 410 528 631 395 299 409 512
8 519 416 305 401 633 530 411 514
8 634 531 412 515 516 413 302 398
8 523 420 309 405 634 531 412 515
8 635 532 413 516 517 414 303 399
8 521 417 533 636 403 306 414 517
8 520 418 307 402 637 534 415 518
8 519 416 534 637 401 305 415 518
8 522 419 308 404 639 537 418 520
8 522 419 536 640 404 308 417 521
8 524 421 310 406 642 539 420 523
8 524 421 541 644 406 310 423 526
8 646 543 422 525 526 423 311 407
8 529 426 314 410 647 544 424 527
8 528 425 545 648 411 315 427 530
8 529 426 545 648 410 314 425 528
8 535 429 317 416 649 546 427 530
8 650 548 430 531 532 432 320 413
8 539 438 325 420 650 548 430 531
8 533 433 550 651 414 321 432 532
8 536 434 551 652 417 322 433 533
8 537 431 319 418 653 547 428 534
8 535 429 547 653 416 317 428 534
8 538 435 552 654 419 323 434 536
8 538 435 323 419 655 549 431 537
8 540 440 327 421 657 556 438 539
8 540 440 557 659 421 327 439 541
8 541 439 555 660 423 326 437 543
8 661 554 436 542 543 437 324 422
8 676 570 452 559 590 473 365 484
8 560 453 338 441 676 570 452 559
8 562 455 340 443 677 571 453 560
8 447 344 459 566 561 457 575 678
8 564 456 341 445 679 573 455 562
8 567 460 345 448 680 572 454 563
8 680 572 454 563 564 456 341 445
8 565 458 576 682 447 344 459 566
8 450 346 461 569 565 458 576 682
8 568 462 347 449 684 578 460 567
8 451 348 462 568 569 461 579 685
8 686 580 463 570 591 474 360 473
8 571 464 350 453 686 580 463 570
8 573 466 352 455 687 581 464 571
8 572 465 582 688 460 357 471 578
8 574 467 582 688 456 353 465 572
8 574 467 353 456 689 583 466 573
8 459 356 470 577 575 468 585 691
8 576 469 586 692 459 356 470 577
8 461 358 472 579 576 469 586 692
8 462 359 471 578 579 472 588 694
8 704 591 473 590 593 475 363 481
8 595 476 592 705 475 361 474 591
8 593 475 363 481 707 594 479 602
8 594 477 362 479 709 598 478 600
8 595 476 361 475 711 597 477 594
8 479 362 480 603 600 478 601 720
8 481 363 482 605 602 479 603 722
8 603 480 364 482 723 604 483 606
8 605 482 365 484 724 606 485 607
8 656 553 608 726 542 436 487 609
8 645 542 609 728 525 422 488 611
8 609 487 610 729 488 369 489 612
8 611 488 612 730 491 371 490 613
8 616 504 386 495 731 624 503 614
8 731 624 503 614 678 575 457 561
8 732 622 501 615 616 504 386 495
8 617 502 384 496 732 622 501 615
8 617 502 621 735 496 384 500 618
8 736 620 499 619 618 500 382 497
8 630 527 408 511 736 620 499 619
8 621 506 626 737 500 388 505 620
8 647 544 424 527 737 626 505 620
8 623 508 627 738 502 390 506 621
8 623 508 390 502 739 628 507 622
8 625 510 628 739 504 392 507 622
8 740 629 509 624 691 585 468 575
8 625 510 392 504 740 629 509 624
8 632 529 410 513 744 647 527 630
8 631 528 648 745 514 411 530 633
8 632 529 648 745 513 410 528 631
8 638 535 416 519 746 649 530 633
8 747 650 531 634 635 532 413 516
8 642 539 420 523 747 650 531 634
8 636 533 651 748 517 414 532 635
8 640 536 652 749 521 417 533 636
8 639 537 418 520 750 653 534 637
8 638 535 653 750 519 416 534 637
8 641 538 419 522 751 655 537 639
8 641 538 654 752 522 419 536 640
8 643 540 421 524 753 657 539 642
8 643 540 659 755 524 421 541 644
8 644 541 660 757 526 423 543 646
8 758 661 542 645 646 543 422 525
8 529 426 544 647 648 545 662 759
8 530 427 545 648 649 546 663 760
8 535 429 546 649 653 547 664 761
8 762 666 548 650 651 550 432 532
8 657 556 438 539 762 666 548 650
8 652 551 668 763 533 433 550 651
8 654 552 669 764 536 434 551 652
8 655 549 431 537 765 665 547 653
8 538 435 549 655 654 552 667 766
8 661 554 671 768 542 436 553 656
8 658 558 440 540 769 674 556 657
8 658 558 675 770 540 440 557 659
8 659 557 673 771 541 439 555 660
8 660 555 672 772 543 437 554 661
8 788 686 570 676 704 591 473 590
8 677 571 453 560 788 686 570 676
8 679 573 455 562 789 687 571 677
8 566 459 577 683 678 575 691 790
8 681 574 456 564 791 689 573 679
8 680 572 688 792 567 460 578 684
8 681 574 688 792 564 456 572 680
8 682 576 692 794 566 459 577 683
8 569 461 579 685 682 576 692 794
8 568 462 578 684 685 579 694 796
8 687 581 464 571 798 696 580 686
8 798 696 580 686 705 592 474 591
8 689 583 466 573 799 697 581 687
8 688 582 698 800 578 471 588 694
8 690 584 698 800 574 467 582 688
8 690 584 467 574 801 699 583 689
8 693 587 701 803 577 470 585 691
8 693 587 470 577 804 702 586 692
8 695 589 702 804 579 472 586 692
8 695 589 472 579 805 703 588 694
8 708 595 705 813 593 475 591 704
8 710 596 706 814 595 476 592 705
8 707 594 479 602 816 709 600 719
8 708 595 475 593 817 711 594 707
8 709 598 478 600 819 715 599 717
8 711 597 477 594 820 714 598 709
8 710 596 476 595 822 713 597 711
8 600 478 601 720 717 599 718 832
8 602 479 603 722 719 600 720 834
8 720 601 480 603 835 721 604 723
8 722 603 482 605 836 723 606 724
8 767 670 725 839 656 553 608 726
8 756 656 726 841 645 542 609 728
8 726 608 727 842 609 487 610 729
8 728 609 729 843 611 488 612 730
8 844 740 624 731 790 691 575 678
8 733 625 504 616 844 740 624 731
8 734 623 502 617 845 739 622 732
8 733 625 739 845 616 504 622 732
8 734 623 738 846 617 502 621 735
8 735 621 737 847 618 500 620 736
8 744 647 527 630 847 737 620 736
8 621 506 627 738 737 626 741 848
8 647 544 626 737 759 662 741 848
8 623 508 628 739 738 627 742 849
8 740 629 585 691 850 743 700 802
8 625 510 629 740 739 628 743 850
8 632 529 647 744 745 648 759 854
8 633 530 648 745 746 649 760 855
8 638 535 649 746 750 653 761 856
8 857 762 650 747 748 651 532 635
8 753 657 539 642 857 762 650 747
8 749 652 763 858 636 533 651 748
8 752 654 764 859 640 536 652 749
8 751 655 537 639 860 765 653 750
8 641 538 655 751 752 654 766 861
8 754 658 540 643 862 769 657 753
8 754 658 770 863 643 540 659 755
8 755 659 771 864 644 541 660 757
8 758 661 768 866 645 542 656 756
8 757 660 772 867 646 543 661 758
8 759 662 773 868 648 545 663 760
8 649 546 663 760 761 664 774 871
8 765 665 547 653 872 775 664 761
8 873 777 666 762 763 668 550 651
8 769 674 556 657 873 777 666 762
8 764 669 779 874 652 551 668 763
8 654 552 667 766 764 669 778 875
8 655 549 665 765 766 667 776 876
8 768 671 782 877 656 553 670 767
8 772 672 783 878 661 554 671 768
8 658 558 674 769 770 675 786 879
8 659 557 675 770 771 673 785 881
8 882 784 672 772 771 673 555 660
8 789 687 571 677 897 798 686 788
8 897 798 686 788 813 705 591 704
8 791 689 573 679 898 799 687 789
8 795 693 803 900 683 577 691 790
8 793 690 574 681 901 801 689 791
8 792 688 800 902 684 578 694 796
8 793 690 800 902 681 574 688 792
8 795 693 577 683 903 804 692 794
8 797 695 804 903 685 579 692 794
8 797 695 579 685 904 805 694 796
8 905 806 697 799 798 696 581 687
8 814 706 806 905 705 592 696 798
8 689 583 697 799 801 699 808 907
8 800 698 809 908 694 588 703 805
8 690 584 699 801 800 698 809 908
8 803 701 810 909 691 585 700 802
8 693 587 702 804 803 701 811 910
8 695 589 703 805 804 702 812 911
8 818 710 814 919 708 595 705 813
8 821 712 815 920 710 596 706 814
8 816 709 600 719 922 819 717 831
8 817 711 594 707 923 820 709 816
8 818 710 595 708 924 822 711 817
8 819 715 599 717 926 827 716 829
8 820 714 598 709 927 826 715 819
8 929 825 713 822 820 714 597 711
8 821 712 596 710 930 824 713 822
8 717 599 718 832 829 716 830 942
8 719 600 720 834 831 717 832 944
8 832 718 601 720 945 833 721 835
8 834 720 603 722 946 835 723 836
8 869 780 838 950 767 670 725 839
8 865 767 839 952 756 656 726 841
8 839 725 840 953 726 608 727 842
8 841 726 842 954 728 609 729 843
8 844 740 691 790 955 850 802 899
8 733 625 740 844 845 739 850 955
8 734 623 739 845 846 738 849 956
8 735 621 738 846 847 737 848 957
8 744 647 737 847 854 759 848 957
8 738 627 742 849 848 741 851 958
8 848 741 851 958 759 662 773 868
8 850 743 700 802 959 852 807 906
8 849 742 628 739 959 852 743 850
8 854 759 868 965 745 648 760 855
8 746 649 760 855 856 761 871 966
8 860 765 653 750 967 872 761 856
8 968 873 762 857 858 763 651 748
8 862 769 657 753 968 873 762 857
8 859 764 874 969 749 652 763 858
8 752 654 766 861 859 764 875 970
8 751 655 765 860 861 766 876 971
8 754 658 769 862 863 770 879 972
8 755 659 770 863 864 771 881 974
8 976 882 772 867 864 771 660 757
8 866 768 877 977 756 656 767 865
8 867 772 878 978 758 661 768 866
8 760 663 773 868 871 774 883 980
8 870 781 837 948 982 890 780 869
8 982 890 780 869 877 782 670 767
8 761 664 774 871 872 775 884 984
8 876 776 665 765 985 885 775 872
8 873 777 668 763 986 887 779 874
8 769 674 777 873 879 786 887 986
8 764 669 778 875 874 779 888 987
8 766 667 776 876 875 778 886 988
8 878 783 892 989 768 671 782 877
8 878 783 672 772 990 893 784 882
8 880 787 675 770 991 896 786 879
8 880 787 895 992 770 675 785 881
8 881 785 894 993 771 673 784 882
8 1006 905 799 898 897 798 687 789
8 919 814 905 1006 813 705 798 897
8 791 689 799 898 901 801 907 1007
8 900 803 909 1009 790 691 802 899
8 795 693 804 903 900 803 910 1010
8 902 800 908 1011 796 694 805 904
8 793 690 801 901 902 800 908 1011
8 797 695 805 904 903 804 911 1012
8 799 697 806 905 907 808 912 1013
8 920 815 912 1013 814 706 806 905
8 802 700 810 909 906 807 913 1014
8 801 699 808 907 908 809 914 1015
8 805 703 809 908 911 812 915 1016
8 803 701 811 910 909 810 916 1017
8 911 812 917 1018 804 702 811 910
8 925 821 920 1030 818 710 814 919
8 928 823 921 1031 821 712 815 920
8 922 819 717 831 1033 926 829 941
8 923 820 709 816 1034 927 819 922
8 1035 929 822 924 923 820 711 817
8 925 821 710 818 1036 930 822 924
8 1038 933 825 929 927 826 714 820
8 926 827 716 829 1039 935 828 939
8 927 826 715 819 1040 934 827 926
8 928 823 712 821 1041 931 824 930
8 1042 932 824 930 929 825 713 822
8 829 716 830 942 939 828 940 1058
8 831 717 832 944 941 829 942 1060
8 942 830 718 832 1061 943 833 945
8 944 832 720 834 1062 945 835 946
8 981 889 947 1064 870 781 837 948
8 948 837 949 1067 869 780 838 950
8 975 869 950 1069 865 767 839 952
8 950 838 951 1070 839 725 840 953
8 952 839 953 1071 841 726 842 954
8 955 850 802 899 1072 959 906 1008
8 956 849 739 845 1072 959 850 955
8 846 738 849 956 957 848 958 1073
8 957 848 958 1073 854 759 868 965
8 849 742 852 959 958 851 961 1076
8 960 853 961 1076 906 807 852 959
8 958 851 961 1076 868 773 883 980
8 960 853 807 906 1077 963 913 1014
8 855 760 868 965 966 871 980 1085
8 856 761 871 966 967 872 984 1086
8 971 876 765 860 1087 985 872 967
8 968 873 763 858 1088 986 874 969
8 862 769 873 968 972 879 986 1088
8 859 764 875 970 969 874 987 1089
8 861 766 876 971 970 875 988 1090
8 973 880 770 863 1091 991 879 972
8 973 880 992 1092 863 770 881 974
8 974 881 993 1093 864 771 882 976
8 979 870 948 1066 1094 982 869 975
8 1094 982 869 975 977 877 767 865
8 978 878 772 867 1095 990 882 976
8 978 878 989 1096 866 768 877 977
8 871 774 883 980 984 884 994 1099
8 983 891 999 1100 870 781 889 981
8 1101 1000 890 982 989 892 782 877
8 983 891 781 870 1101 1000 890 982
8 872 775 884 984 985 885 995 1103
8 876 776 885 985 988 886 996 1104
8 986 887 779 874 1105 998 888 987
8 879 786 887 986 991 896 998 1105
8 875 778 886 988 987 888 997 1106
8 990 893 1002 1107 878 783 892 989
8 1108 1003 893 990 993 894 784 882
8 880 787 896 991 992 895 1005 1109
8 993 894 785 881 1110 1004 895 992
8 898 799 905 1006 1007 907 1013 1120
8 1030 920 1013 1120 919 814 905 1006
8 901 801 907 1007 1011 908 1015 1121
8 899 802 909 1009 1008 906 1014 1122
8 900 803 910 1010 1009 909 1017 1123
8 1012 911 1018 1124 903 804 910 1010
8 904 805 908 1011 1012 911 1016 1125
8 1013 912 1020 1127 907 808 914 1015
8 1031 921 1020 1127 920 815 912 1013
8 1019 918 962 1075 1128 1021 913 1014
8 1128 1021 913 1014 1017 916 810 909
8 1015 914 1022 1129 908 809 915 1016
8 1016 915 1023 1130 911 812 917 1018
8 1018 917 1024 1131 910 811 916 1017
8 1037 928 1031 1148 925 821 920 1030
8 928 823 931 1041 1031 921 1032 1149
8 1033 926 829 941 1151 1039 939 1057
8 1034 927 819 922 1152 1040 926 1033
8 1153 1038 929 1035 1034 927 820 923
8 1154 1042 930 1036 1035 929 822 924
8 1037 928 821 925 1155 1041 930 1036
8 1039 935 828 939 1156 1047 938 1055
8 1157 1043 932 1042 1038 933 825 929
8 1038 933 826 927 1158 1045 934 1040
8 1040 934 827 926 1159 1046 935 1039
8 930 824 932 1042 1041 931 1044 1160
8 1051 936 1048 1165 1175 1052 937 1053
8 1156 1047 938 1055 1053 937 1054 1178
8 939 828 940 1058 1055 938 1056 1181
8 941 829 942 1060 1057 939 1058 1183
8 942 830 943 1061 1058 940 1059 1184
8 1060 942 832 944 1185 1061 945 1062
8 1082 964 1063 1188 981 889 947 1064
8 1097 981 1064 1190 979 870 948 1066
8 1064 947 1065 1191 948 837 949 1067
8 1066 948 1067 1193 975 869 950 1069
8 1067 949 1068 1194 950 838 951 1070
8 1069 950 1070 1195 952 839 953 1071
8 956 849 959 1072 1073 958 1076 1197
8 1074 960 1076 1197 1008 906 959 1072
8 1073 958 1076 1197 965 868 980 1085
8 1074 960 906 1008 1198 1077 1014 1122
8 1133 1026 1079 1199 1019 918 962 1075
8 1077 963 913 1014 1200 1080 962 1075
8 960 853 963 1077 1076 961 1078 1201
8 980 883 961 1076 1099 994 1078 1201
8 1210 1083 964 1082 1100 999 889 981
8 966 871 980 1085 1086 984 1099 1215
8 967 872 984 1086 1087 985 1103 1216
8 971 876 985 1087 1090 988 1104 1217
8 1088 986 874 969 1218 1105 987 1089
8 972 879 986 1088 1091 991 1105 1218
8 970 875 988 1090 1089 987 1106 1219
8 973 880 991 1091 1092 992 1109 1220
8 1093 993 881 974 1221 1110 992 1092
8 1222 1108 990 1095 1093 993 882 976
8 1223 1101 982 1094 1096 989 877 977
8 1098 983 870 979 1223 1101 982 1094
8 1095 990 1107 1224 978 878 989 1096
8 1098 983 1100 1225 979 870 981 1097
8 984 884 994 1099 1103 995 1111 1227
8 1102 1001 1115 1228 983 891 999 1100
8 1101 1000 892 989 1229 1116 1002 1107
8 1102 1001 891 983 1229 1116 1000 1101
8 985 885 995 1103 1104 996 1112 1230
8 988 886 996 1104 1106 997 1113 1231
8 1105 998 888 987 1232 1114 997 1106
8 991 896 998 1105 1109 1005 1114 1232
8 1108 1003 1117 1233 990 893 1002 1107
8 1108 1003 894 993 1233 1117 1004 1110
8 992 895 1005 1109 1110 1004 1118 1234
8 1120 1013 1127 1244 1007 907 1015 1121
8 1148 1031 1127 1244 1030 920 1013 1120
8 1121 1015 1129 1245 1011 908 1016 1125
8 1126 1019 1075 1196 1246 1128 1014 1122
8 1246 1128 1014 1122 1123 1017 909 1009
8 1124 1018 1131 1247 1010 910 1017 1123
8 1125 1016 1130 1248 1012 911 1018 1124
8 1127 1020 1137 1254 1015 914 1022 1129
8 1031 921 1032 1149 1127 1020 1137 1254
8 1134 1027 918 1019 1257 1140 1021 1128
8 1257 1140 1021 1128 1131 1024 916 1017
8 1129 1022 1141 1258 1016 915 1023 1130
8 1130 1023 1142 1259 1018 917 1024 1131
8 1261 1144 1025 1132 1133 1026 1079 1199
8 1255 1138 1025 1132 1135 1028 1144 1261
8 1133 1026 918 1019 1262 1145 1027 1134
8 1136 1029 1139 1256 1263 1146 1028 1135
8 1037 928 1041 1155 1148 1031 1149 1275
8 1041 931 1044 1160 1149 1032 1150 1276
8 1151 1039 939 1057 1278 1156 1055 1180
8 1152 1040 926 1033 1279 1159 1039 1151
8 1153 1038 927 1034 1280 1158 1040 1152
8 1281 1157 1042 1154 1153 1038 929 1035
8 1036 930 1042 1154 1155 1041 1160 1282
8 1283 1164 1046 1159 1156 1047 935 1039
8 1165 1048 1164 1283 1053 937 1047 1156
8 1157 1043 933 1038 1284 1161 1045 1158
8 1157 1043 1161 1284 1042 932 1044 1160
8 1040 934 1046 1159 1158 1045 1163 1285
8 1166 1049 1167 1292 1051 936 1048 1165
8 1166 1049 936 1051 1293 1168 1050 1172
8 1051 936 1052 1175 1172 1050 1173 1306
8 1174 1051 1165 1290 1308 1175 1053 1177
8 1053 937 1054 1178 1175 1052 1176 1309
8 1278 1156 1055 1180 1177 1053 1178 1311
8 1055 938 1056 1181 1178 1054 1179 1312
8 1057 939 1058 1183 1180 1055 1181 1314
8 1058 940 1059 1184 1181 1056 1182 1315
8 1060 942 1061 1185 1183 1058 1184 1316
8 1208 1081 1187 1321 1082 964 1063 1188
8 1209 1082 1188 1322 1097 981 1064 1190
8 1188 1063 1189 1323 1064 947 1065 1191
8 1190 1064 1191 1325 1066 948 1067 1193
8 1191 1065 1192 1326 1067 949 1068 1194
8 1067 1193 1069 950 1194 1327 1195 1070
8 1250 1133 1199 1330 1126 1019 1075 1196
8 1198 1077 1014 1122 1331 1200 1075 1196
8 1074 960 1077 1198 1197 1076 1201 1332
8 1085 980 1076 1197 1215 1099 1201 1332
8 1199 1079 1203 1333 1075 962 1080 1200
8 1132 1025 1119 1243 1199 1079 1203 1333
8 1201 1078 963 1077 1334 1202 1080 1200
8 1099 994 1078 1201 1227 1111 1202 1334
8 1343 1207 1081 1208 1210 1083 964 1082
8 1214 1084 1186 1319 1343 1207 1081 1208
8 1345 1210 1082 1209 1225 1100 981 1097
8 1346 1211 1083 1210 1228 1115 999 1100
8 1086 984 1099 1215 1216 1103 1227 1352
8 1087 985 1103 1216 1217 1104 1230 1353
8 1090 988 1104 1217 1219 1106 1231 1354
8 1218 1105 987 1089 1355 1232 1106 1219
8 1091 991 1105 1218 1220 1109 1232 1355
8 1092 992 1109 1220 1221 1110 1234 1356
8 1222 1108 1233 1357 1095 990 1107 1224
8 1222 1108 993 1093 1357 1233 1110 1221
8 1223 1101 989 1096 1358 1229 1107 1224
8 1226 1102 983 1098 1358 1229 1101 1223
8 1226 1102 1228 1359 1098 983 1100 1225
8 1103 995 1111 1227 1230 1112 1235 1360
8 1107 1002 1117 1233 1229 1116 1240 1362
8 1102 1001 1116 1229 1228 1115 1240 1362
8 1104 996 1112 1230 1231 1113 1236 1363
8 1364 1237 1114 1232 1231 1113 997 1106
8 1109 1005 1114 1232 1234 1118 1238 1365
8 1110 1004 1118 1234 1233 1117 1241 1366
8 1242 1374 1255 1138 1119 1243 1132 1025
8 1244 1127 1254 1376 1121 1015 1129 1245
8 1148 1031 1149 1275 1244 1127 1254 1376
8 1245 1129 1258 1377 1125 1016 1130 1248
8 1251 1134 1019 1126 1378 1257 1128 1246
8 1378 1257 1128 1246 1247 1131 1017 1123
8 1248 1130 1259 1379 1124 1018 1131 1247
8 1261 1381 1250 1133 1132 1249 1330 1199
8 1255 1380 1252 1135 1132 1249 1381 1261
8 1250 1133 1019 1126 1382 1262 1134 1251
8 1253 1136 1256 1385 1384 1263 1135 1252
8 1254 1137 1265 1387 1129 1022 1141 1258
8 1149 1032 1150 1276 1254 1137 1265 1387
8 1028 1135 1255 1138 1139 1256 1388 1266
8 1136 1029 1147 1264 1256 1139 1267 1389
8 1390 1268 1140 1257 1259 1142 1024 1131
8 1260 1143 1027 1134 1390 1268 1140 1257
8 1258 1141 1269 1391 1130 1023 1142 1259
8 1262 1145 1027 1134 1393 1271 1143 1260
8 1261 1144 1026 1133 1394 1272 1145 1262
8 1135 1028 1144 1261 1263 1146 1272 1394
8 1136 1029 1146 1263 1264 1147 1273 1395
8 1155 1041 1160 1282 1275 1149 1276 1405
8 1276 1150 1044 1160 1406 1277 1162 1286
8 1408 1283 1159 1279 1278 1156 1039 1151
8 1290 1165 1283 1408 1177 1053 1156 1278
8 1152 1040 1159 1279 1280 1158 1285 1409
8 1281 1157 1038 1153 1410 1284 1158 1280
8 1281 1157 1284 1410 1154 1042 1160 1282
8 1159 1046 1164 1283 1285 1163 1289 1412
8 1292 1167 1289 1412 1165 1048 1164 1283
8 1158 1045 1163 1285 1284 1161 1288 1413
8 1284 1161 1288 1413 1160 1044 1162 1286
8 1291 1166 1292 1418 1174 1051 1165 1290
8 1291 1166 1051 1174 1419 1293 1172 1305
8 1294 1169 1296 1421 1166 1049 1167 1292
8 1293 1168 1050 1172 1422 1295 1171 1303
8 1294 1169 1049 1166 1423 1297 1168 1293
8 1422 1295 1171 1303 1301 1170 1302 1435
8 1172 1050 1173 1306 1303 1171 1304 1438
8 1174 1051 1175 1308 1305 1172 1306 1440
8 1175 1052 1176 1309 1306 1173 1307 1441
8 1177 1053 1178 1311 1308 1175 1309 1443
8 1178 1054 1179 1312 1309 1176 1310 1444
8 1180 1055 1181 1314 1311 1178 1312 1446
8 1056 1181 1312 1179 1182 1315 1447 1313
8 1183 1058 1184 1316 1314 1181 1315 1448
8 1319 1186 1084 1214 1451 1317 1213 1350
8 1319 1186 1318 1453 1208 1081 1187 1321
8 1321 1187 1320 1456 1188 1063 1189 1323
8 1344 1208 1321 1457 1209 1082 1188 1322
8 1322 1188 1323 1458 1190 1064 1191 1325
8 1323 1189 1324 1459 1191 1065 1192 1326
8 1191 1325 1193 1067 1326 1460 1327 1194
8 1242 1374 1243 1119 1328 1462 1335 1204
8 1330 1199 1333 1465 1196 1075 1200 1331
8 1132 1249 1330 1199 1243 1375 1465 1333
8 1332 1201 1077 1198 1466 1334 1200 1331
8 1215 1099 1201 1332 1352 1227 1334 1466
8 1119 1243 1333 1203 1204 1335 1470 1338
8 1333 1203 1338 1470 1200 1080 1202 1334
8 1227 1111 1202 1334 1360 1235 1338 1470
8 1328 1462 1335 1204 1205 1336 1471 1339
8 1337 1206 1340 1472 1464 1329 1205 1336
8 1346 1211 1342 1479 1210 1083 1207 1343
8 1346 1211 1115 1228 1479 1342 1239 1361
8 1348 1212 1084 1214 1479 1342 1207 1343
8 1480 1343 1208 1344 1345 1210 1082 1209
8 1351 1214 1319 1454 1480 1343 1208 1344
8 1481 1346 1210 1345 1359 1228 1100 1225
8 1348 1212 1347 1483 1214 1084 1213 1350
8 1216 1103 1227 1352 1353 1230 1360 1488
8 1217 1104 1230 1353 1354 1231 1363 1489
8 1490 1364 1232 1355 1354 1231 1106 1219
8 1220 1109 1232 1355 1356 1234 1365 1491
8 1221 1110 1234 1356 1357 1233 1366 1492
8 1224 1107 1233 1357 1358 1229 1362 1493
8 1226 1102 1229 1358 1359 1228 1362 1493
8 1230 1112 1235 1360 1363 1236 1367 1496
8 1361 1239 1115 1228 1497 1371 1240 1362
8 1366 1241 1372 1498 1233 1117 1240 1362
8 1364 1237 1113 1231 1499 1368 1236 1363
8 1364 1237 1368 1499 1232 1114 1238 1365
8 1234 1118 1238 1365 1366 1241 1369 1500
8 1507 1373 1242 1374 1388 1266 1138 1255
8 1508 1374 1243 1375 1380 1255 1132 1249
8 1376 1254 1387 1509 1245 1129 1258 1377
8 1275 1149 1276 1405 1376 1254 1387 1509
8 1377 1258 1391 1510 1248 1130 1259 1379
8 1511 1390 1257 1378 1379 1259 1131 1247
8 1383 1260 1134 1251 1511 1390 1257 1378
8 1252 1135 1256 1385 1380 1255 1388 1512
8 1261 1381 1513 1394 1133 1250 1382 1262
8 1135 1252 1384 1263 1261 1381 1513 1394
8 1382 1262 1134 1251 1514 1393 1260 1383
8 1253 1136 1263 1384 1386 1264 1395 1516
8 1253 1136 1264 1386 1385 1256 1389 1517
8 1387 1265 1397 1519 1258 1141 1269 1391
8 1276 1150 1277 1406 1387 1265 1397 1519
8 1256 1139 1267 1389 1388 1266 1398 1520
8 1264 1147 1274 1396 1389 1267 1399 1521
8 1392 1270 1143 1260 1522 1400 1268 1390
8 1390 1268 1142 1259 1522 1400 1269 1391
8 1392 1270 1401 1523 1260 1143 1271 1393
8 1272 1394 1524 1402 1145 1262 1393 1271
8 1395 1273 1146 1263 1524 1402 1272 1394
8 1273 1395 1264 1147 1403 1526 1396 1274
8 1405 1276 1160 1282 1534 1406 1286 1411
8 1414 1287 1407 1535 1286 1162 1277 1406
8 1279 1159 1283 1408 1409 1285 1412 1537
8 1418 1292 1412 1537 1290 1165 1283 1408
8 1280 1158 1285 1409 1410 1284 1413 1538
8 1410 1284 1413 1538 1282 1160 1286 1411
8 1285 1163 1289 1412 1413 1288 1417 1540
8 1421 1296 1417 1540 1292 1167 1289 1412
8 1414 1287 1162 1286 1541 1416 1288 1413
8 1420 1294 1421 1545 1291 1166 1292 1418
8 1419 1293 1172 1305 1546 1422 1303 1437
8 1420 1294 1166 1291 1547 1423 1293 1419
8 1294 1169 1297 1423 1421 1296 1425 1548
8 1423 1297 1168 1293 1549 1424 1295 1422
8 1301 1170 1298 1427 1422 1295 1424 1549
8 1432 1300 1428 1554 1301 1170 1298 1427
8 1431 1299 1428 1554 1560 1430 1300 1432
8 1563 1433 1300 1432 1435 1302 1170 1301
8 1546 1422 1303 1437 1434 1301 1435 1565
8 1303 1171 1304 1438 1435 1302 1436 1566
8 1305 1172 1306 1440 1437 1303 1438 1568
8 1306 1173 1307 1441 1438 1304 1439 1569
8 1308 1175 1309 1443 1440 1306 1441 1571
8 1309 1176 1310 1444 1441 1307 1442 1572
8 1311 1178 1312 1446 1443 1309 1444 1574
8 1179 1312 1444 1310 1313 1447 1575 1445
8 1314 1181 1315 1448 1446 1312 1447 1576
8 1350 1213 1349 1486 1451 1317 1449 1579
8 1451 1317 1450 1581 1319 1186 1318 1453
8 1454 1319 1214 1351 1582 1451 1350 1487
8 1453 1318 1452 1584 1321 1187 1320 1456
8 1454 1319 1453 1585 1344 1208 1321 1457
8 1456 1320 1455 1586 1323 1189 1324 1459
8 1457 1321 1456 1587 1322 1188 1323 1458
8 1458 1323 1459 1588 1325 1191 1326 1460
8 1205 1336 1464 1329 1328 1462 1590 1461
8 1507 1373 1461 1590 1374 1242 1328 1462
8 1508 1374 1462 1591 1375 1243 1335 1467
8 1337 1206 1329 1464 1473 1341 1463 1594
8 1375 1243 1335 1467 1465 1333 1470 1596
8 1465 1333 1470 1596 1331 1200 1334 1466
8 1352 1227 1334 1466 1488 1360 1470 1596
8 1591 1462 1336 1468 1467 1335 1471 1597
8 1469 1337 1472 1598 1595 1464 1336 1468
8 1471 1339 1474 1600 1335 1204 1338 1470
8 1600 1474 1367 1496 1470 1338 1235 1360
8 1336 1205 1340 1472 1471 1339 1475 1601
8 1337 1206 1341 1473 1472 1340 1476 1602
8 1495 1370 1478 1609 1361 1239 1342 1479
8 1348 1212 1342 1479 1483 1347 1478 1609
8 1481 1346 1479 1610 1345 1210 1343 1480
8 1481 1346 1228 1359 1610 1479 1361 1494
8 1484 1348 1214 1351 1610 1479 1343 1480
8 1483 1347 1482 1612 1350 1213 1349 1486
8 1484 1348 1483 1613 1351 1214 1350 1487
8 1353 1230 1360 1488 1489 1363 1496 1616
8 1490 1364 1231 1354 1617 1499 1363 1489
8 1490 1364 1499 1617 1355 1232 1365 1491
8 1356 1234 1365 1491 1492 1366 1500 1619
8 1492 1366 1498 1620 1357 1233 1362 1493
8 1494 1361 1228 1359 1621 1497 1362 1493
8 1495 1370 1239 1361 1622 1504 1371 1497
8 1363 1236 1367 1496 1499 1368 1501 1623
8 1497 1371 1240 1362 1624 1505 1372 1498
8 1625 1503 1372 1498 1500 1369 1241 1366
8 1365 1238 1368 1499 1500 1369 1502 1626
8 1520 1398 1506 1633 1388 1266 1373 1507
8 1634 1507 1374 1508 1512 1388 1255 1380
8 1509 1387 1519 1635 1377 1258 1391 1510
8 1405 1276 1406 1534 1509 1387 1519 1635
8 1515 1392 1260 1383 1636 1522 1390 1511
8 1511 1390 1259 1379 1636 1522 1391 1510
8 1385 1256 1389 1517 1512 1388 1520 1637
8 1513 1394 1262 1382 1638 1524 1393 1514
8 1395 1516 1638 1524 1263 1384 1513 1394
8 1515 1392 1523 1639 1383 1260 1393 1514
8 1516 1395 1526 1640 1386 1264 1396 1518
8 1386 1264 1396 1518 1517 1389 1521 1641
8 1519 1397 1527 1643 1391 1269 1400 1522
8 1535 1407 1527 1643 1406 1277 1397 1519
8 1389 1267 1399 1521 1520 1398 1528 1644
8 1645 1529 1399 1521 1525 1404 1274 1396
8 1392 1270 1400 1522 1523 1401 1531 1646
8 1524 1402 1271 1393 1648 1532 1401 1523
8 1403 1526 1648 1532 1273 1395 1524 1402
8 1525 1404 1274 1396 1649 1533 1403 1526
8 1539 1414 1535 1657 1411 1286 1406 1534
8 1542 1415 1536 1658 1414 1287 1407 1535
8 1409 1285 1412 1537 1538 1413 1540 1660
8 1545 1421 1540 1660 1418 1292 1412 1537
8 1539 1414 1286 1411 1661 1541 1413 1538
8 1540 1417 1544 1663 1413 1288 1416 1541
8 1421 1296 1425 1548 1540 1417 1544 1663
8 1542 1415 1287 1414 1664 1543 1416 1541
8 1420 1294 1423 1547 1545 1421 1548 1666
8 1547 1423 1293 1419 1667 1549 1422 1546
8 1434 1301 1427 1553 1546 1422 1549 1667
8 1423 1297 1424 1549 1548 1425 1550 1668
8 1551 1426 1550 1668 1427 1298 1424 1549
8 1551 1426 1298 1427 1671 1552 1428 1554
8 1562 1432 1554 1674 1434 1301 1427 1553
8 1431 1299 1429 1558 1554 1428 1555 1675
8 1431 1299 1430 1560 1558 1429 1557 1680
8 1560 1430 1300 1432 1683 1559 1433 1563
8 1561 1431 1554 1674 1684 1560 1432 1562
8 1685 1563 1432 1562 1565 1435 1301 1434
8 1435 1302 1436 1566 1563 1433 1564 1686
8 1437 1303 1438 1568 1565 1435 1566 1688
8 1438 1304 1439 1569 1566 1436 1567 1689
8 1440 1306 1441 1571 1568 1438 1569 1691
8 1441 1307 1442 1572 1569 1439 1570 1692
8 1443 1309 1444 1574 1571 1441 1572 1694
8 1310 1444 1572 1442 1445 1575 1695 1573
8 1446 1312 1447 1576 1574 1444 1575 1696
8 1486 1349 1485 1614 1579 1449 1577 1699
8 1451 1317 1449 1579 1581 1450 1578 1701
8 1487 1350 1486 1615 1582 1451 1579 1702
8 1581 1450 1580 1704 1453 1318 1452 1584
8 1582 1451 1581 1705 1454 1319 1453 1585
8 1584 1452 1583 1706 1456 1320 1455 1586
8 1585 1453 1584 1707 1457 1321 1456 1587
8 1587 1456 1586 1708 1458 1323 1459 1588
8 1633 1506 1589 1710 1507 1373 1461 1590
8 1464 1329 1461 1590 1594 1463 1589 1710
8 1468 1336 1462 1591 1595 1464 1590 1711
8 1634 1507 1590 1711 1508 1374 1462 1591
8 1473 1341 1463 1594 1603 1477 1593 1716
8 1469 1337 1464 1595 1599 1473 1594 1717
8 1471 1597 1467 1335 1600 1718 1596 1470
8 1718 1600 1496 1616 1596 1470 1360 1488
8 1336 1468 1597 1471 1472 1598 1719 1601
8 1469 1337 1473 1599 1598 1472 1602 1720
8 1722 1604 1501 1623 1600 1474 1367 1496
8 1475 1601 1471 1339 1604 1722 1600 1474
8 1602 1476 1605 1723 1472 1340 1475 1601
8 1476 1602 1724 1606 1341 1473 1603 1477
8 1483 1347 1478 1609 1612 1482 1608 1731
8 1495 1370 1504 1622 1609 1478 1608 1731
8 1618 1495 1609 1732 1494 1361 1479 1610
8 1484 1348 1479 1610 1613 1483 1609 1732
8 1486 1349 1482 1612 1614 1485 1611 1733
8 1613 1483 1612 1734 1487 1350 1486 1615
8 1489 1363 1496 1616 1617 1499 1623 1736
8 1491 1365 1499 1617 1619 1500 1626 1737
8 1618 1495 1361 1494 1738 1622 1497 1621
8 1739 1625 1498 1620 1619 1500 1366 1492
8 1621 1497 1362 1493 1740 1624 1498 1620
8 1742 1631 1504 1622 1624 1505 1371 1497
8 1743 1628 1502 1626 1623 1501 1368 1499
8 1744 1630 1505 1624 1625 1503 1372 1498
8 1745 1629 1503 1625 1626 1502 1369 1500
8 1520 1398 1528 1644 1633 1506 1632 1751
8 1637 1520 1633 1752 1512 1388 1507 1634
8 1635 1519 1643 1753 1510 1391 1522 1636
8 1657 1535 1643 1753 1534 1406 1519 1635
8 1515 1392 1522 1636 1639 1523 1646 1754
8 1517 1389 1521 1641 1637 1520 1644 1755
8 1524 1638 1756 1648 1393 1514 1639 1523
8 1640 1526 1395 1516 1756 1648 1524 1638
8 1642 1525 1396 1518 1757 1649 1526 1640
8 1758 1645 1521 1641 1642 1525 1396 1518
8 1646 1531 1400 1522 1760 1650 1527 1643
8 1535 1407 1536 1658 1643 1527 1650 1760
8 1521 1399 1529 1645 1644 1528 1651 1761
8 1647 1530 1652 1762 1525 1404 1529 1645
8 1401 1523 1648 1532 1531 1646 1763 1655
8 1525 1404 1533 1649 1647 1530 1654 1765
8 1533 1649 1766 1656 1403 1526 1648 1532
8 1662 1542 1658 1774 1539 1414 1535 1657
8 1542 1415 1543 1664 1658 1536 1659 1775
8 1660 1540 1663 1777 1538 1413 1541 1661
8 1545 1421 1548 1666 1660 1540 1663 1777
8 1662 1542 1414 1539 1778 1664 1541 1661
8 1664 1543 1416 1541 1779 1665 1544 1663
8 1548 1425 1550 1668 1663 1544 1665 1779
8 1547 1423 1549 1667 1666 1548 1668 1781
8 1670 1551 1668 1781 1553 1427 1549 1667
8 1551 1426 1552 1671 1668 1550 1669 1782
8 1670 1551 1427 1553 1784 1671 1554 1674
8 1675 1555 1672 1785 1554 1428 1552 1671
8 1678 1556 1673 1789 1558 1429 1555 1675
8 1561 1431 1558 1681 1674 1554 1675 1790
8 1794 1677 1556 1678 1680 1557 1429 1558
8 1560 1430 1559 1683 1680 1557 1679 1797
8 1561 1431 1560 1684 1681 1558 1680 1798
8 1563 1433 1564 1686 1683 1559 1682 1800
8 1684 1560 1432 1562 1801 1683 1563 1685
8 1565 1435 1566 1688 1685 1563 1686 1802
8 1566 1436 1567 1689 1686 1564 1687 1803
8 1568 1438 1569 1691 1688 1566 1689 1805
8 1569 1439 1570 1692 1689 1567 1690 1806
8 1571 1441 1572 1694 1691 1569 1692 1808
8 1442 1572 1692 1570 1573 1695 1809 1693
8 1574 1444 1575 1696 1694 1572 1695 1810
8 1614 1485 1592 1712 1699 1577 1697 1813
8 1579 1449 1577 1699 1701 1578 1698 1815
8 1615 1486 1614 1735 1702 1579 1699 1816
8 1701 1578 1700 1818 1581 1450 1580 1704
8 1582 1451 1579 1702 1705 1581 1701 1819
8 1704 1580 1703 1820 1584 1452 1583 1706
8 1705 1581 1704 1821 1585 1453 1584 1707
8 1707 1584 1706 1822 1587 1456 1586 1708
8 1710 1589 1506 1633 1824 1709 1632 1751
8 1594 1463 1589 1710 1716 1593 1709 1824
8 1752 1633 1710 1825 1634 1507 1590 1711
8 1595 1464 1590 1711 1717 1594 1710 1825
8 1830 1714 1592 1712 1733 1611 1485 1614
8 1603 1477 1593 1716 1725 1607 1715 1834
8 1599 1473 1594 1717 1721 1603 1716 1835
8 1837 1722 1623 1736 1718 1600 1496 1616
8 1719 1601 1722 1837 1597 1471 1600 1718
8 1602 1720 1598 1472 1723 1838 1719 1601
8 1720 1602 1473 1599 1839 1724 1603 1721
8 1723 1605 1726 1840 1601 1475 1604 1722
8 1840 1726 1628 1743 1722 1604 1501 1623
8 1724 1606 1727 1841 1602 1476 1605 1723
8 1725 1607 1728 1842 1603 1477 1606 1724
8 1612 1482 1608 1731 1733 1611 1730 1849
8 1741 1627 1730 1849 1622 1504 1608 1731
8 1613 1483 1609 1732 1734 1612 1731 1850
8 1618 1495 1622 1738 1732 1609 1731 1850
8 1615 1486 1612 1734 1735 1614 1733 1851
8 1852 1743 1626 1737 1736 1623 1499 1617
8 1853 1745 1625 1739 1737 1626 1500 1619
8 1855 1742 1622 1738 1740 1624 1497 1621
8 1856 1744 1624 1740 1739 1625 1498 1620
8 1741 1627 1504 1622 1857 1746 1631 1742
8 1742 1631 1505 1624 1858 1749 1630 1744
8 1859 1747 1629 1745 1743 1628 1502 1626
8 1860 1748 1630 1744 1745 1629 1503 1625
8 1644 1528 1651 1761 1751 1632 1750 1865
8 1637 1520 1644 1755 1752 1633 1751 1866
8 1754 1646 1522 1636 1867 1760 1643 1753
8 1657 1535 1658 1774 1753 1643 1760 1867
8 1639 1523 1646 1754 1756 1648 1763 1868
8 1641 1521 1645 1758 1755 1644 1761 1869
8 1757 1649 1526 1640 1870 1766 1648 1756
8 1642 1525 1649 1757 1759 1647 1765 1871
8 1759 1647 1762 1872 1642 1525 1645 1758
8 1760 1650 1767 1874 1646 1531 1655 1763
8 1658 1536 1659 1775 1760 1650 1767 1874
8 1762 1652 1768 1875 1645 1529 1651 1761
8 1764 1653 1769 1876 1647 1530 1652 1762
8 1656 1766 1877 1773 1532 1648 1763 1655
8 1771 1879 1765 1654 1653 1764 1647 1530
8 1533 1649 1765 1654 1656 1766 1880 1772
8 1662 1542 1664 1778 1774 1658 1775 1887
8 1664 1543 1665 1779 1775 1659 1776 1888
8 1778 1664 1541 1661 1890 1779 1663 1777
8 1666 1548 1668 1781 1777 1663 1779 1890
8 1782 1669 1780 1891 1668 1550 1665 1779
8 1670 1551 1671 1784 1781 1668 1782 1893
8 1671 1552 1672 1785 1782 1669 1783 1894
8 1790 1675 1785 1896 1674 1554 1671 1784
8 1675 1555 1673 1789 1785 1672 1786 1897
8 1792 1676 1788 1903 1678 1556 1673 1789
8 1795 1678 1789 1904 1681 1558 1675 1790
8 1792 1676 1556 1678 1906 1791 1677 1794
8 1680 1557 1679 1797 1794 1677 1793 1909
8 1910 1794 1678 1795 1798 1680 1558 1681
8 1683 1559 1682 1800 1797 1679 1796 1912
8 1684 1560 1683 1801 1798 1680 1797 1913
8 1686 1564 1687 1803 1800 1682 1799 1915
8 1685 1563 1686 1802 1801 1683 1800 1916
8 1688 1566 1689 1805 1802 1686 1803 1917
8 1689 1567 1690 1806 1803 1687 1804 1918
8 1691 1569 1692 1808 1805 1689 1806 1920
8 1692 1570 1693 1809 1806 1690 1807 1921
8 1694 1572 1695 1810 1808 1692 1809 1922
8 1829 1713 1811 1926 1712 1592 1697 1813
8 1813 1697 1812 1928 1699 1577 1698 1815
8 1735 1614 1712 1828 1816 1699 1813 1929
8 1815 1698 1814 1931 1701 1578 1700 1818
8 1702 1579 1699 1816 1819 1701 1815 1932
8 1818 1700 1817 1933 1704 1580 1703 1820
8 1819 1701 1818 1934 1705 1581 1704 1821
8 1821 1704 1820 1935 1707 1584 1706 1822
8 1824 1709 1632 1751 1937 1823 1750 1865
8 1716 1593 1709 1824 1834 1715 1823 1937
8 1825 1710 1633 1752 1938 1824 1751 1866
8 1717 1594 1710 1825 1835 1716 1824 1938
8 1945 1830 1712 1828 1851 1733 1614 1735
8 1830 1714 1831 1946 1712 1592 1713 1829
8 1947 1832 1714 1830 1849 1730 1611 1733
8 1843 1729 1607 1725 1950 1833 1715 1834
8 1721 1603 1716 1835 1836 1725 1834 1951
8 1836 1725 1842 1953 1721 1603 1724 1839
8 1723 1838 1719 1601 1840 1954 1837 1722
8 1954 1840 1743 1852 1837 1722 1623 1736
8 1724 1839 1720 1602 1841 1955 1838 1723
8 1841 1727 1844 1956 1723 1605 1726 1840
8 1956 1844 1747 1859 1840 1726 1628 1743
8 1728 1842 1724 1606 1845 1957 1841 1727
8 1725 1607 1729 1843 1842 1728 1846 1958
8 1741 1627 1746 1857 1849 1730 1848 1965
8 1734 1612 1731 1850 1851 1733 1849 1966
8 1854 1741 1849 1966 1738 1622 1731 1850
8 1967 1859 1745 1853 1852 1743 1626 1737
8 1968 1860 1744 1856 1853 1745 1625 1739
8 1854 1741 1622 1738 1969 1857 1742 1855
8 1855 1742 1624 1740 1970 1858 1744 1856
8 1857 1746 1631 1742 1971 1861 1749 1858
8 1858 1749 1630 1744 1972 1863 1748 1860
8 1859 1747 1862 1973 1745 1629 1748 1860
8 1875 1768 1864 1977 1761 1651 1750 1865
8 1755 1644 1761 1869 1866 1751 1865 1978
8 1867 1760 1874 1979 1754 1646 1763 1868
8 1774 1658 1775 1887 1867 1760 1874 1979
8 1870 1766 1648 1756 1980 1877 1763 1868
8 1872 1762 1875 1981 1758 1645 1761 1869
8 1757 1649 1766 1870 1871 1765 1880 1982
8 1983 1879 1764 1873 1871 1765 1647 1759
8 1873 1764 1876 1984 1759 1647 1762 1872
8 1877 1773 1655 1763 1986 1881 1767 1874
8 1775 1659 1776 1888 1874 1767 1881 1986
8 1876 1769 1882 1987 1762 1652 1768 1875
8 1878 1770 1883 1988 1764 1653 1769 1876
8 1880 1772 1656 1766 1989 1886 1773 1877
8 1878 1770 1653 1764 1990 1884 1771 1879
8 1765 1654 1772 1880 1879 1771 1885 1991
8 1778 1664 1779 1890 1887 1775 1888 1997
8 1998 1889 1776 1888 1891 1780 1665 1779
8 1893 1782 1891 2000 1781 1668 1779 1890
8 1894 1783 1892 2001 1782 1669 1780 1891
8 1784 1671 1785 1896 1893 1782 1894 2003
8 1897 1786 1895 2004 1785 1672 1783 1894
8 1790 1675 1789 1904 1896 1785 1897 2006
8 1901 1787 1898 2007 1789 1673 1786 1897
8 1903 1788 1900 2013 1789 1673 1787 1901
8 1792 1676 1791 1906 1903 1788 1902 2016
8 1907 1792 1903 2017 1795 1678 1789 1904
8 1906 1791 1677 1794 2019 1905 1793 1909
8 1907 1792 1678 1795 2020 1906 1794 1910
8 1797 1679 1796 1912 1909 1793 1908 2022
8 1798 1680 1797 1913 1910 1794 1909 2023
8 1800 1682 1799 1915 1912 1796 1911 2025
8 1801 1683 1800 1916 1913 1797 1912 2026
8 1803 1687 1804 1918 1915 1799 1914 2028
8 1802 1686 1803 1917 1916 1800 1915 2029
8 1805 1689 1806 1920 1917 1803 1918 2030
8 1806 1690 1807 1921 1918 1804 1919 2031
8 1808 1692 1809 1922 1920 1806 1921 2032
8 1939 1826 1924 2037 1829 1713 1811 1926
8 1926 1811 1925 2039 1813 1697 1812 1928
8 1944 1829 1926 2040 1828 1712 1813 1929
8 1928 1812 1927 2042 1815 1698 1814 1931
8 1929 1813 1928 2043 1816 1699 1815 1932
8 1931 1814 1930 2044 1818 1700 1817 1933
8 1932 1815 1931 2045 1819 1701 1818 1934
8 1934 1818 1933 2046 1821 1704 1820 1935
8 2048 1936 1823 1937 1977 1864 1750 1865
8 1950 1833 1715 1834 2048 1936 1823 1937
8 1938 1824 1751 1866 2049 1937 1865 1978
8 1835 1716 1824 1938 1951 1834 1937 2049
8 1939 1826 1713 1829 2053 1942 1831 1946
8 1940 1827 1923 2035 2053 1942 1826 1939
8 1945 1830 1946 2058 1828 1712 1829 1944
8 2059 1947 1830 1945 1966 1849 1733 1851
8 1947 1832 1730 1849 2060 1948 1848 1965
8 1947 1832 1948 2060 1830 1714 1831 1946
8 1959 1847 1729 1843 2063 1949 1833 1950
8 1952 1843 1725 1836 2064 1950 1834 1951
8 1836 1725 1843 1952 1953 1842 1958 2066
8 1953 1842 1957 2067 1839 1724 1841 1955
8 1841 1955 1838 1723 1956 2068 1954 1840
8 2068 1956 1859 1967 1954 1840 1743 1852
8 1956 1844 1960 2069 1859 1747 1862 1973
8 1845 1957 1841 1727 1960 2069 1956 1844
8 1728 1842 1957 1845 1846 1958 2071 1961
8 1962 2072 1959 1847 1846 1958 1843 1729
8 1971 1861 1964 2077 1857 1746 1848 1965
8 1854 1741 1857 1969 1966 1849 1965 2078
8 1967 1859 1973 2079 1853 1745 1860 1968
8 1970 1858 1744 1856 2080 1972 1860 1968
8 1969 1857 1742 1855 2081 1971 1858 1970
8 1971 1861 1749 1858 2082 1974 1863 1972
8 1973 1862 1975 2083 1860 1748 1863 1972
8 1987 1882 1976 2086 1875 1768 1864 1977
8 1981 1875 1977 2087 1869 1761 1865 1978
8 1980 1877 1763 1868 2088 1986 1874 1979
8 1887 1775 1888 1997 1979 1874 1986 2088
8 1880 1982 2089 1989 1766 1870 1980 1877
8 1984 1876 1987 2090 1872 1762 1875 1981
8 1765 1871 1983 1879 1880 1982 2091 1991
8 1985 1878 1764 1873 2092 1990 1879 1983
8 1985 1878 1988 2093 1873 1764 1876 1984
8 2094 1992 1881 1986 1998 1889 1776 1888
8 1986 1881 1992 2094 1877 1773 1886 1989
8 1988 1883 1993 2095 1876 1769 1882 1987
8 1878 1770 1884 1990 1988 1883 1994 2096
8 1991 1885 1772 1880 2097 1996 1886 1989
8 1879 1771 1885 1991 1990 1884 1995 2098
8 2103 1998 1888 1997 2000 1891 1779 1890
8 2104 1999 1889 1998 2001 1892 1780 1891
8 2003 1894 2001 2106 1893 1782 1891 2000
8 2004 1895 2002 2107 1894 1783 1892 2001
8 2006 1897 2004 2109 1896 1785 1894 2003
8 2007 1898 2005 2110 1897 1786 1895 2004
8 2014 1901 2007 2112 1904 1789 1897 2006
8 2011 1899 2008 2113 1901 1787 1898 2007
8 2119 2010 1899 2011 2013 1900 1787 1901
8 2016 1902 2012 2122 1903 1788 1900 2013
8 2017 1903 2013 2123 1904 1789 1901 2014
8 1906 1791 1905 2019 2016 1902 2015 2125
8 1907 1792 1906 2020 2017 1903 2016 2126
8 1909 1793 1908 2022 2019 1905 2018 2128
8 2020 1906 1794 1910 2129 2019 1909 2023
8 1912 1796 1911 2025 2022 1908 2021 2131
8 1913 1797 1912 2026 2023 1909 2022 2132
8 1915 1799 1914 2028 2025 1911 2024 2134
8 1916 1800 1915 2029 2026 1912 2025 2135
8 1918 1804 1919 2031 2028 1914 2027 2136
8 1917 1803 1918 2030 2029 1915 2028 2137
8 1920 1806 1921 2032 2030 1918 2031 2138
8 1940 1827 1941 2054 2035 1923 2033 2140
8 2035 1923 2034 2143 1939 1826 1924 2037
8 2037 1924 2036 2146 1926 1811 1925 2039
8 2051 1939 2037 2147 1944 1829 1926 2040
8 2039 1925 2038 2149 1928 1812 1927 2042
8 2040 1926 2039 2150 1929 1813 1928 2043
8 2042 1927 2041 2151 1931 1814 1930 2044
8 2043 1928 2042 2152 1932 1815 1931 2045
8 2045 1931 2044 2153 1934 1818 1933 2046
8 2155 2047 1936 2048 2086 1976 1864 1977
8 2063 1949 1833 1950 2155 2047 1936 2048
8 2156 2048 1937 2049 2087 1977 1865 1978
8 2064 1950 1834 1951 2156 2048 1937 2049
8 2051 1939 1829 1944 2160 2053 1946 2058
8 2052 1940 2035 2144 2160 2053 1939 2051
8 2053 1942 1831 1946 2163 2057 1948 2060
8 2055 1943 1827 1940 2163 2057 1942 2053
8 2055 1943 2056 2164 1940 1827 1941 2054
8 2059 1947 1849 1966 2167 2060 1965 2078
8 2059 1947 2060 2167 1945 1830 1946 2058
8 2077 1964 2061 2168 1965 1848 1948 2060
8 2070 1963 1847 1959 2170 2062 1949 2063
8 2065 1959 1843 1952 2171 2063 1950 2064
8 2173 2072 1958 2066 2065 1959 1843 1952
8 1953 1842 1958 2066 2067 1957 2071 2174
8 2068 1956 2069 2175 1967 1859 1973 2079
8 2067 1957 2069 2175 1955 1841 1956 2068
8 1845 1957 2069 1960 1961 2071 2176 2073
8 2069 1960 2073 2176 1973 1862 1975 2083
8 2070 1963 2075 2177 1959 1847 1962 2072
8 1846 1958 2071 1961 1962 2072 2178 2074
8 2077 1964 1861 1971 2182 2076 1974 2082
8 2081 1971 2077 2183 1969 1857 1965 2078
8 2079 1973 2083 2184 1968 1860 1972 2080
8 2081 1971 1858 1970 2185 2082 1972 2080
8 2083 1975 2084 2186 1972 1863 1974 2082
8 2086 1976 1882 1987 2189 2085 1993 2095
8 2090 1987 2086 2190 1981 1875 1977 2087
8 2191 2094 1986 2088 2103 1998 1888 1997
8 2088 1986 2094 2191 1980 1877 1989 2089
8 1991 2091 2192 2097 1880 1982 2089 1989
8 2093 1988 2095 2193 1984 1876 1987 2090
8 1879 1983 2092 1990 1991 2091 2194 2098
8 1985 1878 1990 2092 2093 1988 2096 2195
8 2097 1996 1886 1989 2196 2099 1992 2094
8 2196 2099 1992 2094 2104 1999 1889 1998
8 1994 2096 1988 1883 2100 2197 2095 1993
8 2096 1994 1884 1990 2198 2101 1995 2098
8 1995 2098 2199 2102 1885 1991 2097 1996
8 2203 2104 1998 2103 2106 2001 1891 2000
8 2107 2002 2105 2204 2001 1892 1999 2104
8 2109 2004 2107 2206 2003 1894 2001 2106
8 2110 2005 2108 2207 2004 1895 2002 2107
8 2112 2007 2110 2209 2006 1897 2004 2109
8 2113 2008 2111 2210 2007 1898 2005 2110
8 2120 2011 2113 2212 2014 1901 2007 2112
8 2117 2009 2114 2213 2011 1899 2008 2113
8 2219 2116 2009 2117 2119 2010 1899 2011
8 2222 2118 2010 2119 2122 2012 1900 2013
8 2223 2119 2011 2120 2123 2013 1901 2014
8 2016 1902 2015 2125 2122 2012 2121 2225
8 2126 2016 2122 2226 2017 1903 2013 2123
8 2019 1905 2018 2128 2125 2015 2124 2228
8 2020 1906 2019 2129 2126 2016 2125 2229
8 2022 1908 2021 2131 2128 2018 2127 2231
8 2023 1909 2022 2132 2129 2019 2128 2232
8 2025 1911 2024 2134 2131 2021 2130 2234
8 2026 1912 2025 2135 2132 2022 2131 2235
8 1914 2028 2134 2024 2027 2136 2236 2133
8 2029 1915 2028 2137 2135 2025 2134 2237
8 2030 1918 2031 2138 2137 2028 2136 2238
8 2157 2050 2139 2240 2054 1941 2033 2140
8 2052 1940 2054 2161 2144 2035 2140 2242
8 2140 2033 2141 2243 2035 1923 2034 2143
8 2143 2034 2142 2246 2037 1924 2036 2146
8 2144 2035 2143 2247 2051 1939 2037 2147
8 2146 2036 2145 2249 2039 1925 2038 2149
8 2147 2037 2146 2250 2040 1926 2039 2150
8 2149 2038 2148 2251 2042 1927 2041 2151
8 2150 2039 2149 2252 2043 1928 2042 2152
8 2152 2042 2151 2253 2045 1931 2044 2153
8 2255 2154 2047 2155 2189 2085 1976 2086
8 2170 2062 1949 2063 2255 2154 2047 2155
8 2256 2155 2048 2156 2190 2086 1977 2087
8 2171 2063 1950 2064 2256 2155 2048 2156
8 2258 2159 2050 2157 2164 2056 1941 2054
8 2160 2053 1946 2058 2262 2163 2060 2167
8 2162 2055 1940 2052 2262 2163 2053 2160
8 2162 2055 2164 2263 2052 1940 2054 2161
8 2163 2057 1948 2060 2264 2165 2061 2168
8 2055 1943 2057 2163 2164 2056 2165 2264
8 2182 2076 2166 2268 2077 1964 2061 2168
8 2183 2077 2168 2269 2078 1965 2060 2167
8 2070 1963 2062 2170 2177 2075 2169 2271
8 2172 2070 1959 2065 2272 2170 2063 2171
8 2172 2070 2177 2273 2065 1959 2072 2173
8 2066 1958 2072 2173 2174 2071 2178 2274
8 2067 1957 2071 2174 2175 2069 2176 2275
8 2175 2069 2176 2275 2079 1973 2083 2184
8 2071 1961 2074 2178 2176 2073 2179 2276
8 2176 2073 2179 2276 2083 1975 2084 2186
8 2072 1962 2075 2177 2178 2074 2180 2277
8 2182 2076 1974 2082 2280 2181 2084 2186
8 2183 2077 1971 2081 2281 2182 2082 2185
8 2184 2083 2186 2282 2080 1972 2082 2185
8 2189 2085 1993 2095 2285 2188 2100 2197
8 2190 2086 1987 2090 2286 2189 2095 2193
8 2192 2097 1989 2089 2287 2196 2094 2191
8 2287 2196 2094 2191 2203 2104 1998 2103
8 2194 2098 1991 2091 2288 2199 2097 2192
8 2195 2096 2197 2289 2093 1988 2095 2193
8 2096 2195 2290 2198 1990 2092 2194 2098
8 2097 1996 2099 2196 2199 2102 2200 2291
8 2196 2099 1999 2104 2291 2200 2105 2204
8 2100 2197 2292 2201 1994 2096 2198 2101
8 1995 2098 2198 2101 2102 2199 2293 2202
8 2206 2107 2204 2296 2106 2001 2104 2203
8 2207 2108 2205 2297 2107 2002 2105 2204
8 2209 2110 2207 2299 2109 2004 2107 2206
8 2210 2111 2208 2300 2110 2005 2108 2207
8 2212 2113 2210 2302 2112 2007 2110 2209
8 2213 2114 2211 2303 2113 2008 2111 2210
8 2220 2117 2213 2305 2120 2011 2113 2212
8 2216 2115 2214 2306 2117 2009 2114 2213
8 2216 2115 2009 2117 2311 2217 2116 2219
8 2219 2116 2010 2119 2314 2218 2118 2222
8 2315 2219 2117 2220 2223 2119 2011 2120
8 2122 2012 2121 2225 2222 2118 2221 2317
8 2318 2222 2119 2223 2226 2122 2013 2123
8 2125 2015 2124 2228 2225 2121 2224 2320
8 2126 2016 2125 2229 2226 2122 2225 2321
8 2128 2018 2127 2231 2228 2124 2227 2323
8 2129 2019 2128 2232 2229 2125 2228 2324
8 2131 2021 2130 2234 2231 2127 2230 2326
8 2132 2022 2131 2235 2232 2128 2231 2327
8 2134 2024 2133 2236 2234 2130 2233 2328
8 2135 2025 2134 2237 2235 2131 2234 2329
8 2137 2028 2136 2238 2237 2134 2236 2330
8 2157 2050 2158 2259 2240 2139 2239 2332
8 2257 2157 2240 2334 2161 2054 2140 2242
8 2240 2139 2241 2335 2140 2033 2141 2243
8 2242 2140 2243 2337 2144 2035 2143 2247
8 2243 2141 2244 2338 2143 2034 2142 2246
8 2246 2142 2245 2341 2146 2036 2145 2249
8 2247 2143 2246 2342 2147 2037 2146 2250
8 2249 2145 2248 2343 2149 2038 2148 2251
8 2250 2146 2249 2344 2150 2039 2149 2252
8 2252 2149 2251 2345 2152 2042 2151 2253
8 2169 2271 2347 2254 2062 2170 2255 2154
8 2189 2085 2188 2285 2255 2154 2254 2347
8 2348 2255 2155 2256 2286 2189 2086 2190
8 2272 2170 2063 2171 2348 2255 2155 2256
8 2349 2258 2157 2257 2263 2164 2054 2161
8 2258 2159 2261 2351 2157 2050 2158 2259
8 2258 2159 2056 2164 2351 2261 2165 2264
8 2262 2163 2060 2167 2355 2264 2168 2269
8 2162 2055 2163 2262 2263 2164 2264 2355
8 2357 2266 2165 2264 2268 2166 2061 2168
8 2268 2166 2076 2182 2361 2267 2181 2280
8 2281 2182 2268 2362 2183 2077 2168 2269
8 2271 2169 2270 2364 2177 2075 2180 2277
8 2172 2070 2170 2272 2273 2177 2271 2365
8 2072 2173 2274 2178 2177 2273 2366 2277
8 2071 2174 2275 2176 2178 2274 2367 2276
8 2275 2176 2276 2367 2184 2083 2186 2282
8 2283 2187 2084 2186 2368 2278 2179 2276
8 2178 2074 2180 2277 2276 2179 2278 2368
8 2283 2187 2279 2370 2186 2084 2181 2280
8 2281 2182 2082 2185 2371 2280 2186 2282
8 2188 2285 2374 2284 2100 2197 2292 2201
8 2286 2189 2095 2193 2375 2285 2197 2289
8 2192 2097 2196 2287 2288 2199 2291 2376
8 2287 2196 2104 2203 2376 2291 2204 2296
8 2194 2098 2199 2288 2290 2198 2293 2377
8 2289 2197 2096 2195 2378 2292 2198 2290
8 2291 2200 2105 2204 2379 2294 2205 2297
8 2199 2102 2200 2291 2293 2202 2294 2379
8 2198 2101 2202 2293 2292 2201 2295 2380
8 2299 2207 2297 2383 2206 2107 2204 2296
8 2300 2208 2298 2384 2207 2108 2205 2297
8 2302 2210 2300 2386 2209 2110 2207 2299
8 2303 2211 2301 2387 2210 2111 2208 2300
8 2305 2213 2303 2389 2212 2113 2210 2302
8 2306 2214 2304 2390 2213 2114 2211 2303
8 2310 2216 2306 2392 2220 2117 2213 2305
8 2308 2215 2307 2393 2216 2115 2214 2306
8 2308 2215 2115 2216 2396 2309 2217 2311
8 2310 2216 2117 2220 2398 2311 2219 2315
8 2311 2217 2116 2219 2399 2312 2218 2314
8 2314 2218 2118 2222 2402 2313 2221 2317
8 2315 2219 2119 2223 2403 2314 2222 2318
8 2225 2121 2224 2320 2317 2221 2316 2405
8 2226 2122 2225 2321 2318 2222 2317 2406
8 2228 2124 2227 2323 2320 2224 2319 2408
8 2229 2125 2228 2324 2321 2225 2320 2409
8 2231 2127 2230 2326 2323 2227 2322 2411
8 2232 2128 2231 2327 2324 2228 2323 2412
8 2234 2130 2233 2328 2326 2230 2325 2413
8 2235 2131 2234 2329 2327 2231 2326 2414
8 2237 2134 2236 2330 2329 2234 2328 2415
8 2259 2158 2260 2352 2332 2239 2331 2417
8 2257 2157 2259 2350 2334 2240 2332 2419
8 2240 2139 2239 2332 2335 2241 2333 2420
8 2334 2240 2335 2422 2242 2140 2243 2337
8 2335 2241 2336 2423 2243 2141 2244 2338
8 2337 2243 2338 2425 2247 2143 2246 2342
8 2338 2244 2339 2426 2246 2142 2245 2341
8 2341 2245 2340 2428 2249 2145 2248 2343
8 2342 2246 2341 2429 2250 2146 2249 2344
8 2344 2249 2343 2430 2252 2149 2251 2345
8 2188 2285 2347 2254 2284 2374 2432 2346
8 2347 2254 2346 2432 2271 2169 2270 2364
8 2365 2271 2170 2272 2433 2347 2255 2348
8 2286 2189 2285 2375 2348 2255 2347 2433
8 2349 2258 2351 2435 2257 2157 2259 2350
8 2349 2258 2164 2263 2435 2351 2264 2355
8 2259 2158 2261 2351 2352 2260 2354 2437
8 2356 2265 2354 2437 2264 2165 2261 2351
8 2441 2357 2264 2355 2362 2268 2168 2269
8 2356 2265 2165 2264 2442 2358 2266 2357
8 2443 2359 2266 2357 2361 2267 2166 2268
8 2370 2279 2360 2446 2280 2181 2267 2361
8 2362 2268 2182 2281 2447 2361 2280 2371
8 2180 2277 2368 2278 2270 2364 2449 2363
8 2271 2365 2273 2177 2364 2450 2366 2277
8 2372 2283 2186 2282 2451 2368 2276 2367
8 2178 2274 2367 2276 2277 2366 2451 2368
8 2283 2187 2278 2368 2370 2279 2369 2452
8 2372 2283 2370 2453 2282 2186 2280 2371
8 2284 2374 2455 2373 2201 2292 2380 2295
8 2375 2285 2197 2289 2456 2374 2292 2378
8 2376 2291 2204 2296 2457 2379 2297 2383
8 2288 2199 2291 2376 2377 2293 2379 2457
8 2198 2290 2378 2292 2293 2377 2458 2380
8 2293 2202 2294 2379 2380 2295 2381 2459
8 2384 2298 2381 2459 2297 2205 2294 2379
8 2386 2300 2384 2463 2299 2207 2297 2383
8 2387 2301 2385 2464 2300 2208 2298 2384
8 2389 2303 2387 2466 2302 2210 2300 2386
8 2390 2304 2388 2467 2303 2211 2301 2387
8 2392 2306 2390 2469 2305 2213 2303 2389
8 2393 2307 2391 2470 2306 2214 2304 2390
8 2395 2308 2393 2472 2310 2216 2306 2392
8 2308 2215 2309 2396 2393 2307 2394 2473
8 2395 2308 2216 2310 2475 2396 2311 2398
8 2396 2309 2217 2311 2476 2397 2312 2399
8 2398 2311 2219 2315 2478 2399 2314 2403
8 2399 2312 2218 2314 2479 2400 2313 2402
8 2317 2221 2316 2405 2402 2313 2401 2482
8 2403 2314 2222 2318 2483 2402 2317 2406
8 2320 2224 2319 2408 2405 2316 2404 2485
8 2321 2225 2320 2409 2406 2317 2405 2486
8 2323 2227 2322 2411 2408 2319 2407 2488
8 2324 2228 2323 2412 2409 2320 2408 2489
8 2326 2230 2325 2413 2411 2322 2410 2490
8 2327 2231 2326 2414 2412 2323 2411 2491
8 2329 2234 2328 2415 2414 2326 2413 2492
8 2417 2331 2260 2352 2494 2416 2353 2438
8 2350 2259 2352 2436 2419 2332 2417 2496
8 2332 2239 2331 2417 2420 2333 2418 2497
8 2334 2240 2332 2419 2422 2335 2420 2499
8 2420 2333 2421 2500 2335 2241 2336 2423
8 2422 2335 2423 2502 2337 2243 2338 2425
8 2423 2336 2424 2503 2338 2244 2339 2426
8 2425 2338 2426 2505 2342 2246 2341 2429
8 2426 2339 2427 2506 2341 2245 2340 2428
8 2429 2341 2428 2507 2344 2249 2343 2430
8 2432 2346 2284 2374 2509 2431 2373 2455
8 2432 2346 2431 2509 2364 2270 2363 2449
8 2375 2285 2374 2456 2433 2347 2432 2510
8 2347 2433 2365 2271 2432 2510 2450 2364
8 2350 2259 2351 2435 2436 2352 2437 2514
8 2440 2356 2437 2514 2355 2264 2351 2435
8 2352 2260 2354 2437 2438 2353 2439 2516
8 2356 2265 2358 2442 2437 2354 2439 2516
8 2440 2356 2264 2355 2518 2442 2357 2441
8 2519 2443 2357 2441 2447 2361 2268 2362
8 2443 2359 2444 2520 2357 2266 2358 2442
8 2443 2359 2267 2361 2520 2444 2360 2446
8 2446 2360 2279 2370 2523 2445 2369 2452
8 2453 2370 2446 2524 2371 2280 2361 2447
8 2449 2363 2448 2525 2368 2278 2369 2452
8 2366 2277 2364 2450 2451 2368 2449 2526
8 2372 2283 2368 2451 2453 2370 2452 2527
8 2455 2373 2295 2380 2529 2454 2382 2460
8 2456 2374 2292 2378 2530 2455 2380 2458
8 2377 2293 2379 2457 2458 2380 2459 2531
8 2463 2384 2459 2531 2383 2297 2379 2457
8 2533 2461 2382 2460 2459 2381 2295 2380
8 2464 2385 2461 2533 2384 2298 2381 2459
8 2466 2387 2464 2537 2386 2300 2384 2463
8 2467 2388 2465 2538 2387 2301 2385 2464
8 2469 2390 2467 2540 2389 2303 2387 2466
8 2470 2391 2468 2541 2390 2304 2388 2467
8 2472 2393 2470 2543 2392 2306 2390 2469
8 2393 2307 2394 2473 2470 2391 2471 2544
8 2395 2308 2396 2475 2472 2393 2473 2546
8 2396 2309 2397 2476 2473 2394 2474 2547
8 2475 2396 2311 2398 2549 2476 2399 2478
8 2476 2397 2312 2399 2550 2477 2400 2479
8 2478 2399 2314 2403 2552 2479 2402 2483
8 2479 2400 2313 2402 2553 2480 2401 2482
8 2405 2316 2404 2485 2482 2401 2481 2556
8 2406 2317 2405 2486 2483 2402 2482 2557
8 2408 2319 2407 2488 2485 2404 2484 2559
8 2409 2320 2408 2489 2486 2405 2485 2560
8 2411 2322 2410 2490 2488 2407 2487 2561
8 2412 2323 2411 2491 2489 2408 2488 2562
8 2414 2326 2413 2492 2491 2411 2490 2563
8 2513 2434 2493 2565 2438 2353 2416 2494
8 2496 2417 2352 2436 2567 2494 2438 2515
8 2494 2416 2495 2568 2417 2331 2418 2497
8 2419 2332 2417 2496 2499 2420 2497 2570
8 2497 2418 2498 2571 2420 2333 2421 2500
8 2499 2420 2500 2573 2422 2335 2423 2502
8 2500 2421 2501 2574 2423 2336 2424 2503
8 2502 2423 2503 2576 2425 2338 2426 2505
8 2503 2424 2504 2577 2426 2339 2427 2506
8 2505 2426 2506 2578 2429 2341 2428 2507
8 2509 2431 2373 2455 2580 2508 2454 2529
8 2509 2431 2508 2580 2449 2363 2448 2525
8 2432 2510 2581 2509 2374 2456 2530 2455
8 2432 2510 2450 2364 2509 2581 2526 2449
8 2583 2511 2434 2513 2516 2439 2353 2438
8 2436 2352 2437 2514 2515 2438 2516 2588
8 2440 2356 2442 2518 2514 2437 2516 2588
8 2442 2358 2444 2520 2516 2439 2517 2589
8 2519 2443 2520 2591 2441 2357 2442 2518
8 2519 2443 2361 2447 2591 2520 2446 2524
8 2446 2360 2445 2523 2520 2444 2521 2592
8 2525 2448 2522 2593 2452 2369 2445 2523
8 2524 2446 2370 2453 2594 2523 2452 2527
8 2526 2449 2525 2595 2451 2368 2452 2527
8 2534 2462 2528 2597 2460 2382 2454 2529
8 2530 2455 2380 2458 2598 2529 2460 2532
8 2599 2533 2460 2532 2531 2459 2380 2458
8 2537 2464 2533 2599 2463 2384 2459 2531
8 2534 2462 2382 2460 2601 2535 2461 2533
8 2538 2465 2535 2601 2464 2385 2461 2533
8 2540 2467 2538 2604 2466 2387 2464 2537
8 2541 2468 2539 2605 2467 2388 2465 2538
8 2543 2470 2541 2607 2469 2390 2467 2540
8 2470 2391 2471 2544 2541 2468 2542 2608
8 2472 2393 2473 2546 2543 2470 2544 2610
8 2473 2394 2474 2547 2544 2471 2545 2611
8 2475 2396 2476 2549 2546 2473 2547 2613
8 2476 2397 2477 2550 2547 2474 2548 2614
8 2549 2476 2399 2478 2616 2550 2479 2552
8 2479 2400 2480 2553 2550 2477 2551 2617
8 2552 2479 2402 2483 2619 2553 2482 2557
8 2482 2401 2481 2556 2553 2480 2554 2620
8 2485 2404 2484 2559 2556 2481 2555 2623
8 2486 2405 2485 2560 2557 2482 2556 2624
8 2488 2407 2487 2561 2559 2484 2558 2625
8 2489 2408 2488 2562 2560 2485 2559 2626
8 2491 2411 2490 2563 2562 2488 2561 2627
8 2513 2434 2512 2585 2565 2493 2564 2630
8 2586 2513 2565 2632 2515 2438 2494 2567
8 2565 2493 2566 2633 2494 2416 2495 2568
8 2567 2494 2568 2635 2496 2417 2497 2570
8 2568 2495 2569 2636 2497 2418 2498 2571
8 2570 2497 2571 2638 2499 2420 2500 2573
8 2571 2498 2572 2639 2500 2421 2501 2574
8 2573 2500 2574 2641 2502 2423 2503 2576
8 2574 2501 2575 2642 2503 2424 2504 2577
8 2576 2503 2577 2643 2505 2426 2506 2578
8 2597 2528 2579 2645 2529 2454 2508 2580
8 2580 2508 2579 2645 2525 2448 2522 2593
8 2581 2509 2455 2530 2646 2580 2529 2598
8 2581 2509 2580 2646 2526 2449 2525 2595
8 2583 2511 2582 2648 2513 2434 2512 2585
8 2583 2511 2439 2516 2648 2582 2517 2589
8 2649 2583 2513 2586 2588 2516 2438 2515
8 2589 2517 2444 2520 2653 2587 2521 2592
8 2518 2442 2520 2591 2588 2516 2589 2654
8 2593 2522 2590 2655 2523 2445 2521 2592
8 2524 2446 2523 2594 2591 2520 2592 2656
8 2595 2525 2593 2657 2527 2452 2523 2594
8 2602 2536 2596 2659 2534 2462 2528 2597
8 2600 2534 2597 2660 2532 2460 2529 2598
8 2600 2534 2460 2532 2661 2601 2533 2599
8 2604 2538 2601 2661 2537 2464 2533 2599
8 2602 2536 2462 2534 2663 2603 2535 2601
8 2601 2535 2465 2538 2663 2603 2539 2605
8 2607 2541 2605 2665 2540 2467 2538 2604
8 2608 2542 2606 2666 2541 2468 2539 2605
8 2543 2470 2544 2610 2607 2541 2608 2668
8 2544 2471 2545 2611 2608 2542 2609 2669
8 2546 2473 2547 2613 2610 2544 2611 2671
8 2547 2474 2548 2614 2611 2545 2612 2672
8 2549 2476 2550 2616 2613 2547 2614 2674
8 2550 2477 2551 2617 2614 2548 2615 2675
8 2552 2479 2553 2619 2616 2550 2617 2677
8 2553 2480 2554 2620 2617 2551 2618 2678
8 2557 2482 2556 2624 2619 2553 2620 2680
8 2556 2481 2555 2623 2620 2554 2621 2681
8 2559 2484 2558 2625 2623 2555 2622 2683
8 2560 2485 2559 2626 2624 2556 2623 2684
8 2562 2488 2561 2627 2626 2559 2625 2685
8 2690 2629 2564 2630 2650 2584 2512 2585
8 2586 2513 2585 2651 2632 2565 2630 2691
8 2630 2564 2631 2692 2565 2493 2566 2633
8 2632 2565 2633 2694 2567 2494 2568 2635
8 2633 2566 2634 2695 2568 2495 2569 2636
8 2635 2568 2636 2697 2570 2497 2571 2638
8 2636 2569 2637 2698 2571 2498 2572 2639
8 2638 2571 2639 2700 2573 2500 2574 2641
8 2639 2572 2640 2701 2574 2501 2575 2642
8 2641 2574 2642 2702 2576 2503 2577 2643
8 2597 2528 2596 2659 2645 2579 2644 2704
8 2645 2579 2644 2704 2593 2522 2590 2655
8 2660 2597 2645 2705 2598 2529 2580 2646
8 2646 2580 2645 2705 2595 2525 2593 2657
8 2650 2584 2512 2585 2707 2647 2582 2648
8 2648 2582 2517 2589 2707 2647 2587 2653
8 2649 2583 2648 2708 2586 2513 2585 2651
8 2649 2583 2516 2588 2708 2648 2589 2654
8 2655 2590 2652 2710 2592 2521 2587 2653
8 2654 2589 2520 2591 2711 2653 2592 2656
8 2657 2593 2655 2712 2594 2523 2592 2656
8 2602 2536 2603 2663 2659 2596 2658 2714
8 2662 2602 2659 2715 2600 2534 2597 2660
8 2662 2602 2534 2600 2717 2663 2601 2661
8 2661 2601 2538 2604 2717 2663 2605 2665
8 2666 2606 2664 2718 2605 2539 2603 2663
8 2668 2608 2666 2720 2607 2541 2605 2665
8 2608 2542 2609 2669 2666 2606 2667 2721
8 2610 2544 2611 2671 2668 2608 2669 2723
8 2611 2545 2612 2672 2669 2609 2670 2724
8 2613 2547 2614 2674 2671 2611 2672 2726
8 2614 2548 2615 2675 2672 2612 2673 2727
8 2616 2550 2617 2677 2674 2614 2675 2729
8 2617 2551 2618 2678 2675 2615 2676 2730
8 2619 2553 2620 2680 2677 2617 2678 2732
8 2620 2554 2621 2681 2678 2618 2679 2733
8 2624 2556 2623 2684 2680 2620 2681 2735
8 2681 2621 2555 2623 2736 2682 2622 2683
8 2626 2559 2625 2685 2684 2623 2683 2737
8 2688 2628 2584 2650 2740 2686 2647 2707
8 2688 2628 2687 2742 2650 2584 2629 2690
8 2690 2629 2689 2745 2630 2564 2631 2692
8 2746 2690 2630 2691 2709 2650 2585 2651
8 2691 2630 2692 2747 2632 2565 2633 2694
8 2692 2631 2693 2748 2633 2566 2634 2695
8 2694 2633 2695 2750 2635 2568 2636 2697
8 2695 2634 2696 2751 2636 2569 2637 2698
8 2697 2636 2698 2753 2638 2571 2639 2700
8 2698 2637 2699 2754 2639 2572 2640 2701
8 2700 2639 2701 2755 2641 2574 2642 2702
8 2659 2596 2658 2714 2704 2644 2703 2757
8 2704 2644 2703 2757 2655 2590 2652 2710
8 2660 2597 2659 2715 2705 2645 2704 2758
8 2705 2645 2704 2758 2657 2593 2655 2712
8 2759 2706 2647 2707 2710 2652 2587 2653
8 2709 2650 2585 2651 2760 2707 2648 2708
8 2708 2648 2589 2654 2760 2707 2653 2711
8 2712 2655 2710 2761 2656 2592 2653 2711
8 2763 2713 2658 2714 2718 2664 2603 2663
8 2662 2602 2663 2717 2715 2659 2714 2764
8 2720 2666 2718 2767 2665 2605 2663 2717
8 2768 2719 2664 2718 2721 2667 2606 2666
8 2668 2608 2669 2723 2720 2666 2721 2770
8 2669 2609 2670 2724 2721 2667 2722 2771
8 2671 2611 2672 2726 2723 2669 2724 2773
8 2672 2612 2673 2727 2724 2670 2725 2774
8 2674 2614 2675 2729 2726 2672 2727 2776
8 2675 2615 2676 2730 2727 2673 2728 2777
8 2677 2617 2678 2732 2729 2675 2730 2779
8 2678 2618 2679 2733 2730 2676 2731 2780
8 2680 2620 2681 2735 2732 2678 2733 2782
8 2733 2679 2621 2681 2783 2734 2682 2736
8 2735 2681 2623 2684 2784 2736 2683 2737
8 2740 2686 2647 2707 2787 2738 2706 2759
8 2688 2628 2686 2740 2742 2687 2739 2789
8 2743 2688 2650 2709 2790 2740 2707 2760
8 2742 2687 2741 2792 2690 2629 2689 2745
8 2743 2688 2742 2793 2709 2650 2690 2746
8 2745 2689 2744 2795 2692 2631 2693 2748
8 2746 2690 2745 2796 2691 2630 2692 2747
8 2747 2692 2748 2797 2694 2633 2695 2750
8 2748 2693 2749 2798 2695 2634 2696 2751
8 2750 2695 2751 2800 2697 2636 2698 2753
8 2751 2696 2752 2801 2698 2637 2699 2754
8 2753 2698 2754 2802 2700 2639 2701 2755
8 2763 2713 2756 2804 2714 2658 2703 2757
8 2759 2706 2652 2710 2804 2756 2703 2757
8 2715 2659 2714 2764 2758 2704 2757 2805
8 2758 2704 2757 2805 2712 2655 2710 2761
8 2806 2759 2707 2760 2761 2710 2653 2711
8 2765 2716 2762 2808 2718 2664 2713 2763
8 2809 2763 2714 2764 2767 2718 2663 2717
8 2765 2716 2664 2718 2811 2766 2719 2768
8 2813 2768 2718 2767 2770 2721 2666 2720
8 2814 2769 2719 2768 2771 2722 2667 2721
8 2723 2669 2724 2773 2770 2721 2771 2816
8 2724 2670 2725 2774 2771 2722 2772 2817
8 2726 2672 2727 2776 2773 2724 2774 2819
8 2727 2673 2728 2777 2774 2725 2775 2820
8 2729 2675 2730 2779 2776 2727 2777 2822
8 2730 2676 2731 2780 2777 2728 2778 2823
8 2732 2678 2733 2782 2779 2730 2780 2825
8 2780 2731 2679 2733 2826 2781 2734 2783
8 2782 2733 2681 2735 2827 2783 2736 2784
8 2830 2785 2738 2787 2804 2756 2706 2759
8 2789 2739 2686 2740 2832 2786 2738 2787
8 2790 2740 2707 2760 2833 2787 2759 2806
8 2742 2687 2739 2789 2792 2741 2788 2835
8 2743 2688 2740 2790 2793 2742 2789 2836
8 2792 2741 2791 2838 2745 2689 2744 2795
8 2793 2742 2792 2839 2746 2690 2745 2796
8 2795 2744 2794 2841 2748 2693 2749 2798
8 2796 2745 2795 2842 2747 2692 2748 2797
8 2797 2748 2798 2843 2750 2695 2751 2800
8 2798 2749 2799 2844 2751 2696 2752 2801
8 2800 2751 2801 2845 2753 2698 2754 2802
8 2808 2762 2803 2847 2763 2713 2756 2804
8 2809 2763 2804 2848 2764 2714 2757 2805
8 2806 2759 2710 2761 2848 2804 2757 2805
8 2765 2716 2766 2811 2808 2762 2807 2850
8 2810 2765 2808 2851 2767 2718 2763 2809
8 2810 2765 2718 2767 2852 2811 2768 2813
8 2811 2766 2719 2768 2853 2812 2769 2814
8 2855 2814 2768 2813 2816 2771 2721 2770
8 2856 2815 2769 2814 2817 2772 2722 2771
8 2773 2724 2774 2819 2816 2771 2817 2858
8 2774 2725 2775 2820 2817 2772 2818 2859
8 2776 2727 2777 2822 2819 2774 2820 2861
8 2777 2728 2778 2823 2820 2775 2821 2862
8 2779 2730 2780 2825 2822 2777 2823 2864
8 2823 2778 2731 2780 2865 2824 2781 2826
8 2825 2780 2733 2782 2866 2826 2783 2827
8 2869 2828 2785 2830 2847 2803 2756 2804
8 2871 2829 2786 2832 2830 2785 2738 2787
8 2872 2830 2787 2833 2848 2804 2759 2806
8 2789 2739 2786 2832 2835 2788 2831 2874
8 2836 2789 2740 2790 2875 2832 2787 2833
8 2792 2741 2788 2835 2838 2791 2834 2877
8 2793 2742 2789 2836 2839 2792 2835 2878
8 2838 2791 2837 2880 2795 2744 2794 2841
8 2839 2792 2838 2881 2796 2745 2795 2842
8 2841 2794 2840 2882 2798 2749 2799 2844
8 2842 2795 2841 2883 2797 2748 2798 2843
8 2843 2798 2844 2884 2800 2751 2801 2845
8 2886 2846 2803 2847 2850 2807 2762 2808
8 2851 2808 2847 2887 2809 2763 2804 2848
8 2850 2807 2766 2811 2889 2849 2812 2853
8 2810 2765 2811 2852 2851 2808 2850 2890
8 2852 2811 2768 2813 2891 2853 2814 2855
8 2853 2812 2769 2814 2892 2854 2815 2856
8 2894 2856 2814 2855 2858 2817 2771 2816
8 2817 2772 2818 2859 2856 2815 2857 2895
8 2819 2774 2820 2861 2858 2817 2859 2897
8 2820 2775 2821 2862 2859 2818 2860 2898
8 2822 2777 2823 2864 2861 2820 2862 2900
8 2823 2778 2824 2865 2862 2821 2863 2901
8 2864 2823 2780 2825 2902 2865 2826 2866
8 2904 2867 2828 2869 2886 2846 2803 2847
8 2869 2828 2868 2906 2830 2785 2829 2871
8 2907 2869 2830 2872 2887 2847 2804 2848
8 2871 2829 2870 2909 2832 2786 2831 2874
8 2910 2871 2832 2875 2872 2830 2787 2833
8 2835 2788 2831 2874 2877 2834 2873 2912
8 2836 2789 2832 2875 2878 2835 2874 2913
8 2877 2834 2876 2915 2838 2791 2837 2880
8 2839 2792 2835 2878 2881 2838 2877 2916
8 2880 2837 2879 2917 2841 2794 2840 2882
8 2881 2838 2880 2918 2842 2795 2841 2883
8 2883 2841 2882 2919 2843 2798 2844 2884
8 2921 2885 2846 2886 2889 2849 2807 2850
8 2922 2886 2847 2887 2890 2850 2808 2851
8 2889 2849 2812 2853 2924 2888 2854 2892
8 2890 2850 2811 2852 2925 2889 2853 2891
8 2891 2853 2814 2855 2926 2892 2856 2894
8 2892 2854 2815 2856 2927 2893 2857 2895
8 2858 2817 2859 2897 2894 2856 2895 2929
8 2859 2818 2860 2898 2895 2857 2896 2930
8 2861 2820 2862 2900 2897 2859 2898 2932
8 2862 2821 2863 2901 2898 2860 2899 2933
8 2864 2823 2865 2902 2900 2862 2901 2934
8 2904 2867 2846 2886 2936 2903 2885 2921
8 2904 2867 2903 2936 2869 2828 2868 2906
8 2937 2904 2869 2907 2922 2886 2847 2887
8 2906 2868 2905 2939 2871 2829 2870 2909
8 2907 2869 2906 2940 2872 2830 2871 2910
8 2909 2870 2908 2942 2874 2831 2873 2912
8 2910 2871 2909 2943 2875 2832 2874 2913
8 2912 2873 2911 2945 2877 2834 2876 2915
8 2878 2835 2874 2913 2916 2877 2912 2946
8 2915 2876 2914 2947 2880 2837 2879 2917
8 2916 2877 2915 2948 2881 2838 2880 2918
8 2918 2880 2917 2949 2883 2841 2882 2919
8 2921 2885 2849 2889 2951 2920 2888 2924
8 2952 2921 2886 2922 2925 2889 2850 2890
8 2924 2888 2854 2892 2954 2923 2893 2927
8 2925 2889 2853 2891 2955 2924 2892 2926
8 2926 2892 2856 2894 2956 2927 2895 2929
8 2895 2857 2896 2930 2927 2893 2928 2957
8 2897 2859 2898 2932 2929 2895 2930 2959
8 2898 2860 2899 2933 2930 2896 2931 2960
8 2900 2862 2901 2934 2932 2898 2933 2961
8 2936 2903 2885 2921 2963 2935 2920 2951
8 2936 2903 2935 2963 2906 2868 2905 2939
8 2937 2904 2886 2922 2964 2936 2921 2952
8 2937 2904 2936 2964 2907 2869 2906 2940
8 2939 2905 2938 2966 2909 2870 2908 2942
8 2940 2906 2939 2967 2910 2871 2909 2943
8 2942 2908 2941 2969 2912 2873 2911 2945
8 2943 2909 2942 2970 2913 2874 2912 2946
8 2945 2911 2944 2971 2915 2876 2914 2947
8 2946 2912 2945 2972 2916 2877 2915 2948
8 2948 2915 2947 2973 2918 2880 2917 2949
8 2951 2920 2888 2924 2975 2950 2923 2954
8 2952 2921 2889 2925 2976 2951 2924 2955
8 2927 2893 2928 2957 2954 2923 2953 2978
8 2955 2924 2892 2926 2979 2954 2927 2956
8 2929 2895 2930 2959 2956 2927 2957 2980
8 2930 2896 2931 2960 2957 2928 2958 2981
8 2932 2898 2933 2961 2959 2930 2960 2982
8 2951 2920 2950 2975 2963 2935 2962 2984
8 2963 2935 2962 2984 2939 2905 2938 2966
8 2964 2936 2921 2952 2985 2963 2951 2976
8 2964 2936 2963 2985 2940 2906 2939 2967
8 2966 2938 2965 2987 2942 2908 2941 2969
8 2967 2939 2966 2988 2943 2909 2942 2970
8 2969 2941 2968 2989 2945 2911 2944 2971
8 2970 2942 2969 2990 2946 2912 2945 2972
8 2972 2945 2971 2991 2948 2915 2947 2973
8 2954 2923 2953 2978 2975 2950 2974 2993
8 2976 2951 2924 2955 2994 2975 2954 2979
8 2957 2928 2958 2981 2978 2953 2977 2995
8 2956 2927 2957 2980 2979 2954 2978 2996
8 2959 2930 2960 2982 2980 2957 2981 2997
8 2984 2962 2983 2999 2966 2938 2965 2987
8 2975 2950 2974 2993 2984 2962 2983 2999
8 2976 2951 2975 2994 2985 2963 2984 3000
8 2985 2963 2984 3000 2967 2939 2966 2988
8 2987 2965 2986 3001 2969 2941 2968 2989
8 2988 2966 2987 3002 2970 2942 2969 2990
8 2990 2969 2989 3003 2972 2945 2971 2991
8 2978 2953 2977 2995 2993 2974 2992 3004
8 2979 2954 2978 2996 2994 2975 2993 3005
8 2980 2957 2981 2997 2996 2978 2995 3006
8 2974 2993 2999 2983 2992 3004 3007 2998
8 2983 2999 2987 2965 2998 3007 3001 2986
8 3000 2984 2999 3008 2988 2966 2987 3002
8 2994 2975 2993 3005 3000 2984 2999 3008
8 3002 2987 3001 3009 2990 2969 2989 3003
8 2996 2978 2995 3006 3005 2993 3004 3010
8 3005 2993 3004 3010 3008 2999 3007 3011
8 3008 2999 3007 3011 3002 2987 3001 3009

CELL_TYPES 1910
12
12
12
12
12
12
12
12
12
12
12
12
12
12
12
12
12
12
12
12
12
12
12
12
12
12
12
12
12
12
12
12
12
12
12
12
12
12
12
12
12
12
12
12
12
12
12
12
12
12
12
12
12
12
12
12
12
12
12
12
12
12
12
12
12
12
12
12
12
12
12
12
12
12
12
12
12
12
12
12
12
12
12
12
12
12
12
12
12
12
12
12
12
12
12
12
12
12
12
12
12
12
12
12
12
12
12
12
12
12
12
12
12
12
12
12
12
12
12
12
12
12
12
12
12
12
12
12
12
12
12
12
12
12
12
12
12
12
12
12
12
12
12
12
12
12
12
12
12
12
12
12
12
12
12
12
12
12
12
12
12
12
12
12
12
12
12
12
12
12
12
12
12
12
12
12
12
12
12
12
12
12
12
12
12
12
12
12
12
12
12
12
12
12
12
12
12
12
12
12
12
12
12
12
12
12
12
12
12
12
12
12
12
12
12
12
12
12
12
12
12
12
12
12
12
12
12
12
12
12
12
12
12
12
12
12
12
12
12
12
12
12
12
12
12
12
12
12
12
12
12
12
12
12
12
12
12
12
12
12
12
12
12
12
12
12
12
12
12
12
12
12
12
12
12
12
12
12
12
12
12
12
12
12
12
12
12
12
12
12
12
12
12
12
12
12
12
12
12
12
12
12
12
12
12
12
12
12
12
12
12
12
12
12
12
12
12
12
12
12
12
12
12
12
12
12
12
12
12
12
12
12
12
12
12
12
12
12
12
12
12
12
12
12
12
12
12
12
12
12
12
12
12
12
12
12
12
12
12
12
12
12
12
12
12
12
12
12
12
12
12
12
12
12
12
12
12
12
12
12
12
12
12
12
12
12
12
12
12
12
12
12
12
12
12
12
12
12
12
12
12
12
12
12
12
12
12
12
12
12
12
12
12
12
12
12
12
12
12
12
12
12
12
12
12
12
12
12
12
12
12
12
12
12
12
12
12
12
12
12
12
12
12
12
12
12
12
12
12
12
12
12
12
12
12
12
12
12
12
12
12
12
12
12
12
12
12
12
12
12
12
12
12
12
12
12
12
12
12
12
12
12
12
12
12
12
12
12
12
12
12
12
12
12
12
12
12
12
12
12
12
12
12
12
12
12
12
12
12
12
12
12
12
12
12
12
12
12
12
12
12
12
12
12
12
12
12
12
12
12
12
12
12
12
12
12
12
12
12
12
12
12
12
12
12
12
12
12
12
12
12
12
12
12
12
12
12
12
12
12
12
12
12
12
12
12
12
12
12
12
12
12
12
12
12
12
12
12
12
12
12
12
12
12
12
12
12
12
12
12
12
12
12
12
12
12
12
12
12
12
12
12
12
12
12
12
12
12
12
12
12
12
12
12
12
12
12
12
12
12
12
12
12
12
12
12
12
12
12
12
12
12
12
12
12
12
12
12
12
12
12
12
12
12
12
12
12
12
12
12
12
12
12
12
12
12
12
12
12
12
12
12
12
12
12
12
12
12
12
12
12
12
12
12
12
12
12
12
12
12
12
12
12
12
12
12
12
12
12
12
12
12
12
12
12
12
12
12
12
12
12
12
12
12
12
12
12
12
12
12
12
12
12
12
12
12
12
12
12
12
12
12
12
12
12
12
12
12
12
12
12
12
12
12
12
12
12
12
12
12
12
12
12
12
12
12
12
12
12
12
12
12
12
12
12
12
12
12
12
12
12
12
12
12
12
12
12
12
12
12
12
12
12
12
12
12
12
12
12
12
12
12
12
12
12
12
12
12
12
12
12
12
12
12
12
12
12
12
12
12
12
12
12
12
12
12
12
12
12
12
12
12
12
12
12
12
12
12
12
12
12
12
12
12
12
12
12
12
12
12
12
12
12
12
12
12
12
12
12
12
12
12
12
12
12
12
12
12
12
12
12
12
12
12
12
12
12
12
12
12
12
12
12
12
12
12
12
12
12
12
12
12
12
12
12
12
12
12
12
12
12
12
12
12
12
12
12
12
12
12
12
12
12
12
12
12
12
12
12
12
12
12
12
12
12
12
12
12
12
12
12
12
12
12
12
12
12
12
12
12
12
12
12
12
12
12
12
12
12
12
12
12
12
12
12
12
12
12
12
12
12
12
12
12
12
12
12
12
12
12
12
12
12
12
12
12
12
12
12
12
12
12
12
12
12
12
12
12
12
12
12
12
12
12
12
12
12
12
12
12
12
12
12
12
12
12
12
12
12
12
12
12
12
12
12
12
12
12
12
12
12
12
12
12
12
12
12
12
12
12
12
12
12
12
12
12
12
12
12
12
12
12
12
12
12
12
12
12
12
12
12
12
12
12
12
12
12
12
12
12
12
12
12
12
12
12
12
12
12
12
12
12
12
12
12
12
12
12
12
12
12
12
12
12
12
12
12
12
12
12
12
12
12
12
12
12
12
12
12
12
12
12
12
12
12
12
12
12
12
12
12
12
12
12
12
12
12
12
12
12
12
12
12
12
12
12
12
12
12
12
12
12
12
12
12
12
12
12
12
12
12
12
12
12
12
12
12
12
12
12
12
12
12
12
12
12
12
12
12
12
12
12
12
12
12
12
12
12
12
12
12
12
12
12
12
12
12
12
12
12
12
12
12
12
12
12
12
12
12
12
12
12
12
12
12
12
12
12
12
12
12
12
12
12
12
12
12
12
12
12
12
12
12
12
12
12
12
12
12
12
12
12
12
12
12
12
12
12
12
12
12
12
12
12
12
12
12
12
12
12
12
12
12
12
12
12
12
12
12
12
12
12
12
12
12
12
12
12
12
12
12
12
12
12
12
12
12
12
12
12
12
12
12
12
12
12
12
12
12
12
12
12
12
12
12
12
12
12
12
12
12
12
12
12
12
12
12
12
12
12
12
12
12
12
12
12
12
12
12
12
12
12
12
12
12
12
12
12
12
12
12
12
12
12
12
12
12
12
12
12
12
12
12
12
12
12
12
12
12
12
12
12
12
12
12
12
12
12
12
12
12
12
12
12
12
12
12
12
12
12
12
12
12
12
12
12
12
12
12
12
12
12
12
12
12
12
12
12
12
12
12
12
12
12
12
12
12
12
12
12
12
12
12
12
12
12
12
12
12
12
12
12
12
12
12
12
12
12
12
12
12
12
12
12
12
12
12
12
12
12
12
12
12
12
12
12
12
12
12
12
12
12
12
12
12
12
12
12
12
12
12
12
12
12
12
12
12
12
12
12
12
12
12
12
12
12
12
12
12
12
12
12
12
12
12
12
12
12
12
12
12
12
12
12
12
12
12
12
12
12
12
12
12
12
12
12
12
12
12
12
12
12
12
12
12
12
12
12
12
12
12
12
12
12
12
12
12
12
12
12
12
12
12
12
12
12
12
12
12
12
12
12
12
12
12
12
12
12
12
12
12
12
12
12
12
12
12
12
12
12
12
12
12
12
12
12
12
12
12
12
12
12
12
12
12
12
12
12
12
12
12
12
12
12
12
12
12
12
12
12
12
12
12
12
12
12
12
12
12
12
12
12
12
12
12
12
12
12
12
12
12
12
12
12
12
12
12
12
12
12
12
12
12
12
12
12
12
12
12
12
12
12
12
12
12
12
12
12
12
12
12
12
12
12
12
12
12
12
12
12
12
12
12
12
12
12
12
12
12
12
12
12
12
12
12
12
12
12
12
12
12
12
12
12
12
12
12
12
12
12
12
12
12
12
12
12
12
12
12
12
12
12
12
12
12
12
12
12
12
12
12
12
12
12
12
12
12
12
12
12
12
12
12
12
12
12
12
12
12
12
12
12
12
12
12
12
12
12
12
12
12
12
12
12
12
12
12
12
12
12
12
12
12
12
12
12
12
12
12
12
12
12
12
12
12
12
12
12
12
12
12
12
12
12
12
12
12
12
12
12
12
12
12
12
12
12
12
12
12
12
12
12
12
12
12
12
12
12
12
12
12
12
12
12
12
12
12
12
12
12
12
12
12
12
12
12
12
12
12
12
12
12
12
12
12
12
12
12
12
12
12
12
12
12
12
12
12
12
12
12
12
12
12
12
12
12
12
12
12
12
12
12
12
12
12
12
12
12
12
12
12
12
12
12
12
12
12
12
12
12
12
12
12
12
12
12
12
12
12
12
12
12
12
12
12
12
12
12
12
12
12
12
12
12
12
12
12
12
12
12
12
12
12
12
12
12
12
12
12
12
12
12
12
12
12
12
12
12
12
12
12
12
12
12
12
12
12
12
12
12
12
12
12
12
12
12
12
12
12
12
12
12
12
12
12
12
12
12
12
12
12
12
12
12
12
12
12
12
12
12

POINT_DATA 3012
SCALARS Jp_lamdaP float 4
LOOKUP_TABLE default
0.999879 1 1 0.999879
1 1 1 1
0.999883 1 1 0.999883
0.99984 1 1 0.99984
0.999878 1 1 0.999878
0.999876 1 1 0.999876
0.999396 1 1 0.999396
1 1 1 1
1 1 1 1
1 1 1 1
0.99995 1 1 0.99995
0.999561 1 1 0.999561
0.9998 1 1 0.9998
0.99983 1 1 0.99983
0.999883 1 1 0.999883
0.999853 1 1 0.999853
0.99988 1 1 0.99988
0.999885 1 1 0.999885
0.999399 1 1 0.999399
1 1 1 1
0.999821 1 1 0.999821
0.999862 1 1 0.999862
0.999269 1 1 0.999269
0.999364 1 1 0.999364
0.999898 1 1 0.999898
0.999432 1 1 0.999432
0.998629 1 1 0.998629
1 1 1 1
0.999928 1 1 0.999928
0.999942 1 1 0.999942
1 1 1 1
0.999569 1 1 0.999569
0.999852 1 1 0.999852
0.999875 1 1 0.999875
0.999472 1 1 0.999472
1 1 1 1
0.999562 1 1 0.999562
0.999656 1 1 0.999656
0.998686 1 1 0.998686
1 1 1 1
1 1 1 1
0.999913 1 1 0.999913
1 1 1 1
0.999821 1 1 0.999821
0.999199 1 1 0.999199
1 1 1 1
0.999381 1 1 0.999381
0.999865 1 1 0.999865
0.99989 1 1 0.99989
0.999882 1 1 0.999882
0.999404 1 1 0.999404
0.999898 1 1 0.999898
0.999835 1 1 0.999835
0.999907 1 1 0.999907
0.999873 1 1 0.999873
0.999269 1 1 0.999269
0.999436 1 1 0.999436
0.999367 1 1 0.999367
0.998617 1 1 0.998614
1 1 1 1
0.999808 1 1 0.999808
0.99935 1 1 0.99935
0.999234 1 1 0.999234
0.999317 1 1 0.999317
0.998989 1.00066 1 0.998332
0.998499 1.00003 1 0.998467
0.999948 1 1 0.999948
0.999547 1 1 0.999547
0.998734 1 1 0.998734
1.00191 1.00399 1 0.99793
1 1 1 1
1 1 1 1
1 1 1 1
0.999578 1 1 0.999578
1 1 1 1
1 1 1 1
0.999404 1 1 0.999404
0.99999 1 1 0.99999
0.999512 1 1 0.999512
0.999699 1 1 0.999699
0.998683 1 1 0.998683
1 1 1 1
0.999966 1 1 0.999966
0.999347 1 1 0.999347
0.999442 1 1 0.999442
0.998899 1.00063 1 0.998271
0.99982 1 1 0.99982
0.998584 1 1 0.998584
0.998819 1 1 0.998819
0.998238 1.00007 1 0.998173
1 1 1 1
1 1 1 1
1 1 1 1
1 1 1 1
1 1 1 1
0.999907 1 1 0.999907
0.999271 1 1 0.999271
0.999918 1 1 0.999918
0.999342 1 1 0.999342
1 1 1 1
0.999182 1 1 0.999182
0.999352 1 1 0.999352
0.998936 1.00097 1 0.997967
0.999415 1 1 0.999415
0.999829 1.00177 1 0.998059
0.999817 1 1 0.999817
0.999847 1 1 0.999847
0.999915 1 1 0.999915
0.999883 1 1 0.999883
0.999271 1 1 0.999271
0.999372 1 1 0.999372
0.999442 1 1 0.999442
0.998607 1.00001 1 0.998599
1 1 1 1
0.999821 1 1 0.999821
0.999208 1 1 0.999208
0.999233 1 1 0.999233
0.999974 1 1 0.999974
0.999596 1 1 0.999596
0.999319 1 1 0.999319
0.998968 1.00068 1 0.998293
0.998716 1 1 0.998716
0.998547 1.00005 1 0.998495
1.00233 1.0044 1 0.997934
0.999204 1 1 0.999204
0.99921 1 1 0.99921
0.998697 1.00058 1 0.99812
0.999029 1.00081 1 0.998218
0.998735 1.00039 1 0.99835
1.00743 1.00974 1 0.997713
1 1 1 1
1.00336 1.00552 1 0.997857
0.99976 1 1 0.99976
0.998782 1 1 0.998782
1.00099 1.00299 1 0.998002
1.0106 1.01295 1 0.997687
0.999901 1 1 0.999901
0.999334 1 1.00006 0.999273
1 1 1 1
1 1 1 1
0.999411 1 1 0.999411
1 1 1 1
0.999704 1 1 0.999704
0.999516 1 1 0.999516
0.99868 1 1 0.99868
1 1 1 1
0.999976 1 1 0.999976
0.999398 1 1 0.999398
0.999489 1 1 0.999489
0.998736 1.00046 1 0.998273
0.999837 1 1 0.999837
0.998587 1 1 0.998587
0.998818 1 1 0.998818
0.998393 1.00024 1 0.998157
0.999909 1 1 0.999909
0.999994 1 1 0.999994
0.999444 1 1 0.999444
0.99941 1.00125 1 0.998159
0.998572 1.00014 1 0.998431
1.00536 1.00765 1 0.997726
0.999019 1 1 0.999019
0.999876 1.00182 1 0.998059
0.998917 1.00008 1.00057 0.998267
0.99969 1.00169 1 0.997999
1 1 1 1
1 1 1 1
1 1 1 1
0.999942 1 1 0.999942
1 1 1 1
1 1 1 1
1 1 1 1
0.999301 1 1 0.999301
0.999224 1 1 0.999224
1 1 1 1
1 1 1 1
0.999184 1 1 0.999184
0.999313 1 1 0.999313
0.999109 1.00114 1 0.997967
0.999329 1 1 0.999329
0.999801 1.00175 1 0.998059
0.999174 1 1 0.999174
0.998443 1.00053 1 0.997916
0.999486 1.00147 1 0.998022
1.0107 1.01323 1 0.997503
0.999735 1.00164 1 0.998095
1.01066 1.01311 1 0.997582
1 1 1 1
0.999835 1 1 0.999835
0.999054 1 1 0.999054
0.999233 1 1 0.999233
1 1 1 1
0.999646 1 1 0.999646
0.999323 1 1 0.999323
0.998947 1.00069 1 0.998254
0.998594 1.00007 1 0.998522
0.998697 1 1 0.998697
1.00274 1.00481 1 0.997938
0.999201 1 1 0.999201
0.999208 1 1 0.999208
0.998575 1.00054 1 0.998034
0.999066 1.00082 1 0.998245
1 1 1 1
0.999753 1 1 0.999753
0.998828 1 1 0.998828
0.998724 1.00037 1 0.99835
1.00738 1.00973 1 0.997674
1.00105 1.00307 1 0.997991
1.00383 1.00595 1 0.997885
1.01016 1.01249 1 0.997692
0.999891 1 1 0.999891
0.999355 1 1.00008 0.999274
0.998319 1.00038 1 0.997936
0.998966 1.00079 1 0.998174
1.00868 1.01111 1 0.9976
1.00798 1.01041 1 0.997594
1.00502 1.00723 1 0.997807
1.01832 1.0208 1 0.997576
0.999842 1 1 0.999842
1.01252 1.01489 1 0.997663
0.998937 1 1 0.998937
0.998974 1.00084 1 0.998138
1.00852 1.01081 1 0.997738
1.01475 1.01712 1 0.997679
0.999142 1 1 0.999142
0.999444 1 1 0.999444
0.999525 1 1.00077 0.998755
0.999365 1 1 0.999365
1 1 1 1
0.999987 1 1 0.999987
0.999468 1 1 0.999468
0.998558 1.00028 1 0.998276
0.999848 1 1 0.999848
0.998818 1 1 0.998818
0.99859 1 1 0.99859
0.998557 1.00042 1 0.998141
0.999926 1 1 0.999926
0.999997 1 1 0.999997
0.999446 1 1 0.999446
0.999237 1.00108 1 0.998159
0.998512 1.00008 1 0.998436
1.00484 1.00714 1 0.997724
0.999022 1 1 0.999022
0.99946 1.00139 1 0.998069
0.998975 1.00024 1.00047 0.998262
0.999736 1.00175 1 0.997986
1 1 1 1
0.999224 1 1 0.999224
0.999655 1 1 0.999655
0.999374 1 1.00045 0.998925
1.00764 1.01003 1 0.997636
1.00286 1.00498 1 0.997898
1.01375 1.01627 1 0.997525
0.998931 1 1.00044 0.998494
1.00322 1.00535 1 0.997881
1.00109 1.00156 1.00158 0.99796
1.00465 1.0068 1 0.997856
0.999883 1 1 0.999883
1 1 1 1
1 1 1 1
1 1 1 1
1 1 1 1
0.999972 1 1 0.999972
1 1 1 1
0.999932 1 1 0.999932
1 1 1 1
0.99933 1 1 0.99933
0.999267 1 1 0.999267
0.999829 1.00177 1 0.998058
0.999277 1.00131 1 0.997967
0.999186 1 1 0.999186
1 1 1 1
0.999174 1 1 0.999174
0.998568 1.00065 1 0.997916
0.999616 1.0016 1 0.998022
1.01058 1.01312 1 0.997501
0.999667 1.00158 1 0.998095
1.01067 1.01312 1 0.997581
0.998219 1.00031 1 0.997907
1.00989 1.01247 1 0.997455
1.0111 1.01359 1 0.997549
1.02437 1.02694 1 0.997498
1.00975 1.01218 1 0.997602
1.02277 1.0253 1 0.99753
0.999198 1 1 0.999198
0.999207 1 1 0.999207
0.99846 1.00051 1 0.997949
0.999102 1.00083 1 0.998273
1 1 1 1
0.999745 1 1 0.999745
0.998873 1 1 0.998873
0.998712 1.00036 1 0.998349
1.00732 1.00971 1 0.997636
1.00427 1.00637 1 0.997914
1.0011 1.00312 1 0.99798
1.00978 1.01211 1 0.997698
0.999882 1 1 0.999882
0.999438 1 1.00016 0.999275
0.998263 1.00035 1 0.997911
0.998934 1.00076 1 0.998171
1.00891 1.01134 1 0.997594
1.00815 1.01055 1 0.997631
0.999832 1 1 0.999832
0.998934 1 1 0.998934
0.999204 1.00103 1 0.998172
1.00529 1.0075 1 0.997806
1.01866 1.02113 1 0.997582
1.00786 1.01018 1 0.997705
1.01241 1.01478 1 0.997666
1.01506 1.01742 1 0.997678
0.999175 1 1.00003 0.999144
0.999596 1 1.00084 0.998757
0.999523 1 1.00008 0.999441
1.00904 1.01153 1 0.997543
1.00905 1.01146 1 0.997624
1.02233 1.0249 1 0.997491
1.02067 1.02321 1 0.997522
1.01472 1.01713 1 0.997633
1.02154 1.0239 1 0.9977
0.999059 1 1 0.999059
1.01682 1.01916 1 0.9977
0.998481 1.00004 1 0.998443
1.0014 1.00366 1 0.997757
1.01199 1.01445 1 0.99757
1.01525 1.01748 1 0.997811
0.999588 1 1 0.999588
0.998734 1 1 0.998734
0.999912 1 1.00107 0.998838
0.999291 1 1.0007 0.99859
0.999071 1.00091 1 0.998159
0.999999 1 1 0.999999
0.999942 1 1 0.999942
0.999449 1 1 0.999449
0.998461 1.00002 1 0.998441
1.00432 1.00662 1 0.997722
0.999024 1 1 0.999024
0.99898 1.00039 1.00033 0.998258
0.999005 1.00093 1 0.99808
0.999748 1.00178 1 0.997972
1 1 1 1
0.999224 1 1 0.999224
0.999662 1 1 0.999662
0.999357 1 1.00044 0.998921
1.00738 1.00977 1 0.997633
1.00193 1.00404 1 0.997899
1.01385 1.01637 1 0.997523
0.998948 1 1.00045 0.998499
1.00291 1.00502 1 0.997895
1.0013 1.00163 1.00173 0.997949
1.00454 1.00663 1 0.997923
1 1 1 1
0.999784 1 1 0.999784
0.998788 1 1.00006 0.998731
0.999569 1 1.00043 0.999137
0.999607 1 1.00095 0.998654
1.01706 1.01962 1 0.99749
1.00858 1.01092 1 0.997685
1.01474 1.01726 1 0.997526
1.0002 1.00007 1.00199 0.998141
1.0058 1.00801 1 0.997806
1.00369 1.00516 1.00086 0.997683
0.999867 1 1 0.999867
0.999519 1 1 0.999519
0.999893 1 1 0.999893
0.999885 1 1 0.999885
1 1 1 1
1 1 1 1
1 1 1 1
1 1 1 1
1 1 1 1
0.999992 1 1 0.999992
1 1 1 1
0.999964 1 1 0.999964
1 1 1 1
0.999922 1 1 0.999922
1 1 1 1
0.99958 1.00149 1 0.998094
0.999698 1.00168 1 0.998022
1.01057 1.01302 1 0.99758
1.01044 1.01297 1 0.9975
0.998718 1.0008 1 0.997916
0.999173 1 1 0.999173
0.998271 1.00037 1 0.997907
1.00988 1.01245 1 0.997455
1.01084 1.01332 1 0.997548
1.0246 1.02716 1 0.997507
1.00946 1.01189 1 0.9976
1.02226 1.02479 1 0.997529
1.00945 1.01203 1 0.997445
1.02396 1.02654 1 0.997481
1.02445 1.027 1 0.997518
1.0294 1.03184 1 0.997631
1.01933 1.02187 1 0.997516
1.02381 1.02614 1 0.997728
0.998219 1.00033 1 0.997887
0.998905 1.00074 1 0.998169
1.00911 1.01155 1 0.997589
1.00833 1.01068 1 0.997669
0.999822 1 1 0.999822
0.998931 1 1 0.998931
0.999452 1.00125 1 0.998205
1.00556 1.00778 1 0.997805
1.019 1.02147 1 0.997588
1.01231 1.01468 1 0.997669
1.00711 1.00947 1 0.997671
1.01534 1.01771 1 0.997678
0.999147 1 1 0.999147
0.999605 1 1.00085 0.998758
0.9996 1 1.00016 0.999438
1.00918 1.0117 1 0.997508
1.00911 1.01151 1 0.997622
1.02203 1.0246 1 0.9975
1.02097 1.0235 1 0.997526
0.999058 1 1 0.999058
0.998689 1.00025 1 0.998436
1.00131 1.00348 1.00003 0.997807
1.01487 1.01727 1 0.997635
1.02088 1.0232 1 0.997731
1.01209 1.01459 1 0.997539
1.01685 1.01919 1 0.997703
1.01469 1.01689 1 0.997833
0.998747 1 1.00001 0.998736
0.999295 1 1.00072 0.998572
0.999583 1 1 0.999583
0.999926 1 1.00107 0.998862
1.02258 1.02519 1 0.997452
1.02281 1.02535 1 0.997525
1.02612 1.02864 1 0.997558
1.02337 1.02575 0.999967 0.997706
1.01894 1.02125 1 0.997735
1.02054 1.02273 1 0.997866
0.998653 1 1 0.998653
1.01535 1.01746 1 0.997926
0.998369 1.00027 1 0.998096
1.00579 1.00811 1.00018 0.997521
1.01414 1.01669 1 0.997499
1.01383 1.016 1 0.997864
0.99968 1 1 0.99968
0.999212 1 1.00021 0.999007
0.998566 1 1 0.998566
1.00022 1 1.0016 0.998624
0.998931 1 1.00039 0.99854
1 1 1 1
1.00706 1.00945 1 0.997629
0.999669 1 1 0.999669
0.999224 1 1 0.999224
0.999445 1 1.00053 0.998917
1.00106 1.00317 1 0.997901
1.014 1.01652 1 0.997521
0.999009 1 1.00051 0.998503
1.00168 1.00182 1.00193 0.997937
1.00273 1.00483 1 0.997909
1.00457 1.0066 1 0.99799
1 1 1 1
0.99979 1 1 0.99979
0.998845 1 1.00011 0.998732
0.999513 1 1.00038 0.999138
0.999932 1 1.0013 0.998633
1.01729 1.01986 1 0.997486
1.00865 1.01099 1 0.997685
1.01473 1.01726 1 0.997517
1.00033 1.00006 1.00213 0.998146
1.00771 1.00991 1 0.997819
1.00311 1.00445 1.00096 0.997703
0.99984 1 1 0.99984
0.999323 1 1 0.999323
0.998902 1 1.00048 0.998426
1.00023 1 1.00141 0.998821
0.999633 1 1.00112 0.99851
1.01795 1.02045 1 0.997552
1.01033 1.01272 1 0.997642
1.01343 1.01578 1 0.997686
1.00169 1 1.00379 0.997901
1.00454 1.007 1 0.997558
0.99987 1 1 0.99987
0.999453 1 1 0.999453
0.999498 1 1 0.999498
0.999298 1 1 0.999298
0.999527 1 1 0.999527
0.999896 1 1 0.999896
0.999894 1 1 0.999894
1 1 1 1
0.999887 1 1 0.999887
1 1 1 1
1 1 1 1
1 1 1 1
1 1 1 1
1 1 1 1
0.999999 1 1 0.999999
0.999986 1 1 0.999986
1 1 1 1
1 1 1 1
0.999956 1 1 0.999956
1 1 1 1
1.00923 1.01166 1 0.997598
1.01069 1.01318 1 0.997548
1.02181 1.02434 1 0.997528
1.02487 1.02742 1 0.997516
1.00985 1.01243 1 0.997456
0.9983 1.00039 1 0.997907
1.00939 1.01197 1 0.997445
1.02387 1.02646 1 0.997475
1.02435 1.0269 1 0.997518
1.0285 1.03114 0.999786 0.997655
1.01975 1.02229 1 0.997511
1.02412 1.02643 1 0.997743
1.02314 1.02576 1 0.997449
1.02757 1.03042 0.999643 0.99759
1.02694 1.02929 1 0.997721
1.02749 1.03061 0.999209 0.997766
1.02151 1.02391 1 0.99766
1.02466 1.02692 0.999896 0.997904
1.00932 1.01188 1 0.997473
1.00915 1.01155 1 0.997621
1.02176 1.02431 1 0.997509
1.02128 1.02381 1 0.997529
0.999057 1 1 0.999057
0.998903 1.00047 1 0.99843
1.00145 1.00342 1.00018 0.997857
1.01502 1.01742 1 0.997637
1.02018 1.02247 1 0.997762
1.01685 1.01919 1 0.997706
1.01223 1.01475 1 0.997509
1.01407 1.01625 1 0.997855
0.998793 1 1.00005 0.998739
0.999274 1 1.00072 0.998554
0.999579 1 1 0.999579
0.999821 1 1.00094 0.998886
1.02256 1.02517 1 0.997452
1.02244 1.02499 1 0.997512
1.02603 1.02853 1 0.997576
1.02291 1.02529 0.99999 0.997692
0.998648 1 1 0.998648
0.998552 1.00038 1.00003 0.99814
1.00601 1.00812 1.00039 0.997514
1.01866 1.021 1 0.997709
1.0206 1.02274 1 0.997913
1.01365 1.01621 1 0.997487
1.01537 1.01748 1 0.997929
1.01509 1.01722 1 0.997905
0.998564 1 1 0.998564
0.998723 1 1.00018 0.998542
1.00065 1 1.00204 0.998618
0.999648 1 1 0.999648
0.999108 1 1.00008 0.999029
1.02687 1.02968 0.999707 0.997568
1.02663 1.02913 0.999944 0.997626
1.02164 1.0243 0.999517 0.997887
1.01796 1.02006 1 0.997944
0.998443 1 1 0.998443
1.01769 1.01966 1 0.99807
0.998219 1.00005 1.00029 0.997881
1.00832 1.01054 1.00051 0.997287
1.01352 1.0161 1 0.997465
0.999702 1 1 0.999702
0.999218 1 1 0.999218
0.999495 1 1.0007 0.998794
0.998525 1 1 0.998525
1.00122 1 1.00278 0.998453
0.998481 1 1 0.998481
1 1 1 1
0.999796 1 1 0.999796
1.01757 1.02014 1 0.997481
0.999418 1 1.00028 0.999138
0.998835 1 1.0001 0.998733
1.00037 1 1.00176 0.998611
1.00852 1.01086 1 0.997685
1.01457 1.0171 1 0.997508
1.00043 1 1.00229 0.99815
1.00213 1.00364 1.00077 0.997723
1.00936 1.01155 1 0.997833
0.999845 1 1 0.999845
0.999326 1 1 0.999326
0.998845 1 1.00041 0.998432
1.00054 1 1.00173 0.998818
0.999813 1 1.00131 0.998501
1.01799 1.02049 1 0.997547
1.01086 1.01326 1 0.997633
1.0133 1.01562 1 0.99771
1.00111 1 1.00324 0.997875
1.00374 1.00617 1.00006 0.997528
0.999434 1 1 0.999434
0.99953 1 1.00057 0.998965
1.00025 1 1.002 0.998258
1.00098 1 1.00243 0.998554
0.999387 1 1.001 0.998394
1.01951 1.02163 1 0.997925
1.00956 1.01203 1 0.997556
1.01099 1.01329 1 0.997734
1.00335 1.00131 1.00433 0.997714
1.00057 1.00326 1 0.997325
0.999873 1 1 0.999873
0.99947 1 1 0.99947
0.999209 1 1 0.999209
0.999478 1 1 0.999478
0.999527 1 1 0.999527
0.999269 1 1 0.999269
0.999126 1 1 0.999126
0.999246 1 1 0.999246
0.999531 1 1 0.999531
0.999893 1 1 0.999893
0.999896 1 1 0.999896
1 1 1 1
0.999896 1 1 0.999896
1 1 1 1
1 1 1 1
1 1 1 1
1 1 1 1
1 1 1 1
1 1 1 1
0.999998 1 1 0.999998
1 1 1 1
0.999981 1 1 0.999981
1 1 1 1
1 1 1 1
1.02011 1.02266 1 0.997507
1.0242 1.02675 1 0.997517
1.02443 1.02673 1 0.997758
1.02758 1.03045 0.999528 0.99768
1.02376 1.02636 1 0.997468
1.00934 1.01193 1 0.997446
1.02339 1.02602 1 0.997435
1.02792 1.03062 0.999802 0.997582
1.02668 1.02905 1 0.9977
1.02703 1.03037 0.998976 0.99778
1.02091 1.0233 1 0.99766
1.0241 1.02631 0.999907 0.99794
1.02716 1.02968 1 0.997551
1.02774 1.03228 0.997838 0.997755
1.02628 1.02937 0.999105 0.997886
1.0223 1.02434 1 0.998001
1.02251 1.02513 1 0.997453
1.02206 1.02462 1 0.9975
1.02592 1.02839 1 0.997594
1.02249 1.02487 1 0.997677
0.998643 1 1 0.998643
0.998493 1.00031 1 0.998185
1.00614 1.00807 1.00058 0.997507
1.01835 1.02072 1 0.997682
1.02068 1.02276 1 0.997961
1.01545 1.01755 1 0.997931
1.01323 1.0158 1 0.997475
1.01623 1.01833 1 0.997945
0.998563 1 1 0.998563
0.998544 1 1 0.998544
1.00141 1 1.0028 0.998612
0.999616 1 1 0.999616
0.999051 1 1 0.999051
1.02693 1.02957 0.999861 0.997571
1.02685 1.02932 0.99997 0.997629
1.02151 1.02411 0.999579 0.997878
0.998437 1 1 0.998437
0.999025 1.00085 1.00026 0.997922
1.00786 1.00984 1.00076 0.997277
1.0185 1.02061 1 0.997933
1.01319 1.01569 1 0.997532
1.01654 1.01852 0.999997 0.998052
0.999713 1 1 0.999713
0.998519 1 1 0.998519
0.998539 1 1 0.998539
1.00107 1 1.00263 0.998439
0.999398 1 1.00059 0.998804
0.999192 1 1 0.999192
1.02742 1.03077 0.999104 0.997647
1.02571 1.03057 0.997474 0.997797
1.01937 1.02302 0.998459 0.997975
1.0229 1.02527 0.999566 0.998122
0.998305 1 1 0.998305
1.01455 1.01681 1 0.997777
1.00073 1.00161 1.00165 0.997475
1.00559 1.00742 1.00104 0.997145
0.999797 1 1 0.999797
0.999343 1 1 0.999343
0.998948 1 1 0.998948
1.00132 1 1.0028 0.998526
0.998436 1 1 0.998436
0.999742 1 1.0014 0.998347
0.999849 1 1 0.999849
0.999329 1 1 0.999329
1.01815 1.02066 1 0.997541
1.0006 1 1.00178 0.998815
0.998707 1 1.00027 0.998438
0.999902 1 1.00141 0.998492
1.01162 1.01403 1 0.997624
1.01339 1.01569 1 0.997733
1.00058 1 1.00273 0.997849
1.00309 1.00534 1.00027 0.997497
0.999436 1 1 0.999436
0.999277 1 1.0003 0.998974
1.00025 1 1.00198 0.998275
1.00124 1 1.00269 0.998558
0.998926 1 1.00048 0.998451
1.01963 1.02172 1 0.997954
1.00909 1.01156 1 0.997559
1.0122 1.01442 1 0.997809
1.00304 1.00079 1.00458 0.997683
1.00134 1.00404 1.00003 0.997281
0.999143 1 1 0.999143
0.999926 1 1.00127 0.99866
1.00191 1.00002 1.00378 0.998112
0.999835 1 1.00155 0.998285
1.0223 1.02861 0.995713 0.998146
1.01594 1.01808 0.999872 0.998036
1.00586 1.00851 1 0.997368
1.00306 1.00148 1.00426 0.997335
0.999486 1 1 0.999486
0.999221 1 1 0.999221
0.999076 1 1 0.999076
0.999527 1 1 0.999527
0.999239 1 1 0.999239
0.99953 1 1 0.99953
0.999107 1 1 0.999107
0.999258 1 1 0.999258
0.999005 1 1 0.999005
0.999083 1 1 0.999083
0.999235 1 1 0.999235
0.99952 1 1 0.99952
0.999887 1 1 0.999887
0.999893 1 1 0.999893
1 1 1 1
0.999896 1 1 0.999896
1 1 1 1
1 1 1 1
1 1 1 1
1 1 1 1
1 1 1 1
1 1 1 1
1 1 1 1
1 1 1 1
0.999996 1 1 0.999996
1 1 1 1
1 1 1 1
1.02027 1.02266 1 0.99766
1.0264 1.02878 1 0.99768
1.02355 1.02571 0.999919 0.997977
1.02658 1.03008 0.998801 0.997794
1.02829 1.03079 1 0.997573
1.02365 1.0263 1 0.997422
1.02702 1.02967 0.999871 0.997557
1.02691 1.03123 0.998062 0.997746
1.0261 1.02936 0.998948 0.997886
1.02372 1.02577 1 0.998003
1.02734 1.03149 0.998275 0.997696
1.02759 1.03413 0.995745 0.997925
1.02738 1.03129 0.998181 0.998027
1.02699 1.02948 1 0.997574
1.02705 1.02949 1 0.997632
1.02134 1.02388 0.999651 0.997869
0.99843 1 1 0.99843
0.999948 1.00181 1.00018 0.997963
1.00721 1.00911 1.00085 0.997266
1.01902 1.02114 1 0.997923
1.01555 1.01755 1 0.998034
1.01316 1.0156 1 0.9976
0.998513 1 1 0.998513
0.998597 1 1 0.998597
1.00078 1 1.00236 0.998426
0.999723 1 1 0.999723
0.999172 1 1.00036 0.998814
0.999167 1 1 0.999167
1.02805 1.03119 0.999299 0.997654
1.02637 1.03078 0.997915 0.997804
1.01952 1.02289 0.99874 0.997966
0.998545 1.00025 1 0.998295
1.00076 1.00181 1.0014 0.99756
1.00489 1.00683 1.0009 0.997178
1.02274 1.02503 0.999632 0.998132
1.01523 1.0175 1 0.997766
0.999832 1 1 0.999832
0.999343 1 1 0.999343
0.998456 1 1 0.998456
1.0004 1 1.00199 0.998412
1.00127 1 1.00273 0.998541
0.998926 1 1 0.998926
1.02793 1.03353 0.996736 0.997842
1.01931 1.02778 0.993815 0.997937
1.02044 1.02487 0.997507 0.998162
1.019 1.02137 0.999518 0.99816
0.999224 1.00025 1.00088 0.99809
1.00485 1.0062 1.0014 0.997257
1.00281 1.0029 1.00264 0.997281
0.999915 1 1 0.999915
0.999577 1 1 0.999577
0.999399 1 1 0.999399
0.999024 1 1 0.999024
0.999385 1 1.00069 0.998691
1.00081 1 1.0024 0.998413
0.998481 1 1 0.998481
1.01057 1 1.01204 0.998543
0.999438 1 1 0.999438
0.99916 1 1.00018 0.998984
1.01963 1.02169 1 0.997983
1.00177 1 1.00321 0.998562
1.00044 1 1.00215 0.998293
0.998543 1 1.00004 0.998507
1.00839 1.01085 1 0.997562
1.01331 1.01546 1 0.997883
1.00288 1.00042 1.00482 0.997653
1.00217 1.00495 1 0.997237
0.999127 1 1 0.999127
1.00025 1 1.00158 0.998672
1.00231 1.00003 1.00415 0.998136
0.99965 1 1.00134 0.998311
1.02363 1.02957 0.996065 0.998157
1.01559 1.01768 0.999949 0.998003
1.00675 1.00937 1 0.997407
1.00294 1.00188 1.00377 0.997296
0.999013 1 1.00006 0.998948
1.02127 1.03012 0.993252 0.998149
1.00085 1 1.00242 0.998431
1.00068 1.00012 1.00268 0.997888
1.02113 1.02442 0.998541 0.998247
1.00662 1.00915 1 0.997489
1.00437 1.00398 1.00323 0.997165
0.999234 1 1 0.999234
0.999073 1 1 0.999073
0.998959 1 1 0.998959
0.99953 1 1 0.99953
0.99927 1 1 0.99927
0.999089 1 1 0.999089
0.999518 1 1 0.999518
0.999238 1 1 0.999238
0.998988 1 1 0.998988
0.999104 1 1 0.999104
0.998914 1 1 0.998914
0.998968 1 1 0.998968
0.999082 1 1 0.999082
0.999226 1 1 0.999226
0.999496 1 1 0.999496
0.999879 1 1 0.999879
0.999886 1 1 0.999886
1 1 1 1
0.999892 1 1 0.999892
1 1 1 1
1 1 1 1
1 1 1 1
1 1 1 1
1 1 1 1
0.999941 1 1 0.999941
1 1 1 1
1 1 1 1
1 1 1 1
1 1 1 1
1 1 1 1
1 1 1 1
1.02515 1.0272 1 0.998005
1.02595 1.02936 0.998799 0.997887
1.02608 1.03022 0.998247 0.997737
1.02692 1.02967 0.999757 0.997564
1.02712 1.0314 0.99813 0.997714
1.02796 1.03425 0.995996 0.997914
1.02692 1.03116 0.997849 0.99804
1.02741 1.03496 0.994801 0.997898
1.03047 1.03779 0.994897 0.998043
1.01476 1.02759 0.989244 0.998253
1.02872 1.03165 0.999501 0.99766
1.0271 1.03108 0.998324 0.997811
1.01962 1.02276 0.998971 0.997958
0.998785 1.00045 1.00006 0.998285
1.00086 1.00195 1.00126 0.997644
1.00416 1.00618 1.00078 0.997212
1.02266 1.02491 0.999662 0.998142
1.01536 1.01765 0.999993 0.997755
0.998476 1 1 0.998476
1.00111 1 1.00264 0.998476
1.00158 1 1.00303 0.998557
0.999868 1 1 0.999868
0.999343 1 1 0.999343
0.998905 1 1 0.998905
1.02748 1.03351 0.996301 0.997855
0.999911 1 1 0.999911
0.999557 1 1 0.999557
1.01923 1.02702 0.994469 0.997936
1.02106 1.02561 0.99742 0.998131
0.999095 1.00009 1.00084 0.998166
1.00315 1.0026 1.0033 0.997254
1.00543 1.00734 1.00084 0.99726
1.01792 1.02038 0.999446 0.998145
0.999456 1 1 0.999456
0.999021 1 1 0.999021
0.99842 1 1 0.99842
1.00713 1 1.0085 0.998644
1.00086 1 1.00247 0.998403
0.999523 1 1.00082 0.998703
1.03015 1.0372 0.995185 0.998004
1.01107 1.0254 0.98793 0.998075
1.01853 1.024 0.996302 0.998347
1.00572 1.00874 0.999136 0.997873
1.0005 1 1.00234 0.99816
1.00435 1.00177 1.00547 0.997119
0.999573 1 1 0.999573
0.999526 1 1 0.999526
0.999312 1 1 0.999312
0.999045 1 1 0.999045
0.998836 1 1 0.998836
0.999573 1 1.00111 0.99847
1.0162 1 1.01787 0.998364
1.00025 1 1.00158 0.998678
0.99911 1 1 0.99911
1.00027 1 1.00159 0.998684
1.02486 1.03038 0.996469 0.998167
1.01537 1.01743 1 0.997971
0.999411 1 1.00107 0.998338
1.00256 1 1.00441 0.998158
1.00788 1.01043 1.00004 0.997446
1.00277 1.00217 1.00335 0.997257
0.999062 1 1.00012 0.99894
1.02218 1.03198 0.99232 0.998178
1.00064 1 1.0022 0.998447
1.0006 1.00006 1.00269 0.997861
1.02003 1.02358 0.998312 0.99822
1.00713 1.00962 1 0.997535
1.0042 1.00354 1.00348 0.997178
1.00001 1 1.00133 0.998681
1.0164 1.02748 0.990694 0.998503
1.00003 1.0001 1.00169 0.998236
1.00219 1.0008 1.00379 0.997605
1.00991 1.015 0.997073 0.997905
1.00176 1.00227 1.00221 0.997284
1.00361 1.00761 0.997465 0.998554
0.99907 1 1 0.99907
0.999015 1 1.00006 0.998957
0.998894 1 1.00005 0.99884
0.999517 1 1 0.999517
0.99924 1 1 0.99924
0.999126 1 1 0.999126
0.998972 1 1 0.998972
0.999495 1 1 0.999495
0.999216 1 1 0.999216
0.998896 1 1 0.998896
0.999081 1 1 0.999081
0.998982 1 1 0.998982
0.998886 1 1 0.998886
0.99896 1 1 0.99896
0.999075 1 1 0.999075
0.999161 1 1 0.999161
0.999431 1 1 0.999431
0.999269 1 1 0.999269
0.999426 1 1 0.999426
0.999872 1 1 0.999872
0.999878 1 1 0.999878
1 1 1 1
0.999885 1 1 0.999885
1 1 1 1
1 1 1 1
1 1 1 1
1 1 1 1
1 1 1 1
0.999956 1 1 0.999956
0.999938 1 1 0.999938
1 1 1 1
1 1 1 1
1 1 1 1
1 1 1 1
1 1 1 1
1 1 1 1
1.02651 1.03111 0.997487 0.998052
1.02833 1.03439 0.996232 0.997903
1.02686 1.03129 0.997973 0.997733
1.02724 1.03476 0.994831 0.997896
1.02894 1.03612 0.995022 0.99804
1.01541 1.02725 0.990223 0.998229
1.02755 1.03748 0.992308 0.998107
0.997805 1.01596 0.984309 0.997789
1.01011 1.02542 0.986345 0.998708
0.999649 1 1 0.999649
1.027 1.03344 0.995891 0.997868
1.01947 1.02636 0.995336 0.997936
1.02168 1.02628 0.997414 0.998099
0.999061 1 1.00082 0.998241
1.0035 1.00226 1.00402 0.997228
1.00633 1.00863 1.00045 0.997262
1.01694 1.01935 0.999508 0.998129
0.99836 1 1 0.99836
1.0037 1 1.00496 0.998746
1.00074 1 1.00235 0.998393
0.999907 1 1 0.999907
0.999528 1 1.00081 0.998715
0.999512 1 1 0.999512
0.999018 1 1 0.999018
0.999537 1 1 0.999537
1.02915 1.03778 0.993661 0.998012
0.999601 1 1 0.999601
0.999525 1 1 0.999525
0.999274 1 1 0.999274
1.01193 1.02503 0.989124 0.998078
1.01832 1.02367 0.996465 0.9983
0.999826 1.00001 1.00164 0.99818
1.00431 1.00161 1.00555 0.997158
1.005 1.00766 0.999492 0.997871
0.999076 1 1 0.999076
0.998922 1 1.00011 0.99881
1.00281 1 1.0042 0.998612
1.01302 1 1.01464 0.998401
0.999372 1 1.00088 0.998494
1.0188 1.03049 0.990544 0.998092
1.01157 1.02842 0.98539 0.998193
1.01119 1.01531 0.997879 0.998067
1.00326 1.00394 1.00163 0.997704
1.00308 1 1.00484 0.99825
0.999255 1 1 0.999255
0.999154 1 1 0.999154
0.999043 1 1 0.999043
0.998897 1 1.00005 0.998849
0.999244 1 1.0006 0.998649
1.01159 1 1.01322 0.998398
1.01393 1 1.01562 0.998335
0.999122 1 1.00019 0.998933
1.00047 1 1.00201 0.998463
1.02286 1.03393 0.991068 0.998206
1.01885 1.02275 0.997992 0.998193
1.00728 1.00972 1 0.997581
1.00051 1 1.00268 0.997834
1.00375 1.00296 1.0036 0.997191
0.999981 1 1.00127 0.998717
1.01487 1.02705 0.989609 0.998515
0.999595 1.00005 1.00129 0.998263
1.00209 1.0004 1.00408 0.997617
1.01096 1.01558 0.997466 0.997983
1.00202 1.00206 1.00269 0.99727
1.00297 1.00781 0.997109 0.998082
1.0001 1 1.00155 0.998554
1.00555 1.01725 0.989979 0.998499
1.00018 1 1.00194 0.998236
1.0041 1.00015 1.00636 0.997601
1.00225 1.00518 0.999421 0.997661
0.95283 0.980005 0.98539 0.986686
0.974413 0.986895 0.993713 0.993599
0.982063 0.99883 0.984574 0.998618
0.858281 0.903268 0.966455 0.983175
0.819131 0.901526 0.926809 0.980359
0.998999 1 1.00004 0.998955
0.999064 1 1.00021 0.998856
0.998867 1 1 0.998867
0.999494 1 1 0.999494
0.999206 1 1 0.999206
0.999081 1 1 0.999081
0.998996 1 1 0.998996
0.998878 1 1 0.998878
0.999055 1 1 0.999055
0.999453 1 1 0.999453
0.999175 1 1 0.999175
0.998887 1 1 0.998887
0.998964 1 1 0.998964
0.998971 1 1 0.998971
0.998935 1 1 0.998935
0.998999 1 1 0.998999
0.999132 1 1 0.999132
0.999418 1 1 0.999418
0.999196 1 1 0.999196
0.999106 1 1 0.999106
0.999249 1 1 0.999249
0.99924 1 1 0.99924
0.999487 1 1 0.999487
0.999424 1 1 0.999424
0.999868 1 1 0.999868
0.999872 1 1 0.999872
1 1 1 1
0.999878 1 1 0.999878
1 1 1 1
1 1 1 1
1 1 1 1
1 1 1 1
1 1 1 1
0.999964 1 1 0.999964
0.999953 1 1 0.999953
1 1 1 1
0.999935 1 1 0.999935
1 1 1 1
1 1 1 1
1 1 1 1
1 1 1 1
1 1 1 1
1.0274 1.03441 0.995181 0.998037
1.02702 1.03451 0.994862 0.997894
1.01611 1.02678 0.991384 0.998205
0.99988 1.01572 0.986544 0.997832
1.02586 1.03582 0.992258 0.998105
1.01478 1.02742 0.989052 0.998629
1.02492 1.03144 0.995516 0.998156
0.962184 0.984841 0.98409 0.99279
1.00645 1.01935 0.989113 0.998214
0.999657 1 1 0.999657
0.999648 1 1 0.999648
0.999343 1 1 0.999343
0.999371 1 1 0.999371
1.02782 1.03818 0.991993 0.99802
1.01207 1.0242 0.990058 0.99808
1.01799 1.0233 0.996546 0.998253
0.998982 1.00001 1.00077 0.998199
1.00404 1.0015 1.00536 0.997195
1.00422 1.00679 0.999573 0.997869
1.00519 1 1.00665 0.998544
1.00991 1 1.01149 0.998438
0.999176 1 1.00066 0.998518
0.999523 1 1 0.999523
0.998916 1 1.00013 0.998785
0.999107 1 1 0.999107
0.999629 1 1 0.999629
0.999235 1 1 0.999235
1.01697 1.02966 0.989556 0.998106
0.999297 1 1 0.999297
0.999185 1 1 0.999185
0.999071 1 1 0.999071
1.01395 1.03026 0.985937 0.998198
1.00983 1.01443 0.997393 0.998065
1.00293 1 1.0047 0.998239
1.00356 1.00425 1.0016 0.997716
0.998999 1 1.00015 0.998845
0.998945 1 1.00032 0.998628
1.01469 1 1.01638 0.998334
1.01259 1 1.01424 0.998373
1.0089 1.02905 0.982218 0.99817
1.00369 1.02297 0.982961 0.998163
1.00501 1.00731 0.99994 0.997776
0.999851 1.00031 1.00125 0.998293
0.998953 1 1 0.998953
0.999168 1 1.00026 0.998909
1.00341 1 1.00477 0.99865
1.02496 1 1.02682 0.998189
0.936242 0.9728 0.976139 0.985945
1.00012 1 1.00137 0.998753
0.999383 1 1.00109 0.99829
1.01304 1.02634 0.988496 0.998526
1.01203 1.01608 0.997945 0.998061
1.00268 1.00214 1.0033 0.997255
1.00209 1 1.00447 0.997628
1.00217 1.0078 0.996806 0.997601
1.00013 1 1.00155 0.998583
1.00504 1.01759 0.989171 0.998486
0.999683 1 1.00144 0.998248
1.00376 1.00007 1.00611 0.997601
1.00276 1.00605 0.999035 0.997685
0.951886 0.982217 0.982704 0.986177
0.969329 0.984555 0.992606 0.991868
0.983532 0.996853 0.987973 0.998648
0.860725 0.902504 0.970104 0.983098
0.802793 0.889385 0.92229 0.978692
0.999545 1 1.00082 0.998728
0.8819 0.92191 0.972657 0.983492
0.859549 0.906107 0.966457 0.981542
0.983768 1.00669 0.978812 0.998384
1.00495 1.00006 1.00655 0.998351
1.01086 1.00282 1.01019 0.997841
0.979199 0.992155 0.988151 0.998776
0.951373 0.972202 0.992606 0.985864
0.956079 0.96705 0.997468 0.991164
0.838101 0.903583 0.94312 0.98347
0.867405 0.93777 0.941721 0.982208
0.99933 1 1.00046 0.998871
0.998935 1 1.00008 0.998859
0.999081 1 1 0.999081
0.999476 1 1 0.999476
0.999189 1 1 0.999189
0.999035 1 1 0.999035
0.998967 1 1 0.998967
0.998888 1 1 0.998888
0.999419 1 1 0.999419
0.998967 1 1 0.998967
0.999017 1 1 0.999017
0.999156 1 1 0.999156
0.998934 1 1 0.998934
0.998934 1 1 0.998934
0.999154 1 1.0002 0.998957
0.998981 1 1 0.998981
0.999162 1 1 0.999162
0.999194 1 1 0.999194
0.999092 1 1 0.999092
0.99904 1 1 0.99904
0.999088 1 1 0.999088
0.999033 1 1 0.999033
0.998956 1 1 0.998956
0.999229 1 1 0.999229
0.999249 1 1 0.999249
0.999498 1 1 0.999498
0.999211 1 1 0.999211
0.999467 1 1 0.999467
0.999866 1 1 0.999866
0.999422 1 1 0.999422
0.999868 1 1 0.999868
1 1 1 1
0.999872 1 1 0.999872
1 1 1 1
1 1 1 1
1 1 1 1
1 1 1 1
1 1 1 1
0.999637 1 1 0.999637
0.999964 1 1 0.999964
0.999962 1 1 0.999962
1 1 1 1
0.999951 1 1 0.999951
1 1 1 1
1 1 1 1
1 1 1 1
1 1 1 1
1 1 1 1
1.0017 1.01579 0.98822 0.997877
1.02455 1.03437 0.992392 0.998104
1.01925 1.02967 0.991317 0.998549
0.959162 0.980857 0.98412 0.99366
1.00655 1.01907 0.989396 0.998303
1.02698 1.03423 0.994865 0.998121
1.01661 1.02379 0.9949 0.998072
0.968026 0.983377 0.990038 0.994295
0.953389 0.978663 0.988735 0.985274
0.839043 0.895244 0.953912 0.982504
0.800946 0.876059 0.932949 0.979968
0.99933 1 1 0.99933
0.999656 1 1 0.999656
0.999647 1 1 0.999647
0.999331 1 1 0.999331
0.999134 1 1 0.999134
0.99917 1 1 0.99917
0.999324 1 1 0.999324
0.99935 1 1 0.99935
1.01578 1.0293 0.988717 0.998121
1.01689 1.03287 0.986306 0.998203
1.00861 1.01367 0.99695 0.998062
1.00312 1.00001 1.00488 0.998229
1.00404 1.00437 1.00195 0.997728
1.01523 1 1.01693 0.998333
1.0137 1 1.01538 0.998348
0.998791 1 1.00018 0.998608
0.999216 1 1 0.999216
0.998977 1 1.00014 0.998842
0.99934 1 1 0.99934
0.999098 1 1 0.999098
1.00989 1.02914 0.983114 0.998154
0.998978 1 1 0.998978
0.999016 1 1.00009 0.998924
1.00455 1.02227 0.984496 0.998142
1.00393 1.00703 0.999037 0.997882
1.00167 1.00063 1.00282 0.998229
1.005 1 1.00641 0.998606
1.02213 1 1.02397 0.998199
1.00824 1.02545 0.985037 0.998145
0.985548 1.00693 0.980542 0.998192
0.997048 1.00053 0.99833 0.998188
1.00645 1.00004 1.0081 0.998323
0.998977 1 1.00018 0.998795
1.0021 1 1.0034 0.998702
1.0209 1 1.02254 0.998397
0.869987 0.926123 0.954683 0.983977
0.948147 0.976237 0.983672 0.987348
0.999878 1 1.00127 0.998611
0.999324 1 1.00107 0.998259
1.00578 1.01846 0.989065 0.998474
1.00327 1.00707 0.998509 0.997709
1.0033 1 1.00571 0.997602
0.949955 0.977238 0.986548 0.985336
0.971831 0.988504 0.99052 0.992542
0.985387 0.995399 0.991255 0.998674
0.854881 0.903307 0.962445 0.983318
0.788602 0.876768 0.920612 0.977005
0.999142 1 1.00041 0.99873
0.874367 0.924492 0.961274 0.983882
0.854701 0.900525 0.967675 0.98082
0.985749 1.00745 0.980051 0.998375
1.00454 1.00006 1.00612 0.998372
1.0099 1.0014 1.01056 0.997958
0.970889 0.987378 0.984425 0.998858
0.956301 0.979425 0.991483 0.984778
0.958164 0.970831 0.994065 0.992844
0.840614 0.897988 0.953053 0.98222
0.867015 0.939446 0.940222 0.981576
1.0011 1 1.00215 0.998954
0.885381 0.914255 0.98505 0.983117
0.947244 0.96613 0.992972 0.987392
0.989315 1.00034 0.990127 0.998842
1.01225 1.00148 1.01195 0.998822
0.986166 0.979534 1.00772 0.99906
0.941773 0.957959 0.989127 0.993911
0.94319 0.958144 0.999807 0.984583
0.857174 0.914679 0.953765 0.982559
0.896378 0.958926 0.949484 0.984507
0.998871 1 1.00002 0.99885
0.99906 1 1 0.99906
0.999912 1 1.00065 0.999259
0.999419 1 1 0.999419
0.99918 1 1 0.99918
0.999035 1 1 0.999035
0.998963 1 1 0.998963
0.998933 1 1 0.998933
0.999161 1 1 0.999161
0.99894 1 1 0.99894
0.998982 1 1 0.998982
0.999291 1 1.00031 0.99898
1.00453 1 1.00534 0.999195
0.998999 1 1.00009 0.998912
0.998969 1 1 0.998969
0.999192 1 1 0.999192
0.999079 1 1 0.999079
0.999038 1 1 0.999038
0.999085 1 1 0.999085
0.99904 1 1 0.99904
0.999042 1 1 0.999042
0.998993 1 1 0.998993
0.999021 1 1 0.999021
0.998811 1 1 0.998811
0.999407 1 1.00093 0.99848
0.998838 1 1 0.998838
0.998953 1 1 0.998953
0.999177 1 1 0.999177
0.999227 1 1 0.999227
0.999493 1 1 0.999493
0.999248 1 1 0.999248
0.999498 1 1 0.999498
0.999867 1 1 0.999867
0.999448 1 1 0.999448
0.999866 1 1 0.999866
1 1 1 1
0.999868 1 1 0.999868
1 1 1 1
1 1 1 1
1 1 1 1
1 1 1 1
1 1 1 1
0.999656 1 1 0.999656
0.999955 1 1 0.999955
0.999637 1 1 0.999637
1 1 1 1
0.999964 1 1 0.999964
0.999961 1 1 0.999961
1 1 1 1
1 1 1 1
1 1 1 1
1 1 1 1
1 1 1 1
0.870366 0.914728 0.967509 0.983456
0.864212 0.908345 0.968727 0.982128
0.961072 0.983674 0.982755 0.994168
1.00831 1.01871 0.991385 0.998392
1.02899 1.03662 0.994542 0.998086
0.962029 0.97655 0.98953 0.995554
1.01614 1.02345 0.994723 0.998122
0.957255 0.982951 0.987112 0.986573
0.853165 0.901454 0.962815 0.982985
0.791838 0.874706 0.925376 0.978264
0.987071 0.998808 0.991465 0.996757
0.952204 0.972893 0.992326 0.986303
0.830191 0.897551 0.940841 0.983112
0.862307 0.930033 0.945144 0.980992
0.999053 1 1 0.999053
0.999349 1 1 0.999349
0.999655 1 1 0.999655
0.999318 1 1 0.999318
0.999163 1 1 0.999163
0.999075 1 1 0.999075
0.99917 1 1 0.99917
0.999193 1 1 0.999193
0.999299 1 1 0.999299
0.999329 1 1 0.999329
1.01065 1.02876 0.984223 0.998139
1.00446 1.02057 0.986063 0.998123
1.00307 1.00699 0.998123 0.997989
1.00318 1.00095 1.00407 0.998165
1.01874 1 1.02057 0.998208
1.00671 1 1.00816 0.998562
0.99894 1 1 0.99894
0.999002 1 1 0.999002
1.00787 1.0258 0.984334 0.998153
0.998991 1 1.00021 0.998782
1.00207 1 1.00341 0.998673
0.986358 1.00574 0.982578 0.998116
0.996745 1.00039 0.99804 0.998311
1.00751 1.00057 1.00873 0.998222
1.0183 1 1.01996 0.998371
0.999127 1.00513 0.995575 0.998446
0.988456 1 0.989613 0.99883
1.01387 1.00036 1.01514 0.998397
1.0007 1 1.00194 0.998763
1.00035 1 1.00173 0.998622
1.01219 1 1.01372 0.998485
0.891614 0.920339 0.983194 0.985348
0.878405 0.925391 0.964992 0.983661
0.942281 0.976806 0.978399 0.985952
0.998731 1 1 0.998731
1.00413 1 1.00574 0.998394
0.988118 1.00795 0.981927 0.998368
1.00911 1 1.01106 0.998074
0.868192 0.919582 0.959923 0.983532
0.956143 0.977594 0.991435 0.986507
0.953412 0.970525 0.991052 0.991237
0.966972 0.983375 0.984362 0.998941
0.841419 0.898407 0.953328 0.98242
0.85685 0.905037 0.965356 0.980733
0.858649 0.934056 0.936454 0.98165
1.00175 1 1.00279 0.99896
0.886522 0.91773 0.981982 0.983719
0.951792 0.969914 0.993921 0.987318
0.991706 1.00024 0.992553 0.99891
1.01166 1.00034 1.01253 0.998802
0.984183 0.978999 1.00636 0.998948
0.943167 0.959765 0.990536 0.992096
0.945439 0.962931 0.99641 0.985372
0.866878 0.925172 0.953063 0.983137
0.886735 0.950494 0.947551 0.98456
1.00347 0.999757 1.00425 0.999468
0.949853 0.969642 0.989481 0.990004
0.937096 0.959554 0.985853 0.99061
1.00454 0.991222 1.01373 0.999715
0.961171 0.961926 1.00298 0.996244
0.951086 0.959011 1.00717 0.984674
0.902632 0.943011 0.97353 0.983207
0.90263 0.971043 0.944709 0.983951
0.99904 1 1 0.99904
0.999928 1 1.00067 0.999259
1.01005 1 1.01064 0.999417
0.99916 1 1 0.99916
0.998982 1 1 0.998982
0.998947 1 1 0.998947
0.999295 1 1.00029 0.999002
0.998967 1 1 0.998967
0.99894 1 1.00003 0.998909
1.0069 1 1.00768 0.999234
1.01384 0.998479 1.01595 0.999446
1.0052 1 1.00608 0.999125
0.998916 1 1 0.998916
0.999037 1 1 0.999037
0.999082 1 1 0.999082
0.999047 1 1 0.999047
0.999 1 1 0.999
0.999041 1 1 0.999041
0.999027 1 1 0.999027
0.998953 1 1 0.998953
0.99912 1 1 0.99912
0.998834 1 1 0.998834
0.998834 1 1 0.998834
0.999285 1 1.00069 0.998591
0.99963 1 1.00153 0.998107
0.999042 1 1.00029 0.998752
0.999356 1 1.00079 0.998565
0.998869 1 1 0.998869
0.999055 1 1 0.999055
0.998951 1 1 0.998951
0.999175 1 1 0.999175
0.99946 1 1 0.99946
0.999225 1 1 0.999225
0.999492 1 1 0.999492
0.999865 1 1 0.999865
0.999498 1 1 0.999498
0.999867 1 1 0.999867
1 1 1 1
0.999867 1 1 0.999867
1 1 1 1
1 1 1 1
1 1 1 1
1 1 1 1
1 1 1 1
0.999538 1 1 0.999538
0.999943 1 1 0.999943
0.999608 1 1 0.999608
1 1 1 1
0.999958 1 1 0.999958
0.999637 1 1 0.999637
1 1 1 1
1 1 1 1
0.999965 1 1 0.999965
1 1 1 1
1 1 1 1
1 1 1 1
0.889567 0.917837 0.984377 0.984582
0.873657 0.920227 0.965617 0.983199
0.949282 0.971361 0.989937 0.987205
0.8554 0.901224 0.967098 0.981445
0.958877 0.979106 0.985519 0.993729
1.01435 1.02325 0.99312 0.998173
0.960851 0.983214 0.989302 0.987823
0.854383 0.904745 0.960925 0.982736
0.785923 0.875763 0.918966 0.976549
0.983392 0.996656 0.990575 0.996079
0.95193 0.973643 0.992878 0.984713
0.840818 0.904298 0.946945 0.981897
0.860379 0.931431 0.942333 0.980245
0.967841 0.98541 0.986873 0.995236
0.956286 0.964692 1.0071 0.984295
0.866214 0.927268 0.950681 0.982619
0.892694 0.960214 0.945617 0.983148
0.999159 1 1.00026 0.998897
0.999082 1 1 0.999082
0.999369 1 1 0.999369
0.999192 1 1 0.999192
0.998912 1 1 0.998912
0.999096 1 1 0.999096
0.999169 1 1 0.999169
0.999164 1 1 0.999164
0.999219 1 1 0.999219
0.999274 1 1 0.999274
1.00804 1.02682 0.983525 0.998161
0.988669 1.00538 0.985307 0.998041
0.996265 1 0.997829 0.998433
1.0095 1.00118 1.01021 0.998123
1.016 1 1.01769 0.998345
1.00174 1 1.0031 0.998644
0.999085 1 1.00032 0.99877
1.00012 1 1.00136 0.998759
0.995026 1.00589 0.990724 0.99846
1.00034 1 1.00171 0.998631
1.01239 1 1.01393 0.998479
0.987248 1.00019 0.988299 0.99875
1.01359 1.00061 1.01463 0.998376
0.968081 0.991835 0.977083 0.998943
1.00484 0.998867 1.00672 0.999269
1.01683 1 1.01824 0.998609
0.999692 1 1.00105 0.998642
1.00745 1 1.00897 0.998487
0.949767 0.965575 0.992209 0.991352
0.89525 0.920214 0.987251 0.985436
0.871571 0.921619 0.961096 0.983977
1.00236 1 1.0034 0.998965
1.01102 0.999215 1.01305 0.99878
0.991957 1 0.992975 0.998974
0.896562 0.923709 0.985958 0.984434
0.954484 0.96253 1.00744 0.984322
0.945843 0.960964 0.990851 0.993352
0.974887 0.975939 1.00011 0.998808
0.868251 0.924387 0.955913 0.982591
0.956077 0.973372 0.994921 0.987247
0.886004 0.95048 0.946701 0.984645
1.00299 0.999468 1.00408 0.999445
0.948085 0.967847 0.988763 0.990715
0.939625 0.961807 0.986187 0.990621
1.00585 0.993047 1.01334 0.999568
0.964467 0.964408 1.00425 0.995825
0.943065 0.957882 1.00082 0.983729
0.90576 0.973178 0.945161 0.984726
0.898304 0.94073 0.971437 0.982978
1.00523 0.994393 1.01119 0.999711
0.932687 0.957061 0.979583 0.994845
0.947566 0.972043 0.983412 0.991262
0.894983 0.96117 0.947057 0.983192
0.99094 0.97736 1.01493 0.998983
0.966313 0.966947 1.01423 0.98532
0.902639 0.934507 0.982283 0.983321
1.00033 1 1.00108 0.999259
1.00915 1 1.0098 0.99936
1.01475 0.997683 1.01755 0.999566
0.998966 1 1 0.998966
0.998905 1 1 0.998905
1.00996 1 1.0107 0.999273
0.998925 1 1 0.998925
1.00496 1 1.00584 0.999129
1.01544 0.99846 1.01759 0.999421
1.00598 0.998 1.00852 0.999489
1.00339 1 1.00427 0.999123
0.999008 1 1 0.999008
0.99904 1 1 0.99904
0.999033 1 1 0.999033
0.999106 1 1 0.999106
0.998961 1 1 0.998961
0.999392 1 1.00033 0.99906
0.998945 1 1 0.998945
1.00095 1 1.00259 0.998369
0.998857 1 1 0.998857
0.999126 1 1.00057 0.998561
0.998957 1 1.00101 0.997947
0.99933 1 1.00129 0.998043
1.00002 1 1.00145 0.998576
0.999507 1 1.00138 0.998127
0.998942 1 1 0.998942
0.999061 1 1.00034 0.998724
0.999295 1 1.00065 0.99865
0.998899 1 1 0.998899
0.999084 1 1 0.999084
0.999399 1 1 0.999399
0.999173 1 1 0.999173
0.999459 1 1 0.999459
0.999854 1 1 0.999854
0.99949 1 1 0.99949
0.999864 1 1 0.999864
1 1 1 1
0.999866 1 1 0.999866
1 1 1 1
1 1 1 1
1 1 1 1
1 1 1 1
1 1 1 1
0.999394 1 1 0.999394
0.999847 1 1 0.999847
0.999537 1 1 0.999537
1 1 1 1
0.999913 1 1 0.999913
0.99956 1 1 0.99956
1 1 1 1
1 1 1 1
0.999961 1 1 0.999961
1 1 1 1
1 1 1 1
1 1 1 1
0.944651 0.965169 0.987921 0.990709
0.878645 0.915683 0.974728 0.984431
0.874308 0.917392 0.969491 0.983028
0.999076 1 1 0.999076
0.937323 0.957741 0.987185 0.991386
0.952911 0.972355 0.992761 0.987148
0.850928 0.902578 0.960623 0.981421
0.985492 0.997576 0.992582 0.99527
0.954288 0.973434 0.99419 0.986061
0.847194 0.915203 0.942577 0.982083
0.853609 0.925439 0.940971 0.980246
0.969944 0.986292 0.990204 0.993153
0.942615 0.95828 0.998244 0.985383
0.875795 0.93044 0.958029 0.982506
0.890914 0.956738 0.947415 0.982884
0.952049 0.967773 0.992162 0.991524
0.952302 0.954552 1.01434 0.983543
0.901909 0.945549 0.970632 0.982707
0.901777 0.969305 0.945516 0.983943
0.999136 1 1.00039 0.998746
0.999322 1 1.00044 0.998878
0.99911 1 1 0.99911
0.998909 1 1 0.998909
0.998947 1 1 0.998947
0.999116 1 1 0.999116
0.999171 1 1 0.999171
0.999246 1 1 0.999246
0.989373 1.00577 0.985198 0.998472
0.985038 1.00014 0.986213 0.99867
0.999442 1 1.00069 0.998755
1.013 1.00079 1.01387 0.998354
1.01283 1 1.01438 0.998473
1.00055 1 1.00192 0.99864
0.99991 1 1.00126 0.998651
0.972714 0.99341 0.980179 0.998968
1.00787 1 1.00937 0.998513
1.01389 1 1.0153 0.998612
0.999083 0.999006 1.00078 0.999298
1.00029 1 1.00161 0.998682
0.964765 0.984693 0.98047 0.999279
1.00933 0.996355 1.01358 0.999454
1.02227 1 1.02361 0.998685
1.00184 1 1.00321 0.998634
0.945354 0.95928 0.989872 0.995566
0.949161 0.964617 0.992453 0.991459
0.900124 0.920415 0.992314 0.985529
1.00215 0.99912 1.00361 0.999426
1.00853 0.995045 1.01414 0.999425
0.946888 0.966347 0.988343 0.991421
0.957986 0.958471 1.01457 0.985141
0.959411 0.962254 1.00352 0.993546
0.902774 0.94425 0.973456 0.982146
0.940607 0.962525 0.986471 0.990632
0.910014 0.976526 0.945602 0.985498
1.00621 0.995938 1.01065 0.999674
0.932568 0.956603 0.979916 0.994855
0.9452 0.970125 0.981944 0.992224
0.99944 0.983803 1.01607 0.999831
0.892458 0.958008 0.947782 0.982903
0.956636 0.960275 1.01165 0.984743
0.913198 0.948592 0.979833 0.982501
1.00733 0.992325 1.01535 0.999771
0.945375 0.969965 0.978908 0.995649
0.938113 0.958871 0.986812 0.991427
0.86266 0.931955 0.943512 0.981064
0.901855 0.947455 0.968906 0.982418
0.974624 0.97119 1.00522 0.998326
0.968609 0.960235 1.02619 0.982979
1.0072 1 1.00791 0.999304
1.01369 0.996944 1.01726 0.999543
1.0037 0.986623 1.01774 0.999582
0.998935 1 1 0.998935
1.00442 1 1.00529 0.999134
1.01677 0.999116 1.01829 0.999396
1.0015 1 1.00239 0.999112
1.00587 0.998569 1.00783 0.999488
1.00666 0.997764 1.00966 0.999262
0.999092 1 1 0.999092
0.99897 1 1 0.99897
1.00002 1 1.001 0.99903
1.00642 1 1.00787 0.998561
0.999056 1 1 0.999056
1.00044 1 1.00198 0.998461
1.00197 1 1.00413 0.997851
1.00048 1.00108 1.00188 0.997524
0.998933 1 1.0004 0.998529
0.999066 1.00011 1.00109 0.997865
0.998661 1 1.00053 0.998137
1.0007 1 1.00232 0.998384
0.999348 1 1.00125 0.998097
1.00016 1 1.00135 0.99881
0.999973 1 1.00141 0.998569
0.999424 1 1.00128 0.998148
0.999293 1 1 0.999293
0.998976 1 1.00004 0.998935
0.999134 1 1.00044 0.998697
0.999113 1 1 0.999113
0.999397 1 1 0.999397
0.999828 1 1 0.999828
0.999458 1 1 0.999458
0.999851 1 1 0.999851
1 1 1 1
0.999862 1 1 0.999862
1 1 1 1
1 1 1 1
1 1 1 1
1 1 1 1
1 1 1 1
0.999334 1 1 0.999334
0.999781 1 1 0.999781
0.999421 1 1 0.999421
1 1 1 1
0.999841 1 1 0.999841
0.999535 1 1 0.999535
1 1 1 1
1 1 1 1
0.999884 1 1 0.999884
1 1 1 1
1 1 1 1
1 1 1 1
0.93443 0.956803 0.981644 0.99488
0.945679 0.965722 0.988433 0.990705
0.878743 0.916933 0.973419 0.98452
0.999092 1 1 0.999092
0.999047 1 1 0.999047
0.998944 1 1 0.998944
0.944377 0.970737 0.981466 0.991217
0.936055 0.956851 0.986745 0.991407
0.956776 0.973448 0.995725 0.987093
0.976603 0.988018 0.993717 0.994696
0.941785 0.958705 0.998013 0.984306
0.866616 0.919953 0.958688 0.982615
0.89797 0.961832 0.950079 0.982658
0.953918 0.96766 0.99242 0.993329
0.947666 0.953741 1.00931 0.98447
0.892623 0.93225 0.973198 0.983862
0.90387 0.971762 0.944583 0.984704
0.940384 0.956864 0.990503 0.9922
0.966154 0.964445 1.01721 0.984824
0.903484 0.93301 0.984618 0.983482
0.896739 0.958117 0.950748 0.984425
0.998735 1 1 0.998735
0.999344 1 1.0006 0.998742
0.999459 1 1.0006 0.998858
0.998904 1 1 0.998904
0.998981 1 1 0.998981
0.999178 1 1 0.999178
0.979497 0.995935 0.984493 0.998986
0.994101 0.999071 0.995698 0.999324
1.00004 1 1.00139 0.998659
1.01124 1 1.01264 0.998616
1.00857 1 1.01005 0.998539
1.00007 1 1.00141 0.998658
1.00173 1 1.00309 0.998647
0.976518 0.988124 0.988945 0.999302
1.02015 1 1.02139 0.998783
1.00591 0.991753 1.01481 0.99948
1.00001 1 1.00125 0.99876
0.991252 0.977471 1.01461 0.999496
0.997958 0.988284 1.01027 0.999524
1.01626 1 1.01737 0.99891
0.960973 0.973798 0.990248 0.996549
0.944819 0.959293 0.989024 0.995843
0.948833 0.963576 0.993077 0.991564
1.008 0.997822 1.01057 0.999637
0.994601 0.98584 1.00952 0.999368
0.933191 0.956893 0.980264 0.994864
0.957418 0.955175 1.01438 0.988137
0.912789 0.945506 0.981639 0.983455
0.943792 0.96859 0.981082 0.993187
0.899077 0.96244 0.950604 0.982706
1.00589 0.992296 1.01391 0.999788
0.945932 0.970298 0.978877 0.995925
0.9373 0.958077 0.986751 0.991449
0.973479 0.967779 1.01024 0.995693
0.859463 0.932018 0.940633 0.980353
0.890358 0.935338 0.967806 0.983576
0.97791 0.966094 1.028 0.984663
1.00248 0.975258 1.02826 0.999659
0.93511 0.95739 0.981698 0.994937
0.950453 0.972836 0.989548 0.987312
0.798918 0.874542 0.931995 0.980184
0.868198 0.929499 0.950544 0.982647
0.966249 0.965131 1.01689 0.984533
0.950983 0.962784 0.99346 0.994245
1.01301 0.996057 1.0175 0.99952
1.00721 0.990766 1.01702 0.999586
1.01742 0.995485 1.02251 0.999529
0.999651 1 1.00055 0.999102
1.00559 0.998563 1.00755 0.999487
1.0077 0.997937 1.01045 0.999332
1.01732 1 1.01849 0.998846
1.0006 1 1.00161 0.999001
1.00672 1 1.00827 0.998464
1.01511 1 1.01741 0.997738
0.999998 1 1.00145 0.998555
1.00306 1.00018 1.00509 0.99781
1.00464 1.00152 1.00591 0.997212
1.00279 1.00377 1.00191 0.997123
0.998933 1.00003 1.00108 0.997828
1.00046 1.00109 1.00189 0.997489
0.999219 1.0002 1.00124 0.997784
0.999413 1 1.0011 0.998318
0.998702 1 1.00048 0.998223
1.00107 1 1.0025 0.998574
1.00077 1 1.00235 0.998419
0.999319 1 1.00117 0.99815
0.999442 1 1.00033 0.999113
0.99996 1 1.00115 0.998813
0.999872 1 1.00131 0.998562
0.999774 1 1 0.999774
0.999291 1 1 0.999291
0.999006 1 1.00008 0.998929
0.999395 1 1 0.999395
0.999823 1 1 0.999823
1 1 1 1
0.999848 1 1 0.999848
1 1 1 1
1 1 1 1
1 1 1 1
1 1 1 1
1 1 1 1
0.999327 1 1 0.999327
0.99979 1 1 0.99979
0.999352 1 1 0.999352
1 1 1 1
0.999811 1 1 0.999811
0.999449 1 1 0.999449
1 1 1 1
1 1 1 1
0.999836 1 1 0.999836
1 1 1 1
1 1 1 1
1 1 1 1
0.944614 0.969222 0.978901 0.995618
0.934166 0.957164 0.980984 0.994892
0.945109 0.966201 0.987342 0.99071
0.999025 1 1 0.999025
0.998913 1 1 0.998913
0.999107 1 1 0.999107
0.999044 1 1 0.999044
0.998926 1 1 0.998926
0.998935 1 1 0.998935
0.998835 1 1 0.998835
0.934429 0.958772 0.983929 0.990529
0.94367 0.968735 0.981799 0.992185
0.934829 0.955818 0.986495 0.99143
0.906667 0.974853 0.943772 0.985466
0.942508 0.957682 0.992379 0.991714
0.951315 0.955304 1.01045 0.985528
0.896825 0.932777 0.978249 0.982835
0.936219 0.956154 0.987537 0.991508
0.956545 0.956855 1.01602 0.983917
0.915446 0.949738 0.980615 0.982948
0.88591 0.949795 0.94744 0.984482
0.93958 0.957259 0.98815 0.993302
0.962103 0.961889 1.01695 0.983552
0.904601 0.944702 0.97376 0.983355
0.864996 0.936145 0.940934 0.982
0.999602 1 1.00078 0.998819
0.998835 1 1.0001 0.998736
0.999517 1 1.00078 0.998737
0.9989 1 1 0.9989
0.985623 0.990854 0.995389 0.999329
1.00129 0.987756 1.01421 0.999505
0.998671 1 1.00004 0.998635
1.0015 1 1.00284 0.998659
1.01692 1 1.01806 0.99888
0.999493 1 1.00074 0.998754
1.01704 0.999904 1.01826 0.998896
0.98697 0.975595 1.01281 0.998862
1.00027 0.988155 1.01263 0.999634
1.0074 0.999466 1.00896 0.998996
0.991351 0.973212 1.01992 0.998745
1.01558 0.99407 1.02235 0.999303
0.945835 0.95963 0.98998 0.995601
0.956335 0.971824 0.98718 0.996841
0.944172 0.959284 0.988082 0.996119
1.00323 0.99096 1.01258 0.999805
0.976366 0.969179 1.00899 0.998438
0.945737 0.96997 0.978733 0.996203
0.970046 0.963566 1.02383 0.983296
0.894239 0.9345 0.973955 0.982506
0.936381 0.957264 0.986599 0.991471
0.853376 0.925691 0.940353 0.980355
1.00744 0.978419 1.02994 0.999725
0.934588 0.957693 0.980827 0.99495
0.954097 0.973859 0.992357 0.987253
0.953552 0.963036 0.993769 0.99636
0.79188 0.874473 0.92545 0.978499
0.873686 0.929989 0.956261 0.982429
0.964127 0.960357 1.0199 0.984337
0.999213 0.979269 1.02133 0.999054
0.945827 0.966334 0.987832 0.990835
0.865077 0.908988 0.968794 0.982347
0.832708 0.898485 0.942485 0.983348
0.949801 0.952739 1.01225 0.984856
0.934437 0.956107 0.984911 0.992308
1.01077 0.994699 1.01658 0.99959
1.01793 0.993982 1.02459 0.999522
1.01327 0.999584 1.01434 0.999361
1.00896 0.998276 1.0113 0.999402
1.01654 0.99881 1.01885 0.998919
1.0108 1.00073 1.012 0.998092
1.00722 1 1.00886 0.998366
1.01418 1 1.01653 0.997688
1.00891 1.00017 1.01159 0.997181
1.0042 1.0004 1.00604 0.99777
1.00458 1.00109 1.00635 0.997148
1.0032 1.00209 1.00418 0.996938
1.00453 1.0074 1 0.997153
1.00451 1.00645 1.00077 0.997314
1.00333 1.00409 1.00218 0.997071
0.998325 1.00014 1.00013 0.998057
0.998744 1.00012 1.00074 0.99788
1.00048 1.00114 1.0019 0.997454
0.999459 1 1.00112 0.998345
0.999391 1 1.00108 0.99831
0.998735 1 1.00043 0.99831
1.00026 1 1.00139 0.998869
1.0009 1 1.0023 0.998611
1.00082 1 1.00236 0.998455
0.999649 1 1 0.999649
0.999427 1 1.00031 0.999114
0.999764 1 1.00095 0.998816
1 1 1 1
0.999768 1 1 0.999768
0.999289 1 1 0.999289
0.999819 1 1 0.999819
1 1 1 1
1 1 1 1
1 1 1 1
1 1 1 1
1 1 1 1
0.99902 1 1 0.99902
0.999277 1 1 0.999277
0.999743 1 1 0.999743
0.999326 1 1 0.999326
1 1 1 1
0.999794 1 1 0.999794
0.99937 1 1 0.99937
1 1 1 1
1 1 1 1
0.999842 1 1 0.999842
1 1 1 1
1 1 1 1
1 1 1 1
0.932441 0.957329 0.979067 0.994828
0.945074 0.969711 0.978607 0.995898
0.933969 0.95757 0.980351 0.994903
0.999036 1 1 0.999036
0.998899 1 1 0.998899
0.998836 1 1 0.998836
0.998899 1 1 0.998899
0.998933 1 1.00012 0.99881
0.999042 1 1 0.999042
0.998908 1 1 0.998908
0.998936 1 1 0.998936
0.998835 1 1 0.998835
0.999222 1 1.00034 0.998882
0.945431 0.965048 0.992353 0.987223
0.938411 0.961327 0.985476 0.990548
0.943891 0.967387 0.98244 0.993152
0.883979 0.949702 0.945373 0.98458
0.913315 0.944006 0.983577 0.983643
0.92901 0.952169 0.98494 0.990596
0.964669 0.964053 1.01627 0.984619
0.940585 0.958988 0.989431 0.991288
0.973461 0.970915 1.01837 0.984535
0.900166 0.941477 0.972308 0.983352
0.865919 0.938521 0.9402 0.981325
0.960824 0.967376 1.00061 0.992624
0.963314 0.963667 1.01486 0.984993
0.855354 0.914314 0.952296 0.982378
0.820836 0.90219 0.928502 0.979887
1.00151 1 1.00231 0.999201
1.00107 1 1.00225 0.99882
0.999571 1 1.00084 0.998736
0.985073 0.974095 1.01307 0.998219
1.00255 0.987311 1.01569 0.999748
0.999802 1 1.00106 0.998747
1.01842 0.999881 1.01968 0.998883
1.00842 0.999754 1.00968 0.999004
1.01659 0.99595 1.02144 0.999292
0.98794 0.970309 1.01941 0.998783
1.01408 0.999345 1.01541 0.999345
0.994134 0.980677 1.01516 0.998587
0.952277 0.967485 0.992963 0.991256
0.945208 0.959437 0.989252 0.995873
0.95156 0.969924 0.983886 0.997134
1.01253 0.982003 1.03131 0.999787
0.95247 0.963805 0.994886 0.993319
0.934421 0.957963 0.980365 0.994961
0.964616 0.966065 1.01617 0.982615
0.866909 0.920197 0.958802 0.98257
0.957742 0.974924 0.995117 0.987198
0.787827 0.876746 0.919921 0.976802
0.998039 0.977647 1.02171 0.999161
0.947031 0.967078 0.988331 0.990832
0.856297 0.902225 0.966819 0.981668
0.936809 0.958945 0.983439 0.993368
0.842766 0.904878 0.948321 0.982113
0.938783 0.950732 1.00378 0.983715
0.974551 0.978704 0.997467 0.998285
0.889923 0.918695 0.983634 0.984799
0.841407 0.896186 0.955354 0.982751
0.954299 0.964555 1.00508 0.984372
0.935611 0.955911 0.984936 0.993733
1.01755 0.992665 1.02557 0.999515
1.01387 0.997951 1.01663 0.999332
0.994107 1.00092 0.994459 0.99873
1.01517 0.997355 1.01889 0.998991
1.01139 1.00085 1.01236 0.998188
1.00249 1.00194 1.00286 0.997691
1.01296 1 1.01536 0.997637
1.00737 1.00032 1.00988 0.997196
0.999505 1.00147 1.00076 0.997287
1.00433 1.00065 1.00662 0.997084
1.00345 1.00301 1.00349 0.996958
1.00562 1.00833 1 0.997308
1.01345 1.01601 1 0.997472
1.00857 1.0114 1.00002 0.99719
1.00424 1.00709 1 0.99717
1.00128 1.00369 1 0.997595
1.00295 1.00462 1.00107 0.997267
1.00387 1.00443 1.00244 0.997019
0.998212 1 1 0.998212
0.998262 1.00012 1.00002 0.99812
0.998448 1.0002 1.00032 0.997932
0.999763 1 1.00113 0.998635
0.999652 1 1.00129 0.998367
0.999396 1 1.0011 0.998302
0.999649 1 1.00023 0.999416
1.00017 1 1.00131 0.99887
1.00076 1 1.00211 0.998649
0.999998 1 1 0.999998
0.999643 1 1 0.999643
0.999444 1 1.00033 0.999115
1 1 1 1
1 1 1 1
0.999762 1 1 0.999762
1 1 1 1
1 1 1 1
1 1 1 1
0.998937 1 1 0.998937
0.999217 1 1 0.999217
0.999007 1 1 0.999007
0.999704 1 1 0.999704
0.999277 1 1 0.999277
0.999998 1 1 0.999998
0.999746 1 1 0.999746
0.999324 1 1 0.999324
1 1 1 1
1 1 1 1
0.999797 1 1 0.999797
1 1 1 1
1 1 1 1
1 1 1 1
0.948522 0.96973 0.986509 0.991506
0.932017 0.956624 0.97933 0.99484
0.945061 0.969521 0.978509 0.996179
0.998836 1 1 0.998836
0.999046 1 1 0.999046
0.998884 1 1 0.998884
0.998913 1 1 0.998913
0.998852 1 1 0.998852
0.998856 1 1.00004 0.998812
0.999441 1 1.00073 0.998714
0.999559 1 1.00078 0.998784
0.998936 1 1 0.998936
0.998835 1 1 0.998835
0.999318 1 1.00045 0.998873
0.999927 1 1.00093 0.999002
0.8589 0.906028 0.96609 0.981259
0.949598 0.968714 0.993028 0.987148
0.940272 0.961703 0.987026 0.990567
0.859644 0.934446 0.937391 0.981394
0.907264 0.948378 0.973404 0.982787
0.962973 0.962072 1.01762 0.983605
0.945143 0.959773 0.992612 0.992087
0.960621 0.964969 1.00121 0.994292
0.804485 0.890069 0.923918 0.978274
0.95991 0.959974 1.01663 0.983577
0.86386 0.924237 0.950974 0.982859
0.951037 0.96361 0.992208 0.994703
0.951954 0.955682 1.01063 0.985618
0.837488 0.903699 0.94302 0.982729
1.00014 1 1.00054 0.999599
1.00109 1 1.00189 0.999203
1.00213 1 1.00332 0.99882
0.98538 0.968604 1.01853 0.998815
1.01843 0.998708 1.02048 0.999282
1.00942 1 1.01042 0.999011
1.01334 0.999733 1.01427 0.999344
0.994057 0.982145 1.01351 0.998636
1.00088 0.99256 1.00939 0.999007
0.892831 0.921256 0.985025 0.983878
0.95064 0.966235 0.991569 0.992225
0.944227 0.95907 0.988333 0.996146
0.998349 0.976263 1.02338 0.999261
0.933257 0.959453 0.978456 0.994114
0.946584 0.967734 0.987193 0.990835
0.947349 0.95171 1.01016 0.985408
0.850978 0.917139 0.944555 0.982327
0.851038 0.903001 0.960069 0.981653
0.975435 0.979144 0.997867 0.998343
0.879031 0.916195 0.9744 0.984643
0.856221 0.902638 0.964725 0.983261
0.937378 0.955735 0.989063 0.991639
0.942952 0.961127 0.995626 0.9854
0.964835 0.987098 0.97836 0.999066
0.870614 0.915275 0.967007 0.983657
0.954809 0.975804 0.992316 0.986061
0.94968 0.968533 0.989003 0.991437
1.01543 0.9966 1.0196 0.999304
0.989907 1.00043 0.990636 0.998832
0.982497 1.00257 0.981637 0.99831
1.01237 1.00103 1.01307 0.998283
1.00342 1.00238 1.00336 0.997683
1.00063 1.00336 0.999428 0.99785
1.00616 1.0005 1.00847 0.997211
0.999602 1.00111 1.0012 0.997301
1.01017 1.0124 1 0.997798
1.0038 1.00395 1.00288 0.996978
1.00534 1.00804 1 0.997315
1.01422 1.0164 1 0.997849
1.01906 1.02126 1 0.997842
1.01493 1.01756 1 0.99741
1.01299 1.01554 1 0.997498
1.00719 1.00982 1 0.997405
1.00777 1.01057 1 0.997231
1.00387 1.00671 1 0.997186
0.99913 1.00118 1 0.997953
1.00148 1.00373 1.00014 0.997615
1.00153 1.00284 1.00148 0.997221
0.998452 1 1 0.998452
0.998395 1.00019 1 0.998207
0.998182 1 1 0.998182
0.99932 1 1.00017 0.999149
0.999576 1 1.00094 0.998637
0.999833 1 1.00145 0.99839
0.999981 1 1 0.999981
0.999602 1 1.00019 0.999412
0.999987 1 1.00112 0.998871
1 1 1 1
0.999995 1 1 0.999995
0.999636 1 1 0.999636
1 1 1 1
1 1 1 1
1 1 1 1
0.998903 1 1 0.998903
0.998937 1 1 0.998937
0.999137 1 1 0.999137
0.999666 1 1 0.999666
0.999218 1 1 0.999218
0.998995 1 1 0.998995
0.999994 1 1 0.999994
0.999707 1 1 0.999707
0.999276 1 1 0.999276
1 1 1 1
0.999999 1 1 0.999999
0.999748 1 1 0.999748
1 1 1 1
1 1 1 1
1 1 1 1
0.883434 0.913029 0.984109 0.983211
0.947562 0.968013 0.98725 0.991515
0.932626 0.95699 0.979584 0.994853
0.998822 1 1 0.998822
0.998765 1 1 0.998765
0.999147 1 1.00041 0.99874
0.998927 1 1 0.998927
0.998868 1 1 0.998868
0.998838 1 1.00002 0.998815
0.999468 1 1.00069 0.99878
0.999434 1 1.00072 0.998716
0.999774 1 1.00115 0.998627
0.998959 1 0.999883 0.999076
0.999071 1 1.00021 0.998864
0.999445 1 1.00046 0.998987
0.853381 0.900165 0.964656 0.982762
0.853329 0.899643 0.96737 0.980514
0.954655 0.973182 0.993802 0.98708
0.789068 0.876194 0.922098 0.976646
0.865044 0.92184 0.955237 0.982362
0.961741 0.962789 1.01319 0.985911
0.961446 0.962476 1.00662 0.992362
0.949779 0.962386 0.993855 0.993002
0.838481 0.896709 0.952432 0.981765
0.942939 0.952286 1.00504 0.985223
0.946029 0.963854 0.987838 0.993591
0.941714 0.963191 0.992863 0.98473
1.00724 1 1.00819 0.999056
0.999835 1 1.00029 0.999541
1.00029 1 1.00109 0.999205
0.992426 0.981882 1.01207 0.998681
1.01242 1 1.01308 0.999344
1.00151 0.993491 1.00918 0.998904
0.992558 0.996667 0.997709 0.998165
0.869653 0.927172 0.953177 0.984038
0.896638 0.921485 0.988189 0.984666
0.950027 0.965285 0.990945 0.993187
0.974909 0.980567 0.99579 0.998433
0.9367 0.955139 0.988164 0.992441
0.879442 0.917498 0.973389 0.984727
0.940371 0.958139 0.996982 0.984427
0.859029 0.908157 0.962276 0.982985
0.968197 0.987837 0.981516 0.998575
0.875218 0.921409 0.965918 0.983384
0.955419 0.976991 0.993128 0.984686
0.955428 0.969835 0.991893 0.993196
0.979505 0.994755 0.985762 0.998892
0.955834 0.981048 0.988962 0.985174
0.966039 0.985708 0.985596 0.994369
0.98586 1 0.986914 0.998933
0.983384 1.00328 0.981849 0.998288
0.983952 1.00628 0.979587 0.998191
1.00392 1.0027 1.00355 0.997674
0.999937 1.00345 0.998648 0.997845
1.01341 1.01798 0.997218 0.998285
0.999498 1.00064 1.00155 0.997314
1.00997 1.01221 1 0.997789
1.01925 1.02128 0.999763 0.998252
1.00487 1.00757 1 0.997321
1.01361 1.0158 1 0.997848
1.01946 1.02132 1 0.99818
1.01711 1.01907 1 0.998069
1.0192 1.02136 1 0.997886
1.01869 1.02099 1 0.997739
1.01424 1.01679 1 0.997494
1.01562 1.01825 1 0.997415
1.01257 1.01509 1 0.997523
1.00276 1.0051 1 0.997673
1.00768 1.01027 1 0.997441
1.00698 1.00974 1 0.997272
0.998404 1.00016 1 0.998249
0.999915 1.00197 1 0.997946
1.00173 1.00393 1.00017 0.997636
0.998951 1 1 0.998951
0.99845 1 1 0.99845
0.998709 1.00051 1 0.998202
0.999915 1 1 0.999915
0.999372 1 1.00022 0.999149
0.999462 1 1.00082 0.998639
1 1 1 1
0.999967 1 1 0.999967
0.999622 1 1.00021 0.999409
1 1 1 1
0.999992 1 1 0.999992
1 1 1 1
0.998836 1 1 0.998836
0.998894 1 1 0.998894
0.99905 1 1 0.99905
0.998937 1 1 0.998937
0.999137 1 1 0.999137
0.999604 1 1 0.999604
0.999989 1 1 0.999989
0.999668 1 1 0.999668
0.999218 1 1 0.999218
1 1 1 1
0.999995 1 1 0.999995
0.999709 1 1 0.999709
1 1 1 1
0.999999 1 1 0.999999
1 1 1 1
0.878468 0.919387 0.971553 0.98347
0.88565 0.917008 0.982571 0.982936
0.945979 0.965746 0.987907 0.991523
0.998808 1 1 0.998808
0.999171 1 1.00047 0.998706
0.998802 1 1 0.998802
0.998522 1 1 0.998522
0.999093 1 1.00043 0.998667
0.999493 1 1.00072 0.998777
0.999391 1 1.00067 0.998718
0.999656 1 1.001 0.998656
0.998513 1 1 0.998513
0.998205 1.00005 0.999265 0.998891
0.998701 1.00034 1.00026 0.998108
0.999461 1 1.00034 0.999125
0.999331 1 1.00036 0.998972
0.950365 0.976074 0.988821 0.984669
0.856297 0.899078 0.96909 0.982795
0.854184 0.902589 0.965254 0.980438
0.837251 0.89756 0.950025 0.981877
0.947487 0.954936 1.00877 0.983578
0.952244 0.960976 0.996055 0.994838
0.947083 0.963247 0.988425 0.994733
0.947234 0.964684 0.995843 0.98601
0.967578 0.987018 0.986481 0.993738
1.001 1.00132 1.00143 0.998253
1.00569 1 1.00666 0.999034
0.999483 1 1 0.999483
1.00209 0.99527 1.00804 0.998816
0.997363 1.00003 0.999262 0.998065
0.937388 0.974075 0.976058 0.985942
0.878346 0.926586 0.963562 0.983785
0.901518 0.922098 0.992103 0.985464
0.971546 0.988841 0.984416 0.998064
0.950487 0.965139 0.993224 0.991537
0.876039 0.919173 0.969375 0.983183
0.954262 0.973842 0.993919 0.985889
0.979562 0.994885 0.985674 0.998909
0.958381 0.984195 0.987229 0.986369
0.967217 0.985932 0.988342 0.99259
0.99802 1.00485 0.994834 0.998358
0.980808 0.99616 0.988429 0.996114
0.984321 1.00419 0.981908 0.99827
0.985697 1.00583 0.981807 0.998143
1.005 1.02509 0.98207 0.998303
0.999534 1.00358 0.998123 0.99784
1.01271 1.01744 0.997073 0.998272
1.02006 1.0272 0.994578 0.998462
1.00992 1.01217 1 0.997779
1.01908 1.02143 0.999459 0.998236
1.01899 1.02183 0.998856 0.998366
1.01321 1.0154 1 0.997848
1.01972 1.02164 0.999949 0.998164
1.01777 1.0196 1 0.998201
1.0178 1.01973 1 0.998111
1.01702 1.01915 1 0.997917
1.01933 1.02144 1 0.997929
1.01854 1.02085 1 0.997733
1.01692 1.01932 1 0.997646
1.0087 1.01112 1 0.997613
1.01405 1.01661 1 0.997485
1.01627 1.01889 1 0.99742
0.999215 1.00117 1 0.998046
1.00294 1.00526 1 0.997695
1.00811 1.01066 1 0.997476
0.99879 1 1 0.99879
0.998604 1.00036 1 0.998244
1.00041 1.00248 1 0.997939
0.999801 1 1 0.999801
0.998952 1 1 0.998952
0.998449 1 1 0.998449
1 1 1 1
0.999894 1 1 0.999894
0.999357 1 1.00021 0.999149
1 1 1 1
0.999952 1 1 0.999952
1 1 1 1
0.998535 1 1 0.998535
0.998835 1 1 0.998835
0.998921 1 1 0.998921
0.998884 1 1 0.998884
0.99903 1 1 0.99903
0.999487 1 1 0.999487
0.999137 1 1 0.999137
0.999606 1 1 0.999606
0.999984 1 1 0.999984
1 1 1 1
0.999991 1 1 0.999991
0.99967 1 1 0.99967
1 1 1 1
0.999996 1 1 0.999996
1 1 1 1
0.955734 0.981561 0.986871 0.98664
0.870897 0.921401 0.960623 0.983932
0.896675 0.923396 0.988089 0.982769
0.99918 1 1.00051 0.998671
0.998839 1 1 0.998839
0.99902 1 1.00034 0.998677
0.998537 1 1 0.998537
1.00016 1.00195 1.00002 0.998191
0.998567 1 1 0.998567
0.999495 1 1.00081 0.998685
0.99842 1 1 0.99842
0.998858 1.00003 0.999975 0.998856
0.998345 1 1 0.998345
0.999715 1.0022 0.999245 0.99827
0.998271 1.00129 0.999288 0.997696
0.998902 1.00081 0.999876 0.998221
1.0001 1 1.00093 0.999174
0.965798 0.987522 0.983995 0.993909
0.952734 0.977036 0.989501 0.985474
0.850986 0.899765 0.962196 0.982947
0.959593 0.971186 1.00369 0.984427
0.946237 0.962565 0.987404 0.995578
0.971686 0.988045 0.987565 0.995826
0.993536 1.0038 0.99149 0.998274
0.99874 1.00067 0.999765 0.998307
1.00464 1 1.00563 0.999013
0.997483 1.00112 0.998415 0.997948
0.96786 0.98252 0.991133 0.993892
0.949212 0.977197 0.983841 0.987316
0.869947 0.922013 0.958806 0.984068
0.98043 0.995965 0.985462 0.998924
0.971821 0.987985 0.989675 0.993901
0.961865 0.984681 0.989116 0.987578
0.991899 1.00403 0.989527 0.99837
0.978751 0.994275 0.988851 0.995485
0.999406 1.02288 0.978884 0.998126
1.00576 1.01497 0.993092 0.997819
0.987111 1.0052 0.983878 0.998092
1.00513 1.02468 0.982595 0.998294
1.00858 1.0313 0.979597 0.998332
1.0122 1.0172 0.996824 0.99826
1.01976 1.02697 0.994524 0.998448
1.01458 1.02234 0.994085 0.99831
1.01877 1.02147 0.999127 0.99822
1.01856 1.02157 0.998708 0.998351
1.01863 1.02154 0.998995 0.998161
1.01992 1.02193 0.999886 0.998149
1.01735 1.01924 0.999943 0.998199
1.0171 1.01919 1 0.997951
1.01852 1.0204 1 0.998152
1.01688 1.01896 1 0.99795
1.01742 1.01974 1 0.997724
1.01844 1.02076 1 0.997726
1.01679 1.0192 1 0.997637
1.01198 1.01432 1 0.99769
1.00104 1.00315 1 0.997893
1.00838 1.01078 1 0.997632
1.01389 1.01645 1 0.997476
0.998619 1 1 0.998619
0.999799 1.00176 1 0.998046
1.00332 1.00562 1 0.997717
0.99967 1 1 0.99967
0.998788 1 1 0.998788
0.998837 1.0006 1 0.99824
1 1 1 1
0.999786 1 1 0.999786
0.998952 1 1 0.998952
1 1 1 1
0.999873 1 1 0.999873
1 1 1 1
1.00004 1.00181 1 0.99824
0.998548 1 1 0.998548
0.998714 1 1 0.998714
0.998834 1 1 0.998834
0.998902 1 1 0.998902
0.999323 1 1 0.999323
0.999009 1 1 0.999009
0.999488 1 1 0.999488
0.99997 1 1 0.99997
0.999608 1 1 0.999608
0.999985 1 1 0.999985
1 1 1 1
1 1 1 1
0.999992 1 1 0.999992
1 1 1 1
0.967307 0.985334 0.987378 0.994255
0.95189 0.981926 0.983512 0.985663
0.864753 0.917294 0.958508 0.98353
1.00504 1.00713 1.00007 0.997868
0.998958 1 1.00027 0.998687
0.998552 1 1 0.998552
0.99854 1 1 0.99854
1.00013 1.00183 1.00012 0.99818
0.999934 1.00148 1 0.998452
0.998328 1 1 0.998328
0.999399 1 1.00058 0.998821
0.998455 1.00007 1 0.998387
0.998947 1.00154 0.999166 0.998246
1.00115 1.00347 1 0.997683
1.00307 1.0058 0.999643 0.997641
0.999358 1.00195 0.999757 0.997651
0.999247 1.00134 0.999578 0.998334
0.99594 1.00621 0.991024 0.998757
0.96547 0.987939 0.984086 0.993061
0.95664 0.978321 0.991164 0.986556
0.966124 0.98423 0.987246 0.994285
0.997704 1.00587 0.993266 0.998604
0.999323 1.0002 1.00076 0.99836
0.998939 1.00668 0.994392 0.997904
0.964103 0.976608 0.992034 0.995122
0.942982 0.976821 0.979033 0.986032
0.985317 1.00243 0.984529 0.998377
0.981759 0.995299 0.991639 0.994712
1.00061 1.02373 0.979212 0.998157
1.00473 1.0134 0.993473 0.997949
1.00709 1.02968 0.979906 0.99812
1.02006 1.0255 0.996657 0.998034
1.0051 1.024 0.983229 0.998286
1.01096 1.03246 0.980804 0.998332
1.00762 1.02494 0.984892 0.998174
1.01921 1.02645 0.994501 0.998434
1.01523 1.02263 0.994441 0.998307
1.01843 1.02336 0.997127 0.998049
1.01822 1.02133 0.99862 0.998336
1.01856 1.02123 0.999207 0.998174
1.01882 1.02099 1 0.99787
1.01691 1.01885 0.999897 0.998196
1.01688 1.01897 1 0.997951
1.01928 1.02162 1 0.997717
1.01671 1.01876 1 0.997984
1.01744 1.01974 1 0.997744
1.01372 1.0161 1 0.997661
1.01664 1.01905 1 0.997629
1.01183 1.01419 1 0.997669
1.00324 1.00538 1 0.997875
0.998494 1 1 0.998494
1.00141 1.0035 1 0.997918
1.00801 1.01038 1 0.997652
0.999545 1 1 0.999545
0.998618 1 1 0.998618
1.00033 1.00229 1 0.998046
1 1 1 1
0.999657 1 1 0.999657
0.998787 1 1 0.998787
1 1 1 1
0.99977 1 1 0.99977
1 1 1 1
1.00173 1.0038 1 0.997935
0.999591 1.00134 1 0.998245
0.998475 1 1 0.998475
0.998567 1 1.00001 0.99856
0.998722 1 1 0.998722
0.999144 1 1 0.999144
0.998882 1 1 0.998882
0.999323 1 1 0.999323
0.999936 1 1 0.999936
0.99949 1 1 0.99949
0.999975 1 1 0.999975
1 1 1 1
0.999987 1 1 0.999987
1 1 1 1
1 1 1 1
1.00045 1.01051 0.991309 0.998726
0.962158 0.983824 0.985274 0.992595
0.95184 0.975857 0.988318 0.986917
1.00558 1.00752 1.00001 0.998057
1.00987 1.01222 1 0.997672
1.00445 1.00642 1.00013 0.997907
0.998514 1 1 0.998514
1.0001 1.00169 1.00024 0.998169
1.0005 1.00211 1 0.998396
1.00738 1.00963 1 0.997776
0.998563 1.00013 1 0.99843
0.998111 1.00077 0.999122 0.998221
1.00174 1.00401 1 0.997741
1.00964 1.01226 1 0.997417
1.01105 1.01733 0.995858 0.997959
1.00308 1.00602 0.999457 0.997618
1.00012 1.00262 0.999895 0.997605
0.999864 1.00852 0.992544 0.998868
0.96718 0.98802 0.986742 0.992061
0.998315 1.00716 0.992264 0.998941
1.01379 1.02113 0.994222 0.998575
0.997751 1.00539 0.994406 0.997984
0.963545 0.980479 0.9892 0.993458
1.00234 1.02482 0.979839 0.998188
1.00286 1.01207 0.992805 0.998084
1.00615 1.02962 0.978985 0.998181
1.02202 1.02771 0.996419 0.998043
1.01738 1.02974 0.989929 0.998046
1.03183 1.03808 0.995817 0.998154
1.01344 1.03409 0.981669 0.998332
1.00857 1.02456 0.986183 0.998178
1.02089 1.02927 0.993893 0.997957
1.01589 1.02296 0.994767 0.998304
1.01862 1.02297 0.997695 0.998046
1.02238 1.02497 0.999658 0.997821
1.01843 1.0209 0.999395 0.998188
1.019 1.02118 1 0.997868
1.02192 1.02433 1 0.99765
1.01665 1.01874 1 0.997951
1.01917 1.0215 1 0.997718
1.01582 1.01825 1 0.997609
1.01745 1.01973 1 0.997764
1.01356 1.01593 1 0.997666
1.00413 1.00632 1 0.99782
1.01172 1.0141 1 0.997649
1.00326 1.00541 1 0.997864
0.998433 1.00001 1 0.998419
0.999466 1 1 0.999466
0.998493 1 1 0.998493
1.00181 1.00387 1 0.997943
1 1 1 1
0.999534 1 1 0.999534
0.998618 1 1 0.998618
1 1 1 1
0.999645 1 1 0.999645
1 1 1 1
1.00317 1.00549 1 0.997696
1.00159 1.00369 1 0.997908
0.999208 1.00102 1 0.998193
0.999136 1.00089 1 0.99825
0.99848 1 1 0.99848
0.998946 1 1 0.998946
0.99873 1 1 0.99873
0.999146 1 1 0.999144
0.999865 1 1 0.999865
0.999322 1 1 0.999322
0.999948 1 1 0.999948
1 1 1 1
0.999979 1 1 0.999979
1 1 1 1
1 1 1 1
1.01127 1.02182 0.991262 0.998395
0.997343 1.00952 0.98953 0.99839
0.959759 0.98427 0.981569 0.993407
1.01303 1.01534 1 0.997724
1.00491 1.00671 1 0.998217
1.01948 1.02197 1 0.997572
1.0099 1.01228 1 0.997657
1.00392 1.00581 1.00018 0.997948
1.01934 1.02196 1 0.997438
1.00109 1.00275 1 0.998342
1.00682 1.00912 1 0.997717
1.02467 1.02767 0.999479 0.997596
1.00216 1.00437 1 0.9978
1.01056 1.01321 1 0.997386
1.01105 1.01679 0.996374 0.997973
1.00276 1.0056 0.999579 0.997592
1.00309 1.01039 0.99379 0.99898
1.02691 1.03431 0.994601 0.998229
1.01353 1.02099 0.994103 0.998578
0.997433 1.00409 0.995301 0.998059
1.0054 1.02919 0.978606 0.998242
1.02275 1.02897 0.995895 0.998052
1.01639 1.03005 0.98866 0.998062
1.03195 1.03905 0.995001 0.998157
1.0303 1.03856 0.993982 0.998053
1.00937 1.02401 0.9875 0.998182
1.02077 1.02882 0.994196 0.997965
1.02575 1.03092 0.997155 0.997827
1.01882 1.02261 0.998252 0.998044
1.02211 1.02457 0.999786 0.997803
1.02406 1.02654 1 0.997586
1.01927 1.02145 1 0.997867
1.02172 1.02412 1 0.997649
1.0187 1.02122 1 0.997535
1.01908 1.02141 1 0.997719
1.01588 1.01831 1 0.997611
1.00547 1.00776 1 0.997732
1.01339 1.01576 1 0.997671
1.00435 1.00654 1 0.997822
0.998445 1.0001 1 0.998344
1.00327 1.00543 1 0.997852
0.998441 1.00002 1 0.998417
0.999518 1 1 0.999518
0.999858 1 1 0.999858
0.999495 1 1 0.999495
0.998493 1 1 0.998493
1 1 1 1
0.999523 1 1 0.999523
1 1 1 1
1.02533 1.02777 1 0.997617
1.01171 1.0141 1 0.997648
1.00369 1.00602 1 0.997681
1.00177 1.00378 1 0.998003
1.00135 1.00348 1 0.997881
0.998838 1.00064 1 0.998197
0.998745 1 1 0.998745
0.998484 1 1 0.998484
0.998949 1 1 0.998949
0.999744 1 1 0.999744
0.999145 1 1 0.999145
0.999883 1 1 0.999883
1 1 1 1
0.999959 1 1 0.999959
1 1 1 1
1 1 1 1
1.02808 1.03341 0.996855 0.997983
1.01468 1.02494 0.991492 0.99848
0.995322 1.00962 0.987762 0.998055
1.022 1.02457 1 0.997493
1.01224 1.01448 1 0.997795
1.00417 1.0058 1 0.998374
1.01935 1.02181 1 0.997592
1.00995 1.01234 1 0.997643
1.02855 1.03109 0.999961 0.997578
1.01744 1.02009 1 0.9974
1.00638 1.00874 1 0.997659
1.02399 1.02686 0.999621 0.997589
1.01235 1.01503 1 0.997356
1.01303 1.01836 0.996773 0.997991
1.03336 1.03949 0.995951 0.998141
1.02879 1.03559 0.995188 0.998239
1.01427 1.02095 0.994869 0.998582
1.01626 1.03119 0.987423 0.998076
1.03284 1.04043 0.994528 0.99816
1.03038 1.03929 0.993353 0.998066
1.02957 1.03486 0.996988 0.997889
1.02048 1.02826 0.994458 0.997973
1.0257 1.03036 0.997656 0.997818
1.02646 1.02894 1 0.997585
1.02179 1.02414 0.999913 0.997786
1.02446 1.02694 1 0.997586
1.02172 1.02431 1 0.99747
1.02148 1.02388 1 0.997648
1.01875 1.02127 1 0.997535
1.00705 1.00943 1 0.997636
1.01593 1.01836 1 0.997613
1.00572 1.008 1 0.997733
0.998582 1.00034 1 0.998246
1.00457 1.00677 1 0.997824
0.998495 1.00015 1 0.998342
0.999515 1 1 0.999515
0.99845 1.00003 1 0.998415
0.999513 1 1 0.999513
0.999867 1 1 0.999867
0.999931 1 1 0.999931
0.999525 1 1 0.999525
1 1 1 1
1.02535 1.02793 1 0.997495
1.01669 1.01906 1 0.997669
1.02525 1.02759 1 0.997715
1.00409 1.00623 1 0.997877
1.0129 1.0153 1 0.99764
1.00429 1.00664 1 0.997665
1.00086 1.00286 1 0.998002
0.998569 1 1 0.998569
0.99852 1.00032 1 0.998201
0.998747 1 1 0.998747
0.999602 1 1 0.999602
0.998956 1 1 0.998953
0.999762 1 1 0.999762
1 1 1 1
0.999901 1 1 0.999901
1 1 1 1
1 1 1 1
1.0317 1.03527 0.998682 0.997865
1.02806 1.03337 0.996872 0.99798
1.016 1.02667 0.991043 0.998559
1.02849 1.03106 1 0.997515
1.02117 1.02374 1 0.997495
1.01159 1.01375 1 0.997867
1.0191 1.02153 1 0.997612
1.0284 1.03097 0.999945 0.997559
1.01556 1.01825 1 0.997362
1.02198 1.02474 0.999719 0.997583
1.03249 1.03693 0.99777 0.997949
1.03285 1.03876 0.996203 0.998103
1.03084 1.03723 0.995582 0.99825
1.02895 1.03258 0.9987 0.997777
1.03036 1.03989 0.992741 0.998079
1.02924 1.03466 0.996875 0.997877
1.02817 1.03071 0.999878 0.997665
1.02571 1.02984 0.998183 0.997809
1.02727 1.02976 1 0.997587
1.02349 1.02612 1 0.997438
1.02484 1.02732 1 0.997587
1.02145 1.02404 1 0.997471
1.00876 1.01123 1 0.997557
1.01878 1.0213 1 0.997535
1.00733 1.00972 1 0.997637
0.998824 1.00068 1 0.998147
1.00595 1.00824 1 0.997734
0.998671 1.00043 1 0.998244
0.999494 1 1 0.999494
0.998547 1.00021 1 0.998339
0.999508 1 1 0.999508
0.99987 1 1 0.99987
0.999511 1 1 0.999511
0.999869 1 1 0.999869
1 1 1 1
1.02601 1.02869 1 0.997396
1.01859 1.02113 1 0.997511
1.02593 1.02849 1 0.997514
1.005 1.00716 1 0.997853
1.01676 1.01913 1 0.997673
1.02524 1.02749 1 0.997813
0.998574 1.00016 1 0.998415
1.00364 1.00578 1 0.997872
1.0142 1.01661 1 0.997632
0.99985 1.00185 1 0.998
0.99857 1 1 0.99857
0.999491 1 1 0.999491
0.998749 1 1 0.998749
0.999615 1 1 0.999615
1 1 1 1
0.99978 1 1 0.99978
1 1 1 1
1 1 1 1
1.03166 1.03434 0.999686 0.997723
1.03162 1.03551 0.998394 0.997849
1.02859 1.03379 0.996992 0.997976
1.02796 1.03052 1 0.997522
1.02029 1.02285 1 0.997498
1.02803 1.03064 0.999929 0.997539
1.02965 1.03238 0.99958 0.99778
1.03251 1.03694 0.997781 0.997942
1.03203 1.03772 0.996452 0.998065
1.0296 1.03313 0.998789 0.997795
1.02761 1.03007 0.999997 0.997617
1.02889 1.03447 0.99674 0.997866
1.0284 1.03091 0.999934 0.997634
1.02378 1.02637 1 0.997478
1.02806 1.03054 1 0.99759
1.0232 1.02583 1 0.997441
1.01029 1.01283 1 0.997495
1.02128 1.02387 1 0.997472
1.00919 1.01166 1 0.997557
0.999102 1.00103 1 0.998069
1.00766 1.01005 1 0.997638
0.998932 1.00079 1 0.998146
0.99945 1 1 0.99945
0.998764 1.00052 1 0.998243
0.999483 1 1 0.999483
0.999857 1 1 0.999857
0.999503 1 1 0.999503
0.999877 1 1 0.999877
0.999869 1 1 0.999869
1.0277 1.0302 1 0.997574
1.02104 1.02372 1 0.997379
1.02633 1.029 1 0.997409
1.00721 1.00954 1 0.997697
1.0183 1.02084 1 0.997516
1.02645 1.02899 1 0.997533
0.998699 1.0004 1 0.998299
1.00496 1.00717 1 0.997807
1.0167 1.01907 1 0.997677
0.999431 1 1 0.999431
0.998547 1.00013 1 0.998417
1.0032 1.00534 1 0.997868
0.998571 1 1 0.998571
0.999501 1 1 0.999501
1 1 1 1
0.999628 1 1 0.999628
1 1 1 1
1 1 1 1
1.02802 1.03053 0.999881 0.997688
1.03089 1.03376 0.999497 0.997721
1.03176 1.03597 0.998099 0.997834
1.02743 1.02998 1 0.997529
1.02746 1.02995 1 0.997582
1.03026 1.03327 0.999298 0.99779
1.03245 1.03689 0.997783 0.997934
1.03027 1.03369 0.998878 0.997813
1.02702 1.02966 0.999806 0.997628
1.0231 1.02568 1 0.997489
1.02872 1.03119 1 0.997603
1.02352 1.02613 1 0.997462
1.01119 1.01376 1 0.997467
1.02288 1.02551 1 0.997444
1.01056 1.0131 1 0.997497
0.999216 1.00122 1 0.998
1.00952 1.01199 1 0.997558
0.999151 1.00109 1 0.998068
0.999324 1 1 0.999324
0.999021 1.00088 1 0.998145
0.999405 1 1 0.999405
1 1 1 1
0.999474 1 1 0.999474
0.999868 1 1 0.999868
0.99988 1 1 0.99988
1.02613 1.02857 1 0.997628
1.0221 1.02472 1 0.997445
1.02731 1.02981 1 0.99757
1.00988 1.0124 1 0.997514
1.02108 1.02374 1 0.997401
1.02675 1.02941 1 0.997423
0.999012 1.0009 1 0.998111
1.00727 1.0096 1 0.997696
1.01809 1.02063 1 0.99752
0.999404 1 1 0.999404
0.998599 1.00034 1 0.998258
1.00496 1.00721 1 0.997762
1 1 1 1
0.999441 1 1 0.999441
0.99852 1.0001 1 0.99842
0.999512 1 1 0.999512
1 1 1 1
1 1 1 1
1.02627 1.02875 1 0.997592
1.02836 1.03083 0.999909 0.997696
1.0301 1.03317 0.999312 0.997719
1.02418 1.02681 1 0.997437
1.02654 1.02902 1 0.997588
1.03086 1.03414 0.999024 0.997799
1.02642 1.02925 0.999609 0.997638
1.02313 1.02571 1 0.99749
1.01118 1.01369 1 0.997517
1.0232 1.02582 1 0.997447
1.01119 1.01372 1 0.997496
0.99921 1.00134 1 0.99787
1.01089 1.01342 1 0.997499
0.999259 1.00126 1 0.998
0.999272 1 1 0.999272
0.999229 1.00116 1 0.998068
0.999321 1 1 0.999321
1 1 1 1
0.999352 1 1 0.999352
0.999923 1 1 0.999923
0.999877 1 1 0.999877
1.0238 1.02627 1 0.99759
1.02238 1.02496 1 0.997489
1.02586 1.02829 1 0.99763
1.01092 1.01344 1 0.997518
1.02258 1.02521 1 0.997437
1.02693 1.02944 1 0.997567
0.999567 1.00157 1 0.998004
1.00983 1.0123 1 0.997558
1.02107 1.02371 1 0.997423
0.999377 1 1 0.999377
0.998989 1.00089 1 0.998097
1.00733 1.00966 1 0.997695
1 1 1 1
0.999413 1 1 0.999413
0.998501 1.00028 1 0.998217
1 1 1 1
0.999451 1 1 0.999451
1 1 1 1
1.0244 1.02699 1 0.997478
1.02585 1.02834 1 0.997584
1.02876 1.03119 0.999937 0.997704
1.01037 1.0129 1 0.997503
1.02419 1.0268 1 0.997452
1.02567 1.02814 1 0.997595
1.02318 1.02575 1 0.99749
1.01121 1.01373 1 0.997517
0.999091 1.00126 1 0.99783
1.0112 1.01371 1 0.997526
0.999223 1.00132 1 0.997905
0.999207 1 1 0.999207
0.99927 1.00127 1 0.998001
0.999269 1 1 0.999269
1 1 1 1
0.999318 1 1 0.999318
1 1 1 1
0.999861 1 1 0.999861
1.02267 1.02522 1 0.99751
1.02402 1.02648 1 0.997601
1.01052 1.01303 1 0.997528
1.02239 1.02496 1 0.997489
1.02557 1.02801 1 0.997633
0.999629 1.00161 1 0.998024
1.0108 1.01331 1 0.997515
1.02306 1.02569 1 0.99743
0.999333 1 1 0.999333
0.999603 1.00157 1 0.998033
1.00977 1.0122 1 0.997602
1 1 1 1
0.999382 1 1 0.999382
0.998967 1.00089 1 0.998083
1 1 1 1
0.999421 1 1 0.999421
1 1 1 1
1.00981 1.0123 1 0.997539
1.02431 1.02691 1 0.997473
1.02535 1.02784 1 0.997576
0.998567 1.00074 1 0.997831
1.01041 1.01294 1 0.997503
1.02417 1.02677 1 0.997468
1.01124 1.01376 1 0.997516
0.99909 1.00126 1 0.997833
0.999158 1 1 0.999158
0.999252 1.00132 1 0.997939
0.999204 1 1 0.999204
1 1 1 1
0.999266 1 1 0.999266
1 1 1 1
1 1 1 1
1.00991 1.01242 1 0.997525
1.02229 1.02483 1 0.997522
1.02424 1.0267 1 0.997612
0.999223 1.00122 1 0.998001
1.0106 1.0131 1 0.997526
1.02236 1.02493 1 0.997488
0.999285 1 1 0.999285
0.999677 1.00166 1 0.998023
1.0107 1.01322 1 0.997512
1 1 1 1
0.999336 1 1 0.999336
0.999644 1.00159 1 0.998061
1 1 1 1
0.999388 1 1 0.999388
1 1 1 1
0.998289 1.00037 1 0.99792
1.00977 1.01229 1 0.997503
1.02424 1.02684 1 0.997467
0.999154 1 1 0.999154
0.998583 1.00076 1 0.99783
1.01045 1.01298 1 0.997503
0.999088 1.00126 1 0.997836
0.999157 1 1 0.999157
1 1 1 1
0.9992 1 1 0.9992
1 1 1 1
1 1 1 1
0.998611 1.00065 1 0.997965
1.00978 1.01229 1 0.997521
1.02196 1.02449 1 0.997533
0.999352 1 1 0.999352
0.999371 1.00138 1 0.997999
1.01068 1.01319 1 0.997523
1 1 1 1
0.999286 1 1 0.999286
0.999705 1.00169 1 0.998021
1 1 1 1
0.99934 1 1 0.99934
1 1 1 1
0.999155 1 1 0.999155
0.99833 1.00044 1 0.99789
1.00973 1.01229 1 0.997467
1 1 1 1
0.999154 1 1 0.999154
0.998598 1.00077 1 0.997828
0.999156 1 1 0.999156
1 1 1 1
1 1 1 1
0.999305 1 1 0.999305
0.998795 1.00083 1 0.997965
1.00964 1.01215 1 0.997518
1 1 1 1
0.999245 1 1 0.999245
0.999531 1.00154 1 0.997997
1 1 1 1
0.999288 1 1 0.999288
1 1 1 1
0.999779 1 1 0.999779
0.99923 1 1 0.99923
0.998369 1.00051 1 0.997859
1 1 1 1
0.999154 1 1 0.999154
1 1 1 1
0.999796 1 1 0.999796
0.999259 1 1 0.999259
0.998982 1.00102 1 0.997966
0.999902 1 1 0.999902
0.999244 1 1 0.999244
1 1 1 1
1 1 1 1
0.999176 1 1 0.999176
1 1 1 1
0.999895 1 1 0.999895
0.999207 1 1 0.999207
1 1 1 1
1 1 1 1
1 1 1 1

VECTORS lamdaE float
1.00021 1.00015 0.995059
1.00006 1.00042 0.997639
0.999902 1.00035 0.995243
1.0005 0.99993 0.994854
1.00033 0.999952 0.995093
1.00018 1.00031 0.994922
1.00146 1.00048 0.992245
1.00008 1.00032 0.997644
0.999979 1.00023 0.99792
0.999578 1.00071 0.997972
1.00006 1.00032 0.995132
1.00129 1.00123 0.991231
1.00035 1.00001 0.994903
1.00007 0.999992 0.995149
0.999623 1.00057 0.995401
1.00027 0.999906 0.995085
0.999851 1.00061 0.99508
1.00007 1.00003 0.995292
1.00163 1.00033 0.992171
1.00034 1 0.997554
1.00052 0.99999 0.99475
1.00044 0.999878 0.99502
1.00184 0.999994 0.992103
1.00167 1.00011 0.992271
1.00019 1.00027 0.994858
1.00124 1.00099 0.992122
1.00411 1.0003 0.987969
1.00007 1.00027 0.997673
1.00013 1.00011 0.996453
0.999817 1.00054 0.996485
1.00004 1.00009 0.997763
1.0012 1.00136 0.991228
1.0004 0.999843 0.994933
1.00012 1.00037 0.995002
1.00194 1.00018 0.992503
0.999575 0.999511 0.9984
1.00159 1.00083 0.992501
1.00094 1.00165 0.991415
1.00329 1.00176 0.987206
0.999661 0.998467 0.998739
1.00036 1.00001 0.997527
1.00024 1.00001 0.996338
1.00032 0.999995 0.997547
1.00001 1.00004 0.995215
1.00196 1.00003 0.991271
1.00015 0.999965 0.997842
1.00211 1.00011 0.9923
1.00004 0.999846 0.995316
0.999821 1.0001 0.995477
0.999538 1.00094 0.995222
1.00178 1.00016 0.99211
1.00021 1.00002 0.996363
1.00028 0.999991 0.994987
0.999855 1.00063 0.995012
1.00021 0.999863 0.995234
1.00194 0.999959 0.992007
1.00144 1.00078 0.992045
1.0018 1.00002 0.992193
1.00411 1.00032 0.987951
1.00029 0.999999 0.997568
1.00046 1.00002 0.994809
1.00179 1 0.992807
1.00186 1.00003 0.992036
1.00179 0.999966 0.99222
1.00435 0.999948 0.987812
1.00427 0.999973 0.987749
0.999958 0.999789 0.995463
1.00079 1.00169 0.992095
1.00387 1.00075 0.987913
1.00505 1.00005 0.985826
1.0003 1.00014 0.997616
0.99992 0.999863 0.997966
1.00006 1.00039 0.997637
1.00113 1.00146 0.991219
1.00042 0.999978 0.997578
1.00019 1.00032 0.997636
1.00183 1.00013 0.991297
0.999693 0.999591 0.997161
1.00138 1.00091 0.991332
1.00082 1.00169 0.992221
1.00335 1.00167 0.98719
0.9998 0.998931 0.998436
0.999733 1.00039 0.994862
1.00202 0.99999 0.991176
1.00174 1.00042 0.991294
1.00434 1.00022 0.986885
1.00042 1.0015 0.993749
1.00371 1.00099 0.987257
1.00228 1.00341 0.987381
1.00461 1.00138 0.98527
0.999588 0.998038 0.99898
0.999582 0.998383 0.998843
1.00043 0.999993 0.997522
1.00038 1.00001 0.997526
1.00035 0.999997 0.997547
1.0002 1.00002 0.996374
1.00199 1.00001 0.991908
1.00028 0.999974 0.996354
1.00205 1.00013 0.991708
1.00034 0.999992 0.997558
1.00188 0.999945 0.991451
1.00208 1.00011 0.992385
1.0044 0.999692 0.987351
1.00208 1.00003 0.992389
1.00445 0.999901 0.987064
1.00031 1.00001 0.994962
1.00002 0.999986 0.995229
0.999506 1.00104 0.995174
0.999977 0.999825 0.995444
1.00204 0.999963 0.99191
1.00191 0.999932 0.99212
1.00163 1.00052 0.991976
1.0041 1.00034 0.987932
1.00033 0.999996 0.997562
1.0002 1.00002 0.995047
1.00191 0.999977 0.991739
1.00196 1.00001 0.991929
0.999836 1.00008 0.996658
1.00104 1.00157 0.992227
1.00189 0.999914 0.992135
1.00436 0.999926 0.987729
1.00386 1.00077 0.987925
1.00427 1.00004 0.98781
1.00503 1.00006 0.985851
1.00186 0.999973 0.991489
1.0018 1.00001 0.992122
1.00432 0.999655 0.987959
1.00436 0.99985 0.987694
1.00433 0.99987 0.987709
1.00519 0.999562 0.986347
0.99972 0.999472 0.998292
1.00513 0.99981 0.985927
1.00025 1.00209 0.992017
1.00323 1.00177 0.98729
1.00493 1.00045 0.985698
1.00523 0.99976 0.985792
0.999893 1.00135 0.993457
1.00021 1.00434 0.990051
1.00041 1.00001 0.997591
1.00013 1.00031 0.997646
1.00184 1.00011 0.991297
0.999769 0.999284 0.998335
1.00056 1.00195 0.991659
1.00134 1.00094 0.991339
1.00342 1.00159 0.987174
0.999708 0.998852 0.99855
0.999717 1.00029 0.994912
1.00204 1.00002 0.991816
1.00172 1.00044 0.991926
1.00434 1.00023 0.986881
1.00018 1.00158 0.992851
1.00372 1.00097 0.987264
1.0023 1.00336 0.98737
1.00457 1.00133 0.985252
0.999924 1.00104 0.99389
0.999746 0.99961 0.995599
1.00029 1.00331 0.991012
1.00443 1.00009 0.986881
1.00406 1.00056 0.987034
1.00512 1.00009 0.985658
1.00134 1.0041 0.988415
1.00476 1.00084 0.985479
1.00383 1.00298 0.98522
1.00501 1.00115 0.984924
0.999609 0.997729 0.99909
0.999555 0.997971 0.999027
0.999524 0.998274 0.998928
0.999813 1.00089 0.994064
0.999668 0.999105 0.998483
1.00045 0.999978 0.99755
1.00038 1.00001 0.997516
1.00196 1.00014 0.991124
1.00191 1.00002 0.991332
1.00032 1 0.997548
1.00031 0.999996 0.997555
1.00187 0.999953 0.991447
1.00201 1.00009 0.991788
1.00439 0.99969 0.987351
1.00198 1.00006 0.991145
1.00444 0.999899 0.987059
1.00185 0.999941 0.991494
1.00437 0.999629 0.987457
1.00442 0.999782 0.987216
1.00518 0.998949 0.986791
1.00446 1.00001 0.986942
1.00522 0.999347 0.986333
1.00031 0.999993 0.997555
0.999963 1.00003 0.995285
1.00192 0.999969 0.990773
1.00205 1.00001 0.99182
0.999471 1.00032 0.99813
1.00137 1.00134 0.992357
1.00199 0.999887 0.992051
1.00438 0.999888 0.987647
1.00427 1.0001 0.987871
1.00383 1.00082 0.987937
1.005 1.00008 0.985876
1.00184 0.999958 0.99149
1.00191 1.00001 0.992009
1.00434 0.999634 0.987643
1.00438 0.99989 0.987735
0.999759 0.99956 0.998205
1.00051 1.00185 0.992584
1.00311 1.002 0.987577
1.00434 0.999902 0.987687
1.00519 0.999427 0.986376
1.00492 1.00047 0.98565
1.00512 0.999858 0.98603
1.00522 0.999751 0.985822
0.999935 1.00135 0.993449
1.0003 1.00415 0.99007
1.00433 0.999637 0.98752
1.00435 0.999772 0.987818
1.00518 0.999094 0.986834
1.00519 0.999158 0.986563
1.00518 0.999573 0.986333
1.00523 0.998486 0.987169
1.00003 1.00173 0.992788
1.00523 0.999215 0.986354
1.00187 1.00356 0.987837
1.00467 1.00116 0.985266
1.0052 1.00045 0.98534
1.0052 0.998912 0.986797
1.00064 1.00421 0.989463
1.00015 1.00357 0.990895
1.00091 1.00471 0.988645
1.00195 1 0.991234
0.999615 0.998759 0.99867
0.999705 1.00019 0.994962
1.00158 1.00049 0.991358
1.00434 1.00024 0.986877
1.00007 1.00168 0.99277
1.0023 1.00332 0.987359
1.00373 1.00095 0.987271
1.00453 1.00128 0.985234
0.999882 1.00099 0.993915
0.999758 0.999495 0.99564
1.00012 1.00351 0.991015
1.00442 1.00011 0.986871
1.00407 1.00056 0.987034
1.00514 1.00009 0.985639
1.00124 1.00418 0.988442
1.0048 1.00084 0.985489
1.00378 1.00296 0.985208
1.00496 1.00102 0.984891
0.999863 0.999004 0.995973
1.00075 1.0038 0.9897
1.00008 1.00234 0.992324
1.00046 1.00463 0.989388
1.00517 0.999847 0.985855
1.00497 1.00044 0.985555
1.0052 0.999572 0.98606
1.00245 1.00424 0.986516
1.00512 1.00056 0.985265
1.00441 1.00236 0.984737
1.00514 1.00095 0.984851
1.00027 1.00044 0.993865
1.00008 0.99842 0.996166
0.99968 0.997496 0.999125
0.999602 0.997689 0.999102
0.999534 0.997912 0.99906
0.999817 1.00026 0.994713
0.999632 0.998715 0.998662
0.999845 1.00093 0.994041
0.99972 0.999153 0.998418
1.00198 1.00009 0.99114
1.00195 1.00008 0.991205
1.00444 0.999899 0.987054
1.00439 0.99969 0.987352
1.00188 0.999962 0.991446
1.00034 0.999996 0.997549
1.00186 0.999944 0.991494
1.00436 0.999635 0.987457
1.00442 0.999787 0.987213
1.00518 0.998958 0.986785
1.00444 1.00002 0.986931
1.00522 0.99935 0.986323
1.00434 0.999627 0.987513
1.00517 0.99885 0.986917
1.0052 0.999121 0.986581
1.00519 0.997466 0.988305
1.00521 0.99959 0.986086
1.00523 0.998154 0.987531
1.00185 0.999946 0.991493
1.00202 0.999989 0.991896
1.00436 0.9996 0.987329
1.0044 0.999923 0.987775
0.999832 0.999674 0.998106
1.00076 1.00173 0.993031
1.0031 1.00216 0.987862
1.00434 0.999922 0.987665
1.00519 0.999288 0.986405
1.00511 0.99991 0.986132
1.00491 1.0005 0.985603
1.00522 0.999742 0.985853
0.999986 1.00133 0.993441
1.0004 1.00395 0.990087
1.00433 0.999584 0.987478
1.00437 0.999755 0.987802
1.00518 0.998971 0.986973
1.00519 0.999296 0.986508
1.00011 1.00172 0.992772
1.002 1.00344 0.987837
1.00463 1.00123 0.985319
1.00517 0.999657 0.986265
1.00523 0.998308 0.987381
1.0052 1.00044 0.985331
1.00523 0.999208 0.986376
1.0052 0.998862 0.986798
1.00072 1.00404 0.989461
1.00076 1.00465 0.988672
1.0002 1.00353 0.990893
1.00517 0.998981 0.986962
1.00519 0.999044 0.986893
1.00521 0.99762 0.988091
1.00523 0.998034 0.987613
1.00522 0.998575 0.987013
1.00517 0.996928 0.988739
1.00112 1.00397 0.988803
1.00519 0.997988 0.987549
1.00347 1.00304 0.985773
1.00515 1.00117 0.98443
1.0052 1.00007 0.985656
1.00513 0.997999 0.987749
1.00018 1.00265 0.99179
1.00137 1.004 0.988367
1.00037 1.00495 0.989012
1.00163 1.00391 0.988332
1.00441 1.00012 0.98686
0.999769 0.999392 0.99568
0.999834 1.00097 0.99394
1.00001 1.00363 0.991018
1.00409 1.00055 0.987032
1.00516 1.00009 0.985619
1.00114 1.00425 0.988471
1.00374 1.00298 0.985196
1.00483 1.00085 0.985497
1.0049 1.0009 0.984856
0.999875 0.998942 0.995991
1.00067 1.00391 0.989706
1.00005 1.00229 0.992358
1.00035 1.00487 0.989347
1.00518 0.999852 0.985839
1.005 1.00042 0.985528
1.0052 0.999577 0.986048
1.00233 1.00424 0.986551
1.00514 1.00062 0.985253
1.00443 1.0022 0.984741
1.00515 1.00095 0.984773
0.999995 0.99862 0.996109
1.00019 1.00127 0.993185
1.00126 1.00449 0.988236
1.0002 1.00397 0.990585
1.00101 1.00431 0.988941
1.0052 0.999097 0.986561
1.00517 1.00007 0.985563
1.00514 0.998791 0.986862
1.003 1.00358 0.986105
1.00515 1.0002 0.985555
1.00441 1.0019 0.984598
1.00028 1.00051 0.993776
1.00024 1.00183 0.992561
1.00023 1.00045 0.993939
1.00026 1.00044 0.993864
1.0001 0.998243 0.996788
1.00007 0.998404 0.996461
0.999836 0.997305 0.997992
0.999687 0.997456 0.999129
0.9996 0.997642 0.999113
0.999838 0.999649 0.995315
0.999631 0.998298 0.99885
0.999822 1.00033 0.994687
0.999685 0.998787 0.998598
0.999883 1.00095 0.994017
0.999761 0.999214 0.998351
1.00444 1.00003 0.98692
1.00442 0.99979 0.98721
1.00521 0.999366 0.986312
1.00518 0.998966 0.98678
1.00436 0.999641 0.987457
1.00185 0.999945 0.991491
1.00434 0.999626 0.987514
1.00517 0.998853 0.986916
1.0052 0.999136 0.986572
1.0052 0.99733 0.988458
1.0052 0.999599 0.986075
1.00523 0.998167 0.987514
1.00516 0.99883 0.986949
1.00515 0.997107 0.988803
1.00522 0.99771 0.987986
1.00518 0.995933 0.989752
1.00521 0.998653 0.987051
1.00519 0.996555 0.988976
1.00434 0.999534 0.987436
1.00439 0.999751 0.987786
1.00518 0.99886 0.987112
1.00519 0.999435 0.986453
1.0002 1.0017 0.992755
1.00201 1.0034 0.987839
1.00455 1.0013 0.985372
1.00517 0.999741 0.986196
1.00523 0.99813 0.987593
1.00522 0.9992 0.986398
1.00519 1.00042 0.985321
1.0052 0.99881 0.986799
1.0008 1.00392 0.989457
1.00072 1.00464 0.988699
1.00023 1.00344 0.990894
1.00516 0.998932 0.986938
1.00519 0.999044 0.986885
1.00521 0.997384 0.988365
1.00523 0.998124 0.987532
1.00116 1.00397 0.988771
1.00348 1.00295 0.98577
1.0051 1.00127 0.984471
1.00522 0.998756 0.986839
1.00517 0.996723 0.98896
1.0052 1.00006 0.98558
1.00519 0.998 0.987561
1.00514 0.997874 0.987876
1.00147 1.00398 0.988353
1.00157 1.00395 0.988313
1.00021 1.00262 0.991777
1.00031 1.00487 0.989118
1.00519 0.997348 0.98847
1.00522 0.99777 0.988015
1.00515 0.996146 0.98959
1.00518 0.996029 0.989537
1.00517 0.997224 0.988385
1.00514 0.995983 0.9898
1.00227 1.00369 0.987185
1.00512 0.996613 0.988864
1.00415 1.00277 0.98465
1.00515 1.00133 0.984336
1.00518 0.999562 0.985952
1.00511 0.99761 0.988105
1.00015 1.0019 0.992554
1.00022 1.00442 0.989793
1.00208 1.00332 0.987839
1.00063 1.00502 0.988671
1.00194 1.00326 0.988505
0.999883 0.998895 0.996009
1.00518 0.999856 0.985823
1.00002 1.00225 0.992392
1.00055 1.0041 0.989712
1.00023 1.00503 0.989306
1.00503 1.00041 0.985502
1.0052 0.999582 0.986036
1.00232 1.00409 0.986585
1.00444 1.00204 0.984747
1.00515 1.00067 0.985241
1.00517 1.00094 0.984698
1 0.998605 0.996118
1.00017 1.00128 0.993206
1.00125 1.00444 0.988246
1.00007 1.00408 0.990578
1.00085 1.00426 0.988935
1.0052 0.999094 0.986549
1.00518 1.00007 0.985545
1.00514 0.998765 0.986831
1.00297 1.00353 0.986109
1.00518 1.00024 0.985443
1.00466 1.00182 0.984569
1.00027 1.00074 0.993593
1.00018 1.00285 0.99174
1.00183 1.00367 0.988033
1.00033 1.00482 0.989689
1.00132 1.00346 0.989199
1.00516 0.998125 0.987512
1.00514 0.999425 0.986175
1.00509 0.998138 0.987215
1.00311 1.00284 0.986214
1.005 1.00093 0.984774
1.00028 1.00051 0.993772
1.00025 1.00178 0.992499
1.00018 1.00189 0.992517
1.00024 1.00251 0.99203
1.00019 1.00188 0.992593
1.00017 1.0005 0.993974
1.00022 1.00044 0.993939
1.00013 0.998174 0.996812
1.00025 1.00046 0.993862
1.00011 0.998264 0.996791
0.999931 0.997085 0.998022
1.00006 0.998404 0.99675
0.9998 0.997267 0.998568
0.999696 0.997405 0.999133
0.99989 0.999076 0.995799
0.999834 0.999705 0.995288
0.999637 0.997913 0.998995
0.999663 0.998386 0.998779
0.999826 1.00041 0.99466
0.999734 0.998837 0.998531
1.0052 0.999607 0.986065
1.0052 0.999137 0.986564
1.00523 0.998175 0.987497
1.0052 0.997194 0.98861
1.00516 0.998857 0.986915
1.00434 0.999625 0.987515
1.00516 0.998831 0.986952
1.00515 0.997106 0.988814
1.00523 0.99772 0.987976
1.00518 0.995782 0.989918
1.00521 0.998644 0.987029
1.0052 0.99645 0.989108
1.00516 0.997136 0.98878
1.00517 0.995746 0.989995
1.0052 0.995869 0.989767
1.0052 0.995085 0.99049
1.00518 0.997345 0.988271
1.00518 0.995576 0.989957
1.00516 0.998879 0.986915
1.00519 0.99905 0.986877
1.0052 0.997136 0.988639
1.00522 0.998211 0.987451
1.00122 1.00398 0.98874
1.00351 1.00285 0.985767
1.00498 1.00132 0.984511
1.00522 0.998937 0.986666
1.00518 0.996518 0.989181
1.00519 0.998011 0.987574
1.00519 1.00007 0.985505
1.00514 0.997751 0.988004
1.00143 1.00402 0.988339
1.00136 1.00401 0.988294
1.00025 1.00261 0.991764
1.00026 1.00481 0.989226
1.00518 0.997355 0.988464
1.00522 0.997861 0.987886
1.00515 0.995947 0.989817
1.00519 0.996128 0.98942
1.00217 1.00393 0.987144
1.00413 1.00267 0.984691
1.00514 1.00134 0.984304
1.00517 0.997415 0.988175
1.00514 0.995694 0.989984
1.00517 0.999599 0.985929
1.00513 0.996634 0.988863
1.00513 0.99735 0.988244
1.00219 1.00326 0.987807
1.00188 1.00318 0.988576
1.00063 1.00503 0.988643
1.00016 1.0019 0.992483
1.00015 1.00439 0.989919
1.00516 0.995656 0.99017
1.00518 0.995777 0.989936
1.00516 0.99512 0.990414
1.00513 0.995861 0.989628
1.00285 1.00355 0.986289
1.00515 0.996142 0.989501
1.00459 1.0025 0.983931
1.00499 1.00134 0.984456
1.00513 0.999171 0.986223
1.00007 1.0012 0.993201
1.0001 1.00373 0.990904
1.00047 1.00472 0.989351
1.00242 1.00309 0.987615
1.00087 1.00481 0.988226
1.00217 1.0025 0.988291
1 0.998595 0.996128
1.00014 1.00126 0.993227
1.0052 0.99909 0.986537
0.99992 1.00422 0.990572
1.00113 1.00455 0.988255
1.0007 1.00422 0.988928
1.00519 1.00007 0.985526
1.00513 0.998739 0.986801
1.00295 1.00348 0.986114
1.00486 1.0018 0.984539
1.0052 1.00026 0.98533
1.00025 1.00073 0.993598
1.00008 1.0029 0.991763
1.00186 1.00362 0.988033
1.00016 1.0049 0.989653
1.00124 1.00331 0.989293
1.00516 0.99814 0.987489
1.00514 0.999425 0.986152
1.00509 0.998169 0.987279
1.00325 1.00277 0.986007
1.005 1.00102 0.984794
1.00023 1.0021 0.992368
0.999821 1.00427 0.990602
1.00253 1.0023 0.988098
1.00025 1.00479 0.989492
1.00185 1.0023 0.989164
1.00511 0.996677 0.98874
1.00509 0.999537 0.986053
1.00507 0.997987 0.987317
1.00407 1.00201 0.985663
1.00487 1.00086 0.98506
1.00028 1.0005 0.993769
1.00025 1.0018 0.992522
1.00007 1.0025 0.992066
1.00014 1.00193 0.992473
1.00016 1.00193 0.992589
1.00013 1.00259 0.991979
1.00008 1.00287 0.991858
1.00009 1.00274 0.991777
1.00012 1.002 0.9926
1.00011 1.00061 0.993974
1.00017 1.0005 0.993974
1.00013 0.998169 0.996815
1.00022 1.00043 0.99394
1.00013 0.998198 0.996813
0.999994 0.996961 0.998031
1.00012 0.998274 0.996796
0.99992 0.997056 0.998028
0.999761 0.99722 0.999157
0.999939 0.998629 0.996177
0.999879 0.99915 0.995767
0.999671 0.997608 0.999093
0.999828 0.99978 0.995262
0.999662 0.997999 0.998952
0.999707 0.998456 0.998715
1.00522 0.998635 0.987008
1.00523 0.997737 0.987966
1.0052 0.996347 0.98924
1.00517 0.995652 0.990083
1.00515 0.997105 0.988825
1.00516 0.998832 0.986955
1.00516 0.99723 0.98866
1.00517 0.995795 0.989986
1.00519 0.995907 0.989745
1.0052 0.995052 0.990538
1.00518 0.997386 0.988261
1.00518 0.995367 0.990137
1.00518 0.99571 0.99011
1.00523 0.994959 0.990682
1.00519 0.995075 0.990481
1.00516 0.995697 0.989816
1.00518 0.997362 0.988457
1.00521 0.997951 0.987757
1.00515 0.995762 0.990044
1.0052 0.996235 0.989302
1.00217 1.00404 0.987104
1.00422 1.00257 0.984733
1.00514 1.0014 0.984273
1.00517 0.997606 0.987965
1.00513 0.995414 0.990167
1.00514 0.996656 0.988862
1.00516 0.999629 0.985906
1.00514 0.997101 0.988384
1.0023 1.00324 0.987775
1.00189 1.00294 0.988646
1.00062 1.00504 0.988614
1.00017 1.00188 0.992413
1.00012 1.00433 0.990046
1.00517 0.995673 0.990161
1.00518 0.995801 0.989873
1.00515 0.995254 0.990319
1.00282 1.00367 0.986277
1.00459 1.00244 0.984014
1.00503 1.00127 0.984432
1.00513 0.995878 0.989619
1.00513 0.998953 0.986518
1.00514 0.996104 0.98935
1.00008 1.00109 0.993315
1.00258 1.00287 0.987547
1.00197 1.00229 0.988885
1.00103 1.0049 0.988165
1.00048 1.00481 0.989374
1.00012 1.00369 0.99084
1.00521 0.995042 0.990495
1.00517 0.995149 0.990487
1.00514 0.994981 0.990382
1.00516 0.995286 0.990177
1.00364 1.00309 0.985537
1.00512 0.997171 0.988224
1.005 1.00245 0.983238
1.00497 1.00141 0.984286
1.00014 1.00029 0.994031
1.00007 1.0028 0.991898
1.00029 1.0043 0.99014
1.00074 1.00501 0.988525
1.00261 1.00281 0.987124
1.00202 1.00369 0.987591
1.00023 1.00073 0.993603
1 1.00292 0.991787
1.00515 0.998155 0.987466
0.999989 1.00498 0.989618
1.00191 1.00357 0.988034
1.00098 1.00323 0.989391
1.00514 0.999425 0.986129
1.00509 0.998204 0.98734
1.00343 1.00273 0.985797
1.00501 1.00109 0.984813
1.00018 1.00211 0.992382
0.9999 1.00433 0.990566
1.00261 1.00235 0.988089
1.00008 1.00495 0.989532
1.00167 1.00199 0.989672
1.00512 0.99664 0.988925
1.00509 0.999533 0.986123
1.00508 0.998069 0.987317
1.004 1.00218 0.985461
1.00494 1.00088 0.984891
0.999892 1.00295 0.991824
0.999778 1.00504 0.989696
1.00323 1.00145 0.987732
1.00079 1.0037 0.988688
1.00517 0.995372 0.989865
1.00507 0.997053 0.988705
1.00498 0.999822 0.985757
1.00436 1.00096 0.985245
1.00027 1.00179 0.992546
1.00009 1.0025 0.992077
0.99984 1.00303 0.992172
1.00012 1.002 0.992583
1.00003 1.00265 0.991929
1.00011 1.00201 0.992592
1.00002 1.00285 0.991897
1.00012 1.00273 0.991814
0.999969 1.00269 0.99219
1.00007 1.00313 0.991523
1.00012 1.0029 0.991582
1.0001 1.00209 0.992536
1.00005 1.00072 0.993937
1.00011 1.00059 0.993973
1.00012 0.998197 0.996807
1.00017 1.00048 0.993975
1.00013 0.998199 0.996813
1.00003 0.996892 0.998028
1.00014 0.998221 0.996815
0.999987 0.996928 0.998038
0.999905 0.997034 0.99803
1.00003 0.998226 0.996437
0.999945 0.998662 0.996146
0.999731 0.997282 0.999165
0.999867 0.999223 0.995734
0.999683 0.997656 0.999066
0.99969 0.99807 0.99889
1.00517 0.997425 0.98825
1.00518 0.995945 0.989723
1.00517 0.995157 0.990317
1.00521 0.994991 0.990585
1.00517 0.995827 0.989977
1.00516 0.997328 0.98854
1.00518 0.995763 0.990054
1.00523 0.994964 0.99066
1.00518 0.995114 0.990447
1.00516 0.995613 0.989912
1.00523 0.995027 0.990639
1.00519 0.994948 0.990658
1.00518 0.995005 0.990423
1.00518 0.995699 0.990153
1.00518 0.995825 0.98981
1.00514 0.995387 0.990225
1.00282 1.00381 0.986266
1.00453 1.00239 0.984095
1.00504 1.00121 0.984408
1.00514 0.995891 0.98961
1.00513 0.996056 0.989199
1.00513 0.998732 0.986814
1.00275 1.00269 0.987477
1.00172 1.00219 0.989477
1.00123 1.00501 0.988104
1.0001 1.00099 0.99343
1.00039 1.00484 0.989395
1.00013 1.00365 0.990774
1.00521 0.995089 0.99053
1.00517 0.995053 0.990533
1.00513 0.99505 0.990424
1.00343 1.00329 0.985519
1.00483 1.00249 0.983357
1.00494 1.00121 0.984598
1.00515 0.995299 0.990137
1.00513 0.997108 0.988162
1.00013 1.00025 0.994189
1.00008 1.0028 0.991895
1.00237 1.00267 0.987478
1.00187 1.00375 0.988089
1.00068 1.00501 0.98872
1.00026 1.00434 0.990072
1.00517 0.994933 0.990724
1.00515 0.994928 0.990532
1.00513 0.995037 0.990425
1.00512 0.995048 0.990093
1.00389 1.003 0.984321
1.00478 1.00042 0.985541
1.00504 1.0027 0.983082
1.00021 0.999838 0.994569
1.00021 1.00098 0.99348
1.00009 1.00172 0.992779
1.00002 1.00386 0.990876
1.00023 1.00483 0.989446
1.00046 1.00465 0.988813
1.00258 1.00185 0.987722
1.00194 1.00356 0.988943
1.00013 1.00215 0.992396
0.999975 1.00441 0.99053
1.00513 0.996599 0.989111
1.00015 1.00499 0.989568
1.00268 1.00244 0.988081
1.00146 1.00173 0.990175
1.00508 0.999513 0.986195
1.00508 0.99814 0.987318
1.00392 1.00231 0.985266
1.005 1.00089 0.984723
0.999906 1.00304 0.991719
0.999879 1.00496 0.989778
1.00317 1.00151 0.987828
1.00115 1.00376 0.988824
1.00518 0.995304 0.989987
1.00508 0.997058 0.98852
1.00501 0.999776 0.985767
1.00463 1.00106 0.985118
0.999726 1.00372 0.991373
1.0052 0.994899 0.990283
1.00071 1.0049 0.989119
1.00334 1.00196 0.986941
1.00513 0.99583 0.989921
1.00505 0.998537 0.986155
1.00497 1.00108 0.984891
1.00009 1.00255 0.992087
0.999814 1.00298 0.992141
0.99954 1.00308 0.992653
1.00011 1.00199 0.992586
1.00012 1.00272 0.991852
0.999839 1.00293 0.991937
1.0001 1.00208 0.992524
1.00009 1.00291 0.991603
0.999791 1.0028 0.992253
1.00015 1.00304 0.991545
0.999958 1.00244 0.992668
0.999914 1.00304 0.991892
1.00019 1.00341 0.991094
1.00026 1.00291 0.991401
1.00012 1.00222 0.992366
1.00001 1.00086 0.993859
1.00004 1.00074 0.993931
1.00011 0.998272 0.996767
1.0001 1.0006 0.993972
1.00012 0.998235 0.996803
1.00006 0.996852 0.998025
1.00014 0.99823 0.996813
1.00003 0.996858 0.998032
0.999984 0.996897 0.99804
1.00019 0.999827 0.994627
1.00009 0.997989 0.996575
1.00003 0.998254 0.996419
0.99982 0.997001 0.999211
0.999949 0.998707 0.996116
0.999736 0.997363 0.999145
0.9997 0.997729 0.999038
1.00517 0.995532 0.990007
1.00518 0.995156 0.990413
1.00524 0.994986 0.990638
1.00518 0.995802 0.989998
1.00523 0.994969 0.990697
1.00518 0.994949 0.990677
1.00517 0.995031 0.990399
1.00518 0.994954 0.990719
1.00521 0.994941 0.990538
1.00521 0.994931 0.990864
1.00521 0.995126 0.990564
1.00518 0.994951 0.99058
1.00513 0.995115 0.990465
1.00324 1.00347 0.985501
1.00473 1.00255 0.98348
1.0049 1.00102 0.984911
1.00515 0.995331 0.990099
1.00513 0.997028 0.988101
1.00215 1.00259 0.987836
1.0018 1.0038 0.988584
1.00048 1.00497 0.988914
1.00011 1.00019 0.994347
1.00013 1.00276 0.991894
1.00023 1.00447 0.990003
1.00518 0.994935 0.990695
1.00019 0.999861 0.994564
1.00017 1.00102 0.993407
1.00514 0.994923 0.990544
1.00513 0.995029 0.990422
1.00368 1.0032 0.984678
1.00497 1.00265 0.983226
1.00485 1.00019 0.985474
1.00511 0.995243 0.990034
1.00009 1.00172 0.992963
1.00008 1.00382 0.99085
1.00284 1.00239 0.987359
1.00132 1.00358 0.989338
1.00053 1.00464 0.988997
1.00019 1.00486 0.989533
1.0052 0.994948 0.99048
1.00515 0.99487 0.990539
1.00512 0.994918 0.990209
1.00473 0.99589 0.989811
1.0035 1.00306 0.985263
1.00442 1.00323 0.983908
1.0001 1.00121 0.993246
1.00018 1.00106 0.99342
1.00037 1.00154 0.992789
1.00013 1.00295 0.991434
0.999993 1.00456 0.990366
1.001 1.00433 0.988847
0.999806 1.00487 0.989423
1.00201 1.00115 0.989378
0.999928 1.00311 0.991616
1.00006 1.00486 0.989863
1.00518 0.995241 0.990108
1.00509 0.997103 0.988337
1.00149 1.0038 0.988961
1.00312 1.00153 0.987921
1.00503 0.999744 0.985775
1.00487 1.00117 0.984988
0.999804 1.00371 0.991328
1.00521 0.994906 0.990399
1.00049 1.00487 0.989172
1.0033 1.0019 0.986893
1.00512 0.995712 0.989906
1.00496 0.998648 0.98643
1.0049 1.00114 0.984945
0.999868 1.00463 0.990659
1.00453 0.995075 0.991709
1.00201 1.00363 0.98854
1.00388 1.00202 0.986365
1.0049 0.996459 0.989247
1.00397 1.00104 0.98573
0.998853 0.997289 0.990623
0.999747 1.00299 0.992111
0.999386 1.0032 0.992634
0.999628 1.0033 0.992584
1.00009 1.0021 0.992513
1.00008 1.00294 0.991625
1.00025 1.00294 0.991567
0.999692 1.00281 0.992316
1.00011 1.00222 0.992365
1.00022 1.00299 0.991385
0.999919 1.00244 0.992598
1.00014 1.00348 0.991098
1.00003 1.00296 0.991815
0.999965 1.0026 0.992362
1.00027 1.00351 0.990851
1.00019 1.00352 0.990998
1.00037 1.00306 0.991096
1.00015 1.00235 0.992045
1.00026 1.0028 0.991684
1.00016 1.00242 0.991931
1.00001 1.00089 0.993815
1.00001 1.00086 0.993854
1.00011 0.998367 0.996149
1.00005 1.00073 0.993926
1.00011 0.998319 0.996471
1.00003 0.996839 0.999151
1.00012 0.998274 0.9968
1.00006 0.996814 0.99803
1.00003 0.996825 0.998034
1.00014 0.99982 0.994695
1.0002 0.999786 0.994636
1.0001 0.997872 0.99668
1.00007 0.997995 0.996831
0.999893 0.996818 0.999242
1.00003 0.998281 0.996402
0.999811 0.997069 0.9992
0.999742 0.997413 0.999125
1.00517 0.995054 0.990375
1.00518 0.99495 0.990696
1.00523 0.994924 0.990754
1.00518 0.994954 0.990721
1.00521 0.99494 0.990541
1.00521 0.994937 0.990525
1.00524 0.994973 0.990468
1.00103 0.994852 0.98698
1.00441 0.994909 0.993063
1.00003 1.00126 0.993448
1.00519 0.994936 0.990667
1.00514 0.994917 0.990556
1.00513 0.995021 0.990418
1.00336 1.00334 0.98503
1.00495 1.00259 0.98337
1.00494 0.999993 0.985411
1.00511 0.995455 0.989973
1.00324 1.0026 0.987
1.00066 1.00359 0.98974
1.00065 1.00459 0.989184
1.00016 0.999908 0.994559
1.00018 1.00491 0.98962
1.00007 1.0017 0.993146
1.00016 1.00377 0.990823
1.00016 1.00101 0.993335
1.0052 0.994944 0.990483
1.00011 1.00117 0.993344
1.00015 1.00112 0.993415
1.00033 1.00156 0.992731
1.00514 0.994889 0.990523
1.00513 0.994917 0.990234
1.0037 1.00293 0.985308
1.00432 1.0026 0.984461
1.00463 0.996351 0.989711
1.00004 1.003 0.991581
1.0001 1.00447 0.990193
1.00192 1.00201 0.989089
1.00024 1.00471 0.989463
1.00087 1.00426 0.988944
1.0052 0.995106 0.99053
1.00515 0.994878 0.990499
1.00508 0.995549 0.989748
1.00442 0.998215 0.989004
1.00189 1.00323 0.988367
1.00011 1.00214 0.992296
1.00039 1.00173 0.992263
1.00015 1.00233 0.992012
0.999886 1.00443 0.990963
1.00006 1.00454 0.989912
1.00019 1.00451 0.989426
1.00057 1.00334 0.989889
0.999935 1.00365 0.991279
1.00017 1.00485 0.989223
1.00523 0.994906 0.990509
1.00512 0.995555 0.989889
1.00492 0.998779 0.986705
1.0033 1.00183 0.986847
1.00485 1.00115 0.985001
0.999948 1.00452 0.990762
1.00446 0.995054 0.991828
1.00165 1.00365 0.988617
1.00359 1.00205 0.98641
1.00493 0.996083 0.98958
1.00412 1.00121 0.985698
0.998892 0.997393 0.988515
1.00002 1.00453 0.990501
1.00281 0.997497 0.991795
1.00157 1.00292 0.989159
1.00261 1.00173 0.98761
1.00375 0.997455 0.989102
1.00016 0.99533 0.953004
0.997044 0.99491 0.971897
0.996515 1.00229 0.989921
0.999789 0.996431 0.897615
0.994705 0.996714 0.872334
0.999259 1.00332 0.992617
0.999259 1.0035 0.992682
0.999666 1.00312 0.992437
1.00011 1.00222 0.992363
1.00027 1.0029 0.991369
1.00012 1.00352 0.991102
1.00014 1.00289 0.991737
0.999839 1.00245 0.992528
1.00023 1.00346 0.99096
1.00015 1.00233 0.992117
1.00035 1.00305 0.991125
0.999969 1.00257 0.992276
1.00018 1.00356 0.990979
1.00021 1.00365 0.990961
0.999785 1.00325 0.991693
1.0003 1.00357 0.990769
1.00034 1.0031 0.991023
1.0002 1.00241 0.991901
1.00033 1.00312 0.991165
1.00018 1.00297 0.991571
1.00012 1.00272 0.991851
1.00025 1.00282 0.991623
1.00023 1.00209 0.992312
1.00018 1.00243 0.991916
1.00007 1.00084 0.993796
1.00001 1.0009 0.993813
1.0001 0.99843 0.996129
1 1.00089 0.993849
1.00011 0.998382 0.996147
1.00003 0.996838 0.999147
1.00012 0.998368 0.996175
1.00005 0.996838 0.998574
1.00006 0.996777 0.998033
1.00008 0.999846 0.994779
1.00015 0.999806 0.994698
1.00011 0.99778 0.996764
1.00021 0.99975 0.994644
1.0001 0.997831 0.996936
0.999943 0.996657 0.999271
1.00008 0.998033 0.996549
0.999882 0.996894 0.999227
0.999806 0.99713 0.999189
1.0052 0.994937 0.990545
1.00519 0.994953 0.990722
1.0052 0.994937 0.990187
1.00086 0.994933 0.987104
1.00523 0.994967 0.99047
1.00429 0.995305 0.992662
1.00499 0.996247 0.991109
0.996849 0.994889 0.970894
1.00062 0.996784 0.9887
1.00005 1.0013 0.993393
1.00009 1.00121 0.993442
1.00003 1.00224 0.992477
1.00003 1.0022 0.992523
1.0052 0.99494 0.990486
1.00513 0.9949 0.990507
1.00513 0.99491 0.990258
1.00421 1.00261 0.985351
1.00415 1.00182 0.985009
1.00455 0.996863 0.989606
1.00165 1.00306 0.988797
1.00076 1.00458 0.989501
1.00074 1.00413 0.98904
1.00012 1.00121 0.993409
1.00015 1.00445 0.990018
1.00007 1.00302 0.991728
1.00011 1.00116 0.993443
1.00026 1.00159 0.992669
1.00521 0.995023 0.990526
1.00014 1.00216 0.992388
1.00036 1.00173 0.992445
0.999942 1.00226 0.992453
1.00516 0.994878 0.990407
1.00495 0.995477 0.989771
1.00245 1.00239 0.988281
1.00407 0.99805 0.989414
1 1.00421 0.990806
1.00021 1.00475 0.989494
1.00068 1.00378 0.989803
1.00079 1.0043 0.989322
1.00464 0.995036 0.991383
1.00511 0.995672 0.990092
1.00503 0.996123 0.989567
1.00202 0.999599 0.991621
0.999922 1.00325 0.991582
1.00021 1.00287 0.991437
0.999348 1.0047 0.991089
0.999572 1.0048 0.990189
0.999998 0.994896 0.945293
0.999974 1.00444 0.990866
1.00119 1.00374 0.988692
1.00444 0.994976 0.991947
1.00497 0.995747 0.989912
1.00419 1.00129 0.98566
1.00328 1.00214 0.986451
0.998981 0.997434 0.986347
0.99989 1.00469 0.990637
1.00299 0.997258 0.991825
1.00149 1.00299 0.989166
1.00311 1.00127 0.987575
1.00403 0.997626 0.989118
1.00123 0.99551 0.943725
0.99683 0.995055 0.967602
0.996465 1.0024 0.989708
0.999772 0.996686 0.901111
0.994701 0.996715 0.861663
0.999713 1.00389 0.991568
0.999838 0.99502 0.907699
0.995009 0.996284 0.872978
1.00158 0.999992 0.991308
1.00085 1.00267 0.990327
1.002 1.00073 0.989201
0.996428 1.00312 0.989662
1.00061 0.996844 0.949516
0.994915 0.996158 0.965386
0.997868 0.99874 0.905961
0.994792 0.997589 0.86827
0.998997 1.00367 0.992779
0.999508 1.00334 0.992361
0.999474 1.00299 0.993325
1.00017 1.0023 0.992189
1.00034 1.00308 0.991153
1.00009 1.00359 0.990923
1.00008 1.00359 0.991107
1.00002 1.00252 0.992191
1.0002 1.00239 0.99191
1.00011 1.00375 0.990919
1.00029 1.00357 0.990771
1.00039 1.00304 0.991091
0.999772 1.00327 0.991772
0.999991 1.00379 0.99128
0.999214 1.00373 0.991917
1.00039 1.00352 0.990616
1.00044 1.00318 0.990916
1.00038 1.00308 0.991139
1.00016 1.00296 0.991625
1.0004 1.00321 0.990983
1.00005 1.00301 0.991726
0.999831 1.00285 0.991838
0.99973 1.00398 0.991199
0.999975 1.00297 0.991838
1.00015 1.0027 0.991848
1.00017 1.00198 0.992519
1.00023 1.00283 0.991563
1.00025 1.00209 0.992244
1.00015 1.00074 0.993776
1.0002 1.00244 0.991901
1.00006 1.00085 0.993799
1.00011 0.998388 0.996726
1.00001 1.00092 0.993811
1.0001 0.998401 0.996428
1.00007 0.996855 0.997969
1.0001 0.998397 0.996145
1.00003 0.996849 0.999145
1.00007 0.996845 0.997995
1.00009 1.0014 0.993223
1.00002 0.999909 0.994799
1.00008 0.999832 0.994782
1.00012 0.997753 0.996791
1.00016 0.999783 0.994702
1.00012 0.997744 0.996765
0.999982 0.996553 0.999287
1.00009 0.997833 0.99717
0.999959 0.996738 0.998756
0.999925 0.996947 0.99819
1.00055 0.995077 0.98725
1.00521 0.994972 0.990473
1.00412 0.996002 0.992255
0.996752 0.994875 0.972169
1.00052 0.99649 0.988976
1.00502 0.995871 0.990951
1.00314 0.997191 0.988626
0.996608 0.996886 0.974861
1.00007 0.995666 0.950237
0.99933 0.998168 0.909505
0.994649 0.996942 0.870843
0.999932 1.00229 0.992453
1.00007 1.00128 0.99339
1.00015 1.00113 0.993435
1.00003 1.00224 0.992469
0.999817 1.00317 0.991909
1.00021 1.00258 0.991853
1.00003 1.00266 0.99218
0.999995 1.00231 0.992433
1.00521 0.994923 0.990518
1.00517 0.994882 0.990313
1.00488 0.995336 0.989796
1.00272 1.00192 0.988201
1.00374 0.997947 0.989828
1.00082 1.00434 0.989715
1.00129 1.00415 0.989219
1.00043 1.00491 0.989079
1.00024 1.00174 0.992629
1.00001 1.00422 0.990648
1.00016 1.0022 0.992481
0.999841 1.00218 0.992892
1.00467 0.994953 0.991493
0.999909 1.00329 0.991645
1.00016 1.00301 0.991579
1.00505 0.995421 0.99005
1.00482 0.995673 0.989748
1.002 0.999606 0.991266
0.999662 1.00494 0.990604
1.00017 1.00444 0.990273
1.00338 0.99608 0.991777
1.00468 0.996295 0.990468
1.00445 0.995216 0.991123
1.00158 0.999543 0.992122
0.999978 1.00437 0.990412
0.999587 1.00431 0.991044
0.999585 1.00498 0.990741
0.999873 0.994847 0.909187
1.00054 0.994973 0.954901
0.999828 1.00478 0.990774
1.00144 1.00292 0.989176
1.00315 0.996839 0.991861
1.00429 0.997931 0.989136
1.00364 1.00083 0.987548
1.00037 0.994937 0.951482
0.997175 0.995339 0.966837
0.9965 1.00256 0.989456
0.999442 0.99691 0.911218
0.994705 0.996803 0.850664
0.999726 1.00384 0.991564
0.999848 0.995732 0.906575
0.994929 0.996331 0.867585
1.00157 1.00021 0.991356
1.00091 1.00252 0.990386
1.00224 1.00051 0.989821
0.996696 1.0031 0.990262
1.00168 0.99684 0.942925
0.994916 0.995676 0.969252
0.998529 0.999264 0.906163
0.994803 0.997292 0.866287
0.999342 1.00351 0.992992
0.9951 0.996308 0.871319
0.994801 0.997181 0.885946
0.999371 1.00197 0.993416
0.999569 1.003 0.992717
0.995853 1.00276 0.99027
0.994854 0.998417 0.968483
0.998223 0.999092 0.94054
0.99493 0.999814 0.911891
0.994848 0.994799 0.873416
0.999478 1.0035 0.992286
0.999612 1.00257 0.993295
0.998383 1.00409 0.993146
1.0002 1.00238 0.991918
1.0004 1.00299 0.99116
1.00028 1.00356 0.990772
1.00005 1.00386 0.990877
0.999691 1.00335 0.991851
1.00042 1.00321 0.990912
1.00002 1.00367 0.991189
1.00041 1.00348 0.99064
0.998968 1.00408 0.992064
0.997356 1.0047 0.993872
1.00008 1.00373 0.991035
1.00065 1.00368 0.990143
1.00041 1.00305 0.991114
1.0002 1.00288 0.991679
1.0004 1.00324 0.990947
1.00007 1.00301 0.991694
0.999867 1.00279 0.992036
0.999808 1.00356 0.991513
0.999887 1.00346 0.991326
0.999764 1.00279 0.992195
1.00028 1.00275 0.991549
1.0001 1.00472 0.989333
0.999568 1.00434 0.990925
0.999793 1.00395 0.99119
0.999827 1.00342 0.99163
0.999999 1.00299 0.991829
1.00006 1.00207 0.992564
1.00014 1.00275 0.991844
1.00017 1.00197 0.992527
1.00021 1.00057 0.993785
1.00026 1.0021 0.992176
1.00014 1.00072 0.993786
1.00013 0.99836 0.99671
1.00006 1.00085 0.993802
1.00012 0.998358 0.99643
1.00006 0.996812 0.997984
1.00012 0.998372 0.996135
1.00003 0.996859 0.999141
1.00003 0.996852 0.999144
1.00012 1.0016 0.993222
1.00001 1.00003 0.994702
1.00008 1.00142 0.993229
1.00012 0.99776 0.996778
1.00003 0.999905 0.994801
1.00008 0.999833 0.994785
1.00012 0.997742 0.996788
1.00001 0.996496 0.999288
1.0001 0.997719 0.997244
1 0.996568 0.998797
0.999982 0.996744 0.99827
0.999853 0.995794 0.89933
0.99467 0.99631 0.871187
0.998052 0.994879 0.972204
1.00049 0.995647 0.989277
1.00507 0.995221 0.990795
0.996254 0.995923 0.975974
1.00338 0.996352 0.988975
1.00126 0.995967 0.949121
0.999827 0.997282 0.899404
0.99467 0.996849 0.860133
0.998687 0.995004 0.979562
1.00002 0.997851 0.949952
0.998228 0.999124 0.904314
0.994763 0.996344 0.868215
1.00001 1.00331 0.99147
0.999934 1.00227 0.992531
1.00011 1.00123 0.993388
1.00003 1.00221 0.992462
0.999788 1.00303 0.992099
1.00003 1.00356 0.991296
1.00013 1.00279 0.991822
1.00025 1.00301 0.991315
1.00007 1.00261 0.992081
0.999948 1.00243 0.992345
1.0047 0.994895 0.991604
1.00507 0.995152 0.990021
1.00436 0.995391 0.989928
1.00184 0.999683 0.99091
1.00068 1.00415 0.990357
0.999872 1.00509 0.990119
1.00014 1.00301 0.991724
0.999844 1.00336 0.991705
1.00339 0.995563 0.992038
0.999918 1.00461 0.990292
0.999534 1.0044 0.99094
1.00485 0.995911 0.990276
1.00425 0.995346 0.991054
1.00155 0.999448 0.992056
0.999805 1.00493 0.990703
1.00078 0.997317 0.992332
1.00294 0.995719 0.994016
1.00052 1.00105 0.992231
0.999525 1.00477 0.990163
0.999658 1.00504 0.990121
0.999348 1.00511 0.990818
0.994748 0.996323 0.887458
0.999856 0.994868 0.912361
1 0.994903 0.945525
0.999564 1.00395 0.991558
1.00101 1.00238 0.990441
1.00149 1.00037 0.991405
1.00249 1.00033 0.990435
0.999828 0.995255 0.913981
1.00017 0.996593 0.942975
0.994893 0.995178 0.965529
0.996907 1.00215 0.990827
0.99807 0.998909 0.895609
0.994899 0.996326 0.869606
0.994781 0.996903 0.872769
0.999072 1.00342 0.992958
0.994995 0.99556 0.877904
0.994852 0.997293 0.885569
0.999496 1.00161 0.993504
0.999382 1.00296 0.992724
0.995792 0.999839 0.993083
0.994875 0.997886 0.967549
0.99743 0.999401 0.950157
0.997173 0.999906 0.900689
0.994819 0.994791 0.88018
0.997563 1.00395 0.995312
0.994826 0.996216 0.89569
0.994794 0.994763 0.892085
0.995744 1.00213 0.999513
0.994829 0.999761 0.975054
0.994987 0.99997 0.95088
0.994842 0.999601 0.897462
0.994864 0.99481 0.878077
0.999746 1.00216 0.993263
0.99866 1.00396 0.993444
0.996973 1.00501 0.995046
1.00038 1.00327 0.990906
1.00045 1.00344 0.990663
1.00006 1.0035 0.991098
0.998716 1.00445 0.992217
1.00054 1.00379 0.990126
1.00005 1.00382 0.990983
0.997494 1.00468 0.994273
0.995358 1.00527 0.996922
0.998127 1.00462 0.993669
1.00035 1.00392 0.990426
1.00043 1.00326 0.990909
1.00008 1.00302 0.991663
0.999848 1.00279 0.992231
0.999895 1.00339 0.991447
0.999844 1.00354 0.991522
0.999758 1.00291 0.992234
1.00005 1.00304 0.991821
0.99871 1.00322 0.993434
1.00137 1.00009 0.991925
1.00032 1.0026 0.991681
1.00042 1.00368 0.990162
1.0018 1.00458 0.987144
0.999875 1.00486 0.9905
0.999953 1.00478 0.989732
0.999696 1.00427 0.990981
0.999664 1.00385 0.991292
0.999861 1.00392 0.991181
0.999918 1.00333 0.991629
1 1.00239 0.99236
1.00009 1.00292 0.991819
1.00012 1.00204 0.992557
1.00024 1.00055 0.993778
1.0002 1.00194 0.992534
1.00023 1.00059 0.993791
1.00015 0.998333 0.996707
1.00015 1.0007 0.993796
1.00014 0.998338 0.996415
1.00003 0.996891 0.997965
1.00014 0.998332 0.996135
1.00004 0.996835 0.998563
1.00002 0.996847 0.999143
1.00014 1.00202 0.992552
1.00007 1.00015 0.994521
1.00008 1.00164 0.993045
1.00012 0.997818 0.996714
1.00002 1.00002 0.994704
1.00006 1.00147 0.993232
1.00003 0.996478 0.999284
1.00011 0.997757 0.996778
1.00003 0.999891 0.994804
1.00012 0.997731 0.996785
1.00001 0.996512 0.999289
0.999982 0.996555 0.999286
0.994696 0.99485 0.877921
0.999871 0.995555 0.90568
0.994816 0.997533 0.8852
0.994678 0.996362 0.868656
0.996044 0.995524 0.973354
1.00344 0.996236 0.989358
1.00015 0.996303 0.947393
0.999817 0.997376 0.910178
0.994701 0.996942 0.849206
0.998373 0.995648 0.978691
1.00137 0.997624 0.93929
0.998415 0.999428 0.90508
0.994785 0.996966 0.862795
0.995708 0.996045 0.9737
0.99776 0.998921 0.941164
0.99558 0.999886 0.8958
0.994838 0.994793 0.868103
1.00004 1.00413 0.990782
0.999983 1.00321 0.991602
0.999917 1.00231 0.992608
0.999757 1.00291 0.99229
1.00039 1.00376 0.990298
1.00003 1.00334 0.99142
1 1.00295 0.991791
1.00042 1.00302 0.991179
1.00026 1.00304 0.991398
1.00009 1.00255 0.991983
1.00353 0.994941 0.992283
1.00488 0.995314 0.990096
1.0045 0.995246 0.990982
1.00166 0.999117 0.992002
1.00006 1.00478 0.990665
0.999638 1.00453 0.990838
0.999815 1.00476 0.990173
0.999934 1.00489 0.989982
1.00082 0.996868 0.992643
0.999871 1.00496 0.990031
0.999651 1.0051 0.990793
1.00313 0.995454 0.993842
1.00111 1.00073 0.992033
0.998495 0.996731 0.994037
0.998276 0.998307 1.0002
0.998571 1.00365 0.992629
0.999974 1.00484 0.989957
0.999319 1.00504 0.990876
0.994838 0.996203 0.900428
0.994748 0.996283 0.884946
0.999847 0.994854 0.902331
0.998826 1.00333 0.992926
0.999273 1.00286 0.992716
0.999666 1.00136 0.993604
0.994871 0.99487 0.878397
0.99748 0.998869 0.941785
0.99486 0.997313 0.967753
0.996042 0.998377 0.996111
0.995383 0.999884 0.912194
0.994959 0.997516 0.885251
0.994834 0.994804 0.880486
0.997511 1.00393 0.995523
0.994869 0.995547 0.898572
0.994775 0.994762 0.892165
0.995944 1.00231 0.998521
0.994859 0.999467 0.976564
0.996112 0.999866 0.941792
0.994858 0.994812 0.87803
0.994843 0.999959 0.904672
0.995645 1.00493 0.998222
0.9947 0.994792 0.910214
0.994801 0.994776 0.89522
0.994831 0.994793 0.868729
0.995095 1.00036 0.992818
0.994957 0.999785 0.954216
0.994963 0.999884 0.90453
0.999029 1.00365 0.99374
0.997539 1.00498 0.994206
0.995269 1.00519 0.998326
1.00051 1.00383 0.99011
0.999987 1.00388 0.990929
0.997545 1.00465 0.994662
1.00022 1.00388 0.990489
0.998123 1.00448 0.993723
0.995685 1.00529 0.996721
0.995301 1.00515 0.998222
0.998044 1.00423 0.99366
0.999891 1.00333 0.99157
0.999875 1.00352 0.991531
0.999789 1.00301 0.992277
0.998919 1.00341 0.993289
0.999964 1.00297 0.991811
0.999728 1.0023 0.993015
1.00059 1.00057 0.992932
1.00139 1.00201 0.989633
1.00037 1.00243 0.991815
1.00087 1.00358 0.98987
1.00248 1.00345 0.986681
1.00243 1.00382 0.986589
1.00032 1.00487 0.98951
1.00148 1.00454 0.987224
0.999869 1.00454 0.990576
0.999783 1.00492 0.99044
0.99978 1.00482 0.990131
0.999818 1.0042 0.991038
0.999724 1.00373 0.991392
0.999982 1.00273 0.992053
0.999994 1.00324 0.991629
1.00005 1.00234 0.992364
1.0002 1.00075 0.993644
1.00015 1.00202 0.992552
1.00025 1.00055 0.993773
1.00012 0.998326 0.996729
1.00023 1.00058 0.993797
1.00015 0.998309 0.996418
0.999994 0.996965 0.997976
1.00016 0.99829 0.996124
1.00001 0.996898 0.998552
1.00001 0.996871 0.999143
1.00028 1.0022 0.991956
1.00011 1.00045 0.99392
1.00017 1.00201 0.992551
1.00014 0.997914 0.99658
1.00006 1.00016 0.994381
1.00008 1.00163 0.992871
1.00003 0.996531 0.999265
1.00012 0.997808 0.996719
1.00002 0.999997 0.994706
1.00003 0.996488 0.999285
1.00011 0.997754 0.996779
1.00001 0.996512 0.999289
0.994812 0.994817 0.896082
0.994703 0.995512 0.883882
0.999854 0.99578 0.90656
1.00054 1.00315 0.990742
0.994782 0.99562 0.89749
0.994809 0.996746 0.885004
0.994711 0.996347 0.873646
0.998498 0.995919 0.977368
0.999585 0.998278 0.949311
0.998128 0.998832 0.893942
0.994771 0.997122 0.866208
0.996554 0.995579 0.969908
0.997424 0.99898 0.949752
0.996972 0.999899 0.89987
0.994825 0.995181 0.870813
0.994862 0.996523 0.965945
0.995314 0.999941 0.949277
0.994881 0.999977 0.905199
0.994875 0.994819 0.877815
1.00016 1.00448 0.989984
1.00003 1.00419 0.990616
1.00001 1.00312 0.991734
1.00035 1.00386 0.990327
1.00029 1.00388 0.990477
1.00006 1.00328 0.991545
1.00046 1.00298 0.991208
1.00026 1.00305 0.99148
1.00051 0.996938 0.992888
1.00328 0.995467 0.993628
1.00005 1.00499 0.989802
1.00166 1.00063 0.991821
0.999941 1.0051 0.990767
1 1.005 0.98994
0.99992 1.00486 0.989969
0.997768 0.997239 0.994636
0.999586 1.00489 0.990966
0.999319 1.00348 0.992683
0.998407 0.997735 1.00021
0.999969 1.00488 0.99008
0.996033 0.998795 0.994089
0.995092 1.00052 1.0031
0.997946 1.00516 0.992845
0.999675 1.00474 0.991016
0.994696 0.994773 0.915305
0.994831 0.996263 0.900359
0.99474 0.996295 0.882421
0.997424 1.00398 0.995758
0.995866 1.00205 0.997517
0.994851 0.994824 0.901379
0.995096 0.999985 0.951125
0.994873 0.998973 0.973668
0.994846 0.999953 0.9041
0.994771 0.994764 0.892215
0.994842 0.994821 0.877979
0.995889 1.00485 0.99781
0.994722 0.994793 0.910033
0.994795 0.994768 0.899008
0.994945 1.00112 0.996143
0.994815 0.995313 0.871195
0.994903 0.999042 0.948696
0.994952 0.99988 0.909204
0.995058 1.00422 0.99865
0.994745 0.994788 0.914249
0.994759 0.995828 0.897909
0.994757 0.996435 0.86851
0.995809 0.999987 0.904674
0.994909 0.999629 0.982736
0.994951 1.00043 0.941396
0.998131 1.00503 0.993367
0.995536 1.0051 0.997848
0.994966 1.00506 0.999647
1.00007 1.00387 0.990553
0.998089 1.0044 0.993778
0.996128 1.00497 0.996526
0.998277 1.00422 0.993551
0.99543 1.00449 0.998152
0.997598 1.00336 0.996205
0.999162 1.00352 0.993141
0.999791 1.00298 0.991802
0.9998 1.00246 0.993138
0.999477 1.00368 0.991189
0.999806 1.001 0.993922
1.00123 1.00187 0.99017
1.00283 1.00286 0.986738
1.00435 1.00212 0.984804
1.00132 1.0035 0.989574
1.00291 1.00357 0.985858
1.00337 1.00304 0.986552
1.00106 1.00435 0.988149
1.00237 1.00377 0.986778
0.999903 1.00493 0.989872
1.00036 1.00486 0.989463
1.00115 1.00451 0.987307
0.999986 1.00325 0.991487
0.999787 1.00452 0.990641
0.999707 1.00496 0.99038
0.999793 1.00362 0.99149
1.00003 1.00269 0.992052
1.00019 1.00106 0.993354
1.0001 1.00231 0.992367
1.00021 1.00075 0.993638
1.00008 0.99846 0.996132
1.00026 1.00058 0.993769
1.00014 0.99832 0.996151
0.999873 0.997028 0.99915
1.00016 0.99829 0.996126
0.999971 0.996972 0.998553
0.999981 0.996928 0.999138
1.00031 1.00243 0.991639
1.00021 1.00076 0.993449
1.00025 1.00224 0.992055
1.00015 0.998081 0.996392
1.00013 1.00046 0.993862
1.00015 1.00203 0.99255
1.00003 0.996602 0.999234
1.00013 0.997905 0.996591
1.00006 1.00018 0.994241
1.00004 0.996507 0.999271
1.00012 0.997796 0.996724
1.00003 0.996499 0.999287
0.994728 0.994779 0.911215
0.99481 0.995498 0.895926
0.994702 0.996157 0.884091
1.00046 1.00318 0.990832
1.00044 1.00334 0.990572
1.0005 1.00361 0.990465
0.994813 0.994768 0.894721
0.994784 0.995382 0.897532
0.994802 0.996424 0.8848
0.996402 0.994937 0.972216
0.998339 0.999339 0.939904
0.995204 0.999909 0.911651
0.994841 0.995966 0.867036
0.9949 0.996484 0.969272
0.996001 0.99996 0.945989
0.994821 0.999835 0.904945
0.994862 0.994822 0.877645
0.994892 0.996743 0.965247
0.994902 0.999709 0.950996
0.994978 0.999966 0.904753
0.99485 0.99481 0.873272
1.00034 1.00423 0.989913
1.0002 1.0045 0.989867
1.00016 1.00413 0.99045
1.00045 1.00371 0.990299
1.00016 1.00391 0.990658
1.00049 1.00297 0.991236
0.997154 0.997652 0.995231
0.998174 0.997326 1.00026
1.00001 1.00467 0.98998
0.999967 1.00299 0.992746
0.999666 1.00483 0.991055
0.999948 1.00474 0.990043
0.999314 1.00476 0.991139
0.995754 0.998649 0.994398
0.997984 1.0051 0.993528
0.99534 1.00098 1.00199
0.999615 1.00427 0.991186
0.994996 0.998521 0.993909
0.996 1.00198 0.998528
0.998289 1.00515 0.993451
0.994727 0.994739 0.919644
0.994703 0.994766 0.916426
0.994819 0.996278 0.900278
0.99611 1.00482 0.99738
0.99494 1.00113 0.993088
0.994723 0.994795 0.909855
0.994861 0.999223 0.950656
0.994954 0.999872 0.898583
0.99479 0.994751 0.902787
0.994842 0.996222 0.867555
0.995153 1.00396 0.999104
0.994735 0.994793 0.91579
0.994777 0.995489 0.897964
0.994934 0.999667 0.979261
0.99478 0.997174 0.863181
0.994808 0.999964 0.904126
0.994932 1.00008 0.951609
0.995142 1.00486 0.995054
0.994729 0.994784 0.911571
0.994864 0.997835 0.88567
0.994619 0.997109 0.871528
0.995934 0.999216 0.895677
0.995934 0.99992 0.949421
0.994998 1.00038 0.973327
0.995936 1.00509 0.997378
0.995245 1.00415 0.999584
0.996555 1.00344 0.998221
0.998441 1.00432 0.993445
0.995595 1.00414 0.998105
0.996602 1.0041 0.996659
0.999769 1.00189 0.993961
0.999879 1.00272 0.99326
1.00078 1.00329 0.990758
1.00184 1.00432 0.987242
1.00105 1.00178 0.990726
1.00302 1.00297 0.98647
1.00406 1.0039 0.983574
1.00494 1.00161 0.984221
1.00404 1.00205 0.98539
1.00432 1.00234 0.98461
1.00337 1.00367 0.985033
1.00286 1.00316 0.987096
1.00308 1.0029 0.986751
1.00048 1.00472 0.988684
1.0012 1.00433 0.988311
1.00233 1.00374 0.986967
0.999942 1.00437 0.990353
1.00006 1.00489 0.989878
1.00038 1.00488 0.989415
1.00017 1.00152 0.992933
1.00007 1.00321 0.991472
0.999705 1.00449 0.990706
1.00008 1.00266 0.99205
1.0002 1.00107 0.993348
0.999993 0.998696 0.996035
1.00022 1.00076 0.993633
1.00008 0.998463 0.996124
0.999813 0.997186 0.99914
1.00015 0.998314 0.996148
0.999907 0.997058 0.998564
0.999935 0.997009 0.999139
1.00035 1.00271 0.991484
1.00029 1.00099 0.993267
1.00035 1.00241 0.991702
1.00017 0.998269 0.996161
1.0002 1.00076 0.993532
1.00027 1.00224 0.992155
1.00002 0.996735 0.999191
1.00015 0.998055 0.996407
1.00015 1.00045 0.993805
1.00003 0.996594 0.999243
1.00013 0.997899 0.996602
1.00004 0.996504 0.999278
0.994745 0.994797 0.913905
0.99473 0.994798 0.911038
0.994806 0.996189 0.895879
1.00032 1.00372 0.990389
1.00054 1.00384 0.990134
1.00041 1.00322 0.990924
1.00041 1.00345 0.990546
1.00036 1.00372 0.990434
1.00029 1.00397 0.990283
1.00038 1.00386 0.99022
0.994789 0.99475 0.891622
0.99481 0.994768 0.898568
0.994785 0.994751 0.897589
0.994848 0.994813 0.877503
0.994901 0.99628 0.966454
0.995195 0.999961 0.94312
0.994859 0.999694 0.911981
0.994887 0.997221 0.964371
0.994884 0.999958 0.942338
0.994951 0.999899 0.909704
0.994815 0.99479 0.88007
0.994951 0.996331 0.96831
0.994912 1.00017 0.942164
0.994797 0.999836 0.898088
0.994785 0.997851 0.867467
0.999617 1.00499 0.990554
1.00022 1.00438 0.989952
1.00025 1.00471 0.98975
1.00057 1.00356 0.990273
0.995591 0.998454 0.994828
0.995519 1.00233 1.00088
0.999925 1.00488 0.990007
0.999259 1.00478 0.991263
0.998398 1.00514 0.994204
0.99958 1.00446 0.99114
0.997976 1.00515 0.993454
0.994875 0.999929 0.991015
0.995448 1.00335 0.998772
0.997661 1.00491 0.994085
0.995066 0.998562 0.989834
0.997358 1.00411 0.997332
0.994694 0.994785 0.915422
0.994719 0.994731 0.922482
0.994719 0.994753 0.917544
0.995007 1.00366 0.999512
0.994938 0.99845 0.983409
0.994731 0.994798 0.917368
0.995955 1.00012 0.942044
0.994841 0.999872 0.911148
0.994797 0.994757 0.898031
0.994767 0.997454 0.86668
0.994965 1.00367 0.99571
0.99473 0.994799 0.911411
0.994823 0.996936 0.885475
0.994918 1.00055 0.974252
0.994657 0.996957 0.86105
0.997002 0.99991 0.89946
0.994882 0.999868 0.941622
0.995375 1.00486 0.989799
0.994809 0.994837 0.896762
0.994646 0.996387 0.872017
0.998628 0.998107 0.904958
0.995205 0.999976 0.949228
0.994904 1.00003 0.967064
0.995296 1.00329 0.999729
0.995896 1.0041 0.998164
0.997303 1.00146 0.9973
0.995708 1.00471 0.997112
0.998584 1.00214 0.99448
1.00293 1.00041 0.99031
1.00211 1.0028 0.990326
1.00225 1.00414 0.987163
1.00301 1.00447 0.984361
1.00319 1.00308 0.986205
1.00443 1.0039 0.983137
1.00438 1.00419 0.98264
1.00498 1.00104 0.984805
1.00506 1.00117 0.984597
1.00485 1.00176 0.984203
1.00382 1.00185 0.985804
1.00405 1.00195 0.985557
1.00426 1.00257 0.984417
1.0022 1.00423 0.986906
1.00271 1.00313 0.987067
1.00276 1.00276 0.986948
1.00032 1.00503 0.989016
1.00052 1.00475 0.988915
1.00135 1.00428 0.988475
1.00006 1.00241 0.99214
1.00012 1.00421 0.99037
1.00021 1.00485 0.989884
0.999906 0.998955 0.995912
1.00019 1.00152 0.992916
1.00015 1.00318 0.991458
1.00022 1.00107 0.993342
0.99999 0.998717 0.996022
0.999728 0.997395 0.999122
1.00009 0.998459 0.996117
0.999806 0.997224 0.999136
0.999874 0.997086 0.999143
1.00035 1.0038 0.990368
1.00045 1.00294 0.991139
1.00034 1.00133 0.992859
1.00037 1.0027 0.991473
1.00016 0.998523 0.995912
1.00028 1.001 0.993267
1.00031 1.00247 0.991764
1 0.996887 0.999137
1.00016 0.998266 0.996177
1.0002 1.00076 0.993615
1.00002 0.9967 0.999204
1.00015 0.998039 0.996422
1.00004 0.996562 0.999253
0.994686 0.994789 0.909886
0.994734 0.994794 0.915482
0.994733 0.994818 0.910841
1.0004 1.00367 0.99042
1.00041 1.0039 0.990144
1.00025 1.0036 0.990379
1.00017 1.00415 0.990114
1.00045 1.00432 0.99005
1.0004 1.00352 0.99052
1.00029 1.00383 0.990403
1.00035 1.00392 0.990287
1.00038 1.004 0.99028
1.00009 1.00459 0.990243
0.994801 0.997577 0.885002
0.994761 0.994763 0.891755
0.994805 0.994764 0.902395
0.994822 0.994794 0.880381
0.99497 0.999959 0.898818
0.994867 0.998432 0.962849
0.994888 0.999991 0.950764
0.995003 0.996697 0.965114
0.994922 0.999671 0.951258
0.99485 0.999977 0.905806
0.994803 0.997586 0.865272
0.995037 0.994971 0.969992
0.994923 1.00001 0.951293
0.99546 0.999885 0.910788
0.994723 0.996922 0.870096
0.998784 1.00377 0.99278
0.999755 1.00487 0.990494
1.00022 1.00439 0.989991
0.994914 1.00059 0.987957
0.995342 1.00399 0.999025
0.99954 1.00449 0.991094
0.99728 1.00519 0.993457
0.997784 1.00457 0.994104
0.996466 1.00365 0.997388
0.99498 0.998811 0.989947
0.996119 1.002 0.998541
0.996011 0.999878 0.99065
0.994846 0.995913 0.90002
0.994703 0.994777 0.916512
0.994706 0.994728 0.925324
0.994998 1.00253 0.996006
0.99491 1.001 0.970807
0.994732 0.994819 0.911225
0.995953 0.999977 0.948509
0.995074 0.99992 0.911204
0.994779 0.99655 0.885288
0.994709 0.996957 0.850349
0.995376 1.00506 0.990293
0.994804 0.995287 0.896621
0.994675 0.996462 0.869507
0.994905 1.00002 0.968074
0.99845 0.999243 0.905707
0.996015 0.999944 0.944775
0.994871 1.0044 0.987431
0.994694 0.994841 0.878841
0.999717 0.997735 0.910524
0.997678 0.998797 0.941004
0.994861 0.997277 0.970045
0.995416 1.00494 0.9981
0.997361 1.00204 0.997189
1.00176 1.00176 0.991566
0.997428 1.00251 0.994922
1.00182 1.00062 0.99054
1.00392 0.999629 0.988106
1.00263 1.00393 0.987082
1.00311 1.00428 0.984408
1.00443 1.00165 0.984752
1.00479 1.00389 0.982701
1.00442 1.00378 0.982732
1.0048 1.0009 0.985118
1.00515 0.999116 0.986266
1.0051 1.00059 0.984927
1.00493 1.00094 0.984892
1.00507 1.00139 0.984523
1.00504 1.00121 0.984579
1.00478 1.0019 0.984186
1.00353 1.00299 0.985745
1.00377 1.00191 0.985969
1.00408 1.00188 0.985724
1.0014 1.00433 0.987853
1.00199 1.0042 0.98707
1.00257 1.00313 0.987037
1.00002 1.00388 0.990667
1.00048 1.00492 0.989035
1.00058 1.00479 0.989145
0.999821 0.999464 0.996174
1.00014 1.00243 0.992106
1.00029 1.00405 0.990388
0.999657 0.997642 0.997865
0.999901 0.999043 0.99616
1.00022 1.00152 0.992899
0.999986 0.998745 0.996009
0.999724 0.997437 0.999113
0.999798 0.997254 0.999131
1.00026 1.00406 0.990245
1.00043 1.00328 0.990825
1.00028 1.0039 0.990336
1.00035 1.00167 0.992487
1.00037 1.00304 0.991131
1.00013 0.998824 0.995662
1.00033 1.00133 0.992862
1.00042 1.00265 0.991461
0.999973 0.997087 0.99908
1.00016 0.998505 0.995928
1.00027 1.00102 0.993267
1 0.996871 0.999154
1.00015 0.998255 0.996192
1.00003 0.996682 0.999217
0.995046 0.994833 0.901808
0.994713 0.994791 0.909724
0.994727 0.994794 0.917082
1.00057 1.00309 0.990576
1.00038 1.00375 0.99045
1.00031 1.00394 0.990154
1.0003 1.00418 0.99011
1.0005 1.00351 0.990428
1.00036 1.00407 0.990276
1.00074 1.00408 0.989479
0.999781 1.00468 0.990045
1.00043 1.0038 0.99029
1.00008 1.00414 0.990338
0.999952 1.00456 0.990225
0.999425 1.00484 0.991563
0.995191 0.996606 0.871776
0.995058 0.997556 0.884623
0.994754 0.994774 0.891859
0.994805 0.99719 0.871926
0.99485 0.99996 0.905614
0.994942 1.00008 0.942212
0.99498 0.996654 0.963624
0.994957 0.994992 0.971559
0.994713 0.99707 0.859839
0.994896 0.999817 0.94632
0.996997 0.999912 0.899834
0.994875 0.99626 0.972114
0.995285 0.999963 0.951455
0.999155 0.998479 0.901648
0.999167 1.00161 0.995011
0.998945 1.00389 0.992734
0.999653 1.00481 0.990435
0.994872 0.999146 0.990186
0.995728 1.00321 0.997438
0.997781 1.00428 0.994121
0.99732 1.00184 0.998386
0.995526 0.999693 0.990755
0.996967 0.998801 0.993698
0.994754 0.997414 0.881461
0.99485 0.99544 0.903566
0.994722 0.994761 0.917602
0.995161 1.00508 0.990581
0.994864 1.00002 0.96818
0.994795 0.995844 0.896576
0.995106 0.999972 0.942431
0.998463 0.998016 0.894838
0.994723 0.996432 0.874604
0.995145 1.00472 0.987372
0.994701 0.995342 0.884764
0.999823 0.996504 0.900716
0.994929 0.997139 0.966046
0.99744 0.999014 0.949484
0.996785 1.0019 0.991396
0.999839 0.995624 0.900129
1.00003 0.997758 0.949865
0.994885 0.995574 0.965443
0.997309 1.00247 0.997185
1.00114 1.00087 0.991915
1.00323 1.00093 0.989029
1.00073 1.00094 0.990777
1.00329 1.00021 0.988102
1.00458 0.998336 0.98784
1.00319 1.00409 0.984454
1.00428 1.00169 0.984724
1.00499 0.997854 0.987318
1.00447 1.00339 0.982824
1.00475 1.0007 0.985164
1.00508 0.997436 0.987923
1.00513 0.99741 0.988046
1.00519 0.999404 0.985962
1.00514 0.998985 0.986397
1.00511 1.00078 0.984806
1.00508 1.0006 0.984992
1.00488 1.00084 0.98498
1.00482 1.00129 0.985112
1.0049 1.00136 0.984669
1.005 1.00122 0.984558
1.00275 1.00339 0.986577
1.00353 1.00289 0.985739
1.00372 1.00191 0.986133
1.00059 1.00457 0.989134
1.0015 1.00441 0.987826
1.00176 1.00413 0.987236
0.999747 1.0003 0.994762
1.00022 1.00372 0.990664
1.00067 1.00482 0.989054
0.999567 0.997907 0.999044
0.999805 0.99956 0.995496
1.00021 1.00241 0.992072
0.999659 0.997634 0.999087
0.999875 0.999111 0.995843
0.999722 0.997485 0.999105
1.00071 1.00361 0.99004
1.00031 1.00407 0.990198
1.00043 1.00364 0.990478
1.00032 1.00205 0.992166
1.00038 1.00333 0.990819
1.00028 1.0039 0.990304
1.00011 0.999122 0.995416
1.00034 1.00169 0.99249
1.00033 1.00311 0.991124
0.999933 0.99731 0.999018
1.00014 0.998789 0.995675
1.00033 1.00133 0.992864
0.999975 0.997049 0.999097
1.00016 0.99849 0.995943
1 0.996826 0.99917
0.995226 0.996089 0.871748
0.995006 0.994837 0.901702
0.994718 0.994793 0.909565
1.00042 1.00336 0.990521
1.00137 1.00299 0.990212
1.00057 1.00361 0.990168
1.00035 1.00426 0.990105
1.00074 1.00338 0.990476
1.00013 1.00392 0.990502
0.999979 1.00472 0.989993
1.00059 1.00414 0.989594
1.00039 1.00474 0.989411
0.999962 1.00074 0.993641
1.00014 1.00451 0.990208
0.999508 1.00467 0.991227
0.999799 0.997366 0.895805
0.995039 0.996578 0.86636
0.995244 0.997689 0.884321
0.994709 0.997297 0.849311
0.996644 0.999066 0.910877
0.994857 0.999967 0.944163
0.994897 0.995093 0.969358
0.994923 0.996221 0.97081
0.998453 0.99947 0.904341
0.996048 0.999959 0.942818
0.994891 0.997544 0.972138
0.998604 0.998934 0.941058
1.00192 0.997859 0.994203
0.999146 1.00171 0.994848
0.99909 1.00409 0.992701
0.995029 0.999552 0.990812
0.998315 1.0017 0.998221
0.997601 0.998855 0.99321
0.99904 0.998459 0.990668
0.99988 0.994851 0.908826
0.994782 0.996663 0.88159
0.994796 0.994848 0.907018
0.995493 1.00512 0.987485
0.994903 0.997002 0.96404
0.994704 0.995723 0.884907
0.998754 0.998686 0.939941
0.999823 0.996995 0.91136
0.996487 1.00094 0.989263
0.99987 0.995351 0.906546
1.00149 0.997229 0.939634
0.99492 0.995581 0.96891
0.998428 0.996744 0.991822
1.00003 0.995865 0.950633
0.996319 0.995846 0.971213
1.00046 0.999735 0.992204
1.00305 0.999705 0.988992
1.00484 0.997704 0.989181
1.00265 1.00068 0.988103
1.00432 0.998517 0.987834
1.00488 0.996442 0.989082
1.00423 1.00171 0.984698
1.00493 0.998151 0.987238
1.00509 0.995761 0.989419
1.00471 1.00052 0.985209
1.00508 0.997443 0.987912
1.00512 0.995867 0.989553
1.00512 0.996492 0.989248
1.00515 0.997228 0.988257
1.00515 0.998112 0.987521
1.00517 0.999853 0.985755
1.00518 0.999464 0.986003
1.00514 0.998852 0.986528
1.00513 1.00063 0.985067
1.00511 1.00078 0.9848
1.00507 1.00058 0.985057
1.00403 1.00211 0.985667
1.00467 1.00142 0.985105
1.00472 1.00139 0.984816
1.00151 1.00399 0.988138
1.0028 1.0034 0.986568
1.00348 1.00284 0.985731
0.999918 1.0012 0.993533
1.00073 1.00434 0.989143
1.00164 1.0044 0.987799
0.999612 0.998228 0.998893
0.999772 1.0004 0.994707
1.00038 1.0036 0.990662
0.999608 0.997934 0.998377
0.999795 0.999649 0.995475
0.999672 0.997702 0.999063
1.00099 1.00294 0.990197
1.00045 1.00375 0.990135
1.00036 1.004 0.990113
1.0004 1.00406 0.990152
1.00034 1.00371 0.990475
1.00029 1.00245 0.99182
1.00005 0.999442 0.995207
1.00031 1.00204 0.99217
1.00029 1.00342 0.990814
0.999883 0.997534 0.998953
1.0001 0.999105 0.995427
1.00032 1.0017 0.992492
0.999935 0.997266 0.999037
1.00014 0.998763 0.995689
0.999977 0.997027 0.999114
0.99983 0.995108 0.907339
0.995153 0.996119 0.8746
0.995067 0.99484 0.901577
1.0003 1.0036 0.990466
1.00053 1.0041 0.989667
1.00102 1.00296 0.990483
1.00242 1.00353 0.987317
1.00049 1.00408 0.99002
1.00013 1.00472 0.989943
1.00052 1.00415 0.989709
1.00018 1.00466 0.989667
1.0008 1.00346 0.988884
1.00127 0.99976 0.992951
1.00417 0.997305 0.989944
1.00018 1.00055 0.993719
0.999924 1.00397 0.990886
0.998751 0.997453 0.949775
0.999777 0.997882 0.900398
0.99496 0.996502 0.868288
0.99905 0.999759 0.892876
0.995645 0.999954 0.948901
0.994872 0.996141 0.972022
0.99487 0.997538 0.973938
0.997419 0.998762 0.951299
0.995892 0.997593 0.973254
1.00246 0.99607 0.994228
1.00123 0.998546 0.99429
0.999175 1.00183 0.994676
0.998365 0.998669 0.992807
0.999675 0.998462 0.990106
0.999988 0.994909 0.945409
0.999869 0.994878 0.912464
0.994834 0.996037 0.881828
0.996086 1.00014 0.987055
0.994989 0.995281 0.965723
0.999853 0.995631 0.907402
1.00041 0.997849 0.948935
0.997593 0.997805 0.992171
1.00126 0.995914 0.949071
0.996687 0.995236 0.968182
1.00138 0.99621 0.99067
0.999135 0.995685 0.977189
1.00289 0.998772 0.989019
1.00477 0.996796 0.989115
1.00497 0.995863 0.990277
1.00406 0.9987 0.987826
1.00473 0.996613 0.98901
1.00514 0.995066 0.990109
1.00481 0.998453 0.987159
1.00509 0.995847 0.989378
1.00507 0.99501 0.990386
1.00508 0.997452 0.987901
1.00512 0.995895 0.989509
1.00514 0.995509 0.990092
1.00511 0.996248 0.989397
1.00512 0.99709 0.98865
1.00516 0.997044 0.98847
1.00515 0.998126 0.987497
1.00518 0.998963 0.986651
1.00518 1.0002 0.985467
1.00517 0.999898 0.985731
1.00518 0.999523 0.986045
1.00477 1.00081 0.98555
1.0051 1.00068 0.985043
1.00511 1.00077 0.984793
1.00256 1.00278 0.987479
1.00398 1.00216 0.985677
1.00458 1.00154 0.9851
1.00031 1.00167 0.992366
1.00157 1.0039 0.988125
1.00276 1.00349 0.986559
0.999725 0.99877 0.9986
0.999992 1.00121 0.993504
1.0009 1.00412 0.989151
0.999675 0.99834 0.998803
0.999811 1.00048 0.994651
0.99967 0.997969 0.998957
1.00245 1.00346 0.987271
1.00105 1.00282 0.99017
1.0005 1.00392 0.989782
1.00023 1.00384 0.990229
1.0003 1.00404 0.990081
1.0003 1.0029 0.991332
1.00028 1.00376 0.990473
1.00027 1.00244 0.991827
0.999964 0.999782 0.995014
0.999814 0.997786 0.998898
1.00004 0.999416 0.995217
1.0003 1.00203 0.992173
0.999885 0.997511 0.998973
1.00009 0.999092 0.995438
0.999939 0.997223 0.999056
1.00005 0.995338 0.953572
0.999844 0.994999 0.906538
0.994991 0.996149 0.871129
1.0005 1.00465 0.989167
1.00074 1.00286 0.990755
1.00071 1.00397 0.989924
1.00226 1.00354 0.987491
1.004 1.00254 0.985051
1.00109 1.00357 0.988773
0.999939 1.0047 0.989922
1.00154 1.00345 0.988107
1.00094 0.999951 0.993035
1.00291 1.00001 0.989004
1.00475 0.996216 0.990857
1.00415 0.996569 0.990691
1.00372 0.997162 0.990594
0.99992 1.00074 0.993801
0.995991 0.996059 0.972617
1.00013 0.997224 0.946987
0.998088 0.997595 0.91072
0.997798 0.999422 0.941002
0.994869 0.997921 0.974675
0.995869 0.99774 0.978008
0.99972 0.997868 0.992224
1.00277 0.995733 0.994149
1.00082 0.999056 0.994377
1.00114 0.998483 0.989514
0.996477 0.997531 0.973352
1.00027 0.995034 0.954906
0.999852 0.994865 0.902276
0.996834 0.998666 0.992375
0.996842 0.994878 0.970195
1.00008 0.99667 0.947269
1.00086 0.996181 0.990799
0.998512 0.995768 0.976549
1.00366 0.995584 0.991015
1.00277 0.998295 0.987476
1.00471 0.995948 0.989018
1.00485 0.99569 0.990284
1.00514 0.994848 0.990627
1.00461 0.996772 0.98894
1.00515 0.995054 0.990063
1.0051 0.994936 0.990545
1.00509 0.995923 0.989336
1.00506 0.995106 0.990355
1.00514 0.995092 0.990432
1.00512 0.995929 0.989464
1.00513 0.99549 0.990016
1.00512 0.996167 0.989392
1.00512 0.996009 0.989543
1.00512 0.996946 0.988801
1.00517 0.998275 0.987444
1.00515 0.998141 0.987473
1.00518 0.999025 0.986623
1.00521 0.999688 0.986042
1.00499 1.00021 0.985667
1.00518 1.00024 0.985443
1.00516 0.999946 0.985708
1.00351 1.00138 0.987225
1.00476 1.00085 0.985552
1.00506 1.00074 0.985019
1.00072 1.00181 0.99153
1.00253 1.00283 0.987485
1.00393 1.00219 0.985686
0.99992 0.99933 0.99822
1.00041 1.00162 0.992356
1.00164 1.0038 0.98811
0.999827 0.998891 0.998458
1.00005 1.00124 0.993476
0.999758 0.998428 0.99869
1.00402 1.00275 0.98522
1.00251 1.00344 0.987292
1.00153 1.00404 0.987966
1.00103 1.00279 0.990143
1.0006 1.00386 0.989667
1.00056 1.00322 0.990635
1.00024 1.00408 0.990048
1.00028 1.00292 0.991336
0.999884 1.0002 0.994741
1.00026 1.00244 0.991834
0.999962 0.999742 0.995028
0.999741 0.998047 0.998844
0.99982 0.997749 0.998916
1.00004 0.999391 0.995227
0.999886 0.997462 0.998993
0.996796 0.994899 0.974228
1.00022 0.995535 0.944364
0.999827 0.995269 0.913786
1.00512 1.00083 0.984764
1.00092 1.00382 0.989826
1.00214 1.00357 0.987667
1.0015 1.0035 0.988485
1.004 1.00263 0.985042
1.00348 1.00079 0.987389
1.00224 1.0035 0.987332
1.0006 1.00012 0.993124
1.00336 0.999778 0.98889
1.00461 0.995888 0.990756
1.00485 0.996484 0.989062
1.00416 0.995665 0.991808
1.00405 0.996218 0.990599
1.00322 0.996965 0.991245
0.999945 0.997088 0.992488
0.995832 0.99583 0.970922
0.999478 0.996547 0.944828
0.995587 0.997314 0.976503
0.999931 0.996939 0.994297
1.00248 0.995451 0.994058
1.00062 0.99752 0.986931
0.996398 0.996223 0.974846
1.00001 0.994897 0.945508
1.00009 0.996608 0.99099
0.998459 0.996194 0.975403
1.00324 0.995496 0.991341
1.00278 0.997734 0.98791
1.00446 0.994845 0.991249
1.00451 0.997557 0.990699
1.00475 0.995506 0.990291
1.00515 0.994852 0.990508
1.00518 0.994859 0.990417
1.00515 0.995059 0.990018
1.00509 0.99493 0.990534
1.00516 0.994944 0.990506
1.00506 0.995196 0.990323
1.00514 0.995069 0.990397
1.00514 0.995723 0.989818
1.00512 0.995464 0.989941
1.00513 0.996181 0.98938
1.00517 0.997411 0.98824
1.00512 0.996801 0.988953
1.00517 0.998139 0.98762
1.00522 0.999305 0.986375
1.00518 0.999083 0.986595
1.00521 0.999698 0.986004
1.00509 1 0.985821
1.00396 1.00054 0.987271
1.00498 1.00027 0.985686
1.00518 1.00028 0.985419
1.00123 1.00135 0.991144
1.00345 1.00143 0.987233
1.00474 1.00089 0.985554
1.00005 0.999813 0.997903
1.00089 1.0016 0.991518
1.00251 1.00285 0.987492
1 0.999429 0.998095
1.00054 1.00152 0.992347
0.999927 0.998998 0.998317
1.00495 1.00125 0.984723
1.0039 1.00272 0.985222
1.00302 1.00325 0.986253
1.00257 1.00342 0.987313
1.00161 1.00408 0.987925
1.00089 1.00382 0.989504
1.00072 1.00379 0.98955
1.0004 1.00341 0.99064
0.999864 1.00071 0.99427
1.00022 1.00296 0.99134
0.99988 1.00014 0.994762
0.999685 0.99835 0.998758
0.99996 0.999705 0.995042
0.999744 0.998003 0.998864
0.999825 0.997723 0.998933
1.001 0.994968 0.990901
0.996791 0.994896 0.970745
0.999994 0.994924 0.954163
1.00464 0.999861 0.986213
1.00514 0.99942 0.986218
1.00507 1.00069 0.984902
1.00188 1.00339 0.988192
1.00399 1.00272 0.985029
1.00379 1.00062 0.98734
1.00505 0.997397 0.987938
1.00382 0.999511 0.988774
1.00443 0.995593 0.990646
1.00488 0.99652 0.989298
1.00499 0.995745 0.989733
1.00417 0.995442 0.991651
1.00392 0.995832 0.991663
1.00419 0.995973 0.9905
1.00019 0.996971 0.992621
0.995969 0.995772 0.969134
1.00027 0.996639 0.996445
1.00413 0.99567 0.991991
1.00047 0.997729 0.987113
0.996345 0.995803 0.972583
1.00313 0.994868 0.991638
1.00279 0.997704 0.988378
1.00452 0.995009 0.991584
1.00456 0.996778 0.99065
1.00521 0.994935 0.990398
1.00526 0.994985 0.990596
1.00515 0.994859 0.990389
1.00519 0.994881 0.9904
1.00519 0.994932 0.990372
1.00508 0.994928 0.990523
1.00515 0.994948 0.990476
1.00517 0.995349 0.990191
1.00513 0.995056 0.990363
1.00515 0.995742 0.989808
1.00516 0.996831 0.988828
1.00514 0.996195 0.989368
1.00517 0.99743 0.988242
1.00523 0.998881 0.986751
1.00517 0.998002 0.987796
1.00522 0.999244 0.986446
1.00515 0.999883 0.985854
1.00521 0.999712 0.985966
1.00508 0.999998 0.985829
1.00416 1.00018 0.987273
1.0015 1.00078 0.991193
1.00394 1.00056 0.987263
1.00497 1.00035 0.985705
1.00014 1.00017 0.99768
1.00128 1.00128 0.991144
1.00338 1.00153 0.987241
1.00011 0.999915 0.997804
1.001 1.0015 0.99151
1.00008 0.999545 0.997974
1.00511 1.00029 0.985389
1.00496 1.00116 0.984745
1.00434 1.00153 0.985612
1.0038 1.00269 0.985224
1.00301 1.00328 0.986263
1.00167 1.00377 0.988139
1.00168 1.00412 0.987885
1.00073 1.00396 0.989533
1.00005 1.00133 0.993387
1.00028 1.00356 0.990648
0.999843 1.00067 0.99429
0.999673 0.998747 0.998594
0.999877 1.00009 0.994782
0.999677 0.99829 0.998794
0.999749 0.997965 0.998882
1.00407 0.994891 0.992534
1.00099 0.995049 0.989223
0.99657 0.994896 0.970329
1.0051 0.998521 0.987241
1.00489 0.999515 0.986247
1.00521 0.998201 0.987343
1.00515 0.999398 0.986235
1.00503 1.00054 0.985042
1.00512 0.996573 0.988704
1.00413 1.00044 0.987293
1.00504 0.997624 0.987889
1.00514 0.99524 0.989991
1.00492 0.996554 0.989538
1.00496 0.995831 0.989624
1.00417 0.995549 0.991774
1.00349 0.995911 0.99151
1.00039 0.996906 0.992677
1.00521 0.9949 0.990464
1.00412 0.996306 0.992043
1.00041 0.997572 0.987281
1.00456 0.995166 0.991914
1.00458 0.995986 0.990607
1.00521 0.994917 0.990446
1.00526 0.99502 0.990505
1.00521 0.994946 0.990584
1.00519 0.994898 0.990384
1.00519 0.994931 0.990393
1.0052 0.995055 0.990462
1.00515 0.994949 0.990446
1.00516 0.995354 0.990139
1.00516 0.996396 0.989239
1.00516 0.99576 0.989797
1.00516 0.996856 0.988827
1.00523 0.998477 0.987167
1.00516 0.997448 0.988244
1.00522 0.998882 0.986772
1.00518 0.999806 0.985909
1.00521 0.999183 0.986517
1.00514 0.999886 0.985872
1.00427 1.00006 0.987201
1.00507 0.999992 0.985836
1.00416 1.00019 0.987265
1.00158 1.0004 0.992773
1.00035 1.00006 0.994882
1.00155 1.00073 0.991879
1.00392 1.00059 0.987256
1.00017 1.00022 0.997636
1.0014 1.00111 0.99114
1.00016 1.00002 0.997712
1.00523 0.998107 0.987473
1.0052 0.999404 0.986198
1.00512 1.0003 0.98547
1.00483 1.00055 0.985736
1.00498 1.00107 0.984768
1.0044 1.00146 0.98559
1.00283 1.00237 0.987383
1.00301 1.00333 0.986273
1.0016 1.00383 0.988142
1.00048 1.00182 0.992159
1.00058 1.00412 0.98956
0.999942 1.00137 0.993418
0.999734 0.999321 0.99828
0.999825 1.00062 0.99431
0.99964 0.998654 0.998664
0.999675 0.998233 0.998823
1.00519 0.994911 0.990376
1.00442 0.994882 0.992499
1.00123 0.994903 0.98759
1.00513 0.997151 0.988254
1.00511 0.998474 0.987087
1.00512 0.99919 0.986282
1.0052 0.998316 0.987304
1.00515 0.999381 0.986251
1.00519 0.995566 0.989942
1.0051 0.996572 0.988657
1.00502 0.997864 0.98784
1.00514 0.995234 0.989996
1.00496 0.995933 0.989515
1.0042 0.995717 0.99192
1.0052 0.994913 0.990702
1.00521 0.9949 0.990617
1.00411 0.996949 0.992101
1.00521 0.9949 0.990487
1.00526 0.994963 0.990416
1.00521 0.994947 0.990532
1.00519 0.994935 0.990752
1.00519 0.99493 0.990415
1.00519 0.995036 0.990424
1.00515 0.996124 0.989564
1.00516 0.995361 0.990086
1.00516 0.996414 0.989241
1.00523 0.998159 0.987511
1.00516 0.996881 0.988825
1.00523 0.99848 0.987179
1.00519 0.999693 0.986013
1.00522 0.998882 0.986793
1.00517 0.9998 0.985927
1.00433 1.00006 0.987101
1.00514 0.999889 0.98589
1.00428 1.00005 0.9872
1.00171 1.0001 0.992877
1.00416 1.00019 0.987257
1.00174 1.00031 0.992699
1.00033 0.999991 0.995018
1.00015 1.00029 0.996271
1.00172 1.00066 0.992439
1.00017 1.00031 0.997606
1.00517 0.997489 0.988218
1.00523 0.999053 0.986461
1.00522 0.997921 0.987652
1.005 1.00008 0.985852
1.00522 0.999473 0.986141
1.00515 1.0003 0.985551
1.00486 1.0005 0.985716
1.0037 1.00098 0.987252
1.00446 1.00138 0.985569
1.00289 1.00231 0.987364
1.00099 1.00172 0.991279
1.00151 1.0039 0.988146
1.00029 1.00197 0.99219
0.999867 1.00007 0.997868
0.999827 1.00142 0.993447
0.999659 0.999203 0.998411
0.999623 0.998565 0.998721
1.0052 0.994954 0.990423
1.00518 0.994928 0.990362
1.00468 0.994897 0.99243
1.00517 0.996276 0.989317
1.00512 0.997214 0.98824
1.00511 0.99843 0.986932
1.00518 0.998435 0.987266
1.00518 0.995576 0.989853
1.00508 0.996576 0.988609
1.00513 0.995236 0.990002
1.00515 0.994936 0.99081
1.00519 0.994919 0.990691
1.0052 0.994906 0.990769
1.00522 0.994958 0.990549
1.00521 0.99495 0.990481
1.00518 0.994995 0.990675
1.00516 0.995881 0.989934
1.00518 0.995019 0.990386
1.00518 0.996094 0.989566
1.00519 0.997954 0.987807
1.00517 0.996437 0.989243
1.00523 0.998161 0.987515
1.0052 0.999535 0.986184
1.00523 0.998483 0.987191
1.00519 0.999682 0.986026
1.00437 1.00006 0.987025
1.00517 0.999794 0.985944
1.00434 1.00005 0.987108
1.00179 1.00003 0.992825
1.00429 1.00003 0.987198
1.00184 1.00004 0.992778
1.00039 0.999887 0.995058
1.00189 1.00021 0.992632
1.00005 1.00015 0.995196
0.999739 1.00056 0.997912
1.00518 0.9974 0.988199
1.00522 0.998552 0.987094
1.00518 0.997542 0.988074
1.00518 0.999775 0.986113
1.00524 0.99887 0.986619
1.00522 0.997739 0.987828
1.00413 1.00032 0.987179
1.00504 1.00005 0.985821
1.00524 0.999538 0.986082
1.00489 1.00044 0.985697
1.00372 1.00093 0.987255
1.00136 1.0012 0.991103
1.00294 1.00225 0.987346
1.00088 1.00185 0.991282
0.999932 1.00063 0.997628
1.00015 1.00209 0.992219
0.999759 0.999909 0.998029
0.999607 0.999048 0.998524
1.00517 0.995464 0.990143
1.0052 0.994947 0.990437
1.00518 0.994937 0.990347
1.00517 0.996173 0.989396
1.00511 0.997269 0.988227
1.00517 0.995582 0.989764
1.0052 0.995027 0.990656
1.00515 0.994939 0.990822
1.00519 0.994925 0.990681
1.00523 0.994958 0.990651
1.00522 0.996046 0.989628
1.00518 0.995059 0.990597
1.00518 0.996032 0.989733
1.00515 0.997598 0.988314
1.0052 0.996059 0.989568
1.00519 0.997932 0.987809
1.00519 0.999346 0.986397
1.00523 0.998153 0.987519
1.0052 0.999523 0.986193
1.00441 1.00001 0.987016
1.00519 0.999672 0.986039
1.00438 1.00005 0.987036
1.00184 1.0001 0.992656
1.00435 1.00003 0.987114
1.00191 0.999988 0.992705
1.00046 0.999881 0.994973
1.00196 0.999999 0.992688
1.00014 0.999941 0.995257
0.99978 1.00033 0.995358
1.00518 0.996703 0.989009
1.00521 0.998407 0.987236
1.00518 0.997206 0.988365
1.0052 0.999394 0.986442
1.00521 0.998642 0.986986
1.00518 0.997595 0.98793
1.00433 0.999943 0.98718
1.00518 0.999657 0.986091
1.00525 0.99869 0.986778
1.00154 1.00066 0.991282
1.00412 1.00031 0.987191
1.00508 1.00003 0.985789
1.00375 1.00088 0.98726
1.00129 1.0013 0.991107
0.999954 1.0008 0.997595
1.00076 1.00198 0.991291
0.999897 1.00048 0.997699
0.999663 0.999731 0.998185
1.00518 0.995308 0.990295
1.00517 0.995504 0.990095
1.0052 0.994943 0.990452
1.00518 0.996075 0.989475
1.00521 0.99625 0.989522
1.00521 0.995042 0.99068
1.00515 0.994945 0.990834
1.00525 0.994954 0.990753
1.00521 0.996019 0.989679
1.00518 0.997627 0.988245
1.00519 0.996175 0.989532
1.00515 0.997792 0.98806
1.00518 0.998981 0.986824
1.00518 0.997921 0.987811
1.00518 0.999341 0.986404
1.00442 0.999932 0.987057
1.00519 0.999519 0.986202
1.0044 1.00001 0.987024
1.00192 1.00016 0.991164
1.00438 1.00005 0.987046
1.00195 1.00007 0.991873
1.00038 0.999935 0.997593
1.00203 0.99996 0.992587
1.00023 0.999868 0.995185
0.999902 0.999992 0.99544
1.00518 0.996303 0.989465
1.0052 0.998089 0.987659
1.00518 0.996785 0.988973
1.00519 0.999181 0.98649
1.0052 0.998411 0.987235
1.00518 0.99701 0.988532
1.00438 0.999726 0.987095
1.0052 0.999399 0.986449
1.00521 0.998729 0.986878
1.00171 1.00014 0.991484
1.00432 0.999902 0.987104
1.00518 0.999531 0.986069
1.00003 1.00064 0.997648
1.00153 1.00066 0.991294
1.0041 1.00029 0.987202
1.00122 1.00136 0.991113
0.999957 1.00071 0.997594
0.999805 1.00038 0.997803
1.00518 0.996135 0.989615
1.00519 0.995394 0.990265
1.00517 0.99554 0.990046
1.00519 0.997672 0.98811
1.0052 0.996136 0.989596
1.00522 0.995056 0.990703
1.0052 0.995995 0.989729
1.00518 0.997608 0.988254
1.00516 0.998908 0.987086
1.00515 0.997984 0.987807
1.00517 0.999125 0.986732
1.00442 0.999733 0.987102
1.00518 0.999329 0.986412
1.00442 0.99993 0.987062
1.00193 1.00014 0.991153
1.00441 1.00001 0.987033
1.00193 1.00015 0.991164
1.00039 0.999977 0.997558
1.00198 1.00005 0.991187
1.00029 0.999928 0.99636
1 0.999833 0.995394
1.00518 0.996519 0.989206
1.0052 0.997921 0.98781
1.00518 0.996286 0.989512
1.00519 0.999226 0.986449
1.0052 0.998144 0.987575
1.00518 0.99687 0.988936
1.00442 0.999648 0.987131
1.00519 0.999297 0.986464
1.0052 0.998418 0.987234
1.00184 0.999893 0.991512
1.00438 0.999725 0.987097
1.0052 0.999408 0.986456
1.00018 1.0003 0.997681
1.00173 1.00011 0.991486
1.00432 0.999862 0.987028
1.00004 1.00059 0.997622
1.00151 1.00065 0.991304
0.999929 1.00066 0.997606
1.00521 0.997504 0.988274
1.00517 0.996215 0.989518
1.00519 0.995482 0.990235
1.00516 0.998801 0.987192
1.00519 0.99758 0.988204
1.0052 0.996024 0.98967
1.00518 0.997589 0.988262
1.00516 0.998911 0.987086
1.00437 0.999637 0.987286
1.00517 0.999272 0.986639
1.00443 0.999785 0.987114
1.00195 1.00006 0.991205
1.00442 0.999925 0.987068
1.00193 1.00014 0.991155
1.00038 1.00001 0.997518
1.00192 1.00014 0.991162
1.00038 0.99999 0.997538
1.00037 0.999885 0.994932
1.00522 0.997812 0.987864
1.00517 0.996335 0.989375
1.0052 0.999113 0.986583
1.00521 0.997928 0.987796
1.00518 0.996266 0.989559
1.00443 0.999694 0.987294
1.00519 0.999235 0.986445
1.00521 0.998198 0.987491
1.00193 0.999868 0.991393
1.00442 0.999689 0.987181
1.00519 0.999417 0.986439
1.00033 1.00005 0.997639
1.00185 0.999884 0.991514
1.00437 0.999717 0.987099
1.00016 1.00032 0.997669
1.00174 1.0001 0.991486
1.00003 1.00057 0.997604
1.00518 0.998776 0.987162
1.00521 0.997581 0.988183
1.00517 0.996297 0.98942
1.00434 0.999589 0.987398
1.00516 0.998807 0.987191
1.00519 0.997485 0.988297
1.00516 0.998917 0.987086
1.00439 0.999628 0.987261
1.00191 1.00001 0.991325
1.00443 0.999838 0.987126
1.00194 1.00007 0.991208
1.0004 1.00001 0.997504
1.00193 1.00014 0.991157
1.00038 1.00002 0.997516
1.00039 0.999998 0.997524
1.0052 0.999007 0.986695
1.00522 0.997599 0.988098
1.00516 0.996153 0.989543
1.0044 0.99968 0.987364
1.00519 0.999122 0.986573
1.00521 0.997935 0.987782
1.00195 0.999952 0.9913
1.00441 0.999699 0.987288
1.00519 0.999244 0.98644
1.00041 0.999948 0.997566
1.00193 0.999884 0.991393
1.00441 0.999724 0.987231
1.0003 1.00009 0.997658
1.00185 0.999892 0.991516
1.00017 1.00031 0.99765
1.00434 0.999661 0.987487
1.00518 0.998729 0.987131
1.00521 0.997658 0.988092
1.00187 0.999956 0.991464
1.00435 0.999571 0.987386
1.00516 0.998811 0.98719
1.00441 0.999615 0.987237
1.00191 0.999995 0.991332
1.00039 1.00001 0.997499
1.00192 1.00008 0.991212
1.00039 1.00002 0.997496
1.00037 1.00003 0.997512
1.00437 0.999663 0.987436
1.00519 0.998884 0.986827
1.00522 0.997387 0.988332
1.00201 1.00001 0.992537
1.00439 0.999678 0.987364
1.00519 0.999131 0.986563
1.00041 0.999956 0.997518
1.00195 0.999972 0.991301
1.0044 0.999704 0.987282
1.00039 0.999979 0.997594
1.00193 0.999908 0.991394
1.00028 1.0001 0.997672
1.00192 0.999956 0.991413
1.00434 0.999606 0.987445
1.00518 0.99868 0.9871
1.00033 0.999995 0.997537
1.00186 0.999955 0.991463
1.00436 0.999555 0.987374
1.0019 0.999982 0.991336
1.00037 1.00001 0.99751
1.00039 1.00003 0.997496
1.00204 0.999982 0.992554
1.00437 0.99966 0.987436
1.00519 0.998759 0.986958
1.00003 0.999994 0.99788
1.00192 1.00001 0.991319
1.00439 0.999674 0.987365
1.00041 0.999967 0.997541
1.00195 0.999994 0.991301
1.00037 0.999998 0.99762
1.00032 0.999983 0.99499
1.00194 0.999954 0.992041
1.00434 0.999553 0.987402
1.00035 0.999996 0.99754
1.00186 0.999956 0.991468
1.00038 1 0.997515
0.999958 1 0.995335
1.00196 0.999977 0.991981
1.00436 0.999661 0.987436
1.00019 0.999992 0.996401
1.00192 1.00001 0.991329
1.00041 0.999978 0.997563
1.00033 0.999989 0.997541
1.00185 0.999952 0.991489
1.00032 0.999994 0.997541
1.00015 0.999987 0.996442
1.00189 0.999975 0.991423
1.00038 0.999982 0.997534
1.00034 0.999986 0.997551
1.00034 0.999985 0.997541

TENSORS stress float
0.0017291 -9.69442e-05 0.000181716
-9.69442e-05 0.000685292 -2.52469e-05
0.000181716 -2.52469e-05 0.000663706
0.00548287 -0.000102544 0.000176775
-0.000102544 0.00294139 1.87311e-05
0.000176775 1.87311e-05 0.00292131
0.00151466 -2.76606e-05 8.41297e-05
-2.76606e-05 0.000564926 -9.88858e-06
8.41297e-05 -9.88858e-06 0.000534179
0.00186389 -5.79875e-05 0.000182263
-5.79875e-05 0.000739689 -1.58738e-05
0.000182263 -1.58738e-05 0.000722059
0.00180556 -8.74398e-05 0.00017911
-8.74398e-05 0.000720933 -2.28143e-05
0.00017911 -2.28143e-05 0.000700983
0.00167909 -9.36284e-05 0.000186601
-9.36284e-05 0.000654417 -2.4979e-05
0.000186601 -2.4979e-05 0.000634561
0.00148046 -7.21619e-05 2.86449e-05
-7.21619e-05 0.000464335 -9.71849e-06
2.86449e-05 -9.71849e-06 0.000380583
0.00540706 -0.000106749 -6.47297e-06
-0.000106749 0.00288532 4.12808e-07
-6.47297e-06 4.12808e-07 0.00287116
0.00544803 6.86902e-05 8.21097e-05
6.86902e-05 0.00287199 5.03183e-06
8.21097e-05 5.03183e-06 0.00285784
0.00519047 -0.000203482 1.86149e-05
-0.000203482 0.00276302 2.90978e-06
1.86149e-05 2.90978e-06 0.00272887
0.00170947 9.05858e-05 0.000183282
9.05858e-05 0.000669534 1.74617e-05
0.000183282 1.74617e-05 0.000659917
0.000621179 0.000188087 2.28462e-05
0.000188087 -2.97831e-05 1.40996e-05
2.28462e-05 1.40996e-05 -0.00012312
0.00165646 -3.28609e-05 0.000191753
-3.28609e-05 0.000612392 2.50193e-06
0.000191753 2.50193e-06 0.000604114
0.00128184 -1.10991e-05 3.53165e-05
-1.10991e-05 0.000412526 1.06978e-06
3.53165e-05 1.06978e-06 0.000375192
0.00136384 -1.85125e-05 -3.02443e-05
-1.85125e-05 0.000477298 5.4585e-06
-3.02443e-05 5.4585e-06 0.000441005
0.00157097 -6.20038e-05 6.41231e-05
-6.20038e-05 0.000579421 -3.66481e-06
6.41231e-05 -3.66481e-06 0.000551515
0.00151989 -9.45067e-06 9.06367e-05
-9.45067e-06 0.000575123 -9.38539e-06
9.06367e-05 -9.38539e-06 0.000540381
0.00154302 -4.37678e-05 7.519e-05
-4.37678e-05 0.000569062 -8.66118e-06
7.519e-05 -8.66118e-06 0.000542501
0.00155388 -0.000113753 -3.12335e-05
-0.000113753 0.000499181 3.16488e-06
-3.12335e-05 3.16488e-06 0.000423955
0.00548132 -0.000110963 0.000229261
-0.000110963 0.00289968 -6.90774e-06
0.000229261 -6.90774e-06 0.002904
0.00183796 -4.00877e-05 0.000184575
-4.00877e-05 0.000721916 -1.18594e-05
0.000184575 -1.18594e-05 0.000705115
0.0018641 -7.47049e-05 0.000180055
-7.47049e-05 0.000746017 -1.96014e-05
0.000180055 -1.96014e-05 0.000727801
0.00152662 -0.000104212 4.99837e-05
-0.000104212 0.000461929 -7.59153e-06
4.99837e-05 -7.59153e-06 0.000386338
0.00152179 -8.80282e-05 3.80161e-05
-8.80282e-05 0.00046897 -8.8958e-06
3.80161e-05 -8.8958e-06 0.000392312
0.0015726 -6.5638e-05 0.000178813
-6.5638e-05 0.000583264 -2.14002e-05
0.000178813 -2.14002e-05 0.000566498
0.00146247 -5.83729e-05 2.13804e-05
-5.83729e-05 0.000474882 -1.04598e-05
2.13804e-05 -1.04598e-05 0.000382712
0.00202805 -0.000219944 1.37774e-05
-0.000219944 0.000644226 -6.20498e-06
1.37774e-05 -6.20498e-06 0.000501084
0.00533713 -0.000123201 -0.000171449
-0.000123201 0.00283603 -1.06929e-05
-0.000171449 -1.06929e-05 0.00282562
0.00349668 7.10092e-05 -0.000105752
7.10092e-05 0.0017235 -8.74419e-06
-0.000105752 -8.74419e-06 0.00170498
0.00338869 -4.05334e-05 -9.89531e-05
-4.05334e-05 0.00168429 -4.94464e-06
-9.89531e-05 -4.94464e-06 0.00165924
0.00513606 -0.000155213 5.16326e-06
-0.000155213 0.00273352 -2.2062e-07
5.16326e-06 -2.2062e-07 0.0027151
0.000591072 0.000177315 -2.37045e-06
0.000177315 -4.80977e-05 -6.39755e-07
-2.37045e-06 -6.39755e-07 -0.000138812
0.00158908 5.36824e-05 0.000185725
5.36824e-05 0.000583156 1.43093e-05
0.000185725 1.43093e-05 0.000566783
0.00175458 0.000126654 0.000188683
0.000126654 0.000703568 2.13895e-05
0.000188683 2.13895e-05 0.000682144
0.00262995 0.000173874 0.000115075
0.000173874 0.00111887 1.45713e-05
0.000115075 1.45713e-05 0.00105328
0.0040128 -0.000258981 4.83178e-07
-0.000258981 0.0020945 4.33409e-06
4.83178e-07 4.33409e-06 0.00205298
0.00267669 0.000215726 0.000114031
0.000215726 0.00117357 1.65208e-05
0.000114031 1.65208e-05 0.00110357
0.000610948 0.000153261 2.70356e-05
0.000153261 -3.03666e-05 1.79682e-05
2.70356e-05 1.79682e-05 -0.000115659
0.000882889 0.000178545 1.03872e-05
0.000178545 3.27854e-05 5.10292e-06
1.03872e-05 5.10292e-06 -0.000128495
0.00319386 -0.000104273 0.000101465
-0.000104273 0.00157317 4.23824e-06
0.000101465 4.23824e-06 0.0015766
0.00550727 6.60842e-05 3.68244e-06
6.60842e-05 0.00290557 -1.33577e-06
3.68244e-06 -1.33577e-06 0.00291499
0.00346178 5.91701e-05 -8.70338e-05
5.91701e-05 0.00169663 -3.17133e-06
-8.70338e-05 -3.17133e-06 0.00168247
0.00541666 5.93514e-05 0.000225368
5.93514e-05 0.00285453 2.52651e-06
0.000225368 2.52651e-06 0.00286386
0.00129312 6.89753e-05 3.86865e-05
6.89753e-05 0.00041671 2.07292e-06
3.86865e-05 2.07292e-06 0.000383813
0.000674653 8.43019e-06 1.62073e-05
8.43019e-06 -6.91353e-05 1.64574e-06
1.62073e-05 1.64574e-06 -0.000141617
0.00534882 0.000187482 0.000115115
0.000187482 0.00283593 9.95187e-06
0.000115115 9.95187e-06 0.00281385
0.00268743 5.59757e-05 0.000112391
5.59757e-05 0.00111961 6.51155e-06
0.000112391 6.51155e-06 0.00106782
0.00121458 -7.36138e-05 -4.92353e-05
-7.36138e-05 0.000384184 6.14638e-06
-4.92353e-05 6.14638e-06 0.000344285
0.00128535 -6.24032e-05 -4.23144e-05
-6.24032e-05 0.000428273 6.42208e-06
-4.23144e-05 6.42208e-06 0.000391339
0.00143073 3.47411e-05 -1.85279e-05
3.47411e-05 0.000524067 5.56603e-06
-1.85279e-05 5.56603e-06 0.000482887
0.00159028 -0.000124682 -9.86595e-05
-0.000124682 0.000514068 1.56855e-05
-9.86595e-05 1.56855e-05 0.000445598
0.00344766 1.06461e-05 -9.22908e-05
1.06461e-05 0.00169494 -1.81263e-06
-9.22908e-05 -1.81263e-06 0.00167829
0.00156364 -4.57781e-05 7.09106e-05
-4.57781e-05 0.000570217 -3.08136e-06
7.09106e-05 -3.08136e-06 0.000544144
0.00146235 1.50226e-05 9.3231e-05
1.50226e-05 0.000543673 -7.36587e-06
9.3231e-05 -7.36587e-06 0.000507595
0.0015648 -5.42102e-05 6.83449e-05
-5.42102e-05 0.000575443 -6.15845e-06
6.83449e-05 -6.15845e-06 0.00054975
0.00157955 -8.6528e-05 -2.52251e-05
-8.6528e-05 0.000486268 1.12232e-06
-2.52251e-05 1.12232e-06 0.000417649
0.0015435 -0.000105068 -3.62735e-05
-0.000105068 0.00050732 3.27552e-06
-3.62735e-05 3.27552e-06 0.000427224
0.00157545 -0.000112515 -2.6711e-05
-0.000112515 0.000498239 2.3342e-06
-2.6711e-05 2.3342e-06 0.000426745
0.00202575 -0.000218124 -6.95207e-06
-0.000218124 0.000641009 1.8701e-06
-6.95207e-06 1.8701e-06 0.000498114
0.00537608 4.12097e-05 0.000219049
4.12097e-05 0.00283057 -1.60285e-07
0.000219049 -1.60285e-07 0.00284049
0.0018093 -2.13753e-05 0.000184556
-2.13753e-05 0.000707172 -8.10802e-06
0.000184556 -8.10802e-06 0.000691916
0.00241332 2.01401e-05 3.45171e-05
2.01401e-05 0.000974569 -9.36847e-07
3.45171e-05 -9.36847e-07 0.000914347
0.00152791 -8.36798e-05 4.34929e-05
-8.36798e-05 0.000454404 -5.15737e-06
4.34929e-05 -5.15737e-06 0.000382612
0.00152213 -9.7349e-05 4.53146e-05
-9.7349e-05 0.000460823 -8.29143e-06
4.53146e-05 -8.29143e-06 0.000386213
0.00191794 -0.000134164 1.14745e-05
-0.000134164 0.000527748 -2.9537e-06
1.14745e-05 -2.9537e-06 0.000403357
0.00167043 -0.000176972 1.549e-05
-0.000176972 0.000409466 -5.58195e-06
1.549e-05 -5.58195e-06 0.000273078
0.00114957 -2.38871e-05 0.000139259
-2.38871e-05 0.000336687 -1.50024e-05
0.000139259 -1.50024e-05 0.000324347
0.00128449 -1.20782e-05 1.26127e-05
-1.20782e-05 0.00039307 -1.07935e-05
1.26127e-05 -1.07935e-05 0.000301006
0.00196821 -0.000235372 1.28549e-05
-0.000235372 0.000636003 -6.3912e-06
1.28549e-05 -6.3912e-06 0.000484035
0.00125434 -0.000212104 7.79701e-06
-0.000212104 8.14174e-05 -2.49392e-06
7.79701e-06 -2.49392e-06 -9.29572e-05
0.00569011 0.000140516 -0.00023169
0.000140516 0.00301565 -1.90891e-05
-0.00023169 -1.90891e-05 0.00301822
0.00477374 -0.000192594 -0.000127753
-0.000192594 0.00253076 -9.34433e-06
-0.000127753 -9.34433e-06 0.00250681
0.00544258 -4.5121e-05 -0.000193656
-4.5121e-05 0.00288369 -1.28138e-05
-0.000193656 -1.28138e-05 0.00288314
0.000547069 0.000173043 -2.37093e-05
0.000173043 -7.09387e-05 -1.44793e-05
-2.37093e-05 -1.44793e-05 -0.000162065
0.00570182 0.000160434 -3.02009e-06
0.000160434 0.00302163 -1.84752e-06
-3.02009e-06 -1.84752e-06 0.00302376
0.00569327 7.12699e-05 -8.52138e-06
7.12699e-05 0.00302161 -1.16855e-06
-8.52138e-06 -1.16855e-06 0.00302299
0.000531004 0.000120825 -1.81366e-07
0.000120825 -0.000121434 -2.74267e-07
-1.81366e-07 -2.74267e-07 -0.000207986
0.00263952 -0.000127138 -5.63884e-05
-0.000127138 0.00125915 -1.75832e-06
-5.63884e-05 -1.75832e-06 0.00123232
0.000530003 0.000176462 -6.3993e-07
0.000176462 -8.77831e-05 -2.86679e-07
-6.3993e-07 -2.86679e-07 -0.00018014
0.00153391 0.000128066 3.77008e-05
0.000128066 0.000526206 8.00309e-07
3.77008e-05 8.00309e-07 0.00045269
0.000890715 0.000176347 4.86234e-08
0.000176347 3.38775e-05 2.86008e-08
4.86234e-08 2.86008e-08 -0.000126782
0.00379033 -0.000109698 0.000127519
-0.000109698 0.00192566 6.75201e-06
0.000127519 6.75201e-06 0.00192609
0.000635529 -3.35609e-05 3.59988e-06
-3.35609e-05 4.47307e-05 8.29167e-06
3.59988e-06 8.29167e-06 3.41315e-06
0.000650568 9.04223e-05 1.7121e-05
9.04223e-05 -7.10783e-05 8.5536e-06
1.7121e-05 8.5536e-06 -0.000152948
0.000687741 0.000145033 2.18875e-05
0.000145033 -1.53411e-05 1.47402e-05
2.18875e-05 1.47402e-05 -0.00010698
0.000984919 0.000145484 1.34991e-05
0.000145484 -7.38357e-06 5.27694e-06
1.34991e-05 5.27694e-06 -0.000152894
0.00242017 6.0563e-05 8.14813e-05
6.0563e-05 0.00107037 1.09217e-05
8.14813e-05 1.09217e-05 0.00101815
0.000945496 0.000172686 1.14171e-05
0.000172686 3.43e-05 6.31996e-06
1.14171e-05 6.31996e-06 -0.000119579
0.00088864 0.000186444 9.71053e-06
0.000186444 0.000108018 5.12447e-06
9.71053e-06 5.12447e-06 -6.2373e-05
0.00110577 0.000227628 4.93353e-06
0.000227628 8.96801e-05 1.34656e-06
4.93353e-06 1.34656e-06 -0.000107794
0.00273126 -0.000119744 5.62135e-05
-0.000119744 0.00129875 2.25855e-06
5.62135e-05 2.25855e-06 0.00129854
0.00302072 -0.000134671 1.12061e-05
-0.000134671 0.00147631 -3.64749e-07
1.12061e-05 -3.64749e-07 0.00147196
0.00565158 2.15993e-05 -0.000225489
2.15993e-05 0.0029846 -9.34484e-06
-0.000225489 -9.34484e-06 0.00299268
0.00555445 5.64565e-05 -0.000229938
5.64565e-05 0.00293101 -5.53676e-06
-0.000229938 -5.53676e-06 0.0029412
0.00548503 8.2828e-05 -1.76821e-07
8.2828e-05 0.00290086 -2.57459e-06
-1.76821e-07 -2.57459e-06 0.00290611
0.00342538 1.18887e-05 -0.000101095
1.18887e-05 0.00167352 -3.92802e-06
-0.000101095 -3.92802e-06 0.00166253
0.00165549 3.18221e-05 4.80795e-05
3.18221e-05 0.000511804 9.22576e-07
4.80795e-05 9.22576e-07 0.000451168
0.0035334 0.000105921 -8.86729e-05
0.000105921 0.00174239 -4.43433e-06
-8.86729e-05 -4.43433e-06 0.00172419
0.00169093 7.50135e-05 4.72132e-05
7.50135e-05 0.000534849 1.80374e-06
4.72132e-05 1.80374e-06 0.000469377
0.00545396 0.000140261 0.000228099
0.000140261 0.00289277 5.57835e-06
0.000228099 5.57835e-06 0.0028918
0.000601339 9.93154e-06 1.8383e-05
9.93154e-06 -0.000109234 4.70505e-07
1.8383e-05 4.70505e-07 -0.000180013
0.00270785 2.37658e-05 0.000112588
2.37658e-05 0.00113054 4.32392e-06
0.000112588 4.32392e-06 0.00108152
0.00102499 3.46568e-05 1.24031e-05
3.46568e-05 -1.8229e-05 1.21946e-06
1.24031e-05 1.21946e-06 -0.000139312
0.00261322 9.83656e-05 0.000114335
9.83656e-05 0.00108395 8.31757e-06
0.000114335 8.31757e-06 0.00102845
0.00104556 8.24725e-05 1.21188e-05
8.24725e-05 -5.51978e-06 2.46856e-06
1.21188e-05 2.46856e-06 -0.000135109
0.00165913 4.11657e-05 -0.000189782
4.11657e-05 0.000615678 1.63205e-06
-0.000189782 1.63205e-06 0.000607742
0.00126315 1.04146e-06 -3.60952e-05
1.04146e-06 0.000403768 1.70482e-06
-3.60952e-05 1.70482e-06 0.000367464
0.00141339 8.8345e-05 -7.71044e-06
8.8345e-05 0.000532557 6.82277e-06
-7.71044e-06 6.82277e-06 0.000481213
0.00122709 -7.5128e-05 -4.9918e-05
-7.5128e-05 0.000392546 6.86663e-06
-4.9918e-05 6.86663e-06 0.000354284
0.001695 -6.64045e-05 -9.7905e-05
-6.64045e-05 0.000546608 8.3686e-06
-9.7905e-05 8.3686e-06 0.000485557
0.0016363 -0.000106353 -9.738e-05
-0.000106353 0.000527616 1.36918e-05
-9.738e-05 1.36918e-05 0.000462971
0.00155651 -0.000129866 -9.99107e-05
-0.000129866 0.000505291 1.60993e-05
-9.99107e-05 1.60993e-05 0.000433379
0.00202514 -0.000216677 -2.63836e-05
-0.000216677 0.000639371 9.43094e-06
-2.63836e-05 9.43094e-06 0.000496716
0.00546005 -8.49319e-05 2.03109e-06
-8.49319e-05 0.00288695 -1.44582e-06
2.03109e-06 -1.44582e-06 0.00289185
0.0015101 4.44031e-05 7.9367e-05
4.44031e-05 0.000537767 -2.84483e-06
7.9367e-05 -2.84483e-06 0.000514515
0.00113203 -1.16563e-06 -5.0935e-05
-1.16563e-06 0.000207344 9.30737e-07
-5.0935e-05 9.30737e-07 0.000145371
0.00158842 -5.10473e-05 -2.92238e-05
-5.10473e-05 0.000485346 1.60685e-06
-2.92238e-05 1.60685e-06 0.000419222
0.00298978 4.33838e-05 0.000147546
4.33838e-05 0.00144958 -3.40941e-06
0.000147546 -3.40941e-06 0.00143809
0.00193825 -7.9785e-05 -3.24171e-05
-7.9785e-05 0.000761969 4.11478e-07
-3.24171e-05 4.11478e-07 0.000681164
0.00158139 -0.000101907 -2.454e-05
-0.000101907 0.000492963 1.56358e-06
-2.454e-05 1.56358e-06 0.000423527
0.00182177 -0.000127905 -8.68879e-06
-0.000127905 0.000469306 1.52066e-06
-8.68879e-06 1.52066e-06 0.000344466
0.00198786 -0.000237127 -5.69669e-06
-0.000237127 0.000646775 1.85608e-06
-5.69669e-06 1.85608e-06 0.000494571
0.00185109 -0.000184443 -4.38614e-06
-0.000184443 0.000515361 1.0578e-06
-4.38614e-06 1.0578e-06 0.000379566
0.00126297 -0.00021313 2.67855e-07
-0.00021313 8.44277e-05 -8.85059e-08
2.67855e-07 -8.85059e-08 -8.99013e-05
0.000637515 1.29417e-05 1.89018e-05
1.29417e-05 -8.98315e-05 -1.17014e-06
1.89018e-05 -1.17014e-06 -0.000157478
0.00147598 1.55375e-05 3.46862e-05
1.55375e-05 0.000419614 -2.53963e-06
3.46862e-05 -2.53963e-06 0.000352803
0.00163934 -3.18091e-05 1.27648e-05
-3.18091e-05 0.000349619 -1.04776e-06
1.27648e-05 -1.04776e-06 0.000237487
0.00164641 -9.98499e-05 1.25458e-05
-9.98499e-05 0.000360216 -2.3603e-06
1.25458e-05 -2.3603e-06 0.000238264
0.00163155 -0.000149406 1.43215e-05
-0.000149406 0.000368949 -4.23412e-06
1.43215e-05 -4.23412e-06 0.000238519
0.00171809 -0.000162026 1.81248e-06
-0.000162026 0.000265388 -7.09537e-07
1.81248e-06 -7.09537e-07 0.00011706
0.00416546 0.000161044 0.00011544
0.000161044 0.00216383 -5.92187e-06
0.00011544 -5.92187e-06 0.00214982
0.00129895 -0.00019654 6.50544e-06
-0.00019654 7.72582e-05 -2.13943e-06
6.50544e-06 -2.13943e-06 -8.90013e-05
0.000341357 -8.11974e-05 1.44695e-05
-8.11974e-05 -0.00016569 -1.34029e-05
1.44695e-05 -1.34029e-05 -0.000234829
0.000861832 -0.000177633 9.77018e-06
-0.000177633 2.53344e-05 -6.99891e-06
9.77018e-06 -6.99891e-06 -0.000135416
0.0013139 -0.000237204 8.9897e-06
-0.000237204 0.00015024 -2.89811e-06
8.9897e-06 -2.89811e-06 -3.61299e-05
0.00152289 -0.000273525 3.91419e-06
-0.000273525 0.00013447 2.9998e-07
3.91419e-06 2.9998e-07 -5.40163e-05
0.000417913 -2.02286e-05 7.72774e-06
-2.02286e-05 -9.48544e-05 -1.08756e-05
7.72774e-06 -1.08756e-05 -0.000148894
0.000690837 -3.52341e-05 1.02329e-06
-3.52341e-05 7.21395e-05 -4.21568e-06
1.02329e-06 -4.21568e-06 -4.14205e-05
0.00572076 0.000176094 -0.000243486
0.000176094 0.00303672 -1.97513e-05
-0.000243486 -1.97513e-05 0.0030369
0.00554382 5.26572e-05 -0.000211004
5.26572e-05 0.00293267 -1.592e-05
-0.000211004 -1.592e-05 0.00293703
0.000529536 0.00011392 -1.8166e-05
0.00011392 -0.00012403 -1.02084e-05
-1.8166e-05 -1.02084e-05 -0.000210374
0.00407818 -0.000166642 -0.000111539
-0.000166642 0.00211083 -5.38015e-06
-0.000111539 -5.38015e-06 0.00209743
0.00044221 0.000117086 -1.8814e-05
0.000117086 -0.000121269 -1.39907e-05
-1.8814e-05 -1.39907e-05 -0.000195757
0.000483413 0.000161268 -2.02853e-05
0.000161268 -0.000110917 -1.35085e-05
-2.02853e-05 -1.35085e-05 -0.000204914
0.000919156 0.000177011 -1.18154e-05
0.000177011 4.70887e-05 -5.23936e-06
-1.18154e-05 -5.23936e-06 -0.000113355
0.00360311 -0.000130298 7.63192e-06
-0.000130298 0.00182101 -4.54594e-07
7.63192e-06 -4.54594e-07 0.00181747
0.000528797 -4.47861e-05 2.6949e-07
-4.47861e-05 -1.40965e-05 4.80183e-07
2.6949e-07 4.80183e-07 -5.60102e-05
0.00165416 0.000117671 4.73564e-05
0.000117671 0.000525146 3.10039e-06
4.73564e-05 3.10039e-06 0.00045315
0.0015983 0.000166637 4.56548e-05
0.000166637 0.000526683 2.80458e-06
4.56548e-05 2.80458e-06 0.000445718
0.000982997 0.000147156 1.61458e-07
0.000147156 -6.03258e-06 -2.27786e-07
1.61458e-07 -2.27786e-07 -0.000152241
0.000621586 5.72946e-05 -6.63339e-07
5.72946e-05 8.67641e-06 1.82767e-07
-6.63339e-07 1.82767e-07 -5.34666e-05
0.000938397 0.000172749 4.86905e-07
0.000172749 3.05537e-05 3.08683e-07
4.86905e-07 3.08683e-07 -0.000123358
0.000857869 0.000174634 8.05726e-07
0.000174634 8.62743e-05 -1.44829e-06
8.05726e-07 -1.44829e-06 -8.1884e-05
0.000916519 0.000214274 -7.54057e-07
0.000214274 -2.23302e-05 6.5704e-07
-7.54057e-07 6.5704e-07 -0.000218426
0.000673861 1.53956e-05 9.99164e-06
1.53956e-05 5.50149e-05 9.98966e-06
9.99164e-06 9.98966e-06 3.65251e-06
0.000599979 -6.40666e-05 -1.26229e-07
-6.40666e-05 2.70568e-05 6.70281e-06
-1.26229e-07 6.70281e-06 -8.10539e-06
0.000781138 6.078e-05 3.28502e-06
6.078e-05 0.000137465 4.50578e-06
3.28502e-06 4.50578e-06 2.67603e-05
0.00102242 0.000125626 1.29828e-05
0.000125626 -3.14716e-06 4.29034e-06
1.29828e-05 4.29034e-06 -0.000143363
0.000943423 0.000161715 1.29132e-05
0.000161715 -5.76399e-07 6.05433e-06
1.29132e-05 6.05433e-06 -0.000151045
0.0013332 0.000210898 6.06034e-06
0.000210898 8.33558e-05 1.65701e-06
6.06034e-06 1.65701e-06 -9.24251e-05
0.000906098 0.000173537 6.91545e-06
0.000173537 0.000177717 7.21886e-06
6.91545e-06 7.21886e-06 1.74058e-05
0.0010897 0.000218364 5.40826e-06
0.000218364 3.84584e-05 2.70554e-06
5.40826e-06 2.70554e-06 -0.000149535
0.00132812 0.000254924 5.75799e-06
0.000254924 0.000290249 6.40689e-07
5.75799e-06 6.40689e-07 7.08449e-05
0.0015292 0.000276976 3.41001e-07
0.000276976 0.000289173 6.01572e-08
3.41001e-07 6.01572e-08 7.83839e-05
0.00249478 -0.000114518 3.32656e-05
-0.000114518 0.00115354 2.91469e-06
3.32656e-05 2.91469e-06 0.00115436
0.00261943 -0.000128505 5.6006e-06
-0.000128505 0.00123494 -5.12629e-07
5.6006e-06 -5.12629e-07 0.00123189
0.00283507 -0.00014675 -4.36596e-05
-0.00014675 0.00137024 -2.47017e-06
-4.36596e-05 -2.47017e-06 0.001362
0.000416564 -3.32887e-06 5.46645e-06
-3.32887e-06 -8.97483e-05 -9.14545e-06
5.46645e-06 -9.14545e-06 -0.000137193
0.00377754 0.000141914 0.000101364
0.000141914 0.00192818 -4.83087e-06
0.000101364 -4.83087e-06 0.00191968
0.00571277 0.000168715 -0.000245805
0.000168715 0.00303211 -1.75202e-05
-0.000245805 -1.75202e-05 0.00303312
0.00555244 6.03727e-05 -0.000226855
6.03727e-05 0.00292803 -7.7346e-06
-0.000226855 -7.7346e-06 0.00293769
0.000621677 8.65802e-05 -1.9539e-05
8.65802e-05 -9.59742e-05 -4.5915e-06
-1.9539e-05 -4.5915e-06 -0.000172012
0.000601562 3.86766e-05 -1.90909e-05
3.86766e-05 -0.000107058 -2.23031e-06
-1.90909e-05 -2.23031e-06 -0.000180416
0.00542349 -1.73273e-05 -0.000220363
-1.73273e-05 0.00285553 -1.27262e-06
-0.000220363 -1.27262e-06 0.00286651
0.00539854 1.78472e-05 -6.79369e-07
1.78472e-05 0.00284207 -3.52728e-07
-6.79369e-07 -3.52728e-07 0.00285269
0.000584255 6.53323e-07 -1.35116e-07
6.53323e-07 -0.000121298 -6.90732e-08
-1.35116e-07 -6.90732e-08 -0.000190581
0.00163975 3.03069e-05 4.78908e-05
3.03069e-05 0.000501398 1.61888e-06
4.78908e-05 1.61888e-06 0.000440284
0.00100772 3.84504e-05 2.65323e-08
3.84504e-05 -2.87292e-05 -1.32115e-07
2.65323e-08 -1.32115e-07 -0.000150182
0.000591278 7.27523e-05 -4.20345e-07
7.27523e-05 -0.000109039 -2.95617e-07
-4.20345e-07 -2.95617e-07 -0.000188356
0.0010119 8.40447e-05 -9.32246e-08
8.40447e-05 -2.4103e-05 -1.53396e-07
-9.32246e-08 -1.53396e-07 -0.00015423
0.000576653 -2.65042e-05 1.88584e-05
-2.65042e-05 -0.000127502 -8.20483e-07
1.88584e-05 -8.20483e-07 -0.000194555
0.00100664 1.49468e-05 1.22352e-05
1.49468e-05 -2.60055e-05 4.97878e-07
1.22352e-05 4.97878e-07 -0.000145217
0.00101878 5.86302e-05 1.21485e-05
5.86302e-05 -2.24164e-05 1.89053e-06
1.21485e-05 1.89053e-06 -0.000147123
0.00143844 5.76613e-05 1.89733e-06
5.76613e-05 5.25399e-05 1.69938e-07
1.89733e-06 1.69938e-07 -7.57189e-05
0.00104034 0.000103746 1.24341e-05
0.000103746 -2.92339e-06 3.26916e-06
1.24341e-05 3.26916e-06 -0.000137743
0.00146705 0.000126844 2.7731e-06
0.000126844 7.9882e-05 2.77416e-07
2.7731e-06 2.77416e-07 -6.35797e-05
0.00539632 -4.52856e-05 -0.000226853
-4.52856e-05 0.00284372 4.80303e-07
-0.000226853 4.80303e-07 0.0028526
0.00125347 -0.000127998 -3.81927e-05
-0.000127998 0.000403834 3.95344e-06
-3.81927e-05 3.95344e-06 0.000366487
-0.000258907 -1.60081e-06 -1.30074e-05
-1.60081e-06 -0.000612441 2.12249e-06
-1.30074e-05 2.12249e-06 -0.000693047
0.00167507 -4.56271e-05 -9.82793e-05
-4.56271e-05 0.000531589 6.03743e-06
-9.82793e-05 6.03743e-06 0.000471464
0.00453735 0.00032604 1.01068e-05
0.00032604 0.00243584 6.49691e-06
1.01068e-05 6.49691e-06 0.00237258
0.00261792 -0.000170334 -0.000100259
-0.000170334 0.00114925 1.61971e-05
-0.000100259 1.61971e-05 0.00107699
0.0016798 -8.69706e-05 -9.73519e-05
-8.69706e-05 0.000543293 1.10096e-05
-9.73519e-05 1.10096e-05 0.000481282
0.00169836 -0.000120686 -2.69162e-05
-0.000120686 0.000394522 5.2737e-06
-2.69162e-05 5.2737e-06 0.000269446
0.00201749 -0.000191015 -2.49833e-05
-0.000191015 0.00061289 7.80234e-06
-2.49833e-05 7.80234e-06 0.000477944
0.00202166 -0.000239365 -2.3889e-05
-0.000239365 0.000667079 9.44396e-06
-2.3889e-05 9.44396e-06 0.000514473
0.0012682 -0.000213981 -6.49086e-06
-0.000213981 8.54955e-05 2.1237e-06
-6.49086e-06 2.1237e-06 -8.87869e-05
0.000580577 7.64299e-06 -5.61348e-08
7.64299e-06 -0.000121519 6.88441e-08
-5.61348e-08 6.88441e-08 -0.000190103
0.00159414 -6.37295e-05 -2.8701e-05
-6.37295e-05 0.00048868 3.23061e-07
-2.8701e-05 3.23061e-07 0.000424833
0.00121028 -2.7385e-05 -6.92604e-06
-2.7385e-05 9.6925e-05 3.53486e-07
-6.92604e-06 3.53486e-07 -1.95295e-05
0.00182148 -0.000101618 -5.20509e-06
-0.000101618 0.000461342 7.8439e-07
-5.20509e-06 7.8439e-07 0.000340797
0.00427172 0.000149903 -6.1194e-06
0.000149903 0.00222431 -8.49726e-07
-6.1194e-06 -8.49726e-07 0.00221208
0.00149089 -7.29232e-05 -2.55163e-06
-7.29232e-05 0.00052195 -5.42126e-08
-2.55163e-06 -5.42126e-08 0.000441352
0.00131005 -0.000201945 1.11258e-06
-0.000201945 0.000298676 -1.0784e-06
1.11258e-06 -1.0784e-06 0.000138226
0.00166124 -0.000149265 -5.56999e-06
-0.000149265 0.000386101 1.2239e-06
-5.56999e-06 1.2239e-06 0.000255673
0.00156934 -0.000158177 -2.45011e-06
-0.000158177 0.00017609 4.78185e-07
-2.45011e-06 4.78185e-07 2.83043e-05
0.00124401 -0.000233686 4.05634e-07
-0.000233686 0.000108836 -3.77689e-08
4.05634e-07 -3.77689e-08 -7.82126e-05
0.00149094 -0.00020549 2.8208e-07
-0.00020549 0.000187432 -1.92076e-07
2.8208e-07 -1.92076e-07 2.19296e-05
0.00153393 -0.000272757 6.2779e-07
-0.000272757 0.000145777 -2.71193e-08
6.2779e-07 -2.71193e-08 -4.19271e-05
0.000515689 -2.63694e-05 -8.00314e-07
-2.63694e-05 -4.02088e-05 1.32443e-07
-8.00314e-07 1.32443e-07 -9.47518e-05
0.000665463 -5.52005e-05 -5.23311e-07
-5.52005e-05 5.6303e-05 -2.11266e-09
-5.23311e-07 -2.11266e-09 -5.95583e-05
0.000996677 -1.30024e-05 1.21714e-05
-1.30024e-05 -2.81212e-05 -8.6304e-07
1.21714e-05 -8.6304e-07 -0.000146387
0.00167095 -6.08583e-05 1.21048e-05
-6.08583e-05 0.000368884 -1.62423e-06
1.21048e-05 -1.62423e-06 0.000253148
0.00167243 -5.02866e-05 9.32318e-07
-5.02866e-05 0.000208899 3.85343e-08
9.32318e-07 3.85343e-08 8.29151e-05
0.00145734 -0.000124505 3.06744e-06
-0.000124505 9.50805e-05 -2.79055e-07
3.06744e-06 -2.79055e-07 -4.40699e-05
0.00167708 -0.000195598 3.75198e-06
-0.000195598 0.000270328 -9.25496e-07
3.75198e-06 -9.25496e-07 0.000114486
0.00172206 -0.00019623 -7.04643e-07
-0.00019623 0.000143507 4.86603e-07
-7.04643e-07 4.86603e-07 3.00317e-06
0.000374204 -5.3147e-05 1.1475e-05
-5.3147e-05 -0.000131379 -1.2258e-05
1.1475e-05 -1.2258e-05 -0.000192154
0.00159559 -0.000254808 1.86146e-06
-0.000254808 0.000141429 4.80177e-07
1.86146e-06 4.80177e-07 -2.94096e-05
0.000698909 -0.000150677 5.28988e-06
-0.000150677 1.55493e-05 -7.34898e-06
5.28988e-06 -7.34898e-06 -0.000144226
0.000981945 -0.000231319 9.80266e-06
-0.000231319 8.80696e-06 -3.43554e-06
9.80266e-06 -3.43554e-06 -0.00019154
0.00175427 -0.000314544 3.56271e-06
-0.000314544 0.000318918 -5.44476e-08
3.56271e-06 -5.44476e-08 0.000108901
0.0018714 -0.000310758 -1.724e-06
-0.000310758 0.000280573 3.27183e-06
-1.724e-06 3.27183e-06 0.000103231
0.000767872 -9.78902e-05 2.74032e-06
-9.78902e-05 0.000113963 -4.69192e-06
2.74032e-06 -4.69192e-06 -1.92375e-05
0.00063017 -2.11841e-05 6.01865e-07
-2.11841e-05 3.95522e-05 -3.65456e-06
6.01865e-07 -3.65456e-06 -6.11208e-05
0.00100385 -0.000152824 1.38123e-07
-0.000152824 0.000270728 9.96359e-08
1.38123e-07 9.96359e-08 9.91257e-05
0.000561661 9.28708e-05 -1.76186e-05
9.28708e-05 -0.000118869 -7.75986e-06
-1.76186e-05 -7.75986e-06 -0.000201311
0.00340514 -0.000155382 -7.74461e-05
-0.000155382 0.00170939 -2.70247e-06
-7.74461e-05 -2.70247e-06 0.00169953
0.000409922 -5.72714e-05 1.35395e-06
-5.72714e-05 -7.81614e-05 -7.89896e-06
1.35395e-06 -7.89896e-06 -0.000121942
0.000490031 0.000139623 -1.89344e-05
0.000139623 -0.000124514 -1.26236e-05
-1.89344e-05 -1.26236e-05 -0.000215533
0.0009715 0.000148522 -1.39467e-05
0.000148522 -1.01238e-05 -5.71555e-06
-1.39467e-05 -5.71555e-06 -0.000157007
0.00037166 4.95717e-05 -1.25764e-05
4.95717e-05 -0.000136067 -1.18743e-05
-1.25764e-05 -1.18743e-05 -0.000196012
0.000781676 0.000160302 -7.23511e-06
0.000160302 3.8877e-05 -7.60799e-06
-7.23511e-06 -7.60799e-06 -0.000126671
0.000935702 0.000172967 -1.13678e-05
0.000172967 2.95716e-05 -6.02629e-06
-1.13678e-05 -6.02629e-06 -0.000124405
0.00071835 0.000199947 -7.27601e-06
0.000199947 -0.000139888 -8.76004e-07
-7.27601e-06 -8.76004e-07 -0.000334367
0.000535773 4.56884e-06 1.83424e-06
4.56884e-06 -2.41801e-05 3.97495e-07
1.83424e-06 3.97495e-07 -7.41197e-05
0.000518565 -6.90387e-05 6.28068e-08
-6.90387e-05 -1.92593e-05 2.63884e-07
6.28068e-08 2.63884e-07 -5.50337e-05
0.000640222 1.75829e-05 7.40343e-07
1.75829e-05 4.7302e-05 3.83605e-07
7.40343e-07 3.83605e-07 -5.33821e-05
0.000999392 0.000126491 -1.74158e-08
0.000126491 -1.40016e-05 -2.35667e-07
-1.74158e-08 -2.35667e-07 -0.000154912
0.000963308 0.00016435 4.73826e-07
0.00016435 1.25124e-05 -2.51505e-07
4.73826e-07 -2.51505e-07 -0.000138624
0.00134139 0.000210538 2.70651e-07
0.000210538 9.1202e-05 2.52449e-08
2.70651e-07 2.52449e-08 -8.46343e-05
0.000803023 0.000154825 -5.67257e-07
0.000154825 0.000119332 4.10672e-07
-5.67257e-07 4.10672e-07 -3.8127e-05
0.00119355 0.000224552 -1.65917e-08
0.000224552 0.00010228 2.59365e-09
-1.65917e-08 2.59365e-09 -8.60704e-05
0.0011395 0.000238767 9.11796e-07
0.000238767 0.000179908 -1.97384e-06
9.11796e-07 -1.97384e-06 -3.71081e-05
0.00116385 0.000252925 -7.84939e-07
0.000252925 7.2978e-05 3.49881e-07
-7.84939e-07 3.49881e-07 -0.000135103
0.000558607 -6.97738e-05 -1.89403e-06
-6.97738e-05 -5.4094e-06 5.66204e-06
-1.89403e-06 5.66204e-06 -3.53047e-05
0.000774861 0.000114567 5.18874e-06
0.000114567 0.000117235 4.58356e-06
5.18874e-06 4.58356e-06 -1.50049e-05
0.000701959 -5.46588e-06 1.00659e-06
-5.46588e-06 7.77679e-05 4.20697e-06
1.00659e-06 4.20697e-06 4.27733e-07
0.000811544 0.000107604 1.6504e-06
0.000107604 0.000178496 -2.53829e-07
1.6504e-06 -2.53829e-07 1.92177e-05
0.00140121 0.000187986 4.73909e-06
0.000187986 8.66418e-05 7.04842e-07
4.73909e-06 7.04842e-07 -7.838e-05
0.00126248 0.000224325 6.91451e-06
0.000224325 8.80398e-05 2.3386e-06
6.91451e-06 2.3386e-06 -9.59571e-05
0.00167878 0.000281157 1.44341e-06
0.000281157 0.000183144 -1.8702e-07
1.44341e-06 -1.8702e-07 -1.34004e-06
0.00134039 0.000231639 3.21447e-06
0.000231639 0.000386588 4.39967e-06
3.21447e-06 4.39967e-06 0.00018123
0.00159231 0.000299967 6.22013e-08
0.000299967 0.000267106 -2.26737e-07
6.22013e-08 -2.26737e-07 5.9135e-05
0.00140983 0.000279282 2.55003e-06
0.000279282 0.000285346 -1.51621e-06
2.55003e-06 -1.51621e-06 4.52457e-05
0.00166183 0.000297692 7.85919e-07
0.000297692 0.00029684 1.14912e-07
7.85919e-07 1.14912e-07 8.21319e-05
0.000633464 3.14337e-06 2.19801e-06
3.14337e-06 1.70097e-05 2.3027e-06
2.19801e-06 2.3027e-06 -3.23757e-05
0.000550594 -4.46287e-05 6.56631e-07
-4.46287e-05 -3.56644e-05 4.5943e-06
6.56631e-07 4.5943e-06 -5.49888e-05
0.00238965 -9.95776e-05 2.84083e-05
-9.95776e-05 0.00108265 3.31771e-06
2.84083e-05 3.31771e-06 0.00108718
0.00243721 -0.000112064 3.22688e-06
-0.000112064 0.00111898 -3.35115e-07
3.22688e-06 -3.35115e-07 0.00112026
0.00252654 -0.000126105 -3.55534e-05
-0.000126105 0.00118015 -2.69143e-06
-3.55534e-05 -2.69143e-06 0.00117748
0.000444792 4.99734e-06 4.22524e-06
4.99734e-06 -7.48089e-05 -7.55706e-06
4.22524e-06 -7.55706e-06 -0.000113882
0.00337469 0.000128828 8.36275e-05
0.000128828 0.00168481 -3.95584e-06
8.36275e-05 -3.95584e-06 0.00167998
0.000531119 -5.48437e-06 -3.37735e-07
-5.48437e-06 -2.48687e-05 1.93063e-07
-3.37735e-07 1.93063e-07 -7.26627e-05
0.0038868 0.000131248 -4.33138e-06
0.000131248 0.00198951 -6.3438e-07
-4.33138e-06 -6.3438e-07 0.00198349
0.000613504 9.63332e-05 -1.90529e-05
9.63332e-05 -9.43371e-05 -6.18341e-06
-1.90529e-05 -6.18341e-06 -0.000174984
0.000620877 3.2542e-05 -1.83603e-05
3.2542e-05 -9.88746e-05 -3.16099e-06
-1.83603e-05 -3.16099e-06 -0.000172281
0.000993745 8.53737e-05 -1.19859e-05
8.53737e-05 -3.44354e-05 -2.76075e-06
-1.19859e-05 -2.76075e-06 -0.000164984
0.000989093 4.04586e-05 -1.23455e-05
4.04586e-05 -4.01335e-05 -1.46405e-06
-1.23455e-05 -1.46405e-06 -0.000161826
0.00063355 -6.3432e-06 -1.91008e-05
-6.3432e-06 -9.59806e-05 -7.36717e-07
-1.91008e-05 -7.36717e-07 -0.000163244
0.00547014 -9.50371e-05 -0.000234088
-9.50371e-05 0.00289256 3.51354e-06
-0.000234088 3.51354e-06 0.00289845
0.000619974 -4.70718e-07 1.40591e-07
-4.70718e-07 -0.000102885 -4.60903e-07
1.40591e-07 -4.60903e-07 -0.000169873
0.00099989 1.96715e-05 -3.4315e-08
1.96715e-05 -3.03112e-05 -1.01514e-07
-3.4315e-08 -1.01514e-07 -0.000149702
0.00101533 6.03645e-05 -6.34253e-08
6.03645e-05 -2.49644e-05 -9.62655e-08
-6.34253e-08 -9.62655e-08 -0.000149997
0.00143911 5.68508e-05 -5.90698e-08
5.68508e-05 5.38303e-05 6.98448e-08
-5.90698e-08 6.98448e-08 -7.4545e-05
0.00101226 0.000105543 -9.61364e-08
0.000105543 -1.7649e-05 -2.32298e-07
-9.61364e-08 -2.32298e-07 -0.00015327
0.00145352 0.000127706 -2.12985e-08
0.000127706 7.20508e-05 -4.15203e-08
-2.12985e-08 -4.15203e-08 -7.1945e-05
0.000997676 -3.40271e-07 1.22078e-05
-3.40271e-07 -2.80048e-05 -3.21841e-07
1.22078e-05 -3.21841e-07 -0.00014647
0.0014253 3.06054e-05 2.083e-06
3.06054e-05 4.99685e-05 1.31427e-07
2.083e-06 1.31427e-07 -7.49621e-05
0.00145212 9.22183e-05 2.04061e-06
9.22183e-05 6.15526e-05 1.31791e-07
2.04061e-06 1.31791e-07 -7.31847e-05
0.00176336 8.15217e-05 -1.91439e-06
8.15217e-05 9.73195e-05 -5.3522e-07
-1.91439e-06 -5.3522e-07 -7.6193e-06
0.00145452 0.000160364 3.56177e-06
0.000160364 8.82584e-05 5.46615e-07
3.56177e-06 5.46615e-07 -6.56461e-05
0.00177044 0.000170331 -3.90421e-07
0.000170331 0.000126274 -1.20905e-06
-3.90421e-07 -1.20905e-06 -2.89125e-06
0.000603404 1.5852e-06 -1.82645e-05
1.5852e-06 -0.000106415 1.08506e-06
-1.82645e-05 1.08506e-06 -0.000176553
0.00167039 -2.369e-05 -9.80171e-05
-2.369e-05 0.00052798 3.94412e-06
-9.80171e-05 3.94412e-06 0.0004701
0.000755466 -2.16791e-05 -1.43015e-05
-2.16791e-05 -0.000170423 1.6793e-06
-1.43015e-05 1.6793e-06 -0.000291396
0.00198291 -0.000102154 -2.38079e-05
-0.000102154 0.000554122 3.76694e-06
-2.38079e-05 3.76694e-06 0.00043516
0.0044827 0.000126941 -0.000145691
0.000126941 0.00234294 8.83693e-06
-0.000145691 8.83693e-06 0.00233488
0.0026154 -0.000114364 -9.18377e-05
-0.000114364 0.00117373 1.25864e-05
-9.18377e-05 1.25864e-05 0.00110959
0.00193783 -0.000245569 -1.91936e-05
-0.000245569 0.000673945 8.07342e-06
-1.91936e-05 8.07342e-06 0.000510881
0.00167236 -0.000147989 -2.50074e-05
-0.000147989 0.000392009 6.39248e-06
-2.50074e-05 6.39248e-06 0.000261862
0.00141543 -0.000154076 -5.76363e-06
-0.000154076 8.3648e-05 1.1564e-06
-5.76363e-06 1.1564e-06 -6.35721e-05
0.00169063 -0.000214989 -6.94008e-06
-0.000214989 0.000302203 2.06543e-06
-6.94008e-06 2.06543e-06 0.000137394
0.00120682 -0.000232731 -7.68953e-06
-0.000232731 8.65899e-05 2.38223e-06
-7.68953e-06 2.38223e-06 -0.000101526
0.00155137 -0.000272647 -2.39276e-06
-0.000272647 0.000160034 -4.33231e-07
-2.39276e-06 -4.33231e-07 -2.69946e-05
0.000619951 -3.58451e-05 -1.0138e-05
-3.58451e-05 1.93746e-05 1.09428e-05
-1.0138e-05 1.09428e-05 -3.65118e-05
0.000652111 -7.47155e-05 -2.10384e-06
-7.47155e-05 4.95345e-05 3.36114e-06
-2.10384e-06 3.36114e-06 -7.02288e-05
0.000870598 -8.39903e-06 -2.94153e-07
-8.39903e-06 -0.000102048 -4.37597e-08
-2.94153e-07 -4.37597e-08 -0.000221011
0.0016784 -6.18908e-05 -5.7237e-06
-6.18908e-05 0.00037213 5.94698e-07
-5.7237e-06 5.94698e-07 0.000256473
0.00169915 -4.65778e-05 -2.05865e-06
-4.65778e-05 0.000220948 2.63044e-07
-2.05865e-06 2.63044e-07 9.75322e-05
0.00156426 -0.00012615 -3.31227e-07
-0.00012615 0.000158658 1.64171e-07
-3.31227e-07 1.64171e-07 1.8753e-05
0.000526092 -6.42493e-05 -1.81254e-07
-6.42493e-05 -4.41334e-05 3.46066e-07
-1.81254e-07 3.46066e-07 -0.000107139
0.000848582 -0.000173214 -8.27853e-07
-0.000173214 0.000100479 -4.47335e-07
-8.27853e-07 -4.47335e-07 -6.24795e-05
0.00102795 -0.00023368 2.42433e-06
-0.00023368 3.78294e-05 -1.01653e-06
2.42433e-06 -1.01653e-06 -0.000162057
0.00168919 -0.000193784 -2.67972e-06
-0.000193784 0.000276443 6.98924e-07
-2.67972e-06 6.98924e-07 0.000119861
0.00178726 -0.000200182 5.67992e-07
-0.000200182 0.000175913 -8.11509e-08
5.67992e-07 -8.11509e-08 3.86951e-05
0.00173502 -0.000317058 -1.86707e-06
-0.000317058 0.000310859 3.28684e-07
-1.86707e-06 3.28684e-07 9.93449e-05
0.00160177 -0.000254525 4.78269e-07
-0.000254525 0.000146494 -1.25575e-07
4.78269e-07 -1.25575e-07 -2.3892e-05
0.00181773 -0.0003096 6.91092e-07
-0.0003096 0.000243627 5.57896e-07
6.91092e-07 5.57896e-07 6.62356e-05
0.000718244 -0.00010926 -1.71154e-07
-0.00010926 8.43458e-05 -1.89485e-07
-1.71154e-07 -1.89485e-07 -5.10563e-05
0.000581572 -9.40458e-05 -5.89266e-07
-9.40458e-05 9.53891e-06 -6.56e-07
-5.89266e-07 -6.56e-07 -0.00014826
0.000672999 -3.27157e-05 -1.22758e-09
-3.27157e-05 6.34487e-05 1.41125e-07
-1.22758e-09 1.41125e-07 -3.84017e-05
0.00165853 -1.88903e-05 7.98033e-07
-1.88903e-05 0.000195129 1.68745e-08
7.98033e-07 1.68745e-08 7.19636e-05
0.00173042 -8.33714e-05 5.69667e-07
-8.33714e-05 0.000240988 3.66377e-07
5.69667e-07 3.66377e-07 0.000113346
0.00167426 -6.79033e-05 -2.24965e-06
-6.79033e-05 6.38496e-05 1.15581e-06
-2.24965e-06 1.15581e-06 -4.29943e-05
0.00172617 -0.00016088 -2.38395e-06
-0.00016088 0.000111349 1.19144e-06
-2.38395e-06 1.19144e-06 -1.47924e-05
0.00161331 -0.00023231 6.21149e-08
-0.00023231 0.000116739 1.52735e-06
6.21149e-08 1.52735e-06 -3.55082e-05
0.00180258 -0.000222779 -1.77546e-06
-0.000222779 0.000126163 1.20002e-06
-1.77546e-06 1.20002e-06 1.04284e-05
0.000687503 -0.000133548 3.95115e-06
-0.000133548 5.43019e-05 -5.39422e-06
3.95115e-06 -5.39422e-06 -9.49704e-05
0.00169205 -0.000285787 -2.11485e-06
-0.000285787 0.000127624 2.07866e-06
-2.11485e-06 2.07866e-06 -2.80322e-05
0.00118266 -0.000240362 3.04031e-06
-0.000240362 0.000231739 -5.23986e-06
3.04031e-06 -5.23986e-06 2.44922e-05
0.00128649 -0.000302515 5.79144e-06
-0.000302515 0.000127513 -1.42774e-06
5.79144e-06 -1.42774e-06 -0.000104418
0.00189029 -0.000355709 1.07198e-06
-0.000355709 0.00034181 3.27098e-06
1.07198e-06 3.27098e-06 0.000126087
0.00197556 -0.000334766 -3.42288e-06
-0.000334766 0.000305779 3.86548e-06
-3.42288e-06 3.86548e-06 0.000141449
0.000615277 -2.34108e-05 7.67282e-07
-2.34108e-05 2.95431e-05 -3.36697e-06
7.67282e-07 -3.36697e-06 -5.80778e-05
0.000758396 -0.000148372 9.27146e-07
-0.000148372 8.94787e-05 -7.12496e-08
9.27146e-07 -7.12496e-08 -7.29415e-05
0.000500345 -7.74756e-05 -5.08104e-07
-7.74756e-05 -1.36171e-05 1.28995e-07
-5.08104e-07 1.28995e-07 -0.00017025
0.00128749 -0.000214403 -2.2628e-06
-0.000214403 0.000409171 1.78703e-06
-2.2628e-06 1.78703e-06 0.000224713
0.000974248 0.000127531 -1.35321e-05
0.000127531 -2.62154e-05 -4.6802e-06
-1.35321e-05 -4.6802e-06 -0.000167833
0.000452528 -6.98965e-05 1.33842e-06
-6.98965e-05 -5.84097e-05 -6.12245e-06
1.33842e-06 -6.12245e-06 -9.37124e-05
0.000400695 -1.34787e-05 -3.93145e-06
-1.34787e-05 -9.9144e-05 -9.90337e-06
-3.93145e-06 -9.90337e-06 -0.000148844
0.00053358 -1.67715e-05 5.18884e-07
-1.67715e-05 -1.25376e-05 -4.81775e-06
5.18884e-07 -4.81775e-06 -0.000111164
0.000984245 0.000167332 -1.295e-05
0.000167332 2.61147e-05 -6.74816e-06
-1.295e-05 -6.74816e-06 -0.000125765
0.00134623 0.000209898 -5.88651e-06
0.000209898 9.71052e-05 -1.65977e-06
-5.88651e-06 -1.65977e-06 -7.87527e-05
0.000687209 0.000132969 -4.64172e-06
0.000132969 5.26668e-05 -4.98192e-06
-4.64172e-06 -4.98192e-06 -0.000101366
0.00103893 0.000229889 -4.78387e-06
0.000229889 0.000121318 -4.9055e-06
-4.78387e-06 -4.9055e-06 -9.40108e-05
0.00130899 0.000231571 -6.24695e-06
0.000231571 0.000173388 -2.51556e-06
-6.24695e-06 -2.51556e-06 -1.54639e-05
0.000779731 0.000227001 -3.83301e-06
0.000227001 -0.000153008 1.5255e-06
-3.83301e-06 1.5255e-06 -0.00035819
0.000526173 -6.63661e-05 -1.95751e-07
-6.63661e-05 -2.6934e-05 1.31192e-07
-1.95751e-07 1.31192e-07 -5.55296e-05
0.000749153 0.000101936 3.10547e-07
0.000101936 0.000109007 -3.03519e-07
3.10547e-07 -3.03519e-07 -2.48557e-05
0.000596354 -2.22926e-05 -5.61687e-07
-2.22926e-05 1.80559e-05 7.59415e-07
-5.61687e-07 7.59415e-07 -5.91182e-05
0.000801908 7.73579e-05 1.47775e-06
7.73579e-05 0.000170653 -9.01249e-07
1.47775e-06 -9.01249e-07 1.59801e-05
0.00140306 0.000187807 1.62535e-07
0.000187807 8.92809e-05 -3.04924e-07
1.62535e-07 -3.04924e-07 -7.59736e-05
0.00126226 0.00022302 3.92809e-07
0.00022302 9.40254e-05 2.53385e-08
3.92809e-07 2.53385e-08 -8.98736e-05
0.00166376 0.000280476 2.22973e-07
0.000280476 0.00017327 1.27262e-07
2.22973e-07 1.27262e-07 -1.14169e-05
0.00106573 0.000209358 7.72094e-07
0.000209358 0.000229504 6.40616e-07
7.72094e-07 6.40616e-07 2.76178e-05
0.00167712 0.000302547 -1.21843e-06
0.000302547 0.000320717 -1.89335e-07
-1.21843e-06 -1.89335e-07 0.000112766
0.00123225 0.000266532 7.07188e-07
0.000266532 0.000179207 -2.56388e-06
7.07188e-07 -2.56388e-06 -6.10763e-05
0.00155402 0.000290776 -2.52947e-06
0.000290776 0.000235737 4.30528e-07
-2.52947e-06 4.30528e-07 2.15462e-05
0.000542105 -5.5766e-05 5.04474e-08
-5.5766e-05 -3.07293e-05 4.85175e-06
5.04474e-08 4.85175e-06 -5.38754e-05
0.000677643 -1.26179e-05 1.50477e-06
-1.26179e-05 5.37981e-05 3.10377e-06
1.50477e-06 3.10377e-06 -8.4398e-06
0.00101984 0.000173727 1.4718e-06
0.000173727 0.000257348 1.4305e-06
1.4718e-06 1.4305e-06 8.45616e-05
0.000879133 5.88584e-05 -9.50938e-07
5.88584e-05 0.000221171 2.68948e-06
-9.50938e-07 2.68948e-06 8.6352e-05
0.00113892 0.00016258 3.48415e-07
0.00016258 0.000354472 -1.92756e-06
3.48415e-07 -1.92756e-06 0.000173978
0.00173388 0.000247975 1.09392e-06
0.000247975 0.000168725 -1.42144e-06
1.09392e-06 -1.42144e-06 4.22168e-06
0.00154555 0.000297908 1.50928e-06
0.000297908 0.000170281 1.52493e-07
1.50928e-06 1.52493e-07 -3.07668e-05
0.00179951 0.000318147 3.16894e-07
0.000318147 0.000211445 -3.76794e-07
3.16894e-07 -3.76794e-07 3.24938e-05
0.00133622 0.000269363 2.13777e-06
0.000269363 0.000355728 5.24256e-06
2.13777e-06 5.24256e-06 0.000119898
0.00184564 0.000358907 1.71907e-06
0.000358907 0.000358566 -4.73638e-07
1.71907e-06 -4.73638e-07 0.000141591
0.000754982 0.000236316 3.23455e-06
0.000236316 -0.000163948 -1.75058e-06
3.23455e-06 -1.75058e-06 -0.000396947
0.000631292 -1.32726e-06 2.52992e-06
-1.32726e-06 1.65558e-05 2.32583e-06
2.52992e-06 2.32583e-06 -3.44922e-05
0.000684539 4.38476e-05 1.39219e-07
4.38476e-05 7.6367e-05 1.06868e-06
1.39219e-07 1.06868e-06 -7.523e-06
0.000648389 1.30553e-05 1.95026e-06
1.30553e-05 2.81375e-05 2.26969e-06
1.95026e-06 2.26969e-06 -2.08487e-05
0.000620982 -1.86673e-05 -5.41898e-07
-1.86673e-05 1.17812e-05 8.79595e-09
-5.41898e-07 8.79595e-09 -3.86867e-05
0.00125066 -5.17642e-05 9.93869e-07
-5.17642e-05 0.000375769 2.66502e-06
9.93869e-07 2.66502e-06 0.000362297
0.000922068 -5.19108e-05 5.80964e-07
-5.19108e-05 0.000185307 -9.24994e-08
5.80964e-07 -9.24994e-08 0.000167839
0.000898935 -5.03472e-05 2.36643e-05
-5.03472e-05 0.000183084 7.37603e-06
2.36643e-05 7.37603e-06 0.000184925
0.00235478 -9.72783e-05 3.36448e-06
-9.72783e-05 0.00106094 -2.97657e-07
3.36448e-06 -2.97657e-07 0.00106597
0.00237961 -0.000108923 -3.25257e-05
-0.000108923 0.00108413 -3.03684e-06
-3.25257e-05 -3.03684e-06 0.00108608
0.000482966 2.72248e-05 6.5245e-07
2.72248e-05 -5.34042e-05 -6.17967e-06
6.5245e-07 -6.17967e-06 -8.60766e-05
0.00303506 0.000131382 5.2597e-05
0.000131382 0.00147874 -3.07936e-06
5.2597e-05 -3.07936e-06 0.00147394
0.000531629 4.27826e-06 -3.30978e-07
4.27826e-06 -2.41615e-05 2.58898e-07
-3.30978e-07 2.58898e-07 -6.38827e-05
0.00352445 0.000119614 -5.18731e-06
0.000119614 0.00177044 -4.79971e-07
-5.18731e-06 -4.79971e-07 0.0017679
0.000626792 -7.73103e-06 -6.26998e-06
-7.73103e-06 2.87072e-05 9.35185e-06
-6.26998e-06 9.35185e-06 -1.96191e-05
0.00398339 0.000118637 -0.000124717
0.000118637 0.00204325 6.8538e-06
-0.000124717 6.8538e-06 0.00203983
0.000990331 0.000107422 -1.26133e-05
0.000107422 -2.89751e-05 -3.67057e-06
-1.26133e-05 -3.67057e-06 -0.000165318
0.000999403 6.41178e-05 -1.21038e-05
6.41178e-05 -3.39233e-05 -2.07334e-06
-1.21038e-05 -2.07334e-06 -0.000159507
0.00145471 0.000125407 -3.40091e-06
0.000125407 7.31884e-05 -4.09928e-07
-3.40091e-06 -4.09928e-07 -7.08886e-05
0.00143941 5.62288e-05 -2.28697e-06
5.62288e-05 5.51289e-05 -4.02342e-09
-2.28697e-06 -4.02342e-09 -7.3374e-05
0.000998009 2.3335e-05 -1.2326e-05
2.3335e-05 -3.20717e-05 -7.50467e-07
-1.2326e-05 -7.50467e-07 -0.000151645
0.000587102 2.63732e-05 -1.88484e-05
2.63732e-05 -0.000121862 -9.1077e-08
-1.88484e-05 -9.1077e-08 -0.000188717
0.00099578 2.07394e-06 1.16246e-09
2.07394e-06 -2.9517e-05 -1.31459e-07
1.16246e-09 -1.31459e-07 -0.000148014
0.00142379 3.21888e-05 -6.91191e-08
3.21888e-05 4.94152e-05 3.25467e-08
-6.91191e-08 3.25467e-08 -7.56442e-05
0.00145478 8.98296e-05 7.32934e-09
8.98296e-05 6.46347e-05 -1.90897e-10
7.32934e-09 -1.90897e-10 -7.00885e-05
0.00180743 8.1565e-05 -2.23174e-09
8.1565e-05 0.00011893 2.38073e-07
-2.23174e-09 2.38073e-07 1.66771e-05
0.00144204 0.000159617 -2.04179e-07
0.000159617 8.30277e-05 -6.55617e-08
-2.04179e-07 -6.55617e-08 -7.10851e-05
0.00176056 0.00016784 -2.72527e-07
0.00016784 0.000124612 1.23353e-08
-2.72527e-07 1.23353e-08 -4.50108e-06
0.00142116 6.37825e-06 2.39421e-06
6.37825e-06 5.11565e-05 4.34329e-08
2.39421e-06 4.34329e-08 -7.2767e-05
0.00179727 4.41644e-05 -3.24546e-06
4.41644e-05 0.000122552 -1.01553e-07
-3.24546e-06 -1.01553e-07 2.80112e-05
0.00177475 0.000130654 -1.40176e-06
0.000130654 0.000105395 -9.99019e-07
-1.40176e-06 -9.99019e-07 -1.0047e-05
0.00177362 8.33086e-05 2.0076e-06
8.33086e-05 3.26499e-05 6.41014e-08
2.0076e-06 6.41014e-08 -4.60287e-05
0.00175988 0.000206569 2.08667e-08
0.000206569 0.000155788 -1.12263e-06
2.08667e-08 -1.12263e-06 1.08251e-05
0.00172828 0.000189444 -9.83739e-07
0.000189444 4.5259e-05 -1.2629e-06
-9.83739e-07 -1.2629e-06 -5.86109e-05
0.000747344 -5.33153e-06 -1.20644e-05
-5.33153e-06 -0.000174232 6.9026e-07
-1.20644e-05 6.9026e-07 -0.000293947
0.00170704 -6.42974e-05 -2.33977e-05
-6.42974e-05 0.000387844 2.77395e-06
-2.33977e-05 2.77395e-06 0.000272222
0.0017469 -4.05462e-05 -5.53708e-06
-4.05462e-05 0.000245245 1.51055e-07
-5.53708e-06 1.51055e-07 0.000124619
0.0016735 -0.000128007 -4.31423e-06
-0.000128007 0.000223614 9.40453e-07
-4.31423e-06 9.40453e-07 8.29414e-05
0.000718584 -7.98965e-05 -1.42522e-05
-7.98965e-05 6.77821e-05 1.30813e-05
-1.42522e-05 1.30813e-05 1.31039e-06
0.000815089 -0.000178856 -7.96807e-06
-0.000178856 8.08863e-05 6.89634e-06
-7.96807e-06 6.89634e-06 -8.28679e-05
0.000999474 -0.000229875 -5.56131e-06
-0.000229875 2.32609e-05 2.13591e-06
-5.56131e-06 2.13591e-06 -0.000175198
0.00170161 -0.000191846 -7.99361e-06
-0.000191846 0.000282665 2.25552e-06
-7.99361e-06 2.25552e-06 0.000125373
0.00185369 -0.000204039 5.89521e-07
-0.000204039 0.000209002 -1.01218e-06
5.89521e-07 -1.01218e-06 7.51019e-05
0.0016052 -0.000254099 -1.37851e-06
-0.000254099 0.000149841 -5.88906e-07
-1.37851e-06 -5.88906e-07 -2.00845e-05
0.00168726 -0.00031712 -5.20479e-06
-0.00031712 0.000286622 -2.7396e-07
-5.20479e-06 -2.7396e-07 7.40648e-05
0.00175747 -0.000307258 3.25489e-06
-0.000307258 0.000203004 -2.74471e-06
3.25489e-06 -2.74471e-06 2.58462e-05
0.000735289 -0.000117322 -4.03796e-06
-0.000117322 9.01083e-05 4.72977e-06
-4.03796e-06 4.72977e-06 -4.49412e-05
0.000494892 -8.05502e-05 -8.5798e-07
-8.05502e-05 -3.99884e-05 -9.01993e-07
-8.5798e-07 -9.01993e-07 -0.000196684
0.000628043 -3.94087e-05 -1.07141e-06
-3.94087e-05 3.66223e-05 3.3943e-06
-1.07141e-06 3.3943e-06 -6.66728e-05
0.00155273 -1.66587e-05 -2.17366e-06
-1.66587e-05 0.000131738 1.41581e-07
-2.17366e-06 1.41581e-07 8.00103e-06
0.00173044 -9.0783e-05 -2.73473e-06
-9.0783e-05 0.000240398 4.42097e-07
-2.73473e-06 4.42097e-07 0.000111967
0.00171772 -6.47407e-05 1.33573e-06
-6.47407e-05 8.9398e-05 5.60477e-07
1.33573e-06 5.60477e-07 -1.2411e-05
0.00172725 -0.00015766 -1.57605e-06
-0.00015766 0.000110834 4.74883e-07
-1.57605e-06 4.74883e-07 -1.62445e-05
0.000760093 -0.000148342 4.35143e-07
-0.000148342 9.81733e-05 3.22934e-07
4.35143e-07 3.22934e-07 -5.38459e-05
0.00109115 -0.000233064 -1.68264e-06
-0.000233064 0.000171615 -7.4775e-07
-1.68264e-06 -7.4775e-07 -3.36536e-05
0.00135664 -0.000304007 1.94372e-06
-0.000304007 0.000175073 -3.55943e-07
1.94372e-06 -3.55943e-07 -5.64591e-05
0.00161478 -0.000231322 -6.99882e-07
-0.000231322 0.000119621 5.47161e-07
-6.99882e-07 5.47161e-07 -3.55492e-05
0.00184751 -0.000224232 1.58485e-06
-0.000224232 0.000153804 1.45065e-07
1.58485e-06 1.45065e-07 4.22413e-05
0.00178149 -0.000354287 -8.84826e-07
-0.000354287 0.000274882 4.91723e-07
-8.84826e-07 4.91723e-07 5.67636e-05
0.00172473 -0.000286492 1.14278e-07
-0.000286492 0.000146596 3.18825e-07
1.14278e-07 3.18825e-07 -8.81875e-06
0.00199599 -0.000332363 1.79853e-06
-0.000332363 0.000317746 -3.58805e-07
1.79853e-06 -3.58805e-07 0.000156761
0.000960414 -0.000172899 3.61395e-07
-0.000172899 0.000211022 8.51299e-07
3.61395e-07 8.51299e-07 4.29138e-05
0.00114476 -0.000210249 -3.97426e-07
-0.000210249 0.000331974 1.55324e-07
-3.97426e-07 1.55324e-07 0.000144998
0.000639275 -2.87847e-05 1.88417e-08
-2.87847e-05 4.27376e-05 2.09052e-07
1.88417e-08 2.09052e-07 -4.57146e-05
0.000382778 -3.90808e-05 -1.0918e-07
-3.90808e-05 -9.27756e-05 -5.84668e-07
-1.0918e-07 -5.84668e-07 -0.00023936
0.00174774 -3.57271e-05 -2.36839e-06
-3.57271e-05 0.000104785 2.68192e-07
-2.36839e-06 2.68192e-07 5.06762e-06
0.00184755 -0.000108571 -9.07585e-07
-0.000108571 0.000164814 1.42203e-06
-9.07585e-07 1.42203e-06 5.27544e-05
0.00168234 -7.62142e-05 1.26011e-06
-7.62142e-05 1.28832e-05 1.77723e-09
1.26011e-06 1.77723e-09 -6.87989e-05
0.00177384 -0.000183917 -3.62649e-06
-0.000183917 6.75068e-05 8.39397e-07
-3.62649e-06 8.39397e-07 -2.59474e-05
0.00172839 -0.000255178 -3.72897e-06
-0.000255178 0.000115318 2.85841e-06
-3.72897e-06 2.85841e-06 -1.5844e-05
0.00199757 -0.000229731 1.93221e-06
-0.000229731 0.000224144 -5.60911e-07
1.93221e-06 -5.60911e-07 0.000128303
0.000960668 -0.000204136 7.15203e-07
-0.000204136 0.000175939 -3.83736e-06
7.15203e-07 -3.83736e-06 -1.22285e-05
0.00164093 -0.000299197 -4.96335e-06
-0.000299197 7.2421e-05 2.69646e-06
-4.96335e-06 2.69646e-06 -6.07245e-05
0.00116135 -0.000274536 1.87364e-06
-0.000274536 0.000168761 -4.58439e-06
1.87364e-06 -4.58439e-06 -6.47525e-05
0.00164372 -0.000376039 -8.61418e-08
-0.000376039 0.000283005 1.32121e-06
-8.61418e-08 1.32121e-06 2.6995e-05
0.00173334 -0.000365147 8.91328e-07
-0.000365147 0.000200141 5.14914e-06
8.91328e-07 5.14914e-06 -1.4054e-05
0.00197045 -0.000318804 -4.4346e-07
-0.000318804 0.000292351 1.21693e-06
-4.4346e-07 1.21693e-06 0.00013918
0.000548055 -3.00221e-05 1.03688e-06
-3.00221e-05 -1.1083e-05 -3.12368e-06
1.03688e-06 -3.12368e-06 -8.73784e-05
0.000446307 -3.35712e-05 -1.43123e-06
-3.35712e-05 -4.58847e-05 -1.1277e-06
-1.43123e-06 -1.1277e-06 -0.000181857
0.000861734 -0.000203783 -7.34075e-07
-0.000203783 0.000129567 6.44244e-07
-7.34075e-07 6.44244e-07 -5.3955e-05
0.000802846 -0.000145245 4.73466e-07
-0.000145245 0.000171843 1.98355e-06
4.73466e-07 1.98355e-06 -8.78551e-06
0.00140549 -0.000253795 -3.50998e-06
-0.000253795 0.000470309 3.35092e-06
-3.50998e-06 3.35092e-06 0.000280769
0.000503442 -6.0404e-05 -5.27262e-07
-6.0404e-05 -4.32749e-05 -4.9328e-06
-5.27262e-07 -4.9328e-06 -7.01639e-05
0.00140152 0.000187328 -4.55568e-06
0.000187328 9.04549e-05 -1.31914e-06
-4.55568e-06 -1.31914e-06 -7.49994e-05
0.000516962 -3.8999e-05 -2.70851e-07
-3.8999e-05 -2.50374e-05 -3.35804e-06
-2.70851e-07 -3.35804e-06 -0.000102858
0.000715562 7.58615e-05 -1.96482e-06
7.58615e-05 8.60962e-05 -4.62282e-06
-1.96482e-06 -4.62282e-06 -4.17186e-05
0.000679704 4.8276e-05 1.58481e-06
4.8276e-05 9.44909e-05 -1.38931e-06
1.58481e-06 -1.38931e-06 -5.44784e-05
0.00126898 0.00022237 -6.53037e-06
0.00022237 0.000103491 -2.37595e-06
-6.53037e-06 -2.37595e-06 -8.04222e-05
0.00165191 0.000280114 -1.12682e-07
0.000280114 0.000164875 6.89401e-07
-1.12682e-07 6.89401e-07 -2.00705e-05
0.000860284 0.000196919 -1.4469e-06
0.000196919 0.000112965 -3.56047e-06
-1.4469e-06 -3.56047e-06 -8.85473e-05
0.00105948 0.000254905 -1.58086e-06
0.000254905 7.51952e-05 -2.99339e-06
-1.58086e-06 -2.99339e-06 -0.000165752
0.00175065 0.000304835 -2.80862e-06
0.000304835 0.000366569 -6.7067e-07
-2.80862e-06 -6.7067e-07 0.000158621
0.00147387 0.000286894 -5.89052e-06
0.000286894 0.000189666 2.32228e-06
-5.89052e-06 2.32228e-06 -2.45128e-05
0.000547285 -5.19991e-05 2.36676e-08
-5.19991e-05 -2.95672e-05 2.34144e-09
2.36676e-08 2.34144e-09 -5.17725e-05
0.000634248 -2.15767e-05 -6.26943e-07
-2.15767e-05 3.07267e-05 3.01251e-07
-6.26943e-07 3.01251e-07 -3.17672e-05
0.00093913 0.000165922 -2.07063e-07
0.000165922 0.00021016 9.42353e-07
-2.07063e-07 9.42353e-07 3.83212e-05
0.000694381 1.31216e-05 -6.12585e-07
1.31216e-05 0.000105232 3.82208e-07
-6.12585e-07 3.82208e-07 -2.05447e-05
0.00065189 0.000112974 6.16207e-07
0.000112974 6.04482e-05 -8.09563e-07
6.16207e-07 -8.09563e-07 -0.000110467
0.00171672 0.000248391 -1.19227e-07
0.000248391 0.000156094 -8.2398e-07
-1.19227e-07 -8.2398e-07 -8.83192e-06
0.00155323 0.000298964 4.90908e-07
0.000298964 0.00017342 1.81874e-07
4.90908e-07 1.81874e-07 -2.80878e-05
0.0017246 0.00031508 1.77671e-06
0.00031508 0.000168284 2.07782e-07
1.77671e-06 2.07782e-07 -1.10664e-05
0.00118983 0.000256208 1.08107e-06
0.000256208 0.000277194 1.80755e-06
1.08107e-06 1.80755e-06 4.05944e-05
0.00179899 0.000354732 6.89148e-07
0.000354732 0.00031665 1.87187e-07
6.89148e-07 1.87187e-07 9.90979e-05
0.00124171 0.000277783 -1.6598e-06
0.000277783 0.000119017 1.45088e-07
-1.6598e-06 1.45088e-07 -0.000119106
0.000682033 -7.94969e-06 2.18747e-06
-7.94969e-06 4.90983e-05 2.51321e-06
2.18747e-06 2.51321e-06 -5.50566e-06
0.000843959 5.10024e-05 7.49631e-07
5.10024e-05 0.000182786 2.77101e-06
7.49631e-07 2.77101e-06 7.88436e-05
0.00107287 0.00022604 -2.30616e-06
0.00022604 0.000264956 -7.85984e-07
-2.30616e-06 -7.85984e-07 7.19966e-05
0.0011951 8.44274e-05 2.17559e-07
8.44274e-05 0.00040299 9.12301e-07
2.17559e-07 9.12301e-07 0.000244362
0.00112258 0.000132938 -5.29636e-06
0.000132938 0.000297633 -6.03539e-06
-5.29636e-06 -6.03539e-06 0.000135659
0.00176021 0.000259412 -2.86223e-06
0.000259412 0.000147468 -2.60349e-06
-2.86223e-06 -2.60349e-06 -1.89053e-06
0.00176287 0.000358851 1.74255e-06
0.000358851 0.000239196 2.31476e-07
1.74255e-06 2.31476e-07 3.375e-05
0.0015265 0.000334734 3.90997e-06
0.000334734 2.6716e-05 -9.04067e-07
3.90997e-06 -9.04067e-07 -0.000150446
0.000859321 0.000240265 -4.51592e-07
0.000240265 6.18091e-05 3.42841e-06
-4.51592e-07 3.42841e-06 -0.00018587
0.00144258 0.000337801 6.01406e-06
0.000337801 0.000145987 -8.62333e-07
6.01406e-06 -8.62333e-07 -8.89422e-05
0.000633641 -9.27601e-06 -1.78711e-07
-9.27601e-06 1.76435e-05 1.64823e-08
-1.78711e-07 1.64823e-08 -3.32647e-05
0.00056084 2.16461e-05 1.49496e-06
2.16461e-05 -7.3121e-06 1.54711e-06
1.49496e-06 1.54711e-06 -8.62793e-05
0.000554054 1.00691e-05 -5.87432e-07
1.00691e-05 -6.67509e-06 -9.48156e-08
-5.87432e-07 -9.48156e-08 -8.57044e-05
0.000926298 8.75021e-05 4.00548e-07
8.75021e-05 0.000225761 -4.00982e-07
4.00548e-07 -4.00982e-07 0.000127016
0.00068405 6.69862e-05 1.83961e-06
6.69862e-05 7.66674e-05 1.37377e-06
1.83961e-06 1.37377e-06 -5.84225e-06
0.000627876 2.53381e-05 2.00161e-06
2.53381e-05 2.06259e-05 2.33378e-06
2.00161e-06 2.33378e-06 -2.92178e-05
0.000625494 -1.09086e-05 -6.3908e-07
-1.09086e-05 1.59516e-05 6.90766e-09
-6.3908e-07 6.90766e-09 -3.36107e-05
0.00124847 -3.94034e-05 7.92656e-07
-3.94034e-05 0.000370458 2.53433e-06
7.92656e-07 2.53433e-06 0.000358926
0.000626866 -2.06437e-05 -1.11446e-06
-2.06437e-05 1.43297e-05 -2.33724e-06
-1.11446e-06 -2.33724e-06 -3.53399e-05
0.00129576 -4.85672e-05 -5.29291e-06
-4.85672e-05 0.000402197 -1.39061e-06
-5.29291e-06 -1.39061e-06 0.000389218
0.00086512 -3.99473e-05 2.29662e-05
-3.99473e-05 0.000154566 7.51784e-06
2.29662e-05 7.51784e-06 0.000159445
0.0013136 -5.71406e-05 -9.48777e-06
-5.71406e-05 0.000418799 -3.86329e-06
-9.48777e-06 -3.86329e-06 0.000403569
0.00157611 -6.6334e-05 2.07345e-05
-6.6334e-05 0.000587612 1.91798e-06
2.07345e-05 1.91798e-06 0.000592701
0.00230896 -9.4555e-05 -2.87412e-05
-9.4555e-05 0.00103256 -3.56408e-06
-2.87412e-05 -3.56408e-06 0.00103818
0.000480472 6.241e-05 -1.89666e-06
6.241e-05 -5.38881e-05 -5.15503e-06
-1.89666e-06 -5.15503e-06 -8.39637e-05
0.000517675 2.39902e-05 3.48028e-07
2.39902e-05 -3.2704e-05 3.02586e-07
3.48028e-07 3.02586e-07 -6.60143e-05
0.00270192 0.000116405 3.526e-05
0.000116405 0.00127515 -3.40258e-06
3.526e-05 -3.40258e-06 0.00127419
0.00314299 0.000110345 -6.65397e-06
0.000110345 0.00153977 -3.92582e-07
-6.65397e-06 -3.92582e-07 0.00154001
0.000625568 2.90486e-06 -4.89936e-06
2.90486e-06 3.06063e-05 7.78029e-06
-4.89936e-06 7.78029e-06 -9.78181e-06
0.00362579 0.000106565 -0.000110634
0.000106565 0.00182697 5.83789e-06
-0.000110634 5.83789e-06 0.00182737
0.00143198 0.000159228 -4.11972e-06
0.000159228 7.86922e-05 -6.87152e-07
-4.11972e-06 -6.87152e-07 -7.56802e-05
0.00144323 9.02924e-05 -2.5948e-06
9.02924e-05 5.89774e-05 -1.31982e-07
-2.5948e-06 -1.31982e-07 -7.61444e-05
0.00174574 0.000166476 -2.56158e-07
0.000166476 0.000119799 1.16109e-06
-2.56158e-07 1.16109e-06 -9.43427e-06
0.00185236 8.15041e-05 1.19196e-06
8.15041e-05 0.000140734 8.93789e-07
1.19196e-06 8.93789e-07 4.11992e-05
0.00141797 3.51672e-05 -2.19811e-06
3.51672e-05 4.66117e-05 -4.88062e-08
-2.19811e-06 -4.88062e-08 -7.86384e-05
0.000999705 6.63895e-06 -1.20945e-05
6.63895e-06 -2.76316e-05 -5.0899e-08
-1.20945e-05 -5.0899e-08 -0.000146096
0.00141265 9.83096e-06 7.44943e-08
9.83096e-06 4.72535e-05 3.34307e-08
7.44943e-08 3.34307e-08 -7.67751e-05
0.00180361 3.49399e-05 -1.76222e-06
3.49399e-05 0.000127597 -2.59908e-09
-1.76222e-06 -2.59908e-09 3.34694e-05
0.00178266 0.000129429 -2.30803e-07
0.000129429 0.000110381 1.31039e-07
-2.30803e-07 1.31039e-07 -4.96552e-06
0.00179599 8.18523e-05 2.13648e-06
8.18523e-05 4.67036e-05 8.79418e-07
2.13648e-06 8.79418e-07 -2.67816e-05
0.00173658 0.000207132 -2.84567e-07
0.000207132 0.000137965 -7.0875e-08
-2.84567e-07 -7.0875e-08 -7.57446e-06
0.00176747 0.000187303 -4.26028e-07
0.000187303 6.55757e-05 9.65543e-07
-4.26028e-07 9.65543e-07 -3.54224e-05
0.00178865 2.73289e-06 -2.40106e-06
2.73289e-06 0.000126807 3.36048e-07
-2.40106e-06 3.36048e-07 3.27287e-05
0.0017331 4.03615e-05 2.26531e-06
4.03615e-05 2.26235e-05 3.40462e-07
2.26531e-06 3.40462e-07 -4.65806e-05
0.00185965 0.000139345 -9.82104e-07
0.000139345 9.19195e-05 -7.89196e-07
-9.82104e-07 -7.89196e-07 8.57307e-06
0.00178305 8.93601e-05 4.78413e-06
8.93601e-05 1.65327e-05 5.57827e-07
4.78413e-06 5.57827e-07 -4.06649e-05
0.00172448 0.000207635 -7.00381e-07
0.000207635 8.35459e-05 -2.48366e-06
-7.00381e-07 -2.48366e-06 -3.79078e-05
0.00188929 0.000197223 3.54923e-06
0.000197223 9.86425e-05 6.95616e-07
3.54923e-06 6.95616e-07 1.45722e-05
0.00143543 -1.47141e-05 -4.23929e-06
-1.47141e-05 6.16131e-05 7.28672e-08
-4.23929e-06 7.28672e-08 -6.27194e-05
0.00174053 -9.53336e-05 -6.17527e-06
-9.53336e-05 0.000245535 6.71584e-07
-6.17527e-06 6.71584e-07 0.000116576
0.00174217 -6.27051e-05 3.17453e-06
-6.27051e-05 0.000103661 -1.26512e-06
3.17453e-06 -1.26512e-06 6.76839e-06
0.00172057 -0.000154774 -1.01401e-07
-0.000154774 0.000105878 -1.67325e-07
-1.01401e-07 -1.67325e-07 -2.22129e-05
0.000876039 -0.000173214 -5.31205e-06
-0.000173214 0.000168836 7.28934e-06
-5.31205e-06 7.28934e-06 1.25429e-05
0.0010397 -0.000228897 -5.76684e-06
-0.000228897 0.000135055 3.56552e-06
-5.76684e-06 3.56552e-06 -6.87511e-05
0.00112878 -0.000278757 -1.60442e-06
-0.000278757 4.79872e-05 5.27451e-07
-1.60442e-06 5.27451e-07 -0.000179479
0.00161672 -0.000230401 -1.117e-06
-0.000230401 0.000122729 1.09718e-07
-1.117e-06 1.09718e-07 -3.5382e-05
0.00188927 -0.000225276 3.61189e-06
-0.000225276 0.000179956 -1.80025e-06
3.61189e-06 -1.80025e-06 7.26258e-05
0.00175939 -0.000287283 2.58599e-06
-0.000287283 0.000166948 -1.4202e-06
2.58599e-06 -1.4202e-06 1.17705e-05
0.00169428 -0.000355619 -3.8865e-07
-0.000355619 0.00022002 -1.98347e-06
-3.8865e-07 -1.98347e-06 -1.07984e-06
0.00202013 -0.00033012 5.82149e-06
-0.00033012 0.000332403 -6.45868e-06
5.82149e-06 -6.45868e-06 0.000174754
0.000922289 -0.000174039 1.35579e-08
-0.000174039 0.000190163 1.60723e-06
1.35579e-08 1.60723e-06 2.1403e-05
0.000659914 -0.000150472 6.78721e-08
-0.000150472 3.7101e-05 -4.86386e-07
6.78721e-08 -4.86386e-07 -0.00013666
0.000706571 -3.3298e-05 -1.18667e-06
-3.3298e-05 8.02168e-05 3.40168e-06
-1.18667e-06 3.40168e-06 -8.55595e-06
0.000322082 -1.18981e-05 8.70566e-07
-1.18981e-05 -0.000133068 -1.62854e-06
8.70566e-07 -1.62854e-06 -0.00027292
0.00173376 -3.57476e-05 1.48274e-08
-3.57476e-05 9.69939e-05 9.8601e-08
1.48274e-08 9.8601e-08 -2.90133e-06
0.00177744 -0.000107534 3.65744e-07
-0.000107534 0.000126025 -2.99703e-07
3.65744e-07 -2.99703e-07 1.18306e-05
0.00172236 -7.53613e-05 2.05388e-06
-7.53613e-05 3.60614e-05 -5.37641e-07
2.05388e-06 -5.37641e-07 -4.1498e-05
0.00174711 -0.000180573 -1.68456e-06
-0.000180573 5.83429e-05 6.72565e-07
-1.68456e-06 6.72565e-07 -3.71289e-05
0.000986258 -0.000199023 -9.167e-07
-0.000199023 0.000192155 8.80913e-07
-9.167e-07 8.80913e-07 4.96466e-06
0.00100069 -0.000256636 1.00023e-06
-0.000256636 7.22771e-05 -1.74773e-06
1.00023e-06 -1.74773e-06 -0.000156135
0.00161384 -0.000377192 -6.74569e-08
-0.000377192 0.000265142 7.90877e-07
-6.74569e-08 7.90877e-07 5.82131e-06
0.00168492 -0.000252112 -1.50754e-06
-0.000252112 9.52077e-05 7.56146e-07
-1.50754e-06 7.56146e-07 -3.94987e-05
0.00184429 -0.000226031 2.06674e-06
-0.000226031 0.000130578 -1.07506e-06
2.06674e-06 -1.07506e-06 3.88975e-05
0.0017337 -0.000366776 -6.86124e-07
-0.000366776 0.000204161 6.12765e-07
-6.86124e-07 6.12765e-07 -1.11457e-05
0.00170186 -0.000302303 -5.55489e-07
-0.000302303 0.000105496 1.08176e-06
-5.55489e-07 1.08176e-06 -2.80468e-05
0.00184554 -0.000311772 3.54807e-06
-0.000311772 0.000206073 -5.26903e-06
3.54807e-06 -5.26903e-06 5.75411e-05
0.00103256 -0.000220262 6.47961e-07
-0.000220262 0.000226766 1.44327e-06
6.47961e-07 1.44327e-06 4.03257e-05
0.00123323 -0.000231293 3.0675e-06
-0.000231293 0.000361203 1.20773e-06
3.0675e-06 1.20773e-06 0.000180213
0.000776101 -0.000111784 -2.22211e-07
-0.000111784 0.000151337 -1.9233e-07
-2.22211e-07 -1.9233e-07 -2.85753e-05
0.000469419 -6.20409e-06 -1.28865e-06
-6.20409e-06 -5.76309e-05 3.93189e-07
-1.28865e-06 3.93189e-07 -0.000135408
0.000400252 -2.60722e-06 -3.66277e-07
-2.60722e-06 -7.55198e-05 -6.9599e-07
-3.66277e-07 -6.9599e-07 -0.000205471
0.00183162 -4.97093e-05 9.92312e-07
-4.97093e-05 8.76191e-05 -6.5217e-07
9.92312e-07 -6.5217e-07 2.00447e-05
0.00185871 -0.000107263 2.29208e-06
-0.000107263 9.69248e-05 2.78001e-07
2.29208e-06 2.78001e-07 2.02974e-05
0.00180652 -0.000216267 1.88454e-07
-0.000216267 6.4556e-05 -1.34546e-06
1.88454e-07 -1.34546e-06 -1.14293e-05
0.00163346 -0.000251432 -9.46462e-07
-0.000251432 2.92205e-05 2.14427e-07
-9.46462e-07 2.14427e-07 -7.55066e-05
0.00104353 -0.000236448 -1.93401e-06
-0.000236448 0.000194149 -4.25122e-06
-1.93401e-06 -4.25122e-06 -1.51162e-05
0.00222462 -0.000359919 -3.74609e-06
-0.000359919 0.000348665 8.71915e-07
-3.74609e-06 8.71915e-07 0.000218617
0.0010673 -0.000302786 2.00988e-06
-0.000302786 7.99675e-05 -3.38645e-06
2.00988e-06 -3.38645e-06 -0.00017633
0.00166789 -0.000418488 2.69573e-07
-0.000418488 0.000255104 2.26194e-06
2.69573e-07 2.26194e-06 -1.73401e-05
0.00162864 -0.000353545 1.78587e-06
-0.000353545 0.000113412 4.00064e-06
1.78587e-06 4.00064e-06 -9.22274e-05
0.000264781 1.2069e-05 2.76856e-07
1.2069e-05 -0.000177878 -3.46679e-06
2.76856e-07 -3.46679e-06 -0.000244972
0.000733887 -3.83224e-05 3.53189e-07
-3.83224e-05 0.000133671 -7.96956e-07
3.53189e-07 -7.96956e-07 1.16758e-05
0.000934386 -6.70484e-05 -1.49375e-06
-6.70484e-05 0.000237466 9.36982e-07
-1.49375e-06 9.36982e-07 8.36277e-05
0.00115039 -0.000238964 -5.7257e-06
-0.000238964 0.00028143 -1.63395e-07
-5.7257e-06 -1.63395e-07 8.9328e-05
0.000499892 -0.000124021 2.67263e-06
-0.000124021 -2.07556e-05 3.58633e-06
2.67263e-06 3.58633e-06 -0.000213986
0.000634829 -0.000196158 -9.51062e-07
-0.000196158 -2.09214e-05 -4.10891e-08
-9.51062e-07 -4.10891e-08 -0.000196849
0.000551118 -5.01525e-05 -1.03587e-06
-5.01525e-05 -2.83062e-05 -4.58592e-06
-1.03587e-06 -4.58592e-06 -5.00566e-05
0.000576481 -2.48542e-05 -1.83007e-06
-2.48542e-05 -1.76852e-06 -2.58797e-06
-1.83007e-06 -2.58797e-06 -6.41103e-05
0.00169813 0.000248838 -1.22316e-06
0.000248838 0.000142266 -1.73951e-07
-1.22316e-06 -1.73951e-07 -2.31102e-05
0.000516941 -6.27714e-05 1.36595e-06
-6.27714e-05 -4.82277e-07 -2.61183e-06
1.36595e-06 -2.61183e-06 -0.000120368
0.000804315 0.000149826 -1.36108e-06
0.000149826 0.000132738 6.76614e-07
-1.36108e-06 6.76614e-07 -3.56189e-05
0.000192954 6.56153e-05 1.51257e-06
6.56153e-05 -0.000216485 1.6467e-06
1.51257e-06 1.6467e-06 -0.000378812
0.0015627 0.000299697 -4.81902e-07
0.000299697 0.000179142 3.13205e-07
-4.81902e-07 3.13205e-07 -2.2709e-05
0.00164736 0.000311458 2.11568e-07
0.000311458 0.000125054 2.64601e-07
2.11568e-07 2.64601e-07 -5.45696e-05
0.00103741 0.000242533 1.24793e-06
0.000242533 0.000195009 -1.61301e-06
1.24793e-06 -1.61301e-06 -4.24798e-05
0.00167225 0.000313234 -1.20883e-06
0.000313234 0.000368935 -8.48406e-07
-1.20883e-06 -8.48406e-07 0.000128198
0.00174272 0.000349593 -2.9837e-06
0.000349593 0.000270962 -4.09965e-07
-2.9837e-06 -4.09965e-07 5.29764e-05
0.000630405 -8.48324e-06 -3.2882e-07
-8.48324e-06 1.9761e-05 1.83494e-07
-3.2882e-07 1.83494e-07 -3.47973e-05
0.000696174 -4.62278e-06 -9.6702e-07
-4.62278e-06 9.37749e-05 4.20263e-07
-9.6702e-07 4.20263e-07 -5.42614e-06
0.00109858 0.000228698 -8.71594e-07
0.000228698 0.000281121 -4.94206e-08
-8.71594e-07 -4.94206e-08 8.78883e-05
0.000838471 3.52993e-05 4.24799e-07
3.52993e-05 0.000188955 -1.93387e-07
4.24799e-07 -1.93387e-07 3.77237e-05
0.000824099 0.000145079 1.01393e-06
0.000145079 0.000138349 1.23098e-06
1.01393e-06 1.23098e-06 -3.06898e-05
0.00173661 0.000260905 -1.86978e-06
0.000260905 0.000135106 -1.41126e-06
-1.86978e-06 -1.41126e-06 -1.54889e-05
0.00172977 0.000356015 1.47954e-06
0.000356015 0.000217071 4.14042e-07
1.47954e-06 4.14042e-07 1.17922e-05
0.0016648 0.000339677 4.64234e-07
0.000339677 0.000107814 5.08845e-08
4.64234e-07 5.08845e-08 -6.82425e-05
0.000827738 0.000243369 3.97174e-07
0.000243369 3.56937e-05 3.2144e-06
3.97174e-07 3.2144e-06 -0.000212383
0.00160086 0.00035126 -1.85303e-06
0.00035126 0.000248337 -9.09379e-07
-1.85303e-06 -9.09379e-07 9.97948e-06
0.000775784 3.39157e-05 7.89179e-07
3.39157e-05 0.000130607 1.92603e-06
7.89179e-07 1.92603e-06 4.27603e-05
0.000390165 -7.60977e-06 -1.80385e-06
-7.60977e-06 -7.85646e-05 3.06146e-06
-1.80385e-06 3.06146e-06 -0.000197421
0.00108678 0.000241632 -3.48869e-06
0.000241632 0.000228456 -1.07638e-06
-3.48869e-06 -1.07638e-06 2.66113e-05
0.000663525 0.000110302 -4.75101e-06
0.000110302 0.00010925 -4.21542e-06
-4.75101e-06 -4.21542e-06 -7.02374e-05
0.00077487 0.000208295 -1.08546e-06
0.000208295 8.06375e-05 -2.5346e-06
-1.08546e-06 -2.5346e-06 -9.5344e-05
0.00161692 0.000276745 -1.19878e-07
0.000276745 -1.40706e-06 -2.18278e-06
-1.19878e-07 -2.18278e-06 -0.000127247
0.00190095 0.000395111 3.61766e-06
0.000395111 0.000297916 -1.91463e-06
3.61766e-06 -1.91463e-06 8.00832e-05
0.00154806 0.000351965 3.18869e-06
0.000351965 2.81347e-05 1.90678e-07
3.18869e-06 1.90678e-07 -0.00014966
0.00152479 0.000317179 2.60716e-06
0.000317179 0.000375017 7.45449e-06
2.60716e-06 7.45449e-06 0.000107194
0.00159331 0.000376293 -1.13552e-06
0.000376293 0.000248708 -8.30498e-07
-1.13552e-06 -8.30498e-07 4.23324e-06
0.00061192 -2.01231e-05 -1.43527e-06
-2.01231e-05 6.17794e-06 -2.44791e-06
-1.43527e-06 -2.44791e-06 -4.55078e-05
0.00062582 2.598e-05 9.67999e-07
2.598e-05 3.29683e-05 3.28493e-07
9.67999e-07 3.28493e-07 -4.67377e-05
0.000530248 3.37425e-06 -2.73539e-07
3.37425e-06 -2.08427e-05 9.96345e-07
-2.73539e-07 9.96345e-07 -0.00010707
0.000446774 -2.9664e-05 -6.67319e-07
-2.9664e-05 -7.07374e-05 -1.34362e-06
-6.67319e-07 -1.34362e-06 -0.000148822
0.00066623 3.33055e-05 -2.62043e-07
3.33055e-05 6.5121e-05 2.41322e-08
-2.62043e-07 2.41322e-08 -1.59035e-05
0.000690044 4.44024e-05 -2.7153e-07
4.44024e-05 7.5895e-05 -3.55772e-07
-2.7153e-07 -3.55772e-07 -1.37592e-05
0.000821538 7.49664e-05 -1.16105e-06
7.49664e-05 0.000161526 -1.62862e-06
-1.16105e-06 -1.62862e-06 6.23731e-05
0.000526641 -1.40763e-05 6.51785e-07
-1.40763e-05 -6.63436e-06 3.57608e-07
6.51785e-07 3.57608e-07 -0.000106395
0.000691017 5.60349e-05 8.92986e-07
5.60349e-05 7.65141e-05 1.48166e-06
8.92986e-07 1.48166e-06 -1.27257e-06
0.00063485 3.19578e-05 2.06329e-06
3.19578e-05 2.91792e-05 2.3572e-06
2.06329e-06 2.3572e-06 -2.18312e-05
0.000625271 -1.37322e-06 -1.11917e-06
-1.37322e-06 1.90902e-05 9.90786e-09
-1.11917e-06 9.90786e-09 -3.07328e-05
0.00125358 -2.73781e-05 8.92467e-07
-2.73781e-05 0.000371709 2.47097e-06
8.92467e-07 2.47097e-06 0.000361167
0.000595305 -4.40885e-05 -1.36304e-07
-4.40885e-05 1.21764e-06 -2.31375e-06
-1.36304e-07 -2.31375e-06 -5.00489e-05
0.00129632 -3.6336e-05 -4.55763e-06
-3.6336e-05 0.000398603 -1.44507e-06
-4.55763e-06 -1.44507e-06 0.000387357
0.000863615 -3.25045e-05 1.92624e-05
-3.25045e-05 0.000148258 7.84954e-06
1.92624e-05 7.84954e-06 0.000154639
0.00133393 -4.627e-05 -8.34728e-06
-4.627e-05 0.000424466 -5.46743e-06
-8.34728e-06 -5.46743e-06 0.000411723
0.000810762 -4.08759e-05 7.06791e-06
-4.08759e-05 0.000121782 2.94781e-06
7.06791e-06 2.94781e-06 0.000126118
0.00224517 -8.86604e-05 -4.72524e-06
-8.86604e-05 0.00098655 -1.94107e-06
-4.72524e-06 -1.94107e-06 0.000993541
0.000511652 4.48867e-05 -5.80053e-07
4.48867e-05 -4.84142e-05 -3.92735e-06
-5.80053e-07 -3.92735e-06 -6.92622e-05
0.000518399 4.39361e-05 -8.52127e-07
4.39361e-05 -3.53637e-05 1.75451e-08
-8.52127e-07 1.75451e-08 -6.33423e-05
0.00248513 0.000100433 2.61719e-05
0.000100433 0.00113976 -3.63966e-06
2.61719e-05 -3.63966e-06 0.00114301
0.000576137 1.03566e-05 -3.95087e-06
1.03566e-05 -9.0587e-07 6.43263e-06
-3.95087e-06 6.43263e-06 -3.3036e-05
0.00282716 0.000116485 -9.62819e-06
0.000116485 0.00134884 -5.69999e-07
-9.62819e-06 -5.69999e-07 0.00134809
0.00326408 9.85097e-05 -9.24365e-05
9.85097e-05 0.00160881 4.73324e-06
-9.24365e-05 4.73324e-06 0.00161182
0.00171244 0.000207528 -1.67542e-06
0.000207528 0.00012008 7.29057e-07
-1.67542e-06 7.29057e-07 -2.60106e-05
0.00179388 0.000127279 1.19362e-06
0.000127279 0.000117569 1.28511e-06
1.19362e-06 1.28511e-06 2.45672e-06
0.00180943 0.000185302 1.02994e-06
0.000185302 8.73169e-05 2.20002e-06
1.02994e-06 2.20002e-06 -1.08142e-05
0.00184813 8.09656e-05 1.49272e-06
8.09656e-05 7.82795e-05 1.24059e-06
1.49272e-06 1.24059e-06 1.02774e-05
0.0018086 2.81661e-05 -3.49691e-07
2.81661e-05 0.000132088 1.53758e-07
-3.49691e-07 1.53758e-07 3.83053e-05
0.00141088 1.25823e-05 -2.0892e-06
1.25823e-05 4.69434e-05 4.39479e-08
-2.0892e-06 4.39479e-08 -7.71023e-05
0.00175115 3.96159e-06 -1.47151e-06
3.96159e-06 0.000103406 1.83224e-08
-1.47151e-06 1.83224e-08 7.12993e-06
0.00177308 3.8497e-05 1.89354e-06
3.8497e-05 4.90755e-05 1.5735e-08
1.89354e-06 1.5735e-08 -2.18659e-05
0.00186109 0.000138071 -1.40149e-06
0.000138071 9.50979e-05 -6.43122e-07
-1.40149e-06 -6.43122e-07 1.1346e-05
0.00182436 9.0842e-05 1.85375e-06
9.0842e-05 3.8819e-05 5.25548e-07
1.85375e-06 5.25548e-07 -1.53622e-05
0.00174837 0.000206638 -8.15063e-07
0.000206638 0.000105184 -2.60432e-07
-8.15063e-07 -2.60432e-07 -1.62614e-05
0.00184854 0.000198406 3.60531e-06
0.000198406 7.50313e-05 1.46733e-06
3.60531e-06 1.46733e-06 -5.83345e-06
0.0017946 -6.90225e-06 1.7631e-07
-6.90225e-06 7.56092e-05 1.31966e-07
1.7631e-07 1.31966e-07 5.46595e-06
0.00187028 4.33999e-05 4.7346e-06
4.33999e-05 5.1294e-05 1.50437e-07
4.7346e-06 1.50437e-07 1.20176e-05
0.0018718 0.000142462 3.62828e-06
0.000142462 6.25255e-05 8.87962e-07
3.62828e-06 8.87962e-07 2.18726e-06
0.00187727 0.000244385 7.7294e-07
0.000244385 0.000106458 -7.63168e-07
7.7294e-07 -7.63168e-07 1.17849e-05
0.00172189 -3.57663e-05 1.48191e-06
-3.57663e-05 9.06608e-05 -3.55539e-08
1.48191e-06 -3.55539e-08 -9.39853e-06
0.00170726 -0.000108148 2.36905e-06
-0.000108148 8.73455e-05 -1.25872e-06
2.36905e-06 -1.25872e-06 -2.91335e-05
0.00178059 -7.48394e-05 4.02245e-06
-7.48394e-05 7.05497e-05 -1.79838e-06
4.02245e-06 -1.79838e-06 -2.94981e-06
0.00173517 -0.000177257 -5.55614e-07
-0.000177257 5.70835e-05 7.73217e-08
-5.55614e-07 7.73217e-08 -4.02716e-05
0.00111251 -0.000209969 -1.2522e-06
-0.000209969 0.000268045 4.92441e-06
-1.2522e-06 4.92441e-06 7.795e-05
0.00112838 -0.000264827 -2.78563e-07
-0.000264827 0.000143423 1.16316e-06
-2.78563e-07 1.16316e-06 -8.34995e-05
0.0016338 -0.000382998 -3.5627e-07
-0.000382998 0.000277944 -3.89847e-07
-3.5627e-07 -3.89847e-07 1.4374e-05
0.00164157 -0.000249182 4.07367e-07
-0.000249182 7.54558e-05 -5.11089e-07
4.07367e-07 -5.11089e-07 -6.28133e-05
0.00170048 -0.00022286 3.57952e-06
-0.00022286 4.2602e-05 -1.99439e-06
3.57952e-06 -1.99439e-06 -4.50391e-05
0.00175671 -0.00030514 3.76117e-06
-0.00030514 0.00013479 -4.8264e-07
3.76117e-06 -4.8264e-07 8.57418e-07
0.00172847 -0.000367399 -1.71249e-06
-0.000367399 0.000203874 -2.71986e-06
-1.71249e-06 -2.71986e-06 -1.22513e-05
0.00173046 -0.000305252 2.72235e-06
-0.000305252 0.000127085 -1.153e-05
2.72235e-06 -1.153e-05 -1.69578e-05
0.00124091 -0.00024011 2.32822e-06
-0.00024011 0.000347232 2.51734e-06
2.32822e-06 2.51734e-06 0.000157035
0.00102474 -0.00021062 3.52809e-06
-0.00021062 0.000227541 -2.17984e-06
3.52809e-06 -2.17984e-06 5.48782e-05
0.00071029 -9.13403e-05 1.5453e-06
-9.13403e-05 0.000108667 -2.80046e-06
1.5453e-06 -2.80046e-06 -7.15665e-05
0.000370168 9.29543e-06 -1.09407e-06
9.29543e-06 -0.000115622 2.93658e-06
-1.09407e-06 2.93658e-06 -0.000195499
0.000418031 2.56588e-05 1.49267e-06
2.56588e-05 -6.68016e-05 -1.2112e-07
1.49267e-06 -1.2112e-07 -0.000192916
0.00187095 -5.48314e-05 -8.60069e-08
-5.48314e-05 0.000112804 -1.26551e-07
-8.60069e-08 -1.26551e-07 4.35164e-05
0.00180908 -0.000109743 1.31076e-06
-0.000109743 6.52326e-05 -7.34824e-07
1.31076e-06 -7.34824e-07 -1.30446e-05
0.00181994 -0.000210605 -2.15493e-06
-0.000210605 7.95308e-05 2.55507e-07
-2.15493e-06 2.55507e-07 1.47879e-06
0.00114243 -0.000243329 -1.00811e-06
-0.000243329 0.000253014 3.91394e-07
-1.00811e-06 3.91394e-07 4.24521e-05
0.00107437 -0.000295868 1.81693e-06
-0.000295868 7.44473e-05 -2.21174e-06
1.81693e-06 -2.21174e-06 -0.000176453
0.00164087 -0.000422472 -2.19023e-07
-0.000422472 0.000240728 3.91637e-07
-2.19023e-07 3.91637e-07 -3.58131e-05
0.00165898 -0.000252564 4.63534e-07
-0.000252564 3.89273e-05 -3.14178e-07
4.63534e-07 -3.14178e-07 -6.61504e-05
0.00169768 -0.000354056 7.30348e-07
-0.000354056 0.000156695 -2.19009e-06
7.30348e-07 -2.19009e-06 -4.25397e-05
0.00189551 -0.000338075 -3.78191e-07
-0.000338075 0.000172779 -1.06902e-06
-3.78191e-07 -1.06902e-06 4.33755e-05
0.000306307 3.33563e-05 -2.76192e-07
3.33563e-05 -0.000158026 -8.73332e-07
-2.76192e-07 -8.73332e-07 -0.000221373
0.00115787 -0.000238415 -1.37005e-07
-0.000238415 0.000273933 1.64515e-06
-1.37005e-07 1.64515e-06 8.33146e-05
0.000652961 -0.000194749 1.13752e-07
-0.000194749 -3.1618e-06 8.75791e-07
1.13752e-07 8.75791e-07 -0.000170792
0.000957399 -0.000162073 -6.55436e-07
-0.000162073 0.000250699 3.62624e-07
-6.55436e-07 3.62624e-07 4.93672e-05
0.00110998 -7.54269e-05 1.7256e-07
-7.54269e-05 0.000342113 -6.01868e-07
1.7256e-07 -6.01868e-07 0.000187683
0.00061697 3.78432e-07 -4.54174e-07
3.78432e-07 5.73219e-05 5.29571e-07
-4.54174e-07 5.29571e-07 -6.14279e-05
0.00166735 -6.19032e-05 2.21817e-06
-6.19032e-05 -4.5535e-05 -2.44843e-07
2.21817e-06 -2.44843e-07 -0.000100676
0.00202715 -0.000151671 2.25558e-06
-0.000151671 0.000122738 -2.91884e-07
2.25558e-06 -2.91884e-07 7.4992e-05
0.00161508 -0.00024314 1.49087e-06
-0.00024314 -5.79473e-05 -1.21557e-06
1.49087e-06 -1.21557e-06 -0.000129213
0.00204011 -0.00031682 -7.0135e-07
-0.00031682 0.000171295 -2.05826e-06
-7.0135e-07 -2.05826e-06 7.09794e-05
0.00148668 -0.000295199 -4.40798e-06
-0.000295199 0.000405595 -5.2336e-06
-4.40798e-06 -5.2336e-06 0.000177699
0.00186902 -0.000376389 8.61554e-07
-0.000376389 0.000179863 4.18e-06
8.61554e-07 4.18e-06 1.47829e-05
0.00139953 -0.000383434 -2.15792e-06
-0.000383434 0.000215873 9.75427e-07
-2.15792e-06 9.75427e-07 -8.45006e-05
0.00169653 -0.000441913 -2.20124e-06
-0.000441913 0.000265424 2.67122e-06
-2.20124e-06 2.67122e-06 -2.18594e-05
0.000304174 5.15241e-05 -1.85006e-06
5.15241e-05 -0.000163518 -2.24976e-06
-1.85006e-06 -2.24976e-06 -0.00021695
0.000721098 -7.03682e-07 -7.95169e-08
-7.03682e-07 0.000116341 -6.91726e-07
-7.95169e-08 -6.91726e-07 1.4564e-05
0.000966978 -0.000103578 -1.7232e-06
-0.000103578 0.00026576 1.97702e-06
-1.7232e-06 1.97702e-06 0.000126406
0.000892553 -2.87402e-05 -2.20445e-06
-2.87402e-05 0.000213478 3.02593e-06
-2.20445e-06 3.02593e-06 2.78419e-05
0.000600545 -0.000208485 -3.2709e-06
-0.000208485 -6.8697e-05 -3.79212e-06
-3.2709e-06 -3.79212e-06 -0.000262873
0.000978814 -0.000222935 -6.49311e-06
-0.000222935 0.00020978 1.14517e-06
-6.49311e-06 1.14517e-06 3.92104e-06
0.000587552 -1.64604e-05 -2.19588e-06
-1.64604e-05 -4.72031e-06 -2.35323e-06
-2.19588e-06 -2.35323e-06 -5.91007e-05
0.000561203 -4.16483e-05 2.89224e-07
-4.16483e-05 9.08076e-06 -1.8717e-06
2.89224e-07 -1.8717e-06 -8.3776e-05
0.0017162 0.00026289 -2.11515e-06
0.00026289 0.000123434 -4.48203e-07
-2.11515e-06 -4.48203e-07 -2.84796e-05
0.00045231 -1.121e-05 7.91354e-07
-1.121e-05 -4.2947e-05 -1.30044e-06
7.91354e-07 -1.30044e-06 -0.000185305
0.00111694 0.000230355 1.07127e-06
0.000230355 0.000292856 -1.58566e-07
1.07127e-06 -1.58566e-07 0.000100064
0.000189826 7.44563e-05 2.88117e-06
7.44563e-05 -0.000244646 2.23226e-06
2.88117e-06 2.23226e-06 -0.000396195
0.00170142 0.000353871 -7.39661e-07
0.000353871 0.000195861 2.63368e-07
-7.39661e-07 2.63368e-07 -9.38924e-06
0.00181294 0.000345518 -2.65875e-06
0.000345518 0.000192052 1.15898e-06
-2.65875e-06 1.15898e-06 1.69122e-05
0.000960017 0.000260463 -1.4714e-06
0.000260463 0.00010635 4.37927e-07
-1.4714e-06 4.37927e-07 -0.0001441
0.00174243 0.000362364 -2.10482e-06
0.000362364 0.000341826 1.33396e-06
-2.10482e-06 1.33396e-06 9.9483e-05
0.000695057 1.10903e-05 -8.55198e-07
1.10903e-05 7.99661e-05 1.89655e-07
-8.55198e-07 1.89655e-07 -4.17102e-06
0.000631228 1.77834e-05 7.04615e-07
1.77834e-05 6.21529e-05 1.38595e-06
7.04615e-07 1.38595e-06 -5.8002e-05
0.00132815 0.000263721 -1.00914e-06
0.000263721 0.000381981 -2.9263e-06
-1.00914e-06 -2.9263e-06 0.000173432
0.000548078 3.21279e-05 -8.79267e-07
3.21279e-05 1.37285e-05 -4.43892e-07
-8.79267e-07 -4.43892e-07 -0.000142065
0.000583358 0.000172353 -2.00575e-06
0.000172353 -4.11072e-05 -9.01668e-07
-2.00575e-06 -9.01668e-07 -0.000196071
0.00187254 0.000287997 -2.85324e-06
0.000287997 0.000144493 -1.30615e-06
-2.85324e-06 -1.30615e-06 2.07087e-05
0.00197533 0.000396328 1.77524e-06
0.000396328 0.000344729 -2.44243e-07
1.77524e-06 -2.44243e-07 0.000128701
0.00171031 0.000370194 1.7761e-06
0.000370194 0.000110991 2.45265e-06
1.7761e-06 2.45265e-06 -6.96753e-05
0.001313 0.000301664 3.60157e-06
0.000301664 0.000263814 4.39085e-06
3.60157e-06 4.39085e-06 -9.36209e-06
0.00155384 0.000380062 -2.98527e-06
0.000380062 0.000219348 5.51101e-07
-2.98527e-06 5.51101e-07 -2.99107e-05
0.000388687 -1.98553e-05 -1.03154e-06
-1.98553e-05 -8.94412e-05 2.59659e-06
-1.03154e-06 2.59659e-06 -0.000184226
0.000101634 7.72464e-05 2.96172e-07
7.72464e-05 -0.00021513 8.41467e-07
2.96172e-07 8.41467e-07 -0.000372512
0.00118627 0.000259812 2.07731e-06
0.000259812 0.000259258 3.70391e-06
2.07731e-06 3.70391e-06 3.57745e-05
-0.000615984 6.57009e-05 3.59767e-06
6.57009e-05 -0.000699243 -2.90889e-07
3.59767e-06 -2.90889e-07 -0.000868138
0.00193988 0.000299704 -1.82398e-06
0.000299704 1.92809e-05 -3.84834e-07
-1.82398e-06 -3.84834e-07 -4.2647e-05
0.00235253 0.000368123 7.57279e-07
0.000368123 0.000408928 -7.3832e-07
7.57279e-07 -7.3832e-07 0.000266226
0.00180427 0.000425071 -2.00399e-06
0.000425071 0.000247648 -3.53082e-06
-2.00399e-06 -3.53082e-06 1.23623e-05
0.000420967 0.000257898 -1.50678e-06
0.000257898 -0.000317709 1.60698e-06
-1.50678e-06 1.60698e-06 -0.000591042
0.000679074 5.49844e-05 -9.1301e-07
5.49844e-05 6.93944e-05 -7.44774e-07
-9.1301e-07 -7.44774e-07 -1.33101e-05
0.000615887 3.35331e-05 -8.69112e-08
3.35331e-05 3.66176e-05 3.60908e-07
-8.69112e-08 3.60908e-07 -5.45253e-05
0.000909855 2.44599e-05 -1.97809e-06
2.44599e-05 0.000207659 -1.43227e-06
-1.97809e-06 -1.43227e-06 0.000120684
0.000656891 4.30855e-06 -1.44262e-06
4.30855e-06 5.0036e-05 -1.32582e-06
-1.44262e-06 -1.32582e-06 -2.38846e-05
0.000455866 -6.11658e-06 -1.82707e-07
-6.11658e-06 -5.92432e-05 -7.65612e-07
-1.82707e-07 -7.65612e-07 -0.000148624
0.000671055 2.39311e-05 9.54759e-09
2.39311e-05 6.67196e-05 4.52078e-09
9.54759e-09 4.52078e-09 -1.20952e-05
0.000671577 7.43614e-05 -6.05954e-07
7.43614e-05 8.31637e-05 -3.1955e-07
-6.05954e-07 -3.1955e-07 -1.99294e-05
0.000614397 1.90451e-05 7.40498e-07
1.90451e-05 4.77202e-05 3.87536e-07
7.40498e-07 3.87536e-07 -5.38376e-05
0.00076323 4.69318e-05 8.21473e-07
4.69318e-05 0.000120373 -1.28747e-06
8.21473e-07 -1.28747e-06 2.9087e-05
0.000695359 -2.2713e-05 1.32569e-06
-2.2713e-05 9.44171e-05 -1.30124e-06
1.32569e-06 -1.30124e-06 -1.26e-05
0.000539049 4.34945e-05 5.47782e-07
4.34945e-05 1.40651e-06 1.3538e-06
5.47782e-07 1.3538e-06 -0.000101786
0.000663728 6.77096e-05 1.18679e-06
6.77096e-05 6.58026e-05 1.88956e-06
1.18679e-06 1.88956e-06 -1.55454e-05
0.000582408 4.13263e-05 1.61344e-06
4.13263e-05 4.17527e-06 2.15504e-06
1.61344e-06 2.15504e-06 -4.92858e-05
0.000599171 -2.99867e-06 -1.00558e-06
-2.99867e-06 9.11618e-06 1.81255e-09
-1.00558e-06 1.81255e-09 -4.25246e-05
0.00125904 -1.59679e-05 7.19147e-07
-1.59679e-05 0.000374849 2.38512e-06
7.19147e-07 2.38512e-06 0.000364636
0.000597946 -4.08415e-05 4.17663e-08
-4.08415e-05 4.9455e-06 -2.32477e-06
4.17663e-08 -2.32477e-06 -4.61e-05
0.00130231 -2.4529e-05 -3.82342e-06
-2.4529e-05 0.00040077 -1.52061e-06
-3.82342e-06 -1.52061e-06 0.000390303
0.00086248 -2.45675e-05 1.6173e-05
-2.45675e-05 0.000144063 8.15089e-06
1.6173e-05 8.15089e-06 0.000151382
0.00134047 -3.41819e-05 -6.97099e-06
-3.41819e-05 0.00042485 -5.47777e-06
-6.97099e-06 -5.47777e-06 0.000413631
0.000811179 -3.29343e-05 5.70398e-06
-3.29343e-05 0.000116344 3.04909e-06
5.70398e-06 3.04909e-06 0.000122471
0.000749057 -3.96594e-05 -1.28584e-06
-3.96594e-05 8.4714e-05 -2.13988e-06
-1.28584e-06 -2.13988e-06 8.91014e-05
0.00053814 3.66145e-05 2.80341e-07
3.66145e-05 -4.3971e-05 -3.37394e-06
2.80341e-07 -3.37394e-06 -5.88834e-05
0.00053186 5.15351e-05 3.37548e-09
5.15351e-05 -3.4546e-05 1.37087e-07
3.37548e-09 1.37087e-07 -5.68762e-05
0.00226764 8.32272e-05 2.0869e-05
8.32272e-05 0.00100271 -3.76525e-06
2.0869e-05 -3.76525e-06 0.00101051
0.000547364 3.62654e-05 -2.41701e-06
3.62654e-05 -1.88477e-05 5.4585e-06
-2.41701e-06 5.4585e-06 -4.65176e-05
0.00254595 0.000101918 -6.16641e-06
0.000101918 0.00117594 -4.50326e-07
-6.16641e-06 -4.50326e-07 0.00117888
0.00291227 9.29216e-05 -7.11674e-05
9.29216e-05 0.00139621 3.79895e-06
-7.11674e-05 3.79895e-06 0.00140098
0.00176593 0.000205401 -5.29312e-08
0.000205401 0.000123514 2.10539e-06
-5.29312e-08 2.10539e-06 2.08565e-06
0.00186061 0.000136626 -1.62188e-06
0.000136626 9.74135e-05 6.2562e-07
-1.62188e-06 6.2562e-07 1.32796e-05
0.00180585 0.0001993 2.2036e-06
0.0001993 5.02021e-05 1.14186e-06
2.2036e-06 1.14186e-06 -2.74333e-05
0.00182485 9.17087e-05 -2.3123e-06
9.17087e-05 3.71518e-05 -3.08636e-07
-2.3123e-06 -3.08636e-07 -1.44266e-05
0.00178706 3.67645e-05 1.70105e-06
3.67645e-05 6.01851e-05 -2.70445e-07
1.70105e-06 -2.70445e-07 -1.27875e-05
0.00171656 1.94387e-06 -3.00861e-07
1.94387e-06 8.14241e-05 5.59152e-09
-3.00861e-07 5.59152e-09 -1.69879e-05
0.00179575 -3.97705e-06 -2.33883e-08
-3.97705e-06 7.56124e-05 -7.01438e-08
-2.33883e-08 -7.01438e-08 5.65264e-06
0.00184719 4.26037e-05 9.98168e-07
4.26037e-05 4.8321e-05 1.48566e-07
9.98168e-07 1.48566e-07 6.63154e-06
0.00188223 0.000147648 6.7339e-07
0.000147648 6.62463e-05 -3.61458e-07
6.7339e-07 -3.61458e-07 5.92268e-06
0.00190972 0.000241334 1.68052e-07
0.000241334 0.000112219 1.51249e-07
1.68052e-07 1.51249e-07 2.0061e-05
0.00180598 -1.01431e-05 1.61785e-06
-1.01431e-05 3.4317e-05 -4.88886e-07
1.61785e-06 -4.88886e-07 -9.12486e-06
0.00192555 8.85603e-05 3.10747e-06
8.85603e-05 3.11231e-05 -1.10078e-07
3.10747e-06 -1.10078e-07 8.70182e-06
0.00194541 0.000214732 3.05569e-06
0.000214732 5.08612e-05 3.05338e-07
3.05569e-06 3.05338e-07 -1.08231e-05
0.00192327 -5.99007e-05 6.24108e-07
-5.99007e-05 0.00014565 3.1523e-07
6.24108e-07 3.1523e-07 7.47755e-05
0.00175562 -0.000112127 9.80155e-09
-0.000112127 3.16793e-05 -7.4331e-07
9.80155e-09 -7.4331e-07 -4.82869e-05
0.00183034 -0.000204717 -1.92592e-06
-0.000204717 9.35955e-05 6.80122e-07
-1.92592e-06 6.80122e-07 1.34592e-05
0.00133163 -0.000258367 -4.52945e-07
-0.000258367 0.000364341 4.87871e-06
-4.52945e-07 4.87871e-06 0.000151125
0.000942934 -0.000276542 1.03143e-06
-0.000276542 -1.19401e-05 3.60082e-07
1.03143e-06 3.60082e-07 -0.000255081
0.00157229 -0.000423616 2.893e-09
-0.000423616 0.000203915 -1.46717e-06
2.893e-09 -1.46717e-06 -7.54748e-05
0.00167948 -0.000253561 4.87257e-07
-0.000253561 4.55654e-05 -1.71583e-07
4.87257e-07 -1.71583e-07 -5.98087e-05
0.00156782 -0.000318412 1.2838e-06
-0.000318412 -5.82622e-06 -2.72957e-06
1.2838e-06 -2.72957e-06 -0.00013506
0.00178127 -0.000357354 -1.89611e-06
-0.000357354 0.000205367 -7.75456e-06
-1.89611e-06 -7.75456e-06 1.19375e-05
0.00124396 -0.000245327 3.68503e-06
-0.000245327 0.000314455 4.8744e-06
3.68503e-06 4.8744e-06 0.000123616
0.000698963 -0.00019496 -7.21526e-06
-0.00019496 3.42907e-05 1.60717e-06
-7.21526e-06 1.60717e-06 -0.000125936
0.00155863 -0.000206542 1.01844e-06
-0.000206542 0.000614886 9.83073e-09
1.01844e-06 9.83073e-09 0.000398589
0.000367098 2.3698e-05 4.756e-07
2.3698e-05 -0.000122844 7.8922e-07
4.756e-07 7.8922e-07 -0.000184859
0.000952508 -7.88553e-05 1.87893e-06
-7.88553e-05 0.000244784 -9.26818e-07
1.87893e-06 -9.26818e-07 9.75215e-05
0.000482092 3.43244e-05 2.47437e-06
3.43244e-05 -2.96059e-05 1.5734e-06
2.47437e-06 1.5734e-06 -0.000144897
0.00176795 -6.2323e-05 -5.05129e-07
-6.2323e-05 1.4452e-05 1.39711e-07
-5.05129e-07 1.39711e-07 -4.21687e-05
0.00196043 -0.000156544 9.73309e-08
-0.000156544 8.37905e-05 -2.14195e-07
9.73309e-08 -2.14195e-07 3.26032e-05
0.00175375 -0.000246239 -1.27892e-07
-0.000246239 2.71156e-05 4.62945e-07
-1.27892e-07 4.62945e-07 -4.63598e-05
0.00119368 -0.000265802 -1.90939e-06
-0.000265802 0.00023725 2.15924e-07
-1.90939e-06 2.15924e-07 1.36148e-05
0.00113918 -0.000354244 -3.65381e-07
-0.000354244 6.68744e-05 -6.35671e-07
-3.65381e-07 -6.35671e-07 -0.000223829
0.00174138 -0.000439615 -3.51116e-06
-0.000439615 0.000294024 2.05136e-07
-3.51116e-06 2.05136e-07 1.47162e-05
0.00198157 -0.00031988 8.85712e-07
-0.00031988 0.000141267 -3.9567e-07
8.85712e-07 -3.9567e-07 3.85141e-05
0.00170739 -0.000370041 1.1976e-06
-0.000370041 7.80517e-05 -2.92376e-06
1.1976e-06 -2.92376e-06 -8.71172e-05
0.000461722 4.31237e-05 -2.59082e-07
4.31237e-05 -7.31297e-05 -9.37986e-07
-2.59082e-07 -9.37986e-07 -0.000122708
0.000739431 -9.40773e-06 -5.8525e-07
-9.40773e-06 0.000125751 3.12179e-07
-5.8525e-07 3.12179e-07 2.4521e-05
0.00028237 -0.000177479 -2.97656e-06
-0.000177479 -0.000251709 4.56173e-06
-2.97656e-06 4.56173e-06 -0.000435377
0.00138853 -0.000243515 5.37356e-07
-0.000243515 0.000463107 -3.59648e-07
5.37356e-07 -3.59648e-07 0.000256818
0.00099723 -6.87511e-05 -5.96619e-08
-6.87511e-05 0.000283806 -9.29578e-07
-5.96619e-08 -9.29578e-07 9.70922e-05
0.000849466 -7.60882e-05 -4.90478e-07
-7.60882e-05 0.000197105 1.38393e-06
-4.90478e-07 1.38393e-06 5.7316e-05
0.00189051 -7.9819e-05 2.32418e-06
-7.9819e-05 2.7589e-05 1.26805e-07
2.32418e-06 1.26805e-07 -2.44404e-06
0.00197484 -0.000224478 6.82636e-07
-0.000224478 4.45338e-05 -7.99787e-07
6.82636e-07 -7.99787e-07 2.28681e-05
0.00191783 -0.000268216 5.76527e-07
-0.000268216 8.03672e-05 -1.58042e-06
5.76527e-07 -1.58042e-06 1.52928e-05
0.00184808 -0.000413324 4.76462e-06
-0.000413324 3.40657e-05 -2.32343e-06
4.76462e-06 -2.32343e-06 -9.10137e-05
0.000466612 -0.00023736 -5.46528e-06
-0.00023736 -0.000221996 -6.23003e-06
-5.46528e-06 -6.23003e-06 -0.000471424
0.00178003 -0.00044456 -1.3275e-06
-0.00044456 0.000276779 1.17866e-05
-1.3275e-06 1.17866e-05 1.21901e-05
0.00189313 -0.000465731 -1.97389e-06
-0.000465731 0.000462504 -9.39916e-07
-1.97389e-06 -9.39916e-07 0.000131021
0.000623357 4.37369e-05 2.15473e-07
4.37369e-05 1.43112e-05 -1.30164e-06
2.15473e-07 -1.30164e-06 -2.77653e-05
0.000689808 -0.00010359 2.69408e-06
-0.00010359 9.16359e-05 -1.67322e-06
2.69408e-06 -1.67322e-06 1.12254e-05
0.000462387 4.5366e-05 -2.02647e-06
4.5366e-05 -4.46488e-05 -1.11788e-06
-2.02647e-06 -1.11788e-06 -0.00013084
0.000680914 -4.54981e-05 -8.22705e-07
-4.54981e-05 0.000109671 2.33918e-06
-8.22705e-07 2.33918e-06 -1.93921e-05
0.000623073 -2.71468e-05 1.04049e-06
-2.71468e-05 4.89162e-05 -3.64992e-07
1.04049e-06 -3.64992e-07 -9.55751e-05
5.17823e-05 -8.81427e-05 -2.06882e-07
-8.81427e-05 -0.000268256 1.38736e-06
-2.06882e-07 1.38736e-06 -0.000448284
1.97739e-05 -0.000174683 -3.4231e-06
-0.000174683 -0.000424024 -5.53057e-06
-3.4231e-06 -5.53057e-06 -0.000599032
0.00257073 -0.000350358 -1.07067e-05
-0.000350358 0.00121833 2.45175e-06
-1.07067e-05 2.45175e-06 0.000925357
0.000638758 -8.53183e-06 -1.13261e-06
-8.53183e-06 4.14057e-05 -9.50794e-07
-1.13261e-06 -9.50794e-07 -3.73421e-05
0.000893601 2.59461e-05 4.49426e-07
2.59461e-05 0.000219926 -1.62582e-06
4.49426e-07 -1.62582e-06 9.53013e-05
0.00211297 0.000297803 -1.56156e-06
0.000297803 0.000283254 -3.35026e-07
-1.56156e-06 -3.35026e-07 0.000161774
0.000853712 6.9378e-05 -1.24138e-06
6.9378e-05 0.000203296 2.82215e-06
-1.24138e-06 2.82215e-06 3.63539e-05
0.00161018 0.000290915 8.68443e-07
0.000290915 0.000560228 -2.284e-06
8.68443e-07 -2.284e-06 0.000342328
0.000403499 0.000137389 -6.54542e-07
0.000137389 -0.000152864 1.22039e-06
-6.54542e-07 1.22039e-06 -0.000288417
0.00202259 0.000394321 -3.44724e-06
0.000394321 0.000378397 1.2737e-07
-3.44724e-06 1.2737e-07 0.00016488
0.00184578 0.000386458 -2.32768e-06
0.000386458 0.000179557 4.95883e-06
-2.32768e-06 4.95883e-06 -3.58128e-06
0.00102921 0.00028167 -4.10316e-07
0.00028167 0.000108984 -6.26492e-07
-4.10316e-07 -6.26492e-07 -0.000169274
0.00150581 0.000383819 1.89926e-07
0.000383819 0.000182431 1.43771e-06
1.89926e-07 1.43771e-06 -7.10809e-05
0.000397584 9.04939e-06 -1.8086e-07
9.04939e-06 -7.58581e-05 1.18529e-06
-1.8086e-07 1.18529e-06 -0.000177562
0.000361273 9.77634e-05 -5.73078e-07
9.77634e-05 -5.95607e-05 -2.16012e-06
-5.73078e-07 -2.16012e-06 -0.000222089
0.0012678 0.000269915 3.3616e-06
0.000269915 0.000318388 -1.79524e-06
3.3616e-06 -1.79524e-06 8.83737e-05
0.000627738 0.000160303 -1.54093e-06
0.000160303 2.30665e-05 -3.30841e-06
-1.54093e-06 -3.30841e-06 -0.000155601
0.00201977 0.000293437 1.04381e-06
0.000293437 6.22383e-05 -8.62661e-07
1.04381e-06 -8.62661e-07 9.59209e-07
0.00210275 0.000360888 3.2512e-06
0.000360888 0.000274415 6.74223e-07
3.2512e-06 6.74223e-07 0.000127778
0.00181695 0.000420135 -1.1182e-06
0.000420135 0.000247502 2.52741e-07
-1.1182e-06 2.52741e-07 1.47306e-05
0.00112983 0.000324195 2.66037e-07
0.000324195 7.00085e-05 1.0041e-07
2.66037e-07 1.0041e-07 -0.000206823
0.000474351 3.35732e-05 -1.18682e-06
3.35732e-05 -3.82758e-05 2.73254e-06
-1.18682e-06 2.73254e-06 -0.000139304
0.00191056 0.000237017 -6.91372e-07
0.000237017 -3.66501e-05 1.79431e-06
-6.91372e-07 1.79431e-06 -5.59663e-05
0.00153726 0.000260103 7.53717e-07
0.000260103 0.000627351 2.76995e-06
7.53717e-07 2.76995e-06 0.000416242
0.00122856 0.000277934 3.72973e-06
0.000277934 0.000257886 3.95015e-06
3.72973e-06 3.95015e-06 2.20096e-05
0.00251625 0.000359133 -1.7731e-05
0.000359133 0.000405059 -4.53497e-06
-1.7731e-05 -4.53497e-06 0.000305603
0.00114159 0.000393691 -3.34228e-06
0.000393691 -0.000219894 -7.23358e-06
-3.34228e-06 -7.23358e-06 -0.000434892
0.00205445 0.000436962 -1.83842e-06
0.000436962 0.000516629 3.2871e-06
-1.83842e-06 3.2871e-06 0.000227772
0.000687525 4.82145e-05 -1.22603e-06
4.82145e-05 7.88479e-05 -5.20845e-07
-1.22603e-06 -5.20845e-07 -1.1879e-05
0.000723083 4.0586e-05 -1.26212e-06
4.0586e-05 0.000103941 -5.01399e-07
-1.26212e-06 -5.01399e-07 1.3993e-05
0.000917956 2.78603e-05 -1.61744e-06
2.78603e-05 0.000225144 1.0596e-07
-1.61744e-06 1.0596e-07 0.000140016
0.000631661 -7.25905e-06 5.42109e-09
-7.25905e-06 4.58571e-05 -1.91918e-06
5.42109e-09 -1.91918e-06 -3.46106e-05
0.000674226 4.30932e-05 8.31559e-07
4.30932e-05 8.44869e-05 3.38609e-08
8.31559e-07 3.38609e-08 -1.77973e-05
0.000389907 1.1705e-05 -8.64855e-07
1.1705e-05 -7.00495e-05 9.92317e-07
-8.64855e-07 9.92317e-07 -0.000175254
0.00064014 2.03436e-06 -5.78487e-07
2.03436e-06 5.82271e-05 -9.18617e-09
-5.78487e-07 -9.18617e-09 -2.74197e-05
0.000506441 -2.29176e-05 -6.46669e-07
-2.29176e-05 -9.91003e-06 3.83189e-07
-6.46669e-07 3.83189e-07 -0.000117008
0.000564724 -1.40227e-06 4.55976e-07
-1.40227e-06 9.341e-06 8.71383e-08
4.55976e-07 8.71383e-08 -7.93618e-05
0.000774978 3.66062e-05 4.67402e-07
3.66062e-05 0.000151614 -1.61605e-07
4.67402e-07 -1.61605e-07 3.63082e-05
0.0010793 3.81397e-05 4.22697e-07
3.81397e-05 0.000294579 -1.27255e-06
4.22697e-07 -1.27255e-06 0.000213941
0.000696041 -2.5391e-05 1.78939e-06
-2.5391e-05 8.59956e-05 -1.9847e-06
1.78939e-06 -1.9847e-06 -9.75838e-06
0.00076116 3.27039e-05 7.34129e-09
3.27039e-05 0.00014194 8.72014e-08
7.34129e-09 8.72014e-08 2.1511e-05
0.000636911 3.29612e-05 1.90112e-06
3.29612e-05 6.88246e-05 1.56877e-06
1.90112e-06 1.56877e-06 -4.63141e-05
0.000662617 2.07411e-05 1.43811e-06
2.07411e-05 6.49645e-05 1.89033e-06
1.43811e-06 1.89033e-06 -1.89739e-05
0.000585181 -2.59886e-05 -1.99743e-07
-2.59886e-05 5.34522e-06 1.95297e-06
-1.99743e-07 1.95297e-06 -4.76165e-05
0.000599452 -7.93353e-06 -3.26337e-07
-7.93353e-06 1.1698e-05 2.52832e-08
-3.26337e-07 2.52832e-08 -4.00746e-05
0.00127511 -5.55505e-06 6.7412e-07
-5.55505e-06 0.000385415 2.2718e-06
6.7412e-07 2.2718e-06 0.00037469
0.000608485 -2.69994e-05 7.09768e-07
-2.69994e-05 1.31771e-05 -2.43831e-06
7.09768e-07 -2.43831e-06 -3.74424e-05
0.00130717 -1.33725e-05 -2.89826e-06
-1.33725e-05 0.000403968 -1.5714e-06
-2.89826e-06 -1.5714e-06 0.00039363
0.000855487 -1.67218e-05 1.20924e-05
-1.67218e-05 0.000137836 8.29658e-06
1.20924e-05 8.29658e-06 0.000145699
0.00135225 -2.26805e-05 -4.98027e-06
-2.26805e-05 0.000430678 -5.58866e-06
-4.98027e-06 -5.58866e-06 0.000420065
0.000821764 -2.50512e-05 3.79308e-06
-2.50512e-05 0.000118666 3.15769e-06
3.79308e-06 3.15769e-06 0.000125857
0.000768329 -3.1818e-05 -8.59301e-07
-3.1818e-05 8.96648e-05 -2.11625e-06
-8.59301e-07 -2.11625e-06 9.59877e-05
0.000661082 1.08898e-05 1.06792e-06
1.08898e-05 3.27454e-05 -1.49365e-06
1.06792e-06 -1.49365e-06 -5.96985e-06
0.000551827 2.83227e-05 4.20118e-07
2.83227e-05 -4.31266e-05 -3.45491e-06
4.20118e-07 -3.45491e-06 -5.44048e-05
0.000558757 3.76172e-05 1.09645e-07
3.76172e-05 -3.11755e-05 1.12547e-07
1.09645e-07 1.12547e-07 -4.64762e-05
0.00215186 6.74505e-05 1.84036e-05
6.74505e-05 0.000925265 -3.96876e-06
1.84036e-05 -3.96876e-06 0.000937019
0.000561025 5.60874e-05 2.55208e-06
5.60874e-05 -1.57374e-05 4.7711e-06
2.55208e-06 4.7711e-06 -3.94934e-05
0.00237032 8.67813e-05 -4.06135e-06
8.67813e-05 0.00106438 -3.09547e-07
-4.06135e-06 -3.09547e-07 0.00107128
0.00265801 0.000104005 -3.30195e-05
0.000104005 0.00124234 3.61701e-06
-3.30195e-05 3.61701e-06 0.00124485
0.00194828 0.000238673 -5.68359e-07
0.000238673 0.000121534 1.50423e-06
-5.68359e-07 1.50423e-06 3.18452e-05
0.00189448 0.000152958 -2.72712e-06
0.000152958 7.11267e-05 -4.58607e-07
-2.72712e-06 -4.58607e-07 1.07281e-05
0.00184767 4.44296e-05 -2.39186e-06
4.44296e-05 5.91554e-05 1.11383e-08
-2.39186e-06 1.11383e-08 1.53543e-05
0.00177921 -8.84789e-07 4.09737e-08
-8.84789e-07 6.48214e-05 -1.33887e-07
4.09737e-08 -1.33887e-07 -5.05276e-06
0.00181647 -6.10358e-06 -1.1128e-06
-6.10358e-06 3.85756e-05 -1.20824e-07
-1.1128e-06 -1.20824e-07 -2.33166e-06
0.00191294 8.39711e-05 2.01498e-07
8.39711e-05 2.71906e-05 -6.07098e-08
2.01498e-07 -6.07098e-08 3.15135e-06
0.00193748 0.000218629 -5.88292e-07
0.000218629 4.48473e-05 -1.37468e-07
-5.88292e-07 -1.37468e-07 -1.47869e-05
0.00191878 -1.79676e-07 2.25993e-06
-1.79676e-07 2.18244e-05 -3.84939e-07
2.25993e-06 -3.84939e-07 1.11555e-05
0.00200545 0.000125912 2.29914e-06
0.000125912 1.97453e-05 -5.61927e-07
2.29914e-06 -5.61927e-07 1.2362e-06
0.00218575 7.3939e-05 -3.93698e-06
7.3939e-05 0.000177115 3.17976e-06
-3.93698e-06 3.17976e-06 0.000207194
0.00185945 -6.29358e-05 -3.26102e-06
-6.29358e-05 6.83987e-05 5.01923e-08
-3.26102e-06 5.01923e-08 1.02655e-05
0.00189333 -0.00016239 -3.51809e-06
-0.00016239 4.28852e-05 9.38244e-07
-3.51809e-06 9.38244e-07 -1.16261e-05
0.00189013 -0.00024911 -2.63182e-06
-0.00024911 0.00011025 1.63622e-06
-2.63182e-06 1.63622e-06 3.49495e-05
0.000953935 -0.000241026 -1.68339e-07
-0.000241026 9.82604e-05 5.89458e-06
-1.68339e-07 5.89458e-06 -0.000121901
0.00111644 -0.000347903 1.29063e-06
-0.000347903 5.6856e-05 1.258e-06
1.29063e-06 1.258e-06 -0.000228858
0.00177412 -0.000434447 -3.53704e-06
-0.000434447 0.000318726 -2.47728e-06
-3.53704e-06 -2.47728e-06 4.79375e-05
0.00193694 -0.000321633 2.87595e-06
-0.000321633 0.000120134 5.92396e-07
2.87595e-06 5.92396e-07 1.55665e-05
0.00150127 -0.000355985 -3.14991e-06
-0.000355985 -4.18851e-05 -5.9976e-06
-3.14991e-06 -5.9976e-06 -0.000205492
9.62627e-05 -0.000157979 -1.15874e-06
-0.000157979 -0.00035635 1.01379e-05
-1.15874e-06 1.01379e-05 -0.000531684
0.00196454 -0.000282155 1.32816e-05
-0.000282155 0.000816289 -3.07607e-06
1.32816e-05 -3.07607e-06 0.000605443
0.000704472 -2.76035e-05 3.46378e-07
-2.76035e-05 9.99584e-05 -1.00078e-06
3.46378e-07 -1.00078e-06 -7.04671e-05
0.000567241 1.52966e-05 -6.37117e-08
1.52966e-05 -1.24428e-05 5.33317e-07
-6.37117e-08 5.33317e-07 -5.87171e-05
0.000806946 2.29111e-05 1.15117e-06
2.29111e-05 0.000162047 9.91185e-07
1.15117e-06 9.91185e-07 6.15488e-05
0.000881153 -5.01489e-05 8.66298e-07
-5.01489e-05 0.000218086 1.38422e-06
8.66298e-07 1.38422e-06 7.62e-05
0.00190699 -8.22627e-05 2.31465e-07
-8.22627e-05 3.08249e-05 -1.08054e-07
2.31465e-07 -1.08054e-07 4.12707e-06
0.00060252 1.7381e-05 9.9095e-07
1.7381e-05 1.6236e-06 1.16801e-07
9.9095e-07 1.16801e-07 -3.98331e-05
0.000546912 -3.49116e-05 -1.72886e-06
-3.49116e-05 -9.41481e-06 -4.47744e-08
-1.72886e-06 -4.47744e-08 -7.90703e-05
0.0019487 -0.000215106 -2.36168e-07
-0.000215106 4.58297e-05 2.33851e-07
-2.36168e-07 2.33851e-07 1.9235e-05
0.00187345 -0.000267965 -1.45056e-06
-0.000267965 5.11085e-05 2.4725e-07
-1.45056e-06 2.4725e-07 -1.33766e-05
0.000715198 -0.000257163 -3.98993e-07
-0.000257163 -6.84005e-05 1.95231e-06
-3.98993e-07 1.95231e-06 -0.00031557
0.00183311 -0.0004593 -2.17027e-07
-0.0004593 0.000438029 3.24068e-07
-2.17027e-07 3.24068e-07 0.000103013
0.0015664 -0.000431667 2.95787e-06
-0.000431667 0.000133867 -1.40772e-06
2.95787e-06 -1.40772e-06 -0.000123628
0.00203447 -0.000421228 2.45959e-06
-0.000421228 0.000150878 -9.08677e-07
2.45959e-06 -9.08677e-07 2.35042e-05
0.000721715 -1.28774e-05 8.95785e-07
-1.28774e-05 0.000113523 -1.11509e-06
8.95785e-07 -1.11509e-06 2.66956e-05
0.000729194 -2.91426e-05 2.5244e-07
-2.91426e-05 0.000138298 1.2647e-06
2.5244e-07 1.2647e-06 7.12547e-06
0.000949554 -0.00023393 -3.51143e-06
-0.00023393 0.000115627 -1.22679e-06
-3.51143e-06 -1.22679e-06 -7.22047e-05
0.00154696 -0.00026124 1.36124e-05
-0.00026124 0.000613924 -3.51565e-06
1.36124e-05 -3.51565e-06 0.000368581
0.000473448 -8.45903e-05 -2.59973e-06
-8.45903e-05 -2.81967e-05 -7.08991e-08
-2.59973e-06 -7.08991e-08 -0.00020591
0.000680099 -2.6795e-05 5.04404e-07
-2.6795e-05 9.24855e-05 -7.78603e-07
5.04404e-07 -7.78603e-07 -5.63561e-05
0.00192611 -9.2205e-05 2.43263e-06
-9.2205e-05 -2.42523e-05 -1.13894e-06
2.43263e-06 -1.13894e-06 -4.3091e-05
0.00187793 -0.000246529 -5.45629e-07
-0.000246529 -4.54831e-05 -2.30883e-07
-5.45629e-07 -2.30883e-07 -1.38459e-05
0.00202387 -0.000376602 -2.88492e-06
-0.000376602 5.75108e-05 -2.5051e-06
-2.88492e-06 -2.5051e-06 -2.18275e-05
0.00159029 -0.000475128 2.11243e-06
-0.000475128 1.39688e-05 3.22991e-07
2.11243e-06 3.22991e-07 -0.000144852
0.000843053 -0.000238284 -9.07764e-06
-0.000238284 2.59623e-05 -7.98759e-06
-9.07764e-06 -7.98759e-06 -0.000220935
0.00250045 -0.000554007 -6.94151e-06
-0.000554007 0.000788424 6.86531e-06
-6.94151e-06 6.86531e-06 0.000429443
0.00040986 5.29412e-05 -1.09875e-06
5.29412e-05 -8.20882e-05 -2.19767e-06
-1.09875e-06 -2.19767e-06 -0.000156423
0.000662312 -5.79943e-05 3.02108e-06
-5.79943e-05 6.04821e-05 -8.22455e-07
3.02108e-06 -8.22455e-07 -1.10228e-05
0.000927451 -8.45255e-05 1.50311e-06
-8.45255e-05 0.000229165 1.32218e-06
1.50311e-06 1.32218e-06 0.00013276
0.000431339 1.67998e-05 -1.57129e-06
1.67998e-05 -4.36186e-05 2.52287e-06
-1.57129e-06 2.52287e-06 -0.000164925
0.000936742 -6.51898e-05 -1.51699e-06
-6.51898e-05 0.000245301 2.15257e-06
-1.51699e-06 2.15257e-06 0.000114913
0.00102284 -4.69735e-05 2.21014e-06
-4.69735e-05 0.000250728 1.02837e-06
2.21014e-06 1.02837e-06 8.98466e-05
-0.000478117 -9.36498e-05 6.21459e-06
-9.36498e-05 -0.000426427 6.97481e-07
6.21459e-06 6.97481e-07 -0.000748796
4.00721e-05 -0.000232089 -1.90878e-05
-0.000232089 -0.000400536 2.62698e-06
-1.90878e-05 2.62698e-06 -0.000582583
0.000406241 4.7227e-05 7.46423e-08
4.7227e-05 -6.54716e-05 -1.03552e-06
7.46423e-08 -1.03552e-06 -0.000172478
0.000812506 0.000132678 -3.79762e-06
0.000132678 0.000204093 -2.91057e-06
-3.79762e-06 -2.91057e-06 3.72123e-05
0.00209826 0.000288229 -3.08661e-06
0.000288229 0.000105397 -1.15e-06
-3.08661e-06 -1.15e-06 4.41265e-05
0.00192831 0.000357757 -6.57113e-07
0.000357757 0.000181465 1.69745e-06
-6.57113e-07 1.69745e-06 3.03897e-05
0.00179271 0.000225954 -7.07825e-06
0.000225954 0.000687139 -2.23296e-06
-7.07825e-06 -2.23296e-06 0.000507631
0.00129792 0.000274128 -3.3639e-06
0.000274128 0.000345692 -9.03525e-06
-3.3639e-06 -9.03525e-06 0.000111733
0.00181777 0.000414889 8.42066e-07
0.000414889 0.000240205 1.66466e-06
8.42066e-07 1.66466e-06 9.44728e-06
0.00176477 0.000381819 -3.29735e-07
0.000381819 0.000419783 -1.01158e-06
-3.29735e-07 -1.01158e-06 0.000139398
0.000584928 6.11363e-05 7.92243e-07
6.11363e-05 3.85535e-05 -9.14314e-07
7.92243e-07 -9.14314e-07 -7.30258e-05
0.00200898 0.000226709 -6.94219e-07
0.000226709 9.62898e-06 -5.33001e-07
-6.94219e-07 -5.33001e-07 -2.0598e-06
0.00100052 0.000188196 9.10619e-07
0.000188196 0.000305586 1.55113e-06
9.10619e-07 1.55113e-06 0.000110879
0.000965969 0.000254961 1.20946e-06
0.000254961 0.00011526 3.14758e-07
1.20946e-06 3.14758e-07 -0.000120032
0.00227981 0.000350178 3.05412e-06
0.000350178 0.00027691 6.42989e-07
3.05412e-06 6.42989e-07 0.000179492
0.00146845 0.000414506 -8.33703e-07
0.000414506 -3.47107e-05 -3.3349e-06
-8.33703e-07 -3.3349e-06 -0.000248832
0.00200888 0.000432046 6.60079e-08
0.000432046 0.00050509 3.82571e-07
6.60079e-08 3.82571e-07 0.000215862
0.00117021 0.000139742 -3.76195e-06
0.000139742 0.000403635 3.14172e-06
-3.76195e-06 3.14172e-06 0.000252092
0.00245461 0.000256447 -4.31812e-05
0.000256447 0.000320229 -1.08538e-05
-4.31812e-05 -1.08538e-05 0.000334
0.00235712 0.000382176 -5.96486e-06
0.000382176 0.00102765 3.90087e-07
-5.96486e-06 3.90087e-07 0.000799227
0.00222693 0.000407142 -7.26333e-06
0.000407142 0.00075111 -3.81757e-07
-7.26333e-06 -3.81757e-07 0.000485926
0.00193454 0.000465429 -2.06433e-05
0.000465429 0.000111877 -1.26825e-05
-2.06433e-05 -1.26825e-05 -3.18472e-05
0.00103462 0.000379245 -1.48221e-05
0.000379245 -9.87853e-05 -9.0641e-07
-1.48221e-05 -9.0641e-07 -0.000366214
0.000662487 0.000327224 2.78959e-05
0.000327224 -0.000622504 -1.89794e-05
2.78959e-05 -1.89794e-05 -0.000849514
0.000514565 5.52225e-05 8.79438e-07
5.52225e-05 -8.71117e-06 -4.3023e-07
8.79438e-07 -4.3023e-07 -0.00010268
0.000659431 3.55029e-05 -1.60644e-07
3.55029e-05 8.64902e-05 9.0131e-07
-1.60644e-07 9.0131e-07 -1.84721e-06
0.00136657 6.45699e-05 2.21673e-07
6.45699e-05 0.000487572 -3.97401e-07
2.21673e-07 -3.97401e-07 0.000396319
0.000610692 -5.94366e-05 1.74805e-07
-5.94366e-05 4.72047e-05 -2.38265e-06
1.74805e-07 -2.38265e-06 -4.22105e-05
0.000553655 -4.17145e-05 -1.08088e-06
-4.17145e-05 1.34419e-05 -6.00223e-08
-1.08088e-06 -6.00223e-08 -9.00595e-05
0.000918101 0.000123163 -1.54346e-07
0.000123163 0.000235571 7.15379e-07
-1.54346e-07 7.15379e-07 0.000117856
0.00040658 -1.50268e-05 -1.38275e-06
-1.50268e-05 -7.49794e-05 3.19196e-06
-1.38275e-06 3.19196e-06 -0.000165429
0.000635203 -2.28927e-05 -1.28056e-07
-2.28927e-05 6.03484e-05 -3.91436e-08
-1.28056e-07 -3.91436e-08 -3.07408e-05
0.000633194 3.96935e-05 -9.77192e-08
3.96935e-05 5.2885e-05 -3.89271e-07
-9.77192e-08 -3.89271e-07 -5.26381e-05
0.000870936 3.15171e-05 -1.24004e-06
3.15171e-05 0.000174336 1.20601e-07
-1.24004e-06 1.20601e-07 9.28916e-05
0.00075374 1.89553e-05 4.28264e-07
1.89553e-05 0.000125742 -8.47261e-08
4.28264e-07 -8.47261e-08 1.4176e-05
0.000771919 -2.72566e-06 -5.82426e-08
-2.72566e-06 0.000127725 -2.72782e-07
-5.82426e-08 -2.72782e-07 2.96929e-05
0.000879491 2.96076e-05 -5.01288e-07
2.96076e-05 0.000178031 -2.94886e-06
-5.01288e-07 -2.94886e-06 9.36489e-05
0.000804818 3.59973e-05 -1.46214e-06
3.59973e-05 0.000143597 -2.22449e-06
-1.46214e-06 -2.22449e-06 3.04793e-05
0.0008097 7.14067e-05 4.49138e-07
7.14067e-05 0.000150397 3.61242e-07
4.49138e-07 3.61242e-07 4.16255e-05
0.00068995 4.1699e-05 2.64778e-07
4.1699e-05 9.96914e-05 1.23339e-06
2.64778e-07 1.23339e-06 -2.20486e-05
0.000480233 -2.01127e-05 -1.69836e-07
-2.01127e-05 -4.56651e-05 2.06853e-06
-1.69836e-07 2.06853e-06 -0.000132766
0.000885353 -2.7228e-05 7.71256e-08
-2.7228e-05 0.000232855 -1.00511e-06
7.71256e-08 -1.00511e-06 0.000110136
0.000422528 -1.21402e-05 -8.33553e-07
-1.21402e-05 -7.58317e-05 2.25132e-06
-8.33553e-07 2.25132e-06 -0.00016703
0.000558153 6.66684e-06 -1.14918e-06
6.66684e-06 -7.62937e-06 1.96866e-06
-1.14918e-06 1.96866e-06 -6.27855e-05
0.000574904 2.0479e-05 1.18902e-06
2.0479e-05 1.20835e-06 -1.05383e-08
1.18902e-06 -1.05383e-08 -5.29409e-05
0.000545512 3.78084e-06 3.18979e-07
3.78084e-06 -4.67838e-05 3.73553e-06
3.18979e-07 3.73553e-06 -6.23273e-05
0.000584921 -1.14938e-06 -1.52525e-06
-1.14938e-06 4.87554e-06 -2.24888e-06
-1.52525e-06 -2.24888e-06 -4.82326e-05
0.000939512 -2.48761e-06 -1.93737e-06
-2.48761e-06 0.000186691 -1.64957e-06
-1.93737e-06 -1.64957e-06 0.000173689
0.00236214 -1.31853e-05 7.90106e-06
-1.31853e-05 0.0010326 5.18688e-06
7.90106e-06 5.18688e-06 0.00104837
0.00135788 -1.17352e-05 -3.00472e-06
-1.17352e-05 0.00043465 -5.50544e-06
-3.00472e-06 -5.50544e-06 0.000424039
0.0008198 -1.6737e-05 2.04388e-06
-1.6737e-05 0.000115126 3.21325e-06
2.04388e-06 3.21325e-06 0.000123077
0.000782241 -2.35279e-05 -3.0734e-07
-2.35279e-05 9.37317e-05 -2.13936e-06
-3.0734e-07 -2.13936e-06 0.000101212
0.000615904 7.80686e-06 -4.80572e-07
7.80686e-06 8.99208e-06 -1.48333e-06
-4.80572e-07 -1.48333e-06 -2.92968e-05
0.000630219 -3.54657e-06 9.91577e-07
-3.54657e-06 1.58628e-05 -1.09721e-07
9.91577e-07 -1.09721e-07 -2.3796e-05
0.000579123 2.1546e-05 3.53456e-07
2.1546e-05 -3.02353e-05 -3.38383e-06
3.53456e-07 -3.38383e-06 -3.93333e-05
0.00088564 3.43254e-05 -3.74973e-07
3.43254e-05 0.000156505 4.8313e-08
-3.74973e-07 4.8313e-08 0.000146648
0.0021169 5.39379e-05 1.45184e-05
5.39379e-05 0.00089771 -4.18386e-06
1.45184e-05 -4.18386e-06 0.000912138
0.000566868 3.99758e-05 5.8944e-07
3.99758e-05 -2.52326e-05 3.74531e-06
5.8944e-07 3.74531e-06 -4.11471e-05
0.0022128 7.04478e-05 -2.88456e-06
7.04478e-05 0.000962619 -1.8506e-07
-2.88456e-06 -1.8506e-07 0.000973577
0.00242914 8.9253e-05 -2.18441e-05
8.9253e-05 0.00109979 3.95855e-06
-2.18441e-05 3.95855e-06 0.00110604
0.00193 0.000222482 -4.50038e-06
0.000222482 3.80428e-05 -1.5048e-06
-4.50038e-06 -1.5048e-06 -1.92632e-05
0.00189988 7.98073e-05 -2.24864e-06
7.98073e-05 2.28142e-05 3.85722e-07
-2.24864e-06 3.85722e-07 -2.73377e-06
0.00184232 -4.18759e-06 -3.72247e-06
-4.18759e-06 5.23525e-05 6.42479e-08
-3.72247e-06 6.42479e-08 1.40536e-05
0.00191211 -2.37496e-08 1.02869e-07
-2.37496e-08 2.08155e-05 -1.50472e-07
1.02869e-07 -1.50472e-07 1.00117e-05
0.00198374 0.00012559 2.52604e-07
0.00012559 2.2444e-05 1.03936e-07
2.52604e-07 1.03936e-07 2.5037e-06
0.00189423 6.28953e-05 4.4266e-06
6.28953e-05 -1.26734e-06 1.54947e-07
4.4266e-06 1.54947e-07 2.23634e-05
0.00196635 6.99509e-06 -5.98108e-07
6.99509e-06 -1.78544e-05 -1.06428e-06
-5.98108e-07 -1.06428e-06 -6.72498e-06
0.00286737 0.000309241 3.30342e-05
0.000309241 -0.000286634 6.35284e-06
3.30342e-05 6.35284e-06 -0.00013502
0.00218299 3.8409e-05 -2.8822e-05
3.8409e-05 0.000316243 1.02011e-05
-2.8822e-05 1.02011e-05 0.000382091
0.000605608 7.95249e-05 -9.03101e-07
7.95249e-05 3.67388e-05 -4.57969e-07
-9.03101e-07 -4.57969e-07 -3.47863e-05
0.00191594 -8.41365e-05 -2.16302e-06
-8.41365e-05 3.06517e-05 3.55971e-08
-2.16302e-06 3.55971e-08 7.11562e-06
0.00191144 -0.000205966 -6.86635e-07
-0.000205966 4.16411e-05 8.2388e-07
-6.86635e-07 8.2388e-07 8.50232e-06
0.00183507 -0.000269612 2.3384e-07
-0.000269612 2.60161e-05 1.92262e-06
2.3384e-07 1.92262e-06 -3.88869e-05
0.000568781 -0.000240225 5.63133e-07
-0.000240225 -0.000144868 8.64826e-06
5.63133e-07 8.64826e-06 -0.000383786
0.00187759 -0.000461464 2.54169e-06
-0.000461464 0.000471178 4.79044e-06
2.54169e-06 4.79044e-06 0.000132547
0.00143548 -0.000427394 2.95362e-07
-0.000427394 3.5807e-05 -7.97762e-06
2.95362e-07 -7.97762e-06 -0.000217514
0.00224939 -0.00043333 -3.37868e-06
-0.00043333 0.000283279 -1.53243e-06
-3.37868e-06 -1.53243e-06 0.000151517
0.00175646 -0.000287038 1.47268e-05
-0.000287038 0.000574288 -4.67863e-07
1.47268e-05 -4.67863e-07 0.000375346
0.000421932 -0.000166338 1.05171e-05
-0.000166338 -4.61064e-05 -4.79172e-06
1.05171e-05 -4.79172e-06 -0.000245209
0.00101 -0.000111379 1.05472e-06
-0.000111379 0.000281478 -2.23284e-06
1.05472e-06 -2.23284e-06 0.00010347
0.00060456 4.42224e-06 -8.16973e-07
4.42224e-06 2.21264e-06 1.5141e-06
-8.16973e-07 1.5141e-06 -3.83e-05
0.000839867 -1.71057e-05 1.86295e-06
-1.71057e-05 0.000196743 -1.02071e-06
1.86295e-06 -1.02071e-06 4.27154e-05
0.000919098 -3.96061e-05 1.90387e-06
-3.96061e-05 0.000236855 -4.74701e-07
1.90387e-06 -4.74701e-07 0.000148803
0.000836286 -2.41648e-05 7.80297e-07
-2.41648e-05 0.000198176 -6.80245e-07
7.80297e-07 -6.80245e-07 6.58522e-05
0.000398451 -2.52868e-05 -1.94679e-06
-2.52868e-05 -0.000103397 8.95999e-07
-1.94679e-06 8.95999e-07 -0.000169718
0.00195282 -0.000105796 -2.59577e-07
-0.000105796 -2.97276e-05 6.41183e-08
-2.59577e-07 6.41183e-08 -3.58976e-05
0.000505843 3.58428e-05 4.47803e-08
3.58428e-05 -2.01408e-05 -1.26036e-06
4.47803e-08 -1.26036e-06 -9.6699e-05
0.000652394 -5.36234e-05 7.66204e-07
-5.36234e-05 6.22443e-05 4.35557e-07
7.66204e-07 4.35557e-07 -1.34511e-05
0.000785936 -5.39801e-05 -1.21794e-07
-5.39801e-05 0.000144886 7.68605e-07
-1.21794e-07 7.68605e-07 4.89369e-05
0.00190103 -0.000249726 1.17634e-06
-0.000249726 -2.2981e-05 -1.73132e-07
1.17634e-06 -1.73132e-07 -3.20281e-06
0.00204513 -0.000375797 -5.01318e-07
-0.000375797 8.05117e-05 -3.8359e-07
-5.01318e-07 -3.8359e-07 -7.071e-07
0.00127578 -0.000293801 6.08783e-06
-0.000293801 0.00025624 -1.46887e-07
6.08783e-06 -1.46887e-07 9.49427e-06
0.00202063 -0.00051143 5.6196e-06
-0.00051143 0.000533558 2.26066e-07
5.6196e-06 2.26066e-07 0.000185869
0.00183726 -0.000488203 -7.88668e-07
-0.000488203 0.000169011 1.42312e-06
-7.88668e-07 1.42312e-06 1.37889e-06
0.000490546 -1.09837e-05 -4.67218e-07
-1.09837e-05 -5.08827e-06 -1.83257e-07
-4.67218e-07 -1.83257e-07 -0.000124171
0.000822842 -7.43036e-05 -1.56135e-06
-7.43036e-05 0.000184803 5.087e-07
-1.56135e-06 5.087e-07 4.48763e-05
0.000634002 -0.000280638 -6.23571e-06
-0.000280638 -4.54303e-05 -1.11763e-07
-6.23571e-06 -1.11763e-07 -0.000263558
0.000543982 -0.000107496 -1.75228e-07
-0.000107496 9.61494e-05 -1.30067e-06
-1.75228e-07 -1.30067e-06 -0.000176351
0.000721522 -7.01754e-05 -7.36082e-08
-7.01754e-05 7.8407e-05 -1.62616e-07
-7.36082e-08 -1.62616e-07 -7.83482e-05
0.00237374 -0.000217717 -2.67863e-06
-0.000217717 0.000196229 -1.64246e-06
-2.67863e-06 -1.64246e-06 0.000200045
0.0017666 -0.000263524 -1.07613e-05
-0.000263524 -0.000138143 1.56357e-06
-1.07613e-05 1.56357e-06 -9.11861e-05
0.00248351 -0.000527849 -7.40306e-06
-0.000527849 0.000353366 -3.95498e-06
-7.40306e-06 -3.95498e-06 0.000211236
0.00279281 -0.000601848 -1.95976e-05
-0.000601848 0.000810712 2.94965e-06
-1.95976e-05 2.94965e-06 0.000578
0.00132455 -0.000326874 -1.5166e-05
-0.000326874 0.00033433 -2.67256e-06
-1.5166e-05 -2.67256e-06 7.29715e-05
0.000443464 5.75281e-06 1.31204e-06
5.75281e-06 -5.42224e-05 -6.01423e-07
1.31204e-06 -6.01423e-07 -0.000149881
0.000495245 4.50721e-05 4.93094e-07
4.50721e-05 -3.34503e-05 7.07385e-07
4.93094e-07 7.07385e-07 -0.000133117
0.000436692 -4.47119e-07 1.33563e-07
-4.47119e-07 -5.77825e-05 -9.62492e-07
1.33563e-07 -9.62492e-07 -0.000163637
0.00132891 -0.000152996 -2.23032e-06
-0.000152996 0.000499952 4.7052e-06
-2.23032e-06 4.7052e-06 0.000361427
0.000441183 -5.54232e-05 -6.62745e-07
-5.54232e-05 -6.3168e-05 5.72204e-06
-6.62745e-07 5.72204e-06 -0.000194695
-4.95607e-05 -7.62749e-05 2.0492e-06
-7.62749e-05 -0.000196505 3.79545e-06
2.0492e-06 3.79545e-06 -0.000491282
0.000185129 -0.000326873 4.48415e-06
-0.000326873 -0.000100904 -9.7424e-07
4.48415e-06 -9.7424e-07 -0.000451403
0.000748236 9.78292e-05 1.33558e-06
9.78292e-05 0.000148574 -4.40061e-06
1.33558e-06 -4.40061e-06 2.30633e-05
0.000204994 8.83109e-05 1.65526e-07
8.83109e-05 -0.000168963 -1.48106e-06
1.65526e-07 -1.48106e-06 -0.000341955
0.00211512 0.000214686 7.45316e-06
0.000214686 5.83076e-05 -6.74275e-09
7.45316e-06 -6.74275e-09 5.65643e-05
0.00199127 0.000338213 1.31364e-05
0.000338213 0.000120624 3.44717e-06
1.31364e-05 3.44717e-06 2.65768e-05
0.00197738 0.00044863 9.85765e-06
0.00044863 0.000247672 3.59412e-06
9.85765e-06 3.59412e-06 3.30795e-05
0.000763096 0.00023832 9.67748e-07
0.00023832 4.74545e-06 -6.54659e-07
9.67748e-07 -6.54659e-07 -0.000230018
0.00198357 0.000428944 1.92519e-06
0.000428944 0.000502689 1.02419e-06
1.92519e-06 1.02419e-06 0.0002143
0.00135699 0.000119363 -7.75367e-08
0.000119363 0.000496459 3.83962e-07
-7.75367e-08 3.83962e-07 0.000356206
0.00220926 0.0002212 -2.47715e-06
0.0002212 0.000205818 4.76462e-07
-2.47715e-06 4.76462e-07 0.000227484
0.00152455 0.000280521 -1.75771e-06
0.000280521 0.000541176 5.5112e-07
-1.75771e-06 5.5112e-07 0.000335141
0.00153 0.000342677 -3.51219e-07
0.000342677 0.000381832 1.12606e-06
-3.51219e-07 1.12606e-06 0.000116385
0.00194998 0.000452415 -1.62211e-06
0.000452415 0.000121153 -3.08256e-06
-1.62211e-06 -3.08256e-06 -1.24042e-05
0.00165407 0.000435996 -2.95651e-06
0.000435996 0.00024805 4.89188e-06
-2.95651e-06 4.89188e-06 -3.18953e-05
0.0020324 0.000432699 3.30825e-05
0.000432699 -0.000172933 3.85929e-06
3.30825e-05 3.85929e-06 -0.000481955
0.00116777 0.000191118 -5.15074e-06
0.000191118 0.000412671 -8.02082e-07
-5.15074e-06 -8.02082e-07 0.000246562
0.00229191 0.000360737 -5.05256e-05
0.000360737 0.000342666 -2.53201e-05
-5.05256e-05 -2.53201e-05 0.000327537
0.00124011 0.000275332 -5.41859e-06
0.000275332 0.000312247 -9.92759e-07
-5.41859e-06 -9.92759e-07 0.000114563
0.000651842 0.000291861 -1.87935e-06
0.000291861 -0.000151819 -3.91782e-06
-1.87935e-06 -3.91782e-06 -0.000417258
9.99614e-05 0.000399707 -1.59788e-05
0.000399707 -0.000729659 -6.04168e-06
-1.59788e-05 -6.04168e-06 -0.000921967
0.0104598 0.000362323 -0.000193695
0.000362323 0.00229635 -4.03249e-05
-0.000193695 -4.03249e-05 0.00141633
0.00571281 0.000807136 0.000129754
0.000807136 0.00074838 -2.26946e-05
0.000129754 -2.26946e-05 0.000415383
0.000905088 0.000565498 1.8827e-05
0.000565498 -0.000343157 1.10003e-05
1.8827e-05 1.10003e-05 -0.00056441
-0.00466447 -0.00076535 0.000385076
-0.00076535 -0.00107115 3.63527e-05
0.000385076 3.63527e-05 -0.00241536
0.00855405 -0.00247429 -2.39101e-05
-0.00247429 0.00184496 1.23545e-05
-2.39101e-05 1.23545e-05 0.00320831
0.000471922 4.40324e-05 3.38476e-06
4.40324e-05 -1.35407e-05 8.77451e-07
3.38476e-06 8.77451e-07 -0.000103859
0.000850319 3.96564e-05 1.26052e-06
3.96564e-05 0.000204528 -5.545e-07
1.26052e-06 -5.545e-07 0.000113624
0.000969303 9.266e-05 -2.59331e-06
9.266e-05 0.000270125 -1.3938e-06
-2.59331e-06 -1.3938e-06 0.000167755
0.000619088 -6.01291e-05 -6.1668e-08
-6.01291e-05 5.85262e-05 -1.82267e-06
-6.1668e-08 -1.82267e-06 -3.73351e-05
0.00061531 5.78794e-05 -1.11657e-06
5.78794e-05 4.59002e-05 -1.48932e-06
-1.11657e-06 -1.48932e-06 -6.3537e-05
0.000759029 -3.005e-05 3.51117e-07
-3.005e-05 0.000130982 -3.15291e-07
3.51117e-07 -3.15291e-07 1.88369e-05
0.000845222 2.15969e-05 -1.35205e-06
2.15969e-05 0.00016723 2.68269e-06
-1.35205e-06 2.68269e-06 6.74115e-05
0.000580718 2.10284e-05 -1.58939e-06
2.10284e-05 7.87024e-06 2.20596e-06
-1.58939e-06 2.20596e-06 -7.42309e-05
0.000759637 7.72731e-05 -1.50177e-06
7.72731e-05 0.000134356 -5.05715e-07
-1.50177e-06 -5.05715e-07 1.54713e-05
0.000557239 -8.72701e-06 1.9802e-08
-8.72701e-06 5.93859e-06 7.35289e-07
1.9802e-08 7.35289e-07 -8.41033e-05
0.000671711 2.23308e-05 9.61674e-08
2.23308e-05 8.5811e-05 8.67979e-08
9.61674e-08 8.67979e-08 -3.29301e-05
0.000727378 3.03286e-05 8.77621e-07
3.03286e-05 8.87552e-05 -2.42448e-07
8.77621e-07 -2.42448e-07 3.49924e-06
0.000815974 4.29122e-05 -5.84882e-07
4.29122e-05 0.000149689 -7.11617e-08
-5.84882e-07 -7.11617e-08 4.10065e-05
0.00101852 8.79918e-05 -1.2664e-06
8.79918e-05 0.000272211 -1.23457e-06
-1.2664e-06 -1.23457e-06 0.000160601
0.000384089 4.29989e-05 9.15369e-08
4.29989e-05 -9.34529e-05 -2.88843e-06
9.15369e-08 -2.88843e-06 -0.000190333
0.000834043 7.973e-05 1.65049e-06
7.973e-05 0.000163316 5.47181e-07
1.65049e-06 5.47181e-07 4.94895e-05
0.000583488 -1.95035e-05 1.17224e-06
-1.95035e-05 2.08125e-05 5.64404e-08
1.17224e-06 5.64404e-08 -9.09146e-05
0.000471025 -5.22644e-05 -1.24672e-06
-5.22644e-05 -4.55525e-05 1.78208e-06
-1.24672e-06 1.78208e-06 -0.000139219
0.000780263 -3.93948e-06 -9.43337e-07
-3.93948e-06 0.000147176 -3.13536e-08
-9.43337e-07 -3.13536e-08 3.14479e-05
0.000790382 3.41994e-05 -7.82311e-08
3.41994e-05 0.000154211 -2.70549e-06
-7.82311e-08 -2.70549e-06 4.35524e-05
0.000669041 -2.12479e-05 -9.11695e-07
-2.12479e-05 9.07341e-05 -1.68387e-07
-9.11695e-07 -1.68387e-07 -1.78422e-05
0.000795692 -2.22953e-05 1.13727e-06
-2.22953e-05 0.000162239 -5.70736e-07
1.13727e-06 -5.70736e-07 5.02793e-05
0.00067675 -8.29418e-05 -2.36805e-06
-8.29418e-05 7.44331e-05 1.38093e-06
-2.36805e-06 1.38093e-06 -1.41304e-05
0.000473044 -1.00037e-05 1.06603e-07
-1.00037e-05 -4.39188e-05 8.01896e-07
1.06603e-07 8.01896e-07 -0.000137266
0.000596614 -1.73405e-05 -1.39208e-06
-1.73405e-05 8.34526e-06 2.30253e-06
-1.39208e-06 2.30253e-06 -4.4487e-05
0.000587823 -1.69037e-05 9.9539e-07
-1.69037e-05 8.51915e-06 -8.25938e-09
9.9539e-07 -8.25938e-09 -4.60299e-05
0.000584084 5.80361e-06 -2.68418e-07
5.80361e-06 -2.28625e-05 5.43739e-06
-2.68418e-07 5.43739e-06 -3.90229e-05
0.0005875 1.71991e-05 -8.47529e-07
1.71991e-05 6.77273e-06 -2.07092e-06
-8.47529e-07 -2.07092e-06 -4.60464e-05
0.000556941 3.20092e-06 3.93288e-07
3.20092e-06 -3.97449e-05 -8.48653e-09
3.93288e-07 -8.48653e-09 -5.53907e-05
0.00235988 -1.66968e-06 -6.94805e-07
-1.66968e-06 0.00103092 5.26522e-06
-6.94805e-07 5.26522e-06 0.00104667
0.000597626 -2.82898e-07 -6.27965e-07
-2.82898e-07 -1.64651e-05 -5.60247e-06
-6.27965e-07 -5.60247e-06 -3.18314e-05
0.00159328 -9.85925e-06 -1.64361e-08
-9.85925e-06 0.000574331 8.31632e-08
-1.64361e-08 8.31632e-08 0.00058608
0.000781124 -1.4882e-05 1.49009e-07
-1.4882e-05 9.05829e-05 -2.0979e-06
1.49009e-07 -2.0979e-06 9.88911e-05
0.000610703 -9.76467e-06 8.52183e-07
-9.76467e-06 8.33401e-06 -1.41194e-06
8.52183e-07 -1.41194e-06 -2.88278e-05
0.000628617 -1.72096e-05 4.23584e-07
-1.72096e-05 1.67039e-05 -4.05034e-08
4.23584e-07 -4.05034e-08 -2.2099e-05
0.000594585 1.41937e-05 3.84672e-07
1.41937e-05 -2.33897e-05 -3.16669e-06
3.84672e-07 -3.16669e-06 -3.07565e-05
0.000608609 -1.37697e-05 -1.43316e-06
-1.37697e-05 2.13826e-06 1.35098e-06
-1.43316e-06 1.35098e-06 -3.70275e-05
0.000867807 2.52563e-05 -6.45598e-08
2.52563e-05 0.000141685 -7.14908e-07
-6.45598e-08 -7.14908e-07 0.000134504
0.00205269 4.00427e-05 1.10361e-05
4.00427e-05 0.000854613 -4.31035e-06
1.10361e-05 -4.31035e-06 0.000871351
0.000565283 3.01577e-05 -4.19344e-07
3.01577e-05 -3.39236e-05 3.43214e-06
-4.19344e-07 3.43214e-06 -4.58364e-05
0.00217612 5.59251e-05 -7.22607e-06
5.59251e-05 0.000935029 1.12305e-06
-7.22607e-06 1.12305e-06 0.000948797
0.00227454 7.34138e-05 -1.69816e-05
7.34138e-05 0.00100035 4.04179e-06
-1.69816e-05 4.04179e-06 0.00101055
0.00195329 0.000125181 -2.72513e-06
0.000125181 2.06907e-05 -1.20379e-07
-2.72513e-06 -1.20379e-07 -9.23894e-07
0.00190878 -4.12836e-07 -1.9518e-06
-4.12836e-07 2.20063e-05 2.49381e-07
-1.9518e-06 2.49381e-07 1.10668e-05
0.00158742 5.22125e-05 1.02085e-05
5.22125e-05 -0.000188348 -1.05207e-06
1.02085e-05 -1.05207e-06 -0.000171205
0.00231838 0.000225072 3.66795e-05
0.000225072 -0.000410442 7.93736e-06
3.66795e-05 7.93736e-06 -0.000325959
0.00193469 -6.12189e-06 -2.48026e-06
-6.12189e-06 -2.64238e-05 -3.09256e-07
-2.48026e-06 -3.09256e-07 -1.47325e-05
0.00191393 4.86157e-05 3.85777e-06
4.86157e-05 0.000166805 -1.64268e-06
3.85777e-06 -1.64268e-06 0.000217607
0.00279396 -1.39537e-05 -2.64849e-05
-1.39537e-05 0.000688491 3.1031e-06
-2.64849e-05 3.1031e-06 0.000666613
0.00202704 -3.65967e-05 6.35651e-05
-3.65967e-05 -0.00121263 -1.61124e-05
6.35651e-05 -1.61124e-05 -0.00110939
0.00258384 7.50837e-05 2.62049e-05
7.50837e-05 1.36561e-05 1.49415e-05
2.62049e-05 1.49415e-05 0.000126312
0.000635237 6.86431e-05 2.27654e-08
6.86431e-05 5.75104e-05 -6.5073e-07
2.27654e-08 -6.5073e-07 -1.72878e-05
0.000660473 -9.07485e-06 5.94834e-07
-9.07485e-06 7.37904e-05 -2.07735e-07
5.94834e-07 -2.07735e-07 -2.42964e-06
0.000636205 -9.20496e-05 -4.86416e-07
-9.20496e-05 5.97328e-05 8.9338e-07
-4.86416e-07 8.9338e-07 -3.11687e-05
0.000635492 -3.87714e-05 -9.64654e-07
-3.87714e-05 7.95628e-05 1.21102e-06
-9.64654e-07 1.21102e-06 -2.28559e-05
0.00198737 -0.000117411 -4.27371e-06
-0.000117411 -3.04225e-05 8.40657e-07
-4.27371e-06 8.40657e-07 -2.26175e-05
0.00190991 -0.000248157 8.24774e-07
-0.000248157 -5.17584e-06 2.80808e-07
8.24774e-07 2.80808e-07 5.34746e-06
0.00204966 -0.000371754 -3.1816e-06
-0.000371754 9.36339e-05 2.71229e-06
-3.1816e-06 2.71229e-06 1.20319e-05
0.00224598 -0.000406712 7.56142e-06
-0.000406712 0.000789057 4.49203e-06
7.56142e-06 4.49203e-06 0.000533765
0.00114265 -0.000435799 9.23921e-06
-0.000435799 5.89802e-05 -4.11209e-06
9.23921e-06 -4.11209e-06 -0.000275786
0.00222741 -0.000512651 4.66194e-06
-0.000512651 0.000398231 -3.97019e-06
4.66194e-06 -3.97019e-06 0.000222111
0.0010005 -0.000298013 -5.13065e-06
-0.000298013 0.000182766 2.72559e-06
-5.13065e-06 2.72559e-06 -6.29371e-05
0.00180323 -0.000139237 3.36038e-07
-0.000139237 0.000759164 -5.87745e-07
3.36038e-07 -5.87745e-07 0.00053186
0.000342139 -8.21335e-05 -7.4827e-07
-8.21335e-05 -0.000143335 -1.25197e-06
-7.4827e-07 -1.25197e-06 -0.000293355
0.000685978 -3.70435e-05 -2.92101e-07
-3.70435e-05 8.03154e-05 1.15666e-06
-2.92101e-07 1.15666e-06 6.40938e-06
0.000652643 -8.5255e-05 2.92373e-07
-8.5255e-05 9.36291e-05 -2.27707e-06
2.92373e-07 -2.27707e-06 -5.52835e-05
0.000804813 -5.42505e-06 6.77232e-07
-5.42505e-06 0.000180911 -7.67296e-07
6.77232e-07 -7.67296e-07 6.19491e-05
0.000653995 8.66454e-06 2.71075e-07
8.66454e-06 7.36207e-05 6.31965e-08
2.71075e-07 6.31965e-08 -5.81008e-06
0.000561953 7.83573e-06 -2.76126e-06
7.83573e-06 1.31502e-05 2.45212e-06
-2.76126e-06 2.45212e-06 -8.18362e-05
0.00226035 -0.000197791 1.11518e-06
-0.000197791 0.000142151 5.79329e-07
1.11518e-06 5.79329e-07 0.000158331
0.000661434 -1.13635e-05 1.15036e-06
-1.13635e-05 8.32872e-05 -3.64489e-07
1.15036e-06 -3.64489e-07 -1.76204e-05
0.000697052 8.66457e-06 2.33913e-06
8.66457e-06 9.40756e-05 -1.58192e-07
2.33913e-06 -1.58192e-07 -8.47967e-06
0.000433947 4.36913e-05 1.55464e-07
4.36913e-05 -5.49813e-05 1.49623e-06
1.55464e-07 1.49623e-06 -0.000152159
0.0017631 -0.000267076 -9.29009e-07
-0.000267076 -0.000162749 -1.74148e-06
-9.29009e-07 -1.74148e-06 -0.000121449
0.00201161 -0.000489095 1.30483e-06
-0.000489095 0.000109898 -4.1292e-07
1.30483e-06 -4.1292e-07 -2.14734e-05
0.00151443 -0.000381524 -9.27024e-07
-0.000381524 0.000428874 -3.78242e-07
-9.27024e-07 -3.78242e-07 0.000158076
0.0021711 -0.000554472 -5.30731e-06
-0.000554472 0.000480115 2.10881e-06
-5.30731e-06 2.10881e-06 0.000250539
0.0010731 -7.16724e-05 -1.00436e-06
-7.16724e-05 0.000331498 5.70231e-07
-1.00436e-06 5.70231e-07 0.000200455
0.000524465 -7.57226e-05 -1.93115e-07
-7.57226e-05 -1.38838e-05 9.36372e-07
-1.93115e-07 9.36372e-07 -0.000154287
0.00099064 -0.000374428 3.27614e-06
-0.000374428 0.000353476 -1.22284e-06
3.27614e-06 -1.22284e-06 -7.70613e-06
0.00114149 -0.000179728 3.87927e-07
-0.000179728 0.000428264 -2.38262e-07
3.87927e-07 -2.38262e-07 0.000152081
0.00240879 -0.000230552 -2.1711e-05
-0.000230552 0.000152294 3.65371e-07
-2.1711e-05 3.65371e-07 0.000245322
0.00235189 -0.000403369 -2.33957e-05
-0.000403369 0.000183997 5.352e-06
-2.33957e-05 5.352e-06 0.000194636
0.00283363 -0.000643459 -1.09398e-05
-0.000643459 0.000638837 -6.73947e-06
-1.09398e-05 -6.73947e-06 0.000431927
0.00163329 -0.000473995 -4.19134e-06
-0.000473995 0.000383803 4.00008e-06
-4.19134e-06 4.00008e-06 0.000164923
0.000559837 -2.84712e-06 -1.4421e-06
-2.84712e-06 3.97654e-05 -2.08751e-06
-1.4421e-06 -2.08751e-06 -8.19433e-05
0.000540349 -7.2797e-05 -5.85402e-07
-7.2797e-05 1.83887e-05 -4.39934e-06
-5.85402e-07 -4.39934e-06 -0.000110172
0.000495599 -0.000110775 -1.94953e-06
-0.000110775 7.00326e-05 8.21816e-06
-1.94953e-06 8.21816e-06 -0.000108412
-0.000103635 -0.000161379 -5.02818e-07
-0.000161379 -8.03179e-05 -7.29851e-06
-5.02818e-07 -7.29851e-06 -0.000520261
0.000851192 -0.000371099 2.97253e-05
-0.000371099 -0.00305867 -4.08387e-06
2.97253e-05 -4.08387e-06 -0.00338146
0.00146405 0.000111098 7.47354e-07
0.000111098 0.000549428 -3.62532e-06
7.47354e-07 -3.62532e-06 0.000417016
0.000526209 0.000169781 3.51733e-06
0.000169781 -3.31012e-05 1.12171e-06
3.51733e-06 1.12171e-06 -0.000219081
0.00199195 0.000194904 4.87791e-05
0.000194904 0.000103374 9.27694e-06
4.87791e-05 9.27694e-06 0.00012949
0.00206762 0.000447034 1.72125e-05
0.000447034 0.00018271 7.07626e-06
1.72125e-05 7.07626e-06 5.68984e-05
0.00186293 0.000459558 5.78311e-06
0.000459558 0.000379242 7.06457e-06
5.78311e-06 7.06457e-06 8.86606e-05
0.000854459 0.000279907 6.12857e-06
0.000279907 2.39966e-05 3.1584e-06
6.12857e-06 3.1584e-06 -0.000242676
0.00335239 0.000537143 7.55875e-05
0.000537143 0.0003101 2.34778e-05
7.55875e-05 2.34778e-05 -0.000136674
0.00127336 0.000172008 2.99837e-06
0.000172008 0.000474641 3.58817e-07
2.99837e-06 3.58817e-07 0.00031286
0.00240026 0.000363917 -1.3202e-05
0.000363917 0.000381306 -1.25521e-06
-1.3202e-05 -1.25521e-06 0.000381409
0.00109974 0.000263074 1.2432e-06
0.000263074 0.000250853 6.13677e-07
1.2432e-06 6.13677e-07 5.34513e-05
0.00125484 0.000362676 2.17455e-06
0.000362676 0.000188351 -2.03577e-06
2.17455e-06 -2.03577e-06 -8.81952e-05
0.00122041 0.000487187 -5.72717e-06
0.000487187 -0.000153826 -1.55124e-06
-5.72717e-06 -1.55124e-06 -0.000351132
0.00290671 -0.000274564 -0.00011335
-0.000274564 -0.00212255 -3.38472e-05
-0.00011335 -3.38472e-05 -0.00310507
0.00562111 0.00066354 -1.88594e-05
0.00066354 0.000512322 -4.11527e-05
-1.88594e-05 -4.11527e-05 1.16199e-05
0.000407207 0.000445246 -8.57756e-06
0.000445246 -0.000455804 7.62245e-06
-8.57756e-06 7.62245e-06 -0.000734316
-0.00163281 -0.000563555 0.000172611
-0.000563555 0.0010373 7.29797e-05
0.000172611 7.29797e-05 -0.000461968
0.000957633 -0.00246413 -0.000122263
-0.00246413 -0.000719749 -0.000135767
-0.000122263 -0.000135767 0.000836127
0.00103639 0.000187158 -5.3479e-06
0.000187158 0.000321231 -3.20574e-06
-5.3479e-06 -3.20574e-06 0.000175656
0.000522318 0.000412009 0.000189516
0.000412009 0.00176925 -1.37969e-05
0.000189516 -1.37969e-05 0.000616665
0.00119205 -0.000772093 -0.000112982
-0.000772093 0.00250045 -0.000174994
-0.000112982 -0.000174994 0.000692331
0.00243194 0.000533654 -2.85344e-05
0.000533654 0.000400283 -9.12856e-06
-2.85344e-05 -9.12856e-06 0.000440727
0.000855389 0.000171359 -1.27281e-05
0.000171359 0.000100591 -2.84849e-06
-1.27281e-05 -2.84849e-06 -9.17768e-05
-8.50964e-05 0.000393312 -2.13445e-05
0.000393312 -0.00053627 -1.58223e-05
-2.13445e-05 -1.58223e-05 -0.000827847
0.000171973 0.000491735 3.25753e-05
0.000491735 -0.000624791 6.73867e-05
3.25753e-05 6.73867e-05 -0.000777235
0.0122507 0.000763869 -1.82725e-05
0.000763869 0.00369994 -3.8001e-05
-1.82725e-05 -3.8001e-05 0.00219343
0.00290343 0.00100247 1.34921e-05
0.00100247 0.000515109 7.28391e-06
1.34921e-05 7.28391e-06 -0.000606324
0.00306821 -0.00218427 0.000300752
-0.00218427 -0.000110951 0.000217468
0.000300752 0.000217468 3.68533e-05
0.00580852 -0.00116556 -2.1717e-05
-0.00116556 -0.000482727 0.000246471
-2.1717e-05 0.000246471 0.000573485
0.000548134 2.35374e-05 1.83529e-06
2.35374e-05 4.31849e-05 -1.51874e-06
1.83529e-06 -1.51874e-06 -4.89318e-05
0.000778551 8.48918e-05 1.99181e-06
8.48918e-05 0.000165442 1.00602e-06
1.99181e-06 1.00602e-06 6.21845e-05
0.00158144 0.000155624 -3.37467e-06
0.000155624 0.000644642 -2.98546e-06
-3.37467e-06 -2.98546e-06 0.000543086
0.000630269 4.79678e-06 7.28166e-07
4.79678e-06 6.6202e-05 -4.4504e-07
7.28166e-07 -4.4504e-07 -3.40295e-05
0.000735673 3.60143e-05 -6.66139e-08
3.60143e-05 0.000121829 -1.45349e-06
-6.66139e-08 -1.45349e-06 4.87209e-06
0.000530915 -4.99312e-06 -1.1866e-06
-4.99312e-06 -1.29566e-05 -4.52367e-08
-1.1866e-06 -4.52367e-08 -0.00012012
0.000802271 5.00427e-05 -6.36193e-07
5.00427e-05 0.00014215 1.38805e-06
-6.36193e-07 1.38805e-06 3.7421e-05
0.000665282 3.12479e-05 -5.81583e-07
3.12479e-05 4.94393e-05 3.63136e-07
-5.81583e-07 3.63136e-07 -3.64053e-05
0.000451609 -2.93662e-06 2.70878e-07
-2.93662e-06 -5.2982e-05 7.8526e-07
2.70878e-07 7.8526e-07 -0.000149042
0.000832458 3.75401e-05 3.37628e-07
3.75401e-05 0.000164921 5.73813e-07
3.37628e-07 5.73813e-07 5.4697e-05
0.000799476 3.17652e-05 2.62199e-07
3.17652e-05 0.00014452 3.67176e-07
2.62199e-07 3.67176e-07 3.04275e-05
0.000701314 2.04256e-05 5.68525e-07
2.04256e-05 0.000105368 -3.45418e-07
5.68525e-07 -3.45418e-07 -1.61044e-05
0.000499434 4.78498e-05 -3.38688e-07
4.78498e-05 -2.42139e-05 -6.57578e-07
-3.38688e-07 -6.57578e-07 -0.000120927
0.00111009 5.64761e-05 -5.19427e-07
5.64761e-05 0.000326674 -2.14118e-06
-5.19427e-07 -2.14118e-06 0.000224201
-6.40746e-05 3.56888e-05 -1.92138e-06
3.56888e-05 -0.000319046 -3.81092e-06
-1.92138e-06 -3.81092e-06 -0.000420571
0.00074889 -7.63524e-05 6.54694e-08
-7.63524e-05 0.000116841 -2.48878e-08
6.54694e-08 -2.48878e-08 -2.99242e-06
0.000784871 -5.74032e-05 -1.0192e-06
-5.74032e-05 0.00015871 -8.98041e-07
-1.0192e-06 -8.98041e-07 3.11743e-05
0.000806998 -2.73212e-05 -5.62922e-07
-2.73212e-05 0.000171162 -3.82407e-07
-5.62922e-07 -3.82407e-07 4.86615e-05
0.000801225 6.84501e-06 -8.23093e-07
6.84501e-06 0.000152127 -1.98434e-07
-8.23093e-07 -1.98434e-07 4.77836e-05
0.000839103 6.48958e-06 -2.54475e-06
6.48958e-06 0.000196492 -2.35927e-06
-2.54475e-06 -2.35927e-06 6.43063e-05
0.00073431 1.24376e-05 9.94331e-07
1.24376e-05 0.000116691 -1.41371e-06
9.94331e-07 -1.41371e-06 1.32333e-05
0.000126166 -1.78822e-05 1.10117e-07
-1.78822e-05 -0.000250288 -1.93815e-06
1.10117e-07 -1.93815e-06 -0.000340683
0.000609656 4.20245e-06 1.03877e-06
4.20245e-06 3.74155e-05 4.06017e-08
1.03877e-06 4.06017e-08 -6.37843e-05
0.000657053 -4.38963e-05 5.42945e-08
-4.38963e-05 6.24191e-05 2.15306e-07
5.42945e-08 2.15306e-07 -2.97454e-05
0.000717453 -4.15099e-05 -2.26563e-07
-4.15099e-05 0.000112918 -1.95174e-08
-2.26563e-07 -1.95174e-08 7.2504e-06
0.00066817 -4.90273e-05 -1.9826e-06
-4.90273e-05 5.82944e-05 1.05943e-06
-1.9826e-06 1.05943e-06 -1.91957e-05
0.000698875 -3.346e-05 1.56284e-06
-3.346e-05 8.6446e-05 -2.96699e-07
1.56284e-06 -2.96699e-07 -1.43657e-05
0.000617308 -7.68758e-05 -3.12749e-10
-7.68758e-05 3.71128e-05 2.15588e-07
-3.12749e-10 2.15588e-07 -5.13257e-05
0.000631693 -1.57235e-05 -1.90588e-06
-1.57235e-05 2.41916e-05 2.51597e-06
-1.90588e-06 2.51597e-06 -2.81851e-05
0.000498605 -6.25947e-06 1.23481e-06
-6.25947e-06 -1.96422e-05 -6.54121e-07
1.23481e-06 -6.54121e-07 -0.000119372
0.000592867 3.95027e-06 1.17376e-06
3.95027e-06 9.55267e-06 -1.51774e-08
1.17376e-06 -1.51774e-08 -4.52269e-05
0.00138363 1.277e-05 -2.94943e-06
1.277e-05 0.00045189 5.37602e-06
-2.94943e-06 5.37602e-06 0.00043996
0.000585103 3.23099e-05 -5.30287e-07
3.23099e-05 7.00899e-06 -2.04661e-06
-5.30287e-07 -2.04661e-06 -4.7398e-05
0.000963486 5.70299e-06 -1.69264e-06
5.70299e-06 0.00020256 8.17113e-07
-1.69264e-06 8.17113e-07 0.000188693
0.000838039 3.33044e-06 -4.04096e-06
3.33044e-06 0.000125743 5.05764e-06
-4.04096e-06 5.05764e-06 0.000133321
0.000566796 1.28311e-06 2.24191e-07
1.28311e-06 -3.36529e-05 -3.74227e-06
2.24191e-07 -3.74227e-06 -4.93959e-05
0.00237003 9.7442e-08 4.43479e-06
9.7442e-08 0.00103705 -7.70605e-09
4.43479e-06 -7.70605e-09 0.00105273
0.000854329 -3.14112e-06 -4.14141e-06
-3.14112e-06 0.000135382 -5.16276e-06
-4.14141e-06 -5.16276e-06 0.000143235
0.000619114 6.52348e-05 1.84819e-06
6.52348e-05 5.46813e-05 1.55205e-07
1.84819e-06 1.55205e-07 -2.74608e-05
0.000593896 2.47441e-05 -1.202e-06
2.47441e-05 3.2792e-06 -1.75994e-06
-1.202e-06 -1.75994e-06 -3.53442e-05
0.000602534 -6.56724e-06 9.30081e-07
-6.56724e-06 5.30003e-06 9.97528e-09
9.30081e-07 9.97528e-09 -3.31143e-05
0.000597795 8.22455e-06 2.89572e-07
8.22455e-06 -2.2304e-05 -3.1244e-06
2.89572e-07 -3.1244e-06 -2.90222e-05
0.000626526 -3.1458e-05 -1.71598e-06
-3.1458e-05 1.68628e-05 1.4464e-06
-1.71598e-06 1.4464e-06 -2.31935e-05
0.0005663 1.41179e-05 1.11611e-08
1.41179e-05 -4.0752e-05 -7.57912e-07
1.11611e-08 -7.57912e-07 -4.78302e-05
0.00202461 2.68091e-05 7.363e-06
2.68091e-05 0.000834278 -4.46732e-06
7.363e-06 -4.46732e-06 0.000852533
0.00116914 3.15779e-05 -6.84991e-07
3.15779e-05 0.000321933 1.86768e-06
-6.84991e-07 1.86768e-06 0.000316023
0.00148328 3.44393e-05 1.1739e-07
3.44393e-05 0.00051568 1.41194e-06
1.1739e-07 1.41194e-06 0.000528398
0.000896888 3.76853e-05 -1.36501e-05
3.76853e-05 0.000171548 7.16634e-06
-1.36501e-05 7.16634e-06 0.000178485
0.00151916 0.000143757 6.90272e-05
0.000143757 -0.000735276 1.32364e-05
6.90272e-05 1.32364e-05 -0.000654036
0.00191864 -1.87383e-05 2.40588e-06
-1.87383e-05 -2.54439e-05 6.74886e-07
2.40588e-06 6.74886e-07 -1.54028e-05
0.00195798 6.03217e-05 3.43657e-05
6.03217e-05 0.000209725 -9.36885e-06
3.43657e-05 -9.36885e-06 0.000249549
0.00143569 0.000112516 -1.4332e-05
0.000112516 -0.00112351 -9.32773e-06
-1.4332e-05 -9.32773e-06 -0.000883824
0.00181884 5.79434e-05 1.84986e-05
5.79434e-05 -0.000329387 2.464e-07
1.84986e-05 2.464e-07 -0.00021537
0.00232257 -1.93054e-05 -1.49444e-07
-1.93054e-05 0.000359004 -1.96262e-06
-1.49444e-07 -1.96262e-06 0.00033978
0.00335271 -7.55681e-05 -6.00272e-05
-7.55681e-05 0.000742937 2.59969e-06
-6.00272e-05 2.59969e-06 0.000718434
0.00302255 -6.97966e-05 9.30866e-05
-6.97966e-05 0.000326609 -1.2115e-06
9.30866e-05 -1.2115e-06 0.000227381
0.0099025 -0.000436061 1.46628e-05
-0.000436061 0.00229478 3.34085e-05
1.46628e-05 3.34085e-05 0.000851057
0.00896327 0.00185337 0.000387051
0.00185337 0.0041984 -0.000168431
0.000387051 -0.000168431 0.00404471
0.00540705 0.00200014 -2.37318e-05
0.00200014 0.00391057 2.21828e-05
-2.37318e-05 2.21828e-05 0.00437069
0.000416118 -8.53085e-05 2.17455e-06
-8.53085e-05 -6.02421e-05 8.50729e-08
2.17455e-06 8.50729e-08 -0.000154422
0.000656039 -1.10524e-05 1.33504e-06
-1.10524e-05 7.16948e-05 -1.63221e-07
1.33504e-06 -1.63221e-07 -4.92615e-06
0.000692174 -7.83784e-05 -1.67239e-06
-7.83784e-05 9.81477e-05 1.1746e-06
-1.67239e-06 1.1746e-06 1.66561e-05
0.000629413 -3.99132e-05 -2.35759e-07
-3.99132e-05 5.75862e-05 2.47731e-07
-2.35759e-07 2.47731e-07 -3.47552e-05
0.0006505 6.35344e-05 -8.86598e-07
6.35344e-05 9.11133e-05 1.90882e-06
-8.86598e-07 1.90882e-06 -1.93297e-05
0.000695983 0.000121429 1.51261e-06
0.000121429 0.00010155 3.61361e-06
1.51261e-06 3.61361e-06 -8.42619e-06
0.000822873 -1.04791e-05 2.69644e-06
-1.04791e-05 0.000187821 -1.67295e-07
2.69644e-06 -1.67295e-07 8.229e-05
0.000581669 -2.87506e-05 -9.1593e-07
-2.87506e-05 3.84364e-05 9.09392e-07
-9.1593e-07 9.09392e-07 -5.83098e-05
0.00211472 -0.000182621 4.31211e-06
-0.000182621 6.45937e-05 1.94899e-06
4.31211e-06 1.94899e-06 9.1933e-05
0.00179856 -0.000278054 8.16554e-06
-0.000278054 -0.000175555 -1.29217e-06
8.16554e-06 -1.29217e-06 -0.000139876
0.00160681 -0.000456252 4.16506e-06
-0.000456252 -0.000100503 4.99574e-06
4.16506e-06 4.99574e-06 -0.000222226
0.00144617 -0.000401122 1.03518e-05
-0.000401122 0.000379278 1.06047e-06
1.03518e-05 1.06047e-06 0.00010152
0.00171232 -0.000521994 4.05317e-06
-0.000521994 0.000241088 -1.33825e-07
4.05317e-06 -1.33825e-07 1.39112e-05
0.00204708 -0.000443717 3.7297e-06
-0.000443717 0.00094848 -7.96045e-07
3.7297e-06 -7.96045e-07 0.000573573
0.00214434 -0.00027215 -3.63873e-09
-0.00027215 0.000960871 -2.69284e-06
-3.63873e-09 -2.69284e-06 0.000694741
0.000723728 -0.000123473 2.84736e-06
-0.000123473 0.000108754 -2.97152e-06
2.84736e-06 -2.97152e-06 -4.73333e-05
0.000678258 -2.35808e-05 3.74794e-07
-2.35808e-05 8.52122e-05 2.28054e-06
3.74794e-07 2.28054e-06 -1.32689e-05
0.000891701 -3.8425e-05 1.25177e-06
-3.8425e-05 0.000210768 -6.35285e-06
1.25177e-06 -6.35285e-06 8.73551e-05
0.00092284 -2.24067e-05 1.46335e-06
-2.24067e-05 0.000240014 1.74016e-07
1.46335e-06 1.74016e-07 0.000137661
0.000689825 0.000100918 2.30618e-06
0.000100918 9.95624e-05 2.45118e-06
2.30618e-06 2.45118e-06 7.80094e-06
0.00198084 -0.000220693 4.96069e-08
-0.000220693 -2.89455e-05 1.64715e-06
4.96069e-08 1.64715e-06 5.10658e-05
0.0006773 1.34828e-05 -1.6084e-06
1.34828e-05 0.000109043 2.94152e-07
-1.6084e-06 2.94152e-07 -1.1463e-05
0.000833178 -8.37062e-05 -2.17371e-06
-8.37062e-05 0.000183253 1.39481e-06
-2.17371e-06 1.39481e-06 6.28303e-05
0.00176891 -0.000385039 1.82047e-06
-0.000385039 -0.000126888 -1.55377e-06
1.82047e-06 -1.55377e-06 -0.000120914
0.00168322 -0.000551413 7.74452e-07
-0.000551413 3.05441e-05 1.0605e-06
7.74452e-07 1.0605e-06 -0.000149406
0.00113469 -0.000430643 -1.21925e-06
-0.000430643 0.000114825 -2.32095e-06
-1.21925e-06 -2.32095e-06 -0.000118398
0.000985645 -0.00014559 3.74979e-07
-0.00014559 0.000343755 -4.24172e-06
3.74979e-07 -4.24172e-06 0.000146925
0.00113081 -0.000240502 -1.32268e-06
-0.000240502 0.000566908 1.22486e-06
-1.32268e-06 1.22486e-06 0.000162954
0.00340057 -0.000350315 -3.194e-05
-0.000350315 0.000730149 6.65721e-06
-3.194e-05 6.65721e-06 0.000743574
0.00275859 -0.000548655 -3.17509e-05
-0.000548655 0.000511891 4.57594e-06
-3.17509e-05 4.57594e-06 0.000491522
0.00159484 -0.000590082 -9.70036e-06
-0.000590082 8.84438e-05 7.83261e-07
-9.70036e-06 7.83261e-07 -9.60752e-05
0.000707604 -0.000328531 -1.26739e-05
-0.000328531 1.90951e-05 1.53746e-05
-1.26739e-05 1.53746e-05 -0.000208275
0.000672228 -0.000132816 1.45146e-06
-0.000132816 0.000110221 7.30327e-07
1.45146e-06 7.30327e-07 -3.28536e-05
0.000475612 -0.000106868 2.73682e-06
-0.000106868 3.00246e-05 -2.30095e-06
2.73682e-06 -2.30095e-06 -0.000130783
0.00101647 -0.000102027 3.56888e-07
-0.000102027 0.0005058 -5.94362e-06
3.56888e-07 -5.94362e-06 0.00016042
-0.00488438 -8.41169e-05 0.000266429
-8.41169e-05 -0.003441 1.40299e-06
0.000266429 1.40299e-06 -0.00245074
0.0101801 -0.0001422 4.31962e-06
-0.0001422 0.00281076 -5.24983e-07
4.31962e-06 -5.24983e-07 0.0022144
0.00146813 0.000151099 5.37319e-06
0.000151099 0.000576987 -2.33049e-06
5.37319e-06 -2.33049e-06 0.000425651
0.000828597 0.000238409 3.44618e-06
0.000238409 0.00011113 -1.02142e-06
3.44618e-06 -1.02142e-06 -8.3611e-05
0.00218135 0.000336302 4.46878e-05
0.000336302 0.000246971 2.35987e-05
4.46878e-05 2.35987e-05 0.000265363
0.00245305 0.000584247 1.269e-05
0.000584247 0.000485179 6.47203e-06
1.269e-05 6.47203e-06 0.000282502
0.00196044 0.000442168 9.75911e-06
0.000442168 0.000580251 2.4789e-07
9.75911e-06 2.4789e-07 0.000293374
0.0106878 0.00055376 4.55511e-05
0.00055376 0.00273322 1.76903e-05
4.55511e-05 1.76903e-05 0.00160134
0.00749609 0.0009753 -0.000158003
0.0009753 0.000987706 -2.91472e-05
-0.000158003 -2.91472e-05 0.000595543
0.000153454 0.000344036 6.53179e-06
0.000344036 -0.000449964 -1.9518e-05
6.53179e-06 -1.9518e-05 -0.000790551
0.00905145 -0.001498 -9.66894e-05
-0.001498 0.00423562 2.11573e-05
-9.66894e-05 2.11573e-05 0.00355462
-0.00750036 -0.00249388 -0.000654608
-0.00249388 -0.00334093 -0.000496102
-0.000654608 -0.000496102 -0.0018655
0.000965704 0.000181833 -5.6495e-07
0.000181833 0.000289358 -1.94899e-06
-5.6495e-07 -1.94899e-06 0.000143998
-0.00235229 -0.000744791 0.00013626
-0.000744791 -0.00213373 1.78129e-05
0.00013626 1.78129e-05 -0.00239592
-0.00276452 -0.00055536 -0.000158946
-0.00055536 0.00145311 -8.0627e-05
-0.000158946 -8.0627e-05 -0.000698951
0.00281044 0.000495894 -1.01399e-05
0.000495894 0.000621224 -6.78578e-07
-1.01399e-05 -6.78578e-07 0.000653542
0.000839983 0.000217091 -3.18172e-06
0.000217091 0.000124825 1.16608e-06
-3.18172e-06 1.16608e-06 -8.65133e-05
0.00103195 0.000450974 4.06497e-06
0.000450974 6.82118e-05 1.90622e-06
4.06497e-06 1.90622e-06 -0.000218661
0.00112628 0.000428866 1.69662e-05
0.000428866 2.67197e-06 1.41671e-05
1.69662e-05 1.41671e-05 -3.49561e-05
0.00895499 0.000601719 -5.86756e-05
0.000601719 0.00137119 -2.94185e-05
-5.86756e-05 -2.94185e-05 -0.000443482
0.00626404 0.00141072 -6.02794e-05
0.00141072 0.00153687 -2.53023e-05
-6.02794e-05 -2.53023e-05 0.00077972
0.0105086 -0.00174651 0.000135654
-0.00174651 0.00473631 -5.00836e-05
0.000135654 -5.00836e-05 0.00450337
0.00503633 -0.00143577 0.000147634
-0.00143577 -0.00122606 0.000316403
0.000147634 0.000316403 -0.000174077
0.00154387 0.000173054 -1.61555e-05
0.000173054 0.000636215 -8.09998e-06
-1.61555e-05 -8.09998e-06 0.000506335
-0.00587578 0.000317314 -9.25886e-05
0.000317314 0.00104469 -5.21351e-05
-9.25886e-05 -5.21351e-05 -0.00176285
0.00322789 0.000317462 -0.000166852
0.000317462 0.00175243 -0.000227981
-0.000166852 -0.000227981 -0.00101384
0.00152447 0.000437361 -1.6691e-05
0.000437361 0.00020137 5.75966e-06
-1.6691e-05 5.75966e-06 0.000194574
0.00112968 0.000413604 -4.65029e-05
0.000413604 0.000364251 -1.67261e-05
-4.65029e-05 -1.67261e-05 0.000113904
0.00227457 0.000379255 -6.11207e-05
0.000379255 0.00121364 -6.11365e-06
-6.11207e-05 -6.11365e-06 0.000816778
0.0020908 0.000984003 -3.91969e-05
0.000984003 0.000157717 -1.62735e-05
-3.91969e-05 -1.62735e-05 -0.000121674
0.0011025 0.000793878 0.00015702
0.000793878 -0.000163583 0.000113108
0.00015702 0.000113108 -0.00285426
0.010105 -0.00201824 8.35271e-05
-0.00201824 0.00344743 0.000275304
8.35271e-05 0.000275304 0.00286575
0.00446131 -0.000890006 -5.01663e-05
-0.000890006 -0.00201158 -4.99362e-05
-5.01663e-05 -4.99362e-05 -0.000824313
0.000829529 0.000105097 3.75244e-06
0.000105097 0.000203894 3.03771e-06
3.75244e-06 3.03771e-06 9.36309e-05
0.00127065 0.000135675 5.85599e-06
0.000135675 0.000453615 2.63601e-06
5.85599e-06 2.63601e-06 0.000355557
8.16112e-05 4.78797e-05 2.16561e-06
4.78797e-05 -0.000179004 -4.12432e-06
2.16561e-06 -4.12432e-06 -0.000277086
0.00045888 4.48533e-05 1.35169e-06
4.48533e-05 -4.96016e-05 -1.19408e-07
1.35169e-06 -1.19408e-07 -0.000145129
0.0007633 5.26761e-05 -6.61409e-07
5.26761e-05 0.000147924 -1.12574e-06
-6.61409e-07 -1.12574e-06 2.32417e-05
0.000742984 -5.51767e-06 -4.38391e-07
-5.51767e-06 0.000111457 1.16263e-06
-4.38391e-07 1.16263e-06 -2.22337e-06
0.000772682 2.8351e-06 2.29095e-06
2.8351e-06 0.000137213 6.38258e-07
2.29095e-06 6.38258e-07 2.36238e-05
0.000523088 4.02086e-05 8.62195e-07
4.02086e-05 -7.35816e-06 2.52471e-06
8.62195e-07 2.52471e-06 -0.00010262
0.000771291 4.35365e-05 -1.91253e-08
4.35365e-05 0.0001517 -8.19148e-07
-1.91253e-08 -8.19148e-07 2.41098e-05
0.000871699 4.39896e-05 -3.65714e-08
4.39896e-05 0.000184922 2.63208e-07
-3.65714e-08 2.63208e-07 8.19884e-05
0.000786379 -3.4002e-05 -5.13739e-07
-3.4002e-05 0.000140875 5.93153e-07
-5.13739e-07 5.93153e-07 1.93123e-05
2.15226e-05 3.47554e-05 -2.2359e-07
3.47554e-05 -0.000255054 7.66841e-07
-2.2359e-07 7.66841e-07 -0.000356937
-0.000659017 2.06758e-05 -8.61361e-07
2.06758e-05 -0.000513035 -1.53284e-06
-8.61361e-07 -1.53284e-06 -0.00065498
0.000876727 -1.20231e-06 -2.66082e-06
-1.20231e-06 0.000197475 -4.18321e-06
-2.66082e-06 -4.18321e-06 8.47037e-05
0.00094722 1.09313e-05 -6.4072e-07
1.09313e-05 0.000255678 -1.19842e-06
-6.4072e-07 -1.19842e-06 0.000108903
0.000816035 -5.73833e-05 -1.76897e-08
-5.73833e-05 0.000180232 -7.99652e-07
-1.76897e-08 -7.99652e-07 5.41203e-05
0.000859352 -3.2281e-05 -2.89158e-08
-3.2281e-05 0.000179785 1.44784e-06
-2.89158e-08 1.44784e-06 7.89109e-05
0.000840102 -5.27718e-05 1.88597e-07
-5.27718e-05 0.000185998 -6.44362e-07
1.88597e-07 -6.44362e-07 6.03799e-05
0.000761868 6.35047e-06 -3.11362e-07
6.35047e-06 0.000129271 -8.89649e-08
-3.11362e-07 -8.89649e-08 2.67854e-05
0.00041375 -4.55616e-05 3.86967e-07
-4.55616e-05 -7.80002e-05 1.14227e-06
3.86967e-07 1.14227e-06 -0.00016941
0.000632869 1.36391e-05 9.48384e-07
1.36391e-05 5.5041e-05 6.12364e-07
9.48384e-07 6.12364e-07 -4.4365e-05
0.000396904 -1.66959e-05 -1.83219e-06
-1.66959e-05 -6.19377e-05 -3.67099e-06
-1.83219e-06 -3.67099e-06 -0.000178199
0.00037909 -3.78522e-05 1.95526e-06
-3.78522e-05 -9.78845e-05 -9.56076e-07
1.95526e-06 -9.56076e-07 -0.000186035
0.000765461 -2.95908e-05 3.92855e-06
-2.95908e-05 9.44505e-05 -5.24627e-06
3.92855e-06 -5.24627e-06 -1.17335e-06
2.838e-05 -4.34301e-05 6.59697e-07
-4.34301e-05 -0.000299442 1.15017e-06
6.59697e-07 1.15017e-06 -0.000450318
0.000330851 1.05162e-05 -5.37003e-07
1.05162e-05 -0.000114945 -7.2169e-07
-5.37003e-07 -7.2169e-07 -0.000223712
0.000724321 -2.68908e-06 2.20767e-07
-2.68908e-06 0.000103438 3.41775e-07
2.20767e-07 3.41775e-07 2.43413e-07
0.000647517 -8.76511e-06 5.90809e-08
-8.76511e-06 5.73838e-05 4.1686e-07
5.90809e-08 4.1686e-07 -3.4871e-05
0.00072062 -2.58988e-05 -1.70609e-07
-2.58988e-05 0.000112554 -6.16825e-08
-1.70609e-07 -6.16825e-08 1.12535e-05
0.000584977 2.21351e-06 -6.47845e-07
2.21351e-06 1.67367e-05 8.62426e-07
-6.47845e-07 8.62426e-07 -6.23924e-05
0.000764098 -2.27428e-05 2.41441e-07
-2.27428e-05 0.00013823 1.88494e-08
2.41441e-07 1.88494e-08 3.39705e-05
0.000674904 -4.38722e-05 -4.4058e-07
-4.38722e-05 7.03782e-05 1.03235e-07
-4.4058e-07 1.03235e-07 -1.23186e-05
0.000577275 3.82453e-05 -8.92813e-07
3.82453e-05 -9.35458e-06 2.34605e-06
-8.92813e-07 2.34605e-06 -6.25934e-05
0.000558882 -6.78029e-05 1.73735e-06
-6.78029e-05 -2.23989e-06 -1.02396e-06
1.73735e-06 -1.02396e-06 -8.88128e-05
0.000607094 -1.53061e-06 -2.53395e-07
-1.53061e-06 9.30615e-06 -8.59986e-09
-2.53395e-07 -8.59986e-09 -4.26337e-05
0.00138051 2.28569e-05 -4.75838e-06
2.28569e-05 0.000449141 5.51279e-06
-4.75838e-06 5.51279e-06 0.000436889
0.00059451 -2.19862e-05 9.63355e-07
-2.19862e-05 8.80239e-06 -2.09942e-06
9.63355e-07 -2.09942e-06 -4.4825e-05
0.000954265 1.16821e-05 -2.68207e-06
1.16821e-05 0.000195949 7.5379e-07
-2.68207e-06 7.5379e-07 0.000182215
0.000769466 1.46446e-05 -1.33654e-07
1.46446e-05 8.3732e-05 2.01555e-06
-1.33654e-07 2.01555e-06 9.14266e-05
0.000553696 3.09564e-06 6.62309e-07
3.09564e-06 -4.22429e-05 -3.76234e-06
6.62309e-07 -3.76234e-06 -5.79233e-05
0.0023747 1.35358e-05 4.16885e-06
1.35358e-05 0.00104011 5.22066e-08
4.16885e-06 5.22066e-08 0.0010556
0.00237009 1.89491e-06 -5.4705e-07
1.89491e-06 0.00103715 -5.25554e-06
-5.4705e-07 -5.25554e-06 0.00105277
0.000997992 7.21648e-05 -1.04235e-06
7.21648e-05 0.000273416 -6.57475e-07
-1.04235e-06 -6.57475e-07 0.000193376
0.00060932 3.47284e-05 -1.13812e-06
3.47284e-05 1.53905e-05 -1.93932e-06
-1.13812e-06 -1.93932e-06 -2.60512e-05
0.000644689 -8.19013e-06 6.33936e-07
-8.19013e-06 6.872e-05 8.83249e-07
6.33936e-07 8.83249e-07 -1.25605e-05
0.000598771 3.07874e-06 1.99728e-07
3.07874e-06 -2.20339e-05 -3.30845e-06
1.99728e-07 -3.30845e-06 -2.87811e-05
0.00060157 -1.15591e-05 2.01705e-07
-1.15591e-05 8.01327e-06 -2.75681e-08
2.01705e-07 -2.75681e-08 -3.08457e-05
0.000619628 -3.13038e-05 -1.45231e-06
-3.13038e-05 1.63179e-05 1.32938e-06
-1.45231e-06 1.32938e-06 -2.29015e-05
0.000581155 7.93186e-06 -2.08319e-07
7.93186e-06 -3.2197e-05 -2.16328e-08
-2.08319e-07 -2.16328e-08 -3.88514e-05
0.00201655 1.41608e-05 2.92512e-06
1.41608e-05 0.000827067 -4.63061e-06
2.92512e-06 -4.63061e-06 0.000846136
0.00115379 2.07497e-05 -6.80711e-07
2.07497e-05 0.000309788 1.84186e-06
-6.80711e-07 1.84186e-06 0.0003059
0.00140232 2.28984e-05 8.96707e-07
2.28984e-05 0.000462645 1.32113e-08
8.96707e-07 1.32113e-08 0.000477518
0.000864752 2.72099e-05 -1.28308e-05
2.72099e-05 0.00014664 7.03729e-06
-1.28308e-05 7.03729e-06 0.000156515
-0.00834401 0.000405685 0.000210952
0.000405685 -0.00364222 4.13367e-06
0.000210952 4.13367e-06 -0.00457752
-0.00194638 4.5359e-05 0.000260832
4.5359e-05 0.0020199 1.81576e-06
0.000260832 1.81576e-06 0.000414643
0.0044785 0.000226004 -0.000221976
0.000226004 0.0002558 -2.02032e-05
-0.000221976 -2.02032e-05 0.000619078
0.00047013 4.45044e-05 2.98882e-05
4.45044e-05 -0.000973745 -8.84716e-06
2.98882e-05 -8.84716e-06 -0.000925791
0.00152535 -2.87135e-05 1.84835e-05
-2.87135e-05 -0.000170321 -7.77571e-07
1.84835e-05 -7.77571e-07 -0.000187907
0.000209527 5.34939e-05 -9.89109e-06
5.34939e-05 -0.000764385 -6.99703e-06
-9.89109e-06 -6.99703e-06 -0.000708071
0.00261012 -0.000116909 -1.10078e-06
-0.000116909 0.000258691 4.10972e-06
-1.10078e-06 4.10972e-06 0.000222915
0.00919609 0.000120263 5.21429e-05
0.000120263 0.00139988 -3.19686e-05
5.21429e-05 -3.19686e-05 0.000374685
-0.00324054 0.00111566 -2.55839e-05
0.00111566 -0.000785076 -1.38568e-05
-2.55839e-05 -1.38568e-05 -0.00203815
-0.000933383 0.00215863 -0.000133303
0.00215863 0.000391316 6.8235e-05
-0.000133303 6.8235e-05 0.00144588
0.00186984 -0.000245764 6.31682e-05
-0.000245764 -0.000659749 -2.68714e-06
6.31682e-05 -2.68714e-06 -0.000721271
0.0123971 -0.000395564 9.82334e-05
-0.000395564 0.00337738 -3.26279e-05
9.82334e-05 -3.26279e-05 0.00186945
0.00336135 0.0020813 0.000135061
0.0020813 0.000308422 -0.000263354
0.000135061 -0.000263354 0.000672573
0.00675449 0.00153476 -0.000207183
0.00153476 0.000933909 0.000129183
-0.000207183 0.000129183 0.000906593
0.000702963 8.43464e-05 -1.88384e-06
8.43464e-05 0.00013075 1.47523e-06
-1.88384e-06 1.47523e-06 3.20725e-06
0.000507881 1.54452e-05 -1.6723e-07
1.54452e-05 -1.10563e-05 -7.47901e-07
-1.6723e-07 -7.47901e-07 -0.000101321
0.000677003 -8.70964e-05 -1.01903e-06
-8.70964e-05 8.8971e-05 9.0382e-07
-1.01903e-06 9.0382e-07 8.14807e-06
0.00056149 -6.46888e-06 5.16488e-07
-6.46888e-06 2.42261e-05 -3.67354e-07
5.16488e-07 -3.67354e-07 -7.21915e-05
0.000639628 5.91996e-05 9.30851e-07
5.91996e-05 9.06865e-05 1.43484e-06
9.30851e-07 1.43484e-06 -2.00686e-05
0.000868065 6.85795e-05 1.33207e-07
6.85795e-05 0.000228593 2.077e-06
1.33207e-07 2.077e-06 9.8979e-05
0.000752732 8.92296e-05 1.61335e-06
8.92296e-05 0.000145694 1.87737e-06
1.61335e-06 1.87737e-06 3.08227e-05
0.000645531 1.54172e-05 2.73013e-06
1.54172e-05 6.6382e-05 3.52317e-08
2.73013e-06 3.52317e-08 -4.60016e-05
0.000699487 -2.26226e-05 1.15064e-06
-2.26226e-05 0.000116421 -9.23185e-07
1.15064e-06 -9.23185e-07 7.70985e-06
0.000524006 -8.24975e-06 -5.61558e-07
-8.24975e-06 -4.9265e-06 -3.81091e-07
-5.61558e-07 -3.81091e-07 -9.57105e-05
0.00158478 -0.000205082 1.91358e-05
-0.000205082 -0.000187462 -1.29865e-06
1.91358e-05 -1.29865e-06 -0.000121011
0.00141807 -0.000373273 2.26718e-05
-0.000373273 -0.000306871 -3.33934e-06
2.26718e-05 -3.33934e-06 -0.000307883
5.48275e-05 -0.000415011 1.33987e-05
-0.000415011 -0.000831229 3.60999e-06
1.33987e-05 3.60999e-06 -0.000975688
0.000274592 -0.000358106 3.85923e-06
-0.000358106 -0.000339687 -1.59879e-06
3.85923e-06 -1.59879e-06 -0.000576193
0.00223736 -0.000292797 1.52031e-06
-0.000292797 0.00114229 7.76636e-06
1.52031e-06 7.76636e-06 0.000777252
0.00106221 -0.000194093 2.27026e-06
-0.000194093 0.000391738 -1.29716e-06
2.27026e-06 -1.29716e-06 0.000169462
0.00100567 -9.08786e-05 -2.39498e-07
-9.08786e-05 0.000272521 -2.73812e-07
-2.39498e-07 -2.73812e-07 0.000162553
0.000703668 2.04351e-05 -1.50568e-06
2.04351e-05 0.000124818 1.67429e-06
-1.50568e-06 1.67429e-06 7.15035e-06
0.00193735 -0.000265369 6.1282e-06
-0.000265369 -1.6621e-05 -3.02665e-06
6.1282e-06 -3.02665e-06 2.18671e-05
0.000690188 -6.42865e-05 -2.95312e-07
-6.42865e-05 0.000124395 -2.88605e-07
-2.95312e-07 -2.88605e-07 -2.09058e-05
0.00031637 -8.64721e-05 7.52772e-07
-8.64721e-05 -5.75536e-05 -1.68185e-06
7.52772e-07 -1.68185e-06 -0.000221764
0.00217766 -0.000513521 7.20695e-06
-0.000513521 0.000216321 -6.2415e-07
7.20695e-06 -6.2415e-07 0.000186242
0.00127821 -0.000567679 6.79511e-07
-0.000567679 -9.89045e-05 4.10512e-06
6.79511e-07 4.10512e-06 -0.000268957
0.0005169 -0.000343943 7.85905e-06
-0.000343943 -8.54694e-05 -5.66625e-06
7.85905e-06 -5.66625e-06 -0.000331881
0.00149468 -0.000157919 -5.55717e-07
-0.000157919 0.000750111 -3.83624e-06
-5.55717e-07 -3.83624e-06 0.000425461
0.00205693 -0.000419958 -2.8521e-05
-0.000419958 0.00042971 4.78625e-06
-2.8521e-05 4.78625e-06 0.000155785
0.00147068 -0.000446547 -3.99507e-05
-0.000446547 0.00011896 8.48265e-06
-3.99507e-05 8.48265e-06 4.10077e-05
1.57703e-05 -0.000218418 -2.41473e-05
-0.000218418 -0.00020708 3.69656e-05
-2.41473e-05 3.69656e-05 -0.000489015
-0.000274892 -4.00285e-06 -2.81979e-07
-4.00285e-06 -0.000429948 1.99207e-06
-2.81979e-07 1.99207e-06 -0.000577635
0.00038745 -0.000115096 2.4632e-06
-0.000115096 -2.33563e-05 -5.9292e-07
2.4632e-06 -5.9292e-07 -0.000189733
0.000725083 -9.50928e-05 3.60426e-06
-9.50928e-05 0.00025232 -4.02263e-06
3.60426e-06 -4.02263e-06 8.07845e-06
3.32014e-05 0.000273699 -0.000162286
0.000273699 0.00380125 5.62177e-06
-0.000162286 5.62177e-06 0.00196032
0.00174503 -0.00042862 1.58587e-05
-0.00042862 0.00139769 2.4016e-05
1.58587e-05 2.4016e-05 0.00134434
0.000932265 0.000719818 -6.30931e-05
0.000719818 -0.00311557 8.18572e-06
-6.30931e-05 8.18572e-06 -0.00360635
0.000671887 0.0001595 6.04856e-06
0.0001595 0.000130946 1.72717e-06
6.04856e-06 1.72717e-06 -1.09378e-05
0.000922177 0.00027249 6.31234e-06
0.00027249 0.000198785 8.77121e-06
6.31234e-06 8.77121e-06 -3.11091e-05
0.00292958 0.000438246 2.7773e-05
0.000438246 0.000706275 1.13539e-05
2.7773e-05 1.13539e-05 0.000732024
0.00220101 0.00050434 1.83992e-05
0.00050434 0.000696982 1.32012e-05
1.83992e-05 1.32012e-05 0.000410761
0.00717473 -0.000857291 7.30492e-05
-0.000857291 0.00263156 4.04e-05
7.30492e-05 4.04e-05 0.0028303
0.00274082 6.33087e-05 -0.000153717
6.33087e-05 -0.00185461 -9.82126e-06
-0.000153717 -9.82126e-06 -0.00357386
0.00293738 0.00126962 -7.09393e-05
0.00126962 -0.000381612 -1.29761e-05
-7.09393e-05 -1.29761e-05 -0.00106114
0.00042675 0.000266572 2.45744e-05
0.000266572 -0.000168347 -2.33878e-05
2.45744e-05 -2.33878e-05 -0.000157587
-0.00342241 -0.000985595 -0.000108494
-0.000985595 -0.000878157 -0.000136543
-0.000108494 -0.000136543 -0.00139391
-0.000704519 -0.000893508 -9.70657e-05
-0.000893508 0.00147979 -8.71152e-06
-9.70657e-05 -8.71152e-06 -0.000696181
0.00960308 -0.00187093 0.000226772
-0.00187093 0.00119603 0.00017193
0.000226772 0.00017193 0.00230859
0.000630435 0.000125372 6.60698e-06
0.000125372 0.000128312 -2.20561e-06
6.60698e-06 -2.20561e-06 -7.70551e-06
-0.00208927 8.12016e-05 -8.47663e-05
8.12016e-05 0.00214104 -2.42608e-05
-8.47663e-05 -2.42608e-05 -0.000234201
0.00357839 0.000361773 -2.00162e-05
0.000361773 0.00176363 -7.67866e-05
-2.00162e-05 -7.67866e-05 -0.00109994
0.0013526 0.000410927 -4.58925e-06
0.000410927 0.00015326 4.73551e-06
-4.58925e-06 4.73551e-06 0.000109554
0.000519231 0.000284394 1.23418e-06
0.000284394 6.69128e-05 2.08668e-06
1.23418e-06 2.08668e-06 -0.00018091
-0.000487142 0.000274508 1.90824e-05
0.000274508 -0.00031592 -3.80611e-05
1.90824e-05 -3.80611e-05 -0.000604571
0.00535821 0.00150062 -8.23325e-06
0.00150062 0.00184049 6.56238e-06
-8.23325e-06 6.56238e-06 0.00121776
0.011657 0.000894371 5.96548e-05
0.000894371 0.00403225 2.20444e-05
5.96548e-05 2.20444e-05 0.00202997
0.00409312 -0.00131822 2.49856e-05
-0.00131822 -0.00031357 -4.45487e-05
2.49856e-05 -4.45487e-05 -0.000888186
0.00927116 -0.00120633 7.44943e-06
-0.00120633 0.00120068 -3.36273e-05
7.44943e-06 -3.36273e-05 0.00236591
0.000768282 0.00019617 -9.7572e-06
0.00019617 0.000260528 -1.02686e-05
-9.7572e-06 -1.02686e-05 0.000124224
0.00278086 7.04161e-05 -0.00011705
7.04161e-05 0.00102417 -3.09293e-05
-0.00011705 -3.09293e-05 -0.000772723
-5.8327e-06 9.29185e-05 -3.44311e-05
9.29185e-05 9.35778e-05 -9.36459e-05
-3.44311e-05 -9.36459e-05 -0.00147915
-0.000922422 7.77797e-05 -1.13623e-05
7.77797e-05 -0.000426616 -1.80363e-05
-1.13623e-05 -1.80363e-05 -0.000588097
0.00153861 0.000370731 -4.09682e-05
0.000370731 0.00090211 4.205e-05
-4.09682e-05 4.205e-05 0.000193357
0.00965263 0.00129499 4.44969e-05
0.00129499 0.00385185 1.54104e-06
4.44969e-05 1.54104e-06 0.000816516
-0.00681605 -0.00192886 -4.18999e-05
-0.00192886 -0.0036442 0.000122055
-4.18999e-05 0.000122055 -0.00579743
0.00762275 0.00041346 1.79946e-05
0.00041346 -0.000927774 -0.000177642
1.79946e-05 -0.000177642 0.00101815
0.000980919 0.00010687 2.23885e-06
0.00010687 0.000268587 6.54728e-06
2.23885e-06 6.54728e-06 0.000178392
0.00103837 0.000127351 -5.08767e-06
0.000127351 0.000384302 -1.36411e-06
-5.08767e-06 -1.36411e-06 0.000273826
0.000335799 8.1553e-05 -2.24945e-06
8.1553e-05 0.000139409 -3.79935e-06
-2.24945e-06 -3.79935e-06 -3.93198e-05
0.000765816 7.90444e-05 -2.47124e-06
7.90444e-05 0.000138321 -9.00048e-07
-2.47124e-06 -9.00048e-07 1.80911e-05
0.000864858 -2.74691e-05 -8.78494e-07
-2.74691e-05 0.00019715 1.25837e-06
-8.78494e-07 1.25837e-06 6.83331e-05
0.000608682 3.88222e-05 8.95488e-07
3.88222e-05 2.89087e-05 2.17722e-06
8.95488e-07 2.17722e-06 -7.51688e-05
0.000130682 3.47535e-05 1.83117e-06
3.47535e-05 -0.000176708 2.78685e-06
1.83117e-06 2.78685e-06 -0.000278353
0.000827046 -3.84788e-06 1.07762e-06
-3.84788e-06 0.000167449 1.43593e-07
1.07762e-06 1.43593e-07 3.45569e-05
0.000854899 2.56966e-05 1.95697e-07
2.56966e-05 0.000188961 -9.62874e-07
1.95697e-07 -9.62874e-07 7.39258e-05
0.000251942 -8.35764e-06 7.72259e-07
-8.35764e-06 1.99549e-05 1.29826e-06
7.72259e-07 1.29826e-06 -0.000129228
-0.00079859 5.13105e-06 -2.59313e-06
5.13105e-06 -0.000372865 -4.8389e-07
-2.59313e-06 -4.8389e-07 -0.000592298
0.000954075 -5.29461e-06 -2.425e-06
-5.29461e-06 0.000375934 -7.11953e-06
-2.425e-06 -7.11953e-06 0.000241103
0.000966413 4.34998e-05 -1.64965e-06
4.34998e-05 0.000262217 -3.972e-06
-1.64965e-06 -3.972e-06 0.000128104
0.000885928 -0.000107463 1.65621e-06
-0.000107463 0.000200701 8.40827e-07
1.65621e-06 8.40827e-07 8.16957e-05
0.000751703 7.62219e-06 -3.82691e-07
7.62219e-06 0.000119448 8.15035e-09
-3.82691e-07 8.15035e-09 1.87354e-05
0.000646063 -5.4856e-05 -1.76911e-06
-5.4856e-05 6.10325e-05 3.17347e-06
-1.76911e-06 3.17347e-06 -2.92124e-05
0.000496826 -3.28184e-05 1.79435e-06
-3.28184e-05 -1.45524e-05 1.4115e-06
1.79435e-06 1.4115e-06 -0.000122604
0.0007172 9.28703e-06 2.90049e-07
9.28703e-06 0.000104971 5.85093e-09
2.90049e-07 5.85093e-09 3.78163e-06
0.000606335 -2.44411e-05 -7.17153e-07
-2.44411e-05 3.4738e-05 -1.55209e-08
-7.17153e-07 -1.55209e-08 -5.23585e-05
0.000954267 -2.02144e-05 -3.21836e-07
-2.02144e-05 0.000221621 -2.88909e-06
-3.21836e-07 -2.88909e-06 0.0001298
7.97517e-05 -3.88331e-05 3.31329e-06
-3.88331e-05 -0.000214994 -4.42102e-06
3.31329e-06 -4.42102e-06 -0.000294643
0.000276198 -9.31244e-05 1.52901e-06
-9.31244e-05 -0.000243581 -7.58196e-07
1.52901e-06 -7.58196e-07 -0.000338217
0.000833696 -5.78491e-05 -2.62853e-06
-5.78491e-05 0.000140201 -3.85425e-07
-2.62853e-06 -3.85425e-07 3.98492e-05
0.000522109 -9.9341e-05 5.11028e-06
-9.9341e-05 -2.51395e-05 3.35734e-06
5.11028e-06 3.35734e-06 -0.000167354
0.00119109 -0.000238951 -1.74514e-06
-0.000238951 0.000328285 7.49575e-06
-1.74514e-06 7.49575e-06 0.000106548
0.00128619 -0.000115079 1.66398e-06
-0.000115079 0.000454813 -1.27894e-06
1.66398e-06 -1.27894e-06 0.000318168
0.000289291 -7.19083e-05 -2.10151e-06
-7.19083e-05 -0.000132466 -4.80075e-06
-2.10151e-06 -4.80075e-06 -0.000283601
0.000643134 -6.43054e-06 -2.59969e-07
-6.43054e-06 5.92112e-05 -8.71017e-08
-2.59969e-07 -8.71017e-08 -4.77628e-05
0.000365052 4.24538e-07 3.95788e-07
4.24538e-07 -9.64191e-05 -1.58087e-08
3.95788e-07 -1.58087e-08 -0.000197322
0.000851136 -1.52941e-05 -6.34775e-07
-1.52941e-05 0.000176821 8.74083e-07
-6.34775e-07 8.74083e-07 7.136e-05
0.00073767 -3.57921e-05 -5.65165e-07
-3.57921e-05 0.000120436 6.16956e-07
-5.65165e-07 6.16956e-07 1.87277e-05
0.000622045 -1.74096e-05 -6.23541e-07
-1.74096e-05 3.4277e-05 8.88887e-07
-6.23541e-07 8.88887e-07 -4.34941e-05
0.000834279 -5.44339e-05 -8.39653e-08
-5.44339e-05 0.000191706 -5.78801e-07
-8.39653e-08 -5.78801e-07 7.96166e-05
0.000680716 -4.99901e-05 -5.78829e-07
-4.99901e-05 7.41765e-05 -3.03585e-08
-5.78829e-07 -3.03585e-08 -7.37086e-06
0.000596613 2.99951e-05 -1.96267e-06
2.99951e-05 6.72106e-07 1.86031e-06
-1.96267e-06 1.86031e-06 -5.24167e-05
0.00071447 -8.11133e-05 1.86303e-06
-8.11133e-05 9.6764e-05 -1.15044e-06
1.86303e-06 -1.15044e-06 1.12934e-05
0.00064702 -1.01843e-05 -2.61669e-07
-1.01843e-05 2.81659e-05 3.93617e-08
-2.61669e-07 3.93617e-08 -2.31225e-05
0.00137184 3.26298e-05 -7.36128e-06
3.26298e-05 0.000444009 5.48515e-06
-7.36128e-06 5.48515e-06 0.000431363
0.000619833 -2.92532e-05 1.97274e-06
-2.92532e-05 1.87901e-05 -2.17708e-06
1.97274e-06 -2.17708e-06 -3.45032e-05
0.000959292 2.01032e-05 -3.59397e-06
2.01032e-05 0.000198148 7.13554e-07
-3.59397e-06 7.13554e-07 0.00018409
0.000778813 2.32587e-05 -4.3479e-07
2.32587e-05 9.21549e-05 2.09859e-06
-4.3479e-07 2.09859e-06 9.86604e-05
0.000549681 8.70574e-06 4.96462e-07
8.70574e-06 -4.58642e-05 -3.87802e-06
4.96462e-07 -3.87802e-06 -6.14392e-05
0.00156127 2.29215e-05 5.68017e-06
2.29215e-05 0.000556209 -1.49044e-06
5.68017e-06 -1.49044e-06 0.00056759
0.00235532 1.59824e-05 4.22308e-06
1.59824e-05 0.00102874 -5.15153e-06
4.22308e-06 -5.15153e-06 0.00104425
0.000702498 8.4604e-06 1.30794e-06
8.4604e-06 8.95214e-05 -1.4609e-06
1.30794e-06 -1.4609e-06 6.36806e-06
0.000651337 3.01064e-05 -6.32652e-07
3.01064e-05 3.75479e-05 -1.84016e-06
-6.32652e-07 -1.84016e-06 -5.70916e-06
0.000699932 -3.10106e-06 1.15379e-06
-3.10106e-06 9.49425e-05 3.10977e-07
1.15379e-06 3.10977e-07 1.53085e-05
0.000587221 -2.56705e-06 3.35382e-07
-2.56705e-06 -2.81491e-05 -3.46812e-06
3.35382e-07 -3.46812e-06 -3.57689e-05
0.000601355 2.34328e-05 6.94053e-08
2.34328e-05 9.11745e-06 -2.5927e-08
6.94053e-08 -2.5927e-08 -3.13702e-05
0.000657981 -8.84327e-05 -3.4956e-06
-8.84327e-05 7.09969e-05 1.39161e-06
-3.4956e-06 1.39161e-06 -6.0433e-06
0.00203058 1.60565e-06 -1.80514e-06
1.60565e-06 0.000834092 -4.73713e-06
-1.80514e-06 -4.73713e-06 0.000853433
0.000582322 2.70731e-06 -1.8111e-07
2.70731e-06 -3.14537e-05 -8.83317e-09
-1.8111e-07 -8.83317e-09 -3.81756e-05
0.000596378 -2.01007e-05 -1.45334e-06
-2.01007e-05 3.80744e-06 1.61467e-06
-1.45334e-06 1.61467e-06 -3.44245e-05
0.000564598 7.68891e-06 -4.98836e-07
7.68891e-06 -4.20285e-05 3.19751e-06
-4.98836e-07 3.19751e-06 -4.86387e-05
0.00203595 1.56202e-05 -3.83243e-06
1.56202e-05 0.00083879 -4.68914e-08
-3.83243e-06 -4.68914e-08 0.000857739
0.00202571 2.76039e-05 -9.58481e-06
2.76039e-05 0.00083497 4.3428e-06
-9.58481e-06 4.3428e-06 0.000853298
-0.00432965 -0.000393034 -5.23852e-05
-0.000393034 0.00159175 1.94388e-05
-5.23852e-05 1.94388e-05 -0.000706011
-0.000673873 0.000514034 -8.13879e-05
0.000514034 -0.000406256 2.0125e-05
-8.13879e-05 2.0125e-05 -0.000990269
0.00368816 -0.00039881 -0.000257707
-0.00039881 0.00115539 0.000170224
-0.000257707 0.000170224 -0.00134839
-0.00297062 0.000100222 0.000364178
0.000100222 0.00203708 -0.000157533
0.000364178 -0.000157533 0.000428335
0.00028596 0.000267491 -2.19801e-05
0.000267491 -0.00127927 3.86112e-06
-2.19801e-05 3.86112e-06 -0.00125894
0.00244754 -0.000170863 9.97509e-05
-0.000170863 9.18976e-05 -8.88947e-06
9.97509e-05 -8.88947e-06 8.30993e-05
0.00103849 -0.000411142 -1.97969e-05
-0.000411142 -0.00222672 -6.36644e-05
-1.97969e-05 -6.36644e-05 -0.00367757
0.0104937 0.00110882 -0.000125764
0.00110882 0.00512391 -1.942e-05
-0.000125764 -1.942e-05 0.00444212
-0.00763817 0.00241603 -0.000623674
0.00241603 -0.00345339 0.000481442
-0.000623674 0.000481442 -0.00186201
0.00277811 -0.000115442 -4.01247e-06
-0.000115442 -0.000249205 -4.99124e-06
-4.01247e-06 -4.99124e-06 -0.000335296
0.00490992 -0.000468585 5.20243e-05
-0.000468585 -0.000187944 -6.04077e-05
5.20243e-05 -6.04077e-05 -0.00232212
0.0110706 0.00202597 -8.33669e-05
0.00202597 0.00343611 -8.03286e-05
-8.33669e-05 -8.03286e-05 0.00385494
0.00391171 0.00149599 -7.07151e-05
0.00149599 -0.00106846 0.000178936
-7.07151e-05 0.000178936 -0.000948937
0.00307319 -0.000702058 -6.98495e-05
-0.000702058 -0.000566002 1.90957e-05
-6.98495e-05 1.90957e-05 -0.000546147
0.00295043 -0.000977484 0.000202629
-0.000977484 0.000152563 -0.000129392
0.000202629 -0.000129392 -0.00317516
-0.00436927 0.00112924 -6.85969e-05
0.00112924 -0.00407316 -0.000332616
-6.85969e-05 -0.000332616 -0.00434815
0.00372863 0.000859944 -8.82115e-05
0.000859944 -0.00298048 6.16047e-06
-8.82115e-05 6.16047e-06 -0.00177205
0.00101293 -2.32476e-05 7.38145e-07
-2.32476e-05 0.000323687 3.73596e-06
7.38145e-07 3.73596e-06 0.000175993
0.000686858 7.20269e-05 -1.76249e-06
7.20269e-05 0.000114391 -1.24182e-06
-1.76249e-06 -1.24182e-06 -6.10985e-06
0.000641167 6.43933e-05 1.6695e-08
6.43933e-05 6.33152e-05 -1.53089e-06
1.6695e-08 -1.53089e-06 -2.29532e-05
0.000648315 6.25055e-05 3.28278e-06
6.25055e-05 9.95014e-05 6.58545e-07
3.28278e-06 6.58545e-07 -9.92264e-06
0.000643148 4.66909e-05 7.50639e-07
4.66909e-05 8.18772e-05 1.26511e-06
7.50639e-07 1.26511e-06 -6.24938e-05
0.000731551 6.73457e-05 -7.79984e-08
6.73457e-05 0.000143286 1.3606e-06
-7.79984e-08 1.3606e-06 1.86796e-05
0.000609879 2.74938e-05 -8.1755e-08
2.74938e-05 6.22383e-05 -7.03841e-08
-8.1755e-08 -7.03841e-08 -4.94262e-05
0.000882531 0.000127403 1.13876e-06
0.000127403 0.000229889 1.68824e-06
1.13876e-06 1.68824e-06 9.5294e-05
0.000835548 8.00047e-05 -8.54158e-08
8.00047e-05 0.000201627 3.6684e-07
-8.54158e-08 3.6684e-07 7.50124e-05
0.000515 -6.40323e-06 -3.05551e-06
-6.40323e-06 6.75963e-06 -1.57932e-06
-3.05551e-06 -1.57932e-06 -0.000103162
0.000680209 -0.000207351 3.82828e-05
-0.000207351 -0.000665104 -1.85845e-05
3.82828e-05 -1.85845e-05 -0.000609035
0.000953336 -0.00045043 3.00458e-05
-0.00045043 -0.000435454 -4.65762e-06
3.00458e-05 -4.65762e-06 -0.000464924
0.00190091 -0.000630432 1.53664e-05
-0.000630432 0.000212673 1.14904e-06
1.53664e-05 1.14904e-06 3.74886e-05
0.000423862 -0.000377565 5.7329e-06
-0.000377565 -0.000147141 -1.11967e-05
5.7329e-06 -1.11967e-05 -0.000426222
0.00192444 -0.000193217 -2.27278e-06
-0.000193217 0.000947884 1.43248e-05
-2.27278e-06 1.43248e-05 0.000656781
0.000643929 -9.68446e-05 -1.16181e-06
-9.68446e-05 0.000137129 2.99648e-06
-1.16181e-06 2.99648e-06 -3.34785e-05
0.000477517 7.33284e-05 -1.01529e-07
7.33284e-05 4.48966e-06 -2.75234e-06
-1.01529e-07 -2.75234e-06 -0.000142275
0.000691296 -5.6495e-05 -5.42819e-07
-5.6495e-05 0.000137554 3.03789e-06
-5.42819e-07 3.03789e-06 -2.45493e-05
0.001409 -0.000340438 1.38807e-06
-0.000340438 1.21962e-05 -1.19145e-06
1.38807e-06 -1.19145e-06 -0.000146275
0.000702326 -2.31894e-05 1.33326e-08
-2.31894e-05 0.000149937 1.1439e-06
1.33326e-08 1.1439e-06 -1.72779e-05
0.00147438 -0.000147381 -2.84307e-07
-0.000147381 0.000685356 -2.63149e-07
-2.84307e-07 -2.63149e-07 0.000432239
0.00150843 -0.000462256 1.98333e-06
-0.000462256 9.82885e-05 1.24064e-06
1.98333e-06 1.24064e-06 3.55007e-05
0.00089315 -0.000312435 -1.64208e-05
-0.000312435 0.00025539 4.6509e-06
-1.64208e-05 4.6509e-06 -2.4335e-05
0.000883282 -0.000548506 -1.0864e-05
-0.000548506 -0.000309273 -2.43329e-05
-1.0864e-05 -2.43329e-05 -0.000297705
0.00113809 -0.000268839 -1.78329e-05
-0.000268839 0.000414092 1.73443e-05
-1.78329e-05 1.73443e-05 0.000289359
-0.000950611 -3.381e-05 1.69246e-06
-3.381e-05 -0.000622865 2.14576e-05
1.69246e-06 2.14576e-05 -0.000909307
0.000700842 1.02467e-05 -8.11309e-07
1.02467e-05 0.000119267 -4.41518e-06
-8.11309e-07 -4.41518e-06 -2.92978e-05
0.000627155 4.11023e-05 2.36913e-06
4.11023e-05 0.000190266 -2.77576e-06
2.36913e-06 -2.77576e-06 -3.39322e-05
0.00173691 -4.96629e-05 -1.90189e-05
-4.96629e-05 0.00113202 -4.98495e-06
-1.90189e-05 -4.98495e-06 -0.000575681
-0.00264156 0.000106391 -0.000130224
0.000106391 0.00290062 -5.45681e-06
-0.000130224 -5.45681e-06 0.000663847
-0.00972936 -0.00061371 -0.000306628
-0.00061371 -0.00515825 3.33562e-06
-0.000306628 3.33562e-06 -0.00496071
-0.000203833 9.37037e-05 6.12747e-06
9.37037e-05 -0.000327861 -2.08266e-06
6.12747e-06 -2.08266e-06 -0.000476219
3.71213e-05 0.000181674 2.43776e-06
0.000181674 -0.000175732 4.71483e-06
2.43776e-06 4.71483e-06 -0.000418443
0.00152334 0.000391975 1.93762e-05
0.000391975 0.000241594 7.53924e-06
1.93762e-05 7.53924e-06 0.000205187
-0.00392908 0.0004785 -1.85654e-05
0.0004785 0.00143767 1.58675e-05
-1.85654e-05 1.58675e-05 -0.00105808
0.00138965 0.000813197 -9.25522e-05
0.000813197 -5.74503e-05 -9.31612e-05
-9.25522e-05 -9.31612e-05 -0.00340572
0.00293209 0.00110827 0.000160062
0.00110827 0.000472315 3.87892e-05
0.000160062 3.87892e-05 2.4856e-05
0.000270346 0.000329763 6.7068e-06
0.000329763 -6.3375e-05 -2.70052e-05
6.7068e-06 -2.70052e-05 -0.000127754
0.0127457 -0.00146436 -4.61207e-07
-0.00146436 0.00369635 -0.000115311
-4.61207e-07 -0.000115311 0.00332138
0.00409371 0.000394129 0.000147529
0.000394129 0.00190151 7.63897e-05
0.000147529 7.63897e-05 -0.00105653
0.00944659 -0.00106667 6.32541e-05
-0.00106667 0.00143957 1.68938e-05
6.32541e-05 1.68938e-05 0.00267624
0.000893062 0.000201828 1.65396e-06
0.000201828 0.000381927 -2.0781e-06
1.65396e-06 -2.0781e-06 0.000237642
0.00334636 8.47311e-05 1.02401e-05
8.47311e-05 0.00153231 -1.17338e-06
1.02401e-05 -1.17338e-06 3.39369e-05
0.000531271 0.000114671 1.58161e-05
0.000114671 0.0001211 1.0684e-05
1.58161e-05 1.0684e-05 -0.0014872
-0.000266266 0.000208046 -7.3577e-06
0.000208046 -0.00014688 -1.70719e-06
-7.3577e-06 -1.70719e-06 -0.000348604
0.00217783 0.000606591 -7.56304e-05
0.000606591 0.0010133 -3.87652e-05
-7.56304e-05 -3.87652e-05 0.000171136
0.00282675 0.00167833 7.9373e-05
0.00167833 0.000960522 5.82711e-05
7.9373e-05 5.82711e-05 -0.00226458
0.0058411 0.000163356 -1.06197e-05
0.000163356 -0.00243294 -0.000113295
-1.06197e-05 -0.000113295 -0.000163275
0.00211976 -0.00120903 -3.28734e-05
-0.00120903 0.00048071 -4.58184e-05
-3.28734e-05 -4.58184e-05 -0.00121674
0.000910994 0.000156764 -6.22485e-06
0.000156764 0.000587077 -1.19934e-05
-6.22485e-06 -1.19934e-05 0.000420299
0.000442486 -6.17115e-05 -4.40453e-06
-6.17115e-05 4.64748e-05 -7.82409e-06
-4.40453e-06 -7.82409e-06 5.58532e-05
0.00270496 1.54788e-05 2.93649e-05
1.54788e-05 0.000294618 -8.27446e-05
2.93649e-05 -8.27446e-05 -0.000854056
0.00383814 0.000896762 9.30805e-05
0.000896762 -0.00281626 -1.05251e-05
9.30805e-05 -1.05251e-05 -0.00177187
-0.000711499 0.000109129 -3.12975e-06
0.000109129 2.15863e-06 -1.85037e-05
-3.12975e-06 -1.85037e-05 -0.000516225
0.0105092 0.00127345 0.000128578
0.00127345 0.00513983 4.90926e-05
0.000128578 4.90926e-05 0.00147684
-0.00887662 -0.000345958 7.05914e-05
-0.000345958 -0.000546329 0.000198493
7.05914e-05 0.000198493 -0.00254847
0.00197354 0.000215617 1.78162e-05
0.000215617 0.0009364 9.53349e-06
1.78162e-05 9.53349e-06 0.000809254
0.000569874 0.000119071 -4.54119e-06
0.000119071 0.00024778 -6.18527e-07
-4.54119e-06 -6.18527e-07 5.98492e-05
0.00015313 7.16951e-05 -2.03576e-06
7.16951e-05 0.000218777 -2.32502e-06
-2.03576e-06 -2.32502e-06 3.22152e-06
0.000754794 0.000134668 6.98774e-07
0.000134668 0.000135701 1.27301e-06
6.98774e-07 1.27301e-06 -3.04278e-06
0.000716735 6.33864e-05 9.89173e-07
6.33864e-05 0.000103222 2.14178e-06
9.89173e-07 2.14178e-06 -7.54651e-06
0.000915984 1.03997e-07 7.05583e-06
1.03997e-07 0.00042079 6.64155e-06
7.05583e-06 6.64155e-06 0.000256561
0.000667644 4.46434e-05 -1.92215e-07
4.46434e-05 8.06875e-05 -2.58529e-07
-1.92215e-07 -2.58529e-07 -4.48603e-05
0.000803448 -2.10265e-05 -1.18686e-06
-2.10265e-05 0.000293982 -1.75753e-06
-1.18686e-06 -1.75753e-06 0.000156515
-0.000131262 2.94116e-05 4.58192e-06
2.94116e-05 -9.16479e-07 3.57292e-06
4.58192e-06 3.57292e-06 -0.000226733
0.000852797 9.04513e-06 -8.63039e-06
9.04513e-06 0.000481601 -8.00528e-06
-8.63039e-06 -8.00528e-06 0.000368985
0.000133267 -3.82221e-05 -3.85066e-06
-3.82221e-05 -0.000105349 -8.37329e-06
-3.85066e-06 -8.37329e-06 -0.000228122
0.000581055 -4.63502e-05 2.62022e-06
-4.63502e-05 2.26121e-05 3.81356e-06
2.62022e-06 3.81356e-06 -7.62899e-05
0.000786082 9.94878e-06 -7.94695e-07
9.94878e-06 0.000145625 1.12248e-07
-7.94695e-07 1.12248e-07 4.29617e-05
0.0008957 -1.85365e-05 -6.06206e-06
-1.85365e-05 0.000202901 4.13338e-06
-6.06206e-06 4.13338e-06 0.000116291
0.000692816 -4.62054e-05 3.39842e-06
-4.62054e-05 0.000133592 -1.40714e-07
3.39842e-06 -1.40714e-07 5.22146e-05
0.00061091 -1.05497e-05 -6.56088e-07
-1.05497e-05 2.72144e-05 1.93693e-07
-6.56088e-07 1.93693e-07 -6.60274e-05
0.000763724 -8.96671e-05 3.26969e-06
-8.96671e-05 0.000142844 -3.4603e-07
3.26969e-06 -3.4603e-07 4.69556e-05
0.000397634 -8.29672e-05 -2.43637e-06
-8.29672e-05 -0.000138055 -1.16118e-06
-2.43637e-06 -1.16118e-06 -0.000219899
-0.000150756 -0.000156183 7.98202e-06
-0.000156183 -0.000433584 9.52745e-07
7.98202e-06 9.52745e-07 -0.000612389
0.000916754 -8.29466e-05 -9.90191e-07
-8.29466e-05 0.000195206 9.9046e-07
-9.90191e-07 9.9046e-07 8.94021e-05
0.00114241 -0.000161852 -4.94656e-07
-0.000161852 0.000324169 2.6311e-06
-4.94656e-07 2.6311e-06 0.000169464
0.000743129 -0.000229103 -3.61669e-06
-0.000229103 2.47779e-05 4.94601e-06
-3.61669e-06 4.94601e-06 -0.000197141
0.000926604 -0.00022254 -4.2802e-06
-0.00022254 0.000134779 4.02849e-07
-4.2802e-06 4.02849e-07 -8.57187e-05
0.00102212 -0.000182232 -2.08284e-06
-0.000182232 0.000316668 4.11507e-06
-2.08284e-06 4.11507e-06 0.000136182
0.000387996 -0.000157471 1.94005e-06
-0.000157471 -0.000136484 -1.16759e-07
1.94005e-06 -1.16759e-07 -0.000342625
0.000885335 -7.04752e-05 1.16396e-06
-7.04752e-05 0.0002093 -5.26105e-08
1.16396e-06 -5.26105e-08 8.94547e-05
0.00104231 -0.000107897 -1.44599e-06
-0.000107897 0.000320819 -4.40994e-07
-1.44599e-06 -4.40994e-07 0.000180182
0.000470241 -9.35483e-05 3.00385e-06
-9.35483e-05 -1.3287e-05 -9.97073e-06
3.00385e-06 -9.97073e-06 -0.000162834
0.000949066 -2.34544e-05 -5.74375e-07
-2.34544e-05 0.00022978 -3.29962e-07
-5.74375e-07 -3.29962e-07 0.000124684
0.000495765 -7.6647e-06 3.11172e-07
-7.6647e-06 -1.75905e-05 -9.52639e-08
3.11172e-07 -9.52639e-08 -0.00012058
0.000619683 -5.74292e-06 -3.46373e-07
-5.74292e-06 3.41471e-05 6.42489e-07
-3.46373e-07 6.42489e-07 -4.85874e-05
0.000799643 -5.19925e-05 -1.28684e-07
-5.19925e-05 0.000166647 2.97241e-07
-1.28684e-07 2.97241e-07 5.61447e-05
0.000680812 -3.2061e-05 -1.26703e-07
-3.2061e-05 7.64762e-05 5.09274e-08
-1.26703e-07 5.09274e-08 -7.63686e-06
0.00059868 3.00672e-05 -5.53555e-07
3.00672e-05 6.94847e-06 1.88884e-06
-5.53555e-07 1.88884e-06 -4.97144e-05
0.000736234 -6.55808e-05 6.24702e-07
-6.55808e-05 0.000113877 -1.19383e-06
6.24702e-07 -1.19383e-06 2.67685e-05
0.000621193 2.13663e-05 -9.37943e-07
2.13663e-05 1.5624e-05 -5.61658e-08
-9.37943e-07 -5.61658e-08 -3.8148e-05
0.00133263 4.52001e-05 -8.36256e-06
4.52001e-05 0.000423874 3.64399e-06
-8.36256e-06 3.64399e-06 0.000410366
0.000653681 -2.20425e-05 2.26776e-06
-2.20425e-05 3.31361e-05 -2.17635e-06
2.26776e-06 -2.17635e-06 -1.89619e-05
0.000940992 2.94142e-05 -4.53093e-06
2.94142e-05 0.000187702 6.31277e-07
-4.53093e-06 6.31277e-07 0.000173238
0.000802516 3.19612e-05 -1.03966e-06
3.19612e-05 0.000109647 2.15035e-06
-1.03966e-06 2.15035e-06 0.000115011
0.000533274 1.57176e-05 8.15715e-07
1.57176e-05 -5.66891e-05 -4.08693e-06
8.15715e-07 -4.08693e-06 -7.23985e-05
0.00156949 3.4343e-05 7.72432e-06
3.4343e-05 0.000563882 -1.35295e-06
7.72432e-06 -1.35295e-06 0.000574186
0.00235286 3.05945e-05 7.88166e-06
3.05945e-05 0.00102901 -5.05915e-06
7.88166e-06 -5.05915e-06 0.00104391
0.000449458 4.97389e-06 8.62081e-07
4.97389e-06 -4.9311e-05 -6.65798e-07
8.62081e-07 -6.65798e-07 -0.00015111
0.000321749 3.61459e-06 -3.98186e-08
3.61459e-06 -0.000157466 -3.25337e-06
-3.98186e-08 -3.25337e-06 -0.000208692
0.000745956 1.8865e-05 3.2425e-08
1.8865e-05 0.000121042 1.18603e-07
3.2425e-08 1.18603e-07 3.34284e-05
0.000581988 -7.71158e-06 2.96958e-07
-7.71158e-06 -3.10176e-05 -3.64701e-06
2.96958e-07 -3.64701e-06 -4.03802e-05
0.000453401 3.70711e-06 1.1014e-06
3.70711e-06 -8.03337e-05 -7.58574e-08
1.1014e-06 -7.58574e-08 -0.000124377
0.000438384 -7.94792e-05 -1.36928e-06
-7.94792e-05 -5.86993e-05 7.97307e-07
-1.36928e-06 7.97307e-07 -0.000141122
0.0020923 -1.14287e-05 -6.17419e-06
-1.14287e-05 0.000870958 -4.78817e-06
-6.17419e-06 -4.78817e-06 0.000889733
0.000583245 -2.63971e-06 -1.06514e-07
-2.63971e-06 -3.06613e-05 -4.40274e-08
-1.06514e-07 -4.40274e-08 -3.81881e-05
0.000582497 -1.16294e-05 -1.54905e-06
-1.16294e-05 -3.37177e-06 1.80017e-06
-1.54905e-06 1.80017e-06 -4.29394e-05
0.00204269 2.96981e-06 -3.85354e-06
2.96981e-06 0.000841429 1.02576e-08
-3.85354e-06 1.02576e-08 0.000860715
0.000566751 2.47644e-06 -3.8363e-07
2.47644e-06 -4.03548e-05 3.29197e-06
-3.8363e-07 3.29197e-06 -4.70558e-05
0.00203393 1.70106e-05 -2.5563e-06
1.70106e-05 0.000837718 4.5359e-06
-2.5563e-06 4.5359e-06 0.000856612
0.00043063 -0.000183328 -9.64978e-05
-0.000183328 -0.000169333 2.88924e-05
-9.64978e-05 2.88924e-05 -0.00171949
0.00147624 0.000164552 -2.92175e-05
0.000164552 0.00352827 -7.48824e-06
-2.92175e-05 -7.48824e-06 0.00206367
0.00111011 -0.000339771 -0.000267869
-0.000339771 0.00203975 5.75814e-06
-0.000267869 5.75814e-06 0.00107878
0.000759516 8.02832e-05 1.81059e-06
8.02832e-05 0.000137006 5.76442e-07
1.81059e-06 5.76442e-07 6.42615e-06
0.00364661 -0.000255838 -3.25888e-05
-0.000255838 0.00232278 9.40625e-05
-3.25888e-05 9.40625e-05 0.00103378
0.00359673 -0.000447206 -9.69572e-05
-0.000447206 0.00121607 7.75479e-06
-9.69572e-05 7.75479e-06 -0.00154551
0.00236937 0.000700836 0.000186833
0.000700836 0.00328929 -0.000165086
0.000186833 -0.000165086 0.00214745
0.00385014 -0.000232708 2.62699e-05
-0.000232708 0.000152461 -3.328e-05
2.62699e-05 -3.328e-05 -0.000130947
0.0115572 -0.000428385 0.000115921
-0.000428385 0.0030959 -6.19269e-05
0.000115921 -6.19269e-05 0.00145431
-0.00209143 0.00164087 -0.000131868
0.00164087 -0.00363535 0.000151773
-0.000131868 0.000151773 -0.0029979
0.00561375 0.00162312 4.08487e-05
0.00162312 0.00020328 4.80822e-05
4.08487e-05 4.80822e-05 0.000131512
0.00489441 -0.000830699 -8.75058e-05
-0.000830699 0.00024459 -1.05714e-06
-8.75058e-05 -1.05714e-06 -0.000158528
0.0106592 -0.000840917 5.61559e-05
-0.000840917 0.00386392 -1.45294e-05
5.61559e-05 -1.45294e-05 0.00171768
0.0067589 0.00107446 6.85638e-05
0.00107446 0.000623107 -0.000125614
6.85638e-05 -0.000125614 0.000148666
0.00555718 0.000787272 -5.57516e-06
0.000787272 -0.00159002 1.2135e-05
-5.57516e-06 1.2135e-05 -0.000641651
0.0039526 -0.00128796 2.09912e-05
-0.00128796 0.00040213 1.98333e-06
2.09912e-05 1.98333e-06 -0.00040646
0.0113579 -0.00142558 9.53363e-05
-0.00142558 0.00536785 -4.97214e-05
9.53363e-05 -4.97214e-05 0.00167829
0.00363318 -0.000132951 6.74672e-05
-0.000132951 0.000467053 -0.000187648
6.74672e-05 -0.000187648 -5.78112e-05
0.00732916 0.00040671 -4.39856e-05
0.00040671 -0.000895413 0.000106561
-4.39856e-05 0.000106561 0.000945798
0.000673247 -2.25845e-05 8.36042e-07
-2.25845e-05 0.000109303 1.934e-06
8.36042e-07 1.934e-06 -4.30407e-05
0.00081904 -6.06634e-05 -1.61888e-07
-6.06634e-05 0.000213977 -5.13103e-08
-1.61888e-07 -5.13103e-08 6.15783e-05
0.000810294 9.55272e-05 -5.89e-07
9.55272e-05 0.00019233 -2.31799e-06
-5.89e-07 -2.31799e-06 6.95063e-05
0.000735974 4.48897e-05 6.89137e-07
4.48897e-05 0.000113643 2.4561e-06
6.89137e-07 2.4561e-06 -1.43638e-05
0.000818662 9.5835e-05 -5.27749e-07
9.5835e-05 0.000194693 7.38905e-07
-5.27749e-07 7.38905e-07 4.93919e-05
0.000890102 6.28469e-05 -1.44905e-06
6.28469e-05 0.000236043 7.61473e-09
-1.44905e-06 7.61473e-09 0.000112654
0.000987612 0.000118066 -9.25331e-07
0.000118066 0.000289318 -1.17778e-07
-9.25331e-07 -1.17778e-07 0.000155435
0.00096934 0.00012499 7.87318e-07
0.00012499 0.000291241 2.51279e-06
7.87318e-07 2.51279e-06 0.000158857
0.000327688 -0.000230781 4.94864e-05
-0.000230781 -0.000636402 -2.14003e-05
4.94864e-05 -2.14003e-05 -0.000650698
0.00175971 -0.000481073 9.80473e-06
-0.000481073 0.000205866 -1.18594e-05
9.80473e-06 -1.18594e-05 0.00015142
0.00087635 -0.000172819 -6.86014e-07
-0.000172819 0.000254327 -2.85821e-06
-6.86014e-07 -2.85821e-06 8.36229e-05
0.0019676 -0.00039651 1.8137e-05
-0.00039651 0.000838388 -2.17188e-05
1.8137e-05 -2.17188e-05 0.00056168
0.00222179 -0.000198482 -4.31539e-06
-0.000198482 0.00110899 6.23674e-06
-4.31539e-06 6.23674e-06 0.000851543
0.000984486 -7.43415e-05 -1.59557e-06
-7.43415e-05 0.000304961 -3.64773e-06
-1.59557e-06 -3.64773e-06 0.000137642
0.000591907 -4.17474e-06 7.70307e-07
-4.17474e-06 6.46503e-05 2.42189e-06
7.70307e-07 2.42189e-06 -8.85536e-05
0.000222266 -0.000506084 -6.36824e-06
-0.000506084 -0.000677446 -6.77426e-07
-6.36824e-06 -6.77426e-07 -0.000641315
0.00124778 5.08189e-05 1.99623e-07
5.08189e-05 0.000548898 5.99385e-07
1.99623e-07 5.99385e-07 0.000317671
0.000945711 -0.000169654 -1.50455e-05
-0.000169654 0.000400066 3.11789e-06
-1.50455e-05 3.11789e-06 0.000136719
0.000540643 -0.000189782 9.49316e-06
-0.000189782 4.32769e-05 4.37646e-06
9.49316e-06 4.37646e-06 -2.73487e-05
0.000920515 5.88303e-05 1.79077e-06
5.88303e-05 0.000231638 -2.75805e-06
1.79077e-06 -2.75805e-06 9.4684e-05
0.0012203 -0.000424916 1.88999e-05
-0.000424916 -2.81263e-05 -3.43875e-05
1.88999e-05 -3.43875e-05 0.000133428
-0.000247767 -0.0001098 1.04831e-05
-0.0001098 -0.000121192 2.32571e-05
1.04831e-05 2.32571e-05 -0.000229027
-0.00011761 3.96059e-05 2.12844e-06
3.96059e-05 -3.59139e-05 7.27677e-06
2.12844e-06 7.27677e-06 -0.000381763
0.00137357 0.000196478 1.78185e-06
0.000196478 0.000569476 -5.14527e-06
1.78185e-06 -5.14527e-06 0.000390816
0.000488491 -1.88896e-05 -4.16814e-06
-1.88896e-05 0.000703837 -9.11027e-06
-4.16814e-06 -9.11027e-06 6.91855e-05
0.00129796 -5.26848e-05 8.02921e-05
-5.26848e-05 0.000947074 -9.52773e-06
8.02921e-05 -9.52773e-06 -0.000782595
-0.00538255 -6.1329e-05 -0.000143851
-6.1329e-05 0.00207695 5.63311e-06
-0.000143851 5.63311e-06 -0.000628687
0.00103197 0.000199119 1.44246e-05
0.000199119 0.000521125 3.50663e-06
1.44246e-05 3.50663e-06 0.000368598
-0.00112452 0.000258389 7.36819e-06
0.000258389 -0.000640097 1.08538e-05
7.36819e-06 1.08538e-05 -0.000904993
0.00376166 7.58113e-05 9.01664e-05
7.58113e-05 0.00194684 2.22824e-06
9.01664e-05 2.22824e-06 0.000727877
0.00778786 0.00082075 0.000145383
0.00082075 0.00349256 7.92351e-05
0.000145383 7.92351e-05 7.52942e-05
0.00323369 0.000845102 -0.000105968
0.000845102 0.00152529 -8.55465e-05
-0.000105968 -8.55465e-05 0.000457218
0.00450324 -0.000778829 -1.08574e-05
-0.000778829 0.00141765 -0.000206688
-1.08574e-05 -0.000206688 -7.97796e-05
0.000937232 0.000138597 5.04833e-05
0.000138597 0.000169513 0.000119192
5.04833e-05 0.000119192 -0.00142185
0.00422898 -3.99311e-05 -1.20441e-05
-3.99311e-05 -0.00401496 -0.000113633
-1.20441e-05 -0.000113633 -0.00132814
0.000698021 0.000175638 4.51345e-07
0.000175638 0.000468151 -1.8127e-06
4.51345e-07 -1.8127e-06 0.00028292
0.000408259 -5.75536e-05 1.20953e-06
-5.75536e-05 5.92492e-05 -1.73678e-06
1.20953e-06 -1.73678e-06 5.34462e-05
0.00278772 4.27268e-05 3.71653e-05
4.27268e-05 0.000454814 1.61458e-05
3.71653e-05 1.61458e-05 -0.00031578
-0.000939116 0.00015186 -7.62185e-06
0.00015186 -0.000335866 -5.31642e-06
-7.62185e-06 -5.31642e-06 -0.000754458
0.00578334 0.000876898 5.25437e-06
0.000876898 -0.00152282 -1.23956e-05
5.25437e-06 -1.23956e-05 -0.000632347
0.00494388 0.000985254 0.000117952
0.000985254 0.0030239 5.76252e-05
0.000117952 5.76252e-05 -0.000815736
0.00339263 0.000388192 -7.06274e-05
0.000388192 0.00236779 6.12495e-06
-7.06274e-05 6.12495e-06 0.00106374
0.000425749 0.000195801 -1.60696e-05
0.000195801 0.000343835 -1.64473e-05
-1.60696e-05 -1.64473e-05 8.49719e-05
0.00169906 6.54596e-05 9.34977e-06
6.54596e-05 -0.000196805 -1.39086e-05
9.34977e-06 -1.39086e-05 -1.91793e-05
0.00372842 -0.000208386 3.62807e-05
-0.000208386 0.00231726 -9.50636e-05
3.62807e-05 -9.50636e-05 0.00107058
0.00693454 0.00165013 0.000189404
0.00165013 0.00067562 -0.000128817
0.000189404 -0.000128817 0.000817179
0.00659265 -0.000143843 -8.54048e-05
-0.000143843 0.00147814 0.000182689
-8.54048e-05 0.000182689 0.00114318
0.000818537 0.000178811 -1.24179e-05
0.000178811 5.17752e-05 -6.41741e-05
-1.24179e-05 -6.41741e-05 -6.42148e-05
-0.000722025 0.00103176 0.000123805
0.00103176 0.00264233 3.1575e-05
0.000123805 3.1575e-05 -0.00311331
0.000996858 0.000175887 3.45412e-06
0.000175887 0.000459604 1.13013e-05
3.45412e-06 1.13013e-05 0.000269075
0.000152692 9.34411e-05 2.73202e-06
9.34411e-05 0.000211668 1.53446e-06
2.73202e-06 1.53446e-06 -8.36589e-06
0.00104867 1.19482e-05 -1.27407e-05
1.19482e-05 0.000761326 -1.31849e-05
-1.27407e-05 -1.31849e-05 0.000620784
0.000369413 -2.28443e-05 1.23042e-06
-2.28443e-05 -0.000107044 4.25762e-06
1.23042e-06 4.25762e-06 -0.000219472
0.000678022 -2.46557e-05 2.32471e-06
-2.46557e-05 0.000224127 5.36697e-06
2.32471e-06 5.36697e-06 8.72262e-05
0.000313857 -1.19436e-05 2.10121e-06
-1.19436e-05 0.000230666 2.62098e-06
2.10121e-06 2.62098e-06 2.95125e-06
0.000578689 -6.32237e-05 5.57255e-07
-6.32237e-05 0.000130671 -3.61812e-07
5.57255e-07 -3.61812e-07 2.12997e-05
0.000108572 -1.17464e-05 1.15422e-06
-1.17464e-05 4.68519e-05 1.6216e-06
1.15422e-06 1.6216e-06 -6.85197e-05
0.00113046 -0.00020361 9.2458e-06
-0.00020361 0.000592703 -8.83913e-06
9.2458e-06 -8.83913e-06 0.000411421
0.00126897 -6.47492e-05 -1.58571e-06
-6.47492e-05 0.000461973 4.01717e-06
-1.58571e-06 4.01717e-06 0.000377288
0.000156151 4.67207e-06 -1.17632e-06
4.67207e-06 -0.000230892 1.74445e-06
-1.17632e-06 1.74445e-06 -0.000323897
0.00142106 -0.000148306 1.26878e-06
-0.000148306 0.000512766 2.18999e-06
1.26878e-06 2.18999e-06 0.000405422
-0.000531568 -0.000137657 5.23413e-06
-0.000137657 -0.000505228 1.75117e-06
5.23413e-06 1.75117e-06 -0.000731936
0.000409589 -6.54594e-05 -5.65852e-06
-6.54594e-05 -9.75495e-05 7.80127e-07
-5.65852e-06 7.80127e-07 -0.000165548
2.41892e-05 -0.000156032 2.44765e-06
-0.000156032 -0.000336498 -1.16199e-06
2.44765e-06 -1.16199e-06 -0.000501187
0.0010789 -0.000286938 1.05796e-05
-0.000286938 0.000189566 -2.83777e-06
1.05796e-05 -2.83777e-06 -6.61019e-05
0.00132489 -0.000324594 -4.74653e-06
-0.000324594 0.000212204 3.40851e-06
-4.74653e-06 3.40851e-06 -5.01395e-05
0.00177312 -0.000224765 -2.7656e-06
-0.000224765 0.000680142 6.69778e-08
-2.7656e-06 6.69778e-08 0.000512609
0.000911808 -0.000245735 -5.67623e-07
-0.000245735 9.47668e-05 4.19198e-07
-5.67623e-07 4.19198e-07 -0.00014063
0.00216372 -0.000347458 2.72517e-06
-0.000347458 0.000829476 -1.08871e-06
2.72517e-06 -1.08871e-06 0.000599535
0.000242424 -0.000129454 -1.40609e-06
-0.000129454 -0.000183638 2.1795e-06
-1.40609e-06 2.1795e-06 -0.00037947
0.000952224 -0.000221198 -1.9302e-07
-0.000221198 0.000155801 -3.66319e-07
-1.9302e-07 -3.66319e-07 -6.13668e-05
0.000537202 -6.25978e-05 3.29652e-07
-6.25978e-05 1.7947e-05 -5.31577e-07
3.29652e-07 -5.31577e-07 -0.000126053
0.00105194 -0.000195681 -3.92669e-06
-0.000195681 0.000335399 2.38189e-06
-3.92669e-06 2.38189e-06 0.000151678
-0.00040694 -7.6997e-05 -2.36602e-06
-7.6997e-05 -0.000595298 -3.95221e-06
-2.36602e-06 -3.95221e-06 -0.000787036
0.000580194 1.69219e-05 8.51577e-07
1.69219e-05 2.04062e-05 1.06597e-06
8.51577e-07 1.06597e-06 -7.7158e-05
0.000735327 -5.52378e-05 8.15348e-07
-5.52378e-05 0.000128606 -1.9197e-07
8.15348e-07 -1.9197e-07 7.22962e-06
0.000816556 -0.000100829 3.39259e-06
-0.000100829 0.000196534 -2.88691e-06
3.39259e-06 -2.88691e-06 5.15622e-05
0.000645858 -1.79634e-05 2.15046e-07
-1.79634e-05 7.24596e-05 -1.88566e-07
2.15046e-07 -1.88566e-07 -3.27751e-05
0.000692533 -1.80656e-05 -6.50274e-07
-1.80656e-05 8.57611e-05 -1.36716e-07
-6.50274e-07 -1.36716e-07 -4.31049e-06
0.000588604 3.42354e-05 -5.62756e-07
3.42354e-05 3.23451e-06 2.29425e-06
-5.62756e-07 2.29425e-06 -5.7561e-05
0.000754268 -4.43933e-05 5.53277e-07
-4.43933e-05 0.000126484 -7.39923e-07
5.53277e-07 -7.39923e-07 3.65635e-05
0.000620901 2.62909e-05 -8.02938e-07
2.62909e-05 1.85257e-05 -1.2201e-07
-8.02938e-07 -1.2201e-07 -3.75797e-05
0.000559114 4.22524e-05 -1.06716e-06
4.22524e-05 -3.09433e-05 4.11536e-06
-1.06716e-06 4.11536e-06 -5.04409e-05
0.000682255 -1.30634e-05 2.17498e-06
-1.30634e-05 4.78321e-05 -2.01664e-06
2.17498e-06 -2.01664e-06 -3.96691e-06
0.00056271 3.30145e-05 1.6098e-07
3.30145e-05 -3.56332e-05 5.66091e-09
1.6098e-07 5.66091e-09 -5.28101e-05
0.002244 7.41271e-05 -4.02217e-06
7.41271e-05 0.000975919 1.89416e-06
-4.02217e-06 1.89416e-06 0.000986101
0.000533917 2.46753e-05 9.57088e-07
2.46753e-05 -5.51852e-05 -4.14765e-06
9.57088e-07 -4.14765e-06 -7.15421e-05
0.00156936 4.55514e-05 9.21177e-06
4.55514e-05 0.000567824 -1.16042e-06
9.21177e-06 -1.16042e-06 0.000576794
0.00235473 4.45907e-05 1.25069e-05
4.45907e-05 0.00103318 -4.85262e-06
1.25069e-05 -4.85262e-06 0.00104699
0.000396255 3.71752e-06 7.27528e-07
3.71752e-06 -9.42591e-05 -1.75766e-06
7.27528e-07 -1.75766e-06 -0.000192285
0.000340949 5.94848e-08 2.07985e-07
5.94848e-08 -0.000148148 -2.81819e-06
2.07985e-07 -2.81819e-06 -0.0002062
0.000573323 1.63582e-05 -4.31705e-07
1.63582e-05 2.256e-05 -1.04031e-06
-4.31705e-07 -1.04031e-06 -7.61846e-05
0.000583798 -1.35238e-05 4.41574e-07
-1.35238e-05 -2.8361e-05 -3.9119e-06
4.41574e-07 -3.9119e-06 -4.04748e-05
0.000311063 2.59882e-06 -4.2385e-07
2.59882e-06 -0.000164135 -1.21115e-06
-4.2385e-07 -1.21115e-06 -0.000216327
0.000743801 2.96636e-05 -2.64553e-07
2.96636e-05 0.000128723 1.74555e-06
-2.64553e-07 1.74555e-06 3.5775e-05
0.00214543 -2.44424e-05 -1.08135e-05
-2.44424e-05 0.000903478 -4.75109e-06
-1.08135e-05 -4.75109e-06 0.000921266
0.000577939 -8.04019e-06 -2.15865e-07
-8.04019e-06 -3.33561e-05 -4.72211e-08
-2.15865e-07 -4.72211e-08 -4.25907e-05
0.000279065 3.07145e-06 6.17823e-07
3.07145e-06 -0.000182052 1.79394e-06
6.17823e-07 1.79394e-06 -0.000228519
0.00207081 -9.94516e-06 -3.59916e-06
-9.94516e-06 0.000857915 4.18467e-08
-3.59916e-06 4.18467e-08 0.000876929
0.000574862 -2.71446e-06 -3.32277e-07
-2.71446e-06 -3.5743e-05 3.41982e-06
-3.32277e-07 3.41982e-06 -4.31428e-05
0.00205845 4.37165e-06 1.99689e-06
4.37165e-06 0.000850936 4.66984e-06
1.99689e-06 4.66984e-06 0.000870102
0.000816053 -1.07474e-06 1.19457e-05
-1.07474e-06 0.00047137 8.68833e-06
1.19457e-05 8.68833e-06 0.000325642
0.000875704 -0.000131116 1.45053e-06
-0.000131116 0.000138971 -1.10746e-05
1.45053e-06 -1.10746e-05 -0.00147283
0.00165301 7.86635e-05 2.97239e-05
7.86635e-05 0.00358834 -3.21211e-05
2.97239e-05 -3.21211e-05 0.00230665
0.000738824 8.63809e-05 -1.71332e-07
8.63809e-05 0.000117811 3.46098e-07
-1.71332e-07 3.46098e-07 -4.94867e-06
0.000554526 6.02128e-05 1.50445e-06
6.02128e-05 -6.16526e-06 -4.16414e-07
1.50445e-06 -4.16414e-07 -0.000121775
0.000958391 0.00012261 2.44622e-06
0.00012261 0.00024772 2.7988e-06
2.44622e-06 2.7988e-06 0.00011526
0.00266743 -5.33766e-05 2.52255e-06
-5.33766e-05 0.000155231 0.000157539
2.52255e-06 0.000157539 -0.000811942
0.00346663 -0.000224403 7.93537e-06
-0.000224403 0.0022955 -2.79498e-06
7.93537e-06 -2.79498e-06 0.00108566
0.00370157 -0.000495467 6.54006e-05
-0.000495467 0.00138344 -0.000121088
6.54006e-05 -0.000121088 -0.00164913
0.00566286 -0.000959389 -9.10462e-05
-0.000959389 0.000716217 -8.70181e-07
-9.10462e-05 -8.70181e-07 0.000317201
0.00228806 -0.0008914 -0.00012749
-0.0008914 3.4882e-05 7.9731e-05
-0.00012749 7.9731e-05 -0.00258415
0.0113298 0.00152289 9.98398e-05
0.00152289 0.00392048 4.71028e-05
9.98398e-05 4.71028e-05 0.00317422
0.00305474 0.00023878 7.44131e-05
0.00023878 -0.00301835 -9.45e-05
7.44131e-05 -9.45e-05 -0.00214984
0.00528734 -0.00141166 -1.61072e-05
-0.00141166 0.00116138 3.65282e-06
-1.61072e-05 3.65282e-06 0.000506778
0.00640506 -0.00119261 -2.20013e-05
-0.00119261 0.00300829 2.05077e-05
-2.20013e-05 2.05077e-05 -0.000376337
-0.00294837 0.0011161 -3.23106e-05
0.0011161 3.15335e-05 -0.000126082
-3.23106e-05 -0.000126082 -0.00189594
0.00571443 0.000108609 -1.61239e-05
0.000108609 -0.0024932 4.98955e-05
-1.61239e-05 4.98955e-05 -0.000178519
0.00176667 -0.000852898 -3.87936e-05
-0.000852898 0.000276923 -1.80678e-05
-3.87936e-05 -1.80678e-05 -0.000291497
0.0111137 -0.00144917 -7.30156e-05
-0.00144917 0.00493752 5.44537e-05
-7.30156e-05 5.44537e-05 0.00111642
-0.00911487 -0.000115075 3.83249e-05
-0.000115075 -0.000374051 -0.000191708
3.83249e-05 -0.000191708 -0.00264578
0.00414703 -0.000903424 4.058e-05
-0.000903424 -0.00195358 -1.48224e-05
4.058e-05 -1.48224e-05 -0.000885887
0.000692556 5.15643e-05 3.78209e-07
5.15643e-05 9.15749e-05 7.76189e-06
3.78209e-07 7.76189e-06 -4.68424e-05
0.000649683 1.42676e-06 7.45398e-07
1.42676e-06 9.62466e-05 -6.59511e-07
7.45398e-07 -6.59511e-07 -6.02717e-05
0.000817426 -7.89627e-05 7.19601e-07
-7.89627e-05 0.000206239 -2.22654e-06
7.19601e-07 -2.22654e-06 5.10002e-05
0.000739858 6.4613e-05 -7.56575e-07
6.4613e-05 0.000115307 -6.44655e-07
-7.56575e-07 -6.44655e-07 -1.5767e-05
0.000780805 0.000114666 9.18762e-07
0.000114666 0.000174326 -3.80542e-07
9.18762e-07 -3.80542e-07 3.42957e-05
0.00108044 0.000131647 -1.98869e-06
0.000131647 0.000346916 -7.78602e-07
-1.98869e-06 -7.78602e-07 0.00021078
-0.000178759 -0.000480202 1.82159e-05
-0.000480202 -0.000905804 8.77584e-06
1.82159e-05 8.77584e-06 -0.000897487
-0.000762959 -0.000101775 1.70604e-05
-0.000101775 -0.000703167 -1.89433e-05
1.70604e-05 -1.89433e-05 -0.000720439
0.000556825 4.73032e-05 -1.54937e-06
4.73032e-05 4.99107e-05 -1.2591e-06
-1.54937e-06 -1.2591e-06 -0.000109856
0.00210799 -0.000283298 4.26904e-05
-0.000283298 0.001013 -3.15318e-05
4.26904e-05 -3.15318e-05 0.000760862
0.00151982 1.27712e-05 -3.42383e-06
1.27712e-05 0.000696869 -1.54855e-07
-3.42383e-06 -1.54855e-07 0.000468201
0.000598115 4.06576e-05 -2.4075e-07
4.06576e-05 4.95849e-05 2.13362e-06
-2.4075e-07 2.13362e-06 -9.05658e-05
0.000636961 0.00011255 4.87509e-07
0.00011255 0.00014038 -1.18108e-06
4.87509e-07 -1.18108e-06 -2.30931e-05
0.000477439 -0.000453696 -8.62057e-07
-0.000453696 -0.000398819 -4.25825e-06
-8.62057e-07 -4.25825e-06 -0.000399077
0.000774129 -1.81375e-05 -1.40893e-06
-1.81375e-05 0.000430888 1.36147e-07
-1.40893e-06 1.36147e-07 0.000142222
0.000357638 -8.59112e-05 1.00497e-05
-8.59112e-05 0.000260012 -1.04791e-06
1.00497e-05 -1.04791e-06 0.000126691
0.000750796 7.97015e-05 3.66673e-06
7.97015e-05 0.000153086 -1.21487e-05
3.66673e-06 -1.21487e-05 2.48949e-05
-0.00237032 0.000112591 -7.28833e-05
0.000112591 -0.000932512 -1.14382e-05
-7.28833e-05 -1.14382e-05 -0.00136521
-0.000519097 3.8271e-05 1.85742e-05
3.8271e-05 -0.000232484 2.62902e-05
1.85742e-05 2.62902e-05 -0.000372528
0.00145118 1.16788e-05 5.93234e-06
1.16788e-05 0.000760191 1.73184e-06
5.93234e-06 1.73184e-06 0.000537938
0.000883637 -1.95226e-05 -9.50193e-07
-1.95226e-05 -0.000114237 8.15307e-07
-9.50193e-07 8.15307e-07 -0.000623258
0.000306115 -1.52726e-05 -1.59027e-05
-1.52726e-05 0.000506309 -1.1792e-05
-1.59027e-05 -1.1792e-05 -2.83625e-05
0.00075703 -3.82014e-05 0.000176591
-3.82014e-05 0.000739219 -9.7481e-06
0.000176591 -9.7481e-06 -0.0010387
0.000462205 0.000185856 9.74972e-06
0.000185856 0.000323072 1.51019e-05
9.74972e-06 1.51019e-05 0.00012158
0.00112408 0.000421007 1.0022e-05
0.000421007 0.000281159 -1.25821e-05
1.0022e-05 -1.25821e-05 -1.68291e-05
0.000416965 -5.87948e-05 1.06983e-05
-5.87948e-05 3.81416e-05 2.71787e-06
1.06983e-05 2.71787e-06 1.48086e-05
-0.00279541 0.000539139 4.39224e-05
0.000539139 0.000326435 6.53995e-05
4.39224e-05 6.53995e-05 -0.00352395
-0.0101389 0.000539554 -8.25694e-05
0.000539554 -0.00365074 -0.000237716
-8.25694e-05 -0.000237716 -0.00584289
0.00278024 4.98432e-05 3.58278e-05
4.98432e-05 0.000619073 6.18707e-05
3.58278e-05 6.18707e-05 0.000156797
0.00327865 0.000320955 -7.58395e-05
0.000320955 -0.00283827 9.45534e-05
-7.58395e-05 9.45534e-05 -0.00203532
0.000519281 0.000175261 7.15334e-06
0.000175261 0.00039493 -1.35937e-06
7.15334e-06 -1.35937e-06 0.000172144
0.00150599 5.46524e-07 1.39324e-05
5.46524e-07 -0.000317063 -2.45181e-05
1.39324e-05 -2.45181e-05 -0.000107221
0.00350377 -0.000163482 -7.80667e-06
-0.000163482 0.0022829 2.55719e-06
-7.80667e-06 2.55719e-06 0.00108486
0.00117541 0.000217321 -4.39326e-05
0.000217321 0.000530289 -4.45082e-06
-4.39326e-05 -4.45082e-06 -8.30726e-05
0.00397295 0.00154777 6.46865e-05
0.00154777 -0.00123351 -0.000175204
6.46865e-05 -0.000175204 -0.000924628
-0.00267166 0.00104911 3.07248e-05
0.00104911 -0.000633587 0.000122562
3.07248e-05 0.000122562 -0.00210468
0.00699726 7.12474e-05 6.06142e-05
7.12474e-05 0.00553115 -2.5818e-05
6.06142e-05 -2.5818e-05 0.00024422
0.00173779 -7.86445e-05 6.01983e-05
-7.86445e-05 0.0014001 -2.08921e-05
6.01983e-05 -2.08921e-05 0.00093861
0.000909899 2.94207e-05 -1.42366e-05
2.94207e-05 0.000482281 -7.98222e-06
-1.42366e-05 -7.98222e-06 0.000341574
0.00376893 -0.000354362 0.000263541
-0.000354362 0.00111788 -0.000169355
0.000263541 -0.000169355 -0.00132924
0.00539212 0.0020661 3.38521e-06
0.0020661 0.0039047 -1.33565e-05
3.38521e-06 -1.33565e-05 0.00444839
-0.00383241 0.00112255 3.16404e-05
0.00112255 -0.00410496 0.000330915
3.16404e-05 0.000330915 -0.00432946
0.0133134 -0.00138883 0.000126606
-0.00138883 0.00545484 -0.00010735
0.000126606 -0.00010735 0.00163802
0.00325083 -0.000424667 -6.72083e-05
-0.000424667 0.001234 7.46378e-05
-6.72083e-05 7.46378e-05 0.000938078
0.00066105 0.000150512 7.98351e-06
0.000150512 0.00049367 5.93963e-06
7.98351e-06 5.93963e-06 0.000268192
0.000241844 4.43445e-06 -2.62437e-05
4.43445e-06 0.000271402 1.40273e-06
-2.62437e-05 1.40273e-06 0.000116424
0.00107384 -0.000279172 1.81846e-05
-0.000279172 0.000746308 -8.14394e-06
1.81846e-05 -8.14394e-06 0.000445847
0.000994778 -8.44645e-05 1.28326e-06
-8.44645e-05 0.000354352 3.56589e-06
1.28326e-06 3.56589e-06 0.000256944
-5.16524e-05 -2.9495e-05 3.39312e-06
-2.9495e-05 -4.9356e-05 7.16669e-06
3.39312e-06 7.16669e-06 -0.000168408
0.000280189 -0.000189595 -1.00574e-06
-0.000189595 0.000155252 -6.94424e-07
-1.00574e-06 -6.94424e-07 -1.97992e-05
0.00138996 -0.000315731 2.38569e-05
-0.000315731 0.000647113 -1.60268e-05
2.38569e-05 -1.60268e-05 0.000364188
0.00224717 -0.000210261 -6.19044e-06
-0.000210261 0.000981089 4.38743e-06
-6.19044e-06 4.38743e-06 0.000861235
0.00190414 -0.000362037 3.53884e-06
-0.000362037 0.000789926 -4.30032e-07
3.53884e-06 -4.30032e-07 0.00054504
0.00139144 -0.000340834 1.07039e-05
-0.000340834 0.000527528 2.13403e-06
1.07039e-05 2.13403e-06 0.000121909
0.00025468 -0.000148753 -2.66972e-06
-0.000148753 -0.000210408 -5.2185e-07
-2.66972e-06 -5.2185e-07 -0.00035766
0.00143731 -0.000318555 -1.22279e-06
-0.000318555 0.000360141 1.24757e-06
-1.22279e-06 1.24757e-06 9.32611e-05
0.0017647 -0.000413463 -6.75443e-07
-0.000413463 0.000477833 2.17187e-06
-6.75443e-07 2.17187e-06 0.000126941
0.00172277 -0.000428502 -3.77923e-06
-0.000428502 0.000333976 3.35536e-06
-3.77923e-06 3.35536e-06 3.94886e-05
0.00104326 -0.000280774 -3.67606e-07
-0.000280774 8.94957e-05 4.24291e-06
-3.67606e-07 4.24291e-06 -0.000147378
0.00128926 -0.000323506 -2.57604e-06
-0.000323506 0.000192563 1.6802e-06
-2.57604e-06 1.6802e-06 -7.40163e-05
0.00110618 -0.000265123 -7.62883e-06
-0.000265123 0.00017769 2.48236e-06
-7.62883e-06 2.48236e-06 -7.15534e-05
0.00172748 -0.00030046 5.20224e-06
-0.00030046 0.000605215 -9.86601e-07
5.20224e-06 -9.86601e-07 0.000385832
0.00148455 -0.000282875 2.85444e-06
-0.000282875 0.000434379 -2.90868e-06
2.85444e-06 -2.90868e-06 0.000219454
1.20277e-05 -5.93853e-05 1.38595e-06
-5.93853e-05 -0.000306809 2.58828e-07
1.38595e-06 2.58828e-07 -0.000479479
0.000805401 -0.000186174 1.90284e-06
-0.000186174 0.000151142 -1.2235e-06
1.90284e-06 -1.2235e-06 -5.20573e-05
0.00104813 -0.000226577 5.7191e-06
-0.000226577 0.00021842 -4.8499e-06
5.7191e-06 -4.8499e-06 3.74912e-06
0.000476631 1.93731e-05 1.39151e-06
1.93731e-05 -3.23446e-05 1.69872e-06
1.39151e-06 1.69872e-06 -0.000151462
0.000891702 -9.9307e-05 -3.21442e-07
-9.9307e-05 0.000231839 5.71007e-07
-3.21442e-07 5.71007e-07 7.88589e-05
0.00105501 -0.000206038 -1.07096e-06
-0.000206038 0.000339302 -7.09459e-07
-1.07096e-06 -7.09459e-07 0.000153032
0.000604257 1.99254e-05 -1.06879e-06
1.99254e-05 1.40249e-05 2.49805e-06
-1.06879e-06 2.49805e-06 -5.24083e-05
0.000725531 -1.78333e-05 -5.68838e-07
-1.78333e-05 0.000103962 -2.70528e-07
-5.68838e-07 -2.70528e-07 4.57124e-06
0.000575308 -3.94748e-05 -2.64629e-07
-3.94748e-05 4.29181e-05 -7.1879e-08
-2.64629e-07 -7.1879e-08 -8.05362e-05
0.000766013 -3.712e-05 3.67608e-07
-3.712e-05 0.000132092 -1.10227e-06
3.67608e-07 -1.10227e-06 3.83794e-05
0.000638737 6.25368e-06 -2.76711e-07
6.25368e-06 2.8962e-05 -1.65649e-07
-2.76711e-07 -1.65649e-07 -3.00336e-05
0.000543103 5.1577e-05 -4.7444e-07
5.1577e-05 -3.10615e-05 4.6269e-06
-4.7444e-07 4.6269e-06 -5.44163e-05
0.000651849 -3.53649e-06 1.82902e-06
-3.53649e-06 3.28565e-05 -1.92224e-06
1.82902e-06 -1.92224e-06 -2.1187e-05
0.000566169 4.40192e-05 -1.63726e-07
4.40192e-05 -2.64915e-05 -4.40429e-08
-1.63726e-07 -4.40429e-08 -4.628e-05
0.00230137 8.16082e-05 -2.45597e-05
8.16082e-05 0.0010177 3.83518e-06
-2.45597e-05 3.83518e-06 0.00102644
0.000553522 3.39054e-05 1.02362e-06
3.39054e-05 -4.09435e-05 -4.06913e-06
1.02362e-06 -4.06913e-06 -5.82093e-05
0.00154426 5.6861e-05 1.10487e-05
5.6861e-05 0.00055874 -1.00119e-06
1.10487e-05 -1.00119e-06 0.000566067
0.00235651 5.87171e-05 1.64405e-05
5.87171e-05 0.00103886 -4.50392e-06
1.64405e-05 -4.50392e-06 0.00105114
0.000703751 6.4849e-05 3.86231e-07
6.4849e-05 9.21054e-05 -1.07516e-06
3.86231e-07 -1.07516e-06 -1.23041e-05
0.000629538 2.39452e-05 -2.9286e-07
2.39452e-05 2.02169e-05 -2.378e-06
-2.9286e-07 -2.378e-06 -4.04477e-05
0.000565152 3.96222e-05 -1.16313e-06
3.96222e-05 1.66685e-05 -1.11039e-06
-1.16313e-06 -1.11039e-06 -8.88246e-05
0.000567379 -1.90559e-05 5.4156e-07
-1.90559e-05 -3.62398e-05 -4.3202e-06
5.4156e-07 -4.3202e-06 -5.17022e-05
0.000446164 1.61051e-05 -1.41159e-06
1.61051e-05 -8.56706e-05 -1.19343e-06
-1.41159e-06 -1.19343e-06 -0.000142491
0.000779098 4.12469e-05 -2.86813e-07
4.12469e-05 0.000144193 -7.03342e-07
-2.86813e-07 -7.03342e-07 4.60645e-05
0.0022497 -3.83548e-05 -1.55949e-05
-3.83548e-05 0.000967587 -4.7038e-06
-1.55949e-05 -4.7038e-06 0.000983626
0.000570338 -1.34837e-05 -2.04212e-07
-1.34837e-05 -3.66909e-05 -6.90286e-08
-2.04212e-07 -6.90286e-08 -4.85478e-05
0.000255185 1.93224e-06 -8.37942e-07
1.93224e-06 -0.000197356 9.77916e-07
-8.37942e-07 9.77916e-07 -0.000250273
0.00215259 -2.32772e-05 -3.97799e-06
-2.32772e-05 0.000907484 9.67134e-08
-3.97799e-06 9.67134e-08 0.000925416
0.000572709 -8.51134e-06 -4.94663e-07
-8.51134e-06 -3.63361e-05 3.51333e-06
-4.94663e-07 3.51333e-06 -4.54749e-05
0.00208103 -8.48818e-06 6.68492e-06
-8.48818e-06 0.000863824 4.72755e-06
6.68492e-06 4.72755e-06 0.000882877
0.00157583 -4.43724e-05 -1.3318e-05
-4.43724e-05 -0.000219942 1.60965e-05
-1.3318e-05 1.60965e-05 -4.46226e-05
0.000862043 -2.79048e-05 6.97664e-06
-2.79048e-05 0.000429764 -2.27704e-06
6.97664e-06 -2.27704e-06 0.000330691
0.00141806 -0.000119199 0.000105489
-0.000119199 0.000382233 -2.90461e-05
0.000105489 -2.90461e-05 -0.00114361
0.000544136 1.99859e-05 6.31408e-07
1.99859e-05 -2.34183e-05 -6.1297e-07
6.31408e-07 -6.1297e-07 -0.000131139
0.000944271 5.30967e-05 -5.71982e-07
5.30967e-05 0.000208051 5.07487e-07
-5.71982e-07 5.07487e-07 8.87059e-05
0.000798193 9.47732e-05 -1.88603e-07
9.47732e-05 0.000151332 5.64458e-09
-1.88603e-07 5.64458e-09 3.22477e-05
0.000587249 4.39931e-05 2.1236e-07
4.39931e-05 5.8956e-06 2.01416e-07
2.1236e-07 2.01416e-07 -0.000104363
0.000707474 5.96868e-05 8.06767e-08
5.96868e-05 9.6934e-05 4.55245e-07
8.06767e-08 4.55245e-07 -2.95378e-05
0.000689721 5.52067e-05 1.22297e-06
5.52067e-05 7.79045e-05 -1.00764e-06
1.22297e-06 -1.00764e-06 -4.2738e-05
0.000656701 0.000146105 3.36562e-06
0.000146105 8.91897e-05 4.0064e-06
3.36562e-06 4.0064e-06 -5.64669e-05
-1.26888e-05 4.7566e-05 5.85215e-05
4.7566e-05 -4.12632e-07 0.000155222
5.85215e-05 0.000155222 -0.00143954
0.00262397 -3.99444e-05 -9.50351e-06
-3.99444e-05 0.000455852 4.94594e-05
-9.50351e-06 4.94594e-05 -0.000330923
0.00299603 -0.000162726 3.20353e-05
-0.000162726 0.00214921 -6.42576e-05
3.20353e-05 -6.42576e-05 0.000996916
0.00408212 -0.000114419 -8.59248e-06
-0.000114419 -0.00414155 5.42674e-05
-8.59248e-06 5.42674e-05 -0.00130281
0.00303858 -0.00115533 -9.0656e-05
-0.00115533 0.000984253 6.33255e-05
-9.0656e-05 6.33255e-05 0.000111221
-0.0018438 -0.00136026 -2.52288e-05
-0.00136026 -0.000234648 7.94624e-05
-2.52288e-05 7.94624e-05 -0.00413191
0.00861134 0.00176762 7.57744e-05
0.00176762 0.00461886 -5.28846e-05
7.57744e-05 -5.28846e-05 0.00264154
0.00335371 -0.00103731 -2.7218e-05
-0.00103731 0.000892805 4.83317e-06
-2.7218e-05 4.83317e-06 0.000373749
-0.000301802 -0.000504308 3.30579e-05
-0.000504308 0.0015835 2.53225e-05
3.30579e-05 2.53225e-05 -0.00290967
0.00456496 0.000145035 1.22904e-05
0.000145035 0.00249693 -9.92068e-06
1.22904e-05 -9.92068e-06 0.00117455
0.00897116 -0.00121365 -3.18851e-05
-0.00121365 0.00115273 -3.88109e-05
-3.18851e-05 -3.88109e-05 0.00232199
-0.00172069 1.74986e-05 -0.000171733
1.74986e-05 -0.00154616 7.75475e-05
-0.000171733 7.75475e-05 -0.00140075
0.000790051 0.00125015 -5.11019e-05
0.00125015 0.0019329 -8.36977e-05
-5.11019e-05 -8.36977e-05 -0.00259358
-0.00674995 -0.00192204 4.77631e-05
-0.00192204 -0.00374437 -0.000128615
4.77631e-05 -0.000128615 -0.00584237
0.00543166 -0.00115413 3.77046e-05
-0.00115413 -0.000544679 -0.000250693
3.77046e-05 -0.000250693 0.000588359
0.000877958 2.21465e-05 3.25377e-06
2.21465e-05 0.000213148 -4.23212e-07
3.25377e-06 -4.23212e-07 9.22956e-05
0.000639553 6.18847e-05 2.39451e-07
6.18847e-05 6.83199e-05 -1.11128e-06
2.39451e-07 -1.11128e-06 -7.11699e-05
0.00089201 -7.77179e-06 6.31005e-07
-7.77179e-06 0.000254978 -2.6342e-06
6.31005e-07 -2.6342e-06 8.43728e-05
0.000782655 5.16611e-05 -1.09601e-06
5.16611e-05 0.000148801 -4.2887e-06
-1.09601e-06 -4.2887e-06 8.63101e-06
0.000198581 -0.0004072 -5.84617e-06
-0.0004072 -0.000562006 2.95494e-05
-5.84617e-06 2.95494e-05 -0.000641452
0.00215459 -6.32409e-05 -2.38307e-05
-6.32409e-05 0.00127374 -2.53567e-05
-2.38307e-05 -2.53567e-05 0.00113603
0.000703852 3.60812e-05 -2.6129e-06
3.60812e-05 9.10954e-05 -3.31367e-06
-2.6129e-06 -3.31367e-06 -3.0991e-05
0.000694711 0.000145893 -1.39759e-06
0.000145893 0.000185552 4.99802e-06
-1.39759e-06 4.99802e-06 1.81598e-05
0.00280807 -4.61929e-05 1.41783e-05
-4.61929e-05 0.00153187 -2.12666e-05
1.41783e-05 -2.12666e-05 0.00131272
0.000889021 6.50383e-05 1.39445e-06
6.50383e-05 0.000226677 3.42538e-06
1.39445e-06 3.42538e-06 0.000105418
0.000636876 0.000108175 -2.47834e-06
0.000108175 0.000323677 -1.50741e-06
-2.47834e-06 -1.50741e-06 7.53234e-05
0.000217659 1.59129e-05 4.93191e-05
1.59129e-05 0.000325715 -1.57733e-05
4.93191e-05 -1.57733e-05 -0.0002194
0.000216203 1.73342e-05 2.43937e-05
1.73342e-05 0.000207384 -8.3925e-07
2.43937e-05 -8.3925e-07 8.27641e-05
0.000633721 0.000134409 -4.35479e-07
0.000134409 0.00026564 -7.60185e-06
-4.35479e-07 -7.60185e-06 9.27928e-05
-0.000199042 -8.15211e-05 -3.13762e-05
-8.15211e-05 0.000534237 -4.51582e-05
-3.13762e-05 -4.51582e-05 -0.000667438
0.00393074 0.000146801 2.46586e-05
0.000146801 0.0021585 2.25968e-05
2.46586e-05 2.25968e-05 0.00194394
0.00052847 -1.09568e-06 -1.13146e-06
-1.09568e-06 0.000710563 1.15814e-05
-1.13146e-06 1.15814e-05 7.33199e-05
0.00131985 -3.17584e-05 -1.5871e-07
-3.17584e-05 0.000100018 6.94165e-07
-1.5871e-07 6.94165e-07 -0.000137808
0.000149034 -1.59628e-05 9.4133e-07
-1.59628e-05 0.00031288 -1.6717e-05
9.4133e-07 -1.6717e-05 -0.00011147
-0.000192864 9.79109e-05 -1.15999e-06
9.79109e-05 5.34641e-05 6.25328e-06
-1.15999e-06 6.25328e-06 -0.000132968
-0.000943498 0.00030553 5.99129e-05
0.00030553 -0.000797755 4.85599e-05
5.99129e-05 4.85599e-05 -0.00104534
0.00132199 -2.7812e-05 1.75819e-05
-2.7812e-05 -0.000391524 -6.29441e-06
1.75819e-05 -6.29441e-06 -0.000141153
0.0033766 -0.00106222 0.000120953
-0.00106222 0.00365976 -0.000124121
0.000120953 -0.000124121 -0.00166288
0.00883549 0.00181044 -7.26028e-05
0.00181044 0.00416739 5.07469e-05
-7.26028e-05 5.07469e-05 0.0024526
0.00303974 -0.000100369 -3.61949e-05
-0.000100369 0.00212366 6.59873e-05
-3.61949e-05 6.59873e-05 0.000971338
0.00569541 0.00163433 -3.44837e-05
0.00163433 0.000217769 -4.58076e-05
-3.44837e-05 -4.58076e-05 0.000216095
-0.000145383 0.000131691 -3.17802e-05
0.000131691 0.00040403 9.38575e-06
-3.17802e-05 9.38575e-06 -0.000131054
0.000947748 1.03771e-05 -8.38189e-06
1.03771e-05 0.000430158 2.37769e-06
-8.38189e-06 2.37769e-06 0.000352038
0.00362045 -0.000405361 9.47701e-05
-0.000405361 0.00113127 -9.36793e-06
9.47701e-05 -9.36793e-06 -0.00157346
-2.63193e-05 -0.000191763 7.67284e-06
-0.000191763 -0.000506883 2.47093e-05
7.67284e-06 2.47093e-05 -0.000538478
-0.000895971 0.0022221 0.00013897
0.0022221 0.000419382 -6.40944e-05
0.00013897 -6.40944e-05 0.0014911
0.00695023 0.00106843 -6.39165e-05
0.00106843 0.000461072 0.000125161
-6.39165e-05 0.000125161 0.000166827
-0.00290665 -0.000787745 7.38114e-05
-0.000787745 0.000496358 -7.23866e-05
7.38114e-05 -7.23866e-05 -0.00460401
0.000422652 -0.000133065 3.78862e-05
-0.000133065 0.000379472 -7.57952e-06
3.78862e-05 -7.57952e-06 1.96445e-05
0.000598388 -0.000164222 8.53793e-05
-0.000164222 -0.000185976 -3.01706e-05
8.53793e-05 -3.01706e-05 -0.00169863
-0.00188085 0.000101383 -0.000259702
0.000101383 0.00199282 4.93636e-06
-0.000259702 4.93636e-06 0.000414418
0.00364729 0.00205709 -0.000193253
0.00205709 0.000363622 0.000273457
-0.000193253 0.000273457 0.000619748
0.0080968 -0.00085237 -1.10552e-06
-0.00085237 0.00364757 -1.56669e-06
-1.10552e-06 -1.56669e-06 0.000339425
0.00315464 -0.000520076 -5.98379e-05
-0.000520076 0.00105551 4.8643e-05
-5.98379e-05 4.8643e-05 0.000721934
-0.000829084 4.52683e-05 2.78178e-05
4.52683e-05 -0.00033839 9.59477e-06
2.78178e-05 9.59477e-06 -0.000514672
0.000134292 -0.000192457 -3.1361e-06
-0.000192457 0.000250928 5.32649e-07
-3.1361e-06 5.32649e-07 -4.59172e-05
-0.000304958 -0.000219414 1.08702e-05
-0.000219414 -0.00026771 -4.82097e-06
1.08702e-05 -4.82097e-06 -0.00044621
-0.000501474 -0.000164432 -6.20132e-06
-0.000164432 -0.000249561 6.5811e-06
-6.20132e-06 6.5811e-06 -0.000415131
-0.000662961 -0.000167437 -5.27408e-07
-0.000167437 -0.000437425 -4.31346e-06
-5.27408e-07 -4.31346e-06 -0.00071733
0.00343126 -0.000596193 2.94744e-05
-0.000596193 0.00139559 -2.23856e-06
2.94744e-05 -2.23856e-06 0.00109473
0.0042576 -0.000593405 -8.7201e-06
-0.000593405 0.00203377 3.19971e-06
-8.7201e-06 3.19971e-06 0.00176904
0.00224739 -0.0004205 5.84671e-06
-0.0004205 0.000928116 5.16034e-07
5.84671e-06 5.16034e-07 0.000546756
0.0012339 -0.000393291 7.94223e-06
-0.000393291 0.000216607 -5.52973e-06
7.94223e-06 -5.52973e-06 -0.000186743
0.00177241 -0.000349112 -7.86574e-06
-0.000349112 0.000515893 1.79453e-06
-7.86574e-06 1.79453e-06 0.000238677
0.0021941 -0.000462069 1.0564e-06
-0.000462069 0.000680788 4.50616e-07
1.0564e-06 4.50616e-07 0.000321653
0.00193392 -0.000460643 8.27836e-07
-0.000460643 0.000489551 -5.6067e-06
8.27836e-07 -5.6067e-06 0.00013214
0.00194392 -0.00043184 -1.07864e-06
-0.00043184 0.000385047 -2.53943e-06
-1.07864e-06 -2.53943e-06 0.000125868
0.00178965 -0.00042882 -1.30357e-06
-0.00042882 0.00035735 2.98341e-06
-1.30357e-06 2.98341e-06 8.23512e-05
0.00168204 -0.000428814 -8.62712e-07
-0.000428814 0.000313568 -2.19789e-07
-8.62712e-07 -2.19789e-07 1.40521e-05
0.000658323 -0.000228933 5.8542e-06
-0.000228933 -0.00012559 1.5606e-06
5.8542e-06 1.5606e-06 -0.000335279
0.00117218 -0.000285893 1.88737e-06
-0.000285893 0.0001597 1.35301e-07
1.88737e-06 1.35301e-07 -7.0659e-05
0.0012028 -0.000317206 5.86004e-07
-0.000317206 0.000145397 -2.82462e-06
5.86004e-07 -2.82462e-06 -0.00012482
0.00126455 -0.0002432 3.43313e-06
-0.0002432 0.000366376 1.7139e-06
3.43313e-06 1.7139e-06 0.000149765
0.00126625 -0.000255441 -2.00351e-06
-0.000255441 0.000331154 -1.50073e-06
-2.00351e-06 -1.50073e-06 0.000119024
0.000707947 -0.000209409 4.88735e-06
-0.000209409 -1.70242e-05 -5.07161e-06
4.88735e-06 -5.07161e-06 -0.000215439
0.000492062 -6.54732e-05 2.44341e-06
-6.54732e-05 -1.50153e-05 1.41178e-06
2.44341e-06 1.41178e-06 -0.000175617
0.000497285 -0.000101668 -6.61806e-07
-0.000101668 -9.59965e-06 1.04938e-06
-6.61806e-07 1.04938e-06 -0.000189025
0.00137625 -0.000243688 2.70076e-06
-0.000243688 0.000489849 -4.22976e-06
2.70076e-06 -4.22976e-06 0.00027927
0.000496944 2.7574e-05 3.32248e-09
2.7574e-05 -4.03486e-05 3.06737e-06
3.32248e-09 3.06737e-06 -0.000120425
0.000724618 -2.68987e-05 -4.52733e-07
-2.68987e-05 0.000118527 -5.35356e-07
-4.52733e-07 -5.35356e-07 -9.39781e-06
0.00123078 -0.000136886 6.44602e-07
-0.000136886 0.000435605 -3.67655e-07
6.44602e-07 -3.67655e-07 0.000274731
0.000507125 6.1174e-05 -6.82605e-07
6.1174e-05 -4.12084e-05 6.70273e-06
-6.82605e-07 6.70273e-06 -6.92436e-05
0.000640094 1.61095e-05 -2.70212e-07
1.61095e-05 3.31973e-05 -2.71355e-07
-2.70212e-07 -2.71355e-07 -3.31298e-05
0.00085828 -4.10984e-05 -1.90062e-07
-4.10984e-05 0.000185025 -1.56341e-06
-1.90062e-07 -1.56341e-06 8.08739e-05
0.000663911 4.80368e-06 1.44936e-06
4.80368e-06 4.26843e-05 -2.29712e-06
1.44936e-06 -2.29712e-06 -1.62591e-05
0.000547484 5.50422e-05 -4.96335e-08
5.50422e-05 -2.68866e-05 -2.19478e-08
-4.96335e-08 -2.19478e-08 -5.10849e-05
0.00235993 9.69031e-05 -2.6616e-05
9.69031e-05 0.00106109 3.48863e-06
-2.6616e-05 3.48863e-06 0.00106634
0.000566683 4.63639e-05 1.55164e-07
4.63639e-05 -2.5848e-05 -4.35604e-06
1.55164e-07 -4.35604e-06 -4.60268e-05
0.00233131 8.44005e-05 2.63004e-06
8.44005e-05 0.00103642 2.35581e-07
2.63004e-06 2.35581e-07 0.00104459
0.00231648 7.17865e-05 1.9863e-05
7.17865e-05 0.00102091 -4.0547e-06
1.9863e-05 -4.0547e-06 0.00103151
0.000717965 5.65598e-05 -1.17971e-07
5.65598e-05 0.000105747 -6.66745e-07
-1.17971e-07 -6.66745e-07 -2.11426e-05
0.000773002 8.47047e-05 4.01352e-07
8.47047e-05 0.000143546 -1.38898e-06
4.01352e-07 -1.38898e-06 2.51383e-05
0.000644002 1.55373e-05 -2.67201e-07
1.55373e-05 2.8603e-05 -2.71046e-06
-2.67201e-07 -2.71046e-06 -3.77318e-05
0.000710025 7.69054e-05 -8.3318e-08
7.69054e-05 9.4968e-05 -3.14259e-09
-8.3318e-08 -3.14259e-09 -9.41528e-06
0.000557583 -2.31909e-05 -1.97722e-08
-2.31909e-05 -3.82322e-05 -4.90175e-06
-1.97722e-08 -4.90175e-06 -5.75917e-05
0.000629648 2.41047e-05 -3.83082e-08
2.41047e-05 2.09234e-05 -9.27806e-08
-3.83082e-08 -9.27806e-08 -3.97442e-05
0.000641231 4.14297e-05 -1.94579e-06
4.14297e-05 5.08133e-05 3.2025e-07
-1.94579e-06 3.2025e-07 -4.58836e-05
0.00234721 -5.24717e-05 -2.04409e-05
-5.24717e-05 0.0010286 -4.63674e-06
-2.04409e-05 -4.63674e-06 0.00104247
0.00056806 -1.94336e-05 -2.85599e-07
-1.94336e-05 -3.55524e-05 -6.52648e-08
-2.85599e-07 -6.52648e-08 -5.09119e-05
0.000566563 2.71831e-05 -1.23582e-06
2.71831e-05 -1.43478e-05 8.5697e-07
-1.23582e-06 8.5697e-07 -6.99783e-05
0.00222286 -3.6898e-05 -4.00521e-06
-3.6898e-05 0.000951201 1.50062e-07
-4.00521e-06 1.50062e-07 0.000967603
0.000571029 -1.33325e-05 -5.45303e-07
-1.33325e-05 -3.65488e-05 3.71797e-06
-5.45303e-07 3.71797e-06 -4.81878e-05
0.00212701 -2.19065e-05 1.07866e-05
-2.19065e-05 0.000891921 4.68551e-06
1.07866e-05 4.68551e-06 0.000910128
0.000585989 -8.09206e-05 3.18083e-06
-8.09206e-05 3.92898e-05 8.03784e-06
3.18083e-06 8.03784e-06 7.91665e-05
0.00148585 -8.0493e-05 -1.51244e-05
-8.0493e-05 -0.000318988 2.43484e-05
-1.51244e-05 2.43484e-05 -9.75731e-05
0.000913308 -4.85395e-05 6.99366e-06
-4.85395e-05 0.000388197 -1.24373e-05
6.99366e-06 -1.24373e-05 0.000330225
0.000725676 5.68567e-05 -2.11966e-07
5.68567e-05 0.000101716 7.87998e-08
-2.11966e-07 7.87998e-08 -1.9629e-05
0.000718265 3.93155e-05 9.94175e-07
3.93155e-05 7.67453e-05 -1.8116e-07
9.94175e-07 -1.8116e-07 -3.95989e-05
0.000212977 2.95206e-05 -3.04108e-06
2.95206e-05 -0.000219698 -4.08021e-06
-3.04108e-06 -4.08021e-06 -0.000330282
0.000414955 9.15123e-06 2.07179e-07
9.15123e-06 -8.89885e-05 -9.70429e-08
2.07179e-07 -9.70429e-08 -0.000205529
0.00132049 0.000145358 -6.01506e-07
0.000145358 0.000460031 -1.12862e-06
-6.01506e-07 -1.12862e-06 0.0003173
0.000646496 2.61817e-05 -1.31496e-06
2.61817e-05 3.43496e-05 7.01167e-07
-1.31496e-06 7.01167e-07 -7.20753e-05
0.000663281 4.89454e-05 -1.81969e-06
4.89454e-05 6.23811e-05 -2.69405e-06
-1.81969e-06 -2.69405e-06 -5.74659e-05
0.00077347 6.03247e-05 -9.95862e-08
6.03247e-05 0.000127635 -1.89082e-07
-9.95862e-08 -1.89082e-07 4.82239e-06
0.000964763 9.48232e-05 1.99064e-07
9.48232e-05 0.000250249 1.06481e-07
1.99064e-07 1.06481e-07 0.000117706
0.00104624 7.00405e-05 1.96079e-06
7.00405e-05 0.00031077 -1.23168e-06
1.96079e-06 -1.23168e-06 0.000175692
0.00301204 0.000220325 0.000159326
0.000220325 0.00172418 0.00022493
0.000159326 0.00022493 -0.00104069
0.000487904 7.54452e-05 8.6917e-06
7.54452e-05 8.70789e-05 6.13987e-05
8.6917e-06 6.13987e-05 -0.00147862
0.00259375 -4.40761e-05 -1.08654e-05
-4.40761e-05 0.000715659 -3.69937e-06
-1.08654e-05 -3.69937e-06 0.000122142
0.00926426 -0.00106204 -9.28355e-05
-0.00106204 0.00129482 -0.000101406
-9.28355e-05 -0.000101406 0.0026584
-0.010405 0.000836895 -2.69598e-05
0.000836895 -0.0034678 0.000236261
-2.69598e-05 0.000236261 -0.0058674
0.00545864 -0.00113573 -0.00012462
-0.00113573 0.00210337 4.84296e-05
-0.00012462 4.84296e-05 0.00160138
0.0106748 -0.000939793 -5.02258e-05
-0.000939793 0.00470631 -5.07827e-06
-5.02258e-05 -5.07827e-06 0.00116056
0.00225989 -0.00018708 -1.42069e-05
-0.00018708 0.000532067 5.83335e-05
-1.42069e-05 5.83335e-05 0.000244965
0.0114639 -0.000115445 -1.37182e-06
-0.000115445 0.00576405 -1.34829e-05
-1.37182e-06 -1.34829e-05 0.001454
0.00227078 -0.00118748 5.08987e-05
-0.00118748 0.000520992 6.63407e-05
5.08987e-05 6.63407e-05 -0.00108702
0.00459046 -0.00139377 -0.000134435
-0.00139377 -0.00129485 -0.000303784
-0.000134435 -0.000303784 -0.000244692
0.00340092 4.50806e-05 -0.000128347
4.50806e-05 0.000912357 4.43872e-05
-0.000128347 4.43872e-05 0.000367414
0.00974378 0.000965872 -3.66247e-05
0.000965872 0.00452867 1.88791e-05
-3.66247e-05 1.88791e-05 0.00105183
0.0109906 -0.00207569 -6.36258e-05
-0.00207569 0.00368104 -0.000257601
-6.36258e-05 -0.000257601 0.00337337
0.00764777 -0.00227023 7.0194e-05
-0.00227023 0.00163534 3.30592e-06
7.0194e-05 3.30592e-06 0.00290732
0.000114665 6.78302e-05 2.41701e-06
6.78302e-05 -0.00015936 -4.65065e-06
2.41701e-06 -4.65065e-06 -0.000287483
0.000953419 2.14548e-05 9.51967e-07
2.14548e-05 0.000271508 2.9135e-06
9.51967e-07 2.9135e-06 0.000131558
0.000716684 7.0527e-05 -1.67186e-06
7.0527e-05 0.000115763 -5.76751e-06
-1.67186e-06 -5.76751e-06 -2.71771e-05
0.00168147 -0.000109018 -3.92138e-05
-0.000109018 0.00103608 2.29407e-05
-3.92138e-05 2.29407e-05 0.000342071
0.00106688 -3.9695e-05 -7.16104e-05
-3.9695e-05 0.000704458 -2.41349e-05
-7.16104e-05 -2.41349e-05 0.000597579
0.000756609 1.00396e-05 -2.76501e-06
1.00396e-05 0.000151294 5.90145e-06
-2.76501e-06 5.90145e-06 2.91829e-05
-0.00114585 0.000102356 -6.60193e-06
0.000102356 -0.00064571 -3.61476e-06
-6.60193e-06 -3.61476e-06 -0.000931024
0.000511076 7.57081e-05 2.69751e-07
7.57081e-05 0.000193622 -2.83239e-06
2.69751e-07 -2.83239e-06 1.0926e-05
0.000630064 0.000123047 -2.21572e-06
0.000123047 0.000391869 3.08045e-06
-2.21572e-06 3.08045e-06 0.000136684
-0.000331358 -7.34395e-05 0.000128736
-7.34395e-05 0.000687535 -4.18881e-05
0.000128736 -4.18881e-05 -0.000503253
-0.00231687 3.71875e-06 -2.28645e-05
3.71875e-06 -0.00125165 1.33301e-05
-2.28645e-05 1.33301e-05 -0.00145261
0.00252216 0.000287835 -3.98987e-05
0.000287835 0.00154577 -4.19484e-05
-3.98987e-05 -4.19484e-05 0.000739291
0.00182489 2.03771e-05 8.14396e-05
2.03771e-05 0.00103767 1.21672e-05
8.14396e-05 1.21672e-05 -0.000778507
0.000320239 -3.16849e-06 1.62936e-05
-3.16849e-06 0.00052132 1.28673e-05
1.62936e-05 1.28673e-05 -2.49132e-05
0.00177471 -6.44479e-05 4.03358e-07
-6.44479e-05 0.000310121 -5.85398e-07
4.03358e-07 -5.85398e-07 0.00033718
-0.00193898 0.000236588 8.56275e-05
0.000236588 -0.000540729 8.4381e-06
8.56275e-05 8.4381e-06 -0.00119118
0.00335879 0.000129344 -2.84524e-05
0.000129344 0.00147978 7.83212e-06
-2.84524e-05 7.83212e-06 0.000836851
0.000955641 -2.18336e-05 -5.52425e-06
-2.18336e-05 0.000389464 1.08599e-05
-5.52425e-06 1.08599e-05 0.000341888
0.0160778 -0.00152391 0.000124302
-0.00152391 0.00692242 -3.53623e-05
0.000124302 -3.53623e-05 0.00295182
0.0107663 0.00158554 -7.02075e-05
0.00158554 0.00364697 -4.76091e-05
-7.02075e-05 -4.76091e-05 0.00284536
0.0037471 -0.000450695 -7.48843e-05
-0.000450695 0.00127976 0.000122179
-7.48843e-05 0.000122179 -0.00166997
-0.00738833 0.00248387 0.000651477
0.00248387 -0.00336696 -0.000490831
0.000651477 -0.000490831 -0.00182788
0.000930565 -0.000165546 9.54703e-06
-0.000165546 0.000766343 -3.64803e-06
9.54703e-06 -3.64803e-06 0.000332081
0.000966603 -0.000129659 -1.96529e-06
-0.000129659 5.85835e-05 1.08277e-05
-1.96529e-06 1.08277e-05 -0.0015203
-0.002808 0.000172349 -0.000366873
0.000172349 0.00199037 0.000157732
-0.000366873 0.000157732 0.000442119
0.00166124 -0.00033634 -2.46135e-05
-0.00033634 0.000353453 3.60708e-05
-2.46135e-05 3.60708e-05 3.84262e-05
0.0112689 0.00209915 9.00603e-05
0.00209915 0.00348581 7.58732e-05
9.00603e-05 7.58732e-05 0.00382047
0.00757626 -0.0014387 8.15406e-05
-0.0014387 0.00315327 -5.2463e-05
8.15406e-05 -5.2463e-05 0.000115007
0.000959396 -0.000306519 4.41672e-06
-0.000306519 0.000274449 2.3139e-05
4.41672e-06 2.3139e-05 0.000263358
-0.00409282 -0.000366674 3.67133e-05
-0.000366674 0.00157362 -2.14625e-05
3.67133e-05 -2.14625e-05 -0.00060522
0.00984178 0.00193925 -0.000394396
0.00193925 0.00457146 0.000185837
-0.000394396 0.000185837 0.00438373
0.0024783 -0.000853454 -0.000192433
-0.000853454 -0.000247828 0.000132126
-0.000192433 0.000132126 -0.00338188
0.00246918 -0.000895585 9.09874e-05
-0.000895585 0.000485348 -4.17019e-05
9.09874e-05 -4.17019e-05 0.000361222
-0.000116298 -0.000180979 -4.38969e-05
-0.000180979 8.78428e-05 1.2553e-05
-4.38969e-05 1.2553e-05 -0.000182647
0.0005999 -0.000267625 -1.28365e-06
-0.000267625 0.00026345 5.29802e-06
-1.28365e-06 5.29802e-06 2.77555e-05
0.00368936 -0.000583929 3.20869e-05
-0.000583929 0.00146896 2.18215e-06
3.20869e-05 2.18215e-06 0.00133473
-0.00258117 -4.76081e-05 -2.12512e-06
-4.76081e-05 -0.00144097 9.59608e-06
-2.12512e-06 9.59608e-06 -0.00171594
0.000689806 -0.000331717 2.95953e-06
-0.000331717 -1.27505e-05 1.77556e-06
2.95953e-06 1.77556e-06 -0.000316862
0.00241393 -0.000568978 4.96833e-06
-0.000568978 0.000600717 4.40216e-07
4.96833e-06 4.40216e-07 0.000337696
0.00292386 -0.000480265 -1.24522e-05
-0.000480265 0.00123083 3.81002e-06
-1.24522e-05 3.81002e-06 0.000877273
0.001319 -0.0003938 -2.35021e-06
-0.0003938 0.000233894 -3.80852e-06
-2.35021e-06 -3.80852e-06 -0.000144867
0.00197503 -0.00052415 4.41817e-06
-0.00052415 0.000355658 -5.29801e-06
4.41817e-06 -5.29801e-06 6.34027e-05
0.00257426 -0.000505211 -3.83466e-06
-0.000505211 0.000857867 -1.85072e-06
-3.83466e-06 -1.85072e-06 0.000491839
0.00159405 -0.000433625 4.77608e-08
-0.000433625 0.000275115 -3.23409e-06
4.77608e-08 -3.23409e-06 -6.79347e-05
0.00202133 -0.000447081 -1.24067e-07
-0.000447081 0.000369229 -6.51008e-06
-1.24067e-07 -6.51008e-06 0.000117729
0.00168582 -0.000349897 -2.74338e-06
-0.000349897 0.000133702 -3.11856e-06
-2.74338e-06 -3.11856e-06 -6.65628e-05
0.00161352 -0.000413613 2.16594e-06
-0.000413613 0.000183938 -7.34852e-07
2.16594e-06 -7.34852e-07 -7.22929e-05
0.00176353 -0.000416554 1.93669e-06
-0.000416554 0.000285151 -2.27295e-06
1.93669e-06 -2.27295e-06 2.98158e-05
0.0017036 -0.000363232 -6.55769e-07
-0.000363232 0.000364808 2.53404e-06
-6.55769e-07 2.53404e-06 0.000116579
0.0017614 -0.000427013 -1.86197e-06
-0.000427013 0.000359475 1.34374e-07
-1.86197e-06 1.34374e-07 8.02748e-05
0.00168342 -0.000433737 1.46185e-06
-0.000433737 0.000316336 -3.69243e-06
1.46185e-06 -3.69243e-06 1.14155e-05
0.00134358 -0.00027063 3.74459e-06
-0.00027063 0.000319065 9.51628e-07
3.74459e-06 9.51628e-07 0.00010066
0.00082749 -0.000240765 5.09472e-07
-0.000240765 -2.31008e-05 -5.21201e-07
5.09472e-07 -5.21201e-07 -0.000230991
0.00138193 -0.000299346 4.60852e-06
-0.000299346 0.000276193 -3.89734e-06
4.60852e-06 -3.89734e-06 5.16003e-05
0.000632862 -0.000164927 -1.63332e-07
-0.000164927 2.49252e-05 -4.09758e-07
-1.63332e-07 -4.09758e-07 -0.000160777
0.000906856 -0.000204861 5.90228e-08
-0.000204861 0.000159198 -5.20861e-07
5.90228e-08 -5.20861e-07 -4.95231e-05
0.00087303 -0.000216319 -3.17803e-06
-0.000216319 9.7104e-05 -1.31046e-06
-3.17803e-06 -1.31046e-06 -0.00010894
0.00042672 2.71566e-05 8.85381e-07
2.71566e-05 -7.39737e-05 4.71085e-06
8.85381e-07 4.71085e-06 -0.000179515
0.000780218 -8.98131e-05 1.20361e-06
-8.98131e-05 0.000160538 7.38402e-07
1.20361e-06 7.38402e-07 -9.18353e-06
0.00105209 -0.000148075 -2.47081e-06
-0.000148075 0.000328368 7.13442e-07
-2.47081e-06 7.13442e-07 0.000141377
0.00139715 9.44433e-05 -1.52834e-05
9.44433e-05 0.000501734 4.51562e-06
-1.52834e-05 4.51562e-06 0.000469229
0.000662916 3.81335e-06 -3.88851e-07
3.81335e-06 5.34426e-05 -6.52875e-07
-3.88851e-07 -6.52875e-07 -2.7332e-05
0.00096004 -6.53062e-05 -2.12382e-06
-6.53062e-05 0.000262012 -1.73006e-06
-2.12382e-06 -1.73006e-06 0.000125351
0.000750527 4.94337e-05 -2.80513e-05
4.94337e-05 0.000108758 3.58449e-06
-2.80513e-05 3.58449e-06 0.000107165
0.000979038 7.49001e-05 -8.35238e-06
7.49001e-05 0.000241269 -3.11389e-09
-8.35238e-06 -3.11389e-09 0.000213788
0.000679315 1.1108e-05 9.31975e-07
1.1108e-05 5.41094e-05 -2.88405e-06
9.31975e-07 -2.88405e-06 -1.20629e-05
0.000558407 5.94233e-05 -7.87534e-07
5.94233e-05 -1.84023e-05 -4.98014e-06
-7.87534e-07 -4.98014e-06 -4.37356e-05
0.0023987 9.90657e-05 3.55088e-06
9.90657e-05 0.00108495 3.21468e-07
3.55088e-06 3.21468e-07 0.00108974
0.00234723 8.64922e-05 2.264e-05
8.64922e-05 0.00104689 -3.78847e-06
2.264e-05 -3.78847e-06 0.0010546
0.000700237 5.45832e-05 4.12346e-07
5.45832e-05 8.06929e-05 2.82084e-07
4.12346e-07 2.82084e-07 -3.81188e-05
0.000788002 7.19671e-05 2.06533e-07
7.19671e-05 0.000148905 -1.8173e-06
2.06533e-07 -1.8173e-06 2.79907e-05
0.000634905 4.33862e-05 -1.93518e-07
4.33862e-05 4.27445e-05 2.30932e-07
-1.93518e-07 2.30932e-07 -7.35868e-05
0.000648462 4.74107e-06 -5.00404e-07
4.74107e-06 3.18428e-05 -2.89173e-06
-5.00404e-07 -2.89173e-06 -3.96729e-05
0.000728392 5.97785e-05 6.07349e-07
5.97785e-05 0.00010461 3.44201e-08
6.07349e-07 3.44201e-08 -3.79801e-06
0.000555346 -2.52207e-05 -6.76047e-07
-2.52207e-05 -3.46536e-05 -5.40459e-06
-6.76047e-07 -5.40459e-06 -5.81894e-05
0.000625686 1.88778e-05 -4.27325e-08
1.88778e-05 1.90637e-05 -1.018e-07
-4.27325e-08 -1.018e-07 -4.77304e-05
0.000740987 6.63692e-05 -4.68396e-07
6.63692e-05 0.000128966 1.72782e-06
-4.68396e-07 1.72782e-06 1.31313e-05
0.00248203 -6.71674e-05 -2.66891e-05
-6.71674e-05 0.00111306 -4.48804e-06
-2.66891e-05 -4.48804e-06 0.00112428
0.000550479 -2.48394e-05 -4.03829e-07
-2.48394e-05 -4.23929e-05 -4.40285e-08
-4.03829e-07 -4.40285e-08 -6.169e-05
0.000615157 2.61394e-05 3.46685e-07
2.61394e-05 1.31432e-05 2.49502e-06
3.46685e-07 2.49502e-06 -4.75144e-05
0.00235132 -5.16413e-05 -4.16865e-06
-5.16413e-05 0.00103071 2.16865e-07
-4.16865e-06 2.16865e-07 0.00104477
0.000555346 -1.97231e-05 -7.2614e-07
-1.97231e-05 -4.28774e-05 4.15781e-06
-7.2614e-07 4.15781e-06 -5.81086e-05
0.00222502 -3.56248e-05 1.55215e-05
-3.56248e-05 0.000952062 4.62745e-06
1.55215e-05 4.62745e-06 0.000968669
0.0042749 5.81986e-05 9.54868e-05
5.81986e-05 0.00169548 2.50213e-05
9.54868e-05 2.50213e-05 0.000603661
0.000535432 -7.63411e-05 -1.16863e-06
-7.63411e-05 5.93371e-05 1.00038e-06
-1.16863e-06 1.00038e-06 8.91747e-05
0.00135784 -7.96173e-05 -1.58843e-05
-7.96173e-05 -0.000374872 4.7031e-06
-1.58843e-05 4.7031e-06 -0.00011814
0.000593286 0.000103949 -5.20698e-06
0.000103949 9.09601e-06 -1.42982e-06
-5.20698e-06 -1.42982e-06 -0.000114124
0.000823699 6.04752e-05 -5.33009e-07
6.04752e-05 0.000155282 5.28388e-07
-5.33009e-07 5.28388e-07 3.76764e-05
0.000528213 2.88172e-05 4.87658e-07
2.88172e-05 -3.43795e-05 -4.54508e-08
4.87658e-07 -4.54508e-08 -0.00014776
0.000796936 3.33417e-05 -6.92574e-08
3.33417e-05 0.000127625 -1.03463e-07
-6.92574e-08 -1.03463e-07 1.18358e-05
0.000785971 7.4606e-05 -5.90186e-07
7.4606e-05 0.000116245 2.41639e-08
-5.90186e-07 2.41639e-08 -1.0234e-06
0.00103567 0.000120038 8.63931e-07
0.000120038 0.000288327 3.47322e-07
8.63931e-07 3.47322e-07 0.000154669
0.000876939 9.64991e-05 -1.15177e-06
9.64991e-05 0.000175812 -6.04109e-06
-1.15177e-06 -6.04109e-06 2.9771e-05
9.813e-05 2.10501e-05 1.61041e-07
2.10501e-05 -0.00024925 -6.71477e-07
1.61041e-07 -6.71477e-07 -0.000377035
0.000809776 0.000113071 -1.50773e-06
0.000113071 0.000159207 8.04269e-07
-1.50773e-06 8.04269e-07 2.74559e-05
0.000483757 1.63623e-05 -2.00141e-06
1.63623e-05 -4.88754e-05 -2.85173e-06
-2.00141e-06 -2.85173e-06 -0.000160703
0.000608924 5.6919e-05 -2.17915e-07
5.6919e-05 5.2974e-05 7.69954e-07
-2.17915e-07 7.69954e-07 -7.71906e-05
0.00164105 0.000156286 7.82632e-06
0.000156286 0.000696422 5.74474e-06
7.82632e-06 5.74474e-06 0.000556461
0.00109994 -0.000827409 0.00011138
-0.000827409 0.00247817 0.000186449
0.00011138 0.000186449 0.000656633
0.00355481 0.000290982 2.28763e-05
0.000290982 0.00182011 7.64474e-05
2.28763e-05 7.64474e-05 -0.00101685
0.000782281 8.82032e-05 -2.17875e-05
8.82032e-05 0.00025743 -3.70613e-05
-2.17875e-05 -3.70613e-05 -0.00143398
0.00928771 -0.00180666 -0.000242988
-0.00180666 0.00121766 -0.000181916
-0.000242988 -0.000181916 0.00222061
0.0054319 -0.000631781 5.74461e-05
-0.000631781 0.00126375 0.000226581
5.74461e-05 0.000226581 1.45448e-05
0.00073883 -0.000778788 -9.43677e-05
-0.000778788 0.00180736 8.93229e-05
-9.43677e-05 8.93229e-05 -0.00279145
0.00108218 -0.000288848 3.62236e-06
-0.000288848 0.000150564 6.91077e-05
3.62236e-06 6.91077e-05 -0.000419551
0.0026039 -0.00013157 2.57661e-05
-0.00013157 0.000628969 5.14979e-05
2.57661e-05 5.14979e-05 0.000259727
0.000437985 -0.0023274 0.000110922
-0.0023274 -0.000785958 0.000125667
0.000110922 0.000125667 0.000652237
0.00491517 0.000863213 -5.74564e-06
0.000863213 0.00355453 -2.16203e-05
-5.74564e-06 -2.16203e-05 -0.000711204
0.00276473 -0.00120659 -3.79773e-05
-0.00120659 -0.000899755 4.81566e-05
-3.79773e-05 4.81566e-05 -0.00127327
0.000905507 0.000337463 -2.82279e-06
0.000337463 -6.25852e-05 4.53308e-05
-2.82279e-06 4.53308e-05 -0.00015921
0.00823696 0.00088754 -3.86149e-05
0.00088754 0.00390746 -1.28669e-05
-3.86149e-05 -1.28669e-05 0.000795764
0.00319835 -0.00198485 -0.000200411
-0.00198485 -0.000154018 -0.000188536
-0.000200411 -0.000188536 2.44256e-05
0.000935651 0.000314251 5.47389e-06
0.000314251 0.000229439 -1.28595e-05
5.47389e-06 -1.28595e-05 9.27785e-05
0.000653343 9.05024e-05 2.98485e-06
9.05024e-05 0.000143202 -5.51935e-07
2.98485e-06 -5.51935e-07 1.95513e-05
0.000510956 3.9515e-05 -2.40658e-06
3.9515e-05 2.24418e-05 -2.09326e-06
-2.40658e-06 -2.09326e-06 -0.000126009
-4.83289e-05 -6.54947e-05 -0.000164066
-6.54947e-05 0.000949833 -4.43374e-05
-0.000164066 -4.43374e-05 -0.000186433
-0.00220555 0.000133908 5.1957e-06
0.000133908 -0.00116598 -1.5575e-05
5.1957e-06 -1.5575e-05 -0.00144429
0.000111059 0.000106479 -2.52064e-06
0.000106479 -2.69532e-05 5.00868e-06
-2.52064e-06 5.00868e-06 -0.000227476
0.00055495 0.000295593 1.11021e-05
0.000295593 0.000241531 3.40021e-06
1.11021e-05 3.40021e-06 2.63488e-05
0.000756334 0.000249234 -2.54701e-06
0.000249234 0.000544531 -3.28401e-05
-2.54701e-06 -3.28401e-05 -0.000145162
-0.000117714 0.000474405 2.74775e-05
0.000474405 -0.000475815 6.66859e-06
2.74775e-05 6.66859e-06 -0.000801917
-0.00102197 0.000287266 0.000152499
0.000287266 0.00320041 7.22259e-06
0.000152499 7.22259e-06 0.00076612
0.00202017 -1.93697e-05 -5.85855e-06
-1.93697e-05 0.00117252 2.06205e-05
-5.85855e-06 2.06205e-05 -0.000270305
9.74262e-05 -1.7583e-05 1.67456e-06
-1.7583e-05 0.000324279 1.5721e-05
1.67456e-06 1.5721e-05 -0.00011321
0.000226158 -0.000121136 -4.60868e-05
-0.000121136 0.00049509 4.32053e-06
-4.60868e-05 4.32053e-06 5.02294e-05
0.000176142 -9.36666e-05 -5.18734e-05
-9.36666e-05 -0.000911992 1.52286e-05
-5.18734e-05 1.52286e-05 -0.000678605
0.00147424 -0.000107172 -9.04371e-05
-0.000107172 0.000258189 2.97984e-05
-9.04371e-05 2.97984e-05 -0.00124062
-0.0017916 -0.00134975 6.55022e-05
-0.00134975 -2.67857e-05 -9.36697e-05
6.55022e-05 -9.36697e-05 -0.00396974
-0.00150161 0.0016649 0.00017126
0.0016649 -0.00348722 -0.000164949
0.00017126 -0.000164949 -0.00297944
0.00244607 0.000779805 -0.000186452
0.000779805 0.0032492 0.000157774
-0.000186452 0.000157774 0.00218314
0.00172623 -0.000165764 -8.14383e-06
-0.000165764 0.000580196 -5.12433e-07
-8.14383e-06 -5.12433e-07 0.000673782
0.0015569 0.000180189 2.96383e-05
0.000180189 0.00347832 7.38504e-06
2.96383e-05 7.38504e-06 0.00207894
-0.00354972 0.00118552 2.68957e-05
0.00118552 -0.000901101 1.31185e-05
2.68957e-05 1.31185e-05 -0.00227988
0.00358577 -0.0010511 3.73615e-05
-0.0010511 0.00125613 -1.04922e-05
3.73615e-05 -1.04922e-05 0.000633146
0.0110069 -0.000743876 1.54585e-05
-0.000743876 0.00360528 -1.09475e-05
1.54585e-05 -1.09475e-05 0.00169796
0.00315682 -0.000641285 -1.22608e-05
-0.000641285 0.00104544 2.39961e-05
-1.22608e-05 2.39961e-05 0.00108771
-0.00813044 0.00045606 -0.000206117
0.00045606 -0.00370013 6.01047e-06
-0.000206117 6.01047e-06 -0.00457474
0.0121226 -0.000408893 -8.80117e-05
-0.000408893 0.00323371 2.7153e-05
-8.80117e-05 2.7153e-05 0.00170018
0.00354464 -0.00119458 1.82273e-05
-0.00119458 -4.98689e-05 -2.00305e-05
1.82273e-05 -2.00305e-05 -0.000564989
0.001153 -0.000268966 -1.5859e-05
-0.000268966 0.000604438 1.64261e-05
-1.5859e-05 1.64261e-05 0.000308076
0.00170687 -0.00044967 -4.65356e-06
-0.00044967 0.000323549 1.38614e-06
-4.65356e-06 1.38614e-06 0.00028048
0.00297629 -0.000516998 1.36387e-05
-0.000516998 0.000808137 -4.72827e-06
1.36387e-05 -4.72827e-06 0.000746989
-0.00185036 -8.54441e-05 -3.77559e-06
-8.54441e-05 -0.0013092 1.1613e-07
-3.77559e-06 1.1613e-07 -0.00162048
0.00139617 -0.000468663 -4.86001e-06
-0.000468663 0.000103791 -2.55991e-06
-4.86001e-06 -2.55991e-06 -0.000164737
0.00227785 -0.000567615 3.19188e-06
-0.000567615 0.000382694 -6.60943e-07
3.19188e-06 -6.60943e-07 0.000165708
0.00136735 -0.000392955 -1.34352e-05
-0.000392955 0.000237397 -2.35053e-06
-1.34352e-05 -2.35053e-06 -0.0001203
0.00155597 -0.000479969 8.60008e-08
-0.000479969 0.000144177 3.6572e-07
8.60008e-08 3.6572e-07 -0.000149215
0.00165017 -0.000431898 -2.77356e-08
-0.000431898 2.84623e-05 -5.27758e-06
-2.77356e-08 -5.27758e-06 -0.000168176
0.00127058 -0.000409106 -3.17061e-06
-0.000409106 7.17272e-05 -1.97118e-07
-3.17061e-06 -1.97118e-07 -0.00025804
0.00162064 -0.000410728 -3.77745e-07
-0.000410728 0.0001473 6.60048e-07
-3.77745e-07 6.60048e-07 -9.7576e-05
0.0017517 -0.00034692 -2.05967e-06
-0.00034692 0.000103897 -5.02716e-06
-2.05967e-06 -5.02716e-06 -5.79663e-05
0.00162376 -0.00027689 -4.01103e-06
-0.00027689 4.38932e-05 -3.0745e-06
-4.01103e-06 -3.0745e-06 -9.98238e-05
0.00155164 -0.000337337 -2.65729e-06
-0.000337337 7.84883e-05 -2.14231e-06
-2.65729e-06 -2.14231e-06 -0.000127344
0.00163266 -0.000338381 9.78241e-07
-0.000338381 0.000108994 1.43938e-06
9.78241e-07 1.43938e-06 -8.62263e-05
0.00149329 -0.000358889 -2.22903e-06
-0.000358889 0.000162139 -6.92069e-07
-2.22903e-06 -6.92069e-07 -7.91182e-05
0.00163835 -0.000410536 1.58454e-06
-0.000410536 0.00020836 -2.39405e-07
1.58454e-06 -2.39405e-07 -4.51856e-05
0.00161198 -0.000403246 1.56969e-06
-0.000403246 0.000201588 9.17891e-08
1.56969e-06 9.17891e-08 -5.00378e-05
0.00144214 -0.000296264 -1.10083e-06
-0.000296264 0.000272009 1.30964e-06
-1.10083e-06 1.30964e-06 5.13061e-05
0.00143817 -0.000341786 1.59691e-06
-0.000341786 0.000215165 -8.02388e-07
1.59691e-06 -8.02388e-07 -2.94523e-05
0.00164169 -0.000416428 -2.17259e-06
-0.000416428 0.000309111 -1.85494e-06
-2.17259e-06 -1.85494e-06 2.65278e-05
0.000953907 -0.000208658 -1.08365e-06
-0.000208658 0.000134284 2.75922e-06
-1.08365e-06 2.75922e-06 -6.01644e-05
0.00119804 -0.000256156 1.16901e-06
-0.000256156 0.000226672 4.77536e-07
1.16901e-06 4.77536e-07 1.18941e-05
0.000951847 -0.000248041 -9.64967e-07
-0.000248041 5.30417e-05 -4.15597e-06
-9.64967e-07 -4.15597e-06 -0.000152667
0.000707182 -7.68761e-05 -7.37776e-07
-7.68761e-05 7.86568e-05 5.36613e-06
-7.37776e-07 5.36613e-06 -5.89559e-05
0.00094637 -0.000172347 -1.56909e-07
-0.000172347 0.000207621 -1.2397e-07
-1.56909e-07 -1.2397e-07 1.9311e-05
0.000455231 -0.000159488 -4.12131e-06
-0.000159488 -0.000103802 -4.99002e-07
-4.12131e-06 -4.99002e-07 -0.000303334
0.000391552 4.67766e-05 4.86886e-07
4.67766e-05 -9.46315e-05 7.80547e-06
4.86886e-07 7.80547e-06 -0.000138414
0.000696078 -4.2277e-05 -5.34158e-07
-4.2277e-05 8.4226e-05 -4.8601e-07
-5.34158e-07 -4.8601e-07 -2.78244e-05
0.00115419 -0.000120803 9.30685e-07
-0.000120803 0.000384864 -1.32815e-06
9.30685e-07 -1.32815e-06 0.000206328
0.00258411 0.000139102 -6.89233e-06
0.000139102 0.00121228 1.78115e-06
-6.89233e-06 1.78115e-06 0.00120599
0.000529964 5.69009e-05 -3.71317e-07
5.69009e-05 -1.90701e-05 -2.49291e-07
-3.71317e-07 -2.49291e-07 -5.35102e-05
0.000772124 -1.8036e-05 1.99351e-06
-1.8036e-05 0.000115778 -4.16947e-06
1.99351e-06 -4.16947e-06 3.32137e-05
0.00248101 0.000111699 3.71269e-06
0.000111699 0.00114124 3.06459e-07
3.71269e-06 3.06459e-07 0.00114308
0.000562287 5.8904e-05 -3.17749e-07
5.8904e-05 -7.14536e-06 -5.44418e-06
-3.17749e-07 -5.44418e-06 -3.59705e-05
0.00245205 0.000101302 2.82438e-05
0.000101302 0.00111739 -3.29068e-06
2.82438e-05 -3.29068e-06 0.00112171
0.000892143 0.000118889 4.01829e-07
0.000118889 0.000188289 1.69496e-06
4.01829e-07 1.69496e-06 5.52753e-05
0.00078074 6.71715e-05 -1.13282e-08
6.71715e-05 0.000130657 -1.22621e-07
-1.13282e-08 -1.22621e-07 8.21544e-06
0.000806393 5.64329e-05 4.26925e-09
5.64329e-05 0.000165237 -2.45624e-06
4.26925e-09 -2.45624e-06 3.45733e-05
0.000654841 1.80215e-06 -8.79608e-07
1.80215e-06 3.9326e-05 -3.43583e-06
-8.79608e-07 -3.43583e-06 -3.7843e-05
0.000723813 4.21916e-05 3.39474e-07
4.21916e-05 0.000104498 2.16489e-07
3.39474e-07 2.16489e-07 -1.06172e-05
0.000584013 5.54274e-05 8.12428e-07
5.54274e-05 2.02806e-05 1.14416e-06
8.12428e-07 1.14416e-06 -0.000101066
0.000558097 -2.80335e-05 -1.13192e-06
-2.80335e-05 -2.83876e-05 -5.90183e-06
-1.13192e-06 -5.90183e-06 -5.607e-05
0.000630762 1.07804e-05 -3.03578e-08
1.07804e-05 2.39397e-05 -7.48899e-08
-3.03578e-08 -7.48899e-08 -4.85311e-05
0.000706622 5.77762e-05 5.37231e-07
5.77762e-05 8.77457e-05 1.4827e-06
5.37231e-07 1.4827e-06 -1.666e-05
0.00261458 -8.15238e-05 -3.42764e-05
-8.15238e-05 0.00119726 -4.22742e-06
-3.42764e-05 -4.22742e-06 0.00120562
0.000537427 -2.52354e-05 -4.11452e-07
-2.52354e-05 -4.56159e-05 -8.30818e-08
-4.11452e-07 -8.30818e-08 -6.88567e-05
0.000625496 2.1541e-05 4.38065e-07
2.1541e-05 1.98282e-05 2.82358e-06
4.38065e-07 2.82358e-06 -4.7216e-05
0.00245629 -6.6143e-05 -4.64072e-06
-6.6143e-05 0.00109728 2.85728e-07
-4.64072e-06 2.85728e-07 0.00110878
0.00054473 -2.46221e-05 -7.03261e-07
-2.46221e-05 -4.58707e-05 4.73963e-06
-7.03261e-07 4.73963e-06 -6.49661e-05
0.00231112 -5.0022e-05 1.97559e-05
-5.0022e-05 0.00100637 4.53262e-06
1.97559e-05 4.53262e-06 0.00102087
-0.00567 0.000226149 -7.01752e-06
0.000226149 0.0011543 4.35024e-05
-7.01752e-06 4.35024e-05 -0.00151827
0.00407267 2.93307e-07 -2.2051e-06
2.93307e-07 0.00182768 6.79884e-06
-2.2051e-06 6.79884e-06 0.000698339
0.000563661 -7.9121e-05 -7.96797e-06
-7.9121e-05 3.54913e-05 -4.44259e-06
-7.96797e-06 -4.44259e-06 5.44798e-05
0.000522869 7.18093e-05 -1.23717e-06
7.18093e-05 -3.67883e-05 1.0562e-06
-1.23717e-06 1.0562e-06 -0.000153331
0.00201443 0.000294756 -6.37401e-07
0.000294756 0.000855215 2.83112e-06
-6.37401e-07 2.83112e-06 0.000682558
0.000767039 7.45446e-05 -3.28063e-06
7.45446e-05 0.00010512 -7.14962e-07
-3.28063e-06 -7.14962e-07 -2.27737e-05
0.00103979 3.64597e-05 -5.41305e-07
3.64597e-05 0.000264874 -7.97854e-07
-5.41305e-07 -7.97854e-07 0.000151122
0.00129899 0.00012503 2.13509e-06
0.00012503 0.000414345 5.77675e-07
2.13509e-06 5.77675e-07 0.000292179
0.000534201 4.83247e-05 -1.89115e-06
4.83247e-05 -2.22536e-05 2.54379e-06
-1.89115e-06 2.54379e-06 -0.000134729
0.000585777 6.66439e-05 -1.1506e-06
6.66439e-05 4.37427e-05 1.19393e-06
-1.1506e-06 1.19393e-06 -9.57398e-05
0.000733506 7.58537e-05 -1.34414e-06
7.58537e-05 9.07716e-05 -1.33636e-06
-1.34414e-06 -1.33636e-06 -4.82117e-05
0.000907321 0.000140996 9.76357e-07
0.000140996 0.000228252 -4.11693e-06
9.76357e-07 -4.11693e-06 5.35635e-05
0.000415662 0.0001995 2.00817e-06
0.0001995 -0.00013274 -3.82277e-06
2.00817e-06 -3.82277e-06 -0.000238898
0.000992114 8.62592e-05 -2.0549e-06
8.62592e-05 0.000284788 -1.23735e-07
-2.0549e-06 -1.23735e-07 0.000144617
0.00109286 0.000138434 4.45739e-07
0.000138434 0.000380687 3.06002e-06
4.45739e-07 3.06002e-06 0.000238671
-0.00519187 -0.000890226 -0.00039153
-0.000890226 -0.00118853 -5.01044e-06
-0.00039153 -5.01044e-06 -0.00249341
-0.00300217 -0.000618557 0.000161707
-0.000618557 0.00141936 8.16948e-05
0.000161707 8.16948e-05 -0.000743346
0.00423483 0.000328284 -0.000142623
0.000328284 0.00192297 -7.43311e-05
-0.000142623 -7.43311e-05 -0.000991578
-0.00785233 -0.00238615 0.000539929
-0.00238615 -0.00321956 0.000429083
0.000539929 0.000429083 -0.00186915
0.0132674 -0.00145199 -5.83838e-05
-0.00145199 0.00406528 0.000131321
-5.83838e-05 0.000131321 0.00382549
-0.00131718 0.00102451 8.61849e-07
0.00102451 0.00026391 -7.14351e-05
8.61849e-07 -7.14351e-05 -0.00385247
0.00237443 -1.48278e-05 -0.000138283
-1.48278e-05 0.000894237 3.59016e-05
-0.000138283 3.59016e-05 -1.26502e-05
0.00244156 0.000396521 -2.41851e-06
0.000396521 0.000765226 2.32509e-05
-2.41851e-06 2.32509e-05 0.000497179
0.00946864 -0.00160117 -0.000170405
-0.00160117 0.00450983 5.4055e-05
-0.000170405 5.4055e-05 0.00432362
-0.000113196 0.00102753 -1.06928e-05
0.00102753 0.000487253 -2.72874e-05
-1.06928e-05 -2.72874e-05 -0.00278909
0.00164978 0.000739938 -4.30463e-05
0.000739938 0.0002844 -6.21009e-05
-4.30463e-05 -6.21009e-05 0.000138895
0.00438683 0.00153668 -0.000178989
0.00153668 0.000320657 -0.000102049
-0.000178989 -0.000102049 -0.00196699
0.00223374 0.000622166 1.6825e-05
0.000622166 0.000610103 -2.19222e-05
1.6825e-05 -2.19222e-05 0.000380957
0.000834163 0.000286915 -4.40078e-06
0.000286915 0.000170684 6.99776e-07
-4.40078e-06 6.99776e-07 4.31399e-05
0.00130968 0.000101603 -4.84796e-06
0.000101603 0.000511461 3.91283e-06
-4.84796e-06 3.91283e-06 0.000397361
-0.00106066 0.000187795 -4.53146e-05
0.000187795 -0.000448811 -4.60463e-05
-4.53146e-05 -4.60463e-05 -0.00104195
0.00280518 0.00043598 -1.9218e-05
0.00043598 0.00141226 -1.43877e-05
-1.9218e-05 -1.43877e-05 0.00119324
0.0011955 0.00059156 1.311e-05
0.00059156 0.000137816 -3.94091e-06
1.311e-05 -3.94091e-06 -0.000193177
0.00316779 0.000952367 9.89999e-05
0.000952367 0.000509743 3.17643e-05
9.89999e-05 3.17643e-05 0.000392499
-0.00464594 -7.97142e-05 -0.000284727
-7.97142e-05 -0.00363604 3.6836e-06
-0.000284727 3.6836e-06 -0.00252847
-0.00306901 0.000169116 0.000130725
0.000169116 0.00250962 2.25421e-06
0.000130725 2.25421e-06 -6.37072e-05
0.00205659 -5.06813e-05 -6.94698e-05
-5.06813e-05 0.00123336 2.84561e-05
-6.94698e-05 2.84561e-05 0.000106157
0.00347988 -0.000337 -6.34849e-05
-0.000337 0.00136639 -3.55815e-05
-6.34849e-05 -3.55815e-05 0.0014332
0.00149641 -0.000901342 -2.65443e-05
-0.000901342 -1.09775e-05 1.22965e-05
-2.65443e-05 1.22965e-05 -0.000453208
0.00167943 0.000126205 -2.03691e-05
0.000126205 0.0034699 3.30428e-05
-2.03691e-05 3.30428e-05 0.0021991
0.00265514 -0.000870165 0.000161896
-0.000870165 0.000124633 -0.000125937
0.000161896 -0.000125937 -0.0023229
0.010583 0.0011553 0.000124953
0.0011553 0.00501756 4.2016e-06
0.000124953 4.2016e-06 0.00421878
0.00270932 -0.000749061 -2.18708e-05
-0.000749061 0.000653631 7.49854e-06
-2.18708e-05 7.49854e-06 0.000549631
-0.000652629 0.0005632 7.5367e-05
0.0005632 -0.00049061 -1.92251e-05
7.5367e-05 -1.92251e-05 -0.00107283
0.00461727 -0.000384628 -5.20868e-05
-0.000384628 -0.000455457 5.57813e-05
-5.20868e-05 5.57813e-05 -0.00258367
0.00581147 -0.00130794 -3.37777e-05
-0.00130794 0.00120091 1.54793e-05
-3.37777e-05 1.54793e-05 0.000659281
0.0012011 -0.00050373 4.41248e-05
-0.00050373 -0.000100352 -9.8329e-06
4.41248e-05 -9.8329e-06 -0.000291816
0.0100868 -0.000434884 1.40091e-05
-0.000434884 0.0023891 -2.98959e-05
1.40091e-05 -2.98959e-05 0.000929917
0.00387594 -0.000692522 6.86657e-05
-0.000692522 -0.00042684 -3.93444e-05
6.86657e-05 -3.93444e-05 -0.000344412
-0.000863921 -0.000271456 -1.95676e-05
-0.000271456 -0.00113634 7.89701e-06
-1.95676e-05 7.89701e-06 -0.00108002
0.000557185 -0.000363731 -9.11286e-06
-0.000363731 -0.000508475 -1.13188e-06
-9.11286e-06 -1.13188e-06 -0.000512838
0.00330489 -0.000548436 2.86029e-05
-0.000548436 0.000793654 -1.72238e-05
2.86029e-05 -1.72238e-05 0.000753774
0.000186826 -0.000351026 -1.1507e-05
-0.000351026 -0.000497826 -5.67703e-06
-1.1507e-05 -5.67703e-06 -0.000765013
0.00173531 -0.000516572 2.55989e-08
-0.000516572 0.000109108 -2.42565e-07
2.55989e-08 -2.42565e-07 -9.58602e-05
0.00216426 -0.000467863 -1.76294e-06
-0.000467863 0.00017554 -1.17523e-06
-1.76294e-06 -1.17523e-06 4.17674e-05
0.00142553 -0.000459477 -2.30244e-06
-0.000459477 8.15294e-05 3.92289e-06
-2.30244e-06 3.92289e-06 -0.000214404
0.00183654 -0.000443262 -2.12016e-06
-0.000443262 0.000130131 6.2206e-07
-2.12016e-06 6.2206e-07 -7.00902e-05
0.00182729 -0.00034475 -6.7364e-07
-0.00034475 4.20347e-05 -1.23205e-06
-6.7364e-07 -1.23205e-06 -7.94468e-05
0.00129685 -0.000379749 4.31103e-06
-0.000379749 -3.17917e-05 4.31148e-06
4.31103e-06 4.31148e-06 -0.000270665
0.00171351 -0.000338065 -8.46718e-08
-0.000338065 8.98206e-05 8.5089e-07
-8.46718e-08 8.5089e-07 -7.01403e-05
0.00179099 -0.000284947 -3.48281e-06
-0.000284947 8.34255e-05 -1.41105e-06
-3.48281e-06 -1.41105e-06 -2.76636e-05
0.00193593 -0.000266819 -2.42031e-06
-0.000266819 0.000229925 -6.0306e-07
-2.42031e-06 -6.0306e-07 0.00011459
0.00169634 -0.000278782 -2.48819e-06
-0.000278782 8.25211e-05 3.08072e-06
-2.48819e-06 3.08072e-06 -5.66943e-05
0.0017479 -0.000291625 -1.21726e-06
-0.000291625 0.000150274 -5.43755e-06
-1.21726e-06 -5.43755e-06 -8.18481e-06
0.00166209 -0.000334182 -3.87413e-06
-0.000334182 0.000178659 -1.88404e-06
-3.87413e-06 -1.88404e-06 -2.99306e-05
0.00167117 -0.000344729 1.19156e-06
-0.000344729 0.000146689 4.36457e-07
1.19156e-06 4.36457e-07 -5.95963e-05
0.00157977 -0.000326676 3.00965e-06
-0.000326676 8.39344e-05 5.60124e-06
3.00965e-06 5.60124e-06 -0.000106163
0.00140868 -0.000303109 -6.06512e-06
-0.000303109 0.000175807 1.97222e-06
-6.06512e-06 1.97222e-06 -4.28483e-05
0.00146271 -0.000356808 -3.30029e-07
-0.000356808 0.000141378 2.50357e-07
-3.30029e-07 2.50357e-07 -9.93557e-05
0.00167109 -0.000408711 1.97595e-06
-0.000408711 0.000236286 5.93183e-07
1.97595e-06 5.93183e-07 -1.48328e-05
0.00118525 -0.000239998 -3.99054e-06
-0.000239998 0.000186765 3.37935e-06
-3.99054e-06 3.37935e-06 -1.56125e-05
0.00126009 -0.000281081 1.88064e-07
-0.000281081 0.000164073 2.49383e-07
1.88064e-07 2.49383e-07 -5.5213e-05
0.00123547 -0.000326226 2.30712e-06
-0.000326226 0.000101661 -2.62216e-06
2.30712e-06 -2.62216e-06 -0.000139869
0.000783022 -0.000143551 -5.07088e-06
-0.000143551 8.6719e-05 4.82938e-06
-5.07088e-06 4.82938e-06 -7.01464e-05
0.00108325 -0.000220661 9.80735e-07
-0.000220661 0.000209484 -2.10022e-07
9.80735e-07 -2.10022e-07 1.29461e-05
0.000978574 -0.000236015 1.04664e-06
-0.000236015 9.2899e-05 -1.42187e-06
1.04664e-06 -1.42187e-06 -0.000117914
0.000376535 -5.95199e-06 -4.43291e-06
-5.95199e-06 -0.0001206 1.05302e-05
-4.43291e-06 1.05302e-05 -0.000173701
0.000722386 -0.000102674 4.47671e-07
-0.000102674 9.12386e-05 5.62682e-07
4.47671e-07 5.62682e-07 -5.3169e-05
0.00128416 -0.000191944 2.01619e-07
-0.000191944 0.000406281 -1.23925e-06
2.01619e-07 -1.23925e-06 0.000212168
0.00294482 0.000147539 -4.6633e-05
0.000147539 0.00142974 2.32926e-06
-4.6633e-05 2.32926e-06 0.0014221
0.000532146 3.26558e-05 -3.10332e-07
3.26558e-05 -1.74801e-05 -6.48882e-07
-3.10332e-07 -6.48882e-07 -6.02416e-05
0.0009364 -8.90702e-05 2.52296e-06
-8.90702e-05 0.000226984 -4.88291e-06
2.52296e-06 -4.88291e-06 0.000108339
0.00177597 0.000100346 2.20164e-05
0.000100346 0.000727594 2.80533e-07
2.20164e-05 2.80533e-07 0.000721985
0.000606196 4.96525e-05 1.11373e-06
4.96525e-05 2.38632e-05 -6.48391e-06
1.11373e-06 -6.48391e-06 -9.66258e-06
0.00257933 0.000114289 3.73767e-05
0.000114289 0.00119976 -2.68847e-06
3.73767e-05 -2.68847e-06 0.00120118
0.000900267 0.000128228 2.92624e-06
0.000128228 0.000173986 8.95069e-07
2.92624e-06 8.95069e-07 4.34919e-05
0.000598247 6.93012e-05 -1.93172e-07
6.93012e-05 9.37668e-06 3.29418e-07
-1.93172e-07 3.29418e-07 -0.000110858
0.000659708 4.35038e-05 -4.69731e-07
4.35038e-05 5.73245e-05 -1.47381e-06
-4.69731e-07 -1.47381e-06 -6.43855e-05
0.000912241 8.96316e-05 5.4652e-07
8.96316e-05 0.000211559 6.72338e-07
5.4652e-07 6.72338e-07 8.39039e-05
0.000711683 3.29408e-05 2.06636e-07
3.29408e-05 8.98995e-05 6.08629e-08
2.06636e-07 6.08629e-08 -2.57144e-05
0.000666729 4.71768e-06 -1.22776e-06
4.71768e-06 4.88112e-05 -4.05924e-06
-1.22776e-06 -4.05924e-06 -3.48015e-05
0.000563122 -2.95564e-05 -1.72757e-06
-2.95564e-05 -1.93689e-05 -6.61569e-06
-1.72757e-06 -6.61569e-06 -5.10078e-05
0.000627066 3.33631e-06 2.27412e-07
3.33631e-06 2.44554e-05 -7.30459e-08
2.27412e-07 -7.30459e-08 -5.32918e-05
0.000643384 1.38454e-05 -2.19795e-07
1.38454e-05 3.85879e-05 1.64721e-06
-2.19795e-07 1.64721e-06 -6.2245e-05
0.00271669 -9.49189e-05 -4.2699e-05
-9.49189e-05 0.0012643 -3.87404e-06
-4.2699e-05 -3.87404e-06 0.00126988
0.000530843 -2.46895e-05 -1.48365e-07
-2.46895e-05 -4.42877e-05 -6.45371e-08
-1.48365e-07 -6.45371e-08 -7.15978e-05
0.000613909 1.61886e-05 9.27073e-07
1.61886e-05 1.68348e-05 3.0393e-06
9.27073e-07 3.0393e-06 -5.68567e-05
0.00258404 -8.08955e-05 -4.92e-06
-8.08955e-05 0.00117863 3.27919e-07
-4.92e-06 3.27919e-07 0.00118717
0.00052524 -2.92773e-05 -3.28292e-07
-2.92773e-05 -5.24828e-05 5.33055e-06
-3.28292e-07 5.33055e-06 -7.58451e-05
0.00245595 -6.53928e-05 2.46285e-05
-6.53928e-05 0.00109659 4.44244e-06
2.46285e-05 4.44244e-06 0.00110825
0.000185553 0.000323713 -0.000209389
0.000323713 0.00166433 2.88175e-05
-0.000209389 2.88175e-05 0.00055779
-0.00259523 -1.26791e-05 1.26285e-05
-1.26791e-05 0.00187603 1.43058e-05
1.26285e-05 1.43058e-05 -0.000789315
0.00389972 -4.54275e-05 -6.981e-05
-4.54275e-05 0.00202674 -5.97878e-06
-6.981e-05 -5.97878e-06 0.000870365
0.000485187 4.0453e-05 2.31164e-06
4.0453e-05 -6.35661e-05 -1.50261e-06
2.31164e-06 -1.50261e-06 -0.000174066
0.000651315 4.83709e-05 2.3505e-06
4.83709e-05 3.33806e-05 8.11997e-07
2.3505e-06 8.11997e-07 -9.68452e-05
0.00144411 0.000235904 -1.51109e-06
0.000235904 0.000526882 8.31082e-07
-1.51109e-06 8.31082e-07 0.000367855
0.00145326 0.000283201 3.25202e-06
0.000283201 0.000454121 -2.07402e-06
3.25202e-06 -2.07402e-06 0.000244773
0.00106567 0.000186856 -6.93104e-06
0.000186856 0.000326614 -1.08653e-06
-6.93104e-06 -1.08653e-06 0.000158654
0.000899875 0.000113855 8.01282e-07
0.000113855 0.00022997 3.22391e-06
8.01282e-07 3.22391e-06 8.34934e-05
0.000754315 9.12398e-05 4.05999e-06
9.12398e-05 0.000108774 3.12101e-06
4.05999e-06 3.12101e-06 -3.01596e-05
0.000571484 0.000142568 -4.32261e-06
0.000142568 4.32645e-05 -3.45674e-06
-4.32261e-06 -3.45674e-06 -0.000124875
-0.000614501 0.0001077 -2.55905e-07
0.0001077 -0.000695484 -4.47622e-07
-2.55905e-07 -4.47622e-07 -0.0008634
0.00148992 0.000306236 2.52712e-06
0.000306236 0.000408325 -2.24185e-06
2.52712e-06 -2.24185e-06 0.000283584
0.00208572 0.000531156 3.12095e-06
0.000531156 0.00045787 -9.87523e-06
3.12095e-06 -9.87523e-06 0.000255819
0.000720031 0.000230137 -5.96994e-06
0.000230137 5.54514e-05 -5.99831e-07
-5.96994e-06 -5.99831e-07 -6.09333e-05
0.000656442 9.1113e-05 -3.60019e-07
9.1113e-05 8.30237e-05 -1.65472e-06
-3.60019e-07 -1.65472e-06 -4.65072e-05
0.0110834 0.00083773 -9.0509e-05
0.00083773 0.00273389 3.70751e-05
-9.0509e-05 3.70751e-05 0.00130189
-0.000263911 -0.000711382 -0.000188194
-0.000711382 0.0019416 -6.24211e-05
-0.000188194 -6.24211e-05 0.000532679
-0.00119512 -0.000987649 9.98654e-05
-0.000987649 0.00147417 -8.01458e-06
9.98654e-05 -8.01458e-06 -0.000709995
-0.00162399 -0.00087078 2.39782e-05
-0.00087078 -0.000398452 0.000149911
2.39782e-05 0.000149911 -0.000670381
0.0111043 0.00107813 2.69275e-07
0.00107813 0.00497572 -7.72962e-08
2.69275e-07 -7.72962e-08 0.00176415
0.000263648 0.000310185 -3.83486e-05
0.000310185 -0.000326486 -2.49224e-05
-3.83486e-05 -2.49224e-05 -0.000474705
0.0015451 0.000714088 -2.19922e-05
0.000714088 0.0002777 -1.17727e-05
-2.19922e-05 -1.17727e-05 0.000159002
0.0102662 0.000970912 2.72358e-05
0.000970912 0.00330971 2.24251e-05
2.72358e-05 2.24251e-05 0.00137062
0.00570762 0.00146455 -4.0735e-05
0.00146455 0.000903164 -4.59063e-05
-4.0735e-05 -4.59063e-05 0.000477415
0.00173176 0.000644582 2.24154e-06
0.000644582 0.000192229 -6.63948e-06
2.24154e-06 -6.63948e-06 2.12641e-05
0.00107154 0.00047029 5.84754e-06
0.00047029 0.00012441 -9.76495e-07
5.84754e-06 -9.76495e-07 -9.0445e-05
0.000839572 0.000259477 -1.65896e-05
0.000259477 0.000185691 1.77565e-05
-1.65896e-05 1.77565e-05 6.76388e-05
0.00271731 0.000760973 -4.44691e-05
0.000760973 0.000790537 -1.91774e-05
-4.44691e-05 -1.91774e-05 0.000474108
0.00219278 0.000871331 -6.17612e-07
0.000871331 -8.51704e-05 1.91396e-05
-6.17612e-07 1.91396e-05 -0.000213686
0.000889773 -0.000337599 -3.41123e-05
-0.000337599 -0.00312169 1.81606e-05
-3.41123e-05 1.81606e-05 -0.00337628
0.0022319 -0.000458665 -9.63464e-07
-0.000458665 0.00128889 -2.18196e-05
-9.63464e-07 -2.18196e-05 0.00137038
-0.00518295 2.81781e-05 0.000155856
2.81781e-05 0.00193335 -5.78557e-06
0.000155856 -5.78557e-06 -0.00081061
0.00159552 -0.000752906 -2.63013e-05
-0.000752906 -2.41364e-05 7.50892e-06
-2.63013e-05 7.50892e-06 -0.000202571
0.00316014 -0.00115366 3.23171e-05
-0.00115366 0.000477479 -8.1103e-06
3.23171e-05 -8.1103e-06 -0.000365947
0.00125025 -0.000291256 0.000242327
-0.000291256 0.00197101 -1.24541e-05
0.000242327 -1.24541e-05 0.00107747
0.0124982 -0.000471348 -0.000133859
-0.000471348 0.00365272 6.64409e-05
-0.000133859 6.64409e-05 0.00204911
0.000846767 -0.00050845 -2.7628e-05
-0.00050845 -0.000349244 -3.53499e-06
-2.7628e-05 -3.53499e-06 -0.0004698
0.00859785 5.86181e-05 -5.8691e-05
5.86181e-05 0.00113648 2.91384e-05
-5.8691e-05 2.91384e-05 0.00010384
0.0046044 -0.00075792 7.46858e-05
-0.00075792 -0.000120592 5.21752e-06
7.46858e-05 5.21752e-06 -0.000419206
0.00343458 -0.000532271 5.0336e-05
-0.000532271 0.000940188 -1.12904e-05
5.0336e-05 -1.12904e-05 0.000636015
0.00339579 -0.000275961 -9.29902e-05
-0.000275961 4.48623e-06 5.48465e-06
-9.29902e-05 5.48465e-06 2.35072e-05
-0.00126169 -0.000254625 -1.42524e-05
-0.000254625 -0.00150857 3.77745e-06
-1.42524e-05 3.77745e-06 -0.00146723
0.00155811 -0.000448615 -1.95495e-07
-0.000448615 -0.000136352 -6.96108e-07
-1.95495e-07 -6.96108e-07 -0.000154911
0.00238062 -0.000385624 1.61856e-05
-0.000385624 0.000174252 -9.43674e-06
1.61856e-05 -9.43674e-06 0.000203067
0.00121822 -0.000471086 -2.18597e-06
-0.000471086 -0.000150165 3.09307e-06
-2.18597e-06 3.09307e-06 -0.000345903
0.00182386 -0.000434996 -2.07517e-06
-0.000434996 1.51365e-05 2.97422e-07
-2.07517e-06 2.97422e-07 -0.000115541
0.00204171 -0.000339978 1.39849e-06
-0.000339978 4.18393e-05 1.09771e-06
1.39849e-06 1.09771e-06 -1.08278e-05
0.00182765 -0.000438844 -3.49593e-06
-0.000438844 0.000130046 5.92462e-06
-3.49593e-06 5.92462e-06 -7.19625e-05
0.0018669 -0.000346078 3.30775e-07
-0.000346078 6.48804e-05 1.61222e-06
3.30775e-07 1.61222e-06 -5.54055e-05
0.00181537 -0.000301369 -3.8024e-07
-0.000301369 4.10237e-05 1.73556e-06
-3.8024e-07 1.73556e-06 -4.35311e-05
0.00167736 -0.000330576 4.1421e-06
-0.000330576 7.52496e-05 5.3482e-06
4.1421e-06 5.3482e-06 -8.31107e-05
0.00176005 -0.000286124 -3.50844e-07
-0.000286124 6.42919e-05 1.2829e-06
-3.50844e-07 1.2829e-06 -4.77731e-05
0.00201916 -0.000287741 -7.28785e-07
-0.000287741 0.000229526 4.06406e-07
-7.28785e-07 4.06406e-07 0.000129109
0.00181383 -0.000262215 -3.97567e-06
-0.000262215 0.000149869 3.48935e-06
-3.97567e-06 3.48935e-06 3.82825e-05
0.00184626 -0.000274284 1.78981e-06
-0.000274284 0.000199632 -3.17766e-06
1.78981e-06 -3.17766e-06 6.96038e-05
0.00176844 -0.000281173 2.42775e-06
-0.000281173 0.0001209 7.65156e-06
2.42775e-06 7.65156e-06 -1.39572e-05
0.00174863 -0.00029325 3.5105e-07
-0.00029325 0.000150012 -7.95138e-07
3.5105e-07 -7.95138e-07 -9.16983e-06
0.00168414 -0.000288801 -1.39813e-06
-0.000288801 0.000150374 -3.20513e-06
-1.39813e-06 -3.20513e-06 -2.45011e-05
0.0015355 -0.000295472 -5.18331e-06
-0.000295472 0.000175707 -3.6263e-07
-5.18331e-06 -3.6263e-07 -2.81916e-05
0.0017004 -0.00033751 3.49756e-07
-0.00033751 0.000202684 -3.43222e-07
3.49756e-07 -3.43222e-07 -7.13143e-06
0.00179023 -0.000352307 3.61863e-06
-0.000352307 0.000215209 2.71223e-06
3.61863e-06 2.71223e-06 8.40267e-06
0.00114354 -0.00023387 -6.88449e-06
-0.00023387 8.78181e-05 2.44658e-06
-6.88449e-06 2.44658e-06 -0.000105296
0.00134472 -0.000297101 -9.98653e-07
-0.000297101 0.000139877 4.21892e-07
-9.98653e-07 4.21892e-07 -7.83546e-05
0.00143442 -0.000354555 2.61405e-06
-0.000354555 0.000122202 3.52888e-07
2.61405e-06 3.52888e-07 -0.000117949
0.000813062 -0.000161153 -6.98081e-06
-0.000161153 3.95993e-05 6.44343e-06
-6.98081e-06 6.44343e-06 -0.0001211
0.00113042 -0.000234906 8.61689e-07
-0.000234906 0.000154027 4.8562e-07
8.61689e-07 4.8562e-07 -4.74723e-05
0.00118868 -0.000274583 2.8832e-06
-0.000274583 0.000121102 -1.55754e-06
2.8832e-06 -1.55754e-06 -9.77402e-05
0.000405213 -7.53448e-05 -1.38381e-05
-7.53448e-05 -0.000129025 1.23612e-05
-1.38381e-05 1.23612e-05 -0.000193613
0.000791683 -0.000157833 -4.60863e-07
-0.000157833 9.09158e-05 2.38145e-07
-4.60863e-07 2.38145e-07 -6.79163e-05
0.00111461 -0.000219436 1.64106e-06
-0.000219436 0.00022697 -1.91464e-06
1.64106e-06 -1.91464e-06 3.13742e-05
0.00360546 0.000167383 -7.36738e-05
0.000167383 0.00182292 2.55335e-06
-7.36738e-05 2.55335e-06 0.0018105
0.000549701 -2.53409e-05 1.04726e-06
-2.53409e-05 -2.31145e-05 -3.64623e-07
1.04726e-06 -3.64623e-07 -7.73684e-05
0.000857177 -0.000150366 4.72928e-06
-0.000150366 0.000171792 -4.51933e-06
4.72928e-06 -4.51933e-06 2.10234e-05
0.00314136 0.0001407 8.69711e-06
0.0001407 0.00154264 4.05165e-07
8.69711e-06 4.05165e-07 0.00153738
0.000678557 1.51862e-05 5.45301e-06
1.51862e-05 6.32956e-05 -8.66309e-06
5.45301e-06 -8.66309e-06 2.1075e-05
0.0028105 0.00012236 5.66014e-05
0.00012236 0.00134091 -2.10245e-06
5.66014e-05 -2.10245e-06 0.00134079
0.00126257 0.00024229 4.29296e-06
0.00024229 0.000346164 -4.40046e-06
4.29296e-06 -4.40046e-06 0.000150052
0.000828694 0.000152702 1.12111e-06
0.000152702 0.000142071 -2.44479e-07
1.12111e-06 -2.44479e-07 3.44377e-06
0.000450879 5.08004e-05 2.13724e-07
5.08004e-05 -7.40902e-05 -5.8632e-07
2.13724e-07 -5.8632e-07 -0.000201015
0.000296219 3.0453e-05 1.0565e-07
3.0453e-05 -0.000167727 -3.61861e-07
1.0565e-07 -3.61861e-07 -0.00028022
0.000533476 1.81165e-05 -3.13393e-07
1.81165e-05 -2.02329e-05 6.48814e-07
-3.13393e-07 6.48814e-07 -0.000138616
0.000663254 1.07384e-05 -1.52047e-06
1.07384e-05 4.67496e-05 -4.13684e-06
-1.52047e-06 -4.13684e-06 -4.54895e-05
0.000621895 1.24802e-05 2.55975e-07
1.24802e-05 2.77321e-05 1.93837e-06
2.55975e-07 1.93837e-06 -7.98793e-05
0.000616523 -1.61014e-06 3.283e-07
-1.61014e-06 2.09852e-05 -2.04156e-07
3.283e-07 -2.04156e-07 -6.27278e-05
0.000567893 -3.27041e-05 -2.14543e-06
-3.27041e-05 -9.56523e-06 -7.39923e-06
-2.14543e-06 -7.39923e-06 -4.52669e-05
0.00282903 -0.00010883 -5.08163e-05
-0.00010883 0.00133889 -3.3903e-06
-5.08163e-05 -3.3903e-06 0.00134141
0.000526816 -2.74625e-05 1.2043e-07
-2.74625e-05 -4.07239e-05 -2.06413e-08
1.2043e-07 -2.06413e-08 -7.19839e-05
0.000589643 4.19547e-06 1.27065e-06
4.19547e-06 3.92084e-06 3.51437e-06
1.27065e-06 3.51437e-06 -7.42752e-05
0.00272139 -9.55094e-05 -5.18265e-06
-9.55094e-05 0.00126678 3.95726e-07
-5.18265e-06 3.95726e-07 0.00127216
0.000507199 -2.39001e-05 1.12011e-06
-2.39001e-05 -5.78712e-05 5.88082e-06
1.12011e-06 5.88082e-06 -8.49991e-05
0.00255979 -8.00627e-05 3.05279e-05
-8.00627e-05 0.00116354 4.27567e-06
3.05279e-05 4.27567e-06 0.00117231
0.0112598 0.000521707 0.000200268
0.000521707 0.00259699 5.80478e-05
0.000200268 5.80478e-05 0.00168856
-0.00312974 -0.000887997 -0.000133222
-0.000887997 -0.0023855 -1.77303e-05
-0.000133222 -1.77303e-05 -0.00263876
-0.00530175 0.000387105 -7.04662e-05
0.000387105 0.000713804 -3.87031e-05
-7.04662e-05 -3.87031e-05 -0.00249863
0.000665159 2.45876e-05 8.9518e-06
2.45876e-05 3.47238e-05 1.87692e-06
8.9518e-06 1.87692e-06 -9.69276e-05
0.000946354 0.000191119 -3.10847e-06
0.000191119 0.000240573 1.59462e-06
-3.10847e-06 1.59462e-06 9.36843e-05
0.0013296 0.000208794 -1.01798e-07
0.000208794 0.000469982 -7.54662e-07
-1.01798e-07 -7.54662e-07 0.000299655
0.00129771 0.000266372 -4.08989e-06
0.000266372 0.000372987 1.09152e-06
-4.08989e-06 1.09152e-06 0.00016819
0.00111402 0.000289169 1.32722e-05
0.000289169 0.000121956 1.38349e-06
1.32722e-05 1.38349e-06 -0.000111426
0.000163494 0.000172171 -5.16215e-07
0.000172171 -0.00024906 -2.6233e-06
-5.16215e-07 -2.6233e-06 -0.000427926
0.000358673 0.000135797 -2.54429e-06
0.000135797 -6.43666e-05 -2.42792e-06
-2.54429e-06 -2.42792e-06 -0.000228842
0.000222056 0.000194002 1.18378e-06
0.000194002 -0.000237526 1.78494e-06
1.18378e-06 1.78494e-06 -0.000430172
0.00102418 0.000277713 5.40367e-07
0.000277713 0.000164667 6.76e-07
5.40367e-07 6.76e-07 3.68423e-05
0.000641788 0.000298851 5.49727e-06
0.000298851 -0.00015997 1.65627e-06
5.49727e-06 1.65627e-06 -0.000340569
0.00341225 0.000603338 -3.68664e-06
0.000603338 0.00116285 -3.6963e-06
-3.68664e-06 -3.6963e-06 0.000978297
0.00206507 0.000557659 -5.36452e-06
0.000557659 0.000359622 4.07476e-06
-5.36452e-06 4.07476e-06 0.000173962
0.00149269 0.000478957 3.687e-06
0.000478957 0.000153318 -2.82731e-06
3.687e-06 -2.82731e-06 -3.03211e-05
0.000380576 0.000221917 -2.34385e-06
0.000221917 -0.000123783 3.29389e-06
-2.34385e-06 3.29389e-06 -0.00024461
0.00564916 0.00065428 -1.80271e-05
0.00065428 0.000332653 9.07758e-06
-1.80271e-05 9.07758e-06 0.000570847
0.00951714 0.000675108 9.25758e-05
0.000675108 0.00187382 4.8918e-05
9.25758e-05 4.8918e-05 0.00032061
0.00543024 -0.00139963 9.83518e-05
-0.00139963 0.0031039 -5.70933e-05
9.83518e-05 -5.70933e-05 0.00232519
0.00389444 0.00140129 0.000336011
0.00140129 -8.34612e-07 0.000153501
0.000336011 0.000153501 -0.00329735
0.00116227 0.0006026 -4.11659e-05
0.0006026 0.000143305 -7.97672e-07
-4.11659e-05 -7.97672e-07 0.000251089
0.00337168 0.00112577 -8.44381e-05
0.00112577 -6.21764e-05 -2.59304e-05
-8.44381e-05 -2.59304e-05 -0.00023153
0.0038487 0.000923426 4.17355e-05
0.000923426 0.00066529 2.05623e-05
4.17355e-05 2.05623e-05 0.000627448
0.00304047 0.000763195 8.21432e-06
0.000763195 0.000767293 6.7618e-06
8.21432e-06 6.7618e-06 0.000596797
0.000625372 0.000404065 -9.68304e-06
0.000404065 -5.8855e-05 1.91276e-05
-9.68304e-06 1.91276e-05 -0.000258487
0.00396681 0.00102629 -0.000121658
0.00102629 0.000751496 -2.85823e-05
-0.000121658 -2.85823e-05 0.000548822
0.00286256 -0.00022455 -6.38893e-05
-0.00022455 0.000347442 9.13079e-06
-6.38893e-05 9.13079e-06 0.000122087
0.0100441 -0.000286354 -1.02192e-05
-0.000286354 0.00261437 4.30841e-06
-1.02192e-05 4.30841e-06 0.00200703
-0.00927785 -0.000663106 0.000317358
-0.000663106 -0.00525725 -8.54148e-06
0.000317358 -8.54148e-06 -0.00488309
0.000256029 -0.000478721 -4.47566e-05
-0.000478721 -0.000750963 8.87896e-06
-4.47566e-05 8.87896e-06 -0.000802616
0.0068557 -0.000981059 0.000116552
-0.000981059 0.000942554 2.84721e-05
0.000116552 2.84721e-05 0.000751427
0.00137436 -0.000381758 -1.4463e-05
-0.000381758 -0.0021843 5.90244e-05
-1.4463e-05 5.90244e-05 -0.00361985
0.00150855 -0.00038684 1.71094e-05
-0.00038684 -0.000142572 1.20339e-06
1.71094e-05 1.20339e-06 -0.000277215
0.00277656 -0.000154111 -6.77866e-06
-0.000154111 -0.000385073 5.63186e-06
-6.77866e-06 5.63186e-06 -0.000436248
0.00420364 -0.000397087 2.23756e-05
-0.000397087 0.000989202 -8.94773e-06
2.23756e-05 -8.94773e-06 0.00106835
0.00364038 -0.000105556 7.0631e-05
-0.000105556 0.000861425 1.36564e-06
7.0631e-05 1.36564e-06 0.000823883
-0.000127644 -0.00036025 -8.58952e-06
-0.00036025 -0.00103754 7.84238e-06
-8.58952e-06 7.84238e-06 -0.00103065
0.0017751 -0.000360308 -3.56125e-07
-0.000360308 -0.000153371 5.68453e-07
-3.56125e-07 5.68453e-07 -0.000115708
0.00181913 -0.000248983 1.39286e-05
-0.000248983 -0.000184981 -2.45345e-06
1.39286e-05 -2.45345e-06 -7.93194e-05
0.0015528 -0.000408729 -7.10211e-08
-0.000408729 -0.000116107 1.90151e-06
-7.10211e-08 1.90151e-06 -0.000243886
0.00196426 -0.000338102 1.85433e-06
-0.000338102 2.44313e-06 9.03509e-07
1.85433e-06 9.03509e-07 -5.08436e-05
0.00190119 -0.000275401 9.19766e-07
-0.000275401 3.82139e-05 1.2109e-06
9.19766e-07 1.2109e-06 9.57624e-06
0.00188846 -0.000345677 4.21034e-06
-0.000345677 7.73331e-05 3.68725e-06
4.21034e-06 3.68725e-06 -4.1203e-05
0.0018578 -0.000300595 8.19521e-07
-0.000300595 7.21975e-05 4.11772e-07
8.19521e-07 4.11772e-07 -1.18285e-05
0.00193332 -0.00026951 -2.05091e-06
-0.00026951 0.000139596 1.58019e-06
-2.05091e-06 1.58019e-06 6.04709e-05
0.0017326 -0.000286903 4.17485e-06
-0.000286903 4.77162e-05 3.54801e-06
4.17485e-06 3.54801e-06 -6.51251e-05
0.00184056 -0.000280632 2.38297e-07
-0.000280632 0.000132749 5.55275e-07
2.38297e-07 5.55275e-07 3.21253e-05
0.00169604 -0.000264172 3.38062e-06
-0.000264172 8.32911e-05 -1.51096e-06
3.38062e-06 -1.51096e-06 -2.9542e-05
0.00170021 -0.000258092 -2.4023e-06
-0.000258092 7.48084e-05 7.10595e-06
-2.4023e-06 7.10595e-06 -3.31093e-05
0.00187488 -0.000272243 -2.17924e-06
-0.000272243 0.000213918 6.18294e-08
-2.17924e-06 6.18294e-08 8.7555e-05
0.00178918 -0.000267118 6.46169e-07
-0.000267118 0.000193655 -1.98884e-06
6.46169e-07 -1.98884e-06 4.15142e-05
0.00175013 -0.000294423 2.19797e-06
-0.000294423 0.000150113 3.64603e-06
2.19797e-06 3.64603e-06 -9.65737e-06
0.00172467 -0.000291786 5.61919e-07
-0.000291786 0.000176014 -6.39257e-07
5.61919e-07 -6.39257e-07 2.94208e-08
0.00172393 -0.000270847 -2.21797e-06
-0.000270847 0.000239857 -1.27436e-06
-2.21797e-06 -1.27436e-06 5.87846e-05
0.00106634 -0.000214909 -8.85163e-06
-0.000214909 -8.32247e-06 2.41581e-06
-8.85163e-06 2.41581e-06 -0.000190274
0.00156034 -0.000297697 -9.68772e-07
-0.000297697 0.000193871 -2.84182e-07
-9.68772e-07 -2.84182e-07 -1.09381e-05
0.00173249 -0.000339957 3.87425e-06
-0.000339957 0.00022324 8.57728e-07
3.87425e-06 8.57728e-07 1.23728e-05
0.000938552 -0.000177218 -1.0322e-05
-0.000177218 4.88985e-05 6.29344e-06
-1.0322e-05 6.29344e-06 -0.000109755
0.00118292 -0.000237212 -1.24253e-07
-0.000237212 0.000107038 2.53523e-07
-1.24253e-07 2.53523e-07 -8.66192e-05
0.00127884 -0.000291289 1.76202e-06
-0.000291289 0.000101665 -6.46468e-07
1.76202e-06 -6.46468e-07 -0.000116253
0.000438328 -0.000108952 -1.75826e-05
-0.000108952 -0.00013189 1.34361e-05
-1.75826e-05 1.34361e-05 -0.0002069
0.000850533 -0.000168281 5.70079e-07
-0.000168281 6.36641e-05 4.19626e-07
5.70079e-07 4.19626e-07 -9.84756e-05
0.00108582 -0.000230979 5.75457e-06
-0.000230979 0.000126811 -2.28352e-06
5.75457e-06 -2.28352e-06 -7.40201e-05
0.00436961 0.000177324 -0.00011323
0.000177324 0.0022756 4.88323e-06
-0.00011323 4.88323e-06 0.0022598
0.000571686 -8.20798e-05 3.86531e-07
-8.20798e-05 -3.25799e-05 -2.88963e-07
3.86531e-07 -2.88963e-07 -0.000100349
0.000818904 -0.00017191 6.44005e-06
-0.00017191 0.000104259 -5.78899e-06
6.44005e-06 -5.78899e-06 -5.58627e-05
0.00383386 0.000140775 8.47488e-06
0.000140775 0.00195159 4.04273e-07
8.47488e-06 4.04273e-07 0.00194551
0.000714671 -3.48112e-05 1.06875e-05
-3.48112e-05 7.03796e-05 -1.05882e-05
1.06875e-05 -1.05882e-05 1.49909e-05
0.00331809 0.000110858 9.85216e-05
0.000110858 0.00164079 -3.91308e-06
9.85216e-05 -3.91308e-06 0.00164284
0.00151772 0.000291593 -3.82927e-06
0.000291593 0.00038396 -3.95829e-06
-3.82927e-06 -3.95829e-06 0.000158556
0.00141668 0.000256077 7.6862e-07
0.000256077 0.000440045 2.33476e-07
7.6862e-07 2.33476e-07 0.000241466
0.000691051 0.000145327 -2.2581e-07
0.000145327 3.70713e-05 -5.64796e-06
-2.2581e-07 -5.64796e-06 -0.000130527
0.000684792 0.000164745 -1.8536e-06
0.000164745 6.98027e-05 -1.07993e-07
-1.8536e-06 -1.07993e-07 -7.57512e-05
0.000451693 6.35933e-05 1.74051e-07
6.35933e-05 -7.32594e-05 -4.96366e-07
1.74051e-07 -4.96366e-07 -0.000205086
0.000775909 8.72795e-05 -3.01541e-06
8.72795e-05 0.000121967 -4.22346e-06
-3.01541e-06 -4.22346e-06 5.47013e-06
0.000403127 -4.02418e-07 4.5721e-07
-4.02418e-07 -0.000101364 1.56118e-06
4.5721e-07 1.56118e-06 -0.00021563
0.000636738 9.76699e-06 1.30094e-07
9.76699e-06 3.32624e-05 -2.49199e-07
1.30094e-07 -2.49199e-07 -5.93387e-05
0.000573814 -2.867e-05 -2.86985e-06
-2.867e-05 -1.00028e-06 -8.21222e-06
-2.86985e-06 -8.21222e-06 -4.10598e-05
0.000577028 -3.89166e-06 1.17479e-06
-3.89166e-06 -1.99921e-06 4.00743e-06
1.17479e-06 4.00743e-06 -8.50446e-05
0.000520626 -3.05304e-05 2.7079e-07
-3.05304e-05 -3.74678e-05 -5.6149e-08
2.7079e-07 -5.6149e-08 -7.27009e-05
0.00294313 -0.000121076 -6.05066e-05
-0.000121076 0.0014149 -2.78272e-06
-6.05066e-05 -2.78272e-06 0.00141462
0.00281627 -0.00010924 -4.07263e-06
-0.00010924 0.0013308 4.00871e-07
-4.07263e-06 4.00871e-07 0.00133306
0.000495652 -2.13898e-05 2.5758e-06
-2.13898e-05 -5.95691e-05 6.57323e-06
2.5758e-06 6.57323e-06 -9.01646e-05
0.00267988 -9.47704e-05 3.74619e-05
-9.47704e-05 0.00124168 3.9939e-06
3.74619e-05 3.9939e-06 0.00124716
0.00333925 2.07412e-05 2.13011e-05
2.07412e-05 -0.000287547 9.10839e-06
2.13011e-05 9.10839e-06 -0.000147616
0.00289087 -0.000572089 6.30394e-05
-0.000572089 -0.00209937 2.78778e-05
6.30394e-05 2.78778e-05 -0.00317052
0.00751228 -0.000941462 -8.36148e-05
-0.000941462 0.00283029 -5.92839e-05
-8.36148e-05 -5.92839e-05 0.00316093
0.0013074 0.000326909 5.97731e-06
0.000326909 0.000104351 4.3182e-06
5.97731e-06 4.3182e-06 -0.000129514
0.00152342 0.000233024 1.85103e-06
0.000233024 0.000573576 1.59894e-06
1.85103e-06 1.59894e-06 0.000399855
0.00123492 0.000258934 -5.80815e-06
0.000258934 0.000346886 6.62442e-06
-5.80815e-06 6.62442e-06 0.000144687
0.000726732 0.000230335 1.37498e-06
0.000230335 6.59262e-05 2.48179e-06
1.37498e-06 2.48179e-06 -0.000126976
0.00123474 0.000301992 -4.96285e-07
0.000301992 0.000200796 -1.48529e-06
-4.96285e-07 -1.48529e-06 -3.75845e-05
0.000902823 0.000318904 5.99127e-06
0.000318904 -2.9877e-05 4.25499e-06
5.99127e-06 4.25499e-06 -0.000235073
0.00105804 0.000280569 -5.01062e-06
0.000280569 0.000223115 -3.03668e-06
-5.01062e-06 -3.03668e-06 5.29091e-06
0.000500894 0.000246969 3.22393e-06
0.000246969 -0.000111032 3.553e-06
3.22393e-06 3.553e-06 -0.000239858
0.00137721 0.000370009 2.66446e-06
0.000370009 0.000240794 -7.66043e-07
2.66446e-06 -7.66043e-07 4.91412e-05
0.00231111 0.000509954 3.60344e-06
0.000509954 0.000564328 6.71682e-06
3.60344e-06 6.71682e-06 0.000399136
0.00171523 0.000495455 1.43141e-06
0.000495455 0.000143122 -2.79938e-07
1.43141e-06 -2.79938e-07 -4.94467e-05
0.00165122 0.00046013 4.89658e-06
0.00046013 0.00012741 9.0683e-06
4.89658e-06 9.0683e-06 -4.55681e-06
0.00118238 0.000488767 -2.85727e-06
0.000488767 -0.000110578 -3.04323e-06
-2.85727e-06 -3.04323e-06 -0.000287684
0.000678558 0.000403376 4.35846e-08
0.000403376 -0.000266591 1.40409e-06
4.35846e-08 1.40409e-06 -0.000426891
0.00141347 0.000367243 2.73745e-05
0.000367243 -0.000264109 3.06217e-05
2.73745e-05 3.06217e-05 -0.000210075
0.00513938 0.000759438 -4.93141e-05
0.000759438 -0.000122111 -1.38843e-05
-4.93141e-05 -1.38843e-05 4.38681e-05
0.00203073 0.000409022 0.000278055
0.000409022 -0.00204889 3.48301e-05
0.000278055 3.48301e-05 -0.00377781
0.000500465 0.000831808 -1.27128e-05
0.000831808 -0.00123477 -2.28034e-05
-1.27128e-05 -2.28034e-05 -0.00137301
0.00260091 0.000740228 -2.57169e-05
0.000740228 0.000310635 -2.88837e-06
-2.57169e-05 -2.88837e-06 0.000251804
0.00243038 0.000694939 -6.12301e-05
0.000694939 0.000469235 -2.28465e-05
-6.12301e-05 -2.28465e-05 0.000296507
0.0023195 -0.000187799 -9.14011e-06
-0.000187799 4.02974e-05 -6.31336e-06
-9.14011e-06 -6.31336e-06 2.75153e-05
0.000958925 -5.77098e-05 9.32429e-06
-5.77098e-05 -0.000252429 6.11076e-06
9.32429e-06 6.11076e-06 -0.000400748
0.00113086 0.000710361 9.07418e-05
0.000710361 -0.00302593 -2.39758e-05
9.07418e-05 -2.39758e-05 -0.00355602
-0.000381974 -0.000251049 -1.7695e-05
-0.000251049 -0.00116267 2.85517e-05
-1.7695e-05 2.85517e-05 -0.00113499
0.00361499 -0.000132599 -3.66398e-05
-0.000132599 -8.0699e-06 3.5966e-05
-3.66398e-05 3.5966e-05 -0.000304341
0.00221064 -0.000286739 -1.51225e-05
-0.000286739 -2.38496e-05 5.47023e-06
-1.51225e-05 5.47023e-06 8.2196e-05
0.00305728 -0.0001373 -2.98285e-06
-0.0001373 0.000503751 -3.22864e-06
-2.98285e-06 -3.22864e-06 0.00045948
0.00151937 -0.000163721 3.01473e-05
-0.000163721 -0.000377667 -1.18563e-06
3.01473e-05 -1.18563e-06 -0.000242135
0.00320284 -4.87426e-05 2.46084e-05
-4.87426e-05 0.000950044 6.66096e-07
2.46084e-05 6.66096e-07 0.000909849
0.00118384 -0.000332449 -1.68021e-05
-0.000332449 -0.000465327 8.36789e-06
-1.68021e-05 8.36789e-06 -0.00042171
0.00177936 -0.000258999 5.95423e-07
-0.000258999 -0.00022518 2.16008e-06
5.95423e-07 2.16008e-06 -0.000130293
0.00196432 -0.000255914 1.78079e-06
-0.000255914 -4.9347e-05 -4.29353e-08
1.78079e-06 -4.29353e-08 7.53907e-06
0.00189764 -0.000335133 4.92967e-07
-0.000335133 -2.69905e-05 1.69164e-06
4.92967e-07 1.69164e-06 -8.1115e-05
0.00190293 -0.000282628 3.55402e-07
-0.000282628 3.6927e-05 8.15393e-08
3.55402e-07 8.15393e-08 3.02748e-06
0.00192267 -0.000253582 -1.3328e-06
-0.000253582 8.31474e-05 7.30193e-07
-1.3328e-06 7.30193e-07 2.73079e-05
0.00189681 -0.000300408 8.84053e-07
-0.000300408 0.000101577 4.38975e-07
8.84053e-07 4.38975e-07 1.74338e-05
0.0018399 -0.000272084 -6.58826e-07
-0.000272084 9.03074e-05 4.60682e-08
-6.58826e-07 4.60682e-08 7.81097e-06
0.0017374 -0.000240258 4.74225e-07
-0.000240258 7.76209e-05 3.13718e-07
4.74225e-07 3.13718e-07 -2.08324e-05
0.00165144 -0.00027291 -1.92373e-07
-0.00027291 3.01894e-05 9.78854e-07
-1.92373e-07 9.78854e-07 -7.06505e-05
0.00173006 -0.000265827 7.62052e-07
-0.000265827 0.000103246 -6.65358e-07
7.62052e-07 -6.65358e-07 -9.93262e-06
0.0017353 -0.000252249 1.92654e-06
-0.000252249 0.000126406 -2.04321e-06
1.92654e-06 -2.04321e-06 -7.18925e-06
0.00189903 -0.000269758 -4.98841e-06
-0.000269758 0.000225893 4.75801e-06
-4.98841e-06 4.75801e-06 0.000103251
0.00185539 -0.000268734 -1.28486e-06
-0.000268734 0.000229721 3.18102e-07
-1.28486e-06 3.18102e-07 8.09054e-05
0.00166709 -0.000243319 -1.42364e-06
-0.000243319 0.000178036 -9.4179e-07
-1.42364e-06 -9.4179e-07 1.11676e-05
0.00176182 -0.000294953 2.4755e-06
-0.000294953 0.000199622 1.76929e-06
2.4755e-06 1.76929e-06 2.24613e-05
0.0016827 -0.00027021 1.01041e-06
-0.00027021 0.000216275 -6.73836e-07
1.01041e-06 -6.73836e-07 3.41888e-05
0.00128892 -0.000206143 -7.16342e-06
-0.000206143 8.53894e-05 2.1451e-06
-7.16342e-06 2.1451e-06 -8.65303e-05
0.000956162 -0.000170071 -1.16578e-05
-0.000170071 2.07489e-05 5.9417e-06
-1.16578e-05 5.9417e-06 -0.000129701
0.00116708 -0.000222036 -1.93646e-06
-0.000222036 5.06765e-05 4.06313e-07
-1.93646e-06 4.06313e-07 -0.000132133
0.00158615 -0.000300333 3.27534e-06
-0.000300333 0.00021276 -4.78001e-07
3.27534e-06 -4.78001e-07 6.93801e-06
0.000528424 -0.000170923 -2.1305e-05
-0.000170923 -8.87193e-05 1.41087e-05
-2.1305e-05 1.41087e-05 -0.000179631
0.000882294 -0.000174258 5.02259e-07
-0.000174258 1.8226e-05 2.1945e-07
5.02259e-07 2.1945e-07 -0.000140192
0.00120567 -0.000239068 7.06455e-06
-0.000239068 0.000116968 -2.20531e-06
7.06455e-06 -2.20531e-06 -7.69787e-05
0.00494914 0.000194709 -0.000132799
0.000194709 0.00262564 8.55294e-06
-0.000132799 8.55294e-06 0.00260194
0.000577911 -0.000145871 -7.43136e-07
-0.000145871 -4.59517e-05 9.45819e-08
-7.43136e-07 9.45819e-08 -0.000129223
0.000827427 -0.000173289 8.65428e-06
-0.000173289 5.26469e-05 -6.04389e-06
8.65428e-06 -6.04389e-06 -0.00011083
0.00454475 0.000152582 8.86235e-06
0.000152582 0.00237408 1.0631e-06
8.86235e-06 1.0631e-06 0.00236222
0.00073486 -0.000102615 1.67607e-05
-0.000102615 6.14664e-05 -1.28449e-05
1.67607e-05 -1.28449e-05 -9.98001e-06
0.00404384 0.000110698 0.000131967
0.000110698 0.00206856 -7.19052e-06
0.000131967 -7.19052e-06 0.00206775
0.001205 0.000278134 -4.32351e-06
0.000278134 9.7887e-05 -2.46723e-07
-4.32351e-06 -2.46723e-07 -0.00012329
0.00118001 0.000259539 -1.96115e-06
0.000259539 0.000189683 -4.74363e-07
-1.96115e-06 -4.74363e-07 -3.02022e-05
0.0010057 0.000212194 -3.8477e-06
0.000212194 0.000145858 -2.30201e-06
-3.8477e-06 -2.30201e-06 -5.00501e-05
0.00155571 0.000268195 -2.57534e-06
0.000268195 0.000524853 3.62358e-06
-2.57534e-06 3.62358e-06 0.00032415
0.000901051 0.000165034 -1.0889e-06
0.000165034 0.000162038 -1.9741e-06
-1.0889e-06 -1.9741e-06 -9.10015e-06
0.000893736 0.000136827 -3.84914e-06
0.000136827 0.000186725 -5.57373e-06
-3.84914e-06 -5.57373e-06 4.66628e-05
0.000475378 7.89339e-05 -1.97543e-07
7.89339e-05 -6.13088e-05 1.92374e-07
-1.97543e-07 1.92374e-07 -0.000197009
0.000663452 3.75641e-05 -6.31701e-07
3.75641e-05 4.85768e-05 -1.5993e-07
-6.31701e-07 -1.5993e-07 -5.8395e-05
0.000591488 -1.2366e-05 -5.18414e-06
-1.2366e-05 9.16402e-06 -9.08915e-06
-5.18414e-06 -9.08915e-06 -3.68344e-05
0.000559812 -7.83114e-06 1.13836e-06
-7.83114e-06 -1.05659e-05 4.28255e-06
1.13836e-06 4.28255e-06 -0.00010202
0.000509379 -3.22362e-05 3.9639e-07
-3.22362e-05 -3.7515e-05 -1.59984e-07
3.9639e-07 -1.59984e-07 -7.76312e-05
0.00311672 -0.000129278 -7.53645e-05
-0.000129278 0.00152506 -2.34875e-06
-7.53645e-05 -2.34875e-06 0.00152281
0.000480187 -2.84524e-05 2.6385e-06
-2.84524e-05 -6.13996e-05 7.25114e-06
2.6385e-06 7.25114e-06 -9.61375e-05
0.00291698 -0.000123021 -3.20776e-06
-0.000123021 0.00139916 3.69696e-07
-3.20776e-06 3.69696e-07 0.00139814
0.00281414 -0.000109256 4.60181e-05
-0.000109256 0.00132911 3.62975e-06
4.60181e-05 3.62975e-06 0.00133123
0.000275485 5.12405e-05 1.58977e-05
5.12405e-05 -0.00097775 7.79912e-06
1.58977e-05 7.79912e-06 -0.000905739
0.00463636 2.51572e-05 5.44708e-05
2.51572e-05 0.000286953 8.46617e-07
5.44708e-05 8.46617e-07 0.000335133
0.0104943 0.000630097 -7.85403e-05
0.000630097 0.00290966 -1.98217e-05
-7.85403e-05 -1.98217e-05 0.00186011
0.000953837 0.00031883 2.15514e-06
0.00031883 -0.000128371 2.40979e-06
2.15514e-06 2.40979e-06 -0.000338076
0.00170861 0.000377396 1.97119e-06
0.000377396 0.000231485 2.53605e-06
1.97119e-06 2.53605e-06 1.95759e-05
0.00124701 0.000329472 1.24304e-08
0.000329472 7.25811e-05 -1.15775e-06
1.24304e-08 -1.15775e-06 -0.00016111
0.00117454 0.000277498 -2.04242e-06
0.000277498 0.000312761 2.06774e-06
-2.04242e-06 2.06774e-06 0.0001081
0.00131818 0.000310573 -1.53525e-06
0.000310573 0.000257218 -1.02788e-06
-1.53525e-06 -1.02788e-06 1.46823e-05
0.00143633 0.000369496 7.64913e-06
0.000369496 0.000253884 9.06438e-07
7.64913e-06 9.06438e-07 4.12329e-05
0.00179013 0.000465879 -3.95283e-06
0.000465879 0.00017173 -1.88058e-06
-3.95283e-06 -1.88058e-06 -2.89174e-05
0.00206315 0.000437562 -5.12297e-06
0.000437562 0.00061282 7.37889e-07
-5.12297e-06 7.37889e-07 0.000410762
0.00115281 0.000413088 1.04748e-05
0.000413088 -6.72566e-05 1.67579e-05
1.04748e-05 1.67579e-05 -0.000213831
0.00215224 0.000525891 -3.01721e-06
0.000525891 0.000384881 2.56888e-07
-3.01721e-06 2.56888e-07 0.000191398
0.00195837 0.000466847 -1.1076e-05
0.000466847 0.000175583 1.56208e-06
-1.1076e-05 1.56208e-06 1.33109e-05
0.000672605 0.000231322 1.521e-05
0.000231322 -0.000495085 7.80011e-06
1.521e-05 7.80011e-06 -0.000532755
0.00105281 0.000414965 9.99884e-06
0.000414965 -0.000177651 -1.15956e-07
9.99884e-06 -1.15956e-07 -0.000306701
0.00112684 0.000477466 -8.72826e-06
0.000477466 -0.000147082 -8.46152e-06
-8.72826e-06 -8.46152e-06 -0.000322911
0.00178252 0.000375792 3.55737e-06
0.000375792 -7.59591e-05 6.46839e-06
3.55737e-06 6.46839e-06 -6.52805e-05
0.00542938 0.00050554 3.01647e-05
0.00050554 5.3679e-05 -1.76056e-05
3.01647e-05 -1.76056e-05 -4.66146e-05
0.00272328 0.000651484 9.42026e-06
0.000651484 0.000629523 -2.9084e-05
9.42026e-06 -2.9084e-05 0.000579361
0.00149105 -4.16067e-05 2.33365e-05
-4.16067e-05 -7.8474e-06 -2.7186e-06
2.33365e-05 -2.7186e-06 -1.13856e-05
0.00214848 -0.000127788 -2.60367e-05
-0.000127788 -1.05892e-06 -1.02425e-07
-2.60367e-05 -1.02425e-07 -1.55787e-05
0.00147518 0.000166161 2.92778e-05
0.000166161 -0.000587647 -6.4431e-06
2.92778e-05 -6.4431e-06 -0.000781229
0.000242698 -0.000199123 -3.03549e-05
-0.000199123 -0.00104084 2.30847e-05
-3.03549e-05 2.30847e-05 -0.000921169
0.00326178 -0.000208019 -9.29071e-05
-0.000208019 0.000550411 -1.08468e-06
-9.29071e-05 -1.08468e-06 0.000537767
0.00189087 -0.00019452 3.42384e-06
-0.00019452 -0.000125273 -2.74273e-06
3.42384e-06 -2.74273e-06 -2.39494e-06
0.00232331 -6.46705e-05 -8.91825e-06
-6.46705e-05 0.000392486 3.29099e-07
-8.91825e-06 3.29099e-07 0.00035669
0.0020276 -0.000182108 3.21605e-06
-0.000182108 1.32282e-06 1.45286e-06
3.21605e-06 1.45286e-06 1.993e-05
0.00207149 -2.52666e-05 4.52447e-06
-2.52666e-05 7.44505e-05 1.04641e-07
4.52447e-06 1.04641e-07 5.66391e-05
0.00176464 -0.000272643 -7.5226e-06
-0.000272643 -0.000259269 2.74633e-06
-7.5226e-06 2.74633e-06 -0.000172833
0.00198822 -0.000253172 -1.85872e-06
-0.000253172 -2.56248e-05 3.2945e-08
-1.85872e-06 3.2945e-08 2.06696e-05
0.00197389 -0.000201114 -2.08029e-06
-0.000201114 1.76816e-05 -1.52348e-07
-2.08029e-06 -1.52348e-07 -2.0402e-06
0.00190983 -0.000289457 -1.70852e-06
-0.000289457 3.81326e-05 -7.58447e-07
-1.70852e-06 -7.58447e-07 -5.53095e-07
0.00186143 -0.000248633 2.5128e-07
-0.000248633 5.70872e-05 -1.05222e-07
2.5128e-07 -1.05222e-07 -3.70459e-06
0.00191768 -0.000220951 -1.05006e-06
-0.000220951 0.000118067 4.24926e-07
-1.05006e-06 4.24926e-07 3.62095e-05
0.00175718 -0.00027482 -1.61068e-06
-0.00027482 4.7396e-05 -9.98521e-07
-1.61068e-06 -9.98521e-07 -3.82921e-05
0.00177261 -0.0002411 3.95653e-07
-0.0002411 9.47364e-05 -1.47145e-07
3.95653e-07 -1.47145e-07 -3.87247e-06
0.00176385 -0.00022685 1.42836e-06
-0.00022685 0.000104553 -1.00835e-06
1.42836e-06 -1.00835e-06 -1.21262e-05
0.00176475 -0.000267559 -1.4952e-06
-0.000267559 0.000123541 1.6221e-07
-1.4952e-06 1.6221e-07 1.00122e-05
0.00176176 -0.000252815 -2.77837e-08
-0.000252815 0.000142681 -3.08117e-07
-2.77837e-08 -3.08117e-07 9.08665e-06
0.00163548 -0.000224093 -2.48671e-07
-0.000224093 0.00012996 -9.20176e-07
-2.48671e-07 -9.20176e-07 -2.53651e-05
0.00191953 -0.000270326 -1.84523e-06
-0.000270326 0.000264526 3.42366e-06
-1.84523e-06 3.42366e-06 0.000119032
0.00168082 -0.0002445 -6.49756e-07
-0.0002445 0.000186725 -8.85948e-08
-6.49756e-07 -8.85948e-08 2.09063e-05
0.0013128 -0.00018741 -6.44326e-06
-0.00018741 7.86801e-05 1.91905e-06
-6.44326e-06 1.91905e-06 -8.63986e-05
0.00164762 -0.000269843 4.35358e-06
-0.000269843 0.000196178 6.60635e-09
4.35358e-06 6.60635e-09 1.30467e-05
0.00126968 -0.000206389 -1.0777e-07
-0.000206389 7.36782e-05 -4.76156e-08
-1.0777e-07 -4.76156e-08 -9.85426e-05
0.000974644 -0.000153933 -1.26615e-05
-0.000153933 8.82663e-06 6.00727e-06
-1.26615e-05 6.00727e-06 -0.000134194
0.000451238 -0.000163021 -1.99129e-05
-0.000163021 -0.000143279 1.33605e-05
-1.99129e-05 1.33605e-05 -0.00023617
0.00093604 -0.0001681 2.17776e-07
-0.0001681 9.31845e-06 -1.95853e-08
2.17776e-07 -1.95853e-08 -0.000140937
0.00127333 -0.00022956 5.52019e-06
-0.00022956 0.000112789 -1.82132e-06
5.52019e-06 -1.82132e-06 -7.09396e-05
0.00538529 0.00012952 -0.000165985
0.00012952 0.00285807 8.91696e-06
-0.000165985 8.91696e-06 0.00284758
0.000558251 -0.000164831 -1.98883e-06
-0.000164831 -7.63549e-05 6.12558e-07
-1.98883e-06 6.12558e-07 -0.000165304
0.000843035 -0.000173398 1.0256e-05
-0.000173398 -1.50051e-06 -5.65207e-06
1.0256e-05 -5.65207e-06 -0.000160027
0.00511934 0.000151571 6.71001e-06
0.000151571 0.00271255 6.71083e-07
6.71001e-06 6.71083e-07 0.00269737
0.000689664 -0.000149226 2.05728e-05
-0.000149226 1.57893e-05 -1.39342e-05
2.05728e-05 -1.39342e-05 -6.8805e-05
0.00473331 0.000124993 0.000153984
0.000124993 0.00247782 -9.60575e-06
0.000153984 -9.60575e-06 0.00247028
0.00134114 0.000300124 -3.19488e-06
0.000300124 0.000124183 1.14591e-06
-3.19488e-06 1.14591e-06 -8.74148e-05
0.00113854 0.00027244 4.9096e-07
0.00027244 5.68238e-05 4.24785e-07
4.9096e-07 4.24785e-07 -0.000162829
0.00110095 0.000228463 -6.91736e-06
0.000228463 9.96497e-05 -1.61307e-06
-6.91736e-06 -1.61307e-06 -9.58954e-05
0.000848357 0.000228388 -6.15574e-07
0.000228388 -1.04517e-06 3.04465e-06
-6.15574e-07 3.04465e-06 -0.000215546
0.00104169 0.000214309 -1.68209e-06
0.000214309 0.000169341 9.19411e-07
-1.68209e-06 9.19411e-07 -2.7032e-05
0.000890282 0.000171042 -6.41626e-06
0.000171042 0.000145875 -5.49779e-06
-6.41626e-06 -5.49779e-06 -1.49673e-05
0.00106427 0.000180056 -6.26301e-07
0.000180056 0.000259302 9.0866e-07
-6.26301e-07 9.0866e-07 8.54095e-05
0.000731628 0.000108388 -8.08598e-08
0.000108388 9.36915e-05 -4.28781e-07
-8.08598e-08 -4.28781e-07 -4.24603e-05
0.000705566 3.80068e-05 -1.05999e-05
3.80068e-05 6.79999e-05 -1.13663e-05
-1.05999e-05 -1.13663e-05 9.45621e-06
0.000593645 3.96268e-06 1.29338e-06
3.96268e-06 7.00176e-06 4.1261e-06
1.29338e-06 4.1261e-06 -9.57663e-05
0.000504549 -2.06036e-05 -1.33748e-07
-2.06036e-05 -3.93648e-05 -2.699e-07
-1.33748e-07 -2.699e-07 -8.53218e-05
0.0034269 -0.000130545 -9.82143e-05
-0.000130545 0.00171396 -2.92169e-06
-9.82143e-05 -2.92169e-06 0.0017107
0.000457885 -3.31694e-05 2.53383e-06
-3.31694e-05 -6.71553e-05 7.95742e-06
2.53383e-06 7.95742e-06 -0.000107012
0.00305917 -0.000136113 -3.13557e-06
-0.000136113 0.0014919 3.57999e-07
-3.13557e-06 3.57999e-07 0.00148757
0.00289825 -0.000123109 5.30885e-05
-0.000123109 0.00138763 3.15652e-06
5.30885e-05 3.15652e-06 0.00138639
0.000570583 5.88446e-05 1.84757e-05
5.88446e-05 -0.000563327 -2.17046e-06
1.84757e-05 -2.17046e-06 -0.000524471
0.00203342 2.63609e-05 -7.17892e-06
2.63609e-05 -0.000226774 -1.26489e-06
-7.17892e-06 -1.26489e-06 -0.000137139
0.00424809 3.85004e-05 0.00014075
3.85004e-05 -0.000294273 4.11869e-05
0.00014075 4.11869e-05 0.000135205
0.0021269 0.000437589 -2.01395e-06
0.000437589 0.000385133 8.4899e-07
-2.01395e-06 8.4899e-07 0.000182413
0.00126536 0.000365121 7.4752e-08
0.000365121 3.83978e-05 -2.27789e-06
7.4752e-08 -2.27789e-06 -0.000177385
0.00195 0.000359721 -2.7771e-07
0.000359721 0.000243219 3.21325e-06
-2.7771e-07 3.21325e-06 6.24262e-05
0.00172522 0.000376917 8.20687e-07
0.000376917 0.000240212 2.45372e-07
8.20687e-07 2.45372e-07 2.87932e-05
0.00116957 0.000331581 1.25987e-06
0.000331581 2.8917e-05 -5.05256e-06
1.25987e-06 -5.05256e-06 -0.000204626
0.00183867 0.000385229 -2.04336e-06
0.000385229 8.7525e-05 1.51231e-06
-2.04336e-06 1.51231e-06 -7.29221e-05
0.00203636 0.000426792 -3.59524e-06
0.000426792 0.000576804 -1.36152e-06
-3.59524e-06 -1.36152e-06 0.000355336
0.00197821 0.000473199 -3.79494e-08
0.000473199 0.000288825 -5.68693e-07
-3.79494e-08 -5.68693e-07 8.60927e-05
0.00179076 0.00027419 -4.44482e-06
0.00027419 -1.78335e-05 5.48155e-08
-4.44482e-06 5.48155e-08 -0.000116903
0.00263759 0.000560782 4.454e-06
0.000560782 0.00065254 2.72707e-06
4.454e-06 2.72707e-06 0.000457544
0.00193053 0.000467011 -1.60868e-06
0.000467011 0.000151771 1.48626e-07
-1.60868e-06 1.48626e-07 -1.29318e-05
0.000873946 0.00024547 3.97269e-06
0.00024547 -0.000350192 2.91273e-06
3.97269e-06 2.91273e-06 -0.000398319
-0.000267043 0.000323343 -1.58795e-06
0.000323343 -0.000855636 -4.35989e-06
-1.58795e-06 -4.35989e-06 -0.000977181
0.00197371 0.000385794 -5.14515e-05
0.000385794 1.20123e-05 -2.47466e-05
-5.14515e-05 -2.47466e-05 -7.84545e-06
0.00183951 4.02662e-05 6.14229e-07
4.02662e-05 -6.30055e-05 -1.95828e-06
6.14229e-07 -1.95828e-06 -7.1888e-05
0.00215834 -3.42794e-05 9.98346e-07
-3.42794e-05 0.000399417 2.33637e-06
9.98346e-07 2.33637e-06 0.000398871
0.00162692 -4.75052e-05 -5.7004e-05
-4.75052e-05 -0.000191342 -3.38219e-06
-5.7004e-05 -3.38219e-06 -0.000284289
0.00225794 -0.000223403 -3.26003e-05
-0.000223403 0.000122665 1.81905e-06
-3.26003e-05 1.81905e-06 0.000228162
0.00135981 -7.40552e-05 -7.67154e-06
-7.40552e-05 -0.000208153 6.97413e-07
-7.67154e-06 6.97413e-07 -0.000238517
0.00197209 -0.00017561 1.17443e-07
-0.00017561 -3.23973e-05 -6.50636e-07
1.17443e-07 -6.50636e-07 -3.74887e-06
0.00208477 -2.63027e-05 -3.12898e-06
-2.63027e-05 6.14816e-05 1.16767e-06
-3.12898e-06 1.16767e-06 4.96652e-05
0.00206338 -6.50044e-05 -3.91297e-06
-6.50044e-05 3.97572e-05 -2.22764e-07
-3.91297e-06 -2.22764e-07 3.4222e-05
0.00200032 -0.000248974 -3.77189e-06
-0.000248974 -5.7455e-06 -1.88083e-07
-3.77189e-06 -1.88083e-07 2.98829e-05
0.00195806 -0.000192905 4.6904e-07
-0.000192905 1.97151e-05 -2.1554e-07
4.6904e-07 -2.1554e-07 -1.66081e-06
0.00205006 -0.000159839 -1.22886e-06
-0.000159839 0.000111095 -2.70651e-07
-1.22886e-06 -2.70651e-07 6.63587e-05
0.00180102 -0.000244342 8.41075e-07
-0.000244342 3.0959e-05 -1.1569e-06
8.41075e-07 -1.1569e-06 -3.48459e-05
0.00183258 -0.000216713 9.09068e-08
-0.000216713 7.30468e-05 -7.13491e-08
9.09068e-08 -7.13491e-08 -1.04601e-05
0.00176213 -0.000182152 7.15891e-07
-0.000182152 6.49762e-05 -3.96615e-07
7.15891e-07 -3.96615e-07 -3.53285e-05
0.00181198 -0.00024218 2.46001e-07
-0.00024218 0.000113454 -4.77375e-07
2.46001e-07 -4.77375e-07 1.4703e-05
0.00178943 -0.000226965 1.75302e-08
-0.000226965 0.000120986 -2.28777e-07
1.75302e-08 -2.28777e-07 4.30524e-06
0.0016873 -0.000200899 7.23755e-07
-0.000200899 0.000122514 -7.76651e-07
7.23755e-07 -7.76651e-07 -1.98165e-05
0.00178876 -0.000253466 -1.286e-06
-0.000253466 0.000159075 1.25955e-06
-1.286e-06 1.25955e-06 2.54689e-05
0.00165897 -0.000224776 -2.98153e-07
-0.000224776 0.000143801 -5.01182e-08
-2.98153e-07 -5.01182e-08 -1.12072e-05
0.00135968 -0.00017107 -5.01298e-06
-0.00017107 8.53894e-05 1.49896e-06
-5.01298e-06 1.49896e-06 -7.44138e-05
0.00169411 -0.000245567 1.06541e-06
-0.000245567 0.000195042 9.34476e-07
1.06541e-06 9.34476e-07 3.03073e-05
0.00132949 -0.000188338 -1.77723e-07
-0.000188338 8.69483e-05 6.9714e-08
-1.77723e-07 6.9714e-08 -7.79401e-05
0.000979286 -0.000135925 -1.32689e-05
-0.000135925 -3.23896e-06 5.54973e-06
-1.32689e-05 5.54973e-06 -0.000141567
0.00125016 -0.000206682 6.36097e-06
-0.000206682 6.18441e-05 -1.78075e-06
6.36097e-06 -1.78075e-06 -0.000110691
0.00097515 -0.000152461 2.3894e-07
-0.000152461 8.42275e-06 6.08116e-08
2.3894e-07 6.08116e-08 -0.000134248
0.00241306 -0.000109469 -2.85687e-05
-0.000109469 0.00100754 8.36318e-06
-2.85687e-05 8.36318e-06 0.000930515
0.00168584 -4.61358e-05 -0.000177619
-4.61358e-05 0.000643228 1.92157e-05
-0.000177619 1.92157e-05 0.000625364
0.0015294 -0.000145043 -5.03727e-06
-0.000145043 0.000490191 -3.36667e-07
-5.03727e-06 -3.36667e-07 0.000402984
0.000921935 -0.000166551 1.14744e-05
-0.000166551 1.54076e-06 -5.76325e-06
1.14744e-05 -5.76325e-06 -0.000148607
0.00548529 0.00011228 -5.79595e-06
0.00011228 0.00292287 -7.52602e-07
-5.79595e-06 -7.52602e-07 0.00290951
0.000622426 -0.000185231 2.23674e-05
-0.000185231 -3.81159e-05 -1.38418e-05
2.23674e-05 -1.38418e-05 -0.000130787
0.00527404 0.000133014 0.000168171
0.000133014 0.00280778 -1.38831e-05
0.000168171 -1.38831e-05 0.00279048
0.00191902 0.000287313 8.7829e-07
0.000287313 0.000192389 5.06849e-07
8.7829e-07 5.06849e-07 3.62796e-05
0.00162616 0.000313925 9.50871e-07
0.000313925 0.000179994 2.69008e-06
9.50871e-07 2.69008e-06 -1.43969e-05
0.00153861 0.000320284 -1.31602e-07
0.000320284 0.000232969 -4.42358e-08
-1.31602e-07 -4.42358e-08 1.88248e-05
0.00122723 0.000238587 -6.55294e-06
0.000238587 0.000104177 -2.03e-06
-6.55294e-06 -2.03e-06 -8.46092e-05
0.00109047 0.000268274 5.2169e-06
0.000268274 2.77467e-05 4.50461e-07
5.2169e-06 4.50461e-07 -0.000190697
0.00111888 0.000229381 -4.59083e-07
0.000229381 0.000110654 3.1261e-07
-4.59083e-07 3.1261e-07 -8.47991e-05
0.000815025 0.000171951 -9.33959e-06
0.000171951 2.19392e-05 -4.68326e-06
-9.33959e-06 -4.68326e-06 -0.000139579
0.0011134 0.000219418 1.89003e-06
0.000219418 0.000214031 4.50179e-06
1.89003e-06 4.50179e-06 1.66555e-05
0.000805087 0.000156791 -4.99923e-07
0.000156791 9.68793e-05 4.85521e-07
-4.99923e-07 4.85521e-07 -6.18117e-05
0.000770727 0.000119644 -1.75866e-05
0.000119644 8.96625e-05 -1.34841e-05
-1.75866e-05 -1.34841e-05 1.22427e-05
0.000610321 7.89816e-05 1.9859e-06
7.89816e-05 2.01577e-05 4.09622e-06
1.9859e-06 4.09622e-06 -0.000109482
0.000524856 2.5406e-05 -9.6715e-07
2.5406e-05 -3.49709e-05 -5.66317e-07
-9.6715e-07 -5.66317e-07 -9.08258e-05
0.00396732 -0.000124879 -0.00012975
-0.000124879 0.00203727 -5.81385e-06
-0.00012975 -5.81385e-06 0.00203185
0.000406456 -2.84559e-05 2.67754e-06
-2.84559e-05 -9.3573e-05 8.93779e-06
2.67754e-06 8.93779e-06 -0.000139967
0.00330884 -0.000147596 -4.22828e-06
-0.000147596 0.00164718 3.73053e-07
-4.22828e-06 3.73053e-07 0.00163965
0.00301282 -0.000137724 6.01634e-05
-0.000137724 0.00146448 2.54393e-06
6.01634e-05 2.54393e-06 0.0014595
0.00186393 0.000148957 5.73326e-07
0.000148957 -4.07536e-05 -8.44856e-07
5.73326e-07 -8.44856e-07 -8.08595e-05
0.00192237 4.68555e-05 1.56653e-05
4.68555e-05 0.000148553 1.1299e-06
1.56653e-05 1.1299e-06 0.000176378
0.0042155 1.65418e-05 -9.43433e-05
1.65418e-05 0.000717245 -1.26808e-05
-9.43433e-05 -1.26808e-05 0.000842894
0.00175695 0.000332632 -2.54759e-06
0.000332632 5.97026e-05 1.33004e-06
-2.54759e-06 1.33004e-06 -9.54611e-05
0.00181031 0.000410952 -1.57473e-06
0.000410952 0.000218576 -1.0925e-07
-1.57473e-06 -1.0925e-07 1.81111e-05
0.00150677 0.000403906 -1.39878e-05
0.000403906 0.000166777 -7.00344e-06
-1.39878e-05 -7.00344e-06 -5.33966e-05
0.00198841 0.000350799 2.5987e-06
0.000350799 0.000274487 9.18012e-07
2.5987e-06 9.18012e-07 9.59154e-05
0.00174167 0.000376322 -1.31553e-06
0.000376322 0.000250027 -2.39273e-06
-1.31553e-06 -2.39273e-06 3.90339e-05
0.0021659 0.000272522 1.3197e-06
0.000272522 0.000205767 1.04022e-06
1.3197e-06 1.04022e-06 0.000104104
0.00171515 0.00037891 -1.1646e-06
0.00037891 3.24094e-05 7.96496e-07
-1.1646e-06 7.96496e-07 -0.000128674
0.00219461 0.000482967 -2.23008e-07
0.000482967 0.00042095 -6.08896e-07
-2.23008e-07 -6.08896e-07 0.000215676
0.0017996 0.0002797 -9.81709e-07
0.0002797 -5.46292e-06 -2.7907e-08
-9.81709e-07 -2.7907e-08 -0.000106469
0.00204489 0.000476955 1.74669e-05
0.000476955 0.000196083 1.60133e-06
1.74669e-05 1.60133e-06 2.80534e-05
0.00129106 0.000258375 -2.47987e-05
0.000258375 -0.000101026 -5.5725e-06
-2.47987e-05 -5.5725e-06 -0.000158125
0.00201451 4.97996e-05 -4.18956e-06
4.97996e-05 3.56045e-05 -2.0008e-07
-4.18956e-06 -2.0008e-07 1.63622e-05
0.00193581 5.10991e-05 -2.34398e-06
5.10991e-05 -1.06766e-06 3.25545e-07
-2.34398e-06 3.25545e-07 -1.36543e-05
0.00286243 -2.27777e-05 -3.8765e-05
-2.27777e-05 0.000834832 1.14807e-06
-3.8765e-05 1.14807e-06 0.000828724
0.00189359 -0.000167529 -8.097e-06
-0.000167529 -8.44313e-05 -1.44765e-06
-8.097e-06 -1.44765e-06 -4.58141e-05
0.00198105 -2.59933e-05 2.64776e-06
-2.59933e-05 -2.30952e-05 -6.366e-07
2.64776e-06 -6.366e-07 -3.08222e-05
0.00203181 -6.93379e-05 -3.90384e-07
-6.93379e-05 6.19422e-06 8.00942e-08
-3.90384e-07 8.00942e-08 5.70956e-06
0.00192699 -5.09005e-05 -2.13191e-06
-5.09005e-05 4.77641e-05 -4.46465e-08
-2.13191e-06 -4.46465e-08 1.77288e-05
0.00193994 -0.000183596 2.4981e-06
-0.000183596 2.15266e-05 -2.94968e-07
2.4981e-06 -2.94968e-07 -1.07429e-06
0.00190778 -0.000158642 3.51302e-07
-0.000158642 3.89246e-05 -2.24036e-08
3.51302e-07 -2.24036e-08 -1.09972e-05
0.00181775 -0.000123598 2.79405e-06
-0.000123598 7.13239e-05 -1.39038e-06
2.79405e-06 -1.39038e-06 -1.48455e-05
0.00174741 -0.000212337 1.28457e-06
-0.000212337 2.84701e-05 -2.75043e-07
1.28457e-06 -2.75043e-07 -5.6691e-05
0.00181658 -0.000184254 -3.47348e-09
-0.000184254 9.35496e-05 -2.11308e-08
-3.47348e-09 -2.11308e-08 -6.86918e-06
0.00176608 -0.000167178 9.56722e-07
-0.000167178 0.000127162 -6.037e-07
9.56722e-07 -6.037e-07 -2.23794e-06
0.00181426 -0.000226911 -7.6672e-07
-0.000226911 0.000137261 4.59754e-07
-7.6672e-07 4.59754e-07 2.06073e-05
0.00171151 -0.000201379 -2.45299e-07
-0.000201379 0.000136622 -4.11849e-08
-2.45299e-07 -4.11849e-08 -5.47686e-06
0.00140144 -0.000150097 -3.94235e-06
-0.000150097 8.63772e-05 1.04131e-06
-3.94235e-06 1.04131e-06 -6.71882e-05
0.00168258 -0.000225483 -1.79575e-07
-0.000225483 0.0001578 7.60939e-07
-1.79575e-07 7.60939e-07 3.10455e-06
0.00136781 -0.000171265 -1.31128e-07
-0.000171265 8.81581e-05 8.22005e-08
-1.31128e-07 8.22005e-08 -7.13115e-05
0.000982087 -0.000119507 -1.31055e-05
-0.000119507 -1.1566e-05 4.83905e-06
-1.31055e-05 4.83905e-06 -0.000147674
0.00134826 -0.000189428 5.62965e-06
-0.000189428 9.63637e-05 -1.61531e-06
5.62965e-06 -1.61531e-06 -6.83537e-05
0.000990231 -0.000134611 1.54346e-07
-0.000134611 1.66612e-06 1.02077e-07
1.54346e-07 1.02077e-07 -0.000136129
0.00246616 -0.000117017 -3.62897e-05
-0.000117017 0.00102471 7.60764e-06
-3.62897e-05 7.60764e-06 0.00095493
0.000966847 -0.000150718 1.27063e-05
-0.000150718 3.03008e-06 -5.789e-06
1.27063e-05 -5.789e-06 -0.0001393
0.00257882 -0.000155139 3.71348e-05
-0.000155139 0.00110002 -4.64269e-06
3.71348e-05 -4.64269e-06 0.00102925
0.00175935 -8.63315e-05 -0.000182042
-8.63315e-05 0.000692918 2.34878e-05
-0.000182042 2.34878e-05 0.000673543
0.00355969 -1.61045e-05 -0.000178912
-1.61045e-05 0.00177262 1.11137e-05
-0.000178912 1.11137e-05 0.00175895
0.00266915 -0.000207048 0.000113452
-0.000207048 0.0011586 -1.5394e-05
0.000113452 -1.5394e-05 0.00109022
0.00557248 9.85508e-05 0.000179568
9.85508e-05 0.0029838 -1.75171e-05
0.000179568 -1.75171e-05 0.00296581
0.00205706 0.000285553 -1.75334e-06
0.000285553 0.000246942 -6.96652e-07
-1.75334e-06 -6.96652e-07 0.000105599
0.00155622 0.000258198 2.67215e-06
0.000258198 8.37051e-05 9.90956e-07
2.67215e-06 9.90956e-07 -8.67358e-05
0.00190934 0.000286524 4.19895e-07
0.000286524 0.000183719 -1.14587e-06
4.19895e-07 -1.14587e-06 3.18134e-05
0.00125723 0.000228531 -6.32491e-06
0.000228531 7.17295e-05 -1.29337e-06
-6.32491e-06 -1.29337e-06 -0.000108584
0.00169068 0.000316006 5.73806e-07
0.000316006 0.0002097 4.6178e-07
5.73806e-07 4.6178e-07 1.46581e-05
0.00175369 0.000342284 2.63352e-06
0.000342284 0.000351125 -7.12853e-07
2.63352e-06 -7.12853e-07 0.000134176
0.00119908 0.000233951 8.86348e-08
0.000233951 9.24273e-05 -1.09849e-07
8.86348e-08 -1.09849e-07 -9.52695e-05
0.000911328 0.0001731 -1.08473e-05
0.0001731 1.34453e-05 -5.81195e-06
-1.08473e-05 -5.81195e-06 -0.000141116
0.00113484 0.000230341 6.59025e-06
0.000230341 0.000120035 2.47011e-06
6.59025e-06 2.47011e-06 -7.53479e-05
0.000843418 0.000168792 -6.46916e-07
0.000168792 3.56019e-05 6.43581e-07
-6.46916e-07 6.43581e-07 -0.000125195
0.000650761 0.000172839 -2.18599e-05
0.000172839 -2.06877e-06 -1.37345e-05
-2.18599e-05 -1.37345e-05 -9.25303e-05
0.000688908 0.000139221 3.71768e-06
0.000139221 2.99489e-05 5.92018e-06
3.71768e-06 5.92018e-06 -0.00012612
0.000545484 9.28184e-05 -6.99159e-07
9.28184e-05 -3.91324e-05 -2.92204e-08
-6.99159e-07 -2.92204e-08 -0.000111723
0.00479895 -0.000119858 -0.000162375
-0.000119858 0.00253656 -1.15847e-05
-0.000162375 -1.15847e-05 0.00252304
0.00034142 -3.92978e-07 5.07163e-06
-3.92978e-07 -0.000135886 1.03792e-05
5.07163e-06 1.03792e-05 -0.000191096
0.0037919 -0.000160262 -7.5687e-06
-0.000160262 0.00194097 5.04235e-07
-7.5687e-06 5.04235e-07 0.00192871
0.00321894 -0.00015407 6.92632e-05
-0.00015407 0.00159509 2.04027e-06
6.92632e-05 2.04027e-06 0.00158572
0.00190131 0.000159922 -8.56313e-07
0.000159922 -4.83886e-06 5.16061e-07
-8.56313e-07 5.16061e-07 -6.36868e-05
0.00184247 0.000148606 7.04027e-07
0.000148606 -5.16678e-05 -2.2191e-07
7.04027e-07 -2.2191e-07 -9.20172e-05
0.00296278 3.65594e-05 -6.44649e-05
3.65594e-05 0.000700825 -5.5078e-06
-6.44649e-05 -5.5078e-06 0.000726773
0.00201465 0.000242743 1.28457e-06
0.000242743 0.000153461 9.66306e-07
1.28457e-06 9.66306e-07 4.28198e-05
0.00176661 0.00032836 -5.90027e-07
0.00032836 8.0997e-05 2.99503e-07
-5.90027e-07 2.99503e-07 -7.36124e-05
0.00149887 0.000384889 -4.04768e-07
0.000384889 5.34368e-05 -2.22379e-06
-4.04768e-07 -2.22379e-06 -0.000144894
0.00202973 0.000341676 -6.8843e-07
0.000341676 0.000308038 -2.34864e-06
-6.8843e-07 -2.34864e-06 0.000131771
0.00202077 0.000263492 -1.08877e-06
0.000263492 0.000122779 -2.22497e-07
-1.08877e-06 -2.22497e-07 2.08612e-05
0.00160157 0.000372706 -7.73499e-07
0.000372706 -1.76205e-05 -2.46477e-07
-7.73499e-07 -2.46477e-07 -0.000179278
0.00180225 0.000282041 6.82337e-06
0.000282041 1.55498e-05 -5.56888e-07
6.82337e-06 -5.56888e-07 -8.67188e-05
0.00190671 4.64254e-05 -1.30611e-06
4.64254e-05 2.99163e-05 2.95127e-07
-1.30611e-06 2.95127e-07 -5.93705e-06
0.00197312 4.95798e-05 5.49803e-07
4.95798e-05 2.02964e-05 -2.70083e-08
5.49803e-07 -2.70083e-08 -1.6518e-06
0.00198881 6.11016e-05 -6.31646e-06
6.11016e-05 3.27216e-05 5.27641e-07
-6.31646e-06 5.27641e-07 1.84339e-05
0.00158357 -1.11806e-05 -2.65931e-06
-1.11806e-05 -0.000109271 3.64624e-08
-2.65931e-06 3.64624e-08 -0.000156722
0.00199805 -7.78835e-05 4.16736e-06
-7.78835e-05 -2.83367e-05 -4.25715e-07
4.16736e-06 -4.25715e-07 -2.41636e-05
0.00190535 -5.33661e-05 -9.5479e-07
-5.33661e-05 3.41933e-05 4.10517e-07
-9.5479e-07 4.10517e-07 3.42813e-06
0.00188204 -6.75191e-05 -7.77292e-07
-6.75191e-05 0.00010541 -6.50562e-07
-7.77292e-07 -6.50562e-07 3.21325e-05
0.00176856 -0.000157491 2.66099e-06
-0.000157491 -3.16811e-05 -3.30716e-07
2.66099e-06 -3.30716e-07 -8.70149e-05
0.00184656 -0.000124718 2.21436e-06
-0.000124718 8.01329e-05 -7.1992e-07
2.21436e-06 -7.1992e-07 -5.79764e-06
0.00181744 -0.000117511 2.51908e-06
-0.000117511 0.000134116 -1.35197e-06
2.51908e-06 -1.35197e-06 1.67693e-05
0.00187708 -0.000186006 -4.9591e-07
-0.000186006 0.000125741 3.4396e-07
-4.9591e-07 3.4396e-07 2.52892e-05
0.00177046 -0.000165668 -1.17991e-07
-0.000165668 0.000131982 -3.78727e-08
-1.17991e-07 -3.78727e-08 2.90437e-06
0.00144102 -0.000121961 -3.14132e-06
-0.000121961 8.47619e-05 5.47976e-07
-3.14132e-06 5.47976e-07 -6.10727e-05
0.00173388 -0.000201682 -7.69558e-07
-0.000201682 0.000149878 6.12971e-07
-7.69558e-07 6.12971e-07 8.03147e-06
0.00140015 -0.000149608 -1.46034e-07
-0.000149608 8.32957e-05 1.38606e-07
-1.46034e-07 1.38606e-07 -6.99124e-05
0.000991393 -0.000101964 -1.27132e-05
-0.000101964 -1.62863e-05 3.92708e-06
-1.27132e-05 3.92708e-06 -0.000150251
0.00137384 -0.000171285 4.46922e-06
-0.000171285 8.97586e-05 -1.26652e-06
4.46922e-06 -1.26652e-06 -6.9353e-05
0.00100022 -0.000117956 2.06022e-08
-0.000117956 -2.83108e-06 1.95178e-07
2.06022e-08 1.95178e-07 -0.000138247
0.00249981 -0.000126146 -4.40592e-05
-0.000126146 0.00103813 7.34868e-06
-4.40592e-05 7.34868e-06 0.000970696
0.000999027 -0.000133263 1.32532e-05
-0.000133263 5.17698e-06 -5.39391e-06
1.32532e-05 -5.39391e-06 -0.000132051
0.00257065 -0.000148241 3.38405e-05
-0.000148241 0.00108455 -3.90267e-06
3.38405e-05 -3.90267e-06 0.001019
0.00181145 -7.52772e-05 -0.000178389
-7.52772e-05 0.000718596 2.10545e-05
-0.000178389 2.10545e-05 0.000700221
0.00272079 -0.000172648 0.000112822
-0.000172648 0.00117963 -1.74378e-05
0.000112822 -1.74378e-05 0.00111391
0.00153389 -2.31516e-05 -8.17209e-05
-2.31516e-05 0.000566649 9.13391e-06
-8.17209e-05 9.13391e-06 0.000537689
0.00530323 0.000180543 2.78261e-05
0.000180543 0.00281618 -2.35682e-06
2.78261e-05 -2.35682e-06 0.00278656
0.00186335 0.000231813 6.86065e-07
0.000231813 0.000117702 3.46378e-07
6.86065e-07 3.46378e-07 -1.25431e-05
0.00183076 0.000254849 -1.03173e-08
0.000254849 0.000200313 -6.51048e-07
-1.03173e-08 -6.51048e-07 4.45015e-05
0.00191992 0.000279886 -3.33028e-06
0.000279886 0.000164039 7.38093e-08
-3.33028e-06 7.38093e-08 2.08335e-05
0.00167139 0.000227207 -3.71529e-06
0.000227207 0.000280741 -7.71176e-07
-3.71529e-06 -7.71176e-07 0.000112094
0.00159562 0.000265459 5.20269e-07
0.000265459 9.95961e-05 -1.27371e-06
5.20269e-07 -1.27371e-06 -6.93183e-05
0.00189966 0.000285862 -2.70162e-06
0.000285862 0.00017501 -3.34942e-06
-2.70162e-06 -3.34942e-06 2.73204e-05
0.000994872 0.000168301 -1.28657e-05
0.000168301 2.39564e-05 -5.46881e-06
-1.28657e-05 -5.46881e-06 -0.000125077
0.00126091 0.00022823 -5.93494e-08
0.00022823 7.50915e-05 3.07532e-07
-5.93494e-08 3.07532e-07 -0.000105318
0.00175365 0.000318011 2.94093e-06
0.000318011 0.000237485 -1.4666e-06
2.94093e-06 -1.4666e-06 4.17818e-05
0.00115565 0.000227999 7.43899e-06
0.000227999 7.25245e-05 2.11675e-06
7.43899e-06 2.11675e-06 -0.00011388
0.00089067 0.00017145 -2.62963e-07
0.00017145 9.05849e-07 -3.65671e-07
-2.62963e-07 -3.65671e-07 -0.000153258
0.000590182 0.000203761 -2.44814e-05
0.000203761 -5.27409e-05 -1.36939e-05
-2.44814e-05 -1.36939e-05 -0.000147358
0.000857149 0.00016629 8.30849e-06
0.00016629 4.09587e-05 5.80615e-06
8.30849e-06 5.80615e-06 -0.000119191
0.000566974 0.000165489 1.31387e-06
0.000165489 -4.83318e-05 5.05925e-07
1.31387e-06 5.05925e-07 -0.000137255
0.00543707 -0.000124322 -0.000169963
-0.000124322 0.00293351 -1.87028e-05
-0.000169963 -1.87028e-05 0.00290325
0.000369355 7.7604e-05 1.24531e-05
7.7604e-05 -0.000141017 1.26998e-05
1.24531e-05 1.26998e-05 -0.000208876
0.0045227 -0.000174152 -1.27477e-05
-0.000174152 0.00238308 1.17958e-06
-1.27477e-05 1.17958e-06 0.00236254
0.00359537 -0.000174259 8.3287e-05
-0.000174259 0.00182727 2.17172e-06
8.3287e-05 2.17172e-06 0.00181186
0.00187264 0.000129901 -6.55352e-07
0.000129901 3.5543e-05 1.60586e-06
-6.55352e-07 1.60586e-06 -3.68403e-05
0.00193308 0.000163564 8.10424e-07
0.000163564 8.74564e-06 3.01446e-07
8.10424e-07 3.01446e-07 -4.78407e-05
0.00185096 0.000154052 2.81507e-07
0.000154052 -5.13304e-05 8.1244e-07
2.81507e-07 8.1244e-07 -9.3258e-05
0.00198292 0.000238347 2.5883e-07
0.000238347 0.000138207 -7.35372e-08
2.5883e-07 -7.35372e-08 3.00469e-05
0.00176272 0.000323371 -8.96491e-07
0.000323371 9.51699e-05 -1.03928e-06
-8.96491e-07 -1.03928e-06 -5.88226e-05
0.00186634 0.000253833 -3.67259e-07
0.000253833 3.62842e-05 -1.05796e-06
-3.67259e-07 -1.05796e-06 -6.58098e-05
0.00182299 5.02878e-05 -6.8723e-07
5.02878e-05 3.99952e-05 -7.01401e-08
-6.8723e-07 -7.01401e-08 -1.56244e-05
0.00191461 4.45483e-05 4.8116e-07
4.45483e-05 3.67333e-05 -1.13554e-07
4.8116e-07 -1.13554e-07 8.21951e-07
0.00197063 5.02207e-05 3.28274e-06
5.02207e-05 2.99996e-05 3.76563e-07
3.28274e-06 3.76563e-07 5.23543e-06
0.00175744 -1.62514e-05 -2.36501e-06
-1.62514e-05 -7.71224e-06 6.15245e-08
-2.36501e-06 6.15245e-08 -5.43373e-05
0.00173437 -3.60161e-05 -4.77513e-07
-3.60161e-05 3.31197e-05 -4.12501e-07
-4.77513e-07 -4.12501e-07 -4.42461e-05
0.00189333 -5.57986e-05 1.07732e-06
-5.57986e-05 2.62354e-05 5.16503e-07
1.07732e-06 5.16503e-07 -5.10725e-06
0.00185092 -6.74317e-05 -1.38373e-06
-6.74317e-05 8.68519e-05 5.25939e-07
-1.38373e-06 5.25939e-07 9.61578e-06
0.00185573 -6.85834e-05 3.35298e-07
-6.85834e-05 0.000158732 -4.60353e-07
3.35298e-07 -4.60353e-07 5.43696e-05
0.00186576 -0.000126061 1.87349e-06
-0.000126061 8.36841e-05 -4.57927e-08
1.87349e-06 -4.57927e-08 -2.08225e-06
0.0017725 -0.000118032 1.75912e-06
-0.000118032 0.000110525 -6.89028e-07
1.75912e-06 -6.89028e-07 -7.00007e-06
0.00146333 -8.51263e-05 -2.28183e-06
-8.51263e-05 7.52616e-05 -1.80816e-08
-2.28183e-06 -1.80816e-08 -6.25505e-05
0.00176348 -0.000165603 -1.02317e-06
-0.000165603 0.000129567 4.87731e-07
-1.02317e-06 4.87731e-07 5.60418e-07
0.00143149 -0.000121439 -8.96374e-08
-0.000121439 7.5795e-05 7.47786e-08
-8.96374e-08 7.47786e-08 -6.98144e-05
0.000994934 -8.0251e-05 -1.23864e-05
-8.0251e-05 -2.45309e-05 2.99795e-06
-1.23864e-05 2.99795e-06 -0.000155233
0.00140398 -0.000149314 3.51961e-06
-0.000149314 8.27621e-05 -7.71442e-07
3.51961e-06 -7.71442e-07 -7.00875e-05
0.00100634 -9.99832e-05 -8.97605e-08
-9.99832e-05 -9.1069e-06 2.35613e-07
-8.97605e-08 2.35613e-07 -0.000142418
0.00248403 -0.000139696 -4.78295e-05
-0.000139696 0.00102538 6.66366e-06
-4.78295e-05 6.66366e-06 0.000957234
0.00101853 -0.00011646 1.30896e-05
-0.00011646 5.82086e-06 -4.54491e-06
1.30896e-05 -4.54491e-06 -0.000128881
0.00256487 -0.000134166 3.25381e-05
-0.000134166 0.00107323 -2.96927e-06
3.25381e-05 -2.96927e-06 0.00101003
0.00184933 -6.43701e-05 -0.000178284
-6.43701e-05 0.000734738 1.81003e-05
-0.000178284 1.81003e-05 0.000716863
0.00267366 -0.000148628 0.00011144
-0.000148628 0.00114043 -1.5184e-05
0.00011144 -1.5184e-05 0.00108039
0.00154361 -3.55887e-05 -7.42127e-05
-3.55887e-05 0.000565098 8.01773e-06
-7.42127e-05 8.01773e-06 0.000539302
0.00136258 -1.43751e-05 3.24982e-05
-1.43751e-05 0.000469161 -5.13288e-06
3.24982e-05 -5.13288e-06 0.00043355
0.00192047 0.000136575 -4.79005e-07
0.000136575 0.000128676 1.8114e-06
-4.79005e-07 1.8114e-06 3.10138e-05
0.00179124 0.000213107 -1.12978e-06
0.000213107 0.000145171 2.45074e-07
-1.12978e-06 2.45074e-07 1.1223e-06
0.00185281 0.000231775 -7.63051e-07
0.000231775 0.000104543 -1.15268e-07
-7.63051e-07 -1.15268e-07 -2.26562e-05
0.00171948 0.000209658 -3.0425e-06
0.000209658 0.000267106 -5.62146e-07
-3.0425e-06 -5.62146e-07 0.000109437
0.00177392 0.000250114 4.72928e-07
0.000250114 0.000172245 -4.7051e-10
4.72928e-07 -4.7051e-10 1.53445e-05
0.00178521 0.000274488 4.47454e-07
0.000274488 8.30638e-05 1.44035e-07
4.47454e-07 1.44035e-07 -6.20794e-05
0.00100062 0.000152218 -1.36205e-05
0.000152218 2.25845e-06 -5.09543e-06
-1.36205e-05 -5.09543e-06 -0.000140028
0.00149243 0.000222032 3.20482e-06
0.000222032 0.000172324 7.13945e-07
3.20482e-06 7.13945e-07 3.2721e-06
0.00164212 0.000273108 4.87175e-07
0.000273108 0.000120113 -1.97607e-06
4.87175e-07 -1.97607e-06 -4.72974e-05
0.000532013 0.000174828 -2.2499e-05
0.000174828 -9.64032e-05 -1.21671e-05
-2.2499e-05 -1.21671e-05 -0.000189074
0.000958116 0.000166109 -6.46799e-07
0.000166109 3.66997e-06 2.9796e-07
-6.46799e-07 2.9796e-07 -0.000145084
0.00127919 0.000228928 7.60883e-06
0.000228928 8.69108e-05 2.46949e-06
7.60883e-06 2.46949e-06 -9.37185e-05
0.000888811 0.000171366 1.11763e-05
0.000171366 -5.72846e-07 5.2666e-06
1.11763e-05 5.2666e-06 -0.000154599
0.000548548 0.000186253 1.65214e-06
0.000186253 -7.2911e-05 4.57003e-07
1.65214e-06 4.57003e-07 -0.000168621
0.00571992 -3.35246e-05 -0.000187444
-3.35246e-05 0.00307758 -2.09895e-05
-0.000187444 -2.09895e-05 0.00305771
0.000458994 0.000155368 1.9954e-05
0.000155368 -0.000112514 1.38215e-05
1.9954e-05 1.38215e-05 -0.000197324
0.00523786 -0.00012878 -1.72e-06
-0.00012878 0.00279551 -3.55588e-07
-1.72e-06 -3.55588e-07 0.00277804
0.00424145 -0.000203567 0.000102643
-0.000203567 0.00222291 4.41002e-06
0.000102643 4.41002e-06 0.00219735
0.00175591 9.03759e-05 -2.13345e-06
9.03759e-05 1.20358e-05 1.1408e-06
-2.13345e-06 1.1408e-06 -5.53866e-05
0.00186415 0.000129328 1.14766e-06
0.000129328 3.43489e-05 7.46323e-07
1.14766e-06 7.46323e-07 -3.71125e-05
0.00194596 0.000167135 -4.22529e-07
0.000167135 9.82068e-06 -7.91235e-08
-4.22529e-07 -7.91235e-08 -4.44113e-05
0.00195553 0.000233694 1.62275e-06
0.000233694 0.000125347 -6.17483e-07
1.62275e-06 -6.17483e-07 1.97496e-05
0.00182144 -6.45661e-07 2.04241e-06
-6.45661e-07 9.17368e-05 -3.41497e-07
2.04241e-06 -3.41497e-07 1.18148e-05
0.00190841 4.40721e-05 6.58948e-07
4.40721e-05 8.27883e-05 -1.18656e-07
6.58948e-07 -1.18656e-07 3.02463e-05
0.00192391 4.27203e-05 2.4494e-06
4.27203e-05 4.51246e-05 9.94386e-08
2.4494e-06 9.94386e-08 9.26142e-06
0.00192876 -1.91319e-05 -1.90545e-06
-1.91319e-05 9.19736e-05 3.36162e-07
-1.90545e-06 3.36162e-07 4.61758e-05
0.00173791 -2.79451e-05 -2.068e-06
-2.79451e-05 3.72564e-05 -2.5561e-07
-2.068e-06 -2.5561e-07 -3.74049e-05
0.00179082 -3.00764e-05 2.16008e-06
-3.00764e-05 0.000131033 -5.3599e-07
2.16008e-06 -5.3599e-07 2.80077e-05
0.00181091 -6.7247e-05 -1.84708e-06
-6.7247e-05 6.21863e-05 1.25204e-06
-1.84708e-06 1.25204e-06 -1.9086e-05
0.00175709 -6.86491e-05 -2.76946e-07
-6.86491e-05 0.000103974 3.68225e-07
-2.76946e-07 3.68225e-07 -4.81563e-06
0.0015346 -4.95247e-05 -2.82541e-06
-4.95247e-05 0.000102694 -8.98776e-09
-2.82541e-06 -8.98776e-09 -2.47418e-05
0.00174214 -0.000117288 1.05854e-06
-0.000117288 9.54458e-05 -4.93938e-08
1.05854e-06 -4.93938e-08 -2.20189e-05
0.00145348 -8.30768e-05 5.11115e-07
-8.30768e-05 6.73546e-05 -2.11619e-07
5.11115e-07 -2.11619e-07 -7.00498e-05
0.000991656 -5.4936e-05 -1.2237e-05
-5.4936e-05 -3.46457e-05 2.23351e-06
-1.2237e-05 2.23351e-06 -0.00016197
0.00142495 -0.000118873 2.86862e-06
-0.000118873 6.90473e-05 -4.42438e-07
2.86862e-06 -4.42438e-07 -7.60651e-05
0.00100068 -7.94045e-05 -5.29612e-08
-7.94045e-05 -2.17205e-05 1.69153e-07
-5.29612e-08 1.69153e-07 -0.000152121
0.000598825 -7.90216e-05 -1.94903e-05
-7.90216e-05 -0.000107514 4.76032e-06
-1.94903e-05 4.76032e-06 -0.000181912
0.00102196 -9.80368e-05 1.26314e-05
-9.80368e-05 -1.50676e-06 -3.51259e-06
1.26314e-05 -3.51259e-06 -0.000134142
0.00158379 -8.88855e-05 4.54304e-05
-8.88855e-05 0.000482793 -2.94132e-06
4.54304e-05 -2.94132e-06 0.000416164
0.00555809 -0.00011822 -0.000227574
-0.00011822 0.0029347 1.41477e-05
-0.000227574 1.41477e-05 0.0029403
0.00264827 -0.000121176 0.000110567
-0.000121176 0.00111461 -1.23082e-05
0.000110567 -1.23082e-05 0.00105799
0.00155789 -4.70753e-05 -6.6793e-05
-4.70753e-05 0.000569724 5.57272e-06
-6.6793e-05 5.57272e-06 0.00054408
0.00128317 -5.69003e-05 4.36007e-05
-5.69003e-05 0.00042202 -6.03563e-06
4.36007e-05 -6.03563e-06 0.000386271
0.00189651 9.49614e-05 -2.62083e-07
9.49614e-05 0.000132269 1.81341e-06
-2.62083e-07 1.81341e-06 4.80073e-05
0.0018524 0.000147502 4.27323e-07
0.000147502 0.000166055 1.42478e-06
4.27323e-07 1.42478e-06 4.19083e-05
0.00196434 0.000133863 4.43097e-07
0.000133863 0.000161475 2.62061e-08
4.43097e-07 2.62061e-08 6.31313e-05
0.00149718 0.000167506 -3.61964e-06
0.000167506 9.96301e-05 -4.21321e-07
-3.61964e-06 -4.21321e-07 -4.94887e-05
0.00178143 0.000210081 3.53851e-07
0.000210081 0.000139474 1.49474e-09
3.53851e-07 1.49474e-09 -3.85522e-06
0.00183762 0.000231865 1.49721e-07
0.000231865 8.78955e-05 -3.10115e-07
1.49721e-07 -3.10115e-07 -3.6333e-05
0.000704572 0.000118254 -1.53584e-05
0.000118254 -0.000189598 -4.62271e-06
-1.53584e-05 -4.62271e-06 -0.000327027
0.00174178 0.000211085 2.4255e-06
0.000211085 0.000280126 6.47947e-07
2.4255e-06 6.47947e-07 0.000122451
0.00171099 0.000244967 3.45694e-07
0.000244967 0.000140424 -3.13358e-07
3.45694e-07 -3.13358e-07 -1.75371e-05
0.000507043 0.000129527 -1.95476e-05
0.000129527 -0.000128856 -9.63961e-06
-1.95476e-05 -9.63961e-06 -0.000214077
0.000807676 0.00014282 5.0684e-07
0.00014282 -0.0001106 2.61663e-07
5.0684e-07 2.61663e-07 -0.00025349
0.00130224 0.000216167 9.1714e-06
0.000216167 5.69681e-05 1.91996e-06
9.1714e-06 1.91996e-06 -0.000112386
0.00577076 5.15804e-05 -0.000200357
5.15804e-05 0.00308183 -2.0273e-05
-0.000200357 -2.0273e-05 0.00307424
0.000517587 0.00016207 1.14529e-06
0.00016207 -0.000103838 6.87136e-07
1.14529e-06 6.87136e-07 -0.000197335
0.000908516 0.000163233 1.23476e-05
0.000163233 -2.39559e-05 6.27011e-06
1.23476e-05 6.27011e-06 -0.000172394
0.000469507 0.00017024 2.06366e-05
0.00017024 -0.000114486 1.34551e-05
2.06366e-05 1.34551e-05 -0.000211424
0.00558582 -4.47224e-05 8.57647e-06
-4.47224e-05 0.0029886 -8.17905e-07
8.57647e-06 -8.17905e-07 0.00297588
0.00500192 -0.000181193 0.000137594
-0.000181193 0.00266319 7.20846e-06
0.000137594 7.20846e-06 0.00264026
0.00183133 6.26959e-05 -1.49299e-06
6.26959e-05 9.37277e-05 -7.20337e-07
-1.49299e-06 -7.20337e-07 1.36209e-05
0.00184666 9.14985e-05 2.88312e-07
9.14985e-05 6.41451e-05 5.44537e-07
2.88312e-07 5.44537e-07 -4.18339e-06
0.00185289 0.00012858 1.63693e-06
0.00012858 3.16664e-05 1.50938e-08
1.63693e-06 1.50938e-08 -3.89046e-05
0.00169585 4.16138e-06 2.41227e-06
4.16138e-06 6.55115e-05 -5.20433e-07
2.41227e-06 -5.20433e-07 -3.96928e-05
0.00175058 1.69272e-06 6.78622e-07
1.69272e-06 5.45627e-05 5.01286e-08
6.78622e-07 5.01286e-08 -2.38671e-05
0.00198656 3.66049e-05 1.03007e-06
3.66049e-05 0.000121435 2.19879e-08
1.03007e-06 2.19879e-08 7.18705e-05
0.00174335 -2.11408e-05 -2.67886e-06
-2.11408e-05 4.25429e-05 8.05912e-07
-2.67886e-06 8.05912e-07 -2.93703e-05
0.00177014 -2.56974e-05 9.7715e-07
-2.56974e-05 0.000118337 -1.05777e-07
9.7715e-07 -1.05777e-07 1.55919e-05
0.00173087 -1.88096e-05 -8.56461e-07
-1.88096e-05 0.000218656 -4.41275e-07
-8.56461e-07 -4.41275e-07 9.71756e-05
0.0016562 -6.87253e-05 -1.68343e-06
-6.87253e-05 4.83943e-05 1.10016e-06
-1.68343e-06 1.10016e-06 -6.48228e-05
0.00159496 -4.94259e-05 5.4901e-08
-4.94259e-05 0.00013943 6.59506e-08
5.4901e-08 6.59506e-08 1.0648e-05
0.00077977 -2.66425e-05 -1.38133e-05
-2.66425e-05 -0.000165713 1.39718e-06
-1.38133e-05 1.39718e-06 -0.000291056
0.00143694 -8.30644e-05 3.0819e-06
-8.30644e-05 5.54539e-05 -4.41489e-07
3.0819e-06 -4.41489e-07 -8.182e-05
0.000995743 -5.1894e-05 -3.51902e-08
-5.1894e-05 -3.31604e-05 1.26088e-07
-3.51902e-08 1.26088e-07 -0.000160051
0.000600855 -2.04556e-05 -1.83408e-05
-2.04556e-05 -0.000110009 3.11538e-06
-1.83408e-05 3.11538e-06 -0.000183576
0.00101843 -7.78832e-05 1.22922e-05
-7.78832e-05 -1.24657e-05 -2.65475e-06
1.22922e-05 -2.65475e-06 -0.000142415
0.000604409 -6.21552e-05 -2.11044e-07
-6.21552e-05 -0.00010208 3.31149e-07
-2.11044e-07 3.31149e-07 -0.000178011
0.0055718 -1.27653e-05 -0.000218858
-1.27653e-05 0.00293942 8.60852e-06
-0.000218858 8.60852e-06 0.00294722
0.000632923 -6.61055e-05 1.60507e-05
-6.61055e-05 -8.33207e-05 -6.66994e-06
1.60507e-05 -6.66994e-06 -0.000161162
0.00350636 -7.78213e-05 0.000102478
-7.78213e-05 0.00172342 -3.68192e-06
0.000102478 -3.68192e-06 0.00170724
0.001232 -7.17285e-05 4.96948e-05
-7.17285e-05 0.000393673 -6.58887e-06
4.96948e-05 -6.58887e-06 0.000355444
0.00180392 8.94084e-05 -7.51475e-07
8.94084e-05 9.91095e-05 1.47001e-07
-7.51475e-07 1.47001e-07 1.06605e-05
0.00172216 8.84528e-05 2.37973e-06
8.84528e-05 9.0844e-05 2.26161e-06
2.37973e-06 2.26161e-06 -2.2783e-05
0.00193434 9.25372e-05 -5.32415e-09
9.25372e-05 0.000156563 -3.72564e-07
-5.32415e-09 -3.72564e-07 7.3265e-05
0.00146379 0.000119205 -2.36558e-06
0.000119205 6.57052e-05 -1.85363e-07
-2.36558e-06 -1.85363e-07 -7.53003e-05
0.00181979 0.00014645 5.55383e-07
0.00014645 0.000142947 1.58994e-07
5.55383e-07 1.58994e-07 1.75153e-05
0.00201412 0.000131028 -1.41057e-08
0.000131028 0.000197811 -1.86297e-06
-1.41057e-08 -1.86297e-06 9.88172e-05
0.000759714 9.8005e-05 -1.45855e-05
9.8005e-05 -0.000172729 -3.52442e-06
-1.45855e-05 -3.52442e-06 -0.000305282
0.0016127 0.000169818 -1.68431e-07
0.000169818 0.000170485 1.92049e-07
-1.68431e-07 1.92049e-07 2.1161e-05
0.00177384 0.000207104 8.33629e-07
0.000207104 0.000135511 -4.61453e-07
8.33629e-07 -4.61453e-07 -7.09016e-06
0.000525813 9.18679e-05 -1.7932e-05
9.18679e-05 -0.000135431 -7.14451e-06
-1.7932e-05 -7.14451e-06 -0.000214232
0.00068935 0.000117914 -2.84491e-06
0.000117914 -0.000197862 -4.02654e-07
-2.84491e-06 -4.02654e-07 -0.000335504
0.00176825 0.000212969 8.09806e-06
0.000212969 0.000295642 1.95465e-06
8.09806e-06 1.95465e-06 0.000137886
0.00571447 0.000129451 -0.000218182
0.000129451 0.00303264 -1.92428e-05
-0.000218182 -1.92428e-05 0.00303298
0.000515987 0.000123677 4.03185e-07
0.000123677 -0.000124414 3.59385e-07
4.03185e-07 3.59385e-07 -0.000210108
0.000619196 0.000133918 1.33571e-05
0.000133918 -0.000220955 4.91667e-06
1.33571e-05 4.91667e-06 -0.00036451
0.00567512 6.56695e-05 1.24974e-05
6.56695e-05 0.00302634 1.05875e-06
1.24974e-05 1.05875e-06 0.0030199
0.000486405 0.000148533 1.90179e-05
0.000148533 -0.000121027 1.21331e-05
1.90179e-05 1.21331e-05 -0.000215197
0.00546472 -7.60637e-05 0.000180051
-7.60637e-05 0.00290777 1.07962e-05
0.000180051 1.07962e-05 0.00290114
0.0018016 4.41966e-05 9.73096e-07
4.41966e-05 0.000117347 -6.13417e-07
9.73096e-07 -6.13417e-07 1.43871e-05
0.00177706 6.01303e-05 -1.66771e-06
6.01303e-05 6.7548e-05 4.78291e-07
-1.66771e-06 4.78291e-07 -1.4187e-05
0.00194384 9.23381e-05 1.59563e-06
9.23381e-05 0.0001198 8.72678e-08
1.59563e-06 8.72678e-08 5.06024e-05
0.0017363 -1.81652e-06 1.865e-07
-1.81652e-06 0.000226917 -3.25282e-07
1.865e-07 -3.25282e-07 0.000107417
0.00170075 2.29077e-06 1.87782e-07
2.29077e-06 6.71439e-05 4.20285e-08
1.87782e-07 4.20285e-08 -3.63909e-05
0.00168665 5.37866e-06 1.03001e-06
5.37866e-06 2.10726e-05 1.70229e-07
1.03001e-06 1.70229e-07 -5.58472e-05
0.00174852 -2.15664e-05 -3.68131e-07
-2.15664e-05 0.000105222 5.13655e-07
-3.68131e-07 5.13655e-07 2.72698e-06
0.00173875 -1.89017e-05 2.67005e-06
-1.89017e-05 0.000222823 -1.99884e-07
2.67005e-06 -1.99884e-07 0.000101363
0.000792718 -9.01958e-06 -1.33103e-05
-9.01958e-06 -0.000157395 5.31906e-07
-1.33103e-05 5.31906e-07 -0.000279841
0.00165857 -4.94862e-05 3.22638e-06
-4.94862e-05 0.000178025 5.62238e-08
3.22638e-06 5.62238e-08 4.78928e-05
0.000889705 -2.60012e-05 -2.30096e-06
-2.60012e-05 -0.000101197 2.29413e-07
-2.30096e-06 2.29413e-07 -0.000225924
0.000605449 -6.2302e-06 -1.85842e-05
-6.2302e-06 -0.000111439 2.01961e-06
-1.85842e-05 2.01961e-06 -0.000183675
0.00100421 -5.00331e-05 1.18636e-05
-5.00331e-05 -2.88101e-05 -1.94943e-06
1.18636e-05 -1.94943e-06 -0.000155374
0.00058557 -3.04686e-05 7.7024e-07
-3.04686e-05 -0.000120723 -4.19041e-08
7.7024e-07 -4.19041e-08 -0.000192998
0.00553029 -0.000110089 -0.000227725
-0.000110089 0.00292281 8.91306e-06
-0.000227725 8.91306e-06 0.00292751
0.000582672 -4.58433e-05 1.772e-05
-4.58433e-05 -0.000115066 -3.74505e-06
1.772e-05 -3.74505e-06 -0.000190743
0.00555083 -4.86587e-05 7.83023e-06
-4.86587e-05 0.00292799 -4.0925e-08
7.83023e-06 -4.0925e-08 0.00293592
0.00156009 -1.88115e-05 0.000184109
-1.88115e-05 0.000563251 -9.97824e-06
0.000184109 -9.97824e-06 0.000549766
0.0016602 6.55459e-05 2.47073e-06
6.55459e-05 5.06866e-05 4.16701e-07
2.47073e-06 4.16701e-07 -5.96931e-05
0.00178682 9.35582e-05 -3.13963e-06
9.35582e-05 8.25031e-05 -6.65638e-07
-3.13963e-06 -6.65638e-07 -3.2714e-06
0.00146698 7.23794e-05 -1.48347e-06
7.23794e-05 6.67556e-05 1.12516e-07
-1.48347e-06 1.12516e-07 -6.5662e-05
0.00172829 8.733e-05 6.03859e-07
8.733e-05 9.39597e-05 1.66373e-07
6.03859e-07 1.66373e-07 -1.97525e-05
0.00196565 9.02644e-05 -7.97408e-07
9.02644e-05 0.000176835 -2.99374e-06
-7.97408e-07 -2.99374e-06 9.44888e-05
0.00104471 7.69657e-05 -1.23761e-05
7.69657e-05 -1.06972e-05 -2.39905e-06
-1.23761e-05 -2.39905e-06 -0.000136318
0.00146282 0.000119042 7.77834e-08
0.000119042 6.63628e-05 6.65335e-08
7.77834e-08 6.65335e-08 -7.48136e-05
0.00178296 0.000145263 1.16906e-07
0.000145263 0.000117424 -8.72469e-07
1.16906e-07 -8.72469e-07 -9.2926e-06
0.000550207 6.49705e-05 -1.74587e-05
6.49705e-05 -0.000134197 -5.16123e-06
-1.74587e-05 -5.16123e-06 -0.00020955
0.000865581 0.000102363 -3.09115e-06
0.000102363 -0.000109219 -3.12966e-07
-3.09115e-06 -3.12966e-07 -0.000241313
0.0017319 0.000172039 4.49449e-06
0.000172039 0.000243675 1.14638e-06
4.49449e-06 1.14638e-06 9.41758e-05
0.00566551 0.000175569 -0.000236716
0.000175569 0.003004 -1.85414e-05
-0.000236716 -1.85414e-05 0.00300415
0.000543302 9.08256e-05 4.95044e-08
9.08256e-05 -0.000126015 1.62132e-07
4.95044e-08 1.62132e-07 -0.000204961
0.00067297 0.0001176 9.43923e-06
0.0001176 -0.000207035 3.61949e-06
9.43923e-06 3.61949e-06 -0.000344842
0.00566358 0.000149515 1.06389e-05
0.000149515 0.00301145 2.69683e-06
1.06389e-05 2.69683e-06 0.00300786
0.000529513 0.000116534 1.83108e-05
0.000116534 -0.00011789 9.59894e-06
1.83108e-05 9.59894e-06 -0.000203611
0.00560362 6.00223e-05 0.000206361
6.00223e-05 0.00297339 1.61407e-05
0.000206361 1.61407e-05 0.00297456
0.00172487 2.99219e-05 8.05521e-07
2.99219e-05 0.000222393 -9.36013e-08
8.05521e-07 -9.36013e-08 0.000102589
0.00176035 3.96789e-05 -1.21687e-06
3.96789e-05 9.61732e-05 9.29011e-08
-1.21687e-06 9.29011e-08 -8.15779e-06
0.00172132 5.72724e-05 -1.55558e-06
5.72724e-05 4.1221e-05 5.48344e-07
-1.55558e-06 5.48344e-07 -4.21069e-05
0.00078789 -7.79233e-06 -1.3798e-05
-7.79233e-06 -0.000154466 -1.35698e-07
-1.3798e-05 -1.35698e-07 -0.000275428
0.00174202 4.03004e-06 3.05483e-06
4.03004e-06 0.000230241 -1.67544e-07
3.05483e-06 -1.67544e-07 0.000110699
0.00170356 2.65928e-07 -1.2715e-06
2.65928e-07 6.76086e-05 4.36117e-07
-1.2715e-06 4.36117e-07 -3.42423e-05
0.0017513 -1.93556e-05 6.02879e-06
-1.93556e-05 0.000229743 3.45846e-08
6.02879e-06 3.45846e-08 0.000108301
0.00078507 -9.15589e-06 -1.7548e-06
-9.15589e-06 -0.000162787 8.5794e-08
-1.7548e-06 8.5794e-08 -0.000285464
0.00060707 -2.78785e-05 -1.89317e-05
-2.78785e-05 -0.000111354 7.45201e-07
-1.89317e-05 7.45201e-07 -0.00018157
0.000983988 -2.45525e-05 1.00835e-05
-2.45525e-05 -4.57814e-05 -1.15508e-06
1.00835e-05 -1.15508e-06 -0.000169908
0.000585876 4.50494e-06 3.1669e-07
4.50494e-06 -0.000123238 9.1262e-08
3.1669e-07 9.1262e-08 -0.000194883
0.00556689 -8.74796e-05 -0.000234707
-8.74796e-05 0.00294206 6.26636e-06
-0.000234707 6.26636e-06 0.00294886
0.000596272 -3.27571e-05 1.84841e-05
-3.27571e-05 -0.000112914 -2.53184e-06
1.84841e-05 -2.53184e-06 -0.000186283
0.00556434 -3.66123e-06 -3.02236e-06
-3.66123e-06 0.00293423 1.51575e-06
-3.02236e-06 1.51575e-06 0.00294399
0.00555827 -6.73648e-05 0.000227857
-6.73648e-05 0.00293088 -7.95351e-06
0.000227857 -7.95351e-06 0.00294005
0.00144348 4.43836e-05 -1.37685e-06
4.43836e-05 5.82988e-05 -2.54554e-08
-1.37685e-06 -2.54554e-08 -6.99391e-05
0.00171921 6.88388e-05 -1.31062e-06
6.88388e-05 8.39456e-05 -1.24118e-06
-1.31062e-06 -1.24118e-06 -2.2435e-05
0.00177629 9.81225e-05 -4.31048e-06
9.81225e-05 6.97882e-05 -1.26501e-06
-4.31048e-06 -1.26501e-06 -1.33434e-05
0.00104701 4.40663e-05 -1.21643e-05
4.40663e-05 -8.76959e-06 -1.83586e-06
-1.21643e-05 -1.83586e-06 -0.000130017
0.00145313 7.22881e-05 1.76511e-07
7.22881e-05 5.83772e-05 2.98505e-08
1.76511e-07 2.98505e-08 -7.44325e-05
0.001734 8.61073e-05 -1.05711e-06
8.61073e-05 9.72331e-05 -1.72598e-06
-1.05711e-06 -1.72598e-06 -1.65566e-05
0.000576822 4.03674e-05 -1.70529e-05
4.03674e-05 -0.000124461 -3.74701e-06
-1.70529e-05 -3.74701e-06 -0.000197791
0.0010143 7.81392e-05 2.13483e-07
7.81392e-05 -2.79399e-05 2.20901e-07
2.13483e-07 2.20901e-07 -0.000154057
0.00146271 0.000118923 2.97242e-06
0.000118923 6.71863e-05 3.84521e-07
2.97242e-06 3.84521e-07 -7.41735e-05
0.00560527 0.000169711 -0.000248676
0.000169711 0.00297072 -1.61013e-05
-0.000248676 -1.61013e-05 0.00297147
0.000573906 6.76181e-05 3.23285e-07
6.76181e-05 -0.000120234 1.58211e-07
3.23285e-07 1.58211e-07 -0.000196038
0.000968801 0.000106681 9.46513e-06
0.000106681 -4.74366e-05 3.03193e-06
9.46513e-06 3.03193e-06 -0.000179032
0.00564638 0.000189167 6.1012e-06
0.000189167 0.00299945 2.58688e-06
6.1012e-06 2.58688e-06 0.00299685
0.000563706 9.0887e-05 1.74751e-05
9.0887e-05 -0.000114347 7.4855e-06
1.74751e-05 7.4855e-06 -0.000193553
0.00564554 0.00017185 0.000225941
0.00017185 0.00300039 2.0998e-05
0.000225941 2.0998e-05 0.00299761
0.00101852 1.36328e-05 -1.28529e-05
1.36328e-05 -1.64452e-05 -7.52654e-07
-1.28529e-05 -7.52654e-07 -0.000135415
0.00160631 2.55556e-05 3.49869e-06
2.55556e-05 0.000153355 1.00515e-07
3.49869e-06 1.00515e-07 3.28961e-05
0.00171971 3.4459e-05 -3.65025e-06
3.4459e-05 7.50697e-05 2.27614e-07
-3.65025e-06 2.27614e-07 -3.06496e-05
0.000633335 2.95477e-05 -1.93949e-05
2.95477e-05 -0.000102793 -4.46897e-07
-1.93949e-05 -4.46897e-07 -0.000166131
0.000766039 -2.32285e-06 -1.96652e-06
-2.32285e-06 -0.00016804 6.87319e-08
-1.96652e-06 6.87319e-08 -0.000289146
0.00174495 1.01767e-05 5.99629e-06
1.01767e-05 0.000231895 1.1206e-07
5.99629e-06 1.1206e-07 0.000112295
0.000774023 -8.92882e-06 9.87225e-06
-8.92882e-06 -0.00017026 -3.82761e-07
9.87225e-06 -3.82761e-07 -0.000293151
0.000599895 -4.13626e-06 2.60406e-07
-4.13626e-06 -0.000115352 2.97755e-07
2.60406e-07 2.97755e-07 -0.000185707
0.00553983 4.13273e-05 -0.000240444
4.13273e-05 0.00292228 -5.82449e-07
-0.000240444 -5.82449e-07 0.00293263
0.000562299 1.55515e-05 1.80076e-05
1.55515e-05 -0.000137897 -1.1697e-06
1.80076e-05 -1.1697e-06 -0.000208653
0.00554896 -8.63116e-05 -7.83834e-06
-8.63116e-05 0.00293219 1.51174e-06
-7.83834e-06 1.51174e-06 0.00293869
0.00553482 1.64098e-05 0.000219634
1.64098e-05 0.00291721 -3.5319e-06
0.000219634 -3.5319e-06 0.00292662
0.00102773 2.35086e-05 -1.26374e-05
2.35086e-05 -1.48299e-05 -1.38046e-06
-1.26374e-05 -1.38046e-06 -0.000134079
0.00144679 4.39301e-05 -1.38075e-07
4.39301e-05 5.96047e-05 -8.40833e-08
-1.38075e-07 -8.40833e-08 -6.65137e-05
0.00177986 7.18951e-05 -4.2833e-06
7.18951e-05 0.000117912 -1.93022e-06
-4.2833e-06 -1.93022e-06 1.55463e-05
0.00261953 4.85429e-05 -0.000115951
4.85429e-05 0.00108091 -3.66035e-06
-0.000115951 -3.66035e-06 0.00103274
0.00101766 4.59691e-05 2.42674e-07
4.59691e-05 -2.63664e-05 1.31668e-07
2.42674e-07 1.31668e-07 -0.000147959
0.00144023 7.2136e-05 2.58621e-06
7.2136e-05 5.05074e-05 7.89391e-08
2.58621e-06 7.89391e-08 -8.2703e-05
0.00554716 0.000135657 -0.000251145
0.000135657 0.00293493 -1.2042e-05
-0.000251145 -1.2042e-05 0.00293888
0.000609057 5.67066e-05 8.14137e-07
5.67066e-05 -0.000103649 3.26255e-07
8.14137e-07 3.26255e-07 -0.000178425
0.000988259 7.94703e-05 1.22825e-05
7.94703e-05 -4.25935e-05 2.80216e-06
1.22825e-05 2.80216e-06 -0.000169186
0.00564075 0.000181602 1.7096e-06
0.000181602 0.00299382 1.65554e-06
1.7096e-06 1.65554e-06 0.00299349
0.000608034 7.27781e-05 1.78403e-05
7.27781e-05 -9.91394e-05 5.92489e-06
1.78403e-05 5.92489e-06 -0.000175946
0.00563007 0.000215269 0.000237286
0.000215269 0.00299759 2.24741e-05
0.000237286 2.24741e-05 0.00299098
0.000677955 9.14878e-06 -1.63493e-05
9.14878e-06 -6.62229e-05 -1.77459e-06
-1.63493e-05 -1.77459e-06 -0.000137368
0.000883547 1.17598e-05 6.72245e-07
1.17598e-05 -9.61442e-05 2.48503e-07
6.72245e-07 2.48503e-07 -0.000215975
0.00148451 2.07987e-05 5.36499e-06
2.07987e-05 8.23127e-05 1.40642e-07
5.36499e-06 1.40642e-07 -3.87691e-05
0.0054127 -9.30835e-05 -0.000224004
-9.30835e-05 0.00286367 8.4224e-07
-0.000224004 8.4224e-07 0.00286439
0.000595999 7.81938e-06 -5.01317e-07
7.81938e-06 -0.000119922 1.57837e-07
-5.01317e-07 1.57837e-07 -0.000185965
0.000756218 2.65876e-06 9.71386e-06
2.65876e-06 -0.000174741 1.35451e-07
9.71386e-06 1.35451e-07 -0.000295952
0.00056138 2.06904e-05 1.82428e-05
2.06904e-05 -0.000138323 1.51858e-07
1.82428e-05 1.51858e-07 -0.000208119
0.00549397 5.5322e-06 2.54512e-06
5.5322e-06 0.00289964 -8.21764e-07
2.54512e-06 -8.21764e-07 0.00290672
0.00555969 -1.59003e-07 0.00022891
-1.59003e-07 0.00292952 -1.67325e-06
0.00022891 -1.67325e-06 0.00294046
0.0026846 6.82936e-06 -0.000112835
6.82936e-06 0.00111604 -2.29927e-06
-0.000112835 -2.29927e-06 0.00106914
0.00102471 2.63355e-05 4.37115e-08
2.63355e-05 -1.78616e-05 1.03009e-07
4.37115e-08 1.03009e-07 -0.000137334
0.00144539 4.3626e-05 2.32079e-06
4.3626e-05 5.83497e-05 -1.23279e-07
2.32079e-06 -1.23279e-07 -6.56479e-05
0.00516138 -5.86662e-05 -7.58819e-05
-5.86662e-05 0.00271819 4.40334e-07
-7.58819e-05 4.40334e-07 0.00270403
0.000624146 4.90272e-05 5.77189e-08
4.90272e-05 -9.68265e-05 2.18904e-07
5.77189e-08 2.18904e-07 -0.000169056
0.00100461 4.83874e-05 1.2091e-05
4.83874e-05 -3.49351e-05 2.14158e-06
1.2091e-05 2.14158e-06 -0.000156816
0.00559419 0.000105301 -1.0903e-05
0.000105301 0.00295815 -1.1058e-06
-1.0903e-05 -1.1058e-06 0.00296387
0.000638275 7.84189e-05 1.92958e-05
7.84189e-05 -8.58295e-05 4.94914e-06
1.92958e-05 4.94914e-06 -0.000161217
0.00564954 0.000205739 0.000247847
0.000205739 0.00300629 2.08113e-05
0.000247847 2.08113e-05 0.00300245
0.00166608 -4.92976e-05 -0.000190617
-4.92976e-05 0.000620568 6.73229e-07
-0.000190617 6.73229e-07 0.000611468
0.00165117 2.51437e-05 -4.69644e-05
2.51437e-05 0.000502751 2.09461e-07
-4.69644e-05 2.09461e-07 0.000448065
0.000747711 1.22881e-05 1.24155e-05
1.22881e-05 -0.000176143 9.44417e-07
1.24155e-05 9.44417e-07 -0.000296891
0.00546868 -3.97981e-05 7.85906e-06
-3.97981e-05 0.00289139 1.21019e-06
7.85906e-06 1.21019e-06 0.0028962
0.000611708 -1.21982e-05 1.87492e-05
-1.21982e-05 -0.000105765 8.35987e-07
1.87492e-05 8.35987e-07 -0.000174821
0.00552438 -6.24921e-05 0.000243328
-6.24921e-05 0.0029185 -1.93441e-06
0.000243328 -1.93441e-06 0.00292622
0.0012672 7.78804e-06 -3.71327e-05
7.78804e-06 0.000408063 -6.61286e-07
-3.71327e-05 -6.61286e-07 0.000374083
0.00164189 1.22265e-05 -4.73376e-05
1.22265e-05 0.000500948 -5.93767e-07
-4.73376e-05 -5.93767e-07 0.000443174
0.0010104 2.7764e-05 1.23518e-05
2.7764e-05 -2.71825e-05 1.63359e-06
1.23518e-05 1.63359e-06 -0.000146906
0.00341452 4.85227e-05 8.94267e-05
4.85227e-05 0.00166862 2.08297e-06
8.94267e-05 2.08297e-06 0.00165699
0.000630839 5.87135e-05 1.95114e-05
5.87135e-05 -9.26353e-05 3.85644e-06
1.95114e-05 3.85644e-06 -0.000165007
0.00563988 9.56029e-05 0.000236972
9.56029e-05 0.00298 1.26859e-05
0.000236972 1.26859e-05 0.00298848
0.00541859 -2.22013e-05 -8.87829e-06
-2.22013e-05 0.00286426 -1.83571e-06
-8.87829e-06 -1.83571e-06 0.00286831
0.000613578 4.25044e-05 2.01026e-05
4.25044e-05 -0.000112414 1.93549e-06
2.01026e-05 1.93549e-06 -0.000175693
0.00538938 5.09036e-05 0.000229931
5.09036e-05 0.00284165 -2.08136e-08
0.000229931 -2.08136e-08 0.00284921
0.00336371 2.6267e-05 0.000103207
2.6267e-05 0.00164263 3.09013e-06
0.000103207 3.09013e-06 0.00163114
0.000642756 4.78037e-06 1.8748e-05
4.78037e-06 -8.75709e-05 2.64256e-06
1.8748e-05 2.64256e-06 -0.000156963
0.0055399 -2.71626e-05 0.000228546
-2.71626e-05 0.00292377 5.6418e-06
0.000228546 5.6418e-06 0.00293146
0.00545045 -0.000127869 0.000225945
-0.000127869 0.00288879 -2.82321e-06
0.000225945 -2.82321e-06 0.00288791
0.00543826 -1.20176e-05 0.000225239
-1.20176e-05 0.00286153 2.91051e-06
0.000225239 2.91051e-06 0.00287252
