# vtk DataFile Version 2.0
Wound Healing Simulation
ASCII
DATASET UNSTRUCTURED_GRID
POINTS 3012 float
69.9759 18.75 4
67.2507 60.3285 4
69.976 18.75 2
73.0099 25.446 4
71.1327 20.9142 4
68.6801 16.6661 4
67.8185 19.9243 3.96758
67.2507 60.3286 2
71.1327 54.0858 4
68.6801 58.3339 4
65.6939 62.2254 4
65.304 58.9998 3.96588
74.6784 42.3946 4
73.7221 47.2057 4
69.9759 18.75 0
73.0099 25.446 2
68.6801 16.6661 2
71.1327 20.9142 2
67.819 19.929 2
74.6792 32.6053 4
73.7222 27.7943 4
72.1454 23.1494 4
70.6102 26.2223 3.97018
68.8798 21.957 3.96836
67.2507 14.6715 4
66.6291 17.9706 3.96645
65.6677 21.0733 3.96059
67.2507 60.3285 0
71.1327 54.0858 2
68.6801 58.3339 2
65.694 62.2255 2
65.3058 58.9927 2
72.1454 51.8506 4
69.9759 56.25 4
68.8302 53.1148 3.96833
64.0165 64.0165 4
66.6028 57.1347 3.96736
63.877 60.7608 3.96225
63.3864 57.7178 3.95642
60.3285 67.2507 4
74.6792 42.3947 2
73.7222 47.2057 2
74.9194 39.9526 4
74.2788 44.8158 4
72.1651 42.0855 3.97281
73.0099 49.554 4
71.2456 46.5978 3.97108
73.0099 25.446 0
71.1327 20.9142 0
68.6801 16.6661 0
67.8185 19.9243 0.0324239
74.6792 32.6053 2
73.7222 27.7943 2
67.2508 14.6715 2
72.1455 23.1494 2
70.6094 26.2237 2
66.6304 17.9761 2
68.8797 21.9604 2
65.6701 21.0746 2
74.9197 35.0474 4
74.2794 30.1841 4
72.1818 32.9452 3.97296
71.2749 28.4334 3.97104
69.8107 24.0598 3.96932
68.2529 26.9803 3.96528
66.6462 22.9742 3.96264
65.694 12.7746 4
65.3146 16.1038 3.96451
64.5702 19.2507 3.95732
63.5799 22.1619 3.96858
71.1327 54.0858 0
65.6939 62.2254 0
68.6801 58.3339 0
65.304 58.9998 0.0341236
72.1455 51.8506 2
69.9759 56.25 2
68.8303 53.1109 2
64.0165 64.0165 2
66.6044 57.1284 2
63.879 60.753 2
63.3873 57.7169 2
62.2254 65.694 4
58.8857 65.4086 3.97087
69.7638 50.9899 3.96934
67.7764 55.1693 3.96773
66.5198 52.1671 3.96309
62.3277 62.4219 3.96549
64.5252 55.9791 3.95901
62.1307 59.3491 3.95198
61.5506 56.5409 3.96266
58.3339 68.6801 4
60.3285 67.2508 2
73.7221 47.2057 0
74.6784 42.3946 0
74.9197 39.9526 2
74.2794 44.8159 2
72.1639 42.0844 2
73.0099 49.554 2
71.2447 46.596 2
75 37.5 4
72.4023 39.8026 3.97369
71.7791 44.3526 3.97214
69.7625 41.7839 3.96905
70.5709 48.8138 3.97032
68.8338 45.9961 3.96822
74.6792 32.6053 0
73.7222 27.7943 0
67.2507 14.6715 0
72.1454 23.1494 0
70.6102 26.2223 0.0298175
68.8798 21.957 0.0316409
66.6291 17.9706 0.033555
65.6677 21.0733 0.0394078
74.9197 35.0474 2
74.2794 30.1841 2
72.1804 32.9454 2
71.2738 28.4343 2
65.694 12.7745 2
65.3157 16.111 2
69.8102 24.062 2
68.2548 26.9812 2
64.5657 19.2532 2
66.6486 22.9755 2
63.5797 22.1633 2
72.4103 35.2256 3.97382
71.8007 30.6785 3.97234
69.7984 33.2787 3.96868
68.8896 29.0602 3.96686
67.5037 24.9473 3.96373
65.8759 27.725 3.97582
64.0165 10.9835 4
64.4475 23.9448 3.97253
63.8798 14.331 3.96235
63.3816 17.5053 3.95383
62.6098 20.458 3.96509
61.6108 23.1539 3.97376
60.6759 11.1053 3.96733
57.5991 11.5149 3.95995
72.1454 51.8506 0
69.9759 56.25 0
68.8302 53.1148 0.0316661
64.0165 64.0165 0
63.877 60.7608 0.0377549
66.6028 57.1347 0.0326437
63.3864 57.7178 0.0435816
62.2255 65.694 2
58.8899 65.4022 2
69.7635 50.9871 2
67.7772 55.1639 2
66.5214 52.1656 2
62.3311 62.4131 2
64.5212 55.9767 2
62.1323 59.3478 2
61.5572 56.5416 2
60.6604 63.9708 3.96455
57.018 66.7266 3.9705
57.5402 63.625 3.96725
67.3858 50.1409 3.96475
65.5719 54.1268 3.96146
64.2014 51.2663 3.97306
60.7443 60.8839 3.95124
62.5176 54.9333 3.96753
60.3792 58.0016 3.95796
59.9119 55.572 3.96937
56.25 69.9759 4
58.3339 68.6801 2
60.3285 67.2507 0
58.9145 9.66473 3.96775
62.2254 9.30607 4
73.0099 49.554 0
74.2788 44.8158 0
71.2456 46.5978 0.0289236
72.1651 42.0855 0.0271892
74.9194 39.9526 0
75 37.5 2
72.4016 39.8018 2
71.7784 44.3511 2
69.7631 41.7832 2
70.5704 48.8116 2
68.8359 45.9951 2
72.4859 37.513 3.97361
70.0093 39.656 3.96904
69.3751 43.8963 3.96895
67.3001 41.466 3.97656
68.1625 48.0796 3.96666
66.3804 45.3694 3.97604
74.9197 35.0474 0
74.2794 30.1841 0
72.1818 32.9452 0.0270375
71.2749 28.4334 0.0289638
65.694 12.7746 0
65.3146 16.1038 0.0354853
69.8107 24.0598 0.0306813
68.2529 26.9803 0.0347235
66.6462 22.9742 0.0373623
64.5702 19.2507 0.0426772
63.5799 22.1619 0.0314162
72.4095 35.2253 2
71.7999 30.6792 2
69.7997 33.2792 2
68.8921 29.0609 2
64.0165 10.9835 2
63.8823 14.3388 2
63.3995 17.5015 2
67.506 24.9484 2
65.8726 27.7269 2
62.6165 20.4579 2
64.4464 23.9465 2
61.6107 23.1564 2
60.6793 11.1119 2
57.5924 11.5053 2
70.0224 35.3981 3.96875
69.4117 31.1648 3.96788
67.365 33.6276 3.97634
66.4586 29.6972 3.97612
65.2108 25.8023 3.9745
63.6206 28.3943 3.97514
62.3317 12.6609 3.96454
62.3532 24.8305 3.97391
62.1302 15.8376 3.95198
61.5207 18.8364 3.96136
60.7542 21.5655 3.9718
59.7887 24.0139 3.97383
59.224 12.8386 3.95569
55.8634 10.3026 3.97043
56.3567 13.2307 3.95524
69.7638 50.9899 0.0306574
62.2254 65.694 0
58.8857 65.4086 0.0291311
67.7764 55.1693 0.0322733
66.5198 52.1671 0.0369127
62.3277 62.4219 0.0345072
62.1307 59.3491 0.0480195
64.5252 55.9791 0.0409899
61.5506 56.5409 0.0373355
60.6645 63.9619 2
57.0217 66.7213 2
57.5446 63.6428 2
67.3864 50.1393 2
65.5721 54.1249 2
64.1998 51.2649 2
60.7279 60.8895 2
62.5219 54.9337 2
60.3786 58.0002 2
59.9082 55.5693 2
55.0644 67.9298 3.97952
59.2051 62.2919 3.96982
55.7793 64.8317 3.96553
56.2879 61.9857 3.97748
64.9816 49.3007 3.97483
63.378 53.1635 3.9705
61.8838 50.4517 3.97346
59.159 59.4146 3.95553
60.6084 54.0939 3.97247
58.8108 56.7634 3.95985
58.7005 54.9141 3.9707
48.0949 68.5652 3.97701
50.9429 69.929 3.98331
54.0858 71.1327 4
56.25 69.976 2
58.3339 68.6801 0
57.0537 8.34136 3.97405
60.3285 7.74928 4
58.9173 9.67185 2
62.2255 9.30602 2
70.5709 48.8138 0.029683
71.7791 44.3526 0.0278624
68.8338 45.9961 0.0317814
69.7625 41.7839 0.0309475
72.4023 39.8026 0.0263071
75 37.5 0
72.4846 37.5124 2
70.0105 39.6556 2
69.3749 43.8954 2
67.2965 41.4655 2
68.1618 48.0781 2
66.3763 45.3686 2
70.0977 37.5239 3.96895
67.5469 39.4992 3.97651
66.9111 43.4198 3.97638
65.0695 41.1655 3.97607
65.7209 47.3267 3.97563
64.1237 44.7488 3.97554
72.4103 35.2256 0.0261831
71.8007 30.6785 0.0276612
69.7984 33.2787 0.0313225
68.8896 29.0602 0.0331425
64.0165 10.9835 0
63.8798 14.331 0.0376501
63.3816 17.5053 0.0461693
67.5037 24.9473 0.0362682
65.8759 27.725 0.0241833
64.4475 23.9448 0.0274734
62.6098 20.458 0.0349066
61.6108 23.1539 0.0262415
60.6759 11.1053 0.032671
57.5991 11.5149 0.0400487
70.0237 35.3983 2
69.4134 31.1654 2
67.3618 33.6282 2
66.4549 29.6985 2
62.3352 12.6683 2
62.1396 15.8383 2
61.5248 18.8373 2
65.2081 25.8042 2
63.6198 28.3947 2
60.7536 21.5685 2
62.352 24.8318 2
59.7862 24.0156 2
59.2204 12.8304 2
56.3504 13.2275 2
55.864 10.3056 2
67.5884 35.568 3.97653
66.9632 31.6789 3.97629
65.2271 33.9792 3.97615
64.145 30.3039 3.97526
63.0192 26.5844 3.97472
61.5522 28.969 3.97486
60.7355 14.2814 3.95217
60.3687 25.5969 3.97401
60.349 17.2878 3.95928
59.751 20.0622 3.96743
59.0423 22.5641 3.97258
58.1999 24.6714 3.97369
54.0373 9.16859 3.97658
57.8046 14.4746 3.95319
54.7618 12.1389 3.96928
55.1937 14.8385 3.95384
67.3858 50.1409 0.0352537
57.018 66.7266 0.029497
60.6604 63.9708 0.0354469
57.5402 63.625 0.0327463
65.5719 54.1268 0.0385413
64.2014 51.2663 0.0269377
60.7443 60.8839 0.0487595
60.3792 58.0016 0.042036
62.5176 54.9333 0.0324724
59.9119 55.572 0.0306306
55.0691 67.9229 2
59.1974 62.3014 2
55.7838 64.8258 2
56.285 61.9917 2
64.9792 49.299 2
63.3781 53.1626 2
61.8829 50.451 2
59.1792 59.4199 2
60.6069 54.0917 2
58.8178 56.7637 2
58.7088 54.914 2
53.0362 68.9947 3.97967
53.9477 65.9659 3.96779
57.7845 60.7616 3.94888
54.6403 63.0709 3.96656
55.128 60.4837 3.97352
62.627 48.4873 3.97401
61.2226 52.3599 3.97286
59.5077 49.7336 3.9727
57.6792 58.0464 3.95674
58.7294 53.6632 3.97236
57.4769 55.4952 3.96288
50.0986 67.8414 3.97212
47.4466 66.5465 3.97319
46.0508 69.1456 3.97985
48.0996 68.5649 2
48.7973 70.7205 3.9863
50.9485 69.9257 2
51.8506 72.1454 4
54.0858 71.1327 2
56.25 69.9759 0
55.0998 7.14343 3.98664
58.3339 6.31992 4
57.0581 8.34621 2
60.3286 7.74926 2
58.9145 9.66473 0.032246
62.2254 9.30607 0
68.1625 48.0796 0.0333395
69.3751 43.8963 0.0310469
66.3804 45.3694 0.0239621
67.3001 41.466 0.0234361
70.0093 39.656 0.0309552
72.4859 37.513 0.0263927
70.1 37.5238 2
67.5431 39.4989 2
66.9085 43.4186 2
65.0695 41.1653 2
65.718 47.325 2
64.1234 44.7486 2
67.6497 37.5261 3.97646
65.3116 39.3503 3.97628
64.6744 42.951 3.97594
63.096 40.8683 3.97636
63.4077 46.582 3.97442
62.091 44.0863 3.97571
70.0224 35.3981 0.0312481
69.4117 31.1648 0.0321169
67.365 33.6276 0.0236612
66.4586 29.6972 0.0238848
62.3317 12.6609 0.0354616
62.1302 15.8376 0.0480212
61.5207 18.8364 0.0386445
65.2108 25.8023 0.0254988
63.6206 28.3943 0.0248608
62.3532 24.8305 0.0260891
60.7542 21.5655 0.0282025
59.7887 24.0139 0.0261689
59.224 12.8386 0.044309
56.3567 13.2307 0.0447572
55.8634 10.3026 0.0295687
67.585 35.5682 2
66.9602 31.6799 2
65.2263 33.9794 2
64.1452 30.304 2
60.729 14.2807 2
60.3409 17.2916 2
59.7485 20.0656 2
63.0182 26.5851 2
61.5524 28.969 2
59.0411 22.5672 2
60.368 25.5975 2
58.1953 24.6735 2
57.8004 14.4662 2
55.1803 14.8213 2
54.0411 9.16098 2
54.7526 12.134 2
65.4107 35.6954 3.9762
64.684 32.2326 3.97558
63.6829 34.3106 3.97613
61.8763 30.7858 3.9753
60.9509 27.294 3.9744
60.0019 29.3697 3.97536
59.1133 15.8269 3.95596
58.4927 26.1175 3.97459
58.6709 18.6147 3.96185
58.1194 21.1799 3.96852
57.5388 23.4644 3.97245
57.105 25.0539 3.97458
52.104 8.19192 3.96491
53.0441 11.0912 3.95748
56.4643 15.9572 3.95494
53.7387 13.8371 3.95279
54.1632 16.2332 3.9583
55.0644 67.9298 0.0204797
64.9816 49.3007 0.0251669
55.7793 64.8317 0.0344662
59.2051 62.2919 0.0301799
56.2879 61.9857 0.0225165
63.378 53.1635 0.0294969
61.8838 50.4517 0.0265381
59.159 59.4146 0.0444724
58.8108 56.7634 0.0401528
60.6084 54.0939 0.0275332
58.7005 54.9141 0.0293045
53.0421 68.9906 2
53.9517 65.9591 2
57.7877 60.7828 2
54.6338 63.0655 2
55.1251 60.488 2
62.6264 48.4866 2
61.2219 52.3585 2
59.5076 49.7327 2
57.6785 58.0466 2
58.7336 53.6615 2
57.4734 55.4912 2
52.0557 66.9686 3.97166
52.9211 64.1196 3.9679
56.4417 59.3057 3.95355
53.593 61.4273 3.96563
54.1105 59.1276 3.96374
60.1974 47.6456 3.97354
59.0155 51.8185 3.9725
57.0767 49.2582 3.97303
56.3364 56.7164 3.95866
56.3061 53.7419 3.96708
50.1028 67.8375 2
49.3146 65.8639 3.9712
47.4521 66.5373 2
46.8668 64.6577 3.97787
45.5494 67.0682 3.9782
43.9704 69.5779 3.98183
46.0547 69.1463 2
46.6047 71.365 3.98797
48.0949 68.5652 0.0229852
48.8026 70.7188 2
49.554 73.0099 4
50.9429 69.929 0.0166926
51.8506 72.1455 2
54.0858 71.1327 0
53.0624 6.081 3.97972
55.1037 7.14568 2
56.25 5.02411 4
58.3339 6.3199 2
57.0537 8.34136 0.0259535
60.3285 7.74928 0
65.7209 47.3267 0.0243703
66.9111 43.4198 0.0236164
64.1237 44.7488 0.0244603
65.0695 41.1655 0.0239318
67.5469 39.4992 0.0234885
70.0977 37.5239 0.0310474
67.6458 37.5261 2
65.3115 39.3503 2
64.6738 42.9506 2
63.0967 40.8684 2
63.4076 46.5813 2
62.0912 44.0865 2
65.4208 37.5068 3.97617
63.2444 39.2407 3.97638
62.6425 42.4577 3.97611
61.6292 40.628 3.97649
61.204 45.7365 3.97492
60.5843 43.5334 3.97631
67.5884 35.568 0.0234656
66.9632 31.6789 0.0237112
65.2271 33.9792 0.0238525
64.145 30.3039 0.0247404
60.7355 14.2814 0.0478301
60.349 17.2878 0.0407202
59.751 20.0622 0.0325657
63.0192 26.5844 0.0252762
61.5522 28.969 0.0251353
60.3687 25.5969 0.0259855
59.0423 22.5641 0.0274156
58.1999 24.6714 0.0263137
57.8046 14.4746 0.0468074
55.1937 14.8385 0.0461596
54.0373 9.16859 0.0234152
54.7618 12.1389 0.0307198
65.4102 35.6955 2
64.6836 32.2331 2
63.684 34.3104 2
61.8765 30.7854 2
59.1298 15.8252 2
58.6739 18.6167 2
58.1136 21.1844 2
60.951 27.2946 2
60.0025 29.37 2
57.5343 23.468 2
58.4903 26.1183 2
57.0997 25.0561 2
56.4469 15.9631 2
54.1601 16.2316 2
53.7236 13.8244 2
52.1032 8.19992 2
53.0415 11.0853 2
63.4583 35.6717 3.97621
62.2044 33.1481 3.97593
59.6984 30.8183 3.97532
58.652 28.2007 3.97476
57.5769 17.2301 3.95649
56.7797 26.1214 3.97449
57.1158 19.8144 3.96144
56.6124 22.2408 3.96868
56.3047 24.37 3.97329
50.1037 7.32065 3.97164
51.1918 10.2267 3.9657
52.1142 12.9263 3.96661
55.2004 17.2575 3.95535
52.8366 15.4841 3.96272
53.4666 17.2686 3.95474
53.0362 68.9947 0.0203294
53.9477 65.9659 0.0322109
62.627 48.4873 0.0259903
54.6403 63.0709 0.0334431
57.7845 60.7616 0.0511152
55.128 60.4837 0.026479
61.2226 52.3599 0.0271372
59.5077 49.7336 0.027296
57.6792 58.0464 0.0432555
57.4769 55.4952 0.0371152
58.7294 53.6632 0.0276439
52.0599 66.9717 2
52.9176 64.1088 2
56.44 59.3092 2
53.5864 61.4205 2
54.1093 59.1244 2
60.1973 47.645 2
59.0168 51.8173 2
57.077 49.2581 2
56.3313 56.7166 2
56.3052 53.739 2
51.1405 65.0542 3.96361
51.974 62.3765 3.96213
55.18 58.0181 3.95855
52.6643 59.8992 3.95655
53.4235 58.2423 3.96148
57.2057 46.5164 3.9743
56.7018 51.4012 3.97278
55.1854 49.1091 3.97501
54.9408 55.4734 3.95878
54.4763 52.9708 3.95946
50.0986 67.8414 0.0278798
49.3184 65.8639 2
48.5822 64.0314 3.97574
47.4466 66.5465 0.0268063
45.5507 67.0786 2
46.8709 64.6537 2
46.3447 62.9554 3.98799
45.1118 65.1525 3.98181
43.6258 67.4492 3.97971
41.859 69.8671 3.98213
43.9726 69.5802 2
44.3729 71.8593 3.9888
46.0508 69.1456 0.0201549
46.6089 71.364 2
47.2057 73.7222 4
48.7973 70.7205 0.0136995
49.554 73.0099 2
51.8506 72.1454 0
50.9539 5.13609 3.98494
53.0645 6.07985 2
54.0858 3.86728 4
55.0998 7.14343 0.0133642
56.25 5.02406 2
58.3339 6.31992 0
63.4077 46.582 0.0255845
64.6744 42.951 0.0240635
62.091 44.0863 0.0242903
63.096 40.8683 0.0236442
65.3116 39.3503 0.0237207
67.6497 37.5261 0.0235365
65.4202 37.5069 2
63.2456 39.2408 2
62.6434 42.4575 2
61.6296 40.628 2
61.2042 45.7361 2
60.584 43.5333 2
63.3096 37.4632 3.9764
61.3175 39.3155 3.97673
60.3107 41.8385 3.97687
59.2753 44.5559 3.97533
65.4107 35.6954 0.023805
64.684 32.2326 0.0244213
63.6829 34.3106 0.0238703
61.8763 30.7858 0.0247043
59.1133 15.8269 0.0440415
58.6709 18.6147 0.038151
58.1194 21.1799 0.0314838
60.9509 27.294 0.0255989
60.0019 29.3697 0.0246392
58.4927 26.1175 0.0254144
57.5388 23.4644 0.0275451
57.105 25.0539 0.0254214
56.4643 15.9572 0.0450642
54.1632 16.2332 0.0417044
53.7387 13.8371 0.0472055
52.104 8.19192 0.0350882
53.0441 11.0912 0.042523
63.4596 35.6717 2
62.2057 33.1484 2
59.6985 30.8182 2
57.5814 17.2315 2
57.112 19.8167 2
56.6086 22.2451 2
58.6519 28.2002 2
56.3086 24.3713 2
56.7784 26.1206 2
50.1109 7.29444 2
55.2005 17.2538 2
53.4711 17.2584 2
52.8242 15.4793 2
52.1226 12.9318 2
51.1955 10.2279 2
61.3582 35.4184 3.97648
59.2909 32.9 3.97593
57.5168 30.3573 3.97485
56.2102 27.763 3.97465
56.1531 18.4747 3.95844
55.2645 25.5625 3.97329
55.6459 20.9276 3.96172
55.2369 23.3308 3.96879
48.0567 6.53569 3.97858
49.2968 9.39782 3.97196
50.3692 12.165 3.96634
51.2621 14.6722 3.97753
54.0114 18.2569 3.95812
52.0896 17.326 3.95658
52.0557 66.9686 0.0283434
52.9211 64.1196 0.0320956
60.1974 47.6456 0.026457
53.593 61.4273 0.0343678
56.4417 59.3057 0.0464457
54.1105 59.1276 0.0362571
59.0155 51.8185 0.0274977
57.0767 49.2582 0.0269733
56.3364 56.7164 0.041342
56.3061 53.7419 0.0329199
51.1437 65.0581 2
51.9806 62.4111 2
55.1803 58.016 2
52.6519 59.8937 2
53.4281 58.2436 2
57.2047 46.5154 2
56.7016 51.3989 2
55.185 49.1081 2
54.9372 55.4709 2
54.4728 52.9687 2
50.2986 63.2877 3.97044
51.1086 60.7324 3.96968
53.8625 56.9996 3.96642
51.9904 58.3619 3.96408
55.346 43.88 3.97497
54.2522 47.4391 3.97471
53.9506 50.9097 3.96582
53.3507 54.1796 3.96243
49.3146 65.8639 0.0287957
48.5808 64.0537 2
47.9051 62.379 3.99043
45.5494 67.0682 0.0218029
46.8668 64.6577 0.022125
43.6278 67.4508 2
46.3432 62.9556 2
45.1185 65.1402 2
45.9355 61.4672 3.98985
44.7398 63.3715 3.97749
43.3459 65.474 3.97996
41.6604 67.669 3.97824
39.7017 70.014 3.98097
41.8603 69.8689 2
42.1085 72.2038 3.98994
43.9704 69.5779 0.0181727
44.3761 71.8593 2
44.8159 74.2794 4
46.6047 71.365 0.0120275
47.2057 73.7222 2
49.554 73.0099 0
48.7845 4.32563 3.98567
50.9537 5.13604 2
51.8506 2.85458 4
53.0624 6.081 0.0202835
54.0858 3.86728 2
56.25 5.02411 0
61.204 45.7365 0.0250847
62.6425 42.4577 0.0238867
60.5843 43.5334 0.0236924
61.6292 40.628 0.0235103
63.2444 39.2407 0.0236226
65.4208 37.5068 0.0238264
63.3104 37.4633 2
61.3179 39.3157 2
60.3104 41.8384 2
59.2758 44.5554 2
61.1334 37.4518 3.97689
59.1945 39.7795 3.9765
57.8469 42.7362 3.97601
63.4583 35.6717 0.0237886
62.2044 33.1481 0.0240721
59.6984 30.8183 0.024683
57.5769 17.2301 0.043514
57.1158 19.8144 0.0385572
56.6124 22.2408 0.0313205
58.652 28.2007 0.0252402
56.7797 26.1214 0.025505
56.3047 24.37 0.0267094
55.2004 17.2575 0.0446514
53.4666 17.2686 0.0452629
52.8366 15.4841 0.0372814
50.1037 7.32065 0.02836
52.1142 12.9263 0.0333903
51.1918 10.2267 0.0342971
61.3589 35.4186 2
59.2905 32.9005 2
57.5166 30.358 2
56.1541 18.4748 2
55.6619 20.9234 2
55.2514 23.3326 2
56.21 27.7632 2
55.2672 25.5665 2
48.0517 6.54673 2
49.2992 9.3992 2
54.0244 18.2548 2
52.0931 17.3194 2
51.2556 14.6701 2
50.3739 12.1605 2
58.802 35.2029 3.97627
56.7371 32.4919 3.975
55.2871 29.7048 3.97493
54.2596 27.0881 3.97368
54.7992 19.5577 3.96091
53.9345 24.5567 3.97094
54.1974 22.0262 3.96591
45.9611 5.89722 3.97882
43.3689 7.49758 3.97867
47.3362 8.66597 3.97061
48.5547 11.4097 3.96645
49.6036 13.9408 3.9792
50.437 16.3597 3.95927
52.699 19.0433 3.95556
50.994 18.4375 3.9553
51.1405 65.0542 0.0363923
51.974 62.3765 0.0378731
57.2057 46.5164 0.0256991
52.6643 59.8992 0.043455
55.18 58.0181 0.0414488
53.4235 58.2423 0.0385205
56.7018 51.4012 0.0272169
55.1854 49.1091 0.024992
54.9408 55.4734 0.0412225
54.4763 52.9708 0.0405361
50.2934 63.2715 2
51.106 60.7372 2
53.8569 56.9982 2
51.9812 58.3619 2
55.3488 43.8792 2
54.2527 47.4389 2
53.9464 50.9073 2
53.3392 54.1784 2
49.4976 61.6395 3.97605
54.0021 41.5283 3.9747
50.3362 59.0983 3.96961
51.6802 56.1671 3.96249
52.623 45.0914 3.97247
52.0124 48.7846 3.96989
51.7822 52.4157 3.95807
48.5822 64.0314 0.0242616
47.8984 62.3859 2
47.2478 60.8941 3.99184
43.6258 67.4492 0.0202936
45.1118 65.1525 0.018194
46.3447 62.9554 0.0120093
41.6633 67.6701 2
43.356 65.4679 2
45.9355 61.4755 2
44.7407 63.3652 2
45.6787 60.5101 3.99887
44.4414 61.7336 3.98779
43.1285 63.6581 3.98138
41.5414 65.6094 3.97226
39.6315 67.7469 3.97603
37.5265 70.0385 3.9814
39.7026 70.014 2
39.8164 72.4012 3.99014
41.859 69.8671 0.017874
42.1104 72.2045 2
42.3947 74.6792 4
44.3729 71.8593 0.0112027
44.8159 74.2794 2
47.2057 73.7222 0
43.8498 5.37049 3.97828
46.569 3.65117 3.987
48.7836 4.3289 2
49.554 1.99015 4
50.9539 5.13609 0.0150606
51.8506 2.85453 2
54.0858 3.86728 0
59.2753 44.5559 0.0246653
60.3107 41.8385 0.0231317
61.3175 39.3155 0.0232653
63.3096 37.4632 0.0235976
61.1336 37.4518 2
59.1931 39.7798 2
57.8446 42.7349 2
58.6448 37.572 3.97686
56.7163 40.5255 3.97759
53.3699 39.5894 3.97682
61.3582 35.4184 0.0235191
59.2909 32.9 0.0240721
57.5168 30.3573 0.0251532
56.1531 18.4747 0.0415614
55.6459 20.9276 0.0382824
55.2369 23.3308 0.0312085
56.2102 27.763 0.0253508
55.2645 25.5625 0.0267105
54.0114 18.2569 0.0418764
52.0896 17.326 0.0434156
51.2621 14.6722 0.022471
48.0567 6.53569 0.0214163
49.2968 9.39782 0.0280366
50.3692 12.165 0.0336593
58.8003 35.2023 2
45.9613 5.89526 2
43.3692 7.5 2
56.7369 32.4926 2
55.2889 29.7033 2
54.7881 19.563 2
54.2227 22.0257 2
53.9331 24.5653 2
54.2594 27.0874 2
47.3389 8.65664 2
48.557 11.4036 2
52.7045 19.0104 2
51.0047 18.434 2
50.4496 16.3651 2
49.6005 13.9404 2
56.0237 34.8884 3.97729
54.2629 31.8435 3.97413
53.1271 28.8701 3.97539
52.6293 26.0402 3.97257
53.3802 20.5565 3.96712
52.72 23.2349 3.96997
41.3961 7.09491 3.97657
45.3475 8.01442 3.98342
42.8554 9.45057 3.97287
46.6369 10.7365 3.97324
47.6628 13.2402 3.97511
48.7518 15.5942 3.97411
49.7204 18.0123 3.9566
51.2134 19.7561 3.97683
50.2986 63.2877 0.0295553
51.1086 60.7324 0.030325
55.346 43.88 0.0250321
54.2522 47.4391 0.0252857
51.9904 58.3619 0.0359172
53.8625 56.9996 0.0335805
53.9506 50.9097 0.0341789
53.3507 54.1796 0.0375709
49.5007 61.6377 2
53.9926 41.5206 2
50.333 59.1051 2
51.6817 56.1709 2
52.6144 45.086 2
52.0078 48.782 2
51.7847 52.4158 2
48.6922 60.0796 3.99544
50.5321 42.3033 3.9822
49.4365 57.3844 3.96024
49.9239 54.0485 3.95957
50.2863 46.6681 3.977
50.121 50.4481 3.95441
46.3232 43.2132 3.95507
47.9051 62.379 0.00957123
47.2503 60.8912 2
46.4894 59.6797 3.99352
41.6604 67.669 0.0217591
43.3459 65.474 0.0200443
44.7398 63.3715 0.0225083
45.9355 61.4672 0.0101504
39.6345 67.7472 2
41.5479 65.6062 2
45.6839 60.5162 2
43.127 63.659 2
44.4411 61.7308 2
44.5625 60.1651 3.99379
42.9169 61.9931 3.97992
41.5852 63.7751 3.98322
39.6437 65.5821 3.97508
37.5631 67.7297 3.97544
31.7049 65.0903 3.97461
33.3953 67.4679 3.97857
35.3349 69.9505 3.98184
37.5264 70.0406 2
37.5097 72.4551 3.99071
39.7017 70.014 0.0190294
39.8177 72.4011 2
39.9526 74.9197 4
42.1085 72.2038 0.0100616
42.3947 74.6792 2
44.8159 74.2794 0
41.7348 4.9778 3.98297
43.8497 5.37135 2
44.3253 3.11358 3.98882
46.5703 3.65055 2
47.2057 1.27793 4
48.7845 4.32563 0.0143348
49.554 1.99013 2
51.8506 2.85458 0
57.8469 42.7362 0.02399
59.1945 39.7795 0.0234964
61.1334 37.4518 0.0231107
58.6455 37.5724 2
56.7161 40.5273 2
53.364 39.5951 2
55.3422 37.8823 3.97698
47.5403 41.0497 3.96563
51.0364 39.2416 3.97952
39.4388 6.81755 3.97622
58.802 35.2029 0.0237305
56.7371 32.4919 0.0249981
55.2871 29.7048 0.0250748
54.7992 19.5577 0.0390884
54.1974 22.0262 0.0340926
53.9345 24.5567 0.0290585
54.2596 27.0881 0.0263215
52.699 19.0433 0.0444391
50.994 18.4375 0.0447007
50.437 16.3597 0.0407256
45.9611 5.89722 0.021177
49.6036 13.9408 0.0207955
47.3362 8.66597 0.0293917
48.5547 11.4097 0.0335538
43.3689 7.49758 0.0213346
56.0206 34.8897 2
41.3966 7.09704 2
45.3485 8.01329 2
42.8538 9.4501 2
54.2572 31.8428 2
53.1214 28.8723 2
53.3793 20.5637 2
52.704 23.2496 2
52.6331 26.036 2
46.6371 10.728 2
47.6645 13.2261 2
51.2293 19.7536 2
49.7225 17.9828 2
48.7651 15.616 2
53.1402 34.1618 3.97567
51.8747 30.9196 3.9748
51.2609 27.7563 3.97507
51.1108 24.6697 3.97248
51.7581 21.5441 3.97146
41.005 9.06946 3.97644
44.7094 10.0492 3.97871
42.4452 10.9462 4.00189
45.9383 12.8201 3.9744
47.5488 14.7652 3.97767
47.8619 17.1868 3.97026
49.469 20.1494 3.987
49.4976 61.6395 0.0239476
50.3362 59.0983 0.0303873
54.0021 41.5283 0.0252974
52.623 45.0914 0.0275349
52.0124 48.7846 0.0301104
51.6802 56.1671 0.0375149
51.7822 52.4157 0.0419304
48.6887 60.0824 2
50.5552 42.3306 2
49.4339 57.3791 2
49.9227 54.0503 2
50.2867 46.6673 2
50.124 50.4478 2
46.3317 43.2461 2
47.7688 58.5322 3.99141
48.3152 44.8092 3.98362
48.1299 55.6277 3.94766
48.3244 52.1715 3.97238
48.4206 48.4938 3.97562
43.9544 39.6414 3.79876
44.5432 42.1721 3.84777
44.9439 45.1116 3.96619
41.9057 40.9372 3.54157
41.0457 41.3424 3.34569
47.2478 60.8941 0.00816032
46.4959 59.68 2
45.3283 58.6439 3.99349
39.6315 67.7469 0.0239666
41.5414 65.6094 0.0277386
43.1285 63.6581 0.0186225
44.4414 61.7336 0.0122128
45.6787 60.5101 0.00113206
41.5888 63.7697 2
37.5654 67.7323 2
39.6484 65.5848 2
44.5591 60.1817 2
42.9165 61.9892 2
41.7276 62.4228 3.98644
42.4348 59.8477 3.98991
39.8832 63.5153 3.98003
37.6407 65.4832 3.97658
35.4641 67.6401 3.97477
33.5797 65.3087 3.97316
31.9747 63.2459 3.99454
29.8998 64.6805 3.98168
31.6966 65.0989 2
31.3839 67.1812 3.97897
33.3966 67.4729 2
33.1591 69.7434 3.98203
35.3344 69.9517 2
35.1969 72.3706 3.9912
37.5265 70.0385 0.018597
37.5103 72.4559 2
37.5 75 4
39.8164 72.4012 0.00985911
39.9526 74.9197 2
42.3947 74.6792 0
39.6234 4.72367 3.98478
41.7347 4.97867 2
42.0618 2.72062 3.98938
43.8498 5.37049 0.0217156
44.3253 3.11384 2
44.8158 0.721173 4
46.569 3.65117 0.0130006
47.2057 1.27779 2
49.554 1.99015 0
56.7163 40.5255 0.0224057
58.6448 37.572 0.0231408
53.3699 39.5894 0.0231783
47.582 41.0722 2
55.3406 37.8802 2
51.0561 39.2222 2
51.9854 36.6329 3.97697
45.4526 40.1681 3.87469
48.3361 38.4431 3.96125
37.5133 6.68722 3.98082
39.44 6.81628 2
39.2073 8.72045 3.98636
35.9428 8.51737 3.97499
56.0237 34.8884 0.0227098
54.2629 31.8435 0.0258742
53.1271 28.8701 0.0246136
53.3802 20.5565 0.0328807
52.72 23.2349 0.0300279
52.6293 26.0402 0.0274264
51.2134 19.7561 0.0231701
49.7204 18.0123 0.0433981
48.7518 15.5942 0.0258913
45.3475 8.01442 0.016582
47.6628 13.2402 0.0248853
46.6369 10.7365 0.0267622
41.3961 7.09491 0.0234333
42.8554 9.45057 0.0271297
53.1423 34.1672 2
41.0025 9.07272 2
44.7098 10.042 2
42.4451 10.9476 2
51.8782 30.917 2
51.2624 27.7591 2
51.7435 21.5504 2
51.0973 24.678 2
45.9371 12.809 2
47.5441 14.7439 2
49.4977 20.1671 2
47.8628 17.1755 2
50.4904 33.1779 3.97436
49.6729 29.7494 3.97679
49.5592 26.2916 3.9715
49.2791 22.7191 3.97418
40.5562 11.6356 3.99041
43.8066 11.9772 3.97103
45.6667 15.6191 4.00775
47.1975 19.7069 3.97624
44.147 37.5105 3.81098
48.6922 60.0796 0.00456163
49.4365 57.3844 0.0397596
50.5321 42.3033 0.0178025
50.2863 46.6681 0.0229993
50.121 50.4481 0.0455943
49.9239 54.0485 0.0404348
46.3232 43.2132 0.0449332
47.7593 58.5361 2
48.3284 44.8186 2
48.1241 55.6281 2
48.3232 52.1764 2
48.4252 48.495 2
44.0698 39.6629 2
44.5909 42.2256 2
44.9494 45.1372 2
41.9913 41.0059 2
41.0967 41.3542 2
46.5516 57.111 3.99348
42.4569 39.4213 3.54208
41.4127 40.3525 3.32849
46.6362 46.7205 3.99788
46.6018 53.8821 3.95283
46.6355 50.2886 3.97292
43.6505 46.7054 3.97477
43.2424 41.5937 3.80582
43.5171 43.9193 3.8365
41.3976 42.0493 3.5558
40.251 41.6087 3.26073
46.4894 59.6797 0.00647939
45.3224 58.6472 2
43.7453 57.4974 3.99625
37.5631 67.7297 0.0245614
39.6437 65.5821 0.0249233
41.5852 63.7751 0.0167781
42.9169 61.9931 0.0200759
44.5625 60.1651 0.00620961
35.4657 67.6413 2
41.7264 62.4184 2
39.8847 63.5194 2
37.6432 65.4871 2
42.4327 59.8559 2
40.6012 61.5569 3.98937
40.4022 58.0308 3.99348
37.8324 63.1679 3.97482
35.5739 65.3996 3.97347
33.5742 65.3012 2
31.9731 63.2293 2
33.6378 63.2997 3.99173
30.4104 62.7766 3.97932
32.1408 61.9454 3.98438
26.9474 61.3428 3.98976
28.0936 64.0695 3.98814
29.8953 64.6743 2
29.4166 66.7328 3.98008
31.7049 65.0903 0.0253932
31.3849 67.1839 2
31.0176 69.4093 3.9826
33.3953 67.4679 0.021432
33.1579 69.7463 2
32.8955 72.1446 3.99069
35.3349 69.9505 0.0181624
35.1964 72.3713 2
35.0474 74.9194 4
37.5097 72.4551 0.00929411
37.5 75 2
39.9526 74.9197 0
35.6188 6.73989 3.97728
37.5236 4.62316 3.98489
39.623 4.72239 2
39.7887 2.47665 3.99103
41.7348 4.9778 0.017032
42.0618 2.7209 2
42.3946 0.32156 4
44.3253 3.11358 0.0111834
44.8159 0.72056 2
47.2057 1.27793 0
47.5403 41.0497 0.0343714
55.3422 37.8823 0.0230181
51.0364 39.2416 0.0204792
45.5368 40.1582 2
48.4019 38.4565 2
51.9753 36.6313 2
49.2127 35.6685 3.97859
45.9509 37.6774 3.82333
43.9912 35.3504 3.80166
41.9572 34.0295 3.54113
41.0931 33.6124 3.35
37.4582 8.55152 3.97788
37.5146 6.68744 2
39.4388 6.81755 0.0237783
39.2068 8.72502 2
38.971 10.161 3.99401
35.8994 9.8021 3.9815
34.1534 8.84954 3.97561
35.9411 8.51659 2
53.1402 34.1618 0.0243317
51.8747 30.9196 0.0251992
51.2609 27.7563 0.02493
51.7581 21.5441 0.0285413
51.1108 24.6697 0.0275205
49.469 20.1494 0.0129951
47.8619 17.1868 0.0297422
47.5488 14.7652 0.0223307
44.7094 10.0492 0.0212881
45.9383 12.8201 0.0256012
41.005 9.06946 0.0235565
42.4452 10.9462 -0.00189067
50.5175 33.1611 2
40.5593 11.6502 2
43.8057 11.9497 2
49.68 29.7454 2
49.5578 26.3104 2
49.2741 22.7101 2
45.6516 15.5605 2
47.2217 19.7607 2
48.1041 31.7342 3.97942
47.876 28.0814 3.97585
48.4275 24.8912 3.96132
46.7046 22.5433 3.98733
38.3022 12.7855 3.97978
42.0395 14.4368 3.99911
44.5581 18.7181 3.98687
42.6401 37.4924 3.52944
44.2789 37.4996 2
47.7688 58.5322 0.00858722
48.1299 55.6277 0.0523355
48.3152 44.8092 0.016376
48.4206 48.4938 0.0243845
48.3244 52.1715 0.0276213
43.9544 39.6414 0.201236
44.5432 42.1721 0.152226
44.9439 45.1116 0.0338136
41.9057 40.9372 0.458429
41.0457 41.3424 0.65431
46.5462 57.114 2
42.5444 39.4304 2
41.4504 40.3511 2
46.6415 46.725 2
46.5927 53.8844 2
46.6341 50.3014 2
43.6923 46.728 2
43.314 41.646 2
43.5873 43.9605 2
41.4623 42.1471 2
40.3535 41.6273 2
45.0429 55.6717 4.00438
41.6905 38.9682 3.33973
40.0704 40.3419 3.33437
45.0069 48.366 4.00552
44.8109 52.0945 3.99657
42.5028 47.6813 3.98522
42.3397 45.3455 3.84861
42.3892 43.2004 3.75966
40.6086 42.8874 3.52783
39.0718 41.9253 3.35195
45.3283 58.6439 0.00650533
43.745 57.5091 2
41.9781 56.0297 3.99614
35.4641 67.6401 0.0252269
37.6407 65.4832 0.0234177
39.8832 63.5153 0.0199725
41.7276 62.4228 0.0135558
42.4348 59.8477 0.0100939
35.5756 65.4081 2
40.6017 61.5453 2
37.8345 63.1735 2
40.402 58.0441 2
38.8966 56.1856 3.99612
38.2335 60.2365 3.98976
35.6086 63.1628 3.97536
33.5797 65.3087 0.0268384
31.9747 63.2459 0.00545755
33.6361 63.303 2
30.4069 62.7645 2
32.1527 61.9309 2
28.7372 62.0868 3.98799
33.3618 61.4691 3.99122
31.1473 61.1284 4.00094
27.7113 59.444 3.97384
23.9743 58.8598 3.9717
25.1386 60.661 3.98519
26.9406 61.3522 2
26.2807 63.3822 3.97978
28.0941 64.0776 2
27.4811 66.155 3.97622
29.8998 64.6805 0.018322
29.4167 66.7462 2
28.9131 68.9293 3.97976
31.3839 67.1812 0.0210317
31.0155 69.4108 2
30.6192 71.7767 3.99015
33.1591 69.7434 0.0179673
32.8939 72.1457 2
32.6054 74.6784 4
35.1969 72.3706 0.00880407
35.0474 74.9197 2
37.5 75 0
33.7224 6.99811 3.97526
35.4361 4.69326 3.98461
35.6199 6.73943 2
37.515 2.38919 3.99104
37.5225 4.62252 2
39.6234 4.72367 0.0152157
39.7882 2.47623 2
39.9526 0.0806499 4
42.0618 2.72062 0.010618
42.3947 0.320817 2
44.8158 0.721173 0
42.503 35.5512 3.54611
41.4548 34.5937 3.31323
45.4526 40.1681 0.125313
48.3361 38.4431 0.03875
51.9854 36.6329 0.0230301
46.0087 37.6994 2
49.2664 35.679 2
44.1047 35.3242 2
42.0388 33.951 2
41.1155 33.5997 2
46.3567 34.5999 3.91514
43.2916 33.3678 3.79729
41.4311 32.912 3.55792
40.265 33.3536 3.25801
37.3098 10.6564 3.98085
37.4583 8.55096 2
37.5133 6.68722 0.0191836
39.2073 8.72045 0.0136386
38.974 10.1642 2
34.759 10.4164 3.97454
35.9051 9.8017 2
32.3837 9.40207 3.97115
34.1518 8.84986 2
35.9428 8.51737 0.0250121
50.4904 33.1779 0.0256433
49.6729 29.7494 0.0232135
49.5592 26.2916 0.0285046
49.2791 22.7191 0.0258225
47.1975 19.7069 0.0237583
45.6667 15.6191 -0.00774733
43.8066 11.9772 0.0289701
40.5562 11.6356 0.00959077
48.1229 31.7092 2
38.2979 12.7866 2
42.0456 14.4241 2
47.8649 28.0801 2
48.4268 24.9062 2
46.6972 22.5375 2
44.5861 18.7886 2
46.1446 30.1311 3.97641
46.1312 25.5978 3.97785
43.9525 21.8227 3.98435
36.5977 13.0038 3.98078
38.6611 14.9579 3.9823
41.6297 18.0863 3.9903
41.7976 37.4574 3.33565
42.7374 37.4928 2
44.147 37.5105 0.189022
46.5516 57.111 0.00652355
46.6018 53.8821 0.0471708
46.6362 46.7205 0.00211828
46.6355 50.2886 0.0270801
42.4569 39.4213 0.457915
43.2424 41.5937 0.19418
43.5171 43.9193 0.163498
43.6505 46.7054 0.0252258
41.3976 42.0493 0.444204
41.4127 40.3525 0.671512
40.251 41.6087 0.739274
45.0383 55.6716 2
41.7319 38.9731 2
40.1759 40.3261 2
45.0042 48.3933 2
44.7997 52.0939 2
42.5517 47.7071 2
42.4063 45.4361 2
42.4517 43.235 2
40.6784 42.9871 2
39.0073 41.9791 2
43.3699 54.061 4.00305
40.0629 38.9041 3.37336
38.9941 40.4481 3.3483
42.8591 49.8018 4.00487
41.2415 46.8138 3.90776
41.14 44.3895 3.76152
39.3713 43.5701 3.54698
37.5079 42.0995 3.43074
43.7453 57.4974 0.00375491
41.9713 56.0186 2
40.2887 54.5779 3.99707
35.5739 65.3996 0.026533
37.8324 63.1679 0.0251765
40.6012 61.5569 0.0106311
40.4022 58.0308 0.00651857
35.6098 63.169 2
38.2347 60.219 2
38.8974 56.1734 2
37.963 54.8692 3.99614
36.9279 57.4446 3.99315
35.3644 60.8371 3.98422
33.6378 63.2997 0.00827287
30.4104 62.7766 0.0206849
32.1408 61.9454 0.0156212
33.3788 61.4642 2
28.7278 62.0998 2
31.1411 61.1254 2
29.5295 60.2625 3.98638
32.3983 59.5931 3.99497
28.2054 58.1847 4.0082
27.7119 59.4572 2
25.572 58.3849 3.96851
22.9997 57.9973 3.96253
23.5203 60.1395 3.96877
23.974 58.8593 2
25.1347 60.6596 2
24.5015 62.6439 3.96468
26.9474 61.3428 0.0102354
26.2809 63.3987 2
25.5753 65.4301 3.9742
28.0936 64.0695 0.0118611
27.4761 66.1391 2
26.8459 68.3214 3.98141
29.4166 66.7328 0.0199198
28.9085 68.9328 2
28.3756 71.2605 3.98702
31.0176 69.4093 0.0173951
30.6164 71.7763 2
30.1842 74.2788 4
32.8955 72.1446 0.00931322
32.6053 74.6792 2
35.0474 74.9194 0
31.7881 7.44209 3.97255
33.3491 4.93423 3.98214
33.7234 6.9973 2
35.2458 2.46527 3.99077
35.4342 4.69327 2
35.6188 6.73989 0.022724
37.5 0 4
37.5137 2.38911 2
37.5236 4.62316 0.0151091
39.7887 2.47665 0.00896842
39.9526 0.0802889 2
42.3946 0.32156 0
41.7005 35.9504 3.27883
42.6081 35.5425 2
40.1264 34.6012 3.36174
41.49 34.5871 2
45.9509 37.6774 0.176669
49.2127 35.6685 0.0214127
43.9912 35.3504 0.198344
41.9572 34.0295 0.458872
41.0931 33.6124 0.650005
46.4093 34.5911 2
43.353 33.3206 2
41.484 32.8212 2
40.3305 33.3402 2
44.5834 32.1063 3.869
42.4133 31.7631 3.74829
40.6401 32.0735 3.53515
39.0604 33.0404 3.35482
35.7024 11.8237 3.97245
37.3171 10.6536 2
37.4582 8.55152 0.0221216
38.971 10.161 0.00598636
33.11 11.2706 3.96981
34.7637 10.4113 2
35.8994 9.8021 0.0185036
30.4943 10.067 3.97041
32.3818 9.40709 2
34.1534 8.84954 0.0243884
48.1041 31.7342 0.020583
47.876 28.0814 0.0241457
48.4275 24.8912 0.0386769
46.7046 22.5433 0.0126725
44.5581 18.7181 0.0131309
42.0395 14.4368 0.000890035
38.3022 12.7855 0.0202158
36.5912 13.0035 2
46.1186 30.0773 2
38.6656 14.9329 2
41.595 18.0474 2
46.1285 25.587 2
43.9505 21.8204 2
44.2923 28.3159 3.98516
43.1351 24.5027 4.00513
41.0816 21.1418 3.99578
35.7912 14.8383 3.9906
38.6131 17.8416 3.99293
40.115 37.4054 3.40687
41.8515 37.4678 2
42.6401 37.4924 0.470562
45.0429 55.6717 -0.00437895
44.8109 52.0945 0.00343178
45.0069 48.366 -0.00552193
41.6905 38.9682 0.660275
42.3892 43.2004 0.240342
42.3397 45.3455 0.151386
42.5028 47.6813 0.0147822
40.6086 42.8874 0.47217
40.0704 40.3419 0.665629
39.0718 41.9253 0.648048
43.3662 54.054 2
40.1333 38.9079 2
38.9377 40.4492 2
42.8365 49.8232 2
41.2453 46.8414 2
41.1636 44.4466 2
37.4901 42.1165 2
39.3839 43.6726 2
41.5259 52.517 4.0061
39.0013 38.9621 3.32948
37.5005 40.4783 3.44062
35.9189 41.9483 3.35274
40.5342 48.9844 3.98615
39.5062 45.1042 3.73739
37.4941 43.8956 3.60003
41.9781 56.0297 0.00386408
40.2828 54.5783 2
38.6518 53.3283 3.99917
35.6086 63.1628 0.0246438
38.2335 60.2365 0.010243
38.8966 56.1856 0.00388092
35.377 60.8251 2
36.9333 57.4568 2
37.9506 54.8646 2
36.3257 54.9979 3.99579
34.5072 58.3604 3.99517
33.3618 61.4691 0.00877929
28.7372 62.0868 0.0120117
31.1473 61.1284 -0.000937364
32.3991 59.5785 2
29.5287 60.2712 2
30.4379 57.5146 3.98271
28.1974 58.1674 2
27.2429 56.6088 3.96153
27.7113 59.444 0.0261649
25.5725 58.3824 2
24.2 56.5323 3.95304
21.7194 57.1116 3.96009
22.145 59.4116 3.9672
22.9946 57.9996 2
22.8214 61.845 3.96919
23.5192 60.14 2
23.9743 58.8598 0.0282993
25.1386 60.661 0.0148065
24.5001 62.6582 2
23.7182 64.6372 3.96251
26.2807 63.3822 0.020224
25.5694 65.4215 2
24.8207 67.5831 3.96998
27.4811 66.155 0.0237761
26.8405 68.3239 2
26.1714 70.6029 3.98691
28.9131 68.9293 0.0202397
28.3713 71.261 2
27.7943 73.7221 4
30.6192 71.7767 0.00984529
30.1841 74.2794 2
32.6054 74.6784 0
29.8118 8.02337 3.96918
31.2546 5.34293 3.98029
31.7885 7.43844 2
32.9822 2.70377 3.9897
33.3463 4.9339 2
33.7224 6.99811 0.0247391
35.0474 0.080333 4
35.244 2.46545 2
35.4361 4.69326 0.0153874
37.5 0 2
37.515 2.38919 0.00896445
39.9526 0.0806499 0
40.2402 35.9796 3.42625
41.7615 35.9463 2
42.503 35.5512 0.453888
28.5589 10.7558 3.96942
38.9663 34.5388 3.3245
40.1372 34.5899 2
41.4548 34.5937 0.686766
46.3567 34.5999 0.0848643
43.2916 33.3678 0.202714
41.4311 32.912 0.44208
40.265 33.3536 0.741989
44.6047 32.0705 2
42.4848 31.7186 2
40.7066 31.9759 2
39.0128 32.9883 2
43.1498 30.4359 3.85056
41.1577 30.5414 3.76371
39.3642 31.3903 3.5507
37.4925 32.8904 3.42743
34.1139 12.9973 3.98318
35.7055 11.8153 2
37.3098 10.6564 0.0191518
31.2062 12.0578 3.97117
33.1138 11.2605 2
34.759 10.4164 0.0254622
30.4895 10.0632 2
32.3837 9.40207 0.0288465
46.1446 30.1311 0.0235875
46.1312 25.5978 0.022151
36.5977 13.0038 0.0192213
43.9525 21.8227 0.0156471
41.6297 18.0863 0.00969874
38.6611 14.9579 0.017699
35.7732 14.8618 2
44.2852 28.3292 2
38.6155 17.8462 2
41.1113 21.1306 2
43.1239 24.4851 2
33.6568 15.9829 3.99257
42.2699 27.0833 3.96863
40.6767 23.9241 4.00387
38.3444 20.6804 3.99678
35.8409 17.7508 3.99153
38.9906 37.4846 3.29367
40.1581 37.4141 2
41.7976 37.4574 0.664346
43.3699 54.061 -0.00305149
42.8591 49.8018 -0.00486909
40.0629 38.9041 0.626641
41.14 44.3895 0.238483
41.2415 46.8138 0.0922385
39.3713 43.5701 0.453015
38.9941 40.4481 0.651704
37.5079 42.0995 0.569262
41.5112 52.508 2
38.9593 38.9616 2
37.4763 40.4883 2
40.5229 48.9901 2
35.9733 41.9963 2
39.5423 45.184 2
37.4865 43.9845 2
39.6415 51.2392 3.99814
37.4891 38.9593 3.39948
36.0636 40.4719 3.33474
34.7584 41.6374 3.25379
35.6249 43.5911 3.54579
38.5455 47.799 3.91455
37.4705 45.3935 3.76927
40.2887 54.5779 0.00292723
38.6386 53.3403 2
36.7851 52.6651 3.99981
35.3644 60.8371 0.0157759
36.9279 57.4446 0.00685042
37.963 54.8692 0.00386456
34.5057 58.3668 2
36.3269 54.9973 2
33.4601 55.1747 4.00569
32.3983 59.5931 0.00502527
29.5295 60.2625 0.0136222
30.4391 57.5119 2
29.1039 55.1268 3.98436
28.2054 58.1847 -0.0081996
27.2456 56.6038 2
25.8037 54.8478 3.95272
22.3962 54.9985 3.95893
25.572 58.3849 0.031494
24.1968 56.5328 2
20.6094 56.7453 3.96147
20.8575 58.5513 3.95641
21.7179 57.1148 2
21.2663 60.9738 3.96427
22.1411 59.4173 2
22.9997 57.9973 0.0374691
21.9441 63.7198 3.96635
22.8183 61.8499 2
23.5203 60.1395 0.0312291
24.5015 62.6439 0.0353169
23.711 64.6366 2
22.8518 66.7084 3.96701
25.5753 65.4301 0.0257953
24.8156 67.5767 2
24.0152 69.8045 3.98525
26.8459 68.3214 0.0185924
26.165 70.6016 2
25.446 73.0099 4
28.3756 71.2605 0.0129785
27.7943 73.7222 2
30.1842 74.2788 0
27.8238 8.70307 3.97044
29.1566 5.88933 3.97816
29.8117 8.02295 2
30.7282 3.1013 3.98857
31.2514 5.34238 2
31.7881 7.44209 0.0274459
32.6053 0.320823 4
32.9796 2.70403 2
33.3491 4.93423 0.0178649
35.0474 0.0802903 2
35.2458 2.46527 0.00923077
37.5 0 0
38.8513 36.0242 3.3089
40.2119 35.9814 2
41.7005 35.9504 0.72117
28.5564 10.7575 2
26.6443 11.4668 3.97081
29.2543 12.7046 3.97563
37.5037 34.5194 3.43991
38.9733 34.5448 2
40.1264 34.6012 0.638259
44.5834 32.1063 0.131001
42.4133 31.7631 0.251711
40.6401 32.0735 0.464846
39.0604 33.0404 0.645185
43.2196 30.3813 2
41.2071 30.4779 2
39.3773 31.2858 2
37.5091 32.8693 2
41.5637 29.1847 3.84514
39.531 29.8685 3.75791
37.492 31.0758 3.60375
35.9248 33.0568 3.35919
31.9629 14.5667 3.98442
34.1148 12.9912 2
35.7024 11.8237 0.0275532
31.2059 12.0476 2
33.11 11.2706 0.0301935
30.4943 10.067 0.0295904
44.2923 28.3159 0.0148366
43.1351 24.5027 -0.00512929
35.7912 14.8383 0.00940114
41.0816 21.1418 0.00421541
38.6131 17.8416 0.0070729
33.636 15.9615 2
35.844 17.6641 2
42.3238 27.0358 2
38.3079 20.7405 2
40.6412 23.9483 2
33.5961 17.5655 3.98997
40.0937 26.4407 3.95623
37.9835 23.6995 3.99619
35.5477 20.56 3.99269
37.5312 37.484 3.4233
38.9415 37.4888 2
40.115 37.4054 0.593129
41.5259 52.517 -0.00609774
40.5342 48.9844 0.0138545
39.0013 38.9621 0.670519
39.5062 45.1042 0.262612
37.4941 43.8956 0.399967
37.5005 40.4783 0.559376
35.9189 41.9483 0.647263
39.6262 51.2244 2
37.4663 38.971 2
36.0427 40.4426 2
38.576 47.8692 2
34.6765 41.6542 2
35.6045 43.698 2
37.49 45.4732 2
37.6889 50.2161 3.98855
36.1618 38.9997 3.31958
34.8796 40.3693 3.36538
33.9323 41.3811 3.34878
34.3949 42.9195 3.52593
35.4463 45.1873 3.768
36.9614 47.4335 3.864
38.6518 53.3283 0.000830499
36.815 52.6006 2
34.5718 52.0325 3.9985
34.5072 58.3604 0.00483082
36.3257 54.9979 0.00420998
33.4655 55.1731 2
30.9952 53.1336 3.99442
30.4379 57.5146 0.0172948
29.111 55.128 2
27.5066 53.1121 3.95132
27.2429 56.6088 0.0384683
25.8173 54.8446 2
24.3172 53.079 3.95284
21.3486 52.7965 3.95869
20.4987 55.4999 3.95953
22.3996 54.9989 2
24.2 56.5323 0.0469552
19.7461 57.6397 3.96043
20.6045 56.7488 2
19.8122 60.0255 3.966
20.8445 58.5588 2
21.7194 57.1116 0.0399117
20.2753 62.6869 3.96931
21.2721 60.9855 2
22.145 59.4116 0.032801
20.9605 65.7011 3.964
21.9405 63.7094 2
22.8214 61.845 0.0308052
23.7182 64.6372 0.0374864
22.8478 66.6976 2
21.9191 68.868 3.98014
24.8207 67.5831 0.0300231
24.0093 69.8 2
23.1494 72.1454 4
26.1714 70.6029 0.0130918
25.446 73.0099 2
27.7943 73.7221 0
25.8649 9.44863 3.96912
27.0717 6.55578 3.97409
27.8233 8.69085 2
28.4909 3.64657 3.98785
29.1534 5.88914 2
29.8118 8.02337 0.0308172
30.1841 0.720592 4
30.7243 3.10156 2
31.2546 5.34293 0.0197127
32.6053 0.320817 2
32.9822 2.70377 0.0102963
35.0474 0.080333 0
37.5235 36.0067 3.38642
38.8225 35.9761 2
40.2402 35.9796 0.573751
24.8118 12.1477 3.96473
23.8248 14.5923 3.98179
28.5589 10.7558 0.0305795
26.6406 11.4633 2
29.2483 12.7356 2
27.3213 13.5025 3.97532
29.8408 14.2594 4.0056
36.0062 34.5367 3.35661
37.5421 34.4972 2
38.9663 34.5388 0.675496
37.4925 32.8904 0.572574
43.1498 30.4359 0.14944
41.1577 30.5414 0.236289
39.3642 31.3903 0.449302
41.5932 29.1023 2
39.5339 29.7793 2
37.4938 30.9907 2
35.9785 33.0042 2
39.6928 28.4749 3.83625
37.4775 29.5425 3.75142
35.6261 31.4139 3.54895
34.7265 33.3767 3.26601
31.0242 16.9312 3.99625
31.9533 14.5384 2
34.1139 12.9973 0.016819
31.2062 12.0578 0.0288261
42.2699 27.0833 0.0313711
40.6767 23.9241 -0.00387457
33.6568 15.9829 0.00743004
35.8409 17.7508 0.00846573
38.3444 20.6804 0.00322303
33.5493 17.5922 2
35.483 20.6055 2
40.105 26.4334 2
38.0451 23.6931 2
33.05 20.1532 3.99631
37.7696 26.1102 3.95408
35.4424 23.3166 4.00355
36.1002 37.4831 3.30326
37.4951 37.4814 2
38.9906 37.4846 0.706333
39.6415 51.2392 0.00185645
38.5455 47.799 0.0854481
37.4891 38.9593 0.600516
37.4705 45.3935 0.230726
35.6249 43.5911 0.454214
36.0636 40.4719 0.665259
34.7584 41.6374 0.746206
37.6207 50.2549 2
36.2227 38.9794 2
34.8441 40.3922 2
36.9296 47.5098 2
33.886 41.3953 2
34.3249 43.0133 2
35.4132 45.2543 2
35.6106 49.3935 3.98068
34.8157 38.9645 3.42438
33.5581 40.4013 3.3132
33.5956 42.0847 3.55537
33.8915 44.4274 3.75281
34.7722 46.5984 3.84445
36.7851 52.6651 0.000190658
34.559 52.0492 2
32.5396 50.7596 4.0053
33.4601 55.1747 -0.00569472
31.0013 53.1301 2
29.1316 51.1061 3.98419
29.1039 55.1268 0.0156413
27.5139 53.1025 2
25.9464 51.2797 3.9574
25.8037 54.8478 0.047282
24.325 53.0804 2
22.9531 51.3362 3.95434
20.2677 51.171 3.9659
19.6922 53.9257 3.96153
21.3453 52.7962 2
18.9388 56.4259 3.96127
20.4937 55.5026 2
22.3962 54.9985 0.0410745
18.5613 58.9075 3.95351
19.7476 57.6405 2
20.6094 56.7453 0.0385337
18.6816 61.6398 3.97695
19.8234 60.0243 2
20.8575 58.5513 0.0435907
19.1575 64.5803 3.96597
20.2721 62.6926 2
21.2663 60.9738 0.0357329
19.8934 67.8062 3.97779
20.95 65.7066 2
21.9441 63.7198 0.0336538
22.8518 66.7084 0.0329877
21.9129 68.8635 2
20.9142 71.1327 4
24.0152 69.8045 0.0147455
23.1494 72.1455 2
25.446 73.0099 0
23.1334 12.9731 3.96875
23.9876 10.2211 3.96739
25.0269 7.33237 3.97018
25.8665 9.44038 2
26.2831 4.33172 3.9859
27.0679 6.55811 2
27.8238 8.70307 0.0295619
27.7943 1.27781 4
28.4857 3.64847 2
29.1566 5.88933 0.0218408
30.1841 0.720551 2
30.7282 3.1013 0.0114285
32.6053 0.320823 0
36.0333 36.0164 3.33315
37.5763 36.0221 2
38.8513 36.0242 0.691098
24.7937 12.201 2
23.8211 14.6086 2
22.5935 15.254 3.97529
25.4046 14.1121 3.97049
24.1632 15.8464 4.00186
26.6443 11.4668 0.029189
29.2543 12.7046 0.0243678
27.3294 13.4732 2
29.8278 14.2874 2
28.4748 16.0131 3.99097
34.9033 34.635 3.34631
36.0714 34.5388 2
37.5037 34.5194 0.560086
35.9248 33.0568 0.640805
37.492 31.0758 0.396253
41.5637 29.1847 0.154861
39.531 29.8685 0.242092
39.7514 28.4111 2
37.4766 29.4981 2
35.6107 31.3143 2
34.6389 33.3566 2
37.5853 28.1613 3.83258
35.4801 29.877 3.75035
34.367 32.0941 3.52942
33.916 33.6397 3.35081
30.4107 19.7977 3.98499
30.9791 16.9405 2
31.9629 14.5667 0.0155831
40.0937 26.4407 0.04377
37.9835 23.6995 0.00380685
33.5961 17.5655 0.0100345
35.5477 20.56 0.00731024
33.0378 20.1713 2
35.3676 23.2957 2
37.7327 26.0863 2
32.7157 22.9404 4.00686
35.2727 25.9627 3.97296
34.8345 37.52 3.43581
36.0893 37.5092 2
37.5312 37.484 0.576698
37.6889 50.2161 0.0114528
36.9614 47.4335 0.136005
36.1618 38.9997 0.680417
35.4463 45.1873 0.232004
34.3949 42.9195 0.474066
34.8796 40.3693 0.634622
33.9323 41.3811 0.65122
35.6181 49.4021 2
34.7874 38.98 2
33.5197 40.3934 2
34.7238 46.6773 2
33.5295 42.1787 2
33.8396 44.4887 2
33.747 48.4979 3.96762
33.294 39.0287 3.27979
33.056 40.9644 3.54065
32.6004 43.2368 3.75686
33.1552 45.5798 3.83826
34.5718 52.0325 0.00149853
32.5564 50.748 2
30.7586 49.2358 4.0039
30.9952 53.1336 0.00558378
29.1409 51.095 2
27.5205 49.4592 3.98004
27.5066 53.1121 0.0486756
25.9566 51.2797 2
24.4458 49.6726 3.97111
24.3172 53.079 0.0471642
22.9557 51.3332 2
21.6678 49.8017 3.96659
18.9499 49.9116 3.9737
18.7386 52.3851 3.96762
20.2654 51.1698 2
18.0971 55.0041 3.96293
19.6855 53.9266 2
21.3486 52.7965 0.0413053
17.501 57.6287 3.96008
18.9369 56.4273 2
20.4987 55.4999 0.0404717
17.2463 60.4083 3.94918
18.5728 58.9073 2
19.7461 57.6397 0.039565
17.4201 63.3953 3.96762
18.6805 61.6288 2
19.8122 60.0255 0.0340022
17.9525 66.6079 3.96836
19.1429 64.5784 2
20.2753 62.6869 0.0306885
18.75 69.9759 4
19.8878 67.7997 2
20.9605 65.7011 0.0359978
21.9191 68.868 0.0198614
20.9142 71.1327 2
23.1494 72.1454 0
21.6498 13.7848 3.9689
22.2121 11.1229 3.96316
23.1325 12.9654 2
23.0463 8.21021 3.96978
23.9813 10.2526 2
24.1212 5.14574 3.98546
25.0214 7.33064 2
25.8649 9.44863 0.0308778
25.446 1.99014 4
26.2769 4.33386 2
27.0717 6.55578 0.0259059
27.7943 1.27778 2
28.4909 3.64657 0.0121548
30.1841 0.720592 0
34.9105 36.0526 3.38286
36.0823 36.0152 2
37.5235 36.0067 0.613577
21.4759 16.0604 3.95765
24.8118 12.1477 0.0352718
23.8248 14.5923 0.0182113
25.4034 14.081 2
22.595 15.2465 2
24.167 15.8671 2
23.4617 16.4746 3.96589
25.5126 16.3593 3.98825
27.3213 13.5025 0.0246818
29.8408 14.2594 -0.00560405
28.4604 16.0858 2
27.6744 19.1929 3.98934
33.549 34.6244 3.33377
34.8066 34.6493 2
36.0062 34.5367 0.643395
34.7265 33.3767 0.733987
35.6261 31.4139 0.451055
37.4775 29.5425 0.248579
39.6928 28.4749 0.163746
37.5495 28.127 2
33.8734 33.6281 2
35.4633 29.8009 2
34.3064 31.9961 2
35.361 28.2598 3.85722
33.8561 30.5742 3.76282
33.5646 32.9254 3.55886
30.0696 22.4392 4.01096
30.3749 19.8306 2
31.0242 16.9312 0.00374919
37.7696 26.1102 0.0459211
35.4424 23.3166 -0.00355075
33.05 20.1532 0.00369406
32.7338 22.9047 2
35.279 25.9523 2
32.4358 26.2806 4.02245
33.1763 37.5108 3.32034
34.8171 37.5166 2
36.1002 37.4831 0.696744
35.6106 49.3935 0.0193244
34.7722 46.5984 0.155545
34.8157 38.9645 0.575615
33.8915 44.4274 0.24719
33.5956 42.0847 0.444627
33.5581 40.4013 0.686801
33.6951 48.5013 2
33.2727 39.0341 2
32.9715 41.0456 2
33.1372 45.6522 2
32.5439 43.2611 2
32.1306 47.2603 3.97853
32.5064 39.4419 3.55026
31.721 41.6311 3.79963
31.7338 44.2854 3.83587
32.5396 50.7596 -0.00529662
30.7726 49.2488 2
29.0772 47.6697 3.9777
29.1316 51.1061 0.0158079
27.5281 49.4576 2
25.9407 47.9021 3.97679
25.9464 51.2797 0.0426019
24.4511 49.6707 2
22.9968 48.2299 3.97327
22.9531 51.3362 0.0456617
21.6683 49.7991 2
20.1433 48.649 3.97482
17.8253 48.9744 3.97557
17.5998 51.0389 3.97302
18.9519 49.9112 2
17.1074 53.5315 3.96886
18.7394 52.3836 2
20.2677 51.171 0.0340955
16.4691 56.2074 3.96464
18.0936 55.0053 2
19.6922 53.9257 0.0384704
15.9161 59.0508 3.95677
17.507 57.6295 2
18.9388 56.4259 0.0387258
15.7998 62.046 3.96745
17.2315 60.4171 2
18.5613 58.9075 0.0464885
16.0983 65.2973 3.97015
17.4209 63.4104 2
18.6816 61.6398 0.0230541
16.6661 68.6801 4
17.9447 66.6026 2
19.1575 64.5803 0.0340253
18.75 69.9759 2
19.8934 67.8062 0.0222085
20.9142 71.1327 0
20.3175 14.7878 3.9555
21.6498 13.7809 2
20.567 12.1465 3.96903
21.1532 9.1948 3.97135
22.2013 11.143 2
23.1334 12.9731 0.0312486
22.0227 6.08594 3.98508
23.041 8.21782 2
23.9876 10.2211 0.0326094
23.1494 2.85457 4
24.1148 5.15122 2
25.0269 7.33237 0.02982
25.446 1.99012 2
26.2831 4.33172 0.0140976
27.7943 1.27781 0
33.2751 36.0022 3.33599
34.8384 36.0549 2
36.0333 36.0164 0.666847
21.4881 16.0677 2
20.5781 17.2465 3.96141
22.3161 16.8725 3.96638
25.4046 14.1121 0.0295142
22.5935 15.254 0.0247113
24.1632 15.8464 -0.00185586
25.5177 16.3538 2
23.4653 16.4814 2
24.4757 18.8318 3.97845
27.5479 21.9991 3.98992
28.4748 16.0131 0.0090251
27.6532 19.1825 2
33.035 34.0271 3.54177
33.5141 34.6276 2
34.9033 34.635 0.653692
33.916 33.6397 0.649193
34.367 32.0941 0.470575
35.4801 29.877 0.249653
37.5853 28.1613 0.167418
35.3425 28.2122 2
33.5146 32.8335 2
33.8069 30.5002 2
33.3315 28.9161 3.86702
32.6013 31.7693 3.75249
29.6108 24.9425 4.01197
30.0844 22.3987 2
30.4107 19.7977 0.0150134
35.2727 25.9627 0.0270412
32.7157 22.9404 -0.00685698
32.4171 26.2406 2
30.7451 27.9126 3.98926
32.3604 37.4908 3.52797
33.1406 37.5122 2
34.8345 37.52 0.564185
33.747 48.4979 0.0323778
33.1552 45.5798 0.161737
33.294 39.0287 0.720207
32.6004 43.2368 0.243138
33.056 40.9644 0.459346
32.0892 47.2949 2
32.4149 39.4431 2
31.6534 41.6803 2
31.6516 44.3532 2
30.5439 45.8915 3.97205
31.0161 39.6482 3.80505
30.4267 42.652 3.86284
30.7586 49.2358 -0.0039032
29.0846 47.6801 2
27.4258 46.1113 3.98584
27.5205 49.4592 0.0199552
25.9466 47.9 2
24.3303 46.5098 3.97588
24.4458 49.6726 0.0288898
22.9973 48.228 2
21.2542 47.1593 3.97484
21.6678 49.8017 0.0334147
20.1426 48.6489 2
18.7368 47.7953 3.97546
17.0659 48.353 3.975
17.8255 48.9752 2
16.6538 49.8486 3.97453
16.0527 52.1092 3.97319
17.6016 51.0375 2
18.9499 49.9116 0.026296
15.3902 54.7188 3.97014
17.1096 53.5308 2
18.7386 52.3851 0.0323778
14.7204 57.5735 3.96215
16.472 56.2074 2
18.0971 55.0041 0.0370716
14.2923 60.6281 3.95309
15.909 59.0543 2
17.501 57.6287 0.0399208
14.3408 63.8519 3.96435
15.807 62.0535 2
17.2463 60.4083 0.0508167
14.6715 67.2507 4
16.0925 65.2853 2
17.4201 63.3953 0.0323801
16.6661 68.6801 2
17.9525 66.6079 0.0316384
18.75 69.9759 0
19.1095 16.0147 3.95744
20.3293 14.7746 2
19.0274 13.2837 3.96477
21.6498 13.7848 0.0311006
20.5526 12.142 2
19.3613 10.3063 3.96951
19.9982 7.14839 3.97892
21.146 9.19513 2
22.2121 11.1229 0.036839
20.9142 3.86727 4
22.0125 6.08686 2
23.0463 8.21021 0.030218
23.1494 2.85451 2
24.1212 5.14574 0.014543
25.446 1.99014 0
32.5178 35.5479 3.53506
33.24 35.9977 2
34.9105 36.0526 0.617136
21.4759 16.0604 0.0423543
22.3316 16.8838 2
20.5942 17.2455 2
19.6593 18.7377 3.9661
22.048 18.2282 3.97977
25.5126 16.3593 0.0117548
23.4617 16.4746 0.0341058
24.496 18.8448 2
22.8123 20.2995 3.96795
25.1697 21.8462 3.98564
27.2772 24.1728 3.97236
27.5743 21.9163 2
27.6744 19.1929 0.0106586
31.6996 33.3755 3.79746
32.9654 33.9755 2
33.549 34.6244 0.666228
33.5646 32.9254 0.441144
33.8561 30.5742 0.237176
35.361 28.2598 0.142779
33.2854 28.8577 2
32.5099 31.6993 2
31.4346 30.2508 3.88458
29.0458 27.1069 4.01427
29.6138 24.9167 2
30.0696 22.4392 -0.0109606
32.4358 26.2806 -0.022447
30.7463 27.9196 2
30.8466 37.4811 3.8101
32.2443 37.4919 2
33.1763 37.5108 0.67966
32.1306 47.2603 0.0214732
31.7338 44.2854 0.16413
32.5064 39.4419 0.449737
31.721 41.6311 0.200368
30.5594 45.9082 2
30.9178 39.6695 2
30.3983 42.6833 2
28.9478 44.3141 3.95492
28.7819 40.3024 3.90745
29.0772 47.6697 0.0222964
27.4303 46.1147 2
25.6969 44.6644 3.97799
25.9407 47.9021 0.0232134
24.3321 46.5101 2
22.3727 45.4865 3.97597
22.9968 48.2299 0.0267256
21.2552 47.1593 2
19.5381 46.3664 3.9748
20.1433 48.649 0.0251764
18.7374 47.7961 2
17.3357 47.3894 3.97467
17.0677 48.354 2
16.0273 48.7174 3.9745
17.8253 48.9744 0.024432
16.6555 49.8482 2
15.1568 50.7138 3.97373
14.3335 53.2022 3.97314
16.0535 52.1087 2
17.5998 51.0389 0.0269826
13.5771 56.0028 3.96363
15.3912 54.7189 2
17.1074 53.5315 0.0311394
12.9334 59.0562 3.95171
14.7214 57.5744 2
16.4691 56.2074 0.035359
12.6869 62.2937 3.96426
14.2997 60.6344 2
15.9161 59.0508 0.0432281
12.7746 65.6939 4
14.3367 63.8422 2
15.7998 62.046 0.0325545
14.6714 67.2507 2
16.0983 65.2973 0.0298545
16.6661 68.6801 0
18.004 17.4253 3.95993
19.1352 16.0093 2
17.5841 14.5329 3.95415
20.3175 14.7878 0.0444951
19.0195 13.2409 2
17.6714 11.5706 3.96855
20.567 12.1465 0.0309669
19.3511 10.3254 2
18.0584 8.34485 3.9726
18.75 5.0241 4
19.9878 7.15995 2
21.1532 9.1948 0.0286524
20.9142 3.86727 2
22.0227 6.08594 0.0149177
23.1494 2.85457 0
31.0144 35.3538 3.79951
32.4159 35.5415 2
33.2751 36.0022 0.664008
22.3161 16.8725 0.0336182
20.5781 17.2465 0.0385917
22.0784 18.22 2
19.6655 18.7345 2
18.6084 20.3137 3.96855
21.3863 19.7714 3.97521
24.4757 18.8318 0.0215464
22.824 20.2984 2
25.1902 21.8062 2
23.112 22.1899 3.9729
25.601 23.5015 3.96662
26.6919 26.4796 3.98556
27.2782 24.1864 2
27.5479 21.9991 0.0100819
30.1456 32.805 3.85867
31.6307 33.3262 2
33.035 34.0271 0.45823
32.6013 31.7693 0.247507
33.3315 28.9161 0.132982
31.4105 30.205 2
28.5523 29.7169 4.00179
29.0361 27.1356 2
29.6108 24.9425 -0.0119688
30.7451 27.9126 0.0107383
29.1298 37.4522 3.82657
30.7212 37.4979 2
32.3604 37.4908 0.472031
30.5439 45.8915 0.0279543
30.4267 42.652 0.137162
31.0161 39.6482 0.194949
28.9561 44.3681 2
28.7354 40.3384 2
27.1506 42.8555 3.98348
26.1478 39.3268 3.97703
27.4258 46.1113 0.0141618
25.6901 44.6721 2
23.6597 43.5559 3.97445
24.3303 46.5098 0.0241186
22.3722 45.4859 2
20.3943 44.6243 3.97444
21.2542 47.1593 0.0251615
19.5384 46.3667 2
17.7294 45.9052 3.97485
18.7368 47.7953 0.0245443
17.3363 47.3898 2
15.8061 47.4008 3.97457
17.0659 48.353 0.0249989
16.0292 48.7178 2
14.4824 49.2993 3.97418
16.6538 49.8486 0.0254705
15.1578 50.7133 2
13.403 51.6648 3.97355
12.4614 54.3811 3.96782
14.3346 53.2019 2
16.0527 52.1092 0.0268106
11.6579 57.393 3.95697
13.5717 56.0046 2
15.3902 54.7188 0.0298584
11.142 60.6197 3.96255
12.9323 59.0576 2
14.7204 57.5735 0.037846
10.9835 64.0165 4
12.6845 62.2839 2
14.2923 60.6281 0.0469146
12.7745 65.694 2
14.3408 63.8519 0.0356488
14.6715 67.2507 0
16.8685 18.9423 3.96326
18.0155 17.4217 2
16.2956 15.9655 3.95771
19.1095 16.0147 0.0425605
17.592 14.5323 2
16.036 12.8874 3.95836
19.0274 13.2837 0.0352286
17.6484 11.552 2
16.2102 9.67046 3.96649
19.3613 10.3063 0.0304855
18.0494 8.35569 2
16.6661 6.31991 4
18.75 5.02404 2
19.9982 7.14839 0.021076
20.9142 3.86727 0
29.4191 35 3.8745
30.8873 35.3266 2
32.5178 35.5479 0.464942
17.3418 21.7344 3.97173
22.048 18.2282 0.0202317
19.6593 18.7377 0.0338972
21.3955 19.7682 2
18.6011 20.3075 2
20.5295 22.0267 3.97385
22.8123 20.2995 0.0320461
25.1697 21.8462 0.0143598
23.1163 22.1881 2
25.5892 23.5487 2
24.0074 25.1354 3.97221
26.131 29.0999 3.98338
26.6897 26.5046 2
27.2772 24.1728 0.0276359
28.0405 32.1446 3.97283
30.096 32.7785 2
31.6996 33.3755 0.202541
31.4346 30.2508 0.115424
28.5547 29.6722 2
29.0458 27.1069 -0.0142703
26.9081 36.9035 3.95293
29.0627 37.4033 2
30.8466 37.4811 0.189902
28.9478 44.3141 0.045081
28.7819 40.3024 0.0925466
27.1272 42.8938 2
26.0925 39.3127 2
24.9433 41.5418 3.97447
23.8449 38.4978 3.97484
25.6969 44.6644 0.0220089
23.6586 43.5629 2
21.3307 42.6069 3.97449
22.3727 45.4865 0.0240251
20.3964 44.6249 2
18.1669 44.1122 3.97509
19.5381 46.3664 0.0252041
17.7302 45.9056 2
15.7799 45.8469 3.97503
17.3357 47.3894 0.0253329
15.8063 47.4011 2
14.0153 47.7917 3.97442
16.0273 48.7174 0.0255042
14.4831 49.2993 2
12.6449 50.0637 3.97426
15.1568 50.7138 0.0262654
13.4037 51.6646 2
11.454 52.7081 3.97149
10.4629 55.6518 3.95959
12.4579 54.3821 2
14.3335 53.2022 0.0268593
9.70936 58.845 3.96373
11.6608 57.393 2
13.5771 56.0028 0.0363695
9.30605 62.2254 4
11.1408 60.6125 2
12.9334 59.0562 0.0482921
10.9835 64.0165 2
12.6869 62.2937 0.0357395
12.7746 65.6939 0
15.6365 20.4604 3.96931
16.8769 18.9395 2
15.0319 17.4962 3.96095
18.004 17.4253 0.0400728
16.2666 15.9541 2
14.5008 14.3735 3.95446
17.5841 14.5329 0.0458517
16.0455 12.8869 2
14.453 11.1217 3.96766
17.6714 11.5706 0.0314503
16.2039 9.68593 2
14.6715 7.74927 4
18.0584 8.34485 0.0273985
16.6661 6.31988 2
18.75 5.0241 0
27.3687 34.5236 3.97495
29.3616 35.0077 2
31.0144 35.3538 0.200494
18.6647 22.7432 3.97417
16.2272 23.2553 3.97235
17.3432 21.731 2
21.3863 19.7714 0.0247857
18.6084 20.3137 0.0314483
20.5375 22.0258 2
20.7339 24.8948 3.97208
23.112 22.1899 0.0270991
25.601 23.5015 0.0333818
24.01 25.1323 2
23.5096 28.3929 3.97027
25.6258 31.5992 3.98254
26.1436 28.9957 2
26.6919 26.4796 0.0144395
28.006 32.122 2
30.1456 32.805 0.141328
28.5523 29.7169 -0.00178954
24.5755 36.3658 3.97826
26.8396 36.9094 2
29.1298 37.4522 0.17343
27.1506 42.8555 0.0165241
26.1478 39.3268 0.0229699
24.9094 41.5526 2
23.8361 38.5044 2
22.5456 40.4534 3.9754
21.8274 37.7861 3.97828
23.6597 43.5559 0.0255466
21.3317 42.6048 2
18.6796 41.909 3.97566
20.3943 44.6243 0.0255599
18.1673 44.1119 2
15.8355 43.9983 3.97518
17.7294 45.9052 0.0251459
15.7796 45.847 2
13.7114 46.1088 3.97478
15.8061 47.4008 0.0254262
14.0149 47.7917 2
12.0321 48.3866 3.97476
14.4824 49.2993 0.0258185
12.6456 50.0633 2
10.59 50.9646 3.9736
13.403 51.6648 0.0264488
11.4541 52.7078 2
9.3618 53.8403 3.96193
8.39191 56.9811 3.96665
10.4663 55.6505 2
12.4614 54.3811 0.0321778
7.74927 60.3285 4
9.70832 58.8389 2
11.6579 57.393 0.0430254
9.306 62.2255 2
11.142 60.6197 0.037446
10.9835 64.0165 0
14.4692 22.0062 3.97244
15.6401 20.4568 2
13.7475 19.075 3.96461
16.8685 18.9423 0.0367367
15.0153 17.4868 2
13.0575 15.947 3.95425
16.2956 15.9655 0.0422852
14.5222 14.3655 2
12.7894 12.6954 3.96546
16.036 12.8874 0.0416431
14.4476 11.135 2
12.7746 9.30605 4
16.2102 9.67046 0.0335146
14.6715 7.74924 2
16.6661 6.31991 0
25.0402 34.0323 3.97968
27.3436 34.4687 2
29.4191 35 0.125497
18.562 24.4753 3.97192
18.6724 22.7432 2
15.0401 24.7232 3.97348
16.2263 23.2531 2
17.3418 21.7344 0.0282746
20.2849 27.6439 3.97263
20.5295 22.0267 0.0261469
20.7375 24.8953 2
22.8805 31.0624 3.9738
24.0074 25.1354 0.0277862
23.5045 28.4001 2
25.5678 31.681 2
26.131 29.0999 0.0166205
28.0405 32.1446 0.0271695
21.9089 36.026 3.97748
24.5548 36.3803 2
26.9081 36.9035 0.0470682
24.9433 41.5418 0.0255324
23.8449 38.4978 0.025158
22.5529 40.4551 2
21.8244 37.7862 2
19.495 38.947 3.97707
21.3307 42.6069 0.0255147
18.6803 41.9087 2
15.8314 41.7894 3.97585
18.1669 44.1122 0.0249117
15.8352 43.998 2
13.473 44.2435 3.97515
15.7799 45.8469 0.0249744
13.7105 46.1089 2
11.5402 46.5968 3.97486
14.0153 47.7917 0.0255826
12.0327 48.3862 2
9.86853 49.1357 3.97532
12.6449 50.0637 0.0257379
10.5907 50.9639 2
8.39174 51.9604 3.96337
11.454 52.7081 0.028511
9.36044 53.8394 2
7.20048 55.0328 3.96776
6.31991 58.3339 4
8.39075 56.9756 2
10.4629 55.6518 0.0404095
7.74924 60.3285 2
9.70936 58.845 0.0362723
9.30605 62.2254 0
13.8611 25.5975 3.9756
13.3633 23.5034 3.97342
14.4704 22.0028 2
12.5597 20.707 3.96848
15.6365 20.4604 0.0306921
13.7357 19.0681 2
11.7682 17.6299 3.95362
15.0319 17.4962 0.0390506
13.0909 15.9495 2
11.2284 14.3827 3.96208
14.5008 14.3735 0.0455386
12.7882 12.7074 2
10.9835 10.9835 4
14.453 11.1217 0.0323355
12.7745 9.306 2
14.6715 7.74927 0
22.2645 33.6462 3.97714
25.0396 33.9759 2
27.3687 34.5236 0.0250521
16.8488 26.7201 3.97371
18.5636 24.476 2
18.6647 22.7432 0.0258271
15.0375 24.7239 2
16.2272 23.2553 0.0276518
19.6763 30.499 3.97488
20.2878 27.6425 2
20.7339 24.8948 0.0279226
22.8948 31.0506 2
23.5096 28.3929 0.0297276
25.6258 31.5992 0.0174627
19.06 36.0467 3.9772
21.9074 36.0212 2
24.5755 36.3658 0.0217398
22.5456 40.4534 0.0246004
21.8274 37.7861 0.0217218
19.4939 38.9475 2
15.3093 39.1351 3.97684
18.6796 41.909 0.0243429
15.8315 41.7891 2
13.162 42.1788 3.97583
15.8355 43.9983 0.0248206
13.4723 44.2435 2
11.1189 44.696 3.97531
13.7114 46.1088 0.0252189
11.5402 46.5966 2
9.25552 47.2286 3.97581
12.0321 48.3866 0.0252419
9.87058 49.1348 2
7.55149 50.0005 3.96499
10.59 50.9646 0.026401
8.38999 51.9594 2
6.14026 53.0081 3.96883
9.3618 53.8403 0.0380736
7.20007 55.0281 2
5.0241 56.25 4
6.31988 58.3339 2
8.39191 56.9811 0.0333466
7.74927 60.3285 0
14.172 27.0384 3.97449
12.4528 24.9748 3.97484
13.8601 25.5978 2
11.4724 22.374 3.97244
13.3607 23.5025 2
14.4692 22.0062 0.0275636
12.5543 20.7028 2
10.5472 19.3872 3.95777
13.7475 19.075 0.0353944
11.7783 17.6304 2
9.76917 16.1634 3.96368
13.0575 15.947 0.0457514
11.2275 14.39 2
9.30607 12.7746 4
12.7894 12.6954 0.0345363
10.9835 10.9835 2
12.7746 9.30605 0
19.1977 33.2973 3.97566
22.257 33.6532 2
25.0402 34.0323 0.0203194
16.4798 29.8923 3.97497
16.8489 26.7228 2
18.562 24.4753 0.0280767
15.0401 24.7232 0.0265246
19.6726 30.5004 2
20.2849 27.6439 0.0273672
22.8805 31.0624 0.0262046
15.9694 36.0739 3.97707
19.058 36.0474 2
21.9089 36.026 0.0225159
13.408 37.8307 3.97711
19.495 38.947 0.0229337
15.3096 39.1349 2
12.6447 40.0921 3.97641
15.8314 41.7894 0.0241492
13.1612 42.1785 2
10.7095 42.7046 3.97558
13.473 44.2435 0.0248548
11.1188 44.696 2
8.72721 45.2494 3.97595
11.5402 46.5968 0.0251449
9.25832 47.2274 2
6.82579 47.9739 3.96681
9.86853 49.1357 0.0246802
7.55037 49.9996 2
5.21616 50.9111 3.96974
8.39174 51.9604 0.0366271
6.14037 53.0046 2
3.86727 54.0858 4
7.20048 55.0328 0.0322394
5.02404 56.25 2
6.31991 58.3339 0
13.6475 29.2123 3.97405
11.8984 26.6425 3.97455
14.172 27.0391 2
10.5231 24.0877 3.97498
12.4541 24.975 2
13.8611 25.5975 0.0243962
9.38731 21.1946 3.9618
11.4717 22.3717 2
13.3633 23.5034 0.0265788
12.5597 20.707 0.0315201
10.5541 19.388 2
8.42433 18.0315 3.9665
11.7682 17.6299 0.0463793
9.76887 16.1693 2
7.74928 14.6715 4
11.2284 14.3827 0.0379162
9.30602 12.7745 2
10.9835 10.9835 0
15.4559 32.9954 3.97621
19.1982 33.2963 2
22.2645 33.6462 0.0228641
16.4812 29.892 2
16.8488 26.7201 0.0262887
19.6763 30.499 0.0251221
13.7224 36.2441 3.97675
15.9697 36.0739 2
19.06 36.0467 0.0227983
13.4077 37.8306 2
11.9433 38.3024 3.97644
15.3093 39.1351 0.0231607
12.6441 40.0921 2
10.2745 40.7135 3.976
13.162 42.1788 0.0241725
10.7096 42.7042 2
8.26722 43.2193 3.97607
11.1189 44.696 0.0246868
8.73051 45.2491 2
6.21183 45.8871 3.96831
9.25552 47.2286 0.0241896
6.82533 47.973 2
4.42687 48.7513 3.97051
7.55149 50.0005 0.0350123
5.21655 50.9086 2
2.85457 51.8506 4
6.14026 53.0081 0.0311677
3.86727 54.0858 2
5.0241 56.25 0
12.7618 31.3771 3.97545
11.3035 28.5473 3.97478
13.6475 29.2122 2
9.73951 25.902 3.97559
11.8989 26.643 2
14.172 27.0384 0.0255077
8.35103 23.067 3.964
10.5237 24.0864 2
12.4528 24.9748 0.0251552
7.20612 19.9794 3.96773
9.38965 21.1955 2
11.4724 22.374 0.027562
10.5472 19.3872 0.0422324
8.42395 18.0362 2
6.31992 16.6661 4
9.76917 16.1634 0.0363232
7.74926 14.6714 2
9.30607 12.7746 0
12.817 34.3676 3.97661
15.456 32.996 2
19.1977 33.2973 0.024337
16.4798 29.8923 0.0250346
11.4552 36.6351 3.9764
13.7224 36.2441 2
15.9694 36.0739 0.0229263
13.408 37.8307 0.0228878
11.9426 38.3023 2
9.84006 38.8128 3.97625
12.6447 40.0921 0.0235851
10.2742 40.7133 2
7.86464 41.1824 3.97616
10.7095 42.7046 0.0244178
8.26942 43.2182 2
5.70341 43.7573 3.96917
8.72721 45.2494 0.0240509
6.21058 45.8863 2
3.77201 46.5366 3.97115
6.82579 47.9739 0.0331853
4.42757 48.7495 2
1.99014 49.554 4
5.21616 50.9111 0.0302625
2.85451 51.8506 2
3.86727 54.0858 0
11.5269 33.0036 3.97628
10.5949 30.4789 3.9752
12.7609 31.3778 2
9.0417 27.8177 3.97573
11.3034 28.5473 2
13.6475 29.2123 0.0259514
7.45797 25.0164 3.96561
9.74073 25.9017 2
11.8984 26.6425 0.0254523
6.12195 22.0021 3.9692
8.35012 23.0678 2
10.5231 24.0877 0.0250164
5.02411 18.75 4
7.20611 19.9832 2
9.38731 21.1946 0.0382033
8.42433 18.0315 0.0335021
6.3199 16.6661 2
7.74928 14.6715 0
11.0207 35.0442 3.97607
12.8165 34.3676 2
15.4559 32.9954 0.0237946
9.48363 36.9976 3.97627
11.4544 36.6353 2
13.7224 36.2441 0.0232471
11.9433 38.3024 0.023562
9.84024 38.8128 2
7.52631 39.1723 3.97639
10.2745 40.7135 0.0240023
7.86813 41.1818 2
5.30641 41.6089 3.96939
8.26722 43.2193 0.0239279
5.70345 43.7567 2
3.24951 44.2815 3.97208
6.21183 45.8871 0.0316883
3.77296 46.5352 2
1.27781 47.2057 4
4.42687 48.7513 0.0294903
1.99012 49.554 2
2.85457 51.8506 0
10.6293 33.9377 3.97563
9.84965 32.2247 3.97576
11.5262 33.0038 2
8.37417 29.7645 3.97606
10.5949 30.4797 2
12.7618 31.3771 0.0245506
6.6846 27.0347 3.96632
9.04377 27.8183 2
11.3035 28.5473 0.0252189
5.17633 24.0954 3.96993
7.45631 25.0171 2
9.73951 25.902 0.0244086
3.86728 20.9142 4
6.12242 22.0046 2
8.35103 23.067 0.0359987
5.02406 18.75 2
7.20612 19.9794 0.0322746
6.31992 16.6661 0
9.28588 35.3117 3.97636
11.02 35.0442 2
12.817 34.3676 0.0233896
7.29308 37.2126 3.97643
9.48443 36.9978 2
11.4552 36.6351 0.0236043
9.84006 38.8128 0.0237543
7.52968 39.172 2
5.02868 39.4671 3.96917
7.86464 41.1824 0.0238395
5.30581 41.6084 2
2.85974 42.0022 3.9727
5.70341 43.7573 0.0308341
3.25021 44.2804 2
0.720592 44.8159 4
3.77201 46.5366 0.0288495
1.27778 47.2057 2
1.99014 49.554 0
9.3175 33.746 3.97632
10.6289 33.9377 2
7.79566 31.6593 3.97627
9.85096 32.2249 2
11.5269 33.0036 0.0237169
6.01404 29.0893 3.96653
8.37669 29.7654 2
10.5949 30.4789 0.0248008
4.36318 26.249 3.97045
6.68324 27.0354 2
9.0417 27.8177 0.0242715
2.85458 23.1494 4
5.17703 24.097 2
7.45797 25.0164 0.0343933
3.86728 20.9142 2
6.12195 22.0021 0.0308033
5.02411 18.75 0
7.23288 35.3277 3.97655
9.28733 35.3118 2
11.0207 35.0442 0.0239333
4.87264 37.3437 3.96875
7.29666 37.2125 2
9.48363 36.9976 0.0237316
7.52631 39.1723 0.0236115
5.02782 39.4668 2
2.60749 39.7143 3.9733
5.30641 41.6089 0.0306136
2.86074 42.0014 2
0.320823 42.3947 4
3.24951 44.2815 0.0279168
0.720551 44.8159 2
1.27781 47.2057 0
7.39434 33.4961 3.97668
9.31925 33.7462 2
10.6293 33.9377 0.024373
5.46871 31.1481 3.96698
7.79843 31.6599 2
9.84965 32.2247 0.0242393
3.68434 28.4458 3.97126
6.01156 29.0897 2
8.37417 29.7645 0.0239447
1.99015 25.446 4
4.36398 26.2501 2
6.6846 27.0347 0.0336842
2.85453 23.1494 2
5.17633 24.0954 0.0300679
3.86728 20.9142 0
4.88762 35.2588 3.96795
7.23547 35.3279 2
9.28588 35.3117 0.0236382
2.49892 37.4295 3.97398
4.87003 37.3436 2
7.29308 37.2126 0.0235718
5.02868 39.4671 0.0308303
2.60863 39.714 2
0.080333 39.9526 4
2.85974 42.0022 0.0273017
0.320817 42.3947 2
0.720592 44.8159 0
5.08982 33.2009 3.96727
7.39634 33.4965 2
9.3175 33.746 0.0236838
3.14842 30.6687 3.97225
5.46518 31.1484 2
7.79566 31.6593 0.0237262
1.27793 27.7943 4
3.68539 28.4467 2
6.01404 29.0893 0.0334737
1.99013 25.446 2
4.36318 26.249 0.0295456
2.85458 23.1494 0
2.55087 35.1608 3.97376
4.88531 35.259 2
7.23288 35.3277 0.0234501
0 37.5 4
2.49979 37.4295 2
4.87264 37.3437 0.031245
2.60749 39.7143 0.0266952
0.0802903 39.9526 2
0.320823 42.3947 0
2.76846 32.908 3.97347
5.08752 33.2012 2
7.39434 33.4961 0.02332
0.721173 30.1842 4
3.14976 30.6696 2
5.46871 31.1481 0.0330176
1.27779 27.7943 2
3.68434 28.4458 0.0287418
1.99015 25.446 0
0.0806499 35.0474 4
2.55229 35.1609 2
4.88762 35.2588 0.0320507
0 37.5 2
2.49892 37.4295 0.0260192
0.080333 39.9526 0
0.32156 32.6054 4
2.76941 32.9087 2
5.08982 33.2009 0.0327269
0.72056 30.1841 2
3.14842 30.6687 0.0277488
1.27793 27.7943 0
0.0802889 35.0474 2
2.55087 35.1608 0.0262437
0 37.5 0
0.320817 32.6053 2
2.76846 32.908 0.0265332
0.721173 30.1842 0
0.0806499 35.0474 0
0.32156 32.6054 0
CELLS 1910 17190
8 18 6 25 56 2 0 5 16
8 57 23 6 18 17 4 0 2
8 78 36 9 29 31 11 1 7
8 31 11 1 7 79 37 10 30
8 110 57 18 50 48 17 2 14
8 50 18 56 111 14 2 16 49
8 116 62 22 55 52 20 3 15
8 56 25 67 118 16 5 24 53
8 119 63 23 57 54 21 4 17
8 55 22 63 119 15 3 21 54
8 58 26 68 121 18 6 25 56
8 122 65 26 58 57 23 6 18
8 73 31 7 27 142 79 30 71
8 143 78 29 72 73 31 7 27
8 83 147 76 34 32 74 28 8
8 84 148 78 36 33 75 29 9
8 76 34 8 28 148 84 33 75
8 37 79 150 86 10 30 77 35
8 151 87 36 78 80 38 11 31
8 80 38 11 31 152 88 37 79
8 175 100 42 94 96 44 12 40
8 44 96 176 101 12 40 95 43
8 101 176 98 46 43 95 41 13
8 46 98 178 103 13 41 97 45
8 178 103 45 97 147 83 32 74
8 189 116 55 109 106 52 15 47
8 111 56 118 191 49 16 53 107
8 192 119 57 110 108 54 17 48
8 109 55 119 192 47 15 54 108
8 194 122 58 112 110 57 18 50
8 112 58 121 195 50 18 56 111
8 115 61 19 51 197 124 59 113
8 115 61 125 198 51 19 60 114
8 198 125 62 116 114 60 20 52
8 200 127 64 120 116 62 22 55
8 118 67 132 202 53 24 66 117
8 121 68 133 203 56 25 67 118
8 120 64 128 204 55 22 63 119
8 204 128 65 122 119 63 23 57
8 206 134 68 121 123 69 26 58
8 123 69 26 58 207 131 65 122
8 226 147 74 138 140 76 28 70
8 229 148 75 139 143 78 29 72
8 140 76 28 70 229 148 75 139
8 142 79 30 71 231 150 77 141
8 144 80 31 73 232 152 79 142
8 233 151 78 143 144 80 31 73
8 150 86 35 77 235 154 81 145
8 235 154 81 145 146 82 39 91
8 146 82 39 91 236 155 90 165
8 238 157 83 147 149 85 34 76
8 239 158 84 148 151 87 36 78
8 149 85 34 76 239 158 84 148
8 152 88 37 79 241 160 86 150
8 242 161 87 151 153 89 38 80
8 153 89 38 80 243 162 88 152
8 171 98 41 92 265 178 97 169
8 265 178 97 169 226 147 74 138
8 172 96 40 93 266 176 95 170
8 266 176 95 170 171 98 41 92
8 269 175 94 173 172 96 40 93
8 271 180 99 174 175 100 42 94
8 197 124 59 113 271 180 99 174
8 272 181 100 175 177 102 44 96
8 273 182 101 176 179 104 46 98
8 177 102 44 96 273 182 101 176
8 179 104 46 98 275 184 103 178
8 275 184 103 178 238 157 83 147
8 188 115 51 105 283 197 113 186
8 188 115 198 284 105 51 114 187
8 284 198 116 189 187 114 52 106
8 286 200 120 193 189 116 55 109
8 191 118 202 288 107 53 117 190
8 195 121 203 289 111 56 118 191
8 193 120 204 290 109 55 119 192
8 290 204 122 194 192 119 57 110
8 196 123 58 112 292 207 122 194
8 293 206 121 195 196 123 58 112
8 199 126 61 115 297 211 124 197
8 298 212 127 200 198 125 62 116
8 199 126 212 298 115 61 125 198
8 205 129 64 120 300 214 127 200
8 301 217 130 201 202 132 66 117
8 209 136 168 264 301 217 130 201
8 302 219 132 202 203 133 67 118
8 303 220 133 203 206 134 68 121
8 205 129 215 304 120 64 128 204
8 304 215 131 207 204 128 65 122
8 306 221 134 206 208 135 69 123
8 208 135 69 123 307 218 131 207
8 210 137 167 263 309 223 136 209
8 328 238 147 226 230 149 76 140
8 228 146 91 166 329 236 165 260
8 231 150 77 141 330 235 145 227
8 330 235 145 227 228 146 91 166
8 332 239 148 229 233 151 78 143
8 230 149 76 140 332 239 148 229
8 232 152 79 142 334 241 150 231
8 234 153 80 144 335 243 152 232
8 336 242 151 233 234 153 80 144
8 236 155 90 165 338 245 164 259
8 241 160 86 150 339 246 154 235
8 339 246 154 235 237 156 82 146
8 237 156 82 146 340 247 155 236
8 342 249 157 238 240 159 85 149
8 343 250 158 239 242 161 87 151
8 240 159 85 149 343 250 158 239
8 243 162 88 152 345 252 160 241
8 244 163 253 346 153 89 161 242
8 244 163 89 153 347 254 162 243
8 311 224 261 371 210 137 167 263
8 263 167 262 372 209 136 168 264
8 267 179 98 171 375 275 178 265
8 375 275 178 265 328 238 147 226
8 376 273 176 266 267 179 98 171
8 268 177 96 172 376 273 176 266
8 379 272 175 269 268 177 96 172
8 380 271 174 270 269 175 94 173
8 283 197 113 186 380 271 174 270
8 381 277 180 271 272 181 100 175
8 297 211 124 197 381 277 180 271
8 382 278 181 272 274 183 102 177
8 274 183 102 177 383 279 182 273
8 383 279 182 273 276 185 104 179
8 385 281 184 275 342 249 157 238
8 276 185 104 179 385 281 184 275
8 285 199 115 188 393 297 197 283
8 394 298 200 286 284 198 116 189
8 285 199 298 394 188 115 198 284
8 291 205 120 193 396 300 200 286
8 397 301 201 287 288 202 117 190
8 295 209 264 374 397 301 201 287
8 398 302 202 288 289 203 118 191
8 399 303 203 289 293 206 121 195
8 291 205 304 400 193 120 204 290
8 400 304 207 292 290 204 122 194
8 294 208 123 196 402 307 207 292
8 403 306 206 293 294 208 123 196
8 296 210 263 373 405 309 209 295
8 408 312 213 299 297 211 126 199
8 299 213 313 409 199 126 212 298
8 409 313 214 300 298 212 127 200
8 305 216 129 205 411 315 214 300
8 412 318 217 301 302 219 132 202
8 309 223 136 209 412 318 217 301
8 413 320 219 302 303 220 133 203
8 306 221 321 414 206 134 220 303
8 307 218 131 207 415 316 215 304
8 305 216 316 415 205 129 215 304
8 417 322 221 306 308 222 135 208
8 308 222 135 208 418 319 218 307
8 310 225 137 210 420 325 223 309
8 423 326 224 311 310 225 137 210
8 329 236 165 260 441 338 259 368
8 442 342 238 328 333 240 149 230
8 331 237 146 228 443 340 236 329
8 334 241 150 231 444 339 235 330
8 444 339 235 330 331 237 146 228
8 446 343 239 332 336 242 151 233
8 333 240 149 230 446 343 239 332
8 335 243 152 232 448 345 241 334
8 337 244 153 234 449 347 243 335
8 337 244 346 450 234 153 242 336
8 338 245 164 259 452 349 258 367
8 340 247 155 236 453 350 245 338
8 345 252 160 241 454 351 246 339
8 454 351 246 339 341 248 156 237
8 341 248 156 237 455 352 247 340
8 240 159 251 344 342 249 354 457
8 242 161 253 346 343 250 355 458
8 343 250 355 458 240 159 251 344
8 347 254 162 243 460 357 252 345
8 348 255 358 461 244 163 253 346
8 348 255 163 244 462 359 254 347
8 473 360 257 365 363 256 364 482
8 452 349 258 367 365 257 366 485
8 422 324 369 488 311 224 261 371
8 371 261 370 490 263 167 262 372
8 407 311 371 491 296 210 263 373
8 373 263 372 492 295 209 264 374
8 493 385 275 375 442 342 238 328
8 377 276 179 267 493 385 275 375
8 378 274 177 268 494 383 273 376
8 494 383 273 376 377 276 179 267
8 497 382 272 379 378 274 177 268
8 498 381 271 380 379 272 175 269
8 393 297 197 283 498 381 271 380
8 499 387 277 381 382 278 181 272
8 408 312 211 297 499 387 277 381
8 500 388 278 382 384 280 183 274
8 501 389 279 383 386 282 185 276
8 384 280 183 274 501 389 279 383
8 386 282 185 276 503 391 281 385
8 503 391 281 385 457 354 249 342
8 511 408 299 395 393 297 199 285
8 395 299 409 512 285 199 298 394
8 512 409 300 396 394 298 200 286
8 401 305 205 291 514 411 300 396
8 515 412 301 397 398 302 202 288
8 405 309 209 295 515 412 301 397
8 516 413 302 398 399 303 203 289
8 403 306 414 517 293 206 303 399
8 402 307 207 292 518 415 304 400
8 401 305 415 518 291 205 304 400
8 404 308 208 294 520 418 307 402
8 521 417 306 403 404 308 208 294
8 406 310 210 296 523 420 309 405
8 526 423 311 407 406 310 210 296
8 410 314 213 299 527 424 312 408
8 528 425 315 411 409 313 214 300
8 410 314 425 528 299 213 313 409
8 416 317 216 305 530 427 315 411
8 531 430 318 412 413 320 219 302
8 420 325 223 309 531 430 318 412
8 532 432 320 413 414 321 220 303
8 417 322 433 533 306 221 321 414
8 418 319 218 307 534 428 316 415
8 416 317 428 534 305 216 316 415
8 419 323 434 536 308 222 322 417
8 419 323 222 308 537 431 319 418
8 421 327 225 310 539 438 325 420
8 421 327 439 541 310 225 326 423
8 543 437 324 422 423 326 224 311
8 441 338 259 368 559 452 367 486
8 443 340 236 329 560 453 338 441
8 333 240 344 447 442 342 457 561
8 445 341 237 331 562 455 340 443
8 448 345 241 334 563 454 339 444
8 563 454 339 444 445 341 237 331
8 336 242 346 450 446 343 458 565
8 446 343 458 565 333 240 344 447
8 449 347 243 335 567 460 345 448
8 451 348 244 337 568 462 347 449
8 451 348 461 569 337 244 346 450
8 570 463 349 452 473 360 257 365
8 453 350 245 338 570 463 349 452
8 455 352 247 340 571 464 350 453
8 460 357 252 345 572 465 351 454
8 572 465 351 454 456 353 248 341
8 456 353 248 341 573 466 352 455
8 344 251 356 459 457 354 468 575
8 458 355 469 576 344 251 356 459
8 346 253 358 461 458 355 469 576
8 462 359 254 347 578 471 357 460
8 348 255 359 462 461 358 472 579
8 591 474 360 473 475 361 256 363
8 475 361 256 363 594 477 362 479
8 363 256 364 482 479 362 480 603
8 590 473 365 484 481 363 482 605
8 482 364 257 365 606 483 366 485
8 559 452 367 486 484 365 485 607
8 542 436 487 609 422 324 369 488
8 525 422 488 611 407 311 371 491
8 488 369 489 612 371 261 370 490
8 491 371 490 613 373 263 372 492
8 495 386 276 377 614 503 385 493
8 614 503 385 493 561 457 342 442
8 615 501 383 494 495 386 276 377
8 496 384 274 378 615 501 383 494
8 618 500 382 497 496 384 274 378
8 619 499 381 498 497 382 272 379
8 511 408 297 393 619 499 381 498
8 620 505 387 499 500 388 278 382
8 527 424 312 408 620 505 387 499
8 502 390 506 621 384 280 388 500
8 622 507 389 501 504 392 282 386
8 502 390 280 384 622 507 389 501
8 504 392 282 386 624 509 391 503
8 624 509 391 503 575 468 354 457
8 513 410 299 395 630 527 408 511
8 631 528 411 514 512 409 300 396
8 513 410 528 631 395 299 409 512
8 519 416 305 401 633 530 411 514
8 634 531 412 515 516 413 302 398
8 523 420 309 405 634 531 412 515
8 635 532 413 516 517 414 303 399
8 521 417 533 636 403 306 414 517
8 520 418 307 402 637 534 415 518
8 519 416 534 637 401 305 415 518
8 522 419 308 404 639 537 418 520
8 522 419 536 640 404 308 417 521
8 524 421 310 406 642 539 420 523
8 524 421 541 644 406 310 423 526
8 646 543 422 525 526 423 311 407
8 529 426 314 410 647 544 424 527
8 528 425 545 648 411 315 427 530
8 529 426 545 648 410 314 425 528
8 535 429 317 416 649 546 427 530
8 650 548 430 531 532 432 320 413
8 539 438 325 420 650 548 430 531
8 533 433 550 651 414 321 432 532
8 536 434 551 652 417 322 433 533
8 537 431 319 418 653 547 428 534
8 535 429 547 653 416 317 428 534
8 538 435 552 654 419 323 434 536
8 538 435 323 419 655 549 431 537
8 540 440 327 421 657 556 438 539
8 540 440 557 659 421 327 439 541
8 541 439 555 660 423 326 437 543
8 661 554 436 542 543 437 324 422
8 676 570 452 559 590 473 365 484
8 560 453 338 441 676 570 452 559
8 562 455 340 443 677 571 453 560
8 447 344 459 566 561 457 575 678
8 564 456 341 445 679 573 455 562
8 567 460 345 448 680 572 454 563
8 680 572 454 563 564 456 341 445
8 565 458 576 682 447 344 459 566
8 450 346 461 569 565 458 576 682
8 568 462 347 449 684 578 460 567
8 451 348 462 568 569 461 579 685
8 686 580 463 570 591 474 360 473
8 571 464 350 453 686 580 463 570
8 573 466 352 455 687 581 464 571
8 572 465 582 688 460 357 471 578
8 574 467 582 688 456 353 465 572
8 574 467 353 456 689 583 466 573
8 459 356 470 577 575 468 585 691
8 576 469 586 692 459 356 470 577
8 461 358 472 579 576 469 586 692
8 462 359 471 578 579 472 588 694
8 704 591 473 590 593 475 363 481
8 595 476 592 705 475 361 474 591
8 593 475 363 481 707 594 479 602
8 594 477 362 479 709 598 478 600
8 595 476 361 475 711 597 477 594
8 479 362 480 603 600 478 601 720
8 481 363 482 605 602 479 603 722
8 603 480 364 482 723 604 483 606
8 605 482 365 484 724 606 485 607
8 656 553 608 726 542 436 487 609
8 645 542 609 728 525 422 488 611
8 609 487 610 729 488 369 489 612
8 611 488 612 730 491 371 490 613
8 616 504 386 495 731 624 503 614
8 731 624 503 614 678 575 457 561
8 732 622 501 615 616 504 386 495
8 617 502 384 496 732 622 501 615
8 617 502 621 735 496 384 500 618
8 736 620 499 619 618 500 382 497
8 630 527 408 511 736 620 499 619
8 621 506 626 737 500 388 505 620
8 647 544 424 527 737 626 505 620
8 623 508 627 738 502 390 506 621
8 623 508 390 502 739 628 507 622
8 625 510 628 739 504 392 507 622
8 740 629 509 624 691 585 468 575
8 625 510 392 504 740 629 509 624
8 632 529 410 513 744 647 527 630
8 631 528 648 745 514 411 530 633
8 632 529 648 745 513 410 528 631
8 638 535 416 519 746 649 530 633
8 747 650 531 634 635 532 413 516
8 642 539 420 523 747 650 531 634
8 636 533 651 748 517 414 532 635
8 640 536 652 749 521 417 533 636
8 639 537 418 520 750 653 534 637
8 638 535 653 750 519 416 534 637
8 641 538 419 522 751 655 537 639
8 641 538 654 752 522 419 536 640
8 643 540 421 524 753 657 539 642
8 643 540 659 755 524 421 541 644
8 644 541 660 757 526 423 543 646
8 758 661 542 645 646 543 422 525
8 529 426 544 647 648 545 662 759
8 530 427 545 648 649 546 663 760
8 535 429 546 649 653 547 664 761
8 762 666 548 650 651 550 432 532
8 657 556 438 539 762 666 548 650
8 652 551 668 763 533 433 550 651
8 654 552 669 764 536 434 551 652
8 655 549 431 537 765 665 547 653
8 538 435 549 655 654 552 667 766
8 661 554 671 768 542 436 553 656
8 658 558 440 540 769 674 556 657
8 658 558 675 770 540 440 557 659
8 659 557 673 771 541 439 555 660
8 660 555 672 772 543 437 554 661
8 788 686 570 676 704 591 473 590
8 677 571 453 560 788 686 570 676
8 679 573 455 562 789 687 571 677
8 566 459 577 683 678 575 691 790
8 681 574 456 564 791 689 573 679
8 680 572 688 792 567 460 578 684
8 681 574 688 792 564 456 572 680
8 682 576 692 794 566 459 577 683
8 569 461 579 685 682 576 692 794
8 568 462 578 684 685 579 694 796
8 687 581 464 571 798 696 580 686
8 798 696 580 686 705 592 474 591
8 689 583 466 573 799 697 581 687
8 688 582 698 800 578 471 588 694
8 690 584 698 800 574 467 582 688
8 690 584 467 574 801 699 583 689
8 693 587 701 803 577 470 585 691
8 693 587 470 577 804 702 586 692
8 695 589 702 804 579 472 586 692
8 695 589 472 579 805 703 588 694
8 708 595 705 813 593 475 591 704
8 710 596 706 814 595 476 592 705
8 707 594 479 602 816 709 600 719
8 708 595 475 593 817 711 594 707
8 709 598 478 600 819 715 599 717
8 711 597 477 594 820 714 598 709
8 710 596 476 595 822 713 597 711
8 600 478 601 720 717 599 718 832
8 602 479 603 722 719 600 720 834
8 720 601 480 603 835 721 604 723
8 722 603 482 605 836 723 606 724
8 767 670 725 839 656 553 608 726
8 756 656 726 841 645 542 609 728
8 726 608 727 842 609 487 610 729
8 728 609 729 843 611 488 612 730
8 844 740 624 731 790 691 575 678
8 733 625 504 616 844 740 624 731
8 734 623 502 617 845 739 622 732
8 733 625 739 845 616 504 622 732
8 734 623 738 846 617 502 621 735
8 735 621 737 847 618 500 620 736
8 744 647 527 630 847 737 620 736
8 621 506 627 738 737 626 741 848
8 647 544 626 737 759 662 741 848
8 623 508 628 739 738 627 742 849
8 740 629 585 691 850 743 700 802
8 625 510 629 740 739 628 743 850
8 632 529 647 744 745 648 759 854
8 633 530 648 745 746 649 760 855
8 638 535 649 746 750 653 761 856
8 857 762 650 747 748 651 532 635
8 753 657 539 642 857 762 650 747
8 749 652 763 858 636 533 651 748
8 752 654 764 859 640 536 652 749
8 751 655 537 639 860 765 653 750
8 641 538 655 751 752 654 766 861
8 754 658 540 643 862 769 657 753
8 754 658 770 863 643 540 659 755
8 755 659 771 864 644 541 660 757
8 758 661 768 866 645 542 656 756
8 757 660 772 867 646 543 661 758
8 759 662 773 868 648 545 663 760
8 649 546 663 760 761 664 774 871
8 765 665 547 653 872 775 664 761
8 873 777 666 762 763 668 550 651
8 769 674 556 657 873 777 666 762
8 764 669 779 874 652 551 668 763
8 654 552 667 766 764 669 778 875
8 655 549 665 765 766 667 776 876
8 768 671 782 877 656 553 670 767
8 772 672 783 878 661 554 671 768
8 658 558 674 769 770 675 786 879
8 659 557 675 770 771 673 785 881
8 882 784 672 772 771 673 555 660
8 789 687 571 677 897 798 686 788
8 897 798 686 788 813 705 591 704
8 791 689 573 679 898 799 687 789
8 795 693 803 900 683 577 691 790
8 793 690 574 681 901 801 689 791
8 792 688 800 902 684 578 694 796
8 793 690 800 902 681 574 688 792
8 795 693 577 683 903 804 692 794
8 797 695 804 903 685 579 692 794
8 797 695 579 685 904 805 694 796
8 905 806 697 799 798 696 581 687
8 814 706 806 905 705 592 696 798
8 689 583 697 799 801 699 808 907
8 800 698 809 908 694 588 703 805
8 690 584 699 801 800 698 809 908
8 803 701 810 909 691 585 700 802
8 693 587 702 804 803 701 811 910
8 695 589 703 805 804 702 812 911
8 818 710 814 919 708 595 705 813
8 821 712 815 920 710 596 706 814
8 816 709 600 719 922 819 717 831
8 817 711 594 707 923 820 709 816
8 818 710 595 708 924 822 711 817
8 819 715 599 717 926 827 716 829
8 820 714 598 709 927 826 715 819
8 929 825 713 822 820 714 597 711
8 821 712 596 710 930 824 713 822
8 717 599 718 832 829 716 830 942
8 719 600 720 834 831 717 832 944
8 832 718 601 720 945 833 721 835
8 834 720 603 722 946 835 723 836
8 869 780 838 950 767 670 725 839
8 865 767 839 952 756 656 726 841
8 839 725 840 953 726 608 727 842
8 841 726 842 954 728 609 729 843
8 844 740 691 790 955 850 802 899
8 733 625 740 844 845 739 850 955
8 734 623 739 845 846 738 849 956
8 735 621 738 846 847 737 848 957
8 744 647 737 847 854 759 848 957
8 738 627 742 849 848 741 851 958
8 848 741 851 958 759 662 773 868
8 850 743 700 802 959 852 807 906
8 849 742 628 739 959 852 743 850
8 854 759 868 965 745 648 760 855
8 746 649 760 855 856 761 871 966
8 860 765 653 750 967 872 761 856
8 968 873 762 857 858 763 651 748
8 862 769 657 753 968 873 762 857
8 859 764 874 969 749 652 763 858
8 752 654 766 861 859 764 875 970
8 751 655 765 860 861 766 876 971
8 754 658 769 862 863 770 879 972
8 755 659 770 863 864 771 881 974
8 976 882 772 867 864 771 660 757
8 866 768 877 977 756 656 767 865
8 867 772 878 978 758 661 768 866
8 760 663 773 868 871 774 883 980
8 870 781 837 948 982 890 780 869
8 982 890 780 869 877 782 670 767
8 761 664 774 871 872 775 884 984
8 876 776 665 765 985 885 775 872
8 873 777 668 763 986 887 779 874
8 769 674 777 873 879 786 887 986
8 764 669 778 875 874 779 888 987
8 766 667 776 876 875 778 886 988
8 878 783 892 989 768 671 782 877
8 878 783 672 772 990 893 784 882
8 880 787 675 770 991 896 786 879
8 880 787 895 992 770 675 785 881
8 881 785 894 993 771 673 784 882
8 1006 905 799 898 897 798 687 789
8 919 814 905 1006 813 705 798 897
8 791 689 799 898 901 801 907 1007
8 900 803 909 1009 790 691 802 899
8 795 693 804 903 900 803 910 1010
8 902 800 908 1011 796 694 805 904
8 793 690 801 901 902 800 908 1011
8 797 695 805 904 903 804 911 1012
8 799 697 806 905 907 808 912 1013
8 920 815 912 1013 814 706 806 905
8 802 700 810 909 906 807 913 1014
8 801 699 808 907 908 809 914 1015
8 805 703 809 908 911 812 915 1016
8 803 701 811 910 909 810 916 1017
8 911 812 917 1018 804 702 811 910
8 925 821 920 1030 818 710 814 919
8 928 823 921 1031 821 712 815 920
8 922 819 717 831 1033 926 829 941
8 923 820 709 816 1034 927 819 922
8 1035 929 822 924 923 820 711 817
8 925 821 710 818 1036 930 822 924
8 1038 933 825 929 927 826 714 820
8 926 827 716 829 1039 935 828 939
8 927 826 715 819 1040 934 827 926
8 928 823 712 821 1041 931 824 930
8 1042 932 824 930 929 825 713 822
8 829 716 830 942 939 828 940 1058
8 831 717 832 944 941 829 942 1060
8 942 830 718 832 1061 943 833 945
8 944 832 720 834 1062 945 835 946
8 981 889 947 1064 870 781 837 948
8 948 837 949 1067 869 780 838 950
8 975 869 950 1069 865 767 839 952
8 950 838 951 1070 839 725 840 953
8 952 839 953 1071 841 726 842 954
8 955 850 802 899 1072 959 906 1008
8 956 849 739 845 1072 959 850 955
8 846 738 849 956 957 848 958 1073
8 957 848 958 1073 854 759 868 965
8 849 742 852 959 958 851 961 1076
8 960 853 961 1076 906 807 852 959
8 958 851 961 1076 868 773 883 980
8 960 853 807 906 1077 963 913 1014
8 855 760 868 965 966 871 980 1085
8 856 761 871 966 967 872 984 1086
8 971 876 765 860 1087 985 872 967
8 968 873 763 858 1088 986 874 969
8 862 769 873 968 972 879 986 1088
8 859 764 875 970 969 874 987 1089
8 861 766 876 971 970 875 988 1090
8 973 880 770 863 1091 991 879 972
8 973 880 992 1092 863 770 881 974
8 974 881 993 1093 864 771 882 976
8 979 870 948 1066 1094 982 869 975
8 1094 982 869 975 977 877 767 865
8 978 878 772 867 1095 990 882 976
8 978 878 989 1096 866 768 877 977
8 871 774 883 980 984 884 994 1099
8 983 891 999 1100 870 781 889 981
8 1101 1000 890 982 989 892 782 877
8 983 891 781 870 1101 1000 890 982
8 872 775 884 984 985 885 995 1103
8 876 776 885 985 988 886 996 1104
8 986 887 779 874 1105 998 888 987
8 879 786 887 986 991 896 998 1105
8 875 778 886 988 987 888 997 1106
8 990 893 1002 1107 878 783 892 989
8 1108 1003 893 990 993 894 784 882
8 880 787 896 991 992 895 1005 1109
8 993 894 785 881 1110 1004 895 992
8 898 799 905 1006 1007 907 1013 1120
8 1030 920 1013 1120 919 814 905 1006
8 901 801 907 1007 1011 908 1015 1121
8 899 802 909 1009 1008 906 1014 1122
8 900 803 910 1010 1009 909 1017 1123
8 1012 911 1018 1124 903 804 910 1010
8 904 805 908 1011 1012 911 1016 1125
8 1013 912 1020 1127 907 808 914 1015
8 1031 921 1020 1127 920 815 912 1013
8 1019 918 962 1075 1128 1021 913 1014
8 1128 1021 913 1014 1017 916 810 909
8 1015 914 1022 1129 908 809 915 1016
8 1016 915 1023 1130 911 812 917 1018
8 1018 917 1024 1131 910 811 916 1017
8 1037 928 1031 1148 925 821 920 1030
8 928 823 931 1041 1031 921 1032 1149
8 1033 926 829 941 1151 1039 939 1057
8 1034 927 819 922 1152 1040 926 1033
8 1153 1038 929 1035 1034 927 820 923
8 1154 1042 930 1036 1035 929 822 924
8 1037 928 821 925 1155 1041 930 1036
8 1039 935 828 939 1156 1047 938 1055
8 1157 1043 932 1042 1038 933 825 929
8 1038 933 826 927 1158 1045 934 1040
8 1040 934 827 926 1159 1046 935 1039
8 930 824 932 1042 1041 931 1044 1160
8 1051 936 1048 1165 1175 1052 937 1053
8 1156 1047 938 1055 1053 937 1054 1178
8 939 828 940 1058 1055 938 1056 1181
8 941 829 942 1060 1057 939 1058 1183
8 942 830 943 1061 1058 940 1059 1184
8 1060 942 832 944 1185 1061 945 1062
8 1082 964 1063 1188 981 889 947 1064
8 1097 981 1064 1190 979 870 948 1066
8 1064 947 1065 1191 948 837 949 1067
8 1066 948 1067 1193 975 869 950 1069
8 1067 949 1068 1194 950 838 951 1070
8 1069 950 1070 1195 952 839 953 1071
8 956 849 959 1072 1073 958 1076 1197
8 1074 960 1076 1197 1008 906 959 1072
8 1073 958 1076 1197 965 868 980 1085
8 1074 960 906 1008 1198 1077 1014 1122
8 1133 1026 1079 1199 1019 918 962 1075
8 1077 963 913 1014 1200 1080 962 1075
8 960 853 963 1077 1076 961 1078 1201
8 980 883 961 1076 1099 994 1078 1201
8 1210 1083 964 1082 1100 999 889 981
8 966 871 980 1085 1086 984 1099 1215
8 967 872 984 1086 1087 985 1103 1216
8 971 876 985 1087 1090 988 1104 1217
8 1088 986 874 969 1218 1105 987 1089
8 972 879 986 1088 1091 991 1105 1218
8 970 875 988 1090 1089 987 1106 1219
8 973 880 991 1091 1092 992 1109 1220
8 1093 993 881 974 1221 1110 992 1092
8 1222 1108 990 1095 1093 993 882 976
8 1223 1101 982 1094 1096 989 877 977
8 1098 983 870 979 1223 1101 982 1094
8 1095 990 1107 1224 978 878 989 1096
8 1098 983 1100 1225 979 870 981 1097
8 984 884 994 1099 1103 995 1111 1227
8 1102 1001 1115 1228 983 891 999 1100
8 1101 1000 892 989 1229 1116 1002 1107
8 1102 1001 891 983 1229 1116 1000 1101
8 985 885 995 1103 1104 996 1112 1230
8 988 886 996 1104 1106 997 1113 1231
8 1105 998 888 987 1232 1114 997 1106
8 991 896 998 1105 1109 1005 1114 1232
8 1108 1003 1117 1233 990 893 1002 1107
8 1108 1003 894 993 1233 1117 1004 1110
8 992 895 1005 1109 1110 1004 1118 1234
8 1120 1013 1127 1244 1007 907 1015 1121
8 1148 1031 1127 1244 1030 920 1013 1120
8 1121 1015 1129 1245 1011 908 1016 1125
8 1126 1019 1075 1196 1246 1128 1014 1122
8 1246 1128 1014 1122 1123 1017 909 1009
8 1124 1018 1131 1247 1010 910 1017 1123
8 1125 1016 1130 1248 1012 911 1018 1124
8 1127 1020 1137 1254 1015 914 1022 1129
8 1031 921 1032 1149 1127 1020 1137 1254
8 1134 1027 918 1019 1257 1140 1021 1128
8 1257 1140 1021 1128 1131 1024 916 1017
8 1129 1022 1141 1258 1016 915 1023 1130
8 1130 1023 1142 1259 1018 917 1024 1131
8 1261 1144 1025 1132 1133 1026 1079 1199
8 1255 1138 1025 1132 1135 1028 1144 1261
8 1133 1026 918 1019 1262 1145 1027 1134
8 1136 1029 1139 1256 1263 1146 1028 1135
8 1037 928 1041 1155 1148 1031 1149 1275
8 1041 931 1044 1160 1149 1032 1150 1276
8 1151 1039 939 1057 1278 1156 1055 1180
8 1152 1040 926 1033 1279 1159 1039 1151
8 1153 1038 927 1034 1280 1158 1040 1152
8 1281 1157 1042 1154 1153 1038 929 1035
8 1036 930 1042 1154 1155 1041 1160 1282
8 1283 1164 1046 1159 1156 1047 935 1039
8 1165 1048 1164 1283 1053 937 1047 1156
8 1157 1043 933 1038 1284 1161 1045 1158
8 1157 1043 1161 1284 1042 932 1044 1160
8 1040 934 1046 1159 1158 1045 1163 1285
8 1166 1049 1167 1292 1051 936 1048 1165
8 1166 1049 936 1051 1293 1168 1050 1172
8 1051 936 1052 1175 1172 1050 1173 1306
8 1174 1051 1165 1290 1308 1175 1053 1177
8 1053 937 1054 1178 1175 1052 1176 1309
8 1278 1156 1055 1180 1177 1053 1178 1311
8 1055 938 1056 1181 1178 1054 1179 1312
8 1057 939 1058 1183 1180 1055 1181 1314
8 1058 940 1059 1184 1181 1056 1182 1315
8 1060 942 1061 1185 1183 1058 1184 1316
8 1208 1081 1187 1321 1082 964 1063 1188
8 1209 1082 1188 1322 1097 981 1064 1190
8 1188 1063 1189 1323 1064 947 1065 1191
8 1190 1064 1191 1325 1066 948 1067 1193
8 1191 1065 1192 1326 1067 949 1068 1194
8 1067 1193 1069 950 1194 1327 1195 1070
8 1250 1133 1199 1330 1126 1019 1075 1196
8 1198 1077 1014 1122 1331 1200 1075 1196
8 1074 960 1077 1198 1197 1076 1201 1332
8 1085 980 1076 1197 1215 1099 1201 1332
8 1199 1079 1203 1333 1075 962 1080 1200
8 1132 1025 1119 1243 1199 1079 1203 1333
8 1201 1078 963 1077 1334 1202 1080 1200
8 1099 994 1078 1201 1227 1111 1202 1334
8 1343 1207 1081 1208 1210 1083 964 1082
8 1214 1084 1186 1319 1343 1207 1081 1208
8 1345 1210 1082 1209 1225 1100 981 1097
8 1346 1211 1083 1210 1228 1115 999 1100
8 1086 984 1099 1215 1216 1103 1227 1352
8 1087 985 1103 1216 1217 1104 1230 1353
8 1090 988 1104 1217 1219 1106 1231 1354
8 1218 1105 987 1089 1355 1232 1106 1219
8 1091 991 1105 1218 1220 1109 1232 1355
8 1092 992 1109 1220 1221 1110 1234 1356
8 1222 1108 1233 1357 1095 990 1107 1224
8 1222 1108 993 1093 1357 1233 1110 1221
8 1223 1101 989 1096 1358 1229 1107 1224
8 1226 1102 983 1098 1358 1229 1101 1223
8 1226 1102 1228 1359 1098 983 1100 1225
8 1103 995 1111 1227 1230 1112 1235 1360
8 1107 1002 1117 1233 1229 1116 1240 1362
8 1102 1001 1116 1229 1228 1115 1240 1362
8 1104 996 1112 1230 1231 1113 1236 1363
8 1364 1237 1114 1232 1231 1113 997 1106
8 1109 1005 1114 1232 1234 1118 1238 1365
8 1110 1004 1118 1234 1233 1117 1241 1366
8 1242 1374 1255 1138 1119 1243 1132 1025
8 1244 1127 1254 1376 1121 1015 1129 1245
8 1148 1031 1149 1275 1244 1127 1254 1376
8 1245 1129 1258 1377 1125 1016 1130 1248
8 1251 1134 1019 1126 1378 1257 1128 1246
8 1378 1257 1128 1246 1247 1131 1017 1123
8 1248 1130 1259 1379 1124 1018 1131 1247
8 1261 1381 1250 1133 1132 1249 1330 1199
8 1255 1380 1252 1135 1132 1249 1381 1261
8 1250 1133 1019 1126 1382 1262 1134 1251
8 1253 1136 1256 1385 1384 1263 1135 1252
8 1254 1137 1265 1387 1129 1022 1141 1258
8 1149 1032 1150 1276 1254 1137 1265 1387
8 1028 1135 1255 1138 1139 1256 1388 1266
8 1136 1029 1147 1264 1256 1139 1267 1389
8 1390 1268 1140 1257 1259 1142 1024 1131
8 1260 1143 1027 1134 1390 1268 1140 1257
8 1258 1141 1269 1391 1130 1023 1142 1259
8 1262 1145 1027 1134 1393 1271 1143 1260
8 1261 1144 1026 1133 1394 1272 1145 1262
8 1135 1028 1144 1261 1263 1146 1272 1394
8 1136 1029 1146 1263 1264 1147 1273 1395
8 1155 1041 1160 1282 1275 1149 1276 1405
8 1276 1150 1044 1160 1406 1277 1162 1286
8 1408 1283 1159 1279 1278 1156 1039 1151
8 1290 1165 1283 1408 1177 1053 1156 1278
8 1152 1040 1159 1279 1280 1158 1285 1409
8 1281 1157 1038 1153 1410 1284 1158 1280
8 1281 1157 1284 1410 1154 1042 1160 1282
8 1159 1046 1164 1283 1285 1163 1289 1412
8 1292 1167 1289 1412 1165 1048 1164 1283
8 1158 1045 1163 1285 1284 1161 1288 1413
8 1284 1161 1288 1413 1160 1044 1162 1286
8 1291 1166 1292 1418 1174 1051 1165 1290
8 1291 1166 1051 1174 1419 1293 1172 1305
8 1294 1169 1296 1421 1166 1049 1167 1292
8 1293 1168 1050 1172 1422 1295 1171 1303
8 1294 1169 1049 1166 1423 1297 1168 1293
8 1422 1295 1171 1303 1301 1170 1302 1435
8 1172 1050 1173 1306 1303 1171 1304 1438
8 1174 1051 1175 1308 1305 1172 1306 1440
8 1175 1052 1176 1309 1306 1173 1307 1441
8 1177 1053 1178 1311 1308 1175 1309 1443
8 1178 1054 1179 1312 1309 1176 1310 1444
8 1180 1055 1181 1314 1311 1178 1312 1446
8 1056 1181 1312 1179 1182 1315 1447 1313
8 1183 1058 1184 1316 1314 1181 1315 1448
8 1319 1186 1084 1214 1451 1317 1213 1350
8 1319 1186 1318 1453 1208 1081 1187 1321
8 1321 1187 1320 1456 1188 1063 1189 1323
8 1344 1208 1321 1457 1209 1082 1188 1322
8 1322 1188 1323 1458 1190 1064 1191 1325
8 1323 1189 1324 1459 1191 1065 1192 1326
8 1191 1325 1193 1067 1326 1460 1327 1194
8 1242 1374 1243 1119 1328 1462 1335 1204
8 1330 1199 1333 1465 1196 1075 1200 1331
8 1132 1249 1330 1199 1243 1375 1465 1333
8 1332 1201 1077 1198 1466 1334 1200 1331
8 1215 1099 1201 1332 1352 1227 1334 1466
8 1119 1243 1333 1203 1204 1335 1470 1338
8 1333 1203 1338 1470 1200 1080 1202 1334
8 1227 1111 1202 1334 1360 1235 1338 1470
8 1328 1462 1335 1204 1205 1336 1471 1339
8 1337 1206 1340 1472 1464 1329 1205 1336
8 1346 1211 1342 1479 1210 1083 1207 1343
8 1346 1211 1115 1228 1479 1342 1239 1361
8 1348 1212 1084 1214 1479 1342 1207 1343
8 1480 1343 1208 1344 1345 1210 1082 1209
8 1351 1214 1319 1454 1480 1343 1208 1344
8 1481 1346 1210 1345 1359 1228 1100 1225
8 1348 1212 1347 1483 1214 1084 1213 1350
8 1216 1103 1227 1352 1353 1230 1360 1488
8 1217 1104 1230 1353 1354 1231 1363 1489
8 1490 1364 1232 1355 1354 1231 1106 1219
8 1220 1109 1232 1355 1356 1234 1365 1491
8 1221 1110 1234 1356 1357 1233 1366 1492
8 1224 1107 1233 1357 1358 1229 1362 1493
8 1226 1102 1229 1358 1359 1228 1362 1493
8 1230 1112 1235 1360 1363 1236 1367 1496
8 1361 1239 1115 1228 1497 1371 1240 1362
8 1366 1241 1372 1498 1233 1117 1240 1362
8 1364 1237 1113 1231 1499 1368 1236 1363
8 1364 1237 1368 1499 1232 1114 1238 1365
8 1234 1118 1238 1365 1366 1241 1369 1500
8 1507 1373 1242 1374 1388 1266 1138 1255
8 1508 1374 1243 1375 1380 1255 1132 1249
8 1376 1254 1387 1509 1245 1129 1258 1377
8 1275 1149 1276 1405 1376 1254 1387 1509
8 1377 1258 1391 1510 1248 1130 1259 1379
8 1511 1390 1257 1378 1379 1259 1131 1247
8 1383 1260 1134 1251 1511 1390 1257 1378
8 1252 1135 1256 1385 1380 1255 1388 1512
8 1261 1381 1513 1394 1133 1250 1382 1262
8 1135 1252 1384 1263 1261 1381 1513 1394
8 1382 1262 1134 1251 1514 1393 1260 1383
8 1253 1136 1263 1384 1386 1264 1395 1516
8 1253 1136 1264 1386 1385 1256 1389 1517
8 1387 1265 1397 1519 1258 1141 1269 1391
8 1276 1150 1277 1406 1387 1265 1397 1519
8 1256 1139 1267 1389 1388 1266 1398 1520
8 1264 1147 1274 1396 1389 1267 1399 1521
8 1392 1270 1143 1260 1522 1400 1268 1390
8 1390 1268 1142 1259 1522 1400 1269 1391
8 1392 1270 1401 1523 1260 1143 1271 1393
8 1272 1394 1524 1402 1145 1262 1393 1271
8 1395 1273 1146 1263 1524 1402 1272 1394
8 1273 1395 1264 1147 1403 1526 1396 1274
8 1405 1276 1160 1282 1534 1406 1286 1411
8 1414 1287 1407 1535 1286 1162 1277 1406
8 1279 1159 1283 1408 1409 1285 1412 1537
8 1418 1292 1412 1537 1290 1165 1283 1408
8 1280 1158 1285 1409 1410 1284 1413 1538
8 1410 1284 1413 1538 1282 1160 1286 1411
8 1285 1163 1289 1412 1413 1288 1417 1540
8 1421 1296 1417 1540 1292 1167 1289 1412
8 1414 1287 1162 1286 1541 1416 1288 1413
8 1420 1294 1421 1545 1291 1166 1292 1418
8 1419 1293 1172 1305 1546 1422 1303 1437
8 1420 1294 1166 1291 1547 1423 1293 1419
8 1294 1169 1297 1423 1421 1296 1425 1548
8 1423 1297 1168 1293 1549 1424 1295 1422
8 1301 1170 1298 1427 1422 1295 1424 1549
8 1432 1300 1428 1554 1301 1170 1298 1427
8 1431 1299 1428 1554 1560 1430 1300 1432
8 1563 1433 1300 1432 1435 1302 1170 1301
8 1546 1422 1303 1437 1434 1301 1435 1565
8 1303 1171 1304 1438 1435 1302 1436 1566
8 1305 1172 1306 1440 1437 1303 1438 1568
8 1306 1173 1307 1441 1438 1304 1439 1569
8 1308 1175 1309 1443 1440 1306 1441 1571
8 1309 1176 1310 1444 1441 1307 1442 1572
8 1311 1178 1312 1446 1443 1309 1444 1574
8 1179 1312 1444 1310 1313 1447 1575 1445
8 1314 1181 1315 1448 1446 1312 1447 1576
8 1350 1213 1349 1486 1451 1317 1449 1579
8 1451 1317 1450 1581 1319 1186 1318 1453
8 1454 1319 1214 1351 1582 1451 1350 1487
8 1453 1318 1452 1584 1321 1187 1320 1456
8 1454 1319 1453 1585 1344 1208 1321 1457
8 1456 1320 1455 1586 1323 1189 1324 1459
8 1457 1321 1456 1587 1322 1188 1323 1458
8 1458 1323 1459 1588 1325 1191 1326 1460
8 1205 1336 1464 1329 1328 1462 1590 1461
8 1507 1373 1461 1590 1374 1242 1328 1462
8 1508 1374 1462 1591 1375 1243 1335 1467
8 1337 1206 1329 1464 1473 1341 1463 1594
8 1375 1243 1335 1467 1465 1333 1470 1596
8 1465 1333 1470 1596 1331 1200 1334 1466
8 1352 1227 1334 1466 1488 1360 1470 1596
8 1591 1462 1336 1468 1467 1335 1471 1597
8 1469 1337 1472 1598 1595 1464 1336 1468
8 1471 1339 1474 1600 1335 1204 1338 1470
8 1600 1474 1367 1496 1470 1338 1235 1360
8 1336 1205 1340 1472 1471 1339 1475 1601
8 1337 1206 1341 1473 1472 1340 1476 1602
8 1495 1370 1478 1609 1361 1239 1342 1479
8 1348 1212 1342 1479 1483 1347 1478 1609
8 1481 1346 1479 1610 1345 1210 1343 1480
8 1481 1346 1228 1359 1610 1479 1361 1494
8 1484 1348 1214 1351 1610 1479 1343 1480
8 1483 1347 1482 1612 1350 1213 1349 1486
8 1484 1348 1483 1613 1351 1214 1350 1487
8 1353 1230 1360 1488 1489 1363 1496 1616
8 1490 1364 1231 1354 1617 1499 1363 1489
8 1490 1364 1499 1617 1355 1232 1365 1491
8 1356 1234 1365 1491 1492 1366 1500 1619
8 1492 1366 1498 1620 1357 1233 1362 1493
8 1494 1361 1228 1359 1621 1497 1362 1493
8 1495 1370 1239 1361 1622 1504 1371 1497
8 1363 1236 1367 1496 1499 1368 1501 1623
8 1497 1371 1240 1362 1624 1505 1372 1498
8 1625 1503 1372 1498 1500 1369 1241 1366
8 1365 1238 1368 1499 1500 1369 1502 1626
8 1520 1398 1506 1633 1388 1266 1373 1507
8 1634 1507 1374 1508 1512 1388 1255 1380
8 1509 1387 1519 1635 1377 1258 1391 1510
8 1405 1276 1406 1534 1509 1387 1519 1635
8 1515 1392 1260 1383 1636 1522 1390 1511
8 1511 1390 1259 1379 1636 1522 1391 1510
8 1385 1256 1389 1517 1512 1388 1520 1637
8 1513 1394 1262 1382 1638 1524 1393 1514
8 1395 1516 1638 1524 1263 1384 1513 1394
8 1515 1392 1523 1639 1383 1260 1393 1514
8 1516 1395 1526 1640 1386 1264 1396 1518
8 1386 1264 1396 1518 1517 1389 1521 1641
8 1519 1397 1527 1643 1391 1269 1400 1522
8 1535 1407 1527 1643 1406 1277 1397 1519
8 1389 1267 1399 1521 1520 1398 1528 1644
8 1645 1529 1399 1521 1525 1404 1274 1396
8 1392 1270 1400 1522 1523 1401 1531 1646
8 1524 1402 1271 1393 1648 1532 1401 1523
8 1403 1526 1648 1532 1273 1395 1524 1402
8 1525 1404 1274 1396 1649 1533 1403 1526
8 1539 1414 1535 1657 1411 1286 1406 1534
8 1542 1415 1536 1658 1414 1287 1407 1535
8 1409 1285 1412 1537 1538 1413 1540 1660
8 1545 1421 1540 1660 1418 1292 1412 1537
8 1539 1414 1286 1411 1661 1541 1413 1538
8 1540 1417 1544 1663 1413 1288 1416 1541
8 1421 1296 1425 1548 1540 1417 1544 1663
8 1542 1415 1287 1414 1664 1543 1416 1541
8 1420 1294 1423 1547 1545 1421 1548 1666
8 1547 1423 1293 1419 1667 1549 1422 1546
8 1434 1301 1427 1553 1546 1422 1549 1667
8 1423 1297 1424 1549 1548 1425 1550 1668
8 1551 1426 1550 1668 1427 1298 1424 1549
8 1551 1426 1298 1427 1671 1552 1428 1554
8 1562 1432 1554 1674 1434 1301 1427 1553
8 1431 1299 1429 1558 1554 1428 1555 1675
8 1431 1299 1430 1560 1558 1429 1557 1680
8 1560 1430 1300 1432 1683 1559 1433 1563
8 1561 1431 1554 1674 1684 1560 1432 1562
8 1685 1563 1432 1562 1565 1435 1301 1434
8 1435 1302 1436 1566 1563 1433 1564 1686
8 1437 1303 1438 1568 1565 1435 1566 1688
8 1438 1304 1439 1569 1566 1436 1567 1689
8 1440 1306 1441 1571 1568 1438 1569 1691
8 1441 1307 1442 1572 1569 1439 1570 1692
8 1443 1309 1444 1574 1571 1441 1572 1694
8 1310 1444 1572 1442 1445 1575 1695 1573
8 1446 1312 1447 1576 1574 1444 1575 1696
8 1486 1349 1485 1614 1579 1449 1577 1699
8 1451 1317 1449 1579 1581 1450 1578 1701
8 1487 1350 1486 1615 1582 1451 1579 1702
8 1581 1450 1580 1704 1453 1318 1452 1584
8 1582 1451 1581 1705 1454 1319 1453 1585
8 1584 1452 1583 1706 1456 1320 1455 1586
8 1585 1453 1584 1707 1457 1321 1456 1587
8 1587 1456 1586 1708 1458 1323 1459 1588
8 1633 1506 1589 1710 1507 1373 1461 1590
8 1464 1329 1461 1590 1594 1463 1589 1710
8 1468 1336 1462 1591 1595 1464 1590 1711
8 1634 1507 1590 1711 1508 1374 1462 1591
8 1473 1341 1463 1594 1603 1477 1593 1716
8 1469 1337 1464 1595 1599 1473 1594 1717
8 1471 1597 1467 1335 1600 1718 1596 1470
8 1718 1600 1496 1616 1596 1470 1360 1488
8 1336 1468 1597 1471 1472 1598 1719 1601
8 1469 1337 1473 1599 1598 1472 1602 1720
8 1722 1604 1501 1623 1600 1474 1367 1496
8 1475 1601 1471 1339 1604 1722 1600 1474
8 1602 1476 1605 1723 1472 1340 1475 1601
8 1476 1602 1724 1606 1341 1473 1603 1477
8 1483 1347 1478 1609 1612 1482 1608 1731
8 1495 1370 1504 1622 1609 1478 1608 1731
8 1618 1495 1609 1732 1494 1361 1479 1610
8 1484 1348 1479 1610 1613 1483 1609 1732
8 1486 1349 1482 1612 1614 1485 1611 1733
8 1613 1483 1612 1734 1487 1350 1486 1615
8 1489 1363 1496 1616 1617 1499 1623 1736
8 1491 1365 1499 1617 1619 1500 1626 1737
8 1618 1495 1361 1494 1738 1622 1497 1621
8 1739 1625 1498 1620 1619 1500 1366 1492
8 1621 1497 1362 1493 1740 1624 1498 1620
8 1742 1631 1504 1622 1624 1505 1371 1497
8 1743 1628 1502 1626 1623 1501 1368 1499
8 1744 1630 1505 1624 1625 1503 1372 1498
8 1745 1629 1503 1625 1626 1502 1369 1500
8 1520 1398 1528 1644 1633 1506 1632 1751
8 1637 1520 1633 1752 1512 1388 1507 1634
8 1635 1519 1643 1753 1510 1391 1522 1636
8 1657 1535 1643 1753 1534 1406 1519 1635
8 1515 1392 1522 1636 1639 1523 1646 1754
8 1517 1389 1521 1641 1637 1520 1644 1755
8 1524 1638 1756 1648 1393 1514 1639 1523
8 1640 1526 1395 1516 1756 1648 1524 1638
8 1642 1525 1396 1518 1757 1649 1526 1640
8 1758 1645 1521 1641 1642 1525 1396 1518
8 1646 1531 1400 1522 1760 1650 1527 1643
8 1535 1407 1536 1658 1643 1527 1650 1760
8 1521 1399 1529 1645 1644 1528 1651 1761
8 1647 1530 1652 1762 1525 1404 1529 1645
8 1401 1523 1648 1532 1531 1646 1763 1655
8 1525 1404 1533 1649 1647 1530 1654 1765
8 1533 1649 1766 1656 1403 1526 1648 1532
8 1662 1542 1658 1774 1539 1414 1535 1657
8 1542 1415 1543 1664 1658 1536 1659 1775
8 1660 1540 1663 1777 1538 1413 1541 1661
8 1545 1421 1548 1666 1660 1540 1663 1777
8 1662 1542 1414 1539 1778 1664 1541 1661
8 1664 1543 1416 1541 1779 1665 1544 1663
8 1548 1425 1550 1668 1663 1544 1665 1779
8 1547 1423 1549 1667 1666 1548 1668 1781
8 1670 1551 1668 1781 1553 1427 1549 1667
8 1551 1426 1552 1671 1668 1550 1669 1782
8 1670 1551 1427 1553 1784 1671 1554 1674
8 1675 1555 1672 1785 1554 1428 1552 1671
8 1678 1556 1673 1789 1558 1429 1555 1675
8 1561 1431 1558 1681 1674 1554 1675 1790
8 1794 1677 1556 1678 1680 1557 1429 1558
8 1560 1430 1559 1683 1680 1557 1679 1797
8 1561 1431 1560 1684 1681 1558 1680 1798
8 1563 1433 1564 1686 1683 1559 1682 1800
8 1684 1560 1432 1562 1801 1683 1563 1685
8 1565 1435 1566 1688 1685 1563 1686 1802
8 1566 1436 1567 1689 1686 1564 1687 1803
8 1568 1438 1569 1691 1688 1566 1689 1805
8 1569 1439 1570 1692 1689 1567 1690 1806
8 1571 1441 1572 1694 1691 1569 1692 1808
8 1442 1572 1692 1570 1573 1695 1809 1693
8 1574 1444 1575 1696 1694 1572 1695 1810
8 1614 1485 1592 1712 1699 1577 1697 1813
8 1579 1449 1577 1699 1701 1578 1698 1815
8 1615 1486 1614 1735 1702 1579 1699 1816
8 1701 1578 1700 1818 1581 1450 1580 1704
8 1582 1451 1579 1702 1705 1581 1701 1819
8 1704 1580 1703 1820 1584 1452 1583 1706
8 1705 1581 1704 1821 1585 1453 1584 1707
8 1707 1584 1706 1822 1587 1456 1586 1708
8 1710 1589 1506 1633 1824 1709 1632 1751
8 1594 1463 1589 1710 1716 1593 1709 1824
8 1752 1633 1710 1825 1634 1507 1590 1711
8 1595 1464 1590 1711 1717 1594 1710 1825
8 1830 1714 1592 1712 1733 1611 1485 1614
8 1603 1477 1593 1716 1725 1607 1715 1834
8 1599 1473 1594 1717 1721 1603 1716 1835
8 1837 1722 1623 1736 1718 1600 1496 1616
8 1719 1601 1722 1837 1597 1471 1600 1718
8 1602 1720 1598 1472 1723 1838 1719 1601
8 1720 1602 1473 1599 1839 1724 1603 1721
8 1723 1605 1726 1840 1601 1475 1604 1722
8 1840 1726 1628 1743 1722 1604 1501 1623
8 1724 1606 1727 1841 1602 1476 1605 1723
8 1725 1607 1728 1842 1603 1477 1606 1724
8 1612 1482 1608 1731 1733 1611 1730 1849
8 1741 1627 1730 1849 1622 1504 1608 1731
8 1613 1483 1609 1732 1734 1612 1731 1850
8 1618 1495 1622 1738 1732 1609 1731 1850
8 1615 1486 1612 1734 1735 1614 1733 1851
8 1852 1743 1626 1737 1736 1623 1499 1617
8 1853 1745 1625 1739 1737 1626 1500 1619
8 1855 1742 1622 1738 1740 1624 1497 1621
8 1856 1744 1624 1740 1739 1625 1498 1620
8 1741 1627 1504 1622 1857 1746 1631 1742
8 1742 1631 1505 1624 1858 1749 1630 1744
8 1859 1747 1629 1745 1743 1628 1502 1626
8 1860 1748 1630 1744 1745 1629 1503 1625
8 1644 1528 1651 1761 1751 1632 1750 1865
8 1637 1520 1644 1755 1752 1633 1751 1866
8 1754 1646 1522 1636 1867 1760 1643 1753
8 1657 1535 1658 1774 1753 1643 1760 1867
8 1639 1523 1646 1754 1756 1648 1763 1868
8 1641 1521 1645 1758 1755 1644 1761 1869
8 1757 1649 1526 1640 1870 1766 1648 1756
8 1642 1525 1649 1757 1759 1647 1765 1871
8 1759 1647 1762 1872 1642 1525 1645 1758
8 1760 1650 1767 1874 1646 1531 1655 1763
8 1658 1536 1659 1775 1760 1650 1767 1874
8 1762 1652 1768 1875 1645 1529 1651 1761
8 1764 1653 1769 1876 1647 1530 1652 1762
8 1656 1766 1877 1773 1532 1648 1763 1655
8 1771 1879 1765 1654 1653 1764 1647 1530
8 1533 1649 1765 1654 1656 1766 1880 1772
8 1662 1542 1664 1778 1774 1658 1775 1887
8 1664 1543 1665 1779 1775 1659 1776 1888
8 1778 1664 1541 1661 1890 1779 1663 1777
8 1666 1548 1668 1781 1777 1663 1779 1890
8 1782 1669 1780 1891 1668 1550 1665 1779
8 1670 1551 1671 1784 1781 1668 1782 1893
8 1671 1552 1672 1785 1782 1669 1783 1894
8 1790 1675 1785 1896 1674 1554 1671 1784
8 1675 1555 1673 1789 1785 1672 1786 1897
8 1792 1676 1788 1903 1678 1556 1673 1789
8 1795 1678 1789 1904 1681 1558 1675 1790
8 1792 1676 1556 1678 1906 1791 1677 1794
8 1680 1557 1679 1797 1794 1677 1793 1909
8 1910 1794 1678 1795 1798 1680 1558 1681
8 1683 1559 1682 1800 1797 1679 1796 1912
8 1684 1560 1683 1801 1798 1680 1797 1913
8 1686 1564 1687 1803 1800 1682 1799 1915
8 1685 1563 1686 1802 1801 1683 1800 1916
8 1688 1566 1689 1805 1802 1686 1803 1917
8 1689 1567 1690 1806 1803 1687 1804 1918
8 1691 1569 1692 1808 1805 1689 1806 1920
8 1692 1570 1693 1809 1806 1690 1807 1921
8 1694 1572 1695 1810 1808 1692 1809 1922
8 1829 1713 1811 1926 1712 1592 1697 1813
8 1813 1697 1812 1928 1699 1577 1698 1815
8 1735 1614 1712 1828 1816 1699 1813 1929
8 1815 1698 1814 1931 1701 1578 1700 1818
8 1702 1579 1699 1816 1819 1701 1815 1932
8 1818 1700 1817 1933 1704 1580 1703 1820
8 1819 1701 1818 1934 1705 1581 1704 1821
8 1821 1704 1820 1935 1707 1584 1706 1822
8 1824 1709 1632 1751 1937 1823 1750 1865
8 1716 1593 1709 1824 1834 1715 1823 1937
8 1825 1710 1633 1752 1938 1824 1751 1866
8 1717 1594 1710 1825 1835 1716 1824 1938
8 1945 1830 1712 1828 1851 1733 1614 1735
8 1830 1714 1831 1946 1712 1592 1713 1829
8 1947 1832 1714 1830 1849 1730 1611 1733
8 1843 1729 1607 1725 1950 1833 1715 1834
8 1721 1603 1716 1835 1836 1725 1834 1951
8 1836 1725 1842 1953 1721 1603 1724 1839
8 1723 1838 1719 1601 1840 1954 1837 1722
8 1954 1840 1743 1852 1837 1722 1623 1736
8 1724 1839 1720 1602 1841 1955 1838 1723
8 1841 1727 1844 1956 1723 1605 1726 1840
8 1956 1844 1747 1859 1840 1726 1628 1743
8 1728 1842 1724 1606 1845 1957 1841 1727
8 1725 1607 1729 1843 1842 1728 1846 1958
8 1741 1627 1746 1857 1849 1730 1848 1965
8 1734 1612 1731 1850 1851 1733 1849 1966
8 1854 1741 1849 1966 1738 1622 1731 1850
8 1967 1859 1745 1853 1852 1743 1626 1737
8 1968 1860 1744 1856 1853 1745 1625 1739
8 1854 1741 1622 1738 1969 1857 1742 1855
8 1855 1742 1624 1740 1970 1858 1744 1856
8 1857 1746 1631 1742 1971 1861 1749 1858
8 1858 1749 1630 1744 1972 1863 1748 1860
8 1859 1747 1862 1973 1745 1629 1748 1860
8 1875 1768 1864 1977 1761 1651 1750 1865
8 1755 1644 1761 1869 1866 1751 1865 1978
8 1867 1760 1874 1979 1754 1646 1763 1868
8 1774 1658 1775 1887 1867 1760 1874 1979
8 1870 1766 1648 1756 1980 1877 1763 1868
8 1872 1762 1875 1981 1758 1645 1761 1869
8 1757 1649 1766 1870 1871 1765 1880 1982
8 1983 1879 1764 1873 1871 1765 1647 1759
8 1873 1764 1876 1984 1759 1647 1762 1872
8 1877 1773 1655 1763 1986 1881 1767 1874
8 1775 1659 1776 1888 1874 1767 1881 1986
8 1876 1769 1882 1987 1762 1652 1768 1875
8 1878 1770 1883 1988 1764 1653 1769 1876
8 1880 1772 1656 1766 1989 1886 1773 1877
8 1878 1770 1653 1764 1990 1884 1771 1879
8 1765 1654 1772 1880 1879 1771 1885 1991
8 1778 1664 1779 1890 1887 1775 1888 1997
8 1998 1889 1776 1888 1891 1780 1665 1779
8 1893 1782 1891 2000 1781 1668 1779 1890
8 1894 1783 1892 2001 1782 1669 1780 1891
8 1784 1671 1785 1896 1893 1782 1894 2003
8 1897 1786 1895 2004 1785 1672 1783 1894
8 1790 1675 1789 1904 1896 1785 1897 2006
8 1901 1787 1898 2007 1789 1673 1786 1897
8 1903 1788 1900 2013 1789 1673 1787 1901
8 1792 1676 1791 1906 1903 1788 1902 2016
8 1907 1792 1903 2017 1795 1678 1789 1904
8 1906 1791 1677 1794 2019 1905 1793 1909
8 1907 1792 1678 1795 2020 1906 1794 1910
8 1797 1679 1796 1912 1909 1793 1908 2022
8 1798 1680 1797 1913 1910 1794 1909 2023
8 1800 1682 1799 1915 1912 1796 1911 2025
8 1801 1683 1800 1916 1913 1797 1912 2026
8 1803 1687 1804 1918 1915 1799 1914 2028
8 1802 1686 1803 1917 1916 1800 1915 2029
8 1805 1689 1806 1920 1917 1803 1918 2030
8 1806 1690 1807 1921 1918 1804 1919 2031
8 1808 1692 1809 1922 1920 1806 1921 2032
8 1939 1826 1924 2037 1829 1713 1811 1926
8 1926 1811 1925 2039 1813 1697 1812 1928
8 1944 1829 1926 2040 1828 1712 1813 1929
8 1928 1812 1927 2042 1815 1698 1814 1931
8 1929 1813 1928 2043 1816 1699 1815 1932
8 1931 1814 1930 2044 1818 1700 1817 1933
8 1932 1815 1931 2045 1819 1701 1818 1934
8 1934 1818 1933 2046 1821 1704 1820 1935
8 2048 1936 1823 1937 1977 1864 1750 1865
8 1950 1833 1715 1834 2048 1936 1823 1937
8 1938 1824 1751 1866 2049 1937 1865 1978
8 1835 1716 1824 1938 1951 1834 1937 2049
8 1939 1826 1713 1829 2053 1942 1831 1946
8 1940 1827 1923 2035 2053 1942 1826 1939
8 1945 1830 1946 2058 1828 1712 1829 1944
8 2059 1947 1830 1945 1966 1849 1733 1851
8 1947 1832 1730 1849 2060 1948 1848 1965
8 1947 1832 1948 2060 1830 1714 1831 1946
8 1959 1847 1729 1843 2063 1949 1833 1950
8 1952 1843 1725 1836 2064 1950 1834 1951
8 1836 1725 1843 1952 1953 1842 1958 2066
8 1953 1842 1957 2067 1839 1724 1841 1955
8 1841 1955 1838 1723 1956 2068 1954 1840
8 2068 1956 1859 1967 1954 1840 1743 1852
8 1956 1844 1960 2069 1859 1747 1862 1973
8 1845 1957 1841 1727 1960 2069 1956 1844
8 1728 1842 1957 1845 1846 1958 2071 1961
8 1962 2072 1959 1847 1846 1958 1843 1729
8 1971 1861 1964 2077 1857 1746 1848 1965
8 1854 1741 1857 1969 1966 1849 1965 2078
8 1967 1859 1973 2079 1853 1745 1860 1968
8 1970 1858 1744 1856 2080 1972 1860 1968
8 1969 1857 1742 1855 2081 1971 1858 1970
8 1971 1861 1749 1858 2082 1974 1863 1972
8 1973 1862 1975 2083 1860 1748 1863 1972
8 1987 1882 1976 2086 1875 1768 1864 1977
8 1981 1875 1977 2087 1869 1761 1865 1978
8 1980 1877 1763 1868 2088 1986 1874 1979
8 1887 1775 1888 1997 1979 1874 1986 2088
8 1880 1982 2089 1989 1766 1870 1980 1877
8 1984 1876 1987 2090 1872 1762 1875 1981
8 1765 1871 1983 1879 1880 1982 2091 1991
8 1985 1878 1764 1873 2092 1990 1879 1983
8 1985 1878 1988 2093 1873 1764 1876 1984
8 2094 1992 1881 1986 1998 1889 1776 1888
8 1986 1881 1992 2094 1877 1773 1886 1989
8 1988 1883 1993 2095 1876 1769 1882 1987
8 1878 1770 1884 1990 1988 1883 1994 2096
8 1991 1885 1772 1880 2097 1996 1886 1989
8 1879 1771 1885 1991 1990 1884 1995 2098
8 2103 1998 1888 1997 2000 1891 1779 1890
8 2104 1999 1889 1998 2001 1892 1780 1891
8 2003 1894 2001 2106 1893 1782 1891 2000
8 2004 1895 2002 2107 1894 1783 1892 2001
8 2006 1897 2004 2109 1896 1785 1894 2003
8 2007 1898 2005 2110 1897 1786 1895 2004
8 2014 1901 2007 2112 1904 1789 1897 2006
8 2011 1899 2008 2113 1901 1787 1898 2007
8 2119 2010 1899 2011 2013 1900 1787 1901
8 2016 1902 2012 2122 1903 1788 1900 2013
8 2017 1903 2013 2123 1904 1789 1901 2014
8 1906 1791 1905 2019 2016 1902 2015 2125
8 1907 1792 1906 2020 2017 1903 2016 2126
8 1909 1793 1908 2022 2019 1905 2018 2128
8 2020 1906 1794 1910 2129 2019 1909 2023
8 1912 1796 1911 2025 2022 1908 2021 2131
8 1913 1797 1912 2026 2023 1909 2022 2132
8 1915 1799 1914 2028 2025 1911 2024 2134
8 1916 1800 1915 2029 2026 1912 2025 2135
8 1918 1804 1919 2031 2028 1914 2027 2136
8 1917 1803 1918 2030 2029 1915 2028 2137
8 1920 1806 1921 2032 2030 1918 2031 2138
8 1940 1827 1941 2054 2035 1923 2033 2140
8 2035 1923 2034 2143 1939 1826 1924 2037
8 2037 1924 2036 2146 1926 1811 1925 2039
8 2051 1939 2037 2147 1944 1829 1926 2040
8 2039 1925 2038 2149 1928 1812 1927 2042
8 2040 1926 2039 2150 1929 1813 1928 2043
8 2042 1927 2041 2151 1931 1814 1930 2044
8 2043 1928 2042 2152 1932 1815 1931 2045
8 2045 1931 2044 2153 1934 1818 1933 2046
8 2155 2047 1936 2048 2086 1976 1864 1977
8 2063 1949 1833 1950 2155 2047 1936 2048
8 2156 2048 1937 2049 2087 1977 1865 1978
8 2064 1950 1834 1951 2156 2048 1937 2049
8 2051 1939 1829 1944 2160 2053 1946 2058
8 2052 1940 2035 2144 2160 2053 1939 2051
8 2053 1942 1831 1946 2163 2057 1948 2060
8 2055 1943 1827 1940 2163 2057 1942 2053
8 2055 1943 2056 2164 1940 1827 1941 2054
8 2059 1947 1849 1966 2167 2060 1965 2078
8 2059 1947 2060 2167 1945 1830 1946 2058
8 2077 1964 2061 2168 1965 1848 1948 2060
8 2070 1963 1847 1959 2170 2062 1949 2063
8 2065 1959 1843 1952 2171 2063 1950 2064
8 2173 2072 1958 2066 2065 1959 1843 1952
8 1953 1842 1958 2066 2067 1957 2071 2174
8 2068 1956 2069 2175 1967 1859 1973 2079
8 2067 1957 2069 2175 1955 1841 1956 2068
8 1845 1957 2069 1960 1961 2071 2176 2073
8 2069 1960 2073 2176 1973 1862 1975 2083
8 2070 1963 2075 2177 1959 1847 1962 2072
8 1846 1958 2071 1961 1962 2072 2178 2074
8 2077 1964 1861 1971 2182 2076 1974 2082
8 2081 1971 2077 2183 1969 1857 1965 2078
8 2079 1973 2083 2184 1968 1860 1972 2080
8 2081 1971 1858 1970 2185 2082 1972 2080
8 2083 1975 2084 2186 1972 1863 1974 2082
8 2086 1976 1882 1987 2189 2085 1993 2095
8 2090 1987 2086 2190 1981 1875 1977 2087
8 2191 2094 1986 2088 2103 1998 1888 1997
8 2088 1986 2094 2191 1980 1877 1989 2089
8 1991 2091 2192 2097 1880 1982 2089 1989
8 2093 1988 2095 2193 1984 1876 1987 2090
8 1879 1983 2092 1990 1991 2091 2194 2098
8 1985 1878 1990 2092 2093 1988 2096 2195
8 2097 1996 1886 1989 2196 2099 1992 2094
8 2196 2099 1992 2094 2104 1999 1889 1998
8 1994 2096 1988 1883 2100 2197 2095 1993
8 2096 1994 1884 1990 2198 2101 1995 2098
8 1995 2098 2199 2102 1885 1991 2097 1996
8 2203 2104 1998 2103 2106 2001 1891 2000
8 2107 2002 2105 2204 2001 1892 1999 2104
8 2109 2004 2107 2206 2003 1894 2001 2106
8 2110 2005 2108 2207 2004 1895 2002 2107
8 2112 2007 2110 2209 2006 1897 2004 2109
8 2113 2008 2111 2210 2007 1898 2005 2110
8 2120 2011 2113 2212 2014 1901 2007 2112
8 2117 2009 2114 2213 2011 1899 2008 2113
8 2219 2116 2009 2117 2119 2010 1899 2011
8 2222 2118 2010 2119 2122 2012 1900 2013
8 2223 2119 2011 2120 2123 2013 1901 2014
8 2016 1902 2015 2125 2122 2012 2121 2225
8 2126 2016 2122 2226 2017 1903 2013 2123
8 2019 1905 2018 2128 2125 2015 2124 2228
8 2020 1906 2019 2129 2126 2016 2125 2229
8 2022 1908 2021 2131 2128 2018 2127 2231
8 2023 1909 2022 2132 2129 2019 2128 2232
8 2025 1911 2024 2134 2131 2021 2130 2234
8 2026 1912 2025 2135 2132 2022 2131 2235
8 1914 2028 2134 2024 2027 2136 2236 2133
8 2029 1915 2028 2137 2135 2025 2134 2237
8 2030 1918 2031 2138 2137 2028 2136 2238
8 2157 2050 2139 2240 2054 1941 2033 2140
8 2052 1940 2054 2161 2144 2035 2140 2242
8 2140 2033 2141 2243 2035 1923 2034 2143
8 2143 2034 2142 2246 2037 1924 2036 2146
8 2144 2035 2143 2247 2051 1939 2037 2147
8 2146 2036 2145 2249 2039 1925 2038 2149
8 2147 2037 2146 2250 2040 1926 2039 2150
8 2149 2038 2148 2251 2042 1927 2041 2151
8 2150 2039 2149 2252 2043 1928 2042 2152
8 2152 2042 2151 2253 2045 1931 2044 2153
8 2255 2154 2047 2155 2189 2085 1976 2086
8 2170 2062 1949 2063 2255 2154 2047 2155
8 2256 2155 2048 2156 2190 2086 1977 2087
8 2171 2063 1950 2064 2256 2155 2048 2156
8 2258 2159 2050 2157 2164 2056 1941 2054
8 2160 2053 1946 2058 2262 2163 2060 2167
8 2162 2055 1940 2052 2262 2163 2053 2160
8 2162 2055 2164 2263 2052 1940 2054 2161
8 2163 2057 1948 2060 2264 2165 2061 2168
8 2055 1943 2057 2163 2164 2056 2165 2264
8 2182 2076 2166 2268 2077 1964 2061 2168
8 2183 2077 2168 2269 2078 1965 2060 2167
8 2070 1963 2062 2170 2177 2075 2169 2271
8 2172 2070 1959 2065 2272 2170 2063 2171
8 2172 2070 2177 2273 2065 1959 2072 2173
8 2066 1958 2072 2173 2174 2071 2178 2274
8 2067 1957 2071 2174 2175 2069 2176 2275
8 2175 2069 2176 2275 2079 1973 2083 2184
8 2071 1961 2074 2178 2176 2073 2179 2276
8 2176 2073 2179 2276 2083 1975 2084 2186
8 2072 1962 2075 2177 2178 2074 2180 2277
8 2182 2076 1974 2082 2280 2181 2084 2186
8 2183 2077 1971 2081 2281 2182 2082 2185
8 2184 2083 2186 2282 2080 1972 2082 2185
8 2189 2085 1993 2095 2285 2188 2100 2197
8 2190 2086 1987 2090 2286 2189 2095 2193
8 2192 2097 1989 2089 2287 2196 2094 2191
8 2287 2196 2094 2191 2203 2104 1998 2103
8 2194 2098 1991 2091 2288 2199 2097 2192
8 2195 2096 2197 2289 2093 1988 2095 2193
8 2096 2195 2290 2198 1990 2092 2194 2098
8 2097 1996 2099 2196 2199 2102 2200 2291
8 2196 2099 1999 2104 2291 2200 2105 2204
8 2100 2197 2292 2201 1994 2096 2198 2101
8 1995 2098 2198 2101 2102 2199 2293 2202
8 2206 2107 2204 2296 2106 2001 2104 2203
8 2207 2108 2205 2297 2107 2002 2105 2204
8 2209 2110 2207 2299 2109 2004 2107 2206
8 2210 2111 2208 2300 2110 2005 2108 2207
8 2212 2113 2210 2302 2112 2007 2110 2209
8 2213 2114 2211 2303 2113 2008 2111 2210
8 2220 2117 2213 2305 2120 2011 2113 2212
8 2216 2115 2214 2306 2117 2009 2114 2213
8 2216 2115 2009 2117 2311 2217 2116 2219
8 2219 2116 2010 2119 2314 2218 2118 2222
8 2315 2219 2117 2220 2223 2119 2011 2120
8 2122 2012 2121 2225 2222 2118 2221 2317
8 2318 2222 2119 2223 2226 2122 2013 2123
8 2125 2015 2124 2228 2225 2121 2224 2320
8 2126 2016 2125 2229 2226 2122 2225 2321
8 2128 2018 2127 2231 2228 2124 2227 2323
8 2129 2019 2128 2232 2229 2125 2228 2324
8 2131 2021 2130 2234 2231 2127 2230 2326
8 2132 2022 2131 2235 2232 2128 2231 2327
8 2134 2024 2133 2236 2234 2130 2233 2328
8 2135 2025 2134 2237 2235 2131 2234 2329
8 2137 2028 2136 2238 2237 2134 2236 2330
8 2157 2050 2158 2259 2240 2139 2239 2332
8 2257 2157 2240 2334 2161 2054 2140 2242
8 2240 2139 2241 2335 2140 2033 2141 2243
8 2242 2140 2243 2337 2144 2035 2143 2247
8 2243 2141 2244 2338 2143 2034 2142 2246
8 2246 2142 2245 2341 2146 2036 2145 2249
8 2247 2143 2246 2342 2147 2037 2146 2250
8 2249 2145 2248 2343 2149 2038 2148 2251
8 2250 2146 2249 2344 2150 2039 2149 2252
8 2252 2149 2251 2345 2152 2042 2151 2253
8 2169 2271 2347 2254 2062 2170 2255 2154
8 2189 2085 2188 2285 2255 2154 2254 2347
8 2348 2255 2155 2256 2286 2189 2086 2190
8 2272 2170 2063 2171 2348 2255 2155 2256
8 2349 2258 2157 2257 2263 2164 2054 2161
8 2258 2159 2261 2351 2157 2050 2158 2259
8 2258 2159 2056 2164 2351 2261 2165 2264
8 2262 2163 2060 2167 2355 2264 2168 2269
8 2162 2055 2163 2262 2263 2164 2264 2355
8 2357 2266 2165 2264 2268 2166 2061 2168
8 2268 2166 2076 2182 2361 2267 2181 2280
8 2281 2182 2268 2362 2183 2077 2168 2269
8 2271 2169 2270 2364 2177 2075 2180 2277
8 2172 2070 2170 2272 2273 2177 2271 2365
8 2072 2173 2274 2178 2177 2273 2366 2277
8 2071 2174 2275 2176 2178 2274 2367 2276
8 2275 2176 2276 2367 2184 2083 2186 2282
8 2283 2187 2084 2186 2368 2278 2179 2276
8 2178 2074 2180 2277 2276 2179 2278 2368
8 2283 2187 2279 2370 2186 2084 2181 2280
8 2281 2182 2082 2185 2371 2280 2186 2282
8 2188 2285 2374 2284 2100 2197 2292 2201
8 2286 2189 2095 2193 2375 2285 2197 2289
8 2192 2097 2196 2287 2288 2199 2291 2376
8 2287 2196 2104 2203 2376 2291 2204 2296
8 2194 2098 2199 2288 2290 2198 2293 2377
8 2289 2197 2096 2195 2378 2292 2198 2290
8 2291 2200 2105 2204 2379 2294 2205 2297
8 2199 2102 2200 2291 2293 2202 2294 2379
8 2198 2101 2202 2293 2292 2201 2295 2380
8 2299 2207 2297 2383 2206 2107 2204 2296
8 2300 2208 2298 2384 2207 2108 2205 2297
8 2302 2210 2300 2386 2209 2110 2207 2299
8 2303 2211 2301 2387 2210 2111 2208 2300
8 2305 2213 2303 2389 2212 2113 2210 2302
8 2306 2214 2304 2390 2213 2114 2211 2303
8 2310 2216 2306 2392 2220 2117 2213 2305
8 2308 2215 2307 2393 2216 2115 2214 2306
8 2308 2215 2115 2216 2396 2309 2217 2311
8 2310 2216 2117 2220 2398 2311 2219 2315
8 2311 2217 2116 2219 2399 2312 2218 2314
8 2314 2218 2118 2222 2402 2313 2221 2317
8 2315 2219 2119 2223 2403 2314 2222 2318
8 2225 2121 2224 2320 2317 2221 2316 2405
8 2226 2122 2225 2321 2318 2222 2317 2406
8 2228 2124 2227 2323 2320 2224 2319 2408
8 2229 2125 2228 2324 2321 2225 2320 2409
8 2231 2127 2230 2326 2323 2227 2322 2411
8 2232 2128 2231 2327 2324 2228 2323 2412
8 2234 2130 2233 2328 2326 2230 2325 2413
8 2235 2131 2234 2329 2327 2231 2326 2414
8 2237 2134 2236 2330 2329 2234 2328 2415
8 2259 2158 2260 2352 2332 2239 2331 2417
8 2257 2157 2259 2350 2334 2240 2332 2419
8 2240 2139 2239 2332 2335 2241 2333 2420
8 2334 2240 2335 2422 2242 2140 2243 2337
8 2335 2241 2336 2423 2243 2141 2244 2338
8 2337 2243 2338 2425 2247 2143 2246 2342
8 2338 2244 2339 2426 2246 2142 2245 2341
8 2341 2245 2340 2428 2249 2145 2248 2343
8 2342 2246 2341 2429 2250 2146 2249 2344
8 2344 2249 2343 2430 2252 2149 2251 2345
8 2188 2285 2347 2254 2284 2374 2432 2346
8 2347 2254 2346 2432 2271 2169 2270 2364
8 2365 2271 2170 2272 2433 2347 2255 2348
8 2286 2189 2285 2375 2348 2255 2347 2433
8 2349 2258 2351 2435 2257 2157 2259 2350
8 2349 2258 2164 2263 2435 2351 2264 2355
8 2259 2158 2261 2351 2352 2260 2354 2437
8 2356 2265 2354 2437 2264 2165 2261 2351
8 2441 2357 2264 2355 2362 2268 2168 2269
8 2356 2265 2165 2264 2442 2358 2266 2357
8 2443 2359 2266 2357 2361 2267 2166 2268
8 2370 2279 2360 2446 2280 2181 2267 2361
8 2362 2268 2182 2281 2447 2361 2280 2371
8 2180 2277 2368 2278 2270 2364 2449 2363
8 2271 2365 2273 2177 2364 2450 2366 2277
8 2372 2283 2186 2282 2451 2368 2276 2367
8 2178 2274 2367 2276 2277 2366 2451 2368
8 2283 2187 2278 2368 2370 2279 2369 2452
8 2372 2283 2370 2453 2282 2186 2280 2371
8 2284 2374 2455 2373 2201 2292 2380 2295
8 2375 2285 2197 2289 2456 2374 2292 2378
8 2376 2291 2204 2296 2457 2379 2297 2383
8 2288 2199 2291 2376 2377 2293 2379 2457
8 2198 2290 2378 2292 2293 2377 2458 2380
8 2293 2202 2294 2379 2380 2295 2381 2459
8 2384 2298 2381 2459 2297 2205 2294 2379
8 2386 2300 2384 2463 2299 2207 2297 2383
8 2387 2301 2385 2464 2300 2208 2298 2384
8 2389 2303 2387 2466 2302 2210 2300 2386
8 2390 2304 2388 2467 2303 2211 2301 2387
8 2392 2306 2390 2469 2305 2213 2303 2389
8 2393 2307 2391 2470 2306 2214 2304 2390
8 2395 2308 2393 2472 2310 2216 2306 2392
8 2308 2215 2309 2396 2393 2307 2394 2473
8 2395 2308 2216 2310 2475 2396 2311 2398
8 2396 2309 2217 2311 2476 2397 2312 2399
8 2398 2311 2219 2315 2478 2399 2314 2403
8 2399 2312 2218 2314 2479 2400 2313 2402
8 2317 2221 2316 2405 2402 2313 2401 2482
8 2403 2314 2222 2318 2483 2402 2317 2406
8 2320 2224 2319 2408 2405 2316 2404 2485
8 2321 2225 2320 2409 2406 2317 2405 2486
8 2323 2227 2322 2411 2408 2319 2407 2488
8 2324 2228 2323 2412 2409 2320 2408 2489
8 2326 2230 2325 2413 2411 2322 2410 2490
8 2327 2231 2326 2414 2412 2323 2411 2491
8 2329 2234 2328 2415 2414 2326 2413 2492
8 2417 2331 2260 2352 2494 2416 2353 2438
8 2350 2259 2352 2436 2419 2332 2417 2496
8 2332 2239 2331 2417 2420 2333 2418 2497
8 2334 2240 2332 2419 2422 2335 2420 2499
8 2420 2333 2421 2500 2335 2241 2336 2423
8 2422 2335 2423 2502 2337 2243 2338 2425
8 2423 2336 2424 2503 2338 2244 2339 2426
8 2425 2338 2426 2505 2342 2246 2341 2429
8 2426 2339 2427 2506 2341 2245 2340 2428
8 2429 2341 2428 2507 2344 2249 2343 2430
8 2432 2346 2284 2374 2509 2431 2373 2455
8 2432 2346 2431 2509 2364 2270 2363 2449
8 2375 2285 2374 2456 2433 2347 2432 2510
8 2347 2433 2365 2271 2432 2510 2450 2364
8 2350 2259 2351 2435 2436 2352 2437 2514
8 2440 2356 2437 2514 2355 2264 2351 2435
8 2352 2260 2354 2437 2438 2353 2439 2516
8 2356 2265 2358 2442 2437 2354 2439 2516
8 2440 2356 2264 2355 2518 2442 2357 2441
8 2519 2443 2357 2441 2447 2361 2268 2362
8 2443 2359 2444 2520 2357 2266 2358 2442
8 2443 2359 2267 2361 2520 2444 2360 2446
8 2446 2360 2279 2370 2523 2445 2369 2452
8 2453 2370 2446 2524 2371 2280 2361 2447
8 2449 2363 2448 2525 2368 2278 2369 2452
8 2366 2277 2364 2450 2451 2368 2449 2526
8 2372 2283 2368 2451 2453 2370 2452 2527
8 2455 2373 2295 2380 2529 2454 2382 2460
8 2456 2374 2292 2378 2530 2455 2380 2458
8 2377 2293 2379 2457 2458 2380 2459 2531
8 2463 2384 2459 2531 2383 2297 2379 2457
8 2533 2461 2382 2460 2459 2381 2295 2380
8 2464 2385 2461 2533 2384 2298 2381 2459
8 2466 2387 2464 2537 2386 2300 2384 2463
8 2467 2388 2465 2538 2387 2301 2385 2464
8 2469 2390 2467 2540 2389 2303 2387 2466
8 2470 2391 2468 2541 2390 2304 2388 2467
8 2472 2393 2470 2543 2392 2306 2390 2469
8 2393 2307 2394 2473 2470 2391 2471 2544
8 2395 2308 2396 2475 2472 2393 2473 2546
8 2396 2309 2397 2476 2473 2394 2474 2547
8 2475 2396 2311 2398 2549 2476 2399 2478
8 2476 2397 2312 2399 2550 2477 2400 2479
8 2478 2399 2314 2403 2552 2479 2402 2483
8 2479 2400 2313 2402 2553 2480 2401 2482
8 2405 2316 2404 2485 2482 2401 2481 2556
8 2406 2317 2405 2486 2483 2402 2482 2557
8 2408 2319 2407 2488 2485 2404 2484 2559
8 2409 2320 2408 2489 2486 2405 2485 2560
8 2411 2322 2410 2490 2488 2407 2487 2561
8 2412 2323 2411 2491 2489 2408 2488 2562
8 2414 2326 2413 2492 2491 2411 2490 2563
8 2513 2434 2493 2565 2438 2353 2416 2494
8 2496 2417 2352 2436 2567 2494 2438 2515
8 2494 2416 2495 2568 2417 2331 2418 2497
8 2419 2332 2417 2496 2499 2420 2497 2570
8 2497 2418 2498 2571 2420 2333 2421 2500
8 2499 2420 2500 2573 2422 2335 2423 2502
8 2500 2421 2501 2574 2423 2336 2424 2503
8 2502 2423 2503 2576 2425 2338 2426 2505
8 2503 2424 2504 2577 2426 2339 2427 2506
8 2505 2426 2506 2578 2429 2341 2428 2507
8 2509 2431 2373 2455 2580 2508 2454 2529
8 2509 2431 2508 2580 2449 2363 2448 2525
8 2432 2510 2581 2509 2374 2456 2530 2455
8 2432 2510 2450 2364 2509 2581 2526 2449
8 2583 2511 2434 2513 2516 2439 2353 2438
8 2436 2352 2437 2514 2515 2438 2516 2588
8 2440 2356 2442 2518 2514 2437 2516 2588
8 2442 2358 2444 2520 2516 2439 2517 2589
8 2519 2443 2520 2591 2441 2357 2442 2518
8 2519 2443 2361 2447 2591 2520 2446 2524
8 2446 2360 2445 2523 2520 2444 2521 2592
8 2525 2448 2522 2593 2452 2369 2445 2523
8 2524 2446 2370 2453 2594 2523 2452 2527
8 2526 2449 2525 2595 2451 2368 2452 2527
8 2534 2462 2528 2597 2460 2382 2454 2529
8 2530 2455 2380 2458 2598 2529 2460 2532
8 2599 2533 2460 2532 2531 2459 2380 2458
8 2537 2464 2533 2599 2463 2384 2459 2531
8 2534 2462 2382 2460 2601 2535 2461 2533
8 2538 2465 2535 2601 2464 2385 2461 2533
8 2540 2467 2538 2604 2466 2387 2464 2537
8 2541 2468 2539 2605 2467 2388 2465 2538
8 2543 2470 2541 2607 2469 2390 2467 2540
8 2470 2391 2471 2544 2541 2468 2542 2608
8 2472 2393 2473 2546 2543 2470 2544 2610
8 2473 2394 2474 2547 2544 2471 2545 2611
8 2475 2396 2476 2549 2546 2473 2547 2613
8 2476 2397 2477 2550 2547 2474 2548 2614
8 2549 2476 2399 2478 2616 2550 2479 2552
8 2479 2400 2480 2553 2550 2477 2551 2617
8 2552 2479 2402 2483 2619 2553 2482 2557
8 2482 2401 2481 2556 2553 2480 2554 2620
8 2485 2404 2484 2559 2556 2481 2555 2623
8 2486 2405 2485 2560 2557 2482 2556 2624
8 2488 2407 2487 2561 2559 2484 2558 2625
8 2489 2408 2488 2562 2560 2485 2559 2626
8 2491 2411 2490 2563 2562 2488 2561 2627
8 2513 2434 2512 2585 2565 2493 2564 2630
8 2586 2513 2565 2632 2515 2438 2494 2567
8 2565 2493 2566 2633 2494 2416 2495 2568
8 2567 2494 2568 2635 2496 2417 2497 2570
8 2568 2495 2569 2636 2497 2418 2498 2571
8 2570 2497 2571 2638 2499 2420 2500 2573
8 2571 2498 2572 2639 2500 2421 2501 2574
8 2573 2500 2574 2641 2502 2423 2503 2576
8 2574 2501 2575 2642 2503 2424 2504 2577
8 2576 2503 2577 2643 2505 2426 2506 2578
8 2597 2528 2579 2645 2529 2454 2508 2580
8 2580 2508 2579 2645 2525 2448 2522 2593
8 2581 2509 2455 2530 2646 2580 2529 2598
8 2581 2509 2580 2646 2526 2449 2525 2595
8 2583 2511 2582 2648 2513 2434 2512 2585
8 2583 2511 2439 2516 2648 2582 2517 2589
8 2649 2583 2513 2586 2588 2516 2438 2515
8 2589 2517 2444 2520 2653 2587 2521 2592
8 2518 2442 2520 2591 2588 2516 2589 2654
8 2593 2522 2590 2655 2523 2445 2521 2592
8 2524 2446 2523 2594 2591 2520 2592 2656
8 2595 2525 2593 2657 2527 2452 2523 2594
8 2602 2536 2596 2659 2534 2462 2528 2597
8 2600 2534 2597 2660 2532 2460 2529 2598
8 2600 2534 2460 2532 2661 2601 2533 2599
8 2604 2538 2601 2661 2537 2464 2533 2599
8 2602 2536 2462 2534 2663 2603 2535 2601
8 2601 2535 2465 2538 2663 2603 2539 2605
8 2607 2541 2605 2665 2540 2467 2538 2604
8 2608 2542 2606 2666 2541 2468 2539 2605
8 2543 2470 2544 2610 2607 2541 2608 2668
8 2544 2471 2545 2611 2608 2542 2609 2669
8 2546 2473 2547 2613 2610 2544 2611 2671
8 2547 2474 2548 2614 2611 2545 2612 2672
8 2549 2476 2550 2616 2613 2547 2614 2674
8 2550 2477 2551 2617 2614 2548 2615 2675
8 2552 2479 2553 2619 2616 2550 2617 2677
8 2553 2480 2554 2620 2617 2551 2618 2678
8 2557 2482 2556 2624 2619 2553 2620 2680
8 2556 2481 2555 2623 2620 2554 2621 2681
8 2559 2484 2558 2625 2623 2555 2622 2683
8 2560 2485 2559 2626 2624 2556 2623 2684
8 2562 2488 2561 2627 2626 2559 2625 2685
8 2690 2629 2564 2630 2650 2584 2512 2585
8 2586 2513 2585 2651 2632 2565 2630 2691
8 2630 2564 2631 2692 2565 2493 2566 2633
8 2632 2565 2633 2694 2567 2494 2568 2635
8 2633 2566 2634 2695 2568 2495 2569 2636
8 2635 2568 2636 2697 2570 2497 2571 2638
8 2636 2569 2637 2698 2571 2498 2572 2639
8 2638 2571 2639 2700 2573 2500 2574 2641
8 2639 2572 2640 2701 2574 2501 2575 2642
8 2641 2574 2642 2702 2576 2503 2577 2643
8 2597 2528 2596 2659 2645 2579 2644 2704
8 2645 2579 2644 2704 2593 2522 2590 2655
8 2660 2597 2645 2705 2598 2529 2580 2646
8 2646 2580 2645 2705 2595 2525 2593 2657
8 2650 2584 2512 2585 2707 2647 2582 2648
8 2648 2582 2517 2589 2707 2647 2587 2653
8 2649 2583 2648 2708 2586 2513 2585 2651
8 2649 2583 2516 2588 2708 2648 2589 2654
8 2655 2590 2652 2710 2592 2521 2587 2653
8 2654 2589 2520 2591 2711 2653 2592 2656
8 2657 2593 2655 2712 2594 2523 2592 2656
8 2602 2536 2603 2663 2659 2596 2658 2714
8 2662 2602 2659 2715 2600 2534 2597 2660
8 2662 2602 2534 2600 2717 2663 2601 2661
8 2661 2601 2538 2604 2717 2663 2605 2665
8 2666 2606 2664 2718 2605 2539 2603 2663
8 2668 2608 2666 2720 2607 2541 2605 2665
8 2608 2542 2609 2669 2666 2606 2667 2721
8 2610 2544 2611 2671 2668 2608 2669 2723
8 2611 2545 2612 2672 2669 2609 2670 2724
8 2613 2547 2614 2674 2671 2611 2672 2726
8 2614 2548 2615 2675 2672 2612 2673 2727
8 2616 2550 2617 2677 2674 2614 2675 2729
8 2617 2551 2618 2678 2675 2615 2676 2730
8 2619 2553 2620 2680 2677 2617 2678 2732
8 2620 2554 2621 2681 2678 2618 2679 2733
8 2624 2556 2623 2684 2680 2620 2681 2735
8 2681 2621 2555 2623 2736 2682 2622 2683
8 2626 2559 2625 2685 2684 2623 2683 2737
8 2688 2628 2584 2650 2740 2686 2647 2707
8 2688 2628 2687 2742 2650 2584 2629 2690
8 2690 2629 2689 2745 2630 2564 2631 2692
8 2746 2690 2630 2691 2709 2650 2585 2651
8 2691 2630 2692 2747 2632 2565 2633 2694
8 2692 2631 2693 2748 2633 2566 2634 2695
8 2694 2633 2695 2750 2635 2568 2636 2697
8 2695 2634 2696 2751 2636 2569 2637 2698
8 2697 2636 2698 2753 2638 2571 2639 2700
8 2698 2637 2699 2754 2639 2572 2640 2701
8 2700 2639 2701 2755 2641 2574 2642 2702
8 2659 2596 2658 2714 2704 2644 2703 2757
8 2704 2644 2703 2757 2655 2590 2652 2710
8 2660 2597 2659 2715 2705 2645 2704 2758
8 2705 2645 2704 2758 2657 2593 2655 2712
8 2759 2706 2647 2707 2710 2652 2587 2653
8 2709 2650 2585 2651 2760 2707 2648 2708
8 2708 2648 2589 2654 2760 2707 2653 2711
8 2712 2655 2710 2761 2656 2592 2653 2711
8 2763 2713 2658 2714 2718 2664 2603 2663
8 2662 2602 2663 2717 2715 2659 2714 2764
8 2720 2666 2718 2767 2665 2605 2663 2717
8 2768 2719 2664 2718 2721 2667 2606 2666
8 2668 2608 2669 2723 2720 2666 2721 2770
8 2669 2609 2670 2724 2721 2667 2722 2771
8 2671 2611 2672 2726 2723 2669 2724 2773
8 2672 2612 2673 2727 2724 2670 2725 2774
8 2674 2614 2675 2729 2726 2672 2727 2776
8 2675 2615 2676 2730 2727 2673 2728 2777
8 2677 2617 2678 2732 2729 2675 2730 2779
8 2678 2618 2679 2733 2730 2676 2731 2780
8 2680 2620 2681 2735 2732 2678 2733 2782
8 2733 2679 2621 2681 2783 2734 2682 2736
8 2735 2681 2623 2684 2784 2736 2683 2737
8 2740 2686 2647 2707 2787 2738 2706 2759
8 2688 2628 2686 2740 2742 2687 2739 2789
8 2743 2688 2650 2709 2790 2740 2707 2760
8 2742 2687 2741 2792 2690 2629 2689 2745
8 2743 2688 2742 2793 2709 2650 2690 2746
8 2745 2689 2744 2795 2692 2631 2693 2748
8 2746 2690 2745 2796 2691 2630 2692 2747
8 2747 2692 2748 2797 2694 2633 2695 2750
8 2748 2693 2749 2798 2695 2634 2696 2751
8 2750 2695 2751 2800 2697 2636 2698 2753
8 2751 2696 2752 2801 2698 2637 2699 2754
8 2753 2698 2754 2802 2700 2639 2701 2755
8 2763 2713 2756 2804 2714 2658 2703 2757
8 2759 2706 2652 2710 2804 2756 2703 2757
8 2715 2659 2714 2764 2758 2704 2757 2805
8 2758 2704 2757 2805 2712 2655 2710 2761
8 2806 2759 2707 2760 2761 2710 2653 2711
8 2765 2716 2762 2808 2718 2664 2713 2763
8 2809 2763 2714 2764 2767 2718 2663 2717
8 2765 2716 2664 2718 2811 2766 2719 2768
8 2813 2768 2718 2767 2770 2721 2666 2720
8 2814 2769 2719 2768 2771 2722 2667 2721
8 2723 2669 2724 2773 2770 2721 2771 2816
8 2724 2670 2725 2774 2771 2722 2772 2817
8 2726 2672 2727 2776 2773 2724 2774 2819
8 2727 2673 2728 2777 2774 2725 2775 2820
8 2729 2675 2730 2779 2776 2727 2777 2822
8 2730 2676 2731 2780 2777 2728 2778 2823
8 2732 2678 2733 2782 2779 2730 2780 2825
8 2780 2731 2679 2733 2826 2781 2734 2783
8 2782 2733 2681 2735 2827 2783 2736 2784
8 2830 2785 2738 2787 2804 2756 2706 2759
8 2789 2739 2686 2740 2832 2786 2738 2787
8 2790 2740 2707 2760 2833 2787 2759 2806
8 2742 2687 2739 2789 2792 2741 2788 2835
8 2743 2688 2740 2790 2793 2742 2789 2836
8 2792 2741 2791 2838 2745 2689 2744 2795
8 2793 2742 2792 2839 2746 2690 2745 2796
8 2795 2744 2794 2841 2748 2693 2749 2798
8 2796 2745 2795 2842 2747 2692 2748 2797
8 2797 2748 2798 2843 2750 2695 2751 2800
8 2798 2749 2799 2844 2751 2696 2752 2801
8 2800 2751 2801 2845 2753 2698 2754 2802
8 2808 2762 2803 2847 2763 2713 2756 2804
8 2809 2763 2804 2848 2764 2714 2757 2805
8 2806 2759 2710 2761 2848 2804 2757 2805
8 2765 2716 2766 2811 2808 2762 2807 2850
8 2810 2765 2808 2851 2767 2718 2763 2809
8 2810 2765 2718 2767 2852 2811 2768 2813
8 2811 2766 2719 2768 2853 2812 2769 2814
8 2855 2814 2768 2813 2816 2771 2721 2770
8 2856 2815 2769 2814 2817 2772 2722 2771
8 2773 2724 2774 2819 2816 2771 2817 2858
8 2774 2725 2775 2820 2817 2772 2818 2859
8 2776 2727 2777 2822 2819 2774 2820 2861
8 2777 2728 2778 2823 2820 2775 2821 2862
8 2779 2730 2780 2825 2822 2777 2823 2864
8 2823 2778 2731 2780 2865 2824 2781 2826
8 2825 2780 2733 2782 2866 2826 2783 2827
8 2869 2828 2785 2830 2847 2803 2756 2804
8 2871 2829 2786 2832 2830 2785 2738 2787
8 2872 2830 2787 2833 2848 2804 2759 2806
8 2789 2739 2786 2832 2835 2788 2831 2874
8 2836 2789 2740 2790 2875 2832 2787 2833
8 2792 2741 2788 2835 2838 2791 2834 2877
8 2793 2742 2789 2836 2839 2792 2835 2878
8 2838 2791 2837 2880 2795 2744 2794 2841
8 2839 2792 2838 2881 2796 2745 2795 2842
8 2841 2794 2840 2882 2798 2749 2799 2844
8 2842 2795 2841 2883 2797 2748 2798 2843
8 2843 2798 2844 2884 2800 2751 2801 2845
8 2886 2846 2803 2847 2850 2807 2762 2808
8 2851 2808 2847 2887 2809 2763 2804 2848
8 2850 2807 2766 2811 2889 2849 2812 2853
8 2810 2765 2811 2852 2851 2808 2850 2890
8 2852 2811 2768 2813 2891 2853 2814 2855
8 2853 2812 2769 2814 2892 2854 2815 2856
8 2894 2856 2814 2855 2858 2817 2771 2816
8 2817 2772 2818 2859 2856 2815 2857 2895
8 2819 2774 2820 2861 2858 2817 2859 2897
8 2820 2775 2821 2862 2859 2818 2860 2898
8 2822 2777 2823 2864 2861 2820 2862 2900
8 2823 2778 2824 2865 2862 2821 2863 2901
8 2864 2823 2780 2825 2902 2865 2826 2866
8 2904 2867 2828 2869 2886 2846 2803 2847
8 2869 2828 2868 2906 2830 2785 2829 2871
8 2907 2869 2830 2872 2887 2847 2804 2848
8 2871 2829 2870 2909 2832 2786 2831 2874
8 2910 2871 2832 2875 2872 2830 2787 2833
8 2835 2788 2831 2874 2877 2834 2873 2912
8 2836 2789 2832 2875 2878 2835 2874 2913
8 2877 2834 2876 2915 2838 2791 2837 2880
8 2839 2792 2835 2878 2881 2838 2877 2916
8 2880 2837 2879 2917 2841 2794 2840 2882
8 2881 2838 2880 2918 2842 2795 2841 2883
8 2883 2841 2882 2919 2843 2798 2844 2884
8 2921 2885 2846 2886 2889 2849 2807 2850
8 2922 2886 2847 2887 2890 2850 2808 2851
8 2889 2849 2812 2853 2924 2888 2854 2892
8 2890 2850 2811 2852 2925 2889 2853 2891
8 2891 2853 2814 2855 2926 2892 2856 2894
8 2892 2854 2815 2856 2927 2893 2857 2895
8 2858 2817 2859 2897 2894 2856 2895 2929
8 2859 2818 2860 2898 2895 2857 2896 2930
8 2861 2820 2862 2900 2897 2859 2898 2932
8 2862 2821 2863 2901 2898 2860 2899 2933
8 2864 2823 2865 2902 2900 2862 2901 2934
8 2904 2867 2846 2886 2936 2903 2885 2921
8 2904 2867 2903 2936 2869 2828 2868 2906
8 2937 2904 2869 2907 2922 2886 2847 2887
8 2906 2868 2905 2939 2871 2829 2870 2909
8 2907 2869 2906 2940 2872 2830 2871 2910
8 2909 2870 2908 2942 2874 2831 2873 2912
8 2910 2871 2909 2943 2875 2832 2874 2913
8 2912 2873 2911 2945 2877 2834 2876 2915
8 2878 2835 2874 2913 2916 2877 2912 2946
8 2915 2876 2914 2947 2880 2837 2879 2917
8 2916 2877 2915 2948 2881 2838 2880 2918
8 2918 2880 2917 2949 2883 2841 2882 2919
8 2921 2885 2849 2889 2951 2920 2888 2924
8 2952 2921 2886 2922 2925 2889 2850 2890
8 2924 2888 2854 2892 2954 2923 2893 2927
8 2925 2889 2853 2891 2955 2924 2892 2926
8 2926 2892 2856 2894 2956 2927 2895 2929
8 2895 2857 2896 2930 2927 2893 2928 2957
8 2897 2859 2898 2932 2929 2895 2930 2959
8 2898 2860 2899 2933 2930 2896 2931 2960
8 2900 2862 2901 2934 2932 2898 2933 2961
8 2936 2903 2885 2921 2963 2935 2920 2951
8 2936 2903 2935 2963 2906 2868 2905 2939
8 2937 2904 2886 2922 2964 2936 2921 2952
8 2937 2904 2936 2964 2907 2869 2906 2940
8 2939 2905 2938 2966 2909 2870 2908 2942
8 2940 2906 2939 2967 2910 2871 2909 2943
8 2942 2908 2941 2969 2912 2873 2911 2945
8 2943 2909 2942 2970 2913 2874 2912 2946
8 2945 2911 2944 2971 2915 2876 2914 2947
8 2946 2912 2945 2972 2916 2877 2915 2948
8 2948 2915 2947 2973 2918 2880 2917 2949
8 2951 2920 2888 2924 2975 2950 2923 2954
8 2952 2921 2889 2925 2976 2951 2924 2955
8 2927 2893 2928 2957 2954 2923 2953 2978
8 2955 2924 2892 2926 2979 2954 2927 2956
8 2929 2895 2930 2959 2956 2927 2957 2980
8 2930 2896 2931 2960 2957 2928 2958 2981
8 2932 2898 2933 2961 2959 2930 2960 2982
8 2951 2920 2950 2975 2963 2935 2962 2984
8 2963 2935 2962 2984 2939 2905 2938 2966
8 2964 2936 2921 2952 2985 2963 2951 2976
8 2964 2936 2963 2985 2940 2906 2939 2967
8 2966 2938 2965 2987 2942 2908 2941 2969
8 2967 2939 2966 2988 2943 2909 2942 2970
8 2969 2941 2968 2989 2945 2911 2944 2971
8 2970 2942 2969 2990 2946 2912 2945 2972
8 2972 2945 2971 2991 2948 2915 2947 2973
8 2954 2923 2953 2978 2975 2950 2974 2993
8 2976 2951 2924 2955 2994 2975 2954 2979
8 2957 2928 2958 2981 2978 2953 2977 2995
8 2956 2927 2957 2980 2979 2954 2978 2996
8 2959 2930 2960 2982 2980 2957 2981 2997
8 2984 2962 2983 2999 2966 2938 2965 2987
8 2975 2950 2974 2993 2984 2962 2983 2999
8 2976 2951 2975 2994 2985 2963 2984 3000
8 2985 2963 2984 3000 2967 2939 2966 2988
8 2987 2965 2986 3001 2969 2941 2968 2989
8 2988 2966 2987 3002 2970 2942 2969 2990
8 2990 2969 2989 3003 2972 2945 2971 2991
8 2978 2953 2977 2995 2993 2974 2992 3004
8 2979 2954 2978 2996 2994 2975 2993 3005
8 2980 2957 2981 2997 2996 2978 2995 3006
8 2974 2993 2999 2983 2992 3004 3007 2998
8 2983 2999 2987 2965 2998 3007 3001 2986
8 3000 2984 2999 3008 2988 2966 2987 3002
8 2994 2975 2993 3005 3000 2984 2999 3008
8 3002 2987 3001 3009 2990 2969 2989 3003
8 2996 2978 2995 3006 3005 2993 3004 3010
8 3005 2993 3004 3010 3008 2999 3007 3011
8 3008 2999 3007 3011 3002 2987 3001 3009

CELL_TYPES 1910
12
12
12
12
12
12
12
12
12
12
12
12
12
12
12
12
12
12
12
12
12
12
12
12
12
12
12
12
12
12
12
12
12
12
12
12
12
12
12
12
12
12
12
12
12
12
12
12
12
12
12
12
12
12
12
12
12
12
12
12
12
12
12
12
12
12
12
12
12
12
12
12
12
12
12
12
12
12
12
12
12
12
12
12
12
12
12
12
12
12
12
12
12
12
12
12
12
12
12
12
12
12
12
12
12
12
12
12
12
12
12
12
12
12
12
12
12
12
12
12
12
12
12
12
12
12
12
12
12
12
12
12
12
12
12
12
12
12
12
12
12
12
12
12
12
12
12
12
12
12
12
12
12
12
12
12
12
12
12
12
12
12
12
12
12
12
12
12
12
12
12
12
12
12
12
12
12
12
12
12
12
12
12
12
12
12
12
12
12
12
12
12
12
12
12
12
12
12
12
12
12
12
12
12
12
12
12
12
12
12
12
12
12
12
12
12
12
12
12
12
12
12
12
12
12
12
12
12
12
12
12
12
12
12
12
12
12
12
12
12
12
12
12
12
12
12
12
12
12
12
12
12
12
12
12
12
12
12
12
12
12
12
12
12
12
12
12
12
12
12
12
12
12
12
12
12
12
12
12
12
12
12
12
12
12
12
12
12
12
12
12
12
12
12
12
12
12
12
12
12
12
12
12
12
12
12
12
12
12
12
12
12
12
12
12
12
12
12
12
12
12
12
12
12
12
12
12
12
12
12
12
12
12
12
12
12
12
12
12
12
12
12
12
12
12
12
12
12
12
12
12
12
12
12
12
12
12
12
12
12
12
12
12
12
12
12
12
12
12
12
12
12
12
12
12
12
12
12
12
12
12
12
12
12
12
12
12
12
12
12
12
12
12
12
12
12
12
12
12
12
12
12
12
12
12
12
12
12
12
12
12
12
12
12
12
12
12
12
12
12
12
12
12
12
12
12
12
12
12
12
12
12
12
12
12
12
12
12
12
12
12
12
12
12
12
12
12
12
12
12
12
12
12
12
12
12
12
12
12
12
12
12
12
12
12
12
12
12
12
12
12
12
12
12
12
12
12
12
12
12
12
12
12
12
12
12
12
12
12
12
12
12
12
12
12
12
12
12
12
12
12
12
12
12
12
12
12
12
12
12
12
12
12
12
12
12
12
12
12
12
12
12
12
12
12
12
12
12
12
12
12
12
12
12
12
12
12
12
12
12
12
12
12
12
12
12
12
12
12
12
12
12
12
12
12
12
12
12
12
12
12
12
12
12
12
12
12
12
12
12
12
12
12
12
12
12
12
12
12
12
12
12
12
12
12
12
12
12
12
12
12
12
12
12
12
12
12
12
12
12
12
12
12
12
12
12
12
12
12
12
12
12
12
12
12
12
12
12
12
12
12
12
12
12
12
12
12
12
12
12
12
12
12
12
12
12
12
12
12
12
12
12
12
12
12
12
12
12
12
12
12
12
12
12
12
12
12
12
12
12
12
12
12
12
12
12
12
12
12
12
12
12
12
12
12
12
12
12
12
12
12
12
12
12
12
12
12
12
12
12
12
12
12
12
12
12
12
12
12
12
12
12
12
12
12
12
12
12
12
12
12
12
12
12
12
12
12
12
12
12
12
12
12
12
12
12
12
12
12
12
12
12
12
12
12
12
12
12
12
12
12
12
12
12
12
12
12
12
12
12
12
12
12
12
12
12
12
12
12
12
12
12
12
12
12
12
12
12
12
12
12
12
12
12
12
12
12
12
12
12
12
12
12
12
12
12
12
12
12
12
12
12
12
12
12
12
12
12
12
12
12
12
12
12
12
12
12
12
12
12
12
12
12
12
12
12
12
12
12
12
12
12
12
12
12
12
12
12
12
12
12
12
12
12
12
12
12
12
12
12
12
12
12
12
12
12
12
12
12
12
12
12
12
12
12
12
12
12
12
12
12
12
12
12
12
12
12
12
12
12
12
12
12
12
12
12
12
12
12
12
12
12
12
12
12
12
12
12
12
12
12
12
12
12
12
12
12
12
12
12
12
12
12
12
12
12
12
12
12
12
12
12
12
12
12
12
12
12
12
12
12
12
12
12
12
12
12
12
12
12
12
12
12
12
12
12
12
12
12
12
12
12
12
12
12
12
12
12
12
12
12
12
12
12
12
12
12
12
12
12
12
12
12
12
12
12
12
12
12
12
12
12
12
12
12
12
12
12
12
12
12
12
12
12
12
12
12
12
12
12
12
12
12
12
12
12
12
12
12
12
12
12
12
12
12
12
12
12
12
12
12
12
12
12
12
12
12
12
12
12
12
12
12
12
12
12
12
12
12
12
12
12
12
12
12
12
12
12
12
12
12
12
12
12
12
12
12
12
12
12
12
12
12
12
12
12
12
12
12
12
12
12
12
12
12
12
12
12
12
12
12
12
12
12
12
12
12
12
12
12
12
12
12
12
12
12
12
12
12
12
12
12
12
12
12
12
12
12
12
12
12
12
12
12
12
12
12
12
12
12
12
12
12
12
12
12
12
12
12
12
12
12
12
12
12
12
12
12
12
12
12
12
12
12
12
12
12
12
12
12
12
12
12
12
12
12
12
12
12
12
12
12
12
12
12
12
12
12
12
12
12
12
12
12
12
12
12
12
12
12
12
12
12
12
12
12
12
12
12
12
12
12
12
12
12
12
12
12
12
12
12
12
12
12
12
12
12
12
12
12
12
12
12
12
12
12
12
12
12
12
12
12
12
12
12
12
12
12
12
12
12
12
12
12
12
12
12
12
12
12
12
12
12
12
12
12
12
12
12
12
12
12
12
12
12
12
12
12
12
12
12
12
12
12
12
12
12
12
12
12
12
12
12
12
12
12
12
12
12
12
12
12
12
12
12
12
12
12
12
12
12
12
12
12
12
12
12
12
12
12
12
12
12
12
12
12
12
12
12
12
12
12
12
12
12
12
12
12
12
12
12
12
12
12
12
12
12
12
12
12
12
12
12
12
12
12
12
12
12
12
12
12
12
12
12
12
12
12
12
12
12
12
12
12
12
12
12
12
12
12
12
12
12
12
12
12
12
12
12
12
12
12
12
12
12
12
12
12
12
12
12
12
12
12
12
12
12
12
12
12
12
12
12
12
12
12
12
12
12
12
12
12
12
12
12
12
12
12
12
12
12
12
12
12
12
12
12
12
12
12
12
12
12
12
12
12
12
12
12
12
12
12
12
12
12
12
12
12
12
12
12
12
12
12
12
12
12
12
12
12
12
12
12
12
12
12
12
12
12
12
12
12
12
12
12
12
12
12
12
12
12
12
12
12
12
12
12
12
12
12
12
12
12
12
12
12
12
12
12
12
12
12
12
12
12
12
12
12
12
12
12
12
12
12
12
12
12
12
12
12
12
12
12
12
12
12
12
12
12
12
12
12
12
12
12
12
12
12
12
12
12
12
12
12
12
12
12
12
12
12
12
12
12
12
12
12
12
12
12
12
12
12
12
12
12
12
12
12
12
12
12
12
12
12
12
12
12
12
12
12
12
12
12
12
12
12
12
12
12
12
12
12
12
12
12
12
12
12
12
12
12
12
12
12
12
12
12
12
12
12
12
12
12
12
12
12
12
12
12
12
12
12
12
12
12
12
12
12
12
12
12
12
12
12
12
12
12
12
12
12
12
12
12
12
12
12
12
12
12
12
12
12
12
12
12
12
12
12
12
12
12
12
12
12
12
12
12
12
12
12
12
12
12
12
12
12
12
12
12
12
12
12
12
12
12
12
12
12
12
12
12
12
12
12
12
12
12
12
12
12
12
12
12
12
12
12
12
12
12
12
12
12
12
12
12
12
12
12
12
12
12
12
12
12
12
12
12
12
12
12
12
12
12
12
12
12
12
12
12
12
12
12
12
12
12
12
12
12
12
12
12
12
12
12
12
12
12
12
12
12
12
12
12
12
12
12
12
12
12
12
12
12
12
12
12
12
12
12
12
12
12
12
12
12
12
12
12
12
12
12
12
12
12
12
12
12
12
12
12
12
12
12
12
12
12
12
12
12
12
12
12
12
12
12
12
12
12
12
12
12
12
12
12
12
12
12
12
12
12
12
12
12
12
12
12
12
12
12
12
12
12
12
12
12
12
12
12
12
12
12
12
12
12
12
12
12
12
12
12
12
12
12
12
12
12
12
12
12
12
12
12
12
12
12
12
12
12
12
12
12
12
12
12
12
12
12
12
12
12
12
12
12
12
12
12
12
12
12
12
12
12
12
12
12
12
12
12
12
12
12
12
12
12
12
12
12
12
12
12
12
12
12
12
12
12
12
12
12
12
12

POINT_DATA 3012
SCALARS Jp_lamdaP float 4
LOOKUP_TABLE default
0.999229 1 1 0.999229
1 1 1 1
0.999255 1 1 0.999255
0.999186 1 1 0.999186
0.999235 1 1 0.999235
0.999192 1 1 0.999192
1.02417 1.02631 1 0.997914
0.999999 1 1 0.999999
1 1 1 1
1 1 1 1
0.999237 1 1 0.999237
1.02081 1.02309 1 0.997777
0.999283 1 1 0.999283
0.999244 1 1 0.999244
0.999268 1 1 0.999268
0.999232 1 1 0.999232
0.999209 1 1 0.999209
0.999271 1 1 0.999271
1.024 1.02615 1 0.997905
1 1 1 1
0.999186 1 1 0.999186
0.999212 1 1 0.999212
1.01609 1.01825 1 0.997877
1.02114 1.02326 1 0.99793
0.99917 1 1 0.99917
1.02646 1.02866 1 0.997865
1.06335 1.0676 1 0.996019
0.999994 1 1 0.999994
0.999627 1 1 0.999627
0.999635 1 1 0.999635
0.999995 1 1 0.999995
1.019 1.02111 1.00015 0.997783
0.999249 1 1 0.999249
0.99927 1 1 0.99927
1.02279 1.02466 1 0.998176
1 1 1 1
1.02467 1.02651 1 0.998205
1.01397 1.015 1.0012 0.997779
1.05221 1.05642 1.00024 0.995773
1 1 1 1
1 1 1 1
0.999627 1 1 0.999627
1 1 1 1
0.999277 1 1 0.999277
1.0042 1.00643 1 0.997784
1 1 1 1
1.01128 1.01317 1 0.998131
0.999273 1 1 0.999273
0.999298 1 1 0.999298
0.999217 1 1 0.999217
1.02392 1.02607 1 0.997902
0.99961 1 1 0.99961
0.999227 1 1 0.999227
0.999185 1 1 0.999185
0.999256 1 1 0.999256
1.01587 1.01804 1 0.997862
1.0261 1.0283 1 0.997859
1.02094 1.02307 1 0.99792
1.06431 1.06856 1 0.996021
1 1 1 1
0.999219 1 1 0.999219
1.00536 1.00711 1 0.99826
1.01243 1.01458 1 0.997883
1.01898 1.02112 1 0.997906
1.06484 1.06912 1 0.996001
1.06351 1.06775 1 0.996033
0.999166 1 1 0.999166
1.01703 1.01888 1.00032 0.997859
1.0628 1.06708 1 0.995983
1.0837 1.08877 1 0.995343
1 1 1 1
1 1 1 1
1 1 1 1
1.01704 1.01916 1.00013 0.997788
1 1 1 1
1 1 1 1
1.02282 1.0251 1 0.997778
0.999676 1 1 0.999676
1.0238 1.02604 1 0.997824
1.01189 1.01256 1.00129 0.998055
1.05586 1.06035 1.00001 0.995766
1 1 1 1
1.00595 1.00008 1.00691 0.998974
1.01993 1.02227 1 0.997702
1.02371 1.02598 1 0.997784
1.06975 1.07441 1 0.995664
1.00793 1.00697 1.00245 0.998506
1.06288 1.06737 1 0.995791
1.0473 1.04827 1.00321 0.995874
1.08448 1.08977 1 0.99514
1 1 1 1
1 1 1 1
1 1 1 1
1 1 1 1
1 1 1 1
0.999641 1 1 0.999641
1.00517 1.00718 1 0.99801
0.99962 1 1 0.99962
1.01268 1.01477 1 0.997937
1 1 1 1
1.0029 1.00506 1 0.997851
1.00733 1.00918 1 0.998165
1.06123 1.06571 1 0.995802
1.01635 1.01824 1 0.998149
1.0689 1.07346 1 0.995747
0.999308 1 1 0.999308
0.999266 1 1 0.999266
0.999194 1 1 0.999194
0.999294 1 1 0.999294
1.01564 1.01783 1 0.997849
1.02075 1.02288 1 0.997913
1.02532 1.02752 1 0.997857
1.06567 1.06993 1 0.996022
1 1 1 1
0.999258 1 1 0.999258
1.00487 1.00697 1 0.997915
1.01218 1.01434 1 0.997864
0.999589 1 1 0.999589
1.01817 1.01974 1.00047 0.997986
1.01872 1.02087 1 0.997894
1.0652 1.06947 1 0.996013
1.06302 1.06731 1 0.995984
1.06434 1.06859 1 0.996031
1.08321 1.08827 1 0.995353
1.00394 1.00608 1 0.997872
1.00818 1.01028 1 0.997927
1.05813 1.06274 0.999492 0.996167
1.06218 1.0667 0.999694 0.996064
1.06406 1.0683 1 0.996037
1.0938 1.10092 0.997841 0.995684
1 1 1 1
1.08839 1.09368 0.999676 0.995478
1.00817 1.00801 1.00232 0.997838
1.0555 1.06001 1 0.995738
1.07917 1.08438 1 0.995201
1.08312 1.09122 0.996958 0.995612
1.0042 1.00104 1.00472 0.998445
1.01351 1.00401 1.01256 0.99694
1 1 1 1
1 1 1 1
1.02318 1.02545 1 0.997781
1 1 1 1
1.00901 1.00927 1.00186 0.997887
1.02367 1.0259 1 0.997829
1.05959 1.0641 1 0.995759
1 1 1 1
1.00683 1.00013 1.00771 0.998996
1.02103 1.02315 1 0.99793
1.02436 1.02641 1 0.997997
1.06877 1.07343 1 0.995659
1.00643 1.0047 1.00349 0.998236
1.06292 1.06741 1 0.995788
1.04729 1.04849 1.003 0.995868
1.08383 1.08909 1 0.995168
1.00568 1.00162 1.00545 0.998607
1.00848 1 1.00922 0.999268
1.02015 1.00867 1.01398 0.997436
1.07146 1.07614 1 0.995649
1.06907 1.07365 1 0.995729
1.09208 1.09794 0.999234 0.995426
1.03408 1.03291 1.00484 0.996307
1.08115 1.08616 1 0.995396
1.07539 1.07932 1.00131 0.99506
1.09521 1.10044 1 0.995246
1 1 1 1
1 1 1 1
1 1 1 1
1.00529 1.00034 1.00621 0.998743
1 1 1 1
1 1 1 1
1 1 1 1
1.01387 1.01615 1 0.997753
1.00569 1.00787 1 0.997832
1 1 1 1
1 1 1 1
1.00317 1.00533 1 0.997851
1.00822 1.01027 1 0.997977
1.06047 1.06494 1 0.995803
1.01717 1.01948 1 0.997727
1.06677 1.07133 1 0.995745
1.00292 1.00508 1 0.99786
1.05861 1.06308 1 0.995789
1.06458 1.06907 1 0.995796
1.09394 1.10307 0.995784 0.99592
1.07135 1.07599 1 0.995685
1.09335 1.10196 0.996343 0.99583
1 1 1 1
0.999297 1 1 0.999297
1.00432 1.00681 1 0.997523
1.01194 1.01412 1 0.997847
1 1 1 1
1.0192 1.02112 1 0.998117
1.01848 1.02064 1 0.997885
1.06554 1.06979 1 0.996026
1.06522 1.06947 1 0.996028
1.06222 1.0665 1 0.995986
1.08193 1.08697 1 0.995363
1.00359 1.00573 1 0.99787
1.00803 1.01014 1 0.997909
1.05849 1.06339 0.999377 0.996012
1.06317 1.06757 0.999841 0.996039
1 1 1 1
1.01101 1.01165 1.00134 0.998028
1.05266 1.05645 1.00053 0.995877
1.06458 1.06882 1 0.996026
1.09202 1.0999 0.997091 0.995732
1.07878 1.08397 1 0.995208
1.0886 1.09394 0.999627 0.995491
1.08262 1.0907 0.99696 0.995619
1.00468 1.00185 1.0044 0.998428
1.01508 1.0065 1.01163 0.996932
1.0573 1.06176 1 0.9958
1.06021 1.06501 0.999359 0.99613
1.0941 1.1022 0.996783 0.995857
1.09272 1.10148 0.996201 0.995826
1.09033 1.09805 0.997314 0.995642
1.08165 1.09539 0.991369 0.996046
1.0056 1.00386 1.00361 0.998125
1.08223 1.09423 0.99316 0.99585
1.04776 1.04992 1.00205 0.995903
1.07983 1.08518 1 0.995069
1.08563 1.09111 0.999663 0.995311
1.07586 1.09168 0.989468 0.995993
1.01975 1.01368 1.00955 0.996473
1.01492 1.00098 1.01644 0.997527
1.02338 1.01504 1.01222 0.996042
1.02171 1.02402 1 0.997744
1 1 1 1
1.00673 1.00005 1.00767 0.999019
1.0245 1.02674 1 0.997823
1.06798 1.07264 1 0.995655
1.00584 1.00339 1.0042 0.998236
1.04899 1.05109 1.00215 0.995862
1.06219 1.06669 1 0.995785
1.0843 1.08954 1 0.995197
1.0057 1.00126 1.00581 0.998637
1.00785 1.00002 1.00854 0.999286
1.0166 1.0054 1.01374 0.997439
1.06973 1.07441 1 0.995643
1.0676 1.07218 1 0.995727
1.09271 1.09848 0.999329 0.99542
1.03203 1.0312 1.00452 0.996306
1.08214 1.08716 1 0.995385
1.07896 1.08346 1.00081 0.995044
1.09495 1.10014 0.999998 0.995283
1.00784 1 1.00835 0.999493
1.02318 1.01783 1.00841 0.996875
1.02007 1.00258 1.01958 0.997903
1.01763 1.01406 1.00671 0.996825
1.09192 1.09883 0.998164 0.995543
1.08837 1.0936 0.99983 0.995385
1.08673 1.09911 0.993068 0.995644
1.05585 1.05279 1.00762 0.995318
1.08337 1.08924 0.998958 0.995649
1.08202 1.08578 1.00158 0.99497
1.10726 1.11239 1 0.995386
1.00333 1 1.0043 0.999027
1.00079 1 1.00104 0.999751
1 1 1 1
1 1 1 1
1 1 1 1
1.00539 1 1.00626 0.999128
1 1 1 1
1.00523 1.00035 1.00617 0.998718
1 1 1 1
1.0186 1.02092 1 0.997729
1.00925 1.01148 1 0.997797
1.0651 1.06965 1 0.995744
1.05978 1.06425 1 0.995805
1.0035 1.00566 1 0.997853
1 1 1 1
1.00286 1.00501 1 0.99786
1.05845 1.06292 1 0.99579
1.0635 1.06799 1 0.995796
1.09406 1.10315 0.995822 0.995918
1.06954 1.07418 1 0.995679
1.09451 1.10305 0.996416 0.995828
1.05716 1.06163 1 0.995789
1.09409 1.10319 0.995833 0.995901
1.09419 1.10281 0.996267 0.995902
1.07829 1.0935 0.989764 0.99629
1.09276 1.10081 0.996983 0.995699
1.082 1.09676 0.990356 0.99615
1.00331 1.00545 1 0.997869
1.00788 1.01001 1 0.997891
1.05885 1.06406 0.999245 0.995858
1.06419 1.06845 1 0.996014
0.999997 1 1 0.999997
1.01385 1.01448 1.00116 0.998223
1.05085 1.05428 1.00074 0.996014
1.06508 1.06934 1 0.996015
1.09031 1.09896 0.996336 0.99578
1.08884 1.09422 0.999579 0.995505
1.08016 1.08536 1 0.995214
1.08256 1.09067 0.996932 0.995626
1.0049 1.00257 1.00392 0.998412
1.01796 1.00909 1.0119 0.996924
1.0575 1.06222 0.99973 0.995827
1.06082 1.0655 0.999485 0.996124
1.09341 1.10193 0.996367 0.995885
1.09265 1.1007 0.996897 0.995777
1.00619 1.00493 1.00315 0.99811
1.04564 1.04753 1.0023 0.995905
1.08257 1.08794 1 0.995066
1.09079 1.09778 0.99801 0.995614
1.08147 1.09609 0.990526 0.996099
1.08528 1.09076 0.999643 0.995333
1.08194 1.09404 0.993062 0.99585
1.0754 1.09167 0.989071 0.995975
1.02328 1.01719 1.00954 0.996471
1.02292 1.01244 1.01436 0.996043
1.01647 1.00146 1.01749 0.997535
1.09434 1.10232 0.99689 0.995849
1.09363 1.10254 0.996041 0.995863
1.07765 1.09131 0.991224 0.996221
1.08001 1.09516 0.989981 0.99614
1.08128 1.0964 0.990152 0.996018
1.07662 1.0986 0.983543 0.996388
1.03324 1.0309 1.00613 0.996162
1.07172 1.09399 0.983386 0.996187
1.07684 1.0821 1 0.995132
1.08485 1.09037 1 0.994934
1.07811 1.08706 0.996256 0.995498
1.06719 1.09063 0.982177 0.996262
1.01949 1.00331 1.01823 0.997934
1.03857 1.02943 1.01328 0.995657
1.01802 1.00239 1.0191 0.996554
1.0276 1.02168 1.01027 0.995569
1.06804 1.07272 1 0.995637
1.00796 1.00013 1.00852 0.999304
1.00569 1.00063 1.0064 0.998666
1.01646 1.00304 1.01598 0.99744
1.06648 1.07106 1 0.995725
1.09325 1.09892 0.999428 0.995415
1.02769 1.02648 1.00489 0.996306
1.07897 1.08385 1.00048 0.995027
1.08329 1.08833 1 0.995374
1.09252 1.09766 1 0.995319
1.0065 1 1.007 0.999508
1.01992 1.01357 1.0094 0.996893
1.02004 1.00221 1.01993 0.997896
1.01594 1.01136 1.00772 0.99683
1.09342 1.10023 0.998269 0.995538
1.08892 1.0941 0.999886 0.995382
1.08606 1.09849 0.993008 0.995645
1.0555 1.05205 1.00801 0.995308
1.08221 1.08805 0.999013 0.995611
1.07735 1.08094 1.00173 0.994956
1.1074 1.1124 1 0.995506
1.00306 1 1.00342 0.999641
1.01746 1 1.01923 0.998267
1.03104 1.02692 1.008 0.996042
1.02209 1.00797 1.01687 0.99719
1.01684 1.014 1.00617 0.996642
1.08428 1.10006 0.98982 0.995795
1.08505 1.09388 0.996307 0.995607
1.07748 1.09601 0.987214 0.995829
1.0408 1.04149 1.00436 0.994999
1.08657 1.0956 0.996001 0.995747
1.06168 1.06615 1.00086 0.994952
1.00586 1 1.00704 0.998819
1.00955 1 1.0113 0.998272
1.00025 1 1.00105 0.999206
1.0022 1 1.00317 0.99903
0.999856 1 1 0.999856
1.00029 1 1.00052 0.99977
0.999978 1 1 0.999978
1 1 1 1
1 1 1 1
1.00292 1 1.00345 0.999472
1 1 1 1
1.00592 1 1.00682 0.999098
1 1 1 1
1.00475 1.00045 1.00561 0.998694
1 1 1 1
1.0674 1.07204 1 0.995674
1.06212 1.0666 1 0.995796
1.09532 1.10374 0.996524 0.995826
1.0941 1.10314 0.995866 0.995917
1.05821 1.06268 1 0.995792
1.00268 1.00483 1 0.997859
1.05739 1.06186 1 0.995789
1.09398 1.10308 0.995826 0.995902
1.09427 1.10296 0.996207 0.9959
1.07767 1.09361 0.989073 0.996305
1.09387 1.1019 0.996996 0.995695
1.08185 1.09643 0.990514 0.996149
1.0939 1.10277 0.996053 0.99589
1.07726 1.09305 0.989204 0.996315
1.08016 1.09465 0.990486 0.996248
1.08169 1.10191 0.985102 0.996498
1.08128 1.09814 0.988609 0.995989
1.08112 1.10424 0.982548 0.996458
1.05755 1.06255 0.999436 0.995853
1.06146 1.066 0.999623 0.996118
1.09275 1.10167 0.99598 0.995914
1.09248 1.09984 0.997567 0.995728
1.00748 1.0066 1.00278 0.998097
1.04485 1.04633 1.00269 0.995909
1.08523 1.09061 1 0.995063
1.09118 1.09744 0.998707 0.995587
1.08119 1.0967 0.989671 0.996152
1.0815 1.09369 0.992973 0.99585
1.08461 1.09007 0.999636 0.995354
1.07482 1.09152 0.988703 0.995956
1.02732 1.02133 1.00943 0.996468
1.02113 1.01039 1.01465 0.996043
1.01665 1.00215 1.01697 0.997541
1.09368 1.10196 0.996601 0.995874
1.09294 1.10202 0.995877 0.995862
1.0773 1.09182 0.990401 0.996264
1.0808 1.09543 0.990489 0.996116
1.03722 1.03487 1.00613 0.996168
1.07696 1.0822 1.00002 0.995139
1.0851 1.0906 1.00003 0.99493
1.08192 1.09623 0.990945 0.995965
1.07618 1.09885 0.982876 0.996432
1.07881 1.08757 0.996475 0.99546
1.07201 1.09426 0.98342 0.996187
1.06713 1.09115 0.981619 0.996301
1.03629 1.02977 1.01071 0.995663
1.02491 1.01931 1.01004 0.995509
1.01639 1.003 1.01544 0.997939
1.0156 1.00246 1.01654 0.996626
1.0776 1.09175 0.990733 0.99627
1.0801 1.09478 0.990372 0.99618
1.07732 1.09681 0.985761 0.996416
1.07412 1.10039 0.979586 0.99647
1.07403 1.09631 0.983278 0.996344
1.07838 1.10559 0.97873 0.996588
1.05706 1.05992 1.00197 0.995342
1.06466 1.09463 0.976003 0.996539
1.07071 1.07621 1 0.994888
1.07778 1.08368 0.99968 0.994867
1.07461 1.08825 0.991886 0.995548
1.06846 1.09393 0.980319 0.996329
1.01481 1.0047 1.01199 0.998097
1.02483 1.00926 1.01859 0.9969
1.03101 1.0324 1.00339 0.995272
1.01865 1.00803 1.01442 0.996171
1.02585 1.01768 1.01274 0.995342
1.00533 1 1.00581 0.999523
1.09498 1.10168 0.998375 0.995532
1.01824 1.00224 1.01811 0.997889
1.01605 1.00939 1.00972 0.996912
1.01209 1.0079 1.00734 0.996835
1.08942 1.09454 0.999939 0.99538
1.08531 1.09781 0.992945 0.995645
1.05797 1.05657 1.00605 0.995299
1.07632 1.0797 1.00193 0.994941
1.08147 1.0873 0.999066 0.995572
1.10845 1.11333 0.999995 0.995626
1.00242 1 1.00277 0.999653
1.01858 1.00016 1.02018 0.998275
1.02993 1.02555 1.00825 0.996056
1.02143 1.0067 1.01751 0.997176
1.01778 1.01434 1.00692 0.996501
1.08349 1.09931 0.989773 0.995792
1.08463 1.0935 0.996264 0.995608
1.07637 1.09508 0.987044 0.995818
1.04166 1.04317 1.00358 0.994996
1.09206 1.10096 0.996191 0.995714
1.06263 1.06693 1.00096 0.995018
1.00971 1 1.01115 0.99858
1.02196 1.00297 1.02152 0.997463
1.0152 1.01546 1.0041 0.995667
1.02869 1.016 1.01578 0.996768
1.02871 1.02657 1.00587 0.996233
1.07917 1.10338 0.981962 0.99602
1.07778 1.09027 0.992751 0.995761
1.06452 1.08991 0.980584 0.996042
1.01054 1.01176 1.00379 0.995025
1.05668 1.06236 0.999551 0.995101
1.00582 1 1.00701 0.998823
1.00965 1.00007 1.01152 0.998082
1.01014 1 1.01191 0.998256
1.00802 1 1.00992 0.998113
1.00496 1 1.00653 0.998434
0.999635 1 1.00032 0.999316
1.00051 1 1.0013 0.999211
0.999915 1 1 0.999915
1.002 1 1.00297 0.999033
0.999872 1 1 0.999872
0.999999 1 1 0.999999
1.00004 1 1.00025 0.999789
0.999989 1 1 0.999989
1 1 1 1
1.0032 1 1.00354 0.999657
1.00474 1 1.00529 0.999459
1 1 1 1
1 1 1 1
1.00708 1 1.00802 0.999068
1 1 1 1
1.09512 1.10318 0.996997 0.995691
1.09465 1.10344 0.996117 0.995899
1.08181 1.09623 0.990661 0.996149
1.07714 1.09381 0.98839 0.996321
1.09387 1.10298 0.995818 0.995902
1.05783 1.06231 1 0.995789
1.09374 1.1026 0.996053 0.99589
1.07741 1.09295 0.989436 0.99631
1.08032 1.09482 0.990477 0.996248
1.08057 1.10163 0.984306 0.996525
1.08095 1.09792 0.988511 0.995985
1.08106 1.10447 0.982262 0.996481
1.07735 1.09246 0.989847 0.996287
1.08033 1.1017 0.984063 0.996485
1.08141 1.10233 0.984422 0.99655
1.08261 1.10959 0.978977 0.996642
1.08058 1.10486 0.981676 0.996276
1.08512 1.11253 0.978617 0.996673
1.0931 1.10164 0.996334 0.995898
1.09222 1.10149 0.995711 0.995861
1.07688 1.0923 0.989538 0.996308
1.08162 1.09572 0.991011 0.996092
1.03843 1.03595 1.00625 0.996173
1.07391 1.07907 1.00007 0.995144
1.08472 1.09005 1.00018 0.994925
1.08264 1.09612 0.991759 0.995912
1.07584 1.0991 0.9823 0.996476
1.07245 1.09466 0.983455 0.996187
1.07939 1.08804 0.996616 0.995422
1.06705 1.0917 0.981017 0.99634
1.03522 1.02859 1.01081 0.995669
1.02519 1.01623 1.01343 0.99545
1.01494 1.00286 1.01414 0.997943
1.01303 1.00239 1.01396 0.996697
1.07777 1.0919 0.990752 0.99627
1.08 1.09465 0.99042 0.996165
1.07669 1.09654 0.985399 0.996444
1.07534 1.10055 0.98057 0.996453
1.05658 1.05657 1.00468 0.995343
1.07075 1.0762 1.00003 0.994906
1.07713 1.08265 1.00004 0.994854
1.07507 1.09668 0.983941 0.996296
1.07578 1.10405 0.977678 0.996643
1.07234 1.08629 0.991584 0.995535
1.06578 1.09575 0.976029 0.996538
1.06691 1.09282 0.979815 0.996404
1.03089 1.03041 1.0052 0.995281
1.02335 1.01495 1.01301 0.995327
1.02096 1.00704 1.01772 0.996174
1.01517 1.00328 1.0138 0.998084
1.02344 1.00463 1.02186 0.996929
1.07897 1.10028 0.984114 0.996462
1.07928 1.10331 0.981695 0.996462
1.07434 1.11011 0.971053 0.996629
1.07081 1.10083 0.97601 0.996633
1.04727 1.05243 1.00002 0.995085
1.06491 1.09821 0.972893 0.996699
1.05001 1.05532 1.00029 0.99469
1.06323 1.07152 0.997493 0.99476
1.06677 1.08755 0.985265 0.99556
1.00966 1 1.0112 0.998476
1.02147 1.00087 1.02339 0.997264
1.02325 1.01301 1.01354 0.996623
1.0216 1.01927 1.00713 0.995196
1.02497 1.01036 1.01887 0.995677
1.02286 1.01281 1.01476 0.995227
1.00133 1 1.00167 0.999664
1.01938 1 1.02113 0.998284
1.0826 1.09846 0.989728 0.995789
1.02412 1.0047 1.02223 0.997161
1.02972 1.02243 1.0111 0.996071
1.01932 1.01528 1.00765 0.99636
1.0839 1.0928 0.996225 0.99561
1.07544 1.09433 0.986875 0.995808
1.04061 1.04251 1.00319 0.994994
1.06214 1.06657 1.00077 0.995083
1.09789 1.10667 0.996373 0.995682
1.01062 1 1.01206 0.998586
1.02378 1.00158 1.02476 0.997467
1.02216 1.02068 1.00592 0.995558
1.02997 1.01442 1.01861 0.996778
1.02885 1.02728 1.00535 0.996204
1.07788 1.10194 0.982082 0.996015
1.08151 1.09398 0.992827 0.995746
1.06752 1.09383 0.979798 0.996063
1.01282 1.0146 1.00324 0.995017
1.05374 1.05942 0.999582 0.995056
1.0162 1.00161 1.01677 0.997828
1.02895 1.00378 1.0281 0.997058
1.00894 1.01048 1.00296 0.995525
1.03813 1.0264 1.01511 0.99637
1.05294 1.05594 1.00111 0.996054
1.06547 1.10265 0.96968 0.996495
1.08418 1.09855 0.991337 0.995539
1.07664 1.0996 0.983094 0.995961
1.01659 1.01719 1.00433 0.995091
1.024 1.02934 1 0.994809
1.0049 1 1.00608 0.998827
1.00938 1.00022 1.0111 0.99808
1.00188 1 1.00375 0.998133
1.00767 1 1.00945 0.998238
1.00421 1 1.00579 0.998429
1.00917 0.999994 1.01107 0.998122
1.00374 1 1.0055 0.998255
1.00921 1 1.01117 0.998069
1.00117 1 1.00264 0.998538
0.999325 1 1 0.999325
0.999315 1 1 0.999315
0.999952 1 1 0.999952
0.99986 1 1.00065 0.999215
0.999927 1 1 0.999927
1 1 1 1
0.999889 1 1 0.999889
0.999995 1 1 0.999995
1 1 1 1
1.0004 1 1.0006 0.999798
1.00231 1 1.00267 0.99964
1 1 1 1
1.0053 1 1.00586 0.999445
1 1 1 1
1 1 1 1
1.08064 1.09771 0.988415 0.995982
1.08031 1.0948 0.99048 0.996249
1.081 1.10472 0.981956 0.996504
1.07938 1.10131 0.983485 0.996552
1.07758 1.09287 0.989663 0.996306
1.09347 1.10233 0.996055 0.99589
1.07764 1.09237 0.990207 0.996271
1.0809 1.10169 0.9846 0.996478
1.08115 1.10179 0.98468 0.996537
1.08005 1.10827 0.97781 0.996651
1.08112 1.10513 0.981927 0.996279
1.08208 1.11097 0.977215 0.996708
1.08091 1.10137 0.984916 0.996458
1.08401 1.11255 0.977626 0.996647
1.08105 1.1115 0.9758 0.996723
1.07657 1.11362 0.96994 0.996695
1.07796 1.09207 0.990771 0.996269
1.07996 1.09456 0.990475 0.99615
1.07612 1.09633 0.985044 0.996472
1.07659 1.10076 0.981547 0.996436
1.05847 1.05769 1.00542 0.995344
1.07247 1.07795 1 0.994924
1.07634 1.08144 1.00045 0.994841
1.07596 1.09698 0.984527 0.996249
1.07318 1.10254 0.976598 0.996698
1.06665 1.09658 0.976081 0.996537
1.07016 1.08446 0.991257 0.995521
1.06627 1.09235 0.979575 0.996479
1.02691 1.02603 1.00559 0.99529
1.01829 1.01241 1.01055 0.995313
1.02372 1.00699 1.02052 0.996176
1.01285 1.00245 1.01232 0.998075
1.02307 1.00104 1.02512 0.996959
1.07885 1.10005 0.984213 0.996463
1.07996 1.10386 0.981827 0.996459
1.07559 1.1096 0.97264 0.996623
1.04687 1.05183 1.00021 0.995084
1.05058 1.05588 1.00026 0.994717
1.06266 1.06989 0.998485 0.994751
1.07117 1.10053 0.976614 0.996621
1.06713 1.08838 0.984716 0.995694
1.06265 1.09602 0.972796 0.996667
1.00889 1 1.01035 0.998555
1.01831 1.01642 1.00669 0.995195
1.02395 1.01271 1.01588 0.995298
1.02907 1.01237 1.02094 0.995655
1.02541 1.013 1.01565 0.996648
1.02381 1.00432 1.02226 0.99721
1.08277 1.11047 0.978453 0.996527
1.0796 1.11719 0.969656 0.996597
1.06798 1.10954 0.965736 0.996689
1.05939 1.10126 0.965062 0.996812
1.02697 1.03183 1.00031 0.994972
1.05511 1.08368 0.977299 0.996248
1.03317 1.03725 1.00165 0.994428
1.04378 1.05638 0.993379 0.994653
1.00222 1 1.00318 0.999049
1.0181 1 1.02034 0.997806
1.02056 1.00696 1.01661 0.996946
1.02984 1.00965 1.02393 0.996162
1.01166 1.00622 1.0102 0.995259
1.0291 1.01018 1.02381 0.995041
1.01214 1 1.01357 0.998591
1.02018 1 1.02277 0.997471
1.07659 1.10049 0.982198 0.996011
1.028 1.01271 1.01837 0.996787
1.02855 1.02599 1.00708 0.995447
1.02726 1.02606 1.00502 0.996174
1.08543 1.09787 0.992911 0.995731
1.07019 1.09749 0.97896 0.996083
1.01595 1.01827 1.00273 0.995009
1.05057 1.05608 0.99977 0.995011
1.01332 1.00023 1.01527 0.997837
1.0276 1.00344 1.02715 0.997004
1.01026 1.01111 1.00367 0.995511
1.03946 1.02947 1.01341 0.996343
1.05842 1.062 1.00056 0.996072
1.06863 1.10535 0.970136 0.996542
1.08376 1.09808 0.991316 0.995601
1.07681 1.09887 0.983804 0.996062
1.01956 1.01996 1.00458 0.995051
1.02258 1.028 1.00003 0.994694
1.01014 1 1.01247 0.997696
1.0266 1.0039 1.02588 0.996815
1.03066 1.03128 1.00378 0.995636
1.04959 1.05038 1.00328 0.995989
1.06958 1.13173 0.948139 0.996774
1.0598 1.09881 0.967856 0.996527
1.0618 1.06994 0.997378 0.995003
1.03157 1.03268 1.00426 0.994686
1.00809 1 1.01003 0.998079
1.00348 0.999811 1.00558 0.998103
1.00148 0.998543 1.0045 0.998453
1.00621 1 1.00779 0.998426
1.01193 0.999906 1.01392 0.998131
1.00151 1 1.00299 0.998529
1.00325 0.999349 1.00561 0.998301
1.01091 1 1.01286 0.998083
1.00028 1 1.00167 0.998608
1.00994 1 1.01195 0.998016
1.00669 1 1.00868 0.998018
1.0001 1 1.00162 0.998487
0.999276 1 1 0.999276
0.999321 1 1 0.999321
0.99997 1 1 0.99997
0.999315 1 1 0.999315
0.999958 1 1 0.999958
1 1 1 1
0.999938 1 1 0.999938
1 1 1 1
0.999992 1 1 0.999992
0.999894 1 1 0.999894
1.00232 1 1.00254 0.999772
1 1 1 1
1.00381 1 1.00419 0.999624
1 1 1 1
1 1 1 1
1.08156 1.1053 0.982177 0.996281
1.08098 1.10133 0.984952 0.996523
1.07915 1.10947 0.975846 0.996743
1.07757 1.10702 0.976657 0.996659
1.08148 1.10166 0.985156 0.996471
1.07794 1.09231 0.99056 0.996255
1.08055 1.10122 0.984711 0.996459
1.083 1.11145 0.977686 0.996637
1.08074 1.11139 0.97563 0.996716
1.07574 1.11273 0.969944 0.996709
1.08556 1.11316 0.978542 0.996593
1.08026 1.11811 0.969259 0.996789
1.08237 1.12438 0.96573 0.996797
1.07873 1.09979 0.984327 0.996463
1.08061 1.10437 0.981974 0.996455
1.07671 1.10903 0.974153 0.996617
1.04691 1.05139 1.00067 0.995084
1.04966 1.05502 1.00018 0.994744
1.06249 1.06879 0.999363 0.994741
1.07166 1.10044 0.977165 0.996609
1.05988 1.09387 0.972203 0.996634
1.06748 1.08927 0.984099 0.995828
1.01628 1.01383 1.00726 0.995193
1.0239 1.01272 1.01575 0.995372
1.03338 1.01483 1.02274 0.995635
1.01089 1 1.01227 0.998635
1.02395 1.01117 1.01603 0.996672
1.02657 1.00681 1.02254 0.997153
1.0843 1.1114 0.979003 0.996537
1.07834 1.11704 0.968654 0.996598
1.06846 1.10922 0.966454 0.996682
1.0256 1.03035 1.00043 0.994963
1.03157 1.03583 1.0014 0.994501
1.04786 1.06036 0.993401 0.994777
1.06021 1.10183 0.965303 0.996812
1.05293 1.08201 0.976813 0.996223
1.00325 1 1.00411 0.999146
1.01698 1 1.01923 0.997798
1.00962 1.00582 1.00854 0.995274
1.03225 1.01008 1.02683 0.995244
1.02841 1.01089 1.02126 0.996151
1.02207 1.01015 1.01493 0.996916
1.0806 1.11966 0.968308 0.996701
1.07014 1.12469 0.954693 0.996654
1.05997 1.10892 0.958871 0.996858
1.04158 1.0828 0.96503 0.996788
1.0074 1.01117 1.00133 0.99494
1.03485 1.05919 0.981646 0.995286
1.02353 1.02741 1.00186 0.994375
0.999634 1 1.0002 0.999439
0.999559 1 1.00073 0.998832
1.01033 1 1.012 0.998349
1.01347 1 1.01627 0.99725
1.01558 1 1.01899 0.996651
1.03973 1.01546 1.02842 0.995608
1.00995 1.00254 1.0118 0.995647
1.05562 1.00546 1.0542 0.995905
1.01506 1 1.01725 0.997847
1.03334 1.0048 1.03155 0.996949
1.07223 1.10838 0.970693 0.996589
1.04472 1.0361 1.01205 0.996317
1.01119 1.01125 1.00446 0.995498
1.06353 1.06721 1.00046 0.996093
1.08337 1.09764 0.991291 0.995664
1.0772 1.09833 0.984532 0.996163
1.02189 1.02209 1.00482 0.995012
1.02082 1.02638 1 0.994579
1.0124 1.00045 1.01437 0.997613
1.02609 1.00501 1.0243 0.996752
1.03874 1.03899 1.00415 0.995623
1.04683 1.04835 1.00256 0.996008
1.07043 1.13309 0.947745 0.996793
1.0679 1.10394 0.970782 0.996472
1.05681 1.06533 0.996921 0.99507
1.03303 1.03469 1.00377 0.994638
1.00711 0.998797 1.01061 0.997742
1.08091 1.14504 0.947002 0.99683
1.01575 1.00554 1.01374 0.996461
1.03978 1.03963 1.00472 0.995437
1.04375 1.1109 0.942439 0.996941
1.04464 1.05782 0.992366 0.995137
1.02213 1.0246 1.00323 0.994375
1.00639 1 1.00834 0.998072
0.999366 0.997353 1.00358 0.998445
1.00133 0.99654 1.0061 0.998723
1.00122 1 1.0027 0.99852
1.01081 1 1.01273 0.998096
1.00349 0.998089 1.00708 0.998346
1.00003 1 1.00155 0.998481
1.00626 1 1.00824 0.998034
1.00138 0.999051 1.00367 0.998663
1.00817 1 1.01018 0.998011
0.996432 0.995931 1.00169 0.998815
1.00417 0.999999 1.00577 0.998411
1.00864 1 1.01081 0.99785
0.99999 1 1.00219 0.997809
0.999084 1 1.00073 0.998358
0.999228 1 1 0.999228
0.99927 1 1 0.99927
0.999979 1 1 0.999979
0.999316 1 1 0.999316
0.999973 1 1 0.999973
1 1 1 1
0.999963 1 1 0.999963
1 1 1 1
1 1 1 1
0.99966 1 1.00015 0.999513
0.999939 1 1 0.999939
0.999883 1 1 0.999883
1 1 1 1
1.00177 1 1.00203 0.999746
1 1 1 1
1 1 1 1
1.07476 1.1117 0.969949 0.996724
1.08042 1.11121 0.975502 0.996708
1.08186 1.11024 0.977733 0.996626
1.0802 1.10108 0.984521 0.99646
1.08499 1.11312 0.978042 0.996612
1.07972 1.11767 0.969167 0.99678
1.07877 1.12072 0.965664 0.996797
1.08188 1.12094 0.968282 0.99677
1.0899 1.13659 0.961936 0.996871
1.10656 1.16824 0.949936 0.997124
1.08567 1.11221 0.979523 0.996547
1.07716 1.1169 0.967708 0.996599
1.06913 1.10896 0.967302 0.996675
1.02625 1.03096 1.00048 0.994954
1.03127 1.03558 1.00126 0.994579
1.052 1.06442 0.993398 0.994899
1.06101 1.1019 0.965973 0.996811
1.05032 1.07958 0.976613 0.996197
1.0114 1.00654 1.00958 0.99529
1.03824 1.01052 1.03214 0.995439
1.02736 1.0102 1.02092 0.99614
1.00167 1 1.00243 0.999243
1.01528 1 1.01753 0.997789
1.0243 1.0136 1.01372 0.996885
1.07976 1.11957 0.967623 0.996709
0.999824 1 1.00039 0.999431
1.00004 1 1.00126 0.998779
1.07135 1.12398 0.956369 0.996656
1.05944 1.10788 0.959323 0.996829
1.00864 1.01176 1.00192 0.995011
1.02524 1.02889 1.00205 0.994418
1.0308 1.05494 0.98176 0.995269
1.04 1.08197 0.964339 0.996753
1.00899 1 1.01055 0.998452
1.01404 1 1.01685 0.997231
1.01073 1.00241 1.01285 0.995506
1.04895 1.0066 1.04639 0.995877
1.03631 1.01163 1.02892 0.9956
1.01596 1.00241 1.01686 0.996711
1.0872 1.14488 0.952672 0.996802
1.0547 1.12223 0.942885 0.996752
1.04065 1.09578 0.952546 0.997003
1.02147 1.05596 0.970794 0.996441
1.01026 1.00652 1.00832 0.995436
1.01934 1.03035 0.994592 0.9947
0.999812 1 1.00111 0.9987
1.00324 1 1.00445 0.998795
1.00176 1.00021 1.00313 0.998429
1.00733 1 1.00976 0.9976
1.01546 1 1.01851 0.997009
1.01045 1.0004 1.01367 0.996426
1.08222 1.00705 1.07912 0.995851
0.994139 1.00049 0.99662 0.997019
1.00912 1 1.01162 0.99753
1.02243 1.00343 1.02232 0.996687
1.07008 1.13258 0.94784 0.996812
1.07545 1.10846 0.973705 0.996417
1.0443 1.04591 1.00245 0.996025
1.04886 1.04886 1.00441 0.995609
1.05216 1.06098 0.996532 0.995137
1.03539 1.03754 1.00335 0.994591
1.00871 0.998884 1.01213 0.997734
1.08146 1.14836 0.944661 0.996916
1.01668 1.00277 1.01737 0.996559
1.03453 1.03453 1.00466 0.995357
1.0447 1.11189 0.942474 0.996924
1.03902 1.05405 0.990453 0.99525
1.02357 1.02578 1.00348 0.994384
1.01968 0.997919 1.02425 0.997616
0.998675 1.08339 0.92436 0.997239
1.00896 0.999719 1.01304 0.996257
1.01515 1.01314 1.0073 0.994714
1.00034 1.04884 0.957148 0.996464
1.00505 1.00814 1.00221 0.994731
0.919365 0.999024 0.924906 0.99498
0.996034 0.99476 1.00285 0.998437
0.999235 0.993372 1.00718 0.998728
1.00286 0.9944 1.00985 0.998668
0.999963 1 1.00149 0.998476
1.00755 1 1.00952 0.99805
1.00673 1 1.00874 0.998007
1.00327 0.998685 1.00588 0.998721
0.99903 1 1.00067 0.998358
1.00082 1 1.00298 0.997841
0.993792 0.993382 1.00163 0.998781
1.01039 1 1.01257 0.997845
1.00555 0.999965 1.00724 0.998363
1.00091 0.991159 1.01108 0.99877
1.01076 1 1.01304 0.997748
1.00709 1 1.0093 0.997809
0.998388 1 1.00068 0.997707
0.998443 1 1.00028 0.99816
1.00632 1 1.00842 0.997924
1.00032 1 1.00217 0.998146
0.999212 1 1 0.999212
0.999223 1 1 0.999223
0.999986 1 1 0.999986
0.999264 1 1 0.999264
0.999981 1 1 0.999981
1 1 1 1
0.999975 1 1 0.999975
1 1 1 1
1 1 1 1
0.999625 1 1 0.999625
0.999669 1 1.00015 0.999519
0.99997 1 1 0.99997
0.999933 1 1 0.999933
1 1 1 1
1.00099 1 1.00111 0.999872
1 1 1 1
1 1 1 1
1.07553 1.11765 0.965411 0.996797
1.07923 1.1174 0.968969 0.996771
1.08459 1.11326 0.977539 0.996631
1.08139 1.12051 0.968215 0.996768
1.08763 1.13496 0.961323 0.99686
1.10901 1.16874 0.951716 0.997035
1.10109 1.15708 0.954538 0.996937
0.91359 1.01632 0.905782 0.992422
1.04553 1.11163 0.942718 0.997692
0.999858 1 1.00093 0.998934
1.07903 1.11962 0.966916 0.996718
1.07241 1.12297 0.958173 0.996659
1.05851 1.10668 0.959545 0.996801
1.00518 1.00932 1.00082 0.995079
1.02683 1.03027 1.00221 0.994458
1.02716 1.05084 0.982137 0.99525
1.039 1.08182 0.963586 0.996719
1.0061 1.00233 1.00842 0.995377
1.04212 1.00746 1.0387 0.995863
1.03416 1.00769 1.03082 0.995591
1.00122 1 1.0018 0.999423
1.01589 1.00386 1.01526 0.996768
1.00883 1 1.01029 0.99855
1.01474 1 1.01758 0.997212
1.00062 1 1.00189 0.998726
1.08655 1.14472 0.952223 0.996809
0.999421 1 1.00066 0.998766
1.00399 1 1.0052 0.998799
1.0016 1.00051 1.0027 0.998392
1.05747 1.12235 0.945264 0.996751
1.03739 1.09273 0.952259 0.99695
1.00516 1.00443 1.00528 0.995475
1.01927 1.03016 0.994544 0.994852
1.02229 1.05619 0.971379 0.996423
1.00741 1 1.00977 0.997667
1.01429 1 1.01736 0.996982
1.00558 1.00037 1.00849 0.996754
1.07151 1.00494 1.07073 0.99581
1.01106 1.00393 1.01064 0.996492
1.06053 1.13824 0.934642 0.99688
1.01868 1.10359 0.925905 0.996922
1.02614 1.06778 0.964264 0.996617
1.00804 1.03281 0.979755 0.996181
1.00121 1.00118 1.00354 0.996503
0.998842 1 1.00046 0.998383
1.00539 1.00038 1.007 0.998033
1.0027 0.998702 1.00576 0.998258
1.01528 1 1.01785 0.997483
1.01378 1 1.01666 0.997165
1.05028 0.999739 1.05396 0.996776
1.03133 1.00335 1.03076 0.997214
1.0105 1.00012 1.01269 0.997723
1.01815 1.0007 1.02085 0.996658
1.08126 1.15287 0.940701 0.997
1.04655 1.1141 0.942286 0.996903
1.0337 1.05068 0.988425 0.995363
1.02733 1.02764 1.00444 0.995276
1.02426 1.02634 1.0036 0.994394
1.02007 0.998178 1.02422 0.997764
1.00108 1.08583 0.924441 0.997305
1.00571 1.00044 1.00905 0.996255
1.01266 1.01011 1.00787 0.994702
0.999639 1.04575 0.959151 0.996621
1.00657 1.00914 1.00273 0.994734
0.914104 0.996108 0.923735 0.993441
1.02119 0.994176 1.02964 0.997597
0.962745 1.02977 0.937522 0.997218
1.00389 1.00137 1.00673 0.995817
1.00464 1.00276 1.00654 0.995366
0.98725 1.00778 0.983161 0.996411
0.851443 0.966796 0.918591 0.958736
0.808273 0.936164 0.882688 0.978136
0.915389 0.970262 0.947565 0.995653
0.56405 0.745092 0.84001 0.901203
0.483249 0.664447 0.838625 0.867247
0.998036 0.990315 1.00907 0.998733
1.00456 0.991294 1.01468 0.998721
1.00552 0.991482 1.01548 0.998703
0.998537 1 1.00018 0.998359
1.00103 1 1.00316 0.997874
1.01044 1 1.01262 0.99784
1.00523 1 1.00693 0.998314
0.989748 0.99099 1 0.998747
1.008 1 1.0102 0.997818
0.998202 1 1 0.998202
0.99882 1 1.0011 0.997719
0.999993 0.993087 1.00827 0.998693
1.0111 1 1.01327 0.997849
1.01634 1 1.01847 0.997908
1.01721 0.998053 1.02097 0.99826
1.00849 1 1.01069 0.997816
0.999257 1 1.00169 0.997569
0.999131 1 1.00101 0.99812
1.00226 1 1.00449 0.997783
1.00694 0.999398 1.00952 0.998044
1.00871 1 1.01061 0.998115
1.00619 1 1.00831 0.997904
1.00114 1 1.00283 0.998313
1.00107 1 1.00293 0.99814
0.999215 1 1 0.999215
0.999214 1 1 0.999214
0.999992 1 1 0.999992
0.999218 1 1 0.999218
0.999988 1 1 0.999988
1 1 1 1
0.999983 1 1 0.999983
1 1 1 1
1 1 1 1
0.999734 1 1 0.999734
0.999743 1 1.00012 0.999623
0.999989 1 1 0.999989
0.999763 1 1.00024 0.999525
0.999963 1 1 0.999963
1 1 1 1
0.999926 1 1 0.999926
1 1 1 1
1 1 1 1
1.08507 1.13302 0.960705 0.996848
1.0806 1.11975 0.968167 0.996767
1.11445 1.17095 0.954656 0.99695
0.918807 1.01451 0.912513 0.992491
1.09984 1.15771 0.952938 0.996933
1.05406 1.11477 0.947848 0.997569
1.0688 1.13226 0.946753 0.997046
0.862789 0.960992 0.918293 0.977695
0.961666 1.03264 0.937797 0.993039
0.999121 1 1.00012 0.999006
0.9995 1 1.00057 0.998926
1.00021 1 1.00172 0.99849
0.998744 1 1.00021 0.998537
1.08583 1.14483 0.951497 0.996816
1.05979 1.12276 0.94699 0.99675
1.03435 1.08988 0.952007 0.996897
1.00477 1.00442 1.00485 0.995514
1.01904 1.02998 0.994341 0.995011
1.02187 1.05551 0.971619 0.996407
1.01749 1 1.02109 0.996478
1.05966 1.00439 1.05951 0.995769
1.01287 1.00748 1.00882 0.996561
1.00372 1 1.00492 0.998803
1.01367 1.00061 1.01614 0.996958
1.00682 1 1.0091 0.997735
0.998831 1 1 0.998831
1.0013 1.00041 1.00254 0.998357
1.0617 1.14092 0.933467 0.996894
0.999525 0.999999 1.00116 0.99837
1.00387 1.0006 1.00513 0.99814
1.00268 0.997577 1.0065 0.998627
1.02755 1.10792 0.930332 0.996909
1.02548 1.06711 0.96425 0.996615
1.0015 1.00504 0.999979 0.996501
1.00956 1.03333 0.980671 0.996251
1.01446 1 1.01716 0.997344
1.01397 1.00003 1.01702 0.996976
1.03814 1.00421 1.03669 0.997198
1.05143 1.00332 1.05149 0.996632
1.01219 1.08513 0.935623 0.996968
0.990451 1.06658 0.931472 0.996941
1.01047 1.02854 0.986166 0.996216
0.973089 1.00423 0.971483 0.997429
1.00811 0.999254 1.01043 0.998454
1.00855 1 1.011 0.997574
1.02027 0.998901 1.02331 0.998121
1.07919 1.0015 1.08053 0.997263
0.851576 0.966683 0.92641 0.950902
1.02096 0.998084 1.02506 0.997913
1.00335 1.00091 1.00622 0.996251
1.0042 1.08764 0.925706 0.997381
0.998578 1.0424 0.961055 0.996776
1.00812 1.01013 1.0033 0.99473
1.01102 1.00767 1.00868 0.994687
0.910732 0.994829 0.923012 0.991824
1.01676 0.994472 1.0248 0.997663
0.961774 1.02982 0.936559 0.997188
1.00427 1.00151 1.00697 0.995827
1.00697 1.0056 1.006 0.995394
0.98896 1.00884 0.983849 0.996391
0.83796 0.965874 0.912039 0.951239
0.812002 0.937528 0.88904 0.974208
0.9192 0.969981 0.951703 0.995739
0.562535 0.743723 0.836471 0.904248
0.481851 0.673098 0.831474 0.860965
1.00712 0.994677 1.01487 0.997677
0.614893 0.775537 0.872477 0.908747
0.523838 0.700215 0.863262 0.866608
0.969743 1.00558 0.966689 0.997593
1.01455 1.00221 1.01554 0.996816
1.01703 1.00656 1.01344 0.996998
0.916378 0.956588 0.961387 0.99644
0.774436 0.929704 0.871129 0.956221
0.780223 0.906343 0.886493 0.97107
0.533612 0.716505 0.816519 0.912094
0.523721 0.749276 0.816081 0.856495
1.00581 0.98823 1.01904 0.998773
1.00716 0.99024 1.01844 0.998676
1.01563 0.993422 1.02355 0.998837
0.998243 1 1 0.998243
0.999438 1 1.00171 0.99773
1.00918 1 1.01138 0.997828
1.01248 1 1.01457 0.997949
0.999857 0.99465 1.00663 0.998615
0.998969 1 1.00085 0.998118
1.0164 1 1.01854 0.997902
1.0092 1 1.01145 0.997776
0.999152 1 1.00153 0.997621
1.01622 0.997328 1.02065 0.998322
1.01681 1 1.01865 0.998193
1.03218 0.996197 1.03768 0.998495
1.00833 1 1.01077 0.997588
0.99939 1 1.00174 0.997658
1.00128 1 1.00351 0.997774
1.0063 0.999019 1.00918 0.998124
1.00136 0.999955 1.00356 0.997857
1.00271 0.998159 1.00635 0.998217
1.01105 0.995849 1.0169 0.99839
1.01386 0.999704 1.01618 0.998017
1.01295 1 1.01481 0.998172
1.01075 1 1.01265 0.998117
1.00648 1 1.00814 0.998352
1.00809 1 1.01023 0.997885
1.00156 1 1.00329 0.99827
0.999184 1 1 0.999184
1.00177 1 1.00365 0.998133
0.999219 1 1 0.999219
0.999987 1 1 0.999987
0.999215 1 1 0.999215
0.999992 1 1 0.999992
1 1 1 1
0.999991 1 1 0.999991
1 1 1 1
1 1 1 1
0.999281 1 1.00036 0.998918
0.99977 1 1 0.99977
0.999729 1 1 0.999729
0.999999 1 1 0.999999
0.999763 1 1.00014 0.999622
0.999984 1 1 0.999984
1 1 1 1
0.999956 1 1 0.999956
1 1 1 1
1 1 1 1
0.920745 1.01266 0.916054 0.992559
1.09855 1.1574 0.952078 0.996929
1.05849 1.11687 0.950164 0.997443
0.851349 0.962212 0.903751 0.979012
0.954261 1.03182 0.931069 0.993306
1.07139 1.13498 0.946797 0.997009
0.962894 1.051 0.920858 0.994905
0.872708 0.97422 0.913528 0.980594
0.85315 0.971949 0.918077 0.956099
0.579532 0.754392 0.84018 0.914342
0.456533 0.643875 0.818572 0.866191
1.00026 1 1.00171 0.99856
0.999452 1 1.00045 0.999005
0.999664 1 1.00075 0.998918
1.00033 1 1.00181 0.998518
1.00062 1 1.00218 0.998444
0.998915 1 1.00074 0.998176
1.00021 1 1.00195 0.998271
0.99912 1 1.00063 0.998491
1.06435 1.14314 0.933964 0.996906
1.03698 1.11239 0.935106 0.996895
1.02515 1.06711 0.963945 0.996613
0.999847 1.00694 0.996439 0.996501
1.01122 1.034 0.981587 0.996319
1.04678 1.00469 1.04483 0.99718
1.0525 1.00643 1.04946 0.996489
1.01142 1.00036 1.01432 0.996782
1.00254 1.00077 1.00353 0.998242
1.01519 1 1.01804 0.9972
1.00053 1 1.00218 0.99836
1.00304 0.997497 1.00656 0.999002
1.00556 1.08468 0.929802 0.997048
1.00732 0.999017 1.00993 0.998399
1.01031 0.99987 1.01263 0.99784
0.990238 1.06501 0.932672 0.996913
1.01062 1.03127 0.983535 0.996379
0.975038 1.00344 0.974333 0.997293
1.02913 0.998424 1.03311 0.997719
1.06908 1.00361 1.0681 0.997314
0.949196 1.03682 0.91856 0.996652
0.994607 1.02213 0.976078 0.996923
0.974107 1.00266 0.974464 0.996978
0.973045 0.995053 0.979981 0.997859
1.01317 0.999908 1.01552 0.997779
1.01922 0.995475 1.02592 0.997984
1.06309 0.998718 1.06692 0.99768
0.649808 0.790996 0.901265 0.911504
0.855413 0.970175 0.918479 0.959968
1.01247 0.995928 1.01893 0.99773
1.0043 1.00132 1.00717 0.995841
0.962139 1.02983 0.936935 0.997157
0.990805 1.01018 0.984387 0.996377
1.00979 1.00867 1.00571 0.99543
0.84346 0.969956 0.909481 0.956133
0.819561 0.951064 0.883972 0.974839
0.921344 0.967888 0.955872 0.995858
0.577488 0.741158 0.85197 0.914552
0.480046 0.68323 0.822329 0.85442
1.00708 0.996531 1.01292 0.997691
0.634275 0.788558 0.884188 0.909702
0.491054 0.665802 0.855976 0.861633
0.970327 1.00671 0.966224 0.997553
1.01487 1.00292 1.01515 0.996809
1.01476 1.00431 1.0133 0.997143
0.911501 0.950447 0.962095 0.996808
0.772381 0.93386 0.869485 0.951235
0.780439 0.904321 0.886029 0.974021
0.556189 0.731854 0.834831 0.910331
0.535287 0.767674 0.81569 0.85484
1.0077 0.994783 1.01459 0.998418
0.521662 0.705206 0.856637 0.863528
0.559083 0.776685 0.830232 0.867025
0.984284 0.989201 0.996455 0.998568
1.02068 1.00232 1.01984 0.998512
0.923642 0.936485 0.990608 0.995637
0.805416 0.896247 0.920258 0.976524
0.706507 0.873755 0.853626 0.947238
0.596059 0.738051 0.88559 0.911948
0.618719 0.849017 0.844083 0.86336
1.01059 0.992885 1.01921 0.99865
1.01301 0.994976 1.01936 0.998787
1.01313 0.991824 1.02243 0.999074
0.998431 1 1.00032 0.998116
0.999027 1 1.00136 0.997674
1.01064 1 1.01293 0.997737
1.01658 1 1.01872 0.997897
1.01486 0.996583 1.01999 0.998385
0.998974 1 1.00133 0.997649
1.01695 1 1.01887 0.998117
1.0075 1 1.00994 0.99759
1.02884 0.993883 1.03666 0.998559
1.04661 0.991747 1.05628 0.999094
1.0229 0.999774 1.02503 0.998157
1.00402 1 1.00648 0.99756
1.00005 1 1.00229 0.997766
1.00554 0.999855 1.00749 0.998202
1.00141 0.999877 1.0037 0.997845
1.00258 0.999717 1.00468 0.998192
1.00381 0.991934 1.01347 0.998518
1.00443 0.999378 1.00687 0.998192
1.01768 0.997132 1.02241 0.998232
0.997897 0.985986 1.01354 0.998564
1.02518 1.00044 1.02693 0.997854
1.00885 1.01098 1.00093 0.996967
1.02099 0.999194 1.02414 0.997725
1.01424 0.999393 1.01687 0.998023
1.01716 1 1.01934 0.997859
1.01246 0.999929 1.01438 0.998181
1.00929 1 1.01104 0.998277
1.00933 1 1.01123 0.998119
1.00355 1 1.00519 0.998367
0.999475 1 1.00036 0.999118
1.00063 1 1.00241 0.998227
0.999189 1 1 0.999189
0.999965 1 1 0.999965
0.999224 1 1 0.999224
0.999983 1 1 0.999983
1 1 1 1
0.999991 1 1 0.999991
1 1 1 1
1 1 1 1
0.999184 1 1.0003 0.998881
0.999719 1 1 0.999715
0.999167 1 1.00025 0.998921
0.999999 1 1 0.999999
0.999769 1 1 0.999769
0.999724 1 1 0.999724
0.999996 1 1 0.999996
1 1 1 1
0.999978 1 1 0.999978
1 1 1 1
1 1 1 1
0.613385 0.773778 0.879701 0.901119
0.506113 0.693667 0.848146 0.860251
0.851856 0.960027 0.90561 0.97981
0.950343 1.03075 0.927918 0.993611
1.07478 1.13945 0.946113 0.996973
0.870419 0.961175 0.922563 0.98159
0.967767 1.04684 0.928889 0.995241
0.855859 0.976548 0.916799 0.955948
0.555764 0.743396 0.826663 0.904362
0.469247 0.665819 0.819499 0.859996
0.882936 0.98971 0.903972 0.986885
0.798714 0.942864 0.884927 0.95727
0.537902 0.722337 0.816741 0.911757
0.54312 0.762341 0.828655 0.859753
1.00147 1 1.00337 0.998102
0.99939 1 1.0008 0.998593
0.999521 1 1.00052 0.999005
0.999853 1 1.00131 0.998547
1.0004 1 1.0018 0.998601
1.0005 1 1.00271 0.997788
0.999291 1 1.00111 0.998187
1.00257 1 1.00484 0.997747
0.999688 1 1.00148 0.998214
0.999734 1 1.00129 0.998446
0.997132 1.08422 0.922331 0.997124
0.989641 1.06311 0.9338 0.996887
1.01118 1.03393 0.98139 0.996541
0.977782 1.00318 0.977465 0.997157
1.0586 1.00586 1.05521 0.997368
1.03979 0.998633 1.04401 0.997323
1.01051 0.999506 1.01293 0.998104
1.0065 0.998669 1.00951 0.998342
0.948274 1.03707 0.917271 0.996842
1.01636 0.999886 1.0188 0.997713
1.01941 0.99549 1.02611 0.99797
0.982809 1.01738 0.969054 0.996864
0.972014 1.00206 0.97292 0.997018
0.977556 0.996991 0.982605 0.997864
1.0554 0.997526 1.06053 0.997629
0.924469 1.00086 0.926736 0.996691
0.970768 0.996854 0.975738 0.998047
1.02199 0.984992 1.03946 0.998167
1.01119 1 1.01362 0.997603
1.02712 0.9972 1.03238 0.997695
1.02939 0.994571 1.03725 0.997838
0.542139 0.716201 0.861477 0.878682
0.640166 0.785623 0.892072 0.913437
0.854323 0.971862 0.924216 0.951139
1.00606 0.994974 1.01347 0.997701
1.01449 1.00287 1.01485 0.996792
0.97245 1.00796 0.967181 0.99751
1.01272 1.00263 1.01282 0.99728
0.643406 0.780935 0.899719 0.91572
0.784338 0.940606 0.876809 0.951023
0.771065 0.902373 0.879808 0.971219
0.911419 0.946918 0.96528 0.997131
0.547978 0.737796 0.823616 0.901784
0.475696 0.648897 0.847553 0.864941
0.549253 0.774614 0.820996 0.863667
1.00706 0.994129 1.01468 0.998349
0.525964 0.705639 0.857452 0.869287
0.581602 0.80046 0.838473 0.866557
0.97922 0.986171 0.994256 0.998688
1.01928 1.0009 1.01995 0.998448
0.920537 0.93362 0.989281 0.99667
0.792484 0.902476 0.902424 0.973071
0.731595 0.876888 0.874143 0.95443
0.593065 0.744271 0.883095 0.902327
0.611393 0.838965 0.838139 0.869482
1.00633 0.991439 1.0156 0.999431
0.601596 0.797975 0.85955 0.877091
0.605444 0.819999 0.84773 0.87097
0.965589 0.940667 1.02679 0.999715
0.848901 0.892434 0.967313 0.983363
0.74708 0.843956 0.930164 0.951673
0.69668 0.843969 0.918359 0.898865
0.670667 0.897859 0.853413 0.875265
1.00926 0.994788 1.01583 0.998736
1.01504 0.990826 1.0254 0.999059
1.02251 0.977123 1.04713 0.999354
0.999498 1 1.00186 0.99764
1.00614 1 1.00857 0.997592
1.01644 1 1.01844 0.998042
1.02641 0.992125 1.03598 0.998624
1.00455 1 1.00701 0.997559
1.02186 0.999208 1.02457 0.998144
1.05236 0.991731 1.06201 0.999173
1.04048 0.975925 1.06674 0.999446
1.04731 0.992897 1.05579 0.999068
1.01622 0.999338 1.0189 0.998032
1.00115 1 1.00332 0.997832
1.00131 1.00012 1.00303 0.998167
0.996092 0.986151 1.01145 0.998643
1.01687 0.99712 1.02159 0.998258
1.00287 0.999825 1.00488 0.998178
0.999096 0.98483 1.01591 0.998598
1.02493 0.999035 1.02774 0.998228
1.02064 0.980102 1.04245 0.998962
1.01138 1.0034 1.00985 0.998118
1.01932 1.00124 1.0202 0.997898
1.00512 1.00215 1.00572 0.997255
1.01422 1.01696 1.00153 0.995787
1.01187 1.00598 1.0086 0.997278
1.00665 1.00843 1.0009 0.997341
1.01891 0.999684 1.02157 0.997718
1.02815 0.999583 1.03112 0.997534
1.01402 0.999165 1.01687 0.998029
1.01755 1 1.01972 0.997863
1.01193 1 1.01398 0.997984
1.01316 1 1.015 0.998188
1.01033 1 1.01208 0.998276
1.00247 1 1.00349 0.998986
1.00396 1 1.00559 0.998383
1.00014 1 1.00102 0.99912
0.999921 1 1 0.999921
0.999307 1 1.00011 0.999195
0.999953 1 1 0.999953
1 1 1 1
0.999979 1 1 0.999979
1 1 1 1
1 1 1 1
1.00006 1 1.0016 0.998467
0.999663 1 1.00005 0.999612
0.99946 1 1.00068 0.998777
0.999996 1 1 0.999996
0.999722 1 1 0.999722
0.999295 1 1.00037 0.998924
1 1 1 1
1 1 1 1
0.999769 1 1 0.999769
0.999994 1 1 0.999994
1 1 1 1
1 1 1 1
0.505396 0.690636 0.845918 0.865076
0.627032 0.781588 0.883691 0.907844
0.587183 0.809057 0.83731 0.866779
0.504717 0.697674 0.842064 0.859114
0.869473 0.962295 0.9231 0.978812
0.972103 1.04242 0.936673 0.995597
0.846099 0.981219 0.902673 0.955267
0.570675 0.737224 0.846914 0.914009
0.483506 0.693069 0.817108 0.853779
0.89167 0.983959 0.919456 0.98559
0.766125 0.927007 0.872084 0.947672
0.558367 0.732928 0.837246 0.909924
0.528404 0.750953 0.823266 0.854698
0.838184 0.949448 0.900104 0.980789
0.699621 0.846356 0.874 0.945799
0.620327 0.783941 0.881397 0.89777
0.607024 0.834389 0.84406 0.861913
1.00589 1 1.00829 0.997613
1.00164 1 1.00348 0.998164
0.999241 1 1.00062 0.998625
1.00041 1 1.00165 0.998759
1.00033 1 1.00301 0.99733
1.00032 1 1.00247 0.997863
0.999377 1 1.00118 0.998199
1.00195 1 1.00426 0.997702
1.00138 1 1.0036 0.997785
0.999286 1 1.00113 0.998157
0.948147 1.03766 0.91646 0.997023
0.972743 1.01301 0.96332 0.996812
0.968746 1.00129 0.970355 0.997057
0.981001 0.998668 0.984407 0.99787
1.04191 0.994677 1.05004 0.997573
1.02042 0.996769 1.02582 0.997958
1.01798 1 1.02038 0.997647
1.01109 1 1.01357 0.997555
0.926807 1.00002 0.929727 0.996842
1.02307 0.998043 1.02748 0.997653
1.02935 0.995049 1.03673 0.997816
0.969718 0.998351 0.973224 0.998042
1.014 0.989221 1.02698 0.998123
0.931099 0.965435 0.967441 0.996892
0.950847 0.949103 1.00262 0.999217
1.04891 0.973223 1.07952 0.998377
1.01347 0.998429 1.01728 0.997827
1.0324 0.993555 1.04117 0.998004
0.616522 0.814666 0.856591 0.883477
0.533239 0.717293 0.848468 0.876174
0.629276 0.777195 0.895418 0.904243
1.00771 0.995291 1.01422 0.998286
1.01805 0.999318 1.0204 0.99838
0.972228 0.98333 0.989879 0.998818
0.518136 0.699555 0.852685 0.868627
0.702263 0.855003 0.867919 0.946353
0.797224 0.90024 0.908277 0.974997
0.910242 0.927234 0.983861 0.997777
0.602509 0.756539 0.873316 0.911929
0.600583 0.818909 0.846355 0.866533
0.606181 0.832132 0.837003 0.870328
1.00488 0.992047 1.01357 0.999376
0.607838 0.803072 0.861062 0.87902
0.599755 0.811835 0.847734 0.871458
0.969199 0.947219 1.02375 0.999464
0.859571 0.904725 0.966177 0.983351
0.723015 0.846034 0.905544 0.943735
0.660378 0.889054 0.850059 0.873807
0.713491 0.842844 0.936896 0.903544
0.986376 0.945616 1.04341 0.999711
0.603858 0.797096 0.860734 0.880147
0.654436 0.868002 0.858068 0.878667
0.604273 0.832986 0.841512 0.862056
0.91222 0.903279 1.01441 0.995553
0.826453 0.881265 0.983021 0.954
0.779556 0.921266 0.929608 0.910255
1.01818 0.99087 1.02855 0.999043
1.0256 0.982833 1.04428 0.99927
1.04093 0.971847 1.07155 0.999566
1.00539 1 1.00785 0.997559
1.02037 0.99872 1.02359 0.998132
1.05714 0.990294 1.0683 0.999251
1.01946 0.999217 1.02226 0.998045
1.04755 0.992786 1.05613 0.999079
1.04826 0.978006 1.07246 0.999421
1.03437 0.965409 1.07198 0.999489
1.03007 0.988135 1.04342 0.999058
1.01472 0.997137 1.01938 0.998287
1.0029 1.00018 1.00457 0.998163
1.0022 0.986381 1.01743 0.998633
1.02178 0.984817 1.03864 0.998933
1.03169 0.999321 1.03421 0.998239
1.01663 1.00019 1.01767 0.998792
1.01363 0.999918 1.01516 0.998569
1.00401 1.00274 1.00457 0.996715
1.01578 1.00327 1.01455 0.997955
1.00655 1.00458 1.00484 0.997135
1.00493 1.00733 1.00229 0.995329
1.03195 1.03568 1.00129 0.995114
1.01314 1.01382 1.00258 0.996755
1.00976 1.01256 1.00138 0.995851
1.01875 1.00089 1.02076 0.99714
1.01174 1.00605 1.00837 0.997309
1.00397 1.00549 1.00077 0.99771
1.01673 1.00007 1.01899 0.99771
1.02743 0.999718 1.03026 0.997537
1.01802 1 1.02041 0.997652
1.01906 0.999859 1.02138 0.997869
1.01199 1.00047 1.01356 0.99798
1.00717 1 1.00846 0.998721
1.0078 1 1.00954 0.998275
1.00286 1 1.00388 0.998979
0.999875 1 1 0.999875
1.00014 1 1.00102 0.999121
0.99991 1 1 0.99991
1 1 1 1
0.999941 1 1 0.999941
1 1 1 1
1 1 1 1
1.00286 1 1.00481 0.998057
0.999651 1 1.00038 0.999272
1.00037 1 1.0019 0.998466
0.999985 1 1 0.999985
0.999535 1 1 0.999532
0.999347 1 1.00067 0.998674
1 1 1 1
0.999997 1 1 0.999997
0.999729 1 1 0.999729
1 1 1 1
1 1 1 1
1 1 1 1
0.626578 0.831076 0.859716 0.87696
0.520948 0.69631 0.857109 0.872882
0.613932 0.775493 0.873279 0.906545
1.00403 1 1.00644 0.997604
0.595016 0.80544 0.844172 0.875114
0.587425 0.805878 0.841143 0.86659
0.523906 0.72014 0.839529 0.866564
0.896497 0.990282 0.919769 0.984263
0.774971 0.921166 0.879749 0.956288
0.545466 0.735092 0.823547 0.901027
0.515091 0.726684 0.823745 0.86049
0.833191 0.945941 0.901712 0.976816
0.72859 0.866417 0.881643 0.953813
0.608693 0.762663 0.887284 0.899503
0.610509 0.837424 0.844187 0.86359
0.776541 0.893519 0.89444 0.97165
0.732015 0.834611 0.924023 0.94919
0.719815 0.846877 0.939237 0.904952
0.667932 0.891122 0.856337 0.875287
1.00422 1 1.0066 0.997634
1.00605 1 1.00846 0.997607
1.00135 1 1.00313 0.998226
1.00069 1 1.00314 0.99756
1.00179 1 1.00439 0.997407
1.00037 1 1.00244 0.997937
1.00306 1 1.00537 0.997701
1.00079 1 1.00298 0.997823
0.930922 1.00147 0.93239 0.996957
0.970374 1.00111 0.971195 0.998049
1.0099 1 1.01242 0.997505
1.0063 0.993163 1.01518 0.998079
1.03094 0.99446 1.03898 0.997793
1.0245 0.999868 1.0271 0.997608
1.0177 0.999461 1.0205 0.997797
0.932634 0.965184 0.969115 0.997069
1.03149 0.995195 1.03854 0.998003
1.03725 0.980544 1.05951 0.998422
0.956881 0.953743 1.00404 0.999256
1.0232 0.997879 1.02737 0.998065
0.91747 0.924757 0.995992 0.996114
0.980792 0.945949 1.03738 0.999476
1.0718 0.985033 1.08969 0.998536
1.0651 0.994698 1.0727 0.998211
0.597814 0.787623 0.857977 0.88465
0.613989 0.812566 0.856661 0.88205
0.523847 0.716422 0.837025 0.873569
1.00243 0.991995 1.01121 0.999322
0.97351 0.952171 1.02322 0.999213
0.617255 0.811569 0.863464 0.880836
0.740663 0.824439 0.942534 0.953159
0.848933 0.902341 0.961426 0.978559
0.700196 0.832914 0.932937 0.901088
0.597109 0.807694 0.847945 0.871845
0.656145 0.886085 0.848896 0.872308
0.997216 0.959273 1.0399 0.999669
0.605022 0.799393 0.859817 0.880247
0.660694 0.869357 0.86312 0.880504
0.929568 0.915079 1.01737 0.998492
0.60801 0.835386 0.842749 0.863625
0.7947 0.860156 0.973282 0.949265
0.774387 0.906993 0.938525 0.909722
0.989206 0.946478 1.0456 0.999562
0.654588 0.849141 0.868676 0.887423
0.599448 0.805813 0.849109 0.8761
0.538822 0.757323 0.827656 0.859636
0.712504 0.840375 0.937647 0.904221
0.914709 0.915919 1.00977 0.989013
0.844704 0.894621 1.00167 0.942631
1.02752 0.989568 1.03919 0.999188
1.03472 0.963694 1.0742 0.999534
1.01364 0.939907 1.0789 0.999581
1.02251 0.998574 1.02597 0.998058
1.0493 0.991361 1.0594 0.999091
1.05745 0.98078 1.07882 0.999396
1.02761 0.988788 1.04025 0.999045
1.02815 0.965043 1.06594 0.999488
0.984437 0.96141 1.02474 0.999234
1.02424 0.98858 1.03721 0.998903
1.03668 0.996407 1.04224 0.998253
1.02312 0.998475 1.02596 0.99876
1.00189 0.998821 1.00521 0.997879
1.01496 0.996813 1.0192 0.999019
0.998367 1.0027 0.998673 0.996998
1.00821 1.00421 1.00946 0.994571
1.01117 1.014 1.00283 0.994388
1.0075 1.00751 1.003 0.996999
1.00509 1.00801 1.00205 0.995072
1.02844 1.03293 1.00053 0.995128
1.02691 1.02849 1.00261 0.995863
1.02879 1.03243 1.00125 0.99523
1.0141 1.00671 1.01044 0.996931
1.01728 1.01707 1.00351 0.996708
1.00512 1.00794 1.00128 0.99592
1.02584 1 1.02849 0.997428
1.01904 1.00113 1.02077 0.997171
1.01206 1.00617 1.00854 0.997338
1.02676 1 1.02929 0.99754
1.0172 1.00037 1.01921 0.997653
1.01342 1 1.01505 0.998395
1.01243 1.00074 1.01373 0.997976
1.00734 1 1.00864 0.998715
1.00018 1 1.00039 0.999792
1.00429 1 1.00532 0.998975
0.999865 1 1 0.999865
1 1 1 1
0.999898 1 1 0.999898
1 1 1 1
1 1 1 1
1.00468 1 1.00673 0.99796
1.00188 1 1.00291 0.998977
1.0031 1 1.00497 0.998134
0.999964 1 1 0.999964
0.999545 1 1.00031 0.99924
1.0006 1 1.00214 0.998464
1 1 1 1
0.999989 1 1 0.999989
0.999453 1 1 0.999453
1 1 1 1
0.999998 1 1 0.999998
1 1 1 1
0.605365 0.797488 0.858091 0.884627
0.623448 0.827255 0.859283 0.877051
0.522808 0.694853 0.862091 0.872762
1.0038 1 1.00616 0.997654
1.011 1 1.01349 0.997538
1.00164 1 1.00388 0.997765
0.661544 0.873869 0.862303 0.877916
0.596492 0.810445 0.840581 0.875592
0.583617 0.805823 0.835858 0.866475
0.834442 0.948844 0.898137 0.979172
0.702285 0.864668 0.858577 0.945986
0.62491 0.753403 0.909949 0.911534
0.611983 0.845427 0.841793 0.85992
0.784196 0.89672 0.896734 0.975223
0.744336 0.844656 0.929262 0.948311
0.717875 0.846392 0.935946 0.906205
0.660415 0.886581 0.852589 0.873692
0.807381 0.890082 0.93297 0.972256
0.789768 0.859417 0.96637 0.950938
0.783653 0.918152 0.937212 0.910692
0.622848 0.850331 0.847748 0.864026
1.00178 0.999015 1.00484 0.997943
1.00359 1 1.00601 0.997595
1.00603 1 1.00845 0.997601
1.00079 1 1.00326 0.997536
1.00236 1 1.00489 0.997485
1.00264 1 1.00495 0.997699
0.926874 0.957533 0.970611 0.99729
0.960421 0.953865 1.00761 0.99927
1.01641 0.999871 1.01881 0.997769
1.0302 0.989135 1.04312 0.998466
1.02784 0.996011 1.03402 0.998
1.02399 0.99757 1.02846 0.998083
1.04766 0.987331 1.06297 0.998248
0.916364 0.921191 0.998517 0.996238
1.06392 0.978633 1.08859 0.998678
0.980996 0.933065 1.05222 0.999187
1.04028 0.985627 1.05712 0.998418
0.931129 0.915039 1.02209 0.995588
1.00609 0.946918 1.06365 0.998909
1.02982 0.954306 1.08044 0.998792
0.675773 0.866665 0.879043 0.887032
0.604621 0.792627 0.862015 0.884911
0.610642 0.810525 0.855514 0.880629
1.00856 0.972938 1.037 0.999627
0.917447 0.914254 1.00738 0.996138
0.6044 0.798927 0.859333 0.880351
0.790824 0.845054 0.98102 0.953932
0.764561 0.91163 0.92905 0.902722
0.663559 0.872533 0.861922 0.882327
0.61013 0.843335 0.841109 0.860142
0.981817 0.939162 1.04574 0.99969
0.649795 0.84108 0.869946 0.88807
0.603308 0.816966 0.842392 0.876639
0.910774 0.911901 1.01545 0.98357
0.523449 0.743753 0.823352 0.854791
0.719044 0.84492 0.940407 0.904949
0.831149 0.889466 0.981076 0.95246
1.00163 0.93519 1.07394 0.99731
0.609484 0.798523 0.861919 0.88554
0.596549 0.813274 0.845569 0.867481
0.459501 0.642768 0.824782 0.866748
0.606703 0.770564 0.877708 0.89705
0.800316 0.857794 0.981527 0.950552
0.871389 0.892121 0.997699 0.979013
1.02929 0.959684 1.07306 0.999501
1.02666 0.956523 1.07379 0.999565
0.993917 0.948339 1.04869 0.999401
1.02387 0.990418 1.03478 0.999032
1.02215 0.965508 1.05921 0.999487
0.987407 0.958912 1.03042 0.999318
1.01613 0.992127 1.0255 0.998725
1.02983 0.997581 1.03365 0.998723
0.998382 1.00111 0.99975 0.99752
1.03442 1.00159 1.03771 0.995252
0.991919 1.00161 0.993017 0.997292
1.00998 1.00379 1.01157 0.994665
1.00885 1.00533 1.00985 0.993721
1.02273 1.02683 1.00191 0.994105
1.02002 1.02426 1.00108 0.99479
1.01138 1.01396 1.00314 0.994326
1.00486 1.00839 1.00169 0.994817
1.01977 1.02332 1.0011 0.995437
1.0322 1.03665 1.00048 0.995227
1.01786 1.01633 1.00527 0.996258
1.02807 1.02942 1.00274 0.995958
1.02664 1.03023 1.00117 0.995348
1.02597 1.00355 1.02519 0.997229
1.01653 1.00854 1.01105 0.996911
1.02023 1.0196 1.00398 0.996658
1.02409 1.00083 1.02518 0.998102
1.025 1.00029 1.02734 0.997427
1.02038 1.00174 1.02147 0.997202
1.01852 1.00129 1.01959 0.997656
1.01325 1.0003 1.01458 0.998393
1.00177 1 1.00212 0.999648
1.00692 1 1.00822 0.998706
1.00052 1 1.00075 0.999777
1 1 1 1
0.999855 1 1 0.999855
1 1 1 1
1 1 1 1
1.00442 1 1.00656 0.997868
1.00357 1 1.0047 0.998882
1.00523 1 1.00726 0.997986
0.999924 1 1 0.999924
1.0012 1 1.00216 0.999036
1.00286 1 1.00465 0.998213
1 1 1 1
0.999971 1 1 0.999971
0.999397 1 1.00019 0.999208
1 1 1 1
0.999992 1 1 0.999992
1 1 1 1
0.651842 0.846788 0.868494 0.886341
0.614168 0.800322 0.867371 0.884743
0.624868 0.828155 0.860205 0.877151
1.03012 1 1.03282 0.997391
1.01048 1.00271 1.01015 0.997618
1.00406 1 1.00637 0.997707
1.01033 1 1.01285 0.997511
1.0014 1 1.00359 0.997812
1.00749 1 1.00977 0.997744
0.996526 0.998406 1 0.998117
0.613746 0.830366 0.848156 0.871453
0.663634 0.871708 0.865353 0.87976
0.60668 0.812233 0.852603 0.876057
0.65738 0.885854 0.850957 0.872061
0.787819 0.904589 0.895986 0.972018
0.756201 0.846011 0.943824 0.947045
0.72378 0.862289 0.920919 0.911449
0.796913 0.895399 0.916666 0.970919
0.795283 0.854718 0.987051 0.942669
0.774678 0.904816 0.940514 0.910323
0.616218 0.844093 0.839061 0.870062
0.845118 0.891651 0.972272 0.974843
0.821872 0.874119 0.99757 0.942519
0.700784 0.846663 0.920093 0.899585
0.530981 0.758765 0.816621 0.856941
1.06193 0.995335 1.06864 0.998375
1.00531 0.999203 1.00814 0.99798
1.00488 1 1.00734 0.997556
1.00266 1 1.00516 0.997513
0.922623 0.923662 1.00251 0.99637
0.980204 0.924377 1.06157 0.998893
1.02626 0.997533 1.03076 0.998101
1.0405 0.989725 1.0531 0.998285
1.04556 0.961197 1.08905 0.998821
1.04204 0.991367 1.05278 0.99842
1.03914 0.955752 1.08858 0.998779
0.932796 0.916385 1.02468 0.993394
1.00968 0.940274 1.0748 0.999087
1.01688 0.96373 1.05631 0.998906
0.929486 0.90873 1.03131 0.991786
0.978547 0.92399 1.05991 0.999188
0.606738 0.790044 0.867029 0.885762
0.669511 0.857652 0.876777 0.890344
0.614912 0.798009 0.87053 0.88516
0.969506 0.92479 1.04856 0.999805
0.920186 0.916284 1.01477 0.989644
0.643222 0.832191 0.869699 0.888727
0.850063 0.901008 0.999583 0.943852
0.719675 0.856456 0.922979 0.910416
0.611491 0.816865 0.853483 0.877091
0.510601 0.71813 0.826344 0.860435
0.999212 0.935938 1.07011 0.997658
0.615672 0.804189 0.864389 0.88569
0.592539 0.804328 0.849383 0.867321
0.875962 0.892911 0.998834 0.982163
0.472455 0.66632 0.823863 0.860643
0.5979 0.749838 0.8875 0.898447
0.800674 0.862753 0.983367 0.943743
0.984574 0.938052 1.0554 0.994499
0.636252 0.841871 0.86134 0.877423
0.50394 0.685843 0.853411 0.860986
0.53764 0.721237 0.817146 0.91225
0.738165 0.822414 0.943787 0.951019
0.821236 0.867401 0.972545 0.973506
1.03259 0.961319 1.07458 0.99959
1.00049 0.947659 1.05636 0.99942
0.986212 0.961745 1.02632 0.999143
0.991072 0.956159 1.03713 0.999402
1.01671 0.978509 1.04023 0.998855
1.02551 1.0008 1.02725 0.99751
0.994918 1.00337 0.994392 0.997164
1.03364 1.00186 1.03688 0.995028
1.01943 1.00372 1.0217 0.994088
1.01132 1.00363 1.01297 0.994757
1.01045 1.0056 1.01128 0.993624
1.00909 1.01102 1.00448 0.993636
1.06453 1.07174 0.998698 0.994564
1.04023 1.04518 1.00077 0.994504
1.02255 1.02644 1.00218 0.994049
1.02255 1.02745 1.00013 0.995112
1.01768 1.02218 1.00074 0.994856
1.01161 1.01381 1.00358 0.994263
1.02838 1.03044 1.00261 0.995397
1.02036 1.02395 1.00108 0.995414
1.03555 1.03997 1.00043 0.995327
1.01938 1.01001 1.01258 0.996743
1.01635 1.01324 1.00669 0.996409
1.02937 1.03013 1.00323 0.996053
1.02314 1.0041 1.0212 0.997809
1.02352 1.00489 1.02137 0.997234
1.01782 1.01051 1.01037 0.996892
1.00596 1 1.00648 0.999485
1.02178 1.00091 1.02279 0.998105
1.02168 1 1.02432 0.997425
1.01114 1 1.01277 0.99839
1.00288 1 1.00325 0.999635
1 1 1 1
1.00077 1 1.00101 0.999763
1 1 1 1
1 1 1 1
1.02243 1.00149 1.02356 0.997406
1.01777 1.00077 1.01943 0.997606
1.00432 1 1.00571 0.99862
1.0069 1 1.00906 0.997863
1.00008 1 1.00022 0.999866
1.00327 1 1.00439 0.998882
1.00722 1 1.00923 0.998012
1 1 1 1
0.999936 1 1 0.999936
1.00089 1 1.0018 0.999095
1 1 1 1
0.999978 1 1 0.999978
1 1 1 1
0.612679 0.803078 0.866215 0.880744
0.644097 0.839905 0.864532 0.887034
0.61363 0.803902 0.862648 0.88485
1.03197 1.00017 1.03452 0.997366
1.01418 1.0016 1.01493 0.997663
0.999794 1.00138 1.0011 0.997312
1.03158 0.999742 1.03428 0.997642
1.01115 1.00585 1.00753 0.997757
1.01326 1 1.01582 0.997482
1.0005 0.999619 1.00303 0.997857
1.01 0.999648 1.01263 0.997752
0.997798 0.999284 1.00032 0.998192
1.03279 0.998853 1.03584 0.998208
0.56929 0.789519 0.83122 0.867472
0.609271 0.820316 0.851721 0.872032
0.659342 0.869946 0.859683 0.881618
0.611144 0.840848 0.834541 0.87092
0.769535 0.910011 0.936253 0.903209
0.791279 0.887729 0.919908 0.968958
0.791617 0.849379 0.980988 0.950058
0.836051 0.896223 0.96174 0.969971
0.825435 0.888536 0.977552 0.950317
0.717364 0.8432 0.940136 0.904937
0.541113 0.774597 0.816837 0.855218
0.8643 0.894908 0.992683 0.972916
0.802606 0.847972 0.995055 0.951205
0.606145 0.744012 0.893278 0.912032
0.488964 0.671308 0.839913 0.867203
1.04788 0.997629 1.05149 0.998928
1.06204 0.994817 1.0693 0.998382
1.00978 1 1.01179 0.99802
0.930296 0.915055 1.02584 0.991045
1.014 0.938359 1.08148 0.999198
1.04157 0.994271 1.04923 0.998422
1.04922 0.951988 1.1035 0.998767
1.02345 0.970437 1.05578 0.998912
0.98142 0.931344 1.05458 0.999229
0.923456 0.903801 1.03011 0.991878
0.99999 0.973594 1.02777 0.999359
0.941753 0.928139 1.02114 0.993661
0.628546 0.824571 0.862884 0.883397
0.619974 0.801563 0.873017 0.885957
0.661399 0.849439 0.871185 0.89376
1.00303 0.948251 1.05999 0.997902
0.870741 0.895691 0.99555 0.97649
0.626423 0.81434 0.868388 0.885826
0.804227 0.86136 0.985502 0.947407
0.60943 0.739267 0.905764 0.910138
0.584754 0.80518 0.837352 0.867306
0.485425 0.692921 0.819833 0.854503
0.980636 0.935475 1.05362 0.994925
0.631437 0.834663 0.862224 0.877401
0.503803 0.691912 0.846827 0.859834
0.835128 0.883197 0.969259 0.975565
0.557027 0.731559 0.836456 0.910298
0.729027 0.835473 0.922377 0.946024
0.918657 0.91559 1.01099 0.992443
0.506618 0.689939 0.848311 0.865594
0.582264 0.756325 0.841364 0.915013
0.701896 0.851685 0.871369 0.945783
0.790414 0.878903 0.921035 0.976423
1.00775 0.950873 1.06041 0.999444
0.98666 0.949983 1.03953 0.99911
0.997506 0.986243 1.01307 0.998373
1.01667 0.96312 1.05668 0.998979
1.0174 0.998937 1.02092 0.997612
0.988834 1.00468 0.987845 0.996341
1.03342 1.00192 1.03684 0.994797
1.01864 1.00521 1.0194 0.99408
1.00389 1.00951 0.999703 0.994733
1.01177 1.00583 1.01245 0.993527
1.00757 1.01024 1.0037 0.993679
1.04634 1.06125 0.991054 0.994851
1.08141 1.10192 0.985817 0.995499
1.08031 1.08643 0.999695 0.994669
1.06461 1.07256 0.997979 0.994599
1.05459 1.06009 1 0.994811
1.03866 1.04335 1.00107 0.994441
1.02247 1.02615 1.00244 0.993993
1.04734 1.05214 1.00032 0.995131
1.02031 1.02523 1.00002 0.995175
1.01496 1.01981 1.00032 0.994922
1.03206 1.02606 1.00999 0.995901
1.02368 1.02465 1.00357 0.995503
1.02191 1.02552 1.0011 0.995391
1.02714 1.00722 1.02244 0.997397
1.02434 1.01148 1.01603 0.996734
1.01624 1.01176 1.00789 0.99656
1.00929 1.00004 1.00993 0.999333
1.02685 1.00585 1.02311 0.997813
1.02342 1.00636 1.01976 0.997239
0.999843 1 1 0.999843
1.00801 1 1.00855 0.999466
1.02258 1.00162 1.02286 0.998109
1.00468 1 1.00506 0.999619
1 1 1 1
1 1 1 1
1.01281 1.00473 1.01088 0.997196
1.02226 1.00127 1.02366 0.997363
1.02444 1.00094 1.02616 0.997388
1.00943 1 1.01108 0.998371
1.01464 1.00054 1.01652 0.997601
1.00111 1 1.00131 0.999798
1.00578 1 1.00716 0.998625
1.00846 1 1.01063 0.997856
1 1 1 1
0.999881 1 1 0.999881
1.00206 1 1.00318 0.998884
1 1 1 1
0.999948 1 1 0.999948
1 1 1 1
0.616099 0.809492 0.862307 0.882624
0.616408 0.808031 0.866012 0.88088
0.644096 0.829343 0.874911 0.887671
1.01616 1.00522 1.01402 0.996919
1.02764 1 1.03037 0.997344
1.01202 1 1.01435 0.997712
1.02694 1 1.02947 0.997548
1.00497 1.00531 1.00235 0.997323
1.00337 1.00186 1.0035 0.998005
1.01904 1.0041 1.01812 0.996814
1.02512 0.990098 1.03738 0.998063
1.01065 0.999516 1.01341 0.997761
0.997562 1 0.999293 0.998267
1.03404 0.996536 1.03951 0.998195
1.05353 0.999702 1.05546 0.998466
0.524942 0.702952 0.861862 0.866459
0.588962 0.80971 0.838947 0.867008
0.608251 0.815166 0.855231 0.872475
0.55466 0.780875 0.822198 0.86391
0.704615 0.835601 0.933834 0.902991
0.82435 0.877746 0.996268 0.942685
0.844788 0.898958 0.9679 0.970908
0.860145 0.890808 0.989819 0.97551
0.487546 0.679559 0.833291 0.860977
0.794756 0.855478 0.983165 0.944928
0.604305 0.751192 0.891643 0.902224
0.859989 0.898465 0.978275 0.978433
0.752803 0.839754 0.940061 0.953615
0.540062 0.720008 0.823118 0.911264
0.984194 1.00125 0.983395 0.999566
1.04993 0.997833 1.05334 0.998934
1.0608 0.993497 1.06947 0.998386
0.927126 0.907332 1.0301 0.991955
0.989042 0.943669 1.04884 0.999272
1.03251 0.981193 1.05344 0.998919
0.996688 0.971225 1.02686 0.999374
0.939828 0.929794 1.01715 0.993748
0.958828 0.965239 0.997166 0.996182
0.53311 0.709632 0.859608 0.873944
0.625382 0.820718 0.860837 0.885178
0.626571 0.812422 0.870423 0.886049
0.978114 0.931023 1.05571 0.995142
0.829502 0.879178 0.966199 0.976503
0.625553 0.824175 0.8649 0.877564
0.74743 0.835288 0.946161 0.945735
0.546056 0.735664 0.82329 0.90158
0.525701 0.716698 0.845877 0.867152
0.919393 0.909764 1.01827 0.992457
0.522859 0.695707 0.860552 0.873335
0.55864 0.744316 0.829353 0.904971
0.78993 0.888096 0.915687 0.971363
0.731446 0.873768 0.877661 0.953804
0.913922 0.938877 0.97685 0.99649
0.614178 0.772029 0.882578 0.901378
0.802786 0.945657 0.886826 0.957256
0.776047 0.90136 0.886829 0.970846
0.989278 0.942 1.05115 0.999085
0.984473 0.985231 1.0008 0.998435
0.981474 1.00023 0.98397 0.997233
1.00865 0.997559 1.01344 0.997716
0.990694 1.00456 0.989866 0.996289
0.986556 1.01116 0.979447 0.996146
1.01823 1.00708 1.01711 0.994071
1.00356 1.00947 0.999409 0.994724
1.03275 1.05957 0.978655 0.995949
1.00652 1.00966 1.00319 0.993723
1.04533 1.06047 0.990824 0.994854
1.07324 1.10266 0.977055 0.996178
1.0683 1.09567 0.978605 0.996339
1.08587 1.10152 0.990336 0.995411
1.08373 1.10379 0.986214 0.995551
1.08965 1.09568 0.999578 0.994911
1.07817 1.08437 0.999522 0.994757
1.06415 1.07279 0.997292 0.994635
1.07648 1.08187 1 0.995023
1.05429 1.05962 1.00014 0.994824
1.03675 1.04107 1.00148 0.994377
1.05571 1.05767 1.00284 0.995325
1.04511 1.04978 1.00043 0.995125
1.01825 1.02312 1 0.995239
1.02333 1.01342 1.01299 0.996828
1.03468 1.02876 1.00991 0.99589
1.0164 1.0161 1.0047 0.995609
1.0083 1.0005 1.00885 0.998953
1.02585 1.01026 1.01809 0.997385
1.02633 1.01244 1.01705 0.996724
1 1 1 1
1.00901 1.00025 1.00959 0.999175
1.0281 1.00748 1.0227 0.997815
1 1 1 1
1.00915 1 1.00975 0.999414
1 1 1 1
1.01791 1.01243 1.00866 0.996783
1.01191 1.00502 1.00975 0.997132
1.02174 1.00434 1.02017 0.997204
1.01737 1 1.01926 0.99815
1.02471 1.00118 1.02621 0.99736
1.03052 1 1.03324 0.997369
1.00389 1 1.0042 0.999697
1.00953 1 1.01117 0.998377
1.01164 1 1.01408 0.997596
1 1 1 1
1.00115 1 1.00134 0.999811
1.00723 1 1.00862 0.998629
1 1 1 1
0.999896 1 1 0.999896
1 1 1 1
0.518119 0.700574 0.855505 0.864475
0.620636 0.817004 0.860562 0.882735
0.620137 0.813714 0.864998 0.88105
1.02247 1.00404 1.02152 0.996901
1.03554 1.0165 1.02234 0.996474
1.03745 1.00344 1.03714 0.996873
1.02878 0.999984 1.03142 0.997451
1.00921 1.00948 1.0024 0.997336
1.0002 0.999015 1.00294 0.998246
1.02591 0.996505 1.03164 0.99794
1.02133 1.00439 1.01989 0.997037
1.0217 0.998648 1.02582 0.997334
0.971793 0.999612 0.973194 0.998947
1.03534 0.998154 1.03915 0.99818
1.04847 0.998594 1.0516 0.998433
0.568333 0.748181 0.843652 0.900394
0.493732 0.669688 0.85567 0.861613
0.604881 0.824461 0.846239 0.866975
0.485796 0.689109 0.825015 0.854485
0.611765 0.759767 0.883089 0.9118
0.783693 0.8512 0.973011 0.946229
0.854763 0.882993 0.995845 0.972068
0.846495 0.891288 0.974171 0.974925
0.563684 0.736139 0.841886 0.909542
0.734458 0.839029 0.925121 0.946218
0.820555 0.900172 0.932319 0.977727
0.705717 0.883441 0.843368 0.947188
0.98779 1 0.988664 0.999117
0.98457 1.00085 0.984223 0.9995
1.05052 0.997306 1.05447 0.998939
0.926976 0.921779 1.01185 0.993865
0.990073 0.965094 1.02651 0.999389
0.961784 0.968884 0.996518 0.99614
0.94162 0.982065 0.96398 0.994643
0.652828 0.790657 0.906333 0.911009
0.527171 0.711059 0.849148 0.873097
0.629773 0.821995 0.86394 0.886811
0.923263 0.919006 1.01198 0.992741
0.79403 0.888173 0.919908 0.97184
0.524693 0.695539 0.864033 0.87308
0.704503 0.87138 0.854171 0.946523
0.571818 0.735871 0.849562 0.914664
0.909835 0.942217 0.970923 0.99455
0.630041 0.783033 0.885886 0.90826
0.768665 0.929761 0.872025 0.948062
0.781098 0.899317 0.891667 0.974069
0.908548 0.966667 0.943688 0.995962
0.853904 0.971101 0.919488 0.95631
0.834066 0.948517 0.898328 0.97886
0.969407 0.982231 0.988453 0.998475
0.976159 1.00026 0.978661 0.997188
0.965319 1.00912 0.959535 0.996936
0.99268 1.00418 0.992281 0.99624
0.986497 1.01049 0.980053 0.99613
1.00572 1.06071 0.951211 0.996793
1.00298 1.00937 0.998945 0.994716
1.02896 1.05717 0.977308 0.995915
1.04806 1.10047 0.955436 0.9968
1.04465 1.06002 0.990601 0.994856
1.07208 1.10263 0.976043 0.996164
1.05963 1.09671 0.969266 0.996825
1.07013 1.09717 0.978578 0.996714
1.06782 1.09588 0.977902 0.996416
1.07264 1.09392 0.984302 0.996188
1.08916 1.10085 0.993863 0.995487
1.08742 1.10186 0.991406 0.99545
1.08657 1.10623 0.986566 0.995602
1.09522 1.1009 0.999739 0.995097
1.09075 1.09691 0.99944 0.994936
1.07646 1.08278 0.999318 0.994845
1.07823 1.08347 1 0.995157
1.07916 1.08456 1 0.995021
1.05424 1.05953 1.00017 0.994838
1.02737 1.02711 1.00403 0.996236
1.05683 1.0593 1.00234 0.99534
1.04307 1.04759 1.00057 0.995118
1.00708 1.00073 1.00782 0.998538
1.02674 1.01707 1.01273 0.996818
1.04007 1.03363 1.01039 0.995881
1 1 1 1
1.00825 1.00025 1.00907 0.998931
1.02765 1.01339 1.01674 0.997373
0.999877 1 1 0.999877
1.00949 1.00012 1.0102 0.999183
1 1 1 1
1.02979 1.02144 1.01186 0.996361
1.01529 1.00674 1.01174 0.996791
1.01444 1.00749 1.00992 0.997004
1.01146 1.00622 1.00816 0.997068
1.01969 1.00283 1.01965 0.997213
1.02306 1 1.02521 0.99791
1.00639 1 1.00687 0.999531
1.01633 1 1.01822 0.998147
1.02322 1.00027 1.02565 0.997359
1 1 1 1
1.00259 1 1.00288 0.999714
1.00955 1 1.01118 0.998383
1 1 1 1
1.00028 1 1.00045 0.999828
1 1 1 1
0.614938 0.775792 0.872783 0.908197
0.520907 0.703197 0.854111 0.867298
0.622094 0.820467 0.858792 0.882889
1.02571 1.00231 1.02654 0.996884
1.04436 1.00214 1.04571 0.996578
1.02979 1.01476 1.01838 0.996484
1.02288 1.02495 1.00242 0.995576
1.03436 1.00598 1.03115 0.997152
1.02165 0.999899 1.02398 0.997825
1.02204 1.00391 1.02085 0.99726
1.02178 1.00074 1.02363 0.997464
0.997642 1.01007 0.990709 0.996961
0.964186 1.00245 0.963381 0.998389
0.969551 1.0013 0.970651 0.997572
0.978996 1.00125 0.97878 0.998972
1.04227 0.997274 1.04679 0.998402
0.778732 0.933446 0.874596 0.953875
0.566269 0.747013 0.838959 0.903553
0.478766 0.653065 0.847767 0.86475
0.554242 0.74207 0.828797 0.901169
0.739018 0.839735 0.926616 0.949759
0.856307 0.892141 0.980976 0.978447
0.816664 0.894529 0.93137 0.980227
0.735276 0.875891 0.878483 0.95558
0.830922 0.948023 0.895296 0.978982
0.981023 1.00023 0.982513 0.998259
0.991232 0.999407 0.992725 0.999088
0.985085 1.00037 0.985273 0.999435
0.967205 0.974909 0.995895 0.996186
0.951686 0.98576 0.96966 0.995642
0.850766 0.962938 0.929177 0.950853
0.641858 0.786153 0.894204 0.913051
0.519601 0.709718 0.839291 0.872313
0.91288 0.951817 0.96638 0.992458
0.783561 0.909824 0.886776 0.971185
0.617667 0.777587 0.875806 0.90698
0.778429 0.926932 0.878137 0.956332
0.918472 0.969113 0.951474 0.996081
0.856063 0.976309 0.917346 0.95584
0.830796 0.945375 0.900999 0.975363
0.910639 0.997585 0.917105 0.995354
0.881807 0.984123 0.909332 0.985376
0.974208 1.00203 0.974993 0.997172
0.958483 1.00909 0.952809 0.996896
0.964349 1.04684 0.923774 0.997211
0.986228 1.00975 0.980517 0.996113
1.01005 1.06293 0.953346 0.996754
1.03671 1.10352 0.942165 0.997127
1.02517 1.05459 0.976123 0.995881
1.04857 1.09975 0.956551 0.99677
1.05076 1.10067 0.957496 0.997035
1.07047 1.10209 0.975064 0.99615
1.05929 1.09603 0.969585 0.996803
1.06517 1.10223 0.969388 0.996891
1.06761 1.09566 0.977563 0.99677
1.072 1.09746 0.980216 0.996521
1.06708 1.09575 0.977258 0.996493
1.07155 1.09374 0.983467 0.99618
1.07546 1.09131 0.989488 0.995942
1.09188 1.09977 0.997401 0.995415
1.09073 1.10139 0.994816 0.995474
1.08886 1.10207 0.992487 0.99549
1.08895 1.09428 1 0.995125
1.09787 1.10356 0.999758 0.995082
1.09152 1.09779 0.99932 0.994961
1.04348 1.04529 1.00246 0.995824
1.07678 1.08201 1 0.995166
1.08218 1.08759 1 0.995019
1.00572 1.00297 1.00468 0.998072
1.02874 1.02837 1.00413 0.996246
1.05801 1.06037 1.00243 0.995354
1 1 1 1
1.00674 1.0012 1.00704 0.998506
1.02821 1.02047 1.01081 0.99681
1 1 1 1
1.00748 1.00029 1.00829 0.998909
1 1 1 1
1.03647 1.04023 1.00086 0.99553
1.02797 1.02415 1.0074 0.996357
1.02264 1.01124 1.01483 0.996493
1.01347 1.00153 1.01517 0.996799
1.01656 1.00496 1.01464 0.99694
1.02296 1.00596 1.01943 0.997526
1.02119 1.00172 1.02228 0.997219
1.02481 1.00046 1.0265 0.997899
1.01169 1.0004 1.01202 0.999272
1 1 1 1
1.00609 1 1.00655 0.999545
1.01769 1 1.01958 0.998144
1 1 1 1
1.00287 1 1.00315 0.999724
1 1 1 1
0.848869 0.968432 0.914457 0.958535
0.633543 0.787493 0.884873 0.909178
0.513661 0.701364 0.848058 0.863589
1.05513 1.00153 1.05746 0.99628
1.02327 1.01369 1.01301 0.996494
1.0308 1.0079 1.02586 0.996942
1.02177 1.02393 1.00224 0.995662
1.04704 1.05169 1.00016 0.995423
1.00588 1.01711 0.992314 0.996612
1.02532 1.00412 1.02359 0.997587
0.998734 1.01133 0.990809 0.996707
0.971802 1.00279 0.970684 0.998365
1.00279 1.01013 0.995792 0.996929
0.973549 1.00438 0.971794 0.997433
0.985281 1.00178 0.986454 0.997041
0.968349 1.00165 0.969003 0.997682
0.98634 1.00082 0.986523 0.998997
0.838178 0.958635 0.893215 0.978875
0.778855 0.939466 0.870489 0.952385
0.582571 0.745367 0.855619 0.913478
0.7043 0.864704 0.860711 0.946309
0.829627 0.896793 0.942552 0.981488
0.839331 0.936565 0.910444 0.984334
0.939391 1.00298 0.94058 0.995772
0.977133 0.999802 0.979145 0.998143
0.994746 0.998692 0.996985 0.999062
0.960717 0.989143 0.974553 0.996622
0.871338 0.972499 0.914668 0.979568
0.854689 0.96805 0.919861 0.959815
0.631342 0.778169 0.897727 0.903746
0.916272 0.964197 0.953884 0.996239
0.828337 0.944013 0.897857 0.977286
0.847129 0.979193 0.905832 0.955066
0.912141 0.995898 0.919998 0.995544
0.887658 0.982127 0.918318 0.984204
0.934814 1.02628 0.914438 0.9961
0.938448 1.02798 0.918278 0.994151
0.951255 1.0091 0.945652 0.99685
0.961109 1.0435 0.923612 0.99722
1.00555 1.09651 0.91971 0.997101
1.01468 1.06569 0.955268 0.996714
1.03638 1.10323 0.942133 0.997101
1.05978 1.11171 0.956169 0.996986
1.04914 1.0993 0.957489 0.996739
1.05202 1.10057 0.958746 0.997016
1.0718 1.11153 0.967307 0.996847
1.05909 1.09561 0.969785 0.99678
1.06403 1.10021 0.970136 0.996887
1.07329 1.10349 0.975926 0.996624
1.06518 1.09434 0.976457 0.996825
1.07149 1.09729 0.979854 0.996567
1.07606 1.09526 0.986213 0.996199
1.07054 1.09363 0.98265 0.996172
1.07555 1.09181 0.989139 0.995932
1.08497 1.09527 0.994854 0.995715
1.08811 1.09367 0.999639 0.995276
1.0934 1.10065 0.998034 0.99537
1.09225 1.10186 0.995794 0.995462
1.05878 1.06337 1 0.995676
1.08725 1.09257 1 0.995132
1.1006 1.1063 0.999781 0.995067
1.0098 1.00966 1.00238 0.997767
1.04255 1.04397 1.00283 0.995826
1.07387 1.07898 1.00008 0.995176
1 1 1 1
1.00678 1.00482 1.00391 0.998042
1.02998 1.02926 1.00447 0.996255
1 1 1 1
1.00682 1.00167 1.00668 0.998475
1 1 1 1
1.06439 1.06944 1 0.995277
1.036 1.04013 1.00049 0.995543
1.04462 1.04358 1.00522 0.995795
1.02673 1.02641 1.00398 0.996353
1.02776 1.01865 1.01258 0.996407
1.02772 1.01862 1.01196 0.997017
1.0174 1.00142 1.01914 0.996877
1.01989 1.00379 1.01856 0.997533
1.00936 1.0006 1.00982 0.998953
1.02179 1.00044 1.0235 0.997891
1.00877 1 1.00949 0.999284
1 1 1 1
1 1 1 1
1.00436 1 1.0048 0.999561
1 1 1 1
0.866369 0.959125 0.921172 0.980589
0.841763 0.964052 0.919096 0.95001
0.643115 0.7789 0.902156 0.91522
1.0774 1.084 0.998432 0.995471
1.02675 1.00999 1.01992 0.996736
1.02183 1.02406 1.00208 0.995748
1.00869 1.02 0.992266 0.996621
1.049 1.05351 1.00031 0.99541
1.03542 1.04061 0.998464 0.996538
1.00077 1.01203 0.992396 0.996455
0.978144 1.0022 0.97762 0.99834
1.00077 1.01167 0.992257 0.996945
0.965178 1.00353 0.964426 0.997262
1.02236 1.02814 0.998167 0.996201
0.957913 1.00879 0.952244 0.997184
0.985521 1.00232 0.986136 0.99706
0.968544 1.00199 0.968759 0.997791
0.924419 1.00455 0.923486 0.996475
0.823959 0.949554 0.888211 0.976945
0.786149 0.947684 0.872145 0.951158
0.835328 0.930076 0.914825 0.98175
0.940841 1.00252 0.941144 0.997163
0.973652 0.999948 0.975641 0.998014
0.947868 1.01806 0.938457 0.992107
0.874158 0.960748 0.927792 0.980687
0.851519 0.968264 0.92468 0.951062
0.919575 0.995521 0.927682 0.995722
0.894155 0.984882 0.923625 0.982953
0.936456 1.02805 0.914235 0.996359
0.947161 1.02825 0.926135 0.994608
0.9915 1.0642 0.934677 0.996803
1.05287 1.13038 0.934456 0.996767
0.957551 1.03943 0.923783 0.997228
1.01258 1.09823 0.924709 0.997082
1.05902 1.12762 0.942141 0.996839
1.0363 1.10264 0.942592 0.997075
1.05663 1.10943 0.955288 0.996983
1.07465 1.1217 0.961192 0.996733
1.05327 1.10029 0.96015 0.996997
1.06923 1.10952 0.966717 0.99686
1.07728 1.10821 0.975426 0.99658
1.06295 1.09813 0.970985 0.996882
1.07394 1.10404 0.976031 0.996621
1.07675 1.0994 0.98301 0.996327
1.07095 1.09706 0.979522 0.996612
1.07559 1.09542 0.9856 0.996244
1.0836 1.09703 0.991805 0.99592
1.07562 1.09233 0.988742 0.995923
1.08456 1.09517 0.994569 0.995721
1.08921 1.09429 0.999917 0.995443
1.0648 1.06941 1 0.995693
1.08816 1.09355 0.999819 0.995253
1.09506 1.10167 0.998665 0.995325
1.01838 1.02042 1.00031 0.997682
1.05715 1.06169 1.00004 0.995676
1.08623 1.09154 1 0.995139
0.999998 1 1 0.999998
1.01239 1.01329 1.00137 0.99775
1.04237 1.04409 1.00254 0.995828
0.999999 1 1 0.999999
1.00786 1.00712 1.00272 0.998013
1 1 1 1
1.0828 1.0883 0.999715 0.995226
1.06142 1.06646 1 0.995269
1.07439 1.07933 1 0.995423
1.03441 1.03875 1.00026 0.995556
1.04954 1.04846 1.0053 0.995755
1.03989 1.03566 1.00756 0.996548
1.03178 1.02505 1.01027 0.996321
1.02274 1.01225 1.01338 0.997023
1.00693 1.00126 1.00703 0.998643
1.02052 1.00144 1.02157 0.997531
1.0106 1.00099 1.01064 0.998971
1 1 1 1
1.00799 1 1.0087 0.999296
1 1 1 1
1 1 1 1
0.926432 1.00936 0.921695 0.995821
0.855897 0.959629 0.913407 0.976459
0.842365 0.966546 0.908911 0.958863
1.0718 1.08055 0.995786 0.996097
1.07742 1.0952 0.987922 0.995792
1.0764 1.08367 0.997707 0.995574
1.01076 1.02241 0.99195 0.996628
1.05069 1.05501 1.00051 0.995396
1.03801 1.04405 0.997681 0.996529
1.05596 1.08196 0.97978 0.996112
0.999929 1.01355 0.989573 0.996962
0.959575 1.00317 0.959338 0.997091
1.02655 1.03242 0.997937 0.99637
1.02121 1.06902 0.958949 0.996171
0.973211 1.03278 0.944907 0.99726
0.971482 1.01238 0.962394 0.9971
0.990529 1.00275 0.990708 0.997078
0.920186 1.00462 0.918838 0.996866
0.834891 0.953662 0.897819 0.975095
0.940714 1.00105 0.941039 0.998605
1.03438 1.09295 0.94908 0.997186
0.943168 1.0177 0.933979 0.99228
0.873559 0.963734 0.92662 0.978212
0.938047 1.03029 0.913576 0.996595
0.953567 1.02856 0.93166 0.995095
0.98461 1.06429 0.927891 0.997027
1.04914 1.12788 0.93317 0.996812
1.06405 1.14458 0.932608 0.996818
1.10849 1.17365 0.94732 0.997006
1.01945 1.10121 0.928487 0.997063
1.064 1.13103 0.943722 0.996841
1.07734 1.13255 0.954428 0.996674
1.05303 1.10721 0.953947 0.996981
1.07477 1.12137 0.961581 0.996735
1.075 1.11318 0.969037 0.996559
1.06657 1.10752 0.966048 0.996874
1.07828 1.10912 0.975532 0.996576
1.0791 1.10259 0.982282 0.996345
1.07459 1.1046 0.976129 0.996618
1.07739 1.09999 0.983066 0.996324
1.0822 1.09751 0.99 0.996011
1.0751 1.09555 0.984987 0.996289
1.08336 1.09708 0.991525 0.995928
1.09245 1.09812 0.999274 0.995557
1.0841 1.09499 0.994309 0.995726
1.08857 1.09397 0.999603 0.995459
1.06448 1.06904 1 0.995736
1.02333 1.02567 1 0.997721
1.06448 1.06908 1 0.995696
1.08837 1.09358 1 0.995231
0.999995 1 1 0.999995
1.01963 1.02159 1.00041 0.997676
1.05511 1.05918 1.00048 0.995676
0.999996 1 1 0.999996
1.01472 1.01581 1.0012 0.997732
0.999996 1 1 0.999996
1.08307 1.09319 0.995242 0.995478
1.08103 1.08675 0.999482 0.995255
1.08231 1.08742 1 0.995301
1.05856 1.0636 1 0.995261
1.07382 1.07877 1 0.995417
1.04025 1.04158 1.00257 0.99616
1.05661 1.05566 1.0052 0.995716
1.0354 1.0304 1.00833 0.996548
1.00592 1.00325 1.0044 0.99827
1.01849 1.00829 1.01311 0.997034
1.00728 1.00114 1.00748 0.998666
1 1 1 1
1.00895 1.0002 1.00977 0.998988
1 1 1 1
1 1 1 1
0.979116 1.06104 0.925058 0.997547
0.928169 1.00771 0.926323 0.994331
0.859732 0.964791 0.911524 0.9776
1.0695 1.09427 0.981248 0.996035
1.06955 1.07886 0.995025 0.99632
1.08224 1.1052 0.983166 0.995991
1.07719 1.09594 0.987068 0.99577
1.07484 1.08287 0.996896 0.995676
1.07497 1.11763 0.965737 0.995953
1.04094 1.04775 0.996969 0.99652
1.05302 1.07795 0.98074 0.996051
1.04851 1.11589 0.943103 0.996298
1.02469 1.03665 0.991896 0.996539
1.02094 1.07085 0.957159 0.996058
0.964852 1.03934 0.930832 0.997312
0.980097 1.01485 0.968652 0.997013
0.916632 1.00483 0.914798 0.997185
1.09419 1.15943 0.946516 0.997056
1.03916 1.09893 0.948244 0.997217
0.945221 1.01683 0.936629 0.992466
0.977813 1.06344 0.922021 0.997245
1.04594 1.12517 0.93252 0.996857
1.05537 1.139 0.929523 0.996835
1.11811 1.18183 0.948916 0.997012
1.09285 1.14972 0.9535 0.99689
1.06884 1.13383 0.945671 0.996843
1.07773 1.13127 0.955842 0.996684
1.07546 1.11743 0.965695 0.996624
1.07502 1.12101 0.962116 0.996737
1.07573 1.11324 0.969662 0.996539
1.07831 1.1042 0.980135 0.99635
1.07931 1.11006 0.975645 0.996573
1.07938 1.10285 0.982314 0.996341
1.08146 1.0974 0.989363 0.996076
1.07804 1.10059 0.983122 0.996321
1.08317 1.09842 0.990068 0.996009
1.09575 1.10226 0.998431 0.995658
1.0831 1.09715 0.991219 0.995936
1.0915 1.09731 0.999143 0.995563
1.06531 1.06985 1 0.995753
1.08773 1.09345 0.999288 0.995474
1.06541 1.06997 1 0.995739
1.0237 1.02555 1 0.998197
0.999184 1 1 0.999184
1.02344 1.02558 1 0.997918
1.06369 1.06828 1 0.995699
0.999998 1 1 0.999998
1.02104 1.02343 1 0.997669
0.999998 1 1 0.999998
1.08869 1.10694 0.987338 0.996125
1.08294 1.09855 0.989942 0.995798
1.08252 1.09364 0.994297 0.995515
1.07996 1.08522 0.999792 0.995363
1.07985 1.08574 0.999288 0.995284
1.08067 1.08579 1 0.99529
1.04442 1.04799 1.00071 0.995884
1.07399 1.07894 1 0.995412
1.04351 1.04526 1.00218 0.996156
1.01016 1.01105 1.00124 0.997884
1.03015 1.02386 1.00962 0.996548
1.00648 1.00292 1.00527 0.998291
0.999998 1 1 0.999998
1.00894 1.00168 1.00857 0.99869
1 1 1 1
1 1 1 1
1.08059 1.14668 0.94541 0.996781
0.994093 1.07349 0.928354 0.997507
0.925988 1.00729 0.925891 0.992866
1.07691 1.10725 0.976479 0.996029
1.06616 1.09059 0.981451 0.996075
1.06754 1.07737 0.994311 0.996542
1.08146 1.10278 0.984599 0.996007
1.07699 1.09658 0.986327 0.995747
1.08096 1.13294 0.957681 0.996279
1.06709 1.11095 0.964461 0.995908
1.05015 1.07405 0.981692 0.995989
1.0415 1.10863 0.942929 0.996302
1.0268 1.07448 0.959522 0.995944
0.958557 1.04962 0.915645 0.997372
1.08821 1.13717 0.959829 0.997
1.09522 1.15996 0.946936 0.997094
1.04378 1.10589 0.946439 0.99725
1.0468 1.13428 0.9258 0.996848
1.12719 1.19043 0.949713 0.997018
1.09531 1.15251 0.953332 0.996892
1.0839 1.11873 0.972008 0.996765
1.07808 1.1299 0.957304 0.996694
1.07636 1.11729 0.966648 0.996605
1.07959 1.10536 0.980206 0.996411
1.07646 1.1133 0.970287 0.996519
1.07887 1.10471 0.980185 0.996349
1.0807 1.09745 0.988571 0.996116
1.07968 1.10313 0.982347 0.996337
1.08216 1.09806 0.989402 0.996074
1.09619 1.10406 0.997129 0.995729
1.0841 1.09929 0.990136 0.996008
1.09412 1.10071 0.998345 0.995662
1.06686 1.07143 1 0.995734
1.09057 1.09651 0.999011 0.995569
1.0665 1.07104 1 0.995757
1.02222 1.02402 1 0.998234
1.06677 1.07133 1 0.995741
1.02325 1.02511 1 0.99819
0.999224 1 1 0.999224
0.999614 1 1 0.999614
1.02379 1.0257 1 0.998135
1 1 1 1
1.07888 1.10262 0.982265 0.996141
1.0853 1.09884 0.991712 0.995931
1.08703 1.10515 0.987291 0.996259
1.08658 1.09224 0.99931 0.99551
1.0847 1.09985 0.990391 0.995796
1.08202 1.09413 0.993351 0.995551
1.07999 1.0851 0.99994 0.995352
1.0593 1.06378 1 0.995787
1.07844 1.08356 1 0.995279
1.04895 1.05288 1.00039 0.995884
1.01999 1.02213 1.00018 0.997724
1.04444 1.04682 1.00157 0.996154
1.00788 1.00768 1.00229 0.99791
0.999997 1 1 0.999997
1.00633 1.00201 1.006 0.998315
1 1 1 1
1 1 1 1
1.08156 1.13029 0.960107 0.996653
1.07026 1.13497 0.94602 0.996786
1.00758 1.08277 0.93293 0.997464
1.07897 1.11394 0.972281 0.996217
1.0736 1.10471 0.975724 0.996022
1.06252 1.08672 0.981547 0.996118
1.08048 1.10024 0.985965 0.996023
1.08206 1.13241 0.959139 0.996251
1.05892 1.10371 0.963405 0.995863
1.03122 1.09678 0.943715 0.996305
1.08767 1.12195 0.972528 0.99683
1.08692 1.1349 0.960647 0.996956
1.09595 1.1595 0.947913 0.997132
1.08242 1.10983 0.978559 0.996675
1.09769 1.15511 0.953248 0.996895
1.0835 1.11848 0.971886 0.996749
1.08214 1.10622 0.981636 0.996535
1.07723 1.11712 0.967591 0.996586
1.08 1.10579 0.980194 0.996414
1.0804 1.097 0.988669 0.996154
1.07937 1.10517 0.980236 0.996348
1.08088 1.09767 0.988546 0.996115
1.09591 1.10486 0.996097 0.995782
1.08288 1.09874 0.989444 0.996071
1.09518 1.10299 0.997176 0.995731
1.06697 1.07156 1 0.995712
1.09246 1.09913 0.998263 0.995666
1.06861 1.07318 1 0.995738
1.02081 1.02263 1 0.998222
1.06774 1.07229 1 0.995761
1.02178 1.02361 1 0.998217
0.999229 1 1 0.999229
1.02265 1.02451 1 0.998187
0.999247 1 1 0.999247
1 1 1 1
1.07856 1.10136 0.983176 0.996058
1.07965 1.09625 0.988851 0.995964
1.08128 1.104 0.983215 0.996141
1.09184 1.09835 0.998444 0.995624
1.08433 1.10005 0.989687 0.995986
1.08566 1.10361 0.987303 0.996391
1.0705 1.07504 1 0.99578
1.08821 1.09371 0.999469 0.9955
1.08693 1.10165 0.990807 0.995795
1.07993 1.08498 1 0.995342
1.06027 1.06476 1 0.995784
1.02627 1.0286 1 0.99774
1.05464 1.05899 1 0.995883
1.01678 1.01871 1.00037 0.997738
1 1 1 1
1.00693 1.00577 1.00323 0.997932
0.999997 1 1 0.999997
1 1 1 1
1.08145 1.11422 0.973952 0.996549
1.0826 1.13252 0.959161 0.996626
1.06225 1.12691 0.945657 0.996791
1.07841 1.11304 0.972546 0.996235
1.07024 1.10222 0.974872 0.996015
1.084 1.133 0.960378 0.996223
1.08525 1.11139 0.979732 0.996673
1.08793 1.12181 0.97289 0.996826
1.08583 1.1329 0.961427 0.996911
1.08289 1.10989 0.978913 0.996698
1.08061 1.10145 0.984522 0.996505
1.08309 1.11821 0.971764 0.996734
1.08258 1.10598 0.982282 0.996499
1.07888 1.09574 0.988323 0.996251
1.08042 1.10623 0.980184 0.996417
1.08026 1.09687 0.988656 0.996157
1.0956 1.10535 0.995347 0.995812
1.08115 1.09798 0.988516 0.996115
1.09529 1.10435 0.995992 0.995783
1.06516 1.06975 1 0.995715
1.09417 1.10192 0.997215 0.995733
1.06885 1.07344 1 0.995716
1.0179 1.01975 1 0.998186
1.07037 1.07495 1 0.995743
1.01994 1.02178 1 0.998199
0.999208 1 1 0.999208
1.02132 1.02316 1 0.998206
0.999265 1 1 0.999265
0.999261 1 1 0.999261
1.0798 1.10275 0.982783 0.996341
1.0814 1.09559 0.991086 0.995931
1.07789 1.10245 0.981571 0.996081
1.0924 1.10157 0.995935 0.995716
1.08054 1.09581 0.990078 0.995948
1.08361 1.10533 0.984148 0.996141
1.07005 1.07459 1 0.995779
1.09189 1.09926 0.997633 0.995654
1.08309 1.10101 0.987634 0.996041
1.02478 1.02705 1 0.997793
1.068 1.07253 1 0.995777
1.08935 1.09459 0.999717 0.99549
1.06119 1.06569 1 0.995782
1.02518 1.0275 1 0.997746
1 1 1 1
1.01297 1.01457 1.00067 0.997754
0.999998 1 1 0.999998
1 1 1 1
1.08117 1.10562 0.981259 0.996562
1.08137 1.11424 0.973881 0.996535
1.08301 1.13401 0.958286 0.996599
1.07819 1.11228 0.972995 0.996253
1.08099 1.09843 0.987617 0.996464
1.08538 1.11177 0.979513 0.996685
1.08831 1.12169 0.973336 0.996822
1.08338 1.10994 0.979283 0.99672
1.08055 1.1018 0.984144 0.996516
1.07939 1.09429 0.990101 0.996243
1.08305 1.10576 0.982946 0.996462
1.07999 1.09594 0.989199 0.996201
1.09408 1.10457 0.994596 0.99589
1.08014 1.09676 0.988644 0.996159
1.09496 1.10463 0.995415 0.995814
1.06275 1.06732 1 0.995722
1.0945 1.10365 0.995911 0.995783
1.06672 1.07131 1 0.995716
1.01337 1.01564 1 0.997764
1.07064 1.07524 1 0.995719
1.01645 1.01851 1 0.997978
1 1 1 1
1.01908 1.02094 1 0.998178
0.99925 1 1 0.99925
0.999292 1 1 0.999292
1.0801 1.0989 0.986387 0.996453
1.07889 1.09422 0.989868 0.996081
1.08051 1.10217 0.983949 0.996336
1.09292 1.10075 0.997137 0.995739
1.08036 1.09491 0.990744 0.995931
1.07723 1.10355 0.979975 0.996105
1.06833 1.07295 0.999919 0.995769
1.09298 1.10147 0.996564 0.995716
1.08151 1.09538 0.991362 0.995932
1.02054 1.02275 1 0.997835
1.06797 1.07249 1 0.995781
1.09189 1.10012 0.996813 0.995685
1 1 1 1
1.02589 1.02815 1 0.9978
1.06569 1.07021 1 0.995773
1.02417 1.02647 1 0.997754
1 1 1 1
0.999995 1 1 0.999995
1.07988 1.09611 0.988691 0.996463
1.08241 1.10634 0.981741 0.996568
1.08115 1.11415 0.97377 0.996521
1.07931 1.09213 0.992042 0.99619
1.07996 1.09807 0.986983 0.996474
1.08552 1.11215 0.979289 0.996697
1.08046 1.10216 0.983731 0.996526
1.07932 1.09438 0.989952 0.996244
1.09438 1.10327 0.996062 0.995864
1.081 1.09607 0.990065 0.996152
1.09463 1.10432 0.995369 0.995835
1.06007 1.06524 0.999374 0.995771
1.09445 1.10405 0.995465 0.995815
1.06398 1.06855 1 0.995722
1.00937 1.01163 1 0.997773
1.06846 1.07306 1 0.995717
1.01215 1.01442 1 0.997764
1 1 1 1
1.01504 1.01734 1 0.997733
0.999596 1 1 0.999596
0.999287 1 1 0.999287
1.07615 1.09226 0.988787 0.996427
1.07846 1.09122 0.992099 0.99618
1.07945 1.09807 0.986535 0.996462
1.09201 1.09966 0.997286 0.995748
1.0794 1.09437 0.990207 0.99607
1.08113 1.10151 0.985109 0.996331
1.06576 1.07067 0.999683 0.995729
1.09332 1.10075 0.997541 0.995701
1.07924 1.0942 0.990356 0.995931
1.01655 1.01877 1 0.997825
1.06726 1.07195 0.99986 0.995763
1.09351 1.10136 0.997144 0.995716
1 1 1 1
1.0219 1.02411 1 0.997842
1.06613 1.07065 1 0.995782
1 1 1 1
1.02698 1.02924 1 0.997807
0.999998 1 1 0.999998
1.07963 1.09161 0.992778 0.996222
1.07893 1.09531 0.98855 0.996451
1.08365 1.10705 0.98223 0.996573
1.09447 1.10301 0.996389 0.995857
1.0788 1.09216 0.991532 0.996207
1.07894 1.09773 0.986352 0.996483
1.07927 1.09448 0.989823 0.996245
1.09368 1.10279 0.995851 0.995864
1.05749 1.06255 0.999456 0.995784
1.09515 1.10408 0.996122 0.995779
1.06107 1.06595 0.999678 0.995744
1.00632 1.00857 1 0.997772
1.06499 1.06957 1 0.995722
1.00834 1.0106 1 0.997772
1 1 1 1
1.01085 1.01311 1 0.997762
1 1 1 1
0.999266 1 1 0.999266
1.07837 1.09012 0.992996 0.996197
1.07468 1.09183 0.987812 0.996438
1.092 1.09975 0.997118 0.995816
1.07905 1.09172 0.992183 0.996179
1.07878 1.09724 0.986663 0.996471
1.06364 1.06824 1 0.995691
1.09266 1.10033 0.997274 0.995744
1.08002 1.09465 0.990536 0.996059
1.013 1.01525 1 0.997784
1.06519 1.06993 0.99986 0.995706
1.09388 1.10081 0.99803 0.995664
1 1 1 1
1.01772 1.01993 1 0.99783
1.06624 1.07099 0.999809 0.995757
1 1 1 1
1.02318 1.02538 1 0.997848
1 1 1 1
1.09354 1.10143 0.996954 0.995868
1.07968 1.09149 0.99294 0.996214
1.07794 1.09447 0.988417 0.996439
1.05625 1.06128 0.99947 0.995796
1.0938 1.10241 0.996315 0.995857
1.07827 1.09215 0.991028 0.996225
1.09297 1.10231 0.995646 0.995864
1.0581 1.06325 0.999369 0.99578
1.00469 1.00692 1 0.997786
1.06217 1.06674 1 0.995716
1.00582 1.00807 1 0.997771
1 1 1 1
1.0074 1.00965 1 0.997771
1 1 1 1
1 1 1 1
1.09299 1.10031 0.997479 0.995857
1.07806 1.09029 0.992507 0.996243
1.07333 1.09151 0.98685 0.99645
1.0607 1.06525 1 0.995725
1.09236 1.10011 0.997126 0.995813
1.07965 1.09222 0.992281 0.996179
1.00955 1.01181 1 0.997765
1.06246 1.06706 1 0.995689
1.09326 1.10095 0.997266 0.995741
1 1 1 1
1.014 1.01625 1 0.997787
1.06446 1.06908 1 0.995683
1 1 1 1
1.01885 1.02106 1 0.997834
1 1 1 1
1.05711 1.06162 1 0.995751
1.09292 1.10118 0.996595 0.995889
1.07976 1.09141 0.993089 0.996205
1.00367 1.00585 1 0.997831
1.05677 1.06185 0.999418 0.995794
1.09313 1.10184 0.996225 0.995857
1.05866 1.06392 0.99928 0.995777
1.00435 1.00658 1 0.997787
1 1 1 1
1.0053 1.00755 1 0.997769
1 1 1 1
1 1 1 1
1.05824 1.06276 1 0.99575
1.0926 1.10021 0.997185 0.995888
1.07764 1.09037 0.99201 0.996289
1.00715 1.00897 1 0.998198
1.05979 1.06434 1 0.995725
1.09257 1.10033 0.997132 0.99581
1 1 1 1
1.01052 1.01279 1 0.997766
1.06128 1.06587 1 0.995687
1 1 1 1
1.01507 1.01732 1 0.99779
1 1 1 1
1.00348 1.0057 1 0.997799
1.05633 1.06112 0.999714 0.995776
1.09231 1.10091 0.996261 0.995909
1 1 1 1
1.00356 1.00574 1 0.997829
1.05732 1.06245 0.99937 0.995792
1.00405 1.00628 1 0.997786
1 1 1 1
1 1 1 1
1.00515 1.00698 1 0.998188
1.05778 1.06229 1 0.995752
1.09236 1.10024 0.996899 0.995918
1 1 1 1
1.00754 1.00978 1 0.997786
1.05911 1.06366 1 0.995725
1 1 1 1
1.0115 1.01377 1 0.997767
1 1 1 1
0.999302 1 1 0.999302
1.00405 1.00604 1 0.998022
1.05559 1.06067 0.999408 0.9958
1 1 1 1
1.00341 1.00559 1 0.997829
1 1 1 1
0.999303 1 1 0.999303
1.00551 1.00752 1 0.998007
1.05715 1.06166 1 0.995753
0.99964 1 1 0.99964
1.00826 1.01049 1 0.99779
1 1 1 1
1 1 1 1
1.00419 1.00636 1 0.997847
1 1 1 1
0.999654 1 1 0.999654
1.00592 1.00811 1 0.997832
1 1 1 1
1 1 1 1
1 1 1 1

VECTORS lamdaE float
1.00347 0.999866 0.991535
1.00318 1.0006 0.995598
1.00283 1.00006 0.992029
1.00271 1.00019 0.992162
1.00326 0.999983 0.991688
1.00368 0.999782 0.991364
1.00377 1.00105 0.989009
1.0033 1.00067 0.995502
1.0023 1.00008 0.996514
1.00224 1.00064 0.996443
1.00283 1.00148 0.990806
1.00391 1.00218 0.986114
1.00204 0.99993 0.993132
1.00161 1.00016 0.993399
1.00223 1.00027 0.992494
1.00224 1.00021 0.99264
1.00296 1.00012 0.991817
1.00271 1.00006 0.992179
1.00407 1.00097 0.988708
1.0021 1 0.996295
1.0025 1.00019 0.992391
1.00298 1.0001 0.991927
1.00351 1.00021 0.990274
1.00376 1.00068 0.989441
1.00399 0.99984 0.990982
1.00381 1.00158 0.988359
1.0053 1.00146 0.985269
1.00345 1.00074 0.995399
1.00264 0.999984 0.994283
1.00274 1.00034 0.994084
1.00324 1.00133 0.995327
1.00394 1.0022 0.986063
1.00263 0.999942 0.992273
1.003 0.9999 0.991858
1.00418 1.00068 0.989299
1.00131 1.00281 0.996266
1.00423 1.00147 0.988618
1.0041 1.00275 0.985151
1.00548 1.00288 0.983018
1.00175 1.00153 0.996122
1.00207 0.999984 0.9963
1.00194 1.00009 0.994788
1.002 0.999949 0.996371
1.00145 1.00011 0.993621
1.00353 0.999758 0.989481
1.00187 1.00006 0.996695
1.00386 1.00019 0.990323
1.0018 1.00017 0.993116
1.00219 1.00011 0.992654
1.00231 1.00042 0.992254
1.00435 1.00087 0.988423
1.00186 1.00001 0.99492
1.00203 1.00024 0.992875
1.00321 1.00037 0.991399
1.00249 1.00012 0.992405
1.00376 1.00017 0.989987
1.00416 1.00141 0.988073
1.00402 1.00062 0.989149
1.0053 1.00137 0.985453
1.00199 0.999976 0.996354
1.00235 1.00008 0.99268
1.00324 0.999805 0.991367
1.00337 1.00001 0.990687
1.00367 1.00041 0.989839
1.0054 0.999046 0.987767
1.0053 0.999781 0.987008
1.00382 1.00034 0.990736
1.00394 1.00251 0.98737
1.00533 1.00268 0.983943
1.00535 0.997138 0.988782
1.00314 0.999899 0.995768
1.00308 1.00139 0.99546
1.00332 1.00021 0.995649
1.00395 1.0022 0.986005
1.00272 0.999963 0.995915
1.00317 0.999953 0.995749
1.00399 1.00074 0.987582
1.00181 1.00233 0.993679
1.00397 1.00145 0.986843
1.00412 1.0029 0.986273
1.00545 1.00287 0.982989
1.00218 1.00195 0.995708
1.00263 1.00357 0.987214
1.00398 1.00047 0.98802
1.00421 1.00086 0.987177
1.00537 0.999599 0.986657
1.00377 1.00355 0.987183
1.00533 1.00155 0.984527
1.0055 1.00446 0.981425
1.00557 0.999537 0.98578
1.00113 1.00148 0.996633
1.00141 1.00171 0.996346
1.00237 1.00005 0.996076
1.00213 0.999986 0.996264
1.00203 0.999954 0.996362
1.00184 1.00001 0.994945
1.00355 0.999763 0.990215
1.00217 1.00007 0.994624
1.00371 1.00019 0.989594
1.002 0.99995 0.996389
1.00336 0.999604 0.9898
1.00377 0.999995 0.990619
1.00531 0.997432 0.989251
1.00387 1.00029 0.990092
1.00532 0.997807 0.988796
1.00205 0.999901 0.993147
1.00155 1.00027 0.993361
1.00235 1.00095 0.991807
1.00201 1.0001 0.992877
1.00399 1.00017 0.989702
1.00427 1.00058 0.988866
1.00447 1.00135 0.98779
1.0053 1.00126 0.985633
1.00203 0.999955 0.996372
1.00191 1.00007 0.99316
1.00348 0.999621 0.990313
1.00361 0.999977 0.990404
1.0033 1.00105 0.993075
1.00424 1.0023 0.98741
1.00391 1.00037 0.989553
1.0054 0.998654 0.988177
1.00534 1.0026 0.984141
1.0053 1.00009 0.986724
1.00537 0.997161 0.988748
1.00335 0.99962 0.989804
1.0033 0.999744 0.991065
1.00532 0.997418 0.989617
1.00536 0.99805 0.988884
1.0054 0.998886 0.987848
1.00529 0.995724 0.990825
1.00259 1.00159 0.99575
1.00532 0.996064 0.989984
1.00394 1.0031 0.984986
1.00537 1.00371 0.982079
1.00536 0.998438 0.987464
1.00537 0.994925 0.990817
1.00304 1.00363 0.986113
1.00452 1.00418 0.98408
1.00288 0.999936 0.995855
1.00328 0.99996 0.995727
1.00394 1.0008 0.987583
1.00245 1.00176 0.995612
1.00376 1.0032 0.985249
1.00398 1.00141 0.986812
1.00546 1.00271 0.982962
1.00211 1.00175 0.995848
1.00267 1.00364 0.987144
1.00401 1.00052 0.988817
1.00423 1.00097 0.988039
1.00536 0.999593 0.986641
1.00335 1.00365 0.985422
1.00537 1.0016 0.984487
1.00549 1.00427 0.981375
1.0056 0.999267 0.9861
1.0032 1.00364 0.986048
1.00221 1.00332 0.988253
1.00286 1.00253 0.986279
1.00541 0.998844 0.987468
1.00533 1.00048 0.985708
1.00529 0.995649 0.990465
1.0047 1.00509 0.982084
1.0055 0.997498 0.988281
1.00563 1.0019 0.984044
1.00566 0.997115 0.987725
1.00064 1.00082 0.997248
1.00088 1.00137 0.996853
1.00122 1.00175 0.996491
1.0024 1.00397 0.9872
1.00185 1.00202 0.995997
1.0026 0.999992 0.995967
1.00222 1.00002 0.996167
1.00349 1.00025 0.98893
1.00337 0.99977 0.989589
1.00202 0.999954 0.996346
1.00197 0.999943 0.996386
1.00334 0.999612 0.989798
1.00363 0.999961 0.989918
1.0053 0.997445 0.98926
1.00367 1.00039 0.988522
1.00532 0.997827 0.988803
1.00333 0.999554 0.989872
1.00532 0.997394 0.989297
1.00531 0.997547 0.989116
1.00532 0.994952 0.991884
1.00537 0.998245 0.988216
1.00532 0.994952 0.991682
1.00199 0.99995 0.996379
1.0014 1.00018 0.993638
1.00352 0.999507 0.989457
1.00385 0.999959 0.990121
1.00219 1.00194 0.996013
1.00458 1.00201 0.987465
1.00415 1.00037 0.98927
1.00539 0.998258 0.988587
1.0053 1.00038 0.986439
1.00534 1.00244 0.984354
1.00539 0.997198 0.988713
1.00334 0.99961 0.989803
1.0035 0.999754 0.990795
1.00532 0.997311 0.98961
1.00536 0.998318 0.988625
1.00279 1.00152 0.995615
1.00395 1.00311 0.986213
1.00538 1.00378 0.982432
1.00539 0.99893 0.987849
1.0053 0.995352 0.991132
1.00537 0.998349 0.987551
1.00531 0.996403 0.989655
1.00538 0.994941 0.990765
1.00301 1.00366 0.986057
1.00374 1.00479 0.984007
1.00531 0.997482 0.989213
1.00534 0.997751 0.989347
1.00534 0.99535 0.991296
1.00531 0.994926 0.991577
1.00535 0.996022 0.990097
1.00519 0.994944 0.991539
1.00356 1.00337 0.985409
1.00533 0.994835 0.991084
1.00543 1.00459 0.981176
1.00543 0.999502 0.98606
1.00536 0.995983 0.989801
1.00539 0.994758 0.990834
1.00492 1.00523 0.98186
1.00215 1.00493 0.986952
1.0052 1.00451 0.982049
1.0038 1.0006 0.98805
1.00178 1.0018 0.996085
1.00244 1.00373 0.987079
1.00399 1.00104 0.987206
1.00535 0.999582 0.986628
1.00344 1.0036 0.985487
1.00548 1.00422 0.981326
1.00538 1.00164 0.98444
1.00559 0.998989 0.986425
1.00291 1.00378 0.986203
1.00198 1.00345 0.988234
1.0031 1.00369 0.986376
1.00539 0.998846 0.987471
1.00534 1.0005 0.985673
1.00533 0.99559 0.990487
1.00501 1.00439 0.982014
1.00547 0.997536 0.988273
1.00563 1.00169 0.984014
1.00563 0.996871 0.987931
1.00162 1.00286 0.989826
1.00297 1.00452 0.984973
1.00324 1.00377 0.985964
1.00237 1.00261 0.986758
1.00528 0.995137 0.991145
1.00539 0.996487 0.989397
1.00536 0.994874 0.990954
1.0055 1.00423 0.982251
1.00546 0.995286 0.990182
1.00555 1.00017 0.985693
1.0056 0.996242 0.988728
1.00089 1.00442 0.989582
1.00063 1.00201 0.991983
1.00043 0.9997 0.997765
1.00047 1.00046 0.997472
1.00055 1.00118 0.997126
1.00075 1.00379 0.989767
1.00098 1.00198 0.996492
1.0024 1.00387 0.987087
1.00208 1.00194 0.995922
1.00363 1.00044 0.988522
1.00345 0.999946 0.989286
1.00531 0.997842 0.988816
1.0053 0.997458 0.989271
1.00335 0.999623 0.989802
1.00203 0.999932 0.996382
1.00334 0.999554 0.989877
1.00531 0.997406 0.989304
1.0053 0.997563 0.989127
1.00533 0.994952 0.991883
1.00536 0.998254 0.988228
1.00531 0.994953 0.99169
1.00531 0.99743 0.989278
1.00533 0.994954 0.99191
1.00532 0.994956 0.991809
1.00525 0.994928 0.991746
1.00532 0.994943 0.991492
1.00523 0.994944 0.991549
1.00336 0.999608 0.989809
1.00374 0.999687 0.990527
1.00532 0.997187 0.989606
1.00535 0.998556 0.988368
1.00296 1.00146 0.995473
1.00424 1.00302 0.987147
1.00541 1.00374 0.98277
1.00539 0.998957 0.98785
1.00531 0.994976 0.991441
1.00531 0.99673 0.989326
1.00539 0.998285 0.987638
1.00537 0.994957 0.990712
1.003 1.00369 0.986001
1.00315 1.00468 0.983942
1.00531 0.997275 0.989462
1.00533 0.997657 0.989367
1.00534 0.99537 0.991266
1.00531 0.995221 0.991315
1.00349 1.00344 0.985387
1.00543 1.00451 0.981224
1.00543 0.999895 0.98573
1.00532 0.996061 0.990182
1.00519 0.994939 0.99146
1.00536 0.995737 0.990032
1.00534 0.994837 0.991043
1.00538 0.994757 0.990802
1.0048 1.005 0.981892
1.00469 1.00507 0.982407
1.00195 1.00468 0.987087
1.00534 0.995356 0.991368
1.00533 0.995469 0.991094
1.00524 0.994926 0.991836
1.00522 0.994937 0.991499
1.00523 0.994894 0.991186
1.00535 0.994901 0.991093
1.00535 1.0052 0.980953
1.00536 0.994842 0.990829
1.00555 1.00149 0.984028
1.00545 0.996921 0.988476
1.00541 0.995014 0.99059
1.00543 0.994752 0.990643
1.00184 1.00281 0.988042
1.00533 1.00479 0.981499
1.00327 1.00483 0.984301
1.00506 1.00487 0.982058
1.00536 0.998848 0.987475
1.00173 1.00371 0.988216
1.00287 1.00383 0.986326
1.00292 1.00469 0.986457
1.00534 1.00051 0.985641
1.00537 0.995531 0.990509
1.00543 1.00366 0.981918
1.00564 1.0015 0.98398
1.00545 0.997569 0.988264
1.0056 0.996645 0.988135
1.00129 1.00304 0.989857
1.00376 1.00403 0.985065
1.00294 1.004 0.985832
1.00329 1.00242 0.98688
1.0053 0.995104 0.991171
1.0054 0.996405 0.989424
1.00533 0.994872 0.990979
1.0055 1.0041 0.982067
1.00546 0.995473 0.990042
1.00556 1.00008 0.985668
1.00564 0.996291 0.988946
1.0011 1.00233 0.991112
1.00276 1.00518 0.986283
1.00349 1.00512 0.983201
1.00295 1.00261 0.987368
1.00308 1.00259 0.987712
1.00525 0.994919 0.991169
1.00544 0.994857 0.990616
1.0054 0.994854 0.99062
1.00526 1.00334 0.983284
1.00549 0.995187 0.990142
1.00529 0.999277 0.986608
1.00139 1.00492 0.988107
1.00055 1.00511 0.9892
1.00032 1.00388 0.990892
1.00046 1.00457 0.989597
1.00033 1.00118 0.994263
1.00051 1.00194 0.992673
1.00053 0.999028 0.995747
1.00036 0.999761 0.997853
1.00044 1.00031 0.997628
1.00023 1.00273 0.991797
1.00001 1.00087 0.997626
1.00116 1.0034 0.989661
1.00131 1.00197 0.996271
1.00249 1.00365 0.986971
1.00228 1.00183 0.995824
1.00535 0.998275 0.988237
1.0053 0.99758 0.989135
1.00531 0.994954 0.991698
1.00533 0.994952 0.991882
1.0053 0.997421 0.989309
1.00334 0.999544 0.989878
1.00531 0.997434 0.989277
1.00534 0.994954 0.991908
1.00532 0.994956 0.991813
1.00525 0.994926 0.991744
1.00531 0.99494 0.991512
1.00524 0.994945 0.991546
1.00534 0.994954 0.991909
1.00524 0.994932 0.991797
1.00525 0.994928 0.991693
1.00534 0.994905 0.991604
1.00522 0.994945 0.99134
1.00531 0.994925 0.991304
1.00532 0.997088 0.989706
1.00533 0.997589 0.989387
1.00534 0.995391 0.991237
1.00532 0.995534 0.991051
1.00344 1.00353 0.98538
1.00543 1.00464 0.981267
1.00541 1.00022 0.985402
1.00529 0.996102 0.990267
1.00519 0.994934 0.991381
1.00535 0.994839 0.991002
1.00536 0.995472 0.990263
1.00537 0.994761 0.990769
1.00447 1.00523 0.981928
1.00395 1.00531 0.982767
1.0017 1.00469 0.987213
1.00534 0.995163 0.991629
1.00533 0.995445 0.991101
1.00525 0.994924 0.991784
1.00522 0.994938 0.991568
1.00517 1.00517 0.981041
1.00553 1.00163 0.984094
1.00546 0.997119 0.98807
1.00524 0.994899 0.991236
1.00535 0.994897 0.991055
1.0054 0.994932 0.99061
1.00536 0.994843 0.99083
1.00543 0.994768 0.990631
1.00517 1.00489 0.981581
1.00509 1.00461 0.982142
1.00212 1.00336 0.988097
1.00349 1.00441 0.984517
1.00524 0.994931 0.991805
1.00524 0.994923 0.991686
1.00534 0.994912 0.991604
1.00536 0.994889 0.991177
1.00532 0.994896 0.990867
1.00539 0.994862 0.990892
1.00551 1.00324 0.982463
1.00539 0.994822 0.990629
1.00555 0.999277 0.985824
1.00547 0.996056 0.989088
1.00546 0.994765 0.990616
1.0054 0.994787 0.99058
1.00315 1.00265 0.986752
1.00225 1.00512 0.984789
1.00517 1.00425 0.982247
1.00509 1.00513 0.983568
1.00499 1.00433 0.98286
1.00101 1.00308 0.989896
1.00532 0.995071 0.991196
1.00335 1.00413 0.985691
1.00379 1.00382 0.985198
1.00418 1.00207 0.987004
1.00541 0.996323 0.98945
1.0053 0.99487 0.991004
1.00549 1.00392 0.981897
1.00554 0.999971 0.985645
1.00546 0.995658 0.989901
1.00567 0.996331 0.989168
1.00088 1.00245 0.991137
1.00224 1.0052 0.986181
1.00424 1.00467 0.983197
1.0031 1.00285 0.98729
1.00368 1.00191 0.986841
1.00524 0.99492 0.991175
1.00543 0.994856 0.990654
1.00539 0.994853 0.990628
1.00516 1.00349 0.983322
1.00552 0.995219 0.990048
1.00525 0.999516 0.986994
1.00191 1.0051 0.987103
1.00318 1.00517 0.985772
1.00366 1.00502 0.984144
1.00375 1.00263 0.986316
1.0047 1.00324 0.985302
1.00536 0.994867 0.990839
1.00542 0.994834 0.990458
1.0054 0.994761 0.990498
1.00508 1.00197 0.984339
1.00525 0.998054 0.987834
1.0012 1.005 0.988138
1.00118 1.00511 0.987562
0.999716 1.00512 0.989326
1 1.00506 0.991103
1.00021 1.00491 0.990536
0.999923 1.0035 0.991672
0.999995 1.00408 0.990918
1.00014 1.00061 0.995004
1.00024 1.00477 0.98961
1.0003 1.00107 0.994395
1.00035 0.998147 0.996582
1.00045 1.00199 0.993346
1.0003 0.999181 0.996972
1.00023 0.999689 0.997945
1.00039 1.00266 0.991889
1.00043 1.00221 0.991868
0.999938 1.00023 0.998041
1.00055 1.00108 0.99714
1.00156 1.00306 0.98957
1.00155 1.00223 0.996113
1.0053 0.994938 0.991531
1.00532 0.994956 0.991816
1.00524 0.994945 0.991543
1.00525 0.994924 0.991743
1.00534 0.994954 0.991906
1.00531 0.997436 0.989279
1.00534 0.994954 0.991907
1.00524 0.994932 0.991804
1.00525 0.994927 0.991691
1.00534 0.994902 0.991596
1.00522 0.994947 0.991336
1.00531 0.994921 0.991319
1.00524 0.994933 0.991821
1.00533 0.994912 0.991703
1.00532 0.994902 0.991525
1.00534 0.994891 0.991616
1.00532 0.994915 0.9911
1.0053 0.994903 0.991287
1.00534 0.994952 0.99189
1.00533 0.995419 0.991108
1.00525 0.994921 0.991732
1.00522 0.994939 0.991637
1.00504 1.00513 0.981119
1.0055 1.0019 0.984157
1.00547 0.997312 0.987668
1.00526 0.994905 0.991287
1.00534 0.994893 0.991016
1.00536 0.994844 0.99083
1.00539 0.994844 0.99063
1.00544 0.994776 0.990617
1.00507 1.005 0.981657
1.00515 1.00464 0.98222
1.00242 1.00396 0.988149
1.00379 1.00368 0.984705
1.00524 0.994931 0.991807
1.00525 0.994923 0.9917
1.00534 0.994911 0.991581
1.00535 0.994891 0.991172
1.00551 1.00347 0.982542
1.00561 0.999313 0.985634
1.00547 0.996001 0.989096
1.00533 0.994899 0.990906
1.00539 0.994856 0.990885
1.00547 0.994732 0.990625
1.00539 0.994823 0.990623
1.0054 0.994788 0.990609
1.00518 1.00454 0.982235
1.00488 1.00446 0.982935
1.00421 1.00449 0.983683
1.0027 1.00336 0.986902
1.00289 1.0052 0.984737
1.00534 0.994901 0.991665
1.00535 0.994894 0.991463
1.00538 0.994852 0.990961
1.00538 0.994847 0.990706
1.00545 1.00259 0.983534
1.00539 0.994757 0.990396
1.00553 0.998339 0.986033
1.00547 0.995587 0.989388
1.00545 0.994737 0.990505
1.00113 1.0051 0.987559
1.00388 1.00517 0.985398
1.0019 1.0048 0.986428
1.00496 1.00461 0.98309
1.005 1.00329 0.98506
1.00495 1.00365 0.983302
1.00066 1.00263 0.991158
1.0022 1.0052 0.986084
1.00522 0.994921 0.99118
1.00258 1.00281 0.98722
1.00517 1.00474 0.983186
1.00422 1.00149 0.985972
1.00541 0.994853 0.990693
1.00537 0.994851 0.990635
1.00527 1.00367 0.98336
1.00525 0.99978 0.987379
1.00556 0.995243 0.989954
1.00189 1.00512 0.987095
1.00264 1.00521 0.985768
1.00418 1.0049 0.983447
1.00386 1.00212 0.986432
1.00463 1.00213 0.985171
1.00537 0.994866 0.990833
1.00543 0.994836 0.990435
1.00541 0.994752 0.990511
1.00506 1.00218 0.984611
1.00525 0.998231 0.987633
1.00287 1.00516 0.985748
1.00124 1.00528 0.986026
1.00468 1.00328 0.984416
1.0028 1.00263 0.985119
1.00542 1.00088 0.985531
1.00539 0.994799 0.990599
1.00547 0.995458 0.989524
1.00542 0.99474 0.990005
1.0051 1.00104 0.985874
1.00512 0.999147 0.987054
1.00111 1.00497 0.988173
1.00168 1.00508 0.98734
0.99917 1.00455 0.990981
0.999423 1.00508 0.989423
0.999664 1.00503 0.990513
0.998899 1.00467 0.991553
0.998397 1.00419 0.993638
0.998678 1.00512 0.991852
0.999548 1.00483 0.991133
1.00003 1.00311 0.991821
0.999848 1.00349 0.991656
1.00001 1.00028 0.995425
0.999659 1.00417 0.990938
1.00012 1.00052 0.995072
1.00021 0.997908 0.996994
1.00028 1.0009 0.994529
1.00025 0.998329 0.996527
1 0.999271 0.998226
1.0002 1.00219 0.992437
1.0006 1.00205 0.991941
0.999761 0.999876 0.998171
1.00088 1.00171 0.991926
1.00002 1.00012 0.997972
1.00095 1.00132 0.996714
1.00523 0.994948 0.991332
1.00525 0.994927 0.99169
1.00531 0.994917 0.991335
1.00534 0.994899 0.991588
1.00524 0.994931 0.991811
1.00534 0.994954 0.991905
1.00524 0.994935 0.991828
1.00533 0.994913 0.991697
1.00532 0.994906 0.991531
1.00533 0.994888 0.991599
1.00533 0.994915 0.991094
1.00531 0.994896 0.9913
1.00533 0.994905 0.991717
1.00535 0.994886 0.991676
1.00531 0.994872 0.991574
1.00537 0.994879 0.990918
1.00524 0.994931 0.991809
1.00525 0.994922 0.991714
1.00534 0.994911 0.991557
1.00535 0.994892 0.991167
1.00554 1.00362 0.982626
1.00568 0.999341 0.985439
1.00546 0.995946 0.989102
1.00534 0.994902 0.990945
1.00538 0.99485 0.990878
1.00539 0.994824 0.990619
1.00547 0.994707 0.990634
1.00539 0.99479 0.990639
1.00515 1.00478 0.982223
1.00465 1.00465 0.98301
1.00384 1.00421 0.983808
1.00228 1.004 0.987079
1.00355 1.00522 0.984724
1.00534 0.994903 0.991651
1.00535 0.994896 0.99146
1.00538 0.994852 0.990967
1.00548 1.00258 0.983536
1.00551 0.998561 0.985964
1.00548 0.995438 0.989427
1.00538 0.994851 0.990726
1.00543 0.994718 0.990555
1.00541 0.994763 0.990415
1.00097 1.00494 0.987847
1.00468 1.00446 0.983117
1.00514 1.00395 0.982891
1.00453 1.00311 0.984889
1.00258 1.00443 0.986157
1.00309 1.005 0.985516
1.00535 0.99488 0.991606
1.00539 0.99485 0.991279
1.0054 0.994817 0.990751
1.0054 0.994798 0.990466
1.00528 1.002 0.984238
1.00539 0.994742 0.990254
1.00545 0.997994 0.987096
1.00542 0.995068 0.989597
1.00031 1.00413 0.98935
1.00197 1.00505 0.987369
1.0032 1.00465 0.986845
1.00147 1.00176 0.990463
1.0048 1.00405 0.983671
1.00494 1.00353 0.983513
1.0015 1.0052 0.987086
1.00236 1.00514 0.985752
1.00537 0.994866 0.990826
1.00403 1.0013 0.986547
1.00475 1.00474 0.982754
1.00429 1.00247 0.98503
1.00545 0.994838 0.990412
1.00543 0.994743 0.990525
1.00497 1.00233 0.984881
1.00521 0.998436 0.987433
1.00266 1.0051 0.98581
1.00281 1.00515 0.985714
1.00446 1.00339 0.984236
1.00424 1.00335 0.984657
1.00542 1.00189 0.985304
1.00539 0.994801 0.99061
1.00546 0.995257 0.989815
1.0054 0.994747 0.990307
1.00515 1.00087 0.985736
1.00508 0.999726 0.986575
1.00002 1.00487 0.988389
1.00039 1.00514 0.987772
1.00504 1.00091 0.985966
1.00503 1.00221 0.985528
1.00545 0.9948 0.990586
1.00537 0.994672 0.990447
1.00524 0.997461 0.988065
1.00517 1.00026 0.985879
1.00244 1.00509 0.98713
0.99951 1.0049 0.990605
0.996838 1.00496 0.994521
0.999176 1.00511 0.990498
0.997194 1.00507 0.991996
0.999607 1.00469 0.991051
0.997807 1.00468 0.994007
0.998831 1.00509 0.991879
0.998467 1.00212 0.996169
0.997962 1.00505 0.993226
0.998593 1.00511 0.991526
1.00005 1.00459 0.990593
1.00001 1.00331 0.991638
0.999918 1.00326 0.991782
0.999885 1.00006 0.995748
0.999668 1.00369 0.991641
0.999984 1.00026 0.995468
1.00006 0.997915 0.997228
1.00007 1.00047 0.995136
1.00016 0.998016 0.996961
1.00012 0.998523 0.996459
1.00035 1.00106 0.99335
1.00023 1.00213 0.992354
0.999923 0.998906 0.998393
1.00044 1.00156 0.991996
0.999917 1.00003 0.998104
1.00032 0.999922 0.997775
1.00535 0.994915 0.991088
1.00532 0.99491 0.991537
1.00531 0.994889 0.991313
1.00532 0.994883 0.991581
1.00533 0.994914 0.991691
1.00524 0.994938 0.991836
1.00533 0.994904 0.991717
1.00534 0.994886 0.991668
1.00532 0.994873 0.991517
1.00535 0.994878 0.990977
1.00535 0.994878 0.991693
1.00537 0.994848 0.9916
1.00535 0.994845 0.99127
1.00534 0.994905 0.991637
1.00535 0.994898 0.991456
1.00538 0.994854 0.990973
1.0055 1.00259 0.983541
1.0055 0.998781 0.9859
1.00549 0.995229 0.989464
1.00537 0.994856 0.990745
1.00542 0.99477 0.990434
1.00541 0.994698 0.99061
1.00464 1.00429 0.983147
1.00502 1.00414 0.982488
1.00359 1.00329 0.984718
1.00105 1.00485 0.988137
1.00388 1.00403 0.985859
1.00208 1.00468 0.985607
1.00536 0.994883 0.991625
1.00539 0.994851 0.991253
1.0054 0.994824 0.99077
1.00526 1.00204 0.984219
1.00542 0.997831 0.987015
1.00544 0.994933 0.989746
1.0054 0.994786 0.990436
1.00542 0.994749 0.990252
1.00022 1.00459 0.989589
1.00155 1.0051 0.987323
1.00475 1.00362 0.983455
1.00459 1.00324 0.983649
1.00242 1.00241 0.989134
1.00217 1.00451 0.987195
1.0054 0.994839 0.991506
1.00543 0.994837 0.990905
1.00539 0.994755 0.990532
1.00539 0.994759 0.990182
1.0047 1.00112 0.985993
1.00536 0.99472 0.990342
1.0048 0.997479 0.988389
1.00004 1.00443 0.990382
1.00066 1.00339 0.990627
0.999743 1.00511 0.988903
1.00151 1.0051 0.987902
1.00152 1.00465 0.989924
1.00346 1.00238 0.985867
1.00436 1.00369 0.984787
1.00351 1.00526 0.985318
1.00261 1.00515 0.985876
1.00311 1.00532 0.9854
1.0054 0.994805 0.990621
1.00528 1.00221 0.984206
1.00457 1.00345 0.98406
1.00542 1.00227 0.985089
1.00546 0.995041 0.990107
1.00539 0.994756 0.990607
1.00519 1.00068 0.9856
1.00503 1.00024 0.986094
1.00099 1.00401 0.987995
1.00116 1.00484 0.987157
1.00504 1.00102 0.985648
1.00496 1.00219 0.985383
1.00543 0.994807 0.990595
1.0054 0.994692 0.990454
1.00522 0.997367 0.988115
1.00512 1.00041 0.985914
0.999007 1.00365 0.991832
1.00549 0.994728 0.991047
1.00265 1.00347 0.988726
1.00468 1.00139 0.985686
1.00539 0.994709 0.990741
1.0052 0.996486 0.988219
1.00507 1.00081 0.986002
1.00013 1.00477 0.99024
0.997444 1.00468 0.994636
0.996312 1.00279 0.997043
0.999314 1.00464 0.990963
0.998718 1.00507 0.991899
0.996617 1.00497 0.994382
0.999891 1.00454 0.990565
0.998725 1.00509 0.991661
0.996555 1.00347 0.996488
0.998299 1.0048 0.993009
0.996623 1.00323 0.997811
0.99624 1.00502 0.995793
0.99891 1.00467 0.992583
1.00024 1.00492 0.989732
1.00025 1.00464 0.989984
0.99998 1.00328 0.991659
0.999907 1.00343 0.991616
0.999783 1.00008 0.995908
0.999783 1.00348 0.991747
0.999916 1.00006 0.995762
0.999938 0.997924 0.997477
0.999986 1.00015 0.995519
1.00008 0.997916 0.997204
1.00014 0.998118 0.996921
1.00033 1.00375 0.990663
0.999989 1.00094 0.99385
1.0002 1.00118 0.993309
1.00005 0.998734 0.998525
1.00028 1.00193 0.992274
0.999891 0.999399 0.998312
1.00007 0.999852 0.998087
1.00534 0.994876 0.991036
1.00534 0.994875 0.99146
1.00533 0.994888 0.99166
1.00533 0.994904 0.991717
1.00535 0.994875 0.991703
1.00536 0.994849 0.991582
1.00535 0.994843 0.991209
1.0054 0.994839 0.991551
1.00538 0.994789 0.991612
1.00564 0.99465 0.991524
1.00536 0.994885 0.991645
1.00539 0.994849 0.991227
1.00539 0.994828 0.990789
1.00513 1.00208 0.984204
1.00539 0.99779 0.986942
1.00547 0.994889 0.989887
1.00541 0.994774 0.990406
1.00544 0.99475 0.990248
1.00499 1.0035 0.983235
1.00413 1.00288 0.983738
1.00262 1.00417 0.987813
1.00045 1.00463 0.989829
1.00128 1.00512 0.987272
1.00124 1.00454 0.98755
1.0054 0.994834 0.9915
1.00064 1.00369 0.990349
1.00012 1.00421 0.990531
1.00543 0.994824 0.990905
1.0054 0.994768 0.990559
1.00478 1.00129 0.98573
1.00528 0.997022 0.988637
1.00533 0.994729 0.990319
1.00538 0.994751 0.990112
1.00035 1.00511 0.988972
1.00129 1.00507 0.987847
1.00404 1.00419 0.984311
1.00373 1.00509 0.98423
1.00394 1.00341 0.985491
1.0009 1.00297 0.990752
1.00548 0.994736 0.991424
1.00541 0.995092 0.99054
1.00537 0.9947 0.990527
1.00527 0.994753 0.989922
1.00356 1.00087 0.98745
1.00525 0.995715 0.990144
1.00032 1.00444 0.990075
0.999588 1.00403 0.990508
1.00019 1.00482 0.990706
1.00049 1.00488 0.989123
1.0012 1.00372 0.989993
1.00197 1.00098 0.990047
1.00247 1.00538 0.985431
1.00206 1.00242 0.989891
1.00127 1.00475 0.987616
1.00349 1.00519 0.986537
1.00541 0.994812 0.990604
1.00541 0.994711 0.990461
1.00487 1.00293 0.985239
1.00482 1.00122 0.985316
1.00521 0.997286 0.988165
1.00508 1.00057 0.98595
0.999119 1.00438 0.991774
1.0055 0.994718 0.991178
1.00184 1.00405 0.989217
1.00452 1.00133 0.985588
1.0054 0.994697 0.990802
1.0052 0.996594 0.988452
1.00503 1.00057 0.985901
0.99803 1.00447 0.994252
1.00499 0.994669 0.990274
1.00174 1.00317 0.988507
1.00425 1.00308 0.984196
1.00485 0.994895 0.991719
1.00435 1.00003 0.987072
0.998269 0.994722 0.980943
0.997265 1.00498 0.994726
0.99691 1.0028 0.997077
0.996017 1.00304 0.997993
0.999861 1.00444 0.990535
0.998373 1.00507 0.991808
0.999139 1.00455 0.9928
0.995389 1.00374 0.996828
1.0002 1.00456 0.990016
0.999746 1.00501 0.990254
0.99626 1.00221 0.99862
0.99822 1.00492 0.992531
0.996656 1.00476 0.995364
0.994875 1.00518 0.99796
0.998034 1.00507 0.993324
0.998691 1.00474 0.992429
1.00012 1.00467 0.990292
0.999932 1.00479 0.989913
0.999752 1.00431 0.99153
0.999972 1.0042 0.990535
0.999893 1.00317 0.991818
0.999934 1.00335 0.991648
0.999673 1.00002 0.99535
0.999923 1.00332 0.991599
0.999777 1.00006 0.995544
0.999961 0.997853 0.998959
0.999908 1.00005 0.995785
0.99996 0.997855 0.997458
1.0001 0.99792 0.997171
1 1.00324 0.991575
1.00054 1.00348 0.99073
1.00013 1.00022 0.99445
1.00014 1.00083 0.994315
0.999981 0.998282 0.998687
1.00005 1.00157 0.993267
0.999973 0.998555 0.99851
0.999917 0.999805 0.998164
1.00536 0.994843 0.991149
1.00536 0.99485 0.991564
1.00535 0.994871 0.991714
1.00539 0.994837 0.991554
1.0054 0.994793 0.991543
1.00566 0.994665 0.991512
1.00554 0.99475 0.991563
1.0001 0.994659 0.979596
1.00547 0.994618 0.989627
1.00027 1.00407 0.990362
1.0054 0.994831 0.991495
1.00543 0.994818 0.990904
1.00542 0.994783 0.990586
1.00492 1.00144 0.985455
1.00531 0.99613 0.988868
1.0053 0.994729 0.990282
1.00536 0.994744 0.990041
1.00431 1.00432 0.983907
1.00438 1.00488 0.983229
1.00354 1.00285 0.985102
1.0009 1.00329 0.99032
1.0007 1.0024 0.991555
1.00109 1.00511 0.989014
1.00087 1.00507 0.987791
1.00011 1.00449 0.990433
1.00547 0.994759 0.991436
1.00056 1.00418 0.989979
1.00032 1.00423 0.990501
0.999547 1.00459 0.991202
1.0054 0.994898 0.990567
1.00537 0.994698 0.990486
1.00366 1.00186 0.987484
1.00495 0.99546 0.990175
1.00529 0.99474 0.989946
1.00037 1.00491 0.989152
1.00127 1.00357 0.990331
1.00305 1.00274 0.989048
1.00288 1.00517 0.985015
1.00298 0.999966 0.990572
1.00546 0.9947 0.990957
1.00534 0.994797 0.990669
1.00524 0.994693 0.99052
1.00458 0.99738 0.98968
1.00359 1.00016 0.988879
0.999471 1.00341 0.992785
0.999558 1.0051 0.989941
0.998545 1.00352 0.993316
1.00057 1.00261 0.992653
1.0008 0.999678 0.994119
1.00032 1.00144 0.991963
1.00159 1.00107 0.992279
1.00112 1.00362 0.991671
1.00018 1.00426 0.989707
1.00552 0.994701 0.991301
1.00541 0.994688 0.990848
1.00519 0.996706 0.988688
1.00435 1.00143 0.985492
1.00498 1.00032 0.985807
0.998116 1.00487 0.995152
1.00448 0.994658 0.99036
1.00219 1.00304 0.988234
1.00456 1.00284 0.984143
1.00465 0.994865 0.991833
1.00449 0.999944 0.987115
0.99818 0.994669 0.979127
0.997453 1.00507 0.994313
1.00297 0.994563 0.990699
1.00244 1.0043 0.985945
1.00398 1.00164 0.986348
1.00348 0.996914 0.993338
0.999659 0.994875 0.933381
0.994819 0.994664 0.955826
0.997248 0.994573 0.983633
0.994802 0.997898 0.840591
0.994797 1.00068 0.801768
0.997798 1.00313 0.997118
0.996464 1.00294 0.998047
0.995082 1.00522 0.998463
1.00024 1.00455 0.990057
0.999511 1.00506 0.990777
0.998157 1.00501 0.992466
0.996953 1.00473 0.994925
0.995765 1.00166 0.999398
0.998562 1.00459 0.992819
1.00022 1.00465 0.989876
1.00009 1.00486 0.990111
0.995226 1.00489 0.997831
0.997627 1.00495 0.993805
0.997633 1.00483 0.994325
0.995917 1.00521 0.996355
0.998183 1.00494 0.993209
0.999632 1.00495 0.990319
1.00013 1.00463 0.989817
0.998916 1.00444 0.991703
0.997054 1.00462 0.994886
0.998182 1.00484 0.992712
0.999368 1.00442 0.991975
0.999856 1.00396 0.991182
0.9998 1.00422 0.990448
0.999951 1.00299 0.992022
0.999974 1.00314 0.991842
0.999653 0.999905 0.995501
0.999866 1.00349 0.991634
0.999661 1.00003 0.995359
0.99993 0.997818 0.999002
0.999758 1.00007 0.99519
0.999902 0.997856 0.998258
1.00003 0.997794 0.997436
0.9999 1.00265 0.992429
1.00012 1.0031 0.991612
1.00004 0.999815 0.995043
1.00071 1.00316 0.990794
1.00009 1.0003 0.994876
1.00001 0.997955 0.998821
1.00032 1.0005 0.993763
1.00002 0.998506 0.998611
0.999931 0.998865 0.998498
1.00541 0.994795 0.991473
1.00539 0.994836 0.991556
1.0057 0.99468 0.991524
0.998995 0.994678 0.979246
1.00555 0.994738 0.991563
1.0055 0.994656 0.989697
1.00549 0.994628 0.991296
0.994835 0.994766 0.959502
1.005 0.994672 0.974627
1.0003 1.00387 0.990633
1.00045 1.00395 0.99038
0.998723 1.00366 0.993167
1.00072 1.00425 0.989741
1.00546 0.99478 0.991448
1.00538 0.994807 0.990596
1.00536 0.994699 0.990446
1.0038 1.00177 0.987527
1.00512 0.995623 0.990242
1.0053 0.994739 0.989991
1.00276 1.00224 0.988132
1.00396 1.00527 0.984597
1.00287 0.99832 0.991145
1.0004 1.00487 0.990506
1.00039 1.00282 0.99072
1.0003 1.00511 0.989182
1.00073 1.00394 0.989874
0.998801 1.00496 0.991803
1.00549 0.994723 0.99094
0.999217 1.00378 0.992192
0.999889 1.00486 0.990076
0.99644 1.00478 0.995423
1.00534 0.994813 0.990658
1.00523 0.994695 0.990504
1.00396 0.998777 0.989075
1.00442 0.997394 0.989754
1.00089 1.00231 0.991931
0.999528 1.00045 0.993612
1.00117 1.00126 0.992269
1.00206 1.00141 0.990888
1.00368 0.996714 0.989585
1.00518 0.994572 0.991087
1.00391 0.998873 0.989735
1.00443 0.998572 0.989688
0.996139 1.00446 0.996447
1.00062 1.0026 0.991168
0.997422 0.998876 1.00075
0.998093 1.00488 0.992802
0.999336 0.997443 0.915427
0.99821 1.00471 0.996087
1.00202 1.00333 0.987953
1.0038 0.99468 0.990489
1.00442 0.994834 0.991934
1.00453 0.999788 0.987133
1.00476 1.0026 0.984083
0.997914 0.994632 0.97688
0.998014 1.00438 0.994563
1.00261 0.994589 0.99069
1.0027 1.00428 0.985945
1.00419 1.00146 0.986541
1.00328 0.997179 0.993264
0.998109 0.994996 0.918736
0.994979 0.994696 0.952373
0.996897 0.994613 0.984049
0.996057 0.997451 0.848659
0.994831 1.00047 0.800289
0.997946 1.00451 0.993736
0.997375 0.995426 0.852878
0.994883 0.999928 0.799962
1.00136 0.99472 0.994561
1.00178 1.00327 0.989128
1.00163 1.00035 0.992929
0.995329 0.99526 0.987102
0.997403 0.994645 0.929268
0.995063 0.994692 0.945952
0.99474 0.998992 0.851646
0.994831 0.996293 0.778262
0.996915 1.00262 0.998111
0.994973 1.00526 0.99831
0.995142 1.00511 0.999502
1.00049 1.00433 0.989831
0.999911 1.00502 0.989926
0.997789 1.00476 0.993216
0.997285 1.00497 0.99428
0.995554 1.00444 0.997704
1.0002 1.00469 0.989772
0.997432 1.0047 0.994596
0.998143 1.00495 0.99274
0.999974 1.00488 0.990227
0.995719 1.00518 0.996711
0.996183 1.00518 0.99596
0.995015 1.0051 0.99775
0.998555 1.0051 0.991877
1.00018 1.00471 0.989896
0.999701 1.00403 0.991602
0.997063 1.00435 0.995281
0.997443 1.00353 0.995077
0.997778 1.00417 0.994723
0.995436 1.00497 0.997893
0.998356 1.00216 0.994796
0.996829 1.00512 0.993597
0.998339 1.00492 0.992689
0.998932 1.00458 0.991198
0.999016 1.00446 0.992422
0.999836 1.00429 0.991122
1.00007 1.00304 0.991921
1.00002 1.00435 0.990353
0.999955 1.00294 0.99206
0.999868 0.999785 0.996083
0.999761 1.00342 0.991866
0.99974 0.999841 0.995796
0.999917 0.9977 0.997754
0.999666 1 0.995358
0.999921 0.99783 0.999015
0.999899 0.997914 0.997549
1.00049 1.00427 0.990145
0.9998 1.00253 0.99265
0.999956 1.00257 0.992413
0.999967 0.999443 0.995491
1.0002 1.0031 0.991651
1.00006 0.999806 0.995015
1.00001 0.997688 0.998941
1.00006 1.00049 0.995203
0.999978 0.998058 0.997945
0.999979 0.99837 0.996774
0.998188 0.994674 0.978872
1.00555 0.994733 0.991563
1.00551 0.99461 0.989753
0.995909 0.994785 0.95919
1.00481 0.994628 0.974538
1.00549 0.994604 0.99142
1.00448 0.994496 0.983957
0.99976 0.994722 0.955784
0.997433 0.99538 0.931642
0.996044 0.996034 0.866414
0.994903 1.00166 0.801702
0.99936 1.0041 0.991486
1.00026 1.00393 0.990711
1.00072 1.00381 0.9904
0.998759 1.00378 0.993125
0.997536 1.00455 0.9945
1.00009 1.00474 0.990483
1.00021 1.00509 0.989275
1.0004 1.00441 0.989927
1.00551 0.994743 0.990921
1.00535 0.994722 0.990645
1.00522 0.994691 0.990485
1.00427 0.998662 0.989259
1.00437 0.997344 0.989814
1.00099 1.0014 0.992248
1.00425 1.00043 0.989837
1.00098 1.00126 0.993091
1.00034 1.00419 0.990157
1.00124 1.00224 0.991138
0.998923 1.00462 0.991609
0.995013 1.00513 0.997208
1.0042 0.995609 0.990035
0.996279 1.00473 0.996144
1.00009 1.0023 0.992715
1.00491 0.994593 0.991058
1.0039 0.999113 0.98956
1.00383 0.998859 0.989769
0.998335 0.999851 0.997941
0.999368 1.00343 0.993137
1.00232 0.996301 0.988022
1.00265 0.999366 0.990827
1.00378 1.00088 0.989489
1.00187 0.999021 0.993139
0.997879 1.00489 0.993989
0.996118 1.00232 0.997819
0.997463 1.00285 0.996502
0.999817 0.999939 0.844738
1.00063 0.994883 0.932142
0.998973 1.003 0.994814
1.00317 1.00411 0.985959
1.00222 0.994613 0.990677
1.00314 0.997255 0.993215
1.00424 1.00118 0.986769
0.999963 0.994841 0.930366
0.995356 0.994699 0.951758
0.996567 0.994658 0.984737
0.994784 0.99867 0.866217
0.994853 0.999645 0.798416
0.99849 1.00418 0.993813
0.999155 0.996902 0.85008
0.994827 0.998347 0.794416
1.00083 0.99481 0.994388
1.00157 1.00335 0.989158
1.00165 1.00024 0.993994
0.995896 0.996193 0.988276
0.995103 0.994644 0.922346
0.995253 0.994685 0.947809
0.994799 0.998869 0.857715
0.994855 0.996993 0.775203
0.996835 1.00517 0.996821
0.994805 0.995211 0.788148
0.994743 0.994732 0.765844
0.997174 1.00009 0.996821
0.999067 1.00274 0.997348
0.9949 0.997779 0.98623
0.995161 0.994755 0.953739
0.994894 0.994547 0.909628
0.994826 0.997384 0.861867
0.994898 0.994905 0.79547
0.995209 1.00526 0.998177
0.995044 1.00485 0.999664
0.994863 1.00525 0.999417
1.00031 1.00465 0.989722
1.00025 1.00498 0.990136
0.998302 1.00501 0.992269
0.997254 1.0042 0.994866
0.995605 1.00516 0.997075
1.00028 1.00494 0.989803
0.996446 1.00507 0.99551
0.998784 1.00511 0.991903
0.995095 1.00507 0.997851
0.994913 1.00516 0.998361
0.996268 1.0051 0.995615
0.999941 1.00495 0.991627
1.00029 1.00357 0.991502
0.997043 1.00396 0.995669
0.997963 1.00313 0.995106
0.997949 1.00353 0.994646
0.995611 1.00507 0.996708
0.999013 1.00179 0.995038
0.995411 1.00468 0.996478
0.997025 1.00303 0.998099
0.999878 1.0044 0.991077
1.00515 1.00166 0.986875
0.997428 1.0044 0.991989
0.998289 1.0026 0.994847
0.998545 1.00522 0.991262
0.997862 1.00517 0.993712
0.999481 1.00456 0.990493
0.999029 1.00511 0.992662
0.999407 1.00444 0.991297
0.999529 1.00374 0.991574
0.999859 1.00456 0.991056
0.999932 1.00302 0.991954
0.99997 0.999847 0.995823
1.00008 1.00271 0.992095
0.999851 0.999768 0.995723
1.00005 0.997465 0.997652
0.999718 0.999874 0.995484
0.999968 0.997636 0.999049
0.999919 0.997769 0.999031
1.00068 1.0047 0.98973
0.999852 1.00289 0.99229
1.0005 1.00414 0.990139
0.999981 0.999314 0.995635
0.999987 1.00232 0.992635
1.00011 1.00237 0.992398
0.999993 0.999454 0.995477
0.999995 0.997444 0.999036
1.00007 0.999877 0.995729
1.00002 0.997737 0.998133
1.00001 0.998046 0.997209
0.999361 0.999518 0.834816
0.994844 0.996922 0.782908
0.99521 0.994808 0.960174
1.00467 0.994593 0.974732
1.00552 0.994623 0.991527
1.00291 0.994728 0.952656
1.00336 0.994579 0.984786
0.999363 0.99512 0.927397
0.994768 0.996967 0.845751
0.994887 1.00079 0.800714
0.999127 0.99467 0.966382
0.994844 0.99465 0.932645
0.994718 0.999715 0.852893
0.995209 0.997884 0.791918
1.00005 1.0043 0.991986
1.00006 1.0039 0.991077
1.0002 1.00386 0.990801
0.9988 1.00346 0.993098
0.996997 1.00392 0.995522
1.0004 1.00501 0.98955
0.999295 1.0049 0.99105
1.00115 1.00513 0.987934
1.00037 1.00507 0.989271
0.99949 1.00509 0.990124
1.00457 0.994743 0.990453
1.00477 0.994617 0.991025
1.00368 0.999378 0.989379
1.00298 0.999127 0.989852
0.999973 1.00315 0.993431
0.999012 1.00111 0.995215
0.999053 1.00239 0.994497
0.996373 1.00471 0.99584
1.00209 0.995583 0.988751
0.997718 1.00494 0.993665
0.996069 1.00264 0.998543
1.00249 0.999075 0.990991
1.00367 1.00197 0.987814
1.00105 0.999546 0.993676
0.997673 1.00332 0.996114
0.999217 0.994567 0.986576
1.00119 1.00156 0.992696
0.996968 1.00393 0.996101
0.99878 1.0048 0.992949
0.996102 1.00507 0.995614
0.994908 1.00508 0.998468
0.994816 0.994744 0.795488
0.999674 0.995713 0.856184
0.999792 0.997435 0.915814
0.998596 1.00403 0.993866
1.00171 1.00361 0.98913
1.00026 0.994933 0.99419
1.00144 0.99987 0.995072
0.998967 1.00024 0.864486
0.994924 0.99466 0.91679
0.99493 0.994628 0.94615
0.99633 0.997261 0.989206
0.994806 0.998927 0.840979
0.994766 0.996767 0.800244
0.995139 0.997385 0.78981
0.996928 1.00499 0.996494
0.994827 0.996147 0.792464
0.994766 0.994757 0.765812
0.997708 0.998513 0.997488
0.9987 1.00272 0.997197
0.994968 0.996729 0.987888
0.995406 0.994751 0.949332
0.995348 0.994563 0.92319
0.994816 0.996948 0.84119
0.995313 0.994892 0.803462
0.99572 1.00501 1.00074
0.994716 0.994754 0.772979
0.994815 0.994838 0.774627
0.994818 1.00193 1.00075
0.994881 0.996637 0.962542
0.994798 0.99474 0.92216
0.995159 0.994889 0.848487
0.995409 0.994908 0.826888
0.994906 1.00468 0.999804
0.994838 1.00523 0.999669
0.994787 1.00525 1.00015
1.00009 1.00504 0.989714
0.999065 1.00512 0.991929
0.996742 1.00496 0.995061
0.995125 1.00504 0.997953
0.999128 1.00493 0.991584
0.996437 1.00508 0.995504
0.99489 1.00515 0.998406
0.994792 1.00521 0.998963
0.995531 1.0051 0.997941
0.997525 1.00509 0.994341
0.998507 1.00282 0.995126
0.997735 1.00314 0.994597
0.996047 1.00514 0.995604
0.995865 1.00419 0.996654
0.999149 1.00122 0.994882
0.996065 1.00305 0.998175
1.00008 1.00258 0.994735
0.995129 1.00517 0.998617
1.00212 1.0004 0.991739
0.999807 1.00373 0.992078
1.00199 1.00303 0.987911
1.00502 1.00186 0.985242
1.0046 1.00153 0.987268
1.00453 1.00125 0.987027
0.999109 1.00407 0.991929
0.998941 1.0052 0.988981
0.998322 1.00301 0.994906
0.999205 1.00504 0.991352
1.00143 1.00468 0.988321
0.998435 1.00487 0.99382
0.99967 1.00476 0.990551
0.999958 1.00411 0.990493
1.00034 1.00434 0.991395
1.00012 1.00341 0.991582
1.00026 1.00022 0.995149
0.999939 1.00304 0.991994
0.999965 0.999977 0.995307
1.00016 0.997606 0.997407
0.999857 0.999715 0.995414
1.00004 0.997506 0.998356
0.999986 0.997598 0.999043
1.00055 1.00505 0.988615
1.00001 1.00333 0.99167
1.00034 1.00478 0.989551
0.999987 0.999515 0.995421
0.99983 1.00287 0.992314
1.00028 1.00413 0.990126
1.00001 0.997421 0.999043
0.999964 0.999336 0.995635
0.999931 1.00244 0.992627
1.00002 0.999429 0.995466
1 0.997517 0.99901
1.00002 0.997752 0.99889
0.994774 0.994879 0.778721
0.998629 0.997012 0.849362
0.99483 0.994778 0.771726
0.994859 0.997372 0.785161
0.999562 0.99533 0.954458
1.00205 0.994639 0.985669
0.998677 0.994721 0.922165
0.994747 0.997599 0.864562
0.994875 0.999076 0.800036
0.998565 0.994723 0.96495
0.996034 0.994618 0.915883
0.994758 0.998915 0.858961
0.99486 0.997322 0.78501
0.994899 0.994727 0.958359
0.994806 0.994615 0.906573
0.994857 0.996893 0.835773
0.994867 0.994897 0.803104
1.00015 1.00466 0.990565
0.998815 1.00438 0.99213
1.00001 1.00406 0.990666
0.996258 1.00352 0.996484
1.0008 1.00496 0.988626
1.00025 1.00491 0.989738
0.998774 1.00485 0.99161
1.0018 1.00512 0.987436
1.00137 1.00511 0.987961
1.00056 1.00478 0.989261
1.00255 0.99463 0.989368
1.00219 0.998885 0.991168
1.00361 1.00321 0.986156
1.00054 0.999749 0.994225
0.998222 1.00505 0.995708
0.996758 1.00134 0.999281
0.99844 1.00491 0.993299
0.999052 1.00384 0.992962
0.999503 0.995864 0.987273
0.99716 1.00514 0.995163
0.996216 1.00335 0.998512
1.00075 1.00111 0.992575
0.997255 1.00376 0.99622
0.996916 0.997678 0.985699
0.996999 1.00289 0.997497
0.994716 1.0055 0.998412
0.996225 1.00483 0.99658
0.994873 1.00514 0.998005
0.994726 0.994742 0.777149
0.994831 0.994696 0.790145
0.99975 1.0013 0.834818
0.996963 1.00469 0.996228
0.998812 1.00293 0.997075
0.998572 0.99753 0.998112
0.994831 0.995209 0.786524
0.994812 0.994569 0.906859
0.99495 0.994737 0.950759
0.995144 0.995417 0.989983
0.994792 0.99707 0.858064
0.994817 0.994785 0.766513
0.996305 0.994881 0.805608
0.996065 1.00509 1.00054
0.994732 0.994783 0.772495
0.994799 0.994836 0.775743
0.994993 1.00248 0.999286
0.994869 0.995625 0.964203
0.995562 0.994755 0.906609
0.995813 0.994901 0.82117
0.995583 0.995219 0.858047
0.994791 1.00503 1.00205
0.994758 0.994828 0.760509
0.994865 0.994844 0.796058
0.994863 0.994888 0.802446
0.994774 1.00044 0.987081
0.994823 0.995643 0.929251
0.997106 0.994881 0.873876
0.994839 1.00519 0.999922
0.995037 1.00497 0.999912
0.994813 1.00499 0.999561
0.998436 1.00501 0.991558
0.996709 1.00505 0.995394
0.994861 1.005 0.998462
0.996871 1.00509 0.994514
0.995367 1.00456 0.998066
0.994785 1.00509 0.99887
0.994765 1.0051 0.999643
0.995234 1.0051 0.998143
0.996083 1.00365 0.996874
0.999302 1.00061 0.99471
0.995126 1.00298 0.998133
0.995019 1.00489 0.998488
0.998486 1.00179 0.995058
1.00044 1.00112 0.995
0.999687 1.00141 0.995022
1.00347 1.00155 0.987468
0.999466 1.00299 0.993047
1.00245 1.00275 0.987994
1.00484 1.00303 0.98439
1.00508 1.00194 0.984865
1.00502 1.00125 0.985746
1.0048 1.00182 0.985257
1.00333 1.00403 0.986695
1.00327 1.00256 0.987322
1.00388 1.00112 0.987176
1.0009 1.00367 0.991858
1.00047 1.0052 0.988291
1.00267 1.00521 0.985755
0.999716 1.00516 0.991443
1.00134 1.00514 0.988241
1.00102 1.00486 0.987961
1.0004 1.005 0.990591
1.00037 1.00377 0.990436
1.00042 1.00053 0.994672
1.00037 1.00286 0.991583
1.00025 1.00025 0.994646
1.00039 0.997869 0.996778
0.99992 1.00011 0.994955
1.00015 0.997573 0.998233
1.00009 0.997475 0.998997
1.00148 1.00514 0.987278
1.00023 1.00371 0.990454
1.00087 1.00507 0.988615
1.00004 0.999874 0.994975
1.00001 1.00333 0.991437
1.00043 1.00482 0.989372
1.00002 0.997548 0.998984
0.999995 0.999477 0.995438
0.999968 1.0026 0.992335
0.999995 0.997427 0.999047
0.99995 0.999347 0.995633
1.00001 0.997517 0.998986
0.994778 0.994802 0.772572
0.994799 0.99605 0.792815
0.99956 0.995891 0.849291
1.00135 1.00513 0.987514
0.994775 0.994794 0.775335
0.994804 0.994784 0.771789
0.994867 0.999308 0.797573
0.997621 0.994653 0.965048
0.99483 0.99466 0.931034
0.99474 0.998123 0.842101
0.994844 0.996798 0.796533
0.995146 0.994711 0.955173
0.995077 0.994621 0.923047
0.994885 0.99704 0.842503
0.994946 0.995036 0.802903
0.994958 0.994703 0.94859
0.994819 0.994805 0.918855
0.996476 0.994903 0.860228
0.995086 0.994904 0.82717
0.998137 1.0042 0.993244
0.99931 1.00491 0.991086
0.998681 1.00391 0.992277
1.00163 1.00317 0.989384
1.00102 1.00508 0.988637
1.00012 1.00495 0.989925
1.00196 1.00512 0.987444
1.00151 1.00509 0.987991
0.998988 0.997104 0.987874
0.999913 1.00062 0.99239
0.997617 1.00468 0.992977
0.997268 1.00363 0.996244
0.996477 1.00338 0.998516
0.997072 1.00498 0.994749
0.996101 1.0045 0.995981
0.996606 0.999022 0.985723
0.995574 1.00505 0.997961
0.994963 1.00535 0.998425
0.996382 1.00281 0.997656
0.995005 1.00521 0.99665
0.995733 1.0033 0.983091
0.994702 1.00378 0.999312
0.994744 1.00534 0.999302
0.995033 1.00487 0.997843
0.994724 0.994797 0.758507
0.994717 0.994738 0.773531
0.994841 0.994635 0.784502
0.996007 1.00526 1.00031
0.995042 1.00164 0.99779
0.994745 0.994811 0.771984
0.99476 0.9948 0.922738
0.994861 0.995268 0.960033
0.995703 0.994902 0.857727
0.994779 0.994836 0.776649
0.994893 0.99489 0.815209
0.994852 1.00516 1.00181
0.994761 0.994824 0.761091
0.994877 0.994851 0.793352
0.994738 1.00113 0.990636
0.994879 0.994961 0.802088
0.994831 0.996716 0.923403
0.996511 0.995425 0.874746
0.994736 1.00449 0.996868
0.994832 0.994834 0.778364
0.994787 0.994812 0.777543
0.994867 0.997664 0.789945
0.996687 0.994894 0.860254
0.994801 1.00166 0.968745
0.994947 0.994894 0.916513
0.995286 1.00507 0.999724
0.994967 1.00527 0.999584
0.994692 1.00524 0.998399
0.996302 1.00511 0.994662
0.995333 1.00396 0.998193
0.994772 1.00513 0.998857
0.995326 1.00457 0.998049
0.994747 1.00514 0.999525
0.997115 1.00307 0.999594
0.994975 1.00484 0.998378
0.996927 1.00097 0.995464
0.999155 1.00115 0.995765
1.00129 1.00005 0.991541
0.996698 1.00237 0.997813
1.00271 1.00119 0.988428
1.00467 1.00444 0.982365
1.00462 1.00261 0.984678
1.00312 1.00246 0.987956
1.00493 1.00311 0.983733
1.00514 1.00188 0.98483
1.00515 1.00253 0.98443
1.00482 1.00205 0.98482
1.00426 1.00334 0.986362
1.00392 1.00205 0.985734
1.00451 1.00171 0.985294
1.00242 1.00518 0.985585
1.00232 1.00449 0.986611
1.00187 1.00352 0.987363
1.00143 1.00519 0.98761
1.00294 1.00494 0.9857
1.0021 1.00518 0.985773
1.00099 1.00516 0.988155
1.00133 1.0048 0.987951
1.00042 1.00156 0.992681
1.00123 1.00363 0.990425
1.00058 1.0004 0.99367
1.00016 0.998001 0.998597
1.0003 1.00023 0.994278
1.00029 0.997836 0.997808
1.00019 0.997717 0.998833
1.00126 1.00518 0.98718
1.0007 1.00404 0.98935
1.00132 1.00514 0.987524
1.00015 1.00021 0.99449
1.00029 1.00376 0.990341
1.00105 1.00511 0.988611
1.00004 0.997766 0.998875
1.00006 0.999813 0.995003
0.999933 1.00337 0.991206
1.00001 0.997512 0.999004
0.999995 0.999464 0.995459
0.999987 0.99744 0.999052
0.994729 0.994801 0.766216
0.994765 0.994784 0.772951
0.994805 0.996702 0.791491
1.00158 1.00511 0.987714
1.00038 1.00514 0.987949
1.00212 1.00319 0.990206
0.994879 0.994854 0.794786
0.994801 0.994799 0.776472
0.994784 0.994781 0.772015
0.995791 0.994708 0.956127
0.994865 0.994597 0.908249
0.994879 0.997398 0.859927
0.994891 0.994887 0.797823
0.995052 0.994746 0.951514
0.995205 0.994788 0.914587
0.995987 0.994915 0.86139
0.99559 0.994899 0.821355
0.994936 0.995024 0.951199
0.994765 0.997002 0.924297
0.99686 0.99491 0.873995
0.994895 0.994908 0.798271
0.997607 1.00335 0.994941
0.998288 1.00456 0.99331
0.999199 1.00507 0.991605
1.00117 1.0039 0.989238
1.00085 1.0051 0.988653
1.00187 1.00511 0.987448
0.9962 0.999765 0.986093
0.996425 1.00302 0.997841
0.997138 1.0036 0.995404
0.995411 1.00532 0.998437
0.996522 1.0048 0.997885
0.995177 1.00528 0.996861
0.995216 1.00523 0.997684
0.99542 1.00224 0.983136
0.994691 1.0053 0.999344
0.994675 1.00481 0.997655
0.995255 1.00534 0.997937
0.994746 1.00273 0.982039
0.994744 1.00513 0.994637
0.995192 1.00431 0.998684
0.994853 0.994851 0.763415
0.994726 0.994801 0.758537
0.994705 0.994734 0.76985
0.994901 1.00525 1.00152
0.994737 1.00212 0.98592
0.994755 0.994821 0.761675
0.99481 0.996921 0.924987
0.996487 0.994885 0.861945
0.994888 0.994845 0.790694
0.994875 0.994878 0.797087
0.99472 1.00467 0.997376
0.994807 0.994838 0.776763
0.994811 0.994793 0.778865
0.994833 1.00234 0.964615
0.994843 0.997475 0.782947
0.995836 0.995153 0.860763
0.994858 0.997357 0.930053
0.994766 1.00518 0.987726
0.994748 0.994806 0.770168
0.994808 0.994771 0.77266
0.994919 1.00166 0.800183
0.994813 0.997422 0.833332
0.994805 0.994887 0.927471
0.994821 1.00173 0.95811
0.995146 1.00519 0.999489
0.994745 1.00509 0.99831
0.995113 1.00523 0.998146
0.995297 1.00411 0.997941
0.994741 1.00524 0.999239
0.996078 1.00301 0.999993
0.998507 1.00293 0.998169
0.998063 1.00091 0.996485
1.00307 0.999731 0.99065
1.00177 1.00474 0.985974
1.00212 1.00127 0.989938
1.00436 1.00421 0.982878
1.00428 1.0037 0.98356
1.00521 0.999573 0.986139
1.00514 1.00142 0.985059
1.00479 1.00259 0.98449
1.00492 1.00327 0.983083
1.00513 1.00277 0.984258
1.00517 1.00155 0.984935
1.00526 1.00235 0.984552
1.00494 1.00293 0.984417
1.00463 1.00197 0.984773
1.00244 1.00329 0.987545
1.00344 1.00244 0.986203
1.0036 1.0029 0.985695
1.0027 1.00527 0.984954
1.0027 1.0052 0.98559
1.0011 1.00454 0.986539
1.00267 1.00506 0.985671
1.00271 1.00519 0.985775
1.0008 1.00258 0.991062
1.00225 1.00464 0.987904
1.00062 1.0014 0.992581
1.0003 0.998451 0.998434
1.00083 1.00012 0.993619
1.00038 0.99803 0.997617
1.00032 0.997764 0.998647
1.00243 1.00513 0.986746
1.00122 1.00459 0.988593
1.00175 1.00516 0.98714
1.00023 1.00063 0.99394
1.00068 1.00413 0.989517
1.00135 1.00515 0.987778
1.00007 0.997892 0.998769
1.00015 1.00015 0.994503
1.0005 1.00374 0.990229
1.00003 0.997699 0.998909
1.00008 0.99974 0.995028
1 0.997491 0.999025
0.994838 0.994841 0.775164
0.994742 0.994816 0.766816
0.994776 0.99476 0.772866
1.00095 1.00527 0.987089
1.00331 1.00215 0.991001
1.00105 1.00498 0.987922
1.00094 1.00503 0.987847
1.00067 1.00181 0.991138
1.00146 1.00238 0.99131
0.998796 1.00091 0.995384
0.99483 0.994839 0.777567
0.994874 0.994853 0.791848
0.99483 0.994816 0.777431
0.994889 0.994894 0.815218
0.995125 0.994736 0.948407
0.994839 0.994827 0.91067
0.996151 0.995367 0.870918
0.99544 0.994855 0.949367
0.994809 0.996877 0.910362
0.996275 0.995034 0.873374
0.995201 0.994896 0.805927
0.994827 0.996222 0.953661
0.99529 0.998593 0.911834
0.995249 0.994908 0.849124
0.99485 0.99692 0.781608
0.995172 1.0054 0.997069
0.996865 1.00382 0.9957
0.997978 1.00453 0.993384
1.00048 1.00487 0.989081
0.995449 1.00186 0.983066
0.994637 1.00521 0.996151
0.995292 1.00534 0.997112
0.995661 1.00525 0.997761
0.994726 1.00529 0.999614
0.995333 1.00535 0.997922
0.995458 1.00428 0.999188
0.994759 1.00234 0.979061
0.994734 1.00522 0.994527
0.995709 1.00351 0.999693
0.996112 1.00059 0.973813
0.995314 1.00462 0.997127
0.994726 0.99482 0.762843
0.99483 0.994855 0.771093
0.994731 0.994821 0.758569
0.994636 1.00529 0.99789
0.99483 1.00173 0.969637
0.994785 0.994838 0.775104
0.994936 0.994884 0.917419
0.995757 0.995134 0.870788
0.994805 0.994811 0.779881
0.994819 0.997396 0.794401
0.99473 1.00503 0.989037
0.994734 0.994818 0.770904
0.994801 0.994811 0.772757
0.994825 1.00195 0.958774
0.994901 1.0006 0.799174
0.994812 0.997349 0.84027
0.994837 0.994913 0.913606
0.995371 1.00391 0.982183
0.994809 0.994824 0.774489
0.994857 0.996645 0.782398
0.994748 0.999754 0.851495
0.994818 0.995018 0.921779
0.994834 0.998828 0.95396
0.994724 1.00509 0.999196
0.994978 1.00519 0.998207
0.994989 1.0053 0.997802
0.994857 1.00273 1.0004
0.996848 1.00286 0.998695
1.00056 1.00204 0.994064
1.00481 0.999358 0.989772
1.00294 1.00505 0.985289
1.00432 1.00128 0.986354
1.00416 1.00416 0.983388
1.00441 1.00344 0.983636
1.00509 1.00093 0.985496
1.00544 0.996688 0.988382
1.00537 0.998952 0.986895
1.00522 0.999752 0.986159
1.00514 1.0017 0.985368
1.00516 1.00115 0.985111
1.00502 1.00255 0.9843
1.00531 1.00404 0.982895
1.00515 1.0028 0.984393
1.00529 1.00144 0.985045
1.00429 1.00216 0.987009
1.00426 1.00315 0.985042
1.00412 1.00355 0.984402
1.00373 1.00398 0.98546
1.00277 1.00305 0.987491
1.00318 1.0024 0.98604
1.00145 1.00258 0.989777
1.00313 1.00523 0.985086
1.00309 1.00517 0.985597
1.00286 1.00517 0.985775
1.00087 1.00239 0.991068
1.00031 0.999333 0.998055
1.00066 1.00138 0.992505
1.00032 0.998578 0.998321
1.00038 0.997844 0.998526
1.00348 1.00487 0.986966
1.00348 1.00516 0.985952
1.00169 1.005 0.987526
1.00225 1.00485 0.986746
1.00012 1.00151 0.993269
1.00115 1.00474 0.988573
1.00184 1.00518 0.987095
1.00009 0.998266 0.998629
1.00018 1.0007 0.993959
1.00073 1.00434 0.989677
1.00006 0.997938 0.998798
1.00015 1.00017 0.994523
1.00002 0.99764 0.998944
0.994774 0.994842 0.763138
0.99482 0.994831 0.773663
0.994742 0.994818 0.767471
1.0019 1.00522 0.986615
0.999995 1.00242 0.991736
1.00309 1.00265 0.98793
0.998354 1.00497 0.991118
1.00235 0.9981 0.993186
1.0011 1.0051 0.987709
0.999802 1.00262 0.992236
1.00087 1.00271 0.991297
0.998765 0.99956 0.997908
0.999343 1.00151 0.996133
0.994779 0.994753 0.770445
0.994815 0.994841 0.778782
0.994863 0.994841 0.789125
0.995812 0.994879 0.808351
0.996405 0.994914 0.861903
0.995184 0.994862 0.947639
0.994738 0.997056 0.923371
0.99486 0.997258 0.947791
0.994869 0.998127 0.924046
0.995347 0.995031 0.8586
0.994868 0.997369 0.77859
0.994896 1.0001 0.948858
0.994914 0.995789 0.923404
0.994856 0.997384 0.863208
0.994822 1.00166 0.804238
0.998286 1.00059 0.998219
0.99539 1.00505 0.997365
0.997171 1.00359 0.996478
0.994787 1.00183 0.975407
0.994763 1.00524 0.993428
0.995326 1.00535 0.997804
0.994871 1.00411 0.999442
0.995549 1.00403 0.999664
0.994904 1.00403 0.997781
0.994835 1.00216 0.974693
0.994977 1.00221 1.00341
0.994766 1.00147 0.981655
0.994752 0.994757 0.780892
0.994741 0.994833 0.7625
0.994812 0.994849 0.779308
0.99476 1.00472 0.989115
0.994841 0.999432 0.956044
0.994741 0.994821 0.771604
0.994819 0.994898 0.924834
0.994803 0.997474 0.8572
0.994835 0.994807 0.77312
0.994906 0.998957 0.798559
0.995048 1.00405 0.983161
0.994816 0.994802 0.774356
0.994874 0.997661 0.784579
0.99485 0.998146 0.955619
0.99477 0.999026 0.858041
0.995219 0.994818 0.911009
0.994816 1.00257 0.981016
0.994785 0.995251 0.778057
0.995447 0.996328 0.866447
0.994803 0.994596 0.906037
0.994933 0.995111 0.954118
0.994843 1.0053 0.998306
0.994901 1.00529 0.997615
0.997731 1.00001 0.997299
0.995371 1.00283 0.999204
0.999513 1.00212 0.994914
1.00411 0.996258 0.993279
1.00407 1.00517 0.984584
1.00414 1.00124 0.986282
1.00505 0.99666 0.989356
1.00447 1.00335 0.983717
1.00503 1.0006 0.985518
1.00532 0.997102 0.988393
1.00546 0.994768 0.990451
1.00551 0.996109 0.988564
1.00544 0.996619 0.988413
1.0055 0.998615 0.987231
1.00537 0.998998 0.98683
1.00521 0.999873 0.98618
1.00534 1.00192 0.984595
1.00511 1.00137 0.98522
1.00513 1.00084 0.985165
1.00527 1.00484 0.983304
1.00449 1.00388 0.983429
1.0051 1.00248 0.98453
1.00271 1.0045 0.986392
1.00311 1.00279 0.98692
1.00283 1.00333 0.985545
1.00244 1.00357 0.989532
1.00305 1.0041 0.985622
1.0027 1.0029 0.987427
1.00062 1.0005 0.994187
1.00179 1.00289 0.990095
1.00313 1.00523 0.985232
1.00115 1.00228 0.991041
1.00045 0.999529 0.997902
1.00038 0.998889 0.998197
1.00251 1.00351 0.986301
1.00323 1.00509 0.985861
1.00117 1.00489 0.987365
1.00171 1.00515 0.987266
1.00233 1.00512 0.986011
1.00003 1.00197 0.992906
1.0015 1.0051 0.987533
1.00214 1.00517 0.986733
1.00009 0.998608 0.99848
1.00012 1.00133 0.99333
1.0009 1.00479 0.988553
1.00006 0.998165 0.998674
1.00015 1.00058 0.993976
1.00004 0.997879 0.998828
0.99475 0.994819 0.778392
0.994778 0.994834 0.763819
0.994794 0.994847 0.7718
1.00297 1.00532 0.984293
1.0015 1.00523 0.986226
0.998977 1.00264 0.992687
1.0003 1.0051 0.990374
1.0038 1.00132 0.987626
1.00146 0.997639 0.995701
1.00375 1.0008 0.988806
0.995395 1.00528 0.994845
0.999828 1.00308 0.991167
0.99772 0.996857 1.00019
0.997246 1.00276 0.996226
0.997433 1.00319 0.996077
0.994894 0.999925 0.801547
0.994791 0.994774 0.770306
0.994799 0.994846 0.779675
0.995238 0.997397 0.792905
0.995456 0.994897 0.857688
0.995252 0.998594 0.912185
0.995077 0.995883 0.948638
0.995475 0.999068 0.950266
0.994857 1.00064 0.802936
0.994832 0.997008 0.914695
0.994842 0.997228 0.842693
0.994839 0.996918 0.957389
0.994779 0.994795 0.924492
0.994739 0.998626 0.853326
0.998831 0.997491 1.0024
0.997837 1.00076 0.998195
0.995088 1.00538 0.997647
0.994771 1.00252 0.975329
0.994719 1.00309 0.998414
0.995516 1.00345 0.999734
0.995516 1.00032 1.00374
0.995002 1.00023 0.981917
0.995551 0.996179 0.995396
0.994796 0.994704 0.792083
0.994745 0.994778 0.779373
0.994769 0.994822 0.761767
0.994769 1.00467 0.983086
0.994841 0.99979 0.955327
0.994803 0.994798 0.774473
0.994836 0.9948 0.909058
0.994735 0.997897 0.840971
0.994875 0.999717 0.796989
0.994823 1.0043 0.980754
0.994814 0.996567 0.792603
0.994769 0.996869 0.845385
0.995259 0.994889 0.947865
0.995125 0.994612 0.922384
0.996175 0.997846 0.986739
0.99898 0.999884 0.834334
0.994829 0.99465 0.932862
0.994963 0.994702 0.945657
0.994839 1.0053 0.997489
0.997688 1.00104 0.996826
1.00104 0.996006 0.994835
0.998387 1.00264 0.99577
1.00314 0.997017 0.993031
1.00495 0.994623 0.992386
1.00403 1.00107 0.986215
1.00505 0.996448 0.989226
1.00524 0.994972 0.990499
1.00492 1.00013 0.985539
1.00531 0.996935 0.988301
1.00542 0.994719 0.990352
1.00535 0.994752 0.991047
1.00544 0.994786 0.99054
1.00545 0.994776 0.990454
1.00554 0.995811 0.988874
1.00552 0.996055 0.988737
1.00544 0.996562 0.988446
1.00553 0.998275 0.987103
1.00549 0.998441 0.987087
1.00538 0.999065 0.986762
1.00542 1.00292 0.982694
1.00537 1.00195 0.984519
1.00519 1.00107 0.985071
1.0037 1.00377 0.984986
1.00418 1.00458 0.983371
1.00405 1.00394 0.983964
1.00264 1.00357 0.986799
1.00324 1.00364 0.986268
1.00201 1.00303 0.986819
1.00021 1.00268 0.996784
1.00235 1.00366 0.987397
1.00348 1.00343 0.985736
1.00064 1.00016 0.997483
1.00186 1.00291 0.9893
1.00056 0.999604 0.997746
1.00443 1.00503 0.983607
1.00387 1.00279 0.986246
1.00226 1.00443 0.986052
1.0021 1.00515 0.987357
1.00275 1.00493 0.985849
1.00133 1.00446 0.987742
1.00043 1.00214 0.992284
1.00167 1.00517 0.987253
1.00263 1.00441 0.986072
1.00012 0.999111 0.998416
0.999982 1.002 0.992892
1.00144 1.00521 0.98754
1.00005 0.998672 0.998526
1.0001 1.00142 0.993377
1.00003 0.998158 0.998715
0.994795 0.995407 0.78602
0.99476 0.994811 0.778465
0.994779 0.994827 0.764625
1.0029 1.00491 0.984702
1.00482 1.00301 0.986028
1.0012 1.00438 0.987224
1.00015 1.00526 0.989591
1.0046 1.00086 0.987339
0.996805 0.998829 0.997943
0.998046 1.00271 0.994514
1.00172 1.00182 0.990129
1.00081 1.00131 0.992257
0.998743 1.00234 0.994884
0.997316 1.00297 0.996341
0.998621 1.00285 0.996083
0.994813 0.999049 0.841323
0.994838 0.998857 0.796388
0.99482 0.994795 0.770903
0.994877 0.999598 0.801202
0.994816 0.997315 0.859645
0.994841 0.996047 0.91296
0.994917 1.00049 0.948427
0.995144 0.997391 0.952813
0.99481 0.998976 0.858746
0.99508 0.994777 0.909631
0.994911 0.994827 0.95914
0.994905 0.994546 0.909975
0.99823 0.996905 1.00518
0.998788 0.997621 1.00206
0.997545 1.00089 0.998143
0.995308 1.0006 0.982174
0.996125 0.999373 1.00404
0.995531 0.996527 0.994813
0.995314 0.994687 0.992117
0.999253 0.999947 0.844208
0.994824 0.994674 0.788083
0.99474 0.994805 0.777721
0.994851 1.00395 0.981314
0.995045 0.995011 0.948727
0.994823 0.996648 0.79085
0.994872 0.994591 0.908653
0.994766 0.997837 0.864259
0.996015 0.997984 0.983012
0.99863 0.996746 0.849562
0.995766 0.994612 0.916253
0.995186 0.994736 0.947664
0.997491 0.995894 0.982274
0.997422 0.994855 0.932126
0.994898 0.994724 0.956647
0.997398 1.00213 0.996386
1.0006 0.996194 0.994779
1.00347 0.995509 0.992864
1.00228 0.997334 0.99279
1.00455 0.994646 0.992284
1.00516 0.994575 0.991357
1.00508 0.996333 0.989099
1.00523 0.995087 0.990369
1.00541 0.994605 0.990446
1.00525 0.996749 0.988207
1.00544 0.994714 0.990305
1.00537 0.994738 0.990683
1.00541 0.994825 0.990713
1.00535 0.99475 0.99101
1.00538 0.994774 0.991001
1.00538 0.994817 0.990879
1.00544 0.994803 0.990672
1.00544 0.994782 0.990457
1.00551 0.995843 0.989168
1.00554 0.99577 0.988928
1.00553 0.995993 0.988909
1.00558 1.00015 0.985105
1.00555 0.998363 0.98711
1.00548 0.998298 0.986946
1.00533 1.00338 0.982133
1.00543 1.00319 0.982883
1.00541 1.00199 0.984442
1.00272 1.00412 0.986192
1.00371 1.00418 0.984873
1.00334 1.00467 0.983454
1.00148 1.0018 0.996395
1.00281 1.00373 0.986831
1.00287 1.0036 0.986163
1.00079 1.00195 0.994765
1.00261 1.00332 0.987682
1.00091 1.00089 0.997092
1.00495 1.00397 0.982529
1.0041 1.00509 0.983544
1.00346 1.00317 0.985152
1.00421 1.00255 0.98619
1.00333 1.00418 0.986159
1.00218 1.0052 0.986995
1.00143 1.00254 0.9906
1.00174 1.00515 0.987248
1.00189 1.00512 0.985847
1.00029 0.998861 0.9981
1.00037 1.00213 0.992253
1.00174 1.00518 0.987244
1.00005 0.998757 0.998422
1.0001 1.00168 0.992919
1 0.99853 0.998573
0.997377 0.995615 0.851946
0.99482 0.996101 0.79116
0.994756 0.99481 0.778684
1.00324 1.00497 0.985112
1.00179 1.00513 0.987262
1.00454 1.00232 0.985337
1.00519 0.998961 0.987634
1.00302 0.999915 0.990502
1.00081 1.00314 0.994189
1.00242 1.00044 0.991447
1.00146 1.00164 0.99246
1.00484 0.997066 0.9905
1.0018 1.00019 0.992941
1.00272 0.999033 0.992582
1.00022 1.00074 0.995072
0.999062 1.00276 0.996213
0.997393 0.994645 0.9275
0.996068 0.998068 0.848665
0.994784 0.99722 0.801637
0.994801 0.999465 0.842662
0.994781 0.994795 0.920475
0.995305 0.997752 0.956936
0.995111 0.994848 0.961583
0.995018 0.994589 0.925602
0.995535 0.994771 0.956869
0.997499 0.995145 1.00461
0.997631 0.997198 1.00531
0.99873 0.997706 1.00179
0.99532 0.996674 0.994501
0.996372 0.994868 0.993485
0.999433 0.997429 0.915489
0.999623 0.996607 0.85462
0.994847 0.994641 0.78382
0.996148 0.997372 0.978719
0.995004 0.99472 0.946003
0.999209 0.99594 0.849221
0.994811 0.994646 0.931249
0.997811 0.994929 0.982392
0.999225 0.995002 0.927718
0.99519 0.994724 0.953292
0.999605 0.994586 0.982474
0.998249 0.994706 0.965706
1.00026 0.996595 0.994659
1.00248 0.99525 0.992976
1.00488 0.99466 0.991701
1.00407 0.99468 0.992178
1.00506 0.994585 0.991281
1.00537 0.994663 0.990596
1.00519 0.995206 0.990237
1.00541 0.994626 0.990398
1.00542 0.994773 0.990376
1.00546 0.994714 0.990258
1.00537 0.994746 0.990696
1.0054 0.994796 0.990532
1.00541 0.994819 0.990671
1.00543 0.994848 0.990689
1.00535 0.994746 0.990972
1.00538 0.994765 0.991007
1.00539 0.994808 0.990949
1.00542 0.994999 0.990707
1.00538 0.994827 0.990865
1.00544 0.994818 0.990804
1.00551 0.998599 0.986825
1.00552 0.995936 0.989136
1.00554 0.99572 0.98898
1.00547 1.00388 0.981655
1.00558 1.00049 0.985143
1.00557 0.99843 0.987118
1.00336 1.0037 0.985413
1.00508 1.00399 0.982245
1.00542 1.0034 0.983076
1.00171 1.00173 0.996068
1.00292 1.0039 0.986069
1.00356 1.00451 0.984784
1.0015 1.00151 0.996282
1.00291 1.00356 0.986872
1.00134 1.00121 0.996502
1.00531 1.00211 0.985247
1.00516 1.00447 0.982656
1.00381 1.00493 0.982401
1.00407 1.00448 0.983469
1.00322 1.00422 0.984667
1.00236 1.0045 0.985374
1.00317 1.00346 0.986241
1.00187 1.00496 0.986885
1.00219 1.00342 0.988351
1.0005 1.00045 0.997385
1.00088 1.00296 0.990566
1.00138 1.00515 0.987145
1.00014 0.999446 0.998231
0.999839 1.00266 0.992159
1.00003 0.998922 0.998443
0.999879 0.994839 0.933078
0.999547 0.9982 0.848221
0.994826 0.995351 0.785614
1.00133 1.00507 0.987291
1.00502 1.00217 0.984655
1.0036 1.00032 0.989703
1.00505 0.999325 0.98728
1.00534 0.996776 0.988854
1.00491 0.996102 0.990535
1.00219 1.0003 0.992606
1.00487 0.997438 0.989739
1.00208 1.00069 0.992594
1.0044 0.998689 0.989552
1.0023 1.00067 0.990597
1.00313 0.998305 0.993803
1.00242 0.999955 0.992862
1.0008 0.999892 0.995236
0.994944 0.994691 0.957012
0.995968 0.99463 0.92222
0.994799 0.999327 0.865913
0.994823 0.994554 0.908619
0.994861 0.99525 0.962793
0.995554 0.994763 0.963989
0.998548 0.994647 0.989177
0.998759 0.994874 1.00309
0.99719 0.997339 1.00545
0.997208 0.994844 0.994837
0.999406 0.994713 0.955641
1.00072 0.994848 0.932137
0.999196 1.00244 0.833103
0.997863 0.994712 0.982849
0.995556 0.994725 0.95395
0.99807 0.994724 0.922572
0.9997 0.99463 0.983181
0.997646 0.994734 0.964273
1.0014 0.995964 0.986913
1.00419 0.994568 0.983195
1.00134 0.994684 0.993117
1.0042 0.994645 0.991846
1.00531 0.994806 0.990666
1.00492 0.994585 0.991205
1.00537 0.994648 0.990584
1.00544 0.994746 0.990449
1.0054 0.994647 0.990349
1.00542 0.994763 0.990389
1.0054 0.994815 0.990561
1.00537 0.99475 0.990709
1.00541 0.994799 0.990542
1.00541 0.994865 0.99068
1.00541 0.994813 0.99063
1.00542 0.994847 0.990676
1.00537 0.994869 0.990891
1.00539 0.994761 0.991012
1.00538 0.994801 0.990956
1.00539 0.995021 0.990808
1.00542 0.996958 0.988691
1.00542 0.995174 0.990455
1.00539 0.994833 0.990851
1.00544 1.00229 0.983224
1.00552 0.99876 0.986822
1.00552 0.996032 0.989105
1.00374 1.00331 0.985115
1.00537 1.00396 0.981709
1.00558 1.00087 0.985183
1.00233 1.00201 0.995576
1.00328 1.00382 0.985291
1.00478 1.00464 0.982339
1.00193 1.00203 0.995826
1.0031 1.00378 0.985931
1.00161 1.00174 0.996093
1.0055 0.998766 0.986724
1.00515 1.00205 0.984946
1.00543 1.00344 0.983256
1.00494 1.00414 0.982772
1.00483 1.00476 0.982251
1.00371 1.00513 0.983113
1.00435 1.00539 0.984204
1.00359 1.00416 0.985531
1.00246 1.00398 0.986692
1.00238 1.0047 0.986831
1.00183 1.00366 0.988368
1.00078 1.00177 0.996579
1.00031 0.999979 0.997669
1.00067 1.003 0.99056
1.00001 0.999034 0.998316
0.994889 0.99477 0.961445
0.997949 0.995189 0.916325
0.999274 1.0016 0.863584
1.00548 0.995248 0.98981
1.00392 1.00067 0.988929
1.00501 0.999381 0.98693
1.00511 0.996419 0.990394
1.00537 0.996812 0.988943
1.00536 0.995683 0.98998
1.00473 0.997854 0.989015
1.00151 1.00082 0.992301
1.00448 0.997985 0.989581
1.00245 1.00107 0.98945
1.00341 0.999052 0.990204
1.00373 0.994455 0.994419
1.00205 0.997875 0.994341
1.00185 1.00035 0.993152
0.997496 0.99467 0.987409
0.99514 0.99469 0.95488
0.994914 0.994652 0.917195
0.994945 0.994737 0.964464
0.998565 0.994642 0.991139
0.999464 0.995007 1.00153
1.00462 0.994624 0.974131
1.0013 0.994742 0.952786
0.999744 0.997435 0.916098
0.999505 0.994685 0.983817
0.996113 0.994695 0.964203
1.0013 0.995336 0.987696
1.00261 0.994589 0.983851
1.00309 0.996021 0.989964
1.00553 0.994502 0.990464
1.00369 0.994654 0.991989
1.00531 0.99477 0.990634
1.00545 0.994955 0.99054
1.00538 0.994638 0.990573
1.00544 0.99476 0.990461
1.00541 0.994821 0.990716
1.00542 0.994755 0.990403
1.00541 0.994812 0.990542
1.00538 0.994867 0.990854
1.00541 0.994803 0.990551
1.00541 0.994867 0.990676
1.00537 0.994901 0.990888
1.00542 0.994846 0.990664
1.00537 0.994864 0.990858
1.00526 0.994881 0.991178
1.00538 0.994795 0.990962
1.0054 0.994929 0.990867
1.00539 0.996089 0.989938
1.00536 1.00132 0.98475
1.00545 0.997254 0.988426
1.00542 0.995343 0.990203
1.00396 1.00241 0.985655
1.00544 1.00249 0.983234
1.00552 0.998903 0.986818
1.00296 1.00165 0.995418
1.00368 1.00331 0.985163
1.00542 1.00415 0.981762
1.00244 1.00206 0.995505
1.0032 1.00387 0.985193
1.00202 1.00222 0.995657
1.00551 0.996451 0.988722
1.00545 0.99888 0.986743
1.00559 1.00106 0.984929
1.0049 1.00238 0.984655
1.00539 1.00349 0.983241
1.00496 1.00463 0.981783
1.00535 1.00494 0.982109
1.00415 1.00485 0.983116
1.00271 1.00415 0.986017
1.00315 1.00474 0.985546
1.00249 1.00419 0.986783
1.00105 1.00295 0.996136
1.00154 1.00402 0.98838
1.00051 1.00171 0.996883
1.00011 1.00017 0.997918
0.998068 0.994724 0.985213
0.996288 0.994791 0.955328
1.00001 0.994835 0.932558
1.00544 0.994835 0.990138
1.00546 0.994742 0.990374
1.00548 0.995197 0.989886
1.00524 0.996824 0.990229
1.00541 0.99674 0.98904
1.00535 0.995758 0.989987
1.00541 0.99503 0.990125
1.00469 0.997415 0.989594
1.00346 1.00186 0.988296
1.00378 0.998296 0.990319
1.00527 0.994585 0.991326
1.00369 0.994674 0.99292
1.00267 0.994455 0.994394
1.00177 0.997528 0.994896
0.998671 0.994645 0.98722
0.995548 0.994734 0.954048
0.999542 0.99462 0.993207
1.00531 0.994583 0.989016
1.00442 0.994619 0.973985
0.999203 0.994802 0.95439
1.00174 0.994724 0.98835
1.00108 0.994613 0.984538
1.00368 0.995429 0.990234
1.00543 0.994513 0.990728
1.00555 0.994714 0.990941
1.00561 0.994583 0.991388
1.00531 0.994735 0.990606
1.00544 0.994876 0.990567
1.00545 0.994819 0.991035
1.00544 0.994772 0.990472
1.00541 0.99482 0.990719
1.00537 0.994853 0.991047
1.00541 0.994809 0.990523
1.00538 0.994867 0.990855
1.00536 0.99491 0.99103
1.00541 0.994868 0.990673
1.00536 0.994901 0.99089
1.00521 0.994925 0.991304
1.00537 0.99486 0.990824
1.0053 0.994881 0.991121
1.00536 0.995453 0.990675
1.00542 0.994841 0.990926
1.00537 0.996135 0.989894
1.00531 1.00038 0.985853
1.00397 1.00165 0.986534
1.00533 1.00131 0.98478
1.00548 0.997564 0.988161
1.00343 1.00099 0.995345
1.00394 1.00245 0.985723
1.00546 1.00258 0.983248
1.00305 1.00163 0.995352
1.00362 1.00341 0.985206
1.00261 1.00221 0.995423
1.00543 0.995139 0.990191
1.00548 0.996378 0.988883
1.00545 0.999206 0.98671
1.00539 0.998981 0.986765
1.00554 1.00093 0.984863
1.00539 1.00426 0.981716
1.00546 1.00329 0.983225
1.00498 1.00477 0.981701
1.00279 1.00422 0.98552
1.00516 1.00373 0.9832
1.0027 1.00411 0.986126
1.00142 1.00276 0.995926
1.00241 1.00422 0.986877
1.00095 1.00249 0.996266
1.0003 1.00126 0.997179
1.00373 0.99477 0.991936
0.997669 0.994732 0.982497
0.995687 0.994783 0.957495
1.00546 0.994719 0.990232
1.00544 0.99485 0.990159
1.00536 0.994828 0.990765
1.00546 0.994754 0.990361
1.00548 0.995183 0.989952
1.00543 0.994682 0.99054
1.00535 0.995759 0.989991
1.00538 0.994877 0.990156
1.00531 0.994728 0.990965
1.00402 0.997543 0.990435
1.00529 0.994576 0.990895
1.00283 0.994874 0.993103
1.0013 0.994448 0.994397
0.999389 0.994612 0.986897
1.00552 0.994668 0.991645
1.00533 0.994571 0.989061
1.00406 0.994601 0.97395
1.00411 0.994814 0.990456
1.00547 0.994535 0.990974
1.00552 0.994713 0.990825
1.00566 0.994589 0.991578
1.0055 0.994752 0.991528
1.00544 0.994795 0.990595
1.00544 0.994817 0.99103
1.00538 0.994846 0.991335
1.00541 0.994819 0.990721
1.00536 0.994855 0.991045
1.00535 0.994899 0.991236
1.00538 0.994868 0.990856
1.00536 0.99491 0.991035
1.00523 0.994951 0.991394
1.00536 0.994902 0.990892
1.00523 0.994926 0.991292
1.00532 0.995061 0.991288
1.00533 0.994881 0.991065
1.00531 0.995542 0.990655
1.00535 0.999549 0.986716
1.00535 0.996181 0.989851
1.00531 1.00036 0.985876
1.00381 1.00131 0.989255
1.00378 0.999997 0.991313
1.00401 1.00163 0.987592
1.0053 1.00129 0.984805
1.00335 1.00091 0.995398
1.00392 1.00244 0.985779
1.00312 1.00158 0.995318
1.00532 0.994913 0.991055
1.00537 0.994831 0.990841
1.00544 0.995124 0.990314
1.00542 0.997405 0.98842
1.00547 0.996295 0.989044
1.00548 0.998984 0.986681
1.00541 1.0034 0.982437
1.00555 1.00095 0.984795
1.00546 1.00419 0.981652
1.00337 1.00386 0.985081
1.00513 1.005 0.981613
1.00299 1.00412 0.985545
1.00215 1.00273 0.995547
1.00275 1.0041 0.986246
1.0014 1.00271 0.996025
1.00067 1.00259 0.996463
1.00541 0.994767 0.991495
1.00305 0.994801 0.991443
0.997711 0.994748 0.979651
1.00536 0.994817 0.99076
1.00545 0.994734 0.990194
1.00545 0.994825 0.990188
1.00534 0.994827 0.990815
1.00546 0.994765 0.990349
1.00537 0.994798 0.991107
1.0054 0.994672 0.990491
1.00534 0.994786 0.990183
1.00529 0.994715 0.991017
1.0053 0.994572 0.990459
1.00215 0.994614 0.993203
1.00548 0.994768 0.991514
1.00552 0.994663 0.991644
1.00537 0.994544 0.98911
1.00549 0.994707 0.990706
1.00569 0.994595 0.991766
1.00552 0.994746 0.991502
1.00539 0.994849 0.991595
1.00544 0.994814 0.991025
1.00538 0.994847 0.991295
1.00535 0.994893 0.991449
1.00536 0.994859 0.991043
1.00535 0.994899 0.991238
1.00526 0.994929 0.991512
1.00535 0.99491 0.991039
1.00523 0.99495 0.991397
1.00531 0.994939 0.991602
1.00524 0.994926 0.991281
1.0053 0.995098 0.991263
1.00539 0.998825 0.987513
1.00527 0.995629 0.990635
1.00537 0.999542 0.986724
1.00379 1.00087 0.989652
1.00531 1.00034 0.985904
1.0041 1.00111 0.989084
1.00349 0.999777 0.991635
1.00325 1.00033 0.993601
1.00429 1.00157 0.988412
1.00326 1.00081 0.995471
1.00531 0.9949 0.991063
1.00527 0.994899 0.991307
1.00533 0.994919 0.991087
1.00528 0.996058 0.989971
1.00535 0.994824 0.990902
1.00546 0.995114 0.990437
1.0054 0.997196 0.988463
1.00532 1.0019 0.984028
1.00546 0.998791 0.986655
1.0054 1.00349 0.982409
1.00374 1.00296 0.985545
1.00548 1.00401 0.981591
1.00339 1.00376 0.98508
1.00279 1.00213 0.99532
1.00311 1.00397 0.98558
1.00191 1.00249 0.995718
1.00127 1.00262 0.996069
1.00541 0.994803 0.991327
1.00536 0.994772 0.991543
1.00176 0.995309 0.991002
1.00533 0.994857 0.991114
1.00536 0.994812 0.990719
1.00545 0.994747 0.990161
1.00532 0.994833 0.990864
1.00539 0.994803 0.991039
1.00538 0.994659 0.990444
1.00528 0.994696 0.991067
1.00541 0.994836 0.991585
1.00548 0.994773 0.991505
1.00552 0.994656 0.99164
1.00534 0.99487 0.991668
1.00554 0.99474 0.991475
1.00539 0.994849 0.991585
1.00535 0.994894 0.991601
1.00538 0.994849 0.991254
1.00535 0.994893 0.991454
1.00526 0.994918 0.991648
1.00535 0.994899 0.99124
1.00525 0.99493 0.991518
1.00533 0.994945 0.99172
1.00522 0.99495 0.991401
1.00532 0.994941 0.991579
1.00536 0.998222 0.988289
1.00529 0.995135 0.991237
1.0054 0.998828 0.98751
1.00368 1.00059 0.990041
1.00538 0.999532 0.986734
1.00405 1.00073 0.989471
1.00327 0.99982 0.991853
1.00438 1.00091 0.988919
1.00287 0.999968 0.992102
1.00231 1.0007 0.996356
1.00531 0.994907 0.991156
1.00516 0.994926 0.99144
1.00532 0.994907 0.991081
1.00524 0.996167 0.990189
1.00523 0.994896 0.991265
1.00533 0.994922 0.991122
1.00535 1.00033 0.985764
1.00532 0.995951 0.99001
1.00533 0.994809 0.990964
1.00536 0.997025 0.988505
1.00533 1.00202 0.984
1.00384 1.00192 0.98655
1.00545 1.0036 0.982375
1.00375 1.0029 0.985508
1.00294 1.00137 0.995465
1.00346 1.00374 0.985069
1.00268 1.00217 0.995392
1.00187 1.00237 0.995901
1.00534 0.994862 0.99145
1.00541 0.994797 0.991276
1.00533 0.994784 0.99159
1.00532 0.994861 0.99113
1.00534 0.994808 0.990678
1.00541 0.99481 0.990971
1.00535 0.994878 0.991673
1.00541 0.994843 0.991598
1.00546 0.994778 0.991495
1.00534 0.994873 0.991696
1.00534 0.994909 0.991686
1.00539 0.994848 0.991574
1.00535 0.994897 0.991611
1.00525 0.99492 0.991733
1.00536 0.994893 0.991458
1.00526 0.994918 0.991654
1.00534 0.994951 0.991791
1.00525 0.99493 0.991525
1.00533 0.994945 0.991707
1.00532 0.997744 0.988902
1.00532 0.994943 0.991554
1.00537 0.998215 0.988278
1.0035 1.00041 0.990459
1.00542 0.998831 0.987509
1.00391 1.0005 0.989864
1.00299 0.999936 0.99209
1.00429 1.00061 0.9893
1.00274 0.999898 0.992322
1.00227 1.00018 0.992552
1.00532 0.994899 0.991408
1.00519 0.994947 0.991455
1.00532 0.994901 0.991138
1.00529 0.995647 0.990662
1.00516 0.994936 0.991442
1.00534 0.994914 0.991099
1.0054 0.999392 0.986842
1.00528 0.995679 0.990546
1.00521 0.994893 0.991222
1.00385 1.00119 0.987308
1.00533 1.0004 0.985736
1.00536 0.995801 0.990049
1.00535 1.00212 0.983971
1.00383 1.00193 0.986474
1.00291 1.00077 0.99567
1.00374 1.00285 0.985468
1.00303 1.00143 0.995392
1.00248 1.00207 0.995499
1.00532 0.994896 0.991631
1.00534 0.994859 0.991408
1.00541 0.994792 0.991226
1.00531 0.994864 0.991145
1.00532 0.994916 0.991686
1.00535 0.994877 0.99168
1.00541 0.994849 0.991612
1.00534 0.994875 0.991725
1.00534 0.994907 0.991696
1.00524 0.994932 0.991879
1.00535 0.994899 0.991621
1.00525 0.994924 0.991778
1.00534 0.994948 0.991769
1.00526 0.994919 0.99166
1.00534 0.994951 0.991787
1.00531 0.997426 0.989278
1.00534 0.994944 0.991694
1.00533 0.997733 0.988889
1.00349 1.00024 0.988959
1.00539 0.998216 0.988267
1.00372 1.00035 0.989392
1.00246 1.00001 0.996046
1.00414 1.00041 0.989689
1.00251 0.999957 0.992546
1.00223 0.999954 0.992771
1.00533 0.994917 0.991555
1.0052 0.994931 0.991565
1.00533 0.994901 0.991436
1.00528 0.994968 0.991503
1.00519 0.994942 0.991482
1.00532 0.994895 0.991119
1.00538 0.998001 0.988343
1.00528 0.995675 0.990645
1.00516 0.994946 0.991444
1.00382 1.00074 0.987837
1.00537 0.998947 0.987272
1.00533 0.995169 0.990899
1.00281 1.0004 0.995813
1.00385 1.0012 0.987262
1.0053 1.00047 0.985711
1.00382 1.00194 0.986405
1.00302 1.00081 0.995602
1.0031 1.0015 0.995349
1.00533 0.994922 0.9916
1.00533 0.994898 0.991621
1.00534 0.994856 0.991366
1.00522 0.994942 0.991941
1.00532 0.994912 0.991677
1.00535 0.994877 0.991687
1.00533 0.994905 0.991706
1.00524 0.994931 0.991881
1.00534 0.995261 0.99137
1.00525 0.994928 0.991823
1.00534 0.995129 0.991582
1.0053 0.996937 0.989874
1.00534 0.994951 0.991782
1.00531 0.997405 0.989269
1.00344 0.999951 0.989311
1.00534 0.997715 0.988879
1.00351 1.0002 0.988976
1.00234 1.00005 0.9961
1.00378 1.0003 0.988524
1.00226 1.00005 0.994499
1.00204 0.999953 0.992998
1.00534 0.994926 0.991606
1.0052 0.994939 0.991702
1.00533 0.994915 0.991558
1.00528 0.994961 0.991692
1.0052 0.994933 0.991584
1.00533 0.994903 0.991463
1.00534 0.997772 0.988739
1.00528 0.995272 0.991228
1.00518 0.994938 0.991509
1.00371 1.00055 0.988242
1.00537 0.997936 0.988411
1.00528 0.9957 0.990627
1.00267 1.00019 0.995914
1.00381 1.00078 0.98781
1.00534 0.99852 0.987708
1.00292 1.0004 0.995762
1.00385 1.0012 0.987209
1.00311 1.00085 0.99553
1.00521 0.99494 0.991901
1.00533 0.994922 0.991609
1.00533 0.994899 0.991611
1.00534 0.99531 0.99135
1.00522 0.994938 0.99193
1.00532 0.994909 0.991667
1.00524 0.994931 0.991883
1.00534 0.995313 0.991362
1.00531 0.996886 0.989863
1.00534 0.995321 0.991395
1.0053 0.997116 0.989648
1.00339 0.999731 0.989603
1.00531 0.997388 0.989257
1.00343 0.999958 0.989318
1.00222 1.00001 0.99618
1.00353 1.00016 0.988989
1.00229 1.00005 0.996125
1.00237 1.00003 0.992554
1.0052 0.994932 0.991879
1.00533 0.994925 0.991526
1.00529 0.99495 0.991786
1.0052 0.99494 0.991706
1.00533 0.994914 0.99156
1.00534 0.998234 0.988294
1.00528 0.994961 0.991693
1.0052 0.994936 0.991603
1.00361 1.00044 0.988556
1.00534 0.998048 0.988446
1.00528 0.995576 0.990953
1.0025 1.00016 0.995966
1.00369 1.00061 0.988226
1.00537 0.997874 0.988481
1.00277 1.00019 0.995876
1.00379 1.00082 0.987779
1.00304 1.00038 0.995718
1.00532 0.995368 0.991281
1.00521 0.994939 0.991925
1.00532 0.994922 0.991617
1.00532 0.997025 0.989717
1.00533 0.995358 0.991338
1.00523 0.994935 0.991918
1.00534 0.995367 0.991354
1.00531 0.99695 0.989869
1.00334 0.999602 0.989829
1.00531 0.997282 0.989426
1.0034 0.999722 0.989603
1.00214 0.999978 0.996266
1.00344 0.999961 0.989328
1.00217 1.00004 0.996219
1.00225 1.00006 0.996159
1.0053 0.994946 0.991881
1.0052 0.994933 0.991809
1.00533 0.994924 0.991447
1.00534 0.998108 0.988465
1.00529 0.994949 0.991786
1.0052 0.994941 0.99171
1.00351 1.00028 0.988893
1.00533 0.998261 0.988306
1.00528 0.994961 0.991694
1.00232 1.00019 0.996017
1.00358 1.0005 0.988552
1.00534 0.998324 0.988152
1.00257 1.00015 0.99595
1.00366 1.00068 0.988207
1.00291 1.00016 0.995832
1.00533 0.997742 0.988898
1.00532 0.995167 0.991566
1.00521 0.994938 0.99195
1.0033 0.999587 0.989937
1.00532 0.997064 0.989739
1.00533 0.995409 0.991326
1.0053 0.99701 0.989873
1.00336 0.999581 0.989821
1.00206 0.999954 0.996325
1.0034 0.999714 0.989601
1.0021 0.99998 0.996284
1.00211 1.00005 0.996248
1.00533 0.997981 0.988669
1.0053 0.994946 0.991839
1.0052 0.994933 0.991739
1.00358 1.00011 0.99068
1.00533 0.998138 0.988477
1.00529 0.994949 0.991787
1.00219 1.00018 0.996103
1.00348 1.00033 0.988894
1.00533 0.998292 0.988319
1.00239 1.00017 0.996
1.00356 1.00055 0.988548
1.00265 1.00012 0.995928
1.00347 0.999604 0.989733
1.00532 0.99752 0.989207
1.00532 0.994948 0.991852
1.00196 0.999957 0.996391
1.00331 0.999553 0.989921
1.00532 0.997102 0.989764
1.00337 0.999555 0.989813
1.00202 0.999945 0.99635
1.00206 0.99999 0.996308
1.00367 0.999858 0.99089
1.00532 0.997989 0.988679
1.0053 0.994947 0.991796
1.00147 1.00019 0.996916
1.0034 1.00011 0.98925
1.00532 0.998164 0.988491
1.00222 1.00018 0.996078
1.00345 1.00039 0.988895
1.00245 1.00015 0.995982
1.00199 0.999799 0.993333
1.00348 0.999652 0.990444
1.00532 0.997313 0.989513
1.00198 0.999953 0.996392
1.00333 0.99953 0.989911
1.00202 0.999941 0.996365
1.00127 1.00004 0.99391
1.00353 0.999783 0.990226
1.00532 0.998001 0.988686
1.00174 1.00014 0.994953
1.00337 1.0001 0.989278
1.00226 1.00018 0.996054
1.00199 0.999962 0.996374
1.00331 0.999648 0.98984
1.00197 0.999938 0.996384
1.00172 0.99993 0.995136
1.00339 0.999749 0.989625
1.00211 1.00016 0.996155
1.00197 1 0.996364
1.00201 1.00004 0.996275

TENSORS stress float
0.00308633 -0.000216111 0.000353055
-0.000216111 0.00171269 -6.92612e-05
0.000353055 -6.92612e-05 0.00168163
0.00936101 0.00025873 0.000454505
0.00025873 0.0058643 6.42136e-05
0.000454505 6.42136e-05 0.00588814
0.00263578 -0.000142691 0.000136004
-0.000142691 0.00140806 -2.5705e-05
0.000136004 -2.5705e-05 0.0013582
0.00269672 -0.000118675 0.000315703
-0.000118675 0.00145299 -3.73611e-05
0.000315703 -3.73611e-05 0.00143888
0.00299086 -0.000187164 0.000340336
-0.000187164 0.00164792 -5.92841e-05
0.000340336 -5.92841e-05 0.00162178
0.00321443 -0.000229984 0.00037157
-0.000229984 0.00178938 -7.47904e-05
0.00037157 -7.47904e-05 0.00175942
0.00246495 -0.000302475 6.8177e-05
-0.000302475 0.00106963 -1.77516e-05
6.8177e-05 -1.77516e-05 0.000879681
0.00961146 0.000263913 -7.55157e-06
0.000263913 0.00602009 -4.36092e-06
-7.55157e-06 -4.36092e-06 0.00604998
0.00786391 0.000321483 0.000214412
0.000321483 0.00492515 2.70119e-05
0.000214412 2.70119e-05 0.00488407
0.00850455 0.00017001 0.000163634
0.00017001 0.00528156 1.46039e-05
0.000163634 1.46039e-05 0.00525581
0.00293865 0.000292518 0.000411017
0.000292518 0.00164611 7.30164e-05
0.000411017 7.30164e-05 0.0016138
0.000239343 0.000384234 2.57412e-05
0.000384234 -0.00032417 2.83931e-05
2.57412e-05 2.83931e-05 -0.000581162
0.00217012 -2.14935e-05 0.000298901
-2.14935e-05 0.00110101 6.67766e-06
0.000298901 6.67766e-06 0.00111151
0.00192137 1.57265e-05 8.83018e-05
1.57265e-05 0.000966995 4.42523e-06
8.83018e-05 4.42523e-06 0.00091108
0.0022496 -0.000136064 -9.146e-05
-0.000136064 0.00117098 1.8295e-05
-9.146e-05 1.8295e-05 0.00109089
0.00232057 -0.000113186 0.000100625
-0.000113186 0.0012257 -7.22119e-06
0.000100625 -7.22119e-06 0.00118428
0.00273773 -0.000137418 0.000148721
-0.000137418 0.00146686 -2.94564e-05
0.000148721 -2.94564e-05 0.00141567
0.0025605 -0.000140541 0.0001214
-0.000140541 0.00136613 -1.87781e-05
0.0001214 -1.87781e-05 0.00131825
0.0025926 -0.000336824 -5.54117e-05
-0.000336824 0.00115349 1.05842e-05
-5.54117e-05 1.05842e-05 0.000976068
0.00695606 -0.000185382 0.000400525
-0.000185382 0.00432908 -2.3349e-05
0.000400525 -2.3349e-05 0.00436373
0.00253465 -9.11413e-05 0.000305667
-9.11413e-05 0.00134776 -2.83933e-05
0.000305667 -2.83933e-05 0.00133851
0.00286235 -0.000152095 0.000327823
-0.000152095 0.00156166 -4.7906e-05
0.000327823 -4.7906e-05 0.00154212
0.00222651 -0.000213686 8.0175e-05
-0.000213686 0.000957964 -1.31735e-05
8.0175e-05 -1.31735e-05 0.000830461
0.00243678 -0.00028375 7.5099e-05
-0.00028375 0.00106822 -1.71877e-05
7.5099e-05 -1.71877e-05 0.000901207
0.0034619 -0.000221513 0.000395344
-0.000221513 0.0019302 -7.53451e-05
0.000395344 -7.53451e-05 0.00190575
0.00250383 -0.000327151 6.66977e-05
-0.000327151 0.00108113 -1.91963e-05
6.66977e-05 -1.91963e-05 0.000860581
0.00238639 -0.000594415 1.24973e-05
-0.000594415 0.000619996 -5.88006e-06
1.24973e-05 -5.88006e-06 0.000269768
0.00990706 0.000267762 -0.000507034
0.000267762 0.00619874 -6.0466e-05
-0.000507034 -6.0466e-05 0.00623607
0.00529924 0.000236533 -0.000184214
0.000236533 0.00319874 -2.45479e-05
-0.000184214 -2.45479e-05 0.00316984
0.00579589 0.000202054 -0.000200661
0.000202054 0.00350701 -2.79036e-05
-0.000200661 -2.79036e-05 0.00348158
0.0101664 0.000215147 -7.04943e-06
0.000215147 0.00638115 -3.68397e-06
-7.04943e-06 -3.68397e-06 0.00641363
0.000244879 0.000366181 -5.57639e-07
0.000366181 -0.000316361 -1.32173e-06
-5.57639e-07 -1.32173e-06 -0.000571158
0.002319 9.1501e-05 0.00031427
9.1501e-05 0.00119536 3.46175e-05
0.00031427 3.46175e-05 0.00118551
0.00252554 0.000188416 0.00034262
0.000188416 0.0013496 5.70334e-05
0.00034262 5.70334e-05 0.00132404
0.00319161 0.000327152 0.000193671
0.000327152 0.00156822 3.21212e-05
0.000193671 3.21212e-05 0.00143279
0.00932649 -0.000109407 9.87129e-05
-0.000109407 0.0058584 5.67745e-06
9.87129e-05 5.67745e-06 0.00582094
0.00351866 0.000453897 0.000217127
0.000453897 0.00182571 4.52734e-05
0.000217127 4.52734e-05 0.0016417
9.39737e-05 0.000339251 2.11765e-05
0.000339251 -0.000391231 3.91444e-05
2.11765e-05 3.91444e-05 -0.000656956
0.00188909 0.000704807 1.69189e-05
0.000704807 0.000361393 5.81894e-06
1.69189e-05 5.81894e-06 -0.000101985
0.00810966 -9.78155e-06 0.000344575
-9.78155e-06 0.00514453 4.84979e-05
0.000344575 4.84979e-05 0.00515237
0.00688288 9.98306e-05 2.42186e-06
9.98306e-05 0.00426328 -2.3973e-06
2.42186e-06 -2.3973e-06 0.00430829
0.00457586 0.000117457 -0.000151073
0.000117457 0.00272867 -8.20352e-06
-0.000151073 -8.20352e-06 0.00272008
0.00676288 5.90092e-05 0.000389095
5.90092e-05 0.00418506 5.90868e-06
0.000389095 5.90868e-06 0.0042319
0.00178669 9.36037e-05 8.95794e-05
9.36037e-05 0.000883892 7.72809e-06
8.95794e-05 7.72809e-06 0.000831075
0.000341987 2.35942e-05 1.16573e-05
2.35942e-05 -0.000249537 3.10229e-06
1.16573e-05 3.10229e-06 -0.000351367
0.00708465 0.00026521 0.000224961
0.00026521 0.00443837 2.45417e-05
0.000224961 2.45417e-05 0.00441018
0.0029994 0.000127097 0.000171344
0.000127097 0.00147466 1.38542e-05
0.000171344 1.38542e-05 0.00140484
0.00193411 -0.000113192 -0.000103795
-0.000113192 0.000992593 1.49924e-05
-0.000103795 1.49924e-05 0.000923442
0.00211839 -0.000151382 -0.000102478
-0.000151382 0.00110418 2.0052e-05
-0.000102478 2.0052e-05 0.00102263
0.00233316 -0.000103538 -7.95521e-05
-0.000103538 0.00120336 1.60168e-05
-7.95521e-05 1.60168e-05 0.00112648
0.00267779 -0.000335845 -0.000185076
-0.000335845 0.00119472 3.8383e-05
-0.000185076 3.8383e-05 0.00103606
0.00446088 -5.66661e-05 -0.000152228
-5.66661e-05 0.00265784 -6.07986e-08
-0.000152228 -6.07986e-08 0.00265177
0.00222913 -9.07548e-05 0.00010304
-9.07548e-05 0.00116405 -5.69584e-06
0.00010304 -5.69584e-06 0.00112885
0.00307363 -0.000123448 0.00015989
-0.000123448 0.00167343 -3.07443e-05
0.00015989 -3.07443e-05 0.00162167
0.00244418 -0.000126861 0.000108997
-0.000126861 0.0012987 -1.19917e-05
0.000108997 -1.19917e-05 0.00125407
0.00232711 -0.000194458 -4.41294e-05
-0.000194458 0.0010077 4.4517e-06
-4.41294e-05 4.4517e-06 0.000897035
0.00264134 -0.000377689 -6.35753e-05
-0.000377689 0.00117436 1.22972e-05
-6.35753e-05 1.22972e-05 0.000966131
0.00252483 -0.000295299 -4.9906e-05
-0.000295299 0.00112012 7.99077e-06
-4.9906e-05 7.99077e-06 0.000967338
0.00251564 -0.000604278 -9.91124e-06
-0.000604278 0.000704651 2.73481e-06
-9.91124e-06 2.73481e-06 0.000356207
0.00676517 -3.25233e-05 0.00038691
-3.25233e-05 0.00418275 -7.30578e-06
0.00038691 -7.30578e-06 0.00423086
0.00245186 -6.40637e-05 0.000299451
-6.40637e-05 0.00129472 -2.05344e-05
0.000299451 -2.05344e-05 0.00129173
0.00245425 -4.66836e-05 6.17252e-05
-4.66836e-05 0.00116596 -1.58141e-06
6.17252e-05 -1.58141e-06 0.00108723
0.00216864 -0.000164621 7.19779e-05
-0.000164621 0.000935325 -9.03315e-06
7.19779e-05 -9.03315e-06 0.000827875
0.00232363 -0.000250438 7.92644e-05
-0.000250438 0.00100376 -1.55781e-05
7.92644e-05 -1.55781e-05 0.000857048
0.00227314 -0.000379077 2.0328e-06
-0.000379077 0.000446533 -1.47865e-06
2.0328e-06 -1.47865e-06 0.000238734
0.00234917 -0.000533067 7.31607e-06
-0.000533067 0.000548978 -3.13085e-06
7.31607e-06 -3.13085e-06 0.000263033
0.00346307 -0.000200033 0.000401558
-0.000200033 0.00193324 -7.12741e-05
0.000401558 -7.12741e-05 0.00191012
0.00279347 -0.000308619 5.5659e-05
-0.000308619 0.00130917 -1.80205e-05
5.5659e-05 -1.80205e-05 0.00107261
0.00246945 -0.000689128 1.13406e-05
-0.000689128 0.000708252 -5.71553e-06
1.13406e-05 -5.71553e-06 0.000283466
0.00237151 -0.000784656 -2.77849e-06
-0.000784656 0.000338719 2.53732e-06
-2.77849e-06 2.53732e-06 -2.97231e-05
0.00844845 0.000379155 -0.000476139
0.000379155 0.00529815 -6.55065e-05
-0.000476139 -6.55065e-05 0.00531276
0.0100649 0.00017816 -0.000472886
0.00017816 0.00631868 -5.30005e-05
-0.000472886 -5.30005e-05 0.00635296
0.00918438 0.000312876 -0.000487588
0.000312876 0.00574084 -6.32631e-05
-0.000487588 -6.32631e-05 0.0057724
0.00018464 0.00035363 -2.3166e-05
0.00035363 -0.000346195 -2.88279e-05
-2.3166e-05 -2.88279e-05 -0.000601823
0.00778496 0.000300516 -2.7761e-06
0.000300516 0.00486028 -3.16434e-06
-2.7761e-06 -3.16434e-06 0.00488299
0.00857133 0.00036051 -7.1492e-06
0.00036051 0.00536436 -4.58405e-06
-7.1492e-06 -4.58405e-06 0.00538035
0.000385235 0.000229786 -3.13354e-07
0.000229786 -0.000302312 -4.27923e-07
-3.13354e-07 -4.27923e-07 -0.000487769
0.00601187 4.78816e-05 -0.000207592
4.78816e-05 0.00368573 -1.93683e-05
-0.000207592 -1.93683e-05 0.00365247
0.000360014 0.00032848 6.49412e-07
0.00032848 -0.000276149 -3.18944e-07
6.49412e-07 -3.18944e-07 -0.000510342
0.00195854 0.000391459 0.000106196
0.000391459 0.000852145 9.71533e-06
0.000106196 9.71533e-06 0.000626249
0.00175378 0.000719826 -1.09292e-06
0.000719826 0.000246167 1.6792e-07
-1.09292e-06 1.6792e-07 -0.000227775
0.00916637 2.37129e-05 0.000394288
2.37129e-05 0.00581212 5.43375e-05
0.000394288 5.43375e-05 0.00582352
0.000748116 0.000298381 3.49938e-05
0.000298381 5.36883e-05 1.98825e-05
3.49938e-05 1.98825e-05 -9.47293e-05
0.000526378 0.000185013 1.4899e-05
0.000185013 -0.000208027 1.27512e-05
1.4899e-05 1.27512e-05 -0.000368622
0.000518128 0.000271212 1.82745e-05
0.000271212 -0.000207624 2.3192e-05
1.82745e-05 2.3192e-05 -0.000413133
0.00185513 0.000520106 1.05234e-05
0.000520106 0.000146095 4.69278e-06
1.05234e-05 4.69278e-06 -0.000148827
0.00338093 0.000419929 0.000233215
0.000419929 0.00181973 4.63971e-05
0.000233215 4.63971e-05 0.00164165
0.00175529 0.000649234 1.85308e-05
0.000649234 0.000188017 6.67766e-06
1.85308e-05 6.67766e-06 -0.000218805
0.00173235 0.000707734 2.49533e-05
0.000707734 0.000382038 3.18214e-06
2.49533e-05 3.18214e-06 -0.000155808
0.00217317 0.000933514 -8.60528e-06
0.000933514 0.000298781 -7.2617e-06
-8.60528e-06 -7.2617e-06 -0.000227864
0.00738456 -0.00015988 0.000233518
-0.00015988 0.00470453 3.16645e-05
0.000233518 3.16645e-05 0.00468237
0.00794769 -0.000113997 1.17927e-05
-0.000113997 0.00505131 5.84449e-06
1.17927e-05 5.84449e-06 0.00504185
0.0073447 0.000104026 -0.000409975
0.000104026 0.0045512 -2.55879e-05
-0.000409975 -2.55879e-05 0.00459351
0.00696837 9.30027e-05 -0.000400481
9.30027e-05 0.00431473 -1.58042e-05
-0.000400481 -1.58042e-05 0.00436112
0.00684042 8.46161e-05 -5.27271e-07
8.46161e-05 0.00423978 -4.84183e-06
-5.27271e-07 -4.84183e-06 0.0042848
0.00443722 6.16937e-05 -0.000161192
6.16937e-05 0.00263438 -1.01468e-05
-0.000161192 -1.01468e-05 0.00263268
0.00146605 5.29207e-05 7.6895e-05
5.29207e-05 0.000494493 2.74844e-06
7.6895e-05 2.74844e-06 0.00041649
0.00480195 0.000182183 -0.00015585
0.000182183 0.00288382 -1.10292e-05
-0.00015585 -1.10292e-05 0.00286501
0.00162153 0.000137123 7.81413e-05
0.000137123 0.000557646 4.94443e-06
7.81413e-05 4.94443e-06 0.000457383
0.00679039 9.77876e-05 0.000391964
9.77876e-05 0.00421314 6.93585e-06
0.000391964 6.93585e-06 0.00425447
0.000173441 1.14771e-05 1.37759e-05
1.14771e-05 -0.00034972 1.83342e-06
1.37759e-05 1.83342e-06 -0.000446537
0.00290547 7.41884e-05 0.000169328
7.41884e-05 0.00143315 9.74403e-06
0.000169328 9.74403e-06 0.00137576
0.00161103 0.000120164 6.94779e-06
0.000120164 -6.50429e-05 1.53204e-06
6.94779e-06 1.53204e-06 -0.00018597
0.00290389 0.000190453 0.000176026
0.000190453 0.0013906 1.77716e-05
0.000176026 1.77716e-05 0.00130194
0.00166688 0.000254431 5.11728e-06
0.000254431 -5.29001e-05 1.83081e-06
5.11728e-06 1.83081e-06 -0.000211102
0.00217547 2.54899e-05 -0.000298178
2.54899e-05 0.00109919 6.40718e-06
-0.000298178 6.40718e-06 0.00111299
0.00188932 -4.34681e-05 -8.99585e-05
-4.34681e-05 0.00095177 6.08356e-06
-8.99585e-05 6.08356e-06 0.000893468
0.00258274 -8.28036e-05 -7.76844e-05
-8.28036e-05 0.00135708 1.56076e-05
-7.76844e-05 1.56076e-05 0.00127802
0.00199439 -0.000133043 -0.000107376
-0.000133043 0.00102946 1.83602e-05
-0.000107376 1.83602e-05 0.000954565
0.00244786 -0.000173672 -0.000162368
-0.000173672 0.00107187 1.76651e-05
-0.000162368 1.76651e-05 0.000977973
0.00263735 -0.000279342 -0.00017649
-0.000279342 0.0011757 3.12626e-05
-0.00017649 3.12626e-05 0.00104276
0.00286153 -0.000411909 -0.000195005
-0.000411909 0.00132596 4.28375e-05
-0.000195005 4.28375e-05 0.00112866
0.00264054 -0.000616295 -2.91757e-05
-0.000616295 0.000784615 9.71959e-06
-2.91757e-05 9.71959e-06 0.00043707
0.00684253 -0.000131646 2.58565e-06
-0.000131646 0.00425085 -2.25e-06
2.58565e-06 -2.25e-06 0.00428943
0.00213498 -3.36463e-06 0.00010932
-3.36463e-06 0.00108802 -6.73766e-06
0.00010932 -6.73766e-06 0.00106649
0.00124281 -3.37564e-05 -7.96148e-05
-3.37564e-05 0.000342938 3.78568e-06
-7.96148e-05 3.78568e-06 0.000267932
0.00225039 -0.000132164 -4.55442e-05
-0.000132164 0.000974627 4.88752e-06
-4.55442e-05 4.88752e-06 0.000882906
0.00669214 -0.00020539 0.000389033
-0.00020539 0.00407753 -4.59828e-05
0.000389033 -4.59828e-05 0.00408042
0.00315774 -0.000384538 -6.18768e-05
-0.000384538 0.00156712 8.59679e-06
-6.18768e-05 8.59679e-06 0.00135039
0.00242085 -0.000245926 -4.57666e-05
-0.000245926 0.00105684 5.77281e-06
-4.57666e-05 5.77281e-06 0.000926041
0.00230013 -0.000381659 -8.34349e-06
-0.000381659 0.000456979 1.32503e-06
-8.34349e-06 1.32503e-06 0.000257001
0.00270365 -0.000721061 -7.23861e-06
-0.000721061 0.000875694 2.13962e-06
-7.23861e-06 2.13962e-06 0.000444759
0.00236353 -0.000533036 -1.1601e-05
-0.000533036 0.000560496 3.72623e-06
-1.1601e-05 3.72623e-06 0.000269527
0.00238454 -0.000786506 1.06498e-06
-0.000786506 0.000350596 -1.36255e-07
1.06498e-06 -1.36255e-07 -1.89194e-05
0.000207843 -4.51549e-06 1.47568e-05
-4.51549e-06 -0.000338123 1.21794e-07
1.47568e-05 1.21794e-07 -0.000432279
0.0021237 -5.29136e-05 6.42226e-05
-5.29136e-05 0.000915324 -3.54515e-06
6.42226e-05 -3.54515e-06 0.000831026
0.00213256 -0.000136642 1.97273e-06
-0.000136642 0.000320659 4.96646e-08
1.97273e-06 4.96646e-08 0.000213749
0.00224293 -0.000300996 4.07583e-07
-0.000300996 0.000412487 -4.33815e-07
4.07583e-07 -4.33815e-07 0.000253366
0.00232276 -0.00046195 3.70755e-06
-0.00046195 0.000498377 -1.89952e-06
3.70755e-06 -1.89952e-06 0.000261444
0.00242879 -0.000505892 3.54979e-06
-0.000505892 0.000210254 -2.09603e-06
3.54979e-06 -2.09603e-06 3.84037e-05
0.0096601 -0.000125707 0.000421079
-0.000125707 0.0060705 -4.82219e-05
0.000421079 -4.82219e-05 0.0060957
0.00232536 -0.000706163 8.83991e-07
-0.000706163 0.000233153 1.08003e-06
8.83991e-07 1.08003e-06 -6.42605e-05
6.35402e-05 -0.000292522 1.84208e-05
-0.000292522 -0.000437108 -3.24232e-05
1.84208e-05 -3.24232e-05 -0.000671974
0.00156306 -0.000757725 -6.81147e-06
-0.000757725 0.000136368 -2.06541e-06
-6.81147e-06 -2.06541e-06 -0.000385819
0.00247229 -0.000871312 -7.52054e-06
-0.000871312 0.000489766 4.23632e-06
-7.52054e-06 4.23632e-06 4.19954e-05
0.00251058 -0.000871755 2.48845e-07
-0.000871755 0.000333528 -1.89812e-06
2.48845e-07 -1.89812e-06 2.62513e-06
0.000297883 -0.000273967 2.32014e-05
-0.000273967 -0.000229092 -2.80513e-05
2.32014e-05 -2.80513e-05 -0.000430967
0.00194277 -0.000358186 4.92479e-06
-0.000358186 0.000881031 1.18371e-06
4.92479e-06 1.18371e-06 0.000506295
0.00801566 0.000331411 -0.000461674
0.000331411 0.00501514 -5.64681e-05
-0.000461674 -5.64681e-05 0.0050356
0.00880679 0.000365943 -0.000481249
0.000365943 0.00551608 -6.6987e-05
-0.000481249 -6.6987e-05 0.00553657
0.000355355 0.00023144 -1.6781e-05
0.00023144 -0.000322127 -1.62728e-05
-1.6781e-05 -1.62728e-05 -0.000509977
0.00937691 8.4768e-05 -0.000412508
8.4768e-05 0.005901 -4.52752e-05
-0.000412508 -4.52752e-05 0.00592713
0.000134676 0.000317836 -2.47409e-05
0.000317836 -0.000358333 -3.34242e-05
-2.47409e-05 -3.34242e-05 -0.000601628
0.000280385 0.000320768 -1.90453e-05
0.000320768 -0.000327491 -2.55075e-05
-1.90453e-05 -2.55075e-05 -0.000563716
0.001523 0.000723398 -1.94445e-05
0.000723398 6.90371e-05 -5.70947e-06
-1.94445e-05 -5.70947e-06 -0.000414112
0.00888433 3.49725e-05 -1.46492e-05
3.49725e-05 0.00561918 -1.87874e-07
-1.46492e-05 -1.87874e-07 0.00563498
0.000813399 0.0002597 5.89027e-07
0.0002597 9.40075e-05 1.1799e-06
5.89027e-07 1.1799e-06 -5.20756e-05
0.00182748 0.000237902 8.45469e-05
0.000237902 0.000656806 8.86065e-06
8.45469e-05 8.86065e-06 0.000516263
0.00196092 0.000338908 9.30222e-05
0.000338908 0.00076031 1.19159e-05
9.30222e-05 1.19159e-05 0.000573939
0.0017849 0.00051537 -3.65963e-07
0.00051537 0.000104064 -3.13793e-07
-3.65963e-07 -3.13793e-07 -0.000191534
5.25419e-05 0.000292944 2.61279e-06
0.000292944 -0.000391932 -1.17358e-06
2.61279e-06 -1.17358e-06 -0.000620412
0.00183531 0.000654733 2.83965e-07
0.000654733 0.000243094 -5.6594e-08
2.83965e-07 -5.6594e-08 -0.000165841
0.0013393 0.000678815 -2.77735e-08
0.000678815 0.00010476 -1.86443e-06
-2.77735e-08 -1.86443e-06 -0.000426486
0.00233844 0.000954253 4.99153e-07
0.000954253 0.000409208 8.80578e-07
4.99153e-07 8.80578e-07 -0.000116802
0.000550144 0.00026844 1.92425e-05
0.00026844 -6.17919e-05 3.00217e-05
1.92425e-05 3.00217e-05 -0.000263904
0.000805507 0.000208035 2.64175e-05
0.000208035 0.000141916 2.06792e-05
2.64175e-05 2.06792e-05 -8.18294e-07
-0.00143397 0.000454265 1.47623e-05
0.000454265 -0.00117451 -1.39263e-05
1.47623e-05 -1.39263e-05 -0.00157442
0.00184878 0.000443217 8.94099e-06
0.000443217 0.000100766 3.33728e-06
8.94099e-06 3.33728e-06 -0.00014393
0.00181796 0.000582247 1.51966e-05
0.000582247 0.000156063 6.27963e-06
1.51966e-05 6.27963e-06 -0.000190036
0.00237586 0.000721011 2.11062e-06
0.000721011 0.000241725 1.70614e-08
2.11062e-06 1.70614e-08 -5.05378e-05
0.00127932 0.000584045 2.42297e-05
0.000584045 0.000271791 -1.51236e-06
2.42297e-05 -1.51236e-06 -0.000234717
0.00269298 0.000948811 -6.1276e-06
0.000948811 0.000612861 -4.43696e-06
-6.1276e-06 -4.43696e-06 0.000152309
0.00282508 0.0012117 -1.2159e-05
0.0012117 0.000903404 -9.906e-06
-1.2159e-05 -9.906e-06 0.000174552
0.00212438 0.000935848 -9.62841e-06
0.000935848 0.00012538 -4.65296e-06
-9.62841e-06 -4.65296e-06 -0.000354902
0.00620221 -0.000150725 0.000180268
-0.000150725 0.00391012 2.09485e-05
0.000180268 2.09485e-05 0.00389169
0.00698789 -0.000169767 2.9056e-06
-0.000169767 0.00443012 3.39749e-06
2.9056e-06 3.39749e-06 0.00440697
0.00778372 -0.000150571 -0.000236618
-0.000150571 0.00492776 -1.97639e-05
-0.000236618 -1.97639e-05 0.00491488
0.000777275 -0.000308249 2.94449e-05
-0.000308249 0.000121258 -2.71684e-05
2.94449e-05 -2.71684e-05 -5.66884e-05
0.00892724 -5.67138e-05 0.000368304
-5.67138e-05 0.00563971 -4.50323e-05
0.000368304 -4.50323e-05 0.00565421
0.00763327 0.000262767 -0.000442011
0.000262767 0.00475876 -4.44397e-05
-0.000442011 -4.44397e-05 0.00478826
0.00707371 0.000128025 -0.000402337
0.000128025 0.00438192 -2.21598e-05
-0.000402337 -2.21598e-05 0.00442461
0.000261852 0.000136194 -1.47503e-05
0.000136194 -0.000348964 -7.75774e-06
-1.47503e-05 -7.75774e-06 -0.000475499
0.000169412 5.4184e-05 -1.39138e-05
5.4184e-05 -0.000366297 -3.94618e-06
-1.39138e-05 -3.94618e-06 -0.000469901
0.00678667 5.14554e-06 -0.00038701
5.14554e-06 0.00419599 -4.9667e-06
-0.00038701 -4.9667e-06 0.0042441
0.00673192 -8.31446e-06 6.82346e-08
-8.31446e-06 0.00416085 -1.47272e-06
6.82346e-08 -1.47272e-06 0.00420947
0.000154571 5.67063e-06 -4.6019e-08
5.67063e-06 -0.000366186 2.51934e-07
-4.6019e-08 2.51934e-07 -0.000461683
0.00151839 7.15845e-05 7.76854e-05
7.15845e-05 0.000508733 4.21186e-06
7.76854e-05 4.21186e-06 0.000424082
0.00161101 0.000122671 1.2351e-07
0.000122671 -5.10878e-05 -4.83346e-08
1.2351e-07 -4.83346e-08 -0.000172924
0.000361972 0.000147708 -9.1195e-07
0.000147708 -0.000299716 -3.1799e-07
-9.1195e-07 -3.1799e-07 -0.000442154
0.00168513 0.000255375 -1.77215e-07
0.000255375 -1.53226e-05 1.74483e-08
-1.77215e-07 1.74483e-08 -0.0001747
0.000152567 -3.22019e-05 1.46091e-05
-3.22019e-05 -0.00036893 -8.01005e-08
1.46091e-05 -8.01005e-08 -0.000461434
0.00157352 5.63228e-05 5.84755e-06
5.63228e-05 -7.66593e-05 1.04998e-06
5.84755e-06 1.04998e-06 -0.000189793
0.00162474 0.000188448 5.96592e-06
0.000188448 -6.55331e-05 1.92525e-06
5.96592e-06 1.92525e-06 -0.000201332
0.0024211 0.000186314 4.24808e-06
0.000186314 0.00010937 9.38318e-07
4.24808e-06 9.38318e-07 6.7317e-05
0.00176043 0.000347501 7.28944e-06
0.000347501 1.65554e-05 2.35266e-06
7.28944e-06 2.35266e-06 -0.00017982
0.00243226 0.000387918 4.95075e-06
0.000387918 0.000154469 1.38511e-06
4.95075e-06 1.38511e-06 5.54593e-05
0.00676073 -9.53647e-05 -0.000390353
-9.53647e-05 0.00419121 7.56733e-06
-0.000390353 7.56733e-06 0.00423342
0.00178973 -0.000169739 -8.94599e-05
-0.000169739 0.000913001 1.27192e-05
-8.94599e-05 1.27192e-05 0.000844643
-5.92118e-05 -1.98802e-05 -8.82545e-06
-1.98802e-05 -0.000521465 1.18867e-06
-8.82545e-06 1.18867e-06 -0.000626246
0.00236114 -0.00012318 -0.000157319
-0.00012318 0.00103696 1.27006e-05
-0.000157319 1.27006e-05 0.000959543
0.00974219 5.61526e-05 -0.000119181
5.61526e-05 0.0060678 6.37105e-06
-0.000119181 6.37105e-06 0.00603704
0.00350609 -0.000452773 -0.000205074
-0.000452773 0.0018195 4.69858e-05
-0.000205074 4.69858e-05 0.00161507
0.00255144 -0.000226904 -0.000168748
-0.000226904 0.00112625 2.3921e-05
-0.000168748 2.3921e-05 0.00101363
0.00232044 -0.000383465 -2.14039e-05
-0.000383465 0.000462648 4.21067e-06
-2.14039e-05 4.21067e-06 0.00027074
0.00235734 -0.000531479 -2.6188e-05
-0.000531479 0.000556332 9.14093e-06
-2.6188e-05 9.14093e-06 0.000260802
0.00280566 -0.000733409 -3.3538e-05
-0.000733409 0.000954942 1.15906e-05
-3.3538e-05 1.15906e-05 0.000524144
0.00241569 -0.000787282 2.26822e-06
-0.000787282 0.000381524 -2.05112e-06
2.26822e-06 -2.05112e-06 1.15146e-05
0.000164153 -6.37613e-06 7.78691e-08
-6.37613e-06 -0.000363592 4.41905e-07
7.78691e-08 4.41905e-07 -0.000458314
0.00220715 -0.000122673 -4.42534e-05
-0.000122673 0.000978323 1.40215e-06
-4.42534e-05 1.40215e-06 0.000897169
0.00198241 -0.000134614 -1.28765e-05
-0.000134614 0.000212746 7.4095e-07
-1.28765e-05 7.4095e-07 0.000105954
0.00223023 -0.000297336 -1.25036e-05
-0.000297336 0.00039987 2.16849e-06
-1.25036e-05 2.16849e-06 0.000235706
0.0098311 -0.000125542 4.97828e-06
-0.000125542 0.00617643 -1.54003e-06
4.97828e-06 -1.54003e-06 0.00620218
0.00187394 -0.000323152 1.45567e-05
-0.000323152 0.000776269 8.47838e-07
1.45567e-05 8.47838e-07 0.000534137
0.0021692 -0.000754129 7.16173e-06
-0.000754129 0.000553301 -3.06216e-06
7.16173e-06 -3.06216e-06 5.53902e-05
0.00238757 -0.000468509 -1.15887e-05
-0.000468509 0.000542251 3.20283e-06
-1.15887e-05 3.20283e-06 0.000303791
0.00239938 -0.000507641 3.02712e-06
-0.000507641 0.000181123 -1.01056e-06
3.02712e-06 -1.01056e-06 2.23598e-05
0.0024834 -0.000869174 2.13655e-06
-0.000869174 0.000501824 -4.03062e-07
2.13655e-06 -4.03062e-07 5.66148e-05
0.0022976 -0.000698279 4.49349e-07
-0.000698279 0.000216157 4.5358e-07
4.49349e-07 4.5358e-07 -8.41848e-05
0.00246089 -0.000865357 -3.53272e-07
-0.000865357 0.000302771 9.60005e-07
-3.53272e-07 9.60005e-07 -2.71519e-05
0.000200949 -0.000295519 1.81494e-06
-0.000295519 -0.000294138 -2.0362e-07
1.81494e-06 -2.0362e-07 -0.00049826
0.000890241 -0.000379783 -1.91261e-06
-0.000379783 0.000249353 1.11224e-07
-1.91261e-06 1.11224e-07 -0.000160239
0.00155825 -6.34402e-05 5.2074e-06
-6.34402e-05 -6.78958e-05 -1.64027e-07
5.2074e-06 -1.64027e-07 -0.000182835
0.00232916 -0.000217606 6.41931e-07
-0.000217606 0.000456712 -2.19014e-07
6.41931e-07 -2.19014e-07 0.000332279
0.00223466 -0.000195214 4.17898e-06
-0.000195214 -1.80196e-05 -8.59199e-07
4.17898e-06 -8.59199e-07 -8.22597e-05
0.00229439 -0.000408616 1.7564e-06
-0.000408616 5.37154e-05 -1.00198e-06
1.7564e-06 -1.00198e-06 -5.11789e-05
0.00226592 -0.000619749 7.59669e-07
-0.000619749 0.000124462 -1.26536e-06
7.59669e-07 -1.26536e-06 -0.000103848
0.00247455 -0.000522774 5.06822e-06
-0.000522774 0.00017409 -1.68519e-06
5.06822e-06 -1.68519e-06 7.4526e-05
0.000162654 -0.000272608 1.71311e-05
-0.000272608 -0.000343342 -3.21814e-05
1.71311e-05 -3.21814e-05 -0.000567688
0.0025261 -0.000776754 2.00736e-06
-0.000776754 0.00026397 -2.21606e-06
2.00736e-06 -2.21606e-06 2.83715e-05
0.00147914 -0.000688141 -5.98811e-08
-0.000688141 0.000140888 -5.04847e-06
-5.98811e-08 -5.04847e-06 -0.000381481
0.00235169 -0.000982307 2.41445e-06
-0.000982307 0.000448411 1.64195e-06
2.41445e-06 1.64195e-06 -0.00010339
0.00263638 -0.000941666 -1.45365e-06
-0.000941666 0.000501166 -1.54728e-06
-1.45365e-06 -1.54728e-06 7.63303e-05
0.00251932 -0.000897567 2.88931e-06
-0.000897567 0.00024658 -1.77865e-06
2.88931e-06 -1.77865e-06 -1.58593e-05
0.00145112 -0.000435863 1.32105e-05
-0.000435863 0.000522937 3.52815e-06
1.32105e-05 3.52815e-06 6.12226e-05
0.00138002 -0.00031495 5.81823e-06
-0.00031495 0.000666128 -3.81084e-06
5.81823e-06 -3.81084e-06 0.000309093
0.00149168 -0.000570712 6.87206e-06
-0.000570712 0.000577485 4.4109e-06
6.87206e-06 4.4109e-06 9.56357e-06
0.000380104 0.000195314 -1.58576e-05
0.000195314 -0.000306525 -1.21877e-05
-1.58576e-05 -1.21877e-05 -0.00047329
0.00855964 -1.30854e-05 -0.000341689
-1.30854e-05 0.00540706 -3.34159e-05
-0.000341689 -3.34159e-05 0.00542242
0.000256245 0.000195012 -2.07908e-05
0.000195012 -0.000238511 -2.12848e-05
-2.07908e-05 -2.12848e-05 -0.000390303
0.000326677 0.00027515 -1.80459e-05
0.00027515 -0.000326802 -2.13672e-05
-1.80459e-05 -2.13672e-05 -0.000537961
0.00171709 0.000511532 -1.19903e-05
0.000511532 6.24311e-05 -4.97031e-06
-1.19903e-05 -4.97031e-06 -0.000234041
0.0003065 0.000279287 -2.05292e-05
0.000279287 -0.000238735 -3.00389e-05
-2.05292e-05 -3.00389e-05 -0.000460779
0.00117966 0.000680721 -2.14573e-05
0.000680721 -3.94679e-05 -4.31682e-06
-2.14573e-05 -4.31682e-06 -0.000566705
0.00184412 0.000651286 -2.07503e-05
0.000651286 0.000255721 -7.04856e-06
-2.07503e-05 -7.04856e-06 -0.000153143
0.00244002 0.000971727 9.80085e-07
0.000971727 0.000468132 5.22767e-06
9.80085e-07 5.22767e-06 -5.72608e-05
0.000295301 0.000279172 -7.46514e-06
0.000279172 -0.000226511 -2.60169e-08
-7.46514e-06 -2.60169e-08 -0.0004202
0.000400805 0.000169182 -1.69366e-06
0.000169182 -0.000103948 1.53754e-06
-1.69366e-06 1.53754e-06 -0.00024552
0.000986758 0.000467886 1.35196e-06
0.000467886 0.000302732 4.45055e-07
1.35196e-06 4.45055e-07 -2.93429e-05
0.00179701 0.000438482 -5.12233e-07
0.000438482 7.8328e-05 -3.2933e-07
-5.12233e-07 -3.2933e-07 -0.000166612
0.00179727 0.000577372 -3.38677e-07
0.000577372 0.00015327 -1.89957e-07
-3.38677e-07 -1.89957e-07 -0.000192644
0.00243295 0.000727644 -8.23926e-07
0.000727644 0.000277645 -2.66416e-07
-8.23926e-07 -2.66416e-07 -1.6099e-05
0.000876779 0.000518836 6.78428e-06
0.000518836 -2.29638e-05 -2.26995e-06
6.78428e-06 -2.26995e-06 -0.000498385
0.00263726 0.000937079 -2.12368e-06
0.000937079 0.000573303 -1.10921e-06
-2.12368e-06 -1.10921e-06 0.000116518
0.00252523 0.0011783 -2.79864e-06
0.0011783 0.000674381 -1.67536e-06
-2.79864e-06 -1.67536e-06 -4.15968e-05
0.00206114 0.00092433 -1.34195e-07
0.00092433 6.50555e-05 5.14759e-06
-1.34195e-07 5.14759e-06 -0.000405362
0.000937381 0.000133147 1.6171e-05
0.000133147 0.000300086 2.06841e-05
1.6171e-05 2.06841e-05 0.000172094
9.02653e-05 0.000613783 6.81446e-06
0.000613783 -0.000303316 -9.38601e-06
6.81446e-06 -9.38601e-06 -0.000720652
0.000719569 0.000273889 -1.8949e-06
0.000273889 0.000201996 -8.00199e-07
-1.8949e-06 -8.00199e-07 -0.000148591
-0.00168185 0.000236561 -7.41634e-06
0.000236561 -0.00136618 -3.15531e-06
-7.41634e-06 -3.15531e-06 -0.00175663
0.00239074 0.000622708 2.76579e-06
0.000622708 0.000200555 9.79839e-07
2.76579e-06 9.79839e-07 -1.91335e-05
0.00249465 0.000825408 -1.12451e-06
0.000825408 0.000394119 -1.74969e-06
-1.12451e-06 -1.74969e-06 2.07885e-05
0.00258052 0.000793606 2.04681e-06
0.000793606 0.000275051 1.31885e-06
2.04681e-06 1.31885e-06 2.69141e-05
0.0027213 0.00114169 -1.26555e-05
0.00114169 0.00110408 -1.72622e-05
-1.26555e-05 -1.72622e-05 0.000308649
0.00267911 0.00100262 -4.94184e-06
0.00100262 0.000498167 4.97995e-07
-4.94184e-06 4.97995e-07 6.44697e-05
0.00284157 0.00129602 -1.18691e-05
0.00129602 0.00079603 -1.32836e-05
-1.18691e-05 -1.32836e-05 4.7013e-05
0.00233441 0.00093251 -2.97793e-06
0.00093251 0.000130017 1.04705e-06
-2.97793e-06 1.04705e-06 -0.000311109
0.00116038 0.000181651 -3.72436e-06
0.000181651 0.00055702 9.23002e-06
-3.72436e-06 9.23002e-06 0.000378276
0.000475686 8.38884e-05 8.94878e-06
8.38884e-05 3.76726e-05 1.53655e-05
8.94878e-06 1.53655e-05 -4.12874e-05
0.00485857 -0.000153143 9.59321e-05
-0.000153143 0.00300066 1.43237e-05
9.59321e-05 1.43237e-05 0.00298288
0.00561475 -0.000201269 2.22365e-05
-0.000201269 0.00352543 -1.04579e-06
2.22365e-05 -1.04579e-06 0.00349384
0.00633698 -0.000241538 -0.000126925
-0.000241538 0.00402011 -1.75116e-05
-0.000126925 -1.75116e-05 0.00397648
0.000297279 -0.000277532 3.12072e-05
-0.000277532 -0.000124366 -1.89776e-05
3.12072e-05 -1.89776e-05 -0.000261215
0.00760734 2.36997e-05 0.000264316
2.36997e-05 0.00480512 -3.47312e-05
0.000264316 -3.47312e-05 0.00480497
0.00051098 -0.000313965 3.55181e-06
-0.000313965 -6.41394e-05 7.44047e-07
3.55181e-06 7.44047e-07 -0.000243612
0.0092395 -8.26044e-05 6.56422e-06
-8.26044e-05 0.00583516 -1.20719e-06
6.56422e-06 -1.20719e-06 0.00585156
0.000348003 0.000170694 -1.60034e-05
0.000170694 -0.000312572 -9.81391e-06
-1.60034e-05 -9.81391e-06 -0.000459467
0.000199591 6.05666e-05 -1.27707e-05
6.05666e-05 -0.000370446 -4.81911e-06
-1.27707e-05 -4.81911e-06 -0.000481371
0.0017129 0.000256202 -5.14739e-06
0.000256202 2.34286e-05 -1.40716e-06
-5.14739e-06 -1.40716e-06 -0.000136963
0.00161786 0.000124836 -6.48973e-06
0.000124836 -3.32601e-05 -1.4276e-06
-6.48973e-06 -1.4276e-06 -0.000155852
0.000197805 6.31397e-07 -1.42892e-05
6.31397e-07 -0.000341445 -1.77873e-06
-1.42892e-05 -1.77873e-06 -0.000435826
0.00682479 -0.000103633 -0.00039815
-0.000103633 0.00423621 7.41691e-06
-0.00039815 7.41691e-06 0.00427851
0.000188238 -4.1866e-06 -3.93819e-08
-4.1866e-06 -0.000345332 -6.72174e-07
-3.93819e-08 -6.72174e-07 -0.000437597
0.00158335 6.13803e-05 2.90076e-08
6.13803e-05 -6.3327e-05 2.93572e-08
2.90076e-08 2.93572e-08 -0.000176975
0.00164864 0.000187896 4.89146e-08
0.000187896 -3.33692e-05 9.28621e-08
4.89146e-08 9.28621e-08 -0.0001697
0.00243917 0.000184285 -1.34068e-07
0.000184285 0.000121642 1.31631e-07
-1.34068e-07 1.31631e-07 7.96955e-05
0.00175323 0.000344642 -4.39745e-07
0.000344642 2.86336e-05 -1.29531e-07
-4.39745e-07 -1.29531e-07 -0.000168081
0.00242827 0.000387606 -1.02413e-07
0.000387606 0.000145414 1.48724e-07
-1.02413e-07 1.48724e-07 4.61116e-05
0.00156503 -4.5829e-06 4.82461e-06
-4.5829e-06 -6.78549e-05 3.78207e-07
4.82461e-06 3.78207e-07 -0.000179742
0.0024363 9.05346e-05 4.88236e-06
9.05346e-05 0.000112748 4.70616e-07
4.88236e-06 4.70616e-07 8.16755e-05
0.00240922 0.000283145 4.07383e-06
0.000283145 0.000119868 1.24525e-06
4.07383e-06 1.24525e-06 5.27802e-05
0.00222975 0.00018643 3.70265e-06
0.00018643 -3.9137e-05 6.45336e-07
3.70265e-06 6.45336e-07 -2.0927e-05
0.00241616 0.000501843 4.4472e-06
0.000501843 0.000169776 1.70888e-06
4.4472e-06 1.70888e-06 2.01262e-05
0.00227699 0.000365109 3.97945e-06
0.000365109 -1.02603e-05 7.30522e-07
3.97945e-06 7.30522e-07 -4.44103e-05
0.000198238 -1.0893e-05 -1.37668e-05
-1.0893e-05 -0.000336103 7.07013e-08
-1.37668e-05 7.07013e-08 -0.000432614
0.00227157 -7.89883e-05 -0.000155096
-7.89883e-05 0.00100289 8.91323e-06
-0.000155096 8.91323e-06 0.000938828
0.00180753 -0.000132354 -1.68265e-05
-0.000132354 8.77877e-05 1.4829e-06
-1.68265e-05 1.4829e-06 -1.9085e-05
0.002184 -0.000293473 -1.93535e-05
-0.000293473 0.000361162 3.21589e-06
-1.93535e-05 3.21589e-06 0.000191747
0.00995444 -0.000154065 -0.000454463
-0.000154065 0.00624675 5.79757e-05
-0.000454463 5.79757e-05 0.00627351
0.00372895 -0.000440543 -0.000232057
-0.000440543 0.00200675 4.53835e-05
-0.000232057 4.53835e-05 0.00180466
0.00262 -0.000765872 -1.20548e-05
-0.000765872 0.000899253 8.04244e-06
-1.20548e-05 8.04244e-06 0.000410941
0.00243183 -0.000474007 -2.59041e-05
-0.000474007 0.000570908 7.48062e-06
-2.59041e-05 7.48062e-06 0.000331121
0.00236369 -0.000508906 -2.2776e-07
-0.000508906 0.000146711 2.51368e-07
-2.2776e-07 2.51368e-07 1.2003e-06
0.00225934 -0.000689804 9.68374e-08
-0.000689804 0.000191739 3.899e-07
9.68374e-08 3.899e-07 -0.000111399
0.00255423 -0.000879087 7.22759e-06
-0.000879087 0.000543456 -3.23009e-06
7.22759e-06 -3.23009e-06 9.67888e-05
0.00240602 -0.000859456 1.35058e-06
-0.000859456 0.000264838 2.68858e-06
1.35058e-06 2.68858e-06 -6.41078e-05
0.000154814 -0.000307851 -2.3322e-05
-0.000307851 -0.000320803 2.96059e-05
-2.3322e-05 2.96059e-05 -0.000529391
-0.000767454 -0.000346544 -5.29103e-06
-0.000346544 -0.000743871 -3.03806e-06
-5.29103e-06 -3.03806e-06 -0.0012029
0.00164278 -6.12496e-05 9.02424e-07
-6.12496e-05 -1.42674e-05 -7.20748e-08
9.02424e-07 -7.20748e-08 -0.000121467
0.0022133 -0.000216118 -1.17416e-05
-0.000216118 0.000370275 1.31989e-06
-1.17416e-05 1.31989e-06 0.00024504
0.00223694 -0.000191211 2.24664e-06
-0.000191211 -1.98068e-05 -3.3488e-07
2.24664e-06 -3.3488e-07 -7.90219e-05
0.00230892 -0.00040607 -1.16529e-06
-0.00040607 8.49919e-05 2.16461e-07
-1.16529e-06 2.16461e-07 -3.21744e-05
8.34136e-05 -0.000293187 -2.52651e-06
-0.000293187 -0.000381782 -4.71873e-07
-2.52651e-06 -4.71873e-07 -0.0006128
0.00144217 -0.000687029 -1.01666e-06
-0.000687029 0.000158082 -2.76639e-07
-1.01666e-06 -2.76639e-07 -0.000370698
0.00243762 -0.000999869 -1.24522e-08
-0.000999869 0.000496891 1.44455e-06
-1.24522e-08 1.44455e-06 -6.77392e-05
0.00234258 -0.000618365 1.46166e-06
-0.000618365 0.000191545 -7.01231e-07
1.46166e-06 -7.01231e-07 -4.15264e-05
0.00240705 -0.000521105 -4.428e-08
-0.000521105 0.000105649 2.3475e-08
-4.428e-08 2.3475e-08 1.46947e-05
0.00263756 -0.000940641 2.28468e-06
-0.000940641 0.000499032 -1.78553e-06
2.28468e-06 -1.78553e-06 7.9551e-05
0.00250044 -0.000773176 -6.90929e-07
-0.000773176 0.00024698 2.10118e-07
-6.90929e-07 2.10118e-07 1.27823e-05
0.00247064 -0.000905955 1.88217e-07
-0.000905955 0.000205928 2.59954e-07
1.88217e-07 2.59954e-07 -5.71441e-05
0.000865766 -0.000429153 -2.66243e-06
-0.000429153 0.000144579 3.02824e-07
-2.66243e-06 3.02824e-07 -0.00033654
0.00157927 -0.000545423 1.11639e-06
-0.000545423 0.00066145 3.47786e-07
1.11639e-06 3.47786e-07 0.000102603
0.000719373 -0.000262978 -8.59084e-07
-0.000262978 0.000304259 1.8267e-07
-8.59084e-07 1.8267e-07 -8.24893e-05
0.00224727 -9.65382e-05 4.5735e-06
-9.65382e-05 -1.12117e-05 -3.72278e-07
4.5735e-06 -3.72278e-07 -6.32394e-05
0.00226058 -0.000290262 2.10385e-06
-0.000290262 1.29156e-06 -1.11955e-06
2.10385e-06 -1.11955e-06 -7.7052e-05
0.00231597 -0.000176139 6.4382e-06
-0.000176139 5.3656e-05 -6.30329e-07
6.4382e-06 -6.30329e-07 5.93264e-05
0.00230538 -0.000407245 2.84815e-06
-0.000407245 1.42826e-05 -7.08598e-07
2.84815e-06 -7.08598e-07 -2.90734e-05
0.00237718 -0.000662462 2.42724e-06
-0.000662462 9.72118e-05 -8.62349e-07
2.42724e-06 -8.62349e-07 -5.31614e-05
0.0025657 -0.000563398 7.42499e-07
-0.000563398 9.50299e-05 9.84121e-08
7.42499e-07 9.84121e-08 5.80623e-05
0.00141744 -0.000553138 1.29308e-05
-0.000553138 0.000341571 -4.15012e-06
1.29308e-05 -4.15012e-06 -0.000171888
0.0025569 -0.000817373 1.90446e-06
-0.000817373 0.000171957 -1.56508e-06
1.90446e-06 -1.56508e-06 1.36811e-05
0.00235185 -0.00112953 1.2926e-06
-0.00112953 0.000562969 -7.16387e-07
1.2926e-06 -7.16387e-07 -0.000127207
0.00276657 -0.00108003 1.11064e-05
-0.00108003 0.000618163 -3.86099e-08
1.11064e-05 -3.86099e-08 7.64765e-05
0.00272337 -0.000969225 7.20133e-06
-0.000969225 0.000507835 -3.38051e-06
7.20133e-06 -3.38051e-06 0.000126663
0.00260934 -0.00095294 5.81174e-06
-0.00095294 0.000219212 -1.94171e-06
5.81174e-06 -1.94171e-06 3.33359e-06
-0.00104343 -0.000155309 6.35515e-06
-0.000155309 -0.000860972 -1.10743e-06
6.35515e-06 -1.10743e-06 -0.00121702
0.00176962 -0.000806635 4.31292e-06
-0.000806635 0.000633629 1.0606e-05
4.31292e-06 1.0606e-05 -6.5559e-05
8.07505e-05 -0.000313971 2.80332e-05
-0.000313971 -7.01501e-06 4.02056e-06
2.80332e-05 4.02056e-06 -0.000559548
0.00191927 -0.000860836 2.2066e-05
-0.000860836 0.000915649 2.05258e-05
2.2066e-05 2.05258e-05 0.000174936
0.00173795 0.000433428 -1.01263e-05
0.000433428 5.05093e-05 -3.57612e-06
-1.01263e-05 -3.57612e-06 -0.000194605
0.000154546 0.000166665 -1.87589e-05
0.000166665 -0.000254599 -2.1909e-05
-1.87589e-05 -2.1909e-05 -0.000398181
0.0004389 0.000252343 -2.44356e-05
0.000252343 -0.000143063 -2.65077e-05
-2.44356e-05 -2.65077e-05 -0.000324183
0.00212235 0.000367975 8.75577e-09
0.000367975 0.00104334 1.70085e-05
8.75577e-09 1.70085e-05 0.000722428
0.00176342 0.00057321 -1.68298e-05
0.00057321 0.000138226 -6.1534e-06
-1.68298e-05 -6.1534e-06 -0.000207967
0.00249038 0.000734237 -2.29658e-06
0.000734237 0.000314338 -7.27215e-08
-2.29658e-06 -7.27215e-08 1.90767e-05
0.000676768 0.000446427 -2.11998e-05
0.000446427 -0.000179186 -7.1937e-06
-2.11998e-05 -7.1937e-06 -0.0006199
0.00228275 0.00113396 4.6158e-06
0.00113396 0.00050937 3.966e-06
4.6158e-06 3.966e-06 -0.000188045
0.00259926 0.000929216 6.65805e-06
0.000929216 0.000544476 5.10488e-06
6.65805e-06 5.10488e-06 9.01938e-05
0.00201847 0.000911632 8.73512e-06
0.000911632 3.16338e-05 1.30567e-05
8.73512e-06 1.30567e-05 -0.000428125
0.000465242 0.000107659 -2.11262e-06
0.000107659 7.86252e-06 3.82759e-07
-2.11262e-06 3.82759e-07 -0.000120925
0.0013622 0.000469021 -8.22619e-06
0.000469021 0.000492553 4.88603e-06
-8.22619e-06 4.88603e-06 0.000106316
0.000126778 0.000293929 2.0882e-06
0.000293929 -0.000174243 -1.90423e-06
2.0882e-06 -1.90423e-06 -0.000531299
0.000449459 0.000357814 -3.12246e-06
0.000357814 -2.71217e-05 1.02357e-05
-3.12246e-06 1.02357e-05 -0.000430513
0.00243808 0.000630538 -8.07752e-07
0.000630538 0.000224868 -3.98634e-07
-8.07752e-07 -3.98634e-07 3.08256e-06
0.00244262 0.000822779 -1.14993e-06
0.000822779 0.000354805 -3.09258e-07
-1.14993e-06 -3.09258e-07 -1.81428e-05
0.00254867 0.000788593 3.09933e-07
0.000788593 0.000257049 7.71154e-08
3.09933e-07 7.71154e-08 1.13519e-05
0.00226973 0.00111133 -3.16203e-07
0.00111133 0.000805075 -1.72509e-06
-3.16203e-07 -1.72509e-06 8.39114e-07
0.00269043 0.00100432 1.14367e-06
0.00100432 0.000521423 4.66407e-07
1.14367e-06 4.66407e-07 8.27982e-05
0.00272165 0.00126693 -1.70751e-06
0.00126693 0.000741593 -3.64587e-06
-1.70751e-06 -3.64587e-06 3.08448e-06
0.00269823 0.000933102 -9.12509e-06
0.000933102 0.00040928 2.84415e-06
-9.12509e-06 2.84415e-06 -1.93066e-05
0.000794103 9.41032e-05 1.1538e-05
9.41032e-05 0.000224721 1.82871e-05
1.1538e-05 1.82871e-05 0.000131483
0.00196932 0.000260001 8.62313e-07
0.000260001 0.0010676 1.42511e-05
8.62313e-07 1.42511e-05 0.000743054
-2.01034e-05 0.000690435 -3.96975e-06
0.000690435 -0.000349005 -2.23015e-05
-3.96975e-06 -2.23015e-05 -0.000977079
0.000529492 0.000499694 1.37843e-05
0.000499694 5.95561e-05 1.67216e-06
1.37843e-05 1.67216e-06 -0.000317236
0.00148059 0.000356704 2.1841e-06
0.000356704 0.000441671 1.18275e-05
2.1841e-06 1.18275e-05 3.80141e-05
0.00251389 0.000659773 1.94534e-06
0.000659773 0.000159457 8.40683e-07
1.94534e-06 8.40683e-07 1.15321e-05
0.00252845 0.000910089 -5.28214e-07
0.000910089 0.000319234 1.64073e-06
-5.28214e-07 1.64073e-06 -3.0343e-05
0.00261429 0.000860011 -1.29088e-06
0.000860011 0.000227347 1.4217e-06
-1.29088e-06 1.4217e-06 3.21278e-06
0.00266329 0.00147312 1.43408e-06
0.00147312 0.00107784 -1.02953e-05
1.43408e-06 -1.02953e-05 0.000107368
0.00293374 0.00104673 -6.13846e-06
0.00104673 0.000565873 9.90401e-07
-6.13846e-06 9.90401e-07 0.000150143
0.00223203 0.00130995 7.5726e-06
0.00130995 0.000319729 -3.35404e-06
7.5726e-06 -3.35404e-06 -0.000421155
0.000908012 0.00018923 3.68563e-07
0.00018923 0.000386096 1.01269e-05
3.68563e-07 1.01269e-05 0.000169596
0.00082291 0.000236476 -9.8453e-06
0.000236476 0.000492886 5.28525e-06
-9.8453e-06 5.28525e-06 0.00017165
0.000943498 0.000146048 -1.56306e-06
0.000146048 0.000417279 4.77187e-06
-1.56306e-06 4.77187e-06 0.000277167
0.000406825 7.86211e-05 -3.41854e-06
7.86211e-05 5.98144e-05 -2.43023e-07
-3.41854e-06 -2.43023e-07 -0.000107122
0.00187771 2.49511e-05 2.00717e-06
2.49511e-05 0.00098323 9.59693e-06
2.00717e-06 9.59693e-06 0.000927536
0.00109457 5.46335e-05 -1.892e-06
5.46335e-05 0.000454061 2.42421e-08
-1.892e-06 2.42421e-08 0.000381744
0.00123843 9.49316e-06 0.00010743
9.49316e-06 0.000549727 2.00991e-05
0.00010743 2.00991e-05 0.000538651
0.00490847 -0.000152703 1.39427e-05
-0.000152703 0.00303779 -1.71918e-06
1.39427e-05 -1.71918e-06 0.00301905
0.00554725 -0.000235078 -9.58299e-05
-0.000235078 0.00350025 -1.67623e-05
-9.58299e-05 -1.67623e-05 0.00345731
0.000410495 -0.000174696 3.4007e-05
-0.000174696 -3.03866e-06 -1.16504e-05
3.4007e-05 -1.16504e-05 -0.000103035
0.00540566 0.000148401 0.000133301
0.000148401 0.00339768 -1.94718e-05
0.000133301 -1.94718e-05 0.00337199
0.000528791 -0.000247997 4.50395e-07
-0.000247997 3.38735e-05 2.63387e-06
4.50395e-07 2.63387e-06 -0.00011795
0.00799961 -5.50693e-06 1.81756e-06
-5.50693e-06 0.00507724 1.89235e-06
1.81756e-06 1.89235e-06 0.00507704
0.000262067 -0.000321939 -2.9687e-05
-0.000321939 -0.000234743 2.56265e-05
-2.9687e-05 2.56265e-05 -0.000415529
0.00939977 -8.05429e-05 -0.000404582
-8.05429e-05 0.00593343 5.41251e-05
-0.000404582 5.41251e-05 0.00595071
0.00175148 0.000341194 -7.75024e-06
0.000341194 4.78805e-05 -2.26966e-06
-7.75024e-06 -2.26966e-06 -0.000148953
0.00165784 0.000188009 -5.71865e-06
0.000188009 -7.73873e-06 -1.36352e-06
-5.71865e-06 -1.36352e-06 -0.000144896
0.00243582 0.000385263 -5.18037e-06
0.000385263 0.000144613 -1.15296e-06
-5.18037e-06 -1.15296e-06 4.54655e-05
0.00245476 0.000182457 -4.42338e-06
0.000182457 0.000132999 -6.34989e-07
-4.42338e-06 -6.34989e-07 9.10698e-05
0.00159448 6.66628e-05 -5.73115e-06
6.66628e-05 -4.84551e-05 -8.58634e-07
-5.73115e-06 -8.58634e-07 -0.0001626
0.000156924 2.58325e-05 -1.44463e-05
2.58325e-05 -0.000367728 -1.61908e-06
-1.44463e-05 -1.61908e-06 -0.000458065
0.00157153 1.30765e-06 -2.86716e-08
1.30765e-06 -6.30943e-05 -3.24546e-08
-2.86716e-08 -3.24546e-08 -0.000174976
0.00244239 8.8591e-05 -1.31716e-07
8.8591e-05 0.000117842 1.01466e-07
-1.31716e-07 1.01466e-07 8.70589e-05
0.0024333 0.00028219 -1.43489e-08
0.00028219 0.000132787 1.45126e-07
-1.43489e-08 1.45126e-07 6.70415e-05
0.00222968 0.000181973 -3.22586e-07
0.000181973 -4.82078e-05 -6.68647e-08
-3.22586e-07 -6.68647e-08 -2.24882e-05
0.00243073 0.000506003 -3.61914e-07
0.000506003 0.000172865 1.04441e-07
-3.61914e-07 1.04441e-07 2.25066e-05
0.00228245 0.000367117 -9.73172e-08
0.000367117 -2.25195e-06 1.85468e-07
-9.73172e-08 1.85468e-07 -3.84023e-05
0.0024378 -4.85495e-06 4.61295e-06
-4.85495e-06 0.000116293 8.43014e-08
4.61295e-06 8.43014e-08 8.66534e-05
0.00219452 8.5724e-05 2.3495e-06
8.5724e-05 -7.15969e-05 2.36035e-07
2.3495e-06 2.36035e-07 -3.48658e-05
0.00223947 0.000263381 4.20606e-06
0.000263381 -2.46941e-05 8.28122e-07
4.20606e-06 8.28122e-07 -2.92827e-05
0.00235801 0.000184561 8.33517e-07
0.000184561 -7.6275e-05 1.62417e-07
8.33517e-07 1.62417e-07 -1.07282e-05
0.00240783 0.000516416 2.98307e-06
0.000516416 6.02109e-05 8.26482e-07
2.98307e-06 8.26482e-07 -1.30026e-05
0.00243164 0.000404138 6.01699e-08
0.000404138 -6.60971e-05 -5.19918e-07
6.01699e-08 -5.19918e-07 -3.26545e-05
0.00174688 -5.92728e-05 -7.58737e-06
-5.92728e-05 5.66178e-05 3.18346e-07
-7.58737e-06 3.18346e-07 -4.26175e-05
0.00212353 -0.000214695 -2.22931e-05
-0.000214695 0.000302484 2.72297e-06
-2.22931e-05 2.72297e-06 0.0001764
0.00225167 -0.000185991 1.43769e-06
-0.000185991 -1.44716e-05 -4.14229e-08
1.43769e-06 -4.14229e-08 -6.85791e-05
0.00234217 -0.000403326 -1.86198e-06
-0.000403326 0.000131305 1.45082e-06
-1.86198e-06 1.45082e-06 2.26549e-06
6.05435e-05 -0.000321726 -2.29608e-05
-0.000321726 -0.000388894 3.23361e-05
-2.29608e-05 3.23361e-05 -0.000626025
0.00173051 -0.000703601 -2.87931e-06
-0.000703601 0.000353789 4.28397e-06
-2.87931e-06 4.28397e-06 -0.00017687
0.00237917 -0.00100296 3.86642e-06
-0.00100296 0.0004434 -4.27852e-07
3.86642e-06 -4.27852e-07 -0.000130405
0.00241522 -0.000616227 2.02424e-07
-0.000616227 0.000256157 1.17509e-07
2.02424e-07 1.17509e-07 1.85263e-05
0.0023387 -0.000519512 -2.63893e-06
-0.000519512 3.70482e-05 8.10052e-07
-2.63893e-06 8.10052e-07 -4.52575e-05
0.00247609 -0.000769674 -2.0434e-06
-0.000769674 0.000231921 2.05839e-06
-2.0434e-06 2.05839e-06 -9.54467e-07
0.002617 -0.000935418 2.00218e-06
-0.000935418 0.00048394 -9.49679e-07
2.00218e-06 -9.49679e-07 7.12987e-05
0.00242387 -0.000913419 -2.86193e-06
-0.000913419 0.000168646 3.19372e-06
-2.86193e-06 3.19372e-06 -9.48308e-05
0.000445317 -0.000428297 -1.1283e-05
-0.000428297 -0.000132269 -4.84706e-06
-1.1283e-05 -4.84706e-06 -0.000625503
0.000632178 -0.000444119 -1.6635e-05
-0.000444119 0.000113285 -1.19165e-05
-1.6635e-05 -1.19165e-05 -0.000434776
0.000330604 -0.000261164 1.1621e-06
-0.000261164 8.94631e-05 4.13264e-06
1.1621e-06 4.13264e-06 -0.000316268
0.00235177 -9.3642e-05 3.87552e-06
-9.3642e-05 6.52087e-05 -1.04503e-07
3.87552e-06 -1.04503e-07 2.15888e-05
0.00221622 -0.00029411 2.06496e-06
-0.00029411 -2.54131e-05 -5.86155e-07
2.06496e-06 -5.86155e-07 -0.000103156
0.00227851 -0.000170305 -3.22728e-07
-0.000170305 8.44508e-06 1.10449e-07
-3.22728e-07 1.10449e-07 2.31993e-05
0.00236328 -0.000401481 -1.41364e-07
-0.000401481 6.16791e-05 -3.19848e-08
-1.41364e-07 -3.19848e-08 1.55765e-05
0.00112425 -0.000560999 -2.2482e-06
-0.000560999 0.000136797 -1.05268e-06
-2.2482e-06 -1.05268e-06 -0.000389962
0.00257119 -0.00117286 2.20915e-06
-0.00117286 0.000709607 -3.05404e-07
2.20915e-06 -3.05404e-07 3.92449e-06
0.0024971 -0.00105595 1.55695e-06
-0.00105595 0.000436025 1.92154e-06
1.55695e-06 1.92154e-06 -0.000109129
0.00244253 -0.000663185 -3.03633e-07
-0.000663185 0.000158363 2.68536e-07
-3.03633e-07 2.68536e-07 -1.55109e-07
0.00253215 -0.000566299 9.81966e-08
-0.000566299 5.87819e-05 3.71793e-08
9.81966e-08 3.71793e-08 2.77017e-05
0.00265357 -0.000961789 -6.65141e-07
-0.000961789 0.000456608 -1.60722e-07
-6.65141e-07 -1.60722e-07 7.50161e-05
0.00256478 -0.000818657 -7.40485e-07
-0.000818657 0.000175553 1.53571e-07
-7.40485e-07 1.53571e-07 1.68005e-05
0.0025829 -0.000955675 1.4623e-06
-0.000955675 0.000193028 -2.41749e-07
1.4623e-06 -2.41749e-07 -1.65852e-05
0.00165394 -0.00082458 -2.47492e-06
-0.00082458 0.000599918 -1.7594e-06
-2.47492e-06 -1.7594e-06 -0.000104554
0.001743 -0.00085297 -1.55705e-06
-0.00085297 0.000797873 1.34717e-06
-1.55705e-06 1.34717e-06 6.17015e-05
0.000497176 -0.000157005 1.52335e-06
-0.000157005 0.000126351 -7.40418e-07
1.52335e-06 -7.40418e-07 -0.000202164
0.000288539 -0.000272775 2.69653e-06
-0.000272775 1.27057e-05 -6.39011e-06
2.69653e-06 -6.39011e-06 -0.000457043
0.00221137 -9.75292e-05 4.97956e-06
-9.75292e-05 -3.45719e-05 -3.38221e-07
4.97956e-06 -3.38221e-07 -1.43356e-05
0.00231579 -0.000282 3.78873e-06
-0.000282 1.93988e-05 -1.02934e-06
3.78873e-06 -1.02934e-06 1.03364e-05
0.00235419 -0.000181436 1.302e-06
-0.000181436 -3.33953e-05 -3.43966e-07
1.302e-06 -3.43966e-07 2.50159e-05
0.00249077 -0.00044902 -1.41182e-06
-0.00044902 -2.82521e-05 7.108e-07
-1.41182e-06 7.108e-07 1.74372e-05
0.00246159 -0.000690319 -7.00783e-07
-0.000690319 5.70328e-05 2.62951e-07
-7.00783e-07 2.62951e-07 -3.61762e-05
0.00260658 -0.000610568 1.23977e-06
-0.000610568 -1.07719e-07 -1.70334e-08
1.23977e-06 -1.70334e-08 -3.76511e-06
0.00185068 -0.00112089 -4.14659e-06
-0.00112089 0.00047427 5.33184e-06
-4.14659e-06 5.33184e-06 -0.000297765
0.00268663 -0.000888132 2.02648e-06
-0.000888132 0.000149877 1.31502e-07
2.02648e-06 1.31502e-07 3.5227e-05
0.0025084 -0.00124592 5.90966e-06
-0.00124592 0.000626274 3.02535e-06
5.90966e-06 3.02535e-06 -9.42487e-05
0.00284511 -0.00110246 1.48282e-05
-0.00110246 0.000636929 -2.92623e-06
1.48282e-05 -2.92623e-06 0.000106461
0.00274538 -0.00100325 4.33764e-06
-0.00100325 0.000447083 -2.02232e-06
4.33764e-06 -2.02232e-06 9.6996e-05
0.00265318 -0.0010236 2.66774e-06
-0.0010236 0.000177339 -2.30959e-06
2.66774e-06 -2.30959e-06 -4.35833e-05
-7.22839e-05 -0.00029097 1.11146e-05
-0.00029097 -0.000343701 -7.97016e-06
1.11146e-05 -7.97016e-06 -0.000647169
-0.00128903 -1.21554e-05 -4.44016e-06
-1.21554e-05 -0.000961109 5.33582e-07
-4.44016e-06 5.33582e-07 -0.00146935
0.00180673 -0.00115409 2.11913e-05
-0.00115409 0.000709935 6.41927e-06
2.11913e-05 6.41927e-06 -0.000140891
0.00409313 -0.000910421 1.50977e-05
-0.000910421 0.00247827 1.6873e-05
1.50977e-05 1.6873e-05 0.00183108
0.00225313 -0.00111279 -1.5267e-06
-0.00111279 0.00114837 1.39003e-05
-1.5267e-06 1.39003e-05 0.000259966
-9.61131e-05 8.65405e-05 -9.51529e-06
8.65405e-05 -0.00034725 -2.02385e-05
-9.51529e-06 -2.02385e-05 -0.000472516
0.0024861 0.000638479 -3.83697e-06
0.000638479 0.000249403 -1.50156e-06
-3.83697e-06 -1.50156e-06 2.5489e-05
0.00106031 0.000180278 1.83517e-06
0.000180278 0.000393915 -4.3122e-06
1.83517e-06 -4.3122e-06 5.24122e-05
0.00133178 0.000510636 -1.71142e-05
0.000510636 0.000431448 1.92233e-05
-1.71142e-05 1.92233e-05 8.90664e-05
0.0023123 0.00036214 4.78854e-07
0.00036214 0.0011092 1.42942e-05
4.78854e-07 1.42942e-05 0.000739006
0.00239265 0.000820227 1.31095e-06
0.000820227 0.000317451 1.81338e-06
1.31095e-06 1.81338e-06 -5.51344e-05
0.00251252 0.000782887 -1.88055e-06
0.000782887 0.00023633 -1.52875e-06
-1.88055e-06 -1.52875e-06 -6.66942e-06
0.00172354 0.00111451 1.27748e-05
0.00111451 0.000454842 1.92115e-05
1.27748e-05 1.92115e-05 -0.000372817
0.00256935 0.00125342 2.27615e-06
0.00125342 0.00064419 5.44425e-06
2.27615e-06 5.44425e-06 -9.29278e-05
0.00270597 0.00100254 5.04425e-06
0.00100254 0.000545204 1.9562e-06
5.04425e-06 1.9562e-06 0.000103568
0.0030886 0.000944018 1.28462e-05
0.000944018 0.000702251 1.28248e-05
1.28462e-05 1.28248e-05 0.000281602
0.00048986 0.000105279 -3.92215e-06
0.000105279 3.29431e-05 4.98167e-07
-3.92215e-06 4.98167e-07 -5.83699e-05
0.000564975 0.000226693 -1.46144e-06
0.000226693 0.000202286 -1.17949e-06
-1.46144e-06 -1.17949e-06 -0.000156816
0.00110981 0.000719841 9.2047e-06
0.000719841 0.000348318 -4.73051e-06
9.2047e-06 -4.73051e-06 -0.000276864
0.00109016 0.000279398 -4.36738e-06
0.000279398 0.000415902 -3.75103e-06
-4.36738e-06 -3.75103e-06 5.70431e-05
0.000695356 0.000440647 -2.7986e-06
0.000440647 -5.03001e-05 5.36603e-06
-2.7986e-06 5.36603e-06 -0.000504282
0.00249091 0.000656478 -4.9068e-07
0.000656478 0.000147643 -4.3394e-07
-4.9068e-07 -4.3394e-07 1.02263e-06
0.00254758 0.00090966 4.99869e-07
0.00090966 0.000335511 2.25766e-07
4.99869e-07 2.25766e-07 -1.26423e-05
0.00258801 0.000860393 1.1522e-06
0.000860393 0.000215555 4.95999e-07
1.1522e-06 4.95999e-07 -8.19252e-06
0.00263693 0.00145552 2.17217e-06
0.00145552 0.0010847 7.12662e-08
2.17217e-06 7.12662e-08 0.000128898
0.00292345 0.00104548 3.28837e-06
0.00104548 0.000527991 1.78375e-07
3.28837e-06 1.78375e-07 0.000110781
0.00290525 0.00138833 -6.68086e-06
0.00138833 0.000805446 1.02247e-06
-6.68086e-06 1.02247e-06 4.90112e-05
0.000967522 0.000224328 -2.30199e-07
0.000224328 0.000421215 9.13734e-06
-2.30199e-07 9.13734e-06 0.000158859
0.00231624 0.000642681 1.016e-05
0.000642681 0.00139433 8.74264e-06
1.016e-05 8.74264e-06 0.000918144
0.0016304 0.00105085 -2.93844e-06
0.00105085 0.000742092 -5.08579e-06
-2.93844e-06 -5.08579e-06 -5.30688e-05
0.00134975 0.000350875 1.16447e-05
0.000350875 0.000290265 -7.24225e-06
1.16447e-05 -7.24225e-06 -4.50112e-05
0.00344627 0.000967274 3.50393e-07
0.000967274 0.00149974 4.47477e-06
3.50393e-07 4.47477e-06 0.00089278
0.00258749 0.000708605 -2.22373e-06
0.000708605 7.86407e-05 -7.76519e-07
-2.22373e-06 -7.76519e-07 -1.22651e-05
0.00266981 0.000990045 -2.78872e-06
0.000990045 0.000359597 2.42088e-06
-2.78872e-06 2.42088e-06 8.32249e-06
0.00267412 0.000983929 -5.0357e-07
0.000983929 0.000214443 1.14232e-06
-5.0357e-07 1.14232e-06 -1.04242e-06
0.00195683 0.00147225 1.21547e-05
0.00147225 0.000720622 -1.93578e-06
1.21547e-05 -1.93578e-06 -0.000246971
0.00267096 0.00132134 1.66351e-05
0.00132134 0.000505383 2.51175e-07
1.66351e-05 2.51175e-07 -0.000159532
0.000646822 0.000159182 3.47457e-07
0.000159182 0.000217948 -4.94358e-07
3.47457e-07 -4.94358e-07 2.20653e-06
-5.75665e-05 0.000272721 -8.63785e-06
0.000272721 -0.000145502 -4.05542e-06
-8.63785e-06 -4.05542e-06 -0.000481755
-0.000916971 0.000111501 1.04741e-06
0.000111501 -0.000635935 -2.63502e-06
1.04741e-06 -2.63502e-06 -0.00095739
0.00224758 0.00038969 -1.65944e-05
0.00038969 0.00150385 -3.34446e-07
-1.65944e-05 -3.34446e-07 0.00114411
0.00170425 0.000314386 -7.1109e-06
0.000314386 0.001051 -2.35629e-06
-7.1109e-06 -2.35629e-06 0.000783146
0.000611932 0.000126332 -5.10471e-08
0.000126332 0.000205448 1.44359e-06
-5.10471e-08 1.44359e-06 8.09959e-05
0.000549526 7.51893e-05 -2.09627e-06
7.51893e-05 0.00015898 -3.46073e-07
-2.09627e-06 -3.46073e-07 2.26305e-05
0.00166856 3.50795e-05 1.72003e-06
3.50795e-05 0.000848938 7.02565e-06
1.72003e-06 7.02565e-06 0.00080269
0.000233802 8.17892e-05 7.0074e-06
8.17892e-05 -6.01762e-05 -7.77129e-06
7.0074e-06 -7.77129e-06 -0.000218666
0.00181866 2.53543e-05 -2.09693e-05
2.53543e-05 0.000942373 -2.66586e-06
-2.09693e-05 -2.66586e-06 0.000893473
0.000754541 3.36298e-07 7.21466e-05
3.36298e-07 0.00022721 1.53601e-05
7.21466e-05 1.53601e-05 0.000222676
0.001989 5.84587e-05 -4.26865e-05
5.84587e-05 0.00105481 -1.3019e-05
-4.26865e-05 -1.3019e-05 0.000993684
0.00269905 -7.229e-05 9.22703e-05
-7.229e-05 0.00154803 2.08486e-06
9.22703e-05 2.08486e-06 0.00153218
0.00465603 -0.000169064 -7.92323e-05
-0.000169064 0.00287971 -1.29155e-05
-7.92323e-05 -1.29155e-05 0.00285548
0.000771612 7.95788e-06 4.37731e-06
7.95788e-06 0.000241412 -9.38074e-06
4.37731e-06 -9.38074e-06 0.000146036
0.000207853 -0.000134734 9.11466e-07
-0.000134734 -0.000133001 7.44201e-07
9.11466e-07 7.44201e-07 -0.000246351
0.00492386 0.000204883 5.87496e-05
0.000204883 0.003089 -1.5372e-05
5.87496e-05 -1.5372e-05 0.00304512
0.0062183 7.76761e-05 -5.57099e-06
7.76761e-05 0.00393466 3.58573e-06
-5.57099e-06 3.58573e-06 0.0039207
0.000864294 -0.000244985 -2.5153e-05
-0.000244985 0.000248099 2.23572e-05
-2.5153e-05 2.23572e-05 8.24236e-05
0.00870084 -1.82686e-05 -0.000353146
-1.82686e-05 0.00553271 5.26238e-05
-0.000353146 5.26238e-05 0.0055344
0.00244855 0.000510699 -4.44264e-06
0.000510699 0.000176948 -1.43784e-06
-4.44264e-06 -1.43784e-06 2.58569e-05
0.00244644 0.000282748 -4.53277e-06
0.000282748 0.000138192 -9.41034e-07
-4.53277e-06 -9.41034e-07 7.34285e-05
0.00228431 0.000369487 -3.74209e-06
0.000369487 2.75166e-06 -2.08161e-07
-3.74209e-06 -2.08161e-07 -3.5369e-05
0.00223084 0.00017721 -3.19165e-06
0.00017721 -5.70457e-05 -4.19155e-07
-3.19165e-06 -4.19155e-07 -2.38731e-05
0.00244951 8.72508e-05 -4.90039e-06
8.72508e-05 0.000123715 -2.50945e-07
-4.90039e-06 -2.50945e-07 9.32047e-05
0.00157984 6.90115e-06 -4.82419e-06
6.90115e-06 -5.95437e-05 -4.01255e-07
-4.82419e-06 -4.01255e-07 -0.000171438
0.00243465 -5.14221e-06 -7.86134e-09
-5.14221e-06 0.000115317 6.11456e-08
-7.86134e-09 6.11456e-08 8.56275e-05
0.00219851 7.7773e-05 -4.15767e-07
7.7773e-05 -6.60436e-05 -5.38529e-08
-4.15767e-07 -5.38529e-08 -3.1036e-05
0.00223634 0.000262798 -9.99769e-08
0.000262798 -2.90549e-05 6.84971e-08
-9.99769e-08 6.84971e-08 -3.34012e-05
0.00235378 0.000186717 1.82107e-07
0.000186717 -8.61114e-05 5.41949e-08
1.82107e-07 5.41949e-08 -1.30883e-05
0.00241644 0.000516082 1.0876e-07
0.000516082 6.68578e-05 -1.31869e-07
1.0876e-07 -1.31869e-07 -5.24055e-06
0.00243905 0.000394922 2.40146e-07
0.000394922 -6.69022e-05 3.77583e-07
2.40146e-07 3.77583e-07 -2.75685e-05
0.00219432 -1.1351e-05 3.24182e-06
-1.1351e-05 -6.16127e-05 -1.05512e-07
3.24182e-06 -1.05512e-07 -2.82058e-05
0.00238491 7.86671e-05 2.52015e-07
7.86671e-05 -6.3643e-05 -2.15967e-07
2.52015e-07 -2.15967e-07 2.32894e-05
0.00237804 0.000265896 -9.03543e-07
0.000265896 -7.39518e-05 -3.93133e-07
-9.03543e-07 -3.93133e-07 -1.80129e-05
0.00249244 0.0001969 -7.21665e-08
0.0001969 -0.000102005 -1.63308e-07
-7.21665e-08 -1.63308e-07 2.08831e-05
0.00252171 0.000538914 -2.61326e-07
0.000538914 -3.58932e-06 -4.07985e-07
-2.61326e-07 -4.07985e-07 -1.25713e-05
0.00251045 0.000386665 7.39206e-07
0.000386665 -0.000132547 4.75897e-08
7.39206e-07 4.75897e-08 -5.23437e-05
0.00243275 -9.05988e-05 -1.25332e-06
-9.05988e-05 0.000122808 4.0986e-08
-1.25332e-06 4.0986e-08 8.73549e-05
0.00218885 -0.000297712 2.13649e-06
-0.000297712 -4.23467e-05 1.03649e-07
2.13649e-06 1.03649e-07 -0.000119362
0.00223635 -0.000164363 -3.10214e-06
-0.000164363 -3.93291e-05 2.55005e-07
-3.10214e-06 2.55005e-07 -1.52164e-05
0.00242135 -0.000396278 -5.31633e-06
-0.000396278 0.000109713 1.5549e-06
-5.31633e-06 1.5549e-06 6.05996e-05
0.000909382 -0.000556297 -1.2978e-05
-0.000556297 -8.25986e-06 2.35592e-06
-1.2978e-05 2.35592e-06 -0.000540777
0.00291121 -0.00121435 -9.88074e-07
-0.00121435 0.000961369 2.59738e-07
-9.88074e-07 2.59738e-07 0.000243098
0.00223581 -0.00102907 -1.45701e-06
-0.00102907 0.000264614 1.2421e-06
-1.45701e-06 1.2421e-06 -0.000283144
0.00251643 -0.000664654 -4.82327e-06
-0.000664654 0.000225222 2.07694e-06
-4.82327e-06 2.07694e-06 5.81831e-05
0.00249729 -0.00056869 4.63604e-07
-0.00056869 2.22939e-05 -6.15494e-07
4.63604e-07 -6.15494e-07 -3.57067e-06
0.00256797 -0.000819911 -2.00889e-06
-0.000819911 0.000174929 1.5807e-06
-2.00889e-06 1.5807e-06 1.57968e-05
0.00259341 -0.000959702 -6.00004e-06
-0.000959702 0.000409379 3.52854e-06
-6.00004e-06 3.52854e-06 2.5576e-05
0.00257815 -0.000967176 -3.33638e-06
-0.000967176 0.000177481 4.7169e-07
-3.33638e-06 4.7169e-07 -2.91494e-05
0.00167065 -0.00083898 -5.11469e-06
-0.00083898 0.000609019 -1.21002e-05
-5.11469e-06 -1.21002e-05 -9.92209e-05
0.00200657 -0.000862489 -2.83441e-05
-0.000862489 0.000945298 -1.50401e-05
-2.83441e-05 -1.50401e-05 0.00020784
0.00215813 -0.00014881 4.67559e-07
-0.00014881 0.0012101 6.40381e-06
4.67559e-07 6.40381e-06 0.000889269
0.000246369 -0.000184799 -1.13183e-05
-0.000184799 -0.000104508 -5.02729e-06
-1.13183e-05 -5.02729e-06 -0.000507859
0.00221179 -9.69682e-05 -1.06375e-07
-9.69682e-05 -3.52121e-05 2.4874e-08
-1.06375e-07 2.4874e-08 -1.51122e-05
0.00234946 -0.000284549 1.17692e-06
-0.000284549 4.48377e-05 -2.28794e-07
1.17692e-06 -2.28794e-07 3.47582e-05
0.00233003 -0.000178875 1.27046e-08
-0.000178875 -5.48004e-05 -6.1597e-08
1.27046e-08 -6.1597e-08 7.74049e-06
0.00245549 -0.000448037 -3.41878e-07
-0.000448037 -4.39607e-05 3.26798e-07
-3.41878e-07 3.26798e-07 -7.3481e-06
0.00227975 -0.00111218 -1.43544e-06
-0.00111218 0.000743583 -2.56912e-07
-1.43544e-06 -2.56912e-07 -1.50791e-05
0.00241982 -0.00124156 2.61714e-06
-0.00124156 0.000551407 5.04084e-07
2.61714e-06 5.04084e-07 -0.000170936
0.00281171 -0.00111179 -5.86178e-07
-0.00111179 0.000614144 6.12757e-07
-5.86178e-07 6.12757e-07 7.44605e-05
0.0025154 -0.000693094 -9.52874e-07
-0.000693094 0.000102419 2.64744e-07
-9.52874e-07 2.64744e-07 1.40268e-06
0.00258976 -0.000608311 6.55129e-07
-0.000608311 -1.04938e-05 -6.10533e-07
6.55129e-07 -6.10533e-07 -3.19099e-06
0.00275729 -0.00101691 -1.97123e-06
-0.00101691 0.000462305 7.61323e-07
-1.97123e-06 7.61323e-07 0.000106815
0.00269131 -0.000891865 -1.1433e-06
-0.000891865 0.000145645 6.20756e-07
-1.1433e-06 6.20756e-07 2.96098e-05
0.00266754 -0.00101617 7.80219e-06
-0.00101617 0.00018564 -2.80217e-06
7.80219e-06 -2.80217e-06 -2.58405e-05
0.00221368 -0.00122644 -6.06356e-07
-0.00122644 0.000987835 -5.3167e-07
-6.06356e-07 -5.3167e-07 9.34259e-05
0.00228531 -0.00110881 -4.98256e-06
-0.00110881 0.00116039 -1.25351e-06
-4.98256e-06 -1.25351e-06 0.000282249
0.00117954 -0.000657895 -6.82701e-06
-0.000657895 0.000631688 3.45794e-06
-6.82701e-06 3.45794e-06 -3.19257e-06
7.17252e-05 -0.000206715 -5.66323e-06
-0.000206715 -0.00018966 2.24958e-06
-5.66323e-06 2.24958e-06 -0.000511157
0.000286007 -3.19334e-05 -4.59587e-06
-3.19334e-05 4.45461e-05 -2.41005e-07
-4.59587e-06 -2.41005e-07 -0.000442392
0.00235817 -0.000112507 -7.15273e-07
-0.000112507 -7.38552e-05 -2.0448e-08
-7.15273e-07 -2.0448e-08 9.74718e-06
0.00241453 -0.000272647 -1.42971e-06
-0.000272647 -8.63769e-05 -2.10875e-07
-1.42971e-06 -2.10875e-07 -6.80051e-06
0.00262414 -0.000545191 4.14556e-08
-0.000545191 -0.000104106 3.67637e-08
4.14556e-08 3.67637e-08 -5.24132e-06
0.00261116 -0.000743994 1.29509e-06
-0.000743994 2.06739e-05 5.88254e-07
1.29509e-06 5.88254e-07 -1.70664e-05
0.00263407 -0.00143051 4.6838e-06
-0.00143051 0.000997484 -1.96804e-06
4.6838e-06 -1.96804e-06 9.80145e-05
0.00281874 -0.00102196 4.78137e-07
-0.00102196 0.000117692 -1.04496e-06
4.78137e-07 -1.04496e-06 -2.08901e-05
0.00192135 -0.00123076 4.01569e-06
-0.00123076 0.000262644 4.67114e-06
4.01569e-06 4.67114e-06 -0.000463615
0.00297768 -0.00118383 1.92026e-06
-0.00118383 0.000699898 -7.87615e-07
1.92026e-06 -7.87615e-07 0.000162106
0.00268148 -0.00104922 -8.9829e-06
-0.00104922 0.000321864 -2.70297e-06
-8.9829e-06 -2.70297e-06 1.49534e-05
-0.000198058 -0.000189121 -2.08193e-06
-0.000189121 -0.000279441 6.4861e-06
-2.08193e-06 6.4861e-06 -0.000569876
0.0034794 -0.000502975 -3.09083e-06
-0.000502975 0.00216336 1.54149e-07
-3.09083e-06 1.54149e-07 0.0016712
-0.00015641 -0.000333746 -1.19084e-05
-0.000333746 -0.000227118 9.15214e-06
-1.19084e-05 9.15214e-06 -0.000706879
0.0031059 -0.00146808 -1.05696e-05
-0.00146808 0.0015651 8.14544e-06
-1.05696e-05 8.14544e-06 0.000574892
0.00389504 -0.000977681 1.42575e-06
-0.000977681 0.00219775 9.65064e-06
1.42575e-06 9.65064e-06 0.00151658
0.00216574 -0.00115285 -1.91059e-05
-0.00115285 0.00103652 1.8541e-05
-1.91059e-05 1.8541e-05 0.000124131
0.000271133 0.000109672 -1.48645e-05
0.000109672 -0.000107579 -1.75477e-05
-1.48645e-05 -1.75477e-05 -0.000193821
0.00030971 0.000288362 -3.23767e-06
0.000288362 3.84414e-05 -1.50818e-05
-3.23767e-06 -1.50818e-05 -0.000327032
0.00246669 0.000653003 -3.84637e-06
0.000653003 0.000135656 -2.08105e-06
-3.84637e-06 -2.08105e-06 -9.63569e-06
-0.000399535 -3.42916e-05 -8.92056e-06
-3.42916e-05 -0.000462902 -3.33266e-06
-8.92056e-06 -3.33266e-06 -0.000872581
0.00339262 0.000848262 1.63113e-05
0.000848262 0.00177765 9.09981e-06
1.63113e-05 9.09981e-06 0.00113477
0.000203234 0.000507854 -1.28157e-05
0.000507854 -0.000367267 -1.83162e-06
-1.28157e-05 -1.83162e-06 -0.000880453
0.00256164 0.000907916 -6.91628e-08
0.000907916 0.000350727 -2.03007e-06
-6.91628e-08 -2.03007e-06 4.37067e-06
0.00255914 0.000861139 1.69628e-06
0.000861139 0.000200875 -1.06077e-06
1.69628e-06 -1.06077e-06 -2.25927e-05
0.00319403 0.00151813 4.03872e-06
0.00151813 0.00147141 7.40766e-06
4.03872e-06 7.40766e-06 0.000502501
0.00373987 0.00148286 -7.82165e-06
0.00148286 0.001383 4.15492e-06
-7.82165e-06 4.15492e-06 0.000609073
0.00290826 0.00104799 3.01551e-06
0.00104799 0.000482217 -9.41125e-07
3.01551e-06 -9.41125e-07 6.1896e-05
0.000923666 0.000218583 -3.67812e-08
0.000218583 0.000407001 -2.14696e-07
-3.67812e-08 -2.14696e-07 0.000133321
0.00101293 0.000411677 -4.93554e-06
0.000411677 0.000558758 -3.54828e-07
-4.93554e-06 -3.54828e-07 9.35032e-05
0.00181533 0.00110416 9.46174e-07
0.00110416 0.000829555 -4.46858e-07
9.46174e-07 -4.46858e-07 -9.1633e-06
0.00102447 0.000311778 -1.51758e-06
0.000311778 8.92814e-05 -8.64116e-07
-1.51758e-06 -8.64116e-07 -0.000258001
0.00157193 0.000789738 -5.48238e-07
0.000789738 0.000207837 -4.913e-06
-5.48238e-07 -4.913e-06 -0.00035214
0.00258584 0.000707333 -1.96782e-06
0.000707333 9.10327e-05 -1.12736e-06
-1.96782e-06 -1.12736e-06 -1.6696e-06
0.00269357 0.000997062 2.54118e-06
0.000997062 0.000351648 4.75299e-07
2.54118e-06 4.75299e-07 -1.75492e-06
0.00275567 0.000990447 1.0833e-06
0.000990447 0.000232091 1.16381e-06
1.0833e-06 1.16381e-06 2.4085e-05
0.00256362 0.0015863 2.81148e-06
0.0015863 0.00107217 1.91216e-06
2.81148e-06 1.91216e-06 7.52718e-05
0.00266231 0.00134772 -2.08593e-06
0.00134772 0.000548547 -4.07202e-06
-2.08593e-06 -4.07202e-06 -0.000139968
0.00140626 0.000598626 5.9611e-06
0.000598626 0.000772855 2.87941e-06
5.9611e-06 2.87941e-06 0.000370836
-0.00160808 0.000452288 4.00496e-06
0.000452288 -0.00116001 -1.05877e-05
4.00496e-06 -1.05877e-05 -0.00165971
0.0023646 0.00130033 -4.91801e-06
0.00130033 0.00113144 -3.01455e-06
-4.91801e-06 -3.01455e-06 0.000261223
-0.0022595 0.000642241 1.96603e-05
0.000642241 -0.00204414 -7.38387e-07
1.96603e-05 -7.38387e-07 -0.0026287
0.00266165 0.0012198 2.69042e-06
0.0012198 0.000805502 -1.26492e-06
2.69042e-06 -1.26492e-06 0.000110647
0.00274842 0.000833772 -1.56478e-06
0.000833772 2.0503e-05 3.55403e-07
-1.56478e-06 3.55403e-07 2.16643e-06
0.00280163 0.00107269 9.0067e-06
0.00107269 0.000343428 -1.17066e-06
9.0067e-06 -1.17066e-06 -4.84267e-05
0.00245381 0.000936294 7.17114e-06
0.000936294 -4.9097e-05 1.93585e-06
7.17114e-06 1.93585e-06 -0.000266913
0.00301866 0.00167374 2.56415e-05
0.00167374 0.00122893 9.25042e-06
2.56415e-05 9.25042e-06 0.000245203
0.00287012 0.0015922 1.4044e-05
0.0015922 0.000793202 3.59163e-06
1.4044e-05 3.59163e-06 -3.33906e-05
0.000430061 0.000118761 8.1526e-06
0.000118761 7.1945e-05 -9.93299e-06
8.1526e-06 -9.93299e-06 -0.000135908
0.000741537 0.000299858 -2.2677e-06
0.000299858 0.00035801 6.68956e-07
-2.2677e-06 6.68956e-07 3.32039e-05
-0.000552228 0.000134086 -6.91548e-06
0.000134086 -0.000489695 -3.09887e-05
-6.91548e-06 -3.09887e-05 -0.000704367
-0.0014963 -4.52651e-05 1.25985e-05
-4.52651e-05 -0.00107147 -2.28312e-06
1.25985e-05 -2.28312e-06 -0.00133483
0.000595654 0.000146042 -2.95867e-06
0.000146042 0.000290995 3.87419e-07
-2.95867e-06 3.87419e-07 5.99679e-05
-0.000211575 0.000114498 6.37115e-06
0.000114498 -0.000165004 9.72496e-07
6.37115e-06 9.72496e-07 -0.00044628
0.000904666 0.000280768 -1.61472e-06
0.000280768 0.000599632 -3.18188e-06
-1.61472e-06 -3.18188e-06 0.000330372
0.000390214 -5.34458e-06 -1.4569e-05
-5.34458e-06 0.000221177 8.33163e-06
-1.4569e-05 8.33163e-06 -4.75883e-05
0.000952339 0.000165813 -4.29904e-06
0.000165813 0.000484261 -3.49551e-06
-4.29904e-06 -3.49551e-06 0.000303218
0.000485198 0.000108919 9.82678e-07
0.000108919 0.000110728 2.58845e-06
9.82678e-07 2.58845e-06 -5.42176e-06
0.000405365 5.25955e-05 -3.21303e-06
5.25955e-05 5.58023e-05 2.91378e-07
-3.21303e-06 2.91378e-07 -5.7821e-05
0.0015228 9.30447e-06 1.59583e-06
9.30447e-06 0.000751336 5.16333e-06
1.59583e-06 5.16333e-06 0.00071322
-6.94738e-05 -7.65743e-05 1.01134e-05
-7.65743e-05 -0.00024555 -2.99268e-06
1.01134e-05 -2.99268e-06 -0.000375482
0.00159936 2.19757e-05 -1.79972e-05
2.19757e-05 0.000799543 -2.80382e-06
-1.79972e-05 -2.80382e-06 0.000759534
0.0006997 -2.75034e-07 5.7052e-05
-2.75034e-07 0.000191935 1.35352e-05
5.7052e-05 1.35352e-05 0.000189774
0.00171564 2.98184e-05 -2.80889e-05
2.98184e-05 0.000870769 -1.28723e-05
-2.80889e-05 -1.28723e-05 0.000827318
0.000756733 -2.45946e-05 3.13962e-05
-2.45946e-05 0.000231146 5.33663e-06
3.13962e-05 5.33663e-06 0.000217393
0.00395663 -0.000184322 2.13835e-05
-0.000184322 0.00240031 -7.98094e-06
2.13835e-05 -7.98094e-06 0.00237222
0.000403593 0.000117044 -2.78501e-06
0.000117044 5.8203e-05 -1.01543e-05
-2.78501e-06 -1.01543e-05 -4.80344e-05
0.000450532 -6.71661e-05 -8.29798e-06
-6.71661e-05 3.58765e-05 -9.61666e-07
-8.29798e-06 -9.61666e-07 -6.74556e-05
0.00419265 0.000266015 -4.2642e-05
0.000266015 0.00261287 -1.7349e-05
-4.2642e-05 -1.7349e-05 0.00255905
0.000606824 -0.000181062 -1.75658e-05
-0.000181062 0.000125156 1.4284e-05
-1.75658e-05 1.4284e-05 2.39421e-06
0.00481963 0.00017516 -2.91274e-05
0.00017516 0.00302696 -9.15578e-07
-2.91274e-05 -9.15578e-07 0.00299125
0.00681704 8.22549e-05 -0.000269546
8.22549e-05 0.00437513 5.55853e-05
-0.000269546 5.55853e-05 0.00434334
0.00242553 0.00051581 -3.76882e-06
0.00051581 7.37687e-05 -1.27121e-06
-3.76882e-06 -1.27121e-06 2.7367e-06
0.00223568 0.000261913 -4.00566e-06
0.000261913 -3.06125e-05 -5.74414e-07
-4.00566e-06 -5.74414e-07 -3.47538e-05
0.00244728 0.000386014 8.95484e-07
0.000386014 -6.74867e-05 8.57395e-07
8.95484e-07 8.57395e-07 -2.21579e-05
0.00235043 0.000189375 1.42633e-06
0.000189375 -9.50978e-05 2.90183e-07
1.42633e-06 2.90183e-07 -1.44407e-05
0.00219983 7.06165e-05 -3.3681e-06
7.06165e-05 -6.24469e-05 -3.63447e-08
-3.3681e-06 -3.63447e-08 -2.91205e-05
0.00243149 -5.80087e-06 -4.49119e-06
-5.80087e-06 0.000114951 9.64988e-08
-4.49119e-06 9.64988e-08 8.5261e-05
0.002199 -1.27143e-05 2.27314e-07
-1.27143e-05 -5.32889e-05 -2.47311e-08
2.27314e-07 -2.47311e-08 -2.34077e-05
0.0023674 8.12014e-05 3.98483e-07
8.12014e-05 -7.08952e-05 3.52857e-08
3.98483e-07 3.52857e-08 1.09912e-05
0.00239367 0.000266082 -7.50279e-07
0.000266082 -5.67964e-05 -8.19314e-08
-7.50279e-07 -8.19314e-08 -3.58009e-06
0.00245749 0.000200156 5.80396e-07
0.000200156 -0.000130251 1.55522e-07
5.80396e-07 1.55522e-07 4.42921e-06
0.00253588 0.000542865 -2.70574e-07
0.000542865 7.56332e-06 3.47939e-08
-2.70574e-07 3.47939e-08 -5.15761e-06
0.00253939 0.000390765 1.74775e-06
0.000390765 -0.000113447 7.59957e-07
1.74775e-06 7.59957e-07 -2.12885e-05
0.00234256 -1.57665e-05 -1.11072e-06
-1.57665e-05 -8.36391e-05 -3.45668e-08
-1.11072e-06 -3.45668e-08 -1.72602e-06
0.0025046 9.91952e-05 -5.94492e-07
9.91952e-05 -0.000128353 -5.07927e-07
-5.94492e-07 -5.07927e-07 1.997e-05
0.00254611 0.000280736 2.57397e-07
0.000280736 -0.000112958 -1.38541e-07
2.57397e-07 -1.38541e-07 2.68216e-05
0.00265792 0.000551839 1.73153e-07
0.000551839 -0.000120587 3.81713e-07
1.73153e-07 3.81713e-07 -1.59075e-05
0.00221017 -9.65209e-05 -4.97096e-06
-9.65209e-05 -3.75129e-05 4.72471e-07
-4.97096e-06 4.72471e-07 -1.75391e-05
0.00237411 -0.000287353 -4.11477e-06
-0.000287353 6.46609e-05 1.04249e-06
-4.11477e-06 1.04249e-06 5.35162e-05
0.00230256 -0.000177297 7.79088e-07
-0.000177297 -7.86101e-05 -4.45001e-07
7.79088e-07 -4.45001e-07 -1.20495e-05
0.00242513 -0.000447523 -1.34372e-06
-0.000447523 -5.73651e-05 -3.26541e-07
-1.34372e-06 -3.26541e-07 -2.99641e-05
0.00271242 -0.00114103 4.14215e-06
-0.00114103 0.00103566 -6.70369e-06
4.14215e-06 -6.70369e-06 0.000272307
0.0023483 -0.00124852 6.42186e-06
-0.00124852 0.000477731 -7.68818e-07
6.42186e-06 -7.68818e-07 -0.000250657
0.00276341 -0.00112407 -1.28226e-05
-0.00112407 0.000583278 2.1452e-06
-1.28226e-05 2.1452e-06 3.16202e-05
0.00257136 -0.000695967 -2.64138e-06
-0.000695967 0.00014919 1.22811e-06
-2.64138e-06 1.22811e-06 4.10396e-05
0.00257408 -0.000606726 2.09246e-06
-0.000606726 -2.02025e-05 -7.45258e-07
2.09246e-06 -7.45258e-07 -1.94092e-06
0.00269735 -0.000894334 -4.79041e-06
-0.000894334 0.000144939 1.1304e-06
-4.79041e-06 1.1304e-06 2.7587e-05
0.00273954 -0.00102265 -4.83606e-06
-0.00102265 0.000460768 3.07516e-06
-4.83606e-06 3.07516e-06 0.000103134
0.00265568 -0.00100566 -7.35348e-07
-0.00100566 0.000175397 -7.13983e-07
-7.35348e-07 -7.13983e-07 -2.7148e-05
0.00245976 -0.00124842 -2.48236e-05
-0.00124842 0.00116488 -5.85757e-06
-2.48236e-05 -5.85757e-06 0.00026589
0.00211926 -0.00107693 1.42935e-05
-0.00107693 0.00105578 -1.7442e-05
1.42935e-05 -1.7442e-05 0.000210477
-2.33393e-05 -0.000401806 -1.65274e-05
-0.000401806 -0.000147928 -6.16128e-06
-1.65274e-05 -6.16128e-06 -0.000750395
0.000262242 -0.000119833 -5.36873e-06
-0.000119833 -3.39331e-05 2.14122e-06
-5.36873e-06 2.14122e-06 -0.000348611
0.00188914 -4.55006e-05 -1.98831e-06
-4.55006e-05 0.00102751 -1.88938e-06
-1.98831e-06 -1.88938e-06 0.00057414
0.00235204 -0.000120764 1.41292e-07
-0.000120764 -7.54475e-05 -8.03604e-08
1.41292e-07 -8.03604e-08 6.12837e-06
0.00241908 -0.000273884 1.72317e-06
-0.000273884 -8.49208e-05 -7.40287e-08
1.72317e-06 -7.40287e-08 -7.70578e-06
0.00259539 -0.000539155 -1.08755e-06
-0.000539155 -0.000104454 1.56495e-07
-1.08755e-06 1.56495e-07 -1.91012e-05
0.00274821 -0.00142279 -1.72651e-06
-0.00142279 0.00106452 -4.31291e-07
-1.72651e-06 -4.31291e-07 0.000173662
0.00201763 -0.00123861 5.38623e-06
-0.00123861 0.000317302 -5.79398e-07
5.38623e-06 -5.79398e-07 -0.000410477
0.00288974 -0.00118851 -1.74993e-06
-0.00118851 0.000645759 -5.17324e-07
-1.74993e-06 -5.17324e-07 9.41254e-05
0.00261426 -0.000733328 2.56011e-07
-0.000733328 3.12963e-05 -4.15885e-07
2.56011e-07 -4.15885e-07 -8.22321e-06
0.00270747 -0.00107189 5.49475e-06
-0.00107189 0.00032004 -2.81435e-06
5.49475e-06 -2.81435e-06 1.11405e-05
0.00281825 -0.00101366 -5.77571e-07
-0.00101366 0.000142224 -6.03361e-07
-5.77571e-07 -6.03361e-07 5.74387e-06
-0.000379805 -2.85082e-05 -3.94043e-06
-2.85082e-05 -0.000441767 -1.31301e-07
-3.94043e-06 -1.31301e-07 -0.000689045
0.00222135 -0.00130277 -2.77236e-07
-0.00130277 0.00102028 -1.22323e-06
-2.77236e-07 -1.22323e-06 8.94922e-05
0.00258089 -0.0012596 -4.94309e-06
-0.0012596 0.00129185 5.26415e-06
-4.94309e-06 5.26415e-06 0.000324558
0.0021465 -0.000798405 4.92083e-06
-0.000798405 0.0011703 3.02491e-06
4.92083e-06 3.02491e-06 0.000469225
0.00057873 -0.000362164 -8.15706e-07
-0.000362164 0.000195036 -2.5485e-07
-8.15706e-07 -2.5485e-07 -0.000285025
0.00154821 -0.000237314 -2.87535e-06
-0.000237314 0.000857742 2.26854e-06
-2.87535e-06 2.26854e-06 0.000387377
0.00244828 -0.00015453 -1.77044e-06
-0.00015453 -0.000147239 1.88518e-07
-1.77044e-06 1.88518e-07 -1.352e-05
0.00259968 -0.000360944 1.35579e-06
-0.000360944 -0.000189929 -6.23117e-08
1.35579e-06 -6.23117e-08 -1.22379e-05
0.00273579 -0.000682201 5.22458e-07
-0.000682201 -7.88182e-05 5.58991e-07
5.22458e-07 5.58991e-07 1.67317e-05
0.00276665 -0.000881029 5.40877e-07
-0.000881029 -2.69531e-06 7.92783e-07
5.40877e-07 7.92783e-07 5.64697e-06
0.00269559 -0.00148057 -3.25838e-06
-0.00148057 0.00106054 6.74795e-06
-3.25838e-06 6.74795e-06 0.000150631
0.00284053 -0.00116603 2.24788e-08
-0.00116603 0.000243732 -6.41866e-06
2.24788e-08 -6.41866e-06 -2.22671e-05
0.00297213 -0.00151231 -4.34379e-05
-0.00151231 0.00092198 1.15368e-05
-4.34379e-05 1.15368e-05 9.23003e-05
0.00268397 -0.00124999 -3.06477e-05
-0.00124999 0.000511885 3.23607e-07
-3.06477e-05 3.23607e-07 -2.44241e-05
-0.000928436 -1.11252e-05 -1.37023e-06
-1.11252e-05 -0.000834275 5.79517e-07
-1.37023e-06 5.79517e-07 -0.000994143
0.00147281 -0.000229446 -3.30538e-06
-0.000229446 0.000937161 6.27573e-06
-3.30538e-06 6.27573e-06 0.000498114
0.0032759 -0.000586579 -1.64945e-05
-0.000586579 0.0019965 8.9942e-06
-1.64945e-05 8.9942e-06 0.00153318
0.000366771 -0.00041694 -7.45774e-07
-0.00041694 5.30497e-05 -9.89641e-06
-7.45774e-07 -9.89641e-06 -0.000397227
0.00310912 -0.00143303 -2.32192e-05
-0.00143303 0.00154825 2.70261e-05
-2.32192e-05 2.70261e-05 0.000571179
0.00226958 -0.00115068 -2.4096e-05
-0.00115068 0.00116073 2.13234e-05
-2.4096e-05 2.13234e-05 0.000185234
8.80293e-05 0.000154261 1.72194e-06
0.000154261 -0.000103596 -8.40684e-06
1.72194e-06 -8.40684e-06 -0.000401669
0.000183877 0.000218502 -5.24766e-06
0.000218502 -3.53588e-05 -6.57324e-06
-5.24766e-06 -6.57324e-06 -0.000436112
0.00258573 0.000706162 -1.41527e-06
0.000706162 0.000104312 -1.25966e-06
-1.41527e-06 -1.25966e-06 9.80591e-06
0.000384035 0.000284038 -1.05423e-05
0.000284038 -0.000326177 1.07773e-05
-1.05423e-05 1.07773e-05 -0.000659966
0.00204516 0.00114952 9.36157e-06
0.00114952 0.00095614 3.08615e-06
9.36157e-06 3.08615e-06 8.55668e-05
0.000932409 0.00067493 -1.28627e-05
0.00067493 -0.000148934 -5.72189e-06
-1.28627e-05 -5.72189e-06 -0.000669833
0.00272055 0.001004 3.55583e-06
0.001004 0.000344582 -2.70044e-06
3.55583e-06 -2.70044e-06 -1.09068e-05
0.0028366 0.000995771 -3.89577e-06
0.000995771 0.00025109 -1.90769e-06
-3.89577e-06 -1.90769e-06 5.14142e-05
0.00289345 0.0016584 -8.47985e-06
0.0016584 0.00124657 6.77798e-07
-8.47985e-06 6.77798e-07 0.000233552
0.00257124 0.001356 -1.20464e-05
0.001356 0.000556696 -1.2664e-06
-1.20464e-05 -1.2664e-06 -0.000150954
0.00085384 0.000350437 3.375e-07
0.000350437 0.000424984 -5.31143e-07
3.375e-07 -5.31143e-07 3.71931e-05
0.00152022 0.000497982 -2.97221e-06
0.000497982 0.00080557 -9.36518e-06
-2.97221e-06 -9.36518e-06 0.000329193
0.00166365 0.00116823 -3.15564e-06
0.00116823 0.000706174 -1.86063e-06
-3.15564e-06 -1.86063e-06 -0.000129296
0.00177855 0.00064186 2.04975e-06
0.00064186 0.000354473 2.42567e-06
2.04975e-06 2.42567e-06 -9.26499e-05
0.00371425 0.00124752 -5.64463e-06
0.00124752 0.0015482 4.12165e-07
-5.64463e-06 4.12165e-07 0.000857044
0.00279145 0.0008453 -2.4327e-06
0.0008453 3.21303e-05 -4.6711e-07
-2.4327e-06 -4.6711e-07 6.29563e-06
0.00285171 0.00102651 2.81911e-06
0.00102651 0.000387478 -1.11705e-06
2.81911e-06 -1.11705e-06 2.54279e-05
0.00279547 0.00096017 5.22613e-07
0.00096017 0.0001976 2.5049e-06
5.22613e-07 2.5049e-06 -3.02628e-05
0.00278624 0.0016625 8.14296e-06
0.0016625 0.00107559 2.52495e-06
8.14296e-06 2.52495e-06 8.56899e-05
0.00292069 0.00169054 -5.57537e-06
0.00169054 0.000829934 2.04479e-06
-5.57537e-06 2.04479e-06 -5.56827e-05
-0.0018318 0.000165807 -1.06988e-05
0.000165807 -0.00131013 -2.84253e-06
-1.06988e-05 -2.84253e-06 -0.00161443
-0.00148924 0.000578426 4.75977e-06
0.000578426 -0.000708085 -1.18218e-05
4.75977e-06 -1.18218e-05 -0.00142526
0.00243965 0.00133725 1.1437e-05
0.00133725 0.000996584 1.32916e-06
1.1437e-05 1.32916e-06 0.000159808
0.00366201 0.0010004 7.45073e-06
0.0010004 0.00144881 -5.67575e-06
7.45073e-06 -5.67575e-06 0.000914228
0.00293302 0.000758279 4.62919e-06
0.000758279 -0.000235934 3.94323e-06
4.62919e-06 3.94323e-06 -9.68103e-06
0.00284817 0.00104699 8.10984e-06
0.00104699 4.78399e-05 3.07272e-06
8.10984e-06 3.07272e-06 -4.18451e-05
0.00313758 0.00137237 1.22015e-05
0.00137237 0.000601392 -3.4189e-06
1.22015e-05 -3.4189e-06 -1.84771e-05
0.00272048 0.00176372 1.77768e-05
0.00176372 0.000802606 3.91393e-06
1.77768e-05 3.91393e-06 -0.000207516
0.00213157 0.000351461 1.08599e-05
0.000351461 0.00132376 2.54193e-06
1.08599e-05 2.54193e-06 0.000956308
0.000162847 0.000265501 -4.86202e-06
0.000265501 3.58726e-05 3.14983e-06
-4.86202e-06 3.14983e-06 -0.000225646
-0.000429993 9.95998e-05 3.48591e-06
9.95998e-05 -0.000301223 -1.32486e-05
3.48591e-06 -1.32486e-05 -0.000473506
-0.000421103 1.77194e-05 6.62341e-06
1.77194e-05 -0.000399829 2.1558e-06
6.62341e-06 2.1558e-06 -0.000616064
-0.00302035 -4.38054e-06 4.3764e-06
-4.38054e-06 -0.0019016 -3.03054e-06
4.3764e-06 -3.03054e-06 -0.00221052
0.000744054 0.000105874 -1.35044e-06
0.000105874 0.000349143 -4.9428e-07
-1.35044e-06 -4.9428e-07 0.000163864
0.000733135 0.0002825 1.23012e-05
0.0002825 0.000537307 3.81358e-06
1.23012e-05 3.81358e-06 0.000267685
0.000722624 0.000114633 1.62977e-06
0.000114633 0.000479088 3.33662e-06
1.62977e-06 3.33662e-06 0.000171828
0.0017855 0.000259812 -9.15316e-06
0.000259812 0.000992938 -1.42558e-05
-9.15316e-06 -1.42558e-05 0.000853659
0.000588652 8.5106e-05 -7.19506e-06
8.5106e-05 0.000412441 -1.88651e-06
-7.19506e-06 -1.88651e-06 0.000118247
-0.000284227 7.65639e-05 -7.84194e-06
7.65639e-05 -0.000264978 5.5486e-06
-7.84194e-06 5.5486e-06 -0.000497655
0.000947507 0.000184466 -4.74625e-08
0.000184466 0.00047456 2.28007e-06
-4.74625e-08 2.28007e-06 0.000287261
0.000480665 0.000116171 2.90086e-06
0.000116171 0.000116026 4.42056e-06
2.90086e-06 4.42056e-06 -7.63847e-06
0.00041772 2.73882e-05 -2.03488e-06
2.73882e-05 6.23025e-05 -5.66551e-07
-2.03488e-06 -5.66551e-07 -4.99833e-05
0.00138007 3.7798e-05 9.20581e-07
3.7798e-05 0.000663172 3.6306e-06
9.20581e-07 3.6306e-06 0.000626893
0.000280342 -4.91351e-05 3.79576e-06
-4.91351e-05 -3.2847e-05 -1.4495e-06
3.79576e-06 -1.4495e-06 -0.000139535
0.00147271 1.87656e-05 -1.67614e-05
1.87656e-05 0.000723617 -2.30295e-06
-1.67614e-05 -2.30295e-06 0.000685651
0.000711472 4.90341e-06 5.22496e-05
4.90341e-06 0.00020414 1.23929e-05
5.22496e-05 1.23929e-05 0.000202904
0.00149261 -3.53454e-05 -1.66371e-05
-3.53454e-05 0.000732628 -1.06234e-05
-1.66371e-05 -1.06234e-05 0.000693779
0.000730065 -1.60941e-05 2.60024e-05
-1.60941e-05 0.000211115 4.93997e-06
2.60024e-05 4.93997e-06 0.000203435
0.00066784 -3.51343e-05 7.09125e-06
-3.51343e-05 0.000174837 -6.1719e-06
7.09125e-06 -6.1719e-06 0.00015652
0.00044545 9.0577e-06 4.89616e-06
9.0577e-06 1.99402e-05 -1.04902e-05
4.89616e-06 -1.04902e-05 -3.40793e-05
0.000295633 1.12418e-05 -1.65351e-06
1.12418e-05 -5.52139e-05 5.25981e-07
-1.65351e-06 5.25981e-07 -0.000144567
0.00347665 0.000191319 -2.33364e-05
0.000191319 0.00209469 -1.31709e-05
-2.33364e-05 -1.31709e-05 0.00206553
-0.000563108 -8.67768e-05 -2.18194e-05
-8.67768e-05 -0.000627039 8.84109e-06
-2.18194e-05 8.84109e-06 -0.000735089
0.00469458 0.000166718 -2.96214e-05
0.000166718 0.00290928 -1.5937e-06
-2.96214e-05 -1.5937e-06 0.00287903
0.00492248 5.9008e-05 -0.000185231
5.9008e-05 0.00308217 3.52163e-05
-0.000185231 3.52163e-05 0.00307547
0.00254723 0.000546239 6.64797e-07
0.000546239 1.7531e-05 6.55918e-07
6.64797e-07 6.55918e-07 1.27412e-06
0.00240943 0.000266221 1.86387e-07
0.000266221 -4.01119e-05 -2.85194e-08
1.86387e-07 -2.85194e-08 1.02859e-05
0.00256812 0.000394 8.81565e-07
0.000394 -9.48529e-05 1.80291e-06
8.81565e-07 1.80291e-06 9.27784e-06
0.00242072 0.000203277 1.63655e-06
0.000203277 -0.000160228 2.54025e-07
1.63655e-06 2.54025e-07 -1.38099e-05
0.00235158 8.36162e-05 9.46219e-07
8.36162e-05 -7.65867e-05 1.82569e-07
9.46219e-07 1.82569e-07 6.60014e-08
0.00220739 -1.4855e-05 -5.08864e-06
-1.4855e-05 -4.2687e-05 1.6168e-07
-5.08864e-06 1.6168e-07 -1.62509e-05
0.00234632 -1.53374e-05 5.04292e-07
-1.53374e-05 -8.07829e-05 -2.40193e-08
5.04292e-07 -2.40193e-08 2.70044e-06
0.0024692 0.000104957 4.12746e-07
0.000104957 -0.000144808 1.76219e-07
4.12746e-07 1.76219e-07 2.74403e-06
0.00253536 0.000285112 6.91987e-07
0.000285112 -0.000125914 -2.13785e-08
6.91987e-07 -2.13785e-08 1.37447e-05
0.00266912 0.000533429 3.93498e-07
0.000533429 -0.000108918 2.48402e-07
3.93498e-07 2.48402e-07 2.16599e-06
0.00246968 -1.42843e-05 -1.82525e-06
-1.42843e-05 -0.000148667 -2.06824e-07
-1.82525e-06 -2.06824e-07 -5.10448e-06
0.0026265 0.000178684 2.20208e-07
0.000178684 -0.000172147 -7.82953e-07
2.20208e-07 -7.82953e-07 4.77917e-05
0.00276362 0.000379483 2.73218e-06
0.000379483 -0.000178844 -5.01687e-08
2.73218e-06 -5.01687e-08 2.5125e-05
0.00234801 -0.00012871 1.32647e-06
-0.00012871 -7.52193e-05 -2.02165e-07
1.32647e-06 -2.02165e-07 4.19304e-06
0.00242278 -0.000274175 -1.82073e-07
-0.000274175 -8.36644e-05 -2.80274e-07
-1.82073e-07 -2.80274e-07 -8.80537e-06
0.00256452 -0.000532407 -6.38685e-07
-0.000532407 -0.000106409 -6.66536e-08
-6.38685e-07 -6.66536e-08 -3.36656e-05
0.00282944 -0.00141917 -7.21058e-06
-0.00141917 0.00110474 -4.81647e-08
-7.21058e-06 -4.81647e-08 0.000215895
0.00210716 -0.00122816 3.88039e-06
-0.00122816 0.0003767 -3.07769e-06
3.88039e-06 -3.07769e-06 -0.000342902
0.00273265 -0.0011726 -4.09638e-07
-0.0011726 0.000550193 1.38495e-06
-4.09638e-07 1.38495e-06 -5.8109e-06
0.00261566 -0.000723031 -1.12026e-06
-0.000723031 3.8502e-05 1.18322e-07
-1.12026e-06 1.18322e-07 -2.32891e-06
0.00282689 -0.00100411 -2.35654e-06
-0.00100411 0.00016937 1.15267e-06
-2.35654e-06 1.15267e-06 3.96609e-05
0.0027516 -0.00109647 6.34674e-06
-0.00109647 0.000329638 -2.76406e-06
6.34674e-06 -2.76406e-06 1.85178e-05
0.00191641 -0.00124288 -2.4371e-06
-0.00124288 0.000840505 -1.0252e-05
-2.4371e-06 -1.0252e-05 -7.60973e-05
0.00197845 -0.00121226 2.03085e-05
-0.00121226 0.000937331 -2.33774e-05
2.03085e-05 -2.33774e-05 -4.95582e-05
-0.000211653 -0.000769652 -1.02524e-05
-0.000769652 -0.000167686 -1.10825e-05
-1.02524e-05 -1.10825e-05 -0.000962642
7.59532e-05 8.48923e-06 5.84679e-06
8.48923e-06 -0.000104748 -9.22284e-06
5.84679e-06 -9.22284e-06 -0.000376861
0.00279098 -0.000487968 1.12511e-05
-0.000487968 0.00150901 -6.00821e-06
1.12511e-05 -6.00821e-06 0.00106812
-0.00114466 -1.71227e-05 1.0258e-05
-1.71227e-05 -0.000932121 1.54941e-06
1.0258e-05 1.54941e-06 -0.00138127
0.00247253 -0.000145099 -2.86796e-07
-0.000145099 -0.000130558 1.34842e-07
-2.86796e-07 1.34842e-07 -1.20809e-06
0.00259493 -0.000377252 7.17791e-08
-0.000377252 -0.00020022 -4.48328e-07
7.17791e-08 -4.48328e-07 -1.7648e-05
0.0027176 -0.000665303 -2.63622e-07
-0.000665303 -8.29674e-05 -6.98534e-08
-2.63622e-07 -6.98534e-08 1.18552e-05
0.00270657 -0.00147743 -1.39535e-06
-0.00147743 0.00105678 7.96663e-07
-1.39535e-06 7.96663e-07 0.000148411
0.00248443 -0.00143189 9.94969e-06
-0.00143189 0.000637792 -3.33108e-06
9.94969e-06 -3.33108e-06 -0.000164816
0.00272992 -0.00124094 -5.60192e-07
-0.00124094 0.000517837 -1.68767e-06
-5.60192e-07 -1.68767e-06 -7.43383e-06
0.00276553 -0.000895204 6.46204e-07
-0.000895204 -9.09182e-06 -4.22005e-07
6.46204e-07 -4.22005e-07 -9.13261e-06
0.00286787 -0.0011581 2.31047e-06
-0.0011581 0.00027139 -1.73259e-06
2.31047e-06 -1.73259e-06 1.20161e-05
-0.00013078 2.45452e-05 1.64161e-07
2.45452e-05 -0.000289771 -6.63651e-06
1.64161e-07 -6.63651e-06 -0.000457991
0.000490258 -0.000174678 -1.49788e-06
-0.000174678 0.000268142 -6.01001e-08
-1.49788e-06 -6.01001e-08 -0.000138162
0.00204726 -0.00127862 -9.29104e-06
-0.00127862 0.000901943 3.26315e-07
-9.29104e-06 3.26315e-07 -2.69822e-05
0.00107889 -0.000919674 3.37441e-06
-0.000919674 0.000454224 2.65506e-06
3.37441e-06 2.65506e-06 -0.000476763
0.00178802 -0.000435429 -2.96114e-06
-0.000435429 0.000890608 -6.21561e-06
-2.96114e-06 -6.21561e-06 0.000436386
0.00113812 -0.000449789 1.87601e-06
-0.000449789 0.000621302 -3.38087e-06
1.87601e-06 -3.38087e-06 0.000156997
0.00256828 -0.000197255 1.86126e-06
-0.000197255 -0.000236173 5.25392e-07
1.86126e-06 5.25392e-07 -8.58225e-06
0.00284488 -0.000553943 3.57289e-06
-0.000553943 -0.000214032 -6.39097e-09
3.57289e-06 -6.39097e-09 3.9111e-05
0.00275421 -0.000830813 2.00716e-06
-0.000830813 -0.000148283 7.96969e-07
2.00716e-06 7.96969e-07 -4.37546e-05
0.00301244 -0.00115747 4.83338e-06
-0.00115747 0.000180512 6.83961e-07
4.83338e-06 6.83961e-07 4.99049e-05
0.00252586 -0.00151638 -8.83621e-07
-0.00151638 0.000994949 -2.85862e-06
-8.83621e-07 -2.85862e-06 8.82607e-05
0.00318269 -0.0014892 2.16558e-06
-0.0014892 0.000620887 -1.44916e-05
2.16558e-06 -1.44916e-05 0.000117082
0.00228158 -0.00151111 -5.46525e-05
-0.00151111 0.000529587 4.12466e-06
-5.46525e-05 4.12466e-06 -0.000301678
0.000359941 2.7765e-05 1.76313e-06
2.7765e-05 4.65056e-06 -5.60376e-06
1.76313e-06 -5.60376e-06 -0.000109899
0.000574515 -0.00019135 6.59512e-06
-0.00019135 0.000237286 -5.65695e-06
6.59512e-06 -5.65695e-06 4.31225e-05
-0.00143606 1.94573e-06 -8.78001e-06
1.94573e-06 -0.00100634 4.19977e-06
-8.78001e-06 4.19977e-06 -0.00131248
0.00126088 -0.000376943 -1.29296e-05
-0.000376943 0.000853918 1.52439e-05
-1.29296e-05 1.52439e-05 0.000398525
0.00370346 -0.000226466 -1.36009e-05
-0.000226466 0.00221885 4.26551e-07
-1.36009e-05 4.26551e-07 0.00187746
-0.000560205 -0.000342107 -5.66822e-06
-0.000342107 -0.000396134 1.73455e-06
-5.66822e-06 1.73455e-06 -0.00113768
0.00300976 -0.0015177 -5.21081e-05
-0.0015177 0.00135635 4.98809e-05
-5.21081e-05 4.98809e-05 0.000379129
0.00360809 -0.00131333 -5.76748e-05
-0.00131333 0.0020625 4.10977e-05
-5.76748e-05 4.10977e-05 0.000901955
0.000878925 0.000175544 7.54869e-06
0.000175544 0.00042478 -2.62289e-06
7.54869e-06 -2.62289e-06 5.5764e-05
0.0020469 0.000626102 7.76264e-06
0.000626102 0.00117389 2.7842e-05
7.76264e-06 2.7842e-05 0.000632821
0.00283805 0.000859082 -1.48899e-06
0.000859082 4.32332e-05 -1.70908e-06
-1.48899e-06 -1.70908e-06 8.56628e-06
0.00215823 0.000501363 -1.21103e-05
0.000501363 0.000430644 -9.04568e-06
-1.21103e-05 -9.04568e-06 3.73162e-05
0.00180613 0.00116169 5.58208e-06
0.00116169 0.000804479 -4.32153e-06
5.58208e-06 -4.32153e-06 -3.11583e-05
0.00397487 0.00123114 7.56148e-06
0.00123114 0.00173428 7.41142e-06
7.56148e-06 7.41142e-06 0.00105139
0.00288167 0.000977843 -4.75668e-06
0.000977843 0.000417864 -3.60333e-06
-4.75668e-06 -3.60333e-06 8.67352e-05
0.00314405 0.000985357 -3.01933e-06
0.000985357 0.000448126 5.17391e-06
-3.01933e-06 5.17391e-06 0.000209538
0.00252238 0.00164677 -1.1953e-05
0.00164677 0.000902431 -4.88781e-06
-1.1953e-05 -4.88781e-06 -9.04622e-05
0.00279621 0.00177206 -2.5139e-05
0.00177206 0.00076199 -4.29989e-06
-2.5139e-05 -4.29989e-06 -0.000177874
-0.00140441 0.000261467 -1.33799e-06
0.000261467 -0.000996524 -4.99741e-07
-1.33799e-06 -4.99741e-07 -0.00136142
-0.000947159 0.000554126 3.72085e-06
0.000554126 -0.000397079 2.52718e-07
3.72085e-06 2.52718e-07 -0.00109491
0.00222313 0.00134133 2.45924e-07
0.00134133 0.000791954 -6.8299e-07
2.45924e-07 -6.8299e-07 -5.86099e-05
0.00316869 0.0009371 -9.64377e-06
0.0009371 0.0012462 -1.26571e-06
-9.64377e-06 -1.26571e-06 0.000704531
0.00285743 0.000718455 -1.60766e-07
0.000718455 -0.000323277 -3.12161e-09
-1.60766e-07 -3.12161e-09 -6.69341e-05
0.00299302 0.00104557 3.11143e-06
0.00104557 0.000142228 -1.23549e-06
3.11143e-06 -1.23549e-06 2.26677e-05
0.00292111 0.00132388 -4.65196e-06
0.00132388 0.000527197 -7.49728e-07
-4.65196e-06 -7.49728e-07 -7.34548e-05
0.00289747 0.00174798 2.26778e-06
0.00174798 0.000907195 1.38593e-06
2.26778e-06 1.38593e-06 -8.08876e-05
-0.00117484 3.83163e-05 -5.53672e-06
3.83163e-05 -0.000814984 -4.57101e-06
-5.53672e-06 -4.57101e-06 -0.00106845
0.00284675 0.000502365 6.62936e-06
0.000502365 -0.000379642 2.80541e-06
6.62936e-06 2.80541e-06 -5.04166e-05
0.00329733 0.000989743 -3.38891e-06
0.000989743 0.00216839 7.56845e-06
-3.38891e-06 7.56845e-06 0.00143685
0.00231183 0.00115686 1.09626e-05
0.00115686 0.000797448 -7.51627e-07
1.09626e-05 -7.51627e-07 4.90578e-05
0.00301174 0.00104415 -2.06389e-05
0.00104415 -8.55775e-05 -1.1205e-05
-2.06389e-05 -1.1205e-05 4.24661e-05
0.00227365 0.00127823 6.78684e-06
0.00127823 3.93556e-06 -1.10853e-05
6.78684e-06 -1.10853e-05 -0.000518262
0.00387185 0.00191298 1.10497e-05
0.00191298 0.00141703 6.25013e-06
1.10497e-05 6.25013e-06 0.000395421
0.000873788 0.000272767 4.34965e-06
0.000272767 0.000528709 1.14395e-05
4.34965e-06 1.14395e-05 0.000222488
0.000753744 0.000224186 -4.87672e-06
0.000224186 0.000471607 1.18786e-07
-4.87672e-06 1.18786e-07 0.00027516
-0.00132702 5.67052e-05 -5.20087e-06
5.67052e-05 -0.000859312 -3.05186e-06
-5.20087e-06 -3.05186e-06 -0.00100882
-0.000125059 6.81142e-06 4.21799e-06
6.81142e-06 -0.000243719 1.47396e-06
4.21799e-06 1.47396e-06 -0.000408715
0.000468281 0.000152747 8.63129e-06
0.000152747 0.000292454 -1.30683e-05
8.63129e-06 -1.30683e-05 1.14964e-06
-0.0010645 0.000154254 -1.00787e-05
0.000154254 -0.00059988 1.23202e-05
-1.00787e-05 1.23202e-05 -0.000840711
0.000469028 5.44746e-05 -1.74464e-06
5.44746e-05 0.000151477 -8.83821e-07
-1.74464e-06 -8.83821e-07 -2.66767e-05
0.00017066 3.40779e-05 8.22869e-07
3.40779e-05 5.67116e-05 -9.92519e-07
8.22869e-07 -9.92519e-07 -0.000192304
-0.000326743 0.000111693 -5.77135e-07
0.000111693 -0.000274742 2.05828e-06
-5.77135e-07 2.05828e-06 -0.000406259
0.000681455 0.000190975 3.43795e-06
0.000190975 0.000478361 -4.05776e-06
3.43795e-06 -4.05776e-06 0.000176845
0.00127324 0.000223788 -5.77782e-06
0.000223788 0.000751582 -1.29865e-05
-5.77782e-06 -1.29865e-05 0.000637247
0.000252097 0.000117596 1.14824e-07
0.000117596 0.000102783 -1.55142e-05
1.14824e-07 -1.55142e-05 -5.51866e-05
0.00131068 8.25035e-05 -6.65078e-06
8.25035e-05 0.000850695 5.33252e-06
-6.65078e-06 5.33252e-06 0.000559549
0.000638737 6.35177e-05 -6.79517e-06
6.35177e-05 0.000323683 1.02489e-06
-6.79517e-06 1.02489e-06 7.37684e-05
0.000595523 4.97705e-05 3.03517e-07
4.97705e-05 0.000212896 2.83831e-06
3.03517e-07 2.83831e-06 3.7814e-05
0.000413054 -9.72015e-05 -3.01942e-06
-9.72015e-05 5.80052e-05 3.86485e-06
-3.01942e-06 3.86485e-06 -5.8172e-05
0.000408806 1.71775e-05 1.02132e-06
1.71775e-05 4.76617e-05 -5.48926e-07
1.02132e-06 -5.48926e-07 -6.23277e-05
0.00139932 4.22895e-05 4.78189e-06
4.22895e-05 0.00067885 4.73302e-06
4.78189e-06 4.73302e-06 0.000643743
0.000389117 1.65324e-05 2.56591e-06
1.65324e-05 2.26217e-05 -2.54219e-06
2.56591e-06 -2.54219e-06 -7.5662e-05
0.00145201 2.38856e-05 -1.54863e-05
2.38856e-05 0.000714556 -2.34195e-06
-1.54863e-05 -2.34195e-06 0.000677474
0.000819682 9.86172e-06 4.65797e-05
9.86172e-06 0.00027905 1.13037e-05
4.65797e-05 1.13037e-05 0.0002786
0.00138649 -2.15688e-05 -1.53709e-05
-2.15688e-05 0.000663179 -9.15172e-06
-1.53709e-05 -9.15172e-06 0.000629349
0.000755141 -7.43897e-06 2.20735e-05
-7.43897e-06 0.000228258 4.87276e-06
2.20735e-05 4.87276e-06 0.000223344
0.000775142 -2.71848e-05 5.31025e-06
-2.71848e-05 0.000239105 -4.73527e-06
5.31025e-06 -4.73527e-06 0.000228425
0.000429133 -4.26671e-05 6.75487e-07
-4.26671e-05 3.45712e-05 -6.28703e-06
6.75487e-07 -6.28703e-06 -7.10486e-05
0.000157771 4.09838e-05 -6.11974e-07
4.09838e-05 -0.000150091 -9.63461e-06
-6.11974e-07 -9.63461e-06 -0.000205708
0.000212873 3.16892e-05 2.40322e-06
3.16892e-05 -0.000117328 1.42401e-06
2.40322e-06 1.42401e-06 -0.000180878
0.00371654 0.000140591 1.00562e-05
0.000140591 0.00223217 -8.7496e-06
1.00562e-05 -8.7496e-06 0.0022171
-1.68939e-06 -1.90466e-05 -5.148e-06
-1.90466e-05 -0.000260935 1.01878e-05
-5.148e-06 1.01878e-05 -0.000346618
0.004003 0.000223727 -1.38126e-05
0.000223727 0.00245997 -2.0334e-06
-1.38126e-05 -2.0334e-06 0.00242216
0.00474354 0.000147068 -8.86074e-05
0.000147068 0.00294354 1.35356e-05
-8.86074e-05 1.35356e-05 0.00292051
0.00268304 0.000516767 2.78747e-08
0.000516767 -9.37487e-05 4.96918e-07
2.78747e-08 4.96918e-07 2.28659e-05
0.00252537 0.00029059 -6.85665e-07
0.00029059 -0.000137165 3.44085e-07
-6.85665e-07 3.44085e-07 1.62035e-06
0.00242971 0.000111054 1.42255e-06
0.000111054 -0.000163161 4.25763e-07
1.42255e-06 4.25763e-07 -1.62019e-05
0.00234714 -1.49503e-05 2.09699e-07
-1.49503e-05 -8.00035e-05 -6.06168e-08
2.09699e-07 -6.06168e-08 4.9486e-06
0.00247426 -1.04624e-05 -3.66605e-07
-1.04624e-05 -0.000148756 -7.90481e-08
-3.66605e-07 -7.90481e-08 -1.01189e-07
0.00257523 0.00017841 7.88703e-07
0.00017841 -0.000207576 2.68233e-07
7.88703e-07 2.68233e-07 1.48945e-05
0.00269126 0.000397441 -4.76053e-07
0.000397441 -0.000204408 6.17736e-09
-4.76053e-07 6.17736e-09 -3.1489e-06
0.00253877 -8.93272e-06 1.2084e-06
-8.93272e-06 -0.000274483 -2.71578e-07
1.2084e-06 -2.71578e-07 -3.02932e-05
0.00285756 0.000227849 3.82439e-06
0.000227849 -0.000226047 -1.71646e-06
3.82439e-06 -1.71646e-06 6.25892e-05
0.00273544 0.000249107 -9.06318e-07
0.000249107 -0.000507912 9.38162e-06
-9.06318e-07 9.38162e-06 -0.000134364
0.00249783 -0.000136458 1.34644e-06
-0.000136458 -0.000112331 -1.13915e-07
1.34644e-06 -1.13915e-07 1.27874e-05
0.00259291 -0.000394843 -2.07505e-06
-0.000394843 -0.000208108 4.16712e-07
-2.07505e-06 4.16712e-07 -2.15819e-05
0.00269271 -0.000649326 -4.16189e-07
-0.000649326 -9.04393e-05 4.35367e-07
-4.16189e-07 4.35367e-07 2.43264e-06
0.00244763 -0.00144093 -5.32082e-06
-0.00144093 0.000879714 -3.5922e-06
-5.32082e-06 -3.5922e-06 -1.86209e-05
0.00216204 -0.00139523 2.38099e-05
-0.00139523 0.000444278 -4.93199e-06
2.38099e-05 -4.93199e-06 -0.000349691
0.00286541 -0.00125204 1.99283e-05
-0.00125204 0.000578373 -7.89516e-07
1.99283e-05 -7.89516e-07 5.60968e-05
0.00275312 -0.00090653 6.55166e-07
-0.00090653 -1.64534e-05 -1.63598e-06
6.55166e-07 -1.63598e-06 -2.74979e-05
0.00289208 -0.0011446 4.05386e-06
-0.0011446 0.000303289 4.19807e-06
4.05386e-06 4.19807e-06 5.08661e-05
0.00229777 -0.00131392 1.68917e-05
-0.00131392 0.00104445 -2.90597e-05
1.68917e-05 -2.90597e-05 0.000105343
-0.000605688 -0.000599956 3.01828e-05
-0.000599956 -0.000542168 -2.17129e-05
3.01828e-05 -2.17129e-05 -0.00143729
0.00295184 -0.000586209 9.43588e-06
-0.000586209 0.00160122 2.1441e-06
9.43588e-06 2.1441e-06 0.00115036
0.000796292 -8.48483e-05 -3.07327e-06
-8.48483e-05 0.000328979 9.26605e-06
-3.07327e-06 9.26605e-06 0.000166351
-0.000167776 -1.48342e-05 9.92873e-06
-1.48342e-05 -0.000211782 -9.8505e-06
9.92873e-06 -9.8505e-06 -0.000573647
-0.000494435 -0.00027834 8.28568e-06
-0.00027834 -0.000462112 -9.64428e-06
8.28568e-06 -9.64428e-06 -0.000911327
0.00258789 -0.000198632 2.1804e-07
-0.000198632 -0.000228254 -2.65167e-07
2.1804e-07 -2.65167e-07 3.74979e-06
0.000579649 -6.6638e-05 2.20611e-06
-6.6638e-05 0.000145441 4.56143e-07
2.20611e-06 4.56143e-07 2.26537e-05
0.000437566 -0.00012506 -4.04922e-06
-0.00012506 0.00011654 -4.8497e-07
-4.04922e-06 -4.8497e-07 -5.28547e-05
0.00277958 -0.00054572 1.1623e-08
-0.00054572 -0.000242879 1.02313e-07
1.1623e-08 1.02313e-07 7.05309e-07
0.00278465 -0.000820513 -1.67796e-06
-0.000820513 -0.00010986 5.30867e-07
-1.67796e-06 5.30867e-07 -7.59041e-06
0.0026502 -0.00155228 -2.02435e-06
-0.00155228 0.00106013 2.3037e-06
-2.02435e-06 2.3037e-06 0.000129788
0.00340541 -0.00172421 1.0562e-05
-0.00172421 0.00113355 -3.35572e-06
1.0562e-05 -3.35572e-06 0.000245401
0.00304967 -0.00145601 3.97838e-06
-0.00145601 0.000566268 -9.0581e-07
3.97838e-06 -9.0581e-07 7.5183e-05
0.00289816 -0.00114912 2.33752e-06
-0.00114912 0.000110478 -1.22008e-06
2.33752e-06 -1.22008e-06 -9.9111e-06
5.4926e-05 -7.24595e-05 -3.63988e-06
-7.24595e-05 -3.04906e-05 -1.4428e-06
-3.63988e-06 -1.4428e-06 -0.000336822
0.00063489 -0.000276625 6.60558e-07
-0.000276625 0.000420815 7.24822e-07
6.60558e-07 7.24822e-07 -1.72227e-05
0.00218047 -0.00130451 1.76671e-05
-0.00130451 0.000941598 5.96789e-06
1.76671e-05 5.96789e-06 1.13226e-05
0.00235359 -0.00112925 1.84389e-05
-0.00112925 0.00131997 -1.89168e-05
1.84389e-05 -1.89168e-05 0.000234588
0.00150775 -0.000470742 -4.13223e-06
-0.000470742 0.00087099 -1.23469e-06
-4.13223e-06 -1.23469e-06 0.000202484
0.00099183 -0.000360888 1.12424e-05
-0.000360888 0.000499262 -3.65845e-06
1.12424e-05 -3.65845e-06 0.000160431
0.00266397 -0.000257473 3.63109e-06
-0.000257473 -0.000491105 -1.91097e-06
3.63109e-06 -1.91097e-06 -0.000106714
0.00305382 -0.000740985 6.28176e-08
-0.000740985 -0.00014292 3.54259e-06
6.28176e-08 3.54259e-06 0.000135238
0.00320848 -0.00121607 2.32668e-06
-0.00121607 7.55113e-05 -1.83229e-06
2.32668e-06 -1.83229e-06 6.17433e-05
0.00285476 -0.00137471 8.16989e-06
-0.00137471 0.000246256 -3.21254e-06
8.16989e-06 -3.21254e-06 -7.02656e-05
0.000921134 -0.00134885 1.51194e-05
-0.00134885 9.83927e-05 -7.87613e-06
1.51194e-05 -7.87613e-06 -0.00080086
0.00389378 -0.00200495 -1.56026e-06
-0.00200495 0.00122373 -1.91243e-05
-1.56026e-06 -1.91243e-05 0.000322734
0.000557092 9.21045e-05 -5.3586e-06
9.21045e-05 0.000191091 -5.09015e-06
-5.3586e-06 -5.09015e-06 1.92961e-05
-0.00108724 -9.23392e-05 3.83598e-06
-9.23392e-05 -0.000849496 1.07497e-06
3.83598e-06 1.07497e-06 -0.00105032
0.00179851 -0.00028443 -1.4666e-05
-0.00028443 0.00107102 1.74114e-05
-1.4666e-05 1.74114e-05 0.000833296
0.000291206 -0.000118974 -8.73093e-06
-0.000118974 0.000141923 1.91894e-05
-8.73093e-06 1.91894e-05 -0.000187029
0.00160231 -0.000471499 -2.05335e-05
-0.000471499 0.00101138 3.3454e-05
-2.05335e-05 3.3454e-05 0.000603249
-0.000468377 -0.000141421 -1.67574e-05
-0.000141421 -0.000513988 -1.38939e-05
-1.67574e-05 -1.38939e-05 -0.000785539
0.000690363 -0.000857489 -2.76172e-05
-0.000857489 0.000906344 3.00719e-05
-2.76172e-05 3.00719e-05 -0.000374744
0.00174205 -0.00161094 -0.000112704
-0.00161094 0.000451036 3.18543e-05
-0.000112704 3.18543e-05 -0.000315686
-0.000314108 0.000553235 8.89765e-07
0.000553235 -0.000187998 4.10011e-06
8.89765e-07 4.10011e-06 -0.000604171
0.00442525 0.000848231 -7.56649e-06
0.000848231 0.00280664 4.74923e-06
-7.56649e-06 4.74923e-06 0.00224995
0.00278391 0.0006766 -5.62033e-06
0.0006766 -0.000392714 -4.30537e-06
-5.62033e-06 -4.30537e-06 -0.000112926
0.00312731 0.0010421 -6.08714e-06
0.0010421 0.000233091 -2.25044e-06
-6.08714e-06 -2.25044e-06 8.43839e-05
0.00367365 0.000892549 -9.02818e-06
0.000892549 0.00168404 -1.5808e-06
-9.02818e-06 -1.5808e-06 0.00116774
0.00154099 0.00128042 -9.41435e-06
0.00128042 0.00030097 -1.07493e-05
-9.41435e-06 -1.07493e-05 -0.000545378
0.00275972 0.00127922 -7.74211e-06
0.00127922 0.00048605 1.22601e-06
-7.74211e-06 1.22601e-06 -9.65779e-05
0.00309495 0.00172564 -2.20407e-05
0.00172564 0.00102072 -5.07415e-06
-2.20407e-05 -5.07415e-06 5.69168e-05
8.62785e-05 0.000408872 1.39063e-06
0.000408872 0.000129903 1.35878e-09
1.39063e-06 1.35878e-09 -0.000251828
0.00283427 0.000497384 -5.0899e-06
0.000497384 -0.000385404 -5.09763e-06
-5.0899e-06 -5.09763e-06 -3.9506e-05
0.00272449 0.000845046 2.37916e-06
0.000845046 0.00185177 5.4621e-06
2.37916e-06 5.4621e-06 0.0011947
0.00159423 0.00103509 3.46743e-06
0.00103509 0.000405311 2.53326e-06
3.46743e-06 2.53326e-06 -0.0003095
0.00306602 0.000999158 -7.93774e-08
0.000999158 -4.01517e-06 -2.0309e-07
-7.93774e-08 -2.0309e-07 0.000127971
0.00267564 0.00135431 -4.27158e-06
0.00135431 0.000257103 -6.99157e-06
-4.27158e-06 -6.99157e-06 -0.000271611
0.00330387 0.00176949 -1.02169e-06
0.00176949 0.00111676 -4.51708e-07
-1.02169e-06 -4.51708e-07 0.000143832
0.00114134 0.000550578 -6.43651e-06
0.000550578 0.000925344 -6.92821e-06
-6.43651e-06 -6.92821e-06 0.00039263
0.00496641 0.0011116 -0.000151865
0.0011116 0.000600069 -5.93482e-05
-0.000151865 -5.93482e-05 0.00119737
0.000325627 0.000736262 -8.42941e-06
0.000736262 0.000200574 2.09996e-05
-8.42941e-06 2.09996e-05 -0.000488318
0.00183861 0.00120566 6.90447e-06
0.00120566 0.000611527 -9.14002e-06
6.90447e-06 -9.14002e-06 -0.000247563
0.00394782 0.00146703 -5.79137e-05
0.00146703 0.000809039 -2.43647e-05
-5.79137e-05 -2.43647e-05 0.000577051
0.00258844 0.00167022 -3.43568e-05
0.00167022 0.000679377 -1.03282e-05
-3.43568e-05 -1.03282e-05 -0.000219171
0.00105985 0.0024603 -7.93039e-06
0.0024603 -0.00414509 -6.13859e-05
-7.93039e-06 -6.13859e-05 -0.0016174
0.000847876 0.000301284 1.00219e-05
0.000301284 0.0006043 2.07354e-05
1.00219e-05 2.07354e-05 0.000388245
0.000148002 0.000210196 -4.43901e-06
0.000210196 0.000153081 -1.7264e-06
-4.43901e-06 -1.7264e-06 -3.865e-05
-0.000523726 0.000142206 -4.31889e-06
0.000142206 -0.00027423 -5.61704e-07
-4.31889e-06 -5.61704e-07 -0.000476872
0.00021211 -5.21023e-05 4.25115e-06
-5.21023e-05 -2.28648e-05 -1.8949e-06
4.25115e-06 -1.8949e-06 -0.000197355
-0.000449807 4.34604e-05 6.23333e-06
4.34604e-05 -0.000349885 -7.57672e-06
6.23333e-06 -7.57672e-06 -0.000592372
0.00196538 0.00036618 -1.86627e-06
0.00036618 0.00132044 -8.16199e-06
-1.86627e-06 -8.16199e-06 0.00100076
-0.00222906 -1.90356e-05 -1.3447e-05
-1.90356e-05 -0.00142367 1.26568e-05
-1.3447e-05 1.26568e-05 -0.00156448
0.000406852 1.58036e-06 5.43817e-07
1.58036e-06 9.69231e-05 -5.44182e-07
5.43817e-07 -5.44182e-07 -8.15587e-05
0.000396456 0.000106692 7.74903e-07
0.000106692 0.000120146 -1.82508e-07
7.74903e-07 -1.82508e-07 -8.64406e-05
9.10676e-05 0.000159356 3.48884e-06
0.000159356 1.75541e-05 3.3031e-06
3.48884e-06 3.3031e-06 -7.53531e-05
2.06135e-05 8.73759e-05 1.31146e-06
8.73759e-05 -8.1104e-06 1.83378e-07
1.31146e-06 1.83378e-07 -0.000278405
0.000225714 0.000110859 1.84641e-06
0.000110859 0.000102206 3.00062e-06
1.84641e-06 3.00062e-06 -7.78143e-05
-7.81689e-06 0.000117317 8.59059e-06
0.000117317 0.000126819 -2.19989e-05
8.59059e-06 -2.19989e-05 -7.56552e-05
0.000934983 0.000143418 -3.4239e-06
0.000143418 0.000602518 4.44887e-07
-3.4239e-06 4.44887e-07 0.000329884
0.000712858 0.000129412 -4.55849e-06
0.000129412 0.000390026 1.47805e-06
-4.55849e-06 1.47805e-06 0.000156473
0.000789867 0.000151266 -8.10085e-06
0.000151266 0.000393975 -6.25277e-06
-8.10085e-06 -6.25277e-06 0.000179857
1.35178e-05 2.29291e-06 -3.33917e-06
2.29291e-06 -0.000193275 -1.25962e-06
-3.33917e-06 -1.25962e-06 -0.000349411
0.00118987 -0.000244909 9.99023e-06
-0.000244909 0.000771556 -1.2716e-05
9.99023e-06 -1.2716e-05 0.000466311
0.000134571 -6.6996e-05 -2.95169e-06
-6.6996e-05 -8.99215e-05 2.20373e-06
-2.95169e-06 2.20373e-06 -0.000264904
0.000273426 4.25262e-06 -2.8742e-06
4.25262e-06 -2.91683e-05 3.24407e-06
-2.8742e-06 3.24407e-06 -0.000145826
0.000388993 5.41859e-05 2.31044e-06
5.41859e-05 4.86386e-05 -7.86649e-08
2.31044e-06 -7.86649e-08 -7.09441e-05
0.000282322 1.97364e-05 -4.03681e-06
1.97364e-05 -5.57016e-05 6.20192e-06
-4.03681e-06 6.20192e-06 -9.83028e-05
0.000248705 -2.93133e-06 -4.26902e-07
-2.93133e-06 -4.56395e-05 -4.55108e-06
-4.26902e-07 -4.55108e-06 -0.000163811
0.000842434 1.92866e-05 -6.05001e-06
1.92866e-05 0.000313812 -1.73451e-06
-6.05001e-06 -1.73451e-06 0.000274753
0.0028668 1.42153e-05 4.1655e-05
1.42153e-05 0.00164252 7.6278e-06
4.1655e-05 7.6278e-06 0.00165265
0.00144773 8.16532e-05 -2.65101e-05
8.16532e-05 0.000719401 -9.81342e-06
-2.65101e-05 -9.81342e-06 0.000679831
0.000756186 3.46026e-07 2.03787e-05
3.46026e-07 0.000232385 4.60273e-06
2.03787e-05 4.60273e-06 0.000229854
0.000774403 -1.70767e-05 4.28547e-06
-1.70767e-05 0.000236351 -3.53202e-06
4.28547e-06 -3.53202e-06 0.000229793
0.000262112 5.10295e-06 -3.66565e-06
5.10295e-06 -4.90806e-05 -7.77916e-06
-3.66565e-06 -7.77916e-06 -0.000153797
0.00059445 -7.52195e-05 6.47629e-07
-7.52195e-05 0.00016187 -3.91098e-07
6.47629e-07 -3.91098e-07 4.3425e-05
0.000296698 2.40241e-05 -8.19544e-07
2.40241e-05 -7.13127e-05 -7.55274e-06
-8.19544e-07 -7.55274e-06 -0.000113574
0.000996756 3.98085e-05 -1.15151e-07
3.98085e-05 0.00039899 -2.69794e-08
-1.15151e-07 -2.69794e-08 0.000349581
0.00313773 0.00011095 -4.24961e-06
0.00011095 0.00183752 -8.34883e-06
-4.24961e-06 -8.34883e-06 0.00183066
0.000399126 1.6133e-05 -2.5459e-06
1.6133e-05 8.87029e-06 1.04858e-05
-2.5459e-06 1.04858e-05 -5.79745e-05
0.00325367 0.000145332 -8.24623e-07
0.000145332 0.00192677 -8.63184e-08
-8.24623e-07 -8.63184e-08 0.00191081
0.00446422 0.000137229 -3.68202e-05
0.000137229 0.00273581 9.88379e-06
-3.68202e-05 9.88379e-06 0.00271422
0.00262427 0.00041334 -3.24499e-06
0.00041334 -0.000232177 -8.15615e-07
-3.24499e-06 -8.15615e-07 -3.08614e-05
0.00251906 0.000178028 -2.77486e-07
0.000178028 -0.000249016 7.92691e-07
-2.77486e-07 7.92691e-07 -2.25214e-05
0.00248253 -6.47636e-06 8.03673e-07
-6.47636e-06 -0.00014789 3.28e-08
8.03673e-07 3.28e-08 5.89492e-06
0.00251787 8.97107e-07 -1.15757e-07
8.97107e-07 -0.000288051 -1.83601e-07
-1.15757e-07 -1.83601e-07 -4.22997e-05
0.00281437 0.000240195 1.08926e-06
0.000240195 -0.000249514 4.65824e-07
1.08926e-06 4.65824e-07 4.08602e-05
0.00288048 0.000211976 6.29932e-06
0.000211976 -0.000411065 -5.38424e-06
6.29932e-06 -5.38424e-06 -5.11757e-05
0.00299425 8.11759e-05 4.15195e-06
8.11759e-05 -0.000306522 1.71552e-06
4.15195e-06 1.71552e-06 5.9575e-05
0.00691485 0.002809 -1.70726e-05
0.002809 -0.00213869 2.44239e-05
-1.70726e-05 2.44239e-05 0.000753396
0.00304356 0.000277989 -9.47071e-05
0.000277989 -0.000582275 8.11753e-06
-9.47071e-05 8.11753e-06 0.000132698
0.000308336 0.000123339 -3.9435e-06
0.000123339 2.75204e-05 -3.15369e-06
-3.9435e-06 -3.15369e-06 -0.000136683
0.00259991 -0.000198035 -1.73728e-06
-0.000198035 -0.000227691 -4.52255e-07
-1.73728e-06 -4.52255e-07 9.54856e-06
0.00271865 -0.000534393 -3.8393e-06
-0.000534393 -0.000266514 -2.28069e-07
-3.8393e-06 -2.28069e-07 -3.33989e-05
0.00282578 -0.000806876 3.25254e-07
-0.000806876 -6.39732e-05 -6.14327e-07
3.25254e-07 -6.14327e-07 3.82621e-05
0.00284739 -0.00158958 -1.02447e-05
-0.00158958 0.0011926 -2.08032e-06
-1.02447e-05 -2.08032e-06 0.000244702
0.00252614 -0.00157347 2.82028e-05
-0.00157347 0.00062688 3.68775e-06
2.82028e-05 3.68775e-06 -0.0002102
0.00290993 -0.00142663 -6.58126e-07
-0.00142663 0.000506246 1.41137e-05
-6.58126e-07 1.41137e-05 2.38017e-05
0.00277617 -0.00114533 -1.00449e-07
-0.00114533 3.07279e-05 -4.00717e-06
-1.00449e-07 -4.00717e-06 -8.05117e-05
0.0026284 -0.00132494 7.92205e-05
-0.00132494 0.00116177 -7.07241e-05
7.92205e-05 -7.07241e-05 0.000273086
0.00232017 -0.0011491 7.61522e-05
-0.0011491 0.00126759 -6.85208e-05
7.61522e-05 -6.85208e-05 0.00019291
-0.000901759 -0.00024579 2.43862e-05
-0.00024579 -0.000647103 8.29597e-06
2.43862e-05 8.29597e-06 -0.00133455
0.000544223 -2.76678e-05 -2.64482e-07
-2.76678e-05 0.000113972 6.81588e-06
-2.64482e-07 6.81588e-06 -1.42717e-05
0.000890729 -0.000406569 -3.21083e-06
-0.000406569 0.00045332 -3.20999e-06
-3.21083e-06 -3.20999e-06 9.72369e-05
0.00179205 -0.000182203 1.13675e-05
-0.000182203 0.00117447 -7.12472e-06
1.13675e-05 -7.12472e-06 0.000820829
-0.000420796 -0.000155619 6.87074e-06
-0.000155619 -0.00032153 -1.31748e-05
6.87074e-06 -1.31748e-05 -0.000716988
0.000679302 -0.000129643 -7.90386e-06
-0.000129643 0.000298024 4.06589e-06
-7.90386e-06 4.06589e-06 0.000113248
0.0027564 -0.000275536 -4.96762e-07
-0.000275536 -0.000419434 -8.92313e-07
-4.96762e-07 -8.92313e-07 -4.36271e-05
0.000573775 7.61727e-05 1.23277e-06
7.61727e-05 0.000217153 -1.98115e-06
1.23277e-06 -1.98115e-06 3.37269e-05
0.000832678 -0.000207778 2.17477e-06
-0.000207778 0.000498801 2.94855e-06
2.17477e-06 2.94855e-06 0.000232035
0.000713414 -0.000169399 9.75866e-06
-0.000169399 0.000336129 8.76669e-07
9.75866e-06 8.76669e-07 0.000132075
0.00286439 -0.000732107 2.95646e-06
-0.000732107 -0.000283328 -5.0467e-07
2.95646e-06 -5.0467e-07 -7.01695e-06
0.00313368 -0.00118376 -8.46313e-07
-0.00118376 5.95255e-05 4.53241e-07
-8.46313e-07 4.53241e-07 5.89736e-05
0.002688 -0.00155352 -6.68012e-06
-0.00155352 0.00105768 2.45349e-06
-6.68012e-06 2.45349e-06 0.00016975
0.00257067 -0.0018014 1.10421e-05
-0.0018014 0.00049848 -1.0074e-06
1.10421e-05 -1.0074e-06 -0.000339016
0.00294364 -0.00140653 3.50848e-07
-0.00140653 0.000295537 8.73243e-07
3.50848e-07 8.73243e-07 -4.12395e-05
0.000115968 -0.000117418 -7.19285e-07
-0.000117418 1.85904e-05 3.04388e-07
-7.19285e-07 3.04388e-07 -0.000302241
0.00204414 -0.000444546 1.14991e-05
-0.000444546 0.00131728 -1.41141e-06
1.14991e-05 -1.41141e-06 0.000896813
0.00389165 -0.00198476 -8.41134e-06
-0.00198476 0.00169898 1.4591e-05
-8.41134e-06 1.4591e-05 0.000685997
0.00114641 -0.000559328 -5.8796e-06
-0.000559328 0.000778017 6.80162e-06
-5.8796e-06 6.80162e-06 -0.000236199
0.00129898 -0.000296432 8.46586e-06
-0.000296432 0.000609074 1.25954e-05
8.46586e-06 1.25954e-05 0.000280734
0.0030191 -0.000527399 -2.65844e-05
-0.000527399 -0.000429578 5.469e-06
-2.65844e-05 5.469e-06 4.19683e-05
0.00279671 -0.000871579 -2.30103e-05
-0.000871579 -0.00036 1.11083e-05
-2.30103e-05 1.11083e-05 4.90753e-05
0.00319425 -0.0014605 -2.11858e-06
-0.0014605 0.000286788 -9.66058e-06
-2.11858e-06 -9.66058e-06 2.47982e-05
0.00366643 -0.00176852 1.32031e-05
-0.00176852 0.00101051 -1.27027e-05
1.32031e-05 -1.27027e-05 0.000342839
0.00258124 -0.00181736 2.18018e-05
-0.00181736 0.000783725 -1.07892e-06
2.18018e-05 -1.07892e-06 -0.000159045
0.0010467 -4.24415e-06 -1.00807e-05
-4.24415e-06 0.000564624 5.93225e-07
-1.00807e-05 5.93225e-07 0.000394365
-0.000335335 -0.000102537 -1.08133e-05
-0.000102537 -0.000367203 2.49846e-05
-1.08133e-05 2.49846e-05 -0.00059545
-0.000151483 -0.000146443 -6.72118e-06
-0.000146443 -0.000169456 1.15444e-05
-6.72118e-06 1.15444e-05 -0.000353807
0.00237642 -0.000539457 -6.55333e-05
-0.000539457 0.00148623 5.95886e-05
-6.55333e-05 5.95886e-05 0.00110979
0.000736108 -0.000262066 1.0294e-05
-0.000262066 0.000374389 2.77408e-05
1.0294e-05 2.77408e-05 8.42958e-05
-0.0015244 -1.74763e-05 -6.03352e-06
-1.74763e-05 -0.000495011 5.40297e-06
-6.03352e-06 5.40297e-06 -0.00131037
0.00236124 -0.00199983 -4.47668e-05
-0.00199983 0.00131072 -2.21118e-05
-4.47668e-05 -2.21118e-05 9.26937e-05
0.00370206 0.000838733 7.06924e-06
0.000838733 0.00243598 3.51045e-06
7.06924e-06 3.51045e-06 0.00194604
-0.000548875 0.000385278 -6.85411e-06
0.000385278 -0.000133432 -1.29941e-06
-6.85411e-06 -1.29941e-06 -0.000691506
0.00278825 0.000485029 1.01864e-05
0.000485029 -0.000435649 5.72822e-06
1.01864e-05 5.72822e-06 -5.36485e-05
0.00312961 0.000956482 1.90153e-05
0.000956482 6.882e-05 1.22553e-05
1.90153e-05 1.22553e-05 0.000212493
0.00307359 0.00142861 4.64497e-06
0.00142861 0.000506143 3.35035e-06
4.64497e-06 3.35035e-06 -2.72654e-05
0.00109784 0.000946077 -1.06621e-05
0.000946077 0.000157445 -1.27276e-06
-1.06621e-05 -1.27276e-06 -0.000532644
0.00272405 0.00163287 -3.95145e-06
0.00163287 0.000812157 4.232e-06
-3.95145e-06 4.232e-06 -0.000114803
0.00312623 0.000728238 -3.22866e-07
0.000728238 0.0021586 -2.17762e-06
-3.22866e-07 -2.17762e-06 0.0016312
0.00337758 0.000887489 2.60661e-05
0.000887489 -0.000359109 7.08661e-06
2.60661e-05 7.08661e-06 0.000394974
0.000896069 0.000760166 -7.11201e-06
0.000760166 0.000491794 1.02039e-05
-7.11201e-06 1.02039e-05 -0.000157462
0.00231863 0.00131096 5.30193e-06
0.00131096 0.00091566 -3.07636e-06
5.30193e-06 -3.07636e-06 1.41438e-05
0.00323567 0.00133286 -5.18257e-06
0.00133286 0.000485063 -3.64225e-06
-5.18257e-06 -3.64225e-06 0.000300436
0.00298775 0.00173979 -2.05614e-06
0.00173979 0.000894974 7.35377e-06
-2.05614e-06 7.35377e-06 -2.73626e-05
0.00258236 0.00294517 3.71681e-05
0.00294517 -0.00362544 -4.93594e-06
3.71681e-05 -4.93594e-06 -0.00119936
0.000355383 0.00050286 4.8974e-06
0.00050286 0.000573109 2.80096e-06
4.8974e-06 2.80096e-06 -9.42322e-05
0.00444766 0.00183767 -0.000141332
0.00183767 0.000342885 -5.45061e-05
-0.000141332 -5.45061e-05 0.000593101
0.000668 0.000894618 -2.34719e-05
0.000894618 0.000135256 1.62272e-05
-2.34719e-05 1.62272e-05 -0.000595066
0.00215363 0.00151691 -1.01767e-05
0.00151691 0.000711728 -2.75214e-05
-1.01767e-05 -2.75214e-05 -0.000233607
0.00473836 0.00210612 -7.28361e-05
0.00210612 0.00155581 -4.13792e-05
-7.28361e-05 -4.13792e-05 0.000815101
0.0154962 0.00129204 -0.000993601
0.00129204 -0.0026068 -0.000103093
-0.000993601 -0.000103093 0.000810886
0.00274889 0.00465946 -0.000305208
0.00465946 -0.00634939 -0.000235407
-0.000305208 -0.000235407 -6.74825e-05
0.00150032 0.00354531 4.12812e-05
0.00354531 -0.00181137 -8.31267e-06
4.12812e-05 -8.31267e-06 -0.00118742
0.00935874 -0.00977635 0.00435297
-0.00977635 0.00813712 -0.000714846
0.00435297 -0.000714846 -0.00368925
0.0410092 -0.0235276 -0.00032014
-0.0235276 0.0316505 -3.5287e-05
-0.00032014 -3.5287e-05 0.0107961
0.00280515 0.000411951 1.6332e-05
0.000411951 0.0018957 8.72438e-06
1.6332e-05 8.72438e-06 0.0016547
0.000543758 0.000198184 -3.40677e-07
0.000198184 0.00045715 8.40975e-07
-3.40677e-07 8.40975e-07 0.00021484
0.000544184 0.000321198 6.45057e-06
0.000321198 0.000561809 -1.01057e-05
6.45057e-06 -1.01057e-05 0.00021644
0.000537799 -6.03414e-05 3.75621e-06
-6.03414e-05 0.000198827 -5.38773e-07
3.75621e-06 -5.38773e-07 1.22995e-05
0.000664487 8.08216e-05 7.34091e-06
8.08216e-05 0.000324158 -2.85153e-06
7.34091e-06 -2.85153e-06 0.000112166
-9.40954e-05 1.45551e-06 2.10589e-06
1.45551e-06 -8.50061e-05 -3.45968e-06
2.10589e-06 -3.45968e-06 -0.000352714
0.000221065 0.000111892 5.28418e-06
0.000111892 8.88809e-05 9.94413e-06
5.28418e-06 9.94413e-06 -8.80988e-05
-0.000825033 0.000117092 4.36309e-06
0.000117092 -0.000548257 1.8146e-05
4.36309e-06 1.8146e-05 -0.000610107
0.000722685 0.000159226 -3.28931e-06
0.000159226 0.000454491 2.01796e-06
-3.28931e-06 2.01796e-06 0.000187485
0.000392774 -1.40923e-05 6.45128e-08
-1.40923e-05 7.25478e-05 2.90948e-07
6.45128e-08 2.90948e-07 -9.75976e-05
0.000739723 8.0549e-05 -5.23251e-07
8.0549e-05 0.00036195 7.59085e-07
-5.23251e-07 7.59085e-07 0.00014537
0.000239171 0.000151799 -1.76893e-06
0.000151799 0.000229372 -1.36725e-06
-1.76893e-06 -1.36725e-06 5.4697e-05
0.000481945 8.8926e-05 1.03124e-06
8.8926e-05 0.00030375 1.46912e-07
1.03124e-06 1.46912e-07 4.64451e-05
0.00103503 0.000169484 -1.12633e-06
0.000169484 0.000717741 6.12562e-06
-1.12633e-06 6.12562e-06 0.000408318
0.000172665 9.80137e-05 1.05016e-06
9.80137e-05 0.000258776 -1.03557e-05
1.05016e-06 -1.03557e-05 -5.57951e-05
0.000916299 0.000134772 -1.76161e-07
0.000134772 0.000581956 -2.7152e-06
-1.76161e-07 -2.7152e-06 0.000326131
0.000152012 5.94157e-06 -3.39855e-06
5.94157e-06 -5.932e-05 -7.83879e-06
-3.39855e-06 -7.83879e-06 -0.000246968
7.1059e-05 -6.1644e-05 -1.79317e-06
-6.1644e-05 -0.000145212 -1.99452e-06
-1.79317e-06 -1.99452e-06 -0.000316732
-0.000231362 -6.28453e-05 2.99725e-06
-6.28453e-05 -0.000285632 -9.39634e-06
2.99725e-06 -9.39634e-06 -0.000472644
0.00027527 -6.26136e-05 1.17226e-05
-6.26136e-05 0.000152407 1.5723e-05
1.17226e-05 1.5723e-05 -5.32309e-05
3.85696e-05 -7.02968e-05 6.07113e-06
-7.02968e-05 3.06051e-05 -7.41162e-06
6.07113e-06 -7.41162e-06 -0.000247007
0.00114208 -0.000268474 1.92597e-06
-0.000268474 0.000693866 1.53403e-06
1.92597e-06 1.53403e-06 0.000432363
0.000421599 -0.000145262 -3.22489e-06
-0.000145262 0.000142147 -5.47604e-06
-3.22489e-06 -5.47604e-06 -5.22997e-05
-0.000350737 -5.46561e-05 -1.49233e-06
-5.46561e-05 -0.000408905 2.15121e-06
-1.49233e-06 2.15121e-06 -0.000585037
0.000453644 -9.03636e-05 -1.81811e-06
-9.03636e-05 7.60983e-05 2.37392e-06
-1.81811e-06 2.37392e-06 -3.12345e-05
0.000449532 -5.88519e-05 2.79203e-06
-5.88519e-05 8.67088e-05 7.32364e-08
2.79203e-06 7.32364e-08 -3.10392e-05
0.000280986 2.30312e-06 5.99747e-06
2.30312e-06 -5.32676e-05 8.2308e-06
5.99747e-06 8.2308e-06 -9.61797e-05
0.000421247 8.0999e-05 -1.45625e-06
8.0999e-05 5.92478e-05 -4.45563e-06
-1.45625e-06 -4.45563e-06 -5.29633e-05
0.000287116 3.5292e-05 4.31972e-07
3.5292e-05 -5.3667e-05 2.44466e-07
4.31972e-07 2.44466e-07 -9.53632e-05
0.0028094 2.15204e-05 2.9771e-05
2.15204e-05 0.0016052 7.20377e-06
2.9771e-05 7.20377e-06 0.00161424
0.000308026 8.94131e-05 -7.46598e-06
8.94131e-05 -3.25365e-05 -1.00948e-05
-7.46598e-06 -1.00948e-05 -8.19657e-05
0.00175297 4.2806e-06 -1.7657e-05
4.2806e-06 0.000898114 -2.68176e-07
-1.7657e-05 -2.68176e-07 0.000900917
0.000819075 -7.77622e-06 2.83599e-06
-7.77622e-06 0.000265826 -2.53023e-06
2.83599e-06 -2.53023e-06 0.000262584
0.000416082 2.42963e-05 -1.98552e-08
2.42963e-05 2.99639e-05 -4.06004e-06
-1.98552e-08 -4.06004e-06 -4.84827e-05
0.000391502 -5.63473e-05 9.98485e-07
-5.63473e-05 3.40829e-05 1.19516e-07
9.98485e-07 1.19516e-07 -7.11894e-05
0.000364236 -2.54388e-06 1.99918e-06
-2.54388e-06 -3.00829e-05 -6.69711e-06
1.99918e-06 -6.69711e-06 -6.3381e-05
0.000589944 -9.55253e-05 -7.2212e-07
-9.55253e-05 0.000160842 3.14012e-06
-7.2212e-07 3.14012e-06 3.91937e-05
0.000939792 4.00848e-05 1.08573e-06
4.00848e-05 0.000360622 -1.03397e-06
1.08573e-06 -1.03397e-06 0.000318589
0.00292985 7.89238e-05 6.28542e-07
7.89238e-05 0.00168889 -7.4507e-06
6.28542e-07 -7.4507e-06 0.0016895
0.00013871 2.6403e-05 -2.21406e-06
2.6403e-05 -0.000178185 9.16038e-06
-2.21406e-06 9.16038e-06 -0.000230435
0.00342535 0.000119679 -9.53349e-06
0.000119679 0.00203512 1.51457e-06
-9.53349e-06 1.51457e-06 0.00202586
0.00359014 0.000174119 3.58596e-05
0.000174119 0.00216477 1.4944e-05
3.58596e-05 1.4944e-05 0.00214252
0.0027678 0.000255825 -3.98316e-06
0.000255825 -0.000273531 -9.9307e-07
-3.98316e-06 -9.9307e-07 1.83017e-05
0.0025065 8.17747e-06 -7.92432e-07
8.17747e-06 -0.000291407 -1.06861e-07
-7.92432e-07 -1.06861e-07 -4.49065e-05
0.00309191 0.000173034 3.34829e-07
0.000173034 -0.000253717 3.53337e-06
3.34829e-07 3.53337e-06 7.32978e-05
0.00284533 0.0021372 0.000182528
0.0021372 -0.00429246 8.05513e-05
0.000182528 8.05513e-05 -0.00123145
0.00297313 3.91309e-05 -8.44946e-07
3.91309e-05 -0.000326568 -5.20391e-07
-8.44946e-07 -5.20391e-07 4.97293e-05
0.00310628 0.000221291 2.85083e-06
0.000221291 -0.000504103 -4.95298e-06
2.85083e-06 -4.95298e-06 0.00012126
0.00344943 -0.00014455 -5.97212e-05
-0.00014455 -1.88335e-05 1.2063e-06
-5.97212e-05 1.2063e-06 0.000440452
0.00400393 0.0019072 -0.000290243
0.0019072 -0.00409496 -4.43899e-06
-0.000290243 -4.43899e-06 0.000123081
0.00511329 0.000823065 0.000123261
0.000823065 -0.00190094 5.6705e-05
0.000123261 5.6705e-05 5.88114e-05
0.000460936 0.000111948 2.37713e-07
0.000111948 0.00014263 -3.86501e-06
2.37713e-07 -3.86501e-06 -2.29185e-05
0.000573375 -4.50317e-05 3.16819e-07
-4.50317e-05 0.000221027 -1.61888e-07
3.16819e-07 -1.61888e-07 4.34984e-05
0.0002956 -0.000112629 2.99659e-06
-0.000112629 6.05681e-05 1.49912e-06
2.99659e-06 1.49912e-06 -9.13115e-05
0.000707161 -0.000130283 -6.7808e-07
-0.000130283 0.000328486 4.54961e-06
-6.7808e-07 4.54961e-06 0.000122009
0.00286389 -0.000296947 -5.6955e-06
-0.000296947 -0.000339361 2.67331e-06
-5.6955e-06 2.67331e-06 2.92906e-05
0.00277306 -0.000726256 -2.36323e-06
-0.000726256 -0.000344897 -1.53188e-06
-2.36323e-06 -1.53188e-06 -7.73922e-05
0.00306477 -0.00115486 -3.62431e-06
-0.00115486 4.29754e-05 4.05843e-07
-3.62431e-06 4.05843e-07 5.50368e-05
0.00305765 -0.00160395 4.52612e-06
-0.00160395 0.00130506 5.82041e-06
4.52612e-06 5.82041e-06 0.000396119
0.00329503 -0.00196646 -1.641e-05
-0.00196646 0.000892287 2.24313e-05
-1.641e-05 2.24313e-05 1.45696e-05
0.0030779 -0.00143533 -5.25774e-07
-0.00143533 0.000378093 -2.59137e-07
-5.25774e-07 -2.59137e-07 2.43474e-05
0.00113428 -0.00154784 5.81985e-05
-0.00154784 0.000233503 -2.94982e-05
5.81985e-05 -2.94982e-05 -0.000798418
0.00359399 -0.000674502 4.19404e-05
-0.000674502 0.00198492 -3.50676e-05
4.19404e-05 -3.50676e-05 0.00122399
-0.000467552 -0.000322131 1.69034e-05
-0.000322131 -0.000511425 9.14354e-06
1.69034e-05 9.14354e-06 -0.000864731
0.00200784 -0.000145845 1.08947e-05
-0.000145845 0.00125019 -1.36626e-06
1.08947e-05 -1.36626e-06 0.000996813
-0.000628045 -0.000118316 -1.93786e-05
-0.000118316 -0.000353156 -2.06401e-05
-1.93786e-05 -2.06401e-05 -0.000776756
0.000293176 -0.000109544 3.53553e-06
-0.000109544 0.000111707 -1.71399e-05
3.53553e-06 -1.71399e-05 -0.000190795
0.000471999 -4.68688e-05 -1.49979e-07
-4.68688e-05 0.000144874 5.24907e-06
-1.49979e-07 5.24907e-06 -3.76304e-05
0.000428479 -0.00013133 -6.12841e-06
-0.00013133 0.00015451 -9.59685e-08
-6.12841e-06 -9.59685e-08 -4.05017e-05
0.00293867 -0.000525396 4.97403e-06
-0.000525396 -0.000483175 -3.91908e-07
4.97403e-06 -3.91908e-07 2.71953e-07
0.000169182 -5.49411e-05 -1.15901e-06
-5.49411e-05 -3.04382e-05 5.64737e-06
-1.15901e-06 5.64737e-06 -0.000191922
0.000279348 -0.000164388 4.80112e-06
-0.000164388 5.42123e-05 -4.89816e-06
4.80112e-06 -4.89816e-06 -0.000192218
-0.000183685 -9.29499e-05 1.56964e-05
-9.29499e-05 -0.000125196 -7.59101e-06
1.56964e-05 -7.59101e-06 -0.000286884
0.00280965 -0.000924595 2.02489e-06
-0.000924595 -0.000353487 -1.07458e-06
2.02489e-06 -1.07458e-06 -7.4213e-06
0.00314739 -0.00144436 1.67425e-06
-0.00144436 0.000258387 -1.8406e-06
1.67425e-06 -1.8406e-06 5.1538e-06
0.00200848 -0.00175883 -9.50226e-06
-0.00175883 0.000462749 -4.71503e-07
-9.50226e-06 -4.71503e-07 -0.000448855
0.00334765 -0.00178517 -3.74261e-06
-0.00178517 0.000806224 1.60866e-06
-3.74261e-06 1.60866e-06 0.000131219
0.00166496 -0.000335902 2.83676e-05
-0.000335902 0.00102367 -1.22377e-05
2.83676e-05 -1.22377e-05 0.000656857
-0.00196711 -6.93544e-05 1.56893e-05
-6.93544e-05 -0.00125222 5.24205e-06
1.56893e-05 5.24205e-06 -0.00161246
0.00125278 -0.00185291 -2.20777e-07
-0.00185291 0.000780485 3.37706e-06
-2.20777e-07 3.37706e-06 -0.000427673
0.00170589 -0.00072705 -2.44472e-05
-0.00072705 0.00104191 4.01752e-06
-2.44472e-05 4.01752e-06 0.00030854
0.003633 -0.000768964 -9.29522e-05
-0.000768964 -2.48618e-06 3.2853e-05
-9.29522e-05 3.2853e-05 0.000445822
0.00335961 -0.00134788 -4.17906e-05
-0.00134788 0.000103941 2.30273e-05
-4.17906e-05 2.30273e-05 0.000267987
0.00341036 -0.00165092 1.75317e-05
-0.00165092 0.000898743 -2.67003e-05
1.75317e-05 -2.67003e-05 0.000246505
0.00387809 -0.00219399 -8.59875e-06
-0.00219399 0.0012972 -2.40341e-06
-8.59875e-06 -2.40341e-06 0.000456394
7.16471e-05 -0.00020711 4.16103e-06
-0.00020711 0.000135119 -1.34359e-05
4.16103e-06 -1.34359e-05 -0.000108254
0.000471112 -0.000361116 -1.43797e-05
-0.000361116 0.000200104 4.21242e-05
-1.43797e-05 4.21242e-05 -0.000142398
0.000645937 -0.000382797 -3.29081e-05
-0.000382797 0.000673235 6.94348e-05
-3.29081e-05 6.94348e-05 0.000265857
-0.000989184 -0.00135033 1.2296e-05
-0.00135033 0.000288578 -4.95705e-05
1.2296e-05 -4.95705e-05 -0.00113197
0.00804083 -0.000380194 -1.67579e-05
-0.000380194 -0.0079735 4.57109e-05
-1.67579e-05 4.57109e-05 -0.00870966
0.0044567 0.000721377 1.59232e-05
0.000721377 0.00293314 2.01109e-06
1.59232e-05 2.01109e-06 0.00242591
0.000456147 0.000672035 -5.45949e-06
0.000672035 0.000219125 -9.85156e-06
-5.45949e-06 -9.85156e-06 -0.000397258
0.00152465 0.000697073 8.63961e-05
0.000697073 -0.00151936 4.09241e-05
8.63961e-05 4.09241e-05 -0.000608951
0.00244929 0.00119448 3.33457e-05
0.00119448 0.000116458 1.25333e-05
3.33457e-05 1.25333e-05 -1.66102e-05
0.00295259 0.00173301 1.51538e-05
0.00173301 0.000875691 1.92093e-05
1.51538e-05 1.92093e-05 -4.91666e-05
0.0024966 0.00136889 1.00737e-05
0.00136889 0.00103114 1.19103e-05
1.00737e-05 1.19103e-05 9.73849e-05
0.00319199 0.00329815 0.000155187
0.00329815 -0.00358763 7.95721e-05
0.000155187 7.95721e-05 -0.0013229
0.00110258 0.000551361 4.15679e-06
0.000551361 0.000932788 -7.48566e-06
4.15679e-06 -7.48566e-06 0.000349765
0.00322823 0.0016401 -6.5714e-06
0.0016401 -0.000376942 5.26558e-06
-6.5714e-06 5.26558e-06 6.87176e-05
0.00132412 0.00100591 -1.44858e-05
0.00100591 0.000547257 1.05414e-05
-1.44858e-05 1.05414e-05 -0.000225732
0.00277396 0.00164083 2.40536e-06
0.00164083 0.00105363 -8.78915e-06
2.40536e-06 -8.78915e-06 7.98554e-05
0.00434534 0.00196171 -1.05513e-05
0.00196171 0.00141208 -9.91816e-07
-1.05513e-05 -9.91816e-07 0.000695883
0.00413589 0.000985397 -0.000284841
0.000985397 -0.0114156 -0.000192231
-0.000284841 -0.000192231 -0.00911641
0.00663964 0.0051291 -0.000241161
0.0051291 -0.00399737 -0.000132331
-0.000241161 -0.000132331 0.00108544
0.000664435 0.00322302 -1.61061e-05
0.00322302 -0.00211711 -1.64097e-05
-1.61061e-05 -1.64097e-05 -0.00149723
0.0177192 -0.00667906 0.00116456
-0.00667906 0.0110105 0.000121796
0.00116456 0.000121796 0.00235242
0.044813 -0.0272717 -0.000324851
-0.0272717 0.03303 -0.000534072
-0.000324851 -0.000534072 0.0101096
3.77594e-05 0.000513522 -3.51729e-06
0.000513522 6.07419e-05 -2.0951e-06
-3.51729e-06 -2.0951e-06 -0.000457342
0.00369998 -0.00473133 0.00317469
-0.00473133 0.00609536 -0.000310814
0.00317469 -0.000310814 0.000823411
0.0202974 -0.0163816 0.000275903
-0.0163816 0.0225102 -0.000303541
0.000275903 -0.000303541 0.00164276
0.00588585 0.00308741 -0.000104939
0.00308741 0.00137328 -3.67419e-05
-0.000104939 -3.67419e-05 0.000800408
0.00197151 0.00117089 -4.36345e-05
0.00117089 0.000809635 -3.68045e-06
-4.36345e-05 -3.68045e-06 2.0245e-05
0.00245501 0.00167267 -6.32568e-05
0.00167267 0.000812248 -5.75784e-05
-6.32568e-05 -5.75784e-05 -4.93873e-05
-0.00150127 0.002858 0.000172676
0.002858 -0.00222019 0.000139308
0.000172676 0.000139308 -0.00208206
0.0157376 0.00792546 0.000395081
0.00792546 -0.0056464 -1.89559e-05
0.000395081 -1.89559e-05 0.000456915
0.00728919 0.0079147 -0.000258411
0.0079147 -0.00192113 -0.000263073
-0.000258411 -0.000263073 0.000763241
0.0314453 -0.0118133 0.00122064
-0.0118133 0.0184122 -0.000120455
0.00122064 -0.000120455 0.00386743
0.0280324 -0.00177674 -0.0013343
-0.00177674 0.0152352 0.000903803
-0.0013343 0.000903803 0.00697398
0.00133527 0.000232457 1.01389e-05
0.000232457 0.00100281 4.74368e-06
1.01389e-05 4.74368e-06 0.000732055
0.000171427 0.000251684 3.38136e-06
0.000251684 0.00034451 1.26717e-06
3.38136e-06 1.26717e-06 4.03381e-06
0.00119366 0.00055232 3.97527e-06
0.00055232 0.000966712 -1.10582e-05
3.97527e-06 -1.10582e-05 0.000472068
0.000453083 4.23877e-06 4.581e-06
4.23877e-06 0.000132888 1.97979e-06
4.581e-06 1.97979e-06 -5.42968e-05
0.000317801 0.000133937 7.50945e-06
0.000133937 5.37829e-05 3.33112e-06
7.50945e-06 3.33112e-06 -0.000144043
-0.000205175 1.7017e-05 3.08027e-06
1.7017e-05 -0.000183641 4.67745e-06
3.08027e-06 4.67745e-06 -0.000413224
0.000375255 0.000114228 -5.36199e-06
0.000114228 0.000263856 2.25373e-06
-5.36199e-06 2.25373e-06 -5.25065e-06
0.000244337 0.000154629 -5.76255e-06
0.000154629 0.000195371 1.24536e-05
-5.76255e-06 1.24536e-05 3.75255e-05
0.000251036 1.40455e-05 -2.03508e-07
1.40455e-05 -1.34375e-05 9.80644e-07
-2.03508e-07 9.80644e-07 -0.000194156
0.000775511 0.000114525 3.21336e-06
0.000114525 0.000531878 3.50053e-06
3.21336e-06 3.50053e-06 0.000239496
0.000181045 7.76214e-05 -1.93244e-07
7.76214e-05 8.01133e-05 -3.36419e-06
-1.93244e-07 -3.36419e-06 -0.00017003
0.000660377 9.78166e-05 4.64817e-07
9.78166e-05 0.000328501 4.44933e-07
4.64817e-07 4.44933e-07 9.98432e-05
0.000175741 9.47856e-05 -2.44138e-06
9.47856e-05 0.000262854 -2.0509e-06
-2.44138e-06 -2.0509e-06 -4.22697e-05
0.000452572 7.35519e-05 2.56946e-07
7.35519e-05 0.000369499 1.59133e-06
2.56946e-07 1.59133e-06 9.30308e-05
-0.000463954 4.05497e-05 9.29299e-07
4.05497e-05 6.25407e-05 -6.28516e-06
9.29299e-07 -6.28516e-06 -0.000411328
7.74927e-05 -9.72343e-05 -4.63646e-06
-9.72343e-05 1.93974e-05 -7.38234e-07
-4.63646e-06 -7.38234e-07 -0.000253991
0.000419936 -7.17507e-05 -6.5457e-06
-7.17507e-05 0.000144033 -1.13244e-05
-6.5457e-06 -1.13244e-05 -7.55301e-05
0.000791949 -3.29581e-05 9.37234e-07
-3.29581e-05 0.000431367 -6.94179e-06
9.37234e-07 -6.94179e-06 0.000205399
0.000480063 -0.000132317 -1.48253e-06
-0.000132317 0.00028403 2.88064e-06
-1.48253e-06 2.88064e-06 8.41779e-05
-9.0017e-05 8.54526e-07 -6.15306e-06
8.54526e-07 -0.000150465 1.23655e-06
-6.15306e-06 1.23655e-06 -0.000298524
0.00105202 -0.000190072 1.80434e-05
-0.000190072 0.000626159 1.02676e-05
1.80434e-05 1.02676e-05 0.000423725
0.00128214 -7.71016e-05 -2.89842e-06
-7.71016e-05 0.000944957 1.18392e-05
-2.89842e-06 1.18392e-05 0.000704886
-0.000556632 1.12346e-06 2.44939e-06
1.12346e-06 -0.000303545 -1.62461e-05
2.44939e-06 -1.62461e-05 -0.000643598
-0.00142965 4.6706e-05 1.0395e-06
4.6706e-05 -0.000889879 -1.1553e-05
1.0395e-06 -1.1553e-05 -0.00117423
0.000482354 -0.000219041 2.94791e-08
-0.000219041 0.000344217 5.19262e-07
2.94791e-08 5.19262e-07 3.43975e-05
-0.0007403 1.74817e-05 1.1571e-06
1.74817e-05 -0.000600956 -3.92418e-06
1.1571e-06 -3.92418e-06 -0.000814663
0.00106819 -0.00031954 -4.34661e-06
-0.00031954 0.000609853 1.90948e-07
-4.34661e-06 1.90948e-07 0.000374041
0.000782618 -0.000173898 1.57125e-06
-0.000173898 0.000388049 3.56786e-07
1.57125e-06 3.56786e-07 0.000186318
0.000630159 -9.42765e-05 -4.56508e-07
-9.42765e-05 0.000194085 8.69251e-07
-4.56508e-07 8.69251e-07 8.30397e-05
0.000183888 2.25579e-05 9.46514e-07
2.25579e-05 -1.59505e-05 6.41782e-07
9.46514e-07 6.41782e-07 -0.000224999
0.000434321 -4.50851e-06 3.40291e-06
-4.50851e-06 7.74817e-05 1.21026e-07
3.40291e-06 1.21026e-07 -3.80472e-05
0.00140858 -4.4369e-05 -2.16016e-05
-4.4369e-05 0.000684864 8.35428e-06
-2.16016e-05 8.35428e-06 0.00065294
0.000420804 0.000107367 -2.48018e-06
0.000107367 7.33501e-05 -2.62649e-06
-2.48018e-06 -2.62649e-06 -4.40696e-05
0.000799277 -3.80942e-05 -8.26446e-06
-3.80942e-05 0.000292333 9.10671e-07
-8.26446e-06 9.10671e-07 0.000251482
0.000870901 -1.14836e-05 -2.51599e-05
-1.14836e-05 0.000311546 5.71066e-06
-2.51599e-05 5.71066e-06 0.000312415
0.000247576 -6.5248e-05 7.50909e-06
-6.5248e-05 -7.90923e-05 -6.86221e-06
7.50909e-06 -6.86221e-06 -0.000120996
0.0028257 -3.37451e-06 2.03836e-05
-3.37451e-06 0.00161506 -1.91642e-07
2.03836e-05 -1.91642e-07 0.00162348
0.000841161 5.1947e-06 -1.23636e-05
5.1947e-06 0.000294207 -6.26099e-06
-1.23636e-05 -6.26099e-06 0.000291286
0.000755839 0.000114538 3.25294e-06
0.000114538 0.000361049 -2.18745e-06
3.25294e-06 -2.18745e-06 0.000171483
0.000322387 8.20881e-05 -2.46662e-06
8.20881e-05 -1.23508e-06 -5.37872e-06
-2.46662e-06 -5.37872e-06 -9.37153e-05
0.000388911 3.35992e-06 3.53597e-06
3.35992e-06 3.63614e-05 2.17968e-07
3.53597e-06 2.17968e-07 -5.79169e-05
0.000312828 1.91173e-05 7.64025e-07
1.91173e-05 -6.2346e-05 -5.60274e-06
7.64025e-07 -5.60274e-06 -9.08211e-05
0.000601027 -0.00011759 -2.88088e-06
-0.00011759 0.000195492 6.26484e-06
-2.88088e-06 6.26484e-06 7.5717e-05
0.000375467 3.39826e-06 2.31889e-06
3.39826e-06 -2.15564e-05 -1.08499e-06
2.31889e-06 -1.08499e-06 -5.63624e-05
0.00270043 5.61718e-05 -4.41287e-06
5.61718e-05 0.00153074 -6.82824e-06
-4.41287e-06 -6.82824e-06 0.00153643
0.00160871 5.33969e-05 3.13616e-06
5.33969e-05 0.000812222 5.47887e-06
3.13616e-06 5.47887e-06 0.000768474
0.00175746 5.83866e-05 -2.95322e-06
5.83866e-05 0.000908917 2.48385e-06
-2.95322e-06 2.48385e-06 0.000903672
0.000534531 4.31445e-05 5.42243e-06
4.31445e-05 9.84557e-05 1.56752e-05
5.42243e-06 1.56752e-05 8.21246e-05
-0.000375168 0.00166867 0.000213362
0.00166867 -0.00616064 4.35864e-05
0.000213362 4.35864e-05 -0.00274303
0.00289873 -1.77892e-07 -5.52354e-06
-1.77892e-07 -0.000375224 -5.76152e-07
-5.52354e-06 -5.76152e-07 8.5223e-06
0.00295788 0.00016353 7.97476e-05
0.00016353 -0.000592192 -1.90047e-06
7.97476e-05 -1.90047e-06 -1.54414e-05
0.00593656 0.00232938 -0.000110327
0.00232938 -0.00439532 -5.13282e-05
-0.000110327 -5.13282e-05 0.00100379
0.00415934 0.000456653 0.000174627
0.000456653 -0.00304406 -1.28392e-05
0.000174627 -1.28392e-05 -0.000568907
0.00338501 -0.000166053 3.24865e-06
-0.000166053 -5.25455e-05 3.10689e-06
3.24865e-06 3.10689e-06 0.00037701
0.00758905 -0.00135597 -0.000111494
-0.00135597 0.000339215 -2.88342e-05
-0.000111494 -2.88342e-05 0.00212401
0.00493751 -0.00064706 -0.000259768
-0.00064706 -0.00512329 -9.4766e-05
-0.000259768 -9.4766e-05 -3.94602e-05
0.0168443 -0.00176201 2.07965e-06
-0.00176201 -0.00320754 -0.00017915
2.07965e-06 -0.00017915 -0.000813176
0.026783 0.0132258 0.00275577
0.0132258 0.014552 0.000338605
0.00275577 0.000338605 0.00202202
0.0566989 0.0221806 9.823e-05
0.0221806 0.0375288 0.000391653
9.823e-05 0.000391653 0.0148698
-7.70339e-05 -0.000126894 7.9019e-06
-0.000126894 -0.00017037 3.35911e-06
7.9019e-06 3.35911e-06 -0.000351597
0.00056936 -2.61323e-05 1.63831e-06
-2.61323e-05 0.000223209 -1.03101e-07
1.63831e-06 -1.03101e-07 5.29138e-05
0.000979715 -0.000165378 9.46002e-08
-0.000165378 0.00052127 3.68937e-06
9.46002e-08 3.68937e-06 0.000320188
0.000493602 -0.000116898 8.89261e-06
-0.000116898 0.00017013 -4.81221e-07
8.89261e-06 -4.81221e-07 2.75224e-05
0.000777012 0.000154139 -2.92047e-06
0.000154139 0.000442228 -6.17777e-06
-2.92047e-06 -6.17777e-06 0.000271914
0.00107863 0.000225182 8.00966e-07
0.000225182 0.000601746 6.806e-06
8.00966e-07 6.806e-06 0.000388744
0.000142844 3.80169e-05 3.81292e-06
3.80169e-05 -6.79902e-05 -1.86831e-07
3.81292e-06 -1.86831e-07 -0.000268586
0.000502071 -4.03234e-05 -1.40615e-06
-4.03234e-05 0.000173557 7.47013e-07
-1.40615e-06 7.47013e-07 -1.82931e-05
0.00285808 -0.000524879 2.1438e-05
-0.000524879 -0.000523257 -5.60209e-06
2.1438e-05 -5.60209e-06 -4.6094e-05
0.00272732 -0.000980999 2.07129e-05
-0.000980999 -0.000433523 -8.71393e-06
2.07129e-05 -8.71393e-06 -0.000141233
0.00308083 -0.00142748 -4.0304e-06
-0.00142748 0.000214262 1.07855e-05
-4.0304e-06 1.07855e-05 -2.72287e-05
0.00301408 -0.00187023 1.29922e-06
-0.00187023 0.000976217 1.26645e-05
1.29922e-06 1.26645e-05 0.000100107
0.00323612 -0.00182899 -3.07496e-05
-0.00182899 0.000723894 1.72236e-05
-3.07496e-05 1.72236e-05 2.14896e-05
0.000742813 -0.00177224 4.49486e-05
-0.00177224 0.000493902 1.89875e-05
4.49486e-05 1.89875e-05 -0.000756776
0.00474642 -0.00117149 3.59252e-05
-0.00117149 0.00246691 -1.06076e-05
3.59252e-05 -1.06076e-05 0.00181002
0.0020482 -0.000548854 4.65352e-05
-0.000548854 0.00134288 -5.80111e-05
4.65352e-05 -5.80111e-05 0.00086932
0.000477464 -6.9404e-05 2.82576e-06
-6.9404e-05 0.000158596 -7.19372e-06
2.82576e-06 -7.19372e-06 -7.06504e-05
0.00128094 -0.000205394 2.58517e-05
-0.000205394 0.000699565 -4.69972e-05
2.58517e-05 -4.69972e-05 0.000367342
-8.48329e-05 -0.000158928 1.30327e-06
-0.000158928 -0.000212546 5e-06
1.30327e-06 5e-06 -0.000374223
-0.000413565 2.31683e-06 -2.96193e-05
2.31683e-06 -0.000248657 -1.46271e-05
-2.96193e-05 -1.46271e-05 -0.000375136
0.00304313 -0.000723793 -2.21406e-06
-0.000723793 -0.000404157 5.91962e-06
-2.21406e-06 5.91962e-06 0.000166006
0.000360877 -8.61749e-05 -6.45515e-06
-8.61749e-05 0.00027609 5.76194e-06
-6.45515e-06 5.76194e-06 5.7307e-05
0.000937766 -0.000325871 -4.54314e-06
-0.000325871 0.000507922 4.01864e-07
-4.54314e-06 4.01864e-07 0.000212247
0.00247786 -0.00127109 1.1934e-05
-0.00127109 -0.000430621 -6.57855e-06
1.1934e-05 -6.57855e-06 -0.000186326
0.00333211 -0.00164705 1.1939e-06
-0.00164705 0.000809074 3.8637e-06
1.1939e-06 3.8637e-06 0.000192881
0.00262137 -0.00194778 2.3949e-06
-0.00194778 0.000616279 -1.27701e-05
2.3949e-06 -1.27701e-05 -0.000154618
0.000436842 -0.00048656 -1.24484e-05
-0.00048656 0.000442721 -2.43937e-05
-1.24484e-05 -2.43937e-05 -0.000100486
0.000913742 -0.00104515 9.05224e-06
-0.00104515 0.00117581 -4.34131e-06
9.05224e-06 -4.34131e-06 -8.72785e-06
0.00601013 -0.00185567 -5.49321e-05
-0.00185567 0.000594567 5.07984e-05
-5.49321e-05 5.07984e-05 0.00145493
0.00267261 -0.00171427 -3.45402e-05
-0.00171427 0.000322926 2.28996e-05
-3.45402e-05 2.28996e-05 -0.000188132
0.00453148 -0.00228875 3.58467e-06
-0.00228875 0.00152991 -4.20584e-06
3.58467e-06 -4.20584e-06 0.000697613
0.00146225 -0.00161246 -5.65139e-05
-0.00161246 0.000482988 8.22243e-06
-5.65139e-05 8.22243e-06 -5.65561e-05
0.00109343 -0.000291448 1.77615e-05
-0.000291448 0.000860424 -2.28629e-06
1.77615e-05 -2.28629e-06 0.000462654
-0.00157049 3.58257e-05 2.90759e-05
3.58257e-05 -0.000739546 3.03275e-05
2.90759e-05 3.03275e-05 -0.001126
-0.000117363 -0.000487279 -3.19116e-05
-0.000487279 0.000549677 -1.6868e-05
-3.19116e-05 -1.6868e-05 -0.000380719
-0.00622479 -0.00112009 0.00215717
-0.00112009 0.00476609 6.69791e-05
0.00215717 6.69791e-05 -0.00654484
0.0164968 -0.000408927 -0.000138294
-0.000408927 -0.0032722 5.94644e-05
-0.000138294 5.94644e-05 -6.58454e-05
0.00190354 0.00060902 8.40339e-06
0.00060902 0.00126575 -1.7986e-05
8.40339e-06 -1.7986e-05 0.000775028
0.00233186 0.00117154 -7.84355e-06
0.00117154 0.00117548 4.19261e-06
-7.84355e-06 4.19261e-06 0.000346765
0.00187111 0.00137878 0.000153078
0.00137878 -0.00115685 6.43572e-05
0.000153078 6.43572e-05 -0.00051805
0.00388127 0.0018153 4.27872e-05
0.0018153 0.00122229 2.38393e-05
4.27872e-05 2.38393e-05 0.000527124
0.00281575 0.00166807 2.08027e-05
0.00166807 0.00105513 1.27574e-05
2.08027e-05 1.27574e-05 7.87337e-05
0.0205323 0.00148037 1.63261e-05
0.00148037 -0.00157466 -0.000281909
1.63261e-05 -0.000281909 0.00195794
0.00753088 0.00598673 -0.000344574
0.00598673 -0.00570481 3.61426e-05
-0.000344574 3.61426e-05 0.000264669
6.29025e-05 0.00304399 -5.44359e-05
0.00304399 -0.00216728 -4.3973e-05
-5.44359e-05 -4.3973e-05 -0.00168479
0.0213497 -0.0111565 -0.00178843
-0.0111565 0.0143084 0.000737796
-0.00178843 0.000737796 0.00194894
0.0441142 -0.0325952 -0.00164321
-0.0325952 0.0335576 -0.00184249
-0.00164321 -0.00184249 0.00932461
0.000851776 0.000660496 1.08307e-05
0.000660496 0.000606036 -9.01888e-06
1.08307e-05 -9.01888e-06 3.85023e-05
0.00561844 -0.0106241 0.00179303
-0.0106241 0.00425331 -0.000126169
0.00179303 -0.000126169 -0.00751026
0.0112823 -0.0126302 -0.00154514
-0.0126302 0.0219124 0.000263204
-0.00154514 0.000263204 0.00481848
0.00424037 0.00263853 -9.81779e-08
0.00263853 0.000479845 1.47212e-05
-9.81779e-08 1.47212e-05 9.48549e-05
0.00130492 0.00112023 -1.50713e-05
0.00112023 0.000503868 1.28254e-05
-1.50713e-05 1.28254e-05 -0.000321582
0.00404203 0.0019912 -1.37505e-05
0.0019912 0.00162445 -4.28784e-06
-1.37505e-05 -4.28784e-06 0.000656733
0.0020019 0.00325795 0.000108277
0.00325795 -5.1459e-05 7.33647e-05
0.000108277 7.33647e-05 -0.000148088
0.0116187 0.0090004 -0.000412259
0.0090004 -0.00844347 -0.000139079
-0.000412259 -0.000139079 -0.00310994
0.00434181 0.00771271 -0.000133568
0.00771271 -0.001805 -0.000135624
-0.000133568 -0.000135624 0.000490469
0.0379331 -0.0119701 0.00120323
-0.0119701 0.0203897 -0.000530278
0.00120323 -0.000530278 0.00544169
0.0369258 -0.00777517 -0.000651078
-0.00777517 0.01638 0.00121564
-0.000651078 0.00121564 0.00339654
0.0013383 0.00085256 -2.01798e-05
0.00085256 0.000826091 -1.42542e-05
-2.01798e-05 -1.42542e-05 0.000243362
0.00357952 -0.00180117 0.000556577
-0.00180117 0.0103107 -0.000320117
0.000556577 -0.000320117 -0.00141422
0.0129407 0.00677748 -0.00153664
0.00677748 0.00917737 -0.000645228
-0.00153664 -0.000645228 0.00327337
0.00269616 0.00203504 -5.95966e-05
0.00203504 0.000227736 -3.89886e-05
-5.95966e-05 -3.89886e-05 -0.000131554
0.00322633 0.00195356 -0.000103137
0.00195356 0.00152091 -4.45911e-05
-0.000103137 -4.45911e-05 0.000525779
0.000535791 0.00240156 -0.000145593
0.00240156 0.000823569 -8.06817e-05
-0.000145593 -8.06817e-05 -0.00024748
-0.00106457 0.00608835 0.000128567
0.00608835 4.22102e-05 -9.99475e-05
0.000128567 -9.99475e-05 -0.000420228
0.00562025 0.0129889 0.00158194
0.0129889 -0.00680307 0.000322201
0.00158194 0.000322201 -0.00381994
0.0376919 -0.0140786 -0.00196862
-0.0140786 0.0243905 0.00156838
-0.00196862 0.00156838 0.00754231
0.0103294 0.00135087 2.73755e-05
0.00135087 -0.00120275 -0.000308906
2.73755e-05 -0.000308906 -0.00474126
0.000552857 0.000335122 -7.05934e-06
0.000335122 0.000589961 1.22804e-05
-7.05934e-06 1.22804e-05 0.000210452
0.000852304 0.000509632 5.55954e-06
0.000509632 0.000743483 1.8852e-06
5.55954e-06 1.8852e-06 0.000287587
0.000246885 0.000453119 3.49679e-06
0.000453119 0.000455598 2.75634e-06
3.49679e-06 2.75634e-06 -4.43531e-05
0.000367642 9.96383e-05 5.84961e-06
9.96383e-05 7.40718e-05 4.17106e-06
5.84961e-06 4.17106e-06 -0.000113402
0.00128436 0.000191703 1.33173e-06
0.000191703 0.000772491 5.9005e-06
1.33173e-06 5.9005e-06 0.0005177
-4.15884e-05 5.20048e-05 1.05625e-06
5.20048e-05 -5.89981e-05 4.78968e-06
1.05625e-06 4.78968e-06 -0.000325921
2.96995e-07 4.46104e-05 8.87904e-06
4.46104e-05 4.0074e-05 -3.15958e-06
8.87904e-06 -3.15958e-06 -0.000251011
0.000401975 0.000113389 -2.23853e-06
0.000113389 0.000396628 9.44383e-06
-2.23853e-06 9.44383e-06 0.000107885
0.000836699 8.39618e-05 -1.64002e-06
8.39618e-05 0.000445702 -1.56583e-06
-1.64002e-06 -1.56583e-06 0.00020685
0.000274832 5.8129e-05 1.48415e-06
5.8129e-05 0.000249435 -2.89806e-06
1.48415e-06 -2.89806e-06 -3.77267e-05
0.000672618 -4.83241e-06 3.92365e-08
-4.83241e-06 0.000422611 2.75867e-06
3.92365e-08 2.75867e-06 0.000140328
-0.000147269 8.21514e-05 -2.05736e-06
8.21514e-05 0.000260169 3.25924e-07
-2.05736e-06 3.25924e-07 -0.000193362
-0.000128729 3.92586e-05 2.25444e-06
3.92586e-05 0.000430249 1.56703e-06
2.25444e-06 1.56703e-06 -0.000173086
1.97973e-05 -6.78684e-05 -2.74283e-08
-6.78684e-05 0.00019471 2.14949e-06
-2.74283e-08 2.14949e-06 -0.000178799
0.00264854 -0.000161723 -1.23811e-05
-0.000161723 0.00180201 -6.16998e-06
-1.23811e-05 -6.16998e-06 0.00144406
0.00129993 -0.000220039 -4.36958e-06
-0.000220039 0.000778198 -3.62607e-07
-4.36958e-06 -3.62607e-07 0.00053527
0.000437797 -7.50091e-05 -1.24527e-05
-7.50091e-05 0.000231292 -3.47407e-06
-1.24527e-05 -3.47407e-06 5.70896e-05
0.000552005 -0.000192685 -8.73414e-08
-0.000192685 0.000288153 3.90152e-06
-8.73414e-08 3.90152e-06 0.000117035
0.000440754 -0.000217186 1.2528e-06
-0.000217186 0.000169615 -1.47999e-06
1.2528e-06 -1.47999e-06 1.58367e-06
2.54704e-05 -3.14521e-05 -1.15676e-05
-3.14521e-05 0.000173151 7.73301e-06
-1.15676e-05 7.73301e-06 -5.41785e-05
0.000917612 -0.000165012 1.95524e-05
-0.000165012 0.000485635 -1.86938e-05
1.95524e-05 -1.86938e-05 0.00028562
-0.00128843 -4.90251e-05 -1.43646e-05
-4.90251e-05 -0.000652006 5.56217e-06
-1.43646e-05 5.56217e-06 -0.000973154
0.00213112 -0.00028293 1.22085e-05
-0.00028293 0.0014493 -1.80814e-06
1.22085e-05 -1.80814e-06 0.00123312
0.00104117 1.18719e-06 1.85655e-05
1.18719e-06 0.000608835 -1.71933e-05
1.85655e-05 -1.71933e-05 0.000240603
0.00453147 -0.000957768 4.81869e-06
-0.000957768 0.00250153 5.80367e-06
4.81869e-06 5.80367e-06 0.00197832
-0.00357637 -0.000325758 1.16383e-05
-0.000325758 -0.00212878 6.95508e-08
1.16383e-05 6.95508e-08 -0.00259947
2.46344e-05 -8.23477e-05 -1.49498e-06
-8.23477e-05 6.27629e-05 1.18709e-06
-1.49498e-06 1.18709e-06 -0.000269149
-0.000673227 -2.79705e-05 1.63473e-05
-2.79705e-05 -0.000420657 -2.39023e-05
1.63473e-05 -2.39023e-05 -0.000769828
0.00124723 -0.000231534 -3.13521e-07
-0.000231534 0.000842459 -1.79832e-06
-3.13521e-07 -1.79832e-06 0.000533097
-0.000535261 -3.61681e-05 1.26315e-05
-3.61681e-05 -0.00045382 8.42207e-06
1.26315e-05 8.42207e-06 -0.000709837
0.00231846 -0.000159429 -3.80328e-06
-0.000159429 0.00153429 4.02201e-06
-3.80328e-06 4.02201e-06 0.00122529
0.000281216 -0.000116515 -3.65225e-06
-0.000116515 6.5279e-05 7.79258e-09
-3.65225e-06 7.79258e-09 -0.000138239
-5.54874e-05 2.06364e-05 6.1379e-06
2.06364e-05 -0.000252774 -1.12188e-06
6.1379e-06 -1.12188e-06 -0.000364484
0.00114434 -0.000206951 -1.24455e-06
-0.000206951 0.000623534 8.23828e-06
-1.24455e-06 8.23828e-06 0.000424632
0.000353522 -6.58206e-05 -1.22618e-06
-6.58206e-05 2.41624e-06 -5.52671e-08
-1.22618e-06 -5.52671e-08 -0.000100312
0.00135016 4.73595e-05 -1.05028e-05
4.73595e-05 0.000641091 8.71147e-06
-1.05028e-05 8.71147e-06 0.000608155
0.000420673 -0.00010165 1.36812e-06
-0.00010165 5.64278e-05 -1.14886e-06
1.36812e-06 -1.14886e-06 -5.33421e-05
0.000840836 -3.55209e-05 -1.53445e-05
-3.55209e-05 0.000308593 1.14865e-06
-1.53445e-05 1.14865e-06 0.000272467
0.000685945 6.37823e-06 2.48676e-06
6.37823e-06 0.000174224 1.93934e-06
2.48676e-06 1.93934e-06 0.000174998
0.000366859 -6.52396e-05 6.20412e-06
-6.52396e-05 -4.15205e-06 -6.00413e-06
6.20412e-06 -6.00413e-06 -4.35132e-05
0.0026997 -3.95078e-06 6.38128e-06
-3.95078e-06 0.00152776 -6.0949e-09
6.38128e-06 -6.0949e-09 0.00153829
0.0027569 -1.39456e-05 2.39346e-05
-1.39456e-05 0.00156828 -6.01156e-06
2.39346e-05 -6.01156e-06 0.00157732
0.00124475 0.00010463 -2.47802e-07
0.00010463 0.000679715 -1.60139e-06
-2.47802e-07 -1.60139e-06 0.000483003
0.000436181 9.73018e-05 -6.60398e-07
9.73018e-05 8.47698e-05 -6.54596e-06
-6.60398e-07 -6.54596e-06 -2.00269e-05
0.000580406 1.47185e-05 -1.38149e-07
1.47185e-05 0.000232986 9.92587e-07
-1.38149e-07 9.92587e-07 5.0245e-05
0.000366568 1.60224e-05 9.38113e-07
1.60224e-05 -2.79967e-05 -5.79252e-06
9.38113e-07 -5.79252e-06 -5.47075e-05
0.000414549 -2.27713e-05 2.52497e-06
-2.27713e-05 5.19219e-05 -3.85852e-07
2.52497e-06 -3.85852e-07 -3.88108e-05
0.000409347 -9.31542e-05 -3.60817e-06
-9.31542e-05 5.23987e-05 5.65163e-06
-3.60817e-06 5.65163e-06 -4.5999e-05
0.00037012 -6.79248e-06 1.92106e-09
-6.79248e-06 -2.68611e-05 1.16645e-07
1.92106e-09 1.16645e-07 -5.46841e-05
0.00245694 3.41399e-05 -7.33522e-06
3.41399e-05 0.0013646 -6.45404e-06
-7.33522e-06 -6.45404e-06 0.00137437
0.00149092 2.48666e-05 -6.98133e-07
2.48666e-05 0.000720943 5.08921e-06
-6.98133e-07 5.08921e-06 0.000691016
0.00166448 4.09972e-05 -1.07239e-05
4.09972e-05 0.000836998 -1.59674e-07
-1.07239e-05 -1.59674e-07 0.00083735
0.000768726 3.96823e-05 4.43047e-07
3.96823e-05 0.000246502 1.30827e-05
4.43047e-07 1.30827e-05 0.000236937
0.00420579 0.00714893 0.0020381
0.00714893 0.00607036 0.00012368
0.0020381 0.00012368 -0.00564697
0.0138874 0.00950751 0.00346127
0.00950751 0.0188371 0.000284452
0.00346127 0.000284452 0.00342555
0.00118192 0.00226413 1.35129e-05
0.00226413 -0.00633428 -9.33516e-05
1.35129e-05 -9.33516e-05 -0.000442504
0.00353704 7.58203e-05 0.000165156
7.58203e-05 -0.00380749 3.33981e-05
0.000165156 3.33981e-05 -0.00100188
0.00347735 -0.000186596 4.81243e-05
-0.000186596 2.86719e-06 -4.8973e-06
4.81243e-05 -4.8973e-06 0.000402109
0.00446764 0.000471201 1.18364e-05
0.000471201 -0.00350214 -3.86868e-05
1.18364e-05 -3.86868e-05 0.000618117
0.00524115 -0.00118464 3.89147e-05
-0.00118464 -0.000713863 -4.15961e-07
3.89147e-05 -4.15961e-07 0.000807366
0.0130702 -0.00166169 0.000488157
-0.00166169 -0.00607411 -0.000198501
0.000488157 -0.000198501 -0.00400573
0.0139055 0.00874661 -0.000154206
0.00874661 0.00740963 -0.000140238
-0.000154206 -0.000140238 -0.00192502
0.0511709 0.0273962 -0.000609495
0.0273962 0.0356604 0.000261847
-0.000609495 0.000261847 0.0122271
0.00443421 -0.00295046 -0.000155452
-0.00295046 -0.0046792 3.87302e-06
-0.000155452 3.87302e-06 0.000232004
0.0137643 -0.00753439 0.000778649
-0.00753439 -0.00582385 -0.000169408
0.000778649 -0.000169408 -0.00227523
0.0333487 0.0123998 -3.25358e-05
0.0123998 0.018854 -0.000671625
-3.25358e-05 -0.000671625 0.00386956
0.0387466 0.00755621 -0.000585828
0.00755621 0.0195777 0.000501902
-0.000585828 0.000501902 0.00853373
0.00253503 0.000215965 -6.06321e-06
0.000215965 0.00169638 4.57743e-06
-6.06321e-06 4.57743e-06 0.00136864
0.000661874 3.82989e-05 2.12904e-06
3.82989e-05 0.000282314 -1.10348e-06
2.12904e-06 -1.10348e-06 0.000103963
0.000463629 -0.000128066 2.20583e-06
-0.000128066 0.000155897 8.33113e-07
2.20583e-06 8.33113e-07 -1.43966e-05
7.40524e-05 -4.1377e-05 6.65535e-06
-4.1377e-05 -9.74946e-05 -1.93869e-06
6.65535e-06 -1.93869e-06 -0.000239822
0.000115574 0.000103692 3.64473e-06
0.000103692 -4.48942e-06 7.33163e-07
3.64473e-06 7.33163e-07 -0.000137524
0.000887916 0.00024077 2.5776e-06
0.00024077 0.00048031 6.36734e-06
2.5776e-06 6.36734e-06 0.000224486
0.000352025 8.8477e-05 -3.23412e-06
8.8477e-05 0.000118649 -9.35457e-07
-3.23412e-06 -9.35457e-07 -7.57143e-05
0.000432548 0.000147674 7.89754e-06
0.000147674 0.000134816 4.51742e-06
7.89754e-06 4.51742e-06 -0.000125182
0.000474631 4.72523e-05 -6.87709e-08
4.72523e-05 0.000180257 -3.32328e-07
-6.87709e-08 -3.32328e-07 -4.16441e-05
-0.000251467 -2.98904e-05 -6.25324e-08
-2.98904e-05 -0.00035327 -2.62597e-06
-6.25324e-08 -2.62597e-06 -0.000510244
0.00240849 -0.000670879 7.99395e-05
-0.000670879 -0.000855023 -3.06939e-05
7.99395e-05 -3.06939e-05 -0.000140388
0.0018665 -0.00119271 2.34274e-05
-0.00119271 -0.0007478 -1.62947e-05
2.34274e-05 -1.62947e-05 -0.000461797
0.00263323 -0.00154467 -8.69383e-07
-0.00154467 0.000392998 1.56848e-05
-8.69383e-07 1.56848e-05 -0.000156776
0.000674233 -0.00158152 -8.01717e-06
-0.00158152 -0.000447271 1.45374e-05
-8.01717e-06 1.45374e-05 -0.00111732
0.00264052 -0.00102535 2.96733e-05
-0.00102535 0.00206575 7.96324e-05
2.96733e-05 7.96324e-05 0.000993438
8.60665e-05 -0.00086998 -3.44928e-05
-0.00086998 0.00029101 -3.19415e-05
-3.44928e-05 -3.19415e-05 -0.000490955
0.00113225 -0.000316636 1.96575e-05
-0.000316636 0.000663257 -3.01272e-05
1.96575e-05 -3.01272e-05 0.000408308
0.000113632 -1.97029e-05 -4.9402e-06
-1.97029e-05 6.61509e-05 -4.26793e-07
-4.9402e-06 -4.26793e-07 -0.000123788
0.00398506 -0.00158579 -6.00828e-07
-0.00158579 -0.000567836 -9.67295e-06
-6.00828e-07 -9.67295e-06 0.000466352
0.000296892 -7.41052e-05 9.4805e-08
-7.41052e-05 0.00034564 1.06464e-06
9.4805e-08 1.06464e-06 -5.20675e-05
-8.47427e-05 -0.000149662 -1.08344e-05
-0.000149662 0.000179223 3.21127e-06
-1.08344e-05 3.21127e-06 -0.000187223
0.00202517 -0.00153941 2.53758e-05
-0.00153941 -7.47588e-05 -1.19217e-06
2.53758e-05 -1.19217e-06 -0.000386345
0.00352757 -0.00205807 -3.77366e-06
-0.00205807 0.00104674 -7.82311e-06
-3.77366e-06 -7.82311e-06 0.000230381
0.000593858 -0.00144496 3.34548e-05
-0.00144496 3.63129e-05 -1.73617e-05
3.34548e-05 -1.73617e-05 -0.00051782
0.000710298 -0.000702562 2.95894e-05
-0.000702562 0.00108129 -4.41323e-05
2.95894e-05 -4.41323e-05 0.00015063
0.00112166 -0.00236463 -1.93284e-05
-0.00236463 -0.00205533 5.44643e-05
-1.93284e-05 5.44643e-05 -0.00119715
0.00329556 -0.00188425 -5.14364e-05
-0.00188425 0.00117362 3.19861e-05
-5.14364e-05 3.19861e-05 0.000440751
-0.000453602 -0.000850138 -9.03123e-05
-0.000850138 0.000258393 1.98924e-05
-9.03123e-05 1.98924e-05 -0.000476338
0.00167176 0.00020738 6.31269e-06
0.00020738 0.00116606 1.53748e-06
6.31269e-06 1.53748e-06 0.000791812
-0.000754282 -1.56478e-05 1.12655e-05
-1.56478e-05 -0.000167106 1.56859e-05
1.12655e-05 1.56859e-05 -0.000658956
0.000255781 -0.000101372 1.87234e-05
-0.000101372 0.000519052 1.70954e-05
1.87234e-05 1.70954e-05 5.37581e-05
-0.00285241 0.00273035 -0.000919836
0.00273035 0.00913114 -8.08393e-05
-0.000919836 -8.08393e-05 0.000135392
0.00227308 -0.00257235 1.77259e-05
-0.00257235 0.00876233 -3.50641e-05
1.77259e-05 -3.50641e-05 0.00109919
0.00947878 3.92704e-05 -4.9128e-05
3.92704e-05 -0.00789971 -3.25783e-06
-4.9128e-05 -3.25783e-06 -0.00815859
0.000871396 0.000652332 2.27043e-05
0.000652332 0.000660264 -1.72265e-05
2.27043e-05 -1.72265e-05 8.45795e-05
0.00187142 0.00127295 2.61667e-05
0.00127295 0.000895077 3.07289e-05
2.61667e-05 3.07289e-05 -1.64411e-05
0.00250461 0.00208234 0.000107444
0.00208234 -0.000452612 6.0104e-05
0.000107444 6.0104e-05 -0.000613928
0.00446088 0.00214047 5.93124e-05
0.00214047 0.00186593 4.78646e-05
5.93124e-05 4.78646e-05 0.000826474
0.0200425 -0.0119936 0.000360615
-0.0119936 0.0165193 0.000194048
0.000360615 0.000194048 0.00237388
0.0029583 0.00730318 -0.00110266
0.00730318 -0.0143286 -0.000197387
-0.00110266 -0.000197387 -0.00974939
0.00634085 0.00821528 -7.80947e-05
0.00821528 -0.00173901 2.45872e-05
-7.80947e-05 2.45872e-05 0.000870261
0.00507274 0.00340858 0.000130162
0.00340858 0.0018201 4.53756e-05
0.000130162 4.53756e-05 0.00158681
0.0298422 -0.00891007 -0.000538217
-0.00891007 0.0150388 -0.000223146
-0.000538217 -0.000223146 0.00206148
0.0108174 -0.0120213 -0.00229025
-0.0120213 0.0233423 0.000159736
-0.00229025 0.000159736 0.0076635
0.0485195 -0.0140621 0.00215668
-0.0140621 0.0211126 0.000439703
0.00215668 0.000439703 0.00536118
0.000827444 0.000800658 1.63335e-05
0.000800658 0.000574294 -5.51815e-06
1.63335e-05 -5.51815e-06 -3.06878e-05
0.00513228 -0.0046176 0.000140749
-0.0046176 0.0134547 2.14562e-05
0.000140749 2.14562e-05 0.00062892
0.0116105 0.00670252 -0.000340366
0.00670252 0.0058676 -0.000198431
-0.000340366 -0.000198431 -0.00134591
0.00351901 0.00240927 8.72815e-06
0.00240927 0.000809946 6.10602e-06
8.72815e-06 6.10602e-06 0.000212003
0.0016987 0.00162905 3.54701e-06
0.00162905 0.000805831 7.20712e-06
3.54701e-06 7.20712e-06 -0.000126465
-8.26287e-05 0.00239271 -0.00018057
0.00239271 0.000443115 -0.000122267
-0.00018057 -0.000122267 -0.000421879
0.00465411 0.00860994 0.000127182
0.00860994 0.00122736 5.881e-05
0.000127182 5.881e-05 0.000587308
0.0113003 0.0132318 -4.24186e-05
0.0132318 -0.00183235 -1.68176e-05
-4.24186e-05 -1.68176e-05 -0.00153922
0.0196638 -0.00824438 5.29036e-06
-0.00824438 0.0169812 -0.000186523
5.29036e-06 -0.000186523 0.00176141
0.021749 -0.00259347 -0.000242529
-0.00259347 0.0050984 -2.38139e-05
-0.000242529 -2.38139e-05 0.00197051
0.00165034 0.00148789 -1.60598e-05
0.00148789 0.00105202 -1.00154e-05
-1.60598e-05 -1.00154e-05 0.000181325
0.00232315 0.00192924 -0.000854889
0.00192924 0.00483673 -0.000211771
-0.000854889 -0.000211771 -0.00224107
0.00612286 0.00133498 6.00273e-05
0.00133498 0.00223114 -0.000205773
6.00273e-05 -0.000205773 -0.00272244
-0.00104051 0.00100833 -2.36088e-06
0.00100833 8.1872e-05 -3.76544e-05
-2.36088e-06 -3.76544e-05 -0.000647073
-0.00298573 0.00276119 -4.53645e-05
0.00276119 0.000999721 6.38457e-05
-4.53645e-05 6.38457e-05 -0.000382087
0.00595527 0.0107971 0.000611045
0.0107971 0.00456435 7.66816e-05
0.000611045 7.66816e-05 -0.00154634
0.0170141 -0.00639578 0.000146939
-0.00639578 0.00683494 0.000200324
0.000146939 0.000200324 -0.00463445
0.0220164 -0.0014567 0.000160057
-0.0014567 0.00153513 -0.000329596
0.000160057 -0.000329596 0.000363889
0.00055117 0.000453854 7.99484e-06
0.000453854 0.000548051 2.29417e-05
7.99484e-06 2.29417e-05 0.000140012
0.000584584 0.000475985 -3.41805e-06
0.000475985 0.000675422 -4.81005e-06
-3.41805e-06 -4.81005e-06 0.000159736
0.000616443 0.000509921 1.43492e-05
0.000509921 0.000829729 2.25848e-06
1.43492e-05 2.25848e-06 0.000180651
0.000438971 0.000103398 1.58581e-06
0.000103398 0.000137639 8.93205e-06
1.58581e-06 8.93205e-06 -7.08187e-05
0.00136159 -1.0318e-05 -7.81702e-07
-1.0318e-05 0.000896702 7.49261e-06
-7.81702e-07 7.49261e-06 0.000601869
0.000170626 8.05293e-05 3.66233e-06
8.05293e-05 0.000175097 -7.50062e-08
3.66233e-06 -7.50062e-08 -0.000122034
3.31446e-06 0.000119985 1.30244e-06
0.000119985 0.000357239 2.25856e-06
1.30244e-06 2.25856e-06 -8.88225e-05
0.000728233 -5.13576e-05 5.97175e-06
-5.13576e-05 0.000436479 1.03976e-06
5.97175e-06 1.03976e-06 0.000163051
0.000236901 -2.41986e-05 3.76604e-07
-2.41986e-05 0.000308121 -4.4562e-06
3.76604e-07 -4.4562e-06 -4.50347e-05
-0.000112193 4.66175e-05 4.76921e-08
4.66175e-05 0.000493457 1.10177e-06
4.76921e-08 1.10177e-06 -0.000153854
-0.000703702 1.62512e-05 6.9835e-06
1.62512e-05 0.000318782 6.22062e-06
6.9835e-06 6.22062e-06 -0.000400452
0.00125819 -0.000133605 1.01936e-05
-0.000133605 0.00126268 -9.99219e-06
1.01936e-05 -9.99219e-06 0.000709476
0.00109043 -0.0001108 -2.73956e-05
-0.0001108 0.000917669 6.3382e-06
-2.73956e-05 6.3382e-06 0.000499924
0.0013645 -0.000250386 5.61619e-06
-0.000250386 0.000841234 9.01664e-06
5.61619e-06 9.01664e-06 0.000640956
-0.00066488 -0.000337734 -7.71528e-06
-0.000337734 -0.000594431 -3.79981e-06
-7.71528e-06 -3.79981e-06 -0.000726368
-0.000569008 -4.17627e-06 1.68401e-05
-4.17627e-06 -0.000145684 -1.48823e-05
1.68401e-05 -1.48823e-05 -0.000373355
-0.000729005 -2.33993e-05 2.57909e-06
-2.33993e-05 -0.00028563 -2.27247e-06
2.57909e-06 -2.27247e-06 -0.000611805
0.000191375 -0.000218401 -1.21086e-06
-0.000218401 -5.00802e-05 3.20949e-06
-1.21086e-06 3.20949e-06 -0.00020198
2.31233e-05 -0.000223531 -1.16286e-05
-0.000223531 0.00012631 4.6715e-06
-1.16286e-05 4.6715e-06 -5.64669e-05
0.00381196 -0.000352352 1.12781e-05
-0.000352352 0.00235529 -6.12507e-06
1.12781e-05 -6.12507e-06 0.00194292
0.00138426 -0.000149649 4.22294e-06
-0.000149649 0.00128235 7.11741e-06
4.22294e-06 7.11741e-06 0.000859638
0.00183215 -0.000747611 -1.00152e-05
-0.000747611 0.00106731 1.0944e-05
-1.00152e-05 1.0944e-05 0.000475185
0.00144197 -0.000186343 -1.63622e-05
-0.000186343 0.000796577 2.52761e-06
-1.63622e-05 2.52761e-06 0.000466301
0.000167642 -0.000474553 2.0891e-05
-0.000474553 -0.000156732 8.1741e-06
2.0891e-05 8.1741e-06 -0.000554911
0.00244957 -0.00118131 -7.34285e-06
-0.00118131 0.00116199 1.16008e-05
-7.34285e-06 1.16008e-05 0.000394143
0.00321451 -0.000530446 2.68673e-05
-0.000530446 0.00161754 -7.82344e-06
2.68673e-05 -7.82344e-06 0.00129398
0.00251758 -0.000723397 2.58343e-07
-0.000723397 0.00124924 -1.02118e-05
2.58343e-07 -1.02118e-05 0.000799618
-3.17792e-05 -0.000358436 3.78643e-07
-0.000358436 9.30307e-06 1.24563e-06
3.78643e-07 1.24563e-06 -0.000406766
-0.00316198 -0.000301212 1.91212e-05
-0.000301212 -0.00192676 -1.86585e-05
1.91212e-05 -1.86585e-05 -0.00244348
0.000801982 -0.000214409 -6.83376e-06
-0.000214409 0.000541682 9.0414e-06
-6.83376e-06 9.0414e-06 0.000230583
0.000869796 -0.000487824 1.01164e-05
-0.000487824 0.000510277 -4.58779e-06
1.01164e-05 -4.58779e-06 0.000155808
0.00104575 -0.000166698 1.85502e-05
-0.000166698 0.000557066 8.11388e-06
1.85502e-05 8.11388e-06 0.000230915
0.00233697 -0.000611185 -1.56807e-05
-0.000611185 0.00154559 1.68311e-05
-1.56807e-05 1.68311e-05 0.00120388
0.000238746 -0.000191604 -1.28777e-06
-0.000191604 0.00013391 -7.44802e-07
-1.28777e-06 -7.44802e-07 -0.000183184
-0.000104755 -5.09026e-05 7.65051e-06
-5.09026e-05 -0.000273508 4.67798e-06
7.65051e-06 4.67798e-06 -0.000427922
0.00236662 -0.000391199 -4.98e-06
-0.000391199 0.00150848 7.7264e-06
-4.98e-06 7.7264e-06 0.00124108
0.000833806 -0.000132459 7.01892e-07
-0.000132459 0.000338652 9.0252e-07
7.01892e-07 9.0252e-07 0.000209833
0.00155905 -1.19332e-05 -1.86693e-05
-1.19332e-05 0.000776136 9.64354e-06
-1.86693e-05 9.64354e-06 0.000734085
0.000443191 -0.0001123 -1.43415e-06
-0.0001123 8.57536e-05 3.50493e-07
-1.43415e-06 3.50493e-07 -3.22632e-05
0.00080003 -2.28775e-05 -1.82184e-05
-2.28775e-05 0.000275761 9.55174e-07
-1.82184e-05 9.55174e-07 0.000236971
0.000796083 1.56042e-05 4.18909e-06
1.56042e-05 0.000244631 3.15668e-06
4.18909e-06 3.15668e-06 0.000242186
0.000349535 -6.79659e-05 5.14864e-06
-6.79659e-05 -2.04963e-05 -5.9228e-06
5.14864e-06 -5.9228e-06 -5.97979e-05
0.00171848 8.26541e-06 2.14937e-05
8.26541e-06 0.000867458 -2.10746e-06
2.14937e-05 -2.10746e-06 0.000874002
0.00267341 -8.28233e-06 3.19233e-05
-8.28233e-06 0.00150947 -6.06317e-06
3.19233e-05 -6.06317e-06 0.00152063
-9.04204e-05 0.000121218 3.05526e-06
0.000121218 -0.000278483 -1.48184e-06
3.05526e-06 -1.48184e-06 -0.000450946
0.000530318 9.92901e-05 9.55851e-07
9.92901e-05 0.000144811 -6.56705e-06
9.55851e-07 -6.56705e-06 3.05921e-05
0.000346532 3.71524e-05 1.23611e-06
3.71524e-05 5.38126e-05 1.17526e-06
1.23611e-06 1.17526e-06 -0.000122348
0.000361246 1.80296e-05 2.93531e-06
1.80296e-05 -3.10019e-05 -6.53568e-06
2.93531e-06 -6.53568e-06 -6.01276e-05
0.000397873 7.82447e-05 6.45702e-07
7.82447e-05 4.68296e-05 9.00459e-09
6.45702e-07 9.00459e-09 -4.94976e-05
8.61202e-05 -9.90773e-05 -4.19446e-06
-9.90773e-05 -0.000136158 5.00006e-06
-4.19446e-06 5.00006e-06 -0.000290079
0.00245801 1.81334e-05 -1.3948e-05
1.81334e-05 0.0013639 -6.65001e-06
-1.3948e-05 -6.65001e-06 0.00137504
0.00035806 1.17693e-05 -6.66953e-07
1.17693e-05 -3.35437e-05 -6.46772e-08
-6.66953e-07 -6.46772e-08 -6.00216e-05
0.000460764 -8.13792e-06 -3.76522e-06
-8.13792e-06 6.59665e-05 4.88614e-06
-3.76522e-06 4.88614e-06 -1.41124e-05
0.000384341 -1.93399e-05 -4.05239e-06
-1.93399e-05 -1.81463e-05 5.933e-06
-4.05239e-06 5.933e-06 -4.65319e-05
0.00253834 3.62471e-05 -6.34803e-06
3.62471e-05 0.00141969 -1.79177e-07
-6.34803e-06 -1.79177e-07 0.00142863
0.00273783 5.37014e-05 -8.78084e-07
5.37014e-05 0.00155582 7.29243e-06
-8.78084e-07 7.29243e-06 0.00156093
0.0059291 -0.000227333 -0.000546245
-0.000227333 0.0146618 0.000103632
-0.000546245 0.000103632 0.0056422
0.00998034 0.00820819 -0.000529306
0.00820819 0.00861471 0.000220437
-0.000529306 0.000220437 -0.00282576
0.0107742 -0.00373548 -0.000551708
-0.00373548 0.00360594 0.000363149
-0.000551708 0.000363149 -0.00260659
0.0193328 0.0106723 0.0017563
0.0106723 0.0190992 8.69564e-05
0.0017563 8.69564e-05 0.00306232
0.00655725 0.000946165 0.00012599
0.000946165 -0.00263044 4.0142e-05
0.00012599 4.0142e-05 0.00107629
0.00241013 -0.00109686 0.00013564
-0.00109686 -0.00215103 -7.56562e-06
0.00013564 -7.56562e-06 -0.000790232
0.0028897 -0.0015148 0.000701418
-0.0015148 -0.0145824 -5.02897e-05
0.000701418 -5.02897e-05 -0.00976183
0.021995 0.0101109 -0.00286937
0.0101109 0.0172234 -0.000572908
-0.00286937 -0.000572908 0.00513372
0.0429683 0.0319474 -0.00187007
0.0319474 0.0315141 0.00191001
-0.00187007 0.00191001 0.00781663
0.00602526 -0.00202992 9.25684e-05
-0.00202992 -0.00329499 -1.75316e-05
9.25684e-05 -1.75316e-05 0.000284372
0.00859164 -0.00825499 0.000503256
-0.00825499 -0.00954236 -0.00026319
0.000503256 -0.00026319 -0.00539429
0.0353876 0.0119604 -0.000785687
0.0119604 0.0202079 -0.00052428
-0.000785687 -0.00052428 0.00464353
0.0298493 0.00674346 0.000666475
0.00674346 0.0158431 0.000653249
0.000666475 0.000653249 0.00505885
0.00324929 -0.00485009 -9.37998e-05
-0.00485009 -0.00513426 0.000160713
-9.37998e-05 0.000160713 -0.000806376
-0.00128002 -0.0119703 0.00148649
-0.0119703 -0.00573297 -0.000366118
0.00148649 -0.000366118 -0.00474554
0.0206405 0.00462863 -0.00103216
0.00462863 0.0123019 -0.00158476
-0.00103216 -0.00158476 -0.000446212
0.0134777 -0.0019207 -0.000325248
-0.0019207 0.00350087 5.10464e-05
-0.000325248 5.10464e-05 -0.000513881
0.00132308 4.26945e-05 6.81033e-06
4.26945e-05 0.000823352 1.56146e-05
6.81033e-06 1.56146e-05 0.000500955
5.48085e-05 -7.92552e-06 -4.94598e-07
-7.92552e-06 -5.85118e-05 -5.77803e-07
-4.94598e-07 -5.77803e-07 -0.000259595
0.000182525 0.000105385 -2.76799e-06
0.000105385 -6.9647e-05 -8.87037e-07
-2.76799e-06 -8.87037e-07 -0.000225701
-0.000707461 -9.7934e-05 -1.31082e-05
-9.7934e-05 -0.000637644 5.14549e-07
-1.31082e-05 5.14549e-07 -0.000677104
0.000441077 0.000201296 6.53071e-06
0.000201296 0.000147684 2.22301e-05
6.53071e-06 2.22301e-05 -0.000109151
0.000645272 0.000157145 -1.66999e-06
0.000157145 0.000328087 -1.96819e-06
-1.66999e-06 -1.96819e-06 7.89315e-05
-0.000100628 -5.12153e-05 2.22684e-06
-5.12153e-05 -0.000190887 -4.11978e-06
2.22684e-06 -4.11978e-06 -0.000362384
0.0011269 0.000267003 1.29587e-05
0.000267003 0.00066099 6.42991e-06
1.29587e-05 6.42991e-06 0.000342675
0.000923631 0.000257139 -1.06767e-06
0.000257139 0.000509473 -3.15737e-06
-1.06767e-06 -3.15737e-06 0.000216896
0.000442128 8.41258e-05 -4.22333e-06
8.41258e-05 0.000160637 -3.04688e-06
-4.22333e-06 -3.04688e-06 -6.41884e-05
0.00328132 -0.00151939 0.000180397
-0.00151939 -0.00091417 -0.000106435
0.000180397 -0.000106435 9.21881e-05
0.00108517 -0.00138667 -1.19723e-05
-0.00138667 -0.000693845 -1.24191e-05
-1.19723e-05 -1.24191e-05 -0.000796689
0.0028079 -0.00188903 9.49085e-06
-0.00188903 0.000721609 2.73216e-05
9.49085e-06 2.73216e-05 -9.12398e-05
0.000124551 -0.00137416 2.10437e-05
-0.00137416 -0.000214045 2.28499e-06
2.10437e-05 2.28499e-06 -0.000785381
0.00439234 -0.000724253 -5.18704e-05
-0.000724253 0.00298741 9.6945e-05
-5.18704e-05 9.6945e-05 0.00239149
0.000732715 -0.000304347 -1.33548e-05
-0.000304347 0.000726147 -2.90093e-05
-1.33548e-05 -2.90093e-05 0.000309658
0.00145798 0.000105827 -9.40192e-06
0.000105827 0.00106499 -1.29554e-05
-9.40192e-06 -1.29554e-05 0.000646694
0.00096389 0.000103484 -8.76746e-06
0.000103484 0.000658284 -1.32384e-06
-8.76746e-06 -1.32384e-06 0.000308596
0.00383435 -0.00258929 -5.2803e-05
-0.00258929 -0.000476949 1.06349e-05
-5.2803e-05 1.06349e-05 0.000303208
0.00134464 -0.000182151 -4.00415e-06
-0.000182151 0.0011007 8.2007e-06
-4.00415e-06 8.2007e-06 0.000626444
0.000843359 -0.000322116 1.59279e-05
-0.000322116 0.000811631 -7.34525e-06
1.59279e-05 -7.34525e-06 0.000330165
0.0013475 -0.0016217 2.56141e-05
-0.0016217 5.10867e-05 -6.02401e-06
2.56141e-05 -6.02401e-06 -0.000526764
0.000148363 -0.000848675 -4.38897e-06
-0.000848675 0.000444175 6.13505e-06
-4.38897e-06 6.13505e-06 -0.000169647
0.000733749 -0.00329047 -2.66954e-05
-0.00329047 -0.000500098 1.08711e-05
-2.66954e-05 1.08711e-05 -0.00120905
0.000632237 -0.00122809 -1.09295e-05
-0.00122809 0.000711366 9.28781e-06
-1.09295e-05 9.28781e-06 5.09424e-05
-0.0011201 -0.000228626 -1.55548e-05
-0.000228626 0.000156725 -1.75871e-05
-1.55548e-05 -1.75871e-05 -0.000670474
0.000845836 0.000112397 2.15844e-05
0.000112397 0.000700771 -4.31357e-06
2.15844e-05 -4.31357e-06 0.000379283
-0.000439179 -0.000123132 7.1285e-06
-0.000123132 0.000113005 9.61096e-06
7.1285e-06 9.61096e-06 -0.000379235
0.00356073 0.000200928 -0.00024283
0.000200928 0.00224879 -9.79728e-05
-0.00024283 -9.79728e-05 -0.00272987
-0.00558543 0.000856639 -0.00137137
0.000856639 0.00772253 5.89385e-05
-0.00137137 5.89385e-05 0.000946285
-0.00528666 -0.00479858 -0.00250599
-0.00479858 0.00459026 0.000198959
-0.00250599 0.000198959 -0.00648825
1.52701e-05 0.000723897 2.61339e-05
0.000723897 0.000158992 -1.33947e-05
2.61339e-05 -1.33947e-05 -0.000478955
0.0020591 0.00160424 1.25023e-05
0.00160424 0.00107793 1.19296e-05
1.25023e-05 1.19296e-05 0.000148981
0.00629434 0.00317506 0.000100174
0.00317506 0.00228704 9.61872e-05
0.000100174 9.61872e-05 0.00134205
0.0025049 -0.00245309 0.000295584
-0.00245309 0.0139324 9.80362e-05
0.000295584 9.80362e-05 0.00338545
-0.000557239 0.012572 -0.00142749
0.012572 -0.00709533 -0.000261454
-0.00142749 -0.000261454 -0.00504288
0.00107845 0.00637317 0.000655286
0.00637317 -0.000789824 0.000391649
0.000655286 0.000391649 -0.000472978
-0.000201803 0.00228231 -8.67882e-06
0.00228231 0.000355176 -6.18883e-05
-8.67882e-06 -6.18883e-05 -8.62545e-05
0.0360105 -0.00879225 0.000459661
-0.00879225 0.018891 -0.000875628
0.000459661 -0.000875628 0.00579613
0.0113908 0.00718538 0.00176531
0.00718538 0.00432373 0.000474468
0.00176531 0.000474468 -0.00419014
0.0160373 -0.000606596 -5.78109e-05
-0.000606596 0.00483248 9.1848e-05
-5.78109e-05 9.1848e-05 0.00380245
0.00250135 0.00155685 8.23494e-06
0.00155685 0.00154119 7.95386e-07
8.23494e-06 7.95386e-07 0.000674899
0.0041607 0.00316859 -0.000230595
0.00316859 0.00595303 -7.06596e-05
-0.000230595 -7.06596e-05 -0.000917448
0.00542216 0.000939497 0.000230096
0.000939497 0.00322568 -2.6873e-05
0.000230096 -2.6873e-05 -0.00126754
0.000607546 0.00167561 -3.89294e-05
0.00167561 0.000787609 -1.43167e-05
-3.89294e-05 -1.43167e-05 -0.000213601
-0.00164946 0.0040172 -0.000201969
0.0040172 0.000664443 -0.000167093
-0.000201969 -0.000167093 -0.00130483
0.00347226 0.0124719 0.000789589
0.0124719 0.00327039 0.00029606
0.000789589 0.00029606 -0.00311082
0.0161353 -0.00118781 4.83288e-05
-0.00118781 -0.000709296 -0.000201763
4.83288e-05 -0.000201763 -0.00145721
0.0115196 -0.00486797 -9.13673e-05
-0.00486797 0.0081536 -0.000301681
-9.13673e-05 -0.000301681 -0.0021924
0.00185271 0.00128672 -7.67124e-07
0.00128672 0.0016587 -1.25307e-05
-7.67124e-07 -1.25307e-05 0.000703217
-0.00214604 0.00153935 0.000212333
0.00153935 0.00441316 0.000105462
0.000212333 0.000105462 -0.001603
0.0103062 -0.00226464 0.000737387
-0.00226464 0.00127895 4.01471e-05
0.000737387 4.01471e-05 -0.00212386
0.01411 -0.00222712 0.000367905
-0.00222712 0.00335147 -3.49193e-05
0.000367905 -3.49193e-05 -0.000291096
-0.00306062 0.00118843 7.44453e-05
0.00118843 0.00112979 -7.03583e-06
7.44453e-05 -7.03583e-06 -0.000686055
0.00593551 0.00533715 0.000604398
0.00533715 0.00725991 0.000355234
0.000604398 0.000355234 -0.00148195
0.0158858 -0.00140815 -0.000104598
-0.00140815 0.00441772 0.000437138
-0.000104598 0.000437138 -0.000683108
0.000922119 0.000511411 1.12047e-05
0.000511411 0.000898111 7.26503e-06
1.12047e-05 7.26503e-06 0.000352518
0.000334697 0.000520554 -8.90473e-06
0.000520554 0.000652252 -2.08495e-06
-8.90473e-06 -2.08495e-06 -3.68398e-05
-0.000628551 0.000218094 2.474e-05
0.000218094 0.000431299 -5.1168e-06
2.474e-05 -5.1168e-06 -0.000495861
-0.000770687 -1.40994e-05 7.95383e-06
-1.40994e-05 -0.000576986 7.27341e-06
7.95383e-06 7.27341e-06 -0.000810718
0.000695619 0.000114368 5.74324e-06
0.000114368 0.000591658 -3.77321e-06
5.74324e-06 -3.77321e-06 0.000248682
-0.0001794 4.21154e-05 -1.58314e-06
4.21154e-05 0.000525095 -8.05832e-07
-1.58314e-06 -8.05832e-07 -0.000163904
-0.000153518 -8.92692e-05 -1.33207e-06
-8.92692e-05 9.00783e-05 -1.29459e-07
-1.33207e-06 -1.29459e-07 -0.000302925
0.00011319 -7.20326e-05 -2.08185e-06
-7.20326e-05 0.000611677 -1.23549e-06
-2.08185e-06 -1.23549e-06 1.62068e-05
-0.000380402 2.29233e-05 4.10369e-06
2.29233e-05 0.000524801 4.63532e-07
4.10369e-06 4.63532e-07 -0.000178088
0.000383209 -0.000226008 -1.1103e-05
-0.000226008 0.0009137 1.92603e-05
-1.1103e-05 1.92603e-05 0.000298495
0.000901464 -0.000118717 7.11187e-07
-0.000118717 0.00101435 -6.67719e-06
7.11187e-07 -6.67719e-06 0.000540011
-0.000697088 3.04001e-06 2.15791e-05
3.04001e-06 -0.000295899 -8.73569e-06
2.15791e-05 -8.73569e-06 -0.000591594
-0.000546877 -0.000246487 -1.238e-05
-0.000246487 -0.000580999 1.097e-05
-1.238e-05 1.097e-05 -0.000702116
-0.00237502 -0.000101229 5.90062e-06
-0.000101229 -0.00136128 -9.53763e-06
5.90062e-06 -9.53763e-06 -0.00153714
0.000538794 -9.64533e-05 1.40652e-06
-9.64533e-05 0.000735982 2.56073e-06
1.40652e-06 2.56073e-06 0.000320571
-0.000869092 -6.92533e-05 -1.99933e-05
-6.92533e-05 -0.000335099 2.25714e-06
-1.99933e-05 2.25714e-06 -0.000889678
0.00327426 -0.000965565 -3.45828e-06
-0.000965565 0.00204968 1.13436e-05
-3.45828e-06 1.13436e-05 0.00140512
0.00179379 -0.000635099 1.3435e-05
-0.000635099 0.00107117 -2.00605e-07
1.3435e-05 -2.00605e-07 0.000633937
0.00126521 -0.00070262 1.05459e-05
-0.00070262 0.000428846 2.71448e-05
1.05459e-05 2.71448e-05 -3.46912e-05
0.000986077 -0.000287753 -1.07586e-05
-0.000287753 0.000472537 2.57263e-06
-1.07586e-05 2.57263e-06 0.000185373
0.00101366 -0.000559856 -6.21194e-06
-0.000559856 0.000382266 3.34139e-06
-6.21194e-06 3.34139e-06 -4.54546e-05
0.00295005 -0.00126046 -1.66379e-05
-0.00126046 0.00141596 1.42842e-05
-1.66379e-05 1.42842e-05 0.000608181
0.0023902 -0.0013699 4.21794e-06
-0.0013699 0.000968873 -6.42046e-06
4.21794e-06 -6.42046e-06 9.32604e-05
0.00187988 -0.000699971 1.4497e-05
-0.000699971 0.000774514 -3.59775e-06
1.4497e-05 -3.59775e-06 0.000299436
0.00176473 -0.00105099 7.95141e-07
-0.00105099 0.000761101 -2.78715e-07
7.95141e-07 -2.78715e-07 3.99855e-05
0.00257768 -0.000425599 9.09966e-06
-0.000425599 0.00148272 -1.52589e-05
9.09966e-06 -1.52589e-05 0.00104739
0.00150966 -0.000406901 -5.03416e-06
-0.000406901 0.000628914 3.33222e-06
-5.03416e-06 3.33222e-06 0.000279783
0.000811476 -0.000517407 5.5461e-06
-0.000517407 0.000197962 -2.03913e-05
5.5461e-06 -2.03913e-05 -0.000185102
0.003631 -0.000408534 -7.33132e-06
-0.000408534 0.00223304 1.04255e-05
-7.33132e-06 1.04255e-05 0.00185527
-0.000374249 -0.000523049 3.33478e-06
-0.000523049 -0.000270577 -4.87986e-06
3.33478e-06 -4.87986e-06 -0.000739123
0.000998897 -0.000151924 1.90328e-05
-0.000151924 0.000528543 7.11788e-06
1.90328e-05 7.11788e-06 0.00011537
0.00256698 -0.00104781 -2.31854e-05
-0.00104781 0.00151108 2.3226e-05
-2.31854e-05 2.3226e-05 0.00116959
0.00140249 -0.000347873 7.47251e-08
-0.000347873 0.000795218 -7.81495e-07
7.47251e-08 -7.81495e-07 0.000459169
-0.00022347 -0.000160017 1.04311e-05
-0.000160017 -0.000355366 1.86893e-05
1.04311e-05 1.86893e-05 -0.000579687
0.00233659 -0.000257683 -1.10153e-05
-0.000257683 0.00149992 -7.16717e-06
-1.10153e-05 -7.16717e-06 0.00119711
0.000254618 -0.000106168 -2.68785e-06
-0.000106168 -4.14331e-05 -7.69907e-07
-2.68785e-06 -7.69907e-07 -0.000201112
0.00169538 -6.16223e-05 -3.03578e-05
-6.16223e-05 0.000858763 8.82602e-06
-3.03578e-05 8.82602e-06 0.000813808
0.000585659 -0.000122978 -2.37458e-06
-0.000122978 0.00017066 -5.84022e-07
-2.37458e-06 -5.84022e-07 4.03866e-05
0.000891248 -4.62067e-05 -1.71354e-05
-4.62067e-05 0.000328297 1.10426e-06
-1.71354e-05 1.10426e-06 0.000283514
0.000782654 2.44096e-05 4.66138e-06
2.44096e-05 0.000231356 3.60223e-06
4.66138e-06 3.60223e-06 0.000221648
0.000412416 -5.97246e-05 3.45538e-06
-5.97246e-05 1.55355e-05 -6.85162e-06
3.45538e-06 -6.85162e-06 -2.70221e-05
0.00186588 2.0611e-05 2.48012e-05
2.0611e-05 0.000962664 -1.72256e-06
2.48012e-05 -1.72256e-06 0.000967799
0.00265887 3.6335e-06 3.5255e-05
3.6335e-06 0.00149485 -6.30233e-06
3.5255e-05 -6.30233e-06 0.00150717
0.000189554 4.25532e-05 3.19698e-06
4.25532e-05 -3.02736e-05 7.37814e-07
3.19698e-06 7.37814e-07 -0.000293074
-0.00015724 4.03689e-05 1.31706e-06
4.03689e-05 -0.000332739 -8.07669e-06
1.31706e-06 -8.07669e-06 -0.000457092
0.000619635 8.13573e-05 3.8512e-07
8.13573e-05 0.000249062 1.4424e-06
3.8512e-07 1.4424e-06 3.41049e-05
0.000352238 1.82344e-05 4.78216e-06
1.82344e-05 -3.55742e-05 -7.25519e-06
4.78216e-06 -7.25519e-06 -7.09054e-05
0.00021789 8.43077e-06 1.57808e-06
8.43077e-06 -8.34159e-05 2.60425e-07
1.57808e-06 2.60425e-07 -0.000188128
0.000332918 -0.000141662 -1.09686e-06
-0.000141662 6.12788e-05 4.25506e-06
-1.09686e-06 4.25506e-06 -0.000129843
0.00258016 3.53414e-06 -2.14166e-05
3.53414e-06 0.00144588 -7.10411e-06
-2.14166e-05 -7.10411e-06 0.00145654
0.000348714 1.30892e-05 2.02776e-06
1.30892e-05 -3.87942e-05 -1.47605e-07
2.02776e-06 -1.47605e-07 -6.81623e-05
0.000348081 -1.84047e-05 -7.01494e-06
-1.84047e-05 3.4206e-06 5.58661e-06
-7.01494e-06 5.58661e-06 -8.79627e-05
0.00245016 1.80843e-05 -7.08215e-06
1.80843e-05 0.00135916 -5.44509e-08
-7.08215e-06 -5.44509e-08 0.00137008
0.0003406 -1.1128e-05 -5.03943e-06
-1.1128e-05 -4.49965e-05 5.70248e-06
-5.03943e-06 5.70248e-06 -7.11947e-05
0.00251417 4.1579e-05 1.65564e-05
4.1579e-05 0.00140487 7.81865e-06
1.65564e-05 7.81865e-06 0.00141336
-0.00280478 -0.00309605 -0.000324185
-0.00309605 7.1499e-06 0.00014748
-0.000324185 0.00014748 -0.00572836
0.00903808 0.00662054 -0.000589553
0.00662054 0.0176835 5.44588e-05
-0.000589553 5.44588e-05 0.00528575
0.0125425 0.00439842 -0.00268472
0.00439842 0.00939354 0.000202932
-0.00268472 0.000202932 0.00354874
0.000234659 0.000100249 8.56119e-06
0.000100249 4.17133e-05 1.57144e-06
8.56119e-06 1.57144e-06 -0.000256992
0.0104211 -0.00286887 -0.000321492
-0.00286887 0.00759507 0.00040477
-0.000321492 0.00040477 0.00281261
0.00698485 -0.00253206 -0.000209156
-0.00253206 0.00361807 3.12986e-05
-0.000209156 3.12986e-05 -0.00248863
0.0321754 0.0188405 -8.00092e-05
0.0188405 0.0229509 -0.000853246
-8.00092e-05 -0.000853246 0.00269705
0.00600663 -0.00323259 0.000226832
-0.00323259 -0.00398593 -6.79444e-05
0.000226832 -6.79444e-05 -0.000347542
0.0108827 -0.00683442 0.000450259
-0.00683442 -0.00647107 -0.000371384
0.000450259 -0.000371384 -0.00172433
0.0251846 0.00932684 -0.00124271
0.00932684 0.0146931 9.2359e-05
-0.00124271 9.2359e-05 0.000549628
0.0234902 0.00633748 0.000939972
0.00633748 0.0170603 0.000519287
0.000939972 0.000519287 0.00904961
0.00725024 -0.00589273 -9.35124e-05
-0.00589273 -0.00270842 6.82253e-06
-9.35124e-05 6.82253e-06 0.000520565
0.0102568 -0.0119713 7.9145e-05
-0.0119713 -0.00111302 -0.000122642
7.9145e-05 -0.000122642 -0.00131958
0.0185401 0.00205689 2.81189e-05
0.00205689 0.0143448 -0.000671303
2.81189e-05 -0.000671303 0.00214314
0.0198932 0.00142035 -5.39984e-05
0.00142035 0.00608149 0.000109243
-5.39984e-05 0.000109243 0.000253005
0.00515915 -0.00811079 1.00876e-05
-0.00811079 0.000226131 4.32974e-05
1.00876e-05 4.32974e-05 0.00114271
0.00632511 -0.0102289 0.000527244
-0.0102289 0.0045868 -0.000297936
0.000527244 -0.000297936 -0.000434667
0.00968288 0.0012684 -0.000261677
0.0012684 0.00891051 -0.000454301
-0.000261677 -0.000454301 0.00152002
0.0200432 -0.00122357 -0.000366314
-0.00122357 0.00255898 0.000350563
-0.000366314 0.000350563 0.000700938
-0.000203156 0.000350624 2.81963e-05
0.000350624 -0.000181477 2.8256e-05
2.81963e-05 2.8256e-05 -0.00042681
0.000448196 -0.000113383 -2.51398e-06
-0.000113383 0.000255065 -4.01992e-06
-2.51398e-06 -4.01992e-06 -3.4013e-05
-0.000717289 -7.10139e-05 2.59134e-06
-7.10139e-05 -0.000632798 -7.48874e-07
2.59134e-06 -7.48874e-07 -0.000775242
0.000866436 0.000234628 1.9264e-05
0.000234628 0.000406847 2.13626e-05
1.9264e-05 2.13626e-05 0.000150911
0.00109237 0.00029789 -5.95198e-06
0.00029789 0.000649913 -5.67132e-06
-5.95198e-06 -5.67132e-06 0.00033311
0.000694011 0.00014112 3.17515e-06
0.00014112 0.000376331 -4.01409e-06
3.17515e-06 -4.01409e-06 0.000119312
0.00149019 0.000278861 -1.9164e-06
0.000278861 0.00091962 3.60992e-07
-1.9164e-06 3.60992e-07 0.000582557
0.00122859 0.000250702 -4.42289e-07
0.000250702 0.00073871 4.41032e-06
-4.42289e-07 4.41032e-06 0.000428906
0.00418979 -0.00254257 0.000203146
-0.00254257 -0.000332063 -0.000130216
0.000203146 -0.000130216 0.000586273
-0.00188413 -0.00116645 -1.31355e-05
-0.00116645 -0.00180086 -1.07815e-05
-1.31355e-05 -1.07815e-05 -0.00214642
-0.00118802 9.68807e-05 -1.58328e-05
9.68807e-05 -0.000813812 -8.77202e-06
-1.58328e-05 -8.77202e-06 -0.00104616
-7.62975e-05 -0.000727388 2.04502e-05
-0.000727388 0.00017021 -6.23833e-06
2.04502e-05 -6.23833e-06 -0.000313378
0.00150776 -0.00046945 -4.7695e-05
-0.00046945 0.00114095 -2.26775e-07
-4.7695e-05 -2.26775e-07 0.000655591
0.000275341 -4.03037e-05 -2.52896e-06
-4.03037e-05 0.000409479 -2.46197e-05
-2.52896e-06 -2.46197e-05 -8.10518e-05
-0.000841182 0.00020421 3.06529e-06
0.00020421 -0.000409606 1.53711e-05
3.06529e-06 1.53711e-05 -0.000728441
0.00190163 -0.00343813 -3.56092e-05
-0.00343813 -8.03292e-05 -4.71208e-06
-3.56092e-05 -4.71208e-06 -0.000764512
0.000975156 -0.000238698 -4.81498e-06
-0.000238698 0.000965693 1.08741e-05
-4.81498e-06 1.08741e-05 0.000457045
-0.000616956 -0.000191322 9.01858e-07
-0.000191322 0.000254546 7.74833e-06
9.01858e-07 7.74833e-06 -0.000425011
-0.000977665 -0.000996878 1.13891e-05
-0.000996878 -0.000351248 1.99349e-06
1.13891e-05 1.99349e-06 -0.000826502
-0.00140025 -9.32969e-05 2.53145e-05
-9.32969e-05 -0.000654019 4.73237e-06
2.53145e-05 4.73237e-06 -0.00101807
0.00296752 -0.00346185 -0.000105659
-0.00346185 0.00261826 -8.12716e-06
-0.000105659 -8.12716e-06 0.000824473
-0.000930892 -0.000881833 2.5447e-05
-0.000881833 0.000103509 -2.84617e-05
2.5447e-05 -2.84617e-05 -0.00063779
0.000358332 -2.96597e-05 7.54569e-06
-2.96597e-05 0.00096244 -3.11644e-05
7.54569e-06 -3.11644e-05 0.00014598
-0.000979043 -0.000189813 3.75486e-05
-0.000189813 3.17729e-05 1.74585e-05
3.75486e-05 1.74585e-05 -0.000747332
0.00247174 -0.00072417 0.000519342
-0.00072417 0.00831693 0.000110636
0.000519342 0.000110636 0.00184832
-0.000374831 -8.83902e-06 0.000170121
-8.83902e-06 0.000928169 9.64191e-06
0.000170121 9.64191e-06 -0.00395615
-0.0110345 -0.000919274 -0.00173265
-0.000919274 0.00522647 1.44301e-05
-0.00173265 1.44301e-05 0.000695224
0.00228454 0.00141397 3.2009e-05
0.00141397 0.00144889 3.4461e-06
3.2009e-05 3.4461e-06 0.000657852
-0.000443069 0.00194277 3.46191e-05
0.00194277 0.000284495 2.08947e-05
3.46191e-05 2.08947e-05 -0.000932731
0.00494974 0.00371169 0.000996084
0.00371169 0.00576547 0.000228843
0.000996084 0.000228843 -0.00120231
0.00114318 0.00687232 0.000220234
0.00687232 0.00347109 0.00031039
0.000220234 0.00031039 -0.000574988
0.000231462 0.00564519 -0.000362957
0.00564519 0.00193485 -0.000297874
-0.000362957 -0.000297874 -0.00119614
0.0118975 -0.00125014 -0.000170749
-0.00125014 0.00893032 -0.000556552
-0.000170749 -0.000556552 0.00133395
0.00622255 0.000117544 -7.12055e-05
0.000117544 0.00429267 6.35204e-05
-7.12055e-05 6.35204e-05 4.57275e-05
0.0121828 -0.000236756 -4.79928e-05
-0.000236756 -0.00280177 -0.00033786
-4.79928e-05 -0.00033786 -0.0039007
0.000959379 0.00137597 7.41489e-06
0.00137597 0.00109223 -2.11002e-07
7.41489e-06 -2.11002e-07 3.47265e-05
-0.000714688 0.00110347 3.28145e-05
0.00110347 0.00468186 -1.51975e-05
3.28145e-05 -1.51975e-05 -0.00139433
0.00949327 -0.000763785 0.000399301
-0.000763785 0.00123104 7.32441e-06
0.000399301 7.32441e-06 -0.00276967
-0.00236178 0.00160694 -3.89577e-05
0.00160694 0.000637276 -2.21079e-05
-3.89577e-05 -2.21079e-05 -0.00108726
0.0212443 0.00188723 4.13072e-05
0.00188723 0.00602191 -0.000133966
4.13072e-05 -0.000133966 6.00035e-05
0.00368747 0.00388498 0.00050377
0.00388498 0.00739019 0.000345454
0.00050377 0.000345454 -0.00100791
0.0165777 0.000820323 -0.000285292
0.000820323 0.00621867 -3.96364e-05
-0.000285292 -3.96364e-05 -0.00044706
-0.000133784 0.00106537 1.09703e-05
0.00106537 0.000895045 -1.05538e-05
1.09703e-05 -1.05538e-05 -0.000362387
0.00697012 -3.79272e-05 0.000316563
-3.79272e-05 0.00472951 0.000110617
0.000316563 0.000110617 0.000136546
0.00389043 -0.00531461 0.000502801
-0.00531461 0.00571253 -0.000250163
0.000502801 -0.000250163 0.00183192
0.0410847 0.00911936 0.000792687
0.00911936 0.0205705 -0.000503206
0.000792687 -0.000503206 0.00811672
0.0129891 -3.58796e-05 4.06394e-05
-3.58796e-05 0.0105255 0.00065683
4.06394e-05 0.00065683 0.00295811
-0.00221938 0.00131774 -0.000197331
0.00131774 0.00180347 -0.000145249
-0.000197331 -0.000145249 -0.000195857
0.00191091 -0.00054682 0.000176905
-0.00054682 0.00641092 -0.000101276
0.000176905 -0.000101276 -0.00451457
0.000650701 0.000644437 -2.07933e-06
0.000644437 0.000783972 7.98493e-06
-2.07933e-06 7.98493e-06 6.36098e-05
0.000515121 0.000356705 -6.10635e-07
0.000356705 0.00111537 4.94191e-06
-6.10635e-07 4.94191e-06 0.000256112
0.000882194 -0.000120145 -3.40679e-05
-0.000120145 0.00176363 1.9097e-05
-3.40679e-05 1.9097e-05 0.000944811
-0.00122303 8.6973e-05 1.91141e-05
8.6973e-05 -0.000630926 -4.35114e-06
1.91141e-05 -4.35114e-06 -0.000999152
-0.000765229 1.10296e-05 9.99356e-06
1.10296e-05 0.000123408 6.39191e-06
9.99356e-06 6.39191e-06 -0.000504729
3.39635e-05 5.17772e-05 -1.55752e-05
5.17772e-05 0.000773693 -3.03632e-06
-1.55752e-05 -3.03632e-06 7.21936e-05
0.000168494 -3.19369e-05 -8.43126e-06
-3.19369e-05 0.000538547 2.10329e-06
-8.43126e-06 2.10329e-06 8.36887e-05
-1.42244e-05 -0.000178601 2.61731e-06
-0.000178601 0.000725073 2.55241e-06
2.61731e-06 2.55241e-06 8.52662e-05
0.00358799 -0.000826886 1.81643e-05
-0.000826886 0.00249744 -7.82946e-06
1.81643e-05 -7.82946e-06 0.00196302
0.000266788 -6.99152e-05 -1.96812e-06
-6.99152e-05 0.000524264 -8.4686e-06
-1.96812e-06 -8.4686e-06 0.000119359
-0.00535232 0.000128891 4.27344e-06
0.000128891 -0.0028926 1.98204e-06
4.27344e-06 1.98204e-06 -0.00356977
0.00111306 -0.000700229 8.98522e-07
-0.000700229 0.000880815 8.67922e-06
8.98522e-07 8.67922e-06 0.000133754
-0.00150801 -0.000336295 2.5235e-05
-0.000336295 -0.000941963 2.56874e-05
2.5235e-05 2.56874e-05 -0.00146316
-0.000363392 -0.000351502 -1.05903e-05
-0.000351502 -0.000202625 -3.15333e-05
-1.05903e-05 -3.15333e-05 -0.000515731
0.000222462 -0.00065721 -1.20474e-05
-0.00065721 -0.000176412 -4.25253e-06
-1.20474e-05 -4.25253e-06 -0.000625399
0.00232381 -0.00129317 -2.11273e-05
-0.00129317 0.0010047 8.11125e-06
-2.11273e-05 8.11125e-06 4.77655e-05
0.00259127 -0.00155173 -1.71166e-05
-0.00155173 0.000994643 3.30646e-06
-1.71166e-05 3.30646e-06 3.74749e-05
0.00224813 -0.00068299 -5.56915e-06
-0.00068299 0.00111769 -1.06002e-05
-5.56915e-06 -1.06002e-05 0.000684432
0.00242499 -0.00120365 -4.7375e-07
-0.00120365 0.00107393 1.75609e-06
-4.7375e-07 1.75609e-06 0.0002699
0.00239404 -0.00144141 1.1959e-05
-0.00144141 0.000885992 -9.39781e-06
1.1959e-05 -9.39781e-06 2.0187e-06
0.00240089 -0.00108408 9.441e-06
-0.00108408 0.00110744 -5.90711e-06
9.441e-06 -5.90711e-06 0.000375436
0.00174214 -0.001278 4.70851e-06
-0.001278 0.000573961 -1.99241e-06
4.70851e-06 -1.99241e-06 -0.000275626
0.00353404 -0.000492752 -1.96765e-07
-0.000492752 0.00189043 -9.24127e-06
-1.96765e-07 -9.24127e-06 0.00153541
0.000317293 -0.000566472 4.34294e-07
-0.000566472 -0.000190061 -1.49227e-07
4.34294e-07 -1.49227e-07 -0.000670492
0.000877564 -0.000886921 -3.28195e-06
-0.000886921 0.000218141 -6.74133e-06
-3.28195e-06 -6.74133e-06 -0.000444017
0.00016946 -0.000260737 9.86718e-06
-0.000260737 2.79028e-05 8.37916e-07
9.86718e-06 8.37916e-07 -0.000462598
0.000633101 -0.000393472 -8.75574e-07
-0.000393472 0.000323172 -1.48736e-06
-8.75574e-07 -1.48736e-06 -0.000157958
-0.00047421 -0.000253759 -8.75666e-06
-0.000253759 -0.000543371 -4.94842e-07
-8.75666e-06 -4.94842e-07 -0.000904871
0.00100981 -0.000682499 -2.03682e-05
-0.000682499 0.00054578 2.82392e-05
-2.03682e-05 2.82392e-05 8.18456e-05
0.00123645 -0.000429411 1.57469e-06
-0.000429411 0.000649216 1.0523e-06
1.57469e-06 1.0523e-06 0.000236606
-0.000445145 -0.000153947 9.67673e-06
-0.000153947 -0.000470309 1.59471e-05
9.67673e-06 1.59471e-05 -0.000798423
0.000534198 -0.000584901 -1.62128e-05
-0.000584901 0.000254237 -8.92455e-06
-1.62128e-05 -8.92455e-06 -0.00011765
0.000377523 -0.000116745 -1.9172e-06
-0.000116745 4.4975e-05 -3.59254e-07
-1.9172e-06 -3.59254e-07 -0.000189901
0.000357845 1.11857e-05 2.70431e-06
1.11857e-05 -3.48595e-05 1.48394e-05
2.70431e-06 1.48394e-05 -0.000102973
0.00201935 -0.000258458 -8.02718e-06
-0.000258458 0.00111594 -6.64862e-06
-8.02718e-06 -6.64862e-06 0.000937987
0.00046188 -6.7416e-05 -2.64386e-06
-6.7416e-05 2.63777e-05 4.64333e-07
-2.64386e-06 4.64333e-07 -2.69868e-05
0.00300613 0.000102037 8.90689e-06
0.000102037 0.00173021 4.64598e-06
8.90689e-06 4.64598e-06 0.00172601
0.000462989 -7.48888e-05 2.1914e-06
-7.48888e-05 3.97715e-05 -7.35282e-06
2.1914e-06 -7.35282e-06 -1.11984e-05
0.00195731 3.17997e-05 3.2531e-05
3.17997e-05 0.00102375 -1.97344e-06
3.2531e-05 -1.97344e-06 0.00102413
0.00301195 1.64469e-05 4.8507e-05
1.64469e-05 0.00172964 -7.58551e-06
4.8507e-05 -7.58551e-06 0.00174031
-0.000390883 0.000114268 2.60557e-06
0.000114268 -0.000420048 7.90186e-06
2.60557e-06 7.90186e-06 -0.000689684
-0.000196405 6.32843e-05 3.18753e-06
6.32843e-05 -0.000348072 -9.15316e-06
3.18753e-06 -9.15316e-06 -0.000513523
0.000171424 0.00015591 -1.05848e-06
0.00015591 -2.31374e-05 1.12486e-06
-1.05848e-06 1.12486e-06 -0.000292382
0.000389246 3.01177e-05 3.46648e-06
3.01177e-05 -1.2071e-05 -8.47939e-06
3.46648e-06 -8.47939e-06 -5.35306e-05
-0.000107118 4.36359e-05 -1.03119e-06
4.36359e-05 -0.000298303 -2.95367e-06
-1.03119e-06 -2.95367e-06 -0.000425608
0.00106326 0.000129081 -1.54837e-06
0.000129081 0.000588221 5.08448e-06
-1.54837e-06 5.08448e-06 0.000340367
0.00279736 -1.16011e-05 -3.02817e-05
-1.16011e-05 0.00159181 -7.55118e-06
-3.02817e-05 -7.55118e-06 0.00160092
0.000361239 2.0986e-05 -2.57973e-07
2.0986e-05 -3.04441e-05 -2.57665e-07
-2.57973e-07 -2.57665e-07 -6.51099e-05
-0.000229596 2.85745e-05 -1.07361e-06
2.85745e-05 -0.000385379 6.07353e-06
-1.07361e-06 6.07353e-06 -0.000489335
0.00254227 2.19894e-06 -5.81886e-06
2.19894e-06 0.0014204 9.13797e-08
-5.81886e-06 9.13797e-08 0.00143108
0.000361675 2.71019e-05 -1.70005e-06
2.71019e-05 -2.97049e-05 6.23103e-06
-1.70005e-06 6.23103e-06 -5.90899e-05
0.00245715 1.85915e-05 1.26664e-05
1.85915e-05 0.00136444 6.68708e-06
1.26664e-05 6.68708e-06 0.00137507
0.000854334 -0.000664437 0.000441437
-0.000664437 0.00784468 0.000260275
0.000441437 0.000260275 0.00394827
-0.00328728 -0.00100483 -5.66278e-05
-0.00100483 7.21886e-05 1.45425e-05
-5.66278e-05 1.45425e-05 -0.00565891
0.00505443 0.00660167 -0.00130771
0.00660167 0.0160459 -0.000396005
-0.00130771 -0.000396005 0.00390722
0.000998783 0.000263453 -5.51058e-07
0.000263453 0.000569994 1.01975e-06
-5.51058e-07 1.01975e-06 0.00025517
-0.00136157 0.000139878 1.07612e-05
0.000139878 -0.000917238 5.39965e-06
1.07612e-05 5.39965e-06 -0.00127619
0.00307552 0.000449899 3.68322e-05
0.000449899 0.00194617 -3.27737e-09
3.68322e-05 -3.27737e-09 0.00164361
0.0115806 -0.00156303 -0.000693976
-0.00156303 0.000980964 2.77857e-05
-0.000693976 2.77857e-05 -0.00355639
0.0117097 -0.0050518 0.000268726
-0.0050518 0.00650095 6.41178e-05
0.000268726 6.41178e-05 0.00294479
0.00491552 -0.00616392 0.000440135
-0.00616392 0.00234397 -0.000345548
0.000440135 -0.000345548 -0.0026184
0.00823434 -0.00637342 9.3611e-05
-0.00637342 -0.00276548 -0.000155718
9.3611e-05 -0.000155718 0.000785896
0.00294749 -0.0119009 -0.00147557
-0.0119009 -0.00625587 0.000228863
-0.00147557 0.000228863 -0.00396271
0.0344773 0.00999508 0.00126077
0.00999508 0.0219398 0.000405932
0.00126077 0.000405932 0.00608061
0.0111705 -0.00233461 0.00052835
-0.00233461 0.000491495 -0.000339426
0.00052835 -0.000339426 -0.00446558
0.00460429 -0.00747505 4.10371e-06
-0.00747505 -0.000153351 1.05468e-05
4.10371e-06 1.05468e-05 0.00114668
0.00351116 -0.0114012 -0.000421442
-0.0114012 0.0038038 2.38312e-05
-0.000421442 2.38312e-05 -0.00283769
0.0126826 0.00539331 -0.000287233
0.00539331 0.00964456 -0.000469445
-0.000287233 -0.000469445 0.000697207
0.0162883 -0.000747884 -0.000257694
-0.000747884 0.000609634 0.000197512
-0.000257694 0.000197512 -0.000978668
0.00148091 -0.00635767 -0.000273974
-0.00635767 0.0026813 0.000172683
-0.000273974 0.000172683 0.000495083
0.00920186 -0.00530681 -0.000370205
-0.00530681 0.0085882 0.000409096
-0.000370205 0.000409096 0.00137851
0.0154565 -0.000505801 9.28065e-05
-0.000505801 0.00558542 -0.000388054
9.28065e-05 -0.000388054 -0.000426749
0.010641 0.00143245 -0.000223196
0.00143245 7.65957e-05 0.000306838
-0.000223196 0.000306838 -0.00436721
-0.000294635 0.000160715 2.05713e-05
0.000160715 -0.000198943 4.04767e-05
2.05713e-05 4.04767e-05 -0.000410178
0.000741016 8.72532e-05 -8.83774e-06
8.72532e-05 0.000453763 2.34841e-06
-8.83774e-06 2.34841e-06 0.00020112
0.00114658 -0.000385273 1.14397e-05
-0.000385273 0.000728973 -1.54373e-05
1.14397e-05 -1.54373e-05 0.00042552
0.000634071 0.000215451 2.24793e-06
0.000215451 0.000242444 5.6851e-06
2.24793e-06 5.6851e-06 2.89832e-06
0.00077068 0.000312841 -3.71886e-06
0.000312841 0.000437152 -1.44936e-05
-3.71886e-06 -1.44936e-05 0.000124792
0.00126881 0.000383481 -8.65e-06
0.000383481 0.000803103 -5.00296e-06
-8.65e-06 -5.00296e-06 0.000448637
0.00222168 -0.00305941 8.65914e-05
-0.00305941 0.000247288 -4.36396e-05
8.65914e-05 -4.36396e-05 -0.000201375
4.42293e-05 -0.00101495 2.75166e-06
-0.00101495 -4.43509e-06 -2.43175e-05
2.75166e-06 -2.43175e-05 -0.000358825
-0.000520523 0.000194232 -1.88413e-05
0.000194232 -0.000259247 -3.05057e-05
-1.88413e-05 -3.05057e-05 -0.000579888
0.000500787 -0.00031802 3.95534e-05
-0.00031802 0.000714217 -5.55838e-06
3.95534e-05 -5.55838e-06 0.000120375
0.00279354 -0.0002415 -6.91576e-06
-0.0002415 0.002066 -3.39981e-05
-6.91576e-06 -3.39981e-05 0.00155437
-0.000643458 -1.15184e-06 7.5605e-06
-1.15184e-06 -0.000174834 6.1165e-06
7.5605e-06 6.1165e-06 -0.000541431
-0.000320881 1.47375e-05 6.36933e-06
1.47375e-05 0.000486279 1.73362e-05
6.36933e-06 1.73362e-05 -0.000242361
0.000990147 -0.00296545 2.42388e-05
-0.00296545 0.00171466 -2.2536e-05
2.42388e-05 -2.2536e-05 0.000145796
-5.83357e-05 -4.69441e-05 -6.69273e-06
-4.69441e-05 0.000784677 1.25311e-06
-6.69273e-06 1.25311e-06 -9.35421e-05
0.00027908 -0.000873044 -6.10887e-06
-0.000873044 0.00111777 7.29038e-06
-6.10887e-06 7.29038e-06 0.000131338
-4.33519e-05 0.000205285 6.4017e-05
0.000205285 0.000546293 -2.70415e-05
6.4017e-05 -2.70415e-05 -0.000154967
-0.00290763 -0.000655962 -0.00026954
-0.000655962 0.000837343 1.40553e-05
-0.00026954 1.40553e-05 -0.000617572
-0.000900503 -0.00029285 -6.2645e-05
-0.00029285 0.00135446 -3.3244e-05
-6.2645e-05 -3.3244e-05 0.00017709
-0.00134031 -1.73398e-05 6.47086e-05
-1.73398e-05 0.000103219 3.78148e-07
6.47086e-05 3.78148e-07 -0.000694032
0.00232758 0.000911499 3.05291e-05
0.000911499 0.000311014 -4.30996e-05
3.05291e-05 -4.30996e-05 -0.00799538
-0.000226171 0.00203722 0.000371693
0.00203722 0.00770468 6.04029e-05
0.000371693 6.04029e-05 0.00216869
-0.00268508 0.000857587 0.0005339
0.000857587 0.000564564 3.73778e-05
0.0005339 3.73778e-05 -0.00354804
-8.4325e-05 0.00143313 1.75351e-05
0.00143313 0.000447457 2.79043e-05
1.75351e-05 2.79043e-05 -0.000711077
0.00182334 0.00242876 1.05779e-05
0.00242876 0.00224365 -5.77611e-05
1.05779e-05 -5.77611e-05 0.000454545
-0.000303746 0.00129533 -0.000551257
0.00129533 0.00523123 -0.000146432
-0.000551257 -0.000146432 -0.000880115
-0.00132026 0.00244551 0.000388048
0.00244551 0.00664317 0.000379196
0.000388048 0.000379196 -0.000733953
0.0124662 -0.000200699 -0.000197837
-0.000200699 0.00139843 -0.000526758
-0.000197837 -0.000526758 -0.0058181
0.0102198 -7.53424e-06 5.53845e-05
-7.53424e-06 0.000425444 -6.62909e-05
5.53845e-05 -6.62909e-05 -0.00288273
0.00991409 -0.00236128 -0.000566567
-0.00236128 -0.00039289 0.000327031
-0.000566567 0.000327031 -0.00466831
0.000510054 0.000985524 -2.32421e-05
0.000985524 0.00127737 -5.3124e-06
-2.32421e-05 -5.3124e-06 0.000158379
0.00351421 0.00121407 0.000153277
0.00121407 0.00469542 8.28338e-05
0.000153277 8.28338e-05 0.000275267
0.0112204 -0.00372967 -0.00028116
-0.00372967 0.0059004 -5.87149e-05
-0.00028116 -5.87149e-05 0.00279175
-0.000677161 0.00161577 -0.000219934
0.00161577 0.00358842 -3.28514e-05
-0.000219934 -3.28514e-05 0.000110021
0.0309689 0.00851973 -0.000768241
0.00851973 0.0171682 -0.00066504
-0.000768241 -0.00066504 0.00557036
0.0169721 0.00433974 0.000209408
0.00433974 0.0112594 0.000550002
0.000209408 0.000550002 0.00067417
0.00836247 0.00403483 0.000147158
0.00403483 0.0091434 -8.59726e-06
0.000147158 -8.59726e-06 0.000844882
-2.68112e-06 4.31726e-05 8.77185e-05
4.31726e-05 0.00227679 -1.68253e-05
8.77185e-05 -1.68253e-05 0.00011166
0.00411055 0.000685628 -0.000554431
0.000685628 0.0104677 -5.98721e-06
-0.000554431 -5.98721e-06 0.00611127
0.00356774 -0.0022561 0.000697064
-0.0022561 0.00212312 -0.000277144
0.000697064 -0.000277144 -0.00461242
0.0547084 0.0232135 0.000124792
0.0232135 0.0381141 -0.000341385
0.000124792 -0.000341385 0.0145297
0.0222081 0.00717807 0.00135655
0.00717807 0.0134936 0.00167528
0.00135655 0.00167528 4.47899e-08
0.0121493 -0.00790089 0.00082485
-0.00790089 0.0102505 -0.00058916
0.00082485 -0.00058916 0.000157371
-9.78243e-05 -0.00101821 -9.83993e-05
-0.00101821 0.00472789 7.29603e-05
-9.83993e-05 7.29603e-05 0.002218
0.00123021 0.000421027 -1.52109e-05
0.000421027 0.00151884 -3.80869e-06
-1.52109e-05 -3.80869e-06 0.000741295
-0.000402537 -0.000105702 -1.66985e-05
-0.000105702 0.000808564 -8.15375e-06
-1.66985e-05 -8.15375e-06 -0.000148133
0.000985136 -0.00114242 7.38983e-05
-0.00114242 0.00140974 -1.32829e-05
7.38983e-05 -1.32829e-05 0.00016854
-0.000816561 2.87329e-05 2.31609e-06
2.87329e-05 -8.55116e-05 3.44595e-06
2.31609e-06 3.44595e-06 -0.000531843
-0.000438217 -0.000123175 1.50549e-05
-0.000123175 0.000477041 -2.09254e-05
1.50549e-05 -2.09254e-05 -0.000152135
0.00133543 -0.000575789 -7.9257e-06
-0.000575789 0.00124864 1.05337e-06
-7.9257e-06 1.05337e-06 0.000823651
0.00325342 -0.00153289 5.43975e-05
-0.00153289 0.00201585 -1.404e-05
5.43975e-05 -1.404e-05 0.00100103
-0.00102557 -0.000425169 6.2938e-06
-0.000425169 -0.000306323 -8.27447e-06
6.2938e-06 -8.27447e-06 -0.00113845
0.00214342 -0.00112487 2.2422e-05
-0.00112487 0.000929336 -6.40163e-06
2.2422e-05 -6.40163e-06 0.000290582
-0.000800455 -0.000820189 -1.11187e-05
-0.000820189 -0.000512496 4.23599e-06
-1.11187e-05 4.23599e-06 -0.00166774
0.00104019 -0.000777565 -1.85546e-05
-0.000777565 0.000354971 -9.6546e-06
-1.85546e-05 -9.6546e-06 -8.40958e-05
0.00179439 -0.00119251 1.82783e-06
-0.00119251 0.000703341 -3.54875e-06
1.82783e-06 -3.54875e-06 -0.000220111
0.00252664 -0.00162067 -2.9125e-05
-0.00162067 0.000879729 2.69168e-06
-2.9125e-05 2.69168e-06 -0.000204978
0.00313804 -0.00173395 -1.50002e-05
-0.00173395 0.000983704 -1.23076e-06
-1.50002e-05 -1.23076e-06 3.91458e-05
0.00270668 -0.00170366 -7.91055e-07
-0.00170366 0.000963485 -1.84232e-06
-7.91055e-07 -1.84232e-06 -2.8879e-05
0.00286458 -0.0015742 -2.66843e-06
-0.0015742 0.00113563 1.9958e-06
-2.66843e-06 1.9958e-06 0.000174711
0.00178119 -0.00111893 -2.79482e-06
-0.00111893 0.000676275 -5.9963e-06
-2.79482e-06 -5.9963e-06 -0.000115473
0.00256434 -0.00144256 5.04257e-06
-0.00144256 0.00109628 -9.43535e-06
5.04257e-06 -9.43535e-06 0.000195746
0.00218201 -0.00143249 1.12639e-05
-0.00143249 0.000740253 -2.92685e-06
1.12639e-05 -2.92685e-06 -0.000140364
0.00224189 -0.000714235 -1.06763e-05
-0.000714235 0.00096428 -1.56885e-06
-1.06763e-05 -1.56885e-06 0.000439533
0.00244891 -0.00107883 3.59894e-06
-0.00107883 0.00110988 -4.52734e-06
3.59894e-06 -4.52734e-06 0.000387726
0.00100239 -0.00117763 9.43255e-07
-0.00117763 0.000120877 3.96892e-06
9.43255e-07 3.96892e-06 -0.000700641
0.000496431 -0.000135458 2.9987e-06
-0.000135458 0.000105734 -2.69704e-06
2.9987e-06 -2.69704e-06 -0.000291951
4.75578e-05 -0.000495518 1.89326e-06
-0.000495518 -0.000327987 -1.06448e-06
1.89326e-06 -1.06448e-06 -0.000710598
0.000748733 -0.000618684 -1.71163e-05
-0.000618684 7.05999e-05 8.09454e-06
-1.71163e-05 8.09454e-06 -0.00042976
-2.34569e-05 -0.000268383 1.12606e-05
-0.000268383 -0.000165281 7.25761e-06
1.12606e-05 7.25761e-06 -0.000594332
0.000912701 -0.000413515 -1.03196e-07
-0.000413515 0.000513013 1.28208e-06
-1.03196e-07 1.28208e-06 8.34653e-06
-0.00235261 -0.000540995 -9.24638e-06
-0.000540995 -0.00158304 1.30899e-05
-9.24638e-06 1.30899e-05 -0.00207604
0.000825234 -0.000617989 -1.14894e-05
-0.000617989 0.000375788 -6.40508e-06
-1.14894e-05 -6.40508e-06 -5.06303e-05
0.00103257 -0.000221152 8.50421e-07
-0.000221152 0.000466027 1.38235e-06
8.50421e-07 1.38235e-06 0.000152199
0.000364472 -3.05448e-05 3.47924e-06
-3.05448e-05 -1.87973e-05 2.29366e-05
3.47924e-06 2.29366e-05 -0.000127089
0.00223388 -0.000232781 -5.82185e-06
-0.000232781 0.00123044 -1.79311e-05
-5.82185e-06 -1.79311e-05 0.00100682
0.000435694 -3.59779e-05 -9.09936e-06
-3.59779e-05 2.3306e-05 -9.27738e-07
-9.09936e-06 -9.27738e-07 -5.54705e-05
0.00373295 0.000106297 -5.71487e-05
0.000106297 0.00222778 9.19028e-06
-5.71487e-05 9.19028e-06 0.00222322
0.00055241 -7.28088e-05 2.63833e-06
-7.28088e-05 7.71577e-05 -1.26735e-05
2.63833e-06 -1.26735e-05 2.34416e-05
0.00216134 5.95139e-05 3.78771e-05
5.95139e-05 0.00116159 -6.50742e-07
3.78771e-05 -6.50742e-07 0.00115664
0.00308401 3.75897e-05 5.22695e-05
3.75897e-05 0.00177439 -7.62131e-06
5.22695e-05 -7.62131e-06 0.0017832
0.00158856 0.000276363 -1.81013e-06
0.000276363 0.0009362 -7.81214e-06
-1.81013e-06 -7.81214e-06 0.000598901
0.00067154 0.000139058 5.21526e-06
0.000139058 0.000250615 -6.43587e-06
5.21526e-06 -6.43587e-06 4.60716e-05
0.000590875 0.000111717 -8.12015e-07
0.000111717 0.000286758 2.61396e-06
-8.12015e-07 2.61396e-06 -2.57793e-05
0.000378748 5.26452e-05 -1.09876e-06
5.26452e-05 -1.26726e-05 -1.18751e-05
-1.09876e-06 -1.18751e-05 -6.49076e-05
0.00010484 7.76087e-05 -3.08734e-06
7.76087e-05 -0.000143006 -3.93129e-06
-3.08734e-06 -3.93129e-06 -0.000305337
0.000615548 0.000104988 -1.3726e-06
0.000104988 0.000278445 -2.76402e-06
-1.3726e-06 -2.76402e-06 9.81274e-06
0.00289967 -2.93295e-05 -3.45728e-05
-2.93295e-05 0.00166096 -7.99654e-06
-3.45728e-05 -7.99654e-06 0.00166853
0.000321042 6.83031e-06 5.88861e-07
6.83031e-06 -5.56548e-05 -3.82819e-07
5.88861e-07 -3.82819e-07 -9.7106e-05
0.000153049 2.01764e-05 -4.28838e-06
2.01764e-05 -0.000116139 3.15283e-06
-4.28838e-06 3.15283e-06 -0.000253434
0.00272446 -1.36826e-05 -8.35622e-06
-1.36826e-05 0.00154308 1.8597e-07
-8.35622e-06 1.8597e-07 0.00155232
0.000334088 1.02492e-05 -6.40345e-06
1.02492e-05 -4.88977e-05 6.91175e-06
-6.40345e-06 6.91175e-06 -8.29138e-05
0.00253163 2.7778e-06 1.83151e-05
2.7778e-06 0.00141348 6.87359e-06
1.83151e-05 6.87359e-06 0.00142416
0.00560319 -6.51327e-05 -0.000478885
-6.51327e-05 0.00416076 -4.08603e-05
-0.000478885 -4.08603e-05 -0.000506852
-0.00238105 0.000418098 0.000371622
0.000418098 0.00782408 8.27122e-06
0.000371622 8.27122e-06 0.00263736
0.000353701 -0.000841338 -0.000125247
-0.000841338 0.00139016 -0.000306215
-0.000125247 -0.000306215 -0.00471212
-0.00107403 -4.69947e-05 1.26091e-05
-4.69947e-05 -0.000627686 -1.19847e-05
1.26091e-05 -1.19847e-05 -0.00116906
0.00585336 0.00069205 2.52348e-05
0.00069205 0.00357903 8.03109e-06
2.52348e-05 8.03109e-06 0.00319033
-8.93649e-05 0.000176969 -7.87418e-06
0.000176969 -0.000131227 -2.14885e-06
-7.87418e-06 -2.14885e-06 -0.000444355
-0.000331858 0.000119588 3.12491e-06
0.000119588 -0.000287366 -3.88236e-06
3.12491e-06 -3.88236e-06 -0.000642088
-0.000834412 7.23771e-05 -2.25725e-07
7.23771e-05 -0.000736949 -8.68901e-06
-2.25725e-07 -8.68901e-06 -0.000925589
0.00209276 0.000302719 2.06469e-05
0.000302719 0.00122488 -5.12481e-06
2.06469e-05 -5.12481e-06 0.000955748
-0.000421407 7.46493e-05 2.26861e-05
7.46493e-05 -0.000423387 -2.83918e-05
2.26861e-05 -2.83918e-05 -0.000533834
0.0081096 0.00229555 7.31539e-05
0.00229555 0.00147373 0.000194036
7.31539e-05 0.000194036 -0.00285213
0.0105991 -0.000499752 -0.000257706
-0.000499752 0.00156057 1.60803e-05
-0.000257706 1.60803e-05 -0.00341596
0.00964986 -0.00175715 0.000747086
-0.00175715 0.00732018 -0.000116466
0.000747086 -0.000116466 0.00233123
0.0129824 0.000256027 -8.44538e-05
0.000256027 -0.00191214 0.000273795
-8.44538e-05 0.000273795 -0.00360599
0.00696256 -0.00877728 -9.9598e-05
-0.00877728 0.000317845 1.81889e-05
-9.9598e-05 1.81889e-05 0.000974662
0.000116703 -0.00941982 -0.000630662
-0.00941982 0.00355577 0.00024796
-0.000630662 0.00024796 -0.00503408
0.0301442 0.00410828 0.000402579
0.00410828 0.0124725 -0.000510588
0.000402579 -0.000510588 0.00306293
0.00536559 -0.00865096 -0.000171748
-0.00865096 0.00282055 0.000120134
-0.000171748 0.000120134 0.000842744
-0.00185088 -0.0026756 -0.000248195
-0.0026756 0.00636003 9.67863e-05
-0.000248195 9.67863e-05 -0.00352172
0.0160031 -0.000203033 0.00063293
-0.000203033 0.00647641 -4.15885e-05
0.00063293 -4.15885e-05 -0.000908521
0.0217793 -0.00202704 -1.14111e-05
-0.00202704 0.00471474 1.23617e-05
-1.14111e-05 1.23617e-05 0.00171482
-0.00559454 -0.00114483 -0.000298501
-0.00114483 0.000813166 0.00029922
-0.000298501 0.00029922 -0.000690886
0.00218196 -0.000246635 -0.000220234
-0.000246635 0.00733113 -0.000245029
-0.000220234 -0.000245029 -0.00214452
0.0180183 -0.00579687 -0.000208368
-0.00579687 0.007347 -0.00022625
-0.000208368 -0.00022625 -0.00413465
0.0290141 -0.00136852 0.00123049
-0.00136852 0.0147894 -0.000868303
0.00123049 -0.000868303 0.00681755
-0.000611544 0.000166363 5.05678e-05
0.000166363 0.000294105 -2.36458e-05
5.05678e-05 -2.36458e-05 -0.000512949
-0.000247272 0.000153849 -1.74724e-06
0.000153849 -0.000137083 -7.4458e-06
-1.74724e-06 -7.4458e-06 -0.000361889
4.56437e-05 -2.5516e-05 -6.38666e-08
-2.5516e-05 2.73232e-05 -2.3164e-05
-6.38666e-08 -2.3164e-05 -0.000234381
0.000196366 0.000151414 -9.1762e-06
0.000151414 -4.51028e-06 -8.05967e-06
-9.1762e-06 -8.05967e-06 -0.000261418
0.000837228 -0.00306737 6.74689e-05
-0.00306737 0.0014609 2.42603e-05
6.74689e-05 2.42603e-05 -0.000154783
0.000877653 -0.000816453 -1.35442e-05
-0.000816453 0.00177069 1.07231e-05
-1.35442e-05 1.07231e-05 0.000610598
0.000129573 4.4048e-05 -4.33402e-05
4.4048e-05 0.00029906 -2.30612e-05
-4.33402e-05 -2.30612e-05 -6.50203e-05
0.000756145 -0.000171088 -2.13343e-05
-0.000171088 0.000912342 -5.43596e-05
-2.13343e-05 -5.43596e-05 0.00030198
0.000860216 2.84958e-05 -1.38658e-06
2.84958e-05 0.00141483 2.99539e-05
-1.38658e-06 2.99539e-05 0.000675309
0.000593574 0.000230621 -2.30502e-06
0.000230621 0.000826101 8.5354e-06
-2.30502e-06 8.5354e-06 0.000197772
9.24671e-05 -0.000107803 -4.24058e-06
-0.000107803 0.000900321 -3.17688e-06
-4.24058e-06 -3.17688e-06 0.000117218
-0.000649279 -0.0015723 3.47203e-05
-0.0015723 0.0019792 -1.44009e-05
3.47203e-05 -1.44009e-05 -0.000271145
-8.7804e-05 -0.000179 -2.27892e-05
-0.000179 0.00168472 -2.16392e-05
-2.27892e-05 -2.16392e-05 0.000628745
0.000399347 0.0001704 4.22172e-05
0.0001704 0.000641646 -1.67572e-05
4.22172e-05 -1.67572e-05 9.05033e-05
-0.00197905 -0.000304088 -0.000270868
-0.000304088 0.00254687 -6.94593e-06
-0.000270868 -6.94593e-06 -0.00050863
0.00161363 0.000591775 8.90386e-05
0.000591775 0.00207464 5.57388e-06
8.90386e-05 5.57388e-06 0.00119512
-0.00569458 -0.000815576 4.1867e-05
-0.000815576 0.00734438 -0.000185171
4.1867e-05 -0.000185171 0.00250298
0.00366487 -7.02067e-05 6.85426e-05
-7.02067e-05 0.00316911 5.04011e-05
6.85426e-05 5.04011e-05 -0.00287336
-0.00522405 0.0037233 -0.000237818
0.0037233 0.00703421 -0.000115852
-0.000237818 -0.000115852 0.00087537
0.00138549 0.000891994 -1.21191e-05
0.000891994 0.00190272 -4.49193e-06
-1.21191e-05 -4.49193e-06 0.000935853
-0.00136521 0.00196827 0.000378814
0.00196827 0.00229424 0.000127941
0.000378814 0.000127941 0.000133036
0.00091669 -0.000333075 5.77487e-05
-0.000333075 0.00556847 5.70822e-06
5.77487e-05 5.70822e-06 0.00125587
0.0059812 -0.00143587 0.000544721
-0.00143587 0.00691136 -0.000251811
0.000544721 -0.000251811 -0.0042416
0.0324087 0.00374375 -0.00057763
0.00374375 0.0133612 0.000493811
-0.00057763 0.000493811 0.00259462
0.00527426 -0.00138863 -0.000737225
-0.00138863 0.00558963 -4.66824e-05
-0.000737225 -4.66824e-05 0.00130607
0.0241467 0.00767076 -0.00108311
0.00767076 0.0189334 -0.000502878
-0.00108311 -0.000502878 0.00976983
0.000738289 0.000308218 -8.1092e-05
0.000308218 0.00244358 1.34347e-05
-8.1092e-05 1.34347e-05 0.000329665
-0.0022601 -0.00180375 -0.000296498
-0.00180375 0.00736815 1.70066e-05
-0.000296498 1.70066e-05 0.00331398
0.00128131 -0.00312356 0.000198746
-0.00312356 0.00333828 -6.49278e-05
0.000198746 -6.49278e-05 -0.00343914
-0.00422303 0.000129633 9.92423e-05
0.000129633 0.00224581 5.93182e-05
9.92423e-05 5.93182e-05 0.000405353
0.0503677 0.0280585 0.000720811
0.0280585 0.0364321 -0.000201934
0.000720811 -0.000201934 0.011819
0.0199331 0.00411604 -2.61089e-05
0.00411604 0.0156396 0.000660607
-2.61089e-05 0.000660607 0.00251709
0.000331303 -0.00244258 0.000530637
-0.00244258 0.00626584 -0.000315109
0.000530637 -0.000315109 -0.00448093
-0.00194786 -0.0013013 -2.91924e-05
-0.0013013 0.00168949 -5.87907e-05
-2.91924e-05 -5.87907e-05 -0.000631464
0.00213188 -0.00187919 0.000462073
-0.00187919 0.000679693 -0.000122684
0.000462073 -0.000122684 -0.00589494
0.0104256 0.0102699 -0.00356785
0.0102699 0.0201927 -0.000244806
-0.00356785 -0.000244806 0.00389794
0.0331754 0.0131082 1.29423e-05
0.0131082 0.0191278 0.000651034
1.29423e-05 0.000651034 0.0039181
0.00493938 -0.00824491 -0.00043899
-0.00824491 0.00500072 0.000233042
-0.00043899 0.000233042 -0.000267615
0.00256973 -0.00445357 4.45546e-05
-0.00445357 0.00579141 0.000103589
4.45546e-05 0.000103589 0.00215618
-0.000261005 -0.00020406 1.04789e-05
-0.00020406 0.000809411 -3.08227e-05
1.04789e-05 -3.08227e-05 -0.000253728
0.000692817 -0.000879556 -1.22317e-05
-0.000879556 0.00131622 3.37368e-06
-1.22317e-05 3.37368e-06 5.01176e-05
1.66229e-05 -0.00187007 2.71375e-05
-0.00187007 0.000613165 2.05022e-05
2.71375e-05 2.05022e-05 -0.000778326
-0.00172506 -0.00026275 2.1556e-06
-0.00026275 -0.000407641 -4.41262e-07
2.1556e-06 -4.41262e-07 -0.000737684
-0.000390984 -0.000876513 -1.75136e-05
-0.000876513 0.000156578 5.16002e-06
-1.75136e-05 5.16002e-06 -0.000654117
0.00283037 -0.00152331 3.65837e-05
-0.00152331 0.00134162 -9.53653e-06
3.65837e-05 -9.53653e-06 0.000366528
0.00555025 -0.00190089 -1.11137e-05
-0.00190089 0.00268519 -1.24239e-06
-1.11137e-05 -1.24239e-06 0.00190721
0.00235038 -0.00141501 1.02753e-05
-0.00141501 0.00111318 -3.49741e-06
1.02753e-05 -3.49741e-06 -8.68526e-05
0.0032513 -0.00195741 -4.1422e-06
-0.00195741 0.00118296 -1.79703e-05
-4.1422e-06 -1.79703e-05 -5.3423e-05
0.00189066 -0.00120949 2.3847e-07
-0.00120949 0.000726514 -1.46518e-05
2.3847e-07 -1.46518e-05 -0.000184213
0.00265103 -0.00164261 9.53482e-07
-0.00164261 0.000955436 -2.91556e-06
9.53482e-07 -2.91556e-06 -0.000142524
0.00415974 -0.00199527 -5.25217e-06
-0.00199527 0.00154004 -1.16929e-05
-5.25217e-06 -1.16929e-05 0.000462216
0.00281337 -0.00123665 -2.78788e-06
-0.00123665 0.000456946 -5.17513e-06
-2.78788e-06 -5.17513e-06 -0.000126954
0.00373771 -0.00173893 -7.23609e-06
-0.00173893 0.00128097 -3.21608e-06
-7.23609e-06 -3.21608e-06 0.000383659
0.00346099 -0.00179772 -3.49817e-06
-0.00179772 0.00115443 -1.05049e-06
-3.49817e-06 -1.05049e-06 0.000187002
0.00330269 -0.00175374 1.14686e-05
-0.00175374 0.00135746 -9.25295e-06
1.14686e-05 -9.25295e-06 0.000369365
0.00242771 -0.00161487 3.52735e-06
-0.00161487 0.0008153 -1.89852e-06
3.52735e-06 -1.89852e-06 -0.000134868
0.00326142 -0.00162295 1.29865e-05
-0.00162295 0.00134961 -2.86165e-06
1.29865e-05 -2.86165e-06 0.000375171
0.0027762 -0.00133298 -5.04982e-06
-0.00133298 0.00131665 2.37298e-06
-5.04982e-06 2.37298e-06 0.000435876
0.00288142 -0.00148982 1.21473e-06
-0.00148982 0.00129752 -2.35611e-06
1.21473e-06 -2.35611e-06 0.000383959
0.00246604 -0.00150231 -3.57882e-06
-0.00150231 0.000911256 6.18104e-06
-3.57882e-06 6.18104e-06 7.84242e-06
0.00277446 -0.000311066 1.1958e-05
-0.000311066 0.00139546 2.70691e-06
1.1958e-05 2.70691e-06 0.00100821
0.00156561 -0.000574877 -1.00429e-05
-0.000574877 0.000603298 5.35198e-06
-1.00429e-05 5.35198e-06 0.000100927
0.0012348 -0.000973791 -7.28115e-06
-0.000973791 0.000367566 1.14224e-06
-7.28115e-06 1.14224e-06 -0.00035212
0.00149272 -0.000341135 8.3812e-06
-0.000341135 0.000620499 -6.92274e-06
8.3812e-06 -6.92274e-06 0.000267256
0.000882234 -0.000302873 -4.42608e-06
-0.000302873 0.000342189 1.04882e-06
-4.42608e-06 1.04882e-06 -6.33845e-05
-0.00088676 -0.000209485 5.85741e-06
-0.000209485 -0.000902798 8.17529e-06
5.85741e-06 8.17529e-06 -0.00130684
2.05599e-05 -0.000155961 -1.99761e-05
-0.000155961 -0.000292807 2.78308e-05
-1.99761e-05 2.78308e-05 -0.000421096
0.00118599 -0.000319343 3.5109e-06
-0.000319343 0.000549481 2.6305e-06
3.5109e-06 2.6305e-06 0.000175548
0.00186609 -0.000572148 -5.54268e-06
-0.000572148 0.00109888 -2.7804e-06
-5.54268e-06 -2.7804e-06 0.000618264
0.00138026 -0.000192407 -6.79605e-06
-0.000192407 0.00066699 -1.66608e-05
-6.79605e-06 -1.66608e-05 0.000376726
0.000274518 -8.60803e-05 -9.33882e-07
-8.60803e-05 -0.00010056 -1.00066e-06
-9.33882e-07 -1.00066e-06 -0.000202231
0.00449354 0.000130412 -7.69927e-05
0.000130412 0.00274464 9.72342e-06
-7.69927e-05 9.72342e-06 0.00273217
0.000406293 -8.59581e-05 6.94774e-06
-8.59581e-05 -8.51465e-06 -1.81627e-05
6.94774e-06 -1.81627e-05 -8.31432e-05
0.00378908 0.000107399 1.31501e-05
0.000107399 0.00226634 1.27876e-06
1.31501e-05 1.27876e-06 0.00226124
0.00316613 6.01884e-05 5.93452e-05
6.01884e-05 0.00183138 -8.44092e-06
5.93452e-05 -8.44092e-06 0.00183821
0.00429202 0.000494525 1.84625e-05
0.000494525 0.00285682 -1.43357e-05
1.84625e-05 -1.43357e-05 0.0022396
0.00299037 0.000342054 1.2578e-05
0.000342054 0.00200889 -4.03209e-05
1.2578e-05 -4.03209e-05 0.00148655
0.000830755 0.000164414 4.83126e-06
0.000164414 0.00035125 -1.1614e-05
4.83126e-06 -1.1614e-05 0.000120916
0.000757896 0.00024885 2.17106e-06
0.00024885 0.000419771 1.7663e-06
2.17106e-06 1.7663e-06 6.05453e-05
0.000462738 -3.15818e-05 8.45518e-06
-3.15818e-05 4.91689e-05 -1.42745e-05
8.45518e-06 -1.42745e-05 -1.30827e-05
0.000707234 0.000150412 -6.25758e-07
0.000150412 0.000273372 -7.23358e-07
-6.25758e-07 -7.23358e-07 7.21223e-05
0.000789184 0.000152134 -5.63235e-06
0.000152134 0.000410823 -1.4363e-05
-5.63235e-06 -1.4363e-05 9.28312e-05
0.00327331 -4.58987e-05 -5.07091e-05
-4.58987e-05 0.00191607 -9.37021e-06
-5.07091e-05 -9.37021e-06 0.00192136
0.000399817 6.42559e-06 -3.46133e-06
6.42559e-06 1.95146e-06 -4.10621e-07
-3.46133e-06 -4.10621e-07 -4.87803e-05
0.000763996 0.000129525 -7.49427e-06
0.000129525 0.000307501 5.74727e-06
-7.49427e-06 5.74727e-06 0.000141469
0.00296865 -3.40349e-05 -7.92573e-06
-3.40349e-05 0.00170819 5.77371e-07
-7.92573e-06 5.77371e-07 0.00171469
0.000369312 -7.2063e-06 -7.63712e-06
-7.2063e-06 -2.594e-05 8.2986e-06
-7.63712e-06 8.2986e-06 -6.57776e-05
0.00267789 -1.52213e-05 2.31615e-05
-1.52213e-05 0.00151148 7.10962e-06
2.31615e-05 7.10962e-06 0.00152072
-4.91889e-05 0.00202844 -0.00016862
0.00202844 0.00612264 -0.000219814
-0.00016862 -0.000219814 -0.000306584
0.00858468 -0.000944173 -9.69128e-05
-0.000944173 0.00607483 -0.000123565
-9.69128e-05 -0.000123565 0.0014505
-0.000264818 -0.000776375 0.000244809
-0.000776375 0.00805707 -0.000115748
0.000244809 -0.000115748 0.00325951
0.000432452 0.00018438 7.2106e-07
0.00018438 0.000463109 -1.26655e-05
7.2106e-07 -1.26655e-05 -0.000200509
-0.000775706 0.000479427 -1.57646e-05
0.000479427 -0.00052087 -1.47913e-05
-1.57646e-05 -1.47913e-05 -0.000932572
0.00154326 0.000514308 1.03429e-05
0.000514308 0.000665173 -2.60119e-05
1.03429e-05 -2.60119e-05 0.000324087
-0.00191995 9.08103e-05 9.77746e-06
9.08103e-05 -0.000917303 2.27643e-05
9.77746e-06 2.27643e-05 -0.00161718
0.00106918 0.000655508 4.13637e-06
0.000655508 0.000451531 -1.51755e-05
4.13637e-06 -1.51755e-05 4.73215e-06
-8.45687e-05 0.000119499 -1.19892e-05
0.000119499 -0.000113005 2.34855e-06
-1.19892e-05 2.34855e-06 -0.000492919
-4.10279e-05 0.000138926 -2.24543e-05
0.000138926 -0.000180313 1.19531e-05
-2.24543e-05 1.19531e-05 -0.00036978
0.00114519 4.51822e-05 1.29996e-05
4.51822e-05 0.000629022 2.69775e-06
1.29996e-05 2.69775e-06 0.000348941
0.00126442 0.000243506 -1.21042e-05
0.000243506 0.000692438 -1.22075e-05
-1.21042e-05 -1.22075e-05 0.000581455
0.00255483 0.000282594 -3.61716e-06
0.000282594 0.00178048 -5.42205e-05
-3.61716e-06 -5.42205e-05 0.00131063
0.0147212 0.00715412 0.00145063
0.00715412 0.00844343 0.000687465
0.00145063 0.000687465 0.00279168
0.00708421 0.00190372 3.92799e-05
0.00190372 0.0036614 5.31572e-05
3.92799e-05 5.31572e-05 -0.00127846
0.0116249 -0.000622034 0.000359243
-0.000622034 0.00145911 6.39853e-06
0.000359243 6.39853e-06 -0.00224527
0.0180781 -0.000115646 -0.000171596
-0.000115646 0.00375626 -0.000112396
-0.000171596 -0.000112396 0.00363057
0.0117978 0.000323332 0.000189549
0.000323332 0.00195871 0.00046047
0.000189549 0.00046047 -0.00584987
0.00451363 -0.0084524 -0.000213949
-0.0084524 0.00303594 0.000126243
-0.000213949 0.000126243 0.000796263
0.00294141 -0.00225673 -0.000770931
-0.00225673 0.00768887 0.000197928
-0.000770931 0.000197928 0.000727735
-0.00172824 -0.00289918 -0.000182881
-0.00289918 0.0024572 0.000211292
-0.000182881 0.000211292 -4.99968e-05
0.0118548 -0.000719588 -0.000553422
-0.000719588 0.0100706 -4.92711e-05
-0.000553422 -4.92711e-05 0.000335131
0.0105697 -0.00478723 0.000106959
-0.00478723 0.00794818 0.000304651
0.000106959 0.000304651 -0.00178816
0.0374344 -0.00747789 0.000642792
-0.00747789 0.0161407 -0.0012375
0.000642792 -0.0012375 0.00346138
-0.000386671 0.000873833 -0.000356902
0.000873833 0.00427992 0.000109352
-0.000356902 0.000109352 0.00091388
0.00238173 0.00192993 -0.000485856
0.00192993 0.00751721 -0.000188256
-0.000485856 -0.000188256 -0.00020824
0.0372003 -0.0137498 0.00203814
-0.0137498 0.0240519 -0.00155749
0.00203814 -0.00155749 0.00716922
0.04204 -0.0234205 0.000268503
-0.0234205 0.0314988 -1.64621e-05
0.000268503 -1.64621e-05 0.0106591
0.00122402 0.000846455 6.27272e-05
0.000846455 0.00119768 7.15986e-06
6.27272e-05 7.15986e-06 0.000279258
-0.000272692 0.000154749 2.15409e-05
0.000154749 0.000507759 1.23265e-06
2.15409e-05 1.23265e-06 -0.000311938
0.00127279 0.000194612 -4.59914e-05
0.000194612 0.000859664 -1.48323e-05
-4.59914e-05 -1.48323e-05 0.000609639
0.000624255 -0.00218637 0.00010349
-0.00218637 0.00247655 1.2179e-05
0.00010349 1.2179e-05 -0.000359815
-0.001975 -0.000204071 0.000153747
-0.000204071 0.000802887 3.54296e-05
0.000153747 3.54296e-05 -0.000425616
0.000671587 0.000223914 -5.52345e-05
0.000223914 0.000834571 6.98909e-06
-5.52345e-05 6.98909e-06 0.000255284
-0.00115184 9.78752e-05 -8.00318e-05
9.78752e-05 0.000498759 -2.20338e-06
-8.00318e-05 -2.20338e-06 -0.000414749
0.000607691 0.000373912 -1.48886e-05
0.000373912 0.000840359 3.62004e-06
-1.48886e-05 3.62004e-06 0.000248571
0.000256367 0.000747865 1.39843e-05
0.000747865 0.00120776 -3.17081e-07
1.39843e-05 -3.17081e-07 0.000302944
-0.00323567 -1.09476e-05 0.000258945
-1.09476e-05 0.00207956 -0.000122879
0.000258945 -0.000122879 -0.000582551
0.00238561 0.00126405 6.04499e-05
0.00126405 0.00148972 8.16545e-05
6.04499e-05 8.16545e-05 0.000809108
0.00046702 0.00160356 -7.07066e-05
0.00160356 0.00227742 -0.000135071
-7.07066e-05 -0.000135071 -0.000316343
-0.000501116 -0.00195902 0.000405304
-0.00195902 0.000638499 0.000151261
0.000405304 0.000151261 -0.00399551
-0.00457306 0.00153872 -0.000356903
0.00153872 0.0073849 -3.8003e-05
-0.000356903 -3.8003e-05 0.00113819
0.00796766 -0.00107927 -0.000299623
-0.00107927 0.00667594 1.13899e-05
-0.000299623 1.13899e-05 0.00311573
-0.000548602 0.00116308 0.000117896
0.00116308 0.00143595 7.59587e-06
0.000117896 7.59587e-06 -0.000820258
-0.000791815 0.00062359 -1.31536e-06
0.00062359 0.00373889 0.000131898
-1.31536e-06 0.000131898 0.000525297
-0.00233249 7.36055e-05 -0.000196268
7.36055e-05 0.00598156 -0.000142135
-0.000196268 -0.000142135 0.0012844
0.0135943 -0.0083986 0.000727533
-0.0083986 0.0114825 -0.000402782
0.000727533 -0.000402782 0.000304466
0.0345075 0.0123817 -0.0013368
0.0123817 0.0227246 -0.000491129
-0.0013368 -0.000491129 0.00639226
0.00965762 -0.00435219 -0.000597962
-0.00435219 0.00471111 0.000368366
-0.000597962 0.000368366 -0.000739397
0.0429499 0.0327576 0.00159563
0.0327576 0.032314 -0.00194602
0.00159563 -0.00194602 0.00780445
-0.0015785 -0.00106624 1.58109e-05
-0.00106624 0.00163961 3.10913e-06
1.58109e-05 3.10913e-06 -0.000770748
0.00122421 -0.00142027 0.000182954
-0.00142027 0.00151991 -4.23542e-07
0.000182954 -4.23542e-07 -0.00488617
0.0173549 0.0109826 -0.00172564
0.0109826 0.020134 -0.000118704
-0.00172564 -0.000118704 0.0033863
-0.000104238 -0.00301626 4.23436e-05
-0.00301626 0.00333834 4.89097e-05
4.23436e-05 4.89097e-05 0.000642163
0.0361865 0.0128151 0.000802418
0.0128151 0.0206169 0.000533763
0.000802418 0.000533763 0.00495351
0.00376854 -0.0118741 0.000701547
-0.0118741 0.00417715 -0.000246309
0.000701547 -0.000246309 -0.00248795
-0.00045511 -0.00325866 3.15488e-05
-0.00325866 0.00159096 4.87211e-05
3.15488e-05 4.87211e-05 -0.000854222
0.00559514 0.000547277 0.000176435
0.000547277 0.0152643 -0.000219398
0.000176435 -0.000219398 0.00606854
0.025976 0.0135708 -0.0027322
0.0135708 0.0143406 -0.000275609
-0.0027322 -0.000275609 0.00143758
-0.000104049 -0.0118125 -0.00148254
-0.0118125 -0.00633126 0.00036261
-0.00148254 0.00036261 -0.00474465
0.0001278 -0.00508845 0.000286342
-0.00508845 0.000627896 -0.000244147
0.000286342 -0.000244147 0.000708127
0.000387761 -0.000674172 -9.08683e-05
-0.000674172 0.00112332 2.43739e-05
-9.08683e-05 2.43739e-05 -0.000153168
-7.96046e-05 -0.0014672 -3.10403e-05
-0.0014672 0.000690739 2.16963e-05
-3.10403e-05 2.16963e-05 -0.000595751
-0.000373222 -0.00149602 -1.16857e-05
-0.00149602 -0.000312863 -9.35029e-06
-1.16857e-05 -9.35029e-06 -0.00122572
-0.00343228 -0.000267001 2.85001e-05
-0.000267001 -0.0013704 -5.73824e-06
2.85001e-05 -5.73824e-06 -0.00198521
0.000961083 -0.00127687 9.97123e-06
-0.00127687 0.00033757 -8.36933e-06
9.97123e-06 -8.36933e-06 -0.000525422
0.00474581 -0.00221509 -5.47543e-06
-0.00221509 0.00168547 -2.01499e-06
-5.47543e-06 -2.01499e-06 0.00082978
0.00504142 -0.00191808 -2.75803e-05
-0.00191808 0.00249493 -3.83801e-06
-2.75803e-05 -3.83801e-06 0.00125808
0.00257134 -0.00177037 -2.01141e-06
-0.00177037 0.000817982 -9.78348e-07
-2.01141e-06 -9.78348e-07 -0.000342864
0.00368346 -0.00203315 -6.27846e-07
-0.00203315 0.00101965 -1.12163e-05
-6.27846e-07 -1.12163e-05 9.86106e-05
0.00281333 -0.00165778 1.58877e-05
-0.00165778 0.00106661 2.44283e-06
1.58877e-05 2.44283e-06 -4.8101e-05
0.00352259 -0.00187355 4.36656e-06
-0.00187355 0.0011917 -4.72336e-06
4.36656e-06 -4.72336e-06 0.00016198
0.00344069 -0.00142057 -2.28621e-06
-0.00142057 0.000754416 -6.97277e-06
-2.28621e-06 -6.97277e-06 0.00018152
0.00247763 -0.000821244 -3.59216e-06
-0.000821244 5.94589e-05 -1.51703e-06
-3.59216e-06 -1.51703e-06 -0.0001334
0.00250587 -0.00116834 -6.78708e-07
-0.00116834 0.000224304 -2.25773e-06
-6.78708e-07 -2.25773e-06 -0.000340148
0.00280804 -0.00123824 4.82053e-06
-0.00123824 0.000433324 -1.49386e-06
4.82053e-06 -1.49386e-06 -0.000143874
0.00369049 -0.00156466 -4.40185e-06
-0.00156466 0.00129236 -4.39434e-06
-4.40185e-06 -4.39434e-06 0.000491168
0.00371171 -0.00175294 -4.62406e-06
-0.00175294 0.00126896 -7.61213e-07
-4.62406e-06 -7.61213e-07 0.000357608
0.00369203 -0.00184524 5.74033e-06
-0.00184524 0.00127262 -3.77958e-06
5.74033e-06 -3.77958e-06 0.00028742
0.00285302 -0.00154317 -1.26164e-05
-0.00154317 0.00110217 -1.33619e-05
-1.26164e-05 -1.33619e-05 0.000185487
0.00256627 -0.00162913 2.39287e-06
-0.00162913 0.000917844 -1.2407e-06
2.39287e-06 -1.2407e-06 -2.95039e-05
0.00197018 -0.00149777 1.13157e-06
-0.00149777 0.000561058 2.86673e-06
1.13157e-06 2.86673e-06 -0.000337769
0.00410561 -0.000953974 1.93063e-05
-0.000953974 0.00221315 1.05924e-05
1.93063e-05 1.05924e-05 0.00156138
0.00120171 -0.00113011 5.41841e-06
-0.00113011 0.000374021 5.28081e-06
5.41841e-06 5.28081e-06 -0.000466964
0.00247622 -0.00142583 -6.95834e-06
-0.00142583 0.0010371 1.15552e-05
-6.95834e-06 1.15552e-05 0.000147401
0.00135842 -0.000454925 3.98201e-06
-0.000454925 0.000477898 -1.48431e-05
3.98201e-06 -1.48431e-05 0.000153344
0.000674779 -0.000472837 -2.02368e-06
-0.000472837 0.000151286 -6.81452e-06
-2.02368e-06 -6.81452e-06 -0.000309818
-0.00109268 -0.000353638 8.09548e-06
-0.000353638 -0.00094113 -4.98863e-06
8.09548e-06 -4.98863e-06 -0.00143657
0.00348408 -0.000175476 -0.000125253
-0.000175476 0.00194599 2.22629e-05
-0.000125253 2.22629e-05 0.00182266
0.000317766 -0.000380437 -2.47626e-06
-0.000380437 -8.14104e-05 7.91864e-07
-2.47626e-06 7.91864e-07 -0.000475293
0.000455038 -0.0005489 -3.5707e-06
-0.0005489 6.04325e-05 -1.38178e-06
-3.5707e-06 -1.38178e-06 -0.000369815
0.00135103 -3.72511e-05 -0.000128963
-3.72511e-05 0.000623576 1.44588e-05
-0.000128963 1.44588e-05 0.000598751
0.00174201 -0.000145835 -3.57902e-05
-0.000145835 0.00084461 -3.72142e-07
-3.57902e-05 -3.72142e-07 0.000714229
0.00146181 -0.000375494 -4.78762e-06
-0.000375494 0.000691429 -3.3796e-06
-4.78762e-06 -3.3796e-06 0.000335389
0.000741944 -0.000116735 1.42316e-05
-0.000116735 0.000196763 -2.07643e-05
1.42316e-05 -2.07643e-05 8.98508e-05
0.00485446 0.000126619 1.21935e-05
0.000126619 0.002985 4.59919e-07
1.21935e-05 4.59919e-07 0.00297427
0.0042129 9.02083e-05 8.93997e-05
9.02083e-05 0.00254456 -1.07191e-05
8.93997e-05 -1.07191e-05 0.00254295
-0.000822708 0.000303178 2.39871e-05
0.000303178 -0.00072232 8.02298e-06
2.39871e-05 8.02298e-06 -0.00115024
0.0023236 0.000603948 3.6745e-06
0.000603948 0.00154202 -2.92716e-05
3.6745e-06 -2.92716e-05 0.000991539
-0.000693735 0.000176237 5.83796e-06
0.000176237 -0.000383158 -4.8408e-07
5.83796e-06 -4.8408e-07 -0.000941144
0.0007927 0.000200075 -2.90606e-06
0.000200075 0.000331519 -1.7639e-05
-2.90606e-06 -1.7639e-05 6.18491e-05
0.000300755 0.000259071 7.88433e-06
0.000259071 0.00017927 -4.74053e-07
7.88433e-06 -4.74053e-07 -0.000282397
0.000394642 5.18005e-05 -1.07965e-05
5.18005e-05 2.38945e-05 -1.74809e-05
-1.07965e-05 -1.74809e-05 -5.76945e-05
0.000542777 0.000130608 -4.35798e-07
0.000130608 0.000178494 1.42129e-06
-4.35798e-07 1.42129e-06 -6.65814e-05
0.000907983 0.000250842 -3.89978e-06
0.000250842 0.000551595 4.37814e-06
-3.89978e-06 4.37814e-06 0.000174445
0.00355778 -6.76369e-05 -6.24879e-05
-6.76369e-05 0.00211282 -1.05161e-05
-6.24879e-05 -1.05161e-05 0.00211479
0.0002735 2.96889e-05 -2.57231e-06
2.96889e-05 -7.25241e-05 6.00957e-08
-2.57231e-06 6.00957e-08 -0.000134352
0.00018339 0.00013368 -4.61751e-06
0.00013368 -8.41047e-05 8.64934e-06
-4.61751e-06 8.64934e-06 -0.000270766
0.00312502 -5.50396e-05 -1.13256e-05
-5.50396e-05 0.00181722 7.22728e-07
-1.13256e-05 7.22728e-07 0.0018207
0.000201433 -1.66232e-05 -9.5932e-06
-1.66232e-05 -0.000129696 1.04456e-05
-9.5932e-06 1.04456e-05 -0.000178246
0.00288904 -3.42098e-05 3.06674e-05
-3.42098e-05 0.00165527 7.80818e-06
3.06674e-05 7.80818e-06 0.00166199
0.00563557 0.00236827 0.000824179
0.00236827 0.00617899 0.000175902
0.000824179 0.000175902 0.000789172
-0.000334265 0.00209139 -6.75119e-05
0.00209139 0.00516222 2.89112e-06
-6.75119e-05 2.89112e-06 -0.00124767
0.000723848 0.00291588 1.83117e-05
0.00291588 0.00612554 -4.26118e-05
1.83117e-05 -4.26118e-05 0.000396539
0.000163334 0.000580192 -3.19569e-05
0.000580192 -4.79593e-06 1.29048e-06
-3.19569e-05 1.29048e-06 -0.000636187
-0.00104646 7.50931e-05 -2.63795e-05
7.50931e-05 -0.000615932 4.81241e-05
-2.63795e-05 4.81241e-05 -0.00119686
-0.0015391 0.000135765 -2.39724e-05
0.000135765 -0.00103074 -1.01913e-05
-2.39724e-05 -1.01913e-05 -0.00136486
0.00199943 0.00020062 1.42257e-05
0.00020062 0.00132545 1.53089e-06
1.42257e-05 1.53089e-06 0.000857889
0.00107604 0.0004906 2.16633e-06
0.0004906 0.000266999 -3.89968e-06
2.16633e-06 -3.89968e-06 -5.8556e-05
0.00160896 0.00071733 -3.18153e-05
0.00071733 0.000813538 -1.36903e-05
-3.18153e-05 -1.36903e-05 0.000464942
0.00210062 0.000691817 7.70931e-06
0.000691817 0.000971807 -3.78689e-05
7.70931e-06 -3.78689e-05 0.000479003
-0.00347233 0.000164675 -3.58485e-05
0.000164675 -0.00163794 8.31923e-06
-3.58485e-05 8.31923e-06 -0.00224273
-0.000996745 4.05435e-05 -1.11866e-05
4.05435e-05 -0.000649732 -4.62982e-06
-1.11866e-05 -4.62982e-06 -0.000985677
-0.00180819 3.87291e-05 -6.41144e-06
3.87291e-05 -0.00139242 2.92086e-05
-6.41144e-06 2.92086e-05 -0.00139788
-0.000575198 7.22123e-05 -1.67856e-05
7.22123e-05 -6.24419e-05 3.47674e-06
-1.67856e-05 3.47674e-06 -0.000568972
-0.000166918 0.000513173 9.93454e-06
0.000513173 0.000359351 1.57844e-05
9.93454e-06 1.57844e-05 -0.000560832
0.0222633 -0.0166614 -0.000350992
-0.0166614 0.0223973 0.000310155
-0.000350992 0.000310155 0.00169648
0.0130155 0.00693115 0.00033933
0.00693115 0.00538332 0.000208567
0.00033933 0.000208567 -0.00135284
0.00695436 0.00123882 0.000395638
0.00123882 0.00524854 -3.35464e-05
0.000395638 -3.35464e-05 -0.000262321
0.0486619 -0.0137908 -0.00201332
-0.0137908 0.0208047 -0.00049067
-0.00201332 -0.00049067 0.00547771
0.0118623 -0.000372825 0.000417806
-0.000372825 0.00812236 0.000672168
0.000417806 0.000672168 0.000902539
0.00205879 0.000229078 -0.00031541
0.000229078 0.00725402 0.000181411
-0.00031541 0.000181411 -0.00218338
-0.00126586 -0.00318963 -3.56101e-05
-0.00318963 0.00305222 0.000155925
-3.56101e-05 0.000155925 -0.000311116
-0.00166679 -0.00111669 0.000226508
-0.00111669 0.00328403 9.78232e-05
0.000226508 9.78232e-05 0.000746769
0.046258 -0.0271127 0.000217224
-0.0271127 0.0329406 0.000545398
0.000217224 0.000545398 0.0101425
0.00363581 0.00335235 -0.000244757
0.00335235 0.00768547 -0.000154917
-0.000244757 -0.000154917 -0.00187617
0.0190748 -0.00766425 -4.0827e-05
-0.00766425 0.0167604 0.000218208
-4.0827e-05 0.000218208 0.00119602
-0.000433474 0.00219691 1.69703e-05
0.00219691 0.00290812 -4.51526e-05
1.69703e-05 -4.51526e-05 0.000399951
0.00367684 0.00873524 -0.00037157
0.00873524 0.00390042 3.70538e-05
-0.00037157 3.70538e-05 -0.00116574
0.0321074 -0.0117514 -0.00103792
-0.0117514 0.018533 3.12378e-05
-0.00103792 3.12378e-05 0.00356283
0.00246943 0.00142289 -2.19287e-06
0.00142289 0.00120754 5.82462e-05
-2.19287e-06 5.82462e-05 0.000698224
5.19687e-05 0.000603945 3.0515e-06
0.000603945 0.000536346 1.66394e-06
3.0515e-06 1.66394e-06 -0.000366531
-0.000282058 9.58793e-05 -8.36094e-05
9.58793e-05 0.000506251 2.28422e-05
-8.36094e-05 2.28422e-05 -0.000315704
-0.00220435 -0.000420868 -0.000216937
-0.000420868 0.00261886 -4.60059e-05
-0.000216937 -4.60059e-05 0.000173439
-0.00077263 0.000636651 -9.62282e-05
0.000636651 0.000348531 -1.0142e-05
-9.62282e-05 -1.0142e-05 -0.000466209
-0.000376434 0.000330649 -2.30594e-05
0.000330649 0.000281756 -3.7123e-07
-2.30594e-05 -3.7123e-07 -0.00036159
0.00115417 0.0011003 -4.31158e-06
0.0011003 0.000754923 1.5288e-06
-4.31158e-06 1.5288e-06 8.06042e-05
-0.00039474 0.00170097 -0.000136564
0.00170097 0.00173745 -0.000109972
-0.000136564 -0.000109972 -0.00064476
0.00320852 0.00377121 0.000123963
0.00377121 0.00180377 5.97236e-05
0.000123963 5.97236e-05 -0.000121723
-0.00693097 0.00242723 0.000855513
0.00242723 0.0065645 -6.33753e-05
0.000855513 -6.33753e-05 -0.0026887
0.000375822 -0.00182191 -9.91613e-05
-0.00182191 0.00225017 8.38207e-05
-9.91613e-05 8.38207e-05 -0.00154111
-0.00177768 0.000845223 -0.00011695
0.000845223 0.00621925 0.000158951
-0.00011695 0.000158951 6.25154e-05
-0.00231137 -0.000697522 -7.42182e-05
-0.000697522 0.00121804 1.74888e-06
-7.42182e-05 1.74888e-06 -0.00116616
-0.00109198 -0.00202608 3.18385e-05
-0.00202608 0.00236169 -8.9738e-06
3.18385e-05 -8.9738e-06 0.000916061
-0.00514068 -0.00322004 -0.000220752
-0.00322004 0.000510716 0.000172902
-0.000220752 0.000172902 -0.00551175
-0.000695586 -0.00940184 0.000626061
-0.00940184 0.00465001 -0.000359901
0.000626061 -0.000359901 -0.00475962
0.0256133 0.01028 0.00106269
0.01028 0.0148722 -0.000191273
0.00106269 -0.000191273 0.000504725
0.0321615 0.0188335 -0.000222656
0.0188335 0.0245765 0.000814712
-0.000222656 0.000814712 0.0029505
0.000163677 -0.00225385 -5.98284e-05
-0.00225385 0.00229048 2.05384e-05
-5.98284e-05 2.05384e-05 0.000152088
0.0103862 0.00629651 0.000715758
0.00629651 0.0186778 -3.38845e-05
0.000715758 -3.38845e-05 0.00552608
0.0136541 0.00908981 0.000136823
0.00908981 0.00798992 0.000143938
0.000136823 0.000143938 -0.001816
0.00318295 -0.00786847 9.22694e-05
-0.00786847 0.00176512 -4.9599e-05
9.22694e-05 -4.9599e-05 0.000200047
0.0110571 -0.0120446 1.68453e-06
-0.0120446 -0.00202823 1.96215e-05
1.68453e-06 1.96215e-05 -0.00150642
0.00224648 -0.00375722 5.16026e-05
-0.00375722 0.00106178 -1.33213e-05
5.16026e-05 -1.33213e-05 8.5346e-05
0.00338323 0.00706872 -0.00231366
0.00706872 0.00648036 -8.01003e-05
-0.00231366 -8.01003e-05 -0.00558147
0.0144749 -0.00786646 -0.000725906
-0.00786646 -0.00514915 0.000155609
-0.000725906 0.000155609 -0.00189716
0.00530024 -0.008165 0.000126928
-0.008165 -0.00145792 -8.57441e-05
0.000126928 -8.57441e-05 0.000498031
0.000220324 -0.00108883 -1.67001e-05
-0.00108883 0.000940331 -1.2595e-05
-1.67001e-05 -1.2595e-05 -0.000270699
0.0022575 -0.00223732 5.51854e-05
-0.00223732 0.000932605 -2.64032e-05
5.51854e-05 -2.64032e-05 -0.000128573
0.00206354 -0.00187806 -1.74333e-05
-0.00187806 0.000127314 -1.36941e-05
-1.74333e-05 -1.36941e-05 -0.000519568
-0.000465422 -0.00111836 -1.17551e-06
-0.00111836 -0.0004514 4.59081e-10
-1.17551e-06 4.59081e-10 -0.00121538
0.00240768 -0.00191013 -7.65437e-06
-0.00191013 0.00043968 2.32128e-06
-7.65437e-06 2.32128e-06 -0.000302234
0.00465305 -0.00208829 -4.96493e-06
-0.00208829 0.00133073 -3.29911e-06
-4.96493e-06 -3.29911e-06 0.000656235
0.0020121 -0.00161976 1.43045e-05
-0.00161976 0.000504287 7.72792e-06
1.43045e-05 7.72792e-06 -0.000582318
0.00325498 -0.00196404 -1.05966e-06
-0.00196404 0.000781804 4.21535e-06
-1.05966e-06 4.21535e-06 -0.000119378
0.00314278 -0.00148266 -2.84245e-06
-0.00148266 0.000376289 -1.37688e-06
-2.84245e-06 -1.37688e-06 -2.7478e-05
0.00251748 -0.0016904 8.43461e-06
-0.0016904 0.000640688 3.19315e-06
8.43461e-06 3.19315e-06 -0.000327511
0.00300745 -0.00135003 -4.13128e-06
-0.00135003 0.000497315 4.25642e-06
-4.13128e-06 4.25642e-06 -5.09582e-05
0.00262821 -0.00090546 -3.28891e-07
-0.00090546 1.562e-05 -1.71735e-06
-3.28891e-07 -1.71735e-06 -0.000112631
0.00266787 -0.000901506 -3.70944e-06
-0.000901506 0.000183415 -4.52433e-07
-3.70944e-06 -4.52433e-07 4.92067e-05
0.00245275 -0.000827619 -5.65323e-06
-0.000827619 0.000124133 -4.90622e-08
-5.65323e-06 -4.90622e-08 -0.000123778
0.00241988 -0.000811154 1.24369e-06
-0.000811154 9.07394e-06 2.59167e-06
1.24369e-06 2.59167e-06 -0.000182888
0.00231848 -0.00101703 -7.41907e-06
-0.00101703 0.000165541 -4.11925e-06
-7.41907e-06 -4.11925e-06 -0.000322338
0.00268194 -0.0011747 4.28468e-06
-0.0011747 0.00036362 6.18242e-07
4.28468e-06 6.18242e-07 -0.000195071
0.00283404 -0.0012415 4.55958e-06
-0.0012415 0.000431231 5.00892e-06
4.55958e-06 5.00892e-06 -0.000139647
0.00274175 -0.00134295 -1.08118e-05
-0.00134295 0.00070059 -6.81018e-06
-1.08118e-05 -6.81018e-06 -1.94963e-05
0.00324239 -0.0015187 2.46386e-06
-0.0015187 0.00100466 -1.20319e-06
2.46386e-06 -1.20319e-06 0.000209896
0.00369828 -0.001767 -2.26087e-06
-0.001767 0.00126716 1.46107e-08
-2.26087e-06 1.46107e-08 0.000341804
0.00162105 -0.00105682 1.17082e-06
-0.00105682 0.000269951 -1.37087e-05
1.17082e-06 -1.37087e-05 -0.000460327
0.0028677 -0.00153967 1.89362e-06
-0.00153967 0.00109085 -1.61051e-06
1.89362e-06 -1.61051e-06 0.000177155
0.00216934 -0.00155531 6.3453e-07
-0.00155531 0.000679127 6.00798e-06
6.3453e-07 6.00798e-06 -0.000242781
0.000909329 -0.000545126 -1.51838e-05
-0.000545126 0.000100995 -1.39245e-05
-1.51838e-05 -1.39245e-05 -0.000253136
0.00124051 -0.000889676 3.89985e-06
-0.000889676 0.000414251 3.86647e-06
3.89985e-06 3.86647e-06 -0.000241509
0.000872373 -0.00105362 1.02011e-05
-0.00105362 0.000200256 9.27407e-06
1.02011e-05 9.27407e-06 -0.000602252
0.000132424 -0.000261274 -2.95091e-05
-0.000261274 -0.000351046 2.34951e-05
-2.95091e-05 2.34951e-05 -0.000503215
0.0011258 -0.000513796 3.07119e-06
-0.000513796 0.00040998 6.65228e-07
3.07119e-06 6.65228e-07 2.06357e-05
-0.00178123 -0.000586987 -9.7816e-06
-0.000586987 -0.0013064 -1.13311e-05
-9.7816e-06 -1.13311e-05 -0.00183359
0.00729693 0.000389565 2.9199e-05
0.000389565 0.00468238 1.29765e-05
2.9199e-05 1.29765e-05 0.00459165
0.000386394 -0.000246164 2.25998e-06
-0.000246164 -0.000139288 4.0063e-07
2.25998e-06 4.0063e-07 -0.000292504
0.000533903 -0.000269705 -1.55074e-05
-0.000269705 3.66975e-05 8.09231e-06
-1.55074e-05 8.09231e-06 -0.000348959
0.00557486 0.000160893 2.9525e-05
0.000160893 0.00348214 1.61946e-06
2.9525e-05 1.61946e-06 0.0034619
0.000828144 -0.000181716 1.70365e-05
-0.000181716 0.00021774 -2.05469e-05
1.70365e-05 -2.05469e-05 7.48068e-05
0.00498162 0.000130024 0.000110008
0.000130024 0.00307154 -1.43605e-05
0.000110008 -1.43605e-05 0.00306057
0.00239339 0.000679724 -3.49265e-06
0.000679724 0.00124223 2.81517e-05
-3.49265e-06 2.81517e-05 0.000707221
0.00133047 0.000451751 4.1483e-06
0.000451751 0.000591392 -2.38831e-07
4.1483e-06 -2.38831e-07 0.000165398
-0.000463349 0.000895561 3.40612e-06
0.000895561 -0.000446708 1.23153e-05
3.40612e-06 1.23153e-05 -0.000919696
0.00199518 0.000446015 -2.71122e-06
0.000446015 0.00106376 -1.7244e-05
-2.71122e-06 -1.7244e-05 0.000764995
0.000898854 0.00029758 4.99754e-08
0.00029758 0.000618625 7.6066e-07
4.99754e-08 7.6066e-07 6.36016e-05
-0.000471115 0.000279043 -5.85029e-06
0.000279043 -0.000175557 1.55299e-05
-5.85029e-06 1.55299e-05 -0.000770088
0.000674288 5.25991e-05 -5.48092e-06
5.25991e-05 0.000200808 -1.91878e-05
-5.48092e-06 -1.91878e-05 9.60053e-05
0.00069011 0.000205077 -4.21132e-07
0.000205077 0.000270792 1.90683e-06
-4.21132e-07 1.90683e-06 -4.93742e-06
4.3669e-05 0.00015261 -1.21596e-05
0.00015261 -5.91435e-05 3.798e-05
-1.21596e-05 3.798e-05 -0.000461776
0.00426456 -0.000101971 -7.74838e-05
-0.000101971 0.00259696 -1.15805e-05
-7.74838e-05 -1.15805e-05 0.00259378
0.00031376 -1.54274e-05 3.92762e-07
-1.54274e-05 -3.40856e-05 -2.51739e-07
3.92762e-07 -2.51739e-07 -0.000112369
0.00057043 0.000110113 -5.62472e-06
0.000110113 0.000215402 9.91074e-06
-5.62472e-06 9.91074e-06 -4.51084e-05
0.00362698 -8.09521e-05 -1.33356e-05
-8.09521e-05 0.00216304 1.28751e-06
-1.33356e-05 1.28751e-06 0.00216142
0.000421415 5.59911e-05 2.16216e-06
5.59911e-05 2.39907e-05 1.38634e-05
2.16216e-06 1.38634e-05 -3.66821e-05
0.00311129 -5.89636e-05 3.19473e-05
-5.89636e-05 0.00180879 8.52083e-06
3.19473e-05 8.52083e-06 0.00181122
0.00152228 -0.00284071 -0.000840398
-0.00284071 0.00906369 0.000219014
-0.000840398 0.000219014 -0.00203068
0.00656538 0.00232705 0.000163907
0.00232705 0.00515058 6.1531e-06
0.000163907 6.1531e-06 0.00030964
0.000551814 0.00265914 0.000497652
0.00265914 0.00497441 0.000194959
0.000497652 0.000194959 -0.00114342
-5.26259e-05 0.000434234 2.15345e-07
0.000434234 -0.000122168 2.76512e-06
2.15345e-07 2.76512e-06 -0.000781433
0.0045811 0.00152136 -5.94327e-06
0.00152136 0.00254014 2.97016e-05
-5.94327e-06 2.97016e-05 0.00166284
-0.00159795 0.000256112 -3.56607e-05
0.000256112 -0.000756685 -5.22983e-06
-3.56607e-05 -5.22983e-06 -0.00159698
0.000620215 0.000362081 -9.45425e-06
0.000362081 0.000540717 -1.14976e-05
-9.45425e-06 -1.14976e-05 1.18418e-05
0.00204386 0.000641546 -2.14532e-06
0.000641546 0.000807383 -1.22292e-06
-2.14532e-06 -1.22292e-06 0.000468911
-0.00500056 5.98109e-05 4.35475e-05
5.98109e-05 -0.00343753 5.31111e-05
4.35475e-05 5.31111e-05 -0.00348107
-0.00109684 0.000437652 -9.08144e-07
0.000437652 -0.0004351 1.88098e-06
-9.08144e-07 1.88098e-06 -0.000973835
0.00020906 0.000451267 -1.28521e-05
0.000451267 2.06403e-06 -9.1563e-07
-1.28521e-05 -9.1563e-07 -0.000529098
0.000702854 0.00129076 -5.87726e-05
0.00129076 0.000532114 -1.32986e-05
-5.87726e-05 -1.32986e-05 -0.000383569
-0.000691298 0.00104216 -7.22642e-05
0.00104216 -0.000608148 7.4553e-05
-7.22642e-05 7.4553e-05 -0.0011592
7.61656e-06 0.000269233 -9.46714e-06
0.000269233 0.000236745 3.59275e-05
-9.46714e-06 3.59275e-05 -0.000254526
0.00218309 0.00100396 3.47008e-05
0.00100396 0.00160469 1.61982e-06
3.47008e-05 1.61982e-06 0.000790054
0.0120563 -0.0101929 -0.00427472
-0.0101929 0.00898512 0.000731536
-0.00427472 0.000731536 -0.00391977
0.0137573 -0.0131316 0.00142653
-0.0131316 0.0217338 -0.000249677
0.00142653 -0.000249677 0.00447406
0.0120964 0.00704087 -0.00162917
0.00704087 0.00389735 -0.000445162
-0.00162917 -0.000445162 -0.00387628
0.0455115 -0.0323253 0.00155961
-0.0323253 0.0335004 0.00181392
0.00155961 0.00181392 0.00912995
0.0346827 -0.00829908 -0.00047001
-0.00829908 0.0186836 0.000750159
-0.00047001 0.000750159 0.00573185
0.00214093 0.00337072 -0.000268822
0.00337072 0.00668767 -0.000319627
-0.000268822 -0.000319627 -0.00155643
0.000725779 -0.000851137 -0.000316682
-0.000851137 0.00555211 8.88824e-05
-0.000316682 8.88824e-05 0.00208292
-0.000171449 0.00231671 -1.75233e-05
0.00231671 0.00322353 1.87266e-05
-1.75233e-05 1.87266e-05 0.000706695
0.0381392 -0.011834 -0.00123188
-0.011834 0.0204202 0.000542417
-0.00123188 0.000542417 0.00505524
-0.000826921 0.00943981 -0.00051633
0.00943981 0.00230162 -5.95558e-05
-0.00051633 -5.95558e-05 -0.00369418
0.00102963 0.00589254 -4.79047e-05
0.00589254 0.000952874 -0.000175354
-4.79047e-05 -0.000175354 0.000302887
0.00690571 0.0153839 -0.00144238
0.0153839 -0.005318 -0.000227201
-0.00144238 -0.000227201 -0.0041611
0.00404512 0.00232804 2.56261e-05
0.00232804 0.00176114 4.08182e-05
2.56261e-05 4.08182e-05 0.000973979
0.00216703 0.00131914 -2.18436e-05
0.00131914 0.00101126 -6.88594e-06
-2.18436e-05 -6.88594e-06 0.000594094
-0.000565813 0.000439349 -6.47339e-05
0.000439349 0.000101535 -5.24456e-06
-6.47339e-05 -5.24456e-06 -0.000707761
0.000783631 0.00213897 -0.000153465
0.00213897 0.00240187 -9.32944e-05
-0.000153465 -9.32944e-05 0.000130621
0.00149927 0.00126906 -7.42461e-05
0.00126906 0.000988097 -8.47906e-05
-7.42461e-05 -8.47906e-05 0.000321611
0.00297134 0.00379139 1.70453e-06
0.00379139 0.00139927 -1.87683e-05
1.70453e-06 -1.87683e-05 -0.000359867
0.00126738 0.0044048 0.000248874
0.0044048 -0.00107164 0.000157832
0.000248874 0.000157832 -0.00179296
-0.00768319 -0.000656361 -0.00220865
-0.000656361 0.00490156 -4.38224e-05
-0.00220865 -4.38224e-05 -0.00725712
-0.00892106 0.00142515 0.00142762
0.00142515 0.00714988 -6.51106e-05
0.00142762 -6.51106e-05 -8.42457e-05
-0.000285549 0.00118694 -0.000298159
0.00118694 0.00273941 5.95601e-05
-0.000298159 5.95601e-05 -0.000540894
0.000603865 -0.00262331 -0.000110158
-0.00262331 0.0019375 -7.44596e-05
-0.000110158 -7.44596e-05 -0.000287422
0.00236383 -0.00709322 0.000153206
-0.00709322 0.00168909 9.31225e-05
0.000153206 9.31225e-05 7.21869e-05
0.00649195 0.00629175 0.00150655
0.00629175 0.0172093 0.000470396
0.00150655 0.000470396 0.0045272
0.00546415 -0.0125245 0.00155788
-0.0125245 -0.0065628 -0.000372748
0.00155788 -0.000372748 -0.00379434
0.0215672 0.0104416 0.00280824
0.0104416 0.0176702 0.000508962
0.00280824 0.000508962 0.00534592
0.00374778 -0.00495219 -1.78006e-05
-0.00495219 0.00154345 -1.25914e-05
-1.78006e-05 -1.25914e-05 -2.33789e-05
0.0103964 0.00858433 0.000581694
0.00858433 0.00910657 -0.000214039
0.000581694 -0.000214039 -0.00288756
0.00865507 -0.00837093 -0.00050941
-0.00837093 -0.00961391 0.00024407
-0.00050941 0.00024407 -0.00538676
0.00374612 -0.00704297 -0.000105121
-0.00704297 -0.00164848 0.000103903
-0.000105121 0.000103903 0.000569118
0.00355953 -0.0038438 6.93764e-05
-0.0038438 -0.000298945 -4.34339e-05
6.93764e-05 -4.34339e-05 4.67999e-05
0.015817 -0.00188603 -0.000102851
-0.00188603 -0.00326776 0.000166286
-0.000102851 0.000166286 -0.000842306
0.00410998 -0.0049738 0.000138164
-0.0049738 -0.00542669 -0.000211863
0.000138164 -0.000211863 -0.000614242
0.00408473 -0.0027581 -0.000106199
-0.0027581 0.00186948 5.84324e-05
-0.000106199 5.84324e-05 0.000760165
0.000970524 -0.00172073 -1.17451e-05
-0.00172073 -0.000503793 2.02293e-06
-1.17451e-05 2.02293e-06 -0.000936103
0.00584801 -0.00207127 4.501e-05
-0.00207127 0.00174883 -2.98537e-05
4.501e-05 -2.98537e-05 0.00136637
-0.000279695 -0.00152117 -5.25157e-06
-0.00152117 -0.000966816 4.25944e-06
-5.25157e-06 4.25944e-06 -0.0015987
0.00318093 -0.00187576 1.42872e-06
-0.00187576 0.000566446 -5.5896e-07
1.42872e-06 -5.5896e-07 -1.57406e-05
0.00366811 -0.00148785 -2.70678e-06
-0.00148785 0.000492832 -1.98353e-06
-2.70678e-06 -1.98353e-06 0.000342102
0.00305573 -0.0019306 1.46418e-05
-0.0019306 0.000666007 1.25846e-05
1.46418e-05 1.25846e-05 -0.000223847
0.00314656 -0.00146522 -4.29763e-06
-0.00146522 0.000382006 2.17436e-06
-4.29763e-06 2.17436e-06 -5.1351e-06
0.00284318 -0.000991009 -1.07716e-06
-0.000991009 -3.96828e-05 -9.85091e-08
-1.07716e-06 -9.85091e-08 8.29707e-06
0.00243151 -0.00125689 6.4346e-06
-0.00125689 0.000165804 7.83927e-06
6.4346e-06 7.83927e-06 -0.00035191
0.00257869 -0.00089547 -1.10227e-07
-0.00089547 -2.29833e-05 3.02838e-06
-1.10227e-07 3.02838e-06 -0.000140228
0.00272979 -0.000950558 -2.22253e-06
-0.000950558 4.67902e-05 -1.2175e-07
-2.22253e-06 -1.2175e-07 -9.58776e-06
0.00269758 -0.000913907 -4.56325e-06
-0.000913907 0.000125831 -7.44724e-07
-4.56325e-06 -7.44724e-07 -3.9447e-06
0.00261476 -0.000901189 -3.67066e-06
-0.000901189 0.0001363 1.64955e-06
-3.67066e-06 1.64955e-06 1.08993e-05
0.00256572 -0.000864714 -1.04764e-06
-0.000864714 0.000203599 -1.46634e-06
-1.04764e-06 -1.46634e-06 2.20929e-05
0.00267573 -0.000869461 -6.67309e-06
-0.000869461 0.000357338 -1.07178e-06
-6.67309e-06 -1.07178e-06 6.01126e-05
0.00260191 -0.000826759 1.55434e-06
-0.000826759 0.000239978 1.39058e-06
1.55434e-06 1.39058e-06 -1.28433e-05
0.00236523 -0.000803978 5.06999e-06
-0.000803978 -4.46526e-05 6.28478e-06
5.06999e-06 6.28478e-06 -0.000236265
0.00237451 -0.00101794 -8.72816e-06
-0.00101794 0.000248243 -6.76187e-06
-8.72816e-06 -6.76187e-06 -0.000239473
0.00236185 -0.00104193 -6.76107e-07
-0.00104193 0.00018049 -2.873e-08
-6.76107e-07 -2.873e-08 -0.000315805
0.00284935 -0.0011834 9.70726e-06
-0.0011834 0.000492178 4.52432e-06
9.70726e-06 4.52432e-06 -6.1561e-05
0.00209171 -0.00119618 -3.93185e-06
-0.00119618 0.000288179 -9.53508e-06
-3.93185e-06 -9.53508e-06 -0.000403184
0.00293782 -0.00138396 -1.82586e-06
-0.00138396 0.000793428 8.21276e-07
-1.82586e-06 8.21276e-07 5.92891e-05
0.00284656 -0.00148281 6.14673e-06
-0.00148281 0.000746864 3.6283e-06
6.14673e-06 3.6283e-06 -4.48028e-05
0.000503508 -0.000473131 -1.33648e-05
-0.000473131 -0.000339385 4.34604e-06
-1.33648e-05 4.34604e-06 -0.000778275
0.00226062 -0.00114219 -2.46352e-06
-0.00114219 0.000694012 2.5572e-06
-2.46352e-06 2.5572e-06 -5.44786e-05
0.00295313 -0.00155045 1.40255e-05
-0.00155045 0.00112121 9.7498e-06
1.40255e-05 9.7498e-06 0.000204703
0.000350374 -0.000256004 -2.50246e-05
-0.000256004 -0.000177288 2.84897e-05
-2.50246e-05 2.84897e-05 -0.000386002
0.00136992 -0.000562264 -1.09483e-05
-0.000562264 0.000431426 -2.51272e-06
-1.09483e-05 -2.51272e-06 3.55315e-05
-0.000508146 -0.000867633 -8.27078e-06
-0.000867633 -0.000675713 3.97598e-06
-8.27078e-06 3.97598e-06 -0.00136196
0.00830511 0.000181433 -0.000244944
0.000181433 0.0052769 2.21854e-05
-0.000244944 2.21854e-05 0.00525666
0.000853766 -0.000271739 -5.07342e-06
-0.000271739 0.000122481 -8.14707e-07
-5.07342e-06 -8.14707e-07 -4.27779e-05
-1.89889e-06 -0.000601269 1.4184e-05
-0.000601269 -0.00020243 7.20183e-06
1.4184e-05 7.20183e-06 -0.00066961
0.00465663 0.000138483 0.000116411
0.000138483 0.00286732 -5.3017e-06
0.000116411 -5.3017e-06 0.00281391
0.000936016 -0.000246692 2.70983e-05
-0.000246692 0.000212374 -2.18419e-05
2.70983e-05 -2.18419e-05 5.44032e-05
0.00669753 9.95218e-05 0.000217539
9.95218e-05 0.0042107 -2.0273e-05
0.000217539 -2.0273e-05 0.00420568
0.000982534 0.000780369 -3.5651e-05
0.000780369 0.00012876 1.64744e-05
-3.5651e-05 1.64744e-05 -0.000531123
0.0015847 0.000557776 -1.02347e-05
0.000557776 0.000717405 1.36896e-07
-1.02347e-05 1.36896e-07 0.000206711
-0.000493612 0.000265828 1.5362e-05
0.000265828 -0.000655194 4.17655e-05
1.5362e-05 4.17655e-05 -0.00103413
0.00176411 0.000470825 -9.39893e-07
0.000470825 0.000789198 -1.47791e-05
-9.39893e-07 -1.47791e-05 0.000400117
0.00182799 0.000395601 4.53247e-06
0.000395601 0.00102335 -1.69335e-06
4.53247e-06 -1.69335e-06 0.000581771
0.00178477 0.000413221 1.8936e-06
0.000413221 0.000975953 -6.13292e-06
1.8936e-06 -6.13292e-06 0.000594977
0.00113917 0.000191763 -2.2758e-05
0.000191763 0.000464938 -2.68175e-05
-2.2758e-05 -2.68175e-05 0.000333009
0.000880276 0.000290539 -6.17446e-07
0.000290539 0.000424919 1.0983e-06
-6.17446e-07 1.0983e-06 8.7527e-05
-0.000852915 0.000100504 -2.11824e-05
0.000100504 -0.000565855 3.47567e-05
-2.11824e-05 3.47567e-05 -0.0010874
0.00380621 -8.41866e-05 -0.000105486
-8.41866e-05 0.00229006 -1.65724e-05
-0.000105486 -1.65724e-05 0.00229157
0.000445859 0.000113473 8.66831e-07
0.000113473 5.46559e-05 -6.90525e-07
8.66831e-07 -6.90525e-07 -4.56787e-05
0.000840592 0.000241253 -2.82741e-06
0.000241253 0.000389445 1.58537e-05
-2.82741e-06 1.58537e-05 0.00010116
0.00358466 -9.06383e-05 -1.04407e-05
-9.06383e-05 0.00214113 8.31647e-07
-1.04407e-05 8.31647e-07 0.00213852
0.000134889 7.76827e-06 4.65692e-06
7.76827e-06 -0.000149113 1.56988e-05
4.65692e-06 1.56988e-05 -0.000225123
0.00338412 -8.4767e-05 4.04567e-05
-8.4767e-05 0.00200049 9.82576e-06
4.04567e-05 9.82576e-06 0.00199759
0.00424692 -0.00527355 -0.0033232
-0.00527355 0.00659762 0.000299145
-0.0033232 0.000299145 0.000789224
0.00286728 -0.00478198 -0.0003776
-0.00478198 0.0113756 -9.1654e-05
-0.0003776 -9.1654e-05 -0.000880507
0.00674997 0.00195475 -0.000820931
0.00195475 0.00439191 -0.000207614
-0.000820931 -0.000207614 -0.000184981
0.0014832 0.000431183 1.40743e-05
0.000431183 0.000773939 1.26958e-05
1.40743e-05 1.26958e-05 0.000191209
0.0011368 0.000433773 1.64809e-05
0.000433773 0.000811797 -3.18059e-06
1.64809e-05 -3.18059e-06 4.70831e-05
0.00186479 0.00113045 -3.01488e-06
0.00113045 0.000866932 -1.66746e-06
-3.01488e-06 -1.66746e-06 1.61051e-05
0.0027279 0.00154024 1.19242e-06
0.00154024 0.001133 2.03945e-05
1.19242e-06 2.03945e-05 0.000240148
0.00165795 0.00131462 -5.91314e-05
0.00131462 0.00105297 1.35224e-05
-5.91314e-05 1.35224e-05 2.58635e-05
0.00586088 0.000952716 1.51283e-05
0.000952716 0.00367691 1.3312e-05
1.51283e-05 1.3312e-05 0.00325605
0.00172952 0.000689305 3.50776e-05
0.000689305 0.00108073 2.88517e-05
3.50776e-05 2.88517e-05 0.000460416
0.00302175 0.00134251 -5.83735e-06
0.00134251 0.0018535 -2.94045e-07
-5.83735e-06 -2.94045e-07 0.000985431
0.00294366 0.00180658 -3.80061e-05
0.00180658 0.00124247 6.24446e-07
-3.80061e-05 6.24446e-07 0.000354377
0.00242088 0.00166369 -3.5684e-05
0.00166369 0.000890539 5.59145e-05
-3.5684e-05 5.59145e-05 0.000295395
0.00229521 0.00228606 4.50286e-05
0.00228606 0.00022483 -2.69277e-05
4.50286e-05 -2.69277e-05 -0.000446888
0.00145589 0.00139783 1.86074e-05
0.00139783 0.000608958 1.02585e-05
1.86074e-05 1.02585e-05 -4.53827e-05
0.00359852 0.00126272 -1.83275e-05
0.00126272 0.00246087 -1.74842e-06
-1.83275e-05 -1.74842e-06 0.00148751
0.0185935 0.00867082 -0.000250912
0.00867082 -0.00270642 0.00011202
-0.000250912 0.00011202 0.00102099
0.0198103 -0.00722716 -0.00108357
-0.00722716 0.0114405 -0.000146529
-0.00108357 -0.000146529 0.00187227
0.0133379 -0.0125036 0.00221955
-0.0125036 0.0233237 -0.000127242
0.00221955 -0.000127242 0.00741905
0.0306404 -0.00856856 0.000557065
-0.00856856 0.0153058 0.000176275
0.000557065 0.000176275 0.00191751
0.00721038 0.0106227 -0.000376795
0.0106227 0.00482299 -0.000177583
-0.000376795 -0.000177583 -0.000525397
0.00123563 0.00267823 8.19274e-05
0.00267823 0.00412002 7.01173e-05
8.19274e-05 7.01173e-05 0.00145504
0.00168232 0.00570057 -0.000210437
0.00570057 0.00133416 -0.000132447
-0.000210437 -0.000132447 0.00101211
0.00995601 0.0125419 0.000157154
0.0125419 -0.00138958 0.000154739
0.000157154 0.000154739 -0.00156188
0.00837622 0.00893541 -0.000219637
0.00893541 -0.00109742 -0.000182602
-0.000219637 -0.000182602 0.00017322
0.00168316 0.00232624 4.41074e-06
0.00232624 2.20378e-05 -3.79464e-05
4.41074e-06 -3.79464e-05 -0.000530741
0.00269656 0.00203506 1.87615e-05
0.00203506 0.00103752 6.70626e-06
1.87615e-05 6.70626e-06 0.000333362
0.00170385 0.00118968 1.30488e-05
0.00118968 0.000776952 -5.22579e-05
1.30488e-05 -5.22579e-05 0.000378661
0.00257419 0.00385242 -0.000102595
0.00385242 0.000927577 -7.26464e-05
-0.000102595 -7.26464e-05 -0.000772037
0.00572133 0.00494208 0.000122572
0.00494208 0.0010899 4.10367e-05
0.000122572 4.10367e-05 -0.000119728
0.00819401 -0.000128917 -2.14921e-05
-0.000128917 -0.00715542 -1.05313e-05
-2.14921e-05 -1.05313e-05 -0.00811291
0.00203182 -0.00301397 -5.62873e-05
-0.00301397 0.00901795 4.9206e-05
-5.62873e-05 4.9206e-05 0.000747861
-0.0116184 0.000185386 0.00220068
0.000185386 0.00832687 5.46917e-05
0.00220068 5.46917e-05 0.00302348
0.00419715 -0.00601423 -0.000243642
-0.00601423 0.00126089 0.000154671
-0.000243642 0.000154671 -0.000746822
0.00713864 -0.00872859 -6.96195e-05
-0.00872859 -0.00108063 0.000156206
-6.96195e-05 0.000156206 0.000700432
0.0121146 0.00463282 0.0030887
0.00463282 0.00922279 -0.000209879
0.0030887 -0.000209879 0.00302796
0.0118372 -0.0074292 -0.000504684
-0.0074292 -0.00672493 0.000375891
-0.000504684 0.000375891 -0.00175802
0.0035266 -0.00396735 -3.83833e-05
-0.00396735 -0.000481012 1.66061e-05
-3.83833e-05 1.66061e-05 -0.00030661
0.0134264 -0.00167329 -0.000487312
-0.00167329 -0.00571524 0.000183137
-0.000487312 0.000183137 -0.00368295
0.00774856 -0.00576933 0.000116665
-0.00576933 -0.00302941 -1.4555e-05
0.000116665 -1.4555e-05 0.000597544
0.00384218 -0.00298698 7.43956e-05
-0.00298698 -0.00154941 -8.81107e-05
7.43956e-05 -8.81107e-05 -0.000205684
0.0044618 -0.00237037 0.000185145
-0.00237037 -0.0048087 -6.64917e-05
0.000185145 -6.64917e-05 0.000143254
0.000376205 -0.0016755 5.13725e-06
-0.0016755 -0.000908814 2.49473e-05
5.13725e-06 2.49473e-05 -0.00120997
0.00256855 -0.00165297 -3.59875e-05
-0.00165297 -0.000244416 1.20087e-05
-3.59875e-05 1.20087e-05 -0.00018951
0.00478844 -0.00146915 5.24919e-05
-0.00146915 0.000888072 -2.99484e-05
5.24919e-05 -2.99484e-05 0.00107689
0.00147618 -0.00162466 -3.37652e-06
-0.00162466 -0.000318902 1.02085e-05
-3.37652e-06 1.02085e-05 -0.000793946
0.00318465 -0.00146272 -5.94775e-06
-0.00146272 0.000205655 2.25553e-06
-5.94775e-06 2.25553e-06 6.60015e-05
0.00317433 -0.00106636 2.62897e-06
-0.00106636 -1.91618e-05 -1.26937e-06
2.62897e-06 -1.26937e-06 0.000128895
0.00306415 -0.00143417 -1.24053e-05
-0.00143417 0.000344054 9.84842e-06
-1.24053e-05 9.84842e-06 -2.32985e-05
0.00276921 -0.000984295 -3.65117e-07
-0.000984295 -8.27113e-05 1.19734e-06
-3.65117e-07 1.19734e-06 -3.80553e-05
0.00288406 -0.000933908 -1.91243e-06
-0.000933908 -2.35913e-05 -4.61462e-07
-1.91243e-06 -4.61462e-07 3.75768e-05
0.00251167 -0.000880929 3.65403e-06
-0.000880929 -6.88846e-05 5.3692e-06
3.65403e-06 5.3692e-06 -0.000173927
0.00272611 -0.000941306 -1.99425e-07
-0.000941306 5.98929e-05 5.40986e-07
-1.99425e-07 5.40986e-07 2.7511e-06
0.00280646 -0.000901657 -2.47427e-06
-0.000901657 4.76152e-05 -6.52821e-07
-2.47427e-06 -6.52821e-07 9.38574e-06
0.00265546 -0.000912849 -5.10908e-06
-0.000912849 9.53227e-05 4.69295e-07
-5.10908e-06 4.69295e-07 -2.49312e-05
0.00262185 -0.000858046 -1.15825e-06
-0.000858046 0.000125063 -1.17149e-06
-1.15825e-06 -1.17149e-06 -7.42096e-06
0.00256063 -0.0009008 5.99961e-07
-0.0009008 9.16531e-05 3.88723e-06
5.99961e-07 3.88723e-06 -2.57383e-05
0.00257558 -0.000865612 8.377e-07
-0.000865612 0.000206773 -5.9361e-07
8.377e-07 -5.9361e-07 3.23621e-05
0.00254942 -0.000847899 -2.42313e-06
-0.000847899 0.000269089 2.89578e-08
-2.42313e-06 2.89578e-08 3.52978e-05
0.00259943 -0.000890903 -1.34539e-06
-0.000890903 0.00037932 -4.19814e-06
-1.34539e-06 -4.19814e-06 2.77652e-05
0.00270851 -0.000865687 -2.57155e-07
-0.000865687 0.000379845 -2.98512e-07
-2.57155e-07 -2.98512e-07 7.57946e-05
0.00275247 -0.000824899 8.73007e-06
-0.000824899 0.000359769 2.3582e-06
8.73007e-06 2.3582e-06 0.000102466
0.00240064 -0.00104597 -4.34146e-07
-0.00104597 0.000377554 -5.9908e-06
-4.34146e-07 -5.9908e-06 -0.000177755
0.00244702 -0.0010439 -3.5883e-06
-0.0010439 0.000284119 -7.88432e-07
-3.5883e-06 -7.88432e-07 -0.000216342
0.0023823 -0.00106053 8.25565e-06
-0.00106053 0.000184354 3.61875e-06
8.25565e-06 3.61875e-06 -0.000318228
0.00130262 -0.000704004 -1.8092e-05
-0.000704004 6.29238e-05 7.10618e-07
-1.8092e-05 7.10618e-07 -0.000465
0.00256616 -0.00125048 -1.73886e-06
-0.00125048 0.000627502 -3.58266e-07
-1.73886e-06 -3.58266e-07 -8.02748e-05
0.00309745 -0.00142202 1.01661e-05
-0.00142202 0.000858312 7.12254e-06
1.01661e-05 7.12254e-06 0.000111059
0.000184164 -0.000291864 -1.69726e-05
-0.000291864 -0.000302058 3.0707e-05
-1.69726e-05 3.0707e-05 -0.000544694
0.000966368 -0.000528271 4.62415e-06
-0.000528271 -9.23627e-06 8.36916e-07
4.62415e-06 8.36916e-07 -0.00046978
0.0027619 -0.00119351 -5.59127e-07
-0.00119351 0.00102344 1.32787e-05
-5.59127e-07 1.32787e-05 0.000270412
0.00828958 -5.7297e-06 -0.000320109
-5.7297e-06 0.00521555 3.08952e-05
-0.000320109 3.08952e-05 0.00522852
0.00035969 -0.000298538 -8.31542e-06
-0.000298538 -0.00018012 5.68032e-07
-8.31542e-06 5.68032e-07 -0.000392457
0.00133633 -0.00064637 5.71055e-06
-0.00064637 0.000499147 5.30799e-06
5.71055e-06 5.30799e-06 3.61731e-05
0.00777667 0.000100149 1.33612e-05
0.000100149 0.00491281 -4.39253e-06
1.33612e-05 -4.39253e-06 0.00490668
0.000925087 -0.000309227 3.31374e-05
-0.000309227 0.000171966 -2.59264e-05
3.31374e-05 -2.59264e-05 -2.05568e-06
0.00726497 0.000155857 0.000216903
0.000155857 0.0045972 -2.79667e-05
0.000216903 -2.79667e-05 0.00457816
0.00386632 0.00152669 -1.52245e-05
0.00152669 0.00185881 1.73587e-05
-1.52245e-05 1.73587e-05 0.000976591
0.00237232 0.00101983 -1.4482e-06
0.00101983 0.00109474 1.86738e-06
-1.4482e-06 1.86738e-06 0.000356128
-0.000916763 0.000502492 -1.25353e-05
0.000502492 -0.000897458 2.61488e-05
-1.25353e-05 2.61488e-05 -0.00148783
0.000405129 0.000383503 5.97514e-06
0.000383503 1.15943e-06 -1.12425e-05
5.97514e-06 -1.12425e-05 -0.000487917
-0.000268936 0.000475075 6.0465e-07
0.000475075 -0.000469896 -1.05708e-05
6.0465e-07 -1.05708e-05 -0.000879571
-0.00100086 0.0006377 4.61909e-07
0.0006377 -0.00095075 8.03263e-06
4.61909e-07 8.03263e-06 -0.0013535
0.00052673 0.000199311 -2.15849e-05
0.000199311 0.000181167 -1.47069e-05
-2.15849e-05 -1.47069e-05 -0.00027687
0.000546304 0.000510167 2.15583e-06
0.000510167 0.00016539 1.76303e-07
2.15583e-06 1.76303e-07 -0.000232218
0.00105556 0.000297463 -3.90235e-05
0.000297463 0.000317583 -2.89959e-05
-3.90235e-05 -2.89959e-05 0.00016426
0.00554325 -0.000137577 -0.000155691
-0.000137577 0.00348217 -2.8416e-05
-0.000155691 -2.8416e-05 0.00346655
0.000408957 0.000135981 4.5748e-06
0.000135981 1.32525e-05 -7.13537e-07
4.5748e-06 -7.13537e-07 -0.000125759
-0.000150176 0.000171309 -4.72891e-06
0.000171309 -0.00019699 2.09481e-05
-4.72891e-06 2.09481e-05 -0.000566264
0.00451653 -0.000142989 -1.73558e-05
-0.000142989 0.00278324 2.14299e-06
-1.73558e-05 2.14299e-06 0.0027688
-0.000125303 -5.6133e-05 -1.36903e-05
-5.6133e-05 -0.00028631 1.94652e-05
-1.36903e-05 1.94652e-05 -0.000402306
0.00382122 -0.000111439 5.45225e-05
-0.000111439 0.0023043 1.18719e-05
5.45225e-05 1.18719e-05 0.00229611
0.0159591 0.00132644 0.000946149
0.00132644 -0.00292605 0.000178602
0.000946149 0.000178602 0.000915592
0.00731359 -0.0109512 -0.00183091
-0.0109512 0.00556601 0.000151017
-0.00183091 0.000151017 -0.00692631
0.000318089 -0.00219212 -0.000359359
-0.00219212 0.0104026 -5.86494e-05
-0.000359359 -5.86494e-05 0.000159583
-3.15737e-05 0.000205514 1.05961e-05
0.000205514 7.45207e-05 -7.31903e-06
1.05961e-05 -7.31903e-06 -0.000711989
0.00188456 0.00116246 3.49594e-05
0.00116246 0.000904966 -2.12368e-05
3.49594e-05 -2.12368e-05 2.03294e-05
0.00267504 0.00138082 -9.84894e-06
0.00138082 0.0014876 -1.1908e-05
-9.84894e-06 -1.1908e-05 0.000560596
0.00231923 0.00150803 -4.12903e-06
0.00150803 0.000896528 -6.82557e-07
-4.12903e-06 -6.82557e-07 -4.18051e-06
0.00229575 0.00138692 2.0724e-05
0.00138692 0.000594991 2.74952e-05
2.0724e-05 2.74952e-05 -0.000152865
0.00176635 0.0016835 -2.51978e-05
0.0016835 0.00047988 1.4528e-05
-2.51978e-05 1.4528e-05 -0.000353798
0.00306501 0.00126852 5.36433e-07
0.00126852 0.00174595 -1.34871e-05
5.36433e-07 -1.34871e-05 0.000903636
0.00246963 0.00176408 4.36929e-06
0.00176408 0.000926413 3.85362e-06
4.36929e-06 3.85362e-06 5.62988e-05
0.00339547 0.00169177 3.77521e-05
0.00169177 0.00163611 1.17248e-05
3.77521e-05 1.17248e-05 0.000833512
0.00340354 0.0017229 4.90862e-07
0.0017229 0.00134723 1.08e-05
4.90862e-07 1.08e-05 0.000521878
0.00105444 0.00161422 -4.49534e-06
0.00161422 -0.00015994 1.83364e-06
-4.49534e-06 1.83364e-06 -0.000760264
0.00521909 0.00254869 1.71365e-05
0.00254869 0.00181377 2.98359e-05
1.71365e-05 2.98359e-05 0.000907657
0.00306145 0.0022985 1.78399e-05
0.0022985 0.000733901 4.1838e-06
1.78399e-05 4.1838e-06 3.7626e-05
0.00221436 0.00139038 -3.61953e-05
0.00139038 0.000990163 -0.000112875
-3.61953e-05 -0.000112875 0.000333822
0.00612283 0.00475188 4.61256e-05
0.00475188 -0.00525289 0.000108558
4.61256e-05 0.000108558 0.000367862
0.0129069 0.0100403 0.000725558
0.0100403 -0.00701079 0.000322913
0.000725558 0.000322913 -0.002967
0.0233779 -0.0116715 0.00181978
-0.0116715 0.0149741 -0.000749526
0.00181978 -0.000749526 0.0017199
0.00233397 0.015325 0.00177512
0.015325 -0.00489669 0.000552694
0.00177512 0.000552694 -0.00501886
-0.000839918 0.0044334 4.65262e-06
0.0044334 0.000681805 4.89632e-05
4.65262e-06 4.89632e-05 0.000240053
0.00347136 0.00549087 -0.000162875
0.00549087 -0.00199109 -0.000142472
-0.000162875 -0.000142472 0.000176588
0.00779136 0.00445201 4.96319e-05
0.00445201 0.000799808 2.40835e-05
4.96319e-05 2.40835e-05 0.000685326
0.00597567 0.00326398 1.68402e-05
0.00326398 0.0019839 1.16655e-05
1.68402e-05 1.16655e-05 0.0011393
0.00160596 0.00180349 -2.99983e-06
0.00180349 0.000456487 -3.99332e-05
-2.99983e-06 -3.99332e-05 -0.000189801
0.00891752 0.0052731 -0.000151415
0.0052731 0.00248189 0.000102039
-0.000151415 0.000102039 0.00103195
0.00659466 -0.000987421 0.000284174
-0.000987421 -0.00465401 8.70503e-05
0.000284174 8.70503e-05 0.000399359
0.0173842 -0.000320893 5.97333e-05
-0.000320893 -0.00267608 -6.44485e-05
5.97333e-05 -6.44485e-05 0.000354205
-0.00581342 -0.00536904 0.00254413
-0.00536904 0.00490186 -0.000228181
0.00254413 -0.000228181 -0.00732445
0.00393025 -0.00393366 -0.000180831
-0.00393366 -0.00026041 0.000101135
-0.000180831 0.000101135 -1.04441e-05
0.00746707 -0.00586191 -0.000202605
-0.00586191 -0.00349304 0.000222475
-0.000202605 0.000222475 0.000644451
0.00256058 -0.00127933 -0.000597961
-0.00127933 -0.0141432 7.15354e-05
-0.000597961 7.15354e-05 -0.00979163
0.00431822 -0.00289935 5.86763e-05
-0.00289935 -0.00120653 -2.23828e-06
5.86763e-05 -2.23828e-06 0.000227519
0.00518594 -0.00236269 -0.000118056
-0.00236269 -0.00403742 3.31588e-05
-0.000118056 3.31588e-05 -9.00326e-05
0.00568451 -0.00193243 6.85203e-05
-0.00193243 -0.000131542 -7.29499e-05
6.85203e-05 -7.29499e-05 0.0010922
0.0101553 -0.00163025 0.000214553
-0.00163025 0.00158798 2.91712e-06
0.000214553 2.91712e-06 0.00347098
-0.00131304 -0.0012363 5.00441e-05
-0.0012363 -0.0027333 1.68287e-05
5.00441e-05 1.68287e-05 -0.00211826
0.00284361 -0.00127921 -1.79903e-05
-0.00127921 -0.000364679 2.69913e-06
-1.79903e-05 2.69913e-06 0.000103378
0.00304798 -0.000880637 3.33428e-05
-0.000880637 -0.000326328 -1.7992e-05
3.33428e-05 -1.7992e-05 0.00017016
0.0026408 -0.00143265 -1.72361e-06
-0.00143265 -0.000116328 3.7173e-06
-1.72361e-06 3.7173e-06 -0.000241461
0.00313638 -0.00106467 2.929e-07
-0.00106467 -3.59663e-05 8.00531e-07
2.929e-07 8.00531e-07 0.000115481
0.00300218 -0.000867632 -1.99289e-06
-0.000867632 -0.000126223 -8.24952e-07
-1.99289e-06 -8.24952e-07 -3.85194e-08
0.00271338 -0.000981186 7.9697e-07
-0.000981186 -0.000118523 3.0941e-06
7.9697e-07 3.0941e-06 -7.69892e-05
0.00285638 -0.000932145 -8.95051e-08
-0.000932145 -3.24587e-05 1.5519e-07
-8.95051e-08 1.5519e-07 2.01445e-05
0.00277026 -0.000774886 -2.35949e-06
-0.000774886 -7.24166e-05 -5.52216e-07
-2.35949e-06 -5.52216e-07 -2.9145e-05
0.00272609 -0.000934344 1.86287e-06
-0.000934344 7.0601e-05 1.59162e-06
1.86287e-06 1.59162e-06 1.35084e-05
0.00279493 -0.000902643 -2.2591e-07
-0.000902643 6.52117e-05 -2.98139e-07
-2.2591e-07 -2.98139e-07 1.85784e-05
0.00271593 -0.000775918 9.83491e-07
-0.000775918 8.97295e-05 -1.33268e-06
9.83491e-07 -1.33268e-06 3.57193e-05
0.0026088 -0.000911789 -1.54086e-06
-0.000911789 5.98629e-05 1.7821e-06
-1.54086e-06 1.7821e-06 -4.98549e-05
0.00259218 -0.000862705 -1.39552e-06
-0.000862705 9.60946e-05 3.51918e-07
-1.39552e-06 3.51918e-07 -3.22431e-05
0.0025568 -0.000794849 -1.48613e-06
-0.000794849 0.000184853 -2.66491e-07
-1.48613e-06 -2.66491e-07 1.53238e-05
0.00258062 -0.000864652 3.36726e-06
-0.000864652 0.000207226 1.1403e-06
3.36726e-06 1.1403e-06 4.03733e-05
0.00253398 -0.000839942 4.21357e-07
-0.000839942 0.000254685 -3.39148e-07
4.21357e-07 -3.39148e-07 2.7262e-05
0.00253512 -0.000838483 -1.16026e-06
-0.000838483 0.000303618 -5.21298e-07
-1.16026e-06 -5.21298e-07 1.55195e-05
0.00226973 -0.000846366 3.1394e-06
-0.000846366 0.000251341 -7.96159e-06
3.1394e-06 -7.96159e-06 -0.000151979
0.00252866 -0.000886839 1.60764e-07
-0.000886839 0.000327477 -1.58173e-06
1.60764e-07 -1.58173e-06 -3.51204e-05
0.00273693 -0.000862566 5.8052e-06
-0.000862566 0.000399844 7.20688e-07
5.8052e-06 7.20688e-07 8.84412e-05
0.00145215 -0.000714191 -1.95404e-05
-0.000714191 -2.90796e-07 3.50207e-07
-1.95404e-05 3.50207e-07 -0.000473724
0.00261915 -0.00105517 -5.04843e-07
-0.00105517 0.000543834 5.36977e-07
-5.04843e-07 5.36977e-07 -1.10701e-05
0.00252088 -0.00107128 2.4921e-06
-0.00107128 0.000319728 4.85775e-06
2.4921e-06 4.85775e-06 -0.000194214
9.72962e-05 -0.00031154 -1.98526e-05
-0.00031154 -0.000395438 3.0739e-05
-1.98526e-05 3.0739e-05 -0.000646651
0.00124379 -0.000688827 1.94326e-06
-0.000688827 5.12061e-05 1.63639e-06
1.94326e-06 1.63639e-06 -0.00047635
0.00310508 -0.00130597 5.91137e-07
-0.00130597 0.00102093 8.90794e-06
5.91137e-07 8.90794e-06 0.000296937
0.00943899 -0.000123087 -0.000399599
-0.000123087 0.00592897 4.36001e-05
-0.000399599 4.36001e-05 0.00594834
3.64293e-06 -0.000301636 2.93174e-06
-0.000301636 -0.000412433 1.03665e-06
2.93174e-06 1.03665e-06 -0.000661011
0.00134671 -0.000566692 1.3509e-05
-0.000566692 0.000273824 3.91259e-06
1.3509e-05 3.91259e-06 -0.000209326
0.00885982 -2.55676e-05 -2.79093e-05
-2.55676e-05 0.00560563 -7.21466e-07
-2.79093e-05 -7.21466e-07 0.00560944
0.000419938 -0.000295326 1.70283e-05
-0.000295326 -0.00014423 -3.20794e-05
1.70283e-05 -3.20794e-05 -0.000362493
0.00806989 5.65799e-05 0.000314693
5.65799e-05 0.00513443 -4.71906e-05
0.000314693 -4.71906e-05 0.00512553
0.00245317 0.00125854 -1.26149e-05
0.00125854 0.000640688 1.90777e-05
-1.26149e-05 1.90777e-05 -7.05887e-05
0.00285582 0.00137014 3.14606e-06
0.00137014 0.00122704 5.51266e-07
3.14606e-06 5.51266e-07 0.000393671
0.00272948 0.00113321 5.31243e-06
0.00113321 0.00110838 1.94647e-05
5.31243e-06 1.94647e-05 0.000372897
0.00149226 0.000961176 3.53202e-05
0.000961176 0.000565189 -1.46711e-05
3.53202e-05 -1.46711e-05 -0.000179451
0.00122218 0.000648959 -3.47522e-07
0.000648959 0.000298259 -2.03578e-06
-3.47522e-07 -2.03578e-06 -0.000273718
7.42934e-07 0.000458214 -5.08758e-06
0.000458214 -0.00028088 4.52485e-06
-5.08758e-06 4.52485e-06 -0.000794699
0.0035309 0.000454142 -2.8548e-06
0.000454142 0.00192834 -2.69545e-05
-2.8548e-06 -2.69545e-05 0.00150855
0.00166989 0.000403363 7.97051e-06
0.000403363 0.000758274 -4.11106e-06
7.97051e-06 -4.11106e-06 0.000390666
0.000243708 0.000308376 -3.72486e-05
0.000308376 -0.00025251 -3.19707e-05
-3.72486e-05 -3.19707e-05 -0.000433059
0.00125322 0.00032761 -5.8266e-06
0.00032761 0.000624789 1.22166e-05
-5.8266e-06 1.22166e-05 0.000245259
0.000560874 0.000276269 -7.24916e-06
0.000276269 2.81137e-05 -7.31082e-07
-7.24916e-06 -7.31082e-07 -0.000125606
0.00691287 -0.000162576 -0.000217618
-0.000162576 0.00441924 -4.1125e-05
-0.000217618 -4.1125e-05 0.00438516
0.00483614 -0.000166749 -2.7866e-05
-0.000166749 0.00301578 3.26632e-06
-2.7866e-05 3.26632e-06 0.00299088
-8.71894e-06 0.000223216 3.18099e-05
0.000223216 -0.000265523 2.68861e-05
3.18099e-05 2.68861e-05 -0.000389336
0.00375662 -0.000125047 6.77982e-05
-0.000125047 0.00227161 1.28241e-05
6.77982e-05 1.28241e-05 0.00225978
0.00186066 0.00145807 0.000223246
0.00145807 -0.00495407 7.65313e-05
0.000223246 7.65313e-05 -0.000343007
0.00359337 0.000957366 0.000325387
0.000957366 -0.0109866 0.000216217
0.000325387 0.000216217 -0.00982469
0.0221953 -0.0124129 -0.000441662
-0.0124129 0.0182013 -0.000205653
-0.000441662 -0.000205653 0.00300786
0.00231701 0.00112884 1.27206e-05
0.00112884 0.00032692 1.5507e-05
1.27206e-05 1.5507e-05 -0.000205897
0.00296017 0.00135223 3.05224e-05
0.00135223 0.0015051 -1.23544e-05
3.05224e-05 -1.23544e-05 0.000638734
0.00173546 0.00146027 1.13028e-05
0.00146027 0.000532576 -2.26071e-05
1.13028e-05 -2.26071e-05 -0.000369706
0.0026059 0.00178401 3.85165e-06
0.00178401 0.000972317 2.33021e-06
3.85165e-06 2.33021e-06 9.87289e-05
0.00257238 0.00143411 1.25944e-06
0.00143411 0.000767727 3.74624e-06
1.25944e-06 3.74624e-06 1.84297e-06
0.00291701 0.00157788 4.55545e-06
0.00157788 0.000867297 1.56612e-05
4.55545e-06 1.56612e-05 0.000115909
0.00162596 0.00163497 1.81936e-05
0.00163497 0.00041521 1.61425e-08
1.81936e-05 1.61425e-08 -0.000424565
0.00162691 0.00137652 3.16782e-05
0.00137652 0.00068052 -5.5639e-05
3.16782e-05 -5.5639e-05 -6.2857e-05
0.00258476 0.00172615 7.00615e-07
0.00172615 0.000775767 -1.33524e-06
7.00615e-07 -1.33524e-06 -1.18689e-05
0.000378867 0.00159077 1.1171e-05
0.00159077 -0.00062683 -3.31397e-05
1.1171e-05 -3.31397e-05 -0.00111755
0.0028379 0.00157028 9.04189e-06
0.00157028 0.000752662 1.37812e-06
9.04189e-06 1.37812e-06 -1.08991e-05
0.00408641 0.00160582 7.76048e-05
0.00160582 0.00109587 0.000105881
7.76048e-05 0.000105881 0.0008895
0.0019391 0.001901 -1.79511e-05
0.001901 0.000150667 -2.20921e-05
-1.79511e-05 -2.20921e-05 -0.000485278
0.00232886 0.00204346 -2.68505e-05
0.00204346 0.000433692 -6.77337e-06
-2.68505e-05 -6.77337e-06 -0.000158508
0.00245187 0.00212182 1.73822e-05
0.00212182 -0.00291551 7.26546e-05
1.73822e-05 7.26546e-05 -0.000645733
0.00654035 0.00512456 -0.000201095
0.00512456 -0.00496835 -9.85683e-05
-0.000201095 -9.85683e-05 0.000741424
0.00297167 0.00766349 0.00135029
0.00766349 -0.0142556 0.000403806
0.00135029 0.000403806 -0.00984602
0.0018267 0.00521571 -0.000275057
0.00521571 -0.00193951 -0.000157828
-0.000275057 -0.000157828 -0.000129896
0.0058888 0.00360457 -2.44593e-05
0.00360457 0.000269514 -1.59059e-05
-2.44593e-05 -1.59059e-05 0.000536392
0.00932364 0.00395218 -0.000256042
0.00395218 0.00344754 -9.02306e-05
-0.000256042 -9.02306e-05 0.00243263
0.00611279 0.000125278 -2.77579e-05
0.000125278 -0.00140165 -2.41435e-05
-2.77579e-05 -2.41435e-05 0.000505152
0.00308906 -0.000234059 7.65316e-05
-0.000234059 -0.00416967 2.91303e-05
7.65316e-05 2.91303e-05 -0.000254132
0.010824 -0.000292816 0.000153331
-0.000292816 -0.00686195 -3.6456e-05
0.000153331 -3.6456e-05 -0.00723527
0.00397898 -0.00273685 -9.51404e-05
-0.00273685 -0.00123582 0.000149264
-9.51404e-05 0.000149264 0.000143567
0.00411525 -0.00238068 -0.000258898
-0.00238068 -0.00526357 0.000126856
-0.000258898 0.000126856 -0.00145206
0.0042059 -0.00173156 2.44901e-07
-0.00173156 -0.00089086 1.15268e-05
2.44901e-07 1.15268e-05 0.000416174
0.00519974 -0.00124527 -9.60591e-05
-0.00124527 -0.00100484 2.82268e-06
-9.60591e-05 2.82268e-06 0.000739525
0.00399039 -0.000787687 0.000130957
-0.000787687 6.61408e-05 -3.59991e-05
0.000130957 -3.59991e-05 0.000635621
0.00344695 -0.00018266 8.07809e-05
-0.00018266 -0.000275818 -8.17092e-06
8.07809e-05 -8.17092e-06 0.000345163
0.00130068 -0.00108404 -1.81065e-05
-0.00108404 -0.00125888 2.08598e-05
-1.81065e-05 2.08598e-05 -0.000594139
0.00297753 -0.000907611 -6.18627e-06
-0.000907611 -0.000333851 1.68191e-06
-6.18627e-06 1.68191e-06 9.84556e-05
0.00300045 -0.000642904 4.0503e-06
-0.000642904 -0.000267984 -3.30174e-06
4.0503e-06 -3.30174e-06 6.97899e-05
0.00307828 -0.0010599 -1.56294e-06
-0.0010599 -5.82997e-05 1.67087e-06
-1.56294e-06 1.67087e-06 9.38586e-05
0.00299656 -0.000841178 -3.41156e-07
-0.000841178 -8.75471e-05 -3.12822e-07
-3.41156e-07 -3.12822e-07 4.6382e-05
0.00275916 -0.000623864 -2.29766e-06
-0.000623864 -0.000210189 -1.38135e-07
-2.29766e-06 -1.38135e-07 -4.05415e-05
0.0028235 -0.000928456 6.42787e-07
-0.000928456 -4.01575e-05 6.45917e-07
6.42787e-07 6.45917e-07 2.73179e-06
0.0027486 -0.000776563 -4.78879e-07
-0.000776563 -7.14358e-05 -9.79173e-09
-4.78879e-07 -9.79173e-09 -2.55862e-05
0.00264738 -0.000640511 4.00952e-07
-0.000640511 -9.93296e-06 -7.44783e-07
4.00952e-07 -7.44783e-07 3.60225e-06
0.00278343 -0.00090242 8.03925e-07
-0.00090242 8.47073e-05 1.13549e-06
8.03925e-07 1.13549e-06 2.90199e-05
0.00271325 -0.000776161 9.58048e-07
-0.000776161 8.48457e-05 -6.86888e-08
9.58048e-07 -6.86888e-08 3.00325e-05
0.00253837 -0.000689167 6.63721e-07
-0.000689167 9.56752e-05 -5.87398e-07
6.63721e-07 -5.87398e-07 6.02016e-06
0.00256556 -0.000867932 -9.39302e-07
-0.000867932 6.94205e-05 2.06554e-06
-9.39302e-07 2.06554e-06 -5.52414e-05
0.00251619 -0.00079802 -9.66941e-07
-0.00079802 0.000144404 3.24099e-07
-9.66941e-07 3.24099e-07 -1.90639e-05
0.00250175 -0.00076109 -2.08506e-06
-0.00076109 0.00021414 -2.32145e-07
-2.08506e-06 -2.32145e-07 3.3077e-06
0.00252386 -0.000832326 3.43913e-06
-0.000832326 0.00024332 -2.4716e-07
3.43913e-06 -2.4716e-07 2.25517e-05
0.00252805 -0.000837401 2.87001e-08
-0.000837401 0.000296318 6.81232e-07
2.87001e-08 6.81232e-07 1.24366e-05
0.00249281 -0.000782637 -5.54635e-07
-0.000782637 0.000372367 -3.98219e-06
-5.54635e-07 -3.98219e-06 3.72164e-05
0.00185474 -0.000646154 -1.98367e-05
-0.000646154 0.000223134 3.78486e-06
-1.98367e-05 3.78486e-06 -0.000174486
0.00237547 -0.000857225 3.53456e-07
-0.000857225 0.00033307 -1.92158e-06
3.53456e-07 -1.92158e-06 -8.0633e-05
0.00246316 -0.000882671 -3.29501e-07
-0.000882671 0.000277358 3.39196e-06
-3.29501e-07 3.39196e-06 -9.598e-05
8.47135e-05 -0.000357211 -1.94474e-05
-0.000357211 -0.00043444 2.70251e-05
-1.94474e-05 2.70251e-05 -0.00069905
0.0017586 -0.000730518 -1.46144e-06
-0.000730518 0.000208006 1.44093e-07
-1.46144e-06 1.44093e-07 -0.000263791
0.00279526 -0.00106277 -3.22022e-06
-0.00106277 0.000676386 8.29341e-06
-3.22022e-06 8.29341e-06 0.000121818
0.0101395 -0.000186946 -0.000462362
-0.000186946 0.00635803 5.20437e-05
-0.000462362 5.20437e-05 0.00638534
3.90027e-05 -0.000355908 -7.90317e-07
-0.000355908 -0.000412591 1.50687e-06
-7.90317e-07 1.50687e-06 -0.000683297
0.00173707 -0.000729276 2.19035e-05
-0.000729276 0.000375083 1.1705e-06
2.19035e-05 1.1705e-06 -0.000155133
0.00966764 -0.00015141 -7.55828e-06
-0.00015141 0.00608262 1.91012e-06
-7.55828e-06 1.91012e-06 0.00610308
-0.000269748 -0.000347511 2.32269e-05
-0.000347511 -0.000580042 -3.40323e-05
2.32269e-05 -3.40323e-05 -0.000836187
0.00913721 -5.77903e-05 0.000386608
-5.77903e-05 0.00578446 -5.52205e-05
0.000386608 -5.52205e-05 0.00579118
0.00226776 0.00106126 -3.97023e-06
0.00106126 0.000331379 1.55371e-05
-3.97023e-06 1.55371e-05 -0.000206724
0.00250869 0.00123919 -1.55984e-06
0.00123919 0.000715406 2.37823e-06
-1.55984e-06 2.37823e-06 1.3525e-05
0.00281973 0.00120082 2.54562e-05
0.00120082 0.000908093 2.42037e-05
2.54562e-05 2.42037e-05 0.000214466
0.00218712 0.00124898 6.57447e-06
0.00124898 0.0008393 -1.92143e-05
6.57447e-06 -1.92143e-05 4.1793e-05
0.00266357 0.00113286 6.45003e-06
0.00113286 0.00105228 2.91199e-06
6.45003e-06 2.91199e-06 0.000317408
0.000775728 0.000522063 -4.0194e-05
0.000522063 -0.000104921 3.93649e-06
-4.0194e-05 3.93649e-06 -0.000608397
0.0025896 0.00080398 4.02043e-06
0.00080398 0.00114327 -1.48102e-05
4.02043e-06 -1.48102e-05 0.000533516
0.00068626 0.00042607 1.02559e-06
0.00042607 4.75059e-05 -1.16473e-06
1.02559e-06 -1.16473e-06 -0.000384987
0.000183736 0.000313239 -3.91944e-05
0.000313239 -0.000319425 -3.43465e-05
-3.91944e-05 -3.43465e-05 -0.00050747
0.00151054 0.000526364 -2.08095e-07
0.000526364 0.000647557 -1.21413e-05
-2.08095e-07 -1.21413e-05 0.000271678
0.000724521 0.000323028 6.61466e-06
0.000323028 4.72826e-05 -1.54203e-06
6.61466e-06 -1.54203e-06 -0.000120494
0.00860324 -0.000255772 -0.000246396
-0.000255772 0.00557354 -4.89147e-05
-0.000246396 -4.89147e-05 0.00550713
0.000395116 0.000259018 3.36393e-05
0.000259018 -5.57587e-05 3.17086e-05
3.36393e-05 3.17086e-05 -0.000214443
0.00665846 -0.000237541 -2.45587e-05
-0.000237541 0.00427142 2.34245e-06
-2.45587e-05 2.34245e-06 0.00422017
0.00503382 -0.000204208 8.14446e-05
-0.000204208 0.00315977 1.87477e-05
8.14446e-05 1.87477e-05 0.00312466
0.000641877 0.00113576 4.47265e-05
0.00113576 -0.00451681 7.4851e-05
4.47265e-05 7.4851e-05 -0.00146547
0.00627807 0.00152967 8.00677e-05
0.00152967 -0.00419821 3.15366e-05
8.00677e-05 3.15366e-05 0.000926309
0.0182044 0.00143589 2.93655e-05
0.00143589 -0.00256042 0.000226813
2.93655e-05 0.000226813 0.00153166
0.00262466 0.00125679 -1.58359e-06
0.00125679 0.000421205 6.18716e-06
-1.58359e-06 6.18716e-06 -0.00011654
0.00279801 0.00117198 3.31767e-06
0.00117198 0.00036435 5.06823e-06
3.31767e-06 5.06823e-06 -2.99346e-05
0.00241615 0.00114827 -1.04131e-06
0.00114827 0.000389336 -4.02881e-06
-1.04131e-06 -4.02881e-06 -0.000142419
0.00336611 0.00186322 3.25972e-05
0.00186322 0.00142147 -5.92043e-06
3.25972e-05 -5.92043e-06 0.000521163
0.00273461 0.00146169 -9.5257e-06
0.00146169 0.00086655 -1.74102e-05
-9.5257e-06 -1.74102e-05 8.99747e-05
0.00304606 0.00163776 8.61363e-06
0.00163776 0.000895918 2.65244e-06
8.61363e-06 2.65244e-06 0.000131438
0.00354283 0.00151218 -1.77459e-05
0.00151218 0.000671643 -1.78071e-06
-1.77459e-05 -1.78071e-06 0.000207331
0.0023571 0.00179755 1.68279e-05
0.00179755 0.000569456 -8.25852e-06
1.68279e-05 -8.25852e-06 -0.000224962
0.00259405 0.00197982 1.12439e-05
0.00197982 0.000628196 0.000107016
1.12439e-05 0.000107016 -3.33439e-05
0.00284819 0.00169373 7.66539e-06
0.00169373 0.000659621 -3.36493e-06
7.66539e-06 -3.36493e-06 -0.000128326
0.0036989 0.00145323 3.64094e-06
0.00145323 0.000572112 3.91869e-05
3.64094e-06 3.91869e-05 0.000360471
0.00297247 0.00079066 0.000104047
0.00079066 0.000277282 1.33448e-05
0.000104047 1.33448e-05 0.0006154
0.000685787 0.00117583 -1.44434e-05
0.00117583 -0.000766307 -4.0026e-05
-1.44434e-05 -4.0026e-05 -0.000777832
0.00110296 0.00171429 -4.36086e-05
0.00171429 -0.000201977 5.71401e-06
-4.36086e-05 5.71401e-06 -0.000819624
0.00525855 0.00236475 6.51911e-05
0.00236475 -0.00121187 2.01532e-05
6.51911e-05 2.01532e-05 0.00087474
0.00960088 0.00491409 -0.000113912
0.00491409 -0.00264059 -9.80328e-05
-0.000113912 -9.80328e-05 0.00188567
0.00707701 0.00322551 -0.000158594
0.00322551 0.00148672 -0.000132975
-0.000158594 -0.000132975 0.00177397
0.00386723 9.075e-05 0.000132441
9.075e-05 -3.18189e-05 1.09155e-05
0.000132441 1.09155e-05 0.000617209
0.0048086 -0.000158666 -0.000190901
-0.000158666 -0.00286842 1.25901e-05
-0.000190901 1.25901e-05 -0.000225727
0.0055611 0.000239465 -0.000112935
0.000239465 -0.00329154 -6.21312e-05
-0.000112935 -6.21312e-05 0.000518528
0.00402427 -0.00170972 -0.000177937
-0.00170972 -0.000902307 0.000121722
-0.000177937 0.000121722 0.000362452
0.000516911 -0.00102993 -0.000112089
-0.00102993 -0.0036401 3.12811e-05
-0.000112089 3.12811e-05 -0.00188048
0.00391297 -0.000769898 1.69282e-05
-0.000769898 -1.24498e-05 -1.16381e-05
1.69282e-05 -1.16381e-05 0.000647921
0.00287269 -0.000190356 -2.42717e-05
-0.000190356 -0.000575857 -2.2239e-06
-2.42717e-05 -2.2239e-06 4.60222e-05
0.00298248 -0.000436289 1.09106e-05
-0.000436289 -0.00047374 -8.72944e-06
1.09106e-05 -8.72944e-06 1.21497e-05
0.00264591 0.00016784 1.16499e-05
0.00016784 -0.000749447 -4.43309e-06
1.16499e-05 -4.43309e-06 -0.000303116
0.00295584 -0.000944305 -2.29553e-05
-0.000944305 -0.000329258 1.34879e-05
-2.29553e-05 1.34879e-05 4.67939e-05
0.00299403 -0.000671592 -3.43487e-06
-0.000671592 -0.000307583 7.93938e-07
-3.43487e-06 7.93938e-07 8.56763e-06
0.00285186 -0.000471422 -2.28775e-06
-0.000471422 -0.000272266 -2.17192e-09
-2.28775e-06 -2.17192e-09 1.88177e-05
0.00299604 -0.00081463 -1.02146e-06
-0.00081463 -5.20646e-05 4.58377e-07
-1.02146e-06 4.58377e-07 9.45074e-05
0.0027565 -0.000628416 3.42966e-07
-0.000628416 -0.000206021 -2.08311e-07
3.42966e-07 -2.08311e-07 -4.25556e-05
0.00266235 -0.000517232 3.48024e-07
-0.000517232 -0.000116494 1.74954e-08
3.48024e-07 1.74954e-08 1.13586e-05
0.00272931 -0.00077892 3.46082e-07
-0.00077892 -7.04476e-05 9.3905e-07
3.46082e-07 9.3905e-07 -2.14399e-05
0.00264693 -0.000638513 3.74734e-07
-0.000638513 -1.67091e-05 -1.77674e-07
3.74734e-07 -1.77674e-07 -2.80422e-06
0.00250319 -0.000566216 9.9223e-07
-0.000566216 2.04737e-05 -4.92885e-07
9.9223e-07 -4.92885e-07 -6.30787e-06
0.0027107 -0.000776711 1.64616e-06
-0.000776711 7.97549e-05 1.00891e-06
1.64616e-06 1.00891e-06 2.41017e-05
0.00253362 -0.000689009 5.53598e-07
-0.000689009 8.81407e-05 -8.50121e-08
5.53598e-07 -8.50121e-08 -1.62963e-06
0.00243785 -0.000638125 -2.70299e-06
-0.000638125 0.000139345 4.30685e-07
-2.70299e-06 4.30685e-07 1.34296e-06
0.00247688 -0.000801554 4.46424e-07
-0.000801554 0.000104728 9.27257e-07
4.46424e-07 9.27257e-07 -5.28032e-05
0.00251946 -0.000769113 3.33127e-07
-0.000769113 0.000222125 -2.71002e-07
3.33127e-07 -2.71002e-07 1.04691e-05
0.00247275 -0.000724116 -1.18178e-06
-0.000724116 0.000293944 -1.89949e-06
-1.18178e-06 -1.89949e-06 1.34148e-05
0.0025241 -0.000837353 1.02803e-06
-0.000837353 0.000292458 1.13494e-06
1.02803e-06 1.13494e-06 1.21147e-05
0.00244757 -0.000782663 -3.9285e-07
-0.000782663 0.000341376 -6.20284e-08
-3.9285e-07 -6.20284e-08 7.15928e-06
0.00174518 -0.000549967 -1.35179e-05
-0.000549967 0.000126124 3.34603e-06
-1.35179e-05 3.34603e-06 -0.000202755
0.00028042 -0.000323048 -1.76882e-05
-0.000323048 -0.000342115 2.2283e-05
-1.76882e-05 2.2283e-05 -0.000581371
0.00182466 -0.000642323 -8.35617e-08
-0.000642323 0.000203535 9.09378e-08
-8.35617e-08 9.09378e-08 -0.000191913
0.00249482 -0.000870486 -4.62874e-06
-0.000870486 0.000424358 5.62128e-06
-4.62874e-06 5.62128e-06 -5.97638e-07
0.0101432 -0.000263803 -0.000491784
-0.000263803 0.00634616 5.66871e-05
-0.000491784 5.66871e-05 0.0063764
0.000227736 -0.000362337 -5.2958e-07
-0.000362337 -0.000355209 1.95956e-06
-5.2958e-07 1.95956e-06 -0.000613791
0.00196157 -0.00072582 1.93786e-05
-0.00072582 0.000346753 -1.79807e-06
1.93786e-05 -1.79807e-06 -0.000118072
0.010245 -0.000218271 -4.43719e-06
-0.000218271 0.00642788 3.0107e-06
-4.43719e-06 3.0107e-06 0.00645424
0.000107023 -0.0003721 2.07567e-05
-0.0003721 -0.000372865 -3.0751e-05
2.07567e-05 -3.0751e-05 -0.000648066
0.0101735 -0.000199008 0.000464952
-0.000199008 0.00640705 -5.94383e-05
0.000464952 -5.94383e-05 0.00642897
0.00249582 0.00109019 4.11473e-06
0.00109019 0.000333408 1.16001e-05
4.11473e-06 1.16001e-05 -0.000118924
0.0023464 0.00106557 2.40517e-06
0.00106557 0.000395576 -9.03086e-07
2.40517e-06 -9.03086e-07 -0.000138234
0.00270657 0.00106707 1.63035e-05
0.00106707 0.000698921 2.01516e-05
1.63035e-05 2.01516e-05 0.000127878
0.00247629 0.00121183 1.28621e-05
0.00121183 0.00072803 -1.42145e-05
1.28621e-05 -1.42145e-05 3.71832e-05
0.00241449 0.00114144 1.10828e-06
0.00114144 0.000636244 6.27639e-07
1.10828e-06 6.27639e-07 -3.856e-05
0.00149741 0.000666727 -5.28623e-05
0.000666727 0.000227604 -1.12583e-07
-5.28623e-05 -1.12583e-07 -0.000277846
0.00256625 0.00111996 -3.44261e-05
0.00111996 0.000897161 -2.39835e-05
-3.44261e-05 -2.39835e-05 0.000182154
0.000828823 0.000496382 -2.41392e-06
0.000496382 -2.27501e-05 1.08256e-06
-2.41392e-06 1.08256e-06 -0.000516771
-0.000214005 0.000311976 -3.2758e-05
0.000311976 -0.000543797 -3.53019e-05
-3.2758e-05 -3.53019e-05 -0.000767046
0.00160588 0.000281401 5.27877e-06
0.000281401 0.000550793 -4.0821e-06
5.27877e-06 -4.0821e-06 0.000187923
0.000240729 0.000291752 5.19561e-06
0.000291752 -0.000280457 5.71393e-08
5.19561e-06 5.71393e-08 -0.000468006
0.00895463 -8.84097e-05 -0.000320251
-8.84097e-05 0.00569625 -4.48274e-05
-0.000320251 -4.48274e-05 0.00568249
0.000679632 0.00032422 4.6064e-05
0.00032422 2.81105e-05 3.19614e-05
4.6064e-05 3.19614e-05 -0.000132553
0.00792842 -0.000179102 5.22058e-06
-0.000179102 0.00507214 -4.23383e-06
5.22058e-06 -4.23383e-06 0.00503655
0.00595217 -0.000268872 0.000113078
-0.000268872 0.00381236 2.91468e-05
0.000113078 2.91468e-05 0.00375092
0.00191422 0.000577455 7.27624e-05
0.000577455 -0.000856351 4.64834e-05
7.27624e-05 4.64834e-05 -0.000124996
0.00149539 0.00129274 5.51879e-05
0.00129274 -0.00438192 -1.26074e-05
5.51879e-05 -1.26074e-05 -0.00142706
0.00656562 0.00253898 0.000295096
0.00253898 -0.00425461 0.000153491
0.000295096 0.000153491 0.00132087
0.00297372 0.00121381 -6.97777e-06
0.00121381 0.000352108 -2.27236e-06
-6.97777e-06 -2.27236e-06 1.1417e-05
0.00274596 0.00129464 -1.03712e-05
0.00129464 0.000490462 -4.06049e-06
-1.03712e-05 -4.06049e-06 -5.32937e-05
0.00264984 0.000877833 5.65218e-06
0.000877833 0.000157897 9.04615e-07
5.65218e-06 9.04615e-07 -3.97362e-05
0.00277218 0.00115701 9.23725e-07
0.00115701 0.000343913 2.79214e-07
9.23725e-07 2.79214e-07 -3.63585e-05
0.00252504 0.0011638 -5.41225e-06
0.0011638 0.00046509 -1.56261e-05
-5.41225e-06 -1.56261e-05 -6.35258e-05
0.00311892 0.00105733 -6.95368e-06
0.00105733 0.000150826 1.57144e-07
-6.95368e-06 1.57144e-07 5.11345e-05
0.00306778 0.00168738 7.58071e-06
0.00168738 0.000860815 -6.47428e-06
7.58071e-06 -6.47428e-06 8.60072e-05
0.00329013 0.00142545 -2.22106e-07
0.00142545 0.000557579 -1.50365e-06
-2.22106e-07 -1.50365e-06 0.000120363
0.00247213 0.000665244 -4.91963e-06
0.000665244 -0.000467049 3.80827e-06
-4.91963e-06 3.80827e-06 -0.000172995
0.0024369 0.00176309 -3.91041e-06
0.00176309 0.000321302 2.04859e-05
-3.91041e-06 2.04859e-05 -0.000448209
0.00322615 0.00138528 2.81946e-06
0.00138528 0.000306824 -8.74373e-06
2.81946e-06 -8.74373e-06 0.000119023
0.00100056 0.000773669 -5.50981e-05
0.000773669 -0.00111714 -6.73303e-06
-5.50981e-05 -6.73303e-06 -0.000528269
-0.00367492 0.000676346 -1.06032e-05
0.000676346 -0.00314803 -2.57575e-05
-1.06032e-05 -2.57575e-05 -0.00295845
0.00668633 0.00252241 -0.000278481
0.00252241 -0.000357186 -0.00011426
-0.000278481 -0.00011426 0.00159464
0.0028844 0.000291869 8.82902e-06
0.000291869 -0.000409836 1.30875e-06
8.82902e-06 1.30875e-06 -2.07485e-06
0.00374095 0.00010859 -1.29414e-06
0.00010859 -0.000221597 -8.60728e-06
-1.29414e-06 -8.60728e-06 0.00046004
0.00325068 -0.000497259 -0.000271101
-0.000497259 -0.00395997 -3.18485e-05
-0.000271101 -3.18485e-05 -0.00115305
0.00337807 -0.000715254 -0.000152526
-0.000715254 -0.00036715 4.15565e-05
-0.000152526 4.15565e-05 0.000400224
0.00261198 -0.000212922 -3.17836e-05
-0.000212922 -0.000645101 6.84713e-06
-3.17836e-05 6.84713e-06 -5.40731e-05
0.00286367 -0.000468447 8.07522e-06
-0.000468447 -0.000591104 -9.50621e-07
8.07522e-06 -9.50621e-07 -4.68988e-05
0.00301574 0.000182118 -1.60036e-06
0.000182118 -0.000455827 2.14159e-06
-1.60036e-06 2.14159e-06 -4.98049e-05
0.00286506 -8.61456e-05 3.36318e-07
-8.61456e-05 -0.000370414 -2.40208e-06
3.36318e-07 -2.40208e-06 1.12636e-05
0.0029543 -0.000693668 -1.66448e-06
-0.000693668 -0.000361113 2.70499e-06
-1.66448e-06 2.70499e-06 -6.62957e-05
0.00278481 -0.000451045 3.72179e-07
-0.000451045 -0.000303772 -2.80885e-07
3.72179e-07 -2.80885e-07 -1.81683e-05
0.00267083 -0.000335056 3.38797e-07
-0.000335056 -0.000181764 -2.63039e-07
3.38797e-07 -2.63039e-07 3.75068e-05
0.00275332 -0.000632793 1.60521e-06
-0.000632793 -0.000200266 5.2194e-07
1.60521e-06 5.2194e-07 -4.44948e-05
0.00264544 -0.000516632 3.29204e-07
-0.000516632 -0.000123296 1.03561e-07
3.29204e-07 1.03561e-07 -7.53756e-07
0.00248413 -0.000434996 1.04289e-06
-0.000434996 -4.74479e-05 -1.96703e-07
1.04289e-06 -1.96703e-07 -2.23514e-06
0.00264772 -0.000636388 2.38626e-07
-0.000636388 -2.28512e-05 3.26376e-07
2.38626e-07 3.26376e-07 -8.58212e-06
0.0025 -0.00056619 2.60845e-07
-0.00056619 1.57615e-05 -4.90465e-08
2.60845e-07 -4.90465e-08 -1.11692e-05
0.00237987 -0.000510786 -2.93613e-06
-0.000510786 7.32672e-05 6.48854e-07
-2.93613e-06 6.48854e-07 -3.99147e-06
0.00252929 -0.00068892 4.12805e-07
-0.00068892 8.07826e-05 3.06459e-07
4.12805e-07 3.06459e-07 -9.13316e-06
0.00245754 -0.000642254 4.09466e-07
-0.000642254 0.000147073 -2.80966e-07
4.09466e-07 -2.80966e-07 7.09232e-06
0.00246023 -0.000625091 -2.03587e-06
-0.000625091 0.000235746 -6.5197e-07
-2.03587e-06 -6.5197e-07 1.9894e-05
0.00253591 -0.000777013 1.90444e-06
-0.000777013 0.000228796 1.02966e-07
1.90444e-06 1.02966e-07 1.66171e-05
0.00244693 -0.000718402 -7.0706e-07
-0.000718402 0.00028314 -2.45877e-08
-7.0706e-07 -2.45877e-08 4.3903e-06
0.00170959 -0.000488393 -9.5792e-06
-0.000488393 7.15792e-05 2.86533e-06
-9.5792e-06 2.86533e-06 -0.000210604
0.0023999 -0.000780874 -3.36615e-07
-0.000780874 0.000309834 2.92485e-06
-3.36615e-07 2.92485e-06 -2.26918e-05
0.00176005 -0.000551847 -1.22648e-07
-0.000551847 0.000129276 1.53937e-08
-1.22648e-07 1.53937e-08 -0.000198926
0.00326571 -0.000346047 -6.86009e-05
-0.000346047 0.00163015 1.774e-05
-6.86009e-05 1.774e-05 0.00144281
0.00367551 -0.000202318 -0.000398231
-0.000202318 0.00207195 6.72455e-05
-0.000398231 6.72455e-05 0.00205385
0.001851 -0.000357153 -2.44492e-05
-0.000357153 0.000696595 7.63162e-07
-2.44492e-05 7.63162e-07 0.00047215
0.00175871 -0.000633895 1.72988e-05
-0.000633895 0.000162442 -3.2609e-06
1.72988e-05 -3.2609e-06 -0.000229665
0.00991302 -0.000268593 -5.70332e-06
-0.000268593 0.00620781 3.87148e-06
-5.70332e-06 3.87148e-06 0.00623457
0.000250689 -0.000388649 2.47394e-05
-0.000388649 -0.000333811 -2.56526e-05
2.47394e-05 -2.56526e-05 -0.000598779
0.0102733 -0.000233073 0.000475129
-0.000233073 0.00645112 -6.17741e-05
0.000475129 -6.17741e-05 0.00647355
0.00249608 0.000678325 2.60501e-06
0.000678325 8.82852e-05 -6.59563e-07
2.60501e-06 -6.59563e-07 -4.12553e-05
0.00259457 0.000929341 7.70938e-06
0.000929341 0.000295212 6.39434e-06
7.70938e-06 6.39434e-06 -8.93984e-07
0.00266131 0.00110312 4.74597e-07
0.00110312 0.000437921 -6.78985e-07
4.74597e-07 -6.78985e-07 -5.64377e-06
0.00264099 0.00098136 1.0644e-05
0.00098136 0.000583586 1.52973e-05
1.0644e-05 1.52973e-05 0.000105873
0.00247683 0.00108 4.42456e-06
0.00108 0.000488899 -1.65399e-05
4.42456e-06 -1.65399e-05 -4.44343e-05
0.00246447 0.00103776 1.91167e-06
0.00103776 0.00053211 7.04276e-07
1.91167e-06 7.04276e-07 -2.95322e-05
0.00169018 0.000718648 -4.13134e-05
0.000718648 0.000269006 -1.86662e-06
-4.13134e-05 -1.86662e-06 -0.000220264
0.00238207 0.00112431 -2.22136e-05
0.00112431 0.000624815 -2.1933e-05
-2.22136e-05 -2.1933e-05 -4.32916e-05
0.00149603 0.000673098 -1.32224e-06
0.000673098 0.000185964 3.16903e-08
-1.32224e-06 3.16903e-08 -0.000317021
-5.26095e-06 0.00036786 -3.13474e-05
0.00036786 -0.000422764 -3.18196e-05
-3.13474e-05 -3.18196e-05 -0.000683098
0.00133846 0.000470019 3.99268e-05
0.000470019 0.000341196 -8.27088e-07
3.99268e-05 -8.27088e-07 -0.000136303
0.000143213 0.00028537 3.18473e-06
0.00028537 -0.000327104 -1.95512e-07
3.18473e-06 -1.95512e-07 -0.000546973
0.0100569 8.33226e-05 -0.000423579
8.33226e-05 0.00635305 -5.44781e-05
-0.000423579 -5.44781e-05 0.00636349
0.000495768 0.000275204 2.99077e-05
0.000275204 -0.000119813 3.23792e-05
2.99077e-05 3.23792e-05 -0.000304793
0.00897134 -9.14506e-05 1.83684e-05
-9.14506e-05 0.00569672 -3.23728e-06
1.83684e-05 -3.23728e-06 0.00568682
0.00772387 -0.000216088 0.000199623
-0.000216088 0.00493512 2.96566e-05
0.000199623 2.96566e-05 0.00489735
0.00263103 0.000337442 3.2468e-06
0.000337442 -0.000518603 5.40679e-06
3.2468e-06 5.40679e-06 -0.00010795
0.00135647 0.000497968 -8.8088e-06
0.000497968 -0.00163529 -1.11435e-05
-8.8088e-06 -1.11435e-05 -0.000608905
0.00319617 0.00157478 -0.000231594
0.00157478 -0.00396707 -9.0874e-05
-0.000231594 -9.0874e-05 -0.000836986
0.00273355 0.000822913 -2.09222e-06
0.000822913 9.57973e-05 -2.51262e-06
-2.09222e-06 -2.51262e-06 -8.848e-07
0.00284832 0.00118334 -5.02283e-06
0.00118334 0.000307046 -5.62381e-07
-5.02283e-06 -5.62381e-07 -2.35939e-05
0.00283396 0.00133097 -6.10404e-07
0.00133097 0.000534543 -6.72034e-06
-6.10404e-07 -6.72034e-06 -1.45707e-05
0.00260896 0.00086114 1.63935e-06
0.00086114 0.000156287 1.00662e-06
1.63935e-06 1.00662e-06 -4.56937e-05
0.00274634 0.0011442 -2.60866e-06
0.0011442 0.000324511 -7.12792e-06
-2.60866e-06 -7.12792e-06 -4.38169e-05
0.00297526 0.000658541 3.86326e-06
0.000658541 -8.85301e-05 1.24033e-06
3.86326e-06 1.24033e-06 9.41093e-05
0.00301387 0.00104526 -2.07043e-06
0.00104526 0.000108126 7.86048e-07
-2.07043e-06 7.86048e-07 2.43009e-05
0.00310437 0.00134992 8.30476e-06
0.00134992 0.000482369 -6.1133e-07
8.30476e-06 -6.1133e-07 6.87491e-05
0.0023581 0.000603124 2.16739e-07
0.000603124 -0.000456568 1.47513e-06
2.16739e-07 1.47513e-06 -0.000142042
0.00272072 0.00127278 7.61074e-06
0.00127278 1.83617e-05 -1.3832e-05
7.61074e-06 -1.3832e-05 -0.000133602
-0.00116018 0.000637842 -3.09462e-05
0.000637842 -0.00280369 -6.99616e-06
-3.09462e-05 -6.99616e-06 -0.00168566
0.00277421 0.000158151 3.66619e-06
0.000158151 -0.000294817 1.5027e-08
3.66619e-06 1.5027e-08 2.19644e-05
0.00286854 0.000273138 2.04921e-06
0.000273138 -0.000427517 -1.38684e-06
2.04921e-06 -1.38684e-06 -1.60611e-05
0.003631 0.000110681 -0.000105393
0.000110681 -0.000345276 1.15e-05
-0.000105393 1.15e-05 0.000330146
0.00273508 -0.000511557 -3.15886e-05
-0.000511557 -0.000740249 1.18477e-05
-3.15886e-05 1.18477e-05 -0.000127938
0.0033371 0.000202345 -5.89956e-06
0.000202345 -0.000212186 3.58683e-06
-5.89956e-06 3.58683e-06 0.000165518
0.00287123 -8.46672e-05 -9.10592e-07
-8.46672e-05 -0.000375238 -9.26661e-07
-9.10592e-07 -9.26661e-07 9.51785e-07
0.0025458 -9.30251e-05 1.68944e-07
-9.30251e-05 -0.000210226 4.15652e-09
1.68944e-07 4.15652e-09 -6.36717e-06
0.00270969 -0.000429673 2.37574e-06
-0.000429673 -0.000340561 -8.9808e-07
2.37574e-06 -8.9808e-07 -5.98687e-05
0.00263262 -0.000346472 -1.47187e-08
-0.000346472 -0.000200048 8.84645e-08
-1.47187e-08 8.84645e-08 7.2061e-06
0.00243584 -0.00028643 1.84692e-06
-0.00028643 -9.9638e-05 -6.5415e-07
1.84692e-06 -6.5415e-07 -1.01274e-05
0.00262623 -0.000515865 -7.75077e-07
-0.000515865 -0.000131535 2.00708e-07
-7.75077e-07 2.00708e-07 -1.41948e-05
0.00248396 -0.000433832 2.89283e-08
-0.000433832 -5.06189e-05 5.82709e-08
2.89283e-08 5.82709e-08 -5.46792e-06
0.00233161 -0.000390096 -3.10701e-06
-0.000390096 6.58997e-06 4.13462e-07
-3.10701e-06 4.13462e-07 -1.7683e-05
0.00249677 -0.000566174 -3.30164e-07
-0.000566174 1.0779e-05 2.39227e-07
-3.30164e-07 2.39227e-07 -1.62923e-05
0.00237421 -0.000511546 2.1434e-07
-0.000511546 6.43682e-05 5.35377e-08
2.1434e-07 5.35377e-08 -1.33915e-05
0.00243903 -0.000502767 -3.33756e-06
-0.000502767 0.000181645 5.12728e-07
-3.33756e-06 5.12728e-07 3.29497e-05
0.00247846 -0.000646438 2.72664e-06
-0.000646438 0.000156 -8.03656e-07
2.72664e-06 -8.03656e-07 1.40126e-05
0.00243415 -0.000618627 -4.10128e-07
-0.000618627 0.000227666 -3.39795e-07
-4.10128e-07 -3.39795e-07 1.36167e-05
0.00171359 -0.000414475 -8.21621e-06
-0.000414475 4.53052e-05 1.9196e-06
-8.21621e-06 1.9196e-06 -0.00019067
0.00241712 -0.00071239 9.22769e-07
-0.00071239 0.000269455 1.32878e-06
9.22769e-07 1.32878e-06 -7.45794e-06
0.00175709 -0.000493149 -6.09084e-08
-0.000493149 9.54853e-05 2.16229e-07
-6.09084e-08 2.16229e-07 -0.000186607
0.00306948 -0.000306382 -7.25641e-05
-0.000306382 0.00149917 1.6024e-05
-7.25641e-05 1.6024e-05 0.00133664
0.00176751 -0.00055496 1.19987e-05
-0.00055496 0.000123931 -3.52439e-06
1.19987e-05 -3.52439e-06 -0.000204148
0.00336584 -0.000374167 6.48274e-05
-0.000374167 0.00170008 -1.19402e-05
6.48274e-05 -1.19402e-05 0.00152771
0.00313863 -0.000201116 -0.000355343
-0.000201116 0.00173851 6.46166e-05
-0.000355343 6.46166e-05 0.00171408
0.00623506 -0.000246629 -0.000338564
-0.000246629 0.00379161 4.80263e-05
-0.000338564 4.80263e-05 0.00379078
0.0035454 -0.000443295 0.000212815
-0.000443295 0.0018282 -4.10235e-05
0.000212815 -4.10235e-05 0.00164415
0.00966434 -0.000265465 0.000455307
-0.000265465 0.00605343 -6.2088e-05
0.000455307 -6.2088e-05 0.00607404
0.00254087 0.000655851 -1.36895e-06
0.000655851 7.78061e-05 -1.98654e-06
-1.36895e-06 -1.98654e-06 1.01185e-05
0.00259517 0.000739951 2.86761e-06
0.000739951 0.000306123 1.86358e-06
2.86761e-06 1.86358e-06 0.000101196
0.0025088 0.000663989 4.33488e-07
0.000663989 0.000110261 -2.08991e-07
4.33488e-07 -2.08991e-07 -1.23209e-05
0.00238749 0.000821331 4.70723e-06
0.000821331 0.000328151 9.75446e-06
4.70723e-06 9.75446e-06 -3.14205e-05
0.00262889 0.000927673 3.29248e-07
0.000927673 0.000309774 -2.83628e-07
3.29248e-07 -2.83628e-07 1.39549e-05
0.0028734 0.00112163 -4.10777e-06
0.00112163 0.000572907 -1.0739e-05
-4.10777e-06 -1.0739e-05 0.000136528
0.00238493 0.000955995 8.35196e-07
0.000955995 0.000405107 2.43709e-07
8.35196e-07 2.43709e-07 -6.66116e-05
0.00171756 0.000684842 -2.68622e-05
0.000684842 0.000164096 -1.30851e-06
-2.68622e-05 -1.30851e-06 -0.0002699
0.00211832 0.000993374 -1.51485e-05
0.000993374 0.000298997 -1.9216e-05
-1.51485e-05 -1.9216e-05 -0.000249004
0.00174506 0.000761062 -2.4877e-06
0.000761062 0.000279326 6.18297e-07
-2.4877e-06 6.18297e-07 -0.000227065
0.000291669 0.00039892 -2.88106e-05
0.00039892 -0.000290911 -2.60345e-05
-2.88106e-05 -2.60345e-05 -0.000561256
0.00118177 0.000637487 5.15365e-05
0.000637487 -5.39346e-05 -4.49684e-07
5.15365e-05 -4.49684e-07 -0.00054078
-9.00365e-05 0.000320576 1.29527e-06
0.000320576 -0.000489565 1.95179e-06
1.29527e-06 1.95179e-06 -0.000735599
0.0103255 0.000190174 -0.000454612
0.000190174 0.00649488 -6.16916e-05
-0.000454612 -6.16916e-05 0.00650886
0.000225937 0.000250351 2.94132e-05
0.000250351 -0.000297793 3.41334e-05
2.94132e-05 3.41334e-05 -0.000503089
0.00938262 2.67454e-05 1.3199e-05
2.67454e-05 0.00591189 -1.22447e-06
1.3199e-05 -1.22447e-06 0.00592047
0.00858896 -9.60687e-05 0.000295846
-9.60687e-05 0.00543469 3.03521e-05
0.000295846 3.03521e-05 0.00542945
0.0028262 0.000417925 3.2705e-06
0.000417925 -0.000198524 6.89943e-07
3.2705e-06 6.89943e-07 5.14239e-05
0.0024975 0.000348889 2.21603e-06
0.000348889 -0.000516656 -2.84976e-06
2.21603e-06 -2.84976e-06 -0.000109729
5.65029e-05 0.000457452 -6.36631e-05
0.000457452 -0.00284497 -1.22191e-05
-6.36631e-05 -1.22191e-05 -0.00155508
0.00264068 0.00057593 1.99969e-06
0.00057593 -6.89306e-05 -2.18258e-07
1.99969e-06 -2.18258e-07 1.00707e-06
0.0026588 0.000821146 -8.54141e-07
0.000821146 5.40471e-05 1.05632e-06
-8.54141e-07 1.05632e-06 -3.37494e-05
0.0027366 0.00115179 6.55004e-06
0.00115179 0.000271911 -6.46315e-07
6.55004e-06 -6.46315e-07 -4.75468e-05
0.00258333 0.000845048 -4.69687e-06
0.000845048 0.000164141 -8.75285e-07
-4.69687e-06 -8.75285e-07 -4.18252e-05
0.0028849 0.000648192 -2.37111e-06
0.000648192 -0.000142348 1.36767e-07
-2.37111e-06 1.36767e-07 3.26684e-05
0.00292004 0.00103216 3.81327e-06
0.00103216 8.01395e-05 -1.11368e-06
3.81327e-06 -1.11368e-06 9.50549e-06
0.00224653 0.000607854 2.06642e-06
0.000607854 -0.000409548 -8.58644e-06
2.06642e-06 -8.58644e-06 -0.000103365
0.00259744 0.000124903 1.67804e-06
0.000124903 -0.000192935 1.95215e-07
1.67804e-06 1.95215e-07 3.13787e-06
0.00273868 0.000161589 -4.0037e-07
0.000161589 -0.000296751 -1.96617e-09
-4.0037e-07 -1.96617e-09 1.04101e-05
0.00283237 0.000270534 -1.9297e-05
0.000270534 -0.000449327 1.76258e-06
-1.9297e-05 1.76258e-06 -4.08263e-05
0.00239471 -1.10641e-05 1.03385e-07
-1.10641e-05 -0.000183665 9.92743e-08
1.03385e-07 9.92743e-08 -3.68209e-05
0.00290067 -8.68672e-05 9.99378e-08
-8.68672e-05 -0.000361296 1.65299e-06
9.99378e-08 1.65299e-06 7.01476e-06
0.00255681 -9.78464e-05 9.1653e-09
-9.78464e-05 -0.00020167 1.88224e-07
9.1653e-09 1.88224e-07 8.54121e-07
0.00240976 -0.000149683 5.82485e-07
-0.000149683 -0.000111177 -5.19768e-08
5.82485e-07 -5.19768e-08 -8.18632e-06
0.00259407 -0.000357556 -1.16559e-07
-0.000357556 -0.000218794 1.59236e-07
-1.16559e-07 1.59236e-07 -2.33783e-05
0.00244262 -0.000282788 5.85474e-07
-0.000282788 -9.7359e-05 -4.56876e-07
5.85474e-07 -4.56876e-07 -7.05018e-06
0.00228749 -0.000268567 -2.40875e-06
-0.000268567 -3.70279e-05 3.64059e-07
-2.40875e-06 3.64059e-07 -2.66809e-05
0.00248608 -0.000432481 -6.87012e-07
-0.000432481 -5.22657e-05 2.49794e-07
-6.87012e-07 2.49794e-07 -7.16249e-06
0.00233274 -0.000388772 2.09767e-08
-0.000388772 5.2e-06 -5.42058e-08
2.09767e-08 -5.42058e-08 -1.84794e-05
0.00244179 -0.000388409 -3.95084e-06
-0.000388409 0.000148311 7.04936e-07
-3.95084e-06 7.04936e-07 5.20904e-05
0.0023699 -0.00051245 3.17907e-06
-0.00051245 5.6355e-05 -6.25374e-07
3.17907e-06 -6.25374e-07 -2.197e-05
0.00242109 -0.000499082 -1.02285e-07
-0.000499082 0.000175988 -1.77461e-07
-1.02285e-07 -1.77461e-07 2.74214e-05
0.00171159 -0.000333173 -6.64017e-06
-0.000333173 2.52706e-05 1.17844e-06
-6.64017e-06 1.17844e-06 -0.000167508
0.00240737 -0.000612024 1.79266e-06
-0.000612024 0.000219273 -2.51867e-07
1.79266e-06 -2.51867e-07 7.06092e-06
0.00176423 -0.000419323 -3.88493e-07
-0.000419323 6.72321e-05 2.41354e-07
-3.88493e-07 2.41354e-07 -0.000168632
0.00291281 -0.000269807 -7.59062e-05
-0.000269807 0.00140277 1.45327e-05
-7.59062e-05 1.45327e-05 0.00126064
0.00180612 -0.000498244 8.43924e-06
-0.000498244 0.000120034 -2.70268e-06
8.43924e-06 -2.70268e-06 -0.000161968
0.00318249 -0.000321957 5.85668e-05
-0.000321957 0.00157372 -9.15397e-06
5.85668e-05 -9.15397e-06 0.00142646
0.0030124 -0.000166671 -0.0003391
-0.000166671 0.00165303 5.40172e-05
-0.0003391 5.40172e-05 0.00163407
0.00345322 -0.000373354 0.000200393
-0.000373354 0.00175197 -3.94492e-05
0.000200393 -3.94492e-05 0.00159912
0.00268874 -0.00013347 -0.000131961
-0.00013347 0.00144024 2.28025e-05
-0.000131961 2.28025e-05 0.0013944
0.00862545 -0.000188647 0.000172206
-0.000188647 0.0053664 -1.55228e-05
0.000172206 -1.55228e-05 0.00533865
0.0025026 0.000554545 -3.62531e-07
0.000554545 3.95485e-05 -2.30088e-07
-3.62531e-07 -2.30088e-07 6.60336e-06
0.00248498 0.000621192 -2.66131e-06
0.000621192 0.000175721 -1.45365e-06
-2.66131e-06 -1.45365e-06 5.58204e-05
0.00258349 0.00065228 -2.15974e-06
0.00065228 0.000110037 5.02402e-08
-2.15974e-06 5.02402e-08 3.50081e-05
0.00237461 0.000695651 3.4593e-07
0.000695651 0.000265675 3.24642e-06
3.4593e-07 3.24642e-06 -1.44204e-05
0.0025183 0.000739959 -6.36025e-07
0.000739959 0.000220519 -1.69311e-06
-6.36025e-07 -1.69311e-06 3.48947e-05
0.00250826 0.000647883 -4.73909e-06
0.000647883 0.00012334 -9.92882e-07
-4.73909e-06 -9.92882e-07 8.02094e-06
0.00178741 0.0005852 -1.82468e-05
0.0005852 0.000113905 -1.90205e-06
-1.82468e-05 -1.90205e-06 -0.000232442
0.00238186 0.000825501 1.7582e-06
0.000825501 0.000314949 5.11268e-08
1.7582e-06 5.11268e-08 -4.66897e-05
0.00263082 0.000924675 -4.48232e-06
0.000924675 0.000299093 -4.64784e-06
-4.48232e-06 -4.64784e-06 4.2308e-06
0.00211999 0.000927812 -9.9429e-06
0.000927812 0.000222855 -1.59736e-05
-9.9429e-06 -1.59736e-05 -0.000241425
0.00184607 0.000699469 -5.12735e-07
0.000699469 0.000250899 1.66061e-07
-5.12735e-07 1.66061e-07 -0.000188779
0.000435678 0.000372815 -2.45123e-05
0.000372815 -0.0002324 -2.17922e-05
-2.45123e-05 -2.17922e-05 -0.000485751
0.00193927 0.000818853 4.47633e-05
0.000818853 0.000369956 4.58045e-06
4.47633e-05 4.58045e-06 -0.000156545
0.00014448 0.000371441 1.27916e-07
0.000371441 -0.000376314 1.88509e-06
1.27916e-07 1.88509e-06 -0.000641688
0.00977224 0.000263272 -0.000441811
0.000263272 0.00613569 -6.64512e-05
-0.000441811 -6.64512e-05 0.00614325
3.20354e-05 0.000295835 2.91186e-05
0.000295835 -0.000416668 3.13936e-05
2.91186e-05 3.13936e-05 -0.000657976
0.0102332 0.000145045 8.21053e-06
0.000145045 0.00642883 2.12548e-06
8.21053e-06 2.12548e-06 0.00644844
0.00938493 -4.60904e-06 0.000355063
-4.60904e-06 0.00590749 3.29161e-05
0.000355063 3.29161e-05 0.00591962
0.00255231 0.000329605 6.75473e-07
0.000329605 -0.000144631 4.01835e-07
6.75473e-07 4.01835e-07 -4.91286e-06
0.00276576 0.000426267 -1.00114e-06
0.000426267 -0.000273727 8.48855e-07
-1.00114e-06 8.48855e-07 -1.03665e-05
0.00243066 0.000320106 -9.32915e-06
0.000320106 -0.000502913 -2.28241e-06
-9.32915e-06 -2.28241e-06 -8.73783e-05
0.0026265 0.000571276 -5.60439e-07
0.000571276 -7.22292e-05 4.8584e-07
-5.60439e-07 4.8584e-07 -1.93551e-06
0.00257598 0.000819897 4.26426e-08
0.000819897 6.48427e-06 4.37522e-07
4.26426e-08 4.37522e-07 -7.15526e-05
0.00279532 0.000634217 1.33119e-06
0.000634217 -0.000206824 -1.63746e-06
1.33119e-06 -1.63746e-06 -3.50126e-05
0.00248492 0.000113082 1.18103e-06
0.000113082 -0.00011598 8.7105e-08
1.18103e-06 8.7105e-08 1.074e-05
0.00260356 0.000123085 -8.69026e-08
0.000123085 -0.00018068 -1.50382e-07
-8.69026e-08 -1.50382e-07 1.22706e-05
0.00267963 0.000162547 -2.92791e-06
0.000162547 -0.000320451 -5.54525e-08
-2.92791e-06 -5.54525e-08 -2.03939e-05
0.00243455 -6.27739e-06 -6.48857e-07
-6.27739e-06 -0.000150266 3.30053e-08
-6.48857e-07 3.30053e-08 -7.46915e-06
0.00236202 -3.27938e-05 -1.57057e-07
-3.27938e-05 -7.77672e-05 -7.53093e-08
-1.57057e-07 -7.53093e-08 7.40443e-06
0.00256867 -0.000102805 -1.20764e-06
-0.000102805 -0.000192367 6.61899e-07
-1.20764e-06 6.61899e-07 8.73728e-06
0.00240642 -0.000152194 -7.43727e-07
-0.000152194 -0.000103744 2.30968e-07
-7.43727e-07 2.30968e-07 -7.25841e-06
0.00223402 -0.000163921 -2.72608e-06
-0.000163921 -7.45391e-05 5.39657e-07
-2.72608e-06 5.39657e-07 -3.91135e-05
0.00244667 -0.000279358 -3.20313e-07
-0.000279358 -9.65033e-05 -2.56463e-07
-3.20313e-07 -2.56463e-07 -5.42057e-06
0.0022845 -0.000266745 8.87941e-07
-0.000266745 -3.6767e-05 -3.18239e-07
8.87941e-07 -3.18239e-07 -2.60518e-05
0.00247174 -0.000287293 -3.52533e-06
-0.000287293 0.000135157 9.16289e-07
-3.52533e-06 9.16289e-07 7.57225e-05
0.00232803 -0.000387843 3.23465e-06
-0.000387843 -4.84318e-08 -5.78247e-07
3.23465e-06 -5.78247e-07 -2.31669e-05
0.00243374 -0.000387568 5.36589e-08
-0.000387568 0.000144356 -1.0483e-07
5.36589e-08 -1.0483e-07 4.90533e-05
0.00169572 -0.000256799 -5.84788e-06
-0.000256799 7.74804e-06 9.34497e-07
-5.84788e-06 9.34497e-07 -0.000150839
0.00240319 -0.000495185 3.28222e-06
-0.000495185 0.000170079 -8.3856e-07
3.28222e-06 -8.3856e-07 2.17797e-05
0.00173082 -0.000335636 -3.23748e-07
-0.000335636 2.28795e-05 9.1169e-08
-3.23748e-07 9.1169e-08 -0.000169505
0.00275007 -0.000236805 -7.49163e-05
-0.000236805 0.00131077 1.21772e-05
-7.49163e-05 1.21772e-05 0.00118757
0.0018109 -0.00042404 7.32998e-06
-0.00042404 8.62039e-05 -1.89663e-06
7.32998e-06 -1.89663e-06 -0.000149492
0.0030258 -0.000265962 5.4419e-05
-0.000265962 0.00147283 -6.91879e-06
5.4419e-05 -6.91879e-06 0.00134786
0.00287314 -0.00013351 -0.000324157
-0.00013351 0.00156138 4.33697e-05
-0.000324157 4.33697e-05 0.00154685
0.00330224 -0.000311014 0.000190327
-0.000311014 0.0016423 -3.17653e-05
0.000190327 -3.17653e-05 0.0015144
0.00257826 -0.000121237 -0.000118211
-0.000121237 0.0013717 1.69529e-05
-0.000118211 1.69529e-05 0.00132987
0.00228383 -0.00012287 9.62434e-05
-0.00012287 0.00119244 -1.75272e-05
9.62434e-05 -1.75272e-05 0.00111672
0.00244016 0.000355835 9.98836e-07
0.000355835 -4.76039e-05 -1.58667e-07
9.98836e-07 -1.58667e-07 -4.93819e-06
0.00234313 0.000485231 -3.0776e-06
0.000485231 6.42803e-05 -6.19489e-07
-3.0776e-06 -6.19489e-07 -2.03308e-05
0.00251015 0.000557093 -8.73368e-07
0.000557093 2.08143e-05 -2.88408e-07
-8.73368e-07 -2.88408e-07 2.87612e-06
0.00235426 0.000605967 -4.88765e-07
0.000605967 0.000154366 2.38547e-07
-4.88765e-07 2.38547e-07 -4.44546e-05
0.00247719 0.000619145 -1.32553e-07
0.000619145 0.000184006 1.30789e-08
-1.32553e-07 1.30789e-08 5.27288e-05
0.00262492 0.000649611 8.142e-07
0.000649611 0.00014124 1.73351e-06
8.142e-07 1.73351e-06 5.85913e-05
0.00178076 0.00050043 -1.13716e-05
0.00050043 0.000101119 -1.95171e-06
-1.13716e-05 -1.95171e-06 -0.000183489
0.00235744 0.000707262 -1.12544e-06
0.000707262 0.000228764 -1.84282e-06
-1.12544e-06 -1.84282e-06 -4.00083e-05
0.00245552 0.000741915 -2.98467e-06
0.000741915 0.000145247 -2.38462e-06
-2.98467e-06 -2.38462e-06 -2.17149e-05
0.000425252 0.00029615 -2.10322e-05
0.00029615 -0.000252336 -1.68473e-05
-2.10322e-05 -1.68473e-05 -0.000467084
0.00176341 0.000574291 2.97408e-07
0.000574291 0.000118929 -3.73019e-08
2.97408e-07 -3.73019e-08 -0.000225056
0.00235365 0.000826597 -3.67993e-06
0.000826597 0.000289136 -1.1033e-05
-3.67993e-06 -1.1033e-05 -7.41969e-05
0.00198964 0.000716965 3.05212e-05
0.000716965 0.000348517 1.76531e-06
3.05212e-05 1.76531e-06 -9.79036e-05
0.000321527 0.00035844 7.37434e-07
0.00035844 -0.000304748 9.45708e-07
7.37434e-07 9.45708e-07 -0.000557937
0.00910807 0.000340991 -0.000432316
0.000340991 0.00571033 -6.92664e-05
-0.000432316 -6.92664e-05 0.00571176
-4.01341e-05 0.000336696 2.44304e-05
0.000336696 -0.000487746 2.58748e-05
2.44304e-05 2.58748e-05 -0.000745252
0.00995945 0.000251976 9.00696e-06
0.000251976 0.00624351 3.04329e-06
9.00696e-06 3.04329e-06 0.00626202
0.00978694 0.000104033 0.000407474
0.000104033 0.00613245 4.15463e-05
0.000407474 4.15463e-05 0.00615247
0.00246469 0.000204756 1.28295e-06
0.000204756 -7.05287e-05 -1.75439e-07
1.28295e-06 -1.75439e-07 2.90932e-05
0.00251816 0.000335514 4.90285e-07
0.000335514 -0.000176163 5.12401e-07
4.90285e-07 5.12401e-07 -3.54534e-05
0.00271807 0.000439158 -1.08328e-06
0.000439158 -0.000331964 -1.43561e-06
-1.08328e-06 -1.43561e-06 -5.83711e-05
0.00260193 0.000563967 1.37694e-06
0.000563967 -8.32035e-05 -5.06213e-07
1.37694e-06 -5.06213e-07 -1.2874e-05
0.00231375 5.21519e-05 -3.993e-07
5.21519e-05 -5.97057e-05 2.22689e-08
-3.993e-07 2.22689e-08 -5.21975e-06
0.00248335 9.98718e-05 1.58121e-07
9.98718e-05 -0.000122033 -3.83282e-08
1.58121e-07 -3.83282e-08 8.55766e-06
0.00260937 0.000120846 -6.22098e-07
0.000120846 -0.000168133 -5.52189e-08
-6.22098e-07 -5.52189e-08 2.09312e-05
0.00247373 -1.09876e-06 -2.41706e-06
-1.09876e-06 -0.000117022 -2.01609e-08
-2.41706e-06 -2.01609e-08 2.16051e-05
0.00237305 -2.64348e-05 -7.45925e-07
-2.64348e-05 -7.5619e-05 -1.62785e-07
-7.45925e-07 -1.62785e-07 1.33879e-05
0.00229103 -5.80024e-05 -4.0958e-06
-5.80024e-05 -7.54552e-07 1.70894e-07
-4.0958e-06 1.70894e-07 2.87518e-05
0.00240319 -0.000154521 -8.0492e-07
-0.000154521 -9.62957e-05 3.59565e-07
-8.0492e-07 3.59565e-07 -6.49716e-06
0.00228276 -0.000165068 -1.53314e-06
-0.000165068 -2.93803e-05 2.67187e-07
-1.53314e-06 2.67187e-07 -2.87632e-06
0.00238967 -0.000190297 -3.06264e-06
-0.000190297 5.19181e-05 6.81417e-07
-3.06264e-06 6.81417e-07 2.01697e-05
0.00228808 -0.00026451 4.12357e-06
-0.00026451 -3.30899e-05 -9.40179e-07
4.12357e-06 -9.40179e-07 -2.19267e-05
0.00246241 -0.000285342 5.17855e-07
-0.000285342 0.000132892 -1.54613e-07
5.17855e-07 -1.54613e-07 7.32059e-05
0.0016795 -0.000189988 -6.41483e-06
-0.000189988 -7.07422e-06 1.01997e-06
-6.41483e-06 1.01997e-06 -0.00014205
0.00243212 -0.000385935 3.97169e-06
-0.000385935 0.000144861 -9.1941e-07
3.97169e-06 -9.1941e-07 5.06154e-05
0.00168099 -0.00025691 -1.55058e-07
-0.00025691 -1.80497e-05 1.04466e-08
-1.55058e-07 1.04466e-08 -0.00017601
0.000269705 -0.000126943 -1.52526e-05
-0.000126943 -0.000340223 6.8619e-06
-1.52526e-05 6.8619e-06 -0.000465147
0.00175728 -0.00033832 6.56016e-06
-0.00033832 2.68609e-05 -1.42983e-06
6.56016e-06 -1.42983e-06 -0.000165098
0.00162773 -0.000177288 7.9668e-05
-0.000177288 0.000550784 -7.23274e-06
7.9668e-05 -7.23274e-06 0.000435774
0.00745327 -0.000207939 -0.000418754
-0.000207939 0.00463464 3.71563e-05
-0.000418754 3.71563e-05 0.00466891
0.00315445 -0.000247289 0.000180891
-0.000247289 0.0015476 -2.41352e-05
0.000180891 -2.41352e-05 0.00144168
0.00245318 -0.000106646 -0.000106234
-0.000106646 0.00129721 1.08139e-05
-0.000106234 1.08139e-05 0.00125827
0.00213547 -0.00012881 0.000104552
-0.00012881 0.001106 -1.80515e-05
0.000104552 -1.80515e-05 0.00103294
0.00239762 0.000241712 8.11825e-07
0.000241712 -1.71575e-05 -7.46139e-07
8.11825e-07 -7.46139e-07 2.35976e-05
0.00229404 0.00036811 -2.29386e-06
0.00036811 2.14919e-06 -6.16055e-07
-2.29386e-06 -6.16055e-07 -2.87245e-05
0.0024533 0.000345781 -2.8601e-07
0.000345781 -2.22661e-05 -1.95482e-08
-2.8601e-07 -1.95482e-08 1.20547e-05
0.00232046 0.000480963 -1.99143e-07
0.000480963 0.000107106 2.4685e-07
-1.99143e-07 2.4685e-07 -3.59695e-05
0.00236749 0.000489028 -1.45409e-08
0.000489028 8.49117e-05 -2.08509e-07
-1.45409e-08 -2.08509e-07 2.73581e-06
0.00251939 0.000559859 1.89247e-07
0.000559859 3.49647e-06 1.03847e-08
1.89247e-07 1.03847e-08 3.3872e-07
0.00177765 0.000437797 -5.46986e-06
0.000437797 7.22564e-05 -2.39579e-07
-5.46986e-06 -2.39579e-07 -0.000154689
0.00234721 0.000600456 -1.81458e-06
0.000600456 0.000154633 -9.49478e-07
-1.81458e-06 -9.49478e-07 -4.83928e-05
0.00246638 0.000615862 2.56609e-06
0.000615862 0.000191514 5.6858e-07
2.56609e-06 5.6858e-07 4.88277e-05
0.000380399 0.000220794 -1.72429e-05
0.000220794 -0.000283789 -1.21161e-05
-1.72429e-05 -1.21161e-05 -0.000463255
0.00169368 0.000491919 5.30212e-07
0.000491919 4.89743e-05 3.23656e-07
5.30212e-07 3.23656e-07 -0.000226317
0.00230346 0.000715411 -3.673e-06
0.000715411 0.00016474 -7.39881e-06
-3.673e-06 -7.39881e-06 -9.15804e-05
0.0085167 0.000374543 -0.000422985
0.000374543 0.00533236 -6.50473e-05
-0.000422985 -6.50473e-05 0.00533264
0.000371811 0.000296499 2.58552e-07
0.000296499 -0.00029437 9.35089e-07
2.58552e-07 9.35089e-07 -0.000512735
0.00172013 0.000562729 2.06531e-05
0.000562729 0.000109158 1.36994e-06
2.06531e-05 1.36994e-06 -0.00023247
0.000219674 0.000343355 2.25072e-05
0.000343355 -0.000369971 2.18722e-05
2.25072e-05 2.18722e-05 -0.000622954
0.00931364 0.000342031 1.04748e-05
0.000342031 0.00584034 4.1835e-06
1.04748e-05 4.1835e-06 0.00584765
0.0101759 0.000225183 0.000472571
0.000225183 0.00636481 5.24631e-05
0.000472571 5.24631e-05 0.00639223
0.00230399 0.000131763 -1.14366e-06
0.000131763 -4.53015e-05 1.07967e-08
-1.14366e-06 1.07967e-08 -8.54394e-06
0.00245519 0.000198753 -1.1905e-07
0.000198753 -8.00364e-05 4.7912e-08
-1.1905e-07 4.7912e-08 1.62681e-05
0.00248569 0.000341755 -1.86551e-07
0.000341755 -0.000206103 -1.66747e-07
-1.86551e-07 -1.66747e-07 -6.42316e-05
0.00228535 3.03704e-05 -6.27925e-06
3.03704e-05 3.43837e-05 -2.53387e-07
-6.27925e-06 -2.53387e-07 4.64513e-05
0.00230901 6.10922e-05 8.39489e-07
6.10922e-05 -6.73285e-05 3.37376e-08
8.39489e-07 3.37376e-08 -7.26277e-06
0.00248327 8.59247e-05 -1.17909e-06
8.59247e-05 -0.000127181 -5.77511e-08
-1.17909e-06 -5.77511e-08 7.34574e-06
0.00238493 -2.01859e-05 -5.85932e-07
-2.01859e-05 -7.3309e-05 1.50578e-07
-5.85932e-07 1.50578e-07 1.98464e-05
0.00229534 -5.82297e-05 -1.60933e-07
-5.82297e-05 6.04539e-07 2.55173e-09
-1.60933e-07 2.55173e-09 3.17363e-05
0.00212923 -8.639e-05 -3.29612e-06
-8.639e-05 -0.000121565 3.29745e-07
-3.29612e-06 3.29745e-07 -0.000163781
0.00233089 -0.000166488 3.71306e-06
-0.000166488 1.61852e-05 -3.89148e-07
3.71306e-06 -3.89148e-07 3.38469e-05
0.0023531 -0.000192737 3.30816e-07
-0.000192737 3.74133e-05 1.69133e-08
3.30816e-07 1.69133e-08 -6.82267e-06
0.00180629 -0.000126062 -6.68075e-06
-0.000126062 8.07058e-05 6.91397e-07
-6.68075e-06 6.91397e-07 -2.4331e-05
0.00244634 -0.000284366 4.26524e-06
-0.000284366 0.000126661 -1.22643e-06
4.26524e-06 -1.22643e-06 6.64889e-05
0.00164948 -0.000186664 8.50736e-08
-0.000186664 -4.45324e-05 -2.17626e-08
8.50736e-08 -2.17626e-08 -0.000178488
0.00021339 -5.30403e-05 -1.34254e-05
-5.30403e-05 -0.000364117 3.94192e-06
-1.34254e-05 3.94192e-06 -0.000473481
0.00166876 -0.000255592 5.83857e-06
-0.000255592 -4.53631e-05 -1.31577e-06
5.83857e-06 -1.31577e-06 -0.000202309
0.00027898 -0.000111012 -3.08189e-07
-0.000111012 -0.000327458 4.43754e-07
-3.08189e-07 4.43754e-07 -0.000450632
0.00730982 -0.0001012 -0.000404999
-0.0001012 0.00453047 2.43663e-05
-0.000404999 2.43663e-05 0.00457264
0.000439695 -0.000133458 1.23447e-05
-0.000133458 -0.00023763 -8.91287e-06
1.23447e-05 -8.91287e-06 -0.000375066
0.00482419 -0.000139082 0.000168974
-0.000139082 0.00288998 -1.12697e-05
0.000168974 -1.12697e-05 0.00287539
0.00200328 -0.000109788 0.000106086
-0.000109788 0.0010246 -1.60403e-05
0.000106086 -1.60403e-05 0.000957212
0.00238848 0.000202738 -3.66899e-06
0.000202738 5.15781e-05 -5.2553e-07
-3.66899e-06 -5.2553e-07 7.5933e-05
0.00224525 0.000261024 -5.36989e-06
0.000261024 3.87435e-06 -7.13572e-07
-5.36989e-06 -7.13572e-07 -1.68785e-05
0.00238131 0.000230909 -7.58854e-07
0.000230909 -2.23818e-05 -3.08214e-07
-7.58854e-07 -3.08214e-07 1.94201e-05
0.00240712 0.000390487 -1.03748e-06
0.000390487 0.000154374 -2.80416e-07
-1.03748e-06 -2.80416e-07 4.51715e-05
0.00230613 0.000364112 -6.57133e-08
0.000364112 1.2933e-05 -2.10374e-07
-6.57133e-08 -2.10374e-07 -1.94623e-05
0.00246902 0.000336082 -1.14526e-07
0.000336082 5.3318e-06 1.35857e-07
-1.14526e-07 1.35857e-07 3.12381e-05
0.00175787 0.000351531 -3.09437e-06
0.000351531 5.14533e-05 -5.85542e-07
-3.09437e-06 -5.85542e-07 -0.000133367
0.00232858 0.000481666 9.13229e-07
0.000481666 0.000123294 7.88863e-08
9.13229e-07 7.88863e-08 -3.00982e-05
0.00238909 0.000492719 3.41053e-06
0.000492719 0.000103482 7.46817e-07
3.41053e-06 7.46817e-07 2.42377e-05
0.000333087 0.000164942 -1.49668e-05
0.000164942 -0.00030725 -8.63899e-06
-1.49668e-05 -8.63899e-06 -0.000461727
0.00175318 0.000428297 2.18742e-06
0.000428297 6.26933e-05 1.28299e-06
2.18742e-06 1.28299e-06 -0.000159673
0.00233669 0.000595262 -2.93952e-06
0.000595262 0.000151754 -2.54044e-06
-2.93952e-06 -2.54044e-06 -5.52139e-05
0.00800577 0.000380487 -0.00042439
0.000380487 0.0050161 -5.94803e-05
-0.00042439 -5.94803e-05 0.00501732
0.000373631 0.00022714 4.75543e-07
0.00022714 -0.00029485 4.88385e-07
4.75543e-07 4.88385e-07 -0.000478266
0.00163512 0.00048656 1.1889e-05
0.00048656 1.60379e-05 7.86477e-07
1.1889e-05 7.86477e-07 -0.000250787
0.00869401 0.000402373 1.1447e-05
0.000402373 0.00545945 6.36695e-06
1.1447e-05 6.36695e-06 0.0054569
0.000324469 0.000295999 1.86344e-05
0.000295999 -0.000333369 1.77749e-05
1.86344e-05 1.77749e-05 -0.000555269
0.00946741 0.000328453 0.000474603
0.000328453 0.00592344 6.27028e-05
0.000474603 6.27028e-05 0.00594296
0.00226646 0.000104873 -6.23734e-06
0.000104873 2.72729e-05 -1.20201e-07
-6.23734e-06 -1.20201e-07 2.80735e-05
0.00229727 0.000139779 -6.99922e-07
0.000139779 -4.24413e-05 -3.10192e-07
-6.99922e-07 -3.10192e-07 -5.28646e-06
0.00244461 0.000193085 -8.21459e-07
0.000193085 -9.01168e-05 1.93909e-07
-8.21459e-07 1.93909e-07 2.79041e-06
0.00212963 4.79067e-06 -2.2702e-06
4.79067e-06 -0.000115606 -1.5123e-08
-2.2702e-06 -1.5123e-08 -0.000158056
0.00228638 3.38745e-05 -1.33159e-07
3.38745e-05 2.87962e-05 1.681e-08
-1.33159e-07 1.681e-08 4.57491e-05
0.00230396 7.04201e-05 3.50352e-07
7.04201e-05 -7.5151e-05 2.92126e-07
3.50352e-07 2.92126e-07 -9.52108e-06
0.00229886 -5.85769e-05 3.62145e-06
-5.85769e-05 1.59893e-06 -1.11184e-07
3.62145e-06 -1.11184e-07 3.41963e-05
0.00218377 -8.5198e-05 -1.67738e-06
-8.5198e-05 -7.60949e-05 1.58313e-07
-1.67738e-06 1.58313e-07 -0.000116016
0.00166512 -5.38704e-05 -4.84944e-06
-5.38704e-05 -4.5341e-06 3.922e-07
-4.84944e-06 3.922e-07 -0.000102347
0.00232969 -0.000195325 2.67932e-06
-0.000195325 3.31141e-05 -1.00158e-06
2.67932e-06 -1.00158e-06 -2.34143e-05
0.0017356 -0.00012778 3.05798e-06
-0.00012778 2.19704e-05 -2.03847e-07
3.05798e-06 -2.03847e-07 -9.03536e-05
0.000175336 -2.55391e-05 -1.33762e-05
-2.55391e-05 -0.000372505 2.54935e-06
-1.33762e-05 2.54935e-06 -0.000473884
0.00161496 -0.000185146 6.61255e-06
-0.000185146 -8.20223e-05 -1.39227e-06
6.61255e-06 -1.39227e-06 -0.000215309
0.000206272 -6.04151e-05 3.99281e-07
-6.04151e-05 -0.000362038 -3.84923e-07
3.99281e-07 -3.84923e-07 -0.00047034
0.00707735 -0.000184502 -0.000402398
-0.000184502 0.00439867 2.59733e-05
-0.000402398 2.59733e-05 0.00443295
0.000268373 -9.50724e-05 1.32091e-05
-9.50724e-05 -0.000328216 -5.40235e-06
1.32091e-05 -5.40235e-06 -0.00044893
0.00722971 -0.000134609 6.15696e-06
-0.000134609 0.00448404 3.88244e-07
6.15696e-06 3.88244e-07 0.00452427
0.00226283 -6.15968e-05 0.000305988
-6.15968e-05 0.00116356 -2.51891e-05
0.000305988 -2.51891e-05 0.00115867
0.00229071 0.000187009 -7.87509e-06
0.000187009 6.15129e-05 -7.21743e-07
-7.87509e-06 -7.21743e-07 4.8729e-05
0.00229993 0.000204113 -6.99862e-07
0.000204113 -2.29821e-05 -5.97943e-08
-6.99862e-07 -5.97943e-08 1.08393e-05
0.0024257 0.00029187 -1.5174e-07
0.00029187 0.000141928 -1.77998e-08
-1.5174e-07 -1.77998e-08 6.42414e-05
0.00225358 0.000261688 5.72232e-07
0.000261688 6.30999e-06 2.44586e-08
5.72232e-07 2.44586e-08 -1.50924e-05
0.00236547 0.000219929 -2.91627e-07
0.000219929 -2.75593e-05 -9.17902e-08
-2.91627e-07 -9.17902e-08 1.54735e-05
0.00164287 0.000263607 -2.12563e-06
0.000263607 -2.6573e-05 -7.71039e-07
-2.12563e-06 -7.71039e-07 -0.000196175
0.00241968 0.000391565 3.76466e-07
0.000391565 0.000157213 -8.04373e-09
3.76466e-07 -8.04373e-09 4.81492e-05
0.00231796 0.000359938 3.45453e-06
0.000359938 2.2596e-05 1.11898e-06
3.45453e-06 1.11898e-06 -1.11545e-05
0.000317098 0.000124169 -1.39544e-05
0.000124169 -0.000304237 -6.3103e-06
-1.39544e-05 -6.3103e-06 -0.000441205
0.00171219 0.000344658 3.14689e-06
0.000344658 3.32923e-05 1.10728e-06
3.14689e-06 1.10728e-06 -0.000157789
0.002339 0.0004828 1.80312e-07
0.0004828 0.000141112 -1.3364e-07
1.80312e-07 -1.3364e-07 -2.3484e-05
0.00762554 0.000351595 -0.000428433
0.000351595 0.00478047 -5.23909e-05
-0.000428433 -5.23909e-05 0.00478662
0.000359038 0.000174117 3.97614e-07
0.000174117 -0.000293804 2.1464e-07
3.97614e-07 2.1464e-07 -0.000452056
0.00173483 0.000418788 8.56881e-06
0.000418788 5.74042e-05 2.22211e-06
8.56881e-06 2.22211e-06 -0.000160258
0.00817217 0.000411183 8.57337e-06
0.000411183 0.00513583 6.26428e-06
8.57337e-06 6.26428e-06 0.00513158
0.000365801 0.000232299 1.60592e-05
0.000232299 -0.000306137 1.27964e-05
1.60592e-05 1.27964e-05 -0.000493488
0.00887192 0.000422144 0.000466029
0.000422144 0.00557346 7.13396e-05
0.000466029 7.13396e-05 0.00557382
0.00208785 0.000101256 -4.50959e-07
0.000101256 -0.000125506 -3.24173e-07
-4.50959e-07 -3.24173e-07 -0.00017917
0.00228964 0.000105262 -1.85444e-06
0.000105262 4.88221e-05 -7.39465e-08
-1.85444e-06 -7.39465e-08 4.82095e-05
0.0022913 0.00014778 1.97397e-06
0.00014778 -3.87297e-05 1.00774e-07
1.97397e-06 1.00774e-07 -1.27091e-06
0.00165729 -2.94041e-06 -3.41253e-06
-2.94041e-06 1.88489e-06 2.40253e-07
-3.41253e-06 2.40253e-07 -9.58531e-05
0.00216644 5.50208e-06 -1.72949e-06
5.50208e-06 -8.05552e-05 4.34384e-08
-1.72949e-06 4.34384e-08 -0.000122336
0.00228659 3.69309e-05 4.65201e-06
3.69309e-05 2.28679e-05 3.0039e-07
4.65201e-06 3.0039e-07 4.46513e-05
0.00224025 -8.44829e-05 -7.62819e-07
-8.44829e-05 -2.8941e-05 -6.87162e-09
-7.62819e-07 -6.87162e-09 -6.66442e-05
0.0017647 -5.79561e-05 2.44895e-06
-5.79561e-05 5.97128e-05 -5.81755e-08
2.44895e-06 -5.81755e-08 -3.71312e-05
0.000194236 -3.41975e-05 -1.41278e-05
-3.41975e-05 -0.000351086 1.76098e-06
-1.41278e-05 1.76098e-06 -0.00044693
0.00165551 -0.000128534 9.5934e-06
-0.000128534 -4.5895e-05 -1.51402e-06
9.5934e-06 -1.51402e-06 -0.000165544
0.000184127 -1.43877e-05 3.01542e-08
-1.43877e-05 -0.00036612 6.55647e-08
3.01542e-08 6.55647e-08 -0.000465657
0.00697019 -0.000147357 -0.000401784
-0.000147357 0.00432532 1.98636e-05
-0.000401784 1.98636e-05 0.00436472
0.000239333 -6.50451e-05 1.3873e-05
-6.50451e-05 -0.000332396 -3.93782e-06
1.3873e-05 -3.93782e-06 -0.000440615
0.00707499 -8.70281e-05 -2.72092e-06
-8.70281e-05 0.00438166 4.00297e-06
-2.72092e-06 4.00297e-06 0.00442572
0.00720408 -0.000147635 0.000402347
-0.000147635 0.00447054 -2.40402e-05
0.000402347 -2.40402e-05 0.00451029
0.00239015 0.000193212 5.13547e-07
0.000193212 0.0001151 -3.9721e-07
5.13547e-07 -3.9721e-07 5.57835e-05
0.00223609 0.000188818 -3.90365e-07
0.000188818 9.8052e-06 9.12249e-08
-3.90365e-07 9.12249e-08 1.49258e-06
0.00220977 0.000205572 1.67257e-06
0.000205572 -9.92589e-05 3.8074e-07
1.67257e-06 3.8074e-07 -5.60567e-05
0.0015998 0.000184575 -1.05628e-06
0.000184575 -5.19617e-05 -3.42919e-07
-1.05628e-06 -3.42919e-07 -0.000198414
0.00243666 0.000290246 2.97398e-07
0.000290246 0.000146565 -4.71465e-08
2.97398e-07 -4.71465e-08 6.94332e-05
0.0022631 0.000262578 4.86603e-06
0.000262578 9.77277e-06 5.15964e-07
4.86603e-06 5.15964e-07 -1.24573e-05
0.00027147 8.64134e-05 -1.27488e-05
8.64134e-05 -0.000318873 -4.54732e-06
-1.27488e-05 -4.54732e-06 -0.000441211
0.00167935 0.000264314 -5.22916e-08
0.000264314 1.62374e-05 2.12675e-07
-5.22916e-08 2.12675e-07 -0.000154223
0.00243623 0.000392665 1.0896e-06
0.000392665 0.000163384 1.45955e-07
1.0896e-06 1.45955e-07 5.44463e-05
0.00733705 0.000285073 -0.000429285
0.000285073 0.00458753 -4.21326e-05
-0.000429285 -4.21326e-05 0.00460715
0.000329397 0.000133537 3.30498e-07
0.000133537 -0.000299092 1.76925e-07
3.30498e-07 1.76925e-07 -0.000439353
0.00165915 0.000336827 5.91608e-06
0.000336827 1.06399e-05 2.22591e-06
5.91608e-06 2.22591e-06 -0.000186116
0.00774746 0.000372434 5.09405e-06
0.000372434 0.00486432 3.90531e-06
5.09405e-06 3.90531e-06 0.00486814
0.000383977 0.000184599 1.52444e-05
0.000184599 -0.000279711 9.61188e-06
1.52444e-05 9.61188e-06 -0.000442376
0.00837673 0.000457225 0.000463936
0.000457225 0.00528458 7.40235e-05
0.000463936 7.40235e-05 0.00527409
0.00150816 5.58126e-05 -3.84956e-06
5.58126e-05 -9.51612e-05 2.27238e-07
-3.84956e-06 2.27238e-07 -0.000215483
0.00221791 9.90914e-05 -3.17764e-06
9.90914e-05 -3.03894e-05 -2.45742e-07
-3.17764e-06 -2.45742e-07 -7.44388e-05
0.00231492 0.000105916 5.4765e-06
0.000105916 7.13892e-05 4.8762e-07
5.4765e-06 4.8762e-07 6.94767e-05
0.00022486 3.19513e-05 -1.48471e-05
3.19513e-05 -0.000331174 -3.03109e-07
-1.48471e-05 -3.03109e-07 -0.000419596
0.00173864 -1.18279e-06 2.69862e-06
-1.18279e-06 5.44778e-05 7.95609e-08
2.69862e-06 7.95609e-08 -4.23569e-05
0.00220862 8.11104e-06 -1.72581e-06
8.11104e-06 -4.1888e-05 -2.85171e-08
-1.72581e-06 -2.85171e-08 -8.28622e-05
0.00185575 -6.13538e-05 1.10002e-05
-6.13538e-05 0.00011837 -9.83654e-07
1.10002e-05 -9.83654e-07 2.2506e-05
0.000187096 -9.65989e-06 2.69494e-07
-9.65989e-06 -0.00035432 3.70523e-07
2.69494e-07 3.70523e-07 -0.000449934
0.00684671 -7.03331e-06 -0.00040236
-7.03331e-06 0.00423329 5.17633e-06
-0.00040236 5.17633e-06 0.00428245
0.000179753 -2.79579e-06 1.37008e-05
-2.79579e-06 -0.000368441 -1.60414e-06
1.37008e-05 -1.60414e-06 -0.000466073
0.00691694 -0.000143806 -6.93174e-06
-0.000143806 0.00429268 2.45225e-06
-6.93174e-06 2.45225e-06 0.0043315
0.00700904 -7.09715e-05 0.000388416
-7.09715e-05 0.00433815 -1.46063e-05
0.000388416 -1.46063e-05 0.00438264
0.00158224 0.000116288 -2.61588e-06
0.000116288 -4.38091e-05 -2.33158e-07
-2.61588e-06 -2.33158e-07 -0.000174353
0.00235225 0.000188672 -2.34456e-07
0.000188672 8.20122e-05 -2.42303e-07
-2.34456e-07 -2.42303e-07 2.62025e-05
0.00218128 0.000190527 3.74061e-06
0.000190527 -4.14219e-05 -1.15513e-08
3.74061e-06 -1.15513e-08 -4.52218e-05
0.00271541 9.79157e-05 -0.000172622
9.79157e-05 0.00131679 -8.12503e-06
-0.000172622 -8.12503e-06 0.00125656
0.00163696 0.000186095 -1.95422e-08
0.000186095 -1.20308e-05 7.53127e-08
-1.95422e-08 7.53127e-08 -0.000159358
0.00244373 0.000288165 9.63923e-07
0.000288165 0.000149389 1.14394e-08
9.63923e-07 1.14394e-08 7.28948e-05
0.00715293 0.000215409 -0.000425319
0.000215409 0.00445747 -3.12251e-05
-0.000425319 -3.12251e-05 0.00448978
0.000297274 0.00010651 4.38063e-07
0.00010651 -0.000303445 4.79236e-07
4.38063e-07 4.79236e-07 -0.000429252
0.00171761 0.000264518 1.98231e-06
0.000264518 6.02571e-05 9.41254e-07
1.98231e-06 9.41254e-07 -0.000111043
0.00744743 0.000302648 2.79701e-06
0.000302648 0.00466055 2.20873e-06
2.79701e-06 2.20873e-06 0.00467815
0.000354242 0.000145168 1.45944e-05
0.000145168 -0.000285032 7.42847e-06
1.45944e-05 7.42847e-06 -0.000429226
0.00786145 0.000406843 0.000449787
0.000406843 0.00495132 6.56426e-05
0.000449787 6.56426e-05 0.0049493
0.000340263 2.20658e-05 -1.18105e-05
2.20658e-05 -0.000245156 -1.34384e-06
-1.18105e-05 -1.34384e-06 -0.000342997
0.00163102 5.64916e-05 -9.90361e-07
5.64916e-05 -7.16367e-06 -1.16758e-08
-9.90361e-07 -1.16758e-08 -0.000119067
0.00232417 9.57173e-05 -1.5648e-06
9.57173e-05 4.62746e-05 1.63469e-07
-1.5648e-06 1.63469e-07 1.16245e-05
0.00672525 -9.7983e-05 -0.000386236
-9.7983e-05 0.00416976 6.95637e-06
-0.000386236 6.95637e-06 0.0042092
0.000185563 1.42905e-05 -6.1688e-07
1.42905e-05 -0.000353604 -3.1942e-07
-6.1688e-07 -3.1942e-07 -0.000444431
0.00182382 -1.01943e-06 9.85024e-06
-1.01943e-06 0.000108965 -5.65297e-07
9.85024e-06 -5.65297e-07 1.30195e-05
0.000166443 1.45197e-05 1.4001e-05
1.45197e-05 -0.000368575 -3.77545e-07
1.4001e-05 -3.77545e-07 -0.00046284
0.00679435 -3.80877e-05 1.419e-06
-3.80877e-05 0.00420637 -2.17825e-06
1.419e-06 -2.17825e-06 0.00424979
0.00688205 -7.45861e-05 0.0003902
-7.45861e-05 0.00425633 -1.08612e-05
0.0003902 -1.08612e-05 0.00430154
0.00283992 4.3534e-05 -0.000167788
4.3534e-05 0.00140401 -4.28245e-06
-0.000167788 -4.28245e-06 0.00135261
0.00159547 0.000119089 -2.24128e-07
0.000119089 -2.94995e-05 3.23689e-08
-2.24128e-07 3.23689e-08 -0.000160822
0.00231412 0.000184235 4.42827e-07
0.000184235 4.78363e-05 -3.15577e-07
4.42827e-07 -3.15577e-07 -4.56008e-06
0.00670501 2.5583e-05 -0.000191105
2.5583e-05 0.00416991 -3.25419e-06
-0.000191105 -3.25419e-06 0.00416212
0.000250352 8.2969e-05 3.90195e-07
8.2969e-05 -0.000321778 2.06936e-07
3.90195e-07 2.06936e-07 -0.000434059
0.00167695 0.000188792 1.61323e-06
0.000188792 2.75722e-05 2.90527e-07
1.61323e-06 2.90527e-07 -0.000120774
0.00720496 0.000193737 -6.1601e-06
0.000193737 0.00448343 -1.56096e-06
-6.1601e-06 -1.56096e-06 0.0045173
0.000321312 0.000127295 1.55774e-05
0.000127295 -0.000290242 6.32566e-06
1.55774e-05 6.32566e-06 -0.00041887
0.00751761 0.000322917 0.000441891
0.000322917 0.00471019 5.28565e-05
0.000441891 5.28565e-05 0.00472645
0.00215374 -4.42894e-05 -0.000296075
-4.42894e-05 0.00109266 1.74001e-06
-0.000296075 1.74001e-06 0.00110382
0.0014589 4.43167e-05 -7.58774e-05
4.43167e-05 0.00048985 -6.02667e-07
-7.58774e-05 -6.02667e-07 0.0004207
0.0017687 5.98082e-05 5.87878e-06
5.98082e-05 9.31288e-05 -1.56475e-07
5.87878e-06 -1.56475e-07 -1.02204e-05
0.00677153 -4.52011e-05 6.25595e-06
-4.52011e-05 0.00419419 3.82831e-06
6.25595e-06 3.82831e-06 0.00423951
0.000181034 -1.57515e-06 1.46787e-05
-1.57515e-06 -0.000350448 9.47813e-08
1.46787e-05 9.47813e-08 -0.000444695
0.0067991 -9.4045e-05 0.000401855
-9.4045e-05 0.00421512 -8.4209e-06
0.000401855 -8.4209e-06 0.00425821
0.00170105 3.64074e-05 -8.84435e-05
3.64074e-05 0.000831512 -2.62762e-06
-8.84435e-05 -2.62762e-06 0.000783897
0.00147074 4.36654e-05 -7.62697e-05
4.36654e-05 0.000492467 -2.72171e-06
-7.62697e-05 -2.72171e-06 0.000416257
0.00161106 0.000120043 2.86753e-06
0.000120043 -1.20769e-05 7.39102e-08
2.86753e-06 7.39102e-08 -0.000144053
0.00440933 0.000101233 0.000151913
0.000101233 0.00262361 6.53123e-06
0.000151913 6.53123e-06 0.00261959
0.000226928 9.40321e-05 1.54006e-05
9.40321e-05 -0.000341097 4.79935e-06
1.54006e-05 4.79935e-06 -0.000454102
0.00725127 0.00018234 0.000419109
0.00018234 0.0045045 3.34501e-05
0.000419109 3.34501e-05 0.00454206
0.00676472 -9.3814e-07 -7.53373e-06
-9.3814e-07 0.00419556 -4.28035e-06
-7.53373e-06 -4.28035e-06 0.00423826
0.000201754 5.90444e-05 1.67492e-05
5.90444e-05 -0.00034948 2.2588e-06
1.67492e-05 2.2588e-06 -0.000439578
0.00670825 3.55356e-05 0.000392392
3.55356e-05 0.00414885 1.0856e-06
0.000392392 1.0856e-06 0.00419689
0.00431759 6.09838e-05 0.000161031
6.09838e-05 0.00256269 8.12705e-06
0.000161031 8.12705e-06 0.0025638
0.000229583 3.16627e-05 1.48958e-05
3.16627e-05 -0.000333332 2.39897e-06
1.48958e-05 2.39897e-06 -0.000434107
0.0070226 5.39041e-05 0.000403536
5.39041e-05 0.00434801 1.74386e-05
0.000403536 1.74386e-05 0.00439251
0.00676625 -8.68884e-05 0.000391228
-8.68884e-05 0.0041969 -3.00539e-06
0.000391228 -3.00539e-06 0.0042372
0.00680624 5.07614e-05 0.000395156
5.07614e-05 0.0042062 1.1594e-05
0.000395156 1.1594e-05 0.00425397
