# vtk DataFile Version 2.0
Wound Healing Simulation
ASCII
DATASET UNSTRUCTURED_GRID
POINTS 3012 float
69.9759 18.75 4
67.2507 60.3285 4
69.976 18.75 2
73.0099 25.446 4
71.1327 20.9142 4
68.6801 16.6661 4
67.8253 19.9261 3.98206
67.2507 60.3286 2
71.1327 54.0858 4
68.6801 58.3339 4
65.6939 62.2254 4
65.3117 59.0009 3.98091
74.6784 42.3946 4
73.7221 47.2057 4
69.9759 18.75 0
73.0099 25.446 2
68.6801 16.6661 2
71.1327 20.9142 2
67.8258 19.9292 2
74.6792 32.6053 4
73.7222 27.7943 4
72.1454 23.1494 4
70.6139 26.2209 3.98147
68.8855 21.958 3.9824
67.2507 14.6715 4
66.6366 17.9722 3.98103
65.7957 21.0261 3.97208
67.2507 60.3285 0
71.1327 54.0858 2
68.6801 58.3339 2
65.694 62.2255 2
65.3129 58.9973 2
72.1454 51.8506 4
69.9759 56.25 4
68.8361 53.1129 3.9814
64.0165 64.0165 4
66.6104 57.1335 3.98152
63.8852 60.7656 3.98235
63.4986 57.769 3.9724
60.3285 67.2507 4
74.6792 42.3947 2
73.7222 47.2057 2
74.9194 39.9526 4
74.2788 44.8158 4
72.168 42.0855 3.98066
73.0099 49.554 4
71.249 46.598 3.98054
73.0099 25.446 0
71.1327 20.9142 0
68.6801 16.6661 0
67.8253 19.9261 0.0179431
74.6792 32.6053 2
73.7222 27.7943 2
67.2508 14.6715 2
72.1455 23.1494 2
70.6139 26.2213 2
66.6375 17.976 2
68.8857 21.96 2
65.7951 21.0268 2
74.9197 35.0474 4
74.2794 30.1841 4
72.1847 32.9432 3.98108
71.2779 28.4313 3.9809
69.8153 24.0595 3.98213
68.3455 26.9518 3.97071
66.7612 22.9338 3.97145
65.694 12.7746 4
65.323 16.104 3.98073
64.7119 19.1967 3.97283
63.8832 22.0385 3.96806
71.1327 54.0858 0
65.6939 62.2254 0
68.6801 58.3339 0
65.3117 59.0009 0.0190883
72.1455 51.8506 2
69.9759 56.25 2
68.8363 53.111 2
64.0165 64.0165 2
66.6112 57.1301 2
63.8868 60.7626 2
63.498 57.769 2
62.2254 65.694 4
58.8945 65.4141 3.99056
69.7686 50.9888 3.98122
67.7834 55.1671 3.98145
66.648 52.2082 3.97043
62.3358 62.4274 3.98598
64.6593 56.03 3.97255
62.2008 59.4007 3.97245
61.8182 56.6752 3.9687
58.3339 68.6801 4
60.3285 67.2508 2
73.7221 47.2057 0
74.6784 42.3946 0
74.9197 39.9526 2
74.2794 44.8159 2
72.1676 42.0855 2
73.0099 49.554 2
71.2489 46.5978 2
75 37.5 4
72.4053 39.8021 3.98118
71.7823 44.3528 3.98074
69.8029 41.7891 3.97027
70.5749 48.8134 3.98083
68.9109 46.014 3.96997
74.6792 32.6053 0
73.7222 27.7943 0
67.2507 14.6715 0
72.1454 23.1494 0
70.6139 26.2209 0.0185345
68.8855 21.958 0.0176041
66.6366 17.9722 0.0189706
65.7957 21.0261 0.027921
74.9197 35.0474 2
74.2794 30.1841 2
72.1842 32.9435 2
71.2779 28.4317 2
65.694 12.7745 2
65.3243 16.1078 2
69.8154 24.0606 2
68.3455 26.9523 2
64.7113 19.1973 2
66.7608 22.9344 2
63.8826 22.0388 2
72.4131 35.224 3.98124
71.8037 30.6762 3.98114
69.8389 33.2684 3.97072
68.9648 29.0384 3.97053
67.61 24.9124 3.97095
66.1912 27.6361 3.96776
64.0165 10.9835 4
64.753 23.8324 3.96806
63.8896 14.3277 3.98349
63.5107 17.4507 3.97231
62.9023 20.325 3.96789
62.0771 22.9513 3.96713
60.6837 11.0982 3.98707
57.6116 11.4509 3.97879
72.1454 51.8506 0
69.9759 56.25 0
68.8361 53.1129 0.0185968
64.0165 64.0165 0
63.8852 60.7656 0.0176548
66.6104 57.1335 0.0184813
63.4986 57.769 0.0275975
62.2255 65.694 2
58.8956 65.4135 2
69.7686 50.9879 2
67.7839 55.1642 2
66.6475 52.2075 2
62.3376 62.4253 2
64.6588 56.0297 2
62.2003 59.4012 2
61.8176 56.6754 2
60.6685 63.9768 3.98826
57.0256 66.7347 3.99155
57.5575 63.6901 3.98148
67.506 50.1758 3.96995
65.7004 54.1721 3.97118
64.5339 51.3822 3.96696
60.7721 60.9351 3.97691
62.8158 55.0634 3.96784
60.6531 58.1505 3.96642
60.3203 55.7747 3.96814
56.25 69.9759 4
58.3339 68.6801 2
60.3285 67.2507 0
58.921 9.65644 3.98829
62.2254 9.30607 4
73.0099 49.554 0
74.2788 44.8158 0
71.249 46.598 0.0194627
72.168 42.0855 0.0193414
74.9194 39.9526 0
75 37.5 2
72.4052 39.8023 2
71.7822 44.3525 2
69.8024 41.7888 2
70.5748 48.8132 2
68.9109 46.0135 2
72.4887 37.5119 3.98098
70.0402 39.6569 3.97044
69.4291 43.9068 3.97017
67.5938 41.4963 3.9681
68.2645 48.1063 3.96985
66.7049 45.4377 3.96745
74.9197 35.0474 0
74.2794 30.1841 0
72.1847 32.9432 0.0189227
71.2779 28.4313 0.0190979
65.694 12.7746 0
65.323 16.104 0.0192716
69.8153 24.0595 0.0178671
68.3455 26.9518 0.0292918
66.7612 22.9338 0.0285488
64.7119 19.1967 0.0271729
63.8832 22.0385 0.0319445
72.4131 35.2242 2
71.8037 30.6766 2
69.8385 33.2687 2
68.9648 29.0388 2
64.0165 10.9835 2
63.8915 14.3307 2
63.5103 17.4512 2
67.6097 24.913 2
66.1912 27.6363 2
62.9016 20.3252 2
64.7526 23.8327 2
62.0763 22.9516 2
60.6856 11.1002 2
57.6124 11.4498 2
70.0569 35.3918 3.97067
69.4659 31.1496 3.97052
67.6528 33.5913 3.96822
66.7688 29.6239 3.96774
65.5206 25.7011 3.96789
64.1146 28.2626 3.96936
62.3414 12.6554 3.98582
62.8365 24.645 3.96797
62.1972 15.789 3.97439
61.8065 18.6924 3.96678
61.2045 21.3509 3.96569
60.384 23.7431 3.96855
59.2455 12.7826 3.97741
55.8741 10.2362 3.98155
56.4039 13.1225 3.975
69.7686 50.9888 0.0187771
62.2254 65.694 0
58.8945 65.4141 0.00943949
67.7834 55.1671 0.018546
66.648 52.2082 0.0295707
62.3358 62.4274 0.0140221
62.2008 59.4007 0.027548
64.6593 56.03 0.0274481
61.8182 56.6752 0.0312955
60.67 63.9756 2
57.0263 66.7345 2
57.5576 63.6916 2
67.5058 50.1752 2
65.6998 54.1715 2
64.5334 51.382 2
60.772 60.9363 2
62.8153 55.0634 2
60.6526 58.1509 2
60.3199 55.7746 2
55.0713 67.9316 3.99204
59.2184 62.3636 3.97823
55.8046 64.909 3.98503
56.3254 62.085 3.97645
65.3278 49.4056 3.96687
63.7018 53.2887 3.96714
62.4142 50.6413 3.96699
59.3302 59.5508 3.97119
61.0689 54.2995 3.96699
59.2789 56.9961 3.96377
59.2312 55.1685 3.9663
48.1024 68.5778 3.98766
50.949 69.9313 3.99224
54.0858 71.1327 4
56.25 69.976 2
58.3339 68.6801 0
57.0585 8.33626 3.98953
60.3285 7.74928 4
58.9228 9.65768 2
62.2255 9.30602 2
70.5749 48.8134 0.0191666
71.7823 44.3528 0.01926
68.9109 46.014 0.030032
69.8029 41.7891 0.0297258
72.4053 39.8021 0.0188163
75 37.5 0
72.4883 37.5121 2
70.0402 39.6568 2
69.429 43.9065 2
67.5935 41.4961 2
68.2645 48.1057 2
66.7046 45.4375 2
70.1283 37.5212 3.97075
67.8321 39.5115 3.96829
67.2185 43.4682 3.96772
65.5123 41.205 3.97105
66.0642 47.4156 3.96719
64.6092 44.8401 3.9696
72.4131 35.224 0.0187596
71.8037 30.6762 0.0188599
69.8389 33.2684 0.0292792
68.9648 29.0384 0.0294694
64.0165 10.9835 0
63.8896 14.3277 0.0165109
63.5107 17.4507 0.0276916
67.61 24.9124 0.0290497
66.1912 27.6361 0.0322413
64.753 23.8324 0.0319374
62.9023 20.325 0.0321057
62.0771 22.9513 0.0328661
60.6837 11.0982 0.012929
57.6116 11.4509 0.0212128
70.0569 35.392 2
69.4659 31.1499 2
67.6525 33.5915 2
66.7689 29.6241 2
62.3433 12.6581 2
62.197 15.7886 2
61.8059 18.6924 2
65.5204 25.7013 2
64.1139 28.2629 2
61.2037 21.351 2
62.836 24.6453 2
60.3839 23.7436 2
59.246 12.7823 2
56.4044 13.1211 2
55.8747 10.2349 2
67.8682 35.5475 3.96838
67.2623 31.6231 3.96795
65.6646 33.9297 3.9711
64.6274 30.1981 3.96983
63.5127 26.4217 3.96881
62.1887 28.791 3.97293
60.7746 14.227 3.97721
60.9954 25.3529 3.97029
60.6067 17.1372 3.9693
60.2069 19.8282 3.96481
59.6189 22.2758 3.96596
58.9128 24.3425 3.97088
54.0374 9.13791 3.98318
57.9084 14.3404 3.97601
54.7859 12.0189 3.97627
55.3095 14.6605 3.97401
67.506 50.1758 0.0300491
57.0256 66.7347 0.00845267
60.6685 63.9768 0.0117378
57.5575 63.6901 0.0185155
65.7004 54.1721 0.0288178
64.5339 51.3822 0.0330437
60.7721 60.9351 0.0230937
60.6531 58.1505 0.0335769
62.8158 55.0634 0.0321559
60.3203 55.7747 0.0318585
55.0719 67.9316 2
59.2185 62.3649 2
55.8045 64.91 2
56.3252 62.0866 2
65.3275 49.4054 2
63.7011 53.2885 2
62.4144 50.6412 2
59.3299 59.5525 2
61.0687 54.2994 2
59.2786 56.9958 2
59.2311 55.1682 2
53.0432 68.9994 3.99213
53.967 66.0122 3.98657
57.8784 60.8643 3.97564
54.6834 63.2044 3.98058
55.2088 60.6057 3.97573
63.1586 48.6504 3.9679
61.7243 52.5651 3.96673
60.2089 49.9989 3.96881
58.0104 58.2505 3.96815
59.3108 53.9316 3.96731
58.1056 55.7931 3.96469
50.1091 67.856 3.98746
47.4631 66.5788 3.98442
46.056 69.1569 3.98779
48.1024 68.5784 2
48.8031 70.7226 3.99235
50.9494 69.9313 2
51.8506 72.1454 4
54.0858 71.1327 2
56.25 69.9759 0
55.1032 7.14066 3.99077
58.3339 6.31992 4
57.0599 8.33684 2
60.3286 7.74926 2
58.921 9.65644 0.0117128
62.2254 9.30607 0
68.2645 48.1063 0.0301473
69.4291 43.9068 0.0298274
66.7049 45.4377 0.0325504
67.5938 41.4963 0.0318985
70.0402 39.6569 0.0295569
72.4887 37.5119 0.0190168
70.128 37.5213 2
67.8321 39.5115 2
67.2188 43.468 2
65.5115 41.2048 2
66.0642 47.4153 2
64.6083 44.8398 2
67.9286 37.5216 3.9685
65.7478 39.3674 3.97136
65.1335 43.0187 3.97038
63.6647 40.9213 3.97467
63.9228 46.7068 3.96876
62.7206 44.2021 3.97346
70.0569 35.3918 0.0293305
69.4659 31.1496 0.0294826
67.6528 33.5913 0.0317782
66.7688 29.6239 0.0322596
62.3414 12.6554 0.0141833
62.1972 15.789 0.0256052
61.8065 18.6924 0.0332204
65.5206 25.7011 0.0321139
64.1146 28.2626 0.030642
62.8365 24.645 0.0320285
61.2045 21.3509 0.0343079
60.384 23.7431 0.0314491
59.2455 12.7826 0.0225895
56.4039 13.1225 0.0250035
55.8741 10.2362 0.0184464
67.8681 35.5476 2
67.2623 31.6233 2
65.664 33.9298 2
64.6268 30.1983 2
60.7745 14.227 2
60.6065 17.1363 2
60.2066 19.8282 2
63.5121 26.422 2
62.1874 28.7914 2
59.621 22.2762 2
60.9951 25.3534 2
58.9119 24.3434 2
57.9082 14.3396 2
55.3095 14.6602 2
54.0378 9.13671 2
54.7864 12.0169 2
65.8383 35.6676 3.97112
65.1469 32.1588 3.97044
64.2158 34.2532 3.97499
62.5042 30.6477 3.97363
61.5884 27.0871 3.97136
60.7502 29.1577 3.97657
59.3078 15.6765 3.97395
59.2458 25.8193 3.97398
59.1105 18.3707 3.96662
58.7119 20.872 3.96362
58.2188 23.1167 3.96632
57.8845 24.692 3.97277
52.1122 8.15519 3.98495
53.0578 11.0227 3.97891
56.6722 15.755 3.97538
53.8074 13.6932 3.97562
54.3702 16.0163 3.9755
55.0713 67.9316 0.00796327
65.3278 49.4056 0.0331339
55.8046 64.909 0.0149739
59.2184 62.3636 0.0217703
56.3254 62.085 0.0235458
63.7018 53.2887 0.0328631
62.4142 50.6413 0.0330111
59.3302 59.5508 0.0288129
59.2789 56.9961 0.0362346
61.0689 54.2995 0.0330072
59.2312 55.1685 0.0336962
53.0437 68.9995 2
53.9669 66.013 2
57.8779 60.8658 2
54.6831 63.2054 2
55.2088 60.6073 2
63.1583 48.6502 2
61.7253 52.5651 2
60.2084 49.9984 2
58.01 58.2521 2
59.312 53.9313 2
58.1047 55.7925 2
52.0704 66.999 3.98718
52.9534 64.2165 3.98298
56.6438 59.4796 3.97433
53.6797 61.617 3.97762
54.2547 59.3074 3.97456
60.907 47.8602 3.96946
59.661 52.0855 3.96786
57.9255 49.5879 3.97031
56.7625 56.9672 3.96733
57.0852 54.0998 3.96559
50.1091 67.8565 2
49.337 65.9193 3.98427
47.4631 66.5794 2
46.8925 64.7326 3.98272
45.5582 67.0958 3.98454
43.973 69.5891 3.98791
46.056 69.1575 2
46.6097 71.367 3.99234
48.1024 68.5778 0.0123428
48.8035 70.7227 2
49.554 73.0099 4
50.949 69.9313 0.00775877
51.8506 72.1455 2
54.0858 71.1327 0
53.0647 6.07207 3.99146
55.1043 7.14075 2
56.25 5.02411 4
58.3339 6.3199 2
57.0585 8.33626 0.010472
60.3285 7.74928 0
66.0642 47.4156 0.0328138
67.2185 43.4682 0.0322799
64.6092 44.8401 0.0303985
65.5123 41.205 0.028951
67.8321 39.5115 0.031706
70.1283 37.5212 0.0292533
67.9284 37.5216 2
65.7469 39.3673 2
65.1328 43.0184 2
63.6634 40.9211 2
63.922 46.7065 2
62.7189 44.2017 2
65.8515 37.5008 3.97111
63.8092 39.2615 3.9743
63.2324 42.5384 3.97393
62.3035 40.6866 3.9771
61.8811 45.9018 3.97143
61.3268 43.665 3.9771
67.8682 35.5475 0.0316154
67.2623 31.6231 0.0320457
65.6646 33.9297 0.0288958
64.6274 30.1981 0.0301694
60.7746 14.227 0.0227862
60.6067 17.1372 0.030698
60.2069 19.8282 0.0351919
63.5127 26.4217 0.0311852
62.1887 28.791 0.0270712
60.9954 25.3529 0.0297078
59.6189 22.2758 0.0340447
58.9128 24.3425 0.029121
57.9084 14.3404 0.0239873
55.3095 14.6605 0.0259918
54.0374 9.13791 0.0168224
54.7859 12.0189 0.0237313
65.8374 35.6676 2
65.1467 32.1589 2
64.2152 34.2534 2
62.5029 30.6481 2
59.3071 15.6763 2
59.1107 18.3698 2
58.7135 20.8723 2
61.5876 27.0876 2
60.7494 29.1582 2
58.2183 23.1176 2
59.2451 25.8201 2
57.8839 24.6931 2
56.6718 15.7541 2
54.3699 16.0165 2
53.8075 13.6904 2
52.1124 8.15425 2
53.0579 11.0212 2
64.0109 35.6334 3.9742
62.8324 33.0542 3.97468
60.4917 30.6289 3.97669
59.4639 27.9325 3.97498
57.9319 16.9959 3.97149
57.6407 25.7551 3.9754
57.6917 19.4962 3.9628
57.3136 21.8669 3.9628
57.0926 23.9784 3.96797
50.1125 7.28594 3.98688
51.2326 10.1287 3.98093
52.1707 12.8056 3.97716
55.5288 16.9885 3.97452
52.9738 15.2827 3.9733
53.749 17.0011 3.97894
53.0432 68.9994 0.00786776
53.967 66.0122 0.0134331
63.1586 48.6504 0.0321006
54.6834 63.2044 0.0194154
57.8784 60.8643 0.0243573
55.2088 60.6057 0.0242747
61.7243 52.5651 0.0332704
60.2089 49.9989 0.0311935
58.0104 58.2505 0.0318463
58.1056 55.7931 0.035308
59.3108 53.9316 0.032687
52.0703 66.9995 2
52.9531 64.2173 2
56.6435 59.4806 2
53.6794 61.6178 2
54.2546 59.3091 2
60.9058 47.8596 2
59.6614 52.0851 2
57.9224 49.5869 2
56.7614 56.9716 2
57.0838 54.0991 2
51.1681 65.1262 3.9843
52.0456 62.5347 3.98004
55.472 58.2373 3.97486
52.8304 60.1247 3.9773
53.6306 58.4575 3.97916
58.1711 46.8179 3.97386
57.4944 51.7604 3.96732
56.1193 49.5196 3.97068
55.4459 55.7672 3.96263
55.3028 53.3543 3.96349
50.1091 67.856 0.0125433
49.3369 65.9198 2
48.6182 64.1195 3.98301
47.4631 66.5788 0.0155827
45.5581 67.0964 2
46.8924 64.7331 2
46.3822 63.0482 3.98221
45.1327 65.1935 3.98276
43.6313 67.4664 3.98462
41.8603 69.8764 3.98778
43.973 69.5896 2
44.377 71.8619 3.99229
46.056 69.1569 0.0122114
46.61 71.3673 2
47.2057 73.7222 4
48.8031 70.7226 0.00765098
49.554 73.0099 2
51.8506 72.1454 0
50.9547 5.13231 3.99209
53.0654 6.07203 2
54.0858 3.86728 4
55.1032 7.14066 0.00923279
56.25 5.02406 2
58.3339 6.31992 0
63.9228 46.7068 0.0312438
65.1335 43.0187 0.0296211
62.7206 44.2021 0.0265384
63.6647 40.9213 0.0253279
65.7478 39.3674 0.0286406
67.9286 37.5216 0.0314988
65.8507 37.5008 2
63.808 39.2614 2
63.231 42.5381 2
62.3017 40.6862 2
61.8795 45.9013 2
61.3252 43.6644 2
63.8711 37.455 3.97372
62.0242 39.3484 3.97704
61.0725 41.9414 3.97684
60.1228 44.7472 3.97585
65.8383 35.6676 0.0288832
65.1469 32.1588 0.0295621
64.2158 34.2532 0.0250112
62.5042 30.6477 0.0263711
59.3078 15.6765 0.0260491
59.1105 18.3707 0.0333848
58.7119 20.872 0.0363799
61.5884 27.0871 0.028642
60.7502 29.1577 0.0234312
59.2458 25.8193 0.0260222
58.2188 23.1167 0.0336798
57.8845 24.692 0.0272265
56.6722 15.755 0.0246189
54.3702 16.0163 0.0245044
53.8074 13.6932 0.0243808
52.1122 8.15519 0.0150546
53.0578 11.0227 0.021087
64.0099 35.6335 2
62.8313 33.0545 2
60.4903 30.6293 2
57.9311 16.9957 2
57.6927 19.4948 2
57.3152 21.8674 2
59.4629 27.9332 2
57.0915 23.9797 2
57.6401 25.7562 2
50.1127 7.28474 2
55.5284 16.988 2
53.7484 17.0008 2
52.9738 15.2821 2
52.1711 12.8046 2
51.2328 10.1276 2
62.0617 35.3643 3.97631
60.1337 32.7605 3.97671
58.469 30.1024 3.97698
57.1568 27.4145 3.97637
56.6217 18.1738 3.97061
56.1806 25.1389 3.9728
56.32 20.547 3.96149
56.022 22.904 3.96305
48.0567 6.52799 3.98844
49.3249 9.33431 3.98247
50.4326 12.001 3.97847
51.3741 14.5101 3.97405
54.4005 17.9405 3.97559
52.3523 17.0624 3.97127
52.0704 66.999 0.0128239
52.9534 64.2165 0.0170203
60.907 47.8602 0.0305448
53.6797 61.617 0.0223786
56.6438 59.4796 0.0256666
54.2547 59.3074 0.0254437
59.661 52.0855 0.0321382
57.9255 49.5879 0.0296894
56.7625 56.9672 0.0326671
57.0852 54.0998 0.0344097
51.1679 65.1268 2
52.0453 62.5354 2
55.4716 58.2384 2
52.8304 60.1278 2
53.6303 58.4585 2
58.1696 46.817 2
57.4931 51.7597 2
56.1159 49.5185 2
55.4458 55.7676 2
55.3048 53.3547 2
50.3463 63.3782 3.98266
51.2421 60.9287 3.97727
54.2033 57.2536 3.97492
52.3044 58.6172 3.97552
56.5048 44.1422 3.97774
55.326 47.8549 3.97227
54.979 51.3567 3.96634
53.9614 54.5143 3.96418
49.337 65.9193 0.0157262
48.6182 64.12 2
47.9621 62.4698 3.98171
45.5582 67.0958 0.0154595
46.8925 64.7326 0.0172801
43.6313 67.467 2
46.3823 63.0487 2
45.1327 65.1941 2
45.9877 61.5793 3.98277
44.7675 63.4483 3.98138
43.3568 65.5027 3.98254
41.6635 67.6851 3.98446
39.7022 70.0233 3.98799
41.8603 69.8769 2
42.1113 72.2067 3.99226
43.973 69.5891 0.0120903
44.3772 71.8621 2
44.8159 74.2794 4
46.6097 71.367 0.00765515
47.2057 73.7222 2
49.554 73.0099 0
48.7853 4.32293 3.99261
50.9552 5.1319 2
51.8506 2.85458 4
53.0647 6.07207 0.00854287
54.0858 3.86728 2
56.25 5.02411 0
61.8811 45.9018 0.0285663
63.2324 42.5384 0.026073
61.3268 43.665 0.022903
62.3035 40.6866 0.0228954
63.8092 39.2615 0.0256959
65.8515 37.5008 0.0288897
63.8698 37.4549 2
62.0223 39.3485 2
61.0709 41.9408 2
60.1214 44.7465 2
61.8641 37.4439 3.9775
60.0673 39.8304 3.97736
58.8008 42.8886 3.97741
64.0109 35.6334 0.0257983
62.8324 33.0542 0.0253218
60.4917 30.6289 0.0233111
57.9319 16.9959 0.0285113
57.6917 19.4962 0.0371972
57.3136 21.8669 0.0372029
59.4639 27.9325 0.025016
57.6407 25.7551 0.0246036
57.0926 23.9784 0.0320276
55.5288 16.9885 0.0254842
53.749 17.0011 0.0210646
52.9738 15.2827 0.0267004
50.1125 7.28594 0.0131225
52.1707 12.8056 0.0228358
51.2326 10.1287 0.0190743
62.0604 35.3645 2
60.1314 32.7608 2
58.4682 30.1032 2
56.6209 18.1735 2
56.3219 20.544 2
56.0237 22.9051 2
57.1575 27.4154 2
56.1812 25.1401 2
48.0567 6.52688 2
49.3251 9.33294 2
54.4003 17.9403 2
52.3516 17.0624 2
51.3738 14.5079 2
50.4329 11.9999 2
59.713 35.1306 3.97724
57.7836 32.2995 3.97713
56.3747 29.3779 3.97739
55.283 26.6456 3.97661
55.3176 19.2101 3.969
54.8181 24.1011 3.96408
54.9428 21.5951 3.95935
45.9628 5.8827 3.98902
43.3743 7.47384 3.98601
47.3556 8.62579 3.98437
48.5999 11.2992 3.97976
49.7109 13.7527 3.97793
50.6272 16.1541 3.97715
53.1055 18.6867 3.97106
51.2867 18.079 3.97945
51.1681 65.1262 0.0157022
52.0456 62.5347 0.0199598
58.1711 46.8179 0.0261422
52.8304 60.1247 0.0227013
55.472 58.2373 0.0251359
53.6306 58.4575 0.0208418
57.4944 51.7604 0.0326756
56.1193 49.5196 0.0293225
55.4459 55.7672 0.037374
55.3028 53.3543 0.0365134
50.3461 63.3783 2
51.2418 60.929 2
54.2031 57.2548 2
52.304 58.6181 2
56.5038 44.1413 2
55.3252 47.8539 2
54.9799 51.3565 2
53.9618 54.5153 2
49.5917 61.7405 3.98138
55.3403 41.6722 3.97613
50.5609 59.318 3.97458
52.1627 56.4714 3.96884
53.9505 45.5105 3.97505
53.1837 49.2866 3.97026
52.5959 52.8194 3.96352
48.6182 64.1195 0.0169891
47.9622 62.4701 2
47.3282 61.0023 3.98346
43.6313 67.4664 0.0153848
45.1327 65.1935 0.0172389
46.3822 63.0482 0.0177858
41.6636 67.6853 2
43.3568 65.5035 2
45.9879 61.5799 2
44.7676 63.449 2
45.7652 60.6228 3.98139
44.4839 61.8275 3.98124
43.1467 63.7203 3.98089
41.5464 65.6404 3.98185
39.6328 67.7646 3.98414
37.526 70.0481 3.98764
39.7022 70.0239 2
39.8179 72.4037 3.99209
41.8603 69.8764 0.0122219
42.1115 72.207 2
42.3947 74.6792 4
44.377 71.8619 0.0077136
44.8159 74.2794 2
47.2057 73.7222 0
43.852 5.35952 3.98904
46.5713 3.64734 3.99279
48.7856 4.32248 2
49.554 1.99015 4
50.9547 5.13231 0.00790762
51.8506 2.85453 2
54.0858 3.86728 0
60.1228 44.7472 0.0241482
61.0725 41.9414 0.0231608
62.0242 39.3484 0.0229562
63.8711 37.455 0.026279
61.8625 37.4441 2
60.0661 39.8301 2
58.7996 42.8878 2
59.5693 37.5647 3.97764
57.7584 40.6318 3.97766
54.7764 39.6852 3.97613
62.0617 35.3643 0.0236912
60.1337 32.7605 0.0232899
58.469 30.1024 0.0230175
56.6217 18.1738 0.0293879
56.32 20.547 0.0385137
56.022 22.904 0.0369456
57.1568 27.4145 0.0236264
56.1806 25.1389 0.0272024
54.4005 17.9405 0.0244125
52.3523 17.0624 0.0287253
51.3741 14.5101 0.0259468
48.0567 6.52799 0.0115632
49.3249 9.33431 0.0175295
50.4326 12.001 0.0215328
59.7117 35.1308 2
45.9626 5.88211 2
43.3741 7.47329 2
57.7827 32.3004 2
56.3742 29.3787 2
55.317 19.2105 2
54.9466 21.5944 2
54.817 24.1028 2
55.2786 26.6474 2
47.3557 8.62391 2
48.6003 11.2978 2
53.1056 18.6862 2
51.2865 18.0804 2
50.627 16.1539 2
49.7107 13.7517 2
57.1474 34.7742 3.97737
55.5085 31.556 3.97749
54.2988 28.4626 3.97796
53.6369 25.553 3.97433
53.9342 20.1653 3.96949
53.4995 22.7556 3.95631
41.3994 7.07943 3.98641
45.3605 7.99541 3.98641
42.8663 9.41709 3.98309
46.667 10.657 3.98159
47.7435 13.1097 3.97988
48.9269 15.4148 3.97549
49.994 17.7207 3.97575
51.6241 19.3564 3.97818
50.3463 63.3782 0.0173418
51.2421 60.9287 0.0227294
56.5048 44.1422 0.0222584
55.326 47.8549 0.0277278
52.3044 58.6172 0.0244804
54.2033 57.2536 0.0250757
54.979 51.3567 0.0336607
53.9614 54.5143 0.0358195
49.5913 61.7403 2
55.3399 41.672 2
50.5607 59.3191 2
52.1625 56.4724 2
53.9553 45.5099 2
53.1875 49.2868 2
52.5968 52.8185 2
48.8459 60.197 3.97908
52.2015 42.5849 3.98151
49.7761 57.6098 3.97378
50.5447 54.4038 3.96611
51.6036 47.2192 3.9762
51.1016 50.9098 3.96008
47.8537 43.7254 3.98979
47.9621 62.4698 0.0182902
47.3286 61.0027 2
46.6162 59.7878 3.9829
41.6635 67.6851 0.0155368
43.3568 65.5027 0.0174557
44.7675 63.4483 0.0186169
45.9877 61.5793 0.017229
39.633 67.7653 2
41.5462 65.6402 2
45.7653 60.6236 2
43.1468 63.721 2
44.4841 61.8283 2
44.6221 60.2841 3.98255
42.9509 62.075 3.97944
41.6002 63.8135 3.98105
39.6477 65.6077 3.98092
37.5635 67.7462 3.9836
31.697 65.1267 3.98175
33.3924 67.4839 3.98326
35.3337 69.9582 3.9877
37.526 70.0489 2
37.5095 72.4582 3.992
39.7022 70.0233 0.0120109
39.8181 72.4041 2
39.9526 74.9197 4
42.1113 72.2067 0.00774267
42.3947 74.6792 2
44.8159 74.2794 0
41.7366 4.96875 3.98927
43.852 5.35891 2
44.3265 3.11043 3.99314
46.5714 3.64703 2
47.2057 1.27793 4
48.7853 4.32293 0.00738679
49.554 1.99013 2
51.8506 2.85458 0
58.8008 42.8886 0.0225949
60.0673 39.8304 0.0226378
61.8641 37.4439 0.0225008
59.5683 37.565 2
57.7587 40.6319 2
54.7771 39.6844 2
56.5467 37.8841 3.97749
49.2345 41.2951 3.98967
52.7975 39.3019 3.98387
39.4429 6.80331 3.98623
59.713 35.1306 0.0227562
57.7836 32.2995 0.0228733
56.3747 29.3779 0.022609
55.3176 19.2101 0.0310017
54.9428 21.5951 0.0406453
54.8181 24.1011 0.0359216
55.283 26.6456 0.0233857
53.1055 18.6867 0.0289387
51.2867 18.079 0.0205469
50.6272 16.1541 0.0228493
45.9628 5.8827 0.0109849
49.7109 13.7527 0.0220747
47.3556 8.62579 0.0156321
48.5999 11.2992 0.0202416
43.3743 7.47384 0.0139911
57.1457 34.7736 2
41.3994 7.07862 2
45.3602 7.99486 2
42.8661 9.41671 2
55.511 31.556 2
54.2975 28.464 2
53.9344 20.1666 2
53.499 22.7538 2
53.6341 25.5547 2
46.6672 10.6541 2
47.7437 13.1077 2
51.6245 19.3571 2
49.9932 17.7192 2
48.9263 15.4143 2
54.5724 33.9733 3.97624
53.2517 30.5505 3.97762
52.3967 27.2698 3.97529
52.0375 24.1586 3.97705
52.3413 21.093 3.97623
41.0139 9.05043 3.98313
44.7253 9.99578 3.98429
42.4687 10.904 3.98498
46.0042 12.7357 3.97812
47.6772 14.5943 3.97433
48.1013 16.9997 3.97446
49.8011 19.6882 3.97635
49.5917 61.7405 0.0186173
50.5609 59.318 0.0254219
55.3403 41.6722 0.0238689
53.9505 45.5105 0.0249497
53.1837 49.2866 0.0297409
52.1627 56.4714 0.0311647
52.5959 52.8194 0.0364845
48.8457 60.1956 2
52.2109 42.5875 2
49.7757 57.6105 2
50.5448 54.4051 2
51.6072 47.2204 2
51.1028 50.9082 2
47.8628 43.7462 2
47.9793 58.7311 3.97914
49.8062 45.224 3.98042
48.5694 55.9018 3.97646
49.0548 52.5653 3.97385
49.5183 49.005 3.97105
45.6362 39.8509 3.88369
46.0884 42.6015 3.91864
46.243 45.7653 3.98728
43.4533 41.1112 3.79513
41.856 41.9922 3.65608
47.3282 61.0023 0.01654
46.6161 59.7886 2
45.4636 58.7839 3.98192
39.6328 67.7646 0.0158604
41.5464 65.6404 0.0181503
43.1467 63.7203 0.0191117
44.4839 61.8275 0.0187637
45.7652 60.6228 0.0186141
41.6002 63.8136 2
37.5636 67.747 2
39.6477 65.6083 2
44.6222 60.2848 2
42.9511 62.0756 2
41.7538 62.4863 3.98015
42.4799 59.9725 3.98204
39.8939 63.5468 3.97948
37.6423 65.5061 3.98141
35.4636 67.6554 3.98345
33.5754 65.3389 3.98087
31.9589 63.2963 3.98145
29.883 64.7186 3.98289
31.697 65.1274 2
31.377 67.1942 3.98384
33.3925 67.4846 2
33.1568 69.7519 3.98752
35.3337 69.9591 2
35.1949 72.3726 3.99192
37.526 70.0481 0.0123642
37.5096 72.4587 2
37.5 75 4
39.8179 72.4037 0.00790608
39.9526 74.9197 2
42.3947 74.6792 0
39.6242 4.71618 3.98954
41.7366 4.96802 2
42.0628 2.71796 3.99329
43.852 5.35952 0.0109572
44.3266 3.11002 2
44.8158 0.721173 4
46.5713 3.64734 0.00720784
47.2057 1.27779 2
49.554 1.99015 0
57.7584 40.6318 0.0223355
59.5693 37.5647 0.0223602
54.7764 39.6852 0.0238654
49.2535 41.3013 2
56.5456 37.8841 2
52.7987 39.2945 2
53.6415 36.6294 3.97727
47.1594 40.369 3.92687
50.1738 38.5135 3.99254
37.5168 6.67467 3.98623
39.4429 6.80228 2
39.2114 8.69378 3.98382
35.9426 8.49437 3.98383
57.1474 34.7742 0.0226298
55.5085 31.556 0.0225095
54.2988 28.4626 0.0220354
53.9342 20.1653 0.0305144
53.4995 22.7556 0.0436878
53.6369 25.553 0.0256728
51.6241 19.3564 0.0218167
49.994 17.7207 0.0242492
48.9269 15.4148 0.0245051
45.3605 7.99541 0.0135892
47.7435 13.1097 0.020116
46.667 10.657 0.018412
41.3994 7.07943 0.0135942
42.8663 9.41709 0.0169143
54.5683 33.9753 2
41.0139 9.04988 2
44.7247 9.99548 2
42.4684 10.9041 2
53.2489 30.5496 2
52.4024 27.2717 2
52.3427 21.0935 2
52.0381 24.1603 2
46.0042 12.7314 2
47.6768 14.592 2
49.8015 19.6887 2
48.1001 16.998 2
52.1267 32.8873 3.98013
51.0612 29.2309 3.97527
50.6293 25.799 3.97257
49.8928 22.2728 3.98208
40.5697 11.6101 3.98065
43.8583 11.9172 3.9801
45.7967 15.4308 3.9815
47.4919 19.3018 3.97738
46.0006 37.4825 3.88685
48.8459 60.197 0.0209173
49.7761 57.6098 0.0262153
52.2015 42.5849 0.018494
51.6036 47.2192 0.0237988
51.1016 50.9098 0.0399177
50.5447 54.4038 0.0338917
47.8537 43.7254 0.0102111
47.9787 58.7319 2
49.8176 45.2327 2
48.5683 55.9036 2
49.0547 52.5685 2
49.5211 49.0034 2
45.6718 39.8572 2
46.1113 42.6234 2
46.2445 45.767 2
43.4765 41.1362 2
41.8707 42.0071 2
46.8253 57.3332 3.98239
44.2015 39.3952 3.79543
42.208 40.8601 3.70676
47.8634 47.1957 3.97823
47.1242 54.2182 3.97347
47.4849 50.7178 3.9701
44.6185 47.3602 3.97735
44.7429 41.9261 3.86952
44.7125 44.4995 3.93559
42.3319 42.6182 3.8046
40.7795 42.3242 3.69129
46.6162 59.7878 0.0171036
45.4637 58.7845 2
43.8691 57.7053 3.98414
37.5635 67.7462 0.0164025
39.6477 65.6077 0.0190797
41.6002 63.8135 0.018954
42.9509 62.075 0.0205595
44.6221 60.2841 0.017454
35.4637 67.6565 2
41.754 62.4866 2
39.8938 63.5472 2
37.6424 65.5068 2
42.4802 59.9729 2
40.6237 61.6421 3.98081
40.4421 58.1994 3.981
37.837 63.2078 3.97968
35.573 65.4276 3.98076
33.5755 65.3394 2
31.9588 63.2971 2
33.6284 63.3346 3.98011
30.378 62.8561 3.982
32.1232 62.0014 3.98289
26.8692 61.4979 3.9804
28.0619 64.1469 3.98254
29.8831 64.7192 2
29.4064 66.7585 3.98439
31.697 65.1267 0.0182546
31.3771 67.195 2
31.0143 69.417 3.98753
33.3924 67.4839 0.0167378
33.1568 69.7526 2
32.8918 72.1469 3.99206
35.3337 69.9582 0.0123011
35.1948 72.3731 2
35.0474 74.9194 4
37.5095 72.4582 0.00800445
37.5 75 2
39.9526 74.9197 0
35.6214 6.72587 3.98569
37.5237 4.61577 3.98962
39.6242 4.71529 2
39.7892 2.47445 3.99329
41.7366 4.96875 0.0107329
42.0628 2.71752 2
42.3946 0.32156 4
44.3265 3.11043 0.00686419
44.8159 0.72056 2
47.2057 1.27793 0
49.2345 41.2951 0.0103348
56.5467 37.8841 0.0225116
52.7975 39.3019 0.0161339
47.1781 40.3763 2
50.1847 38.5071 2
53.6492 36.6324 2
50.9623 35.5725 3.97707
47.8214 37.748 3.93905
45.6349 35.1354 3.88283
43.4589 33.874 3.78906
41.8611 33.0023 3.65255
37.4585 8.53569 3.9844
37.5167 6.67355 2
39.4429 6.80331 0.0137695
39.2115 8.69256 2
38.9767 10.1284 3.98357
35.8992 9.77579 3.98228
34.1514 8.82428 3.98318
35.9423 8.493 2
54.5724 33.9733 0.023757
53.2517 30.5505 0.022376
52.3967 27.2698 0.0247054
52.3413 21.093 0.0237698
52.0375 24.1586 0.0229525
49.8011 19.6882 0.0236451
48.1013 16.9997 0.0255431
47.6772 14.5943 0.025673
44.7253 9.99578 0.015711
46.0042 12.7357 0.0218839
41.0139 9.05043 0.016873
42.4687 10.904 0.0150154
52.1323 32.8871 2
40.5699 11.6104 2
43.8574 11.9176 2
51.0749 29.2318 2
50.6334 25.8014 2
49.8924 22.2707 2
45.7956 15.425 2
47.4917 19.3082 2
49.6684 31.4635 3.9854
49.0745 27.5714 3.97342
49.2938 24.4846 3.98119
47.1601 22.0479 3.97692
38.3029 12.7402 3.97857
42.1011 14.3076 3.97848
44.7926 18.4952 3.97686
44.5286 37.4903 3.80302
46.0546 37.4897 2
47.9793 58.7311 0.020864
48.5694 55.9018 0.0235433
49.8062 45.224 0.0195779
49.5183 49.005 0.0289458
49.0548 52.5653 0.0261462
45.6362 39.8509 0.116309
46.0884 42.6015 0.0813609
46.243 45.7653 0.0127229
43.4533 41.1112 0.204868
41.856 41.9922 0.34392
46.8242 57.3338 2
44.2319 39.4152 2
42.1988 40.867 2
47.8647 47.1971 2
47.1226 54.2225 2
47.4866 50.721 2
44.6266 47.3375 2
44.7664 41.9445 2
44.7303 44.5172 2
42.3776 42.6466 2
40.784 42.3216 2
45.3762 55.9231 3.98927
42.5273 39.2671 3.71838
40.6686 40.764 3.79898
45.9466 48.882 3.98595
45.47 52.5064 3.97918
43.3082 48.3749 3.99995
43.2566 46.0431 3.9174
43.4461 43.709 3.8681
40.9506 43.7471 3.79467
39.263 42.6424 3.71127
45.4636 58.7839 0.0180799
43.8691 57.706 2
42.0973 56.3242 3.98634
35.4636 67.6554 0.0165509
37.6423 65.5061 0.0185907
39.8939 63.5468 0.0205221
41.7538 62.4863 0.0198464
42.4799 59.9725 0.0179624
35.5732 65.4291 2
40.6239 61.6427 2
37.8368 63.2082 2
40.4423 58.2 2
38.9216 56.4902 3.98884
38.2508 60.3241 3.97957
35.6067 63.1998 3.97789
33.5754 65.3389 0.0191255
31.9589 63.2963 0.0185511
33.6284 63.3353 2
30.378 62.8566 2
32.1234 62.0021 2
28.6809 62.2013 3.98166
33.3457 61.5118 3.98177
31.0672 61.2189 3.98119
27.5715 59.5925 3.98091
23.7967 59.0792 3.97948
25.0355 60.8709 3.98035
26.8695 61.4987 2
26.2288 63.4781 3.98194
28.0621 64.1474 2
27.4629 66.1827 3.98461
29.883 64.7186 0.0171104
29.4065 66.759 2
28.9065 68.9431 3.98745
31.377 67.1942 0.0161602
31.0142 69.4177 2
30.6142 71.7779 3.992
33.1568 69.7519 0.0124817
32.8916 72.1473 2
32.6054 74.6784 4
35.1949 72.3726 0.00807652
35.0474 74.9197 2
37.5 75 0
33.7242 6.98084 3.98523
35.4355 4.68603 3.98943
35.6212 6.72489 2
37.5147 2.38702 3.99326
37.5236 4.615 2
39.6242 4.71618 0.0104643
39.7891 2.47394 2
39.9526 0.0806499 4
42.0628 2.71796 0.00670767
42.3947 0.320817 2
44.8158 0.721173 0
44.2154 35.5841 3.79066
42.2165 34.125 3.70429
47.1594 40.369 0.0731349
50.1738 38.5135 0.00746029
53.6415 36.6294 0.0227255
47.8289 37.7521 2
50.9753 35.5711 2
45.6642 35.118 2
43.4861 33.8481 2
41.8765 32.9871 2
47.9911 34.3045 3.9657
44.744 33.0505 3.86286
42.339 32.3774 3.8003
40.7851 32.675 3.68872
37.3112 10.633 3.98145
37.4584 8.53401 2
37.5168 6.67467 0.0137734
39.2114 8.69378 0.0161774
38.9772 10.127 2
34.7547 10.3826 3.98112
35.8992 9.77395 2
32.3783 9.37171 3.98165
34.1508 8.82295 2
35.9426 8.49437 0.0161695
52.1267 32.8873 0.0198749
51.0612 29.2309 0.0247264
50.6293 25.799 0.0274271
49.8928 22.2728 0.0179196
47.4919 19.3018 0.0226227
45.7967 15.4308 0.018495
43.8583 11.9172 0.0198963
40.5697 11.6101 0.0193455
49.6799 31.4595 2
38.3025 12.7381 2
42.1012 14.3096 2
49.0793 27.571 2
49.2964 24.4805 2
47.1559 22.0456 2
44.7924 18.508 2
47.5044 29.5678 3.98499
46.9851 25.2337 3.98372
44.2708 21.4294 3.97505
36.5831 12.9383 3.97741
38.6825 14.8154 3.97684
41.7466 17.8642 3.97845
42.6461 37.4841 3.73115
44.5514 37.4908 2
46.0006 37.4825 0.113155
46.8253 57.3332 0.0176118
47.1242 54.2182 0.0265303
47.8634 47.1957 0.02177
47.4849 50.7178 0.0298977
44.2015 39.3952 0.204575
44.7429 41.9261 0.130478
44.7125 44.4995 0.0644054
44.6185 47.3602 0.0226479
42.3319 42.6182 0.195395
42.208 40.8601 0.293235
40.7795 42.3242 0.308713
45.3749 55.9225 2
42.5181 39.2651 2
40.6571 40.7495 2
45.9474 48.8877 2
45.4694 52.5128 2
43.3122 48.3938 2
43.2868 46.0701 2
43.4752 43.7372 2
40.9811 43.785 2
39.259 42.6349 2
43.7086 54.4268 3.99608
40.7649 39.1538 3.82693
39.1262 40.8314 3.81649
43.5949 50.4335 4.00395
41.8868 47.587 3.95304
41.8076 45.1298 3.88007
39.3384 44.4421 3.80081
37.5033 42.7388 3.73318
43.8691 57.7053 0.0158627
42.0972 56.3247 2
40.4086 54.9224 3.9824
35.573 65.4276 0.0192437
37.837 63.2078 0.0203227
40.6237 61.6421 0.0191941
40.4421 58.1994 0.0190004
35.6067 63.201 2
38.2511 60.3246 2
38.9216 56.4906 2
37.9984 55.2376 3.99339
36.9347 57.6206 3.98294
35.3633 60.9067 3.97826
33.6284 63.3346 0.0198858
30.378 62.8561 0.0179954
32.1232 62.0014 0.0171128
33.346 61.5126 2
28.6811 62.2016 2
31.0676 61.2194 2
29.4047 60.288 3.98009
32.3597 59.7437 3.98582
28.0305 58.3731 3.98841
27.5719 59.5933 2
25.3846 58.5925 3.97787
22.7647 58.234 3.97054
23.4026 60.3489 3.97882
23.7968 59.0803 2
25.0357 60.872 2
24.4318 62.7701 3.98194
26.8692 61.4979 0.0196002
26.229 63.4789 2
25.5471 65.4923 3.98393
28.0619 64.1469 0.0174572
27.463 66.1832 2
26.836 68.3315 3.98749
29.4064 66.7585 0.0156085
28.9065 68.9434 2
28.3691 71.2631 3.9921
31.0143 69.417 0.0124738
30.6139 71.7782 2
30.1842 74.2788 4
32.8918 72.1469 0.00794319
32.6053 74.6792 2
35.0474 74.9194 0
31.7887 7.42102 3.98427
33.3478 4.92544 3.98899
33.7239 6.97975 2
35.2448 2.46308 3.9932
35.4353 4.68538 2
35.6214 6.72587 0.0143139
37.5 0 4
37.5145 2.38661 2
37.5237 4.61577 0.0103827
39.7892 2.47445 0.0067108
39.9526 0.0802889 2
42.3946 0.32156 0
42.5276 35.7082 3.72219
44.2415 35.5656 2
40.6758 34.2308 3.79839
42.2056 34.1196 2
47.8214 37.748 0.0609543
50.9623 35.5725 0.0229276
45.6349 35.1354 0.117172
43.4589 33.874 0.210945
41.8611 33.0023 0.347449
48.0083 34.2921 2
44.7696 33.0332 2
42.3823 32.347 2
40.791 32.6766 2
46.0158 31.606 3.94069
43.4372 31.2882 3.87122
40.951 31.2481 3.79546
39.2674 32.3663 3.71057
35.6934 11.7802 3.97939
37.3118 10.6306 2
37.4585 8.53569 0.0155982
38.9767 10.1284 0.0164337
33.0989 11.2209 3.97881
34.7544 10.3807 2
35.8992 9.77579 0.0177247
30.4832 10.0212 3.98097
32.3777 9.37116 2
34.1514 8.82428 0.0168245
49.6684 31.4635 0.0146001
49.0745 27.5714 0.0265804
49.2938 24.4846 0.0188146
47.1601 22.0479 0.02308
44.7926 18.4952 0.023141
42.1011 14.3076 0.0215175
38.3029 12.7402 0.0214327
36.5829 12.9355 2
47.5128 29.548 2
38.6819 14.8126 2
41.7454 17.8704 2
46.9906 25.2305 2
44.2681 21.4105 2
45.3519 27.6915 4.00066
43.7311 24.1519 4.00655
41.329 20.8047 3.97931
35.7734 14.7676 3.97712
38.6821 17.6108 3.97841
40.8153 37.4772 3.83625
42.6406 37.4852 2
44.5286 37.4903 0.196982
45.3762 55.9231 0.0107277
45.47 52.5064 0.0208232
45.9466 48.882 0.0140506
42.5273 39.2671 0.281618
43.4461 43.709 0.131902
43.2566 46.0431 0.0826043
43.3082 48.3749 4.51803e-05
40.9506 43.7471 0.205333
40.6686 40.764 0.201024
39.263 42.6424 0.288735
43.7062 54.4266 2
40.7467 39.145 2
39.1251 40.8163 2
43.5946 50.4496 2
41.8804 47.6081 2
41.8281 45.157 2
37.5029 42.7348 2
39.3554 44.4704 2
41.8548 52.982 3.99361
39.1439 39.1629 3.84066
37.5012 40.8773 3.83107
35.7449 42.6482 3.71187
40.865 49.6405 3.99864
39.806 45.9933 3.85915
37.5015 44.6686 3.79051
42.0973 56.3242 0.0136614
40.4076 54.9236 2
38.7248 53.8188 3.99415
35.6067 63.1998 0.0221054
38.2508 60.3241 0.0204265
38.9216 56.4902 0.0111632
35.3635 60.9074 2
36.9352 57.6212 2
37.9982 55.2355 2
36.3238 55.3311 3.99514
34.4899 58.5133 3.98536
33.3457 61.5118 0.0182291
28.6809 62.2013 0.0183352
31.0672 61.2189 0.018807
32.3602 59.7446 2
29.4053 60.2882 2
30.3079 57.818 3.98367
28.0306 58.3742 2
26.9621 56.8249 3.97605
27.5715 59.5925 0.0190935
25.3846 58.5939 2
23.856 56.7924 3.96465
21.3459 57.3864 3.96987
21.9977 59.6193 3.97728
22.7647 58.2358 2
22.7364 62.0202 3.97996
23.4027 60.35 2
23.7967 59.0792 0.0205156
25.0355 60.8709 0.0196468
24.4321 62.7711 2
23.6812 64.7099 3.98357
26.2288 63.4781 0.0180584
25.5471 65.4931 2
24.8082 67.5927 3.98729
27.4629 66.1827 0.0153879
26.8361 68.3321 2
26.1643 70.6038 3.99216
28.9065 68.9431 0.0125508
28.3688 71.2633 2
27.7943 73.7221 4
30.6142 71.7779 0.00799594
30.1841 74.2794 2
32.6054 74.6784 0
29.8113 7.99528 3.98336
31.2531 5.33254 3.98815
31.7884 7.42022 2
32.9805 2.70135 3.99289
33.3475 4.92462 2
33.7242 6.98084 0.0147677
35.0474 0.080333 4
35.2446 2.46275 2
35.4355 4.68603 0.0105717
37.5 0 2
37.5147 2.38702 0.00674439
39.9526 0.0806499 0
40.7675 35.819 3.82662
42.5174 35.7109 2
44.2154 35.5841 0.20934
28.544 10.6971 3.97995
39.1292 34.1761 3.81572
40.6622 34.2449 2
42.2165 34.125 0.295707
47.9911 34.3045 0.0342969
44.744 33.0505 0.13714
42.339 32.3774 0.199701
40.7851 32.675 0.311283
46.0427 31.5928 2
43.4649 31.2595 2
40.9834 31.2138 2
39.2653 32.3741 2
44.2535 29.8002 3.93126
41.8055 29.8669 3.87913
39.3451 30.5622 3.79959
37.5097 32.2779 3.73242
34.0939 12.9409 3.97728
35.6934 11.7771 2
37.3112 10.633 0.0185472
31.1873 11.991 3.97894
33.0991 11.2203 2
34.7547 10.3826 0.0188802
30.4824 10.0193 2
32.3783 9.37171 0.0183509
47.5044 29.5678 0.015008
46.9851 25.2337 0.0162791
36.5831 12.9383 0.0225884
44.2708 21.4294 0.0249463
41.7466 17.8642 0.0215504
38.6825 14.8154 0.0231561
35.7737 14.7705 2
45.3561 27.6912 2
38.6805 17.6147 2
41.3257 20.7911 2
43.7336 24.1389 2
33.6101 15.8883 3.9766
42.9337 26.5392 3.99715
40.8776 23.3685 4.01087
38.4146 20.3921 3.98013
35.8513 17.5231 3.97893
39.1532 37.487 3.86142
40.7973 37.4771 2
42.6461 37.4841 0.26885
43.7086 54.4268 0.00392444
43.5949 50.4335 -0.00395231
40.7649 39.1538 0.173072
41.8076 45.1298 0.119932
41.8868 47.587 0.0469567
39.3384 44.4421 0.199193
39.1262 40.8314 0.183505
37.5033 42.7388 0.266816
41.8535 52.9793 2
39.1324 39.1524 2
37.5007 40.8545 2
40.873 49.6562 2
35.7451 42.6404 2
39.8285 46.0269 2
37.4972 44.6935 2
39.7967 51.8564 4.00167
37.4989 39.1766 3.86342
35.8744 40.8459 3.81544
34.2266 42.3308 3.68918
35.6626 44.4556 3.79754
38.6724 48.6399 3.96869
37.5122 46.2945 3.87146
40.4086 54.9224 0.0175958
38.7244 53.8128 2
36.739 53.1506 3.99978
35.3633 60.9067 0.0217403
36.9347 57.6206 0.017062
37.9984 55.2376 0.00661109
34.4907 58.514 2
36.3249 55.3359 2
33.2443 55.4981 3.99586
32.3597 59.7437 0.0141812
29.4047 60.288 0.0199143
30.3085 57.8184 2
28.7202 55.3132 3.97858
28.0305 58.3731 0.0115894
26.9615 56.8261 2
25.3427 55.1319 3.97323
21.834 55.3334 3.9658
25.3846 58.5925 0.0221333
23.8556 56.7946 2
20.232 57.0149 3.97346
20.6513 58.7704 3.97393
21.3456 57.3881 2
21.1678 61.1684 3.97806
21.9978 59.6204 2
22.7647 58.234 0.0294611
21.8949 63.8371 3.98245
22.7366 62.0213 2
23.4026 60.3489 0.0211834
24.4318 62.7701 0.0180572
23.6812 64.7107 2
22.8365 66.7359 3.98672
25.5471 65.4923 0.0160724
24.8083 67.5936 2
24.0084 69.805 3.99226
26.836 68.3315 0.012512
26.1639 70.6041 2
25.446 73.0099 4
28.3691 71.2631 0.00789594
27.7943 73.7222 2
30.1842 74.2788 0
27.8212 8.65516 3.98286
29.1552 5.87868 3.98724
29.8107 7.99369 2
30.7258 3.09847 3.99259
31.2528 5.33183 2
31.7887 7.42102 0.015731
32.6053 0.320823 4
32.9802 2.70093 2
33.3478 4.92544 0.0110135
35.0474 0.0802903 2
35.2448 2.46308 0.00679618
37.5 0 0
39.1487 35.8216 3.84006
40.7485 35.8279 2
42.5276 35.7082 0.277809
28.5433 10.6961 2
26.6227 11.3932 3.97985
29.2263 12.6481 3.97933
37.5026 34.1409 3.83
39.1262 34.1922 2
40.6758 34.2308 0.201612
46.0158 31.606 0.0593148
43.4372 31.2882 0.128779
40.951 31.2481 0.204544
39.2674 32.3663 0.289428
44.2594 29.7881 2
41.8228 29.847 2
39.3616 30.5279 2
37.5102 32.2808 2
42.2682 28.4547 3.90803
39.8239 29.0019 3.87913
37.5133 30.3435 3.79114
35.7541 32.3659 3.71092
31.9162 14.4903 3.97745
34.0947 12.9403 2
35.6934 11.7802 0.0206134
31.1869 11.9883 2
33.0989 11.2209 0.0211945
30.4832 10.0212 0.0190266
45.3519 27.6915 -0.00065959
43.7311 24.1519 -0.00654961
35.7734 14.7676 0.0228766
41.329 20.8047 0.0206928
38.6821 17.6108 0.021593
33.609 15.8858 2
35.8488 17.5241 2
42.9428 26.539 2
38.4144 20.3911 2
40.8759 23.3543 2
33.5542 17.3987 3.97815
40.3343 25.7193 3.99433
38.068 23.0044 3.99769
35.583 20.1072 3.98077
37.4979 37.4978 3.88366
39.1418 37.4869 2
40.8153 37.4772 0.163746
41.8548 52.982 0.00638662
40.865 49.6405 0.00136292
39.1439 39.1629 0.159339
39.806 45.9933 0.140851
37.5015 44.6686 0.209487
37.5012 40.8773 0.168932
35.7449 42.6482 0.28813
39.7983 51.8596 2
37.4992 39.1641 2
35.878 40.8301 2
38.6851 48.6774 2
34.2204 42.3291 2
35.6466 44.4863 2
37.5106 46.328 2
37.6528 50.9296 4.00475
35.8558 39.181 3.84084
34.3353 40.7816 3.79866
33.1439 42.0007 3.65557
34.0451 43.746 3.79471
35.1764 45.9856 3.87111
36.8954 48.2721 3.93727
38.7248 53.8188 0.00584916
36.7378 53.1579 2
34.3877 52.4478 3.99698
34.4899 58.5133 0.0146387
36.3238 55.3311 0.00485577
33.2446 55.5004 2
30.5521 53.3469 3.97696
30.3079 57.818 0.0163312
28.7196 55.3161 2
26.9313 53.427 3.97182
26.9621 56.8249 0.02395
25.3421 55.1354 2
23.6279 53.4664 3.95947
20.5266 53.2022 3.96209
19.9524 55.8162 3.96729
21.8326 55.3349 2
23.856 56.7924 0.0353502
19.4468 57.8766 3.97274
20.2314 57.0164 2
19.7093 60.1959 3.97691
20.6511 58.7713 2
21.3459 57.3864 0.0301317
20.2078 62.8572 3.98021
21.168 61.1697 2
21.9977 59.6193 0.0227166
20.9379 65.7645 3.98596
21.8949 63.8381 2
22.7364 62.0202 0.020044
23.6812 64.7099 0.0164346
22.8366 66.7366 2
21.911 68.8719 3.99197
24.8082 67.5927 0.0127138
24.008 69.8052 2
23.1494 72.1454 4
26.1643 70.6038 0.00783508
25.446 73.0099 2
27.7943 73.7221 0
25.8604 9.38405 3.98199
27.07 6.54283 3.98627
27.8205 8.65432 2
28.488 3.64453 3.99215
29.1547 5.8776 2
29.8113 7.99528 0.0166393
30.1841 0.720592 4
30.7253 3.09813 2
31.2531 5.33254 0.0118472
32.6053 0.320817 2
32.9805 2.70135 0.00711342
35.0474 0.080333 0
37.5 35.8259 3.86272
39.1364 35.8317 2
40.7675 35.819 0.173383
24.7775 12.0775 3.98005
23.7529 14.366 3.97912
28.544 10.6971 0.0200529
26.6221 11.3928 2
29.2259 12.6469 2
27.2927 13.3817 3.97926
29.7823 14.2102 3.97912
35.8788 34.1734 3.81518
37.5023 34.1628 2
39.1292 34.1761 0.18428
37.5097 32.2779 0.267577
44.2535 29.8002 0.0687399
41.8055 29.8669 0.120866
39.3451 30.5622 0.200407
42.2937 28.4272 2
39.8354 28.9661 2
37.5164 30.32 2
35.7551 32.3746 2
40.0126 27.6354 3.9078
37.5144 28.7117 3.87439
35.6773 30.5716 3.80216
34.2396 32.6819 3.68942
30.9291 16.8527 3.97736
31.9162 14.4858 2
34.0939 12.9409 0.0227209
31.1873 11.991 0.0210585
42.9337 26.5392 0.00284503
40.8776 23.3685 -0.0108699
33.6101 15.8883 0.0233992
35.8513 17.5231 0.0210663
38.4146 20.3921 0.0198737
33.5509 17.4082 2
35.5853 20.1113 2
40.3382 25.7038 2
38.0608 22.9882 2
32.8669 19.8072 3.9839
37.7876 25.3126 4.00256
35.195 22.736 3.99303
35.8446 37.5026 3.86176
37.4978 37.4979 2
39.1532 37.487 0.138577
39.7967 51.8564 -0.00167333
38.6724 48.6399 0.0313111
37.4989 39.1766 0.136579
37.5122 46.2945 0.128535
35.6626 44.4556 0.202464
35.8744 40.8459 0.184557
34.2266 42.3308 0.310825
37.6399 50.9489 2
35.8687 39.1701 2
34.3469 40.768 2
36.8842 48.3075 2
33.1276 42.016 2
34.0174 43.7804 2
35.1614 46.0151 2
35.5076 50.0839 3.99463
34.2426 39.1767 3.8284
32.7841 40.875 3.70535
32.6683 42.6273 3.80254
33.1994 45.1297 3.87715
34.324 47.357 3.9128
36.739 53.1506 0.00021527
34.3838 52.4556 2
32.0631 51.1559 4.00304
33.2443 55.4981 0.00414408
30.5512 53.3533 2
28.4869 51.5634 3.97827
28.7202 55.3132 0.0214182
26.9304 53.4301 2
25.1526 51.7199 3.95903
25.3427 55.1319 0.0267721
23.6269 53.4683 2
22.0507 51.7786 3.95593
19.2916 51.6116 3.96337
18.9556 54.2913 3.96275
20.5259 53.2016 2
18.4609 56.7084 3.97032
19.9514 55.8175 2
21.834 55.3334 0.0342044
18.3737 59.0986 3.97194
19.4463 57.8776 2
20.232 57.0149 0.0265365
18.6201 61.7611 3.97546
19.7095 60.1975 2
20.6513 58.7704 0.0260683
19.1269 64.6746 3.98453
20.2077 62.8584 2
21.1678 61.1684 0.021936
19.8852 67.8085 3.99185
20.9379 65.7653 2
21.8949 63.8371 0.0175467
22.8365 66.7359 0.0132833
21.9105 68.872 2
20.9142 71.1327 4
24.0084 69.805 0.00774277
23.1494 72.1455 2
25.446 73.0099 0
23.097 12.793 3.97971
23.973 10.1717 3.98141
25.0237 7.31349 3.98533
25.8599 9.38348 2
26.2797 4.32875 3.99168
27.0694 6.54219 2
27.8212 8.65516 0.0171376
27.7943 1.27781 4
28.4873 3.64414 2
29.1552 5.87868 0.0127644
30.1841 0.720551 2
30.7258 3.09847 0.00741059
32.6053 0.320823 0
35.8536 35.8282 3.84007
37.4995 35.839 2
39.1487 35.8216 0.159942
24.7771 12.077 2
23.7531 14.3659 2
22.4821 15.0432 3.97922
25.3589 13.9147 3.97867
24.0283 15.6297 3.97944
26.6227 11.3932 0.020155
29.2263 12.6481 0.020674
27.2925 13.3813 2
29.7815 14.2083 2
28.36 15.9865 3.97855
34.3408 34.2382 3.79633
35.8815 34.1892 2
37.5026 34.1409 0.170001
35.7541 32.3659 0.289081
37.5133 30.3435 0.208859
42.2682 28.4547 0.0919655
39.8239 29.0019 0.12087
40.0261 27.6123 2
37.512 28.6845 2
35.6599 30.5358 2
34.2303 32.6844 2
37.5917 27.347 3.92203
35.191 29.016 3.87837
34.0609 31.2649 3.79511
33.1639 33.0115 3.65501
30.2141 19.3615 3.98175
30.928 16.8472 2
31.9162 14.4903 0.022547
40.3343 25.7193 0.00567141
38.068 23.0044 0.00230589
33.5542 17.3987 0.0218486
35.583 20.1072 0.0192328
32.8671 19.8172 2
35.1922 22.7279 2
37.7802 25.2944 2
32.3147 22.4736 3.99607
35.0122 25.2824 4.002
34.1862 37.5087 3.83727
35.8565 37.5034 2
37.4979 37.4978 0.11634
37.6528 50.9296 -0.00474511
36.8954 48.2721 0.0627312
35.8558 39.181 0.159159
35.1764 45.9856 0.128895
34.0451 43.746 0.205289
34.3353 40.7816 0.201335
33.1439 42.0007 0.344429
35.4983 50.0953 2
34.2656 39.168 2
32.792 40.8817 2
34.3086 47.3962 2
32.6293 42.6547 2
33.1825 45.1545 2
33.3186 49.0783 3.98951
32.4671 39.2889 3.72419
31.5345 41.1237 3.79356
31.5596 43.7151 3.8702
32.3598 46.2897 3.91082
34.3877 52.4478 0.00301853
32.0612 51.1656 2
29.9528 49.6751 3.98686
30.5521 53.3469 0.0230379
28.4853 51.5615 2
26.6055 49.9487 3.97009
26.9313 53.427 0.0281768
25.1513 51.7175 2
23.4497 50.1567 3.96478
23.6279 53.4664 0.0405329
22.0499 51.7773 2
20.5751 50.2852 3.96534
18.091 50.3066 3.96793
17.9041 52.7716 3.96403
19.2903 51.611 2
17.457 55.3264 3.96405
18.9529 54.2913 2
20.5266 53.2022 0.0379115
17.1435 57.8604 3.96965
18.4601 56.7091 2
19.9524 55.8162 0.0327136
17.1389 60.539 3.97464
18.3736 59.0998 2
19.4468 57.8766 0.0272627
17.4079 63.4653 3.981
18.6202 61.7624 2
19.7093 60.1959 0.0230867
17.9416 66.6171 3.99156
19.1268 64.6757 2
20.2078 62.8572 0.0197926
18.75 69.9759 4
19.8846 67.8085 2
20.9379 65.7645 0.0140388
21.911 68.8719 0.0080265
20.9142 71.1327 2
23.1494 72.1454 0
21.5882 13.6139 3.97927
22.191 11.0318 3.9807
23.097 12.793 2
23.0415 8.17964 3.98458
23.9725 10.1711 2
24.1173 5.14358 3.99123
25.0231 7.31285 2
25.8604 9.38405 0.0180126
25.446 1.99014 4
26.2789 4.32864 2
27.07 6.54283 0.0137329
27.7943 1.27778 2
28.488 3.64453 0.00785408
30.1841 0.720592 0
34.2364 35.8355 3.82516
35.8647 35.8385 2
37.5 35.8259 0.137281
21.3087 15.8399 3.98012
24.7775 12.0775 0.0199465
23.7529 14.366 0.0208785
25.3589 13.9143 2
22.4826 15.0434 2
24.0282 15.6302 2
23.2687 16.2613 3.97727
25.3842 16.0993 3.97907
27.2927 13.3817 0.0207417
29.7823 14.2102 0.0208799
28.3587 15.9872 2
27.4456 18.8145 3.98033
32.7995 34.1382 3.70396
34.3561 34.2525 2
35.8788 34.1734 0.184818
34.2396 32.6819 0.310582
35.6773 30.5716 0.197839
37.5144 28.7117 0.125607
40.0126 27.6354 0.0922036
37.5941 27.3143 2
33.147 32.9982 2
35.1864 28.979 2
34.0235 31.2235 2
35.0884 27.4744 3.92155
33.2072 29.8838 3.87312
32.685 32.379 3.79014
29.5974 21.9575 3.99505
30.2144 19.3705 2
30.9291 16.8527 0.0226443
37.7876 25.3126 -0.00255569
35.195 22.736 0.00696628
32.8669 19.8072 0.0161048
32.3144 22.4683 2
35.0295 25.2727 2
31.7791 25.695 4.00809
32.3416 37.5098 3.73397
34.2084 37.5093 2
35.8446 37.5026 0.138238
35.5076 50.0839 0.00536745
34.324 47.357 0.0871969
34.2426 39.1767 0.171599
33.1994 45.1297 0.122846
32.6683 42.6273 0.197462
32.7841 40.875 0.294648
33.3141 49.0729 2
32.4815 39.2866 2
31.5101 41.1467 2
32.3259 46.3182 2
31.5297 43.7432 2
31.2698 47.9139 3.98786
30.7852 39.4129 3.79275
30.2522 41.946 3.86347
30.5861 44.8843 3.93231
32.0631 51.1559 -0.00304121
29.9504 49.6744 2
28.016 48.1348 3.96595
28.4869 51.5634 0.0217328
26.6045 49.947 2
24.7919 48.4253 3.97279
25.1526 51.7199 0.0409702
23.4491 50.1542 2
21.8108 48.7499 3.96946
22.0507 51.7786 0.0440683
20.5736 50.2842 2
19.1622 49.0636 3.97208
16.9931 49.3098 3.97245
16.8485 51.3878 3.96664
18.0924 50.3055 2
16.4216 53.8564 3.9644
17.9015 52.7714 2
19.2916 51.6116 0.0366324
15.9893 56.4629 3.96631
17.456 55.3265 2
18.9556 54.2913 0.0372502
15.7545 59.2005 3.97116
17.1432 57.8615 2
18.4609 56.7084 0.0296841
15.7899 62.1327 3.97627
17.1391 60.5408 2
18.3737 59.0986 0.0280618
16.0888 65.2997 3.99027
17.4077 63.4668 2
18.6201 61.7611 0.024539
16.6661 68.6801 4
17.9408 66.6169 2
19.1269 64.6746 0.0154696
18.75 69.9759 2
19.8852 67.8085 0.00815389
20.9142 71.1327 0
20.2212 14.604 3.97805
21.5884 13.614 2
20.5304 12.0023 3.98001
21.1443 9.14988 3.98404
22.1908 11.0315 2
23.097 12.793 0.020294
22.0164 6.08275 3.99077
23.0409 8.17893 2
23.973 10.1717 0.0185851
23.1494 2.85457 4
24.1164 5.14359 2
25.0237 7.31349 0.0146689
25.446 1.99012 2
26.2797 4.32875 0.00831995
27.7943 1.27781 0
32.4669 35.727 3.71602
34.2552 35.8483 2
35.8536 35.8282 0.159931
21.3092 15.8394 2
20.3079 16.972 3.9815
22.1019 16.6465 3.97643
25.3589 13.9147 0.0213321
22.4821 15.0432 0.0207761
24.0283 15.6297 0.0205642
25.3837 16.0997 2
23.2689 16.2623 2
24.2104 18.4685 3.97403
27.037 21.4798 3.9911
28.36 15.9865 0.0214542
27.4472 18.8147 2
31.5572 33.8955 3.7923
32.8098 34.1317 2
34.3408 34.2382 0.203673
33.1639 33.0115 0.34499
34.0609 31.2649 0.204887
35.191 29.016 0.121635
37.5917 27.347 0.0779737
35.0726 27.4337 2
32.6186 32.3506 2
33.1924 29.8629 2
32.6406 28.1857 3.93289
31.5644 31.304 3.87191
28.8847 24.4377 3.98078
29.593 21.9677 2
30.2141 19.3615 0.0182499
35.0122 25.2824 -0.00200071
32.3147 22.4736 0.00393496
31.7809 25.6751 2
29.7685 27.3591 3.96748
30.454 37.5018 3.80169
32.3548 37.5075 2
34.1862 37.5087 0.162734
33.3186 49.0783 0.0104902
32.3598 46.2897 0.0891789
32.4671 39.2889 0.275806
31.5596 43.7151 0.129797
31.5345 41.1237 0.206439
31.2673 47.9171 2
30.7516 39.4321 2
30.2279 41.9624 2
30.5721 44.902 2
29.368 46.5169 4.00151
29.3508 39.8527 3.88363
28.9622 43.1126 3.93246
29.9528 49.6751 0.0131442
28.0143 48.1305 2
26.1348 46.6053 3.97677
26.6055 49.9487 0.0299145
24.7918 48.4231 2
23.0004 47.0289 3.97361
23.4497 50.1567 0.035216
21.8102 48.7486 2
20.1386 47.5839 3.97687
20.5751 50.2852 0.0346551
19.1639 49.0623 2
17.7874 48.1541 3.97609
16.2328 48.6639 3.97561
16.9944 49.3089 2
15.9262 50.1519 3.96996
15.4251 52.4011 3.96637
16.8486 51.3872 2
18.091 50.3066 0.0320733
14.883 54.9673 3.9654
16.4209 53.8563 2
17.9041 52.7716 0.0359734
14.4668 57.7289 3.96802
15.9891 56.4632 2
17.457 55.3264 0.0359516
14.2686 60.6865 3.97525
15.7547 59.2019 2
17.1435 57.8604 0.0303498
14.3339 63.8583 3.98714
15.7896 62.1339 2
17.1389 60.539 0.0253574
14.6715 67.2507 4
16.0876 65.2991 2
17.4079 63.4653 0.0189951
16.6661 68.6801 2
17.9416 66.6171 0.00844202
18.75 69.9759 0
18.9358 15.7903 3.97902
20.2214 14.6038 2
18.9805 13.114 3.97883
21.5882 13.6139 0.0207304
20.5305 12.0022 2
19.3435 10.2382 3.98344
19.991 7.14742 3.99046
21.1439 9.1495 2
22.191 11.0318 0.019298
20.9142 3.86727 4
22.0152 6.08292 2
23.0415 8.17964 0.0154156
23.1494 2.85451 2
24.1173 5.14358 0.00876878
25.446 1.99014 0
30.8031 35.6105 3.79608
32.4792 35.7285 2
34.2364 35.8355 0.174844
21.3087 15.8399 0.0198846
22.1023 16.6466 2
20.3085 16.9711 2
19.2555 18.4208 3.97502
21.7878 17.8637 3.97937
25.3842 16.0993 0.0209276
23.2687 16.2613 0.0227251
24.2114 18.4689 2
22.2988 19.9126 3.97027
24.6194 21.3497 3.98992
26.4935 23.7462 3.97031
27.0366 21.4784 2
27.4456 18.8145 0.019671
30.2821 33.0747 3.87578
31.5372 33.8608 2
32.7995 34.1382 0.296036
32.685 32.379 0.209862
33.2072 29.8838 0.126877
35.0884 27.4744 0.0784497
32.6109 28.1641 2
31.5306 31.2708 2
30.2767 29.6122 3.95033
28.0135 26.5761 3.98496
28.88 24.4533 2
29.5974 21.9575 0.00494868
31.7791 25.695 -0.00809188
29.7657 27.3291 2
28.9802 37.5143 3.88738
30.4384 37.5027 2
32.3416 37.5098 0.266026
31.2698 47.9139 0.0121421
30.5861 44.8843 0.0676931
30.7852 39.4129 0.207247
30.2522 41.946 0.13653
29.3677 46.5285 2
29.3217 39.8713 2
28.9349 43.1365 2
27.5377 44.8162 3.97633
27.1223 40.5893 3.95582
28.016 48.1348 0.0340451
26.1313 46.6076 2
24.2457 45.1526 3.97586
24.7919 48.4253 0.0272114
23.0003 47.0277 2
21.1132 45.8525 3.97836
21.8108 48.7499 0.0305437
20.1385 47.5827 2
18.4674 46.7085 3.97822
19.1622 49.0636 0.0279182
17.7889 48.1531 2
16.4368 47.6934 3.97676
16.2338 48.6632 2
15.2708 48.9986 3.97309
16.9931 49.3098 0.0275453
15.9274 50.1512 2
14.5403 50.9711 3.9681
13.8498 53.4253 3.96604
15.426 52.4007 2
16.8485 51.3878 0.033363
13.2633 56.1594 3.96743
14.8829 54.9674 2
16.4216 53.8564 0.0355978
12.8524 59.1198 3.97309
14.4671 57.7296 2
15.9893 56.4629 0.0336861
12.6798 62.3005 3.9846
14.2685 60.6872 2
15.7545 59.2005 0.0288373
12.7746 65.6939 4
14.3323 63.857 2
15.7899 62.1327 0.0237262
14.6714 67.2507 2
16.0888 65.2997 0.00972623
16.6661 68.6801 0
17.674 17.1671 3.97383
18.9362 15.79 2
17.5125 14.3787 3.978
20.2212 14.604 0.0219493
18.9807 13.1136 2
17.639 11.4576 3.98229
20.5304 12.0023 0.0199861
19.3433 10.2379 2
18.0511 8.34025 3.99024
18.75 5.0241 4
19.9897 7.14804 2
21.1443 9.14988 0.0159576
20.9142 3.86727 2
22.0164 6.08275 0.00923095
23.1494 2.85457 0
29.3689 35.1483 3.88588
30.7633 35.5859 2
32.4669 35.727 0.283983
22.1019 16.6465 0.0235683
20.3079 16.972 0.018504
21.7885 17.8635 2
19.2561 18.4196 2
18.0053 19.9568 3.96623
20.8939 19.3947 3.97549
24.2104 18.4685 0.0259681
22.2991 19.9123 2
24.6192 21.3502 2
22.3986 21.7428 3.97694
24.7626 23.1902 3.97599
25.5996 25.9752 3.97507
26.4951 23.7455 2
27.037 21.4798 0.00890368
28.6621 32.3868 3.93411
30.2533 33.0556 2
31.5572 33.8955 0.207704
31.5644 31.304 0.128086
32.6406 28.1857 0.0671145
30.272 29.6117 2
27.2205 29.1628 4.00529
28.0074 26.5885 2
28.8847 24.4377 0.0192167
29.7685 27.3591 0.0325209
27.2372 37.3667 3.93658
28.9337 37.5063 2
30.454 37.5018 0.198314
29.368 46.5169 -0.00150821
28.9622 43.1126 0.0675434
29.3508 39.8527 0.11637
27.5303 44.8397 2
27.1049 40.5993 2
25.5591 43.128 3.9879
24.3769 39.4495 3.97671
26.1348 46.6053 0.0232255
24.2389 45.1528 2
22.1332 43.9036 3.97827
23.0004 47.0289 0.0263903
21.1117 45.8515 2
19.1647 44.9391 3.97806
20.1386 47.5839 0.0231331
18.4683 46.7074 2
16.7522 46.1913 3.97731
17.7874 48.1541 0.0239102
16.4379 47.6927 2
15.0152 47.6535 3.97465
16.2328 48.6639 0.0243899
15.2721 48.998 2
13.8403 49.5333 3.97005
15.9262 50.1519 0.0300357
14.5413 50.9707 2
12.9196 51.8659 3.96706
12.1497 54.5215 3.96774
13.8494 53.4252 2
15.4251 52.4011 0.033634
11.5382 57.4529 3.97176
13.2637 56.1594 2
14.883 54.9673 0.0345962
11.1347 60.6262 3.98226
12.8527 59.1199 2
14.4668 57.7289 0.0319761
10.9835 64.0165 4
12.6781 62.2983 2
14.2686 60.6865 0.0247455
12.7745 65.694 2
14.3339 63.8583 0.0128644
14.6715 67.2507 0
16.4141 18.6657 3.9669
17.6742 17.1663 2
16.1048 15.7887 3.97624
18.9358 15.7903 0.0209846
17.5128 14.3781 2
16.0209 12.8118 3.9804
18.9805 13.114 0.0211657
17.639 11.4572 2
16.2023 9.66329 3.98988
19.3435 10.2382 0.0165628
18.0498 8.34123 2
16.6661 6.31991 4
18.75 5.02404 2
19.991 7.14742 0.00954232
20.9142 3.86727 0
27.7653 34.7936 3.92914
29.3393 35.1285 2
30.8031 35.6105 0.203921
16.7204 21.3928 3.96371
21.7878 17.8637 0.0206269
19.2555 18.4208 0.0249831
20.8942 19.394 2
18.0059 19.9557 2
19.7669 21.5933 3.97296
22.2988 19.9126 0.0297309
24.6194 21.3497 0.0100766
22.3985 21.7428 2
24.763 23.1899 2
22.9485 24.6253 3.9722
24.7615 28.5556 3.97792
25.5978 25.9738 2
26.4935 23.7462 0.0296886
26.5088 31.7437 3.9844
28.6343 32.3638 2
30.2821 33.0747 0.124223
30.2767 29.6122 0.0496652
27.2424 29.1476 2
28.0135 26.5761 0.0150388
25.0661 36.8598 3.98429
27.2174 37.3588 2
28.9802 37.5143 0.112621
27.5377 44.8162 0.0236696
27.1223 40.5893 0.0441793
25.5434 43.1387 2
24.3611 39.4486 2
23.2726 41.8107 3.97976
22.0949 38.5186 3.97782
24.2457 45.1526 0.0241386
22.1311 43.904 2
19.9798 42.8693 3.97708
21.1132 45.8525 0.0216356
19.1644 44.9388 2
17.1187 44.3577 3.97705
18.4674 46.7085 0.0217821
16.7537 46.1908 2
14.9558 46.0742 3.97511
16.4368 47.6934 0.0232359
15.0164 47.6529 2
13.3558 47.9965 3.97147
15.2708 48.9986 0.0269104
13.8414 49.5329 2
12.14 50.2454 3.96779
14.5403 50.9711 0.0319003
12.9199 51.8657 2
11.1449 52.8327 3.96776
10.3286 55.7077 3.9722
12.1502 54.5214 2
13.8498 53.4253 0.0339566
9.70153 58.8483 3.98042
11.5385 57.4526 2
13.2633 56.1594 0.0325688
9.30605 62.2254 4
11.1331 60.6234 2
12.8524 59.1198 0.0269118
10.9835 64.0165 2
12.6798 62.3005 0.0153966
12.7746 65.6939 0
15.1633 20.1987 3.96689
16.4144 18.6651 2
14.7547 17.3145 3.97017
17.674 17.1671 0.0261671
16.1051 15.7877 2
14.4839 14.2947 3.9785
17.5125 14.3787 0.0220045
16.0209 12.811 2
14.4451 11.1145 3.98903
17.639 11.4576 0.0177056
16.201 9.66455 2
14.6715 7.74927 4
18.0511 8.34025 0.00975959
16.6661 6.31988 2
18.75 5.0241 0
25.7238 34.2822 3.99125
27.7437 34.7994 2
29.3689 35.1483 0.114117
17.9119 22.3424 3.96918
15.5627 22.9331 3.96748
16.721 21.3925 2
20.8939 19.3947 0.0245053
18.0053 19.9568 0.0337669
19.7671 21.5928 2
19.7723 24.4056 3.97001
22.3986 21.7428 0.023061
24.7626 23.1902 0.0240062
22.9482 24.6251 2
22.1298 27.8559 3.97242
24.0656 31.2256 3.9763
24.7764 28.5558 2
25.5996 25.9752 0.0249251
26.4931 31.7198 2
28.6621 32.3868 0.0658876
27.2205 29.1628 -0.00528854
22.8183 36.2869 3.98208
25.0465 36.8575 2
27.2372 37.3667 0.0634209
25.5591 43.128 0.0120956
24.3769 39.4495 0.0232887
23.2631 41.8091 2
22.0873 38.5165 2
21.0027 40.6381 3.97591
20.3994 37.8018 3.97708
22.1332 43.9036 0.0217261
19.9785 42.8696 2
17.5752 42.0775 3.97685
19.1647 44.9391 0.0219416
17.1201 44.3573 2
14.9841 44.1852 3.97585
16.7522 46.1913 0.0226909
14.9568 46.0737 2
13.0418 46.2841 3.97237
15.0152 47.6535 0.0253473
13.3567 47.9961 2
11.5152 48.543 3.96834
13.8403 49.5333 0.0299507
12.1405 50.2452 2
10.2703 51.0776 3.9677
12.9196 51.8659 0.0329416
11.1455 52.8324 2
9.23733 53.8876 3.97173
8.38491 56.9815 3.98091
10.329 55.7071 2
12.1497 54.5215 0.0322615
7.74927 60.3285 4
9.70032 58.8449 2
11.5382 57.4529 0.0282407
9.306 62.2255 2
11.1347 60.6262 0.0177422
10.9835 64.0165 0
13.979 21.7624 3.966
15.164 20.1986 2
13.4592 18.9126 3.96741
16.4141 18.6657 0.0330975
14.7551 17.3134 2
13.0308 15.8894 3.9754
16.1048 15.7887 0.0237572
14.4839 14.2937 2
12.7827 12.6882 3.98735
16.0209 12.8118 0.0195987
14.4437 11.1161 2
12.7746 9.30605 4
16.2023 9.66329 0.0101218
14.6715 7.74924 2
16.6661 6.31991 0
23.4008 33.8239 3.98351
25.7016 34.272 2
27.7653 34.7936 0.0708645
17.7116 24.063 3.97056
17.9122 22.3422 2
14.379 24.4655 3.96953
15.5635 22.933 2
16.7204 21.3928 0.0362884
19.2181 27.2321 3.97151
19.7669 21.5933 0.0270416
19.7705 24.4053 2
21.4446 30.6967 3.97478
22.9485 24.6253 0.0277981
22.1391 27.857 2
24.0487 31.2229 2
24.7615 28.5556 0.022081
26.5088 31.7437 0.0155978
20.5218 35.9485 3.97726
22.8157 36.2812 2
25.0661 36.8598 0.0157077
23.2726 41.8107 0.020235
22.0949 38.5186 0.0221813
21.0089 40.6378 2
20.4037 37.8016 2
18.316 39.0069 3.97742
19.9798 42.8693 0.0229237
17.5768 42.077 2
14.9668 41.9059 3.977
17.1187 44.3577 0.0229514
14.9857 44.1847 2
12.7994 44.3817 3.97295
14.9558 46.0742 0.0248854
13.0427 46.2838 2
11.0216 46.7274 3.96883
13.3558 47.9965 0.028533
11.5157 48.5428 2
9.53342 49.2382 3.96742
12.14 50.2454 0.0322113
10.2707 51.0774 2
8.2702 52.0014 3.97136
11.1449 52.8327 0.0322434
9.23777 53.8869 2
7.19384 55.0323 3.98177
6.31991 58.3339 4
8.38402 56.9781 2
10.3286 55.7077 0.0278011
7.74924 60.3285 2
9.70153 58.8483 0.0195818
9.30605 62.2254 0
13.2785 25.3742 3.97179
12.857 23.2905 3.96697
13.979 21.7622 2
12.2449 20.5584 3.96798
15.1633 20.1987 0.0331065
13.46 18.9122 2
11.6628 17.5714 3.9724
14.7547 17.3145 0.0298321
13.0311 15.8885 2
11.2205 14.3738 3.98431
14.4839 14.2947 0.0214967
12.7811 12.6901 2
10.9835 10.9835 4
14.4451 11.1145 0.0109696
12.7745 9.306 2
14.6715 7.74927 0
20.8787 33.4263 3.97577
23.4044 33.8343 2
25.7238 34.2822 0.00874705
16.0302 26.4224 3.97179
17.7116 24.0629 2
17.9119 22.3424 0.0308214
14.3789 24.4656 2
15.5627 22.9331 0.0325192
18.59 30.2006 3.97491
19.218 27.2322 2
19.7723 24.4056 0.0299911
21.4487 30.6972 2
22.1298 27.8559 0.0275764
24.0656 31.2256 0.0236959
17.9277 35.9816 3.97809
20.52 35.9508 2
22.8183 36.2869 0.0179167
21.0027 40.6381 0.0240948
20.3994 37.8018 0.0229199
18.3165 39.0068 2
14.4721 39.1718 3.97765
17.5752 42.0775 0.0231464
14.9685 41.9055 2
12.5018 42.2689 3.97305
14.9841 44.1852 0.0241503
12.8004 44.3814 2
10.6075 44.7966 3.9694
13.0418 46.2841 0.0276299
11.022 46.7271 2
8.91559 47.3177 3.9672
11.5152 48.543 0.0316622
9.53363 49.2379 2
7.43715 50.035 3.97077
10.2703 51.0776 0.0323005
8.27055 52.0007 2
6.13449 53.0074 3.98214
9.23733 53.8876 0.0282665
7.19329 55.0294 2
5.0241 56.25 4
6.31988 58.3339 2
8.38491 56.9815 0.0190861
7.74927 60.3285 0
13.5425 26.828 3.97134
11.9625 24.7954 3.96864
13.2779 25.3742 2
11.1472 22.2397 3.96782
12.857 23.2905 2
13.979 21.7624 0.0339973
12.246 20.5583 2
10.3938 19.3244 3.972
13.4592 18.9126 0.0325943
11.6636 17.5712 2
9.76197 16.1582 3.98111
13.0308 15.8894 0.0246007
11.2189 14.3765 2
9.30607 12.7746 4
12.7827 12.6882 0.0126455
10.9835 10.9835 2
12.7746 9.30605 0
18.1019 33.1353 3.97719
20.8829 33.4267 2
23.4008 33.8239 0.0164871
15.652 29.6573 3.974
16.0299 26.4227 2
17.7116 24.063 0.0294431
14.379 24.4655 0.030474
18.5873 30.2006 2
19.2181 27.2321 0.0284855
21.4446 30.6967 0.0252168
15.0903 36.0283 3.97775
17.9305 35.9819 2
20.5218 35.9485 0.0227443
12.7199 37.8295 3.97765
18.316 39.0069 0.022582
14.4731 39.1717 2
12.0119 40.1363 3.97389
14.9668 41.9059 0.0229977
12.5025 42.2687 2
10.2157 42.7731 3.96975
12.7994 44.3817 0.0270548
10.6078 44.7964 2
8.39397 45.3197 3.96715
11.0216 46.7274 0.0311743
8.91567 47.3174 2
6.72846 48.0002 3.9703
9.53342 49.2382 0.0325819
7.43732 50.0344 2
5.21133 50.9108 3.98187
8.2702 52.0014 0.0286373
6.13421 53.0055 2
3.86727 54.0858 4
7.19384 55.0323 0.0182327
5.02404 56.25 2
6.31991 58.3339 0
13.0166 29.0462 3.97094
11.4039 26.4952 3.96881
13.5418 26.8281 2
10.2051 23.9708 3.96793
11.9631 24.7955 2
13.2785 25.3742 0.0282091
9.24603 21.1411 3.9716
11.1481 22.2397 2
12.857 23.2905 0.033027
12.2449 20.5584 0.0320176
10.3948 19.3247 2
8.41786 18.0295 3.98053
11.6628 17.5714 0.0275968
9.76068 16.1618 2
7.74928 14.6715 4
11.2205 14.3738 0.0156852
9.30602 12.7745 2
10.9835 10.9835 0
14.6493 32.8771 3.97615
18.1008 33.1358 2
20.8787 33.4263 0.0242283
15.6525 29.6577 2
16.0302 26.4224 0.0282112
18.59 30.2006 0.0250857
13.0158 36.2131 3.97648
15.0916 36.0288 2
17.9277 35.9816 0.0219073
12.721 37.8294 2
11.3537 38.3089 3.97446
14.4721 39.1718 0.0223534
12.0133 40.1361 2
9.80286 40.7512 3.97039
12.5018 42.2689 0.0269527
10.2164 42.7728 2
7.94305 43.2689 3.96742
10.6075 44.7966 0.0305986
8.394 45.3195 2
6.13461 45.9054 3.96994
8.91559 47.3177 0.032803
6.72853 47.9997 2
4.42289 48.7515 3.98119
7.43715 50.035 0.0292296
5.2112 50.9098 2
2.85457 51.8506 4
6.13449 53.0074 0.0178557
3.86727 54.0858 2
5.0241 56.25 0
12.1629 31.2673 3.9722
10.8262 28.4227 3.96901
13.0176 29.0464 2
9.41962 25.8001 3.96775
11.4039 26.4953 2
13.5425 26.828 0.0286607
8.2328 23.0246 3.97132
10.2057 23.9709 2
11.9625 24.7954 0.0313642
7.19988 19.9792 3.98119
9.24691 21.1416 2
11.1472 22.2397 0.0321802
10.3938 19.3244 0.0279986
8.41715 18.0331 2
6.31992 16.6661 4
9.76197 16.1582 0.0188907
7.74926 14.6714 2
9.30607 12.7746 0
12.188 34.3014 3.97607
14.6499 32.8774 2
18.1019 33.1353 0.0228078
15.652 29.6573 0.0259999
10.9136 36.6127 3.97386
13.0165 36.2132 2
15.0903 36.0283 0.0222514
12.7199 37.8295 0.0223454
11.3548 38.3088 2
9.39372 38.8222 3.97065
12.0119 40.1363 0.0261142
9.80348 40.751 2
7.55414 41.2107 3.9678
10.2157 42.7731 0.0302455
7.94274 43.2686 2
5.64645 43.7683 3.9699
8.39397 45.3197 0.0328541
6.13472 45.9049 2
3.76849 46.5371 3.98068
6.72846 48.0002 0.0296955
4.42292 48.751 2
1.99014 49.554 4
5.21133 50.9108 0.0181273
2.85451 51.8506 2
3.86727 54.0858 0
10.9954 32.9261 3.97407
10.1453 30.3889 3.96943
12.164 31.2676 2
8.72887 27.7336 3.96756
10.8266 28.4229 2
13.0166 29.0462 0.0290588
7.35827 24.9832 3.9708
9.41988 25.8003 2
11.4039 26.4952 0.0311927
6.11678 22.0024 3.98196
8.23341 23.0251 2
10.2051 23.9708 0.0320707
5.02411 18.75 4
7.19956 19.9822 2
9.24603 21.1411 0.0283957
8.41786 18.0295 0.0194678
6.3199 16.6661 2
7.74928 14.6715 0
10.515 35.0036 3.97357
12.1891 34.3016 2
14.6493 32.8771 0.0238515
9.05908 36.9854 3.97108
10.915 36.6127 2
13.0158 36.2131 0.0235238
11.3537 38.3089 0.0255351
9.39477 38.8221 2
7.2347 39.182 3.96804
9.80286 40.7512 0.0296076
7.55431 41.2105 2
5.26165 41.614 3.96973
7.94305 43.2689 0.0325777
5.64652 43.7679 2
3.2462 44.2819 3.98065
6.13461 45.9054 0.0300599
3.76864 46.5368 2
1.27781 47.2057 4
4.42289 48.7515 0.0188087
1.99012 49.554 2
2.85457 51.8506 0
10.1505 33.886 3.97404
9.42945 32.1594 3.97019
10.9963 32.9263 2
8.07798 29.697 3.96767
10.1458 30.3891 2
12.1629 31.2673 0.0277987
6.60196 27.009 3.97037
8.72874 27.7337 2
10.8262 28.4227 0.030993
5.17217 24.0951 3.98193
7.35857 24.9836 2
9.41962 25.8001 0.0322465
3.86728 20.9142 4
6.11668 22.0043 2
8.2328 23.0246 0.0286805
5.02406 18.75 2
7.19988 19.9792 0.0188078
6.31992 16.6661 0
8.88035 35.2814 3.9713
10.516 35.0036 2
12.188 34.3014 0.0239297
7.01712 37.2062 3.96801
9.05968 36.9853 2
10.9136 36.6127 0.026145
9.39372 38.8222 0.0293487
7.23511 39.1819 2
4.98931 39.4673 3.96982
7.55414 41.2107 0.0322048
5.26198 41.6137 2
2.85667 42.0022 3.98056
5.64645 43.7683 0.030105
3.24627 44.2818 2
0.720592 44.8159 4
3.76849 46.5371 0.0193224
1.27778 47.2057 2
1.99014 49.554 0
8.91862 33.7009 3.97114
10.1514 33.8861 2
7.51474 31.6103 3.96786
9.43016 32.1595 2
10.9954 32.9261 0.025931
5.94696 29.0699 3.97038
8.07767 29.6971 2
10.1453 30.3889 0.0305688
4.35989 26.2475 3.98135
6.60206 27.0093 2
8.72887 27.7336 0.0324449
2.85458 23.1494 4
5.17216 24.0959 2
7.35827 24.9832 0.0291999
3.86728 20.9142 2
6.11678 22.0024 0.0180379
5.02411 18.75 0
6.96668 35.3067 3.96827
8.88119 35.2813 2
10.515 35.0036 0.0264283
4.83944 37.3397 3.97028
7.01725 37.2062 2
9.05908 36.9854 0.0289228
7.2347 39.182 0.0319615
4.98967 39.4672 2
2.60474 39.7139 3.98043
5.26165 41.614 0.0302731
2.85696 42.0023 2
0.320823 42.3947 4
3.2462 44.2819 0.0193545
0.720551 44.8159 2
1.27781 47.2057 0
7.12684 33.4617 3.96809
8.91913 33.701 2
10.1505 33.886 0.0259565
5.41771 31.1338 3.97051
7.51463 31.6104 2
9.42945 32.1594 0.0298146
3.68157 28.4434 3.98092
5.94701 29.0702 2
8.07798 29.697 0.0323339
1.99015 25.446 4
4.35994 26.2477 2
6.60196 27.009 0.0296283
2.85453 23.1494 2
5.17217 24.0951 0.0180726
3.86728 20.9142 0
4.85352 35.2516 3.97074
6.96705 35.3067 2
8.88035 35.2814 0.0286984
2.49617 37.4285 3.98101
4.83947 37.3398 2
7.01712 37.2062 0.0319906
4.98931 39.4673 0.0301777
2.60511 39.7142 2
0.080333 39.9526 4
2.85667 42.0022 0.0194398
0.320817 42.3947 2
0.720592 44.8159 0
5.04698 33.1903 3.97065
7.12695 33.4618 2
8.91862 33.7009 0.0288633
3.14583 30.6661 3.98076
5.41779 31.1341 2
7.51474 31.6103 0.0321367
1.27793 27.7943 4
3.6817 28.4435 2
5.94696 29.0699 0.029624
1.99013 25.446 2
4.35989 26.2475 0.0186533
2.85458 23.1494 0
2.5482 35.159 3.98108
4.8539 35.2518 2
6.96668 35.3067 0.031732
0 37.5 4
2.49621 37.4289 2
4.83944 37.3397 0.029723
2.60474 39.7139 0.0195734
0.0802903 39.9526 2
0.320823 42.3947 0
2.76584 32.9057 3.98114
5.04708 33.1906 2
7.12684 33.4617 0.0319086
0.721173 30.1842 4
3.14601 30.6665 2
5.41771 31.1338 0.0294926
1.27779 27.7943 2
3.68157 28.4434 0.0190797
1.99015 25.446 0
0.0806499 35.0474 4
2.54862 35.1594 2
4.85352 35.2516 0.0292581
0 37.5 2
2.49617 37.4285 0.0189858
0.080333 39.9526 0
0.32156 32.6054 4
2.76593 32.9062 2
5.04698 33.1903 0.029352
0.72056 30.1841 2
3.14583 30.6661 0.0192436
1.27793 27.7943 0
0.0802889 35.0474 2
2.5482 35.159 0.0189179
0 37.5 0
0.320817 32.6053 2
2.76584 32.9057 0.0188583
0.721173 30.1842 0
0.0806499 35.0474 0
0.32156 32.6054 0
CELLS 1910 17190
8 18 6 25 56 2 0 5 16
8 57 23 6 18 17 4 0 2
8 78 36 9 29 31 11 1 7
8 31 11 1 7 79 37 10 30
8 110 57 18 50 48 17 2 14
8 50 18 56 111 14 2 16 49
8 116 62 22 55 52 20 3 15
8 56 25 67 118 16 5 24 53
8 119 63 23 57 54 21 4 17
8 55 22 63 119 15 3 21 54
8 58 26 68 121 18 6 25 56
8 122 65 26 58 57 23 6 18
8 73 31 7 27 142 79 30 71
8 143 78 29 72 73 31 7 27
8 83 147 76 34 32 74 28 8
8 84 148 78 36 33 75 29 9
8 76 34 8 28 148 84 33 75
8 37 79 150 86 10 30 77 35
8 151 87 36 78 80 38 11 31
8 80 38 11 31 152 88 37 79
8 175 100 42 94 96 44 12 40
8 44 96 176 101 12 40 95 43
8 101 176 98 46 43 95 41 13
8 46 98 178 103 13 41 97 45
8 178 103 45 97 147 83 32 74
8 189 116 55 109 106 52 15 47
8 111 56 118 191 49 16 53 107
8 192 119 57 110 108 54 17 48
8 109 55 119 192 47 15 54 108
8 194 122 58 112 110 57 18 50
8 112 58 121 195 50 18 56 111
8 115 61 19 51 197 124 59 113
8 115 61 125 198 51 19 60 114
8 198 125 62 116 114 60 20 52
8 200 127 64 120 116 62 22 55
8 118 67 132 202 53 24 66 117
8 121 68 133 203 56 25 67 118
8 120 64 128 204 55 22 63 119
8 204 128 65 122 119 63 23 57
8 206 134 68 121 123 69 26 58
8 123 69 26 58 207 131 65 122
8 226 147 74 138 140 76 28 70
8 229 148 75 139 143 78 29 72
8 140 76 28 70 229 148 75 139
8 142 79 30 71 231 150 77 141
8 144 80 31 73 232 152 79 142
8 233 151 78 143 144 80 31 73
8 150 86 35 77 235 154 81 145
8 235 154 81 145 146 82 39 91
8 146 82 39 91 236 155 90 165
8 238 157 83 147 149 85 34 76
8 239 158 84 148 151 87 36 78
8 149 85 34 76 239 158 84 148
8 152 88 37 79 241 160 86 150
8 242 161 87 151 153 89 38 80
8 153 89 38 80 243 162 88 152
8 171 98 41 92 265 178 97 169
8 265 178 97 169 226 147 74 138
8 172 96 40 93 266 176 95 170
8 266 176 95 170 171 98 41 92
8 269 175 94 173 172 96 40 93
8 271 180 99 174 175 100 42 94
8 197 124 59 113 271 180 99 174
8 272 181 100 175 177 102 44 96
8 273 182 101 176 179 104 46 98
8 177 102 44 96 273 182 101 176
8 179 104 46 98 275 184 103 178
8 275 184 103 178 238 157 83 147
8 188 115 51 105 283 197 113 186
8 188 115 198 284 105 51 114 187
8 284 198 116 189 187 114 52 106
8 286 200 120 193 189 116 55 109
8 191 118 202 288 107 53 117 190
8 195 121 203 289 111 56 118 191
8 193 120 204 290 109 55 119 192
8 290 204 122 194 192 119 57 110
8 196 123 58 112 292 207 122 194
8 293 206 121 195 196 123 58 112
8 199 126 61 115 297 211 124 197
8 298 212 127 200 198 125 62 116
8 199 126 212 298 115 61 125 198
8 205 129 64 120 300 214 127 200
8 301 217 130 201 202 132 66 117
8 209 136 168 264 301 217 130 201
8 302 219 132 202 203 133 67 118
8 303 220 133 203 206 134 68 121
8 205 129 215 304 120 64 128 204
8 304 215 131 207 204 128 65 122
8 306 221 134 206 208 135 69 123
8 208 135 69 123 307 218 131 207
8 210 137 167 263 309 223 136 209
8 328 238 147 226 230 149 76 140
8 228 146 91 166 329 236 165 260
8 231 150 77 141 330 235 145 227
8 330 235 145 227 228 146 91 166
8 332 239 148 229 233 151 78 143
8 230 149 76 140 332 239 148 229
8 232 152 79 142 334 241 150 231
8 234 153 80 144 335 243 152 232
8 336 242 151 233 234 153 80 144
8 236 155 90 165 338 245 164 259
8 241 160 86 150 339 246 154 235
8 339 246 154 235 237 156 82 146
8 237 156 82 146 340 247 155 236
8 342 249 157 238 240 159 85 149
8 343 250 158 239 242 161 87 151
8 240 159 85 149 343 250 158 239
8 243 162 88 152 345 252 160 241
8 244 163 253 346 153 89 161 242
8 244 163 89 153 347 254 162 243
8 311 224 261 371 210 137 167 263
8 263 167 262 372 209 136 168 264
8 267 179 98 171 375 275 178 265
8 375 275 178 265 328 238 147 226
8 376 273 176 266 267 179 98 171
8 268 177 96 172 376 273 176 266
8 379 272 175 269 268 177 96 172
8 380 271 174 270 269 175 94 173
8 283 197 113 186 380 271 174 270
8 381 277 180 271 272 181 100 175
8 297 211 124 197 381 277 180 271
8 382 278 181 272 274 183 102 177
8 274 183 102 177 383 279 182 273
8 383 279 182 273 276 185 104 179
8 385 281 184 275 342 249 157 238
8 276 185 104 179 385 281 184 275
8 285 199 115 188 393 297 197 283
8 394 298 200 286 284 198 116 189
8 285 199 298 394 188 115 198 284
8 291 205 120 193 396 300 200 286
8 397 301 201 287 288 202 117 190
8 295 209 264 374 397 301 201 287
8 398 302 202 288 289 203 118 191
8 399 303 203 289 293 206 121 195
8 291 205 304 400 193 120 204 290
8 400 304 207 292 290 204 122 194
8 294 208 123 196 402 307 207 292
8 403 306 206 293 294 208 123 196
8 296 210 263 373 405 309 209 295
8 408 312 213 299 297 211 126 199
8 299 213 313 409 199 126 212 298
8 409 313 214 300 298 212 127 200
8 305 216 129 205 411 315 214 300
8 412 318 217 301 302 219 132 202
8 309 223 136 209 412 318 217 301
8 413 320 219 302 303 220 133 203
8 306 221 321 414 206 134 220 303
8 307 218 131 207 415 316 215 304
8 305 216 316 415 205 129 215 304
8 417 322 221 306 308 222 135 208
8 308 222 135 208 418 319 218 307
8 310 225 137 210 420 325 223 309
8 423 326 224 311 310 225 137 210
8 329 236 165 260 441 338 259 368
8 442 342 238 328 333 240 149 230
8 331 237 146 228 443 340 236 329
8 334 241 150 231 444 339 235 330
8 444 339 235 330 331 237 146 228
8 446 343 239 332 336 242 151 233
8 333 240 149 230 446 343 239 332
8 335 243 152 232 448 345 241 334
8 337 244 153 234 449 347 243 335
8 337 244 346 450 234 153 242 336
8 338 245 164 259 452 349 258 367
8 340 247 155 236 453 350 245 338
8 345 252 160 241 454 351 246 339
8 454 351 246 339 341 248 156 237
8 341 248 156 237 455 352 247 340
8 240 159 251 344 342 249 354 457
8 242 161 253 346 343 250 355 458
8 343 250 355 458 240 159 251 344
8 347 254 162 243 460 357 252 345
8 348 255 358 461 244 163 253 346
8 348 255 163 244 462 359 254 347
8 473 360 257 365 363 256 364 482
8 452 349 258 367 365 257 366 485
8 422 324 369 488 311 224 261 371
8 371 261 370 490 263 167 262 372
8 407 311 371 491 296 210 263 373
8 373 263 372 492 295 209 264 374
8 493 385 275 375 442 342 238 328
8 377 276 179 267 493 385 275 375
8 378 274 177 268 494 383 273 376
8 494 383 273 376 377 276 179 267
8 497 382 272 379 378 274 177 268
8 498 381 271 380 379 272 175 269
8 393 297 197 283 498 381 271 380
8 499 387 277 381 382 278 181 272
8 408 312 211 297 499 387 277 381
8 500 388 278 382 384 280 183 274
8 501 389 279 383 386 282 185 276
8 384 280 183 274 501 389 279 383
8 386 282 185 276 503 391 281 385
8 503 391 281 385 457 354 249 342
8 511 408 299 395 393 297 199 285
8 395 299 409 512 285 199 298 394
8 512 409 300 396 394 298 200 286
8 401 305 205 291 514 411 300 396
8 515 412 301 397 398 302 202 288
8 405 309 209 295 515 412 301 397
8 516 413 302 398 399 303 203 289
8 403 306 414 517 293 206 303 399
8 402 307 207 292 518 415 304 400
8 401 305 415 518 291 205 304 400
8 404 308 208 294 520 418 307 402
8 521 417 306 403 404 308 208 294
8 406 310 210 296 523 420 309 405
8 526 423 311 407 406 310 210 296
8 410 314 213 299 527 424 312 408
8 528 425 315 411 409 313 214 300
8 410 314 425 528 299 213 313 409
8 416 317 216 305 530 427 315 411
8 531 430 318 412 413 320 219 302
8 420 325 223 309 531 430 318 412
8 532 432 320 413 414 321 220 303
8 417 322 433 533 306 221 321 414
8 418 319 218 307 534 428 316 415
8 416 317 428 534 305 216 316 415
8 419 323 434 536 308 222 322 417
8 419 323 222 308 537 431 319 418
8 421 327 225 310 539 438 325 420
8 421 327 439 541 310 225 326 423
8 543 437 324 422 423 326 224 311
8 441 338 259 368 559 452 367 486
8 443 340 236 329 560 453 338 441
8 333 240 344 447 442 342 457 561
8 445 341 237 331 562 455 340 443
8 448 345 241 334 563 454 339 444
8 563 454 339 444 445 341 237 331
8 336 242 346 450 446 343 458 565
8 446 343 458 565 333 240 344 447
8 449 347 243 335 567 460 345 448
8 451 348 244 337 568 462 347 449
8 451 348 461 569 337 244 346 450
8 570 463 349 452 473 360 257 365
8 453 350 245 338 570 463 349 452
8 455 352 247 340 571 464 350 453
8 460 357 252 345 572 465 351 454
8 572 465 351 454 456 353 248 341
8 456 353 248 341 573 466 352 455
8 344 251 356 459 457 354 468 575
8 458 355 469 576 344 251 356 459
8 346 253 358 461 458 355 469 576
8 462 359 254 347 578 471 357 460
8 348 255 359 462 461 358 472 579
8 591 474 360 473 475 361 256 363
8 475 361 256 363 594 477 362 479
8 363 256 364 482 479 362 480 603
8 590 473 365 484 481 363 482 605
8 482 364 257 365 606 483 366 485
8 559 452 367 486 484 365 485 607
8 542 436 487 609 422 324 369 488
8 525 422 488 611 407 311 371 491
8 488 369 489 612 371 261 370 490
8 491 371 490 613 373 263 372 492
8 495 386 276 377 614 503 385 493
8 614 503 385 493 561 457 342 442
8 615 501 383 494 495 386 276 377
8 496 384 274 378 615 501 383 494
8 618 500 382 497 496 384 274 378
8 619 499 381 498 497 382 272 379
8 511 408 297 393 619 499 381 498
8 620 505 387 499 500 388 278 382
8 527 424 312 408 620 505 387 499
8 502 390 506 621 384 280 388 500
8 622 507 389 501 504 392 282 386
8 502 390 280 384 622 507 389 501
8 504 392 282 386 624 509 391 503
8 624 509 391 503 575 468 354 457
8 513 410 299 395 630 527 408 511
8 631 528 411 514 512 409 300 396
8 513 410 528 631 395 299 409 512
8 519 416 305 401 633 530 411 514
8 634 531 412 515 516 413 302 398
8 523 420 309 405 634 531 412 515
8 635 532 413 516 517 414 303 399
8 521 417 533 636 403 306 414 517
8 520 418 307 402 637 534 415 518
8 519 416 534 637 401 305 415 518
8 522 419 308 404 639 537 418 520
8 522 419 536 640 404 308 417 521
8 524 421 310 406 642 539 420 523
8 524 421 541 644 406 310 423 526
8 646 543 422 525 526 423 311 407
8 529 426 314 410 647 544 424 527
8 528 425 545 648 411 315 427 530
8 529 426 545 648 410 314 425 528
8 535 429 317 416 649 546 427 530
8 650 548 430 531 532 432 320 413
8 539 438 325 420 650 548 430 531
8 533 433 550 651 414 321 432 532
8 536 434 551 652 417 322 433 533
8 537 431 319 418 653 547 428 534
8 535 429 547 653 416 317 428 534
8 538 435 552 654 419 323 434 536
8 538 435 323 419 655 549 431 537
8 540 440 327 421 657 556 438 539
8 540 440 557 659 421 327 439 541
8 541 439 555 660 423 326 437 543
8 661 554 436 542 543 437 324 422
8 676 570 452 559 590 473 365 484
8 560 453 338 441 676 570 452 559
8 562 455 340 443 677 571 453 560
8 447 344 459 566 561 457 575 678
8 564 456 341 445 679 573 455 562
8 567 460 345 448 680 572 454 563
8 680 572 454 563 564 456 341 445
8 565 458 576 682 447 344 459 566
8 450 346 461 569 565 458 576 682
8 568 462 347 449 684 578 460 567
8 451 348 462 568 569 461 579 685
8 686 580 463 570 591 474 360 473
8 571 464 350 453 686 580 463 570
8 573 466 352 455 687 581 464 571
8 572 465 582 688 460 357 471 578
8 574 467 582 688 456 353 465 572
8 574 467 353 456 689 583 466 573
8 459 356 470 577 575 468 585 691
8 576 469 586 692 459 356 470 577
8 461 358 472 579 576 469 586 692
8 462 359 471 578 579 472 588 694
8 704 591 473 590 593 475 363 481
8 595 476 592 705 475 361 474 591
8 593 475 363 481 707 594 479 602
8 594 477 362 479 709 598 478 600
8 595 476 361 475 711 597 477 594
8 479 362 480 603 600 478 601 720
8 481 363 482 605 602 479 603 722
8 603 480 364 482 723 604 483 606
8 605 482 365 484 724 606 485 607
8 656 553 608 726 542 436 487 609
8 645 542 609 728 525 422 488 611
8 609 487 610 729 488 369 489 612
8 611 488 612 730 491 371 490 613
8 616 504 386 495 731 624 503 614
8 731 624 503 614 678 575 457 561
8 732 622 501 615 616 504 386 495
8 617 502 384 496 732 622 501 615
8 617 502 621 735 496 384 500 618
8 736 620 499 619 618 500 382 497
8 630 527 408 511 736 620 499 619
8 621 506 626 737 500 388 505 620
8 647 544 424 527 737 626 505 620
8 623 508 627 738 502 390 506 621
8 623 508 390 502 739 628 507 622
8 625 510 628 739 504 392 507 622
8 740 629 509 624 691 585 468 575
8 625 510 392 504 740 629 509 624
8 632 529 410 513 744 647 527 630
8 631 528 648 745 514 411 530 633
8 632 529 648 745 513 410 528 631
8 638 535 416 519 746 649 530 633
8 747 650 531 634 635 532 413 516
8 642 539 420 523 747 650 531 634
8 636 533 651 748 517 414 532 635
8 640 536 652 749 521 417 533 636
8 639 537 418 520 750 653 534 637
8 638 535 653 750 519 416 534 637
8 641 538 419 522 751 655 537 639
8 641 538 654 752 522 419 536 640
8 643 540 421 524 753 657 539 642
8 643 540 659 755 524 421 541 644
8 644 541 660 757 526 423 543 646
8 758 661 542 645 646 543 422 525
8 529 426 544 647 648 545 662 759
8 530 427 545 648 649 546 663 760
8 535 429 546 649 653 547 664 761
8 762 666 548 650 651 550 432 532
8 657 556 438 539 762 666 548 650
8 652 551 668 763 533 433 550 651
8 654 552 669 764 536 434 551 652
8 655 549 431 537 765 665 547 653
8 538 435 549 655 654 552 667 766
8 661 554 671 768 542 436 553 656
8 658 558 440 540 769 674 556 657
8 658 558 675 770 540 440 557 659
8 659 557 673 771 541 439 555 660
8 660 555 672 772 543 437 554 661
8 788 686 570 676 704 591 473 590
8 677 571 453 560 788 686 570 676
8 679 573 455 562 789 687 571 677
8 566 459 577 683 678 575 691 790
8 681 574 456 564 791 689 573 679
8 680 572 688 792 567 460 578 684
8 681 574 688 792 564 456 572 680
8 682 576 692 794 566 459 577 683
8 569 461 579 685 682 576 692 794
8 568 462 578 684 685 579 694 796
8 687 581 464 571 798 696 580 686
8 798 696 580 686 705 592 474 591
8 689 583 466 573 799 697 581 687
8 688 582 698 800 578 471 588 694
8 690 584 698 800 574 467 582 688
8 690 584 467 574 801 699 583 689
8 693 587 701 803 577 470 585 691
8 693 587 470 577 804 702 586 692
8 695 589 702 804 579 472 586 692
8 695 589 472 579 805 703 588 694
8 708 595 705 813 593 475 591 704
8 710 596 706 814 595 476 592 705
8 707 594 479 602 816 709 600 719
8 708 595 475 593 817 711 594 707
8 709 598 478 600 819 715 599 717
8 711 597 477 594 820 714 598 709
8 710 596 476 595 822 713 597 711
8 600 478 601 720 717 599 718 832
8 602 479 603 722 719 600 720 834
8 720 601 480 603 835 721 604 723
8 722 603 482 605 836 723 606 724
8 767 670 725 839 656 553 608 726
8 756 656 726 841 645 542 609 728
8 726 608 727 842 609 487 610 729
8 728 609 729 843 611 488 612 730
8 844 740 624 731 790 691 575 678
8 733 625 504 616 844 740 624 731
8 734 623 502 617 845 739 622 732
8 733 625 739 845 616 504 622 732
8 734 623 738 846 617 502 621 735
8 735 621 737 847 618 500 620 736
8 744 647 527 630 847 737 620 736
8 621 506 627 738 737 626 741 848
8 647 544 626 737 759 662 741 848
8 623 508 628 739 738 627 742 849
8 740 629 585 691 850 743 700 802
8 625 510 629 740 739 628 743 850
8 632 529 647 744 745 648 759 854
8 633 530 648 745 746 649 760 855
8 638 535 649 746 750 653 761 856
8 857 762 650 747 748 651 532 635
8 753 657 539 642 857 762 650 747
8 749 652 763 858 636 533 651 748
8 752 654 764 859 640 536 652 749
8 751 655 537 639 860 765 653 750
8 641 538 655 751 752 654 766 861
8 754 658 540 643 862 769 657 753
8 754 658 770 863 643 540 659 755
8 755 659 771 864 644 541 660 757
8 758 661 768 866 645 542 656 756
8 757 660 772 867 646 543 661 758
8 759 662 773 868 648 545 663 760
8 649 546 663 760 761 664 774 871
8 765 665 547 653 872 775 664 761
8 873 777 666 762 763 668 550 651
8 769 674 556 657 873 777 666 762
8 764 669 779 874 652 551 668 763
8 654 552 667 766 764 669 778 875
8 655 549 665 765 766 667 776 876
8 768 671 782 877 656 553 670 767
8 772 672 783 878 661 554 671 768
8 658 558 674 769 770 675 786 879
8 659 557 675 770 771 673 785 881
8 882 784 672 772 771 673 555 660
8 789 687 571 677 897 798 686 788
8 897 798 686 788 813 705 591 704
8 791 689 573 679 898 799 687 789
8 795 693 803 900 683 577 691 790
8 793 690 574 681 901 801 689 791
8 792 688 800 902 684 578 694 796
8 793 690 800 902 681 574 688 792
8 795 693 577 683 903 804 692 794
8 797 695 804 903 685 579 692 794
8 797 695 579 685 904 805 694 796
8 905 806 697 799 798 696 581 687
8 814 706 806 905 705 592 696 798
8 689 583 697 799 801 699 808 907
8 800 698 809 908 694 588 703 805
8 690 584 699 801 800 698 809 908
8 803 701 810 909 691 585 700 802
8 693 587 702 804 803 701 811 910
8 695 589 703 805 804 702 812 911
8 818 710 814 919 708 595 705 813
8 821 712 815 920 710 596 706 814
8 816 709 600 719 922 819 717 831
8 817 711 594 707 923 820 709 816
8 818 710 595 708 924 822 711 817
8 819 715 599 717 926 827 716 829
8 820 714 598 709 927 826 715 819
8 929 825 713 822 820 714 597 711
8 821 712 596 710 930 824 713 822
8 717 599 718 832 829 716 830 942
8 719 600 720 834 831 717 832 944
8 832 718 601 720 945 833 721 835
8 834 720 603 722 946 835 723 836
8 869 780 838 950 767 670 725 839
8 865 767 839 952 756 656 726 841
8 839 725 840 953 726 608 727 842
8 841 726 842 954 728 609 729 843
8 844 740 691 790 955 850 802 899
8 733 625 740 844 845 739 850 955
8 734 623 739 845 846 738 849 956
8 735 621 738 846 847 737 848 957
8 744 647 737 847 854 759 848 957
8 738 627 742 849 848 741 851 958
8 848 741 851 958 759 662 773 868
8 850 743 700 802 959 852 807 906
8 849 742 628 739 959 852 743 850
8 854 759 868 965 745 648 760 855
8 746 649 760 855 856 761 871 966
8 860 765 653 750 967 872 761 856
8 968 873 762 857 858 763 651 748
8 862 769 657 753 968 873 762 857
8 859 764 874 969 749 652 763 858
8 752 654 766 861 859 764 875 970
8 751 655 765 860 861 766 876 971
8 754 658 769 862 863 770 879 972
8 755 659 770 863 864 771 881 974
8 976 882 772 867 864 771 660 757
8 866 768 877 977 756 656 767 865
8 867 772 878 978 758 661 768 866
8 760 663 773 868 871 774 883 980
8 870 781 837 948 982 890 780 869
8 982 890 780 869 877 782 670 767
8 761 664 774 871 872 775 884 984
8 876 776 665 765 985 885 775 872
8 873 777 668 763 986 887 779 874
8 769 674 777 873 879 786 887 986
8 764 669 778 875 874 779 888 987
8 766 667 776 876 875 778 886 988
8 878 783 892 989 768 671 782 877
8 878 783 672 772 990 893 784 882
8 880 787 675 770 991 896 786 879
8 880 787 895 992 770 675 785 881
8 881 785 894 993 771 673 784 882
8 1006 905 799 898 897 798 687 789
8 919 814 905 1006 813 705 798 897
8 791 689 799 898 901 801 907 1007
8 900 803 909 1009 790 691 802 899
8 795 693 804 903 900 803 910 1010
8 902 800 908 1011 796 694 805 904
8 793 690 801 901 902 800 908 1011
8 797 695 805 904 903 804 911 1012
8 799 697 806 905 907 808 912 1013
8 920 815 912 1013 814 706 806 905
8 802 700 810 909 906 807 913 1014
8 801 699 808 907 908 809 914 1015
8 805 703 809 908 911 812 915 1016
8 803 701 811 910 909 810 916 1017
8 911 812 917 1018 804 702 811 910
8 925 821 920 1030 818 710 814 919
8 928 823 921 1031 821 712 815 920
8 922 819 717 831 1033 926 829 941
8 923 820 709 816 1034 927 819 922
8 1035 929 822 924 923 820 711 817
8 925 821 710 818 1036 930 822 924
8 1038 933 825 929 927 826 714 820
8 926 827 716 829 1039 935 828 939
8 927 826 715 819 1040 934 827 926
8 928 823 712 821 1041 931 824 930
8 1042 932 824 930 929 825 713 822
8 829 716 830 942 939 828 940 1058
8 831 717 832 944 941 829 942 1060
8 942 830 718 832 1061 943 833 945
8 944 832 720 834 1062 945 835 946
8 981 889 947 1064 870 781 837 948
8 948 837 949 1067 869 780 838 950
8 975 869 950 1069 865 767 839 952
8 950 838 951 1070 839 725 840 953
8 952 839 953 1071 841 726 842 954
8 955 850 802 899 1072 959 906 1008
8 956 849 739 845 1072 959 850 955
8 846 738 849 956 957 848 958 1073
8 957 848 958 1073 854 759 868 965
8 849 742 852 959 958 851 961 1076
8 960 853 961 1076 906 807 852 959
8 958 851 961 1076 868 773 883 980
8 960 853 807 906 1077 963 913 1014
8 855 760 868 965 966 871 980 1085
8 856 761 871 966 967 872 984 1086
8 971 876 765 860 1087 985 872 967
8 968 873 763 858 1088 986 874 969
8 862 769 873 968 972 879 986 1088
8 859 764 875 970 969 874 987 1089
8 861 766 876 971 970 875 988 1090
8 973 880 770 863 1091 991 879 972
8 973 880 992 1092 863 770 881 974
8 974 881 993 1093 864 771 882 976
8 979 870 948 1066 1094 982 869 975
8 1094 982 869 975 977 877 767 865
8 978 878 772 867 1095 990 882 976
8 978 878 989 1096 866 768 877 977
8 871 774 883 980 984 884 994 1099
8 983 891 999 1100 870 781 889 981
8 1101 1000 890 982 989 892 782 877
8 983 891 781 870 1101 1000 890 982
8 872 775 884 984 985 885 995 1103
8 876 776 885 985 988 886 996 1104
8 986 887 779 874 1105 998 888 987
8 879 786 887 986 991 896 998 1105
8 875 778 886 988 987 888 997 1106
8 990 893 1002 1107 878 783 892 989
8 1108 1003 893 990 993 894 784 882
8 880 787 896 991 992 895 1005 1109
8 993 894 785 881 1110 1004 895 992
8 898 799 905 1006 1007 907 1013 1120
8 1030 920 1013 1120 919 814 905 1006
8 901 801 907 1007 1011 908 1015 1121
8 899 802 909 1009 1008 906 1014 1122
8 900 803 910 1010 1009 909 1017 1123
8 1012 911 1018 1124 903 804 910 1010
8 904 805 908 1011 1012 911 1016 1125
8 1013 912 1020 1127 907 808 914 1015
8 1031 921 1020 1127 920 815 912 1013
8 1019 918 962 1075 1128 1021 913 1014
8 1128 1021 913 1014 1017 916 810 909
8 1015 914 1022 1129 908 809 915 1016
8 1016 915 1023 1130 911 812 917 1018
8 1018 917 1024 1131 910 811 916 1017
8 1037 928 1031 1148 925 821 920 1030
8 928 823 931 1041 1031 921 1032 1149
8 1033 926 829 941 1151 1039 939 1057
8 1034 927 819 922 1152 1040 926 1033
8 1153 1038 929 1035 1034 927 820 923
8 1154 1042 930 1036 1035 929 822 924
8 1037 928 821 925 1155 1041 930 1036
8 1039 935 828 939 1156 1047 938 1055
8 1157 1043 932 1042 1038 933 825 929
8 1038 933 826 927 1158 1045 934 1040
8 1040 934 827 926 1159 1046 935 1039
8 930 824 932 1042 1041 931 1044 1160
8 1051 936 1048 1165 1175 1052 937 1053
8 1156 1047 938 1055 1053 937 1054 1178
8 939 828 940 1058 1055 938 1056 1181
8 941 829 942 1060 1057 939 1058 1183
8 942 830 943 1061 1058 940 1059 1184
8 1060 942 832 944 1185 1061 945 1062
8 1082 964 1063 1188 981 889 947 1064
8 1097 981 1064 1190 979 870 948 1066
8 1064 947 1065 1191 948 837 949 1067
8 1066 948 1067 1193 975 869 950 1069
8 1067 949 1068 1194 950 838 951 1070
8 1069 950 1070 1195 952 839 953 1071
8 956 849 959 1072 1073 958 1076 1197
8 1074 960 1076 1197 1008 906 959 1072
8 1073 958 1076 1197 965 868 980 1085
8 1074 960 906 1008 1198 1077 1014 1122
8 1133 1026 1079 1199 1019 918 962 1075
8 1077 963 913 1014 1200 1080 962 1075
8 960 853 963 1077 1076 961 1078 1201
8 980 883 961 1076 1099 994 1078 1201
8 1210 1083 964 1082 1100 999 889 981
8 966 871 980 1085 1086 984 1099 1215
8 967 872 984 1086 1087 985 1103 1216
8 971 876 985 1087 1090 988 1104 1217
8 1088 986 874 969 1218 1105 987 1089
8 972 879 986 1088 1091 991 1105 1218
8 970 875 988 1090 1089 987 1106 1219
8 973 880 991 1091 1092 992 1109 1220
8 1093 993 881 974 1221 1110 992 1092
8 1222 1108 990 1095 1093 993 882 976
8 1223 1101 982 1094 1096 989 877 977
8 1098 983 870 979 1223 1101 982 1094
8 1095 990 1107 1224 978 878 989 1096
8 1098 983 1100 1225 979 870 981 1097
8 984 884 994 1099 1103 995 1111 1227
8 1102 1001 1115 1228 983 891 999 1100
8 1101 1000 892 989 1229 1116 1002 1107
8 1102 1001 891 983 1229 1116 1000 1101
8 985 885 995 1103 1104 996 1112 1230
8 988 886 996 1104 1106 997 1113 1231
8 1105 998 888 987 1232 1114 997 1106
8 991 896 998 1105 1109 1005 1114 1232
8 1108 1003 1117 1233 990 893 1002 1107
8 1108 1003 894 993 1233 1117 1004 1110
8 992 895 1005 1109 1110 1004 1118 1234
8 1120 1013 1127 1244 1007 907 1015 1121
8 1148 1031 1127 1244 1030 920 1013 1120
8 1121 1015 1129 1245 1011 908 1016 1125
8 1126 1019 1075 1196 1246 1128 1014 1122
8 1246 1128 1014 1122 1123 1017 909 1009
8 1124 1018 1131 1247 1010 910 1017 1123
8 1125 1016 1130 1248 1012 911 1018 1124
8 1127 1020 1137 1254 1015 914 1022 1129
8 1031 921 1032 1149 1127 1020 1137 1254
8 1134 1027 918 1019 1257 1140 1021 1128
8 1257 1140 1021 1128 1131 1024 916 1017
8 1129 1022 1141 1258 1016 915 1023 1130
8 1130 1023 1142 1259 1018 917 1024 1131
8 1261 1144 1025 1132 1133 1026 1079 1199
8 1255 1138 1025 1132 1135 1028 1144 1261
8 1133 1026 918 1019 1262 1145 1027 1134
8 1136 1029 1139 1256 1263 1146 1028 1135
8 1037 928 1041 1155 1148 1031 1149 1275
8 1041 931 1044 1160 1149 1032 1150 1276
8 1151 1039 939 1057 1278 1156 1055 1180
8 1152 1040 926 1033 1279 1159 1039 1151
8 1153 1038 927 1034 1280 1158 1040 1152
8 1281 1157 1042 1154 1153 1038 929 1035
8 1036 930 1042 1154 1155 1041 1160 1282
8 1283 1164 1046 1159 1156 1047 935 1039
8 1165 1048 1164 1283 1053 937 1047 1156
8 1157 1043 933 1038 1284 1161 1045 1158
8 1157 1043 1161 1284 1042 932 1044 1160
8 1040 934 1046 1159 1158 1045 1163 1285
8 1166 1049 1167 1292 1051 936 1048 1165
8 1166 1049 936 1051 1293 1168 1050 1172
8 1051 936 1052 1175 1172 1050 1173 1306
8 1174 1051 1165 1290 1308 1175 1053 1177
8 1053 937 1054 1178 1175 1052 1176 1309
8 1278 1156 1055 1180 1177 1053 1178 1311
8 1055 938 1056 1181 1178 1054 1179 1312
8 1057 939 1058 1183 1180 1055 1181 1314
8 1058 940 1059 1184 1181 1056 1182 1315
8 1060 942 1061 1185 1183 1058 1184 1316
8 1208 1081 1187 1321 1082 964 1063 1188
8 1209 1082 1188 1322 1097 981 1064 1190
8 1188 1063 1189 1323 1064 947 1065 1191
8 1190 1064 1191 1325 1066 948 1067 1193
8 1191 1065 1192 1326 1067 949 1068 1194
8 1067 1193 1069 950 1194 1327 1195 1070
8 1250 1133 1199 1330 1126 1019 1075 1196
8 1198 1077 1014 1122 1331 1200 1075 1196
8 1074 960 1077 1198 1197 1076 1201 1332
8 1085 980 1076 1197 1215 1099 1201 1332
8 1199 1079 1203 1333 1075 962 1080 1200
8 1132 1025 1119 1243 1199 1079 1203 1333
8 1201 1078 963 1077 1334 1202 1080 1200
8 1099 994 1078 1201 1227 1111 1202 1334
8 1343 1207 1081 1208 1210 1083 964 1082
8 1214 1084 1186 1319 1343 1207 1081 1208
8 1345 1210 1082 1209 1225 1100 981 1097
8 1346 1211 1083 1210 1228 1115 999 1100
8 1086 984 1099 1215 1216 1103 1227 1352
8 1087 985 1103 1216 1217 1104 1230 1353
8 1090 988 1104 1217 1219 1106 1231 1354
8 1218 1105 987 1089 1355 1232 1106 1219
8 1091 991 1105 1218 1220 1109 1232 1355
8 1092 992 1109 1220 1221 1110 1234 1356
8 1222 1108 1233 1357 1095 990 1107 1224
8 1222 1108 993 1093 1357 1233 1110 1221
8 1223 1101 989 1096 1358 1229 1107 1224
8 1226 1102 983 1098 1358 1229 1101 1223
8 1226 1102 1228 1359 1098 983 1100 1225
8 1103 995 1111 1227 1230 1112 1235 1360
8 1107 1002 1117 1233 1229 1116 1240 1362
8 1102 1001 1116 1229 1228 1115 1240 1362
8 1104 996 1112 1230 1231 1113 1236 1363
8 1364 1237 1114 1232 1231 1113 997 1106
8 1109 1005 1114 1232 1234 1118 1238 1365
8 1110 1004 1118 1234 1233 1117 1241 1366
8 1242 1374 1255 1138 1119 1243 1132 1025
8 1244 1127 1254 1376 1121 1015 1129 1245
8 1148 1031 1149 1275 1244 1127 1254 1376
8 1245 1129 1258 1377 1125 1016 1130 1248
8 1251 1134 1019 1126 1378 1257 1128 1246
8 1378 1257 1128 1246 1247 1131 1017 1123
8 1248 1130 1259 1379 1124 1018 1131 1247
8 1261 1381 1250 1133 1132 1249 1330 1199
8 1255 1380 1252 1135 1132 1249 1381 1261
8 1250 1133 1019 1126 1382 1262 1134 1251
8 1253 1136 1256 1385 1384 1263 1135 1252
8 1254 1137 1265 1387 1129 1022 1141 1258
8 1149 1032 1150 1276 1254 1137 1265 1387
8 1028 1135 1255 1138 1139 1256 1388 1266
8 1136 1029 1147 1264 1256 1139 1267 1389
8 1390 1268 1140 1257 1259 1142 1024 1131
8 1260 1143 1027 1134 1390 1268 1140 1257
8 1258 1141 1269 1391 1130 1023 1142 1259
8 1262 1145 1027 1134 1393 1271 1143 1260
8 1261 1144 1026 1133 1394 1272 1145 1262
8 1135 1028 1144 1261 1263 1146 1272 1394
8 1136 1029 1146 1263 1264 1147 1273 1395
8 1155 1041 1160 1282 1275 1149 1276 1405
8 1276 1150 1044 1160 1406 1277 1162 1286
8 1408 1283 1159 1279 1278 1156 1039 1151
8 1290 1165 1283 1408 1177 1053 1156 1278
8 1152 1040 1159 1279 1280 1158 1285 1409
8 1281 1157 1038 1153 1410 1284 1158 1280
8 1281 1157 1284 1410 1154 1042 1160 1282
8 1159 1046 1164 1283 1285 1163 1289 1412
8 1292 1167 1289 1412 1165 1048 1164 1283
8 1158 1045 1163 1285 1284 1161 1288 1413
8 1284 1161 1288 1413 1160 1044 1162 1286
8 1291 1166 1292 1418 1174 1051 1165 1290
8 1291 1166 1051 1174 1419 1293 1172 1305
8 1294 1169 1296 1421 1166 1049 1167 1292
8 1293 1168 1050 1172 1422 1295 1171 1303
8 1294 1169 1049 1166 1423 1297 1168 1293
8 1422 1295 1171 1303 1301 1170 1302 1435
8 1172 1050 1173 1306 1303 1171 1304 1438
8 1174 1051 1175 1308 1305 1172 1306 1440
8 1175 1052 1176 1309 1306 1173 1307 1441
8 1177 1053 1178 1311 1308 1175 1309 1443
8 1178 1054 1179 1312 1309 1176 1310 1444
8 1180 1055 1181 1314 1311 1178 1312 1446
8 1056 1181 1312 1179 1182 1315 1447 1313
8 1183 1058 1184 1316 1314 1181 1315 1448
8 1319 1186 1084 1214 1451 1317 1213 1350
8 1319 1186 1318 1453 1208 1081 1187 1321
8 1321 1187 1320 1456 1188 1063 1189 1323
8 1344 1208 1321 1457 1209 1082 1188 1322
8 1322 1188 1323 1458 1190 1064 1191 1325
8 1323 1189 1324 1459 1191 1065 1192 1326
8 1191 1325 1193 1067 1326 1460 1327 1194
8 1242 1374 1243 1119 1328 1462 1335 1204
8 1330 1199 1333 1465 1196 1075 1200 1331
8 1132 1249 1330 1199 1243 1375 1465 1333
8 1332 1201 1077 1198 1466 1334 1200 1331
8 1215 1099 1201 1332 1352 1227 1334 1466
8 1119 1243 1333 1203 1204 1335 1470 1338
8 1333 1203 1338 1470 1200 1080 1202 1334
8 1227 1111 1202 1334 1360 1235 1338 1470
8 1328 1462 1335 1204 1205 1336 1471 1339
8 1337 1206 1340 1472 1464 1329 1205 1336
8 1346 1211 1342 1479 1210 1083 1207 1343
8 1346 1211 1115 1228 1479 1342 1239 1361
8 1348 1212 1084 1214 1479 1342 1207 1343
8 1480 1343 1208 1344 1345 1210 1082 1209
8 1351 1214 1319 1454 1480 1343 1208 1344
8 1481 1346 1210 1345 1359 1228 1100 1225
8 1348 1212 1347 1483 1214 1084 1213 1350
8 1216 1103 1227 1352 1353 1230 1360 1488
8 1217 1104 1230 1353 1354 1231 1363 1489
8 1490 1364 1232 1355 1354 1231 1106 1219
8 1220 1109 1232 1355 1356 1234 1365 1491
8 1221 1110 1234 1356 1357 1233 1366 1492
8 1224 1107 1233 1357 1358 1229 1362 1493
8 1226 1102 1229 1358 1359 1228 1362 1493
8 1230 1112 1235 1360 1363 1236 1367 1496
8 1361 1239 1115 1228 1497 1371 1240 1362
8 1366 1241 1372 1498 1233 1117 1240 1362
8 1364 1237 1113 1231 1499 1368 1236 1363
8 1364 1237 1368 1499 1232 1114 1238 1365
8 1234 1118 1238 1365 1366 1241 1369 1500
8 1507 1373 1242 1374 1388 1266 1138 1255
8 1508 1374 1243 1375 1380 1255 1132 1249
8 1376 1254 1387 1509 1245 1129 1258 1377
8 1275 1149 1276 1405 1376 1254 1387 1509
8 1377 1258 1391 1510 1248 1130 1259 1379
8 1511 1390 1257 1378 1379 1259 1131 1247
8 1383 1260 1134 1251 1511 1390 1257 1378
8 1252 1135 1256 1385 1380 1255 1388 1512
8 1261 1381 1513 1394 1133 1250 1382 1262
8 1135 1252 1384 1263 1261 1381 1513 1394
8 1382 1262 1134 1251 1514 1393 1260 1383
8 1253 1136 1263 1384 1386 1264 1395 1516
8 1253 1136 1264 1386 1385 1256 1389 1517
8 1387 1265 1397 1519 1258 1141 1269 1391
8 1276 1150 1277 1406 1387 1265 1397 1519
8 1256 1139 1267 1389 1388 1266 1398 1520
8 1264 1147 1274 1396 1389 1267 1399 1521
8 1392 1270 1143 1260 1522 1400 1268 1390
8 1390 1268 1142 1259 1522 1400 1269 1391
8 1392 1270 1401 1523 1260 1143 1271 1393
8 1272 1394 1524 1402 1145 1262 1393 1271
8 1395 1273 1146 1263 1524 1402 1272 1394
8 1273 1395 1264 1147 1403 1526 1396 1274
8 1405 1276 1160 1282 1534 1406 1286 1411
8 1414 1287 1407 1535 1286 1162 1277 1406
8 1279 1159 1283 1408 1409 1285 1412 1537
8 1418 1292 1412 1537 1290 1165 1283 1408
8 1280 1158 1285 1409 1410 1284 1413 1538
8 1410 1284 1413 1538 1282 1160 1286 1411
8 1285 1163 1289 1412 1413 1288 1417 1540
8 1421 1296 1417 1540 1292 1167 1289 1412
8 1414 1287 1162 1286 1541 1416 1288 1413
8 1420 1294 1421 1545 1291 1166 1292 1418
8 1419 1293 1172 1305 1546 1422 1303 1437
8 1420 1294 1166 1291 1547 1423 1293 1419
8 1294 1169 1297 1423 1421 1296 1425 1548
8 1423 1297 1168 1293 1549 1424 1295 1422
8 1301 1170 1298 1427 1422 1295 1424 1549
8 1432 1300 1428 1554 1301 1170 1298 1427
8 1431 1299 1428 1554 1560 1430 1300 1432
8 1563 1433 1300 1432 1435 1302 1170 1301
8 1546 1422 1303 1437 1434 1301 1435 1565
8 1303 1171 1304 1438 1435 1302 1436 1566
8 1305 1172 1306 1440 1437 1303 1438 1568
8 1306 1173 1307 1441 1438 1304 1439 1569
8 1308 1175 1309 1443 1440 1306 1441 1571
8 1309 1176 1310 1444 1441 1307 1442 1572
8 1311 1178 1312 1446 1443 1309 1444 1574
8 1179 1312 1444 1310 1313 1447 1575 1445
8 1314 1181 1315 1448 1446 1312 1447 1576
8 1350 1213 1349 1486 1451 1317 1449 1579
8 1451 1317 1450 1581 1319 1186 1318 1453
8 1454 1319 1214 1351 1582 1451 1350 1487
8 1453 1318 1452 1584 1321 1187 1320 1456
8 1454 1319 1453 1585 1344 1208 1321 1457
8 1456 1320 1455 1586 1323 1189 1324 1459
8 1457 1321 1456 1587 1322 1188 1323 1458
8 1458 1323 1459 1588 1325 1191 1326 1460
8 1205 1336 1464 1329 1328 1462 1590 1461
8 1507 1373 1461 1590 1374 1242 1328 1462
8 1508 1374 1462 1591 1375 1243 1335 1467
8 1337 1206 1329 1464 1473 1341 1463 1594
8 1375 1243 1335 1467 1465 1333 1470 1596
8 1465 1333 1470 1596 1331 1200 1334 1466
8 1352 1227 1334 1466 1488 1360 1470 1596
8 1591 1462 1336 1468 1467 1335 1471 1597
8 1469 1337 1472 1598 1595 1464 1336 1468
8 1471 1339 1474 1600 1335 1204 1338 1470
8 1600 1474 1367 1496 1470 1338 1235 1360
8 1336 1205 1340 1472 1471 1339 1475 1601
8 1337 1206 1341 1473 1472 1340 1476 1602
8 1495 1370 1478 1609 1361 1239 1342 1479
8 1348 1212 1342 1479 1483 1347 1478 1609
8 1481 1346 1479 1610 1345 1210 1343 1480
8 1481 1346 1228 1359 1610 1479 1361 1494
8 1484 1348 1214 1351 1610 1479 1343 1480
8 1483 1347 1482 1612 1350 1213 1349 1486
8 1484 1348 1483 1613 1351 1214 1350 1487
8 1353 1230 1360 1488 1489 1363 1496 1616
8 1490 1364 1231 1354 1617 1499 1363 1489
8 1490 1364 1499 1617 1355 1232 1365 1491
8 1356 1234 1365 1491 1492 1366 1500 1619
8 1492 1366 1498 1620 1357 1233 1362 1493
8 1494 1361 1228 1359 1621 1497 1362 1493
8 1495 1370 1239 1361 1622 1504 1371 1497
8 1363 1236 1367 1496 1499 1368 1501 1623
8 1497 1371 1240 1362 1624 1505 1372 1498
8 1625 1503 1372 1498 1500 1369 1241 1366
8 1365 1238 1368 1499 1500 1369 1502 1626
8 1520 1398 1506 1633 1388 1266 1373 1507
8 1634 1507 1374 1508 1512 1388 1255 1380
8 1509 1387 1519 1635 1377 1258 1391 1510
8 1405 1276 1406 1534 1509 1387 1519 1635
8 1515 1392 1260 1383 1636 1522 1390 1511
8 1511 1390 1259 1379 1636 1522 1391 1510
8 1385 1256 1389 1517 1512 1388 1520 1637
8 1513 1394 1262 1382 1638 1524 1393 1514
8 1395 1516 1638 1524 1263 1384 1513 1394
8 1515 1392 1523 1639 1383 1260 1393 1514
8 1516 1395 1526 1640 1386 1264 1396 1518
8 1386 1264 1396 1518 1517 1389 1521 1641
8 1519 1397 1527 1643 1391 1269 1400 1522
8 1535 1407 1527 1643 1406 1277 1397 1519
8 1389 1267 1399 1521 1520 1398 1528 1644
8 1645 1529 1399 1521 1525 1404 1274 1396
8 1392 1270 1400 1522 1523 1401 1531 1646
8 1524 1402 1271 1393 1648 1532 1401 1523
8 1403 1526 1648 1532 1273 1395 1524 1402
8 1525 1404 1274 1396 1649 1533 1403 1526
8 1539 1414 1535 1657 1411 1286 1406 1534
8 1542 1415 1536 1658 1414 1287 1407 1535
8 1409 1285 1412 1537 1538 1413 1540 1660
8 1545 1421 1540 1660 1418 1292 1412 1537
8 1539 1414 1286 1411 1661 1541 1413 1538
8 1540 1417 1544 1663 1413 1288 1416 1541
8 1421 1296 1425 1548 1540 1417 1544 1663
8 1542 1415 1287 1414 1664 1543 1416 1541
8 1420 1294 1423 1547 1545 1421 1548 1666
8 1547 1423 1293 1419 1667 1549 1422 1546
8 1434 1301 1427 1553 1546 1422 1549 1667
8 1423 1297 1424 1549 1548 1425 1550 1668
8 1551 1426 1550 1668 1427 1298 1424 1549
8 1551 1426 1298 1427 1671 1552 1428 1554
8 1562 1432 1554 1674 1434 1301 1427 1553
8 1431 1299 1429 1558 1554 1428 1555 1675
8 1431 1299 1430 1560 1558 1429 1557 1680
8 1560 1430 1300 1432 1683 1559 1433 1563
8 1561 1431 1554 1674 1684 1560 1432 1562
8 1685 1563 1432 1562 1565 1435 1301 1434
8 1435 1302 1436 1566 1563 1433 1564 1686
8 1437 1303 1438 1568 1565 1435 1566 1688
8 1438 1304 1439 1569 1566 1436 1567 1689
8 1440 1306 1441 1571 1568 1438 1569 1691
8 1441 1307 1442 1572 1569 1439 1570 1692
8 1443 1309 1444 1574 1571 1441 1572 1694
8 1310 1444 1572 1442 1445 1575 1695 1573
8 1446 1312 1447 1576 1574 1444 1575 1696
8 1486 1349 1485 1614 1579 1449 1577 1699
8 1451 1317 1449 1579 1581 1450 1578 1701
8 1487 1350 1486 1615 1582 1451 1579 1702
8 1581 1450 1580 1704 1453 1318 1452 1584
8 1582 1451 1581 1705 1454 1319 1453 1585
8 1584 1452 1583 1706 1456 1320 1455 1586
8 1585 1453 1584 1707 1457 1321 1456 1587
8 1587 1456 1586 1708 1458 1323 1459 1588
8 1633 1506 1589 1710 1507 1373 1461 1590
8 1464 1329 1461 1590 1594 1463 1589 1710
8 1468 1336 1462 1591 1595 1464 1590 1711
8 1634 1507 1590 1711 1508 1374 1462 1591
8 1473 1341 1463 1594 1603 1477 1593 1716
8 1469 1337 1464 1595 1599 1473 1594 1717
8 1471 1597 1467 1335 1600 1718 1596 1470
8 1718 1600 1496 1616 1596 1470 1360 1488
8 1336 1468 1597 1471 1472 1598 1719 1601
8 1469 1337 1473 1599 1598 1472 1602 1720
8 1722 1604 1501 1623 1600 1474 1367 1496
8 1475 1601 1471 1339 1604 1722 1600 1474
8 1602 1476 1605 1723 1472 1340 1475 1601
8 1476 1602 1724 1606 1341 1473 1603 1477
8 1483 1347 1478 1609 1612 1482 1608 1731
8 1495 1370 1504 1622 1609 1478 1608 1731
8 1618 1495 1609 1732 1494 1361 1479 1610
8 1484 1348 1479 1610 1613 1483 1609 1732
8 1486 1349 1482 1612 1614 1485 1611 1733
8 1613 1483 1612 1734 1487 1350 1486 1615
8 1489 1363 1496 1616 1617 1499 1623 1736
8 1491 1365 1499 1617 1619 1500 1626 1737
8 1618 1495 1361 1494 1738 1622 1497 1621
8 1739 1625 1498 1620 1619 1500 1366 1492
8 1621 1497 1362 1493 1740 1624 1498 1620
8 1742 1631 1504 1622 1624 1505 1371 1497
8 1743 1628 1502 1626 1623 1501 1368 1499
8 1744 1630 1505 1624 1625 1503 1372 1498
8 1745 1629 1503 1625 1626 1502 1369 1500
8 1520 1398 1528 1644 1633 1506 1632 1751
8 1637 1520 1633 1752 1512 1388 1507 1634
8 1635 1519 1643 1753 1510 1391 1522 1636
8 1657 1535 1643 1753 1534 1406 1519 1635
8 1515 1392 1522 1636 1639 1523 1646 1754
8 1517 1389 1521 1641 1637 1520 1644 1755
8 1524 1638 1756 1648 1393 1514 1639 1523
8 1640 1526 1395 1516 1756 1648 1524 1638
8 1642 1525 1396 1518 1757 1649 1526 1640
8 1758 1645 1521 1641 1642 1525 1396 1518
8 1646 1531 1400 1522 1760 1650 1527 1643
8 1535 1407 1536 1658 1643 1527 1650 1760
8 1521 1399 1529 1645 1644 1528 1651 1761
8 1647 1530 1652 1762 1525 1404 1529 1645
8 1401 1523 1648 1532 1531 1646 1763 1655
8 1525 1404 1533 1649 1647 1530 1654 1765
8 1533 1649 1766 1656 1403 1526 1648 1532
8 1662 1542 1658 1774 1539 1414 1535 1657
8 1542 1415 1543 1664 1658 1536 1659 1775
8 1660 1540 1663 1777 1538 1413 1541 1661
8 1545 1421 1548 1666 1660 1540 1663 1777
8 1662 1542 1414 1539 1778 1664 1541 1661
8 1664 1543 1416 1541 1779 1665 1544 1663
8 1548 1425 1550 1668 1663 1544 1665 1779
8 1547 1423 1549 1667 1666 1548 1668 1781
8 1670 1551 1668 1781 1553 1427 1549 1667
8 1551 1426 1552 1671 1668 1550 1669 1782
8 1670 1551 1427 1553 1784 1671 1554 1674
8 1675 1555 1672 1785 1554 1428 1552 1671
8 1678 1556 1673 1789 1558 1429 1555 1675
8 1561 1431 1558 1681 1674 1554 1675 1790
8 1794 1677 1556 1678 1680 1557 1429 1558
8 1560 1430 1559 1683 1680 1557 1679 1797
8 1561 1431 1560 1684 1681 1558 1680 1798
8 1563 1433 1564 1686 1683 1559 1682 1800
8 1684 1560 1432 1562 1801 1683 1563 1685
8 1565 1435 1566 1688 1685 1563 1686 1802
8 1566 1436 1567 1689 1686 1564 1687 1803
8 1568 1438 1569 1691 1688 1566 1689 1805
8 1569 1439 1570 1692 1689 1567 1690 1806
8 1571 1441 1572 1694 1691 1569 1692 1808
8 1442 1572 1692 1570 1573 1695 1809 1693
8 1574 1444 1575 1696 1694 1572 1695 1810
8 1614 1485 1592 1712 1699 1577 1697 1813
8 1579 1449 1577 1699 1701 1578 1698 1815
8 1615 1486 1614 1735 1702 1579 1699 1816
8 1701 1578 1700 1818 1581 1450 1580 1704
8 1582 1451 1579 1702 1705 1581 1701 1819
8 1704 1580 1703 1820 1584 1452 1583 1706
8 1705 1581 1704 1821 1585 1453 1584 1707
8 1707 1584 1706 1822 1587 1456 1586 1708
8 1710 1589 1506 1633 1824 1709 1632 1751
8 1594 1463 1589 1710 1716 1593 1709 1824
8 1752 1633 1710 1825 1634 1507 1590 1711
8 1595 1464 1590 1711 1717 1594 1710 1825
8 1830 1714 1592 1712 1733 1611 1485 1614
8 1603 1477 1593 1716 1725 1607 1715 1834
8 1599 1473 1594 1717 1721 1603 1716 1835
8 1837 1722 1623 1736 1718 1600 1496 1616
8 1719 1601 1722 1837 1597 1471 1600 1718
8 1602 1720 1598 1472 1723 1838 1719 1601
8 1720 1602 1473 1599 1839 1724 1603 1721
8 1723 1605 1726 1840 1601 1475 1604 1722
8 1840 1726 1628 1743 1722 1604 1501 1623
8 1724 1606 1727 1841 1602 1476 1605 1723
8 1725 1607 1728 1842 1603 1477 1606 1724
8 1612 1482 1608 1731 1733 1611 1730 1849
8 1741 1627 1730 1849 1622 1504 1608 1731
8 1613 1483 1609 1732 1734 1612 1731 1850
8 1618 1495 1622 1738 1732 1609 1731 1850
8 1615 1486 1612 1734 1735 1614 1733 1851
8 1852 1743 1626 1737 1736 1623 1499 1617
8 1853 1745 1625 1739 1737 1626 1500 1619
8 1855 1742 1622 1738 1740 1624 1497 1621
8 1856 1744 1624 1740 1739 1625 1498 1620
8 1741 1627 1504 1622 1857 1746 1631 1742
8 1742 1631 1505 1624 1858 1749 1630 1744
8 1859 1747 1629 1745 1743 1628 1502 1626
8 1860 1748 1630 1744 1745 1629 1503 1625
8 1644 1528 1651 1761 1751 1632 1750 1865
8 1637 1520 1644 1755 1752 1633 1751 1866
8 1754 1646 1522 1636 1867 1760 1643 1753
8 1657 1535 1658 1774 1753 1643 1760 1867
8 1639 1523 1646 1754 1756 1648 1763 1868
8 1641 1521 1645 1758 1755 1644 1761 1869
8 1757 1649 1526 1640 1870 1766 1648 1756
8 1642 1525 1649 1757 1759 1647 1765 1871
8 1759 1647 1762 1872 1642 1525 1645 1758
8 1760 1650 1767 1874 1646 1531 1655 1763
8 1658 1536 1659 1775 1760 1650 1767 1874
8 1762 1652 1768 1875 1645 1529 1651 1761
8 1764 1653 1769 1876 1647 1530 1652 1762
8 1656 1766 1877 1773 1532 1648 1763 1655
8 1771 1879 1765 1654 1653 1764 1647 1530
8 1533 1649 1765 1654 1656 1766 1880 1772
8 1662 1542 1664 1778 1774 1658 1775 1887
8 1664 1543 1665 1779 1775 1659 1776 1888
8 1778 1664 1541 1661 1890 1779 1663 1777
8 1666 1548 1668 1781 1777 1663 1779 1890
8 1782 1669 1780 1891 1668 1550 1665 1779
8 1670 1551 1671 1784 1781 1668 1782 1893
8 1671 1552 1672 1785 1782 1669 1783 1894
8 1790 1675 1785 1896 1674 1554 1671 1784
8 1675 1555 1673 1789 1785 1672 1786 1897
8 1792 1676 1788 1903 1678 1556 1673 1789
8 1795 1678 1789 1904 1681 1558 1675 1790
8 1792 1676 1556 1678 1906 1791 1677 1794
8 1680 1557 1679 1797 1794 1677 1793 1909
8 1910 1794 1678 1795 1798 1680 1558 1681
8 1683 1559 1682 1800 1797 1679 1796 1912
8 1684 1560 1683 1801 1798 1680 1797 1913
8 1686 1564 1687 1803 1800 1682 1799 1915
8 1685 1563 1686 1802 1801 1683 1800 1916
8 1688 1566 1689 1805 1802 1686 1803 1917
8 1689 1567 1690 1806 1803 1687 1804 1918
8 1691 1569 1692 1808 1805 1689 1806 1920
8 1692 1570 1693 1809 1806 1690 1807 1921
8 1694 1572 1695 1810 1808 1692 1809 1922
8 1829 1713 1811 1926 1712 1592 1697 1813
8 1813 1697 1812 1928 1699 1577 1698 1815
8 1735 1614 1712 1828 1816 1699 1813 1929
8 1815 1698 1814 1931 1701 1578 1700 1818
8 1702 1579 1699 1816 1819 1701 1815 1932
8 1818 1700 1817 1933 1704 1580 1703 1820
8 1819 1701 1818 1934 1705 1581 1704 1821
8 1821 1704 1820 1935 1707 1584 1706 1822
8 1824 1709 1632 1751 1937 1823 1750 1865
8 1716 1593 1709 1824 1834 1715 1823 1937
8 1825 1710 1633 1752 1938 1824 1751 1866
8 1717 1594 1710 1825 1835 1716 1824 1938
8 1945 1830 1712 1828 1851 1733 1614 1735
8 1830 1714 1831 1946 1712 1592 1713 1829
8 1947 1832 1714 1830 1849 1730 1611 1733
8 1843 1729 1607 1725 1950 1833 1715 1834
8 1721 1603 1716 1835 1836 1725 1834 1951
8 1836 1725 1842 1953 1721 1603 1724 1839
8 1723 1838 1719 1601 1840 1954 1837 1722
8 1954 1840 1743 1852 1837 1722 1623 1736
8 1724 1839 1720 1602 1841 1955 1838 1723
8 1841 1727 1844 1956 1723 1605 1726 1840
8 1956 1844 1747 1859 1840 1726 1628 1743
8 1728 1842 1724 1606 1845 1957 1841 1727
8 1725 1607 1729 1843 1842 1728 1846 1958
8 1741 1627 1746 1857 1849 1730 1848 1965
8 1734 1612 1731 1850 1851 1733 1849 1966
8 1854 1741 1849 1966 1738 1622 1731 1850
8 1967 1859 1745 1853 1852 1743 1626 1737
8 1968 1860 1744 1856 1853 1745 1625 1739
8 1854 1741 1622 1738 1969 1857 1742 1855
8 1855 1742 1624 1740 1970 1858 1744 1856
8 1857 1746 1631 1742 1971 1861 1749 1858
8 1858 1749 1630 1744 1972 1863 1748 1860
8 1859 1747 1862 1973 1745 1629 1748 1860
8 1875 1768 1864 1977 1761 1651 1750 1865
8 1755 1644 1761 1869 1866 1751 1865 1978
8 1867 1760 1874 1979 1754 1646 1763 1868
8 1774 1658 1775 1887 1867 1760 1874 1979
8 1870 1766 1648 1756 1980 1877 1763 1868
8 1872 1762 1875 1981 1758 1645 1761 1869
8 1757 1649 1766 1870 1871 1765 1880 1982
8 1983 1879 1764 1873 1871 1765 1647 1759
8 1873 1764 1876 1984 1759 1647 1762 1872
8 1877 1773 1655 1763 1986 1881 1767 1874
8 1775 1659 1776 1888 1874 1767 1881 1986
8 1876 1769 1882 1987 1762 1652 1768 1875
8 1878 1770 1883 1988 1764 1653 1769 1876
8 1880 1772 1656 1766 1989 1886 1773 1877
8 1878 1770 1653 1764 1990 1884 1771 1879
8 1765 1654 1772 1880 1879 1771 1885 1991
8 1778 1664 1779 1890 1887 1775 1888 1997
8 1998 1889 1776 1888 1891 1780 1665 1779
8 1893 1782 1891 2000 1781 1668 1779 1890
8 1894 1783 1892 2001 1782 1669 1780 1891
8 1784 1671 1785 1896 1893 1782 1894 2003
8 1897 1786 1895 2004 1785 1672 1783 1894
8 1790 1675 1789 1904 1896 1785 1897 2006
8 1901 1787 1898 2007 1789 1673 1786 1897
8 1903 1788 1900 2013 1789 1673 1787 1901
8 1792 1676 1791 1906 1903 1788 1902 2016
8 1907 1792 1903 2017 1795 1678 1789 1904
8 1906 1791 1677 1794 2019 1905 1793 1909
8 1907 1792 1678 1795 2020 1906 1794 1910
8 1797 1679 1796 1912 1909 1793 1908 2022
8 1798 1680 1797 1913 1910 1794 1909 2023
8 1800 1682 1799 1915 1912 1796 1911 2025
8 1801 1683 1800 1916 1913 1797 1912 2026
8 1803 1687 1804 1918 1915 1799 1914 2028
8 1802 1686 1803 1917 1916 1800 1915 2029
8 1805 1689 1806 1920 1917 1803 1918 2030
8 1806 1690 1807 1921 1918 1804 1919 2031
8 1808 1692 1809 1922 1920 1806 1921 2032
8 1939 1826 1924 2037 1829 1713 1811 1926
8 1926 1811 1925 2039 1813 1697 1812 1928
8 1944 1829 1926 2040 1828 1712 1813 1929
8 1928 1812 1927 2042 1815 1698 1814 1931
8 1929 1813 1928 2043 1816 1699 1815 1932
8 1931 1814 1930 2044 1818 1700 1817 1933
8 1932 1815 1931 2045 1819 1701 1818 1934
8 1934 1818 1933 2046 1821 1704 1820 1935
8 2048 1936 1823 1937 1977 1864 1750 1865
8 1950 1833 1715 1834 2048 1936 1823 1937
8 1938 1824 1751 1866 2049 1937 1865 1978
8 1835 1716 1824 1938 1951 1834 1937 2049
8 1939 1826 1713 1829 2053 1942 1831 1946
8 1940 1827 1923 2035 2053 1942 1826 1939
8 1945 1830 1946 2058 1828 1712 1829 1944
8 2059 1947 1830 1945 1966 1849 1733 1851
8 1947 1832 1730 1849 2060 1948 1848 1965
8 1947 1832 1948 2060 1830 1714 1831 1946
8 1959 1847 1729 1843 2063 1949 1833 1950
8 1952 1843 1725 1836 2064 1950 1834 1951
8 1836 1725 1843 1952 1953 1842 1958 2066
8 1953 1842 1957 2067 1839 1724 1841 1955
8 1841 1955 1838 1723 1956 2068 1954 1840
8 2068 1956 1859 1967 1954 1840 1743 1852
8 1956 1844 1960 2069 1859 1747 1862 1973
8 1845 1957 1841 1727 1960 2069 1956 1844
8 1728 1842 1957 1845 1846 1958 2071 1961
8 1962 2072 1959 1847 1846 1958 1843 1729
8 1971 1861 1964 2077 1857 1746 1848 1965
8 1854 1741 1857 1969 1966 1849 1965 2078
8 1967 1859 1973 2079 1853 1745 1860 1968
8 1970 1858 1744 1856 2080 1972 1860 1968
8 1969 1857 1742 1855 2081 1971 1858 1970
8 1971 1861 1749 1858 2082 1974 1863 1972
8 1973 1862 1975 2083 1860 1748 1863 1972
8 1987 1882 1976 2086 1875 1768 1864 1977
8 1981 1875 1977 2087 1869 1761 1865 1978
8 1980 1877 1763 1868 2088 1986 1874 1979
8 1887 1775 1888 1997 1979 1874 1986 2088
8 1880 1982 2089 1989 1766 1870 1980 1877
8 1984 1876 1987 2090 1872 1762 1875 1981
8 1765 1871 1983 1879 1880 1982 2091 1991
8 1985 1878 1764 1873 2092 1990 1879 1983
8 1985 1878 1988 2093 1873 1764 1876 1984
8 2094 1992 1881 1986 1998 1889 1776 1888
8 1986 1881 1992 2094 1877 1773 1886 1989
8 1988 1883 1993 2095 1876 1769 1882 1987
8 1878 1770 1884 1990 1988 1883 1994 2096
8 1991 1885 1772 1880 2097 1996 1886 1989
8 1879 1771 1885 1991 1990 1884 1995 2098
8 2103 1998 1888 1997 2000 1891 1779 1890
8 2104 1999 1889 1998 2001 1892 1780 1891
8 2003 1894 2001 2106 1893 1782 1891 2000
8 2004 1895 2002 2107 1894 1783 1892 2001
8 2006 1897 2004 2109 1896 1785 1894 2003
8 2007 1898 2005 2110 1897 1786 1895 2004
8 2014 1901 2007 2112 1904 1789 1897 2006
8 2011 1899 2008 2113 1901 1787 1898 2007
8 2119 2010 1899 2011 2013 1900 1787 1901
8 2016 1902 2012 2122 1903 1788 1900 2013
8 2017 1903 2013 2123 1904 1789 1901 2014
8 1906 1791 1905 2019 2016 1902 2015 2125
8 1907 1792 1906 2020 2017 1903 2016 2126
8 1909 1793 1908 2022 2019 1905 2018 2128
8 2020 1906 1794 1910 2129 2019 1909 2023
8 1912 1796 1911 2025 2022 1908 2021 2131
8 1913 1797 1912 2026 2023 1909 2022 2132
8 1915 1799 1914 2028 2025 1911 2024 2134
8 1916 1800 1915 2029 2026 1912 2025 2135
8 1918 1804 1919 2031 2028 1914 2027 2136
8 1917 1803 1918 2030 2029 1915 2028 2137
8 1920 1806 1921 2032 2030 1918 2031 2138
8 1940 1827 1941 2054 2035 1923 2033 2140
8 2035 1923 2034 2143 1939 1826 1924 2037
8 2037 1924 2036 2146 1926 1811 1925 2039
8 2051 1939 2037 2147 1944 1829 1926 2040
8 2039 1925 2038 2149 1928 1812 1927 2042
8 2040 1926 2039 2150 1929 1813 1928 2043
8 2042 1927 2041 2151 1931 1814 1930 2044
8 2043 1928 2042 2152 1932 1815 1931 2045
8 2045 1931 2044 2153 1934 1818 1933 2046
8 2155 2047 1936 2048 2086 1976 1864 1977
8 2063 1949 1833 1950 2155 2047 1936 2048
8 2156 2048 1937 2049 2087 1977 1865 1978
8 2064 1950 1834 1951 2156 2048 1937 2049
8 2051 1939 1829 1944 2160 2053 1946 2058
8 2052 1940 2035 2144 2160 2053 1939 2051
8 2053 1942 1831 1946 2163 2057 1948 2060
8 2055 1943 1827 1940 2163 2057 1942 2053
8 2055 1943 2056 2164 1940 1827 1941 2054
8 2059 1947 1849 1966 2167 2060 1965 2078
8 2059 1947 2060 2167 1945 1830 1946 2058
8 2077 1964 2061 2168 1965 1848 1948 2060
8 2070 1963 1847 1959 2170 2062 1949 2063
8 2065 1959 1843 1952 2171 2063 1950 2064
8 2173 2072 1958 2066 2065 1959 1843 1952
8 1953 1842 1958 2066 2067 1957 2071 2174
8 2068 1956 2069 2175 1967 1859 1973 2079
8 2067 1957 2069 2175 1955 1841 1956 2068
8 1845 1957 2069 1960 1961 2071 2176 2073
8 2069 1960 2073 2176 1973 1862 1975 2083
8 2070 1963 2075 2177 1959 1847 1962 2072
8 1846 1958 2071 1961 1962 2072 2178 2074
8 2077 1964 1861 1971 2182 2076 1974 2082
8 2081 1971 2077 2183 1969 1857 1965 2078
8 2079 1973 2083 2184 1968 1860 1972 2080
8 2081 1971 1858 1970 2185 2082 1972 2080
8 2083 1975 2084 2186 1972 1863 1974 2082
8 2086 1976 1882 1987 2189 2085 1993 2095
8 2090 1987 2086 2190 1981 1875 1977 2087
8 2191 2094 1986 2088 2103 1998 1888 1997
8 2088 1986 2094 2191 1980 1877 1989 2089
8 1991 2091 2192 2097 1880 1982 2089 1989
8 2093 1988 2095 2193 1984 1876 1987 2090
8 1879 1983 2092 1990 1991 2091 2194 2098
8 1985 1878 1990 2092 2093 1988 2096 2195
8 2097 1996 1886 1989 2196 2099 1992 2094
8 2196 2099 1992 2094 2104 1999 1889 1998
8 1994 2096 1988 1883 2100 2197 2095 1993
8 2096 1994 1884 1990 2198 2101 1995 2098
8 1995 2098 2199 2102 1885 1991 2097 1996
8 2203 2104 1998 2103 2106 2001 1891 2000
8 2107 2002 2105 2204 2001 1892 1999 2104
8 2109 2004 2107 2206 2003 1894 2001 2106
8 2110 2005 2108 2207 2004 1895 2002 2107
8 2112 2007 2110 2209 2006 1897 2004 2109
8 2113 2008 2111 2210 2007 1898 2005 2110
8 2120 2011 2113 2212 2014 1901 2007 2112
8 2117 2009 2114 2213 2011 1899 2008 2113
8 2219 2116 2009 2117 2119 2010 1899 2011
8 2222 2118 2010 2119 2122 2012 1900 2013
8 2223 2119 2011 2120 2123 2013 1901 2014
8 2016 1902 2015 2125 2122 2012 2121 2225
8 2126 2016 2122 2226 2017 1903 2013 2123
8 2019 1905 2018 2128 2125 2015 2124 2228
8 2020 1906 2019 2129 2126 2016 2125 2229
8 2022 1908 2021 2131 2128 2018 2127 2231
8 2023 1909 2022 2132 2129 2019 2128 2232
8 2025 1911 2024 2134 2131 2021 2130 2234
8 2026 1912 2025 2135 2132 2022 2131 2235
8 1914 2028 2134 2024 2027 2136 2236 2133
8 2029 1915 2028 2137 2135 2025 2134 2237
8 2030 1918 2031 2138 2137 2028 2136 2238
8 2157 2050 2139 2240 2054 1941 2033 2140
8 2052 1940 2054 2161 2144 2035 2140 2242
8 2140 2033 2141 2243 2035 1923 2034 2143
8 2143 2034 2142 2246 2037 1924 2036 2146
8 2144 2035 2143 2247 2051 1939 2037 2147
8 2146 2036 2145 2249 2039 1925 2038 2149
8 2147 2037 2146 2250 2040 1926 2039 2150
8 2149 2038 2148 2251 2042 1927 2041 2151
8 2150 2039 2149 2252 2043 1928 2042 2152
8 2152 2042 2151 2253 2045 1931 2044 2153
8 2255 2154 2047 2155 2189 2085 1976 2086
8 2170 2062 1949 2063 2255 2154 2047 2155
8 2256 2155 2048 2156 2190 2086 1977 2087
8 2171 2063 1950 2064 2256 2155 2048 2156
8 2258 2159 2050 2157 2164 2056 1941 2054
8 2160 2053 1946 2058 2262 2163 2060 2167
8 2162 2055 1940 2052 2262 2163 2053 2160
8 2162 2055 2164 2263 2052 1940 2054 2161
8 2163 2057 1948 2060 2264 2165 2061 2168
8 2055 1943 2057 2163 2164 2056 2165 2264
8 2182 2076 2166 2268 2077 1964 2061 2168
8 2183 2077 2168 2269 2078 1965 2060 2167
8 2070 1963 2062 2170 2177 2075 2169 2271
8 2172 2070 1959 2065 2272 2170 2063 2171
8 2172 2070 2177 2273 2065 1959 2072 2173
8 2066 1958 2072 2173 2174 2071 2178 2274
8 2067 1957 2071 2174 2175 2069 2176 2275
8 2175 2069 2176 2275 2079 1973 2083 2184
8 2071 1961 2074 2178 2176 2073 2179 2276
8 2176 2073 2179 2276 2083 1975 2084 2186
8 2072 1962 2075 2177 2178 2074 2180 2277
8 2182 2076 1974 2082 2280 2181 2084 2186
8 2183 2077 1971 2081 2281 2182 2082 2185
8 2184 2083 2186 2282 2080 1972 2082 2185
8 2189 2085 1993 2095 2285 2188 2100 2197
8 2190 2086 1987 2090 2286 2189 2095 2193
8 2192 2097 1989 2089 2287 2196 2094 2191
8 2287 2196 2094 2191 2203 2104 1998 2103
8 2194 2098 1991 2091 2288 2199 2097 2192
8 2195 2096 2197 2289 2093 1988 2095 2193
8 2096 2195 2290 2198 1990 2092 2194 2098
8 2097 1996 2099 2196 2199 2102 2200 2291
8 2196 2099 1999 2104 2291 2200 2105 2204
8 2100 2197 2292 2201 1994 2096 2198 2101
8 1995 2098 2198 2101 2102 2199 2293 2202
8 2206 2107 2204 2296 2106 2001 2104 2203
8 2207 2108 2205 2297 2107 2002 2105 2204
8 2209 2110 2207 2299 2109 2004 2107 2206
8 2210 2111 2208 2300 2110 2005 2108 2207
8 2212 2113 2210 2302 2112 2007 2110 2209
8 2213 2114 2211 2303 2113 2008 2111 2210
8 2220 2117 2213 2305 2120 2011 2113 2212
8 2216 2115 2214 2306 2117 2009 2114 2213
8 2216 2115 2009 2117 2311 2217 2116 2219
8 2219 2116 2010 2119 2314 2218 2118 2222
8 2315 2219 2117 2220 2223 2119 2011 2120
8 2122 2012 2121 2225 2222 2118 2221 2317
8 2318 2222 2119 2223 2226 2122 2013 2123
8 2125 2015 2124 2228 2225 2121 2224 2320
8 2126 2016 2125 2229 2226 2122 2225 2321
8 2128 2018 2127 2231 2228 2124 2227 2323
8 2129 2019 2128 2232 2229 2125 2228 2324
8 2131 2021 2130 2234 2231 2127 2230 2326
8 2132 2022 2131 2235 2232 2128 2231 2327
8 2134 2024 2133 2236 2234 2130 2233 2328
8 2135 2025 2134 2237 2235 2131 2234 2329
8 2137 2028 2136 2238 2237 2134 2236 2330
8 2157 2050 2158 2259 2240 2139 2239 2332
8 2257 2157 2240 2334 2161 2054 2140 2242
8 2240 2139 2241 2335 2140 2033 2141 2243
8 2242 2140 2243 2337 2144 2035 2143 2247
8 2243 2141 2244 2338 2143 2034 2142 2246
8 2246 2142 2245 2341 2146 2036 2145 2249
8 2247 2143 2246 2342 2147 2037 2146 2250
8 2249 2145 2248 2343 2149 2038 2148 2251
8 2250 2146 2249 2344 2150 2039 2149 2252
8 2252 2149 2251 2345 2152 2042 2151 2253
8 2169 2271 2347 2254 2062 2170 2255 2154
8 2189 2085 2188 2285 2255 2154 2254 2347
8 2348 2255 2155 2256 2286 2189 2086 2190
8 2272 2170 2063 2171 2348 2255 2155 2256
8 2349 2258 2157 2257 2263 2164 2054 2161
8 2258 2159 2261 2351 2157 2050 2158 2259
8 2258 2159 2056 2164 2351 2261 2165 2264
8 2262 2163 2060 2167 2355 2264 2168 2269
8 2162 2055 2163 2262 2263 2164 2264 2355
8 2357 2266 2165 2264 2268 2166 2061 2168
8 2268 2166 2076 2182 2361 2267 2181 2280
8 2281 2182 2268 2362 2183 2077 2168 2269
8 2271 2169 2270 2364 2177 2075 2180 2277
8 2172 2070 2170 2272 2273 2177 2271 2365
8 2072 2173 2274 2178 2177 2273 2366 2277
8 2071 2174 2275 2176 2178 2274 2367 2276
8 2275 2176 2276 2367 2184 2083 2186 2282
8 2283 2187 2084 2186 2368 2278 2179 2276
8 2178 2074 2180 2277 2276 2179 2278 2368
8 2283 2187 2279 2370 2186 2084 2181 2280
8 2281 2182 2082 2185 2371 2280 2186 2282
8 2188 2285 2374 2284 2100 2197 2292 2201
8 2286 2189 2095 2193 2375 2285 2197 2289
8 2192 2097 2196 2287 2288 2199 2291 2376
8 2287 2196 2104 2203 2376 2291 2204 2296
8 2194 2098 2199 2288 2290 2198 2293 2377
8 2289 2197 2096 2195 2378 2292 2198 2290
8 2291 2200 2105 2204 2379 2294 2205 2297
8 2199 2102 2200 2291 2293 2202 2294 2379
8 2198 2101 2202 2293 2292 2201 2295 2380
8 2299 2207 2297 2383 2206 2107 2204 2296
8 2300 2208 2298 2384 2207 2108 2205 2297
8 2302 2210 2300 2386 2209 2110 2207 2299
8 2303 2211 2301 2387 2210 2111 2208 2300
8 2305 2213 2303 2389 2212 2113 2210 2302
8 2306 2214 2304 2390 2213 2114 2211 2303
8 2310 2216 2306 2392 2220 2117 2213 2305
8 2308 2215 2307 2393 2216 2115 2214 2306
8 2308 2215 2115 2216 2396 2309 2217 2311
8 2310 2216 2117 2220 2398 2311 2219 2315
8 2311 2217 2116 2219 2399 2312 2218 2314
8 2314 2218 2118 2222 2402 2313 2221 2317
8 2315 2219 2119 2223 2403 2314 2222 2318
8 2225 2121 2224 2320 2317 2221 2316 2405
8 2226 2122 2225 2321 2318 2222 2317 2406
8 2228 2124 2227 2323 2320 2224 2319 2408
8 2229 2125 2228 2324 2321 2225 2320 2409
8 2231 2127 2230 2326 2323 2227 2322 2411
8 2232 2128 2231 2327 2324 2228 2323 2412
8 2234 2130 2233 2328 2326 2230 2325 2413
8 2235 2131 2234 2329 2327 2231 2326 2414
8 2237 2134 2236 2330 2329 2234 2328 2415
8 2259 2158 2260 2352 2332 2239 2331 2417
8 2257 2157 2259 2350 2334 2240 2332 2419
8 2240 2139 2239 2332 2335 2241 2333 2420
8 2334 2240 2335 2422 2242 2140 2243 2337
8 2335 2241 2336 2423 2243 2141 2244 2338
8 2337 2243 2338 2425 2247 2143 2246 2342
8 2338 2244 2339 2426 2246 2142 2245 2341
8 2341 2245 2340 2428 2249 2145 2248 2343
8 2342 2246 2341 2429 2250 2146 2249 2344
8 2344 2249 2343 2430 2252 2149 2251 2345
8 2188 2285 2347 2254 2284 2374 2432 2346
8 2347 2254 2346 2432 2271 2169 2270 2364
8 2365 2271 2170 2272 2433 2347 2255 2348
8 2286 2189 2285 2375 2348 2255 2347 2433
8 2349 2258 2351 2435 2257 2157 2259 2350
8 2349 2258 2164 2263 2435 2351 2264 2355
8 2259 2158 2261 2351 2352 2260 2354 2437
8 2356 2265 2354 2437 2264 2165 2261 2351
8 2441 2357 2264 2355 2362 2268 2168 2269
8 2356 2265 2165 2264 2442 2358 2266 2357
8 2443 2359 2266 2357 2361 2267 2166 2268
8 2370 2279 2360 2446 2280 2181 2267 2361
8 2362 2268 2182 2281 2447 2361 2280 2371
8 2180 2277 2368 2278 2270 2364 2449 2363
8 2271 2365 2273 2177 2364 2450 2366 2277
8 2372 2283 2186 2282 2451 2368 2276 2367
8 2178 2274 2367 2276 2277 2366 2451 2368
8 2283 2187 2278 2368 2370 2279 2369 2452
8 2372 2283 2370 2453 2282 2186 2280 2371
8 2284 2374 2455 2373 2201 2292 2380 2295
8 2375 2285 2197 2289 2456 2374 2292 2378
8 2376 2291 2204 2296 2457 2379 2297 2383
8 2288 2199 2291 2376 2377 2293 2379 2457
8 2198 2290 2378 2292 2293 2377 2458 2380
8 2293 2202 2294 2379 2380 2295 2381 2459
8 2384 2298 2381 2459 2297 2205 2294 2379
8 2386 2300 2384 2463 2299 2207 2297 2383
8 2387 2301 2385 2464 2300 2208 2298 2384
8 2389 2303 2387 2466 2302 2210 2300 2386
8 2390 2304 2388 2467 2303 2211 2301 2387
8 2392 2306 2390 2469 2305 2213 2303 2389
8 2393 2307 2391 2470 2306 2214 2304 2390
8 2395 2308 2393 2472 2310 2216 2306 2392
8 2308 2215 2309 2396 2393 2307 2394 2473
8 2395 2308 2216 2310 2475 2396 2311 2398
8 2396 2309 2217 2311 2476 2397 2312 2399
8 2398 2311 2219 2315 2478 2399 2314 2403
8 2399 2312 2218 2314 2479 2400 2313 2402
8 2317 2221 2316 2405 2402 2313 2401 2482
8 2403 2314 2222 2318 2483 2402 2317 2406
8 2320 2224 2319 2408 2405 2316 2404 2485
8 2321 2225 2320 2409 2406 2317 2405 2486
8 2323 2227 2322 2411 2408 2319 2407 2488
8 2324 2228 2323 2412 2409 2320 2408 2489
8 2326 2230 2325 2413 2411 2322 2410 2490
8 2327 2231 2326 2414 2412 2323 2411 2491
8 2329 2234 2328 2415 2414 2326 2413 2492
8 2417 2331 2260 2352 2494 2416 2353 2438
8 2350 2259 2352 2436 2419 2332 2417 2496
8 2332 2239 2331 2417 2420 2333 2418 2497
8 2334 2240 2332 2419 2422 2335 2420 2499
8 2420 2333 2421 2500 2335 2241 2336 2423
8 2422 2335 2423 2502 2337 2243 2338 2425
8 2423 2336 2424 2503 2338 2244 2339 2426
8 2425 2338 2426 2505 2342 2246 2341 2429
8 2426 2339 2427 2506 2341 2245 2340 2428
8 2429 2341 2428 2507 2344 2249 2343 2430
8 2432 2346 2284 2374 2509 2431 2373 2455
8 2432 2346 2431 2509 2364 2270 2363 2449
8 2375 2285 2374 2456 2433 2347 2432 2510
8 2347 2433 2365 2271 2432 2510 2450 2364
8 2350 2259 2351 2435 2436 2352 2437 2514
8 2440 2356 2437 2514 2355 2264 2351 2435
8 2352 2260 2354 2437 2438 2353 2439 2516
8 2356 2265 2358 2442 2437 2354 2439 2516
8 2440 2356 2264 2355 2518 2442 2357 2441
8 2519 2443 2357 2441 2447 2361 2268 2362
8 2443 2359 2444 2520 2357 2266 2358 2442
8 2443 2359 2267 2361 2520 2444 2360 2446
8 2446 2360 2279 2370 2523 2445 2369 2452
8 2453 2370 2446 2524 2371 2280 2361 2447
8 2449 2363 2448 2525 2368 2278 2369 2452
8 2366 2277 2364 2450 2451 2368 2449 2526
8 2372 2283 2368 2451 2453 2370 2452 2527
8 2455 2373 2295 2380 2529 2454 2382 2460
8 2456 2374 2292 2378 2530 2455 2380 2458
8 2377 2293 2379 2457 2458 2380 2459 2531
8 2463 2384 2459 2531 2383 2297 2379 2457
8 2533 2461 2382 2460 2459 2381 2295 2380
8 2464 2385 2461 2533 2384 2298 2381 2459
8 2466 2387 2464 2537 2386 2300 2384 2463
8 2467 2388 2465 2538 2387 2301 2385 2464
8 2469 2390 2467 2540 2389 2303 2387 2466
8 2470 2391 2468 2541 2390 2304 2388 2467
8 2472 2393 2470 2543 2392 2306 2390 2469
8 2393 2307 2394 2473 2470 2391 2471 2544
8 2395 2308 2396 2475 2472 2393 2473 2546
8 2396 2309 2397 2476 2473 2394 2474 2547
8 2475 2396 2311 2398 2549 2476 2399 2478
8 2476 2397 2312 2399 2550 2477 2400 2479
8 2478 2399 2314 2403 2552 2479 2402 2483
8 2479 2400 2313 2402 2553 2480 2401 2482
8 2405 2316 2404 2485 2482 2401 2481 2556
8 2406 2317 2405 2486 2483 2402 2482 2557
8 2408 2319 2407 2488 2485 2404 2484 2559
8 2409 2320 2408 2489 2486 2405 2485 2560
8 2411 2322 2410 2490 2488 2407 2487 2561
8 2412 2323 2411 2491 2489 2408 2488 2562
8 2414 2326 2413 2492 2491 2411 2490 2563
8 2513 2434 2493 2565 2438 2353 2416 2494
8 2496 2417 2352 2436 2567 2494 2438 2515
8 2494 2416 2495 2568 2417 2331 2418 2497
8 2419 2332 2417 2496 2499 2420 2497 2570
8 2497 2418 2498 2571 2420 2333 2421 2500
8 2499 2420 2500 2573 2422 2335 2423 2502
8 2500 2421 2501 2574 2423 2336 2424 2503
8 2502 2423 2503 2576 2425 2338 2426 2505
8 2503 2424 2504 2577 2426 2339 2427 2506
8 2505 2426 2506 2578 2429 2341 2428 2507
8 2509 2431 2373 2455 2580 2508 2454 2529
8 2509 2431 2508 2580 2449 2363 2448 2525
8 2432 2510 2581 2509 2374 2456 2530 2455
8 2432 2510 2450 2364 2509 2581 2526 2449
8 2583 2511 2434 2513 2516 2439 2353 2438
8 2436 2352 2437 2514 2515 2438 2516 2588
8 2440 2356 2442 2518 2514 2437 2516 2588
8 2442 2358 2444 2520 2516 2439 2517 2589
8 2519 2443 2520 2591 2441 2357 2442 2518
8 2519 2443 2361 2447 2591 2520 2446 2524
8 2446 2360 2445 2523 2520 2444 2521 2592
8 2525 2448 2522 2593 2452 2369 2445 2523
8 2524 2446 2370 2453 2594 2523 2452 2527
8 2526 2449 2525 2595 2451 2368 2452 2527
8 2534 2462 2528 2597 2460 2382 2454 2529
8 2530 2455 2380 2458 2598 2529 2460 2532
8 2599 2533 2460 2532 2531 2459 2380 2458
8 2537 2464 2533 2599 2463 2384 2459 2531
8 2534 2462 2382 2460 2601 2535 2461 2533
8 2538 2465 2535 2601 2464 2385 2461 2533
8 2540 2467 2538 2604 2466 2387 2464 2537
8 2541 2468 2539 2605 2467 2388 2465 2538
8 2543 2470 2541 2607 2469 2390 2467 2540
8 2470 2391 2471 2544 2541 2468 2542 2608
8 2472 2393 2473 2546 2543 2470 2544 2610
8 2473 2394 2474 2547 2544 2471 2545 2611
8 2475 2396 2476 2549 2546 2473 2547 2613
8 2476 2397 2477 2550 2547 2474 2548 2614
8 2549 2476 2399 2478 2616 2550 2479 2552
8 2479 2400 2480 2553 2550 2477 2551 2617
8 2552 2479 2402 2483 2619 2553 2482 2557
8 2482 2401 2481 2556 2553 2480 2554 2620
8 2485 2404 2484 2559 2556 2481 2555 2623
8 2486 2405 2485 2560 2557 2482 2556 2624
8 2488 2407 2487 2561 2559 2484 2558 2625
8 2489 2408 2488 2562 2560 2485 2559 2626
8 2491 2411 2490 2563 2562 2488 2561 2627
8 2513 2434 2512 2585 2565 2493 2564 2630
8 2586 2513 2565 2632 2515 2438 2494 2567
8 2565 2493 2566 2633 2494 2416 2495 2568
8 2567 2494 2568 2635 2496 2417 2497 2570
8 2568 2495 2569 2636 2497 2418 2498 2571
8 2570 2497 2571 2638 2499 2420 2500 2573
8 2571 2498 2572 2639 2500 2421 2501 2574
8 2573 2500 2574 2641 2502 2423 2503 2576
8 2574 2501 2575 2642 2503 2424 2504 2577
8 2576 2503 2577 2643 2505 2426 2506 2578
8 2597 2528 2579 2645 2529 2454 2508 2580
8 2580 2508 2579 2645 2525 2448 2522 2593
8 2581 2509 2455 2530 2646 2580 2529 2598
8 2581 2509 2580 2646 2526 2449 2525 2595
8 2583 2511 2582 2648 2513 2434 2512 2585
8 2583 2511 2439 2516 2648 2582 2517 2589
8 2649 2583 2513 2586 2588 2516 2438 2515
8 2589 2517 2444 2520 2653 2587 2521 2592
8 2518 2442 2520 2591 2588 2516 2589 2654
8 2593 2522 2590 2655 2523 2445 2521 2592
8 2524 2446 2523 2594 2591 2520 2592 2656
8 2595 2525 2593 2657 2527 2452 2523 2594
8 2602 2536 2596 2659 2534 2462 2528 2597
8 2600 2534 2597 2660 2532 2460 2529 2598
8 2600 2534 2460 2532 2661 2601 2533 2599
8 2604 2538 2601 2661 2537 2464 2533 2599
8 2602 2536 2462 2534 2663 2603 2535 2601
8 2601 2535 2465 2538 2663 2603 2539 2605
8 2607 2541 2605 2665 2540 2467 2538 2604
8 2608 2542 2606 2666 2541 2468 2539 2605
8 2543 2470 2544 2610 2607 2541 2608 2668
8 2544 2471 2545 2611 2608 2542 2609 2669
8 2546 2473 2547 2613 2610 2544 2611 2671
8 2547 2474 2548 2614 2611 2545 2612 2672
8 2549 2476 2550 2616 2613 2547 2614 2674
8 2550 2477 2551 2617 2614 2548 2615 2675
8 2552 2479 2553 2619 2616 2550 2617 2677
8 2553 2480 2554 2620 2617 2551 2618 2678
8 2557 2482 2556 2624 2619 2553 2620 2680
8 2556 2481 2555 2623 2620 2554 2621 2681
8 2559 2484 2558 2625 2623 2555 2622 2683
8 2560 2485 2559 2626 2624 2556 2623 2684
8 2562 2488 2561 2627 2626 2559 2625 2685
8 2690 2629 2564 2630 2650 2584 2512 2585
8 2586 2513 2585 2651 2632 2565 2630 2691
8 2630 2564 2631 2692 2565 2493 2566 2633
8 2632 2565 2633 2694 2567 2494 2568 2635
8 2633 2566 2634 2695 2568 2495 2569 2636
8 2635 2568 2636 2697 2570 2497 2571 2638
8 2636 2569 2637 2698 2571 2498 2572 2639
8 2638 2571 2639 2700 2573 2500 2574 2641
8 2639 2572 2640 2701 2574 2501 2575 2642
8 2641 2574 2642 2702 2576 2503 2577 2643
8 2597 2528 2596 2659 2645 2579 2644 2704
8 2645 2579 2644 2704 2593 2522 2590 2655
8 2660 2597 2645 2705 2598 2529 2580 2646
8 2646 2580 2645 2705 2595 2525 2593 2657
8 2650 2584 2512 2585 2707 2647 2582 2648
8 2648 2582 2517 2589 2707 2647 2587 2653
8 2649 2583 2648 2708 2586 2513 2585 2651
8 2649 2583 2516 2588 2708 2648 2589 2654
8 2655 2590 2652 2710 2592 2521 2587 2653
8 2654 2589 2520 2591 2711 2653 2592 2656
8 2657 2593 2655 2712 2594 2523 2592 2656
8 2602 2536 2603 2663 2659 2596 2658 2714
8 2662 2602 2659 2715 2600 2534 2597 2660
8 2662 2602 2534 2600 2717 2663 2601 2661
8 2661 2601 2538 2604 2717 2663 2605 2665
8 2666 2606 2664 2718 2605 2539 2603 2663
8 2668 2608 2666 2720 2607 2541 2605 2665
8 2608 2542 2609 2669 2666 2606 2667 2721
8 2610 2544 2611 2671 2668 2608 2669 2723
8 2611 2545 2612 2672 2669 2609 2670 2724
8 2613 2547 2614 2674 2671 2611 2672 2726
8 2614 2548 2615 2675 2672 2612 2673 2727
8 2616 2550 2617 2677 2674 2614 2675 2729
8 2617 2551 2618 2678 2675 2615 2676 2730
8 2619 2553 2620 2680 2677 2617 2678 2732
8 2620 2554 2621 2681 2678 2618 2679 2733
8 2624 2556 2623 2684 2680 2620 2681 2735
8 2681 2621 2555 2623 2736 2682 2622 2683
8 2626 2559 2625 2685 2684 2623 2683 2737
8 2688 2628 2584 2650 2740 2686 2647 2707
8 2688 2628 2687 2742 2650 2584 2629 2690
8 2690 2629 2689 2745 2630 2564 2631 2692
8 2746 2690 2630 2691 2709 2650 2585 2651
8 2691 2630 2692 2747 2632 2565 2633 2694
8 2692 2631 2693 2748 2633 2566 2634 2695
8 2694 2633 2695 2750 2635 2568 2636 2697
8 2695 2634 2696 2751 2636 2569 2637 2698
8 2697 2636 2698 2753 2638 2571 2639 2700
8 2698 2637 2699 2754 2639 2572 2640 2701
8 2700 2639 2701 2755 2641 2574 2642 2702
8 2659 2596 2658 2714 2704 2644 2703 2757
8 2704 2644 2703 2757 2655 2590 2652 2710
8 2660 2597 2659 2715 2705 2645 2704 2758
8 2705 2645 2704 2758 2657 2593 2655 2712
8 2759 2706 2647 2707 2710 2652 2587 2653
8 2709 2650 2585 2651 2760 2707 2648 2708
8 2708 2648 2589 2654 2760 2707 2653 2711
8 2712 2655 2710 2761 2656 2592 2653 2711
8 2763 2713 2658 2714 2718 2664 2603 2663
8 2662 2602 2663 2717 2715 2659 2714 2764
8 2720 2666 2718 2767 2665 2605 2663 2717
8 2768 2719 2664 2718 2721 2667 2606 2666
8 2668 2608 2669 2723 2720 2666 2721 2770
8 2669 2609 2670 2724 2721 2667 2722 2771
8 2671 2611 2672 2726 2723 2669 2724 2773
8 2672 2612 2673 2727 2724 2670 2725 2774
8 2674 2614 2675 2729 2726 2672 2727 2776
8 2675 2615 2676 2730 2727 2673 2728 2777
8 2677 2617 2678 2732 2729 2675 2730 2779
8 2678 2618 2679 2733 2730 2676 2731 2780
8 2680 2620 2681 2735 2732 2678 2733 2782
8 2733 2679 2621 2681 2783 2734 2682 2736
8 2735 2681 2623 2684 2784 2736 2683 2737
8 2740 2686 2647 2707 2787 2738 2706 2759
8 2688 2628 2686 2740 2742 2687 2739 2789
8 2743 2688 2650 2709 2790 2740 2707 2760
8 2742 2687 2741 2792 2690 2629 2689 2745
8 2743 2688 2742 2793 2709 2650 2690 2746
8 2745 2689 2744 2795 2692 2631 2693 2748
8 2746 2690 2745 2796 2691 2630 2692 2747
8 2747 2692 2748 2797 2694 2633 2695 2750
8 2748 2693 2749 2798 2695 2634 2696 2751
8 2750 2695 2751 2800 2697 2636 2698 2753
8 2751 2696 2752 2801 2698 2637 2699 2754
8 2753 2698 2754 2802 2700 2639 2701 2755
8 2763 2713 2756 2804 2714 2658 2703 2757
8 2759 2706 2652 2710 2804 2756 2703 2757
8 2715 2659 2714 2764 2758 2704 2757 2805
8 2758 2704 2757 2805 2712 2655 2710 2761
8 2806 2759 2707 2760 2761 2710 2653 2711
8 2765 2716 2762 2808 2718 2664 2713 2763
8 2809 2763 2714 2764 2767 2718 2663 2717
8 2765 2716 2664 2718 2811 2766 2719 2768
8 2813 2768 2718 2767 2770 2721 2666 2720
8 2814 2769 2719 2768 2771 2722 2667 2721
8 2723 2669 2724 2773 2770 2721 2771 2816
8 2724 2670 2725 2774 2771 2722 2772 2817
8 2726 2672 2727 2776 2773 2724 2774 2819
8 2727 2673 2728 2777 2774 2725 2775 2820
8 2729 2675 2730 2779 2776 2727 2777 2822
8 2730 2676 2731 2780 2777 2728 2778 2823
8 2732 2678 2733 2782 2779 2730 2780 2825
8 2780 2731 2679 2733 2826 2781 2734 2783
8 2782 2733 2681 2735 2827 2783 2736 2784
8 2830 2785 2738 2787 2804 2756 2706 2759
8 2789 2739 2686 2740 2832 2786 2738 2787
8 2790 2740 2707 2760 2833 2787 2759 2806
8 2742 2687 2739 2789 2792 2741 2788 2835
8 2743 2688 2740 2790 2793 2742 2789 2836
8 2792 2741 2791 2838 2745 2689 2744 2795
8 2793 2742 2792 2839 2746 2690 2745 2796
8 2795 2744 2794 2841 2748 2693 2749 2798
8 2796 2745 2795 2842 2747 2692 2748 2797
8 2797 2748 2798 2843 2750 2695 2751 2800
8 2798 2749 2799 2844 2751 2696 2752 2801
8 2800 2751 2801 2845 2753 2698 2754 2802
8 2808 2762 2803 2847 2763 2713 2756 2804
8 2809 2763 2804 2848 2764 2714 2757 2805
8 2806 2759 2710 2761 2848 2804 2757 2805
8 2765 2716 2766 2811 2808 2762 2807 2850
8 2810 2765 2808 2851 2767 2718 2763 2809
8 2810 2765 2718 2767 2852 2811 2768 2813
8 2811 2766 2719 2768 2853 2812 2769 2814
8 2855 2814 2768 2813 2816 2771 2721 2770
8 2856 2815 2769 2814 2817 2772 2722 2771
8 2773 2724 2774 2819 2816 2771 2817 2858
8 2774 2725 2775 2820 2817 2772 2818 2859
8 2776 2727 2777 2822 2819 2774 2820 2861
8 2777 2728 2778 2823 2820 2775 2821 2862
8 2779 2730 2780 2825 2822 2777 2823 2864
8 2823 2778 2731 2780 2865 2824 2781 2826
8 2825 2780 2733 2782 2866 2826 2783 2827
8 2869 2828 2785 2830 2847 2803 2756 2804
8 2871 2829 2786 2832 2830 2785 2738 2787
8 2872 2830 2787 2833 2848 2804 2759 2806
8 2789 2739 2786 2832 2835 2788 2831 2874
8 2836 2789 2740 2790 2875 2832 2787 2833
8 2792 2741 2788 2835 2838 2791 2834 2877
8 2793 2742 2789 2836 2839 2792 2835 2878
8 2838 2791 2837 2880 2795 2744 2794 2841
8 2839 2792 2838 2881 2796 2745 2795 2842
8 2841 2794 2840 2882 2798 2749 2799 2844
8 2842 2795 2841 2883 2797 2748 2798 2843
8 2843 2798 2844 2884 2800 2751 2801 2845
8 2886 2846 2803 2847 2850 2807 2762 2808
8 2851 2808 2847 2887 2809 2763 2804 2848
8 2850 2807 2766 2811 2889 2849 2812 2853
8 2810 2765 2811 2852 2851 2808 2850 2890
8 2852 2811 2768 2813 2891 2853 2814 2855
8 2853 2812 2769 2814 2892 2854 2815 2856
8 2894 2856 2814 2855 2858 2817 2771 2816
8 2817 2772 2818 2859 2856 2815 2857 2895
8 2819 2774 2820 2861 2858 2817 2859 2897
8 2820 2775 2821 2862 2859 2818 2860 2898
8 2822 2777 2823 2864 2861 2820 2862 2900
8 2823 2778 2824 2865 2862 2821 2863 2901
8 2864 2823 2780 2825 2902 2865 2826 2866
8 2904 2867 2828 2869 2886 2846 2803 2847
8 2869 2828 2868 2906 2830 2785 2829 2871
8 2907 2869 2830 2872 2887 2847 2804 2848
8 2871 2829 2870 2909 2832 2786 2831 2874
8 2910 2871 2832 2875 2872 2830 2787 2833
8 2835 2788 2831 2874 2877 2834 2873 2912
8 2836 2789 2832 2875 2878 2835 2874 2913
8 2877 2834 2876 2915 2838 2791 2837 2880
8 2839 2792 2835 2878 2881 2838 2877 2916
8 2880 2837 2879 2917 2841 2794 2840 2882
8 2881 2838 2880 2918 2842 2795 2841 2883
8 2883 2841 2882 2919 2843 2798 2844 2884
8 2921 2885 2846 2886 2889 2849 2807 2850
8 2922 2886 2847 2887 2890 2850 2808 2851
8 2889 2849 2812 2853 2924 2888 2854 2892
8 2890 2850 2811 2852 2925 2889 2853 2891
8 2891 2853 2814 2855 2926 2892 2856 2894
8 2892 2854 2815 2856 2927 2893 2857 2895
8 2858 2817 2859 2897 2894 2856 2895 2929
8 2859 2818 2860 2898 2895 2857 2896 2930
8 2861 2820 2862 2900 2897 2859 2898 2932
8 2862 2821 2863 2901 2898 2860 2899 2933
8 2864 2823 2865 2902 2900 2862 2901 2934
8 2904 2867 2846 2886 2936 2903 2885 2921
8 2904 2867 2903 2936 2869 2828 2868 2906
8 2937 2904 2869 2907 2922 2886 2847 2887
8 2906 2868 2905 2939 2871 2829 2870 2909
8 2907 2869 2906 2940 2872 2830 2871 2910
8 2909 2870 2908 2942 2874 2831 2873 2912
8 2910 2871 2909 2943 2875 2832 2874 2913
8 2912 2873 2911 2945 2877 2834 2876 2915
8 2878 2835 2874 2913 2916 2877 2912 2946
8 2915 2876 2914 2947 2880 2837 2879 2917
8 2916 2877 2915 2948 2881 2838 2880 2918
8 2918 2880 2917 2949 2883 2841 2882 2919
8 2921 2885 2849 2889 2951 2920 2888 2924
8 2952 2921 2886 2922 2925 2889 2850 2890
8 2924 2888 2854 2892 2954 2923 2893 2927
8 2925 2889 2853 2891 2955 2924 2892 2926
8 2926 2892 2856 2894 2956 2927 2895 2929
8 2895 2857 2896 2930 2927 2893 2928 2957
8 2897 2859 2898 2932 2929 2895 2930 2959
8 2898 2860 2899 2933 2930 2896 2931 2960
8 2900 2862 2901 2934 2932 2898 2933 2961
8 2936 2903 2885 2921 2963 2935 2920 2951
8 2936 2903 2935 2963 2906 2868 2905 2939
8 2937 2904 2886 2922 2964 2936 2921 2952
8 2937 2904 2936 2964 2907 2869 2906 2940
8 2939 2905 2938 2966 2909 2870 2908 2942
8 2940 2906 2939 2967 2910 2871 2909 2943
8 2942 2908 2941 2969 2912 2873 2911 2945
8 2943 2909 2942 2970 2913 2874 2912 2946
8 2945 2911 2944 2971 2915 2876 2914 2947
8 2946 2912 2945 2972 2916 2877 2915 2948
8 2948 2915 2947 2973 2918 2880 2917 2949
8 2951 2920 2888 2924 2975 2950 2923 2954
8 2952 2921 2889 2925 2976 2951 2924 2955
8 2927 2893 2928 2957 2954 2923 2953 2978
8 2955 2924 2892 2926 2979 2954 2927 2956
8 2929 2895 2930 2959 2956 2927 2957 2980
8 2930 2896 2931 2960 2957 2928 2958 2981
8 2932 2898 2933 2961 2959 2930 2960 2982
8 2951 2920 2950 2975 2963 2935 2962 2984
8 2963 2935 2962 2984 2939 2905 2938 2966
8 2964 2936 2921 2952 2985 2963 2951 2976
8 2964 2936 2963 2985 2940 2906 2939 2967
8 2966 2938 2965 2987 2942 2908 2941 2969
8 2967 2939 2966 2988 2943 2909 2942 2970
8 2969 2941 2968 2989 2945 2911 2944 2971
8 2970 2942 2969 2990 2946 2912 2945 2972
8 2972 2945 2971 2991 2948 2915 2947 2973
8 2954 2923 2953 2978 2975 2950 2974 2993
8 2976 2951 2924 2955 2994 2975 2954 2979
8 2957 2928 2958 2981 2978 2953 2977 2995
8 2956 2927 2957 2980 2979 2954 2978 2996
8 2959 2930 2960 2982 2980 2957 2981 2997
8 2984 2962 2983 2999 2966 2938 2965 2987
8 2975 2950 2974 2993 2984 2962 2983 2999
8 2976 2951 2975 2994 2985 2963 2984 3000
8 2985 2963 2984 3000 2967 2939 2966 2988
8 2987 2965 2986 3001 2969 2941 2968 2989
8 2988 2966 2987 3002 2970 2942 2969 2990
8 2990 2969 2989 3003 2972 2945 2971 2991
8 2978 2953 2977 2995 2993 2974 2992 3004
8 2979 2954 2978 2996 2994 2975 2993 3005
8 2980 2957 2981 2997 2996 2978 2995 3006
8 2974 2993 2999 2983 2992 3004 3007 2998
8 2983 2999 2987 2965 2998 3007 3001 2986
8 3000 2984 2999 3008 2988 2966 2987 3002
8 2994 2975 2993 3005 3000 2984 2999 3008
8 3002 2987 3001 3009 2990 2969 2989 3003
8 2996 2978 2995 3006 3005 2993 3004 3010
8 3005 2993 3004 3010 3008 2999 3007 3011
8 3008 2999 3007 3011 3002 2987 3001 3009

CELL_TYPES 1910
12
12
12
12
12
12
12
12
12
12
12
12
12
12
12
12
12
12
12
12
12
12
12
12
12
12
12
12
12
12
12
12
12
12
12
12
12
12
12
12
12
12
12
12
12
12
12
12
12
12
12
12
12
12
12
12
12
12
12
12
12
12
12
12
12
12
12
12
12
12
12
12
12
12
12
12
12
12
12
12
12
12
12
12
12
12
12
12
12
12
12
12
12
12
12
12
12
12
12
12
12
12
12
12
12
12
12
12
12
12
12
12
12
12
12
12
12
12
12
12
12
12
12
12
12
12
12
12
12
12
12
12
12
12
12
12
12
12
12
12
12
12
12
12
12
12
12
12
12
12
12
12
12
12
12
12
12
12
12
12
12
12
12
12
12
12
12
12
12
12
12
12
12
12
12
12
12
12
12
12
12
12
12
12
12
12
12
12
12
12
12
12
12
12
12
12
12
12
12
12
12
12
12
12
12
12
12
12
12
12
12
12
12
12
12
12
12
12
12
12
12
12
12
12
12
12
12
12
12
12
12
12
12
12
12
12
12
12
12
12
12
12
12
12
12
12
12
12
12
12
12
12
12
12
12
12
12
12
12
12
12
12
12
12
12
12
12
12
12
12
12
12
12
12
12
12
12
12
12
12
12
12
12
12
12
12
12
12
12
12
12
12
12
12
12
12
12
12
12
12
12
12
12
12
12
12
12
12
12
12
12
12
12
12
12
12
12
12
12
12
12
12
12
12
12
12
12
12
12
12
12
12
12
12
12
12
12
12
12
12
12
12
12
12
12
12
12
12
12
12
12
12
12
12
12
12
12
12
12
12
12
12
12
12
12
12
12
12
12
12
12
12
12
12
12
12
12
12
12
12
12
12
12
12
12
12
12
12
12
12
12
12
12
12
12
12
12
12
12
12
12
12
12
12
12
12
12
12
12
12
12
12
12
12
12
12
12
12
12
12
12
12
12
12
12
12
12
12
12
12
12
12
12
12
12
12
12
12
12
12
12
12
12
12
12
12
12
12
12
12
12
12
12
12
12
12
12
12
12
12
12
12
12
12
12
12
12
12
12
12
12
12
12
12
12
12
12
12
12
12
12
12
12
12
12
12
12
12
12
12
12
12
12
12
12
12
12
12
12
12
12
12
12
12
12
12
12
12
12
12
12
12
12
12
12
12
12
12
12
12
12
12
12
12
12
12
12
12
12
12
12
12
12
12
12
12
12
12
12
12
12
12
12
12
12
12
12
12
12
12
12
12
12
12
12
12
12
12
12
12
12
12
12
12
12
12
12
12
12
12
12
12
12
12
12
12
12
12
12
12
12
12
12
12
12
12
12
12
12
12
12
12
12
12
12
12
12
12
12
12
12
12
12
12
12
12
12
12
12
12
12
12
12
12
12
12
12
12
12
12
12
12
12
12
12
12
12
12
12
12
12
12
12
12
12
12
12
12
12
12
12
12
12
12
12
12
12
12
12
12
12
12
12
12
12
12
12
12
12
12
12
12
12
12
12
12
12
12
12
12
12
12
12
12
12
12
12
12
12
12
12
12
12
12
12
12
12
12
12
12
12
12
12
12
12
12
12
12
12
12
12
12
12
12
12
12
12
12
12
12
12
12
12
12
12
12
12
12
12
12
12
12
12
12
12
12
12
12
12
12
12
12
12
12
12
12
12
12
12
12
12
12
12
12
12
12
12
12
12
12
12
12
12
12
12
12
12
12
12
12
12
12
12
12
12
12
12
12
12
12
12
12
12
12
12
12
12
12
12
12
12
12
12
12
12
12
12
12
12
12
12
12
12
12
12
12
12
12
12
12
12
12
12
12
12
12
12
12
12
12
12
12
12
12
12
12
12
12
12
12
12
12
12
12
12
12
12
12
12
12
12
12
12
12
12
12
12
12
12
12
12
12
12
12
12
12
12
12
12
12
12
12
12
12
12
12
12
12
12
12
12
12
12
12
12
12
12
12
12
12
12
12
12
12
12
12
12
12
12
12
12
12
12
12
12
12
12
12
12
12
12
12
12
12
12
12
12
12
12
12
12
12
12
12
12
12
12
12
12
12
12
12
12
12
12
12
12
12
12
12
12
12
12
12
12
12
12
12
12
12
12
12
12
12
12
12
12
12
12
12
12
12
12
12
12
12
12
12
12
12
12
12
12
12
12
12
12
12
12
12
12
12
12
12
12
12
12
12
12
12
12
12
12
12
12
12
12
12
12
12
12
12
12
12
12
12
12
12
12
12
12
12
12
12
12
12
12
12
12
12
12
12
12
12
12
12
12
12
12
12
12
12
12
12
12
12
12
12
12
12
12
12
12
12
12
12
12
12
12
12
12
12
12
12
12
12
12
12
12
12
12
12
12
12
12
12
12
12
12
12
12
12
12
12
12
12
12
12
12
12
12
12
12
12
12
12
12
12
12
12
12
12
12
12
12
12
12
12
12
12
12
12
12
12
12
12
12
12
12
12
12
12
12
12
12
12
12
12
12
12
12
12
12
12
12
12
12
12
12
12
12
12
12
12
12
12
12
12
12
12
12
12
12
12
12
12
12
12
12
12
12
12
12
12
12
12
12
12
12
12
12
12
12
12
12
12
12
12
12
12
12
12
12
12
12
12
12
12
12
12
12
12
12
12
12
12
12
12
12
12
12
12
12
12
12
12
12
12
12
12
12
12
12
12
12
12
12
12
12
12
12
12
12
12
12
12
12
12
12
12
12
12
12
12
12
12
12
12
12
12
12
12
12
12
12
12
12
12
12
12
12
12
12
12
12
12
12
12
12
12
12
12
12
12
12
12
12
12
12
12
12
12
12
12
12
12
12
12
12
12
12
12
12
12
12
12
12
12
12
12
12
12
12
12
12
12
12
12
12
12
12
12
12
12
12
12
12
12
12
12
12
12
12
12
12
12
12
12
12
12
12
12
12
12
12
12
12
12
12
12
12
12
12
12
12
12
12
12
12
12
12
12
12
12
12
12
12
12
12
12
12
12
12
12
12
12
12
12
12
12
12
12
12
12
12
12
12
12
12
12
12
12
12
12
12
12
12
12
12
12
12
12
12
12
12
12
12
12
12
12
12
12
12
12
12
12
12
12
12
12
12
12
12
12
12
12
12
12
12
12
12
12
12
12
12
12
12
12
12
12
12
12
12
12
12
12
12
12
12
12
12
12
12
12
12
12
12
12
12
12
12
12
12
12
12
12
12
12
12
12
12
12
12
12
12
12
12
12
12
12
12
12
12
12
12
12
12
12
12
12
12
12
12
12
12
12
12
12
12
12
12
12
12
12
12
12
12
12
12
12
12
12
12
12
12
12
12
12
12
12
12
12
12
12
12
12
12
12
12
12
12
12
12
12
12
12
12
12
12
12
12
12
12
12
12
12
12
12
12
12
12
12
12
12
12
12
12
12
12
12
12
12
12
12
12
12
12
12
12
12
12
12
12
12
12
12
12
12
12
12
12
12
12
12
12
12
12
12
12
12
12
12
12
12
12
12
12
12
12
12
12
12
12
12
12
12
12
12
12
12
12
12
12
12
12
12
12
12
12
12
12
12
12
12
12
12
12
12
12
12
12
12
12
12
12
12
12
12
12
12
12
12
12
12
12
12
12
12
12
12
12
12
12
12
12
12
12
12
12
12
12
12
12
12
12
12
12
12
12
12
12
12
12
12
12
12
12
12
12
12
12
12
12
12
12
12
12
12
12
12
12
12
12
12
12
12
12
12
12
12
12
12
12
12
12
12
12
12
12
12
12
12
12
12
12
12
12
12
12
12
12
12
12
12
12
12
12
12
12
12
12
12
12
12
12
12
12
12
12
12
12
12
12
12
12
12
12
12
12
12
12
12
12
12
12
12
12
12
12
12
12
12
12
12
12
12
12
12
12
12
12
12
12
12
12
12
12
12
12
12
12
12
12
12
12
12
12
12
12
12
12
12
12
12
12
12
12
12
12
12
12
12
12
12
12
12
12
12
12
12
12
12
12
12
12
12
12
12
12
12
12
12
12
12
12
12
12
12
12
12
12
12
12
12
12
12
12
12
12
12
12
12
12
12
12
12
12
12
12
12
12
12
12
12
12
12
12
12
12
12
12
12
12
12
12
12
12
12
12
12
12
12
12
12
12
12
12
12
12
12
12
12
12
12
12
12
12
12
12
12
12
12
12
12
12
12
12
12
12
12
12
12
12
12
12
12
12
12
12
12
12
12
12
12
12
12
12
12
12
12
12
12
12
12
12
12
12
12
12
12
12
12
12
12
12
12
12
12
12
12
12
12
12
12
12
12
12
12
12
12
12
12
12
12
12
12
12
12
12
12

POINT_DATA 3012
SCALARS Jp_lamdaP float 4
LOOKUP_TABLE default
0.999901 1 1 0.999901
1 1 1 1
0.999904 1 1 0.999904
0.999865 1 1 0.999865
0.999899 1 1 0.999899
0.9999 1 1 0.9999
0.999465 1 1 0.999465
1 1 1 1
1 1 1 1
1 1 1 1
0.999969 1 1 0.999969
0.999634 1 1 0.999634
0.999824 1 1 0.999824
0.999855 1 1 0.999855
0.999904 1 1 0.999904
0.999877 1 1 0.999877
0.999904 1 1 0.999904
0.999906 1 1 0.999906
0.999468 1 1 0.999468
1 1 1 1
0.999847 1 1 0.999847
0.999885 1 1 0.999885
0.999341 1 1 0.999341
0.999433 1 1 0.999433
0.999924 1 1 0.999924
0.999503 1 1 0.999503
0.998768 1 1 0.998768
1 1 1 1
0.99994 1 1 0.99994
0.999953 1 1 0.999953
1 1 1 1
0.999643 1 1 0.999643
0.999875 1 1 0.999875
0.999897 1 1 0.999897
0.999532 1 1 0.999532
1 1 1 1
0.999623 1 1 0.999623
0.999724 1 1 0.999724
0.99884 1 1 0.99884
1 1 1 1
1 1 1 1
0.999926 1 1 0.999926
1 1 1 1
0.999845 1 1 0.999845
0.999274 1 1 0.999274
1 1 1 1
0.999446 1 1 0.999446
0.999887 1 1 0.999887
0.999909 1 1 0.999909
0.999907 1 1 0.999907
0.999473 1 1 0.999473
0.999911 1 1 0.999911
0.999859 1 1 0.999859
0.999932 1 1 0.999932
0.999895 1 1 0.999895
0.999341 1 1 0.999341
0.999508 1 1 0.999508
0.999436 1 1 0.999436
0.998753 1 1 0.998753
1 1 1 1
0.999833 1 1 0.999833
0.999408 1 1 0.999408
0.999307 1 1 0.999307
0.999387 1 1 0.999387
0.998476 1 1 0.998476
0.998611 1 1 0.998611
0.999967 1 1 0.999967
0.999618 1 1 0.999618
0.998875 1 1 0.998875
1.00003 1.00192 1 0.998115
1 1 1 1
1 1 1 1
1 1 1 1
0.999651 1 1 0.999651
1 1 1 1
1 1 1 1
0.999477 1 1 0.999477
0.999995 1 1 0.999995
0.999584 1 1 0.999584
0.999759 1 1 0.999759
0.998837 1 1 0.998837
1 1 1 1
0.999978 1 1 0.999978
0.999422 1 1 0.999422
0.999514 1 1 0.999514
0.99846 1.00003 1 0.998433
0.999857 1 1 0.999857
0.998738 1 1 0.998738
0.998968 1 1 0.998968
0.998363 1 1 0.998363
1 1 1 1
1 1 1 1
1 1 1 1
1 1 1 1
1 1 1 1
0.999919 1 1 0.999919
0.999338 1 1 0.999338
0.99993 1 1 0.99993
0.999413 1 1 0.999413
1 1 1 1
0.999253 1 1 0.999253
0.999415 1 1 0.999415
0.998241 1.00012 1 0.998122
0.999478 1 1 0.999478
0.998619 1.0004 1 0.998219
0.99984 1 1 0.99984
0.99987 1 1 0.99987
0.99994 1 1 0.99994
0.999903 1 1 0.999903
0.999343 1 1 0.999343
0.99944 1 1 0.99944
0.999513 1 1 0.999513
0.998739 1 1 0.998739
1 1 1 1
0.999846 1 1 0.999846
0.999278 1 1 0.999278
0.999307 1 1 0.999307
0.999983 1 1 0.999983
0.999663 1 1 0.999663
0.999389 1 1 0.999389
0.998439 1 1 0.998439
0.998856 1 1 0.998856
0.998637 1 1 0.998637
1.00034 1.00223 1 0.998118
0.999274 1 1 0.999274
0.999282 1 1 0.999282
0.998263 1 1 0.998262
0.998383 1.00002 1 0.998364
0.998496 1 1 0.998496
1.00405 1.00618 1 0.997888
1 1 1 1
1.00114 1.00311 1 0.998039
0.999816 1 1 0.999816
0.998935 1 1 0.998935
0.999427 1.00124 1 0.998189
1.00631 1.00845 1 0.997875
0.999929 1 1 0.999929
0.999369 1 1 0.999369
1 1 1 1
1 1 1 1
0.999483 1 1 0.999483
1 1 1 1
0.999767 1 1 0.999767
0.999588 1 1 0.999588
0.998835 1 1 0.998835
1 1 1 1
0.999986 1 1 0.999986
0.999466 1 1 0.999466
0.999555 1 1 0.999555
0.998448 1.00001 1 0.998435
0.999876 1 1 0.999876
0.99874 1 1 0.99874
0.998967 1 1 0.998967
0.998348 1 1 0.998348
0.999933 1 1 0.999933
0.999998 1 1 0.999998
0.99952 1 1 0.99952
0.998449 1.00013 1 0.998322
0.99859 1 1 0.99859
1.00306 1.00516 1 0.997915
0.999146 1 1 0.999146
0.99903 1.00078 1 0.998249
0.998981 1 1.00052 0.998459
0.998612 1.00041 1 0.998199
1 1 1 1
1 1 1 1
1 1 1 1
0.99996 1 1 0.99996
1 1 1 1
1 1 1 1
1 1 1 1
0.999377 1 1 0.999377
0.999297 1 1 0.999297
1 1 1 1
1 1 1 1
0.999255 1 1 0.999255
0.999382 1 1 0.999382
0.99832 1.0002 1 0.998122
0.999405 1 1 0.999405
0.998579 1.00036 1 0.998219
0.999244 1 1 0.999244
0.998088 1.00002 1 0.998068
0.998502 1.00032 1 0.99818
1.00724 1.00959 1 0.997671
0.998528 1.00027 1 0.998257
1.00664 1.0089 1 0.997759
1 1 1 1
0.999858 1 1 0.999858
0.999138 1 1 0.999138
0.999307 1 1 0.999307
1 1 1 1
0.999709 1 1 0.999709
0.999393 1 1 0.999393
0.998406 1 1 0.998402
0.998663 1 1 0.998663
0.998838 1 1 0.998838
1.00067 1.00255 1 0.998121
0.999271 1 1 0.999271
0.999281 1 1 0.999281
0.998183 1 1 0.998183
0.998409 1.00002 1 0.998391
1 1 1 1
0.999805 1 1 0.999805
0.998975 1 1 0.998975
0.998496 1 1 0.998496
1.00406 1.00623 1 0.997849
0.999536 1.00136 1 0.99818
1.00152 1.00346 1 0.998065
1.00595 1.00809 1 0.99788
0.99992 1 1 0.99992
0.99937 1 1 0.99937
0.998087 1 1 0.998087
0.998338 1.00002 1 0.998318
1.00546 1.00771 1 0.997767
1.00452 1.00677 1 0.997766
1.00226 1.00428 1 0.997982
1.01341 1.0157 1 0.997737
0.999883 1 1 0.999883
1.00795 1.01013 1 0.99784
0.999076 1 1 0.999076
0.998729 1.0004 1 0.998333
1.00491 1.00699 1 0.997935
1.01088 1.01306 1 0.997848
0.999249 1 1 0.999249
0.999523 1 1 0.999523
0.999172 1 1.00029 0.998882
0.999439 1 1 0.999439
1 1 1 1
0.999993 1 1 0.999993
0.999539 1 1 0.999539
0.998438 1 1 0.998438
0.999889 1 1 0.999889
0.998967 1 1 0.998967
0.998743 1 1 0.998743
0.998333 1 1 0.998333
0.999947 1 1 0.999947
0.999999 1 1 0.999999
0.999522 1 1 0.999522
0.998418 1.0001 1 0.998322
0.998594 1 1 0.998594
1.00243 1.00452 1 0.997914
0.999148 1 1 0.999148
0.99878 1.00052 1 0.998259
0.998879 1 1.00042 0.998455
0.998771 1.00058 1 0.998187
1 1 1 1
0.999325 1 1 0.999325
0.999706 1 1 0.999706
0.999148 1 1.00011 0.999035
1.00478 1.00698 1 0.997822
1.00101 1.00292 1 0.998088
1.00979 1.01211 1 0.997708
0.999099 1 1.00044 0.998662
1.00131 1.00324 1 0.998077
1.00005 1.00031 1.00158 0.998166
1.00211 1.00406 1 0.998059
0.999905 1 1 0.999905
1 1 1 1
1 1 1 1
1 1 1 1
1 1 1 1
0.999982 1 1 0.999982
1 1 1 1
0.999952 1 1 0.999952
1 1 1 1
0.999406 1 1 0.999406
0.999342 1 1 0.999342
0.99857 1.00035 1 0.998219
0.998401 1.00028 1 0.998122
0.999257 1 1 0.999257
1 1 1 1
0.999243 1 1 0.999243
0.998113 1.00005 1 0.998068
0.998549 1.00037 1 0.998179
1.00717 1.00952 1 0.99767
0.9985 1.00024 1 0.998257
1.00666 1.00892 1 0.997758
0.998058 1 1 0.998058
1.00681 1.00921 1 0.997621
1.0072 1.0095 1 0.997722
1.02015 1.02257 1 0.997639
1.00608 1.00831 1 0.997784
1.01807 1.02043 1 0.997685
0.999268 1 1 0.999268
0.99928 1 1 0.99928
0.998104 1 1 0.998104
0.998433 1.00002 1 0.998418
1 1 1 1
0.999795 1 1 0.999795
0.999014 1 1 0.999014
0.998496 1 1 0.998496
1.00408 1.00628 1 0.997811
1.00188 1.0038 1 0.998092
0.999633 1.00146 1 0.99817
1.00564 1.00777 1 0.997885
0.999911 1 1 0.999911
0.999371 1 1 0.999371
0.998063 1 1 0.998063
0.998332 1.00002 1 0.998316
1.00567 1.00793 1 0.997758
1.00474 1.00695 1 0.997804
0.999873 1 1 0.999873
0.999074 1 1 0.999074
0.998803 1.00044 1 0.998366
1.0025 1.00453 1 0.997982
1.01373 1.01603 1 0.997739
1.00437 1.00648 1 0.997902
1.00796 1.01014 1 0.997842
1.01117 1.01335 1 0.997848
0.999252 1 1 0.999252
0.999278 1 1.0004 0.998882
0.99952 1 1 0.99952
1.00606 1.00837 1 0.997707
1.00576 1.00799 1 0.997789
1.01779 1.0202 1 0.997636
1.01573 1.0181 1 0.997675
1.01019 1.01242 1 0.997798
1.01792 1.02013 1 0.99783
0.999178 1 1 0.999178
1.01302 1.01519 1 0.997855
0.998624 1 1 0.998624
0.999443 1.00148 1 0.997971
1.00847 1.01073 1 0.997762
1.01266 1.01473 1 0.997961
0.999649 1 1 0.999649
0.998864 1 1 0.998864
0.999402 1 1.00045 0.998957
0.999123 1 1.0004 0.998722
0.998385 1.00006 1 0.998323
1 1 1 1
0.999962 1 1 0.999962
0.999524 1 1 0.999524
0.998599 1 1 0.998599
1.00178 1.00387 1 0.997912
0.99915 1 1 0.99915
0.998708 1 1.00026 0.998451
0.998473 1.0002 1 0.99827
0.998928 1.00076 1 0.998174
1 1 1 1
0.999325 1 1 0.999325
0.999712 1 1 0.999712
0.999111 1 1.00008 0.999032
1.00434 1.00654 1 0.997819
1.00028 1.0022 1 0.99809
1.00988 1.0122 1 0.997706
0.999056 1 1.00039 0.998666
1.00075 1.00267 1 0.998092
1.00042 1.00054 1.00173 0.998154
1.00175 1.00363 1 0.998128
1 1 1 1
0.999818 1 1 0.999818
0.998865 1 1 0.998865
0.999365 1 1.00014 0.999223
0.999315 1 1.00054 0.998774
1.01288 1.01525 1 0.997664
1.00551 1.00765 1 0.997877
1.01195 1.01429 1 0.997693
1.00031 1 1.00199 0.998321
1.00304 1.00505 1 0.997998
1.00171 1.00297 1.00086 0.997891
0.999891 1 1 0.999891
0.999567 1 1 0.999567
0.999914 1 1 0.999914
0.999907 1 1 0.999907
1 1 1 1
1 1 1 1
1 1 1 1
1 1 1 1
1 1 1 1
0.999995 1 1 0.999995
1 1 1 1
0.999976 1 1 0.999976
1 1 1 1
0.999944 1 1 0.999944
1 1 1 1
0.99846 1.0002 1 0.998256
0.998567 1.00039 1 0.998179
1.00662 1.00888 1 0.997758
1.00706 1.00942 1 0.997669
0.998145 1.00008 1 0.998068
0.999242 1 1 0.999242
0.998057 1 1 0.998057
1.00688 1.00928 1 0.997621
1.007 1.0093 1 0.997721
1.02034 1.02275 1 0.997645
1.00583 1.00807 1 0.997782
1.01754 1.0199 1 0.997685
1.00656 1.00897 1 0.997609
1.02042 1.02286 1 0.997613
1.01972 1.02211 1 0.997664
1.02515 1.02747 1 0.997743
1.01512 1.01748 1 0.997681
1.02008 1.02227 1 0.997853
0.998039 1 1 0.998039
0.998327 1.00001 1 0.998314
1.00584 1.00811 1 0.99775
1.00495 1.00713 1 0.997843
0.999863 1 1 0.999863
0.999071 1 1 0.999071
0.998849 1.00045 1 0.998398
1.00275 1.00478 1 0.997982
1.01405 1.01634 1 0.997742
1.008 1.01018 1 0.997845
1.00377 1.00592 1 0.997869
1.01144 1.01363 1 0.997848
0.999254 1 1 0.999254
0.999355 1 1.00047 0.998883
0.999518 1 1 0.999518
1.00621 1.00856 1 0.997672
1.00574 1.00797 1 0.997788
1.01757 1.01998 1 0.997639
1.0161 1.01847 1 0.99768
0.999178 1 1 0.999178
0.998625 1.00001 1 0.998617
0.999679 1.00163 1.00003 0.998019
1.01038 1.0126 1 0.997803
1.01719 1.01937 1 0.997857
1.00856 1.01086 1 0.997733
1.01301 1.01518 1 0.997857
1.01205 1.0141 1 0.99798
0.998867 1 1 0.998867
0.99914 1 1.00044 0.998704
0.999645 1 1 0.999645
0.999457 1 1.00048 0.998979
1.01831 1.02077 1 0.99759
1.01823 1.0206 1 0.99767
1.02284 1.02523 1 0.997674
1.01948 1.0217 1 0.99782
1.01544 1.0176 1 0.997873
1.01768 1.01975 1 0.997974
0.998804 1 1 0.998804
1.01296 1.01493 1 0.998054
0.9983 1 1 0.9983
1.00313 1.00523 1.00018 0.997739
1.01081 1.01315 1 0.997685
1.01179 1.01381 1 0.998008
0.999727 1 1 0.999727
0.999177 1 1.00007 0.999109
0.998706 1 1 0.998706
0.999796 1 1.00105 0.99875
0.998923 1 1.00026 0.998668
1 1 1 1
1.00385 1.00605 1 0.997816
0.999718 1 1 0.999718
0.999325 1 1 0.999325
0.99906 1 1.00003 0.999029
0.999659 1.00157 1 0.998092
1.00999 1.01231 1 0.997705
0.99908 1 1.00041 0.99867
1.00087 1.0008 1.00193 0.998143
1.00034 1.00224 1 0.998106
1.00148 1.00329 1 0.998197
1 1 1 1
0.999824 1 1 0.999824
0.998866 1 1 0.998866
0.999296 1 1.00007 0.999224
0.99948 1 1.00073 0.998753
1.01312 1.0155 1 0.99766
1.00535 1.00748 1 0.997877
1.01192 1.01427 1 0.997685
1.00045 1 1.00213 0.998326
1.00438 1.00638 1 0.998013
1.00156 1.00269 1.00096 0.997911
0.999867 1 1 0.999867
0.999387 1 1 0.999387
0.999043 1 1.00048 0.998567
0.999591 1 1.00067 0.998925
0.999477 1 1.00085 0.998627
1.01468 1.01701 1 0.997707
1.00762 1.00982 1 0.997822
1.01146 1.01364 1 0.997846
1.00186 1 1.00379 0.99808
1.00265 1.0049 1 0.997764
0.999894 1 1 0.999894
0.999503 1 1 0.999503
0.999547 1 1 0.999547
0.999357 1 1 0.999357
0.999574 1 1 0.999574
0.999916 1 1 0.999916
0.999915 1 1 0.999915
1 1 1 1
0.999909 1 1 0.999909
1 1 1 1
1 1 1 1
1 1 1 1
1 1 1 1
1 1 1 1
1 1 1 1
0.999992 1 1 0.999992
1 1 1 1
1 1 1 1
0.99997 1 1 0.99997
1 1 1 1
1.00563 1.00786 1 0.99778
1.00686 1.00916 1 0.997721
1.01704 1.0194 1 0.997684
1.02055 1.02295 1 0.997651
1.00696 1.00936 1 0.997621
0.998057 1 1 0.998057
1.0066 1.00901 1 0.99761
1.02034 1.02279 1 0.997606
1.01957 1.02196 1 0.997664
1.02456 1.02696 0.999902 0.997764
1.01541 1.01778 1 0.997676
1.02034 1.02253 1 0.997866
1.0192 1.02167 1 0.997581
1.02371 1.02621 0.999865 0.997698
1.02277 1.02499 1 0.997831
1.02339 1.02614 0.999457 0.997861
1.01799 1.02023 1 0.9978
1.02122 1.02328 0.999982 0.998009
1.00639 1.00878 1 0.997638
1.00572 1.00795 1 0.997787
1.01739 1.01979 1 0.997642
1.0165 1.01886 1 0.997685
0.999178 1 1 0.999178
0.99866 1.00005 1 0.998611
1.00002 1.00177 1.00018 0.998068
1.01057 1.01279 1 0.997807
1.01644 1.01859 1 0.997884
1.01298 1.01515 1 0.99786
1.00865 1.01098 1 0.997704
1.01139 1.01342 1 0.998
0.998869 1 1 0.998869
0.999117 1 1.00043 0.998687
0.999641 1 1 0.999641
0.999389 1 1.00039 0.999
1.01827 1.02073 1 0.99759
1.018 1.02039 1 0.99766
1.02281 1.02518 1 0.997687
1.01886 1.0211 1 0.997808
0.9988 1 1 0.9988
0.998446 1.00007 1.00003 0.998343
1.00334 1.00524 1.00039 0.997732
1.01517 1.01736 1 0.997851
1.01783 1.01985 1 0.998018
1.01049 1.01284 1 0.997674
1.01282 1.01479 1 0.998056
1.01273 1.01471 1 0.998045
0.998705 1 1 0.998705
0.998764 1 1.0001 0.998668
1.00012 1 1.00138 0.998745
0.999697 1 1 0.999697
0.999142 1 1.00001 0.999128
1.0234 1.02579 1 0.997673
1.02279 1.02512 1 0.997733
1.01888 1.02106 0.999885 0.997982
1.01537 1.01735 1 0.998055
0.998612 1 1 0.998612
1.01479 1.01663 1 0.998185
0.998427 1.00004 1.00029 0.998101
1.00644 1.00845 1.00051 0.997504
1.01093 1.01332 1 0.997646
0.999738 1 1 0.999738
0.999298 1 1 0.999298
0.999347 1 1.00044 0.998906
0.998668 1 1 0.998668
1.00087 1 1.00228 0.998587
0.998613 1 1 0.998613
1 1 1 1
0.99983 1 1 0.99983
1.01343 1.01581 1 0.997655
0.999241 1 1.00002 0.999224
0.998867 1 1 0.998867
0.999745 1 1.00101 0.998732
1.00498 1.00712 1 0.997877
1.01177 1.01413 1 0.997677
1.00062 1 1.00229 0.99833
1.00103 1.00233 1.00077 0.997931
1.00553 1.00752 1 0.998028
0.999871 1 1 0.999871
0.999389 1 1 0.999389
0.998986 1 1.00041 0.998573
0.999809 1 1.00089 0.998923
0.999744 1 1.00113 0.998616
1.01483 1.01717 1 0.997702
1.0081 1.01031 1 0.997813
1.01133 1.01349 1 0.997868
1.0013 1 1.00324 0.998058
1.00223 1.00445 1.00006 0.997734
0.999486 1 1 0.999486
0.999269 1 1.00022 0.999052
1.00039 1 1.002 0.998399
1.0004 1 1.00174 0.998665
0.999506 1 1.00099 0.998512
1.01723 1.01921 1 0.998055
1.00758 1.00986 1 0.997739
1.00947 1.0116 1 0.997893
1.00313 1.0009 1.00433 0.997904
1.00013 1.00261 1 0.997528
0.999897 1 1 0.999897
0.999519 1 1 0.999519
0.999268 1 1 0.999268
0.999528 1 1 0.999528
0.999574 1 1 0.999574
0.999329 1 1 0.999329
0.999189 1 1 0.999189
0.99931 1 1 0.99931
0.999578 1 1 0.999578
0.999913 1 1 0.999913
0.999916 1 1 0.999916
1 1 1 1
0.999916 1 1 0.999916
1 1 1 1
1 1 1 1
1 1 1 1
1 1 1 1
1 1 1 1
1 1 1 1
0.999999 1 1 0.999999
1 1 1 1
0.999988 1 1 0.999988
1 1 1 1
1 1 1 1
1.01566 1.01803 1 0.997672
1.0194 1.02179 1 0.997665
1.0206 1.02277 1 0.997879
1.02395 1.02647 0.999757 0.997785
1.02025 1.0227 1 0.997599
1.00663 1.00904 1 0.997611
1.01936 1.02184 1 0.99757
1.02394 1.0264 0.999911 0.99769
1.02269 1.02493 1 0.997812
1.02299 1.02579 0.999395 0.997873
1.01741 1.01965 1 0.9978
1.02077 1.02279 0.999988 0.998041
1.02266 1.02506 1 0.997659
1.02414 1.02731 0.999062 0.997843
1.02311 1.02553 0.99966 0.997979
1.01923 1.02116 1 0.998109
1.0182 1.02066 1 0.997591
1.01776 1.02016 1 0.99765
1.02277 1.02512 1 0.9977
1.01827 1.02052 1 0.997797
0.998796 1 1 0.998796
0.998443 1.00006 1 0.998386
1.00358 1.00528 1.00058 0.997726
1.01486 1.01707 1 0.997828
1.01798 1.01995 1 0.998062
1.01277 1.01474 1 0.998058
1.0102 1.01257 1 0.997662
1.01357 1.01552 1 0.998083
0.998704 1 1 0.998704
0.998669 1 1 0.998669
1.00071 1 1.00198 0.99874
0.999666 1 1 0.999666
0.999148 1 1 0.999148
1.02323 1.02561 1 0.997676
1.02299 1.02531 1 0.997737
1.01878 1.02101 0.999846 0.997975
0.998606 1 1 0.998606
0.998787 1.00039 1.00026 0.99814
1.00613 1.00789 1.00076 0.997495
1.01582 1.0178 1 0.998045
1.01072 1.01304 1 0.997707
1.01388 1.01574 1 0.998171
0.999746 1 1 0.999746
0.998663 1 1 0.998663
0.99866 1 1 0.99866
1.00074 1 1.00217 0.998575
0.999303 1 1.00039 0.998915
0.999274 1 1 0.999274
1.02373 1.02626 0.999793 0.997742
1.02284 1.02677 0.998282 0.99789
1.01759 1.02026 0.99931 0.99807
1.01989 1.02191 0.999803 0.998222
0.998489 1 1 0.998489
1.01197 1.01408 1 0.997918
1.00019 1.00084 1.00165 0.997714
1.00478 1.00639 1.00104 0.997365
0.999816 1 1 0.999816
0.999404 1 1 0.999404
0.999043 1 1 0.999043
1.00104 1 1.00238 0.998655
0.998587 1 1 0.998587
0.999295 1 1.0008 0.998493
0.999876 1 1 0.999876
0.999392 1 1 0.999392
1.01508 1.01742 1 0.997697
0.99979 1 1.00087 0.998921
0.998849 1 1.00027 0.99858
0.999957 1 1.00135 0.998605
1.00875 1.01097 1 0.997805
1.0114 1.01353 1 0.997891
1.00076 1 1.00273 0.998035
1.00194 1.00398 1.00027 0.997703
0.999487 1 1 0.999487
0.999103 1 1.00004 0.999062
1.0004 1 1.00198 0.998416
1.00071 1 1.00204 0.998669
0.999034 1 1.00048 0.998559
1.01723 1.01919 1 0.99808
1.0072 1.00948 1 0.997741
1.0104 1.01245 1 0.997967
1.00304 1.00059 1.00458 0.997878
1.00076 1.00325 1.00003 0.997488
0.999206 1 1 0.999206
0.999206 1 1.00044 0.998766
1.00204 1 1.00378 0.998261
0.999841 1 1.00143 0.998412
1.02095 1.02555 0.997257 0.998251
1.01455 1.01655 0.999872 0.998167
1.00509 1.00755 1 0.997556
1.00295 1.00117 1.00426 0.997535
0.999535 1 1 0.999535
0.99928 1 1 0.99928
0.999135 1 1 0.999135
0.999574 1 1 0.999574
0.9993 1 1 0.9993
0.999578 1 1 0.999578
0.99917 1 1 0.99917
0.999321 1 1 0.999321
0.999064 1 1 0.999064
0.999152 1 1 0.999152
0.999302 1 1 0.999302
0.999568 1 1 0.999568
0.999908 1 1 0.999908
0.999912 1 1 0.999912
1 1 1 1
0.999916 1 1 0.999916
1 1 1 1
1 1 1 1
1 1 1 1
1 1 1 1
1 1 1 1
1 1 1 1
1 1 1 1
1 1 1 1
0.999998 1 1 0.999998
1 1 1 1
1 1 1 1
1.01682 1.01906 1 0.9978
1.02259 1.02486 1 0.997792
1.02032 1.02229 0.999994 0.998074
1.02259 1.02538 0.999387 0.997885
1.0242 1.02658 1 0.997682
1.01955 1.02204 1 0.997559
1.02267 1.02506 1 0.997665
1.02307 1.02615 0.99916 0.997835
1.02295 1.02552 0.999518 0.99798
1.02061 1.02254 1 0.998108
1.0238 1.02667 0.999408 0.997787
1.02505 1.0302 0.996976 0.998014
1.02472 1.02773 0.998943 0.998121
1.02306 1.02544 1 0.997679
1.02317 1.02549 1 0.997742
1.01865 1.02091 0.999817 0.997968
0.9986 1 1 0.9986
0.999179 1.00082 1.00018 0.998179
1.00561 1.00729 1.00085 0.997485
1.01621 1.01822 1 0.998035
1.01311 1.01498 1 0.998156
1.01081 1.01307 1 0.997768
0.998658 1 1 0.998658
0.998706 1 1 0.998706
1.00047 1 1.00191 0.998563
0.999755 1 1 0.999755
0.999154 1 1.00023 0.998925
0.99925 1 1 0.99925
1.02435 1.02686 0.999816 0.997748
1.02349 1.02688 0.998802 0.997896
1.01768 1.02023 0.999444 0.99806
0.998497 1.00002 1 0.998479
1.00028 1.00109 1.0014 0.997794
1.00439 1.00611 1.0009 0.997393
1.01976 1.0218 0.99977 0.998233
1.01255 1.01467 1 0.997908
0.999849 1 1 0.999849
0.999404 1 1 0.999404
0.998601 1 1 0.998601
0.999744 1 1.0012 0.998549
1.001 1 1.00234 0.998666
0.999023 1 1 0.999023
1.02593 1.03024 0.997881 0.997929
1.01779 1.02469 0.995232 0.998028
1.01865 1.0222 0.998268 0.998256
1.01674 1.01858 0.999925 0.998263
0.999177 1 1.00088 0.998294
1.00404 1.0052 1.0014 0.997451
1.00175 1.00159 1.00264 0.997524
0.999924 1 1 0.999924
0.999608 1 1 0.999608
0.999444 1 1 0.999444
0.999105 1 1 0.999105
0.999374 1 1.00057 0.998801
1.00022 1 1.00168 0.998536
0.998623 1 1 0.998623
1.00817 1 1.00952 0.998664
0.999489 1 1 0.999489
0.999072 1 1 0.999072
1.01712 1.01905 1 0.998106
1.00118 1 1.00251 0.998672
1.00059 1 1.00215 0.998434
0.998641 1 1.00004 0.998606
1.00666 1.00894 1 0.997742
1.0113 1.01328 1 0.998041
1.00304 1.00038 1.00482 0.997851
1.0014 1.00396 1 0.997447
0.999192 1 1 0.999192
0.999506 1 1.00073 0.998777
1.00243 1 1.00415 0.998282
0.999622 1 1.00119 0.998436
1.02188 1.02628 0.997446 0.998259
1.01402 1.01597 0.999949 0.998139
1.00598 1.0084 1 0.997595
1.00259 1.00133 1.00377 0.997499
0.999021 1 1 0.999021
1.02024 1.02658 0.995566 0.998244
1.00028 1 1.00173 0.998549
1.00072 1 1.00268 0.998051
1.0192 1.02229 0.998631 0.99835
1.00626 1.00861 1 0.997668
1.00416 1.00357 1.00323 0.99737
0.999292 1 1 0.999292
0.999132 1 1 0.999132
0.999011 1 1 0.999011
0.999577 1 1 0.999577
0.999332 1 1 0.999332
0.999152 1 1 0.999152
0.999567 1 1 0.999567
0.999304 1 1 0.999304
0.999047 1 1 0.999047
0.999173 1 1 0.999173
0.998966 1 1 0.998966
0.999032 1 1 0.999032
0.999159 1 1 0.999159
0.999297 1 1 0.999297
0.999547 1 1 0.999547
0.999901 1 1 0.999901
0.999907 1 1 0.999907
1 1 1 1
0.999912 1 1 0.999912
1 1 1 1
1 1 1 1
1 1 1 1
1 1 1 1
1 1 1 1
0.999948 1 1 0.999948
1 1 1 1
1 1 1 1
1 1 1 1
1 1 1 1
1 1 1 1
1 1 1 1
1.022 1.02393 1 0.998108
1.02285 1.02554 0.999391 0.997982
1.02202 1.02504 0.999224 0.997827
1.02267 1.02506 1 0.997672
1.02369 1.02658 0.99938 0.997804
1.02557 1.03051 0.997192 0.998002
1.02456 1.02781 0.998709 0.998134
1.02512 1.03143 0.995891 0.997985
1.0279 1.03374 0.996219 0.998133
1.01288 1.02419 0.990609 0.998337
1.02499 1.02746 0.999839 0.997753
1.02415 1.02706 0.999264 0.997903
1.01775 1.02021 0.999537 0.998051
0.998546 1.00002 1.00006 0.998469
1.0005 1.00136 1.00126 0.997875
1.00384 1.00566 1.00078 0.99742
1.01976 1.02182 0.999741 0.998244
1.01262 1.01476 1 0.997898
0.998615 1 1 0.998615
1.00028 1 1.00167 0.998603
1.00121 1 1.00254 0.998677
0.999881 1 1 0.999881
0.999404 1 1 0.999404
0.999003 1 1 0.999003
1.02521 1.02993 0.997469 0.997943
0.99992 1 1 0.99992
0.99959 1 1 0.99959
1.01788 1.02402 0.995969 0.998027
1.0194 1.02293 0.99832 0.998224
0.999201 1 1.00084 0.998362
1.00226 1.00148 1.0033 0.997494
1.00434 1.00606 1.00084 0.997455
1.01589 1.0177 0.99997 0.998249
0.999497 1 1 0.999497
0.999103 1 1 0.999103
0.998569 1 1 0.998569
1.00502 1 1.00627 0.998756
1.00049 1 1.00197 0.998522
0.999435 1 1.00063 0.998811
1.02699 1.03304 0.996039 0.998097
1.01099 1.02256 0.990502 0.998165
1.01707 1.02133 0.997375 0.998446
1.00536 1.00756 0.999835 0.997982
1.00069 1 1.00234 0.998345
1.00404 1.00124 1.00547 0.997345
0.999608 1 1 0.999608
0.999558 1 1 0.999558
0.999357 1 1 0.999357
0.999117 1 1 0.999117
0.998927 1 1 0.998927
0.999483 1 1.00089 0.998591
1.01334 1 1.01489 0.998476
1.00005 1 1.00126 0.998789
0.999178 1 1 0.999178
0.999496 1 1.00071 0.998787
1.02283 1.02701 0.997661 0.998266
1.0136 1.01552 1 0.99811
0.999366 1 1.00091 0.99846
1.00271 1 1.00441 0.998303
1.00703 1.00938 1.00004 0.997634
1.00221 1.0014 1.00335 0.997463
0.999021 1 1.00001 0.999014
1.02088 1.0282 0.994603 0.998271
1.00014 1 1.00158 0.998564
1.00071 1 1.00269 0.998025
1.01839 1.02159 0.998542 0.998324
1.00686 1.00918 1 0.997708
1.00386 1.00301 1.00348 0.997382
0.999832 1 1.00106 0.998769
1.01643 1.02603 0.992066 0.998567
0.99991 1 1.00155 0.998365
1.00216 1.0006 1.00379 0.997778
1.00912 1.01404 0.997124 0.998022
1.00163 1.00195 1.00221 0.997473
1.00447 1.00798 0.997863 0.998647
0.99913 1 1 0.99913
0.999046 1 1.00004 0.999009
0.998894 1 1 0.998894
0.999566 1 1 0.999566
0.999306 1 1 0.999306
0.999195 1 1 0.999195
0.999029 1 1 0.999029
0.999547 1 1 0.999547
0.999287 1 1 0.999287
0.99895 1 1 0.99895
0.999158 1 1 0.999158
0.999047 1 1 0.999047
0.998942 1 1 0.998942
0.999043 1 1 0.999043
0.999154 1 1 0.999154
0.999238 1 1 0.999238
0.999488 1 1 0.999488
0.999334 1 1 0.999334
0.999486 1 1 0.999486
0.999895 1 1 0.999895
0.9999 1 1 0.9999
1 1 1 1
0.999906 1 1 0.999906
1 1 1 1
1 1 1 1
1 1 1 1
1 1 1 1
1 1 1 1
0.999963 1 1 0.999963
0.999945 1 1 0.999945
1 1 1 1
1 1 1 1
1 1 1 1
1 1 1 1
1 1 1 1
1 1 1 1
1.02442 1.0279 0.998463 0.998147
1.02607 1.03084 0.99738 0.99799
1.02358 1.02649 0.999351 0.99782
1.02494 1.0312 0.995941 0.997983
1.02647 1.03214 0.996366 0.99813
1.01345 1.02401 0.991357 0.998319
1.02381 1.03305 0.992838 0.998199
1.00195 1.01596 0.988207 0.997985
1.01163 1.02479 0.988398 0.998748
0.99968 1 1 0.99968
1.02449 1.02957 0.997102 0.997957
1.01824 1.02342 0.996907 0.998026
1.02003 1.02357 0.99834 0.998193
0.999249 1 1.00082 0.99843
1.00291 1.00144 1.00402 0.997465
1.00494 1.00705 1.00045 0.997459
1.01499 1.01679 1 0.998234
0.998515 1 1 0.998515
1.00187 1 1.00303 0.99885
1.0006 1 1.00209 0.998509
0.999916 1 1 0.999916
0.999449 1 1.00063 0.99882
0.999549 1 1 0.999549
0.9991 1 1 0.9991
0.999571 1 1 0.999571
1.02612 1.03367 0.994578 0.998104
0.999634 1 1 0.999634
0.999557 1 1 0.999557
0.99932 1 1 0.99932
1.01164 1.02232 0.991371 0.998168
1.0167 1.02086 0.997522 0.998398
1 1 1.00164 0.998363
1.00379 1.00088 1.00555 0.997372
1.00474 1.0067 1.00007 0.997982
0.999145 1 1 0.999145
0.998973 1 1.00007 0.998905
1.00221 1 1.00349 0.998727
1.01078 1 1.01229 0.998512
0.999304 1 1.00069 0.998614
1.01638 1.0268 0.991661 0.998183
1.01109 1.02532 0.987808 0.998284
1.01018 1.01363 0.998419 0.998176
1.0048 1.00384 1.00313 0.997827
1.00321 1 1.00484 0.998378
0.99931 1 1 0.99931
0.999211 1 1 0.999211
0.999105 1 1 0.999105
0.99894 1 1.00001 0.99893
0.999169 1 1.00042 0.99875
1.00959 1 1.0111 0.998509
1.0123 1 1.01389 0.998436
0.99902 1 1.00001 0.999008
1.00009 1 1.00152 0.998578
1.0212 1.02977 0.993373 0.998297
1.01744 1.02081 0.99839 0.998298
1.00725 1.00952 1 0.997749
1.00067 1 1.00268 0.997998
1.00336 1.00237 1.0036 0.997394
0.999755 1 1.00095 0.998803
1.01538 1.02572 0.991339 0.998576
0.999618 1 1.00123 0.99839
1.00216 1.0003 1.00408 0.997789
1.01033 1.01462 0.997671 0.998093
1.00211 1.00196 1.00269 0.997459
1.00425 1.0082 0.997842 0.998237
0.999872 1 1.00123 0.998645
1.00518 1.01667 0.990125 0.99856
1.00029 1 1.00194 0.998353
1.00414 1.00004 1.00636 0.997754
1.00364 1.00483 1.00104 0.997785
0.954956 0.978887 0.987513 0.987889
0.978676 0.987913 0.996369 0.99426
0.981103 0.999653 0.982693 0.998729
0.870683 0.910337 0.970183 0.985835
0.837098 0.911406 0.933514 0.983882
0.999035 1 1.00003 0.999008
0.998926 1 1.00002 0.998908
0.99892 1 1 0.99892
0.999546 1 1 0.999546
0.999277 1 1 0.999277
0.999158 1 1 0.999158
0.999063 1 1 0.999063
0.998934 1 1 0.998934
0.999134 1 1 0.999134
0.999509 1 1 0.999509
0.999251 1 1 0.999251
0.998945 1 1 0.998945
0.999044 1 1 0.999044
0.999051 1 1 0.999051
0.999001 1 1 0.999001
0.999082 1 1 0.999082
0.99921 1 1 0.99921
0.999479 1 1 0.999479
0.999272 1 1 0.999272
0.999174 1 1 0.999174
0.999311 1 1 0.999311
0.999306 1 1 0.999306
0.999539 1 1 0.999539
0.999485 1 1 0.999485
0.999891 1 1 0.999891
0.999895 1 1 0.999895
1 1 1 1
0.9999 1 1 0.9999
1 1 1 1
1 1 1 1
1 1 1 1
1 1 1 1
1 1 1 1
0.999969 1 1 0.999969
0.99996 1 1 0.99996
1 1 1 1
0.999942 1 1 0.999942
1 1 1 1
1 1 1 1
1 1 1 1
1 1 1 1
1 1 1 1
1.02507 1.03056 0.996541 0.998127
1.02472 1.03092 0.996 0.997981
1.01414 1.02373 0.992315 0.998302
1.0029 1.01572 0.989336 0.998024
1.02239 1.03168 0.992794 0.998197
1.01595 1.02663 0.990908 0.998676
1.02325 1.02965 0.995543 0.998234
0.965483 0.984914 0.986719 0.993465
1.00877 1.01935 0.991237 0.99837
0.999689 1 1 0.999689
0.999679 1 1 0.999679
0.999393 1 1 0.999393
0.999421 1 1 0.999421
1.02493 1.03414 0.992977 0.998112
1.01178 1.02168 0.99212 0.998171
1.01647 1.02039 0.997805 0.99835
0.999153 1 1.00077 0.998382
1.00335 1.0006 1.00536 0.997399
1.00417 1.00607 1.00013 0.997982
1.00422 1 1.00556 0.998664
1.00831 1 1.00977 0.998548
0.999131 1 1.0005 0.998636
0.999556 1 1 0.999556
0.998959 1 1.00008 0.998884
0.999173 1 1 0.999173
0.99966 1 1 0.99966
0.999283 1 1 0.999283
1.0145 1.02572 0.990851 0.998197
0.99935 1 1 0.99935
0.999238 1 1 0.999238
0.999124 1 1 0.999124
1.01329 1.02703 0.988319 0.998292
1.00899 1.01278 0.99808 0.998173
1.00306 1 1.0047 0.998369
1.00474 1.00421 1.0027 0.997831
0.999009 1 1.00008 0.998929
0.998906 1 1.00017 0.998738
1.0128 1 1.01439 0.998436
1.01064 1 1.01217 0.998486
1.00984 1.02705 0.984975 0.998244
1.00222 1.02062 0.983684 0.998264
1.00536 1.00707 1.00042 0.997888
1.00122 1.00029 1.00257 0.998363
0.999024 1 1 0.999024
0.999141 1 1.00016 0.998982
1.00223 1 1.0035 0.998729
1.02253 1 1.02429 0.998288
0.940519 0.972892 0.979162 0.987298
0.999811 1 1.00098 0.998836
0.999497 1 1.00108 0.998414
1.01405 1.02519 0.990536 0.998585
1.0115 1.01512 0.998264 0.998164
1.00286 1.00212 1.0033 0.997445
1.00226 1 1.00447 0.997799
1.00345 1.00822 0.997448 0.997819
0.99985 1 1.00118 0.998671
1.00444 1.01672 0.989355 0.998547
0.999799 1 1.00144 0.998364
1.00389 1.00004 1.00611 0.997755
1.00356 1.0058 0.999962 0.997808
0.953485 0.980152 0.985033 0.987574
0.973475 0.98584 0.994761 0.992658
0.983385 0.997845 0.986729 0.998764
0.873499 0.909981 0.97386 0.985675
0.821165 0.899389 0.929263 0.982526
0.999462 1 1.00067 0.998797
0.891893 0.926847 0.976079 0.98587
0.875473 0.915797 0.970617 0.984908
0.983265 1.00645 0.978471 0.998461
1.00492 1 1.00648 0.998446
1.01054 1.00239 1.01019 0.99796
0.980422 0.993433 0.987993 0.998897
0.954584 0.972341 0.994465 0.987203
0.961337 0.969641 0.99939 0.992041
0.851678 0.910735 0.948432 0.986
0.88007 0.944119 0.945668 0.985716
0.998998 1 1.00008 0.998922
0.998913 1 1 0.998913
0.999114 1 1 0.999114
0.999531 1 1 0.999531
0.999264 1 1 0.999264
0.999115 1 1 0.999115
0.999045 1 1 0.999045
0.998948 1 1 0.998948
0.999479 1 1 0.999479
0.999048 1 1 0.999048
0.9991 1 1 0.9991
0.999232 1 1 0.999232
0.998998 1 1 0.998998
0.999008 1 1 0.999008
0.999216 1 1.0002 0.999019
0.999068 1 1 0.999068
0.999243 1 1 0.999243
0.99927 1 1 0.99927
0.99916 1 1 0.99916
0.999119 1 1 0.999119
0.999154 1 1 0.999154
0.999097 1 1 0.999097
0.999031 1 1 0.999031
0.999291 1 1 0.999291
0.999311 1 1 0.999311
0.999547 1 1 0.999547
0.999279 1 1 0.999279
0.999521 1 1 0.999521
0.99989 1 1 0.99989
0.999483 1 1 0.999483
0.999891 1 1 0.999891
1 1 1 1
0.999894 1 1 0.999894
1 1 1 1
1 1 1 1
1 1 1 1
1 1 1 1
1 1 1 1
0.999672 1 1 0.999672
0.999969 1 1 0.999969
0.999968 1 1 0.999968
1 1 1 1
0.999957 1 1 0.999957
1 1 1 1
1 1 1 1
1 1 1 1
1 1 1 1
1 1 1 1
1.00413 1.01579 0.990435 0.998065
1.02135 1.03051 0.992899 0.998195
1.01995 1.02872 0.992861 0.998603
0.964284 0.981885 0.98771 0.994294
1.00901 1.01907 0.991665 0.998448
1.02509 1.0322 0.994898 0.998202
1.01668 1.02352 0.995092 0.99821
0.971132 0.984259 0.991778 0.994842
0.955188 0.977749 0.990217 0.986577
0.851014 0.90201 0.957875 0.984955
0.820027 0.887826 0.939087 0.983545
0.999381 1 1 0.999381
0.999688 1 1 0.999688
0.999678 1 1 0.999678
0.999381 1 1 0.999381
0.999197 1 1 0.999197
0.999234 1 1 0.999234
0.999381 1 1 0.999381
0.999402 1 1 0.999402
1.01317 1.02509 0.990147 0.998212
1.01593 1.02943 0.988575 0.998299
1.00782 1.01195 0.997743 0.99817
1.00324 1 1.00488 0.998361
1.00485 1.00436 1.00266 0.997835
1.01309 1 1.01468 0.998436
1.01174 1 1.0133 0.998463
0.998729 1 1 0.998726
0.999265 1 1 0.999265
0.998929 1 1 0.998929
0.99939 1 1 0.99939
0.999143 1 1 0.999143
1.01067 1.02717 0.985686 0.998225
0.999047 1 1 0.999047
0.998999 1 1.00001 0.998994
1.0034 1.01991 0.985546 0.998244
1.00456 1.00688 0.999705 0.997989
1.00306 1.0006 1.00415 0.998306
1.00361 1 1.00492 0.998695
1.01988 1 1.02162 0.998296
1.00956 1.0244 0.987287 0.998211
0.98509 1.00637 0.980542 0.998282
0.998639 1.00049 0.999887 0.998264
1.00708 1 1.00871 0.998388
0.998887 1 1 0.998887
1.00118 1 1.0024 0.998783
1.01806 1 1.01961 0.998486
0.880076 0.9302 0.959278 0.986278
0.950858 0.975476 0.986116 0.988487
0.999619 1 1.00092 0.998696
0.99944 1 1.00107 0.998375
1.00496 1.01727 0.989348 0.998534
1.00364 1.00699 0.998844 0.997832
1.00345 1 1.00571 0.997756
0.95253 0.976965 0.988243 0.986587
0.975848 0.989225 0.993082 0.993348
0.985519 0.996495 0.990177 0.998797
0.867537 0.910703 0.966433 0.985688
0.80672 0.886613 0.927364 0.981157
0.999201 1 1.0004 0.998799
0.884723 0.929541 0.965045 0.986259
0.871572 0.910905 0.972035 0.984347
0.985035 1.00724 0.979476 0.998451
1.00445 1 1.006 0.998466
1.00962 1.00121 1.01036 0.998067
0.97239 0.989038 0.984185 0.998965
0.95878 0.978363 0.993621 0.986275
0.963674 0.973366 0.996426 0.993593
0.853597 0.905096 0.957648 0.98481
0.879816 0.945287 0.944764 0.985157
1.00106 1 1.00207 0.998995
0.899054 0.922575 0.987969 0.986373
0.956753 0.971018 0.995142 0.99012
0.989306 1.00065 0.989756 0.998895
1.01194 1.00117 1.0119 0.998878
0.989273 0.982474 1.00772 0.999209
0.949192 0.962958 0.990981 0.994677
0.948252 0.960098 1.00152 0.986159
0.8716 0.923711 0.957887 0.98507
0.908531 0.963614 0.954521 0.98776
0.998906 1 1 0.998906
0.999094 1 1 0.999094
0.99971 1 1.00042 0.999289
0.99948 1 1 0.99948
0.999255 1 1 0.999255
0.999118 1 1 0.999118
0.999044 1 1 0.999044
0.998996 1 1 0.998996
0.999242 1 1 0.999242
0.999016 1 1 0.999016
0.999068 1 1 0.999068
0.999283 1 1.00024 0.999039
1.00231 1 1.00309 0.999219
0.999078 1 1.00009 0.998992
0.999064 1 1 0.999064
0.999268 1 1 0.999268
0.999146 1 1 0.999146
0.999118 1 1 0.999118
0.999152 1 1 0.999152
0.999101 1 1 0.999101
0.999112 1 1 0.999112
0.999066 1 1 0.999066
0.99908 1 1 0.99908
0.998881 1 1 0.998881
0.999459 1 1.00087 0.998595
0.998919 1 1 0.998919
0.999029 1 1 0.999029
0.999243 1 1 0.999243
0.99929 1 1 0.99929
0.99954 1 1 0.99954
0.999311 1 1 0.999311
0.999547 1 1 0.999547
0.99989 1 1 0.99989
0.999504 1 1 0.999504
0.99989 1 1 0.99989
1 1 1 1
0.999891 1 1 0.999891
1 1 1 1
1 1 1 1
1 1 1 1
1 1 1 1
1 1 1 1
0.999691 1 1 0.999691
0.999962 1 1 0.999962
0.999672 1 1 0.999672
1 1 1 1
0.99997 1 1 0.99997
0.999966 1 1 0.999966
1 1 1 1
1 1 1 1
1 1 1 1
1 1 1 1
1 1 1 1
0.880534 0.919938 0.970742 0.986015
0.880803 0.917866 0.973749 0.98549
0.966087 0.9843 0.986628 0.994799
1.01059 1.01871 0.993489 0.998527
1.02685 1.03435 0.994567 0.998171
0.966462 0.978937 0.991156 0.996066
1.01648 1.02323 0.995144 0.99825
0.958457 0.980999 0.98903 0.987857
0.865199 0.908044 0.96672 0.985616
0.810707 0.885836 0.931814 0.982158
0.990032 0.999156 0.993698 0.997152
0.954623 0.972422 0.993999 0.987623
0.843781 0.904884 0.946006 0.985696
0.877293 0.937671 0.950241 0.984601
0.999124 1 1 0.999124
0.999399 1 1 0.999399
0.999688 1 1 0.999688
0.999369 1 1 0.999369
0.999222 1 1 0.999222
0.99915 1 1 0.99915
0.999234 1 1 0.999234
0.999265 1 1 0.999265
0.999358 1 1 0.999358
0.999382 1 1 0.999382
1.01111 1.02686 0.98643 0.998208
1.00362 1.01829 0.987342 0.998225
1.00385 1.00688 0.998894 0.998091
1.00455 1.00091 1.00539 0.998248
1.01676 1 1.01849 0.998304
1.00505 1 1.0064 0.998661
0.999007 1 1 0.999007
0.99907 1 1 0.99907
1.00885 1.02466 0.986335 0.998213
0.99888 1 1 0.998877
1.00117 1 1.00241 0.998757
0.986089 1.00526 0.982683 0.998211
0.998733 1.00035 1 0.998386
1.00763 1.00012 1.00923 0.998292
1.01571 1 1.01728 0.998462
1.00014 1.00571 0.995959 0.998501
0.988931 1 0.990052 0.998868
1.01336 1 1.01492 0.998464
0.999512 1 1.00065 0.99886
0.999719 1 1.001 0.99872
1.00969 1 1.01113 0.998573
0.904363 0.927965 0.986295 0.988108
0.888192 0.929696 0.969002 0.985919
0.946121 0.976612 0.981246 0.987294
0.9988 1 1 0.9988
1.00403 1 1.00555 0.998487
0.987668 1.00775 0.981605 0.998442
1.00876 1 1.0106 0.998172
0.879315 0.925327 0.963976 0.985787
0.957633 0.976067 0.993086 0.987944
0.959878 0.973813 0.993528 0.992111
0.968638 0.985385 0.983952 0.999036
0.855186 0.905709 0.958374 0.985229
0.8735 0.915086 0.969849 0.984231
0.87273 0.941227 0.941246 0.985104
1.00166 1 1.00266 0.999001
0.900198 0.925809 0.985336 0.986807
0.960231 0.973792 0.995974 0.990061
0.991491 1.00038 0.99215 0.998955
1.01132 1.00023 1.01224 0.998861
0.987813 0.982528 1.00636 0.99903
0.950369 0.963934 0.992963 0.992915
0.950251 0.965154 0.997784 0.986745
0.879253 0.93241 0.956518 0.985857
0.899955 0.956122 0.952982 0.987695
1.00256 0.999757 1.00333 0.999476
0.95909 0.973698 0.992643 0.992299
0.950508 0.964891 0.992092 0.992945
1.00608 0.993032 1.01342 0.999715
0.967723 0.967192 1.00377 0.99679
0.956087 0.961776 1.00809 0.986107
0.914259 0.949931 0.976084 0.986029
0.915795 0.97557 0.950898 0.987202
0.999073 1 1 0.999073
0.999644 1 1.00036 0.999289
1.00684 1 1.00741 0.999434
0.999241 1 1 0.999241
0.999067 1 1 0.999067
0.999024 1 1 0.999024
0.99934 1 1.00028 0.999058
0.999063 1 1 0.999063
0.99902 1 1.00003 0.998989
1.00431 1 1.00506 0.999253
1.00884 0.998587 1.01083 0.999446
1.00302 1 1.00386 0.999154
0.999006 1 1 0.999006
0.999117 1 1 0.999117
0.999149 1 1 0.999149
0.999105 1 1 0.999105
0.999071 1 1 0.999071
0.99911 1 1 0.99911
0.999085 1 1 0.999085
0.999018 1 1 0.999018
0.999155 1 1 0.999155
0.998898 1 1 0.998898
0.998902 1 1 0.998902
0.999383 1 1.00069 0.998689
0.999779 1 1.00152 0.998265
0.998914 1 1.00007 0.998843
0.9994 1 1.00073 0.998671
0.998949 1 1 0.998949
0.999128 1 1 0.999128
0.999026 1 1 0.999026
0.999241 1 1 0.999241
0.999511 1 1 0.999511
0.999288 1 1 0.999288
0.999539 1 1 0.999539
0.999888 1 1 0.999888
0.999547 1 1 0.999547
0.99989 1 1 0.99989
1 1 1 1
0.99989 1 1 0.99989
1 1 1 1
1 1 1 1
1 1 1 1
1 1 1 1
1 1 1 1
0.999586 1 1 0.999586
0.999952 1 1 0.999952
0.999647 1 1 0.999647
1 1 1 1
0.999965 1 1 0.999965
0.999672 1 1 0.999672
1 1 1 1
1 1 1 1
0.99997 1 1 0.99997
1 1 1 1
1 1 1 1
1 1 1 1
0.904587 0.926923 0.988153 0.987604
0.883107 0.924592 0.969047 0.985641
0.958621 0.975453 0.992725 0.989946
0.871705 0.910824 0.971712 0.984913
0.963478 0.980507 0.988236 0.994329
1.0151 1.02306 0.993922 0.998291
0.961095 0.981458 0.990036 0.989108
0.866283 0.91155 0.964646 0.98517
0.803885 0.885756 0.925369 0.980766
0.986435 0.997312 0.992565 0.996503
0.955437 0.973639 0.994952 0.986284
0.85298 0.91092 0.951121 0.984516
0.874844 0.937987 0.947846 0.984002
0.973653 0.987287 0.99033 0.995819
0.961576 0.967121 1.00851 0.985875
0.878908 0.934383 0.954514 0.985454
0.906137 0.965057 0.951678 0.986623
0.998983 1 1 0.998983
0.99915 1 1 0.99915
0.999417 1 1 0.999417
0.999247 1 1 0.999247
0.999005 1 1 0.999005
0.999168 1 1 0.999168
0.999233 1 1 0.999233
0.999239 1 1 0.999239
0.99929 1 1 0.99929
0.999335 1 1 0.999335
1.00828 1.02554 0.984928 0.998216
0.98844 1.00486 0.985487 0.998141
0.998744 1 1.00024 0.998506
1.00932 1.00055 1.01059 0.998197
1.01377 1 1.01536 0.998438
1.00091 1 1.00218 0.99873
0.998866 1 1 0.998866
0.999169 1 1.00031 0.99886
0.995421 1.0061 0.990856 0.998516
0.999554 1 1.00082 0.998731
1.01004 1 1.01149 0.998567
0.987684 1.00008 0.988799 0.998791
1.01263 1.00027 1.01393 0.998447
0.96945 0.992959 0.977313 0.998988
1.00553 0.999417 1.00684 0.999275
1.01311 1 1.01446 0.998666
0.999082 1 1.00034 0.998745
1.00645 1 1.00789 0.998573
0.958375 0.969522 0.995047 0.993422
0.907535 0.927811 0.98979 0.988237
0.882124 0.926357 0.965362 0.986418
1.00224 1 1.00324 0.999005
1.01069 0.999303 1.01257 0.998842
0.991654 1 0.992635 0.999012
0.909856 0.931256 0.989426 0.987461
0.959176 0.964903 1.00829 0.985887
0.953276 0.965289 0.993373 0.994144
0.979272 0.98024 1.00019 0.998824
0.88069 0.931609 0.959655 0.985085
0.96354 0.976308 0.996888 0.990004
0.898108 0.955095 0.951972 0.987774
1.00241 0.999512 1.00344 0.999457
0.957881 0.972039 0.992474 0.992907
0.953196 0.967601 0.9921 0.992957
1.00717 0.994438 1.01324 0.99957
0.969551 0.968732 1.0045 0.996357
0.950947 0.962066 1.00313 0.985358
0.918293 0.977957 0.950489 0.987904
0.907208 0.946141 0.972789 0.985672
1.00433 0.995299 1.00936 0.999711
0.945356 0.963732 0.984446 0.996431
0.960806 0.978082 0.988755 0.993509
0.908248 0.966195 0.952741 0.986653
0.992852 0.979111 1.01493 0.999121
0.970769 0.969838 1.01447 0.986686
0.907352 0.936229 0.982886 0.986031
0.999665 1 1.00038 0.999289
1.00581 1 1.00643 0.999384
1.01163 0.998697 1.01339 0.999566
0.999062 1 1 0.999062
0.998987 1 1 0.998987
1.0068 1 1.00752 0.999288
0.999014 1 1 0.999014
1.00297 1 1.00382 0.999157
1.01059 0.998825 1.01237 0.999421
1.00412 0.998919 1.00572 0.999489
1.00214 1 1.00299 0.999152
0.999076 1 1 0.999076
0.999109 1 1 0.999109
0.99909 1 1 0.99909
0.999144 1 1 0.999144
0.999027 1 1 0.999027
0.999434 1 1.00033 0.999102
0.99899 1 1 0.99899
1.00106 1 1.00259 0.998476
0.998923 1 1 0.998923
0.999226 1 1.00056 0.998664
0.999122 1 1.00101 0.998111
0.999498 1 1.00129 0.998211
0.999886 1 1.0012 0.998687
0.999639 1 1.00136 0.998283
0.999028 1 1 0.999028
0.998928 1 1.00011 0.998817
0.9993 1 1.00055 0.998748
0.998978 1 1 0.998978
0.999155 1 1 0.999155
0.999456 1 1 0.999456
0.999239 1 1 0.999239
0.99951 1 1 0.99951
0.999879 1 1 0.999879
0.999538 1 1 0.999538
0.999887 1 1 0.999887
1 1 1 1
0.999889 1 1 0.999889
1 1 1 1
1 1 1 1
1 1 1 1
1 1 1 1
1 1 1 1
0.999454 1 1 0.999454
0.999868 1 1 0.999868
0.999585 1 1 0.999585
1 1 1 1
0.999925 1 1 0.999925
0.999603 1 1 0.999603
1 1 1 1
1 1 1 1
0.999967 1 1 0.999967
1 1 1 1
1 1 1 1
1 1 1 1
0.955569 0.970089 0.992058 0.992919
0.893836 0.924844 0.978856 0.987349
0.884257 0.922095 0.973117 0.985458
0.999161 1 1 0.999161
0.948289 0.963325 0.990758 0.993575
0.962544 0.976435 0.99583 0.989901
0.86641 0.911353 0.965357 0.984802
0.987193 0.997925 0.99348 0.995738
0.958896 0.974253 0.996785 0.987412
0.859355 0.921107 0.947238 0.984926
0.867322 0.93255 0.945237 0.983937
0.97558 0.98854 0.992982 0.993865
0.94849 0.960901 1.00032 0.986769
0.887538 0.937037 0.961335 0.985271
0.903954 0.962353 0.952333 0.986331
0.960094 0.97235 0.994969 0.992387
0.95956 0.958396 1.01645 0.985016
0.908744 0.949349 0.971446 0.985365
0.914011 0.973497 0.951072 0.987196
0.998908 1 1.00006 0.998847
0.999071 1 1.0001 0.998966
0.999177 1 1 0.999177
0.999001 1 1 0.999001
0.999036 1 1 0.999036
0.999186 1 1 0.999186
0.999246 1 1 0.999246
0.999315 1 1 0.999315
0.990081 1.00577 0.985854 0.998528
0.985606 1.00001 0.986863 0.998714
0.998859 1 1 0.998859
1.01126 1.00024 1.01261 0.998428
1.01039 1 1.01184 0.998561
0.999708 1 1.00097 0.998742
0.999217 1 1.00046 0.998753
0.974349 0.99478 0.980434 0.999008
1.00666 1 1.00807 0.998598
1.01104 1 1.01239 0.998668
0.999599 0.999449 1.00085 0.999301
0.999921 1 1.00114 0.998783
0.96681 0.986594 0.98059 0.999345
1.01034 0.997345 1.01358 0.999454
1.01563 1 1.01692 0.998737
1.00158 1 1.00286 0.998719
0.957154 0.965796 0.994054 0.99698
0.958002 0.968762 0.995347 0.993516
0.911835 0.928039 0.9941 0.98837
1.00189 0.999252 1.0032 0.999441
1.00949 0.995996 1.01413 0.999428
0.957156 0.9705 0.992691 0.993513
0.96296 0.961851 1.01482 0.986534
0.965116 0.966196 1.0047 0.994211
0.911445 0.949151 0.975013 0.984883
0.954338 0.968821 0.992026 0.992969
0.921862 0.98163 0.94994 0.988603
1.00512 0.99647 1.00901 0.999676
0.94517 0.963097 0.984888 0.996444
0.958575 0.976019 0.987749 0.994309
1.0015 0.985804 1.01607 0.999863
0.905496 0.963927 0.95239 0.986343
0.962333 0.963906 1.01228 0.986255
0.917715 0.950436 0.980159 0.985118
1.00798 0.993537 1.01477 0.999771
0.957049 0.975613 0.983833 0.997093
0.948963 0.964439 0.990286 0.993606
0.877577 0.939912 0.948222 0.984664
0.908822 0.951419 0.969667 0.985109
0.977464 0.973723 1.00519 0.99866
0.972419 0.962418 1.02609 0.984703
1.00411 1 1.00478 0.999334
1.01053 0.997855 1.01316 0.999547
1.00314 0.987734 1.01602 0.999582
0.999023 1 1 0.999023
1.00251 1 1.00335 0.999161
1.01193 0.999567 1.01298 0.999396
1.00058 1 1.00144 0.999143
1.00399 0.999037 1.00547 0.999488
1.00639 0.998209 1.00893 0.999279
0.999133 1 1 0.999133
0.999035 1 1 0.999035
1.00007 1 1.001 0.999073
1.00649 1 1.00787 0.99864
0.999082 1 1 0.999082
1.00054 1 1.00198 0.998558
1.00213 1 1.00413 0.998009
1.00021 1.00061 1.00188 0.997728
0.999042 1 1.0004 0.998638
0.999139 1 1.00109 0.998047
0.998828 1 1.00053 0.998304
1.00077 1 1.00226 0.99852
0.999509 1 1.00125 0.99826
0.99981 1 1.0009 0.998911
0.999806 1 1.00113 0.998681
0.999561 1 1.00126 0.998302
0.99936 1 1 0.99936
0.999021 1 1 0.999021
0.998989 1 1.0002 0.998791
0.999182 1 1 0.999182
0.999454 1 1 0.999454
0.999858 1 1 0.999858
0.999509 1 1 0.999509
0.999877 1 1 0.999877
1 1 1 1
0.999885 1 1 0.999885
1 1 1 1
1 1 1 1
1 1 1 1
1 1 1 1
1 1 1 1
0.999401 1 1 0.999401
0.999811 1 1 0.999811
0.999479 1 1 0.999479
1 1 1 1
0.999863 1 1 0.999863
0.999583 1 1 0.999583
1 1 1 1
1 1 1 1
0.999899 1 1 0.999899
1 1 1 1
1 1 1 1
1 1 1 1
0.946794 0.962924 0.986752 0.996449
0.956211 0.970629 0.99217 0.99292
0.893898 0.925982 0.977645 0.987425
0.999174 1 1 0.999174
0.999134 1 1 0.999134
0.999035 1 1 0.999035
0.958059 0.976517 0.98754 0.993478
0.948993 0.962793 0.992019 0.993597
0.966868 0.977404 0.999358 0.989856
0.981961 0.989448 0.997092 0.995327
0.948763 0.961643 1.00071 0.985905
0.878812 0.927675 0.961632 0.985125
0.909509 0.966691 0.954024 0.98619
0.960306 0.970733 0.995152 0.994078
0.954455 0.957926 1.01054 0.985988
0.902138 0.938276 0.974631 0.986511
0.916015 0.976334 0.949721 0.987889
0.94754 0.961067 0.992776 0.993099
0.972733 0.967647 1.01925 0.986269
0.907929 0.934778 0.984904 0.986164
0.908123 0.962798 0.954971 0.987686
0.998838 1 1 0.998838
0.99903 1 1.00019 0.998844
0.999143 1 1.00019 0.99895
0.998998 1 1 0.998998
0.999067 1 1 0.999067
0.999253 1 1 0.999253
0.981005 0.997403 0.98452 0.999024
0.994519 0.999486 0.995703 0.999324
0.999193 1 1.00043 0.998761
1.00979 1 1.01114 0.998671
1.00724 1 1.00863 0.998623
0.999738 1 1.00098 0.998761
1.00156 1 1.00284 0.998729
0.978874 0.9904 0.988996 0.999358
1.01532 1 1.01652 0.998827
1.00605 0.993063 1.0136 0.99948
0.999753 1 1.00091 0.998841
0.993864 0.97991 1.01466 0.999584
0.995986 0.989037 1.0075 0.999532
1.01204 1 1.0131 0.998955
0.972217 0.979323 0.99495 0.997783
0.95624 0.965429 0.993256 0.997206
0.957828 0.967937 0.995922 0.993608
1.00672 0.997969 1.00913 0.999642
0.997045 0.988154 1.00952 0.999478
0.94567 0.963144 0.985349 0.996456
0.964386 0.960015 1.01521 0.9895
0.918388 0.94749 0.982797 0.986252
0.957581 0.974249 0.987721 0.99511
0.910763 0.967561 0.954445 0.986226
1.00698 0.993777 1.0135 0.999788
0.956959 0.975819 0.983321 0.997308
0.950128 0.964124 0.991803 0.993628
0.976349 0.970301 1.01009 0.99618
0.873835 0.938768 0.945875 0.984095
0.900169 0.941674 0.96924 0.986262
0.982274 0.968657 1.02833 0.986119
1.00379 0.977622 1.02705 0.999726
0.947599 0.963634 0.98682 0.996494
0.959359 0.976529 0.992303 0.990038
0.818488 0.886863 0.938162 0.983733
0.881221 0.936731 0.954596 0.985486
0.972359 0.968653 1.01804 0.986039
0.952559 0.964749 0.992434 0.994892
1.0101 0.997114 1.01351 0.999527
1.00751 0.992094 1.01596 0.999586
1.01829 0.996984 1.02185 0.999529
0.999137 1 1 0.999135
1.00403 0.998886 1.00567 0.999487
1.00733 0.998738 1.00927 0.99934
1.01736 1 1.01849 0.998892
1.00065 1 1.00161 0.999044
1.0068 1 1.00826 0.998551
1.01481 1 1.01695 0.997893
1.00008 1 1.00145 0.998641
1.00301 1 1.00505 0.997977
1.00428 1.00096 1.00589 0.997439
1.00188 1.00264 1.00191 0.997342
0.999096 1 1.00108 0.99802
1.00021 1.00063 1.00189 0.997697
0.999206 1 1.00123 0.997982
0.999568 1 1.0011 0.998473
0.998865 1 1.00048 0.998386
1.00078 1 1.00209 0.998698
1.0008 1 1.00225 0.998552
0.999478 1 1.00117 0.99831
0.999264 1 1.00006 0.999204
0.999685 1 1.00077 0.998914
0.9997 1 1.00103 0.998674
0.999813 1 1 0.999813
0.999359 1 1 0.999359
0.999014 1 1 0.999014
0.999452 1 1 0.999452
0.999854 1 1 0.999854
1 1 1 1
0.999874 1 1 0.999874
1 1 1 1
1 1 1 1
1 1 1 1
1 1 1 1
1 1 1 1
0.999397 1 1 0.999397
0.999824 1 1 0.999824
0.999418 1 1 0.999418
1 1 1 1
0.99984 1 1 0.99984
0.999505 1 1 0.999505
1 1 1 1
1 1 1 1
0.999859 1 1 0.999859
1 1 1 1
1 1 1 1
1 1 1 1
0.956084 0.974994 0.983485 0.997072
0.946045 0.963296 0.985577 0.996464
0.955543 0.971108 0.990981 0.992928
0.999115 1 1 0.999115
0.999008 1 1 0.999008
0.999188 1 1 0.999188
0.999132 1 1 0.999132
0.999017 1 1 0.999017
0.999029 1 1 0.999029
0.998931 1 1 0.998931
0.948795 0.964371 0.9909 0.992884
0.956856 0.974396 0.987646 0.994282
0.948725 0.96215 0.992379 0.993619
0.919157 0.980076 0.948676 0.988581
0.949276 0.96117 0.995033 0.992556
0.959136 0.960245 1.01192 0.987082
0.906733 0.937905 0.98112 0.985367
0.944445 0.960623 0.990655 0.992434
0.962146 0.960743 1.01614 0.985556
0.920032 0.951702 0.980922 0.985525
0.899305 0.955683 0.9528 0.987624
0.944395 0.960657 0.988891 0.994116
0.96626 0.965022 1.0163 0.98522
0.916282 0.951707 0.976307 0.986142
0.877782 0.942626 0.94487 0.985542
0.999051 1 1.00014 0.998911
0.998894 1 1.00006 0.998838
0.999093 1 1.00025 0.998842
0.998994 1 1 0.998994
0.988235 0.993428 0.995397 0.999373
1.001 0.98945 1.01218 0.999505
0.998769 1 1.00003 0.998739
1.00132 1 1.00259 0.998739
1.01347 1 1.01457 0.998917
0.999344 1 1.00051 0.998836
1.01283 1 1.0139 0.998941
0.98988 0.978216 1.01292 0.99902
0.998068 0.989802 1.00872 0.999638
1.0053 0.999811 1.00646 0.999033
0.994024 0.975315 1.02026 0.998941
1.01205 0.994918 1.01792 0.999311
0.957362 0.966174 0.99385 0.997011
0.967999 0.977441 0.992327 0.997998
0.955399 0.965066 0.992532 0.997432
1.00471 0.992699 1.0123 0.999805
0.978575 0.971046 1.00903 0.998738
0.956104 0.975496 0.982554 0.997524
0.972786 0.964935 1.02351 0.984982
0.904576 0.940041 0.976847 0.985081
0.950117 0.963784 0.99212 0.99365
0.866981 0.932671 0.944652 0.984031
1.00826 0.979897 1.02917 0.999775
0.946485 0.963799 0.985477 0.996509
0.962918 0.977529 0.995013 0.98999
0.955764 0.965736 0.992715 0.996937
0.811022 0.885876 0.931945 0.982358
0.885534 0.936601 0.959671 0.985209
0.970246 0.964083 1.02069 0.985995
0.999363 0.980835 1.01969 0.999215
0.956055 0.971079 0.991448 0.993021
0.881612 0.918641 0.973634 0.98568
0.846063 0.9055 0.947716 0.985907
0.956208 0.95674 1.0133 0.986322
0.938916 0.959911 0.984863 0.993161
1.01093 0.99576 1.01565 0.99959
1.01853 0.995259 1.02388 0.999522
1.01346 1 1.01411 0.999367
1.0082 0.999235 1.00957 0.999402
1.01688 0.999268 1.01869 0.998959
1.01066 1.00056 1.01192 0.998193
1.00731 1 1.00886 0.998463
1.01389 1 1.01608 0.997844
1.00833 1.00017 1.0108 0.997393
1.00388 1 1.00595 0.997945
1.00412 1.00053 1.00622 0.997385
1.00339 1.00206 1.00414 0.997188
1.00318 1.00583 1 0.997361
1.00301 1.00473 1.00077 0.997527
1.00241 1.00295 1.00218 0.997291
0.998366 1 1.00013 0.99824
0.998833 1.00002 1.00074 0.998069
1.00025 1.00069 1.0019 0.997666
0.999616 1 1.00112 0.998503
0.999547 1 1.00108 0.998466
0.998892 1 1.00043 0.998467
0.999742 1 1.00076 0.998987
1.00061 1 1.00188 0.998731
1.00079 1 1.0022 0.998585
0.999703 1 1 0.999703
0.999309 1 1.0001 0.999204
0.999547 1 1.00063 0.998916
1 1 1 1
0.999807 1 1 0.999807
0.999357 1 1 0.999357
0.99985 1 1 0.99985
1 1 1 1
1 1 1 1
1 1 1 1
1 1 1 1
1 1 1 1
0.99911 1 1 0.99911
0.999353 1 1 0.999353
0.999785 1 1 0.999785
0.999395 1 1 0.999395
1 1 1 1
0.999827 1 1 0.999827
0.999434 1 1 0.999434
1 1 1 1
1 1 1 1
0.999869 1 1 0.999869
1 1 1 1
1 1 1 1
1 1 1 1
0.945184 0.963969 0.984031 0.996425
0.956141 0.975306 0.983014 0.99729
0.945339 0.96369 0.984425 0.996478
0.999125 1 1 0.999125
0.998993 1 1 0.998993
0.998928 1 1 0.998928
0.998995 1 1 0.998995
0.998908 1 1 0.998908
0.99913 1 1 0.99913
0.999 1 1 0.999
0.999029 1 1 0.999029
0.99893 1 1 0.99893
0.999025 1 1.00005 0.998977
0.9554 0.969818 0.995096 0.989988
0.951864 0.96709 0.991292 0.992902
0.95654 0.972586 0.988359 0.995086
0.896864 0.954718 0.951087 0.987714
0.918382 0.945905 0.984275 0.986415
0.937494 0.956655 0.988292 0.99158
0.970286 0.967951 1.01656 0.986083
0.946138 0.962273 0.990943 0.992219
0.977533 0.973472 1.01843 0.985998
0.908604 0.946804 0.973294 0.985985
0.878779 0.944439 0.944697 0.984948
0.965825 0.970305 1.00198 0.993417
0.966713 0.966267 1.01423 0.986429
0.869623 0.923479 0.956097 0.984922
0.837914 0.911526 0.934671 0.983494
1.00054 1 1.00129 0.999255
1.00007 1 1.00116 0.998912
0.999419 1 1.00058 0.998838
0.987572 0.976604 1.0128 0.99845
0.999919 0.989614 1.01067 0.999748
0.99957 1 1.00074 0.998831
1.01418 1 1.01527 0.998927
1.00596 0.999908 1.00702 0.99904
1.0128 0.996414 1.01715 0.999301
0.991277 0.97279 1.02005 0.998978
1.01132 0.999655 1.01233 0.999349
0.996484 0.982861 1.01511 0.998766
0.960312 0.971301 0.995309 0.993346
0.956373 0.96558 0.993211 0.997235
0.963594 0.975529 0.989535 0.998212
1.0136 0.983007 1.03131 0.999819
0.955696 0.967363 0.993845 0.994058
0.945725 0.963969 0.984497 0.996523
0.969246 0.968404 1.01695 0.984184
0.879839 0.928409 0.962022 0.985097
0.967043 0.978479 0.99835 0.989945
0.806065 0.886841 0.926545 0.980976
0.99781 0.979101 1.01981 0.999311
0.957477 0.972029 0.991951 0.993022
0.872548 0.91174 0.971484 0.985105
0.940989 0.962368 0.983517 0.994171
0.855256 0.911624 0.952737 0.984708
0.946243 0.954928 1.00571 0.985283
0.976171 0.980933 0.996618 0.998523
0.904833 0.927614 0.987502 0.987786
0.853797 0.90327 0.959464 0.985163
0.96012 0.967334 1.00668 0.98596
0.943606 0.960141 0.988238 0.994476
1.01832 0.994061 1.0249 0.999515
1.01472 0.998992 1.01641 0.999342
0.993736 1.00067 0.994269 0.998798
1.01604 0.998443 1.01861 0.999027
1.01118 1.0007 1.01221 0.998283
1.00238 1.00183 1.00272 0.997831
1.01268 1 1.01492 0.997795
1.00694 1.00031 1.00924 0.997407
0.999473 1.00147 1.00052 0.997494
1.00382 1.00011 1.0064 0.99733
1.0036 1.00299 1.00341 0.997206
1.00511 1.00762 1 0.997509
1.01039 1.01277 1 0.997651
1.0064 1.00901 1.00002 0.997397
1.003 1.00563 1 0.997376
1.00025 1.00245 1 0.997808
1.00175 1.0032 1.00107 0.997481
1.00292 1.00325 1.00244 0.997239
0.998394 1 1 0.998394
0.998323 1 1.00002 0.998299
0.998457 1.00002 1.00032 0.998117
0.999509 1 1.00073 0.998775
0.999768 1 1.00125 0.998522
0.999552 1 1.0011 0.998458
0.999536 1 1.00004 0.999499
0.999732 1 1.00075 0.998987
1.00047 1 1.00171 0.998764
1 1 1 1
0.999698 1 1 0.999698
0.999367 1 1.00016 0.999205
1 1 1 1
1 1 1 1
0.999802 1 1 0.999802
1 1 1 1
1 1 1 1
1 1 1 1
0.99903 1 1 0.99903
0.999299 1 1 0.999299
0.999098 1 1 0.999098
0.999753 1 1 0.999753
0.999352 1 1 0.999352
0.999999 1 1 0.999999
0.999787 1 1 0.999787
0.999394 1 1 0.999394
1 1 1 1
1 1 1 1
0.999831 1 1 0.999831
1 1 1 1
1 1 1 1
1 1 1 1
0.958045 0.973622 0.990357 0.993582
0.94487 0.963231 0.984443 0.99644
0.955825 0.975235 0.982546 0.997508
0.998925 1 1 0.998925
0.999134 1 1 0.999134
0.998979 1 1 0.998979
0.999009 1 1 0.999009
0.998943 1 1 0.998943
0.998907 1 1 0.998907
0.998934 1 1.00011 0.998822
0.999005 1 1.00012 0.998884
0.999029 1 1 0.999029
0.998929 1 1 0.998929
0.99907 1 1.0001 0.998968
0.999319 1 1.00025 0.999072
0.874386 0.915091 0.970389 0.984675
0.958483 0.972516 0.995598 0.989929
0.953423 0.968049 0.991914 0.99292
0.873519 0.941477 0.942055 0.984886
0.915861 0.953419 0.974801 0.985439
0.966399 0.964332 1.01713 0.985271
0.94898 0.961892 0.99347 0.993061
0.965666 0.968423 1.00215 0.995015
0.822377 0.899971 0.930359 0.982181
0.96525 0.963741 1.01667 0.985144
0.876439 0.931808 0.954311 0.98561
0.956605 0.96771 0.993096 0.995396
0.956961 0.95853 1.0115 0.98701
0.850808 0.91072 0.94806 0.985397
1.00002 1 1.00041 0.999613
1.00015 1 1.0009 0.999256
1.00086 1 1.00195 0.998914
0.990356 0.972453 1.01942 0.999008
1.0146 0.998933 1.0164 0.999291
1.00652 1 1.00748 0.999047
1.01083 0.999905 1.01159 0.999348
0.996359 0.984202 1.01356 0.998813
1.00215 0.993698 1.00939 0.999124
0.904826 0.928842 0.987117 0.986857
0.959211 0.970466 0.994198 0.99417
0.955233 0.964881 0.992524 0.997458
0.997277 0.977476 1.02087 0.999403
0.938841 0.96388 0.979018 0.994897
0.957303 0.972866 0.990912 0.993027
0.954411 0.956487 1.01098 0.986997
0.864096 0.923846 0.949437 0.985136
0.866238 0.911688 0.96462 0.984997
0.976203 0.981258 0.996265 0.998579
0.894037 0.925292 0.978424 0.987528
0.868222 0.909116 0.968729 0.985845
0.944246 0.959176 0.991853 0.992521
0.948749 0.963606 0.997756 0.986796
0.965821 0.988013 0.97836 0.999161
0.881142 0.920855 0.97028 0.986184
0.957211 0.974939 0.994361 0.987383
0.957207 0.972604 0.991788 0.992318
1.0166 0.99774 1.0196 0.999317
0.989877 1.00034 0.990637 0.998892
0.982492 1.00245 0.981634 0.998426
1.01222 1.00094 1.01292 0.998372
1.0033 1.00227 1.00321 0.997823
1.00067 1.00325 0.999428 0.997996
1.00586 1.0005 1.00797 0.997421
0.999585 1.00109 1.001 0.997508
1.0088 1.01087 1 0.997956
1.0039 1.00395 1.00274 0.997224
1.00493 1.00743 1 0.997515
1.01269 1.01472 1 0.997994
1.01613 1.01818 1 0.997986
1.01109 1.01353 1 0.997597
1.01009 1.01245 1 0.997675
1.00493 1.00733 1 0.997614
1.00571 1.00829 1 0.997437
1.00279 1.00541 1 0.997391
0.998615 1.00046 1 0.998151
1.00076 1.00281 1.00014 0.997825
1.00064 1.00173 1.00148 0.997435
0.998617 1 1 0.998617
0.998388 1 1 0.998388
0.998357 1 1 0.998357
0.999264 1 1 0.999262
0.999382 1 1.0006 0.998778
0.999895 1 1.00136 0.998541
0.999989 1 1 0.999989
0.999507 1 1.00001 0.999496
0.99965 1 1.00066 0.998988
1 1 1 1
0.999998 1 1 0.999998
0.999692 1 1 0.999692
1 1 1 1
1 1 1 1
1 1 1 1
0.999 1 1 0.999
0.999031 1 1 0.999031
0.999225 1 1 0.999225
0.999721 1 1 0.999721
0.999299 1 1 0.999299
0.999086 1 1 0.999086
0.999998 1 1 0.999998
0.999756 1 1 0.999756
0.999352 1 1 0.999352
1 1 1 1
1 1 1 1
0.99979 1 1 0.99979
1 1 1 1
1 1 1 1
1 1 1 1
0.897587 0.921657 0.987261 0.98645
0.957651 0.972244 0.991342 0.993593
0.94527 0.963231 0.984845 0.996455
0.998912 1 1 0.998912
0.99886 1 1 0.99886
0.998837 1 1 0.998837
0.999023 1 1 0.999023
0.998958 1 1 0.998958
0.998905 1 1 0.998905
0.998955 1 1.00007 0.998882
0.998972 1 1.00015 0.998823
0.998982 1 1.00024 0.99874
0.999108 1 1 0.999105
0.99896 1 1 0.99896
0.999093 1 1.00003 0.999062
0.865657 0.907042 0.968427 0.985487
0.869532 0.909404 0.971611 0.984094
0.962403 0.97597 0.996186 0.989874
0.806841 0.886198 0.928218 0.980859
0.877526 0.929216 0.958855 0.984896
0.968431 0.96711 1.01408 0.987464
0.965955 0.965454 1.00739 0.993177
0.954836 0.965572 0.995096 0.993755
0.851198 0.903982 0.956505 0.984426
0.948963 0.955736 1.0062 0.986797
0.95333 0.967218 0.991307 0.994285
0.948341 0.966 0.995361 0.986294
1.00726 1 1.00819 0.999082
0.999827 1 1.00027 0.999561
0.999462 1 1.0002 0.999258
0.993549 0.98282 1.01207 0.998857
1.01017 1 1.01083 0.999347
1.00258 0.994434 1.00918 0.99902
0.99427 0.997932 0.998015 0.998312
0.879568 0.931156 0.957676 0.986344
0.908488 0.928969 0.990244 0.987588
0.959161 0.969946 0.993861 0.994989
0.97489 0.982111 0.993977 0.998662
0.943926 0.95891 0.990944 0.993371
0.894487 0.926471 0.9776 0.987599
0.946942 0.960701 0.999647 0.986025
0.870725 0.914668 0.966087 0.985375
0.969345 0.988855 0.981516 0.99873
0.88477 0.925809 0.969448 0.985791
0.958676 0.976502 0.995436 0.986246
0.96198 0.972882 0.994806 0.993957
0.982145 0.996007 0.987096 0.998973
0.957051 0.980019 0.989966 0.986462
0.971333 0.987069 0.988976 0.995027
0.985944 1 0.986946 0.998985
0.983414 1.00312 0.981922 0.998405
0.984152 1.00604 0.979905 0.998307
1.00378 1.00261 1.00336 0.997814
1.00004 1.00341 0.998648 0.997991
1.0113 1.01573 0.997227 0.998408
0.999559 1.00063 1.00141 0.997522
1.00861 1.01068 1 0.997948
1.01761 1.01938 0.999898 0.998368
1.0046 1.0071 1 0.997521
1.01217 1.0142 1 0.997994
1.01703 1.01877 1 0.998292
1.0146 1.01644 1 0.998189
1.01603 1.01804 1 0.998026
1.01544 1.01758 1 0.997895
1.01091 1.01326 1 0.997684
1.01181 1.01425 1 0.997601
1.00981 1.01214 1 0.997698
1.00053 1.00266 1 0.997876
1.0055 1.00787 1 0.99765
1.00501 1.00755 1 0.997477
0.998435 1 1 0.998435
0.999084 1.00094 1 0.998145
1.00115 1.00314 1.00017 0.997842
0.999085 1 1 0.999085
0.998616 1 1 0.998616
0.998396 1.00001 1 0.998383
0.999941 1 1 0.999941
0.999299 1 1.00004 0.999262
0.999314 1 1.00053 0.998781
1 1 1 1
0.999979 1 1 0.999979
0.999528 1 1.00004 0.999492
1 1 1 1
0.999996 1 1 0.999996
1 1 1 1
0.998931 1 1 0.998931
0.99899 1 1 0.99899
0.999145 1 1 0.999145
0.999032 1 1 0.999032
0.999225 1 1 0.999225
0.999665 1 1 0.999665
0.999996 1 1 0.999996
0.999723 1 1 0.999723
0.999299 1 1 0.999299
1 1 1 1
0.999998 1 1 0.999998
0.999758 1 1 0.999758
1 1 1 1
1 1 1 1
1 1 1 1
0.889183 0.924887 0.975184 0.985862
0.899018 0.924971 0.985599 0.986144
0.956661 0.97033 0.99226 0.993604
0.998899 1 1 0.998899
0.998818 1 1.00001 0.998811
0.998892 1 1 0.998892
0.998673 1 1 0.998673
0.998779 1 1.00001 0.998768
0.998947 1 1.00007 0.998879
0.998994 1 1.00017 0.998824
0.99892 1 1.00016 0.998763
0.998636 1 1 0.998636
0.998929 1 1 0.998929
0.998809 1.00034 1.00026 0.998217
0.999462 1 1.00031 0.999151
0.999061 1 1.00001 0.999053
0.953746 0.976512 0.990539 0.986015
0.869203 0.906664 0.972882 0.985406
0.870921 0.912467 0.969998 0.983989
0.850375 0.904505 0.954689 0.984777
0.953436 0.957941 1.01039 0.985066
0.957476 0.964909 0.996755 0.995527
0.954535 0.967402 0.991303 0.995356
0.952729 0.967339 0.997515 0.987349
0.972113 0.989279 0.988224 0.994357
1.00138 1.00132 1.00179 0.998281
1.00572 1 1.00666 0.999062
0.999508 1 1 0.999508
1.00311 0.996171 1.00804 0.998929
0.997979 1.00042 0.999352 0.998206
0.942066 0.974543 0.97912 0.987289
0.887743 0.930727 0.967324 0.986036
0.912923 0.929452 0.993816 0.988328
0.972571 0.989667 0.984416 0.998283
0.956478 0.967631 0.996037 0.992406
0.885743 0.923963 0.972662 0.985578
0.957769 0.97374 0.996298 0.987252
0.98127 0.995982 0.986234 0.99898
0.959377 0.982457 0.988716 0.987652
0.97289 0.987774 0.991524 0.993351
0.999816 1.00527 0.996118 0.99845
0.984277 0.996532 0.991094 0.996577
0.984411 1.00393 0.982146 0.998387
0.986078 1.00562 0.982278 0.99826
1.00487 1.02352 0.983356 0.998399
0.99968 1.00358 0.998123 0.997985
1.01048 1.015 0.997139 0.998397
1.01782 1.02419 0.995209 0.998563
1.00849 1.01057 1 0.997941
1.01748 1.01951 0.999663 0.998352
1.01826 1.02047 0.999368 0.998461
1.01179 1.01383 1 0.997994
1.01732 1.01909 0.999984 0.998278
1.01495 1.01667 1 0.998303
1.0153 1.0171 1 0.998228
1.01441 1.01639 1 0.99805
1.01592 1.01789 1 0.998065
1.01522 1.01737 1 0.997889
1.01296 1.01518 1 0.997818
1.00547 1.00768 1 0.997807
1.01067 1.01303 1 0.997676
1.0125 1.01493 1 0.997605
0.998638 1.0004 1 0.998236
1.00089 1.003 1 0.997898
1.00607 1.0084 1 0.997685
0.998938 1 1 0.998938
0.998464 1.00003 1 0.99843
0.999502 1.00137 1 0.998138
0.99985 1 1 0.99985
0.999086 1 1 0.999086
0.998615 1 1 0.998615
1 1 1 1
0.999923 1 1 0.999923
0.999284 1 1.00002 0.999262
1 1 1 1
0.999968 1 1 0.999968
1 1 1 1
0.998687 1 1 0.998687
0.99893 1 1 0.99893
0.999023 1 1 0.999023
0.998979 1 1 0.998979
0.999125 1 1 0.999125
0.999557 1 1 0.999557
0.999225 1 1 0.999225
0.999667 1 1 0.999667
0.999992 1 1 0.999992
1 1 1 1
0.999996 1 1 0.999996
0.999725 1 1 0.999725
1 1 1 1
0.999999 1 1 0.999999
1 1 1 1
0.958413 0.980933 0.989077 0.987832
0.881755 0.926897 0.964499 0.986313
0.908725 0.930658 0.990239 0.986058
0.998784 1 1 0.998784
0.998923 1 1 0.998923
0.998779 1 1 0.998779
0.998684 1 1 0.998684
0.998882 1.00047 1.00002 0.998388
0.99869 1 1 0.99869
0.998841 1 1.00006 0.998786
0.998558 1 1 0.998558
0.999203 1 1.00031 0.998893
0.998467 1 1 0.998467
1.00049 1.00213 1 0.998355
0.99845 1.00129 0.999374 0.997789
0.999178 1.00081 1.00006 0.998316
0.999813 1 1.00062 0.999197
0.970131 0.988673 0.986644 0.994528
0.95575 0.977003 0.991274 0.986859
0.863697 0.907408 0.965984 0.985347
0.964601 0.973624 1.00478 0.986015
0.952735 0.966799 0.989237 0.996174
0.976512 0.990598 0.989449 0.996292
0.993808 1.00388 0.991588 0.998369
0.99905 1.00067 1.00003 0.998348
1.00467 1 1.00563 0.999042
0.997619 1.00112 0.998415 0.998084
0.971074 0.983586 0.992761 0.994479
0.952032 0.976689 0.986141 0.988455
0.88038 0.926737 0.962973 0.986506
0.981839 0.997335 0.985462 0.998985
0.978389 0.98995 0.993692 0.994596
0.962182 0.983048 0.989797 0.988863
0.993593 1.00453 0.990638 0.99846
0.982293 0.995016 0.99121 0.995968
1.00232 1.0225 0.982019 0.99821
1.00624 1.01473 0.993641 0.997985
0.987664 1.00502 0.984493 0.998211
1.00528 1.02322 0.984047 0.998391
1.00856 1.02827 0.982379 0.998422
1.00979 1.01454 0.996929 0.998386
1.0175 1.02386 0.995237 0.99855
1.01397 1.02048 0.995216 0.998401
1.01727 1.01957 0.999406 0.998337
1.01788 1.02029 0.999196 0.998447
1.01634 1.01871 0.999417 0.998254
1.01756 1.01938 0.999951 0.998263
1.01464 1.01639 0.999975 0.998302
1.01453 1.0165 1 0.998068
1.01599 1.01776 1 0.998266
1.01418 1.01613 1 0.99808
1.01362 1.01577 1 0.997882
1.01505 1.0172 1 0.997883
1.01289 1.01511 1 0.997811
1.00777 1.00992 1 0.997873
0.999571 1.00149 1 0.998081
1.00521 1.0074 1 0.997827
1.01048 1.01284 1 0.997667
0.998774 1 1 0.998774
0.998919 1.00068 1 0.998236
1.00132 1.00341 1 0.99792
0.999736 1 1 0.999736
0.998936 1 1 0.998936
0.998524 1.0001 1 0.998426
1 1 1 1
0.999835 1 1 0.999835
0.999086 1 1 0.999086
1 1 1 1
0.999905 1 1 0.999905
1 1 1 1
0.999662 1.00123 1 0.998432
0.998699 1 1 0.998699
0.998851 1 1 0.998851
0.99893 1 1 0.99893
0.999006 1 1 0.999006
0.999407 1 1 0.999407
0.999106 1 1 0.999106
0.999559 1 1 0.999559
0.999982 1 1 0.999982
0.999669 1 1 0.999669
0.999993 1 1 0.999993
1 1 1 1
1 1 1 1
0.999997 1 1 0.999997
1 1 1 1
0.970766 0.985953 0.989719 0.994825
0.954201 0.980616 0.985833 0.987046
0.876315 0.923318 0.96277 0.985794
1.00309 1.00495 1.00007 0.998075
0.99879 1 1 0.99879
0.998696 1 1 0.998696
0.998669 1 1 0.998669
0.999103 1.0006 1.00012 0.998378
0.99953 1.00093 1 0.998602
0.99848 1 1 0.99848
0.99948 1 1.00062 0.998858
0.998511 1 1 0.998511
0.999836 1.0015 1 0.998334
1.00118 1.00339 1 0.997806
1.0032 1.0058 0.999707 0.997709
0.999531 1.00195 0.999835 0.997746
0.999749 1.00134 1 0.998415
0.997398 1.00621 0.992398 0.998831
0.970119 0.989215 0.986876 0.993737
0.959189 0.97801 0.99272 0.987948
0.971522 0.986901 0.989528 0.994835
0.998048 1.00592 0.993507 0.998655
0.999461 1.0002 1.00085 0.998414
1.00055 1.00668 0.995809 0.998096
0.968566 0.979107 0.993542 0.995663
0.9467 0.97661 0.981772 0.987372
0.986846 1.00287 0.985529 0.998467
0.984363 0.995795 0.993253 0.995235
1.00331 1.02334 0.98216 0.998233
1.00525 1.01304 0.994202 0.998104
1.00933 1.02827 0.983354 0.998196
1.01748 1.02237 0.997092 0.99812
1.00574 1.0228 0.984917 0.998382
1.01089 1.02938 0.983591 0.998424
1.00689 1.02132 0.98758 0.998268
1.01706 1.02333 0.995326 0.998537
1.01484 1.02092 0.995636 0.998398
1.01622 1.02026 0.997905 0.998141
1.0176 1.02013 0.999088 0.998432
1.01638 1.01859 0.999565 0.998268
1.016 1.01805 1 0.997978
1.01435 1.01611 0.999968 0.998301
1.01413 1.0161 1 0.998069
1.01557 1.01775 1 0.997859
1.01396 1.01588 1 0.99811
1.01366 1.01579 1 0.997898
1.00914 1.01133 1 0.997838
1.01277 1.015 1 0.997803
1.0077 1.00987 1 0.997853
1.00121 1.00316 1 0.99806
0.998647 1 1 0.998647
0.999838 1.00173 1 0.998106
1.00492 1.00709 1 0.997847
0.999621 1 1 0.999621
0.998773 1 1 0.998773
0.999184 1.00095 1 0.998236
1 1 1 1
0.999724 1 1 0.999724
0.998935 1 1 0.998935
1 1 1 1
0.99982 1 1 0.99982
1 1 1 1
1.00114 1.00301 1 0.998139
0.99921 1.00077 1 0.998437
0.998646 1 1 0.998646
0.998718 1 1.00001 0.998711
0.998859 1 1 0.998859
0.999249 1 1 0.999249
0.998988 1 1 0.998988
0.999406 1 1 0.999406
0.999954 1 1 0.999954
0.99956 1 1 0.99956
0.999985 1 1 0.999985
1 1 1 1
0.999994 1 1 0.999994
1 1 1 1
1 1 1 1
1.00226 1.01048 0.993052 0.998811
0.966796 0.985019 0.988147 0.993273
0.955843 0.97615 0.991007 0.988083
1.00469 1.00645 1.00001 0.998235
1.00735 1.00952 1 0.997851
1.0029 1.00466 1.00013 0.998112
0.998648 1 1 0.998648
0.999357 1.00075 1.00024 0.998366
0.999964 1.00141 1 0.998549
1.00593 1.00803 1 0.99792
0.998555 1 1 0.998555
0.99908 1.00077 1 0.998312
1.00153 1.00368 1 0.99786
1.00852 1.01102 1 0.997527
1.01164 1.01674 0.996948 0.998028
1.00304 1.00583 0.99954 0.997688
1.0003 1.00262 0.999974 0.997703
1.00087 1.0086 0.993404 0.998929
0.970946 0.989034 0.988837 0.992795
0.998961 1.00728 0.992782 0.998948
1.0135 1.01949 0.995487 0.998635
0.999307 1.00539 0.99577 0.99817
0.967594 0.982127 0.991075 0.994074
1.0046 1.02431 0.982468 0.998256
1.00361 1.0116 0.99387 0.998226
1.00813 1.02814 0.98226 0.998251
1.01969 1.02463 0.997044 0.99813
1.01473 1.02561 0.991233 0.99814
1.02757 1.03291 0.996576 0.998244
1.01311 1.03083 0.984359 0.998426
1.00738 1.02088 0.988486 0.998272
1.01852 1.02553 0.995105 0.998051
1.01565 1.02135 0.996013 0.998395
1.01646 1.01993 0.998452 0.998139
1.01927 1.0215 0.999901 0.99792
1.01632 1.0184 0.999669 0.998283
1.01598 1.01804 1 0.997976
1.01836 1.02063 1 0.997781
1.01371 1.01567 1 0.998069
1.01548 1.01765 1 0.99786
1.01092 1.01317 1 0.99778
1.01369 1.0158 1 0.997915
1.00907 1.01125 1 0.997842
1.00172 1.00373 1 0.998004
1.00767 1.00985 1 0.997834
1.0012 1.00316 1 0.998048
0.998573 1 1 0.998573
0.999541 1 1 0.999541
0.998647 1 1 0.998647
1.0001 1.00197 1 0.998131
1 1 1 1
0.999609 1 1 0.999609
0.998772 1 1 0.998772
1 1 1 1
0.999712 1 1 0.999712
1 1 1 1
1.00117 1.00329 1 0.997891
1.00089 1.00278 1 0.998112
0.998788 1.00041 1 0.998381
0.998762 1.00032 1 0.998442
0.99865 1 1 0.99865
0.999078 1 1 0.999078
0.998867 1 1 0.998867
0.999249 1 1 0.999249
0.999896 1 1 0.999896
0.999406 1 1 0.999406
0.999964 1 1 0.999964
1 1 1 1
0.999989 1 1 0.999989
1 1 1 1
1 1 1 1
1.01217 1.02041 0.993469 0.998446
0.999411 1.00951 0.991459 0.998523
0.964525 0.985082 0.984956 0.994086
1.01123 1.01338 1 0.997883
1.00325 1.00486 1 0.998397
1.01543 1.01774 1 0.997729
1.00719 1.00937 1 0.997836
1.00271 1.00439 1.00018 0.998151
1.01703 1.01951 1 0.997568
1.00043 1.00193 1 0.998497
1.00575 1.0079 1 0.997863
1.02198 1.02459 0.999756 0.9977
1.00174 1.00383 1 0.997914
1.00921 1.01174 1 0.997499
1.01151 1.01592 0.997614 0.998039
1.00254 1.00521 0.999671 0.997666
1.00352 1.01047 0.994081 0.999029
1.02515 1.03025 0.996726 0.998322
1.01316 1.0193 0.995337 0.998637
0.998627 1.00409 0.996312 0.99824
1.00707 1.02768 0.981607 0.998306
1.02061 1.02587 0.996727 0.998141
1.01418 1.02591 0.990393 0.998154
1.02786 1.03396 0.995841 0.998249
1.02745 1.03425 0.99527 0.998143
1.00781 1.02029 0.989472 0.998276
1.01848 1.02512 0.995456 0.998058
1.02256 1.02679 0.997957 0.99792
1.01672 1.01965 0.998988 0.998137
1.01895 1.02115 0.999937 0.997904
1.02067 1.02301 1 0.997709
1.01605 1.01812 1 0.997975
1.01819 1.02046 1 0.997779
1.01371 1.01604 1 0.997698
1.01541 1.01759 1 0.99786
1.01106 1.01331 1 0.997781
1.00247 1.00457 1 0.997916
1.00899 1.01117 1 0.997846
1.00191 1.00391 1 0.998006
0.998499 1 1 0.998499
1.00116 1.00313 1 0.998037
0.998571 1 1 0.998571
0.999576 1 1 0.999576
0.999883 1 1 0.999883
0.999563 1 1 0.999563
0.998647 1 1 0.998647
1 1 1 1
0.999598 1 1 0.999598
1 1 1 1
1.02057 1.02285 1 0.997772
1.00755 1.00974 1 0.997827
1.00123 1.00336 1 0.997874
1.00029 1.00211 1 0.99819
1.00057 1.00249 1 0.998085
0.998626 1.00024 1 0.998386
0.998895 1 1 0.998895
0.998655 1 1 0.998655
0.999081 1 1 0.999081
0.999796 1 1 0.999796
0.999249 1 1 0.999249
0.999912 1 1 0.999912
1 1 1 1
0.999973 1 1 0.999973
1 1 1 1
1 1 1 1
1.02631 1.02961 0.998712 0.998078
1.01572 1.0235 0.99386 0.998531
0.99801 1.00962 0.99025 0.998235
1.01949 1.02192 1 0.997631
1.0102 1.01226 1 0.997958
1.00172 1.00317 1 0.998555
1.01556 1.01785 1 0.99775
1.00704 1.00924 1 0.997822
1.02497 1.02735 1 0.997682
1.01555 1.01806 1 0.997531
1.00568 1.00789 1 0.997806
1.02152 1.02399 0.999901 0.997694
1.01088 1.01344 1 0.99747
1.01351 1.01724 0.998272 0.998055
1.03118 1.03528 0.997806 0.998229
1.02689 1.03144 0.99726 0.998329
1.01405 1.01924 0.996263 0.99864
1.01448 1.02706 0.989567 0.998168
1.02881 1.03532 0.995443 0.998253
1.02744 1.03494 0.994588 0.998157
1.02739 1.03102 0.998505 0.997976
1.01833 1.0246 0.995808 0.998066
1.02293 1.0265 0.9986 0.997912
1.02295 1.0253 1 0.997702
1.0186 1.02078 0.999982 0.997888
1.02092 1.02326 1 0.997709
1.01684 1.01926 1 0.997626
1.018 1.02026 1 0.997778
1.01377 1.01611 1 0.997698
1.00352 1.00572 1 0.997819
1.01119 1.01343 1 0.997783
1.00275 1.00484 1 0.997917
0.998404 1 1 0.998404
1.0021 1.0041 1 0.998008
0.998497 1 1 0.998497
0.999572 1 1 0.999572
0.998569 1 1 0.998569
0.999572 1 1 0.999572
0.999889 1 1 0.999889
0.999943 1 1 0.999943
0.999587 1 1 0.999587
1 1 1 1
1.02186 1.02428 1 0.997635
1.01165 1.01384 1 0.997843
1.02049 1.02267 1 0.997867
1.0017 1.00365 1 0.99806
1.00836 1.01056 1 0.997821
1.00133 1.00348 1 0.997857
0.999706 1.00152 1 0.998189
0.998723 1 1 0.998723
0.998495 1.00011 1 0.99839
0.998897 1 1 0.998897
0.999673 1 1 0.999673
0.999085 1 1 0.999085
0.999814 1 1 0.999814
1 1 1 1
0.999928 1 1 0.999928
1 1 1 1
1 1 1 1
1.02878 1.03126 0.999635 0.997959
1.02621 1.02958 0.998645 0.998076
1.01688 1.02516 0.993304 0.998611
1.02523 1.02766 1 0.997632
1.01886 1.02128 1 0.997635
1.00927 1.01126 1 0.998032
1.01559 1.01786 1 0.997771
1.02492 1.02733 0.999996 0.997665
1.01399 1.01654 1 0.997494
1.01949 1.02188 0.999978 0.997687
1.03038 1.03331 0.999127 0.998036
1.03069 1.03477 0.997863 0.998192
1.02896 1.03323 0.997529 0.998336
1.02568 1.02856 0.999326 0.99787
1.02735 1.03558 0.993871 0.998171
1.02703 1.03094 0.99824 0.997966
1.02462 1.0269 1 0.997774
1.02331 1.02625 0.999235 0.997904
1.02334 1.0257 1 0.997704
1.01921 1.02168 1 0.997589
1.02114 1.02348 1 0.997709
1.01657 1.01899 1 0.997627
1.00503 1.00731 1 0.997737
1.01383 1.01617 1 0.997698
1.0039 1.0061 1 0.997819
0.998316 1.00001 1 0.998307
1.00303 1.00513 1 0.997918
0.998402 1 1 0.998402
0.999551 1 1 0.999551
0.998495 1 1 0.998495
0.999565 1 1 0.999565
0.999892 1 1 0.999892
0.999569 1 1 0.999569
0.999891 1 1 0.999891
1 1 1 1
1.02244 1.02496 1 0.997537
1.01412 1.01649 1 0.997674
1.02237 1.02477 1 0.997657
1.00199 1.00397 1 0.99803
1.01152 1.0137 1 0.997844
1.02048 1.02257 1 0.997962
0.99857 1 1 0.99857
1.00143 1.00338 1 0.998056
1.00928 1.01149 1 0.997814
0.999082 1.0009 1 0.998188
0.998725 1 1 0.998725
0.999567 1 1 0.999567
0.9989 1 1 0.9989
0.999686 1 1 0.999686
1 1 1 1
0.999831 1 1 0.999831
1 1 1 1
1 1 1 1
1.02845 1.03075 0.999941 0.997825
1.02889 1.03146 0.999563 0.997943
1.02669 1.02997 0.998741 0.998073
1.02463 1.02706 1 0.997638
1.01821 1.02062 1 0.997638
1.0248 1.02721 1 0.997648
1.02625 1.02851 0.999934 0.997872
1.03026 1.03327 0.999056 0.998028
1.02966 1.03371 0.997928 0.998154
1.02626 1.0289 0.999544 0.997886
1.02328 1.02561 1 0.997733
1.02667 1.03085 0.997978 0.997957
1.02451 1.02683 1 0.997748
1.02025 1.02269 1 0.997619
1.0237 1.02606 1 0.997707
1.01893 1.02139 1 0.997592
1.00677 1.00912 1 0.997671
1.01637 1.01879 1 0.997628
1.00555 1.00783 1 0.997737
0.998322 1.00009 1 0.99823
1.00428 1.00648 1 0.99782
0.998337 1.00003 1 0.998306
0.999511 1 1 0.999511
0.9984 1 1 0.9984
0.999542 1 1 0.999542
0.999881 1 1 0.999881
0.99956 1 1 0.99956
0.999898 1 1 0.999898
0.99989 1 1 0.99989
1.02412 1.02648 1 0.997698
1.01687 1.01938 1 0.997539
1.02273 1.02525 1 0.997547
1.00379 1.00593 1 0.997871
1.01391 1.01626 1 0.99768
1.0228 1.02518 1 0.99768
0.998454 1 1 0.998454
1.00199 1.00401 1 0.997986
1.01127 1.01345 1 0.997846
0.999503 1 1 0.999503
0.998572 1 1 0.998572
1.00113 1.00309 1 0.998052
0.998726 1 1 0.998726
0.999577 1 1 0.999577
1 1 1 1
0.999699 1 1 0.999699
1 1 1 1
1 1 1 1
1.02465 1.02693 1 0.997787
1.0278 1.03016 0.999878 0.997823
1.02929 1.03197 0.99947 0.997928
1.02405 1.02646 1 0.997644
1.02377 1.02613 1 0.997698
1.02668 1.02911 0.999758 0.99788
1.03006 1.03317 0.998968 0.99802
1.02684 1.02923 0.999769 0.997901
1.02309 1.02542 0.999987 0.997741
1.01899 1.02141 1 0.997631
1.0245 1.02684 1 0.997721
1.02 1.02244 1 0.997608
1.00794 1.01033 1 0.997635
1.01862 1.02108 1 0.997595
1.00715 1.0095 1 0.997673
0.998332 1.00017 1 0.99816
1.00603 1.00831 1 0.997737
0.998346 1.00012 1 0.998229
0.9994 1 1 0.9994
0.998361 1.00006 1 0.998305
0.999472 1 1 0.999472
1 1 1 1
0.999533 1 1 0.999533
0.99989 1 1 0.99989
0.9999 1 1 0.9999
1.02269 1.02501 1 0.997743
1.01806 1.02052 1 0.997596
1.02376 1.02613 1 0.997696
1.00636 1.00869 1 0.997688
1.01697 1.01945 1 0.997561
1.02313 1.02564 1 0.997557
0.998303 1.00003 1 0.998269
1.00381 1.00596 1 0.997869
1.01376 1.01611 1 0.997686
0.999473 1 1 0.999473
0.998415 1 1 0.998415
1.00202 1.00409 1 0.997942
1 1 1 1
0.999513 1 1 0.999513
0.998575 1 1 0.998575
0.999588 1 1 0.999588
1 1 1 1
1 1 1 1
1.02308 1.02543 1 0.997706
1.025 1.02726 1 0.997796
1.02712 1.02955 0.999823 0.997822
1.02006 1.02253 1 0.997581
1.02295 1.02531 1 0.997703
1.02711 1.02971 0.999587 0.997889
1.0229 1.02525 0.999963 0.99775
1.01908 1.0215 1 0.997632
1.008 1.01034 1 0.99768
1.01969 1.02214 1 0.997597
1.00802 1.01037 1 0.997666
0.998271 1.00024 1 0.99803
1.00757 1.00992 1 0.997674
0.998353 1.00019 1 0.99816
0.999349 1 1 0.999349
0.998376 1.00015 1 0.998228
0.999397 1 1 0.999397
1 1 1 1
0.999428 1 1 0.999428
0.999936 1 1 0.999936
0.999898 1 1 0.999898
1.02045 1.0228 1 0.997712
1.01834 1.02075 1 0.997638
1.02252 1.02483 1 0.997745
1.00733 1.00966 1 0.997693
1.01849 1.02095 1 0.997591
1.02341 1.02577 1 0.997693
0.998464 1.0003 1 0.998163
1.0063 1.00858 1 0.997732
1.01702 1.01948 1 0.997583
0.999445 1 1 0.999445
0.998273 1.00002 1 0.998255
1.00382 1.00597 1 0.997868
1 1 1 1
0.999481 1 1 0.999481
0.998375 1 1 0.998375
1 1 1 1
0.999523 1 1 0.999523
1 1 1 1
1.02014 1.02258 1 0.997619
1.02267 1.02503 1 0.9977
1.02538 1.02763 1 0.997804
1.00722 1.00958 1 0.997663
1.02005 1.02251 1 0.997595
1.02219 1.02454 1 0.997708
1.01918 1.0216 1 0.997632
1.00802 1.01037 1 0.99768
0.998303 1.00032 1 0.997987
1.0081 1.01043 1 0.997697
0.998294 1.00023 1 0.998064
0.999282 1 1 0.999282
0.998359 1.0002 1 0.998161
0.999345 1 1 0.999345
1 1 1 1
0.999394 1 1 0.999394
1 1 1 1
0.999884 1 1 0.999884
1.01836 1.02075 1 0.997658
1.02077 1.0231 1 0.99772
1.00685 1.00917 1 0.9977
1.01824 1.02065 1 0.997638
1.02235 1.02466 1 0.997747
0.998533 1.00035 1 0.99818
1.00726 1.00959 1 0.99769
1.01892 1.02138 1 0.997585
0.999404 1 1 0.999404
0.99848 1.00029 1 0.99819
1.00622 1.00846 1 0.997776
1 1 1 1
0.999451 1 1 0.999451
0.998246 1 1 0.998241
1 1 1 1
0.99949 1 1 0.99949
1 1 1 1
1.00666 1.00898 1 0.9977
1.02004 1.02248 1 0.997615
1.02218 1.02455 1 0.997694
0.99806 1.00008 1 0.997985
1.00726 1.00962 1 0.997663
1.02 1.02244 1 0.997608
1.00804 1.01039 1 0.997679
0.998301 1.00031 1 0.99799
0.999231 1 1 0.999231
0.998326 1.00023 1 0.998098
0.999279 1 1 0.999279
1 1 1 1
0.999342 1 1 0.999342
1 1 1 1
1 1 1 1
1.00636 1.00868 1 0.997694
1.01797 1.02035 1 0.997665
1.02107 1.02339 1 0.997728
0.998346 1.00019 1 0.998155
1.00705 1.00937 1 0.997698
1.01809 1.0205 1 0.997637
0.999358 1 1 0.999358
0.998547 1.00037 1 0.998178
1.0072 1.00954 1 0.997687
1 1 1 1
0.999407 1 1 0.999407
0.998499 1.00028 1 0.998217
1 1 1 1
0.999457 1 1 0.999457
1 1 1 1
0.998071 1 1 0.998071
1.00666 1.00902 1 0.997665
1.01997 1.02242 1 0.997611
0.999225 1 1 0.999225
0.998069 1.00008 1 0.997984
1.0073 1.00966 1 0.997663
0.998298 1.00031 1 0.997993
0.999231 1 1 0.999231
1 1 1 1
0.999276 1 1 0.999276
1 1 1 1
1 1 1 1
0.99815 1.00003 1 0.998118
1.0064 1.00873 1 0.997688
1.01761 1.01999 1 0.997672
0.999412 1 1 0.999412
0.998421 1.00027 1 0.998153
1.00726 1.00959 1 0.997695
1 1 1 1
0.999359 1 1 0.999359
0.998551 1.00038 1 0.998176
1 1 1 1
0.999411 1 1 0.999411
1 1 1 1
0.999227 1 1 0.999227
0.998042 1 1 0.998042
1.00666 1.00906 1 0.99763
1 1 1 1
0.999225 1 1 0.999225
0.998076 1.00009 1 0.997983
0.999229 1 1 0.999229
1 1 1 1
1 1 1 1
0.999364 1 1 0.999364
0.998203 1.00009 1 0.998118
1.00643 1.00877 1 0.997682
1 1 1 1
0.999318 1 1 0.999318
0.998493 1.00034 1 0.998151
1 1 1 1
0.999361 1 1 0.999361
1 1 1 1
0.999801 1 1 0.999801
0.999294 1 1 0.999294
0.998013 1 1 0.998013
1 1 1 1
0.999225 1 1 0.999225
1 1 1 1
0.999818 1 1 0.999818
0.999324 1 1 0.999324
0.998262 1.00014 1 0.998118
0.999913 1 1 0.999913
0.999317 1 1 0.999317
1 1 1 1
1 1 1 1
0.999246 1 1 0.999246
1 1 1 1
0.999906 1 1 0.999906
0.999278 1 1 0.999278
1 1 1 1
1 1 1 1
1 1 1 1

VECTORS lamdaE float
1.00006 1.00015 0.995258
0.999948 1.00037 0.997743
0.99978 1.00034 0.995422
1.00036 0.99993 0.995033
1.00017 0.999965 0.995297
1.00006 1.00029 0.99508
1.00129 1.00049 0.992493
0.999954 1.00025 0.997764
0.999866 1.00023 0.997998
0.999502 1.00068 0.998036
0.999938 1.00018 0.995445
1.00109 1.00124 0.991558
1.00026 1.00001 0.995007
0.999988 0.999984 0.995272
0.999527 1.00055 0.99556
1.00015 0.999907 0.995249
0.999762 1.00058 0.995222
0.999927 1.00004 0.99548
1.00145 1.00032 0.992427
1.00025 1 0.997634
1.0004 0.999984 0.99491
1.00029 0.999886 0.995206
1.00169 0.999989 0.992306
1.00148 1.00013 0.992524
1.00006 1.00022 0.995058
1.0011 1.00098 0.992333
1.00385 1.00034 0.988299
0.99992 1.00019 0.997812
1.00001 1.00011 0.996577
0.999723 1.00052 0.996596
0.999899 0.999959 0.997919
1.00099 1.00136 0.991562
1.00027 0.999849 0.995095
1 1.00038 0.99517
1.00177 1.00018 0.992719
0.99951 0.999348 0.998502
1.00143 1.00083 0.992715
1.00074 1.00152 0.991895
1.00294 1.00194 0.987611
0.999596 0.99837 0.998823
1.00027 1.00001 0.997598
1.00014 1.00001 0.996439
1.00023 0.999997 0.997623
0.999943 1.00004 0.995311
1.00186 1.00004 0.9914
1.00004 0.99996 0.997918
1.00198 1.00011 0.992463
0.99993 0.999845 0.995465
0.999699 1.00011 0.995649
0.999472 1.00091 0.995349
1.00159 1.00015 0.992373
1.00013 1.00001 0.996458
1.00017 0.999985 0.995132
0.999762 1.00054 0.995205
1.00007 0.999874 0.995405
1.00178 0.999955 0.992219
1.00128 1.00078 0.99226
1.0016 1.00004 0.992453
1.00385 1.00036 0.988283
1.00021 0.999999 0.997642
1.00035 1.00001 0.994951
1.00168 1 0.992931
1.00173 1.00002 0.992204
1.00162 0.999974 0.992444
1.00417 0.99994 0.988054
1.00401 1.00002 0.98806
0.999844 0.999668 0.995742
1.00061 1.00164 0.992381
1.00367 1.00078 0.988186
1.00488 1.0001 0.985997
1.00017 1.00014 0.997716
0.999796 0.999725 0.998108
0.999941 1.00036 0.997733
1.00092 1.00145 0.991561
1.0003 0.999979 0.997674
1.00006 1.00032 0.997734
1.00167 1.00013 0.991549
0.999613 0.99943 0.997349
1.00122 1.00092 0.991562
1.00061 1.00156 0.992652
1.00298 1.00189 0.987596
0.999711 0.998807 0.998548
0.999694 1.00014 0.995143
1.00187 0.999981 0.991407
1.00157 1.00042 0.991552
1.00416 1.0002 0.987164
1.00025 1.00127 0.994154
1.0035 1.001 0.98756
1.00189 1.00346 0.988015
1.00405 1.00162 0.98584
0.999549 0.997987 0.999027
0.999531 0.998294 0.998912
1.00031 0.999988 0.997615
1.00029 1.00001 0.997598
1.00026 1 0.997619
1.00012 1.00001 0.996458
1.00188 1.00002 0.99203
1.00017 0.999969 0.996472
1.00192 1.00013 0.991888
1.00024 0.999994 0.997632
1.00176 0.999958 0.991592
1.00196 1.00011 0.992515
1.0043 0.999723 0.98742
1.00194 1.00002 0.992579
1.00433 0.999934 0.98717
1.00022 1.00001 0.995083
0.999934 0.99998 0.99536
0.999441 1.00092 0.995363
0.999861 0.999839 0.995601
1.00187 0.99996 0.992132
1.00171 0.999954 0.992389
1.00146 1.00053 0.992196
1.00384 1.00038 0.988268
1.00024 0.999997 0.997634
1.00011 1.00001 0.995174
1.00179 0.999978 0.991881
1.00182 1.00001 0.992107
0.999723 0.999914 0.996876
1.00085 1.00154 0.992505
1.00171 0.999925 0.992367
1.00419 0.999915 0.987956
1.00363 1.00082 0.988211
1.00401 1.0001 0.988132
1.00486 1.00011 0.986022
1.00175 0.99998 0.991631
1.00169 1 0.992265
1.00421 0.999676 0.98805
1.00422 0.99985 0.987855
1.00412 0.999881 0.987976
1.00512 0.99955 0.986419
0.999654 0.999308 0.998402
1.00497 0.999818 0.986116
1.0001 1.00188 0.99248
1.00288 1.00196 0.987654
1.00479 1.00051 0.985824
1.00519 0.999849 0.98568
0.999852 1.00107 0.993801
1.00019 1.00389 0.990471
1.00028 1.00001 0.997689
1.00001 1.00031 0.997738
1.00167 1.00011 0.991549
0.999675 0.999147 0.998454
1.00038 1.00179 0.992129
1.00117 1.00096 0.99157
1.00302 1.00184 0.987581
0.999628 0.998732 0.998653
0.999689 1.00005 0.995189
1.00188 1.00001 0.992038
1.00155 1.00044 0.992159
1.00416 1.00021 0.987162
1.00005 1.00133 0.993301
1.0035 1.00098 0.987573
1.00189 1.00342 0.987999
1.00413 1.00156 0.985773
0.999833 1.00078 0.994276
0.999732 0.999448 0.995764
1.00028 1.00282 0.991477
1.00429 1.00007 0.987091
1.00386 1.00054 0.987356
1.00504 1.00007 0.985755
1.00106 1.00386 0.989116
1.00455 1.00076 0.985797
1.00304 1.00351 0.985807
1.00487 1.00109 0.985288
0.999582 0.997702 0.999112
0.999521 0.997929 0.999061
0.999481 0.998203 0.99898
0.999798 1.00063 0.994351
0.999621 0.998961 0.998574
1.00032 0.999975 0.997647
1.00029 1 0.997597
1.00183 1.00014 0.99131
1.00181 1.00003 0.991457
1.00023 1 0.997618
1.00022 0.999998 0.997632
1.00176 0.999967 0.991586
1.00189 1.0001 0.991929
1.0043 0.999721 0.987419
1.00184 1.00005 0.991367
1.00432 0.999934 0.987165
1.00173 0.999954 0.991646
1.00425 0.999654 0.98757
1.00432 0.999818 0.987286
1.00516 0.999083 0.986601
1.00432 1.00002 0.987098
1.00517 0.999467 0.986191
1.00022 0.999995 0.99763
0.99989 1.00002 0.995397
1.0018 0.999969 0.990928
1.00191 1 0.992007
0.999415 1.0001 0.998252
1.00117 1.00134 0.992625
1.00181 0.9999 0.992292
1.00421 0.999874 0.987858
1.004 1.00016 0.988205
1.00359 1.00088 0.988235
1.00484 1.00013 0.986047
1.00173 0.999967 0.991634
1.0018 1 0.992159
1.00422 0.999658 0.987736
1.00424 0.999884 0.987908
0.999687 0.999391 0.998325
1.00034 1.00168 0.992991
1.0028 1.00215 0.98794
1.00412 0.999913 0.987956
1.00512 0.999432 0.986405
1.00479 1.00054 0.985738
1.00497 0.999872 0.986223
1.00519 0.999843 0.985707
0.999878 1.00108 0.993796
1.00027 1.00375 0.990488
1.00421 0.999647 0.987647
1.00422 0.999785 0.987926
1.00513 0.999177 0.986771
1.00514 0.999209 0.986493
1.00506 0.99958 0.986447
1.00524 0.998643 0.986931
0.999944 1.00147 0.993199
1.00521 0.999318 0.98621
1.00154 1.0035 0.98843
1.00431 1.00147 0.985493
1.00516 1.00056 0.98527
1.00518 0.999155 0.986511
1.00057 1.00379 0.98995
1.0001 1.00319 0.991309
1.00077 1.00464 0.98891
1.0018 0.999991 0.991469
0.999551 0.998639 0.998762
0.999686 0.999955 0.995234
1.00142 1.00049 0.991604
1.00416 1.00022 0.987159
0.999959 1.00141 0.993229
1.00187 1.00338 0.987983
1.0035 1.00097 0.987588
1.00421 1.0015 0.985707
0.999803 1.00073 0.994298
0.999746 0.999344 0.995802
1.00014 1.00298 0.991487
1.00428 1.00009 0.987085
1.00387 1.00053 0.987358
1.00505 1.00006 0.985738
1.00098 1.00391 0.98914
1.0046 1.00079 0.985784
1.00311 1.00351 0.985778
1.00479 1.00093 0.985233
0.99985 0.998905 0.996083
1.00061 1.00338 0.990313
1.00008 1.00198 0.99265
1.00037 1.00438 0.989774
1.00511 0.999858 0.985859
1.00486 1.0004 0.985725
1.00518 0.999657 0.985925
1.0019 1.00458 0.98697
1.005 1.00042 0.985472
1.00415 1.00278 0.984903
1.00513 1.00067 0.98513
1.00027 1.00029 0.99399
1.00005 0.998359 0.996266
0.999659 0.997465 0.999145
0.999578 0.99766 0.999123
0.999505 0.997876 0.999088
0.999795 1.00007 0.994931
0.999595 0.998609 0.998731
0.999817 1.00068 0.994327
0.999663 0.99901 0.998516
1.00184 1.00007 0.991361
1.00184 1.00009 0.991351
1.00432 0.999935 0.987161
1.00429 0.99972 0.987418
1.00177 0.999976 0.991582
1.00025 0.999999 0.997625
1.00174 0.999957 0.991645
1.00425 0.999659 0.987569
1.00432 0.999823 0.987282
1.00516 0.999091 0.986597
1.00431 1.00003 0.987089
1.00517 0.999468 0.986182
1.00421 0.999641 0.98766
1.00514 0.998974 0.986762
1.00518 0.999256 0.986393
1.00522 0.997794 0.987826
1.00515 0.999671 0.98601
1.00523 0.998433 0.987164
1.00174 0.999955 0.991637
1.00189 0.999985 0.992054
1.00424 0.999628 0.987425
1.00426 0.999915 0.98796
0.999741 0.999491 0.998237
1.00058 1.00159 0.993395
1.0028 1.00228 0.988224
1.00413 0.999933 0.987936
1.00511 0.99931 0.986392
1.00497 0.999928 0.98633
1.00478 1.00057 0.985651
1.00518 0.999835 0.985734
0.999912 1.00109 0.993792
1.00036 1.00363 0.990504
1.00421 0.999601 0.987589
1.00424 0.999769 0.987911
1.00513 0.999073 0.986881
1.00514 0.999332 0.986481
1.00001 1.00146 0.993186
1.00168 1.0034 0.988414
1.00431 1.00151 0.985501
1.00506 0.999645 0.986404
1.00524 0.998489 0.987108
1.00515 1.00055 0.985241
1.0052 0.99931 0.98623
1.00518 0.999117 0.986513
1.00063 1.00368 0.989958
1.00064 1.00457 0.988954
1.00014 1.00319 0.991301
1.00512 0.99907 0.986886
1.00513 0.999142 0.986803
1.00522 0.997902 0.987707
1.00525 0.998251 0.987272
1.00521 0.99873 0.986791
1.00518 0.997212 0.988372
1.00091 1.00369 0.989419
1.00518 0.998276 0.987223
1.00292 1.00321 0.986408
1.005 1.00127 0.98452
1.00515 1.00031 0.985438
1.00512 0.998292 0.987418
1.00015 1.00233 0.992132
1.00122 1.00381 0.98882
1.00026 1.00488 0.989297
1.00136 1.00396 0.988678
1.00427 1.0001 0.987077
0.999756 0.999253 0.995839
0.999768 1.00069 0.994322
1.00004 1.00311 0.991497
1.00389 1.00052 0.987359
1.00507 1.00006 0.985722
1.00089 1.00395 0.989165
1.0032 1.00358 0.985749
1.00465 1.00083 0.98577
1.0047 1.00078 0.985177
0.999856 0.998857 0.996098
1.00055 1.00348 0.99032
1.00005 1.00195 0.992683
1.00026 1.00457 0.98975
1.00512 0.999862 0.985844
1.00489 1.00039 0.985707
1.00519 0.999664 0.985912
1.00182 1.00464 0.987003
1.00503 1.00048 0.985482
1.00403 1.00267 0.984904
1.00511 1.00066 0.985054
0.999966 0.998557 0.996209
1.00016 1.00106 0.993429
1.00107 1.00441 0.988592
1.0001 1.00369 0.990956
1.00064 1.00456 0.98928
1.0052 0.999262 0.986317
1.00513 1.00002 0.98562
1.00514 0.998912 0.986691
1.00255 1.00442 0.986083
1.00513 1.00013 0.98557
1.00428 1.00189 0.984838
1.00027 1.00036 0.993916
1.00024 1.00165 0.99273
1.00024 1.00029 0.994045
1.00026 1.00029 0.993989
1.00008 0.998181 0.99687
1.00004 0.998347 0.996552
0.999813 0.997273 0.998044
0.999667 0.99742 0.99915
0.999579 0.997609 0.999134
0.999828 0.999518 0.995449
0.9996 0.998226 0.998893
0.999803 1.00014 0.994904
0.999639 0.998671 0.998675
0.999838 1.00071 0.994303
0.9997 0.999066 0.998455
1.0043 1.00004 0.98708
1.00432 0.999827 0.987278
1.00517 0.999482 0.986173
1.00515 0.999099 0.986592
1.00424 0.999664 0.987568
1.00173 0.999959 0.991643
1.00421 0.999639 0.98766
1.00513 0.998977 0.986765
1.00518 0.99927 0.986385
1.00522 0.99768 0.987954
1.00515 0.999678 0.985999
1.00523 0.998449 0.987149
1.00512 0.998942 0.986828
1.00521 0.997482 0.98821
1.00524 0.998031 0.987542
1.00523 0.996408 0.989151
1.00521 0.998873 0.98675
1.00517 0.996899 0.988638
1.00421 0.999556 0.987532
1.00426 0.999762 0.987897
1.00513 0.998977 0.986992
1.00514 0.999456 0.986468
1.0001 1.00143 0.993171
1.00171 1.00336 0.988399
1.00434 1.00155 0.985508
1.00506 0.99971 0.986362
1.00524 0.998333 0.987285
1.0052 0.999301 0.986251
1.00514 1.00054 0.985211
1.00518 0.999082 0.986514
1.00069 1.00357 0.989965
1.00062 1.0045 0.988998
1.00018 1.00317 0.991293
1.00512 0.999027 0.986838
1.00514 0.999137 0.986795
1.00522 0.997692 0.987942
1.00524 0.998324 0.987219
1.00096 1.00367 0.989394
1.00302 1.0031 0.9864
1.00486 1.00139 0.984584
1.00521 0.998886 0.986658
1.00518 0.997015 0.988595
1.00515 1.00031 0.985356
1.00518 0.99828 0.987239
1.00512 0.998192 0.987541
1.00129 1.00379 0.98881
1.00131 1.00399 0.988672
1.00017 1.00233 0.992116
1.00021 1.00476 0.989413
1.00522 0.997685 0.987972
1.00523 0.998011 0.987689
1.00517 0.996538 0.989045
1.0052 0.996318 0.989178
1.00517 0.997523 0.988046
1.00514 0.9962 0.989507
1.00189 1.00353 0.98794
1.00511 0.996911 0.988549
1.00369 1.00302 0.98513
1.00512 1.00146 0.98423
1.00514 0.99986 0.98567
1.00509 0.997927 0.987757
1.00014 1.0017 0.992768
1.00016 1.00418 0.990161
1.00178 1.00325 0.988389
1.00048 1.005 0.988934
1.00165 1.00331 0.988908
0.999859 0.998822 0.996115
1.00513 0.999865 0.985829
1.00003 1.00191 0.992715
1.00046 1.00363 0.990328
1.00016 1.00476 0.989726
1.00491 1.00038 0.985688
1.00519 0.99967 0.985899
1.00184 1.00455 0.987037
1.00393 1.00256 0.984905
1.00506 1.00053 0.985492
1.00511 1.00066 0.98498
0.99997 0.998543 0.996216
1.00014 1.00105 0.993447
1.00106 1.00438 0.988613
0.999995 1.00383 0.990949
1.00052 1.00455 0.989215
1.0052 0.999267 0.986303
1.00514 1.00001 0.985602
1.00514 0.998886 0.986658
1.00246 1.00443 0.986084
1.00516 1.00015 0.985509
1.00448 1.00179 0.984833
1.00025 1.00057 0.993771
1.00014 1.00259 0.991994
1.00143 1.00427 0.988055
1.00013 1.00474 0.990036
1.00104 1.00395 0.989267
1.00516 0.998314 0.987281
1.00513 0.999472 0.986089
1.00511 0.998266 0.987046
1.00277 1.00352 0.986181
1.00497 1.00087 0.984877
1.00027 1.00037 0.993912
1.00024 1.00162 0.992644
1.00019 1.00169 0.992685
1.0002 1.0024 0.992187
1.0002 1.00168 0.992765
1.0002 1.00034 0.994067
1.00024 1.00028 0.994045
1.00011 0.998102 0.996884
1.00026 1.0003 0.993988
1.00008 0.998196 0.996872
0.99991 0.997047 0.998073
1.00003 0.998346 0.996833
0.99978 0.997232 0.998606
0.999677 0.997373 0.999154
0.999883 0.999015 0.995861
0.999824 0.999571 0.995425
0.99962 0.997882 0.999014
0.999629 0.998308 0.998834
0.999811 1.0002 0.994875
0.999681 0.998723 0.998617
1.00515 0.999684 0.985989
1.00518 0.999272 0.986377
1.00523 0.998459 0.987135
1.00523 0.997567 0.988081
1.00512 0.998978 0.986768
1.00421 0.999639 0.987661
1.00511 0.998942 0.986831
1.00521 0.997483 0.988214
1.00524 0.998042 0.987537
1.00522 0.996205 0.98935
1.00521 0.998871 0.986728
1.00517 0.996782 0.988768
1.00522 0.997506 0.988173
1.00523 0.99619 0.989369
1.00521 0.996266 0.989318
1.00522 0.995346 0.990205
1.00517 0.997584 0.987989
1.00516 0.995804 0.989712
1.00512 0.99898 0.986791
1.00514 0.999144 0.986786
1.00522 0.997474 0.988176
1.00524 0.998394 0.987167
1.00103 1.00365 0.989369
1.0031 1.00301 0.986392
1.00472 1.00144 0.984649
1.00521 0.999044 0.986524
1.00518 0.996816 0.98882
1.00518 0.998285 0.987255
1.00516 1.00031 0.985274
1.00512 0.99809 0.987664
1.00125 1.00385 0.9888
1.00111 1.00406 0.988666
1.0002 1.00234 0.992099
1.00017 1.00469 0.989531
1.00522 0.997691 0.98796
1.00522 0.998091 0.987567
1.00517 0.996393 0.989242
1.0052 0.996427 0.98905
1.00183 1.00373 0.9879
1.00363 1.00295 0.985252
1.00512 1.00146 0.984193
1.00517 0.997699 0.987838
1.00514 0.99593 0.989684
1.00514 0.999902 0.985644
1.00512 0.996934 0.988554
1.0051 0.997697 0.987887
1.00187 1.00322 0.98836
1.0016 1.00321 0.988979
1.00048 1.00503 0.988899
1.00014 1.00169 0.9927
1.00011 1.00411 0.990286
1.0052 0.99611 0.989512
1.0052 0.996076 0.98952
1.00515 0.995307 0.990207
1.00513 0.996085 0.989359
1.0023 1.00374 0.987054
1.00513 0.996515 0.989121
1.00407 1.00283 0.984303
1.00509 1.00151 0.984127
1.00511 0.999457 0.985931
1.00008 1.00108 0.993296
1.00011 1.00341 0.991211
1.00038 1.00458 0.989656
1.00209 1.00291 0.988331
1.00073 1.00478 0.988512
1.00193 1.00243 0.988736
0.999971 0.998535 0.996223
1.00013 1.00103 0.993464
1.0052 0.999273 0.986289
0.999887 1.00397 0.990943
1.00095 1.00444 0.988635
1.0004 1.00456 0.98915
1.00515 1.00001 0.985584
1.00514 0.998861 0.986625
1.00234 1.00444 0.986086
1.00464 1.00174 0.984827
1.00518 1.00017 0.985448
1.00024 1.00056 0.993775
1.00008 1.00264 0.992014
1.00145 1.00429 0.98802
0.999992 1.00479 0.990008
1.00094 1.00382 0.989338
1.00515 0.998325 0.987257
1.00514 0.999472 0.986061
1.00511 0.998302 0.987102
1.00288 1.00339 0.986012
1.00496 1.00098 0.984868
1.00022 1.00192 0.992543
0.999825 1.00404 0.990849
1.00205 1.00315 0.988048
1.00013 1.00493 0.989585
1.00151 1.00285 0.989207
1.00512 0.996888 0.988467
1.00511 0.999569 0.985972
1.00509 0.998179 0.987057
1.00386 1.00247 0.985629
1.005 1.00087 0.984889
1.00026 1.00037 0.993909
1.00025 1.00164 0.992672
1.00007 1.00243 0.992123
1.00016 1.00172 0.99264
1.00017 1.00172 0.992762
1.00011 1.00246 0.992126
1.00004 1.00287 0.991911
1.0001 1.00254 0.991973
1.00014 1.00179 0.992766
1.00014 1.00044 0.994068
1.0002 1.00034 0.994068
1.00013 0.998083 0.996876
1.00023 1.00028 0.994046
1.00012 0.998124 0.996883
0.999979 0.996925 0.998075
1.00009 0.998204 0.996876
0.999899 0.997019 0.99808
0.999743 0.997181 0.999179
0.999935 0.998601 0.996199
0.999873 0.999078 0.995834
0.99966 0.997591 0.9991
0.999818 0.999638 0.995403
0.999639 0.997953 0.998979
0.999664 0.998371 0.998777
1.00521 0.998869 0.986706
1.00524 0.998057 0.987533
1.00518 0.996664 0.988898
1.00521 0.99602 0.989548
1.00521 0.99748 0.988218
1.00511 0.998943 0.986834
1.00522 0.997588 0.988077
1.00523 0.996313 0.989285
1.0052 0.996334 0.989249
1.00523 0.995168 0.990328
1.00517 0.997622 0.987977
1.00516 0.995571 0.989909
1.00523 0.996354 0.989274
1.00523 0.994939 0.99058
1.00517 0.995175 0.990353
1.00514 0.995904 0.989618
1.00523 0.997697 0.987947
1.00522 0.998168 0.987446
1.00517 0.99626 0.98944
1.00521 0.996534 0.988922
1.00184 1.00383 0.987861
1.00363 1.00287 0.985375
1.00512 1.0015 0.984155
1.00517 0.997875 0.987631
1.00513 0.995668 0.989859
1.00512 0.996957 0.988557
1.00513 0.999938 0.985618
1.00511 0.99747 0.988016
1.00195 1.00323 0.988332
1.00163 1.00298 0.989049
1.00046 1.00504 0.988862
1.00015 1.00167 0.992633
1.00009 1.004 0.990411
1.0052 0.996179 0.989514
1.0052 0.996119 0.989467
1.00515 0.995436 0.990087
1.0023 1.0038 0.987022
1.0042 1.00276 0.984405
1.00509 1.00148 0.984095
1.00513 0.996108 0.98935
1.0051 0.999255 0.986222
1.00512 0.99648 0.988964
1.00009 1.00098 0.993395
1.00221 1.00277 0.98828
1.00175 1.00227 0.989269
1.00086 1.00486 0.988452
1.00038 1.00462 0.989672
1.00011 1.00338 0.99115
1.00521 0.995311 0.990094
1.00519 0.995223 0.990303
1.00513 0.995088 0.990233
1.00516 0.995447 0.989969
1.00289 1.00334 0.986388
1.00512 0.997552 0.987822
1.00479 1.00261 0.983329
1.00502 1.00172 0.983918
1.00014 1.00027 0.994033
1.00009 1.0026 0.992053
1.00026 1.00402 0.99045
1.00059 1.00503 0.988772
1.00234 1.00241 0.988049
1.00185 1.00354 0.987998
1.00023 1.00056 0.993779
1.00002 1.00266 0.992034
1.00515 0.998335 0.987233
0.999858 1.00486 0.989981
1.00148 1.0043 0.987985
1.00071 1.00372 0.989411
1.00514 0.999472 0.986033
1.00511 0.998346 0.987156
1.00302 1.00331 0.985841
1.00496 1.00108 0.984859
1.00019 1.0019 0.992557
0.999893 1.00408 0.990824
1.00211 1.00321 0.988036
0.999999 1.00502 0.989596
1.00133 1.00259 0.989671
1.00512 0.996876 0.988663
1.0051 0.999561 0.986041
1.0051 0.998239 0.987077
1.00376 1.00263 0.98542
1.00501 1.00089 0.98474
0.999928 1.00278 0.991939
0.999769 1.00494 0.989877
1.0028 1.00223 0.987712
1.00055 1.004 0.988837
1.00512 0.995478 0.98981
1.00495 0.99749 0.988367
1.00501 0.999822 0.985701
1.00421 1.00128 0.985053
1.00026 1.00164 0.9927
1.00009 1.00243 0.992144
0.999849 1.0031 0.992051
1.00014 1.00177 0.992759
1.00003 1.00251 0.992064
1.00013 1.00179 0.992759
0.999983 1.00286 0.991922
1.00011 1.00253 0.992012
0.999907 1.00293 0.992025
1.00008 1.00299 0.991649
1.00013 1.00264 0.99182
1.00012 1.00188 0.992695
1.00009 1.00053 0.994046
1.00014 1.00042 0.994067
1.00013 0.998099 0.996859
1.0002 1.00032 0.994068
1.00013 0.998113 0.996873
1.00003 0.996848 0.998066
1.00012 0.998145 0.996883
0.999972 0.99689 0.998082
0.999886 0.996996 0.998083
1.00002 0.998212 0.996446
0.999942 0.998628 0.996172
0.999724 0.997271 0.999168
0.999863 0.999142 0.995805
0.999669 0.997641 0.999076
0.999662 0.998016 0.99893
1.00517 0.997659 0.987966
1.00519 0.9964 0.98918
1.00516 0.995339 0.990105
1.00524 0.994965 0.990451
1.00524 0.996425 0.989201
1.00523 0.997674 0.987981
1.00523 0.996338 0.989322
1.00523 0.995036 0.990482
1.00518 0.995203 0.990296
1.00514 0.995832 0.98971
1.00522 0.995231 0.990345
1.00516 0.99494 0.990648
1.00516 0.995078 0.990341
1.00519 0.996247 0.989516
1.0052 0.996162 0.989414
1.00515 0.995566 0.989968
1.00232 1.00386 0.98699
1.0043 1.00268 0.984505
1.00507 1.00148 0.984063
1.00513 0.996125 0.989341
1.00511 0.99644 0.988806
1.00508 0.999054 0.986513
1.00232 1.00264 0.988229
1.00153 1.00217 0.989803
1.00104 1.00496 0.988394
1.0001 1.0009 0.993495
1.00032 1.00462 0.989688
1.00011 1.00335 0.991089
1.0052 0.995406 0.990145
1.0052 0.995147 0.990352
1.00513 0.995142 0.990277
1.00286 1.00344 0.986359
1.00463 1.00259 0.983568
1.00494 1.00153 0.984234
1.00515 0.9955 0.989904
1.00513 0.997476 0.987774
1.00013 1.00023 0.994185
1.00009 1.00261 0.99205
1.00211 1.00234 0.988291
1.00172 1.0036 0.988478
1.00052 1.00495 0.98899
1.00024 1.00405 0.990382
1.00515 0.994952 0.990662
1.00514 0.994932 0.990489
1.00513 0.995086 0.990329
1.00514 0.995464 0.989685
1.00326 1.00273 0.985632
1.0048 1.00055 0.985284
1.00501 1.00291 0.982961
1.0002 0.999831 0.99457
1.0002 1.00098 0.993463
1.00009 1.00171 0.992767
1.00003 1.0036 0.991116
1.00012 1.00469 0.989764
1.00026 1.00482 0.989064
1.00252 1.00138 0.988321
1.0018 1.00347 0.9892
1.00015 1.00192 0.992571
0.999955 1.00412 0.990799
1.00512 0.996866 0.98886
1.00007 1.00504 0.989604
1.00215 1.00331 0.988027
1.00112 1.00238 0.990133
1.00509 0.999534 0.986112
1.00511 0.998294 0.987099
1.00367 1.00275 0.985217
1.00504 1.00091 0.984593
0.999943 1.00287 0.991847
0.999842 1.00484 0.989941
1.00272 1.00227 0.987809
1.0009 1.00406 0.988938
1.00514 0.995371 0.989967
1.00502 0.997483 0.988171
1.00502 0.999779 0.985727
1.0045 1.00144 0.98491
0.999782 1.00356 0.991448
1.00513 0.994989 0.990298
1.00055 1.00498 0.989257
1.00281 1.00269 0.987093
1.00498 0.995997 0.989903
1.00487 0.998745 0.986299
1.00489 1.00107 0.984894
1.00008 1.00248 0.992165
0.999837 1.00305 0.992026
0.999559 1.00347 0.992232
1.00014 1.00177 0.992753
1.00011 1.00252 0.992051
0.99986 1.0029 0.991934
1.00013 1.00186 0.992683
1.00011 1.00264 0.99184
0.999789 1.00301 0.992043
1.00013 1.00292 0.991683
0.999976 1.00274 0.992238
0.99996 1.00303 0.991821
1.00018 1.00315 0.991347
1.00025 1.00266 0.991639
1.00014 1.00198 0.992544
1.00005 1.00065 0.993984
1.00008 1.00055 0.994043
1.00013 0.998153 0.996816
1.00014 1.00043 0.994066
1.00013 0.998133 0.996855
1.00006 0.996795 0.998055
1.00013 0.998142 0.996871
1.00003 0.996811 0.998071
0.999967 0.996858 0.998086
1.00019 0.999784 0.994652
1.00008 0.997966 0.996591
1.00003 0.998236 0.996429
0.999814 0.996988 0.999213
0.999945 0.998666 0.996146
0.999727 0.997349 0.999149
0.999683 0.997708 0.999052
1.00514 0.995762 0.989802
1.00518 0.995233 0.99024
1.00524 0.995151 0.990384
1.00523 0.996314 0.98937
1.00521 0.995126 0.990482
1.00515 0.994943 0.990666
1.00514 0.995111 0.990319
1.00514 0.994943 0.990717
1.00516 0.994941 0.990564
1.00499 0.995021 0.990947
1.00519 0.9955 0.990196
1.0052 0.995065 0.9904
1.00513 0.995199 0.990322
1.00285 1.00353 0.986331
1.00447 1.00259 0.98381
1.00489 1.00135 0.98455
1.00515 0.995562 0.98984
1.00513 0.997407 0.987726
1.0019 1.00233 0.988535
1.00165 1.00364 0.988954
1.00034 1.0049 0.98921
1.00012 1.00017 0.994336
1.00012 1.00259 0.992047
1.00022 1.00414 0.990314
1.00517 0.994947 0.990619
1.00018 0.999855 0.994565
1.00017 1.00102 0.993395
1.00514 0.994931 0.990503
1.00513 0.995082 0.990324
1.00299 1.00297 0.986043
1.00498 1.00278 0.983126
1.00485 1.00042 0.985206
1.00513 0.995621 0.989595
1.0001 1.00169 0.992949
1.00008 1.00356 0.991093
1.00275 1.00183 0.988044
1.0012 1.00348 0.989595
1.00032 1.00473 0.989249
1.00008 1.00473 0.989859
1.00518 0.994959 0.990443
1.00512 0.994881 0.990551
1.00513 0.995027 0.990082
1.00476 0.99639 0.989261
1.00297 1.00258 0.986629
1.00447 1.00308 0.983834
1.00012 1.00113 0.993294
1.00018 1.0011 0.993375
1.0003 1.00168 0.992731
1.00011 1.00292 0.991496
0.999972 1.0043 0.990645
1.00074 1.0044 0.98919
0.999687 1.00499 0.989599
1.00194 1.00097 0.989757
0.999961 1.00293 0.991757
0.999968 1.0048 0.990007
1.00514 0.99526 0.990124
1.00508 0.997513 0.987978
1.00123 1.00411 0.98904
1.00264 1.00227 0.987902
1.00504 0.999752 0.985752
1.00476 1.00161 0.984764
0.999829 1.00359 0.991409
1.00515 0.99493 0.990434
1.00033 1.00495 0.989343
1.0028 1.00257 0.987027
1.00501 0.9959 0.989849
1.0048 0.998798 0.986555
1.00485 1.00125 0.984945
0.999884 1.00454 0.990678
1.00452 0.994945 0.991938
1.00173 1.00392 0.988793
1.00342 1.00264 0.986515
1.00488 0.996632 0.989169
1.00415 1.00074 0.985821
0.999189 0.997059 0.991232
0.999789 1.00305 0.992001
0.999436 1.00353 0.992222
0.999704 1.00353 0.992106
1.00012 1.00187 0.992671
1.00009 1.00268 0.99186
1.00019 1.00285 0.991717
0.999715 1.00301 0.992061
1.00014 1.00198 0.992543
1.00022 1.00272 0.991625
0.999929 1.00283 0.992116
1.00014 1.00321 0.991349
1.00005 1.00296 0.991779
1.00002 1.00266 0.992164
1.00026 1.00329 0.991071
1.00021 1.00321 0.991251
1.00036 1.00278 0.991365
1.00018 1.00209 0.992267
1.00027 1.00258 0.991865
1.00018 1.00217 0.992142
1.00005 1.00069 0.993933
1.00005 1.00065 0.99398
1.00014 0.998245 0.996201
1.00009 1.00053 0.994039
1.00014 0.998197 0.996526
1.00003 0.996762 0.999164
1.00013 0.99817 0.996852
1.00006 0.996757 0.99806
1.00002 0.996777 0.998074
1.00015 0.999761 0.994727
1.00019 0.999754 0.994659
1.0001 0.997835 0.9967
1.00007 0.997974 0.996844
0.999889 0.996791 0.999246
1.00003 0.998257 0.996413
0.999805 0.997057 0.999202
0.999731 0.997406 0.99913
1.00513 0.995143 0.990298
1.00514 0.994945 0.990684
1.0052 0.995021 0.99062
1.00514 0.994942 0.990715
1.00515 0.99494 0.990561
1.00502 0.995084 0.990626
1.00517 0.994978 0.990502
1.001 0.994832 0.987838
1.00423 0.994931 0.993344
1.00005 1.00118 0.993501
1.00518 0.994942 0.990577
1.00514 0.994931 0.990516
1.00513 0.995076 0.990319
1.00269 1.00315 0.986451
1.00493 1.00264 0.983289
1.00497 1.00027 0.985132
1.00513 0.995812 0.989503
1.0031 1.00199 0.98777
1.00058 1.00349 0.989994
1.00044 1.00463 0.989435
1.00016 0.9999 0.99456
1.00006 1.00474 0.989954
1.00009 1.00167 0.993129
1.00013 1.00353 0.991071
1.00015 1.00101 0.993328
1.00518 0.994956 0.99044
1.00012 1.00109 0.993393
1.00015 1.00114 0.993371
1.00029 1.00168 0.992657
1.00511 0.994895 0.990534
1.00513 0.995049 0.990065
1.00316 1.00248 0.986669
1.0044 1.00251 0.98436
1.00465 0.996823 0.989172
1.00004 1.00295 0.991628
1.00005 1.00427 0.990466
1.00184 1.00173 0.989546
1.00008 1.0048 0.989643
1.00063 1.00432 0.989261
1.00515 0.9951 0.990527
1.00513 0.994879 0.990474
1.00505 0.995924 0.989434
1.00449 0.998214 0.988752
1.0018 1.00272 0.988978
1.00013 1.00207 0.99233
1.00033 1.00186 0.99219
1.00013 1.00252 0.991894
0.999898 1.00427 0.991023
1.00001 1.00444 0.990156
1.00011 1.00454 0.989598
1.00041 1.00349 0.990207
0.999922 1.00358 0.991367
1.00003 1.00486 0.989427
1.00517 0.99489 0.990566
1.00506 0.995762 0.989794
1.00478 0.998841 0.986811
1.0028 1.00244 0.986964
1.0048 1.00138 0.984996
0.999926 1.00448 0.990783
1.00443 0.994927 0.992056
1.00135 1.00386 0.988928
1.00315 1.00268 0.986562
1.00483 0.996333 0.989509
1.00424 1.00087 0.985794
0.999225 0.996843 0.989183
1.00003 1.00443 0.99058
1.00313 0.996802 0.99208
1.00126 1.00333 0.989301
1.00273 1.0019 0.987412
1.00394 0.997402 0.988678
1.00028 0.995473 0.95396
0.996997 0.994911 0.972967
0.996872 1.00259 0.990352
0.999766 0.996821 0.90314
0.994726 0.99749 0.880025
0.99934 1.00359 0.992212
0.999396 1.00379 0.992168
0.999764 1.00298 0.992351
1.00014 1.00198 0.992541
1.00027 1.00265 0.991611
1.00013 1.00324 0.991351
1.00013 1.00289 0.991737
0.999874 1.00296 0.991994
1.00025 1.00316 0.99121
1.00018 1.00206 0.992339
1.00034 1.00278 0.991387
1.00004 1.00266 0.992078
1.00019 1.00333 0.991171
1.00024 1.00335 0.991164
0.999898 1.00302 0.991748
1.00034 1.00324 0.991019
1.00034 1.00279 0.991314
1.0002 1.00217 0.992122
1.00034 1.00284 0.991405
1.00022 1.00277 0.991667
1.00012 1.00255 0.992002
1.00025 1.00261 0.9918
1.00023 1.00189 0.992491
1.00019 1.00218 0.992129
1.0001 1.00065 0.993906
1.00005 1.0007 0.993931
1.00013 0.998313 0.996176
1.00004 1.00067 0.993977
1.00014 0.998258 0.996198
1.00003 0.996766 0.999158
1.00014 0.998241 0.996236
1.00005 0.996763 0.998596
1.00006 0.996721 0.998064
1.00009 0.999779 0.994804
1.00016 0.999748 0.99473
1.00012 0.99774 0.996777
1.0002 0.999725 0.994666
1.0001 0.997797 0.996955
0.999942 0.996626 0.999275
1.00008 0.998015 0.996562
0.999877 0.996873 0.99923
0.9998 0.997114 0.999191
1.00515 0.99494 0.990558
1.00515 0.99494 0.990714
1.00504 0.995049 0.990305
1.00085 0.99491 0.987952
1.00516 0.994974 0.990497
1.00411 0.995347 0.992903
1.0049 0.996342 0.991197
0.997102 0.994951 0.971833
1.00078 0.996622 0.989315
1.00007 1.00122 0.993435
1.0001 1.00112 0.993494
1.00002 1.00216 0.992558
1.00007 1.00212 0.992533
1.00518 0.994953 0.990437
1.0051 0.994902 0.990517
1.00514 0.995036 0.990048
1.00357 1.00222 0.986709
1.00424 1.00184 0.984881
1.00456 0.997291 0.989078
1.00159 1.00265 0.989336
1.00053 1.00461 0.989685
1.00051 1.0042 0.989333
1.00012 1.00123 0.993366
1.00009 1.00428 0.990285
1.00007 1.00296 0.99176
1.00012 1.00109 0.993493
1.00024 1.0017 0.992579
1.00516 0.99504 0.990519
1.00012 1.00212 0.992436
1.0003 1.00189 0.992359
0.999954 1.00244 0.992277
1.00514 0.994884 0.990383
1.00492 0.995812 0.989472
1.00226 1.00203 0.98889
1.00414 0.998161 0.989141
0.999984 1.0041 0.990903
1.00017 1.00463 0.989703
1.00045 1.00383 0.990165
1.00059 1.00438 0.989518
1.00467 0.995026 0.991386
1.0051 0.995818 0.989938
1.00499 0.996419 0.989328
1.00219 0.999478 0.991479
0.999975 1.00324 0.991486
1.00013 1.00309 0.991325
0.999418 1.00459 0.991097
0.999621 1.00503 0.990112
1.00001 0.994899 0.947166
0.999922 1.00445 0.990888
1.00087 1.00388 0.98906
1.00439 0.994909 0.992173
1.00478 0.996132 0.989848
1.00428 1.00093 0.985762
1.00286 1.00273 0.986605
0.999411 0.996654 0.987076
0.999901 1.00462 0.990672
1.00335 0.996561 0.992098
1.00117 1.00339 0.989329
1.00305 1.00156 0.987372
1.00419 0.997758 0.988714
1.00137 0.995737 0.94558
0.996786 0.995198 0.968737
0.996758 1.0023 0.990106
0.999788 0.99731 0.90641
0.994713 0.997458 0.870084
0.999754 1.00378 0.991636
0.999875 0.995174 0.912612
0.995283 0.996827 0.881346
1.00179 1.00022 0.991025
1.00062 1.00321 0.990295
1.00217 1.00053 0.988991
0.996664 1.00347 0.989824
1.00039 0.9971 0.950961
0.994933 0.996512 0.966603
0.998147 0.998788 0.910525
0.994791 0.998638 0.877288
0.999148 1.004 0.99223
0.999622 1.00321 0.992284
0.999558 1.00253 0.993546
1.00019 1.00202 0.992411
1.00034 1.00281 0.991409
1.00014 1.00325 0.99117
1.00011 1.00335 0.991271
1.00007 1.00263 0.991992
1.00021 1.00214 0.992134
1.00017 1.00342 0.991124
1.00033 1.00323 0.991031
1.00038 1.00275 0.991375
0.999893 1.00299 0.991839
1.00011 1.00343 0.991384
0.999492 1.0033 0.991963
1.00042 1.00318 0.990879
1.00043 1.00289 0.991186
1.00038 1.00281 0.991383
1.00021 1.00277 0.991698
1.00044 1.0029 0.991215
1.00008 1.00289 0.991773
0.999972 1.00266 0.991848
0.999727 1.00382 0.991358
0.999972 1.0028 0.991997
1.00014 1.00255 0.991998
1.00017 1.0018 0.99267
1.00024 1.00262 0.991735
1.00024 1.00189 0.992424
1.00017 1.00055 0.993899
1.0002 1.0022 0.992116
1.00009 1.00066 0.993908
1.00012 0.998289 0.996772
1.00005 1.00072 0.993928
1.00013 0.998289 0.996472
1.00009 0.996791 0.997989
1.00014 0.998272 0.996196
1.00003 0.996777 0.999155
1.00008 0.99677 0.998026
1.0001 1.00133 0.993268
1.00005 0.999837 0.994815
1.0001 0.999765 0.994807
1.00012 0.99771 0.996798
1.00016 0.999733 0.994732
1.00013 0.997707 0.996777
0.999984 0.996522 0.999289
1.00008 0.997802 0.997188
0.999958 0.996702 0.998765
0.999921 0.996928 0.998199
1.00054 0.995199 0.98809
1.00515 0.994971 0.990494
1.00398 0.99608 0.992459
0.996757 0.995004 0.973192
1.00062 0.996437 0.989571
1.00495 0.995879 0.991011
1.00324 0.99711 0.988962
0.996816 0.996906 0.97572
1.00009 0.995658 0.951509
0.999304 0.998331 0.913851
0.994669 0.997485 0.878789
0.99995 1.0022 0.992496
1.00008 1.00121 0.993434
1.00015 1.00105 0.993488
1.00003 1.00216 0.992533
0.999883 1.00305 0.991922
1.00019 1.00264 0.991855
1.00005 1.00253 0.992217
1.00001 1.00225 0.992459
1.00517 0.99495 0.990508
1.00515 0.994894 0.990289
1.00486 0.99561 0.989512
1.0025 1.00157 0.988806
1.00381 0.998158 0.989534
1.00051 1.00422 0.990121
1.00098 1.00426 0.989439
1.00039 1.0048 0.989252
1.0002 1.0019 0.99253
0.999986 1.00413 0.990784
1.00013 1.00217 0.992544
0.999877 1.00232 0.992659
1.00468 0.994963 0.991476
0.999957 1.00326 0.991567
1.0001 1.0032 0.991474
1.00504 0.995493 0.989878
1.00473 0.995981 0.989586
1.00218 0.999505 0.991139
0.999688 1.00482 0.990611
1.00002 1.0047 0.990203
1.00345 0.996196 0.991923
1.00467 0.996194 0.990503
1.00429 0.995313 0.99129
1.00142 1.0002 0.99158
1 1.0042 0.990517
0.999625 1.00436 0.990942
0.999634 1.00515 0.99049
0.999902 0.99484 0.913936
1.00052 0.995013 0.956171
0.999847 1.00477 0.990764
1.00109 1.00336 0.98936
1.00347 0.996068 0.992118
1.0044 0.99812 0.988753
1.00343 1.00128 0.987338
1.0005 0.994999 0.95238
0.99717 0.995612 0.967975
0.996589 1.00259 0.989828
0.999212 0.99726 0.915504
0.994695 0.997496 0.859892
0.999736 1.00371 0.991647
0.999875 0.995829 0.911539
0.995243 0.996886 0.87631
1.00175 1.00044 0.991084
1.00065 1.00305 0.99035
1.00232 1.00058 0.989453
0.997002 1.00326 0.990435
1.00151 0.996995 0.944752
0.994924 0.996011 0.970498
0.998546 0.999421 0.910918
0.994889 0.998426 0.875101
0.999301 1.00339 0.993116
0.995351 0.996721 0.880768
0.995034 0.998297 0.895176
0.999551 1.0019 0.993041
0.999597 1.00326 0.99231
0.996118 1.00276 0.990812
0.99483 0.998908 0.969773
0.998438 0.999196 0.94267
0.995084 0.999868 0.91663
0.994796 0.995346 0.884143
0.99961 1.00332 0.992219
0.999659 1.00225 0.993496
0.998609 1.00308 0.993759
1.00022 1.00212 0.992145
1.00038 1.00271 0.991437
1.00031 1.0032 0.991042
1.00012 1.0035 0.991084
0.999843 1.00301 0.99193
1.00042 1.00291 0.991182
1.00012 1.00334 0.991316
1.00044 1.00315 0.990898
0.999276 1.00359 0.992087
0.99766 1.00444 0.993793
1.00015 1.00349 0.991141
1.00064 1.00331 0.990479
1.00041 1.00279 0.991361
1.00025 1.00272 0.99173
1.00043 1.00293 0.991189
1.0001 1.00289 0.991748
1.00002 1.00262 0.99197
0.999845 1.0034 0.991602
0.999996 1.00312 0.9915
0.999941 1.00269 0.992031
1.00024 1.00286 0.991509
0.999924 1.00499 0.989436
0.999556 1.00419 0.991071
0.999783 1.00379 0.991348
0.999843 1.00318 0.991828
0.999996 1.00281 0.99199
1.00008 1.00187 0.992715
1.00014 1.00259 0.991994
1.00018 1.00179 0.992677
1.00022 1.0004 0.99392
1.00025 1.0019 0.992356
1.00017 1.00054 0.993908
1.00013 0.99827 0.996772
1.00009 1.00066 0.993911
1.00013 0.998262 0.996483
1.00006 0.996763 0.998011
1.00014 0.998264 0.996181
1.00003 0.996797 0.99915
1.00003 0.996784 0.999152
1.00013 1.00149 0.99329
1.00005 0.999943 0.994722
1.00009 1.00134 0.993273
1.00013 0.99771 0.996786
1.00005 0.999831 0.994818
1.0001 0.999761 0.994809
1.00013 0.997699 0.996795
1.00001 0.996466 0.999289
1.00011 0.997685 0.997255
1 0.996537 0.9988
0.999984 0.996702 0.998283
0.999853 0.995997 0.905095
0.994799 0.996803 0.88037
0.997992 0.994851 0.973392
1.00052 0.995731 0.989848
1.005 0.995197 0.990826
0.996412 0.995923 0.976964
1.00343 0.996356 0.989297
1.00121 0.996013 0.950628
0.999807 0.997613 0.904793
0.994681 0.997382 0.868763
0.998711 0.995113 0.980477
1.00001 0.997961 0.9515
0.998302 0.999102 0.909232
0.994772 0.997237 0.877106
1.00002 1.00321 0.991517
0.999953 1.00219 0.992572
1.00012 1.00116 0.993434
1.00003 1.00214 0.992509
0.999862 1.00292 0.992076
1.00013 1.00329 0.991363
1.00013 1.00273 0.991866
1.00022 1.00282 0.991546
1.00009 1.00249 0.99213
0.999953 1.00237 0.992387
1.00467 0.99494 0.99157
1.0051 0.995222 0.989832
1.00428 0.995715 0.989847
1.00204 0.999686 0.990797
1.00041 1.0044 0.990292
0.99992 1.00499 0.990125
1.00008 1.00316 0.991625
0.999893 1.00331 0.991647
1.00347 0.995543 0.992151
0.999952 1.00438 0.990417
0.9996 1.00444 0.990825
1.00486 0.995908 0.990177
1.004 0.99536 0.991478
1.00175 1.00014 0.991162
0.999856 1.00514 0.990372
1.0007 0.997416 0.992599
1.0026 0.995649 0.994564
1.00032 1.00227 0.991367
0.999664 1.00474 0.990243
0.999721 1.00489 0.990167
0.999458 1.00512 0.990596
0.994757 0.996561 0.896136
0.99989 0.994867 0.91698
1.00002 0.994909 0.947262
0.999569 1.00385 0.991658
1.0007 1.00287 0.990404
1.00178 1.00012 0.991148
1.00251 1.00075 0.989909
0.999848 0.995418 0.918133
1.00025 0.99689 0.944923
0.994907 0.995458 0.966733
0.997323 1.00216 0.991001
0.998292 0.999074 0.901204
0.99524 0.99691 0.877992
0.994846 0.998173 0.881036
0.999039 1.00332 0.993121
0.995304 0.995759 0.886837
0.995135 0.998461 0.894747
0.999852 1.0017 0.992978
0.999379 1.00342 0.992311
0.995936 1.00002 0.993735
0.994869 0.998198 0.96873
0.99744 0.999222 0.951701
0.997279 0.999888 0.906511
0.994805 0.995227 0.890071
0.99771 1.00401 0.995225
0.995019 0.996616 0.905775
0.99478 0.994871 0.904433
0.995897 1.00217 0.999294
0.994807 0.999904 0.976381
0.995173 0.999974 0.952279
0.994799 0.999872 0.903962
0.994844 0.994782 0.887742
0.999741 1.00197 0.993444
0.998803 1.00312 0.993942
0.997191 1.00442 0.995136
1.0004 1.00295 0.991177
1.00046 1.00314 0.990916
1.00016 1.0032 0.991248
0.999073 1.00384 0.992216
1.00056 1.00341 0.990459
1.00012 1.00355 0.991107
0.997713 1.00438 0.994201
0.995755 1.00522 0.996602
0.998241 1.00449 0.993547
1.00036 1.00359 0.990705
1.00044 1.00295 0.991161
1.0001 1.0029 0.991722
1.00002 1.00263 0.992091
1.00001 1.00305 0.991587
0.999872 1.00339 0.991609
0.999931 1.00277 0.992067
1.00009 1.00298 0.991752
0.999149 1.00276 0.993156
1.00123 1.00048 0.991767
1.00029 1.00272 0.991621
1.00022 1.0039 0.990267
1.00148 1.0049 0.987357
0.999834 1.00481 0.990565
0.999796 1.00496 0.989842
0.999658 1.00416 0.991138
0.999694 1.00357 0.991505
0.999842 1.00378 0.991339
0.99992 1.00311 0.991827
1.00003 1.00214 0.992555
1.00007 1.00276 0.991983
1.00012 1.00186 0.99271
1.00024 1.00039 0.993919
1.0002 1.00177 0.992683
1.00023 1.00042 0.993925
1.00013 0.998247 0.996787
1.00017 1.00053 0.993916
1.00014 0.998248 0.996487
1.00002 0.996845 0.998006
1.00015 0.998236 0.996191
1.00004 0.996786 0.99858
1.00003 0.996791 0.999153
1.00015 1.00184 0.992717
1.00009 1.00005 0.99456
1.00009 1.00153 0.99312
1.00014 0.997756 0.996727
1.00005 0.999932 0.994724
1.00006 1.00139 0.993276
1.00003 0.996445 0.999286
1.00013 0.997706 0.996787
1.00006 0.999813 0.994821
1.00013 0.997688 0.996793
1.00001 0.996479 0.99929
0.999983 0.996527 0.999287
0.994701 0.994887 0.888182
0.999875 0.995644 0.910648
0.995002 0.998526 0.895044
0.994953 0.996889 0.877731
0.996402 0.99542 0.974324
1.00349 0.996281 0.989663
1.00027 0.99651 0.94913
0.999804 0.997346 0.914595
0.994699 0.997485 0.858581
0.998515 0.995611 0.979546
1.00128 0.997721 0.941459
0.99847 0.999401 0.909999
0.994814 0.997825 0.871869
0.995657 0.996196 0.97501
0.997809 0.998933 0.94346
0.995718 0.999878 0.901835
0.994852 0.995014 0.878624
1.00002 1.00404 0.990821
0.999984 1.00317 0.991635
0.999926 1.00224 0.992645
0.99984 1.00281 0.99223
1.00036 1.00351 0.990589
1.00012 1.00315 0.991466
1.00003 1.00281 0.991876
1.00036 1.00289 0.991377
1.00024 1.00283 0.991634
1.00011 1.00245 0.992041
1.0036 0.995243 0.992363
1.00487 0.99545 0.989859
1.00408 0.995239 0.99166
1.00193 0.999925 0.990757
1.00001 1.0051 0.990255
0.999691 1.00456 0.99071
0.999868 1.00457 0.990318
0.999918 1.00479 0.990131
1.0009 0.997238 0.992918
0.999867 1.00491 0.990114
0.999715 1.00512 0.990567
1.00281 0.995591 0.994118
1.00075 1.00214 0.99121
0.998583 0.996962 0.994178
0.998472 0.998096 1.00003
0.998743 1.00429 0.991945
0.999947 1.00493 0.989881
0.999411 1.00506 0.990661
0.99482 0.996415 0.911155
0.99475 0.996592 0.89394
0.999874 0.99485 0.907953
0.998789 1.00326 0.993127
0.999203 1.00345 0.992294
1.0002 1.00152 0.992934
0.995267 0.994885 0.887617
0.997691 0.998926 0.94378
0.994871 0.997418 0.969014
0.996067 0.998709 0.99688
0.995643 0.999889 0.916777
0.995399 0.998672 0.894347
0.994856 0.99507 0.89035
0.997611 1.00388 0.995431
0.995117 0.995764 0.908666
0.994758 0.995114 0.90449
0.996138 1.00237 0.998369
0.994834 0.999636 0.977834
0.996138 0.999938 0.943876
0.994835 0.994824 0.888248
0.994848 0.999954 0.910751
0.995656 1.00507 0.997959
0.994685 0.99473 0.923507
0.99475 0.994801 0.907783
0.994841 0.995309 0.878947
0.995055 1.00048 0.99342
0.995025 0.999838 0.955485
0.994943 0.999991 0.909695
0.999077 1.00314 0.994121
0.99766 1.00457 0.994369
0.99548 1.00514 0.99808
1.00054 1.00343 0.990439
1.00006 1.00359 0.991072
0.997709 1.00435 0.994597
1.00025 1.00355 0.990766
0.998256 1.00436 0.993583
0.995919 1.0049 0.996836
0.99551 1.0051 0.997996
0.998405 1.00372 0.993513
1.00002 1.003 0.991675
0.999893 1.00338 0.991615
0.999949 1.00282 0.992104
0.999325 1.00298 0.993014
1.00004 1.0029 0.991739
0.999888 1.00224 0.992773
1.00053 1.00098 0.992651
1.00118 1.00233 0.989856
1.00037 1.00255 0.991735
1.00062 1.00381 0.990025
1.00203 1.0036 0.987142
1.002 1.00418 0.986909
1.00018 1.00495 0.989615
1.0012 1.00486 0.987458
0.999878 1.00419 0.990868
0.999752 1.0049 0.990492
0.999657 1.00495 0.990247
0.999763 1.00412 0.991206
0.999752 1.00347 0.9916
0.999996 1.00244 0.992306
0.999986 1.00303 0.991827
1.00007 1.00211 0.992558
1.00021 1.00055 0.993818
1.00015 1.00185 0.992705
1.00025 1.00039 0.993916
1.0001 0.998253 0.996813
1.00024 1.00041 0.99393
1.00014 0.998226 0.996506
0.999973 0.996924 0.998027
1.00016 0.998199 0.996201
1 0.996853 0.998579
1 0.996825 0.999156
1.00026 1.00204 0.99214
1.00013 1.00032 0.994007
1.00016 1.00183 0.992716
1.00015 0.997853 0.9966
1.00009 1.00006 0.994425
1.00009 1.00153 0.992951
1.00003 0.996491 0.999269
1.00013 0.997751 0.996732
1.00005 0.999919 0.994726
1.00003 0.996453 0.999287
1.00013 0.997702 0.996787
1.00001 0.996481 0.999291
0.994784 0.994842 0.907712
0.994712 0.995662 0.893054
0.999861 0.995988 0.911704
1.00047 1.00303 0.99096
0.99482 0.996306 0.909195
0.995044 0.99778 0.894778
0.995039 0.99671 0.881918
0.998613 0.996067 0.9782
0.999541 0.998324 0.951054
0.998273 0.998823 0.899709
0.99482 0.998352 0.875025
0.996515 0.995937 0.97104
0.997473 0.998852 0.95151
0.997134 0.999901 0.905735
0.994817 0.995848 0.880703
0.994868 0.997089 0.967224
0.995368 0.999954 0.950871
0.994895 0.999972 0.910892
0.994858 0.994812 0.887582
1.00019 1.00432 0.990079
1.00001 1.00407 0.990702
0.999989 1.00312 0.991754
1.0003 1.00369 0.990556
1.0003 1.00358 0.99073
1.00013 1.00309 0.991569
1.0004 1.00285 0.991412
1.00024 1.00282 0.991722
1.00085 0.996922 0.993195
1.00299 0.995648 0.99364
1.00002 1.00473 0.990018
1.00142 1.00202 0.991039
0.999986 1.00513 0.990536
0.99995 1.00493 0.990061
0.999925 1.00494 0.989936
0.998043 0.997437 0.994755
0.999629 1.00504 0.990666
0.99943 1.00398 0.992005
0.998558 0.997658 1.00003
0.999952 1.00493 0.989937
0.996527 0.998344 0.994735
0.995909 0.999992 1.0025
0.998485 1.0053 0.992032
0.999743 1.00494 0.990663
0.994657 0.994822 0.928329
0.994804 0.996594 0.911303
0.994746 0.996684 0.891739
0.997459 1.00392 0.995666
0.99608 1.00221 0.997424
0.995142 0.994826 0.911494
0.995255 0.99999 0.952592
0.994846 0.999028 0.974822
0.994867 0.999945 0.91007
0.994684 0.995403 0.904535
0.994839 0.994862 0.888744
0.995965 1.00493 0.997603
0.994653 0.994731 0.923376
0.994748 0.99481 0.911769
0.994905 1.00127 0.996751
0.994811 0.996084 0.880896
0.994907 0.999243 0.950352
0.994989 0.999996 0.914369
0.995086 1.00432 0.998772
0.994684 0.994722 0.927745
0.994806 0.996562 0.909335
0.994757 0.997643 0.877281
0.995922 0.99997 0.910213
0.994904 0.999119 0.984403
0.995219 1.00068 0.942888
0.998161 1.00468 0.9936
0.99566 1.00511 0.997701
0.994951 1.00508 0.999902
1.00013 1.00352 0.990828
0.998249 1.00429 0.993619
0.996125 1.00426 0.99707
0.998592 1.00384 0.993413
0.995672 1.00428 0.997948
0.997651 1.00344 0.996044
0.999535 1.00312 0.99287
0.999917 1.00289 0.991727
0.999971 1.00233 0.992921
0.999634 1.0038 0.991022
0.99978 1.00144 0.993524
1.00099 1.0022 0.990299
1.00226 1.00296 0.987643
1.00414 1.00215 0.985093
1.00102 1.00371 0.98978
1.00245 1.00375 0.986402
1.00292 1.00327 0.986952
1.00071 1.00461 0.988445
1.00197 1.0041 0.987117
0.999841 1.00473 0.990183
1.00021 1.00498 0.989572
1.00092 1.00481 0.987561
0.999986 1.00294 0.991809
0.999827 1.00417 0.990901
0.999674 1.00498 0.990419
0.999813 1.00338 0.991695
1.00004 1.00241 0.992303
1.00017 1.00084 0.993592
1.0001 1.00208 0.99256
1.00021 1.00056 0.993814
1.00005 0.998382 0.996239
1.00026 1.00041 0.993913
1.00012 0.998246 0.996251
0.999849 0.997001 0.999172
1.00015 0.998203 0.99622
0.999952 0.996931 0.998588
0.999968 0.996885 0.999156
1.00028 1.00227 0.99183
1.00021 1.00061 0.993577
1.00024 1.00207 0.992231
1.00016 0.998013 0.996423
1.00015 1.00033 0.993955
1.00016 1.00185 0.992714
1.00003 0.996578 0.999237
1.00015 0.997846 0.99661
1.00009 1.00008 0.99429
1.00004 0.996473 0.999274
1.00013 0.997744 0.996737
1.00003 0.996462 0.999288
0.99468 0.99473 0.924126
0.994788 0.995602 0.907536
0.994714 0.996383 0.893288
1.00041 1.00305 0.991042
1.0004 1.00313 0.99085
1.00045 1.00348 0.990653
0.994717 0.994767 0.907412
0.994742 0.995759 0.909232
0.99519 0.99725 0.894505
0.996282 0.995283 0.973462
0.998431 0.999374 0.942261
0.995245 0.999913 0.91641
0.994822 0.996636 0.877147
0.994906 0.996988 0.970357
0.996187 0.999972 0.947845
0.994825 0.999961 0.911083
0.994844 0.994829 0.887971
0.994872 0.997353 0.966218
0.995078 0.999955 0.952332
0.994943 0.999998 0.910125
0.994828 0.99552 0.883942
1.00034 1.0042 0.989957
1.00019 1.00433 0.990029
1.00009 1.00405 0.990583
1.00038 1.00356 0.990532
1.00021 1.00361 0.990872
1.00042 1.00284 0.991448
0.99754 0.997895 0.995323
0.998266 0.997479 1.00006
0.999972 1.00487 0.989991
1.00005 1.00323 0.99207
0.999743 1.00501 0.990671
1 1.00486 0.989838
0.999399 1.00493 0.990764
0.99617 0.99808 0.995058
0.998506 1.00493 0.992698
0.995843 1.0007 1.00171
0.999719 1.0045 0.990782
0.99521 0.997754 0.995088
0.996319 1.0022 0.998323
0.99851 1.00523 0.992883
0.994688 0.994751 0.933186
0.994676 0.994807 0.929656
0.994798 0.996723 0.911437
0.996268 1.00472 0.997229
0.995016 1.00122 0.993885
0.994701 0.994734 0.923246
0.994853 0.999201 0.952895
0.994933 0.999972 0.904862
0.994757 0.994708 0.915752
0.994812 0.996812 0.877423
0.995198 1.00403 0.999187
0.994714 0.994749 0.929329
0.994737 0.995973 0.909384
0.994943 0.99937 0.980682
0.994794 0.99815 0.872155
0.994819 0.999961 0.910325
0.994976 1.00047 0.952502
0.99503 1.00457 0.996254
0.994682 0.994729 0.924507
0.995027 0.998835 0.895252
0.994652 0.997627 0.879403
0.996033 0.999226 0.90174
0.995942 0.999968 0.950966
0.995162 1.0003 0.974479
0.995967 1.00514 0.997343
0.995181 1.00392 0.999819
0.996491 1.00352 0.998534
0.998723 1.00403 0.993315
0.99581 1.00378 0.997904
0.996721 1.00391 0.996556
0.999717 1.00265 0.993232
1.00007 1.00251 0.993068
1.00071 1.00351 0.990613
1.00155 1.0045 0.987509
1.00079 1.00212 0.990756
1.00254 1.00312 0.98715
1.00395 1.00377 0.984016
1.005 1.00162 0.984103
1.00372 1.00213 0.985633
1.00415 1.00236 0.984884
1.00287 1.00391 0.985662
1.00242 1.00339 0.987609
1.00262 1.00309 0.987267
1.00023 1.00483 0.989048
1.00085 1.00459 0.988605
1.00196 1.00403 0.987327
0.999908 1.00411 0.990729
0.999984 1.00468 0.990196
1.00023 1.00501 0.989528
1.00014 1.00124 0.993231
1.00005 1.0029 0.991797
0.999781 1.00414 0.990935
1.00008 1.00238 0.9923
1.00018 1.00084 0.993588
0.999965 0.99861 0.996156
1.00022 1.00056 0.99381
1.00006 0.998381 0.996233
0.999784 0.997163 0.999163
1.00012 0.998236 0.996247
0.999881 0.997031 0.998601
0.999915 0.996973 0.99916
1.00034 1.00248 0.991706
1.00028 1.00084 0.99341
1.00032 1.00226 0.991887
1.00017 0.9982 0.996211
1.00021 1.0006 0.993659
1.00026 1.00207 0.992322
1.00001 0.996715 0.999197
1.00016 0.997994 0.996436
1.00016 1.00032 0.993903
1.00003 0.996561 0.999247
1.00014 0.997842 0.99662
1.00004 0.996468 0.99928
0.99469 0.99473 0.927433
0.994684 0.994752 0.923994
0.994795 0.996417 0.907467
1.00029 1.00338 0.99078
1.00036 1.00365 0.990575
1.00036 1.00308 0.991125
1.00037 1.00321 0.990839
1.00034 1.00357 0.990616
1.00028 1.00368 0.990582
1.00042 1.00368 0.990342
0.994752 0.994869 0.903921
0.994738 0.994756 0.911453
0.99466 0.995268 0.909282
0.9948 0.994833 0.888374
0.994884 0.996835 0.967665
0.995216 0.999962 0.945401
0.994859 0.999908 0.916971
0.994863 0.997765 0.965496
0.994903 0.999966 0.944489
0.994961 0.999999 0.915112
0.994795 0.995265 0.889918
0.995288 0.996446 0.969512
0.99492 1.0003 0.944195
0.994783 0.999875 0.904624
0.994793 0.99868 0.876633
0.999707 1.00485 0.990472
1.00026 1.00428 0.989981
1.00022 1.00446 0.989978
1.00049 1.00344 0.990509
0.996013 0.997836 0.995447
0.995786 1.00168 1.00091
1 1.00494 0.989739
0.999356 1.00499 0.990867
0.998835 1.00492 0.993361
0.999668 1.00466 0.990734
0.998248 1.00523 0.992885
0.995101 0.999027 0.992314
0.99572 1.0034 0.998674
0.997831 1.00503 0.993496
0.995148 0.998585 0.990825
0.997422 1.00425 0.997111
0.994663 0.994819 0.92842
0.994668 0.99471 0.936085
0.994672 0.994787 0.930979
0.995051 1.00372 0.999558
0.99493 0.998135 0.985097
0.994699 0.994763 0.930942
0.996239 1.00064 0.943498
0.99485 0.999911 0.91608
0.994668 0.995547 0.909441
0.994804 0.998606 0.875357
0.99498 1.00309 0.996922
0.99469 0.99475 0.92439
0.99512 0.998094 0.894972
0.994913 1.00061 0.975553
0.994674 0.997511 0.869588
0.997197 0.999893 0.905372
0.994898 0.999966 0.943826
0.995475 1.00466 0.990876
0.994812 0.994859 0.90835
0.994886 0.996889 0.880958
0.998688 0.998187 0.909953
0.995281 0.999959 0.950908
0.994888 1.00002 0.968401
0.995381 1.00302 0.999949
0.995774 1.00409 0.998483
0.99759 1.00153 0.996998
0.995872 1.00433 0.997069
0.998499 1.00292 0.993793
1.00293 1.00052 0.989902
1.00181 1.00312 0.990202
1.00194 1.00439 0.987396
1.00289 1.00431 0.984704
1.00286 1.00328 0.986657
1.0043 1.00376 0.983538
1.00445 1.00395 0.982752
1.00501 1.0011 0.984634
1.0051 1.00143 0.984354
1.00493 1.00178 0.984051
1.00335 1.00214 0.986172
1.00378 1.00208 0.985853
1.00413 1.0026 0.984676
1.00181 1.00423 0.987541
1.00228 1.00335 0.987577
1.00231 1.00291 0.987578
1.00015 1.00495 0.989407
1.00027 1.00485 0.989254
1.00101 1.00456 0.988767
1.00005 1.0021 0.992493
1.00005 1.00394 0.990742
1.00011 1.00465 0.990209
0.999875 0.998854 0.99605
1.00016 1.00125 0.993215
1.00012 1.00285 0.991786
1.00019 1.00084 0.993584
0.999964 0.998625 0.996146
0.999692 0.997373 0.999147
1.00006 0.998375 0.996227
0.999775 0.997201 0.999159
0.999847 0.997062 0.999165
1.00031 1.00344 0.990781
1.00042 1.00266 0.991435
1.00033 1.00114 0.993033
1.00035 1.00249 0.991694
1.00015 0.998451 0.995981
1.00028 1.00085 0.99341
1.00028 1.00232 0.991944
0.999981 0.996878 0.999148
1.00016 0.998197 0.996225
1.00021 1.0006 0.993741
1.00001 0.996681 0.999209
1.00016 0.997982 0.99645
1.00003 0.996532 0.999257
0.994694 0.994731 0.923178
0.994705 0.994749 0.929044
0.994686 0.994787 0.923844
1.00037 1.00333 0.990807
1.00026 1.00372 0.990562
1.00014 1.00379 0.99054
1.00016 1.0038 0.990507
1.00033 1.0041 0.990306
1.00036 1.00327 0.990826
1.00027 1.00367 0.99058
1.00033 1.00364 0.99058
1.00037 1.00382 0.990419
1.00012 1.00422 0.990523
0.995095 0.998332 0.894253
0.994771 0.995248 0.904014
0.994799 0.994742 0.91548
0.994829 0.995172 0.890191
0.994942 0.999977 0.905236
0.994872 0.998604 0.964067
0.994908 1.00002 0.952104
0.99489 0.99683 0.966321
0.994964 0.999958 0.95259
0.994846 0.999964 0.911875
0.994932 0.99844 0.874281
0.995017 0.994968 0.971188
0.994936 1.00003 0.952823
0.995626 0.999883 0.915594
0.994742 0.997509 0.878039
0.998786 1.00377 0.992782
0.999805 1.00486 0.990417
1.00025 1.00429 0.990005
0.994914 0.999951 0.989427
0.995427 1.0041 0.999012
0.999665 1.00465 0.990684
0.997645 1.00522 0.992887
0.998007 1.00475 0.993518
0.996626 1.00381 0.997139
0.994929 0.998849 0.990982
0.996193 1.0022 0.998236
0.996009 1 0.991284
0.995006 0.996105 0.910702
0.994678 0.994816 0.929725
0.994674 0.994672 0.938989
0.995015 1.00148 0.997251
0.994883 1.00108 0.971907
0.994693 0.994793 0.924252
0.996263 0.999981 0.949723
0.995164 0.9999 0.915994
0.995318 0.997445 0.894701
0.994701 0.997593 0.859615
0.995306 1.00496 0.991325
0.994793 0.995386 0.908196
0.995044 0.996929 0.878325
0.994896 1.00001 0.969414
0.998505 0.999299 0.910589
0.996093 0.999955 0.946662
0.995197 1.00371 0.988291
0.994718 0.994865 0.889
0.999519 0.997953 0.914844
0.99774 0.998757 0.943288
0.994871 0.997325 0.97116
0.995253 1.00483 0.998418
0.997647 1.00187 0.99689
1.00238 1.00056 0.991829
0.997361 1.00321 0.994273
1.00189 1.00078 0.990215
1.00396 0.999334 0.988145
1.00228 1.00425 0.987281
1.00299 1.00412 0.984783
1.00442 1.00161 0.984873
1.00463 1.00375 0.983061
1.00446 1.00359 0.982833
1.00487 1.00084 0.985008
1.00514 0.999333 0.986057
1.00513 1.00093 0.984553
1.00496 1.00102 0.984713
1.00491 1.00157 0.984565
1.00506 1.00145 0.984315
1.00487 1.00193 0.983999
1.00293 1.00323 0.98639
1.00333 1.00216 0.986388
1.00383 1.00208 0.986074
1.00112 1.0044 0.98831
1.00161 1.00422 0.987677
1.00214 1.00333 0.987544
0.999953 1.0036 0.991114
1.00029 1.00484 0.989424
1.00033 1.00488 0.989458
0.999782 0.999299 0.996358
1.0001 1.0021 0.992457
1.0002 1.00378 0.990757
0.999615 0.997623 0.997935
0.999872 0.998924 0.996308
1.00018 1.00125 0.993198
0.999961 0.998646 0.996136
0.999687 0.997421 0.999139
0.999766 0.997234 0.999155
1.00022 1.00378 0.99057
1.00042 1.00293 0.991174
1.00025 1.00353 0.99075
1.00035 1.00143 0.992713
1.00036 1.00274 0.991427
1.00012 0.998733 0.995755
1.00032 1.00114 0.993035
1.00039 1.00246 0.991681
0.999943 0.997088 0.999095
1.00015 0.998435 0.995995
1.00027 1.00086 0.99341
0.999984 0.996855 0.999163
1.00016 0.998189 0.99624
1.00002 0.996656 0.999221
0.995505 0.99484 0.911872
0.994664 0.994726 0.923065
0.994682 0.994757 0.930673
1.00052 1.00315 0.990683
1.00036 1.00337 0.990834
1.00017 1.0038 0.990547
1.00025 1.00383 0.990525
1.00031 1.00371 0.990582
1.00026 1.00396 0.990452
1.0004 1.00427 0.989853
0.999864 1.00451 0.990146
1.0004 1.00354 0.990579
1.00012 1.00396 0.990495
0.99999 1.00426 0.990491
0.999465 1.00457 0.991779
0.995303 0.997071 0.880296
0.995449 0.998449 0.893817
0.994721 0.995472 0.904092
0.99513 0.998136 0.880303
0.994853 0.999947 0.911662
0.994943 1.00027 0.944212
0.995333 0.996963 0.964363
0.995016 0.995077 0.972809
0.994713 0.997587 0.868504
0.994903 0.999923 0.948252
0.997148 0.999887 0.905668
0.994875 0.996269 0.97339
0.995462 0.999973 0.952864
0.999284 0.998279 0.906681
0.99902 1.00191 0.994892
0.998968 1.00385 0.992731
0.999717 1.00484 0.990361
0.994824 0.999262 0.991213
0.995946 1.00335 0.997161
0.998059 1.00455 0.993538
0.997435 1.00202 0.998054
0.995517 0.999887 0.991386
0.997006 0.999156 0.99389
0.994758 0.997865 0.89007
0.994919 0.995569 0.91452
0.994675 0.994798 0.931028
0.994965 1.0051 0.991633
0.994865 0.999995 0.969621
0.994786 0.996055 0.908129
0.99518 0.999994 0.944703
0.998563 0.998004 0.900609
0.995125 0.996826 0.882704
0.995619 1.00396 0.988255
0.994725 0.995485 0.893859
0.99982 0.996836 0.906054
0.994912 0.997541 0.967218
0.997475 0.998881 0.951225
0.997351 1.00087 0.991849
0.999839 0.995771 0.905886
1.00003 0.998022 0.951287
0.994868 0.996005 0.966781
0.997743 1.00211 0.99689
1.00172 0.999605 0.99226
1.00361 0.999832 0.989394
1.0008 1.00108 0.990533
1.0034 0.999889 0.988126
1.00458 0.998301 0.987811
1.00308 1.00395 0.98486
1.00428 1.00161 0.98484
1.00501 0.998133 0.987116
1.00446 1.00325 0.982911
1.00483 1.00065 0.985049
1.00508 0.997647 0.987709
1.00515 0.997658 0.98772
1.00518 0.999689 0.985653
1.00513 0.999205 0.986169
1.00512 1.00092 0.98461
1.00509 1.0009 0.984639
1.00491 1.00095 0.984792
1.00437 1.00166 0.985327
1.00473 1.00153 0.984709
1.005 1.0014 0.984275
1.00234 1.00358 0.987106
1.00299 1.00315 0.986381
1.00332 1.00214 0.986603
1.00046 1.00422 0.989686
1.00119 1.00442 0.988295
1.00141 1.00419 0.987813
0.999702 1.0001 0.995036
1.00011 1.00345 0.991109
1.00046 1.00472 0.98944
0.999523 0.997857 0.999095
0.999763 0.999397 0.995722
1.00016 1.00209 0.992421
0.999616 0.997625 0.999115
0.99985 0.998978 0.996001
0.999684 0.997474 0.999131
1.00061 1.00342 0.990378
1.00027 1.00376 0.990541
1.00041 1.00326 0.990852
1.00032 1.00174 0.99245
1.00037 1.00298 0.99117
1.00025 1.00354 0.990718
1.00008 0.999004 0.995554
1.00034 1.00144 0.992715
1.00033 1.00279 0.991419
0.999897 0.997307 0.99904
1.00012 0.998707 0.995768
1.00032 1.00115 0.993036
0.999946 0.997046 0.999111
1.00015 0.998423 0.99601
0.999987 0.99681 0.999178
0.995364 0.996337 0.881209
0.995323 0.994839 0.911742
0.994699 0.994721 0.922954
1.00035 1.00339 0.990651
1.00114 1.0029 0.99047
1.00039 1.00368 0.990349
1.00029 1.00389 0.990544
1.00048 1.00362 0.990623
1.00008 1.0039 0.990598
1.00006 1.00445 0.990126
1.00032 1.00427 0.989918
1.00027 1.00473 0.989582
0.999848 1.00106 0.993567
1.00015 1.00414 0.990459
0.999535 1.0043 0.9915
0.999809 0.99739 0.901732
0.995209 0.997191 0.875195
0.995676 0.998638 0.89343
0.994694 0.997743 0.858763
0.996774 0.998918 0.915524
0.99488 0.999986 0.946613
0.995043 0.994991 0.970535
0.99495 0.99635 0.971997
0.998501 0.999402 0.909373
0.996136 0.999971 0.945064
0.994896 0.997734 0.973025
0.998727 0.998873 0.943322
1.00204 0.998124 0.993588
0.999102 1.00189 0.994688
0.99915 1.00399 0.992694
0.995023 0.999958 0.991447
0.998472 1.00186 0.99786
0.997641 0.99929 0.99331
0.999405 0.998799 0.990387
0.999902 0.994841 0.913656
0.994861 0.997001 0.890639
0.994791 0.994876 0.918251
0.995923 1.00426 0.988375
0.994888 0.997554 0.965199
0.994722 0.99595 0.894055
0.998801 0.99862 0.942234
0.999815 0.997388 0.915706
0.997154 1.00013 0.989782
0.999874 0.995444 0.911513
1.00139 0.997447 0.941675
0.994899 0.99591 0.970292
0.998723 0.996548 0.992105
1.00004 0.996061 0.951724
0.996389 0.995997 0.972615
1.00117 0.998426 0.992642
1.00342 0.998818 0.98935
1.00489 0.997476 0.989229
1.0028 1.00037 0.988112
1.00432 0.998477 0.987813
1.00483 0.996744 0.988828
1.00419 1.00163 0.984809
1.0049 0.998393 0.987041
1.00509 0.995928 0.989223
1.0048 1.00048 0.98509
1.00507 0.997635 0.987707
1.00512 0.996056 0.989334
1.00512 0.99672 0.988924
1.00515 0.997483 0.987926
1.00516 0.998402 0.987149
1.00516 1.00009 0.9855
1.00518 0.99974 0.985685
1.00512 0.99908 0.986282
1.00509 1.00073 0.984961
1.00511 1.00093 0.984626
1.00507 1.00085 0.984725
1.0036 1.00245 0.986031
1.00433 1.00176 0.985316
1.00456 1.00157 0.984853
1.00129 1.00373 0.988716
1.0024 1.00355 0.987088
1.00306 1.0031 0.986371
0.99986 1.00096 0.993885
1.00058 1.00404 0.989695
1.00132 1.00439 0.988281
0.999559 0.998157 0.998954
0.99972 1.0002 0.994984
1.00025 1.00332 0.991106
0.99956 0.997884 0.998458
0.999748 0.999491 0.995693
0.999626 0.997682 0.999101
1.00082 1.00293 0.99049
1.0004 1.00355 0.990436
1.00036 1.00359 0.990513
1.00036 1.00373 0.990512
1.00034 1.00333 0.990851
1.00028 1.0021 0.99216
1.00002 0.999277 0.995397
1.00032 1.00173 0.992454
1.00029 1.00306 0.991167
0.999843 0.997516 0.998989
1.00008 0.998986 0.995564
1.00033 1.00145 0.992716
0.9999 0.997266 0.999057
1.00013 0.998686 0.995781
0.99995 0.997015 0.999127
0.999838 0.995215 0.912452
0.995406 0.996429 0.883529
0.995219 0.994837 0.911601
1.0002 1.00361 0.990618
1.00032 1.00399 0.990111
1.00083 1.00291 0.990735
1.00208 1.00334 0.988146
1.00045 1.00405 0.990124
1.0002 1.00444 0.990107
1.00031 1.00422 0.989983
1.00012 1.00459 0.989862
1.00062 1.00346 0.989095
1.00095 1.00003 0.993072
1.00421 0.997884 0.98933
0.999941 1.00092 0.993722
0.999818 1.00378 0.991218
0.998991 0.997593 0.951026
0.999781 0.99785 0.905917
0.995224 0.996921 0.876881
0.999148 0.999633 0.898771
0.995808 0.999953 0.950318
0.994882 0.996278 0.973376
0.99487 0.997742 0.974955
0.997427 0.998671 0.952967
0.995933 0.998071 0.97416
1.00296 0.996118 0.993267
1.00136 0.998754 0.993698
0.999204 1.00196 0.994475
0.998409 0.999197 0.992804
1.00028 0.998945 0.989248
1 0.994893 0.947235
0.999888 0.99487 0.91713
0.994982 0.996312 0.891311
0.996811 0.999743 0.987645
0.99495 0.995723 0.967057
0.999858 0.995774 0.912486
1.00019 0.998229 0.950585
0.997999 0.997767 0.992464
1.00129 0.9961 0.95043
0.996664 0.995345 0.96946
1.00141 0.996259 0.991004
0.999203 0.995805 0.978144
1.00326 0.997965 0.989362
1.00481 0.996696 0.989175
1.00496 0.995926 0.990166
1.00408 0.998666 0.987814
1.00472 0.996856 0.988759
1.00514 0.99523 0.989953
1.00478 0.998631 0.986967
1.00509 0.996012 0.98919
1.00507 0.995033 0.990282
1.00507 0.997628 0.987704
1.00512 0.996062 0.989293
1.00513 0.995721 0.989888
1.00512 0.996485 0.989073
1.00513 0.997383 0.988275
1.00516 0.997305 0.988134
1.00517 0.998416 0.987124
1.0052 0.999199 0.98634
1.00514 1.00031 0.985335
1.00516 1.00012 0.985475
1.00518 0.999791 0.985717
1.00458 1.00094 0.985701
1.00503 1.0008 0.984953
1.00511 1.00094 0.984643
1.0022 1.00291 0.987925
1.00359 1.00244 0.986029
1.00431 1.00186 0.985305
1.00021 1.00142 0.992797
1.00135 1.00366 0.988701
1.00237 1.0036 0.98707
0.999662 0.998662 0.998683
0.99992 1.00097 0.993858
1.00073 1.00386 0.989704
0.999617 0.998261 0.998872
0.999748 1.0003 0.99493
0.999615 0.997919 0.999015
1.00197 1.00348 0.987871
1.00087 1.00281 0.990471
1.00046 1.00359 0.990197
1.00021 1.00362 0.990494
1.0003 1.00365 0.99048
1.00028 1.00252 0.991725
1.00028 1.00337 0.99085
1.00027 1.00209 0.992168
0.999935 0.999577 0.995248
0.999777 0.99773 0.998948
1.00002 0.999253 0.995405
1.00031 1.00172 0.992459
0.999846 0.997493 0.999005
1.00007 0.998974 0.995573
0.999904 0.997223 0.999073
1.00024 0.995263 0.954631
0.99985 0.995341 0.911562
0.995336 0.996867 0.880352
1.00026 1.00437 0.989873
1.00057 1.00285 0.991
1.00059 1.00393 0.990124
1.00192 1.00333 0.988261
1.00369 1.0026 0.985783
1.00091 1.00352 0.989162
0.999955 1.00453 0.99014
1.00131 1.00351 0.988408
1.00068 1.00035 0.993084
1.00266 1.00026 0.989065
1.00458 0.996766 0.99054
1.00432 0.99674 0.990141
1.00373 0.997703 0.990026
0.999649 1.00116 0.993881
0.996003 0.99625 0.973664
1.00018 0.997188 0.948603
0.998273 0.997725 0.91534
0.997981 0.999363 0.94324
0.994863 0.998097 0.975909
0.996048 0.99805 0.978714
0.999882 0.998107 0.992225
1.00321 0.995821 0.993234
1.00098 0.999248 0.993809
1.00187 0.999132 0.988059
0.996648 0.997485 0.974309
1.00033 0.99514 0.956188
0.999873 0.994847 0.907955
0.997335 0.998808 0.992695
0.99674 0.994864 0.971634
1.00024 0.99664 0.948874
1.00104 0.996398 0.991126
0.998669 0.995726 0.977421
1.00374 0.99574 0.991134
1.00296 0.998088 0.987893
1.00471 0.995973 0.989093
1.00487 0.995741 0.990159
1.00515 0.994879 0.990537
1.00463 0.996979 0.98869
1.00514 0.995195 0.989908
1.00508 0.994957 0.990498
1.00509 0.996084 0.989155
1.00507 0.995159 0.990251
1.00513 0.995227 0.990334
1.00512 0.996072 0.989253
1.00513 0.99569 0.989794
1.00513 0.996449 0.98906
1.00513 0.996261 0.989221
1.00513 0.997238 0.988434
1.00519 0.998552 0.98707
1.00517 0.998432 0.9871
1.00519 0.999262 0.986312
1.0052 0.99978 0.985907
1.00484 1.00026 0.985746
1.00514 1.00035 0.985333
1.00516 1.00015 0.985451
1.00324 1.00153 0.987519
1.00455 1.001 0.985705
1.00496 1.00087 0.984944
1.00054 1.00169 0.991932
1.00221 1.00293 0.987928
1.00357 1.00243 0.986027
0.99983 0.999193 0.998336
1.00029 1.00138 0.992787
1.00144 1.0036 0.988685
0.999751 0.998779 0.998554
0.99997 1.001 0.99383
0.999691 0.998348 0.998767
1.00333 1.00299 0.985923
1.00206 1.00354 0.987888
1.00127 1.00383 0.988609
1.00085 1.00277 0.990453
1.00054 1.00356 0.990099
1.00047 1.00286 0.991097
1.00024 1.00372 0.990447
1.00026 1.00254 0.991729
0.999858 0.999955 0.995009
1.00026 1.00208 0.992175
0.999938 0.999536 0.99526
0.999709 0.997954 0.998906
0.999782 0.997703 0.998961
1.00002 0.99923 0.995413
0.999847 0.997453 0.99902
0.996695 0.995099 0.9753
1.00049 0.995386 0.946037
0.999832 0.99519 0.918091
1.00496 1.0011 0.984793
1.00073 1.00379 0.990123
1.00177 1.00333 0.988379
1.00125 1.00351 0.988903
1.00359 1.00262 0.985796
1.00303 1.00092 0.987907
1.00198 1.00357 0.987725
1.0004 1.00061 0.993103
1.0031 1.0001 0.989016
1.00453 0.996479 0.990285
1.00482 0.996882 0.988681
1.00421 0.995752 0.99153
1.00422 0.996404 0.990012
1.00319 0.997443 0.990723
1.00003 0.997171 0.99297
0.995906 0.996106 0.97199
0.999692 0.996627 0.946818
0.995952 0.997476 0.976967
1.00011 0.997103 0.994295
1.00289 0.995515 0.993187
1.00085 0.997249 0.987597
0.996484 0.996206 0.975958
1.00002 0.99491 0.947304
1.00041 0.996878 0.991303
0.998535 0.99612 0.976228
1.00341 0.995518 0.991439
1.0029 0.997649 0.98827
1.00455 0.994929 0.991226
1.00448 0.997443 0.990724
1.00478 0.995546 0.990155
1.00515 0.994879 0.990413
1.00515 0.994887 0.99041
1.00514 0.995168 0.989863
1.00507 0.994956 0.990487
1.00514 0.995046 0.990417
1.00507 0.995279 0.990219
1.00512 0.995203 0.99029
1.00513 0.995961 0.98955
1.00513 0.995652 0.989701
1.00513 0.996464 0.989056
1.00519 0.997764 0.987777
1.00514 0.99709 0.988594
1.00519 0.998424 0.987234
1.00522 0.999431 0.986156
1.00519 0.999323 0.986283
1.00519 0.999791 0.985858
1.00493 1.00008 0.985948
1.00375 1.00055 0.987566
1.00484 1.00033 0.985781
1.00513 1.00039 0.985331
1.00106 1.00135 0.99142
1.00318 1.00158 0.987526
1.00454 1.00106 0.985709
0.999934 0.999678 0.998037
1.00072 1.0015 0.991912
1.00221 1.00291 0.987932
0.9999 0.999286 0.998223
1.0004 1.0013 0.992774
0.999839 0.998878 0.998426
1.00459 1.00129 0.985198
1.00332 1.003 0.985938
1.00247 1.00354 0.986936
1.00215 1.00358 0.987905
1.00134 1.00381 0.988626
1.00076 1.00339 0.990125
1.00064 1.00351 0.99
1.00034 1.00303 0.991097
0.999825 1.00045 0.994572
1.00021 1.00259 0.991733
0.999856 0.999904 0.995028
0.999656 0.998218 0.998831
0.99994 0.999499 0.995272
0.999711 0.997919 0.998921
0.999786 0.997682 0.998973
1.00094 0.995346 0.991485
0.996852 0.994992 0.971692
1 0.995063 0.955337
1.00415 1.00039 0.986189
1.00511 0.999647 0.986016
1.00488 1.00095 0.984882
1.00158 1.0035 0.988641
1.00347 1.00264 0.985805
1.00346 1.00079 0.987733
1.00508 0.997622 0.987843
1.00354 0.999929 0.988962
1.00448 0.996208 0.990021
1.00485 0.996916 0.988917
1.005 0.996043 0.989404
1.00425 0.995418 0.991502
1.00405 0.995901 0.99134
1.00437 0.996184 0.989876
1.00019 0.997249 0.993109
0.995935 0.996185 0.970108
1.00044 0.996742 0.996431
1.00412 0.995706 0.992099
1.00061 0.997604 0.987766
0.996491 0.995654 0.973637
1.00339 0.994881 0.991715
1.00286 0.997735 0.988675
1.0046 0.995076 0.991503
1.00456 0.996699 0.990652
1.00518 0.994937 0.990363
1.00523 0.995034 0.99055
1.00516 0.994888 0.990289
1.00515 0.994903 0.990397
1.00515 0.994964 0.990384
1.00507 0.994956 0.990475
1.00514 0.995015 0.990393
1.00516 0.99551 0.990004
1.00511 0.995189 0.990246
1.00514 0.995974 0.989543
1.00518 0.997252 0.988307
1.00514 0.996479 0.989051
1.00519 0.997779 0.987784
1.00524 0.999081 0.986442
1.00519 0.998295 0.987399
1.00521 0.999379 0.986217
1.00501 0.999917 0.985968
1.00519 0.999804 0.985809
1.00493 1.00007 0.985938
1.00392 1.00023 0.987592
1.00135 1.00078 0.991413
1.00372 1.00059 0.987558
1.00485 1.0004 0.985816
1.00002 1.00009 0.997797
1.00111 1.00128 0.991417
1.0031 1.00168 0.987534
0.999996 0.999793 0.997936
1.00083 1.0014 0.9919
0.999967 0.999394 0.998112
1.00506 1.00039 0.985403
1.00467 1.00123 0.985121
1.00382 1.00206 0.985902
1.00332 1.00301 0.985952
1.00243 1.00359 0.986938
1.00137 1.00359 0.988833
1.00138 1.00379 0.988644
1.00062 1.00352 0.990151
0.99997 1.00103 0.99379
1.00024 1.00316 0.991099
0.999814 1.0004 0.994592
0.999638 0.998589 0.998681
0.999857 0.999856 0.995048
0.999649 0.998171 0.998862
0.999715 0.997891 0.998935
1.00414 0.994895 0.992426
1.00099 0.995199 0.989915
0.996618 0.994885 0.971575
1.0051 0.99859 0.98707
1.00459 1.00001 0.986073
1.00518 0.998397 0.987169
1.00512 0.999604 0.98605
1.00483 1.00078 0.984974
1.00512 0.996847 0.988447
1.00388 1.00066 0.987562
1.00506 0.997789 0.987737
1.00514 0.995471 0.989719
1.00489 0.996939 0.989157
1.00497 0.996106 0.989309
1.00424 0.995539 0.991612
1.00369 0.995932 0.99114
1.0003 0.99727 0.993186
1.00517 0.994904 0.990397
1.00414 0.996235 0.992135
1.00042 0.997592 0.987914
1.00463 0.995212 0.991779
1.00459 0.995859 0.99059
1.00518 0.994917 0.990406
1.00523 0.994982 0.990462
1.0052 0.994935 0.990541
1.00515 0.994915 0.990385
1.00515 0.994958 0.990407
1.00518 0.995112 0.990369
1.00513 0.994982 0.990369
1.00516 0.995509 0.989947
1.00518 0.996897 0.988653
1.00515 0.995988 0.989535
1.00518 0.997273 0.98831
1.00525 0.99875 0.98678
1.00519 0.997794 0.987791
1.00524 0.999078 0.986462
1.00508 0.999811 0.985978
1.00521 0.999326 0.986279
1.00501 0.999922 0.985984
1.00405 1.00012 0.987491
1.00492 1.00006 0.985928
1.00392 1.00024 0.987584
1.00141 1.0004 0.992987
1.00023 1.00003 0.995045
1.0014 1.00073 0.99209
1.0037 1.00063 0.987551
1.00006 1.00015 0.997739
1.00123 1.00112 0.991413
1.00006 0.999895 0.997834
1.00522 0.998316 0.987226
1.00519 0.999472 0.986083
1.00509 1.00032 0.985469
1.00467 1.00065 0.985838
1.00476 1.00118 0.985047
1.00387 1.00206 0.98588
1.00242 1.00263 0.987825
1.0024 1.00366 0.986941
1.00129 1.00364 0.988852
1.00034 1.00156 0.992654
1.00048 1.00366 0.990175
0.999889 1.00105 0.993814
0.999668 0.999121 0.998405
0.999805 1.00035 0.994611
0.999612 0.998503 0.998744
0.999646 0.998123 0.998887
1.00516 0.995024 0.990206
1.00447 0.994894 0.992466
1.0013 0.994898 0.988381
1.00513 0.99733 0.988053
1.00512 0.998584 0.98691
1.00503 0.99966 0.985957
1.00517 0.998509 0.987114
1.00513 0.999573 0.986084
1.00516 0.995775 0.989786
1.0051 0.996852 0.988376
1.00505 0.997967 0.987634
1.00513 0.995472 0.989726
1.00497 0.996197 0.989214
1.00428 0.995755 0.991748
1.0052 0.99492 0.990612
1.00518 0.994909 0.990539
1.00419 0.996798 0.992175
1.00518 0.994898 0.990443
1.00522 0.994949 0.990375
1.0052 0.994936 0.990492
1.00518 0.995017 0.990636
1.00514 0.994949 0.99043
1.00517 0.995095 0.99033
1.00519 0.996673 0.988894
1.00516 0.995507 0.989891
1.00518 0.996907 0.98866
1.00525 0.998463 0.987085
1.00518 0.997294 0.988312
1.00525 0.998749 0.986793
1.00514 0.999707 0.986003
1.00523 0.999075 0.986483
1.00508 0.999808 0.985994
1.00414 1.0001 0.987355
1.00501 0.999927 0.985999
1.00405 1.00011 0.98749
1.00154 1.00011 0.993093
1.00391 1.00025 0.987575
1.00156 1.00032 0.992921
1.00019 0.999997 0.995203
1.00005 1.00026 0.996392
1.00156 1.00065 0.992646
1.00007 1.00026 0.997701
1.00517 0.997747 0.98791
1.00524 0.999103 0.986342
1.00523 0.998129 0.987374
1.00493 1 0.986037
1.0052 0.999543 0.986016
1.00513 1.00024 0.985535
1.00469 1.0006 0.985832
1.00338 1.00121 0.987496
1.00392 1.00206 0.985858
1.00245 1.00258 0.987813
1.0008 1.00166 0.991681
1.00119 1.0037 0.988871
1.00016 1.0017 0.992686
0.999758 0.999847 0.998024
0.999799 1.00109 0.993836
0.999614 0.999008 0.998519
0.999599 0.998425 0.998796
1.00518 0.995066 0.990277
1.00517 0.995044 0.990191
1.00467 0.994889 0.992472
1.00515 0.996496 0.989079
1.00512 0.997378 0.988039
1.00513 0.998575 0.986746
1.00516 0.998621 0.98706
1.00516 0.995769 0.989673
1.00509 0.996862 0.988304
1.00513 0.995469 0.989734
1.00519 0.994966 0.990643
1.00519 0.994927 0.990595
1.00518 0.994914 0.990681
1.00514 0.995395 0.990242
1.0052 0.99494 0.990444
1.00518 0.995087 0.990513
1.00519 0.9964 0.989348
1.00516 0.995079 0.99029
1.0052 0.996655 0.988898
1.00522 0.998259 0.987346
1.00519 0.996922 0.988667
1.00525 0.998467 0.987087
1.00517 0.999587 0.986094
1.00524 0.998749 0.986806
1.00513 0.999702 0.986017
1.00422 1.00007 0.987224
1.00508 0.999805 0.986009
1.00414 1.00008 0.987361
1.00163 1.00004 0.99303
1.00405 1.00009 0.987488
1.00166 1.00006 0.993001
1.00024 0.9999 0.995242
1.00171 1.00022 0.992863
0.999928 1.00015 0.995363
0.999657 1.00053 0.99798
1.00517 0.997642 0.987901
1.00522 0.998694 0.986895
1.00518 0.997789 0.987772
1.00506 0.99971 0.986339
1.00525 0.998951 0.986462
1.00523 0.997946 0.987522
1.00386 1.00035 0.987508
1.00494 0.999961 0.986015
1.00522 0.999612 0.985949
1.00471 1.00055 0.985827
1.00342 1.00117 0.987492
1.00118 1.00122 0.991367
1.00248 1.00253 0.987801
1.00068 1.00178 0.991695
0.999833 1.00049 0.99775
1.00002 1.00181 0.992715
0.999669 0.999696 0.998175
0.999576 0.998867 0.998618
1.00517 0.995624 0.989859
1.00518 0.995033 0.990296
1.00517 0.995065 0.990175
1.00515 0.996401 0.989149
1.00511 0.997422 0.988024
1.00515 0.995754 0.98956
1.00516 0.995376 0.990345
1.00519 0.994968 0.99064
1.00519 0.994933 0.990578
1.00515 0.995274 0.990425
1.00517 0.996591 0.989116
1.00517 0.995153 0.99039
1.0052 0.996557 0.989114
1.00519 0.997938 0.987785
1.00522 0.99663 0.988902
1.00523 0.998242 0.987345
1.00516 0.999432 0.986264
1.00525 0.998459 0.98709
1.00516 0.999579 0.986104
1.00429 1.00001 0.987156
1.00513 0.999698 0.986031
1.00422 1.00006 0.987232
1.0017 1.0001 0.992836
1.00415 1.00006 0.987366
1.00174 0.999994 0.992915
1.00032 0.999888 0.995149
1.00178 1.00002 0.992917
1.00001 0.999954 0.995426
0.999678 1.00033 0.995508
1.00517 0.996937 0.988725
1.0052 0.998594 0.986978
1.00517 0.997463 0.988069
1.00512 0.999405 0.986481
1.00521 0.998774 0.986795
1.00518 0.997831 0.987633
1.00409 0.999946 0.987538
1.00506 0.999604 0.986274
1.00525 0.9988 0.986582
1.00139 1.00066 0.991532
1.00388 1.00033 0.987518
1.00495 0.999925 0.985994
1.00346 1.00113 0.987489
1.00112 1.0013 0.99137
0.999855 1.00074 0.997692
1.00055 1.0019 0.991717
0.999775 1.00033 0.99784
0.999596 0.999515 0.998317
1.00515 0.995672 0.989916
1.00517 0.99567 0.989826
1.00518 0.995009 0.990316
1.00516 0.99631 0.989218
1.00514 0.996741 0.989036
1.00517 0.995374 0.990388
1.00519 0.994966 0.990638
1.00516 0.995147 0.990607
1.00516 0.996471 0.989206
1.0052 0.99795 0.987798
1.0052 0.996721 0.98888
1.00519 0.998113 0.987577
1.00514 0.999128 0.98662
1.00523 0.998235 0.987344
1.00515 0.999429 0.986271
1.00431 0.999947 0.987166
1.00515 0.999577 0.986114
1.00429 1.00001 0.987162
1.0018 1.00015 0.991352
1.00422 1.00005 0.98724
1.00181 1.00007 0.992074
1.00026 0.999938 0.997687
1.00186 0.999968 0.992802
1.0001 0.999877 0.995347
0.999787 1.00001 0.995593
1.00516 0.996616 0.989132
1.0052 0.998287 0.987392
1.00517 0.997019 0.988684
1.00515 0.999231 0.986411
1.0052 0.998589 0.986994
1.00517 0.997281 0.988237
1.00421 0.999711 0.987319
1.00512 0.999412 0.98649
1.00521 0.99885 0.986696
1.00155 1.00016 0.991729
1.00409 0.999903 0.987448
1.00506 0.999492 0.986208
0.999914 1.00061 0.997744
1.00137 1.00067 0.991537
1.00389 1.00032 0.987527
1.00105 1.00136 0.991375
0.999855 1.00063 0.997697
0.999681 1.0002 0.997956
1.00513 0.996638 0.989109
1.00515 0.995758 0.989899
1.00517 0.995715 0.989793
1.00521 0.997972 0.987692
1.00514 0.996638 0.989109
1.00517 0.995377 0.990431
1.00515 0.996351 0.989297
1.0052 0.997931 0.9878
1.00515 0.999059 0.986859
1.00519 0.998286 0.987369
1.00514 0.999253 0.986571
1.00432 0.999776 0.98714
1.00515 0.999419 0.986278
1.00431 0.999945 0.987172
1.00182 1.00013 0.991324
1.00429 1.00001 0.987169
1.0018 1.00014 0.99135
1.00028 0.999975 0.997647
1.00184 1.00005 0.991403
1.00018 0.999931 0.99648
0.999893 0.999843 0.995541
1.00515 0.996935 0.988785
1.00519 0.998126 0.987513
1.00515 0.996604 0.989162
1.00516 0.999279 0.986367
1.0052 0.998339 0.987305
1.00517 0.997102 0.988644
1.0043 0.999638 0.987259
1.00515 0.999331 0.986418
1.0052 0.998586 0.98701
1.00169 0.999894 0.991731
1.00421 0.999712 0.987308
1.00513 0.99942 0.9865
1.00006 1.0003 0.997774
1.00155 1.00014 0.991736
1.00409 0.999861 0.987356
0.999923 1.00056 0.997717
1.00135 1.00067 0.991542
0.999813 1.00057 0.997721
1.00519 0.997818 0.987894
1.00514 0.996697 0.989022
1.00514 0.995842 0.989883
1.00515 0.998945 0.986981
1.00521 0.997889 0.987789
1.00514 0.996542 0.989181
1.0052 0.997915 0.987802
1.00515 0.999064 0.986857
1.00431 0.999685 0.987262
1.00514 0.99938 0.986521
1.00432 0.999822 0.987178
1.00185 1.00006 0.991348
1.00431 0.999939 0.987177
1.00181 1.00013 0.991325
1.00028 1.00001 0.997603
1.0018 1.00014 0.991347
1.00028 0.999987 0.997625
1.00025 0.999886 0.995088
1.0052 0.998059 0.987561
1.00515 0.996766 0.988916
1.00516 0.999191 0.986478
1.0052 0.998133 0.987502
1.00514 0.99659 0.989192
1.00432 0.999694 0.987405
1.00516 0.999285 0.986362
1.0052 0.99839 0.987217
1.0018 0.999857 0.991587
1.0043 0.999682 0.987316
1.00515 0.999434 0.986425
1.00022 1.00005 0.997729
1.0017 0.999886 0.991736
1.00421 0.999706 0.987296
1.00003 1.00031 0.997764
1.00156 1.00013 0.99174
0.99992 1.00054 0.997696
1.00511 0.998921 0.987055
1.0052 0.997885 0.987815
1.00514 0.996757 0.988934
1.00425 0.999624 0.987416
1.00514 0.998952 0.986982
1.00521 0.997802 0.987885
1.00515 0.999072 0.986856
1.00432 0.999675 0.987243
1.00183 1.00002 0.99142
1.00432 0.999867 0.987215
1.00183 1.00007 0.99135
1.0003 1.00001 0.997584
1.00182 1.00013 0.991327
1.00028 1.00001 0.9976
1.00028 0.999996 0.99761
1.00514 0.999118 0.986593
1.0052 0.99787 0.987766
1.00515 0.9966 0.989048
1.00429 0.999689 0.98747
1.00515 0.9992 0.98647
1.0052 0.99814 0.987492
1.00183 0.999945 0.991469
1.00431 0.999699 0.987399
1.00516 0.999291 0.986357
1.0003 0.999945 0.997653
1.0018 0.999872 0.99159
1.00429 0.999718 0.987373
1.00017 1.00009 0.99775
1.0017 0.999894 0.991742
1.00003 1.00031 0.997748
1.0042 0.999682 0.987642
1.0051 0.998885 0.987006
1.0052 0.997951 0.987737
1.00179 0.999968 0.991556
1.00427 0.999605 0.987392
1.00514 0.998956 0.986982
1.00433 0.999661 0.987224
1.00183 1 0.991426
1.00031 1.00001 0.997566
1.00182 1.00008 0.991352
1.0003 1.00002 0.997573
1.00027 1.00002 0.997594
1.00424 0.999679 0.987573
1.00513 0.999014 0.986708
1.0052 0.997682 0.987971
1.0019 1.00001 0.992674
1.00428 0.999687 0.987469
1.00515 0.999209 0.986461
1.00031 0.999951 0.997599
1.00183 0.999964 0.99147
1.0043 0.999705 0.987394
1.00028 0.999976 0.997682
1.0018 0.999897 0.991593
1.00015 1.0001 0.997764
1.00181 0.999966 0.991561
1.00421 0.999633 0.987568
1.0051 0.998848 0.986957
1.00026 0.999999 0.997595
1.00178 0.999966 0.991559
1.00429 0.99959 0.987368
1.00182 0.999993 0.991429
1.00029 1.00001 0.997572
1.0003 1.00003 0.997568
1.00191 0.999986 0.992702
1.00424 0.999678 0.987572
1.00511 0.998906 0.986824
0.999962 0.99999 0.997934
1.00181 1.00001 0.991468
1.00428 0.999682 0.98747
1.00031 0.999963 0.997624
1.00183 0.999984 0.991471
1.00026 0.999997 0.99771
1.00023 0.999992 0.995105
1.00183 0.999966 0.992177
1.00422 0.999586 0.987493
1.00027 0.999998 0.997601
1.00178 0.999965 0.991567
1.00031 1 0.997573
0.999888 1 0.99543
1.00184 0.999984 0.992129
1.00424 0.99968 0.987572
1.00011 0.999988 0.996487
1.00181 1.00001 0.991478
1.0003 0.999974 0.997648
1.00024 0.999992 0.997616
1.00174 0.999966 0.991633
1.00024 0.999996 0.997608
1.00007 0.999991 0.99653
1.00178 0.999985 0.991576
1.00029 0.999978 0.997613
1.00024 0.999989 0.997628
1.00025 0.999985 0.997617

TENSORS stress float
0.00168496 -8.92051e-05 0.00017144
-8.92051e-05 0.000648337 -2.29409e-05
0.00017144 -2.29409e-05 0.0006273
0.00530692 -0.000123344 0.000161502
-0.000123344 0.00281122 1.75873e-05
0.000161502 1.75873e-05 0.00278661
0.00148776 -1.87803e-05 8.05202e-05
-1.87803e-05 0.000540627 -8.79342e-06
8.05202e-05 -8.79342e-06 0.000510313
0.00182227 -5.41735e-05 0.000172542
-5.41735e-05 0.000703953 -1.46858e-05
0.000172542 -1.46858e-05 0.000685925
0.00175145 -8.05246e-05 0.000168324
-8.05246e-05 0.000678852 -2.08273e-05
0.000168324 -2.08273e-05 0.000659062
0.00163674 -8.54244e-05 0.000176695
-8.54244e-05 0.000616847 -2.25996e-05
0.000176695 -2.25996e-05 0.000597405
0.00145326 -6.18512e-05 2.56404e-05
-6.18512e-05 0.000441482 -9.11965e-06
2.56404e-05 -9.11965e-06 0.000361257
0.00519348 -0.000116835 -2.1209e-06
-0.000116835 0.0027284 3.44059e-08
-2.1209e-06 3.44059e-08 0.00271322
0.00531725 4.36628e-05 7.25735e-05
4.36628e-05 0.00276275 4.06314e-06
7.25735e-05 4.06314e-06 0.00274954
0.00506703 -0.000230556 1.00365e-05
-0.000230556 0.00266865 3.43547e-06
1.00365e-05 3.43547e-06 0.00262994
0.00169422 6.97914e-05 0.000168235
6.97914e-05 0.000650931 1.53895e-05
0.000168235 1.53895e-05 0.000640651
0.000653818 0.000174277 2.1568e-05
0.000174277 -1.23261e-05 1.34208e-05
2.1568e-05 1.34208e-05 -0.000100532
0.00164091 -3.18446e-05 0.00018364
-3.18446e-05 0.000592212 2.27736e-06
0.00018364 2.27736e-06 0.000582169
0.00127433 -1.43298e-05 3.07483e-05
-1.43298e-05 0.000398545 1.07972e-06
3.07483e-05 1.07972e-06 0.000362196
0.00135748 -6.82308e-06 -2.63175e-05
-6.82308e-06 0.000464923 4.96697e-06
-2.63175e-05 4.96697e-06 0.000430231
0.00154277 -5.78021e-05 6.19085e-05
-5.78021e-05 0.00055247 -3.52725e-06
6.19085e-05 -3.52725e-06 0.000525164
0.00149907 1.90842e-07 8.73864e-05
1.90842e-07 0.000553384 -8.23734e-06
8.73864e-05 -8.23734e-06 0.000518522
0.00150901 -3.63283e-05 7.18953e-05
-3.63283e-05 0.000540594 -7.96266e-06
7.18953e-05 -7.96266e-06 0.00051474
0.00152258 -0.000104302 -3.00703e-05
-0.000104302 0.000472031 2.82797e-06
-3.00703e-05 2.82797e-06 0.000400488
0.00539914 -0.000108385 0.000215415
-0.000108385 0.00281762 -6.10124e-06
0.000215415 -6.10124e-06 0.00281989
0.00180409 -3.70632e-05 0.000175584
-3.70632e-05 0.000690167 -1.10018e-05
0.000175584 -1.10018e-05 0.000672774
0.00181311 -6.94056e-05 0.000169794
-6.94056e-05 0.000705092 -1.80054e-05
0.000169794 -1.80054e-05 0.000686667
0.00149796 -9.83242e-05 4.6458e-05
-9.83242e-05 0.000435207 -7.03771e-06
4.6458e-05 -7.03771e-06 0.00036266
0.0014794 -7.8492e-05 3.4623e-05
-7.8492e-05 0.000437271 -8.27088e-06
3.4623e-05 -8.27088e-06 0.000364233
0.00149063 -5.62553e-05 0.000165954
-5.62553e-05 0.00052421 -1.90809e-05
0.000165954 -1.90809e-05 0.000507747
0.00145458 -4.75238e-05 1.85627e-05
-4.75238e-05 0.000461884 -9.96005e-06
1.85627e-05 -9.96005e-06 0.000372875
0.00200569 -0.000209924 1.31463e-05
-0.000209924 0.00062229 -5.80353e-06
1.31463e-05 -5.80353e-06 0.000485936
0.0050803 -0.000144985 -0.000150551
-0.000144985 0.00266097 -9.64038e-06
-0.000150551 -9.64038e-06 0.00264563
0.00341974 5.69374e-05 -9.97334e-05
5.69374e-05 0.00165732 -7.63896e-06
-9.97334e-05 -7.63896e-06 0.00163899
0.00330717 -5.71138e-05 -9.30826e-05
-5.71138e-05 0.00161858 -3.92682e-06
-9.30826e-05 -3.92682e-06 0.00159181
0.00483941 -0.000160825 9.07532e-06
-0.000160825 0.00252985 -8.88263e-07
9.07532e-06 -8.88263e-07 0.00251053
0.000605062 0.000164049 -2.34292e-06
0.000164049 -4.1522e-05 -5.32554e-07
-2.34292e-06 -5.32554e-07 -0.000126623
0.00156644 5.19585e-05 0.000175847
5.19585e-05 0.000559835 1.31809e-05
0.000175847 1.31809e-05 0.000542767
0.00174268 0.000120298 0.000178129
0.000120298 0.000683393 1.94006e-05
0.000178129 1.94006e-05 0.000662602
0.00259826 0.000167089 0.000108833
0.000167089 0.00108434 1.35278e-05
0.000108833 1.35278e-05 0.00102143
0.00379038 -0.000233593 4.63171e-06
-0.000233593 0.00192977 3.50614e-06
4.63171e-06 3.50614e-06 0.00189543
0.00264187 0.000201659 0.000107322
0.000201659 0.00113593 1.50403e-05
0.000107322 1.50403e-05 0.00106941
0.000644623 0.000134333 2.43799e-05
0.000134333 -1.12895e-05 1.68976e-05
2.43799e-05 1.68976e-05 -8.96922e-05
0.00090476 0.000170701 9.579e-06
0.000170701 4.91378e-05 4.69109e-06
9.579e-06 4.69109e-06 -0.000104899
0.00304345 -0.00010378 9.10617e-05
-0.00010378 0.00146149 3.46484e-06
9.10617e-05 3.46484e-06 0.00146482
0.00544361 6.19984e-05 3.77274e-06
6.19984e-05 0.0028336 -1.24742e-06
3.77274e-06 -1.24742e-06 0.00284108
0.00340638 5.23034e-05 -8.19755e-05
5.23034e-05 0.00164218 -2.88081e-06
-8.19755e-05 -2.88081e-06 0.00162743
0.00534109 5.80526e-05 0.000211329
5.80526e-05 0.00277678 2.14357e-06
0.000211329 2.14357e-06 0.00278395
0.00129702 5.99109e-05 3.39141e-05
5.99109e-05 0.000409603 1.83419e-06
3.39141e-05 1.83419e-06 0.000376754
0.000689323 7.24902e-06 1.61893e-05
7.24902e-06 -6.65555e-05 1.58955e-06
1.61893e-05 1.58955e-06 -0.000137392
0.00523402 0.000179996 0.000105151
0.000179996 0.00273444 8.91878e-06
0.000105151 8.91878e-06 0.00271303
0.00266799 5.17838e-05 0.000107279
5.17838e-05 0.00109174 6.17933e-06
0.000107279 6.17933e-06 0.00104082
0.00119889 -7.38117e-05 -4.46834e-05
-7.38117e-05 0.000366545 5.64531e-06
-4.46834e-05 5.64531e-06 0.000327805
0.00127317 -5.33016e-05 -3.81231e-05
-5.33016e-05 0.000412083 5.69205e-06
-3.81231e-05 5.69205e-06 0.00037762
0.00143869 4.86312e-05 -1.46935e-05
4.86312e-05 0.000520943 5.40957e-06
-1.46935e-05 5.40957e-06 0.000479641
0.00155004 -0.000116717 -9.28835e-05
-0.000116717 0.000481153 1.42892e-05
-9.28835e-05 1.42892e-05 0.000415924
0.00340709 1.34664e-05 -8.73699e-05
1.34664e-05 0.00164915 -1.67377e-06
-8.73699e-05 -1.67377e-06 0.0016317
0.0015409 -4.24321e-05 6.90396e-05
-4.24321e-05 0.0005465 -2.956e-06
6.90396e-05 -2.956e-06 0.00052049
0.00141566 2.4773e-05 8.91449e-05
2.4773e-05 0.000507781 -6.12538e-06
8.91449e-05 -6.12538e-06 0.000471723
0.0015343 -4.85149e-05 6.56834e-05
-4.85149e-05 0.000547724 -5.85903e-06
6.56834e-05 -5.85903e-06 0.000522772
0.00155094 -8.30143e-05 -2.42807e-05
-8.30143e-05 0.000459972 9.9121e-07
-2.42807e-05 9.9121e-07 0.000393661
0.00152386 -9.46323e-05 -3.51051e-05
-9.46323e-05 0.000486036 2.89219e-06
-3.51051e-05 2.89219e-06 0.000409226
0.00153892 -0.000104581 -2.54602e-05
-0.000104581 0.000468967 2.10531e-06
-2.54602e-05 2.10531e-06 0.000400867
0.00200512 -0.000208341 -6.52227e-06
-0.000208341 0.000620226 1.7197e-06
-6.52227e-06 1.7197e-06 0.000484086
0.00531472 4.5071e-05 0.000205617
4.5071e-05 0.00276135 -1.05748e-07
0.000205617 -1.05748e-07 0.002769
0.00178415 -1.9253e-05 0.000176292
-1.9253e-05 0.000680126 -7.50885e-06
0.000176292 -7.50885e-06 0.000664089
0.00240132 2.55361e-05 3.11455e-05
2.55361e-05 0.000952142 -9.82172e-07
3.11455e-05 -9.82172e-07 0.000892993
0.00150827 -7.91016e-05 4.0162e-05
-7.91016e-05 0.000432502 -4.84931e-06
4.0162e-05 -4.84931e-06 0.000362849
0.00149228 -8.9884e-05 4.18527e-05
-8.9884e-05 0.000434409 -7.64391e-06
4.18527e-05 -7.64391e-06 0.000363249
0.00193139 -0.000128445 1.12035e-05
-0.000128445 0.000527803 -2.78581e-06
1.12035e-05 -2.78581e-06 0.000408206
0.0016285 -0.000167607 1.49288e-05
-0.000167607 0.000378806 -5.29761e-06
1.49288e-05 -5.29761e-06 0.000248426
0.0011241 -1.09401e-05 0.000125573
-1.09401e-05 0.000314619 -1.3447e-05
0.000125573 -1.3447e-05 0.00030201
0.00119255 2.1003e-06 9.34114e-06
2.1003e-06 0.000336054 -1.03285e-05
9.34114e-06 -1.03285e-05 0.00024765
0.00198562 -0.000227224 1.25225e-05
-0.000227224 0.000634038 -5.87357e-06
1.25225e-05 -5.87357e-06 0.000488727
0.00123539 -0.000196629 7.90526e-06
-0.000196629 7.67838e-05 -2.42402e-06
7.90526e-06 -2.42402e-06 -8.98749e-05
0.00554126 0.000119632 -0.000215509
0.000119632 0.00289367 -1.67283e-05
-0.000215509 -1.67283e-05 0.00289576
0.00450061 -0.000185871 -0.000116797
-0.000185871 0.00233733 -7.65007e-06
-0.000116797 -7.65007e-06 0.00231556
0.00528553 -6.81032e-05 -0.000177162
-6.81032e-05 0.00276343 -1.13662e-05
-0.000177162 -1.13662e-05 0.00275919
0.000537666 0.000161685 -2.24391e-05
0.000161685 -7.88127e-05 -1.37299e-05
-2.24391e-05 -1.37299e-05 -0.00016313
0.00558009 0.000147055 -2.96751e-06
0.000147055 0.00291472 -1.76104e-06
-2.96751e-06 -1.76104e-06 0.00291601
0.00555062 4.83295e-05 -8.5304e-06
4.83295e-05 0.00290553 -8.95819e-07
-8.5304e-06 -8.95819e-07 0.00290522
0.00054863 0.000118246 -2.46793e-07
0.000118246 -0.000114193 -2.46116e-07
-2.46793e-07 -2.46116e-07 -0.000196748
0.00250913 -0.000120117 -5.19568e-05
-0.000120117 0.00116039 -1.12488e-06
-5.19568e-05 -1.12488e-06 0.00113722
0.000545123 0.000170111 -6.96951e-07
0.000170111 -8.43748e-05 -3.08263e-07
-6.96951e-07 -3.08263e-07 -0.000171502
0.00146559 0.000108547 3.45212e-05
0.000108547 0.000480894 5.96317e-07
3.45212e-05 5.96317e-07 0.000412845
0.000901649 0.00016744 1.89049e-07
0.00016744 4.49912e-05 -2.09555e-07
1.89049e-07 -2.09555e-07 -0.000108395
0.00358101 -0.000107429 0.000116085
-0.000107429 0.00177606 5.55016e-06
0.000116085 5.55016e-06 0.00177703
0.000616032 -4.41518e-05 2.3594e-06
-4.41518e-05 2.73814e-05 7.59353e-06
2.3594e-06 7.59353e-06 -1.16526e-05
0.000664878 8.76829e-05 1.71469e-05
8.76829e-05 -6.69459e-05 8.33625e-06
1.71469e-05 8.33625e-06 -0.000145411
0.000702372 0.000140855 2.18729e-05
0.000140855 -1.12584e-05 1.4116e-05
2.18729e-05 1.4116e-05 -9.83615e-05
0.000986074 0.00013832 1.30717e-05
0.00013832 -1.01762e-05 5.19271e-06
1.30717e-05 5.19271e-06 -0.0001493
0.00228536 4.0945e-05 7.27378e-05
4.0945e-05 0.000978744 9.49977e-06
7.27378e-05 9.49977e-06 0.000930849
0.000943425 0.000166018 1.09848e-05
0.000166018 2.75107e-05 5.86853e-06
1.09848e-05 5.86853e-06 -0.000119663
0.000944573 0.00017546 8.60418e-06
0.00017546 0.000145255 5.01364e-06
8.60418e-06 5.01364e-06 -1.39394e-05
0.000905867 0.000202137 4.38678e-06
0.000202137 -1.4514e-05 1.31587e-06
4.38678e-06 1.31587e-06 -0.000200083
0.00265858 -0.00011822 4.8915e-05
-0.00011822 0.00123522 2.28349e-06
4.8915e-05 2.28349e-06 0.00123508
0.00289557 -0.000130991 1.00811e-05
-0.000130991 0.00137998 -4.19953e-07
1.00811e-05 -4.19953e-07 0.00137631
0.00554212 1.50978e-05 -0.000210141
1.50978e-05 0.0028865 -8.52331e-06
-0.000210141 -8.52331e-06 0.00289254
0.00548449 5.27427e-05 -0.000216415
5.27427e-05 0.00285535 -4.90785e-06
-0.000216415 -4.90785e-06 0.00286351
0.00540867 8.08842e-05 -1.7943e-07
8.08842e-05 0.0028221 -2.32845e-06
-1.7943e-07 -2.32845e-06 0.00282522
0.00338722 8.24947e-06 -9.6476e-05
8.24947e-06 0.00162911 -3.47593e-06
-9.6476e-05 -3.47593e-06 0.00161719
0.00165962 2.97834e-05 4.58554e-05
2.97834e-05 0.00050256 7.99193e-07
4.58554e-05 7.99193e-07 0.000442878
0.00346737 9.81284e-05 -8.32618e-05
9.81284e-05 0.0016807 -4.0614e-06
-8.32618e-05 -4.0614e-06 0.00166282
0.00168954 7.04523e-05 4.46707e-05
7.04523e-05 0.000523446 1.60722e-06
4.46707e-05 1.60722e-06 0.000459715
0.00537247 0.000140737 0.000214728
0.000140737 0.00281137 5.07355e-06
0.000214728 5.07355e-06 0.00280825
0.000616402 8.89913e-06 1.80966e-05
8.89913e-06 -0.000105401 3.28575e-07
1.80966e-05 3.28575e-07 -0.00017451
0.00269206 2.03044e-05 0.000107837
2.03044e-05 0.00110409 4.06686e-06
0.000107837 4.06686e-06 0.00105543
0.00104225 3.25856e-05 1.23828e-05
3.25856e-05 -1.31855e-05 1.11393e-06
1.23828e-05 1.11393e-06 -0.000132151
0.00258467 9.39333e-05 0.000108548
9.39333e-05 0.0010516 7.79505e-06
0.000108548 7.79505e-06 0.000997492
0.00105436 7.73411e-05 1.20705e-05
7.73411e-05 -8.12552e-07 2.4955e-06
1.20705e-05 2.4955e-06 -0.000127208
0.00164596 3.95035e-05 -0.000181701
3.95035e-05 0.000597358 1.48817e-06
-0.000181701 1.48817e-06 0.000587691
0.00125601 3.69598e-06 -3.1426e-05
3.69598e-06 0.000390336 1.63503e-06
-3.1426e-05 1.63503e-06 0.000355087
0.00137883 0.000107855 -2.59574e-06
0.000107855 0.000510142 7.13086e-06
-2.59574e-06 7.13086e-06 0.000456025
0.00121654 -6.97794e-05 -4.53855e-05
-6.97794e-05 0.000377052 6.12019e-06
-4.53855e-05 6.12019e-06 0.000340834
0.0016666 -6.27633e-05 -9.29266e-05
-6.27633e-05 0.000520076 7.77494e-06
-9.29266e-05 7.77494e-06 0.000460833
0.00160296 -0.000100365 -9.17119e-05
-0.000100365 0.000500279 1.25868e-05
-9.17119e-05 1.25868e-05 0.000438244
0.00152797 -0.000121676 -9.45505e-05
-0.000121676 0.000478433 1.46781e-05
-9.45505e-05 1.46781e-05 0.000409593
0.0020042 -0.000206997 -2.49785e-05
-0.000206997 0.000618616 8.79088e-06
-2.49785e-05 8.79088e-06 0.000482674
0.00538221 -8.34898e-05 2.04458e-06
-8.34898e-05 0.00280746 -1.37405e-06
2.04458e-06 -1.37405e-06 0.00281024
0.00149977 4.45087e-05 7.7694e-05
4.45087e-05 0.000521787 -2.57155e-06
7.7694e-05 -2.57155e-06 0.000497969
0.00113154 3.17836e-08 -4.85057e-05
3.17836e-08 0.000198793 8.34569e-07
-4.85057e-05 8.34569e-07 0.000137893
0.00156774 -4.77032e-05 -2.84668e-05
-4.77032e-05 0.000462552 1.42392e-06
-2.84668e-05 1.42392e-06 0.000398261
0.00281552 5.0449e-05 0.000131009
5.0449e-05 0.00132759 -2.42324e-06
0.000131009 -2.42324e-06 0.0013164
0.00186778 -6.36316e-05 -3.11659e-05
-6.36316e-05 0.000713152 -1.21211e-07
-3.11659e-05 -1.21211e-07 0.000635338
0.0015504 -9.60937e-05 -2.35151e-05
-9.60937e-05 0.000465859 1.42033e-06
-2.35151e-05 1.42033e-06 0.000399264
0.00180981 -0.000121205 -8.36861e-06
-0.000121205 0.000455344 1.45822e-06
-8.36861e-06 1.45822e-06 0.000335146
0.00198074 -0.000227189 -5.28811e-06
-0.000227189 0.000631837 1.75024e-06
-5.28811e-06 1.75024e-06 0.000486516
0.00183465 -0.000176125 -3.87089e-06
-0.000176125 0.000498877 9.44141e-07
-3.87089e-06 9.44141e-07 0.000369052
0.00124232 -0.000197015 2.76313e-07
-0.000197015 7.92987e-05 -1.35781e-07
2.76313e-07 -1.35781e-07 -8.71446e-05
0.000657264 1.24675e-05 1.85544e-05
1.24675e-05 -8.33205e-05 -1.22237e-06
1.85544e-05 -1.22237e-06 -0.000149535
0.00146716 1.6352e-05 3.14298e-05
1.6352e-05 0.000404516 -2.50874e-06
3.14298e-05 -2.50874e-06 0.000338935
0.00163108 -2.97612e-05 1.27986e-05
-2.97612e-05 0.000336106 -1.11945e-06
1.27986e-05 -1.11945e-06 0.000225982
0.00164063 -9.50648e-05 1.24738e-05
-9.50648e-05 0.000350529 -2.33211e-06
1.24738e-05 -2.33211e-06 0.000232122
0.00160065 -0.000141384 1.38989e-05
-0.000141384 0.000345152 -4.06555e-06
1.38989e-05 -4.06555e-06 0.000220064
0.0017191 -0.00014818 2.36206e-06
-0.00014818 0.000278522 -7.86278e-07
2.36206e-06 -7.86278e-07 0.000135544
0.00395755 0.000152957 0.000107012
0.000152957 0.00200936 -4.59443e-06
0.000107012 -4.59443e-06 0.00199786
0.00126909 -0.00017966 6.63953e-06
-0.00017966 6.86159e-05 -1.97568e-06
6.63953e-06 -1.97568e-06 -8.97177e-05
0.000369725 -6.08828e-05 1.18236e-05
-6.08828e-05 -0.000146771 -1.22831e-05
1.18236e-05 -1.22831e-05 -0.000211526
0.000849582 -0.000167667 8.62239e-06
-0.000167667 2.11723e-05 -6.70809e-06
8.62239e-06 -6.70809e-06 -0.000132371
0.00133343 -0.000223696 9.29051e-06
-0.000223696 0.000161855 -2.37823e-06
9.29051e-06 -2.37823e-06 -1.67711e-05
0.00146466 -0.000244277 4.04159e-06
-0.000244277 0.000120349 4.32671e-07
4.04159e-06 4.32671e-07 -5.98878e-05
0.000441431 -5.77071e-06 6.30619e-06
-5.77071e-06 -8.62896e-05 -9.93752e-06
6.30619e-06 -9.93752e-06 -0.000136718
0.000619815 -2.40978e-05 1.02749e-06
-2.40978e-05 1.91444e-05 -4.40701e-06
1.02749e-06 -4.40701e-06 -8.61751e-05
0.00558928 0.000160875 -0.000227566
0.000160875 0.00292368 -1.75628e-05
-0.000227566 -1.75628e-05 0.00292332
0.00540601 3.01035e-05 -0.000195842
3.01035e-05 0.00282014 -1.3947e-05
-0.000195842 -1.3947e-05 0.00282271
0.000541205 0.00011048 -1.77498e-05
0.00011048 -0.00011992 -9.82163e-06
-1.77498e-05 -9.82163e-06 -0.000202292
0.00384773 -0.000157467 -0.000101943
-0.000157467 0.00194507 -4.25931e-06
-0.000101943 -4.25931e-06 0.00193393
0.000443936 9.5886e-05 -1.55349e-05
9.5886e-05 -0.000117366 -1.30388e-05
-1.55349e-05 -1.30388e-05 -0.000186843
0.000497006 0.000154555 -1.99189e-05
0.000154555 -0.000107519 -1.28686e-05
-1.99189e-05 -1.28686e-05 -0.000196404
0.000901831 0.000165465 -1.05693e-05
0.000165465 4.27976e-05 -5.31729e-06
-1.05693e-05 -5.31729e-06 -0.000110126
0.00340933 -0.000126132 6.67631e-06
-0.000126132 0.00168097 -3.69842e-07
6.67631e-06 -3.69842e-07 0.00167828
0.000531485 -5.56975e-05 1.58416e-07
-5.56975e-05 -1.81022e-05 4.27095e-07
1.58416e-07 4.27095e-07 -5.81858e-05
0.00164624 0.000112949 4.46272e-05
0.000112949 0.000510442 2.71321e-06
4.46272e-05 2.71321e-06 0.000441281
0.00157663 0.000159226 4.26297e-05
0.000159226 0.000503785 2.40942e-06
4.26297e-05 2.40942e-06 0.000426817
0.00100098 0.000141226 1.92635e-07
0.000141226 -1.98483e-07 -1.89299e-07
1.92635e-07 -1.89299e-07 -0.000140122
0.000620543 3.90642e-05 -6.5855e-07
3.90642e-05 5.90273e-06 1.69615e-07
-6.5855e-07 1.69615e-07 -5.13224e-05
0.00094247 0.000166159 4.84635e-07
0.000166159 2.76089e-05 2.89955e-07
4.84635e-07 2.89955e-07 -0.000119521
0.000844958 0.000159904 6.23878e-07
0.000159904 8.42639e-05 -1.05346e-06
6.23878e-07 -1.05346e-06 -7.2337e-05
0.00096227 0.000208669 -5.25124e-07
0.000208669 1.42873e-05 7.66214e-07
-5.25124e-07 7.66214e-07 -0.00017303
0.000655232 8.97732e-07 8.10359e-06
8.97732e-07 4.00044e-05 9.04872e-06
8.10359e-06 9.04872e-06 -7.39741e-06
0.000599469 -6.58536e-05 -6.35694e-07
-6.58536e-05 1.7207e-05 6.27228e-06
-6.35694e-07 6.27228e-06 -1.57157e-05
0.000742342 4.51836e-05 3.12446e-06
4.51836e-05 9.97273e-05 4.26918e-06
3.12446e-06 4.26918e-06 -1.23801e-06
0.00103187 0.000118565 1.27797e-05
0.000118565 4.10569e-07 4.2328e-06
1.27797e-05 4.2328e-06 -0.000134324
0.000962739 0.000156125 1.24961e-05
0.000156125 5.3341e-06 5.80401e-06
1.24961e-05 5.80401e-06 -0.000138313
0.00132955 0.000192917 6.47125e-06
0.000192917 8.55314e-05 1.76219e-06
6.47125e-06 1.76219e-06 -8.22162e-05
0.000910843 0.000153703 6.41936e-06
0.000153703 0.00017615 6.47436e-06
6.41936e-06 6.47436e-06 2.9862e-05
0.00099321 0.000199118 4.90073e-06
0.000199118 -1.80844e-05 2.5217e-06
4.90073e-06 2.5217e-06 -0.000195322
0.000932055 0.000205755 5.1902e-06
0.000205755 8.13035e-05 4.14158e-07
5.1902e-06 4.14158e-07 -0.000122414
0.00168554 0.000280999 4.84789e-07
0.000280999 0.000379498 2.58848e-08
4.84789e-07 2.58848e-08 0.000176469
0.00245282 -0.000108044 3.3603e-05
-0.000108044 0.00110828 2.88743e-06
3.3603e-05 2.88743e-06 0.00111053
0.00255319 -0.000120893 4.30434e-06
-0.000120893 0.00117468 -4.06902e-07
4.30434e-06 -4.06902e-07 0.00117338
0.00273088 -0.000137027 -4.22198e-05
-0.000137027 0.00128619 -2.42638e-06
-4.22198e-05 -2.42638e-06 0.00128031
0.000449223 9.066e-06 4.42679e-06
9.066e-06 -7.77363e-05 -8.43566e-06
4.42679e-06 -8.43566e-06 -0.000122111
0.0036142 0.000137005 9.31097e-05
0.000137005 0.00180288 -3.89711e-06
9.31097e-05 -3.89711e-06 0.00179587
0.00558804 0.000160854 -0.000230403
0.000160854 0.00292403 -1.58543e-05
-0.000230403 -1.58543e-05 0.00292358
0.00547187 5.32521e-05 -0.000212588
5.32521e-05 0.00284633 -6.91531e-06
-0.000212588 -6.91531e-06 0.00285411
0.000641922 8.13028e-05 -1.91058e-05
8.13028e-05 -8.82043e-05 -4.51533e-06
-1.91058e-05 -4.51533e-06 -0.000162076
0.000623986 3.626e-05 -1.88638e-05
3.626e-05 -9.97036e-05 -2.1375e-06
-1.88638e-05 -2.1375e-06 -0.000171426
0.00536021 -2.15297e-05 -0.000207147
-2.15297e-05 0.00278486 -1.06693e-06
-0.000207147 -1.06693e-06 0.00279365
0.00532321 1.77145e-05 -6.61624e-07
1.77145e-05 0.00276494 -2.01797e-07
-6.61624e-07 -2.01797e-07 0.00277323
0.000604557 2.7115e-07 -9.91435e-08
2.7115e-07 -0.000114057 -1.09654e-07
-9.91435e-08 -1.09654e-07 -0.000181922
0.00164399 2.83456e-05 4.55581e-05
2.83456e-05 0.000492963 1.43898e-06
4.55581e-05 1.43898e-06 0.000432896
0.00102667 3.64266e-05 4.5811e-08
3.64266e-05 -2.20144e-05 -1.60494e-07
4.5811e-08 -1.60494e-07 -0.000141318
0.000615061 6.97438e-05 -3.75102e-07
6.97438e-05 -9.93069e-05 -2.48627e-07
-3.75102e-07 -2.48627e-07 -0.000175443
0.00102616 7.91349e-05 -7.29591e-08
7.91349e-05 -1.6012e-05 -1.68216e-07
-7.29591e-08 -1.68216e-07 -0.000142906
0.000597229 -2.47191e-05 1.85478e-05
-2.47191e-05 -0.000119324 -7.35018e-07
1.85478e-05 -7.35018e-07 -0.000185069
0.00102986 1.41806e-05 1.21788e-05
1.41806e-05 -1.88521e-05 3.04766e-07
1.21788e-05 3.04766e-07 -0.000135634
0.00103394 5.53015e-05 1.21747e-05
5.53015e-05 -1.63913e-05 1.86573e-06
1.21747e-05 1.86573e-06 -0.000138714
0.00141633 5.3425e-05 2.80774e-06
5.3425e-05 5.43083e-05 1.07908e-07
2.80774e-06 1.07908e-07 -7.45993e-05
0.00105436 9.73997e-05 1.22706e-05
9.73997e-05 4.94182e-06 3.30042e-06
1.22706e-05 3.30042e-06 -0.000125554
0.00142586 0.000113747 3.24093e-06
0.000113747 7.58587e-05 4.29413e-07
3.24093e-06 4.29413e-07 -6.59762e-05
0.00532376 -4.48233e-05 -0.000212903
-4.48233e-05 0.00276785 2.33778e-07
-0.000212903 2.33778e-07 0.00277449
0.00125451 -0.000120216 -3.33016e-05
-0.000120216 0.000395103 3.45752e-06
-3.33016e-05 3.45752e-06 0.000358232
-0.000243157 -1.31364e-06 -1.31112e-05
-1.31364e-06 -0.000604132 2.15549e-06
-1.31112e-05 2.15549e-06 -0.000682544
0.00164912 -4.29818e-05 -9.36934e-05
-4.29818e-05 0.000505528 5.65659e-06
-9.36934e-05 5.65659e-06 0.000446769
0.00428025 0.000290752 2.60315e-06
0.000290752 0.00224248 4.97726e-06
2.60315e-06 4.97726e-06 0.00219001
0.00255815 -0.000155025 -9.3591e-05
-0.000155025 0.00109953 1.46269e-05
-9.3591e-05 1.46269e-05 0.0010316
0.00164819 -8.23601e-05 -9.20911e-05
-8.23601e-05 0.000515996 1.02075e-05
-9.20911e-05 1.02075e-05 0.000456061
0.00166016 -0.000113107 -2.60198e-05
-0.000113107 0.00036624 5.07383e-06
-2.60198e-05 5.07383e-06 0.000245634
0.00202713 -0.000183902 -2.36964e-05
-0.000183902 0.000611105 7.29326e-06
-2.36964e-05 7.29326e-06 0.000482039
0.00201121 -0.000229227 -2.26495e-05
-0.000229227 0.000650881 8.63371e-06
-2.26495e-05 8.63371e-06 0.000505218
0.00125941 -0.000198143 -6.73146e-06
-0.000198143 8.75076e-05 2.00394e-06
-6.73146e-06 2.00394e-06 -7.88191e-05
0.000600031 8.04609e-06 -6.66715e-08
8.04609e-06 -0.000114762 -1.48265e-08
-6.66715e-08 -1.48265e-08 -0.000181857
0.0015782 -5.98229e-05 -2.81656e-05
-5.98229e-05 0.000468114 3.14135e-07
-2.81656e-05 3.14135e-07 0.000405574
0.00119189 -2.54526e-05 -6.47724e-06
-2.54526e-05 7.99275e-05 3.17534e-07
-6.47724e-06 3.17534e-07 -3.44528e-05
0.00182516 -9.69557e-05 -4.8229e-06
-9.69557e-05 0.000456042 7.07523e-07
-4.8229e-06 7.07523e-07 0.000339144
0.00405354 0.000143293 -4.8873e-06
0.000143293 0.00206367 -6.93336e-07
-4.8873e-06 -6.93336e-07 0.00205375
0.00144838 -5.87426e-05 -1.38594e-06
-5.87426e-05 0.000488768 2.32051e-07
-1.38594e-06 2.32051e-07 0.000415155
0.00131814 -0.000192993 7.43389e-07
-0.000192993 0.000302429 -1.34863e-06
7.43389e-07 -1.34863e-06 0.000149199
0.00162713 -0.000140956 -5.16812e-06
-0.000140956 0.000360253 1.11996e-06
-5.16812e-06 1.11996e-06 0.000235187
0.00152775 -0.000142502 -2.51824e-06
-0.000142502 0.000165129 5.3511e-07
-2.51824e-06 5.3511e-07 2.21993e-05
0.00124615 -0.000218461 4.05813e-07
-0.000218461 0.000109658 -1.0245e-08
4.05813e-07 -1.0245e-08 -6.97624e-05
0.00150196 -0.000190405 3.42887e-07
-0.000190405 0.000201809 -1.43124e-07
3.42887e-07 -1.43124e-07 4.41232e-05
0.00147795 -0.00024393 6.0995e-07
-0.00024393 0.00013214 -8.85152e-10
6.0995e-07 -8.85152e-10 -4.74692e-05
0.000517947 -1.14767e-05 -7.1422e-07
-1.14767e-05 -4.38514e-05 1.48643e-07
-7.1422e-07 1.48643e-07 -9.46252e-05
0.000657267 -4.21451e-05 -5.63902e-07
-4.21451e-05 3.96737e-05 -6.91603e-08
-5.63902e-07 -6.91603e-08 -6.75256e-05
0.00101905 -1.21133e-05 1.20363e-05
-1.21133e-05 -2.23696e-05 -9.08951e-07
1.20363e-05 -9.08951e-07 -0.000138009
0.00165497 -5.72943e-05 1.22052e-05
-5.72943e-05 0.000352501 -1.61776e-06
1.22052e-05 -1.61776e-06 0.000239245
0.00168204 -4.51125e-05 1.90977e-06
-4.51125e-05 0.000226609 -1.28498e-07
1.90977e-06 -1.28498e-07 0.000101613
0.00140124 -0.000111976 3.80077e-06
-0.000111976 7.72647e-05 -4.90197e-07
3.80077e-06 -4.90197e-07 -5.93571e-05
0.00165044 -0.000178439 4.29072e-06
-0.000178439 0.000264602 -1.04162e-06
4.29072e-06 -1.04162e-06 0.000115388
0.00169295 -0.000175835 -6.17698e-07
-0.000175835 0.000150838 4.75083e-07
-6.17698e-07 4.75083e-07 1.25875e-05
0.000389694 -3.50806e-05 9.30542e-06
-3.50806e-05 -0.000124107 -1.11308e-05
9.30542e-06 -1.11308e-05 -0.000180728
0.00153563 -0.000226596 2.26769e-06
-0.000226596 0.000128953 4.18431e-07
2.26769e-06 4.18431e-07 -3.52367e-05
0.000669357 -0.000136895 4.57947e-06
-0.000136895 6.27263e-08 -6.30567e-06
4.57947e-06 -6.30567e-06 -0.000148354
0.000918041 -0.000212304 8.26131e-06
-0.000212304 -2.34176e-05 -4.38507e-06
8.26131e-06 -4.38507e-06 -0.000215497
0.00176388 -0.000288071 3.34015e-06
-0.000288071 0.000335533 9.00936e-09
3.34015e-06 9.00936e-09 0.000135315
0.00181514 -0.000281178 -1.38291e-06
-0.000281178 0.000263969 2.90318e-06
-1.38291e-06 2.90318e-06 9.1912e-05
0.000729119 -8.1718e-05 2.82358e-06
-8.1718e-05 7.94647e-05 -4.22542e-06
2.82358e-06 -4.22542e-06 -4.34929e-05
0.000574527 -1.28447e-05 6.86323e-07
-1.28447e-05 -2.35376e-06 -3.53929e-06
6.86323e-07 -3.53929e-06 -9.57468e-05
0.00100071 -0.000136708 2.73653e-07
-0.000136708 0.00025339 -1.51493e-07
2.73653e-07 -1.51493e-07 9.49652e-05
0.00058192 8.97847e-05 -1.72975e-05
8.97847e-05 -0.000110748 -7.53784e-06
-1.72975e-05 -7.53784e-06 -0.000189628
0.00323263 -0.00014909 -6.91274e-05
-0.00014909 0.00158254 -2.28898e-06
-6.91274e-05 -2.28898e-06 0.00157408
0.000440961 -6.8778e-05 2.3929e-06
-6.8778e-05 -6.49996e-05 -7.40417e-06
2.3929e-06 -7.40417e-06 -0.000107479
0.000503263 0.000135158 -1.86071e-05
0.000135158 -0.000120578 -1.1964e-05
-1.86071e-05 -1.1964e-05 -0.000206964
0.00100619 0.000143839 -1.35982e-05
0.000143839 4.22469e-06 -5.59046e-06
-1.35982e-05 -5.59046e-06 -0.000136486
0.00038694 3.09616e-05 -9.96877e-06
3.09616e-05 -0.000127288 -1.09156e-05
-9.96877e-06 -1.09156e-05 -0.000182952
0.000725308 0.000143983 -6.47735e-06
0.000143983 1.25531e-05 -7.09785e-06
-6.47735e-06 -7.09785e-06 -0.00014141
0.00094682 0.000166549 -1.06367e-05
0.000166549 3.10322e-05 -5.34421e-06
-1.06367e-05 -5.34421e-06 -0.000116104
0.000990823 0.000212705 -7.30285e-06
0.000212705 2.70851e-05 -8.21179e-07
-7.30285e-06 -8.21179e-07 -0.000161538
0.000535408 -9.89875e-06 1.59352e-06
-9.89875e-06 -2.78007e-05 3.9759e-07
1.59352e-06 3.9759e-07 -7.42771e-05
0.000535371 -7.19834e-05 -4.6343e-07
-7.19834e-05 -1.82367e-05 3.0758e-07
-4.6343e-07 3.0758e-07 -5.22068e-05
0.000636475 4.74602e-06 6.45832e-07
4.74602e-06 3.23885e-05 3.47328e-07
6.45832e-07 3.47328e-07 -6.0338e-05
0.00101683 0.000120134 3.83274e-08
0.000120134 -6.76421e-06 -2.49441e-07
3.83274e-08 -2.49441e-07 -0.000142214
0.000979214 0.000158556 4.39644e-07
0.000158556 1.57881e-05 -1.97721e-07
4.39644e-07 -1.97721e-07 -0.000128426
0.00131927 0.0001913 2.14273e-07
0.0001913 8.39612e-05 1.77458e-08
2.14273e-07 1.77458e-08 -8.36809e-05
0.000797794 0.000136585 -4.78037e-07
0.000136585 0.000111953 4.07405e-07
-4.78037e-07 4.07405e-07 -3.17402e-05
0.00114087 0.000209351 -8.21544e-08
0.000209351 6.90806e-05 4.9891e-08
-8.21544e-08 4.9891e-08 -0.000109567
0.00108648 0.00021856 1.20717e-06
0.00021856 0.000170017 -1.83998e-06
1.20717e-06 -1.83998e-06 -3.55331e-05
0.00117215 0.000243921 -9.90333e-07
0.000243921 7.83034e-05 4.0491e-07
-9.90333e-07 4.0491e-07 -0.00011996
0.000577682 -6.70403e-05 -1.12325e-06
-6.70403e-05 -5.44207e-06 5.24357e-06
-1.12325e-06 5.24357e-06 -3.28877e-05
0.000742737 9.52733e-05 4.78959e-06
9.52733e-05 8.85796e-05 4.20495e-06
4.78959e-06 4.20495e-06 -3.15407e-05
0.000692539 -1.42266e-05 8.23971e-07
-1.42266e-05 6.05847e-05 3.88345e-06
8.23971e-07 3.88345e-06 -1.14382e-05
0.000807712 9.60959e-05 1.15068e-06
9.60959e-05 0.000159531 6.01208e-07
1.15068e-06 6.01208e-07 1.44211e-05
0.00135912 0.00016815 5.30934e-06
0.00016815 7.14894e-05 9.51432e-07
5.30934e-06 9.51432e-07 -8.73569e-05
0.00124388 0.000207745 6.96677e-06
0.000207745 7.91453e-05 2.2783e-06
6.96677e-06 2.2783e-06 -9.58671e-05
0.0016126 0.000252033 1.36675e-06
0.000252033 0.000161844 4.34811e-08
1.36675e-06 4.34811e-08 -1.50742e-05
0.00109616 0.000191822 3.00097e-06
0.000191822 0.000252038 4.2887e-06
3.00097e-06 4.2887e-06 6.0669e-05
0.00143072 0.000262307 4.82008e-07
0.000262307 0.000174187 2.85409e-07
4.82008e-07 2.85409e-07 -1.84032e-05
0.0016718 0.00029052 3.45238e-06
0.00029052 0.000446575 -1.86873e-06
3.45238e-06 -1.86873e-06 0.000210055
0.00172389 0.000285945 5.67292e-07
0.000285945 0.000331511 1.45682e-07
5.67292e-07 1.45682e-07 0.000128894
0.000649588 -3.03873e-06 2.0664e-06
-3.03873e-06 1.46602e-05 2.18448e-06
2.0664e-06 2.18448e-06 -3.23851e-05
0.000569797 -4.48433e-05 6.82729e-07
-4.48433e-05 -3.32198e-05 4.42072e-06
6.82729e-07 4.42072e-06 -5.13003e-05
0.0023553 -9.41293e-05 2.87156e-05
-9.41293e-05 0.00104245 3.30576e-06
2.87156e-05 3.30576e-06 0.00104818
0.00239967 -0.000105904 2.89427e-06
-0.000105904 0.00107657 -2.90487e-07
2.89427e-06 -2.90487e-07 0.00107923
0.00247158 -0.000118568 -3.57201e-05
-0.000118568 0.00112691 -2.66928e-06
-3.57201e-05 -2.66928e-06 0.00112601
0.000468126 1.58786e-05 3.37755e-06
1.58786e-05 -6.84029e-05 -7.00915e-06
3.37755e-06 -7.00915e-06 -0.000105311
0.00326138 0.000126043 7.60287e-05
0.000126043 0.00159199 -3.39957e-06
7.60287e-05 -3.39957e-06 0.00158793
0.000536055 6.97226e-06 -3.29998e-07
6.97226e-06 -2.894e-05 1.46429e-07
-3.29998e-07 1.46429e-07 -7.36261e-05
0.00371222 0.000127515 -3.53952e-06
0.000127515 0.00185756 -4.93363e-07
-3.53952e-06 -4.93363e-07 0.00185276
0.000636115 9.255e-05 -1.88066e-05
9.255e-05 -8.5589e-05 -5.94858e-06
-1.88066e-05 -5.94858e-06 -0.00016296
0.000639009 3.18436e-05 -1.82006e-05
3.18436e-05 -9.33682e-05 -3.12826e-06
-1.82006e-05 -3.12826e-06 -0.000165001
0.00101123 8.05918e-05 -1.19036e-05
8.05918e-05 -2.41121e-05 -2.81431e-06
-1.19036e-05 -2.81431e-06 -0.000151395
0.00101043 3.84277e-05 -1.23649e-05
3.84277e-05 -3.14012e-05 -1.41781e-06
-1.23649e-05 -1.41781e-06 -0.000150918
0.000654062 -5.77854e-06 -1.88402e-05
-5.77854e-06 -8.89092e-05 -6.73824e-07
-1.88402e-05 -6.73824e-07 -0.00015484
0.0053845 -9.54261e-05 -0.000220471
-9.54261e-05 0.00280874 3.23616e-06
-0.000220471 3.23616e-06 0.00281244
0.000636943 -4.69715e-07 1.35987e-07
-4.69715e-07 -9.72628e-05 -3.5993e-07
1.35987e-07 -3.5993e-07 -0.000162802
0.00102307 1.88056e-05 -4.82546e-08
1.88056e-05 -2.24729e-05 -1.30862e-07
-4.82546e-08 -1.30862e-07 -0.000139412
0.00103131 5.688e-05 -5.36495e-08
5.688e-05 -1.78306e-05 -1.16788e-07
-5.36495e-08 -1.16788e-07 -0.000140437
0.00141525 5.27003e-05 -5.27656e-08
5.27003e-05 5.41818e-05 3.62796e-08
-5.27656e-08 3.62796e-08 -7.4836e-05
0.00102545 9.9264e-05 -1.05364e-07
9.9264e-05 -1.03235e-05 -2.07553e-07
-1.05364e-07 -2.07553e-07 -0.000141577
0.00141491 0.000115036 -8.80525e-09
0.000115036 6.94826e-05 -4.45109e-08
-8.80525e-09 -4.45109e-08 -7.28678e-05
0.00102552 -2.00643e-07 1.20849e-05
-2.00643e-07 -1.90136e-05 -2.5902e-07
1.20849e-05 -2.5902e-07 -0.000134681
0.00141899 3.00631e-05 2.93473e-06
3.00631e-05 5.84515e-05 9.94066e-11
2.93473e-06 9.94066e-11 -6.70289e-05
0.00142016 8.45216e-05 2.8723e-06
8.45216e-05 6.11925e-05 1.77262e-07
2.8723e-06 1.77262e-07 -7.35746e-05
0.00172764 7.6921e-05 -1.38626e-06
7.6921e-05 9.41957e-05 -4.26883e-07
-1.38626e-06 -4.26883e-07 -1.58331e-05
0.00141178 0.000142989 3.88381e-06
0.000142989 8.0514e-05 6.68555e-07
3.88381e-06 6.68555e-07 -6.96345e-05
0.00171014 0.000153035 -5.76808e-07
0.000153035 0.000115413 -1.00862e-06
-5.76808e-07 -1.00862e-06 -1.4966e-05
0.000618623 2.82018e-06 -1.79409e-05
2.82018e-06 -0.000102539 9.91068e-07
-1.79409e-05 9.91068e-07 -0.000170947
0.00164951 -2.14945e-05 -9.37025e-05
-2.14945e-05 0.000504253 3.67833e-06
-9.37025e-05 3.67833e-06 0.000447347
0.00073553 -2.00157e-05 -1.3985e-05
-2.00157e-05 -0.000185947 1.71209e-06
-1.3985e-05 1.71209e-06 -0.000304739
0.00200043 -9.76524e-05 -2.29512e-05
-9.76524e-05 0.00055583 3.60458e-06
-2.29512e-05 3.60458e-06 0.000440613
0.00421345 0.000123189 -0.000133054
0.000123189 0.00215253 6.99382e-06
-0.000133054 6.99382e-06 0.00214616
0.00251124 -9.36363e-05 -8.22254e-05
-9.36363e-05 0.00109961 1.12209e-05
-8.22254e-05 1.12209e-05 0.00103948
0.00193861 -0.000234124 -1.81005e-05
-0.000234124 0.000668956 7.40051e-06
-1.81005e-05 7.40051e-06 0.000513758
0.00163505 -0.000139465 -2.38052e-05
-0.000139465 0.000364237 5.99975e-06
-2.38052e-05 5.99975e-06 0.000239458
0.00133251 -0.000136575 -6.14479e-06
-0.000136575 4.94348e-05 1.35509e-06
-6.14479e-06 1.35509e-06 -9.34203e-05
0.0017397 -0.000201532 -7.3404e-06
-0.000201532 0.000337902 2.0485e-06
-7.3404e-06 2.0485e-06 0.000180818
0.00114614 -0.000212275 -7.60311e-06
-0.000212275 5.00851e-05 2.20502e-06
-7.60311e-06 2.20502e-06 -0.000129987
0.00148879 -0.000243579 -2.66441e-06
-0.000243579 0.000141931 -4.73921e-07
-2.66441e-06 -4.73921e-07 -3.70628e-05
0.000610276 -2.06653e-05 -8.52119e-06
-2.06653e-05 8.62491e-06 9.88059e-06
-8.52119e-06 9.88059e-06 -4.3179e-05
0.000727863 -6.14896e-05 -2.41802e-06
-6.14896e-05 8.17389e-05 3.39829e-06
-2.41802e-06 3.39829e-06 -2.86653e-05
0.000877007 -7.67702e-06 -3.38494e-07
-7.67702e-06 -0.000104813 -1.1541e-07
-3.38494e-07 -1.1541e-07 -0.000221392
0.00165833 -5.82026e-05 -5.36178e-06
-5.82026e-05 0.000353321 5.4058e-07
-5.36178e-06 5.4058e-07 0.00024012
0.00170168 -4.156e-05 -2.30035e-06
-4.156e-05 0.000234487 2.75531e-07
-2.30035e-06 2.75531e-07 0.000111538
0.00154474 -0.000114401 -1.12062e-08
-0.000114401 0.000160875 4.94704e-08
-1.12062e-08 4.94704e-08 2.40789e-05
0.000537123 -4.62076e-05 -4.06289e-08
-4.62076e-05 -4.0864e-05 3.18134e-07
-4.06289e-08 3.18134e-07 -9.90821e-05
0.000854909 -0.000160251 -5.91971e-07
-0.000160251 0.000104601 -1.26406e-07
-5.91971e-07 -1.26406e-07 -4.71875e-05
0.00098032 -0.000216343 1.65039e-06
-0.000216343 1.30726e-05 -1.23497e-06
1.65039e-06 -1.23497e-06 -0.000179054
0.00168423 -0.000177593 -2.33507e-06
-0.000177593 0.000282895 6.00195e-07
-2.33507e-06 6.00195e-07 0.000133307
0.00174128 -0.000178391 2.58625e-07
-0.000178391 0.000173548 5.23487e-08
2.58625e-07 5.23487e-08 3.81345e-05
0.00169176 -0.000285606 -2.01966e-06
-0.000285606 0.000296282 1.7131e-07
-2.01966e-06 1.7131e-07 9.52763e-05
0.00153771 -0.00022637 4.17105e-07
-0.00022637 0.000130553 -7.85146e-08
4.17105e-07 -7.85146e-08 -3.32549e-05
0.00177582 -0.000280881 6.05331e-07
-0.000280881 0.00023662 5.524e-07
6.05331e-07 5.524e-07 6.43948e-05
0.000723718 -9.37349e-05 -1.32526e-07
-9.37349e-05 7.62793e-05 -1.94015e-07
-1.32526e-07 -1.94015e-07 -4.83476e-05
0.000619869 -8.4116e-05 -6.45225e-07
-8.4116e-05 2.05532e-05 -7.01257e-07
-6.45225e-07 -7.01257e-07 -0.000125887
0.000666608 -2.42893e-05 1.39972e-07
-2.42893e-05 4.97202e-05 2.3972e-07
1.39972e-07 2.3972e-07 -4.4342e-05
0.00167297 -1.69907e-05 1.51713e-06
-1.69907e-05 0.000213764 -1.06616e-07
1.51713e-06 -1.06616e-07 9.1121e-05
0.00171176 -7.53249e-05 1.47977e-06
-7.53249e-05 0.000242319 2.06565e-07
1.47977e-06 2.06565e-07 0.00011564
0.00165744 -6.04247e-05 -1.58024e-06
-6.04247e-05 7.62612e-05 9.17876e-07
-1.58024e-06 9.17876e-07 -3.41456e-05
0.00167256 -0.000144772 -2.13747e-06
-0.000144772 0.000104771 1.09513e-06
-2.13747e-06 1.09513e-06 -2.21305e-05
0.00155391 -0.000205803 6.17546e-07
-0.000205803 0.000104994 1.3008e-06
6.17546e-07 1.3008e-06 -4.30656e-05
0.00176652 -0.000200503 -2.03809e-06
-0.000200503 0.000123378 1.29777e-06
-2.03809e-06 1.29777e-06 7.63937e-06
0.000673001 -0.000117279 3.78017e-06
-0.000117279 3.97953e-05 -4.41709e-06
3.78017e-06 -4.41709e-06 -9.68959e-05
0.00164954 -0.000260421 -1.7242e-06
-0.000260421 0.00012275 1.89425e-06
-1.7242e-06 1.89425e-06 -2.99903e-05
0.000995922 -0.000210129 2.36701e-06
-0.000210129 0.000130882 -4.72616e-06
2.36701e-06 -4.72616e-06 -6.104e-05
0.00124796 -0.000273446 6.29112e-06
-0.000273446 0.000109567 -2.54617e-06
6.29112e-06 -2.54617e-06 -0.000109372
0.00183243 -0.000319283 1.22593e-06
-0.000319283 0.000322755 2.85509e-06
1.22593e-06 2.85509e-06 0.000116622
0.00192949 -0.000307484 -2.92942e-06
-0.000307484 0.000287408 3.75512e-06
-2.92942e-06 3.75512e-06 0.000126941
0.000614396 -1.56542e-05 8.7377e-07
-1.56542e-05 1.7773e-05 -3.10733e-06
8.7377e-07 -3.10733e-06 -6.34166e-05
0.00079839 -0.00013561 1.33057e-06
-0.00013561 0.000102464 3.27567e-07
1.33057e-06 3.27567e-07 -4.84481e-05
0.000552458 -6.82016e-05 -2.34133e-07
-6.82016e-05 4.85213e-06 -5.54914e-07
-2.34133e-07 -5.54914e-07 -0.000139147
0.00122625 -0.000197012 -1.71796e-06
-0.000197012 0.000363843 1.84026e-06
-1.71796e-06 1.84026e-06 0.00019227
0.00100009 0.000121936 -1.32312e-05
0.000121936 -1.50074e-05 -4.65623e-06
-1.32312e-05 -4.65623e-06 -0.000151185
0.000481402 -7.30992e-05 9.49669e-07
-7.30992e-05 -5.00277e-05 -5.63591e-06
9.49669e-07 -5.63591e-06 -8.36732e-05
0.000419291 -2.739e-05 -2.23803e-06
-2.739e-05 -9.10203e-05 -9.11134e-06
-2.23803e-06 -9.11134e-06 -0.000137784
0.000584757 -2.80975e-05 7.65435e-07
-2.80975e-05 6.00692e-06 -4.40655e-06
7.65435e-07 -4.40655e-06 -8.56066e-05
0.000998655 0.000161501 -1.24324e-05
0.000161501 2.79019e-05 -6.37772e-06
-1.24324e-05 -6.37772e-06 -0.000116974
0.00131679 0.00019004 -6.1856e-06
0.00019004 8.68838e-05 -1.73704e-06
-6.1856e-06 -1.73704e-06 -8.06631e-05
0.000658826 0.000115175 -4.28818e-06
0.000115175 3.184e-05 -4.57032e-06
-4.28818e-06 -4.57032e-06 -0.000108479
0.00137167 0.000241837 -5.51177e-06
0.000241837 0.000335497 -4.6608e-06
-5.51177e-06 -4.6608e-06 0.00012697
0.00130563 0.000220634 -5.67709e-06
0.000220634 0.000166598 -2.4905e-06
-5.67709e-06 -2.4905e-06 -1.35802e-05
0.000647539 0.000205871 -4.15344e-06
0.000205871 -0.000228504 2.04995e-06
-4.15344e-06 2.04995e-06 -0.000421987
0.00054897 -6.31607e-05 -1.77645e-07
-6.31607e-05 -2.43296e-05 1.10589e-07
-1.77645e-07 1.10589e-07 -5.05573e-05
0.000742993 8.3776e-05 3.38127e-07
8.3776e-05 9.4733e-05 -2.58376e-07
3.38127e-07 -2.58376e-07 -2.70723e-05
0.000617349 -3.00295e-05 -6.07303e-07
-3.00295e-05 1.9759e-05 6.92706e-07
-6.07303e-07 6.92706e-07 -5.25126e-05
0.000777718 6.4369e-05 1.04359e-06
6.4369e-05 0.000138999 -6.66383e-07
1.04359e-06 -6.66383e-07 -8.4535e-07
0.00137099 0.000168147 4.02447e-07
0.000168147 8.12628e-05 -1.90966e-07
4.02447e-07 -1.90966e-07 -7.77245e-05
0.00126519 0.000208702 2.35005e-07
0.000208702 9.63375e-05 -1.18872e-08
2.35005e-07 -1.18872e-08 -7.89118e-05
0.00161293 0.000252419 2.4297e-07
0.000252419 0.000160914 1.94521e-07
2.4297e-07 1.94521e-07 -1.63241e-05
0.0010255 0.000188194 9.3683e-07
0.000188194 0.000215506 5.88334e-07
9.3683e-07 5.88334e-07 2.51477e-05
0.00159325 0.000271416 -9.88176e-07
0.000271416 0.00027393 -3.12684e-07
-9.88176e-07 -3.12684e-07 8.05897e-05
0.00119329 0.000251274 4.93098e-07
0.000251274 0.000170441 -2.72648e-06
4.93098e-07 -2.72648e-06 -6.32016e-05
0.00152972 0.000272162 -2.32587e-06
0.000272162 0.000223948 3.18327e-07
-2.32587e-06 3.18327e-07 2.28253e-05
0.000562569 -5.42236e-05 4.41925e-07
-5.42236e-05 -2.82496e-05 4.5701e-06
4.41925e-07 4.5701e-06 -4.97161e-05
0.000684332 -1.85032e-05 1.32409e-06
-1.85032e-05 4.76834e-05 2.85719e-06
1.32409e-06 2.85719e-06 -1.07426e-05
0.00097743 0.000146417 1.85939e-06
0.000146417 0.000222098 2.0482e-06
1.85939e-06 2.0482e-06 6.11998e-05
0.000785226 5.65052e-05 -5.00722e-07
5.65052e-05 0.000151662 2.48157e-06
-5.00722e-07 2.48157e-06 2.89459e-05
0.00108377 0.000141999 1.38243e-08
0.000141999 0.0003186 -8.96185e-07
1.38243e-08 -8.96185e-07 0.000151667
0.00167239 0.00022154 1.17449e-06
0.00022154 0.000152777 -1.24506e-06
1.17449e-06 -1.24506e-06 -7.58416e-06
0.00151308 0.000269461 1.36492e-06
0.000269461 0.000161093 6.43036e-07
1.36492e-06 6.43036e-07 -2.82233e-05
0.00176739 0.000290883 3.34802e-07
0.000290883 0.000203269 -2.92196e-07
3.34802e-07 -2.92196e-07 3.12831e-05
0.00142641 0.000256515 2.57739e-06
0.000256515 0.0004176 4.85748e-06
2.57739e-06 4.85748e-06 0.000186146
0.00175116 0.000317512 1.9175e-06
0.000317512 0.00030963 1.49408e-07
1.9175e-06 1.49408e-07 0.000107872
0.000799255 0.000228458 2.66581e-06
0.000228458 -0.000127724 -2.05192e-06
2.66581e-06 -2.05192e-06 -0.000351065
0.000645586 -7.1444e-06 2.40809e-06
-7.1444e-06 1.36404e-05 2.19546e-06
2.40809e-06 2.19546e-06 -3.49202e-05
0.00069629 3.85852e-05 2.21689e-07
3.85852e-05 6.96873e-05 9.86986e-07
2.21689e-07 9.86986e-07 -9.60977e-06
0.000664422 6.76556e-06 1.80142e-06
6.76556e-06 2.44788e-05 2.15036e-06
1.80142e-06 2.15036e-06 -2.20948e-05
0.00064094 -2.13281e-05 -4.74927e-07
-2.13281e-05 1.15445e-05 1.37809e-08
-4.74927e-07 1.37809e-08 -3.65204e-05
0.00125614 -5.16281e-05 1.01816e-06
-5.16281e-05 0.00036602 2.58301e-06
1.01816e-06 2.58301e-06 0.00035367
0.000931623 -5.17545e-05 6.34852e-07
-5.17545e-05 0.000180139 -7.65294e-08
6.34852e-07 -7.65294e-08 0.000163845
0.000905935 -4.83573e-05 2.38825e-05
-4.83573e-05 0.000176082 7.19758e-06
2.38825e-05 7.19758e-06 0.00017889
0.00231741 -9.19864e-05 2.95272e-06
-9.19864e-05 0.00101916 -2.57569e-07
2.95272e-06 -2.57569e-07 0.00102537
0.00233984 -0.000103 -3.23734e-05
-0.000103 0.00104068 -3.04625e-06
-3.23734e-05 -3.04625e-06 0.00104397
0.000495912 3.66864e-05 -3.74105e-08
3.66864e-05 -5.35839e-05 -5.92028e-06
-3.74105e-08 -5.92028e-06 -8.53807e-05
0.00295082 0.000124682 4.96176e-05
0.000124682 0.00140517 -3.07133e-06
4.96176e-05 -3.07133e-06 0.00140188
0.000543803 1.49481e-05 -2.7425e-07
1.49481e-05 -2.49283e-05 2.28913e-07
-2.7425e-07 2.28913e-07 -6.23156e-05
0.00338566 0.00011762 -4.37375e-06
0.00011762 0.00166219 -3.89572e-07
-4.37375e-06 -3.89572e-07 0.00166024
0.000609866 4.27434e-06 -5.18343e-06
4.27434e-06 1.22e-05 8.63135e-06
-5.18343e-06 8.63135e-06 -3.29033e-05
0.0038 0.000116134 -0.00011488
0.000116134 0.00190604 5.53033e-06
-0.00011488 5.53033e-06 0.0019036
0.00100449 0.000101252 -1.24359e-05
0.000101252 -2.12879e-05 -3.65036e-06
-1.24359e-05 -3.65036e-06 -0.000153221
0.0010171 6.06004e-05 -1.20975e-05
6.06004e-05 -2.5249e-05 -2.08236e-06
-1.20975e-05 -2.08236e-06 -0.000148356
0.00141599 0.000113144 -3.78755e-06
0.000113144 7.01237e-05 -5.63182e-07
-3.78755e-06 -5.63182e-07 -7.23352e-05
0.00141348 5.2163e-05 -3.12389e-06
5.2163e-05 5.38952e-05 -5.4733e-09
-3.12389e-06 -5.4733e-09 -7.52434e-05
0.00102025 2.22825e-05 -1.22768e-05
2.22825e-05 -2.39505e-05 -6.1579e-07
-1.22768e-05 -6.1579e-07 -0.000141049
0.00060478 2.44775e-05 -1.85134e-05
2.44775e-05 -0.000115267 1.76419e-08
-1.85134e-05 1.76419e-08 -0.000180878
0.00102212 2.1234e-06 1.22297e-08
2.1234e-06 -2.09813e-05 -3.39333e-08
1.22297e-08 -3.39333e-08 -0.000136685
0.00140812 3.17735e-05 -7.16682e-08
3.17735e-05 5.19575e-05 1.25305e-08
-7.16682e-08 1.25305e-08 -7.36532e-05
0.00142102 8.20429e-05 2.74486e-08
8.20429e-05 6.28713e-05 -4.86022e-08
2.74486e-08 -4.86022e-08 -7.18706e-05
0.00176407 7.73145e-05 -4.72977e-08
7.73145e-05 0.000111576 3.19685e-07
-4.72977e-08 3.19685e-07 3.75025e-06
0.00140527 0.000142625 -1.8511e-07
0.000142625 7.84706e-05 -6.12281e-08
-1.8511e-07 -6.12281e-08 -7.18867e-05
0.00171147 0.000151 -2.39573e-07
0.000151 0.00012042 6.72148e-08
-2.39573e-07 6.72148e-08 -9.91108e-06
0.00140829 7.25985e-06 3.15239e-06
7.25985e-06 5.50221e-05 8.19255e-09
3.15239e-06 8.19255e-09 -6.91405e-05
0.0017602 4.46677e-05 -2.16587e-06
4.46677e-05 0.000111064 2.23448e-07
-2.16587e-06 2.23448e-07 9.28588e-06
0.00172748 0.000120903 -1.16782e-06
0.000120903 0.00010086 -9.30248e-07
-1.16782e-06 -9.30248e-07 -1.83409e-05
0.00181625 8.18729e-05 -1.56676e-07
8.18729e-05 7.76295e-05 1.32144e-07
-1.56676e-07 1.32144e-07 -8.72256e-06
0.00169936 0.000182781 -1.90117e-07
0.000182781 0.00014131 -1.12534e-06
-1.90117e-07 -1.12534e-06 -2.08735e-06
0.00171451 0.000173922 -2.23476e-06
0.000173922 6.02632e-05 -1.12238e-06
-2.23476e-06 -1.12238e-06 -4.51978e-05
0.000730238 -4.686e-06 -1.1932e-05
-4.686e-06 -0.000189727 6.01682e-07
-1.1932e-05 6.01682e-07 -0.000307308
0.00168789 -6.06024e-05 -2.26942e-05
-6.06024e-05 0.000369195 2.66706e-06
-2.26942e-05 2.66706e-06 0.000256036
0.00172999 -3.53338e-05 -6.44465e-06
-3.53338e-05 0.000247415 3.49242e-07
-6.44465e-06 3.49242e-07 0.000126715
0.00168917 -0.000117113 -4.71679e-06
-0.000117113 0.000245038 9.44581e-07
-4.71679e-06 9.44581e-07 0.000108048
0.000709749 -6.01725e-05 -1.19761e-05
-6.01725e-05 5.81689e-05 1.17235e-05
-1.19761e-05 1.17235e-05 -2.9435e-06
0.000860319 -0.000169018 -7.28263e-06
-0.000169018 0.000107455 6.67925e-06
-7.28263e-06 6.67925e-06 -4.58089e-05
0.00113123 -0.000228127 -5.20877e-06
-0.000228127 0.000100726 1.75942e-06
-5.20877e-06 1.75942e-06 -9.26517e-05
0.00171643 -0.000176583 -8.09023e-06
-0.000176583 0.000300237 2.20656e-06
-8.09023e-06 2.20656e-06 0.0001503
0.00178678 -0.000180727 1.39181e-07
-0.000180727 0.000194614 -7.77353e-07
1.39181e-07 -7.77353e-07 6.20729e-05
0.00154063 -0.000226215 -1.77064e-06
-0.000226215 0.000132436 -4.85579e-07
-1.77064e-06 -4.85579e-07 -3.09962e-05
0.00161578 -0.000282369 -5.37895e-06
-0.000282369 0.000255606 -1.12809e-07
-5.37895e-06 -1.12809e-07 5.39539e-05
0.00174238 -0.000280336 2.98021e-06
-0.000280336 0.00021283 -2.52286e-06
2.98021e-06 -2.52286e-06 4.05626e-05
0.00072768 -0.000101219 -3.97973e-06
-0.000101219 7.51448e-05 4.03152e-06
-3.97973e-06 4.03152e-06 -4.91346e-05
0.000520244 -7.27285e-05 -1.29346e-06
-7.27285e-05 -3.61995e-05 -7.9439e-07
-1.29346e-06 -7.9439e-07 -0.000182055
0.000710775 -3.22178e-05 -1.01477e-06
-3.22178e-05 7.46227e-05 3.57472e-06
-1.01477e-06 3.57472e-06 -2.04823e-05
0.00154895 -1.48059e-05 -2.35315e-06
-1.48059e-05 0.000140227 1.09473e-07
-2.35315e-06 1.09473e-07 1.66916e-05
0.00171544 -8.25337e-05 -2.5548e-06
-8.25337e-05 0.000244261 4.32355e-07
-2.5548e-06 4.32355e-07 0.000116925
0.00168686 -5.69878e-05 8.58552e-07
-5.69878e-05 9.278e-05 5.28924e-07
8.58552e-07 5.28924e-07 -1.33341e-05
0.00168966 -0.000142022 -1.38655e-06
-0.000142022 0.000112891 3.95301e-07
-1.38655e-06 3.95301e-07 -1.45278e-05
0.000753511 -0.00013307 4.39207e-07
-0.00013307 8.70043e-05 3.30527e-07
4.39207e-07 3.30527e-07 -5.21772e-05
0.00110797 -0.000220332 -1.28702e-06
-0.000220332 0.000189459 -1.06977e-07
-1.28702e-06 -1.06977e-07 -3.21141e-06
0.00112839 -0.000259021 1.63926e-06
-0.000259021 4.64617e-05 -5.63003e-07
1.63926e-06 -5.63003e-07 -0.000169661
0.00157614 -0.000206167 -5.46999e-07
-0.000206167 0.00011928 4.54799e-07
-5.46999e-07 4.54799e-07 -3.11663e-05
0.00181044 -0.000201549 1.49024e-06
-0.000201549 0.000151491 1.76214e-07
1.49024e-06 1.76214e-07 3.98766e-05
0.00174004 -0.000318401 -7.60109e-07
-0.000318401 0.000266581 5.47008e-07
-7.60109e-07 5.47008e-07 5.81382e-05
0.00168124 -0.000260941 1.24749e-07
-0.000260941 0.000141211 3.04916e-07
1.24749e-07 3.04916e-07 -1.11779e-05
0.00196956 -0.000307241 1.67377e-06
-0.000307241 0.000311781 -4.15179e-07
1.67377e-06 -4.15179e-07 0.000154003
0.000959158 -0.000158583 2.75267e-07
-0.000158583 0.000199865 5.65712e-07
2.75267e-07 5.65712e-07 4.36139e-05
0.00110321 -0.000194074 -3.47064e-07
-0.000194074 0.000298297 1.22548e-07
-3.47064e-07 1.22548e-07 0.000124455
0.000650068 -2.20133e-05 9.59508e-08
-2.20133e-05 3.80474e-05 1.82948e-07
9.59508e-08 1.82948e-07 -4.39481e-05
0.000423702 -3.09234e-05 -2.20204e-07
-3.09234e-05 -7.90661e-05 -5.56274e-07
-2.20204e-07 -5.56274e-07 -0.000214153
0.00170888 -3.35866e-05 -1.60323e-06
-3.35866e-05 0.00010022 1.66094e-08
-1.60323e-06 1.66094e-08 -5.16861e-06
0.00183957 -9.68496e-05 -8.51004e-07
-9.68496e-05 0.000181698 1.23712e-06
-8.51004e-07 1.23712e-06 6.76991e-05
0.00163617 -6.90692e-05 8.33747e-07
-6.90692e-05 -1.64102e-06 -9.15126e-09
8.33747e-07 -9.15126e-09 -8.98313e-05
0.00175691 -0.000169655 -3.78355e-06
-0.000169655 7.91154e-05 8.98375e-07
-3.78355e-06 8.98375e-07 -1.63598e-05
0.00171401 -0.000231944 -3.50401e-06
-0.000231944 0.000124912 2.77631e-06
-3.50401e-06 2.77631e-06 -4.94355e-06
0.00193547 -0.000203769 1.65131e-06
-0.000203769 0.000200851 -3.51746e-07
1.65131e-06 -3.51746e-07 0.000106156
0.00090061 -0.000185032 1.0264e-06
-0.000185032 0.000139414 -2.49034e-06
1.0264e-06 -2.49034e-06 -3.21621e-05
0.00162322 -0.000275998 -4.08528e-06
-0.000275998 7.38806e-05 2.8342e-06
-4.08528e-06 2.8342e-06 -5.6847e-05
0.00107326 -0.000246403 2.69282e-06
-0.000246403 0.000124684 -4.95335e-06
2.69282e-06 -4.95335e-06 -9.36101e-05
0.00163313 -0.000338751 3.14262e-06
-0.000338751 0.000283054 3.62817e-07
3.14262e-06 3.62817e-07 4.14456e-05
0.00169494 -0.000330674 7.09555e-07
-0.000330674 0.000195378 5.23991e-06
7.09555e-07 5.23991e-06 -1.05782e-05
0.00193191 -0.000297786 3.32636e-07
-0.000297786 0.000275143 1.21402e-06
3.32636e-07 1.21402e-06 0.000123692
0.000578592 -2.29049e-05 1.19242e-06
-2.29049e-05 -4.80718e-06 -2.94488e-06
1.19242e-06 -2.94488e-06 -7.65392e-05
0.000500585 -2.7645e-05 -9.15419e-07
-2.7645e-05 -2.43906e-05 -1.51897e-06
-9.15419e-07 -1.51897e-06 -0.000151429
0.000861206 -0.000190956 -3.98363e-07
-0.000190956 0.000125521 1.19685e-06
-3.98363e-07 1.19685e-06 -4.50493e-05
0.000822675 -0.000136466 7.92997e-07
-0.000136466 0.000170138 1.45489e-06
7.92997e-07 1.45489e-06 2.43597e-06
0.00134919 -0.000235158 -2.63222e-06
-0.000235158 0.000429269 3.48441e-06
-2.63222e-06 3.48441e-06 0.000252723
0.000527263 -5.85874e-05 -7.758e-07
-5.85874e-05 -3.90528e-05 -4.67354e-06
-7.758e-07 -4.67354e-06 -6.40677e-05
0.00137903 0.000167871 -4.75005e-06
0.000167871 8.9282e-05 -1.37721e-06
-4.75005e-06 -1.37721e-06 -6.98261e-05
0.000530926 -4.60531e-05 -2.02399e-07
-4.60531e-05 -2.65448e-05 -3.15446e-06
-2.02399e-07 -3.15446e-06 -9.98314e-05
0.000741247 6.07958e-05 -1.67883e-06
6.07958e-05 9.07613e-05 -4.22449e-06
-1.67883e-06 -4.22449e-06 -2.60549e-05
0.000737999 3.21088e-05 1.60842e-06
3.21088e-05 0.000111869 -1.71811e-06
1.60842e-06 -1.71811e-06 -2.20285e-05
0.00127686 0.000209346 -6.56291e-06
0.000209346 0.00010739 -2.29169e-06
-6.56291e-06 -2.29169e-06 -6.81488e-05
0.00161829 0.000253175 -1.64903e-07
0.000253175 0.000162718 5.06866e-07
-1.64903e-07 5.06866e-07 -1.48844e-05
0.000972973 0.000189888 -1.84806e-06
0.000189888 0.000188497 -3.51568e-06
-1.84806e-06 -3.51568e-06 -3.09316e-06
0.000776607 0.000218249 -2.03915e-06
0.000218249 -7.08838e-05 -2.54192e-06
-2.03915e-06 -2.54192e-06 -0.000302435
0.00175098 0.000280741 -2.93504e-06
0.000280741 0.00036967 -1.45593e-06
-2.93504e-06 -1.45593e-06 0.0001755
0.00140535 0.000264182 -5.62493e-06
0.000264182 0.000155427 1.0519e-06
-5.62493e-06 1.0519e-06 -4.49688e-05
0.00056314 -5.16076e-05 4.73948e-08
-5.16076e-05 -2.92658e-05 1.51218e-09
4.73948e-08 1.51218e-09 -5.01142e-05
0.000636681 -2.69755e-05 -6.3612e-07
-2.69755e-05 2.20535e-05 3.09436e-07
-6.3612e-07 3.09436e-07 -3.67223e-05
0.000929273 0.000142234 1.10849e-07
0.000142234 0.000194123 7.79873e-07
1.10849e-07 7.79873e-07 3.44021e-05
0.000714341 6.59878e-06 -4.59332e-07
6.59878e-06 0.000104509 3.65639e-07
-4.59332e-07 3.65639e-07 -1.08906e-05
0.000665764 9.84969e-05 7.13585e-07
9.84969e-05 6.76661e-05 -5.41824e-07
7.13585e-07 -5.41824e-07 -9.13402e-05
0.00166422 0.000222478 7.79694e-08
0.000222478 0.000145556 -6.77466e-07
7.79694e-08 -6.77466e-07 -1.53259e-05
0.00151291 0.000269061 5.974e-07
0.000269061 0.000161411 3.05652e-07
5.974e-07 3.05652e-07 -2.79913e-05
0.00169493 0.000288343 1.67683e-06
0.000288343 0.000161495 2.40795e-07
1.67683e-06 2.40795e-07 -1.09781e-05
0.00119308 0.000235736 8.60486e-07
0.000235736 0.000290602 1.60992e-06
8.60486e-07 1.60992e-06 5.9237e-05
0.00176234 0.000318865 3.89894e-07
0.000318865 0.000305838 1.14991e-07
3.89894e-07 1.14991e-07 0.000103252
0.00117317 0.000258667 -1.93841e-06
0.000258667 8.41887e-05 7.84316e-08
-1.93841e-06 7.84316e-08 -0.000142345
0.000683874 -1.36051e-05 2.23127e-06
-1.36051e-05 3.9458e-05 2.35748e-06
2.23127e-06 2.35748e-06 -1.22115e-05
0.000785822 3.84001e-05 5.19949e-07
3.84001e-05 0.000134198 2.41708e-06
5.19949e-07 2.41708e-06 3.75315e-05
0.000995671 0.000202127 -1.9848e-06
0.000202127 0.000223871 -1.59909e-07
-1.9848e-06 -1.59909e-07 3.74419e-05
0.00109475 6.135e-05 6.79802e-08
6.135e-05 0.000329041 9.29634e-07
6.79802e-08 9.29634e-07 0.00018713
0.00124569 0.000121156 -4.77789e-06
0.000121156 0.000369311 -5.3292e-06
-4.77789e-06 -5.3292e-06 0.000211872
0.00172109 0.000234644 -2.76969e-06
0.000234644 0.000140997 -2.5957e-06
-2.76969e-06 -2.5957e-06 -4.6416e-06
0.00171627 0.00032558 1.73039e-06
0.00032558 0.000223201 3.78178e-07
1.73039e-06 3.78178e-07 2.89199e-05
0.00151948 0.000308348 3.62807e-06
0.000308348 2.9739e-05 -8.85357e-07
3.62807e-06 -8.85357e-07 -0.000140148
0.000951041 0.000229282 -2.58409e-07
0.000229282 0.00012125 2.62629e-06
-2.58409e-07 2.62629e-06 -0.000121532
0.00146788 0.00031398 5.92286e-06
0.00031398 0.000162673 -3.71111e-07
5.92286e-06 -3.71111e-07 -5.89777e-05
0.000647822 -1.54034e-05 -1.80287e-07
-1.54034e-05 1.52562e-05 1.19134e-08
-1.80287e-07 1.19134e-08 -3.34272e-05
0.000562541 1.62254e-05 1.49481e-06
1.62254e-05 -1.82936e-05 1.45806e-06
1.49481e-06 1.45806e-06 -9.34092e-05
0.000575542 3.49455e-06 -5.914e-07
3.49455e-06 -5.9328e-06 -8.16918e-08
-5.914e-07 -8.16918e-08 -8.13817e-05
0.000925454 7.78495e-05 5.25042e-07
7.78495e-05 0.000212098 -3.06448e-07
5.25042e-07 -3.06448e-07 0.000118122
0.000698793 5.95149e-05 1.8154e-06
5.95149e-05 7.13082e-05 1.24255e-06
1.8154e-06 1.24255e-06 -6.57241e-06
0.000646339 1.91449e-05 1.80301e-06
1.91449e-05 1.7558e-05 2.20095e-06
1.80301e-06 2.20095e-06 -2.97002e-05
0.000644295 -1.47666e-05 -6.4557e-07
-1.47666e-05 1.42793e-05 2.02742e-08
-6.4557e-07 2.02742e-08 -3.30337e-05
0.00125358 -3.98601e-05 7.71295e-07
-3.98601e-05 0.000359894 2.47626e-06
7.71295e-07 2.47626e-06 0.000349402
0.000643241 -2.75718e-05 -9.49737e-07
-2.75718e-05 1.2969e-05 -2.21574e-06
-9.49737e-07 -2.21574e-06 -3.49623e-05
0.00129379 -4.84472e-05 -5.16384e-06
-4.84472e-05 0.000387742 -1.36175e-06
-5.16384e-06 -1.36175e-06 0.000375871
0.0008734 -3.87534e-05 2.26159e-05
-3.87534e-05 0.0001484 7.36263e-06
2.26159e-05 7.36263e-06 0.000154086
0.00130764 -5.64233e-05 -9.52384e-06
-5.64233e-05 0.00040231 -3.76703e-06
-9.52384e-06 -3.76703e-06 0.000388216
0.00156617 -6.3341e-05 2.05401e-05
-6.3341e-05 0.000566653 1.93035e-06
2.05401e-05 1.93035e-06 0.000572695
0.00228081 -8.9766e-05 -2.86334e-05
-8.9766e-05 0.000996492 -3.53224e-06
-2.86334e-05 -3.53224e-06 0.0010032
0.000501564 5.73548e-05 -1.12607e-06
5.73548e-05 -5.29901e-05 -4.97343e-06
-1.12607e-06 -4.97343e-06 -8.09506e-05
0.000530862 2.97492e-05 2.20206e-07
2.97492e-05 -3.43213e-05 2.48915e-07
2.20206e-07 2.48915e-07 -6.57531e-05
0.00267476 0.000109711 3.66801e-05
0.000109711 0.00123692 -3.36261e-06
3.66801e-05 -3.36261e-06 0.00123749
0.00305737 0.000110211 -6.13427e-06
0.000110211 0.00146534 -3.43422e-07
-6.13427e-06 -3.43422e-07 0.0014656
0.000620144 1.35885e-05 -3.99343e-06
1.35885e-05 1.88134e-05 7.30175e-06
-3.99343e-06 7.30175e-06 -1.90716e-05
0.0034849 0.000106522 -0.000100907
0.000106522 0.00171749 4.79692e-06
-0.000100907 4.79692e-06 0.00171808
0.0014006 0.000142542 -4.43388e-06
0.000142542 7.70993e-05 -8.1622e-07
-4.43388e-06 -8.1622e-07 -7.35041e-05
0.0014107 8.24535e-05 -3.3212e-06
8.24535e-05 5.79472e-05 -2.7153e-07
-3.3212e-06 -2.7153e-07 -7.71404e-05
0.00170659 0.000150018 2.85774e-08
0.000150018 0.000121799 1.09519e-06
2.85774e-08 1.09519e-06 -8.63659e-06
0.00180333 7.77156e-05 1.0412e-06
7.77156e-05 0.000130484 8.31327e-07
1.0412e-06 8.31327e-07 2.48752e-05
0.00139354 3.48571e-05 -2.90635e-06
3.48571e-05 4.33482e-05 5.36738e-08
-2.90635e-06 5.36738e-08 -8.24549e-05
0.00102549 6.72612e-06 -1.20079e-05
6.72612e-06 -1.92123e-05 8.50824e-08
-1.20079e-05 8.50824e-08 -0.00013489
0.00140164 1.06303e-05 7.40039e-08
1.06303e-05 5.12449e-05 6.66364e-08
7.40039e-08 6.66364e-08 -7.30329e-05
0.00175596 3.47616e-05 -1.25257e-06
3.47616e-05 0.000109623 3.40232e-08
-1.25257e-06 3.40232e-08 8.16526e-06
0.00173996 0.000119696 -1.65569e-07
0.000119696 0.000109006 4.07653e-08
-1.65569e-07 4.07653e-08 -1.00362e-05
0.00179363 8.06871e-05 1.75622e-06
8.06871e-05 6.41095e-05 8.81796e-07
1.75622e-06 8.81796e-07 -1.76347e-05
0.00168369 0.000183491 -2.75672e-07
0.000183491 0.000129227 -6.81515e-08
-2.75672e-07 -6.81515e-08 -1.47448e-05
0.00174297 0.000171673 -4.03648e-07
0.000171673 7.36844e-05 1.02577e-06
-4.03648e-07 1.02577e-06 -2.89635e-05
0.00172433 1.17081e-06 -1.38337e-06
1.17081e-06 0.000102204 1.87654e-07
-1.38337e-06 1.87654e-07 7.71463e-07
0.00173109 4.07741e-05 5.97919e-07
4.07741e-05 4.07432e-05 4.62562e-07
5.97919e-07 4.62562e-07 -3.85813e-05
0.00187636 0.000132841 -2.89731e-06
0.000132841 0.000123441 -8.7275e-07
-2.89731e-06 -8.7275e-07 3.53464e-05
0.00187281 8.80401e-05 3.12233e-06
8.80401e-05 9.35662e-05 2.79404e-07
3.12233e-06 2.79404e-07 3.1168e-05
0.00168659 0.000186504 -1.29989e-06
0.000186504 8.04033e-05 -2.6432e-06
-1.29989e-06 -2.6432e-06 -4.01638e-05
0.00183657 0.000182107 2.6088e-06
0.000182107 8.90227e-05 3.9873e-07
2.6088e-06 3.9873e-07 3.93512e-06
0.00142138 -1.30618e-05 -5.01666e-06
-1.30618e-05 6.43229e-05 1.47209e-07
-5.01666e-06 1.47209e-07 -6.01128e-05
0.00172565 -8.66684e-05 -6.66901e-06
-8.66684e-05 0.000250011 7.22112e-07
-6.66901e-06 7.22112e-07 0.000122232
0.00170405 -5.47437e-05 2.02241e-06
-5.47437e-05 0.000102017 -8.65539e-07
2.02241e-06 -8.65539e-07 9.06563e-08
0.00170095 -0.000139602 -2.41405e-07
-0.000139602 0.000117636 -1.63631e-07
-2.41405e-07 -1.63631e-07 -1.03579e-05
0.000885429 -0.000156675 -4.94793e-06
-0.000156675 0.000164896 6.02011e-06
-4.94793e-06 6.02011e-06 2.21521e-05
0.00117134 -0.000226024 -4.40571e-06
-0.000226024 0.000220663 4.03022e-06
-4.40571e-06 4.03022e-06 2.78397e-05
0.000919853 -0.000236844 -2.64978e-06
-0.000236844 -6.94288e-05 4.70647e-07
-2.64978e-06 4.70647e-07 -0.000282045
0.00160079 -0.000206629 -1.44274e-06
-0.000206629 0.000134919 1.48726e-07
-1.44274e-06 1.48726e-07 -1.79318e-05
0.00184941 -0.000202192 3.60458e-06
-0.000202192 0.00017699 -1.81865e-06
3.60458e-06 -1.81865e-06 6.95484e-05
0.00171235 -0.000261401 2.30779e-06
-0.000261401 0.000159629 -1.29833e-06
2.30779e-06 -1.29833e-06 7.59432e-06
0.001653 -0.000319426 -3.46146e-07
-0.000319426 0.000213216 -1.59863e-06
-3.46146e-07 -1.59863e-06 1.98427e-06
0.00200152 -0.000306281 4.78111e-06
-0.000306281 0.000332046 -6.30293e-06
4.78111e-06 -6.30293e-06 0.000177074
0.000914516 -0.000158853 -6.28828e-07
-0.000158853 0.000175616 9.73486e-07
-6.28828e-07 9.73486e-07 1.92156e-05
0.000695639 -0.000141609 -2.81091e-07
-0.000141609 5.27862e-05 -9.85388e-07
-2.81091e-07 -9.85388e-07 -0.000109267
0.000713161 -2.71785e-05 -1.4044e-06
-2.71785e-05 7.31654e-05 3.31287e-06
-1.4044e-06 3.31287e-06 -9.1419e-06
0.000393988 -5.57373e-06 6.01537e-07
-5.57373e-06 -9.98311e-05 -9.73144e-07
6.01537e-07 -9.73144e-07 -0.000229352
0.00170996 -3.34421e-05 -2.58992e-08
-3.34421e-05 0.000101059 6.38159e-08
-2.58992e-08 6.38159e-08 -4.48118e-06
0.00176562 -9.60474e-05 1.15696e-07
-9.60474e-05 0.000139811 -2.46717e-07
1.15696e-07 -2.46717e-07 2.38212e-05
0.00170369 -6.89836e-05 1.81523e-06
-6.89836e-05 3.77425e-05 -4.12295e-07
1.81523e-06 -4.12295e-07 -4.70413e-05
0.00171896 -0.000166367 -1.53283e-06
-0.000166367 6.469e-05 6.63564e-07
-1.53283e-06 6.63564e-07 -3.28186e-05
0.000977643 -0.000183532 -5.78827e-07
-0.000183532 0.000184669 9.57268e-07
-5.78827e-07 9.57268e-07 1.34577e-05
0.000959788 -0.000233539 1.44247e-06
-0.000233539 5.96408e-05 -2.16221e-06
1.44247e-06 -2.16221e-06 -0.000153976
0.00161528 -0.000338379 3.11397e-08
-0.000338379 0.000271734 6.51228e-07
3.11397e-08 6.51228e-07 2.76313e-05
0.00166103 -0.000228784 -1.51087e-06
-0.000228784 9.89497e-05 7.28934e-07
-1.51087e-06 7.28934e-07 -3.42895e-05
0.0017986 -0.000201048 2.12705e-06
-0.000201048 0.000117249 -1.11954e-06
2.12705e-06 -1.11954e-06 2.6394e-05
0.00170242 -0.000332514 -8.64911e-07
-0.000332514 0.000202212 8.37189e-07
-8.64911e-07 8.37189e-07 -4.86857e-06
0.00167785 -0.000278666 -4.41439e-07
-0.000278666 0.000105044 1.05457e-06
-4.41439e-07 1.05457e-06 -2.59937e-05
0.00181931 -0.000291714 3.17819e-06
-0.000291714 0.000199333 -4.91737e-06
3.17819e-06 -4.91737e-06 5.19779e-05
0.00100914 -0.000204624 4.76503e-07
-0.000204624 0.000209488 1.28395e-06
4.76503e-07 1.28395e-06 3.64931e-05
0.0012006 -0.000215158 2.60012e-06
-0.000215158 0.000335294 1.00865e-06
2.60012e-06 1.00865e-06 0.000166384
0.000801857 -0.000104905 -2.04762e-07
-0.000104905 0.000153633 -1.02653e-07
-2.04762e-07 -1.02653e-07 -1.29946e-05
0.000492618 -1.39131e-06 -1.11085e-06
-1.39131e-06 -5.51456e-05 3.08279e-07
-1.11085e-06 3.08279e-07 -0.000128322
0.000443297 2.98668e-06 -3.56135e-07
2.98668e-06 -6.04416e-05 -6.73242e-07
-3.56135e-07 -6.73242e-07 -0.000182307
0.00173907 -4.53706e-05 5.06537e-07
-4.53706e-05 5.07637e-05 -7.56342e-07
5.06537e-07 -7.56342e-07 -2.81009e-05
0.00182445 -9.77753e-05 1.3656e-06
-9.77753e-05 9.45082e-05 3.99799e-07
1.3656e-06 3.99799e-07 1.31906e-05
0.00180848 -0.000195772 -1.72907e-07
-0.000195772 8.57071e-05 -1.10338e-06
-1.72907e-07 -1.10338e-06 7.80517e-06
0.00159278 -0.000228377 -6.31586e-07
-0.000228377 1.9012e-05 4.52111e-07
-6.31586e-07 4.52111e-07 -8.39248e-05
0.00106035 -0.00022029 -1.59533e-06
-0.00022029 0.000214768 -3.06354e-06
-1.59533e-06 -3.06354e-06 2.09455e-05
0.00219432 -0.00033006 -2.25971e-06
-0.00033006 0.000346802 1.16421e-06
-2.25971e-06 1.16421e-06 0.000219291
0.000754829 -0.000244989 1.14119e-06
-0.000244989 -9.53854e-05 -5.22894e-06
1.14119e-06 -5.22894e-06 -0.000330701
0.00173717 -0.00038074 2.29348e-06
-0.00038074 0.000293461 1.93009e-06
2.29348e-06 1.93009e-06 3.46636e-05
0.00159475 -0.000324251 2.11142e-06
-0.000324251 0.000106611 3.93108e-06
2.11142e-06 3.93108e-06 -9.25194e-05
0.000298957 1.38169e-05 5.17186e-07
1.38169e-05 -0.000168373 -3.39722e-06
5.17186e-07 -3.39722e-06 -0.000232664
0.000759997 -3.0936e-05 5.77664e-07
-3.0936e-05 0.000133051 -1.00072e-06
5.77664e-07 -1.00072e-06 1.89547e-05
0.000968397 -6.34357e-05 -1.11097e-06
-6.34357e-05 0.000243692 2.35074e-07
-1.11097e-06 2.35074e-07 0.000100161
0.00111978 -0.000221747 -4.56045e-06
-0.000221747 0.000259841 1.01911e-06
-4.56045e-06 1.01911e-06 8.41326e-05
0.000560025 -0.000119699 2.74028e-06
-0.000119699 4.14273e-06 2.98346e-06
2.74028e-06 2.98346e-06 -0.000176855
0.000579543 -0.000179655 -3.26715e-07
-0.000179655 -5.79706e-05 3.87359e-07
-3.26715e-07 3.87359e-07 -0.000221476
0.000565455 -5.00296e-05 -1.06165e-06
-5.00296e-05 -2.87186e-05 -4.43282e-06
-1.06165e-06 -4.43282e-06 -4.92076e-05
0.000585798 -3.00711e-05 -1.86203e-06
-3.00711e-05 -6.50231e-06 -2.33519e-06
-1.86203e-06 -2.33519e-06 -6.51635e-05
0.00165626 0.000223549 -9.63774e-07
0.000223549 0.000137983 -6.92513e-08
-9.63774e-07 -6.92513e-08 -2.34549e-05
0.000627073 -6.41758e-05 1.51166e-06
-6.41758e-05 5.20662e-05 -2.41135e-06
1.51166e-06 -2.41135e-06 -5.85925e-05
0.000771281 0.000127659 -1.01574e-06
0.000127659 0.000103012 -7.93373e-08
-1.01574e-06 -7.93373e-08 -5.30175e-05
0.00027648 5.81989e-05 1.5712e-06
5.81989e-05 -0.000165555 8.88518e-07
1.5712e-06 8.88518e-07 -0.000317613
0.00150476 0.000267659 -6.69708e-07
0.000267659 0.000158643 -1.44787e-07
-6.69708e-07 -1.44787e-07 -3.06525e-05
0.00161515 0.000285003 3.7187e-07
0.000285003 0.000116616 3.32752e-07
3.7187e-07 3.32752e-07 -5.62148e-05
0.000865871 0.000206323 7.41936e-07
0.000206323 0.00011014 -1.77086e-06
7.41936e-07 -1.77086e-06 -0.0001205
0.00153168 0.000287212 -1.41622e-06
0.000287212 0.000286357 -4.87333e-07
-1.41622e-06 -4.87333e-07 5.86991e-05
0.00175373 0.000318687 -3.35816e-06
0.000318687 0.000292117 -8.80072e-07
-3.35816e-06 -8.80072e-07 8.88779e-05
0.000645807 -1.44575e-05 -2.76371e-07
-1.44575e-05 1.7995e-05 1.10986e-07
-2.76371e-07 1.10986e-07 -3.36712e-05
0.000702211 -1.2514e-05 -9.7428e-07
-1.2514e-05 8.4038e-05 3.90478e-07
-9.7428e-07 3.90478e-07 -9.1553e-06
0.00102566 0.000204986 -6.48669e-07
0.000204986 0.000243125 1.21138e-07
-6.48669e-07 1.21138e-07 5.57946e-05
0.000791966 2.00431e-05 1.94746e-07
2.00431e-05 0.000149119 -1.40916e-07
1.94746e-07 -1.40916e-07 1.35036e-05
0.000897607 0.000132516 7.52143e-07
0.000132516 0.000183158 6.99256e-07
7.52143e-07 6.99256e-07 1.85673e-05
0.00170317 0.000236579 -1.81238e-06
0.000236579 0.000130438 -1.33234e-06
-1.81238e-06 -1.33234e-06 -1.63863e-05
0.00167925 0.000322399 1.39395e-06
0.000322399 0.000198697 3.7094e-07
1.39395e-06 3.7094e-07 4.54901e-06
0.00165826 0.000313155 4.93629e-07
0.000313155 0.000110437 2.29854e-07
4.93629e-07 2.29854e-07 -5.85084e-05
0.00082124 0.000222948 5.60136e-08
0.000222948 3.80894e-05 2.93792e-06
5.60136e-08 2.93792e-06 -0.000202929
0.00159038 0.000324447 -1.5886e-06
0.000324447 0.000241017 -7.34295e-07
-1.5886e-06 -7.34295e-07 1.59505e-05
0.000775469 2.91222e-05 8.51014e-07
2.91222e-05 0.000116063 1.7811e-06
8.51014e-07 1.7811e-06 3.3394e-05
0.000444659 -1.29478e-05 -1.41304e-06
-1.29478e-05 -5.92724e-05 2.78233e-06
-1.41304e-06 2.78233e-06 -0.000169982
0.00106241 0.000220653 -3.29159e-06
0.000220653 0.000225291 -1.09333e-06
-3.29159e-06 -1.09333e-06 2.74676e-05
0.00075874 9.03569e-05 -3.95807e-06
9.03569e-05 0.000149409 -3.57955e-06
-3.95807e-06 -3.57955e-06 -1.72982e-05
0.000810934 0.00019207 -1.0871e-06
0.00019207 0.000105363 -2.43862e-06
-1.0871e-06 -2.43862e-06 -6.57361e-05
0.00157643 0.000250736 3.41087e-07
0.000250736 -1.39453e-05 -2.2692e-06
3.41087e-07 -2.2692e-06 -0.00013668
0.00187247 0.000363344 3.3242e-06
0.000363344 0.000286137 -1.83914e-06
3.3242e-06 -1.83914e-06 7.99734e-05
0.00150488 0.00032108 3.33757e-06
0.00032108 1.04267e-05 3.13208e-07
3.33757e-06 3.13208e-07 -0.000160653
0.00166715 0.000306258 3.54711e-06
0.000306258 0.000454857 7.34624e-06
3.54711e-06 7.34624e-06 0.000194859
0.00172447 0.000357513 -7.5162e-07
0.000357513 0.000307862 -8.44942e-07
-7.5162e-07 -8.44942e-07 7.39494e-05
0.00063112 -2.45421e-05 -1.40039e-06
-2.45421e-05 7.09881e-06 -2.30191e-06
-1.40039e-06 -2.30191e-06 -4.24503e-05
0.000635644 2.05001e-05 8.68796e-07
2.05001e-05 2.63901e-05 3.61431e-07
8.68796e-07 3.61431e-07 -4.94551e-05
0.000553265 -4.79782e-06 -2.57836e-07
-4.79782e-06 -1.65223e-05 9.22514e-07
-2.57836e-07 9.22514e-07 -0.000101329
0.000473161 -3.23811e-05 -7.04612e-07
-3.23811e-05 -6.71862e-05 -1.17186e-06
-7.04612e-07 -1.17186e-06 -0.000141546
0.000680369 2.7967e-05 -2.18072e-07
2.7967e-05 5.93226e-05 3.29284e-08
-2.18072e-07 3.29284e-08 -1.70741e-05
0.000704741 3.60219e-05 -2.16375e-07
3.60219e-05 7.34058e-05 -3.60515e-07
-2.16375e-07 -3.60515e-07 -1.2643e-05
0.000834555 6.52507e-05 -1.02254e-06
6.52507e-05 0.000158221 -1.28928e-06
-1.02254e-06 -1.28928e-06 6.20385e-05
0.000566464 -1.88028e-05 6.35557e-07
-1.88028e-05 4.42369e-06 4.41375e-07
6.35557e-07 4.41375e-07 -9.05209e-05
0.00070332 4.86557e-05 8.55547e-07
4.86557e-05 6.94432e-05 1.30355e-06
8.55547e-07 1.30355e-06 -3.8864e-06
0.000650914 2.56903e-05 1.80065e-06
2.56903e-05 2.42999e-05 2.2341e-06
1.80065e-06 2.2341e-06 -2.39299e-05
0.000645567 -4.22624e-06 -9.37349e-07
-4.22624e-06 1.738e-05 1.49416e-08
-9.37349e-07 1.49416e-08 -3.00045e-05
0.00125854 -2.82404e-05 8.44914e-07
-2.82404e-05 0.000360272 2.41149e-06
8.44914e-07 2.41149e-06 0.000350751
0.000622927 -3.98589e-05 -3.36081e-07
-3.98589e-05 3.92727e-06 -2.17901e-06
-3.36081e-07 -2.17901e-06 -4.45085e-05
0.00129641 -3.68825e-05 -4.43701e-06
-3.68825e-05 0.000384863 -1.4253e-06
-4.43701e-06 -1.4253e-06 0.000374617
0.000878308 -3.17803e-05 1.88867e-05
-3.17803e-05 0.00014563 7.6891e-06
1.88867e-05 7.6891e-06 0.00015267
0.00132845 -4.61684e-05 -8.30131e-06
-4.61684e-05 0.000407713 -5.34364e-06
-8.30131e-06 -5.34364e-06 0.000396064
0.000819105 -3.96705e-05 7.01641e-06
-3.96705e-05 0.000116123 2.87987e-06
7.01641e-06 2.87987e-06 0.000121303
0.00221151 -8.41862e-05 -5.0642e-06
-8.41862e-05 0.00094782 -1.86639e-06
-5.0642e-06 -1.86639e-06 0.000955888
0.000533783 4.32955e-05 -2.31588e-07
4.32955e-05 -4.55314e-05 -3.94837e-06
-2.31588e-07 -3.94837e-06 -6.56733e-05
0.000532529 4.65316e-05 -3.31354e-07
4.65316e-05 -3.66529e-05 7.12895e-08
-3.31354e-07 7.12895e-08 -6.36643e-05
0.0024792 9.53082e-05 2.75457e-05
9.53082e-05 0.00111535 -3.63339e-06
2.75457e-05 -3.63339e-06 0.00111966
0.000582932 1.96426e-05 -3.24775e-06
1.96426e-05 -5.68417e-06 6.01543e-06
-3.24775e-06 6.01543e-06 -3.62999e-05
0.00277833 0.000110418 -6.81862e-06
0.000110418 0.00129732 -4.40233e-07
-6.81862e-06 -4.40233e-07 0.00129788
0.00316032 9.95158e-05 -8.36727e-05
9.95158e-05 0.0015234 4.03745e-06
-8.36727e-05 4.03745e-06 0.00152618
0.00166655 0.000184022 -1.36831e-06
0.000184022 0.000116663 7.64162e-07
-1.36831e-06 7.64162e-07 -2.78617e-05
0.00175651 0.000117608 1.22739e-06
0.000117608 0.000119509 1.08318e-06
1.22739e-06 1.08318e-06 7.50173e-07
0.00177305 0.000169549 1.93607e-06
0.000169549 8.79874e-05 2.26966e-06
1.93607e-06 2.26966e-06 -1.18509e-05
0.00179562 7.98674e-05 2.60092e-06
7.98674e-05 6.4647e-05 9.22589e-07
2.60092e-06 9.22589e-07 -1.2122e-05
0.00174593 2.72582e-05 -6.03505e-07
2.72582e-05 0.000105057 1.01292e-07
-6.03505e-07 1.01292e-07 3.86222e-06
0.0013976 1.33306e-05 -2.8307e-06
1.33306e-05 4.89901e-05 1.54153e-07
-2.8307e-06 1.54153e-07 -7.53308e-05
0.00171895 3.27186e-06 -1.08805e-06
3.27186e-06 9.8525e-05 -2.11787e-08
-1.08805e-06 -2.11787e-08 -4.6448e-06
0.00178414 3.77769e-05 1.40388e-06
3.77769e-05 7.39361e-05 -3.1917e-08
1.40388e-06 -3.1917e-08 -7.35006e-06
0.00184512 0.000131096 -1.4489e-06
0.000131096 0.000106542 -5.6042e-07
-1.4489e-06 -5.6042e-07 1.72798e-05
0.00183534 8.70076e-05 2.2275e-06
8.70076e-05 6.94199e-05 5.49376e-07
2.2275e-06 5.49376e-07 1.02706e-05
0.00170749 0.00018539 -7.45279e-07
0.00018539 9.95402e-05 -2.56805e-07
-7.45279e-07 -2.56805e-07 -2.10493e-05
0.001805 0.000183871 3.49146e-06
0.000183871 6.93805e-05 1.39579e-06
3.49146e-06 1.39579e-06 -1.21804e-05
0.00176711 -7.26353e-06 -8.51961e-07
-7.26353e-06 8.14349e-05 -5.68626e-08
-8.51961e-07 -5.68626e-08 -3.49855e-07
0.00178989 4.0718e-05 3.43633e-06
4.0718e-05 3.67034e-05 -6.00284e-08
3.43633e-06 -6.00284e-08 -1.33682e-05
0.00184549 0.000133932 2.33329e-06
0.000133932 7.01073e-05 3.29471e-07
2.33329e-06 3.29471e-07 5.24026e-06
0.00186805 0.000224226 6.43485e-07
0.000224226 0.000118529 -1.1296e-06
6.43485e-07 -1.1296e-06 2.57535e-05
0.00171037 -3.32671e-05 7.07718e-07
-3.32671e-05 0.00010189 1.4514e-07
7.07718e-07 1.4514e-07 -3.79547e-06
0.00168812 -9.70475e-05 1.77397e-06
-9.70475e-05 9.60583e-05 -1.18312e-06
1.77397e-06 -1.18312e-06 -2.20654e-05
0.00179028 -6.93367e-05 3.70225e-06
-6.93367e-05 8.86519e-05 -1.03995e-06
3.70225e-06 -1.03995e-06 7.2277e-06
0.00168274 -0.000162845 -3.7335e-08
-0.000162845 5.06335e-05 -3.10106e-08
-3.7335e-08 -3.10106e-08 -4.88426e-05
0.00110701 -0.000194768 -1.24474e-06
-0.000194768 0.000261582 4.0336e-06
-1.24474e-06 4.0336e-06 8.74578e-05
0.0010057 -0.000235122 -1.49427e-07
-0.000235122 8.57724e-05 1.61745e-06
-1.49427e-07 1.61745e-06 -0.000124871
0.0016121 -0.000338928 -3.08421e-06
-0.000338928 0.000269898 6.63438e-07
-3.08421e-06 6.63438e-07 2.30275e-05
0.00160786 -0.000225733 3.84773e-07
-0.000225733 7.32043e-05 -5.19168e-07
3.84773e-07 -5.19168e-07 -6.34347e-05
0.00167455 -0.000198958 3.69185e-06
-0.000198958 4.11597e-05 -2.32419e-06
3.69185e-06 -2.32419e-06 -4.59715e-05
0.00173243 -0.000281423 3.11621e-06
-0.000281423 0.00013548 -6.39733e-07
3.11621e-06 -6.39733e-07 4.11249e-06
0.00171189 -0.000334124 -1.818e-06
-0.000334124 0.000209257 -2.73891e-06
-1.818e-06 -2.73891e-06 1.20491e-06
0.00171186 -0.000285989 1.83083e-06
-0.000285989 0.000127596 -1.08341e-05
1.83083e-06 -1.08341e-05 -1.57662e-05
0.00121029 -0.000222982 2.01671e-06
-0.000222982 0.000325801 1.32853e-06
2.01671e-06 1.32853e-06 0.000149329
0.00105381 -0.000201442 2.57334e-06
-0.000201442 0.000240865 -2.72526e-06
2.57334e-06 -2.72526e-06 7.77862e-05
0.000711134 -8.39114e-05 1.16316e-06
-8.39114e-05 9.68582e-05 -1.93414e-06
1.16316e-06 -1.93414e-06 -6.93331e-05
0.000390054 1.22261e-05 -1.2938e-06
1.22261e-05 -0.000114429 2.77623e-06
-1.2938e-06 2.77623e-06 -0.00018957
0.000422841 3.05772e-05 1.30182e-06
3.05772e-05 -7.41367e-05 2.23229e-07
1.30182e-06 2.23229e-07 -0.000192641
0.00183727 -5.00929e-05 1.88925e-07
-5.00929e-05 0.000111183 -1.10617e-07
1.88925e-07 -1.10617e-07 3.19824e-05
0.00182208 -0.000101575 1.15931e-06
-0.000101575 9.08412e-05 -6.97425e-07
1.15931e-06 -6.97425e-07 8.20639e-06
0.00179776 -0.000190818 -2.04779e-06
-0.000190818 8.37485e-05 2.0132e-07
-2.04779e-06 2.0132e-07 4.29953e-06
0.00111276 -0.000223247 -7.2919e-07
-0.000223247 0.000243866 7.39303e-07
-7.2919e-07 7.39303e-07 4.94729e-05
0.00114403 -0.000273243 1.07857e-06
-0.000273243 0.00012129 -2.57945e-06
1.07857e-06 -2.57945e-06 -0.000114306
0.00165131 -0.000378619 -4.97069e-07
-0.000378619 0.000247887 6.62241e-07
-4.97069e-07 6.62241e-07 -1.42777e-05
0.00162273 -0.000229365 3.58423e-07
-0.000229365 3.18317e-05 -2.72316e-07
3.58423e-07 -2.72316e-07 -7.1462e-05
0.00166231 -0.000324435 7.49923e-07
-0.000324435 0.000148025 -2.30781e-06
7.49923e-07 -2.30781e-06 -4.4964e-05
0.00186481 -0.000310079 -4.12579e-07
-0.000310079 0.000169629 -1.14048e-06
-4.12579e-07 -1.14048e-06 4.22121e-05
0.000330935 2.94345e-05 -7.82633e-08
2.94345e-05 -0.000153444 -8.30876e-07
-7.82633e-08 -8.30876e-07 -0.000214627
0.00114339 -0.000222444 -1.43459e-07
-0.000222444 0.000265157 1.18845e-06
-1.43459e-07 1.18845e-06 9.03287e-05
0.000664861 -0.000184198 -2.74506e-07
-0.000184198 -2.001e-07 4.97058e-07
-2.74506e-07 4.97058e-07 -0.000157577
0.000933022 -0.000150185 -6.07225e-07
-0.000150185 0.000223379 2.68776e-07
-6.07225e-07 2.68776e-07 3.55352e-05
0.00104856 -6.72459e-05 4.95683e-08
-6.72459e-05 0.00029105 -4.23907e-07
4.95683e-08 -4.23907e-07 0.00014735
0.000637459 3.867e-06 -3.90802e-07
3.867e-06 5.54829e-05 4.36002e-07
-3.90802e-07 4.36002e-07 -5.5775e-05
0.0015596 -5.43607e-05 5.70326e-07
-5.43607e-05 -7.96213e-05 -3.72538e-08
5.70326e-07 -3.72538e-08 -0.000145602
0.00198444 -0.000142513 1.98254e-06
-0.000142513 0.000118585 -3.05212e-07
1.98254e-06 -3.05212e-07 6.38236e-05
0.00157376 -0.00021936 1.40045e-06
-0.00021936 -6.03761e-05 -8.05698e-07
1.40045e-06 -8.05698e-07 -0.000135818
0.002003 -0.000288435 -3.79532e-07
-0.000288435 0.000167626 -1.33463e-06
-3.79532e-07 -1.33463e-06 6.96123e-05
0.00115181 -0.000243542 -3.51531e-06
-0.000243542 0.000227756 -3.47981e-06
-3.51531e-06 -3.47981e-06 2.24089e-05
0.001849 -0.000346074 2.41741e-06
-0.000346074 0.000181934 4.40042e-06
2.41741e-06 4.40042e-06 2.06853e-05
0.00123496 -0.000327599 -1.76657e-06
-0.000327599 0.000121419 -5.70591e-07
-1.76657e-06 -5.70591e-07 -0.000157419
0.00173795 -0.000398666 -8.95381e-07
-0.000398666 0.000288375 3.00271e-06
-8.95381e-07 3.00271e-06 1.49762e-05
0.000322357 4.84026e-05 -1.55485e-06
4.84026e-05 -0.000162814 -2.34961e-06
-1.55485e-06 -2.34961e-06 -0.000215001
0.000752017 -2.99562e-06 1.68299e-07
-2.99562e-06 0.000119558 -7.93977e-07
1.68299e-07 -7.93977e-07 2.26128e-05
0.000966013 -9.41582e-05 -1.32938e-06
-9.41582e-05 0.00024927 1.43848e-06
-1.32938e-06 1.43848e-06 0.000118471
0.000901787 -2.21887e-05 -2.09489e-06
-2.21887e-05 0.000207955 1.86087e-06
-2.09489e-06 1.86087e-06 3.32505e-05
0.000687147 -0.000200856 -2.31968e-06
-0.000200856 -2.04457e-05 -2.27157e-06
-2.31968e-06 -2.27157e-06 -0.000195731
0.000957455 -0.000209145 -5.75807e-06
-0.000209145 0.000182749 1.53573e-06
-5.75807e-06 1.53573e-06 -6.37038e-06
0.000615928 -2.2597e-05 -2.11399e-06
-2.2597e-05 1.27142e-06 -2.21648e-06
-2.11399e-06 -2.21648e-06 -5.04227e-05
0.000614209 -4.94745e-05 1.92219e-07
-4.94745e-05 2.9552e-05 -1.69589e-06
1.92219e-07 -1.69589e-06 -5.92856e-05
0.00168866 0.000238926 -1.9065e-06
0.000238926 0.000120912 -2.75187e-07
-1.9065e-06 -2.75187e-07 -2.71609e-05
0.000505651 -1.80085e-05 6.89276e-07
-1.80085e-05 -2.18905e-05 -1.02066e-06
6.89276e-07 -1.02066e-06 -0.000150105
0.00104416 0.000206699 1.40285e-06
0.000206699 0.000254856 -8.46077e-07
1.40285e-06 -8.46077e-07 6.74706e-05
0.000256474 6.96765e-05 2.54009e-06
6.96765e-05 -0.000197194 1.67376e-06
2.54009e-06 1.67376e-06 -0.000348094
0.00165919 0.000320639 -4.74846e-07
0.000320639 0.000182438 1.34172e-07
-4.74846e-07 1.34172e-07 -1.17681e-05
0.00181866 0.000319472 -2.53022e-06
0.000319472 0.000201233 1.06894e-06
-2.53022e-06 1.06894e-06 3.29894e-05
0.00083121 0.000227787 -1.51867e-06
0.000227787 3.66263e-05 7.42902e-07
-1.51867e-06 7.42902e-07 -0.000204145
0.00171766 0.000334481 -2.32159e-06
0.000334481 0.00032294 1.10568e-06
-2.32159e-06 1.10568e-06 9.35958e-05
0.000699202 6.04917e-06 -8.0079e-07
6.04917e-06 6.86921e-05 1.98385e-07
-8.0079e-07 1.98385e-07 -1.0865e-05
0.000653892 9.96675e-06 5.70096e-07
9.96675e-06 6.12026e-05 1.18526e-06
5.70096e-07 1.18526e-06 -5.03812e-05
0.001266 0.000238718 -8.16847e-07
0.000238718 0.000353732 -2.76201e-06
-8.16847e-07 -2.76201e-06 0.000150359
0.000562363 2.00571e-05 -7.19502e-07
2.00571e-05 1.18536e-05 -3.34979e-07
-7.19502e-07 -3.34979e-07 -0.000135437
0.000633012 0.000158613 -1.78088e-06
0.000158613 -5.66019e-06 -8.00648e-07
-1.78088e-06 -8.00648e-07 -0.000157629
0.00185305 0.000261809 -2.67514e-06
0.000261809 0.000144779 -1.35372e-06
-2.67514e-06 -1.35372e-06 2.41133e-05
0.00194392 0.00036428 1.60743e-06
0.00036428 0.000330128 -2.25238e-07
1.60743e-06 -2.25238e-07 0.000125706
0.00167917 0.000339398 1.70247e-06
0.000339398 0.000101095 2.0806e-06
1.70247e-06 2.0806e-06 -7.22601e-05
0.001329 0.000280634 3.31493e-06
0.000280634 0.000271179 4.37165e-06
3.31493e-06 4.37165e-06 6.40846e-06
0.00159564 0.000352243 -3.04785e-06
0.000352243 0.000230806 4.68358e-07
-3.04785e-06 4.68358e-07 -6.09318e-06
0.000441952 -2.412e-05 -8.09599e-07
-2.412e-05 -7.00246e-05 2.38497e-06
-8.09599e-07 2.38497e-06 -0.000161435
0.000233206 7.29803e-05 -1.32521e-07
7.29803e-05 -0.000155559 7.53657e-07
-1.32521e-07 7.53657e-07 -0.000299245
0.00123164 0.000244115 1.81127e-06
0.000244115 0.000293665 3.45028e-06
1.81127e-06 3.45028e-06 7.48959e-05
-0.000559899 5.68134e-05 2.99312e-06
5.68134e-05 -0.000660017 -4.36413e-07
2.99312e-06 -4.36413e-07 -0.000822681
0.00188793 0.000273313 -2.59688e-06
0.000273313 2.13367e-05 -8.69572e-07
-2.59688e-06 -8.69572e-07 -4.86951e-05
0.00215939 0.000324993 6.294e-07
0.000324993 0.000315226 -2.15473e-07
6.294e-07 -2.15473e-07 0.000176542
0.00179987 0.000393296 -1.61755e-06
0.000393296 0.000241762 -3.44741e-06
-1.61755e-06 -3.44741e-06 1.96658e-05
0.000267861 0.00022015 -8.95533e-07
0.00022015 -0.000405442 1.95053e-06
-8.95533e-07 1.95053e-06 -0.000669255
0.000695839 4.72352e-05 -9.01855e-07
4.72352e-05 6.66123e-05 -5.94212e-07
-9.01855e-07 -5.94212e-07 -1.21718e-05
0.000631586 2.6191e-05 -3.82399e-08
2.6191e-05 3.47861e-05 4.44617e-07
-3.82399e-08 4.44617e-07 -5.37495e-05
0.000892764 1.44812e-05 -1.54976e-06
1.44812e-05 0.000187037 -1.14045e-06
-1.54976e-06 -1.14045e-06 9.9632e-05
0.00066743 -3.76312e-06 -1.4162e-06
-3.76312e-06 4.41755e-05 -1.14724e-06
-1.4162e-06 -1.14724e-06 -2.64901e-05
0.000487396 -1.21541e-05 -1.24904e-07
-1.21541e-05 -5.10217e-05 -7.81809e-07
-1.24904e-07 -7.81809e-07 -0.00013725
0.000686002 1.85324e-05 2.33389e-08
1.85324e-05 6.12106e-05 -1.86411e-09
2.33389e-08 -1.86411e-09 -1.31556e-05
0.000672083 6.46237e-05 -5.76993e-07
6.46237e-05 7.29236e-05 -3.6059e-07
-5.76993e-07 -3.6059e-07 -2.74037e-05
0.000638719 1.33016e-05 6.59026e-07
1.33016e-05 4.9068e-05 4.13902e-07
6.59026e-07 4.13902e-07 -4.72676e-05
0.000757526 3.58069e-05 6.33087e-07
3.58069e-05 0.000110795 -5.87925e-07
6.33087e-07 -5.87925e-07 1.83525e-05
0.000728082 -2.78694e-05 9.93226e-07
-2.78694e-05 0.000100379 -8.2442e-07
9.93226e-07 -8.2442e-07 -2.53035e-06
0.000561827 3.75274e-05 5.37754e-07
3.75274e-05 1.21441e-06 1.23222e-06
5.37754e-07 1.23222e-06 -9.5928e-05
0.000674649 6.06444e-05 1.11462e-06
6.06444e-05 5.7526e-05 1.68061e-06
1.11462e-06 1.68061e-06 -1.91224e-05
0.000607903 3.56251e-05 1.32596e-06
3.56251e-05 4.67674e-06 2.0557e-06
1.32596e-06 2.0557e-06 -4.55934e-05
0.000623047 -3.9129e-06 -8.22695e-07
-3.9129e-06 8.8556e-06 1.35737e-08
-8.22695e-07 1.35737e-08 -3.9934e-05
0.00126696 -1.73008e-05 6.66059e-07
-1.73008e-05 0.000364287 2.34852e-06
6.66059e-07 2.34852e-06 0.000355105
0.000622928 -3.64821e-05 -9.87464e-08
-3.64821e-05 5.6005e-06 -2.20676e-06
-9.87464e-08 -2.20676e-06 -4.26752e-05
0.00130318 -2.55126e-05 -3.70659e-06
-2.55126e-05 0.000386656 -1.49427e-06
-3.70659e-06 -1.49427e-06 0.000377184
0.000880951 -2.41849e-05 1.5802e-05
-2.41849e-05 0.000143083 7.99494e-06
1.5802e-05 7.99494e-06 0.000151038
0.0013361 -3.47315e-05 -6.89885e-06
-3.47315e-05 0.000408178 -5.35843e-06
-6.89885e-06 -5.35843e-06 0.000397955
0.000824414 -3.21619e-05 5.67049e-06
-3.21619e-05 0.000113255 2.98754e-06
5.67049e-06 2.98754e-06 0.000120093
0.000760079 -3.8659e-05 -1.45073e-06
-3.8659e-05 8.10488e-05 -2.07104e-06
-1.45073e-06 -2.07104e-06 8.62684e-05
0.000555681 3.58473e-05 3.47188e-07
3.58473e-05 -4.32738e-05 -3.43778e-06
3.47188e-07 -3.43778e-06 -5.78614e-05
0.000550861 4.82074e-05 -3.75501e-08
4.82074e-05 -3.42614e-05 1.18719e-07
-3.75501e-08 1.18719e-07 -5.54553e-05
0.00227686 7.93477e-05 2.197e-05
7.93477e-05 0.000988519 -3.78776e-06
2.197e-05 -3.78776e-06 0.000997047
0.000560103 3.79959e-05 -2.05036e-06
3.79959e-05 -2.16577e-05 5.21155e-06
-2.05036e-06 5.21155e-06 -4.79573e-05
0.00254167 9.65917e-05 -5.57256e-06
9.65917e-05 0.0011522 -3.841e-07
-5.57256e-06 -3.841e-07 0.00115623
0.00285814 9.52013e-05 -6.3153e-05
9.52013e-05 0.00134196 3.45081e-06
-6.3153e-05 3.45081e-06 0.00134615
0.00172337 0.00018417 5.17076e-07
0.00018417 0.0001159 2.18409e-06
5.17076e-07 2.18409e-06 -4.71626e-06
0.00181129 0.000129144 -3.38785e-07
0.000129144 8.83749e-05 4.92414e-07
-3.38785e-07 4.92414e-07 -2.03797e-06
0.00177538 0.00018554 3.3363e-06
0.00018554 5.08434e-05 1.74637e-06
3.3363e-06 1.74637e-06 -2.71749e-05
0.00176228 8.56387e-05 9.75238e-07
8.56387e-05 2.48167e-05 5.09189e-07
9.75238e-07 5.09189e-07 -3.15016e-05
0.00182073 3.52891e-05 2.57495e-06
3.52891e-05 9.77255e-05 -3.42276e-07
2.57495e-06 -3.42276e-07 1.41328e-05
0.00172022 1.93141e-06 -6.90077e-07
1.93141e-06 9.83269e-05 -1.22865e-08
-6.90077e-07 -1.22865e-08 -6.5035e-06
0.0018155 -3.71289e-06 -1.48464e-07
-3.71289e-06 0.000110057 -6.05466e-08
-1.48464e-07 -6.05466e-08 2.8994e-05
0.00178227 4.06526e-05 1.59924e-06
4.06526e-05 4.39152e-05 5.66011e-08
1.59924e-06 5.66011e-08 -8.83319e-06
0.00183466 0.00013831 5.48238e-07
0.00013831 6.076e-05 -4.92379e-07
5.48238e-07 -4.92379e-07 -4.25865e-06
0.00190831 0.000221277 1.51017e-07
0.000221277 0.00012938 1.72198e-07
1.51017e-07 1.72198e-07 3.88788e-05
0.00173217 -1.00928e-05 -4.53925e-07
-1.00928e-05 2.51726e-05 -5.66225e-07
-4.53925e-07 -5.66225e-07 -3.18181e-05
0.00190124 8.75029e-05 3.12635e-06
8.75029e-05 4.3847e-05 1.45788e-07
3.12635e-06 1.45788e-07 1.17076e-05
0.00190131 0.000201097 2.28573e-06
0.000201097 4.94481e-05 -1.17766e-07
2.28573e-06 -1.17766e-07 -1.65254e-05
0.00193312 -5.46888e-05 1.55036e-06
-5.46888e-05 0.000170142 5.67261e-07
1.55036e-06 5.67261e-07 9.06113e-05
0.00181464 -0.000105158 4.36883e-07
-0.000105158 8.44952e-05 -6.67706e-07
4.36883e-07 -6.67706e-07 5.49773e-07
0.0017846 -0.000185425 -1.57914e-06
-0.000185425 8.12832e-05 4.57245e-07
-1.57914e-06 4.57245e-07 2.60433e-07
0.00121916 -0.000230953 -3.96174e-07
-0.000230953 0.00030385 4.69335e-06
-3.96174e-07 4.69335e-06 0.000108164
0.00141538 -0.000290983 -8.75226e-07
-0.000290983 0.000269478 1.25495e-06
-8.75226e-07 1.25495e-06 3.5724e-05
0.00156681 -0.000377404 -2.42019e-06
-0.000377404 0.000203696 -5.00173e-07
-2.42019e-06 -5.00173e-07 -6.10238e-05
0.00164821 -0.00023019 3.58217e-07
-0.00023019 4.20842e-05 -4.11731e-07
3.58217e-07 -4.11731e-07 -6.14969e-05
0.00153938 -0.000292478 -4.72217e-07
-0.000292478 -8.21368e-06 -3.05298e-06
-4.72217e-07 -3.05298e-06 -0.000135984
0.00172342 -0.000325229 -2.37128e-06
-0.000325229 0.000183591 -7.86494e-06
-2.37128e-06 -7.86494e-06 -3.53505e-06
0.00118933 -0.000225318 2.77939e-06
-0.000225318 0.000284397 2.55513e-06
2.77939e-06 2.55513e-06 0.000109879
0.000696514 -0.000183425 -6.91701e-06
-0.000183425 2.77191e-05 5.30324e-07
-6.91701e-06 5.30324e-07 -0.000122887
0.00144267 -0.000186887 5.95086e-07
-0.000186887 0.000529426 2.67774e-07
5.95086e-07 2.67774e-07 0.000328917
0.000382414 1.91281e-05 2.37053e-07
1.91281e-05 -0.000123661 9.23109e-07
2.37053e-07 9.23109e-07 -0.000183984
0.000919873 -6.82267e-05 1.52086e-06
-6.82267e-05 0.000212219 -1.08416e-07
1.52086e-06 -1.08416e-07 7.39295e-05
0.000512642 3.47761e-05 2.01526e-06
3.47761e-05 -2.39037e-05 1.59286e-06
2.01526e-06 1.59286e-06 -0.000132086
0.00173647 -5.53919e-05 -7.0014e-07
-5.53919e-05 2.27405e-05 8.30094e-08
-7.0014e-07 8.30094e-08 -4.31549e-05
0.00195076 -0.000146927 1.61906e-07
-0.000146927 0.000101405 -1.00133e-07
1.61906e-07 -1.00133e-07 4.25915e-05
0.00170487 -0.000222192 -1.40409e-07
-0.000222192 1.72929e-05 4.57841e-07
-1.40409e-07 4.57841e-07 -5.89443e-05
0.00117619 -0.000242914 -7.0393e-07
-0.000242914 0.000239837 1.45138e-06
-7.0393e-07 1.45138e-06 3.47118e-05
0.00108806 -0.0003104 -9.62327e-07
-0.0003104 3.93346e-05 -3.86323e-07
-9.62327e-07 -3.86323e-07 -0.000230364
0.00168203 -0.000390261 -3.16117e-06
-0.000390261 0.000259641 4.33929e-08
-3.16117e-06 4.33929e-08 -5.7956e-06
0.00195737 -0.00029237 1.01825e-06
-0.00029237 0.000144352 -5.07735e-07
1.01825e-06 -5.07735e-07 4.42966e-05
0.00169398 -0.00033952 1.06734e-06
-0.00033952 8.56011e-05 -2.42773e-06
1.06734e-06 -2.42773e-06 -7.54296e-05
0.000480067 3.88515e-05 -1.2808e-07
3.88515e-05 -7.30625e-05 -8.94171e-07
-1.2808e-07 -8.94171e-07 -0.000121657
0.000761233 -9.20008e-06 -5.43067e-07
-9.20008e-06 0.000124183 3.16446e-07
-5.43067e-07 3.16446e-07 2.76884e-05
0.00033788 -0.000168655 -2.89478e-06
-0.000168655 -0.000219697 3.28069e-06
-2.89478e-06 3.28069e-06 -0.000386362
0.00138988 -0.000231638 2.83645e-07
-0.000231638 0.000445879 -2.63558e-07
2.83645e-07 -2.63558e-07 0.000257505
0.000944758 -5.87628e-05 -1.64717e-07
-5.87628e-05 0.000240268 -5.26328e-07
-1.64717e-07 -5.26328e-07 6.57199e-05
0.000852873 -6.87984e-05 -4.37951e-07
-6.87984e-05 0.000183357 1.33468e-06
-4.37951e-07 1.33468e-06 5.22216e-05
0.00188308 -7.72461e-05 2.95949e-06
-7.72461e-05 4.33008e-05 6.95125e-08
2.95949e-06 6.95125e-08 3.59586e-06
0.00193017 -0.00020793 8.93171e-07
-0.00020793 4.3896e-05 -1.23081e-06
8.93171e-07 -1.23081e-06 1.33067e-05
0.00186985 -0.000244673 1.0804e-06
-0.000244673 6.95862e-05 -1.25241e-06
1.0804e-06 -1.25241e-06 2.30625e-06
0.00191948 -0.000384508 6.13437e-06
-0.000384508 9.28464e-05 -1.56192e-06
6.13437e-06 -1.56192e-06 -3.27885e-05
0.000314802 -0.000197962 -4.55876e-06
-0.000197962 -0.000290342 -4.57174e-06
-4.55876e-06 -4.57174e-06 -0.000509652
0.00165272 -0.000393632 -3.45617e-07
-0.000393632 0.000208849 1.11145e-05
-3.45617e-07 1.11145e-05 -4.15035e-05
0.00194479 -0.000421242 -3.31589e-07
-0.000421242 0.000495414 -2.58902e-06
-3.31589e-07 -2.58902e-06 0.000183294
0.000643273 3.939e-05 2.94611e-07
3.939e-05 1.47478e-05 -1.46252e-06
2.94611e-07 -1.46252e-06 -2.64786e-05
0.000699732 -9.77776e-05 2.47629e-06
-9.77776e-05 8.39724e-05 -1.8586e-06
2.47629e-06 -1.8586e-06 5.76691e-06
0.000473922 3.76396e-05 -1.49855e-06
3.76396e-05 -4.83252e-05 -1.22606e-06
-1.49855e-06 -1.22606e-06 -0.000133154
0.00071851 -4.16398e-05 -4.15921e-07
-4.16398e-05 0.000116321 1.91404e-06
-4.15921e-07 1.91404e-06 -5.74948e-06
0.000628857 -1.79903e-05 1.09601e-06
-1.79903e-05 4.47583e-05 -1.01368e-06
1.09601e-06 -1.01368e-06 -9.17974e-05
0.000159332 -9.99504e-05 2.85577e-07
-9.99504e-05 -0.000204648 9.60473e-07
2.85577e-07 9.60473e-07 -0.000375855
0.000102698 -0.000163758 -1.91615e-06
-0.000163758 -0.000389431 -3.3486e-06
-1.91615e-06 -3.3486e-06 -0.000547647
0.00248956 -0.000329198 -9.67337e-06
-0.000329198 0.00114025 2.35921e-06
-9.67337e-06 2.35921e-06 0.000876578
0.000651088 -1.3452e-05 -1.11485e-06
-1.3452e-05 3.5372e-05 -9.31014e-07
-1.11485e-06 -9.31014e-07 -3.93812e-05
0.000841435 1.4878e-05 5.0934e-07
1.4878e-05 0.000173465 -1.16809e-06
5.0934e-07 -1.16809e-06 5.80219e-05
0.00212701 0.000271964 -1.42661e-06
0.000271964 0.000303505 -8.44134e-08
-1.42661e-06 -8.44134e-08 0.000185079
0.000780624 5.61832e-05 -9.05428e-07
5.61832e-05 0.000147944 2.2723e-06
-9.05428e-07 2.2723e-06 -9.63109e-06
0.00147578 0.000258311 1.2538e-06
0.000258311 0.000487321 -2.47865e-06
1.2538e-06 -2.47865e-06 0.000276258
0.0004365 0.000123787 1.00789e-08
0.000123787 -0.00012429 1.34577e-06
1.00789e-08 1.34577e-06 -0.000258309
0.00197501 0.000361383 -2.79314e-06
0.000361383 0.00035296 2.06131e-07
-2.79314e-06 2.06131e-07 0.000150997
0.00184254 0.000356568 -2.6772e-06
0.000356568 0.000185794 3.92355e-06
-2.6772e-06 3.92355e-06 1.04602e-05
0.000975841 0.000255692 -3.63974e-07
0.000255692 7.68699e-05 -7.17383e-07
-3.63974e-07 -7.17383e-07 -0.000192558
0.00150892 0.000351221 -1.41467e-06
0.000351221 0.00017499 2.12429e-06
-1.41467e-06 2.12429e-06 -6.49387e-05
0.000468953 6.35642e-07 -1.77732e-07
6.35642e-07 -4.61356e-05 1.0967e-06
-1.77732e-07 1.0967e-06 -0.000144255
0.000357233 8.47402e-05 -5.16024e-07
8.47402e-05 -8.17708e-05 -1.94891e-06
-5.16024e-07 -1.94891e-06 -0.000228719
0.00123467 0.000246631 2.71357e-06
0.000246631 0.000306364 -1.9932e-06
2.71357e-06 -1.9932e-06 8.25102e-05
0.000613969 0.000143899 -1.2597e-06
0.000143899 1.38052e-05 -3.04136e-06
-1.2597e-06 -3.04136e-06 -0.00015728
0.00198401 0.00027009 9.35838e-07
0.00027009 7.24456e-05 -1.04713e-06
9.35838e-07 -1.04713e-06 4.36425e-06
0.00204798 0.000326126 3.06396e-06
0.000326126 0.000256277 7.86348e-07
3.06396e-06 7.86348e-07 0.000113129
0.00179312 0.000386486 -1.25338e-06
0.000386486 0.000231616 1.02702e-07
-1.25338e-06 1.02702e-07 1.23131e-05
0.00107411 0.000291343 4.70201e-07
0.000291343 3.60947e-05 6.44266e-07
4.70201e-07 6.44266e-07 -0.000231308
0.000520131 2.66834e-05 -7.89189e-07
2.66834e-05 -2.47206e-05 2.51957e-06
-7.89189e-07 2.51957e-06 -0.000122062
0.00191159 0.000214707 -1.87842e-06
0.000214707 7.29349e-06 1.24973e-06
-1.87842e-06 1.24973e-06 -2.80668e-05
0.00148361 0.000237764 3.95638e-07
0.000237764 0.000574942 2.67792e-06
3.95638e-07 2.67792e-06 0.000380382
0.00116302 0.000250627 2.79995e-06
0.000250627 0.000235916 4.21158e-06
2.79995e-06 4.21158e-06 8.27433e-06
0.00235706 0.000320029 -1.62229e-05
0.000320029 0.000332003 -3.90631e-06
-1.62229e-05 -3.90631e-06 0.000239389
0.00110943 0.000357457 -2.55043e-06
0.000357457 -0.000221388 -6.56128e-06
-2.55043e-06 -6.56128e-06 -0.000422567
0.0018518 0.00038741 -2.2572e-06
0.00038741 0.000394396 2.05577e-06
-2.2572e-06 2.05577e-06 0.000122485
0.000709813 3.96919e-05 -1.28574e-06
3.96919e-05 8.06523e-05 -3.6033e-07
-1.28574e-06 -3.6033e-07 -7.4208e-06
0.000744778 3.14083e-05 -9.55424e-07
3.14083e-05 0.00010524 -3.96673e-07
-9.55424e-07 -3.96673e-07 1.54057e-05
0.000948351 1.80195e-05 -1.15947e-06
1.80195e-05 0.000234022 1.10349e-07
-1.15947e-06 1.10349e-07 0.000144186
0.000650831 -1.02012e-05 -1.41524e-07
-1.02012e-05 4.27706e-05 -1.67904e-06
-1.41524e-07 -1.67904e-06 -3.31097e-05
0.000685593 3.58511e-05 6.92943e-07
3.58511e-05 7.79419e-05 5.48573e-08
6.92943e-07 5.48573e-08 -1.88878e-05
0.000428064 3.57162e-06 -6.31632e-07
3.57162e-06 -5.86509e-05 5.54192e-07
-6.31632e-07 5.54192e-07 -0.000161823
0.000659237 -5.77714e-07 -4.70965e-07
-5.77714e-07 5.43141e-05 -2.21104e-08
-4.70965e-07 -2.21104e-08 -2.64422e-05
0.000541313 -2.46028e-05 -6.58418e-07
-2.46028e-05 -3.63339e-06 3.87939e-07
-6.58418e-07 3.87939e-07 -0.00010449
0.000589072 -1.19193e-05 6.1971e-07
-1.19193e-05 1.70313e-05 -1.13271e-07
6.1971e-07 -1.13271e-07 -7.42422e-05
0.000791265 2.90714e-05 4.03212e-07
2.90714e-05 0.000147175 -2.21153e-08
4.03212e-07 -2.21153e-08 3.70604e-05
0.000974737 2.41764e-05 1.31417e-07
2.41764e-05 0.000222791 -1.31637e-06
1.31417e-07 -1.31637e-06 0.000137919
0.000733368 -3.40447e-05 1.22362e-06
-3.40447e-05 9.58207e-05 -1.10212e-06
1.22362e-06 -1.10212e-06 4.60719e-07
0.000776306 2.58195e-05 7.98804e-08
2.58195e-05 0.000135205 1.50532e-07
7.98804e-08 1.50532e-07 2.20025e-05
0.000654347 2.97135e-05 1.89538e-06
2.97135e-05 6.37862e-05 1.41095e-06
1.89538e-06 1.41095e-06 -4.44252e-05
0.000682496 1.87137e-05 1.33988e-06
1.87137e-05 6.16493e-05 1.73128e-06
1.33988e-06 1.73128e-06 -1.72936e-05
0.000605727 -2.04979e-05 -1.91901e-07
-2.04979e-05 3.36734e-06 1.86668e-06
-1.91901e-07 1.86668e-06 -4.64559e-05
0.000619959 -8.9231e-06 -2.94823e-07
-8.9231e-06 9.74511e-06 3.98251e-08
-2.94823e-07 3.98251e-08 -3.91822e-05
0.00127547 -6.94236e-06 5.64517e-07
-6.94236e-06 0.000369573 2.23631e-06
5.64517e-07 2.23631e-06 0.000360005
0.00063133 -2.64927e-05 6.18446e-07
-2.64927e-05 1.28982e-05 -2.33785e-06
6.18446e-07 -2.33785e-06 -3.53053e-05
0.00130783 -1.48207e-05 -2.78771e-06
-1.48207e-05 0.000388863 -1.55171e-06
-2.78771e-06 -1.55171e-06 0.000379571
0.000874429 -1.65189e-05 1.18094e-05
-1.65189e-05 0.000136479 8.18978e-06
1.18094e-05 8.18978e-06 0.000144992
0.00134757 -2.37001e-05 -4.93053e-06
-2.37001e-05 0.000413025 -5.46563e-06
-4.93053e-06 -5.46563e-06 0.000403405
0.000833721 -2.45313e-05 3.80148e-06
-2.45313e-05 0.000114299 3.09759e-06
3.80148e-06 3.09759e-06 0.000122182
0.000776303 -3.1073e-05 -9.87515e-07
-3.1073e-05 8.39768e-05 -2.0491e-06
-9.87515e-07 -2.0491e-06 9.10171e-05
0.000672392 1.13105e-05 8.63493e-07
1.13105e-05 2.82378e-05 -1.68312e-06
8.63493e-07 -1.68312e-06 -9.66107e-06
0.000570666 2.80871e-05 4.3676e-07
2.80871e-05 -4.17598e-05 -3.50986e-06
4.3676e-07 -3.50986e-06 -5.27042e-05
0.000576832 3.67843e-05 4.42388e-08
3.67843e-05 -3.04987e-05 9.63816e-08
4.42388e-08 9.63816e-08 -4.54194e-05
0.00216045 6.44924e-05 1.88809e-05
6.44924e-05 0.000911471 -3.99633e-06
1.88809e-05 -3.99633e-06 0.000923732
0.000576086 5.27901e-05 1.79234e-06
5.27901e-05 -1.80762e-05 4.61861e-06
1.79234e-06 4.61861e-06 -4.05104e-05
0.00237095 8.24062e-05 -3.73419e-06
8.24062e-05 0.00104453 -2.70516e-07
-3.73419e-06 -2.70516e-07 0.00105226
0.00263981 9.79881e-05 -3.47608e-05
9.79881e-05 0.00120976 3.56166e-06
-3.47608e-05 3.56166e-06 0.00121352
0.00194863 0.000218371 -1.5253e-08
0.000218371 0.000140328 1.98495e-06
-1.5253e-08 1.98495e-06 5.20913e-05
0.00182494 0.000142746 -1.38789e-06
0.000142746 5.20577e-05 -2.58764e-07
-1.38789e-06 -2.58764e-07 -1.32639e-05
0.0017978 4.30208e-05 6.31142e-08
4.30208e-05 6.44893e-05 -6.80173e-08
6.31142e-08 -6.80173e-08 9.33391e-06
0.00185511 -7.79414e-08 9.61606e-07
-7.79414e-08 0.000133412 -2.10072e-07
9.61606e-07 -2.10072e-07 5.30691e-05
0.00176573 -5.19396e-06 -1.3726e-06
-5.19396e-06 4.41757e-05 -9.82986e-08
-1.3726e-06 -9.82986e-08 -1.01401e-05
0.00189124 8.2471e-05 2.75702e-07
8.2471e-05 3.96347e-05 4.00619e-09
2.75702e-07 4.00619e-09 6.1353e-06
0.00189324 0.00020433 -6.52618e-07
0.00020433 4.31315e-05 -2.59815e-07
-6.52618e-07 -2.59815e-07 -2.15255e-05
0.00188694 1.82398e-06 3.06617e-06
1.82398e-06 2.54967e-05 -2.52569e-07
3.06617e-06 -2.52569e-07 6.00954e-06
0.0019654 0.000122547 2.01761e-06
0.000122547 2.7174e-05 -5.8951e-10
2.01761e-06 -5.8951e-10 -1.21169e-06
0.00198081 6.73216e-05 -4.3625e-06
6.73216e-05 8.84913e-05 2.71851e-06
-4.3625e-06 2.71851e-06 0.000114699
0.00191731 -5.65278e-05 -2.22262e-06
-5.65278e-05 0.000127143 -6.54197e-08
-2.22262e-06 -6.54197e-08 6.13539e-05
0.00191873 -0.00015235 -3.07363e-06
-0.00015235 8.33713e-05 8.2823e-07
-3.07363e-06 8.2823e-07 2.08944e-05
0.00184174 -0.000225251 -2.65934e-06
-0.000225251 9.77588e-05 1.31306e-06
-2.65934e-06 1.31306e-06 2.09526e-05
0.00127115 -0.000248655 -3.39551e-09
-0.000248655 0.000291705 6.37107e-06
-3.39551e-09 6.37107e-06 8.55571e-05
0.00100722 -0.000299708 6.62402e-07
-0.000299708 -3.73325e-06 3.52633e-06
6.62402e-07 3.52633e-06 -0.000266526
0.00173573 -0.000389208 -4.63241e-06
-0.000389208 0.000294151 -3.32811e-06
-4.63241e-06 -3.32811e-06 3.60774e-05
0.00191658 -0.000294267 2.10558e-06
-0.000294267 0.00012456 -1.83142e-07
2.10558e-06 -1.83142e-07 2.28403e-05
0.00152901 -0.000328006 -4.07509e-06
-0.000328006 -9.56308e-06 -6.08301e-06
-4.07509e-06 -6.08301e-06 -0.000169334
0.0001247 -0.000147964 -2.50329e-06
-0.000147964 -0.000338755 6.98428e-06
-2.50329e-06 6.98428e-06 -0.000498949
0.001951 -0.000268399 1.18162e-05
-0.000268399 0.000785669 -3.12707e-06
1.18162e-05 -3.12707e-06 0.000594523
0.000707324 -2.09346e-05 1.1358e-07
-2.09346e-05 9.2327e-05 -4.93146e-07
1.1358e-07 -4.93146e-07 -6.74787e-05
0.000594783 1.52276e-05 -1.83928e-07
1.52276e-05 -7.69722e-06 6.43207e-07
-1.83928e-07 6.43207e-07 -5.31326e-05
0.000810811 2.01601e-05 5.5934e-07
2.01601e-05 0.000150386 1.09319e-06
5.5934e-07 1.09319e-06 5.45702e-05
0.000829931 -3.95465e-05 6.96653e-07
-3.95465e-05 0.000170548 1.76443e-06
6.96653e-07 1.76443e-06 3.84895e-05
0.00187129 -7.85283e-05 2.09821e-07
-7.85283e-05 3.24052e-05 -6.68496e-09
2.09821e-07 -6.68496e-09 -4.18428e-06
0.000621715 1.51756e-05 1.03389e-06
1.51756e-05 2.27523e-06 1.08217e-07
1.03389e-06 1.08217e-07 -3.86165e-05
0.000567343 -3.02149e-05 -1.64483e-06
-3.02149e-05 -8.859e-06 -5.06757e-08
-1.64483e-06 -5.06757e-08 -7.71635e-05
0.00191248 -0.000199854 -3.16519e-07
-0.000199854 4.97965e-05 2.5653e-07
-3.16519e-07 2.5653e-07 1.3506e-05
0.0018318 -0.000245187 -1.5952e-06
-0.000245187 4.54899e-05 4.04448e-07
-1.5952e-06 4.04448e-07 -2.25863e-05
0.000541126 -0.000214914 1.04385e-06
-0.000214914 -0.00014777 2.90581e-06
1.04385e-06 2.90581e-06 -0.000364238
0.00190521 -0.00041695 -5.37436e-07
-0.00041695 0.000477023 2.84063e-07
-5.37436e-07 2.84063e-07 0.000161941
0.00151398 -0.000384979 2.56669e-06
-0.000384979 0.000112128 -1.35311e-06
2.56669e-06 -1.35311e-06 -0.000131874
0.00200554 -0.000386734 2.39911e-06
-0.000386734 0.000153887 -1.03096e-06
2.39911e-06 -1.03096e-06 2.55627e-05
0.000737415 -1.68922e-05 9.7062e-07
-1.68922e-05 0.000109376 -1.05971e-06
9.7062e-07 -1.05971e-06 2.44173e-05
0.000753233 -2.69368e-05 2.18529e-07
-2.69368e-05 0.00013683 1.17499e-06
2.18529e-07 1.17499e-06 1.29007e-05
0.000940091 -0.000214858 -2.91319e-06
-0.000214858 9.39854e-05 -7.83786e-07
-2.91319e-06 -7.83786e-07 -7.46759e-05
0.0015143 -0.000248231 1.24566e-05
-0.000248231 0.000569108 -3.3834e-06
1.24566e-05 -3.3834e-06 0.000349675
0.000486004 -8.1663e-05 -2.36885e-06
-8.1663e-05 -2.69151e-05 1.51416e-08
-2.36885e-06 1.51416e-08 -0.000193629
0.000710639 -1.76665e-05 3.96555e-07
-1.76665e-05 0.000101071 -5.7321e-07
3.96555e-07 -5.7321e-07 -3.87231e-05
0.00191584 -8.68789e-05 3.02542e-06
-8.68789e-05 -4.96056e-06 -6.27551e-07
3.02542e-06 -6.27551e-07 -3.05218e-05
0.00184731 -0.000220415 6.75523e-07
-0.000220415 -2.54752e-05 -6.57586e-07
6.75523e-07 -6.57586e-07 -1.16579e-05
0.00203916 -0.000352704 -1.08363e-06
-0.000352704 8.53243e-05 -2.35225e-06
-1.08363e-06 -2.35225e-06 2.39028e-06
0.00161449 -0.000432923 3.15498e-06
-0.000432923 4.13901e-05 8.46966e-07
3.15498e-06 8.46966e-07 -0.000117774
0.000727935 -0.000196457 -8.84366e-06
-0.000196457 -3.07643e-05 -8.01008e-06
-8.84366e-06 -8.01008e-06 -0.000245726
0.0023126 -0.000486942 -7.433e-06
-0.000486942 0.000679137 5.20172e-06
-7.433e-06 5.20172e-06 0.000344831
0.000433083 5.7123e-05 -1.18002e-06
5.7123e-05 -7.83239e-05 -2.42403e-06
-1.18002e-06 -2.42403e-06 -0.000151485
0.000683834 -5.8967e-05 2.8324e-06
-5.8967e-05 6.27068e-05 -9.82446e-07
2.8324e-06 -9.82446e-07 -8.85477e-06
0.000925962 -7.89929e-05 1.55704e-06
-7.89929e-05 0.000215743 6.65703e-07
1.55704e-06 6.65703e-07 0.000121575
0.00046852 1.98241e-05 -1.401e-06
1.98241e-05 -3.32604e-05 2.25772e-06
-1.401e-06 2.25772e-06 -0.000150645
0.000942868 -5.69861e-05 -1.03374e-06
-5.69861e-05 0.000234442 1.16502e-06
-1.03374e-06 1.16502e-06 0.000111468
0.00101373 -4.65059e-05 2.56041e-06
-4.65059e-05 0.000240513 6.99091e-07
2.56041e-06 6.99091e-07 8.87319e-05
-0.000316826 -8.97382e-05 6.27909e-06
-8.97382e-05 -0.000353694 6.42543e-07
6.27909e-06 6.42543e-07 -0.000643488
0.000178973 -0.000217272 -1.72273e-05
-0.000217272 -0.000330575 2.06263e-06
-1.72273e-05 2.06263e-06 -0.000495473
0.000472526 3.59847e-05 1.35811e-08
3.59847e-05 -3.99477e-05 -9.33612e-07
1.35811e-08 -9.33612e-07 -0.00014244
0.000722071 0.000115444 -3.38956e-06
0.000115444 0.000130798 -2.83333e-06
-3.38956e-06 -2.83333e-06 -1.9881e-05
0.00205755 0.000267114 -2.28486e-06
0.000267114 0.000110665 -1.03536e-06
-2.28486e-06 -1.03536e-06 4.42241e-05
0.00197774 0.000329554 -5.64037e-07
0.000329554 0.000220163 2.00542e-06
-5.64037e-07 2.00542e-06 7.22279e-05
0.00171165 0.000204696 -6.33179e-06
0.000204696 0.000633625 -2.0759e-06
-6.33179e-06 -2.0759e-06 0.000461522
0.001136 0.000239106 -2.43583e-06
0.000239106 0.000259149 -8.80705e-06
-2.43583e-06 -8.80705e-06 3.26022e-05
0.00183613 0.000383987 7.47162e-07
0.000383987 0.000248329 1.50631e-06
7.47162e-07 1.50631e-06 3.08491e-05
0.0018361 0.000357046 2.35863e-07
0.000357046 0.000455925 -7.15165e-07
2.35863e-07 -7.15165e-07 0.000184701
0.000616572 5.02715e-05 8.00983e-07
5.02715e-05 4.27493e-05 -8.64786e-07
8.00983e-07 -8.64786e-07 -6.37187e-05
0.00198295 0.000207322 -2.52892e-07
0.000207322 3.38797e-05 -2.33034e-07
-2.52892e-07 -2.33034e-07 7.27676e-06
0.000974325 0.000173261 8.83752e-07
0.000173261 0.00027599 1.64033e-06
8.83752e-07 1.64033e-06 9.51509e-05
0.000842412 0.00022376 1.4316e-06
0.00022376 5.72487e-05 1.70976e-07
1.4316e-06 1.70976e-07 -0.000169444
0.00221794 0.000314634 2.72229e-06
0.000314634 0.000256717 5.73905e-07
2.72229e-06 5.73905e-07 0.000164369
0.00141412 0.000377108 -7.50361e-07
0.000377108 -5.36264e-05 -2.90045e-06
-7.50361e-07 -2.90045e-06 -0.000253756
0.00206833 0.000404772 -3.01555e-08
0.000404772 0.000531775 4.80111e-07
-3.01555e-08 4.80111e-07 0.000257029
0.00113 0.000120951 -3.10344e-06
0.000120951 0.000360253 2.83815e-06
-3.10344e-06 2.83815e-06 0.000217222
0.00240093 0.000227115 -3.82822e-05
0.000227115 0.000319852 -8.75615e-06
-3.82822e-05 -8.75615e-06 0.000325504
0.00245135 0.000364812 -5.23608e-06
0.000364812 0.00107189 2.46799e-07
-5.23608e-06 2.46799e-07 0.000855787
0.0021513 0.000369908 -7.20889e-06
0.000369908 0.000722227 9.72674e-07
-7.20889e-06 9.72674e-07 0.00046943
0.00207502 0.000433695 -1.69076e-05
0.000433695 0.000193965 -1.26464e-05
-1.69076e-05 -1.26464e-05 6.06431e-05
0.00121829 0.000367569 -1.23481e-05
0.000367569 -1.18801e-05 -7.92091e-07
-1.23481e-05 -7.92091e-07 -0.000264521
0.000814455 0.000292393 2.51883e-05
0.000292393 -0.000498743 -1.58408e-05
2.51883e-05 -1.58408e-05 -0.000715308
0.000569835 4.56299e-05 6.63935e-07
4.56299e-05 1.14204e-05 -3.28901e-07
6.63935e-07 -3.28901e-07 -8.19057e-05
0.000697769 2.68617e-05 -6.08228e-08
2.68617e-05 9.86614e-05 7.60152e-07
-6.08228e-08 7.60152e-07 6.52277e-06
0.00124404 4.86777e-05 -1.67798e-07
4.86777e-05 0.000400058 -1.14223e-06
-1.67798e-07 -1.14223e-06 0.000305699
0.000637677 -5.75189e-05 5.60321e-09
-5.75189e-05 4.74354e-05 -2.13983e-06
5.60321e-09 -2.13983e-06 -3.68637e-05
0.000586158 -4.30805e-05 -1.14982e-06
-4.30805e-05 1.87198e-05 1.14189e-08
-1.14982e-06 1.14189e-08 -7.89691e-05
0.000897837 0.000112079 -2.10654e-07
0.000112079 0.000210062 5.7306e-07
-2.10654e-07 5.7306e-07 9.82531e-05
0.000420014 -2.50712e-05 -8.59921e-07
-2.50712e-05 -7.33024e-05 2.17479e-06
-8.59921e-07 2.17479e-06 -0.000167138
0.000654584 -2.31232e-05 -7.15857e-08
-2.31232e-05 5.60795e-05 -2.94062e-08
-7.15857e-08 -2.94062e-08 -2.95848e-05
0.000649804 3.48632e-05 -8.59453e-08
3.48632e-05 4.84124e-05 -3.52055e-07
-8.59453e-08 -3.52055e-07 -5.09643e-05
0.000799652 1.85851e-05 -6.43097e-07
1.85851e-05 0.000124248 1.36989e-08
-6.43097e-07 1.36989e-08 3.74738e-05
0.000767769 1.22541e-05 3.49758e-07
1.22541e-05 0.000119623 -6.93566e-08
3.49758e-07 -6.93566e-08 1.43663e-05
0.000796711 -1.27221e-05 -2.37965e-08
-1.27221e-05 0.000131125 -2.06432e-07
-2.37965e-08 -2.06432e-07 3.38515e-05
0.000859075 1.7021e-05 -7.8421e-07
1.7021e-05 0.000153506 -2.37271e-06
-7.8421e-07 -2.37271e-06 6.81314e-05
0.000816816 2.67533e-05 -1.17852e-06
2.67533e-05 0.000136752 -1.82717e-06
-1.17852e-06 -1.82717e-06 2.95083e-05
0.000811523 6.30743e-05 4.43273e-07
6.30743e-05 0.000136229 4.05095e-07
4.43273e-07 4.05095e-07 3.38143e-05
0.000697281 3.83913e-05 2.52119e-07
3.83913e-05 8.80829e-05 1.15678e-06
2.52119e-07 1.15678e-06 -2.59758e-05
0.000518423 -1.83994e-05 -1.35426e-07
-1.83994e-05 -3.71001e-05 1.92735e-06
-1.35426e-07 1.92735e-06 -0.000118807
0.000889308 -2.21345e-05 7.68868e-08
-2.21345e-05 0.000217157 -9.44496e-07
7.68868e-08 -9.44496e-07 0.000101332
0.000460045 -6.66424e-06 -6.11155e-07
-6.66424e-06 -6.64038e-05 2.06376e-06
-6.11155e-07 2.06376e-06 -0.000152654
0.000580976 7.9105e-06 -9.61194e-07
7.9105e-06 -8.42399e-06 1.84441e-06
-9.61194e-07 1.84441e-06 -6.03061e-05
0.000597604 1.79264e-05 9.44788e-07
1.79264e-05 2.60616e-07 -5.09116e-09
9.44788e-07 -5.09116e-09 -5.05579e-05
0.00056955 2.7724e-06 2.17942e-07
2.7724e-06 -4.53894e-05 3.68851e-06
2.17942e-07 3.68851e-06 -5.97267e-05
0.000608233 -2.22194e-06 -1.20595e-06
-2.22194e-06 4.21112e-06 -2.13381e-06
-1.20595e-06 -2.13381e-06 -4.57019e-05
0.000950385 -4.07169e-06 -1.86283e-06
-4.07169e-06 0.000178631 -1.6343e-06
-1.86283e-06 -1.6343e-06 0.00016685
0.00232477 -1.27175e-05 7.6187e-06
-1.27175e-05 0.00098994 5.11932e-06
7.6187e-06 5.11932e-06 0.00100638
0.00135354 -1.32544e-05 -2.89059e-06
-1.32544e-05 0.000416317 -5.4107e-06
-2.89059e-06 -5.4107e-06 0.000406768
0.000833245 -1.64978e-05 2.01898e-06
-1.64978e-05 0.000110995 3.16621e-06
2.01898e-06 3.16621e-06 0.000119611
0.000789361 -2.30836e-05 -4.33839e-07
-2.30836e-05 8.69654e-05 -2.07108e-06
-4.33839e-07 -2.07108e-06 9.51466e-05
0.000634463 7.68194e-06 -3.27531e-07
7.68194e-06 8.4384e-06 -1.6496e-06
-3.27531e-07 -1.6496e-06 -2.88364e-05
0.000648864 -1.64124e-06 8.54339e-07
-1.64124e-06 1.55642e-05 -9.15892e-08
8.54339e-07 -9.15892e-08 -2.31052e-05
0.000596796 2.13533e-05 3.62583e-07
2.13533e-05 -3.00552e-05 -3.4476e-06
3.62583e-07 -3.4476e-06 -3.87038e-05
0.000902788 3.36738e-05 -3.93294e-07
3.36738e-05 0.000154961 5.31721e-08
-3.93294e-07 5.31721e-08 0.000145452
0.00211605 5.14456e-05 1.49545e-05
5.14456e-05 0.000878433 -4.19132e-06
1.49545e-05 -4.19132e-06 0.00089336
0.000584663 3.85563e-05 2.653e-07
3.85563e-05 -2.51771e-05 3.76145e-06
2.653e-07 3.76145e-06 -4.05604e-05
0.00222269 6.71935e-05 -2.83814e-06
6.71935e-05 0.00094918 -1.73837e-07
-2.83814e-06 -1.73837e-07 0.000960703
0.00243652 8.47176e-05 -2.37498e-05
8.47176e-05 0.00108362 3.92106e-06
-2.37498e-05 3.92106e-06 0.00109072
0.00189503 0.000207731 -3.91751e-06
0.000207731 4.18296e-05 -1.25747e-06
-3.91751e-06 -1.25747e-06 -2.14052e-05
0.00188274 7.79922e-05 -2.21997e-06
7.79922e-05 3.60104e-05 1.66121e-08
-2.21997e-06 1.66121e-08 1.37886e-06
0.00179875 -2.50185e-06 -2.87107e-06
-2.50185e-06 6.29203e-05 -5.97687e-08
-2.87107e-06 -5.97687e-08 1.12811e-05
0.00188013 2.26167e-06 5.78647e-08
2.26167e-06 2.47443e-05 -2.08711e-07
5.78647e-08 -2.08711e-07 4.92408e-06
0.00193183 0.000121089 2.6727e-07
0.000121089 2.2818e-05 1.01027e-08
2.6727e-07 1.01027e-08 -7.10951e-06
0.0018607 5.98544e-05 3.58795e-06
5.98544e-05 9.80282e-06 3.58994e-07
3.58795e-06 3.58994e-07 2.74628e-05
0.00191711 1.12449e-05 3.68813e-07
1.12449e-05 -1.8369e-05 -1.89581e-07
3.68813e-07 -1.89581e-07 -1.06779e-05
0.00271038 0.000268585 2.93107e-05
0.000268585 -0.00018667 3.12571e-06
2.93107e-05 3.12571e-06 -0.000139959
0.00210682 3.2896e-05 -2.88023e-05
3.2896e-05 0.000296494 8.27558e-06
-2.88023e-05 8.27558e-06 0.000350714
0.000634343 7.45069e-05 -8.70419e-07
7.45069e-05 3.99558e-05 -6.38937e-07
-8.70419e-07 -6.38937e-07 -2.86445e-05
0.0018516 -7.94673e-05 -2.74478e-06
-7.94673e-05 1.79573e-05 -7.41535e-08
-2.74478e-06 -7.41535e-08 -1.59018e-05
0.00189198 -0.000191893 -1.18719e-06
-0.000191893 5.54131e-05 1.13671e-06
-1.18719e-06 1.13671e-06 1.18409e-05
0.00179359 -0.000247044 9.1948e-08
-0.000247044 2.14e-05 1.69554e-06
9.1948e-08 1.69554e-06 -4.73634e-05
0.000580157 -0.000214649 2.20145e-06
-0.000214649 -0.000114521 8.67408e-06
2.20145e-06 8.67408e-06 -0.000325017
0.00178852 -0.000405717 1.8567e-06
-0.000405717 0.00041684 6.17961e-06
1.8567e-06 6.17961e-06 0.000100161
0.00151892 -0.000390583 -4.43559e-07
-0.000390583 9.10294e-05 -8.05104e-06
-4.43559e-07 -8.05104e-06 -0.000149997
0.00214584 -0.000394161 -5.64759e-06
-0.000394161 0.000243686 -2.69595e-06
-5.64759e-06 -2.69595e-06 0.000111775
0.00168202 -0.000262011 1.18051e-05
-0.000262011 0.000514495 -1.50157e-06
1.18051e-05 -1.50157e-06 0.000336677
0.000449985 -0.000162504 9.73624e-06
-0.000162504 -5.02715e-05 -4.72206e-06
9.73624e-06 -4.72206e-06 -0.000226579
0.000939589 -9.7689e-05 8.19801e-07
-9.7689e-05 0.000230464 -1.59647e-06
8.19801e-07 -1.59647e-06 6.35362e-05
0.000623292 3.7457e-06 -9.55645e-07
3.7457e-06 2.76053e-06 1.66419e-06
-9.55645e-07 1.66419e-06 -3.72776e-05
0.000808757 -1.68322e-05 1.6198e-06
-1.68322e-05 0.000167368 -5.13118e-07
1.6198e-06 -5.13118e-07 2.34579e-05
0.0009402 -4.17749e-05 1.4276e-06
-4.17749e-05 0.000233092 -3.6544e-07
1.4276e-06 -3.6544e-07 0.000147673
0.000805315 -2.16825e-05 4.52966e-07
-2.16825e-05 0.000164222 -3.91288e-07
4.52966e-07 -3.91288e-07 4.01064e-05
0.000429283 -2.21781e-05 -1.77431e-06
-2.21781e-05 -9.53721e-05 1.22829e-06
-1.77431e-06 1.22829e-06 -0.000160558
0.00193845 -9.87812e-05 -1.84258e-07
-9.87812e-05 -1.24864e-05 1.46912e-07
-1.84258e-07 1.46912e-07 -2.58624e-05
0.000533585 3.62219e-05 6.45758e-08
3.62219e-05 -1.6488e-05 -1.1619e-06
6.45758e-08 -1.1619e-06 -9.03881e-05
0.000672967 -5.31898e-05 5.8144e-07
-5.31898e-05 6.24655e-05 3.9758e-07
5.8144e-07 3.9758e-07 -1.23687e-05
0.000788771 -4.64554e-05 -2.15687e-07
-4.64554e-05 0.000137136 7.84642e-07
-2.15687e-07 7.84642e-07 4.12287e-05
0.00186054 -0.000224398 1.1457e-06
-0.000224398 -1.24804e-05 -2.48777e-07
1.1457e-06 -2.48777e-07 -7.50308e-06
0.00202256 -0.000349276 -8.09296e-07
-0.000349276 8.90975e-05 -3.06526e-07
-8.09296e-07 -3.06526e-07 4.08731e-06
0.00115194 -0.000249579 4.65849e-06
-0.000249579 0.000195471 5.57117e-09
4.65849e-06 5.57117e-09 -1.88599e-05
0.00199642 -0.000459001 4.97823e-06
-0.000459001 0.00051684 6.00183e-08
4.97823e-06 6.00183e-08 0.000190823
0.00180884 -0.000443213 -9.0738e-08
-0.000443213 0.000164635 1.84576e-06
-9.0738e-08 1.84576e-06 -1.478e-06
0.000528873 -9.21189e-06 -3.59847e-07
-9.21189e-06 4.74367e-06 -1.93772e-07
-3.59847e-07 -1.93772e-07 -0.000110624
0.00083157 -6.78818e-05 -1.59301e-06
-6.78818e-05 0.000176071 4.15405e-07
-1.59301e-06 4.15405e-07 4.44452e-05
0.000684736 -0.000258274 -4.89319e-06
-0.000258274 -2.75904e-05 5.65537e-07
-4.89319e-06 5.65537e-07 -0.000221159
0.000523827 -9.7195e-05 -2.7138e-07
-9.7195e-05 7.1345e-05 -1.30793e-06
-2.7138e-07 -1.30793e-06 -0.000178834
0.000705115 -6.48423e-05 9.90341e-09
-6.48423e-05 6.50881e-05 -3.37972e-07
9.90341e-09 -3.37972e-07 -8.30005e-05
0.00228023 -0.000201129 -2.13905e-06
-0.000201129 0.000168989 -1.5338e-06
-2.13905e-06 -1.5338e-06 0.000167592
0.00174773 -0.000238364 -7.89546e-06
-0.000238364 -0.000116938 1.68114e-06
-7.89546e-06 1.68114e-06 -8.605e-05
0.00250548 -0.000490269 -4.85003e-06
-0.000490269 0.000382056 -2.1622e-06
-4.85003e-06 -2.1622e-06 0.00024229
0.0026548 -0.000541884 -2.03805e-05
-0.000541884 0.000736893 1.23161e-06
-2.03805e-05 1.23161e-06 0.000510034
0.00125093 -0.000282389 -1.24632e-05
-0.000282389 0.000291819 -3.92111e-06
-1.24632e-05 -3.92111e-06 5.52382e-05
0.000460134 1.08025e-05 1.32332e-06
1.08025e-05 -5.55604e-05 -1.34341e-06
1.32332e-06 -1.34341e-06 -0.000149083
0.000498471 4.7623e-05 4.95925e-07
4.7623e-05 -3.96832e-05 2.31637e-07
4.95925e-07 2.31637e-07 -0.000138879
0.00052157 3.97355e-06 4.47024e-07
3.97355e-06 -1.66625e-05 -1.104e-06
4.47024e-07 -1.104e-06 -0.000122649
0.00124269 -0.000139613 -1.56514e-06
-0.000139613 0.000430248 3.6101e-06
-1.56514e-06 3.6101e-06 0.000298267
0.000544353 -5.37013e-05 -1.552e-07
-5.37013e-05 -1.21224e-05 4.03056e-06
-1.552e-07 4.03056e-06 -0.000136883
8.65383e-05 -6.52055e-05 2.22028e-06
-6.52055e-05 -0.00015243 2.13439e-06
2.22028e-06 2.13439e-06 -0.00041345
0.000434861 -0.000296595 3.40516e-06
-0.000296595 2.37353e-05 -1.92233e-06
3.40516e-06 -1.92233e-06 -0.000289298
0.000784965 8.1727e-05 1.41722e-06
8.1727e-05 0.000153892 -4.26017e-06
1.41722e-06 -4.26017e-06 3.53867e-05
0.000178159 7.9038e-05 6.09856e-07
7.9038e-05 -0.00019295 -1.21297e-06
6.09856e-07 -1.21297e-06 -0.000354578
0.00209337 0.000199521 7.41729e-06
0.000199521 8.26095e-05 1.47793e-07
7.41729e-06 1.47793e-07 6.63662e-05
0.00204111 0.000307262 1.19285e-05
0.000307262 0.000160749 3.13372e-06
1.19285e-05 3.13372e-06 6.97697e-05
0.00180104 0.000401633 8.27206e-06
0.000401633 0.000157992 3.37864e-06
8.27206e-06 3.37864e-06 -4.13039e-05
0.00054244 0.000199666 1.3288e-06
0.000199666 -0.000111664 -1.36218e-06
1.3288e-06 -1.36218e-06 -0.000336941
0.0021819 0.000414355 2.66915e-06
0.000414355 0.000610775 8.94438e-07
2.66915e-06 8.94438e-07 0.000335359
0.00130542 0.000101749 -1.75742e-07
0.000101749 0.000448899 5.02332e-07
-1.75742e-07 5.02332e-07 0.000316088
0.00214224 0.000195193 -2.3957e-06
0.000195193 0.000193936 2.64802e-07
-2.3957e-06 2.64802e-07 0.000208185
0.00152149 0.000260276 -1.68578e-06
0.000260276 0.000535284 1.22467e-07
-1.68578e-06 1.22467e-07 0.000340973
0.00150721 0.000313353 -6.4455e-07
0.000313353 0.000382936 1.1376e-06
-6.4455e-07 1.1376e-06 0.00012877
0.00201373 0.000416019 -1.49605e-06
0.000416019 0.000165466 -3.21331e-06
-1.49605e-06 -3.21331e-06 4.02022e-05
0.00161028 0.000404054 -2.53946e-06
0.000404054 0.000209326 3.8403e-06
-2.53946e-06 3.8403e-06 -5.28715e-05
0.00171203 0.000367431 3.07278e-05
0.000367431 -0.000283526 2.09655e-06
3.07278e-05 2.09655e-06 -0.00058449
0.00119507 0.00017302 -4.22049e-06
0.00017302 0.000406166 -9.51653e-07
-4.22049e-06 -9.51653e-07 0.000250996
0.00223179 0.00032173 -4.34115e-05
0.00032173 0.000309561 -2.33776e-05
-4.34115e-05 -2.33776e-05 0.000305177
0.00124139 0.000255021 -5.36576e-06
0.000255021 0.000323638 -7.57906e-07
-5.36576e-06 -7.57906e-07 0.000134108
0.000970096 0.000299152 -3.81805e-06
0.000299152 1.34804e-05 -2.9812e-06
-3.81805e-06 -2.9812e-06 -0.000246061
3.48749e-05 0.000370676 -1.38287e-05
0.000370676 -0.000767355 -6.47809e-06
-1.38287e-05 -6.47809e-06 -0.00096343
0.00986264 0.000326551 -0.000168851
0.000326551 0.00226378 -3.69209e-05
-0.000168851 -3.69209e-05 0.00136455
0.00520235 0.000697789 0.00013065
0.000697789 0.000637508 -1.7917e-05
0.00013065 -1.7917e-05 0.000209471
0.00156395 0.000518541 2.11456e-05
0.000518541 4.66351e-05 1.17204e-05
2.11456e-05 1.17204e-05 -0.000160676
-0.00484839 -0.000641834 0.000313513
-0.000641834 -0.00132677 1.68668e-05
0.000313513 1.68668e-05 -0.00245587
0.00728841 -0.00200203 -1.47447e-05
-0.00200203 0.0013998 1.04497e-05
-1.47447e-05 1.04497e-05 0.00289575
0.000513733 3.65224e-05 2.64768e-06
3.65224e-05 -6.58608e-07 7.43473e-07
2.64768e-06 7.43473e-07 -9.42024e-05
0.000905989 2.87681e-05 8.06501e-07
2.87681e-05 0.000219626 -6.52823e-07
8.06501e-07 -6.52823e-07 0.000125986
0.000926495 7.48423e-05 -2.38118e-06
7.48423e-05 0.000225176 -2.11586e-06
-2.38118e-06 -2.11586e-06 0.000127138
0.000638552 -5.90876e-05 -4.26772e-09
-5.90876e-05 5.38866e-05 -1.69417e-06
-4.26772e-09 -1.69417e-06 -3.63178e-05
0.000631664 5.65859e-05 -1.13514e-06
5.65859e-05 4.10569e-05 -1.31662e-06
-1.13514e-06 -1.31662e-06 -6.19021e-05
0.000772908 -3.267e-05 3.02761e-07
-3.267e-05 0.000124393 -3.52374e-07
3.02761e-07 -3.52374e-07 1.85552e-05
0.000856623 1.10732e-05 -1.13725e-06
1.10732e-05 0.000163302 2.02054e-06
-1.13725e-06 2.02054e-06 6.4802e-05
0.000668488 9.38197e-06 -4.87384e-07
9.38197e-06 5.12939e-05 1.19578e-06
-4.87384e-07 1.19578e-06 -3.72418e-05
0.000755392 7.0876e-05 -1.36878e-06
7.0876e-05 0.000115293 -4.59401e-07
-1.36878e-06 -4.59401e-07 3.70593e-06
0.000582876 -7.90289e-06 -2.18921e-08
-7.90289e-06 6.33438e-06 7.0662e-07
-2.18921e-08 7.0662e-07 -7.80349e-05
0.000687868 2.17049e-05 9.76019e-08
2.17049e-05 7.9757e-05 6.00966e-08
9.76019e-08 6.00966e-08 -3.17495e-05
0.000774411 1.88202e-05 6.61938e-07
1.88202e-05 0.000103197 3.21978e-07
6.61938e-07 3.21978e-07 1.70479e-05
0.000823348 3.35352e-05 -4.85464e-07
3.35352e-05 0.000139736 -1.39199e-07
-4.85464e-07 -1.39199e-07 3.63534e-05
0.000974013 7.59011e-05 -1.06659e-06
7.59011e-05 0.00022812 -9.81703e-07
-1.06659e-06 -9.81703e-07 0.000123162
0.000455168 3.60199e-05 9.38964e-08
3.60199e-05 -6.84819e-05 -2.44492e-06
9.38964e-08 -2.44492e-06 -0.000161635
0.000852099 7.2124e-05 1.47847e-06
7.2124e-05 0.000156434 6.4822e-07
1.47847e-06 6.4822e-07 4.93445e-05
0.000605442 -1.65566e-05 1.06915e-06
-1.65566e-05 1.91084e-05 1.2679e-07
1.06915e-06 1.2679e-07 -8.54712e-05
0.000494807 -4.82271e-05 -1.16299e-06
-4.82271e-05 -4.48435e-05 1.68642e-06
-1.16299e-06 1.68642e-06 -0.000132911
0.000794991 3.1694e-06 -9.07859e-07
3.1694e-06 0.00014063 -8.74485e-08
-9.07859e-07 -8.74485e-08 3.09069e-05
0.000797787 3.93077e-05 -1.39758e-07
3.93077e-05 0.000141712 -2.25388e-06
-1.39758e-07 -2.25388e-06 3.56599e-05
0.000674477 -1.49699e-05 -9.96035e-07
-1.49699e-05 7.95094e-05 -1.57328e-07
-9.96035e-07 -1.57328e-07 -2.37307e-05
0.000806085 -1.58446e-05 1.07706e-06
-1.58446e-05 0.000152474 -5.53604e-07
1.07706e-06 -5.53604e-07 4.62586e-05
0.000684249 -7.57636e-05 -2.18588e-06
-7.57636e-05 6.44831e-05 1.24623e-06
-2.18588e-06 1.24623e-06 -1.88606e-05
0.00050179 -5.51916e-06 1.18987e-07
-5.51916e-06 -3.96173e-05 7.60633e-07
1.18987e-07 7.60633e-07 -0.000128045
0.000616601 -1.03486e-05 -1.24158e-06
-1.03486e-05 6.90066e-06 2.112e-06
-1.24158e-06 2.112e-06 -4.33324e-05
0.000606844 -1.33958e-05 8.07389e-07
-1.33958e-05 5.55769e-06 -2.20752e-08
8.07389e-07 -2.20752e-08 -4.58025e-05
0.000602141 6.65964e-06 -3.57549e-07
6.65964e-06 -2.49346e-05 5.35452e-06
-3.57549e-07 5.35452e-06 -3.99851e-05
0.000604551 1.11539e-05 -6.11074e-07
1.11539e-05 3.12705e-06 -1.94437e-06
-6.11074e-07 -1.94437e-06 -4.67791e-05
0.000579817 2.52433e-06 3.39133e-07
2.52433e-06 -3.91494e-05 -1.478e-08
3.39133e-07 -1.478e-08 -5.35805e-05
0.00233303 -1.49842e-06 -4.70071e-07
-1.49842e-06 0.000994362 5.20675e-06
-4.70071e-07 5.20675e-06 0.00101071
0.00061721 -2.23622e-06 -5.24116e-07
-2.23622e-06 -1.76837e-05 -5.47326e-06
-5.24116e-07 -5.47326e-06 -3.1745e-05
0.00158189 -9.56437e-06 -1.01442e-07
-9.56437e-06 0.000551034 7.84733e-08
-1.01442e-07 7.84733e-08 0.000563506
0.000789875 -1.47093e-05 3.83217e-08
-1.47093e-05 8.41714e-05 -2.06165e-06
3.83217e-08 -2.06165e-06 9.31398e-05
0.00063094 -5.70294e-06 6.54176e-07
-5.70294e-06 8.50924e-06 -1.52288e-06
6.54176e-07 -1.52288e-06 -2.77613e-05
0.000643281 -1.27084e-05 4.56513e-07
-1.27084e-05 1.36814e-05 -2.54109e-08
4.56513e-07 -2.54109e-08 -2.40101e-05
0.000610218 1.42447e-05 3.06438e-07
1.42447e-05 -2.47286e-05 -3.26593e-06
3.06438e-07 -3.26593e-06 -3.17104e-05
0.000627296 -1.3952e-05 -1.55253e-06
-1.3952e-05 2.53165e-06 1.59758e-06
-1.55253e-06 1.59758e-06 -3.59463e-05
0.000885674 2.48237e-05 -7.63349e-08
2.48237e-05 0.000140397 -7.15347e-07
-7.63349e-08 -7.15347e-07 0.000133647
0.0020551 3.81205e-05 1.14615e-05
3.81205e-05 0.000837489 -4.32842e-06
1.14615e-05 -4.32842e-06 0.000854645
0.000584474 2.97432e-05 -4.23955e-07
2.97432e-05 -3.24404e-05 3.49016e-06
-4.23955e-07 3.49016e-06 -4.40421e-05
0.00218052 5.31911e-05 -7.31382e-06
5.31911e-05 0.000918478 1.1349e-06
-7.31382e-06 1.1349e-06 0.000932729
0.0022772 6.96549e-05 -1.83468e-05
6.96549e-05 0.000982227 4.03614e-06
-1.83468e-05 4.03614e-06 0.000993094
0.001894 0.000119595 -2.66232e-06
0.000119595 1.64882e-05 -5.26704e-07
-2.66232e-06 -5.26704e-07 -1.52297e-05
0.00187274 2.1337e-06 -2.55194e-06
2.1337e-06 2.40503e-05 -5.54311e-08
-2.55194e-06 -5.54311e-08 3.83999e-06
0.00156708 4.92282e-05 1.17691e-05
4.92282e-05 -0.000168879 -7.87537e-07
1.17691e-05 -7.87537e-07 -0.000158523
0.0022296 0.000193125 3.21727e-05
0.000193125 -0.000323934 7.58479e-06
3.21727e-05 7.58479e-06 -0.000297792
0.00189551 -5.22056e-07 -2.84469e-06
-5.22056e-07 -2.37151e-05 -5.08787e-07
-2.84469e-06 -5.08787e-07 -1.5596e-05
0.00182235 4.27632e-05 4.23249e-06
4.27632e-05 0.000142149 -1.70951e-06
4.23249e-06 -1.70951e-06 0.000180268
0.00289724 -8.48958e-06 -2.59759e-05
-8.48958e-06 0.000749988 2.8036e-06
-2.59759e-05 2.8036e-06 0.000729114
0.00223418 -5.30426e-05 8.85449e-05
-5.30426e-05 -0.000928515 -1.78483e-05
8.85449e-05 -1.78483e-05 -0.000905294
0.00261181 5.17798e-05 1.32565e-05
5.17798e-05 0.00011623 1.22168e-05
1.32565e-05 1.22168e-05 0.000188938
0.00065761 6.59254e-05 -6.65956e-08
6.59254e-05 5.67989e-05 -7.76996e-07
-6.65956e-08 -7.76996e-07 -1.50648e-05
0.000677032 -7.80048e-06 6.74222e-07
-7.80048e-06 7.00076e-05 -1.76414e-07
6.74222e-07 -1.76414e-07 -3.46707e-06
0.000646806 -8.60973e-05 -2.1646e-07
-8.60973e-05 5.32636e-05 3.29885e-07
-2.1646e-07 3.29885e-07 -3.38861e-05
0.000677954 -3.55202e-05 -1.01013e-06
-3.55202e-05 8.92699e-05 9.84979e-07
-1.01013e-06 9.84979e-07 -1.00736e-05
0.00195996 -0.000108753 -4.92466e-06
-0.000108753 -2.06821e-05 3.91096e-07
-4.92466e-06 3.91096e-07 -2.0527e-05
0.00185286 -0.000224417 -4.86367e-07
-0.000224417 -7.72057e-06 8.27922e-07
-4.86367e-07 8.27922e-07 -1.03625e-05
0.00194579 -0.00034112 -4.88034e-06
-0.00034112 5.96146e-05 1.73093e-06
-4.88034e-06 1.73093e-06 -2.74583e-05
0.00198252 -0.000346105 6.10544e-06
-0.000346105 0.000649057 5.61615e-06
6.10544e-06 5.61615e-06 0.000429242
0.00124504 -0.000395971 9.13456e-06
-0.000395971 0.000114201 -3.74594e-06
9.13456e-06 -3.74594e-06 -0.000200494
0.00210006 -0.000461627 4.49099e-06
-0.000461627 0.00033851 -3.35793e-06
4.49099e-06 -3.35793e-06 0.000165355
0.00102951 -0.000274978 -4.57364e-06
-0.000274978 0.000185113 1.62352e-06
-4.57364e-06 1.62352e-06 -3.04475e-05
0.00152259 -0.000111932 -1.56778e-08
-0.000111932 0.000585862 -5.11368e-07
-1.56778e-08 -5.11368e-07 0.000373838
0.000326082 -7.63439e-05 -1.01261e-06
-7.63439e-05 -0.000153368 -1.68468e-07
-1.01261e-06 -1.68468e-07 -0.000295916
0.000698454 -3.32575e-05 -5.19935e-07
-3.32575e-05 7.49662e-05 1.29236e-06
-5.19935e-07 1.29236e-06 2.39847e-06
0.000667649 -7.9865e-05 3.69319e-08
-7.9865e-05 8.95286e-05 -1.50823e-06
3.69319e-08 -1.50823e-06 -5.08134e-05
0.000810901 -6.63516e-06 2.6214e-07
-6.63516e-06 0.000169196 -7.06558e-07
2.6214e-07 -7.06558e-07 5.44444e-05
0.000671468 8.25985e-06 2.52293e-07
8.25985e-06 6.98496e-05 3.90663e-07
2.52293e-07 3.90663e-07 -6.40744e-06
0.000592063 1.38152e-05 -2.29762e-06
1.38152e-05 2.39712e-05 2.767e-06
-2.29762e-06 2.767e-06 -7.28048e-05
0.00220569 -0.000181443 1.09611e-06
-0.000181443 0.000140172 6.46802e-07
1.09611e-06 6.46802e-07 0.00014909
0.000675265 -7.45625e-06 1.0645e-06
-7.45625e-06 7.85848e-05 -4.32607e-07
1.0645e-06 -4.32607e-07 -1.89537e-05
0.000696506 1.0028e-05 1.93168e-06
1.0028e-05 8.37867e-05 -2.42473e-07
1.93168e-06 -2.42473e-07 -1.77797e-05
0.000498618 5.35829e-05 -1.47654e-08
5.35829e-05 -2.303e-05 1.52574e-06
-1.47654e-08 1.52574e-06 -0.000123499
0.00175064 -0.000241433 -1.17253e-06
-0.000241433 -0.000136249 -1.55031e-06
-1.17253e-06 -1.55031e-06 -0.000111047
0.0019877 -0.000451363 1.43133e-06
-0.000451363 0.000114771 -2.06081e-07
1.43133e-06 -2.06081e-07 -1.53787e-05
0.00140114 -0.000330262 -9.83819e-07
-0.000330262 0.000362402 -1.24308e-06
-9.83819e-07 -1.24308e-06 0.000119024
0.00217591 -0.000507388 -5.27643e-06
-0.000507388 0.000483732 1.86038e-06
-5.27643e-06 1.86038e-06 0.000261066
0.00104922 -6.34862e-05 -9.03903e-07
-6.34862e-05 0.000302182 6.39784e-07
-9.03903e-07 6.39784e-07 0.000176851
0.00059934 -7.43206e-05 -2.92805e-07
-7.43206e-05 1.90471e-05 9.86787e-07
-2.92805e-07 9.86787e-07 -0.000115015
0.000990354 -0.000337893 2.46858e-06
-0.000337893 0.000337193 -6.66093e-07
2.46858e-06 -6.66093e-07 1.52348e-05
0.00106435 -0.000154572 3.36615e-07
-0.000154572 0.000366341 1.17185e-07
3.36615e-07 1.17185e-07 0.000113864
0.00233102 -0.000202919 -1.87125e-05
-0.000202919 0.000151792 1.9706e-07
-1.87125e-05 1.9706e-07 0.000220866
0.00240405 -0.00037748 -1.93136e-05
-0.00037748 0.000226798 5.96513e-06
-1.93136e-05 5.96513e-06 0.000233606
0.00282472 -0.000594859 -9.98363e-06
-0.000594859 0.000643464 -5.65741e-06
-9.98363e-06 -5.65741e-06 0.000445232
0.00176712 -0.000450865 -3.40062e-06
-0.000450865 0.000452779 3.20215e-06
-3.40062e-06 3.20215e-06 0.000239838
0.000589175 3.29661e-06 -9.44944e-07
3.29661e-06 4.22613e-05 -2.37179e-06
-9.44944e-07 -2.37179e-06 -7.75635e-05
0.000549509 -7.06946e-05 -1.72504e-08
-7.06946e-05 1.40819e-05 -3.92892e-06
-1.72504e-08 -3.92892e-06 -0.000111495
0.000557246 -9.89496e-05 -1.48625e-06
-9.89496e-05 7.67039e-05 4.79612e-06
-1.48625e-06 4.79612e-06 -8.39034e-05
0.000296947 -0.000134514 1.13849e-06
-0.000134514 0.000104574 -6.79796e-06
1.13849e-06 -6.79796e-06 -0.000293434
0.0007485 -0.000332852 3.0496e-05
-0.000332852 -0.00274401 -4.87275e-06
3.0496e-05 -4.87275e-06 -0.00315875
0.00139567 9.35467e-05 7.40434e-07
9.35467e-05 0.000493499 -3.37624e-06
7.40434e-07 -3.37624e-06 0.000368473
0.000467576 0.000150518 3.31739e-06
0.000150518 -6.56258e-05 6.17347e-07
3.31739e-06 6.17347e-07 -0.000240196
0.00198449 0.000173204 4.21846e-05
0.000173204 0.000124872 7.31196e-06
4.21846e-05 7.31196e-06 0.000143434
0.00207484 0.000404881 1.47149e-05
0.000404881 0.000204074 7.27883e-06
1.47149e-05 7.27883e-06 8.47234e-05
0.00173774 0.000419197 5.34076e-06
0.000419197 0.000291808 6.19463e-06
5.34076e-06 6.19463e-06 2.04601e-05
0.00082251 0.000252682 5.4377e-06
0.000252682 1.95755e-05 2.32782e-06
5.4377e-06 2.32782e-06 -0.000236086
0.00296873 0.000457144 6.09931e-05
0.000457144 0.000167595 2.09165e-05
6.09931e-05 2.09165e-05 -0.000257261
0.00128781 0.00015354 2.19331e-06
0.00015354 0.000460478 -2.05791e-08
2.19331e-06 -2.05791e-08 0.000309479
0.00243748 0.000328276 -1.10541e-05
0.000328276 0.000405224 -1.03302e-06
-1.10541e-05 -1.03302e-06 0.00041324
0.00107544 0.000240677 1.09274e-06
0.000240677 0.00024597 1.69684e-07
1.09274e-06 1.69684e-07 5.77363e-05
0.00124281 0.000336216 1.62766e-06
0.000336216 0.000176238 -1.05621e-06
1.62766e-06 -1.05621e-06 -9.10868e-05
0.00133533 0.000467864 -5.68792e-06
0.000467864 -0.000101457 -1.47255e-06
-5.68792e-06 -1.47255e-06 -0.000298917
0.00309497 -0.00022905 -0.000100903
-0.00022905 -0.00156429 -3.12862e-05
-0.000100903 -3.12862e-05 -0.00252785
0.00529496 0.000570385 -1.36628e-05
0.000570385 0.000464005 -3.42006e-05
-1.36628e-05 -3.42006e-05 -8.79189e-05
0.000252648 0.0003767 -6.61987e-06
0.0003767 -0.000534006 8.11469e-06
-6.61987e-06 8.11469e-06 -0.000769781
-0.00127197 -0.000470656 0.000142849
-0.000470656 0.00093715 5.80154e-05
0.000142849 5.80154e-05 -0.000355717
0.000247261 -0.00198941 -9.36295e-05
-0.00198941 -0.00106505 -0.000111284
-9.36295e-05 -0.000111284 0.000628272
0.00108574 0.000174213 -4.98685e-06
0.000174213 0.000333754 -3.41226e-06
-4.98685e-06 -3.41226e-06 0.000197118
0.000474182 0.000368957 0.000145556
0.000368957 0.00150048 -2.02717e-05
0.000145556 -2.02717e-05 0.000463798
0.00119479 -0.000642336 -8.81628e-05
-0.000642336 0.00216331 -0.000150494
-8.81628e-05 -0.000150494 0.000752908
0.00247038 0.000469108 -2.63576e-05
0.000469108 0.000459234 -9.6331e-06
-2.63576e-05 -9.6331e-06 0.000489247
0.00097549 0.000163255 -1.19942e-05
0.000163255 0.000180697 -2.26344e-06
-1.19942e-05 -2.26344e-06 -8.57645e-06
-0.000114956 0.000381886 -1.80356e-05
0.000381886 -0.000564873 -1.37471e-05
-1.80356e-05 -1.37471e-05 -0.000846092
0.00018101 0.000428786 3.13167e-05
0.000428786 -0.000604594 6.36327e-05
3.13167e-05 6.36327e-05 -0.000733943
0.011177 0.000603685 -2.38721e-05
0.000603685 0.00350918 -3.3153e-05
-2.38721e-05 -3.3153e-05 0.00200678
0.00307981 0.000902173 1.15197e-05
0.000902173 0.000610972 8.69191e-06
1.15197e-05 8.69191e-06 -0.000526612
0.00238439 -0.00175218 0.000223848
-0.00175218 -0.000272659 0.000171058
0.000223848 0.000171058 6.4093e-06
0.00462571 -0.00097127 -6.34118e-06
-0.00097127 -0.000940536 0.000215249
-6.34118e-06 0.000215249 0.000349801
0.000645909 1.64653e-05 1.42728e-06
1.64653e-05 8.25874e-05 -5.18609e-07
1.42728e-06 -5.18609e-07 -1.12914e-05
0.00080318 7.40341e-05 1.5676e-06
7.40341e-05 0.000160815 7.89772e-07
1.5676e-06 7.89772e-07 6.13128e-05
0.00146475 0.000134619 -2.83114e-06
0.000134619 0.000554065 -3.02202e-06
-2.83114e-06 -3.02202e-06 0.000462343
0.000645788 4.64675e-06 5.7778e-07
4.64675e-06 5.9145e-05 -4.32615e-07
5.7778e-07 -4.32615e-07 -3.46727e-05
0.000746215 3.27696e-05 -3.3358e-08
3.27696e-05 0.000112211 -1.31826e-06
-3.3358e-08 -1.31826e-06 2.32871e-06
0.000563239 -9.49173e-06 -1.05057e-06
-9.49173e-06 -8.92262e-06 -2.38798e-07
-1.05057e-06 -2.38798e-07 -0.000110191
0.000807769 4.06659e-05 -4.24833e-07
4.06659e-05 0.000130805 9.50802e-07
-4.24833e-07 9.50802e-07 3.07908e-05
0.000692413 1.99201e-05 2.53339e-08
1.99201e-05 5.35478e-05 1.06265e-06
2.53339e-08 1.06265e-06 -3.32871e-05
0.000484741 -9.25925e-07 2.9195e-07
-9.25925e-07 -4.724e-05 7.57016e-07
2.9195e-07 7.57016e-07 -0.000137585
0.000830789 3.0557e-05 1.98778e-07
3.0557e-05 0.000146365 3.82673e-07
1.98778e-07 3.82673e-07 4.22289e-05
0.000820831 2.75253e-05 1.5895e-07
2.75253e-05 0.000139832 3.33222e-07
1.5895e-07 3.33222e-07 3.25025e-05
0.000713276 1.99695e-05 5.41683e-07
1.99695e-05 9.61155e-05 -3.40161e-07
5.41683e-07 -3.40161e-07 -1.74326e-05
0.000528495 3.96344e-05 -2.10797e-07
3.96344e-05 -2.49286e-05 -3.19229e-07
-2.10797e-07 -3.19229e-07 -0.000117456
0.00107527 4.46912e-05 -3.72037e-07
4.46912e-05 0.00028503 -1.61489e-06
-3.72037e-07 -1.61489e-06 0.000187467
0.000113793 3.90082e-05 -1.34912e-06
3.90082e-05 -0.000238018 -3.91636e-06
-1.34912e-06 -3.91636e-06 -0.000335512
0.000770099 -7.37322e-05 -4.49089e-08
-7.37322e-05 0.00011158 1.64002e-07
-4.49089e-08 1.64002e-07 -9.21775e-07
0.000793325 -5.56667e-05 -9.86201e-07
-5.56667e-05 0.000146355 -8.08845e-07
-9.86201e-07 -8.08845e-07 2.68675e-05
0.000815658 -2.39443e-05 -5.60754e-07
-2.39443e-05 0.000159026 -3.60156e-07
-5.60754e-07 -3.60156e-07 4.40051e-05
0.000817696 1.38952e-05 -5.60202e-07
1.38952e-05 0.0001454 -2.76276e-07
-5.60202e-07 -2.76276e-07 4.48989e-05
0.00086713 7.16822e-06 -2.07962e-06
7.16822e-06 0.000193562 -2.34437e-06
-2.07962e-06 -2.34437e-06 6.89875e-05
0.000744352 2.08978e-05 6.51995e-07
2.08978e-05 0.000108986 -1.05666e-06
6.51995e-07 -1.05666e-06 8.37269e-06
0.000253513 -1.22172e-05 2.11157e-07
-1.22172e-05 -0.000191444 -1.80363e-06
2.11157e-07 -1.80363e-06 -0.000279339
0.000626541 1.37118e-05 8.91691e-07
1.37118e-05 3.92022e-05 2.27225e-08
8.91691e-07 2.27225e-08 -5.93116e-05
0.00066933 -3.53159e-05 -7.69984e-08
-3.53159e-05 5.80018e-05 2.11561e-07
-7.69984e-08 2.11561e-07 -3.01419e-05
0.000723101 -3.4058e-05 -2.20984e-07
-3.4058e-05 0.000102269 -1.34713e-08
-2.20984e-07 -1.34713e-08 1.77685e-06
0.000680279 -4.1458e-05 -1.80293e-06
-4.1458e-05 5.23128e-05 9.74797e-07
-1.80293e-06 9.74797e-07 -2.12061e-05
0.00071983 -2.61581e-05 1.53596e-06
-2.61581e-05 8.48759e-05 -3.40515e-07
1.53596e-06 -3.40515e-07 -1.11774e-05
0.00063296 -7.01191e-05 -1.08644e-08
-7.01191e-05 3.24807e-05 1.75805e-07
-1.08644e-08 1.75805e-07 -5.08849e-05
0.000649471 -8.82211e-06 -1.77224e-06
-8.82211e-06 2.16179e-05 2.2814e-06
-1.77224e-06 2.2814e-06 -2.8066e-05
0.000520767 -4.96536e-06 1.12779e-06
-4.96536e-06 -2.06821e-05 -5.49602e-07
1.12779e-06 -5.49602e-07 -0.000114521
0.000615044 5.08285e-06 9.902e-07
5.08285e-06 8.48978e-06 -1.84985e-08
9.902e-07 -1.84985e-08 -4.32145e-05
0.00137743 1.52825e-05 -2.75406e-06
1.52825e-05 0.000432392 5.27225e-06
-2.75406e-06 5.27225e-06 0.000421401
0.000609071 2.75049e-05 -3.33214e-07
2.75049e-05 6.87124e-06 -1.90928e-06
-3.33214e-07 -1.90928e-06 -4.44031e-05
0.000975785 7.70918e-06 -1.59593e-06
7.70918e-06 0.000195226 8.13486e-07
-1.59593e-06 8.13486e-07 0.000182396
0.000847274 3.61238e-06 -3.83496e-06
3.61238e-06 0.000118491 5.03284e-06
-3.83496e-06 5.03284e-06 0.000126687
0.000590419 2.0542e-06 1.12213e-07
2.0542e-06 -3.26979e-05 -3.6868e-06
1.12213e-07 -3.6868e-06 -4.72322e-05
0.00234305 1.95952e-07 4.17982e-06
1.95952e-07 0.00100036 -6.21835e-09
4.17982e-06 -6.21835e-09 0.00101663
0.000863026 -3.32695e-06 -4.00938e-06
-3.32695e-06 0.000127616 -5.11033e-06
-4.00938e-06 -5.11033e-06 0.000136246
0.000653981 6.59837e-05 1.63005e-06
6.59837e-05 6.14407e-05 -6.65334e-08
1.63005e-06 -6.65334e-08 -1.77551e-05
0.000622334 1.96005e-05 -1.04676e-06
1.96005e-05 7.32695e-06 -1.76899e-06
-1.04676e-06 -1.76899e-06 -3.0141e-05
0.000624286 -6.37905e-06 8.10424e-07
-6.37905e-06 5.84701e-06 4.52542e-09
8.10424e-07 4.52542e-09 -3.13542e-05
0.000613064 8.19167e-06 1.6175e-07
8.19167e-06 -2.41442e-05 -3.21167e-06
1.6175e-07 -3.21167e-06 -3.05099e-05
0.000646895 -2.6714e-05 -1.59104e-06
-2.6714e-05 1.67717e-05 1.64077e-06
-1.59104e-06 1.64077e-06 -2.18895e-05
0.000584663 1.41504e-05 1.18709e-08
1.41504e-05 -4.03028e-05 -7.57289e-07
1.18709e-08 -7.57289e-07 -4.7031e-05
0.00203184 2.54385e-05 7.66839e-06
2.54385e-05 0.000820063 -4.49159e-06
7.66839e-06 -4.49159e-06 0.000838636
0.00118904 3.08154e-05 -7.39001e-07
3.08154e-05 0.000320139 1.9425e-06
-7.39001e-07 1.9425e-06 0.00031467
0.0014845 3.28043e-05 1.6815e-07
3.28043e-05 0.000501053 1.42019e-06
1.6815e-07 1.42019e-06 0.00051425
0.000913342 3.61746e-05 -1.43453e-05
3.61746e-05 0.000169378 7.18218e-06
-1.43453e-05 7.18218e-06 0.00017674
0.00168167 0.000119675 6.33996e-05
0.000119675 -0.000533131 1.35725e-05
6.33996e-05 1.35725e-05 -0.000500015
0.00188128 -1.19417e-05 2.16964e-06
-1.19417e-05 -2.52165e-05 2.16807e-07
2.16964e-06 2.16807e-07 -1.82735e-05
0.00194674 5.5277e-05 3.36592e-05
5.5277e-05 0.000230651 -7.88386e-06
3.36592e-05 -7.88386e-06 0.00025577
0.00126 9.03125e-05 -1.09329e-05
9.03125e-05 -0.00103612 -7.26664e-06
-1.09329e-05 -7.26664e-06 -0.00096598
0.00182443 4.27487e-05 1.68037e-05
4.27487e-05 -0.000231751 9.11696e-07
1.68037e-05 9.11696e-07 -0.000167437
0.00232462 -1.55636e-05 -4.15634e-07
-1.55636e-05 0.000360446 -1.83147e-06
-4.15634e-07 -1.83147e-06 0.000342744
0.00327736 -6.36084e-05 -5.92918e-05
-6.36084e-05 0.000718987 4.19986e-06
-5.92918e-05 4.19986e-06 0.000699508
0.00313959 -7.21471e-05 0.00010692
-7.21471e-05 0.000436782 -3.38804e-06
0.00010692 -3.38804e-06 0.000272798
0.00933484 -0.00037382 1.03597e-05
-0.00037382 0.00222767 2.69858e-05
1.03597e-05 2.69858e-05 0.000862113
0.00806334 0.00155911 0.000306952
0.00155911 0.00388596 -0.00013416
0.000306952 -0.00013416 0.00386311
0.00444086 0.00165337 -7.93931e-06
0.00165337 0.00311508 1.93681e-05
-7.93931e-06 1.93681e-05 0.00379579
0.000432244 -8.01065e-05 2.28856e-06
-8.01065e-05 -6.36165e-05 -4.24616e-08
2.28856e-06 -4.24616e-08 -0.000154335
0.000675355 -1.02271e-05 1.31872e-06
-1.02271e-05 6.90461e-05 -1.56681e-07
1.31872e-06 -1.56681e-07 -4.5067e-06
0.000704693 -7.41435e-05 -1.58816e-06
-7.41435e-05 9.09589e-05 1.30899e-06
-1.58816e-06 1.30899e-06 1.28546e-05
0.000635894 -3.47988e-05 -3.18816e-07
-3.47988e-05 4.87868e-05 2.48084e-07
-3.18816e-07 2.48084e-07 -4.01743e-05
0.000690372 6.79476e-05 -4.03205e-07
6.79476e-05 9.91897e-05 1.45744e-06
-4.03205e-07 1.45744e-06 -8.48889e-06
0.000768959 0.000121211 1.33038e-06
0.000121211 0.000133219 2.68047e-06
1.33038e-06 2.68047e-06 2.5055e-05
0.000782273 -6.87983e-06 2.12129e-06
-6.87983e-06 0.000145955 -1.09484e-06
2.12129e-06 -1.09484e-06 4.58243e-05
0.000609541 -2.90642e-05 -7.51113e-07
-2.90642e-05 4.13818e-05 7.63889e-07
-7.51113e-07 7.63889e-07 -5.22608e-05
0.00209277 -0.000165876 3.67008e-06
-0.000165876 8.48945e-05 1.65297e-06
3.67008e-06 1.65297e-06 0.000103396
0.00179653 -0.0002514 5.56556e-06
-0.0002514 -0.000142003 -1.72346e-06
5.56556e-06 -1.72346e-06 -0.000121402
0.00154914 -0.000418023 1.98198e-06
-0.000418023 -0.000113578 3.88745e-06
1.98198e-06 3.88745e-06 -0.000234852
0.00128668 -0.000345037 9.14792e-06
-0.000345037 0.000288106 3.1649e-06
9.14792e-06 3.1649e-06 3.94115e-05
0.00181964 -0.000482777 4.3866e-06
-0.000482777 0.000300772 6.63847e-07
4.3866e-06 6.63847e-07 8.12256e-05
0.00164772 -0.000387178 1.40381e-06
-0.000387178 0.000706514 3.04542e-07
1.40381e-06 3.04542e-07 0.000374626
0.00186145 -0.000232309 -4.04976e-07
-0.000232309 0.000793457 -1.58141e-06
-4.04976e-07 -1.58141e-06 0.000543714
0.000749862 -0.000113675 1.39868e-06
-0.000113675 0.000108743 -1.3894e-06
1.39868e-06 -1.3894e-06 -3.88416e-05
0.000708818 -2.28366e-05 1.08137e-07
-2.28366e-05 9.56976e-05 2.35482e-06
1.08137e-07 2.35482e-06 -3.90804e-06
0.000923127 -3.01767e-05 5.23652e-07
-3.01767e-05 0.000216856 -5.43373e-06
5.23652e-07 -5.43373e-06 9.84277e-05
0.000939563 -1.95576e-05 1.30393e-06
-1.95576e-05 0.000235377 6.30859e-07
1.30393e-06 6.30859e-07 0.000137122
0.000683895 0.00011216 2.43599e-06
0.00011216 9.17439e-05 3.02752e-06
2.43599e-06 3.02752e-06 -6.22547e-06
0.00189621 -0.000195358 -8.20999e-08
-0.000195358 -4.14847e-05 1.158e-06
-8.20999e-08 1.158e-06 1.92442e-05
0.000694129 1.99002e-05 -1.5951e-06
1.99002e-05 0.000104507 2.75331e-07
-1.5951e-06 2.75331e-07 -1.42797e-05
0.000836063 -7.73456e-05 -1.66633e-06
-7.73456e-05 0.000175084 1.04582e-06
-1.66633e-06 1.04582e-06 5.63969e-05
0.00171194 -0.000353933 1.43231e-06
-0.000353933 -0.000143655 -1.66861e-06
1.43231e-06 -1.66861e-06 -0.000139462
0.00167937 -0.000508127 3.56336e-07
-0.000508127 4.09332e-05 1.52728e-06
3.56336e-07 1.52728e-06 -0.00013346
0.00131974 -0.000413174 -7.1556e-07
-0.000413174 0.000213641 -1.78182e-06
-7.1556e-07 -1.78182e-06 -1.47801e-05
0.000906147 -0.000126509 5.20602e-07
-0.000126509 0.000270929 -3.07067e-06
5.20602e-07 -3.07067e-06 9.29559e-05
0.00103845 -0.000188148 -5.60494e-07
-0.000188148 0.000482587 7.00379e-07
-5.60494e-07 7.00379e-07 0.000114885
0.00338179 -0.000318119 -2.76639e-05
-0.000318119 0.000770959 5.24987e-06
-2.76639e-05 5.24987e-06 0.00076683
0.00268324 -0.000499662 -2.85674e-05
-0.000499662 0.000468683 5.40315e-06
-2.85674e-05 5.40315e-06 0.000464066
0.0015792 -0.000543319 -8.43359e-06
-0.000543319 9.54767e-05 1.4979e-06
-8.43359e-06 1.4979e-06 -7.98982e-05
0.000503781 -0.000299654 -7.59078e-06
-0.000299654 -8.97298e-05 1.68564e-05
-7.59078e-06 1.68564e-05 -0.000324154
0.000667425 -0.00012504 1.59541e-06
-0.00012504 8.93459e-05 4.72069e-08
1.59541e-06 4.72069e-08 -4.57057e-05
0.000535541 -9.52867e-05 2.25081e-06
-9.52867e-05 4.19602e-05 -3.37412e-06
2.25081e-06 -3.37412e-06 -0.000106402
0.00105672 -7.19186e-05 2.49924e-07
-7.19186e-05 0.000486888 -6.39042e-06
2.49924e-07 -6.39042e-06 0.000171478
-0.00462159 -6.00081e-05 0.000252236
-6.00081e-05 -0.00306227 5.05532e-07
0.000252236 5.05532e-07 -0.00223833
0.00981175 -0.000129243 -5.08296e-06
-0.000129243 0.00285098 -7.72252e-07
-5.08296e-06 -7.72252e-07 0.0022014
0.00150931 0.000134628 4.38972e-06
0.000134628 0.00057934 -1.3606e-06
4.38972e-06 -1.3606e-06 0.000436844
0.00082945 0.000219023 3.63359e-06
0.000219023 0.000120477 -1.38924e-06
3.63359e-06 -1.38924e-06 -6.52161e-05
0.00199094 0.000296229 3.58069e-05
0.000296229 0.000143721 2.21857e-05
3.58069e-05 2.21857e-05 0.00017381
0.00251777 0.000557405 1.0596e-05
0.000557405 0.000506528 6.20027e-06
1.0596e-05 6.20027e-06 0.000309858
0.00174959 0.000392992 8.91723e-06
0.000392992 0.000462528 8.41076e-07
8.91723e-06 8.41076e-07 0.000187459
0.00997471 0.000477484 4.1843e-05
0.000477484 0.00253627 1.10458e-05
4.1843e-05 1.10458e-05 0.00142704
0.00739502 0.000858716 -0.000148112
0.000858716 0.00113315 -2.84011e-05
-0.000148112 -2.84011e-05 0.000666843
-0.000423504 0.000248673 2.11344e-06
0.000248673 -0.000735542 -1.78666e-05
2.11344e-06 -1.78666e-05 -0.00102741
0.00765873 -0.00126361 -7.29855e-05
-0.00126361 0.00369509 2.41102e-05
-7.29855e-05 2.41102e-05 0.00313235
-0.00753795 -0.00201562 -0.000519873
-0.00201562 -0.00357475 -0.000395049
-0.000519873 -0.000395049 -0.00188688
0.000931878 0.000166461 -3.79724e-07
0.000166461 0.000254542 -1.7078e-06
-3.79724e-07 -1.7078e-06 0.000117504
-0.00237312 -0.000597167 0.000111142
-0.000597167 -0.00198791 1.30198e-05
0.000111142 1.30198e-05 -0.00218119
-0.00237807 -0.000477606 -0.000128404
-0.000477606 0.0011075 -6.39552e-05
-0.000128404 -6.39552e-05 -0.000622795
0.00279828 0.000439316 -7.76561e-06
0.000439316 0.000643636 -6.64187e-07
-7.76561e-06 -6.64187e-07 0.000672836
0.000847089 0.00019648 -2.13033e-06
0.00019648 0.000138305 9.59232e-07
-2.13033e-06 9.59232e-07 -6.61188e-05
0.00088704 0.00040587 3.06831e-06
0.00040587 -1.9996e-05 1.70219e-06
3.06831e-06 1.70219e-06 -0.000294968
0.00108215 0.000365257 1.37011e-05
0.000365257 -9.30355e-06 1.29789e-05
1.37011e-05 1.29789e-05 -3.86818e-05
0.00804461 0.000457324 -4.88512e-05
0.000457324 0.00131727 -2.63443e-05
-4.88512e-05 -2.63443e-05 -0.000442742
0.00637327 0.00123945 -5.39371e-05
0.00123945 0.00165022 -2.19306e-05
-5.39371e-05 -2.19306e-05 0.000871252
0.00936742 -0.00148329 0.000111228
-0.00148329 0.00435881 -4.56608e-05
0.000111228 -4.56608e-05 0.00425116
0.00387706 -0.0011763 0.000127674
-0.0011763 -0.00154904 0.000268229
0.000127674 0.000268229 -0.000265834
0.0014563 0.000150407 -1.44767e-05
0.000150407 0.000573744 -7.40631e-06
-1.44767e-05 -7.40631e-06 0.000452886
-0.00513123 0.000209165 -8.37554e-05
0.000209165 0.00073856 -4.74956e-05
-8.37554e-05 -4.74956e-05 -0.00161166
0.00294226 0.000247423 -0.000139905
0.000247423 0.00138622 -0.000196359
-0.000139905 -0.000196359 -0.000929861
0.000933467 0.000371463 -1.63502e-05
0.000371463 -8.61665e-05 5.6332e-06
-1.63502e-05 5.6332e-06 -9.29735e-05
0.00104814 0.000391202 -4.28088e-05
0.000391202 0.000322945 -1.51575e-05
-4.28088e-05 -1.51575e-05 7.70218e-05
0.00237534 0.000330779 -6.63209e-05
0.000330779 0.00119047 -5.77916e-06
-6.63209e-05 -5.77916e-06 0.000836184
0.00261746 0.000917282 -4.39174e-05
0.000917282 0.000270496 -1.53374e-05
-4.39174e-05 -1.53374e-05 -3.80568e-05
0.00132143 0.000621177 0.00013702
0.000621177 4.83553e-05 0.000102209
0.00013702 0.000102209 -0.00250089
0.00955469 -0.00166027 5.40423e-05
-0.00166027 0.00312751 0.000231157
5.40423e-05 0.000231157 0.00271606
0.00380514 -0.000755752 -3.88169e-05
-0.000755752 -0.0019854 -3.53476e-05
-3.88169e-05 -3.53476e-05 -0.000752737
0.000840878 9.06918e-05 3.34728e-06
9.06918e-05 0.000189384 3.25037e-06
3.34728e-06 3.25037e-06 8.3829e-05
0.00124164 0.000120656 5.20896e-06
0.000120656 0.000417984 2.64285e-06
5.20896e-06 2.64285e-06 0.000328052
9.37003e-05 4.27456e-05 2.94061e-06
4.27456e-05 -0.000197646 -3.10154e-06
2.94061e-06 -3.10154e-06 -0.000280912
0.000490346 4.46224e-05 1.18499e-06
4.46224e-05 -4.4979e-05 -1.18986e-07
1.18499e-06 -1.18986e-07 -0.000134734
0.000764326 4.99545e-05 -6.94759e-07
4.99545e-05 0.000131822 -1.12145e-06
-6.94759e-07 -1.12145e-06 1.52806e-05
0.000765276 -6.01691e-06 -2.99069e-07
-6.01691e-06 0.000107689 8.66638e-07
-2.99069e-07 8.66638e-07 8.74611e-07
0.000785831 -2.94589e-07 1.85257e-06
-2.94589e-07 0.000126261 2.50326e-07
1.85257e-06 2.50326e-07 1.91315e-05
0.000555865 3.27496e-05 4.243e-07
3.27496e-05 -7.46818e-06 2.70371e-06
4.243e-07 2.70371e-06 -9.83876e-05
0.00078559 4.20923e-05 -1.80951e-08
4.20923e-05 0.000142542 -7.76932e-07
-1.80951e-08 -7.76932e-07 2.2853e-05
0.000881852 3.65823e-05 -7.75221e-08
3.65823e-05 0.000171317 2.56503e-07
-7.75221e-08 2.56503e-07 7.33242e-05
0.000795287 -3.28013e-05 -3.56193e-07
-3.28013e-05 0.000128396 4.83733e-07
-3.56193e-07 4.83733e-07 1.42357e-05
0.000149213 3.47652e-05 1.37923e-08
3.47652e-05 -0.00020605 4.42938e-07
1.37923e-08 4.42938e-07 -0.000302932
-0.000363496 2.05438e-05 -2.02354e-06
2.05438e-05 -0.00038495 -2.71126e-06
-2.02354e-06 -2.71126e-06 -0.000499247
0.000915546 -2.95702e-06 -2.45682e-06
-2.95702e-06 0.000201494 -3.36054e-06
-2.45682e-06 -3.36054e-06 9.36693e-05
0.000934033 1.04547e-05 -6.11977e-07
1.04547e-05 0.000228151 -1.08486e-06
-6.11977e-07 -1.08486e-06 9.13831e-05
0.000823218 -5.38427e-05 5.92242e-08
-5.38427e-05 0.000166944 -7.03746e-07
5.92242e-08 -7.03746e-07 4.86085e-05
0.000879239 -2.37995e-05 -1.29921e-07
-2.37995e-05 0.000175083 1.18915e-06
-1.29921e-07 1.18915e-06 7.76444e-05
0.000850825 -4.7225e-05 1.84162e-07
-4.7225e-05 0.000173917 -6.02053e-07
1.84162e-07 -6.02053e-07 5.57984e-05
0.000773422 1.50095e-05 -2.55549e-07
1.50095e-05 0.000122562 -9.91862e-08
-2.55549e-07 -9.91862e-08 2.29633e-05
0.000493965 -3.89378e-05 7.45935e-08
-3.89378e-05 -4.94971e-05 7.52429e-07
7.45935e-08 7.52429e-07 -0.000138618
0.000656437 2.2495e-05 7.29397e-07
2.2495e-05 5.73336e-05 5.25031e-07
7.29397e-07 5.25031e-07 -3.96301e-05
0.000465223 -1.49309e-05 -1.09073e-06
-1.49309e-05 -3.99072e-05 -3.23422e-06
-1.09073e-06 -3.23422e-06 -0.000150152
0.000497671 -3.08315e-05 1.57955e-06
-3.08315e-05 -4.73536e-05 -9.94559e-07
1.57955e-06 -9.94559e-07 -0.000134669
0.000786589 -1.86643e-05 3.63763e-06
-1.86643e-05 9.996e-05 -4.73428e-06
3.63763e-06 -4.73428e-06 4.52633e-06
0.000121159 -4.22086e-05 1.1193e-06
-4.22086e-05 -0.00024142 5.85596e-07
1.1193e-06 5.85596e-07 -0.00038988
0.000319414 1.6643e-05 -3.26877e-07
1.6643e-05 -0.000127603 -1.00113e-06
-3.26877e-07 -1.00113e-06 -0.000233565
0.000727059 6.77103e-06 2.45794e-07
6.77103e-06 9.60749e-05 3.9341e-07
2.45794e-07 3.9341e-07 -3.96063e-06
0.000657482 -4.50948e-07 -6.37003e-08
-4.50948e-07 5.22721e-05 3.54502e-07
-6.37003e-08 3.54502e-07 -3.61666e-05
0.000726889 -1.85309e-05 -1.32962e-07
-1.85309e-05 0.000103027 -4.46677e-08
-1.32962e-07 -4.46677e-08 6.57031e-06
0.000611642 5.93558e-06 -6.6384e-07
5.93558e-06 1.91654e-05 8.15165e-07
-6.6384e-07 8.15165e-07 -5.59694e-05
0.000769306 -1.59344e-05 3.58279e-07
-1.59344e-05 0.000127185 2.15996e-09
3.58279e-07 2.15996e-09 2.79597e-05
0.000690136 -3.80396e-05 -3.7514e-07
-3.80396e-05 6.52313e-05 7.92327e-08
-3.7514e-07 7.92327e-08 -1.29996e-05
0.000599553 4.00931e-05 -7.86628e-07
4.00931e-05 -8.00885e-06 2.18983e-06
-7.86628e-07 2.18983e-06 -5.87739e-05
0.000579487 -6.13174e-05 1.54568e-06
-6.13174e-05 -3.35582e-06 -9.0369e-07
1.54568e-06 -9.0369e-07 -8.50592e-05
0.000624922 5.21072e-06 -2.5435e-07
5.21072e-06 7.45458e-06 -1.8451e-08
-2.5435e-07 -1.8451e-08 -4.21824e-05
0.00137525 2.4649e-05 -4.6963e-06
2.4649e-05 0.000431036 5.35994e-06
-4.6963e-06 5.35994e-06 0.000419775
0.000614955 -1.53568e-05 8.52584e-07
-1.53568e-05 7.23963e-06 -1.94681e-06
8.52584e-07 -1.94681e-06 -4.36523e-05
0.000967735 1.41063e-05 -2.55486e-06
1.41063e-05 0.000190247 7.54466e-07
-2.55486e-06 7.54466e-07 0.000177481
0.000781641 1.46043e-05 -2.46206e-07
1.46043e-05 7.95226e-05 1.97971e-06
-2.46206e-07 1.97971e-06 8.77864e-05
0.000575172 5.30278e-06 5.35066e-07
5.30278e-06 -4.18854e-05 -3.71301e-06
5.35066e-07 -3.71301e-06 -5.65267e-05
0.00235159 1.3231e-05 3.85608e-06
1.3231e-05 0.00100589 4.77007e-08
3.85608e-06 4.77007e-08 0.0010219
0.00234801 1.92173e-06 -5.04293e-07
1.92173e-06 0.00100336 -5.22073e-06
-5.04293e-07 -5.22073e-06 0.00101953
0.000998949 7.1565e-05 -1.23625e-06
7.1565e-05 0.000257789 -9.39901e-07
-1.23625e-06 -9.39901e-07 0.000181332
0.000632888 2.97856e-05 -1.09003e-06
2.97856e-05 1.56944e-05 -1.96379e-06
-1.09003e-06 -1.96379e-06 -2.41617e-05
0.000661037 -6.10802e-06 6.78458e-07
-6.10802e-06 6.41979e-05 8.69701e-07
6.78458e-07 8.69701e-07 -1.38686e-05
0.000614493 2.71383e-06 5.76038e-08
2.71383e-06 -2.38986e-05 -3.34965e-06
5.76038e-08 -3.34965e-06 -3.02416e-05
0.000623634 -8.82461e-06 2.31809e-07
-8.82461e-06 8.16424e-06 -2.91683e-08
2.31809e-07 -2.91683e-08 -2.94027e-05
0.000634642 -2.6167e-05 -1.3508e-06
-2.6167e-05 1.24692e-05 1.45292e-06
-1.3508e-06 1.45292e-06 -2.53039e-05
0.000599223 8.00953e-06 -1.91016e-07
8.00953e-06 -3.23532e-05 -2.37584e-08
-1.91016e-07 -2.37584e-08 -3.86544e-05
0.00202693 1.31616e-05 3.26397e-06
1.31616e-05 0.000814723 -4.64759e-06
3.26397e-06 -4.64759e-06 0.000834056
0.0011737 2.03992e-05 -6.6628e-07
2.03992e-05 0.000307894 1.93008e-06
-6.6628e-07 1.93008e-06 0.000304359
0.00141462 2.18655e-05 1.16842e-06
2.18655e-05 0.000454898 3.13996e-08
1.16842e-06 3.13996e-08 0.000470096
0.000870357 2.59746e-05 -1.32307e-05
2.59746e-05 0.00013785 7.06029e-06
-1.32307e-05 7.06029e-06 0.000148246
-0.00790378 0.000320267 0.000189913
0.000320267 -0.0034947 2.08699e-06
0.000189913 2.08699e-06 -0.00426286
-0.00192183 8.97432e-05 0.000213245
8.97432e-05 0.00153642 1.33279e-05
0.000213245 1.33279e-05 0.000182056
0.0041729 0.0002144 -0.000207185
0.0002144 0.000291125 -1.10682e-05
-0.000207185 -1.10682e-05 0.000466811
0.000465696 3.68872e-05 3.34198e-05
3.68872e-05 -0.000890035 -7.24903e-06
3.34198e-05 -7.24903e-06 -0.000880046
0.00145511 -2.4366e-05 1.87207e-05
-2.4366e-05 -0.000206939 -6.03273e-07
1.87207e-05 -6.03273e-07 -0.000222479
0.000460007 4.95329e-05 1.88773e-07
4.95329e-05 -0.000705669 -5.43409e-06
1.88773e-07 -5.43409e-06 -0.000696175
0.00251098 -0.000101326 9.08238e-08
-0.000101326 0.000241114 3.63625e-06
9.08238e-08 3.63625e-06 0.000205437
0.00856761 0.000129239 4.24327e-05
0.000129239 0.00146686 -2.99443e-05
4.24327e-05 -2.99443e-05 0.000451886
-0.00337972 0.000913454 -3.03175e-05
0.000913454 -0.000910645 -1.00649e-05
-3.03175e-05 -1.00649e-05 -0.00192675
-0.00147231 0.00177507 -0.000104479
0.00177507 -0.000186276 5.02084e-05
-0.000104479 5.02084e-05 0.00108573
0.00169321 -0.000215781 5.5992e-05
-0.000215781 -0.000614418 2.73498e-06
5.5992e-05 2.73498e-06 -0.000764622
0.0117222 -0.000234003 8.13716e-05
-0.000234003 0.00342524 -3.04199e-05
8.13716e-05 -3.04199e-05 0.00198264
0.00233887 0.00170427 0.000117727
0.00170427 -1.00786e-05 -0.00022395
0.000117727 -0.00022395 0.00048479
0.0058021 0.00127114 -0.00016475
0.00127114 0.000537613 0.000108356
-0.00016475 0.000108356 0.000789438
0.000689589 7.21888e-05 -1.4577e-06
7.21888e-05 0.000106985 8.99227e-07
-1.4577e-06 8.99227e-07 -1.52991e-05
0.000541929 1.32428e-05 -2.07082e-07
1.32428e-05 -3.565e-06 -7.46605e-07
-2.07082e-07 -7.46605e-07 -9.10268e-05
0.000690055 -8.34335e-05 -1.10017e-06
-8.34335e-05 8.20814e-05 9.25526e-07
-1.10017e-06 9.25526e-07 4.70453e-06
0.000568449 -3.17866e-06 3.4821e-07
-3.17866e-06 1.57303e-05 1.11812e-07
3.4821e-07 1.11812e-07 -7.75551e-05
0.000671284 6.31378e-05 9.22477e-07
6.31378e-05 9.31126e-05 1.48319e-06
9.22477e-07 1.48319e-06 -1.49869e-05
0.000862074 7.43708e-05 2.66337e-10
7.43708e-05 0.00020244 9.1285e-07
2.66337e-10 9.1285e-07 7.91936e-05
0.000763596 8.74092e-05 1.65338e-06
8.74092e-05 0.000138358 1.80888e-06
1.65338e-06 1.80888e-06 2.69119e-05
0.000678763 8.69877e-06 2.08576e-06
8.69877e-06 7.36077e-05 -5.03691e-08
2.08576e-06 -5.03691e-08 -3.3143e-05
0.000677108 -1.78417e-05 7.57481e-07
-1.78417e-05 8.64248e-05 -9.63382e-07
7.57481e-07 -9.63382e-07 -1.71666e-05
0.000541355 -9.02789e-06 -6.32518e-07
-9.02789e-06 -6.43462e-06 9.93247e-08
-6.32518e-07 9.93247e-08 -9.443e-05
0.00148863 -0.000181711 1.5971e-05
-0.000181711 -0.000216004 -1.04227e-06
1.5971e-05 -1.04227e-06 -0.00016276
0.00144251 -0.000346718 1.8218e-05
-0.000346718 -0.000276906 -4.45869e-06
1.8218e-05 -4.45869e-06 -0.000284626
0.000242944 -0.000394512 1.27475e-05
-0.000394512 -0.00071528 3.03507e-06
1.27475e-05 3.03507e-06 -0.000860741
0.000714299 -0.000365331 2.71716e-06
-0.000365331 -0.000101209 -2.17711e-07
2.71716e-06 -2.17711e-07 -0.000337508
0.00180397 -0.00022995 6.81424e-07
-0.00022995 0.000872918 8.43452e-06
6.81424e-07 8.43452e-06 0.000537258
0.00108123 -0.000171806 1.23157e-06
-0.000171806 0.00037473 -2.93516e-07
1.23157e-06 -2.93516e-07 0.00017417
0.000963306 -7.67601e-05 -4.80368e-07
-7.67601e-05 0.000237606 -4.33272e-08
-4.80368e-07 -4.33272e-08 0.000128806
0.000710571 3.00719e-05 -1.42331e-06
3.00719e-05 0.000115127 1.85527e-06
-1.42331e-06 1.85527e-06 -1.00255e-06
0.00175597 -0.000231591 3.74663e-06
-0.000231591 -6.99035e-05 -2.33458e-06
3.74663e-06 -2.33458e-06 -4.90026e-05
0.000662234 -5.69438e-05 -2.9201e-07
-5.69438e-05 8.94108e-05 -2.13116e-07
-2.9201e-07 -2.13116e-07 -4.73525e-05
0.000416837 -7.72387e-05 8.00105e-07
-7.72387e-05 -2.2378e-05 -1.35173e-06
8.00105e-07 -1.35173e-06 -0.000174543
0.00215989 -0.000473405 5.81836e-06
-0.000473405 0.00020168 -5.36647e-07
5.81836e-06 -5.36647e-07 0.000183157
0.00121655 -0.000514252 7.52468e-07
-0.000514252 -9.77654e-05 4.22712e-06
7.52468e-07 4.22712e-06 -0.000263811
0.000843657 -0.000369202 1.00672e-05
-0.000369202 9.68356e-05 -4.75995e-06
1.00672e-05 -4.75995e-06 -0.000160848
0.00147238 -0.000124034 -5.3335e-07
-0.000124034 0.000694515 -3.4347e-06
-5.3335e-07 -3.4347e-06 0.000397964
0.00137719 -0.000335346 -2.11231e-05
-0.000335346 8.52303e-05 2.74755e-06
-2.11231e-05 2.74755e-06 -0.000166489
0.00127696 -0.000387111 -3.35052e-05
-0.000387111 2.6358e-05 9.40115e-06
-3.35052e-05 9.40115e-06 -2.56726e-05
5.11062e-05 -0.000227223 -2.33962e-05
-0.000227223 -0.000169286 3.88384e-05
-2.33962e-05 3.88384e-05 -0.000460925
0.000185469 2.13571e-05 3.65191e-08
2.13571e-05 -0.000181664 1.60898e-06
3.65191e-08 1.60898e-06 -0.000317368
0.00043366 -0.000106368 2.14307e-06
-0.000106368 -2.15768e-05 -1.19584e-06
2.14307e-06 -1.19584e-06 -0.000173736
0.000726671 -8.32404e-05 2.46135e-06
-8.32404e-05 0.000216856 -5.75214e-06
2.46135e-06 -5.75214e-06 -4.72395e-06
0.000241826 0.000195504 -0.000139609
0.000195504 0.00329933 2.20653e-06
-0.000139609 2.20653e-06 0.00174965
0.00191352 -0.000348661 1.74914e-05
-0.000348661 0.00143156 2.09149e-05
1.74914e-05 2.09149e-05 0.00133695
0.000649698 0.00063522 -6.24946e-05
0.00063522 -0.00289149 1.41554e-05
-6.24946e-05 1.41554e-05 -0.0034583
0.000699764 0.000150613 5.38245e-06
0.000150613 0.000133894 1.49401e-06
5.38245e-06 1.49401e-06 -9.45033e-07
0.000726841 0.000230098 5.88555e-06
0.000230098 9.75412e-05 6.35618e-06
5.88555e-06 6.35618e-06 -0.000120503
0.00256873 0.000400222 2.18682e-05
0.000400222 0.000494614 1.05799e-05
2.18682e-05 1.05799e-05 0.000539369
0.00215803 0.000435979 1.86994e-05
0.000435979 0.000663867 1.21192e-05
1.86994e-05 1.21192e-05 0.000395285
0.00659442 -0.000698774 5.81e-05
-0.000698774 0.00249112 3.57142e-05
5.81e-05 3.57142e-05 0.00266751
0.00247382 -2.17609e-05 -0.00013282
-2.17609e-05 -0.00150098 -9.59566e-06
-0.00013282 -9.59566e-06 -0.00311142
0.00296245 0.00111792 -7.97612e-05
0.00111792 -0.000351607 -1.60425e-05
-7.97612e-05 -1.60425e-05 -0.00106676
0.000479598 0.00022036 2.64417e-05
0.00022036 -0.000149247 -2.21141e-05
2.64417e-05 -2.21141e-05 -0.000139156
-0.00360318 -0.000789363 -8.0617e-05
-0.000789363 -0.00105273 -0.000111286
-8.0617e-05 -0.000111286 -0.00143619
-0.000403141 -0.000738648 -7.39792e-05
-0.000738648 0.00120364 2.51371e-06
-7.39792e-05 2.51371e-06 -0.000538643
0.00852454 -0.00155796 0.000186099
-0.00155796 0.000870513 0.00014478
0.000186099 0.00014478 0.00222095
0.000647653 0.000112876 5.3204e-06
0.000112876 0.000129541 -2.42695e-06
5.3204e-06 -2.42695e-06 2.36507e-06
-0.0017652 2.31214e-05 -7.26264e-05
2.31214e-05 0.00177639 -2.23483e-05
-7.26264e-05 -2.23483e-05 -0.000220188
0.00327966 0.000278382 -1.68436e-05
0.000278382 0.00148931 -6.16926e-05
-1.68436e-05 -6.16926e-05 -0.000902036
0.00123936 0.000363332 -6.93231e-06
0.000363332 0.000116595 4.19914e-06
-6.93231e-06 4.19914e-06 6.43692e-05
0.000634584 0.000259587 -4.92196e-07
0.000259587 0.000126354 2.09873e-06
-4.92196e-07 2.09873e-06 -0.000112585
-0.000354173 0.000239182 2.73505e-05
0.000239182 -0.000312398 -3.47838e-05
2.73505e-05 -3.47838e-05 -0.000568031
0.00548409 0.00133883 -8.29891e-06
0.00133883 0.00182736 4.42653e-06
-8.29891e-06 4.42653e-06 0.00116521
0.0106583 0.000656684 5.39506e-05
0.000656684 0.00375835 2.05637e-05
5.39506e-05 2.05637e-05 0.00184181
0.00337459 -0.00107318 1.92624e-05
-0.00107318 -0.000617332 -3.61156e-05
1.92624e-05 -3.61156e-05 -0.000922796
0.00842891 -0.00102639 9.5782e-06
-0.00102639 0.00106739 -2.85767e-05
9.5782e-06 -2.85767e-05 0.00222369
0.001143 0.000206645 -1.40206e-05
0.000206645 0.000468256 -9.81559e-06
-1.40206e-05 -9.81559e-06 0.000340243
0.00259067 3.66284e-05 -9.85844e-05
3.66284e-05 0.000867348 -3.43738e-05
-9.85844e-05 -3.43738e-05 -0.000657638
-9.60695e-05 7.17089e-05 -3.25177e-05
7.17089e-05 0.000126645 -8.71176e-05
-3.25177e-05 -8.71176e-05 -0.00144642
-0.000985593 5.40479e-05 -1.61265e-05
5.40479e-05 -0.00047681 -1.74196e-05
-1.61265e-05 -1.74196e-05 -0.000630326
0.00179491 0.000362736 -3.57175e-05
0.000362736 0.000814589 4.30827e-05
-3.57175e-05 4.30827e-05 0.000133952
0.00951886 0.000994741 3.82936e-05
0.000994741 0.00389471 1.75233e-07
3.82936e-05 1.75233e-07 0.00103853
-0.00683868 -0.00158734 -4.08675e-05
-0.00158734 -0.0038416 0.000107491
-4.08675e-05 0.000107491 -0.00573448
0.00690441 0.000359461 1.14111e-05
0.000359461 -0.000820826 -0.00015029
1.14111e-05 -0.00015029 0.000884448
0.000981317 9.69691e-05 2.68762e-06
9.69691e-05 0.00025567 6.53056e-06
2.68762e-06 6.53056e-06 0.000171318
0.000915578 0.000109795 -4.22989e-06
0.000109795 0.000283557 -1.10792e-06
-4.22989e-06 -1.10792e-06 0.000190525
0.000200998 6.18459e-05 -3.35915e-06
6.18459e-05 8.74809e-06 -1.24729e-06
-3.35915e-06 -1.24729e-06 -0.00013084
0.000788935 7.8497e-05 -2.35645e-06
7.8497e-05 0.000134713 -9.08756e-07
-2.35645e-06 -9.08756e-07 2.18198e-05
0.000856667 -2.8691e-05 -7.23575e-07
-2.8691e-05 0.000174051 8.38321e-07
-7.23575e-07 8.38321e-07 5.31324e-05
0.000671927 3.69538e-05 7.46147e-07
3.69538e-05 4.85372e-05 1.6904e-06
7.46147e-07 1.6904e-06 -5.06743e-05
0.000187031 3.08864e-05 1.47154e-06
3.08864e-05 -0.000172423 2.51788e-06
1.47154e-06 2.51788e-06 -0.000268986
0.000838214 -1.91e-06 1.00632e-06
-1.91e-06 0.000156093 1.17929e-07
1.00632e-06 1.17929e-07 3.18417e-05
0.000864041 2.01427e-05 1.34172e-07
2.01427e-05 0.000175761 -7.7853e-07
1.34172e-07 -7.7853e-07 6.61102e-05
0.000287383 -1.65004e-06 -1.49555e-07
-1.65004e-06 9.47007e-07 1.87286e-06
-1.49555e-07 1.87286e-06 -0.000123093
-0.000256565 1.78925e-05 -4.85249e-06
1.78925e-05 -0.000136155 -1.52757e-06
-4.85249e-06 -1.52757e-06 -0.000299494
0.000885463 -9.67159e-06 -2.14971e-06
-9.67159e-06 0.000304703 -7.59185e-06
-2.14971e-06 -7.59185e-06 0.000188809
0.000947467 4.41303e-05 -1.37653e-06
4.41303e-05 0.000233085 -3.39061e-06
-1.37653e-06 -3.39061e-06 0.000107384
0.000870613 -9.73317e-05 1.64737e-06
-9.73317e-05 0.000174153 8.91887e-07
1.64737e-06 8.91887e-07 6.26492e-05
0.000768655 1.69857e-05 -2.84093e-07
1.69857e-05 0.000116539 1.9726e-08
-2.84093e-07 1.9726e-08 1.8457e-05
0.000677166 -4.67733e-05 -1.99007e-06
-4.67733e-05 5.86321e-05 2.67081e-06
-1.99007e-06 2.67081e-06 -2.99264e-05
0.000539813 -2.70039e-05 1.44052e-06
-2.70039e-05 -7.66981e-06 1.15812e-06
1.44052e-06 1.15812e-06 -0.000110377
0.000731611 1.84878e-05 2.88417e-07
1.84878e-05 0.000101613 1.03799e-07
2.88417e-07 1.03799e-07 3.05835e-06
0.000631352 -1.46643e-05 -7.4959e-07
-1.46643e-05 3.07273e-05 1.97593e-09
-7.4959e-07 1.97593e-09 -5.59818e-05
0.000909198 -8.45697e-06 -2.88416e-07
-8.45697e-06 0.000182672 -2.47205e-06
-2.88416e-07 -2.47205e-06 9.13647e-05
0.000144791 -3.36845e-05 2.95663e-06
-3.36845e-05 -0.000208748 -3.92883e-06
2.95663e-06 -3.92883e-06 -0.000286606
0.00031185 -8.52622e-05 1.76139e-06
-8.52622e-05 -0.000224074 -1.36813e-06
1.76139e-06 -1.36813e-06 -0.000319237
0.000877312 -4.51726e-05 -2.22575e-06
-4.51726e-05 0.000157865 -3.65435e-07
-2.22575e-06 -3.65435e-07 5.77906e-05
0.000497337 -8.80177e-05 4.71246e-06
-8.80177e-05 -3.81948e-05 2.37807e-06
4.71246e-06 2.37807e-06 -0.000176634
0.00116382 -0.000223222 -9.7012e-07
-0.000223222 0.000314289 6.59235e-06
-9.7012e-07 6.59235e-06 0.000100978
0.00124007 -9.86515e-05 1.82608e-06
-9.86515e-05 0.000411643 -1.53264e-06
1.82608e-06 -1.53264e-06 0.000282644
0.00032094 -6.53161e-05 -1.88541e-06
-6.53161e-05 -0.000113827 -4.38246e-06
-1.88541e-06 -4.38246e-06 -0.000261
0.000639353 2.40595e-06 -3.11742e-07
2.40595e-06 5.05889e-05 -1.83304e-07
-3.11742e-07 -1.83304e-07 -5.34913e-05
0.000373646 6.15517e-06 5.30521e-07
6.15517e-06 -0.000101913 -8.02671e-08
5.30521e-07 -8.02671e-08 -0.000198342
0.000850082 -5.21821e-06 -3.50792e-07
-5.21821e-06 0.000166291 9.21977e-07
-3.50792e-07 9.21977e-07 6.44778e-05
0.000746894 -2.75614e-05 -5.62344e-07
-2.75614e-05 0.000112993 5.58289e-07
-5.62344e-07 5.58289e-07 1.63586e-05
0.00064299 -9.66057e-06 -6.75992e-07
-9.66057e-06 3.39288e-05 8.38234e-07
-6.75992e-07 8.38234e-07 -3.98388e-05
0.000828279 -4.64301e-05 1.69982e-07
-4.64301e-05 0.000173352 -4.47752e-07
1.69982e-07 -4.47752e-07 6.72735e-05
0.000692276 -4.29923e-05 -5.42776e-07
-4.29923e-05 6.74239e-05 -1.34352e-08
-5.42776e-07 -1.34352e-08 -9.83717e-06
0.000618032 3.14979e-05 -1.83927e-06
3.14979e-05 1.24664e-06 1.8007e-06
-1.83927e-06 1.8007e-06 -4.90035e-05
0.000726907 -7.3423e-05 1.71327e-06
-7.3423e-05 8.9733e-05 -1.03935e-06
1.71327e-06 -1.03935e-06 8.96418e-06
0.00066046 -3.6244e-06 -2.74453e-07
-3.6244e-06 2.38011e-05 2.7581e-08
-2.74453e-07 2.7581e-08 -2.48688e-05
0.00136479 3.41325e-05 -7.10903e-06
3.41325e-05 0.000425688 5.30981e-06
-7.10903e-06 5.30981e-06 0.000414117
0.000636325 -2.30899e-05 1.8943e-06
-2.30899e-05 1.50277e-05 -2.0087e-06
1.8943e-06 -2.0087e-06 -3.52959e-05
0.000970698 2.2181e-05 -3.4395e-06
2.2181e-05 0.000192089 7.16223e-07
-3.4395e-06 7.16223e-07 0.000179079
0.00078885 2.29571e-05 -5.97262e-07
2.29571e-05 8.71924e-05 2.0273e-06
-5.97262e-07 2.0273e-06 9.43775e-05
0.000568527 1.12121e-05 4.82432e-07
1.12121e-05 -4.61091e-05 -3.78934e-06
4.82432e-07 -3.78934e-06 -6.06871e-05
0.00155716 2.23719e-05 5.44837e-06
2.23719e-05 0.00053793 -1.48435e-06
5.44837e-06 -1.48435e-06 0.000549835
0.00233946 1.56299e-05 4.08395e-06
1.56299e-05 0.000998982 -5.10882e-06
4.08395e-06 -5.10882e-06 0.00101498
0.000725766 3.0318e-06 1.07733e-06
3.0318e-06 8.96478e-05 -1.3341e-06
1.07733e-06 -1.3341e-06 1.07672e-05
0.00066282 2.45483e-05 -6.29191e-07
2.45483e-05 3.11377e-05 -1.9585e-06
-6.29191e-07 -1.9585e-06 -1.03824e-05
0.000720307 -2.6501e-06 1.04543e-06
-2.6501e-06 9.26675e-05 2.59441e-07
1.04543e-06 2.59441e-07 1.64695e-05
0.000606123 -3.21853e-06 1.44897e-07
-3.21853e-06 -2.848e-05 -3.4878e-06
1.44897e-07 -3.4878e-06 -3.55774e-05
0.000624288 1.92255e-05 5.41333e-08
1.92255e-05 9.66068e-06 -1.59546e-08
5.41333e-08 -1.59546e-08 -2.95088e-05
0.000670575 -8.2446e-05 -3.35801e-06
-8.2446e-05 6.45007e-05 1.57488e-06
-3.35801e-06 1.57488e-06 -9.41959e-06
0.00203599 9.32852e-07 -1.3802e-06
9.32852e-07 0.000818775 -4.73195e-06
-1.3802e-06 -4.73195e-06 0.000838381
0.000602058 2.48887e-06 -1.69061e-07
2.48887e-06 -3.09682e-05 -9.44928e-09
-1.69061e-07 -9.44928e-09 -3.72813e-05
0.000612368 -1.84771e-05 -1.25178e-06
-1.84771e-05 8.96587e-07 1.63228e-06
-1.25178e-06 1.63228e-06 -3.63056e-05
0.00058519 7.85483e-06 -3.60851e-07
7.85483e-06 -4.06606e-05 3.27581e-06
-3.60851e-07 3.27581e-06 -4.69112e-05
0.00204253 1.4555e-05 -3.64376e-06
1.4555e-05 0.000824086 -4.38665e-08
-3.64376e-06 -4.38665e-08 0.000843322
0.00203495 2.61609e-05 -9.97329e-06
2.61609e-05 0.000821963 4.3669e-06
-9.97329e-06 4.3669e-06 0.000840601
-0.00378729 -0.000280004 -4.2691e-05
-0.000280004 0.00117079 1.49503e-05
-4.2691e-05 1.49503e-05 -0.000817931
-0.000946583 0.000440589 -6.40786e-05
0.000440589 -0.0004582 1.59119e-05
-6.40786e-05 1.59119e-05 -0.000939751
0.00359788 -0.000309451 -0.000207997
-0.000309451 0.00110285 0.000153611
-0.000207997 0.000153611 -0.00100746
-0.0028352 0.000131502 0.000294822
0.000131502 0.00158803 -0.000129856
0.000294822 -0.000129856 0.000289822
0.000670311 0.000219873 -3.94664e-05
0.000219873 -0.00100358 8.17802e-06
-3.94664e-05 8.17802e-06 -0.00107317
0.00238435 -0.000151708 9.84151e-05
-0.000151708 0.000108917 -9.68255e-06
9.84151e-05 -9.68255e-06 9.09148e-05
0.00135743 -0.000411033 -4.68557e-05
-0.000411033 -0.00184334 -5.65719e-05
-4.68557e-05 -5.65719e-05 -0.0031379
0.0093519 0.000932093 -8.99537e-05
0.000932093 0.00459333 -2.08667e-05
-8.99537e-05 -2.08667e-05 0.00407916
-0.00762641 0.00197065 -0.000502596
0.00197065 -0.00372326 0.000387126
-0.000502596 0.000387126 -0.00188328
0.00259242 -8.23654e-05 -7.94556e-06
-8.23654e-05 -0.000238865 -5.05022e-06
-7.94556e-06 -5.05022e-06 -0.000387967
0.00445714 -0.000342739 4.27496e-05
-0.000342739 -9.35624e-05 -5.46956e-05
4.27496e-05 -5.46956e-05 -0.002137
0.00991951 0.00172955 -6.49642e-05
0.00172955 0.00313047 -7.09289e-05
-6.49642e-05 -7.09289e-05 0.00369711
0.0029673 0.00121734 -6.19933e-05
0.00121734 -0.00130224 0.000150955
-6.19933e-05 0.000150955 -0.000930922
0.0028605 -0.00061399 -6.29571e-05
-0.00061399 -0.000482191 1.85945e-05
-6.29571e-05 1.85945e-05 -0.000613635
0.00273991 -0.000781864 0.000177144
-0.000781864 0.000232296 -0.000119255
0.000177144 -0.000119255 -0.00292781
-0.00486878 0.000870404 -6.06089e-05
0.000870404 -0.00434988 -0.000288646
-6.06089e-05 -0.000288646 -0.00440514
0.00286954 0.00074243 -6.81604e-05
0.00074243 -0.00293265 2.21789e-06
-6.81604e-05 2.21789e-06 -0.00179006
0.000906275 -1.48395e-05 6.71296e-07
-1.48395e-05 0.000237196 2.06682e-06
6.71296e-07 2.06682e-06 0.000101435
0.000713374 6.19084e-05 -1.79551e-06
6.19084e-05 0.000116271 -1.02209e-06
-1.79551e-06 -1.02209e-06 -4.29165e-07
0.000658905 5.81594e-05 1.33441e-07
5.81594e-05 6.1456e-05 -1.30044e-06
1.33441e-07 -1.30044e-06 -2.22947e-05
0.000661027 6.62855e-05 2.97453e-06
6.62855e-05 8.99904e-05 1.27814e-06
2.97453e-06 1.27814e-06 -1.69217e-05
0.000670179 4.00747e-05 1.44339e-07
4.00747e-05 8.34973e-05 9.62063e-07
1.44339e-07 9.62063e-07 -5.29956e-05
0.000789733 7.39124e-05 1.02703e-07
7.39124e-05 0.000159287 1.14955e-06
1.02703e-07 1.14955e-06 3.84696e-05
0.000643859 2.21087e-05 -6.62198e-07
2.21087e-05 6.77219e-05 8.02368e-07
-6.62198e-07 8.02368e-07 -3.99721e-05
0.000887865 0.000118283 6.44995e-07
0.000118283 0.000217949 1.09447e-06
6.44995e-07 1.09447e-06 9.04011e-05
0.000841806 6.97154e-05 -1.40672e-07
6.97154e-05 0.000189353 4.23967e-07
-1.40672e-07 4.23967e-07 7.01474e-05
0.000551532 -5.05124e-06 -2.34824e-06
-5.05124e-06 1.39934e-05 -7.43394e-07
-2.34824e-06 -7.43394e-07 -9.20899e-05
0.000952509 -0.000205038 3.54004e-05
-0.000205038 -0.000469804 -1.65913e-05
3.54004e-05 -1.65913e-05 -0.000432768
0.000890758 -0.000411549 2.78861e-05
-0.000411549 -0.000470266 -5.29271e-06
2.78861e-05 -5.29271e-06 -0.000491088
0.00168075 -0.000556543 1.56023e-05
-0.000556543 0.000143116 -8.72967e-07
1.56023e-05 -8.72967e-07 -2.67064e-05
0.000577432 -0.000385004 7.67167e-06
-0.000385004 -5.76743e-05 -1.42715e-05
7.67167e-06 -1.42715e-05 -0.000346408
0.0016784 -0.000151449 -1.38859e-06
-0.000151449 0.000773992 1.29964e-05
-1.38859e-06 1.29964e-05 0.000503837
0.000658693 -8.84939e-05 -9.44407e-07
-8.84939e-05 0.00012244 3.57984e-06
-9.44407e-07 3.57984e-06 -3.69779e-05
0.000579384 7.23238e-05 -3.02544e-07
7.23238e-05 4.78953e-05 -1.69262e-06
-3.02544e-07 -1.69262e-06 -9.16417e-05
0.00076048 -4.92405e-05 -4.78757e-07
-4.92405e-05 0.000155449 2.10329e-06
-4.78757e-07 2.10329e-06 8.93894e-06
0.00154508 -0.000306187 -7.6815e-07
-0.000306187 0.000121583 -5.21259e-07
-7.6815e-07 -5.21259e-07 -3.57726e-05
0.000769969 -1.22705e-05 1.5023e-07
-1.22705e-05 0.000168729 7.32618e-07
1.5023e-07 7.32618e-07 1.44593e-05
0.00136652 -0.00012598 -1.04752e-07
-0.00012598 0.000587511 2.63981e-08
-1.04752e-07 2.63981e-08 0.00035532
0.00124929 -0.000394269 -8.28945e-07
-0.000394269 -1.95243e-05 -3.73431e-07
-8.28945e-07 -3.73431e-07 -6.29874e-05
0.000836351 -0.000265523 -1.52128e-05
-0.000265523 0.000239223 4.92497e-06
-1.52128e-05 4.92497e-06 -4.07756e-05
0.000413265 -0.000440678 -1.3435e-05
-0.000440678 -0.000513759 -2.24776e-05
-1.3435e-05 -2.24776e-05 -0.000492175
0.00101314 -0.000209053 -2.12577e-05
-0.000209053 0.000323183 2.18456e-05
-2.12577e-05 2.18456e-05 0.000224346
-0.000469601 -4.37778e-05 -2.37003e-06
-4.37778e-05 -0.000396511 2.59771e-05
-2.37003e-06 2.59771e-05 -0.000648371
0.000680708 7.47628e-06 -3.808e-07
7.47628e-06 8.972e-05 -2.66522e-06
-3.808e-07 -2.66522e-06 -4.91869e-05
0.000592469 3.09001e-05 1.39683e-06
3.09001e-05 0.000140723 -4.06361e-06
1.39683e-06 -4.06361e-06 -6.89985e-05
0.00170099 -4.42052e-05 -1.58804e-05
-4.42052e-05 0.000951749 -5.5003e-06
-1.58804e-05 -5.5003e-06 -0.000479745
-0.002165 7.58266e-05 -0.000111209
7.58266e-05 0.00241261 -5.12406e-06
-0.000111209 -5.12406e-06 0.000538082
-0.00915714 -0.000479043 -0.000284799
-0.000479043 -0.00482105 5.6334e-06
-0.000284799 5.6334e-06 -0.00468138
-0.00010731 8.83719e-05 6.01358e-06
8.83719e-05 -0.000277913 -1.6863e-06
6.01358e-06 -1.6863e-06 -0.000417139
0.000153177 0.000145644 3.14382e-06
0.000145644 -0.000116234 5.52063e-06
3.14382e-06 5.52063e-06 -0.000349087
0.00178895 0.000357973 1.8255e-05
0.000357973 0.000401069 3.87698e-06
1.8255e-05 3.87698e-06 0.000348366
-0.00359978 0.00033967 -2.41743e-05
0.00033967 0.00102575 1.1987e-05
-2.41743e-05 1.1987e-05 -0.00112972
0.00164067 0.000615586 -7.97716e-05
0.000615586 0.000104735 -7.65533e-05
-7.97716e-05 -7.65533e-05 -0.00301994
0.00295574 0.00100218 0.000129226
0.00100218 0.000401439 2.79231e-05
0.000129226 2.79231e-05 -9.39064e-05
0.000383572 0.000297296 7.75761e-06
0.000297296 -4.90219e-05 -2.36633e-05
7.75761e-06 -2.36633e-05 -0.00010263
0.0118061 -0.00123849 1.25567e-05
-0.00123849 0.00346494 -9.47198e-05
1.25567e-05 -9.47198e-05 0.00323995
0.00382589 0.000302028 0.000123494
0.000302028 0.00174295 7.20066e-05
0.000123494 7.20066e-05 -0.000722106
0.0084756 -0.000909031 5.55574e-05
-0.000909031 0.00127102 1.01953e-05
5.55574e-05 1.01953e-05 0.00249965
0.000981764 0.000188662 2.919e-06
0.000188662 0.000416748 -1.81393e-06
2.919e-06 -1.81393e-06 0.00028415
0.00304182 4.45097e-05 7.06941e-06
4.45097e-05 0.00131902 -4.729e-06
7.06941e-06 -4.729e-06 4.35598e-06
0.000571753 9.94332e-05 1.20805e-05
9.94332e-05 0.000185086 1.18237e-05
1.20805e-05 1.18237e-05 -0.00137896
-0.000249319 0.000184014 -7.38431e-06
0.000184014 -0.000146491 -1.42727e-06
-7.38431e-06 -1.42727e-06 -0.00033762
0.00240563 0.000562557 -6.9052e-05
0.000562557 0.000941113 -3.74105e-05
-6.9052e-05 -3.74105e-05 0.000188453
0.00261298 0.00141789 6.64372e-05
0.00141789 0.000802301 5.25721e-05
6.64372e-05 5.25721e-05 -0.0022792
0.00534179 0.000145356 -9.60551e-06
0.000145356 -0.00225271 -9.95322e-05
-9.60551e-06 -9.95322e-05 -0.000165708
0.00179916 -0.000986274 -2.71009e-05
-0.000986274 0.000227227 -3.59344e-05
-2.71009e-05 -3.59344e-05 -0.00116336
0.000748328 0.000132675 -8.17493e-06
0.000132675 0.00047692 -1.10202e-05
-8.17493e-06 -1.10202e-05 0.000326936
0.000762676 -6.27089e-05 -7.56018e-06
-6.27089e-05 0.000108973 -1.41939e-05
-7.56018e-06 -1.41939e-05 4.76171e-05
0.00259556 7.09932e-06 2.40451e-05
7.09932e-06 0.000325731 -7.37659e-05
2.40451e-05 -7.37659e-05 -0.000813307
0.00307376 0.000780334 7.47248e-05
0.000780334 -0.00277831 -1.68348e-06
7.47248e-05 -1.68348e-06 -0.00174535
-0.000732534 8.80872e-05 -5.62813e-06
8.80872e-05 -6.14183e-05 -1.82794e-05
-5.62813e-06 -1.82794e-05 -0.000533352
0.0102329 0.00107742 0.000117384
0.00107742 0.00491924 4.85209e-05
0.000117384 4.85209e-05 0.00146472
-0.00907438 -0.00030767 6.48513e-05
-0.00030767 -0.000811341 0.000169589
6.48513e-05 0.000169589 -0.0026085
0.00192667 0.000199325 1.60983e-05
0.000199325 0.000875889 7.69808e-06
1.60983e-05 7.69808e-06 0.000769093
0.000559435 0.000108772 -4.29816e-06
0.000108772 0.000196404 -3.32508e-07
-4.29816e-06 -3.32508e-07 4.67668e-05
0.000316465 8.07996e-05 -5.41045e-06
8.07996e-05 0.000253591 -1.21331e-06
-5.41045e-06 -1.21331e-06 7.95184e-05
0.000788935 0.000130631 9.065e-07
0.000130631 0.000136771 1.11312e-06
9.065e-07 1.11312e-06 6.89459e-06
0.00072383 5.52121e-05 8.97209e-07
5.52121e-05 9.00996e-05 1.7263e-06
8.97209e-07 1.7263e-06 -1.5443e-05
0.000811342 8.4384e-07 5.90498e-06
8.4384e-07 0.000319073 6.60135e-06
5.90498e-06 6.60135e-06 0.000182067
0.000692593 4.36676e-05 -1.64871e-07
4.36676e-05 7.8792e-05 -1.30139e-07
-1.64871e-07 -1.30139e-07 -3.91196e-05
0.00077692 -2.46921e-05 -8.41082e-07
-2.46921e-05 0.000246462 -1.4859e-06
-8.41082e-07 -1.4859e-06 0.000127654
9.69541e-05 2.56182e-05 7.09766e-06
2.56182e-05 5.98164e-05 3.14421e-06
7.09766e-06 3.14421e-06 -0.000108283
0.00102045 1.28478e-05 -1.00106e-05
1.28478e-05 0.000535536 -1.01647e-05
-1.00106e-05 -1.01647e-05 0.000445972
0.000114604 -3.4316e-05 -2.81062e-06
-3.4316e-05 -0.000154427 -7.84049e-06
-2.81062e-06 -7.84049e-06 -0.000262502
0.000610673 -3.75626e-05 1.93527e-06
-3.75626e-05 2.133e-05 3.40177e-06
1.93527e-06 3.40177e-06 -7.28709e-05
0.000782191 1.89172e-05 -4.30166e-07
1.89172e-05 0.000131472 1.83461e-07
-4.30166e-07 1.83461e-07 3.16302e-05
0.000818419 -6.19546e-06 -4.75187e-06
-6.19546e-06 0.000139141 3.25022e-06
-4.75187e-06 3.25022e-06 5.26017e-05
0.000726026 -3.88426e-05 2.53326e-06
-3.88426e-05 0.000120383 2.46084e-07
2.53326e-06 2.46084e-07 4.06467e-05
0.000644339 1.42587e-07 -4.13477e-07
1.42587e-07 3.3977e-05 2.10157e-07
-4.13477e-07 2.10157e-07 -5.88717e-05
0.000763852 -8.42173e-05 3.04673e-06
-8.42173e-05 0.000123094 -6.83179e-07
3.04673e-06 -6.83179e-07 2.76404e-05
0.000461355 -7.49987e-05 -2.09587e-06
-7.49987e-05 -0.000104774 -1.0961e-06
-2.09587e-06 -1.0961e-06 -0.00018886
0.000138422 -0.000153261 7.88823e-06
-0.000153261 -0.000266793 -8.08268e-07
7.88823e-06 -8.08268e-07 -0.000438022
0.00100759 -7.05798e-05 -1.14432e-06
-7.05798e-05 0.000237888 1.1924e-06
-1.14432e-06 1.1924e-06 0.000132776
0.00108027 -0.000142747 -4.02036e-07
-0.000142747 0.000286422 2.3257e-06
-4.02036e-07 2.3257e-06 0.000137948
0.000464072 -0.000188522 -1.86064e-06
-0.000188522 -0.000131202 4.15079e-06
-1.86064e-06 4.15079e-06 -0.000336471
0.000816323 -0.000198615 -4.46053e-06
-0.000198615 7.77724e-05 1.96979e-08
-4.46053e-06 1.96979e-08 -0.000132222
0.000969421 -0.000165 -1.85111e-06
-0.000165 0.000273054 3.4455e-06
-1.85111e-06 3.4455e-06 0.000102916
0.000509133 -0.000158832 1.47166e-06
-0.000158832 -5.9899e-05 -7.963e-08
1.47166e-06 -7.963e-08 -0.000260783
0.000847709 -5.81757e-05 9.85249e-07
-5.81757e-05 0.000172963 4.58749e-08
9.85249e-07 4.58749e-08 6.03836e-05
0.00104198 -9.346e-05 -1.30069e-06
-9.346e-05 0.00030562 -6.21884e-07
-1.30069e-06 -6.21884e-07 0.000172116
0.000528278 -8.853e-05 1.4979e-06
-8.853e-05 1.79276e-05 -8.56911e-06
1.4979e-06 -8.56911e-06 -0.000127335
0.000966165 -1.19046e-05 -7.86271e-07
-1.19046e-05 0.000232407 -1.51354e-07
-7.86271e-07 -1.51354e-07 0.000130332
0.000519285 -1.11269e-06 2.66546e-07
-1.11269e-06 -1.56787e-05 -5.84995e-08
2.66546e-07 -5.84995e-08 -0.000113857
0.000638425 2.76766e-06 -3.39853e-07
2.76766e-06 3.36588e-05 5.93302e-07
-3.39853e-07 5.93302e-07 -4.46483e-05
0.000799083 -4.34463e-05 -2.61705e-08
-4.34463e-05 0.000151878 3.67155e-07
-2.61705e-08 3.67155e-07 4.754e-05
0.000691574 -2.55276e-05 -1.98171e-07
-2.55276e-05 6.90196e-05 2.97356e-08
-1.98171e-07 2.97356e-08 -1.02704e-05
0.000619412 3.14144e-05 -7.78645e-07
3.14144e-05 6.53576e-06 1.7983e-06
-7.78645e-07 1.7983e-06 -4.65635e-05
0.000742598 -5.91982e-05 7.18075e-07
-5.91982e-05 0.00010291 -1.09388e-06
7.18075e-07 -1.09388e-06 2.07711e-05
0.000639626 2.28697e-05 -8.08242e-07
2.28697e-05 1.39847e-05 -4.37648e-08
-8.08242e-07 -4.37648e-08 -3.66968e-05
0.00132894 4.57313e-05 -8.13099e-06
4.57313e-05 0.000408159 3.54128e-06
-8.13099e-06 3.54128e-06 0.000395739
0.000666143 -1.58886e-05 2.17103e-06
-1.58886e-05 2.76871e-05 -2.03482e-06
2.17103e-06 -2.03482e-06 -2.15044e-05
0.000952315 3.10373e-05 -4.3446e-06
3.10373e-05 0.000182474 6.31088e-07
-4.3446e-06 6.31088e-07 0.000169133
0.000805853 3.13007e-05 -1.16808e-06
3.13007e-05 0.000101235 2.06415e-06
-1.16808e-06 2.06415e-06 0.000107371
0.000552581 1.7918e-05 7.93362e-07
1.7918e-05 -5.56621e-05 -3.94624e-06
7.93362e-07 -3.94624e-06 -7.02836e-05
0.00156044 3.33526e-05 7.38485e-06
3.33526e-05 0.000543169 -1.35375e-06
7.38485e-06 -1.35375e-06 0.000554061
0.00233636 2.96032e-05 7.91323e-06
2.96032e-05 0.0009993 -4.98303e-06
7.91323e-06 -4.98303e-06 0.00101467
0.000466271 3.22809e-06 6.51965e-07
3.22809e-06 -5.17884e-05 -1.10526e-06
6.51965e-07 -1.10526e-06 -0.000148097
0.000358463 8.91502e-07 -1.46835e-07
8.91502e-07 -0.000147247 -3.13615e-06
-1.46835e-07 -3.13615e-06 -0.000196174
0.000762516 1.39662e-05 7.90673e-08
1.39662e-05 0.000116483 1.02004e-07
7.90673e-08 1.02004e-07 3.36429e-05
0.00060079 -8.9903e-06 1.39929e-07
-8.9903e-06 -3.11057e-05 -3.6705e-06
1.39929e-07 -3.6705e-06 -3.99407e-05
0.000480944 5.08654e-06 9.78113e-07
5.08654e-06 -7.57409e-05 -5.57944e-08
9.78113e-07 -5.57944e-08 -0.000118413
0.000455052 -7.46187e-05 -1.0214e-06
-7.46187e-05 -6.11792e-05 1.13003e-06
-1.0214e-06 1.13003e-06 -0.000140139
0.0020868 -1.16984e-05 -5.74176e-06
-1.16984e-05 0.000848923 -4.78668e-06
-5.74176e-06 -4.78668e-06 0.000868007
0.000603559 -3.22202e-06 -1.14825e-07
-3.22202e-06 -2.99854e-05 -3.65513e-08
-1.14825e-07 -3.65513e-08 -3.70245e-05
0.000607217 -7.23725e-06 -1.28841e-06
-7.23725e-06 -1.03183e-06 1.82906e-06
-1.28841e-06 1.82906e-06 -3.96225e-05
0.00204772 2.24598e-06 -3.69018e-06
2.24598e-06 0.000825778 7.4331e-09
-3.69018e-06 7.4331e-09 0.000845337
0.000588946 2.34802e-06 -2.17168e-07
2.34802e-06 -3.84369e-05 3.3288e-06
-2.17168e-07 3.3288e-06 -4.47188e-05
0.00204255 1.58953e-05 -3.02581e-06
1.58953e-05 0.000824233 4.55218e-06
-3.02581e-06 4.55218e-06 0.000843412
0.000564049 -0.000142272 -8.32224e-05
-0.000142272 -0.000164818 2.65539e-05
-8.32224e-05 2.65539e-05 -0.00154146
0.00152157 0.000147814 -2.24716e-05
0.000147814 0.00308678 -9.51916e-06
-2.24716e-05 -9.51916e-06 0.00186448
0.00123394 -0.000327943 -0.000221135
-0.000327943 0.00191207 -2.62843e-06
-0.000221135 -2.62843e-06 0.00105423
0.000755207 7.18566e-05 1.1936e-06
7.18566e-05 0.000121895 4.98092e-07
1.1936e-06 4.98092e-07 -2.00639e-06
0.00369959 -0.000215214 -3.27474e-05
-0.000215214 0.00220606 8.70364e-05
-3.27474e-05 8.70364e-05 0.00109077
0.00346999 -0.000351231 -7.39971e-05
-0.000351231 0.00115477 8.04229e-06
-7.39971e-05 8.04229e-06 -0.00121555
0.00184689 0.000594404 0.000148797
0.000594404 0.00283673 -0.000146172
0.000148797 -0.000146172 0.00198371
0.00389084 -0.0002057 2.00419e-05
-0.0002057 0.000237351 -3.17069e-05
2.00419e-05 -3.17069e-05 -3.05152e-05
0.0110381 -0.000268934 0.000101432
-0.000268934 0.00317568 -5.48387e-05
0.000101432 -5.48387e-05 0.00151189
-0.00275533 0.00133721 -0.000108553
0.00133721 -0.0037386 0.000128393
-0.000108553 0.000128393 -0.0029518
0.00516158 0.0013415 3.15024e-05
0.0013415 5.08007e-05 4.33528e-05
3.15024e-05 4.33528e-05 0.000370152
0.00479552 -0.000743697 -8.33255e-05
-0.000743697 0.000308669 -1.68544e-08
-8.33255e-05 -1.68544e-08 -0.000191125
0.0100259 -0.000621814 5.46994e-05
-0.000621814 0.00378786 -1.42602e-05
5.46994e-05 -1.42602e-05 0.00169031
0.00610191 0.000902411 5.67657e-05
0.000902411 0.000413187 -0.000104521
5.67657e-05 -0.000104521 0.000148816
0.00497297 0.000681825 -1.16606e-05
0.000681825 -0.00155881 1.14748e-05
-1.16606e-05 1.14748e-05 -0.000549989
0.00445158 -0.0012152 1.14671e-05
-0.0012152 0.000604533 -2.33737e-06
1.14671e-05 -2.33737e-06 -0.000302291
0.0109287 -0.00116647 7.6825e-05
-0.00116647 0.00527859 -4.3238e-05
7.6825e-05 -4.3238e-05 0.00166238
0.00309949 -0.000166581 5.74651e-05
-0.000166581 0.000170629 -0.000158507
5.74651e-05 -0.000158507 -0.00016555
0.00668743 0.000319568 -3.15641e-05
0.000319568 -0.000788083 8.40627e-05
-3.15641e-05 8.40627e-05 0.000884174
0.000688657 -2.7788e-05 2.83809e-08
-2.7788e-05 9.89671e-05 1.04872e-06
2.83809e-08 1.04872e-06 -4.43214e-05
0.000748647 -4.8514e-05 2.11945e-07
-4.8514e-05 0.000149101 -8.14855e-08
2.11945e-07 -8.14855e-08 9.55726e-06
0.000827752 8.65405e-05 -8.32334e-07
8.65405e-05 0.000188686 -1.4051e-06
-8.32334e-07 -1.4051e-06 6.9798e-05
0.000743322 3.48283e-05 3.77485e-07
3.48283e-05 0.000105662 1.47663e-06
3.77485e-07 1.47663e-06 -1.59428e-05
0.000828595 8.68421e-05 -6.87297e-07
8.68421e-05 0.000182378 7.10285e-07
-6.87297e-07 7.10285e-07 4.53251e-05
0.000867936 6.33977e-05 -2.34282e-07
6.33977e-05 0.000204114 9.74125e-07
-2.34282e-07 9.74125e-07 8.49857e-05
0.00097048 0.000109807 -8.41065e-07
0.000109807 0.000263368 -4.53931e-08
-8.41065e-07 -4.53931e-08 0.000137146
0.000967865 0.000115411 7.74361e-07
0.000115411 0.000272561 2.30275e-06
7.74361e-07 2.30275e-06 0.000148336
0.000696784 -0.000216987 4.85657e-05
-0.000216987 -0.000401887 -1.84601e-05
4.85657e-05 -1.84601e-05 -0.000437042
0.00124429 -0.000393754 7.83612e-06
-0.000393754 -4.85524e-05 -1.51149e-05
7.83612e-06 -1.51149e-05 -8.56602e-05
0.000776523 -0.000155732 -1.10975e-06
-0.000155732 0.000171033 -9.81704e-07
-1.10975e-06 -9.81704e-07 1.72272e-05
0.0022869 -0.000348545 1.3493e-05
-0.000348545 0.00102056 -2.46836e-05
1.3493e-05 -2.46836e-05 0.000749784
0.00206829 -0.000167643 -2.99544e-06
-0.000167643 0.000983886 6.90661e-06
-2.99544e-06 6.90661e-06 0.000747144
0.000949603 -6.47554e-05 -1.59914e-06
-6.47554e-05 0.00026303 -2.0914e-06
-1.59914e-06 -2.0914e-06 0.000110848
0.000717695 7.97443e-06 4.5925e-07
7.97443e-06 0.000122107 1.24713e-06
4.5925e-07 1.24713e-06 -2.28089e-05
0.000211242 -0.000434051 -9.3079e-06
-0.000434051 -0.000650598 -7.35875e-07
-9.3079e-06 -7.35875e-07 -0.000620897
0.00116814 4.67705e-05 2.01935e-07
4.67705e-05 0.000473492 1.45018e-06
2.01935e-07 1.45018e-06 0.000256272
0.00104758 -0.000146254 -1.09427e-05
-0.000146254 0.000418764 2.1674e-06
-1.09427e-05 2.1674e-06 0.00017964
0.00048167 -0.000167201 5.25895e-06
-0.000167201 -3.08364e-06 4.10424e-06
5.25895e-06 4.10424e-06 -5.57302e-05
0.000778628 4.18772e-05 1.59477e-06
4.18772e-05 0.000134675 -1.73566e-06
1.59477e-06 -1.73566e-06 2.70034e-06
0.00140035 -0.000363714 1.37677e-05
-0.000363714 4.24545e-05 -3.45977e-05
1.37677e-05 -3.45977e-05 0.000218757
0.000123363 -0.000114429 -4.26438e-06
-0.000114429 6.01455e-05 2.73491e-05
-4.26438e-06 2.73491e-05 -4.17705e-05
0.000400315 1.5221e-05 -4.85772e-07
1.5221e-05 0.000159981 9.63289e-06
-4.85772e-07 9.63289e-06 -0.000122226
0.00136701 0.000185956 1.64001e-06
0.000185956 0.000543187 -3.64599e-06
1.64001e-06 -3.64599e-06 0.00036891
0.000770989 -3.18012e-05 -8.75827e-06
-3.18012e-05 0.000639081 -8.09526e-06
-8.75827e-06 -8.09526e-06 5.49345e-05
0.001368 -5.50242e-05 7.06038e-05
-5.50242e-05 0.000821478 -6.57255e-06
7.06038e-05 -6.57255e-06 -0.000628468
-0.00458844 -5.83971e-05 -0.000126894
-5.83971e-05 0.00159017 6.36816e-06
-0.000126894 6.36816e-06 -0.000668824
0.000929702 0.000169856 1.41329e-05
0.000169856 0.000440705 2.03079e-06
1.41329e-05 2.03079e-06 0.00030141
-0.000958714 0.000239463 1.12432e-05
0.000239463 -0.00055411 1.10257e-05
1.12432e-05 1.10257e-05 -0.000803752
0.00332023 3.34405e-05 8.085e-05
3.34405e-05 0.00168275 1.65786e-06
8.085e-05 1.65786e-06 0.000553934
0.00777748 0.000591291 0.000131537
0.000591291 0.00350351 7.19268e-05
0.000131537 7.19268e-05 0.00028929
0.00306627 0.000715484 -9.40428e-05
0.000715484 0.00135255 -8.31592e-05
-9.40428e-05 -8.31592e-05 0.000322051
0.00411782 -0.000612263 -1.07022e-06
-0.000612263 0.00113159 -0.00017461
-1.07022e-06 -0.00017461 -0.000157807
0.00108003 0.000123797 4.60032e-05
0.000123797 0.000248723 0.000112741
4.60032e-05 0.000112741 -0.00128741
0.00395801 -1.52321e-05 -5.60235e-06
-1.52321e-05 -0.00375684 -9.7067e-05
-5.60235e-06 -9.7067e-05 -0.00120628
0.000726142 0.00016027 1.12434e-06
0.00016027 0.000461166 -1.75373e-06
1.12434e-06 -1.75373e-06 0.000294535
0.000691355 -5.96271e-05 1.10475e-06
-5.96271e-05 0.000115271 -4.00751e-06
1.10475e-06 -4.00751e-06 3.61205e-05
0.00272125 2.74401e-05 3.44896e-05
2.74401e-05 0.00053716 1.21566e-05
3.44896e-05 1.21566e-05 -0.0002931
-0.000961039 0.000125304 -7.5874e-06
0.000125304 -0.000364665 -5.22129e-06
-7.5874e-06 -5.22129e-06 -0.000746716
0.00524043 0.000779766 8.90969e-06
0.000779766 -0.00152277 -1.12498e-05
8.90969e-06 -1.12498e-05 -0.000535331
0.00514011 0.000896103 0.000106093
0.000896103 0.00288297 4.90482e-05
0.000106093 4.90482e-05 -0.000705803
0.0032143 0.000280005 -5.96339e-05
0.000280005 0.0022381 6.44085e-06
-5.96339e-05 6.44085e-06 0.00114336
0.000400715 0.000173708 -1.62361e-05
0.000173708 0.000321253 -1.65679e-05
-1.62361e-05 -1.65679e-05 8.60636e-05
0.00172804 5.05827e-05 4.16094e-06
5.05827e-05 -0.000102949 -1.70415e-05
4.16094e-06 -1.70415e-05 -1.97323e-05
0.0037161 -0.000172301 3.4965e-05
-0.000172301 0.00215727 -8.7015e-05
3.4965e-05 -8.7015e-05 0.00108215
0.0061897 0.00137448 0.000157343
0.00137448 0.000349127 -0.000108065
0.000157343 -0.000108065 0.000805937
0.00626869 -0.000143577 -7.82517e-05
-0.000143577 0.0012453 0.000152414
-7.82517e-05 0.000152414 0.00112323
0.000806823 0.00018389 -1.70486e-05
0.00018389 -4.75662e-05 -5.24555e-05
-1.70486e-05 -5.24555e-05 -0.000103467
-0.000584536 0.000887921 0.000119029
0.000887921 0.00248356 3.75728e-05
0.000119029 3.75728e-05 -0.00291684
0.000947593 0.000156986 2.20817e-06
0.000156986 0.000391367 7.60057e-06
2.20817e-06 7.60057e-06 0.000238441
0.000304326 9.0943e-05 3.85994e-06
9.0943e-05 0.000243823 1.91126e-06
3.85994e-06 1.91126e-06 6.69825e-05
0.00127223 3.38608e-05 -2.49248e-05
3.38608e-05 0.000845115 -1.70967e-05
-2.49248e-05 -1.70967e-05 0.00073034
0.000433574 -2.11606e-05 1.0893e-06
-2.11606e-05 -8.36069e-05 3.66712e-06
1.0893e-06 3.66712e-06 -0.000189791
0.000701719 -3.26481e-05 1.83026e-06
-3.26481e-05 0.000203811 5.22563e-06
1.83026e-06 5.22563e-06 8.61525e-05
8.43433e-05 -2.56957e-06 1.97212e-06
-2.56957e-06 3.88106e-05 4.29319e-06
1.97212e-06 4.29319e-06 -0.0001312
0.000635873 -6.14507e-05 8.38456e-07
-6.14507e-05 0.00012962 -5.67665e-07
8.38456e-07 -5.67665e-07 3.13393e-05
0.000147037 -1.07147e-05 2.08287e-06
-1.07147e-05 3.17057e-05 6.51244e-07
2.08287e-06 6.51244e-07 -6.26715e-05
0.00118497 -0.000186461 9.04671e-06
-0.000186461 0.000600295 -8.78034e-06
9.04671e-06 -8.78034e-06 0.000429908
0.00128107 -5.5934e-05 -2.03463e-06
-5.5934e-05 0.000435263 4.10386e-06
-2.03463e-06 4.10386e-06 0.000352223
0.000282652 1.56438e-05 -9.24298e-07
1.56438e-05 -0.000169141 1.64369e-06
-9.24298e-07 1.64369e-06 -0.000262369
0.00138542 -0.000133622 1.09333e-06
-0.000133622 0.000470525 2.10087e-06
1.09333e-06 2.10087e-06 0.000366046
-0.000154486 -0.000142487 5.39065e-06
-0.000142487 -0.000305295 6.66214e-07
5.39065e-06 6.66214e-07 -0.000526867
0.000432477 -5.60834e-05 -4.96044e-06
-5.60834e-05 -8.80191e-05 1.20863e-06
-4.96044e-06 1.20863e-06 -0.000160143
9.11156e-05 -0.000141442 1.83602e-06
-0.000141442 -0.000295983 -1.22095e-06
1.83602e-06 -1.22095e-06 -0.000453506
0.0010248 -0.000258398 1.08674e-05
-0.000258398 0.000175983 -1.68169e-06
1.08674e-05 -1.68169e-06 -5.86087e-05
0.00125125 -0.000292872 -3.34881e-06
-0.000292872 0.000168829 4.13892e-06
-3.34881e-06 4.13892e-06 -7.72987e-05
0.00165508 -0.000197488 -3.08682e-06
-0.000197488 0.000606957 3.7131e-07
-3.08682e-06 3.7131e-07 0.000448233
0.00078408 -0.000218111 -8.30276e-07
-0.000218111 2.90712e-05 2.57216e-07
-8.30276e-07 2.57216e-07 -0.000190718
0.0019797 -0.000314077 2.5961e-06
-0.000314077 0.000719182 -1.22741e-06
2.5961e-06 -1.22741e-06 0.000503644
0.000189409 -0.000114132 -1.76281e-06
-0.000114132 -0.000208808 1.18508e-06
-1.76281e-06 1.18508e-06 -0.000395689
0.000924402 -0.000205285 -1.90724e-07
-0.000205285 0.000145261 1.66014e-07
-1.90724e-07 1.66014e-07 -6.24045e-05
0.000563663 -5.35132e-05 2.26457e-07
-5.35132e-05 2.11875e-05 -2.78419e-07
2.26457e-07 -2.78419e-07 -0.00011175
0.00103907 -0.000180105 -3.64215e-06
-0.000180105 0.000315062 2.37197e-06
-3.64215e-06 2.37197e-06 0.000141821
-0.000170035 -9.2416e-05 -2.45748e-06
-9.2416e-05 -0.000447807 -3.10054e-06
-2.45748e-06 -3.10054e-06 -0.000636937
0.000629384 2.62491e-05 7.39797e-07
2.62491e-05 3.88122e-05 9.63981e-07
7.39797e-07 9.63981e-07 -5.34414e-05
0.000733612 -4.34379e-05 8.88815e-07
-4.34379e-05 0.000112309 -1.52226e-07
8.88815e-07 -1.52226e-07 -1.92807e-06
0.000842447 -8.82433e-05 2.62284e-06
-8.82433e-05 0.000198776 -2.71968e-06
2.62284e-06 -2.71968e-06 6.03393e-05
0.000683734 -1.09839e-05 2.40909e-07
-1.09839e-05 8.15358e-05 -4.51763e-08
2.40909e-07 -4.51763e-08 -1.84999e-05
0.000703905 -1.09609e-05 -6.12494e-07
-1.09609e-05 7.89459e-05 -1.2854e-07
-6.12494e-07 -1.2854e-07 -5.51313e-06
0.000614075 3.5631e-05 -8.77318e-07
3.5631e-05 6.76805e-06 2.0431e-06
-8.77318e-07 2.0431e-06 -4.9875e-05
0.000754221 -3.91652e-05 6.3801e-07
-3.91652e-05 0.000111417 -7.39742e-07
6.3801e-07 -7.39742e-07 2.71407e-05
0.000638979 2.74544e-05 -6.44995e-07
2.74544e-05 1.66151e-05 -8.9372e-08
-6.44995e-07 -8.9372e-08 -3.59474e-05
0.000579327 4.3028e-05 -1.09833e-06
4.3028e-05 -2.8329e-05 3.94843e-06
-1.09833e-06 3.94843e-06 -4.65035e-05
0.000691278 -6.39895e-06 2.10587e-06
-6.39895e-06 4.08889e-05 -1.91657e-06
2.10587e-06 -1.91657e-06 -8.08629e-06
0.000580815 3.45018e-05 1.47949e-07
3.45018e-05 -3.41401e-05 9.36764e-09
1.47949e-07 9.36764e-09 -5.01755e-05
0.00221505 7.08734e-05 -4.15253e-06
7.08734e-05 0.000940578 1.84052e-06
-4.15253e-06 1.84052e-06 0.000951502
0.000552282 2.63921e-05 9.2113e-07
2.63921e-05 -5.40234e-05 -3.99661e-06
9.2113e-07 -3.99661e-06 -6.91865e-05
0.00155427 4.39899e-05 8.84107e-06
4.39899e-05 0.000544015 -1.16834e-06
8.84107e-06 -1.16834e-06 0.000553685
0.00232991 4.29368e-05 1.23273e-05
4.29368e-05 0.000998975 -4.75345e-06
1.23273e-05 -4.75345e-06 0.00101333
0.000434457 -4.44839e-07 5.03042e-07
-4.44839e-07 -8.20449e-05 -1.71743e-06
5.03042e-07 -1.71743e-06 -0.000175635
0.000359187 -2.03184e-06 5.20321e-08
-2.03184e-06 -0.00014815 -2.83539e-06
5.20321e-08 -2.83539e-06 -0.000203269
0.000601001 1.40337e-05 -4.33511e-07
1.40337e-05 2.5666e-05 -9.7503e-07
-4.33511e-07 -9.7503e-07 -6.80757e-05
0.000599332 -1.50529e-05 1.87219e-07
-1.50529e-05 -3.02906e-05 -3.8848e-06
1.87219e-07 -3.8848e-06 -4.17812e-05
0.000336149 1.56804e-07 -3.58646e-07
1.56804e-07 -0.000160468 -1.10283e-06
-3.58646e-07 -1.10283e-06 -0.000210219
0.000770757 2.41796e-05 -1.80419e-07
2.41796e-05 0.000129525 1.61825e-06
-1.80419e-07 1.61825e-06 4.1524e-05
0.00214935 -2.44803e-05 -1.02017e-05
-2.44803e-05 0.000887049 -4.76468e-06
-1.02017e-05 -4.76468e-06 0.000905027
0.000597021 -9.10564e-06 -1.82938e-07
-9.10564e-06 -3.32539e-05 -4.6679e-08
-1.82938e-07 -4.6679e-08 -4.19806e-05
0.000312274 1.0218e-06 5.97452e-07
1.0218e-06 -0.000173632 1.91549e-06
5.97452e-07 1.91549e-06 -0.000218348
0.00207338 -1.03008e-05 -3.50251e-06
-1.03008e-05 0.000840773 4.19363e-08
-3.50251e-06 4.19363e-08 0.00086005
0.000597077 -3.2336e-06 -1.49744e-07
-3.2336e-06 -3.37723e-05 3.43861e-06
-1.49744e-07 3.43861e-06 -4.07286e-05
0.00206084 3.58167e-06 1.47977e-06
3.58167e-06 0.000833601 4.67399e-06
1.47977e-06 4.67399e-06 0.000853064
0.000929046 3.27099e-06 4.65765e-06
3.27099e-06 0.000441966 1.15892e-05
4.65765e-06 1.15892e-05 0.000225078
0.00105925 -0.000106549 5.5774e-06
-0.000106549 0.000145368 -8.56044e-06
5.5774e-06 -8.56044e-06 -0.00124932
0.00180542 7.40105e-05 2.7395e-05
7.40105e-05 0.00320871 -3.32677e-05
2.7395e-05 -3.32677e-05 0.00215365
0.000761343 7.83654e-05 -1.85677e-07
7.83654e-05 0.000118987 3.38666e-07
-1.85677e-07 3.38666e-07 2.00918e-06
0.000592493 5.1278e-05 1.06793e-06
5.1278e-05 4.80911e-06 3.05546e-08
1.06793e-06 3.05546e-08 -0.000104392
0.000940114 0.000110037 1.52093e-06
0.000110037 0.000222075 2.50436e-06
1.52093e-06 2.50436e-06 9.66249e-05
0.00247889 -5.21176e-05 7.89912e-06
-5.21176e-05 0.000226045 0.000143649
7.89912e-06 0.000143649 -0.000806861
0.00327561 -0.000183011 8.8972e-07
-0.000183011 0.00211691 -2.82507e-07
8.8972e-07 -2.82507e-07 0.000944804
0.00349012 -0.000389925 5.82577e-05
-0.000389925 0.00132695 -0.000111809
5.82577e-05 -0.000111809 -0.00132719
0.00539085 -0.000836149 -7.47926e-05
-0.000836149 0.000781471 1.40133e-08
-7.47926e-05 1.40133e-08 0.000254184
0.00224772 -0.000714555 -0.000105509
-0.000714555 0.000182216 7.36368e-05
-0.000105509 7.36368e-05 -0.00237984
0.010056 0.00127452 9.19659e-05
0.00127452 0.0033684 4.92489e-05
9.19659e-05 4.92489e-05 0.00286032
0.00255641 0.000214593 5.09714e-05
0.000214593 -0.00297055 -7.67292e-05
5.09714e-05 -7.67292e-05 -0.00197371
0.00527393 -0.00127095 -1.61591e-05
-0.00127095 0.00124173 3.00465e-06
-1.61591e-05 3.00465e-06 0.000511673
0.00664498 -0.000985305 -9.29517e-06
-0.000985305 0.00305541 1.94922e-05
-9.29517e-06 1.94922e-05 -0.000141475
-0.00265824 0.000841524 -2.56201e-05
0.000841524 -0.00022963 -0.00010247
-2.56201e-05 -0.00010247 -0.00183846
0.00524377 5.93034e-05 -1.36129e-05
5.93034e-05 -0.00229783 4.07499e-05
-1.36129e-05 4.07499e-05 -0.000152372
0.00211658 -0.000820263 -4.00692e-05
-0.000820263 0.000321646 -2.04719e-05
-4.00692e-05 -2.04719e-05 -0.000319568
0.0110752 -0.0012458 -4.8106e-05
-0.0012458 0.00499201 4.85752e-05
-4.8106e-05 4.85752e-05 0.00126349
-0.00925733 -9.9046e-05 4.30461e-05
-9.9046e-05 -0.000663429 -0.000181587
4.30461e-05 -0.000181587 -0.00268956
0.00367502 -0.000764047 2.85621e-05
-0.000764047 -0.00191297 -2.35423e-05
2.85621e-05 -2.35423e-05 -0.000722164
0.000743254 4.1388e-05 -3.8899e-07
4.1388e-05 0.000106387 5.41368e-06
-3.8899e-07 5.41368e-06 -2.70266e-05
0.000637669 6.59689e-06 2.75836e-07
6.59689e-06 6.89513e-05 -5.0451e-07
2.75836e-07 -5.0451e-07 -7.54543e-05
0.000745148 -6.55841e-05 7.26762e-07
-6.55841e-05 0.000145304 -1.2587e-06
7.26762e-07 -1.2587e-06 2.30716e-06
0.00074185 5.64504e-05 -5.54572e-07
5.64504e-05 0.000104517 -7.24658e-07
-5.54572e-07 -7.24658e-07 -1.98061e-05
0.000849346 0.000117349 1.01452e-06
0.000117349 0.000196575 1.81226e-07
1.01452e-06 1.81226e-07 6.28815e-05
0.00105482 0.000122665 -1.44715e-06
0.000122665 0.000315047 -2.76359e-07
-1.44715e-06 -2.76359e-07 0.000186993
0.000140441 -0.000429643 1.87306e-05
-0.000429643 -0.000701035 7.98525e-06
1.87306e-05 7.98525e-06 -0.000708106
-0.000672517 -0.000109921 1.96565e-05
-0.000109921 -0.000650134 -2.05058e-05
1.96565e-05 -2.05058e-05 -0.000662801
0.000808222 5.96303e-05 -1.07727e-06
5.96303e-05 0.000182805 -9.6751e-07
-1.07727e-06 -9.6751e-07 3.18233e-05
0.00173999 -0.000206564 3.01602e-05
-0.000206564 0.000760989 -3.25177e-05
3.01602e-05 -3.25177e-05 0.000533352
0.00146823 1.86456e-05 -2.42875e-06
1.86456e-05 0.000637436 6.84537e-07
-2.42875e-06 6.84537e-07 0.000420043
0.000656779 2.77249e-05 -2.42684e-07
2.77249e-05 6.75005e-05 1.45374e-06
-2.42684e-07 1.45374e-06 -6.8914e-05
0.000594875 9.87066e-05 4.30752e-07
9.87066e-05 9.62754e-05 -5.33993e-07
4.30752e-07 -5.33993e-07 -6.3944e-05
0.000294019 -0.00038414 -1.39328e-06
-0.00038414 -0.000515587 -3.04313e-06
-1.39328e-06 -3.04313e-06 -0.000500344
0.000748055 -1.90948e-05 2.05111e-06
-1.90948e-05 0.000336044 -9.81425e-07
2.05111e-06 -9.81425e-07 8.508e-05
0.000588683 -7.97815e-05 1.96299e-05
-7.97815e-05 0.000344197 -7.48292e-07
1.96299e-05 -7.48292e-07 0.000227281
0.000798617 6.97292e-05 3.35579e-06
6.97292e-05 0.000162023 -8.83125e-06
3.35579e-06 -8.83125e-06 3.56513e-05
-0.00255026 0.000146723 -7.69874e-05
0.000146723 -0.0010889 -1.33713e-05
-7.69874e-05 -1.33713e-05 -0.00147928
-9.83693e-05 1.36474e-05 9.84741e-06
1.36474e-05 -2.84002e-05 3.1825e-05
9.84741e-06 3.1825e-05 -0.000153775
0.001386 2.65933e-06 4.0528e-06
2.65933e-06 0.000673319 1.84704e-06
4.0528e-06 1.84704e-06 0.000473208
0.000944904 -2.80684e-05 -4.99446e-07
-2.80684e-05 -6.2934e-05 2.85074e-07
-4.99446e-07 2.85074e-07 -0.000565879
0.000600962 -2.5588e-05 -1.58828e-05
-2.5588e-05 0.000488246 -9.35393e-06
-1.58828e-05 -9.35393e-06 -9.48189e-06
0.000969778 -3.66622e-05 0.000159007
-3.66622e-05 0.00067428 -6.86328e-06
0.000159007 -6.86328e-06 -0.000809395
0.00056579 0.000174643 1.27077e-05
0.000174643 0.000348905 1.36295e-05
1.27077e-05 1.36295e-05 0.000171013
0.00147568 0.000406639 9.0495e-06
0.000406639 0.000441211 -1.30036e-05
9.0495e-06 -1.30036e-05 0.000182401
0.000751103 -5.89518e-05 9.07391e-06
-5.89518e-05 0.000149748 4.87937e-06
9.07391e-06 4.87937e-06 4.99482e-05
-0.00243926 0.000492762 4.24072e-05
0.000492762 0.000126644 5.05899e-05
4.24072e-05 5.05899e-05 -0.00350261
-0.0104291 0.000388074 -7.01027e-05
0.000388074 -0.00368603 -0.000206329
-7.01027e-05 -0.000206329 -0.00567078
0.00272437 3.28303e-05 3.4451e-05
3.28303e-05 0.000759289 5.88827e-05
3.4451e-05 5.88827e-05 0.000151056
0.0026705 0.000333751 -5.68525e-05
0.000333751 -0.0028938 7.50424e-05
-5.68525e-05 7.50424e-05 -0.00195333
0.000509291 0.000160176 7.15561e-06
0.000160176 0.00037332 -1.97275e-06
7.15561e-06 -1.97275e-06 0.000169223
0.00158985 -3.58868e-06 1.15939e-05
-3.58868e-06 -0.000201845 -1.97726e-05
1.15939e-05 -1.97726e-05 -6.66025e-05
0.00331024 -0.000132358 -1.78357e-06
-0.000132358 0.00207078 1.24491e-07
-1.78357e-06 1.24491e-07 0.000920172
0.00135139 0.000203252 -3.24564e-05
0.000203252 0.000437984 -3.11124e-06
-3.24564e-05 -3.11124e-06 -7.43033e-05
0.00312688 0.00126987 5.77281e-05
0.00126987 -0.00145142 -0.000148776
5.77281e-05 -0.000148776 -0.000872982
-0.00245063 0.000796537 2.26124e-05
0.000796537 -0.000920567 0.00010095
2.26124e-05 0.00010095 -0.00206671
0.00679937 2.05769e-05 6.18855e-05
2.05769e-05 0.00519086 -2.49453e-05
6.18855e-05 -2.49453e-05 0.000179313
0.00183882 -5.69053e-05 4.84096e-05
-5.69053e-05 0.00138485 -1.98818e-05
4.84096e-05 -1.98818e-05 0.000988298
0.00103041 3.49261e-05 -8.83369e-06
3.49261e-05 0.000455139 -1.16682e-05
-8.83369e-06 -1.16682e-05 0.000240842
0.0035785 -0.000260379 0.000210657
-0.000260379 0.00103109 -0.000154005
0.000210657 -0.000154005 -0.00102989
0.00448564 0.00170936 7.78295e-07
0.00170936 0.00309813 -1.5804e-05
7.78295e-07 -1.5804e-05 0.00385211
-0.00447411 0.000868922 3.97703e-05
0.000868922 -0.00441047 0.000281813
3.97703e-05 0.000281813 -0.00443964
0.0127344 -0.00115828 0.000111795
-0.00115828 0.00523116 -9.92799e-05
0.000111795 -9.92799e-05 0.00158099
0.0036073 -0.00039761 -7.58388e-05
-0.00039761 0.00122886 8.57539e-05
-7.58388e-05 8.57539e-05 0.0010222
0.000785013 0.000129498 7.40704e-06
0.000129498 0.000512299 6.31774e-06
7.40704e-06 6.31774e-06 0.000328564
-5.26443e-05 6.73565e-06 -1.51364e-05
6.73565e-06 9.59688e-05 1.99377e-06
-1.51364e-05 1.99377e-06 -4.9608e-05
0.00129377 -0.000262288 1.63141e-05
-0.000262288 0.000841225 -1.16902e-05
1.63141e-05 -1.16902e-05 0.000571477
0.00112768 -7.89649e-05 9.19628e-07
-7.89649e-05 0.000400039 3.25295e-06
9.19628e-07 3.25295e-06 0.000310499
-0.000297822 -2.79682e-05 5.20577e-06
-2.79682e-05 -0.00022118 1.06329e-05
5.20577e-06 1.06329e-05 -0.0003233
0.000178737 -0.000167538 -1.24001e-06
-0.000167538 6.94429e-05 -4.9418e-07
-1.24001e-06 -4.9418e-07 -9.32266e-05
0.00138702 -0.000287066 2.52759e-05
-0.000287066 0.000639591 -1.62858e-05
2.52759e-05 -1.62858e-05 0.000356934
0.00217643 -0.000186654 -5.49661e-06
-0.000186654 0.000915718 4.6163e-06
-5.49661e-06 4.6163e-06 0.000801262
0.0018357 -0.000324378 2.29846e-06
-0.000324378 0.000744462 -1.55527e-07
2.29846e-06 -1.55527e-07 0.000509114
0.00126411 -0.000302493 9.64233e-06
-0.000302493 0.000455304 1.73084e-06
9.64233e-06 1.73084e-06 7.13437e-05
0.000122799 -0.000125821 -2.43958e-06
-0.000125821 -0.00028196 7.51412e-07
-2.43958e-06 7.51412e-07 -0.000423529
0.00138915 -0.000289501 -3.4995e-07
-0.000289501 0.000347471 1.29961e-06
-3.4995e-07 1.29961e-06 9.9525e-05
0.00191025 -0.000392306 5.33962e-07
-0.000392306 0.000557018 2.54024e-06
5.33962e-07 2.54024e-06 0.000227966
0.00173591 -0.000390385 -2.95112e-06
-0.000390385 0.00033566 3.02291e-06
-2.95112e-06 3.02291e-06 5.81453e-05
0.000732323 -0.000233137 2.85466e-07
-0.000233137 -8.98112e-05 5.35501e-06
2.85466e-07 5.35501e-06 -0.000310841
0.001307 -0.000300359 -2.81226e-06
-0.000300359 0.000200054 1.8077e-06
-2.81226e-06 1.8077e-06 -5.14315e-05
0.00106918 -0.000244654 -7.8023e-06
-0.000244654 0.000168536 2.84003e-06
-7.8023e-06 2.84003e-06 -6.52229e-05
0.00173027 -0.000283403 5.1841e-06
-0.000283403 0.000607347 -1.72163e-06
5.1841e-06 -1.72163e-06 0.000400759
0.00136783 -0.0002569 2.61764e-06
-0.0002569 0.000369067 -2.83707e-06
2.61764e-06 -2.83707e-06 0.000168227
8.93792e-05 -5.51548e-05 1.53092e-06
-5.51548e-05 -0.000260157 2.63264e-07
1.53092e-06 2.63264e-07 -0.000422612
0.000767559 -0.000169728 1.68873e-06
-0.000169728 0.000130024 -9.16834e-07
1.68873e-06 -9.16834e-07 -6.30503e-05
0.0010716 -0.000215528 5.68386e-06
-0.000215528 0.000235648 -4.34982e-06
5.68386e-06 -4.34982e-06 3.00622e-05
0.000587811 2.91654e-05 1.56244e-06
2.91654e-05 2.3046e-05 1.6496e-06
1.56244e-06 1.6496e-06 -8.78885e-05
0.000881079 -8.48765e-05 -3.59631e-07
-8.48765e-05 0.000210864 4.68126e-07
-3.59631e-07 4.68126e-07 6.99144e-05
0.00107004 -0.000191672 -8.46818e-07
-0.000191672 0.000335105 -4.85577e-07
-8.46818e-07 -4.85577e-07 0.000159364
0.000601083 2.60006e-05 -1.0883e-06
2.60006e-05 1.95406e-06 2.21605e-06
-1.0883e-06 2.21605e-06 -5.98736e-05
0.000720835 -6.23216e-06 -6.77361e-07
-6.23216e-06 8.97427e-05 -2.62562e-07
-6.77361e-07 -2.62562e-07 -3.39543e-06
0.000620031 -2.69798e-05 -1.4216e-07
-2.69798e-05 5.24916e-05 -2.1941e-07
-1.4216e-07 -2.1941e-07 -6.38844e-05
0.000764523 -3.01192e-05 4.54494e-07
-3.01192e-05 0.000116756 -1.01341e-06
4.54494e-07 -1.01341e-06 2.93052e-05
0.00065055 1.3092e-05 -2.82329e-07
1.3092e-05 2.50663e-05 -1.26416e-07
-2.82329e-07 -1.26416e-07 -3.01111e-05
0.000561303 5.1823e-05 -6.93594e-07
5.1823e-05 -2.95314e-05 4.3264e-06
-6.93594e-07 4.3264e-06 -5.13192e-05
0.000667099 3.02971e-06 1.90341e-06
3.02971e-06 2.99042e-05 -1.82347e-06
1.90341e-06 -1.82347e-06 -2.09744e-05
0.00058231 4.45021e-05 -8.75766e-08
4.45021e-05 -2.63707e-05 -2.81125e-08
-8.75766e-08 -2.81125e-08 -4.47623e-05
0.00226413 7.78221e-05 -2.39242e-05
7.78221e-05 0.000977169 3.79042e-06
-2.39242e-05 3.79042e-06 0.000986687
0.000569134 3.52913e-05 9.92445e-07
3.52913e-05 -4.09293e-05 -3.92847e-06
9.92445e-07 -3.92847e-06 -5.70179e-05
0.00153094 5.4765e-05 1.05842e-05
5.4765e-05 0.000536522 -1.01845e-06
1.05842e-05 -1.01845e-06 0.000544565
0.00232528 5.62389e-05 1.62184e-05
5.62389e-05 0.00100121 -4.41434e-06
1.62184e-05 -4.41434e-06 0.00101412
0.000705553 5.91258e-05 7.44003e-08
5.91258e-05 7.88775e-05 -9.28099e-07
7.44003e-08 -9.28099e-07 -1.94217e-05
0.00064465 1.8635e-05 -4.64896e-07
1.8635e-05 1.70654e-05 -2.31051e-06
-4.64896e-07 -2.31051e-06 -4.04171e-05
0.000581644 3.59914e-05 -1.1152e-06
3.59914e-05 1.37373e-05 -1.01024e-06
-1.1152e-06 -1.01024e-06 -8.62559e-05
0.000585036 -2.14118e-05 3.60001e-07
-2.14118e-05 -3.63056e-05 -4.22558e-06
3.60001e-07 -4.22558e-06 -5.10599e-05
0.000469612 1.17228e-05 -1.2523e-06
1.17228e-05 -8.34738e-05 -1.10849e-06
-1.2523e-06 -1.10849e-06 -0.000137347
0.000791268 3.64469e-05 -2.79881e-08
3.64469e-05 0.000136835 -3.53385e-07
-2.79881e-08 -3.53385e-07 4.38052e-05
0.00224438 -3.78624e-05 -1.49199e-05
-3.78624e-05 0.000945494 -4.69953e-06
-1.49199e-05 -4.69953e-06 0.000961736
0.000590044 -1.49007e-05 -2.19719e-07
-1.49007e-05 -3.59851e-05 -5.83376e-08
-2.19719e-07 -5.83376e-08 -4.72648e-05
0.000286888 -3.38806e-07 -6.58157e-07
-3.38806e-07 -0.000189438 1.04489e-06
-6.58157e-07 1.04489e-06 -0.000239849
0.00214634 -2.3246e-05 -3.72529e-06
-2.3246e-05 0.000884935 8.98431e-08
-3.72529e-06 8.98431e-08 0.000903126
0.000594572 -9.29753e-06 -2.49809e-07
-9.29753e-06 -3.45754e-05 3.565e-06
-2.49809e-07 3.565e-06 -4.32216e-05
0.002079 -8.90275e-06 6.09062e-06
-8.90275e-06 0.000843913 4.72167e-06
6.09062e-06 4.72167e-06 0.000863249
0.00164548 -4.18948e-05 -7.62144e-06
-4.18948e-05 -0.000135874 1.78121e-05
-7.62144e-06 1.78121e-05 -3.29427e-05
0.00100809 -1.46401e-05 2.05878e-06
-1.46401e-05 0.000397292 -2.33768e-06
2.05878e-06 -2.33768e-06 0.000253656
0.00166504 -9.70942e-05 9.8131e-05
-9.70942e-05 0.00043639 -2.18876e-05
9.8131e-05 -2.18876e-05 -0.000868649
0.00058407 1.23082e-05 4.73586e-07
1.23082e-05 -1.03599e-05 -4.08712e-07
4.73586e-07 -4.08712e-07 -0.000111262
0.000885074 3.98973e-05 -3.46467e-07
3.98973e-05 0.000168461 -1.43074e-07
-3.46467e-07 -1.43074e-07 5.69065e-05
0.000810974 8.37945e-05 3.10321e-07
8.37945e-05 0.000145419 3.9828e-08
3.10321e-07 3.9828e-08 3.24125e-05
0.000624019 3.62375e-05 2.14817e-07
3.62375e-05 1.67413e-05 1.5514e-07
2.14817e-07 1.5514e-07 -8.76619e-05
0.000743226 5.41753e-05 4.92715e-08
5.41753e-05 0.000105007 4.47128e-07
4.92715e-08 4.47128e-07 -1.60878e-05
0.000725531 4.64615e-05 6.41368e-07
4.64615e-05 8.59403e-05 8.552e-09
6.41368e-07 8.552e-09 -2.82495e-05
0.000719886 0.00014725 2.10538e-06
0.00014725 0.000110039 3.58535e-06
2.10538e-06 3.58535e-06 -3.07392e-05
-0.000166271 2.15575e-05 5.25897e-05
2.15575e-05 3.64946e-05 0.000142529
5.25897e-05 0.000142529 -0.00147148
0.00254264 -4.55791e-05 -8.21108e-06
-4.55791e-05 0.000539514 4.74906e-05
-8.21108e-06 4.74906e-05 -0.000300883
0.00289568 -0.000143326 2.22177e-05
-0.000143326 0.0020012 -6.41894e-05
2.22177e-05 -6.41894e-05 0.000840802
0.00376428 -0.000128525 -1.81549e-05
-0.000128525 -0.00386346 4.41764e-05
-1.81549e-05 4.41764e-05 -0.00122167
0.00329421 -0.00106051 -7.28212e-05
-0.00106051 0.00112873 5.8642e-05
-7.28212e-05 5.8642e-05 0.000173863
-0.00181865 -0.00117608 1.96886e-06
-0.00117608 -0.000428097 7.41033e-05
1.96886e-06 7.41033e-05 -0.00410397
0.00788813 0.00149497 6.99009e-05
0.00149497 0.00434468 -4.05309e-05
6.99009e-05 -4.05309e-05 0.00250449
0.00370584 -0.000974794 -2.29208e-05
-0.000974794 0.00100021 4.26897e-06
-2.29208e-05 4.26897e-06 0.000351204
-0.000139767 -0.000445257 3.05225e-05
-0.000445257 0.00123442 1.88778e-05
3.05225e-05 1.88778e-05 -0.00292265
0.0044034 4.78172e-05 -1.3925e-06
4.78172e-05 0.00240752 -7.73364e-06
-1.3925e-06 -7.73364e-06 0.00130629
0.00821055 -0.00103894 -3.03358e-05
-0.00103894 0.00101689 -3.69406e-05
-3.03358e-05 -3.69406e-05 0.00218836
-0.0003659 1.48223e-05 -0.00013275
1.48223e-05 -0.00106611 6.41295e-05
-0.00013275 6.41295e-05 -0.000910479
0.000801284 0.00108061 -3.08363e-05
0.00108061 0.00158095 -9.28899e-05
-3.08363e-05 -9.28899e-05 -0.0025624
-0.00689785 -0.00158827 4.99457e-05
-0.00158827 -0.00399805 -0.000116974
4.99457e-05 -0.000116974 -0.00584589
0.00428697 -0.00097184 2.39486e-05
-0.00097184 -0.00102016 -0.000215094
2.39486e-05 -0.000215094 0.000347282
0.000808052 1.61088e-05 1.0694e-06
1.61088e-05 0.000152714 1.98457e-07
1.0694e-06 1.98457e-07 3.86814e-05
0.000664967 4.50224e-05 3.98896e-07
4.50224e-05 6.77665e-05 -5.54084e-07
3.98896e-07 -5.54084e-07 -6.71222e-05
0.000819149 6.94658e-06 4.48706e-07
6.94658e-06 0.000187915 -2.09482e-06
4.48706e-07 -2.09482e-06 3.31848e-05
0.000773354 4.65462e-05 -7.07497e-07
4.65462e-05 0.00013051 -3.31478e-06
-7.07497e-07 -3.31478e-06 -2.124e-06
-8.18743e-05 -0.000380571 -2.99696e-06
-0.000380571 -0.000743288 2.64742e-05
-2.99696e-06 2.64742e-05 -0.000809645
0.00153624 -6.31113e-05 -1.17528e-05
-6.31113e-05 0.000885258 -2.65402e-05
-1.17528e-05 -2.65402e-05 0.000774001
0.000638432 2.59544e-05 -1.84309e-06
2.59544e-05 3.95491e-05 -2.47783e-06
-1.84309e-06 -2.47783e-06 -8.35789e-05
0.000704756 0.000116431 -1.32187e-06
0.000116431 0.000169329 3.13986e-06
-1.32187e-06 3.13986e-06 6.73972e-06
0.00247116 -5.91967e-05 1.30821e-05
-5.91967e-05 0.00128658 -2.34535e-05
1.30821e-05 -2.34535e-05 0.00107368
0.000841321 5.57719e-05 3.33502e-07
5.57719e-05 0.000183718 2.57982e-06
3.33502e-07 2.57982e-06 6.18361e-05
0.00069848 8.54882e-05 -2.03329e-06
8.54882e-05 0.000303444 -2.00692e-06
-2.03329e-06 -2.00692e-06 8.49895e-05
-8.03429e-05 2.91523e-05 4.12894e-05
2.91523e-05 9.5053e-05 -1.53136e-05
4.12894e-05 -1.53136e-05 -0.000396228
0.000432279 3.69665e-06 3.10673e-05
3.69665e-06 0.000280633 -1.14379e-07
3.10673e-05 -1.14379e-07 0.000181176
0.000451896 0.00012554 -1.77446e-07
0.00012554 0.000117335 -5.82054e-06
-1.77446e-07 -5.82054e-06 -3.65564e-05
9.92099e-05 -9.32556e-05 -2.82404e-05
-9.32556e-05 0.00062913 -4.1825e-05
-2.82404e-05 -4.1825e-05 -0.000511484
0.00365843 0.000113943 1.96201e-05
0.000113943 0.00197819 2.13027e-05
1.96201e-05 2.13027e-05 0.00178979
0.000807153 -1.22594e-05 4.88221e-06
-1.22594e-05 0.000622471 8.69875e-06
4.88221e-06 8.69875e-06 5.45226e-05
0.00134886 -3.42834e-05 -7.23178e-08
-3.42834e-05 0.000163519 3.62735e-07
-7.23178e-08 3.62735e-07 -0.000133046
0.000410923 -2.62173e-05 -7.05398e-07
-2.62173e-05 0.000330097 -1.34114e-05
-7.05398e-07 -1.34114e-05 -8.46113e-05
-0.000259066 8.53294e-05 -2.71598e-07
8.53294e-05 1.15654e-06 6.78637e-06
-2.71598e-07 6.78637e-06 -0.000174038
-0.000641095 0.000259437 4.21845e-05
0.000259437 -0.000730739 4.0567e-05
4.21845e-05 4.0567e-05 -0.000911934
0.00140319 -2.9849e-05 1.52546e-05
-2.9849e-05 -0.000311625 -2.9506e-06
1.52546e-05 -2.9506e-06 -0.000107091
0.00376481 -0.00091326 0.000117997
-0.00091326 0.00366161 -0.000126506
0.000117997 -0.000126506 -0.001261
0.00779726 0.00155481 -6.36723e-05
0.00155481 0.00377234 3.92788e-05
-6.36723e-05 3.92788e-05 0.00217913
0.00302375 -9.09363e-05 -2.69375e-05
-9.09363e-05 0.0019771 6.48142e-05
-2.69375e-05 6.48142e-05 0.000840296
0.00516399 0.00135512 -3.0429e-05
0.00135512 3.79316e-05 -4.06459e-05
-3.0429e-05 -4.06459e-05 0.00041861
-0.000115015 0.000131456 -1.54412e-05
0.000131456 0.000381361 7.44956e-06
-1.54412e-05 7.44956e-06 -9.64009e-05
0.0010865 1.83248e-05 -2.56371e-06
1.83248e-05 0.000407007 2.47463e-06
-2.56371e-06 2.47463e-06 0.000277768
0.00352849 -0.00031104 7.30192e-05
-0.00031104 0.00108962 -8.91099e-06
7.30192e-05 -8.91099e-06 -0.0011961
0.00024398 -0.000156322 3.41684e-06
-0.000156322 -0.000559695 2.41649e-05
3.41684e-06 2.41649e-05 -0.000523363
-0.00136606 0.00183179 0.00011099
0.00183179 -0.000146787 -4.90974e-05
0.00011099 -4.90974e-05 0.00113019
0.00639671 0.000905043 -5.1624e-05
0.000905043 0.000312133 0.00010461
-5.1624e-05 0.00010461 0.000224395
-0.00259475 -0.000777588 6.94697e-05
-0.000777588 0.000291391 -6.43535e-05
6.94697e-05 -6.43535e-05 -0.00448043
0.000927243 -9.96469e-05 4.43665e-05
-9.96469e-05 0.00053683 -9.86422e-06
4.43665e-05 -9.86422e-06 0.000270561
0.000734281 -0.000123127 6.97482e-05
-0.000123127 -0.000190561 -2.84028e-05
6.97482e-05 -2.84028e-05 -0.00149055
-0.00181186 0.00013999 -0.000215485
0.00013999 0.00151242 -1.0908e-05
-0.000215485 -1.0908e-05 0.000193216
0.00271177 0.00167612 -0.000141378
0.00167612 0.000136504 0.000224621
-0.000141378 0.000224621 0.000518893
0.00793825 -0.00065636 1.39198e-05
-0.00065636 0.00359924 -1.14112e-05
1.39198e-05 -1.14112e-05 0.000430568
0.00331812 -0.000435448 -6.30702e-05
-0.000435448 0.000942738 5.4581e-05
-6.30702e-05 5.4581e-05 0.000638514
-0.000779368 4.76908e-05 2.96878e-05
4.76908e-05 -0.000323231 1.32577e-05
2.96878e-05 1.32577e-05 -0.000486172
5.92365e-05 -0.000167153 -1.08852e-05
-0.000167153 0.000201695 1.41715e-06
-1.08852e-05 1.41715e-06 -7.28242e-05
-0.000112221 -0.000209075 1.81687e-05
-0.000209075 -0.000177252 -5.62491e-06
1.81687e-05 -5.62491e-06 -0.000336953
-0.000689633 -0.000140967 -4.73394e-06
-0.000140967 -0.000388314 7.01991e-06
-4.73394e-06 7.01991e-06 -0.000539302
-0.000707688 -0.000150428 8.38133e-07
-0.000150428 -0.000459562 -4.5156e-06
8.38133e-07 -4.5156e-06 -0.000743788
0.0031034 -0.000527403 2.77228e-05
-0.000527403 0.00120726 -3.58646e-06
2.77228e-05 -3.58646e-06 0.000919988
0.00374259 -0.000510226 -8.1786e-06
-0.000510226 0.00174144 3.62234e-06
-8.1786e-06 3.62234e-06 0.00149181
0.00208282 -0.000373539 4.42545e-06
-0.000373539 0.000841962 9.72462e-07
4.42545e-06 9.72462e-07 0.000480896
0.00115353 -0.000353333 8.30131e-06
-0.000353333 0.000167811 -4.21355e-06
8.30131e-06 -4.21355e-06 -0.000206296
0.00186104 -0.000331615 -7.19225e-06
-0.000331615 0.000576087 1.76593e-06
-7.19225e-06 1.76593e-06 0.000314621
0.00222711 -0.000427669 1.38221e-06
-0.000427669 0.000696292 4.43879e-07
1.38221e-06 4.43879e-07 0.000361659
0.00193132 -0.00042076 1.13945e-06
-0.00042076 0.000474743 -5.04054e-06
1.13945e-06 -5.04054e-06 0.000140141
0.00185155 -0.000385133 -5.2482e-07
-0.000385133 0.000334234 -2.71621e-06
-5.2482e-07 -2.71621e-06 9.02891e-05
0.0019485 -0.000401672 -2.85548e-06
-0.000401672 0.000449396 3.92617e-06
-2.85548e-06 3.92617e-06 0.00018638
0.00171727 -0.000391384 -8.69174e-07
-0.000391384 0.00032764 -3.45157e-07
-8.69174e-07 -3.45157e-07 4.47678e-05
0.00043496 -0.000192707 5.31137e-06
-0.000192707 -0.000244537 1.55505e-06
5.31137e-06 1.55505e-06 -0.00044057
0.00112403 -0.000261894 1.59483e-06
-0.000261894 0.000131207 7.33232e-08
1.59483e-06 7.33232e-08 -8.64013e-05
0.0013216 -0.000303883 -5.65111e-07
-0.000303883 0.000209309 -3.02564e-06
-5.65111e-07 -3.02564e-06 -4.71457e-05
0.00121826 -0.000224457 2.92256e-06
-0.000224457 0.000339238 9.12638e-07
2.92256e-06 9.12638e-07 0.000137757
0.00126941 -0.000239995 -1.94971e-06
-0.000239995 0.000336735 -1.66801e-06
-1.94971e-06 -1.66801e-06 0.00013668
0.000729484 -0.000197373 4.31307e-06
-0.000197373 4.08345e-06 -4.87611e-06
4.31307e-06 -4.87611e-06 -0.000181739
0.000549851 -5.04744e-05 2.40598e-06
-5.04744e-05 9.45269e-06 1.41071e-06
2.40598e-06 1.41071e-06 -0.000136923
0.00052533 -9.21821e-05 -4.13997e-07
-9.21821e-05 3.39259e-06 9.75604e-07
-4.13997e-07 9.75604e-07 -0.000164363
0.00136763 -0.000227216 2.75324e-06
-0.000227216 0.000481143 -3.34586e-06
2.75324e-06 -3.34586e-06 0.000281748
0.000542925 3.7966e-05 -7.03735e-09
3.7966e-05 -2.13393e-05 2.88585e-06
-7.03735e-09 2.88585e-06 -9.70742e-05
0.000732656 -1.79623e-05 -4.00268e-07
-1.79623e-05 0.000111482 -5.69075e-07
-4.00268e-07 -5.69075e-07 -6.93446e-06
0.00118606 -0.00011633 1.93565e-07
-0.00011633 0.000392184 -3.84218e-07
1.93565e-07 -3.84218e-07 0.000244418
0.000520481 6.17364e-05 -1.08635e-06
6.17364e-05 -4.21678e-05 6.19458e-06
-1.08635e-06 6.19458e-06 -6.84669e-05
0.000642353 2.28616e-05 -2.60887e-07
2.28616e-05 2.43844e-05 -2.85789e-07
-2.60887e-07 -2.85789e-07 -3.7396e-05
0.0008064 -2.81051e-05 -3.12204e-07
-2.81051e-05 0.00014144 -1.42837e-06
-3.12204e-07 -1.42837e-06 4.47503e-05
0.000663585 1.14534e-05 1.47829e-06
1.14534e-05 3.1733e-05 -2.07486e-06
1.47829e-06 -2.07486e-06 -2.33229e-05
0.00056519 5.43405e-05 1.96987e-08
5.43405e-05 -2.61144e-05 -1.83809e-08
1.96987e-08 -1.83809e-08 -4.84918e-05
0.00231105 9.1733e-05 -2.6364e-05
9.1733e-05 0.00101346 3.43268e-06
-2.6364e-05 3.43268e-06 0.00101977
0.000580471 4.62343e-05 4.32534e-07
4.62343e-05 -2.72518e-05 -4.11906e-06
4.32534e-07 -4.11906e-06 -4.5899e-05
0.00229208 8.02314e-05 2.49604e-06
8.02314e-05 0.000994569 2.10258e-07
2.49604e-06 2.10258e-07 0.00100359
0.00228669 6.8602e-05 1.96155e-05
6.8602e-05 0.000984622 -3.99206e-06
1.96155e-05 -3.99206e-06 0.00099589
0.000722169 4.77181e-05 5.48547e-08
4.77181e-05 9.4557e-05 -5.89322e-07
5.48547e-08 -5.89322e-07 -2.31265e-05
0.000771854 7.7505e-05 7.0539e-08
7.7505e-05 0.000127219 -1.26894e-06
7.0539e-08 -1.26894e-06 1.67856e-05
0.000654489 1.04285e-05 -5.44152e-07
1.04285e-05 2.21631e-05 -2.53935e-06
-5.44152e-07 -2.53935e-06 -4.03906e-05
0.000721828 7.05597e-05 -1.13497e-07
7.05597e-05 8.80747e-05 2.31403e-08
-1.13497e-07 2.31403e-08 -1.04089e-05
0.000574515 -2.76964e-05 1.57669e-07
-2.76964e-05 -3.79434e-05 -4.71379e-06
1.57669e-07 -4.71379e-06 -5.66471e-05
0.000643777 1.85128e-05 -9.30814e-08
1.85128e-05 1.70645e-05 -8.77617e-08
-9.30814e-08 -8.77617e-08 -4.03849e-05
0.000661748 3.81818e-05 -1.5526e-06
3.81818e-05 5.00286e-05 3.53568e-07
-1.5526e-06 3.53568e-07 -4.15882e-05
0.00234138 -5.15902e-05 -1.95718e-05
-5.15902e-05 0.00100616 -4.62051e-06
-1.95718e-05 -4.62051e-06 0.0010202
0.000586259 -2.12918e-05 -2.29616e-07
-2.12918e-05 -3.54065e-05 -5.96443e-08
-2.29616e-07 -5.96443e-08 -5.00453e-05
0.000592419 2.17162e-05 -8.98635e-07
2.17162e-05 -1.16639e-05 9.92333e-07
-8.98635e-07 9.92333e-07 -6.43259e-05
0.00222127 -3.648e-05 -3.83366e-06
-3.648e-05 0.00093139 1.37212e-07
-3.83366e-06 1.37212e-07 0.000947984
0.000590232 -1.47655e-05 -2.9775e-07
-1.47655e-05 -3.60539e-05 3.72729e-06
-2.9775e-07 3.72729e-06 -4.71568e-05
0.00212668 -2.1902e-05 1.02267e-05
-2.1902e-05 0.000872968 4.68542e-06
1.02267e-05 4.68542e-06 0.000891425
0.000868763 -8.0776e-05 7.08103e-06
-8.0776e-05 0.000102408 1.4775e-05
7.08103e-06 1.4775e-05 6.19788e-05
0.00155417 -6.46116e-05 -1.32615e-05
-6.46116e-05 -0.000218952 1.989e-05
-1.32615e-05 1.989e-05 -7.01971e-05
0.00108816 -2.86478e-05 4.57635e-06
-2.86478e-05 0.000352609 -9.73077e-06
4.57635e-06 -9.73077e-06 0.000279333
0.000735569 4.82502e-05 -1.92223e-07
4.82502e-05 9.40065e-05 2.63e-08
-1.92223e-07 2.63e-08 -1.89579e-05
0.00069896 2.65435e-05 6.60541e-07
2.65435e-05 6.13005e-05 -6.88932e-08
6.60541e-07 -6.88932e-08 -4.79488e-05
0.000466756 2.62924e-05 -1.80528e-06
2.62924e-05 -7.29894e-05 -2.79824e-06
-1.80528e-06 -2.79824e-06 -0.000181112
0.00048716 2.29897e-06 3.47438e-08
2.29897e-06 -5.75991e-05 -4.5467e-07
3.47438e-08 -4.5467e-07 -0.000166844
0.00108751 0.000116676 -3.74888e-07
0.000116676 0.000307547 -1.28727e-06
-3.74888e-07 -1.28727e-06 0.00017664
0.000662261 1.77302e-05 -9.66325e-07
1.77302e-05 3.38708e-05 2.77241e-07
-9.66325e-07 2.77241e-07 -6.69461e-05
0.000678617 4.25514e-05 -9.03251e-07
4.25514e-05 5.90011e-05 -2.18767e-06
-9.03251e-07 -2.18767e-06 -5.55548e-05
0.000774769 5.30034e-05 -9.01206e-08
5.30034e-05 0.000116191 -1.24064e-07
-9.01206e-08 -1.24064e-07 -3.61718e-07
0.000922233 8.57872e-05 3.88763e-07
8.57872e-05 0.000209263 3.08442e-07
3.88763e-07 3.08442e-07 8.28256e-05
0.00101649 5.81499e-05 9.09337e-07
5.81499e-05 0.00027419 -1.77231e-07
9.09337e-07 -1.77231e-07 0.000148957
0.00259123 0.00016004 0.000135349
0.00016004 0.00132342 0.000192906
0.000135349 0.000192906 -0.00103165
0.000592785 6.55924e-05 9.52218e-06
6.55924e-05 0.000181473 5.31863e-05
9.52218e-06 5.31863e-05 -0.00133822
0.0026222 -3.46377e-05 -1.35997e-05
-3.46377e-05 0.000867883 -6.96491e-06
-1.35997e-05 -6.96491e-06 0.000202659
0.00836351 -0.000912499 -8.06129e-05
-0.000912499 0.00117119 -8.69814e-05
-8.06129e-05 -8.69814e-05 0.00246638
-0.0106648 0.000669471 -3.61386e-05
0.000669471 -0.00355065 0.0002169
-3.61386e-05 0.0002169 -0.00568703
0.0055115 -0.00102103 -0.000114347
-0.00102103 0.00204954 5.52079e-05
-0.000114347 5.52079e-05 0.00140987
0.0102077 -0.000753503 -5.2284e-05
-0.000753503 0.00432202 -1.41698e-05
-5.2284e-05 -1.41698e-05 0.000984548
0.00225967 -0.00011441 -9.34162e-06
-0.00011441 0.000354108 5.37991e-05
-9.34162e-06 5.37991e-05 4.02385e-05
0.0113199 -0.000129524 1.29508e-05
-0.000129524 0.0055403 -1.56691e-05
1.29508e-05 -1.56691e-05 0.00153098
0.00195273 -0.000967882 4.80504e-05
-0.000967882 0.000245241 5.6407e-05
4.80504e-05 5.6407e-05 -0.00103121
0.00350543 -0.00115396 -0.00011639
-0.00115396 -0.00162568 -0.00025752
-0.00011639 -0.00025752 -0.000336071
0.00338411 0.000114692 -0.000103936
0.000114692 0.000743042 2.96582e-05
-0.000103936 2.96582e-05 0.000231803
0.00936979 0.000779196 -1.87458e-05
0.000779196 0.00430458 1.90313e-05
-1.87458e-05 1.90313e-05 0.0011039
0.0104773 -0.00177386 -3.51287e-05
-0.00177386 0.00336754 -0.000209621
-3.51287e-05 -0.000209621 0.00323663
0.00646839 -0.00183802 5.74745e-05
-0.00183802 0.00119103 3.50821e-06
5.74745e-05 3.50821e-06 0.00262591
0.000141265 5.54642e-05 1.07805e-06
5.54642e-05 -0.000162846 -3.62564e-06
1.07805e-06 -3.62564e-06 -0.00027548
0.000985183 1.36055e-05 5.6016e-07
1.36055e-05 0.000266232 2.41413e-06
5.6016e-07 2.41413e-06 0.000137813
0.000693173 5.07758e-05 -5.04216e-07
5.07758e-05 8.57233e-05 -4.14841e-06
-5.04216e-07 -4.14841e-06 -5.13273e-05
0.00123062 -2.65766e-05 -4.2724e-05
-2.65766e-05 0.000730021 2.14218e-05
-4.2724e-05 2.14218e-05 0.000102668
0.00100487 -4.0605e-05 -7.13656e-05
-4.0605e-05 0.000624188 -2.84928e-05
-7.13656e-05 -2.84928e-05 0.000541202
0.000739875 2.26663e-06 -2.12525e-06
2.26663e-06 0.000127084 4.50111e-06
-2.12525e-06 4.50111e-06 3.15846e-06
-0.000908929 7.78891e-05 -3.4762e-06
7.78891e-05 -0.000575092 -4.4216e-06
-3.4762e-06 -4.4216e-06 -0.000818131
0.000552015 7.60616e-05 1.83587e-07
7.60616e-05 0.000176153 -2.97742e-06
1.83587e-07 -2.97742e-06 1.13187e-05
0.000638852 9.56528e-05 -3.65145e-06
9.56528e-05 0.000363224 3.62654e-06
-3.65145e-06 3.62654e-06 0.000146809
-0.000326725 -4.1823e-05 0.000116216
-4.1823e-05 0.00063609 -3.96223e-05
0.000116216 -3.96223e-05 -0.000516221
-0.00238227 -2.93444e-06 -2.2235e-05
-2.93444e-06 -0.00130901 1.1885e-05
-2.2235e-05 1.1885e-05 -0.00148
0.0023603 0.000258393 -2.86223e-05
0.000258393 0.00139116 -3.9836e-05
-2.86223e-05 -3.9836e-05 0.000633154
0.00185732 4.97049e-06 7.17529e-05
4.97049e-06 0.000902138 1.06766e-05
7.17529e-05 1.06766e-05 -0.000586884
0.000616448 -1.53332e-05 1.64311e-05
-1.53332e-05 0.000485209 1.00431e-05
1.64311e-05 1.00431e-05 -6.37295e-06
0.00179559 -5.23292e-05 1.10353e-07
-5.23292e-05 0.000408374 2.587e-07
1.10353e-07 2.587e-07 0.00030902
-0.00256214 0.000174148 5.96441e-05
0.000174148 -0.000885592 7.49105e-06
5.96441e-05 7.49105e-06 -0.00149457
0.0034364 0.000110476 -2.18036e-05
0.000110476 0.0012101 -3.10283e-06
-2.18036e-05 -3.10283e-06 0.00068489
0.00114126 -6.63688e-06 -9.38761e-07
-6.63688e-06 0.000376427 8.83868e-06
-9.38761e-07 8.83868e-06 0.000307608
0.015766 -0.00126485 0.000116768
-0.00126485 0.00689115 -2.72368e-05
0.000116768 -2.72368e-05 0.00312638
0.00968167 0.0013289 -7.09997e-05
0.0013289 0.00314166 -4.17666e-05
-7.09997e-05 -4.17666e-05 0.00256442
0.00358592 -0.000349684 -6.3262e-05
-0.000349684 0.00125853 0.000113843
-6.3262e-05 0.000113843 -0.00129646
-0.0073623 0.00204119 0.000515942
0.00204119 -0.0036029 -0.000392056
0.000515942 -0.000392056 -0.0018386
0.000977043 -0.000128866 2.93407e-06
-0.000128866 0.000705209 -2.54756e-06
2.93407e-06 -2.54756e-06 0.000370337
0.00112828 -0.000100804 -5.91143e-06
-0.000100804 5.61507e-05 8.46429e-06
-5.91143e-06 8.46429e-06 -0.00130154
-0.00272692 0.000196328 -0.000296242
0.000196328 0.00153471 0.000130492
-0.000296242 0.000130492 0.000280852
0.00185048 -0.000312846 -2.51432e-05
-0.000312846 0.000256644 3.44599e-05
-2.51432e-05 3.44599e-05 -2.71371e-05
0.0101681 0.00180558 6.85185e-05
0.00180558 0.00322533 6.66154e-05
6.85185e-05 6.66154e-05 0.00368403
0.00743212 -0.00120532 7.33547e-05
-0.00120532 0.00311566 -4.87205e-05
7.33547e-05 -4.87205e-05 0.000190039
0.000834515 -0.000239989 1.02023e-05
-0.000239989 0.000129343 2.47264e-05
1.02023e-05 2.47264e-05 0.000177859
-0.00361817 -0.000256498 2.88099e-05
-0.000256498 0.00115084 -1.61502e-05
2.88099e-05 -1.61502e-05 -0.000739994
0.00846836 0.00163986 -0.000311961
0.00163986 0.00405053 0.000145414
-0.000311961 0.000145414 0.00396296
0.00236344 -0.000657471 -0.000165398
-0.000657471 -0.000174528 0.000116621
-0.000165398 0.000116621 -0.0031555
0.00221704 -0.000819177 7.86585e-05
-0.000819177 0.000318938 -2.98693e-05
7.86585e-05 -2.98693e-05 4.77044e-05
-0.000473895 -0.000144394 -3.15833e-05
-0.000144394 -0.000102724 1.34528e-05
-3.15833e-05 1.34528e-05 -0.000357367
0.000429475 -0.000235012 -1.39293e-06
-0.000235012 0.000147821 4.18205e-06
-1.39293e-06 4.18205e-06 -7.4806e-05
0.00394612 -0.000563852 3.19576e-05
-0.000563852 0.00156604 3.99015e-06
3.19576e-05 3.99015e-06 0.00145455
-0.00265916 -3.36561e-05 -4.89856e-06
-3.36561e-05 -0.00147928 1.00286e-05
-4.89856e-06 1.00286e-05 -0.001763
0.000763725 -0.000311401 2.93234e-06
-0.000311401 1.72539e-05 7.50847e-07
2.93234e-06 7.50847e-07 -0.000276029
0.00222175 -0.000513815 4.95832e-06
-0.000513815 0.000487354 4.46977e-07
4.95832e-06 4.46977e-07 0.000246069
0.00271297 -0.000424501 -1.08436e-05
-0.000424501 0.00112651 2.82079e-06
-1.08436e-05 2.82079e-06 0.000791509
0.00129256 -0.000359438 -2.14205e-06
-0.000359438 0.000216596 -3.31627e-06
-2.14205e-06 -3.31627e-06 -0.000134506
0.0020494 -0.000484866 4.71198e-06
-0.000484866 0.000395385 -4.01782e-06
4.71198e-06 -4.01782e-06 0.000125007
0.00245482 -0.000454195 -4.33073e-06
-0.000454195 0.000788676 -2.42077e-06
-4.33073e-06 -2.42077e-06 0.000449413
0.00154529 -0.000389715 -7.92614e-08
-0.000389715 0.000236419 -2.9648e-06
-7.92614e-08 -2.9648e-06 -8.42267e-05
0.00194199 -0.000407214 -2.00448e-07
-0.000407214 0.000320476 -6.25354e-06
-2.00448e-07 -6.25354e-06 8.33321e-05
0.00169627 -0.000322954 -1.9713e-06
-0.000322954 0.00015603 -3.14614e-06
-1.9713e-06 -3.14614e-06 -3.68795e-05
0.00165404 -0.000375244 2.40304e-06
-0.000375244 0.000216506 -7.92231e-07
2.40304e-06 -7.92231e-07 -2.8734e-05
0.00171405 -0.000374356 1.74121e-06
-0.000374356 0.000258686 -1.95917e-06
1.74121e-06 -1.95917e-06 1.7596e-05
0.00167734 -0.000329196 -1.26976e-06
-0.000329196 0.000346899 3.95736e-06
-1.26976e-06 3.95736e-06 0.000113039
0.00181495 -0.000390752 -1.75082e-06
-0.000390752 0.000388962 2.05965e-07
-1.75082e-06 2.05965e-07 0.000123116
0.00171765 -0.000394718 6.93451e-07
-0.000394718 0.000330048 -3.451e-06
6.93451e-07 -3.451e-06 4.17325e-05
0.00110601 -0.000233274 3.49193e-06
-0.000233274 0.000191697 4.04703e-07
3.49193e-06 4.04703e-07 -9.82641e-06
0.000717023 -0.000213939 -7.71781e-08
-0.000213939 -7.87302e-05 -8.91054e-07
-7.71781e-08 -8.91054e-07 -0.000273599
0.00156337 -0.000295602 5.05266e-06
-0.000295602 0.000379767 -4.50378e-06
5.05266e-06 -4.50378e-06 0.000165319
0.00070204 -0.000150911 -7.89763e-08
-0.000150911 6.20346e-05 -5.78129e-07
-7.89763e-08 -5.78129e-07 -0.000110092
0.000890859 -0.000189895 1.31925e-07
-0.000189895 0.000151888 -2.20591e-07
1.31925e-07 -2.20591e-07 -4.29156e-05
0.000822415 -0.000197623 -2.66598e-06
-0.000197623 7.41716e-05 -8.35058e-07
-2.66598e-06 -8.35058e-07 -0.000119625
0.00051243 3.72696e-05 1.17665e-06
3.72696e-05 -2.96967e-05 4.39877e-06
1.17665e-06 4.39877e-06 -0.000127951
0.000782654 -7.46397e-05 1.0596e-06
-7.46397e-05 0.000151117 6.81414e-07
1.0596e-06 6.81414e-07 -4.06728e-06
0.00100836 -0.000133854 -2.33837e-06
-0.000133854 0.000294637 1.00124e-06
-2.33837e-06 1.00124e-06 0.000120671
0.00135614 0.000100463 -1.36248e-05
0.000100463 0.000466969 4.28987e-06
-1.36248e-05 4.28987e-06 0.0004352
0.000651408 1.54592e-05 -5.0761e-07
1.54592e-05 3.75329e-05 -6.4136e-07
-5.0761e-07 -6.4136e-07 -3.80753e-05
0.000881761 -5.56058e-05 -1.85064e-06
-5.56058e-05 0.000202742 -1.73481e-06
-1.85064e-06 -1.73481e-06 7.67642e-05
0.00074703 4.8062e-05 -2.71116e-05
4.8062e-05 9.77794e-05 3.4633e-06
-2.71116e-05 3.4633e-06 9.70229e-05
0.00098045 7.82861e-05 -8.21688e-06
7.82861e-05 0.000231642 5.10867e-08
-8.21688e-06 5.10867e-08 0.000205364
0.000682864 1.87932e-05 7.92692e-07
1.87932e-05 4.6181e-05 -2.59473e-06
7.92692e-07 -2.59473e-06 -1.55186e-05
0.00057343 5.89316e-05 -4.4757e-07
5.89316e-05 -1.93098e-05 -4.59195e-06
-4.4757e-07 -4.59195e-06 -4.27736e-05
0.00235497 9.39632e-05 2.98846e-06
9.39632e-05 0.00104018 2.66584e-07
2.98846e-06 2.66584e-07 0.00104599
0.00231086 8.21201e-05 2.27601e-05
8.21201e-05 0.00100663 -3.69785e-06
2.27601e-05 -3.69785e-06 0.00101524
0.000697088 4.43262e-05 4.09932e-07
4.43262e-05 6.79312e-05 -2.8945e-07
4.09932e-07 -2.8945e-07 -4.40796e-05
0.000789837 6.30665e-05 1.22893e-07
6.30665e-05 0.000134003 -1.66857e-06
1.22893e-07 -1.66857e-06 2.17296e-05
0.000665889 3.40251e-05 2.63474e-08
3.40251e-05 4.93578e-05 8.73742e-08
2.63474e-08 8.73742e-08 -5.92069e-05
0.000656819 -6.71955e-07 -7.67206e-07
-6.71955e-07 2.42011e-05 -2.70947e-06
-7.67206e-07 -2.70947e-06 -4.2863e-05
0.000732997 5.21085e-05 6.32157e-07
5.21085e-05 9.27888e-05 3.73802e-08
6.32157e-07 3.73802e-08 -8.59698e-06
0.000566363 -3.03234e-05 -5.16216e-07
-3.03234e-05 -3.74918e-05 -5.12403e-06
-5.16216e-07 -5.12403e-06 -6.01012e-05
0.00063947 1.38533e-05 -8.99959e-08
1.38533e-05 1.47221e-05 -8.31819e-08
-8.99959e-08 -8.31819e-08 -4.82801e-05
0.000747903 6.21285e-05 -1.53128e-07
6.21285e-05 0.000118103 1.56086e-06
-1.53128e-07 1.56086e-06 9.09482e-06
0.00247212 -6.57101e-05 -2.55912e-05
-6.57101e-05 0.00108788 -4.45606e-06
-2.55912e-05 -4.45606e-06 0.00109927
0.000568988 -2.75594e-05 -3.70543e-07
-2.75594e-05 -4.1382e-05 -4.07966e-08
-3.70543e-07 -4.07966e-08 -5.99036e-05
0.000629372 1.98241e-05 4.33156e-07
1.98241e-05 9.28854e-06 2.42528e-06
4.33156e-07 2.42528e-06 -4.81476e-05
0.00233663 -5.05881e-05 -3.83729e-06
-5.05881e-05 0.00100288 1.93435e-07
-3.83729e-06 1.93435e-07 0.00101719
0.000577174 -2.11671e-05 -3.69331e-07
-2.11671e-05 -4.05752e-05 4.07336e-06
-3.69331e-07 4.07336e-06 -5.50842e-05
0.0022157 -3.52029e-05 1.47195e-05
-3.52029e-05 0.000927602 4.63868e-06
1.47195e-05 4.63868e-06 0.000944445
0.00383157 2.20446e-05 8.1764e-05
2.20446e-05 0.00148472 2.74695e-05
8.1764e-05 2.74695e-05 0.000504427
0.000786012 -7.62134e-05 -8.89373e-07
-7.62134e-05 0.000109455 4.08828e-06
-8.89373e-07 4.08828e-06 5.30727e-05
0.00140635 -7.40929e-05 -1.50517e-05
-7.40929e-05 -0.000310472 2.53245e-06
-1.50517e-05 2.53245e-06 -0.000113058
0.000727752 0.000103173 -3.64639e-06
0.000103173 7.95479e-05 -1.84205e-07
-3.64639e-06 -1.84205e-07 -4.07359e-05
0.000818949 5.11964e-05 -2.91047e-07
5.11964e-05 0.000138733 4.20266e-07
-2.91047e-07 4.20266e-07 2.89691e-05
0.000579358 1.85352e-05 1.55983e-07
1.85352e-05 -7.6979e-06 4.41207e-07
1.55983e-07 4.41207e-07 -0.000114901
0.00080243 2.4086e-05 -1.37879e-07
2.4086e-05 0.000120129 -8.3105e-08
-1.37879e-07 -8.3105e-08 1.1944e-05
0.000874817 6.61253e-05 -3.93973e-07
6.61253e-05 0.000166 -4.39806e-08
-3.93973e-07 -4.39806e-08 5.19494e-05
0.00090157 9.62387e-05 7.68115e-07
9.62387e-05 0.000196604 7.37829e-07
7.68115e-07 7.37829e-07 7.17919e-05
0.000855079 8.0193e-05 -1.15808e-06
8.0193e-05 0.000159845 -4.81626e-06
-1.15808e-06 -4.81626e-06 2.77169e-05
0.000231298 1.5503e-05 1.90627e-07
1.5503e-05 -0.00019076 -8.72183e-07
1.90627e-07 -8.72183e-07 -0.000308065
0.000819925 0.000106332 -1.07765e-06
0.000106332 0.000150778 -7.96118e-08
-1.07765e-06 -7.96118e-08 2.64541e-05
0.000584739 8.7047e-06 -4.28818e-07
8.7047e-06 -1.76854e-06 -2.61728e-06
-4.28818e-07 -2.61728e-06 -0.000109722
0.000692496 5.26729e-05 -3.88201e-07
5.26729e-05 8.52797e-05 4.72824e-07
-3.88201e-07 4.72824e-07 -3.5879e-05
0.00167602 0.000135412 6.61684e-06
0.000135412 0.000691886 5.59962e-06
6.61684e-06 5.59962e-06 0.000567018
0.000957844 -0.000688854 8.21659e-05
-0.000688854 0.00211371 0.000159636
8.21659e-05 0.000159636 0.000685211
0.00321817 0.000216515 1.89647e-05
0.000216515 0.00155863 6.07431e-05
1.89647e-05 6.07431e-05 -0.00084134
0.00101414 8.31585e-05 -2.10393e-05
8.31585e-05 0.000305617 -3.79112e-05
-2.10393e-05 -3.79112e-05 -0.00125167
0.00842928 -0.00151152 -0.000204847
-0.00151152 0.000973932 -0.000154145
-0.000204847 -0.000154145 0.0022435
0.00508743 -0.000497329 4.22706e-05
-0.000497329 0.00100564 0.000194704
4.22706e-05 0.000194704 -2.52555e-05
0.000681625 -0.000642884 -9.58599e-05
-0.000642884 0.00150813 9.46703e-05
-9.58599e-05 9.46703e-05 -0.00270409
0.00185513 -0.000242125 -2.71455e-05
-0.000242125 0.000425601 8.01398e-05
-2.71455e-05 8.01398e-05 -0.000118368
0.00305011 -0.000134602 1.87201e-05
-0.000134602 0.000652924 4.9457e-05
1.87201e-05 4.9457e-05 0.000326149
-0.000205452 -0.00188321 8.39101e-05
-0.00188321 -0.00117068 0.000100464
8.39101e-05 0.000100464 0.000453211
0.00510579 0.000746049 3.16253e-06
0.000746049 0.00336587 -1.54465e-05
3.16253e-06 -1.54465e-05 -0.000568923
0.00230246 -0.000994597 -3.06084e-05
-0.000994597 -0.00115185 4.00446e-05
-3.06084e-05 4.00446e-05 -0.00125586
0.00110641 0.000328348 5.86287e-07
0.000328348 -0.000196426 3.65015e-05
5.86287e-07 3.65015e-05 -0.000277335
0.00813606 0.000613173 -3.24436e-05
0.000613173 0.00395058 -1.83978e-06
-3.24436e-05 -1.83978e-06 0.000994442
0.00215469 -0.00161311 -0.000132753
-0.00161311 -0.000463857 -0.00014808
-0.000132753 -0.00014808 -0.000133265
0.000853541 0.000276925 5.05848e-06
0.000276925 0.000184677 -1.16284e-05
5.05848e-06 -1.16284e-05 6.02158e-05
0.000679086 8.21049e-05 3.69625e-06
8.21049e-05 0.000138476 -6.00308e-07
3.69625e-06 -6.00308e-07 2.79981e-05
0.000646871 3.48106e-05 -1.27369e-06
3.48106e-05 7.84111e-05 -1.66242e-06
-1.27369e-06 -1.66242e-06 -5.67024e-05
0.0001605 -3.38151e-05 -0.000159278
-3.38151e-05 0.000946241 -4.47564e-05
-0.000159278 -4.47564e-05 -0.000169365
-0.00208795 0.000112436 7.41948e-06
0.000112436 -0.00112954 -1.33245e-05
7.41948e-06 -1.33245e-05 -0.00136268
0.000450196 0.00011222 -1.00856e-06
0.00011222 0.000121913 2.49363e-06
-1.00856e-06 2.49363e-06 -5.35347e-05
0.000562133 0.000266129 9.76958e-06
0.000266129 0.00022115 3.48554e-06
9.76958e-06 3.48554e-06 3.94952e-05
0.000670657 0.000227571 -3.80253e-06
0.000227571 0.000428808 -3.12262e-05
-3.80253e-06 -3.12262e-05 -0.000213559
-0.000148237 0.000414932 2.3673e-05
0.000414932 -0.000494012 2.1555e-06
2.3673e-05 2.1555e-06 -0.000778209
-0.000520474 0.000202137 0.000131489
0.000202137 0.00280658 1.13585e-05
0.000131489 1.13585e-05 0.000833412
0.00196164 -2.56727e-05 -4.9083e-06
-2.56727e-05 0.000971823 1.65639e-05
-4.9083e-06 1.65639e-05 -0.00021798
0.000387924 -2.10436e-05 2.51939e-06
-2.10436e-05 0.000332167 1.3634e-05
2.51939e-06 1.3634e-05 -7.86979e-05
9.75208e-05 -8.28371e-05 -3.28045e-05
-8.28371e-05 0.000358249 5.70793e-06
-3.28045e-05 5.70793e-06 2.58978e-06
0.000582742 -0.000118 -4.60488e-05
-0.000118 -0.000906602 6.25042e-06
-4.60488e-05 6.25042e-06 -0.000707816
0.00167397 -9.00736e-05 -8.18833e-05
-9.00736e-05 0.000296305 2.33784e-05
-8.18833e-05 2.33784e-05 -0.000987995
-0.00151867 -0.00116175 5.05546e-05
-0.00116175 -0.000187275 -8.10509e-05
5.05546e-05 -8.10509e-05 -0.00383213
-0.00228224 0.0013652 0.000124792
0.0013652 -0.00366935 -0.000133902
0.000124792 -0.000133902 -0.00303415
0.0020122 0.00066908 -0.000149326
0.00066908 0.00282807 0.000144527
-0.000149326 0.000144527 0.00206206
0.0020574 -0.000140805 -1.06183e-05
-0.000140805 0.000598382 6.55611e-08
-1.06183e-05 6.55611e-08 0.000780763
0.00157247 0.000162314 2.21219e-05
0.000162314 0.00303122 8.88826e-06
2.21219e-05 8.88826e-06 0.00187849
-0.00366096 0.000983345 2.89438e-05
0.000983345 -0.00099525 1.12263e-05
2.89438e-05 1.12263e-05 -0.00214247
0.0037498 -0.000970792 2.50585e-05
-0.000970792 0.00131671 -6.18937e-06
2.50585e-05 -6.18937e-06 0.000599138
0.0103433 -0.000525421 1.14567e-05
-0.000525421 0.00354098 -9.38736e-06
1.14567e-05 -9.38736e-06 0.00166216
0.0025248 -0.000528525 -5.02521e-06
-0.000528525 0.000701548 2.44609e-05
-5.02521e-06 2.44609e-05 0.000768931
-0.00776093 0.000377354 -0.000186753
0.000377354 -0.00360659 2.53921e-06
-0.000186753 2.53921e-06 -0.00432015
0.0115392 -0.000252571 -7.42879e-05
-0.000252571 0.00336962 2.42258e-05
-7.42879e-05 2.42258e-05 0.00186585
0.00388345 -0.00109042 1.03517e-05
-0.00109042 0.000108878 -1.45063e-05
1.03517e-05 -1.45063e-05 -0.000494383
0.00113204 -0.000264527 -2.19509e-05
-0.000264527 0.000556127 1.62907e-05
-2.19509e-05 1.62907e-05 0.000270314
0.00174946 -0.000416656 -3.16878e-06
-0.000416656 0.000320163 1.35833e-06
-3.16878e-06 1.35833e-06 0.000291049
0.00285791 -0.000472273 1.32289e-05
-0.000472273 0.000717647 -2.67827e-06
1.32289e-05 -2.67827e-06 0.000681538
-0.00171183 -8.53006e-05 -4.17073e-06
-8.53006e-05 -0.00124169 9.60747e-09
-4.17073e-06 9.60747e-09 -0.00154497
0.0013626 -0.000433164 -4.21403e-06
-0.000433164 7.0512e-05 -1.90717e-06
-4.21403e-06 -1.90717e-06 -0.000177833
0.00221693 -0.000519526 2.75781e-06
-0.000519526 0.000349755 -2.20293e-07
2.75781e-06 -2.20293e-07 0.00014975
0.00140695 -0.00036513 -1.17152e-05
-0.00036513 0.000257556 -3.0437e-06
-1.17152e-05 -3.0437e-06 -7.39838e-05
0.00157894 -0.000440592 6.95569e-09
-0.000440592 0.000155192 2.4561e-07
6.95569e-09 2.4561e-07 -0.000116333
0.00180468 -0.000410093 -1.0702e-06
-0.000410093 0.000121092 -4.76125e-06
-1.0702e-06 -4.76125e-06 -6.77911e-05
0.00116505 -0.000360124 -3.71039e-06
-0.000360124 2.70056e-06 -4.56083e-07
-3.71039e-06 -4.56083e-07 -0.000304752
0.00161612 -0.000378521 -4.22624e-07
-0.000378521 0.000138248 4.64443e-07
-4.22624e-07 4.64443e-07 -9.35713e-05
0.00174345 -0.000323989 -1.79243e-06
-0.000323989 0.000104427 -5.25651e-06
-1.79243e-06 -5.25651e-06 -5.23491e-05
0.00160183 -0.00025745 -3.60806e-06
-0.00025745 4.17522e-05 -3.29801e-06
-3.60806e-06 -3.29801e-06 -0.000100245
0.00152203 -0.00030597 -1.78079e-06
-0.00030597 8.21456e-05 -2.11647e-06
-1.78079e-06 -2.11647e-06 -0.00011699
0.00159815 -0.000308988 8.55075e-07
-0.000308988 0.000104712 1.31943e-06
8.55075e-07 1.31943e-06 -8.33939e-05
0.00144072 -0.00032063 -2.45069e-06
-0.00032063 0.000135649 1.2282e-08
-2.45069e-06 1.2282e-08 -9.31004e-05
0.0015899 -0.000365898 1.70241e-06
-0.000365898 0.00018947 -2.70989e-07
1.70241e-06 -2.70989e-07 -5.20537e-05
0.00158589 -0.000364237 1.3213e-06
-0.000364237 0.000188303 6.52456e-07
1.3213e-06 6.52456e-07 -4.9923e-05
0.00120787 -0.000255766 3.20353e-08
-0.000255766 0.000142748 2.77401e-06
3.20353e-08 2.77401e-06 -6.50359e-05
0.00134959 -0.000304111 2.13341e-06
-0.000304111 0.000161995 -9.24447e-07
2.13341e-06 -9.24447e-07 -6.81718e-05
0.00151584 -0.000365433 -1.77206e-06
-0.000365433 0.000233336 -2.47992e-06
-1.77206e-06 -2.47992e-06 -3.36331e-05
0.000989351 -0.000197456 -8.08667e-07
-0.000197456 0.000159783 1.96518e-06
-8.08667e-07 1.96518e-06 -2.35927e-05
0.00115812 -0.000235989 4.82257e-07
-0.000235989 0.000215453 -3.83474e-07
4.82257e-07 -3.83474e-07 1.46597e-05
0.000952226 -0.000230816 -5.77992e-07
-0.000230816 5.92333e-05 -4.77393e-06
-5.77992e-07 -4.77393e-06 -0.00013423
0.000687215 -6.34625e-05 -9.28054e-07
-6.34625e-05 5.72811e-05 4.81246e-06
-9.28054e-07 4.81246e-06 -6.77142e-05
0.000923258 -0.000154327 3.40608e-08
-0.000154327 0.000189206 -5.47132e-08
3.40608e-08 -5.47132e-08 1.52332e-05
0.000503021 -0.000150559 -3.26407e-06
-0.000150559 -7.12116e-05 2.6062e-07
-3.26407e-06 2.6062e-07 -0.000258363
0.000414196 5.81472e-05 1.53861e-06
5.81472e-05 -8.48648e-05 7.34568e-06
1.53861e-06 7.34568e-06 -0.000127324
0.000701061 -3.20948e-05 -3.17319e-07
-3.20948e-05 7.92686e-05 -4.18919e-07
-3.17319e-07 -4.18919e-07 -2.39748e-05
0.00106305 -0.000107603 7.25006e-07
-0.000107603 0.000318546 -1.14137e-06
7.25006e-07 -1.14137e-06 0.000155161
0.00250569 0.000130537 -7.62437e-06
0.000130537 0.00114565 1.58649e-06
-7.62437e-06 1.58649e-06 0.00114161
0.000544413 6.52932e-05 -3.76865e-07
6.52932e-05 -1.62205e-05 -2.64578e-07
-3.76865e-07 -2.64578e-07 -4.94211e-05
0.000728196 -5.14748e-06 1.67117e-06
-5.14748e-06 7.99507e-05 -3.91504e-06
1.67117e-06 -3.91504e-06 3.29204e-06
0.0024329 0.000105982 3.201e-06
0.000105982 0.00109362 2.73137e-07
3.201e-06 2.73137e-07 0.00109656
0.000569612 6.3837e-05 -7.6567e-07
6.3837e-05 -1.06197e-05 -5.10883e-06
-7.6567e-07 -5.10883e-06 -3.83138e-05
0.00241283 9.62539e-05 2.78956e-05
9.62539e-05 0.00107504 -3.24645e-06
2.78956e-05 -3.24645e-06 0.00108035
0.000906648 0.000108942 7.69441e-08
0.000108942 0.000185474 1.33458e-06
7.69441e-08 1.33458e-06 6.05048e-05
0.000766557 5.6583e-05 -8.49295e-08
5.6583e-05 0.000110122 -2.34456e-07
-8.49295e-08 -2.34456e-07 -4.83725e-06
0.000803338 4.56322e-05 8.10311e-08
4.56322e-05 0.000147467 -2.15416e-06
8.10311e-08 -2.15416e-06 2.59284e-05
0.000663103 -4.63131e-06 -1.0211e-06
-4.63131e-06 3.12277e-05 -3.1771e-06
-1.0211e-06 -3.1771e-06 -4.06041e-05
0.000726516 3.40834e-05 4.07351e-07
3.40834e-05 9.18088e-05 1.49751e-07
4.07351e-07 1.49751e-07 -1.55477e-05
0.000621942 4.57407e-05 6.43195e-07
4.57407e-05 3.05899e-05 9.35832e-07
6.43195e-07 9.35832e-07 -8.25523e-05
0.000565719 -3.61712e-05 -7.57488e-07
-3.61712e-05 -3.21623e-05 -5.55005e-06
-7.57488e-07 -5.55005e-06 -5.8776e-05
0.000642084 5.7009e-06 -3.71931e-08
5.7009e-06 1.75274e-05 -6.35014e-08
-3.71931e-08 -6.35014e-08 -5.02492e-05
0.000719233 5.04621e-05 8.16572e-07
5.04621e-05 8.11025e-05 1.34571e-06
8.16572e-07 1.34571e-06 -1.69191e-05
0.00259421 -7.9429e-05 -3.25986e-05
-7.9429e-05 0.00116535 -4.17863e-06
-3.25986e-05 -4.17863e-06 0.00117399
0.000555357 -3.1664e-05 -4.9915e-07
-3.1664e-05 -4.40495e-05 -4.66104e-08
-4.9915e-07 -4.66104e-08 -6.65744e-05
0.000638961 1.65703e-05 6.65196e-07
1.65703e-05 1.52481e-05 2.67739e-06
6.65196e-07 2.67739e-06 -4.79211e-05
0.0024423 -6.45924e-05 -4.32099e-06
-6.45924e-05 0.00106974 2.5558e-07
-4.32099e-06 2.5558e-07 0.00108147
0.000565889 -2.69093e-05 -4.27477e-07
-2.69093e-05 -4.33491e-05 4.55904e-06
-4.27477e-07 4.55904e-06 -6.16544e-05
0.00230028 -4.89931e-05 1.90314e-05
-4.89931e-05 0.00098094 4.53401e-06
1.90314e-05 4.53401e-06 0.000995683
-0.00511129 0.000126639 -7.74817e-06
0.000126639 0.000734546 4.64061e-05
-7.74817e-06 4.64061e-05 -0.00152158
0.00355627 -2.58625e-05 2.74032e-07
-2.58625e-05 0.00153142 1.01292e-05
2.74032e-07 1.01292e-05 0.000496624
0.000831325 -7.74961e-05 -7.40146e-06
-7.74961e-05 0.00013528 -5.3606e-06
-7.40146e-06 -5.3606e-06 6.21012e-05
0.000586733 6.60483e-05 -7.69628e-07
6.60483e-05 -5.83145e-06 4.89006e-07
-7.69628e-07 4.89006e-07 -0.000119018
0.0016892 0.000248951 -6.55949e-07
0.000248951 0.000645532 1.67517e-06
-6.55949e-07 1.67517e-06 0.000489582
0.000709212 6.74664e-05 -2.47589e-06
6.74664e-05 6.72024e-05 -4.93663e-07
-2.47589e-06 -4.93663e-07 -5.42826e-05
0.00100785 2.50697e-05 -3.2251e-07
2.50697e-05 0.000235407 -3.74756e-07
-3.2251e-07 -3.74756e-07 0.000129256
0.00122168 0.000108743 1.51914e-06
0.000108743 0.000366623 5.88584e-07
1.51914e-06 5.88584e-07 0.000248713
0.00057062 3.8163e-05 -1.29898e-06
3.8163e-05 -8.73868e-06 3.1504e-06
-1.29898e-06 3.1504e-06 -0.000117719
0.000621502 5.63407e-05 -1.25379e-06
5.63407e-05 4.24526e-05 7.48434e-07
-1.25379e-06 7.48434e-07 -8.57032e-05
0.000763397 6.30758e-05 -6.88347e-07
6.30758e-05 0.000104154 -3.33606e-07
-6.88347e-07 -3.33606e-07 -2.31557e-05
0.000839966 0.000114937 4.86517e-07
0.000114937 0.000173236 -3.21465e-06
4.86517e-07 -3.21465e-06 1.62963e-05
0.000451087 0.000171508 2.0984e-06
0.000171508 -0.00010499 -6.01079e-06
2.0984e-06 -6.01079e-06 -0.000207466
0.000897202 7.98401e-05 -1.23821e-06
7.98401e-05 0.0002094 -9.66378e-07
-1.23821e-06 -9.66378e-07 7.95473e-05
0.00103614 0.000120288 5.36995e-07
0.000120288 0.000324455 2.55506e-06
5.36995e-07 2.55506e-06 0.000197014
-0.00533668 -0.000765898 -0.000326362
-0.000765898 -0.00142628 9.26969e-06
-0.000326362 9.26969e-06 -0.00249388
-0.00267678 -0.000529999 0.0001335
-0.000529999 0.00108659 6.54417e-05
0.0001335 6.54417e-05 -0.000639725
0.00384026 0.00024222 -0.000120052
0.00024222 0.00172948 -7.054e-05
-0.000120052 -7.054e-05 -0.000722953
-0.00779435 -0.001939 0.000419836
-0.001939 -0.00351446 0.000343704
0.000419836 0.000343704 -0.00188432
0.0118752 -0.0012436 -7.00992e-05
-0.0012436 0.00362958 0.000103537
-7.00992e-05 0.000103537 0.00352271
-0.000899497 0.000916799 3.10535e-06
0.000916799 0.000146394 -5.70101e-05
3.10535e-06 -5.70101e-05 -0.00369381
0.0026543 -3.08017e-05 -0.000147414
-3.08017e-05 0.000824336 4.5935e-05
-0.000147414 4.5935e-05 -2.19221e-05
0.00271437 0.000354235 -9.03729e-06
0.000354235 0.000756751 2.00251e-05
-9.03729e-06 2.00251e-05 0.000490753
0.0085124 -0.00137992 -0.000141287
-0.00137992 0.00412186 4.99083e-05
-0.000141287 4.99083e-05 0.00410852
0.000101247 0.000823874 -6.78574e-06
0.000823874 0.0004812 -2.16511e-05
-6.78574e-06 -2.16511e-05 -0.00256648
0.00139652 0.000621223 -5.69711e-05
0.000621223 0.000208514 -6.68205e-05
-5.69711e-05 -6.68205e-05 -0.000113947
0.0041792 0.00128217 -0.000153417
0.00128217 0.000411029 -9.20243e-05
-0.000153417 -9.20243e-05 -0.00178267
0.00214066 0.000566181 1.62634e-05
0.000566181 0.000551505 -2.25044e-05
1.62634e-05 -2.25044e-05 0.000336827
0.000800884 0.00025663 -4.51517e-06
0.00025663 0.000149253 9.39873e-07
-4.51517e-06 9.39873e-07 3.10639e-05
0.00133911 9.01428e-05 -3.28573e-06
9.01428e-05 0.000505629 2.34983e-06
-3.28573e-06 2.34983e-06 0.000402468
-0.000855693 0.000179061 -4.03163e-05
0.000179061 -0.000355531 -4.0654e-05
-4.03163e-05 -4.0654e-05 -0.000895373
0.00289291 0.000394533 -1.70011e-05
0.000394533 0.00143994 -1.1839e-05
-1.70011e-05 -1.1839e-05 0.00124925
0.00116829 0.000527812 1.35689e-05
0.000527812 0.000119398 -3.9158e-06
1.35689e-05 -3.9158e-06 -0.00017347
0.00324623 0.000858365 9.09108e-05
0.000858365 0.000544545 2.8491e-05
9.09108e-05 2.8491e-05 0.0004581
-0.00445553 -5.60018e-05 -0.00026934
-5.60018e-05 -0.00327634 1.13167e-07
-0.00026934 1.13167e-07 -0.00232191
-0.00242976 0.000119788 0.000110701
0.000119788 0.00211102 2.00881e-06
0.000110701 2.00881e-06 -2.65992e-06
0.00190782 -5.10469e-05 -6.30574e-05
-5.10469e-05 0.000960991 2.34854e-05
-6.30574e-05 2.34854e-05 1.87742e-05
0.0034998 -0.000287019 -6.51804e-05
-0.000287019 0.00125639 -3.52109e-05
-6.51804e-05 -3.52109e-05 0.00140947
0.00182012 -0.000851241 -3.78609e-05
-0.000851241 0.000110436 6.78427e-06
-3.78609e-05 6.78427e-06 -0.000433121
0.00178778 0.000110089 -1.83175e-05
0.000110089 0.00308933 3.38068e-05
-1.83175e-05 3.38068e-05 0.00204706
0.00222657 -0.000682716 0.000135184
-0.000682716 0.000126689 -0.000111508
0.000135184 -0.000111508 -0.00227657
0.00998256 0.000968785 8.22363e-05
0.000968785 0.00479575 1.0903e-05
8.22363e-05 1.0903e-05 0.00417045
0.00261047 -0.000664047 -1.95568e-05
-0.000664047 0.000587652 7.05173e-06
-1.95568e-05 7.05173e-06 0.000514912
-0.000910824 0.000495513 5.52604e-05
0.000495513 -0.000512322 -1.55813e-05
5.52604e-05 -1.55813e-05 -0.00100314
0.00414459 -0.000247255 -4.33159e-05
-0.000247255 -0.000314471 5.14641e-05
-4.33159e-05 5.14641e-05 -0.00238067
0.00590889 -0.00116631 -3.08471e-05
-0.00116631 0.00133731 1.36252e-05
-3.08471e-05 1.36252e-05 0.000718819
0.000558889 -0.000400648 3.80139e-05
-0.000400648 -0.000385609 -7.85181e-06
3.80139e-05 -7.85181e-06 -0.000596185
0.00955718 -0.000381187 1.88636e-05
-0.000381187 0.00229253 -3.07278e-05
1.88636e-05 -3.07278e-05 0.000945022
0.00415429 -0.000593745 5.9207e-05
-0.000593745 -6.37723e-05 -3.49315e-05
5.9207e-05 -3.49315e-05 -0.000131895
-0.000505149 -0.000270021 -1.98055e-05
-0.000270021 -0.000960202 5.68984e-06
-1.98055e-05 5.68984e-06 -0.000901624
0.00068164 -0.000343105 -7.75841e-06
-0.000343105 -0.000459346 -1.02799e-06
-7.75841e-06 -1.02799e-06 -0.000448674
0.00311214 -0.000497863 2.41013e-05
-0.000497863 0.00068823 -1.60336e-05
2.41013e-05 -1.60336e-05 0.00066359
0.000282859 -0.000333538 -1.03107e-05
-0.000333538 -0.000463052 -4.70811e-06
-1.03107e-05 -4.70811e-06 -0.00071177
0.00170203 -0.000473036 -4.68579e-08
-0.000473036 9.01084e-05 -2.17811e-07
-4.68579e-08 -2.17811e-07 -9.87404e-05
0.00212263 -0.000430085 -3.61292e-06
-0.000430085 0.000171456 -1.14749e-06
-3.61292e-06 -1.14749e-06 4.47028e-05
0.001299 -0.000411433 -2.75891e-06
-0.000411433 1.46864e-05 2.64518e-06
-2.75891e-06 2.64518e-06 -0.000258633
0.00180127 -0.000406851 -2.38308e-06
-0.000406851 0.000123079 3.79216e-07
-2.38308e-06 3.79216e-07 -6.74547e-05
0.00180339 -0.000322198 -1.84967e-06
-0.000322198 3.57698e-05 -1.38586e-06
-1.84967e-06 -1.38586e-06 -8.25027e-05
0.00134418 -0.000353469 3.67458e-06
-0.000353469 -1.33788e-05 4.14311e-06
3.67458e-06 4.14311e-06 -0.000240301
0.0016925 -0.000315534 1.57398e-09
-0.000315534 8.238e-05 7.42634e-07
1.57398e-09 7.42634e-07 -7.25205e-05
0.00180135 -0.000265561 -3.04352e-06
-0.000265561 9.75029e-05 -1.9507e-06
-3.04352e-06 -1.9507e-06 -1.08289e-05
0.00187658 -0.00024249 -2.05262e-06
-0.00024249 0.000202022 -8.17612e-07
-2.05262e-06 -8.17612e-07 8.84099e-05
0.00165923 -0.000258143 -2.44848e-06
-0.000258143 7.35818e-05 2.96253e-06
-2.44848e-06 2.96253e-06 -6.40025e-05
0.00172689 -0.00026739 -1.01512e-06
-0.00026739 0.000149825 -5.36687e-06
-1.01512e-06 -5.36687e-06 -6.14654e-06
0.00164569 -0.000303581 -3.5676e-06
-0.000303581 0.000183411 -1.69345e-06
-3.5676e-06 -1.69345e-06 -1.75945e-05
0.00163572 -0.000311921 1.21058e-06
-0.000311921 0.000144978 4.52459e-07
1.21058e-06 4.52459e-07 -5.43426e-05
0.00151466 -0.000295797 2.11096e-06
-0.000295797 6.11205e-05 5.63655e-06
2.11096e-06 5.63655e-06 -0.000122213
0.00134624 -0.000272374 -6.13822e-06
-0.000272374 0.000140558 1.88936e-06
-6.13822e-06 1.88936e-06 -6.75293e-05
0.00146754 -0.000322989 -7.05515e-08
-0.000322989 0.000148325 1.43743e-08
-7.05515e-08 1.43743e-08 -8.03317e-05
0.00158241 -0.000361627 1.99904e-06
-0.000361627 0.00019365 4.13728e-07
1.99904e-06 4.13728e-07 -4.49397e-05
0.0011882 -0.000227059 -2.90655e-06
-0.000227059 0.000194686 3.03523e-06
-2.90655e-06 3.03523e-06 8.49966e-07
0.00125274 -0.000259175 5.90585e-07
-0.000259175 0.000166574 6.71731e-07
5.90585e-07 6.71731e-07 -4.22415e-05
0.00117744 -0.000291984 2.49923e-06
-0.000291984 6.73244e-05 -3.79235e-06
2.49923e-06 -3.79235e-06 -0.000160582
0.000729349 -0.000126519 -4.61512e-06
-0.000126519 4.90964e-05 4.1845e-06
-4.61512e-06 4.1845e-06 -9.52195e-05
0.00108563 -0.000206598 7.65346e-07
-0.000206598 0.000213905 -3.9668e-07
7.65346e-07 -3.9668e-07 2.89837e-05
0.00125851 -0.000242982 -6.01004e-08
-0.000242982 0.000267965 -2.26958e-06
-6.01004e-08 -2.26958e-06 6.70196e-05
0.000416364 9.04165e-06 -2.75698e-06
9.04165e-06 -0.000100371 9.6548e-06
-2.75698e-06 9.6548e-06 -0.000150554
0.000737935 -9.04173e-05 1.98919e-07
-9.04173e-05 9.07763e-05 5.13715e-07
1.98919e-07 5.13715e-07 -4.08613e-05
0.00118538 -0.000168286 6.80043e-08
-0.000168286 0.000341575 -5.75623e-07
6.80043e-08 -5.75623e-07 0.000162942
0.00282991 0.000138567 -4.38264e-05
0.000138567 0.00133945 2.27865e-06
-4.38264e-05 2.27865e-06 0.0013339
0.000542742 4.41449e-05 -3.73675e-07
4.41449e-05 -1.55875e-05 -6.29375e-07
-3.73675e-07 -6.29375e-07 -5.65526e-05
0.000857579 -7.83806e-05 2.9849e-06
-7.83806e-05 0.00017125 -4.55753e-06
2.9849e-06 -4.55753e-06 6.26865e-05
0.00173309 9.56575e-05 2.00441e-05
9.56575e-05 0.000686982 1.08202e-07
2.00441e-05 1.08202e-07 0.000683017
0.000604507 5.89925e-05 2.12914e-07
5.89925e-05 1.74417e-05 -6.06133e-06
2.12914e-07 -6.06133e-06 -1.49575e-05
0.00252233 0.000108658 3.56196e-05
0.000108658 0.00114641 -2.63618e-06
3.56196e-05 -2.63618e-06 0.00114895
0.000920984 0.000118526 2.4264e-06
0.000118526 0.000179043 1.05813e-06
2.4264e-06 1.05813e-06 5.5466e-05
0.000635349 6.11349e-05 -2.83456e-07
6.11349e-05 2.12412e-05 5.44343e-07
-2.83456e-07 5.44343e-07 -9.24433e-05
0.000693641 2.99242e-05 -2.17162e-07
2.99242e-05 6.45579e-05 -1.31822e-06
-2.17162e-07 -1.31822e-06 -4.96563e-05
0.000897232 7.85093e-05 3.40366e-07
7.85093e-05 0.000188468 5.57886e-07
3.40366e-07 5.57886e-07 6.9296e-05
0.000718761 2.30452e-05 1.88448e-07
2.30452e-05 8.07427e-05 4.49158e-08
1.88448e-07 4.49158e-08 -2.73536e-05
0.000669964 -3.32819e-06 -1.22173e-06
-3.32819e-06 3.8546e-05 -3.68488e-06
-1.22173e-06 -3.68488e-06 -3.90509e-05
0.000567654 -3.82652e-05 -1.19938e-06
-3.82652e-05 -2.47105e-05 -6.12105e-06
-1.19938e-06 -6.12105e-06 -5.46983e-05
0.000638525 -2.50414e-06 2.23761e-07
-2.50414e-06 1.81836e-05 -7.51482e-08
2.23761e-07 -7.51482e-08 -5.40875e-05
0.000652901 5.46097e-06 -1.25356e-07
5.46097e-06 3.24978e-05 1.46785e-06
-1.25356e-07 1.46785e-06 -6.21385e-05
0.00268303 -9.227e-05 -4.00877e-05
-9.227e-05 0.00122391 -3.79343e-06
-4.00877e-05 -3.79343e-06 0.00122995
0.000545014 -3.1643e-05 -2.82291e-07
-3.1643e-05 -4.46961e-05 -2.63393e-08
-2.82291e-07 -2.63393e-08 -7.07331e-05
0.000630048 1.1913e-05 1.25952e-06
1.1913e-05 1.27335e-05 2.86139e-06
1.25952e-06 2.86139e-06 -5.60121e-05
0.00256476 -7.86453e-05 -4.52418e-06
-7.86453e-05 0.00114751 2.95898e-07
-4.52418e-06 2.95898e-07 0.00115637
0.000545696 -3.25094e-05 -1.62926e-07
-3.25094e-05 -4.98003e-05 5.05895e-06
-1.62926e-07 5.05895e-06 -7.22257e-05
0.00243128 -6.36608e-05 2.35833e-05
-6.36608e-05 0.00106267 4.42507e-06
2.35833e-05 4.42507e-06 0.00107464
0.000323751 0.000313047 -0.000163888
0.000313047 0.00145075 4.4186e-05
-0.000163888 4.4186e-05 0.000454615
-0.00217853 -5.34985e-05 8.6982e-06
-5.34985e-05 0.00156009 1.37128e-05
8.6982e-06 1.37128e-05 -0.000655804
0.0032995 -5.94684e-05 -6.4459e-05
-5.94684e-05 0.00163597 -4.269e-06
-6.4459e-05 -4.269e-06 0.000554866
0.000491624 3.30915e-05 1.68591e-06
3.30915e-05 -6.37983e-05 -1.37379e-06
1.68591e-06 -1.37379e-06 -0.000171106
0.000646512 4.26978e-05 2.02263e-06
4.26978e-05 2.77068e-05 5.87107e-07
2.02263e-06 5.87107e-07 -9.25442e-05
0.00127612 0.000206476 -1.4031e-06
0.000206476 0.000414237 7.05752e-07
-1.4031e-06 7.05752e-07 0.000267843
0.0015412 0.000271221 2.69448e-06
0.000271221 0.00050283 -1.34702e-06
2.69448e-06 -1.34702e-06 0.00031181
0.00110472 0.000163546 -6.53409e-06
0.000163546 0.000327605 -2.22819e-06
-6.53409e-06 -2.22819e-06 0.000173248
0.000962534 0.000107083 9.51117e-07
0.000107083 0.000241146 2.96032e-06
9.51117e-07 2.96032e-06 0.000107378
0.000746532 7.57481e-05 2.95118e-06
7.57481e-05 9.65153e-05 2.68487e-06
2.95118e-06 2.68487e-06 -3.0845e-05
0.000640383 0.000127271 -3.74085e-06
0.000127271 6.44532e-05 -3.49211e-06
-3.74085e-06 -3.49211e-06 -8.62938e-05
-0.000752504 7.70721e-05 -4.92637e-07
7.70721e-05 -0.000777385 -2.62943e-07
-4.92637e-07 -2.62943e-07 -0.000931184
0.0012011 0.000257359 2.33403e-06
0.000257359 0.000258114 -3.09997e-06
2.33403e-06 -3.09997e-06 0.000141056
0.00218375 0.000498718 3.16258e-06
0.000498718 0.000507071 -1.21286e-05
3.16258e-06 -1.21286e-05 0.000310334
0.000619854 0.000195743 -5.49925e-06
0.000195743 6.17138e-06 -2.72581e-07
-5.49925e-06 -2.72581e-07 -0.000102408
0.000603943 7.0466e-05 4.07852e-07
7.0466e-05 4.10514e-05 -1.3541e-06
4.07852e-07 -1.3541e-06 -7.49864e-05
0.0109491 0.000683983 -7.66238e-05
0.000683983 0.00289724 3.68652e-05
-7.66238e-05 3.68652e-05 0.00152306
-0.000628514 -0.00061017 -0.00015891
-0.00061017 0.00147082 -4.91375e-05
-0.00015891 -4.91375e-05 0.000257027
-0.000929697 -0.000823962 8.02301e-05
-0.000823962 0.00118803 -1.87361e-05
8.02301e-05 -1.87361e-05 -0.000587979
-0.00228875 -0.000715398 5.60621e-07
-0.000715398 -0.000738761 0.000124072
5.60621e-07 0.000124072 -0.000846069
0.0108404 0.00077254 3.23242e-06
0.00077254 0.00501162 -4.51742e-06
3.23242e-06 -4.51742e-06 0.00189256
0.000707663 0.000319067 -4.90488e-05
0.000319067 -0.000300726 -2.08972e-05
-4.90488e-05 -2.08972e-05 -0.000418484
0.00147501 0.000633139 -2.07938e-05
0.000633139 0.000215795 -1.10485e-05
-2.07938e-05 -1.10485e-05 -3.25852e-05
0.00957986 0.000715637 3.06765e-05
0.000715637 0.00317853 2.04661e-05
3.06765e-05 2.04661e-05 0.0013223
0.00553888 0.00127665 -3.47658e-05
0.00127665 0.000922376 -4.0707e-05
-3.47658e-05 -4.0707e-05 0.000461783
0.0018247 0.000603666 9.36785e-07
0.000603666 0.000216027 -5.79187e-06
9.36785e-07 -5.79187e-06 5.08808e-05
0.00101723 0.000425449 5.6794e-06
0.000425449 8.51905e-05 -1.55868e-06
5.6794e-06 -1.55868e-06 -0.000118864
0.000879445 0.000238083 -1.66304e-05
0.000238083 0.000203598 1.66176e-05
-1.66304e-05 1.66176e-05 9.21138e-05
0.00265794 0.000681902 -4.05484e-05
0.000681902 0.000755401 -1.49707e-05
-4.05484e-05 -1.49707e-05 0.000474936
0.00227401 0.000782252 -2.4757e-06
0.000782252 -1.41113e-05 1.76719e-05
-2.4757e-06 1.76719e-05 -0.000125565
0.000693043 -0.000313221 -3.14472e-05
-0.000313221 -0.00288417 7.28884e-06
-3.14472e-05 7.28884e-06 -0.00325
0.00234895 -0.000368775 -1.28288e-06
-0.000368775 0.00132805 -1.93281e-05
-1.28288e-06 -1.93281e-05 0.00138604
-0.00434214 1.69329e-05 0.000136257
1.69329e-05 0.00152426 -9.32935e-06
0.000136257 -9.32935e-06 -0.000746147
0.00221174 -0.000712177 -3.28912e-05
-0.000712177 0.000302256 4.60916e-06
-3.28912e-05 4.60916e-06 0.000149589
0.00329395 -0.00103489 3.27776e-05
-0.00103489 0.000633731 -1.23202e-05
3.27776e-05 -1.23202e-05 -0.000282829
0.00123624 -0.000275344 0.000195632
-0.000275344 0.00174345 2.00136e-06
0.000195632 2.00136e-06 0.000971473
0.0117838 -0.000294797 -0.000116325
-0.000294797 0.00373433 6.18818e-05
-0.000116325 6.18818e-05 0.00211511
0.000765796 -0.000430976 -2.46621e-05
-0.000430976 -0.000354731 -2.97213e-06
-2.46621e-05 -2.97213e-06 -0.000483071
0.00826648 6.58983e-05 -4.33074e-05
6.58983e-05 0.00131309 2.68606e-05
-4.33074e-05 2.68606e-05 0.000316254
0.00441087 -0.000654929 6.88967e-05
-0.000654929 -5.95277e-05 2.47195e-06
6.88967e-05 2.47195e-06 -0.000482394
0.00276144 -0.000433326 4.1274e-05
-0.000433326 0.000645406 -1.08307e-05
4.1274e-05 -1.08307e-05 0.000340921
0.00338828 -0.000228367 -8.77776e-05
-0.000228367 0.000149644 -4.35446e-07
-8.77776e-05 -4.35446e-07 6.79313e-05
-0.00102135 -0.000247404 -1.51023e-05
-0.000247404 -0.00139261 3.08808e-06
-1.51023e-05 3.08808e-06 -0.00134205
0.00156551 -0.000414924 3.66852e-07
-0.000414924 -0.000126593 -7.1747e-07
3.66852e-07 -7.1747e-07 -0.000138915
0.00230952 -0.000348181 1.32163e-05
-0.000348181 0.00015348 -8.73868e-06
1.32163e-05 -8.73868e-06 0.000178412
0.00126512 -0.000435613 -1.57452e-06
-0.000435613 -0.000128187 2.53707e-06
-1.57452e-06 2.53707e-06 -0.000309236
0.00180134 -0.000400137 -2.2145e-06
-0.000400137 1.90746e-05 2.57771e-08
-2.2145e-06 2.57771e-08 -0.0001051
0.00206537 -0.000311406 3.31397e-10
-0.000311406 7.6606e-05 1.21071e-06
3.31397e-10 1.21071e-06 2.25444e-05
0.00169936 -0.000395597 -2.46516e-06
-0.000395597 7.26372e-05 4.84563e-06
-2.46516e-06 4.84563e-06 -0.000118477
0.00185066 -0.000323179 4.58818e-07
-0.000323179 6.33888e-05 1.52277e-06
4.58818e-07 1.52277e-06 -5.4094e-05
0.0017516 -0.000274271 -7.94957e-07
-0.000274271 8.86061e-06 1.23236e-06
-7.94957e-07 1.23236e-06 -7.43783e-05
0.00166076 -0.000309094 3.94979e-06
-0.000309094 6.96147e-05 5.40493e-06
3.94979e-06 5.40493e-06 -8.37304e-05
0.00175011 -0.000265472 -2.55873e-07
-0.000265472 6.69525e-05 1.15928e-06
-2.55873e-07 1.15928e-06 -4.23054e-05
0.00204805 -0.000264309 -3.2477e-07
-0.000264309 0.000258582 -7.87697e-08
-3.2477e-07 -7.87697e-08 0.000161402
0.00177544 -0.000239428 -3.87147e-06
-0.000239428 0.000134581 3.56043e-06
-3.87147e-06 3.56043e-06 2.44602e-05
0.00182387 -0.00025099 2.05441e-06
-0.00025099 0.000194646 -3.19881e-06
2.05441e-06 -3.19881e-06 6.58862e-05
0.00171562 -0.000259283 2.02579e-06
-0.000259283 0.000104821 7.60611e-06
2.02579e-06 7.60611e-06 -2.8468e-05
0.00173031 -0.000269465 4.15166e-07
-0.000269465 0.000151855 -8.05918e-07
4.15166e-07 -8.05918e-07 -4.90757e-06
0.00166531 -0.000261986 -1.44798e-06
-0.000261986 0.000156276 -2.95779e-06
-1.44798e-06 -2.95779e-06 -1.41175e-05
0.00148703 -0.00026573 -5.32282e-06
-0.00026573 0.000158192 -5.05963e-08
-5.32282e-06 -5.05963e-08 -3.674e-05
0.00167045 -0.000306388 3.81028e-07
-0.000306388 0.000199513 -3.81391e-07
3.81028e-07 -3.81391e-07 -2.61615e-06
0.00174729 -0.000317958 2.88176e-06
-0.000317958 0.000207184 2.63038e-06
2.88176e-06 2.63038e-06 7.61651e-06
0.00114626 -0.000223284 -6.57848e-06
-0.000223284 8.71793e-05 2.70578e-06
-6.57848e-06 2.70578e-06 -9.92621e-05
0.00128965 -0.000267463 -1.34529e-06
-0.000267463 0.000108604 5.20646e-07
-1.34529e-06 5.20646e-07 -9.92342e-05
0.00148588 -0.000324839 2.97211e-06
-0.000324839 0.000156222 -3.81363e-07
2.97211e-06 -3.81363e-07 -7.23371e-05
0.000794228 -0.000149215 -6.09643e-06
-0.000149215 3.22376e-05 5.91399e-06
-6.09643e-06 5.91399e-06 -0.000119865
0.00113218 -0.000222118 9.10569e-07
-0.000222118 0.000159983 4.47735e-07
9.10569e-07 4.47735e-07 -3.27335e-05
0.00133125 -0.000265461 2.65106e-06
-0.000265461 0.000209519 -1.80729e-06
2.65106e-06 -1.80729e-06 -6.65073e-07
0.000425724 -5.7072e-05 -1.14345e-05
-5.7072e-05 -0.000118849 1.1227e-05
-1.14345e-05 1.1227e-05 -0.000178624
0.000787648 -0.000141756 -4.45364e-07
-0.000141756 8.21219e-05 1.01607e-07
-4.45364e-07 1.01607e-07 -6.43923e-05
0.00106032 -0.000201613 1.19666e-06
-0.000201613 0.000197154 -1.85462e-06
1.19666e-06 -1.85462e-06 1.35946e-05
0.00344069 0.000160311 -6.59611e-05
0.000160311 0.00169936 2.30086e-06
-6.59611e-05 2.30086e-06 0.00168846
0.000558134 -1.02387e-05 8.60186e-07
-1.02387e-05 -2.23849e-05 -3.47344e-07
8.60186e-07 -3.47344e-07 -7.30395e-05
0.000877297 -0.000139758 4.57018e-06
-0.000139758 0.000173068 -3.99806e-06
4.57018e-06 -3.99806e-06 3.57463e-05
0.0030119 0.000135459 7.16645e-06
0.000135459 0.00144334 4.21688e-07
7.16645e-06 4.21688e-07 0.00143905
0.000678191 2.68699e-05 4.17865e-06
2.68699e-05 5.80025e-05 -7.91207e-06
4.17865e-06 -7.91207e-06 1.81096e-05
0.00271524 0.000118134 5.06546e-05
0.000118134 0.00126407 -2.14957e-06
5.06546e-05 -2.14957e-06 0.00126462
0.000983447 0.000200875 3.43909e-06
0.000200875 0.000182468 -3.62645e-06
3.43909e-06 -3.62645e-06 4.77642e-06
0.00082259 0.000142568 1.10936e-06
0.000142568 0.000131302 -1.62818e-07
1.10936e-06 -1.62818e-07 4.27888e-07
0.000486266 3.972e-05 -1.94736e-07
3.972e-05 -6.26632e-05 -6.08838e-07
-1.94736e-07 -6.08838e-07 -0.000181805
0.000341151 2.3308e-05 1.16545e-07
2.3308e-05 -0.000150065 -2.21541e-07
1.16545e-07 -2.21541e-07 -0.000257148
0.000575905 8.49563e-06 -2.70018e-07
8.49563e-06 -6.87626e-06 5.2262e-07
-2.70018e-07 5.2262e-07 -0.000117969
0.000659401 4.7383e-07 -1.36912e-06
4.7383e-07 3.36825e-05 -3.78585e-06
-1.36912e-06 -3.78585e-06 -5.19878e-05
0.000637824 4.04135e-06 1.1229e-07
4.04135e-06 2.54006e-05 1.70828e-06
1.1229e-07 1.70828e-06 -7.56426e-05
0.00062749 -8.96491e-06 3.27318e-07
-8.96491e-06 1.52858e-05 -1.9208e-07
3.27318e-07 -1.9208e-07 -6.24202e-05
0.000571262 -4.2064e-05 -1.43971e-06
-4.2064e-05 -1.51273e-05 -6.77658e-06
-1.43971e-06 -6.77658e-06 -4.87767e-05
0.00276375 -0.000105108 -4.70493e-05
-0.000105108 0.00127873 -3.29398e-06
-4.70493e-05 -3.29398e-06 0.00128204
0.000540515 -3.63434e-05 9.25956e-08
-3.63434e-05 -4.07893e-05 -5.16641e-09
9.25956e-08 -5.16641e-09 -7.03943e-05
0.000605021 -1.2789e-06 1.52598e-06
-1.2789e-06 -5.74177e-09 3.20878e-06
1.52598e-06 3.20878e-06 -7.26346e-05
0.00268128 -9.22858e-05 -4.59626e-06
-9.22858e-05 0.00122253 3.48784e-07
-4.59626e-06 3.48784e-07 0.00122848
0.000529772 -3.25154e-05 7.13252e-07
-3.25154e-05 -5.32246e-05 5.52872e-06
7.13252e-07 5.52872e-06 -7.9268e-05
0.00253633 -7.76856e-05 2.93215e-05
-7.76856e-05 0.00113012 4.24426e-06
2.93215e-05 4.24426e-06 0.00113924
0.0107433 0.000472224 0.000176073
0.000472224 0.00259004 6.50383e-05
0.000176073 6.50383e-05 0.00164865
-0.00278809 -0.000704663 -0.000109499
-0.000704663 -0.0020804 -1.3045e-05
-0.000109499 -1.3045e-05 -0.00226339
-0.00440998 0.000266255 -5.28792e-05
0.000266255 0.000568186 -3.53662e-05
-5.28792e-05 -3.53662e-05 -0.0020748
0.000702661 1.69845e-05 6.06101e-06
1.69845e-05 5.3984e-05 1.33979e-06
6.06101e-06 1.33979e-06 -6.34886e-05
0.000898819 0.000176427 -2.19808e-06
0.000176427 0.000202903 1.49696e-06
-2.19808e-06 1.49696e-06 6.50101e-05
0.00129686 0.000186507 -2.25936e-09
0.000186507 0.000433434 -3.62893e-07
-2.25936e-09 -3.62893e-07 0.000277146
0.00124397 0.000242787 -3.74962e-06
0.000242787 0.000337794 5.11143e-07
-3.74962e-06 5.11143e-07 0.000152668
0.0014668 0.000297639 1.58966e-05
0.000297639 0.000343243 9.05432e-08
1.58966e-05 9.05432e-08 0.000123505
0.000203058 0.000158371 -1.8124e-06
0.000158371 -0.000227221 -2.51785e-06
-1.8124e-06 -2.51785e-06 -0.000393218
0.000499967 0.000128756 -2.61231e-06
0.000128756 -3.58239e-06 -2.57156e-06
-2.61231e-06 -2.57156e-06 -0.00015184
0.000182313 0.00016825 6.86551e-07
0.00016825 -0.000262216 1.4106e-06
6.86551e-07 1.4106e-06 -0.000439962
0.000980827 0.000243099 1.96836e-07
0.000243099 0.000150036 7.05936e-07
1.96836e-07 7.05936e-07 2.92895e-05
0.00043754 0.000249348 5.09507e-06
0.000249348 -0.000266297 7.34736e-07
5.09507e-06 7.34736e-07 -0.000431905
0.00329469 0.000548576 -3.23499e-06
0.000548576 0.00110233 -4.57221e-06
-3.23499e-06 -4.57221e-06 0.000926149
0.00208852 0.000517334 -5.81383e-06
0.000517334 0.000358252 2.90884e-06
-5.81383e-06 2.90884e-06 0.000181784
0.0015544 0.000445059 3.57411e-06
0.000445059 0.000185178 -3.26985e-06
3.57411e-06 -3.26985e-06 5.50319e-06
0.000370286 0.000194796 -2.01247e-06
0.000194796 -0.000121147 4.91316e-06
-2.01247e-06 4.91316e-06 -0.000232026
0.00533123 0.000550313 -2.17964e-05
0.000550313 0.00035281 9.66814e-06
-2.17964e-05 9.66814e-06 0.000477781
0.00872706 0.000500225 7.43465e-05
0.000500225 0.001775 4.20969e-05
7.43465e-05 4.20969e-05 0.000300408
0.0054162 -0.00118115 7.95609e-05
-0.00118115 0.00306942 -5.91605e-05
7.95609e-05 -5.91605e-05 0.00246255
0.00404968 0.00114335 0.000309635
0.00114335 0.000186461 0.000131887
0.000309635 0.000131887 -0.00286224
0.00146578 0.000571745 -2.40225e-05
0.000571745 0.000183948 8.40615e-06
-2.40225e-05 8.40615e-06 0.000226884
0.00333454 0.000988372 -7.75205e-05
0.000988372 -2.18209e-05 -2.45606e-05
-7.75205e-05 -2.45606e-05 -0.000242276
0.0035942 0.000807397 4.05922e-05
0.000807397 0.000604954 2.10027e-05
4.05922e-05 2.10027e-05 0.000588893
0.00294073 0.000695102 6.05832e-06
0.000695102 0.000706293 7.77698e-06
6.05832e-06 7.77698e-06 0.000545103
0.000670531 0.000370751 -8.77433e-06
0.000370751 -4.34872e-05 1.87868e-05
-8.77433e-06 1.87868e-05 -0.000235131
0.00372091 0.000903595 -0.000116114
0.000903595 0.000674582 -2.91967e-05
-0.000116114 -2.91967e-05 0.000483002
0.00291564 -0.000211831 -7.82702e-05
-0.000211831 0.000398578 8.44777e-06
-7.82702e-05 8.44777e-06 0.000117569
0.00996957 -0.000254824 -3.34548e-06
-0.000254824 0.00279603 8.17356e-07
-3.34548e-06 8.17356e-07 0.00214596
-0.00879068 -0.000514419 0.000295551
-0.000514419 -0.00495106 -7.95574e-06
0.000295551 -7.95574e-06 -0.00462147
0.000759086 -0.00044394 -4.16107e-05
-0.00044394 -0.000473154 8.15883e-06
-4.16107e-05 8.15883e-06 -0.000528918
0.00646582 -0.000833376 0.00011843
-0.000833376 0.000955955 2.08033e-05
0.00011843 2.08033e-05 0.000595849
0.00129349 -0.000392243 1.54867e-05
-0.000392243 -0.0020336 5.78671e-05
1.54867e-05 5.78671e-05 -0.003316
0.00144698 -0.000332856 1.9227e-05
-0.000332856 -0.000106544 3.16139e-07
1.9227e-05 3.16139e-07 -0.000261953
0.00258425 -0.000109321 -4.67282e-06
-0.000109321 -0.000364413 6.25821e-06
-4.67282e-06 6.25821e-06 -0.000489924
0.00405497 -0.000346835 1.95246e-05
-0.000346835 0.00097879 -8.36982e-06
1.95246e-05 -8.36982e-06 0.00102888
0.00350323 -9.143e-05 7.19248e-05
-9.143e-05 0.000814715 3.46015e-07
7.19248e-05 3.46015e-07 0.000781894
-2.16592e-05 -0.000335746 -7.6939e-06
-0.000335746 -0.000963823 7.18855e-06
-7.6939e-06 7.18855e-06 -0.000958496
0.00175851 -0.000328131 -3.58598e-07
-0.000328131 -0.000143678 4.75038e-07
-3.58598e-07 4.75038e-07 -0.000114418
0.00179118 -0.00021904 1.27725e-05
-0.00021904 -0.000164303 -1.83479e-06
1.27725e-05 -1.83479e-06 -7.82561e-05
0.00157501 -0.000377903 1.10771e-06
-0.000377903 -8.92864e-05 1.16219e-06
1.10771e-06 1.16219e-06 -0.000211026
0.00194554 -0.000307072 2.06339e-06
-0.000307072 1.50916e-05 1.04289e-06
2.06339e-06 1.04289e-06 -3.96403e-05
0.00185699 -0.000243662 1.21254e-06
-0.000243662 3.17197e-05 1.5866e-06
1.21254e-06 1.5866e-06 -1.3361e-06
0.00187838 -0.00032265 5.54126e-06
-0.00032265 7.94057e-05 3.71869e-06
5.54126e-06 3.71869e-06 -3.68524e-05
0.00184693 -0.000276509 8.61004e-07
-0.000276509 6.91033e-05 4.83428e-07
8.61004e-07 4.83428e-07 -1.39097e-05
0.00197144 -0.000245967 -1.51786e-06
-0.000245967 0.00017863 1.19402e-06
-1.51786e-06 1.19402e-06 0.000100115
0.00170048 -0.000264988 3.65351e-06
-0.000264988 3.76987e-05 3.94247e-06
3.65351e-06 3.94247e-06 -7.22427e-05
0.00184833 -0.000256618 1.37499e-07
-0.000256618 0.00014928 6.5216e-07
1.37499e-07 6.5216e-07 5.15522e-05
0.00167797 -0.000241873 3.74668e-06
-0.000241873 8.47318e-05 -1.67261e-06
3.74668e-06 -1.67261e-06 -2.68955e-05
0.00168935 -0.00023714 -2.59046e-06
-0.00023714 7.60811e-05 7.5803e-06
-2.59046e-06 7.5803e-06 -3.06752e-05
0.00185582 -0.000249478 -2.13327e-06
-0.000249478 0.000211572 6.04079e-08
-2.13327e-06 6.04079e-08 8.6381e-05
0.00175855 -0.000240805 6.88426e-07
-0.000240805 0.000191479 -1.8735e-06
6.88426e-07 -1.8735e-06 4.16878e-05
0.00173436 -0.00027111 2.01941e-06
-0.00027111 0.000154112 3.45625e-06
2.01941e-06 3.45625e-06 -3.32769e-06
0.00170661 -0.000264371 6.82523e-07
-0.000264371 0.000181751 -6.6513e-07
6.82523e-07 -6.6513e-07 1.04047e-05
0.00169633 -0.000244612 -2.6643e-06
-0.000244612 0.000240342 -9.74635e-07
-2.6643e-06 -9.74635e-07 6.63236e-05
0.000978531 -0.000195604 -8.90637e-06
-0.000195604 -5.72969e-05 2.44231e-06
-8.90637e-06 2.44231e-06 -0.000231773
0.00151878 -0.000268722 -1.05133e-06
-0.000268722 0.000180144 -2.33266e-07
-1.05133e-06 -2.33266e-07 -1.55186e-05
0.0016942 -0.000308587 3.58705e-06
-0.000308587 0.000214803 7.10329e-07
3.58705e-06 7.10329e-07 1.17186e-05
0.000961519 -0.000170398 -9.46598e-06
-0.000170398 6.08799e-05 6.14012e-06
-9.46598e-06 6.14012e-06 -9.16029e-05
0.00117428 -0.000223955 6.35938e-08
-0.000223955 0.000102325 3.77557e-07
6.35938e-08 3.77557e-07 -8.40761e-05
0.00118866 -0.00025832 2.31715e-06
-0.00025832 5.11258e-05 -6.36457e-07
2.31715e-06 -6.36457e-07 -0.000155795
0.000438893 -9.26673e-05 -1.58277e-05
-9.26673e-05 -0.000130612 1.24216e-05
-1.58277e-05 1.24216e-05 -0.000200574
0.000862873 -0.000159233 4.92036e-07
-0.000159233 7.28999e-05 2.80835e-07
4.92036e-07 2.80835e-07 -8.0891e-05
0.00105755 -0.000215775 4.9283e-06
-0.000215775 0.000115187 -2.23471e-06
4.9283e-06 -2.23471e-06 -7.63615e-05
0.00415027 0.000168253 -0.00010413
0.000168253 0.00211437 3.85806e-06
-0.00010413 3.85806e-06 0.00210095
0.000579977 -6.49682e-05 7.21207e-07
-6.49682e-05 -3.11309e-05 -2.53875e-07
7.21207e-07 -2.53875e-07 -9.32659e-05
0.000880519 -0.000157833 5.94044e-06
-0.000157833 0.000134035 -5.16166e-06
5.94044e-06 -5.16166e-06 -1.43911e-05
0.00365638 0.000136826 7.36041e-06
0.000136826 0.00181972 3.42801e-07
7.36041e-06 3.42801e-07 0.00181454
0.000698835 -1.99049e-05 9.03756e-06
-1.99049e-05 5.58698e-05 -9.51966e-06
9.03756e-06 -9.51966e-06 4.62816e-06
0.00317887 0.000110547 8.89318e-05
0.000110547 0.00153544 -3.26944e-06
8.89318e-05 -3.26944e-06 0.00153735
0.00115334 0.00024039 -3.02749e-06
0.00024039 0.000186928 -4.00978e-06
-3.02749e-06 -4.00978e-06 -1.80955e-05
0.00132052 0.000230223 5.26923e-07
0.000230223 0.000383124 1.91159e-07
5.26923e-07 1.91159e-07 0.000200192
0.000703784 0.00013204 -3.66974e-07
0.00013204 4.11741e-05 -5.24564e-06
-3.66974e-07 -5.24564e-06 -0.000113284
0.000676483 0.000154351 -1.35371e-06
0.000154351 5.71098e-05 2.29709e-07
-1.35371e-06 2.29709e-07 -7.98149e-05
0.000520279 5.48352e-05 -5.15775e-08
5.48352e-05 -4.20631e-05 -4.3794e-07
-5.15775e-08 -4.3794e-07 -0.000165839
0.000761234 6.89681e-05 -2.50514e-06
6.89681e-05 0.000103096 -3.74863e-06
-2.50514e-06 -3.74863e-06 -4.84678e-06
0.000462208 -8.56466e-06 2.6973e-07
-8.56466e-06 -7.60917e-05 1.39519e-06
2.6973e-07 1.39519e-06 -0.000183891
0.000642358 -1.27661e-06 2.35821e-07
-1.27661e-06 2.65104e-05 -2.63461e-07
2.35821e-07 -2.63461e-07 -5.9988e-05
0.000574495 -3.89727e-05 -1.97172e-06
-3.89727e-05 -7.90788e-06 -7.50265e-06
-1.97172e-06 -7.50265e-06 -4.55103e-05
0.00059251 -1.16176e-05 1.21522e-06
-1.16176e-05 -4.53271e-06 3.60326e-06
1.21522e-06 3.60326e-06 -8.18689e-05
0.000534809 -4.00631e-05 2.44857e-07
-4.00631e-05 -3.68508e-05 -4.61195e-08
2.44857e-07 -4.61195e-08 -7.00164e-05
0.00285167 -0.000116843 -5.52643e-05
-0.000116843 0.00133803 -2.68317e-06
-5.52643e-05 -2.68317e-06 0.00133873
0.00275725 -0.000105138 -3.52784e-06
-0.000105138 0.00127443 3.48151e-07
-3.52784e-06 3.48151e-07 0.00127758
0.000519135 -3.04718e-05 2.12031e-06
-3.04718e-05 -5.41736e-05 6.05538e-06
2.12031e-06 6.05538e-06 -8.30201e-05
0.00264725 -9.14904e-05 3.59259e-05
-9.14904e-05 0.0012021 3.94531e-06
3.59259e-05 3.94531e-06 0.00120815
0.00296575 2.64592e-06 8.47411e-06
2.64592e-06 -0.000338178 1.4106e-05
8.47411e-06 1.4106e-05 -0.000284084
0.00257691 -0.000546026 5.36915e-05
-0.000546026 -0.00184213 2.46527e-05
5.36915e-05 2.46527e-05 -0.00291856
0.00662156 -0.000780772 -5.93054e-05
-0.000780772 0.00251682 -5.88625e-05
-5.93054e-05 -5.88625e-05 0.00280397
0.00137617 0.000302478 6.90567e-06
0.000302478 0.000151601 4.41318e-06
6.90567e-06 4.41318e-06 -7.09074e-05
0.00145485 0.000211857 2.48737e-06
0.000211857 0.000520942 1.50074e-06
2.48737e-06 1.50074e-06 0.000361407
0.00100884 0.000220452 -5.08704e-06
0.000220452 0.000209469 4.76616e-06
-5.08704e-06 4.76616e-06 2.89795e-05
0.000733147 0.000210289 1.27053e-06
0.000210289 6.82014e-05 2.08064e-06
1.27053e-06 2.08064e-06 -0.000109967
0.0012462 0.000280574 -4.02745e-07
0.000280574 0.000221446 -2.56e-06
-4.02745e-07 -2.56e-06 2.2303e-06
0.000618873 0.000255526 3.58056e-06
0.000255526 -0.000174945 1.62211e-06
3.58056e-06 1.62211e-06 -0.000355725
0.00106092 0.000255216 -3.21545e-06
0.000255216 0.000222257 -2.50417e-06
-3.21545e-06 -2.50417e-06 2.10545e-05
0.000624375 0.000227415 2.67974e-06
0.000227415 -3.35711e-05 4.10101e-06
2.67974e-06 4.10101e-06 -0.00015729
0.00131956 0.000328274 2.66052e-06
0.000328274 0.000217329 -4.66224e-07
2.66052e-06 -4.66224e-07 4.02828e-05
0.00229913 0.000468324 2.93261e-06
0.000468324 0.000562187 6.81195e-06
2.93261e-06 6.81195e-06 0.000397453
0.00166639 0.000449036 2.26517e-07
0.000449036 0.000118217 -5.15833e-07
2.26517e-07 -5.15833e-07 -6.44313e-05
0.00159326 0.000417142 3.36752e-06
0.000417142 9.21599e-05 8.88283e-06
3.36752e-06 8.88283e-06 -3.09603e-05
0.00116645 0.000448868 -2.42634e-06
0.000448868 -0.000132219 -3.09556e-06
-2.42634e-06 -3.09556e-06 -0.000301864
0.000588183 0.000359827 2.5992e-07
0.000359827 -0.00031332 3.18024e-06
2.5992e-07 3.18024e-06 -0.000470447
0.00123617 0.000316274 2.31619e-05
0.000316274 -0.000263813 2.6767e-05
2.31619e-05 2.6767e-05 -0.000230426
0.00510743 0.000668449 -4.4013e-05
0.000668449 7.69203e-05 -1.10372e-05
-4.4013e-05 -1.10372e-05 0.000106145
0.00201566 0.000278125 0.00024092
0.000278125 -0.00167297 2.66965e-05
0.00024092 2.66965e-05 -0.00327002
0.000712479 0.000746963 -6.30931e-07
0.000746963 -0.00110063 -1.66409e-05
-6.30931e-07 -1.66409e-05 -0.00133816
0.00238666 0.000644334 -2.52123e-05
0.000644334 0.000257911 -2.19981e-06
-2.52123e-05 -2.19981e-06 0.00021655
0.00212985 0.000610899 -5.34367e-05
0.000610899 0.000314219 -2.07847e-05
-5.34367e-05 -2.07847e-05 0.000152438
0.00236112 -0.000174905 2.37464e-06
-0.000174905 0.000125441 -1.36003e-06
2.37464e-06 -1.36003e-06 8.6503e-05
0.00113711 -3.12807e-05 1.55551e-06
-3.12807e-05 -0.000248323 5.28977e-06
1.55551e-06 5.28977e-06 -0.000431793
0.000930892 0.000632491 8.50337e-05
0.000632491 -0.0027717 -2.52061e-05
8.50337e-05 -2.52061e-05 -0.00336675
4.47383e-06 -0.000222604 -1.43176e-05
-0.000222604 -0.000885915 2.68103e-05
-1.43176e-05 2.68103e-05 -0.000893457
0.00315521 -0.000103051 -2.73265e-05
-0.000103051 -0.000177299 3.48172e-05
-2.73265e-05 3.48172e-05 -0.000490858
0.00211289 -0.000247521 -1.25538e-05
-0.000247521 -6.7756e-06 4.54692e-06
-1.25538e-05 4.54692e-06 6.68836e-05
0.00290543 -0.000120025 -5.04768e-06
-0.000120025 0.00046499 -2.86182e-06
-5.04768e-06 -2.86182e-06 0.000418586
0.00157265 -0.000142252 2.80717e-05
-0.000142252 -0.000287348 -8.75821e-07
2.80717e-05 -8.75821e-07 -0.000189597
0.00300792 -5.96449e-05 2.34363e-05
-5.96449e-05 0.000840905 1.61108e-06
2.34363e-05 1.61108e-06 0.000799844
0.00122545 -0.000307499 -1.48943e-05
-0.000307499 -0.000426269 7.35412e-06
-1.48943e-05 7.35412e-06 -0.000395766
0.00174944 -0.00022865 8.84454e-07
-0.00022865 -0.000204356 2.14345e-06
8.84454e-07 2.14345e-06 -0.000129805
0.00192391 -0.000231367 1.83357e-06
-0.000231367 -2.79808e-05 4.26946e-07
1.83357e-06 4.26946e-07 1.03752e-05
0.00181127 -0.000301162 2.06547e-06
-0.000301162 -5.13264e-05 1.56176e-06
2.06547e-06 1.56176e-06 -0.000107034
0.00185779 -0.000252764 4.23736e-07
-0.000252764 2.86026e-05 1.03256e-07
4.23736e-07 1.03256e-07 -1.01989e-05
0.00191004 -0.000233167 -6.50952e-07
-0.000233167 9.91674e-05 1.01602e-06
-6.50952e-07 1.01602e-06 4.01293e-05
0.00193083 -0.000279041 1.27461e-06
-0.000279041 0.000123187 7.76687e-07
1.27461e-06 7.76687e-07 3.97325e-05
0.00185549 -0.000248546 -6.4671e-07
-0.000248546 0.000115112 4.25646e-08
-6.4671e-07 4.25646e-08 3.3691e-05
0.00170585 -0.000219519 1.13018e-06
-0.000219519 7.45932e-05 2.31698e-07
1.13018e-06 2.31698e-07 -2.27838e-05
0.00163435 -0.000248194 -7.14881e-07
-0.000248194 3.1968e-05 1.70967e-06
-7.14881e-07 1.70967e-06 -6.63746e-05
0.00170299 -0.000243017 6.18005e-07
-0.000243017 0.000101318 -7.09843e-07
6.18005e-07 -7.09843e-07 -1.05494e-05
0.00169681 -0.000228371 1.99675e-06
-0.000228371 0.000121076 -1.84702e-06
1.99675e-06 -1.84702e-06 -1.27555e-05
0.00188254 -0.000247568 -5.02468e-06
-0.000247568 0.000225513 4.85609e-06
-5.02468e-06 4.85609e-06 0.000103948
0.00181564 -0.000242018 -1.09807e-06
-0.000242018 0.00022192 2.03848e-07
-1.09807e-06 2.03848e-07 7.52035e-05
0.00160047 -0.000214871 -1.86299e-06
-0.000214871 0.000159391 -5.69986e-07
-1.86299e-06 -5.69986e-07 -2.15633e-06
0.00174598 -0.000266999 2.68689e-06
-0.000266999 0.000206169 1.37811e-06
2.68689e-06 1.37811e-06 3.38003e-05
0.00163337 -0.000242381 1.01019e-06
-0.000242381 0.000203957 -6.24833e-07
1.01019e-06 -6.24833e-07 2.90318e-05
0.00126656 -0.000190466 -7.20203e-06
-0.000190466 7.9622e-05 2.26207e-06
-7.20203e-06 2.26207e-06 -8.53763e-05
0.000975614 -0.00016479 -1.1375e-05
-0.00016479 2.62171e-05 5.48257e-06
-1.1375e-05 5.48257e-06 -0.000117932
0.00113777 -0.000206118 -2.14833e-06
-0.000206118 3.53913e-05 4.50914e-07
-2.14833e-06 4.50914e-07 -0.000140036
0.00154177 -0.000271569 3.50068e-06
-0.000271569 0.000197309 -5.61869e-07
3.50068e-06 -5.61869e-07 8.49933e-07
0.000540066 -0.000161825 -2.0541e-05
-0.000161825 -8.63802e-05 1.34482e-05
-2.0541e-05 1.34482e-05 -0.000171261
0.000897342 -0.000167327 6.33256e-07
-0.000167327 2.61986e-05 4.63159e-07
6.33256e-07 4.63159e-07 -0.000126128
0.00124137 -0.000227957 7.00265e-06
-0.000227957 0.000139453 -2.02865e-06
7.00265e-06 -2.02865e-06 -4.73059e-05
0.00469276 0.000188614 -0.000122077
0.000188614 0.00244078 6.98015e-06
-0.000122077 6.98015e-06 0.00241915
0.000594657 -0.000128743 -1.03476e-07
-0.000128743 -3.75241e-05 1.44164e-08
-1.03476e-07 1.44164e-08 -0.000115147
0.000867552 -0.000165791 7.80958e-06
-0.000165791 7.6504e-05 -5.72659e-06
7.80958e-06 -5.72659e-06 -7.85823e-05
0.0043033 0.000145543 7.01331e-06
0.000145543 0.00219947 7.90676e-07
7.01331e-06 7.90676e-07 0.00218979
0.000729214 -8.396e-05 1.44762e-05
-8.396e-05 5.43198e-05 -1.16897e-05
1.44762e-05 -1.16897e-05 -1.1291e-05
0.00384599 0.000109636 0.000120534
0.000109636 0.00192436 -5.9124e-06
0.000120534 -5.9124e-06 0.00192401
0.00109878 0.00024962 -4.48215e-06
0.00024962 3.95629e-05 -1.07721e-06
-4.48215e-06 -1.07721e-06 -0.000165831
0.00117103 0.00024072 -1.07466e-06
0.00024072 0.000202177 -2.86181e-07
-1.07466e-06 -2.86181e-07 -2.84561e-06
0.00105189 0.00020112 -2.42625e-06
0.00020112 0.000186008 -2.68412e-06
-2.42625e-06 -2.68412e-06 1.81481e-06
0.00164034 0.000257896 -2.22593e-06
0.000257896 0.000573406 2.65353e-06
-2.22593e-06 2.65353e-06 0.000385548
0.000851876 0.000145191 -1.14305e-06
0.000145191 0.000127585 -1.95171e-06
-1.14305e-06 -1.95171e-06 -2.81837e-05
0.000877545 0.000115961 -3.63622e-06
0.000115961 0.000165639 -4.63243e-06
-3.63622e-06 -4.63243e-06 3.8293e-05
0.000564443 7.344e-05 -1.72979e-07
7.344e-05 -1.82066e-05 2.87987e-07
-1.72979e-07 2.87987e-07 -0.000145359
0.000660918 2.43312e-05 -6.07471e-07
2.43312e-05 3.78731e-05 -1.25106e-07
-6.07471e-07 -1.25106e-07 -6.15602e-05
0.000584659 -2.42555e-05 -4.06239e-06
-2.42555e-05 -1.28933e-06 -8.25665e-06
-4.06239e-06 -8.25665e-06 -4.43276e-05
0.000575798 -1.68191e-05 1.05362e-06
-1.68191e-05 -1.09613e-05 3.88711e-06
1.05362e-06 3.88711e-06 -9.63659e-05
0.00052278 -4.25899e-05 3.9363e-07
-4.25899e-05 -3.67372e-05 -1.55436e-07
3.9363e-07 -1.55436e-07 -7.4535e-05
0.00299251 -0.000125601 -6.78746e-05
-0.000125601 0.00142744 -2.16851e-06
-6.78746e-05 -2.16851e-06 0.00142604
0.000503544 -3.81248e-05 2.02971e-06
-3.81248e-05 -5.55643e-05 6.61695e-06
2.02971e-06 6.61695e-06 -8.82127e-05
0.00283005 -0.00011783 -2.72034e-06
-0.00011783 0.00132507 3.20495e-07
-2.72034e-06 3.20495e-07 0.0013253
0.00275469 -0.000104824 4.35808e-05
-0.000104824 0.00127253 3.54747e-06
4.35808e-05 3.54747e-06 0.00127561
0.000330587 4.57155e-05 1.45586e-05
4.57155e-05 -0.000854151 8.1709e-06
1.45586e-05 8.1709e-06 -0.000815557
0.00438786 1.91994e-05 4.91253e-05
1.91994e-05 0.000277828 3.09839e-06
4.91253e-05 3.09839e-06 0.000202576
0.00996387 0.000567174 -8.12926e-05
0.000567174 0.00284612 -3.15683e-05
-8.12926e-05 -3.15683e-05 0.00173011
0.000405474 0.000224399 1.82475e-06
0.000224399 -0.000421296 2.149e-06
1.82475e-06 2.149e-06 -0.000609403
0.00171571 0.000332891 1.91325e-06
0.000332891 0.000245237 3.08134e-06
1.91325e-06 3.08134e-06 4.64529e-05
0.00113457 0.000289132 -1.75484e-06
0.000289132 1.34954e-05 2.15552e-07
-1.75484e-06 2.15552e-07 -0.000206877
0.00120315 0.000256439 -1.40824e-06
0.000256439 0.000328786 1.50134e-06
-1.40824e-06 1.50134e-06 0.000139545
0.000966583 0.000257517 -1.53278e-06
0.000257517 6.52834e-05 -5.4489e-07
-1.53278e-06 -5.4489e-07 -0.000152442
0.00137564 0.000325568 8.16318e-06
0.000325568 0.000233231 1.10612e-06
8.16318e-06 1.10612e-06 4.01467e-05
0.0020488 0.000443805 -4.95237e-06
0.000443805 0.000323693 -2.74687e-06
-4.95237e-06 -2.74687e-06 0.000133918
0.00220071 0.000407223 -3.62325e-06
0.000407223 0.000700376 1.06895e-06
-3.62325e-06 1.06895e-06 0.000511832
0.00130295 0.000388839 1.06433e-05
0.000388839 1.82904e-05 1.89082e-05
1.06433e-05 1.89082e-05 -0.000135397
0.00212636 0.000478935 -2.69319e-06
0.000478935 0.000372649 4.48048e-07
-2.69319e-06 4.48048e-07 0.000189407
0.00198728 0.000429782 -1.27238e-05
0.000429782 0.000196855 1.62767e-06
-1.27238e-05 1.62767e-06 4.19957e-05
0.000705117 0.000207529 1.34831e-05
0.000207529 -0.000468839 6.4432e-06
1.34831e-05 6.4432e-06 -0.000513502
0.00113444 0.000382678 9.47056e-06
0.000382678 -0.000141344 9.13737e-08
9.47056e-06 9.13737e-08 -0.000263256
0.00111729 0.000438965 -6.93936e-06
0.000438965 -0.000166498 -7.04146e-06
-6.93936e-06 -7.04146e-06 -0.000335893
0.00165567 0.000321692 3.00522e-06
0.000321692 -5.17801e-05 5.44311e-06
3.00522e-06 5.44311e-06 -4.80875e-05
0.00520315 0.000439832 3.11955e-05
0.000439832 0.000102153 -1.56138e-05
3.11955e-05 -1.56138e-05 -6.70714e-05
0.00251383 0.000569067 1.15657e-05
0.000569067 0.000566853 -2.48939e-05
1.15657e-05 -2.48939e-05 0.000527508
0.0015071 -4.03742e-05 2.38693e-05
-4.03742e-05 2.10014e-05 -6.05502e-07
2.38693e-05 -6.05502e-07 8.22618e-06
0.00212841 -0.00011034 -2.27325e-05
-0.00011034 5.0817e-05 -5.88258e-07
-2.27325e-05 -5.88258e-07 1.17278e-05
0.00135859 0.00016187 2.76649e-05
0.00016187 -0.00064894 -5.95104e-06
2.76649e-05 -5.95104e-06 -0.000876874
0.000374603 -0.000179011 -2.81357e-05
-0.000179011 -0.000897847 2.17217e-05
-2.81357e-05 2.17217e-05 -0.000813225
0.00312434 -0.000177898 -8.98499e-05
-0.000177898 0.000535716 -3.29196e-07
-8.98499e-05 -3.29196e-07 0.000510569
0.00189919 -0.000172703 2.5402e-06
-0.000172703 -7.40435e-05 -2.25873e-06
2.5402e-06 -2.25873e-06 1.74462e-05
0.00228605 -6.69741e-05 -8.76581e-06
-6.69741e-05 0.000378648 2.49258e-07
-8.76581e-06 2.49258e-07 0.000339421
0.0019877 -0.000173125 2.28051e-06
-0.000173125 4.37425e-06 1.38815e-06
2.28051e-06 1.38815e-06 1.45684e-05
0.00215583 -2.80405e-05 4.28954e-06
-2.80405e-05 0.000149972 2.07301e-07
4.28954e-06 2.07301e-07 0.000125492
0.00174194 -0.000241014 -6.30542e-06
-0.000241014 -0.000232354 2.44402e-06
-6.30542e-06 2.44402e-06 -0.000166139
0.00193743 -0.000227066 -1.84008e-06
-0.000227066 -1.16379e-05 -4.22049e-08
-1.84008e-06 -4.22049e-08 1.9339e-05
0.00194675 -0.000187777 -2.27404e-06
-0.000187777 3.25156e-05 3.34432e-07
-2.27404e-06 3.34432e-07 5.54619e-06
0.00186922 -0.000261361 -1.70817e-06
-0.000261361 3.11752e-05 -9.90967e-07
-1.70817e-06 -9.90967e-07 -1.2791e-05
0.00181314 -0.000228004 1.59602e-07
-0.000228004 5.16219e-05 -2.482e-07
1.59602e-07 -2.482e-07 -1.20219e-05
0.00188471 -0.000202099 -2.53257e-07
-0.000202099 0.000119873 2.66179e-07
-2.53257e-07 2.66179e-07 3.75204e-05
0.00175527 -0.00025142 -2.0422e-06
-0.00025142 6.08258e-05 -7.25493e-07
-2.0422e-06 -7.25493e-07 -2.31453e-05
0.00174167 -0.000220553 3.26778e-07
-0.000220553 9.31745e-05 -8.15258e-08
3.26778e-07 -8.15258e-08 -4.30297e-06
0.00173497 -0.000206389 1.79466e-06
-0.000206389 0.00010507 -8.55332e-07
1.79466e-06 -8.55332e-07 -1.42681e-05
0.00172962 -0.000244244 -2.08301e-06
-0.000244244 0.000118945 2.20294e-07
-2.08301e-06 2.20294e-07 6.84178e-06
0.00172348 -0.000228804 -5.39982e-08
-0.000228804 0.000137411 -3.23698e-07
-5.39982e-08 -3.23698e-07 3.68335e-06
0.00158613 -0.00019871 -7.81682e-07
-0.00019871 0.000124649 -5.21768e-07
-7.81682e-07 -5.21768e-07 -2.78582e-05
0.00187108 -0.000243219 -1.65841e-06
-0.000243219 0.000251411 3.09614e-06
-1.65841e-06 3.09614e-06 0.000107764
0.0016054 -0.000215612 -5.74863e-07
-0.000215612 0.000162352 -1.29205e-07
-5.74863e-07 -1.29205e-07 1.70521e-06
0.00127225 -0.000170497 -6.5402e-06
-0.000170497 6.43088e-05 1.99368e-06
-6.5402e-06 1.99368e-06 -9.40231e-05
0.00157433 -0.000240314 4.61866e-06
-0.000240314 0.000169615 -2.35621e-07
4.61866e-06 -2.35621e-07 -6.22847e-06
0.00122258 -0.000188862 -8.325e-08
-0.000188862 5.37721e-05 -3.15768e-08
-8.325e-08 -3.15768e-08 -0.000111453
0.000995883 -0.000148892 -1.22253e-05
-0.000148892 1.77641e-05 5.88546e-06
-1.22253e-05 5.88546e-06 -0.000119324
0.000467472 -0.000157216 -1.9783e-05
-0.000157216 -0.000138966 1.2715e-05
-1.9783e-05 1.2715e-05 -0.000226825
0.000946439 -0.000162263 1.39657e-07
-0.000162263 1.01831e-05 -1.05152e-07
1.39657e-07 -1.05152e-07 -0.000133798
0.00130106 -0.000216895 5.34483e-06
-0.000216895 0.000130469 -1.85166e-06
5.34483e-06 -1.85166e-06 -4.59444e-05
0.00517844 0.000151463 -0.000147275
0.000151463 0.00271051 8.10069e-06
-0.000147275 8.10069e-06 0.00269523
0.000578418 -0.000153654 -2.0252e-06
-0.000153654 -6.77471e-05 5.35236e-07
-2.0252e-06 5.35236e-07 -0.00015176
0.000846427 -0.000166484 9.79583e-06
-0.000166484 3.2207e-07 -5.14721e-06
9.79583e-06 -5.14721e-06 -0.000152234
0.00487809 0.000159258 1.0164e-05
0.000159258 0.00254111 1.15882e-06
1.0164e-05 1.15882e-06 0.00252445
0.000729651 -0.000132755 1.91022e-05
-0.000132755 3.54707e-05 -1.30508e-05
1.91022e-05 -1.30508e-05 -4.30108e-05
0.00447861 0.000121675 0.00014146
0.000121675 0.0022956 -7.88802e-06
0.00014146 -7.88802e-06 0.00228958
0.00144639 0.000274783 -3.87042e-06
0.000274783 0.000185882 1.07456e-06
-3.87042e-06 1.07456e-06 -1.34928e-05
0.00111978 0.000250827 2.15807e-08
0.000250827 4.82518e-05 8.26276e-07
2.15807e-08 8.26276e-07 -0.000157914
0.00101998 0.000208326 -5.9878e-06
0.000208326 6.79264e-05 -1.44314e-06
-5.9878e-06 -1.44314e-06 -0.000120204
0.00118707 0.000241155 -5.86469e-07
0.000241155 0.000216335 2.27522e-06
-5.86469e-07 2.27522e-06 1.13377e-05
0.00102598 0.000197888 -1.4579e-06
0.000197888 0.000173783 3.1728e-07
-1.4579e-06 3.1728e-07 -1.01881e-05
0.00091519 0.000155787 -5.70032e-06
0.000155787 0.000158516 -5.40224e-06
-5.70032e-06 -5.40224e-06 1.05721e-05
0.000963001 0.00015477 -4.04961e-07
0.00015477 0.000192507 5.74826e-07
-4.04961e-07 5.74826e-07 3.59616e-05
0.000738025 9.06197e-05 -2.44212e-07
9.06197e-05 8.67929e-05 -2.54569e-07
-2.44212e-07 -2.54569e-07 -3.73589e-05
0.000681854 2.13855e-05 -8.84024e-06
2.13855e-05 4.82161e-05 -1.00216e-05
-8.84024e-06 -1.00216e-05 -5.37382e-06
0.000601453 -7.12835e-06 9.74188e-07
-7.12835e-06 3.17404e-06 3.83445e-06
9.74188e-07 3.83445e-06 -9.30378e-05
0.000514248 -3.24594e-05 -8.01976e-08
-3.24594e-05 -3.99643e-05 -2.51286e-07
-8.01976e-08 -2.51286e-07 -8.32153e-05
0.00326982 -0.000128143 -8.87969e-05
-0.000128143 0.0015951 -2.36756e-06
-8.87969e-05 -2.36756e-06 0.00159253
0.000480071 -4.3658e-05 1.73762e-06
-4.3658e-05 -6.10906e-05 7.26236e-06
1.73762e-06 7.26236e-06 -9.87192e-05
0.00294961 -0.00013043 -2.60115e-06
-0.00013043 0.00140294 3.1526e-07
-2.60115e-06 3.1526e-07 0.00140006
0.00282007 -0.000117675 4.9805e-05
-0.000117675 0.0013188 3.04538e-06
4.9805e-05 3.04538e-06 0.00131891
0.000669925 5.16597e-05 1.51299e-05
5.16597e-05 -0.000493323 -5.08367e-06
1.51299e-05 -5.08367e-06 -0.000474828
0.00190354 1.19221e-05 -6.51164e-06
1.19221e-05 -0.00018756 -5.07588e-07
-6.51164e-06 -5.07588e-07 -0.000143127
0.00421054 1.97496e-05 0.000131036
1.97496e-05 -0.000105306 2.96007e-05
0.000131036 2.96007e-05 0.000145009
0.0020072 0.000384947 -1.53739e-06
0.000384947 0.000322916 1.59359e-06
-1.53739e-06 1.59359e-06 0.000134821
0.000919047 0.000287616 1.575e-06
0.000287616 -0.000140122 -1.5113e-06
1.575e-06 -1.5113e-06 -0.000337886
0.00192913 0.00032935 -1.69292e-07
0.00032935 0.000253492 3.28617e-06
-1.69292e-07 3.28617e-06 8.06075e-05
0.00172738 0.000333379 9.90085e-07
0.000333379 0.000252026 3.60236e-07
9.90085e-07 3.60236e-07 5.36591e-05
0.000930104 0.000280297 4.7992e-07
0.000280297 -0.000105412 -1.03133e-06
4.7992e-07 -1.03133e-06 -0.000324338
0.00186037 0.000357524 -3.32946e-06
0.000357524 0.000112596 1.58291e-06
-3.32946e-06 1.58291e-06 -4.22618e-05
0.00210068 0.00039331 -3.7409e-06
0.00039331 0.00062446 -6.22305e-07
-3.7409e-06 -6.22305e-07 0.000419335
0.0020747 0.000440079 1.57993e-09
0.000440079 0.000345591 -9.80694e-07
1.57993e-09 -9.80694e-07 0.000154732
0.00180823 0.000252598 -7.87424e-06
0.000252598 8.72642e-06 -6.76675e-08
-7.87424e-06 -6.76675e-08 -9.06282e-05
0.00257851 0.000509377 4.87822e-06
0.000509377 0.000623262 3.56456e-06
4.87822e-06 3.56456e-06 0.000439345
0.00193837 0.000428397 -1.50873e-06
0.000428397 0.000163231 2.60172e-07
-1.50873e-06 2.60172e-07 6.50363e-06
0.000878729 0.000220865 3.05358e-06
0.000220865 -0.00034061 2.58525e-06
3.05358e-06 2.58525e-06 -0.000395006
-0.000120138 0.000300284 6.97018e-07
0.000300284 -0.000786533 -3.93326e-06
6.97018e-07 -3.93326e-06 -0.00090321
0.00173127 0.000323567 -4.31972e-05
0.000323567 -2.81578e-05 -2.06958e-05
-4.31972e-05 -2.06958e-05 -4.22119e-05
0.00178718 3.44013e-05 1.51924e-06
3.44013e-05 -5.94014e-05 -1.74943e-06
1.51924e-06 -1.74943e-06 -8.68021e-05
0.00210132 -2.88197e-05 4.67105e-07
-2.88197e-05 0.000377406 2.94539e-06
4.67105e-07 2.94539e-06 0.000369478
0.00146117 -2.30915e-05 -5.93434e-05
-2.30915e-05 -0.00022993 -7.30094e-06
-5.93434e-05 -7.30094e-06 -0.000330588
0.00220743 -0.000200923 -2.93571e-05
-0.000200923 0.000126234 1.19119e-06
-2.93571e-05 1.19119e-06 0.000208615
0.00129601 -7.16794e-05 -7.47618e-06
-7.16794e-05 -0.000233063 -7.78591e-08
-7.47618e-06 -7.78591e-08 -0.000268464
0.00192186 -0.000165978 3.0762e-07
-0.000165978 -3.17662e-05 -4.87203e-07
3.0762e-07 -4.87203e-07 -1.46416e-05
0.00203108 -2.86558e-05 -3.60339e-06
-2.86558e-05 5.62141e-05 7.74193e-07
-3.60339e-06 7.74193e-07 3.76355e-05
0.00204293 -6.08219e-05 -5.43694e-06
-6.08219e-05 5.5584e-05 -5.05814e-07
-5.43694e-06 -5.05814e-07 3.95699e-05
0.00194393 -0.000221843 -3.59954e-06
-0.000221843 3.53968e-06 -7.11371e-07
-3.59954e-06 -7.11371e-07 2.65305e-05
0.00192396 -0.000179751 4.64264e-07
-0.000179751 3.04934e-05 -1.63848e-07
4.64264e-07 -1.63848e-07 1.36309e-06
0.00199076 -0.00014672 -6.4947e-07
-0.00014672 0.000103124 -2.70653e-07
-6.4947e-07 -2.70653e-07 5.29174e-05
0.00171914 -0.000223381 4.07164e-08
-0.000223381 5.183e-06 -1.201e-06
4.07164e-08 -1.201e-06 -6.30992e-05
0.00179606 -0.000198407 -2.89398e-08
-0.000198407 7.16819e-05 -8.71205e-08
-2.89398e-08 -8.71205e-08 -1.16384e-05
0.00175474 -0.000168315 1.24833e-06
-0.000168315 7.7961e-05 -3.86534e-07
1.24833e-06 -3.86534e-07 -2.78146e-05
0.00178372 -0.000221759 -3.83596e-07
-0.000221759 0.000114559 -3.02401e-07
-3.83596e-07 -3.02401e-07 1.69877e-05
0.00176179 -0.000206234 2.46282e-08
-0.000206234 0.000122065 -1.57535e-07
2.46282e-08 -1.57535e-07 2.83138e-06
0.00164795 -0.000179766 2.10996e-07
-0.000179766 0.000124639 -5.26898e-07
2.10996e-07 -5.26898e-07 -1.75916e-05
0.00175014 -0.000229309 -1.5455e-06
-0.000229309 0.000153563 1.06179e-06
-1.5455e-06 1.06179e-06 1.99251e-05
0.00160038 -0.000199029 -2.23319e-07
-0.000199029 0.000132238 -2.27761e-08
-2.23319e-07 -2.27761e-08 -1.99495e-05
0.00131506 -0.000153968 -5.39176e-06
-0.000153968 7.1416e-05 1.71004e-06
-5.39176e-06 1.71004e-06 -8.22877e-05
0.00160805 -0.000216158 1.48036e-06
-0.000216158 0.000163893 5.55726e-07
1.48036e-06 5.55726e-07 4.17864e-06
0.00130775 -0.000172149 -2.27646e-07
-0.000172149 8.33375e-05 4.62702e-08
-2.27646e-07 4.62702e-08 -7.48581e-05
0.00102105 -0.000132631 -1.29595e-05
-0.000132631 1.73496e-05 5.40005e-06
-1.29595e-05 5.40005e-06 -0.000115789
0.00118018 -0.000187413 6.51743e-06
-0.000187413 2.89317e-05 -1.88853e-06
6.51743e-06 -1.88853e-06 -0.000136543
0.000993068 -0.000147329 2.56336e-07
-0.000147329 1.56816e-05 5.96703e-08
2.56336e-07 5.96703e-08 -0.000121112
0.00236105 -9.7178e-05 -2.53106e-05
-9.7178e-05 0.000964528 7.92958e-06
-2.53106e-05 7.92958e-06 0.000890699
0.00165008 -3.9109e-05 -0.00016788
-3.9109e-05 0.000610349 1.74752e-05
-0.00016788 1.74752e-05 0.000592337
0.00151398 -0.000134448 -3.81695e-06
-0.000134448 0.000471053 -2.92751e-07
-3.81695e-06 -2.92751e-07 0.000388046
0.000927312 -0.00016053 1.1092e-05
-0.00016053 5.70752e-08 -5.54705e-06
1.1092e-05 -5.54705e-06 -0.000143885
0.00530083 0.000122314 -1.63419e-06
0.000122314 0.00278148 -3.73539e-07
-1.63419e-06 -3.73539e-07 0.00276716
0.000644681 -0.000172421 2.12676e-05
-0.000172421 -2.82566e-05 -1.31133e-05
2.12676e-05 -1.31133e-05 -0.00011626
0.00503647 0.000124915 0.000159695
0.000124915 0.00262939 -1.16242e-05
0.000159695 -1.16242e-05 0.00261559
0.00189478 0.000264773 1.16353e-06
0.000264773 0.000200591 6.75593e-07
1.16353e-06 6.75593e-07 4.80804e-05
0.00157712 0.000277277 6.88879e-07
0.000277277 0.000168768 2.55714e-06
6.88879e-07 2.55714e-06 -1.44649e-05
0.00154299 0.000286612 -3.59529e-07
0.000286612 0.000237515 -2.94355e-07
-3.59529e-07 -2.94355e-07 3.70829e-05
0.00121176 0.000222233 -6.9243e-06
0.000222233 9.61806e-05 -1.66191e-06
-6.9243e-06 -1.66191e-06 -8.48262e-05
0.00116461 0.000253936 4.32249e-06
0.000253936 7.18163e-05 7.54605e-07
4.32249e-06 7.54605e-07 -0.000135481
0.00111627 0.000215769 -7.16209e-07
0.000215769 0.000124977 6.74001e-07
-7.16209e-07 6.74001e-07 -6.45195e-05
0.000863042 0.000165157 -8.4506e-06
0.000165157 5.78671e-05 -4.7381e-06
-8.4506e-06 -4.7381e-06 -9.66552e-05
0.00103001 0.000196984 1.45493e-06
0.000196984 0.000179109 4.32428e-06
1.45493e-06 4.32428e-06 -5.02218e-06
0.000802549 0.000140811 -2.39242e-07
0.000140811 9.43648e-05 7.87005e-08
-2.39242e-07 7.87005e-08 -5.11132e-05
0.000781463 9.69262e-05 -1.48359e-05
9.69262e-05 9.20327e-05 -1.23481e-05
-1.48359e-05 -1.23481e-05 2.124e-05
0.000630466 6.53008e-05 1.74917e-06
6.53008e-05 2.22246e-05 3.4857e-06
1.74917e-06 3.4857e-06 -9.6192e-05
0.000531781 9.20011e-06 -7.71068e-07
9.20011e-06 -3.6273e-05 -4.78521e-07
-7.71068e-07 -4.78521e-07 -8.78593e-05
0.00372448 -0.000123184 -0.000116786
-0.000123184 0.00186543 -4.48773e-06
-0.000116786 -4.48773e-06 0.0018611
0.000435395 -4.05588e-05 1.63306e-06
-4.05588e-05 -8.25608e-05 8.19479e-06
1.63306e-06 8.19479e-06 -0.000126539
0.00316682 -0.000142237 -3.53668e-06
-0.000142237 0.00153725 3.4592e-07
-3.53668e-06 3.4592e-07 0.00153111
0.00290989 -0.000131109 5.58647e-05
-0.000131109 0.00137962 2.44104e-06
5.58647e-05 2.44104e-06 0.00137639
0.00180344 0.000139279 -1.64782e-06
0.000139279 -4.40897e-05 -8.36372e-07
-1.64782e-06 -8.36372e-07 -0.00010097
0.00194534 4.30175e-05 1.43714e-05
4.30175e-05 0.000178734 2.30868e-06
1.43714e-05 2.30868e-06 0.000187455
0.00403144 -1.19657e-05 -8.74225e-05
-1.19657e-05 0.000754611 -1.37995e-05
-8.74225e-05 -1.37995e-05 0.0008121
0.00173744 0.00030934 -2.67676e-06
0.00030934 6.12011e-05 1.24086e-06
-2.67676e-06 1.24086e-06 -8.90302e-05
0.00174858 0.00036375 -6.65967e-07
0.00036375 0.000191688 -1.38494e-07
-6.65967e-07 -1.38494e-07 4.85855e-06
0.00148735 0.000354652 -1.84768e-05
0.000354652 0.000173005 -6.9565e-06
-1.84768e-05 -6.9565e-06 -3.47067e-05
0.00194622 0.000319585 2.43851e-06
0.000319585 0.000269172 7.85394e-07
2.43851e-06 7.85394e-07 9.8194e-05
0.00174858 0.000334145 -1.42326e-06
0.000334145 0.000265439 -2.32898e-06
-1.42326e-06 -2.32898e-06 6.74145e-05
0.00216461 0.000249792 6.55502e-07
0.000249792 0.00022651 1.23221e-06
6.55502e-07 1.23221e-06 0.00012767
0.00171746 0.000351138 -1.4949e-06
0.000351138 4.31529e-05 8.16521e-07
-1.4949e-06 8.16521e-07 -0.000112765
0.00212479 0.000438215 8.22375e-07
0.000438215 0.000380023 -2.78254e-07
8.22375e-07 -2.78254e-07 0.000187781
0.00179252 0.000256304 -9.53702e-07
0.000256304 6.50803e-06 1.68114e-07
-9.53702e-07 1.68114e-07 -9.4749e-05
0.00203859 0.000437245 1.83449e-05
0.000437245 0.000200288 1.3645e-06
1.83449e-05 1.3645e-06 4.06781e-05
0.00139979 0.000240211 -2.10324e-05
0.000240211 -3.78503e-05 -3.99097e-06
-2.10324e-05 -3.99097e-06 -0.000101483
0.00199579 4.59948e-05 -5.26732e-06
4.59948e-05 5.64946e-05 -4.96504e-07
-5.26732e-06 -4.96504e-07 2.12441e-05
0.00189424 4.62791e-05 -2.51347e-06
4.62791e-05 6.37957e-06 3.93574e-07
-2.51347e-06 3.93574e-07 -2.42518e-05
0.00284002 -1.55253e-05 -3.96538e-05
-1.55253e-05 0.000824154 -2.80609e-06
-3.96538e-05 -2.80609e-06 0.000810027
0.00185268 -0.000157448 -7.51587e-06
-0.000157448 -7.5781e-05 -1.71833e-06
-7.51587e-06 -1.71833e-06 -5.18514e-05
0.00193805 -2.86386e-05 4.50911e-06
-2.86386e-05 -1.87835e-05 8.62345e-09
4.50911e-06 8.62345e-09 -3.40999e-05
0.00201063 -6.56464e-05 -2.58312e-07
-6.56464e-05 2.1773e-05 8.81594e-08
-2.58312e-07 8.81594e-08 1.12846e-05
0.0019444 -4.46159e-05 -2.20402e-06
-4.46159e-05 8.62228e-05 -2.02053e-07
-2.20402e-06 -2.02053e-07 4.24211e-05
0.001894 -0.000170701 2.75715e-06
-0.000170701 2.55677e-05 -8.38277e-07
2.75715e-06 -8.38277e-07 -5.66578e-06
0.00185698 -0.000145291 6.53994e-07
-0.000145291 3.58058e-05 -3.85503e-08
6.53994e-07 -3.85503e-08 -2.08888e-05
0.00182555 -0.000117632 3.39225e-06
-0.000117632 9.14786e-05 -1.1883e-06
3.39225e-06 -1.1883e-06 -2.9765e-06
0.00170016 -0.000194529 6.27226e-07
-0.000194529 1.98375e-05 -1.00619e-07
6.27226e-07 -1.00619e-07 -6.45376e-05
0.00179807 -0.000169595 3.56737e-09
-0.000169595 0.000101162 -1.30599e-07
3.56737e-09 -1.30599e-07 -4.57599e-06
0.00171443 -0.000151704 5.96759e-07
-0.000151704 0.000121827 -5.03785e-07
5.96759e-07 -5.03785e-07 -9.73733e-06
0.00178901 -0.000205987 -1.25858e-06
-0.000205987 0.000139477 4.78154e-07
-1.25858e-06 4.78154e-07 2.03692e-05
0.00165627 -0.000179573 -2.4969e-07
-0.000179573 0.000129372 2.07882e-08
-2.4969e-07 2.07882e-08 -1.2594e-05
0.00135947 -0.000134535 -4.55692e-06
-0.000134535 7.68016e-05 1.30136e-06
-4.55692e-06 1.30136e-06 -7.2229e-05
0.00161544 -0.00019939 3.78464e-07
-0.00019939 0.000140434 4.54309e-07
3.78464e-07 4.54309e-07 -1.14313e-05
0.00134021 -0.000154926 -1.40195e-07
-0.000154926 8.34215e-05 9.26219e-08
-1.40195e-07 9.26219e-08 -7.00356e-05
0.00102593 -0.000116515 -1.28103e-05
-0.000116515 9.81371e-06 4.74887e-06
-1.28103e-05 4.74887e-06 -0.000121471
0.00134579 -0.000173988 5.90898e-06
-0.000173988 0.000103756 -1.81412e-06
5.90898e-06 -1.81412e-06 -5.43232e-05
0.00101115 -0.000130203 2.16386e-07
-0.000130203 1.07915e-05 7.04069e-08
2.16386e-07 7.04069e-08 -0.000121767
0.00241676 -0.000106435 -3.28456e-05
-0.000106435 0.000982753 7.13111e-06
-3.28456e-05 7.13111e-06 0.000916106
0.000983148 -0.000145534 1.22402e-05
-0.000145534 9.62887e-06 -5.61253e-06
1.22402e-05 -5.61253e-06 -0.000126877
0.00252937 -0.0001439 3.56427e-05
-0.0001439 0.00105633 -4.25564e-06
3.56427e-05 -4.25564e-06 0.000988848
0.00171855 -7.94028e-05 -0.000171964
-7.94028e-05 0.00065767 2.15115e-05
-0.000171964 2.15115e-05 0.000638456
0.00347628 -1.76612e-06 -0.000169845
-1.76612e-06 0.00170288 9.31668e-06
-0.000169845 9.31668e-06 0.00168737
0.00262107 -0.000194726 0.000106781
-0.000194726 0.00111267 -1.40535e-05
0.000106781 -1.40535e-05 0.00104788
0.00541142 0.000120322 0.000164109
0.000120322 0.0028612 -1.64365e-05
0.000164109 -1.64365e-05 0.00283856
0.00201793 0.000265194 -1.3543e-06
0.000265194 0.000239453 -4.74892e-07
-1.3543e-06 -4.74892e-07 9.96136e-05
0.00155803 0.000232823 2.75536e-06
0.000232823 0.00010682 1.01633e-06
2.75536e-06 1.01633e-06 -5.62943e-05
0.00186998 0.000265178 3.70066e-07
0.000265178 0.000182566 -1.01279e-06
3.70066e-07 -1.01279e-06 3.34936e-05
0.00132745 0.00021615 -6.5843e-06
0.00021615 0.000116134 -1.31371e-06
-6.5843e-06 -1.31371e-06 -5.49167e-05
0.00161904 0.000277421 5.46792e-07
0.000277421 0.000187467 3.82616e-07
5.46792e-07 3.82616e-07 3.66151e-06
0.00163893 0.000298613 2.83492e-06
0.000298613 0.000288477 -4.73677e-07
2.83492e-06 -4.73677e-07 8.69616e-05
0.00118995 0.000219814 1.55943e-08
0.000219814 8.67255e-05 1.40942e-08
1.55943e-08 1.40942e-08 -9.3725e-05
0.000879438 0.000163263 -1.05277e-05
0.000163263 -3.70583e-06 -4.99827e-06
-1.05277e-05 -4.99827e-06 -0.000153056
0.0012114 0.000223254 5.24174e-06
0.000223254 0.000180999 3.0093e-06
5.24174e-06 3.0093e-06 -9.88435e-06
0.000849267 0.000159351 -7.51156e-07
0.000159351 4.76801e-05 5.85783e-07
-7.51156e-07 5.85783e-07 -0.000105813
0.000699071 0.000155565 -2.03722e-05
0.000155565 2.38108e-05 -1.29817e-05
-2.03722e-05 -1.29817e-05 -6.05286e-05
0.000668399 0.000122987 3.21198e-06
0.000122987 1.80186e-05 4.88549e-06
3.21198e-06 4.88549e-06 -0.000124662
0.000558736 7.16524e-05 -5.5264e-07
7.16524e-05 -3.3336e-05 -1.81438e-07
-5.5264e-07 -1.81438e-07 -9.9958e-05
0.00446636 -0.00011485 -0.000148721
-0.00011485 0.00230652 -9.31491e-06
-0.000148721 -9.31491e-06 0.00229606
0.000377689 -1.55908e-05 3.61868e-06
-1.55908e-05 -0.000119296 9.43325e-06
3.61868e-06 9.43325e-06 -0.000171014
0.00358479 -0.000153387 -6.21135e-06
-0.000153387 0.00178929 4.32716e-07
-6.21135e-06 4.32716e-07 0.00177914
0.00309509 -0.000146746 6.36545e-05
-0.000146746 0.00149595 1.9117e-06
6.36545e-05 1.9117e-06 0.00148855
0.00186396 0.00014604 -1.17333e-06
0.00014604 1.44147e-06 5.64176e-07
-1.17333e-06 5.64176e-07 -6.50784e-05
0.00182793 0.000137891 6.73463e-07
0.000137891 -2.95628e-05 -2.83563e-07
6.73463e-07 -2.83563e-07 -8.58785e-05
0.00279842 3.56817e-05 -5.69225e-05
3.56817e-05 0.00062884 -5.63556e-06
-5.69225e-05 -5.63556e-06 0.000639308
0.00199106 0.000221828 1.79627e-06
0.000221828 0.000155353 1.17994e-06
1.79627e-06 1.17994e-06 4.63091e-05
0.0017255 0.000303704 -5.70289e-07
0.000303704 6.77597e-05 2.36646e-07
-5.70289e-07 2.36646e-07 -8.17486e-05
0.00148803 0.000342904 -1.22962e-06
0.000342904 5.76838e-05 -2.97179e-06
-1.22962e-06 -2.97179e-06 -0.00012799
0.00196164 0.000309313 -6.79642e-07
0.000309313 0.000284362 -2.43276e-06
-6.79642e-07 -2.43276e-06 0.000115413
0.00198915 0.0002405 -1.07296e-06
0.0002405 0.000125066 -2.51175e-07
-1.07296e-06 -2.51175e-07 2.55478e-05
0.00159318 0.000345117 5.3644e-07
0.000345117 -1.5688e-05 -3.47682e-07
5.3644e-07 -3.47682e-07 -0.000172589
0.00180325 0.000257222 9.9549e-06
0.000257222 3.20129e-05 -5.2228e-07
9.9549e-06 -5.2228e-07 -7.00904e-05
0.00189121 3.89756e-05 -1.25986e-06
3.89756e-05 4.24487e-05 3.63873e-07
-1.25986e-06 3.63873e-07 -6.11023e-06
0.00194824 4.55475e-05 5.16751e-07
4.55475e-05 3.45352e-05 8.67614e-10
5.16751e-07 8.67614e-10 -1.90659e-06
0.00197998 5.71606e-05 -5.85116e-06
5.71606e-05 5.44839e-05 -4.21054e-08
-5.85116e-06 -4.21054e-08 2.30236e-05
0.00164442 -1.33402e-05 -1.73837e-06
-1.33402e-05 -4.01665e-05 -4.73592e-08
-1.73837e-06 -4.73592e-08 -9.82024e-05
0.00197942 -7.43856e-05 5.38926e-06
-7.43856e-05 -1.18045e-05 -3.75034e-08
5.38926e-06 -3.75034e-08 -1.66294e-05
0.00187796 -4.68711e-05 -1.17207e-06
-4.68711e-05 4.37551e-05 6.53296e-07
-1.17207e-06 6.53296e-07 -4.15917e-08
0.00197741 -5.94641e-05 2.95958e-08
-5.94641e-05 0.000178897 -1.18319e-06
2.95958e-08 -1.18319e-06 9.68071e-05
0.00172796 -0.000143961 2.39173e-06
-0.000143961 -2.92536e-05 -3.41568e-07
2.39173e-06 -3.41568e-07 -9.23711e-05
0.00184514 -0.000118228 2.24518e-06
-0.000118228 9.89231e-05 -6.28875e-07
2.24518e-06 -6.28875e-07 4.65578e-06
0.00176252 -0.00010824 1.71484e-06
-0.00010824 0.000120349 -1.07003e-06
1.71484e-06 -1.07003e-06 -1.03676e-06
0.00184973 -0.000170523 -1.21471e-06
-0.000170523 0.000129268 1.62375e-07
-1.21471e-06 1.62375e-07 2.3655e-05
0.00171932 -0.00015014 -1.50651e-07
-0.00015014 0.000126961 -4.82625e-08
-1.50651e-07 -4.82625e-08 -4.29319e-06
0.00140602 -0.000109909 -3.8029e-06
-0.000109909 8.05851e-05 8.56776e-07
-3.8029e-06 8.56776e-07 -6.27779e-05
0.00166391 -0.000179277 -2.03027e-07
-0.000179277 0.000133772 4.76561e-07
-2.03027e-07 4.76561e-07 -7.91703e-06
0.0013652 -0.00013462 -1.43836e-07
-0.00013462 7.71019e-05 1.09348e-07
-1.43836e-07 1.09348e-07 -7.16908e-05
0.00102712 -9.88046e-05 -1.24714e-05
-9.88046e-05 3.09646e-07 3.9029e-06
-1.24714e-05 3.9029e-06 -0.000129372
0.00136198 -0.000155701 5.02219e-06
-0.000155701 9.34592e-05 -1.48292e-06
5.02219e-06 -1.48292e-06 -5.97392e-05
0.00102116 -0.000113804 9.77591e-08
-0.000113804 6.02132e-06 1.84652e-07
9.77591e-08 1.84652e-07 -0.000124521
0.00246065 -0.00011803 -4.05084e-05
-0.00011803 0.00100071 6.79825e-06
-4.05084e-05 6.79825e-06 0.000936338
0.000994967 -0.00012753 1.27782e-05
-0.00012753 5.38986e-07 -5.26261e-06
1.27782e-05 -5.26261e-06 -0.000131394
0.00252615 -0.000139302 3.23597e-05
-0.000139302 0.00104415 -3.64331e-06
3.23597e-05 -3.64331e-06 0.000981531
0.00176535 -6.94682e-05 -0.000168262
-6.94682e-05 0.000680702 1.93725e-05
-0.000168262 1.93725e-05 0.000662167
0.00267192 -0.00016319 0.000106441
-0.00016319 0.00113532 -1.61577e-05
0.000106441 -1.61577e-05 0.00107241
0.001507 -1.49928e-05 -7.85774e-05
-1.49928e-05 0.000542044 8.22607e-06
-7.85774e-05 8.22607e-06 0.000513309
0.00517539 0.000207849 1.87544e-05
0.000207849 0.00271724 -2.73792e-06
1.87544e-05 -2.73792e-06 0.00268362
0.00181894 0.000212723 1.27792e-06
0.000212723 0.000108835 5.68039e-07
1.27792e-06 5.68039e-07 -2.07212e-05
0.00179718 0.000232204 5.32885e-08
0.000232204 0.000201999 -5.14386e-07
5.32885e-08 -5.14386e-07 5.03457e-05
0.00188154 0.00025966 -3.09239e-06
0.00025966 0.000157822 4.09651e-08
-3.09239e-06 4.09651e-08 1.62779e-05
0.00170312 0.000211 -3.93974e-06
0.000211 0.000308519 -8.87681e-07
-3.93974e-06 -8.87681e-07 0.000149211
0.00155839 0.000238016 7.5761e-07
0.000238016 0.000102381 -1.00216e-06
7.5761e-07 -1.00216e-06 -5.96514e-05
0.00184649 0.000265732 -2.46113e-06
0.000265732 0.000165153 -3.06451e-06
-2.46113e-06 -3.06451e-06 1.95434e-05
0.000932847 0.000157515 -1.21858e-05
0.000157515 -1.43894e-05 -5.10994e-06
-1.21858e-05 -5.10994e-06 -0.000156349
0.00125177 0.000210911 1.03133e-07
0.000210911 7.31437e-05 1.99774e-07
1.03133e-07 1.99774e-07 -9.73819e-05
0.00165984 0.000277772 2.63743e-06
0.000277772 0.000204519 -1.1975e-06
2.63743e-06 -1.1975e-06 2.00555e-05
0.00114827 0.000215911 6.88512e-06
0.000215911 6.61898e-05 1.52522e-06
6.88512e-06 1.52522e-06 -0.000113507
0.000904667 0.000164558 -5.52156e-07
0.000164558 9.97514e-06 1.68569e-08
-5.52156e-07 1.68569e-08 -0.000139408
0.000608596 0.000191296 -2.33817e-05
0.000191296 -4.47836e-05 -1.28256e-05
-2.33817e-05 -1.28256e-05 -0.000135027
0.000826787 0.000154141 7.06271e-06
0.000154141 3.27764e-05 5.94533e-06
7.06271e-06 5.94533e-06 -0.000119731
0.000588227 0.000146509 5.36552e-07
0.000146509 -3.54734e-05 4.23537e-07
5.36552e-07 4.23537e-07 -0.000118915
0.00519512 -0.000117322 -0.000161685
-0.000117322 0.00275049 -1.59769e-05
-0.000161685 -1.59769e-05 0.002725
0.000389669 5.6901e-05 1.00263e-05
5.6901e-05 -0.000129062 1.14378e-05
1.00263e-05 1.14378e-05 -0.000191823
0.00423251 -0.000166995 -1.1279e-05
-0.000166995 0.00217898 9.69765e-07
-1.1279e-05 9.69765e-07 0.00216134
0.00342437 -0.000165658 7.59448e-05
-0.000165658 0.00169739 1.78014e-06
7.59448e-05 1.78014e-06 0.00168442
0.00180089 0.000118053 2.98344e-07
0.000118053 8.68088e-06 1.70598e-06
2.98344e-07 1.70598e-06 -6.76039e-05
0.00184937 0.000148082 4.04437e-07
0.000148082 -9.71615e-06 2.87995e-07
4.04437e-07 2.87995e-07 -7.56548e-05
0.00186042 0.000142865 2.57457e-06
0.000142865 -1.53365e-05 9.43384e-07
2.57457e-06 9.43384e-07 -7.29391e-05
0.00195403 0.000217916 6.08248e-07
0.000217916 0.000137612 -9.46911e-08
6.08248e-07 -9.46911e-08 3.06982e-05
0.00170218 0.000297473 -8.12577e-07
0.000297473 6.82898e-05 -1.25472e-06
-8.12577e-07 -1.25472e-06 -8.04445e-05
0.00177355 0.000229839 2.02856e-07
0.000229839 1.87554e-06 -1.24089e-06
2.02856e-07 -1.24089e-06 -9.83331e-05
0.001867 3.93718e-05 3.42462e-07
3.93718e-05 8.95856e-05 1.83633e-07
3.42462e-07 1.83633e-07 2.66518e-05
0.00188987 3.84379e-05 5.86776e-07
3.84379e-05 4.2958e-05 -1.54099e-07
5.86776e-07 -1.54099e-07 -5.09051e-06
0.00191809 4.59211e-05 4.4703e-06
4.59211e-05 2.67375e-05 6.06729e-07
4.4703e-06 6.06729e-07 -1.09651e-05
0.0017569 -1.92925e-05 -2.31286e-06
-1.92925e-05 2.50879e-05 1.20598e-07
-2.31286e-06 1.20598e-07 -3.183e-05
0.00173049 -3.25708e-05 8.67104e-07
-3.25708e-05 5.84891e-05 -8.23415e-07
8.67104e-07 -8.23415e-07 -2.657e-05
0.00180703 -4.89635e-05 7.45602e-07
-4.89635e-05 -1.32041e-06 9.48639e-07
7.45602e-07 9.48639e-07 -4.51518e-05
0.00187464 -5.94896e-05 -1.10193e-06
-5.94896e-05 0.000120111 4.49202e-07
-1.10193e-06 4.49202e-07 3.40252e-05
0.0017999 -6.08078e-05 3.17671e-07
-6.08078e-05 0.000136761 -5.26714e-07
3.17671e-07 -5.26714e-07 2.66005e-05
0.00185599 -0.00011908 1.25395e-06
-0.00011908 0.000101722 -4.03257e-08
1.25395e-06 -4.03257e-08 7.57563e-06
0.00174238 -0.000109334 1.22898e-06
-0.000109334 0.000111233 -5.53074e-07
1.22898e-06 -5.53074e-07 -1.02881e-05
0.00143436 -7.58267e-05 -3.2684e-06
-7.58267e-05 7.35275e-05 1.77034e-07
-3.2684e-06 1.77034e-07 -6.33235e-05
0.00171245 -0.000149994 -5.87795e-07
-0.000149994 0.000124905 3.32494e-07
-5.87795e-07 3.32494e-07 -6.26426e-06
0.00139739 -0.000109365 -4.3559e-08
-0.000109365 7.14742e-05 1.26032e-07
-4.3559e-08 1.26032e-07 -7.17026e-05
0.00101672 -7.6823e-05 -1.21942e-05
-7.6823e-05 -1.55201e-05 3.07529e-06
-1.21942e-05 3.07529e-06 -0.000142685
0.00137747 -0.000134865 4.12019e-06
-0.000134865 8.1034e-05 -1.06417e-06
4.12019e-06 -1.06417e-06 -6.75004e-05
0.00102601 -9.60233e-05 -3.91237e-08
-9.60233e-05 -1.04754e-06 1.9579e-07
-3.91237e-08 1.9579e-07 -0.00013008
0.00245525 -0.000133593 -4.44171e-05
-0.000133593 0.000993498 6.22487e-06
-4.44171e-05 6.22487e-06 0.000927724
0.00101789 -0.000111204 1.27059e-05
-0.000111204 2.92895e-06 -4.45199e-06
1.27059e-05 -4.45199e-06 -0.00012685
0.00252969 -0.000127977 3.12008e-05
-0.000127977 0.0010379 -2.77936e-06
3.12008e-05 -2.77936e-06 0.000977119
0.00180592 -5.9828e-05 -0.00016852
-5.9828e-05 0.000698068 1.67292e-05
-0.00016852 1.67292e-05 0.000679857
0.00263546 -0.00014156 0.000105368
-0.00014156 0.00110342 -1.4172e-05
0.000105368 -1.4172e-05 0.00104556
0.00151503 -2.87631e-05 -7.14123e-05
-2.87631e-05 0.000539266 7.42861e-06
-7.14123e-05 7.42861e-06 0.000513883
0.00135266 -3.62255e-06 2.82381e-05
-3.62255e-06 0.000454591 -4.73161e-06
2.82381e-05 -4.73161e-06 0.000420392
0.00191521 0.000124638 3.04125e-07
0.000124638 0.000140453 1.97253e-06
3.04125e-07 1.97253e-06 4.12938e-05
0.00174251 0.000194188 -8.90938e-07
0.000194188 0.000136606 3.00881e-07
-8.90938e-07 3.00881e-07 -5.86989e-06
0.00182756 0.000213156 -7.44781e-07
0.000213156 0.000107512 -9.23357e-08
-7.44781e-07 -9.23357e-08 -1.90789e-05
0.00168838 0.000189998 -3.46515e-06
0.000189998 0.000261584 -7.41839e-07
-3.46515e-06 -7.41839e-07 0.000110466
0.00174398 0.000227651 7.09872e-07
0.000227651 0.000175418 9.30298e-08
7.09872e-07 9.30298e-08 2.28295e-05
0.00174436 0.000254207 1.92111e-07
0.000254207 7.65022e-05 -4.28515e-08
1.92111e-07 -4.28515e-08 -6.68083e-05
0.0010069 0.000146104 -1.30588e-05
0.000146104 4.5384e-06 -4.92591e-06
-1.30588e-05 -4.92591e-06 -0.000131021
0.00147535 0.000203178 3.28405e-06
0.000203178 0.000173128 7.95138e-07
3.28405e-06 7.95138e-07 1.31518e-05
0.00156332 0.000243445 7.86286e-07
0.000243445 0.000101003 -1.79096e-06
7.86286e-07 -1.79096e-06 -5.99501e-05
0.000557722 0.000170106 -2.22302e-05
0.000170106 -8.63491e-05 -1.14943e-05
-2.22302e-05 -1.14943e-05 -0.00017392
0.000966204 0.000159901 -5.97528e-07
0.000159901 5.09304e-06 4.32919e-08
-5.97528e-07 4.32919e-08 -0.000137085
0.00119311 0.000206768 7.52528e-06
0.000206768 4.01591e-05 2.07335e-06
7.52528e-06 2.07335e-06 -0.000129967
0.000945382 0.00016712 1.06938e-05
0.00016712 3.26306e-05 5.28322e-06
1.06938e-05 5.28322e-06 -0.000116997
0.000567883 0.000176963 1.66053e-06
0.000176963 -6.61456e-05 5.04584e-07
1.66053e-06 5.04584e-07 -0.000156263
0.00555251 -5.88607e-05 -0.000171896
-5.88607e-05 0.00294991 -1.91713e-05
-0.000171896 -1.91713e-05 0.00292649
0.000458677 0.000136969 1.73441e-05
0.000136969 -0.000111402 1.2919e-05
1.73441e-05 1.2919e-05 -0.000190228
0.00495276 -0.000137377 -5.7655e-06
-0.000137377 0.0025971 1.38421e-07
-5.7655e-06 1.38421e-07 0.00257917
0.00398292 -0.000190623 9.43331e-05
-0.000190623 0.00203675 3.19275e-06
9.43331e-05 3.19275e-06 0.0020153
0.00174486 8.43962e-05 -6.31817e-07
8.43962e-05 2.43138e-05 8.83142e-07
-6.31817e-07 8.83142e-07 -4.892e-05
0.00181286 0.000117478 9.60933e-07
0.000117478 2.12947e-05 7.02795e-07
9.60933e-07 7.02795e-07 -5.49941e-05
0.00184262 0.000150447 1.04625e-06
0.000150447 -1.86495e-05 -1.74468e-08
1.04625e-06 -1.74468e-08 -8.38477e-05
0.00192273 0.000213764 1.81985e-07
0.000213764 0.000122845 -9.4002e-07
1.81985e-07 -9.4002e-07 1.81472e-05
0.00174367 -4.50417e-06 2.65441e-06
-4.50417e-06 6.69399e-05 -2.30801e-07
2.65441e-06 -2.30801e-07 -2.02953e-05
0.00194199 3.33321e-05 7.36478e-07
3.33321e-05 0.000129003 -1.57417e-07
7.36478e-07 -1.57417e-07 6.84378e-05
0.00187869 3.75624e-05 2.42667e-06
3.75624e-05 3.81297e-05 2.86445e-07
2.42667e-06 2.86445e-07 -9.2101e-06
0.00186282 -2.30398e-05 -3.85814e-06
-2.30398e-05 8.6266e-05 3.90469e-07
-3.85814e-06 3.90469e-07 3.045e-05
0.00167224 -2.38171e-05 -1.98092e-06
-2.38171e-05 2.40958e-05 -4.20519e-07
-1.98092e-06 -4.20519e-07 -5.89176e-05
0.00179256 -2.62942e-05 2.12533e-06
-2.62942e-05 0.000148882 -5.25989e-07
2.12533e-06 -5.25989e-07 4.09464e-05
0.00178031 -5.94734e-05 -2.19401e-06
-5.94734e-05 6.57038e-05 1.39982e-06
-2.19401e-06 1.39982e-06 -2.44151e-05
0.00174257 -6.17423e-05 -4.78004e-08
-6.17423e-05 0.000106956 3.05443e-07
-4.78004e-08 3.05443e-07 -6.84323e-06
0.00148248 -4.26638e-05 -3.33334e-06
-4.26638e-05 8.53693e-05 1.38961e-07
-3.33334e-06 1.38961e-07 -4.30227e-05
0.00173522 -0.000109112 8.43645e-07
-0.000109112 0.000109519 -7.24357e-08
8.43645e-07 -7.24357e-08 -1.19226e-05
0.00142618 -7.39601e-05 2.52087e-07
-7.39601e-05 6.56978e-05 -1.55546e-07
2.52087e-07 -1.55546e-07 -7.08212e-05
0.00101209 -5.16088e-05 -1.21741e-05
-5.16088e-05 -2.58572e-05 2.22384e-06
-1.21741e-05 2.22384e-06 -0.000150234
0.00139035 -0.000106808 3.50091e-06
-0.000106808 6.33856e-05 -6.15264e-07
3.50091e-06 -6.15264e-07 -7.93675e-05
0.00102179 -7.58704e-05 -1.94231e-08
-7.58704e-05 -1.29909e-05 2.14724e-07
-1.94231e-08 2.14724e-07 -0.000139874
0.00061949 -7.41704e-05 -1.90135e-05
-7.41704e-05 -9.96601e-05 4.63112e-06
-1.90135e-05 4.63112e-06 -0.000171958
0.00102939 -9.34477e-05 1.23367e-05
-9.34477e-05 5.48872e-09 -3.55335e-06
1.23367e-05 -3.55335e-06 -0.000128362
0.00158078 -8.44187e-05 4.29464e-05
-8.44187e-05 0.000471306 -2.71888e-06
4.29464e-05 -2.71888e-06 0.000406861
0.00544103 -0.000113799 -0.000212648
-0.000113799 0.00283271 1.28929e-05
-0.000212648 1.28929e-05 0.00283649
0.00261828 -0.000115919 0.000104896
-0.000115919 0.00108217 -1.15479e-05
0.000104896 -1.15479e-05 0.00102727
0.00153159 -4.23601e-05 -6.44235e-05
-4.23601e-05 0.000544224 5.30859e-06
-6.44235e-05 5.30859e-06 0.000519149
0.00127356 -4.87757e-05 3.91702e-05
-4.87757e-05 0.000407003 -5.40667e-06
3.91702e-05 -5.40667e-06 0.000373323
0.00191398 8.84111e-05 7.86296e-07
8.84111e-05 0.000157183 1.54459e-06
7.86296e-07 1.54459e-06 6.93831e-05
0.00182484 0.000132452 5.97198e-07
0.000132452 0.000167781 1.50831e-06
5.97198e-07 1.50831e-06 4.34028e-05
0.00195203 0.000122056 4.42652e-07
0.000122056 0.000168577 3.01336e-08
4.42652e-07 3.01336e-08 6.86644e-05
0.00143113 0.000150994 -4.11078e-06
0.000150994 7.61552e-05 -5.63265e-07
-4.11078e-06 -5.63265e-07 -6.93484e-05
0.00174998 0.000191644 2.67793e-07
0.000191644 0.000140534 -2.45927e-10
2.67793e-07 -2.45927e-10 -9.883e-07
0.00183397 0.000213846 -7.05173e-07
0.000213846 0.000104045 -5.64246e-07
-7.05173e-07 -5.64246e-07 -1.96555e-05
0.000676409 0.000109727 -1.48922e-05
0.000109727 -0.000205997 -4.63827e-06
-1.48922e-05 -4.63827e-06 -0.000337814
0.00171644 0.000192128 2.1724e-06
0.000192128 0.000278129 6.03472e-07
2.1724e-06 6.03472e-07 0.000126912
0.00168763 0.0002229 6.69708e-07
0.0002229 0.000146847 -1.5387e-07
6.69708e-07 -1.5387e-07 -6.67395e-06
0.000535829 0.000127301 -1.92634e-05
0.000127301 -0.000114872 -9.23479e-06
-1.92634e-05 -9.23479e-06 -0.000196211
0.000813829 0.000136894 4.48547e-07
0.000136894 -0.000108171 2.22714e-07
4.48547e-07 2.22714e-07 -0.00024446
0.00123755 0.000194732 9.06978e-06
0.000194732 3.15761e-05 2.09011e-06
9.06978e-06 2.09011e-06 -0.000128982
0.00561175 2.71057e-05 -0.00018518
2.71057e-05 0.00295699 -1.82349e-05
-0.00018518 -1.82349e-05 0.00294737
0.000535241 0.000156758 1.35627e-06
0.000156758 -9.79926e-05 5.5655e-07
1.35627e-06 5.5655e-07 -0.000186543
0.000985723 0.000161586 1.23274e-05
0.000161586 1.67466e-05 5.36833e-06
1.23274e-05 5.36833e-06 -0.000125609
0.000485365 0.000162412 2.00589e-05
0.000162412 -0.00010973 1.28769e-05
2.00589e-05 1.28769e-05 -0.00020079
0.00539583 -6.72031e-05 7.69373e-06
-6.72031e-05 0.00284778 -1.07686e-06
7.69373e-06 -1.07686e-06 0.00283206
0.00468423 -0.000197785 0.000118399
-0.000197785 0.00245387 6.58036e-06
0.000118399 6.58036e-06 0.00242652
0.00179384 5.75925e-05 -1.07879e-06
5.75925e-05 8.81945e-05 -6.3663e-07
-1.07879e-06 -6.3663e-07 9.49787e-07
0.00182791 8.47791e-05 6.35024e-08
8.47791e-05 7.14736e-05 4.30372e-07
6.35024e-08 4.30372e-07 -2.25802e-06
0.00182687 0.00011693 9.01505e-07
0.00011693 3.54236e-05 -1.22682e-07
9.01505e-07 -1.22682e-07 -4.09637e-05
0.00167399 2.90189e-06 2.27747e-06
2.90189e-06 7.04065e-05 -5.13865e-07
2.27747e-06 -5.13865e-07 -3.94489e-05
0.00170888 -2.53401e-06 6.14451e-07
-2.53401e-06 5.07195e-05 7.48136e-08
6.14451e-07 7.48136e-08 -3.49886e-05
0.00202291 2.61208e-05 -1.61126e-07
2.61208e-05 0.000172026 -4.42084e-08
-1.61126e-07 -4.42084e-08 0.000113722
0.00161388 -1.63693e-05 -3.17923e-06
-1.63693e-05 -1.0437e-05 1.06392e-06
-3.17923e-06 1.06392e-06 -9.13312e-05
0.00176119 -2.12498e-05 1.02846e-06
-2.12498e-05 0.000129668 -2.19375e-07
1.02846e-06 -2.19375e-07 2.18858e-05
0.00172892 -1.62761e-05 -1.29948e-06
-1.62761e-05 0.000226343 -2.67276e-07
-1.29948e-06 -2.67276e-07 0.000103352
0.00168332 -6.27843e-05 -1.03787e-06
-6.27843e-05 7.65003e-05 8.58722e-07
-1.03787e-06 8.58722e-07 -4.09332e-05
0.00157716 -4.27291e-05 -9.81512e-10
-4.27291e-05 0.000140906 6.67416e-08
-9.81512e-10 6.67416e-08 1.18419e-05
0.000764295 -2.44928e-05 -1.38173e-05
-2.44928e-05 -0.000175624 1.55524e-06
-1.38173e-05 1.55524e-06 -0.000299238
0.00141196 -7.41155e-05 3.54454e-06
-7.41155e-05 5.44649e-05 -5.22479e-07
3.54454e-06 -5.22479e-07 -8.19751e-05
0.00101413 -4.85863e-05 -4.08653e-08
-4.85863e-05 -2.53604e-05 1.12567e-07
-4.08653e-08 1.12567e-07 -0.000149338
0.000621347 -2.03079e-05 -1.81501e-05
-2.03079e-05 -0.000102806 3.00212e-06
-1.81501e-05 3.00212e-06 -0.00017438
0.0010334 -7.4057e-05 1.22074e-05
-7.4057e-05 -6.97398e-06 -2.64368e-06
1.22074e-05 -2.64368e-06 -0.000133437
0.000623795 -5.83846e-05 -1.68787e-07
-5.83846e-05 -9.54493e-05 3.45044e-07
-1.68787e-07 3.45044e-07 -0.000168975
0.00547285 -8.26039e-06 -0.000204092
-8.26039e-06 0.00284763 7.92177e-06
-0.000204092 7.92177e-06 0.00285347
0.000654487 -6.41284e-05 1.61305e-05
-6.41284e-05 -7.49868e-05 -6.53045e-06
1.61305e-05 -6.53045e-06 -0.000149908
0.00344401 -7.51859e-05 9.68861e-05
-7.51859e-05 0.00166502 -3.18492e-06
9.68861e-05 -3.18492e-06 0.00164857
0.00122031 -6.86923e-05 4.50944e-05
-6.86923e-05 0.000377655 -5.98504e-06
4.50944e-05 -5.98504e-06 0.000341041
0.00181059 8.40008e-05 -2.72869e-07
8.40008e-05 0.000119212 1.35795e-07
-2.72869e-07 1.35795e-07 2.55788e-05
0.00167962 7.78158e-05 2.17677e-06
7.78158e-05 8.35051e-05 2.04564e-06
2.17677e-06 2.04564e-06 -3.19964e-05
0.00191746 8.56628e-05 -1.818e-07
8.56628e-05 0.000160561 -3.89272e-07
-1.818e-07 -3.89272e-07 7.33853e-05
0.0014249 0.000106956 -2.91763e-06
0.000106956 5.89139e-05 -2.1453e-07
-2.91763e-06 -2.1453e-07 -7.97379e-05
0.00178225 0.000130985 5.37911e-07
0.000130985 0.000139517 1.70062e-07
5.37911e-07 1.70062e-07 1.38298e-05
0.00199312 0.0001193 -8.17832e-07
0.0001193 0.000199278 -1.93559e-06
-8.17832e-07 -1.93559e-06 9.8644e-05
0.000726864 9.00404e-05 -1.44035e-05
9.00404e-05 -0.000191203 -3.49284e-06
-1.44035e-05 -3.49284e-06 -0.000319561
0.00157954 0.000154594 -4.55963e-07
0.000154594 0.000164952 9.74815e-08
-4.55963e-07 9.74815e-08 1.96517e-05
0.00175893 0.000189097 7.77874e-07
0.000189097 0.000145643 -4.79554e-07
7.77874e-07 -4.79554e-07 5.08683e-06
0.000546169 9.0609e-05 -1.77417e-05
9.0609e-05 -0.000126833 -6.93573e-06
-1.77417e-05 -6.93573e-06 -0.00020254
0.000659223 0.000109636 -2.83981e-06
0.000109636 -0.000215417 -4.94929e-07
-2.83981e-06 -4.94929e-07 -0.000347654
0.00174879 0.000194691 8.03082e-06
0.000194691 0.000297206 2.02837e-06
8.03082e-06 2.02837e-06 0.000145829
0.00557487 0.000107695 -0.000203428
0.000107695 0.00291694 -1.71268e-05
-0.000203428 -1.71268e-05 0.00291659
0.000534157 0.000120717 5.16849e-07
0.000120717 -0.000116002 3.5689e-07
5.16849e-07 3.5689e-07 -0.000197814
0.000625238 0.000128206 1.28582e-05
0.000128206 -0.000218406 4.83188e-06
1.28582e-05 4.83188e-06 -0.000355488
0.00552041 4.03935e-05 1.2328e-05
4.03935e-05 0.00290337 6.58699e-07
1.2328e-05 6.58699e-07 0.00289536
0.00049646 0.000143011 1.88532e-05
0.000143011 -0.000118989 1.13764e-05
1.88532e-05 1.13764e-05 -0.000208398
0.00524888 -0.000101068 0.000160924
-0.000101068 0.002754 9.37035e-06
0.000160924 9.37035e-06 0.00274331
0.00177707 4.05288e-05 4.75155e-07
4.05288e-05 0.00012319 -5.49747e-07
4.75155e-07 -5.49747e-07 1.60148e-05
0.00175585 5.53613e-05 -1.35465e-06
5.53613e-05 7.09204e-05 3.53087e-07
-1.35465e-06 3.53087e-07 -1.76547e-05
0.00190682 8.46947e-05 2.87958e-07
8.46947e-05 0.000116058 3.21745e-09
2.87958e-07 3.21745e-09 4.18637e-05
0.00173058 -3.0687e-06 -4.60114e-07
-3.0687e-06 0.000232461 -3.74562e-07
-4.60114e-07 -3.74562e-07 0.000111513
0.00169589 8.17763e-07 2.93147e-07
8.17763e-07 8.24438e-05 2.04013e-08
2.93147e-07 2.04013e-08 -2.57224e-05
0.00168054 9.28799e-07 6.59919e-07
9.28799e-07 3.79887e-05 1.03741e-07
6.59919e-07 1.03741e-07 -4.61848e-05
0.00173143 -1.64512e-05 -2.60224e-07
-1.64512e-05 0.000111492 4.36732e-07
-2.60224e-07 4.36732e-07 3.83056e-06
0.00173444 -1.61436e-05 2.54616e-06
-1.61436e-05 0.000229303 -2.14508e-07
2.54616e-06 -2.14508e-07 0.000106299
0.000783637 -8.73038e-06 -1.32951e-05
-8.73038e-06 -0.00016678 6.79972e-07
-1.32951e-05 6.79972e-07 -0.000288325
0.00167427 -4.29296e-05 3.94389e-06
-4.29296e-05 0.000197786 -1.43731e-07
3.94389e-06 -1.43731e-07 6.80533e-05
0.000888184 -2.35942e-05 -2.41096e-06
-2.35942e-05 -0.000103769 2.53192e-07
-2.41096e-06 2.53192e-07 -0.00022645
0.000624801 -5.88465e-06 -1.83713e-05
-5.88465e-06 -0.000105375 1.98681e-06
-1.83713e-05 1.98681e-06 -0.000175889
0.00102127 -4.67682e-05 1.18246e-05
-4.67682e-05 -2.17613e-05 -1.97674e-06
1.18246e-05 -1.97674e-06 -0.000145443
0.000607402 -2.84979e-05 6.90697e-07
-2.84979e-05 -0.000112357 -3.93198e-08
6.90697e-07 -3.93198e-08 -0.000182866
0.00544734 -0.000104847 -0.000213811
-0.000104847 0.00283961 7.95055e-06
-0.000213811 7.95055e-06 0.00284266
0.000605176 -4.24993e-05 1.74362e-05
-4.24993e-05 -0.00010669 -3.60589e-06
1.74362e-05 -3.60589e-06 -0.00017989
0.00545662 -4.3814e-05 7.90498e-06
-4.3814e-05 0.00283906 -8.82021e-10
7.90498e-06 -8.82021e-10 0.00284498
0.00154732 -1.63962e-05 0.000175227
-1.63962e-05 0.000545552 -9.19606e-06
0.000175227 -9.19606e-06 0.000531399
0.00165642 6.0301e-05 1.92324e-06
6.0301e-05 6.95802e-05 3.9977e-07
1.92324e-06 3.9977e-07 -4.3383e-05
0.00179092 8.82234e-05 -2.90207e-06
8.82234e-05 0.000100066 -4.40481e-07
-2.90207e-06 -4.40481e-07 8.59889e-06
0.00143491 6.40318e-05 -2.23816e-06
6.40318e-05 6.48689e-05 1.35412e-07
-2.23816e-06 1.35412e-07 -6.65071e-05
0.00168547 7.66946e-05 5.77417e-07
7.66946e-05 8.74402e-05 8.59821e-08
5.77417e-07 8.59821e-08 -2.81072e-05
0.00191737 8.30875e-05 -1.49756e-06
8.30875e-05 0.000161624 -2.71466e-06
-1.49756e-06 -2.71466e-06 7.50657e-05
0.00105673 7.21145e-05 -1.22534e-05
7.21145e-05 -6.00481e-06 -2.29817e-06
-1.22534e-05 -2.29817e-06 -0.000128308
0.00142665 0.000106902 5.02592e-08
0.000106902 6.06282e-05 8.56856e-08
5.02592e-08 8.56856e-08 -7.81665e-05
0.0017362 0.000129434 -1.09032e-07
0.000129434 0.00010929 -9.19411e-07
-1.09032e-07 -9.19411e-07 -1.77143e-05
0.000570958 6.37566e-05 -1.72827e-05
6.37566e-05 -0.000126344 -5.00238e-06
-1.72827e-05 -5.00238e-06 -0.000199051
0.000853689 9.54936e-05 -3.17947e-06
9.54936e-05 -0.000116455 -3.56319e-07
-3.17947e-06 -3.56319e-07 -0.000244373
0.00173128 0.000158146 4.79935e-06
0.000158146 0.000255792 1.17681e-06
4.79935e-06 1.17681e-06 0.000110714
0.00555042 0.000158112 -0.000222413
0.000158112 0.00290032 -1.65405e-05
-0.000222413 -1.65405e-05 0.00290046
0.000561108 8.90496e-05 3.77351e-08
8.90496e-05 -0.000118748 1.43631e-07
3.77351e-08 1.43631e-07 -0.000194571
0.000639305 0.000109498 9.0376e-06
0.000109498 -0.000226623 3.46596e-06
9.0376e-06 3.46596e-06 -0.000359234
0.00551178 0.000127089 1.04783e-05
0.000127089 0.00288817 2.32988e-06
1.04783e-05 2.32988e-06 0.00288433
0.000536199 0.000112693 1.77756e-05
0.000112693 -0.000115582 9.15755e-06
1.77756e-05 9.15755e-06 -0.000197419
0.00545459 3.57562e-05 0.00019193
3.57562e-05 0.00285364 1.40435e-05
0.00019193 1.40435e-05 0.00285356
0.00171594 2.78994e-05 -3.89901e-07
2.78994e-05 0.000229561 -2.27989e-07
-3.89901e-07 -2.27989e-07 0.00010946
0.0017446 3.63272e-05 -1.00486e-06
3.63272e-05 0.000107333 1.49392e-07
-1.00486e-06 1.49392e-07 -1.00899e-06
0.00172107 5.29335e-05 -1.62413e-06
5.29335e-05 5.605e-05 4.2584e-07
-1.62413e-06 4.2584e-07 -3.37999e-05
0.000774445 -8.61728e-06 -1.37818e-05
-8.61728e-06 -0.000167632 -3.03101e-07
-1.37818e-05 -3.03101e-07 -0.000287288
0.00173916 3.0536e-06 2.8929e-06
3.0536e-06 0.000237395 -1.52223e-07
2.8929e-06 -1.52223e-07 0.000116444
0.0017154 -1.35458e-06 -7.11755e-07
-1.35458e-06 9.32563e-05 4.60997e-07
-7.11755e-07 4.60997e-07 -1.32075e-05
0.00174502 -1.6343e-05 6.20037e-06
-1.6343e-05 0.000235219 -9.34142e-08
6.20037e-06 -9.34142e-08 0.000112202
0.000772228 -8.73121e-06 -1.83544e-06
-8.73121e-06 -0.000174025 1.48645e-07
-1.83544e-06 1.48645e-07 -0.000295739
0.000626242 -2.59095e-05 -1.86444e-05
-2.59095e-05 -0.000106465 7.55574e-07
-1.86444e-05 7.55574e-07 -0.000175632
0.000998633 -2.19143e-05 9.82036e-06
-2.19143e-05 -3.96426e-05 -1.23821e-06
9.82036e-06 -1.23821e-06 -0.000161397
0.000608049 4.40681e-06 2.53761e-07
4.40681e-06 -0.000115369 6.88141e-08
2.53761e-07 6.88141e-08 -0.000185439
0.00548611 -8.27342e-05 -0.00022093
-8.27342e-05 0.00286005 5.4953e-06
-0.00022093 5.4953e-06 0.00286501
0.000613055 -2.91203e-05 1.81701e-05
-2.91203e-05 -0.000107866 -2.43652e-06
1.81701e-05 -2.43652e-06 -0.000179234
0.00547757 1.85302e-06 -3.0158e-06
1.85302e-06 0.00284932 1.3156e-06
-3.0158e-06 1.3156e-06 0.00285704
0.00546832 -6.37047e-05 0.000213894
-6.37047e-05 0.00284414 -7.16374e-06
0.000213894 -7.16374e-06 0.00285137
0.0014223 4.10742e-05 -2.3815e-06
4.10742e-05 6.29793e-05 7.54048e-08
-2.3815e-06 7.54048e-08 -6.49468e-05
0.00169823 6.32265e-05 -9.63115e-07
6.32265e-05 9.28465e-05 -1.06997e-06
-9.63115e-07 -1.06997e-06 -1.66785e-05
0.00177477 9.27504e-05 -4.22096e-06
9.27504e-05 8.31801e-05 -6.54907e-07
-4.22096e-06 -6.54907e-07 -6.15285e-06
0.00105675 4.03973e-05 -1.21024e-05
4.03973e-05 -6.47146e-06 -1.64584e-06
-1.21024e-05 -1.64584e-06 -0.000124945
0.00142037 6.42533e-05 1.71399e-07
6.42533e-05 5.52915e-05 4.76785e-08
1.71399e-07 4.76785e-08 -7.64644e-05
0.00168904 7.54649e-05 -1.11259e-06
7.54649e-05 9.04665e-05 -1.7464e-06
-1.11259e-06 -1.7464e-06 -2.51276e-05
0.000597777 3.88977e-05 -1.68972e-05
3.88977e-05 -0.000117237 -3.66084e-06
-1.68972e-05 -3.66084e-06 -0.000188292
0.00102684 7.32818e-05 2.05425e-07
7.32818e-05 -2.2563e-05 2.15989e-07
2.05425e-07 2.15989e-07 -0.000145319
0.00142933 0.000106888 3.50528e-06
0.000106888 6.26373e-05 4.74546e-07
3.50528e-06 4.74546e-07 -7.6309e-05
0.00550727 0.000158202 -0.000234488
0.000158202 0.00287698 -1.44614e-05
-0.000234488 -1.44614e-05 0.00287709
0.000593806 6.58029e-05 2.96499e-07
6.58029e-05 -0.000113009 1.71487e-07
2.96499e-07 1.71487e-07 -0.000186047
0.000977057 0.000100868 9.15281e-06
0.000100868 -4.38335e-05 2.91159e-06
9.15281e-06 2.91159e-06 -0.000171269
0.00551842 0.000171589 5.89676e-06
0.000171589 0.00288857 2.37685e-06
5.89676e-06 2.37685e-06 0.00288592
0.000578811 8.83571e-05 1.71476e-05
8.83571e-05 -0.000108626 7.17527e-06
1.71476e-05 7.17527e-06 -0.000184593
0.00548085 0.000147949 0.00020996
0.000147949 0.00286878 1.83243e-05
0.00020996 1.83243e-05 0.00286645
0.00103945 1.26909e-05 -1.26809e-05
1.26909e-05 -1.04854e-05 -9.32306e-07
-1.26809e-05 -9.32306e-07 -0.000126617
0.00157801 2.33091e-05 3.23451e-06
2.33091e-05 0.000150032 1.22695e-07
3.23451e-06 1.22695e-07 2.89667e-05
0.00170815 3.12696e-05 -2.34205e-06
3.12696e-05 8.87597e-05 2.33316e-07
-2.34205e-06 2.33316e-07 -2.07666e-05
0.000655725 2.85174e-05 -1.91131e-05
2.85174e-05 -9.59479e-05 -4.51813e-07
-1.91131e-05 -4.51813e-07 -0.000158444
0.000754791 -3.14207e-06 -2.117e-06
-3.14207e-06 -0.000180151 6.19214e-08
-2.117e-06 6.19214e-08 -0.000300047
0.00174371 9.21432e-06 6.27555e-06
9.21432e-06 0.000239991 2.37162e-07
6.27555e-06 2.37162e-07 0.000119019
0.000755174 -8.35086e-06 9.60317e-06
-8.35086e-06 -0.000184569 -4.08905e-07
9.60317e-06 -4.08905e-07 -0.000306443
0.000620045 -3.67524e-06 2.10507e-07
-3.67524e-06 -0.000110141 3.01175e-07
2.10507e-07 3.01175e-07 -0.000179287
0.00548773 4.50584e-05 -0.000227524
4.50584e-05 0.00285708 -7.28843e-07
-0.000227524 -7.28843e-07 0.00286508
0.000588836 1.46099e-05 1.77601e-05
1.46099e-05 -0.000127141 -1.21513e-06
1.77601e-05 -1.21513e-06 -0.00019656
0.00547937 -8.20262e-05 -7.86037e-06
-8.20262e-05 0.00285652 1.43494e-06
-7.86037e-06 1.43494e-06 0.00286115
0.0054541 2.24702e-05 0.000205752
2.24702e-05 0.00283611 -3.13074e-06
0.000205752 -3.13074e-06 0.00284336
0.00104133 2.14779e-05 -1.25397e-05
2.14779e-05 -1.19389e-05 -1.19172e-06
-1.25397e-05 -1.19172e-06 -0.000128434
0.00141079 4.06209e-05 -8.39846e-08
4.06209e-05 5.48146e-05 -8.31075e-08
-8.39846e-08 -8.31075e-08 -7.13743e-05
0.00174494 6.59671e-05 -3.50254e-06
6.59671e-05 0.000118729 -1.71811e-06
-3.50254e-06 -1.71811e-06 1.26584e-05
0.0026076 4.47983e-05 -0.00011078
4.47983e-05 0.00105725 -3.3622e-06
-0.00011078 -3.3622e-06 0.00100952
0.0010336 4.23259e-05 2.28868e-07
4.23259e-05 -1.99841e-05 1.74107e-07
2.28868e-07 1.74107e-07 -0.000138747
0.00140959 6.444e-05 3.17287e-06
6.444e-05 4.77345e-05 8.50961e-08
3.17287e-06 8.50961e-08 -8.43984e-05
0.00545993 0.000130512 -0.00023742
0.000130512 0.00284896 -1.09545e-05
-0.00023742 -1.09545e-05 0.00285113
0.000630694 5.40187e-05 7.58461e-07
5.40187e-05 -9.64136e-05 2.95671e-07
7.58461e-07 2.95671e-07 -0.000168772
0.00100339 7.46615e-05 1.21464e-05
7.46615e-05 -3.54549e-05 2.69121e-06
1.21464e-05 2.69121e-06 -0.000158644
0.00553431 0.000170266 1.54202e-06
0.000170266 0.0028954 1.6485e-06
1.54202e-06 1.6485e-06 0.00289433
0.000626838 7.00096e-05 1.75709e-05
7.00096e-05 -9.28605e-05 5.73043e-06
1.75709e-05 5.73043e-06 -0.000166702
0.00549055 0.000195734 0.000221639
0.000195734 0.00287908 1.98474e-05
0.000221639 1.98474e-05 0.00287306
0.0006969 8.69365e-06 -1.63971e-05
8.69365e-06 -6.06828e-05 -1.86365e-06
-1.63971e-05 -1.86365e-06 -0.000130044
0.000886507 1.04531e-05 6.2783e-07
1.04531e-05 -9.95672e-05 1.29691e-07
6.2783e-07 1.29691e-07 -0.000216936
0.00143657 1.84679e-05 6.07814e-06
1.84679e-05 6.85552e-05 2.193e-07
6.07814e-06 2.193e-07 -5.34579e-05
0.00538098 -9.30181e-05 -0.000211914
-9.30181e-05 0.00281063 3.79848e-07
-0.000211914 3.79848e-07 0.00280915
0.000615986 7.75439e-06 -4.17369e-07
7.75439e-06 -0.000114017 2.37908e-07
-4.17369e-07 2.37908e-07 -0.000179234
0.000746171 2.03231e-06 9.44568e-06
2.03231e-06 -0.000186412 2.91834e-07
9.44568e-06 2.91834e-07 -0.000306514
0.000587122 2.03796e-05 1.80265e-05
2.03796e-05 -0.000129562 1.29641e-07
1.80265e-05 1.29641e-07 -0.000198261
0.00545133 9.48132e-06 2.64243e-06
9.48132e-06 0.00283976 -6.4692e-07
2.64243e-06 -6.4692e-07 0.00284474
0.00549568 6.28807e-06 0.000216221
6.28807e-06 0.00285738 -1.30374e-06
0.000216221 -1.30374e-06 0.00286626
0.00265749 4.96474e-06 -0.000107762
4.96474e-06 0.00108387 -2.12093e-06
-0.000107762 -2.12093e-06 0.00103733
0.00104301 2.41497e-05 4.65536e-08
2.41497e-05 -1.13497e-05 1.076e-07
4.65536e-08 1.076e-07 -0.000128024
0.00139116 4.03117e-05 3.0466e-06
4.03117e-05 4.21059e-05 -1.51917e-07
3.0466e-06 -1.51917e-07 -8.2351e-05
0.00509648 -6.23976e-05 -6.61066e-05
-6.23976e-05 0.00264737 3.215e-07
-6.61066e-05 3.215e-07 0.00263282
0.000642925 4.58169e-05 1.27217e-08
4.58169e-05 -9.11576e-05 2.43514e-07
1.27217e-08 2.43514e-07 -0.00016154
0.00102213 4.47348e-05 1.20014e-05
4.47348e-05 -2.70296e-05 2.03255e-06
1.20014e-05 2.03255e-06 -0.000146039
0.00550459 9.8606e-05 -1.10818e-05
9.8606e-05 0.00287049 -9.46068e-07
-1.10818e-05 -9.46068e-07 0.00287462
0.0006606 7.49002e-05 1.90665e-05
7.49002e-05 -7.83053e-05 4.75843e-06
1.90665e-05 4.75843e-06 -0.000151279
0.00553612 0.000194263 0.000232623
0.000194263 0.00290367 1.87125e-05
0.000232623 1.87125e-05 0.0028991
0.00167484 -4.7201e-05 -0.000183316
-4.7201e-05 0.000614553 5.67403e-07
-0.000183316 5.67403e-07 0.000603963
0.00164796 2.37109e-05 -4.4533e-05
2.37109e-05 0.00049029 1.57784e-07
-4.4533e-05 1.57784e-07 0.000436315
0.000740634 1.05872e-05 1.23882e-05
1.05872e-05 -0.000184591 8.98349e-07
1.23882e-05 8.98349e-07 -0.000303222
0.00542118 -3.87787e-05 8.07248e-06
-3.87787e-05 0.00282908 9.26996e-07
8.07248e-06 9.26996e-07 0.00283161
0.000625012 -1.16585e-05 1.84376e-05
-1.16585e-05 -0.000104311 1.00504e-06
1.84376e-05 1.00504e-06 -0.000172142
0.00548481 -5.97995e-05 0.000231633
-5.97995e-05 0.00285968 -1.54344e-06
0.000231633 -1.54344e-06 0.00286544
0.00126839 1.32717e-06 -3.22439e-05
1.32717e-06 0.000399572 -6.34974e-07
-3.22439e-05 -6.34974e-07 0.000365655
0.00164119 1.14649e-05 -4.50354e-05
1.14649e-05 0.000490174 -4.89222e-07
-4.50354e-05 -4.89222e-07 0.000433302
0.00103435 2.53514e-05 1.22509e-05
2.53514e-05 -1.64957e-05 1.4402e-06
1.22509e-05 1.4402e-06 -0.000133374
0.00337259 4.42796e-05 8.47788e-05
4.42796e-05 0.00162195 1.89275e-06
8.47788e-05 1.89275e-06 0.00160947
0.000653599 5.46884e-05 1.91672e-05
5.46884e-05 -8.45999e-05 3.73914e-06
1.91672e-05 3.73914e-06 -0.000155231
0.00554426 9.0386e-05 0.000222341
9.0386e-05 0.0028892 1.15335e-05
0.000222341 1.15335e-05 0.00289583
0.00534363 -2.37343e-05 -8.8601e-06
-2.37343e-05 0.00278694 -1.56402e-06
-8.8601e-06 -1.56402e-06 0.00278868
0.000627485 4.01931e-05 1.96896e-05
4.01931e-05 -0.000108085 1.85978e-06
1.96896e-05 1.85978e-06 -0.000170304
0.00533952 5.31434e-05 0.000216616
5.31434e-05 0.00277884 -1.26373e-07
0.000216616 -1.26373e-07 0.00278388
0.00332222 2.62015e-05 9.85414e-05
2.62015e-05 0.00159721 2.73788e-06
9.85414e-05 2.73788e-06 0.00158455
0.000661976 4.50927e-06 1.85407e-05
4.50927e-06 -8.11041e-05 2.53474e-06
1.85407e-05 2.53474e-06 -0.000148842
0.00546065 -3.17627e-05 0.000214345
-3.17627e-05 0.00284334 5.23241e-06
0.000214345 5.23241e-06 0.0028488
0.0053653 -0.000129701 0.000211892
-0.000129701 0.00280575 -2.47633e-06
0.000211892 -2.47633e-06 0.00280251
0.00536382 -1.61701e-05 0.00021144
-1.61701e-05 0.00278449 2.60882e-06
0.00021144 2.60882e-06 0.00279325
