# vtk DataFile Version 2.0
Wound Healing Simulation
ASCII
DATASET UNSTRUCTURED_GRID
POINTS 3012 float
69.9759 18.75 4
67.2507 60.3285 4
69.976 18.75 2
73.0099 25.446 4
71.1327 20.9142 4
68.6801 16.6661 4
67.8258 19.9261 3.98317
67.2507 60.3286 2
71.1327 54.0858 4
68.6801 58.3339 4
65.6939 62.2254 4
65.3124 59.0015 3.98298
74.6784 42.3946 4
73.7221 47.2057 4
69.9759 18.75 0
73.0099 25.446 2
68.6801 16.6661 2
71.1327 20.9142 2
67.8262 19.9289 2
74.6792 32.6053 4
73.7222 27.7943 4
72.1454 23.1494 4
70.6144 26.2209 3.98297
68.886 21.9581 3.98368
67.2507 14.6715 4
66.6372 17.9719 3.98229
65.7971 21.0254 3.97436
67.2507 60.3285 0
71.1327 54.0858 2
68.6801 58.3339 2
65.694 62.2255 2
65.3136 58.9984 2
72.1454 51.8506 4
69.9759 56.25 4
68.8366 53.1131 3.98269
64.0165 64.0165 4
66.6108 57.1338 3.98278
63.8861 60.7665 3.98515
63.5002 57.7712 3.97512
60.3285 67.2507 4
74.6792 42.3947 2
73.7222 47.2057 2
74.9194 39.9526 4
74.2788 44.8158 4
72.1683 42.0856 3.98174
73.0099 49.554 4
71.2495 46.5982 3.9819
73.0099 25.446 0
71.1327 20.9142 0
68.6801 16.6661 0
67.8258 19.9261 0.0168289
74.6792 32.6053 2
73.7222 27.7943 2
67.2508 14.6715 2
72.1455 23.1494 2
70.6145 26.2214 2
66.6379 17.9752 2
68.8863 21.9601 2
65.7966 21.0258 2
74.9197 35.0474 4
74.2794 30.1841 4
72.185 32.9432 3.98213
71.2784 28.4313 3.98238
69.8158 24.0596 3.9835
68.3471 26.9511 3.97284
66.7627 22.9331 3.97369
65.694 12.7746 4
65.324 16.1031 3.98351
64.7133 19.1958 3.97431
63.8854 22.0365 3.97041
71.1327 54.0858 0
65.6939 62.2254 0
68.6801 58.3339 0
65.3124 59.0015 0.0170225
72.1455 51.8506 2
69.9759 56.25 2
68.8368 53.1111 2
64.0165 64.0165 2
66.6116 57.1306 2
63.8876 60.7641 2
63.4999 57.7715 2
62.2254 65.694 4
58.895 65.4144 3.99151
69.7691 50.989 3.98266
67.7838 55.1673 3.98263
66.6493 52.2091 3.97259
62.3365 62.4278 3.98785
64.6606 56.0311 3.97455
62.203 59.4042 3.9769
61.8209 56.6786 3.97034
58.3339 68.6801 4
60.3285 67.2508 2
73.7221 47.2057 0
74.6784 42.3946 0
74.9197 39.9526 2
74.2794 44.8159 2
72.168 42.0856 2
73.0099 49.554 2
71.2494 46.5979 2
75 37.5 4
72.4056 39.8022 3.98195
71.7827 44.353 3.98194
69.804 41.7895 3.97178
70.5753 48.8136 3.98225
68.9123 46.0148 3.97179
74.6792 32.6053 0
73.7222 27.7943 0
67.2507 14.6715 0
72.1454 23.1494 0
70.6144 26.2209 0.0170296
68.886 21.9581 0.016316
66.6372 17.9719 0.0177057
65.7971 21.0254 0.0256389
74.9197 35.0474 2
74.2794 30.1841 2
72.1846 32.9434 2
71.2784 28.4316 2
65.694 12.7745 2
65.3252 16.106 2
69.816 24.0607 2
68.347 26.9513 2
64.7127 19.1959 2
66.7623 22.9335 2
63.8849 22.0365 2
72.4134 35.2241 3.98202
71.8041 30.6762 3.98226
69.84 33.268 3.97224
68.9663 29.0378 3.97253
67.6115 24.9118 3.97317
66.1936 27.6346 3.96911
64.0165 10.9835 4
64.7552 23.8304 3.96976
63.8906 14.3266 3.98618
63.5131 17.4477 3.97574
62.9042 20.3232 3.96991
62.0891 22.946 3.96876
60.6843 11.0974 3.98869
57.6124 11.4477 3.98151
72.1454 51.8506 0
69.9759 56.25 0
68.8366 53.1131 0.0173125
64.0165 64.0165 0
63.8861 60.7665 0.0148549
66.6108 57.1338 0.0172191
63.5002 57.7712 0.0248781
62.2255 65.694 2
58.8958 65.414 2
69.7692 50.9879 2
67.7843 55.1645 2
66.6489 52.2085 2
62.338 62.4264 2
64.6601 56.0311 2
62.2028 59.4051 2
61.8204 56.6794 2
60.6692 63.9773 3.98979
57.0259 66.735 3.99217
57.5583 63.6922 3.98403
67.5075 50.1767 3.97206
65.7016 54.1729 3.97322
64.536 51.3841 3.96846
60.7733 60.938 3.97971
62.8178 55.0656 3.97031
60.6569 58.1572 3.97149
60.3229 55.7798 3.96972
56.25 69.9759 4
58.3339 68.6801 2
60.3285 67.2507 0
58.9215 9.65576 3.98969
62.2254 9.30607 4
73.0099 49.554 0
74.2788 44.8158 0
71.2495 46.5982 0.0181004
72.1683 42.0856 0.0182553
74.9194 39.9526 0
75 37.5 2
72.4055 39.8024 2
71.7826 44.3527 2
69.8037 41.7892 2
70.5753 48.8132 2
68.9123 46.0143 2
72.489 37.512 3.98184
70.0411 39.6571 3.97172
69.4304 43.9074 3.97184
67.5964 41.4969 3.96883
68.2659 48.1071 3.97183
66.7087 45.4391 3.96851
74.9197 35.0474 0
74.2794 30.1841 0
72.185 32.9432 0.017865
71.2784 28.4313 0.0176192
65.694 12.7746 0
65.324 16.1031 0.016493
69.8158 24.0596 0.0165039
68.3471 26.9511 0.0271588
66.7627 22.9331 0.0263059
64.7133 19.1958 0.0256903
63.8854 22.0365 0.0295852
72.4133 35.2241 2
71.8041 30.6765 2
69.8397 33.2683 2
68.9663 29.038 2
64.0165 10.9835 2
63.892 14.3288 2
63.5128 17.4472 2
67.6112 24.9121 2
66.1935 27.6346 2
62.9037 20.3231 2
64.7548 23.8305 2
62.0886 22.946 2
60.6855 11.0988 2
57.6126 11.4468 2
70.0578 35.3916 3.97194
69.4671 31.1491 3.97217
67.6546 33.5907 3.96912
66.7713 29.6227 3.96897
65.5229 25.6993 3.96937
64.1397 28.257 3.96923
62.3421 12.6546 3.98769
62.8534 24.6392 3.96879
62.1996 15.7847 3.97896
61.8108 18.6884 3.96966
61.2116 21.3465 3.96775
60.414 23.7336 3.96858
59.2465 12.7792 3.98023
55.8744 10.2338 3.98335
56.4049 13.1161 3.97775
69.7691 50.989 0.0173413
62.2254 65.694 0
58.895 65.4144 0.00849154
67.7838 55.1673 0.0173728
66.6493 52.2091 0.0274058
62.3365 62.4278 0.0121537
62.203 59.4042 0.0230982
64.6606 56.0311 0.0254468
61.8209 56.6786 0.0296567
60.6703 63.9765 2
57.0264 66.7349 2
57.5585 63.6935 2
67.5073 50.1762 2
65.7011 54.1726 2
64.5355 51.384 2
60.7734 60.9394 2
62.8173 55.0662 2
60.6567 58.1583 2
60.3227 55.78 2
55.0715 67.932 3.99251
59.2195 62.3664 3.98109
55.8053 64.9104 3.9868
56.3267 62.0896 3.97951
65.3305 49.4074 3.96833
63.7035 53.2906 3.96869
62.4341 50.648 3.96748
59.3327 59.5558 3.97571
61.0713 54.3039 3.96902
59.2853 57.0053 3.96905
59.2347 55.1737 3.97192
48.1033 68.5786 3.98836
50.9491 69.9316 3.99273
54.0858 71.1327 4
56.25 69.976 2
58.3339 68.6801 0
57.0588 8.33576 3.99047
60.3285 7.74928 4
58.9226 9.65658 2
62.2255 9.30602 2
70.5753 48.8136 0.0177492
71.7827 44.353 0.0180631
68.9123 46.0148 0.028209
69.804 41.7895 0.0282223
72.4056 39.8022 0.0180508
75 37.5 0
72.4887 37.5121 2
70.0411 39.657 2
69.4303 43.9071 2
67.5961 41.4968 2
68.2659 48.1067 2
66.7087 45.439 2
70.1293 37.5213 3.97199
67.8336 39.5118 3.96892
67.2227 43.4692 3.96868
65.5386 41.2077 3.97004
66.0675 47.4172 3.96841
64.6391 44.8452 3.96907
72.4134 35.2241 0.0179809
71.8041 30.6762 0.0177445
69.84 33.268 0.0277584
68.9663 29.0378 0.0274713
64.0165 10.9835 0
63.8906 14.3266 0.013819
63.5131 17.4477 0.0242649
67.6115 24.9118 0.0268344
66.1936 27.6346 0.0308878
64.7552 23.8304 0.0302367
62.9042 20.3232 0.0300902
62.0891 22.946 0.0312384
60.6843 11.0974 0.0113125
57.6124 11.4477 0.018489
70.0578 35.3918 2
69.467 31.1493 2
67.6544 33.5908 2
66.7713 29.6227 2
62.3434 12.6564 2
62.1994 15.784 2
61.8105 18.6876 2
65.5226 25.6994 2
64.1394 28.2571 2
61.211 21.3464 2
62.853 24.6392 2
60.4142 23.7337 2
59.2466 12.7786 2
56.4047 13.115 2
55.8746 10.2329 2
67.8697 35.5473 3.96909
67.2643 31.6223 3.96896
65.6863 33.9277 3.9702
64.6539 30.1934 3.96929
63.5332 26.4159 3.969
62.2343 28.7823 3.9721
60.7758 14.2236 3.98013
61.032 25.3433 3.96998
60.6116 17.1298 3.97441
60.2144 19.8238 3.96594
59.6466 22.266 3.96625
58.9559 24.3296 3.97041
54.0376 9.13631 3.98471
57.9101 14.3342 3.97853
54.7865 12.0147 3.97915
55.3114 14.6517 3.9763
67.5075 50.1767 0.0279354
57.0259 66.735 0.0078291
60.6692 63.9773 0.0102109
57.5583 63.6922 0.0159718
65.7016 54.1729 0.0267754
64.536 51.3841 0.0315423
60.7733 60.938 0.0202876
60.6569 58.1572 0.028511
62.8178 55.0656 0.0296928
60.3229 55.7798 0.0302849
55.0719 67.932 2
59.2196 62.3676 2
55.8052 64.9115 2
56.3267 62.091 2
65.3302 49.4073 2
63.7031 53.2908 2
62.4346 50.6479 2
59.3328 59.5572 2
61.0712 54.304 2
59.2853 57.0052 2
59.2345 55.1736 2
53.0433 68.9998 3.99263
53.9677 66.0131 3.98776
57.8803 60.8691 3.97809
54.6841 63.2077 3.98257
55.2104 60.6139 3.97731
63.1818 48.657 3.968
61.7355 52.5709 3.96744
60.2445 50.0088 3.96844
58.0156 58.2573 3.97178
59.3176 53.9378 3.96784
58.1185 55.7991 3.96615
50.11 67.8567 3.98827
47.4636 66.5809 3.98557
46.0568 69.1579 3.9884
48.1032 68.5792 2
48.8032 70.7229 3.99282
50.9495 69.9317 2
51.8506 72.1454 4
54.0858 71.1327 2
56.25 69.9759 0
55.1034 7.1403 3.99121
58.3339 6.31992 4
57.0598 8.33616 2
60.3286 7.74926 2
58.9215 9.65576 0.0103109
62.2254 9.30607 0
68.2659 48.1071 0.0281736
69.4304 43.9074 0.02816
66.7087 45.4391 0.0314948
67.5964 41.4969 0.0311701
70.0411 39.6571 0.0282798
72.489 37.512 0.0181621
70.1291 37.5213 2
67.8336 39.5117 2
67.2226 43.469 2
65.5382 41.2076 2
66.0675 47.4171 2
64.6388 44.845 2
67.9301 37.5216 3.96918
65.7703 39.3688 3.97029
65.1629 43.0227 3.96965
63.7078 40.9259 3.9727
63.9497 46.7128 3.96849
62.7713 44.2101 3.97245
70.0578 35.3916 0.0280624
69.4671 31.1491 0.0278251
67.6546 33.5907 0.0308815
66.7713 29.6227 0.0310277
62.3421 12.6546 0.0123146
62.1996 15.7847 0.0210401
61.8108 18.6884 0.0303397
65.5229 25.6993 0.0306271
64.1397 28.257 0.0307731
62.8534 24.6392 0.0312131
61.2116 21.3465 0.0322495
60.414 23.7336 0.0314169
59.2465 12.7792 0.0197747
56.4049 13.1161 0.0222481
55.8744 10.2338 0.0166494
67.8696 35.5473 2
67.2642 31.6223 2
65.6861 33.9277 2
64.6536 30.1934 2
60.7757 14.2229 2
60.6113 17.1286 2
60.2144 19.8233 2
63.533 26.4159 2
62.2336 28.7825 2
59.6482 22.266 2
61.0318 25.3434 2
58.9556 24.33 2
57.9096 14.3333 2
55.3109 14.6509 2
54.0378 9.13552 2
54.7865 12.0135 2
65.8599 35.6667 3.97021
65.172 32.1554 3.96966
64.2502 34.2504 3.97249
62.555 30.6398 3.97241
61.6281 27.0779 3.97075
60.8069 29.1469 3.97523
59.3103 15.6705 3.97762
59.2961 25.8061 3.97306
59.1185 18.3615 3.97087
58.7235 20.8641 3.96449
58.2612 23.103 3.96634
57.9316 24.6767 3.97211
52.1123 8.15426 3.98583
53.058 11.0196 3.98083
56.6752 15.747 3.97763
53.8085 13.6864 3.97679
54.374 16.0068 3.97719
55.0715 67.932 0.00749118
65.3305 49.4074 0.0316747
55.8053 64.9104 0.0131998
59.2195 62.3664 0.0189055
56.3267 62.0896 0.0204946
63.7035 53.2906 0.0313105
62.4341 50.648 0.0325221
59.3327 59.5558 0.0242942
59.2853 57.0053 0.0309508
61.0713 54.3039 0.0309776
59.2347 55.1737 0.0280837
53.0437 68.9998 2
53.9676 66.0138 2
57.8801 60.8703 2
54.684 63.2089 2
55.2104 60.6155 2
63.1816 48.6568 2
61.7355 52.5708 2
60.2445 50.0085 2
58.0154 58.2591 2
59.3179 53.9376 2
58.1183 55.7985 2
52.0712 66.9997 3.98813
52.9539 64.2189 3.98458
56.6467 59.4861 3.97589
53.6809 61.6215 3.98005
54.258 59.3168 3.97594
60.9515 47.8704 3.96924
59.6891 52.0948 3.96786
57.9723 49.6005 3.97078
56.771 56.9745 3.96872
57.103 54.1063 3.96666
50.1099 67.8572 2
49.3375 65.9212 3.98545
47.4635 66.5814 2
46.893 64.7357 3.98401
45.5586 67.098 3.98558
43.9736 69.5902 3.98843
46.0568 69.1584 2
46.6098 71.3674 3.99282
48.1033 68.5786 0.0116395
48.8036 70.7231 2
49.554 73.0099 4
50.9491 69.9316 0.00726948
51.8506 72.1455 2
54.0858 71.1327 0
53.0647 6.07186 3.99155
55.1041 7.14043 2
56.25 5.02411 4
58.3339 6.3199 2
57.0588 8.33576 0.00952943
60.3285 7.74928 0
66.0675 47.4172 0.0315879
67.2227 43.4692 0.0313193
64.6391 44.8452 0.0309329
65.5386 41.2077 0.0299634
67.8336 39.5118 0.0310763
70.1293 37.5213 0.0280074
67.93 37.5216 2
65.7698 39.3687 2
65.1625 43.0225 2
63.7072 40.9258 2
63.9493 46.7127 2
62.7703 44.2099 2
65.8731 37.501 3.97024
63.8461 39.2642 3.97246
63.2832 42.5451 3.97256
62.3597 40.6932 3.97572
61.9296 45.911 3.97108
61.3883 43.6748 3.9757
67.8697 35.5473 0.0309069
67.2643 31.6223 0.031038
65.6863 33.9277 0.0298034
64.6539 30.1934 0.0307123
60.7758 14.2236 0.0198669
60.6116 17.1298 0.0255937
60.2144 19.8238 0.0340613
63.5332 26.4159 0.0310004
62.2343 28.7823 0.0278959
61.032 25.3433 0.0300206
59.6466 22.266 0.0337468
58.9559 24.3296 0.0295949
57.9101 14.3342 0.0214737
55.3114 14.6517 0.0236978
54.0376 9.13631 0.0152922
54.7865 12.0147 0.0208499
65.8595 35.6666 2
65.172 32.1554 2
64.25 34.2504 2
62.5543 30.6399 2
59.3098 15.6696 2
59.1185 18.3603 2
58.7243 20.8644 2
61.6274 27.0781 2
60.8066 29.1471 2
58.2619 23.1034 2
59.2962 25.8065 2
57.9318 24.6773 2
56.6746 15.7459 2
54.3732 16.0062 2
53.8083 13.6852 2
52.1124 8.15361 2
53.0579 11.0186 2
64.0446 35.6322 3.97203
62.8775 33.0485 3.97307
60.5525 30.6183 3.97552
59.5208 27.9195 3.97436
57.9369 16.9877 3.97592
57.6917 25.7389 3.97473
57.7034 19.4861 3.96785
57.3425 21.8541 3.96343
57.1442 23.9612 3.96884
50.1125 7.28538 3.98701
51.2327 10.1268 3.98239
52.1716 12.8018 3.97901
55.5342 16.9793 3.97725
52.9758 15.2729 3.97506
53.7542 16.9904 3.97964
53.0433 68.9998 0.00737055
53.9677 66.0131 0.0122353
63.1818 48.657 0.0319987
54.6841 63.2077 0.0174291
57.8803 60.8691 0.0219125
55.2104 60.6139 0.0226925
61.7355 52.5709 0.0325632
60.2445 50.0088 0.0315581
58.0156 58.2573 0.0282227
58.1185 55.7991 0.0338453
59.3176 53.9378 0.0321612
52.0711 67.0003 2
52.9536 64.2197 2
56.6465 59.4871 2
53.6808 61.6229 2
54.2581 59.3182 2
60.9504 47.87 2
59.69 52.0947 2
57.9705 49.5997 2
56.7704 56.9791 2
57.1026 54.1058 2
51.1685 65.1282 3.98528
52.0465 62.5386 3.98227
55.4772 58.2451 3.97664
52.833 60.1329 3.97808
53.6359 58.4664 3.97936
58.2321 46.8325 3.97382
57.5305 51.7706 3.96829
56.175 49.5343 3.97078
55.4592 55.773 3.96552
55.3286 53.3632 3.96476
50.11 67.8567 0.0117285
49.3373 65.9218 2
48.6187 64.1224 3.98417
47.4636 66.5809 0.0144268
45.5586 67.0985 2
46.8928 64.7362 2
46.3826 63.0524 3.98344
45.1332 65.1968 3.98397
43.6317 67.4686 3.98564
41.8607 69.8776 3.9883
43.9737 69.5907 2
44.3771 71.8622 3.99271
46.0568 69.1579 0.0116018
46.6101 71.3676 2
47.2057 73.7222 4
48.8032 70.7229 0.00717785
49.554 73.0099 2
51.8506 72.1454 0
50.9546 5.13202 3.99206
53.0652 6.07183 2
54.0858 3.86728 4
55.1034 7.1403 0.00879222
56.25 5.02406 2
58.3339 6.31992 0
63.9497 46.7128 0.0315137
65.1629 43.0227 0.0303463
62.7713 44.2101 0.0275497
63.7078 40.9259 0.0272981
65.7703 39.3688 0.0297082
67.9301 37.5216 0.0308163
65.8727 37.5009 2
63.8454 39.2641 2
63.2824 42.5449 2
62.3589 40.693 2
61.9285 45.9107 2
61.3872 43.6745 2
63.9079 37.4557 3.97203
62.074 39.3519 3.97436
61.1382 41.9507 3.97561
60.1879 44.7592 3.9753
65.8599 35.6667 0.0297937
65.172 32.1554 0.0303387
64.2502 34.2504 0.0275076
62.555 30.6398 0.0275929
59.3103 15.6705 0.0223757
59.1185 18.3615 0.0291317
58.7235 20.8641 0.0355131
61.6281 27.0779 0.0292495
60.8069 29.1469 0.0247701
59.2961 25.8061 0.0269387
58.2612 23.103 0.0336555
57.9316 24.6767 0.0278853
56.6752 15.747 0.0223661
54.374 16.0068 0.0228081
53.8085 13.6864 0.0232098
52.1123 8.15426 0.0141722
53.058 11.0196 0.0191744
64.0442 35.6321 2
62.8768 33.0486 2
60.5525 30.6184 2
57.9363 16.9867 2
57.7037 19.4846 2
57.3432 21.8544 2
59.5201 27.9199 2
57.1438 23.9619 2
57.6927 25.7395 2
50.1126 7.28476 2
55.5335 16.9782 2
53.7534 16.9895 2
52.9753 15.2716 2
52.1714 12.8008 2
51.2326 10.1261 2
62.1086 35.3602 3.9736
60.2013 32.7507 3.97569
58.54 30.0867 3.9764
57.2211 27.3961 3.97565
56.63 18.1638 3.97565
56.2345 25.1192 3.97215
56.3369 20.5367 3.96522
56.0661 22.887 3.9636
48.0565 6.52783 3.98814
49.3248 9.33332 3.98322
50.4332 11.9979 3.98032
51.3761 14.5052 3.97623
54.4082 17.9301 3.97826
52.3569 17.05 3.97432
52.0712 66.9997 0.0118696
52.9539 64.2189 0.0154167
60.9515 47.8704 0.0307618
53.6809 61.6215 0.0199503
56.6467 59.4861 0.0241128
54.258 59.3168 0.0240572
59.6891 52.0948 0.0321418
57.9723 49.6005 0.0292178
56.771 56.9745 0.0312759
57.103 54.1063 0.0333421
51.1683 65.1288 2
52.0461 62.5395 2
55.477 58.2461 2
52.833 60.1345 2
53.6358 58.4671 2
58.2312 46.8319 2
57.5305 51.7701 2
56.1739 49.5337 2
55.4597 55.7741 2
55.3291 53.3634 2
50.3468 63.3807 3.9837
51.2438 60.934 3.97973
54.2119 57.2614 3.97622
52.3091 58.6277 3.97649
56.5868 44.1611 3.97764
55.3987 47.8722 3.97293
55.0258 51.3702 3.96751
53.9809 54.5206 3.96596
49.3375 65.9212 0.0145451
48.6185 64.1229 2
47.9627 62.4739 3.98328
45.5586 67.098 0.0144242
46.893 64.7357 0.0159893
43.6317 67.4692 2
46.3825 63.0529 2
45.133 65.1974 2
45.9882 61.5844 3.98333
44.7679 63.4528 3.98296
43.3572 65.5062 3.9839
41.6638 67.6873 3.98532
39.7024 70.0246 3.98843
41.8608 69.8782 2
42.1113 72.2071 3.99265
43.9736 69.5902 0.0115651
44.3774 71.8625 2
44.8159 74.2794 4
46.6098 71.3674 0.00717896
47.2057 73.7222 2
49.554 73.0099 0
48.7851 4.32278 3.99253
50.955 5.13184 2
51.8506 2.85458 4
53.0647 6.07186 0.00844597
54.0858 3.86728 2
56.25 5.02411 0
61.9296 45.911 0.0289199
63.2832 42.5451 0.0274443
61.3883 43.6748 0.0243003
62.3597 40.6932 0.0242845
63.8461 39.2642 0.0275398
65.8731 37.501 0.0297561
63.9072 37.4557 2
62.0731 39.3518 2
61.1372 41.9505 2
60.1868 44.7588 2
61.9117 37.4433 3.97368
60.143 39.8403 3.97711
58.8847 42.9041 3.977
64.0446 35.6322 0.0279729
62.8775 33.0485 0.0269347
60.5525 30.6183 0.0244824
57.9369 16.9877 0.0240847
57.7034 19.4861 0.032154
57.3425 21.8541 0.036572
59.5208 27.9195 0.025638
57.6917 25.7389 0.0252708
57.1442 23.9612 0.0311622
55.5342 16.9793 0.0227465
53.7542 16.9904 0.0203556
52.9758 15.2729 0.0249362
50.1125 7.28538 0.012988
52.1716 12.8018 0.020987
51.2327 10.1268 0.0176082
62.1074 35.3602 2
60.1999 32.7509 2
58.5397 30.0872 2
56.6296 18.1625 2
56.3373 20.5338 2
56.0672 22.8876 2
57.2228 27.3967 2
56.2367 25.1198 2
48.0565 6.52706 2
49.3248 9.33269 2
54.4078 17.9292 2
52.356 17.0492 2
51.3755 14.504 2
50.4329 11.9973 2
59.786 35.1222 3.97674
57.8727 32.2822 3.97684
56.4535 29.3572 3.97715
55.3619 26.6211 3.97566
55.3299 19.1986 3.97454
54.8713 24.0793 3.96667
54.9696 21.5822 3.9639
45.9625 5.88256 3.98881
43.374 7.4739 3.98577
47.3554 8.62567 3.9844
48.6002 11.2977 3.98103
49.7128 13.7491 3.97951
50.6303 16.1427 3.97703
53.1149 18.6737 3.97387
51.2932 18.0635 3.98065
51.1685 65.1282 0.0147222
52.0465 62.5386 0.0177277
58.2321 46.8325 0.0261767
52.833 60.1329 0.021923
55.4772 58.2451 0.0233613
53.6359 58.4664 0.0206373
57.5305 51.7706 0.0317129
56.175 49.5343 0.0292209
55.4592 55.773 0.0344808
55.3286 53.3632 0.035245
50.3465 63.3812 2
51.2435 60.935 2
54.2118 57.2624 2
52.3089 58.6283 2
56.5861 44.1603 2
55.3973 47.8714 2
55.0259 51.37 2
53.9816 54.522 2
49.5922 61.7439 3.98231
55.4554 41.6808 3.97686
50.5647 59.3255 3.97593
52.1737 56.4809 3.97032
54.0396 45.5318 3.97638
53.2426 49.303 3.97054
52.6266 52.8267 3.96594
48.6187 64.1224 0.0158286
47.9625 62.4742 2
47.3296 61.0076 3.9834
43.6317 67.4686 0.0143638
45.1332 65.1968 0.016027
46.3826 63.0524 0.0165647
41.6638 67.6877 2
43.357 65.5069 2
45.9882 61.585 2
44.7678 63.4534 2
45.7665 60.6283 3.98157
44.4843 61.833 3.98257
43.1471 63.7249 3.98251
41.5466 65.6436 3.98313
39.6329 67.7668 3.98494
37.5259 70.0496 3.98826
39.7024 70.0253 2
39.818 72.4042 3.99248
41.8607 69.8776 0.0117024
42.1116 72.2074 2
42.3947 74.6792 4
44.3771 71.8622 0.00729007
44.8159 74.2794 2
47.2057 73.7222 0
43.8519 5.35932 3.98898
46.5711 3.64719 3.99276
48.7854 4.32248 2
49.554 1.99015 4
50.9546 5.13202 0.00794477
51.8506 2.85453 2
54.0858 3.86728 0
60.1879 44.7592 0.0247015
61.1382 41.9507 0.0243929
62.074 39.3519 0.0256402
63.9079 37.4557 0.0279696
61.9107 37.4433 2
60.1419 39.84 2
58.8838 42.9037 2
59.6408 37.5641 3.97783
57.853 40.642 3.97767
54.8954 39.6971 3.97671
62.1086 35.3602 0.0264005
60.2013 32.7507 0.0243083
58.54 30.0867 0.023604
56.63 18.1638 0.0243519
56.3369 20.5367 0.0347809
56.0661 22.887 0.0364006
57.2211 27.3961 0.0243501
56.2345 25.1192 0.0278453
54.4082 17.9301 0.0217406
52.3569 17.05 0.0256773
51.3761 14.5052 0.0237713
48.0565 6.52783 0.0118581
49.3248 9.33332 0.0167759
50.4332 11.9979 0.0196757
59.784 35.1224 2
45.9625 5.88212 2
43.374 7.47347 2
57.8732 32.2829 2
56.4535 29.358 2
55.3298 19.1977 2
54.9706 21.5814 2
54.871 24.0808 2
55.3571 26.6223 2
47.3554 8.6246 2
48.6 11.2971 2
53.1148 18.6727 2
51.2926 18.0628 2
50.6296 16.1419 2
49.7121 13.7487 2
57.2374 34.771 3.9776
55.6028 31.5387 3.9781
54.384 28.4336 3.97836
53.7035 25.525 3.97311
53.9507 20.1517 3.97397
53.5347 22.7383 3.95926
41.3992 7.07908 3.98634
45.3602 7.99571 3.98586
42.8661 9.41752 3.98319
46.6669 10.6567 3.98185
47.7447 13.1077 3.98097
48.9292 15.4089 3.97729
49.9999 17.7115 3.9779
51.6351 19.3396 3.98095
50.3468 63.3807 0.0163034
51.2438 60.934 0.0202737
56.5868 44.1611 0.0223644
55.3987 47.8722 0.0270676
52.3091 58.6277 0.0235115
54.2119 57.2614 0.0237796
55.0258 51.3702 0.0324938
53.9809 54.5206 0.0340425
49.5918 61.7442 2
55.4552 41.6804 2
50.5645 59.3265 2
52.1736 56.4817 2
54.0435 45.531 2
53.246 49.3028 2
52.6285 52.8264 2
48.8481 60.2003 3.98054
52.3183 42.6059 3.97981
49.7834 57.6182 3.97599
50.5656 54.4112 3.96717
51.6758 47.2371 3.97592
51.1441 50.9216 3.96419
47.9603 43.7598 3.99089
47.9627 62.4739 0.0167163
47.3295 61.0079 2
46.6185 59.7934 3.98265
41.6638 67.6873 0.0146756
43.3572 65.5062 0.0161043
44.7679 63.4528 0.0170422
45.9882 61.5844 0.0166702
39.633 67.7676 2
41.5464 65.6438 2
45.7662 60.629 2
43.1471 63.7256 2
44.4842 61.8337 2
44.6233 60.2901 3.98235
42.9513 62.0807 3.98096
41.6005 63.8179 3.98248
39.6479 65.6111 3.98225
37.5634 67.7489 3.98476
31.6967 65.1297 3.98301
33.3921 67.4863 3.98457
35.3334 69.9596 3.98823
37.526 70.0503 2
37.5095 72.4587 3.99234
39.7024 70.0246 0.0115715
39.8181 72.4046 2
39.9526 74.9197 4
42.1113 72.2071 0.00735498
42.3947 74.6792 2
44.8159 74.2794 0
41.7365 4.96846 3.98932
43.8519 5.35885 2
44.3263 3.11024 3.99311
46.5713 3.64697 2
47.2057 1.27793 4
48.7851 4.32278 0.00746803
49.554 1.99013 2
51.8506 2.85458 0
58.8847 42.9041 0.022996
60.143 39.8403 0.0228923
61.9117 37.4433 0.0263196
59.6396 37.564 2
57.8516 40.6415 2
54.8962 39.6955 2
56.6408 37.8869 3.978
49.3516 41.3096 3.98943
52.9169 39.3033 3.98297
39.4427 6.80263 3.9864
59.786 35.1222 0.0232557
57.8727 32.2822 0.0231626
56.4535 29.3572 0.0228545
55.3299 19.1986 0.0254555
54.9696 21.5822 0.036101
54.8713 24.0793 0.0333283
55.3619 26.6211 0.0243435
53.1149 18.6737 0.026132
51.2932 18.0635 0.0193536
50.6303 16.1427 0.0229686
45.9625 5.88256 0.0111889
49.7128 13.7491 0.020494
47.3554 8.62567 0.0156027
48.6002 11.2977 0.0189733
43.374 7.4739 0.0142256
57.2346 34.771 2
41.3992 7.07861 2
45.36 7.99534 2
42.8658 9.41709 2
55.6039 31.5396 2
54.381 28.4348 2
53.951 20.1515 2
53.5353 22.7357 2
53.7014 25.5264 2
46.6667 10.6553 2
47.7442 13.1069 2
51.6351 19.3387 2
49.9991 17.7106 2
48.9283 15.4086 2
54.6863 33.9745 3.9769
53.3406 30.5183 3.97809
52.4834 27.2382 3.97506
52.0801 24.1332 3.97418
52.3627 21.0746 3.97759
41.014 9.05019 3.98341
44.7247 9.99695 3.98345
42.4689 10.9051 3.98355
46.005 12.7352 3.97925
47.6794 14.5915 3.97757
48.1073 16.9964 3.97617
49.8084 19.6583 3.97678
49.5922 61.7439 0.0176946
50.5647 59.3255 0.0240659
55.4554 41.6808 0.0231372
54.0396 45.5318 0.0236172
53.2426 49.303 0.0294552
52.1737 56.4809 0.0296844
52.6266 52.8267 0.0340614
48.8479 60.2 2
52.3244 42.6057 2
49.7831 57.6192 2
50.5659 54.4121 2
51.679 47.2367 2
51.146 50.9207 2
47.9662 43.774 2
47.9841 58.7389 3.979
49.9087 45.2441 3.97917
48.583 55.9097 3.97721
49.0836 52.5731 3.97272
49.5731 49.0196 3.97048
45.7559 39.8587 3.88856
46.199 42.6387 3.92762
46.3255 45.8023 3.99019
43.5846 41.138 3.82639
41.908 42.0103 3.72065
47.3296 61.0076 0.0165994
46.6179 59.794 2
45.4668 58.7899 3.98151
39.6329 67.7668 0.0150615
41.5466 65.6436 0.0168747
43.1471 63.7249 0.0174941
44.4843 61.833 0.0174301
45.7665 60.6283 0.0184281
41.6006 63.8182 2
37.5635 67.7497 2
39.6478 65.6118 2
44.623 60.2908 2
42.9513 62.0812 2
41.7541 62.4915 3.98133
42.4806 59.9793 3.98206
39.8942 63.5516 3.98133
37.6423 65.5102 3.98267
35.4635 67.658 3.98458
33.5752 65.3428 3.98248
31.9591 63.3007 3.98245
29.8827 64.7209 3.98379
31.6967 65.1305 2
31.3766 67.1962 3.98483
33.3921 67.4869 2
33.1563 69.753 3.98803
35.3334 69.9604 2
35.1947 72.373 3.99229
37.5259 70.0496 0.0117442
37.5095 72.4591 2
37.5 75 4
39.818 72.4042 0.00752162
39.9526 74.9197 2
42.3947 74.6792 0
39.6242 4.71573 3.98958
41.7365 4.96798 2
42.0626 2.71777 3.99323
43.8519 5.35932 0.0110241
44.3265 3.10994 2
44.8158 0.721173 4
46.5711 3.64719 0.00724306
47.2057 1.27779 2
49.554 1.99015 0
57.853 40.642 0.0223343
59.6408 37.5641 0.0221695
54.8954 39.6971 0.0232859
49.3683 41.313 2
56.6391 37.8872 2
52.9185 39.3028 2
53.7635 36.631 3.97705
47.2778 40.384 3.93522
50.2926 38.5086 3.99309
37.5165 6.67384 3.98654
39.4427 6.80206 2
39.2115 8.69283 3.98416
35.9424 8.49292 3.98429
57.2374 34.771 0.022396
55.6028 31.5387 0.021903
54.384 28.4336 0.0216404
53.9507 20.1517 0.0260273
53.5347 22.7383 0.0407413
53.7035 25.525 0.0268869
51.6351 19.3396 0.0190516
49.9999 17.7115 0.0221034
48.9292 15.4089 0.0227119
45.3602 7.99571 0.0141416
47.7447 13.1077 0.0190319
46.6669 10.6567 0.0181487
41.3992 7.07908 0.0136597
42.8661 9.41752 0.0168053
54.687 33.9739 2
41.0138 9.04994 2
44.7242 9.99675 2
42.4685 10.9052 2
53.337 30.517 2
52.4883 27.2397 2
52.3635 21.0736 2
52.0818 24.1343 2
46.0045 12.7331 2
47.6786 14.5906 2
49.8084 19.6566 2
48.1063 16.9959 2
52.2476 32.8919 3.98022
51.164 29.1928 3.97671
50.692 25.7705 3.97215
49.9133 22.2417 3.97816
40.5702 11.6102 3.98069
43.8587 11.9202 3.97999
45.7997 15.4299 3.98064
47.4979 19.2721 3.97723
46.0938 37.4861 3.89588
48.8481 60.2003 0.0194588
49.7834 57.6182 0.0240138
52.3183 42.6059 0.0201937
51.6758 47.2371 0.0240842
51.1441 50.9216 0.0358071
50.5656 54.4112 0.0328341
47.9603 43.7598 0.00911053
47.9836 58.7397 2
49.9159 45.2489 2
48.5823 55.9116 2
49.0838 52.5755 2
49.5763 49.0195 2
45.7835 39.8661 2
46.2195 42.6546 2
46.3255 45.7969 2
43.608 41.159 2
41.9198 42.0201 2
46.8329 57.3409 3.98283
44.3318 39.42 3.82693
42.2567 40.8735 3.76291
47.9353 47.2092 3.97641
47.1425 54.2292 3.97471
47.5201 50.7272 3.96603
44.6782 47.3873 3.98289
44.8585 41.9439 3.88418
44.7987 44.5356 3.94259
42.4407 42.6527 3.83504
40.8165 42.349 3.75409
46.6185 59.7934 0.0173497
45.4662 58.7905 2
43.8729 57.7131 3.98432
37.5634 67.7489 0.015236
39.6479 65.6111 0.0177465
41.6005 63.8179 0.0175174
42.9513 62.0807 0.0190382
44.6233 60.2901 0.0176478
35.4635 67.6591 2
41.7542 62.4919 2
39.8942 63.5521 2
37.6424 65.5109 2
42.4804 59.9797 2
40.6237 61.6481 3.98173
40.4427 58.207 3.98086
37.8373 63.2131 3.98077
35.5729 65.4317 3.98224
33.5753 65.3433 2
31.9589 63.3014 2
33.6288 63.34 3.98183
30.378 62.8596 3.98278
32.1229 62.0063 3.98299
26.8681 61.5025 3.982
28.0616 64.1489 3.98341
29.8828 64.7217 2
29.406 66.76 3.98508
31.6967 65.1297 0.0169928
31.3767 67.1969 2
31.0136 69.4179 3.98801
33.3921 67.4863 0.0154292
33.1563 69.7536 2
32.8916 72.1472 3.99233
35.3334 69.9596 0.0117655
35.1947 72.3735 2
35.0474 74.9194 4
37.5095 72.4587 0.00766033
37.5 75 2
39.9526 74.9197 0
35.6212 6.7249 3.98619
37.5236 4.61528 3.98962
39.6242 4.71519 2
39.789 2.47422 3.99325
41.7365 4.96846 0.0106765
42.0627 2.71746 2
42.3946 0.32156 4
44.3263 3.11024 0.00689066
44.8159 0.72056 2
47.2057 1.27793 0
49.3516 41.3096 0.0105683
56.6408 37.8869 0.0220033
52.9169 39.3033 0.0170319
47.2947 40.3982 2
50.305 38.5065 2
53.7707 36.6323 2
51.085 35.5735 3.9787
47.9365 37.7419 3.94802
45.7565 35.1315 3.88929
43.591 33.8498 3.82305
41.9172 32.9879 3.71727
37.4584 8.53456 3.98454
37.5165 6.67311 2
39.4427 6.80263 0.0135995
39.2114 8.69224 2
38.977 10.1273 3.98322
35.8992 9.7739 3.98266
34.151 8.82256 3.98382
35.9421 8.49212 2
54.6863 33.9745 0.0230962
53.3406 30.5183 0.0219145
52.4834 27.2382 0.0249446
52.3627 21.0746 0.0224104
52.0801 24.1332 0.0258214
49.8084 19.6583 0.0232174
48.1073 16.9964 0.0238335
47.6794 14.5915 0.0224261
44.7247 9.99695 0.0165496
46.005 12.7352 0.0207481
41.014 9.05019 0.0165889
42.4689 10.9051 0.0164477
52.2521 32.8925 2
40.5702 11.6107 2
43.8577 11.9203 2
51.1772 29.1935 2
50.6954 25.7725 2
49.9138 22.2398 2
45.7986 15.4271 2
47.4973 19.2722 2
49.781 31.43 3.98115
49.1597 27.5403 3.97527
49.3396 24.4558 3.98557
47.1699 22.0112 3.9738
38.3031 12.7381 3.97957
42.1018 14.3097 3.9784
44.7968 18.4791 3.97693
44.6329 37.4932 3.83033
46.1381 37.492 2
47.9841 58.7389 0.0209958
48.583 55.9097 0.0227868
49.9087 45.2441 0.020834
49.5731 49.0196 0.0295174
49.0836 52.5731 0.0272751
45.7559 39.8587 0.111437
46.199 42.6387 0.0723847
46.3255 45.8023 0.00980813
43.5846 41.138 0.17361
41.908 42.0103 0.279351
46.8319 57.342 2
44.352 39.435 2
42.2467 40.8752 2
47.935 47.2122 2
47.1419 54.2334 2
47.5211 50.7299 2
44.6825 47.3647 2
44.8794 41.9592 2
44.8125 44.5528 2
42.4753 42.6776 2
40.8168 42.3483 2
45.387 55.9326 3.98989
42.5774 39.2697 3.77497
40.7152 40.7885 3.84508
45.9962 48.892 3.98345
45.4967 52.5214 3.98149
43.3555 48.4123 4.00071
43.2998 46.0856 3.93032
43.5234 43.7357 3.88149
41.0173 43.8022 3.82918
39.2783 42.6909 3.76908
45.4668 58.7899 0.0184858
43.8724 57.7135 2
42.1019 56.3351 3.98678
35.4635 67.658 0.0154198
37.6423 65.5102 0.0173345
39.8942 63.5516 0.0186694
41.7541 62.4915 0.0186716
42.4806 59.9793 0.017937
35.5731 65.433 2
40.6237 61.6487 2
37.8372 63.2136 2
40.4423 58.2076 2
38.9216 56.4984 3.98826
38.2505 60.3301 3.98046
35.607 63.2056 3.98034
33.5752 65.3428 0.017524
31.9591 63.3007 0.0175519
33.6286 63.3407 2
30.3778 62.8603 2
32.1228 62.0071 2
28.6806 62.2043 3.98246
33.3457 61.5182 3.98222
31.0662 61.2234 3.98226
27.5679 59.5981 3.98118
23.7926 59.0849 3.98075
25.0339 60.875 3.98103
26.8682 61.503 2
26.2282 63.481 3.98338
28.0617 64.1495 2
27.4625 66.184 3.98516
29.8827 64.7209 0.0162119
29.406 66.7607 2
28.9058 68.9436 3.98795
31.3766 67.1962 0.0151657
31.0135 69.4186 2
30.6139 71.7782 3.99236
33.1563 69.753 0.011971
32.8915 72.1476 2
32.6054 74.6784 4
35.1947 72.373 0.00771161
35.0474 74.9197 2
37.5 75 0
33.7239 6.97963 3.98573
35.4352 4.68552 3.98944
35.621 6.72426 2
37.5144 2.38683 3.99325
37.5236 4.61476 2
39.6242 4.71573 0.01042
39.789 2.47388 2
39.9526 0.0806499 4
42.0626 2.71777 0.00677135
42.3947 0.320817 2
44.8158 0.721173 0
44.3469 35.5658 3.82195
42.2677 34.1164 3.75867
47.2778 40.384 0.0647804
50.2926 38.5086 0.00690616
53.7635 36.631 0.0229544
47.9487 37.7483 2
51.0966 35.5746 2
45.7774 35.1168 2
43.6174 33.8303 2
41.928 32.9781 2
48.1103 34.3065 3.97306
44.8646 33.0419 3.87612
42.4559 32.3463 3.83142
40.8277 32.6519 3.7519
37.3114 10.6313 3.98184
37.4583 8.53352 2
37.5165 6.67384 0.0134648
39.2115 8.69283 0.0158375
38.9772 10.1266 2
34.7544 10.3803 3.98177
35.8991 9.77305 2
32.3778 9.36967 3.98291
34.1506 8.82193 2
35.9424 8.49292 0.0157117
52.2476 32.8919 0.0197821
51.164 29.1928 0.0232878
50.692 25.7705 0.027847
49.9133 22.2417 0.0218381
47.4979 19.2721 0.0227702
45.7997 15.4299 0.0193634
43.8587 11.9202 0.0200109
40.5702 11.6102 0.0193148
49.7915 31.427 2
38.3028 12.7368 2
42.1012 14.3119 2
49.1637 27.5414 2
49.3418 24.4533 2
47.1688 22.0083 2
44.7961 18.4866 2
47.6214 29.5334 3.98889
47.0342 25.1997 3.98363
44.2785 21.3825 3.97576
36.5829 12.9347 3.97924
38.6822 14.8121 3.97812
41.7479 17.854 3.97784
42.6947 37.4859 3.7843
44.6503 37.4938 2
46.0938 37.4861 0.104115
46.8329 57.3409 0.0171665
47.1425 54.2292 0.0252949
47.9353 47.2092 0.0235898
47.5201 50.7272 0.0339684
44.3318 39.42 0.173068
44.8585 41.9439 0.115818
44.7987 44.5356 0.0574069
44.6782 47.3873 0.0171052
42.4407 42.6527 0.16496
42.2567 40.8735 0.237091
40.8165 42.349 0.245908
45.3863 55.9328 2
42.57 39.2681 2
40.7028 40.7787 2
45.9954 48.8965 2
45.4972 52.5262 2
43.3574 48.4311 2
43.3266 46.1119 2
43.5458 43.7582 2
41.0419 43.8284 2
39.27 42.6808 2
43.7224 54.4417 3.99686
40.8132 39.163 3.87664
39.149 40.8705 3.87098
43.6332 50.4679 4.0023
41.9046 47.6312 3.96371
41.8324 45.1592 3.88669
39.3435 44.5191 3.83952
37.4979 42.7988 3.78922
43.8729 57.7131 0.0156848
42.1014 56.3357 2
40.4116 54.9411 3.99084
35.5729 65.4317 0.0177636
37.8373 63.2131 0.0192269
40.6237 61.6481 0.0182657
40.4427 58.207 0.0191373
35.6069 63.2068 2
38.2505 60.3308 2
38.921 56.499 2
37.9978 55.25 3.988
36.9333 57.6277 3.98044
35.3636 60.915 3.98155
33.6288 63.34 0.0181711
30.378 62.8596 0.017223
32.1229 62.0063 0.0170069
33.3457 61.5192 2
28.6806 62.2048 2
31.0662 61.2241 2
29.4027 60.292 3.9813
32.3572 59.7503 3.98546
28.0243 58.3783 3.9867
27.5681 59.5986 2
25.3794 58.5966 3.9791
22.7589 58.241 3.97289
23.4002 60.3541 3.97945
23.7927 59.0858 2
25.0341 60.8757 2
24.4309 62.7733 3.9829
26.8681 61.5025 0.0180014
26.2284 63.4817 2
25.5465 65.4939 3.98501
28.0616 64.1489 0.0165851
27.4625 66.1845 2
26.8353 68.332 3.98797
29.406 66.76 0.0149225
28.9058 68.9441 2
28.3689 71.2633 3.99246
31.0136 69.4179 0.0119887
30.6137 71.7785 2
30.1842 74.2788 4
32.8916 72.1472 0.00766863
32.6053 74.6792 2
35.0474 74.9194 0
31.7883 7.4197 3.98514
33.3473 4.92474 3.9891
33.7237 6.97897 2
35.2445 2.46291 3.99323
35.4351 4.68503 2
35.6212 6.7249 0.0138058
37.5 0 4
37.5143 2.38652 2
37.5236 4.61528 0.0103795
39.789 2.47422 0.00675042
39.9526 0.0802889 2
42.3946 0.32156 0
42.5804 35.7094 3.77656
44.3608 35.553 2
40.7247 34.2082 3.84329
42.2568 34.1164 2
47.9365 37.7419 0.0519846
51.085 35.5735 0.0212963
45.7565 35.1315 0.110713
43.591 33.8498 0.176947
41.9172 32.9879 0.282729
48.1266 34.2865 2
44.8865 33.0289 2
42.4823 32.3243 2
40.827 32.6519 2
46.1363 31.5718 3.94808
43.5224 31.2622 3.88106
41.0268 31.1983 3.82911
39.2877 32.3146 3.76824
35.6932 11.7773 3.98048
37.3116 10.63 2
37.4584 8.53456 0.0154574
38.977 10.1273 0.0167847
33.0984 11.2179 3.98028
34.7544 10.3795 2
35.8992 9.7739 0.0173378
30.4825 10.0181 3.98221
32.3775 9.36919 2
34.151 8.82256 0.0161814
49.781 31.43 0.0188481
49.1597 27.5403 0.0247305
49.3396 24.4558 0.0144276
47.1699 22.0112 0.0261975
44.7968 18.4791 0.0230738
42.1018 14.3097 0.0215975
38.3031 12.7381 0.0204284
36.5826 12.9336 2
47.6253 29.5168 2
38.6812 14.8111 2
41.7469 17.8601 2
47.0381 25.1975 2
44.2772 21.3678 2
45.4349 27.665 4.00128
43.7615 24.1093 4.00329
41.3359 20.7579 3.97925
35.7731 14.7634 3.97805
38.6819 17.6035 3.97792
40.8603 37.4799 3.88588
42.6958 37.4874 2
44.6329 37.4932 0.169671
45.387 55.9326 0.0101141
45.4967 52.5214 0.0185121
45.9962 48.892 0.016548
42.5774 39.2697 0.225033
43.5234 43.7357 0.118507
43.2998 46.0856 0.0696755
43.3555 48.4123 -0.000710434
41.0173 43.8022 0.170821
40.7152 40.7885 0.154918
39.2783 42.6909 0.230922
43.7217 54.4419 2
40.799 39.1566 2
39.137 40.8556 2
43.632 50.483 2
41.8947 47.6471 2
41.8545 45.1817 2
37.4984 42.7866 2
39.3603 44.5386 2
41.862 53.0133 3.99337
39.1631 39.1642 3.90644
37.4972 40.9093 3.88768
35.7222 42.6933 3.76922
40.8686 49.686 3.99941
39.8062 46.052 3.86924
37.4964 44.7434 3.82622
42.1019 56.3351 0.0132154
40.4115 54.9417 2
38.7262 53.8594 3.99529
35.607 63.2056 0.0196641
38.2505 60.3301 0.019535
38.9216 56.4984 0.0117362
35.3636 60.9162 2
36.9333 57.6287 2
37.9973 55.2492 2
36.3198 55.3673 3.98885
34.4882 58.5259 3.98633
33.3457 61.5182 0.0177757
28.6806 62.2043 0.0175402
31.0662 61.2234 0.0177431
32.3571 59.7513 2
29.4028 60.2922 2
30.3011 57.8234 3.98518
28.0244 58.3789 2
26.9515 56.829 3.97858
27.5679 59.5981 0.0188233
25.3795 58.5975 2
23.8456 56.7989 3.97104
21.338 57.3954 3.97224
21.9939 59.6246 3.97849
22.7587 58.2426 2
22.7351 62.0243 3.98158
23.4003 60.3549 2
23.7926 59.0849 0.0192489
25.0339 60.875 0.0189699
24.4312 62.7741 2
23.6804 64.712 3.98471
26.2282 63.481 0.0166226
25.5466 65.4946 2
24.8074 67.5932 3.98788
27.4625 66.184 0.0148403
26.8353 68.3326 2
26.1641 70.6041 3.99254
28.9058 68.9436 0.012048
28.3686 71.2636 2
27.7943 73.7221 4
30.6139 71.7782 0.00764267
30.1841 74.2794 2
32.6054 74.6784 0
29.8109 7.9932 3.98439
31.2526 5.33191 3.98846
31.7881 7.41908 2
32.9802 2.70113 3.99302
33.3472 4.92417 2
33.7239 6.97963 0.0142706
35.0474 0.080333 4
35.2444 2.46264 2
35.4352 4.68552 0.0105646
37.5 0 2
37.5144 2.38683 0.00675497
39.9526 0.0806499 0
40.8141 35.8102 3.87806
42.5723 35.7123 2
44.3469 35.5658 0.178053
28.5432 10.6938 3.98167
39.1563 34.1335 3.87027
40.7103 34.2178 2
42.2677 34.1164 0.241334
48.1103 34.3065 0.0269356
44.8646 33.0419 0.123876
42.4559 32.3463 0.168577
40.8277 32.6519 0.248096
46.1594 31.5623 2
43.5381 31.244 2
41.0495 31.1724 2
39.2799 32.3238 2
44.3207 29.7694 3.93858
41.8473 29.8418 3.88866
39.3621 30.481 3.83948
37.5095 32.2104 3.78863
34.0936 12.9367 3.97923
35.6932 11.7762 2
37.3114 10.6313 0.0181622
31.1863 11.9865 3.98049
33.0984 11.2173 2
34.7544 10.3803 0.0182293
30.4822 10.0175 2
32.3778 9.36967 0.0170908
47.6214 29.5334 0.0111065
47.0342 25.1997 0.016365
36.5829 12.9347 0.0207559
44.2785 21.3825 0.0242445
41.7479 17.854 0.0221646
38.6822 14.8121 0.0218771
35.7725 14.7629 2
45.4385 27.6642 2
38.6803 17.6055 2
41.3338 20.7455 2
43.7629 24.0971 2
33.609 15.8813 3.97743
42.9852 26.5083 3.99698
40.8951 23.3257 4.00779
38.4173 20.3719 3.97559
35.8495 17.5188 3.97788
39.1771 37.4835 3.91787
40.844 37.4786 2
42.6947 37.4859 0.215696
43.7224 54.4417 0.00313591
43.6332 50.4679 -0.00230224
40.8132 39.163 0.123358
41.8324 45.1592 0.113312
41.9046 47.6312 0.0362896
39.3435 44.5191 0.160483
39.149 40.8705 0.129016
37.4979 42.7988 0.210784
41.8643 53.0123 2
39.1472 39.1628 2
37.4965 40.894 2
40.8866 49.698 2
35.7284 42.6834 2
39.83 46.0791 2
37.4931 44.7583 2
39.7984 51.9088 3.99548
37.4961 39.1835 3.9235
35.8439 40.8828 3.86975
34.1791 42.3494 3.75306
35.6395 44.527 3.83707
38.6753 48.6999 3.97972
37.4917 46.3589 3.87437
40.4116 54.9411 0.00916264
38.7272 53.8586 2
36.7319 53.1933 4.0017
35.3636 60.915 0.0184478
36.9333 57.6277 0.0195598
37.9978 55.25 0.0119993
34.4882 58.5274 2
36.32 55.373 2
33.2343 55.5111 3.99132
32.3572 59.7503 0.0145401
29.4027 60.292 0.018701
30.3014 57.8237 2
28.7033 55.3185 3.97894
28.0243 58.3783 0.0132991
26.9511 56.8298 2
25.3248 55.1371 3.97396
21.8217 55.342 3.96779
25.3794 58.5966 0.0209005
23.8452 56.8011 2
20.2239 57.0238 3.97792
20.6466 58.7794 3.97608
21.3376 57.3972 2
21.1659 61.1728 3.97995
21.9939 59.6259 2
22.7589 58.241 0.0271132
21.8939 63.8398 3.98398
22.7353 62.0252 2
23.4002 60.3541 0.0205524
24.4309 62.7733 0.0170993
23.6806 64.7127 2
22.8356 66.7367 3.9877
25.5465 65.4939 0.014988
24.8075 67.5939 2
24.0083 69.8052 3.99261
26.8353 68.332 0.0120335
26.1638 70.6043 2
25.446 73.0099 4
28.3689 71.2633 0.00754096
27.7943 73.7222 2
30.1842 74.2788 0
27.8207 8.65306 3.98402
29.1546 5.8777 3.98782
29.8106 7.99248 2
30.7253 3.09833 3.99272
31.2524 5.33139 2
31.7883 7.4197 0.0148582
32.6053 0.320823 4
32.98 2.70081 2
33.3473 4.92474 0.0108982
35.0474 0.0802903 2
35.2445 2.46291 0.00676786
37.5 0 0
39.1716 35.815 3.9048
40.7982 35.8154 2
42.5804 35.7094 0.223439
28.5431 10.6933 2
26.6219 11.3893 3.98193
29.2252 12.6435 3.98129
37.503 34.1003 3.88616
39.142 34.1485 2
40.7247 34.2082 0.156708
46.1363 31.5718 0.0519175
43.5224 31.2622 0.118936
41.0268 31.1983 0.170893
39.2877 32.3146 0.231763
44.3406 29.7531 2
41.8642 29.8253 2
39.3774 30.4589 2
37.5112 32.2236 2
42.3253 28.4159 3.91983
39.8511 28.9452 3.88792
37.5216 30.2585 3.8264
35.7352 32.3129 3.7683
31.9154 14.483 3.9794
34.0935 12.9362 2
35.6932 11.7773 0.0195239
31.1865 11.9861 2
33.0984 11.2179 0.0197193
30.4825 10.0181 0.0177917
45.4349 27.665 -0.00128096
43.7615 24.1093 -0.00329394
35.7731 14.7634 0.0219518
41.3359 20.7579 0.0207481
38.6819 17.6035 0.0220754
33.608 15.8815 2
35.8476 17.5183 2
42.9922 26.5057 2
38.4179 20.3667 2
40.8938 23.3119 2
33.5516 17.3931 3.97901
40.3733 25.6666 4.00183
38.07 22.921 3.99462
35.5816 20.0926 3.97851
37.4962 37.4952 3.93829
39.1594 37.4842 2
40.8603 37.4799 0.114124
41.862 53.0133 0.00663217
40.8686 49.686 0.000590479
39.1631 39.1642 0.0935582
39.8062 46.052 0.130757
37.4964 44.7434 0.173784
37.4972 40.9093 0.112319
35.7222 42.6933 0.230779
39.8068 51.9087 2
37.4951 39.1769 2
35.8571 40.8672 2
38.6795 48.7338 2
34.1787 42.3494 2
35.6234 44.5489 2
37.4907 46.3841 2
37.6386 50.9834 4.0112
35.8313 39.1832 3.90587
34.2808 40.8003 3.84422
33.0821 42.0127 3.71903
33.9679 43.7943 3.82816
35.1536 46.0337 3.8804
36.868 48.3381 3.94757
38.7262 53.8594 0.00470576
36.7299 53.1985 2
34.3729 52.4675 3.9947
34.4882 58.5259 0.0136685
36.3198 55.3673 0.0111515
33.2344 55.5122 2
30.5335 53.3644 3.9788
30.3011 57.8234 0.0148171
28.7027 55.3202 2
26.9047 53.4294 3.973
26.9515 56.829 0.0214219
25.3243 55.1405 2
23.5986 53.4711 3.96548
20.4944 53.2121 3.96061
19.9415 55.8266 3.97149
21.8204 55.3436 2
23.8456 56.7989 0.0289604
19.4407 57.885 3.97511
20.2232 57.0254 2
19.7067 60.204 3.97742
20.6463 58.7805 2
21.338 57.3954 0.027756
20.2066 62.8603 3.98209
21.1661 61.1741 2
21.9939 59.6246 0.0215122
20.937 65.7656 3.98733
21.894 63.8406 2
22.7351 62.0243 0.0184173
23.6804 64.712 0.0152881
22.8357 66.7373 2
21.9108 68.8722 3.99248
24.8074 67.5932 0.0121203
24.0079 69.8054 2
23.1494 72.1454 4
26.1641 70.6041 0.00746106
25.446 73.0099 2
27.7943 73.7221 0
25.8599 9.3815 3.98354
27.0693 6.54188 3.98712
27.8205 8.65248 2
28.4874 3.64433 3.99241
29.1543 5.87711 2
29.8109 7.9932 0.0156074
30.1841 0.720592 4
30.7251 3.09805 2
31.2526 5.33191 0.0115407
32.6053 0.320817 2
32.9802 2.70113 0.00697953
35.0474 0.080333 0
37.498 35.8122 3.92363
39.1539 35.8172 2
40.8141 35.8102 0.121936
24.7767 12.0724 3.98226
23.7515 14.3589 3.98136
28.5432 10.6938 0.018332
26.6219 11.3888 2
29.2255 12.6429 2
27.2914 13.3761 3.98177
29.7807 14.2038 3.98085
35.8535 34.1285 3.86958
37.5012 34.1159 2
39.1563 34.1335 0.129727
37.5095 32.2104 0.211367
44.3207 29.7694 0.0614183
41.8473 29.8418 0.111344
39.3621 30.481 0.160517
42.3508 28.391 2
39.864 28.9166 2
37.5211 30.2479 2
35.7431 32.323 2
40.0377 27.5786 3.9161
37.5286 28.6409 3.88086
35.6697 30.4865 3.84055
34.1993 32.6543 3.75251
30.9271 16.8415 3.97954
31.9153 14.4829 2
34.0936 12.9367 0.0207704
31.1863 11.9865 0.019509
42.9852 26.5083 0.0030159
40.8951 23.3257 -0.00779421
33.609 15.8813 0.0225691
35.8495 17.5188 0.0221224
38.4173 20.3719 0.0244119
33.5502 17.3946 2
35.5833 20.0997 2
40.3757 25.6536 2
38.0658 22.9121 2
32.8616 19.8025 3.98056
37.7966 25.2337 4.00782
35.1952 22.6736 3.98843
35.8211 37.5007 3.9188
37.4935 37.4938 2
39.1771 37.4835 0.082132
39.7984 51.9088 0.00452459
38.6753 48.6999 0.0202824
37.4961 39.1835 0.0765029
37.4917 46.3589 0.125635
35.6395 44.527 0.162928
35.8439 40.8828 0.130246
34.1791 42.3494 0.246937
37.6474 50.9986 2
35.8457 39.1778 2
34.2941 40.791 2
36.8616 48.3626 2
33.0707 42.0234 2
33.9465 43.8184 2
35.1386 46.0583 2
35.488 50.1207 4.00101
34.1903 39.1831 3.87943
32.7268 40.8822 3.76091
32.547 42.6556 3.83501
33.1582 45.1548 3.88622
34.2833 47.4094 3.92469
36.7319 53.1933 -0.00169701
34.3716 52.4722 2
32.0329 51.1751 4.00184
33.2343 55.5111 0.00867747
30.5327 53.3695 2
28.4556 51.5792 3.97702
28.7033 55.3185 0.0210564
26.9037 53.4325 2
25.1131 51.7327 3.96189
25.3248 55.1371 0.0260435
23.5975 53.4737 2
22.0049 51.7917 3.95978
19.2374 51.6251 3.96423
18.9392 54.3002 3.96184
20.4936 53.2115 2
18.4523 56.7171 3.97446
19.9405 55.8282 2
21.8217 55.342 0.0322056
18.3699 59.1064 3.97441
19.4402 57.8861 2
20.2239 57.0238 0.0220841
18.6183 61.7655 3.97898
19.7067 60.2054 2
20.6466 58.7794 0.0239237
19.126 64.676 3.98636
20.2066 62.8615 2
21.1659 61.1728 0.0200475
19.8849 67.8088 3.99238
20.9371 65.7664 2
21.8939 63.8398 0.0160155
22.8356 66.7367 0.0122983
21.9104 68.8723 2
20.9142 71.1327 4
24.0083 69.8052 0.00739364
23.1494 72.1455 2
25.446 73.0099 0
23.0961 12.7874 3.98191
23.9723 10.1684 3.98329
25.0231 7.3123 3.98653
25.8597 9.38099 2
26.2791 4.32866 3.99203
27.069 6.54141 2
27.8207 8.65306 0.015978
27.7943 1.27781 4
28.4871 3.64407 2
29.1546 5.8777 0.0121755
30.1841 0.720551 2
30.7253 3.09833 0.00727908
32.6053 0.320823 0
35.8311 35.8202 3.9058
37.4954 35.8191 2
39.1716 35.815 0.0951971
24.7768 12.0721 2
23.7521 14.3587 2
22.4804 15.0358 3.98093
25.3575 13.9079 3.98128
24.0253 15.6221 3.98056
26.6219 11.3893 0.018075
29.2252 12.6435 0.0187051
27.2918 13.3756 2
29.7808 14.2035 2
28.3571 15.9784 3.98103
34.2907 34.2101 3.84353
35.8645 34.1442 2
37.503 34.1003 0.113843
35.7352 32.3129 0.2317
37.5216 30.2585 0.173603
42.3253 28.4159 0.0801712
39.8511 28.9452 0.112075
40.0472 27.5573 2
37.531 28.6163 2
35.6454 30.4605 2
34.1937 32.6551 2
37.6104 27.2775 3.93072
35.1907 28.9543 3.88714
33.988 31.2088 3.82883
33.1088 32.9898 3.71957
30.2085 19.3459 3.98483
30.9264 16.8419 2
31.9154 14.483 0.0206017
40.3733 25.6666 -0.001831
38.07 22.921 0.00537693
33.5516 17.3931 0.0209908
35.5816 20.0926 0.0214874
32.8623 19.8041 2
35.1937 22.6683 2
37.782 25.2225 2
32.3096 22.4284 3.99161
34.9986 25.2192 4.00465
34.1372 37.5029 3.88708
35.8345 37.4998 2
37.4962 37.4952 0.0617077
37.6386 50.9834 -0.0112048
36.868 48.3381 0.0524298
35.8313 39.1832 0.0941272
35.1536 46.0337 0.119595
33.9679 43.7943 0.171844
34.2808 40.8003 0.155778
33.0821 42.0127 0.280969
35.4848 50.1381 2
34.211 39.1757 2
32.7368 40.8836 2
34.274 47.4436 2
32.521 42.677 2
33.1426 45.1757 2
33.2818 49.1157 3.99973
32.4101 39.2853 3.77897
31.3957 41.1457 3.82537
31.4751 43.7372 3.88396
32.2952 46.3334 3.92316
34.3729 52.4675 0.00529639
32.031 51.1837 2
29.9054 49.6954 3.99026
30.5335 53.3644 0.0212029
28.4536 51.5784 2
26.5546 49.9679 3.97198
26.9047 53.4294 0.0269979
25.1112 51.7305 2
23.392 50.1777 3.96881
23.5986 53.4711 0.0345224
22.0037 51.7905 2
20.5108 50.3035 3.96715
18.0279 50.3211 3.96851
17.8626 52.7834 3.96305
19.2357 51.6246 2
17.4476 55.3323 3.96656
18.9382 54.2998 2
20.4944 53.2121 0.0393907
17.1379 57.8684 3.97373
18.4514 56.7181 2
19.9415 55.8266 0.028507
17.137 60.5462 3.97619
18.3697 59.1075 2
19.4407 57.885 0.0248903
17.4069 63.4676 3.98357
18.6184 61.7669 2
19.7067 60.204 0.0225831
17.9412 66.6173 3.99213
19.126 64.6771 2
20.2066 62.8603 0.0179081
18.75 69.9759 4
19.8845 67.8089 2
20.937 65.7656 0.0126675
21.9108 68.8722 0.00752117
20.9142 71.1327 2
23.1494 72.1454 0
21.5871 13.6079 3.98137
22.1903 11.0279 3.98281
23.0965 12.7874 2
23.0409 8.17799 3.98612
23.9723 10.168 2
24.1166 5.14352 3.99171
25.0227 7.31181 2
25.8599 9.3815 0.0164592
25.446 1.99014 4
26.2786 4.32848 2
27.0693 6.54188 0.0128799
27.7943 1.27778 2
28.4874 3.64433 0.00758733
30.1841 0.720592 0
34.184 35.8239 3.87686
35.844 35.8245 2
37.498 35.8122 0.0763696
21.306 15.8318 3.98113
24.7767 12.0724 0.0177443
23.7515 14.3589 0.0186399
25.3581 13.9077 2
22.4811 15.0358 2
24.0259 15.6221 2
23.2649 16.2542 3.97969
25.3808 16.0907 3.98089
27.2914 13.3761 0.0182281
29.7807 14.2038 0.01915
28.3573 15.9786 2
27.4408 18.8023 3.98346
32.748 34.1205 3.75872
34.3088 34.2209 2
35.8535 34.1285 0.130423
34.1993 32.6543 0.247492
35.6697 30.4865 0.159452
37.5286 28.6409 0.119137
40.0377 27.5786 0.0838983
37.6112 27.2471 2
33.0943 32.981 2
35.1792 28.9285 2
33.9632 31.1768 2
35.0728 27.4064 3.93377
33.1798 29.8508 3.88227
32.5695 32.3404 3.82457
29.5823 21.9408 3.99719
30.2092 19.3488 2
30.9271 16.8415 0.0204614
37.7966 25.2337 -0.00782236
35.1952 22.6736 0.0115683
32.8616 19.8025 0.0194364
32.3082 22.4269 2
35.0117 25.212 2
31.7424 25.65 4.00434
32.2913 37.5053 3.78634
34.1578 37.5052 2
35.8211 37.5007 0.0812012
35.488 50.1207 -0.00100548
34.2833 47.4094 0.0753103
34.1903 39.1831 0.120569
33.1582 45.1548 0.113785
32.547 42.6556 0.164988
32.7268 40.8822 0.239088
33.2757 49.1076 2
32.4222 39.2821 2
31.3726 41.1629 2
32.2684 46.3578 2
31.452 43.7583 2
31.2105 47.9483 3.99188
30.6452 39.4296 3.82348
30.1287 41.9549 3.8771
30.4983 44.9234 3.93947
32.0329 51.1751 -0.00184331
29.9023 49.6944 2
27.9472 48.1606 3.96888
28.4556 51.5792 0.0229824
26.5529 49.9661 2
24.7198 48.4501 3.97271
25.1131 51.7327 0.0381089
23.3912 50.1757 2
21.7349 48.7731 3.97031
22.0049 51.7917 0.0402239
20.5092 50.3026 2
19.093 49.081 3.97212
16.9339 49.3227 3.97224
16.8032 51.3992 3.96644
18.0285 50.3203 2
16.4047 53.8639 3.9647
17.8604 52.7832 2
19.2374 51.6251 0.0357701
15.983 56.4684 3.9683
17.4469 55.3327 2
18.9392 54.3002 0.0381585
15.7516 59.2066 3.97485
17.1374 57.8697 2
18.4523 56.7171 0.0255438
15.7883 62.1362 3.9799
17.1371 60.5478 2
18.3699 59.1064 0.025589
16.0882 65.3 3.99133
17.4068 63.4689 2
18.6183 61.7655 0.0210186
16.6661 68.6801 4
17.9407 66.6173 2
19.126 64.676 0.0136417
18.75 69.9759 2
19.8849 67.8088 0.00761503
20.9142 71.1327 0
20.2195 14.5972 3.98045
21.5876 13.6079 2
20.5296 11.998 3.98218
21.1437 9.14791 3.9858
22.1905 11.0278 2
23.0961 12.7874 0.0180902
22.0157 6.08263 3.9915
23.0406 8.17752 2
23.9723 10.1684 0.0167081
23.1494 2.85457 4
24.1161 5.1434 2
25.0231 7.3123 0.0134683
25.446 1.99012 2
26.2791 4.32866 0.00796997
27.7943 1.27781 0
32.4146 35.72 3.77336
34.2017 35.832 2
35.8311 35.8202 0.0941977
21.3068 15.8316 2
20.3043 16.9654 3.98168
22.0981 16.6384 3.97878
25.3575 13.9079 0.0187211
22.4804 15.0358 0.0190676
24.0253 15.6221 0.0194413
25.3814 16.0907 2
23.2656 16.2542 2
24.2055 18.4567 3.97742
27.0222 21.4635 3.99067
28.3571 15.9784 0.0189701
27.4422 18.8027 2
31.4272 33.8628 3.8264
32.7609 34.1197 2
34.2907 34.2101 0.156471
33.1088 32.9898 0.280432
33.988 31.2088 0.171168
35.1907 28.9543 0.112858
37.6104 27.2775 0.069278
35.0546 27.3709 2
32.5203 32.3194 2
33.163 29.8256 2
32.6043 28.1306 3.9449
31.483 31.2716 3.88477
28.8453 24.4144 3.9812
29.5795 21.9452 2
30.2085 19.3459 0.0151703
34.9986 25.2192 -0.00464924
32.3096 22.4284 0.0083921
31.7466 25.6337 2
29.7172 27.3291 3.96404
30.3456 37.4965 3.82972
32.2976 37.5019 2
34.1372 37.5029 0.112923
33.2818 49.1157 0.000271252
32.2952 46.3334 0.0768414
32.4101 39.2853 0.221032
31.4751 43.7372 0.116043
31.3957 41.1457 0.174625
31.2074 47.9507 2
30.6244 39.4444 2
30.1073 41.9693 2
30.4847 44.9387 2
29.2821 46.5493 4.00088
29.2251 39.8543 3.88861
28.8426 43.148 3.94084
29.9054 49.6954 0.00974071
27.9436 48.1566 2
26.0475 46.6322 3.97555
26.5546 49.9679 0.0280249
24.7196 48.4476 2
22.9089 47.0563 3.97428
23.392 50.1777 0.0311919
21.7348 48.7717 2
20.0634 47.6044 3.97699
20.5108 50.3035 0.0328547
19.094 49.08 2
17.7236 48.1687 3.9759
16.1784 48.6753 3.97477
16.935 49.3221 2
15.8777 50.1626 3.96927
15.3945 52.4095 3.96605
16.8025 51.3988 2
18.0279 50.3211 0.0314893
14.8776 54.9703 3.96675
16.4044 53.864 2
17.8626 52.7834 0.0369486
14.4628 57.7346 3.97137
15.9826 56.4691 2
17.4476 55.3323 0.0334429
14.2669 60.6897 3.97845
15.7515 59.2081 2
17.1379 57.8684 0.0262665
14.333 63.8588 3.98915
15.788 62.1375 2
17.137 60.5462 0.0238108
14.6715 67.2507 4
16.0874 65.2997 2
17.4069 63.4676 0.0164292
16.6661 68.6801 2
17.9412 66.6173 0.00786565
18.75 69.9759 0
18.9338 15.7843 3.98025
20.22 14.5972 2
18.9795 13.1092 3.98118
21.5871 13.6079 0.0186328
20.53 11.998 2
19.3429 10.2359 3.98533
19.9903 7.14725 3.99144
21.1436 9.14766 2
22.1903 11.0279 0.017191
20.9142 3.86727 4
22.015 6.08266 2
23.0409 8.17799 0.0138776
23.1494 2.85451 2
24.1166 5.14352 0.00828746
25.446 1.99014 0
30.6634 35.5827 3.82655
32.4263 35.7213 2
34.184 35.8239 0.123135
21.306 15.8318 0.0188724
22.0989 16.6384 2
20.3051 16.9647 2
19.2477 18.4137 3.97745
21.7833 17.8558 3.97973
25.3808 16.0907 0.0191129
23.2649 16.2542 0.0203052
24.2066 18.4568 2
22.2856 19.9018 3.97438
24.6025 21.3331 3.9854
26.4548 23.7297 3.96968
27.0219 21.4633 2
27.4408 18.8023 0.0165415
30.1592 33.0539 3.88366
31.4039 33.8291 2
32.748 34.1205 0.241276
32.5695 32.3404 0.175433
33.1798 29.8508 0.117726
35.0728 27.4064 0.0662299
32.5947 28.1167 2
31.4678 31.2469 2
30.2075 29.5694 3.95788
27.958 26.5539 3.97904
28.8446 24.4249 2
29.5823 21.9408 0.00280998
31.7424 25.65 -0.0043414
29.7149 27.2955 2
28.8846 37.511 3.89627
30.3359 37.4989 2
32.2913 37.5053 0.213663
31.2105 47.9483 0.0081175
30.4983 44.9234 0.0605264
30.6452 39.4296 0.176519
30.1287 41.9549 0.122901
29.2796 46.5638 2
29.2023 39.8726 2
28.8161 43.1657 2
27.4221 44.8446 3.98134
26.998 40.5836 3.96368
27.9472 48.1606 0.0311156
26.0447 46.6342 2
24.1382 45.1864 3.97611
24.7198 48.4501 0.0272852
22.9099 47.0546 2
21.0352 45.876 3.97879
21.7349 48.7731 0.0296873
20.0653 47.6031 2
18.3954 46.7259 3.97795
19.093 49.081 0.0278828
17.7242 48.168 2
16.3804 47.705 3.97588
16.1792 48.6748 2
15.2215 49.0084 3.97231
16.9339 49.3227 0.027757
15.8786 50.1621 2
14.5066 50.9792 3.96801
13.8376 53.4297 3.96762
15.3948 52.4093 2
16.8032 51.3992 0.03356
13.2602 56.1613 3.96871
14.8776 54.9703 2
16.4047 53.8639 0.0352991
12.8502 59.123 3.97695
14.4627 57.7357 2
15.983 56.4684 0.031705
12.6789 62.3011 3.98673
14.2667 60.6908 2
15.7516 59.2066 0.0251531
12.7746 65.6939 4
14.3319 63.8581 2
15.7883 62.1362 0.0201047
14.6714 67.2507 2
16.0882 65.3 0.00867004
16.6661 68.6801 0
17.6699 17.1605 3.97708
18.9343 15.784 2
17.5113 14.374 3.98004
20.2195 14.5972 0.0195507
18.98 13.109 2
17.6384 11.455 3.98433
20.5296 11.998 0.0178217
19.343 10.2357 2
18.0505 8.33998 3.9914
18.75 5.0241 4
19.9896 7.14759 2
21.1437 9.14791 0.0142034
20.9142 3.86727 2
22.0157 6.08263 0.00849913
23.1494 2.85457 0
29.2454 35.1334 3.89258
30.6409 35.5641 2
32.4146 35.72 0.22664
22.0981 16.6384 0.0212192
20.3043 16.9654 0.0183246
21.7841 17.8556 2
19.2484 18.4127 2
17.9896 19.947 3.97299
20.8825 19.3866 3.97715
24.2055 18.4567 0.0225765
22.2862 19.9014 2
24.6026 21.3336 2
22.3742 21.7294 3.97732
24.7267 23.1761 3.97336
25.5406 25.9582 3.97112
26.4577 23.7297 2
27.0222 21.4635 0.00932695
28.5352 32.3524 3.93897
30.1339 33.0423 2
31.4272 33.8628 0.173603
31.483 31.2716 0.115227
32.6043 28.1306 0.0551012
30.195 29.5649 2
27.1384 29.1401 4.00467
27.9541 26.5585 2
28.8453 24.4144 0.0187984
29.7172 27.3291 0.0359645
27.119 37.3664 3.94488
28.8477 37.5046 2
30.3456 37.4965 0.170283
29.2821 46.5493 -0.000875246
28.8426 43.148 0.0591603
29.2251 39.8543 0.111391
27.4158 44.863 2
26.9833 40.6007 2
25.4414 43.1571 3.98392
24.2496 39.4424 3.97827
26.0475 46.6322 0.02445
24.1336 45.1851 2
22.0312 43.9298 3.97874
22.9089 47.0563 0.0257191
21.0348 45.8748 2
19.0804 44.9565 3.97844
20.0634 47.6044 0.0230074
18.3969 46.725 2
16.6866 46.2037 3.97641
17.7236 48.1687 0.0241009
16.3811 47.7044 2
14.9625 47.663 3.97374
16.1784 48.6753 0.0252267
15.2225 49.008 2
13.8032 49.541 3.96951
15.8777 50.1626 0.0307312
14.5074 50.979 2
12.9035 51.8706 3.96793
12.1477 54.5225 3.96996
13.838 53.4296 2
15.3945 52.4095 0.0339537
11.5364 57.4547 3.97408
13.2604 56.1617 2
14.8776 54.9703 0.0332519
11.1337 60.6269 3.98485
12.8501 59.1237 2
14.4628 57.7346 0.0286269
10.9835 64.0165 4
12.6775 62.2996 2
14.2669 60.6897 0.0215548
12.7745 65.694 2
14.333 63.8588 0.0108536
14.6715 67.2507 0
16.4056 18.6561 3.97385
17.6703 17.1598 2
16.1029 15.7837 3.97895
18.9338 15.7843 0.0197491
17.5118 14.3734 2
16.0202 12.809 3.98243
18.9795 13.1092 0.0188212
17.6387 11.4547 2
16.2018 9.66287 3.99114
19.3429 10.2359 0.0146701
18.0498 8.34053 2
16.6661 6.31991 4
18.75 5.02404 2
19.9903 7.14725 0.00856116
20.9142 3.86727 0
27.6432 34.7862 3.93802
29.2207 35.1129 2
30.6634 35.5827 0.17345
16.6973 21.3866 3.96455
21.7833 17.8558 0.0202683
19.2477 18.4137 0.022555
20.8831 19.3861 2
17.9902 19.9458 2
19.7397 21.5834 3.97521
22.2856 19.9018 0.0256191
24.6025 21.3331 0.0146032
22.3744 21.7293 2
24.7278 23.1756 2
22.8944 24.6103 3.97078
24.6799 28.5373 3.97719
25.5383 25.9572 2
26.4548 23.7297 0.0303227
26.3796 31.7174 3.9872
28.5085 32.3352 2
30.1592 33.0539 0.116337
30.2075 29.5694 0.0421215
27.1539 29.1308 2
27.958 26.5539 0.0209571
24.9461 36.8595 3.98804
27.0968 37.3627 2
28.8846 37.511 0.103734
27.4221 44.8446 0.018658
26.998 40.5836 0.0363174
25.4279 43.1633 2
24.2362 39.4414 2
23.1468 41.8021 3.97989
21.9679 38.5135 3.97761
24.1382 45.1864 0.0238901
22.0302 43.9305 2
19.8787 42.8775 3.97771
21.0352 45.876 0.0212072
19.0804 44.9558 2
17.0403 44.3705 3.97681
18.3954 46.7259 0.0220539
16.6875 46.2031 2
14.8965 46.0837 3.97445
16.3804 47.705 0.0241241
14.9632 47.6627 2
13.3146 48.0038 3.97061
15.2215 49.0084 0.0276948
13.804 49.5408 2
12.1217 50.2502 3.96829
14.5066 50.9792 0.0319863
12.9039 51.8705 2
11.1427 52.8339 3.9696
10.3273 55.7081 3.97373
12.148 54.5225 2
13.8376 53.4297 0.0323755
9.70076 58.8489 3.98245
11.5365 57.4549 2
13.2602 56.1613 0.0312852
9.30605 62.2254 4
11.1322 60.6248 2
12.8502 59.123 0.0230533
10.9835 64.0165 2
12.6789 62.3011 0.0132672
12.7746 65.6939 0
15.1564 20.1943 3.96759
16.406 18.6553 2
14.7503 17.3075 3.97596
17.6699 17.1605 0.0229247
16.1033 15.7826 2
14.483 14.2917 3.98088
17.5113 14.374 0.0199616
16.0205 12.8083 2
14.4446 11.114 3.99033
17.6384 11.455 0.0156683
16.2011 9.66361 2
14.6715 7.74927 4
18.0505 8.33998 0.00859735
16.6661 6.31988 2
18.75 5.0241 0
25.6001 34.2716 3.99092
27.6222 34.778 2
29.2454 35.1334 0.107416
17.8791 22.3352 3.97388
15.5431 22.9259 3.96906
16.6978 21.386 2
20.8825 19.3866 0.0228536
17.9896 19.947 0.0270079
19.7401 21.5829 2
19.7144 24.3908 3.96946
22.3742 21.7294 0.0226751
24.7267 23.1761 0.026637
22.8948 24.6101 2
22.0484 27.8378 3.97157
23.9383 31.2016 3.97543
24.6899 28.5386 2
25.5406 25.9582 0.028876
26.3685 31.6996 2
28.5352 32.3524 0.0610334
27.1384 29.1401 -0.0046685
22.6972 36.2852 3.98129
24.9249 36.8555 2
27.119 37.3664 0.0551212
25.4414 43.1571 0.0160787
24.2496 39.4424 0.02173
23.1403 41.8009 2
21.9612 38.5124 2
20.8843 40.6394 3.97642
20.2877 37.7961 3.97752
22.0312 43.9298 0.021265
19.8787 42.8772 2
17.4835 42.0912 3.97691
19.0804 44.9565 0.0215605
17.0414 44.3699 2
14.92 44.1944 3.97466
16.6866 46.2037 0.0235942
14.8972 46.0834 2
12.9953 46.2909 3.97109
14.9625 47.663 0.0262617
13.3151 48.0036 2
11.4934 48.5476 3.96842
13.8032 49.541 0.03049
12.1221 50.2501 2
10.2679 51.0787 3.96943
12.9035 51.8706 0.0320691
11.1431 52.8337 2
9.23587 53.888 3.97386
8.38443 56.9816 3.98203
10.3276 55.7078 2
12.1477 54.5225 0.0300439
7.74927 60.3285 4
9.69953 58.8459 2
11.5364 57.4547 0.0259232
9.306 62.2255 2
11.1337 60.6269 0.0151543
10.9835 64.0165 0
13.9709 21.7589 3.96796
15.1569 20.1936 2
13.4545 18.907 3.97042
16.4056 18.6561 0.0261519
14.7507 17.3062 2
13.029 15.8853 3.97936
16.1029 15.7837 0.0210497
14.4831 14.2906 2
12.7822 12.6875 3.98873
16.0202 12.809 0.0175693
14.4439 11.1149 2
12.7746 9.30605 4
16.2018 9.66287 0.00885891
14.6715 7.74924 2
16.6661 6.31991 0
23.2737 33.8131 3.98128
25.5797 34.2668 2
27.6432 34.7862 0.0619794
17.6692 24.0519 3.97149
17.8794 22.3348 2
14.3382 24.4559 3.96971
15.5437 22.9256 2
16.6973 21.3866 0.0354453
19.1469 27.2158 3.97088
19.7397 21.5834 0.0247914
19.7144 24.3905 2
21.3376 30.6779 3.97349
22.8944 24.6103 0.0292242
22.0538 27.8384 2
23.9255 31.2023 2
24.6799 28.5373 0.0228098
26.3796 31.7174 0.012796
20.4104 35.9358 3.97718
22.693 36.2806 2
24.9461 36.8595 0.0119592
23.1468 41.8021 0.0201119
21.9679 38.5135 0.0223925
20.8854 40.64 2
20.2892 37.7962 2
18.2233 39.0028 3.97761
19.8787 42.8775 0.022291
17.4851 42.0904 2
14.8967 41.9139 3.97509
17.0403 44.3705 0.0231883
14.921 44.1942 2
12.7491 44.3872 3.97122
14.8965 46.0837 0.0255534
12.9957 46.2907 2
10.9969 46.7314 3.96845
13.3146 48.0038 0.0293918
11.4937 48.5475 2
9.53088 49.2391 3.96901
12.1217 50.2502 0.0317127
10.2683 51.0786 2
8.26865 52.0018 3.97355
11.1427 52.8339 0.0304024
9.23625 53.8874 2
7.19332 55.0323 3.98288
6.31991 58.3339 4
8.38359 56.9784 2
10.3273 55.7081 0.0262738
7.74924 60.3285 2
9.70076 58.8489 0.0175544
9.30605 62.2254 0
13.2466 25.3662 3.97147
12.8362 23.2844 3.96837
13.9716 21.7586 2
12.2425 20.5565 3.96907
15.1564 20.1943 0.0324093
13.4552 18.9059 2
11.6603 17.5675 3.97638
14.7503 17.3075 0.0240427
13.0292 15.8841 2
11.2198 14.3728 3.98658
14.483 14.2917 0.0191165
12.7812 12.6886 2
10.9835 10.9835 4
14.4446 11.114 0.00966583
12.7745 9.306 2
14.6715 7.74927 0
20.7711 33.4084 3.97546
23.2793 33.8154 2
25.6001 34.2716 0.0090842
15.9742 26.4096 3.97154
17.6693 24.0516 2
17.8791 22.3352 0.0261192
14.3384 24.4557 2
15.5431 22.9259 0.0309385
18.506 30.1843 3.97422
19.1466 27.2158 2
19.7144 24.3908 0.030538
21.3457 30.6785 2
22.0484 27.8378 0.0284252
23.9383 31.2016 0.0245695
17.8405 35.9701 3.97816
20.4083 35.9363 2
22.6972 36.2852 0.0187129
20.8843 40.6394 0.023584
20.2877 37.7961 0.0224773
18.2256 39.003 2
14.4117 39.1741 3.97618
17.4835 42.0912 0.0230884
14.8979 41.9138 2
12.4505 42.2725 3.97196
14.92 44.1944 0.0253372
12.7495 44.387 2
10.5788 44.8 3.96881
12.9953 46.2909 0.0289139
10.9971 46.7313 2
8.91298 47.3184 3.96859
11.4934 48.5476 0.0315756
9.53109 49.239 2
7.43554 50.0354 3.97296
10.2679 51.0787 0.0305737
8.26898 52.0012 2
6.13392 53.0073 3.9834
9.23587 53.888 0.0261377
7.19277 55.0294 2
5.0241 56.25 4
6.31988 58.3339 2
8.38443 56.9816 0.0179749
7.74927 60.3285 0
13.5029 26.8193 3.97064
11.9461 24.7902 3.96934
13.2466 25.3661 2
11.1452 22.2383 3.96971
12.8366 23.2842 2
13.9709 21.7589 0.0320421
12.2433 20.556 2
10.3923 19.3226 3.97384
13.4545 18.907 0.029582
11.6608 17.5666 2
9.76101 16.1569 3.98407
13.029 15.8853 0.0206379
11.2186 14.3745 2
9.30607 12.7746 4
12.7822 12.6875 0.011268
10.9835 10.9835 2
12.7746 9.30605 0
18.0104 33.12 3.97673
20.7717 33.4086 2
23.2737 33.8131 0.0187248
15.5844 29.6447 3.97305
15.9743 26.4096 2
17.6692 24.0519 0.0285069
14.3382 24.4559 0.0302941
18.5059 30.1845 2
19.1469 27.2158 0.0291186
21.3376 30.6779 0.0265148
15.0279 36.0208 3.97608
17.8425 35.9703 2
20.4104 35.9358 0.0228241
12.6729 37.8286 3.97493
18.2233 39.0028 0.0223879
14.4124 39.174 2
11.9699 40.1377 3.97253
14.8967 41.9139 0.0249103
12.451 42.2724 2
10.1856 42.7754 3.96896
12.7491 44.3872 0.0287847
10.5788 44.7999 2
8.39077 45.3203 3.96835
10.9969 46.7314 0.0315507
8.91305 47.3183 2
6.72681 48.0006 3.97244
9.53088 49.2391 0.0309916
7.43572 50.0349 2
5.21075 50.9107 3.98326
8.26865 52.0018 0.0264546
6.13363 53.0054 2
3.86727 54.0858 4
7.19332 55.0323 0.017117
5.02404 56.25 2
6.31991 58.3339 0
12.9711 29.0377 3.97038
11.3821 26.4896 3.96907
13.5025 26.8191 2
10.2025 23.9691 3.97002
11.9465 24.79 2
13.2466 25.3662 0.0285257
9.24486 21.1403 3.97332
11.146 22.238 2
12.8362 23.2844 0.0316318
12.2425 20.5565 0.0309335
10.3932 19.3224 2
8.41729 18.0287 3.98214
11.6603 17.5675 0.0236232
9.75988 16.1594 2
7.74928 14.6715 4
11.2198 14.3728 0.0134194
9.30602 12.7745 2
10.9835 10.9835 0
14.587 32.8677 3.97472
18.0122 33.1204 2
20.7711 33.4084 0.0245401
15.5849 29.6449 2
15.9742 26.4096 0.0284625
18.506 30.1843 0.0257809
12.9706 36.2099 3.97367
15.0299 36.0208 2
17.8405 35.9701 0.0218409
12.6737 37.8285 2
11.3161 38.3085 3.97299
14.4117 39.1741 0.0238162
11.9711 40.1376 2
9.77734 40.7522 3.96939
12.4505 42.2725 0.0280448
10.1861 42.7752 2
7.94016 43.269 3.96812
10.5788 44.8 0.0311935
8.39087 45.3202 2
6.13306 45.9057 3.97192
8.91298 47.3184 0.0314108
6.72685 48.0003 2
4.42233 48.7514 3.98272
7.43554 50.0354 0.0270374
5.21061 50.9096 2
2.85457 51.8506 4
6.13392 53.0073 0.0165965
3.86727 54.0858 2
5.0241 56.25 0
12.1181 31.2603 3.97154
10.8001 28.4171 3.96893
12.9717 29.0377 2
9.41733 25.7987 3.9693
11.3823 26.4895 2
13.5029 26.8193 0.0293622
8.23124 23.0237 3.97373
10.2031 23.969 2
11.9461 24.7902 0.0306617
7.19951 19.9789 3.98213
9.24573 21.1404 2
11.1452 22.2383 0.0302926
10.3923 19.3226 0.026165
8.41667 18.0318 2
6.31992 16.6661 4
9.76101 16.1569 0.0159324
7.74926 14.6714 2
9.30607 12.7746 0
12.1488 34.2967 3.97396
14.5882 32.8678 2
18.0104 33.12 0.0232701
15.5844 29.6447 0.0269527
10.8784 36.6109 3.97244
12.9715 36.2099 2
15.0279 36.0208 0.0239179
12.6729 37.8286 0.0250661
11.3168 38.3084 2
9.36877 38.8221 3.97008
11.9699 40.1377 0.027467
9.77798 40.752 2
7.5515 41.2105 3.9682
10.1856 42.7754 0.0310421
7.94022 43.2689 2
5.64525 43.7684 3.97146
8.39077 45.3203 0.031652
6.13315 45.9053 2
3.76797 46.5371 3.98214
6.72681 48.0006 0.0275599
4.42229 48.7509 2
1.99014 49.554 4
5.21075 50.9107 0.0167418
2.85451 51.8506 2
3.86727 54.0858 0
10.9615 32.9213 3.97286
10.1183 30.3841 3.96915
12.119 31.2603 2
8.7252 27.7321 3.96889
10.8003 28.4171 2
12.9711 29.0377 0.0296247
7.35679 24.9825 3.97282
9.4176 25.7986 2
11.3821 26.4896 0.0309286
6.11625 22.0023 3.98327
8.23186 23.0239 2
10.2025 23.9691 0.02998
5.02411 18.75 4
7.19927 19.9816 2
9.24486 21.1403 0.0266796
8.41729 18.0287 0.0178643
6.3199 16.6661 2
7.74928 14.6715 0
10.4843 35.0008 3.97219
12.1497 34.2967 2
14.587 32.8677 0.025282
9.03703 36.9844 3.97034
10.8796 36.6109 2
12.9706 36.2099 0.0263262
11.3161 38.3085 0.0270115
9.36941 38.822 2
7.23171 39.1815 3.96868
9.77734 40.7522 0.0306099
7.55171 41.2103 2
5.26072 41.6139 3.97099
7.94016 43.269 0.0318773
5.64531 43.7681 2
3.24581 44.2819 3.9818
6.13306 45.9057 0.0280837
3.76809 46.5368 2
1.27781 47.2057 4
4.42233 48.7514 0.0172847
1.99012 49.554 2
2.85457 51.8506 0
10.1215 33.8826 3.97256
9.40623 32.1557 3.96981
10.962 32.9213 2
8.07416 29.6956 3.96876
10.1187 30.3841 2
12.1181 31.2603 0.028461
6.60063 27.0084 3.97233
8.72521 27.732 2
10.8001 28.4171 0.0310731
5.17163 24.095 3.9833
7.3571 24.9826 2
9.41733 25.7987 0.0307039
3.86728 20.9142 4
6.11619 22.004 2
8.23124 23.0237 0.0262709
5.02406 18.75 2
7.19951 19.9789 0.017865
6.31992 16.6661 0
8.86128 35.2795 3.97058
10.4849 35.0007 2
12.1488 34.2967 0.0260378
7.01526 37.2055 3.96889
9.03723 36.9842 2
10.8784 36.6109 0.0275606
9.36877 38.8221 0.0299199
7.23191 39.1814 2
4.98846 39.4672 3.97112
7.5515 41.2105 0.0318037
5.26092 41.6137 2
2.85639 42.0022 3.98151
5.64525 43.7684 0.0285351
3.2459 44.2818 2
0.720592 44.8159 4
3.76797 46.5371 0.0178578
1.27778 47.2057 2
1.99014 49.554 0
8.89891 33.6984 3.97046
10.122 33.8826 2
7.51162 31.6092 3.96892
9.40656 32.1557 2
10.9615 32.9213 0.0271434
5.94577 29.0693 3.97214
8.07409 29.6955 2
10.1183 30.3841 0.0308502
4.35942 26.2475 3.98267
6.60068 27.0084 2
8.7252 27.7321 0.0311143
2.85458 23.1494 4
5.17163 24.0958 2
7.35679 24.9825 0.0271761
3.86728 20.9142 2
6.11625 22.0023 0.0167327
5.02411 18.75 0
6.96536 35.3058 3.96905
8.86174 35.2794 2
10.4843 35.0008 0.0278075
4.83843 37.3395 3.97173
7.01532 37.2054 2
9.03703 36.9844 0.0296646
7.23171 39.1815 0.0313181
4.98865 39.467 2
2.60451 39.7139 3.98126
5.26072 41.6139 0.0290054
2.85662 42.0024 2
0.320823 42.3947 4
3.24581 44.2819 0.018196
0.720551 44.8159 2
1.27781 47.2057 0
7.12531 33.4608 3.96917
8.8991 33.6983 2
10.1215 33.8826 0.027441
5.41666 31.1333 3.97209
7.51166 31.6091 2
9.40623 32.1557 0.0301934
3.68117 28.4433 3.98218
5.94571 29.0694 2
8.07416 29.6956 0.031243
1.99015 25.446 4
4.35943 26.2476 2
6.60063 27.0084 0.0276677
2.85453 23.1494 2
5.17163 24.095 0.016704
3.86728 20.9142 0
4.85267 35.2513 3.97197
6.96562 35.3058 2
8.86128 35.2795 0.029419
2.49586 37.4285 3.98188
4.83846 37.3396 2
7.01526 37.2055 0.0311083
4.98846 39.4672 0.0288752
2.60475 39.7143 2
0.080333 39.9526 4
2.85639 42.0022 0.0184944
0.320817 42.3947 2
0.720592 44.8159 0
5.04603 33.1899 3.97214
7.12544 33.4608 2
8.89891 33.6984 0.0295416
3.1455 30.666 3.98184
5.41668 31.1334 2
7.51162 31.6092 0.0310778
1.27793 27.7943 4
3.68121 28.4435 2
5.94577 29.0693 0.0278584
1.99013 25.446 2
4.35942 26.2475 0.0173328
2.85458 23.1494 0
2.54797 35.159 3.98191
4.85294 35.2514 2
6.96536 35.3058 0.0309455
0 37.5 4
2.49594 37.4289 2
4.83843 37.3395 0.0282697
2.60451 39.7139 0.0187389
0.0802903 39.9526 2
0.320823 42.3947 0
2.76555 32.9057 3.98201
5.04615 33.1901 2
7.12531 33.4608 0.0308308
0.721173 30.1842 4
3.14562 30.6664 2
5.41666 31.1333 0.027915
1.27779 27.7943 2
3.68117 28.4433 0.0178234
1.99015 25.446 0
0.0806499 35.0474 4
2.54827 35.1594 2
4.85267 35.2513 0.0280306
0 37.5 2
2.49586 37.4285 0.0181224
0.080333 39.9526 0
0.32156 32.6054 4
2.76567 32.9062 2
5.04603 33.1899 0.0278556
0.72056 30.1841 2
3.1455 30.666 0.0181587
1.27793 27.7943 0
0.0802889 35.0474 2
2.54797 35.159 0.0180877
0 37.5 0
0.320817 32.6053 2
2.76555 32.9057 0.0179906
0.721173 30.1842 0
0.0806499 35.0474 0
0.32156 32.6054 0
CELLS 1910 17190
8 18 6 25 56 2 0 5 16
8 57 23 6 18 17 4 0 2
8 78 36 9 29 31 11 1 7
8 31 11 1 7 79 37 10 30
8 110 57 18 50 48 17 2 14
8 50 18 56 111 14 2 16 49
8 116 62 22 55 52 20 3 15
8 56 25 67 118 16 5 24 53
8 119 63 23 57 54 21 4 17
8 55 22 63 119 15 3 21 54
8 58 26 68 121 18 6 25 56
8 122 65 26 58 57 23 6 18
8 73 31 7 27 142 79 30 71
8 143 78 29 72 73 31 7 27
8 83 147 76 34 32 74 28 8
8 84 148 78 36 33 75 29 9
8 76 34 8 28 148 84 33 75
8 37 79 150 86 10 30 77 35
8 151 87 36 78 80 38 11 31
8 80 38 11 31 152 88 37 79
8 175 100 42 94 96 44 12 40
8 44 96 176 101 12 40 95 43
8 101 176 98 46 43 95 41 13
8 46 98 178 103 13 41 97 45
8 178 103 45 97 147 83 32 74
8 189 116 55 109 106 52 15 47
8 111 56 118 191 49 16 53 107
8 192 119 57 110 108 54 17 48
8 109 55 119 192 47 15 54 108
8 194 122 58 112 110 57 18 50
8 112 58 121 195 50 18 56 111
8 115 61 19 51 197 124 59 113
8 115 61 125 198 51 19 60 114
8 198 125 62 116 114 60 20 52
8 200 127 64 120 116 62 22 55
8 118 67 132 202 53 24 66 117
8 121 68 133 203 56 25 67 118
8 120 64 128 204 55 22 63 119
8 204 128 65 122 119 63 23 57
8 206 134 68 121 123 69 26 58
8 123 69 26 58 207 131 65 122
8 226 147 74 138 140 76 28 70
8 229 148 75 139 143 78 29 72
8 140 76 28 70 229 148 75 139
8 142 79 30 71 231 150 77 141
8 144 80 31 73 232 152 79 142
8 233 151 78 143 144 80 31 73
8 150 86 35 77 235 154 81 145
8 235 154 81 145 146 82 39 91
8 146 82 39 91 236 155 90 165
8 238 157 83 147 149 85 34 76
8 239 158 84 148 151 87 36 78
8 149 85 34 76 239 158 84 148
8 152 88 37 79 241 160 86 150
8 242 161 87 151 153 89 38 80
8 153 89 38 80 243 162 88 152
8 171 98 41 92 265 178 97 169
8 265 178 97 169 226 147 74 138
8 172 96 40 93 266 176 95 170
8 266 176 95 170 171 98 41 92
8 269 175 94 173 172 96 40 93
8 271 180 99 174 175 100 42 94
8 197 124 59 113 271 180 99 174
8 272 181 100 175 177 102 44 96
8 273 182 101 176 179 104 46 98
8 177 102 44 96 273 182 101 176
8 179 104 46 98 275 184 103 178
8 275 184 103 178 238 157 83 147
8 188 115 51 105 283 197 113 186
8 188 115 198 284 105 51 114 187
8 284 198 116 189 187 114 52 106
8 286 200 120 193 189 116 55 109
8 191 118 202 288 107 53 117 190
8 195 121 203 289 111 56 118 191
8 193 120 204 290 109 55 119 192
8 290 204 122 194 192 119 57 110
8 196 123 58 112 292 207 122 194
8 293 206 121 195 196 123 58 112
8 199 126 61 115 297 211 124 197
8 298 212 127 200 198 125 62 116
8 199 126 212 298 115 61 125 198
8 205 129 64 120 300 214 127 200
8 301 217 130 201 202 132 66 117
8 209 136 168 264 301 217 130 201
8 302 219 132 202 203 133 67 118
8 303 220 133 203 206 134 68 121
8 205 129 215 304 120 64 128 204
8 304 215 131 207 204 128 65 122
8 306 221 134 206 208 135 69 123
8 208 135 69 123 307 218 131 207
8 210 137 167 263 309 223 136 209
8 328 238 147 226 230 149 76 140
8 228 146 91 166 329 236 165 260
8 231 150 77 141 330 235 145 227
8 330 235 145 227 228 146 91 166
8 332 239 148 229 233 151 78 143
8 230 149 76 140 332 239 148 229
8 232 152 79 142 334 241 150 231
8 234 153 80 144 335 243 152 232
8 336 242 151 233 234 153 80 144
8 236 155 90 165 338 245 164 259
8 241 160 86 150 339 246 154 235
8 339 246 154 235 237 156 82 146
8 237 156 82 146 340 247 155 236
8 342 249 157 238 240 159 85 149
8 343 250 158 239 242 161 87 151
8 240 159 85 149 343 250 158 239
8 243 162 88 152 345 252 160 241
8 244 163 253 346 153 89 161 242
8 244 163 89 153 347 254 162 243
8 311 224 261 371 210 137 167 263
8 263 167 262 372 209 136 168 264
8 267 179 98 171 375 275 178 265
8 375 275 178 265 328 238 147 226
8 376 273 176 266 267 179 98 171
8 268 177 96 172 376 273 176 266
8 379 272 175 269 268 177 96 172
8 380 271 174 270 269 175 94 173
8 283 197 113 186 380 271 174 270
8 381 277 180 271 272 181 100 175
8 297 211 124 197 381 277 180 271
8 382 278 181 272 274 183 102 177
8 274 183 102 177 383 279 182 273
8 383 279 182 273 276 185 104 179
8 385 281 184 275 342 249 157 238
8 276 185 104 179 385 281 184 275
8 285 199 115 188 393 297 197 283
8 394 298 200 286 284 198 116 189
8 285 199 298 394 188 115 198 284
8 291 205 120 193 396 300 200 286
8 397 301 201 287 288 202 117 190
8 295 209 264 374 397 301 201 287
8 398 302 202 288 289 203 118 191
8 399 303 203 289 293 206 121 195
8 291 205 304 400 193 120 204 290
8 400 304 207 292 290 204 122 194
8 294 208 123 196 402 307 207 292
8 403 306 206 293 294 208 123 196
8 296 210 263 373 405 309 209 295
8 408 312 213 299 297 211 126 199
8 299 213 313 409 199 126 212 298
8 409 313 214 300 298 212 127 200
8 305 216 129 205 411 315 214 300
8 412 318 217 301 302 219 132 202
8 309 223 136 209 412 318 217 301
8 413 320 219 302 303 220 133 203
8 306 221 321 414 206 134 220 303
8 307 218 131 207 415 316 215 304
8 305 216 316 415 205 129 215 304
8 417 322 221 306 308 222 135 208
8 308 222 135 208 418 319 218 307
8 310 225 137 210 420 325 223 309
8 423 326 224 311 310 225 137 210
8 329 236 165 260 441 338 259 368
8 442 342 238 328 333 240 149 230
8 331 237 146 228 443 340 236 329
8 334 241 150 231 444 339 235 330
8 444 339 235 330 331 237 146 228
8 446 343 239 332 336 242 151 233
8 333 240 149 230 446 343 239 332
8 335 243 152 232 448 345 241 334
8 337 244 153 234 449 347 243 335
8 337 244 346 450 234 153 242 336
8 338 245 164 259 452 349 258 367
8 340 247 155 236 453 350 245 338
8 345 252 160 241 454 351 246 339
8 454 351 246 339 341 248 156 237
8 341 248 156 237 455 352 247 340
8 240 159 251 344 342 249 354 457
8 242 161 253 346 343 250 355 458
8 343 250 355 458 240 159 251 344
8 347 254 162 243 460 357 252 345
8 348 255 358 461 244 163 253 346
8 348 255 163 244 462 359 254 347
8 473 360 257 365 363 256 364 482
8 452 349 258 367 365 257 366 485
8 422 324 369 488 311 224 261 371
8 371 261 370 490 263 167 262 372
8 407 311 371 491 296 210 263 373
8 373 263 372 492 295 209 264 374
8 493 385 275 375 442 342 238 328
8 377 276 179 267 493 385 275 375
8 378 274 177 268 494 383 273 376
8 494 383 273 376 377 276 179 267
8 497 382 272 379 378 274 177 268
8 498 381 271 380 379 272 175 269
8 393 297 197 283 498 381 271 380
8 499 387 277 381 382 278 181 272
8 408 312 211 297 499 387 277 381
8 500 388 278 382 384 280 183 274
8 501 389 279 383 386 282 185 276
8 384 280 183 274 501 389 279 383
8 386 282 185 276 503 391 281 385
8 503 391 281 385 457 354 249 342
8 511 408 299 395 393 297 199 285
8 395 299 409 512 285 199 298 394
8 512 409 300 396 394 298 200 286
8 401 305 205 291 514 411 300 396
8 515 412 301 397 398 302 202 288
8 405 309 209 295 515 412 301 397
8 516 413 302 398 399 303 203 289
8 403 306 414 517 293 206 303 399
8 402 307 207 292 518 415 304 400
8 401 305 415 518 291 205 304 400
8 404 308 208 294 520 418 307 402
8 521 417 306 403 404 308 208 294
8 406 310 210 296 523 420 309 405
8 526 423 311 407 406 310 210 296
8 410 314 213 299 527 424 312 408
8 528 425 315 411 409 313 214 300
8 410 314 425 528 299 213 313 409
8 416 317 216 305 530 427 315 411
8 531 430 318 412 413 320 219 302
8 420 325 223 309 531 430 318 412
8 532 432 320 413 414 321 220 303
8 417 322 433 533 306 221 321 414
8 418 319 218 307 534 428 316 415
8 416 317 428 534 305 216 316 415
8 419 323 434 536 308 222 322 417
8 419 323 222 308 537 431 319 418
8 421 327 225 310 539 438 325 420
8 421 327 439 541 310 225 326 423
8 543 437 324 422 423 326 224 311
8 441 338 259 368 559 452 367 486
8 443 340 236 329 560 453 338 441
8 333 240 344 447 442 342 457 561
8 445 341 237 331 562 455 340 443
8 448 345 241 334 563 454 339 444
8 563 454 339 444 445 341 237 331
8 336 242 346 450 446 343 458 565
8 446 343 458 565 333 240 344 447
8 449 347 243 335 567 460 345 448
8 451 348 244 337 568 462 347 449
8 451 348 461 569 337 244 346 450
8 570 463 349 452 473 360 257 365
8 453 350 245 338 570 463 349 452
8 455 352 247 340 571 464 350 453
8 460 357 252 345 572 465 351 454
8 572 465 351 454 456 353 248 341
8 456 353 248 341 573 466 352 455
8 344 251 356 459 457 354 468 575
8 458 355 469 576 344 251 356 459
8 346 253 358 461 458 355 469 576
8 462 359 254 347 578 471 357 460
8 348 255 359 462 461 358 472 579
8 591 474 360 473 475 361 256 363
8 475 361 256 363 594 477 362 479
8 363 256 364 482 479 362 480 603
8 590 473 365 484 481 363 482 605
8 482 364 257 365 606 483 366 485
8 559 452 367 486 484 365 485 607
8 542 436 487 609 422 324 369 488
8 525 422 488 611 407 311 371 491
8 488 369 489 612 371 261 370 490
8 491 371 490 613 373 263 372 492
8 495 386 276 377 614 503 385 493
8 614 503 385 493 561 457 342 442
8 615 501 383 494 495 386 276 377
8 496 384 274 378 615 501 383 494
8 618 500 382 497 496 384 274 378
8 619 499 381 498 497 382 272 379
8 511 408 297 393 619 499 381 498
8 620 505 387 499 500 388 278 382
8 527 424 312 408 620 505 387 499
8 502 390 506 621 384 280 388 500
8 622 507 389 501 504 392 282 386
8 502 390 280 384 622 507 389 501
8 504 392 282 386 624 509 391 503
8 624 509 391 503 575 468 354 457
8 513 410 299 395 630 527 408 511
8 631 528 411 514 512 409 300 396
8 513 410 528 631 395 299 409 512
8 519 416 305 401 633 530 411 514
8 634 531 412 515 516 413 302 398
8 523 420 309 405 634 531 412 515
8 635 532 413 516 517 414 303 399
8 521 417 533 636 403 306 414 517
8 520 418 307 402 637 534 415 518
8 519 416 534 637 401 305 415 518
8 522 419 308 404 639 537 418 520
8 522 419 536 640 404 308 417 521
8 524 421 310 406 642 539 420 523
8 524 421 541 644 406 310 423 526
8 646 543 422 525 526 423 311 407
8 529 426 314 410 647 544 424 527
8 528 425 545 648 411 315 427 530
8 529 426 545 648 410 314 425 528
8 535 429 317 416 649 546 427 530
8 650 548 430 531 532 432 320 413
8 539 438 325 420 650 548 430 531
8 533 433 550 651 414 321 432 532
8 536 434 551 652 417 322 433 533
8 537 431 319 418 653 547 428 534
8 535 429 547 653 416 317 428 534
8 538 435 552 654 419 323 434 536
8 538 435 323 419 655 549 431 537
8 540 440 327 421 657 556 438 539
8 540 440 557 659 421 327 439 541
8 541 439 555 660 423 326 437 543
8 661 554 436 542 543 437 324 422
8 676 570 452 559 590 473 365 484
8 560 453 338 441 676 570 452 559
8 562 455 340 443 677 571 453 560
8 447 344 459 566 561 457 575 678
8 564 456 341 445 679 573 455 562
8 567 460 345 448 680 572 454 563
8 680 572 454 563 564 456 341 445
8 565 458 576 682 447 344 459 566
8 450 346 461 569 565 458 576 682
8 568 462 347 449 684 578 460 567
8 451 348 462 568 569 461 579 685
8 686 580 463 570 591 474 360 473
8 571 464 350 453 686 580 463 570
8 573 466 352 455 687 581 464 571
8 572 465 582 688 460 357 471 578
8 574 467 582 688 456 353 465 572
8 574 467 353 456 689 583 466 573
8 459 356 470 577 575 468 585 691
8 576 469 586 692 459 356 470 577
8 461 358 472 579 576 469 586 692
8 462 359 471 578 579 472 588 694
8 704 591 473 590 593 475 363 481
8 595 476 592 705 475 361 474 591
8 593 475 363 481 707 594 479 602
8 594 477 362 479 709 598 478 600
8 595 476 361 475 711 597 477 594
8 479 362 480 603 600 478 601 720
8 481 363 482 605 602 479 603 722
8 603 480 364 482 723 604 483 606
8 605 482 365 484 724 606 485 607
8 656 553 608 726 542 436 487 609
8 645 542 609 728 525 422 488 611
8 609 487 610 729 488 369 489 612
8 611 488 612 730 491 371 490 613
8 616 504 386 495 731 624 503 614
8 731 624 503 614 678 575 457 561
8 732 622 501 615 616 504 386 495
8 617 502 384 496 732 622 501 615
8 617 502 621 735 496 384 500 618
8 736 620 499 619 618 500 382 497
8 630 527 408 511 736 620 499 619
8 621 506 626 737 500 388 505 620
8 647 544 424 527 737 626 505 620
8 623 508 627 738 502 390 506 621
8 623 508 390 502 739 628 507 622
8 625 510 628 739 504 392 507 622
8 740 629 509 624 691 585 468 575
8 625 510 392 504 740 629 509 624
8 632 529 410 513 744 647 527 630
8 631 528 648 745 514 411 530 633
8 632 529 648 745 513 410 528 631
8 638 535 416 519 746 649 530 633
8 747 650 531 634 635 532 413 516
8 642 539 420 523 747 650 531 634
8 636 533 651 748 517 414 532 635
8 640 536 652 749 521 417 533 636
8 639 537 418 520 750 653 534 637
8 638 535 653 750 519 416 534 637
8 641 538 419 522 751 655 537 639
8 641 538 654 752 522 419 536 640
8 643 540 421 524 753 657 539 642
8 643 540 659 755 524 421 541 644
8 644 541 660 757 526 423 543 646
8 758 661 542 645 646 543 422 525
8 529 426 544 647 648 545 662 759
8 530 427 545 648 649 546 663 760
8 535 429 546 649 653 547 664 761
8 762 666 548 650 651 550 432 532
8 657 556 438 539 762 666 548 650
8 652 551 668 763 533 433 550 651
8 654 552 669 764 536 434 551 652
8 655 549 431 537 765 665 547 653
8 538 435 549 655 654 552 667 766
8 661 554 671 768 542 436 553 656
8 658 558 440 540 769 674 556 657
8 658 558 675 770 540 440 557 659
8 659 557 673 771 541 439 555 660
8 660 555 672 772 543 437 554 661
8 788 686 570 676 704 591 473 590
8 677 571 453 560 788 686 570 676
8 679 573 455 562 789 687 571 677
8 566 459 577 683 678 575 691 790
8 681 574 456 564 791 689 573 679
8 680 572 688 792 567 460 578 684
8 681 574 688 792 564 456 572 680
8 682 576 692 794 566 459 577 683
8 569 461 579 685 682 576 692 794
8 568 462 578 684 685 579 694 796
8 687 581 464 571 798 696 580 686
8 798 696 580 686 705 592 474 591
8 689 583 466 573 799 697 581 687
8 688 582 698 800 578 471 588 694
8 690 584 698 800 574 467 582 688
8 690 584 467 574 801 699 583 689
8 693 587 701 803 577 470 585 691
8 693 587 470 577 804 702 586 692
8 695 589 702 804 579 472 586 692
8 695 589 472 579 805 703 588 694
8 708 595 705 813 593 475 591 704
8 710 596 706 814 595 476 592 705
8 707 594 479 602 816 709 600 719
8 708 595 475 593 817 711 594 707
8 709 598 478 600 819 715 599 717
8 711 597 477 594 820 714 598 709
8 710 596 476 595 822 713 597 711
8 600 478 601 720 717 599 718 832
8 602 479 603 722 719 600 720 834
8 720 601 480 603 835 721 604 723
8 722 603 482 605 836 723 606 724
8 767 670 725 839 656 553 608 726
8 756 656 726 841 645 542 609 728
8 726 608 727 842 609 487 610 729
8 728 609 729 843 611 488 612 730
8 844 740 624 731 790 691 575 678
8 733 625 504 616 844 740 624 731
8 734 623 502 617 845 739 622 732
8 733 625 739 845 616 504 622 732
8 734 623 738 846 617 502 621 735
8 735 621 737 847 618 500 620 736
8 744 647 527 630 847 737 620 736
8 621 506 627 738 737 626 741 848
8 647 544 626 737 759 662 741 848
8 623 508 628 739 738 627 742 849
8 740 629 585 691 850 743 700 802
8 625 510 629 740 739 628 743 850
8 632 529 647 744 745 648 759 854
8 633 530 648 745 746 649 760 855
8 638 535 649 746 750 653 761 856
8 857 762 650 747 748 651 532 635
8 753 657 539 642 857 762 650 747
8 749 652 763 858 636 533 651 748
8 752 654 764 859 640 536 652 749
8 751 655 537 639 860 765 653 750
8 641 538 655 751 752 654 766 861
8 754 658 540 643 862 769 657 753
8 754 658 770 863 643 540 659 755
8 755 659 771 864 644 541 660 757
8 758 661 768 866 645 542 656 756
8 757 660 772 867 646 543 661 758
8 759 662 773 868 648 545 663 760
8 649 546 663 760 761 664 774 871
8 765 665 547 653 872 775 664 761
8 873 777 666 762 763 668 550 651
8 769 674 556 657 873 777 666 762
8 764 669 779 874 652 551 668 763
8 654 552 667 766 764 669 778 875
8 655 549 665 765 766 667 776 876
8 768 671 782 877 656 553 670 767
8 772 672 783 878 661 554 671 768
8 658 558 674 769 770 675 786 879
8 659 557 675 770 771 673 785 881
8 882 784 672 772 771 673 555 660
8 789 687 571 677 897 798 686 788
8 897 798 686 788 813 705 591 704
8 791 689 573 679 898 799 687 789
8 795 693 803 900 683 577 691 790
8 793 690 574 681 901 801 689 791
8 792 688 800 902 684 578 694 796
8 793 690 800 902 681 574 688 792
8 795 693 577 683 903 804 692 794
8 797 695 804 903 685 579 692 794
8 797 695 579 685 904 805 694 796
8 905 806 697 799 798 696 581 687
8 814 706 806 905 705 592 696 798
8 689 583 697 799 801 699 808 907
8 800 698 809 908 694 588 703 805
8 690 584 699 801 800 698 809 908
8 803 701 810 909 691 585 700 802
8 693 587 702 804 803 701 811 910
8 695 589 703 805 804 702 812 911
8 818 710 814 919 708 595 705 813
8 821 712 815 920 710 596 706 814
8 816 709 600 719 922 819 717 831
8 817 711 594 707 923 820 709 816
8 818 710 595 708 924 822 711 817
8 819 715 599 717 926 827 716 829
8 820 714 598 709 927 826 715 819
8 929 825 713 822 820 714 597 711
8 821 712 596 710 930 824 713 822
8 717 599 718 832 829 716 830 942
8 719 600 720 834 831 717 832 944
8 832 718 601 720 945 833 721 835
8 834 720 603 722 946 835 723 836
8 869 780 838 950 767 670 725 839
8 865 767 839 952 756 656 726 841
8 839 725 840 953 726 608 727 842
8 841 726 842 954 728 609 729 843
8 844 740 691 790 955 850 802 899
8 733 625 740 844 845 739 850 955
8 734 623 739 845 846 738 849 956
8 735 621 738 846 847 737 848 957
8 744 647 737 847 854 759 848 957
8 738 627 742 849 848 741 851 958
8 848 741 851 958 759 662 773 868
8 850 743 700 802 959 852 807 906
8 849 742 628 739 959 852 743 850
8 854 759 868 965 745 648 760 855
8 746 649 760 855 856 761 871 966
8 860 765 653 750 967 872 761 856
8 968 873 762 857 858 763 651 748
8 862 769 657 753 968 873 762 857
8 859 764 874 969 749 652 763 858
8 752 654 766 861 859 764 875 970
8 751 655 765 860 861 766 876 971
8 754 658 769 862 863 770 879 972
8 755 659 770 863 864 771 881 974
8 976 882 772 867 864 771 660 757
8 866 768 877 977 756 656 767 865
8 867 772 878 978 758 661 768 866
8 760 663 773 868 871 774 883 980
8 870 781 837 948 982 890 780 869
8 982 890 780 869 877 782 670 767
8 761 664 774 871 872 775 884 984
8 876 776 665 765 985 885 775 872
8 873 777 668 763 986 887 779 874
8 769 674 777 873 879 786 887 986
8 764 669 778 875 874 779 888 987
8 766 667 776 876 875 778 886 988
8 878 783 892 989 768 671 782 877
8 878 783 672 772 990 893 784 882
8 880 787 675 770 991 896 786 879
8 880 787 895 992 770 675 785 881
8 881 785 894 993 771 673 784 882
8 1006 905 799 898 897 798 687 789
8 919 814 905 1006 813 705 798 897
8 791 689 799 898 901 801 907 1007
8 900 803 909 1009 790 691 802 899
8 795 693 804 903 900 803 910 1010
8 902 800 908 1011 796 694 805 904
8 793 690 801 901 902 800 908 1011
8 797 695 805 904 903 804 911 1012
8 799 697 806 905 907 808 912 1013
8 920 815 912 1013 814 706 806 905
8 802 700 810 909 906 807 913 1014
8 801 699 808 907 908 809 914 1015
8 805 703 809 908 911 812 915 1016
8 803 701 811 910 909 810 916 1017
8 911 812 917 1018 804 702 811 910
8 925 821 920 1030 818 710 814 919
8 928 823 921 1031 821 712 815 920
8 922 819 717 831 1033 926 829 941
8 923 820 709 816 1034 927 819 922
8 1035 929 822 924 923 820 711 817
8 925 821 710 818 1036 930 822 924
8 1038 933 825 929 927 826 714 820
8 926 827 716 829 1039 935 828 939
8 927 826 715 819 1040 934 827 926
8 928 823 712 821 1041 931 824 930
8 1042 932 824 930 929 825 713 822
8 829 716 830 942 939 828 940 1058
8 831 717 832 944 941 829 942 1060
8 942 830 718 832 1061 943 833 945
8 944 832 720 834 1062 945 835 946
8 981 889 947 1064 870 781 837 948
8 948 837 949 1067 869 780 838 950
8 975 869 950 1069 865 767 839 952
8 950 838 951 1070 839 725 840 953
8 952 839 953 1071 841 726 842 954
8 955 850 802 899 1072 959 906 1008
8 956 849 739 845 1072 959 850 955
8 846 738 849 956 957 848 958 1073
8 957 848 958 1073 854 759 868 965
8 849 742 852 959 958 851 961 1076
8 960 853 961 1076 906 807 852 959
8 958 851 961 1076 868 773 883 980
8 960 853 807 906 1077 963 913 1014
8 855 760 868 965 966 871 980 1085
8 856 761 871 966 967 872 984 1086
8 971 876 765 860 1087 985 872 967
8 968 873 763 858 1088 986 874 969
8 862 769 873 968 972 879 986 1088
8 859 764 875 970 969 874 987 1089
8 861 766 876 971 970 875 988 1090
8 973 880 770 863 1091 991 879 972
8 973 880 992 1092 863 770 881 974
8 974 881 993 1093 864 771 882 976
8 979 870 948 1066 1094 982 869 975
8 1094 982 869 975 977 877 767 865
8 978 878 772 867 1095 990 882 976
8 978 878 989 1096 866 768 877 977
8 871 774 883 980 984 884 994 1099
8 983 891 999 1100 870 781 889 981
8 1101 1000 890 982 989 892 782 877
8 983 891 781 870 1101 1000 890 982
8 872 775 884 984 985 885 995 1103
8 876 776 885 985 988 886 996 1104
8 986 887 779 874 1105 998 888 987
8 879 786 887 986 991 896 998 1105
8 875 778 886 988 987 888 997 1106
8 990 893 1002 1107 878 783 892 989
8 1108 1003 893 990 993 894 784 882
8 880 787 896 991 992 895 1005 1109
8 993 894 785 881 1110 1004 895 992
8 898 799 905 1006 1007 907 1013 1120
8 1030 920 1013 1120 919 814 905 1006
8 901 801 907 1007 1011 908 1015 1121
8 899 802 909 1009 1008 906 1014 1122
8 900 803 910 1010 1009 909 1017 1123
8 1012 911 1018 1124 903 804 910 1010
8 904 805 908 1011 1012 911 1016 1125
8 1013 912 1020 1127 907 808 914 1015
8 1031 921 1020 1127 920 815 912 1013
8 1019 918 962 1075 1128 1021 913 1014
8 1128 1021 913 1014 1017 916 810 909
8 1015 914 1022 1129 908 809 915 1016
8 1016 915 1023 1130 911 812 917 1018
8 1018 917 1024 1131 910 811 916 1017
8 1037 928 1031 1148 925 821 920 1030
8 928 823 931 1041 1031 921 1032 1149
8 1033 926 829 941 1151 1039 939 1057
8 1034 927 819 922 1152 1040 926 1033
8 1153 1038 929 1035 1034 927 820 923
8 1154 1042 930 1036 1035 929 822 924
8 1037 928 821 925 1155 1041 930 1036
8 1039 935 828 939 1156 1047 938 1055
8 1157 1043 932 1042 1038 933 825 929
8 1038 933 826 927 1158 1045 934 1040
8 1040 934 827 926 1159 1046 935 1039
8 930 824 932 1042 1041 931 1044 1160
8 1051 936 1048 1165 1175 1052 937 1053
8 1156 1047 938 1055 1053 937 1054 1178
8 939 828 940 1058 1055 938 1056 1181
8 941 829 942 1060 1057 939 1058 1183
8 942 830 943 1061 1058 940 1059 1184
8 1060 942 832 944 1185 1061 945 1062
8 1082 964 1063 1188 981 889 947 1064
8 1097 981 1064 1190 979 870 948 1066
8 1064 947 1065 1191 948 837 949 1067
8 1066 948 1067 1193 975 869 950 1069
8 1067 949 1068 1194 950 838 951 1070
8 1069 950 1070 1195 952 839 953 1071
8 956 849 959 1072 1073 958 1076 1197
8 1074 960 1076 1197 1008 906 959 1072
8 1073 958 1076 1197 965 868 980 1085
8 1074 960 906 1008 1198 1077 1014 1122
8 1133 1026 1079 1199 1019 918 962 1075
8 1077 963 913 1014 1200 1080 962 1075
8 960 853 963 1077 1076 961 1078 1201
8 980 883 961 1076 1099 994 1078 1201
8 1210 1083 964 1082 1100 999 889 981
8 966 871 980 1085 1086 984 1099 1215
8 967 872 984 1086 1087 985 1103 1216
8 971 876 985 1087 1090 988 1104 1217
8 1088 986 874 969 1218 1105 987 1089
8 972 879 986 1088 1091 991 1105 1218
8 970 875 988 1090 1089 987 1106 1219
8 973 880 991 1091 1092 992 1109 1220
8 1093 993 881 974 1221 1110 992 1092
8 1222 1108 990 1095 1093 993 882 976
8 1223 1101 982 1094 1096 989 877 977
8 1098 983 870 979 1223 1101 982 1094
8 1095 990 1107 1224 978 878 989 1096
8 1098 983 1100 1225 979 870 981 1097
8 984 884 994 1099 1103 995 1111 1227
8 1102 1001 1115 1228 983 891 999 1100
8 1101 1000 892 989 1229 1116 1002 1107
8 1102 1001 891 983 1229 1116 1000 1101
8 985 885 995 1103 1104 996 1112 1230
8 988 886 996 1104 1106 997 1113 1231
8 1105 998 888 987 1232 1114 997 1106
8 991 896 998 1105 1109 1005 1114 1232
8 1108 1003 1117 1233 990 893 1002 1107
8 1108 1003 894 993 1233 1117 1004 1110
8 992 895 1005 1109 1110 1004 1118 1234
8 1120 1013 1127 1244 1007 907 1015 1121
8 1148 1031 1127 1244 1030 920 1013 1120
8 1121 1015 1129 1245 1011 908 1016 1125
8 1126 1019 1075 1196 1246 1128 1014 1122
8 1246 1128 1014 1122 1123 1017 909 1009
8 1124 1018 1131 1247 1010 910 1017 1123
8 1125 1016 1130 1248 1012 911 1018 1124
8 1127 1020 1137 1254 1015 914 1022 1129
8 1031 921 1032 1149 1127 1020 1137 1254
8 1134 1027 918 1019 1257 1140 1021 1128
8 1257 1140 1021 1128 1131 1024 916 1017
8 1129 1022 1141 1258 1016 915 1023 1130
8 1130 1023 1142 1259 1018 917 1024 1131
8 1261 1144 1025 1132 1133 1026 1079 1199
8 1255 1138 1025 1132 1135 1028 1144 1261
8 1133 1026 918 1019 1262 1145 1027 1134
8 1136 1029 1139 1256 1263 1146 1028 1135
8 1037 928 1041 1155 1148 1031 1149 1275
8 1041 931 1044 1160 1149 1032 1150 1276
8 1151 1039 939 1057 1278 1156 1055 1180
8 1152 1040 926 1033 1279 1159 1039 1151
8 1153 1038 927 1034 1280 1158 1040 1152
8 1281 1157 1042 1154 1153 1038 929 1035
8 1036 930 1042 1154 1155 1041 1160 1282
8 1283 1164 1046 1159 1156 1047 935 1039
8 1165 1048 1164 1283 1053 937 1047 1156
8 1157 1043 933 1038 1284 1161 1045 1158
8 1157 1043 1161 1284 1042 932 1044 1160
8 1040 934 1046 1159 1158 1045 1163 1285
8 1166 1049 1167 1292 1051 936 1048 1165
8 1166 1049 936 1051 1293 1168 1050 1172
8 1051 936 1052 1175 1172 1050 1173 1306
8 1174 1051 1165 1290 1308 1175 1053 1177
8 1053 937 1054 1178 1175 1052 1176 1309
8 1278 1156 1055 1180 1177 1053 1178 1311
8 1055 938 1056 1181 1178 1054 1179 1312
8 1057 939 1058 1183 1180 1055 1181 1314
8 1058 940 1059 1184 1181 1056 1182 1315
8 1060 942 1061 1185 1183 1058 1184 1316
8 1208 1081 1187 1321 1082 964 1063 1188
8 1209 1082 1188 1322 1097 981 1064 1190
8 1188 1063 1189 1323 1064 947 1065 1191
8 1190 1064 1191 1325 1066 948 1067 1193
8 1191 1065 1192 1326 1067 949 1068 1194
8 1067 1193 1069 950 1194 1327 1195 1070
8 1250 1133 1199 1330 1126 1019 1075 1196
8 1198 1077 1014 1122 1331 1200 1075 1196
8 1074 960 1077 1198 1197 1076 1201 1332
8 1085 980 1076 1197 1215 1099 1201 1332
8 1199 1079 1203 1333 1075 962 1080 1200
8 1132 1025 1119 1243 1199 1079 1203 1333
8 1201 1078 963 1077 1334 1202 1080 1200
8 1099 994 1078 1201 1227 1111 1202 1334
8 1343 1207 1081 1208 1210 1083 964 1082
8 1214 1084 1186 1319 1343 1207 1081 1208
8 1345 1210 1082 1209 1225 1100 981 1097
8 1346 1211 1083 1210 1228 1115 999 1100
8 1086 984 1099 1215 1216 1103 1227 1352
8 1087 985 1103 1216 1217 1104 1230 1353
8 1090 988 1104 1217 1219 1106 1231 1354
8 1218 1105 987 1089 1355 1232 1106 1219
8 1091 991 1105 1218 1220 1109 1232 1355
8 1092 992 1109 1220 1221 1110 1234 1356
8 1222 1108 1233 1357 1095 990 1107 1224
8 1222 1108 993 1093 1357 1233 1110 1221
8 1223 1101 989 1096 1358 1229 1107 1224
8 1226 1102 983 1098 1358 1229 1101 1223
8 1226 1102 1228 1359 1098 983 1100 1225
8 1103 995 1111 1227 1230 1112 1235 1360
8 1107 1002 1117 1233 1229 1116 1240 1362
8 1102 1001 1116 1229 1228 1115 1240 1362
8 1104 996 1112 1230 1231 1113 1236 1363
8 1364 1237 1114 1232 1231 1113 997 1106
8 1109 1005 1114 1232 1234 1118 1238 1365
8 1110 1004 1118 1234 1233 1117 1241 1366
8 1242 1374 1255 1138 1119 1243 1132 1025
8 1244 1127 1254 1376 1121 1015 1129 1245
8 1148 1031 1149 1275 1244 1127 1254 1376
8 1245 1129 1258 1377 1125 1016 1130 1248
8 1251 1134 1019 1126 1378 1257 1128 1246
8 1378 1257 1128 1246 1247 1131 1017 1123
8 1248 1130 1259 1379 1124 1018 1131 1247
8 1261 1381 1250 1133 1132 1249 1330 1199
8 1255 1380 1252 1135 1132 1249 1381 1261
8 1250 1133 1019 1126 1382 1262 1134 1251
8 1253 1136 1256 1385 1384 1263 1135 1252
8 1254 1137 1265 1387 1129 1022 1141 1258
8 1149 1032 1150 1276 1254 1137 1265 1387
8 1028 1135 1255 1138 1139 1256 1388 1266
8 1136 1029 1147 1264 1256 1139 1267 1389
8 1390 1268 1140 1257 1259 1142 1024 1131
8 1260 1143 1027 1134 1390 1268 1140 1257
8 1258 1141 1269 1391 1130 1023 1142 1259
8 1262 1145 1027 1134 1393 1271 1143 1260
8 1261 1144 1026 1133 1394 1272 1145 1262
8 1135 1028 1144 1261 1263 1146 1272 1394
8 1136 1029 1146 1263 1264 1147 1273 1395
8 1155 1041 1160 1282 1275 1149 1276 1405
8 1276 1150 1044 1160 1406 1277 1162 1286
8 1408 1283 1159 1279 1278 1156 1039 1151
8 1290 1165 1283 1408 1177 1053 1156 1278
8 1152 1040 1159 1279 1280 1158 1285 1409
8 1281 1157 1038 1153 1410 1284 1158 1280
8 1281 1157 1284 1410 1154 1042 1160 1282
8 1159 1046 1164 1283 1285 1163 1289 1412
8 1292 1167 1289 1412 1165 1048 1164 1283
8 1158 1045 1163 1285 1284 1161 1288 1413
8 1284 1161 1288 1413 1160 1044 1162 1286
8 1291 1166 1292 1418 1174 1051 1165 1290
8 1291 1166 1051 1174 1419 1293 1172 1305
8 1294 1169 1296 1421 1166 1049 1167 1292
8 1293 1168 1050 1172 1422 1295 1171 1303
8 1294 1169 1049 1166 1423 1297 1168 1293
8 1422 1295 1171 1303 1301 1170 1302 1435
8 1172 1050 1173 1306 1303 1171 1304 1438
8 1174 1051 1175 1308 1305 1172 1306 1440
8 1175 1052 1176 1309 1306 1173 1307 1441
8 1177 1053 1178 1311 1308 1175 1309 1443
8 1178 1054 1179 1312 1309 1176 1310 1444
8 1180 1055 1181 1314 1311 1178 1312 1446
8 1056 1181 1312 1179 1182 1315 1447 1313
8 1183 1058 1184 1316 1314 1181 1315 1448
8 1319 1186 1084 1214 1451 1317 1213 1350
8 1319 1186 1318 1453 1208 1081 1187 1321
8 1321 1187 1320 1456 1188 1063 1189 1323
8 1344 1208 1321 1457 1209 1082 1188 1322
8 1322 1188 1323 1458 1190 1064 1191 1325
8 1323 1189 1324 1459 1191 1065 1192 1326
8 1191 1325 1193 1067 1326 1460 1327 1194
8 1242 1374 1243 1119 1328 1462 1335 1204
8 1330 1199 1333 1465 1196 1075 1200 1331
8 1132 1249 1330 1199 1243 1375 1465 1333
8 1332 1201 1077 1198 1466 1334 1200 1331
8 1215 1099 1201 1332 1352 1227 1334 1466
8 1119 1243 1333 1203 1204 1335 1470 1338
8 1333 1203 1338 1470 1200 1080 1202 1334
8 1227 1111 1202 1334 1360 1235 1338 1470
8 1328 1462 1335 1204 1205 1336 1471 1339
8 1337 1206 1340 1472 1464 1329 1205 1336
8 1346 1211 1342 1479 1210 1083 1207 1343
8 1346 1211 1115 1228 1479 1342 1239 1361
8 1348 1212 1084 1214 1479 1342 1207 1343
8 1480 1343 1208 1344 1345 1210 1082 1209
8 1351 1214 1319 1454 1480 1343 1208 1344
8 1481 1346 1210 1345 1359 1228 1100 1225
8 1348 1212 1347 1483 1214 1084 1213 1350
8 1216 1103 1227 1352 1353 1230 1360 1488
8 1217 1104 1230 1353 1354 1231 1363 1489
8 1490 1364 1232 1355 1354 1231 1106 1219
8 1220 1109 1232 1355 1356 1234 1365 1491
8 1221 1110 1234 1356 1357 1233 1366 1492
8 1224 1107 1233 1357 1358 1229 1362 1493
8 1226 1102 1229 1358 1359 1228 1362 1493
8 1230 1112 1235 1360 1363 1236 1367 1496
8 1361 1239 1115 1228 1497 1371 1240 1362
8 1366 1241 1372 1498 1233 1117 1240 1362
8 1364 1237 1113 1231 1499 1368 1236 1363
8 1364 1237 1368 1499 1232 1114 1238 1365
8 1234 1118 1238 1365 1366 1241 1369 1500
8 1507 1373 1242 1374 1388 1266 1138 1255
8 1508 1374 1243 1375 1380 1255 1132 1249
8 1376 1254 1387 1509 1245 1129 1258 1377
8 1275 1149 1276 1405 1376 1254 1387 1509
8 1377 1258 1391 1510 1248 1130 1259 1379
8 1511 1390 1257 1378 1379 1259 1131 1247
8 1383 1260 1134 1251 1511 1390 1257 1378
8 1252 1135 1256 1385 1380 1255 1388 1512
8 1261 1381 1513 1394 1133 1250 1382 1262
8 1135 1252 1384 1263 1261 1381 1513 1394
8 1382 1262 1134 1251 1514 1393 1260 1383
8 1253 1136 1263 1384 1386 1264 1395 1516
8 1253 1136 1264 1386 1385 1256 1389 1517
8 1387 1265 1397 1519 1258 1141 1269 1391
8 1276 1150 1277 1406 1387 1265 1397 1519
8 1256 1139 1267 1389 1388 1266 1398 1520
8 1264 1147 1274 1396 1389 1267 1399 1521
8 1392 1270 1143 1260 1522 1400 1268 1390
8 1390 1268 1142 1259 1522 1400 1269 1391
8 1392 1270 1401 1523 1260 1143 1271 1393
8 1272 1394 1524 1402 1145 1262 1393 1271
8 1395 1273 1146 1263 1524 1402 1272 1394
8 1273 1395 1264 1147 1403 1526 1396 1274
8 1405 1276 1160 1282 1534 1406 1286 1411
8 1414 1287 1407 1535 1286 1162 1277 1406
8 1279 1159 1283 1408 1409 1285 1412 1537
8 1418 1292 1412 1537 1290 1165 1283 1408
8 1280 1158 1285 1409 1410 1284 1413 1538
8 1410 1284 1413 1538 1282 1160 1286 1411
8 1285 1163 1289 1412 1413 1288 1417 1540
8 1421 1296 1417 1540 1292 1167 1289 1412
8 1414 1287 1162 1286 1541 1416 1288 1413
8 1420 1294 1421 1545 1291 1166 1292 1418
8 1419 1293 1172 1305 1546 1422 1303 1437
8 1420 1294 1166 1291 1547 1423 1293 1419
8 1294 1169 1297 1423 1421 1296 1425 1548
8 1423 1297 1168 1293 1549 1424 1295 1422
8 1301 1170 1298 1427 1422 1295 1424 1549
8 1432 1300 1428 1554 1301 1170 1298 1427
8 1431 1299 1428 1554 1560 1430 1300 1432
8 1563 1433 1300 1432 1435 1302 1170 1301
8 1546 1422 1303 1437 1434 1301 1435 1565
8 1303 1171 1304 1438 1435 1302 1436 1566
8 1305 1172 1306 1440 1437 1303 1438 1568
8 1306 1173 1307 1441 1438 1304 1439 1569
8 1308 1175 1309 1443 1440 1306 1441 1571
8 1309 1176 1310 1444 1441 1307 1442 1572
8 1311 1178 1312 1446 1443 1309 1444 1574
8 1179 1312 1444 1310 1313 1447 1575 1445
8 1314 1181 1315 1448 1446 1312 1447 1576
8 1350 1213 1349 1486 1451 1317 1449 1579
8 1451 1317 1450 1581 1319 1186 1318 1453
8 1454 1319 1214 1351 1582 1451 1350 1487
8 1453 1318 1452 1584 1321 1187 1320 1456
8 1454 1319 1453 1585 1344 1208 1321 1457
8 1456 1320 1455 1586 1323 1189 1324 1459
8 1457 1321 1456 1587 1322 1188 1323 1458
8 1458 1323 1459 1588 1325 1191 1326 1460
8 1205 1336 1464 1329 1328 1462 1590 1461
8 1507 1373 1461 1590 1374 1242 1328 1462
8 1508 1374 1462 1591 1375 1243 1335 1467
8 1337 1206 1329 1464 1473 1341 1463 1594
8 1375 1243 1335 1467 1465 1333 1470 1596
8 1465 1333 1470 1596 1331 1200 1334 1466
8 1352 1227 1334 1466 1488 1360 1470 1596
8 1591 1462 1336 1468 1467 1335 1471 1597
8 1469 1337 1472 1598 1595 1464 1336 1468
8 1471 1339 1474 1600 1335 1204 1338 1470
8 1600 1474 1367 1496 1470 1338 1235 1360
8 1336 1205 1340 1472 1471 1339 1475 1601
8 1337 1206 1341 1473 1472 1340 1476 1602
8 1495 1370 1478 1609 1361 1239 1342 1479
8 1348 1212 1342 1479 1483 1347 1478 1609
8 1481 1346 1479 1610 1345 1210 1343 1480
8 1481 1346 1228 1359 1610 1479 1361 1494
8 1484 1348 1214 1351 1610 1479 1343 1480
8 1483 1347 1482 1612 1350 1213 1349 1486
8 1484 1348 1483 1613 1351 1214 1350 1487
8 1353 1230 1360 1488 1489 1363 1496 1616
8 1490 1364 1231 1354 1617 1499 1363 1489
8 1490 1364 1499 1617 1355 1232 1365 1491
8 1356 1234 1365 1491 1492 1366 1500 1619
8 1492 1366 1498 1620 1357 1233 1362 1493
8 1494 1361 1228 1359 1621 1497 1362 1493
8 1495 1370 1239 1361 1622 1504 1371 1497
8 1363 1236 1367 1496 1499 1368 1501 1623
8 1497 1371 1240 1362 1624 1505 1372 1498
8 1625 1503 1372 1498 1500 1369 1241 1366
8 1365 1238 1368 1499 1500 1369 1502 1626
8 1520 1398 1506 1633 1388 1266 1373 1507
8 1634 1507 1374 1508 1512 1388 1255 1380
8 1509 1387 1519 1635 1377 1258 1391 1510
8 1405 1276 1406 1534 1509 1387 1519 1635
8 1515 1392 1260 1383 1636 1522 1390 1511
8 1511 1390 1259 1379 1636 1522 1391 1510
8 1385 1256 1389 1517 1512 1388 1520 1637
8 1513 1394 1262 1382 1638 1524 1393 1514
8 1395 1516 1638 1524 1263 1384 1513 1394
8 1515 1392 1523 1639 1383 1260 1393 1514
8 1516 1395 1526 1640 1386 1264 1396 1518
8 1386 1264 1396 1518 1517 1389 1521 1641
8 1519 1397 1527 1643 1391 1269 1400 1522
8 1535 1407 1527 1643 1406 1277 1397 1519
8 1389 1267 1399 1521 1520 1398 1528 1644
8 1645 1529 1399 1521 1525 1404 1274 1396
8 1392 1270 1400 1522 1523 1401 1531 1646
8 1524 1402 1271 1393 1648 1532 1401 1523
8 1403 1526 1648 1532 1273 1395 1524 1402
8 1525 1404 1274 1396 1649 1533 1403 1526
8 1539 1414 1535 1657 1411 1286 1406 1534
8 1542 1415 1536 1658 1414 1287 1407 1535
8 1409 1285 1412 1537 1538 1413 1540 1660
8 1545 1421 1540 1660 1418 1292 1412 1537
8 1539 1414 1286 1411 1661 1541 1413 1538
8 1540 1417 1544 1663 1413 1288 1416 1541
8 1421 1296 1425 1548 1540 1417 1544 1663
8 1542 1415 1287 1414 1664 1543 1416 1541
8 1420 1294 1423 1547 1545 1421 1548 1666
8 1547 1423 1293 1419 1667 1549 1422 1546
8 1434 1301 1427 1553 1546 1422 1549 1667
8 1423 1297 1424 1549 1548 1425 1550 1668
8 1551 1426 1550 1668 1427 1298 1424 1549
8 1551 1426 1298 1427 1671 1552 1428 1554
8 1562 1432 1554 1674 1434 1301 1427 1553
8 1431 1299 1429 1558 1554 1428 1555 1675
8 1431 1299 1430 1560 1558 1429 1557 1680
8 1560 1430 1300 1432 1683 1559 1433 1563
8 1561 1431 1554 1674 1684 1560 1432 1562
8 1685 1563 1432 1562 1565 1435 1301 1434
8 1435 1302 1436 1566 1563 1433 1564 1686
8 1437 1303 1438 1568 1565 1435 1566 1688
8 1438 1304 1439 1569 1566 1436 1567 1689
8 1440 1306 1441 1571 1568 1438 1569 1691
8 1441 1307 1442 1572 1569 1439 1570 1692
8 1443 1309 1444 1574 1571 1441 1572 1694
8 1310 1444 1572 1442 1445 1575 1695 1573
8 1446 1312 1447 1576 1574 1444 1575 1696
8 1486 1349 1485 1614 1579 1449 1577 1699
8 1451 1317 1449 1579 1581 1450 1578 1701
8 1487 1350 1486 1615 1582 1451 1579 1702
8 1581 1450 1580 1704 1453 1318 1452 1584
8 1582 1451 1581 1705 1454 1319 1453 1585
8 1584 1452 1583 1706 1456 1320 1455 1586
8 1585 1453 1584 1707 1457 1321 1456 1587
8 1587 1456 1586 1708 1458 1323 1459 1588
8 1633 1506 1589 1710 1507 1373 1461 1590
8 1464 1329 1461 1590 1594 1463 1589 1710
8 1468 1336 1462 1591 1595 1464 1590 1711
8 1634 1507 1590 1711 1508 1374 1462 1591
8 1473 1341 1463 1594 1603 1477 1593 1716
8 1469 1337 1464 1595 1599 1473 1594 1717
8 1471 1597 1467 1335 1600 1718 1596 1470
8 1718 1600 1496 1616 1596 1470 1360 1488
8 1336 1468 1597 1471 1472 1598 1719 1601
8 1469 1337 1473 1599 1598 1472 1602 1720
8 1722 1604 1501 1623 1600 1474 1367 1496
8 1475 1601 1471 1339 1604 1722 1600 1474
8 1602 1476 1605 1723 1472 1340 1475 1601
8 1476 1602 1724 1606 1341 1473 1603 1477
8 1483 1347 1478 1609 1612 1482 1608 1731
8 1495 1370 1504 1622 1609 1478 1608 1731
8 1618 1495 1609 1732 1494 1361 1479 1610
8 1484 1348 1479 1610 1613 1483 1609 1732
8 1486 1349 1482 1612 1614 1485 1611 1733
8 1613 1483 1612 1734 1487 1350 1486 1615
8 1489 1363 1496 1616 1617 1499 1623 1736
8 1491 1365 1499 1617 1619 1500 1626 1737
8 1618 1495 1361 1494 1738 1622 1497 1621
8 1739 1625 1498 1620 1619 1500 1366 1492
8 1621 1497 1362 1493 1740 1624 1498 1620
8 1742 1631 1504 1622 1624 1505 1371 1497
8 1743 1628 1502 1626 1623 1501 1368 1499
8 1744 1630 1505 1624 1625 1503 1372 1498
8 1745 1629 1503 1625 1626 1502 1369 1500
8 1520 1398 1528 1644 1633 1506 1632 1751
8 1637 1520 1633 1752 1512 1388 1507 1634
8 1635 1519 1643 1753 1510 1391 1522 1636
8 1657 1535 1643 1753 1534 1406 1519 1635
8 1515 1392 1522 1636 1639 1523 1646 1754
8 1517 1389 1521 1641 1637 1520 1644 1755
8 1524 1638 1756 1648 1393 1514 1639 1523
8 1640 1526 1395 1516 1756 1648 1524 1638
8 1642 1525 1396 1518 1757 1649 1526 1640
8 1758 1645 1521 1641 1642 1525 1396 1518
8 1646 1531 1400 1522 1760 1650 1527 1643
8 1535 1407 1536 1658 1643 1527 1650 1760
8 1521 1399 1529 1645 1644 1528 1651 1761
8 1647 1530 1652 1762 1525 1404 1529 1645
8 1401 1523 1648 1532 1531 1646 1763 1655
8 1525 1404 1533 1649 1647 1530 1654 1765
8 1533 1649 1766 1656 1403 1526 1648 1532
8 1662 1542 1658 1774 1539 1414 1535 1657
8 1542 1415 1543 1664 1658 1536 1659 1775
8 1660 1540 1663 1777 1538 1413 1541 1661
8 1545 1421 1548 1666 1660 1540 1663 1777
8 1662 1542 1414 1539 1778 1664 1541 1661
8 1664 1543 1416 1541 1779 1665 1544 1663
8 1548 1425 1550 1668 1663 1544 1665 1779
8 1547 1423 1549 1667 1666 1548 1668 1781
8 1670 1551 1668 1781 1553 1427 1549 1667
8 1551 1426 1552 1671 1668 1550 1669 1782
8 1670 1551 1427 1553 1784 1671 1554 1674
8 1675 1555 1672 1785 1554 1428 1552 1671
8 1678 1556 1673 1789 1558 1429 1555 1675
8 1561 1431 1558 1681 1674 1554 1675 1790
8 1794 1677 1556 1678 1680 1557 1429 1558
8 1560 1430 1559 1683 1680 1557 1679 1797
8 1561 1431 1560 1684 1681 1558 1680 1798
8 1563 1433 1564 1686 1683 1559 1682 1800
8 1684 1560 1432 1562 1801 1683 1563 1685
8 1565 1435 1566 1688 1685 1563 1686 1802
8 1566 1436 1567 1689 1686 1564 1687 1803
8 1568 1438 1569 1691 1688 1566 1689 1805
8 1569 1439 1570 1692 1689 1567 1690 1806
8 1571 1441 1572 1694 1691 1569 1692 1808
8 1442 1572 1692 1570 1573 1695 1809 1693
8 1574 1444 1575 1696 1694 1572 1695 1810
8 1614 1485 1592 1712 1699 1577 1697 1813
8 1579 1449 1577 1699 1701 1578 1698 1815
8 1615 1486 1614 1735 1702 1579 1699 1816
8 1701 1578 1700 1818 1581 1450 1580 1704
8 1582 1451 1579 1702 1705 1581 1701 1819
8 1704 1580 1703 1820 1584 1452 1583 1706
8 1705 1581 1704 1821 1585 1453 1584 1707
8 1707 1584 1706 1822 1587 1456 1586 1708
8 1710 1589 1506 1633 1824 1709 1632 1751
8 1594 1463 1589 1710 1716 1593 1709 1824
8 1752 1633 1710 1825 1634 1507 1590 1711
8 1595 1464 1590 1711 1717 1594 1710 1825
8 1830 1714 1592 1712 1733 1611 1485 1614
8 1603 1477 1593 1716 1725 1607 1715 1834
8 1599 1473 1594 1717 1721 1603 1716 1835
8 1837 1722 1623 1736 1718 1600 1496 1616
8 1719 1601 1722 1837 1597 1471 1600 1718
8 1602 1720 1598 1472 1723 1838 1719 1601
8 1720 1602 1473 1599 1839 1724 1603 1721
8 1723 1605 1726 1840 1601 1475 1604 1722
8 1840 1726 1628 1743 1722 1604 1501 1623
8 1724 1606 1727 1841 1602 1476 1605 1723
8 1725 1607 1728 1842 1603 1477 1606 1724
8 1612 1482 1608 1731 1733 1611 1730 1849
8 1741 1627 1730 1849 1622 1504 1608 1731
8 1613 1483 1609 1732 1734 1612 1731 1850
8 1618 1495 1622 1738 1732 1609 1731 1850
8 1615 1486 1612 1734 1735 1614 1733 1851
8 1852 1743 1626 1737 1736 1623 1499 1617
8 1853 1745 1625 1739 1737 1626 1500 1619
8 1855 1742 1622 1738 1740 1624 1497 1621
8 1856 1744 1624 1740 1739 1625 1498 1620
8 1741 1627 1504 1622 1857 1746 1631 1742
8 1742 1631 1505 1624 1858 1749 1630 1744
8 1859 1747 1629 1745 1743 1628 1502 1626
8 1860 1748 1630 1744 1745 1629 1503 1625
8 1644 1528 1651 1761 1751 1632 1750 1865
8 1637 1520 1644 1755 1752 1633 1751 1866
8 1754 1646 1522 1636 1867 1760 1643 1753
8 1657 1535 1658 1774 1753 1643 1760 1867
8 1639 1523 1646 1754 1756 1648 1763 1868
8 1641 1521 1645 1758 1755 1644 1761 1869
8 1757 1649 1526 1640 1870 1766 1648 1756
8 1642 1525 1649 1757 1759 1647 1765 1871
8 1759 1647 1762 1872 1642 1525 1645 1758
8 1760 1650 1767 1874 1646 1531 1655 1763
8 1658 1536 1659 1775 1760 1650 1767 1874
8 1762 1652 1768 1875 1645 1529 1651 1761
8 1764 1653 1769 1876 1647 1530 1652 1762
8 1656 1766 1877 1773 1532 1648 1763 1655
8 1771 1879 1765 1654 1653 1764 1647 1530
8 1533 1649 1765 1654 1656 1766 1880 1772
8 1662 1542 1664 1778 1774 1658 1775 1887
8 1664 1543 1665 1779 1775 1659 1776 1888
8 1778 1664 1541 1661 1890 1779 1663 1777
8 1666 1548 1668 1781 1777 1663 1779 1890
8 1782 1669 1780 1891 1668 1550 1665 1779
8 1670 1551 1671 1784 1781 1668 1782 1893
8 1671 1552 1672 1785 1782 1669 1783 1894
8 1790 1675 1785 1896 1674 1554 1671 1784
8 1675 1555 1673 1789 1785 1672 1786 1897
8 1792 1676 1788 1903 1678 1556 1673 1789
8 1795 1678 1789 1904 1681 1558 1675 1790
8 1792 1676 1556 1678 1906 1791 1677 1794
8 1680 1557 1679 1797 1794 1677 1793 1909
8 1910 1794 1678 1795 1798 1680 1558 1681
8 1683 1559 1682 1800 1797 1679 1796 1912
8 1684 1560 1683 1801 1798 1680 1797 1913
8 1686 1564 1687 1803 1800 1682 1799 1915
8 1685 1563 1686 1802 1801 1683 1800 1916
8 1688 1566 1689 1805 1802 1686 1803 1917
8 1689 1567 1690 1806 1803 1687 1804 1918
8 1691 1569 1692 1808 1805 1689 1806 1920
8 1692 1570 1693 1809 1806 1690 1807 1921
8 1694 1572 1695 1810 1808 1692 1809 1922
8 1829 1713 1811 1926 1712 1592 1697 1813
8 1813 1697 1812 1928 1699 1577 1698 1815
8 1735 1614 1712 1828 1816 1699 1813 1929
8 1815 1698 1814 1931 1701 1578 1700 1818
8 1702 1579 1699 1816 1819 1701 1815 1932
8 1818 1700 1817 1933 1704 1580 1703 1820
8 1819 1701 1818 1934 1705 1581 1704 1821
8 1821 1704 1820 1935 1707 1584 1706 1822
8 1824 1709 1632 1751 1937 1823 1750 1865
8 1716 1593 1709 1824 1834 1715 1823 1937
8 1825 1710 1633 1752 1938 1824 1751 1866
8 1717 1594 1710 1825 1835 1716 1824 1938
8 1945 1830 1712 1828 1851 1733 1614 1735
8 1830 1714 1831 1946 1712 1592 1713 1829
8 1947 1832 1714 1830 1849 1730 1611 1733
8 1843 1729 1607 1725 1950 1833 1715 1834
8 1721 1603 1716 1835 1836 1725 1834 1951
8 1836 1725 1842 1953 1721 1603 1724 1839
8 1723 1838 1719 1601 1840 1954 1837 1722
8 1954 1840 1743 1852 1837 1722 1623 1736
8 1724 1839 1720 1602 1841 1955 1838 1723
8 1841 1727 1844 1956 1723 1605 1726 1840
8 1956 1844 1747 1859 1840 1726 1628 1743
8 1728 1842 1724 1606 1845 1957 1841 1727
8 1725 1607 1729 1843 1842 1728 1846 1958
8 1741 1627 1746 1857 1849 1730 1848 1965
8 1734 1612 1731 1850 1851 1733 1849 1966
8 1854 1741 1849 1966 1738 1622 1731 1850
8 1967 1859 1745 1853 1852 1743 1626 1737
8 1968 1860 1744 1856 1853 1745 1625 1739
8 1854 1741 1622 1738 1969 1857 1742 1855
8 1855 1742 1624 1740 1970 1858 1744 1856
8 1857 1746 1631 1742 1971 1861 1749 1858
8 1858 1749 1630 1744 1972 1863 1748 1860
8 1859 1747 1862 1973 1745 1629 1748 1860
8 1875 1768 1864 1977 1761 1651 1750 1865
8 1755 1644 1761 1869 1866 1751 1865 1978
8 1867 1760 1874 1979 1754 1646 1763 1868
8 1774 1658 1775 1887 1867 1760 1874 1979
8 1870 1766 1648 1756 1980 1877 1763 1868
8 1872 1762 1875 1981 1758 1645 1761 1869
8 1757 1649 1766 1870 1871 1765 1880 1982
8 1983 1879 1764 1873 1871 1765 1647 1759
8 1873 1764 1876 1984 1759 1647 1762 1872
8 1877 1773 1655 1763 1986 1881 1767 1874
8 1775 1659 1776 1888 1874 1767 1881 1986
8 1876 1769 1882 1987 1762 1652 1768 1875
8 1878 1770 1883 1988 1764 1653 1769 1876
8 1880 1772 1656 1766 1989 1886 1773 1877
8 1878 1770 1653 1764 1990 1884 1771 1879
8 1765 1654 1772 1880 1879 1771 1885 1991
8 1778 1664 1779 1890 1887 1775 1888 1997
8 1998 1889 1776 1888 1891 1780 1665 1779
8 1893 1782 1891 2000 1781 1668 1779 1890
8 1894 1783 1892 2001 1782 1669 1780 1891
8 1784 1671 1785 1896 1893 1782 1894 2003
8 1897 1786 1895 2004 1785 1672 1783 1894
8 1790 1675 1789 1904 1896 1785 1897 2006
8 1901 1787 1898 2007 1789 1673 1786 1897
8 1903 1788 1900 2013 1789 1673 1787 1901
8 1792 1676 1791 1906 1903 1788 1902 2016
8 1907 1792 1903 2017 1795 1678 1789 1904
8 1906 1791 1677 1794 2019 1905 1793 1909
8 1907 1792 1678 1795 2020 1906 1794 1910
8 1797 1679 1796 1912 1909 1793 1908 2022
8 1798 1680 1797 1913 1910 1794 1909 2023
8 1800 1682 1799 1915 1912 1796 1911 2025
8 1801 1683 1800 1916 1913 1797 1912 2026
8 1803 1687 1804 1918 1915 1799 1914 2028
8 1802 1686 1803 1917 1916 1800 1915 2029
8 1805 1689 1806 1920 1917 1803 1918 2030
8 1806 1690 1807 1921 1918 1804 1919 2031
8 1808 1692 1809 1922 1920 1806 1921 2032
8 1939 1826 1924 2037 1829 1713 1811 1926
8 1926 1811 1925 2039 1813 1697 1812 1928
8 1944 1829 1926 2040 1828 1712 1813 1929
8 1928 1812 1927 2042 1815 1698 1814 1931
8 1929 1813 1928 2043 1816 1699 1815 1932
8 1931 1814 1930 2044 1818 1700 1817 1933
8 1932 1815 1931 2045 1819 1701 1818 1934
8 1934 1818 1933 2046 1821 1704 1820 1935
8 2048 1936 1823 1937 1977 1864 1750 1865
8 1950 1833 1715 1834 2048 1936 1823 1937
8 1938 1824 1751 1866 2049 1937 1865 1978
8 1835 1716 1824 1938 1951 1834 1937 2049
8 1939 1826 1713 1829 2053 1942 1831 1946
8 1940 1827 1923 2035 2053 1942 1826 1939
8 1945 1830 1946 2058 1828 1712 1829 1944
8 2059 1947 1830 1945 1966 1849 1733 1851
8 1947 1832 1730 1849 2060 1948 1848 1965
8 1947 1832 1948 2060 1830 1714 1831 1946
8 1959 1847 1729 1843 2063 1949 1833 1950
8 1952 1843 1725 1836 2064 1950 1834 1951
8 1836 1725 1843 1952 1953 1842 1958 2066
8 1953 1842 1957 2067 1839 1724 1841 1955
8 1841 1955 1838 1723 1956 2068 1954 1840
8 2068 1956 1859 1967 1954 1840 1743 1852
8 1956 1844 1960 2069 1859 1747 1862 1973
8 1845 1957 1841 1727 1960 2069 1956 1844
8 1728 1842 1957 1845 1846 1958 2071 1961
8 1962 2072 1959 1847 1846 1958 1843 1729
8 1971 1861 1964 2077 1857 1746 1848 1965
8 1854 1741 1857 1969 1966 1849 1965 2078
8 1967 1859 1973 2079 1853 1745 1860 1968
8 1970 1858 1744 1856 2080 1972 1860 1968
8 1969 1857 1742 1855 2081 1971 1858 1970
8 1971 1861 1749 1858 2082 1974 1863 1972
8 1973 1862 1975 2083 1860 1748 1863 1972
8 1987 1882 1976 2086 1875 1768 1864 1977
8 1981 1875 1977 2087 1869 1761 1865 1978
8 1980 1877 1763 1868 2088 1986 1874 1979
8 1887 1775 1888 1997 1979 1874 1986 2088
8 1880 1982 2089 1989 1766 1870 1980 1877
8 1984 1876 1987 2090 1872 1762 1875 1981
8 1765 1871 1983 1879 1880 1982 2091 1991
8 1985 1878 1764 1873 2092 1990 1879 1983
8 1985 1878 1988 2093 1873 1764 1876 1984
8 2094 1992 1881 1986 1998 1889 1776 1888
8 1986 1881 1992 2094 1877 1773 1886 1989
8 1988 1883 1993 2095 1876 1769 1882 1987
8 1878 1770 1884 1990 1988 1883 1994 2096
8 1991 1885 1772 1880 2097 1996 1886 1989
8 1879 1771 1885 1991 1990 1884 1995 2098
8 2103 1998 1888 1997 2000 1891 1779 1890
8 2104 1999 1889 1998 2001 1892 1780 1891
8 2003 1894 2001 2106 1893 1782 1891 2000
8 2004 1895 2002 2107 1894 1783 1892 2001
8 2006 1897 2004 2109 1896 1785 1894 2003
8 2007 1898 2005 2110 1897 1786 1895 2004
8 2014 1901 2007 2112 1904 1789 1897 2006
8 2011 1899 2008 2113 1901 1787 1898 2007
8 2119 2010 1899 2011 2013 1900 1787 1901
8 2016 1902 2012 2122 1903 1788 1900 2013
8 2017 1903 2013 2123 1904 1789 1901 2014
8 1906 1791 1905 2019 2016 1902 2015 2125
8 1907 1792 1906 2020 2017 1903 2016 2126
8 1909 1793 1908 2022 2019 1905 2018 2128
8 2020 1906 1794 1910 2129 2019 1909 2023
8 1912 1796 1911 2025 2022 1908 2021 2131
8 1913 1797 1912 2026 2023 1909 2022 2132
8 1915 1799 1914 2028 2025 1911 2024 2134
8 1916 1800 1915 2029 2026 1912 2025 2135
8 1918 1804 1919 2031 2028 1914 2027 2136
8 1917 1803 1918 2030 2029 1915 2028 2137
8 1920 1806 1921 2032 2030 1918 2031 2138
8 1940 1827 1941 2054 2035 1923 2033 2140
8 2035 1923 2034 2143 1939 1826 1924 2037
8 2037 1924 2036 2146 1926 1811 1925 2039
8 2051 1939 2037 2147 1944 1829 1926 2040
8 2039 1925 2038 2149 1928 1812 1927 2042
8 2040 1926 2039 2150 1929 1813 1928 2043
8 2042 1927 2041 2151 1931 1814 1930 2044
8 2043 1928 2042 2152 1932 1815 1931 2045
8 2045 1931 2044 2153 1934 1818 1933 2046
8 2155 2047 1936 2048 2086 1976 1864 1977
8 2063 1949 1833 1950 2155 2047 1936 2048
8 2156 2048 1937 2049 2087 1977 1865 1978
8 2064 1950 1834 1951 2156 2048 1937 2049
8 2051 1939 1829 1944 2160 2053 1946 2058
8 2052 1940 2035 2144 2160 2053 1939 2051
8 2053 1942 1831 1946 2163 2057 1948 2060
8 2055 1943 1827 1940 2163 2057 1942 2053
8 2055 1943 2056 2164 1940 1827 1941 2054
8 2059 1947 1849 1966 2167 2060 1965 2078
8 2059 1947 2060 2167 1945 1830 1946 2058
8 2077 1964 2061 2168 1965 1848 1948 2060
8 2070 1963 1847 1959 2170 2062 1949 2063
8 2065 1959 1843 1952 2171 2063 1950 2064
8 2173 2072 1958 2066 2065 1959 1843 1952
8 1953 1842 1958 2066 2067 1957 2071 2174
8 2068 1956 2069 2175 1967 1859 1973 2079
8 2067 1957 2069 2175 1955 1841 1956 2068
8 1845 1957 2069 1960 1961 2071 2176 2073
8 2069 1960 2073 2176 1973 1862 1975 2083
8 2070 1963 2075 2177 1959 1847 1962 2072
8 1846 1958 2071 1961 1962 2072 2178 2074
8 2077 1964 1861 1971 2182 2076 1974 2082
8 2081 1971 2077 2183 1969 1857 1965 2078
8 2079 1973 2083 2184 1968 1860 1972 2080
8 2081 1971 1858 1970 2185 2082 1972 2080
8 2083 1975 2084 2186 1972 1863 1974 2082
8 2086 1976 1882 1987 2189 2085 1993 2095
8 2090 1987 2086 2190 1981 1875 1977 2087
8 2191 2094 1986 2088 2103 1998 1888 1997
8 2088 1986 2094 2191 1980 1877 1989 2089
8 1991 2091 2192 2097 1880 1982 2089 1989
8 2093 1988 2095 2193 1984 1876 1987 2090
8 1879 1983 2092 1990 1991 2091 2194 2098
8 1985 1878 1990 2092 2093 1988 2096 2195
8 2097 1996 1886 1989 2196 2099 1992 2094
8 2196 2099 1992 2094 2104 1999 1889 1998
8 1994 2096 1988 1883 2100 2197 2095 1993
8 2096 1994 1884 1990 2198 2101 1995 2098
8 1995 2098 2199 2102 1885 1991 2097 1996
8 2203 2104 1998 2103 2106 2001 1891 2000
8 2107 2002 2105 2204 2001 1892 1999 2104
8 2109 2004 2107 2206 2003 1894 2001 2106
8 2110 2005 2108 2207 2004 1895 2002 2107
8 2112 2007 2110 2209 2006 1897 2004 2109
8 2113 2008 2111 2210 2007 1898 2005 2110
8 2120 2011 2113 2212 2014 1901 2007 2112
8 2117 2009 2114 2213 2011 1899 2008 2113
8 2219 2116 2009 2117 2119 2010 1899 2011
8 2222 2118 2010 2119 2122 2012 1900 2013
8 2223 2119 2011 2120 2123 2013 1901 2014
8 2016 1902 2015 2125 2122 2012 2121 2225
8 2126 2016 2122 2226 2017 1903 2013 2123
8 2019 1905 2018 2128 2125 2015 2124 2228
8 2020 1906 2019 2129 2126 2016 2125 2229
8 2022 1908 2021 2131 2128 2018 2127 2231
8 2023 1909 2022 2132 2129 2019 2128 2232
8 2025 1911 2024 2134 2131 2021 2130 2234
8 2026 1912 2025 2135 2132 2022 2131 2235
8 1914 2028 2134 2024 2027 2136 2236 2133
8 2029 1915 2028 2137 2135 2025 2134 2237
8 2030 1918 2031 2138 2137 2028 2136 2238
8 2157 2050 2139 2240 2054 1941 2033 2140
8 2052 1940 2054 2161 2144 2035 2140 2242
8 2140 2033 2141 2243 2035 1923 2034 2143
8 2143 2034 2142 2246 2037 1924 2036 2146
8 2144 2035 2143 2247 2051 1939 2037 2147
8 2146 2036 2145 2249 2039 1925 2038 2149
8 2147 2037 2146 2250 2040 1926 2039 2150
8 2149 2038 2148 2251 2042 1927 2041 2151
8 2150 2039 2149 2252 2043 1928 2042 2152
8 2152 2042 2151 2253 2045 1931 2044 2153
8 2255 2154 2047 2155 2189 2085 1976 2086
8 2170 2062 1949 2063 2255 2154 2047 2155
8 2256 2155 2048 2156 2190 2086 1977 2087
8 2171 2063 1950 2064 2256 2155 2048 2156
8 2258 2159 2050 2157 2164 2056 1941 2054
8 2160 2053 1946 2058 2262 2163 2060 2167
8 2162 2055 1940 2052 2262 2163 2053 2160
8 2162 2055 2164 2263 2052 1940 2054 2161
8 2163 2057 1948 2060 2264 2165 2061 2168
8 2055 1943 2057 2163 2164 2056 2165 2264
8 2182 2076 2166 2268 2077 1964 2061 2168
8 2183 2077 2168 2269 2078 1965 2060 2167
8 2070 1963 2062 2170 2177 2075 2169 2271
8 2172 2070 1959 2065 2272 2170 2063 2171
8 2172 2070 2177 2273 2065 1959 2072 2173
8 2066 1958 2072 2173 2174 2071 2178 2274
8 2067 1957 2071 2174 2175 2069 2176 2275
8 2175 2069 2176 2275 2079 1973 2083 2184
8 2071 1961 2074 2178 2176 2073 2179 2276
8 2176 2073 2179 2276 2083 1975 2084 2186
8 2072 1962 2075 2177 2178 2074 2180 2277
8 2182 2076 1974 2082 2280 2181 2084 2186
8 2183 2077 1971 2081 2281 2182 2082 2185
8 2184 2083 2186 2282 2080 1972 2082 2185
8 2189 2085 1993 2095 2285 2188 2100 2197
8 2190 2086 1987 2090 2286 2189 2095 2193
8 2192 2097 1989 2089 2287 2196 2094 2191
8 2287 2196 2094 2191 2203 2104 1998 2103
8 2194 2098 1991 2091 2288 2199 2097 2192
8 2195 2096 2197 2289 2093 1988 2095 2193
8 2096 2195 2290 2198 1990 2092 2194 2098
8 2097 1996 2099 2196 2199 2102 2200 2291
8 2196 2099 1999 2104 2291 2200 2105 2204
8 2100 2197 2292 2201 1994 2096 2198 2101
8 1995 2098 2198 2101 2102 2199 2293 2202
8 2206 2107 2204 2296 2106 2001 2104 2203
8 2207 2108 2205 2297 2107 2002 2105 2204
8 2209 2110 2207 2299 2109 2004 2107 2206
8 2210 2111 2208 2300 2110 2005 2108 2207
8 2212 2113 2210 2302 2112 2007 2110 2209
8 2213 2114 2211 2303 2113 2008 2111 2210
8 2220 2117 2213 2305 2120 2011 2113 2212
8 2216 2115 2214 2306 2117 2009 2114 2213
8 2216 2115 2009 2117 2311 2217 2116 2219
8 2219 2116 2010 2119 2314 2218 2118 2222
8 2315 2219 2117 2220 2223 2119 2011 2120
8 2122 2012 2121 2225 2222 2118 2221 2317
8 2318 2222 2119 2223 2226 2122 2013 2123
8 2125 2015 2124 2228 2225 2121 2224 2320
8 2126 2016 2125 2229 2226 2122 2225 2321
8 2128 2018 2127 2231 2228 2124 2227 2323
8 2129 2019 2128 2232 2229 2125 2228 2324
8 2131 2021 2130 2234 2231 2127 2230 2326
8 2132 2022 2131 2235 2232 2128 2231 2327
8 2134 2024 2133 2236 2234 2130 2233 2328
8 2135 2025 2134 2237 2235 2131 2234 2329
8 2137 2028 2136 2238 2237 2134 2236 2330
8 2157 2050 2158 2259 2240 2139 2239 2332
8 2257 2157 2240 2334 2161 2054 2140 2242
8 2240 2139 2241 2335 2140 2033 2141 2243
8 2242 2140 2243 2337 2144 2035 2143 2247
8 2243 2141 2244 2338 2143 2034 2142 2246
8 2246 2142 2245 2341 2146 2036 2145 2249
8 2247 2143 2246 2342 2147 2037 2146 2250
8 2249 2145 2248 2343 2149 2038 2148 2251
8 2250 2146 2249 2344 2150 2039 2149 2252
8 2252 2149 2251 2345 2152 2042 2151 2253
8 2169 2271 2347 2254 2062 2170 2255 2154
8 2189 2085 2188 2285 2255 2154 2254 2347
8 2348 2255 2155 2256 2286 2189 2086 2190
8 2272 2170 2063 2171 2348 2255 2155 2256
8 2349 2258 2157 2257 2263 2164 2054 2161
8 2258 2159 2261 2351 2157 2050 2158 2259
8 2258 2159 2056 2164 2351 2261 2165 2264
8 2262 2163 2060 2167 2355 2264 2168 2269
8 2162 2055 2163 2262 2263 2164 2264 2355
8 2357 2266 2165 2264 2268 2166 2061 2168
8 2268 2166 2076 2182 2361 2267 2181 2280
8 2281 2182 2268 2362 2183 2077 2168 2269
8 2271 2169 2270 2364 2177 2075 2180 2277
8 2172 2070 2170 2272 2273 2177 2271 2365
8 2072 2173 2274 2178 2177 2273 2366 2277
8 2071 2174 2275 2176 2178 2274 2367 2276
8 2275 2176 2276 2367 2184 2083 2186 2282
8 2283 2187 2084 2186 2368 2278 2179 2276
8 2178 2074 2180 2277 2276 2179 2278 2368
8 2283 2187 2279 2370 2186 2084 2181 2280
8 2281 2182 2082 2185 2371 2280 2186 2282
8 2188 2285 2374 2284 2100 2197 2292 2201
8 2286 2189 2095 2193 2375 2285 2197 2289
8 2192 2097 2196 2287 2288 2199 2291 2376
8 2287 2196 2104 2203 2376 2291 2204 2296
8 2194 2098 2199 2288 2290 2198 2293 2377
8 2289 2197 2096 2195 2378 2292 2198 2290
8 2291 2200 2105 2204 2379 2294 2205 2297
8 2199 2102 2200 2291 2293 2202 2294 2379
8 2198 2101 2202 2293 2292 2201 2295 2380
8 2299 2207 2297 2383 2206 2107 2204 2296
8 2300 2208 2298 2384 2207 2108 2205 2297
8 2302 2210 2300 2386 2209 2110 2207 2299
8 2303 2211 2301 2387 2210 2111 2208 2300
8 2305 2213 2303 2389 2212 2113 2210 2302
8 2306 2214 2304 2390 2213 2114 2211 2303
8 2310 2216 2306 2392 2220 2117 2213 2305
8 2308 2215 2307 2393 2216 2115 2214 2306
8 2308 2215 2115 2216 2396 2309 2217 2311
8 2310 2216 2117 2220 2398 2311 2219 2315
8 2311 2217 2116 2219 2399 2312 2218 2314
8 2314 2218 2118 2222 2402 2313 2221 2317
8 2315 2219 2119 2223 2403 2314 2222 2318
8 2225 2121 2224 2320 2317 2221 2316 2405
8 2226 2122 2225 2321 2318 2222 2317 2406
8 2228 2124 2227 2323 2320 2224 2319 2408
8 2229 2125 2228 2324 2321 2225 2320 2409
8 2231 2127 2230 2326 2323 2227 2322 2411
8 2232 2128 2231 2327 2324 2228 2323 2412
8 2234 2130 2233 2328 2326 2230 2325 2413
8 2235 2131 2234 2329 2327 2231 2326 2414
8 2237 2134 2236 2330 2329 2234 2328 2415
8 2259 2158 2260 2352 2332 2239 2331 2417
8 2257 2157 2259 2350 2334 2240 2332 2419
8 2240 2139 2239 2332 2335 2241 2333 2420
8 2334 2240 2335 2422 2242 2140 2243 2337
8 2335 2241 2336 2423 2243 2141 2244 2338
8 2337 2243 2338 2425 2247 2143 2246 2342
8 2338 2244 2339 2426 2246 2142 2245 2341
8 2341 2245 2340 2428 2249 2145 2248 2343
8 2342 2246 2341 2429 2250 2146 2249 2344
8 2344 2249 2343 2430 2252 2149 2251 2345
8 2188 2285 2347 2254 2284 2374 2432 2346
8 2347 2254 2346 2432 2271 2169 2270 2364
8 2365 2271 2170 2272 2433 2347 2255 2348
8 2286 2189 2285 2375 2348 2255 2347 2433
8 2349 2258 2351 2435 2257 2157 2259 2350
8 2349 2258 2164 2263 2435 2351 2264 2355
8 2259 2158 2261 2351 2352 2260 2354 2437
8 2356 2265 2354 2437 2264 2165 2261 2351
8 2441 2357 2264 2355 2362 2268 2168 2269
8 2356 2265 2165 2264 2442 2358 2266 2357
8 2443 2359 2266 2357 2361 2267 2166 2268
8 2370 2279 2360 2446 2280 2181 2267 2361
8 2362 2268 2182 2281 2447 2361 2280 2371
8 2180 2277 2368 2278 2270 2364 2449 2363
8 2271 2365 2273 2177 2364 2450 2366 2277
8 2372 2283 2186 2282 2451 2368 2276 2367
8 2178 2274 2367 2276 2277 2366 2451 2368
8 2283 2187 2278 2368 2370 2279 2369 2452
8 2372 2283 2370 2453 2282 2186 2280 2371
8 2284 2374 2455 2373 2201 2292 2380 2295
8 2375 2285 2197 2289 2456 2374 2292 2378
8 2376 2291 2204 2296 2457 2379 2297 2383
8 2288 2199 2291 2376 2377 2293 2379 2457
8 2198 2290 2378 2292 2293 2377 2458 2380
8 2293 2202 2294 2379 2380 2295 2381 2459
8 2384 2298 2381 2459 2297 2205 2294 2379
8 2386 2300 2384 2463 2299 2207 2297 2383
8 2387 2301 2385 2464 2300 2208 2298 2384
8 2389 2303 2387 2466 2302 2210 2300 2386
8 2390 2304 2388 2467 2303 2211 2301 2387
8 2392 2306 2390 2469 2305 2213 2303 2389
8 2393 2307 2391 2470 2306 2214 2304 2390
8 2395 2308 2393 2472 2310 2216 2306 2392
8 2308 2215 2309 2396 2393 2307 2394 2473
8 2395 2308 2216 2310 2475 2396 2311 2398
8 2396 2309 2217 2311 2476 2397 2312 2399
8 2398 2311 2219 2315 2478 2399 2314 2403
8 2399 2312 2218 2314 2479 2400 2313 2402
8 2317 2221 2316 2405 2402 2313 2401 2482
8 2403 2314 2222 2318 2483 2402 2317 2406
8 2320 2224 2319 2408 2405 2316 2404 2485
8 2321 2225 2320 2409 2406 2317 2405 2486
8 2323 2227 2322 2411 2408 2319 2407 2488
8 2324 2228 2323 2412 2409 2320 2408 2489
8 2326 2230 2325 2413 2411 2322 2410 2490
8 2327 2231 2326 2414 2412 2323 2411 2491
8 2329 2234 2328 2415 2414 2326 2413 2492
8 2417 2331 2260 2352 2494 2416 2353 2438
8 2350 2259 2352 2436 2419 2332 2417 2496
8 2332 2239 2331 2417 2420 2333 2418 2497
8 2334 2240 2332 2419 2422 2335 2420 2499
8 2420 2333 2421 2500 2335 2241 2336 2423
8 2422 2335 2423 2502 2337 2243 2338 2425
8 2423 2336 2424 2503 2338 2244 2339 2426
8 2425 2338 2426 2505 2342 2246 2341 2429
8 2426 2339 2427 2506 2341 2245 2340 2428
8 2429 2341 2428 2507 2344 2249 2343 2430
8 2432 2346 2284 2374 2509 2431 2373 2455
8 2432 2346 2431 2509 2364 2270 2363 2449
8 2375 2285 2374 2456 2433 2347 2432 2510
8 2347 2433 2365 2271 2432 2510 2450 2364
8 2350 2259 2351 2435 2436 2352 2437 2514
8 2440 2356 2437 2514 2355 2264 2351 2435
8 2352 2260 2354 2437 2438 2353 2439 2516
8 2356 2265 2358 2442 2437 2354 2439 2516
8 2440 2356 2264 2355 2518 2442 2357 2441
8 2519 2443 2357 2441 2447 2361 2268 2362
8 2443 2359 2444 2520 2357 2266 2358 2442
8 2443 2359 2267 2361 2520 2444 2360 2446
8 2446 2360 2279 2370 2523 2445 2369 2452
8 2453 2370 2446 2524 2371 2280 2361 2447
8 2449 2363 2448 2525 2368 2278 2369 2452
8 2366 2277 2364 2450 2451 2368 2449 2526
8 2372 2283 2368 2451 2453 2370 2452 2527
8 2455 2373 2295 2380 2529 2454 2382 2460
8 2456 2374 2292 2378 2530 2455 2380 2458
8 2377 2293 2379 2457 2458 2380 2459 2531
8 2463 2384 2459 2531 2383 2297 2379 2457
8 2533 2461 2382 2460 2459 2381 2295 2380
8 2464 2385 2461 2533 2384 2298 2381 2459
8 2466 2387 2464 2537 2386 2300 2384 2463
8 2467 2388 2465 2538 2387 2301 2385 2464
8 2469 2390 2467 2540 2389 2303 2387 2466
8 2470 2391 2468 2541 2390 2304 2388 2467
8 2472 2393 2470 2543 2392 2306 2390 2469
8 2393 2307 2394 2473 2470 2391 2471 2544
8 2395 2308 2396 2475 2472 2393 2473 2546
8 2396 2309 2397 2476 2473 2394 2474 2547
8 2475 2396 2311 2398 2549 2476 2399 2478
8 2476 2397 2312 2399 2550 2477 2400 2479
8 2478 2399 2314 2403 2552 2479 2402 2483
8 2479 2400 2313 2402 2553 2480 2401 2482
8 2405 2316 2404 2485 2482 2401 2481 2556
8 2406 2317 2405 2486 2483 2402 2482 2557
8 2408 2319 2407 2488 2485 2404 2484 2559
8 2409 2320 2408 2489 2486 2405 2485 2560
8 2411 2322 2410 2490 2488 2407 2487 2561
8 2412 2323 2411 2491 2489 2408 2488 2562
8 2414 2326 2413 2492 2491 2411 2490 2563
8 2513 2434 2493 2565 2438 2353 2416 2494
8 2496 2417 2352 2436 2567 2494 2438 2515
8 2494 2416 2495 2568 2417 2331 2418 2497
8 2419 2332 2417 2496 2499 2420 2497 2570
8 2497 2418 2498 2571 2420 2333 2421 2500
8 2499 2420 2500 2573 2422 2335 2423 2502
8 2500 2421 2501 2574 2423 2336 2424 2503
8 2502 2423 2503 2576 2425 2338 2426 2505
8 2503 2424 2504 2577 2426 2339 2427 2506
8 2505 2426 2506 2578 2429 2341 2428 2507
8 2509 2431 2373 2455 2580 2508 2454 2529
8 2509 2431 2508 2580 2449 2363 2448 2525
8 2432 2510 2581 2509 2374 2456 2530 2455
8 2432 2510 2450 2364 2509 2581 2526 2449
8 2583 2511 2434 2513 2516 2439 2353 2438
8 2436 2352 2437 2514 2515 2438 2516 2588
8 2440 2356 2442 2518 2514 2437 2516 2588
8 2442 2358 2444 2520 2516 2439 2517 2589
8 2519 2443 2520 2591 2441 2357 2442 2518
8 2519 2443 2361 2447 2591 2520 2446 2524
8 2446 2360 2445 2523 2520 2444 2521 2592
8 2525 2448 2522 2593 2452 2369 2445 2523
8 2524 2446 2370 2453 2594 2523 2452 2527
8 2526 2449 2525 2595 2451 2368 2452 2527
8 2534 2462 2528 2597 2460 2382 2454 2529
8 2530 2455 2380 2458 2598 2529 2460 2532
8 2599 2533 2460 2532 2531 2459 2380 2458
8 2537 2464 2533 2599 2463 2384 2459 2531
8 2534 2462 2382 2460 2601 2535 2461 2533
8 2538 2465 2535 2601 2464 2385 2461 2533
8 2540 2467 2538 2604 2466 2387 2464 2537
8 2541 2468 2539 2605 2467 2388 2465 2538
8 2543 2470 2541 2607 2469 2390 2467 2540
8 2470 2391 2471 2544 2541 2468 2542 2608
8 2472 2393 2473 2546 2543 2470 2544 2610
8 2473 2394 2474 2547 2544 2471 2545 2611
8 2475 2396 2476 2549 2546 2473 2547 2613
8 2476 2397 2477 2550 2547 2474 2548 2614
8 2549 2476 2399 2478 2616 2550 2479 2552
8 2479 2400 2480 2553 2550 2477 2551 2617
8 2552 2479 2402 2483 2619 2553 2482 2557
8 2482 2401 2481 2556 2553 2480 2554 2620
8 2485 2404 2484 2559 2556 2481 2555 2623
8 2486 2405 2485 2560 2557 2482 2556 2624
8 2488 2407 2487 2561 2559 2484 2558 2625
8 2489 2408 2488 2562 2560 2485 2559 2626
8 2491 2411 2490 2563 2562 2488 2561 2627
8 2513 2434 2512 2585 2565 2493 2564 2630
8 2586 2513 2565 2632 2515 2438 2494 2567
8 2565 2493 2566 2633 2494 2416 2495 2568
8 2567 2494 2568 2635 2496 2417 2497 2570
8 2568 2495 2569 2636 2497 2418 2498 2571
8 2570 2497 2571 2638 2499 2420 2500 2573
8 2571 2498 2572 2639 2500 2421 2501 2574
8 2573 2500 2574 2641 2502 2423 2503 2576
8 2574 2501 2575 2642 2503 2424 2504 2577
8 2576 2503 2577 2643 2505 2426 2506 2578
8 2597 2528 2579 2645 2529 2454 2508 2580
8 2580 2508 2579 2645 2525 2448 2522 2593
8 2581 2509 2455 2530 2646 2580 2529 2598
8 2581 2509 2580 2646 2526 2449 2525 2595
8 2583 2511 2582 2648 2513 2434 2512 2585
8 2583 2511 2439 2516 2648 2582 2517 2589
8 2649 2583 2513 2586 2588 2516 2438 2515
8 2589 2517 2444 2520 2653 2587 2521 2592
8 2518 2442 2520 2591 2588 2516 2589 2654
8 2593 2522 2590 2655 2523 2445 2521 2592
8 2524 2446 2523 2594 2591 2520 2592 2656
8 2595 2525 2593 2657 2527 2452 2523 2594
8 2602 2536 2596 2659 2534 2462 2528 2597
8 2600 2534 2597 2660 2532 2460 2529 2598
8 2600 2534 2460 2532 2661 2601 2533 2599
8 2604 2538 2601 2661 2537 2464 2533 2599
8 2602 2536 2462 2534 2663 2603 2535 2601
8 2601 2535 2465 2538 2663 2603 2539 2605
8 2607 2541 2605 2665 2540 2467 2538 2604
8 2608 2542 2606 2666 2541 2468 2539 2605
8 2543 2470 2544 2610 2607 2541 2608 2668
8 2544 2471 2545 2611 2608 2542 2609 2669
8 2546 2473 2547 2613 2610 2544 2611 2671
8 2547 2474 2548 2614 2611 2545 2612 2672
8 2549 2476 2550 2616 2613 2547 2614 2674
8 2550 2477 2551 2617 2614 2548 2615 2675
8 2552 2479 2553 2619 2616 2550 2617 2677
8 2553 2480 2554 2620 2617 2551 2618 2678
8 2557 2482 2556 2624 2619 2553 2620 2680
8 2556 2481 2555 2623 2620 2554 2621 2681
8 2559 2484 2558 2625 2623 2555 2622 2683
8 2560 2485 2559 2626 2624 2556 2623 2684
8 2562 2488 2561 2627 2626 2559 2625 2685
8 2690 2629 2564 2630 2650 2584 2512 2585
8 2586 2513 2585 2651 2632 2565 2630 2691
8 2630 2564 2631 2692 2565 2493 2566 2633
8 2632 2565 2633 2694 2567 2494 2568 2635
8 2633 2566 2634 2695 2568 2495 2569 2636
8 2635 2568 2636 2697 2570 2497 2571 2638
8 2636 2569 2637 2698 2571 2498 2572 2639
8 2638 2571 2639 2700 2573 2500 2574 2641
8 2639 2572 2640 2701 2574 2501 2575 2642
8 2641 2574 2642 2702 2576 2503 2577 2643
8 2597 2528 2596 2659 2645 2579 2644 2704
8 2645 2579 2644 2704 2593 2522 2590 2655
8 2660 2597 2645 2705 2598 2529 2580 2646
8 2646 2580 2645 2705 2595 2525 2593 2657
8 2650 2584 2512 2585 2707 2647 2582 2648
8 2648 2582 2517 2589 2707 2647 2587 2653
8 2649 2583 2648 2708 2586 2513 2585 2651
8 2649 2583 2516 2588 2708 2648 2589 2654
8 2655 2590 2652 2710 2592 2521 2587 2653
8 2654 2589 2520 2591 2711 2653 2592 2656
8 2657 2593 2655 2712 2594 2523 2592 2656
8 2602 2536 2603 2663 2659 2596 2658 2714
8 2662 2602 2659 2715 2600 2534 2597 2660
8 2662 2602 2534 2600 2717 2663 2601 2661
8 2661 2601 2538 2604 2717 2663 2605 2665
8 2666 2606 2664 2718 2605 2539 2603 2663
8 2668 2608 2666 2720 2607 2541 2605 2665
8 2608 2542 2609 2669 2666 2606 2667 2721
8 2610 2544 2611 2671 2668 2608 2669 2723
8 2611 2545 2612 2672 2669 2609 2670 2724
8 2613 2547 2614 2674 2671 2611 2672 2726
8 2614 2548 2615 2675 2672 2612 2673 2727
8 2616 2550 2617 2677 2674 2614 2675 2729
8 2617 2551 2618 2678 2675 2615 2676 2730
8 2619 2553 2620 2680 2677 2617 2678 2732
8 2620 2554 2621 2681 2678 2618 2679 2733
8 2624 2556 2623 2684 2680 2620 2681 2735
8 2681 2621 2555 2623 2736 2682 2622 2683
8 2626 2559 2625 2685 2684 2623 2683 2737
8 2688 2628 2584 2650 2740 2686 2647 2707
8 2688 2628 2687 2742 2650 2584 2629 2690
8 2690 2629 2689 2745 2630 2564 2631 2692
8 2746 2690 2630 2691 2709 2650 2585 2651
8 2691 2630 2692 2747 2632 2565 2633 2694
8 2692 2631 2693 2748 2633 2566 2634 2695
8 2694 2633 2695 2750 2635 2568 2636 2697
8 2695 2634 2696 2751 2636 2569 2637 2698
8 2697 2636 2698 2753 2638 2571 2639 2700
8 2698 2637 2699 2754 2639 2572 2640 2701
8 2700 2639 2701 2755 2641 2574 2642 2702
8 2659 2596 2658 2714 2704 2644 2703 2757
8 2704 2644 2703 2757 2655 2590 2652 2710
8 2660 2597 2659 2715 2705 2645 2704 2758
8 2705 2645 2704 2758 2657 2593 2655 2712
8 2759 2706 2647 2707 2710 2652 2587 2653
8 2709 2650 2585 2651 2760 2707 2648 2708
8 2708 2648 2589 2654 2760 2707 2653 2711
8 2712 2655 2710 2761 2656 2592 2653 2711
8 2763 2713 2658 2714 2718 2664 2603 2663
8 2662 2602 2663 2717 2715 2659 2714 2764
8 2720 2666 2718 2767 2665 2605 2663 2717
8 2768 2719 2664 2718 2721 2667 2606 2666
8 2668 2608 2669 2723 2720 2666 2721 2770
8 2669 2609 2670 2724 2721 2667 2722 2771
8 2671 2611 2672 2726 2723 2669 2724 2773
8 2672 2612 2673 2727 2724 2670 2725 2774
8 2674 2614 2675 2729 2726 2672 2727 2776
8 2675 2615 2676 2730 2727 2673 2728 2777
8 2677 2617 2678 2732 2729 2675 2730 2779
8 2678 2618 2679 2733 2730 2676 2731 2780
8 2680 2620 2681 2735 2732 2678 2733 2782
8 2733 2679 2621 2681 2783 2734 2682 2736
8 2735 2681 2623 2684 2784 2736 2683 2737
8 2740 2686 2647 2707 2787 2738 2706 2759
8 2688 2628 2686 2740 2742 2687 2739 2789
8 2743 2688 2650 2709 2790 2740 2707 2760
8 2742 2687 2741 2792 2690 2629 2689 2745
8 2743 2688 2742 2793 2709 2650 2690 2746
8 2745 2689 2744 2795 2692 2631 2693 2748
8 2746 2690 2745 2796 2691 2630 2692 2747
8 2747 2692 2748 2797 2694 2633 2695 2750
8 2748 2693 2749 2798 2695 2634 2696 2751
8 2750 2695 2751 2800 2697 2636 2698 2753
8 2751 2696 2752 2801 2698 2637 2699 2754
8 2753 2698 2754 2802 2700 2639 2701 2755
8 2763 2713 2756 2804 2714 2658 2703 2757
8 2759 2706 2652 2710 2804 2756 2703 2757
8 2715 2659 2714 2764 2758 2704 2757 2805
8 2758 2704 2757 2805 2712 2655 2710 2761
8 2806 2759 2707 2760 2761 2710 2653 2711
8 2765 2716 2762 2808 2718 2664 2713 2763
8 2809 2763 2714 2764 2767 2718 2663 2717
8 2765 2716 2664 2718 2811 2766 2719 2768
8 2813 2768 2718 2767 2770 2721 2666 2720
8 2814 2769 2719 2768 2771 2722 2667 2721
8 2723 2669 2724 2773 2770 2721 2771 2816
8 2724 2670 2725 2774 2771 2722 2772 2817
8 2726 2672 2727 2776 2773 2724 2774 2819
8 2727 2673 2728 2777 2774 2725 2775 2820
8 2729 2675 2730 2779 2776 2727 2777 2822
8 2730 2676 2731 2780 2777 2728 2778 2823
8 2732 2678 2733 2782 2779 2730 2780 2825
8 2780 2731 2679 2733 2826 2781 2734 2783
8 2782 2733 2681 2735 2827 2783 2736 2784
8 2830 2785 2738 2787 2804 2756 2706 2759
8 2789 2739 2686 2740 2832 2786 2738 2787
8 2790 2740 2707 2760 2833 2787 2759 2806
8 2742 2687 2739 2789 2792 2741 2788 2835
8 2743 2688 2740 2790 2793 2742 2789 2836
8 2792 2741 2791 2838 2745 2689 2744 2795
8 2793 2742 2792 2839 2746 2690 2745 2796
8 2795 2744 2794 2841 2748 2693 2749 2798
8 2796 2745 2795 2842 2747 2692 2748 2797
8 2797 2748 2798 2843 2750 2695 2751 2800
8 2798 2749 2799 2844 2751 2696 2752 2801
8 2800 2751 2801 2845 2753 2698 2754 2802
8 2808 2762 2803 2847 2763 2713 2756 2804
8 2809 2763 2804 2848 2764 2714 2757 2805
8 2806 2759 2710 2761 2848 2804 2757 2805
8 2765 2716 2766 2811 2808 2762 2807 2850
8 2810 2765 2808 2851 2767 2718 2763 2809
8 2810 2765 2718 2767 2852 2811 2768 2813
8 2811 2766 2719 2768 2853 2812 2769 2814
8 2855 2814 2768 2813 2816 2771 2721 2770
8 2856 2815 2769 2814 2817 2772 2722 2771
8 2773 2724 2774 2819 2816 2771 2817 2858
8 2774 2725 2775 2820 2817 2772 2818 2859
8 2776 2727 2777 2822 2819 2774 2820 2861
8 2777 2728 2778 2823 2820 2775 2821 2862
8 2779 2730 2780 2825 2822 2777 2823 2864
8 2823 2778 2731 2780 2865 2824 2781 2826
8 2825 2780 2733 2782 2866 2826 2783 2827
8 2869 2828 2785 2830 2847 2803 2756 2804
8 2871 2829 2786 2832 2830 2785 2738 2787
8 2872 2830 2787 2833 2848 2804 2759 2806
8 2789 2739 2786 2832 2835 2788 2831 2874
8 2836 2789 2740 2790 2875 2832 2787 2833
8 2792 2741 2788 2835 2838 2791 2834 2877
8 2793 2742 2789 2836 2839 2792 2835 2878
8 2838 2791 2837 2880 2795 2744 2794 2841
8 2839 2792 2838 2881 2796 2745 2795 2842
8 2841 2794 2840 2882 2798 2749 2799 2844
8 2842 2795 2841 2883 2797 2748 2798 2843
8 2843 2798 2844 2884 2800 2751 2801 2845
8 2886 2846 2803 2847 2850 2807 2762 2808
8 2851 2808 2847 2887 2809 2763 2804 2848
8 2850 2807 2766 2811 2889 2849 2812 2853
8 2810 2765 2811 2852 2851 2808 2850 2890
8 2852 2811 2768 2813 2891 2853 2814 2855
8 2853 2812 2769 2814 2892 2854 2815 2856
8 2894 2856 2814 2855 2858 2817 2771 2816
8 2817 2772 2818 2859 2856 2815 2857 2895
8 2819 2774 2820 2861 2858 2817 2859 2897
8 2820 2775 2821 2862 2859 2818 2860 2898
8 2822 2777 2823 2864 2861 2820 2862 2900
8 2823 2778 2824 2865 2862 2821 2863 2901
8 2864 2823 2780 2825 2902 2865 2826 2866
8 2904 2867 2828 2869 2886 2846 2803 2847
8 2869 2828 2868 2906 2830 2785 2829 2871
8 2907 2869 2830 2872 2887 2847 2804 2848
8 2871 2829 2870 2909 2832 2786 2831 2874
8 2910 2871 2832 2875 2872 2830 2787 2833
8 2835 2788 2831 2874 2877 2834 2873 2912
8 2836 2789 2832 2875 2878 2835 2874 2913
8 2877 2834 2876 2915 2838 2791 2837 2880
8 2839 2792 2835 2878 2881 2838 2877 2916
8 2880 2837 2879 2917 2841 2794 2840 2882
8 2881 2838 2880 2918 2842 2795 2841 2883
8 2883 2841 2882 2919 2843 2798 2844 2884
8 2921 2885 2846 2886 2889 2849 2807 2850
8 2922 2886 2847 2887 2890 2850 2808 2851
8 2889 2849 2812 2853 2924 2888 2854 2892
8 2890 2850 2811 2852 2925 2889 2853 2891
8 2891 2853 2814 2855 2926 2892 2856 2894
8 2892 2854 2815 2856 2927 2893 2857 2895
8 2858 2817 2859 2897 2894 2856 2895 2929
8 2859 2818 2860 2898 2895 2857 2896 2930
8 2861 2820 2862 2900 2897 2859 2898 2932
8 2862 2821 2863 2901 2898 2860 2899 2933
8 2864 2823 2865 2902 2900 2862 2901 2934
8 2904 2867 2846 2886 2936 2903 2885 2921
8 2904 2867 2903 2936 2869 2828 2868 2906
8 2937 2904 2869 2907 2922 2886 2847 2887
8 2906 2868 2905 2939 2871 2829 2870 2909
8 2907 2869 2906 2940 2872 2830 2871 2910
8 2909 2870 2908 2942 2874 2831 2873 2912
8 2910 2871 2909 2943 2875 2832 2874 2913
8 2912 2873 2911 2945 2877 2834 2876 2915
8 2878 2835 2874 2913 2916 2877 2912 2946
8 2915 2876 2914 2947 2880 2837 2879 2917
8 2916 2877 2915 2948 2881 2838 2880 2918
8 2918 2880 2917 2949 2883 2841 2882 2919
8 2921 2885 2849 2889 2951 2920 2888 2924
8 2952 2921 2886 2922 2925 2889 2850 2890
8 2924 2888 2854 2892 2954 2923 2893 2927
8 2925 2889 2853 2891 2955 2924 2892 2926
8 2926 2892 2856 2894 2956 2927 2895 2929
8 2895 2857 2896 2930 2927 2893 2928 2957
8 2897 2859 2898 2932 2929 2895 2930 2959
8 2898 2860 2899 2933 2930 2896 2931 2960
8 2900 2862 2901 2934 2932 2898 2933 2961
8 2936 2903 2885 2921 2963 2935 2920 2951
8 2936 2903 2935 2963 2906 2868 2905 2939
8 2937 2904 2886 2922 2964 2936 2921 2952
8 2937 2904 2936 2964 2907 2869 2906 2940
8 2939 2905 2938 2966 2909 2870 2908 2942
8 2940 2906 2939 2967 2910 2871 2909 2943
8 2942 2908 2941 2969 2912 2873 2911 2945
8 2943 2909 2942 2970 2913 2874 2912 2946
8 2945 2911 2944 2971 2915 2876 2914 2947
8 2946 2912 2945 2972 2916 2877 2915 2948
8 2948 2915 2947 2973 2918 2880 2917 2949
8 2951 2920 2888 2924 2975 2950 2923 2954
8 2952 2921 2889 2925 2976 2951 2924 2955
8 2927 2893 2928 2957 2954 2923 2953 2978
8 2955 2924 2892 2926 2979 2954 2927 2956
8 2929 2895 2930 2959 2956 2927 2957 2980
8 2930 2896 2931 2960 2957 2928 2958 2981
8 2932 2898 2933 2961 2959 2930 2960 2982
8 2951 2920 2950 2975 2963 2935 2962 2984
8 2963 2935 2962 2984 2939 2905 2938 2966
8 2964 2936 2921 2952 2985 2963 2951 2976
8 2964 2936 2963 2985 2940 2906 2939 2967
8 2966 2938 2965 2987 2942 2908 2941 2969
8 2967 2939 2966 2988 2943 2909 2942 2970
8 2969 2941 2968 2989 2945 2911 2944 2971
8 2970 2942 2969 2990 2946 2912 2945 2972
8 2972 2945 2971 2991 2948 2915 2947 2973
8 2954 2923 2953 2978 2975 2950 2974 2993
8 2976 2951 2924 2955 2994 2975 2954 2979
8 2957 2928 2958 2981 2978 2953 2977 2995
8 2956 2927 2957 2980 2979 2954 2978 2996
8 2959 2930 2960 2982 2980 2957 2981 2997
8 2984 2962 2983 2999 2966 2938 2965 2987
8 2975 2950 2974 2993 2984 2962 2983 2999
8 2976 2951 2975 2994 2985 2963 2984 3000
8 2985 2963 2984 3000 2967 2939 2966 2988
8 2987 2965 2986 3001 2969 2941 2968 2989
8 2988 2966 2987 3002 2970 2942 2969 2990
8 2990 2969 2989 3003 2972 2945 2971 2991
8 2978 2953 2977 2995 2993 2974 2992 3004
8 2979 2954 2978 2996 2994 2975 2993 3005
8 2980 2957 2981 2997 2996 2978 2995 3006
8 2974 2993 2999 2983 2992 3004 3007 2998
8 2983 2999 2987 2965 2998 3007 3001 2986
8 3000 2984 2999 3008 2988 2966 2987 3002
8 2994 2975 2993 3005 3000 2984 2999 3008
8 3002 2987 3001 3009 2990 2969 2989 3003
8 2996 2978 2995 3006 3005 2993 3004 3010
8 3005 2993 3004 3010 3008 2999 3007 3011
8 3008 2999 3007 3011 3002 2987 3001 3009

CELL_TYPES 1910
12
12
12
12
12
12
12
12
12
12
12
12
12
12
12
12
12
12
12
12
12
12
12
12
12
12
12
12
12
12
12
12
12
12
12
12
12
12
12
12
12
12
12
12
12
12
12
12
12
12
12
12
12
12
12
12
12
12
12
12
12
12
12
12
12
12
12
12
12
12
12
12
12
12
12
12
12
12
12
12
12
12
12
12
12
12
12
12
12
12
12
12
12
12
12
12
12
12
12
12
12
12
12
12
12
12
12
12
12
12
12
12
12
12
12
12
12
12
12
12
12
12
12
12
12
12
12
12
12
12
12
12
12
12
12
12
12
12
12
12
12
12
12
12
12
12
12
12
12
12
12
12
12
12
12
12
12
12
12
12
12
12
12
12
12
12
12
12
12
12
12
12
12
12
12
12
12
12
12
12
12
12
12
12
12
12
12
12
12
12
12
12
12
12
12
12
12
12
12
12
12
12
12
12
12
12
12
12
12
12
12
12
12
12
12
12
12
12
12
12
12
12
12
12
12
12
12
12
12
12
12
12
12
12
12
12
12
12
12
12
12
12
12
12
12
12
12
12
12
12
12
12
12
12
12
12
12
12
12
12
12
12
12
12
12
12
12
12
12
12
12
12
12
12
12
12
12
12
12
12
12
12
12
12
12
12
12
12
12
12
12
12
12
12
12
12
12
12
12
12
12
12
12
12
12
12
12
12
12
12
12
12
12
12
12
12
12
12
12
12
12
12
12
12
12
12
12
12
12
12
12
12
12
12
12
12
12
12
12
12
12
12
12
12
12
12
12
12
12
12
12
12
12
12
12
12
12
12
12
12
12
12
12
12
12
12
12
12
12
12
12
12
12
12
12
12
12
12
12
12
12
12
12
12
12
12
12
12
12
12
12
12
12
12
12
12
12
12
12
12
12
12
12
12
12
12
12
12
12
12
12
12
12
12
12
12
12
12
12
12
12
12
12
12
12
12
12
12
12
12
12
12
12
12
12
12
12
12
12
12
12
12
12
12
12
12
12
12
12
12
12
12
12
12
12
12
12
12
12
12
12
12
12
12
12
12
12
12
12
12
12
12
12
12
12
12
12
12
12
12
12
12
12
12
12
12
12
12
12
12
12
12
12
12
12
12
12
12
12
12
12
12
12
12
12
12
12
12
12
12
12
12
12
12
12
12
12
12
12
12
12
12
12
12
12
12
12
12
12
12
12
12
12
12
12
12
12
12
12
12
12
12
12
12
12
12
12
12
12
12
12
12
12
12
12
12
12
12
12
12
12
12
12
12
12
12
12
12
12
12
12
12
12
12
12
12
12
12
12
12
12
12
12
12
12
12
12
12
12
12
12
12
12
12
12
12
12
12
12
12
12
12
12
12
12
12
12
12
12
12
12
12
12
12
12
12
12
12
12
12
12
12
12
12
12
12
12
12
12
12
12
12
12
12
12
12
12
12
12
12
12
12
12
12
12
12
12
12
12
12
12
12
12
12
12
12
12
12
12
12
12
12
12
12
12
12
12
12
12
12
12
12
12
12
12
12
12
12
12
12
12
12
12
12
12
12
12
12
12
12
12
12
12
12
12
12
12
12
12
12
12
12
12
12
12
12
12
12
12
12
12
12
12
12
12
12
12
12
12
12
12
12
12
12
12
12
12
12
12
12
12
12
12
12
12
12
12
12
12
12
12
12
12
12
12
12
12
12
12
12
12
12
12
12
12
12
12
12
12
12
12
12
12
12
12
12
12
12
12
12
12
12
12
12
12
12
12
12
12
12
12
12
12
12
12
12
12
12
12
12
12
12
12
12
12
12
12
12
12
12
12
12
12
12
12
12
12
12
12
12
12
12
12
12
12
12
12
12
12
12
12
12
12
12
12
12
12
12
12
12
12
12
12
12
12
12
12
12
12
12
12
12
12
12
12
12
12
12
12
12
12
12
12
12
12
12
12
12
12
12
12
12
12
12
12
12
12
12
12
12
12
12
12
12
12
12
12
12
12
12
12
12
12
12
12
12
12
12
12
12
12
12
12
12
12
12
12
12
12
12
12
12
12
12
12
12
12
12
12
12
12
12
12
12
12
12
12
12
12
12
12
12
12
12
12
12
12
12
12
12
12
12
12
12
12
12
12
12
12
12
12
12
12
12
12
12
12
12
12
12
12
12
12
12
12
12
12
12
12
12
12
12
12
12
12
12
12
12
12
12
12
12
12
12
12
12
12
12
12
12
12
12
12
12
12
12
12
12
12
12
12
12
12
12
12
12
12
12
12
12
12
12
12
12
12
12
12
12
12
12
12
12
12
12
12
12
12
12
12
12
12
12
12
12
12
12
12
12
12
12
12
12
12
12
12
12
12
12
12
12
12
12
12
12
12
12
12
12
12
12
12
12
12
12
12
12
12
12
12
12
12
12
12
12
12
12
12
12
12
12
12
12
12
12
12
12
12
12
12
12
12
12
12
12
12
12
12
12
12
12
12
12
12
12
12
12
12
12
12
12
12
12
12
12
12
12
12
12
12
12
12
12
12
12
12
12
12
12
12
12
12
12
12
12
12
12
12
12
12
12
12
12
12
12
12
12
12
12
12
12
12
12
12
12
12
12
12
12
12
12
12
12
12
12
12
12
12
12
12
12
12
12
12
12
12
12
12
12
12
12
12
12
12
12
12
12
12
12
12
12
12
12
12
12
12
12
12
12
12
12
12
12
12
12
12
12
12
12
12
12
12
12
12
12
12
12
12
12
12
12
12
12
12
12
12
12
12
12
12
12
12
12
12
12
12
12
12
12
12
12
12
12
12
12
12
12
12
12
12
12
12
12
12
12
12
12
12
12
12
12
12
12
12
12
12
12
12
12
12
12
12
12
12
12
12
12
12
12
12
12
12
12
12
12
12
12
12
12
12
12
12
12
12
12
12
12
12
12
12
12
12
12
12
12
12
12
12
12
12
12
12
12
12
12
12
12
12
12
12
12
12
12
12
12
12
12
12
12
12
12
12
12
12
12
12
12
12
12
12
12
12
12
12
12
12
12
12
12
12
12
12
12
12
12
12
12
12
12
12
12
12
12
12
12
12
12
12
12
12
12
12
12
12
12
12
12
12
12
12
12
12
12
12
12
12
12
12
12
12
12
12
12
12
12
12
12
12
12
12
12
12
12
12
12
12
12
12
12
12
12
12
12
12
12
12
12
12
12
12
12
12
12
12
12
12
12
12
12
12
12
12
12
12
12
12
12
12
12
12
12
12
12
12
12
12
12
12
12
12
12
12
12
12
12
12
12
12
12
12
12
12
12
12
12
12
12
12
12
12
12
12
12
12
12
12
12
12
12
12
12
12
12
12
12
12
12
12
12
12
12
12
12
12
12
12
12
12
12
12
12
12
12
12
12
12
12
12
12
12
12
12
12
12
12
12
12
12
12
12
12
12
12
12
12
12
12
12
12
12
12
12
12
12
12
12
12
12
12
12
12
12
12
12
12
12
12
12
12
12
12
12
12
12
12
12
12
12
12
12
12
12
12
12
12
12
12
12
12
12
12
12
12
12
12
12
12
12
12
12
12
12
12
12
12
12
12
12
12
12
12
12
12
12
12
12
12
12
12
12
12
12
12
12
12
12
12
12
12
12
12
12
12
12
12
12
12
12
12
12
12
12
12
12
12
12
12
12
12
12
12
12
12
12
12
12
12
12
12
12
12
12
12
12
12
12
12
12
12
12
12
12
12
12
12
12
12
12
12
12
12
12
12
12
12
12
12
12
12
12
12
12
12
12
12
12
12
12
12
12
12
12
12
12
12
12
12
12
12
12
12
12
12
12
12
12
12
12
12
12
12
12
12
12
12
12
12
12
12
12
12
12
12
12
12
12
12
12
12
12
12
12
12
12
12
12
12
12
12
12
12
12
12
12
12
12
12
12
12
12
12
12
12
12
12
12
12
12
12
12
12
12
12
12
12
12
12
12
12
12
12
12
12
12
12
12
12
12
12
12
12
12
12
12
12
12
12
12
12
12
12
12
12
12
12
12
12
12
12
12
12
12
12
12
12
12
12
12
12
12
12
12
12
12
12
12
12
12
12
12
12
12
12
12
12
12
12
12
12
12
12
12
12
12
12
12
12
12
12
12
12
12
12
12
12
12
12
12
12
12
12
12
12
12
12
12
12
12
12
12
12
12
12
12
12
12
12
12
12
12
12
12
12
12
12
12
12
12
12
12
12
12
12
12
12
12
12
12
12
12
12
12
12
12
12
12
12
12
12
12
12
12
12
12
12
12
12
12
12
12
12
12
12
12
12
12
12
12
12
12
12
12
12
12
12
12
12
12
12
12
12

POINT_DATA 3012
SCALARS Jp_lamdaP float 4
LOOKUP_TABLE default
0.999942 1 1 0.999942
1 1 1 1
0.999945 1 1 0.999945
0.999913 1 1 0.999913
0.999939 1 1 0.999939
0.999948 1 1 0.999948
0.999608 1 1 0.999608
1 1 1 1
1 1 1 1
1 1 1 1
0.999994 1 1 0.999994
0.999776 1 1 0.999776
0.999873 1 1 0.999873
0.999905 1 1 0.999905
0.999945 1 1 0.999945
0.999921 1 1 0.999921
0.999952 1 1 0.999952
0.999944 1 1 0.999944
0.999611 1 1 0.999611
1 1 1 1
0.9999 1 1 0.9999
0.999928 1 1 0.999928
0.99949 1 1 0.99949
0.999574 1 1 0.999574
0.99997 1 1 0.99997
0.999655 1 1 0.999655
0.999066 1 1 0.999066
1 1 1 1
0.999962 1 1 0.999962
0.999975 1 1 0.999975
1 1 1 1
0.999784 1 1 0.999784
0.99992 1 1 0.99992
0.999941 1 1 0.999941
0.999658 1 1 0.999658
1 1 1 1
0.999748 1 1 0.999748
0.999843 1 1 0.999843
0.999161 1 1 0.999161
1 1 1 1
1 1 1 1
0.999951 1 1 0.999951
1 1 1 1
0.999894 1 1 0.999894
0.999433 1 1 0.999433
1 1 1 1
0.999582 1 1 0.999582
0.999928 1 1 0.999928
0.999946 1 1 0.999946
0.999955 1 1 0.999955
0.999615 1 1 0.999615
0.999936 1 1 0.999936
0.999909 1 1 0.999909
0.999975 1 1 0.999975
0.999935 1 1 0.999935
0.999492 1 1 0.999492
0.999659 1 1 0.999659
0.999577 1 1 0.999577
0.999051 1 1 0.999051
1 1 1 1
0.999885 1 1 0.999885
0.999533 1 1 0.999533
0.999462 1 1 0.999462
0.999531 1 1 0.999531
0.998785 1 1 0.998785
0.99892 1 1 0.99892
0.999993 1 1 0.999993
0.999757 1 1 0.999757
0.999179 1 1 0.999179
0.998521 1 1 0.998521
1 1 1 1
1 1 1 1
1 1 1 1
0.999792 1 1 0.999792
1 1 1 1
1 1 1 1
0.999625 1 1 0.999625
1 1 1 1
0.999732 1 1 0.999732
0.999863 1 1 0.999863
0.999159 1 1 0.999159
1 1 1 1
0.999994 1 1 0.999994
0.999577 1 1 0.999577
0.999663 1 1 0.999663
0.998782 1 1 0.998782
0.999921 1 1 0.999921
0.999069 1 1 0.999069
0.99926 1 1 0.99926
0.998776 1 1 0.998776
1 1 1 1
1 1 1 1
1 1 1 1
1 1 1 1
1 1 1 1
0.999943 1 1 0.999943
0.999482 1 1 0.999482
0.999955 1 1 0.999955
0.999562 1 1 0.999562
1 1 1 1
0.999405 1 1 0.999405
0.99955 1 1 0.99955
0.998467 1 1 0.998467
0.999608 1 1 0.999608
0.998573 1 1 0.998573
0.999886 1 1 0.999886
0.999916 1 1 0.999916
0.999981 1 1 0.999981
0.99994 1 1 0.99994
0.999493 1 1 0.999493
0.999581 1 1 0.999581
0.999664 1 1 0.999664
0.999037 1 1 0.999037
1 1 1 1
0.999895 1 1 0.999895
0.999429 1 1 0.999429
0.999463 1 1 0.999463
0.999997 1 1 0.999997
0.999793 1 1 0.999793
0.999533 1 1 0.999533
0.998753 1 1 0.998753
0.99916 1 1 0.99916
0.998942 1 1 0.998942
0.998527 1 1 0.998523
0.999423 1 1 0.999423
0.999436 1 1 0.999436
0.998578 1 1 0.998578
0.998685 1 1 0.998685
0.998809 1 1 0.998809
0.999311 1.00103 1 0.998281
1 1 1 1
0.998525 1.00008 1 0.998443
0.999907 1 1 0.999907
0.999247 1 1 0.999247
0.998603 1 1 0.998603
0.999744 1.00144 1 0.998306
0.999971 1 1 0.999971
0.999556 1 1 0.999556
1 1 1 1
1 1 1 1
0.999632 1 1 0.999632
1 1 1 1
0.999877 1 1 0.999877
0.999736 1 1 0.999736
0.999157 1 1 0.999157
1 1 1 1
0.999997 1 1 0.999997
0.999606 1 1 0.999606
0.999692 1 1 0.999692
0.998785 1 1 0.998785
0.999937 1 1 0.999937
0.999071 1 1 0.999071
0.999259 1 1 0.999259
0.998762 1 1 0.998762
0.999971 1 1 0.999971
1 1 1 1
0.999659 1 1 0.999659
0.998676 1 1 0.998676
0.998931 1 1 0.998931
0.999554 1.00122 1 0.998339
0.999387 1 1 0.999387
0.998666 1 1 0.998666
0.999047 1 1.00019 0.998852
0.998631 1 1 0.998631
1 1 1 1
1 1 1 1
1 1 1 1
0.999988 1 1 0.999988
1 1 1 1
1 1 1 1
1 1 1 1
0.999538 1 1 0.999538
0.999453 1 1 0.999453
1 1 1 1
1 1 1 1
0.999407 1 1 0.999407
0.99953 1 1 0.99953
0.998467 1 1 0.998467
0.999561 1 1 0.999561
0.998573 1 1 0.998573
0.999394 1 1 0.999394
0.998407 1 1 0.998407
0.99853 1 1 0.99853
1.0018 1.00375 1 0.998065
0.998613 1 1 0.998613
1.00086 1.00269 1 0.998169
1 1 1 1
0.999904 1 1 0.999904
0.999319 1 1 0.999319
0.999463 1 1 0.999463
1 1 1 1
0.999829 1 1 0.999829
0.999537 1 1 0.999537
0.998721 1 1 0.998721
0.998964 1 1 0.998964
0.99914 1 1 0.99914
0.998533 1.00001 1 0.998526
0.999421 1 1 0.999421
0.999436 1 1 0.999436
0.998513 1 1 0.998513
0.998709 1 1 0.998709
1 1 1 1
0.999895 1 1 0.999895
0.999275 1 1 0.999275
0.998809 1 1 0.998809
0.999337 1.00109 1 0.998246
0.998598 1 1 0.998598
0.998607 1.00014 1 0.998464
0.9998 1.00149 1 0.99831
0.999964 1 1 0.999964
0.999556 1 1 0.999556
0.998422 1 1 0.998422
0.998639 1 1 0.998639
1.00081 1.00266 1 0.998148
0.999545 1.00139 1 0.998162
0.998726 1.00035 1 0.998374
1.00352 1.00541 1 0.998121
0.999946 1 1 0.999946
1.00033 1.00209 1 0.998252
0.999345 1 1 0.999345
0.998756 1 1 0.998756
0.999432 1.00105 1 0.998381
1.00271 1.00446 1 0.998254
0.999458 1 1 0.999458
0.999676 1 1 0.999676
0.999145 1 1 0.999145
0.999591 1 1 0.999591
1 1 1 1
0.999999 1 1 0.999999
0.999687 1 1 0.999687
0.998787 1 1 0.998787
0.999951 1 1 0.999951
0.999259 1 1 0.999259
0.999074 1 1 0.999074
0.998748 1 1 0.998748
0.999979 1 1 0.999979
1 1 1 1
0.999661 1 1 0.999661
0.998676 1 1 0.998676
0.998935 1 1 0.998935
0.999245 1.00091 1 0.998338
0.999388 1 1 0.999388
0.998676 1 1 0.998676
0.998908 1 1.00006 0.99885
0.99862 1 1 0.99862
1 1 1 1
0.999515 1 1 0.999515
0.999797 1 1 0.999797
0.999254 1 1 0.999254
1.0005 1.00226 1 0.998242
0.998803 1.00029 1 0.99851
1.00329 1.00516 1 0.998136
0.999114 1 1.00012 0.998997
0.999507 1.001 1 0.998512
0.999771 1 1.00117 0.998601
0.998844 1.00034 1 0.998505
0.999944 1 1 0.999944
1 1 1 1
1 1 1 1
1 1 1 1
1 1 1 1
0.999996 1 1 0.999996
1 1 1 1
0.999983 1 1 0.999983
1 1 1 1
0.999563 1 1 0.999563
0.999502 1 1 0.999502
0.998573 1 1 0.998573
0.998467 1 1 0.998467
0.999409 1 1 0.999409
1 1 1 1
0.999393 1 1 0.999393
0.998407 1 1 0.998407
0.99853 1 1 0.99853
1.00164 1.00359 1 0.998064
0.998613 1 1 0.998613
1.00092 1.00275 1 0.998169
0.998394 1 1 0.998394
1.00201 1.00401 1 0.998007
1.00125 1.00313 1 0.998124
1.00981 1.01184 1 0.997993
1.00092 1.00272 1 0.9982
1.00759 1.00954 1 0.998065
0.999417 1 1 0.999417
0.999436 1 1 0.999436
0.998448 1 1 0.998448
0.998733 1 1 0.998733
1 1 1 1
0.999882 1 1 0.999882
0.999303 1 1 0.999303
0.99881 1 1 0.99881
0.999358 1.00115 1 0.99821
0.998688 1.0002 1 0.998485
0.998592 1 1 0.998592
0.999888 1.00158 1 0.998313
0.999958 1 1 0.999958
0.999556 1 1 0.999556
0.998402 1 1 0.998402
0.998638 1 1 0.998638
1.001 1.00287 1 0.998136
0.999722 1.00153 1 0.998198
0.999937 1 1 0.999937
0.999343 1 1 0.999343
0.998787 1 1 0.998787
0.998806 1.00043 1 0.998375
1.00386 1.00575 1 0.998117
0.999429 1.00108 1 0.998351
1.00065 1.0024 1 0.998253
1.00294 1.00469 1 0.998254
0.99946 1 1 0.99946
0.999143 1 1 0.999143
0.999674 1 1 0.999674
1.00142 1.00334 1 0.998085
1.00082 1.00265 1 0.998171
1.00877 1.0108 1 0.99799
1.00531 1.00727 1 0.998049
1.00185 1.00367 1 0.998188
1.0095 1.01136 1 0.998156
0.999405 1 1 0.999405
1.00492 1.0067 1 0.99823
0.998986 1 1 0.998986
0.998794 1.00034 1 0.998454
1.001 1.00279 1 0.998213
1.00695 1.00864 1 0.998328
0.99977 1 1 0.99977
0.999126 1 1 0.999126
0.999202 1 1 0.999202
0.998999 1 1 0.998999
0.998677 1 1 0.998677
1 1 1 1
0.999988 1 1 0.999988
0.999662 1 1 0.999662
0.99894 1 1 0.99894
0.998985 1.00065 1 0.998337
0.999389 1 1 0.999389
0.998847 1 1 0.998847
0.998686 1 1 0.998686
0.998609 1 1 0.998609
1 1 1 1
0.999515 1 1 0.999515
0.999801 1 1 0.999801
0.999251 1 1 0.999251
1.0002 1.00196 1 0.99824
0.998739 1.00023 1 0.998512
1.00311 1.00498 1 0.998135
0.999097 1 1.0001 0.999
0.999154 1.00063 1 0.998525
0.999751 1 1.00116 0.998591
0.998723 1.00015 1 0.998571
1 1 1 1
0.999878 1 1 0.999878
0.999134 1 1 0.999134
0.999389 1 1 0.999389
0.999066 1 1.00004 0.999027
1.00474 1.00667 1 0.998077
1.00139 1.00309 1 0.998313
1.00606 1.00798 1 0.99809
1.00024 1 1.00153 0.998709
0.999468 1.00103 1 0.998437
0.999324 1.00011 1.00086 0.998352
0.999933 1 1 0.999933
0.999662 1 1 0.999662
0.999952 1 1 0.999952
0.999947 1 1 0.999947
1 1 1 1
1 1 1 1
1 1 1 1
1 1 1 1
1 1 1 1
1 1 1 1
1 1 1 1
0.999994 1 1 0.999994
1 1 1 1
0.999979 1 1 0.999979
1 1 1 1
0.998613 1 1 0.998613
0.99853 1 1 0.99853
1.00097 1.00281 1 0.998168
1.00147 1.00342 1 0.998063
0.998408 1 1 0.998408
0.999392 1 1 0.999392
0.998394 1 1 0.998394
1.00198 1.00398 1 0.998007
1.00108 1.00296 1 0.998124
1.00998 1.01201 1 0.997994
1.00086 1.00267 1 0.998198
1.00704 1.00899 1 0.998065
1.00197 1.00398 1 0.997993
1.0114 1.01348 1 0.997951
1.00875 1.01074 1 0.998029
1.0155 1.01749 1 0.998041
1.00595 1.00789 1 0.998077
1.01184 1.01369 1 0.998168
0.998381 1 1 0.998381
0.998636 1 1 0.998636
1.00117 1.00305 1 0.998124
0.999896 1.00166 1 0.998235
0.999928 1 1 0.999928
0.999341 1 1 0.999341
0.998817 1 1 0.998817
0.99889 1.00052 1 0.998376
1.00421 1.0061 1 0.998113
1.00097 1.00272 1 0.998255
0.999395 1.00108 1 0.998321
1.00317 1.00493 1 0.998254
0.999462 1 1 0.999462
0.999142 1 1 0.999142
0.999672 1 1 0.999672
1.0016 1.00355 1 0.998053
1.00077 1.00261 1 0.99817
1.00873 1.01076 1 0.997985
1.00583 1.00779 1 0.998055
0.999406 1 1 0.999406
0.998981 1 1 0.998981
0.998867 1.00034 1.00003 0.998496
1.00214 1.00395 1 0.998197
1.00901 1.01086 1 0.998172
1.00115 1.00296 1 0.99819
1.00495 1.00674 1 0.998231
1.0064 1.00807 1 0.998342
0.999129 1 1 0.999129
0.998982 1 1 0.998982
0.999766 1 1 0.999766
0.999219 1 1 0.999219
1.00982 1.01191 1 0.997935
1.00828 1.01028 1 0.998025
1.01561 1.01767 1 0.997978
1.01117 1.01308 1 0.99811
1.00759 1.0094 1 0.998211
1.01185 1.01363 1 0.998247
0.999097 1 1 0.999097
1.00797 1.00962 1 0.99837
0.998727 1 1 0.998727
0.999813 1.0014 1.00018 0.99824
1.00499 1.00687 1 0.998129
1.00809 1.00975 1 0.998356
0.999823 1 1 0.999823
0.999317 1 1 0.999317
0.998988 1 1 0.998988
0.999045 1 1.00003 0.99902
0.998935 1 1 0.998935
1 1 1 1
0.99986 1.00163 1 0.998238
0.999806 1 1 0.999806
0.999515 1 1 0.999515
0.999249 1 1 0.999249
0.998655 1.00014 1 0.998514
1.00284 1.00471 1 0.998134
0.999002 1 1 0.999002
0.999775 1 1.0012 0.998581
0.998782 1.00024 1 0.998538
0.998637 1 1 0.998637
1 1 1 1
0.999883 1 1 0.999883
0.999135 1 1 0.999135
0.99939 1 1 0.99939
0.999029 1 1.00002 0.999009
1.00498 1.00692 1 0.998073
1.0008 1.00249 1 0.998313
1.00605 1.00798 1 0.998083
1.0002 1 1.00149 0.998713
0.999739 1.00129 1 0.998451
0.99956 1.00023 1.00096 0.998372
0.999914 1 1 0.999914
0.99951 1 1 0.99951
0.999283 1 1.00041 0.998875
0.999177 1 1.00004 0.999137
0.999194 1 1.00031 0.998888
1.00839 1.01034 1 0.998078
1.00257 1.00433 1 0.998243
1.00634 1.00814 1 0.998221
1.0022 1 1.00372 0.998486
0.99917 1.00094 1 0.99823
0.999936 1 1 0.999936
0.999602 1 1 0.999602
0.999644 1 1 0.999644
0.999476 1 1 0.999476
0.999669 1 1 0.999669
0.999954 1 1 0.999954
0.999953 1 1 0.999953
1 1 1 1
0.999949 1 1 0.999949
1 1 1 1
1 1 1 1
1 1 1 1
1 1 1 1
1 1 1 1
1 1 1 1
0.999999 1 1 0.999999
1 1 1 1
1 1 1 1
0.999992 1 1 0.999992
1 1 1 1
1.00082 1.00263 1 0.998197
1.0009 1.00279 1 0.998123
1.00651 1.00846 1 0.998065
1.01016 1.01219 1 0.997994
1.00196 1.00396 1 0.998008
0.998393 1 1 0.998393
1.00199 1.00401 1 0.997993
1.01146 1.01354 1 0.997943
1.00854 1.01053 1 0.998029
1.01532 1.0173 1 0.998053
1.00611 1.00805 1 0.998073
1.01197 1.01382 1 0.998175
1.01083 1.01294 1 0.997919
1.01683 1.01888 1 0.997986
1.0134 1.01531 1 0.998119
1.01488 1.01681 1 0.998108
1.01064 1.01252 1 0.998141
1.01374 1.01549 1 0.998273
1.0018 1.00378 1 0.998022
1.00072 1.00256 1 0.998169
1.0087 1.01074 1 0.99798
1.00637 1.00832 1 0.998061
0.999407 1 1 0.999407
0.998976 1 1 0.998976
0.999029 1.00031 1.00018 0.998537
1.00246 1.00426 1 0.998206
1.00852 1.01035 1 0.998189
1.00494 1.00672 1 0.998233
1.00132 1.00316 1 0.998166
1.00585 1.0075 1 0.998356
0.999132 1 1 0.999132
0.998965 1 1 0.998965
0.999762 1 1 0.999762
0.999235 1 1 0.999235
1.00983 1.01192 1 0.997936
1.0083 1.0103 1 0.99802
1.01533 1.01738 1 0.997985
1.0106 1.01252 1 0.998104
0.999094 1 1 0.999094
0.998794 1 1.00003 0.998763
0.999983 1.00136 1.00039 0.998236
1.00726 1.00908 1 0.998198
1.01197 1.01371 1 0.998284
1.00488 1.00678 1 0.998119
1.00767 1.00931 1 0.998372
1.00859 1.01022 1 0.998388
0.998988 1 1 0.998988
0.998932 1 1 0.998932
0.99913 1 1.00011 0.999016
0.999795 1 1 0.999795
0.999331 1 1 0.999331
1.01672 1.0188 1 0.99796
1.01464 1.01666 1 0.998012
1.01271 1.01451 1 0.998222
1.0101 1.01179 1 0.998333
0.998944 1 1 0.998944
1.00971 1.01126 1 0.998473
0.99885 1 1.00029 0.998562
1.00134 1.00283 1.00051 0.998015
1.00732 1.00926 1 0.998074
0.999814 1 1 0.999814
0.999461 1 1 0.999461
0.999162 1 1.00002 0.99914
0.998949 1 1 0.998949
0.999114 1 1.00024 0.998876
0.998884 1 1 0.998884
1 1 1 1
0.999889 1 1 0.999889
1.00527 1.00721 1 0.998069
0.99939 1 1 0.99939
0.999135 1 1 0.999135
0.998991 1 1 0.998991
1.00031 1.00199 1 0.998314
1.00597 1.00791 1 0.998076
1.0002 1 1.00148 0.998716
0.999495 1.00033 1.00077 0.998391
1.00002 1.00156 1 0.998466
0.999918 1 1 0.999918
0.999512 1 1 0.999512
0.999227 1 1.00034 0.998883
0.999156 1 1.00002 0.999136
0.999293 1 1.00042 0.998875
1.00843 1.01038 1 0.998074
1.00263 1.0044 1 0.998236
1.0063 1.00807 1 0.998241
1.00164 1 1.00318 0.99847
0.999254 1.001 1.00006 0.9982
0.999588 1 1 0.999588
0.999226 1 1 0.999226
1.00063 1 1.00191 0.998716
0.999477 1 1.00057 0.998908
0.999319 1 1.00054 0.998777
1.01179 1.01345 1 0.998368
1.00264 1.00449 1 0.99816
1.00576 1.00751 1 0.998267
1.00278 1.00014 1.00431 0.998335
0.998706 1.00071 1 0.997998
0.999939 1 1 0.999939
0.999617 1 1 0.999617
0.99939 1 1 0.99939
0.999627 1 1 0.999627
0.999669 1 1 0.999669
0.999451 1 1 0.999451
0.999321 1 1 0.999321
0.999438 1 1 0.999438
0.999673 1 1 0.999673
0.999951 1 1 0.999951
0.999954 1 1 0.999954
1 1 1 1
0.999954 1 1 0.999954
1 1 1 1
1 1 1 1
1 1 1 1
1 1 1 1
1 1 1 1
1 1 1 1
1 1 1 1
1 1 1 1
0.999998 1 1 0.999998
1 1 1 1
1 1 1 1
1.00624 1.00819 1 0.99807
1.00833 1.01032 1 0.99803
1.01209 1.01393 1 0.998182
1.01515 1.01712 1 0.998064
1.0115 1.01359 1 0.997936
1.00201 1.00402 1 0.997994
1.01093 1.01305 1 0.997911
1.01687 1.01892 1 0.997983
1.01361 1.01554 1 0.998103
1.01498 1.0169 1 0.998111
1.01004 1.01192 1 0.998141
1.01359 1.01531 1 0.998298
1.01622 1.01831 1 0.997952
1.01631 1.01827 1 0.998076
1.01547 1.01728 1 0.998214
1.01314 1.0148 1 0.998371
1.00982 1.01191 1 0.997937
1.0083 1.01031 1 0.998015
1.01505 1.0171 1 0.997992
1.01002 1.01195 1 0.998098
0.999092 1 1 0.999092
0.998798 1 1 0.998798
1.00017 1.00136 1.00058 0.998231
1.00691 1.00874 1 0.998185
1.01208 1.01378 1 0.99832
1.00745 1.00909 1 0.998374
1.00472 1.00662 1 0.998109
1.00895 1.01054 1 0.99842
0.998988 1 1 0.998988
0.998929 1 1 0.998929
0.99921 1 1.0002 0.999013
0.999768 1 1 0.999768
0.999345 1 1 0.999345
1.01642 1.01849 1 0.997963
1.01452 1.01653 1 0.998019
1.01252 1.01433 1 0.998221
0.998939 1 1 0.998939
0.998853 1 1.00026 0.998596
1.00152 1.00275 1.00076 0.998007
1.01036 1.01206 1 0.998323
1.00705 1.00894 1 0.998123
1.00921 1.01076 1 0.998465
0.999819 1 1 0.999819
0.998946 1 1 0.998946
0.99891 1 1 0.99891
0.999203 1 1.00034 0.998868
0.999152 1 1 0.999149
0.99944 1 1 0.99944
1.0159 1.01794 1 0.998002
1.01534 1.01746 0.999794 0.998123
1.01223 1.01394 1 0.998304
1.01278 1.01433 1 0.998468
0.998845 1 1 0.998845
1.00695 1.00871 1 0.998258
0.99988 1 1.00165 0.998238
1.00228 1.00335 1.00104 0.997885
0.999863 1 1 0.999863
0.999536 1 1 0.999536
0.999241 1 1 0.999241
0.999125 1 1.00019 0.998931
0.998876 1 1 0.998876
0.999 1 1.0002 0.998797
0.999923 1 1 0.999923
0.999514 1 1 0.999514
1.00854 1.01049 1 0.99807
0.999135 1 1 0.999135
0.99909 1 1.0002 0.998891
0.999485 1 1.00062 0.998862
1.00264 1.00442 1 0.99823
1.00634 1.0081 1 0.998262
1.00111 1 1.00267 0.998453
0.999433 1.001 1.00027 0.99817
0.999589 1 1 0.999589
0.999235 1 1 0.999235
1.00064 1 1.00191 0.998733
0.999728 1 1.00082 0.998913
0.9991 1 1.00029 0.998806
1.01188 1.01352 1 0.998383
1.00257 1.00442 1 0.998158
1.00605 1.00772 1 0.998342
1.00291 1.00004 1.00456 0.998317
0.998704 1.00071 1.00003 0.997963
0.999338 1 1 0.999338
0.998987 1 1 0.998987
1.00236 1 1.00377 0.998595
0.999389 1 1.0007 0.998691
1.01785 1.01983 0.999562 0.998497
1.01111 1.01278 0.999872 0.998482
1.00312 1.00515 1 0.997986
1.00247 1.00022 1.00426 0.997996
0.999631 1 1 0.999631
0.999402 1 1 0.999402
0.999262 1 1 0.999262
0.999668 1 1 0.999668
0.999425 1 1 0.999425
0.999673 1 1 0.999673
0.999303 1 1 0.999303
0.999448 1 1 0.999448
0.999197 1 1 0.999197
0.999296 1 1 0.999296
0.999438 1 1 0.999438
0.999668 1 1 0.999668
0.999947 1 1 0.999947
0.999951 1 1 0.999951
1 1 1 1
0.999954 1 1 0.999954
1 1 1 1
1 1 1 1
1 1 1 1
1 1 1 1
1 1 1 1
1 1 1 1
1 1 1 1
1 1 1 1
1 1 1 1
1 1 1 1
1 1 1 1
1.00945 1.01133 1 0.998142
1.01382 1.01576 1 0.998088
1.01343 1.01513 1 0.998323
1.01508 1.01699 1 0.998115
1.01692 1.01898 1 0.99798
1.01104 1.01316 1 0.997904
1.01616 1.01824 1 0.997958
1.01572 1.01768 1 0.998073
1.01519 1.01701 1 0.998217
1.01422 1.01587 1 0.998367
1.01605 1.01806 1 0.998034
1.01903 1.02112 0.999724 0.998227
1.01832 1.02008 0.999923 0.998348
1.01611 1.01818 1 0.997966
1.01442 1.01643 1 0.998026
1.01231 1.01412 1 0.998219
0.998935 1 1 0.998935
0.998808 1 1.00018 0.99863
1.00155 1.00271 1.00085 0.998
1.01053 1.01223 1 0.998314
1.00892 1.01048 1 0.998457
1.0071 1.00894 1 0.998171
0.998943 1 1 0.998943
0.998936 1 1 0.998936
0.999251 1 1.00039 0.998859
0.999823 1 1 0.999823
0.999158 1 1 0.999158
0.999419 1 1 0.999419
1.0164 1.01843 1 0.998005
1.01558 1.01759 0.999893 0.998127
1.01205 1.01378 1 0.998293
0.998837 1 1 0.998837
0.999698 1 1.0014 0.998302
1.00241 1.00362 1.0009 0.997898
1.01297 1.01451 1 0.998483
1.00734 1.0091 1 0.998251
0.999889 1 1 0.999889
0.999536 1 1 0.999536
0.998882 1 1 0.998882
0.99901 1 1.00018 0.998834
0.999184 1 1.00025 0.998933
0.999224 1 1 0.999224
1.01898 1.02129 0.999595 0.998142
1.01373 1.01723 0.998317 0.998244
1.01404 1.01616 0.999438 0.99848
1.01099 1.01249 1 0.998524
0.999563 1 1.00088 0.998679
1.00253 1.00323 1.0014 0.997898
1.00089 1.00019 1.00264 0.99807
0.999946 1 1 0.999946
0.999684 1 1 0.999684
0.999551 1 1 0.999551
0.999277 1 1 0.999277
0.999032 1 1 0.999032
0.999033 1 1.00023 0.9988
0.998908 1 1 0.998908
1.00473 1 1.00582 0.998917
0.999591 1 1 0.999591
0.999245 1 1 0.999245
1.01184 1.01346 1 0.998399
0.999849 1 1.00093 0.998917
1.00085 1 1.0021 0.998751
0.99887 1 1.00004 0.998835
1.0025 1.00435 1 0.998157
1.00624 1.00784 1 0.998416
1.00309 1 1.0048 0.998299
0.998682 1.00076 1 0.997928
0.999327 1 1 0.999327
0.999073 1 1.00008 0.998996
1.00274 1 1.00413 0.998611
0.999278 1 1.00057 0.998711
1.01783 1.0198 0.999572 0.998497
1.01037 1.01198 0.999949 0.998462
1.00363 1.00562 1 0.998023
1.00204 1.00031 1.00377 0.997967
0.999176 1 1 0.999176
1.01739 1.02102 0.997976 0.998468
0.999585 1 1.00078 0.998805
1.00108 1 1.00268 0.99841
1.01628 1.01841 0.999315 0.99859
1.00616 1.00811 1 0.998066
1.00374 1.00268 1.00323 0.997832
0.999413 1 1 0.999413
0.999261 1 1 0.999261
0.999139 1 1 0.999139
0.999673 1 1 0.999673
0.999457 1 1 0.999457
0.999284 1 1 0.999284
0.999667 1 1 0.999667
0.999439 1 1 0.999439
0.99918 1 1 0.99918
0.999315 1 1 0.999315
0.999099 1 1 0.999099
0.999174 1 1 0.999174
0.999315 1 1 0.999315
0.999442 1 1 0.999442
0.999654 1 1 0.999654
0.999942 1 1 0.999942
0.999946 1 1 0.999946
1 1 1 1
0.99995 1 1 0.99995
1 1 1 1
1 1 1 1
1 1 1 1
1 1 1 1
1 1 1 1
0.999966 1 1 0.999966
1 1 1 1
1 1 1 1
1 1 1 1
1 1 1 1
1 1 1 1
1 1 1 1
1.01529 1.01695 1 0.998364
1.01492 1.01673 1 0.99822
1.01511 1.01707 1 0.998069
1.0161 1.01817 1 0.997963
1.01596 1.01795 1 0.998046
1.01901 1.02114 0.999705 0.998214
1.01871 1.02048 0.999901 0.998361
1.01968 1.0222 0.99934 0.998193
1.02211 1.02522 0.998617 0.998344
1.00905 1.01785 0.992817 0.998528
1.01686 1.01889 1 0.998008
1.01583 1.01776 0.99997 0.998131
1.01197 1.01372 0.999998 0.998282
0.998885 1 1.00006 0.998829
0.999627 1 1.00126 0.998367
1.0023 1.00362 1.00078 0.997912
1.01325 1.01477 1 0.998497
1.00715 1.00893 1 0.998243
0.998889 1 1 0.998889
0.999021 1 1.00015 0.99887
0.999327 1 1.00039 0.998936
0.999915 1 1 0.999915
0.999536 1 1 0.999536
0.999208 1 1 0.999208
1.01875 1.02107 0.999567 0.998157
0.999942 1 1 0.999942
0.999669 1 1 0.999669
1.01379 1.01674 0.998858 0.998243
1.01512 1.0171 0.999601 0.99845
0.999567 1 1.00084 0.998728
1.00161 1.00028 1.0033 0.998034
1.00224 1.0035 1.00084 0.997905
1.01019 1.01169 1 0.998515
0.999595 1 1 0.999595
0.999275 1 1 0.999275
0.998865 1 1 0.998865
1.00233 1 1.00334 0.998993
0.999066 1 1.00029 0.99878
0.999038 1 1 0.999038
1.021 1.02436 0.998402 0.998313
1.01317 1.01815 0.996735 0.998373
1.01321 1.0167 0.997887 0.998679
1.00357 1.00538 0.99993 0.998269
1.00103 1 1.00234 0.998688
1.00413 1.00082 1.00547 0.997855
0.999689 1 1 0.999689
0.999639 1 1 0.999639
0.999469 1 1 0.999469
0.999278 1 1 0.999278
0.999118 1 1 0.999118
0.99885 1 1 0.99885
1.00777 1 1.00907 0.998717
0.999655 1 1.00064 0.999019
0.999316 1 1 0.999316
0.999144 1 1.00014 0.999005
1.0179 1.01986 0.999578 0.998497
1.00993 1.0115 1 0.998443
0.999204 1 1.00047 0.998732
1.00301 1 1.00439 0.998628
1.00428 1.0062 1.00004 0.998061
1.00165 1.00036 1.00335 0.997938
0.999171 1 1 0.999171
1.01726 1.02159 0.997271 0.998488
0.999491 1 1.00068 0.998815
1.00107 1 1.00269 0.998388
1.01602 1.01812 0.999373 0.998567
1.00697 1.00889 1 0.998096
1.00361 1.00229 1.00348 0.997842
0.999267 1 1.0003 0.998964
1.01715 1.02392 0.994673 0.998712
0.999475 1 1.00083 0.998645
1.00229 1.00034 1.00379 0.998166
1.00794 1.01247 0.997225 0.9983
1.00194 1.00184 1.00221 0.997889
1.00554 1.00824 0.998499 0.998821
0.99926 1 1 0.99926
0.999138 1 1 0.999138
0.999035 1 1 0.999035
0.999666 1 1 0.999666
0.99944 1 1 0.99944
0.999334 1 1 0.999334
0.999164 1 1 0.999164
0.999653 1 1 0.999653
0.999432 1 1 0.999432
0.999089 1 1 0.999089
0.999314 1 1 0.999314
0.99919 1 1 0.99919
0.999079 1 1 0.999079
0.999214 1 1 0.999214
0.999315 1 1 0.999315
0.999395 1 1 0.999395
0.999606 1 1 0.999606
0.999471 1 1 0.999471
0.999608 1 1 0.999608
0.999939 1 1 0.999939
0.999942 1 1 0.999942
1 1 1 1
0.999945 1 1 0.999945
1 1 1 1
1 1 1 1
1 1 1 1
1 1 1 1
1 1 1 1
0.999976 1 1 0.999976
0.999963 1 1 0.999963
1 1 1 1
1 1 1 1
1 1 1 1
1 1 1 1
1 1 1 1
1 1 1 1
1.01908 1.02086 0.999884 0.998374
1.01901 1.02117 0.999682 0.998202
1.01589 1.01787 1 0.998058
1.01954 1.02206 0.999347 0.998191
1.02123 1.0243 0.998663 0.998342
1.01014 1.01816 0.99359 0.998526
1.01783 1.02423 0.99533 0.998412
1.00656 1.01596 0.992369 0.998372
1.01474 1.02402 0.992094 0.998834
0.99975 1 1 0.99975
1.01856 1.02087 0.999567 0.998173
1.01378 1.01617 0.999406 0.998241
1.01593 1.01786 0.999679 0.998419
0.999595 1 1.00082 0.998776
1.00244 1.00043 1.00402 0.997999
1.00244 1.00408 1.00045 0.997913
1.0095 1.01101 1 0.998505
0.998822 1 1 0.998822
0.999908 1 1.00084 0.99907
0.999046 1 1.00029 0.99876
0.999939 1 1 0.999939
0.999043 1 1 0.999043
0.999639 1 1 0.999639
0.999274 1 1 0.999274
0.999653 1 1 0.999653
1.02064 1.02502 0.997407 0.99832
0.99971 1 1 0.99971
0.999638 1 1 0.999638
0.999436 1 1 0.999436
1.01346 1.01836 0.996804 0.998376
1.01265 1.01587 0.998196 0.998634
1.00031 1 1.00161 0.998705
1.0038 1.00042 1.00553 0.997862
1.00356 1.00518 1.00011 0.998273
0.999301 1 1 0.999301
0.999104 1 1 0.999104
1.00115 1 1.00219 0.998966
1.00639 1 1.00765 0.998751
0.998868 1 1 0.998868
1.01377 1.02055 0.994959 0.99839
1.01276 1.02048 0.993933 0.998493
1.00785 1.011 0.998437 0.998446
1.00458 1.00323 1.00322 0.998138
1.00342 1 1.00478 0.998653
0.999436 1 1 0.999436
0.999347 1 1 0.999347
0.999257 1 1 0.999257
0.999114 1 1 0.999114
0.998966 1 1 0.998966
1.00501 1 1.00626 0.998753
1.00883 1 1.01019 0.998656
0.999167 1 1 0.999167
0.999374 1 1.00055 0.998825
1.01703 1.02206 0.996568 0.998508
1.01557 1.01768 0.999385 0.998545
1.00745 1.00934 1 0.998126
1.00104 1 1.00268 0.998366
1.0032 1.00176 1.0036 0.997852
0.999259 1 1.00027 0.998992
1.0167 1.024 0.994148 0.998717
0.999442 1 1.00078 0.998662
1.00239 1.00014 1.00408 0.998178
1.00897 1.01282 0.99784 0.998356
1.00248 1.00191 1.00269 0.997878
1.00559 1.0085 0.998579 0.99854
0.999197 1 1.00035 0.998849
1.00425 1.01531 0.990398 0.998697
1.00053 1 1.00192 0.998616
1.00446 1 1.00636 0.998109
1.00319 1.00405 1.00104 0.998103
0.958526 0.975329 0.992281 0.990416
0.98632 0.989388 1.0013 0.995609
0.981493 1.00084 0.981703 0.998948
0.893928 0.923763 0.976672 0.990816
0.870507 0.929043 0.946188 0.990281
0.999136 1 1 0.999136
0.999046 1 1 0.999046
0.999049 1 1 0.999049
0.999652 1 1 0.999652
0.999423 1 1 0.999423
0.999314 1 1 0.999314
0.999206 1 1 0.999206
0.999079 1 1 0.999079
0.999298 1 1 0.999298
0.999624 1 1 0.999624
0.999408 1 1 0.999408
0.999085 1 1 0.999085
0.999212 1 1 0.999212
0.99922 1 1 0.99922
0.999152 1 1 0.999152
0.999255 1 1 0.999255
0.99937 1 1 0.99937
0.999601 1 1 0.999601
0.999426 1 1 0.999426
0.999323 1 1 0.999323
0.999444 1 1 0.999444
0.999446 1 1 0.999446
0.999648 1 1 0.999648
0.999607 1 1 0.999607
0.999937 1 1 0.999937
0.999939 1 1 0.999939
1 1 1 1
0.999941 1 1 0.999941
1 1 1 1
1 1 1 1
1 1 1 1
1 1 1 1
1 1 1 1
0.999981 1 1 0.999981
0.999974 1 1 0.999974
1 1 1 1
0.99996 1 1 0.99996
1 1 1 1
1 1 1 1
1 1 1 1
1 1 1 1
1 1 1 1
1.02044 1.02345 0.99872 0.998339
1.01938 1.02188 0.999362 0.99819
1.01111 1.01832 0.994382 0.998524
1.00677 1.01572 0.992773 0.998403
1.01724 1.0236 0.995365 0.998411
1.01721 1.02529 0.993326 0.998778
1.02115 1.02628 0.996585 0.998409
0.971067 0.984914 0.991019 0.994876
1.01277 1.01935 0.994865 0.998672
0.999761 1 1 0.999761
0.999749 1 1 0.999749
0.999507 1 1 0.999507
0.999535 1 1 0.999535
1.02031 1.02568 0.996436 0.998327
1.01385 1.01848 0.997067 0.99838
1.01229 1.01508 0.998662 0.998589
0.999493 1 1.00077 0.998722
1.00327 1.00006 1.00536 0.997869
1.00353 1.00513 1.00013 0.998276
1.00266 1 1.00376 0.998911
1.00505 1 1.00628 0.998785
0.998887 1 1 0.998887
0.999638 1 1 0.999638
0.99909 1 1 0.99909
0.999324 1 1 0.999324
0.999731 1 1 0.999731
0.999403 1 1 0.999403
1.01223 1.01886 0.995077 0.998405
0.99947 1 1 0.99947
0.999368 1 1 0.999368
0.999262 1 1 0.999262
1.01482 1.02195 0.994515 0.998504
1.00663 1.01012 0.998104 0.998442
1.00334 1 1.0047 0.998648
1.00453 1.00359 1.00281 0.998127
0.999117 1 1 0.999117
0.99897 1 1 0.99897
1.00863 1 1.00999 0.998657
1.00589 1 1.00716 0.998733
1.01584 1.02386 0.993737 0.998416
1.00001 1.01638 0.985382 0.99849
1.00466 1.00578 1.00073 0.998162
1.00162 1 1.00306 0.998562
0.999192 1 1 0.999192
0.99916 1 1 0.99916
1.00037 1 1.00146 0.998915
1.01496 1 1.01646 0.99852
0.947481 0.972385 0.984176 0.990056
0.999291 1 1.00027 0.999019
0.999504 1 1.00083 0.99868
1.01585 1.02393 0.993375 0.998721
1.01009 1.01314 0.99857 0.998412
1.00327 1.00211 1.0033 0.997866
1.00265 1 1.00447 0.998189
1.00502 1.00847 0.998322 0.998253
0.999379 1 1.00051 0.99887
1.00339 1.01495 0.989911 0.998683
1.00004 1 1.00142 0.998625
1.00421 1 1.00611 0.998111
1.00355 1.00524 1.0002 0.998122
0.956156 0.975178 0.989983 0.990415
0.981998 0.988167 0.999475 0.994279
0.983188 0.999578 0.984593 0.998995
0.89755 0.923984 0.980692 0.990516
0.856646 0.91827 0.942799 0.989491
0.999582 1 1.00063 0.998953
0.909695 0.934973 0.982424 0.99037
0.904429 0.933885 0.977293 0.990961
0.980737 1.00581 0.976382 0.99866
1.00485 1 1.0062 0.998664
1.00981 1.00138 1.01017 0.99827
0.982374 0.996451 0.986728 0.999132
0.961806 0.973026 0.9985 0.989954
0.974692 0.976917 1.00391 0.993838
0.877289 0.923832 0.958446 0.99079
0.907874 0.958209 0.955206 0.991901
0.999058 1 1 0.999058
0.999045 1 1 0.999045
0.999189 1 1 0.999189
0.999641 1 1 0.999641
0.99942 1 1 0.99942
0.999281 1 1 0.999281
0.999209 1 1 0.999209
0.999091 1 1 0.999091
0.999601 1 1 0.999601
0.999218 1 1 0.999218
0.999272 1 1 0.999272
0.99939 1 1 0.99939
0.999146 1 1 0.999146
0.999172 1 1 0.999172
0.999359 1 1.0002 0.999162
0.999249 1 1 0.999249
0.999405 1 1 0.999405
0.999425 1 1 0.999425
0.999308 1 1 0.999308
0.999284 1 1 0.999284
0.9993 1 1 0.9993
0.999241 1 1 0.999241
0.999194 1 1 0.999194
0.999425 1 1 0.999425
0.999444 1 1 0.999444
0.999649 1 1 0.999649
0.999422 1 1 0.999422
0.999633 1 1 0.999633
0.999936 1 1 0.999936
0.999606 1 1 0.999606
0.999936 1 1 0.999936
1 1 1 1
0.999938 1 1 0.999938
1 1 1 1
1 1 1 1
1 1 1 1
1 1 1 1
1 1 1 1
0.999751 1 1 0.999751
0.999982 1 1 0.999982
0.99998 1 1 0.99998
1 1 1 1
0.999972 1 1 0.999972
1 1 1 1
1 1 1 1
1 1 1 1
1 1 1 1
1 1 1 1
1.00794 1.01579 0.993822 0.998436
1.01672 1.02312 0.995323 0.998409
1.02003 1.02681 0.994671 0.998722
0.972633 0.983602 0.993214 0.995605
1.01256 1.01907 0.994876 0.998728
1.02236 1.02809 0.996038 0.998388
1.01757 1.02313 0.996081 0.998484
0.977059 0.986263 0.994688 0.995958
0.958439 0.975757 0.992891 0.989285
0.875571 0.916059 0.965795 0.989653
0.857901 0.910952 0.951219 0.990059
0.999498 1 1 0.999498
0.99976 1 1 0.99976
0.999749 1 1 0.999749
0.999497 1 1 0.999497
0.999342 1 1 0.999342
0.999379 1 1 0.999379
0.999507 1 1 0.999507
0.999519 1 1 0.999519
1.01057 1.01728 0.994981 0.998421
1.01699 1.02395 0.99468 0.998515
1.00545 1.00928 0.997767 0.998438
1.00345 1 1.00482 0.998643
1.00451 1.00367 1.00272 0.998116
1.00841 1 1.00976 0.998658
1.00696 1 1.00826 0.998713
0.998974 1 1 0.998974
0.999388 1 1 0.999388
0.99912 1 1 0.99912
0.999505 1 1 0.999505
0.999267 1 1 0.999267
1.01612 1.02433 0.993585 0.998395
0.999211 1 1 0.999211
0.999166 1 1 0.999166
1.00153 1.01517 0.988068 0.998474
1.00435 1.00625 0.999867 0.998244
1.00342 1.00013 1.00479 0.998512
1.00123 1 1.00233 0.9989
1.01335 1 1.01485 0.998525
1.01478 1.0225 0.994084 0.99836
0.984192 1.0046 0.981181 0.998479
0.999476 1 1.00103 0.998446
1.00705 1 1.00849 0.998574
0.999091 1 1 0.999091
1.00003 1 1.00106 0.998979
1.00929 1 1.01059 0.998704
0.898682 0.936767 0.96837 0.99068
0.954346 0.973321 0.989555 0.990854
0.999462 1 1.00057 0.998891
0.9997 1 1.00107 0.998634
1.00353 1.01501 0.989998 0.99867
1.00398 1.00658 0.99927 0.998141
1.00381 1 1.00571 0.998113
0.956952 0.975084 0.992094 0.989226
0.983341 0.990394 0.997865 0.995003
0.98559 0.998801 0.987721 0.99904
0.891761 0.924929 0.973664 0.990218
0.842907 0.906675 0.940297 0.988697
0.999341 1 1.00039 0.998954
0.903598 0.937868 0.972433 0.990772
0.902803 0.930515 0.979346 0.99068
0.983501 1.00664 0.978334 0.998649
1.00444 1 1.00577 0.998681
1.00908 1.00074 1.01 0.99835
0.975433 0.993399 0.982732 0.999169
0.963955 0.976394 0.99793 0.989308
0.976831 0.980532 1.00112 0.995115
0.878832 0.919398 0.965807 0.98972
0.906616 0.958207 0.954268 0.991502
1.00098 1 1.0019 0.999082
0.923927 0.937874 0.992969 0.992104
0.976198 0.981158 1.00023 0.994716
0.988031 1.00081 0.988192 0.99903
1.01067 1.00036 1.01131 0.99902
0.997451 0.99038 1.00767 0.999475
0.966846 0.975097 0.99531 0.996211
0.961301 0.966576 1.00527 0.989325
0.90036 0.941909 0.965712 0.989828
0.932113 0.975792 0.961643 0.993338
0.999042 1 1 0.999042
0.999167 1 1 0.999167
0.999753 1 1.00042 0.999332
0.999601 1 1 0.999601
0.99941 1 1 0.99941
0.999289 1 1 0.999289
0.999217 1 1 0.999217
0.99914 1 1 0.99914
0.999404 1 1 0.999404
0.999182 1 1 0.999182
0.999249 1 1 0.999249
0.99942 1 1.00024 0.999175
0.999838 1 1.00055 0.999283
0.999254 1 1.00009 0.999167
0.999253 1 1 0.999253
0.999424 1 1 0.999424
0.999293 1 1 0.999293
0.999283 1 1 0.999283
0.999299 1 1 0.999299
0.999242 1 1 0.999242
0.999265 1 1 0.999265
0.999219 1 1 0.999219
0.999216 1 1 0.999216
0.999043 1 1 0.999043
0.999515 1 1.00068 0.998839
0.999095 1 1 0.999095
0.999192 1 1 0.999192
0.999382 1 1 0.999382
0.999423 1 1 0.999423
0.999642 1 1 0.999642
0.999444 1 1 0.999444
0.999649 1 1 0.999649
0.999936 1 1 0.999936
0.999618 1 1 0.999618
0.999936 1 1 0.999936
1 1 1 1
0.999936 1 1 0.999936
1 1 1 1
1 1 1 1
1 1 1 1
1 1 1 1
1 1 1 1
0.999768 1 1 0.999768
0.999978 1 1 0.999978
0.99975 1 1 0.99975
1 1 1 1
0.999982 1 1 0.999982
0.999979 1 1 0.999979
1 1 1 1
1 1 1 1
1 1 1 1
1 1 1 1
1 1 1 1
0.9011 0.930833 0.977035 0.990812
0.91019 0.9348 0.982033 0.991487
0.975064 0.985009 0.99379 0.996089
1.01285 1.01871 0.995452 0.998784
1.02347 1.02963 0.995643 0.998367
0.97551 0.983839 0.994422 0.997096
1.01808 1.02295 0.996735 0.998505
0.960485 0.976986 0.992546 0.990494
0.889109 0.921394 0.974145 0.990571
0.848168 0.907742 0.94452 0.989255
0.995673 0.999978 0.997762 0.997928
0.961204 0.972657 0.997869 0.990336
0.87078 0.919587 0.955932 0.990578
0.905698 0.953341 0.958613 0.991042
0.999285 1 1 0.999285
0.999512 1 1 0.999512
0.999759 1 1 0.999759
0.999486 1 1 0.999486
0.999362 1 1 0.999362
0.999314 1 1 0.999314
0.999378 1 1 0.999378
0.999416 1 1 0.999416
0.999488 1 1 0.999488
0.999503 1 1 0.999503
1.01612 1.02454 0.993401 0.998374
1.00216 1.01316 0.99067 0.998459
1.00405 1.00674 0.998995 0.998327
1.005 1.00029 1.00626 0.998463
1.01101 1 1.0125 0.99853
1.00196 1 1.00308 0.998885
0.999171 1 1 0.999171
0.99923 1 1 0.99923
1.01235 1.02254 0.991668 0.998351
0.999084 1 1 0.999084
0.999955 1 1.001 0.998958
0.98579 1.00412 0.983295 0.998421
0.999865 1 1.00133 0.998534
1.00678 1 1.00829 0.998506
1.00824 1 1.00957 0.998687
1.00209 1.00752 0.996004 0.9986
0.991265 1 0.992319 0.998937
1.00991 1 1.01127 0.99865
0.999074 1 1 0.999074
0.999275 1 1.00033 0.998943
1.00365 1 1.00487 0.998788
0.925382 0.941044 0.990339 0.99295
0.905474 0.9366 0.976309 0.990226
0.951758 0.975433 0.985545 0.990039
0.998954 1 1 0.998954
1.00401 1 1.00532 0.998698
0.986239 1.00725 0.980474 0.998638
1.00839 1 1.00998 0.99843
0.89996 0.935399 0.971709 0.990125
0.962438 0.974209 0.997048 0.990842
0.974533 0.981437 0.999061 0.9939
0.972594 0.991112 0.982091 0.999211
0.881948 0.919767 0.968099 0.990479
0.904776 0.934085 0.97787 0.990544
0.901239 0.955758 0.951257 0.991275
1.00148 1 1.0024 0.999084
0.92397 0.940535 0.990058 0.992253
0.978405 0.982678 1.00097 0.994689
0.990242 1.00035 0.990809 0.999077
1.01041 1.00006 1.01135 0.999008
0.996988 0.991525 1.00635 0.99917
0.967749 0.974703 0.998267 0.994589
0.960676 0.969947 1.00089 0.98956
0.904344 0.946976 0.963741 0.990911
0.924216 0.969079 0.960318 0.993115
1.00196 0.999795 1.00268 0.99949
0.977607 0.982318 0.999181 0.996021
0.975424 0.978106 1.00066 0.996601
1.00944 0.997086 1.01268 0.999715
0.982216 0.979142 1.0053 0.997854
0.965203 0.967522 1.00861 0.98909
0.936679 0.963259 0.981027 0.991212
0.937727 0.983772 0.96007 0.99284
0.999145 1 1 0.999145
0.999691 1 1.00036 0.999336
1.00075 1 1.0013 0.999451
0.999403 1 1 0.999403
0.999248 1 1 0.999248
0.999192 1 1 0.999192
0.999469 1 1.00028 0.999188
0.999252 1 1 0.999252
0.999196 1 1.00003 0.999165
1.0005 1 1.00119 0.999309
1.00062 0.999733 1.00144 0.999447
1.00004 1 1.0008 0.999237
0.999187 1 1 0.999187
0.999283 1 1 0.999283
0.999297 1 1 0.999297
0.999242 1 1 0.999242
0.999222 1 1 0.999222
0.999263 1 1 0.999263
0.99922 1 1 0.99922
0.999165 1 1 0.999165
0.999243 1 1 0.999243
0.999043 1 1 0.999043
0.999058 1 1 0.999058
0.99959 1 1.00069 0.998896
0.999862 1 1.00126 0.9986
0.999041 1 1 0.999041
0.999405 1 1.00051 0.998897
0.999121 1 1 0.999121
0.999282 1 1 0.999282
0.999189 1 1 0.999189
0.99938 1 1 0.99938
0.999617 1 1 0.999617
0.999422 1 1 0.999422
0.999641 1 1 0.999641
0.999934 1 1 0.999934
0.999649 1 1 0.999649
0.999935 1 1 0.999935
1 1 1 1
0.999936 1 1 0.999936
1 1 1 1
1 1 1 1
1 1 1 1
1 1 1 1
1 1 1 1
0.999686 1 1 0.999686
0.999973 1 1 0.999973
0.999731 1 1 0.999731
1 1 1 1
0.999979 1 1 0.999979
0.99975 1 1 0.99975
1 1 1 1
1 1 1 1
0.999982 1 1 0.999982
1 1 1 1
1 1 1 1
1 1 1 1
0.928606 0.941832 0.993051 0.992856
0.902395 0.933799 0.975855 0.99028
0.977401 0.984308 0.998394 0.994579
0.901321 0.928612 0.979306 0.991122
0.971407 0.982918 0.992699 0.995558
1.01789 1.02284 0.996634 0.998526
0.961397 0.977617 0.991636 0.991704
0.89004 0.925137 0.971953 0.989824
0.840082 0.905913 0.938167 0.98845
0.992173 0.998466 0.99634 0.997347
0.963279 0.973609 0.999933 0.989457
0.877534 0.924284 0.959508 0.989486
0.902924 0.952384 0.956951 0.990717
0.986478 0.992523 0.996911 0.996989
0.96775 0.969505 1.00922 0.989067
0.904549 0.948511 0.962598 0.990706
0.929557 0.976205 0.959275 0.99264
0.99917 1 1 0.99917
0.999306 1 1 0.999306
0.999527 1 1 0.999527
0.999382 1 1 0.999382
0.999198 1 1 0.999198
0.999328 1 1 0.999328
0.999378 1 1 0.999378
0.999397 1 1 0.999397
0.999437 1 1 0.999437
0.999469 1 1 0.999469
1.01026 1.02311 0.98908 0.998342
0.988377 1.00406 0.985998 0.998364
1.00021 1 1.00159 0.998622
1.00724 1 1.00881 0.998437
1.00785 1 1.00919 0.998669
0.999824 1 1.00089 0.998936
0.999077 1 1 0.999077
0.999077 1 1 0.999077
0.996357 1.00678 0.991013 0.998618
0.999114 1 1.00016 0.998955
1.00386 1 1.00508 0.998783
0.989594 1 0.990707 0.998877
1.00855 1 1.00992 0.99864
0.974323 0.996258 0.978896 0.999067
1.00772 1 1.00843 0.999289
1.00362 1 1.0048 0.998825
0.998981 1 1 0.998981
1.003 1 1.00421 0.998787
0.974583 0.978796 0.999005 0.996688
0.929224 0.941362 0.993944 0.993119
0.901487 0.93431 0.973637 0.990995
1.00204 1 1.00296 0.999085
1.00998 0.999633 1.01137 0.998996
0.990943 1 0.991814 0.999122
0.931991 0.944465 0.993997 0.992751
0.968747 0.970166 1.00959 0.989056
0.969629 0.975737 0.997988 0.995743
0.98945 0.990273 1.00033 0.998837
0.904161 0.94511 0.96651 0.989822
0.979865 0.983389 1.00176 0.994662
0.919928 0.96574 0.959103 0.993181
1.0019 0.999699 1.00272 0.999482
0.976749 0.980981 0.999262 0.99642
0.979541 0.981225 1.00168 0.996612
1.0101 0.998033 1.01252 0.999578
0.980952 0.978822 1.00478 0.997406
0.965859 0.970081 1.00706 0.988671
0.938215 0.986614 0.957312 0.993349
0.925066 0.956549 0.976208 0.990657
1.00391 0.998233 1.00598 0.999711
0.975892 0.979553 0.997654 0.998606
0.985172 0.989768 0.998395 0.996957
0.932174 0.977825 0.960368 0.992655
0.99763 0.983775 1.0147 0.999388
0.976437 0.973933 1.01316 0.989549
0.917944 0.941534 0.983699 0.991101
0.999606 1 1.00027 0.999339
1.0005 1 1.00109 0.99941
1.0031 0.999586 1.00396 0.999566
0.999252 1 1 0.999252
0.999163 1 1 0.999163
1.00143 1 1.00209 0.999335
0.999192 1 1 0.999192
1.00032 1 1.00108 0.99924
1.00122 0.999724 1.00208 0.999422
1.00035 1 1.00086 0.99949
1.00002 1 1.00079 0.999231
0.999225 1 1 0.999225
0.999262 1 1 0.999262
0.999224 1 1 0.999224
0.999237 1 1 0.999237
0.999174 1 1 0.999174
0.999494 1 1.00029 0.999203
0.999102 1 1 0.999102
1.00127 1 1.00257 0.998702
0.999074 1 1 0.999074
0.999443 1 1.00056 0.99888
0.999466 1 1.00101 0.998455
0.999745 1 1.00118 0.998569
0.999334 1 1.00041 0.998927
0.999737 1 1.00113 0.998612
0.999207 1 1 0.999207
0.999025 1 1.00001 0.999019
0.999301 1 1.00035 0.998955
0.999148 1 1 0.999148
0.999305 1 1 0.999305
0.999571 1 1 0.999571
0.999379 1 1 0.999379
0.999616 1 1 0.999616
0.999929 1 1 0.999929
0.99964 1 1 0.99964
0.999933 1 1 0.999933
1 1 1 1
0.999935 1 1 0.999935
1 1 1 1
1 1 1 1
1 1 1 1
1 1 1 1
1 1 1 1
0.999578 1 1 0.999578
0.99991 1 1 0.99991
0.999684 1 1 0.999684
1 1 1 1
0.999951 1 1 0.999951
0.999694 1 1 0.999694
1 1 1 1
1 1 1 1
0.999981 1 1 0.999981
1 1 1 1
1 1 1 1
1 1 1 1
0.97508 0.979937 0.99863 0.996409
0.919939 0.940264 0.985784 0.992492
0.903523 0.931749 0.979443 0.990059
0.999334 1 1 0.999334
0.972114 0.975635 0.999415 0.996974
0.979458 0.984379 1.00045 0.994558
0.89448 0.927734 0.973006 0.990904
0.991571 0.998746 0.996116 0.996687
0.968328 0.975537 1.00246 0.990178
0.883331 0.932032 0.957082 0.990247
0.896789 0.948389 0.954595 0.990568
0.988124 0.99436 0.998403 0.995317
0.95901 0.965548 1.00365 0.989615
0.911093 0.950264 0.968072 0.990401
0.928378 0.974885 0.959643 0.992344
0.975466 0.9813 0.99989 0.994164
0.970569 0.964875 1.01805 0.988067
0.924526 0.958101 0.974402 0.990307
0.934796 0.982005 0.958796 0.992835
0.999065 1 1 0.999065
0.999158 1 1 0.999158
0.999327 1 1 0.999327
0.999194 1 1 0.999194
0.999223 1 1 0.999223
0.999342 1 1 0.999342
0.999402 1 1 0.999402
0.999458 1 1 0.999458
0.990489 1.0058 0.98613 0.998633
0.987399 1 0.988569 0.998817
0.999079 1 1 0.999079
1.00673 1 1.00811 0.998629
1.00387 1 1.0051 0.998778
0.999105 1 1.00014 0.998966
0.999015 1 1.00003 0.998986
0.979995 0.998574 0.982298 0.99908
1.00286 1 1.00405 0.998815
1.00425 1 1.00543 0.998824
1.00229 0.999998 1.00299 0.999307
0.999016 1 1 0.999016
0.972843 0.98981 0.98339 0.999459
1.01171 0.998653 1.01363 0.999454
1.00288 1 1.00397 0.998911
1.00027 1 1.00133 0.998937
0.978402 0.980459 0.999033 0.998867
0.97413 0.978059 0.999235 0.996745
0.933935 0.942169 0.997953 0.993294
1.00176 0.999702 1.00259 0.999475
1.01179 0.999057 1.01331 0.999443
0.975847 0.979806 0.999138 0.996818
0.972907 0.968701 1.01509 0.989417
0.978358 0.975908 1.00697 0.995572
0.929609 0.95945 0.97871 0.989974
0.982738 0.983364 1.00275 0.996624
0.940158 0.990682 0.954868 0.993856
1.00427 0.998356 1.00625 0.999678
0.974044 0.978629 0.996692 0.998619
0.984293 0.987899 0.998915 0.997432
1.00635 0.990784 1.0158 0.999911
0.930152 0.976656 0.959732 0.992345
0.971055 0.969903 1.01194 0.989377
0.927489 0.955291 0.980671 0.990034
1.00745 0.995625 1.01211 0.999771
0.983898 0.988682 0.996171 0.998987
0.972972 0.97722 0.998658 0.996992
0.906499 0.955882 0.956869 0.991084
0.924172 0.960255 0.972017 0.990131
0.984265 0.979417 1.00569 0.999264
0.977977 0.96725 1.02307 0.988285
1.00026 1 1.00089 0.999369
1.00234 0.999319 1.00348 0.99955
1.0041 0.991952 1.01267 0.999582
0.999197 1 1 0.999197
1.00013 1 1.00089 0.999243
1.00188 1 1.00248 0.999397
0.999519 1 1.00029 0.999225
1.00061 0.999979 1.00114 0.999489
1.00559 0.998975 1.0073 0.999323
0.999231 1 1 0.999231
0.999182 1 1 0.999182
1.00009 1 1.00092 0.999175
1.00648 1 1.00767 0.998821
0.99916 1 1 0.99916
1.00074 1 1.00197 0.998766
1.00245 1 1.00413 0.998334
1.00005 1 1.00188 0.99818
0.999267 1 1.0004 0.998863
0.999503 1 1.00109 0.99841
0.999176 1 1.00053 0.998651
1.00023 1 1.00142 0.99881
0.999677 1 1.00107 0.998607
0.999171 1 1.00005 0.999123
0.999321 1 1.0004 0.998923
0.99964 1 1.00102 0.998625
0.999495 1 1 0.999495
0.9992 1 1 0.9992
0.999009 1 1.00001 0.998996
0.999328 1 1 0.999328
0.999569 1 1 0.999569
0.999915 1 1 0.999915
0.999615 1 1 0.999615
0.999926 1 1 0.999926
1 1 1 1
0.999932 1 1 0.999932
1 1 1 1
1 1 1 1
1 1 1 1
1 1 1 1
1 1 1 1
0.999537 1 1 0.999537
0.999871 1 1 0.999871
0.9996 1 1 0.9996
1 1 1 1
0.999908 1 1 0.999908
0.999683 1 1 0.999683
1 1 1 1
1 1 1 1
0.99993 1 1 0.99993
1 1 1 1
1 1 1 1
1 1 1 1
0.972524 0.976933 0.996879 0.998604
0.974701 0.979724 0.998452 0.996415
0.920053 0.941239 0.984838 0.99254
0.999344 1 1 0.999344
0.999307 1 1 0.999307
0.99922 1 1 0.99922
0.984089 0.988375 0.998711 0.996948
0.974083 0.97666 1.00037 0.996993
0.981023 0.984417 1.00203 0.994537
0.99385 0.994205 1.00304 0.996609
0.96076 0.966664 1.00482 0.989126
0.904059 0.943478 0.968022 0.989873
0.931985 0.978015 0.960287 0.992343
0.971758 0.976743 0.999278 0.995616
0.965438 0.964802 1.01169 0.989098
0.921498 0.950518 0.977895 0.991383
0.93627 0.985159 0.956744 0.993343
0.961578 0.970163 0.996156 0.994975
0.980237 0.971335 1.02011 0.989273
0.918022 0.939881 0.985449 0.991165
0.931042 0.974351 0.962006 0.99329
0.99906 1 1 0.99906
0.999063 1 1 0.999063
0.999146 1 1 0.999146
0.999192 1 1 0.999192
0.999249 1 1 0.999249
0.999408 1 1 0.999408
0.986558 1.00093 0.986536 0.99909
0.997411 1 0.998086 0.999324
0.998991 1 1 0.998991
1.00504 1 1.00623 0.998824
1.00302 1 1.00419 0.998843
0.999 1 1 0.999
1.00018 1 1.00124 0.998944
0.984084 0.993313 0.991246 0.999458
1.00419 1 1.00522 0.998978
1.00696 0.995578 1.01196 0.99948
0.99905 1 1 0.99905
1.00041 0.984716 1.01623 0.999708
0.993469 0.992059 1.00185 0.99957
1.00162 1 1.00253 0.999095
0.99138 0.992552 0.999502 0.999317
0.978023 0.980348 0.998634 0.998992
0.973562 0.977295 0.999379 0.9968
1.00488 0.998761 1.00648 0.999644
1.00162 0.992639 1.00937 0.999678
0.972518 0.978057 0.995699 0.998632
0.975347 0.968578 1.01489 0.99222
0.930441 0.953145 0.984663 0.991385
0.983477 0.9863 0.999228 0.997908
0.93354 0.979465 0.960447 0.992363
1.00657 0.995848 1.01098 0.999788
0.982378 0.988365 0.994845 0.999093
0.975276 0.978272 0.999927 0.99701
0.982544 0.975443 1.01015 0.997155
0.903056 0.954078 0.955333 0.990777
0.919161 0.954101 0.971923 0.991209
0.987869 0.972934 1.02642 0.989215
1.00677 0.981611 1.02581 0.999828
0.973493 0.977735 0.997031 0.998627
0.978593 0.985753 0.99809 0.994636
0.856888 0.910667 0.95028 0.990177
0.906194 0.950049 0.962754 0.99074
0.97969 0.972717 1.01821 0.989154
0.957392 0.970002 0.990748 0.996217
1.00113 0.998644 1.00296 0.999534
1.00765 0.994421 1.01372 0.999586
1.01901 0.998722 1.02079 0.999529
0.99922 1 1 0.99922
1.00098 0.999754 1.00174 0.999488
1.00575 0.999489 1.00691 0.999363
1.01641 1 1.01741 0.999013
1.00062 1 1.00147 0.999146
1.00662 1 1.00788 0.998751
1.0133 1 1.01509 0.998233
1.00027 1 1.00145 0.99883
1.00331 1 1.005 0.998317
1.00311 1 1.0052 0.997924
1.00056 1.0008 1.00191 0.997861
0.999509 1 1.00108 0.998433
1.00009 1.00005 1.00189 0.998153
0.999589 1 1.00123 0.998364
0.999811 1 1.00102 0.998791
0.99919 1 1.00048 0.998711
0.999984 1 1.00102 0.998963
1.00028 1 1.00145 0.998836
0.999567 1 1.00092 0.998645
0.999383 1 1 0.999383
0.99917 1 1.00005 0.999124
0.999313 1 1.00039 0.998919
0.999882 1 1 0.999882
0.999494 1 1 0.999494
0.999192 1 1 0.999192
0.999567 1 1 0.999567
0.999911 1 1 0.999911
1 1 1 1
0.999924 1 1 0.999924
1 1 1 1
1 1 1 1
1 1 1 1
1 1 1 1
1 1 1 1
0.999535 1 1 0.999535
0.99989 1 1 0.99989
0.999551 1 1 0.999551
1 1 1 1
0.999896 1 1 0.999896
0.999621 1 1 0.999621
1 1 1 1
1 1 1 1
0.999906 1 1 0.999906
1 1 1 1
1 1 1 1
1 1 1 1
0.98372 0.988376 0.996305 0.99898
0.97414 0.978415 0.997008 0.998619
0.97497 0.979449 0.998998 0.996426
0.999289 1 1 0.999289
0.999193 1 1 0.999193
0.999353 1 1 0.999353
0.999305 1 1 0.999305
0.999205 1 1 0.999205
0.99921 1 1 0.99921
0.99913 1 1 0.99913
0.974318 0.977482 1.00019 0.996578
0.982388 0.986122 0.998785 0.997425
0.976547 0.977664 1.00185 0.997013
0.939785 0.989937 0.955212 0.99385
0.963672 0.970557 0.998604 0.994294
0.971544 0.968344 1.01323 0.990208
0.925013 0.947775 0.985716 0.990127
0.960829 0.970479 0.995675 0.994357
0.970097 0.965914 1.01562 0.988881
0.929196 0.956002 0.98145 0.990331
0.923875 0.968652 0.960437 0.993063
0.955969 0.968469 0.991257 0.9958
0.970541 0.969388 1.01271 0.988624
0.938949 0.965083 0.981505 0.991254
0.905743 0.956805 0.954469 0.991791
0.999112 1 1 0.999112
0.999059 1 1 0.999059
0.999061 1 1 0.999061
0.999189 1 1 0.999189
0.99333 0.996475 0.997385 0.999458
1.00238 0.99295 1.01 0.999505
0.998983 1 1 0.998983
0.999817 1 1.00087 0.998951
1.00489 1 1.00585 0.999046
0.999046 1 1 0.999046
1.00232 1 1.00324 0.999082
0.996029 0.98317 1.01377 0.999316
0.994566 0.993335 1.00158 0.999657
0.999954 1 1.00081 0.999148
1.0023 0.980725 1.0227 0.999316
1.00418 0.996432 1.00843 0.999346
0.978464 0.980346 0.999187 0.998893
0.988614 0.990253 0.998937 0.999408
0.978481 0.980209 0.999118 0.999117
1.00598 0.996181 1.01003 0.999805
0.98448 0.975894 1.00953 0.999274
0.980828 0.98786 0.993677 0.9992
0.976095 0.967374 1.02077 0.988484
0.922909 0.950479 0.980866 0.989935
0.977975 0.979338 1.00158 0.997029
0.897451 0.949438 0.954185 0.99063
1.01213 0.984117 1.02863 0.999842
0.973931 0.978599 0.996583 0.998642
0.980536 0.985883 0.999963 0.994614
0.960709 0.971694 0.990592 0.998084
0.848835 0.908245 0.944623 0.989376
0.908706 0.949458 0.966385 0.990369
0.980223 0.970306 1.02109 0.989357
0.999241 0.983647 1.01636 0.999505
0.975506 0.980599 0.998335 0.996465
0.911486 0.935913 0.982145 0.991606
0.873218 0.919995 0.958046 0.990721
0.969415 0.964729 1.01569 0.989334
0.949557 0.967463 0.986527 0.994896
1.01232 0.997892 1.01487 0.99959
1.01888 0.997258 1.02217 0.999522
1.01329 1 1.01392 0.999386
1.00588 1 1.00648 0.999404
1.01609 0.999679 1.01737 0.999067
1.00988 1.00001 1.01146 0.998433
1.00696 1 1.00829 0.998681
1.01266 1 1.0145 0.998191
1.00679 1.00017 1.00878 0.997855
1.00414 1 1.00585 0.998301
1.00335 1 1.00548 0.997883
1.00294 1.00172 1.00349 0.997734
1.001 1.00315 1 0.997851
0.999522 1.00072 1.00077 0.998042
1.00081 1.00082 1.00218 0.997815
0.99875 1 1.00013 0.998624
0.999212 1 1.00074 0.998471
1.00009 1.00007 1.0019 0.998126
0.999755 1 1.00093 0.998828
0.999833 1 1.00105 0.998784
0.999195 1 1.00043 0.99877
0.999225 1 1 0.999225
0.999845 1 1.00086 0.998989
1.00032 1 1.00146 0.998863
0.999801 1 1 0.999801
0.999383 1 1 0.999383
0.999165 1 1.00004 0.999126
1 1 1 1
0.999877 1 1 0.999877
0.999493 1 1 0.999493
0.999907 1 1 0.999907
1 1 1 1
1 1 1 1
1 1 1 1
1 1 1 1
1 1 1 1
0.999285 1 1 0.999285
0.9995 1 1 0.9995
0.999864 1 1 0.999864
0.999534 1 1 0.999534
1 1 1 1
0.999893 1 1 0.999893
0.999565 1 1 0.999565
1 1 1 1
1 1 1 1
0.999922 1 1 0.999922
1 1 1 1
1 1 1 1
1 1 1 1
0.974264 0.978612 0.996934 0.998619
0.982083 0.987999 0.994919 0.999088
0.974316 0.979898 0.995664 0.998633
0.999298 1 1 0.999298
0.99918 1 1 0.99918
0.999121 1 1 0.999121
0.999181 1 1 0.999181
0.999109 1 1 0.999109
0.999303 1 1 0.999303
0.999189 1 1 0.999189
0.99921 1 1 0.99921
0.999125 1 1 0.999125
0.999159 1 1 0.999159
0.974168 0.979505 0.999902 0.994648
0.977656 0.979973 1.00105 0.996594
0.980079 0.983623 0.998492 0.997902
0.920647 0.96634 0.959297 0.993138
0.929322 0.950682 0.985924 0.991489
0.952604 0.964924 0.993566 0.993625
0.976942 0.973333 1.01473 0.989137
0.957542 0.969319 0.993655 0.994157
0.983101 0.977248 1.01712 0.989061
0.926792 0.958086 0.976278 0.990842
0.905789 0.957636 0.954092 0.991371
0.975837 0.976229 1.00457 0.995048
0.972456 0.971847 1.01134 0.989403
0.898217 0.941349 0.96407 0.989741
0.869821 0.928694 0.946018 0.990052
0.999364 1 1 0.999364
0.999115 1 1 0.999115
0.999059 1 1 0.999059
0.992476 0.981154 1.01263 0.998922
0.994713 0.993491 1.00148 0.999748
0.999041 1 1 0.999041
1.00355 1 1.00449 0.999068
1.00014 1 1.00099 0.999155
1.0046 0.997396 1.00789 0.999338
1.00009 0.979454 1.02174 0.999343
1.00497 1 1.00561 0.99937
1.00188 0.987752 1.01521 0.999105
0.975412 0.97998 0.99869 0.996645
0.977512 0.979802 0.998645 0.999017
0.985265 0.987927 0.997807 0.999498
1.01616 0.985454 1.03131 0.999851
0.962428 0.974255 0.992238 0.995589
0.973586 0.979481 0.995318 0.998656
0.975056 0.971822 1.01605 0.987483
0.904623 0.943554 0.968542 0.98988
0.981941 0.986076 1.00122 0.994593
0.842314 0.907248 0.939159 0.988573
0.997846 0.9824 1.01615 0.999576
0.976286 0.98116 0.998556 0.996471
0.902662 0.929811 0.97938 0.991241
0.950578 0.969069 0.985056 0.9958
0.879748 0.924907 0.961147 0.989624
0.959738 0.962562 1.00867 0.988499
0.978808 0.983752 0.996002 0.998968
0.929831 0.942771 0.99326 0.992967
0.87813 0.917215 0.96727 0.989783
0.971055 0.971805 1.01019 0.989154
0.960798 0.970516 0.993979 0.995983
1.0178 0.995536 1.02286 0.999515
1.01514 0.99968 1.01611 0.999369
0.993218 1.00001 0.994269 0.998936
1.01554 0.999361 1.01708 0.99912
1.01036 1.00031 1.01155 0.998505
1.00246 1.0016 1.00272 0.998146
1.01177 1 1.01365 0.998148
1.00553 1.00031 1.00737 0.997865
0.999447 1.00147 1.00003 0.997951
1.00342 1 1.00559 0.997842
1.00315 1.00269 1.00271 0.997749
1.0042 1.00624 1 0.997971
1.00501 1.00695 1 0.998073
1.00105 1.00313 1.00002 0.99791
1.0011 1.00325 1 0.997863
0.998553 1.00026 1 0.998289
0.999477 1.0004 1.00107 0.998
1.00107 1.00087 1.00244 0.997769
0.998768 1 1 0.998768
0.998694 1 1.00002 0.99867
0.998826 1 1.00032 0.998508
0.999065 1 1 0.999065
0.999841 1 1.001 0.998842
0.99987 1 1.0011 0.998776
0.999654 1 1 0.999654
0.999291 1 1.00007 0.999225
0.999729 1 1.00072 0.999014
1 1 1 1
0.999797 1 1 0.999797
0.999384 1 1 0.999384
1 1 1 1
1 1 1 1
0.999872 1 1 0.999872
1 1 1 1
1 1 1 1
1 1 1 1
0.999217 1 1 0.999217
0.999457 1 1 0.999457
0.999275 1 1 0.999275
0.999845 1 1 0.999845
0.9995 1 1 0.9995
1 1 1 1
0.999867 1 1 0.999867
0.999533 1 1 0.999533
1 1 1 1
1 1 1 1
0.999897 1 1 0.999897
1 1 1 1
1 1 1 1
1 1 1 1
0.977674 0.982145 0.998591 0.996852
0.973091 0.977905 0.996439 0.998634
0.980947 0.987521 0.994142 0.999196
0.999112 1 1 0.999112
0.999306 1 1 0.999306
0.999167 1 1 0.999167
0.999194 1 1 0.999194
0.999134 1 1 0.999134
0.999104 1 1 0.999104
0.99904 1 1 0.99904
0.999089 1 1 0.999089
0.999211 1 1 0.999211
0.99912 1 1 0.99912
0.999153 1 1 0.999153
0.999206 1 1 0.999206
0.903474 0.93275 0.977584 0.990823
0.976441 0.981146 1.00059 0.99462
0.979987 0.981434 1.00192 0.996609
0.901167 0.955407 0.95167 0.991129
0.933787 0.963999 0.978108 0.99034
0.971134 0.968946 1.01374 0.988673
0.959381 0.96825 0.995702 0.995116
0.975832 0.975427 1.00394 0.996487
0.856812 0.91852 0.942919 0.989286
0.974979 0.970649 1.0163 0.98835
0.902974 0.946648 0.962792 0.990727
0.970034 0.976437 0.996651 0.996781
0.965903 0.963799 1.01241 0.989895
0.875847 0.923129 0.957941 0.990436
1.00005 1 1.00041 0.999639
0.999366 1 1 0.999366
0.999117 1 1 0.999117
1.00087 0.981422 1.02047 0.999364
1.00576 0.99918 1.00726 0.99933
1.00013 1 1.00096 0.999163
1.00487 1 1.00551 0.99937
1.00056 0.987959 1.01362 0.999145
1.00429 0.995591 1.00939 0.999354
0.926124 0.941836 0.991104 0.992144
0.975363 0.979299 0.99881 0.997168
0.97686 0.979188 0.998481 0.999141
0.99639 0.980864 1.01619 0.999646
0.949974 0.971074 0.981741 0.996466
0.977233 0.981694 0.998972 0.99648
0.967196 0.965296 1.01189 0.990197
0.887702 0.934513 0.959131 0.990384
0.89509 0.928415 0.972838 0.991023
0.978281 0.98451 0.994649 0.99902
0.920664 0.940885 0.985802 0.992602
0.891765 0.922022 0.976251 0.990712
0.960427 0.968098 0.997731 0.994332
0.960557 0.968453 1.00222 0.98965
0.968295 0.99038 0.97836 0.999326
0.901518 0.931532 0.97665 0.990918
0.963011 0.973817 0.998779 0.990112
0.974243 0.982454 0.997506 0.994122
1.01783 0.999358 1.01914 0.999353
0.989658 1.00001 0.990637 0.999006
0.982175 1.00188 0.981634 0.99867
1.01116 1.00054 1.01206 0.998577
1.00291 1.00187 1.0029 0.99814
1.00069 1.00294 0.999428 0.998331
1.00466 1.00048 1.00631 0.997875
0.999513 1.00108 1.00047 0.997965
1.00685 1.00854 1 0.998322
1.00346 1.00369 1.00201 0.997764
1.00403 1.00606 1 0.997976
1.00924 1.01092 1 0.99834
1.00966 1.01134 1 0.998337
1.00443 1.0064 1 0.998047
1.00514 1.00706 1 0.998092
1.00045 1.00235 1 0.998106
1.00107 1.00314 1 0.997943
1.00119 1.00332 1 0.997875
0.998585 1 1 0.998585
0.998982 1.00055 1.00014 0.9983
0.999616 1.00018 1.00148 0.997958
0.998957 1 1 0.998957
0.998763 1 1 0.998763
0.998716 1 1 0.998716
0.999478 1 1 0.999478
0.999126 1 1.00006 0.999068
0.99991 1 1.00106 0.998856
0.999998 1 1 0.999998
0.999651 1 1 0.999651
0.999343 1 1.00012 0.999226
1 1 1 1
1 1 1 1
0.999793 1 1 0.999793
1 1 1 1
1 1 1 1
1 1 1 1
0.999195 1 1 0.999195
0.999219 1 1 0.999219
0.999397 1 1 0.999397
0.999822 1 1 0.999822
0.999457 1 1 0.999457
0.999264 1 1 0.999264
1 1 1 1
0.999847 1 1 0.999847
0.9995 1 1 0.9995
1 1 1 1
1 1 1 1
0.99987 1 1 0.99987
1 1 1 1
1 1 1 1
1 1 1 1
0.923569 0.938047 0.992355 0.99215
0.976694 0.98113 0.998608 0.996866
0.97224 0.977558 0.995906 0.998648
0.9991 1 1 0.9991
0.999057 1 1 0.999057
0.999037 1 1 0.999037
0.999207 1 1 0.999207
0.999147 1 1 0.999147
0.999099 1 1 0.999099
0.999087 1 1 0.999087
0.999038 1 1 0.999038
0.998966 1 1 0.998966
0.999188 1 1 0.999188
0.999146 1 1 0.999146
0.999204 1 1 0.999204
0.889512 0.920689 0.975326 0.990579
0.900082 0.92846 0.9787 0.990533
0.979215 0.983253 1.00131 0.994595
0.843055 0.906679 0.940627 0.988519
0.902175 0.943723 0.965915 0.989709
0.979584 0.975447 1.01381 0.990567
0.977438 0.973086 1.00966 0.994862
0.966453 0.972768 0.99821 0.99529
0.876289 0.918333 0.964374 0.989467
0.96 0.961597 1.00846 0.989966
0.966992 0.973665 0.997416 0.995721
0.961747 0.97092 1.00112 0.989445
1.00736 1 1.00819 0.999176
0.999869 1 1.00027 0.999603
0.999368 1 1 0.999368
0.996289 0.985208 1.01207 0.999184
1.00496 1 1.00559 0.999372
1.00505 0.996643 1.00918 0.999262
0.9988 1.00067 0.99949 0.99864
0.898299 0.937331 0.967309 0.990747
0.930196 0.942422 0.994272 0.992712
0.976035 0.979216 0.99906 0.997689
0.976731 0.985125 0.992383 0.999089
0.960006 0.967766 0.996701 0.995265
0.921128 0.941734 0.985364 0.992647
0.962171 0.96726 1.00557 0.98923
0.893814 0.927552 0.973412 0.989947
0.971731 0.991 0.981516 0.999022
0.903793 0.934683 0.97636 0.990363
0.965703 0.97547 1.00059 0.989402
0.977415 0.980784 1.00106 0.995508
0.985737 0.997902 0.988681 0.999118
0.959347 0.977119 0.992569 0.989162
0.983275 0.990369 0.996473 0.996351
0.986035 1 0.986946 0.999076
0.982964 1.0022 0.982134 0.998651
0.98337 1.00489 0.979979 0.998578
1.00308 1.00222 1.00273 0.998134
1.00025 1.00328 0.998648 0.998326
1.00751 1.01162 0.997227 0.998699
0.999342 1.00062 1.00074 0.99798
1.00679 1.00849 1 0.998317
1.01383 1.01521 1 0.998642
1.0038 1.00584 1 0.99798
1.00873 1.01041 1 0.99834
1.01151 1.01296 1 0.998567
1.00957 1.0111 1 0.998486
1.00948 1.01113 1 0.998368
1.00785 1.00959 1 0.998275
1.00396 1.00583 1 0.998136
1.00483 1.00679 1 0.99805
1.00528 1.00718 1 0.998111
0.998934 1.0006 1 0.998338
1.00078 1.00264 1 0.998138
1.00104 1.00307 1 0.997976
0.99883 1 1 0.99883
0.998641 1.00006 1 0.998579
0.999225 1.00074 1.00017 0.998311
0.999346 1 1 0.999346
0.998957 1 1 0.998957
0.998759 1 1 0.998759
0.999979 1 1 0.999979
0.999478 1 1 0.999478
0.999202 1 1.00013 0.99907
1 1 1 1
0.999994 1 1 0.999994
0.999647 1 1 0.999647
1 1 1 1
1 1 1 1
1 1 1 1
0.999126 1 1 0.999126
0.999182 1 1 0.999182
0.999332 1 1 0.999332
0.999221 1 1 0.999221
0.999397 1 1 0.999397
0.999778 1 1 0.999778
1 1 1 1
0.999824 1 1 0.999824
0.999457 1 1 0.999457
1 1 1 1
1 1 1 1
0.999849 1 1 0.999849
1 1 1 1
1 1 1 1
1 1 1 1
0.908792 0.934135 0.982327 0.990374
0.923513 0.940059 0.990484 0.991838
0.974998 0.979359 0.998662 0.99688
0.999088 1 1 0.999088
0.999016 1 1 0.999016
0.999078 1 1 0.999078
0.998945 1 1 0.998945
0.998979 1 1 0.998979
0.999084 1 1 0.999084
0.999036 1 1 0.999036
0.998979 1 1 0.998979
0.99889 1 1 0.99889
0.999031 1 1 0.999031
0.998964 1.0002 1.00026 0.998509
0.999313 1 1.00009 0.999219
0.999202 1 1 0.999202
0.961666 0.978007 0.994405 0.988823
0.893366 0.921294 0.979171 0.990314
0.901711 0.931274 0.977641 0.990401
0.876088 0.918248 0.963532 0.990196
0.966177 0.96413 1.01413 0.988159
0.968657 0.971417 1.00026 0.996897
0.969452 0.975683 0.996972 0.99663
0.963855 0.972358 1.00117 0.990096
0.981773 0.993873 0.992159 0.995632
1.00309 1.00132 1.00337 0.998405
1.00581 1 1.00666 0.999157
0.999566 1 1 0.999566
1.00557 0.998372 1.00804 0.999179
0.999126 1.00101 0.999545 0.99857
0.948704 0.973881 0.983947 0.990041
0.905072 0.937204 0.975147 0.990328
0.934618 0.943021 0.997787 0.993287
0.975042 0.991759 0.984416 0.998708
0.972392 0.975721 1.00242 0.994183
0.904476 0.933122 0.978976 0.990117
0.967367 0.974699 1.00246 0.99004
0.98409 0.998477 0.98647 0.999109
0.960615 0.977808 0.992033 0.990306
0.984682 0.991885 0.997821 0.994906
1.00075 1.00555 0.99659 0.998632
0.990894 0.996936 0.996429 0.997502
0.983598 1.00266 0.982333 0.998632
0.985536 1.00441 0.982649 0.998533
1.00342 1.01949 0.985587 0.998628
1.00002 1.00358 0.998123 0.998321
1.00635 1.0105 0.997193 0.998691
1.01379 1.01886 0.996222 0.998799
1.00669 1.00839 1 0.998312
1.0139 1.01542 0.999877 0.998628
1.01431 1.01571 0.999933 0.998689
1.00829 1.00996 1 0.99834
1.01159 1.01305 1 0.998554
1.00978 1.01124 1 0.998555
1.00993 1.01143 1 0.998519
1.00847 1.01011 1 0.998379
1.00934 1.01096 1 0.998398
1.0077 1.00945 1 0.99827
1.00495 1.00672 1 0.998233
1.00035 1.0021 1 0.998256
1.00378 1.00566 1 0.998129
1.00516 1.00712 1 0.998053
0.998658 1 1 0.998658
0.99908 1.00072 1 0.998358
1.0012 1.00304 1 0.99817
0.999239 1 1 0.999239
0.998825 1 1 0.998825
0.998726 1.00015 1 0.998573
0.999929 1 1 0.999929
0.999347 1 1 0.999347
0.998957 1 1 0.998957
1 1 1 1
0.999967 1 1 0.999967
0.999478 1 1 0.999478
1 1 1 1
0.99999 1 1 0.99999
1 1 1 1
0.998975 1 1 0.998975
0.999126 1 1 0.999126
0.999226 1 1 0.999226
0.99917 1 1 0.99917
0.999314 1 1 0.999314
0.99969 1 1 0.99969
0.999397 1 1 0.999397
0.99978 1 1 0.99978
1 1 1 1
1 1 1 1
1 1 1 1
0.999826 1 1 0.999826
1 1 1 1
1 1 1 1
1 1 1 1
0.962354 0.978439 0.99317 0.990324
0.902586 0.936456 0.972744 0.990838
0.930936 0.944262 0.993963 0.991876
0.998995 1 1 0.998995
0.9991 1 1 0.9991
0.998989 1 1 0.998989
0.998952 1 1 0.998952
0.998787 1 1.00002 0.998765
0.99894 1 1 0.99894
0.998991 1 1 0.998991
0.998837 1 1 0.998837
0.9991 1 1.0001 0.999
0.998742 1 1 0.998742
1.00073 1.00213 1 0.998595
0.999054 1.00109 0.999919 0.998045
0.999325 1.00069 1.00006 0.998575
0.99945 1 1.0002 0.999251
0.979712 0.991373 0.992402 0.995803
0.96228 0.977062 0.995115 0.989706
0.888005 0.922267 0.972647 0.989928
0.972868 0.976072 1.00758 0.989221
0.967885 0.976899 0.993384 0.997372
0.986448 0.995359 0.993785 0.997245
0.994892 1.00426 0.992092 0.99857
1.00058 1.00067 1.00142 0.998495
1.00476 1 1.00563 0.999138
0.997579 1.00112 0.99797 0.998489
0.977374 0.985855 0.9957 0.995679
0.955562 0.974104 0.990056 0.990818
0.900094 0.934524 0.971829 0.991076
0.984617 1.00005 0.985462 0.999097
0.990727 0.993208 1.00151 0.996
0.961772 0.978532 0.991313 0.991485
0.994815 1.00457 0.991636 0.998641
0.988784 0.996187 0.995607 0.996948
1.00839 1.02103 0.989205 0.998398
1.00747 1.01457 0.994677 0.998318
0.987607 1.00381 0.985351 0.998488
1.00479 1.01955 0.986883 0.998621
1.0102 1.02259 0.989232 0.99863
1.0053 1.00965 0.997009 0.998683
1.01371 1.01844 0.996565 0.998788
1.01254 1.01648 0.997507 0.998613
1.01407 1.01573 0.999756 0.998614
1.01392 1.01543 0.999841 0.998676
1.01123 1.01283 0.999938 0.998483
1.0116 1.01308 1 0.998542
1.00942 1.01087 1 0.998558
1.00922 1.01088 1 0.99836
1.01027 1.01173 1 0.998551
1.00818 1.0098 1 0.998401
1.00536 1.00711 1 0.998265
1.00759 1.00934 1 0.998265
1.00487 1.00666 1 0.998227
1.00069 1.0024 1 0.998298
0.998504 1 1 0.998504
1.0003 1.00203 1 0.998275
1.0036 1.00549 1 0.998122
0.999104 1 1 0.999104
0.998658 1 1 0.998658
0.99922 1.00084 1 0.998379
0.999857 1 1 0.999857
0.999237 1 1 0.999237
0.998821 1 1 0.998821
1 1 1 1
0.999916 1 1 0.999916
0.999348 1 1 0.999348
1 1 1 1
0.999955 1 1 0.999955
1 1 1 1
0.998812 1 1 0.998812
0.998987 1 1 0.998987
0.999112 1 1 0.999112
0.999127 1 1 0.999127
0.999213 1 1 0.999213
0.999567 1 1 0.999567
0.999296 1 1 0.999296
0.999691 1 1 0.999691
0.999997 1 1 0.999997
0.999781 1 1 0.999781
1 1 1 1
1 1 1 1
1 1 1 1
1 1 1 1
1 1 1 1
0.97449 0.986272 0.992028 0.995994
0.956904 0.976555 0.989899 0.989876
0.898662 0.934068 0.971677 0.99014
0.999469 1.00086 1.00007 0.998541
0.998999 1 1 0.998999
0.99896 1 1 0.99896
0.998929 1 1 0.998929
0.998877 1 1.00012 0.998755
0.999027 1.00012 1 0.99891
0.998783 1 1 0.998783
0.999156 1 1.00019 0.998969
0.998783 1 1 0.998783
1.00004 1.00145 1 0.998591
1.00108 1.00296 1 0.998126
1.00364 1.0058 0.999965 0.997884
1.00001 1.00187 1.00013 0.99801
0.999945 1.00131 1 0.99864
0.999689 1.00618 0.994574 0.998967
0.980412 0.992647 0.992502 0.995136
0.965228 0.977883 0.996255 0.99077
0.983138 0.992826 0.994228 0.995991
0.999437 1.00621 0.994505 0.998761
1.00015 1.0002 1.00136 0.998587
1.00282 1.00668 0.997694 0.99847
0.976643 0.984128 0.995625 0.996755
0.952573 0.975141 0.986619 0.990106
0.98815 1.00285 0.986678 0.998647
0.988661 0.996209 0.996102 0.996308
1.00799 1.02163 0.988216 0.998406
1.00692 1.01273 0.995844 0.998416
1.01492 1.02572 0.991079 0.998374
1.01463 1.01846 0.997917 0.998317
1.0063 1.01954 0.988386 0.998613
1.01197 1.02357 0.990008 0.998638
1.00724 1.01549 0.99339 0.99848
1.01354 1.01783 0.997002 0.998777
1.01375 1.01727 0.997926 0.99861
1.01129 1.01367 0.99929 0.998361
1.01357 1.01517 0.999756 0.998663
1.01136 1.01292 0.999967 0.9985
1.01059 1.01237 1 0.998246
1.00908 1.01053 1 0.998562
1.00879 1.01045 1 0.99836
1.00722 1.00902 1 0.998214
1.0079 1.00949 1 0.998424
1.00547 1.00721 1 0.998274
1.00089 1.00264 1 0.998256
1.00479 1.00658 1 0.99822
1.0007 1.00242 1 0.998282
0.998513 1.00004 1 0.998471
0.998981 1 1 0.998981
0.998527 1 1 0.998527
1.00025 1.00196 1 0.998294
0.99977 1 1 0.99977
0.999103 1 1 0.999103
0.998657 1 1 0.998657
1 1 1 1
0.999846 1 1 0.999846
0.999236 1 1 0.999236
1 1 1 1
0.999902 1 1 0.999902
1 1 1 1
0.99859 1 1 0.998586
0.998815 1 1 0.998815
0.998982 1 1 0.998982
0.998999 1 1 0.998999
0.999119 1 1 0.999119
0.999447 1 1 0.999447
0.9992 1 1 0.9992
0.999567 1 1 0.999567
0.999983 1 1 0.999983
0.999693 1 1 0.999693
0.999998 1 1 0.999998
1 1 1 1
1 1 1 1
1 1 1 1
1 1 1 1
1.00497 1.01033 0.995717 0.998972
0.973988 0.986856 0.992234 0.994685
0.960808 0.974913 0.994976 0.990508
1.00058 1.00193 1.00001 0.998637
1.0022 1.00393 1 0.998271
0.999184 1.00048 1.00013 0.998572
0.998917 1 1 0.998917
0.998988 1 1.00024 0.998744
0.999195 1.00032 1 0.998867
1.00243 1.00417 1 0.998261
0.998825 1 1 0.998825
0.999191 1.00061 1 0.998586
1.0012 1.00304 1 0.998168
1.00601 1.00822 1 0.997808
1.01176 1.01476 0.998846 0.998202
1.00286 1.00517 0.999826 0.997875
1.00057 1.0026 1 0.997975
1.00288 1.00887 0.995015 0.999038
0.979168 0.991822 0.992873 0.994328
1.00144 1.00759 0.994939 0.998955
1.01395 1.01679 0.998435 0.99877
1.00183 1.00539 0.99792 0.998533
0.97425 0.984676 0.994046 0.995337
1.00749 1.02235 0.987034 0.998414
1.00581 1.01094 0.9964 0.998516
1.0136 1.02573 0.989739 0.998417
1.01685 1.02023 0.99835 0.998332
1.0114 1.0188 0.994368 0.998356
1.02131 1.02415 0.998774 0.998455
1.01338 1.02469 0.9903 0.998645
1.00728 1.01519 0.993714 0.998485
1.01351 1.01792 0.997392 0.998271
1.01488 1.01801 0.998311 0.998608
1.01145 1.0136 0.999517 0.998361
1.01273 1.01459 1 0.998168
1.01144 1.01295 0.999989 0.998517
1.0103 1.01207 1 0.998245
1.01009 1.012 1 0.998114
1.00836 1.01002 1 0.998361
1.00725 1.00905 1 0.998214
1.00181 1.00363 1 0.998189
1.00557 1.0073 1 0.998284
1.00102 1.00276 1 0.998258
0.998521 1.00011 1 0.998416
1.0007 1.00244 1 0.998265
0.998496 1.00004 1 0.998461
0.998903 1 1 0.998903
0.999697 1 1 0.999697
0.998981 1 1 0.998981
0.998549 1 1 0.998549
1 1 1 1
0.99976 1 1 0.99976
0.999102 1 1 0.999102
1 1 1 1
0.999835 1 1 0.999835
1 1 1 1
0.998884 1.00055 1 0.998339
0.998562 1 1 0.998562
0.998783 1 1 0.998783
0.998819 1 1 0.998819
0.998985 1 1 0.998985
0.99933 1 1 0.99933
0.999126 1 1 0.999126
0.999446 1 1 0.999446
0.999945 1 1 0.999945
0.999567 1 1 0.999567
0.999988 1 1 0.999988
1 1 1 1
0.999999 1 1 0.999999
1 1 1 1
1 1 1 1
1.01255 1.01678 0.997249 0.99858
1.00311 1.0094 0.99498 0.99878
0.972896 0.986033 0.991165 0.995471
1.00549 1.00725 1 0.998253
0.999845 1.00105 1 0.998794
1.00893 1.01085 1 0.9981
1.00201 1.00376 1 0.998256
0.998881 1.0001 1.00018 0.998604
1.01186 1.014 1 0.99789
0.999358 1.00053 1 0.998825
1.0025 1.0043 1 0.998212
1.01602 1.01809 1 0.997964
1.00127 1.00306 1 0.998211
1.00658 1.00882 1 0.997784
1.0106 1.01329 0.999133 0.998209
1.00176 1.0039 1 0.997866
1.00543 1.01086 0.99552 0.999113
1.02141 1.02331 0.999598 0.998543
1.01369 1.01663 0.998335 0.998769
1.00116 1.00409 0.998483 0.998593
1.0124 1.02576 0.988499 0.998461
1.01845 1.02154 0.998626 0.998347
1.01178 1.0193 0.994243 0.998368
1.02199 1.0252 0.99841 0.998463
1.02152 1.0248 0.998437 0.998356
1.00736 1.01481 0.994164 0.99849
1.01371 1.01762 0.997886 0.998278
1.01596 1.01849 0.999359 0.998151
1.01163 1.01357 0.999727 0.998361
1.01222 1.0141 1 0.998155
1.01266 1.01466 1 0.998029
1.01002 1.0118 1 0.998244
1.00991 1.01182 1 0.998113
1.0038 1.00571 1 0.998094
1.00728 1.00908 1 0.998214
1.00208 1.00389 1 0.998189
0.998622 1.00029 1 0.998329
1.00115 1.00289 1 0.998259
0.998548 1.00013 1 0.998417
0.998832 1 1 0.998832
0.998481 1.00003 1 0.998452
0.998902 1 1 0.998902
0.999697 1 1 0.999697
0.999932 1 1 0.999932
0.999706 1 1 0.999706
0.998981 1 1 0.998981
1 1 1 1
0.999749 1 1 0.999749
1 1 1 1
1.0112 1.01308 1 0.998143
1.00161 1.00338 1 0.998243
0.998614 1.0003 1 0.998318
0.998642 1.00003 1 0.998608
0.998538 1 1 0.998538
0.998788 1 1 0.998788
0.999202 1 1 0.999202
0.998989 1 1 0.998989
0.999332 1 1 0.999332
0.999883 1 1 0.999883
0.999446 1 1 0.999446
0.999957 1 1 0.999957
1 1 1 1
0.999993 1 1 0.999993
1 1 1 1
1 1 1 1
1.02121 1.02306 0.999878 0.998314
1.01645 1.02025 0.997613 0.998659
1.00272 1.00962 0.994575 0.998586
1.01382 1.01588 1 0.997965
1.00455 1.00623 1 0.998333
0.999102 1.00015 1 0.998948
1.00937 1.01126 1 0.998124
1.00182 1.00359 1 0.998241
1.01903 1.02113 1 0.99794
1.01117 1.01335 1 0.997856
1.00271 1.00456 1 0.998163
1.01603 1.01811 1 0.997957
1.00814 1.0104 1 0.99776
1.01159 1.01419 0.999218 0.998217
1.02394 1.02591 0.99964 0.998441
1.02254 1.02433 0.999709 0.998543
1.01415 1.01679 0.998639 0.998769
1.01254 1.02018 0.994128 0.99838
1.02304 1.02647 0.998189 0.998471
1.02144 1.02537 0.997795 0.998372
1.02109 1.02293 1 0.998197
1.01396 1.01731 0.998426 0.998284
1.01604 1.01824 0.999699 0.998145
1.01498 1.01701 1 0.998011
1.01171 1.0136 1 0.998141
1.01271 1.01471 1 0.998029
1.00651 1.00851 1 0.998012
1.00972 1.01163 1 0.998111
1.00405 1.00596 1 0.998094
0.999031 1.0008 1 0.998233
1.00233 1.00415 1 0.998189
0.998738 1.00041 1 0.998329
0.998744 1 1 0.998744
0.998574 1.00016 1 0.998419
0.998831 1 1 0.998831
0.999687 1 1 0.999687
0.998901 1 1 0.998901
0.999693 1 1 0.999693
0.999932 1 1 0.999932
0.999967 1 1 0.999967
0.999716 1 1 0.999716
1 1 1 1
1.01376 1.01581 1 0.99798
1.00287 1.00463 1 0.998247
1.0108 1.01259 1 0.998232
0.998617 1.00015 1 0.99847
1.00201 1.00378 1 0.99824
0.998335 1.00004 1 0.998297
0.998627 1.00002 1 0.998608
0.999058 1 1 0.999058
0.998793 1 1 0.998793
0.999204 1 1 0.999204
0.999806 1 1 0.999806
0.999334 1 1 0.999334
0.999898 1 1 0.999898
1 1 1 1
0.99997 1 1 0.99997
1 1 1 1
1 1 1 1
1.02143 1.02328 1 0.998192
1.02028 1.02216 0.999843 0.998312
1.01829 1.02186 0.997777 0.998735
1.01831 1.02043 1 0.997924
1.01333 1.0154 1 0.997969
1.0036 1.00519 1 0.998413
1.00977 1.01164 1 0.998148
1.01874 1.02085 1 0.997928
1.01026 1.01246 1 0.997823
1.01405 1.01614 1 0.99795
1.02288 1.02467 1 0.99826
1.02357 1.02557 0.99965 0.998405
1.02352 1.02531 0.999718 0.998544
1.02 1.02192 1 0.998122
1.02126 1.02589 0.997088 0.998387
1.02082 1.02289 0.999787 0.998195
1.01697 1.01895 1 0.998062
1.01612 1.01801 1 0.998139
1.0151 1.01712 1 0.998014
1.00922 1.01128 1 0.997965
1.01275 1.01475 1 0.998029
1.00651 1.00851 1 0.998013
0.999902 1.00175 1 0.998151
1.00428 1.0062 1 0.998093
0.999276 1.00104 1 0.998233
0.998654 1 1 0.998654
0.998856 1.00053 1 0.998329
0.998742 1 1 0.998742
0.999669 1 1 0.999669
0.998829 1 1 0.998829
0.999682 1 1 0.999682
0.999934 1 1 0.999934
0.999689 1 1 0.999689
0.999934 1 1 0.999934
1 1 1 1
1.01451 1.01666 1 0.997882
1.0058 1.00776 1 0.998057
1.01405 1.01607 1 0.998007
0.99874 1.00032 1 0.998422
1.00281 1.00458 1 0.998245
1.01044 1.01214 1 0.998321
0.998906 1 1 0.998906
0.998634 1.00017 1 0.998467
1.00244 1.00421 1 0.998237
0.998622 1.00001 1 0.998608
0.99906 1 1 0.99906
0.999723 1 1 0.999723
0.999206 1 1 0.999206
0.999817 1 1 0.999817
1 1 1 1
0.999914 1 1 0.999914
1 1 1 1
1 1 1 1
1.0206 1.02256 1 0.998085
1.02179 1.02365 1 0.998176
1.02064 1.02253 0.999847 0.99831
1.01784 1.01996 1 0.997927
1.01289 1.01495 1 0.997973
1.01877 1.02089 1 0.997917
1.0197 1.02162 1 0.998124
1.02277 1.02456 1 0.998253
1.02296 1.02498 0.999659 0.998369
1.02015 1.02206 1 0.998133
1.0169 1.01891 1 0.99803
1.02052 1.02277 0.999601 0.998192
1.01681 1.0188 1 0.998046
1.01122 1.01327 1 0.997976
1.01518 1.0172 1 0.998016
1.00898 1.01104 1 0.997968
1.00125 1.00318 1 0.998081
1.00655 1.00856 1 0.998014
1.00031 1.00217 1 0.99815
0.998583 1 1 0.998583
0.999528 1.0013 1 0.998233
0.998652 1 1 0.998652
0.999636 1 1 0.999636
0.99874 1 1 0.99874
0.999661 1 1 0.999661
0.999926 1 1 0.999926
0.999677 1 1 0.999677
0.999938 1 1 0.999938
0.999934 1 1 0.999934
1.01644 1.01847 1 0.998007
1.00804 1.01013 1 0.997923
1.01476 1.01691 1 0.997885
0.999764 1.00151 1 0.998261
1.00561 1.00756 1 0.998067
1.01426 1.01626 1 0.998035
0.998785 1 1 0.998785
0.998638 1.00026 1 0.998383
1.00274 1.00451 1 0.998242
0.999655 1 1 0.999655
0.998908 1 1 0.998908
0.998634 1.00017 1 0.998463
0.999061 1 1 0.999061
0.999732 1 1 0.999732
1 1 1 1
0.999829 1 1 0.999829
1 1 1 1
1 1 1 1
1.0181 1.02009 1 0.998054
1.02029 1.02224 1 0.998084
1.02199 1.02387 1 0.998159
1.01739 1.0195 1 0.997929
1.01752 1.01956 1 0.998
1.02016 1.02207 1 0.998131
1.02269 1.02448 1 0.998246
1.0203 1.0222 1 0.998144
1.01681 1.01881 1 0.998035
1.01096 1.013 1 0.997982
1.01671 1.01872 1 0.99803
1.01097 1.01302 1 0.997973
1.00268 1.00465 1 0.998033
1.00873 1.01078 1 0.997971
1.00172 1.00364 1 0.998082
0.998517 1 1 0.998517
1.0007 1.00255 1 0.99815
0.998582 1 1 0.998582
0.999558 1 1 0.999558
0.998651 1 1 0.998651
0.999611 1 1 0.999611
1 1 1 1
0.999654 1 1 0.999654
0.999932 1 1 0.999932
0.999939 1 1 0.999939
1.01583 1.01783 1 0.998039
1.00924 1.0113 1 0.997962
1.0162 1.01823 1 0.998007
1.00143 1.00335 1 0.998087
1.00807 1.01015 1 0.997943
1.01508 1.01723 1 0.997887
0.998613 1 1 0.998613
0.999773 1.00152 1 0.998259
1.00545 1.00739 1 0.998078
0.999613 1 1 0.999613
0.998751 1 1 0.998751
0.998543 1.0002 1 0.998343
1 1 1 1
0.999664 1 1 0.999664
0.99891 1 1 0.99891
0.999742 1 1 0.999742
1 1 1 1
1 1 1 1
1.01709 1.01912 1 0.998006
1.01856 1.02054 1 0.998063
1.01995 1.02191 1 0.998083
1.01176 1.01385 1 0.997935
1.01684 1.01887 1 0.998002
1.02061 1.02252 1 0.998138
1.01672 1.01871 1 0.998041
1.01103 1.01307 1 0.997982
1.00301 1.00495 1 0.998064
1.0107 1.01276 1 0.99797
1.00291 1.00485 1 0.998064
0.998392 1 1 0.998392
1.0022 1.00412 1 0.998084
0.998517 1 1 0.998517
0.99951 1 1 0.99951
0.998581 1 1 0.998581
0.999555 1 1 0.999555
1 1 1 1
0.999581 1 1 0.999581
0.99996 1 1 0.99996
0.999937 1 1 0.999937
1.01416 1.01617 1 0.998023
1.00968 1.0117 1 0.998
1.01576 1.01776 1 0.99804
1.00212 1.00404 1 0.998093
1.00957 1.01163 1 0.997961
1.01595 1.01798 1 0.998006
0.998513 1 1 0.998513
1.00135 1.00322 1 0.998129
1.00807 1.01013 1 0.997963
0.999585 1 1 0.999585
0.998599 1 1 0.998599
0.999779 1.00152 1 0.998257
1 1 1 1
0.999621 1 1 0.999621
0.998716 1 1 0.998716
1 1 1 1
0.999675 1 1 0.999675
1 1 1 1
1.01199 1.01405 1 0.997965
1.01662 1.01865 1 0.998003
1.01905 1.02102 1 0.998072
1.00253 1.0045 1 0.998039
1.01179 1.01387 1 0.997944
1.01622 1.01825 1 0.998004
1.01112 1.01316 1 0.997982
1.00303 1.00498 1 0.998063
0.998343 1 1 0.998343
1.00314 1.00505 1 0.998095
0.998424 1 1 0.998424
0.999445 1 1 0.999445
0.998517 1 1 0.998517
0.999507 1 1 0.999507
1 1 1 1
0.999553 1 1 0.999553
1 1 1 1
0.999927 1 1 0.999927
1.00974 1.01175 1 0.998016
1.01433 1.01633 1 0.998026
1.00173 1.00365 1 0.998095
1.00954 1.01157 1 0.998
1.0157 1.01769 1 0.998041
0.998523 1 1 0.998523
1.00205 1.00397 1 0.99809
1.00989 1.01196 1 0.997959
0.999551 1 1 0.999551
0.998537 1 1 0.998537
1.00125 1.00309 1 0.99817
1 1 1 1
0.99959 1 1 0.99959
0.998586 1 1 0.998586
1 1 1 1
0.99963 1 1 0.99963
1 1 1 1
1.00226 1.00419 1 0.998072
1.01189 1.01396 1 0.997964
1.01606 1.0181 1 0.998
0.998332 1 1 0.998332
1.00255 1.00452 1 0.998039
1.01177 1.01384 1 0.997954
1.00306 1.005 1 0.998063
0.998347 1 1 0.998347
0.999392 1 1 0.999392
0.998456 1 1 0.998456
0.999442 1 1 0.999442
1 1 1 1
0.999504 1 1 0.999504
1 1 1 1
1 1 1 1
1.0015 1.00343 1 0.998084
1.00944 1.01145 1 0.998016
1.0145 1.0165 1 0.998029
0.998496 1 1 0.998496
1.00194 1.00386 1 0.998093
1.00939 1.01142 1 0.997999
0.999513 1 1 0.999513
0.998522 1 1 0.998522
1.00199 1.00391 1 0.998087
1 1 1 1
0.999555 1 1 0.999555
0.998561 1 1 0.998561
1 1 1 1
0.999595 1 1 0.999595
1 1 1 1
0.998407 1 1 0.998407
1.00224 1.00421 1 0.998039
1.01184 1.01391 1 0.997963
0.999379 1 1 0.999379
0.998332 1 1 0.998332
1.00257 1.00454 1 0.998039
0.998352 1 1 0.998352
0.999391 1 1 0.999391
1 1 1 1
0.999439 1 1 0.999439
1 1 1 1
1 1 1 1
0.998455 1 1 0.998455
1.00157 1.0035 1 0.998074
1.00916 1.01117 1 0.998015
0.99954 1 1 0.99954
0.998495 1 1 0.998495
1.00215 1.00407 1 0.998091
1 1 1 1
0.999514 1 1 0.999514
0.998521 1 1 0.998521
1 1 1 1
0.999558 1 1 0.999558
1 1 1 1
0.999379 1 1 0.999379
0.998381 1 1 0.998381
1.00222 1.00422 1 0.998007
1 1 1 1
0.999378 1 1 0.999378
0.998333 1 1 0.998333
0.999389 1 1 0.999389
1 1 1 1
1 1 1 1
0.999492 1 1 0.999492
0.998455 1 1 0.998455
1.00162 1.00356 1 0.998065
1 1 1 1
0.999474 1 1 0.999474
0.998493 1 1 0.998493
1 1 1 1
0.999515 1 1 0.999515
1 1 1 1
0.999846 1 1 0.999846
0.999432 1 1 0.999432
0.998356 1 1 0.998356
1 1 1 1
0.999378 1 1 0.999378
1 1 1 1
0.999864 1 1 0.999864
0.999465 1 1 0.999465
0.998455 1 1 0.998455
0.999937 1 1 0.999937
0.999472 1 1 0.999472
1 1 1 1
1 1 1 1
0.999395 1 1 0.999395
1 1 1 1
0.999928 1 1 0.999928
0.99943 1 1 0.99943
1 1 1 1
1 1 1 1
1 1 1 1

VECTORS lamdaE float
0.999797 1.00018 0.995579
0.99971 1.00017 0.997989
0.999565 1.00036 0.995709
1.00006 0.999922 0.995448
0.999874 1 0.995659
0.999776 1.00026 0.99544
1.00097 1.00051 0.992929
0.999681 1.00004 0.998044
0.999658 1.00024 0.998146
0.999358 1.00057 0.998186
0.999687 0.999816 0.996114
1.00066 1.00115 0.992378
1.00006 1.00002 0.995275
0.999794 0.99996 0.995572
0.999357 1.00058 0.995812
0.999884 0.9999 0.995625
0.999542 1.00053 0.995565
0.999672 1.00008 0.995805
1.00111 1.00036 0.99287
1.00003 1 0.997807
1.00011 0.999979 0.995304
0.999991 0.999899 0.995592
1.00135 0.999959 0.992805
1.00114 1.00014 0.992995
0.999676 1.00001 0.995723
1.00075 1.00103 0.992756
1.0034 1.00035 0.98893
0.999628 0.999941 0.99812
0.999779 1.00011 0.996821
0.999531 1.00042 0.996848
0.999629 0.999621 0.998244
1.00055 1.00127 0.992392
1.00002 0.999844 0.995463
0.999784 1.00037 0.995483
1.00144 1.00016 0.993156
0.999395 0.999003 0.998704
1.00106 1.00083 0.993209
1.00034 1.00114 0.992953
1.00214 1.00219 0.988714
0.999483 0.998203 0.998971
1.00007 1.00001 0.99777
0.999924 0.999986 0.996687
1.00005 1 0.997772
0.999776 1.00002 0.995575
1.00159 1.00006 0.991755
0.999819 0.999953 0.998084
1.00165 1.00009 0.992898
0.999703 0.999842 0.995804
0.999483 1.00017 0.995936
0.9993 1.00086 0.995682
1.00123 1.0002 0.992825
0.999943 1.00001 0.996666
0.999917 0.999973 0.995494
0.99949 1.00024 0.995843
0.999811 0.999897 0.995755
1.00142 0.999918 0.992737
1.00087 1.00092 0.992708
1.00124 1.00004 0.992939
1.00338 1.00037 0.988931
1.00002 1 0.9978
1.00011 1.00001 0.995266
1.00144 1.00001 0.993211
1.0014 1 0.992665
1.00128 0.999954 0.992931
1.00374 0.999908 0.98869
1.00356 0.999977 0.9887
0.999633 0.999328 0.996389
1.00006 1.00147 0.993306
1.00296 1.00115 0.988876
1.00453 0.999922 0.986635
0.999921 1.00014 0.997908
0.999565 0.999401 0.998398
0.999687 1.00025 0.997966
1.00046 1.00134 0.992412
1.00003 0.999972 0.997887
0.999829 1.00031 0.997919
1.00135 1.00012 0.99204
0.99947 0.999082 0.997725
1.00087 1.00092 0.992117
1.00021 1.00118 0.993602
1.00216 1.00213 0.988707
0.99955 0.998574 0.998755
0.999623 0.999699 0.995663
1.00153 0.999941 0.991955
1.00125 1.00041 0.992022
1.00374 1.00016 0.987806
0.99996 1.00076 0.994943
1.00292 1.00118 0.988291
1.00125 1.00308 0.989472
1.0031 1.00233 0.986735
0.999476 0.997867 0.999113
0.999438 0.998134 0.999032
1.00007 0.999969 0.997825
1.00007 1 0.997779
1.00007 1 0.99777
0.999918 1 0.996681
1.00161 1.00004 0.992367
0.999929 0.999955 0.996736
1.00159 1.0001 0.992352
1.00006 0.999999 0.997777
1.00153 0.99999 0.991871
1.00165 1.0001 0.992898
1.00396 0.999811 0.987765
1.0016 0.999986 0.993039
1.00394 0.999969 0.987669
1.00003 1.00001 0.995346
0.999724 0.999959 0.995688
0.999275 1.0005 0.995997
0.999633 0.999879 0.995912
1.0015 0.999913 0.992669
1.00134 0.999951 0.992891
1.001 1.00076 0.992665
1.00337 1.00039 0.988932
1.00005 1 0.997786
0.999913 1.00001 0.995459
1.00153 0.999987 0.992206
1.00147 0.999988 0.992589
0.999518 0.999486 0.997375
1.0003 1.00137 0.993443
1.00136 0.999901 0.99287
1.00376 0.999892 0.98856
1.00295 1.00122 0.988863
1.00356 1.00004 0.988796
1.00452 0.999946 0.986645
1.00152 1 0.991916
1.00143 1 0.992615
1.00389 0.999738 0.988337
1.00379 0.999869 0.988375
1.00369 0.999837 0.988573
1.00484 0.999586 0.986716
0.999548 0.998903 0.99863
1.00464 0.999749 0.98662
0.99983 1.00128 0.99357
1.00175 1.0024 0.989064
1.00419 1.00075 0.986491
1.00505 0.999621 0.985973
0.999782 1.00044 0.994546
1.0002 1.00282 0.991502
1.00001 1 0.997896
0.999778 1.00028 0.997925
1.00136 1.0001 0.992044
0.99951 0.998862 0.99868
1.00002 1.00137 0.993146
1.00081 1.00097 0.992128
1.00218 1.00208 0.988701
0.999489 0.998508 0.998838
0.999626 0.999617 0.995705
1.00154 0.999974 0.992541
1.00123 1.00044 0.992603
1.00374 1.00016 0.987806
0.999841 1.00078 0.994178
1.00293 1.00116 0.988299
1.00121 1.00307 0.989478
1.00313 1.0023 0.986697
0.999687 1.00029 0.994965
0.999695 0.999109 0.996132
1.00013 1.00199 0.992486
1.00386 1.00004 0.987716
1.00343 1.00053 0.987988
1.0048 1.00002 0.986062
1.0007 1.00307 0.99049
1.00403 1.00094 0.98636
1.00201 1.00375 0.987413
1.00352 1.00217 0.986287
0.999535 0.997598 0.99917
0.999461 0.997821 0.999134
0.999403 0.998071 0.999077
0.999772 1.00004 0.994977
0.999557 0.998593 0.998764
1.00006 0.999963 0.997862
1.00006 0.999992 0.997796
1.00153 1.0001 0.991795
1.00154 1.00005 0.991811
1.00005 1.00001 0.997777
1.00005 1 0.997779
1.00153 0.999998 0.991867
1.00159 1.0001 0.99234
1.00397 0.999808 0.987763
1.00151 1.00001 0.991893
1.00394 0.99997 0.987664
1.00151 0.999982 0.991903
1.00396 0.999739 0.987843
1.00396 0.999888 0.987712
1.00497 0.999269 0.986541
1.00392 1.00001 0.987666
1.00495 0.999574 0.986279
1.00005 0.999999 0.99778
0.999725 1.00001 0.995652
1.00154 0.999983 0.991287
1.00155 0.999978 0.99251
0.999302 0.999563 0.998524
1.00059 1.00119 0.993565
1.00145 0.999868 0.992811
1.00377 0.999861 0.988429
1.00356 1.00011 0.988893
1.00293 1.00131 0.988849
1.0045 0.999971 0.986656
1.00151 0.99999 0.991917
1.00151 1 0.992529
1.0039 0.999728 0.988039
1.00382 0.999904 0.988456
0.999558 0.998977 0.998576
1 1.00114 0.993992
1.0018 1.00249 0.989263
1.00369 0.999868 0.988561
1.00484 0.999495 0.986618
1.00414 1.00075 0.986417
1.00465 0.999792 0.986737
1.00503 0.999635 0.986
0.999785 1.00047 0.994541
1.00025 1.00272 0.991511
1.00393 0.999733 0.98791
1.00387 0.999824 0.988301
1.00492 0.999328 0.986823
1.00487 0.999372 0.986545
1.00477 0.99959 0.986753
1.00517 0.998917 0.986601
0.9998 1.00083 0.994089
1.0051 0.999315 0.986221
1.00085 1.00302 0.99006
1.00308 1.00246 0.986527
1.00489 1.00048 0.985721
1.00516 0.999348 0.986147
1.00042 1.00288 0.991091
1.00013 1.00231 0.992119
1.00062 1.00371 0.989973
1.00147 0.999954 0.992001
0.999436 0.998425 0.998921
0.999631 0.999524 0.995745
1.00111 1.00051 0.992065
1.00375 1.00016 0.987806
0.999783 1.00083 0.99412
1.00116 1.00306 0.989484
1.00292 1.00115 0.988307
1.00315 1.00226 0.986658
0.999678 1.00022 0.994992
0.999699 0.999046 0.996159
1.00005 1.00208 0.9925
1.00386 1.00006 0.987712
1.00344 1.00053 0.987997
1.0048 1.00002 0.986049
1.00062 1.00312 0.990505
1.00406 1.00098 0.986388
1.002 1.00381 0.987397
1.00356 1.00205 0.986271
0.9998 0.998687 0.996359
1.00035 1.00263 0.991466
1.00003 1.00121 0.993435
1.00031 1.00343 0.990805
1.00488 0.999845 0.986113
1.00457 1.00037 0.986155
1.00511 0.99977 0.985744
1.0012 1.00407 0.988647
1.00457 1.00051 0.985837
1.00235 1.00399 0.98643
1.00424 1.00132 0.985788
1.00026 0.999919 0.994316
0.999979 0.998208 0.996504
0.999626 0.997344 0.999197
0.999538 0.997545 0.999179
0.999451 0.997764 0.999153
0.999791 0.999621 0.995378
0.999554 0.998312 0.998881
0.999772 1.00009 0.994957
0.999578 0.998641 0.998718
1.00151 1.00003 0.991887
1.00154 1.00009 0.99178
1.00394 0.999972 0.98766
1.00397 0.999806 0.987762
1.00154 1 0.991864
1.00007 1 0.99777
1.00152 0.999984 0.991902
1.00396 0.999744 0.987841
1.00395 0.999895 0.987709
1.00497 0.999272 0.986536
1.00391 1.00003 0.987659
1.00495 0.999575 0.98627
1.00393 0.999729 0.987907
1.00496 0.999161 0.986663
1.00497 0.999419 0.986408
1.0052 0.998378 0.987045
1.00493 0.999707 0.986179
1.0052 0.998812 0.986586
1.00151 0.999977 0.991918
1.00159 0.999986 0.992443
1.00391 0.999703 0.987742
1.00383 0.999936 0.988537
0.999574 0.999056 0.998515
1.00017 1.00109 0.994341
1.00191 1.00255 0.989459
1.00369 0.999888 0.988548
1.00484 0.999403 0.98652
1.00466 0.999836 0.986853
1.00408 1.00074 0.986344
1.00502 0.999649 0.986026
0.999793 1.0005 0.994536
1.0003 1.00263 0.991519
1.00392 0.999692 0.987837
1.00388 0.999813 0.988288
1.00492 0.999262 0.986866
1.00487 0.99946 0.986623
0.999843 1.00082 0.994088
1.00096 1.00299 0.990031
1.00304 1.00252 0.986611
1.00478 0.999636 0.986749
1.00517 0.998788 0.986704
1.0049 1.00043 0.985621
1.00508 0.999316 0.986244
1.00516 0.999315 0.986145
1.00045 1.0028 0.991102
1.00052 1.00375 0.989989
1.00016 1.0023 0.99211
1.00493 0.999248 0.98687
1.00491 0.999328 0.986796
1.00518 0.998451 0.987052
1.00518 0.998694 0.986724
1.00514 0.998921 0.986524
1.00518 0.997746 0.987666
1.00056 1.00288 0.990791
1.00517 0.99862 0.986731
1.00176 1.00346 0.988124
1.00417 1.00232 0.984844
1.00515 1.00035 0.985285
1.00516 0.99866 0.986846
1.00014 1.00171 0.992708
1.00089 1.00316 0.989973
1.00025 1.00396 0.990217
1.00093 1.00372 0.989548
1.00385 1.00007 0.987708
0.999697 0.998996 0.996187
0.999665 1.00017 0.995019
1 1.00215 0.992515
1.00344 1.00053 0.988007
1.00481 1.00001 0.986037
1.00054 1.00318 0.99052
1.00199 1.00386 0.987381
1.00411 1.00102 0.986417
1.0036 1.00195 0.986255
0.9998 0.998659 0.996369
1.00032 1.00269 0.991467
1.00002 1.00119 0.993462
1.00023 1.00355 0.990795
1.00488 0.999845 0.986101
1.00455 1.00037 0.98615
1.00512 0.999777 0.985732
1.00114 1.00409 0.988664
1.00464 1.00059 0.98587
1.00242 1.00403 0.986375
1.00411 1.00107 0.986168
0.999903 0.998394 0.996457
1.00011 1.00053 0.99399
1.00069 1.00378 0.989823
1.00014 1.00269 0.991838
1.00025 1.0044 0.989944
1.00514 0.999465 0.986012
1.00496 1.00004 0.985675
1.00513 0.999227 0.98625
1.00151 1.00476 0.987363
1.00492 1.00016 0.985657
1.0033 1.0028 0.985415
1.00024 0.999998 0.994282
1.00023 1.00115 0.993184
1.00028 0.999896 0.994329
1.00026 0.99993 0.994314
1.00002 0.998025 0.997063
0.999967 0.998197 0.996771
0.999782 0.997155 0.998167
0.999637 0.9973 0.999203
0.999544 0.997492 0.999188
0.999839 0.99922 0.995702
0.99957 0.998034 0.99898
0.999791 0.99967 0.995356
0.99958 0.998358 0.998841
0.999773 1.00014 0.994937
0.999599 0.998695 0.99867
1.00391 1.00004 0.987651
1.00396 0.999901 0.987705
1.00494 0.999586 0.986261
1.00497 0.999274 0.986531
1.00396 0.999749 0.987839
1.00152 0.999987 0.991901
1.00393 0.999726 0.987907
1.00496 0.999163 0.986663
1.00496 0.999432 0.986401
1.0052 0.998297 0.987145
1.00492 0.999712 0.98617
1.0052 0.998834 0.986576
1.00494 0.999135 0.986735
1.00518 0.998156 0.987347
1.00521 0.998535 0.986853
1.00518 0.997364 0.988081
1.00517 0.999153 0.986299
1.00517 0.99751 0.987885
1.00392 0.999653 0.987764
1.0039 0.999811 0.988275
1.00492 0.999203 0.986908
1.00488 0.999548 0.986701
0.999894 1.0008 0.994085
1.001 1.003 0.990003
1.00301 1.0026 0.986693
1.00479 0.999682 0.986745
1.00517 0.998657 0.986808
1.00506 0.999316 0.986267
1.00492 1.00036 0.985519
1.00516 0.999277 0.986143
1.00048 1.00272 0.991114
1.00048 1.00375 0.990005
1.00018 1.00228 0.9921
1.00493 0.999209 0.986793
1.00492 0.999325 0.986786
1.00518 0.998314 0.987181
1.00518 0.998733 0.986723
1.00062 1.00284 0.990777
1.00184 1.00342 0.988087
1.00396 1.00235 0.985089
1.00513 0.99905 0.986461
1.00518 0.997582 0.987863
1.00515 1.00036 0.985157
1.00516 0.998618 0.986757
1.00515 0.99857 0.986962
1.00093 1.00316 0.989978
1.0009 1.00374 0.989513
1.00016 1.00172 0.992695
1.00019 1.00392 0.99031
1.00517 0.998318 0.987193
1.00518 0.998533 0.987077
1.00516 0.997548 0.987889
1.00517 0.997106 0.988324
1.00517 0.997989 0.98745
1.00513 0.996744 0.988766
1.00123 1.00302 0.989503
1.00513 0.997459 0.98789
1.00212 1.00383 0.986598
1.00484 1.0021 0.984344
1.00514 1.00005 0.985362
1.0051 0.998258 0.987284
1.00015 1.00127 0.993141
1.00012 1.00345 0.990933
1.00118 1.00314 0.989512
1.00038 1.00454 0.989568
1.00115 1.00325 0.98962
0.999798 0.998639 0.996379
1.00488 0.999846 0.98609
1.00001 1.00115 0.993489
1.00026 1.00277 0.99147
1.00014 1.00366 0.990785
1.00454 1.00037 0.986144
1.00513 0.999781 0.985719
1.00116 1.00406 0.988682
1.00252 1.00405 0.98632
1.0047 1.00067 0.985902
1.00398 1.00085 0.986544
0.9999 0.998388 0.996461
1.00011 1.00051 0.994002
1.0007 1.00373 0.989833
1.00006 1.00277 0.991847
1.00018 1.00449 0.98987
1.00515 0.999475 0.985996
1.005 1.00004 0.985655
1.00513 0.999221 0.986219
1.00145 1.00482 0.987389
1.00488 1.00022 0.985745
1.00349 1.00271 0.985464
1.0002 1.00017 0.994203
1.00015 1.00185 0.992658
1.00091 1.00442 0.988816
0.99996 1.00401 0.990847
1.00046 1.00449 0.989644
1.00513 0.998674 0.986801
1.0051 0.999688 0.985793
1.00512 0.998312 0.986891
1.00181 1.00478 0.986662
1.00474 1.00095 0.985112
1.00024 1.00001 0.99428
1.00023 1.00116 0.993091
1.00021 1.00117 0.993142
1.00017 1.00188 0.992685
1.00022 1.00118 0.993188
1.00026 0.999926 0.99432
1.00027 0.9999 0.99433
1.00008 0.997913 0.997069
1.00026 0.999943 0.994312
1.00003 0.998029 0.997063
0.999885 0.996925 0.998193
0.999957 0.998192 0.997032
0.999753 0.99711 0.998694
0.999649 0.997254 0.999208
0.999898 0.998872 0.995954
0.999835 0.999264 0.995683
0.999608 0.997778 0.999052
0.999589 0.998084 0.998948
0.99979 0.999721 0.995333
0.999605 0.998401 0.998798
1.00492 0.999716 0.986161
1.00495 0.999436 0.986394
1.0052 0.998852 0.986567
1.0052 0.998215 0.987245
1.00495 0.999164 0.986663
1.00394 0.999725 0.987907
1.00494 0.999134 0.986736
1.00517 0.998163 0.987356
1.00521 0.998547 0.986854
1.00518 0.997212 0.988264
1.00517 0.999164 0.98628
1.00518 0.997387 0.988003
1.00516 0.998192 0.987348
1.00516 0.997312 0.988169
1.00518 0.997077 0.988364
1.00516 0.996354 0.989093
1.00514 0.998025 0.987408
1.00515 0.99653 0.988962
1.00494 0.999166 0.986718
1.00492 0.99933 0.986776
1.00517 0.998173 0.987311
1.00518 0.998768 0.986722
1.00068 1.00281 0.990763
1.00192 1.00337 0.988049
1.00375 1.00233 0.985335
1.00513 0.999182 0.986399
1.00517 0.997416 0.988061
1.00516 0.998616 0.986784
1.00515 1.00042 0.985031
1.00514 0.998488 0.987077
1.00091 1.00321 0.989983
1.00079 1.00385 0.989477
1.00017 1.00173 0.992682
1.00015 1.00387 0.990403
1.00517 0.998322 0.987189
1.00518 0.998583 0.986977
1.00516 0.997485 0.987984
1.00517 0.997201 0.988202
1.00124 1.00313 0.989464
1.00213 1.00383 0.986802
1.00477 1.00189 0.984316
1.00517 0.998132 0.987273
1.00513 0.996555 0.988895
1.00514 1.0001 0.985338
1.00513 0.997481 0.987899
1.00512 0.998057 0.987366
1.00123 1.00313 0.989501
1.00112 1.0032 0.989679
1.00034 1.00459 0.989541
1.00015 1.00127 0.99307
1.0001 1.00337 0.991033
1.00516 0.997393 0.988149
1.00515 0.99707 0.988441
1.00512 0.99606 0.989456
1.00511 0.996631 0.988723
1.00139 1.00358 0.988678
1.0051 0.997048 0.988498
1.00238 1.00355 0.986013
1.00508 1.00167 0.984137
1.0051 0.999583 0.985743
1.00011 1.00088 0.993413
1.00012 1.00281 0.99177
1.00019 1.00413 0.990355
1.00139 1.00281 0.98954
1.00053 1.00465 0.989133
1.0014 1.00256 0.989555
0.999897 0.998385 0.996465
1.00011 1.00048 0.994013
1.00515 0.999486 0.985979
0.999981 1.00286 0.991856
1.00064 1.00375 0.989842
1.00011 1.00461 0.989796
1.00503 1.00005 0.985636
1.00513 0.999217 0.986187
1.00137 1.00489 0.987415
1.00363 1.00266 0.985513
1.00484 1.00026 0.985839
1.00019 1.00017 0.994204
1.00012 1.00186 0.992674
1.00088 1.00447 0.988789
0.999885 1.00412 0.990838
1.00039 1.00442 0.989676
1.00513 0.998694 0.986779
1.00511 0.999686 0.985757
1.00512 0.998343 0.986936
1.0018 1.00468 0.986545
1.00473 1.00112 0.985108
1.00021 1.00135 0.993038
0.999892 1.00316 0.99163
1.00112 1.00421 0.988525
0.999953 1.00478 0.990031
1.00086 1.00376 0.98948
1.00513 0.997065 0.988204
1.00511 0.999489 0.985962
1.00508 0.998225 0.986985
1.00293 1.00368 0.986091
1.00476 1.00062 0.985153
1.00023 1.00002 0.994278
1.00023 1.00116 0.993124
1.00006 1.00194 0.992621
1.00019 1.00118 0.9931
1.0002 1.00119 0.993187
1.00011 1.00192 0.992629
1.00003 1.00235 0.992405
1.00011 1.00197 0.992501
1.00019 1.00126 0.993156
1.00022 1.00002 0.994297
1.00026 0.999936 0.99432
1.00012 0.997866 0.997045
1.00026 0.999905 0.99433
1.00008 0.997928 0.997065
0.999961 0.996791 0.998193
1.00004 0.998031 0.997065
0.999874 0.996898 0.998199
0.99972 0.997053 0.999231
0.999951 0.998546 0.996195
0.999894 0.998907 0.995936
0.999664 0.997525 0.999108
0.999829 0.999314 0.995665
0.999618 0.997825 0.999031
0.99961 0.998128 0.998912
1.00517 0.999176 0.98626
1.00521 0.998561 0.986854
1.00518 0.997261 0.988121
1.00517 0.997059 0.988448
1.00517 0.998171 0.987365
1.00493 0.999135 0.986738
1.00516 0.998249 0.987287
1.00515 0.997407 0.988105
1.00518 0.99715 0.988278
1.00515 0.996177 0.989265
1.00514 0.99805 0.987401
1.00514 0.996316 0.989107
1.00516 0.9975 0.988052
1.00518 0.99627 0.989123
1.00516 0.995859 0.989547
1.00512 0.996358 0.989119
1.00517 0.998326 0.987184
1.00517 0.99863 0.986877
1.00516 0.997424 0.988079
1.00517 0.997301 0.98808
1.00129 1.00318 0.989424
1.00214 1.00384 0.987005
1.0047 1.00167 0.984288
1.00517 0.998276 0.987096
1.00514 0.996375 0.989022
1.00512 0.997503 0.987908
1.00513 1.00012 0.985314
1.00514 0.997854 0.987448
1.00129 1.00312 0.98949
1.00116 1.00307 0.989736
1.00031 1.00464 0.989514
1.00015 1.00126 0.992999
1.00008 1.0033 0.991132
1.00516 0.997407 0.988151
1.00515 0.997109 0.988401
1.00512 0.996143 0.989322
1.00146 1.00357 0.988642
1.00258 1.00369 0.986126
1.00505 1.00149 0.984095
1.00512 0.996668 0.988703
1.00508 0.999371 0.985988
1.00511 0.997003 0.98835
1.00012 1.00082 0.99348
1.00147 1.00273 0.989508
1.00128 1.00244 0.989912
1.0006 1.00469 0.989061
1.00019 1.00415 0.990378
1.00011 1.00279 0.991715
1.00515 0.996688 0.988698
1.00517 0.995843 0.989612
1.00511 0.995586 0.989686
1.00515 0.995945 0.989412
1.00168 1.00356 0.98824
1.00512 0.997766 0.987506
1.00344 1.00332 0.984738
1.00507 1.00131 0.984196
1.00014 1.0003 0.99394
1.00011 1.00231 0.992287
1.00018 1.00348 0.991092
1.00021 1.00493 0.989432
1.00164 1.00237 0.989358
1.00139 1.00336 0.988917
1.00019 1.00016 0.994205
1.00009 1.00184 0.99269
1.00513 0.998715 0.986756
0.999815 1.0042 0.990829
1.00085 1.00449 0.988761
1.00025 1.0043 0.989708
1.00512 0.999681 0.98572
1.00512 0.998385 0.98698
1.00182 1.00462 0.986428
1.00476 1.00127 0.985103
1.0002 1.00134 0.993048
0.999948 1.00313 0.991655
1.00114 1.00426 0.988535
0.999853 1.00484 0.989995
1.00069 1.00357 0.989845
1.00513 0.997046 0.988397
1.0051 0.999466 0.986026
1.00508 0.998325 0.98694
1.00283 1.00382 0.985967
1.00494 1.00057 0.984968
0.999979 1.00222 0.992401
0.999809 1.00417 0.990621
1.00165 1.00364 0.988178
1.00016 1.00461 0.989105
1.00511 0.995592 0.989688
1.00497 0.997397 0.988307
1.00505 0.99955 0.985845
1.0034 1.00195 0.985504
1.00025 1.00115 0.993156
1.00007 1.00196 0.992637
0.999864 1.00259 0.992449
1.00018 1.00122 0.993185
1.00006 1.00195 0.992574
1.00019 1.00126 0.993151
1 1.00233 0.992393
1.00012 1.00197 0.992529
0.999951 1.00254 0.992307
1.00007 1.00241 0.992201
1.00013 1.00206 0.992358
1.00019 1.00136 0.99304
1.00018 1.00011 0.994272
1.00022 1.00001 0.994295
1.00014 0.997854 0.997014
1.00026 0.999931 0.994319
1.00012 0.99789 0.99704
1.00002 0.996707 0.998171
1.00009 0.997943 0.997063
0.999953 0.996757 0.9982
0.999863 0.996873 0.998202
1.00002 0.998213 0.996411
0.999956 0.998564 0.996177
0.999734 0.997237 0.999164
0.999889 0.998948 0.995918
0.999667 0.997577 0.999091
0.999632 0.997866 0.999007
1.00515 0.998074 0.987395
1.00517 0.997225 0.988191
1.00513 0.996105 0.989251
1.00513 0.996001 0.989436
1.00515 0.997501 0.988042
1.00516 0.998308 0.987227
1.00516 0.997495 0.988056
1.00517 0.996337 0.989067
1.00516 0.995888 0.989511
1.00513 0.996319 0.989171
1.00517 0.996647 0.98884
1.00518 0.995209 0.990198
1.00516 0.995299 0.989879
1.00517 0.997422 0.988152
1.00515 0.997147 0.98836
1.00512 0.996228 0.989189
1.00154 1.00357 0.988607
1.00281 1.00383 0.986238
1.00502 1.00137 0.984052
1.00512 0.9967 0.988682
1.00511 0.996952 0.988202
1.00508 0.999179 0.986233
1.00154 1.00267 0.989475
1.00113 1.00237 0.99027
1.00066 1.00476 0.988989
1.00012 1.00076 0.993546
1.00018 1.00413 0.990402
1.00011 1.00276 0.99166
1.00515 0.996746 0.98872
1.00518 0.995758 0.989673
1.00512 0.99559 0.98972
1.0017 1.00359 0.988202
1.00329 1.0034 0.985077
1.00506 1.00112 0.984393
1.00515 0.995974 0.989347
1.00512 0.997756 0.987468
1.00014 1.00028 0.994076
1.00012 1.00231 0.992281
1.00148 1.0023 0.989471
1.00131 1.00341 0.989241
1.00023 1.00481 0.989577
1.00015 1.00352 0.991019
1.00518 0.995308 0.990151
1.00517 0.995113 0.990152
1.00513 0.995299 0.989996
1.00512 0.996194 0.989118
1.00181 1.00338 0.987577
1.00503 0.999866 0.985541
1.00429 1.00316 0.984354
1.00018 0.999943 0.994449
1.00016 1.00119 0.993266
1.00011 1.00176 0.992651
1.00006 1.00319 0.99148
1.00005 1.00422 0.990374
1.00003 1.00471 0.989584
1.00208 1.00115 0.989406
1.00133 1.00319 0.990023
1.00018 1.00135 0.993057
0.999996 1.00312 0.99168
1.00512 0.99703 0.98859
0.999893 1.00491 0.989958
1.00114 1.00435 0.988546
1.00049 1.00345 0.990209
1.00509 0.999426 0.98609
1.0051 0.998408 0.986895
1.00267 1.00392 0.985846
1.00508 1.00052 0.984784
1 1.00227 0.992338
0.999876 1.00415 0.990632
1.00156 1.00374 0.988261
1.00042 1.00463 0.989199
1.00513 0.995479 0.989832
1.00501 0.997446 0.988092
1.00506 0.999498 0.985873
1.00376 1.00211 0.985348
0.999827 1.00312 0.991888
1.00508 0.995102 0.990203
1.00025 1.00486 0.989798
1.00176 1.00414 0.987443
1.00497 0.99603 0.989835
1.00485 0.998703 0.986528
1.00452 1.00119 0.985379
1.00006 1.00199 0.992653
0.999856 1.00257 0.992432
0.999669 1.00309 0.992306
1.00019 1.00124 0.993145
1.00011 1.00198 0.992557
0.999944 1.00234 0.992381
1.00019 1.00136 0.993029
1.00012 1.00206 0.992381
0.999904 1.00258 0.992275
1.0001 1.00236 0.992238
1.0001 1.00247 0.992159
1.00004 1.00255 0.992108
1.00014 1.00259 0.991938
1.00026 1.00213 0.992132
1.00021 1.00148 0.992893
1.00015 1.0002 0.994234
1.00018 1.00012 0.994271
1.00015 0.997888 0.996962
1.00022 1.00003 0.994292
1.00014 0.997888 0.997009
1.00006 0.996644 0.998152
1.00012 0.997916 0.997035
1.00002 0.996671 0.998177
0.999946 0.996727 0.998204
1.00017 0.999831 0.994595
1.00007 0.997968 0.996565
1.00003 0.998228 0.996397
0.999817 0.996968 0.999207
0.999959 0.998589 0.99616
0.999732 0.997303 0.999146
0.999672 0.997628 0.999074
1.00514 0.99628 0.989223
1.00516 0.995916 0.989475
1.00516 0.996404 0.989012
1.00516 0.997488 0.988059
1.00519 0.996584 0.988889
1.00519 0.995208 0.990209
1.00516 0.995363 0.989867
1.00519 0.995031 0.99032
1.00517 0.994994 0.990403
1.00493 0.995009 0.99079
1.00516 0.996805 0.988743
1.00518 0.995665 0.989734
1.00512 0.995586 0.989755
1.00171 1.00362 0.988164
1.00314 1.0035 0.985417
1.00504 1.00091 0.98459
1.00514 0.996011 0.989283
1.00511 0.997732 0.987431
1.00133 1.00226 0.989584
1.00127 1.00345 0.989562
1.00016 1.00475 0.989722
1.00014 1.00025 0.994212
1.00014 1.00229 0.992275
1.00013 1.00358 0.990947
1.00517 0.995276 0.990138
1.00017 0.999955 0.994447
1.00014 1.00121 0.993208
1.00517 0.995116 0.990165
1.00512 0.995285 0.989966
1.00159 1.00356 0.987953
1.00413 1.00307 0.984329
1.00503 0.999752 0.985506
1.00511 0.996246 0.989004
1.00012 1.00174 0.992825
1.00009 1.00314 0.991465
1.00227 1.00146 0.989172
1.00085 1.00323 0.990321
1.00009 1.00476 0.989639
1.00004 1.00419 0.990461
1.00516 0.994995 0.990301
1.00508 0.99491 0.990486
1.0051 0.995168 0.989913
1.00502 0.996628 0.988417
1.00194 1.00286 0.988203
1.00441 1.00281 0.984543
1.00012 1.00114 0.993235
1.00015 1.00134 0.993136
1.00015 1.00214 0.992474
1.00006 1.00293 0.991538
1 1.00377 0.991109
1.00035 1.00427 0.989815
0.999611 1.00487 0.990043
1.00148 1.0013 0.990456
1.00003 1.00229 0.992276
0.999955 1.00411 0.990645
1.00514 0.995356 0.989975
1.00504 0.997522 0.987879
1.00066 1.00467 0.989293
1.00148 1.00382 0.988341
1.00507 0.999452 0.9859
1.00416 1.00228 0.98519
0.999856 1.00312 0.99185
1.00509 0.995022 0.990291
1.00007 1.00479 0.989898
1.00177 1.00397 0.987399
1.00498 0.995889 0.989729
1.00477 0.99876 0.986752
1.00449 1.00138 0.98542
0.999851 1.00436 0.990981
1.00467 0.995107 0.991635
1.00109 1.00455 0.989145
1.00265 1.00382 0.986828
1.00479 0.99685 0.988797
1.00406 1.00065 0.986191
0.999602 0.99762 0.991774
0.999844 1.00257 0.992414
0.99963 1.00311 0.992297
0.999909 1.00317 0.99194
1.00019 1.00137 0.993017
1.00011 1.00208 0.992403
1.00013 1.00232 0.992276
0.999881 1.00257 0.992243
1.00021 1.00147 0.99289
1.00023 1.00215 0.992131
1.0001 1.00256 0.99204
1.00012 1.00261 0.991942
1.00008 1.0025 0.992123
1.00023 1.00236 0.992016
1.00025 1.00277 0.991578
1.00019 1.00263 0.991825
1.00034 1.00223 0.991885
1.00024 1.00154 0.99268
1.00027 1.00208 0.992288
1.00023 1.00158 0.992629
1.00014 1.00025 0.994186
1.00014 1.0002 0.994233
1.00018 0.997968 0.996371
1.00018 1.00011 0.99427
1.00017 0.997926 0.996686
1.00003 0.996589 0.999205
1.00014 0.997921 0.997004
1.00006 0.996602 0.998158
1.00001 0.996636 0.998181
1.00013 0.99974 0.994721
1.00017 0.999814 0.994598
1.0001 0.997812 0.996684
1.00006 0.997972 0.996817
0.99989 0.996758 0.999242
1.00003 0.998238 0.996384
0.999809 0.99703 0.999195
0.999731 0.997368 0.999129
1.00516 0.995427 0.989855
1.0052 0.995211 0.990219
1.00519 0.996519 0.988938
1.00518 0.995044 0.990316
1.00516 0.994978 0.990372
1.00494 0.995076 0.990532
1.00515 0.99492 0.990446
1.00083 0.996651 0.988393
1.00429 0.994908 0.993077
1.00007 1.0011 0.993504
1.00516 0.995235 0.990124
1.00518 0.995131 0.990178
1.00511 0.99527 0.989936
1.00137 1.00371 0.988328
1.00399 1.00301 0.984304
1.00503 0.999659 0.985473
1.00507 0.996314 0.988888
1.00253 1.00163 0.988943
1.00035 1.00325 0.990627
1.00017 1.00479 0.989694
1.00016 0.999979 0.994445
1.00003 1.00415 0.990548
1.00013 1.00171 0.992998
1.0001 1.00312 0.991449
1.00013 1.00121 0.99315
1.00517 0.994952 0.990325
1.00011 1.00113 0.993332
1.00015 1.00135 0.993134
1.00016 1.00213 0.992374
1.00506 0.994933 0.990477
1.00511 0.995272 0.989824
1.00202 1.00278 0.988253
1.00408 1.0024 0.984857
1.00498 0.996919 0.98836
1.00005 1.00293 0.991635
1.00003 1.00373 0.990979
1.00138 1.00178 0.990265
0.99982 1.00484 0.99011
1.00036 1.00415 0.989891
1.00509 0.994996 0.990527
1.00509 0.994884 0.990485
1.00506 0.99602 0.989128
1.0045 0.999003 0.988007
1.00133 1.00309 0.989207
1.00008 1.00218 0.992259
1.00017 1.00233 0.991937
0.999982 1.00313 0.991609
0.99992 1.00407 0.991028
0.999994 1.00411 0.990558
0.999914 1.00462 0.989955
1.00006 1.0042 0.990258
0.999901 1.0031 0.99181
0.999869 1.00473 0.989999
1.00511 0.99496 0.990378
1.00499 0.995731 0.989623
1.00473 0.998787 0.986975
1.00177 1.00376 0.987357
1.00449 1.00156 0.985461
0.999817 1.00421 0.991128
1.00459 0.995042 0.991703
1.00074 1.00441 0.989329
1.00238 1.00392 0.9868
1.00476 0.996679 0.989106
1.00419 1.00057 0.986131
0.999611 0.997577 0.989901
0.999988 1.00436 0.990646
1.00403 0.995902 0.991791
1.00066 1.00431 0.989415
1.00248 1.00256 0.987317
1.00415 0.998126 0.98775
1.00064 0.995609 0.956326
0.996428 0.996722 0.975207
0.99777 1.00176 0.99128
0.999842 0.996647 0.916728
0.994902 0.998154 0.899651
0.999602 1.00312 0.992287
0.999736 1.00329 0.991999
1.00009 1.00248 0.992182
1.00021 1.00147 0.992888
1.00026 1.00209 0.99213
1.00012 1.00261 0.991946
1.00012 1.00245 0.992137
1.00008 1.00266 0.991922
1.00022 1.00258 0.991778
1.00024 1.00151 0.99275
1.00034 1.00222 0.991897
1.00022 1.00238 0.991983
1.00021 1.00278 0.991624
1.00027 1.00277 0.991624
1.00014 1.00256 0.991822
1.00032 1.00266 0.991574
1.00038 1.0022 0.991797
1.00025 1.0016 0.992596
1.00035 1.00218 0.992003
1.00028 1.00229 0.992007
1.00014 1.00213 0.992338
1.00027 1.0021 0.992225
1.00023 1.00147 0.992851
1.00024 1.00159 0.99262
1.00017 1.00025 0.994143
1.00014 1.00025 0.994185
1.00017 0.998038 0.996344
1.00014 1.00021 0.994232
1.00018 0.997976 0.996369
1.00004 0.996598 0.999196
1.00018 0.997963 0.996411
1.00006 0.996592 0.998663
1.00006 0.996562 0.998162
1.0001 0.999708 0.994815
1.00014 0.999743 0.994719
1.00013 0.997698 0.99676
1.00017 0.999797 0.994601
1.0001 0.997781 0.996938
0.999946 0.996581 0.999271
1.00007 0.998011 0.996532
0.999879 0.996841 0.999225
0.999803 0.99708 0.999183
1.00514 0.994963 0.990342
1.00516 0.995051 0.990313
1.00494 0.995114 0.990274
1.00074 0.996482 0.988492
1.00514 0.99492 0.990417
1.00419 0.995362 0.992705
1.00491 0.996099 0.991176
0.997193 0.996727 0.973362
1.00134 0.996206 0.990208
1.00008 1.00109 0.993507
1.0001 1.00107 0.993499
0.999983 1.00218 0.992558
1.00006 1.00201 0.992622
1.00518 0.994926 0.990349
1.00505 0.994948 0.990469
1.00511 0.995372 0.989735
1.00228 1.00257 0.988302
1.00371 1.00187 0.985167
1.00499 0.997241 0.988301
1.0012 1.00238 0.990069
1.00007 1.00483 0.990175
1.00034 1.00401 0.989965
1.00013 1.00139 0.993131
1.00005 1.00368 0.99085
1.00006 1.00293 0.991733
1.00011 1.00113 0.993429
1.00014 1.00215 0.992271
1.0051 0.994938 0.990516
1.00006 1.00224 0.992382
1.00016 1.00235 0.992064
0.999914 1.00296 0.991848
1.00509 0.99488 0.990427
1.00503 0.995859 0.989141
1.00166 1.00264 0.989154
1.0043 0.998898 0.988202
0.99995 1.00401 0.990982
1.0001 1.00409 0.99036
1.00006 1.00443 0.990253
1.00023 1.00453 0.989912
1.00487 0.99482 0.991113
1.00509 0.995264 0.990205
1.00465 0.997174 0.989071
1.00183 1.00125 0.990357
0.999978 1.00338 0.991319
1.00001 1.00358 0.991059
0.999559 1.00458 0.990854
0.999729 1.00518 0.989895
1.00003 0.994953 0.951132
0.999761 1.00408 0.991275
1.00033 1.00433 0.989512
1.00453 0.994971 0.991765
1.00472 0.996526 0.989414
1.00432 1.00046 0.986069
1.00204 1.00402 0.98677
0.999726 0.997395 0.987984
0.999838 1.00444 0.990776
1.00416 0.995718 0.991768
1.00054 1.00435 0.989471
1.00269 1.00228 0.987311
1.00439 0.998139 0.98789
1.00151 0.995848 0.949978
0.996166 0.996864 0.971257
0.997661 1.00177 0.991132
0.999819 0.997382 0.919323
0.994728 0.998116 0.891456
0.999809 1.00366 0.991651
0.999888 0.99532 0.924007
0.995257 0.998315 0.901262
1.00279 0.999504 0.990694
1.00024 1.00408 0.990288
1.00264 1.00129 0.987751
0.997141 1.00321 0.991254
0.999981 0.997002 0.954858
0.994867 0.997484 0.969601
0.998478 0.998429 0.922441
0.994749 0.999494 0.899832
0.999587 1.00341 0.992059
0.999993 1.00273 0.992106
0.999962 1.00156 0.993598
1.00024 1.00148 0.99282
1.00035 1.00224 0.991909
1.00015 1.00265 0.991732
1.00018 1.00278 0.99167
1.00022 1.0024 0.991949
1.00026 1.00157 0.992603
1.00023 1.00282 0.991572
1.00031 1.00264 0.991599
1.00039 1.00219 0.991852
1.00016 1.00249 0.991881
1.0002 1.00291 0.99163
1.00008 1.00248 0.991931
1.00043 1.00264 0.991351
1.00042 1.00223 0.991819
1.00037 1.00215 0.99199
1.00029 1.00229 0.992008
1.00043 1.00228 0.991743
1.00013 1.00248 0.992043
1.0002 1.0022 0.992052
0.999802 1.00327 0.991759
1.00004 1.0023 0.992354
1.00015 1.00214 0.992336
1.00019 1.00146 0.992937
1.00026 1.00212 0.992161
1.00024 1.00149 0.992797
1.00021 1.0002 0.994125
1.00024 1.0016 0.992612
1.00017 1.00025 0.994144
1.00013 0.998065 0.996898
1.00014 1.00026 0.994184
1.00016 0.998028 0.996622
1.00009 0.996631 0.998076
1.00018 0.997985 0.996368
1.00004 0.996605 0.999193
1.0001 0.996595 0.998121
1.00011 1.00117 0.993397
1.00009 0.999722 0.994827
1.0001 0.999702 0.994815
1.00014 0.997648 0.996784
1.00014 0.999745 0.994718
1.00013 0.997675 0.996758
0.999991 0.996471 0.999283
1.00008 0.997789 0.997172
0.99996 0.996654 0.99876
0.999922 0.99689 0.998188
1.00055 0.99638 0.988615
1.00513 0.994927 0.99039
1.00409 0.995914 0.992331
0.996544 0.996506 0.974894
1.0011 0.996214 0.990451
1.00496 0.995607 0.990964
1.00363 0.996409 0.989901
0.99737 0.996494 0.977764
1.00005 0.995561 0.95451
0.999422 0.997935 0.924615
0.994666 0.998088 0.89827
0.999967 1.00209 0.992521
1.00008 1.0011 0.993505
1.00013 1.00104 0.993493
1 1.00218 0.992514
0.999966 1.00296 0.991873
1.00018 1.00254 0.991961
1.00008 1.00223 0.992404
1.00002 1.0021 0.992549
1.00512 0.9949 0.990502
1.00507 0.99488 0.990364
1.00505 0.995618 0.989158
1.00183 1.00233 0.989104
1.00417 0.998821 0.988396
1.00006 1.00452 0.99025
1.00051 1.00445 0.98987
1.00024 1.0041 0.990163
1.00013 1.00235 0.99219
0.999953 1.00401 0.990935
1.00005 1.00231 0.992507
0.99994 1.00275 0.992087
1.00487 0.994861 0.991154
0.999973 1.00337 0.991403
1 1.00357 0.9912
1.00504 0.995148 0.990104
1.00414 0.997004 0.98949
1.00191 1.00109 0.990248
0.999754 1.00469 0.990562
0.999963 1.00495 0.98993
1.00297 0.997526 0.99175
1.0045 0.996123 0.99086
1.00324 0.997134 0.990869
1.001 1.00185 0.990721
0.999994 1.00394 0.990731
0.999732 1.00446 0.990663
0.999674 1.00523 0.990177
0.999917 0.99486 0.924392
1.00063 0.995057 0.958925
0.999732 1.00448 0.990906
1.00044 1.0043 0.989529
1.0042 0.995537 0.991748
1.00459 0.998209 0.98803
1.00289 1.0021 0.98731
1.00042 0.995269 0.954667
0.996629 0.997133 0.970608
0.997538 1.00159 0.990965
0.998865 0.997063 0.926275
0.994693 0.998113 0.883154
0.99975 1.00363 0.991674
0.999916 0.995811 0.922885
0.995292 0.998222 0.897231
1.00273 0.999387 0.990694
1.00015 1.00399 0.990387
1.00237 1.00131 0.988404
0.997514 1.00286 0.991864
1.00117 0.996954 0.949906
0.994889 0.996939 0.973229
0.998579 0.999117 0.92288
0.994938 0.999419 0.897761
0.999362 1.003 0.993367
0.995377 0.997763 0.902388
0.995058 0.999551 0.917765
0.999975 1.00158 0.992642
0.999356 1.00408 0.992252
0.996502 1.00288 0.992543
0.994828 0.999348 0.973535
0.997968 0.998722 0.948299
0.995294 0.999912 0.927838
0.994764 0.997835 0.906998
0.99996 1.0029 0.99203
1.00002 1.00143 0.993549
0.999701 1.00042 0.994679
1.00026 1.00155 0.99261
1.00037 1.0022 0.991907
1.00031 1.0026 0.991623
1.00022 1.00286 0.991521
1.00014 1.00245 0.991941
1.00041 1.00225 0.99181
1.00022 1.00283 0.991602
1.00043 1.00266 0.991353
0.99992 1.00251 0.992087
0.99868 1.0033 0.993363
1.00023 1.00311 0.991353
1.00056 1.00252 0.991368
1.0004 1.00213 0.991977
1.0003 1.00227 0.992009
1.00044 1.00228 0.991738
1.00014 1.00248 0.992028
1.00022 1.0022 0.992098
0.999964 1.0028 0.991955
1.00027 1.00218 0.991958
1.00002 1.00236 0.992253
1.00017 1.00287 0.991601
0.999697 1.00488 0.989999
0.999565 1.00384 0.991396
0.999818 1.0033 0.991749
0.999937 1.00254 0.992271
1.00005 1.00231 0.99235
1.00014 1.00149 0.992975
1.00015 1.00217 0.992334
1.0002 1.00145 0.99294
1.00024 1.00014 0.99413
1.00025 1.00149 0.992743
1.00021 1.00019 0.994128
1.00011 0.998086 0.996905
1.00017 1.00025 0.994146
1.00014 0.99805 0.996621
1.00006 0.996651 0.998084
1.00018 0.998007 0.996342
1.00003 0.996638 0.999187
1.00004 0.996616 0.99919
1.00014 1.00127 0.993438
1.0001 0.999783 0.994746
1.00009 1.00117 0.993399
1.00015 0.99763 0.996783
1.00009 0.999715 0.994828
1.00011 0.999703 0.994815
1.00014 0.997643 0.996782
1.00002 0.996413 0.999286
1.00011 0.997664 0.997241
1.00001 0.996489 0.998791
0.999991 0.996646 0.998274
0.999857 0.996014 0.918085
0.995158 0.997496 0.900895
0.997709 0.996194 0.97545
1.00087 0.996117 0.990703
1.005 0.995014 0.990754
0.99677 0.995857 0.979374
1.00371 0.995976 0.990155
1.0013 0.995853 0.954173
0.999824 0.997121 0.917814
0.994672 0.998057 0.890028
0.998297 0.996279 0.982694
0.999696 0.997624 0.95517
0.998428 0.998787 0.921124
0.994745 0.999001 0.898639
1.00009 1.00297 0.99161
0.999991 1.00208 0.992595
1.0001 1.00107 0.993504
1.00002 1.00215 0.99247
0.999962 1.00286 0.991956
1.0002 1.00284 0.991632
1.00017 1.00253 0.991956
1.00016 1.00245 0.991973
1.0001 1.00222 0.992327
0.999998 1.00217 0.992478
1.00484 0.994871 0.991203
1.00509 0.995067 0.99002
1.00358 0.996863 0.989915
1.00189 1.00104 0.990139
1.00021 1.00483 0.989964
0.99993 1.00479 0.990268
0.999973 1.00354 0.991342
0.999924 1.00337 0.991485
1.00312 0.997046 0.991963
0.999972 1.00401 0.990684
0.99973 1.00457 0.990544
1.00442 0.996074 0.990573
1.00279 0.997037 0.991755
1.0013 1.00198 0.99017
0.99989 1.00518 0.990051
1.00009 0.998599 0.993424
1.00189 0.997237 0.994355
0.999745 1.00378 0.990858
0.999891 1.00417 0.99062
0.999838 1.00463 0.990262
0.999683 1.00515 0.990146
0.994824 0.997648 0.91541
0.999911 0.994896 0.927305
1.00004 0.994946 0.951054
0.999621 1.00376 0.991696
1.00006 1.00385 0.990486
1.00269 0.999241 0.990699
1.0022 1.00136 0.989052
0.999884 0.995555 0.927796
0.999609 0.996901 0.949999
0.994892 0.996278 0.969696
0.997866 1.00193 0.992414
0.998556 0.998431 0.91532
0.99521 0.998082 0.898274
0.994978 0.999328 0.90193
0.999124 1.00296 0.993373
0.995325 0.997093 0.907303
0.995253 0.999707 0.917176
1.00031 1.00161 0.992584
0.999009 1.00413 0.992244
0.996301 1.00069 0.995185
0.994838 0.998461 0.97178
0.997488 0.998822 0.955686
0.997273 0.999902 0.920233
0.994759 0.997809 0.911541
0.998133 1.00239 0.995714
0.995127 0.997349 0.928435
0.994618 0.997681 0.93006
0.996106 1.00246 0.998904
0.994848 1.00001 0.979869
0.995596 1.00001 0.955372
0.994813 0.999942 0.918844
0.99484 0.996207 0.908713
1.00005 1.00132 0.9935
0.99974 1.00048 0.99486
0.998449 1.00212 0.996186
1.00041 1.00227 0.991802
1.00044 1.00268 0.991355
1.00024 1.00272 0.991574
0.999798 1.00254 0.992245
1.0005 1.00256 0.991353
1.0002 1.00309 0.991366
0.99874 1.00317 0.993613
0.996739 1.00452 0.995735
0.998927 1.00404 0.992797
1.00039 1.00268 0.991511
1.00045 1.00227 0.991733
1.00015 1.00247 0.992014
1.00022 1.00222 0.992143
1.00026 1.00223 0.99197
0.999966 1.00284 0.991951
1.00007 1.00235 0.992261
1.00011 1.00256 0.992081
0.999629 1.00205 0.993184
1.00075 1.00119 0.992038
1.0002 1.00274 0.991725
0.999828 1.00407 0.990738
1.00087 1.00496 0.988276
0.999805 1.00447 0.990897
0.999555 1.00492 0.990364
0.999648 1.00383 0.991472
0.999809 1.00293 0.991935
0.999837 1.00333 0.991738
0.999978 1.00253 0.992265
1.0001 1.00161 0.992931
1.00009 1.00229 0.992346
1.00016 1.00148 0.992973
1.00023 1.00015 0.99413
1.00021 1.00144 0.992944
1.00024 1.00015 0.994131
1.00009 0.998106 0.996928
1.00021 1.00019 0.994131
1.00012 0.998074 0.996634
1.00001 0.996736 0.998093
1.00016 0.998026 0.996342
1.00004 0.996665 0.998634
1.00003 0.996649 0.999187
1.00016 1.00148 0.99302
1.00014 0.999866 0.994615
1.0001 1.00131 0.993282
1.00016 0.997652 0.996747
1.0001 0.999773 0.994749
1.00006 1.00121 0.9934
1.00003 0.996391 0.999286
1.00015 0.997629 0.996784
1.00009 0.9997 0.994829
1.00014 0.997638 0.99678
1.00002 0.996423 0.999286
0.999989 0.996481 0.999281
0.994974 0.996137 0.909195
0.999888 0.995565 0.922177
0.995112 0.999894 0.917119
0.995238 0.998038 0.898485
0.997421 0.995309 0.976337
1.00372 0.995981 0.99042
1.00062 0.996248 0.953448
0.99984 0.996947 0.925379
0.994687 0.998135 0.881741
0.998309 0.996726 0.981604
1.00128 0.997284 0.94664
0.99857 0.999096 0.921734
0.994762 0.999295 0.89424
0.995132 0.998289 0.977454
0.997968 0.999514 0.948074
0.995846 0.999811 0.916474
0.994781 0.997493 0.901281
1.00006 1.00351 0.991152
1.00005 1.00295 0.991708
0.999972 1.00212 0.992667
0.999946 1.00277 0.99204
1.00031 1.00305 0.991113
1.00019 1.00279 0.991698
1.00013 1.00254 0.99195
1.00031 1.00242 0.991881
1.00021 1.00239 0.992059
1.00012 1.00222 0.99225
1.00338 0.996741 0.992163
1.00426 0.996019 0.990288
1.00243 0.996985 0.992633
1.00165 1.00192 0.98963
1.00003 1.00514 0.989926
0.999776 1.00466 0.990426
0.999988 1.00402 0.990638
0.999969 1.00416 0.990593
1.0004 0.998711 0.993713
0.999914 1.00466 0.990272
0.999814 1.00515 0.99015
1.00199 0.997159 0.993951
1.00026 1.00358 0.990708
0.998663 0.997093 0.995174
0.99855 0.998608 0.999174
0.999283 1.0047 0.991216
0.999976 1.0046 0.990116
0.999722 1.00508 0.990084
0.99476 0.997113 0.934075
0.994813 0.997268 0.913966
0.999886 0.994894 0.920418
0.99891 1.00289 0.993376
0.998745 1.00413 0.992222
1.00057 1.00161 0.992536
0.995358 0.996106 0.908697
0.997908 0.998737 0.94881
0.994842 0.997837 0.972492
0.996384 0.999748 0.99804
0.996218 0.999705 0.927666
0.995633 0.999875 0.916594
0.994788 0.997765 0.911641
0.998123 1.00241 0.99592
0.9952 0.996283 0.931235
0.994624 0.997642 0.929971
0.996347 1.00295 0.998094
0.994853 0.999918 0.980883
0.996175 0.999983 0.948497
0.994814 0.996747 0.910047
0.994853 0.999965 0.924342
0.996579 1.00367 0.997982
0.994442 0.994651 0.951036
0.994673 0.996813 0.933012
0.994782 0.997565 0.901541
0.994932 1.0016 0.993894
0.995454 0.999846 0.958038
0.994903 1.00001 0.922734
0.999844 1.00056 0.995041
0.998598 1.00182 0.995949
0.996094 1.00425 0.998001
1.00046 1.0026 0.991339
1.00016 1.00305 0.991378
0.998754 1.00306 0.993866
1.0003 1.0026 0.991589
0.998951 1.0039 0.992815
0.99703 1.00431 0.995437
0.996673 1.00496 0.996256
0.999154 1.00301 0.993198
1.00025 1.00226 0.991982
0.999965 1.00288 0.991948
1.00013 1.00234 0.992269
0.999748 1.0021 0.993103
1.00011 1.00247 0.99209
0.999729 1.0022 0.993011
1.00023 1.00158 0.992613
1.00056 1.00309 0.990357
1.00025 1.0026 0.99185
1.00017 1.00398 0.990585
1.0011 1.00412 0.988118
1.00119 1.00446 0.987895
0.999965 1.00483 0.99006
1.00071 1.00486 0.988422
0.999882 1.00356 0.991454
0.999742 1.00453 0.990819
0.999403 1.00493 0.99073
0.999731 1.00381 0.991549
0.999845 1.00289 0.99202
1.00006 1.00181 0.992798
1.00001 1.00251 0.992259
1.00012 1.0016 0.99293
1.0002 1.00025 0.994098
1.00018 1.00147 0.992971
1.00024 1.00015 0.99413
1.00003 0.998151 0.996957
1.00025 1.00014 0.994133
1.00009 0.998096 0.996661
0.999943 0.996832 0.998117
1.00014 0.998038 0.996359
0.999988 0.996747 0.998639
0.999996 0.996714 0.999189
1.00024 1.00163 0.992539
1.00018 1.00005 0.994169
1.00016 1.00149 0.993019
1.00016 0.997735 0.996652
1.00013 0.999874 0.994496
1.00008 1.00133 0.993127
1.00003 0.996427 0.999276
1.00016 0.997651 0.996751
1.0001 0.999761 0.994751
1.00003 0.996396 0.999286
1.00015 0.997627 0.996785
1.00002 0.99643 0.999286
0.994903 0.995695 0.931983
0.994966 0.996399 0.912432
0.999874 0.996032 0.92312
1.00039 1.00243 0.99163
0.994671 0.998283 0.933332
0.99528 0.999789 0.916634
0.995296 0.998178 0.901464
0.998306 0.997031 0.980129
0.999689 0.99767 0.954874
0.998404 0.998736 0.913764
0.994749 0.999552 0.896283
0.995874 0.998193 0.973527
0.997471 0.999061 0.954881
0.997373 0.999899 0.919883
0.994766 0.997903 0.902748
0.994883 0.998555 0.969762
0.99538 1.00049 0.954098
0.994851 0.999933 0.923929
0.994824 0.99661 0.908538
1.00019 1.00378 0.990613
1.00007 1.00355 0.991068
1.00007 1.00291 0.991806
1.00034 1.00293 0.991177
1.00031 1.00301 0.991224
1.00018 1.00275 0.991764
1.00032 1.00242 0.991902
1.00024 1.00236 0.992145
1.0006 0.998956 0.993977
1.00208 0.997141 0.993525
1 1.00417 0.990565
1.00076 1.00344 0.990548
1 1.00515 0.990154
0.999902 1.00472 0.990281
0.999998 1.00458 0.990176
0.998476 0.997948 0.995651
0.999839 1.0051 0.990027
0.999779 1.00388 0.991279
0.998636 0.998308 0.999177
0.999973 1.00441 0.990273
0.997051 0.998539 0.995765
0.996805 0.999624 1.00159
0.999541 1.00499 0.99065
0.999982 1.00496 0.990066
0.99448 0.995242 0.955131
0.994737 0.997318 0.934697
0.994796 0.99703 0.912533
0.99801 1.00244 0.996144
0.996315 1.00307 0.997259
0.995197 0.995566 0.933987
0.995674 1 0.956022
0.994854 0.998997 0.977473
0.99484 0.999949 0.92345
0.994641 0.997612 0.929884
0.994793 0.997215 0.911361
0.996657 1.00334 0.997852
0.994484 0.994844 0.95095
0.994648 0.996587 0.937463
0.99494 1.00258 0.997017
0.99478 0.997957 0.902934
0.99513 0.999351 0.953936
0.995204 1 0.926347
0.995475 1.00438 0.998231
0.994501 0.994687 0.955897
0.994653 0.998368 0.93354
0.994759 0.999115 0.898886
0.995791 0.99995 0.923105
0.994994 0.998724 0.987971
0.995756 1.00095 0.946449
0.998669 1.00133 0.995697
0.996198 1.00446 0.997522
0.995379 1.00458 1.00008
1.00024 1.00251 0.991667
0.998958 1.00384 0.992831
0.997302 1.00386 0.995132
0.999233 1.00299 0.993161
0.996687 1.00422 0.996197
0.997803 1.00401 0.995038
0.999883 1.00215 0.993022
1.00007 1.00241 0.9921
0.999881 1.0023 0.992983
0.999417 1.0041 0.991253
0.999683 1.00195 0.993183
1.00036 1.00295 0.990727
1.00127 1.00416 0.988259
1.00309 1.00305 0.986025
1.00051 1.00389 0.990428
1.00131 1.00423 0.987862
1.00203 1.00341 0.988206
1.00014 1.00492 0.989148
1.00123 1.00435 0.988128
0.999773 1.00437 0.990744
1.00002 1.00482 0.990032
1.00055 1.0048 0.988569
1.00002 1.00223 0.992429
0.999844 1.00355 0.991436
0.999682 1.00461 0.990741
0.999881 1.00284 0.992105
1.00009 1.0018 0.992791
1.00015 1.00042 0.994012
1.00014 1.00159 0.992929
1.00021 1.00024 0.994098
0.999986 0.998271 0.996425
1.00025 1.00015 0.99413
1.00006 0.998146 0.996421
0.999815 0.996935 0.999211
1.00011 0.998071 0.996388
0.999926 0.996839 0.998652
0.999949 0.996789 0.999193
1.00028 1.00175 0.992352
1.00023 1.00026 0.993849
1.00024 1.00165 0.992624
1.00016 0.997873 0.996509
1.00018 1.00006 0.99413
1.00017 1.0015 0.993018
1.00001 0.99652 0.99925
1.00016 0.997733 0.996659
1.00013 0.999888 0.994378
1.00003 0.996414 0.999279
1.00015 0.997651 0.996755
1.00003 0.996402 0.999286
0.994539 0.994927 0.951616
0.994905 0.996749 0.931774
0.994954 0.997263 0.912592
1.00036 1.00244 0.991705
1.00036 1.00235 0.991705
1.0004 1.00273 0.991386
0.994692 0.996611 0.93262
0.994638 0.997823 0.93325
0.995502 1.00006 0.916148
0.995421 0.997856 0.975871
0.998394 0.99982 0.947116
0.995199 0.999902 0.927645
0.994788 0.998317 0.899754
0.995112 0.998061 0.97283
0.996395 1.00001 0.951891
0.994802 0.999959 0.925359
0.994803 0.996829 0.909767
0.994892 0.998459 0.968808
0.995573 1.00001 0.955467
0.994883 0.999992 0.923242
0.994774 0.998149 0.906633
1.00035 1.00347 0.990651
1.0002 1.00375 0.990618
1.0001 1.00357 0.990985
1.00035 1.00296 0.991157
1.00031 1.00298 0.991335
1.00035 1.00241 0.991924
0.998213 0.998452 0.996113
0.998422 0.998159 0.999193
1.00003 1.00457 0.990237
1.00025 1.00305 0.991344
0.999946 1.00512 0.989972
1.00008 1.00442 0.99013
0.999785 1.00496 0.990094
0.996916 0.998031 0.996138
0.999553 1.00448 0.991241
0.996486 1.00044 1.00106
1.00003 1.00443 0.990544
0.995615 0.997666 0.996666
0.996889 1.00267 0.997764
0.999199 1.00517 0.991462
0.994415 0.995294 0.961318
0.994424 0.995212 0.956808
0.994715 0.997549 0.935295
0.996874 1.00326 0.997721
0.995216 1.0025 0.994657
0.99448 0.995037 0.950861
0.994968 0.999261 0.957865
0.994887 0.999988 0.919582
0.994611 0.996402 0.941917
0.994793 0.998397 0.900042
0.995423 1.00474 0.998532
0.994485 0.994695 0.957575
0.994637 0.997899 0.933464
0.994906 0.998969 0.983693
0.994755 0.999377 0.894641
0.994826 0.999974 0.924468
0.995494 1.00073 0.954526
0.994835 1.00354 0.998995
0.994548 0.994734 0.951972
0.995213 0.999728 0.917575
0.99466 0.998091 0.89916
0.996101 0.998947 0.916563
0.996137 1 0.954324
0.995713 0.99993 0.977228
0.996495 1.00461 0.997103
0.995419 1.00346 1.00006
0.996568 1.00322 0.998437
0.999309 1.00291 0.993124
0.996678 1.00365 0.996152
0.997232 1.0042 0.995312
0.999385 1.00301 0.993203
1.00003 1.00244 0.992955
1.00022 1.0039 0.990863
1.00105 1.00487 0.987906
1.00015 1.00283 0.991103
1.00138 1.00415 0.988052
1.0033 1.00421 0.985219
1.00466 1.00249 0.983864
1.00265 1.00269 0.986839
1.00304 1.00335 0.98587
1.00151 1.00431 0.987607
1.00155 1.00365 0.988752
1.00172 1.0031 0.988716
0.999898 1.00495 0.989639
1.00025 1.00492 0.989256
1.00127 1.00422 0.988364
0.999946 1.00317 0.991618
0.999874 1.00428 0.990755
1.00006 1.00479 0.990003
1.00009 1.00072 0.993814
1.00006 1.00222 0.992417
0.999809 1.00353 0.991419
1.00011 1.00179 0.992783
1.00016 1.00042 0.99401
0.9999 0.998455 0.996389
1.00021 1.00024 0.994097
0.999989 0.998267 0.996423
0.999749 0.997094 0.999204
1.00006 0.998134 0.996418
0.999846 0.99696 0.998666
0.999888 0.996884 0.999199
1.00034 1.00179 0.992343
1.00029 1.00042 0.993775
1.0003 1.00174 0.992399
1.00016 0.998045 0.996346
1.00023 1.00026 0.993927
1.00025 1.00166 0.992709
0.999982 0.99666 0.999217
1.00016 0.997868 0.996519
1.00018 1.00007 0.994091
1.00002 0.996499 0.999259
1.00016 0.997733 0.996667
1.00004 0.996407 0.999283
0.994505 0.994614 0.955673
0.994484 0.994694 0.951528
0.994911 0.996998 0.931668
1.00027 1.00248 0.991718
1.0002 1.00297 0.99148
1.00031 1.00245 0.99178
1.00033 1.00239 0.991713
1.00034 1.00278 0.991357
1.00027 1.00269 0.991571
1.00049 1.0028 0.991175
0.994645 0.997566 0.929522
0.994665 0.996674 0.93712
0.994605 0.99735 0.93317
0.994783 0.997012 0.91099
0.994859 0.998368 0.970092
0.995274 1.00003 0.950558
0.994846 0.999958 0.928763
0.994906 0.99867 0.968181
0.995113 1.00003 0.949303
0.995103 0.999985 0.927422
0.994759 0.997898 0.911269
0.995688 0.997059 0.972085
0.995032 1.00067 0.948423
0.994815 0.999948 0.919434
0.994743 0.99951 0.89925
0.999979 1.00358 0.991181
1.00033 1.00346 0.990651
1.0002 1.00373 0.990622
1.00037 1.00297 0.991138
0.996954 0.997937 0.996523
0.996403 1.0011 1.00053
1.00009 1.00444 0.989987
0.999784 1.00495 0.990123
0.999743 1.00397 0.991836
0.999896 1.00431 0.990571
0.999075 1.00519 0.991443
0.995522 0.998774 0.994105
0.996435 1.00361 0.99807
0.998626 1.00463 0.992342
0.995338 0.99907 0.992442
0.997739 1.00475 0.995993
0.994487 0.995014 0.955388
0.994402 0.994926 0.963665
0.994379 0.994894 0.958482
0.995246 1.00505 0.998768
0.994992 0.997538 0.988951
0.994489 0.994642 0.959271
0.996714 1.00097 0.947009
0.995084 0.99996 0.92774
0.99462 0.997419 0.933385
0.994728 0.999559 0.896652
0.994925 1.002 0.999383
0.994494 0.994716 0.951898
0.995448 0.999601 0.917083
0.994888 1.00068 0.978861
0.994665 0.998035 0.890907
0.997363 0.999902 0.919529
0.994975 1.00001 0.948705
0.995356 1.00385 0.993551
0.995139 0.995264 0.932696
0.995214 0.997416 0.901758
0.998674 0.997583 0.922387
0.995511 0.999973 0.954804
0.994897 0.999494 0.971863
0.995512 1.00217 0.999929
0.995976 1.00403 0.998439
0.998408 1.00001 0.997973
0.996683 1.00439 0.995586
0.998469 1.00325 0.99363
1.00278 1.00024 0.989856
1.00104 1.00364 0.99047
1.00137 1.00483 0.987767
1.00276 1.00345 0.985596
1.00152 1.00418 0.987846
1.00324 1.00428 0.984996
1.0043 1.003 0.983906
1.00505 1.0011 0.984325
1.00489 1.00265 0.983934
1.00478 1.00251 0.983643
1.00217 1.00293 0.987406
1.00263 1.00277 0.987073
1.00302 1.0037 0.985714
1.00105 1.00445 0.988544
1.00144 1.00358 0.988777
1.00141 1.00282 0.989222
1.00003 1.00424 0.990424
0.999966 1.0049 0.989759
1.00039 1.00492 0.989366
0.999999 1.00137 0.993285
1.00004 1.00306 0.991614
0.999962 1.00419 0.990766
0.999812 0.998668 0.996327
1.0001 1.00073 0.993802
1.0001 1.0022 0.992406
1.00017 1.00041 0.994008
0.999901 0.998463 0.996385
0.999657 0.997282 0.999195
0.999993 0.998263 0.996421
0.999739 0.997127 0.999202
0.999814 0.996996 0.999204
1.00027 1.00257 0.991697
1.00039 1.00187 0.992211
1.00033 1.00058 0.993537
1.00035 1.00181 0.992332
1.00013 0.998258 0.996174
1.00028 1.00043 0.993773
1.00028 1.00178 0.992446
0.999939 0.996834 0.999179
1.00015 0.998044 0.996356
1.00024 1.00026 0.994004
0.999988 0.996628 0.999227
1.00016 0.997865 0.996529
1.00002 0.996472 0.999267
0.994469 0.994613 0.950821
0.994498 0.994662 0.957388
0.99443 0.994747 0.951433
1.00032 1.00243 0.991742
1.00014 1.00302 0.991442
1.00006 1.00333 0.991233
1.00013 1.00292 0.991467
1.00019 1.00339 0.991135
1.00032 1.00242 0.991722
1.0003 1.00283 0.991327
1.00028 1.00268 0.991567
1.00042 1.00284 0.99121
1.00014 1.00299 0.991604
0.995097 0.999339 0.917202
0.994643 0.997741 0.92946
0.994643 0.996767 0.941617
0.994766 0.997636 0.911376
0.994893 0.999971 0.920106
0.994897 0.998912 0.966815
0.994963 1.00026 0.954995
0.995005 0.997371 0.968794
0.99534 1.00035 0.955095
0.99483 0.999973 0.925411
0.994955 0.999338 0.897051
0.99514 0.995415 0.973555
0.994928 1.00044 0.95601
0.995654 0.999884 0.92712
0.994922 0.998183 0.897925
0.998983 1.00268 0.993657
0.99996 1.00369 0.991221
1.00031 1.00351 0.99065
0.995347 0.999451 0.991503
0.995943 1.0044 0.998344
0.999856 1.00425 0.990597
0.998652 1.00521 0.991424
0.998673 1.00466 0.992389
0.997119 1.0044 0.995939
0.995023 0.999411 0.992718
0.996791 1.00312 0.996672
0.995934 1.00059 0.992445
0.994888 0.996962 0.933901
0.994438 0.994988 0.957023
0.994369 0.994762 0.966016
0.99498 1.00054 0.999821
0.994902 1.0008 0.974588
0.994442 0.994728 0.951813
0.996888 1.00014 0.952241
0.995251 0.99991 0.927233
0.99562 0.999952 0.916604
0.99468 0.998143 0.882599
0.995372 1.00391 0.993921
0.995076 0.996151 0.932486
0.995343 0.997817 0.899353
0.994901 0.99949 0.972931
0.998576 0.998896 0.922645
0.996351 0.999978 0.950802
0.996145 1.00109 0.991504
0.995049 0.995846 0.910135
0.999312 0.997569 0.925523
0.997868 0.998538 0.94874
0.994845 0.998002 0.974144
0.995522 1.00475 0.998416
0.998233 1.00017 0.99792
1.00303 0.998489 0.992814
0.997596 1.00342 0.994013
1.00177 1.00068 0.990362
1.00392 0.998508 0.988384
1.00168 1.00474 0.987626
1.00284 1.00352 0.985663
1.00441 1.00066 0.985798
1.00319 1.0043 0.984774
1.00422 1.00286 0.983985
1.00499 1.00007 0.985425
1.0051 0.999416 0.985885
1.0051 1.00161 0.98372
1.00504 1.00104 0.984373
1.00428 1.0023 0.985013
1.0047 1.00254 0.983797
1.00489 1.0025 0.983424
1.00182 1.00388 0.987616
1.00211 1.0029 0.987707
1.00262 1.00287 0.987308
1.00067 1.00424 0.989314
1.00092 1.00442 0.988651
1.00132 1.00351 0.988801
0.999946 1.0025 0.992218
1.00011 1.00411 0.990432
1.00004 1.00485 0.989878
0.999717 0.999018 0.99668
1.00002 1.00139 0.993259
1.00012 1.00295 0.991611
0.999576 0.997522 0.998071
0.999809 0.998714 0.996575
1.0001 1.00074 0.99379
0.999902 0.998472 0.99638
0.999649 0.997324 0.99919
0.99973 0.997158 0.9992
1.00019 1.00292 0.991424
1.00037 1.00208 0.992035
1.00024 1.00263 0.991664
1.00033 1.00076 0.993354
1.00035 1.00192 0.992206
1.00009 0.998476 0.996025
1.00032 1.0006 0.993536
1.00036 1.0018 0.99232
0.999885 0.997043 0.999138
1.00013 0.998252 0.996184
1.00028 1.00044 0.99377
0.999945 0.996799 0.99919
1.00015 0.998042 0.996367
0.999993 0.9966 0.999237
0.995433 0.995027 0.934961
0.994493 0.994726 0.950742
0.994503 0.994632 0.959113
1.00019 1.00315 0.991255
1.00032 1.00245 0.991766
1.00011 1.00307 0.991404
1.00019 1.00293 0.9915
1.00015 1.00325 0.991278
1.00013 1.00338 0.991154
1.00013 1.00374 0.990777
0.999953 1.00353 0.991066
1.00033 1.00263 0.991562
1.00034 1.00285 0.991246
1.0001 1.00303 0.991552
0.999476 1.00342 0.99266
0.995261 0.998589 0.900282
0.995454 0.999491 0.916606
0.994642 0.997925 0.929399
0.995207 0.999135 0.901257
0.994919 0.999953 0.925058
0.994959 1.00066 0.948435
0.995707 0.997387 0.966593
0.99529 0.995613 0.975315
0.994764 0.99816 0.890047
0.995031 1.00003 0.952191
0.997301 0.999867 0.919505
0.994894 0.996417 0.976477
0.995647 1.00003 0.956382
0.999253 0.997707 0.919583
0.998913 1.00121 0.995462
0.999196 1.00261 0.993627
0.999931 1.00379 0.991261
0.994872 0.999572 0.992971
0.996804 1.00402 0.995886
0.99877 1.00464 0.992435
0.997932 1.00292 0.99644
0.995559 1.0008 0.992569
0.997212 1.0007 0.993631
0.994875 0.998828 0.909236
0.994877 0.995976 0.938192
0.994368 0.994874 0.958658
0.995273 1.00449 0.994306
0.994899 0.99934 0.973513
0.994966 0.996599 0.932358
0.995279 1 0.949833
0.99867 0.997499 0.914891
0.995577 0.997714 0.902304
0.996295 1.00151 0.991527
0.995113 0.995982 0.913285
0.99984 0.996699 0.918809
0.994864 0.998155 0.970162
0.997518 0.998606 0.955423
0.997998 0.9993 0.993678
0.999862 0.995801 0.918684
0.99958 0.997874 0.954973
0.994877 0.997402 0.96968
0.998004 1.00054 0.997937
1.00222 0.997767 0.993425
1.00396 0.998372 0.990084
1.00082 1.0011 0.990869
1.00362 0.999147 0.988307
1.00474 0.997763 0.987889
1.00289 1.00354 0.985729
1.00421 1.00078 0.985788
1.00493 0.998144 0.987423
1.00412 1.00275 0.98406
1.00499 0.999966 0.985421
1.0051 0.997736 0.987568
1.00513 0.998014 0.987258
1.00512 1.00024 0.985118
1.0051 0.999348 0.985931
1.00509 1.00103 0.984394
1.00508 1.00154 0.983902
1.00503 1.00099 0.98442
1.00315 1.00297 0.986118
1.00392 1.00232 0.985133
1.00452 1.00241 0.983659
1.00155 1.00363 0.988335
1.00189 1.00381 0.987592
1.00206 1.00286 0.988007
1.00028 1.0032 0.990992
1.00071 1.0042 0.989322
1.0008 1.00438 0.988759
0.999655 0.999604 0.995616
1.00006 1.0024 0.992199
1.00021 1.00398 0.990438
0.999465 0.997756 0.999161
0.99971 0.999097 0.996092
1.00005 1.0014 0.993233
0.999566 0.99752 0.999174
0.999801 0.998747 0.996294
0.999642 0.997369 0.999185
1.00034 1.00296 0.991234
1.00023 1.00291 0.991409
1.00035 1.00238 0.991764
1.00029 1.00099 0.993192
1.00033 1.00211 0.992035
1.00024 1.00264 0.991631
1.00003 0.998678 0.995924
1.00032 1.00077 0.993355
1.00033 1.00195 0.992201
0.999823 0.99725 0.999102
1.00009 0.998468 0.996033
1.00031 1.00061 0.993534
0.999892 0.996998 0.99915
1.00012 0.998248 0.996194
0.999952 0.996759 0.999202
0.995318 0.997822 0.902723
0.995247 0.995192 0.934776
0.994511 0.994855 0.950662
1.00008 1.00332 0.991216
1.00051 1.00332 0.990846
1.00006 1.00368 0.990915
1.00021 1.00294 0.991534
1.00023 1.00317 0.991323
1.00001 1.00343 0.991172
1.00006 1.00349 0.991051
1.00009 1.00377 0.99079
1.00001 1.00422 0.990558
1.00001 1.00132 0.99308
1.00017 1.00294 0.9915
0.999546 1.00313 0.992511
0.999819 0.996869 0.915732
0.995202 0.998582 0.896075
0.995697 0.99971 0.916041
0.994679 0.998159 0.882092
0.996694 0.99871 0.926735
0.9949 1.00004 0.952004
0.995509 0.995337 0.972889
0.994897 0.996744 0.974721
0.998567 0.998836 0.921665
0.99628 0.999987 0.950241
0.995304 0.998239 0.975177
0.999009 0.998289 0.948498
1.00195 0.998767 0.992948
0.99914 1.00115 0.995213
0.999358 1.0025 0.993611
0.994994 1.00115 0.992664
0.998737 1.00271 0.996197
0.997765 1.00092 0.99297
1.00012 0.999269 0.989866
0.999923 0.99485 0.924273
0.994918 0.997876 0.910719
0.994793 0.995114 0.942408
0.996442 1.00164 0.991661
0.99487 0.99824 0.968756
0.995224 0.99656 0.913421
0.99836 0.998108 0.948008
0.999842 0.997297 0.926376
0.99782 0.999153 0.991785
0.999897 0.995501 0.922787
1.00131 0.997053 0.946996
0.994895 0.997063 0.972899
0.999109 0.996366 0.993354
1.00006 0.996292 0.954405
0.995953 0.997468 0.975261
1.00145 0.99695 0.994006
1.00381 0.997586 0.990047
1.00498 0.996954 0.989162
1.0032 0.999792 0.988233
1.00453 0.997881 0.987885
1.00482 0.996775 0.988737
1.00406 1.00095 0.985779
1.00481 0.998246 0.987377
1.00507 0.996085 0.989068
1.00499 0.999866 0.985419
1.0051 0.997687 0.987565
1.00513 0.996373 0.98891
1.00511 0.997188 0.988299
1.00513 0.997866 0.987432
1.00516 0.998863 0.986556
1.00515 1.00032 0.985146
1.00512 1.00025 0.98514
1.00511 0.999281 0.985978
1.00453 1.00124 0.985192
1.00497 1.00105 0.984497
1.00506 1.00143 0.984084
1.00246 1.00326 0.987107
1.00318 1.00294 0.986095
1.00356 1.00237 0.985253
1.00084 1.0031 0.990096
1.00164 1.00358 0.988311
1.00195 1.00375 0.98757
0.999719 1.00036 0.994725
1.00037 1.00306 0.990994
1.00079 1.00411 0.98933
0.999469 0.998012 0.999061
0.999655 0.9997 0.995571
1.00015 1.00232 0.992181
0.999497 0.997779 0.998574
0.999703 0.999156 0.99607
0.999568 0.997585 0.999162
1.00047 1.00294 0.991013
1.00022 1.00305 0.991248
1.00026 1.0028 0.991446
1.00029 1.0029 0.991394
1.0003 1.00244 0.991763
1.00024 1.0013 0.99297
0.999948 0.998885 0.995867
1.00029 1.00098 0.993198
1.00028 1.00217 0.992035
0.999755 0.997434 0.999078
1.00003 0.998672 0.99593
1.00032 1.00078 0.993356
0.999829 0.997213 0.999112
1.00009 0.998465 0.99604
0.999899 0.996957 0.999162
0.999873 0.995234 0.9241
0.995356 0.998007 0.903919
0.995218 0.995287 0.93458
0.99997 1.0035 0.991177
0.999993 1.00391 0.990781
1.00032 1.00331 0.991036
1.00118 1.00345 0.989442
1.00003 1.00428 0.990485
1.00014 1.0035 0.991036
1.00008 1.00378 0.990802
0.999933 1.00407 0.990727
1.0002 1.00378 0.989738
1.00072 1.0011 0.992361
1.00409 0.99919 0.988229
0.999827 1.00145 0.993394
0.999723 1.00281 0.992359
0.99996 0.997294 0.953869
0.999788 0.997236 0.918797
0.995179 0.998356 0.89732
0.999097 0.998694 0.913401
0.995824 0.999941 0.953691
0.994904 0.996633 0.97676
0.995049 0.998157 0.977271
0.997444 0.998493 0.95674
0.996306 0.998689 0.976094
1.00377 0.996541 0.991405
1.00144 0.999064 0.993021
0.99937 1.00114 0.994953
0.998349 1.00094 0.992367
1.0013 0.999856 0.988226
1.00002 0.995119 0.951073
0.999913 0.994886 0.927417
0.995047 0.996852 0.912287
0.997539 0.99914 0.989862
0.994858 0.996927 0.969965
0.999877 0.995886 0.923698
0.999894 0.997921 0.954826
0.998651 0.997746 0.993711
1.00135 0.99613 0.953697
0.99617 0.997227 0.972117
1.00097 0.997635 0.9918
0.999241 0.996246 0.980376
1.00362 0.996796 0.990048
1.00497 0.99638 0.989083
1.00502 0.995646 0.989943
1.00435 0.998063 0.987881
1.00474 0.99681 0.988708
1.00507 0.99529 0.989929
1.00467 0.998353 0.987332
1.00507 0.996139 0.989046
1.00512 0.995239 0.989919
1.0051 0.997639 0.987562
1.00513 0.996382 0.98887
1.0051 0.996246 0.989284
1.00512 0.996987 0.98843
1.00514 0.997903 0.987579
1.00512 0.997718 0.987606
1.00516 0.998882 0.986539
1.00516 0.999511 0.985927
1.00503 1.00016 0.985451
1.00515 1.00038 0.985113
1.00513 1.00025 0.985162
1.00369 1.00191 0.986288
1.00452 1.00127 0.985213
1.00485 1.00109 0.984601
1.00145 1.00283 0.98923
1.0025 1.0032 0.987091
1.00321 1.00293 0.986071
0.999947 1.00088 0.993771
1.00089 1.00304 0.99009
1.00167 1.00358 0.988288
0.99952 0.998407 0.998872
0.999751 1.00039 0.994696
1.00047 1.00292 0.990998
0.999507 0.998082 0.999008
0.99966 0.999791 0.995525
0.999529 0.997815 0.999104
1.00126 1.00309 0.989447
1.00051 1.00285 0.991002
1.00032 1.00304 0.991006
1.00012 1.00311 0.991263
1.00022 1.00287 0.991397
1.0002 1.00176 0.992563
1.00026 1.00247 0.991764
1.00023 1.0013 0.992979
0.999855 0.99913 0.995793
0.999685 0.997602 0.999064
0.999952 0.998865 0.995873
1.00028 1.00097 0.993204
0.999761 0.997414 0.999085
1.00003 0.998668 0.995936
0.999836 0.997171 0.999123
1.00072 0.995045 0.957217
0.999893 0.995792 0.922804
0.995231 0.998398 0.901518
0.999929 1.00413 0.990647
1.00016 1.00325 0.991225
1.0001 1.00423 0.99053
1.00107 1.0034 0.989543
1.00203 1.00393 0.987488
1.00037 1.00397 0.989763
0.999847 1.00394 0.990895
1.00061 1.00383 0.98937
1.00057 1.00149 0.992173
1.00221 1.00101 0.988992
1.00419 0.998687 0.989239
1.00456 0.997339 0.988849
1.00357 0.999049 0.988946
0.999457 1.00179 0.99371
0.995779 0.99752 0.975434
1.00043 0.996507 0.952228
0.998947 0.997433 0.926132
0.998507 0.998993 0.948418
0.994868 0.998349 0.978584
0.996468 0.998589 0.980494
1.00046 0.998305 0.992237
1.00379 0.996304 0.991626
1.00123 0.999264 0.993096
1.00269 1.00044 0.986518
0.997363 0.996948 0.976514
1.00048 0.995197 0.958941
0.999894 0.994866 0.920421
0.998329 0.998606 0.993966
0.99614 0.996668 0.97422
1.00066 0.996398 0.952789
1.00093 0.997734 0.991934
0.998658 0.996495 0.979427
1.00357 0.997024 0.991077
1.00353 0.997187 0.988991
1.00491 0.995832 0.988981
1.00499 0.995553 0.989893
1.0051 0.994866 0.990458
1.00469 0.996815 0.988678
1.00507 0.99527 0.989894
1.00508 0.995005 0.990383
1.00506 0.996183 0.989024
1.00513 0.995328 0.989889
1.00511 0.99572 0.989805
1.00513 0.996391 0.988831
1.0051 0.996232 0.989187
1.00512 0.997061 0.988349
1.00512 0.996789 0.988559
1.00514 0.997774 0.987739
1.00517 0.998966 0.986517
1.00515 0.9989 0.986523
1.00517 0.999577 0.985893
1.00509 0.999766 0.985907
1.00447 1.00034 0.986197
1.00504 1.00025 0.985461
1.00514 1.00044 0.985081
1.0024 1.002 0.988392
1.00364 1.00189 0.986308
1.00452 1.00128 0.985235
1.00016 1.00135 0.992909
1.00149 1.00285 0.989215
1.00255 1.00314 0.987074
0.999625 0.998885 0.998595
1.00001 1.00087 0.993761
1.00096 1.00298 0.990083
0.999581 0.998513 0.998775
0.999777 1.00044 0.994668
0.999557 0.998152 0.99894
1.00189 1.00366 0.987747
1.00132 1.00309 0.989477
1.00087 1.0031 0.99004
1.0005 1.0028 0.990991
1.00038 1.00302 0.990921
1.00031 1.00219 0.991965
1.00019 1.00293 0.991348
1.00019 1.00177 0.99257
0.99977 0.999485 0.995593
1.00022 1.00129 0.992987
0.999864 0.99909 0.995804
0.999624 0.997766 0.999042
0.99969 0.997584 0.999069
0.999955 0.998846 0.995879
0.999765 0.997384 0.999092
0.996685 0.996591 0.977103
1.0007 0.995238 0.950001
0.999876 0.994973 0.927905
1.00382 1.00247 0.985662
1.00018 1.00417 0.990575
1.00098 1.00337 0.989645
1.00056 1.00401 0.989613
1.00189 1.00394 0.987461
1.00223 1.0018 0.988633
1.00102 1.00388 0.989003
1.00044 1.00184 0.991988
1.00248 1.00096 0.989119
1.00419 0.998506 0.98889
1.00479 0.997957 0.987647
1.0042 0.996088 0.990878
1.00447 0.997219 0.988564
1.00297 0.998823 0.989663
0.99996 0.998216 0.993627
0.996028 0.997644 0.973762
1.00018 0.996467 0.951113
0.996659 0.998201 0.978262
1.00052 0.997385 0.99437
1.00332 0.996192 0.991827
1.00149 0.996455 0.988974
0.996844 0.995887 0.978429
1.00003 0.995024 0.951239
1.00065 0.998256 0.992103
0.998622 0.996845 0.978132
1.00335 0.996591 0.99133
1.00345 0.996774 0.989203
1.0048 0.99491 0.991043
1.00462 0.996975 0.990752
1.00502 0.995445 0.989847
1.0051 0.994899 0.990364
1.00511 0.994885 0.9904
1.00504 0.995262 0.989859
1.00506 0.994986 0.990376
1.00512 0.995331 0.990088
1.00513 0.995422 0.989858
1.00512 0.995691 0.989742
1.00511 0.996621 0.988826
1.0051 0.996217 0.98909
1.00512 0.997077 0.98835
1.00517 0.998369 0.98703
1.00514 0.997647 0.987898
1.00517 0.998865 0.986642
1.00512 0.999558 0.985976
1.00517 0.999641 0.985859
1.00509 0.999786 0.985827
1.00464 0.999937 0.986432
1.0032 1.00084 0.988139
1.00441 1.00041 0.986273
1.00506 1.00034 0.985471
1.0006 1.0013 0.992192
1.00237 1.00204 0.988403
1.00358 1.00188 0.986326
0.999676 0.999384 0.998328
1.00032 1.00118 0.992889
1.00152 1.00285 0.989202
0.999675 0.998977 0.998498
1.00008 1.00082 0.993749
0.999647 0.998597 0.998673
1.00326 1.00275 0.985989
1.00185 1.00369 0.987776
1.00157 1.00337 0.988706
1.00138 1.0031 0.989507
1.00091 1.00307 0.990055
1.00049 1.00261 0.991271
1.00044 1.00301 0.990836
1.00022 1.00231 0.991964
0.99973 0.999969 0.995175
1.00016 1.0018 0.992576
0.999781 0.999421 0.995614
0.999585 0.997972 0.998982
0.999872 0.999053 0.995815
0.999624 0.997747 0.999051
0.999693 0.997572 0.999073
1.00089 0.996916 0.991915
0.99701 0.995961 0.973444
1.00011 0.995143 0.958065
1.00348 1.00091 0.986849
1.00508 0.999162 0.986356
1.0037 1.0022 0.985796
1.00073 1.00405 0.989463
1.00175 1.00394 0.987426
1.00253 1.00173 0.988398
1.00507 0.998249 0.987541
1.00273 1.00091 0.989244
1.00414 0.998332 0.988535
1.00476 0.997966 0.987904
1.00502 0.99687 0.988567
1.00445 0.995537 0.990886
1.00424 0.996262 0.99053
1.00458 0.997227 0.988278
1.00011 0.998394 0.993748
0.995988 0.997769 0.971684
1.0007 0.996734 0.996544
1.00438 0.995338 0.992042
1.00122 0.996841 0.989129
0.997113 0.995297 0.975881
1.00337 0.996228 0.99156
1.00338 0.99685 0.989437
1.00483 0.994974 0.991233
1.00471 0.996246 0.990628
1.00513 0.994937 0.990288
1.00513 0.995102 0.990363
1.0051 0.994967 0.990269
1.0051 0.994899 0.990392
1.00519 0.995192 0.990029
1.00506 0.994963 0.990369
1.00511 0.995361 0.990005
1.00511 0.996134 0.989253
1.00512 0.995662 0.989679
1.00511 0.996632 0.98883
1.00517 0.998015 0.987402
1.00512 0.997093 0.98835
1.00517 0.998377 0.987045
1.00514 0.999386 0.986107
1.00517 0.998762 0.986767
1.00511 0.999523 0.986013
1.00471 0.999873 0.986389
1.00509 0.999813 0.985747
1.00463 0.999946 0.986391
1.00349 1.00023 0.988222
1.00099 1.00085 0.991902
1.00317 1.00086 0.988142
1.00437 1.00047 0.98635
0.999718 0.999893 0.998086
1.00067 1.00124 0.99217
1.00232 1.00211 0.988413
0.999724 0.999509 0.998236
1.00044 1.00109 0.992865
0.999723 0.999075 0.998406
1.00467 1.00035 0.98574
1.00329 1.00266 0.985958
1.0026 1.003 0.987076
1.00182 1.00371 0.987805
1.00149 1.00338 0.98874
1.00086 1.00294 0.990331
1.00095 1.00304 0.990071
1.00041 1.00271 0.991275
0.999821 1.00049 0.994521
1.00016 1.00241 0.991963
0.999736 0.999906 0.995197
0.999574 0.998284 0.998848
0.999793 0.99936 0.995635
0.999576 0.997939 0.999006
0.999626 0.997732 0.999059
1.00453 0.99501 0.991596
1.00102 0.996471 0.990593
0.996506 0.995436 0.973962
1.00512 0.998228 0.987212
1.0037 1.00046 0.987079
1.00515 0.998535 0.98694
1.00505 0.999305 0.986347
1.00358 1.00191 0.985941
1.0051 0.99745 0.987848
1.00282 1.00165 0.98817
1.00505 0.998307 0.987348
1.00514 0.996118 0.98898
1.00472 0.998016 0.988163
1.00495 0.996967 0.988501
1.00446 0.995627 0.991001
1.00411 0.996308 0.990169
1.00008 0.99857 0.993863
1.00511 0.995072 0.990091
1.00439 0.995844 0.992097
1.00098 0.996873 0.989259
1.00484 0.995039 0.991429
1.00474 0.99546 0.990507
1.00512 0.994947 0.990344
1.00513 0.99499 0.990327
1.0052 0.994982 0.990255
1.00509 0.994904 0.990385
1.00519 0.995157 0.99005
1.00515 0.995892 0.989532
1.00511 0.995389 0.989922
1.00512 0.996199 0.989175
1.00515 0.997793 0.987668
1.00511 0.996644 0.988834
1.00517 0.998028 0.987408
1.00516 0.999201 0.986272
1.00516 0.998384 0.98706
1.00513 0.999379 0.986125
1.00477 0.999842 0.986317
1.00511 0.999487 0.986049
1.0047 0.99988 0.986398
1.0036 1.00008 0.988183
1.00462 0.999954 0.986349
1.00348 1.00024 0.988208
1.0011 1.00044 0.993338
0.999947 0.999993 0.995394
1.00104 1.00079 0.992551
1.00314 1.00089 0.988145
0.99978 0.999988 0.998002
1.0008 1.00111 0.992155
0.999776 0.999608 0.998135
1.00519 0.998548 0.986892
1.00509 0.999373 0.986227
1.00469 1.00035 0.985811
1.00385 1.00139 0.986349
1.0033 1.00257 0.985928
1.00257 1.00306 0.987076
1.00158 1.00279 0.989151
1.00142 1.00339 0.988774
1.00078 1.00297 0.990361
1.00006 1.00099 0.99364
1.00033 1.00281 0.991279
0.999781 1.00049 0.994533
0.99957 0.998743 0.998627
0.999742 0.99984 0.995219
0.999552 0.998217 0.998901
0.999572 0.997909 0.999027
1.00514 0.995444 0.989669
1.00473 0.995006 0.991815
1.00141 0.99591 0.989287
1.00511 0.997672 0.987627
1.00507 0.998261 0.987176
1.00393 1.00005 0.987297
1.00514 0.998592 0.986903
1.00503 0.999454 0.986339
1.00511 0.996375 0.989187
1.00509 0.997466 0.987756
1.00504 0.99837 0.987156
1.00513 0.996119 0.989001
1.00494 0.997041 0.988434
1.00451 0.995794 0.991139
1.00517 0.9951 0.990339
1.00513 0.995112 0.990224
1.00443 0.996381 0.992156
1.00512 0.994917 0.990396
1.00515 0.994957 0.990291
1.0052 0.994954 0.990265
1.00514 0.99586 0.989689
1.00519 0.995127 0.990071
1.00516 0.995885 0.98949
1.00511 0.997621 0.987939
1.00512 0.996269 0.989097
1.00516 0.997796 0.987669
1.00517 0.999029 0.986445
1.00517 0.998042 0.987414
1.00516 0.999196 0.986282
1.00483 0.999812 0.986242
1.00513 0.999372 0.986143
1.00477 0.999842 0.986327
1.00368 1.00007 0.988043
1.0047 0.999888 0.986407
1.0036 1.00008 0.988178
1.0012 1.00013 0.9935
1.00348 1.00025 0.988194
1.00124 1.00035 0.993298
0.999936 1.00002 0.995519
0.999819 1.00022 0.996643
1.00119 1.00072 0.993092
0.999823 1.00011 0.997933
1.00517 0.998172 0.98731
1.00512 0.999103 0.986456
1.0052 0.998384 0.986991
1.0046 0.999955 0.986479
1.0051 0.999374 0.986189
1.0047 1.00036 0.985882
1.00389 1.00139 0.98632
1.00258 1.00176 0.988286
1.00255 1.00313 0.987075
1.00155 1.00275 0.989169
1.0004 1.00136 0.992681
1.00069 1.003 0.99039
0.999937 1.00109 0.993662
0.999562 0.999385 0.99834
0.999735 1.00049 0.994545
0.999544 0.998644 0.998714
0.999541 0.998154 0.998947
1.00512 0.995614 0.989726
1.00515 0.995468 0.989657
1.00484 0.994981 0.992002
1.00513 0.997082 0.988414
1.00512 0.9977 0.987619
1.00502 0.998289 0.98714
1.00514 0.998646 0.986866
1.00511 0.996363 0.989057
1.00507 0.997489 0.987663
1.00512 0.996115 0.989022
1.00519 0.995805 0.989681
1.00517 0.995148 0.990244
1.00515 0.995109 0.990357
1.00512 0.996472 0.989003
1.0052 0.994934 0.990275
1.00514 0.995943 0.989569
1.00509 0.997371 0.98838
1.00517 0.99588 0.989448
1.00511 0.997612 0.987944
1.00516 0.998873 0.98662
1.00516 0.997804 0.987671
1.00516 0.999029 0.986454
1.0049 0.99975 0.986197
1.00515 0.999192 0.986292
1.00483 0.999808 0.986253
1.00376 1.00009 0.987872
1.00477 0.999841 0.986337
1.00369 1.00006 0.988044
1.00129 1.00002 0.993479
1.0036 1.00007 0.988172
1.00131 1.00008 0.99343
0.999957 0.999932 0.995596
1.00136 1.00025 0.993267
0.999711 1.00018 0.995644
0.999492 1.00048 0.998117
1.00516 0.998107 0.987304
1.00515 0.998846 0.98668
1.00518 0.998191 0.987219
1.00473 0.999626 0.98691
1.00512 0.998994 0.9865
1.00521 0.998226 0.987089
1.00336 1.00051 0.988103
1.00461 0.999921 0.98647
1.00511 0.99938 0.986151
1.00394 1.0014 0.986291
1.00261 1.00172 0.988276
1.00078 1.00125 0.992033
1.00152 1.00273 0.989188
1.00025 1.00148 0.992715
0.999596 1.00009 0.998054
0.999832 1.00117 0.993681
0.999528 0.999246 0.998453
0.999524 0.998531 0.998791
1.00515 0.996413 0.988937
1.00513 0.995527 0.989759
1.00515 0.995504 0.989646
1.00512 0.997011 0.988458
1.00512 0.997724 0.98761
1.00511 0.996348 0.988928
1.00514 0.996606 0.988975
1.00518 0.995852 0.989618
1.00516 0.995196 0.99015
1.00511 0.996485 0.989085
1.00511 0.997457 0.988132
1.00514 0.99602 0.989449
1.00509 0.997479 0.98817
1.00517 0.998546 0.986998
1.0051 0.997599 0.987949
1.00516 0.998862 0.986628
1.00496 0.999643 0.986195
1.00515 0.999021 0.986464
1.00489 0.999748 0.986209
1.00386 1.00008 0.987701
1.00483 0.999803 0.986265
1.00377 1.00008 0.987877
1.00135 1.00007 0.993306
1.00369 1.00004 0.988045
1.00139 0.999985 0.993386
1.00002 0.999905 0.995537
1.00141 1.00003 0.99337
0.999758 0.999994 0.995743
0.999501 1.00037 0.995752
1.00515 0.997515 0.987998
1.00517 0.998818 0.986612
1.00516 0.997966 0.987449
1.00483 0.99942 0.986784
1.00515 0.998906 0.98662
1.00518 0.998209 0.987127
1.00361 0.999949 0.98825
1.00471 0.999528 0.986788
1.00512 0.998882 0.986543
1.00107 1.0007 0.991977
1.00338 1.0005 0.988103
1.00462 0.999889 0.986462
1.00264 1.0017 0.988266
1.00069 1.00134 0.992049
0.999656 1.00055 0.997901
1.00012 1.00159 0.992745
0.999532 0.999938 0.998161
0.999501 0.999086 0.998556
1.00513 0.996736 0.988729
1.00515 0.996399 0.988966
1.00515 0.99544 0.989792
1.00512 0.996943 0.988501
1.00512 0.997545 0.988047
1.00514 0.996588 0.989006
1.00518 0.995898 0.989556
1.0051 0.996501 0.989166
1.00511 0.997391 0.988193
1.00514 0.998457 0.987187
1.00508 0.997586 0.98796
1.00517 0.998668 0.986848
1.00501 0.999379 0.986349
1.00515 0.998858 0.986636
1.00495 0.999643 0.986205
1.00396 1.00003 0.98755
1.00487 0.999751 0.986221
1.00386 1.00007 0.987705
1.00146 1.00013 0.991873
1.00378 1.00007 0.987882
1.00145 1.00004 0.992607
0.999977 0.999947 0.997909
1.00148 0.999961 0.993295
0.999841 0.999899 0.995698
0.999572 1.00006 0.995873
1.00514 0.997376 0.988217
1.00517 0.998586 0.986917
1.00515 0.997595 0.987949
1.00493 0.999244 0.986523
1.00517 0.998808 0.986664
1.00516 0.997824 0.987594
1.00374 0.999745 0.98794
1.00483 0.999434 0.986792
1.00515 0.998964 0.98656
1.00122 1.00017 0.99221
1.00361 0.999902 0.988132
1.0047 0.999425 0.986667
0.999703 1.00056 0.99792
1.00105 1.00073 0.991978
1.0034 1.00049 0.988103
1.0006 1.0014 0.992075
0.999614 1.00041 0.997942
0.999473 0.999767 0.998272
1.00513 0.997463 0.9881
1.00513 0.996752 0.988727
1.00514 0.996384 0.988995
1.00515 0.998426 0.987138
1.00512 0.997483 0.988102
1.00514 0.996568 0.989036
1.00511 0.997319 0.988253
1.00514 0.998439 0.987193
1.00499 0.999264 0.986727
1.00517 0.998791 0.986698
1.005 0.999476 0.986378
1.00405 0.999874 0.987336
1.00494 0.999637 0.986215
1.00396 1.00003 0.987554
1.00153 1.00012 0.991738
1.00386 1.00007 0.98771
1.00147 1.00012 0.991867
1 0.999974 0.997867
1.00147 1.00003 0.991984
0.999907 0.999934 0.996773
0.999665 0.999874 0.995854
1.00513 0.997667 0.987899
1.00517 0.998471 0.986975
1.00514 0.997356 0.988228
1.00497 0.999287 0.986503
1.00517 0.998632 0.986836
1.00515 0.997676 0.987901
1.0039 0.999624 0.987771
1.00493 0.999324 0.986605
1.00517 0.998798 0.986716
1.00135 0.999904 0.992249
1.00375 0.999747 0.987913
1.00484 0.999448 0.986799
0.999804 1.0003 0.997969
1.00123 1.00016 0.992214
1.00362 0.999856 0.988014
0.999712 1.00049 0.997897
1.00102 1.00074 0.991977
0.999531 1.00033 0.99801
1.00515 0.998287 0.987297
1.00513 0.997499 0.988043
1.00513 0.99677 0.988725
1.00495 0.999135 0.986908
1.00515 0.998371 0.987216
1.00512 0.997429 0.988158
1.00514 0.998421 0.987199
1.00499 0.999267 0.986724
1.00404 0.999754 0.987474
1.00499 0.999575 0.986408
1.00404 0.999916 0.987406
1.00161 1.00007 0.991662
1.00397 1.00002 0.987558
1.00153 1.00012 0.991734
1.00004 1 0.997802
1.00147 1.00012 0.99186
1.00001 0.999986 0.997839
0.999978 0.999883 0.995479
1.00517 0.998431 0.987068
1.00514 0.997536 0.98799
1.00498 0.99923 0.986572
1.00517 0.99848 0.986971
1.00514 0.997335 0.988239
1.00396 0.999684 0.987891
1.00496 0.99929 0.986497
1.00517 0.998676 0.986755
1.00148 0.999842 0.992081
1.0039 0.999673 0.987852
1.00493 0.999408 0.986685
0.999952 1.00006 0.997933
1.00135 0.999896 0.992257
1.00376 0.999742 0.987885
0.999788 1.0003 0.997951
1.00123 1.00015 0.992215
0.999691 1.00047 0.997886
1.00493 0.999094 0.986986
1.00515 0.998331 0.987242
1.00513 0.997537 0.987987
1.00396 0.999681 0.987671
1.00495 0.999148 0.986909
1.00515 0.998312 0.987293
1.00499 0.999271 0.986722
1.00405 0.999749 0.987447
1.00161 1.00003 0.991692
1.00404 0.999955 0.987475
1.0016 1.00007 0.991662
1.0001 1.00001 0.997754
1.00154 1.00012 0.99173
1.00006 1.00001 0.997787
1.00003 0.999996 0.997816
1.00496 0.999174 0.986664
1.00517 0.998301 0.987193
1.00514 0.997406 0.988081
1.00396 0.999699 0.987885
1.00497 0.999233 0.986564
1.00517 0.998488 0.986967
1.00154 0.999922 0.991912
1.00396 0.999692 0.987886
1.00496 0.999292 0.986491
1.00005 0.999945 0.997855
1.00148 0.999857 0.992085
1.0039 0.999715 0.987933
0.999904 1.00009 0.997953
1.00135 0.999902 0.992267
0.999795 1.0003 0.997925
1.00393 0.999728 0.987923
1.00493 0.999057 0.986908
1.00515 0.998371 0.987188
1.00157 0.999984 0.991829
1.00398 0.999669 0.987647
1.00495 0.99916 0.98691
1.00406 0.999741 0.98742
1.00161 1.00002 0.9917
1.00013 1.00001 0.997721
1.00159 1.00008 0.991662
1.00011 1.00001 0.997737
1.00007 1.00002 0.997772
1.00394 0.999701 0.987916
1.00495 0.999098 0.986713
1.00517 0.998172 0.987319
1.00162 0.999996 0.993011
1.00396 0.999696 0.987882
1.00496 0.999235 0.986556
1.00008 0.999946 0.997791
1.00154 0.999942 0.991916
1.00395 0.999699 0.98788
1.00002 0.999979 0.997886
1.00147 0.999884 0.99209
0.999875 1.00011 0.997965
1.00158 0.999979 0.991848
1.00393 0.999685 0.987836
1.00493 0.999019 0.98683
1.00009 1 0.997746
1.00156 0.999986 0.991832
1.00399 0.999659 0.987623
1.0016 1.00002 0.991705
1.00012 1.00001 0.997725
1.00012 1.00002 0.997726
1.00166 0.999985 0.99298
1.00395 0.999697 0.987915
1.00494 0.99902 0.986762
0.999797 0.999984 0.998065
1.00155 1 0.991848
1.00397 0.999692 0.987879
1.00007 0.999959 0.99782
1.00154 0.999963 0.991919
0.999991 0.999999 0.997914
1.00006 1 0.995326
1.0016 0.999977 0.992448
1.00394 0.999644 0.98775
1.00009 1 0.997752
1.00155 0.999986 0.99184
1.00012 1.00001 0.997725
0.999761 1 0.995619
1.0016 0.999986 0.992428
1.00395 0.999693 0.987915
0.999926 0.999984 0.996689
1.00155 0.999996 0.991854
1.00006 0.999971 0.997847
1.00006 0.999994 0.997767
1.00152 0.999979 0.99191
1.00006 0.999999 0.99776
0.999911 0.999994 0.996699
1.00154 0.99999 0.991884
1.00007 0.999972 0.997799
1.00006 0.999989 0.997779
1.00006 0.999984 0.997782

TENSORS stress float
0.00159592 -7.2684e-05 0.000150008
-7.2684e-05 0.000569825 -1.84889e-05
0.000150008 -1.84889e-05 0.000549001
0.00485827 -0.000113175 0.000142067
-0.000113175 0.00246647 1.23759e-05
0.000142067 1.23759e-05 0.00244837
0.00145434 1.62294e-06 7.35821e-05
1.62294e-06 0.000500624 -6.61487e-06
7.35821e-05 -6.61487e-06 0.000469663
0.00174411 -4.54648e-05 0.000150239
-4.54648e-05 0.000633296 -1.21836e-05
0.000150239 -1.21836e-05 0.000614612
0.00166214 -6.58718e-05 0.000146464
-6.58718e-05 0.00060162 -1.69376e-05
0.000146464 -1.69376e-05 0.000581689
0.0014652 -6.56019e-05 0.000150278
-6.56019e-05 0.000492172 -1.77137e-05
0.000150278 -1.77137e-05 0.000473158
0.00142559 -3.90903e-05 1.89395e-05
-3.90903e-05 0.00040705 -8.05623e-06
1.89395e-05 -8.05623e-06 0.000332521
0.0046701 -0.000134602 7.77661e-06
-0.000134602 0.00235682 -1.10364e-06
7.77661e-06 -1.10364e-06 0.00233986
0.00509141 -1.70253e-05 5.15366e-05
-1.70253e-05 0.00255996 2.48783e-06
5.15366e-05 2.48783e-06 0.00254715
0.00479822 -0.000292439 -9.10731e-06
-0.000292439 0.0024669 5.3717e-06
-9.10731e-06 5.3717e-06 0.00241557
0.00156433 3.01178e-05 0.000133584
3.01178e-05 0.000551367 1.09916e-05
0.000133584 1.09916e-05 0.000540743
0.000733318 0.000139349 1.81763e-05
0.000139349 2.65727e-05 1.17927e-05
1.81763e-05 1.17927e-05 -4.87919e-05
0.00163074 -2.59517e-05 0.000164298
-2.59517e-05 0.000562149 1.91139e-06
0.000164298 1.91139e-06 0.000547947
0.00126616 -2.36655e-05 1.91008e-05
-2.36655e-05 0.000372423 1.34639e-06
1.91008e-05 1.34639e-06 0.000338249
0.00138695 2.19991e-05 -1.7762e-05
2.19991e-05 0.000461884 4.30006e-06
-1.7762e-05 4.30006e-06 0.000428355
0.00149541 -4.27904e-05 5.69569e-05
-4.27904e-05 0.000500343 -3.30262e-06
5.69569e-05 -3.30262e-06 0.000475086
0.00142362 2.16278e-05 7.92359e-05
2.16278e-05 0.000490811 -5.81353e-06
7.92359e-05 -5.81353e-06 0.00045522
0.00146585 -1.90317e-05 6.50798e-05
-1.90317e-05 0.000494529 -6.44144e-06
6.50798e-05 -6.44144e-06 0.000469099
0.00148881 -8.43034e-05 -2.77318e-05
-8.43034e-05 0.000430196 2.25411e-06
-2.77318e-05 2.25411e-06 0.000364818
0.00522076 -0.000104085 0.000181984
-0.000104085 0.00263772 -4.31105e-06
0.000181984 -4.31105e-06 0.00263532
0.00172679 -2.99385e-05 0.000153531
-2.99385e-05 0.000620185 -9.2492e-06
0.000153531 -9.2492e-06 0.000601626
0.00173017 -5.77813e-05 0.000147689
-5.77813e-05 0.00063117 -1.47699e-05
0.000147689 -1.47699e-05 0.000612264
0.00146061 -7.93248e-05 3.78442e-05
-7.93248e-05 0.00038992 -5.75339e-06
3.78442e-05 -5.75339e-06 0.000325266
0.00144034 -5.81776e-05 2.74493e-05
-5.81776e-05 0.000394661 -7.05526e-06
2.74493e-05 -7.05526e-06 0.000328401
0.0012514 -3.18945e-05 0.000129956
-3.18945e-05 0.000368491 -1.41045e-05
0.000129956 -1.41045e-05 0.00035368
0.00134563 -1.98961e-05 1.19141e-05
-1.98961e-05 0.000384361 -9.25777e-06
1.19141e-05 -9.25777e-06 0.000300883
0.00199195 -0.000190398 1.14956e-05
-0.000190398 0.000586096 -4.47754e-06
1.14956e-05 -4.47754e-06 0.000463655
0.00449105 -0.000175858 -0.000110341
-0.000175858 0.00226301 -7.62597e-06
-0.000110341 -7.62597e-06 0.0022403
0.00327875 2.27557e-05 -8.65526e-05
2.27557e-05 0.00152758 -5.25057e-06
-8.65526e-05 -5.25057e-06 0.00150903
0.00310174 -8.88531e-05 -7.70923e-05
-8.88531e-05 0.00145811 -2.134e-06
-7.70923e-05 -2.134e-06 0.00142836
0.00420783 -0.00014442 7.9774e-06
-0.00014442 0.00208905 -6.69236e-07
7.9774e-06 -6.69236e-07 0.00207542
0.000632171 0.000125405 -7.97858e-07
0.000125405 -2.79087e-05 -4.56292e-07
-7.97858e-07 -4.56292e-07 -0.000101429
0.00153284 4.8483e-05 0.000153165
4.8483e-05 0.000516468 1.09106e-05
0.000153165 1.09106e-05 0.000498209
0.00172339 0.000105842 0.000155409
0.000105842 0.000639731 1.54529e-05
0.000155409 1.54529e-05 0.000620196
0.00251732 0.000150345 9.46568e-05
0.000150345 0.000999204 1.13059e-05
9.46568e-05 1.13059e-05 0.000942045
0.00335357 -0.000184662 1.11115e-05
-0.000184662 0.00160665 2.25213e-06
1.11115e-05 2.25213e-06 0.00158547
0.00255364 0.000163256 9.08797e-05
0.000163256 0.00104981 1.23793e-05
9.08797e-05 1.23793e-05 0.000988885
0.000689998 8.69326e-05 1.69067e-05
8.69326e-05 1.16556e-05 1.4228e-05
1.69067e-05 1.4228e-05 -5.30601e-05
0.000947843 0.000150933 7.65937e-06
0.000150933 8.1889e-05 4.09614e-06
7.65937e-06 4.09614e-06 -5.32853e-05
0.00279875 -0.000102172 6.98566e-05
-0.000102172 0.00126843 2.52998e-06
6.98566e-05 2.52998e-06 0.00127137
0.00527387 5.25393e-05 4.07527e-06
5.25393e-05 0.00265734 -1.01099e-06
4.07527e-06 -1.01099e-06 0.00266059
0.00328086 3.53587e-05 -7.00577e-05
3.53587e-05 0.00152053 -2.25528e-06
-7.00577e-05 -2.25528e-06 0.00150458
0.00522726 5.62464e-05 0.000180079
5.62464e-05 0.0026329 1.38469e-06
0.000180079 1.38469e-06 0.00263559
0.0013103 3.70432e-05 2.1816e-05
3.70432e-05 0.000395761 1.47407e-06
2.1816e-05 1.47407e-06 0.00036371
0.000718136 4.0172e-06 1.60807e-05
4.0172e-06 -6.26272e-05 1.79538e-06
1.60807e-05 1.79538e-06 -0.000129306
0.00499036 0.00016029 8.10286e-05
0.00016029 0.00251612 6.60998e-06
8.10286e-05 6.60998e-06 0.00249647
0.00258971 4.09296e-05 9.45515e-05
4.09296e-05 0.00101025 5.49293e-06
9.45515e-05 5.49293e-06 0.000961987
0.00118742 -7.25789e-05 -3.43339e-05
-7.25789e-05 0.000339625 4.5637e-06
-3.43339e-05 4.5637e-06 0.000303931
0.00128751 -3.06355e-05 -2.92465e-05
-3.06355e-05 0.000398138 4.41533e-06
-2.92465e-05 4.41533e-06 0.000367617
0.00144911 9.19885e-05 -4.13323e-06
9.19885e-05 0.000518479 5.80147e-06
-4.13323e-06 5.80147e-06 0.000472038
0.00150699 -0.000101654 -8.11866e-05
-0.000101654 0.000433101 1.16047e-05
-8.11866e-05 1.16047e-05 0.000373216
0.0033275 1.99352e-05 -7.55111e-05
1.99352e-05 0.00155331 -1.22014e-06
-7.55111e-05 -1.22014e-06 0.00153371
0.00149545 -3.6554e-05 6.40601e-05
-3.6554e-05 0.000497901 -2.57232e-06
6.40601e-05 -2.57232e-06 0.00047212
0.00126624 3.27174e-05 6.67826e-05
3.27174e-05 0.000399027 -4.6296e-06
6.67826e-05 -4.6296e-06 0.000369081
0.00149173 -3.475e-05 5.94914e-05
-3.475e-05 0.000499879 -5.11416e-06
5.94914e-05 -5.11416e-06 0.000476192
0.00150447 -7.43554e-05 -2.2212e-05
-7.43554e-05 0.000410923 7.72067e-07
-2.2212e-05 7.72067e-07 0.000350402
0.00144094 -6.61093e-05 -3.19362e-05
-6.61093e-05 0.000423356 1.51284e-06
-3.19362e-05 1.51284e-06 0.000351109
0.00149675 -8.76016e-05 -2.32194e-05
-8.76016e-05 0.000421821 1.69092e-06
-2.32194e-05 1.69092e-06 0.000360402
0.0019913 -0.000188661 -5.44213e-06
-0.000188661 0.000584589 1.51661e-06
-5.44213e-06 1.51661e-06 0.000462486
0.00518648 5.45108e-05 0.000172906
5.45108e-05 0.00261091 -1.12315e-07
0.000172906 -1.12315e-07 0.00261354
0.0017233 -1.41489e-05 0.000156273
-1.41489e-05 0.000617667 -6.26321e-06
0.000156273 -6.26321e-06 0.000599712
0.00236925 4.01669e-05 2.26939e-05
4.01669e-05 0.000898013 -1.09344e-06
2.26939e-05 -1.09344e-06 0.000841155
0.00146213 -6.96611e-05 3.20701e-05
-6.96611e-05 0.000384943 -4.2996e-06
3.20701e-05 -4.2996e-06 0.000320624
0.00146218 -7.24923e-05 3.42787e-05
-7.24923e-05 0.000394338 -6.35386e-06
3.42787e-05 -6.35386e-06 0.000330717
0.00195754 -0.000116573 1.05475e-05
-0.000116573 0.000515768 -2.48385e-06
1.05475e-05 -2.48385e-06 0.000407149
0.00157028 -0.00014945 1.33947e-05
-0.00014945 0.000322344 -4.69694e-06
1.33947e-05 -4.69694e-06 0.000205105
0.00110142 2.19575e-05 9.38963e-05
2.19575e-05 0.00028526 -1.03609e-05
9.38963e-05 -1.03609e-05 0.000271426
0.00096103 1.08007e-05 8.77669e-06
1.08007e-05 0.000195785 -8.18113e-06
8.77669e-06 -8.18113e-06 0.000123552
0.00190449 -0.00019797 1.01081e-05
-0.00019797 0.000574192 -4.85796e-06
1.01081e-05 -4.85796e-06 0.000443597
0.00124541 -0.000174498 7.23605e-06
-0.000174498 7.03746e-05 -1.63304e-06
7.23605e-06 -1.63304e-06 -7.81198e-05
0.00528212 7.08746e-05 -0.00018125
7.08746e-05 0.00266513 -1.21903e-05
-0.00018125 -1.21903e-05 0.0026657
0.00393882 -0.000159118 -9.62809e-05
-0.000159118 0.00193706 -4.4222e-06
-9.62809e-05 -4.4222e-06 0.00192274
0.00489047 -0.000121099 -0.000136849
-0.000121099 0.00247533 -8.89807e-06
-0.000136849 -8.89807e-06 0.00246147
0.000523577 0.000123335 -1.72297e-05
0.000123335 -8.76428e-05 -1.20163e-05
-1.72297e-05 -1.20163e-05 -0.000159438
0.00530646 0.000112718 -2.6957e-06
0.000112718 0.00267664 -1.47539e-06
-2.6957e-06 -1.47539e-06 0.00267628
0.00529644 -4.63038e-06 -8.17962e-06
-4.63038e-06 0.00268566 -2.7233e-07
-8.17962e-06 -2.7233e-07 0.00268048
0.000576488 0.000111322 -3.82233e-07
0.000111322 -0.000108893 -2.26402e-07
-3.82233e-07 -2.26402e-07 -0.000183103
0.00225061 -0.000105404 -4.18004e-05
-0.000105404 0.000963039 -3.14169e-07
-4.18004e-05 -3.14169e-07 0.000946904
0.000579053 0.000149161 -1.16419e-06
0.000149161 -7.53293e-05 -1.81755e-07
-1.16419e-06 -1.81755e-07 -0.000151755
0.00134825 6.51334e-05 2.71295e-05
6.51334e-05 0.000398251 3.48962e-07
2.71295e-05 3.48962e-07 0.000341813
0.000899643 0.000143928 4.54084e-07
0.000143928 5.2176e-05 -3.66005e-07
4.54084e-07 -3.66005e-07 -8.17292e-05
0.00320883 -0.000103226 9.22039e-05
-0.000103226 0.00150313 3.65798e-06
9.22039e-05 3.65798e-06 0.00150466
0.000607381 -6.24596e-05 1.36007e-07
-6.24596e-05 6.56372e-06 6.44839e-06
1.36007e-07 6.44839e-06 -2.82861e-05
0.00069244 8.04543e-05 1.70424e-05
8.04543e-05 -6.11316e-05 7.97972e-06
1.70424e-05 7.97972e-06 -0.000131737
0.000719147 0.000130616 2.14435e-05
0.000130616 -1.59121e-05 1.29035e-05
2.14435e-05 1.29035e-05 -9.39447e-05
0.00103577 0.000127816 1.20847e-05
0.000127816 1.50123e-06 4.742e-06
1.20847e-05 4.742e-06 -0.000124779
0.00201392 3.11058e-06 5.49391e-05
3.11058e-06 0.000792102 6.77072e-06
5.49391e-05 6.77072e-06 0.000752217
0.000976529 0.00015069 9.57214e-06
0.00015069 4.03963e-05 5.044e-06
9.57214e-06 5.044e-06 -9.24731e-05
0.000959092 0.00014051 6.50442e-06
0.00014051 0.000147916 4.54827e-06
6.50442e-06 4.54827e-06 1.63009e-05
0.000943949 0.000179192 3.61207e-06
0.000179192 2.50886e-05 4.97247e-07
3.61207e-06 4.97247e-07 -0.00014301
0.00249864 -0.000103612 4.21037e-05
-0.000103612 0.00109369 2.46202e-06
4.21037e-05 2.46202e-06 0.00109641
0.00266952 -0.00011574 5.11083e-06
-0.00011574 0.00119765 -3.37413e-07
5.11083e-06 -3.37413e-07 0.00119696
0.0052934 4.51406e-06 -0.000174266
4.51406e-06 0.00266587 -6.98238e-06
-0.000174266 -6.98238e-06 0.00266796
0.00528536 4.52263e-05 -0.000182233
4.52263e-05 0.00266282 -3.63302e-06
-0.000182233 -3.63302e-06 0.00266653
0.0052665 7.7431e-05 -1.27061e-07
7.7431e-05 0.00266146 -1.73475e-06
-1.27061e-07 -1.73475e-06 0.00266005
0.00328192 2.91378e-07 -8.50651e-05
2.91378e-07 0.00151957 -2.44214e-06
-8.50651e-05 -2.44214e-06 0.0015056
0.00164756 2.30982e-05 4.02805e-05
2.30982e-05 0.000470319 5.8174e-07
4.02805e-05 5.8174e-07 0.000413246
0.00331909 7.60798e-05 -7.09632e-05
7.60798e-05 0.00154303 -3.31725e-06
-7.09632e-05 -3.31725e-06 0.001526
0.00166545 5.79929e-05 3.88266e-05
5.79929e-05 0.000486044 1.19323e-06
3.88266e-05 1.19323e-06 0.00042679
0.00524627 0.00014275 0.000183728
0.00014275 0.00265996 3.85063e-06
0.000183728 3.85063e-06 0.00265225
0.000649882 3.81554e-06 1.71536e-05
3.81554e-06 -9.96127e-05 3.92687e-07
1.71536e-05 3.92687e-07 -0.000165367
0.00261785 1.15323e-05 9.55823e-05
1.15323e-05 0.00102432 3.62081e-06
9.55823e-05 3.62081e-06 0.000977217
0.00108907 2.90381e-05 1.17971e-05
2.90381e-05 -5.76024e-06 1.29383e-06
1.17971e-05 1.29383e-06 -0.000118597
0.0025106 8.3394e-05 9.4786e-05
8.3394e-05 0.000973767 6.76196e-06
9.4786e-05 6.76196e-06 0.000923135
0.00109655 6.95719e-05 1.15416e-05
6.95719e-05 8.06738e-06 2.46032e-06
1.15416e-05 2.46032e-06 -0.000109261
0.00163989 3.24788e-05 -0.000162339
3.24788e-05 0.000569512 1.11471e-06
-0.000162339 1.11471e-06 0.000555469
0.00124882 4.74275e-06 -2.09108e-05
4.74275e-06 0.000365305 1.7133e-06
-2.09108e-05 1.7133e-06 0.000332912
0.00128988 0.000126129 1.96842e-06
0.000126129 0.000442686 6.47407e-06
1.96842e-06 6.47407e-06 0.000391699
0.00122317 -5.28227e-05 -3.55922e-05
-5.28227e-05 0.000357802 4.62967e-06
-3.55922e-05 4.62967e-06 0.000326131
0.00160632 -5.41309e-05 -8.11788e-05
-5.41309e-05 0.000462203 6.58822e-06
-8.11788e-05 6.58822e-06 0.00040754
0.0015481 -8.76855e-05 -7.98079e-05
-8.76855e-05 0.000445703 1.04222e-05
-7.98079e-05 1.04222e-05 0.000388868
0.00147358 -0.000102474 -8.15897e-05
-0.000102474 0.000430759 1.19514e-05
-8.15897e-05 1.19514e-05 0.000367095
0.00199885 -0.000187867 -2.18086e-05
-0.000187867 0.000588176 7.1438e-06
-2.18086e-05 7.1438e-06 0.000466291
0.00524443 -8.11023e-05 2.10558e-06
-8.11023e-05 0.00264968 -1.19191e-06
2.10558e-06 -1.19191e-06 0.00264785
0.00148352 4.51984e-05 7.29017e-05
4.51984e-05 0.000489961 -2.05559e-06
7.29017e-05 -2.05559e-06 0.000464688
0.00112922 3.16643e-06 -4.28768e-05
3.16643e-06 0.000178362 6.58488e-07
-4.28768e-05 6.58488e-07 0.000119775
0.00152328 -4.08392e-05 -2.64011e-05
-4.08392e-05 0.000414721 1.01371e-06
-2.64011e-05 1.01371e-06 0.000355287
0.0024593 6.55163e-05 9.56244e-05
6.55163e-05 0.00107782 -9.09773e-07
9.56244e-05 -9.09773e-07 0.0010676
0.00164269 -2.93241e-05 -2.54162e-05
-2.93241e-05 0.000571951 -7.92608e-07
-2.54162e-05 -7.92608e-07 0.000505274
0.00150971 -8.21107e-05 -2.14302e-05
-8.21107e-05 0.000418946 1.19327e-06
-2.14302e-05 1.19327e-06 0.000358884
0.00178877 -0.00010839 -7.49261e-06
-0.00010839 0.000418198 1.28769e-06
-7.49261e-06 1.28769e-06 0.000308496
0.0019505 -0.000201588 -4.48177e-06
-0.000201588 0.000600877 1.20217e-06
-4.48177e-06 1.20217e-06 0.000469248
0.00180616 -0.000158642 -2.90637e-06
-0.000158642 0.000456686 6.24902e-07
-2.90637e-06 6.24902e-07 0.000340177
0.00126099 -0.000174519 3.15376e-07
-0.000174519 7.97429e-05 1.78806e-07
3.15376e-07 1.78806e-07 -6.86108e-05
0.000685064 9.79973e-06 1.75181e-05
9.79973e-06 -7.97221e-05 -1.17879e-06
1.75181e-05 -1.17879e-06 -0.00014349
0.00145582 1.91484e-05 2.42758e-05
1.91484e-05 0.000376054 -2.50168e-06
2.42758e-05 -2.50168e-06 0.000313324
0.00160647 -2.4693e-05 1.20841e-05
-2.4693e-05 0.000294127 -1.05945e-06
1.20841e-05 -1.05945e-06 0.000188975
0.00159285 -8.44159e-05 1.18913e-05
-8.44159e-05 0.000300594 -2.21395e-06
1.18913e-05 -2.21395e-06 0.000190962
0.0015554 -0.000126329 1.29671e-05
-0.000126329 0.000295787 -3.71891e-06
1.29671e-05 -3.71891e-06 0.000182251
0.00175038 -0.000125532 3.06666e-06
-0.000125532 0.00030393 -7.20858e-07
3.06666e-06 -7.20858e-07 0.000171731
0.00350468 0.000136101 8.61678e-05
0.000136101 0.00167805 -2.84342e-06
8.61678e-05 -2.84342e-06 0.00167115
0.00129557 -0.000156979 6.35646e-06
-0.000156979 8.03628e-05 -2.10192e-06
6.35646e-06 -2.10192e-06 -6.2436e-05
0.000448673 -1.7092e-05 7.3158e-06
-1.7092e-05 -0.000102144 -9.38762e-06
7.3158e-06 -9.38762e-06 -0.000156342
0.000717364 -0.000132222 5.83131e-06
-0.000132222 -2.72226e-05 -5.45601e-06
5.83131e-06 -5.45601e-06 -0.000157865
0.00130323 -0.000198616 7.70522e-06
-0.000198616 0.000142468 -1.8399e-06
7.70522e-06 -1.8399e-06 -1.91709e-05
0.00139676 -0.000192862 4.26659e-06
-0.000192862 9.68952e-05 4.76972e-08
4.26659e-06 4.76972e-08 -6.08876e-05
0.000492726 2.44613e-05 3.64533e-06
2.44613e-05 -7.1515e-05 -7.97987e-06
3.64533e-06 -7.97987e-06 -0.000114427
0.000672453 8.22004e-07 1.14164e-06
8.22004e-07 2.15012e-05 -3.764e-06
1.14164e-06 -3.764e-06 -6.68069e-05
0.00531287 0.000121408 -0.000191735
0.000121408 0.00268239 -1.29973e-05
-0.000191735 -1.29973e-05 0.00268135
0.00512523 -2.2638e-05 -0.000161285
-2.2638e-05 0.00258761 -1.02839e-05
-0.000161285 -1.02839e-05 0.002585
0.000575421 0.000102972 -1.68428e-05
0.000102972 -0.000110615 -9.08407e-06
-1.68428e-05 -9.08407e-06 -0.000184758
0.00341376 -0.000139061 -8.15588e-05
-0.000139061 0.00162964 -2.75594e-06
-8.15588e-05 -2.75594e-06 0.00162247
0.000470087 5.16477e-05 -9.587e-06
5.16477e-05 -0.000101011 -1.07383e-05
-9.587e-06 -1.07383e-05 -0.000159662
0.000516342 0.000137371 -1.83163e-05
0.000137371 -0.000106981 -1.15977e-05
-1.83163e-05 -1.15977e-05 -0.000184096
0.000869662 0.00013935 -7.79019e-06
0.00013935 3.30998e-05 -5.10203e-06
-7.79019e-06 -5.10203e-06 -9.98811e-05
0.0030698 -0.000117442 5.15561e-06
-0.000117442 0.00142781 -2.54252e-07
5.15561e-06 -2.54252e-07 0.00142646
0.000553677 -7.0595e-05 5.08281e-07
-7.0595e-05 -2.15318e-05 2.32853e-07
5.08281e-07 2.32853e-07 -5.7251e-05
0.00161152 0.000101151 3.82095e-05
0.000101151 0.000467033 1.96502e-06
3.82095e-05 1.96502e-06 0.000404236
0.00154513 0.000142614 3.62274e-05
0.000142614 0.000459298 1.57659e-06
3.62274e-05 1.57659e-06 0.000390384
0.0010422 0.000130114 1.50682e-07
0.000130114 6.03413e-06 -1.42423e-07
1.50682e-07 -1.42423e-07 -0.000120801
0.000626772 3.934e-06 -5.81234e-07
3.934e-06 -2.74723e-07 1.28783e-07
-5.81234e-07 1.28783e-07 -4.80137e-05
0.000971018 0.000150038 5.43202e-07
0.000150038 3.7822e-05 1.78892e-07
5.43202e-07 1.78892e-07 -9.49176e-05
0.000847863 0.000127335 1.83311e-07
0.000127335 8.37785e-05 -3.03375e-07
1.83311e-07 -3.03375e-07 -4.5435e-05
0.000925953 0.000178252 1.11254e-07
0.000178252 1.31061e-05 -1.40207e-07
1.11254e-07 -1.40207e-07 -0.000155309
0.000629696 -2.68484e-05 5.05504e-06
-2.68484e-05 1.2873e-05 7.4018e-06
5.05504e-06 7.4018e-06 -2.79242e-05
0.000620961 -7.18464e-05 -2.08236e-06
-7.18464e-05 8.72339e-06 5.49426e-06
-2.08236e-06 5.49426e-06 -2.03089e-05
0.000690174 1.92729e-05 2.35402e-06
1.92729e-05 4.46906e-05 3.6201e-06
2.35402e-06 3.6201e-06 -3.80119e-05
0.00107022 0.000108208 1.19072e-05
0.000108208 6.23376e-06 4.0343e-06
1.19072e-05 4.0343e-06 -0.000116541
0.00100035 0.000143745 1.13274e-05
0.000143745 1.0934e-05 5.05372e-06
1.13274e-05 5.05372e-06 -0.000119264
0.00132293 0.00016504 6.54889e-06
0.00016504 7.97802e-05 1.68625e-06
6.54889e-06 1.68625e-06 -7.31817e-05
0.000912507 0.00011326 5.16435e-06
0.00011326 0.00015482 4.39154e-06
5.16435e-06 4.39154e-06 3.63231e-05
0.000919526 0.000172357 4.36677e-06
0.000172357 -6.65321e-05 1.83469e-06
4.36677e-06 1.83469e-06 -0.000227218
0.00104698 0.000183044 2.90918e-06
0.000183044 0.000164275 1.57648e-06
2.90918e-06 1.57648e-06 -7.91499e-06
0.00128931 0.000218983 -2.45878e-06
0.000218983 0.000190416 -5.92118e-07
-2.45878e-06 -5.92118e-07 9.85649e-06
0.0023432 -9.22231e-05 3.41578e-05
-9.22231e-05 0.00099723 2.84646e-06
3.41578e-05 2.84646e-06 0.00100296
0.00242045 -0.000103191 2.35607e-06
-0.000103191 0.00104924 -2.43899e-07
2.35607e-06 -2.43899e-07 0.00105187
0.0025485 -0.000115784 -4.04443e-05
-0.000115784 0.00112981 -2.40134e-06
-4.04443e-05 -2.40134e-06 0.00112878
0.000508808 3.58473e-05 2.55021e-06
3.58473e-05 -6.13832e-05 -7.00436e-06
2.55021e-06 -7.00436e-06 -9.95699e-05
0.00327056 0.000125687 7.37558e-05
0.000125687 0.0015391 -2.76324e-06
7.37558e-05 -2.76324e-06 0.00153529
0.00530865 0.000142794 -0.000193793
0.000142794 0.00268407 -1.22981e-05
-0.000193793 -1.22981e-05 0.00268051
0.00525779 3.53843e-05 -0.000177536
3.53843e-05 0.00264546 -5.26313e-06
-0.000177536 -5.26313e-06 0.0026493
0.000679445 6.76588e-05 -1.77722e-05
6.76588e-05 -7.59602e-05 -4.36055e-06
-1.77722e-05 -4.36055e-06 -0.000144208
0.000662752 2.8607e-05 -1.77758e-05
2.8607e-05 -8.92661e-05 -2.13374e-06
-1.77758e-05 -2.13374e-06 -0.000156649
0.0052302 -3.29736e-05 -0.000174503
-3.29736e-05 0.00263279 -8.26825e-07
-0.000174503 -8.26825e-07 0.00263666
0.00521742 1.68832e-05 -5.9801e-07
1.68832e-05 0.00262652 1.90149e-07
-5.9801e-07 1.90149e-07 0.00262989
0.000645242 -1.16738e-06 -1.22661e-07
-1.16738e-06 -0.00010311 -1.90855e-07
-1.22661e-07 -1.90855e-07 -0.000168166
0.00163106 2.35235e-05 3.98163e-05
2.35235e-05 0.000462667 1.06058e-06
3.98163e-05 1.06058e-06 0.000405653
0.00109514 3.32506e-05 1.04519e-07
3.32506e-05 -2.16935e-06 -1.41118e-07
1.04519e-07 -1.41118e-07 -0.000115237
0.000651899 6.05478e-05 -1.98648e-07
6.05478e-05 -8.76655e-05 -1.99191e-07
-1.98648e-07 -1.99191e-07 -0.000156569
0.0010908 7.20639e-05 -5.07858e-08
7.20639e-05 5.16272e-06 -1.61816e-07
-5.07858e-08 -1.61816e-07 -0.000112589
0.000635012 -1.99962e-05 1.74989e-05
-1.99962e-05 -0.000109791 -5.21776e-07
1.74989e-05 -5.21776e-07 -0.00017356
0.00108988 1.27157e-05 1.16397e-05
1.27157e-05 -7.12061e-06 4.1205e-07
1.16397e-05 4.1205e-07 -0.0001187
0.001088 4.98368e-05 1.17047e-05
4.98368e-05 -1.833e-06 1.92488e-06
1.17047e-05 1.92488e-06 -0.000116605
0.00140448 4.27284e-05 4.0006e-06
4.27284e-05 6.34931e-05 3.68487e-07
4.0006e-06 3.68487e-07 -6.2475e-05
0.00109022 8.80419e-05 1.15753e-05
8.80419e-05 9.72414e-06 3.19005e-06
1.15753e-05 3.19005e-06 -0.000110203
0.00139984 8.92964e-05 4.13719e-06
8.92964e-05 7.98214e-05 6.18953e-07
4.13719e-06 6.18953e-07 -5.43237e-05
0.00521189 -4.58771e-05 -0.000181767
-4.58771e-05 0.00262569 -3.32768e-07
-0.000181767 -3.32768e-07 0.00262751
0.00127482 -9.71458e-05 -2.15434e-05
-9.71458e-05 0.000383932 2.41243e-06
-2.15434e-05 2.41243e-06 0.000348893
-0.000197685 -7.01809e-07 -1.34055e-05
-7.01809e-07 -0.000580066 2.10284e-06
-1.34055e-05 2.10284e-06 -0.000653663
0.00159962 -3.68011e-05 -8.24065e-05
-3.68011e-05 0.000454153 4.86678e-06
-8.24065e-05 4.86678e-06 0.000399177
0.00366397 0.000218042 -9.76632e-06
0.000218042 0.00180037 2.63758e-06
-9.76632e-06 2.63758e-06 0.00176853
0.00231819 -0.000105702 -7.23593e-05
-0.000105702 0.000938134 1.09739e-05
-7.23593e-05 1.09739e-05 0.000881367
0.00159009 -7.20404e-05 -8.02991e-05
-7.20404e-05 0.000459249 8.603e-06
-8.02991e-05 8.603e-06 0.000404136
0.00159492 -9.96364e-05 -2.35502e-05
-9.96364e-05 0.000306145 4.51491e-06
-2.35502e-05 4.51491e-06 0.000195518
0.00203173 -0.000167498 -2.05803e-05
-0.000167498 0.000585415 6.19123e-06
-2.05803e-05 6.19123e-06 0.000469745
0.00203485 -0.000207258 -1.92424e-05
-0.000207258 0.000649892 7.35406e-06
-1.92424e-05 7.35406e-06 0.000516904
0.00126803 -0.000174043 -6.17072e-06
-0.000174043 8.44481e-05 1.83358e-06
-6.17072e-06 1.83358e-06 -6.37358e-05
0.000639677 8.76236e-06 -3.17332e-08
8.76236e-06 -0.000104677 -1.1653e-07
-3.17332e-08 -1.1653e-07 -0.000168852
0.00155107 -4.93782e-05 -2.69116e-05
-4.93782e-05 0.000427369 2.87608e-07
-2.69116e-05 2.87608e-07 0.000368155
0.00117886 -2.11707e-05 -5.46964e-06
-2.11707e-05 5.02573e-05 2.50114e-07
-5.46964e-06 2.50114e-07 -5.87947e-05
0.00181556 -8.7074e-05 -3.86389e-06
-8.7074e-05 0.000425635 5.49014e-07
-3.86389e-06 5.49014e-07 0.000317676
0.00356134 0.000129066 -2.71246e-06
0.000129066 0.00170988 -4.35816e-07
-2.71246e-06 -4.35816e-07 0.00170412
0.00131255 -2.48872e-05 1.14856e-06
-2.48872e-05 0.000391309 5.77297e-07
1.14856e-06 5.77297e-07 0.000333401
0.00128519 -0.000162095 5.58648e-07
-0.000162095 0.000297039 -1.03782e-06
5.58648e-07 -1.03782e-06 0.00016568
0.00157591 -0.000125645 -4.20758e-06
-0.000125645 0.000307335 8.35157e-07
-4.20758e-06 8.35157e-07 0.000193836
0.00147648 -0.00011662 -2.62702e-06
-0.00011662 0.000146576 5.73654e-07
-2.62702e-06 5.73654e-07 1.35038e-05
0.00105355 -0.000182005 -8.32015e-08
-0.000182005 1.47398e-06 -2.80428e-08
-8.32015e-08 -2.80428e-08 -0.000159312
0.00154513 -0.000166816 1.80555e-07
-0.000166816 0.000221905 -2.02829e-07
1.80555e-07 -2.02829e-07 8.00623e-05
0.00141137 -0.000193777 5.02431e-07
-0.000193777 0.000106177 1.62847e-07
5.02431e-07 1.62847e-07 -5.14839e-05
0.000537789 1.90087e-05 -6.81472e-07
1.90087e-05 -4.71164e-05 9.92923e-08
-6.81472e-07 9.92923e-08 -9.00616e-05
0.000669236 -1.38291e-05 -3.92686e-07
-1.38291e-05 1.85725e-05 2.23213e-08
-3.92686e-07 2.23213e-08 -7.06985e-05
0.00108346 -1.02923e-05 1.15362e-05
-1.02923e-05 -8.48572e-06 -9.22877e-07
1.15362e-05 -9.22877e-07 -0.000119072
0.0016154 -4.97244e-05 1.16694e-05
-4.97244e-05 0.000303736 -1.56958e-06
1.16694e-05 -1.56958e-06 0.000196876
0.0017371 -3.42059e-05 2.81584e-06
-3.42059e-05 0.000264617 -1.47202e-07
2.81584e-06 -1.47202e-07 0.000143593
0.00127918 -8.91453e-05 5.0573e-06
-8.91453e-05 2.40211e-05 -7.18323e-07
5.0573e-06 -7.18323e-07 -0.000106527
0.00161925 -0.000151022 4.8137e-06
-0.000151022 0.000246121 -1.09909e-06
4.8137e-06 -1.09909e-06 0.0001093
0.00165683 -0.000135027 -3.50325e-07
-0.000135027 0.000174275 5.0107e-07
-3.50325e-07 5.0107e-07 4.19689e-05
0.000452163 1.32624e-06 5.95138e-06
1.32624e-06 -9.78297e-05 -8.6069e-06
5.95138e-06 -8.6069e-06 -0.000145331
0.00146497 -0.000177034 2.59071e-06
-0.000177034 0.000114627 -2.17496e-07
2.59071e-06 -2.17496e-07 -3.3672e-05
0.000626533 -0.000101241 3.74363e-06
-0.000101241 -2.37599e-05 -3.69052e-06
3.74363e-06 -3.69052e-06 -0.00014302
0.000810127 -0.000174782 6.73927e-06
-0.000174782 -4.88491e-05 -4.74933e-06
6.73927e-06 -4.74933e-06 -0.000221164
0.00183353 -0.000247002 3.78813e-06
-0.000247002 0.000382084 3.42331e-07
3.78813e-06 3.42331e-07 0.000205547
0.0017084 -0.000220988 -6.83839e-07
-0.000220988 0.000224813 2.635e-06
-6.83839e-07 2.635e-06 6.70081e-05
0.000742433 -5.16541e-05 2.61276e-06
-5.16541e-05 6.14389e-05 -3.36572e-06
2.61276e-06 -3.36572e-06 -4.03489e-05
0.000628184 5.36589e-06 1.22888e-06
5.36589e-06 -4.42658e-07 -3.31216e-06
1.22888e-06 -3.31216e-06 -7.94041e-05
0.000880745 -9.23873e-05 1.29334e-06
-9.23873e-05 0.000144017 -6.41663e-07
1.29334e-06 -6.41663e-07 1.59178e-05
0.000614421 8.18302e-05 -1.63696e-05
8.18302e-05 -0.000101368 -7.08004e-06
-1.63696e-05 -7.08004e-06 -0.000172345
0.00292933 -0.000131673 -5.45581e-05
-0.000131673 0.0013511 -2.14726e-06
-5.45581e-05 -2.14726e-06 0.00134616
0.000484905 -7.63336e-05 1.61421e-06
-7.63336e-05 -5.82252e-05 -5.96351e-06
1.61421e-06 -5.96351e-06 -9.49202e-05
0.000530115 0.000124358 -1.75724e-05
0.000124358 -0.000116725 -1.08622e-05
-1.75724e-05 -1.08622e-05 -0.000193796
0.00105304 0.000132959 -1.24697e-05
0.000132959 1.28421e-05 -5.03095e-06
-1.24697e-05 -5.03095e-06 -0.000114587
0.000451845 -4.62547e-06 -5.80536e-06
-4.62547e-06 -9.70178e-05 -8.85827e-06
-5.80536e-06 -8.85827e-06 -0.000144264
0.000714304 0.000112463 -4.83028e-06
0.000112463 7.31315e-06 -4.84343e-06
-4.83028e-06 -4.84343e-06 -0.000119343
0.000950835 0.000148357 -9.13949e-06
0.000148357 2.70429e-05 -4.81642e-06
-9.13949e-06 -4.81642e-06 -0.000105444
0.000854861 0.000173466 -4.74197e-06
0.000173466 -2.91666e-05 -1.91842e-06
-4.74197e-06 -1.91842e-06 -0.000197326
0.000543038 -3.7613e-05 1.31056e-06
-3.7613e-05 -3.46721e-05 3.08514e-07
1.31056e-06 3.08514e-07 -7.53913e-05
0.000578359 -6.85293e-05 -2.59405e-07
-6.85293e-05 -1.71824e-05 1.75819e-07
-2.59405e-07 1.75819e-07 -4.50719e-05
0.000642648 -1.82892e-05 4.2993e-07
-1.82892e-05 1.36961e-05 3.77672e-07
4.2993e-07 3.77672e-07 -6.35677e-05
0.00107096 0.000110384 4.39178e-08
0.000110384 7.65581e-06 -2.00012e-07
4.39178e-08 -2.00012e-07 -0.000115731
0.00101278 0.000145626 4.30396e-07
0.000145626 1.91632e-05 -2.41771e-07
4.30396e-07 -2.41771e-07 -0.000111392
0.00131295 0.0001646 1.456e-07
0.0001646 7.62512e-05 1.12393e-08
1.456e-07 1.12393e-08 -7.68229e-05
0.000794779 0.000100185 -1.06899e-07
0.000100185 8.97359e-05 1.62951e-07
-1.06899e-07 1.62951e-07 -2.69347e-05
0.00112014 0.000185687 -2.16494e-07
0.000185687 4.81974e-05 -1.58505e-07
-2.16494e-07 -1.58505e-07 -0.000113841
0.00108435 0.000184394 5.6183e-07
0.000184394 0.000186973 -6.0539e-07
5.6183e-07 -6.0539e-07 1.51446e-05
0.00121915 0.000217182 -6.06677e-07
0.000217182 0.000145979 1.42023e-06
-6.06677e-07 1.42023e-06 -3.43019e-05
0.000620389 -5.9485e-05 4.50354e-07
-5.9485e-05 -5.8586e-06 4.32879e-06
4.50354e-07 4.32879e-06 -2.76864e-05
0.000735833 6.11395e-05 3.41288e-06
6.11395e-05 6.34523e-05 3.30855e-06
3.41288e-06 3.30855e-06 -3.52247e-05
0.000664718 -3.09247e-05 4.91198e-07
-3.09247e-05 1.9958e-05 2.96722e-06
4.91198e-07 2.96722e-06 -4.03076e-05
0.000840787 6.16461e-05 5.71637e-07
6.16461e-05 0.000141457 1.1938e-06
5.71637e-07 1.1938e-06 2.1274e-05
0.00136429 0.000140639 6.15769e-06
0.000140639 7.98074e-05 1.30948e-06
6.15769e-06 1.30948e-06 -6.61589e-05
0.00133063 0.000186947 6.72164e-06
0.000186947 0.000118585 2.3207e-06
6.72164e-06 2.3207e-06 -4.03082e-05
0.00151411 0.000199594 2.25233e-06
0.000199594 0.00012189 3.51017e-07
2.25233e-06 3.51017e-07 -4.04012e-05
0.0010707 0.000155545 2.57664e-06
0.000155545 0.000227196 3.03718e-06
2.57664e-06 3.03718e-06 7.27913e-05
0.0011843 0.000207728 4.11426e-07
0.000207728 2.90645e-05 2.60371e-06
4.11426e-07 2.60371e-06 -0.00014199
0.000984158 0.000195007 -5.17968e-07
0.000195007 0.000109301 -9.44783e-07
-5.17968e-07 -9.44783e-07 -8.95712e-05
0.00141725 0.000237545 5.46077e-07
0.000237545 0.000195074 6.13468e-07
5.46077e-07 6.13468e-07 1.10365e-05
0.000685286 -1.7869e-05 1.67021e-06
-1.7869e-05 8.02288e-06 1.93681e-06
1.67021e-06 1.93681e-06 -3.37716e-05
0.000619469 -4.32655e-05 9.11779e-07
-4.32655e-05 -2.60418e-05 3.97949e-06
9.11779e-07 3.97949e-06 -4.08461e-05
0.00225461 -8.0651e-05 2.91445e-05
-8.0651e-05 0.000937532 3.26624e-06
2.91445e-05 3.26624e-06 0.000946282
0.00228679 -9.05524e-05 2.16275e-06
-9.05524e-05 0.000964128 -2.02358e-07
2.16275e-06 -2.02358e-07 0.000970225
0.00233632 -0.000100815 -3.54941e-05
-0.000100815 0.00100086 -2.67267e-06
-3.54941e-05 -2.67267e-06 0.00100397
0.000531428 3.98746e-05 1.81719e-06
3.98746e-05 -5.19051e-05 -6.07304e-06
1.81719e-06 -6.07304e-06 -8.46473e-05
0.00302147 0.000116508 5.99493e-05
0.000116508 0.00139301 -2.88891e-06
5.99493e-05 -2.88891e-06 0.00139151
0.000553773 3.34681e-05 -2.80101e-07
3.34681e-05 -3.65478e-05 1.19958e-07
-2.80101e-07 1.19958e-07 -7.48233e-05
0.00333002 0.000118659 -2.35737e-06
0.000118659 0.00157162 -3.00388e-07
-2.35737e-06 -3.00388e-07 0.00156935
0.000670661 7.94017e-05 -1.7545e-05
7.94017e-05 -7.54748e-05 -5.65372e-06
-1.7545e-05 -5.65372e-06 -0.000145591
0.000668427 3.07531e-05 -1.72953e-05
3.07531e-05 -8.57303e-05 -3.1138e-06
-1.72953e-05 -3.1138e-06 -0.00015279
0.00109004 7.39537e-05 -1.13952e-05
7.39537e-05 4.91561e-06 -2.75887e-06
-1.13952e-05 -2.75887e-06 -0.000113172
0.0010951 3.5473e-05 -1.18718e-05
3.5473e-05 -2.03268e-06 -1.55972e-06
-1.18718e-05 -1.55972e-06 -0.000115237
0.000681471 -3.58643e-06 -1.77941e-05
-3.58643e-06 -8.51017e-05 -8.92168e-07
-1.77941e-05 -8.92168e-07 -0.000148753
0.005259 -9.65929e-05 -0.000189622
-9.65929e-05 0.00265733 2.46163e-06
-0.000189622 2.46163e-06 0.00265645
0.000665401 -8.4288e-07 1.2918e-07
-8.4288e-07 -9.36071e-05 -2.86679e-07
1.2918e-07 -2.86679e-07 -0.000157065
0.0010954 1.7291e-05 -1.36124e-08
1.7291e-05 -3.8553e-06 -1.86048e-07
-1.36124e-08 -1.86048e-07 -0.000115543
0.00109284 5.13605e-05 -1.58053e-08
5.13605e-05 1.23543e-06 -1.1189e-07
-1.58053e-08 -1.1189e-07 -0.000113769
0.00139325 4.20444e-05 -4.74561e-08
4.20444e-05 5.84633e-05 -2.26534e-08
-4.74561e-08 -2.26534e-08 -6.75781e-05
0.00108148 9.06007e-05 -3.76257e-08
9.06007e-05 5.75875e-06 -1.88917e-07
-3.76257e-08 -1.88917e-07 -0.000114836
0.00138491 9.11159e-05 -3.9366e-08
9.11159e-05 7.1416e-05 -7.61629e-08
-3.9366e-08 -7.61629e-08 -6.3189e-05
0.00109625 -2.73336e-07 1.15802e-05
-2.73336e-07 -2.24414e-06 -1.43868e-07
1.15802e-05 -1.43868e-07 -0.000113021
0.00140584 2.47148e-05 3.83913e-06
2.47148e-05 6.03764e-05 8.11108e-08
3.83913e-06 8.11108e-08 -6.32918e-05
0.00140628 6.7213e-05 4.13617e-06
6.7213e-05 7.42268e-05 4.90046e-07
4.13617e-06 4.90046e-07 -5.54422e-05
0.00162293 6.03284e-05 -4.31174e-07
6.03284e-05 8.38105e-05 -2.2839e-07
-4.31174e-07 -2.2839e-07 -3.29466e-05
0.00139601 0.00011541 4.49066e-06
0.00011541 8.41274e-05 8.92178e-07
4.49066e-06 8.92178e-07 -5.55724e-05
0.00158212 0.000110768 -2.19753e-07
0.000110768 9.06386e-05 -7.30523e-07
-2.19753e-07 -7.30523e-07 -3.85068e-05
0.000648981 7.69128e-06 -1.6901e-05
7.69128e-06 -9.90858e-05 7.81103e-07
-1.6901e-05 7.81103e-07 -0.000163897
0.00161382 -1.67147e-05 -8.34032e-05
-1.67147e-05 0.000458301 3.20075e-06
-8.34032e-05 3.20075e-06 0.000403794
0.000732777 -1.62973e-05 -1.29219e-05
-1.62973e-05 -0.000203983 1.57931e-06
-1.29219e-05 1.57931e-06 -0.000317025
0.00203182 -8.85741e-05 -2.07519e-05
-8.85741e-05 0.000546746 3.2419e-06
-2.07519e-05 3.2419e-06 0.000440611
0.00363071 0.000115044 -0.000103833
0.000115044 0.0017476 4.11479e-06
-0.000103833 4.11479e-06 0.00174413
0.00220134 -4.59384e-05 -6.0762e-05
-4.59384e-05 0.00089178 7.92385e-06
-6.0762e-05 7.92385e-06 0.000842462
0.0019559 -0.000201672 -1.40972e-05
-0.000201672 0.000677293 6.24684e-06
-1.40972e-05 6.24684e-06 0.000543992
0.00157927 -0.000124109 -2.09687e-05
-0.000124109 0.000308909 5.14208e-06
-2.09687e-05 5.14208e-06 0.000195658
0.00120021 -0.0001075 -6.76129e-06
-0.0001075 -1.21444e-05 1.43498e-06
-6.76129e-06 1.43498e-06 -0.000146064
0.00180122 -0.000177095 -7.42412e-06
-0.000177095 0.000367074 1.97355e-06
-7.42412e-06 1.97355e-06 0.000226142
0.000774825 -0.000163193 -6.81071e-06
-0.000163193 -0.000156241 1.03351e-06
-6.81071e-06 1.03351e-06 -0.000315814
0.00144568 -0.000196036 -2.68645e-06
-0.000196036 0.000126012 2.31279e-08
-2.68645e-06 2.31279e-08 -3.16689e-05
0.000594791 1.03973e-05 -5.8542e-06
1.03973e-05 -1.53774e-05 7.74814e-06
-5.8542e-06 7.74814e-06 -5.87475e-05
0.000689249 -3.04177e-05 -2.52868e-06
-3.04177e-05 3.01097e-05 3.12812e-06
-2.52868e-06 3.12812e-06 -6.10812e-05
0.000912924 -5.94796e-06 -4.17789e-07
-5.94796e-06 -0.000105003 -1.65705e-07
-4.17789e-07 -1.65705e-07 -0.000216731
0.00162226 -5.0824e-05 -4.51321e-06
-5.0824e-05 0.000306668 4.4645e-07
-4.51321e-06 4.4645e-07 0.000199807
0.00171693 -3.07379e-05 -2.39321e-06
-3.07379e-05 0.00025005 2.85171e-07
-2.39321e-06 2.85171e-07 0.000129877
0.00152062 -9.3426e-05 6.58563e-07
-9.3426e-05 0.00016082 -1.24256e-07
6.58563e-07 -1.24256e-07 3.1385e-05
0.000556629 -8.87636e-06 1.40094e-07
-8.87636e-06 -4.11115e-05 2.06494e-07
1.40094e-07 2.06494e-07 -8.90429e-05
0.000837737 -0.000122451 -6.40724e-08
-0.000122451 9.38458e-05 3.96246e-07
-6.40724e-08 3.96246e-07 -2.85253e-05
0.000887188 -0.000179627 1.63452e-06
-0.000179627 -1.38482e-06 -1.78182e-06
1.63452e-06 -1.78182e-06 -0.000173233
0.00169773 -0.000152054 -1.8195e-06
-0.000152054 0.000289618 4.47378e-07
-1.8195e-06 4.47378e-07 0.000152872
0.00162956 -0.000133552 -2.96695e-07
-0.000133552 0.000153861 2.78369e-07
-2.96695e-07 2.78369e-07 2.35205e-05
0.00164968 -0.000235353 -1.93866e-06
-0.000235353 0.000273603 3.34297e-07
-1.93866e-06 3.34297e-07 9.72061e-05
0.00144622 -0.000176399 2.62136e-07
-0.000176399 0.000102762 -1.1779e-07
2.62136e-07 -1.1779e-07 -4.53081e-05
0.00166513 -0.000219836 6.33206e-07
-0.000219836 0.000197389 4.68921e-07
6.33206e-07 4.68921e-07 3.96164e-05
0.00073098 -5.89203e-05 -2.60834e-07
-5.89203e-05 5.47039e-05 -1.8122e-07
-2.60834e-07 -1.8122e-07 -4.78789e-05
0.00071117 -5.90391e-05 -6.12401e-07
-5.90391e-05 4.15554e-05 -4.96541e-07
-6.12401e-07 -4.96541e-07 -7.90943e-05
0.000669567 -3.95018e-06 2.76938e-07
-3.95018e-06 2.1248e-05 2.11323e-07
2.76938e-07 2.11323e-07 -5.78363e-05
0.00173026 -1.07577e-05 2.46931e-06
-1.07577e-05 0.000252054 -1.00838e-07
2.46931e-06 -1.00838e-07 0.000132091
0.00167991 -5.9882e-05 3.08133e-06
-5.9882e-05 0.000234145 -3.72568e-08
3.08133e-06 -3.72568e-08 0.000111118
0.00165588 -4.31123e-05 -6.44125e-07
-4.31123e-05 0.000115174 6.8692e-07
-6.44125e-07 6.8692e-07 -6.00093e-07
0.00156593 -0.000108708 -9.83139e-07
-0.000108708 9.72504e-05 7.24114e-07
-9.83139e-07 7.24114e-07 -2.9322e-05
0.00145652 -0.000156718 1.44976e-06
-0.000156718 8.27687e-05 7.85498e-07
1.44976e-06 7.85498e-07 -5.55341e-05
0.00167637 -0.000151404 -2.46317e-06
-0.000151404 0.000109998 1.43617e-06
-2.46317e-06 1.43617e-06 -5.07245e-06
0.000701351 -8.30396e-05 3.43068e-06
-8.30396e-05 3.66851e-05 -2.67655e-06
3.43068e-06 -2.67655e-06 -7.37354e-05
0.00155728 -0.000204212 -1.26323e-06
-0.000204212 0.000102801 1.74453e-06
-1.26323e-06 1.74453e-06 -4.02449e-05
0.000941546 -0.000170131 1.74506e-06
-0.000170131 0.000121409 -2.90645e-06
1.74506e-06 -2.90645e-06 -3.78866e-05
0.00123316 -0.000229527 5.13024e-06
-0.000229527 0.000115411 -4.29093e-06
5.13024e-06 -4.29093e-06 -8.61501e-05
0.00188654 -0.000260377 1.42415e-06
-0.000260377 0.000362396 2.76952e-06
1.42415e-06 2.76952e-06 0.000178358
0.00187967 -0.000252595 -3.92125e-06
-0.000252595 0.000265404 3.8779e-06
-3.92125e-06 3.8779e-06 0.000115001
0.000635584 -2.31979e-06 1.36073e-06
-2.31979e-06 6.94717e-07 -2.89759e-06
1.36073e-06 -2.89759e-06 -6.87481e-05
0.000798608 -0.000105708 2.04207e-06
-0.000105708 7.85583e-05 6.57348e-07
2.04207e-06 6.57348e-07 -4.6521e-05
0.000621818 -3.82494e-05 1.27338e-06
-3.82494e-05 8.20434e-06 -1.99568e-06
1.27338e-06 -1.99568e-06 -0.000110786
0.00112649 -0.000160755 -5.95648e-08
-0.000160755 0.000278432 1.99243e-06
-5.95648e-08 1.99243e-06 0.000134733
0.00106021 0.000112354 -1.23473e-05
0.000112354 2.66091e-06 -4.37682e-06
-1.23473e-05 -4.37682e-06 -0.000121332
0.000541594 -6.30108e-05 -5.91568e-07
-6.30108e-05 -4.03345e-05 -4.57956e-06
-5.91568e-07 -4.57956e-06 -6.66806e-05
0.000471605 -5.55699e-05 8.50029e-07
-5.55699e-05 -7.04838e-05 -7.6934e-06
8.50029e-07 -7.6934e-06 -0.000112715
0.000633958 -4.97947e-05 1.32203e-06
-4.97947e-05 1.28827e-05 -3.6771e-06
1.32203e-06 -3.6771e-06 -6.49524e-05
0.00102463 0.000147716 -1.08323e-05
0.000147716 2.73305e-05 -5.52319e-06
-1.08323e-05 -5.52319e-06 -0.000103677
0.00129627 0.000163836 -6.29465e-06
0.000163836 6.87185e-05 -1.68107e-06
-6.29465e-06 -1.68107e-06 -8.4477e-05
0.000681941 8.54818e-05 -3.24034e-06
8.54818e-05 2.74086e-05 -3.38915e-06
-3.24034e-06 -3.38915e-06 -8.71555e-05
0.0011008 0.00018425 -3.96373e-06
0.00018425 0.000197592 -3.70556e-06
-3.96373e-06 -3.70556e-06 2.58301e-05
0.00134029 0.000200386 -5.07408e-06
0.000200386 0.000174199 -1.80659e-06
-5.07408e-06 -1.80659e-06 1.06101e-05
0.0011526 0.000215378 -2.22846e-06
0.000215378 0.000104322 -9.61052e-07
-2.22846e-06 -9.61052e-07 -7.57495e-05
0.000595815 -5.62921e-05 -3.39704e-08
-5.62921e-05 -2.1174e-05 5.77016e-08
-3.39704e-08 5.77016e-08 -4.22584e-05
0.000736493 5.26819e-05 4.28589e-07
5.26819e-05 6.88168e-05 -1.75141e-07
4.28589e-07 -1.75141e-07 -3.18367e-05
0.000638544 -4.6735e-05 -7.50359e-07
-4.6735e-05 8.57989e-06 5.93502e-07
-7.50359e-07 5.93502e-07 -5.29529e-05
0.00079316 3.50684e-05 7.93057e-07
3.50684e-05 0.000113122 -4.04848e-07
7.93057e-07 -4.04848e-07 -3.62824e-06
0.00134762 0.000139945 7.30526e-07
0.000139945 7.27033e-05 -2.69162e-09
7.30526e-07 -2.69162e-09 -7.34028e-05
0.00126941 0.000184507 2.43311e-07
0.000184507 8.62981e-05 6.16463e-08
2.43311e-07 6.16463e-08 -7.27875e-05
0.00153425 0.000200196 3.04711e-07
0.000200196 0.000133894 1.92423e-07
3.04711e-07 1.92423e-07 -2.85516e-05
0.000980127 0.000150706 4.55538e-07
0.000150706 0.000177731 5.99966e-07
4.55538e-07 5.99966e-07 2.47313e-05
0.00151202 0.000227583 -1.10776e-06
0.000227583 0.000217542 -8.29504e-07
-1.10776e-06 -8.29504e-07 4.47077e-05
0.00113963 0.000209181 1.76811e-07
0.000209181 0.000197023 -1.41637e-06
1.76811e-07 -1.41637e-06 -5.33676e-06
0.00123556 0.000224743 -2.45883e-06
0.000224743 0.000100555 -6.94696e-07
-2.45883e-06 -6.94696e-07 -7.59855e-05
0.000614408 -5.04382e-05 1.03144e-06
-5.04382e-05 -2.07811e-05 4.03526e-06
1.03144e-06 4.03526e-06 -3.82915e-05
0.000687886 -3.27592e-05 1.12537e-06
-3.27592e-05 2.54502e-05 2.24729e-06
1.12537e-06 2.24729e-06 -2.48582e-05
0.000966023 0.000104261 2.15672e-06
0.000104261 0.000193074 1.64424e-06
2.15672e-06 1.64424e-06 5.90405e-05
0.000802587 3.73976e-05 -3.45689e-07
3.73976e-05 0.000119485 2.07077e-06
-3.45689e-07 2.07077e-06 1.93605e-05
0.000893058 0.000115258 2.39716e-07
0.000115258 0.000181647 -3.42697e-07
2.39716e-07 -3.42697e-07 4.11255e-05
0.00155666 0.000170108 1.87193e-06
0.000170108 0.000118516 -6.44046e-07
1.87193e-06 -6.44046e-07 -3.16941e-05
0.00137989 0.000211016 2.2472e-06
0.000211016 8.41244e-05 1.72388e-06
2.2472e-06 1.72388e-06 -8.47081e-05
0.00170606 0.000236499 -3.92268e-07
0.000236499 0.000183416 -4.3543e-07
-3.92268e-07 -4.3543e-07 2.31243e-05
0.00113318 0.000194866 4.00372e-06
0.000194866 0.000258908 4.59319e-06
4.00372e-06 4.59319e-06 6.4367e-05
0.00152756 0.000249363 3.02292e-06
0.000249363 0.000181232 3.16052e-06
3.02292e-06 3.16052e-06 3.20506e-06
0.000483271 0.000176583 3.46672e-06
0.000176583 -0.000257403 -2.23681e-06
3.46672e-06 -2.23681e-06 -0.00046145
0.000680202 -2.11131e-05 2.1023e-06
-2.11131e-05 8.01728e-06 1.89241e-06
2.1023e-06 1.89241e-06 -3.49617e-05
0.000723761 2.57512e-05 3.523e-07
2.57512e-05 5.28774e-05 8.12725e-07
3.523e-07 8.12725e-07 -1.56284e-05
0.000703179 -8.16741e-06 1.35922e-06
-8.16741e-06 1.66399e-05 1.96347e-06
1.35922e-06 1.96347e-06 -2.44991e-05
0.000686006 -2.61709e-05 -2.09029e-07
-2.61709e-05 9.66128e-06 1.89618e-09
-2.09029e-07 1.89618e-09 -3.27597e-05
0.00126217 -4.8799e-05 1.20265e-06
-4.8799e-05 0.000338684 2.38196e-06
1.20265e-06 2.38196e-06 0.000329274
0.000950072 -4.89387e-05 7.39469e-07
-4.89387e-05 0.000164788 -5.5835e-08
7.39469e-07 -5.5835e-08 0.000151679
0.000922865 -4.32819e-05 2.42528e-05
-4.32819e-05 0.000158314 6.80153e-06
2.42528e-05 6.80153e-06 0.000163636
0.00222544 -7.92624e-05 2.15191e-06
-7.92624e-05 0.000919689 -1.84451e-07
2.15191e-06 -1.84451e-07 0.000928801
0.00223958 -8.86746e-05 -3.18516e-05
-8.86746e-05 0.000936085 -3.05286e-06
-3.18516e-05 -3.05286e-06 0.000942643
0.000544455 4.84024e-05 2.51385e-07
4.84024e-05 -4.87131e-05 -5.36097e-06
2.51385e-07 -5.36097e-06 -7.75014e-05
0.0028001 0.00010693 4.68378e-05
0.00010693 0.00126162 -3.13683e-06
4.68378e-05 -3.13683e-06 0.00126251
0.000569466 3.83197e-05 -2.51149e-07
3.83197e-05 -3.04451e-05 1.18112e-07
-2.51149e-07 1.18112e-07 -6.33587e-05
0.0030987 0.000111769 -3.29301e-06
0.000111769 0.00143563 -2.61425e-07
-3.29301e-06 -2.61425e-07 0.00143537
0.000595227 3.02599e-05 -3.05528e-06
3.02599e-05 -1.37898e-05 7.15092e-06
-3.05528e-06 7.15092e-06 -5.21744e-05
0.00339522 0.000110408 -9.12279e-05
0.000110408 0.0016072 3.56154e-06
-9.12279e-05 3.56154e-06 0.00160658
0.00108524 9.34317e-05 -1.1773e-05
9.34317e-05 8.41276e-06 -3.51319e-06
-1.1773e-05 -3.51319e-06 -0.000112781
0.00109995 5.54075e-05 -1.16175e-05
5.54075e-05 5.71706e-06 -2.11464e-06
-1.16175e-05 -2.11464e-06 -0.00010968
0.00136349 8.93899e-05 -4.4486e-06
8.93899e-05 5.93612e-05 -7.95963e-07
-4.4486e-06 -7.95963e-07 -7.54089e-05
0.00138155 4.15612e-05 -4.2181e-06
4.15612e-05 5.32394e-05 -3.81405e-07
-4.2181e-06 -3.81405e-07 -7.28828e-05
0.00110022 2.05954e-05 -1.18234e-05
2.05954e-05 -9.62168e-07 -8.36383e-07
-1.18234e-05 -8.36383e-07 -0.000112775
0.000644885 1.87796e-05 -1.74627e-05
1.87796e-05 -0.000104434 -5.97611e-08
-1.74627e-05 -5.97611e-08 -0.00016813
0.00109241 2.0033e-06 1.7853e-08
2.0033e-06 -4.4461e-06 -3.81788e-08
1.7853e-08 -3.81788e-08 -0.000115262
0.00139452 2.63155e-05 -9.33279e-08
2.63155e-05 5.4601e-05 -6.21979e-08
-9.33279e-08 -6.21979e-08 -6.91686e-05
0.00138511 6.43047e-05 -6.86796e-10
6.43047e-05 6.39735e-05 -3.13279e-08
-6.86796e-10 -3.13279e-08 -6.5692e-05
0.00166571 6.14585e-05 -7.71186e-08
6.14585e-05 0.000104655 1.66145e-07
-7.71186e-08 1.66145e-07 -1.04813e-05
0.00137562 0.00011501 -1.73514e-07
0.00011501 7.33377e-05 -7.60521e-08
-1.73514e-07 -7.60521e-08 -6.65698e-05
0.00159219 0.000109421 -1.48393e-07
0.000109421 0.000100975 3.49813e-08
-1.48393e-07 3.49813e-08 -2.81947e-05
0.00139707 6.70661e-06 4.00853e-06
6.70661e-06 5.68263e-05 7.83996e-08
4.00853e-06 7.83996e-08 -6.57126e-05
0.00168299 3.86547e-05 -1.05618e-06
3.86547e-05 0.000104221 1.17779e-07
-1.05618e-06 1.17779e-07 -7.09179e-06
0.0015991 9.08004e-05 -4.03421e-07
9.08004e-05 8.24006e-05 -5.11704e-07
-4.03421e-07 -5.11704e-07 -3.98925e-05
0.00175404 7.15732e-05 -1.29498e-06
7.15732e-05 9.08844e-05 1.54032e-07
-1.29498e-06 1.54032e-07 -8.66856e-06
0.00157748 0.000132907 6.45548e-08
0.000132907 0.000110111 -7.9618e-07
6.45548e-08 -7.9618e-07 -2.76741e-05
0.00168579 0.000132201 -3.00448e-06
0.000132201 8.36039e-05 -9.98913e-07
-3.00448e-06 -9.98913e-07 -2.41058e-05
0.000739927 -3.23028e-06 -1.14119e-05
-3.23028e-06 -0.000202711 4.77059e-07
-1.14119e-05 4.77059e-07 -0.000315632
0.0016499 -5.34107e-05 -2.05147e-05
-5.34107e-05 0.000321286 2.40666e-06
-2.05147e-05 2.40666e-06 0.000214409
0.00170062 -2.43411e-05 -7.27468e-06
-2.43411e-05 0.000237762 4.78374e-07
-7.27468e-06 4.78374e-07 0.000118586
0.00176095 -9.79437e-05 -5.24716e-06
-9.79437e-05 0.000297046 8.67864e-07
-5.24716e-06 8.67864e-07 0.000168706
0.00066707 -2.00322e-05 -8.18086e-06
-2.00322e-05 2.05278e-05 8.64088e-06
-8.18086e-06 8.64088e-06 -2.9023e-05
0.000925868 -0.000136458 -5.79864e-06
-0.000136458 0.000144564 5.17653e-06
-5.79864e-06 5.17653e-06 1.97774e-05
0.00102993 -0.000189562 -3.2177e-06
-0.000189562 8.35006e-05 1.19775e-06
-3.2177e-06 1.19775e-06 -8.86684e-05
0.00177412 -0.000152938 -8.0923e-06
-0.000152938 0.000331964 2.04375e-06
-8.0923e-06 2.04375e-06 0.000195311
0.00159683 -0.000131807 -7.04398e-07
-0.000131807 0.000130252 -4.06789e-07
-7.04398e-07 -4.06789e-07 1.90343e-06
0.00142678 -0.00017571 -2.02392e-06
-0.00017571 9.05091e-05 -9.53374e-08
-2.02392e-06 -9.53374e-08 -5.73279e-05
0.00144473 -0.00022213 -5.64522e-06
-0.00022213 0.000153341 -2.37029e-07
-5.64522e-06 -2.37029e-07 -2.26457e-05
0.00160588 -0.000217619 2.1672e-06
-0.000217619 0.0001609 -2.25148e-06
2.1672e-06 -2.25148e-06 3.28914e-06
0.000714418 -6.34363e-05 -3.67351e-06
-6.34363e-05 4.29496e-05 2.8687e-06
-3.67351e-06 2.8687e-06 -5.90749e-05
0.000627286 -5.12861e-05 -2.31388e-06
-5.12861e-05 -4.70301e-06 -3.07343e-07
-2.31388e-06 -3.07343e-07 -0.00012478
0.000697855 -1.0845e-05 -1.36691e-06
-1.0845e-05 3.60724e-05 3.34516e-06
-1.36691e-06 3.34516e-06 -4.34634e-05
0.00157123 -9.0101e-06 -2.38421e-06
-9.0101e-06 0.000159936 1.05836e-07
-2.38421e-06 1.05836e-07 3.86988e-05
0.00168442 -6.61041e-05 -1.96767e-06
-6.61041e-05 0.000236785 3.52839e-07
-1.96767e-06 3.52839e-07 0.000113295
0.00163577 -3.96156e-05 -4.24539e-08
-3.96156e-05 0.000102536 2.44391e-07
-4.24539e-08 2.44391e-07 -1.0897e-05
0.00161567 -0.000106908 -9.73019e-07
-0.000106908 0.000121592 2.20169e-07
-9.73019e-07 2.20169e-07 -4.78487e-06
0.000768936 -9.56467e-05 2.19211e-07
-9.56467e-05 7.43871e-05 3.88374e-08
2.19211e-07 3.88374e-08 -3.7526e-05
0.00104107 -0.000178706 -6.7705e-07
-0.000178706 0.000173808 6.81285e-07
-6.7705e-07 6.81285e-07 1.32732e-05
0.00108119 -0.000215154 4.56067e-07
-0.000215154 4.10794e-05 -1.38936e-06
4.56067e-07 -1.38936e-06 -0.000156079
0.00154114 -0.000160495 -2.61686e-07
-0.000160495 0.000130628 2.02974e-07
-2.61686e-07 2.02974e-07 -9.25531e-06
0.00171072 -0.000151678 1.03355e-06
-0.000151678 0.00013147 2.20729e-07
1.03355e-06 2.20729e-07 1.99084e-05
0.00171712 -0.000251047 -9.4807e-07
-0.000251047 0.000263956 4.97479e-07
-9.4807e-07 4.97479e-07 7.88142e-05
0.00157695 -0.000204069 2.51311e-07
-0.000204069 0.000114197 1.81341e-07
2.51311e-07 1.81341e-07 -2.8349e-05
0.00190732 -0.000253154 1.02546e-06
-0.000253154 0.000283235 -5.00737e-07
1.02546e-06 -5.00737e-07 0.000134954
0.000919305 -0.000121345 6.51603e-08
-0.000121345 0.000150187 1.97938e-07
6.51603e-08 1.97938e-07 2.16674e-05
0.00103444 -0.000157335 -4.23659e-07
-0.000157335 0.000228589 3.74872e-07
-4.23659e-07 3.74872e-07 8.35853e-05
0.000674614 -8.64625e-06 1.62913e-07
-8.64625e-06 2.24318e-05 1.88401e-07
1.62913e-07 1.88401e-07 -4.75134e-05
0.000535323 -1.2796e-05 -1.50874e-07
-1.2796e-05 -4.5307e-05 -8.5453e-07
-1.50874e-07 -8.5453e-07 -0.000158171
0.00163853 -2.34049e-05 -2.6589e-07
-2.34049e-05 9.55001e-05 1.26854e-07
-2.6589e-07 1.26854e-07 -1.80376e-05
0.00183314 -7.27625e-05 -2.68807e-07
-7.27625e-05 0.000222429 8.25393e-07
-2.68807e-07 8.25393e-07 0.000105073
0.00165341 -5.69926e-05 3.77786e-07
-5.69926e-05 3.82278e-05 1.45286e-07
3.77786e-07 1.45286e-07 -6.43925e-05
0.00173306 -0.000134152 -3.97746e-06
-0.000134152 0.000110043 8.68382e-07
-3.97746e-06 8.68382e-07 9.15127e-06
0.0017009 -0.000181977 -3.11076e-06
-0.000181977 0.000149199 2.53506e-06
-3.11076e-06 2.53506e-06 2.40657e-05
0.0017705 -0.000154056 7.14839e-08
-0.000154056 0.000126055 1.61766e-07
7.14839e-08 1.61766e-07 3.03261e-05
0.000835061 -0.00015061 1.47737e-06
-0.00015061 9.10691e-05 -4.96525e-07
1.47737e-06 -4.96525e-07 -4.74808e-05
0.00162641 -0.000225128 -4.97514e-06
-0.000225128 9.0138e-05 3.05899e-06
-4.97514e-06 3.05899e-06 -3.49685e-05
0.000310759 -0.000144612 -4.88746e-07
-0.000144612 -0.000265415 -5.16972e-06
-4.88746e-07 -5.16972e-06 -0.000445782
0.00217499 -0.000313361 3.59693e-06
-0.000313361 0.000590833 -1.54452e-06
3.59693e-06 -1.54452e-06 0.000370611
0.0016991 -0.000264608 -1.23172e-06
-0.000264608 0.000203807 5.39893e-06
-1.23172e-06 5.39893e-06 1.90983e-05
0.0019152 -0.000255242 -1.94998e-06
-0.000255242 0.000259809 1.63486e-06
-1.94998e-06 1.63486e-06 0.000116653
0.000645431 -1.10083e-05 1.75424e-06
-1.10083e-05 4.09098e-06 -2.75518e-06
1.75424e-06 -2.75518e-06 -5.88073e-05
0.00054684 -1.69672e-05 1.97357e-09
-1.69672e-05 -2.51592e-05 -2.15516e-06
1.97357e-09 -2.15516e-06 -0.000135372
0.000885787 -0.000164218 5.68818e-07
-0.000164218 0.000129373 2.17388e-06
5.68818e-07 2.17388e-06 -1.53555e-05
0.000893253 -0.000119163 1.76706e-06
-0.000119163 0.000169835 3.43797e-07
1.76706e-06 3.43797e-07 2.99279e-05
0.00112445 -0.000185612 -8.96195e-07
-0.000185612 0.000271528 3.98765e-06
-8.96195e-07 3.98765e-06 0.000122917
0.000577249 -5.40468e-05 -1.2889e-06
-5.40468e-05 -3.25852e-05 -4.10655e-06
-1.2889e-06 -4.10655e-06 -5.3158e-05
0.00133357 0.000139308 -4.65724e-06
0.000139308 6.73882e-05 -1.3091e-06
-4.65724e-06 -1.3091e-06 -7.88522e-05
0.000597349 -6.36552e-05 -6.69304e-09
-6.36552e-05 -1.00821e-05 -2.36616e-06
-6.69304e-09 -2.36616e-06 -7.38184e-05
0.00072168 3.36513e-05 -7.95167e-07
3.36513e-05 5.7434e-05 -3.63588e-06
-7.95167e-07 -3.63588e-06 -3.93838e-05
0.000726939 7.07828e-06 1.62944e-06
7.07828e-06 7.30679e-05 -1.6041e-06
1.62944e-06 -1.6041e-06 -3.93811e-05
0.00122198 0.000182821 -6.11709e-06
0.000182821 6.16059e-05 -2.23684e-06
-6.11709e-06 -2.23684e-06 -9.77102e-05
0.00154117 0.000199937 -1.21216e-06
0.000199937 0.00013927 8.55401e-08
-1.21216e-06 8.55401e-08 -2.32394e-05
0.000996329 0.000161826 -2.08559e-06
0.000161826 0.00019057 -2.12524e-06
-2.08559e-06 -2.12524e-06 3.60519e-05
0.00136187 0.000229154 -2.84901e-06
0.000229154 0.000320835 -2.73677e-06
-2.84901e-06 -2.73677e-06 0.000114186
0.00183753 0.000247126 -4.08529e-06
0.000247126 0.000404841 -2.17721e-06
-4.08529e-06 -2.17721e-06 0.000230307
0.00110381 0.00021567 -5.77795e-06
0.00021567 3.39912e-05 -8.30995e-07
-5.77795e-06 -8.30995e-07 -0.0001356
0.000605812 -4.88484e-05 6.23544e-08
-4.88484e-05 -2.61519e-05 1.03959e-09
6.23544e-08 1.03959e-09 -4.33907e-05
0.000664661 -4.12119e-05 -6.00017e-07
-4.12119e-05 1.39174e-05 2.18112e-07
-6.00017e-07 2.18112e-07 -3.71554e-05
0.000918409 0.000105694 5.85215e-07
0.000105694 0.000165022 1.71768e-07
5.85215e-07 1.71768e-07 3.19031e-05
0.000725298 -9.69075e-06 -4.31519e-07
-9.69075e-06 7.33582e-05 3.04745e-07
-4.31519e-07 3.04745e-07 -2.25236e-05
0.000729664 7.85568e-05 1.02713e-06
7.85568e-05 8.35772e-05 -4.16928e-07
1.02713e-06 -4.16928e-07 -5.18889e-05
0.00155656 0.000171394 6.45149e-07
0.000171394 0.000116164 -3.12417e-07
6.45149e-07 -3.12417e-07 -3.45838e-05
0.00145501 0.000215203 6.66612e-07
0.000215203 0.000129338 6.71562e-07
6.66612e-07 6.71562e-07 -4.00442e-05
0.00164947 0.000235311 1.41308e-06
0.000235311 0.000151425 2.8475e-07
1.41308e-06 2.8475e-07 -9.54992e-06
0.00107865 0.000189731 1.29953e-06
0.000189731 0.000233478 1.31429e-06
1.29953e-06 1.31429e-06 3.90872e-05
0.00161789 0.000254646 1.6118e-06
0.000254646 0.000235755 -5.20575e-07
1.6118e-06 -5.20575e-07 5.79377e-05
0.000927576 0.000210395 -2.7295e-06
0.000210395 -1.39789e-05 -1.26167e-06
-2.7295e-06 -1.26167e-06 -0.000220896
0.000695906 -2.72504e-05 1.96481e-06
-2.72504e-05 2.17855e-05 1.92101e-06
1.96481e-06 1.92101e-06 -2.35809e-05
0.000781473 2.45245e-05 3.67976e-07
2.45245e-05 9.48918e-05 1.64146e-06
3.67976e-07 1.64146e-06 1.44103e-05
0.00106247 0.000176188 -8.33905e-07
0.000176188 0.000249496 -4.01269e-07
-8.33905e-07 -4.01269e-07 8.56516e-05
0.000852419 3.5931e-05 -2.00605e-07
3.5931e-05 0.000154765 9.25594e-07
-2.00605e-07 9.25594e-07 3.90042e-05
0.00118056 9.06756e-05 -3.19193e-06
9.06756e-05 0.00032282 -3.77029e-06
-3.19193e-06 -3.77029e-06 0.000181427
0.0016323 0.000181108 -2.75514e-06
0.000181108 0.000111672 -2.73015e-06
-2.75514e-06 -2.73015e-06 -2.66652e-05
0.00163593 0.000257161 1.55262e-06
0.000257161 0.000186105 6.07158e-07
1.55262e-06 6.07158e-07 1.15339e-05
0.00149405 0.000253777 2.71058e-07
0.000253777 3.04272e-05 -1.2259e-06
2.71058e-07 -1.2259e-06 -0.000121808
0.00104161 0.000196902 -9.79383e-07
0.000196902 0.00019491 2.43567e-06
-9.79383e-07 2.43567e-06 -3.00171e-05
0.00147566 0.000266303 5.24613e-06
0.000266303 0.000170232 -4.59681e-07
5.24613e-06 -4.59681e-07 -2.75834e-05
0.000681709 -2.8165e-05 -1.15945e-07
-2.8165e-05 9.78798e-06 -2.18927e-09
-1.15945e-07 -2.18927e-09 -3.36691e-05
0.000612341 4.67928e-06 1.38673e-06
4.67928e-06 -1.8043e-05 1.19981e-06
1.38673e-06 1.19981e-06 -8.36722e-05
0.000630472 -1.15088e-05 -5.80582e-07
-1.15088e-05 -3.17632e-06 -6.64946e-08
-5.80582e-07 -6.64946e-08 -6.98074e-05
0.000919457 5.60531e-05 8.24404e-07
5.60531e-05 0.000174361 -3.35866e-07
8.24404e-07 -3.35866e-07 9.26278e-05
0.000732843 4.21121e-05 1.67043e-06
4.21121e-05 5.73116e-05 9.9625e-07
1.67043e-06 9.9625e-07 -1.01368e-05
0.000690428 4.62893e-06 1.33337e-06
4.62893e-06 1.04033e-05 1.94571e-06
1.33337e-06 1.94571e-06 -3.09881e-05
0.000692748 -1.90554e-05 -3.93792e-07
-1.90554e-05 1.18565e-05 1.79717e-08
-3.93792e-07 1.79717e-08 -2.97922e-05
0.00125973 -3.8643e-05 8.03528e-07
-3.8643e-05 0.00033145 2.35293e-06
8.03528e-07 2.35293e-06 0.000323815
0.000688965 -3.28523e-05 -1.03739e-06
-3.28523e-05 1.22791e-05 -1.96854e-06
-1.03739e-06 -1.96854e-06 -3.05764e-05
0.0012879 -4.585e-05 -4.91677e-06
-4.585e-05 0.00035294 -1.30037e-06
-4.91677e-06 -1.30037e-06 0.000343961
0.000901484 -3.54507e-05 2.2027e-05
-3.54507e-05 0.000137221 7.00656e-06
2.2027e-05 7.00656e-06 0.000145051
0.0012901 -5.22068e-05 -9.7628e-06
-5.22068e-05 0.000361294 -3.51146e-06
-9.7628e-06 -3.51146e-06 0.000350303
0.00153504 -5.5701e-05 2.01666e-05
-5.5701e-05 0.000512321 1.95533e-06
2.01666e-05 1.95533e-06 0.000520848
0.00219789 -7.77676e-05 -2.82978e-05
-7.77676e-05 0.000902732 -3.45762e-06
-2.82978e-05 -3.45762e-06 0.000912227
0.000562632 4.62573e-05 5.12614e-07
4.62573e-05 -4.59039e-05 -4.76941e-06
5.12614e-07 -4.76941e-06 -6.99521e-05
0.000572934 4.27274e-05 -1.27906e-07
4.27274e-05 -3.34744e-05 1.16925e-07
-1.27906e-07 1.16925e-07 -6.17089e-05
0.0026327 9.52055e-05 3.81218e-05
9.52055e-05 0.00115977 -3.46444e-06
3.81218e-05 -3.46444e-06 0.00116355
0.0028791 0.000104741 -4.56561e-06
0.000104741 0.00130594 -2.80322e-07
-4.56561e-06 -2.80322e-07 0.0013075
0.000609924 3.64706e-05 -2.28003e-06
3.64706e-05 -7.67038e-06 6.29667e-06
-2.28003e-06 6.29667e-06 -4.07683e-05
0.00316703 0.000103973 -7.87592e-05
0.000103973 0.00147292 3.35764e-06
-7.87592e-05 3.35764e-06 0.00147445
0.00135447 0.000114736 -4.83884e-06
0.000114736 6.19901e-05 -1.05324e-06
-4.83884e-06 -1.05324e-06 -7.8149e-05
0.00136695 6.45603e-05 -4.3731e-06
6.45603e-05 5.55129e-05 -5.4013e-07
-4.3731e-06 -5.4013e-07 -7.44216e-05
0.00159687 0.000109128 -5.01288e-08
0.000109128 0.000108368 7.91691e-07
-5.01288e-08 7.91691e-07 -2.09426e-05
0.00170889 6.25886e-05 3.90355e-07
6.25886e-05 0.000125681 4.184e-07
3.90355e-07 4.184e-07 1.21798e-05
0.0013859 2.9339e-05 -3.84355e-06
2.9339e-05 5.02215e-05 -1.77796e-07
-3.84355e-06 -1.77796e-07 -7.36869e-05
0.00109808 6.7787e-06 -1.15308e-05
6.7787e-06 -1.52926e-06 -3.11281e-08
-1.15308e-05 -3.11281e-08 -0.000112315
0.00139527 1.01945e-05 6.83546e-08
1.01945e-05 5.58617e-05 5.76076e-08
6.83546e-08 5.76076e-08 -6.67688e-05
0.00168994 2.84263e-05 -8.3277e-07
2.84263e-05 0.000108574 -3.35073e-09
-8.3277e-07 -3.35073e-09 -2.45083e-06
0.00162002 8.97498e-05 -1.10725e-07
8.97498e-05 9.57545e-05 6.25716e-08
-1.10725e-07 6.25716e-08 -2.63777e-05
0.00180116 7.39149e-05 1.22415e-06
7.39149e-05 0.000116315 9.43175e-07
1.22415e-06 9.43175e-07 1.98563e-05
0.00156799 0.000133863 -1.98803e-07
0.000133863 0.000103386 -6.12691e-08
-1.98803e-07 -6.12691e-08 -3.49667e-05
0.00169212 0.000129665 -2.60299e-07
0.000129665 8.4426e-05 8.15155e-07
-2.60299e-07 8.15155e-07 -2.08268e-05
0.00166441 -3.10856e-08 -1.91174e-07
-3.10856e-08 0.000102076 2.70847e-07
-1.91174e-07 2.70847e-07 -8.86772e-06
0.00170656 4.4482e-05 3.31604e-08
4.4482e-05 5.79862e-05 1.04819e-06
3.31604e-08 1.04819e-06 -3.96582e-05
0.00179885 0.000106854 -3.7462e-06
0.000106854 0.000125997 -7.0915e-07
-3.7462e-06 -7.0915e-07 2.90901e-05
0.00179758 8.04442e-05 7.59824e-07
8.04442e-05 0.000101467 3.15971e-07
7.59824e-07 3.15971e-07 1.96884e-05
0.00159913 0.000137301 -1.855e-06
0.000137301 6.12004e-05 -2.35003e-06
-1.855e-06 -2.35003e-06 -5.7122e-05
0.00191366 0.000143223 9.97496e-07
0.000143223 0.000171565 1.52794e-08
9.97496e-07 1.52794e-08 8.26427e-05
0.00140699 -7.66767e-06 -5.89357e-06
-7.66767e-06 6.47205e-05 1.46199e-07
-5.89357e-06 1.46199e-07 -5.77981e-05
0.0016947 -6.92759e-05 -7.10787e-06
-6.92759e-05 0.000242593 7.40197e-07
-7.10787e-06 7.40197e-07 0.000118802
0.00161214 -3.76679e-05 7.8198e-08
-3.76679e-05 8.78546e-05 -5.6359e-07
7.8198e-08 -5.6359e-07 -2.33223e-05
0.00166109 -0.000105497 -9.23288e-07
-0.000105497 0.000143431 -1.44041e-07
-9.23288e-07 -1.44041e-07 1.72076e-05
0.000869296 -0.000110764 -4.54831e-06
-0.000110764 0.000130676 3.49261e-06
-4.54831e-06 3.49261e-06 1.69705e-05
0.00113296 -0.000186645 -2.85013e-06
-0.000186645 0.000222058 4.11556e-06
-2.85013e-06 4.11556e-06 6.03428e-05
0.000832924 -0.000192944 -3.07139e-06
-0.000192944 -8.77804e-05 8.25277e-07
-3.07139e-06 8.25277e-07 -0.00028033
0.00162982 -0.000164458 -1.82048e-06
-0.000164458 0.000180658 9.68906e-08
-1.82048e-06 9.68906e-08 3.91704e-05
0.0017454 -0.000151837 3.58793e-06
-0.000151837 0.000153089 -1.66486e-06
3.58793e-06 -1.66486e-06 4.5061e-05
0.00159934 -0.000203993 1.90847e-06
-0.000203993 0.000127612 -1.32114e-06
1.90847e-06 -1.32114e-06 -1.44247e-05
0.00161139 -0.000246398 -1.72584e-06
-0.000246398 0.000201976 -1.24075e-06
-1.72584e-06 -1.24075e-06 1.49373e-05
0.00194323 -0.000253465 5.56877e-06
-0.000253465 0.000305932 -5.92497e-06
5.56877e-06 -5.92497e-06 0.000159854
0.000941515 -0.000120602 -1.54226e-06
-0.000120602 0.000163666 -1.39092e-07
-1.54226e-06 -1.39092e-07 3.52922e-05
0.000839101 -0.000119469 -1.83888e-06
-0.000119469 0.000110723 -1.40535e-06
-1.83888e-06 -1.40535e-06 -2.63716e-05
0.000712524 -1.21562e-05 -1.58114e-06
-1.21562e-05 4.30428e-05 3.06738e-06
-1.58114e-06 3.06738e-06 -2.71175e-05
0.000490655 5.16695e-06 -2.42525e-07
5.16695e-06 -7.18824e-05 3.99194e-07
-2.42525e-07 3.99194e-07 -0.000181462
0.00163738 -2.31596e-05 -7.22867e-09
-2.31596e-05 9.49262e-05 -1.18381e-09
-7.22867e-09 -1.18381e-09 -1.86829e-05
0.00174756 -7.15949e-05 -3.69812e-07
-7.15949e-05 0.000173222 -7.48368e-08
-3.69812e-07 -7.48368e-08 5.43002e-05
0.0017017 -5.65008e-05 8.68169e-07
-5.65008e-05 6.77717e-05 -1.6279e-07
8.68169e-07 -1.6279e-07 -3.31717e-05
0.0016822 -0.000132 -1.06925e-06
-0.000132 8.82172e-05 4.37561e-07
-1.06925e-06 4.37561e-07 -1.46516e-05
0.000957278 -0.000149568 -3.62405e-07
-0.000149568 0.000158288 7.91138e-07
-3.62405e-07 7.91138e-07 2.01472e-05
0.000632066 -0.000166319 1.04873e-06
-0.000166319 -8.06939e-05 -1.73325e-06
1.04873e-06 -1.73325e-06 -0.000261046
0.00165518 -0.000276653 -5.19041e-07
-0.000276653 0.000296641 5.96525e-07
-5.19041e-07 5.96525e-07 7.91322e-05
0.00163359 -0.000179133 -1.22751e-06
-0.000179133 0.000116004 5.87422e-07
-1.22751e-06 5.87422e-07 -1.1955e-05
0.00170352 -0.000154837 1.92073e-06
-0.000154837 8.4789e-05 -9.57172e-07
1.92073e-06 -9.57172e-07 -8.36069e-06
0.00171017 -0.000266451 -9.68704e-07
-0.000266451 0.000211672 1.19056e-06
-9.68704e-07 1.19056e-06 2.5903e-05
0.00165691 -0.000225713 -2.98523e-07
-0.000225713 0.000110252 7.91216e-07
-2.98523e-07 7.91216e-07 -1.48646e-05
0.00179689 -0.000249901 2.82969e-06
-0.000249901 0.000185143 -4.0229e-06
2.82969e-06 -4.0229e-06 4.50533e-05
0.00100149 -0.000173854 3.05972e-07
-0.000173854 0.000193866 6.37898e-07
3.05972e-07 6.37898e-07 4.76875e-05
0.00108575 -0.000174783 1.30973e-06
-0.000174783 0.000245638 6.02392e-07
1.30973e-06 6.02392e-07 0.000100963
0.00082812 -8.69203e-05 -4.04967e-07
-8.69203e-05 0.000127953 1.6877e-07
-4.04967e-07 1.6877e-07 -8.31079e-06
0.000536313 5.97578e-06 -7.80343e-07
5.97578e-06 -5.79113e-05 1.46717e-07
-7.80343e-07 1.46717e-07 -0.00012229
0.000528799 1.10768e-05 -1.18905e-07
1.10768e-05 -3.91283e-05 -6.29617e-07
-1.18905e-07 -6.29617e-07 -0.000144983
0.00179008 -3.64302e-05 5.04871e-07
-3.64302e-05 0.000107262 -2.98458e-07
5.04871e-07 -2.98458e-07 9.2817e-06
0.00177461 -7.9845e-05 2.3425e-07
-7.9845e-05 0.00010577 1.67158e-07
2.3425e-07 1.67158e-07 1.13838e-05
0.00184284 -0.00015393 -2.28944e-06
-0.00015393 0.000139593 -4.84791e-07
-2.28944e-06 -4.84791e-07 5.70346e-05
0.00155679 -0.00017962 -1.90836e-06
-0.00017962 1.9117e-05 1.08617e-06
-1.90836e-06 1.08617e-06 -8.17256e-05
0.000900677 -0.000171917 -7.72372e-07
-0.000171917 0.000125798 -4.1335e-07
-7.72372e-07 -4.1335e-07 -3.1773e-05
0.00207664 -0.000261951 -4.59651e-06
-0.000261951 0.000298272 1.87891e-06
-4.59651e-06 1.87891e-06 0.000179269
-0.000143931 -0.000124994 -1.13955e-06
-0.000124994 -0.00054618 -5.76099e-06
-1.13955e-06 -5.76099e-06 -0.000736217
0.00207543 -0.000324965 2.69068e-06
-0.000324965 0.000484857 7.85953e-07
2.69068e-06 7.85953e-07 0.000256785
0.00161139 -0.000269951 2.51937e-07
-0.000269951 0.000112708 3.78787e-06
2.51937e-07 3.78787e-06 -6.69732e-05
0.000356446 1.57186e-05 1.08507e-06
1.57186e-05 -0.000160943 -3.56396e-06
1.08507e-06 -3.56396e-06 -0.000220187
0.000806118 -2.07727e-05 1.22215e-06
-2.07727e-05 0.000123729 -1.28792e-06
1.22215e-06 -1.28792e-06 2.49122e-05
0.000922158 -5.54406e-05 -3.48623e-07
-5.54406e-05 0.000186677 -6.4257e-07
-3.48623e-07 -6.4257e-07 6.43326e-05
0.00103067 -0.000181248 -2.36346e-06
-0.000181248 0.000198547 2.99705e-06
-2.36346e-06 2.99705e-06 5.25335e-05
0.000841743 -0.00011358 2.44561e-06
-0.00011358 0.000126973 2.70302e-06
2.44561e-06 2.70302e-06 -1.89968e-05
0.000704851 -0.000159121 2.33446e-07
-0.000159121 6.58305e-06 1.96327e-06
2.33446e-07 1.96327e-06 -0.00013588
0.000599199 -4.7611e-05 -1.26364e-06
-4.7611e-05 -3.01921e-05 -4.01801e-06
-1.26364e-06 -4.01801e-06 -4.7241e-05
0.000642606 -4.40005e-05 -1.74592e-06
-4.40005e-05 1.65833e-06 -1.81684e-06
-1.74592e-06 -1.81684e-06 -4.93856e-05
0.00156172 0.000173024 -8.54006e-07
0.000173024 0.000116353 -6.20693e-08
-8.54006e-07 -6.20693e-08 -3.49672e-05
0.000662428 -6.54528e-05 1.26447e-06
-6.54528e-05 3.70728e-05 -1.64051e-06
1.26447e-06 -1.64051e-06 -5.57066e-05
0.000824784 9.81289e-05 -7.04695e-07
9.81289e-05 0.000109965 -8.19925e-07
-7.04695e-07 -8.19925e-07 -1.97469e-05
0.00060377 4.56552e-05 1.71591e-06
4.56552e-05 6.58353e-06 -2.93223e-07
1.71591e-06 -2.93223e-07 -0.000123696
0.00153613 0.000219984 -2.18976e-06
0.000219984 0.000177212 -7.34972e-07
-2.18976e-06 -7.34972e-07 7.17099e-06
0.0015992 0.000234231 1.33386e-06
0.000234231 0.00012352 7.28256e-07
1.33386e-06 7.28256e-07 -3.81095e-05
0.00100309 0.000182881 -4.80514e-08
0.000182881 0.000197563 -9.7271e-07
-4.80514e-08 -9.7271e-07 3.07568e-06
0.00132526 0.000240301 -1.59667e-06
0.000240301 0.000202654 -1.26389e-06
-1.59667e-06 -1.26389e-06 -4.78281e-06
0.00170406 0.000260009 -4.24051e-06
0.000260009 0.000287787 -2.04696e-06
-4.24051e-06 -2.04696e-06 0.00011016
0.000679696 -2.81776e-05 -2.27688e-07
-2.81776e-05 1.30591e-05 5.13582e-08
-2.27688e-07 5.13582e-08 -3.24034e-05
0.000725469 -1.84825e-05 -8.22094e-07
-1.84825e-05 6.15324e-05 3.83838e-07
-8.22094e-07 3.83838e-07 -1.66166e-05
0.00101581 0.000171896 -8.74882e-07
0.000171896 0.0002248 -2.82035e-07
-8.74882e-07 -2.82035e-07 6.14045e-05
0.000802612 -1.51586e-06 1.80634e-07
-1.51586e-06 0.000123045 1.36175e-07
1.80634e-07 1.36175e-07 1.2156e-05
0.000928478 0.000103946 3.24123e-07
0.000103946 0.000190199 1.54011e-07
3.24123e-07 1.54011e-07 4.41719e-05
0.00164425 0.000184302 -1.70817e-06
0.000184302 0.000118403 -1.27472e-06
-1.70817e-06 -1.27472e-06 -2.10241e-05
0.0016102 0.000254808 1.35524e-06
0.000254808 0.00017044 4.41596e-07
1.35524e-06 4.41596e-07 -4.20877e-06
0.00160133 0.000255946 5.85512e-07
0.000255946 9.12011e-05 4.01023e-08
5.85512e-07 4.01023e-08 -6.00493e-05
0.000696877 0.000172723 4.39807e-07
0.000172723 -3.6656e-06 3.54589e-06
4.39807e-07 3.54589e-06 -0.000224415
0.00167966 0.000281789 -1.3455e-06
0.000281789 0.000290059 -6.40241e-07
-1.3455e-06 -6.40241e-07 8.84018e-05
0.000774179 1.91952e-05 1.00684e-06
1.91952e-05 8.0213e-05 1.14028e-06
1.00684e-06 1.14028e-06 1.01573e-05
0.000551953 -2.51695e-05 -9.35767e-07
-2.51695e-05 -2.87228e-05 2.07447e-06
-9.35767e-07 2.07447e-06 -0.000122376
0.000942884 0.000173581 -2.87556e-06
0.000173581 0.000170406 -1.31567e-06
-2.87556e-06 -1.31567e-06 -9.03126e-06
0.000789185 5.37284e-05 -2.4234e-06
5.37284e-05 0.000128954 -1.63847e-06
-2.4234e-06 -1.63847e-06 -9.11895e-06
0.00095775 0.000162102 -1.18995e-06
0.000162102 0.000186855 -1.77514e-06
-1.18995e-06 -1.77514e-06 3.21124e-05
0.0016012 0.000199783 -1.41274e-06
0.000199783 2.01235e-05 -2.5755e-06
-1.41274e-06 -2.5755e-06 -9.20666e-05
0.00182681 0.000296379 1.52241e-06
0.000296379 0.000266964 -1.80335e-06
1.52241e-06 -1.80335e-06 8.66183e-05
0.00151139 0.000260543 2.03358e-06
0.000260543 2.65934e-05 -3.4122e-10
2.03358e-06 -3.4122e-10 -0.000124315
0.00174113 0.00026113 2.28203e-06
0.00026113 0.000514847 6.1788e-06
2.28203e-06 6.1788e-06 0.000275226
0.00123782 0.000262077 -5.98959e-07
0.000262077 1.72348e-05 -8.86435e-07
-5.98959e-07 -8.86435e-07 -0.000182202
0.000679981 -3.06327e-05 -1.52032e-06
-3.06327e-05 9.50967e-06 -1.91886e-06
-1.52032e-06 -1.91886e-06 -3.42803e-05
0.000667564 7.50021e-06 5.34376e-07
7.50021e-06 1.50957e-05 4.13679e-07
5.34376e-07 4.13679e-07 -5.11004e-05
0.000626384 -1.90403e-05 -2.27476e-07
-1.90403e-05 -3.28742e-07 5.32161e-07
-2.27476e-07 5.32161e-07 -7.56616e-05
0.000546528 -4.01964e-05 -8.17487e-07
-4.01964e-05 -5.285e-05 -8.91069e-07
-8.17487e-07 -8.91069e-07 -0.000118484
0.000719946 1.44942e-05 -6.2004e-08
1.44942e-05 4.85841e-05 2.27775e-08
-6.2004e-08 2.27775e-08 -1.75682e-05
0.000744747 1.54629e-05 -4.63125e-08
1.54629e-05 6.73029e-05 -3.60897e-07
-4.63125e-08 -3.60897e-07 -8.66825e-06
0.000841943 4.30955e-05 -3.2055e-07
4.30955e-05 0.000130681 -8.29611e-07
-3.2055e-07 -8.29611e-07 4.62714e-05
0.00063096 -2.62539e-05 7.00526e-07
-2.62539e-05 1.03029e-05 2.57279e-07
7.00526e-07 2.57279e-07 -7.22884e-05
0.000742528 3.05437e-05 5.91701e-07
3.05437e-05 5.7745e-05 9.16753e-07
5.91701e-07 9.16753e-07 -5.94161e-06
0.000691606 1.14555e-05 1.3116e-06
1.14555e-05 1.39799e-05 1.86561e-06
1.3116e-06 1.86561e-06 -2.82643e-05
0.000697352 -6.80164e-06 -5.28918e-07
-6.80164e-06 1.48107e-05 1.4413e-08
-5.28918e-07 1.4413e-08 -2.67688e-05
0.0012673 -2.81508e-05 8.28644e-07
-2.81508e-05 0.00033176 2.3092e-06
8.28644e-07 2.3092e-06 0.000325038
0.000685055 -3.03995e-05 -7.01701e-07
-3.03995e-05 8.62356e-06 -1.9782e-06
-7.01701e-07 -1.9782e-06 -3.35311e-05
0.00129161 -3.5909e-05 -4.21274e-06
-3.5909e-05 0.000349524 -1.35789e-06
-4.21274e-06 -1.35789e-06 0.000342086
0.000909115 -2.92736e-05 1.818e-05
-2.92736e-05 0.000135375 7.28891e-06
1.818e-05 7.28891e-06 0.000144493
0.00131346 -4.37147e-05 -8.35015e-06
-4.37147e-05 0.000367178 -5.06189e-06
-8.35015e-06 -5.06189e-06 0.0003584
0.000843785 -3.64183e-05 6.99533e-06
-3.64183e-05 0.000103979 2.72365e-06
6.99533e-06 2.72365e-06 0.000111381
0.0021307 -7.34424e-05 -5.73703e-06
-7.34424e-05 0.000856424 -1.71993e-06
-5.73703e-06 -1.71993e-06 0.00086715
0.000587361 3.91711e-05 4.62686e-07
3.91711e-05 -3.99734e-05 -4.22549e-06
4.62686e-07 -4.22549e-06 -5.89905e-05
0.000579078 4.74774e-05 -3.96849e-08
4.74774e-05 -3.56434e-05 6.87417e-08
-3.96849e-08 6.87417e-08 -6.02141e-05
0.00249135 8.34982e-05 3.03125e-05
8.34982e-05 0.00107194 -3.78097e-06
3.03125e-05 -3.78097e-06 0.00107862
0.000603844 4.09138e-05 -1.77368e-06
4.09138e-05 -1.56999e-05 5.49791e-06
-1.77368e-06 5.49791e-06 -4.40419e-05
0.00269688 9.56299e-05 -3.9805e-06
9.56299e-05 0.0011964 -2.66109e-07
-3.9805e-06 -2.66109e-07 0.00120016
0.00294739 9.91008e-05 -6.3887e-05
9.91008e-05 0.00134369 3.19042e-06
-6.3887e-05 3.19042e-06 0.00134666
0.00155829 0.000134716 -1.42321e-06
0.000134716 9.67429e-05 4.48995e-07
-1.42321e-06 4.48995e-07 -4.21596e-05
0.00164497 8.784e-05 6.54134e-07
8.784e-05 0.00011117 7.33564e-07
6.54134e-07 7.33564e-07 -1.07057e-05
0.00169486 0.000127051 2.75363e-06
0.000127051 8.31811e-05 1.99956e-06
2.75363e-06 1.99956e-06 -1.9601e-05
0.00184915 7.61636e-05 3.02154e-06
7.61636e-05 0.00014202 4.25781e-07
3.02154e-06 4.25781e-07 4.86644e-05
0.00169455 2.07909e-05 -8.26944e-07
2.07909e-05 0.00011193 5.44958e-09
-8.26944e-07 5.44958e-09 1.13358e-06
0.00139248 1.29994e-05 -3.69297e-06
1.29994e-05 5.43638e-05 6.36587e-08
-3.69297e-06 6.36587e-08 -6.83089e-05
0.00165507 2.73026e-06 -6.46727e-07
2.73026e-06 9.67838e-05 4.24749e-09
-6.46727e-07 4.24749e-09 -1.53166e-05
0.00172887 3.86078e-05 8.41921e-07
3.86078e-05 7.32351e-05 -7.49854e-08
8.41921e-07 -7.49854e-08 -2.54863e-05
0.00176113 0.000104931 -1.17776e-06
0.000104931 0.000103728 -3.07024e-07
-1.17776e-06 -3.07024e-07 5.41961e-06
0.0017616 8.05596e-05 2.28785e-06
8.05596e-05 7.80313e-05 5.11321e-08
2.28785e-06 5.11321e-08 -8.24037e-07
0.00161964 0.000136187 -7.55682e-07
0.000136187 7.88645e-05 -1.00845e-07
-7.55682e-07 -1.00845e-07 -3.94072e-05
0.0018068 0.000143992 3.37374e-06
0.000143992 0.000108527 1.03437e-06
3.37374e-06 1.03437e-06 2.23376e-05
0.00176483 -1.51099e-06 -3.21955e-07
-1.51099e-06 0.000104357 3.0802e-07
-3.21955e-07 3.0802e-07 5.27434e-06
0.00169929 4.74101e-05 5.11664e-07
4.74101e-05 4.02182e-05 1.24241e-06
5.11664e-07 1.24241e-06 -3.99528e-05
0.00181561 0.000106391 1.71516e-07
0.000106391 9.33828e-05 -2.50879e-07
1.71516e-07 -2.50879e-07 1.84587e-05
0.00187582 0.000171403 -5.61787e-07
0.000171403 0.000151139 -1.1905e-06
-5.61787e-07 -1.1905e-06 6.17699e-05
0.00163477 -2.29072e-05 -1.24244e-07
-2.29072e-05 9.36954e-05 -9.44063e-08
-1.24244e-07 -9.44063e-08 -1.9986e-05
0.00165866 -7.22046e-05 -1.55834e-07
-7.22046e-05 0.000122437 -8.17415e-07
-1.55834e-07 -8.17415e-07 1.85406e-06
0.00174864 -5.6233e-05 2.30943e-06
-5.6233e-05 9.67101e-05 -3.86514e-07
2.30943e-06 -3.86514e-07 -2.58593e-06
0.00163751 -0.000129634 1.14555e-06
-0.000129634 6.97321e-05 -3.53694e-07
1.14555e-06 -3.53694e-07 -3.50821e-05
0.00111792 -0.000160884 -1.72615e-06
-0.000160884 0.000249226 2.00125e-06
-1.72615e-06 2.00125e-06 0.000108629
0.00096269 -0.000189433 9.01475e-07
-0.000189433 0.000109577 2.03204e-06
9.01475e-07 2.03204e-06 -7.04596e-05
0.00110564 -0.000238028 -2.34229e-06
-0.000238028 -1.44328e-05 1.85102e-06
-2.34229e-06 1.85102e-06 -0.000228956
0.00156584 -0.00017632 3.89958e-07
-0.00017632 8.27216e-05 -7.31555e-07
3.89958e-07 -7.31555e-07 -4.80644e-05
0.00164578 -0.000156208 4.32824e-06
-0.000156208 4.8994e-05 -2.28365e-06
4.32824e-06 -2.28365e-06 -4.16733e-05
0.00168825 -0.000226411 4.11503e-06
-0.000226411 0.000130197 -1.36634e-06
4.11503e-06 -1.36634e-06 5.04943e-06
0.00168046 -0.000266312 -8.35282e-07
-0.000266312 0.000196326 -3.11749e-06
-8.35282e-07 -3.11749e-06 9.7623e-06
0.00167565 -0.000244782 4.3512e-06
-0.000244782 0.000110148 -9.62733e-06
4.3512e-06 -9.62733e-06 -2.69422e-05
0.00112402 -0.000183981 5.06145e-07
-0.000183981 0.00026249 -8.24133e-07
5.06145e-07 -8.24133e-07 0.000114736
0.00108156 -0.000174807 5.43912e-07
-0.000174807 0.000239443 -3.90383e-06
5.43912e-07 -3.90383e-06 9.63831e-05
0.000781598 -6.58759e-05 -2.73023e-07
-6.58759e-05 9.62782e-05 2.03351e-07
-2.73023e-07 2.03351e-07 -3.62707e-05
0.000420793 1.55448e-05 -1.7743e-06
1.55448e-05 -0.000123056 2.7631e-06
-1.7743e-06 2.7631e-06 -0.000189193
0.00051429 3.45832e-05 3.38943e-07
3.45832e-05 -4.92034e-05 6.74449e-07
3.38943e-07 6.74449e-07 -0.000152012
0.00182229 -3.92553e-05 1.72012e-07
-3.92553e-05 0.000128148 1.73292e-08
1.72012e-07 1.73292e-08 3.01437e-05
0.00178276 -8.2847e-05 5.31428e-07
-8.2847e-05 0.000111109 -5.5551e-07
5.31428e-07 -5.5551e-07 1.58169e-05
0.00176291 -0.000150226 -1.41964e-06
-0.000150226 9.78912e-05 1.29444e-07
-1.41964e-06 1.29444e-07 1.33118e-05
0.00105066 -0.00018314 -1.48425e-07
-0.00018314 0.000207604 1.15481e-06
-1.48425e-07 1.15481e-06 4.84368e-05
0.000777783 -0.000192991 1.83699e-06
-0.000192991 -2.9589e-05 -2.8009e-06
1.83699e-06 -2.8009e-06 -0.000225854
0.00169116 -0.000298438 -9.63985e-07
-0.000298438 0.000268444 8.17944e-07
-9.63985e-07 8.17944e-07 4.07346e-05
0.00159505 -0.000181128 3.86415e-07
-0.000181128 3.80027e-05 -1.59555e-07
3.86415e-07 -1.59555e-07 -6.34386e-05
0.00159543 -0.000266399 8.62259e-07
-0.000266399 0.000106837 -2.28406e-06
8.62259e-07 -2.28406e-06 -6.74969e-05
0.00178931 -0.000248527 -5.72686e-07
-0.000248527 0.000142455 -1.02738e-06
-5.72686e-07 -1.02738e-06 2.27419e-05
0.000381471 2.07579e-05 1.36974e-07
2.07579e-05 -0.000148245 -7.77525e-07
1.36974e-07 -7.77525e-07 -0.000205878
0.0010865 -0.00018493 -1.1927e-07
-0.00018493 0.00022575 6.71137e-07
-1.1927e-07 6.71137e-07 7.95802e-05
0.000752089 -0.000161181 -6.72245e-07
-0.000161181 3.90918e-05 1.14772e-07
-6.72245e-07 1.14772e-07 -9.91652e-05
0.000980846 -0.000128669 -5.43173e-07
-0.000128669 0.000209607 6.80944e-07
-5.43173e-07 6.80944e-07 5.75741e-05
0.000987792 -5.55072e-05 -7.08463e-08
-5.55072e-05 0.000224443 -1.89287e-07
-7.08463e-08 -1.89287e-07 0.000102122
0.000675542 6.80231e-06 -3.33428e-07
6.80231e-06 4.47194e-05 3.57806e-07
-3.33428e-07 3.57806e-07 -5.18821e-05
0.00159378 -4.52537e-05 -4.20627e-07
-4.52537e-05 -1.17209e-05 -2.92603e-07
-4.20627e-07 -2.92603e-07 -9.97634e-05
0.00197681 -0.000115496 -3.80524e-07
-0.000115496 0.00017243 -1.11791e-07
-3.80524e-07 -1.11791e-07 9.94153e-05
0.00154569 -0.000168871 -5.04595e-07
-0.000168871 -3.59845e-05 -2.5329e-07
-5.04595e-07 -2.5329e-07 -0.00011556
0.00197008 -0.000226888 -1.73271e-06
-0.000226888 0.000187261 -6.18449e-07
-1.73271e-06 -6.18449e-07 9.36553e-05
0.00107023 -0.000194533 -2.31662e-06
-0.000194533 0.000203606 -3.00709e-07
-2.31662e-06 -3.00709e-07 3.64035e-05
0.00177417 -0.000277216 4.20956e-09
-0.000277216 0.000155379 4.09244e-06
4.20956e-09 4.09244e-06 1.12855e-05
0.000713974 -0.000216894 -1.28823e-06
-0.000216894 -0.000124417 -2.48492e-06
-1.28823e-06 -2.48492e-06 -0.00035554
0.001787 -0.000321511 1.66416e-08
-0.000321511 0.000297149 3.28471e-06
1.66416e-08 3.28471e-06 6.38452e-05
0.000365983 3.972e-05 -7.76564e-07
3.972e-05 -0.000161129 -2.95249e-06
-7.76564e-07 -2.95249e-06 -0.000211927
0.000806177 -1.19444e-05 1.04441e-06
-1.19444e-05 0.000117854 -1.38385e-06
1.04441e-06 -1.38385e-06 2.97854e-05
0.000986453 -7.6441e-05 -1.7796e-07
-7.6441e-05 0.000226358 5.40413e-07
-1.7796e-07 5.40413e-07 0.000112795
0.000834741 -2.16469e-05 -4.41894e-07
-2.16469e-05 0.00013431 -1.96894e-07
-4.41894e-07 -1.96894e-07 -3.13226e-06
0.000823326 -0.000175153 -1.14789e-06
-0.000175153 5.83671e-05 7.80172e-07
-1.14789e-06 7.80172e-07 -8.79373e-05
0.000955108 -0.000175925 -3.71185e-06
-0.000175925 0.000155381 3.19022e-06
-3.71185e-06 3.19022e-06 -1.87228e-06
0.000662996 -3.47037e-05 -1.93341e-06
-3.47037e-05 4.45385e-06 -1.83183e-06
-1.93341e-06 -1.83183e-06 -4.14039e-05
0.000650659 -5.9266e-05 6.50696e-08
-5.9266e-05 1.91045e-05 -1.03071e-06
6.50696e-08 -1.03071e-06 -5.78212e-05
0.00165603 0.000187655 -9.02231e-07
0.000187655 0.000124441 1.66573e-07
-9.02231e-07 1.66573e-07 -1.61241e-05
0.000721105 -3.77272e-05 9.03518e-07
-3.77272e-05 7.4e-05 -7.98731e-07
9.03518e-07 -7.98731e-07 -3.25924e-05
0.000917409 0.00016328 5.93049e-07
0.00016328 0.000169789 -6.80413e-07
5.93049e-07 -6.80413e-07 8.06516e-06
0.000405031 5.86664e-05 1.93559e-06
5.86664e-05 -0.000111801 6.78134e-07
1.93559e-06 6.78134e-07 -0.000249661
0.00158293 0.000252271 -2.81588e-07
0.000252271 0.000154295 6.53547e-08
-2.81588e-07 6.53547e-08 -2.03861e-05
0.00172724 0.000259525 2.41791e-07
0.000259525 0.000161291 1.34719e-06
2.41791e-07 1.34719e-06 1.07898e-05
0.000494505 0.000159336 -1.17156e-07
0.000159336 -0.000121918 7.00822e-07
-1.17156e-07 7.00822e-07 -0.00033937
0.00197671 0.000303784 -1.29198e-06
0.000303784 0.000461296 6.47433e-07
-1.29198e-06 6.47433e-07 0.0002542
0.000726385 -6.55888e-06 -6.97137e-07
-6.55888e-06 5.24006e-05 1.25418e-07
-6.97137e-07 1.25418e-07 -1.64501e-05
0.000684476 -6.89381e-06 1.29001e-07
-6.89381e-06 4.63014e-05 1.04776e-06
1.29001e-07 1.04776e-06 -4.85447e-05
0.00108057 0.00018427 -1.7117e-07
0.00018427 0.000255542 -2.29098e-06
-1.7117e-07 -2.29098e-06 7.28316e-05
0.000566782 3.53476e-07 -4.28473e-07
3.53476e-07 -1.02883e-05 -1.6196e-07
-4.28473e-07 -1.6196e-07 -0.000137273
0.00075141 0.000130798 -1.70595e-06
0.000130798 6.69965e-05 -6.68852e-07
-1.70595e-06 -6.68852e-07 -7.45105e-05
0.00185217 0.000208322 -2.34479e-06
0.000208322 0.000160682 -1.20022e-06
-2.34479e-06 -1.20022e-06 5.06279e-05
0.00186949 0.000295791 1.238e-06
0.000295791 0.000291288 -2.18282e-07
1.238e-06 -2.18282e-07 0.000112548
0.00160812 0.000271912 3.61151e-07
0.000271912 7.93772e-05 1.66563e-06
3.61151e-07 1.66563e-06 -7.36586e-05
0.00150361 0.000246534 2.59534e-06
0.000246534 0.000390668 3.76382e-06
2.59534e-06 3.76382e-06 0.000146936
0.00139466 0.000277697 -1.82629e-06
0.000277697 9.75482e-05 3.96454e-07
-1.82629e-06 3.96454e-07 -0.000106597
0.000515545 -2.98491e-05 -3.18017e-07
-2.98491e-05 -5.63512e-05 1.456e-06
-3.18017e-07 1.456e-06 -0.000137311
0.000356682 5.57805e-05 -4.45238e-07
5.57805e-05 -0.000118897 7.25987e-07
-4.45238e-07 7.25987e-07 -0.000239459
0.00106357 0.000187505 1.09801e-06
0.000187505 0.000222098 2.46256e-06
1.09801e-06 2.46256e-06 2.13332e-05
-0.000240922 5.15641e-05 1.86003e-06
5.15641e-05 -0.000473759 3.06723e-07
1.86003e-06 3.06723e-07 -0.00062143
0.00190969 0.000211565 -2.5845e-06
0.000211565 8.01057e-05 -6.82931e-07
-2.5845e-06 -6.82931e-07 1.32921e-06
0.00205186 0.000259211 1.02932e-06
0.000259211 0.000259449 -4.70912e-07
1.02932e-06 -4.70912e-07 0.000139231
0.00177931 0.000324578 -1.22723e-06
0.000324578 0.000216604 -2.68668e-06
-1.22723e-06 -2.68668e-06 2.52711e-05
-0.000192383 0.000137807 -1.27845e-06
0.000137807 -0.000636872 1.71627e-06
-1.27845e-06 1.71627e-06 -0.000875169
0.000720663 2.76553e-05 -8.10254e-07
2.76553e-05 5.00899e-05 -3.48716e-07
-8.10254e-07 -3.48716e-07 -1.88386e-05
0.000700412 7.55969e-06 -3.15906e-07
7.55969e-06 4.70303e-05 3.72312e-07
-3.15906e-07 3.72312e-07 -3.15726e-05
0.000838042 -8.7666e-06 -6.54269e-07
-8.7666e-06 0.000128395 -2.00844e-07
-6.54269e-07 -2.00844e-07 4.84765e-05
0.000704529 -2.09158e-05 -1.17827e-06
-2.09158e-05 3.5956e-05 -8.89597e-07
-1.17827e-06 -8.89597e-07 -2.71755e-05
0.000575954 -2.61855e-05 -2.45803e-07
-2.61855e-05 -2.67646e-05 -5.62756e-07
-2.45803e-07 -5.62756e-07 -0.000103449
0.000728364 5.77986e-06 7.05689e-10
5.77986e-06 5.12514e-05 -6.79011e-09
7.05689e-10 -6.79011e-09 -1.34389e-05
0.000725693 4.35892e-05 -4.60821e-07
4.35892e-05 7.22583e-05 -2.66244e-07
-4.60821e-07 -2.66244e-07 -1.66069e-05
0.000684136 2.74343e-06 5.13064e-07
2.74343e-06 4.29202e-05 3.19021e-07
5.13064e-07 3.19021e-07 -4.0825e-05
0.000794781 1.35785e-05 8.12455e-07
1.35785e-05 0.000102707 8.86726e-08
8.12455e-07 8.86726e-08 1.75173e-05
0.000750323 -3.30188e-05 9.719e-07
-3.30188e-05 8.08065e-05 -4.30411e-07
9.719e-07 -4.30411e-07 -8.72734e-06
0.000604641 2.58811e-05 4.62242e-07
2.58811e-05 -5.60891e-06 7.80307e-07
4.62242e-07 7.80307e-07 -8.97682e-05
0.000719087 4.40772e-05 9.08867e-07
4.40772e-05 4.74911e-05 1.07863e-06
9.08867e-07 1.07863e-06 -1.92847e-05
0.000670132 2.25761e-05 8.76694e-07
2.25761e-05 6.2295e-06 1.76874e-06
8.76694e-07 1.76874e-06 -3.75981e-05
0.000679111 -5.27371e-06 -4.32822e-07
-5.27371e-06 7.5045e-06 1.69562e-08
-4.32822e-07 1.69562e-08 -3.51318e-05
0.00127428 -1.81121e-05 6.5107e-07
-1.81121e-05 0.000333352 2.22031e-06
6.5107e-07 2.22031e-06 0.000327003
0.000683335 -2.53755e-05 -4.30666e-07
-2.53755e-05 7.62337e-06 -1.97102e-06
-4.30666e-07 -1.97102e-06 -3.43891e-05
0.0013003 -2.56479e-05 -3.49187e-06
-2.56479e-05 0.000350858 -1.43447e-06
-3.49187e-06 -1.43447e-06 0.00034415
0.000915533 -2.23918e-05 1.51474e-05
-2.23918e-05 0.000134313 7.59809e-06
1.51474e-05 7.59809e-06 0.000144195
0.00132216 -3.3846e-05 -6.8682e-06
-3.3846e-05 0.000366941 -5.09905e-06
-6.8682e-06 -5.09905e-06 0.000359527
0.000853129 -2.97229e-05 5.65471e-06
-2.97229e-05 0.000102844 2.82292e-06
5.65471e-06 2.82292e-06 0.000111812
0.000785889 -3.58438e-05 -1.79109e-06
-3.58438e-05 7.04944e-05 -1.91253e-06
-1.79109e-06 -1.91253e-06 7.79115e-05
0.000598953 3.3298e-05 4.90043e-07
3.3298e-05 -4.17579e-05 -3.80395e-06
4.90043e-07 -3.80395e-06 -5.61774e-05
0.000598175 4.11262e-05 -1.48872e-07
4.11262e-05 -3.33748e-05 7.74561e-08
-1.48872e-07 7.74561e-08 -5.28204e-05
0.00233832 7.05421e-05 2.4353e-05
7.05421e-05 0.000976448 -3.97255e-06
2.4353e-05 -3.97255e-06 0.000986498
0.00059861 4.30191e-05 -1.16602e-06
4.30191e-05 -2.4984e-05 4.9449e-06
-1.16602e-06 4.9449e-06 -4.91819e-05
0.00255128 8.44911e-05 -3.82614e-06
8.44911e-05 0.00110667 -2.48445e-07
-3.82614e-06 -2.48445e-07 0.00111311
0.00275935 9.38571e-05 -4.82672e-05
9.38571e-05 0.00123165 3.32804e-06
-4.82672e-05 3.32804e-06 0.00123595
0.00163756 0.000135096 1.33351e-06
0.000135096 9.49927e-05 2.28792e-06
1.33351e-06 2.28792e-06 -2.32378e-05
0.00172669 0.000103009 7.64857e-07
0.000103009 8.34478e-05 4.06849e-07
7.64857e-07 4.06849e-07 -1.627e-05
0.00170398 0.000144804 4.61386e-06
0.000144804 4.77698e-05 1.56324e-06
4.61386e-06 1.56324e-06 -3.57039e-05
0.00172544 8.07362e-05 2.96266e-06
8.07362e-05 5.46877e-05 -4.36066e-07
2.96266e-06 -4.36066e-07 -2.12711e-05
0.00175073 3.36006e-05 2.02654e-06
3.36006e-05 8.82227e-05 -3.81097e-07
2.02654e-06 -3.81097e-07 -1.16127e-05
0.00164999 1.66814e-06 -9.00919e-07
1.66814e-06 9.36439e-05 -7.65706e-08
-9.00919e-07 -7.65706e-08 -1.95392e-05
0.00175286 9.89467e-07 -1.39019e-07
9.89467e-07 9.80441e-05 1.31542e-08
-1.39019e-07 1.31542e-08 -1.0123e-06
0.00168396 4.46757e-05 1.6477e-06
4.46757e-05 3.7718e-05 -4.93024e-07
1.6477e-06 -4.93024e-07 -4.34481e-05
0.00181655 0.000109727 7.21683e-07
0.000109727 9.53406e-05 -2.93948e-07
7.21683e-07 -2.93948e-07 1.9516e-05
0.00192072 0.000168551 3.60184e-07
0.000168551 0.000166699 2.56687e-07
3.60184e-07 2.56687e-07 7.87145e-05
0.00174401 -1.25086e-06 -1.65229e-06
-1.25086e-06 8.07708e-05 7.04299e-07
-1.65229e-06 7.04299e-07 -3.93719e-06
0.00188528 7.87558e-05 1.96956e-06
7.87558e-05 9.23488e-05 2.58093e-07
1.96956e-06 2.58093e-07 3.34773e-05
0.00168042 0.000154948 1.22407e-06
0.000154948 -3.30429e-05 -4.04065e-07
1.22407e-06 -4.04065e-07 -0.00010481
0.00185698 -4.18585e-05 7.10447e-07
-4.18585e-05 0.000150401 1.64504e-07
7.10447e-07 1.64504e-07 5.239e-05
0.00179157 -8.55966e-05 1.01464e-06
-8.55966e-05 0.00011668 -6.28643e-07
1.01464e-06 -6.28643e-07 2.05087e-05
0.00168535 -0.000145951 6.36447e-07
-0.000145951 5.81596e-05 -5.5074e-08
6.36447e-07 -5.5074e-08 -2.8385e-05
0.00120127 -0.000194342 1.43203e-07
-0.000194342 0.000289692 2.76368e-06
1.43203e-07 2.76368e-06 0.000128952
0.00175054 -0.000264957 -3.95087e-07
-0.000264957 0.000515316 1.97227e-06
-3.95087e-07 1.97227e-06 0.000312996
0.00138795 -0.000278057 -2.41641e-06
-0.000278057 9.69324e-05 1.05405e-06
-2.41641e-06 1.05405e-06 -0.00012993
0.0016325 -0.000182493 1.48664e-06
-0.000182493 5.69027e-05 -9.3161e-07
1.48664e-06 -9.3161e-07 -4.50827e-05
0.0015045 -0.00023733 1.63369e-06
-0.00023733 -1.5007e-05 -3.16416e-06
1.63369e-06 -3.16416e-06 -0.000135797
0.00162879 -0.000266563 -4.13563e-07
-0.000266563 0.000126098 -8.35647e-06
-4.13563e-07 -8.35647e-06 -4.34241e-05
0.00112815 -0.000187552 1.13111e-06
-0.000187552 0.000245442 -7.85963e-07
1.13111e-06 -7.85963e-07 9.9176e-05
0.000730401 -0.000157183 -5.43977e-06
-0.000157183 3.37911e-05 -2.35797e-06
-5.43977e-06 -2.35797e-06 -9.95375e-05
0.00115907 -0.000147358 -2.80073e-07
-0.000147358 0.000321083 -5.4178e-07
-2.80073e-07 -5.4178e-07 0.000158903
0.000408412 1.91528e-05 -4.3972e-07
1.91528e-05 -0.000133683 1.54801e-06
-4.3972e-07 1.54801e-06 -0.000190338
0.000982193 -5.02959e-05 4.1699e-07
-5.02959e-05 0.000217834 5.95444e-07
4.1699e-07 5.95444e-07 9.82812e-05
0.000555645 3.13725e-05 9.02274e-07
3.13725e-05 -2.91071e-05 1.80572e-06
9.02274e-07 1.80572e-06 -0.00012309
0.00173072 -4.49247e-05 -8.3466e-07
-4.49247e-05 6.34274e-05 7.17487e-10
-8.3466e-07 7.17487e-10 -2.4394e-05
0.00194665 -0.00011684 -3.13981e-09
-0.00011684 0.000155229 -9.03918e-08
-3.13981e-09 -9.03918e-08 8.22699e-05
0.00160364 -0.000168979 -3.26443e-07
-0.000168979 -1.83851e-06 3.74602e-07
-3.26443e-07 3.74602e-07 -8.08438e-05
0.00111203 -0.000195922 1.98283e-07
-0.000195922 0.000224151 1.89125e-06
1.98283e-07 1.89125e-06 5.68514e-05
0.000919906 -0.000228799 -4.42028e-07
-0.000228799 -3.1571e-08 -1.38422e-07
-4.42028e-07 -1.38422e-07 -0.00022631
0.00176345 -0.000317372 -3.00047e-06
-0.000317372 0.000279294 8.18062e-07
-3.00047e-06 8.18062e-07 5.13705e-05
0.00190971 -0.000228275 8.9839e-07
-0.000228275 0.000153387 -5.76457e-07
8.9839e-07 -5.76457e-07 5.82605e-05
0.00171525 -0.000277148 1.27603e-06
-0.000277148 0.000117383 -1.41565e-06
1.27603e-06 -1.41565e-06 -2.73735e-05
0.000518652 2.72411e-05 2.54137e-07
2.72411e-05 -7.54422e-05 -7.73534e-07
2.54137e-07 -7.73534e-07 -0.000123428
0.000812347 -4.50925e-06 -4.35417e-07
-4.50925e-06 0.000119849 2.86464e-07
-4.35417e-07 2.86464e-07 3.25371e-05
0.000443573 -0.000144203 -2.33509e-06
-0.000144203 -0.000155998 2.00486e-06
-2.33509e-06 2.00486e-06 -0.000296062
0.00127086 -0.000189258 -3.5384e-08
-0.000189258 0.000341133 -6.25078e-08
-3.5384e-08 -6.25078e-08 0.000187311
0.000922968 -4.8951e-05 -1.41775e-07
-4.8951e-05 0.000188522 -2.69925e-07
-1.41775e-07 -2.69925e-07 4.93321e-05
0.000884295 -5.53513e-05 -4.74506e-07
-5.53513e-05 0.000168272 1.17722e-06
-4.74506e-07 1.17722e-06 5.43465e-05
0.00195988 -6.93865e-05 1.34503e-06
-6.93865e-05 0.000134435 4.07949e-07
1.34503e-06 4.07949e-07 7.56713e-05
0.00184867 -0.000164905 -1.51926e-06
-0.000164905 5.82158e-05 -1.0113e-06
-1.51926e-06 -1.0113e-06 5.2721e-06
0.00181624 -0.000190255 5.49213e-07
-0.000190255 7.23091e-05 -3.82479e-07
5.49213e-07 -3.82479e-07 1.75036e-06
0.0021677 -0.000314781 5.52393e-06
-0.000314781 0.000269943 -6.39916e-07
5.52393e-06 -6.39916e-07 0.000155032
0.000257033 -0.0001457 -2.89102e-06
-0.0001457 -0.000269327 -1.48571e-06
-2.89102e-06 -1.48571e-06 -0.000449796
0.00176717 -0.000329064 -2.47577e-06
-0.000329064 0.000240485 8.46198e-06
-2.47577e-06 8.46198e-06 2.74802e-05
0.00244549 -0.000371685 2.48809e-06
-0.000371685 0.000792394 -3.97866e-06
2.48809e-06 -3.97866e-06 0.000531279
0.000686215 2.72773e-05 5.2672e-07
2.72773e-05 1.43262e-05 -1.95059e-06
5.2672e-07 -1.95059e-06 -2.69954e-05
0.000724547 -8.49552e-05 1.74321e-06
-8.49552e-05 6.95284e-05 -1.99961e-06
1.74321e-06 -1.99961e-06 -6.4253e-06
0.000516603 1.92181e-05 -1.92063e-07
1.92181e-05 -4.81711e-05 -2.15267e-06
-1.92063e-07 -2.15267e-06 -0.000131415
0.000805964 -3.79803e-05 9.17344e-07
-3.79803e-05 0.000130926 5.08606e-07
9.17344e-07 5.08606e-07 2.1801e-05
0.000723429 -7.52952e-06 1.07609e-06
-7.52952e-06 6.77668e-05 -1.65655e-06
1.07609e-06 -1.65655e-06 -4.87803e-05
0.000260674 -9.83911e-05 7.99583e-07
-9.83911e-05 -0.000170356 2.30618e-06
7.99583e-07 2.30618e-06 -0.000315959
0.000318756 -0.000142199 -1.28624e-06
-0.000142199 -0.000274091 1.08621e-07
-1.28624e-06 1.08621e-07 -0.000405402
0.00216571 -0.000260689 -7.51402e-06
-0.000260689 0.000892386 3.7669e-06
-7.51402e-06 3.7669e-06 0.000689938
0.000700251 -2.89914e-05 -8.47657e-07
-2.89914e-05 3.44608e-05 -7.17145e-07
-8.47657e-07 -7.17145e-07 -3.15299e-05
0.000837258 -8.3084e-07 2.09702e-08
-8.3084e-07 0.00013476 -1.13605e-07
2.09702e-08 -1.13605e-07 3.77706e-05
0.00210208 0.000215764 -3.45381e-07
0.000215764 0.000302238 2.91729e-07
-3.45381e-07 2.91729e-07 0.000194499
0.000727205 2.92702e-05 -1.56306e-07
2.92702e-05 8.73264e-05 -3.86989e-08
-1.56306e-07 -3.86989e-08 -4.62837e-05
0.00121649 0.000195389 1.54496e-06
0.000195389 0.000342284 -2.66713e-06
1.54496e-06 -2.66713e-06 0.000154118
0.000554004 0.000100492 1.64142e-07
0.000100492 -4.49713e-05 7.90361e-07
1.64142e-07 7.90361e-07 -0.000173986
0.00188411 0.000293009 -1.80344e-07
0.000293009 0.000299935 4.64399e-07
-1.80344e-07 4.64399e-07 0.000123175
0.00172493 0.000284316 1.17936e-06
0.000284316 0.000142487 4.10756e-06
1.17936e-06 4.10756e-06 -1.25187e-05
0.00103738 0.00021499 8.83042e-07
0.00021499 0.000139621 1.9885e-07
8.83042e-07 1.9885e-07 -0.000106949
0.0014314 0.000284418 -2.58587e-06
0.000284418 0.000110547 1.36345e-06
-2.58587e-06 1.36345e-06 -9.6765e-05
0.00055216 -8.72928e-06 5.10901e-08
-8.72928e-06 -2.99662e-05 7.95812e-07
5.10901e-08 7.95812e-07 -0.000116073
0.000529841 6.51703e-05 -5.34834e-07
6.51703e-05 -2.16143e-05 -1.54211e-06
-5.34834e-07 -1.54211e-06 -0.000143699
0.00108012 0.000190272 1.80765e-06
0.000190272 0.000242715 -1.86644e-06
1.80765e-06 -1.86644e-06 3.74066e-05
0.00065285 0.000112538 -9.96503e-07
0.000112538 2.68559e-05 -2.29327e-06
-9.96503e-07 -2.29327e-06 -0.000126016
0.00197184 0.000209253 4.90856e-07
0.000209253 0.000115704 -8.55124e-07
4.90856e-07 -8.55124e-07 3.98745e-05
0.00192458 0.000259956 2.21107e-06
0.000259956 0.00019583 7.9271e-07
2.21107e-06 7.9271e-07 7.09658e-05
0.00177036 0.000318449 -2.14744e-06
0.000318449 0.000207192 4.69502e-08
-2.14744e-06 4.69502e-08 1.82848e-05
0.000818252 0.000218509 7.21473e-07
0.000218509 -9.41298e-05 9.14998e-07
7.21473e-07 9.14998e-07 -0.000334228
0.000703355 8.41054e-06 -3.12363e-07
8.41054e-06 5.37682e-05 1.15588e-06
-3.12363e-07 1.15588e-06 -3.43053e-05
0.00190271 0.00016418 -1.10663e-06
0.00016418 4.68602e-05 1.47693e-06
-1.10663e-06 1.47693e-06 -1.93757e-06
0.00138314 0.000192141 -7.55528e-08
0.000192141 0.000475485 2.9398e-06
-7.55528e-08 2.9398e-06 0.000312487
0.00108053 0.000199737 1.53697e-06
0.000199737 0.000216145 4.13059e-06
1.53697e-06 4.13059e-06 5.83243e-06
0.00246264 0.000261096 -1.0205e-05
0.000261096 0.000397479 -1.50142e-06
-1.0205e-05 -1.50142e-06 0.00031315
0.00132393 0.000309387 -2.96148e-06
0.000309387 -0.000110541 -4.47161e-06
-2.96148e-06 -4.47161e-06 -0.000285479
0.00182244 0.000321369 -2.79257e-06
0.000321369 0.000368643 5.73447e-07
-2.79257e-06 5.73447e-07 0.000129294
0.000767397 1.69171e-05 -1.4095e-06
1.69171e-05 8.56474e-05 -3.37375e-08
-1.4095e-06 -3.37375e-08 7.23879e-06
0.000762153 5.63338e-06 -4.32013e-07
5.63338e-06 8.76911e-05 -3.67488e-08
-4.32013e-07 -3.67488e-08 6.30168e-06
0.000849161 -7.27968e-06 -2.78336e-07
-7.27968e-06 0.00014642 5.6589e-07
-2.78336e-07 5.6589e-07 6.0609e-05
0.000700753 -1.80998e-05 -3.58375e-07
-1.80998e-05 3.71589e-05 -1.16555e-06
-3.58375e-07 -1.16555e-06 -2.8722e-05
0.000725482 2.08864e-05 4.63966e-07
2.08864e-05 6.80143e-05 1.4752e-07
4.63966e-07 1.4752e-07 -1.62186e-05
0.000565746 -6.32676e-06 -8.54589e-07
-6.32676e-06 -1.17796e-05 2.39964e-07
-8.54589e-07 2.39964e-07 -0.000103492
0.000707929 -6.99169e-06 -2.39251e-07
-6.99169e-06 4.60924e-05 -4.97957e-08
-2.39251e-07 -4.97957e-08 -2.41992e-05
0.000602875 -2.48475e-05 -5.92519e-07
-2.48475e-05 -1.12282e-06 3.59787e-07
-5.92519e-07 3.59787e-07 -8.81546e-05
0.000676315 -2.80347e-05 6.83743e-07
-2.80347e-05 3.6408e-05 -2.95787e-07
6.83743e-07 -2.95787e-07 -4.83414e-05
0.000803852 1.97734e-05 3.24267e-07
1.97734e-05 0.000119688 1.17256e-07
3.24267e-07 1.17256e-07 2.45376e-05
0.000898678 -7.76871e-07 9.16468e-07
-7.76871e-07 0.000144182 -7.18291e-07
9.16468e-07 -7.18291e-07 6.18564e-05
0.000751806 -4.75379e-05 1.00881e-06
-4.75379e-05 7.53559e-05 -1.01011e-07
1.00881e-06 -1.01011e-07 -1.26796e-05
0.000797478 2.11804e-05 4.85112e-07
2.11804e-05 0.000112721 3.0102e-07
4.85112e-07 3.0102e-07 1.54002e-05
0.000711975 2.43255e-05 1.83347e-06
2.43255e-05 6.1142e-05 6.696e-07
1.83347e-06 6.696e-07 -3.28782e-05
0.000731758 1.32945e-05 1.04807e-06
1.32945e-05 5.43391e-05 1.20012e-06
1.04807e-06 1.20012e-06 -1.45708e-05
0.000661477 -7.41208e-06 5.18788e-08
-7.41208e-06 2.19477e-06 1.69563e-06
5.18788e-08 1.69563e-06 -4.15214e-05
0.0006737 -8.51486e-06 -2.22504e-07
-8.51486e-06 7.47118e-06 4.67127e-08
-2.22504e-07 4.67127e-08 -3.57546e-05
0.00127969 -8.31142e-06 5.1088e-07
-8.31142e-06 0.000335721 2.13408e-06
5.1088e-07 2.13408e-06 0.000329039
0.000693517 -1.69322e-05 2.23357e-07
-1.69322e-05 1.56663e-05 -2.00742e-06
2.23357e-07 -2.00742e-06 -2.68693e-05
0.00130923 -1.58959e-05 -2.61821e-06
-1.58959e-05 0.000354047 -1.48941e-06
-2.61821e-06 -1.48941e-06 0.000347546
0.000913214 -1.5322e-05 1.13798e-05
-1.5322e-05 0.000129473 7.77422e-06
1.13798e-05 7.77422e-06 0.000139875
0.00133761 -2.39336e-05 -5.00855e-06
-2.39336e-05 0.000372486 -5.19054e-06
-5.00855e-06 -5.19054e-06 0.000365624
0.000865592 -2.27536e-05 3.92462e-06
-2.27536e-05 0.000104912 2.93677e-06
3.92462e-06 2.93677e-06 0.00011478
0.000799765 -2.8936e-05 -1.25086e-06
-2.8936e-05 7.16562e-05 -1.90941e-06
-1.25086e-06 -1.90941e-06 8.07909e-05
0.000705029 4.56127e-06 7.12715e-07
4.56127e-06 2.31062e-05 -2.07501e-06
7.12715e-07 -2.07501e-06 -1.51763e-05
0.000616988 2.65857e-05 4.55092e-07
2.65857e-05 -3.81857e-05 -3.75081e-06
4.55092e-07 -3.75081e-06 -4.91106e-05
0.000618408 3.40769e-05 -5.74077e-08
3.40769e-05 -3.0651e-05 7.16243e-08
-5.74077e-08 7.16243e-08 -4.52896e-05
0.00222785 5.77557e-05 2.01601e-05
5.77557e-05 0.000905085 -4.16258e-06
2.01601e-05 -4.16258e-06 0.000918294
0.000616634 4.44243e-05 8.20513e-08
4.44243e-05 -2.19743e-05 4.5265e-06
8.20513e-08 4.5265e-06 -4.21108e-05
0.0024055 7.23508e-05 -3.10427e-06
7.23508e-05 0.00101577 -1.99403e-07
-3.10427e-06 -1.99403e-07 0.00102527
0.00261645 8.51398e-05 -3.63164e-05
8.51398e-05 0.00114421 3.65407e-06
-3.63164e-05 3.65407e-06 0.00115051
0.00196368 0.00016562 1.16837e-06
0.00016562 0.000181252 2.10084e-06
1.16837e-06 2.10084e-06 9.46637e-05
0.00181704 0.000112957 9.30645e-07
0.000112957 9.70849e-05 -2.13332e-08
9.30645e-07 -2.13332e-08 2.03815e-05
0.00167666 4.48269e-05 1.53768e-06
4.48269e-05 3.98035e-05 -1.17092e-06
1.53768e-06 -1.17092e-06 -4.23387e-05
0.00174053 3.58099e-06 4.99842e-07
3.58099e-06 9.16047e-05 -1.41544e-07
4.99842e-07 -1.41544e-07 -7.41461e-06
0.0017611 1.53439e-06 -7.55135e-07
1.53439e-06 8.91131e-05 2.23392e-07
-7.55135e-07 2.23392e-07 5.60428e-06
0.00192497 7.61034e-05 2.13469e-07
7.61034e-05 0.00011486 1.33725e-07
2.13469e-07 1.33725e-07 5.64857e-05
0.00176205 0.000158351 -8.34549e-07
0.000158351 1.04128e-05 -2.81736e-07
-8.34549e-07 -2.81736e-07 -6.1728e-05
0.0017907 3.42755e-06 1.30383e-06
3.42755e-06 2.9836e-05 1.24825e-07
1.30383e-06 1.24825e-07 -2.20608e-05
0.00196824 0.000108741 2.92353e-06
0.000108741 8.27295e-05 1.73145e-07
2.92353e-06 1.73145e-07 3.59919e-05
0.00193332 6.12803e-05 -2.65901e-06
6.12803e-05 8.5591e-05 3.5461e-07
-2.65901e-06 3.5461e-07 9.62452e-05
0.001866 -4.47212e-05 -5.8e-07
-4.47212e-05 0.000137904 8.10336e-08
-5.8e-07 8.10336e-08 5.02953e-05
0.00190825 -0.000119297 -1.46722e-08
-0.000119297 0.000132225 2.80144e-07
-1.46722e-08 2.80144e-07 5.94385e-05
0.00164836 -0.000169557 -5.216e-07
-0.000169557 2.36235e-05 7.05406e-07
-5.216e-07 7.05406e-07 -5.48987e-05
0.00115931 -0.000198181 3.65425e-07
-0.000198181 0.000247758 4.38709e-06
3.65425e-07 4.38709e-06 7.9846e-05
0.00112967 -0.000241016 8.54456e-07
-0.000241016 0.000126851 4.55957e-06
8.54456e-07 4.55957e-06 -9.56474e-05
0.00168551 -0.000308166 -2.65186e-06
-0.000308166 0.000234477 -1.72955e-06
-2.65186e-06 -1.72955e-06 1.27329e-05
0.00184652 -0.000227367 3.4856e-06
-0.000227367 0.000118476 -1.07551e-06
3.4856e-06 -1.07551e-06 2.2174e-05
0.00161032 -0.000269911 1.31685e-07
-0.000269911 6.05163e-05 -5.24487e-06
1.31685e-07 -5.24487e-06 -8.37079e-05
0.000151122 -0.000120152 -3.36233e-06
-0.000120152 -0.000320209 2.8852e-06
-3.36233e-06 2.8852e-06 -0.000455195
0.00168908 -0.000214747 9.15024e-06
-0.000214747 0.000586143 -4.38067e-06
9.15024e-06 -4.38067e-06 0.000433429
0.000856568 -1.5829e-05 -3.62454e-07
-1.5829e-05 0.000139053 -1.16638e-07
-3.62454e-07 -1.16638e-07 1.12402e-05
0.000671202 1.0889e-05 -4.23323e-07
1.0889e-05 1.0384e-05 1.22582e-06
-4.23323e-07 1.22582e-06 -3.50885e-05
0.000839252 1.52321e-05 -6.30868e-07
1.52321e-05 0.000133593 1.75687e-06
-6.30868e-07 1.75687e-06 4.65472e-05
0.000807142 -2.59229e-05 -2.73943e-07
-2.59229e-05 0.000124131 2.12696e-06
-2.73943e-07 2.12696e-06 9.93557e-06
0.00186684 -6.95825e-05 6.28435e-08
-6.95825e-05 8.19441e-05 2.33541e-08
6.28435e-08 2.33541e-08 2.32769e-05
0.000676764 7.85054e-06 9.73329e-07
7.85054e-06 9.75179e-06 6.59404e-08
9.73329e-07 6.59404e-08 -3.18856e-05
0.000614079 -2.37914e-05 -1.19745e-06
-2.37914e-05 -6.8918e-06 -3.80903e-08
-1.19745e-06 -3.80903e-08 -7.45178e-05
0.00186509 -0.000161123 -3.32167e-08
-0.000161123 7.80669e-05 2.46652e-07
-3.32167e-08 2.46652e-07 2.06827e-05
0.00169256 -0.000186977 -1.80427e-06
-0.000186977 4.27252e-07 5.18475e-07
-1.80427e-06 5.18475e-07 -7.19462e-05
0.000479274 -0.000160458 6.96737e-07
-0.000160458 -0.000132834 3.17401e-06
6.96737e-07 3.17401e-06 -0.000310183
0.00181864 -0.000320743 -2.85882e-06
-0.000320743 0.000452015 1.04584e-06
-2.85882e-06 1.04584e-06 0.000187593
0.00151004 -0.000308924 1.75704e-06
-0.000308924 9.17847e-05 -1.26106e-06
1.75704e-06 -1.26106e-06 -0.000113694
0.00204693 -0.000309593 2.45196e-06
-0.000309593 0.000213167 -1.11899e-06
2.45196e-06 -1.11899e-06 9.68891e-05
0.000771879 -2.13009e-05 1.06516e-06
-2.13009e-05 9.66878e-05 -8.75085e-07
1.06516e-06 -8.75085e-07 1.60262e-05
0.000789439 -2.64841e-05 1.08237e-08
-2.64841e-05 0.000121755 9.20265e-07
1.08237e-08 9.20265e-07 1.14357e-05
0.000915677 -0.000171893 -1.8749e-06
-0.000171893 6.17862e-05 -4.56933e-07
-1.8749e-06 -4.56933e-07 -7.57967e-05
0.00137415 -0.000204197 9.73145e-06
-0.000204197 0.000440709 -2.36946e-06
9.73145e-06 -2.36946e-06 0.000270281
0.00056338 -8.35398e-05 -1.31177e-06
-8.35398e-05 -1.02803e-05 3.04463e-07
-1.31177e-06 3.04463e-07 -0.000151031
0.000768775 -7.75174e-06 2.23954e-07
-7.75174e-06 9.78778e-05 -5.65902e-07
2.23954e-07 -5.65902e-07 -1.97592e-05
0.00189951 -8.04968e-05 5.76641e-07
-8.04968e-05 3.79702e-05 3.42623e-07
5.76641e-07 3.42623e-07 -6.55352e-06
0.0017918 -0.000162313 6.02788e-07
-0.000162313 1.21583e-05 -8.51435e-07
6.02788e-07 -8.51435e-07 -2.07683e-05
0.00196332 -0.000290777 1.6621e-07
-0.000290777 6.91252e-05 -1.07078e-06
1.6621e-07 -1.07078e-06 -3.37615e-06
0.00151221 -0.000333768 2.1511e-06
-0.000333768 -2.28006e-05 1.60918e-06
2.1511e-06 1.60918e-06 -0.000162634
0.000746396 -0.000143558 -6.0816e-06
-0.000143558 2.6829e-06 -4.78234e-06
-6.0816e-06 -4.78234e-06 -0.000175525
0.00282877 -0.000431918 -4.12616e-06
-0.000431918 0.000944538 4.43424e-06
-4.12616e-06 4.43424e-06 0.000659955
0.000480239 5.42646e-05 -1.25358e-06
5.42646e-05 -7.72473e-05 -2.71405e-06
-1.25358e-06 -2.71405e-06 -0.000147235
0.000729768 -5.04512e-05 2.07165e-06
-5.04512e-05 6.15564e-05 -1.50852e-06
2.07165e-06 -1.50852e-06 -9.07586e-06
0.000949007 -6.65771e-05 1.41695e-06
-6.65771e-05 0.000202485 -1.18353e-07
1.41695e-06 -1.18353e-07 0.000110764
0.000506532 1.56016e-05 -2.58325e-07
1.56016e-05 -3.80719e-05 2.83e-07
-2.58325e-07 2.83e-07 -0.000147559
0.000999787 -4.39989e-05 3.73997e-07
-4.39989e-05 0.000230499 -1.135e-07
3.73997e-07 -1.135e-07 0.000121113
0.000828531 -4.57977e-05 2.05212e-06
-4.57977e-05 0.000113493 -3.94126e-07
2.05212e-06 -3.94126e-07 -1.57406e-05
1.69955e-06 -7.62899e-05 5.2055e-06
-7.62899e-05 -0.000230389 1.42242e-06
5.2055e-06 1.42242e-06 -0.00045134
0.000498495 -0.000186172 -1.50953e-05
-0.000186172 -0.000150814 4.60306e-06
-1.50953e-05 4.60306e-06 -0.000287395
0.000574327 1.56143e-05 -1.46557e-07
1.56143e-05 -1.38238e-05 -1.74957e-07
-1.46557e-07 -1.74957e-07 -0.00010397
0.000689409 8.32868e-05 -2.97082e-06
8.32868e-05 6.7997e-05 -2.9688e-06
-2.97082e-06 -2.9688e-06 -5.60308e-05
0.00202301 0.000207597 -1.40046e-06
0.000207597 0.000143829 -9.14485e-07
-1.40046e-06 -9.14485e-07 7.09088e-05
0.00178603 0.000260384 2.07266e-07
0.000260384 0.000125059 2.43086e-06
2.07266e-07 2.43086e-06 -4.53176e-06
0.00149926 0.000151369 -4.57606e-06
0.000151369 0.00049464 -2.31984e-06
-4.57606e-06 -2.31984e-06 0.000341151
0.00109468 0.00019247 -1.70269e-06
0.00019247 0.000259537 -6.98599e-06
-1.70269e-06 -6.98599e-06 5.14207e-05
0.00176448 0.000312359 1.32816e-06
0.000312359 0.00019973 1.48272e-06
1.32816e-06 1.48272e-06 1.2886e-05
0.00196421 0.00030871 -9.77054e-09
0.00030871 0.000525308 -2.37927e-07
-9.77054e-09 -2.37927e-07 0.000281271
0.00071507 2.96203e-05 6.62535e-07
2.96203e-05 6.91328e-05 -7.22648e-07
6.62535e-07 -7.22648e-07 -2.58653e-05
0.00190217 0.000159147 -1.47269e-07
0.000159147 3.85704e-05 -9.92507e-08
-1.47269e-07 -9.92507e-08 -2.71773e-06
0.00094304 0.000134858 7.54068e-07
0.000134858 0.000221944 1.73151e-06
7.54068e-07 1.73151e-06 7.06434e-05
0.000783864 0.00017702 8.84075e-07
0.00017702 4.95471e-05 7.01597e-08
8.84075e-07 7.01597e-08 -0.000159878
0.00210925 0.000248064 2.62722e-06
0.000248064 0.000202253 1.25407e-07
2.62722e-06 1.25407e-07 0.000117833
0.00153134 0.000320021 -5.56236e-07
0.000320021 1.76812e-06 -1.6344e-06
-5.56236e-07 -1.6344e-06 -0.00017155
0.00207433 0.00034136 5.54203e-07
0.00034136 0.000520986 3.87696e-07
5.54203e-07 3.87696e-07 0.000279075
0.00130045 7.9696e-05 -2.53047e-06
7.9696e-05 0.000416314 2.13111e-06
-2.53047e-06 2.13111e-06 0.000293678
0.00236802 0.000175995 -2.60765e-05
0.000175995 0.000331019 -4.23839e-06
-2.60765e-05 -4.23839e-06 0.000317209
0.00229247 0.000281749 -3.83295e-06
0.000281749 0.000948398 2.14812e-07
-3.83295e-06 2.14812e-07 0.000765085
0.0023442 0.000323987 -6.34007e-06
0.000323987 0.000843437 1.66584e-06
-6.34007e-06 1.66584e-06 0.000613257
0.00176043 0.000335927 -9.68269e-06
0.000335927 2.63468e-05 -8.68764e-06
-9.68269e-06 -8.68764e-06 -8.55434e-05
0.00135628 0.000315862 -8.80618e-06
0.000315862 5.52595e-05 -6.88616e-07
-8.80618e-06 -6.88616e-07 -0.000166022
0.000446987 0.000194156 1.63754e-05
0.000194156 -0.000548031 -5.64999e-06
1.63754e-05 -5.64999e-06 -0.000751806
0.000696123 1.56696e-05 3.00099e-07
1.56696e-05 5.49413e-05 -2.41867e-07
3.00099e-07 -2.41867e-07 -2.92511e-05
0.00076725 -1.23466e-06 -2.37884e-07
-1.23466e-06 0.000103763 4.78872e-07
-2.37884e-07 4.78872e-07 1.67523e-05
0.00108162 1.54416e-05 6.31137e-07
1.54416e-05 0.000264224 -8.38895e-07
6.31137e-07 -8.38895e-07 0.000173773
0.000697333 -5.37405e-05 -2.31381e-07
-5.37405e-05 4.46188e-05 -1.45215e-06
-2.31381e-07 -1.45215e-06 -2.86544e-05
0.00064831 -4.62016e-05 -1.21576e-06
-4.62016e-05 2.23321e-05 1.90563e-07
-1.21576e-06 1.90563e-07 -6.25775e-05
0.000877192 9.13822e-05 -4.48782e-07
9.13822e-05 0.000163291 5.36748e-07
-4.48782e-07 5.36748e-07 6.65809e-05
0.000554813 -3.73796e-05 -8.3462e-07
-3.73796e-05 -2.8449e-05 5.42364e-07
-8.3462e-07 5.42364e-07 -0.000115562
0.000706266 -2.46211e-05 3.48635e-08
-2.46211e-05 4.88264e-05 -1.4723e-08
3.48635e-08 -1.4723e-08 -2.58569e-05
0.000681911 2.35462e-05 -6.18083e-08
2.35462e-05 3.39331e-05 -2.46982e-07
-6.18083e-08 -2.46982e-07 -5.27174e-05
0.000825674 -5.50179e-06 -3.95894e-07
-5.50179e-06 0.000104109 -5.59626e-07
-3.95894e-07 -5.59626e-07 1.98497e-05
0.000796042 1.67283e-06 3.28897e-07
1.67283e-06 0.000103886 4.41542e-08
3.28897e-07 4.41542e-08 1.22547e-05
0.000816892 -2.63702e-05 -1.69479e-07
-2.63702e-05 0.000110952 -6.33158e-08
-1.69479e-07 -6.33158e-08 2.26408e-05
0.000849243 -7.33056e-06 1.87829e-07
-7.33056e-06 0.000109858 -9.32904e-07
1.87829e-07 -9.32904e-07 2.63604e-05
0.000866735 1.49717e-05 -2.6691e-07
1.49717e-05 0.000132148 -1.07163e-06
-2.6691e-07 -1.07163e-06 3.77974e-05
0.000836917 4.44873e-05 3.80396e-07
4.44873e-05 0.000118985 1.64312e-07
3.80396e-07 1.64312e-07 2.94627e-05
0.000721989 3.16816e-05 2.5647e-07
3.16816e-05 6.53874e-05 5.57405e-07
2.5647e-07 5.57405e-07 -3.3187e-05
0.000587598 -1.55085e-05 -1.50879e-07
-1.55085e-05 -3.0346e-05 1.5229e-06
-1.50879e-07 1.5229e-06 -0.000101478
0.000889127 -1.23665e-05 3.2553e-07
-1.23665e-05 0.000175063 -9.10837e-07
3.2553e-07 -9.10837e-07 7.47969e-05
0.000550692 -1.6303e-06 -5.92658e-07
-1.6303e-06 -4.62504e-05 1.5679e-06
-5.92658e-07 1.5679e-06 -0.00012103
0.000648818 9.5315e-06 -4.99871e-07
9.5315e-06 -3.13526e-06 1.65183e-06
-4.99871e-07 1.65183e-06 -4.83502e-05
0.000656713 1.13839e-05 4.62196e-07
1.13839e-05 4.54178e-07 5.81248e-09
4.62196e-07 5.81248e-09 -4.3797e-05
0.000624487 1.57395e-06 1.47386e-07
1.57395e-06 -4.20132e-05 3.56898e-06
1.47386e-07 3.56898e-06 -5.32061e-05
0.000665728 -3.87208e-06 -6.10904e-07
-3.87208e-06 3.43059e-06 -1.82545e-06
-6.10904e-07 -1.82545e-06 -4.01065e-05
0.000976717 -5.74208e-06 -1.71503e-06
-5.74208e-06 0.000161264 -1.57083e-06
-1.71503e-06 -1.57083e-06 0.000152504
0.00225155 -1.13477e-05 7.18318e-06
-1.13477e-05 0.000900072 4.89226e-06
7.18318e-06 4.89226e-06 0.000918075
0.0013471 -1.44334e-05 -2.9132e-06
-1.44334e-05 0.000376372 -5.12853e-06
-2.9132e-06 -5.12853e-06 0.000369612
0.00086514 -1.53853e-05 2.06572e-06
-1.53853e-05 0.00010082 3.01545e-06
2.06572e-06 3.01545e-06 0.000111378
0.000814528 -2.16229e-05 -6.97588e-07
-2.16229e-05 7.47863e-05 -1.93968e-06
-6.97588e-07 -1.93968e-06 8.49316e-05
0.000668846 1.07522e-05 -3.79365e-07
1.07522e-05 4.02532e-06 -2.04408e-06
-3.79365e-07 -2.04408e-06 -3.29311e-05
0.000690404 -1.83755e-06 4.53496e-07
-1.83755e-06 1.53225e-05 -4.07225e-08
4.53496e-07 -4.07225e-08 -2.3394e-05
0.000639389 2.01988e-05 3.19242e-07
2.01988e-05 -2.94221e-05 -3.62887e-06
3.19242e-07 -3.62887e-06 -3.78939e-05
0.000952226 3.14122e-05 -4.52081e-07
3.14122e-05 0.000155653 4.15017e-08
-4.52081e-07 4.15017e-08 0.000146253
0.00216623 4.58079e-05 1.61554e-05
4.58079e-05 0.000862912 -4.30631e-06
1.61554e-05 -4.30631e-06 0.00087863
0.00062766 3.50668e-05 -2.95026e-07
3.50668e-05 -2.52761e-05 4.02998e-06
-2.95026e-07 4.02998e-06 -4.01585e-05
0.00228275 5.96418e-05 -2.65117e-06
5.96418e-05 0.000937564 -1.48038e-07
-2.65117e-06 -1.48038e-07 0.000950203
0.00247384 7.39569e-05 -2.76304e-05
7.39569e-05 0.00105569 4.0082e-06
-2.76304e-05 4.0082e-06 0.00106467
0.00184849 0.000162029 -2.73291e-06
0.000162029 5.66371e-05 -6.7093e-07
-2.73291e-06 -6.7093e-07 -1.59575e-05
0.00196254 7.40157e-05 6.15046e-08
7.40157e-05 0.000136369 -1.30715e-07
6.15046e-08 -1.30715e-07 7.84455e-05
0.00176968 1.60493e-06 -1.16656e-07
1.60493e-06 9.23877e-05 -2.80849e-07
-1.16656e-07 -2.80849e-07 1.00715e-05
0.00175476 6.88056e-06 1.85195e-07
6.88056e-06 1.26428e-05 -1.82378e-07
1.85195e-07 -1.82378e-07 -3.95415e-05
0.00185753 0.000105638 -5.07575e-07
0.000105638 2.85288e-05 -2.81616e-07
-5.07575e-07 -2.81616e-07 -1.90487e-05
0.00177811 5.77117e-05 2.48062e-06
5.77117e-05 -6.87416e-06 1.22885e-06
2.48062e-06 1.22885e-06 -4.39556e-06
0.00186139 1.60429e-05 1.46155e-06
1.60429e-05 6.17791e-06 -2.07693e-07
1.46155e-06 -2.07693e-07 -6.20292e-06
0.00277296 0.000176128 2.22272e-05
0.000176128 0.000100712 -1.13736e-06
2.22272e-05 -1.13736e-06 7.4961e-05
0.00191846 3.24331e-05 -2.17905e-05
3.24331e-05 0.000192543 1.65821e-07
-2.17905e-05 1.65821e-07 0.000219576
0.000698761 6.16712e-05 -6.93328e-07
6.16712e-05 4.63889e-05 -1.33333e-06
-6.93328e-07 -1.33333e-06 -1.77743e-05
0.00175635 -6.93725e-05 -1.63284e-06
-6.93725e-05 1.98094e-05 -2.70823e-07
-1.63284e-06 -2.70823e-07 -3.89549e-05
0.00189737 -0.000155779 8.17204e-07
-0.000155779 0.000108767 9.76774e-07
8.17204e-07 9.76774e-07 4.70596e-05
0.00157601 -0.000184259 1.23776e-06
-0.000184259 -6.67582e-05 1.13545e-06
1.23776e-06 1.13545e-06 -0.000140221
0.00062903 -0.000168896 2.53875e-06
-0.000168896 -3.76049e-05 6.39188e-06
2.53875e-06 6.39188e-06 -0.000210851
0.00128294 -0.000276787 1.79283e-06
-0.000276787 0.000163071 6.10466e-06
1.79283e-06 6.10466e-06 -0.000106342
0.0013543 -0.000298787 -7.09841e-07
-0.000298787 -4.84335e-06 -6.39858e-06
-7.09841e-07 -6.39858e-06 -0.000205529
0.00185055 -0.000302697 -5.74467e-06
-0.000302697 0.000115003 -3.22721e-06
-5.74467e-06 -3.22721e-06 -2.96116e-06
0.00149238 -0.000204581 9.70102e-06
-0.000204581 0.000383336 -3.30696e-06
9.70102e-06 -3.30696e-06 0.000239242
0.000483594 -0.000141236 6.71374e-06
-0.000141236 -6.45458e-05 -7.68008e-06
6.71374e-06 -7.68008e-06 -0.000202878
0.000920474 -0.000100654 9.90603e-08
-0.000100654 0.000188745 -1.89503e-06
9.90603e-08 -1.89503e-06 4.67029e-05
0.00067289 -5.88898e-06 -1.31393e-06
-5.88898e-06 7.71317e-06 2.1028e-06
-1.31393e-06 2.1028e-06 -3.36509e-05
0.000816743 -1.11089e-05 3.80295e-07
-1.11089e-05 0.000131281 5.0122e-07
3.80295e-07 5.0122e-07 1.08408e-05
0.00100237 -5.1099e-05 4.96891e-07
-5.1099e-05 0.000233065 5.00159e-07
4.96891e-07 5.00159e-07 0.000151412
0.000771845 -1.94133e-05 -8.30642e-07
-1.94133e-05 0.000109934 7.55551e-07
-8.30642e-07 7.55551e-07 3.11317e-08
0.000492812 -1.60946e-05 -1.11877e-06
-1.60946e-05 -8.07476e-05 1.64775e-06
-1.11877e-06 1.64775e-06 -0.000145948
0.00190422 -8.96118e-05 -1.18493e-07
-8.96118e-05 2.41658e-05 3.52509e-08
-1.18493e-07 3.52509e-08 -1.14402e-05
0.00058797 3.25521e-05 8.64284e-08
3.25521e-05 -1.28554e-05 -9.71707e-07
8.64284e-08 -9.71707e-07 -8.32194e-05
0.000726682 -5.41386e-05 7.67047e-08
-5.41386e-05 6.67596e-05 2.47065e-07
7.67047e-08 2.47065e-07 -8.31122e-06
0.00081045 -3.71255e-05 -4.84552e-07
-3.71255e-05 0.000124992 7.52655e-07
-4.84552e-07 7.52655e-07 3.04856e-05
0.00178473 -0.000168468 8.88362e-07
-0.000168468 3.74286e-06 -1.9995e-07
8.88362e-07 -1.9995e-07 -3.0407e-05
0.00196541 -0.000288805 -1.30333e-06
-0.000288805 8.43757e-05 -4.99729e-07
-1.30333e-06 -4.99729e-07 6.71798e-06
0.000947099 -0.000177226 2.85296e-06
-0.000177226 0.000103929 2.99618e-08
2.85296e-06 2.99618e-08 -6.99873e-05
0.0017044 -0.000343475 3.51032e-06
-0.000343475 0.000357241 -1.87263e-07
3.51032e-06 -1.87263e-07 7.79181e-05
0.00177674 -0.00035542 3.4832e-07
-0.00035542 0.000125203 1.30143e-06
3.4832e-07 1.30143e-06 -2.09768e-05
0.000615088 -9.3805e-06 -2.71837e-07
-9.3805e-06 2.47689e-05 -5.6099e-08
-2.71837e-07 -5.6099e-08 -8.35552e-05
0.000836292 -5.55668e-05 -7.86411e-07
-5.55668e-05 0.000142497 2.50554e-07
-7.86411e-07 2.50554e-07 2.75704e-05
0.000623708 -0.000195156 -4.50461e-06
-0.000195156 -6.18281e-05 1.03522e-06
-4.50461e-06 1.03522e-06 -0.000217826
0.000643632 -8.96812e-05 -2.39725e-08
-8.96812e-05 0.000100418 -6.1336e-07
-2.39725e-08 -6.1336e-07 -9.99682e-05
0.000769908 -6.73422e-05 -2.19013e-07
-6.73422e-05 8.18319e-05 2.52315e-08
-2.19013e-07 2.52315e-08 -4.74578e-05
0.00213871 -0.000173198 -5.31753e-06
-0.000173198 0.000134823 -1.59428e-07
-5.31753e-06 -1.59428e-07 0.000114622
0.00183158 -0.000188822 -4.99101e-06
-0.000188822 -8.90488e-06 1.3647e-06
-4.99101e-06 1.3647e-06 -2.31679e-05
0.00226436 -0.000393686 -2.70727e-06
-0.000393686 0.000257629 -2.6773e-07
-2.70727e-06 -2.6773e-07 0.000142579
0.00279133 -0.000450668 -1.87476e-05
-0.000450668 0.00080381 2.83019e-06
-1.87476e-05 2.83019e-06 0.000599728
0.000934373 -0.000189847 -7.91706e-06
-0.000189847 0.000133435 -2.65872e-06
-7.91706e-06 -2.65872e-06 -7.49921e-05
0.000499121 2.12144e-05 9.31722e-07
2.12144e-05 -5.54448e-05 -2.25378e-06
9.31722e-07 -2.25378e-06 -0.000146048
0.000490135 4.70326e-05 6.49217e-07
4.70326e-05 -6.2986e-05 -8.06441e-07
6.49217e-07 -8.06441e-07 -0.000160453
0.000702094 8.66133e-06 8.61981e-07
8.66133e-06 7.06785e-05 -1.10266e-06
8.61981e-07 -1.10266e-06 -3.54925e-05
0.001092 -0.000114022 1.06515e-06
-0.000114022 0.000303569 1.07877e-06
1.06515e-06 1.07877e-06 0.000182252
0.000704783 -4.38586e-05 9.89551e-07
-4.38586e-05 5.11245e-05 1.3819e-06
9.89551e-07 1.3819e-06 -5.97866e-05
0.000339162 -5.43656e-05 2.67206e-06
-5.43656e-05 -7.89361e-05 3.61644e-07
2.67206e-06 3.61644e-07 -0.000271326
0.000631932 -0.000197697 5.29723e-06
-0.000197697 0.000100503 1.39385e-06
5.29723e-06 1.39385e-06 -0.000149346
0.000744375 6.13688e-05 9.88752e-07
6.13688e-05 9.56385e-05 -2.86469e-06
9.88752e-07 -2.86469e-06 -7.6059e-06
0.00046613 6.71771e-05 8.47798e-07
6.71771e-05 -5.4207e-05 -7.04813e-07
8.47798e-07 -7.04813e-07 -0.000191567
0.00194886 0.000154389 4.17764e-06
0.000154389 5.7583e-05 -4.80978e-07
4.17764e-06 -4.80978e-07 2.34078e-05
0.00174389 0.000234615 7.67134e-06
0.000234615 1.41534e-06 9.4513e-07
7.67134e-06 9.4513e-07 -8.26416e-05
0.00181359 0.000334079 6.52901e-06
0.000334079 0.000154549 2.13864e-06
6.52901e-06 2.13864e-06 -1.70188e-05
0.000420876 0.000149642 1.40123e-06
0.000149642 -0.000155626 -1.31422e-06
1.40123e-06 -1.31422e-06 -0.000363201
0.00240112 0.000367871 3.68362e-06
0.000367871 0.00071182 1.24157e-06
3.68362e-06 1.24157e-06 0.000468644
0.00119174 6.46281e-05 -2.85394e-07
6.46281e-05 0.000347982 5.73798e-07
-2.85394e-07 5.73798e-07 0.000233861
0.00202891 0.000152594 -2.15367e-06
0.000152594 0.00015319 -4.04248e-08
-2.15367e-06 -4.04248e-08 0.000146552
0.00140526 0.000201458 -1.34666e-06
0.000201458 0.000452007 -4.66417e-07
-1.34666e-06 -4.66417e-07 0.000283127
0.00165256 0.000269765 -7.60573e-07
0.000269765 0.000481853 1.45982e-06
-7.60573e-07 1.45982e-06 0.000248131
0.00191146 0.000333089 -3.52973e-07
0.000333089 0.000110897 -2.2612e-06
-3.52973e-07 -2.2612e-06 1.9333e-06
0.00152 0.000333746 -1.2397e-06
0.000333746 0.000142533 2.80141e-06
-1.2397e-06 2.80141e-06 -8.51695e-05
0.00157269 0.000248414 2.39502e-05
0.000248414 -0.000191465 9.85365e-07
2.39502e-05 9.85365e-07 -0.000461016
0.00118091 0.000115993 -3.10966e-06
0.000115993 0.000348631 -1.17683e-06
-3.10966e-06 -1.17683e-06 0.000216775
0.00233483 0.00024868 -3.33256e-05
0.00024868 0.000342596 -1.59464e-05
-3.33256e-05 -1.59464e-05 0.000344027
0.00127544 0.0002149 -5.75523e-06
0.0002149 0.000358882 -9.65627e-07
-5.75523e-06 -9.65627e-07 0.00018289
0.00109177 0.000257737 -4.34232e-06
0.000257737 9.12456e-05 -1.07518e-06
-4.34232e-06 -1.07518e-06 -0.000150064
0.000510017 0.000345315 -9.59421e-06
0.000345315 -0.000528726 -7.00607e-06
-9.59421e-06 -7.00607e-06 -0.000717481
0.00884139 0.000217937 -0.000124697
0.000217937 0.00237145 -3.88509e-05
-0.000124697 -3.88509e-05 0.00142309
0.00474125 0.00050683 0.000116607
0.00050683 0.000773361 -6.86078e-06
0.000116607 -6.86078e-06 0.000172889
0.000931664 0.000351955 1.65603e-05
0.000351955 -0.000215662 1.71752e-05
1.65603e-05 1.71752e-05 -0.000364531
-0.00463352 -0.000463983 0.000184543
-0.000463983 -0.0016473 -5.58156e-06
0.000184543 -5.58156e-06 -0.00231701
0.00524595 -0.00130811 -1.33144e-05
-0.00130811 0.000853994 2.6809e-06
-1.33144e-05 2.6809e-06 0.00242932
0.000685142 5.34718e-06 1.02471e-06
5.34718e-06 5.98295e-05 -2.06388e-07
1.02471e-06 -2.06388e-07 -2.79672e-05
0.000885081 -1.40434e-06 8.33912e-07
-1.40434e-06 0.000162552 -4.39511e-07
8.33912e-07 -4.39511e-07 7.23553e-05
0.000897652 5.16568e-05 -1.14243e-06
5.16568e-05 0.000158758 -2.18343e-06
-1.14243e-06 -2.18343e-06 6.67858e-05
0.000689571 -5.72522e-05 1.64963e-07
-5.72522e-05 4.54011e-05 -1.23893e-06
1.64963e-07 -1.23893e-06 -3.32203e-05
0.000650735 5.18508e-05 -1.09045e-06
5.18508e-05 1.85378e-05 -6.02659e-07
-1.09045e-06 -6.02659e-07 -7.05401e-05
0.000798444 -3.5406e-05 -2.273e-08
-3.5406e-05 0.000106293 -2.42152e-07
-2.273e-08 -2.42152e-07 1.42748e-05
0.00087517 -1.59428e-06 -1.49858e-06
-1.59428e-06 0.000141602 8.53409e-07
-1.49858e-06 8.53409e-07 5.38158e-05
0.000764403 -1.49577e-05 -1.07081e-06
-1.49577e-05 7.10918e-05 -3.95765e-07
-1.07081e-06 -3.95765e-07 -1.51708e-05
0.000771258 5.86511e-05 -1.02158e-06
5.86511e-05 9.06834e-05 -3.20791e-07
-1.02158e-06 -3.20791e-07 -6.18658e-06
0.00063982 -6.84252e-06 -8.85916e-08
-6.84252e-06 4.49121e-06 6.59039e-07
-8.85916e-08 6.59039e-07 -6.88282e-05
0.000728233 2.05333e-05 -3.12665e-09
2.05333e-05 6.65215e-05 -1.34396e-08
-3.12665e-09 -1.34396e-08 -3.0263e-05
0.000817084 -4.72646e-06 4.49115e-07
-4.72646e-06 9.15235e-05 6.31824e-07
4.49115e-07 6.31824e-07 7.85659e-06
0.000852574 1.75223e-05 -5.07927e-07
1.75223e-05 0.000123176 -3.46676e-07
-5.07927e-07 -3.46676e-07 3.11213e-05
0.000974256 5.541e-05 -5.66856e-07
5.541e-05 0.000191243 -7.78732e-07
-5.66856e-07 -7.78732e-07 9.86996e-05
0.000626321 2.05205e-05 8.45261e-07
2.05205e-05 -9.20922e-06 -1.44995e-06
8.45261e-07 -1.44995e-06 -9.56875e-05
0.00086023 5.43123e-05 1.32488e-06
5.43123e-05 0.000128055 3.13958e-07
1.32488e-06 3.13958e-07 3.40642e-05
0.000657393 -1.05758e-05 8.87083e-07
-1.05758e-05 1.36927e-05 -2.49644e-08
8.87083e-07 -2.49644e-08 -7.7788e-05
0.000576307 -4.80625e-05 -1.17942e-06
-4.80625e-05 -3.04403e-05 1.34097e-06
-1.17942e-06 1.34097e-06 -0.000106931
0.000826158 1.09249e-05 -5.85448e-07
1.09249e-05 0.000121605 -2.61646e-07
-5.85448e-07 -2.61646e-07 2.68339e-05
0.000839122 5.10599e-05 2.55606e-07
5.10599e-05 0.000127642 -1.6791e-06
2.55606e-07 -1.6791e-06 3.29035e-05
0.000704578 -2.80419e-06 -7.2655e-07
-2.80419e-06 6.20847e-05 -3.4957e-07
-7.2655e-07 -3.4957e-07 -2.95528e-05
0.000822824 -2.26813e-06 9.24721e-07
-2.26813e-06 0.00012529 -4.86315e-07
9.24721e-07 -4.86315e-07 3.18332e-05
0.000715932 -5.80104e-05 -1.7083e-06
-5.80104e-05 4.9586e-05 8.1728e-07
-1.7083e-06 8.1728e-07 -2.32816e-05
0.00057031 -3.24462e-07 1.10282e-07
-3.24462e-07 -3.22466e-05 6.54927e-07
1.10282e-07 6.54927e-07 -0.000109188
0.000665605 5.70134e-06 -7.64039e-07
5.70134e-06 4.12458e-06 1.80185e-06
-7.64039e-07 1.80185e-06 -4.10452e-05
0.000656539 -5.48413e-06 3.9333e-07
-5.48413e-06 6.54282e-07 -2.47198e-08
3.9333e-07 -2.47198e-08 -4.41893e-05
0.000647618 7.31182e-06 -3.80269e-07
7.31182e-06 -2.71318e-05 5.14605e-06
-3.80269e-07 5.14605e-06 -3.90951e-05
0.000653664 7.81178e-07 -1.85905e-07
7.81178e-07 -1.32273e-06 -1.71509e-06
-1.85905e-07 -1.71509e-06 -4.54104e-05
0.000631896 1.72183e-06 2.82966e-07
1.72183e-06 -3.76626e-05 -1.45741e-08
2.82966e-07 -1.45741e-08 -4.89169e-05
0.00227098 -1.22651e-06 -9.38833e-08
-1.22651e-06 0.000910712 4.99e-06
-9.38833e-08 4.99e-06 0.000928572
0.00066309 -4.07416e-06 -4.94359e-07
-4.07416e-06 -1.96736e-05 -5.17119e-06
-4.94359e-07 -5.17119e-06 -3.05648e-05
0.00156083 -8.73529e-06 -2.33637e-07
-8.73529e-06 0.000500585 5.44925e-08
-2.33637e-07 5.44925e-08 0.000514831
0.000811419 -1.39177e-05 -1.86961e-07
-1.39177e-05 6.90316e-05 -1.91741e-06
-1.86961e-07 -1.91741e-06 7.99481e-05
0.000672367 6.44768e-06 1.13883e-07
6.44768e-06 6.75368e-06 -1.90638e-06
1.13883e-07 -1.90638e-06 -2.87601e-05
0.000679701 -4.17215e-06 2.7526e-07
-4.17215e-06 9.93142e-06 2.64223e-08
2.7526e-07 2.64223e-08 -2.70504e-05
0.000649148 1.36762e-05 1.62998e-07
1.36762e-05 -2.69584e-05 -3.49939e-06
1.62998e-07 -3.49939e-06 -3.37114e-05
0.000673897 -1.31655e-05 -1.63523e-06
-1.31655e-05 6.02538e-06 2.06231e-06
-1.63523e-06 2.06231e-06 -3.28506e-05
0.000938989 2.32492e-05 -1.41284e-07
2.32492e-05 0.000143338 -7.35027e-07
-1.41284e-07 -7.35027e-07 0.000136742
0.00209907 3.3755e-05 1.2343e-05
3.3755e-05 0.00081907 -4.44117e-06
1.2343e-05 -4.44117e-06 0.000836863
0.00062904 2.79279e-05 -4.25383e-07
2.79279e-05 -3.04751e-05 3.77852e-06
-4.25383e-07 3.77852e-06 -4.20098e-05
0.00223372 4.68201e-05 -7.57786e-06
4.68201e-05 0.000903594 1.1813e-06
-7.57786e-06 1.1813e-06 0.000918702
0.00232219 6.1094e-05 -2.12981e-05
6.1094e-05 0.000961085 4.18453e-06
-2.12981e-05 4.18453e-06 0.000973271
0.00174745 0.000102336 -2.86951e-06
0.000102336 -2.54524e-05 -3.75358e-07
-2.86951e-06 -3.75358e-07 -7.39771e-05
0.00172052 9.7957e-06 -1.16207e-06
9.7957e-06 -3.73893e-06 -6.63482e-07
-1.16207e-06 -6.63482e-07 -5.61914e-05
0.00157567 5.40697e-05 8.95637e-06
5.40697e-05 -0.000125678 -5.82136e-07
8.95637e-06 -5.82136e-07 -0.000130986
0.00214906 0.0001235 2.36978e-05
0.0001235 -0.000151253 5.08675e-06
2.36978e-05 5.08675e-06 -0.000183797
0.0018444 7.87758e-06 -2.5393e-06
7.87758e-06 -2.81473e-06 -3.58935e-07
-2.5393e-06 -3.58935e-07 -1.55126e-05
0.0018134 4.1226e-05 3.95427e-06
4.1226e-05 0.000142811 1.31291e-07
3.95427e-06 1.31291e-07 0.000160508
0.0028334 -4.38029e-06 -2.03812e-05
-4.38029e-06 0.000689068 3.22261e-07
-2.03812e-05 3.22261e-07 0.000664969
0.00273351 -6.53312e-06 0.000135014
-6.53312e-06 -0.000247002 -1.54743e-05
0.000135014 -1.54743e-05 -0.000419041
0.00246517 1.13338e-05 -4.99122e-06
1.13338e-05 0.000197018 1.07236e-06
-4.99122e-06 1.07236e-06 0.000183994
0.000711572 5.84168e-05 -4.14656e-07
5.84168e-05 5.62841e-05 -1.33704e-06
-4.14656e-07 -1.33704e-06 -9.66042e-06
0.0007205 -8.87539e-06 7.18771e-07
-8.87539e-06 6.34384e-05 -9.26911e-08
7.18771e-07 -9.26911e-08 -4.67877e-06
0.000682752 -7.09067e-05 1.23723e-07
-7.09067e-05 4.68885e-05 -8.56267e-07
1.23723e-07 -8.56267e-07 -3.49841e-05
0.000719453 -2.83334e-05 -1.07622e-06
-2.83334e-05 8.04081e-05 -1.79397e-07
-1.07622e-06 -1.79397e-07 -1.0635e-05
0.00193788 -9.94339e-05 -2.72909e-06
-9.94339e-05 2.6668e-05 3.99941e-09
-2.72909e-06 3.99941e-09 -4.16898e-07
0.00179015 -0.000175048 -8.21309e-07
-0.000175048 4.36617e-06 9.22218e-07
-8.21309e-07 9.22218e-07 -3.2956e-05
0.00195107 -0.000284907 -5.71003e-06
-0.000284907 9.18991e-05 2.59653e-07
-5.71003e-06 2.59653e-07 8.26598e-06
0.0014173 -0.000242962 3.14325e-06
-0.000242962 0.000354293 4.02432e-06
3.14325e-06 4.02432e-06 0.000179629
0.000269671 -0.000232111 6.70053e-06
-0.000232111 -0.000403399 -2.98804e-06
6.70053e-06 -2.98804e-06 -0.000674057
0.00218817 -0.000386028 3.58537e-06
-0.000386028 0.0003523 -3.56137e-06
3.58537e-06 -3.56137e-06 0.000199512
0.000732917 -0.000191873 -5.61486e-06
-0.000191873 1.54095e-05 -3.63397e-07
-5.61486e-06 -3.63397e-07 -0.000156736
0.00142656 -0.000106286 -9.24105e-07
-0.000106286 0.000507276 -2.02872e-06
-9.24105e-07 -2.02872e-06 0.000328294
0.00061536 -8.43944e-05 -1.63562e-06
-8.43944e-05 -5.07214e-06 1.35516e-06
-1.63562e-06 1.35516e-06 -0.000132784
0.000736752 -2.67468e-05 -8.26171e-07
-2.67468e-05 6.8002e-05 1.76828e-06
-8.26171e-07 1.76828e-06 -3.76448e-06
0.000617265 -6.5585e-05 -9.29018e-07
-6.5585e-05 2.4324e-05 -7.21765e-09
-9.29018e-07 -7.21765e-09 -9.6645e-05
0.000791309 -1.11398e-05 -9.52295e-07
-1.11398e-05 0.000123373 5.50378e-07
-9.52295e-07 5.50378e-07 1.71458e-05
0.000722438 4.12912e-06 1.52185e-07
4.12912e-06 6.82879e-05 9.66373e-07
1.52185e-07 9.66373e-07 -3.56942e-06
0.000631131 1.59148e-05 -1.37364e-06
1.59148e-05 2.58072e-05 2.73579e-06
-1.37364e-06 2.73579e-06 -7.13753e-05
0.0020605 -0.00015451 9.62933e-07
-0.00015451 0.00011342 5.57526e-07
9.62933e-07 5.57526e-07 9.53101e-05
0.000707211 1.07589e-06 8.47774e-07
1.07589e-06 6.97365e-05 -4.80172e-07
8.47774e-07 -4.80172e-07 -2.26632e-05
0.000681459 9.36754e-06 1.08624e-06
9.36754e-06 5.19985e-05 -2.06476e-07
1.08624e-06 -2.06476e-07 -4.75338e-05
0.000616471 6.10097e-05 -1.54513e-07
6.10097e-05 2.62798e-05 1.45907e-06
-1.54513e-07 1.45907e-06 -7.74739e-05
0.00184698 -0.000191727 -1.96171e-06
-0.000191727 -1.8208e-05 -7.81564e-07
-1.96171e-06 -7.81564e-07 -3.79774e-05
0.00193152 -0.000369301 1.35422e-06
-0.000369301 8.54575e-05 -2.77944e-07
1.35422e-06 -2.77944e-07 -2.25168e-05
0.00114711 -0.000242168 -6.0682e-07
-0.000242168 0.000231212 -9.76452e-07
-6.0682e-07 -9.76452e-07 1.88676e-05
0.00239517 -0.000425277 -3.69546e-06
-0.000425277 0.000591198 1.5034e-06
-3.69546e-06 1.5034e-06 0.000387347
0.00102747 -5.17548e-05 -6.38514e-07
-5.17548e-05 0.000257304 3.32047e-07
-6.38514e-07 3.32047e-07 0.000140842
0.000663421 -6.2051e-05 -3.78288e-07
-6.2051e-05 2.93653e-05 1.00034e-06
-3.78288e-07 1.00034e-06 -8.86428e-05
0.000962341 -0.00022604 2.82741e-06
-0.00022604 0.000284547 -6.53237e-07
2.82741e-06 -6.53237e-07 3.27141e-05
0.00099497 -0.000117494 5.63311e-07
-0.000117494 0.000277827 -1.20644e-07
5.63311e-07 -1.20644e-07 8.02839e-05
0.00195562 -0.000143594 -1.58775e-05
-0.000143594 2.10345e-05 1.4618e-06
-1.58775e-05 1.4618e-06 1.96367e-05
0.0022244 -0.000308905 -1.3635e-05
-0.000308905 0.00013734 3.59097e-06
-1.3635e-05 3.59097e-06 0.000154763
0.00260749 -0.000462186 -1.09882e-05
-0.000462186 0.00055884 -4.33538e-06
-1.09882e-05 -4.33538e-06 0.000390246
0.00172745 -0.000359076 -2.59738e-06
-0.000359076 0.000468689 4.2162e-06
-2.59738e-06 4.2162e-06 0.00026337
0.000638539 1.74061e-05 -7.76074e-07
1.74061e-05 4.24316e-05 -2.70515e-06
-7.76074e-07 -2.70515e-06 -7.2938e-05
0.000652603 -6.85227e-05 1.20244e-06
-6.85227e-05 5.07958e-05 -3.17394e-06
1.20244e-06 -3.17394e-06 -7.00619e-05
0.000630648 -6.99147e-05 6.32878e-07
-6.99147e-05 6.11157e-05 1.01465e-06
6.32878e-07 1.01465e-06 -7.17052e-05
0.000567999 -6.71836e-05 1.35729e-06
-6.71836e-05 0.00014651 -1.46586e-06
1.35729e-06 -1.46586e-06 -0.000150536
0.000418578 -0.000239996 2.04259e-05
-0.000239996 -0.00227824 -5.78262e-07
2.04259e-05 -5.78262e-07 -0.00276683
0.00106724 4.78327e-05 1.02654e-06
4.78327e-05 0.00027303 -2.45689e-06
1.02654e-06 -2.45689e-06 0.000166469
0.000433979 0.000118775 2.93519e-06
0.000118775 -8.78137e-05 5.69819e-07
2.93519e-06 5.69819e-07 -0.000242907
0.00174431 0.000134643 2.81178e-05
0.000134643 5.47693e-06 3.66639e-06
2.81178e-05 3.66639e-06 5.66675e-06
0.0020613 0.000330546 9.5798e-06
0.000330546 0.000194327 3.25926e-06
9.5798e-06 3.25926e-06 8.73652e-05
0.00164773 0.000350022 5.19127e-06
0.000350022 0.000210375 4.08799e-06
5.19127e-06 4.08799e-06 -2.50923e-05
0.000817941 0.000203642 4.39155e-06
0.000203642 4.21647e-05 1.73482e-06
4.39155e-06 1.73482e-06 -0.000194842
0.00269878 0.000314829 3.62929e-05
0.000314829 0.000185931 8.93285e-06
3.62929e-05 8.93285e-06 -0.000161793
0.00107111 9.69605e-05 1.33424e-06
9.69605e-05 0.000292207 -3.90764e-07
1.33424e-06 -3.90764e-07 0.000162594
0.00235294 0.000251255 -8.86408e-06
0.000251255 0.000345953 -1.54653e-06
-8.86408e-06 -1.54653e-06 0.000355614
0.00105352 0.000196668 8.12524e-07
0.000196668 0.000246086 -2.09542e-07
8.12524e-07 -2.09542e-07 7.32687e-05
0.00122432 0.000278291 2.05938e-07
0.000278291 0.000168203 -3.80734e-07
2.05938e-07 -3.80734e-07 -7.68087e-05
0.00142351 0.000407534 -3.76233e-06
0.000407534 -7.42661e-05 -1.56417e-06
-3.76233e-06 -1.56417e-06 -0.000257109
0.00307493 -0.000158826 -7.78782e-05
-0.000158826 -0.000675443 -2.61103e-05
-7.78782e-05 -2.61103e-05 -0.00160487
0.00464351 0.000404954 -2.95976e-06
0.000404954 0.000488887 -2.1765e-05
-2.95976e-06 -2.1765e-05 -0.000208236
0.000208096 0.000263174 1.60362e-06
0.000263174 -0.000514992 7.55381e-06
1.60362e-06 7.55381e-06 -0.000686256
-0.000856771 -0.00036093 9.38391e-05
-0.00036093 0.00058368 3.43413e-05
9.38391e-05 3.43413e-05 -0.000305518
-0.000593466 -0.00128777 -4.31208e-05
-0.00128777 -0.00140551 -6.14841e-05
-4.31208e-05 -6.14841e-05 0.000346028
0.0011416 0.000144146 -3.49363e-06
0.000144146 0.000331054 -4.16227e-06
-3.49363e-06 -4.16227e-06 0.000207403
0.000378778 0.00026592 5.45828e-05
0.00026592 0.00104045 -2.88204e-05
5.45828e-05 -2.88204e-05 0.00025427
0.00132886 -0.000461724 -6.81636e-05
-0.000461724 0.00154984 -0.000102266
-6.81636e-05 -0.000102266 0.000889586
0.0028061 0.000378973 -2.46493e-05
0.000378973 0.000655171 -9.66719e-06
-2.46493e-05 -9.66719e-06 0.000667611
0.00118087 0.000139429 -1.19408e-05
0.000139429 0.000309619 -1.89473e-06
-1.19408e-05 -1.89473e-06 0.00012956
0.000739552 0.000375933 -1.70909e-05
0.000375933 -0.000136544 -1.14786e-05
-1.70909e-05 -1.14786e-05 -0.000403168
-9.74309e-05 0.000308061 2.33482e-05
0.000308061 -0.000688279 5.3845e-05
2.33482e-05 5.3845e-05 -0.000765105
0.00952613 0.000307314 -3.55386e-05
0.000307314 0.00319248 -2.38e-05
-3.55386e-05 -2.38e-05 0.00172883
0.00362569 0.000710792 3.23439e-07
0.000710792 0.000844016 1.16424e-05
3.23439e-07 1.16424e-05 -0.000366436
0.00129156 -0.00109759 0.000115473
-0.00109759 -0.000401895 9.25568e-05
0.000115473 9.25568e-05 6.49768e-05
0.00259993 -0.000659718 -1.77017e-07
-0.000659718 -0.00156569 0.000132333
-1.77017e-07 0.000132333 -0.000128227
0.000746421 -8.98394e-06 8.77569e-07
-8.98394e-06 9.25226e-05 -1.08271e-06
8.77569e-07 -1.08271e-06 2.52052e-06
0.000893964 5.15346e-05 7.31589e-07
5.15346e-05 0.000161066 9.22775e-07
7.31589e-07 9.22775e-07 6.80749e-05
0.00125787 0.000101979 -1.83575e-06
0.000101979 0.000372388 -3.2729e-06
-1.83575e-06 -3.2729e-06 0.000294767
0.000692819 3.74305e-06 2.96544e-07
3.74305e-06 4.83765e-05 -2.72562e-07
2.96544e-07 -2.72562e-07 -3.28459e-05
0.000774533 2.46749e-05 -5.45659e-08
2.46749e-05 9.12314e-05 -6.69808e-07
-5.45659e-08 -6.69808e-07 -4.27109e-06
0.000610628 -1.87222e-05 -7.91696e-07
-1.87222e-05 -9.90447e-06 -7.19026e-08
-7.91696e-07 -7.19026e-08 -9.93178e-05
0.000833787 2.15666e-05 -8.48265e-07
2.15666e-05 0.00011195 1.42736e-07
-8.48265e-07 1.42736e-07 2.18057e-05
0.000796893 -2.89359e-06 -7.4455e-07
-2.89359e-06 7.96256e-05 5.05426e-07
-7.4455e-07 5.05426e-07 -4.26023e-06
0.000562847 -1.19085e-06 4.39229e-07
-1.19085e-06 -3.57092e-05 6.69437e-07
4.39229e-07 6.69437e-07 -0.000113912
0.000864601 1.7398e-05 1.77353e-08
1.7398e-05 0.000129314 -7.03405e-08
1.77353e-08 -7.03405e-08 3.71662e-05
0.000851507 1.4654e-05 1.15643e-08
1.4654e-05 0.000124367 2.65407e-07
1.15643e-08 2.65407e-07 3.01579e-05
0.000736225 1.73065e-05 5.92422e-07
1.73065e-05 7.08154e-05 -3.55638e-07
5.92422e-07 -3.55638e-07 -2.77036e-05
0.000642728 2.34148e-05 -1.40522e-07
2.34148e-05 -3.95687e-07 9.13434e-08
-1.40522e-07 9.13434e-08 -8.6243e-05
0.00101198 2.05998e-05 1.05354e-07
2.05998e-05 0.000210694 -1.01338e-06
1.05354e-07 -1.01338e-06 0.000121436
0.000505992 4.34538e-05 -1.0422e-06
4.34538e-05 -6.81697e-05 -4.52901e-06
-1.0422e-06 -4.52901e-06 -0.000158694
0.000799742 -6.56384e-05 -2.67951e-07
-6.56384e-05 9.22634e-05 -8.00842e-08
-2.67951e-07 -8.00842e-08 -6.74103e-06
0.000826868 -5.41683e-05 -7.60751e-07
-5.41683e-05 0.000125905 -9.72813e-07
-7.60751e-07 -9.72813e-07 2.405e-05
0.000835685 -1.81759e-05 -5.21824e-07
-1.81759e-05 0.00013053 -3.20064e-07
-5.21824e-07 -3.20064e-07 3.25046e-05
0.000853184 3.04435e-05 -4.66523e-07
3.04435e-05 0.000129074 -3.07653e-07
-4.66523e-07 -3.07653e-07 3.83901e-05
0.000834861 1.52031e-05 -9.96822e-07
1.52031e-05 0.000132041 -1.70547e-06
-9.96822e-07 -1.70547e-06 2.53051e-05
0.000766188 3.88263e-05 7.49568e-07
3.88263e-05 8.89786e-05 -8.8202e-07
7.49568e-07 -8.8202e-07 -3.11744e-06
0.000573601 8.637e-06 7.30604e-07
8.637e-06 -4.19401e-05 -1.80459e-06
7.30604e-07 -1.80459e-06 -0.000123325
0.000665662 3.74925e-05 1.36373e-06
3.74925e-05 3.77735e-05 7.41214e-07
1.36373e-06 7.41214e-07 -5.4507e-05
0.000713344 -1.48309e-05 4.17088e-08
-1.48309e-05 5.23551e-05 -3.06763e-08
4.17088e-08 -3.06763e-08 -2.70801e-05
0.000739704 -1.76751e-05 -1.92203e-07
-1.76751e-05 7.758e-05 -7.48549e-10
-1.92203e-07 -7.48549e-10 -1.15186e-05
0.00071012 -2.2533e-05 -1.33149e-06
-2.2533e-05 3.9412e-05 5.69963e-07
-1.33149e-06 5.69963e-07 -2.69272e-05
0.000748338 -9.01912e-06 9.82092e-07
-9.01912e-06 6.89935e-05 -1.75953e-07
9.82092e-07 -1.75953e-07 -1.63847e-05
0.000675575 -5.28159e-05 -1.23026e-08
-5.28159e-05 2.52047e-05 9.74298e-08
-1.23026e-08 9.74298e-08 -4.78253e-05
0.000686005 7.29655e-06 -1.23171e-06
7.29655e-06 1.30001e-05 1.83593e-06
-1.23171e-06 1.83593e-06 -3.20405e-05
0.000574428 -1.00417e-06 8.27668e-07
-1.00417e-06 -2.42709e-05 -2.86841e-07
8.27668e-07 -2.86841e-07 -0.000104997
0.000669595 7.20404e-06 5.23909e-07
7.20404e-06 6.75787e-06 -2.27941e-08
5.23909e-07 -2.27941e-08 -3.86984e-05
0.00136806 1.68641e-05 -2.77753e-06
1.68641e-05 0.000390588 5.08771e-06
-2.77753e-06 5.08771e-06 0.000381994
0.000661086 1.52713e-05 2.79298e-08
1.52713e-05 3.0874e-06 -1.65627e-06
2.79298e-08 -1.65627e-06 -4.17065e-05
0.00100149 8.90747e-06 -1.54633e-06
8.90747e-06 0.000177137 7.75401e-07
-1.54633e-06 7.75401e-07 0.000167151
0.000870015 3.90444e-06 -3.53264e-06
3.90444e-06 0.000102333 4.8536e-06
-3.53264e-06 4.8536e-06 0.00011235
0.000640785 1.84375e-06 6.07948e-08
1.84375e-06 -3.24397e-05 -3.55115e-06
6.07948e-08 -3.55115e-06 -4.37635e-05
0.00227527 1.38346e-07 3.63152e-06
1.38346e-07 0.000913245 -2.85127e-09
3.63152e-06 -2.85127e-09 0.000931054
0.000887588 -3.67004e-06 -3.49723e-06
-3.67004e-06 0.00011193 -4.8684e-06
-3.49723e-06 -4.8684e-06 0.000122552
0.0007238 6.57074e-05 1.23878e-06
6.57074e-05 6.96365e-05 -5.65247e-07
1.23878e-06 -5.65247e-07 -2.5308e-06
0.0006782 1.39984e-05 -6.34457e-07
1.39984e-05 1.11886e-05 -1.97886e-06
-6.34457e-07 -1.97886e-06 -2.46392e-05
0.000668997 1.28252e-07 6.0602e-07
1.28252e-07 5.37215e-06 1.74849e-08
6.0602e-07 1.74849e-08 -3.06091e-05
0.000648331 7.44498e-06 -2.68255e-08
7.44498e-06 -2.90153e-05 -3.47589e-06
-2.68255e-08 -3.47589e-06 -3.50297e-05
0.000689624 -1.51433e-05 -1.10118e-06
-1.51433e-05 1.58284e-05 2.0473e-06
-1.10118e-06 2.0473e-06 -2.15169e-05
0.000633326 1.36308e-05 5.00697e-09
1.36308e-05 -3.65462e-05 -7.55591e-07
5.00697e-09 -7.55591e-07 -4.31325e-05
0.00207623 2.22832e-05 8.25326e-06
2.22832e-05 0.000802011 -4.6015e-06
8.25326e-06 -4.6015e-06 0.000821097
0.00125286 2.85685e-05 -8.38744e-07
2.85685e-05 0.00032493 2.1384e-06
-8.38744e-07 2.1384e-06 0.000319659
0.00151489 2.88941e-05 2.90454e-07
2.88941e-05 0.000482525 1.45962e-06
2.90454e-07 1.45962e-06 0.000496362
0.000942397 3.19051e-05 -1.60403e-05
3.19051e-05 0.0001577 7.38521e-06
-1.60403e-05 7.38521e-06 0.000165777
0.00138792 6.88449e-05 4.63014e-05
6.88449e-05 -0.000474259 1.39905e-05
4.63014e-05 1.39905e-05 -0.000526983
0.00183989 -3.3736e-07 1.28988e-06
-3.3736e-07 -6.58416e-06 8.82653e-08
1.28988e-06 8.82653e-08 -1.90778e-05
0.00183853 4.85306e-05 2.57814e-05
4.85306e-05 0.000170488 -2.76053e-06
2.57814e-05 -2.76053e-06 0.000178178
0.000865288 5.09853e-05 2.59559e-06
5.09853e-05 -0.000886831 -5.28202e-06
2.59559e-06 -5.28202e-06 -0.00109014
0.00171633 2.29943e-05 1.11357e-05
2.29943e-05 -0.000157313 1.14288e-06
1.11357e-05 1.14288e-06 -0.000157296
0.002232 -1.33359e-05 -1.29348e-06
-1.33359e-05 0.000290483 -8.38272e-07
-1.29348e-06 -8.38272e-07 0.000269096
0.0030535 -3.52573e-05 -5.47197e-05
-3.52573e-05 0.000624551 5.03575e-06
-5.47197e-05 5.03575e-06 0.000613526
0.00303983 -9.26051e-05 0.000135632
-9.26051e-05 0.000375239 -8.45417e-06
0.000135632 -8.45417e-06 0.000144615
0.00804947 -0.000269521 -5.66809e-06
-0.000269521 0.00196628 1.49835e-05
-5.66809e-06 1.49835e-05 0.00079299
0.00694576 0.00110601 0.000177589
0.00110601 0.00342504 -8.01187e-05
0.000177589 -8.01187e-05 0.00357081
0.00292298 0.0011058 7.24791e-06
0.0011058 0.00179785 1.15184e-05
7.24791e-06 1.15184e-05 0.00275741
0.000448446 -6.73911e-05 1.91394e-06
-6.73911e-05 -8.21158e-05 -1.31299e-06
1.91394e-06 -1.31299e-06 -0.000166637
0.000716274 -8.82568e-06 1.03808e-06
-8.82568e-06 6.10153e-05 -9.11733e-08
1.03808e-06 -9.11733e-08 -6.37138e-06
0.000730814 -6.91413e-05 -1.35062e-06
-6.91413e-05 7.42176e-05 1.79936e-06
-1.35062e-06 1.79936e-06 2.10313e-06
0.00066861 -2.4371e-05 -3.90184e-07
-2.4371e-05 4.13098e-05 1.57906e-07
-3.90184e-07 1.57906e-07 -4.33739e-05
0.000795171 6.78515e-05 1.30636e-08
6.78515e-05 0.000128046 2.46042e-07
1.30636e-08 2.46042e-07 2.42995e-05
0.000866247 0.000112149 1.06856e-06
0.000112149 0.000156339 9.24559e-07
1.06856e-06 9.24559e-07 5.60175e-05
0.000788524 -9.70171e-06 1.37576e-06
-9.70171e-06 0.000112729 -1.98161e-06
1.37576e-06 -1.98161e-06 2.28821e-05
0.00065602 -2.83265e-05 -6.61861e-07
-2.83265e-05 3.70045e-05 6.79706e-07
-6.61861e-07 6.79706e-07 -4.92641e-05
0.00203845 -0.000137509 6.26575e-06
-0.000137509 0.00011977 2.32524e-07
6.26575e-06 2.32524e-07 0.000105111
0.00185848 -0.000198064 3.57414e-06
-0.000198064 -3.97163e-05 -1.78019e-06
3.57414e-06 -1.78019e-06 -6.20005e-05
0.00163779 -0.000347948 8.04524e-07
-0.000347948 -7.004e-05 1.59941e-06
8.04524e-07 1.59941e-06 -0.000171217
0.0011149 -0.000263783 4.58884e-06
-0.000263783 0.000196336 2.97626e-06
4.58884e-06 2.97626e-06 -1.67539e-05
0.00221765 -0.000414824 4.68808e-06
-0.000414824 0.000496275 -4.1079e-08
4.68808e-06 -4.1079e-08 0.000290826
0.0010779 -0.000237565 -3.67123e-07
-0.000237565 0.000349354 -2.01732e-06
-3.67123e-07 -2.01732e-06 9.57316e-05
0.00159455 -0.000179938 -1.12993e-06
-0.000179938 0.000609546 -5.38597e-07
-1.12993e-06 -5.38597e-07 0.000402431
0.000773014 -9.40493e-05 -1.02344e-06
-9.40493e-05 9.36623e-05 1.20872e-06
-1.02344e-06 1.20872e-06 -3.30725e-05
0.000778816 -2.18745e-05 -3.27345e-07
-2.18745e-05 0.000111903 2.17302e-06
-3.27345e-07 2.17302e-06 1.20802e-05
0.000962167 -1.19695e-05 -1.65161e-06
-1.19695e-05 0.000211684 -2.1673e-06
-1.65161e-06 -2.1673e-06 0.000100259
0.000985732 -1.21909e-05 9.84538e-07
-1.21909e-05 0.000230748 1.14245e-06
9.84538e-07 1.14245e-06 0.00013862
0.000725019 0.000116359 2.26094e-06
0.000116359 9.17599e-05 3.45931e-06
2.26094e-06 3.45931e-06 -1.23206e-05
0.00173322 -0.00014232 -6.3822e-07
-0.00014232 -7.50023e-05 -2.85496e-07
-6.3822e-07 -2.85496e-07 -7.44371e-05
0.00073439 2.89467e-05 -9.90511e-07
2.89467e-05 9.71847e-05 2.43713e-07
-9.90511e-07 2.43713e-07 -1.68855e-05
0.000815413 -5.95873e-05 -9.03985e-07
-5.95873e-05 0.000138303 1.67656e-07
-9.03985e-07 1.67656e-07 2.27231e-05
0.00182966 -0.000302983 7.00913e-07
-0.000302983 -5.81529e-05 -1.55061e-06
7.00913e-07 -1.55061e-06 -5.54018e-05
0.0014026 -0.000377479 -2.67295e-07
-0.000377479 -6.17889e-05 2.59283e-06
-2.67295e-07 2.59283e-06 -0.000208105
0.00158978 -0.000348877 1.76585e-06
-0.000348877 0.000392342 -1.52402e-06
1.76585e-06 -1.52402e-06 0.000173789
0.000895572 -8.29195e-05 3.94807e-07
-8.29195e-05 0.000210323 -1.96397e-06
3.94807e-07 -1.96397e-06 6.42766e-05
0.000921765 -0.000100879 -3.15414e-07
-0.000100879 0.000320826 1.33332e-07
-3.15414e-07 1.33332e-07 3.92953e-05
0.00247183 -0.000201969 -1.80922e-05
-0.000201969 0.000423998 4.4615e-06
-1.80922e-05 4.4615e-06 0.000364903
0.00279991 -0.000414757 -2.41088e-05
-0.000414757 0.000534936 3.09104e-06
-2.41088e-05 3.09104e-06 0.000554692
0.000696657 -0.000361306 -7.2015e-06
-0.000361306 -0.00029035 1.05355e-06
-7.2015e-06 1.05355e-06 -0.000444355
0.000685184 -0.000226008 -3.56109e-06
-0.000226008 1.31362e-05 1.42929e-05
-3.56109e-06 1.42929e-05 -0.000214698
0.000660671 -0.000105463 1.11557e-06
-0.000105463 5.12808e-05 -8.85764e-07
1.11557e-06 -8.85764e-07 -7.06548e-05
0.000630119 -6.5075e-05 1.98803e-06
-6.5075e-05 5.08616e-05 -4.07701e-06
1.98803e-06 -4.07701e-06 -7.98605e-05
0.000908084 -3.26446e-05 3.4912e-07
-3.26446e-05 0.000292257 -3.04234e-06
3.4912e-07 -3.04234e-06 6.39595e-05
-0.00418816 -2.64482e-05 0.000194972
-2.64482e-05 -0.00236752 -6.88408e-08
0.000194972 -6.88408e-08 -0.00185686
0.00940841 -0.000112863 -1.58508e-05
-0.000112863 0.00295922 1.31386e-06
-1.58508e-05 1.31386e-06 0.00233045
0.00105181 8.16869e-05 2.92259e-06
8.16869e-05 0.000282442 -4.13073e-07
2.92259e-06 -4.13073e-07 0.000156629
0.000749394 0.000171842 4.00002e-06
0.000171842 8.4655e-05 -1.40323e-06
4.00002e-06 -1.40323e-06 -8.41286e-05
0.00213158 0.000237331 2.16129e-05
0.000237331 0.000223191 1.42921e-05
2.16129e-05 1.42921e-05 0.000243176
0.0023277 0.000467082 6.74442e-06
0.000467082 0.000378859 6.29195e-06
6.74442e-06 6.29195e-06 0.000203114
0.0014569 0.000306653 6.71389e-06
0.000306653 0.000302698 8.46312e-07
6.71389e-06 8.46312e-07 5.42358e-05
0.00795231 0.000375494 6.04813e-05
0.000375494 0.0019297 5.98479e-06
6.04813e-05 5.98479e-06 0.000864415
0.0065837 0.000598138 -0.000118776
0.000598138 0.00118762 -3.10689e-05
-0.000118776 -3.10689e-05 0.000589553
-0.000844116 0.000157976 8.16648e-07
0.000157976 -0.000991193 -1.93295e-05
8.16648e-07 -1.93295e-05 -0.00117968
0.00521223 -0.000888716 -2.64493e-05
-0.000888716 0.00262213 2.74615e-05
-2.64493e-05 2.74615e-05 0.00228442
-0.00664407 -0.00131046 -0.000265134
-0.00131046 -0.00362801 -0.000220513
-0.000265134 -0.000220513 -0.00173484
0.00095752 0.000141835 1.75326e-08
0.000141835 0.00023699 -1.6673e-06
1.75326e-08 -1.6673e-06 0.000112368
-0.00244882 -0.000367097 6.98173e-05
-0.000367097 -0.00167709 7.05913e-06
6.98173e-05 7.05913e-06 -0.00176537
-0.00151988 -0.000379651 -7.8365e-05
-0.000379651 0.000520434 -3.64786e-05
-7.8365e-05 -3.64786e-05 -0.000413069
0.00254952 0.000345187 -5.16118e-06
0.000345187 0.000489642 -1.29352e-06
-5.16118e-06 -1.29352e-06 0.000526904
0.000889784 0.00015628 -1.80669e-06
0.00015628 0.000177946 2.91409e-07
-1.80669e-06 2.91409e-07 -1.2195e-05
0.000732915 0.000330846 4.45341e-06
0.000330846 -0.000108951 1.72958e-06
4.45341e-06 1.72958e-06 -0.00036896
0.000735301 0.000256388 1.1676e-05
0.000256388 -0.00017808 1.02241e-05
1.1676e-05 1.02241e-05 -0.000175357
0.00763038 0.000222631 -2.85634e-05
0.000222631 0.00183616 -1.88335e-05
-2.85634e-05 -1.88335e-05 0.00022401
0.00636976 0.000911132 -4.30733e-05
0.000911132 0.00166743 -1.71536e-05
-4.30733e-05 -1.71536e-05 0.000848492
0.00763643 -0.00112828 6.3519e-05
-0.00112828 0.00362246 -3.1778e-05
6.3519e-05 -3.1778e-05 0.00373269
0.0022101 -0.000794722 8.27219e-05
-0.000794722 -0.00189966 0.000172967
8.27219e-05 0.000172967 -0.000407775
0.00144842 0.00012066 -1.22367e-05
0.00012066 0.000532912 -7.68518e-06
-1.22367e-05 -7.68518e-06 0.000427377
-0.00379565 5.01676e-05 -8.03479e-05
5.01676e-05 0.000165417 -3.86124e-05
-8.03479e-05 -3.86124e-05 -0.00134588
0.00234785 0.000114026 -0.000100381
0.000114026 0.000797322 -0.000143263
-0.000100381 -0.000143263 -0.000732172
0.000150974 0.0002777 -1.55731e-05
0.0002777 -0.000453197 1.13157e-06
-1.55731e-05 1.13157e-06 -0.000463667
0.00157833 0.000353229 -3.91388e-05
0.000353229 0.000619024 -1.08486e-05
-3.91388e-05 -1.08486e-05 0.000402704
0.00265756 0.000269344 -7.11647e-05
0.000269344 0.00116756 -5.27832e-06
-7.11647e-05 -5.27832e-06 0.000899439
0.00364204 0.000790882 -5.81271e-05
0.000790882 0.000507792 -1.28955e-05
-5.81271e-05 -1.28955e-05 0.000123707
-7.3765e-05 0.000341532 0.000106716
0.000341532 -0.000550388 7.91829e-05
0.000106716 7.91829e-05 -0.0028787
0.00823503 -0.00113427 7.01808e-06
-0.00113427 0.00247263 0.000137793
7.01808e-06 0.000137793 0.0023217
0.00277447 -0.000478013 -1.05855e-05
-0.000478013 -0.00209345 -2.15622e-05
-1.05855e-05 -2.15622e-05 -0.000712143
0.000952017 7.01924e-05 2.09311e-06
7.01924e-05 0.000202238 3.83883e-06
2.09311e-06 3.83883e-06 0.00010333
0.00115221 9.5856e-05 3.8561e-06
9.5856e-05 0.00030847 2.56018e-06
3.8561e-06 2.56018e-06 0.000230776
0.000483034 6.92189e-05 -9.96691e-07
6.92189e-05 -6.35206e-05 -7.62049e-06
-9.96691e-07 -7.62049e-06 -0.00012474
0.00055374 4.35177e-05 8.93506e-07
4.35177e-05 -4.18182e-05 -1.03687e-08
8.93506e-07 -1.03687e-08 -0.000119494
0.000781558 3.98121e-05 -6.83255e-07
3.98121e-05 0.000102883 -9.06603e-07
-6.83255e-07 -9.06603e-07 1.66271e-06
0.000817065 -9.69032e-06 -2.87438e-07
-9.69032e-06 0.000104703 8.09808e-07
-2.87438e-07 8.09808e-07 1.11314e-05
0.000817516 -6.50512e-06 9.66467e-07
-6.50512e-06 0.000105971 -2.82347e-07
9.66467e-07 -2.82347e-07 1.15516e-05
0.000627894 1.71337e-05 -6.45218e-07
1.71337e-05 -8.53442e-06 2.46827e-06
-6.45218e-07 2.46827e-06 -9.33069e-05
0.000827894 3.69931e-05 8.30621e-08
3.69931e-05 0.00012724 -6.73774e-07
8.30621e-08 -6.73774e-07 2.49855e-05
0.000892742 1.8968e-05 -7.82362e-08
1.8968e-05 0.000141685 2.30261e-07
-7.82362e-08 2.30261e-07 5.23314e-05
0.000832411 -3.11495e-05 -8.01194e-08
-3.11495e-05 0.000113951 4.57372e-07
-8.01194e-08 4.57372e-07 1.29564e-05
0.000343252 2.97982e-05 8.70345e-07
2.97982e-05 -0.000153729 -4.41737e-07
8.70345e-07 -4.41737e-07 -0.000241527
4.37666e-05 1.87995e-05 2.12256e-06
1.87995e-05 -0.00024701 -3.5178e-06
2.12256e-06 -3.5178e-06 -0.000330077
0.00097 -6.61053e-06 -2.02865e-06
-6.61053e-06 0.0001949 -2.43495e-06
-2.02865e-06 -2.43495e-06 9.63256e-05
0.000973025 1.61387e-07 4.46487e-08
1.61387e-07 0.000209267 -1.73556e-06
4.46487e-08 -1.73556e-06 9.49691e-05
0.000839238 -4.6691e-05 -1.76089e-08
-4.6691e-05 0.000135574 -4.24134e-07
-1.76089e-08 -4.24134e-07 3.47577e-05
0.000880699 -2.6616e-06 -7.3652e-07
-2.6616e-06 0.000139979 9.66436e-07
-7.3652e-07 9.66436e-07 5.16533e-05
0.00083546 -3.02095e-05 4.89101e-07
-3.02095e-05 0.000124291 -3.49618e-07
4.89101e-07 -3.49618e-07 2.26414e-05
0.000783823 3.41763e-05 -1.91053e-07
3.41763e-05 9.62404e-05 -7.43974e-08
-1.91053e-07 -7.43974e-08 5.199e-06
0.000681623 -1.81063e-05 -2.00024e-07
-1.81063e-05 2.06595e-05 5.11163e-07
-2.00024e-07 5.11163e-07 -6.13793e-05
0.00069367 4.18727e-05 9.75341e-07
4.18727e-05 4.78753e-05 2.68411e-07
9.75341e-07 2.68411e-07 -4.14377e-05
0.000561134 5.06093e-06 -7.17646e-08
5.06093e-06 -3.3263e-05 -3.12934e-06
-7.17646e-08 -3.12934e-06 -0.000127774
0.000638972 -6.37349e-06 1.59506e-06
-6.37349e-06 4.86657e-06 -1.29535e-06
1.59506e-06 -1.29535e-06 -7.57882e-05
0.00085218 8.95983e-06 2.88777e-06
8.95983e-06 0.000118617 -3.03218e-06
2.88777e-06 -3.03218e-06 2.53727e-05
0.000221179 -3.29577e-05 8.36009e-07
-3.29577e-05 -0.00018991 1.59843e-07
8.36009e-07 1.59843e-07 -0.00032519
0.000354465 3.23878e-05 -2.64842e-07
3.23878e-05 -0.00012333 -4.25901e-07
-2.64842e-07 -4.25901e-07 -0.00022367
0.000742541 2.97048e-05 4.26422e-07
2.97048e-05 8.05359e-05 4.09082e-07
4.26422e-07 4.09082e-07 -1.21927e-05
0.000692651 1.96152e-05 3.95637e-08
1.96152e-05 4.33801e-05 3.78034e-07
3.95637e-08 3.78034e-07 -3.68573e-05
0.000745596 -3.35283e-06 -3.89886e-08
-3.35283e-06 7.94394e-05 5.09571e-09
-3.89886e-08 5.09571e-09 -6.17937e-06
0.000673237 1.46581e-05 -6.15996e-07
1.46581e-05 2.33138e-05 5.33002e-07
-6.15996e-07 5.33002e-07 -4.44268e-05
0.000775265 -1.30938e-06 2.08853e-07
-1.30938e-06 9.60538e-05 2.7851e-07
2.08853e-07 2.7851e-07 8.03874e-06
0.000724066 -2.39105e-05 -2.30232e-07
-2.39105e-05 5.24526e-05 2.82982e-08
-2.30232e-07 2.82982e-08 -1.74228e-05
0.00065703 3.54971e-05 -7.45226e-07
3.54971e-05 -3.0364e-06 1.82207e-06
-7.45226e-07 1.82207e-06 -4.9064e-05
0.000629446 -4.45481e-05 1.02179e-06
-4.45481e-05 -4.82099e-06 -5.35942e-07
1.02179e-06 -5.35942e-07 -7.65305e-05
0.000671904 1.38725e-05 -1.94298e-07
1.38725e-05 5.21474e-06 -2.73949e-08
-1.94298e-07 -2.73949e-08 -3.99726e-05
0.00136742 2.56105e-05 -4.85168e-06
2.56105e-05 0.00039191 5.08091e-06
-4.85168e-06 5.08091e-06 0.000382845
0.000664591 -5.98865e-06 7.07277e-07
-5.98865e-06 3.54631e-06 -1.69305e-06
7.07277e-07 -1.69305e-06 -4.16479e-05
0.000996296 1.62149e-05 -2.44184e-06
1.62149e-05 0.000175493 7.46201e-07
-2.44184e-06 7.46201e-07 0.000165128
0.000818566 1.39431e-05 -4.35109e-07
1.39431e-05 7.39446e-05 1.90573e-06
-4.35109e-07 1.90573e-06 8.36288e-05
0.000625637 7.47852e-06 3.18546e-07
7.47852e-06 -4.04994e-05 -3.58696e-06
3.18546e-07 -3.58696e-06 -5.22497e-05
0.00229051 1.17827e-05 3.26724e-06
1.17827e-05 0.000922812 3.25919e-08
3.26724e-06 3.25919e-08 0.000940273
0.00228697 1.52104e-06 -3.11839e-08
1.52104e-06 0.000920045 -5.01815e-06
-3.11839e-08 -5.01815e-06 0.00093773
0.00102618 6.7741e-05 -1.3101e-06
6.7741e-05 0.000236839 -1.27168e-06
-1.3101e-06 -1.27168e-06 0.00016765
0.000689113 1.70949e-05 -8.04327e-07
1.70949e-05 1.73939e-05 -2.11024e-06
-8.04327e-07 -2.11024e-06 -1.97553e-05
0.000701935 -1.20274e-06 6.71115e-07
-1.20274e-06 5.57697e-05 7.77763e-07
6.71115e-07 7.77763e-07 -1.50627e-05
0.0006482 1.37419e-06 -1.49922e-07
1.37419e-06 -3.00163e-05 -3.55596e-06
-1.49922e-07 -3.55596e-06 -3.58242e-05
0.000675467 -2.57131e-06 2.33261e-07
-2.57131e-06 9.3306e-06 -3.17936e-08
2.33261e-07 -3.17936e-08 -2.63304e-05
0.000676805 -1.41469e-05 -9.31207e-07
-1.41469e-05 9.67773e-06 1.90557e-06
-9.31207e-07 1.90557e-06 -2.63311e-05
0.000643628 7.48988e-06 -1.61732e-07
7.48988e-06 -3.18249e-05 -1.67423e-08
-1.61732e-07 -1.67423e-08 -3.78127e-05
0.00207351 1.09552e-05 3.88389e-06
1.09552e-05 0.000798027 -4.72829e-06
3.88389e-06 -4.72829e-06 0.000817797
0.00124073 1.91592e-05 -6.18474e-07
1.91592e-05 0.000314553 2.12861e-06
-6.18474e-07 2.12861e-06 0.000311154
0.00145636 1.93091e-05 1.74564e-06
1.93091e-05 0.000443652 7.18658e-08
1.74564e-06 7.18658e-08 0.000459292
0.000895079 2.28744e-05 -1.42729e-05
2.28744e-05 0.000123859 7.24733e-06
-1.42729e-05 7.24733e-06 0.000134887
-0.00694384 0.000192976 0.000136113
0.000192976 -0.00325198 -1.27089e-06
0.000136113 -1.27089e-06 -0.00372925
-0.00205449 0.00015523 0.000128635
0.00015523 0.000545363 1.67328e-05
0.000128635 1.67328e-05 -0.000276818
0.00386627 0.000126797 -0.00017625
0.000126797 0.000559233 8.30681e-07
-0.00017625 8.30681e-07 0.00038349
0.000898956 2.89491e-05 3.37914e-05
2.89491e-05 -0.000536526 1.17986e-08
3.37914e-05 1.17986e-08 -0.000550473
0.00147232 -2.03866e-05 1.59827e-05
-2.03866e-05 -0.000200077 2.42993e-07
1.59827e-05 2.42993e-07 -0.000219638
0.000888683 3.30633e-05 1.37276e-05
3.30633e-05 -0.000602023 -3.12403e-06
1.37276e-05 -3.12403e-06 -0.000687812
0.0023544 -6.31651e-05 2.57433e-06
-6.31651e-05 0.00022767 2.42013e-06
2.57433e-06 2.42013e-06 0.000191456
0.00777818 0.000139483 1.94245e-05
0.000139483 0.00174894 -2.47288e-05
1.94245e-05 -2.47288e-05 0.000806133
-0.00361747 0.000571949 -3.1455e-05
0.000571949 -0.00123222 -4.23452e-06
-3.1455e-05 -4.23452e-06 -0.00183135
-0.00188282 0.00117489 -5.76149e-05
0.00117489 -0.000930036 2.35006e-05
-5.76149e-05 2.35006e-05 0.000568173
0.00119915 -0.00014506 4.416e-05
-0.00014506 -0.000569713 1.1793e-05
4.416e-05 1.1793e-05 -0.00085434
0.00928436 1.32089e-05 4.95722e-05
1.32089e-05 0.00285952 -2.50589e-05
4.95722e-05 -2.50589e-05 0.00149962
0.000863172 0.00107468 8.48691e-05
0.00107468 -0.000450726 -0.000144306
8.48691e-05 -0.000144306 0.000191621
0.00461784 0.000853606 -9.99598e-05
0.000853606 3.79896e-05 7.72014e-05
-9.99598e-05 7.72014e-05 0.000808053
0.00074001 6.65581e-05 -1.14744e-06
6.65581e-05 9.83876e-05 -5.67388e-07
-1.14744e-06 -5.67388e-07 -1.3932e-05
0.000603695 1.12906e-05 -2.50239e-07
1.12906e-05 2.77219e-06 -6.51928e-07
-2.50239e-07 -6.51928e-07 -7.93452e-05
0.000717511 -7.41148e-05 -1.02974e-06
-7.41148e-05 6.58968e-05 1.41513e-06
-1.02974e-06 1.41513e-06 -4.65156e-06
0.000610922 1.98466e-06 1.58969e-07
1.98466e-06 1.25229e-05 1.15175e-06
1.58969e-07 1.15175e-06 -7.60329e-05
0.000759837 6.71815e-05 9.52167e-07
6.71815e-05 0.000110158 1.40892e-06
9.52167e-07 1.40892e-06 6.42015e-06
0.000885151 6.84049e-05 -2.78562e-07
6.84049e-05 0.000173109 -2.03547e-07
-2.78562e-07 -2.03547e-07 6.32005e-05
0.000810045 8.01347e-05 1.62292e-06
8.01347e-05 0.000129019 1.56509e-06
1.62292e-06 1.56509e-06 2.61637e-05
0.000714567 7.07047e-07 1.25542e-06
7.07047e-07 6.39351e-05 -7.11629e-07
1.25542e-06 -7.11629e-07 -3.06168e-05
0.000693296 -1.66589e-05 4.78014e-07
-1.66589e-05 6.12266e-05 -9.05571e-07
4.78014e-07 -9.05571e-07 -3.20286e-05
0.000590403 -9.83187e-06 -3.07894e-07
-9.83187e-06 -7.15083e-06 1.27353e-06
-3.07894e-07 1.27353e-06 -8.93145e-05
0.00141656 -0.000135223 1.36845e-05
-0.000135223 -0.000222582 -1.60472e-06
1.36845e-05 -1.60472e-06 -0.000218593
0.00178913 -0.00030779 1.40488e-05
-0.00030779 -5.52797e-05 -2.70722e-06
1.40488e-05 -2.70722e-06 -7.50537e-05
0.000116281 -0.000286408 1.15262e-05
-0.000286408 -0.000724562 2.69335e-06
1.15262e-05 2.69335e-06 -0.000846885
0.00134788 -0.000333236 2.69545e-06
-0.000333236 0.00026631 -1.25448e-06
2.69545e-06 -1.25448e-06 3.85549e-05
0.00147262 -0.000140863 -3.20297e-08
-0.000140863 0.000599829 2.38768e-06
-3.20297e-08 2.38768e-06 0.000339243
0.00108611 -0.000112449 -8.39097e-07
-0.000112449 0.000320985 9.80482e-07
-8.39097e-07 9.80482e-07 0.000160757
0.000920942 -5.08078e-05 -1.03997e-06
-5.08078e-05 0.000190351 9.18019e-07
-1.03997e-06 9.18019e-07 8.2493e-05
0.000728718 3.70846e-05 -1.25571e-06
3.70846e-05 9.413e-05 2.26259e-06
-1.25571e-06 2.26259e-06 -1.71494e-05
0.00160798 -0.000169409 -1.89695e-06
-0.000169409 -1.86249e-05 -4.68477e-07
-1.89695e-06 -4.68477e-07 -5.24054e-05
0.000638511 -4.25947e-05 -1.93815e-07
-4.25947e-05 4.12541e-05 9.64984e-10
-1.93815e-07 9.64984e-10 -8.22012e-05
0.000608078 -5.8055e-05 7.51173e-07
-5.8055e-05 4.08774e-05 -1.10877e-06
7.51173e-07 -1.10877e-06 -9.28925e-05
0.00195322 -0.000369736 5.02669e-06
-0.000369736 0.000108603 -1.06107e-06
5.02669e-06 -1.06107e-06 0.00012
0.000653511 -0.000353688 1.43927e-06
-0.000353688 -0.00029238 2.33114e-06
1.43927e-06 2.33114e-06 -0.000436665
0.000971501 -0.000259095 5.92478e-06
-0.000259095 0.000162897 -2.3916e-06
5.92478e-06 -2.3916e-06 -7.51076e-05
0.00124374 -7.97712e-05 -4.3022e-07
-7.97712e-05 0.000461914 -2.11116e-06
-4.3022e-07 -2.11116e-06 0.000241156
0.000367917 -0.00021374 -1.00401e-05
-0.00021374 -0.000370831 -1.1709e-06
-1.00401e-05 -1.1709e-06 -0.000601473
0.00147858 -0.000309853 -2.45091e-05
-0.000309853 0.000184812 7.93507e-06
-2.45091e-05 7.93507e-06 0.000138355
7.41016e-05 -0.000122129 -1.68651e-05
-0.000122129 -0.000175768 3.11603e-05
-1.68651e-05 3.11603e-05 -0.00041926
0.000574433 3.20068e-05 4.93827e-07
3.20068e-05 2.74446e-06 1.17781e-06
4.93827e-07 1.17781e-06 -0.000117678
0.000580103 -9.67903e-05 2.16014e-06
-9.67903e-05 1.97513e-05 -1.21008e-06
2.16014e-06 -1.21008e-06 -0.000114384
0.000772339 -5.57537e-05 1.65591e-06
-5.57537e-05 0.000155407 -5.32465e-06
1.65591e-06 -5.32465e-06 -1.08707e-05
0.000863927 8.97498e-05 -0.000116827
8.97498e-05 0.00253002 1.2746e-06
-0.000116827 1.2746e-06 0.00160391
0.00211122 -0.000213554 1.73377e-05
-0.000213554 0.00143672 1.32678e-05
1.73377e-05 1.32678e-05 0.00130951
7.40677e-05 0.000442407 -5.49345e-05
0.000442407 -0.00257815 2.13904e-05
-5.49345e-05 2.13904e-05 -0.00315693
0.000815964 0.000130675 4.73094e-06
0.000130675 0.000165775 2.02637e-06
4.73094e-06 2.02637e-06 4.35578e-05
0.000545145 0.000168118 6.58043e-06
0.000168118 1.344e-05 4.46083e-06
6.58043e-06 4.46083e-06 -0.000184599
0.00230921 0.000309298 1.43645e-05
0.000309298 0.000345011 9.1689e-06
1.43645e-05 9.1689e-06 0.000394017
0.00105923 0.000299919 1.27267e-05
0.000299919 8.33793e-05 9.0907e-06
1.27267e-05 9.0907e-06 -0.000174652
0.00543571 -0.000471717 4.47989e-05
-0.000471717 0.0021961 2.70638e-05
4.47989e-05 2.70638e-05 0.00231953
0.000163827 -7.17098e-05 -8.45429e-05
-7.17098e-05 -0.00177332 -5.865e-06
-8.45429e-05 -5.865e-06 -0.00323264
0.0032962 0.000816808 -9.2936e-05
0.000816808 -0.000151345 -2.8948e-05
-9.2936e-05 -2.8948e-05 -0.000978516
0.000508391 0.00016109 2.44005e-05
0.00016109 -0.000193767 -1.73786e-05
2.44005e-05 -1.73786e-05 -0.00016698
-0.00414567 -0.000534145 -3.87938e-05
-0.000534145 -0.001507 -5.92468e-05
-3.87938e-05 -5.92468e-05 -0.00167913
3.01195e-05 -0.000507306 -1.77295e-05
-0.000507306 0.000677398 1.60028e-05
-1.77295e-05 1.60028e-05 -0.000279881
0.00658945 -0.00105628 0.000122109
-0.00105628 0.000396419 0.000103239
0.000122109 0.000103239 0.00195867
0.000727459 9.43303e-05 4.44683e-06
9.43303e-05 0.000145127 -2.51267e-06
4.44683e-06 -2.51267e-06 3.30932e-05
-0.000967702 -5.84563e-05 -5.35546e-05
-5.84563e-05 0.00117651 -1.69542e-05
-5.35546e-05 -1.69542e-05 -3.68734e-05
0.00263347 0.000133477 -6.9814e-06
0.000133477 0.000950073 -3.81273e-05
-6.9814e-06 -3.81273e-05 -0.000635503
0.000893958 0.00026894 -8.44783e-06
0.00026894 -1.5725e-05 3.58833e-06
-8.44783e-06 3.58833e-06 -7.59175e-05
0.000641225 0.000202309 6.23697e-07
0.000202309 0.000141915 1.6765e-06
6.23697e-07 1.6765e-06 -7.63244e-05
0.000142457 0.000199688 3.60942e-05
0.000199688 -0.00019425 -2.69071e-05
3.60942e-05 -2.69071e-05 -0.00038803
0.00524262 0.00101403 -1.00802e-05
0.00101403 0.00151053 1.2262e-06
-1.00802e-05 1.2262e-06 0.000744305
0.00971977 0.00019193 4.28483e-05
0.00019193 0.00356796 1.56179e-05
4.28483e-05 1.56179e-05 0.00183572
0.00194199 -0.000708363 9.48054e-06
-0.000708363 -0.00111202 -1.8759e-05
9.48054e-06 -1.8759e-05 -0.00104024
0.00728703 -0.000672044 7.00955e-06
-0.000672044 0.0008369 -2.0103e-05
7.00955e-06 -2.0103e-05 0.00214332
0.00062536 0.00013355 -1.13492e-05
0.00013355 0.000124043 -7.60894e-06
-1.13492e-05 -7.60894e-06 3.09121e-05
0.00209786 -9.17208e-06 -7.96592e-05
-9.17208e-06 0.000574158 -3.74168e-05
-7.96592e-05 -3.74168e-05 -0.000496763
0.000767756 6.40809e-05 -1.00569e-05
6.40809e-05 0.000295857 -7.30984e-05
-1.00569e-05 -7.30984e-05 -0.000872211
-0.000972485 2.7198e-05 -2.09552e-05
2.7198e-05 -0.000498445 -1.61717e-05
-2.09552e-05 -1.61717e-05 -0.000640355
0.00236754 0.00036463 -6.9545e-06
0.00036463 0.00068671 5.06641e-05
-6.9545e-06 5.06641e-05 7.76887e-05
0.00948163 0.000454178 3.41927e-05
0.000454178 0.00391129 -5.91511e-07
3.41927e-05 -5.91511e-07 0.00149315
-0.00690174 -0.000974626 -3.89784e-05
-0.000974626 -0.00415871 6.2216e-05
-3.89784e-05 6.2216e-05 -0.00553254
0.00543625 0.000238893 1.67616e-06
0.000238893 -0.000763391 -0.000104473
1.67616e-06 -0.000104473 0.000706559
0.00101865 8.33523e-05 1.83502e-06
8.33523e-05 0.000226254 6.98869e-06
1.83502e-06 6.98869e-06 0.000150963
0.000932676 0.000100747 -4.57062e-06
0.000100747 0.000197785 -9.94547e-07
-4.57062e-06 -9.94547e-07 0.00013345
0.00179742 0.000100659 -7.87537e-06
0.000100659 0.000765442 -4.17074e-06
-7.87537e-06 -4.17074e-06 0.000703442
0.00083613 7.45625e-05 -1.77204e-06
7.45625e-05 0.000123504 -4.86402e-07
-1.77204e-06 -4.86402e-07 2.67509e-05
0.00088364 -3.52696e-05 -3.15669e-07
-3.52696e-05 0.000151654 9.38212e-07
-3.15669e-07 9.38212e-07 4.49623e-05
0.000769633 2.53111e-05 2.4812e-07
2.53111e-05 7.10722e-05 9.76044e-07
2.4812e-07 9.76044e-07 -1.91085e-05
0.000287508 2.04657e-05 9.08661e-09
2.04657e-05 -0.000179132 2.43945e-06
9.08661e-09 2.43945e-06 -0.000265069
0.000880316 -2.46603e-07 7.64516e-07
-2.46603e-07 0.000143304 9.17522e-08
7.64516e-07 9.17522e-08 3.89287e-05
0.000890442 8.08596e-06 -5.89247e-08
8.08596e-06 0.000152775 -4.11916e-07
-5.89247e-08 -4.11916e-07 5.33681e-05
0.000374268 6.62605e-06 6.85011e-08
6.62605e-06 -5.80951e-05 9.14376e-07
6.85011e-08 9.14376e-07 -0.000143888
7.91407e-05 1.70835e-05 -3.48826e-06
1.70835e-05 -0.000101807 -4.56135e-06
-3.48826e-06 -4.56135e-06 -0.000175996
0.000953816 -2.17303e-05 1.43686e-06
-2.17303e-05 0.000260878 -5.61137e-06
1.43686e-06 -5.61137e-06 0.000169045
0.000994099 3.7802e-05 -3.17868e-07
3.7802e-05 0.000215899 -3.56251e-06
-3.17868e-07 -3.56251e-06 0.000110567
0.000863636 -7.42064e-05 9.42146e-07
-7.42064e-05 0.000130859 9.61977e-07
9.42146e-07 9.61977e-07 3.47222e-05
0.000771605 3.70524e-05 -7.18186e-07
3.70524e-05 8.70491e-05 2.88351e-07
-7.18186e-07 2.88351e-07 -2.93412e-06
0.000785336 -2.49565e-05 -1.76096e-06
-2.49565e-05 8.04856e-05 2.12601e-06
-1.76096e-06 2.12601e-06 -1.53837e-06
0.00064344 -5.35208e-06 6.86931e-07
-5.35208e-06 6.69568e-06 6.61644e-07
6.86931e-07 6.61644e-07 -8.30737e-05
0.000746303 3.85839e-05 2.94457e-07
3.85839e-05 7.90487e-05 2.60318e-07
2.94457e-07 2.60318e-07 -1.14738e-05
0.000770051 1.10491e-05 -5.95308e-07
1.10491e-05 7.77666e-05 1.7812e-07
-5.95308e-07 1.7812e-07 -3.19692e-06
0.000927855 2.14773e-05 1.02775e-06
2.14773e-05 0.000165935 -1.63214e-06
1.02775e-06 -1.63214e-06 8.05955e-05
0.000472013 -1.13174e-05 2.92374e-06
-1.13174e-05 -6.92176e-05 -3.85921e-06
2.92374e-06 -3.85921e-06 -0.000139839
0.00056614 -7.98817e-05 1.42146e-06
-7.98817e-05 -7.09632e-05 -7.37085e-07
1.42146e-06 -7.37085e-07 -0.00016333
0.000923072 -1.26786e-05 -1.48786e-06
-1.26786e-05 0.000163737 -2.80712e-07
-1.48786e-06 -2.80712e-07 6.74097e-05
0.000461503 -5.60309e-05 2.71014e-06
-5.60309e-05 -6.11623e-05 1.37529e-06
2.71014e-06 1.37529e-06 -0.000187292
0.00103846 -0.000183255 5.3333e-08
-0.000183255 0.000235818 4.43841e-06
5.3333e-08 4.43841e-06 5.11184e-05
0.00120771 -6.88114e-05 1.40487e-06
-6.88114e-05 0.000358953 -1.42389e-06
1.40487e-06 -1.42389e-06 0.000242924
0.000422954 -5.39175e-05 -1.22382e-06
-5.39175e-05 -6.30605e-05 -3.0517e-06
-1.22382e-06 -3.0517e-06 -0.000196811
0.000667425 2.39664e-05 -4.79296e-07
2.39664e-05 4.76682e-05 -5.8965e-07
-4.79296e-07 -5.8965e-07 -5.05242e-05
0.000436515 2.11545e-05 6.67348e-07
2.11545e-05 -9.31953e-05 5.19195e-07
6.67348e-07 5.19195e-07 -0.000180703
0.000830718 1.79776e-05 -2.52554e-07
1.79776e-05 0.000129815 3.37832e-07
-2.52554e-07 3.37832e-07 3.64567e-05
0.000765006 -9.15459e-06 -5.69834e-07
-9.15459e-06 9.02853e-05 4.43454e-07
-5.69834e-07 4.43454e-07 4.74293e-06
0.000683665 9.49659e-06 -7.76407e-07
9.49659e-06 2.76405e-05 6.25037e-07
-7.76407e-07 6.25037e-07 -3.87548e-05
0.000811993 -3.01999e-05 4.1258e-07
-3.01999e-05 0.00012582 -2.08534e-08
4.1258e-07 -2.08534e-08 3.32579e-05
0.000724099 -2.68307e-05 -4.23424e-07
-2.68307e-05 5.35742e-05 4.5771e-08
-4.23424e-07 4.5771e-08 -1.57876e-05
0.000666087 3.43502e-05 -1.3804e-06
3.43502e-05 2.49452e-06 1.7144e-06
-1.3804e-06 1.7144e-06 -4.35601e-05
0.000760103 -5.49072e-05 1.3262e-06
-5.49072e-05 7.55178e-05 -5.95312e-07
1.3262e-06 -5.95312e-07 3.57198e-06
0.000691952 1.15604e-05 -2.80771e-07
1.15604e-05 1.46673e-05 7.26415e-10
-2.80771e-07 7.26415e-10 -3.01362e-05
0.00135895 3.46783e-05 -6.94843e-06
3.46783e-05 0.000389683 5.01034e-06
-6.94843e-06 5.01034e-06 0.000380107
0.000682915 -8.5508e-06 1.47135e-06
-8.5508e-06 1.10818e-05 -1.69767e-06
1.47135e-06 -1.69767e-06 -3.38989e-05
0.000996976 2.40559e-05 -3.3228e-06
2.40559e-05 0.000177845 6.98852e-07
-3.3228e-06 6.98852e-07 0.000167035
0.000818649 2.15928e-05 -8.73112e-07
2.15928e-05 7.81985e-05 1.88124e-06
-8.73112e-07 1.88124e-06 8.69615e-05
0.000615704 1.39403e-05 4.28298e-07
1.39403e-05 -4.48642e-05 -3.64007e-06
4.28298e-07 -3.64007e-06 -5.69663e-05
0.00155633 2.03724e-05 5.23555e-06
2.03724e-05 0.000500347 -1.44687e-06
5.23555e-06 -1.44687e-06 0.000513627
0.00229596 1.38622e-05 4.40593e-06
1.38622e-05 0.000926327 -4.94189e-06
4.40593e-06 -4.94189e-06 0.000943659
0.000774551 -6.34801e-06 7.40649e-07
-6.34801e-06 8.56577e-05 -1.33776e-06
7.40649e-07 -1.33776e-06 1.53175e-05
0.000706751 1.12883e-05 -4.53905e-07
1.12883e-05 2.60207e-05 -2.11924e-06
-4.53905e-07 -2.11924e-06 -1.25527e-05
0.000765452 -1.74301e-06 6.9527e-07
-1.74301e-06 8.62829e-05 1.53896e-07
6.9527e-07 1.53896e-07 1.72675e-05
0.000645608 -4.92247e-06 -2.04654e-07
-4.92247e-06 -3.15249e-05 -3.62787e-06
-2.04654e-07 -3.62787e-06 -3.77814e-05
0.000678224 1.03945e-05 3.5503e-08
1.03945e-05 1.08172e-05 -2.38683e-08
3.5503e-08 -2.38683e-08 -2.6007e-05
0.000691156 -6.62008e-05 -2.64709e-06
-6.62008e-05 4.48901e-05 2.0061e-06
-2.64709e-06 2.0061e-06 -2.20483e-05
0.00207594 -3.48539e-07 -6.82674e-07
-3.48539e-07 0.000798397 -4.76939e-06
-6.82674e-07 -4.76939e-06 0.000818414
0.000645731 1.41893e-06 -1.41975e-07
1.41893e-06 -3.13579e-05 -4.48239e-09
-1.41975e-07 -4.48239e-09 -3.71492e-05
0.000661183 -1.05797e-05 -7.191e-07
-1.05797e-05 9.64006e-07 1.94523e-06
-7.191e-07 1.94523e-06 -3.46165e-05
0.000639574 7.55354e-06 -1.20719e-07
7.55354e-06 -3.42515e-05 3.51594e-06
-1.20719e-07 3.51594e-06 -4.02233e-05
0.00208247 1.21332e-05 -3.22831e-06
1.21332e-05 0.000803374 -3.51156e-08
-3.22831e-06 -3.51156e-08 0.000823073
0.00208274 2.27792e-05 -1.07715e-05
2.27792e-05 0.000805945 4.48766e-06
-1.07715e-05 4.48766e-06 0.000825063
-0.00277153 -9.96519e-05 -3.92443e-05
-9.96519e-05 0.0005132 1.14042e-05
-3.92443e-05 1.14042e-05 -0.000761407
-0.00111643 0.000333996 -3.47493e-05
0.000333996 -0.000505974 9.1022e-06
-3.47493e-05 9.1022e-06 -0.000821174
0.00280124 -0.000137186 -0.000134814
-0.000137186 0.000659421 0.000113156
-0.000134814 0.000113156 -0.00075692
-0.00257118 0.000192338 0.000180356
0.000192338 0.000650681 -7.93535e-05
0.000180356 -7.93535e-05 -3.11041e-05
0.00194202 0.000157442 -8.95023e-05
0.000157442 -0.000224905 1.45132e-05
-8.95023e-05 1.45132e-05 -0.000431952
0.00207565 -0.000101736 8.30871e-05
-0.000101736 4.78625e-05 -9.66307e-06
8.30871e-05 -9.66307e-06 1.13218e-05
0.00183631 -0.000409383 -9.21004e-05
-0.000409383 -0.0011674 -4.3869e-05
-9.21004e-05 -4.3869e-05 -0.00215174
0.00777362 0.000653317 -3.06534e-05
0.000653317 0.00380686 -1.19185e-05
-3.06534e-05 -1.19185e-05 0.00355689
-0.00670637 0.00127878 -0.000266508
0.00127878 -0.00377225 0.000225954
-0.000266508 0.000225954 -0.00171836
0.00234072 -4.16489e-05 -8.40352e-06
-4.16489e-05 -0.000108185 -5.79627e-06
-8.40352e-06 -5.79627e-06 -0.000343684
0.00396845 -0.000125347 2.72918e-05
-0.000125347 0.000278852 -3.85354e-05
2.72918e-05 -3.85354e-05 -0.00163632
0.00794306 0.00124445 -3.92598e-05
0.00124445 0.00258123 -4.62443e-05
-3.92598e-05 -4.62443e-05 0.00326725
0.00195828 0.000803814 -4.17465e-05
0.000803814 -0.00153265 9.00938e-05
-4.17465e-05 9.00938e-05 -0.000681261
0.00267525 -0.00048257 -5.45004e-05
-0.00048257 -0.000170266 1.60952e-05
-5.45004e-05 1.60952e-05 -0.000605849
0.00285258 -0.000418671 0.000144982
-0.000418671 0.000622001 -0.000101314
0.000144982 -0.000101314 -0.00203253
-0.00545896 0.000487945 -4.42838e-05
0.000487945 -0.00456871 -0.000179458
-4.42838e-05 -0.000179458 -0.00435511
0.00175065 0.00049477 -3.03951e-05
0.00049477 -0.00294457 2.83445e-07
-3.03951e-05 2.83445e-07 -0.00162936
0.000812923 -1.35454e-05 8.34584e-07
-1.35454e-05 0.000140524 3.8076e-08
8.34584e-07 3.8076e-08 2.12207e-05
0.000766229 5.6756e-05 -1.72424e-06
5.6756e-05 0.000110624 -7.33191e-07
-1.72424e-06 -7.33191e-07 2.44535e-06
0.000728864 4.5429e-05 2.67991e-07
4.5429e-05 7.27033e-05 -1.15736e-07
2.67991e-07 -1.15736e-07 -7.00752e-06
0.000694327 7.01525e-05 2.57307e-06
7.01525e-05 7.39414e-05 2.51909e-06
2.57307e-06 2.51909e-06 -2.85548e-05
0.000727656 3.34236e-05 -2.21341e-07
3.34236e-05 8.26871e-05 -2.21346e-07
-2.21341e-07 -2.21346e-07 -3.79093e-05
0.000876029 6.95291e-05 2.05982e-07
6.95291e-05 0.000169512 8.8593e-07
2.05982e-07 8.8593e-07 5.99098e-05
0.000710112 1.79599e-05 -4.44995e-07
1.79599e-05 6.89376e-05 2.27051e-06
-4.44995e-07 2.27051e-06 -3.04602e-05
0.000899607 0.000101028 -2.97785e-07
0.000101028 0.000185824 -3.03912e-07
-2.97785e-07 -3.03912e-07 7.49396e-05
0.000853743 5.58265e-05 -1.50684e-07
5.58265e-05 0.000158314 5.08745e-07
-1.50684e-07 5.08745e-07 5.39578e-05
0.00062358 -7.09711e-06 -1.54419e-06
-7.09711e-06 2.38892e-05 3.17318e-07
-1.54419e-06 3.17318e-07 -7.26522e-05
0.00129722 -0.000171316 2.78005e-05
-0.000171316 -0.000172605 -1.26209e-05
2.78005e-05 -1.26209e-05 -0.000183663
0.000858538 -0.000319695 2.20288e-05
-0.000319695 -0.000448534 -3.23084e-06
2.20288e-05 -3.23084e-06 -0.000447023
0.000916297 -0.00036929 1.37864e-05
-0.00036929 -0.000135326 -1.35997e-06
1.37864e-05 -1.35997e-06 -0.000273129
0.00117762 -0.000285678 8.60954e-06
-0.000285678 0.000266614 -1.33783e-05
8.60954e-06 -1.33783e-05 1.1031e-05
0.00137813 -9.79928e-05 -6.05601e-07
-9.79928e-05 0.00052115 6.58957e-06
-6.05601e-07 6.58957e-06 0.000306317
0.000697199 -7.70205e-05 -1.20661e-06
-7.70205e-05 9.88153e-05 4.1596e-06
-1.20661e-06 4.1596e-06 -4.26607e-05
0.00063207 6.33414e-05 -2.3967e-07
6.33414e-05 4.0328e-05 -2.37256e-07
-2.3967e-07 -2.37256e-07 -8.61121e-05
0.000720598 -4.59985e-05 -3.76171e-07
-4.59985e-05 9.03364e-05 1.17588e-06
-3.76171e-07 1.17588e-06 -3.60127e-05
0.00119897 -0.000217471 -1.99143e-06
-0.000217471 4.03461e-05 -2.63197e-07
-1.99143e-06 -2.63197e-07 -0.00011453
0.000846255 -6.74641e-06 -3.87315e-08
-6.74641e-06 0.000170901 -2.48981e-08
-3.87315e-08 -2.48981e-08 3.42955e-05
0.00113754 -8.39824e-05 -1.11509e-07
-8.39824e-05 0.000369914 3.3601e-08
-1.11509e-07 3.3601e-08 0.000193314
0.00113307 -0.000291576 -2.16695e-06
-0.000291576 -2.4875e-05 -1.26262e-06
-2.16695e-06 -1.26262e-06 -5.22649e-05
0.0010176 -0.000157655 -9.82581e-06
-0.000157655 0.000304706 3.71594e-06
-9.82581e-06 3.71594e-06 7.62894e-05
-0.000680759 -0.000264019 -1.09379e-05
-0.000264019 -0.000992933 -1.48011e-05
-1.09379e-05 -1.48011e-05 -0.000980114
0.000644429 -0.000137316 -1.76507e-05
-0.000137316 0.00011466 2.22841e-05
-1.76507e-05 2.22841e-05 1.76904e-05
0.000676708 -3.80906e-05 -6.47949e-06
-3.80906e-05 0.000119114 2.52045e-05
-6.47949e-06 2.52045e-05 -3.95599e-05
0.000711195 -4.49738e-06 4.85412e-07
-4.49738e-06 7.27746e-05 9.91344e-08
4.85412e-07 9.91344e-08 -5.20808e-05
0.000662273 2.20411e-05 1.33488e-06
2.20411e-05 0.000102258 -2.41453e-06
1.33488e-06 -2.41453e-06 -6.88025e-05
0.00152957 -2.39089e-05 -2.49609e-05
-2.39089e-05 0.000497116 -2.65671e-06
-2.49609e-05 -2.65671e-06 -0.000383201
-0.00132282 3.04126e-05 -7.75109e-05
3.04126e-05 0.00156421 -3.22815e-06
-7.75109e-05 -3.22815e-06 0.000367025
-0.0080345 -0.000262061 -0.00021554
-0.000262061 -0.00410441 5.08528e-06
-0.00021554 5.08528e-06 -0.00405982
3.68931e-05 7.71842e-05 6.88014e-06
7.71842e-05 -0.000223064 -5.23297e-07
6.88014e-06 -5.23297e-07 -0.000345406
-0.00014298 7.92715e-05 5.39329e-06
7.92715e-05 -0.000260757 2.38242e-06
5.39329e-06 2.38242e-06 -0.000479141
0.0014109 0.000238972 1.40728e-05
0.000238972 0.000269185 3.23055e-06
1.40728e-05 3.23055e-06 0.000202219
-0.00271876 0.000130947 -8.61099e-06
0.000130947 0.000398232 8.86853e-06
-8.61099e-06 8.86853e-06 -0.000980502
0.00219181 0.000248398 -5.70962e-05
0.000248398 0.000387631 -4.94797e-05
-5.70962e-05 -4.94797e-05 -0.00227291
0.00365361 0.000848659 7.80934e-05
0.000848659 0.000515662 9.1813e-06
7.80934e-05 9.1813e-06 -5.30783e-05
0.000738478 0.000246002 5.99053e-06
0.000246002 6.77981e-05 -1.20669e-05
5.99053e-06 -1.20669e-05 2.52201e-05
0.0102141 -0.000919523 1.97824e-05
-0.000919523 0.00315342 -4.78139e-05
1.97824e-05 -4.78139e-05 0.00319398
0.00305043 0.000143328 8.66288e-05
0.000143328 0.0012463 6.50736e-05
8.66288e-05 6.50736e-05 -0.000393423
0.00712998 -0.000590407 2.69425e-05
-0.000590407 0.00103186 5.96006e-06
2.69425e-05 5.96006e-06 0.00240089
0.000926241 0.00015265 -5.72884e-07
0.00015265 0.000321517 -2.45885e-06
-5.72884e-07 -2.45885e-06 0.000221445
0.00225475 -5.54221e-06 5.71822e-06
-5.54221e-06 0.000796879 -8.11233e-06
5.71822e-06 -8.11233e-06 -0.000159985
0.00109884 8.58843e-05 6.86313e-06
8.58843e-05 0.000264044 1.39134e-05
6.86313e-06 1.39134e-05 -0.000953607
-1.63904e-05 0.000145348 -7.58086e-06
0.000145348 -3.55657e-05 -9.8127e-07
-7.58086e-06 -9.8127e-07 -0.000205504
0.00278583 0.000497268 -5.7201e-05
0.000497268 0.000732609 -3.54291e-05
-5.7201e-05 -3.54291e-05 0.000165546
0.00225764 0.000896058 5.17299e-05
0.000896058 0.000457246 3.75527e-05
5.17299e-05 3.75527e-05 -0.00228524
0.00440849 8.41673e-05 -5.93677e-06
8.41673e-05 -0.00195012 -7.05946e-05
-5.93677e-06 -7.05946e-05 -2.11461e-05
0.000982398 -0.000555061 -1.98122e-05
-0.000555061 -0.000222458 -1.2681e-05
-1.98122e-05 -1.2681e-05 -0.0010976
0.00119425 9.46939e-05 -3.65929e-06
9.46939e-05 0.000605683 -7.45465e-06
-3.65929e-06 -7.45465e-06 0.000506604
0.000859386 -4.47503e-05 4.37493e-09
-4.47503e-05 0.000131465 -2.92666e-05
4.37493e-09 -2.92666e-05 -0.00021978
0.00223315 -2.06641e-06 1.49097e-05
-2.06641e-06 0.000259504 -6.23905e-05
1.49097e-05 -6.23905e-05 -0.000673944
0.00192649 0.000518792 3.3878e-05
0.000518792 -0.0028596 -1.70736e-06
3.3878e-05 -1.70736e-06 -0.00162984
-0.00107643 3.97974e-05 -5.71449e-06
3.97974e-05 -0.000333644 -1.34187e-05
-5.71449e-06 -1.34187e-05 -0.00072644
0.00996214 0.000649562 0.000102362
0.000649562 0.00445882 4.34463e-05
0.000102362 4.34463e-05 0.00161908
-0.00827427 -0.000266287 5.2754e-05
-0.000266287 -0.0011132 9.26927e-05
5.2754e-05 9.26927e-05 -0.00243514
0.00159098 0.000156445 1.455e-05
0.000156445 0.000577795 7.44213e-06
1.455e-05 7.44213e-06 0.000507012
0.00141235 0.000114531 -2.89648e-06
0.000114531 0.000544559 8.92395e-07
-2.89648e-06 8.92395e-07 0.000476561
0.000608387 8.92741e-05 -1.45874e-05
8.92741e-05 0.000273525 -6.25326e-06
-1.45874e-05 -6.25326e-06 0.000196933
0.000794954 0.000114035 1.03074e-06
0.000114035 0.000103258 1.73234e-06
1.03074e-06 1.73234e-06 -5.37544e-06
0.000736695 3.57385e-05 4.40208e-07
3.57385e-05 6.16743e-05 1.52019e-06
4.40208e-07 1.52019e-06 -3.37081e-05
0.000629074 -3.66005e-06 -1.86047e-07
-3.66005e-06 8.95457e-05 8.7093e-06
-1.86047e-07 8.7093e-06 9.59953e-07
0.000752645 3.465e-05 -1.85464e-07
3.465e-05 7.37121e-05 -5.18969e-07
-1.85464e-07 -5.18969e-07 -2.50115e-05
0.000830878 -3.2288e-05 -2.58388e-07
-3.2288e-05 0.000194968 -1.20676e-06
-2.58388e-07 -1.20676e-06 9.93111e-05
0.000147298 7.53626e-06 6.34766e-06
7.53626e-06 -7.71831e-05 3.95939e-06
6.34766e-06 3.95939e-06 -0.000159131
0.00139388 -1.12155e-05 -4.74417e-06
-1.12155e-05 0.000636308 -1.02515e-05
-4.74417e-06 -1.02515e-05 0.000568075
0.000629251 -2.57419e-05 -1.28849e-06
-2.57419e-05 6.08776e-05 -6.25488e-06
-1.28849e-06 -6.25488e-06 -2.26467e-05
0.000695972 -1.29299e-05 -3.83454e-07
-1.29299e-05 2.8439e-05 3.07612e-06
-3.83454e-07 3.07612e-06 -5.56692e-05
0.000791107 3.91664e-05 -3.68799e-07
3.91664e-05 0.00010586 2.78317e-07
-3.68799e-07 2.78317e-07 1.42066e-05
0.000913875 2.21344e-05 -3.68433e-06
2.21344e-05 0.000157929 2.9302e-06
-3.68433e-06 2.9302e-06 7.65189e-05
0.000750745 -1.10302e-05 1.03072e-06
-1.10302e-05 8.32435e-05 6.62831e-08
1.03072e-06 6.62831e-08 1.18454e-05
0.000798675 2.6295e-05 1.76649e-07
2.6295e-05 9.47147e-05 1.33712e-07
1.76649e-07 1.33712e-07 8.53198e-06
0.000699523 -5.56377e-05 2.30286e-06
-5.56377e-05 6.82377e-05 8.68177e-08
2.30286e-06 8.68177e-08 -1.80535e-05
0.000592453 -5.97242e-05 -1.33694e-06
-5.97242e-05 -3.26637e-05 -8.21616e-07
-1.33694e-06 -8.21616e-07 -0.000115975
0.000425077 -0.00011697 4.99863e-06
-0.00011697 -9.95464e-05 1.84627e-07
4.99863e-06 1.84627e-07 -0.000252862
0.00103339 -3.57822e-05 -1.09603e-06
-3.57822e-05 0.000229757 6.60726e-07
-1.09603e-06 6.60726e-07 0.000130646
0.00102784 -0.000103996 -8.10872e-07
-0.000103996 0.000247793 1.79904e-06
-8.10872e-07 1.79904e-06 0.000114572
0.000261292 -0.000137809 6.38316e-07
-0.000137809 -0.000229202 2.32413e-06
6.38316e-07 2.32413e-06 -0.000407681
0.000626079 -0.00015359 -5.18637e-06
-0.00015359 -2.27025e-05 -7.46649e-07
-5.18637e-06 -7.46649e-07 -0.000205568
0.000950793 -0.000137833 -1.37225e-06
-0.000137833 0.00022972 2.3014e-06
-1.37225e-06 2.3014e-06 8.40989e-05
0.00067016 -0.000149807 6.47696e-07
-0.000149807 3.01209e-05 3.6088e-07
6.47696e-07 3.6088e-07 -0.000147017
0.000860503 -3.2977e-05 4.53724e-07
-3.2977e-05 0.000150075 5.58015e-07
4.53724e-07 5.58015e-07 5.07772e-05
0.00101132 -6.10688e-05 -1.073e-06
-6.10688e-05 0.000254531 -7.13581e-07
-1.073e-06 -7.13581e-07 0.000134905
0.000562818 -6.82444e-05 5.79838e-07
-6.82444e-05 2.75433e-05 -5.85676e-06
5.79838e-07 -5.85676e-06 -0.000103531
0.000989932 1.48233e-05 -1.32022e-06
1.48233e-05 0.00022354 -7.99257e-07
-1.32022e-06 -7.99257e-07 0.000127789
0.000585792 1.30972e-05 1.8516e-07
1.30972e-05 -7.33266e-06 -2.67863e-08
1.8516e-07 -2.67863e-08 -9.56268e-05
0.000680012 2.30969e-05 -3.062e-07
2.30969e-05 2.94125e-05 6.40611e-07
-3.062e-07 6.40611e-07 -4.06945e-05
0.000812157 -2.67195e-05 -1.03103e-07
-2.67195e-05 0.000123402 2.25018e-07
-1.03103e-07 2.25018e-07 3.24855e-05
0.000723121 -1.14909e-05 -4.4726e-07
-1.14909e-05 5.43028e-05 -1.13952e-08
-4.4726e-07 -1.13952e-08 -1.56399e-05
0.00066977 3.36301e-05 -1.15376e-06
3.36301e-05 7.91948e-06 1.71391e-06
-1.15376e-06 1.71391e-06 -3.94261e-05
0.000760618 -4.53515e-05 9.94321e-07
-4.53515e-05 7.82796e-05 -6.65812e-07
9.94321e-07 -6.65812e-07 5.70768e-06
0.000683067 2.53347e-05 -4.86739e-07
2.53347e-05 1.13402e-05 -1.7709e-08
-4.86739e-07 -1.7709e-08 -3.44907e-05
0.00133023 4.44581e-05 -7.99895e-06
4.44581e-05 0.000377891 3.41955e-06
-7.99895e-06 3.41955e-06 0.000367411
0.00069864 -1.75342e-06 1.76424e-06
-1.75342e-06 1.78401e-05 -1.72374e-06
1.76424e-06 -1.72374e-06 -2.67605e-05
0.000985681 3.22695e-05 -4.15636e-06
3.22695e-05 0.000174304 6.36855e-07
-4.15636e-06 6.36855e-07 0.000162977
0.000818154 2.89849e-05 -1.39754e-06
2.89849e-05 8.31071e-05 1.89391e-06
-1.39754e-06 1.89391e-06 9.08395e-05
0.000604452 2.06697e-05 6.51553e-07
2.06697e-05 -4.94184e-05 -3.70402e-06
6.51553e-07 -3.70402e-06 -6.18712e-05
0.00155622 3.02183e-05 7.01705e-06
3.02183e-05 0.000504324 -1.34814e-06
7.01705e-06 -1.34814e-06 0.000516646
0.0023088 2.62301e-05 8.56219e-06
2.62301e-05 0.000936468 -4.79754e-06
8.56219e-06 -4.79754e-06 0.000953062
0.00050129 3.25099e-06 -5.36833e-08
3.25099e-06 -6.25193e-05 -2.06185e-06
-5.36833e-08 -2.06185e-06 -0.000146748
0.000417625 -4.23363e-06 -3.20826e-07
-4.23363e-06 -0.000139632 -3.01205e-06
-3.20826e-07 -3.01205e-06 -0.000184092
0.000801257 5.58253e-06 6.36312e-08
5.58253e-06 0.000105458 6.21045e-08
6.36312e-08 6.21045e-08 3.20167e-05
0.000642713 -1.13831e-05 -1.43759e-07
-1.13831e-05 -3.23625e-05 -3.74331e-06
-1.43759e-07 -3.74331e-06 -4.0069e-05
0.000537356 3.69837e-06 6.37338e-07
3.69837e-06 -7.04383e-05 -4.51982e-08
6.37338e-07 -4.51982e-08 -0.00011049
0.000498657 -6.24845e-05 -2.95807e-07
-6.24845e-05 -6.37841e-05 1.54272e-06
-2.95807e-07 1.54272e-06 -0.000135584
0.00210461 -1.18221e-05 -5.15679e-06
-1.18221e-05 0.000815424 -4.77339e-06
-5.15679e-06 -4.77339e-06 0.000835042
0.000647229 -4.77703e-06 -1.50571e-07
-4.77703e-06 -3.05697e-05 -1.73525e-08
-1.50571e-07 -1.73525e-08 -3.67965e-05
0.000661091 -3.90778e-06 -6.27695e-07
-3.90778e-06 8.31821e-07 2.01534e-06
-6.27695e-07 2.01534e-06 -3.57247e-05
0.00208364 7.65901e-07 -3.31039e-06
7.65901e-07 0.000802865 3.53728e-09
-3.31039e-06 3.53728e-09 0.000822855
0.000642179 1.48665e-06 6.42765e-08
1.48665e-06 -3.33215e-05 3.51783e-06
6.42765e-08 3.51783e-06 -3.90942e-05
0.00208603 1.32889e-05 -4.06115e-06
1.32889e-05 0.000805609 4.65025e-06
-4.06115e-06 4.65025e-06 0.000825234
0.00091704 -6.0864e-05 -6.82383e-05
-6.0864e-05 -6.41516e-05 3.02586e-05
-6.82383e-05 3.02586e-05 -0.001016
0.00145084 0.000148606 -1.22882e-05
0.000148606 0.00226465 -9.16331e-06
-1.22882e-05 -9.16331e-06 0.0015098
0.00131281 -0.000255907 -0.000133264
-0.000255907 0.0014634 -8.38972e-06
-0.000133264 -8.38972e-06 0.000849842
0.000761638 5.57956e-05 -7.76354e-08
5.57956e-05 9.09794e-05 4.40074e-09
-7.76354e-08 4.40074e-09 -1.55069e-05
0.00308718 -0.000117348 -1.92944e-05
-0.000117348 0.0016421 7.37526e-05
-1.92944e-05 7.37526e-05 0.000756805
0.00293787 -0.000166526 -4.53974e-05
-0.000166526 0.00084207 3.89376e-06
-4.53974e-05 3.89376e-06 -0.000710865
0.00140787 0.000450749 0.000105106
0.000450749 0.00209158 -0.000100267
0.000105106 -0.000100267 0.00182364
0.00312196 -0.0001483 3.82442e-06
-0.0001483 3.73642e-05 -2.57335e-05
3.82442e-06 -2.57335e-05 -0.000231307
0.00972361 4.03716e-05 6.54527e-05
4.03716e-05 0.00311672 -3.46072e-05
6.54527e-05 -3.46072e-05 0.0014037
-0.0034757 0.00083018 -7.04822e-05
0.00083018 -0.0035325 8.27021e-05
-7.04822e-05 8.27021e-05 -0.00266152
0.00391104 0.000887436 1.24612e-05
0.000887436 -0.000390364 2.20429e-05
1.24612e-05 2.20429e-05 0.000426119
0.00467546 -0.000588425 -7.55976e-05
-0.000588425 0.000520967 4.83404e-07
-7.55976e-05 4.83404e-07 -0.000181344
0.00857774 -0.000234338 4.63267e-05
-0.000234338 0.00344295 -1.36498e-05
4.63267e-05 -1.36498e-05 0.00147085
0.00538434 0.000656942 3.33112e-05
0.000656942 0.00032432 -6.14094e-05
3.33112e-05 -6.14094e-05 0.000370502
0.00394151 0.00049957 -1.36954e-05
0.00049957 -0.00163465 5.14561e-06
-1.36954e-05 5.14561e-06 -0.00042904
0.00485677 -0.00101417 -4.5386e-06
-0.00101417 0.000795319 -8.23255e-06
-4.5386e-06 -8.23255e-06 -0.000242834
0.0100333 -0.000686271 5.90235e-05
-0.000686271 0.00497909 -2.89364e-05
5.90235e-05 -2.89364e-05 0.00172119
0.00188504 -9.20864e-05 4.86277e-05
-9.20864e-05 -0.00039689 -9.6023e-05
4.86277e-05 -9.6023e-05 -0.000568441
0.00548314 0.000110166 -1.55921e-05
0.000110166 -0.000719651 4.67212e-05
-1.55921e-05 4.67212e-05 0.00083919
0.000788843 -2.50139e-05 1.89749e-07
-2.50139e-05 0.000120539 -8.16288e-07
1.89749e-07 -8.16288e-07 -6.30115e-06
0.000782739 -3.76524e-05 4.14421e-07
-3.76524e-05 0.000126312 4.64259e-08
4.14421e-07 4.64259e-08 3.58484e-06
0.000899705 8.27986e-05 -9.62951e-07
8.27986e-05 0.000191059 1.45451e-07
-9.62951e-07 1.45451e-07 8.08694e-05
0.000736303 1.80145e-05 -6.88531e-07
1.80145e-05 6.49924e-05 -7.90781e-07
-6.88531e-07 -7.90781e-07 -4.09622e-05
0.000848908 7.25442e-05 -6.84761e-07
7.25442e-05 0.000152832 6.3883e-07
-6.84761e-07 6.3883e-07 3.2954e-05
0.000876048 5.45613e-05 4.84068e-07
5.45613e-05 0.000168724 1.99737e-06
4.84068e-07 1.99737e-06 6.10947e-05
0.000964322 9.55243e-05 -7.16909e-07
9.55243e-05 0.000220242 2.15994e-08
-7.16909e-07 2.15994e-08 0.000110815
0.000996148 0.000102505 9.05499e-07
0.000102505 0.000246377 2.28951e-06
9.05499e-07 2.28951e-06 0.000137839
0.0018478 -0.00021565 4.42446e-05
-0.00021565 0.000344864 -1.59605e-05
4.42446e-05 -1.59605e-05 0.000272097
0.000788445 -0.000272479 9.2536e-06
-0.000272479 -0.000235308 -1.37344e-05
9.2536e-06 -1.37344e-05 -0.00023919
0.00078373 -0.000139198 -1.20824e-06
-0.000139198 0.000137339 6.30334e-07
-1.20824e-06 6.30334e-07 2.43884e-06
0.00201083 -0.000183349 6.01317e-06
-0.000183349 0.000814467 -2.00254e-05
6.01317e-06 -2.00254e-05 0.000602756
0.00165183 -0.000110563 -2.03597e-06
-0.000110563 0.000658251 5.43239e-06
-2.03597e-06 5.43239e-06 0.000477357
0.000916834 -4.5128e-05 -1.86631e-06
-4.5128e-05 0.000203866 -4.58616e-07
-1.86631e-06 -4.58616e-07 7.19994e-05
0.000814789 1.14463e-05 8.25866e-08
1.14463e-05 0.0001404 -2.86625e-07
8.25866e-08 -2.86625e-07 9.82367e-06
0.000538689 -0.000348109 -9.69775e-06
-0.000348109 -0.000404363 1.94804e-07
-9.69775e-06 1.94804e-07 -0.000418104
0.000963284 3.0025e-05 -3.46052e-07
3.0025e-05 0.00027534 1.19877e-06
-3.46052e-07 1.19877e-06 9.79795e-05
0.000926371 -9.14048e-05 2.31341e-07
-9.14048e-05 0.000233328 1.19253e-06
2.31341e-07 1.19253e-06 6.76074e-05
0.000343428 -0.000119948 1.33188e-07
-0.000119948 -8.21948e-05 3.88102e-06
1.33188e-07 3.88102e-06 -0.000132458
0.00062725 2.16635e-05 1.00932e-06
2.16635e-05 1.13749e-05 -4.13132e-07
1.00932e-06 -4.13132e-07 -0.000101134
0.00105021 -0.00029372 3.03036e-05
-0.00029372 -7.09436e-05 -2.90408e-05
3.03036e-05 -2.90408e-05 5.96401e-05
0.000483376 -8.88495e-05 -8.97169e-06
-8.88495e-05 0.000228236 2.88665e-05
-8.97169e-06 2.88665e-05 0.000124505
0.000924469 -1.00447e-05 -1.0216e-06
-1.00447e-05 0.000254298 1.09318e-05
-1.0216e-06 1.09318e-05 9.19938e-05
0.00122732 0.000153686 1.89631e-06
0.000153686 0.000398028 -2.21086e-06
1.89631e-06 -2.21086e-06 0.000243652
0.00125061 -2.96872e-05 -1.02369e-05
-2.96872e-05 0.000437808 -3.52651e-06
-1.02369e-05 -3.52651e-06 9.44596e-05
0.00134354 -4.18827e-05 5.22417e-05
-4.18827e-05 0.000450617 -4.99378e-06
5.22417e-05 -4.99378e-06 -0.000434752
-0.00343872 -4.64765e-05 -5.95123e-05
-4.64765e-05 0.000651731 3.58127e-06
-5.95123e-05 3.58127e-06 -0.000849218
0.000973099 0.000144306 1.58885e-05
0.000144306 0.000380862 2.26443e-06
1.58885e-05 2.26443e-06 0.000276948
-0.000460146 0.00018845 1.55883e-05
0.00018845 -0.000291991 1.08317e-05
1.55883e-05 1.08317e-05 -0.000505246
0.00254681 -1.01222e-05 7.0234e-05
-1.01222e-05 0.00107318 8.53222e-06
7.0234e-05 8.53222e-06 0.000249721
0.00820172 0.000175608 0.000106237
0.000175608 0.00366814 5.61774e-05
0.000106237 5.61774e-05 0.000877568
0.00248826 0.000510681 -8.64825e-05
0.000510681 0.000804451 -8.31179e-05
-8.64825e-05 -8.31179e-05 -0.000151263
0.00307272 -0.000334548 7.16912e-06
-0.000334548 0.000508033 -9.01813e-05
7.16912e-06 -9.01813e-05 -0.000446453
0.0013906 0.000101357 2.47924e-05
0.000101357 0.000257431 0.000100017
2.47924e-05 0.000100017 -0.0010156
0.00346375 -5.67986e-06 1.99359e-06
-5.67986e-06 -0.00318854 -6.67127e-05
1.99359e-06 -6.67127e-05 -0.000809944
0.000655726 0.000113935 2.09827e-06
0.000113935 0.00031582 -1.04096e-06
2.09827e-06 -1.04096e-06 0.000201845
0.00102239 -4.21267e-05 -1.08832e-07
-4.21267e-05 0.000207849 -9.83775e-06
-1.08832e-07 -9.83775e-06 -9.19722e-05
0.00240445 1.2491e-05 2.58066e-05
1.2491e-05 0.00055725 6.32658e-06
2.58066e-05 6.32658e-06 -0.000250931
-0.000927124 9.12896e-05 -1.42179e-05
9.12896e-05 -0.000388135 -5.37644e-06
-1.42179e-05 -5.37644e-06 -0.000706301
0.00419136 0.000573734 1.17662e-05
0.000573734 -0.0016066 -5.47845e-06
1.17662e-05 -5.47845e-06 -0.000413254
0.00553596 0.000759106 7.27177e-05
0.000759106 0.00253953 3.08039e-05
7.27177e-05 3.08039e-05 -0.000394018
0.00316463 0.000179495 -4.4813e-05
0.000179495 0.00196946 4.69433e-06
-4.4813e-05 4.69433e-06 0.00122947
-6.49398e-05 0.000130554 -2.66506e-05
0.000130554 -4.30231e-06 -1.23441e-05
-2.66506e-05 -1.23441e-05 -0.000185704
0.00163935 2.03259e-05 6.24804e-07
2.03259e-05 0.000154236 -2.74055e-05
6.24804e-07 -2.74055e-05 -4.19359e-05
0.00316442 -8.92038e-05 2.33959e-05
-8.92038e-05 0.00158493 -7.29659e-05
2.33959e-05 -7.29659e-05 0.000745992
0.00496709 0.00091047 0.000100329
0.00091047 -0.000117027 -7.6592e-05
0.000100329 -7.6592e-05 0.000806918
0.00452365 3.55848e-06 -6.07267e-05
3.55848e-06 0.000470161 8.69438e-05
-6.07267e-05 8.69438e-05 0.000542233
0.0015741 0.00021873 -7.53747e-06
0.00021873 0.000159287 -3.58624e-05
-7.53747e-06 -3.58624e-05 0.000190091
-6.63777e-05 0.000492251 9.46333e-05
0.000492251 0.00177168 3.6027e-05
9.46333e-05 3.6027e-05 -0.00258862
0.000500064 0.000102827 2.83335e-06
0.000102827 2.69489e-05 6.01915e-06
2.83335e-06 6.01915e-06 -4.3594e-05
0.000609084 7.9648e-05 9.12361e-06
7.9648e-05 0.000266531 1.47982e-06
9.12361e-06 1.47982e-06 0.00018634
0.00169497 1.8736e-05 -1.70258e-05
1.8736e-05 0.00100204 -1.82823e-05
-1.70258e-05 -1.82823e-05 0.000918728
0.000557257 -8.20699e-06 7.38968e-07
-8.20699e-06 -4.6778e-05 3.4615e-06
7.38968e-07 3.4615e-06 -0.000136634
0.000792014 -3.50936e-05 1.34173e-06
-3.50936e-05 0.000171443 4.10213e-06
1.34173e-06 4.10213e-06 7.74119e-05
-0.000197483 1.70308e-06 -2.84785e-06
1.70308e-06 -0.000289565 9.03736e-06
-2.84785e-06 9.03736e-06 -0.000377529
0.000742054 -4.03488e-05 2.90633e-07
-4.03488e-05 0.000118945 -3.2393e-07
2.90633e-07 -3.2393e-07 3.80256e-05
0.000232621 -1.41828e-06 -3.94328e-06
-1.41828e-06 -2.21661e-05 2.45493e-06
-3.94328e-06 2.45493e-06 -9.09783e-05
0.00101857 -0.000157142 6.25332e-06
-0.000157142 0.000461723 -6.44499e-06
6.25332e-06 -6.44499e-06 0.000304106
0.00107074 -1.98848e-05 -1.93454e-06
-1.98848e-05 0.000259631 4.01385e-06
-1.93454e-06 4.01385e-06 0.000186687
0.000619703 4.03422e-05 -1.23412e-06
4.03422e-05 -3.53455e-06 1.7035e-06
-1.23412e-06 1.7035e-06 -9.03522e-05
0.00124754 -9.2005e-05 1.04428e-06
-9.2005e-05 0.000366923 1.36893e-06
1.04428e-06 1.36893e-06 0.000272647
8.10826e-05 -9.87771e-05 4.23047e-06
-9.87771e-05 -0.000182413 1.65567e-06
4.23047e-06 1.65567e-06 -0.000381688
0.000499957 -3.48724e-05 -4.43783e-06
-3.48724e-05 -6.02488e-05 1.24304e-06
-4.43783e-06 1.24304e-06 -0.000134491
0.000215305 -0.000104166 1.58123e-06
-0.000104166 -0.000216123 -8.67694e-07
1.58123e-06 -8.67694e-07 -0.000357852
0.0010467 -0.000210138 6.59644e-06
-0.000210138 0.000215634 -1.83521e-06
6.59644e-06 -1.83521e-06 3.20245e-06
0.00121132 -0.000237928 -1.17434e-06
-0.000237928 0.000179291 4.97099e-06
-1.17434e-06 4.97099e-06 -3.90399e-05
0.00158934 -0.000152565 -2.24697e-06
-0.000152565 0.000554636 -3.01969e-08
-2.24697e-06 -3.01969e-08 0.000414003
0.000612899 -0.000167064 -2.3651e-07
-0.000167064 -3.90777e-05 -1.4532e-07
-2.3651e-07 -1.4532e-07 -0.000225834
0.00180329 -0.000258384 1.9406e-06
-0.000258384 0.000607144 -1.80918e-06
1.9406e-06 -1.80918e-06 0.00042552
0.000222272 -9.60963e-05 -2.10349e-06
-9.60963e-05 -0.000190066 -6.11535e-07
-2.10349e-06 -6.11535e-07 -0.000352621
0.000888358 -0.000173188 -3.15586e-07
-0.000173188 0.000127023 1.01278e-06
-3.15586e-07 1.01278e-06 -5.3926e-05
0.00073887 -2.92039e-05 8.79127e-08
-2.92039e-05 9.25981e-05 4.08158e-07
8.79127e-08 4.08158e-07 -2.03464e-05
0.00103317 -0.00014775 -2.94498e-06
-0.00014775 0.000275913 2.13872e-06
-2.94498e-06 2.13872e-06 0.00012811
0.000362544 -0.00012164 -1.75406e-06
-0.00012164 -0.000139698 -1.01208e-06
-1.75406e-06 -1.01208e-06 -0.000310724
0.000673804 3.77668e-05 3.02401e-07
3.77668e-05 3.43844e-05 9.02669e-07
3.02401e-07 9.02669e-07 -4.57469e-05
0.000714643 -1.82138e-05 7.91558e-07
-1.82138e-05 7.21664e-05 -9.76565e-08
7.91558e-07 -9.76565e-08 -2.91858e-05
0.000849756 -5.66083e-05 2.07031e-06
-5.66083e-05 0.00017066 -2.72573e-06
2.07031e-06 -2.72573e-06 4.66614e-05
0.000744939 2.42703e-06 2.43024e-07
2.42703e-06 8.39432e-05 -4.85615e-07
2.43024e-07 -4.85615e-07 -5.0337e-06
0.000731871 2.55363e-06 -5.37346e-07
2.55363e-06 6.2016e-05 -1.22993e-07
-5.37346e-07 -1.22993e-07 -1.12189e-05
0.000664607 3.69216e-05 -1.43929e-06
3.69216e-05 9.2119e-06 1.71625e-06
-1.43929e-06 1.71625e-06 -4.0143e-05
0.000768138 -2.98036e-05 7.84361e-07
-2.98036e-05 8.33357e-05 -7.11512e-07
7.84361e-07 -7.11512e-07 1.0376e-05
0.000681653 2.93703e-05 -2.96845e-07
2.93703e-05 1.34764e-05 -2.6294e-08
-2.96845e-07 -2.6294e-08 -3.33575e-05
0.000616416 4.24177e-05 -1.0624e-06
4.24177e-05 -2.80145e-05 3.77594e-06
-1.0624e-06 3.77594e-06 -4.37531e-05
0.000710439 8.43961e-06 1.76687e-06
8.43961e-06 2.4839e-05 -1.71908e-06
1.76687e-06 -1.71908e-06 -1.99303e-05
0.00062077 3.54623e-05 1.27059e-07
3.54623e-05 -3.21073e-05 2.85051e-08
1.27059e-07 2.85051e-08 -4.61437e-05
0.00218522 6.30853e-05 -4.49933e-06
6.30853e-05 0.000879658 1.76459e-06
-4.49933e-06 1.76459e-06 0.000892236
0.000603074 2.81776e-05 7.95542e-07
2.81776e-05 -4.7e-05 -3.74357e-06
7.95542e-07 -3.74357e-06 -6.00446e-05
0.00154402 3.96533e-05 8.51263e-06
3.96533e-05 0.00050244 -1.19317e-06
8.51263e-06 -1.19317e-06 0.000513644
0.00229966 3.80823e-05 1.27139e-05
3.80823e-05 0.00093526 -4.56317e-06
1.27139e-05 -4.56317e-06 0.000950904
0.000509412 -8.17469e-06 -2.18523e-07
-8.17469e-06 -6.7729e-05 -1.78353e-06
-2.18523e-07 -1.78353e-06 -0.000149366
0.00039361 -6.60078e-06 -2.96193e-07
-6.60078e-06 -0.000154107 -3.02377e-06
-2.96193e-07 -3.02377e-06 -0.000203087
0.000667079 1.06669e-05 -4.20606e-07
1.06669e-05 3.11798e-05 -7.47691e-07
-4.20606e-07 -7.47691e-07 -5.13876e-05
0.000638022 -1.79701e-05 -1.80685e-07
-1.79701e-05 -3.31159e-05 -3.89962e-06
-1.80685e-07 -3.89962e-06 -4.313e-05
0.000391949 -5.01838e-06 -2.21252e-07
-5.01838e-06 -0.000154126 -9.18922e-07
-2.21252e-07 -9.18922e-07 -0.000199202
0.000821214 1.62502e-05 -1.06334e-07
1.62502e-05 0.000123636 1.59494e-06
-1.06334e-07 1.59494e-06 4.57156e-05
0.00215837 -2.35502e-05 -9.35398e-06
-2.35502e-05 0.000848278 -4.75217e-06
-9.35398e-06 -4.75217e-06 0.000866808
0.000642655 -1.12556e-05 -1.37445e-07
-1.12556e-05 -3.23032e-05 -3.6343e-08
-1.37445e-07 -3.6343e-08 -3.9948e-05
0.000374558 -4.02919e-06 3.81868e-07
-4.02919e-06 -0.000163219 2.08776e-06
3.81868e-07 2.08776e-06 -0.000204678
0.00209778 -1.06809e-05 -3.27591e-06
-1.06809e-05 0.000811254 3.58895e-08
-3.27591e-06 3.58895e-08 0.000831005
0.000647791 -4.6459e-06 1.59893e-07
-4.6459e-06 -3.02178e-05 3.57399e-06
1.59893e-07 3.57399e-06 -3.64088e-05
0.00209091 1.88876e-06 3.81736e-07
1.88876e-06 0.000807093 4.74242e-06
3.81736e-07 4.74242e-06 0.000827026
0.00143029 1.10762e-05 -3.01667e-06
1.10762e-05 0.000571918 2.33933e-05
-3.01667e-06 2.33933e-05 0.000257982
0.00151912 -4.80865e-05 1.00638e-05
-4.80865e-05 0.000330313 -4.0244e-06
1.00638e-05 -4.0244e-06 -0.000610465
0.00183172 9.58624e-05 3.12977e-05
9.58624e-05 0.00247244 -3.05822e-05
3.12977e-05 -3.05822e-05 0.00182909
0.000821724 6.0976e-05 -9.93025e-08
6.0976e-05 0.000119868 2.62894e-07
-9.93025e-08 2.62894e-07 1.86573e-05
0.00068843 3.13965e-05 -4.67021e-08
3.13965e-05 3.03249e-05 2.52292e-07
-4.67021e-08 2.52292e-07 -6.24102e-05
0.000904169 8.49361e-05 -2.75333e-07
8.49361e-05 0.000162769 7.12733e-07
-2.75333e-07 7.12733e-07 5.61983e-05
0.00197102 -3.36633e-05 1.08772e-05
-3.36633e-05 0.000160312 0.000115706
1.08772e-05 0.000115706 -0.000794912
0.00288704 -9.68615e-05 -5.50975e-06
-9.68615e-05 0.0015235 7.44011e-07
-5.50975e-06 7.44011e-07 0.000601243
0.00333257 -0.000190559 4.45743e-05
-0.000190559 0.00115581 -8.77286e-05
4.45743e-05 -8.77286e-05 -0.000489679
0.00476399 -0.000617674 -4.34798e-05
-0.000617674 0.000852969 -6.83306e-07
-4.34798e-05 -6.83306e-07 9.60156e-05
0.00190888 -0.000394944 -8.35552e-05
-0.000394944 0.000283526 6.31256e-05
-8.35552e-05 6.31256e-05 -0.00206842
0.00739738 0.0008726 6.02097e-05
0.0008726 0.00224092 2.80377e-05
6.02097e-05 2.80377e-05 0.00204794
0.00156913 0.000202562 1.89502e-05
0.000202562 -0.00304477 -5.02258e-05
1.89502e-05 -5.02258e-05 -0.00180943
0.00538208 -0.0010013 -1.26602e-05
-0.0010013 0.0014459 4.55343e-06
-1.26602e-05 4.55343e-06 0.000677496
0.00636417 -0.000589048 5.73146e-06
-0.000589048 0.00284471 6.52847e-06
5.73146e-06 6.52847e-06 9.69912e-05
-0.00203252 0.000367921 -1.19526e-05
0.000367921 -0.000609631 -6.08915e-05
-1.19526e-05 -6.08915e-05 -0.00162598
0.00431886 -4.69972e-05 -1.24824e-05
-4.69972e-05 -0.00198679 2.62605e-05
-1.24824e-05 2.62605e-05 -4.73793e-05
0.00285806 -0.000733652 -3.33071e-05
-0.000733652 0.000357286 -1.69005e-05
-3.33071e-05 -1.69005e-05 -0.000310982
0.01071 -0.000865098 9.2835e-06
-0.000865098 0.00500429 3.10595e-05
9.2835e-06 3.10595e-05 0.00169232
-0.00840271 -7.96597e-05 5.57807e-05
-7.96597e-05 -0.000991471 -0.000122607
5.57807e-05 -0.000122607 -0.00248723
0.00272915 -0.00048162 1.44604e-06
-0.00048162 -0.0019797 -2.01446e-05
1.44604e-06 -2.01446e-05 -0.000637084
0.00079923 3.62022e-05 -6.23576e-07
3.62022e-05 0.000104547 -2.42887e-07
-6.23576e-07 -2.42887e-07 -1.25152e-05
0.000765902 1.62617e-06 9.68523e-08
1.62617e-06 0.000106824 -5.38722e-07
9.68523e-08 -5.38722e-07 -1.99248e-05
0.000760605 -5.45953e-05 3.5226e-07
-5.45953e-05 0.000113988 1.20279e-08
3.5226e-07 1.20279e-08 -1.10943e-05
0.000779637 4.1406e-05 -4.73692e-07
4.1406e-05 9.22957e-05 -4.69707e-07
-4.73692e-07 -4.69707e-07 -1.61326e-05
0.00093747 0.000112365 1.26525e-06
0.000112365 0.000202997 1.27428e-06
1.26525e-06 1.27428e-06 8.50408e-05
0.00104877 0.00010695 -5.7505e-07
0.00010695 0.000270001 1.00225e-06
-5.7505e-07 1.00225e-06 0.000158918
0.00104213 -0.000378891 1.24182e-05
-0.000378891 -0.000153021 5.16018e-06
1.24182e-05 5.16018e-06 -0.0002102
-0.000564607 -7.07147e-05 1.21748e-05
-7.07147e-05 -0.000586486 -2.03491e-05
1.21748e-05 -2.03491e-05 -0.000595423
0.000960569 5.84001e-05 -7.99768e-07
5.84001e-05 0.000230228 -9.39496e-08
-7.99768e-07 -9.39496e-08 9.47675e-05
0.00111687 -0.000127464 1.47659e-05
-0.000127464 0.000307006 -2.83031e-05
1.47659e-05 -2.83031e-05 0.000140723
0.00123616 1.39334e-05 -1.74116e-06
1.39334e-05 0.000422521 2.15368e-07
-1.74116e-06 2.15368e-07 0.000243991
0.000733476 1.61997e-05 2.0854e-07
1.61997e-05 7.2047e-05 4.24154e-09
2.0854e-07 4.24154e-09 -4.60804e-05
0.000731443 8.28043e-05 1.83699e-07
8.28043e-05 0.000110572 -1.98549e-08
1.83699e-07 -1.98549e-08 -3.18258e-05
0.000278487 -0.00029476 -2.98501e-06
-0.00029476 -0.00046564 -2.91663e-06
-2.98501e-06 -2.91663e-06 -0.000453277
0.000952447 -2.69206e-05 3.70421e-06
-2.69206e-05 0.000271062 -2.48436e-06
3.70421e-06 -2.48436e-06 0.000112627
0.000452213 -4.44583e-05 2.10683e-05
-4.44583e-05 0.000222576 -2.51308e-07
2.10683e-05 -2.51308e-07 0.000121092
0.00123834 6.04601e-05 1.54136e-06
6.04601e-05 0.000362587 -1.28581e-06
1.54136e-06 -1.28581e-06 0.000247746
-0.00240139 0.00011447 -4.25852e-05
0.00011447 -0.00110983 -1.85061e-05
-4.25852e-05 -1.85061e-05 -0.0014585
0.000412822 1.20319e-05 8.78054e-06
1.20319e-05 0.000150237 3.01206e-05
8.78054e-06 3.01206e-05 7.63491e-05
0.00123857 1.35861e-05 1.82237e-06
1.35861e-05 0.000446391 -5.64159e-07
1.82237e-06 -5.64159e-07 0.00031128
0.00141449 -2.3197e-05 3.41423e-06
-2.3197e-05 9.41895e-05 6.22337e-07
3.41423e-06 6.22337e-07 -0.000169413
0.00108768 -2.37038e-05 -1.27956e-05
-2.37038e-05 0.000322414 -4.06642e-06
-1.27956e-05 -4.06642e-06 2.40844e-05
0.00116832 -3.37442e-05 0.000131022
-3.37442e-05 0.000404365 -1.89449e-06
0.000131022 -1.89449e-06 -0.000487766
0.000878015 0.000164051 1.9871e-05
0.000164051 0.000433836 1.26294e-05
1.9871e-05 1.26294e-05 0.000309351
0.00234585 0.00038399 1.57891e-05
0.00038399 0.000874628 -1.42371e-05
1.57891e-05 -1.42371e-05 0.000677803
0.00115858 -4.33684e-05 -1.49129e-06
-4.33684e-05 0.000253865 9.25962e-06
-1.49129e-06 9.25962e-06 7.30489e-06
-0.0011149 0.000398281 1.18866e-05
0.000398281 -1.2247e-05 2.48162e-05
1.18866e-05 2.48162e-05 -0.00298989
-0.0101474 0.000108022 -5.12567e-05
0.000108022 -0.00373415 -0.000119891
-5.12567e-05 -0.000119891 -0.0052208
0.00257926 2.53384e-05 2.75855e-05
2.53384e-05 0.000850256 5.7668e-05
2.75855e-05 5.7668e-05 0.000194533
0.00180625 0.000323619 -2.35227e-05
0.000323619 -0.00297329 5.04431e-05
-2.35227e-05 5.04431e-05 -0.00176005
0.000408515 0.000124542 4.51824e-06
0.000124542 0.00027562 -8.41924e-07
4.51824e-06 -8.41924e-07 0.000113946
0.00152232 -2.46451e-06 7.01596e-06
-2.46451e-06 7.12907e-05 -1.42084e-05
7.01596e-06 -1.42084e-05 -4.61743e-05
0.0029803 -7.0872e-05 4.15081e-06
-7.0872e-05 0.00148639 -1.0564e-06
4.15081e-06 -1.0564e-06 0.000593879
0.00137889 0.000206741 9.06757e-06
0.000206741 0.000112645 -4.03773e-06
9.06757e-06 -4.03773e-06 -0.000213317
0.00221354 0.000835618 3.96431e-05
0.000835618 -0.001649 -8.93115e-05
3.96431e-05 -8.93115e-05 -0.000654413
-0.00187471 0.000358271 1.02533e-05
0.000358271 -0.00130054 5.8808e-05
1.02533e-05 5.8808e-05 -0.0018129
0.00677675 2.12582e-05 5.95377e-05
2.12582e-05 0.00449122 -1.99577e-05
5.95377e-05 -1.99577e-05 0.00027927
0.0015629 -6.26626e-06 2.07242e-05
-6.26626e-06 0.00114331 -1.26861e-05
2.07242e-05 -1.26861e-05 0.000858695
0.00139848 2.90839e-05 5.36505e-06
2.90839e-05 0.000515104 -1.95677e-05
5.36505e-06 -1.95677e-05 0.000203028
0.00285945 -0.00010948 0.000134481
-0.00010948 0.000597335 -0.000113866
0.000134481 -0.000113866 -0.00078157
0.00317354 0.00114374 -8.53911e-06
0.00114374 0.00184583 -1.18194e-05
-8.53911e-06 -1.18194e-05 0.00286537
-0.00554677 0.000450512 4.135e-05
0.000450512 -0.0047271 0.000172714
4.135e-05 0.000172714 -0.00449454
0.011617 -0.000680115 7.08366e-05
-0.000680115 0.00487346 -7.79153e-05
7.08366e-05 -7.79153e-05 0.0017368
0.00449241 -0.000372421 -8.93781e-05
-0.000372421 0.00135024 0.000108735
-8.93781e-05 0.000108735 0.00129507
0.00113105 9.02541e-05 5.26113e-06
9.02541e-05 0.000558845 5.79282e-06
5.26113e-06 5.79282e-06 0.000470274
6.74705e-05 -1.09395e-05 -3.21697e-06
-1.09395e-05 0.000102633 9.0996e-07
-3.21697e-06 9.0996e-07 -9.40009e-06
0.000477327 -0.000196079 8.6929e-06
-0.000196079 0.000366385 -1.37386e-05
8.6929e-06 -1.37386e-05 0.000129651
0.000780301 -4.97969e-05 1.31168e-06
-4.97969e-05 0.000137638 2.4548e-06
1.31168e-06 2.4548e-06 5.67957e-05
-0.000714325 -1.06131e-05 3.95496e-06
-1.06131e-05 -0.000549539 1.42224e-05
3.95496e-06 1.42224e-05 -0.000624209
0.000188422 -0.000115857 -1.67863e-06
-0.000115857 9.96337e-06 6.16489e-08
-1.67863e-06 6.16489e-08 -0.00013531
0.00112907 -0.000209678 2.23837e-05
-0.000209678 0.000478717 -1.4199e-05
2.23837e-05 -1.4199e-05 0.000218168
0.00186625 -0.000131563 -3.42933e-06
-0.000131563 0.00070626 2.98382e-06
-3.42933e-06 2.98382e-06 0.00060357
0.00148655 -0.000228239 1.55091e-06
-0.000228239 0.000544455 2.89039e-07
1.55091e-06 2.89039e-07 0.000336953
0.00106335 -0.000231468 8.6352e-06
-0.000231468 0.000321945 2.27556e-06
8.6352e-06 2.27556e-06 -1.15022e-05
3.12895e-05 -8.63298e-05 -1.9853e-06
-8.63298e-05 -0.000319585 -9.75941e-07
-1.9853e-06 -9.75941e-07 -0.000447915
0.00108744 -0.000211263 -3.91573e-07
-0.000211263 0.000222576 1.29436e-06
-3.91573e-07 1.29436e-06 3.28679e-06
0.00255476 -0.000372079 2.92367e-06
-0.000372079 0.000918293 2.15926e-06
2.92367e-06 2.15926e-06 0.00063704
0.00183887 -0.000319624 -2.78422e-06
-0.000319624 0.000396435 2.39287e-06
-2.78422e-06 2.39287e-06 0.000144069
0.000520439 -0.000173978 1.31501e-06
-0.000173978 -0.000180734 6.7902e-06
1.31501e-06 6.7902e-06 -0.000371434
0.00130603 -0.000246233 -2.77185e-06
-0.000246233 0.000234991 1.98747e-06
-2.77185e-06 1.98747e-06 1.27061e-05
0.000913399 -0.000192365 -4.66883e-06
-0.000192365 0.000121587 1.48594e-06
-4.66883e-06 1.48594e-06 -7.28785e-05
0.00161684 -0.000233994 4.55481e-06
-0.000233994 0.000533808 -3.23248e-06
4.55481e-06 -3.23248e-06 0.000358236
0.0012449 -0.000210556 2.68608e-06
-0.000210556 0.000298575 -2.17802e-06
2.68608e-06 -2.17802e-06 0.000131303
0.000335611 -4.43952e-05 1.84102e-06
-4.43952e-05 -0.00012907 8.03157e-07
1.84102e-06 8.03157e-07 -0.000270006
0.000702617 -0.000136067 1.30118e-06
-0.000136067 8.28899e-05 -4.45177e-07
1.30118e-06 -4.45177e-07 -8.32774e-05
0.00113727 -0.000191507 5.34901e-06
-0.000191507 0.000268564 -3.23459e-06
5.34901e-06 -3.23459e-06 9.02398e-05
0.000676579 4.66489e-05 1.10615e-06
4.66489e-05 4.57776e-05 1.34744e-06
1.10615e-06 1.34744e-06 -4.95695e-05
0.000886492 -5.77356e-05 -3.78471e-07
-5.77356e-05 0.000179687 -6.22414e-08
-3.78471e-07 -6.22414e-08 6.11049e-05
0.00104379 -0.000151072 -7.06396e-07
-0.000151072 0.000280738 -2.77225e-07
-7.06396e-07 -2.77225e-07 0.000131967
0.000648633 4.0847e-05 -1.14351e-06
4.0847e-05 6.51114e-06 1.79653e-06
-1.14351e-06 1.79653e-06 -4.72934e-05
0.000739415 9.77179e-06 -6.95556e-07
9.77179e-06 6.98594e-05 -2.88367e-07
-6.95556e-07 -2.88367e-07 -1.05933e-05
0.000576479 -7.1249e-06 9.37901e-08
-7.1249e-06 -2.01305e-06 -6.91724e-07
9.37901e-08 -6.91724e-07 -0.000105164
0.000777871 -1.88242e-05 7.32308e-07
-1.88242e-05 8.90796e-05 -9.87929e-07
7.32308e-07 -9.87929e-07 1.42374e-05
0.000683525 2.74774e-05 -2.7004e-07
2.74774e-05 1.85642e-05 -6.16608e-08
-2.7004e-07 -6.16608e-08 -3.01593e-05
0.000599608 4.97135e-05 -1.03553e-06
4.97135e-05 -2.90616e-05 3.91771e-06
-1.03553e-06 3.91771e-06 -4.7445e-05
0.000698313 1.79436e-05 1.79397e-06
1.79436e-05 2.12245e-05 -1.71643e-06
1.79397e-06 -1.71643e-06 -2.47541e-05
0.000616216 4.34346e-05 3.29141e-08
4.34346e-05 -2.80017e-05 3.77497e-09
3.29141e-08 3.77497e-09 -4.38416e-05
0.0022254 6.882e-05 -2.33358e-05
6.882e-05 0.000909981 3.75043e-06
-2.33358e-05 3.75043e-06 0.000921351
0.000610181 3.6145e-05 8.68416e-07
3.6145e-05 -3.8263e-05 -3.75245e-06
8.68416e-07 -3.75245e-06 -5.23107e-05
0.0015268 4.93082e-05 1.00426e-05
4.93082e-05 0.000499326 -1.04066e-06
1.00426e-05 -1.04066e-06 0.000508985
0.00228497 4.96103e-05 1.65472e-05
4.96103e-05 0.000932109 -4.26037e-06
1.65472e-05 -4.26037e-06 0.000946509
0.000728948 4.64734e-05 -6.22017e-07
4.64734e-05 5.6616e-05 -8.00015e-07
-6.22017e-07 -8.00015e-07 -2.64878e-05
0.000677548 5.23411e-06 -7.58658e-07
5.23411e-06 6.61761e-06 -2.26573e-06
-7.58658e-07 -2.26573e-06 -4.34538e-05
0.000617929 2.94385e-05 -9.47912e-07
2.94385e-05 1.34599e-06 -7.06435e-07
-9.47912e-07 -7.06435e-07 -8.48052e-05
0.000627079 -2.49206e-05 -2.8304e-08
-2.49206e-05 -3.61619e-05 -4.1133e-06
-2.8304e-08 -4.1133e-06 -4.90557e-05
0.000524569 1.71503e-06 -8.63412e-07
1.71503e-06 -7.93961e-05 -9.08558e-07
-8.63412e-07 -9.08558e-07 -0.000127264
0.000834024 2.50619e-05 3.26116e-07
2.50619e-05 0.000126849 5.97727e-07
3.26116e-07 5.97727e-07 4.50252e-05
0.00223253 -3.55103e-05 -1.38003e-05
-3.55103e-05 0.000894138 -4.6692e-06
-1.38003e-05 -4.6692e-06 0.000911042
0.000636021 -1.76694e-05 -2.24189e-07
-1.76694e-05 -3.42442e-05 -3.12918e-08
-2.24189e-07 -3.12918e-08 -4.41546e-05
0.000359535 -5.33168e-06 -3.22479e-07
-5.33168e-06 -0.000172503 1.34662e-06
-3.22479e-07 1.34662e-06 -0.000218128
0.00214966 -2.24316e-05 -3.23127e-06
-2.24316e-05 0.000842847 7.28043e-08
-3.23127e-06 7.28043e-08 0.000861608
0.000642985 -1.11545e-05 1.76604e-07
-1.11545e-05 -3.20023e-05 3.67299e-06
1.76604e-07 3.67299e-06 -3.95966e-05
0.00209954 -9.53566e-06 4.9335e-06
-9.53566e-06 0.000812063 4.75325e-06
4.9335e-06 4.75325e-06 0.000831872
0.00156309 -1.77673e-05 2.91094e-06
-1.77673e-05 0.000125889 2.93542e-05
2.91094e-06 2.93542e-05 -8.01583e-05
0.00130753 6.77747e-06 -5.34965e-06
6.77747e-06 0.00044193 -7.28409e-07
-5.34965e-06 -7.28409e-07 0.000126419
0.00167079 -4.15173e-05 8.96473e-05
-4.15173e-05 0.000489534 -2.88094e-05
8.96473e-05 -2.88094e-05 -0.000474257
0.000656445 -7.92671e-06 -2.01806e-07
-7.92671e-06 4.97893e-06 -3.50194e-07
-2.01806e-07 -3.50194e-07 -8.05951e-05
0.000878686 1.76786e-05 -1.05829e-06
1.76786e-05 0.000140225 -5.07483e-07
-1.05829e-06 -5.07483e-07 4.5348e-05
0.000830548 5.91787e-05 1.36283e-06
5.91787e-05 0.000122638 5.76078e-07
1.36283e-06 5.76078e-07 2.52847e-05
0.000692752 1.60975e-05 1.84132e-07
1.60975e-05 2.74905e-05 1.54e-07
1.84132e-07 1.54e-07 -6.10511e-05
0.000796152 3.99691e-05 2.74967e-08
3.99691e-05 9.99686e-05 2.02358e-07
2.74967e-08 2.02358e-07 -4.55746e-06
0.000796107 2.33636e-05 -1.04763e-06
2.33636e-05 9.37065e-05 2.64793e-07
-1.04763e-06 2.64793e-07 -2.08082e-06
0.000949885 0.000153715 6.79475e-07
0.000153715 0.000201992 3.79967e-07
6.79475e-07 3.79967e-07 7.92451e-05
0.000617246 2.64867e-05 2.92281e-05
2.64867e-05 0.000207524 0.00011364
2.92281e-05 0.00011364 -0.000948701
0.00229283 -2.01712e-05 -4.71515e-06
-2.01712e-05 0.000574452 3.93616e-05
-4.71515e-06 3.93616e-05 -0.000222746
0.00266537 -7.30169e-05 4.39508e-06
-7.30169e-05 0.00141632 -6.12775e-05
4.39508e-06 -6.12775e-05 0.000431479
0.00314068 -0.000115689 -2.06879e-05
-0.000115689 -0.00331589 3.07215e-05
-2.06879e-05 3.07215e-05 -0.000982073
0.00381134 -0.000862843 -4.31261e-05
-0.000862843 0.00119163 5.48849e-05
-4.31261e-05 5.48849e-05 0.000236294
-0.00162578 -0.00081809 2.52612e-05
-0.00081809 -0.000709451 4.26157e-05
2.52612e-05 4.26157e-05 -0.00380171
0.00615396 0.000988686 4.5287e-05
0.000988686 0.0036021 -2.20866e-05
4.5287e-05 -2.20866e-05 0.00209309
0.00416608 -0.000847403 -1.78609e-05
-0.000847403 0.00098211 4.75423e-06
-1.78609e-05 4.75423e-06 0.000195053
0.000572194 -0.000398477 4.09538e-05
-0.000398477 0.000864092 1.89962e-06
4.09538e-05 1.89962e-06 -0.00248083
0.00410668 -8.46766e-05 -2.04611e-05
-8.46766e-05 0.00218372 -3.37463e-06
-2.04611e-05 -3.37463e-06 0.00143794
0.00717593 -0.000680878 -2.27051e-05
-0.000680878 0.000839276 -3.01804e-05
-2.27051e-05 -3.01804e-05 0.00213817
0.00155951 -2.61546e-06 -6.54286e-05
-2.61546e-06 -0.00043575 4.59561e-05
-6.54286e-05 4.59561e-05 -0.000347047
0.000792954 0.000549416 6.25258e-06
0.000549416 0.000732228 -8.90802e-05
6.25258e-06 -8.90802e-05 -0.00238903
-0.00675492 -0.000972177 5.16989e-05
-0.000972177 -0.00422879 -7.43358e-05
5.16989e-05 -7.43358e-05 -0.00558827
0.00241454 -0.000655854 1.17693e-05
-0.000655854 -0.00161103 -0.00013192
1.17693e-05 -0.00013192 -0.000103375
0.00076059 -2.80565e-06 -1.77029e-06
-2.80565e-06 8.0891e-05 5.93748e-07
-1.77029e-06 5.93748e-07 -1.6638e-05
0.000737511 3.6159e-05 2.07267e-07
3.6159e-05 7.12233e-05 2.10175e-07
2.07267e-07 2.10175e-07 -4.62691e-05
0.000728061 1.21729e-05 -3.66948e-07
1.21729e-05 9.1224e-05 -3.42514e-07
-3.66948e-07 -3.42514e-07 -3.9155e-05
0.000818981 3.80824e-05 1.31779e-07
3.80824e-05 0.000124063 -8.00582e-07
1.31779e-07 -8.00582e-07 8.65859e-06
0.000658141 -0.000334811 9.31748e-07
-0.000334811 -0.000325785 1.77844e-05
9.31748e-07 1.77844e-05 -0.00038079
0.000911329 -3.52817e-05 -5.98167e-06
-3.52817e-05 0.000475595 -2.46127e-05
-5.98167e-06 -2.46127e-05 0.00039032
0.000588261 9.32603e-06 -6.25064e-07
9.32603e-06 -1.86341e-05 1.13417e-07
-6.25064e-07 1.13417e-07 -0.00013349
0.000743461 8.51342e-05 -1.51321e-06
8.51342e-05 0.000120799 2.2025e-06
-1.51321e-06 2.2025e-06 -2.1537e-05
0.00147579 -5.02008e-05 5.71411e-06
-5.02008e-05 0.000574338 -2.33061e-05
5.71411e-06 -2.33061e-05 0.000410334
0.000733945 3.36235e-05 -4.14339e-07
3.36235e-05 7.97208e-05 3.78714e-07
-4.14339e-07 3.78714e-07 -3.25361e-05
0.000933156 3.87022e-05 -1.32762e-06
3.87022e-05 0.000284561 -2.10489e-06
-1.32762e-06 -2.10489e-06 0.000142774
-0.000275625 2.34921e-05 9.66764e-06
2.34921e-05 -0.000103038 -1.17859e-05
9.66764e-06 -1.17859e-05 -0.000513695
0.000886834 -2.40342e-05 2.45234e-05
-2.40342e-05 0.00043015 -7.39083e-07
2.45234e-05 -7.39083e-07 0.000375729
0.000412042 6.54483e-05 -7.17026e-07
6.54483e-05 -2.5476e-05 -7.7904e-08
-7.17026e-07 -7.7904e-08 -0.000130413
0.000241137 -2.77318e-05 -2.33596e-05
-2.77318e-05 0.000681509 -4.52023e-05
-2.33596e-05 -4.52023e-05 -0.000406955
0.00292613 5.75595e-05 1.04717e-05
5.75595e-05 0.0014949 1.86769e-05
1.04717e-05 1.86769e-05 0.00136186
0.00121938 -1.66483e-05 1.25826e-05
-1.66483e-05 0.000420334 4.24117e-06
1.25826e-05 4.24117e-06 7.61751e-05
0.00131561 -2.20498e-05 -1.46143e-07
-2.20498e-05 0.000127967 5.75745e-07
-1.46143e-07 5.75745e-07 -8.32323e-05
0.000742223 -2.08746e-05 -8.49394e-06
-2.08746e-05 0.000141715 -4.94418e-06
-8.49394e-06 -4.94418e-06 -0.000146138
0.000409952 0.000103725 1.6383e-05
0.000103725 0.00029684 7.34903e-06
1.6383e-05 7.34903e-06 0.000155083
0.000138876 0.000181541 -4.16138e-06
0.000181541 -0.000494909 2.87653e-05
-4.16138e-06 2.87653e-05 -0.00058063
0.00138856 -1.5365e-05 7.61298e-06
-1.5365e-05 -4.74226e-06 4.71338e-06
7.61298e-06 4.71338e-06 -5.71855e-05
0.00354275 -0.000655929 0.000139301
-0.000655929 0.00301845 -0.000123451
0.000139301 -0.000123451 -0.000941106
0.00677493 0.00103208 -4.7563e-05
0.00103208 0.00326136 2.83025e-05
-4.7563e-05 2.83025e-05 0.00208718
0.00277977 -5.42823e-05 -1.14925e-05
-5.42823e-05 0.00139409 6.10074e-05
-1.14925e-05 6.10074e-05 0.000427899
0.00397659 0.000895936 -1.3691e-05
0.000895936 -0.00044351 -1.84465e-05
-1.3691e-05 -1.84465e-05 0.000414993
-0.000448029 4.93864e-05 1.8274e-05
4.93864e-05 0.000129767 4.4387e-06
1.8274e-05 4.4387e-06 -0.000250951
0.00138354 1.97987e-05 5.21663e-06
1.97987e-05 0.000460042 5.83595e-07
5.21663e-06 5.83595e-07 0.000168782
0.00304684 -0.000145534 4.48617e-05
-0.000145534 0.000802719 -3.72896e-06
4.48617e-05 -3.72896e-06 -0.000704618
0.000788907 -0.000108835 -1.0203e-06
-0.000108835 -0.000620268 2.44916e-05
-1.0203e-06 2.44916e-05 -0.000447193
-0.00169782 0.00121598 6.02225e-05
0.00121598 -0.000888107 -2.29169e-05
6.02225e-05 -2.29169e-05 0.000606618
0.0053127 0.000658594 -2.74088e-05
0.000658594 0.00014514 6.07992e-05
-2.74088e-05 6.07992e-05 0.000344734
-0.0020895 -0.000669755 5.61807e-05
-0.000669755 -0.000198574 -4.70087e-05
5.61807e-05 -4.70087e-05 -0.00419529
0.000593713 -2.17581e-05 3.82604e-05
-2.17581e-05 0.00023657 -8.23802e-06
3.82604e-05 -8.23802e-06 0.000109734
0.00104065 -5.3007e-05 5.86986e-05
-5.3007e-05 -4.12642e-05 -2.65592e-05
5.86986e-05 -2.65592e-05 -0.000961076
-0.00183971 0.000193494 -0.000130434
0.000193494 0.00056886 -1.82443e-05
-0.000130434 -1.82443e-05 -0.000236792
0.000921872 0.00105807 -9.27812e-05
0.00105807 -0.000361201 0.000140577
-9.27812e-05 0.000140577 0.0001512
0.00806651 -0.00031358 1.88323e-05
-0.00031358 0.00369305 -2.47963e-05
1.88323e-05 -2.47963e-05 0.000797185
0.00321932 -0.000337266 -7.0756e-05
-0.000337266 0.000643562 6.80638e-05
-7.0756e-05 6.80638e-05 0.00030657
-0.00186924 1.46029e-05 2.94308e-06
1.46029e-05 -0.000943411 1.20112e-05
2.94308e-06 1.20112e-05 -0.00109884
4.77302e-05 -0.000140954 -3.24966e-07
-0.000140954 0.000149592 -1.81674e-07
-3.24966e-07 -1.81674e-07 -7.67425e-05
0.000705272 -0.000211514 1.9612e-05
-0.000211514 0.000227299 -7.43876e-06
1.9612e-05 -7.43876e-06 8.37041e-05
-0.000594757 -7.31179e-05 -3.61692e-06
-7.31179e-05 -0.000416682 5.58121e-06
-3.61692e-06 5.58121e-06 -0.000548706
-0.000423076 -0.000104183 3.73993e-07
-0.000104183 -0.000319962 -3.4669e-06
3.73993e-07 -3.4669e-06 -0.000584716
0.00238005 -0.00038726 2.50752e-05
-0.00038726 0.000797581 -5.75537e-06
2.50752e-05 -5.75537e-06 0.000547022
0.00285856 -0.000361089 -5.87317e-06
-0.000361089 0.00125023 1.72447e-06
-5.87317e-06 1.72447e-06 0.00103291
0.00172417 -0.000279501 2.84139e-06
-0.000279501 0.0006408 7.85189e-07
2.84139e-06 7.85189e-07 0.000322078
0.000802131 -0.000264173 6.76462e-06
-0.000264173 -5.26227e-05 -4.13962e-06
6.76462e-06 -4.13962e-06 -0.000358335
0.00124097 -0.000222365 -5.14881e-06
-0.000222365 0.000290602 9.94805e-07
-5.14881e-06 9.94805e-07 6.43855e-05
0.00217565 -0.000342985 2.01521e-06
-0.000342985 0.000701129 5.63136e-08
2.01521e-06 5.63136e-08 0.000420214
0.00186252 -0.00033786 3.24872e-06
-0.00033786 0.000399313 -4.86098e-06
3.24872e-06 -4.86098e-06 0.000127736
0.00164038 -0.000294002 6.82875e-07
-0.000294002 0.000197513 -3.85445e-06
6.82875e-07 -3.85445e-06 -1.74189e-05
0.00266361 -0.000372922 -6.56478e-06
-0.000372922 0.000861436 6.44416e-06
-6.56478e-06 6.44416e-06 0.00061664
0.00190632 -0.000326781 -1.18301e-06
-0.000326781 0.000425478 -3.82522e-07
-1.18301e-06 -3.82522e-07 0.000167666
0.000351923 -0.000151134 4.93998e-06
-0.000151134 -0.000254281 6.75863e-08
4.93998e-06 6.75863e-08 -0.000424522
0.000947594 -0.000204752 2.40342e-06
-0.000204752 6.05429e-05 -4.9834e-07
2.40342e-06 -4.9834e-07 -0.000127242
0.00154453 -0.000265704 -1.86519e-06
-0.000265704 0.00037037 -1.58697e-06
-1.86519e-06 -1.58697e-06 0.000143503
0.00112693 -0.000183717 1.86029e-06
-0.000183717 0.000281085 -2.53796e-07
1.86029e-06 -2.53796e-07 0.000107854
0.00125458 -0.000202845 -1.81929e-06
-0.000202845 0.000327912 -1.40596e-06
-1.81929e-06 -1.40596e-06 0.000156465
0.000704511 -0.000164288 3.77048e-06
-0.000164288 8.53741e-07 -1.84237e-06
3.77048e-06 -1.84237e-06 -0.000152498
0.000740101 -1.7823e-05 1.90312e-06
-1.7823e-05 9.14854e-05 1.43659e-06
1.90312e-06 1.43659e-06 -2.96328e-05
0.000608368 -7.0401e-05 1.29849e-07
-7.0401e-05 2.92503e-05 7.63724e-07
1.29849e-07 7.63724e-07 -0.000114247
0.00122278 -0.000179718 2.02867e-06
-0.000179718 0.000378575 -1.69958e-06
2.02867e-06 -1.69958e-06 0.000208076
0.000597096 5.57018e-05 -3.59014e-08
5.57018e-05 -1.03703e-05 2.32512e-06
-3.59014e-08 2.32512e-06 -7.60852e-05
0.000742213 4.20995e-06 -4.30001e-07
4.20995e-06 8.43687e-05 -3.66898e-07
-4.30001e-07 -3.66898e-07 -1.49113e-05
0.00100507 -7.91806e-05 -5.9004e-07
-7.91806e-05 0.000250559 -6.67292e-07
-5.9004e-07 -6.67292e-07 0.000126695
0.000575998 5.66703e-05 -1.77727e-06
5.66703e-05 -3.28793e-05 5.454e-06
-1.77727e-06 5.454e-06 -5.44317e-05
0.000669925 3.7932e-05 -2.86114e-07
3.7932e-05 1.77892e-05 -1.97072e-07
-2.86114e-07 -1.97072e-07 -3.59228e-05
0.00080323 -1.30203e-05 3.86835e-08
-1.30203e-05 0.000106587 -1.28457e-06
3.86835e-08 -1.28457e-06 2.437e-05
0.000692128 2.58877e-05 1.41423e-06
2.58877e-05 2.27532e-05 -1.83427e-06
1.41423e-06 -1.83427e-06 -2.58033e-05
0.000606772 5.12166e-05 2.75337e-08
5.12166e-05 -2.44328e-05 -3.45491e-09
2.75337e-08 -3.45491e-09 -4.30896e-05
0.00224256 7.99625e-05 -2.63155e-05
7.99625e-05 0.000928134 3.3877e-06
-2.63155e-05 3.3877e-06 0.000937021
0.000615946 4.45678e-05 7.90049e-07
4.45678e-05 -2.80228e-05 -3.81619e-06
7.90049e-07 -3.81619e-06 -4.39837e-05
0.00224591 7.0426e-05 2.15948e-06
7.0426e-05 0.000922684 1.62017e-07
2.15948e-06 1.62017e-07 0.000933728
0.00225784 6.06327e-05 1.98886e-05
6.06327e-05 0.000922909 -3.90843e-06
1.98886e-05 -3.90843e-06 0.000935783
0.000764233 2.84295e-05 -3.74786e-07
2.84295e-05 8.49025e-05 -6.48786e-07
-3.74786e-07 -6.48786e-07 -1.33467e-05
0.000782676 6.06713e-05 -7.2479e-07
6.06713e-05 9.51299e-05 -1.18321e-06
-7.2479e-07 -1.18321e-06 3.58912e-06
0.000679384 -3.14445e-06 -9.30198e-07
-3.14445e-06 6.84836e-06 -2.28374e-06
-9.30198e-07 -2.28374e-06 -4.643e-05
0.000750971 5.45859e-05 -1.01292e-07
5.45859e-05 6.92001e-05 1.57028e-08
-1.01292e-07 1.57028e-08 -1.41419e-05
0.000612773 -3.20882e-05 -1.17728e-07
-3.20882e-05 -3.94425e-05 -4.34153e-06
-1.17728e-07 -4.34153e-06 -5.57212e-05
0.000681743 4.50369e-06 -1.17148e-07
4.50369e-06 9.38172e-06 -4.66444e-08
-1.17148e-07 -4.66444e-08 -4.07102e-05
0.000715208 3.24851e-05 -5.77436e-07
3.24851e-05 4.71822e-05 6.12381e-07
-5.77436e-07 6.12381e-07 -3.16976e-05
0.00231684 -4.77301e-05 -1.81621e-05
-4.77301e-05 0.000947062 -4.5617e-06
-1.81621e-05 -4.5617e-06 0.000961895
0.000628539 -2.44277e-05 -1.84552e-07
-2.44277e-05 -3.52953e-05 -3.90829e-08
-1.84552e-07 -3.90829e-08 -4.80845e-05
0.000661362 8.23306e-06 -3.88735e-07
8.23306e-06 -1.46018e-06 1.44871e-06
-3.88735e-07 1.44871e-06 -4.82108e-05
0.00221579 -3.43939e-05 -3.35368e-06
-3.43939e-05 0.000883934 1.13074e-07
-3.35368e-06 1.13074e-07 0.000901146
0.000636054 -1.74074e-05 1.03155e-07
-1.74074e-05 -3.41779e-05 3.80973e-06
1.03155e-07 3.80973e-06 -4.39968e-05
0.00213283 -2.1236e-05 9.22669e-06
-2.1236e-05 0.000832725 4.69258e-06
9.22669e-06 4.69258e-06 0.000851737
0.000866468 -6.04794e-05 4.95306e-06
-6.04794e-05 0.000130709 2.81648e-05
4.95306e-06 2.81648e-05 -0.000190138
0.0014984 -2.94372e-05 -8.37017e-06
-2.94372e-05 7.07642e-05 1.50479e-05
-8.37017e-06 1.50479e-05 -5.29374e-05
0.00137626 -2.23708e-06 -2.62701e-06
-2.23708e-06 0.000363045 -1.91264e-05
-2.62701e-06 -1.91264e-05 0.000110775
0.000756338 2.82553e-05 -1.57872e-07
2.82553e-05 7.33215e-05 -5.20486e-08
-1.57872e-07 -5.20486e-08 -2.09531e-05
0.000750375 3.98873e-06 4.20253e-08
3.98873e-06 6.76373e-05 1.63139e-07
4.20253e-08 1.63139e-07 -2.62726e-05
0.000678211 6.44789e-06 -1.72109e-06
6.44789e-06 2.82065e-05 -1.87131e-06
-1.72109e-06 -1.87131e-06 -6.78012e-05
0.000601743 -1.40258e-05 -7.24939e-07
-1.40258e-05 -1.73176e-05 -7.39084e-07
-7.24939e-07 -7.39084e-07 -0.000109997
0.000982476 8.51263e-05 -1.37565e-06
8.51263e-05 0.000213788 -5.36164e-07
-1.37565e-06 -5.36164e-07 0.000103412
0.000713069 -2.86659e-06 5.09514e-08
-2.86659e-06 3.5788e-05 -1.78551e-08
5.09514e-08 -1.78551e-08 -5.00857e-05
0.000719624 1.90276e-05 9.30114e-07
1.90276e-05 4.90986e-05 -4.13364e-07
9.30114e-07 -4.13364e-07 -4.98303e-05
0.000782464 3.35272e-05 -1.04115e-07
3.35272e-05 8.94633e-05 -4.36318e-08
-1.04115e-07 -4.36318e-08 -8.9372e-06
0.000888037 6.70817e-05 3.11871e-07
6.70817e-05 0.000148302 3.23565e-07
3.11871e-07 3.23565e-07 4.03598e-05
0.000933979 3.70243e-05 -6.9523e-07
3.70243e-05 0.000189289 7.73986e-08
-6.9523e-07 7.73986e-08 8.48626e-05
0.00209008 5.78657e-05 9.55015e-05
5.78657e-05 0.000750391 0.000141798
9.55015e-05 0.000141798 -0.000779124
0.00103001 5.43226e-05 8.92732e-06
5.43226e-05 0.000257447 3.51844e-05
8.92732e-06 3.51844e-05 -0.000936747
0.00262295 -6.95729e-06 -1.53876e-05
-6.95729e-06 0.000983345 -1.79281e-05
-1.53876e-05 -1.79281e-05 0.000367474
0.0069537 -0.000604567 -4.71874e-05
-0.000604567 0.0008931 -6.5899e-05
-4.71874e-05 -6.5899e-05 0.00223758
-0.0102691 0.000376013 -5.25164e-05
0.000376013 -0.00354365 0.000147845
-5.25164e-05 0.000147845 -0.00514995
0.00502935 -0.000836727 -9.04765e-05
-0.000836727 0.00166608 5.11094e-05
-9.04765e-05 5.11094e-05 0.000882812
0.00910055 -0.000447996 -3.19074e-05
-0.000447996 0.00355995 -3.00137e-05
-3.19074e-05 -3.00137e-05 0.00082069
0.00287371 -0.000146896 -3.24142e-05
-0.000146896 0.000314906 4.95303e-05
-3.24142e-05 4.95303e-05 -2.45514e-05
0.0107849 -0.000183284 4.1843e-05
-0.000183284 0.0049565 -1.62799e-05
4.1843e-05 -1.62799e-05 0.00164526
0.00132251 -0.000551656 3.54332e-05
-0.000551656 -0.000219782 3.23061e-05
3.54332e-05 3.23061e-05 -0.000966524
0.00199445 -0.000781559 -7.68369e-05
-0.000781559 -0.00197378 -0.000167761
-7.68369e-05 -0.000167761 -0.000461685
0.00364687 0.000141823 -8.54045e-05
0.000141823 0.000555153 2.87508e-06
-8.54045e-05 2.87508e-06 0.000130605
0.00883727 0.000373536 -5.23133e-06
0.000373536 0.00377547 2.79902e-05
-5.23133e-06 2.79902e-05 0.0012453
0.00891701 -0.00127803 -8.33593e-06
-0.00127803 0.00268694 -0.000118627
-8.33593e-06 -0.000118627 0.00277203
0.00473455 -0.00120988 3.61481e-05
-0.00120988 0.000668679 2.68049e-06
3.61481e-05 2.68049e-06 0.00226559
0.000393573 3.82256e-05 6.24137e-07
3.82256e-05 -6.43299e-05 7.68659e-07
6.24137e-07 7.68659e-07 -0.000144092
0.000932425 -4.7672e-06 -4.26067e-08
-4.7672e-06 0.000184959 8.55478e-07
-4.26067e-08 8.55478e-07 8.40582e-05
0.000749556 3.34923e-05 1.25197e-07
3.34923e-05 7.74998e-05 1.86242e-07
1.25197e-07 1.86242e-07 -3.87402e-05
0.0006432 2.71179e-05 -3.65528e-05
2.71179e-05 0.000327737 1.57285e-05
-3.65528e-05 1.57285e-05 -0.000168488
0.000989752 -6.32238e-05 -6.14706e-05
-6.32238e-05 0.000515268 -2.08357e-05
-6.14706e-05 -2.08357e-05 0.000478091
0.000584375 -6.92459e-06 -1.10528e-07
-6.92459e-06 -1.96327e-06 1.24819e-06
-1.10528e-07 1.24819e-06 -0.000114568
-0.000180377 2.76906e-05 6.78281e-08
2.76906e-05 -0.000326769 -2.77278e-06
6.78281e-08 -2.77278e-06 -0.000472967
0.000667208 6.65237e-05 -2.93389e-07
6.65237e-05 0.000126045 -2.35883e-06
-2.93389e-07 -2.35883e-06 1.30135e-05
0.000487018 4.75058e-05 -3.83292e-06
4.75058e-05 0.000191937 4.8359e-06
-3.83292e-06 4.8359e-06 5.20724e-05
-3.25548e-05 -2.83833e-06 7.56873e-05
-2.83833e-06 0.000632311 -3.67929e-05
7.56873e-05 -3.67929e-05 -0.000437488
-0.0018642 -6.71981e-06 -1.8244e-05
-6.71981e-06 -0.00109519 1.16021e-05
-1.8244e-05 1.16021e-05 -0.00120554
0.00168042 0.000182461 -1.20506e-05
0.000182461 0.000882624 -3.32344e-05
-1.20506e-05 -3.32344e-05 0.000228144
0.00175201 -3.65457e-06 6.3516e-05
-3.65457e-06 0.000547016 7.58922e-06
6.3516e-05 7.58922e-06 -0.000334092
0.00103465 -1.96417e-05 1.44458e-05
-1.96417e-05 0.000307687 4.76052e-06
1.44458e-05 4.76052e-06 1.52606e-05
0.00134446 -2.40875e-05 -4.05408e-06
-2.40875e-05 0.000210129 -1.56352e-06
-4.05408e-06 -1.56352e-06 6.58811e-05
-0.00242232 3.56483e-05 -1.58577e-06
3.56483e-05 -0.0008531 1.01333e-05
-1.58577e-06 1.01333e-05 -0.00134413
0.00299397 5.07919e-05 -1.21497e-05
5.07919e-05 0.000449108 -2.60918e-05
-1.21497e-05 -2.60918e-05 0.000120337
0.00140584 7.52861e-06 5.08411e-07
7.52861e-06 0.000385959 1.48724e-05
5.08411e-07 1.48724e-05 0.000156149
0.0150461 -0.000785607 0.000109163
-0.000785607 0.00665222 -1.44064e-05
0.000109163 -1.44064e-05 0.00348472
0.00740066 0.000914654 -5.31871e-05
0.000914654 0.00223887 -2.2987e-05
-5.31871e-05 -2.2987e-05 0.00198975
0.00346677 -0.000170907 -4.54631e-05
-0.000170907 0.00110693 8.77699e-05
-4.54631e-05 8.77699e-05 -0.00047526
-0.00651178 0.0013335 0.000277441
0.0013335 -0.00371523 -0.000227376
0.000277441 -0.000227376 -0.00172815
0.000662949 -6.28123e-05 -3.31043e-06
-6.28123e-05 0.000376058 -2.45113e-07
-3.31043e-06 -2.45113e-07 0.000210464
0.00152499 -4.76871e-05 -1.01542e-05
-4.76871e-05 0.000257495 4.31834e-06
-1.01542e-05 4.31834e-06 -0.000674344
-0.00238077 0.000236537 -0.000181049
0.000236537 0.00065033 8.04285e-05
-0.000181049 8.04285e-05 -1.60703e-05
0.00180392 -0.00029006 -1.96767e-05
-0.00029006 -2.40721e-05 2.92455e-05
-1.96767e-05 2.92455e-05 -0.000298469
0.00839013 0.0013315 4.1255e-05
0.0013315 0.00280013 4.33058e-05
4.1255e-05 4.33058e-05 0.00338848
0.0073904 -0.000736911 6.32161e-05
-0.000736911 0.0030859 -3.80522e-05
6.32161e-05 -3.80522e-05 0.000467261
0.00116369 -0.000216222 8.76274e-06
-0.000216222 0.000173803 2.50411e-05
8.76274e-06 2.50411e-05 0.000313649
-0.00264138 -8.7299e-05 2.69447e-05
-8.7299e-05 0.000525397 -1.00513e-05
2.69447e-05 -1.00513e-05 -0.000734861
0.00635493 0.00112946 -0.000175752
0.00112946 0.00316005 8.26565e-05
-0.000175752 8.26565e-05 0.00322215
0.00262687 -0.000330175 -0.000131139
-0.000330175 0.000307961 9.08116e-05
-0.000131139 9.08116e-05 -0.00238875
0.00263105 -0.0007531 4.81708e-05
-0.0007531 0.000341594 -1.12603e-05
4.81708e-05 -1.12603e-05 -0.000162499
-0.000263516 -0.000100724 -2.96745e-06
-0.000100724 -7.78739e-06 1.16007e-05
-2.96745e-06 1.16007e-05 -0.000216529
0.000403554 -0.000194679 -3.46176e-06
-0.000194679 9.40516e-05 2.44768e-06
-3.46176e-06 2.44768e-06 -9.20813e-05
0.00405088 -0.000480886 3.02731e-05
-0.000480886 0.00155573 3.03419e-06
3.02731e-05 3.03419e-06 0.00148811
-0.00201412 -1.00768e-05 -5.8822e-06
-1.00768e-05 -0.00114369 8.02927e-06
-5.8822e-06 8.02927e-06 -0.00141018
0.000696946 -0.0002481 3.00861e-06
-0.0002481 -3.45081e-05 -2.55474e-07
3.00861e-06 -2.55474e-07 -0.000291655
0.00138623 -0.000367632 5.89223e-06
-0.000367632 2.54454e-05 1.35779e-06
5.89223e-06 1.35779e-06 -0.000171726
0.00229421 -0.000318313 -8.27081e-06
-0.000318313 0.000907459 2.02367e-06
-8.27081e-06 2.02367e-06 0.000607053
0.0012472 -0.000293451 -3.07533e-06
-0.000293451 0.000167483 -2.54984e-06
-3.07533e-06 -2.54984e-06 -0.000121345
0.00190775 -0.000385945 5.11476e-06
-0.000385945 0.000303927 -1.68059e-06
5.11476e-06 -1.68059e-06 8.98901e-05
0.00176437 -0.000310709 -3.61168e-06
-0.000310709 0.000464911 -8.3315e-07
-3.61168e-06 -8.3315e-07 0.000185507
0.00152917 -0.000311921 -2.52625e-07
-0.000311921 0.000204992 -3.11581e-06
-2.52625e-07 -3.11581e-06 -5.67747e-05
0.00179593 -0.000325443 1.13375e-06
-0.000325443 0.000215578 -4.95255e-06
1.13375e-06 -4.95255e-06 1.7408e-05
0.00156532 -0.000257035 -4.13957e-07
-0.000257035 9.73137e-05 -3.22431e-06
-4.13957e-07 -3.22431e-06 -7.54434e-05
0.00149033 -0.000278679 9.34303e-07
-0.000278679 0.000135713 -1.31323e-06
9.34303e-07 -1.31323e-06 -8.73915e-05
0.0015917 -0.000290779 1.22098e-06
-0.000290779 0.000169623 -9.01349e-07
1.22098e-06 -9.01349e-07 -4.3913e-05
0.001884 -0.000290884 -1.8066e-06
-0.000290884 0.000471815 5.87179e-06
-1.8066e-06 5.87179e-06 0.000260947
0.00181416 -0.000309744 -2.26121e-07
-0.000309744 0.000394124 3.51868e-07
-2.26121e-07 3.51868e-07 0.000150615
0.0018662 -0.000325527 -1.3893e-06
-0.000325527 0.000395914 -3.03431e-06
-1.3893e-06 -3.03431e-06 0.000132884
0.00103004 -0.000190477 2.77407e-06
-0.000190477 0.000169726 -6.872e-07
2.77407e-06 -6.872e-07 -4.72444e-06
0.000574909 -0.000165702 -1.08661e-06
-0.000165702 -0.00012356 -2.15726e-06
-1.08661e-06 -2.15726e-06 -0.000290579
0.00138819 -0.000236836 4.72695e-06
-0.000236836 0.000309043 -6.05247e-06
4.72695e-06 -6.05247e-06 0.000124535
0.000870501 -0.000115198 3.2898e-07
-0.000115198 0.000142797 8.52183e-07
3.2898e-07 8.52183e-07 -1.63216e-06
0.000888843 -0.000157262 1.22649e-07
-0.000157262 0.000147512 3.26542e-07
1.22649e-07 3.26542e-07 -2.06964e-05
0.00087677 -0.000170256 -1.62891e-06
-0.000170256 0.000113108 1.35488e-06
-1.62891e-06 1.35488e-06 -5.40042e-05
0.000569052 5.86621e-05 1.31797e-06
5.86621e-05 -1.82522e-05 3.60293e-06
1.31797e-06 3.60293e-06 -0.000101682
0.000794256 -3.94401e-05 4.79535e-07
-3.94401e-05 0.000126179 5.79416e-08
4.79535e-07 5.79416e-08 -7.98153e-07
0.000887454 -0.000101981 -1.51687e-06
-0.000101981 0.000191746 5.48773e-07
-1.51687e-06 5.48773e-07 4.51009e-05
0.00133121 8.66791e-05 -1.38513e-05
8.66791e-05 0.000415885 3.53331e-06
-1.38513e-05 3.53331e-06 0.000391528
0.000655034 3.3233e-05 -5.4772e-07
3.3233e-05 1.78114e-05 -5.44484e-07
-5.4772e-07 -5.44484e-07 -4.62596e-05
0.000808044 -3.08092e-05 -5.75155e-07
-3.08092e-05 0.000123745 -1.78259e-06
-5.75155e-07 -1.78259e-06 2.02075e-05
0.000771403 4.4847e-05 -2.58429e-05
4.4847e-05 8.76071e-05 3.35943e-06
-2.58429e-05 3.35943e-06 8.91082e-05
0.000991547 6.95312e-05 -7.37091e-06
6.95312e-05 0.00020819 1.82171e-07
-7.37091e-06 1.82171e-07 0.000187302
0.000687179 3.3693e-05 7.40714e-07
3.3693e-05 2.64661e-05 -2.18163e-06
7.40714e-07 -2.18163e-06 -2.69864e-05
0.000615052 5.31816e-05 5.87328e-07
5.31816e-05 -1.89657e-05 -3.9752e-06
5.87328e-07 -3.9752e-06 -3.79935e-05
0.00227543 8.16065e-05 2.08143e-06
8.16065e-05 0.000947926 1.81603e-07
2.08143e-06 1.81603e-07 0.000956434
0.0022628 7.17601e-05 2.34071e-05
7.17601e-05 0.000933329 -3.58661e-06
2.34071e-05 -3.58661e-06 0.000944092
0.000704139 1.68649e-05 -2.51349e-07
1.68649e-05 4.24644e-05 -8.41956e-07
-2.51349e-07 -8.41956e-07 -5.29035e-05
0.000792202 4.28327e-05 -3.76354e-07
4.28327e-05 9.88376e-05 -1.59193e-06
-3.76354e-07 -1.59193e-06 6.02187e-06
0.000731032 1.19401e-05 9.07613e-08
1.19401e-05 5.7604e-05 -1.99376e-09
9.07613e-08 -1.99376e-09 -3.47543e-05
0.000682658 -1.45531e-05 -1.13868e-06
-1.45531e-05 1.01544e-05 -2.44834e-06
-1.13868e-06 -2.44834e-06 -4.6061e-05
0.000755586 3.42643e-05 6.73835e-07
3.42643e-05 7.10866e-05 2.73027e-09
6.73835e-07 2.73027e-09 -1.38176e-05
0.000598125 -3.93016e-05 -1.58236e-07
-3.93016e-05 -4.17512e-05 -4.55249e-06
-1.58236e-07 -4.55249e-06 -6.14761e-05
0.000676578 2.85848e-07 -1.50893e-07
2.85848e-07 6.2592e-06 -3.59264e-08
-1.50893e-07 -3.59264e-08 -4.73225e-05
0.000770147 5.43036e-05 7.22543e-07
5.43036e-05 9.22612e-05 1.32587e-06
7.22543e-07 1.32587e-06 5.05279e-07
0.00241976 -5.99507e-05 -2.35309e-05
-5.99507e-05 0.00101177 -4.36234e-06
-2.35309e-05 -4.36234e-06 0.0010242
0.000615046 -3.12075e-05 -3.45017e-07
-3.12075e-05 -3.83784e-05 -2.31241e-08
-3.45017e-07 -2.31241e-08 -5.44832e-05
0.000678135 4.83645e-06 5.65747e-07
4.83645e-06 7.72615e-06 2.40143e-06
5.65747e-07 2.40143e-06 -4.23972e-05
0.00229988 -4.67094e-05 -3.20913e-06
-4.67094e-05 0.000936615 1.46557e-07
-3.20913e-06 1.46557e-07 0.000951775
0.000628337 -2.40121e-05 1.5408e-07
-2.40121e-05 -3.53483e-05 4.01632e-06
1.5408e-07 4.01632e-06 -4.80438e-05
0.00220363 -3.32708e-05 1.33222e-05
-3.32708e-05 0.000876357 4.63149e-06
1.33222e-05 4.63149e-06 0.000893837
0.00264874 -2.28037e-05 6.32101e-05
-2.28037e-05 0.000915563 3.53791e-05
6.32101e-05 3.53791e-05 0.000118078
0.000958054 -5.65401e-05 4.8466e-07
-5.65401e-05 0.000180223 9.93721e-06
4.8466e-07 9.93721e-06 -0.000109252
0.00139177 -3.86196e-05 -1.43734e-05
-3.86196e-05 2.05354e-05 -6.73108e-06
-1.43734e-05 -6.73108e-06 -5.26258e-05
0.000812028 8.10555e-05 -2.81921e-06
8.10555e-05 0.000114098 -5.21208e-07
-2.81921e-06 -5.21208e-07 6.45205e-06
0.000824555 2.95533e-05 4.40405e-07
2.95533e-05 0.000109599 2.994e-07
4.40405e-07 2.994e-07 1.72519e-05
0.000670779 -2.55004e-06 6.94726e-07
-2.55004e-06 2.21268e-05 6.41538e-07
6.94726e-07 6.41538e-07 -7.0916e-05
0.000818093 3.30277e-06 3.89504e-08
3.30277e-06 0.000101339 -1.05058e-07
3.89504e-08 -1.05058e-07 1.01054e-05
0.000878824 3.97498e-05 -1.11361e-07
3.97498e-05 0.000144535 -2.27684e-07
-1.11361e-07 -2.27684e-07 4.48386e-05
0.000820706 6.41326e-05 4.51815e-07
6.41326e-05 0.000120093 7.74606e-07
4.51815e-07 7.74606e-07 1.33567e-05
0.000810179 5.1088e-05 -1.58908e-06
5.1088e-05 0.000113346 -2.33131e-06
-1.58908e-06 -2.33131e-06 1.28558e-06
0.000455314 -4.71218e-06 -5.96847e-07
-4.71218e-06 -9.12401e-05 -6.68551e-07
-5.96847e-07 -6.68551e-07 -0.000191011
0.000831006 8.75886e-05 4.01663e-07
8.75886e-05 0.000121696 -2.81282e-07
4.01663e-07 -2.81282e-07 1.85654e-05
0.000760105 -1.22163e-05 1.47009e-06
-1.22163e-05 5.73859e-05 8.72038e-08
1.47009e-06 8.72038e-08 -3.5635e-05
0.000817127 3.352e-05 -3.34082e-07
3.352e-05 0.000118248 8.62003e-08
-3.34082e-07 8.62003e-08 1.75881e-05
0.00134435 7.36202e-05 4.58547e-06
7.36202e-05 0.00045475 3.94117e-06
4.58547e-06 3.94117e-06 0.000358401
0.00116635 -0.000482807 6.0846e-05
-0.000482807 0.00159913 0.000109216
6.0846e-05 0.000109216 0.00090168
0.00256208 9.24354e-05 8.73223e-06
9.24354e-05 0.00099505 3.75588e-05
8.73223e-06 3.75588e-05 -0.000585091
0.00137075 7.25248e-05 -8.18193e-06
7.25248e-05 0.00034972 -4.1639e-05
-8.18193e-06 -4.1639e-05 -0.000878378
0.00652368 -0.00102952 -0.000132226
-0.00102952 0.000462601 -0.000110551
-0.000132226 -0.000110551 0.00199066
0.00442734 -0.000295615 8.34446e-06
-0.000295615 0.000586981 0.00011527
8.34446e-06 0.00011527 -7.93091e-05
0.000488992 -0.000512058 -9.33178e-05
-0.000512058 0.000577724 8.6971e-05
-9.33178e-05 8.6971e-05 -0.0026328
0.00257678 -0.000182556 -5.72528e-05
-0.000182556 0.000411733 8.07117e-05
-5.72528e-05 8.07117e-05 -0.00010029
0.00396301 -8.2174e-05 1.29295e-05
-8.2174e-05 0.000748973 4.18447e-05
1.29295e-05 4.18447e-05 0.000517458
-0.000822206 -0.00121522 3.90615e-05
-0.00121522 -0.00149658 5.45169e-05
3.90615e-05 5.45169e-05 0.000264119
0.0053537 0.000458901 4.66701e-06
0.000458901 0.00289897 2.96e-06
4.66701e-06 2.96e-06 -0.000368217
0.00152817 -0.000660269 -1.62628e-05
-0.000660269 -0.00131478 2.40847e-05
-1.62628e-05 2.40847e-05 -0.00115739
0.001519 0.00030814 -1.61014e-05
0.00030814 -0.000286317 1.31657e-05
-1.61014e-05 1.31657e-05 -0.000466129
0.00798275 0.000161935 -3.42762e-05
0.000161935 0.00398416 2.05635e-05
-3.42762e-05 2.05635e-05 0.00139867
0.000551191 -0.00101062 -7.32334e-05
-0.00101062 -0.000745525 -8.7041e-05
-7.32334e-05 -8.7041e-05 -0.000235597
0.000497301 0.000193317 6.71097e-07
0.000193317 -3.48386e-05 -4.76476e-06
6.71097e-07 -4.76476e-06 -0.000123332
0.000813074 5.39885e-05 6.22156e-06
5.39885e-05 0.000163744 -1.35614e-07
6.22156e-06 -1.35614e-07 8.41396e-05
0.00105709 1.95806e-05 -3.43038e-07
1.95806e-05 0.000258315 1.03836e-06
-3.43038e-07 1.03836e-06 0.000156655
0.000114697 3.69125e-06 -0.000130598
3.69125e-06 0.000622369 -3.03483e-05
-0.000130598 -3.03483e-05 -0.000400813
-0.00117741 7.27724e-05 8.02646e-06
7.27724e-05 -0.000711371 -9.42233e-06
8.02646e-06 -9.42233e-06 -0.000854611
0.000983567 0.000100945 2.9807e-06
0.000100945 0.000309393 -3.11623e-06
2.9807e-06 -3.11623e-06 0.000188192
0.000766948 0.000184972 6.53638e-06
0.000184972 0.000268686 2.77669e-06
6.53638e-06 2.77669e-06 0.000145074
0.000777563 0.000204532 -5.17162e-06
0.000204532 0.000378671 -2.78098e-05
-5.17162e-06 -2.78098e-05 -0.000158745
6.67749e-05 0.000321603 1.55256e-05
0.000321603 -0.000345307 1.4e-06
1.55256e-05 1.4e-06 -0.000574325
0.000297816 7.44176e-05 0.00011193
7.44176e-05 0.00216345 7.57327e-06
0.00011193 7.57327e-06 0.000957092
0.00167432 -2.36693e-05 -5.69136e-06
-2.36693e-05 0.00057061 1.05351e-05
-5.69136e-06 1.05351e-05 -0.000174348
0.000765957 -1.82347e-05 2.55118e-06
-1.82347e-05 0.000170302 4.6794e-06
2.55118e-06 4.6794e-06 -8.84872e-05
0.0013173 -8.95343e-05 -3.82592e-05
-8.95343e-05 0.000801527 7.34989e-06
-3.82592e-05 7.34989e-06 0.000638054
0.000845395 -0.000151764 -2.39817e-05
-0.000151764 -0.000915845 -1.46467e-05
-2.39817e-05 -1.46467e-05 -0.000837698
0.00172821 -4.57423e-05 -7.88179e-05
-4.57423e-05 0.000399133 2.49652e-05
-7.88179e-05 2.49652e-05 -0.000551548
-0.00115747 -0.000812081 5.05739e-05
-0.000812081 -0.000512676 -5.74298e-05
5.05739e-05 -5.74298e-05 -0.00352033
-0.00336878 0.000846688 7.00525e-05
0.000846688 -0.00357809 -8.5665e-05
7.00525e-05 -8.5665e-05 -0.00282313
0.00155649 0.00049522 -0.000102815
0.00049522 0.00209903 0.000100434
-0.000102815 0.000100434 0.00185661
0.00203095 -0.000100883 -3.28452e-06
-0.000100883 0.000417871 1.56246e-06
-3.28452e-06 1.56246e-06 0.000699256
0.00152297 0.000152505 1.15769e-05
0.000152505 0.00225938 8.53249e-06
1.15769e-05 8.53249e-06 0.00152844
-0.00369943 0.000621969 3.16407e-05
0.000621969 -0.00117782 4.96324e-06
3.16407e-05 4.96324e-06 -0.00191256
0.00383393 -0.000819414 7.89281e-06
-0.000819414 0.00124133 -1.35378e-06
7.89281e-06 -1.35378e-06 0.000327901
0.00956893 -0.000129342 3.51531e-06
-0.000129342 0.00357621 -5.97468e-06
3.51531e-06 -5.97468e-06 0.00175406
0.0014891 -0.00034484 2.74317e-06
-0.00034484 0.000167628 2.06691e-05
2.74317e-06 2.06691e-05 0.00026597
-0.0069726 0.000242562 -0.000134972
0.000242562 -0.00337528 -1.50688e-06
-0.000134972 -1.50688e-06 -0.00381568
0.00898673 -2.43554e-05 -3.92459e-05
-2.43554e-05 0.00285031 1.84734e-05
-3.92459e-05 1.84734e-05 0.00138234
0.00496668 -0.000921028 -3.01106e-06
-0.000921028 0.000575018 2.55836e-06
-3.01106e-06 2.55836e-06 -0.000232969
0.000379846 -0.000174553 -2.07797e-05
-0.000174553 0.000118221 1.48e-05
-2.07797e-05 1.48e-05 -0.000118641
0.00168312 -0.000331433 -2.88623e-06
-0.000331433 0.000265973 9.72995e-07
-2.88623e-06 9.72995e-07 0.00027176
0.00264599 -0.000375909 1.58794e-05
-0.000375909 0.000566436 -1.68382e-06
1.58794e-05 -1.68382e-06 0.000574517
-0.000864906 -0.000117062 -5.54915e-06
-0.000117062 -0.000805056 4.89044e-07
-5.54915e-06 4.89044e-07 -0.00107349
0.00135019 -0.000360519 -3.17804e-06
-0.000360519 2.73557e-05 -7.17067e-07
-3.17804e-06 -7.17067e-07 -0.000178514
0.00212004 -0.000423019 1.50647e-06
-0.000423019 0.000276851 1.27051e-06
1.50647e-06 1.27051e-06 0.000113951
0.00152255 -0.000311278 -9.03848e-06
-0.000311278 0.000301537 -2.69157e-06
-9.03848e-06 -2.69157e-06 2.59377e-05
0.00149701 -0.000353477 8.58909e-07
-0.000353477 0.000100114 7.31522e-07
8.58909e-07 7.31522e-07 -0.000115442
0.00202834 -0.000349402 -1.82578e-06
-0.000349402 0.000254351 -3.56608e-06
-1.82578e-06 -3.56608e-06 9.41742e-05
0.00118485 -0.00028537 -6.50404e-06
-0.00028537 6.82036e-06 -1.97374e-07
-6.50404e-06 -1.97374e-07 -0.000246052
0.00165074 -0.000313181 -4.18108e-07
-0.000313181 0.000133689 4.70487e-07
-4.18108e-07 4.70487e-07 -6.22472e-05
0.00179324 -0.000276843 -7.66022e-07
-0.000276843 0.000137275 -4.98811e-06
-7.66022e-07 -4.98811e-06 -3.49143e-06
0.00157624 -0.000218145 -1.88259e-06
-0.000218145 4.8215e-05 -3.32688e-06
-1.88259e-06 -3.32688e-06 -8.71119e-05
0.00154142 -0.000244429 -4.62388e-07
-0.000244429 0.000116764 -2.53829e-06
-4.62388e-07 -2.53829e-06 -6.82344e-05
0.00151895 -0.000249388 4.50738e-07
-0.000249388 7.09621e-05 1.47691e-06
4.50738e-07 1.47691e-06 -9.93032e-05
0.00139251 -0.00025485 -3.51492e-06
-0.00025485 0.000102374 1.11601e-06
-3.51492e-06 1.11601e-06 -0.000102518
0.00155806 -0.000279742 2.24047e-06
-0.000279742 0.000176436 -5.90095e-07
2.24047e-06 -5.90095e-07 -4.31245e-05
0.00153778 -0.000286997 8.7745e-07
-0.000286997 0.00013905 2.47596e-06
8.7745e-07 2.47596e-06 -7.29854e-05
0.00120707 -0.00021838 1.29679e-06
-0.00021838 0.00017746 3.53966e-06
1.29679e-06 3.53966e-06 -1.24958e-05
0.00109061 -0.000231016 2.95203e-06
-0.000231016 3.80996e-05 -1.12956e-06
2.95203e-06 -1.12956e-06 -0.000166191
0.000907442 -0.000241985 -9.2828e-07
-0.000241985 -0.000105801 -4.58704e-06
-9.2828e-07 -4.58704e-06 -0.000348016
0.000915952 -0.000160532 -1.19092e-06
-0.000160532 0.000117811 5.27465e-07
-1.19092e-06 5.27465e-07 -3.79258e-05
0.00109348 -0.000194402 -9.42477e-08
-0.000194402 0.000200016 -1.3403e-06
-9.42477e-08 -1.3403e-06 2.56415e-05
0.000807635 -0.000180954 -2.27456e-06
-0.000180954 1.26174e-05 -5.18988e-06
-2.27456e-06 -5.18988e-06 -0.000151941
0.000706302 -3.52412e-05 -2.25467e-07
-3.52412e-05 4.70428e-05 3.91393e-06
-2.25467e-07 3.91393e-06 -5.59111e-05
0.000924356 -0.000118843 8.31669e-07
-0.000118843 0.000171664 4.25868e-07
8.31669e-07 4.25868e-07 2.65279e-05
0.000647122 -0.000127944 -2.03918e-06
-0.000127944 1.10121e-05 1.41768e-06
-2.03918e-06 1.41768e-06 -0.000151731
0.000481363 7.51572e-05 2.04609e-06
7.51572e-05 -6.18644e-05 6.00796e-06
2.04609e-06 6.00796e-06 -9.96586e-05
0.000683072 -3.72355e-06 -5.35768e-07
-3.72355e-06 4.19415e-05 -4.40107e-07
-5.35768e-07 -4.40107e-07 -4.26996e-05
0.000870528 -6.88064e-05 -1.30286e-08
-6.88064e-05 0.000171456 -1.61378e-06
-1.30286e-08 -1.61378e-06 3.9496e-05
0.00237791 0.00011255 -8.91007e-06
0.00011255 0.0010239 1.36403e-06
-8.91007e-06 1.36403e-06 0.00102417
0.000585677 7.13635e-05 -1.45923e-07
7.13635e-05 -1.23998e-05 -1.4723e-07
-1.45923e-07 -1.4723e-07 -4.16454e-05
0.000709158 1.27105e-05 1.46896e-06
1.27105e-05 4.59821e-05 -2.98239e-06
1.46896e-06 -2.98239e-06 -1.79086e-05
0.00231875 9.16323e-05 2.14424e-06
9.16323e-05 0.000980612 1.82732e-07
2.14424e-06 1.82732e-07 0.000986657
0.000615543 6.35391e-05 -4.15926e-07
6.35391e-05 -6.76457e-06 -4.35883e-06
-4.15926e-07 -4.35883e-06 -3.02704e-05
0.00231692 8.3199e-05 2.75729e-05
8.3199e-05 0.000972646 -3.19631e-06
2.75729e-05 -3.19631e-06 0.000980782
0.00087613 7.79493e-05 -6.68087e-07
7.79493e-05 0.00014349 2.16629e-07
-6.68087e-07 2.16629e-07 3.77117e-05
0.000770379 2.98291e-05 -1.02157e-07
2.98291e-05 8.11733e-05 -2.79681e-07
-1.02157e-07 -2.79681e-07 -1.61779e-05
0.000786957 2.28014e-05 -2.32268e-07
2.28014e-05 0.000101981 -1.98343e-06
-2.32268e-07 -1.98343e-06 1.20029e-06
0.000683334 -1.97017e-05 -1.225e-06
-1.97017e-05 1.43648e-05 -2.85295e-06
-1.225e-06 -2.85295e-06 -4.52209e-05
0.0007411 1.50204e-05 5.89752e-07
1.50204e-05 6.69006e-05 5.0635e-08
5.89752e-07 5.0635e-08 -2.28716e-05
0.000694684 2.19386e-05 9.83672e-07
2.19386e-05 4.16493e-05 7.90832e-07
9.83672e-07 7.90832e-07 -5.42629e-05
0.000591338 -4.82889e-05 -2.62625e-08
-4.82889e-05 -3.81776e-05 -4.85486e-06
-2.62625e-08 -4.85486e-06 -6.13137e-05
0.00067202 -7.78619e-06 -1.13836e-07
-7.78619e-06 4.97054e-06 -4.69984e-08
-1.13836e-07 -4.69984e-08 -5.14687e-05
0.000743042 3.05049e-05 1.37805e-06
3.05049e-05 6.13405e-05 1.17898e-06
1.37805e-06 1.17898e-06 -2.1249e-05
0.00250635 -7.16711e-05 -2.92467e-05
-7.16711e-05 0.00106777 -4.05268e-06
-2.92467e-05 -4.05268e-06 0.00107782
0.000599605 -3.77018e-05 -3.30769e-07
-3.77018e-05 -4.1406e-05 -2.31983e-09
-3.30769e-07 -2.31983e-09 -6.08512e-05
0.000678191 2.41675e-06 9.78438e-07
2.41675e-06 7.75998e-06 2.41403e-06
9.78438e-07 2.41403e-06 -4.59299e-05
0.00238968 -5.89547e-05 -3.5405e-06
-5.89547e-05 0.000993722 1.88885e-07
-3.5405e-06 1.88885e-07 0.0010065
0.000616193 -3.04792e-05 8.89158e-08
-3.04792e-05 -3.78467e-05 4.27299e-06
8.89158e-08 4.27299e-06 -5.38056e-05
0.00227594 -4.54562e-05 1.75319e-05
-4.54562e-05 0.000922137 4.52971e-06
1.75319e-05 4.52971e-06 0.000937665
-0.00360666 -2.25536e-05 8.31419e-06
-2.25536e-05 0.000208975 4.00648e-05
8.31419e-06 4.00648e-05 -0.00123829
0.00255123 -5.32543e-05 9.91613e-07
-5.32543e-05 0.000937808 1.21909e-05
9.91613e-07 1.21909e-05 0.000147994
0.00107034 -5.54038e-05 -3.15056e-06
-5.54038e-05 0.000223774 -7.63656e-06
-3.15056e-06 -7.63656e-06 -3.17142e-05
0.000687041 4.44031e-05 -6.22162e-07
4.44031e-05 3.98407e-05 4.56952e-07
-6.22162e-07 4.56952e-07 -6.2372e-05
0.00132969 0.000184093 -7.66877e-07
0.000184093 0.000418502 7.62044e-07
-7.66877e-07 7.62044e-07 0.000284452
0.000734766 4.50685e-05 -2.07709e-06
4.50685e-05 7.43059e-05 -2.35223e-07
-2.07709e-06 -2.35223e-07 -3.70155e-05
0.000953952 -1.44293e-07 6.30424e-07
-1.44293e-07 0.000175937 -6.96438e-08
6.30424e-07 -6.96438e-08 8.61253e-05
0.00104701 7.36279e-05 1.65459e-06
7.36279e-05 0.000239282 5.19422e-07
1.65459e-06 5.19422e-07 0.000138113
0.000607566 1.57453e-05 2.79345e-07
1.57453e-05 -8.97152e-06 2.22052e-06
2.79345e-07 2.22052e-06 -0.000106369
0.000664136 2.77295e-05 -1.10319e-06
2.77295e-05 3.41441e-05 1.279e-07
-1.10319e-06 1.279e-07 -7.40494e-05
0.000773998 3.6728e-05 -1.23602e-07
3.6728e-05 9.10314e-05 -3.12915e-07
-1.23602e-07 -3.12915e-07 -1.8382e-05
0.000915979 7.63757e-05 3.05696e-07
7.63757e-05 0.000195269 -1.89093e-06
3.05696e-07 -1.89093e-06 6.37326e-05
0.000546352 0.000122283 3.54613e-06
0.000122283 -6.73088e-05 -6.11196e-06
3.54613e-06 -6.11196e-06 -0.00016249
0.000796596 5.37407e-05 3.94658e-07
5.37407e-05 0.000109717 -4.64422e-07
3.94658e-07 -4.64422e-07 3.95516e-06
0.000878946 7.41084e-05 6.99485e-07
7.41084e-05 0.000192145 1.63811e-06
6.99485e-07 1.63811e-06 9.23999e-05
-0.00523973 -0.000559564 -0.000196597
-0.000559564 -0.00179966 2.31816e-05
-0.000196597 2.31816e-05 -0.00241617
-0.00182822 -0.000407449 8.69895e-05
-0.000407449 0.000514264 3.8686e-05
8.69895e-05 3.8686e-05 -0.000395424
0.00298148 0.000104331 -8.01475e-05
0.000104331 0.00118306 -6.57878e-05
-8.01475e-05 -6.57878e-05 -0.000450413
-0.00678904 -0.00125131 0.000205885
-0.00125131 -0.00363527 0.000198016
0.000205885 0.000198016 -0.0017515
0.00892792 -0.000899312 -4.4837e-05
-0.000899312 0.00269256 5.03322e-05
-4.4837e-05 5.03322e-05 0.00276523
6.15806e-06 0.000683122 9.42443e-06
0.000683122 -9.72744e-05 -2.89323e-05
9.42443e-06 -2.89323e-05 -0.00319858
0.00379844 -6.59716e-05 -0.000142711
-6.59716e-05 0.000925718 6.03068e-05
-0.000142711 6.03068e-05 0.00020748
0.00288551 0.00024204 -2.25067e-05
0.00024204 0.000562131 1.27222e-05
-2.25067e-05 1.27222e-05 0.000247121
0.00696362 -0.00107486 -7.59745e-05
-0.00107486 0.00338369 3.87272e-05
-7.59745e-05 3.87272e-05 0.00359312
0.000921584 0.000444518 5.86909e-06
0.000444518 0.000684347 -6.36703e-06
5.86909e-06 -6.36703e-06 -0.00189734
0.00207498 0.000524296 -8.94326e-05
0.000524296 0.000586617 -7.12626e-05
-8.94326e-05 -7.12626e-05 -1.70559e-05
0.00373537 0.00086323 -0.000159149
0.00086323 0.000636162 -7.73839e-05
-0.000159149 -7.73839e-05 -0.00144508
0.00205589 0.000462788 1.26213e-05
0.000462788 0.000503389 -1.6902e-05
1.26213e-05 -1.6902e-05 0.000319541
0.000736671 0.000196677 -5.12745e-06
0.000196677 9.14939e-05 1.31614e-06
-5.12745e-06 1.31614e-06 3.73397e-06
0.00106603 5.77522e-05 5.61598e-07
5.77522e-05 0.000298287 -2.28122e-06
5.61598e-07 -2.28122e-06 0.000219323
-0.000559391 0.000154299 -3.30199e-05
0.000154299 -0.000222471 -3.18411e-05
-3.30199e-05 -3.18411e-05 -0.000658898
0.00240958 0.000294523 -1.0074e-05
0.000294523 0.00110657 -9.86094e-06
-1.0074e-05 -9.86094e-06 0.000970927
0.00118358 0.000413871 1.06543e-05
0.000413871 0.000128643 -3.17713e-06
1.06543e-05 -3.17713e-06 -0.000102209
0.00265867 0.000633155 7.55364e-05
0.000633155 0.00025175 2.99984e-05
7.55364e-05 2.99984e-05 0.000207919
-0.00413835 -3.34718e-05 -0.000214552
-3.34718e-05 -0.00250528 -6.39531e-06
-0.000214552 -6.39531e-06 -0.00191375
-0.0014148 4.31508e-05 7.37042e-05
4.31508e-05 0.00140965 1.27271e-06
7.37042e-05 1.27271e-06 6.48535e-05
0.00161185 -4.87217e-05 -5.58244e-05
-4.87217e-05 0.000565909 1.29056e-05
-5.58244e-05 1.29056e-05 -5.06107e-05
0.0027449 -0.000206159 -5.32849e-05
-0.000206159 0.000712306 -3.09551e-05
-5.32849e-05 -3.09551e-05 0.000978949
0.00270685 -0.000781513 -3.92261e-05
-0.000781513 0.000430297 -1.80416e-07
-3.92261e-05 -1.80416e-07 -0.000286863
0.00190128 0.000105075 -2.38242e-05
0.000105075 0.00246822 2.92723e-05
-2.38242e-05 2.92723e-05 0.00180478
0.000655268 -0.00041979 0.000106967
-0.00041979 -0.000325387 -8.99514e-05
0.000106967 -8.99514e-05 -0.00269105
0.0088815 0.000676751 1.28515e-05
0.000676751 0.00431737 9.70237e-06
1.28515e-05 9.70237e-06 0.003983
0.00223438 -0.000485351 -1.3583e-05
-0.000485351 0.000436022 5.01989e-06
-1.3583e-05 5.01989e-06 0.000410483
-0.00109118 0.000375027 2.41393e-05
0.000375027 -0.000508082 -8.54703e-06
2.41393e-05 -8.54703e-06 -0.000850544
0.00380369 -5.23393e-05 -2.73274e-05
-5.23393e-05 0.000203793 3.84333e-05
-2.73274e-05 3.84333e-05 -0.00175116
0.00582822 -0.000914204 -3.02265e-05
-0.000914204 0.0014216 1.11436e-05
-3.02265e-05 1.11436e-05 0.000610661
-0.000509469 -0.000224419 2.85633e-05
-0.000224419 -0.000811429 -6.79326e-06
2.85633e-05 -6.79326e-06 -0.00104475
0.00847463 -0.000286232 3.54064e-05
-0.000286232 0.00216233 -2.46726e-05
3.54064e-05 -2.46726e-05 0.00100199
0.00362587 -0.000402171 4.20836e-05
-0.000402171 0.000168572 -2.48194e-05
4.20836e-05 -2.48194e-05 -0.000249178
-0.000701385 -0.000185452 -2.09388e-05
-0.000185452 -0.00103621 6.30876e-06
-2.09388e-05 6.30876e-06 -0.000954795
0.000919011 -0.000287436 -4.68058e-06
-0.000287436 -0.00035492 -8.2096e-07
-4.68058e-06 -8.2096e-07 -0.000316774
0.00257393 -0.000387494 1.6961e-05
-0.000387494 0.000374525 -1.42312e-05
1.6961e-05 -1.42312e-05 0.000390172
0.000953109 -0.000327184 -1.0159e-05
-0.000327184 -0.000154352 -3.64797e-06
-1.0159e-05 -3.64797e-06 -0.000362616
0.00166734 -0.00038946 -8.02917e-07
-0.00038946 4.46687e-05 -3.68351e-07
-8.02917e-07 -3.68351e-07 -0.000108759
0.00207093 -0.000357157 -5.69846e-06
-0.000357157 0.000158558 -5.72509e-08
-5.69846e-06 -5.72509e-08 5.39288e-05
0.00129234 -0.000335353 -7.08076e-07
-0.000335353 4.88872e-06 1.10329e-06
-7.08076e-07 1.10329e-06 -0.000211803
0.00176763 -0.000332702 -2.32962e-06
-0.000332702 0.000117621 -4.74081e-07
-2.32962e-06 -4.74081e-07 -4.19254e-05
0.00181406 -0.000272678 -3.52579e-06
-0.000272678 5.44081e-05 -1.22482e-06
-3.52579e-06 -1.22482e-06 -5.1395e-05
0.00149682 -0.000300162 1.08612e-06
-0.000300162 4.78711e-05 4.11282e-06
1.08612e-06 4.11282e-06 -0.000145792
0.00170813 -0.000267718 -1.50341e-07
-0.000267718 9.52121e-05 3.44335e-07
-1.50341e-07 3.44335e-07 -4.37307e-05
0.00177797 -0.000226593 -1.17813e-06
-0.000226593 0.000101101 -1.94708e-06
-1.17813e-06 -1.94708e-06 -1.50661e-06
0.00179248 -0.000204542 -9.15736e-07
-0.000204542 0.000162994 -1.08574e-06
-9.15736e-07 -1.08574e-06 5.1095e-05
0.00159 -0.000216276 -2.39871e-06
-0.000216276 5.66035e-05 2.68872e-06
-2.39871e-06 2.68872e-06 -7.48837e-05
0.00171887 -0.00021833 2.92873e-07
-0.00021833 0.000168806 -5.42347e-06
2.92873e-07 -5.42347e-06 2.01519e-05
0.00164856 -0.000240557 -3.32059e-06
-0.000240557 0.000198462 -1.48216e-06
-3.32059e-06 -1.48216e-06 1.58478e-05
0.00157901 -0.00024613 1.27796e-06
-0.00024613 0.000135914 5.18763e-07
1.27796e-06 5.18763e-07 -4.88642e-05
0.00147272 -0.000241455 1.97917e-07
-0.000241455 4.46048e-05 6.11292e-06
1.97917e-07 6.11292e-06 -0.000123112
0.00115449 -0.000217161 -5.74682e-06
-0.000217161 3.26927e-05 2.43939e-06
-5.74682e-06 2.43939e-06 -0.000155944
0.0012629 -0.000243617 9.29679e-07
-0.000243617 3.36451e-05 -4.36247e-07
9.29679e-07 -4.36247e-07 -0.000168442
0.00160306 -0.000279398 3.9091e-06
-0.000279398 0.000204434 -2.2894e-07
3.9091e-06 -2.2894e-07 -1.14512e-05
0.00108218 -0.000185885 -1.5179e-06
-0.000185885 0.000156084 2.85107e-06
-1.5179e-06 2.85107e-06 -1.5225e-05
0.00123549 -0.000218659 1.0037e-06
-0.000218659 0.000188794 7.70438e-07
1.0037e-06 7.70438e-07 -6.49921e-07
0.000364424 -0.000176136 -2.54389e-07
-0.000176136 -0.000357979 -6.31889e-06
-2.54389e-07 -6.31889e-06 -0.000555354
0.000747317 -9.71559e-05 -4.00382e-06
-9.71559e-05 4.58212e-05 3.3606e-06
-4.00382e-06 3.3606e-06 -7.23549e-05
0.00104521 -0.00017203 5.0206e-08
-0.00017203 0.000188 -6.53676e-07
5.0206e-08 -6.53676e-07 3.05964e-05
0.00114169 -0.000197242 -1.6909e-06
-0.000197242 0.000222262 -2.44856e-06
-1.6909e-06 -2.44856e-06 4.80199e-05
0.000472439 4.03908e-05 3.50167e-07
4.03908e-05 -7.64004e-05 7.80216e-06
3.50167e-07 7.80216e-06 -0.000119902
0.000745292 -5.54936e-05 3.73966e-07
-5.54936e-05 7.14818e-05 3.34651e-07
3.73966e-07 3.34651e-07 -3.60301e-05
0.00100692 -0.000127452 8.46606e-07
-0.000127452 0.000218278 -7.08428e-08
8.46606e-07 -7.08428e-08 7.03174e-05
0.00261569 0.000117539 -4.04459e-05
0.000117539 0.00116407 2.30299e-06
-4.04459e-05 2.30299e-06 0.00116324
0.000562928 6.16971e-05 -1.48069e-07
6.16971e-05 -2.06012e-05 -4.09724e-07
-1.48069e-07 -4.09724e-07 -5.60711e-05
0.000781933 -4.55008e-05 2.58884e-06
-4.55008e-05 9.63108e-05 -4.00234e-06
2.58884e-06 -4.00234e-06 9.35316e-06
0.00165645 8.41702e-05 1.74063e-05
8.41702e-05 0.000605802 -1.93873e-07
1.74063e-05 -1.93873e-07 0.000605212
0.000622004 6.83802e-05 -1.19922e-06
6.83802e-05 7.65903e-06 -5.248e-06
-1.19922e-06 -5.248e-06 -2.11386e-05
0.00240038 9.41767e-05 3.33113e-05
9.41767e-05 0.00102815 -2.7359e-06
3.33113e-05 -2.7359e-06 0.00103368
0.000896639 9.20314e-05 9.26774e-07
9.20314e-05 0.000148443 5.57757e-07
9.26774e-07 5.57757e-07 3.81371e-05
0.000716097 3.74536e-05 -2.37725e-07
3.74536e-05 4.69896e-05 4.84984e-07
-2.37725e-07 4.84984e-07 -5.12023e-05
0.000727569 -3.02964e-06 1.02224e-08
-3.02964e-06 6.23895e-05 -1.68382e-06
1.02224e-08 -1.68382e-06 -3.74159e-05
0.000874286 5.14292e-05 6.99854e-07
5.14292e-05 0.00014175 6.41075e-07
6.99854e-07 6.41075e-07 4.16433e-05
0.000737417 -9.81722e-07 2.68234e-07
-9.81722e-07 6.25149e-05 6.78354e-09
2.68234e-07 6.78354e-09 -2.92912e-05
0.000677566 -2.02856e-05 -1.26344e-06
-2.02856e-05 1.56042e-05 -3.27373e-06
-1.26344e-06 -3.27373e-06 -4.87578e-05
0.000588687 -5.55085e-05 3.96746e-08
-5.55085e-05 -3.10503e-05 -5.27311e-06
3.96746e-08 -5.27311e-06 -5.72333e-05
0.000667172 -1.62518e-05 1.91927e-07
-1.62518e-05 5.79655e-06 -8.8313e-08
1.91927e-07 -8.8313e-08 -5.38542e-05
0.000693769 -1.59472e-05 1.79876e-07
-1.59472e-05 2.86257e-05 1.37082e-06
1.79876e-07 1.37082e-06 -5.22129e-05
0.00255932 -8.26224e-05 -3.48994e-05
-8.26224e-05 0.00110487 -3.64063e-06
-3.48994e-05 -3.64063e-06 0.00111275
0.000586181 -4.45033e-05 -3.4406e-07
-4.45033e-05 -4.20292e-05 3.9706e-08
-3.4406e-07 3.9706e-08 -6.45407e-05
0.000669526 -2.20617e-07 1.7585e-06
-2.20617e-07 4.56613e-06 2.53666e-06
1.7585e-06 2.53666e-06 -5.22311e-05
0.00248318 -7.09303e-05 -3.48156e-06
-7.09303e-05 0.0010538 2.195e-07
-3.48156e-06 2.195e-07 0.00106406
0.000602256 -3.66174e-05 3.34816e-07
-3.66174e-05 -4.01323e-05 4.508e-06
3.34816e-07 4.508e-06 -5.94058e-05
0.00236645 -5.79844e-05 2.16005e-05
-5.79844e-05 0.00097956 4.38287e-06
2.16005e-05 4.38287e-06 0.00099266
0.000614633 0.000246355 -6.54722e-05
0.000246355 0.00114046 5.22797e-05
-6.54722e-05 5.22797e-05 0.000352928
-0.00119915 -0.000112205 5.55871e-06
-0.000112205 0.00106779 1.17307e-05
5.55871e-06 1.17307e-05 -0.000298148
0.00250911 -7.58115e-05 -5.44655e-05
-7.58115e-05 0.00104143 -9.49642e-06
-5.44655e-05 -9.49642e-06 0.000261919
0.000615858 1.42602e-05 1.58188e-06
1.42602e-05 -2.38317e-06 -1.02878e-07
1.58188e-06 -1.02878e-07 -0.000100459
0.000706993 2.30935e-05 8.22108e-07
2.30935e-05 5.67431e-05 6.08392e-07
8.22108e-07 6.08392e-07 -5.30808e-05
0.00106732 0.000157857 -7.40743e-07
0.000157857 0.000276207 4.89152e-07
-7.40743e-07 4.89152e-07 0.00014743
0.00130539 0.000207887 9.73806e-07
0.000207887 0.000367647 -4.46934e-07
9.73806e-07 -4.46934e-07 0.000211789
0.000930884 0.000117009 -3.7893e-06
0.000117009 0.000212337 -1.54944e-06
-3.7893e-06 -1.54944e-06 7.55599e-05
0.00087188 7.58033e-05 1.61954e-06
7.58033e-05 0.000151136 1.66859e-06
1.61954e-06 1.66859e-06 4.06856e-05
0.000764309 4.37778e-05 2.06581e-06
4.37778e-05 8.61741e-05 1.66277e-06
2.06581e-06 1.66277e-06 -2.29388e-05
0.000705046 9.21714e-05 -2.06848e-06
9.21714e-05 7.63417e-05 -1.99626e-06
-2.06848e-06 -1.99626e-06 -4.92697e-05
-0.000426485 6.89445e-05 -8.64008e-07
6.89445e-05 -0.0005819 -7.73282e-08
-8.64008e-07 -7.73282e-08 -0.000717833
0.00112149 0.000190098 3.90265e-07
0.000190098 0.000214799 -4.27223e-06
3.90265e-07 -4.27223e-06 0.000103257
0.00225799 0.000412585 3.71224e-06
0.000412585 0.000544635 -1.25924e-05
3.71224e-06 -1.25924e-05 0.000362283
0.000610759 0.000128689 -3.64023e-06
0.000128689 -7.53468e-06 -4.47492e-07
-3.64023e-06 -4.47492e-07 -0.00010297
0.000653101 2.63192e-05 9.48052e-07
2.63192e-05 4.22138e-05 -1.18429e-06
9.48052e-07 -1.18429e-06 -4.95621e-05
0.0115264 0.000322682 -6.75496e-05
0.000322682 0.00355686 2.08648e-05
-6.75496e-05 2.08648e-05 0.00225767
-0.00126068 -0.000462435 -0.000106137
-0.000462435 0.000492444 -2.72981e-05
-0.000106137 -2.72981e-05 -0.000300063
-0.000158763 -0.00055963 2.58146e-05
-0.00055963 0.000789044 -2.99563e-05
2.58146e-05 -2.99563e-05 -0.000164742
-0.00358209 -0.000493396 7.27049e-07
-0.000493396 -0.00149984 7.36712e-05
7.27049e-07 7.36712e-05 -0.0013442
0.0097394 0.00029404 3.95311e-05
0.00029404 0.00476498 -9.55445e-06
3.95311e-05 -9.55445e-06 0.00178228
0.00156724 0.000287426 -3.87431e-05
0.000287426 2.26001e-05 -7.10687e-06
-3.87431e-05 -7.10687e-06 -0.000178881
0.00142476 0.000501189 -3.03605e-05
0.000501189 0.000146886 -1.25355e-05
-3.03605e-05 -1.25355e-05 -0.000333521
0.00857982 0.000227446 3.78293e-05
0.000227446 0.00299541 1.56713e-05
3.78293e-05 1.56713e-05 0.00128344
0.00490145 0.000884763 -3.47948e-06
0.000884763 0.000849786 -3.3417e-05
-3.47948e-06 -3.3417e-05 0.000277839
0.00205637 0.00052225 1.32774e-06
0.00052225 0.000300067 6.37289e-06
1.32774e-06 6.37289e-06 0.000136562
0.000942953 0.000341232 4.39014e-06
0.000341232 3.09523e-05 -3.72129e-06
4.39014e-06 -3.72129e-06 -0.000149925
0.00101343 0.000194658 -1.46922e-05
0.000194658 0.000248666 9.70929e-06
-1.46922e-05 9.70929e-06 0.000163648
0.00210055 0.00050544 -2.89945e-05
0.00050544 0.000471524 -1.38581e-05
-2.89945e-05 -1.38581e-05 0.000256802
0.00228153 0.000605902 -8.84208e-06
0.000605902 7.99132e-05 1.5071e-05
-8.84208e-06 1.5071e-05 -4.46099e-06
0.000436992 -0.000237112 -2.15738e-05
-0.000237112 -0.00237698 -6.92818e-06
-2.15738e-05 -6.92818e-06 -0.00283816
0.00236143 -0.000223076 1.46623e-07
-0.000223076 0.00137807 -1.24428e-05
1.46623e-07 -1.24428e-05 0.00134856
-0.00316808 6.77348e-06 7.40459e-05
6.77348e-06 0.000711473 -6.92361e-06
7.40459e-05 -6.92361e-06 -0.00079086
0.0024869 -0.000560681 -4.49301e-05
-0.000560681 0.000498402 3.67363e-06
-4.49301e-05 3.67363e-06 0.000403299
0.00366674 -0.000830104 1.52681e-05
-0.000830104 0.000875644 -1.48457e-05
1.52681e-05 -1.48457e-05 -0.000255755
0.00118884 -0.000216816 0.000108834
-0.000216816 0.00127652 1.59771e-05
0.000108834 1.59771e-05 0.000725008
0.0104101 -1.08641e-05 -8.46167e-05
-1.08641e-05 0.00369962 4.46389e-05
-8.46167e-05 4.46389e-05 0.00198804
0.000703762 -0.000288096 -1.60377e-05
-0.000288096 -0.000294223 -1.65338e-06
-1.60377e-05 -1.65338e-06 -0.000424373
0.00743666 6.45738e-05 -1.45999e-05
6.45738e-05 0.00157697 2.36435e-05
-1.45999e-05 2.36435e-05 0.000640846
0.0044436 -0.000493925 6.07851e-05
-0.000493925 0.000334538 -2.71505e-07
6.07851e-05 -2.71505e-07 -0.000345996
0.00168684 -0.000278932 2.56625e-05
-0.000278932 0.000210521 -6.7488e-06
2.56625e-05 -6.7488e-06 -6.60177e-05
0.00303498 -0.000147073 -7.3745e-05
-0.000147073 0.000286112 -1.14588e-05
-7.3745e-05 -1.14588e-05 2.4106e-05
-0.000799439 -0.00019772 -1.83321e-05
-0.00019772 -0.00128229 4.52846e-06
-1.83321e-05 4.52846e-06 -0.00120855
0.00153736 -0.000341635 6.74134e-07
-0.000341635 -0.00015744 -8.44932e-07
6.74134e-07 -8.44932e-07 -0.000147479
0.0019789 -0.000264875 6.85177e-06
-0.000264875 -1.23791e-05 -5.66085e-06
6.85177e-06 -5.66085e-06 1.49951e-05
0.00141708 -0.000370972 -1.19898e-06
-0.000370972 -8.00337e-05 1.05965e-07
-1.19898e-06 1.05965e-07 -0.000228193
0.00180404 -0.000331454 -1.52401e-06
-0.000331454 3.79024e-05 -7.69703e-08
-1.52401e-06 -7.69703e-08 -6.43652e-05
0.00202746 -0.000247358 -2.07667e-06
-0.000247358 8.65837e-05 1.60247e-06
-2.07667e-06 1.60247e-06 3.73657e-05
0.00147966 -0.000313032 -1.95722e-06
-0.000313032 -3.25988e-05 2.91407e-06
-1.95722e-06 2.91407e-06 -0.000191221
0.00182221 -0.000271125 4.96643e-07
-0.000271125 6.01723e-05 1.27819e-06
4.96643e-07 1.27819e-06 -4.52531e-05
0.00178036 -0.000224948 -8.0241e-07
-0.000224948 3.90337e-05 9.86555e-07
-8.0241e-07 9.86555e-07 -4.10843e-05
0.00162531 -0.000259182 2.05463e-06
-0.000259182 5.36707e-05 4.88946e-06
2.05463e-06 4.88946e-06 -8.35515e-05
0.00172966 -0.000225766 6.27458e-08
-0.000225766 7.47599e-05 1.21549e-06
6.27458e-08 1.21549e-06 -2.8716e-05
0.00195096 -0.000217246 9.49066e-07
-0.000217246 0.000221856 -2.37367e-07
9.49066e-07 -2.37367e-07 0.000127202
0.00172282 -0.000204556 -3.63434e-06
-0.000204556 0.000117422 3.30667e-06
-3.63434e-06 3.30667e-06 8.18731e-06
0.00175166 -0.000204931 2.50536e-06
-0.000204931 0.000167823 -3.35285e-06
2.50536e-06 -3.35285e-06 4.20096e-05
0.00160497 -0.000215003 4.49539e-07
-0.000215003 6.54074e-05 7.54629e-06
4.49539e-07 7.54629e-06 -6.23771e-05
0.00171233 -0.000219094 7.83527e-07
-0.000219094 0.000165802 -8.53296e-07
7.83527e-07 -8.53296e-07 1.66553e-05
0.00162735 -0.000207992 -1.75101e-06
-0.000207992 0.000160401 -2.73319e-06
-1.75101e-06 -2.73319e-06 1.63517e-06
0.00135237 -0.000209206 -7.05575e-06
-0.000209206 8.09574e-05 5.69181e-07
-7.05575e-06 5.69181e-07 -9.18042e-05
0.00167678 -0.000242929 6.70061e-07
-0.000242929 0.000216678 -7.2419e-07
6.70061e-07 -7.2419e-07 3.29406e-05
0.0016274 -0.000248703 1.96148e-06
-0.000248703 0.000161696 3.7041e-06
1.96148e-06 3.7041e-06 -2.29714e-05
0.001306 -0.000208059 -5.32026e-06
-0.000208059 0.000193513 3.29363e-06
-5.32026e-06 3.29363e-06 1.89294e-05
0.00120645 -0.000220131 -1.39714e-06
-0.000220131 6.19141e-05 1.01785e-06
-1.39714e-06 1.01785e-06 -0.000126635
0.00111943 -0.000231245 3.83783e-06
-0.000231245 -4.27599e-05 -1.62093e-06
3.83783e-06 -1.62093e-06 -0.000242041
0.000748647 -0.000118061 -4.73711e-06
-0.000118061 9.79457e-06 4.32378e-06
-4.73711e-06 4.32378e-06 -0.000118427
0.00110041 -0.000187727 7.87581e-07
-0.000187727 0.000162665 2.17152e-09
7.87581e-07 2.17152e-09 -8.57945e-06
0.00125488 -0.000218631 2.06889e-06
-0.000218631 0.000195781 -2.44807e-06
2.06889e-06 -2.44807e-06 6.70446e-06
0.000466387 -1.85552e-05 -6.8103e-06
-1.85552e-05 -9.97294e-05 9.00748e-06
-6.8103e-06 9.00748e-06 -0.000149399
0.000812352 -0.000109061 -1.49543e-07
-0.000109061 8.19181e-05 1.48827e-07
-1.49543e-07 1.48827e-07 -3.7881e-05
0.00110871 -0.000174327 1.08607e-06
-0.000174327 0.000220802 -1.69651e-06
1.08607e-06 -1.69651e-06 6.34808e-05
0.00305563 0.00013717 -5.25525e-05
0.00013717 0.00141867 2.21531e-06
-5.25525e-05 2.21531e-06 0.00141275
0.000565853 2.15807e-05 4.33743e-07
2.15807e-05 -2.80248e-05 -4.03686e-07
4.33743e-07 -4.03686e-07 -7.07163e-05
0.000821452 -9.65064e-05 3.72818e-06
-9.65064e-05 0.000112854 -3.28154e-06
3.72818e-06 -3.28154e-06 2.8382e-06
0.00274182 0.000117996 3.69373e-06
0.000117996 0.00123471 2.90355e-07
3.69373e-06 2.90355e-07 0.00123394
0.000644764 5.11297e-05 1.7931e-06
5.11297e-05 2.3635e-05 -6.40267e-06
1.7931e-06 -6.40267e-06 -1.14264e-05
0.00254914 0.000104418 4.26324e-05
0.000104418 0.00111913 -2.35043e-06
4.26324e-05 -2.35043e-06 0.00112219
0.000961955 0.000167832 1.08279e-06
0.000167832 0.000162582 -1.53168e-06
1.08279e-06 -1.53168e-06 1.79405e-05
0.000826416 0.000120047 6.8754e-07
0.000120047 0.000115914 -1.00555e-07
6.8754e-07 -1.00555e-07 -4.25808e-07
0.000604524 1.22973e-05 -7.46936e-07
1.22973e-05 -1.27303e-05 -8.58091e-07
-7.46936e-07 -8.58091e-07 -0.000118497
0.000545995 5.19156e-06 4.68592e-07
5.19156e-06 -5.06664e-05 6.16577e-07
4.68592e-07 6.16577e-07 -0.000144801
0.000654576 -1.63202e-05 -9.60753e-08
-1.63202e-05 1.62206e-05 2.8145e-07
-9.60753e-08 2.8145e-07 -8.02134e-05
0.000662514 -1.89854e-05 -1.31182e-06
-1.89854e-05 1.1384e-05 -3.45634e-06
-1.31182e-06 -3.45634e-06 -6.08553e-05
0.000679732 -1.8403e-05 2.15574e-07
-1.8403e-05 2.4261e-05 1.67655e-06
2.15574e-07 1.67655e-06 -6.26687e-05
0.000651941 -2.4731e-05 3.39603e-07
-2.4731e-05 2.43397e-06 -1.90167e-07
3.39603e-07 -1.90167e-07 -6.21148e-05
0.000587875 -6.31559e-05 2.29519e-07
-6.31559e-05 -2.17567e-05 -5.76969e-06
2.29519e-07 -5.76969e-06 -5.15289e-05
0.00259668 -9.32545e-05 -3.99741e-05
-9.32545e-05 0.00113326 -3.14637e-06
-3.99741e-05 -3.14637e-06 0.00113902
0.000577548 -5.42764e-05 -1.43806e-07
-5.42764e-05 -3.80436e-05 4.60807e-08
-1.43806e-07 4.60807e-08 -6.38754e-05
0.00064236 -1.40993e-05 1.97843e-06
-1.40993e-05 -7.59381e-06 2.80912e-06
1.97843e-06 2.80912e-06 -6.72905e-05
0.00255441 -8.22241e-05 -3.24699e-06
-8.22241e-05 0.00110155 2.47962e-07
-3.24699e-06 2.47962e-07 0.00110943
0.000585642 -4.25232e-05 5.94274e-07
-4.25232e-05 -4.27778e-05 4.77937e-06
5.94274e-07 4.77937e-06 -6.50002e-05
0.00245372 -6.9987e-05 2.67683e-05
-6.9987e-05 0.00103611 4.17106e-06
2.67683e-05 4.17106e-06 0.00104664
0.00991511 0.000354869 0.000136204
0.000354869 0.0027136 6.22269e-05
0.000136204 6.22269e-05 0.00176759
-0.00233721 -0.00042709 -7.09493e-05
-0.00042709 -0.00152541 -6.94921e-06
-7.09493e-05 -6.94921e-06 -0.00165784
-0.00317408 7.37575e-05 -4.21965e-05
7.37575e-05 7.65768e-05 -2.43347e-05
-4.21965e-05 -2.43347e-05 -0.00156921
0.000676355 -4.23269e-06 3.63747e-06
-4.23269e-06 3.51008e-05 1.904e-06
3.63747e-06 1.904e-06 -7.17523e-05
0.000808929 0.000142725 -6.21555e-07
0.000142725 0.000135254 1.32741e-06
-6.21555e-07 1.32741e-06 1.13233e-05
0.00111078 0.000134605 4.00776e-07
0.000134605 0.0003109 -2.47314e-08
4.00776e-07 -2.47314e-08 0.000173931
0.00109343 0.00018967 -1.95399e-06
0.00018967 0.000251394 2.53884e-07
-1.95399e-06 2.53884e-07 9.94597e-05
0.00154292 0.000239104 1.61163e-05
0.000239104 0.000446018 -9.23785e-07
1.61163e-05 -9.23785e-07 0.000262165
0.000357446 0.000131334 -1.60158e-06
0.000131334 -0.000135926 -1.62955e-06
-1.60158e-06 -1.62955e-06 -0.000281417
0.000517006 9.56119e-05 -1.30106e-06
9.56119e-05 -2.31301e-05 -1.48166e-06
-1.30106e-06 -1.48166e-06 -0.000147097
0.000264384 0.000128889 3.61578e-07
0.000128889 -0.000205502 1.09111e-06
3.61578e-07 1.09111e-06 -0.000355024
0.00102878 0.000182743 -1.15543e-06
0.000182743 0.000170518 2.49538e-07
-1.15543e-06 2.49538e-07 5.46755e-05
0.000241267 0.000177525 2.33721e-06
0.000177525 -0.00036199 -9.65555e-07
2.33721e-06 -9.65555e-07 -0.000507899
0.00316096 0.00044246 -3.45455e-06
0.00044246 0.0010359 -4.36135e-06
-3.45455e-06 -4.36135e-06 0.00086987
0.00190343 0.000421628 -3.54869e-06
0.000421628 0.000239055 1.8427e-06
-3.54869e-06 1.8427e-06 7.46996e-05
0.00158918 0.000362696 4.28595e-06
0.000362696 0.000208754 -3.02617e-06
4.28595e-06 -3.02617e-06 4.10786e-05
0.000529245 0.000136708 -3.49239e-06
0.000136708 -3.31835e-05 5.49645e-06
-3.49239e-06 5.49645e-06 -0.000129201
0.00389736 0.00034098 -4.60847e-06
0.00034098 2.8475e-05 1.11813e-05
-4.60847e-06 1.11813e-05 -0.000115512
0.00700431 0.000226292 3.59977e-05
0.000226292 0.00142405 2.88194e-05
3.59977e-05 2.88194e-05 6.40146e-05
0.00597512 -0.000920293 2.23431e-05
-0.000920293 0.00321056 -5.46407e-05
2.23431e-05 -5.46407e-05 0.00292219
0.00480668 0.000664584 0.000299433
0.000664584 0.00102786 9.91214e-05
0.000299433 9.91214e-05 -0.00159555
0.00142827 0.000481245 2.16538e-05
0.000481245 -7.21229e-05 2.47214e-05
2.16538e-05 2.47214e-05 -0.000179845
0.0030268 0.000690422 -7.21226e-05
0.000690422 2.19893e-05 -2.34244e-05
-7.21226e-05 -2.34244e-05 -0.000323511
0.00320009 0.00059488 4.88517e-05
0.00059488 0.000541915 2.37221e-05
4.88517e-05 2.37221e-05 0.000553811
0.00259397 0.000557195 3.13008e-06
0.000557195 0.000524702 7.25418e-06
3.13008e-06 7.25418e-06 0.000378892
0.000669839 0.000299057 -3.98287e-06
0.000299057 -6.9174e-05 1.13343e-05
-3.98287e-06 1.13343e-05 -0.000240548
0.00276135 0.000659617 -9.14084e-05
0.000659617 0.000290964 -4.03423e-05
-9.14084e-05 -4.03423e-05 0.000157403
0.00323875 -0.000176303 -0.000115669
-0.000176303 0.000542794 5.09052e-06
-0.000115669 5.09052e-06 0.000196349
0.00954226 -0.000188774 4.60779e-06
-0.000188774 0.00298153 -3.70935e-06
4.60779e-06 -3.70935e-06 0.00231791
-0.00787038 -0.000288898 0.000230945
-0.000288898 -0.00421925 -2.60856e-06
0.000230945 -2.60856e-06 -0.00404284
0.0013886 -0.000341569 -3.46677e-05
-0.000341569 -4.45052e-05 8.7207e-06
-3.46677e-05 8.7207e-06 -0.000122544
0.00579026 -0.000576077 9.22948e-05
-0.000576077 0.00112837 1.20841e-05
9.22948e-05 1.20841e-05 0.000431921
0.00143055 -0.000390663 6.73774e-05
-0.000390663 -0.0014864 5.36819e-05
6.73774e-05 5.36819e-05 -0.00247178
0.00126734 -0.000229737 1.79374e-05
-0.000229737 -3.11294e-05 -7.50999e-07
1.79374e-05 -7.50999e-07 -0.000213196
0.00220861 -4.72211e-05 -3.36409e-06
-4.72211e-05 -0.000281388 6.5283e-06
-3.36409e-06 6.5283e-06 -0.000527518
0.00366299 -0.000246884 1.5258e-05
-0.000246884 0.000941672 -4.62707e-06
1.5258e-05 -4.62707e-06 0.000915935
0.00325453 -3.90647e-05 6.36527e-05
-3.90647e-05 0.000723211 -3.43837e-06
6.36527e-05 -3.43837e-06 0.000702186
0.000321711 -0.00029109 -7.74868e-06
-0.00029109 -0.00078124 4.57589e-06
-7.74868e-06 4.57589e-06 -0.000772598
0.00173724 -0.000264529 -5.81692e-07
-0.000264529 -0.000136895 9.73152e-07
-5.81692e-07 9.73152e-07 -0.000118185
0.00170514 -0.000156035 8.07733e-06
-0.000156035 -0.000137827 -6.144e-07
8.07733e-06 -6.144e-07 -0.000101412
0.00157448 -0.000310147 4.3716e-06
-0.000310147 -7.06971e-05 -6.40148e-07
4.3716e-06 -6.40148e-07 -0.000169536
0.00190746 -0.000244022 2.1404e-06
-0.000244022 3.02743e-05 9.15574e-07
2.1404e-06 9.15574e-07 -2.21583e-05
0.00186668 -0.000179578 9.22944e-07
-0.000179578 6.84941e-05 1.82432e-06
9.22944e-07 1.82432e-06 2.53927e-05
0.00179532 -0.000268611 7.03899e-06
-0.000268611 4.56537e-05 3.12408e-06
7.03899e-06 3.12408e-06 -5.93441e-05
0.00184124 -0.000225367 1.11321e-06
-0.000225367 7.99703e-05 4.43227e-07
1.11321e-06 4.43227e-07 -2.52395e-07
0.00198536 -0.000191648 -5.56667e-07
-0.000191648 0.000214716 1.06827e-06
-5.56667e-07 1.06827e-06 0.000135078
0.00168038 -0.000224149 1.99953e-06
-0.000224149 4.85246e-05 3.86327e-06
1.99953e-06 3.86327e-06 -5.56871e-05
0.00178534 -0.000211468 -1.57119e-08
-0.000211468 0.000133674 5.2501e-07
-1.57119e-08 5.2501e-07 3.80045e-05
0.00164626 -0.00019667 4.15815e-06
-0.00019667 8.56314e-05 -1.92515e-06
4.15815e-06 -1.92515e-06 -2.47515e-05
0.00165378 -0.000204646 -3.50332e-06
-0.000204646 7.25463e-05 7.03649e-06
-3.50332e-06 7.03649e-06 -3.40471e-05
0.00180431 -0.000205725 -1.78017e-06
-0.000205725 0.000197279 1.87188e-08
-1.78017e-06 1.87188e-08 7.4451e-05
0.00169864 -0.000190568 8.08708e-07
-0.000190568 0.000186184 -1.6979e-06
8.08708e-07 -1.6979e-06 4.30691e-05
0.00170677 -0.000219681 1.35501e-06
-0.000219681 0.000163136 3.23858e-06
1.35501e-06 3.23858e-06 1.35519e-05
0.00167714 -0.000210476 7.90346e-07
-0.000210476 0.000189659 -7.41922e-07
7.90346e-07 -7.41922e-07 2.99448e-05
0.00162262 -0.000195876 -3.26283e-06
-0.000195876 0.000214053 -2.3446e-07
-3.26283e-06 -2.3446e-07 5.64136e-05
0.00102545 -0.000177844 -8.85544e-06
-0.000177844 -3.90838e-05 1.86959e-06
-8.85544e-06 1.86959e-06 -0.000198943
0.00153384 -0.000221117 -1.43033e-06
-0.000221117 0.000185893 3.1398e-08
-1.43033e-06 3.1398e-08 1.15464e-05
0.00170029 -0.000244883 4.2526e-06
-0.000244883 0.000232335 -8.08106e-08
4.2526e-06 -8.08106e-08 4.75406e-05
0.000921891 -0.000145657 -7.18456e-06
-0.000145657 4.78429e-05 5.90961e-06
-7.18456e-06 5.90961e-06 -8.89247e-05
0.00116754 -0.000196612 6.24211e-07
-0.000196612 0.000115217 9.98495e-07
6.24211e-07 9.98495e-07 -5.7284e-05
0.00125529 -0.000222821 2.81301e-06
-0.000222821 8.85491e-05 -5.07779e-07
2.81301e-06 -5.07779e-07 -9.97224e-05
0.000466844 -4.97653e-05 -1.03266e-05
-4.97653e-05 -0.000111905 1.02345e-05
-1.03266e-05 1.02345e-05 -0.000171794
0.000869415 -0.000131231 7.06146e-08
-0.000131231 7.84945e-05 -1.88891e-07
7.06146e-08 -1.88891e-07 -5.18654e-05
0.00112322 -0.000189937 3.20963e-06
-0.000189937 0.00017202 -2.79955e-06
3.20963e-06 -2.79955e-06 7.64868e-07
0.00363524 0.000147959 -8.11028e-05
0.000147959 0.0017501 2.56881e-06
-8.11028e-05 2.56881e-06 0.00174107
0.000597727 -2.58018e-05 4.36304e-07
-2.58018e-05 -2.72624e-05 -2.31731e-07
4.36304e-07 -2.31731e-07 -7.84551e-05
0.000902968 -0.000120467 5.13753e-06
-0.000120467 0.000131589 -3.68576e-06
5.13753e-06 -3.68576e-06 1.03528e-05
0.00323305 0.000125473 5.50972e-06
0.000125473 0.00151633 2.61304e-07
5.50972e-06 2.61304e-07 0.00151327
0.000667917 1.12804e-05 5.67579e-06
1.12804e-05 2.65139e-05 -7.54922e-06
5.67579e-06 -7.54922e-06 -1.58013e-05
0.0028772 0.000107345 6.64941e-05
0.000107345 0.00130893 -2.45704e-06
6.64941e-05 -2.45704e-06 0.00131095
0.00108735 0.000190234 -5.76878e-07
0.000190234 0.000195532 -5.31542e-06
-5.76878e-07 -5.31542e-06 2.52879e-05
0.00118177 0.000185326 5.03067e-07
0.000185326 0.000289092 1.72613e-07
5.03067e-07 1.72613e-07 0.000142078
0.000786971 0.000105383 -1.58605e-06
0.000105383 7.21854e-05 -2.40782e-06
-1.58605e-06 -2.40782e-06 -5.43215e-05
0.000727873 0.000136342 -1.41016e-07
0.000136342 6.7931e-05 3.67696e-07
-1.41016e-07 3.67696e-07 -5.35096e-05
0.000616799 3.07041e-05 -5.07523e-07
3.07041e-05 -5.323e-06 -2.16594e-07
-5.07523e-07 -2.16594e-07 -0.000114548
0.000729226 3.85472e-05 -2.35787e-06
3.85472e-05 5.82664e-05 -3.12907e-06
-2.35787e-06 -3.12907e-06 -3.21898e-05
0.000586974 -3.09578e-05 3.28988e-07
-3.09578e-05 -2.40592e-05 1.53802e-06
3.28988e-07 1.53802e-06 -0.00011899
0.000653335 -2.09831e-05 3.21e-07
-2.09831e-05 8.58657e-06 -3.02587e-07
3.21e-07 -3.02587e-07 -6.45399e-05
0.000587422 -6.11349e-05 -1.245e-07
-6.11349e-05 -1.53497e-05 -6.33257e-06
-1.245e-07 -6.33257e-06 -4.86648e-05
0.000627866 -2.78416e-05 1.40744e-06
-2.78416e-05 -1.014e-05 3.16103e-06
1.40744e-06 3.16103e-06 -7.47569e-05
0.000566507 -6.10173e-05 1.73744e-07
-6.10173e-05 -3.51498e-05 -3.05203e-08
1.73744e-07 -3.05203e-08 -6.43093e-05
0.00264107 -0.000103207 -4.5855e-05
-0.000103207 0.0011652 -2.61546e-06
-4.5855e-05 -2.61546e-06 0.00116888
0.00258969 -9.28291e-05 -2.33717e-06
-9.28291e-05 0.00112878 2.38662e-07
-2.33717e-06 2.38662e-07 0.00113449
0.000567677 -4.97069e-05 9.6385e-07
-4.97069e-05 -4.52273e-05 5.10703e-06
9.6385e-07 5.10703e-06 -7.01804e-05
0.00253098 -8.14627e-05 3.23036e-05
-8.14627e-05 0.00108758 3.85205e-06
3.23036e-05 3.85205e-06 0.00109557
0.0030329 -1.51672e-05 -2.52151e-05
-1.51672e-05 -1.02972e-05 2.54785e-05
-2.52151e-05 2.54785e-05 -3.706e-05
0.00165715 -0.000414172 3.43929e-05
-0.000414172 -0.00152593 1.64143e-05
3.43929e-05 1.64143e-05 -0.00251678
0.00494315 -0.000532795 -3.42305e-05
-0.000532795 0.00200905 -4.60227e-05
-3.42305e-05 -4.60227e-05 0.0021479
0.00176133 0.000271295 9.04808e-06
0.000271295 0.000432238 4.91643e-06
9.04808e-06 4.91643e-06 0.000233279
0.00131043 0.000157101 2.14788e-06
0.000157101 0.000421934 1.21509e-06
2.14788e-06 1.21509e-06 0.000283425
0.000927463 0.000175431 -1.54759e-06
0.000175431 0.000161689 2.26535e-06
-1.54759e-06 2.26535e-06 1.294e-05
0.000709873 0.000162502 7.63495e-07
0.000162502 5.82879e-05 1.06072e-06
7.63495e-07 1.06072e-06 -9.39836e-05
0.0011284 0.000207925 -1.05385e-07
0.000207925 0.000217619 -3.1348e-06
-1.05385e-07 -3.1348e-06 3.57623e-05
0.000868798 0.000208561 1.03723e-06
0.000208561 8.48019e-07 -4.85979e-07
1.03723e-06 -4.85979e-07 -0.000154217
0.000902954 0.000185538 -1.55042e-06
0.000185538 0.000142312 -6.70882e-07
-1.55042e-06 -6.70882e-07 -2.047e-05
0.000928439 0.000175907 -1.7997e-07
0.000175907 0.000121501 5.52039e-06
-1.7997e-07 5.52039e-06 1.67704e-06
0.00108914 0.000241802 9.49903e-07
0.000241802 9.99952e-05 -3.25548e-07
9.49903e-07 -3.25548e-07 -5.22825e-05
0.00232176 0.000381663 1.97181e-06
0.000381663 0.000585395 6.48075e-06
1.97181e-06 6.48075e-06 0.000424726
0.00169975 0.000371838 -1.73644e-06
0.000371838 0.000135431 -5.81965e-07
-1.73644e-06 -5.81965e-07 -3.57793e-05
0.00136786 0.000322716 8.30052e-06
0.000322716 -3.85901e-05 6.94114e-06
8.30052e-06 6.94114e-06 -0.000148211
0.00112298 0.000370588 -1.35561e-06
0.000370588 -0.000177177 -2.84112e-06
-1.35561e-06 -2.84112e-06 -0.000340777
0.000563325 0.000282827 1.20355e-06
0.000282827 -0.000315028 3.82896e-06
1.20355e-06 3.82896e-06 -0.000463536
0.000774434 0.000224873 1.5452e-05
0.000224873 -0.000312549 1.60866e-05
1.5452e-05 1.60866e-05 -0.000307456
0.00512068 0.000491974 -3.17034e-05
0.000491974 0.000474826 -2.47847e-06
-3.17034e-05 -2.47847e-06 0.000218489
0.00187101 4.63987e-05 0.000138887
4.63987e-05 -0.00111028 2.27326e-05
0.000138887 2.27326e-05 -0.00248675
0.00159369 0.000592477 3.05025e-05
0.000592477 -0.000600739 -3.0222e-06
3.05025e-05 -3.0222e-06 -0.00104686
0.00199702 0.000464504 -2.2992e-05
0.000464504 0.000182099 -2.2017e-06
-2.2992e-05 -2.2017e-06 0.000163726
0.00161934 0.000463088 -4.10146e-05
0.000463088 7.57721e-05 -2.2912e-05
-4.10146e-05 -2.2912e-05 -7.20804e-05
0.00235716 -0.000143016 1.48984e-05
-0.000143016 0.00020698 6.95836e-07
1.48984e-05 6.95836e-07 0.000150663
0.00125098 1.62087e-06 -9.53049e-06
1.62087e-06 -0.000417879 3.48934e-06
-9.53049e-06 3.48934e-06 -0.000600952
0.000614215 0.00047295 7.26823e-05
0.00047295 -0.00226494 -2.27747e-05
7.26823e-05 -2.27747e-05 -0.00291168
0.000863958 -0.000167949 -1.03708e-05
-0.000167949 -0.000267056 2.08655e-05
-1.03708e-05 2.08655e-05 -0.000330634
0.00290756 -7.93858e-05 -1.09504e-05
-7.93858e-05 -7.5687e-05 2.99199e-05
-1.09504e-05 2.99199e-05 -0.00040869
0.00178586 -0.000168678 -5.7466e-06
-0.000168678 -2.18746e-05 2.08711e-06
-5.7466e-06 2.08711e-06 -1.53284e-05
0.00253111 -7.12989e-05 -6.03594e-06
-7.12989e-05 0.000328947 -2.28795e-06
-6.03594e-06 -2.28795e-06 0.000283415
0.00145638 -9.65244e-05 2.24977e-05
-9.65244e-05 -0.000252461 -1.09222e-06
2.24977e-05 -1.09222e-06 -0.000227984
0.00293301 -4.64098e-05 2.1085e-05
-4.64098e-05 0.000766706 5.6072e-07
2.1085e-05 5.6072e-07 0.000723881
0.00162946 -0.000270714 -8.29139e-06
-0.000270714 -0.00018958 4.33357e-06
-8.29139e-06 4.33357e-06 -0.000185204
0.00175341 -0.000165292 1.81302e-06
-0.000165292 -0.000124014 1.57663e-06
1.81302e-06 1.57663e-06 -9.6631e-05
0.00183794 -0.000174026 6.75391e-07
-0.000174026 3.06123e-06 7.25199e-07
6.75391e-07 7.25199e-07 2.11922e-07
0.00174364 -0.000238236 3.96458e-06
-0.000238236 -4.60648e-05 8.49042e-07
3.96458e-06 8.49042e-07 -0.000102466
0.00180446 -0.000189802 5.23498e-07
-0.000189802 2.74193e-05 1.36276e-07
5.23498e-07 1.36276e-07 -2.08383e-05
0.00187087 -0.000179053 6.78026e-07
-0.000179053 0.000122528 1.37653e-06
6.78026e-07 1.37653e-06 5.70876e-05
0.00191079 -0.000226865 1.37644e-06
-0.000226865 0.000125576 1.03077e-06
1.37644e-06 1.03077e-06 4.50267e-05
0.00187564 -0.000195444 -1.00928e-06
-0.000195444 0.000152217 5.04865e-08
-1.00928e-06 5.04865e-08 7.07457e-05
0.00166776 -0.000175123 2.14305e-06
-0.000175123 7.65459e-05 -2.93398e-07
2.14305e-06 -2.93398e-07 -2.16673e-05
0.0016182 -0.000205952 -2.27093e-06
-0.000205952 4.44073e-05 1.67326e-06
-2.27093e-06 1.67326e-06 -5.23204e-05
0.00166441 -0.00019728 4.55836e-07
-0.00019728 9.93158e-05 -5.49016e-07
4.55836e-07 -5.49016e-07 -1.11846e-05
0.0016131 -0.000179626 1.94236e-06
-0.000179626 0.000109774 -1.54446e-06
1.94236e-06 -1.54446e-06 -2.22053e-05
0.00185965 -0.000206395 -4.93064e-06
-0.000206395 0.000228233 4.69724e-06
-4.93064e-06 4.69724e-06 0.000108415
0.00173748 -0.000190839 -6.84652e-07
-0.000190839 0.00020539 -7.01977e-08
-6.84652e-07 -7.01977e-08 6.46343e-05
0.00149069 -0.000166474 -2.34786e-06
-0.000166474 0.00012587 -2.11274e-08
-2.34786e-06 -2.11274e-08 -2.38385e-05
0.00172454 -0.000212892 3.01316e-06
-0.000212892 0.000217467 9.81858e-07
3.01316e-06 9.81858e-07 5.68077e-05
0.00153656 -0.000191836 7.8991e-07
-0.000191836 0.000164578 -6.4931e-07
7.8991e-07 -6.4931e-07 5.99248e-06
0.00126951 -0.00016608 -6.84164e-06
-0.00016608 7.43698e-05 2.37387e-06
-6.84164e-06 2.37387e-06 -7.40484e-05
0.00101386 -0.000150805 -1.00533e-05
-0.000150805 4.12278e-05 4.99329e-06
-1.00533e-05 4.99329e-06 -9.13859e-05
0.0010906 -0.000180367 -2.10073e-06
-0.000180367 1.55293e-06 3.69352e-07
-2.10073e-06 3.69352e-07 -0.000157727
0.00175247 -0.000235478 3.9368e-06
-0.000235478 0.000311448 -8.84349e-07
3.9368e-06 -8.84349e-07 0.000135262
0.000534749 -0.000127347 -1.64098e-05
-0.000127347 -9.07703e-05 1.18094e-05
-1.64098e-05 1.18094e-05 -0.000163829
0.000914043 -0.000147563 7.85155e-07
-0.000147563 4.53963e-05 5.42545e-07
7.85155e-07 5.42545e-07 -9.18382e-05
0.0010264 -0.0001853 6.08256e-06
-0.0001853 3.55333e-05 -1.30953e-06
6.08256e-06 -1.30953e-06 -0.000134975
0.0041116 0.000161917 -0.000100018
0.000161917 0.00202854 4.08446e-06
-0.000100018 4.08446e-06 0.00201399
0.000620309 -8.71432e-05 4.4127e-07
-8.71432e-05 -2.69526e-05 -1.46143e-07
4.4127e-07 -1.46143e-07 -9.12292e-05
0.000942317 -0.000141901 6.17055e-06
-0.000141901 0.000120181 -5.14252e-06
6.17055e-06 -5.14252e-06 -1.20727e-05
0.00376121 0.000130364 4.24391e-06
0.000130364 0.00181862 4.69716e-07
4.24391e-06 4.69716e-07 0.00181264
0.000717077 -4.34831e-05 1.02213e-05
-4.34831e-05 3.85575e-05 -9.03795e-06
1.02213e-05 -9.03795e-06 -1.46119e-05
0.00338148 0.000104681 9.43432e-05
0.000104681 0.00159629 -3.89516e-06
9.43432e-05 -3.89516e-06 0.00159706
0.00103545 0.000201232 -3.89962e-06
0.000201232 6.42957e-05 -7.85703e-07
-3.89962e-06 -7.85703e-07 -0.0001218
0.00107031 0.000188683 -6.53348e-08
0.000188683 0.000189038 -1.74427e-06
-6.53348e-08 -1.74427e-06 1.89994e-05
0.00112669 0.000174322 -1.22583e-06
0.000174322 0.000234994 -3.22102e-06
-1.22583e-06 -3.22102e-06 8.3276e-05
0.00138967 0.000201782 -5.53483e-07
0.000201782 0.000408657 8.37539e-07
-5.53483e-07 8.37539e-07 0.00025947
0.00087149 0.000114825 -1.18051e-06
0.000114825 0.000119103 -1.0126e-06
-1.18051e-06 -1.0126e-06 -7.59081e-06
0.000817519 7.30887e-05 -3.17771e-06
7.30887e-05 0.000105508 -2.70417e-06
-3.17771e-06 -2.70417e-06 1.23706e-06
0.000639531 5.35483e-05 1.16767e-07
5.35483e-05 5.10324e-06 3.64026e-07
1.16767e-07 3.64026e-07 -0.000105895
0.000670271 -2.17047e-06 -4.3123e-07
-2.17047e-06 2.19161e-05 -7.18977e-08
-4.3123e-07 -7.18977e-08 -6.37263e-05
0.000586911 -4.85269e-05 -2.06615e-06
-4.85269e-05 -1.4203e-05 -6.73007e-06
-2.06615e-06 -6.73007e-06 -5.22551e-05
0.000611056 -3.60345e-05 1.04122e-06
-3.60345e-05 -1.32407e-05 3.45745e-06
1.04122e-06 3.45745e-06 -8.63988e-05
0.000552923 -6.50657e-05 4.05174e-07
-6.50657e-05 -3.42613e-05 -1.71392e-07
4.05174e-07 -1.71392e-07 -6.79887e-05
0.00275122 -0.000112498 -5.47413e-05
-0.000112498 0.00123375 -2.16119e-06
-5.47413e-05 -2.16119e-06 0.00123524
0.000551482 -5.99377e-05 5.08644e-07
-5.99377e-05 -4.46846e-05 5.52464e-06
5.08644e-07 5.52464e-06 -7.33672e-05
0.00262849 -0.000103418 -1.75526e-06
-0.000103418 0.0011578 2.18222e-07
-1.75526e-06 2.18222e-07 0.00116127
0.00258788 -9.22939e-05 3.80762e-05
-9.22939e-05 0.00112737 3.42963e-06
3.80762e-05 3.42963e-06 0.00113306
0.000496857 2.64142e-05 1.05515e-05
2.64142e-05 -0.000591611 8.05626e-06
1.05515e-05 8.05626e-06 -0.000592251
0.00415687 4.70005e-05 3.39361e-05
4.70005e-05 0.000389907 9.4779e-06
3.39361e-05 9.4779e-06 0.000156636
0.00881784 0.000427016 -8.56185e-05
0.000427016 0.0026528 -4.23666e-05
-8.56185e-05 -4.23666e-05 0.00155637
0.000387808 0.000174017 1.5719e-06
0.000174017 -0.00037841 1.85898e-06
1.5719e-06 1.85898e-06 -0.000541082
0.0015628 0.000262619 2.03617e-06
0.000262619 0.000157619 1.74093e-06
2.03617e-06 1.74093e-06 -1.01265e-05
0.00126012 0.000238129 -2.04653e-06
0.000238129 0.000150136 2.08257e-07
-2.04653e-06 2.08257e-07 -4.29044e-05
0.00102189 0.000190072 -6.85346e-07
0.000190072 0.000229753 9.07109e-07
-6.85346e-07 9.07109e-07 7.12997e-05
0.000703945 0.000175218 -1.31214e-06
0.000175218 -1.75074e-05 -1.3073e-07
-1.31214e-06 -1.3073e-07 -0.000197174
0.001266 0.000243343 6.02489e-06
0.000243343 0.000205617 1.26348e-06
6.02489e-06 1.26348e-06 4.35224e-05
0.00250511 0.000393367 -8.97175e-06
0.000393367 0.000592084 -4.10135e-06
-8.97175e-06 -4.10135e-06 0.000421284
0.00190275 0.000303931 -1.10667e-06
0.000303931 0.000543951 1.96565e-06
-1.10667e-06 1.96565e-06 0.000385473
0.00133461 0.00031159 9.23902e-06
0.00031159 5.55076e-05 1.57497e-05
9.23902e-06 1.57497e-05 -9.91121e-05
0.00196444 0.000384244 -1.6111e-06
0.000384244 0.00028548 1.01417e-06
-1.6111e-06 1.01417e-06 0.000116415
0.00215036 0.000363115 -1.07974e-05
0.000363115 0.00029193 1.8828e-06
-1.07974e-05 1.8828e-06 0.000146588
0.000784027 0.000154937 1.47565e-05
0.000154937 -0.000418152 4.93053e-06
1.47565e-05 4.93053e-06 -0.000477475
0.00128725 0.000312112 8.46441e-06
0.000312112 -7.81132e-05 9.73759e-07
8.46441e-06 9.73759e-07 -0.000190359
0.00107728 0.000362527 -6.41847e-06
0.000362527 -0.000213076 -7.34852e-06
-6.41847e-06 -7.34852e-06 -0.000377676
0.00126186 0.00022008 -2.9865e-06
0.00022008 -7.31478e-05 3.63457e-06
-2.9865e-06 3.63457e-06 -7.98612e-05
0.00488339 0.000274564 3.69557e-05
0.000274564 0.000274082 -5.8039e-06
3.69557e-05 -5.8039e-06 -5.2378e-05
0.001682 0.000391441 7.47817e-06
0.000391441 0.00023277 -1.77514e-05
7.47817e-06 -1.77514e-05 0.000209828
0.00135814 -3.58175e-05 2.21441e-05
-3.58175e-05 -5.83808e-05 3.26519e-06
2.21441e-05 3.26519e-06 -8.81416e-05
0.00204019 -7.39042e-05 -1.56638e-05
-7.39042e-05 9.28155e-05 -7.58606e-07
-1.56638e-05 -7.58606e-07 2.98338e-05
0.00147562 0.000138713 4.18049e-05
0.000138713 -0.000582565 -8.19507e-06
4.18049e-05 -8.19507e-06 -0.000835997
0.000602188 -0.000137055 -2.37395e-05
-0.000137055 -0.0006234 1.57618e-05
-2.37395e-05 1.57618e-05 -0.000593501
0.00258579 -0.000120538 -7.59173e-05
-0.000120538 0.000338993 3.95262e-06
-7.59173e-05 3.95262e-06 0.00029353
0.0016738 -0.00012404 1.2206e-06
-0.00012404 -0.000129898 -7.52665e-07
1.2206e-06 -7.52665e-07 -9.827e-05
0.00228101 -5.52849e-05 -5.20814e-06
-5.52849e-05 0.00035642 4.52791e-07
-5.20814e-06 4.52791e-07 0.000311046
0.00195284 -0.000149456 4.50751e-06
-0.000149456 2.68496e-05 1.79188e-07
4.50751e-06 1.79188e-07 1.63794e-05
0.00207081 -2.64493e-05 4.30843e-06
-2.64493e-05 0.000142122 1.69381e-07
4.30843e-06 1.69381e-07 9.79108e-05
0.00186195 -0.000176142 -1.82965e-06
-0.000176142 -8.11823e-05 1.51751e-06
-1.82965e-06 1.51751e-06 -5.93632e-05
0.00184391 -0.000170274 -1.72497e-06
-0.000170274 1.03116e-05 -9.896e-08
-1.72497e-06 -9.896e-08 4.94652e-06
0.0019423 -0.000153716 -3.09086e-07
-0.000153716 8.24598e-05 8.95554e-07
-3.09086e-07 8.95554e-07 3.80461e-05
0.00179145 -0.000200594 -1.05009e-06
-0.000200594 1.28919e-05 -1.34746e-06
-1.05009e-06 -1.34746e-06 -4.00935e-05
0.00177878 -0.000175411 8.72308e-08
-0.000175411 7.42923e-05 -2.71213e-07
8.72308e-08 -2.71213e-07 5.83144e-06
0.00167056 -0.000154976 9.83341e-07
-0.000154976 3.61077e-05 4.09199e-07
9.83341e-07 4.09199e-07 -4.9906e-05
0.00176555 -0.000198469 -3.6173e-06
-0.000198469 8.99107e-05 -3.62046e-07
-3.6173e-06 -3.62046e-07 6.78021e-06
0.00168608 -0.000175485 2.08373e-07
-0.000175485 8.84796e-05 -2.42956e-07
2.08373e-07 -2.42956e-07 -9.69274e-06
0.00165712 -0.000162558 2.08173e-06
-0.000162558 9.97178e-05 -5.7138e-07
2.08173e-06 -5.7138e-07 -2.26679e-05
0.00168381 -0.000197909 -2.59899e-06
-0.000197909 0.000113654 7.54026e-07
-2.59899e-06 7.54026e-07 3.03656e-06
0.00163132 -0.000179618 -9.14968e-08
-0.000179618 0.000120417 -3.00652e-07
-9.14968e-08 -3.00652e-07 -1.13259e-05
0.00149219 -0.000153796 -1.41246e-06
-0.000153796 0.000111129 1.0716e-08
-1.41246e-06 1.0716e-08 -3.37601e-05
0.00177127 -0.000191029 -1.11999e-06
-0.000191029 0.00022176 2.49857e-06
-1.11999e-06 2.49857e-06 8.33615e-05
0.00148533 -0.00016668 -4.63801e-07
-0.00016668 0.000121372 -1.19665e-07
-4.63801e-07 -1.19665e-07 -2.7797e-05
0.00128809 -0.000147796 -6.59281e-06
-0.000147796 7.27617e-05 2.07009e-06
-6.59281e-06 2.07009e-06 -7.13247e-05
0.00146224 -0.000188632 4.91474e-06
-0.000188632 0.000121912 -7.97574e-07
4.91474e-06 -7.97574e-07 -3.77432e-05
0.00119372 -0.000162047 8.94092e-08
-0.000162047 3.17411e-05 -1.487e-08
8.94092e-08 -1.487e-08 -0.00011704
0.00103844 -0.000137643 -1.10243e-05
-0.000137643 2.61641e-05 4.80862e-06
-1.10243e-05 4.80862e-06 -9.81982e-05
0.000491299 -0.000143357 -1.8752e-05
-0.000143357 -0.000135406 1.16141e-05
-1.8752e-05 1.16141e-05 -0.000212554
0.000980488 -0.00014872 2.62954e-07
-0.00014872 2.3238e-05 1.55383e-07
2.62954e-07 1.55383e-07 -0.000109164
0.00117023 -0.000183872 4.73305e-06
-0.000183872 5.02104e-05 -1.32734e-06
4.73305e-06 -1.32734e-06 -0.000108577
0.00461085 0.000186623 -0.000106914
0.000186623 0.00232607 6.71602e-06
-0.000106914 6.71602e-06 0.00230202
0.000618673 -0.000118672 -6.37771e-07
-0.000118672 -4.5452e-05 4.16107e-07
-6.37771e-07 4.16107e-07 -0.000119626
0.000918706 -0.000151316 8.06124e-06
-0.000151316 5.10927e-05 -4.50005e-06
8.06124e-06 -4.50005e-06 -8.68733e-05
0.00428932 0.000148492 8.36746e-06
0.000148492 0.0021277 8.4335e-07
8.36746e-06 8.4335e-07 0.00211457
0.000778579 -8.94558e-05 1.39597e-05
-8.94558e-05 5.71834e-05 -1.09827e-05
1.39597e-05 -1.09827e-05 -8.20659e-06
0.00389973 0.000114023 0.000111984
0.000114023 0.00189375 -5.01896e-06
0.000111984 -5.01896e-06 0.00189012
0.00109546 0.00020764 -4.56496e-06
0.00020764 -2.59694e-05 1.78605e-06
-4.56496e-06 1.78605e-06 -0.000200156
0.000923235 0.000194209 -1.31456e-06
0.000194209 -1.53982e-06 2.10689e-06
-1.31456e-06 2.10689e-06 -0.000187138
0.00107255 0.000182194 -4.07683e-06
0.000182194 0.000133152 -1.91687e-06
-4.07683e-06 -1.91687e-06 -3.54544e-05
0.00105626 0.000187526 -3.00149e-07
0.000187526 0.00018389 1.28696e-06
-3.00149e-07 1.28696e-06 1.40497e-05
0.000989773 0.000162596 -3.34862e-07
0.000162596 0.000159825 -9.15181e-07
-3.34862e-07 -9.15181e-07 1.0099e-05
0.000950564 0.000117198 -4.82202e-06
0.000117198 0.000164572 -3.89675e-06
-4.82202e-06 -3.89675e-06 4.4814e-05
0.000933409 0.000122214 1.43588e-07
0.000122214 0.000153319 -3.08108e-07
1.43588e-07 -3.08108e-07 2.6649e-05
0.000736238 5.38728e-05 -3.37831e-07
5.38728e-05 6.14439e-05 7.08388e-08
-3.37831e-07 7.08388e-08 -4.13392e-05
0.000641298 -1.02224e-05 -6.18882e-06
-1.02224e-05 1.02435e-05 -7.46741e-06
-6.18882e-06 -7.46741e-06 -3.49671e-05
0.000634776 -2.96926e-05 8.29194e-07
-2.96926e-05 2.51094e-06 3.39629e-06
8.29194e-07 3.39629e-06 -8.1382e-05
0.000538454 -5.6903e-05 2.15256e-08
-5.6903e-05 -3.97776e-05 -2.54236e-07
2.15256e-08 -2.54236e-07 -7.85614e-05
0.00298318 -0.000119778 -6.97173e-05
-0.000119778 0.0013709 -1.97313e-06
-6.97173e-05 -1.97313e-06 0.00137014
0.000524684 -6.66168e-05 -6.88104e-09
-6.66168e-05 -5.04674e-05 6.0728e-06
-6.88104e-09 6.0728e-06 -8.41191e-05
0.00271502 -0.000114327 -1.71857e-06
-0.000114327 0.00121343 2.17043e-07
-1.71857e-06 2.17043e-07 0.00121434
0.00262034 -0.000102953 4.26462e-05
-0.000102953 0.00115289 2.92265e-06
4.26462e-05 2.92265e-06 0.00115633
0.000988139 4.93877e-05 1.19494e-05
4.93877e-05 -0.000318549 1.20942e-06
1.19494e-05 1.20942e-06 -0.000339391
0.00172723 -5.35084e-06 -4.64816e-06
-5.35084e-06 -8.72366e-05 2.24214e-06
-4.64816e-06 2.24214e-06 -9.99338e-05
0.00328107 -6.72692e-06 9.2996e-05
-6.72692e-06 -0.000158184 -5.47345e-06
9.2996e-05 -5.47345e-06 -0.00021256
0.00176683 0.000299853 -1.95952e-06
0.000299853 0.000203852 -5.10129e-07
-1.95952e-06 -5.10129e-07 4.63456e-05
0.000690197 0.000208662 9.07668e-07
0.000208662 -0.000214436 -8.73458e-07
9.07668e-07 -8.73458e-07 -0.000376419
0.00183401 0.00026591 -1.58459e-06
0.00026591 0.000220901 2.21421e-06
-1.58459e-06 2.21421e-06 6.60638e-05
0.00167229 0.000269169 1.05544e-06
0.000269169 0.000225181 4.39753e-07
1.05544e-06 4.39753e-07 5.5672e-05
0.000762262 0.000206488 -3.40932e-06
0.000206488 -0.00013137 1.98174e-06
-3.40932e-06 1.98174e-06 -0.000318683
0.00187656 0.000298547 -5.72249e-06
0.000298547 0.000147674 1.35322e-06
-5.72249e-06 1.35322e-06 2.81866e-06
0.00162655 0.000275454 -5.29483e-07
0.000275454 0.000391218 3.01214e-07
-5.29483e-07 3.01214e-07 0.000222467
0.00222153 0.000372774 -2.39518e-07
0.000372774 0.0004395 -1.51976e-06
-2.39518e-07 -1.51976e-06 0.000268591
0.00180305 0.000203107 -7.81635e-06
0.000203107 3.71771e-05 9.0712e-07
-7.81635e-06 9.0712e-07 -6.34097e-05
0.00230652 0.000402756 5.10757e-06
0.000402756 0.000477685 3.52735e-06
5.10757e-06 3.52735e-06 0.000309774
0.00204559 0.000358596 -8.89855e-07
0.000358596 0.000234686 6.02098e-07
-8.89855e-07 6.02098e-07 8.79669e-05
0.00102137 0.000172674 8.23315e-07
0.000172674 -0.000266984 2.01111e-06
8.23315e-07 2.01111e-06 -0.000329341
0.000487006 0.000262768 -2.02589e-06
0.000262768 -0.000483799 -2.42546e-06
-2.02589e-06 -2.42546e-06 -0.000597962
0.00116934 0.000212627 -3.09477e-05
0.000212627 -0.000125224 -1.08074e-05
-3.09477e-05 -1.08074e-05 -0.000142008
0.00169542 2.91546e-05 3.54571e-06
2.91546e-05 -6.78451e-05 4.79933e-07
3.54571e-06 4.79933e-07 -0.000122163
0.00202147 -1.65267e-05 -7.83808e-07
-1.65267e-05 0.000327029 1.14409e-06
-7.83808e-07 1.14409e-06 0.000300012
0.00128964 -2.72838e-06 -5.27347e-05
-2.72838e-06 -0.000259589 -5.69041e-06
-5.27347e-05 -5.69041e-06 -0.000351996
0.00192219 -0.000149182 -2.03473e-05
-0.000149182 5.96803e-06 1.21492e-06
-2.03473e-05 1.21492e-06 4.42345e-05
0.00135198 -6.41533e-05 -9.35518e-06
-6.41533e-05 -0.000207335 4.7651e-07
-9.35518e-06 4.7651e-07 -0.000254031
0.0019213 -0.000142449 -1.08398e-07
-0.000142449 1.46922e-05 -2.80954e-07
-1.08398e-07 -2.80954e-07 5.11665e-06
0.00193336 -2.64555e-05 -1.17098e-06
-2.64555e-05 4.84893e-05 4.67065e-07
-1.17098e-06 4.67065e-07 7.95005e-06
0.00187816 -5.61579e-05 -3.69951e-06
-5.61579e-05 2.23046e-05 -1.04415e-06
-3.69951e-06 -1.04415e-06 -2.14375e-05
0.00183537 -0.000165892 -2.33602e-06
-0.000165892 1.15358e-05 -1.04958e-06
-2.33602e-06 -1.04958e-06 2.75294e-06
0.0019032 -0.000148208 6.47241e-07
-0.000148208 6.99744e-05 -1.62483e-07
6.47241e-07 -1.62483e-07 2.20747e-05
0.00196265 -0.000118129 -1.85785e-07
-0.000118129 0.000140271 -2.89816e-07
-1.85785e-07 -2.89816e-07 7.01912e-05
0.00168674 -0.000172488 -1.39172e-06
-0.000172488 2.54722e-05 -1.21704e-06
-1.39172e-06 -1.21704e-06 -4.59703e-05
0.00166227 -0.000153713 2.35244e-07
-0.000153713 3.58728e-05 -9.47622e-08
2.35244e-07 -9.47622e-08 -5.14391e-05
0.0017358 -0.000132069 1.66041e-06
-0.000132069 0.000107801 -2.29296e-07
1.66041e-06 -2.29296e-07 -5.23818e-06
0.00170969 -0.000175921 -1.76673e-06
-0.000175921 0.000103158 -1.85242e-07
-1.76673e-06 -1.85242e-07 5.03695e-06
0.00168231 -0.000161936 1.69045e-08
-0.000161936 0.00011568 -1.65829e-07
1.69045e-08 -1.65829e-07 -6.48448e-06
0.00154509 -0.000137189 -6.27287e-07
-0.000137189 0.00011439 -3.48671e-08
-6.27287e-07 -3.48671e-08 -2.46607e-05
0.00165029 -0.000179678 -1.73438e-06
-0.000179678 0.000131439 8.447e-07
-1.73438e-06 8.447e-07 -7.05018e-08
0.00149961 -0.00015383 -1.31347e-07
-0.00015383 0.000113377 -2.61179e-08
-1.31347e-07 -2.61179e-08 -3.12208e-05
0.00131343 -0.000131613 -5.73317e-06
-0.000131613 7.61242e-05 1.8429e-06
-5.73317e-06 1.8429e-06 -6.54766e-05
0.00148081 -0.000166878 2.05225e-06
-0.000166878 0.0001172 4.8701e-08
2.05225e-06 4.8701e-08 -3.14234e-05
0.00131109 -0.000148193 -1.52638e-07
-0.000148193 8.56373e-05 3.03963e-08
-1.52638e-07 3.03963e-08 -5.82721e-05
0.00106496 -0.000122212 -1.18599e-05
-0.000122212 2.72669e-05 4.83267e-06
-1.18599e-05 4.83267e-06 -9.29998e-05
0.00110817 -0.000157401 6.406e-06
-0.000157401 -1.64129e-05 -1.95975e-06
6.406e-06 -1.95975e-06 -0.00016549
0.00102255 -0.000135627 1.88377e-07
-0.000135627 1.68198e-05 -1.45236e-08
1.88377e-07 -1.45236e-08 -0.000107352
0.00228686 -6.95931e-05 -1.84081e-05
-6.95931e-05 0.000890329 7.26375e-06
-1.84081e-05 7.26375e-06 0.000821473
0.00146002 -2.33765e-05 -0.000140754
-2.33765e-05 0.000476621 1.39972e-05
-0.000140754 1.39972e-05 0.000457441
0.00149444 -0.000107207 -1.35788e-06
-0.000107207 0.00044075 -1.23834e-07
-1.35788e-06 -1.23834e-07 0.000364871
0.000949873 -0.000146938 9.86146e-06
-0.000146938 6.90447e-06 -4.49284e-06
9.86146e-06 -4.49284e-06 -0.000125366
0.00480152 0.000140144 7.91943e-06
0.000140144 0.00242296 6.91191e-07
7.91943e-06 6.91191e-07 0.00240658
0.000724911 -0.00014084 1.84547e-05
-0.00014084 1.16173e-05 -1.16638e-05
1.84547e-05 -1.16638e-05 -6.478e-05
0.00442807 0.000112082 0.000133173
0.000112082 0.00220044 -7.54051e-06
0.000133173 -7.54051e-06 0.00219191
0.00183811 0.000218089 2.14018e-07
0.000218089 0.000204344 7.23164e-07
2.14018e-07 7.23164e-07 6.17451e-05
0.0016106 0.00022873 -2.41459e-07
0.00022873 0.000196867 1.91153e-06
-2.41459e-07 1.91153e-06 3.51807e-05
0.00125713 0.000218907 -6.22587e-07
0.000218907 6.80377e-05 -9.64414e-08
-6.22587e-07 -9.64414e-08 -0.000106775
0.00108486 0.000185255 -6.27785e-06
0.000185255 4.34517e-05 -6.55996e-07
-6.27785e-06 -6.55996e-07 -0.000122831
0.000799729 0.000186456 1.49126e-06
0.000186456 -7.33002e-05 3.64303e-06
1.49126e-06 3.64303e-06 -0.000258381
0.00108091 0.000181793 -1.1896e-06
0.000181793 0.000140855 6.78032e-07
-1.1896e-06 6.78032e-07 -2.80358e-05
0.000963225 0.000142135 -6.50411e-06
0.000142135 0.000125555 -4.42971e-06
-6.50411e-06 -4.42971e-06 -7.02724e-06
0.000859973 0.000151355 1.56716e-06
0.000151355 8.88296e-05 1.98389e-06
1.56716e-06 1.98389e-06 -5.89946e-05
0.00080163 0.000103522 -5.89635e-08
0.000103522 8.13169e-05 -2.68026e-07
-5.89635e-08 -2.68026e-07 -3.58484e-05
0.000757177 5.24805e-05 -1.04531e-05
5.24805e-05 6.51139e-05 -9.23387e-06
-1.04531e-05 -9.23387e-06 7.97845e-06
0.000674187 3.51553e-05 1.48428e-06
3.51553e-05 2.48693e-05 2.50481e-06
1.48428e-06 2.50481e-06 -7.43287e-05
0.000546819 -2.18851e-05 -5.45249e-07
-2.18851e-05 -4.11884e-05 -3.12635e-07
-5.45249e-07 -3.12635e-07 -8.56663e-05
0.003324 -0.000119782 -9.13029e-05
-0.000119782 0.00157043 -2.68392e-06
-9.13029e-05 -2.68392e-06 0.00156769
0.000483251 -6.57815e-05 -3.9557e-07
-6.57815e-05 -6.79004e-05 6.8706e-06
-3.9557e-07 6.8706e-06 -0.000108075
0.00290417 -0.00012654 -2.23123e-06
-0.00012654 0.00132718 2.58185e-07
-2.23123e-06 2.58185e-07 0.00132477
0.00269042 -0.000114479 4.72749e-05
-0.000114479 0.0011994 2.37424e-06
4.72749e-05 2.37424e-06 0.00120021
0.00180007 0.000111403 -4.81781e-07
0.000111403 -1.47305e-05 1.18617e-06
-4.81781e-07 1.18617e-06 -8.43997e-05
0.00188658 4.27769e-05 8.58744e-06
4.27769e-05 0.000151145 1.22068e-07
8.58744e-06 1.22068e-07 0.000127125
0.00356264 -3.19628e-05 -5.83554e-05
-3.19628e-05 0.000728534 -1.38986e-05
-5.83554e-05 -1.38986e-05 0.000691208
0.00167553 0.00025265 -3.35214e-06
0.00025265 5.2398e-05 8.34396e-07
-3.35214e-06 8.34396e-07 -8.65941e-05
0.00158863 0.000286485 -1.39683e-06
0.000286485 0.000121915 -1.28029e-07
-1.39683e-06 -1.28029e-07 -3.43298e-05
0.0010465 0.000246555 -1.40573e-05
0.000246555 -1.91623e-05 -4.10613e-06
-1.40573e-05 -4.10613e-06 -0.000180815
0.00183735 0.000256438 1.99023e-06
0.000256438 0.000222036 5.31802e-07
1.99023e-06 5.31802e-07 6.90633e-05
0.00180058 0.000276527 -4.44756e-07
0.000276527 0.000303998 -2.3928e-06
-4.44756e-07 -2.3928e-06 0.000132685
0.00212949 0.000201674 -3.36052e-06
0.000201674 0.000232579 1.26207e-06
-3.36052e-06 1.26207e-06 0.000135211
0.00173137 0.000294178 -1.37979e-06
0.000294178 7.12402e-05 7.56645e-07
-1.37979e-06 7.56645e-07 -7.52934e-05
0.00200459 0.000356798 3.57531e-06
0.000356798 0.000320388 1.78482e-07
3.57531e-06 1.78482e-07 0.000148905
0.00182463 0.000203935 -8.2642e-07
0.000203935 5.0328e-05 1.03683e-07
-8.2642e-07 1.03683e-07 -5.0286e-05
0.0020734 0.000361407 1.32986e-05
0.000361407 0.000237544 7.90636e-07
1.32986e-05 7.90636e-07 8.93193e-05
0.00157636 0.000193591 -1.96116e-05
0.000193591 3.77618e-05 -3.00162e-06
-1.96116e-05 -3.00162e-06 -2.67605e-05
0.00195965 3.29186e-05 -3.42917e-06
3.29186e-05 9.08021e-05 -1.56787e-07
-3.42917e-06 -1.56787e-07 3.8434e-05
0.00190424 3.68667e-05 -1.45906e-06
3.68667e-05 5.01182e-05 -3.89234e-09
-1.45906e-06 -3.89234e-09 -3.70126e-06
0.00281695 3.28501e-06 -3.46595e-05
3.28501e-06 0.000788859 -5.20869e-06
-3.46595e-05 -5.20869e-06 0.000760233
0.00186883 -0.000135417 -9.5551e-06
-0.000135417 -1.30619e-05 -5.84517e-07
-9.5551e-06 -5.84517e-07 -2.15938e-05
0.00192829 -2.65649e-05 1.08423e-06
-2.65649e-05 2.98197e-05 1.93544e-07
1.08423e-06 1.93544e-07 -8.62312e-06
0.00189427 -5.94537e-05 5.11475e-07
-5.94537e-05 1.82452e-05 4.4695e-09
5.11475e-07 4.4695e-09 -1.9421e-05
0.00192241 -4.30433e-05 -9.3388e-07
-4.30433e-05 0.000117772 8.34256e-08
-9.3388e-07 8.34256e-08 4.80203e-05
0.00186347 -0.000142851 1.96371e-06
-0.000142851 5.77526e-05 -1.13242e-06
1.96371e-06 -1.13242e-06 5.92074e-06
0.00190362 -0.000118004 1.04399e-07
-0.000118004 0.000113412 -1.37544e-07
1.04399e-07 -1.37544e-07 3.95764e-05
0.00181172 -9.58324e-05 2.76384e-06
-9.58324e-05 0.000123921 -1.36503e-06
2.76384e-06 -1.36503e-06 1.93043e-05
0.00165646 -0.000152574 -1.13442e-06
-0.000152574 3.72169e-05 -1.33692e-07
-1.13442e-06 -1.33692e-07 -5.14316e-05
0.00174681 -0.000132251 -5.63847e-08
-0.000132251 0.000113761 1.3543e-07
-5.63847e-08 1.3543e-07 7.29281e-07
0.00161415 -0.000113065 -3.84877e-07
-0.000113065 0.000118823 -2.26185e-07
-3.84877e-07 -2.26185e-07 -1.3602e-05
0.0017061 -0.000161178 -1.71439e-06
-0.000161178 0.000130898 2.17319e-07
-1.71439e-06 2.17319e-07 8.96803e-06
0.00154381 -0.000136776 -1.73516e-07
-0.000136776 0.000111901 9.77746e-08
-1.73516e-07 9.77746e-08 -2.69561e-05
0.00134392 -0.000112695 -5.19026e-06
-0.000112695 7.97127e-05 1.48267e-06
-5.19026e-06 1.48267e-06 -5.95755e-05
0.0015051 -0.000153819 1.07499e-06
-0.000153819 0.000114618 -4.00834e-08
1.07499e-06 -4.00834e-08 -2.96923e-05
0.00133012 -0.00013169 -9.73191e-08
-0.00013169 8.44746e-05 8.04248e-08
-9.73191e-08 8.04248e-08 -5.68995e-05
0.00107162 -0.000107364 -1.18998e-05
-0.000107364 2.1134e-05 4.30924e-06
-1.18998e-05 4.30924e-06 -9.79761e-05
0.00133487 -0.000148654 6.11304e-06
-0.000148654 9.89574e-05 -1.93084e-06
6.11304e-06 -1.93084e-06 -4.47823e-05
0.00105407 -0.000120013 2.10975e-07
-0.000120013 2.04122e-05 4.27551e-08
2.10975e-07 4.27551e-08 -9.94585e-05
0.00233191 -8.19044e-05 -2.53081e-05
-8.19044e-05 0.000901619 6.22156e-06
-2.53081e-05 6.22156e-06 0.000840755
0.00100527 -0.000133805 1.11103e-05
-0.000133805 6.75461e-06 -4.87322e-06
1.11103e-05 -4.87322e-06 -0.000117271
0.00244966 -0.000119061 3.27117e-05
-0.000119061 0.000973739 -3.40371e-06
3.27117e-05 -3.40371e-06 0.000911979
0.00165533 -6.47348e-05 -0.000151243
-6.47348e-05 0.000593208 1.76363e-05
-0.000151243 1.76363e-05 0.000573704
0.00326551 2.49345e-05 -0.000148349
2.49345e-05 0.00153405 5.77724e-06
-0.000148349 5.77724e-06 0.00151501
0.00254948 -0.00015954 9.11547e-05
-0.00015954 0.00103762 -1.16422e-05
9.11547e-05 -1.16422e-05 0.000977058
0.004993 0.000114878 0.000143985
0.000114878 0.0025355 -1.18634e-05
0.000143985 -1.18634e-05 0.0025174
0.00190562 0.000213196 -2.09064e-06
0.000213196 0.000206077 -3.04957e-07
-2.09064e-06 -3.04957e-07 7.17565e-05
0.00161719 0.000195975 1.87334e-06
0.000195975 0.000175457 8.6964e-07
1.87334e-06 8.6964e-07 2.7725e-05
0.00176618 0.000217774 5.43071e-07
0.000217774 0.000163581 -4.24739e-07
5.43071e-07 -4.24739e-07 2.35474e-05
0.00127445 0.000186192 -6.66274e-06
0.000186192 8.2685e-05 -5.46283e-07
-6.66274e-06 -5.46283e-07 -7.11728e-05
0.00157953 0.00022413 2.02837e-07
0.00022413 0.000174976 2.37567e-07
2.02837e-07 2.37567e-07 1.38443e-05
0.00140495 0.000229342 2.73121e-06
0.000229342 0.000154741 -8.35951e-07
2.73121e-06 -8.35951e-07 -2.06268e-05
0.00118104 0.000193167 -3.7714e-07
0.000193167 9.74666e-05 5.67886e-07
-3.7714e-07 5.67886e-07 -7.037e-05
0.000917274 0.000147252 -9.00697e-06
0.000147252 2.8809e-05 -3.95396e-06
-9.00697e-06 -3.95396e-06 -0.000107732
0.00109798 0.000181925 2.52957e-06
0.000181925 0.000153435 3.75676e-06
2.52957e-06 3.75676e-06 -1.57978e-05
0.000858359 0.00013215 -4.93406e-07
0.00013215 6.61016e-05 6.26063e-08
-4.93406e-07 6.26063e-08 -6.47595e-05
0.000792115 0.000109692 -1.54512e-05
0.000109692 7.03735e-05 -1.08066e-05
-1.54512e-05 -1.08066e-05 1.37027e-08
0.000647876 8.86567e-05 2.72266e-06
8.86567e-05 -4.19275e-06 2.65062e-06
2.72266e-06 2.65062e-06 -0.000118853
0.000580766 2.87672e-05 4.96351e-08
2.87672e-05 -3.01133e-05 -2.88801e-07
4.96351e-08 -2.88801e-07 -8.52476e-05
0.00382473 -0.000110221 -0.00011649
-0.000110221 0.00186428 -5.45023e-06
-0.00011649 -5.45023e-06 0.00185795
0.000448361 -4.58415e-05 1.16595e-06
-4.58415e-05 -9.04878e-05 7.66355e-06
1.16595e-06 7.66355e-06 -0.000136761
0.00323666 -0.000139317 -3.97902e-06
-0.000139317 0.00152346 3.70533e-07
-3.97902e-06 3.70533e-07 0.00151697
0.00284943 -0.000128088 5.32627e-05
-0.000128088 0.00129619 1.92161e-06
5.32627e-05 1.92161e-06 0.00129349
0.0018291 0.000115252 -2.85407e-06
0.000115252 2.75787e-05 1.04743e-06
-2.85407e-06 1.04743e-06 -4.51111e-05
0.00182874 0.000110586 6.162e-07
0.000110586 9.40899e-06 -3.88684e-07
6.162e-07 -3.88684e-07 -6.00029e-05
0.00243732 3.66779e-05 -4.38746e-05
3.66779e-05 0.000450179 -7.72735e-06
-4.38746e-05 -7.72735e-06 0.000426919
0.00196047 0.000180287 1.48338e-07
0.000180287 0.000165349 1.22482e-06
1.48338e-07 1.22482e-06 5.63677e-05
0.00167629 0.000246912 -6.00246e-07
0.000246912 6.21976e-05 -9.47138e-08
-6.00246e-07 -9.47138e-08 -7.58442e-05
0.00139836 0.000272469 -2.0923e-08
0.000272469 3.26566e-05 -2.1918e-06
-2.0923e-08 -2.1918e-06 -0.000122292
0.00183405 0.000246396 3.17958e-07
0.000246396 0.000219411 -1.78957e-06
3.17958e-07 -1.78957e-06 6.83904e-05
0.00193573 0.000192336 -3.87036e-07
0.000192336 0.000123999 -1.65034e-07
-3.87036e-07 -1.65034e-07 2.56444e-05
0.00159027 0.000289582 1.4434e-06
0.000289582 -1.23705e-06 -5.11001e-07
1.4434e-06 -5.11001e-07 -0.000149374
0.0018179 0.000201647 9.04824e-06
0.000201647 6.51309e-05 -5.3048e-07
9.04824e-06 -5.3048e-07 -3.51585e-05
0.00195158 2.55654e-05 -3.53279e-07
2.55654e-05 0.000120631 7.36234e-07
-3.53279e-07 7.36234e-07 5.18615e-05
0.00189174 3.24218e-05 -1.24283e-07
3.24218e-05 5.55273e-05 -4.26905e-09
-1.24283e-07 -4.26905e-09 1.1976e-06
0.00206587 4.48985e-05 -7.21232e-06
4.48985e-05 0.000140859 -1.66741e-06
-7.21232e-06 -1.66741e-06 8.86299e-05
0.00160901 -1.40049e-05 -1.39727e-06
-1.40049e-05 -3.03364e-05 2.73617e-07
-1.39727e-06 2.73617e-07 -0.000111809
0.00191674 -6.40752e-05 2.98832e-06
-6.40752e-05 1.79827e-05 4.59948e-07
2.98832e-06 4.59948e-07 -1.3102e-05
0.0018793 -4.51305e-05 -9.71539e-07
-4.51305e-05 9.00878e-05 5.9597e-07
-9.71539e-07 5.9597e-07 2.00626e-05
0.00197317 -4.97301e-05 3.6866e-07
-4.97301e-05 0.000209052 -6.51177e-07
3.6866e-07 -6.51177e-07 0.000114243
0.00184991 -0.00011798 1.14319e-07
-0.00011798 8.88035e-05 -5.23832e-08
1.14319e-07 -5.23832e-08 1.15525e-05
0.00178743 -9.56898e-05 1.48012e-06
-9.56898e-05 0.000109714 -6.17929e-07
1.48012e-06 -6.17929e-07 5.13554e-06
0.00165721 -8.12218e-05 4.56313e-08
-8.12218e-05 0.000111059 -6.41433e-07
4.56313e-08 -6.41433e-07 -1.50258e-05
0.00176576 -0.000131996 -1.10502e-06
-0.000131996 0.000124173 4.78901e-07
-1.10502e-06 4.78901e-07 1.12265e-05
0.00159775 -0.000111207 -1.70826e-07
-0.000111207 0.000110175 2.19182e-09
-1.70826e-07 2.19182e-09 -2.19944e-05
0.00137897 -8.9867e-05 -4.80557e-06
-8.9867e-05 8.15637e-05 1.09566e-06
-4.80557e-06 1.09566e-06 -5.48418e-05
0.0015437 -0.000136316 7.27836e-07
-0.000136316 0.000110147 1.47939e-07
7.27836e-07 1.47939e-07 -2.84995e-05
0.00134706 -0.000112282 -1.10555e-07
-0.000112282 7.95284e-05 1.24785e-07
-1.10555e-07 1.24785e-07 -5.95237e-05
0.00108066 -9.10172e-05 -1.17175e-05
-9.10172e-05 1.68079e-05 3.56484e-06
-1.17175e-05 3.56484e-06 -0.000101881
0.0013484 -0.000131774 5.54458e-06
-0.000131774 9.36745e-05 -1.666e-06
5.54458e-06 -1.666e-06 -4.74611e-05
0.00107254 -0.000105061 1.09758e-07
-0.000105061 2.0583e-05 1.52652e-07
1.09758e-07 1.52652e-07 -9.79611e-05
0.0023811 -9.76801e-05 -3.25133e-05
-9.76801e-05 0.00092055 5.64206e-06
-3.25133e-05 5.64206e-06 0.000862875
0.00103628 -0.000117574 1.17648e-05
-0.000117574 9.60684e-06 -4.76701e-06
1.17648e-05 -4.76701e-06 -0.000109829
0.00243996 -0.000118173 2.93074e-05
-0.000118173 0.000958986 -3.07874e-06
2.93074e-05 -3.07874e-06 0.000902233
0.00169445 -5.67982e-05 -0.000146887
-5.67982e-05 0.00061355 1.59711e-05
-0.000146887 1.59711e-05 0.00059441
0.00258166 -0.000142833 9.29207e-05
-0.000142833 0.00104424 -1.35813e-05
9.29207e-05 -1.35813e-05 0.000986486
0.00147691 4.19394e-06 -7.231e-05
4.19394e-06 0.000503076 6.3201e-06
-7.231e-05 6.3201e-06 0.000473516
0.00493375 0.000272181 -1.40693e-06
0.000272181 0.00252773 -4.36332e-06
-1.40693e-06 -4.36332e-06 0.0024821
0.00175863 0.000169032 5.32215e-07
0.000169032 0.000107525 7.99347e-07
5.32215e-07 7.99347e-07 -1.95736e-05
0.00170438 0.000182768 -9.05174e-07
0.000182768 0.000180874 -4.11853e-07
-9.05174e-07 -4.11853e-07 4.03097e-05
0.00180465 0.000210032 -2.59783e-06
0.000210032 0.000147855 6.85604e-08
-2.59783e-06 6.85604e-08 1.24027e-05
0.00180327 0.000190098 -4.19296e-06
0.000190098 0.000361021 -6.94192e-07
-4.19296e-06 -6.94192e-07 0.000218246
0.00155158 0.000197981 7.79348e-07
0.000197981 0.000135129 -5.6024e-07
7.79348e-07 -5.6024e-07 -1.23579e-05
0.00170444 0.000217951 6.04023e-07
0.000217951 0.000128598 -1.86309e-06
6.04023e-07 -1.86309e-06 -8.84912e-06
0.000950327 0.000144757 -1.11744e-05
0.000144757 -1.43457e-05 -3.59943e-06
-1.11744e-05 -3.59943e-06 -0.000144388
0.00124583 0.00018563 1.0565e-07
0.00018563 6.57615e-05 1.10993e-07
1.0565e-07 1.10993e-07 -8.82094e-05
0.0015667 0.000220981 3.4195e-06
0.000220981 0.000163041 -8.37554e-07
3.4195e-06 -8.37554e-07 2.22656e-06
0.00127466 0.000201122 6.01466e-06
0.000201122 0.000149999 1.8381e-06
6.01466e-06 1.8381e-06 -1.94393e-05
0.000930961 0.000146981 -9.1127e-07
0.000146981 3.52962e-05 3.75643e-07
-9.1127e-07 3.75643e-07 -0.000101086
0.00069766 0.000160201 -2.05627e-05
0.000160201 3.23468e-07 -1.10932e-05
-2.05627e-05 -1.10932e-05 -7.97099e-05
0.000748699 0.000121847 4.88369e-06
0.000121847 4.14568e-06 4.45888e-06
4.88369e-06 4.45888e-06 -0.000124927
0.000622252 0.000102243 -4.67979e-07
0.000102243 -1.85933e-05 1.14563e-07
-4.67979e-07 1.14563e-07 -8.8191e-05
0.00453196 -0.00010084 -0.000137607
-0.00010084 0.00228062 -1.03783e-05
-0.000137607 -1.03783e-05 0.00226516
0.000448981 1.68995e-05 6.3511e-06
1.68995e-05 -0.000102444 8.66799e-06
6.3511e-06 8.66799e-06 -0.000154964
0.00369474 -0.000149664 -7.18497e-06
-0.000149664 0.00179503 5.67715e-07
-7.18497e-06 5.67715e-07 0.0017833
0.00313168 -0.000145454 6.21779e-05
-0.000145454 0.0014642 1.65577e-06
6.21779e-05 1.65577e-06 0.00145644
0.00176385 9.77576e-05 -5.07892e-07
9.77576e-05 2.40759e-05 1.46374e-06
-5.07892e-07 1.46374e-06 -6.24017e-05
0.00177521 0.000116524 -3.12104e-07
0.000116524 -7.65444e-06 3.0515e-07
-3.12104e-07 3.0515e-07 -7.98765e-05
0.00187384 0.00011296 1.11891e-06
0.00011296 3.11946e-05 -1.09537e-06
1.11891e-06 -1.09537e-06 -3.86018e-05
0.00191092 0.000176848 7.74919e-07
0.000176848 0.000139643 -1.64626e-07
7.74919e-07 -1.64626e-07 3.20894e-05
0.00167072 0.000240843 1.28623e-07
0.000240843 6.83138e-05 -1.19075e-06
1.28623e-07 -1.19075e-06 -6.87358e-05
0.00172391 0.000182544 2.85938e-06
0.000182544 3.4029e-06 -1.39326e-06
2.85938e-06 -1.39326e-06 -9.59434e-05
0.00188636 2.65461e-05 -7.70065e-07
2.65461e-05 0.00012556 5.04436e-07
-7.70065e-07 5.04436e-07 4.28283e-05
0.00190663 2.64783e-05 3.58644e-07
2.64783e-05 9.7449e-05 -2.41879e-07
3.58644e-07 -2.41879e-07 2.7529e-05
0.00181125 3.24953e-05 3.93128e-06
3.24953e-05 1.49817e-05 1.60641e-07
3.93128e-06 1.60641e-07 -4.13305e-05
0.00172539 -2.01947e-05 -1.73938e-06
-2.01947e-05 3.74983e-05 -5.9207e-08
-1.73938e-06 -5.9207e-08 -4.29916e-05
0.00169673 -2.54311e-05 8.06982e-07
-2.54311e-05 6.07546e-05 -4.74257e-07
8.06982e-07 -4.74257e-07 -3.70925e-05
0.00182866 -4.69985e-05 5.89418e-07
-4.69985e-05 5.8896e-05 7.69717e-07
5.89418e-07 7.69717e-07 -1.16161e-05
0.00180433 -4.94808e-05 -7.81972e-07
-4.94808e-05 0.000114501 3.44047e-07
-7.81972e-07 3.44047e-07 1.61775e-05
0.00173638 -4.46102e-05 3.57765e-08
-4.46102e-05 0.000137751 -5.18239e-07
3.57765e-08 -5.18239e-07 2.02724e-05
0.00175259 -9.59372e-05 7.92427e-07
-9.59372e-05 9.0053e-05 9.22911e-08
7.92427e-07 9.22911e-08 -1.45714e-05
0.00163052 -8.23236e-05 4.74543e-07
-8.23236e-05 9.87267e-05 -3.4142e-07
4.74543e-07 -3.4142e-07 -2.73856e-05
0.00139767 -5.90301e-05 -4.94679e-06
-5.90301e-05 7.02588e-05 7.78384e-07
-4.94679e-06 7.78384e-07 -6.29381e-05
0.00157054 -0.000110821 2.02136e-07
-0.000110821 9.52607e-05 1.67169e-07
2.02136e-07 1.67169e-07 -3.68282e-05
0.00136671 -8.88755e-05 -1.88253e-08
-8.88755e-05 7.18048e-05 5.28704e-08
-1.88253e-08 5.28704e-08 -6.44326e-05
0.00108039 -7.08571e-05 -1.16114e-05
-7.08571e-05 5.77264e-06 2.93464e-06
-1.16114e-05 2.93464e-06 -0.000112151
0.00134786 -0.000111735 4.88155e-06
-0.000111735 7.80032e-05 -1.2217e-06
4.88155e-06 -1.2217e-06 -6.08074e-05
0.00107979 -8.83823e-05 -2.35583e-08
-8.83823e-05 1.54806e-05 1.56809e-07
-2.35583e-08 1.56809e-07 -0.000102637
0.00237592 -0.000112017 -3.55716e-05
-0.000112017 0.000913958 5.08526e-06
-3.55716e-05 5.08526e-06 0.0008546
0.00106928 -0.000102681 1.19157e-05
-0.000102681 1.75891e-05 -4.09214e-06
1.19157e-05 -4.09214e-06 -0.000100365
0.00244189 -0.000110698 2.82169e-05
-0.000110698 0.000952435 -2.41872e-06
2.82169e-05 -2.41872e-06 0.000897444
0.00173278 -4.95234e-05 -0.00014667
-4.95234e-05 0.000630143 1.3811e-05
-0.00014667 1.3811e-05 0.000611247
0.00254366 -0.000124765 9.17178e-05
-0.000124765 0.00101434 -1.20075e-05
9.17178e-05 -1.20075e-05 0.000961021
0.00147733 -1.2288e-05 -6.51805e-05
-1.2288e-05 0.000495808 6.07006e-06
-6.51805e-05 6.07006e-06 0.000470514
0.0013635 2.32592e-05 1.90046e-05
2.32592e-05 0.00044019 -4.21622e-06
1.90046e-05 -4.21622e-06 0.000407162
0.0018786 0.000101651 -4.15852e-08
0.000101651 0.000147208 1.90009e-06
-4.15852e-08 1.90009e-06 4.28457e-05
0.00162784 0.000148036 -1.61202e-06
0.000148036 0.000108008 2.54835e-07
-1.61202e-06 2.54835e-07 -2.78198e-05
0.00177895 0.000170127 -9.03094e-07
0.000170127 0.0001137 -8.74286e-08
-9.03094e-07 -8.74286e-08 -1.10349e-05
0.0016269 0.00015806 -4.29409e-06
0.00015806 0.000230817 -8.61368e-07
-4.29409e-06 -8.61368e-07 9.30068e-05
0.00169812 0.000180605 9.9219e-07
0.000180605 0.000180675 2.36488e-07
9.9219e-07 2.36488e-07 3.9574e-05
0.00169816 0.000206673 1.50001e-06
0.000206673 8.7247e-05 -1.19715e-07
1.50001e-06 -1.19715e-07 -4.93804e-05
0.00103305 0.000134694 -1.18412e-05
0.000134694 6.70935e-06 -4.12028e-06
-1.18412e-05 -4.12028e-06 -0.000115641
0.00145182 0.000175466 3.18422e-06
0.000175466 0.000160835 7.25167e-07
3.18422e-06 7.25167e-07 1.74642e-05
0.00148056 0.000199642 2.42831e-06
0.000199642 9.15747e-05 -8.5737e-07
2.42831e-06 -8.5737e-07 -5.5626e-05
0.000602865 0.000159093 -2.1395e-05
0.000159093 -7.42004e-05 -9.73056e-06
-2.1395e-05 -9.73056e-06 -0.000151992
0.00100081 0.000147732 -6.1727e-07
0.000147732 1.40058e-05 2.36627e-07
-6.1727e-07 2.36627e-07 -0.000116357
0.00121247 0.000184644 7.07941e-06
0.000184644 4.63593e-05 7.51803e-07
7.07941e-06 7.51803e-07 -0.000107663
0.000953035 0.000147401 8.48577e-06
0.000147401 4.69e-05 5.15802e-06
8.48577e-06 5.15802e-06 -8.94903e-05
0.000621051 0.000147778 1.17451e-06
0.000147778 -4.06029e-05 3.55532e-07
1.17451e-06 3.55532e-07 -0.000119421
0.00514776 -0.000102741 -0.00014107
-0.000102741 0.00264822 -1.57993e-05
-0.00014107 -1.57993e-05 0.0026184
0.000463279 8.89742e-05 1.13482e-05
8.89742e-05 -0.00010513 1.03322e-05
1.13482e-05 1.03322e-05 -0.000172
0.0042915 -0.000152724 -1.13876e-05
-0.000152724 0.00214902 9.98402e-07
-1.13876e-05 9.98402e-07 0.00212975
0.00353991 -0.000165927 7.64693e-05
-0.000165927 0.00170792 1.87087e-06
7.64693e-05 1.87087e-06 0.00169348
0.00176207 7.18422e-05 -6.14108e-07
7.18422e-05 5.93879e-05 3.98363e-07
-6.14108e-07 3.98363e-07 -2.92766e-05
0.00177011 9.73001e-05 5.30538e-07
9.73001e-05 3.09805e-05 5.08685e-07
5.30538e-07 5.08685e-07 -5.50425e-05
0.00173857 0.00011746 4.62263e-06
0.00011746 -3.1926e-05 -3.66787e-07
4.62263e-06 -3.66787e-07 -0.000103585
0.00187039 0.000173545 8.90294e-07
0.000173545 0.000118709 -1.0782e-06
8.90294e-07 -1.0782e-06 1.26196e-05
0.00173685 -7.49022e-06 1.41349e-06
-7.49022e-06 7.9326e-05 4.52652e-08
1.41349e-06 4.52652e-08 -2.02186e-05
0.00189493 2.17294e-05 -4.79746e-08
2.17294e-05 0.000128091 -2.05059e-07
-4.79746e-08 -2.05059e-07 4.58922e-05
0.00185484 2.67581e-05 1.4465e-06
2.67581e-05 7.03889e-05 -2.72642e-07
1.4465e-06 -2.72642e-07 -6.63762e-07
0.00184746 -2.38394e-05 -3.27608e-06
-2.38394e-05 0.000108313 -1.02282e-06
-3.27608e-06 -1.02282e-06 2.88429e-05
0.00168406 -1.82491e-05 -1.29876e-06
-1.82491e-05 5.32584e-05 -4.77755e-08
-1.29876e-06 -4.77755e-08 -4.33099e-05
0.00175449 -1.51479e-05 1.36913e-06
-1.51479e-05 0.000156562 -5.2526e-07
1.36913e-06 -5.2526e-07 4.29617e-05
0.00163767 -4.91849e-05 -1.71153e-06
-4.91849e-05 2.05422e-05 1.30182e-06
-1.71153e-06 1.30182e-06 -8.12846e-05
0.00168762 -4.48251e-05 3.13147e-07
-4.48251e-05 0.000113369 1.69466e-07
3.13147e-07 1.69466e-07 -6.60832e-06
0.00139615 -2.86468e-05 -4.26924e-06
-2.86468e-05 4.76877e-05 1.7793e-07
-4.26924e-06 1.7793e-07 -8.07175e-05
0.00161725 -8.20114e-05 8.66835e-07
-8.20114e-05 9.39087e-05 -5.1438e-08
8.66835e-07 -5.1438e-08 -3.2056e-05
0.00138653 -5.69916e-05 -1.97161e-07
-5.69916e-05 6.06467e-05 4.10422e-08
-1.97161e-07 4.10422e-08 -7.22918e-05
0.00108279 -4.66727e-05 -1.16972e-05
-4.66727e-05 -4.07092e-06 2.36714e-06
-1.16972e-05 2.36714e-06 -0.000121368
0.00135019 -8.58267e-05 4.39612e-06
-8.58267e-05 5.97792e-05 -9.60851e-07
4.39612e-06 -9.60851e-07 -7.61063e-05
0.00108268 -6.98642e-05 1.06463e-09
-6.98642e-05 6.72165e-06 1.39874e-07
1.06463e-09 1.39874e-07 -0.000110964
0.000643731 -6.1441e-05 -1.75731e-05
-6.1441e-05 -9.25559e-05 4.26415e-06
-1.75731e-05 4.26415e-06 -0.000159322
0.00108866 -8.61094e-05 1.16611e-05
-8.61094e-05 1.93993e-05 -3.30228e-06
1.16611e-05 -3.30228e-06 -9.8131e-05
0.00155191 -7.24377e-05 3.72063e-05
-7.24377e-05 0.000434153 -2.20761e-06
3.72063e-05 -2.20761e-06 0.000375301
0.00514586 -0.000111307 -0.000178493
-0.000111307 0.00258974 1.03463e-05
-0.000178493 1.03463e-05 0.00258893
0.00252268 -0.000102173 9.13529e-05
-0.000102173 0.000992752 -9.84509e-06
9.13529e-05 -9.84509e-06 0.000941987
0.00149092 -3.0072e-05 -5.85732e-05
-3.0072e-05 0.000497574 4.67338e-06
-5.85732e-05 4.67338e-06 0.000473587
0.00128051 -2.67255e-05 2.96669e-05
-2.67255e-05 0.000388483 -4.26597e-06
2.96669e-05 -4.26597e-06 0.000358447
0.00189519 7.37048e-05 7.93773e-07
7.37048e-05 0.000166906 1.20204e-06
7.93773e-07 1.20204e-06 6.89766e-05
0.00172878 9.91042e-05 -1.97029e-07
9.91042e-05 0.000147175 1.36358e-06
-1.97029e-07 1.36358e-06 2.38734e-05
0.00190156 9.91501e-05 3.54823e-07
9.91501e-05 0.000165571 2.08419e-08
3.54823e-07 2.08419e-08 6.03601e-05
0.00129977 0.00011938 -5.23315e-06
0.00011938 1.31895e-05 -8.02398e-07
-5.23315e-06 -8.02398e-07 -0.000122314
0.00169603 0.000148323 8.22117e-08
0.000148323 0.000146369 -1.32296e-08
8.22117e-08 -1.32296e-08 1.17349e-05
0.00180156 0.000171573 -5.0295e-07
0.000171573 0.000120629 -8.72002e-07
-5.0295e-07 -8.72002e-07 -1.80738e-06
0.000661535 9.87228e-05 -1.37838e-05
9.87228e-05 -0.000223222 -4.18979e-06
-1.37838e-05 -4.18979e-06 -0.000343634
0.00167339 0.000161564 1.71637e-06
0.000161564 0.000257211 4.44946e-07
1.71637e-06 4.44946e-07 0.000119081
0.00169083 0.000178622 2.37733e-06
0.000178622 0.000179886 2.81357e-07
2.37733e-06 2.81357e-07 3.81932e-05
0.000570218 0.000121171 -1.85045e-05
0.000121171 -0.000105407 -8.16551e-06
-1.85045e-05 -8.16551e-06 -0.000178496
0.000807554 0.000124674 6.12919e-07
0.000124674 -0.000122428 -6.04333e-08
6.12919e-07 -6.04333e-08 -0.000245689
0.00109741 0.000160655 8.68236e-06
0.000160655 -4.12068e-05 1.70171e-06
8.68236e-06 1.70171e-06 -0.00018513
0.00533359 -2.89792e-05 -0.00015232
-2.89792e-05 0.00272616 -1.44598e-05
-0.00015232 -1.44598e-05 0.0027103
0.000579205 0.000145302 1.465e-06
0.000145302 -8.53102e-05 5.87233e-07
1.465e-06 5.87233e-07 -0.000164333
0.0010417 0.000150332 1.1313e-05
0.000150332 3.69674e-05 4.23914e-06
1.1313e-05 4.23914e-06 -9.37074e-05
0.000493802 0.000138999 1.75469e-05
0.000138999 -0.00010986 1.11086e-05
1.75469e-05 1.11086e-05 -0.00018744
0.004898 -9.64755e-05 -5.22985e-07
-9.64755e-05 0.00248746 -5.26053e-07
-5.22985e-07 -5.26053e-07 0.00247067
0.00404318 -0.000185635 9.17937e-05
-0.000185635 0.00201135 3.92417e-06
9.17937e-05 3.92417e-06 0.00198839
0.00179549 4.46615e-05 -9.04265e-07
4.46615e-05 0.000103617 -4.21767e-07
-9.04265e-07 -4.21767e-07 4.43988e-06
0.00178512 7.11749e-05 -2.11641e-07
7.11749e-05 6.88019e-05 4.15713e-07
-2.11641e-07 4.15713e-07 -1.9856e-05
0.00177262 9.71056e-05 1.71684e-06
9.71056e-05 3.57951e-05 -4.71649e-07
1.71684e-06 -4.71649e-07 -4.97995e-05
0.00166699 2.89164e-06 1.60208e-06
2.89164e-06 9.86717e-05 -3.15027e-07
1.60208e-06 -3.15027e-07 -1.59551e-05
0.00172357 -5.10602e-06 1.31655e-07
-5.10602e-06 7.57579e-05 7.88511e-08
1.31655e-07 7.88511e-08 -2.26455e-05
0.00190156 1.52139e-05 -3.85017e-07
1.52139e-05 0.000129638 -2.06473e-07
-3.85017e-07 -2.06473e-07 4.79394e-05
0.00166388 -1.2415e-05 -2.18866e-06
-1.2415e-05 4.15137e-05 5.3865e-07
-2.18866e-06 5.3865e-07 -5.37872e-05
0.00174206 -1.13111e-05 1.09941e-06
-1.13111e-05 0.000148477 -1.58051e-07
1.09941e-06 -1.58051e-07 3.50577e-05
0.00171988 -9.16193e-06 -2.1146e-06
-9.16193e-06 0.000228096 -1.98903e-07
-2.1146e-06 -1.98903e-07 0.000106216
0.00163716 -4.50427e-05 3.88274e-07
-4.50427e-05 8.82623e-05 7.18665e-07
3.88274e-07 7.18665e-07 -3.42252e-05
0.00155796 -2.85353e-05 2.72772e-09
-2.85353e-05 0.00013909 6.5407e-08
2.72772e-09 6.5407e-08 1.11766e-05
0.000783533 -2.04385e-05 -1.35083e-05
-2.04385e-05 -0.000183468 1.6446e-06
-1.35083e-05 1.6446e-06 -0.000302331
0.00138216 -5.71924e-05 4.18666e-06
-5.71924e-05 5.46973e-05 -6.8714e-07
4.18666e-06 -6.8714e-07 -7.81657e-05
0.00107989 -4.36888e-05 2.88879e-08
-4.36888e-05 -6.23577e-06 1.34984e-07
2.88879e-08 1.34984e-07 -0.000123205
0.000645552 -2.03136e-05 -1.71168e-05
-2.03136e-05 -9.85641e-05 2.87692e-06
-1.71168e-05 2.87692e-06 -0.000165728
0.00108644 -6.78428e-05 1.16594e-05
-6.78428e-05 8.42798e-06 -2.66173e-06
1.16594e-05 -2.66173e-06 -0.000108907
0.000656286 -4.6816e-05 -2.03782e-07
-4.6816e-05 -8.48606e-05 2.65726e-07
-2.03782e-07 2.65726e-07 -0.000152328
0.00520026 1.25263e-06 -0.000167396
1.25263e-06 0.0026156 6.44581e-06
-0.000167396 6.44581e-06 0.00261739
0.000686265 -5.8234e-05 1.61373e-05
-5.8234e-05 -6.46587e-05 -6.07614e-06
1.61373e-05 -6.07614e-06 -0.000132239
0.00328477 -6.46604e-05 8.30638e-05
-6.46604e-05 0.00152413 -1.99843e-06
8.30638e-05 -1.99843e-06 0.00150779
0.00121527 -5.34475e-05 3.48942e-05
-5.34475e-05 0.000351776 -4.57316e-06
3.48942e-05 -4.57316e-06 0.000319569
0.00180525 6.63295e-05 1.02382e-07
6.63295e-05 0.000133825 2.14164e-07
1.02382e-07 2.14164e-07 3.09435e-05
0.00160577 5.62974e-05 1.0622e-06
5.62974e-05 7.45424e-05 1.54512e-06
1.0622e-06 1.54512e-06 -4.33571e-05
0.00187736 7.10508e-05 -1.7425e-07
7.10508e-05 0.000157086 -2.12812e-07
-1.7425e-07 -2.12812e-07 5.95254e-05
0.00141222 8.4851e-05 -4.01286e-06
8.4851e-05 6.48748e-05 -2.46164e-07
-4.01286e-06 -2.46164e-07 -6.55096e-05
0.00168293 9.74097e-05 4.90651e-07
9.74097e-05 0.000118747 1.38644e-07
4.90651e-07 1.38644e-07 -5.73763e-06
0.00192408 9.6406e-05 -5.10355e-07
9.6406e-05 0.000183789 -1.69974e-06
-5.10355e-07 -1.69974e-06 7.77567e-05
0.000674771 7.87099e-05 -1.35474e-05
7.87099e-05 -0.000232197 -3.17214e-06
-1.35474e-05 -3.17214e-06 -0.000350499
0.00152661 0.000126289 -9.84506e-07
0.000126289 0.000144397 -9.61299e-08
-9.84506e-07 -9.61299e-08 9.8064e-06
0.00176491 0.000148497 1.78013e-06
0.000148497 0.000185315 -4.60444e-07
1.78013e-06 -4.60444e-07 5.18961e-05
0.000585481 8.65839e-05 -1.70023e-05
8.65839e-05 -0.000111526 -6.31868e-06
-1.70023e-05 -6.31868e-06 -0.00018014
0.000651534 9.90792e-05 -2.80462e-06
9.90792e-05 -0.000229109 -5.91968e-07
-2.80462e-06 -5.91968e-07 -0.000350099
0.00172206 0.000165229 7.95101e-06
0.000165229 0.000284858 1.88394e-06
7.95101e-06 1.88394e-06 0.000146391
0.00529577 5.69047e-05 -0.000169767
5.69047e-05 0.0026804 -1.28756e-05
-0.000169767 -1.28756e-05 0.0026775
0.000565298 0.000113534 7.66044e-07
0.000113534 -0.000107796 2.47383e-07
7.66044e-07 2.47383e-07 -0.000181559
0.00058175 0.000114879 1.18222e-05
0.000114879 -0.000251787 3.51859e-06
1.18222e-05 3.51859e-06 -0.000375991
0.00521682 -1.37659e-05 1.13558e-05
-1.37659e-05 0.00265655 -2.06791e-07
1.13558e-05 -2.06791e-07 0.00264388
0.000534228 0.000131482 1.79736e-05
0.000131482 -0.000108362 1.00963e-05
1.79736e-05 1.00963e-05 -0.000188556
0.00464921 -0.00015221 0.000116249
-0.00015221 0.00235231 7.06902e-06
0.000116249 7.06902e-06 0.00233189
0.00176532 3.22726e-05 1.60227e-07
3.22726e-05 0.000145654 -3.35244e-07
1.60227e-07 -3.35244e-07 3.34721e-05
0.00174859 4.2788e-05 -6.6222e-07
4.2788e-05 8.23686e-05 2.06854e-07
-6.6222e-07 2.06854e-07 -1.76905e-05
0.00180809 7.02852e-05 6.22539e-07
7.02852e-05 7.81687e-05 -4.71317e-08
6.22539e-07 -4.71317e-08 -1.04873e-05
0.00169416 -3.29998e-06 -1.83031e-06
-3.29998e-06 0.000217732 -2.48325e-07
-1.83031e-06 -2.48325e-07 9.82481e-05
0.00169994 1.5494e-06 5.26468e-07
1.5494e-06 0.000116765 4.15088e-08
5.26468e-07 4.15088e-08 3.45269e-06
0.00172144 -9.21063e-07 7.38328e-07
-9.21063e-07 7.81052e-05 -3.98238e-08
7.38328e-07 -3.98238e-08 -1.91482e-05
0.00173137 -7.99568e-06 5.03289e-07
-7.99568e-06 0.000141383 4.97697e-07
5.03289e-07 4.97697e-07 2.8124e-05
0.00172548 -8.59187e-06 2.10722e-06
-8.59187e-06 0.000230822 -2.37965e-07
2.10722e-06 -2.37965e-07 0.000108923
0.000786902 -7.47092e-06 -1.27296e-05
-7.47092e-06 -0.000183366 5.93939e-07
-1.27296e-05 5.93939e-07 -0.000300124
0.00172247 -2.85848e-05 5.10487e-06
-2.85848e-05 0.000232089 -2.93223e-07
5.10487e-06 -2.93223e-07 0.000104668
0.000934064 -1.93358e-05 -2.55573e-06
-1.93358e-05 -9.79061e-05 3.41452e-07
-2.55573e-06 3.41452e-07 -0.000215492
0.000661145 -6.12917e-06 -1.75044e-05
-6.12917e-06 -9.69449e-05 1.88128e-06
-1.75044e-05 1.88128e-06 -0.000164104
0.00108147 -4.19847e-05 1.14519e-05
-4.19847e-05 -5.86247e-06 -2.09333e-06
1.14519e-05 -2.09333e-06 -0.000122601
0.000643342 -2.36098e-05 5.10359e-07
-2.36098e-05 -0.000101132 -7.14061e-10
5.10359e-07 -7.14061e-10 -0.00016763
0.00524148 -8.98338e-05 -0.000178925
-8.98338e-05 0.00264265 5.79893e-06
-0.000178925 5.79893e-06 0.00264234
0.000647432 -3.20207e-05 1.62508e-05
-3.20207e-05 -9.10213e-05 -3.42751e-06
1.62508e-05 -3.42751e-06 -0.000157895
0.00520205 -3.37825e-05 9.20113e-06
-3.37825e-05 0.00261844 -2.09272e-08
9.20113e-06 -2.09272e-08 0.0026194
0.001505 -1.37752e-05 0.000152161
-1.37752e-05 0.000499699 -7.4544e-06
0.000152161 -7.4544e-06 0.000483745
0.001665 4.45775e-05 1.13261e-06
4.45775e-05 0.00010843 3.56427e-07
1.13261e-06 3.56427e-07 -7.05534e-06
0.00177748 7.01849e-05 -1.86775e-06
7.01849e-05 0.000112427 -2.62838e-07
-1.86775e-06 -2.62838e-07 1.10729e-05
0.00143403 4.79987e-05 -3.50211e-06
4.79987e-05 7.66081e-05 4.68172e-08
-3.50211e-06 4.68172e-08 -4.87658e-05
0.00160864 5.53866e-05 4.41671e-07
5.53866e-05 7.72537e-05 1.72089e-08
4.41671e-07 1.72089e-08 -4.06939e-05
0.00185776 6.85314e-05 -9.58208e-07
6.85314e-05 0.000146061 -1.9695e-06
-9.58208e-07 -1.9695e-06 4.88732e-05
0.00109397 6.49991e-05 -1.15372e-05
6.49991e-05 -1.92679e-06 -2.05149e-06
-1.15372e-05 -2.05149e-06 -0.000115313
0.00139586 8.44455e-05 5.21293e-08
8.44455e-05 5.63992e-05 1.36453e-07
5.21293e-08 1.36453e-07 -7.41063e-05
0.00163571 9.57406e-05 4.33152e-07
9.57406e-05 8.95871e-05 -8.1608e-07
4.33152e-07 -8.1608e-07 -3.60903e-05
0.000608141 6.03671e-05 -1.6579e-05
6.03671e-05 -0.000113293 -4.61409e-06
-1.6579e-05 -4.61409e-06 -0.000179754
0.00085643 8.60094e-05 -3.24788e-06
8.60094e-05 -0.000128207 -4.46257e-07
-3.24788e-06 -4.46257e-07 -0.000245909
0.00176106 0.000133397 5.21882e-06
0.000133397 0.000279887 9.63691e-07
5.21882e-06 9.63691e-07 0.000146207
0.00528335 0.000115403 -0.000188571
0.000115403 0.00266591 -1.233e-05
-0.000188571 -1.233e-05 0.00266564
0.000589117 8.39459e-05 7.20769e-08
8.39459e-05 -0.000109528 1.26198e-07
7.20769e-08 1.26198e-07 -0.000178267
0.00063777 9.93963e-05 8.21692e-06
9.93963e-05 -0.000237285 2.91252e-06
8.21692e-06 2.91252e-06 -0.000358825
0.00523297 7.49746e-05 1.03036e-05
7.49746e-05 0.00265021 1.50652e-06
1.03036e-05 1.50652e-06 0.00264495
0.000565014 0.000104885 1.70753e-05
0.000104885 -0.000108095 7.89736e-06
1.70753e-05 7.89736e-06 -0.000182126
0.00511344 -2.14703e-05 0.000155424
-2.14703e-05 0.00258631 9.99713e-06
0.000155424 9.99713e-06 0.00258155
0.00171017 2.27567e-05 -1.78056e-06
2.27567e-05 0.000229028 -1.62584e-07
-1.78056e-06 -1.62584e-07 0.000110781
0.0017358 2.76945e-05 -3.75899e-07
2.76945e-05 0.000131497 1.201e-07
-3.75899e-07 1.201e-07 1.85175e-05
0.00170463 4.07086e-05 -8.91573e-07
4.07086e-05 6.34019e-05 2.51056e-07
-8.91573e-07 2.51056e-07 -3.75036e-05
0.00077188 -1.00393e-05 -1.31621e-05
-1.00393e-05 -0.000188033 -2.60844e-07
-1.31621e-05 -2.60844e-07 -0.000302597
0.00171666 3.00871e-06 2.28247e-06
3.00871e-06 0.000230548 -6.59252e-08
2.28247e-06 -6.59252e-08 0.000111066
0.00172681 1.11678e-07 4.57809e-07
1.11678e-07 0.00013167 2.12382e-07
4.57809e-07 2.12382e-07 1.96823e-05
0.00173124 -8.34789e-06 6.2296e-06
-8.34789e-06 0.000233674 1.74627e-08
6.2296e-06 1.74627e-08 0.000111753
0.00077289 -7.31107e-06 -1.94454e-06
-7.31107e-06 -0.000192011 1.12663e-07
-1.94454e-06 1.12663e-07 -0.000309033
0.000671089 -1.88342e-05 -1.76219e-05
-1.88342e-05 -9.39659e-05 6.37749e-07
-1.76219e-05 6.37749e-07 -0.000160571
0.00107586 -1.74735e-05 9.2326e-06
-1.74735e-05 -1.73033e-05 -1.1962e-06
9.2326e-06 -1.1962e-06 -0.000133599
0.000645961 3.30783e-06 1.91198e-07
3.30783e-06 -0.000105814 1.03134e-07
1.91198e-07 1.03134e-07 -0.000172735
0.00533187 -7.11561e-05 -0.000188624
-7.11561e-05 0.00269114 3.83682e-06
-0.000188624 3.83682e-06 0.00269222
0.000649541 -1.91462e-05 1.69807e-05
-1.91462e-05 -9.74211e-05 -2.30572e-06
1.69807e-05 -2.30572e-06 -0.000164341
0.00528475 1.49313e-05 -2.91169e-06
1.49313e-05 0.00266088 8.8436e-07
-2.91169e-06 8.8436e-07 0.0026642
0.0052326 -5.38659e-05 0.000180031
-5.38659e-05 0.00263217 -5.44054e-06
0.000180031 -5.44054e-06 0.00263535
0.00144011 3.06244e-05 -3.52335e-06
3.06244e-05 8.25577e-05 -1.68575e-07
-3.52335e-06 -1.68575e-07 -4.04737e-05
0.00166919 4.73922e-05 -2.17396e-07
4.73922e-05 0.000109821 -6.63764e-07
-2.17396e-07 -6.63764e-07 -3.62078e-06
0.00174953 7.4229e-05 -3.13899e-06
7.4229e-05 9.09711e-05 -2.85431e-07
-3.13899e-06 -2.85431e-07 -8.86519e-06
0.00108928 3.47407e-05 -1.1385e-05
3.47407e-05 -7.09612e-06 -1.4941e-06
-1.1385e-05 -1.4941e-06 -0.000118131
0.00140075 4.80505e-05 2.10073e-07
4.80505e-05 5.67737e-05 7.87309e-08
2.10073e-07 7.87309e-08 -6.89054e-05
0.00161074 5.44248e-05 -4.03554e-07
5.44248e-05 7.97398e-05 -1.4457e-06
-4.03554e-07 -1.4457e-06 -3.82542e-05
0.000636107 3.58911e-05 -1.61749e-05
3.58911e-05 -0.000105312 -3.4958e-06
-1.61749e-05 -3.4958e-06 -0.000170974
0.00108367 6.66106e-05 1.10216e-07
6.66106e-05 -7.34958e-06 2.00385e-07
1.10216e-07 2.00385e-07 -0.000121116
0.00137875 8.40098e-05 4.4256e-06
8.40098e-05 4.73953e-05 5.93275e-07
4.4256e-06 5.93275e-07 -8.32369e-05
0.0052691 0.000127354 -0.000200442
0.000127354 0.00265797 -1.0874e-05
-0.000200442 -1.0874e-05 0.00265708
0.000626917 6.13686e-05 2.221e-07
6.13686e-05 -0.000102367 1.69497e-07
2.221e-07 1.69497e-07 -0.000169034
0.00103299 9.32196e-05 8.44992e-06
9.32196e-05 -2.71639e-05 2.40166e-06
8.44992e-06 2.40166e-06 -0.000144226
0.00523227 0.00012842 5.22858e-06
0.00012842 0.00264354 1.8256e-06
5.22858e-06 1.8256e-06 0.00264064
0.000595985 8.16653e-05 1.61153e-05
8.16653e-05 -0.000105502 6.41157e-06
1.61153e-05 6.41157e-06 -0.000174229
0.00520553 9.50846e-05 0.000177771
9.50846e-05 0.00263072 1.3259e-05
0.000177771 1.3259e-05 0.00262855
0.00111483 1.01215e-05 -1.20152e-05
1.01215e-05 8.08685e-06 -7.16425e-07
-1.20152e-05 -7.16425e-07 -0.000102541
0.00154139 1.75173e-05 2.57679e-06
1.75173e-05 0.000133498 8.17525e-08
2.57679e-06 8.17525e-08 1.39522e-05
0.00170307 2.21552e-05 -6.75588e-07
2.21552e-05 0.000115078 2.14371e-07
-6.75588e-07 2.14371e-07 1.28998e-06
0.000681669 2.46245e-05 -1.79854e-05
2.46245e-05 -9.26977e-05 -4.74202e-07
-1.79854e-05 -4.74202e-07 -0.000153593
0.0007592 -4.42776e-06 -2.13714e-06
-4.42776e-06 -0.000196273 1.3265e-08
-2.13714e-06 1.3265e-08 -0.000311047
0.00174 9.3495e-06 6.45082e-06
9.3495e-06 0.000243796 1.19444e-07
6.45082e-06 1.19444e-07 0.000124309
0.000755686 -6.73753e-06 8.79712e-06
-6.73753e-06 -0.000202514 -3.24278e-07
8.79712e-06 -3.24278e-07 -0.000319787
0.00065461 -1.62254e-06 1.8244e-07
-1.62254e-06 -0.000103427 2.97545e-07
1.8244e-07 2.97545e-07 -0.000169763
0.00536517 5.2392e-05 -0.000196813
5.2392e-05 0.0027068 -9.10382e-07
-0.000196813 -9.10382e-07 0.00270988
0.000627921 1.24248e-05 1.6708e-05
1.24248e-05 -0.000116423 -1.12169e-06
1.6708e-05 -1.12169e-06 -0.000182995
0.00534344 -7.0355e-05 -7.85826e-06
-7.0355e-05 0.00269742 1.28225e-06
-7.85826e-06 1.28225e-06 0.00269833
0.00529602 4.10274e-05 0.000173695
4.10274e-05 0.00266808 -2.41984e-06
0.000173695 -2.41984e-06 0.00267036
0.00109824 1.79074e-05 -1.18911e-05
1.79074e-05 -2.06094e-06 -1.25099e-06
-1.18911e-05 -1.25099e-06 -0.000112212
0.00137677 2.99263e-05 4.33612e-08
2.99263e-05 4.53049e-05 -5.74687e-08
4.33612e-08 -5.74687e-08 -7.70312e-05
0.00167666 5.00586e-05 -1.55857e-06
5.00586e-05 0.000112968 -1.21625e-06
-1.55857e-06 -1.21625e-06 1.56808e-06
0.00256473 3.39203e-05 -9.79916e-05
3.39203e-05 0.000994548 -2.89724e-06
-9.79916e-05 -2.89724e-06 0.000948023
0.0010962 3.69985e-05 1.57437e-07
3.69985e-05 -3.63253e-06 1.90568e-07
1.57437e-07 1.90568e-07 -0.000114852
0.00136668 4.7961e-05 4.06828e-06
4.7961e-05 3.64822e-05 1.79093e-07
4.06828e-06 1.79093e-07 -8.95057e-05
0.005248 0.000118571 -0.000203865
0.000118571 0.00264844 -8.5602e-06
-0.000203865 -8.5602e-06 0.00264675
0.000666051 4.588e-05 5.23955e-07
4.588e-05 -8.70439e-05 2.42174e-07
5.23955e-07 2.42174e-07 -0.000153541
0.00108491 6.85305e-05 1.15226e-05
6.85305e-05 -6.47404e-06 2.44452e-06
1.15226e-05 2.44452e-06 -0.000120598
0.00527599 0.000142139 7.81228e-07
0.000142139 0.00266607 1.55773e-06
7.81228e-07 1.55773e-06 0.00266338
0.000653989 6.2107e-05 1.66617e-05
6.2107e-05 -8.64628e-05 5.20133e-06
1.66617e-05 5.20133e-06 -0.00015338
0.00518988 0.000148225 0.000186522
0.000148225 0.00262379 1.44218e-05
0.000186522 1.44218e-05 0.00261911
0.000716835 7.80604e-06 -1.61842e-05
7.80604e-06 -6.41318e-05 -1.73862e-06
-1.61842e-05 -1.73862e-06 -0.000129989
0.000933889 7.83404e-06 6.28158e-07
7.83404e-06 -9.46007e-05 2.27621e-07
6.28158e-07 2.27621e-07 -0.000206598
0.00136713 1.20595e-05 6.01452e-06
1.20595e-05 3.48851e-05 2.35623e-07
6.01452e-06 2.35623e-07 -8.59324e-05
0.00527613 -9.17493e-05 -0.000181064
-9.17493e-05 0.00267141 -6.99142e-07
-0.000181064 -6.99142e-07 0.0026654
0.000654973 7.82087e-06 -3.18614e-07
7.82087e-06 -0.00010343 2.09565e-07
-3.18614e-07 2.09565e-07 -0.000166734
0.000752868 8.62521e-07 8.79666e-06
8.62521e-07 -0.000200962 1.6697e-07
8.79666e-06 1.6697e-07 -0.000315934
0.0006273 1.84872e-05 1.70744e-05
1.84872e-05 -0.000118716 2.07214e-07
1.70744e-05 2.07214e-07 -0.000184853
0.00534092 1.79832e-05 2.88133e-06
1.79832e-05 0.00269629 -1.931e-07
2.88133e-06 -1.931e-07 0.0026968
0.00536978 2.32566e-05 0.00018545
2.32566e-05 0.00270529 -6.02918e-07
0.00018545 -6.02918e-07 0.00270949
0.00260839 9.58566e-07 -9.6567e-05
9.58566e-07 0.00101545 -1.98284e-06
-9.6567e-05 -1.98284e-06 0.00096943
0.00111258 2.05369e-05 3.64328e-09
2.05369e-05 5.56794e-06 5.89467e-08
3.64328e-09 5.89467e-08 -0.000104662
0.00131155 2.94281e-05 3.79414e-06
2.94281e-05 7.04558e-06 -2.94459e-08
3.79414e-06 -2.94459e-08 -0.000114597
0.00495001 -6.54426e-05 -4.22868e-05
-6.54426e-05 0.00248783 -1.96533e-07
-4.22868e-05 -1.96533e-07 0.00247301
0.000677953 3.62675e-05 -3.81556e-08
3.62675e-05 -8.27371e-05 2.36995e-07
-3.81556e-08 2.36995e-07 -0.00014881
0.00111528 3.97786e-05 1.15006e-05
3.97786e-05 6.41718e-06 1.9228e-06
1.15006e-05 1.9228e-06 -0.000104952
0.00528573 8.20438e-05 -1.1366e-05
8.20438e-05 0.00266494 -4.91121e-07
-1.1366e-05 -4.91121e-07 0.00266595
0.000695432 6.33879e-05 1.7851e-05
6.33879e-05 -6.89634e-05 4.36194e-06
1.7851e-05 4.36194e-06 -0.000136322
0.00526263 0.000163219 0.000196281
0.000163219 0.00266441 1.4058e-05
0.000196281 1.4058e-05 0.0026589
0.00165634 -3.81396e-05 -0.000163685
-3.81396e-05 0.000578246 4.20298e-07
-0.000163685 4.20298e-07 0.000563038
0.00164286 1.95277e-05 -3.96281e-05
1.95277e-05 0.00046132 2.39833e-07
-3.96281e-05 2.39833e-07 0.000408341
0.000759463 8.03049e-06 1.16877e-05
8.03049e-06 -0.000193603 9.4037e-07
1.16877e-05 9.4037e-07 -0.000306993
0.00528982 -3.74876e-05 8.45553e-06
-3.74876e-05 0.00267479 1.8817e-07
8.45553e-06 1.8817e-07 0.00267235
0.000654787 -8.10449e-06 1.75633e-05
-8.10449e-06 -0.000100267 9.68968e-07
1.75633e-05 9.68968e-07 -0.000165352
0.00535257 -5.2716e-05 0.000200982
-5.2716e-05 0.00270279 -6.86229e-07
0.000200982 -6.86229e-07 0.00270425
0.00130599 -1.43275e-05 -2.0182e-05
-1.43275e-05 0.000397866 -7.85638e-07
-2.0182e-05 -7.85638e-07 0.000364092
0.00163743 1.04772e-05 -3.98608e-05
1.04772e-05 0.000462027 -2.7722e-07
-3.98608e-05 -2.7722e-07 0.000406832
0.00111448 2.1617e-05 1.16555e-05
2.1617e-05 6.46478e-06 1.39814e-06
1.16555e-05 1.39814e-06 -0.000103868
0.00328455 3.59508e-05 7.37939e-05
3.59508e-05 0.00152113 1.43064e-06
7.37939e-05 1.43064e-06 0.00150671
0.000686659 4.47448e-05 1.7952e-05
4.47448e-05 -7.75808e-05 3.57506e-06
1.7952e-05 3.57506e-06 -0.000143924
0.00530326 8.19509e-05 0.000186873
8.19509e-05 0.00267277 9.11304e-06
0.000186873 9.11304e-06 0.00267524
0.00522456 -2.62476e-05 -8.89524e-06
-2.62476e-05 0.00263999 -8.27983e-07
-8.89524e-06 -8.27983e-07 0.00263704
0.00066854 3.29722e-05 1.84281e-05
3.29722e-05 -9.58339e-05 1.75536e-06
1.84281e-05 1.75536e-06 -0.000156589
0.00523088 5.64029e-05 0.000185649
5.64029e-05 0.00263861 -5.85995e-07
0.000185649 -5.85995e-07 0.00263855
0.00327045 2.85244e-05 8.84461e-05
2.85244e-05 0.00151722 1.96311e-06
8.84461e-05 1.96311e-06 0.00150174
0.000692392 6.13306e-06 1.7518e-05
6.13306e-06 -7.63212e-05 2.51445e-06
1.7518e-05 2.51445e-06 -0.000141085
0.00527442 -3.91461e-05 0.000179914
-3.91461e-05 0.00265845 4.52973e-06
0.000179914 4.52973e-06 0.00265946
0.0052315 -0.000134314 0.000180047
-0.000134314 0.00265086 -1.527e-06
0.000180047 -1.527e-06 0.00264273
0.00523085 -2.58841e-05 0.000178382
-2.58841e-05 0.00263056 2.13547e-06
0.000178382 2.13547e-06 0.00263452
